#------------------------------------------------------------------------------
#$Date: 2016-02-14 06:40:26 +0200 (Sun, 14 Feb 2016) $
#$Revision: 176432 $
#$URL: svn://www.crystallography.net/cod/cif/1/51/41/1514163.cif $
#------------------------------------------------------------------------------
#
# This file is available in the Crystallography Open Database (COD),
# http://www.crystallography.net/
#
# All data on this site have been placed in the public domain by the
# contributors.
#
data_1514163
loop_
_publ_author_name
'McKellar, Scott C.'
'Graham, Alexander J.'
'Allan, David R.'
'Mohideen, M Infas H'
'Morris, Russell E.'
'Moggach, Stephen A.'
_publ_section_title
;
 The effect of pressure on the post-synthetic modification of a nanoporous
 metal-organic framework.
;
_journal_issue                   8
_journal_name_full               Nanoscale
_journal_page_first              4163
_journal_page_last               4173
_journal_paper_doi               10.1039/c3nr04161a
_journal_volume                  6
_journal_year                    2014
_chemical_formula_moiety         'C30 H24 Cu3 O21 .6(CH3CHO)'
_chemical_formula_sum            'C42 H48 Cu3 O27'
_chemical_formula_weight         1175.45
_space_group_IT_number           164
_symmetry_cell_setting           trigonal
_symmetry_space_group_name_Hall  '-P 3 2"'
_symmetry_space_group_name_H-M   'P -3 m 1'
_atom_sites_solution_hydrogens   difmap
_atom_sites_solution_primary     direct
_audit_creation_date             13-04-29
_audit_creation_method           CRYSTALS_ver_14.40
_cell_angle_alpha                90
_cell_angle_beta                 90
_cell_angle_gamma                120
_cell_formula_units_Z            2
_cell_length_a                   18.2591(16)
_cell_length_b                   18.2591(16)
_cell_length_c                   6.6274(6)
_cell_measurement_reflns_used    905
_cell_measurement_temperature    300
_cell_measurement_theta_max      19
_cell_measurement_theta_min      3
_cell_volume                     1913.5(3)
_computing_cell_refinement       'Apex2 (Bruker AXS, 2006)'
_computing_data_collection       'Apex2 (Bruker AXS, 2006)'
_computing_data_reduction        'Apex2 (Bruker AXS, 2006)'
_computing_molecular_graphics    'CAMERON (Watkin et al., 1996)'
_computing_publication_material  'CRYSTALS (Betteridge et al., 2003)'
_computing_structure_refinement  'CRYSTALS (Betteridge et al., 2003)'
_computing_structure_solution    'SIR92 (Altomare et al., 1994)'
_diffrn_ambient_pressure         0.2
_diffrn_ambient_temperature      300
_diffrn_measured_fraction_theta_full 0.900
_diffrn_measured_fraction_theta_max 0.852
_diffrn_measurement_device       Area
_diffrn_measurement_device_type  'Bruker Kappa Apex2'
_diffrn_measurement_method       \w/2\q
_diffrn_radiation_monochromator  graphite
_diffrn_radiation_type           'Mo K\a'
_diffrn_radiation_wavelength     0.71073
_diffrn_reflns_av_R_equivalents  0.176
_diffrn_reflns_limit_h_max       0
_diffrn_reflns_limit_h_min       -14
_diffrn_reflns_limit_k_max       16
_diffrn_reflns_limit_k_min       0
_diffrn_reflns_limit_l_max       6
_diffrn_reflns_limit_l_min       0
_diffrn_reflns_number            6204
_diffrn_reflns_theta_full        14.820
_diffrn_reflns_theta_max         19.760
_diffrn_reflns_theta_min         3.333
_diffrn_standards_number         0
_exptl_absorpt_coefficient_mu    1.633
_exptl_absorpt_correction_T_max  0.95
_exptl_absorpt_correction_T_min  0.61
_exptl_absorpt_correction_type   multi-scan
_exptl_absorpt_process_details   'SADABS (Siemens, 1996)'
_exptl_crystal_colour            blue
_exptl_crystal_density_diffrn    1.875
_exptl_crystal_density_method    'not measured'
_exptl_crystal_description       rod
_exptl_crystal_F_000             1206.00
_exptl_crystal_size_max          0.100
_exptl_crystal_size_mid          0.040
_exptl_crystal_size_min          0.030
_platon_squeeze_details
;
see above for details 
;
_refine_diff_density_max         0.69
_refine_diff_density_min         -0.71
_refine_ls_extinction_method     None
_refine_ls_goodness_of_fit_ref   1.1122
_refine_ls_hydrogen_treatment    noref
_refine_ls_matrix_type           full
_refine_ls_number_parameters     47
_refine_ls_number_reflns         333
_refine_ls_number_restraints     53
_refine_ls_R_factor_all          0.1949
_refine_ls_R_factor_gt           0.1102
_refine_ls_shift/su_max          0.0003853
_refine_ls_shift/su_mean         0.0000377
_refine_ls_structure_factor_coef F
_refine_ls_weighting_details
;
 Method, part 1, Chebychev polynomial, (Watkin, 1994, Prince, 1982) 
 [weight] = 1.0/[A~0~*T~0~(x)+A~1~*T~1~(x) ... +A~n-1~]*T~n-1~(x)] 
 where A~i~ are the Chebychev coefficients listed below and x= Fcalc/Fmax 
 Method = Robust Weighting (Prince, 1982) 
 W = [weight] * [1-(deltaF/6*sigmaF)^2^]^2^ 
 A~i~ are: 
 1.52 0.745 0.932 
;
_refine_ls_weighting_scheme      calc
_refine_ls_wR_factor_all         0.2535
_refine_ls_wR_factor_gt          0.1332
_refine_ls_wR_factor_ref         0.1332
_reflns_limit_h_max              0
_reflns_limit_h_min              -14
_reflns_limit_k_max              16
_reflns_limit_k_min              0
_reflns_limit_l_max              6
_reflns_limit_l_min              0
_reflns_number_gt                333
_reflns_number_total             568
_reflns_threshold_expression     I>2.0\s(I)
_oxford_diffrn_Wilson_B_factor   2.01
_oxford_diffrn_Wilson_scale      65.34
_oxford_refine_ls_r_factor_ref   0.1102
_oxford_refine_ls_scale          0.158(3)
_oxford_reflns_number_all        560
_oxford_reflns_threshold_expression_ref I>2.0\s(I)
_oxford_structure_analysis_title 'ST2040 in P-3m1'
_cod_data_source_file            c3nr04161a2.cif
_cod_data_source_block           ST1014
_cod_original_sg_symbol_Hall     '-P 3 2'
_cod_original_sg_symbol_H-M      'P -3 m 1 '
_cod_database_code               1514163
#BEGIN Tags that were not found in dictionaries:
_iucr_refine_instruction_details_constraints
;
BLOCK 
CONT SCALE 
CONT CU   (    1 ,X'S,U'S) 
CONT O    (    1 ,X'S,U[ISO])  UNTIL C    (    7 ) 
END                                                                             
;
_iucr_refine_instruction_details_restraints
;
NO 
REM   HREST   START (DO NOT REMOVE THIS LINE) 
REM   HREST   END (DO NOT REMOVE THIS LINE) 
REM   DELU   START (DO NOT REMOVE THIS LINE) 
VIBR .0, 0.00200 = O(1) TO C(1) 
VIBR .0, 0.00200 = O(2) TO C(1) 
VIBR .0, 0.00200 = C(1) TO C(2) 
VIBR .0, 0.00500 = O(1) TO O(2) 
VIBR .0, 0.00500 = C(2) TO O(2) 
VIBR .0, 0.00500 = C(2) TO O(1) 
VIBR .0, 0.00200 = C(2) TO C(3) 
VIBR .0, 0.00200 = C(2) TO C(5) 
VIBR .0, 0.00500 = C(3) TO C(1) 
VIBR .0, 0.00500 = C(5) TO C(1) 
VIBR .0, 0.00500 = C(5) TO C(3) 
VIBR .0, 0.00200 = O(4) TO C(6) 
VIBR .0, 0.00200 = O(4) TO C(7) 
VIBR .0, 0.00500 = C(7) TO C(6) 
VIBR .0, 0.00200 = C(3) TO C(4) 
VIBR .0, 0.00500 = C(4) TO C(2) 
VIBR .0, 0.00200 = C(6) TO C(4) 
VIBR .0, 0.00500 = O(4) TO O(4,5,1,0,1) 
VIBR .0, 0.00500 = C(4) TO O(4,5,1,0,1) 
VIBR .0, 0.00500 = C(4) TO O(4) 
VIBR .0, 0.00500 = C(2,5,1,0,1) TO C(2) 
VIBR .0, 0.00500 = C(3) TO C(6) 
VIBR .0, 0.00500 = C(3,5,1,0,1) TO C(6) 
VIBR .0, 0.00500 = C(3,5,1,0,1) TO C(3) 
VIBR .0, 0.00200 = C(7) TO C(7,-4,1,1,2,-1) 
VIBR .0, 0.00500 = O(4) TO C(7,-4,1,1,2,-1) 
REM   DELU   END (DO NOT REMOVE THIS LINE) 
REM   THERMSIM   START (DO NOT REMOVE THIS LINE) 
U(IJ) .0, 0.08000 = O(1) TO C(1) 
U(IJ) .0, 0.08000 = O(2) TO C(1) 
U(IJ) .0, 0.04000 = C(1) TO C(2) 
U(IJ) .0, 0.04000 = C(2) TO C(3) 
U(IJ) .0, 0.04000 = C(2) TO C(5) 
U(IJ) .0, 0.04000 = O(4) TO C(6) 
U(IJ) .0, 0.04000 = O(4) TO C(7) 
U(IJ) .0, 0.04000 = C(3) TO C(4) 
U(IJ) .0, 0.04000 = C(6) TO C(4) 
U(IJ) .0, 0.04000 = C(7) TO C(7,-4,1,1,2,-1) 
REM   THERMSIM   END (DO NOT REMOVE THIS LINE) 
DISTANCE 2.150000 , 0.050000 = CU(1) TO O(3) 
DISTANCE 1.950000 , 0.050000 = CU(1) TO O(1) 
DISTANCE 1.250000 , 0.050000 = O(1) TO C(1) 
DISTANCE 1.250000 , 0.050000 = C(1) TO O(2) 
DISTANCE 1.490000 , 0.050000 = C(1) TO C(2) 
DISTANCE 1.400000 , 0.050000 = C(2) TO C(5) 
DISTANCE 1.400000 , 0.050000 = C(2) TO C(3) 
DISTANCE 1.400000 , 0.050000 = C(3) TO C(4) 
DISTANCE 1.510000 , 0.050000 = C(4) TO C(6) 
DISTANCE 1.260000 , 0.050000 = C(6) TO O(4) 
DISTANCE 1.430000 , 0.050000 = O(4) TO C(7) 
DISTANCE 0.950000 , 0.050000 = C(7) TO H(71) 
DISTANCE 0.950000 , 0.050000 = C(7) TO H(72) 
DISTANCE 0.950000 , 0.050000 = C(7) TO H(73) 
ANGLE 94.800000 , 1.000000 = O(3) TO CU(1) TO O(1) 
ANGLE 123.000000 , 1.000000 = CU(1) TO O(1) TO C(1) 
ANGLE 120.000000 , 1.000000 = C(1) TO C(2) TO C(5) 
ANGLE 120.000000 , 1.000000 = C(5) TO C(2) TO C(3) 
ANGLE 120.000000 , 1.000000 = C(2) TO C(3) TO C(4) 
ANGLE 120.000000 , 1.000000 = C(3) TO C(4) TO C(6) 
ANGLE 118.000000 , 1.000000 = C(4) TO C(6) TO O(4) 
ANGLE 124.000000 , 1.000000 = C(6) TO O(4) TO C(7) 
ANGLE 118.000000 , 1.000000 = O(2) TO C(1) TO C(2) 
PLANAR 0.010000  C(1) C(2) C(5) C(3) C(4) C(6) O(4) C(7) 
END                                                                             
;
#END Tags that were not found in dictionaries
loop_
_symmetry_equiv_pos_as_xyz
x,y,z
-x,-y,-z
-y,x-y,z
y,-x+y,-z
-x+y,-x,z
x-y,x,-z
-x+y,y,z
x-y,-y,-z
x,x-y,z
-x,-x+y,-z
-y,-x,z
y,x,-z
loop_
_atom_site_label
_atom_site_type_symbol
_atom_site_fract_x
_atom_site_fract_y
_atom_site_fract_z
_atom_site_U_iso_or_equiv
_atom_site_occupancy
_atom_site_adp_type
_atom_site_refinement_flags_posn
_atom_site_refinement_flags_adp
Cu1 Cu 0.47513(12) 0.52487(12) 0.1565(5) 0.0454 1.0000 Uani DS T
O1 O 0.4384(10) 0.4121(10) 0.2572(18) 0.077(3) 1.0000 Uiso D U
O2 O 0.4812(11) 0.3715(10) -0.011(2) 0.079(3) 1.0000 Uiso D U
O3 O 0.4350(6) 0.5650(6) 0.417(2) 0.049(6) 1.0000 Uiso DS .
O4 O 0.2950(7) 0.0857(10) 0.809(2) 0.086(3) 1.0000 Uiso D U
C1 C 0.4478(7) 0.3590(10) 0.162(2) 0.078(3) 1.0000 Uiso D U
C2 C 0.4220(7) 0.2763(10) 0.261(2) 0.079(3) 1.0000 Uiso D U
C3 C 0.3811(8) 0.2562(11) 0.446(3) 0.080(3) 1.0000 Uiso D U
C4 C 0.3584(8) 0.1792(4) 0.536(3) 0.082(3) 1.0000 Uiso DS U
C5 C 0.4404(9) 0.2202(4) 0.169(3) 0.079(3) 1.0000 Uiso DS U
C6 C 0.3148(8) 0.1574(4) 0.730(3) 0.084(3) 1.0000 Uiso DS U
C7 C 0.2519(11) 0.0578(16) 0.997(5) 0.086(4) 0.5000 Uiso D U
H31 H 0.3680 0.2958 0.5112 0.0877 1.0000 Uiso . .
H51 H 0.4692 0.2346 0.0447 0.0866 1.0000 Uiso . .
H71 H 0.2408 0.0000 1.0000 0.0918 1.0000 Uiso D .
H72 H 0.2812 0.0941 1.1049 0.0918 0.5000 Uiso D .
H73 H 0.1956 0.0523 0.9906 0.0918 0.5000 Uiso D .
loop_
_atom_site_aniso_label
_atom_site_aniso_U_11
_atom_site_aniso_U_22
_atom_site_aniso_U_33
_atom_site_aniso_U_23
_atom_site_aniso_U_13
_atom_site_aniso_U_12
Cu1 0.047(3) 0.047(3) 0.060(2) 0.0000(10) 0.0000(10) 0.038(3)
loop_
_atom_type_symbol
_atom_type_scat_dispersion_real
_atom_type_scat_dispersion_imag
_atom_type_scat_Cromer_Mann_a1
_atom_type_scat_Cromer_Mann_b1
_atom_type_scat_Cromer_Mann_a2
_atom_type_scat_Cromer_Mann_b2
_atom_type_scat_Cromer_Mann_a3
_atom_type_scat_Cromer_Mann_b3
_atom_type_scat_Cromer_Mann_a4
_atom_type_scat_Cromer_Mann_b4
_atom_type_scat_Cromer_Mann_c
_atom_type_scat_source
C 0.0033 0.0016 2.3100 20.8439 1.0200 10.2075 1.5886 0.5687 0.8650 51.6512
0.2156 'International Tables Vol C 4.2.6.8 and 6.1.1.4'
H 0.0000 0.0000 0.4930 10.5109 0.3229 26.1257 0.1402 3.1424 0.0408 57.7998
0.0030 'International Tables Vol C 4.2.6.8 and 6.1.1.4'
O 0.0106 0.0060 3.0485 13.2771 2.2868 5.7011 1.5463 0.3239 0.8670 32.9089
0.2508 'International Tables Vol C 4.2.6.8 and 6.1.1.4'
Cu 0.3201 1.2651 13.3380 3.5828 7.1676 0.2470 5.6158 11.3966 1.6735 64.8126
1.1910 'International Tables Vol C 4.2.6.8 and 6.1.1.4'
loop_
_geom_angle_atom_site_label_1
_geom_angle_site_symmetry_1
_geom_angle_atom_site_label_2
_geom_angle_atom_site_label_3
_geom_angle_site_symmetry_3
_geom_angle
_geom_angle_publ_flag
O1 11_665 Cu1 O2 12_555 168.3(6) yes
O1 11_665 Cu1 O2 2_665 89.2(7) yes
O2 12_555 Cu1 O2 2_665 89.6(10) yes
O1 11_665 Cu1 Cu1 2_665 84.2(4) yes
O2 12_555 Cu1 Cu1 2_665 84.0(5) yes
O2 2_665 Cu1 Cu1 2_665 84.0(5) yes
O1 11_665 Cu1 O1 . 89.6(10) yes
O2 12_555 Cu1 O1 . 89.2(7) yes
O2 2_665 Cu1 O1 . 168.3(6) yes
Cu1 2_665 Cu1 O1 . 84.2(4) yes
O1 11_665 Cu1 O3 . 95.2(5) yes
O2 12_555 Cu1 O3 . 96.5(6) yes
O2 2_665 Cu1 O3 . 96.5(6) yes
Cu1 2_665 Cu1 O3 . 179.2(5) yes
O1 . Cu1 O3 . 95.2(5) yes
Cu1 . O1 C1 . 123.0(8) yes
Cu1 2_665 O2 C1 . 124.3(10) yes
C6 . O4 C7 . 123.2(8) yes
O2 . C1 O1 . 124.4(12) yes
O2 . C1 C2 . 117.4(8) yes
O1 . C1 C2 . 118.1(11) yes
C1 . C2 C3 . 120.8(9) yes
C1 . C2 C5 . 119.5(8) yes
C3 . C2 C5 . 119.6(8) yes
C2 . C3 C4 . 119.9(7) yes
C2 . C3 H31 . 119.9 no
C4 . C3 H31 . 120.2 no
C3 . C4 C3 9_555 119.5(12) yes
C3 . C4 C6 . 120.2(6) yes
C3 9_555 C4 C6 . 120.2(6) yes
C2 . C5 C2 9_555 121.2(13) yes
C2 . C5 H51 . 119.3 no
C2 9_555 C5 H51 . 119.3 no
C4 . C6 O4 . 118.5(7) yes
C4 . C6 O4 9_555 118.5(7) yes
O4 . C6 O4 9_555 123.0(14) yes
O4 . C7 H71 . 100.6 no
O4 . C7 H72 . 113.2 no
H71 . C7 H72 . 119.2 no
O4 . C7 H73 . 111.1 no
H71 . C7 H73 . 104.5 no
H72 . C7 H73 . 107.8 no
C7 . H71 C7 8_557 140.9 no
loop_
_geom_bond_atom_site_label_1
_geom_bond_atom_site_label_2
_geom_bond_site_symmetry_2
_geom_bond_distance
_geom_bond_publ_flag
Cu1 O1 11_665 1.937(15) yes
Cu1 O2 12_555 1.908(16) yes
Cu1 O2 2_665 1.908(16) yes
Cu1 Cu1 2_665 2.603(7) yes
Cu1 O1 . 1.937(15) yes
Cu1 O3 . 2.140(17) yes
O1 C1 . 1.24(2) yes
O2 C1 . 1.260(19) yes
O4 C6 . 1.283(18) yes
O4 C7 . 1.43(3) yes
C1 C2 . 1.49(2) yes
C2 C3 . 1.39(2) yes
C2 C5 . 1.37(2) yes
C3 C4 . 1.39(2) yes
C3 H31 . 0.969 no
C4 C6 . 1.46(3) yes
C5 H51 . 0.942 no
C7 H71 . 0.970 no
C7 H72 . 0.938 no
C7 H73 . 0.982 no
loop_
_geom_hbond_atom_site_label_D
_geom_hbond_site_symmetry_D
_geom_hbond_atom_site_label_H
_geom_hbond_atom_site_label_A
_geom_hbond_site_symmetry_A
_geom_hbond_angle_DHA
_geom_hbond_distance_DH
_geom_hbond_distance_HA
_geom_hbond_distance_DA
_geom_hbond_publ_flag
C7 . H71 O4 8_557 137.3(19) 0.970 1.865 2.66(2) yes
C7 8_557 H71 O4 . 137.3(19) 0.970 1.865 2.66(2) yes
C7 8_557 H71 C7 . 141(2) 0.970 0.970 1.83(2) yes
C7 . H72 C2 9_556 134.7(14) 0.938 2.478 3.21(2) yes
loop_
_platon_squeeze_void_nr
_platon_squeeze_void_average_x
_platon_squeeze_void_average_y
_platon_squeeze_void_average_z
_platon_squeeze_void_volume
_platon_squeeze_void_count_electrons
_platon_squeeze_void_content
1 0.000 0.000 -0.066 236 144 ' '
2 0.333 0.667 -0.008 116 66 ' '
3 0.667 0.333 -0.051 116 66 ' '
#BEGIN Loops that were not found in dictionaries:
loop_
_oxford_refln_omitted_index_h
_oxford_refln_omitted_index_k
_oxford_refln_omitted_index_l
_oxford_refln_omitted_flag
-3 4 4 x
-12 12 2 x
#END Loops that were not found in dictionaries
