#------------------------------------------------------------------------------
#$Date: 2016-02-18 17:37:37 +0200 (Thu, 18 Feb 2016) $
#$Revision: 176729 $
#$URL: svn://www.crystallography.net/cod/cif/1/51/41/1514153.cif $
#------------------------------------------------------------------------------
#
# This file is available in the Crystallography Open Database (COD),
# http://www.crystallography.net/
#
# All data on this site have been placed in the public domain by the
# contributors.
#
data_1514153
loop_
_publ_author_name
'McKellar, Scott C.'
'Graham, Alexander J.'
'Allan, David R.'
'Mohideen, M Infas H'
'Morris, Russell E.'
'Moggach, Stephen A.'
_publ_section_title
;
 The effect of pressure on the post-synthetic modification of a nanoporous
 metal-organic framework.
;
_journal_issue                   8
_journal_name_full               Nanoscale
_journal_page_first              4163
_journal_page_last               4173
_journal_paper_doi               10.1039/c3nr04161a
_journal_volume                  6
_journal_year                    2014
_chemical_formula_moiety         'C33 H30 Cu3 O21.2CH3OH'
_chemical_formula_sum            'C35 H38 Cu3 O23'
_chemical_formula_weight         981.27
_space_group_IT_number           164
_symmetry_cell_setting           trigonal
_symmetry_space_group_name_Hall  '-P 3 2"'
_symmetry_space_group_name_H-M   'P -3 m 1'
_atom_sites_solution_hydrogens   difmap
_atom_sites_solution_primary     other
_audit_creation_date             12-10-02
_audit_creation_method           CRYSTALS_ver_14.40
_cell_angle_alpha                90
_cell_angle_beta                 90
_cell_angle_gamma                120
_cell_formula_units_Z            2
_cell_length_a                   18.6631(14)
_cell_length_b                   18.6631(14)
_cell_length_c                   6.9006(5)
_cell_measurement_reflns_used    2252
_cell_measurement_temperature    293
_cell_measurement_theta_max      15
_cell_measurement_theta_min      2
_cell_volume                     2081.5(3)
_computing_cell_refinement       'CrysAlis, (Oxford Diffraction, 2002)'
_computing_data_collection       'Gemini, (Oxford Diffraction, 2006)'
_computing_data_reduction        'Apex2 (Bruker AXS, 2006)'
_computing_molecular_graphics    'CAMERON (Watkin et al., 1996)'
_computing_publication_material  'CRYSTALS (Betteridge et al., 2003)'
_computing_structure_refinement  'CRYSTALS (Betteridge et al., 2003)'
_computing_structure_solution    'USER DEFINED STRUCTURE SOLUTION'
_diffrn_ambient_temperature      293
_diffrn_measured_fraction_theta_full 0.781
_diffrn_measured_fraction_theta_max 0.780
_diffrn_measurement_device       Area
_diffrn_measurement_device_type  'Rigaku Saturn 724+'
_diffrn_measurement_method       \w
_diffrn_radiation_monochromator  graphite
_diffrn_radiation_type           synchrotron
_diffrn_radiation_wavelength     0.48590
_diffrn_reflns_av_R_equivalents  0.0928
_diffrn_reflns_limit_h_max       0
_diffrn_reflns_limit_h_min       -16
_diffrn_reflns_limit_k_max       20
_diffrn_reflns_limit_k_min       0
_diffrn_reflns_limit_l_max       7
_diffrn_reflns_limit_l_min       0
_diffrn_reflns_number            11549
_diffrn_reflns_theta_full        15.408
_diffrn_reflns_theta_max         15.723
_diffrn_reflns_theta_min         1.492
_diffrn_standards_number         0
_exptl_absorpt_coefficient_mu    0.525
_exptl_absorpt_correction_T_max  0.85
_exptl_absorpt_correction_T_min  0.44
_exptl_absorpt_correction_type   multi-scan
_exptl_absorpt_process_details   'SADABS (Siemens, 1996)'
_exptl_crystal_colour            blue
_exptl_crystal_density_diffrn    1.566
_exptl_crystal_density_method    'not measured'
_exptl_crystal_description       block
_exptl_crystal_F_000             1002
_exptl_crystal_size_max          0.200
_exptl_crystal_size_mid          0.200
_exptl_crystal_size_min          0.100
_platon_squeeze_details
;
see above for details
;
_refine_diff_density_max         0.63
_refine_diff_density_min         -0.45
_refine_ls_extinction_method     None
_refine_ls_goodness_of_fit_ref   1.1519
_refine_ls_hydrogen_treatment    constr
_refine_ls_matrix_type           full
_refine_ls_number_parameters     103
_refine_ls_number_reflns         664
_refine_ls_number_restraints     132
_refine_ls_R_factor_all          0.0620
_refine_ls_R_factor_gt           0.0407
_refine_ls_shift/su_max          0.0008504
_refine_ls_shift/su_mean         0.0000396
_refine_ls_structure_factor_coef F
_refine_ls_weighting_details
;
 Method, part 1, Chebychev polynomial, (Watkin, 1994, Prince, 1982) 
 [weight] = 1.0/[A~0~*T~0~(x)+A~1~*T~1~(x) ... +A~n-1~]*T~n-1~(x)] 
 where A~i~ are the Chebychev coefficients listed below and x= Fcalc/Fmax 
 Method = Robust Weighting (Prince, 1982) 
 W = [weight] * [1-(deltaF/6*sigmaF)^2^]^2^ 
 A~i~ are: 
 0.288 0.159 0.898E-01 
;
_refine_ls_weighting_scheme      calc
_refine_ls_wR_factor_all         0.0742
_refine_ls_wR_factor_gt          0.0467
_refine_ls_wR_factor_ref         0.0467
_reflns_limit_h_max              0
_reflns_limit_h_min              -16
_reflns_limit_k_max              20
_reflns_limit_k_min              0
_reflns_limit_l_max              7
_reflns_limit_l_min              0
_reflns_number_gt                664
_reflns_number_total             876
_reflns_threshold_expression     I>2.0\s(I)
_oxford_diffrn_Wilson_B_factor   0.00
_oxford_diffrn_Wilson_scale      0.00
_oxford_refine_ls_r_factor_ref   0.0407
_oxford_refine_ls_scale          0.1270(5)
_oxford_reflns_number_all        871
_oxford_reflns_threshold_expression_ref I>2.0\s(I)
_cod_data_source_file            c3nr04161a2.cif
_cod_data_source_block           st1004
_cod_depositor_comments
;
The following automatic conversions were performed:

'_atom_sites_solution_primary' value 'Other' changed to 'other'
according to
/usr/data/users/saulius/crontab/automatic-downloads/current/RSC/lib/dictionaries/cif_core.dic
dictionary named 'cif_core.dic' version 2.4.2 from 2011-04-26.

Automatic conversion script
Id: cif_fix_values 2281 2013-09-26 08:29:07Z andrius 
;
_cod_original_sg_symbol_H-M      'P -3 m 1 '
_cod_database_code               1514153
#BEGIN Tags that were not found in dictionaries:
_iucr_refine_instruction_details_constraints
;
BLOCK SCALE X'S, U'S 
RIDE C   (   3,X'S) H   (  31,X'S) 
RIDE C   (   5,X'S) H   (  51,X'S) 
RIDE C   (   7,X'S) H   (  71,X'S) H   (  72,X'S) H   (  73,X'S) 
RIDE C   (   8,X'S) H   (  82,X'S) H   (  81,X'S) 
RIDE O   (   4,X'S) H   (   4,X'S) 
END                                                                             
;
_iucr_refine_instruction_details_restraints
;
DIST 0.82, 0.01 = O(4) TO H(4) 
DIST   1.489,.01= C(1) TO C(2) 
DIST   1.252,.01= C(1) TO O(1) 
DIST   1.252,.01= C(1) TO O(1,6,1,1,1) 
DIST   1.388,.01= C(2) TO C(3) 
DIST   1.388,.01= C(2) TO C(3,6,1,1,1) 
DIST   1.389,.01= C(3) TO C(4) 
DIST   1.392,.01= C(4) TO C(5) 
DIST   1.495,.01= C(4) TO C(6) 
DIST   1.248,.01= C(6) TO O(2) 
DIST   1.248,.01= C(6) TO O(3) 
DIST   1.420,.01= C(7) TO O(1) 
DIST   1.383,.01= C(8) TO O(4) 
ANGL 118,1= O(1) TO C(1) TO C(2) 
ANGL 118,1= O(1,6,1,1,1) TO C(1) TO C(2) 
ANGL 125,1= O(1,6,1,1,1) TO C(1) TO O(1) 
ANGL 120,1= C(3) TO C(2) TO C(1) 
ANGL 120,1= C(3,6,1,1,1) TO C(2) TO C(1) 
ANGL 120,1= C(3,6,1,1,1) TO C(2) TO C(3) 
ANGL 120,1= C(4) TO C(3) TO C(2) 
ANGL 120,1= C(5) TO C(4) TO C(3) 
ANGL 120,1= C(6) TO C(4) TO C(3) 
ANGL 120,1= C(6) TO C(4) TO C(5) 
ANGL 120,1= C(4,6,1,1,1) TO C(5) TO C(4) 
ANGL 117,1= O(2) TO C(6) TO C(4) 
ANGL 117,1= O(3) TO C(6) TO C(4) 
ANGL 125,1= O(3) TO C(6) TO O(2) 
ANGL 126,1= C(7) TO O(1) TO C(1) 
REM   HREST   START (DO NOT REMOVE THIS LINE) 
REM   HREST   END (DO NOT REMOVE THIS LINE) 
REM   DELU   START (DO NOT REMOVE THIS LINE) 
VIBR .0, 0.00200 = C(1) TO O(1,6,1,1,1) 
VIBR .0, 0.00200 = C(1) TO C(2) 
VIBR .0, 0.00200 = C(1) TO O(1) 
VIBR .0, 0.00500 = C(2) TO O(1,6,1,1,1) 
VIBR .0, 0.00500 = O(1) TO O(1,6,1,1,1) 
VIBR .0, 0.00500 = O(1) TO C(2) 
VIBR .0, 0.00200 = C(2) TO C(3,6,1,1,1) 
VIBR .0, 0.00200 = C(2) TO C(3) 
VIBR .0, 0.00500 = C(3,6,1,1,1) TO C(1) 
VIBR .0, 0.00500 = C(3) TO C(1) 
VIBR .0, 0.00500 = C(3) TO C(3,6,1,1,1) 
VIBR .0, 0.00200 = C(3) TO C(4) 
VIBR .0, 0.00500 = C(4) TO C(2) 
VIBR .0, 0.00200 = C(4) TO C(5) 
VIBR .0, 0.00200 = C(4) TO C(6) 
VIBR .0, 0.00500 = C(5) TO C(3) 
VIBR .0, 0.00500 = C(6) TO C(3) 
VIBR .0, 0.00500 = C(6) TO C(5) 
VIBR .0, 0.00500 = C(4,6,1,1,1) TO C(4) 
VIBR .0, 0.00200 = C(6) TO O(2) 
VIBR .0, 0.00200 = C(6) TO O(3) 
VIBR .0, 0.00500 = O(2) TO C(4) 
VIBR .0, 0.00500 = O(3) TO C(4) 
VIBR .0, 0.00500 = O(3) TO O(2) 
VIBR .0, 0.00200 = C(7) TO O(1) 
VIBR .0, 0.00200 = C(8) TO O(4) 
VIBR .0, 0.00500 = C(1) TO C(7) 
REM   DELU   END (DO NOT REMOVE THIS LINE) 
REM   THERMSIM   START (DO NOT REMOVE THIS LINE) 
U(IJ) .0, 0.04000 = C(1) TO O(1,6,1,1,1) 
U(IJ) .0, 0.04000 = C(1) TO C(2) 
U(IJ) .0, 0.04000 = C(1) TO O(1) 
U(IJ) .0, 0.04000 = C(2) TO C(3,6,1,1,1) 
U(IJ) .0, 0.04000 = C(2) TO C(3) 
U(IJ) .0, 0.04000 = C(3) TO C(4) 
U(IJ) .0, 0.04000 = C(4) TO C(5) 
U(IJ) .0, 0.04000 = C(4) TO C(6) 
U(IJ) .0, 0.08000 = C(6) TO O(2) 
U(IJ) .0, 0.08000 = C(6) TO O(3) 
U(IJ) .0, 0.08000 = C(7) TO O(1) 
U(IJ) .0, 0.08000 = C(8) TO O(4) 
REM   THERMSIM   END (DO NOT REMOVE THIS LINE) 
END                                                                             
;
#END Tags that were not found in dictionaries
loop_
_symmetry_equiv_pos_as_xyz
x,y,z
-x,-y,-z
-y,x-y,z
y,-x+y,-z
-x+y,-x,z
x-y,x,-z
-x+y,y,z
x-y,-y,-z
x,x-y,z
-x,-x+y,-z
-y,-x,z
y,x,-z
loop_
_atom_site_label
_atom_site_type_symbol
_atom_site_fract_x
_atom_site_fract_y
_atom_site_fract_z
_atom_site_U_iso_or_equiv
_atom_site_occupancy
_atom_site_adp_type
_atom_site_refinement_flags_posn
_atom_site_refinement_flags_adp
Cu1 Cu 0.52295(2) 0.04591(5) -0.34563(11) 0.0214 1.0000 Uani S T
C1 C 0.8409(3) 0.1591(3) -1.1914(9) 0.0472 1.0000 Uani DS TU
C2 C 0.8172(2) 0.1828(2) -1.0057(8) 0.0327 1.0000 Uani DS TU
C3 C 0.7428(3) 0.1284(3) -0.9167(6) 0.0320 1.0000 Uani D U
C4 C 0.7229(2) 0.1485(3) -0.7392(5) 0.0264 1.0000 Uani D U
C5 C 0.7785(2) 0.2215(2) -0.6478(8) 0.0253 1.0000 Uani DS TU
C6 C 0.6411(2) 0.0915(3) -0.6463(6) 0.0254 1.0000 Uani D U
C7 C 0.9471(9) 0.1974(9) -1.4282(19) 0.0930 0.5000 Uani D U
C8 C 0.6002(2) 0.2005(4) -0.0722(14) 0.0718 1.0000 Uani DS TU
O1 O 0.9097(3) 0.2095(3) -1.2629(7) 0.0848 1.0000 Uani D U
O2 O 0.6287(2) 0.1103(2) -0.4801(5) 0.0454 1.0000 Uani D U
O3 O 0.5889(2) 0.0315(2) -0.7436(5) 0.0477 1.0000 Uani D U
O4 O 0.55766(15) 0.1153(3) -0.0833(6) 0.0421 1.0000 Uani DS TU
H4 H 0.5375 0.0750 -0.0108 0.0500 1.0000 Uiso DRS .
H81 H 0.6084 0.2168 0.0616 0.0915 1.0000 Uiso RS .
H82 H 0.6530 0.2219 -0.1348 0.0915 1.0000 Uiso R .
H71 H 1.0002 0.2455 -1.4505 0.1223 0.5000 Uiso R .
H72 H 0.9535 0.1498 -1.4137 0.1223 0.5000 Uiso R .
H73 H 0.9114 0.1894 -1.5362 0.1223 0.5000 Uiso R .
H31 H 0.7061 0.0787 -0.9766 0.0380 1.0000 Uiso R .
H51 H 0.7670 0.2330 -0.5244 0.0288 1.0000 Uiso RS .
loop_
_atom_site_aniso_label
_atom_site_aniso_U_11
_atom_site_aniso_U_22
_atom_site_aniso_U_33
_atom_site_aniso_U_23
_atom_site_aniso_U_13
_atom_site_aniso_U_12
Cu1 0.0237(4) 0.0144(5) 0.0230(4) 0.0015(3) 0.00073(17) 0.0072(2)
C1 0.051(2) 0.051(2) 0.040(4) -0.0076(16) 0.0076(16) 0.025(3)
C2 0.027(2) 0.027(2) 0.039(3) -0.0041(14) 0.0041(14) 0.010(2)
C3 0.026(2) 0.020(3) 0.041(2) -0.006(2) 0.0014(18) 0.0042(19)
C4 0.020(2) 0.024(2) 0.033(2) 0.0009(17) -0.0009(16) 0.0095(16)
C5 0.0250(19) 0.0250(19) 0.025(3) 0.0003(13) -0.0003(13) 0.012(2)
C6 0.019(2) 0.024(2) 0.033(2) -0.0007(16) -0.0012(15) 0.0109(15)
C7 0.117(13) 0.089(13) 0.077(9) 0.012(9) 0.059(9) 0.054(11)
C8 0.094(7) 0.032(3) 0.069(6) -0.011(5) -0.005(2) 0.0162(14)
O1 0.085(4) 0.077(4) 0.077(3) 0.002(3) 0.051(3) 0.029(3)
O2 0.026(2) 0.045(2) 0.0378(17) -0.0120(17) 0.0056(16) -0.0031(17)
O3 0.025(2) 0.046(2) 0.0405(19) -0.0120(16) 0.0091(15) -0.0058(16)
O4 0.060(3) 0.031(2) 0.026(2) -0.002(2) -0.0008(11) 0.0153(12)
loop_
_atom_type_symbol
_atom_type_scat_dispersion_real
_atom_type_scat_dispersion_imag
_atom_type_scat_Cromer_Mann_a1
_atom_type_scat_Cromer_Mann_b1
_atom_type_scat_Cromer_Mann_a2
_atom_type_scat_Cromer_Mann_b2
_atom_type_scat_Cromer_Mann_a3
_atom_type_scat_Cromer_Mann_b3
_atom_type_scat_Cromer_Mann_a4
_atom_type_scat_Cromer_Mann_b4
_atom_type_scat_Cromer_Mann_c
_atom_type_scat_source
Cu 0.2947 0.6374 13.3380 3.5828 7.1676 0.2470 5.6158 11.3966 1.6735 64.8126
1.1910 'International Tables Vol C 4.2.6.8 and 6.1.1.4'
O 0.0036 0.0026 3.0485 13.2771 2.2868 5.7011 1.5463 0.3239 0.8670 32.9089
0.2508 'International Tables Vol C 4.2.6.8 and 6.1.1.4'
C 0.0006 0.0007 2.3100 20.8439 1.0200 10.2075 1.5886 0.5687 0.8650 51.6512
0.2156 'International Tables Vol C 4.2.6.8 and 6.1.1.4'
H 0.0000 0.0000 0.4930 10.5109 0.3229 26.1257 0.1402 3.1424 0.0408 57.7998
0.0030 'International Tables Vol C 4.2.6.8 and 6.1.1.4'
loop_
_geom_angle_atom_site_label_1
_geom_angle_site_symmetry_1
_geom_angle_atom_site_label_2
_geom_angle_atom_site_label_3
_geom_angle_site_symmetry_3
_geom_angle
_geom_angle_publ_flag
O2 7_655 Cu1 O3 8_554 168.96(13) yes
O2 7_655 Cu1 O3 2_654 89.99(18) yes
O3 8_554 Cu1 O3 2_654 88.8(3) yes
O2 7_655 Cu1 O2 . 89.1(3) yes
O3 8_554 Cu1 O2 . 89.99(18) yes
O3 2_654 Cu1 O2 . 168.96(13) yes
O2 7_655 Cu1 O4 . 97.06(13) yes
O3 8_554 Cu1 O4 . 93.97(13) yes
O3 2_654 Cu1 O4 . 93.97(13) yes
O2 . Cu1 O4 . 97.06(13) yes
O1 11_665 C1 C2 . 117.4(2) yes
O1 11_665 C1 O1 . 125.2(5) yes
C2 . C1 O1 . 117.4(2) yes
C1 . C2 C3 11_665 119.9(2) yes
C1 . C2 C3 . 119.9(2) yes
C3 11_665 C2 C3 . 120.0(4) yes
C2 . C3 C4 . 119.9(3) yes
C2 . C3 H31 . 120.1 no
C4 . C3 H31 . 120.0 no
C3 . C4 C5 . 119.9(3) yes
C3 . C4 C6 . 120.1(3) yes
C5 . C4 C6 . 120.0(3) yes
C4 11_665 C5 C4 . 120.2(4) yes
C4 11_665 C5 H51 . 119.9 no
C4 . C5 H51 . 119.9 no
C4 . C6 O2 . 117.3(3) yes
C4 . C6 O3 . 117.8(3) yes
O2 . C6 O3 . 124.8(3) yes
H71 10_762 C7 O1 . 134.1 no
H71 10_762 C7 H71 . 32.4 no
O1 . C7 H71 . 110.0 no
H71 10_762 C7 H72 . 108.1 no
O1 . C7 H72 . 111.3 no
H71 . C7 H72 . 109.5 no
H71 10_762 C7 H73 . 80.2 no
O1 . C7 H73 . 107.1 no
H71 . C7 H73 . 109.5 no
H72 . C7 H73 . 109.5 no
H82 7_655 C8 O4 . 109.6 no
H82 7_655 C8 H81 . 109.5 no
O4 . C8 H81 . 109.1 no
H82 7_655 C8 H82 . 109.5 no
O4 . C8 H82 . 109.6 no
H81 . C8 H82 . 109.5 no
C7 . O1 C1 . 127.0(6) yes
C6 . O2 Cu1 . 122.2(3) yes
C6 . O3 Cu1 8_554 124.0(3) yes
C8 . O4 Cu1 . 125.0(5) yes
C8 . O4 H4 . 139.3 no
Cu1 . O4 H4 . 95.7 no
H71 10_762 H71 C7 . 98.7 no
H71 10_762 H71 C7 10_762 48.8 no
C7 . H71 C7 10_762 125.3 no
loop_
_geom_bond_atom_site_label_1
_geom_bond_atom_site_label_2
_geom_bond_site_symmetry_2
_geom_bond_distance
_geom_bond_publ_flag
Cu1 O2 7_655 1.957(3) yes
Cu1 O3 8_554 1.951(3) yes
Cu1 O3 2_654 1.951(3) yes
Cu1 O2 . 1.957(3) yes
Cu1 O4 . 2.130(4) yes
C1 O1 11_665 1.253(4) yes
C1 C2 . 1.493(6) yes
C1 O1 . 1.253(4) yes
C2 C3 11_665 1.388(4) yes
C2 C3 . 1.388(4) yes
C3 C4 . 1.385(5) yes
C3 H31 . 0.930 no
C4 C5 . 1.385(4) yes
C4 C6 . 1.499(5) yes
C5 H51 . 0.930 no
C6 O2 . 1.254(5) yes
C6 O3 . 1.251(5) yes
C7 H71 10_762 1.260 no
C7 O1 . 1.413(7) yes
C7 H71 . 0.960 no
C7 H72 . 0.960 no
C7 H73 . 0.960 no
C8 H82 7_655 0.960 no
C8 O4 . 1.378(7) yes
C8 H81 . 0.960 no
C8 H82 . 0.960 no
O4 H4 . 0.822 no
H71 H71 10_762 0.684 no
loop_
_platon_squeeze_void_nr
_platon_squeeze_void_average_x
_platon_squeeze_void_average_y
_platon_squeeze_void_average_z
_platon_squeeze_void_volume
_platon_squeeze_void_count_electrons
_platon_squeeze_void_content
1 0.000 0.000 -0.009 262 55 ' '
2 0.667 0.333 0.463 49 22 ' '
3 0.333 0.667 0.537 49 22 ' '
#BEGIN Loops that were not found in dictionaries:
loop_
_oxford_refln_omitted_index_h
_oxford_refln_omitted_index_k
_oxford_refln_omitted_index_l
_oxford_refln_omitted_flag
-1 10 2 x
0 12 0 x
-1 3 0 x
0 3 1 x
-1 2 0 x
#END Loops that were not found in dictionaries
