#------------------------------------------------------------------------------
#$Date: 2019-03-01 01:27:00 +0200 (Fri, 01 Mar 2019) $
#$Revision: 213903 $
#$URL: file:///home/coder/svn-repositories/cod/cif/1/55/06/1550670.cif $
#------------------------------------------------------------------------------
#
# This file is available in the Crystallography Open Database (COD),
# http://www.crystallography.net/
#
# All data on this site have been placed in the public domain by the
# contributors.
#
data_1550670
loop_
_publ_author_name
'Kong, Xiang-Jing'
'He, Tao'
'Zhang, Yongzheng'
'Wu, Xue-Qian'
'Wang, Si-Nan'
'Xu, Ming-Ming'
'Si, Guang-Rui'
'Li, Jian-Rong Jeff'
_publ_section_title
;
 Constructing New Metal-Organic Frameworks with Complicated Ligands
 Generated from &#x201C;One-Pot&#x201D; In Situ Reactions
;
_journal_name_full               'Chemical Science'
_journal_paper_doi               10.1039/C9SC00178F
_journal_year                    2019
_chemical_formula_moiety         'C14 H11 Cd N O5'
_chemical_formula_sum            'C14 H11 Cd N O5'
_chemical_formula_weight         385.64
_space_group_crystal_system      triclinic
_space_group_IT_number           2
_space_group_name_Hall           '-P 1'
_space_group_name_H-M_alt        'P -1'
_symmetry_space_group_name_Hall  '-P 1'
_symmetry_space_group_name_H-M   'P -1'
_atom_sites_solution_hydrogens   mixed
_atom_sites_solution_primary     dual
_audit_creation_date             2018-07-27
_audit_creation_method
;
Olex2 1.2
(compiled 2018.04.26 svn.r3504 for OlexSys, GUI svn.r5492)
;
_audit_update_record
;
2019-01-04 deposited with the CCDC.    2019-02-28 downloaded from the CCDC.
;
_cell_angle_alpha                87.203(3)
_cell_angle_beta                 74.302(3)
_cell_angle_gamma                76.159(3)
_cell_formula_units_Z            2
_cell_length_a                   7.6897(3)
_cell_length_b                   8.7992(3)
_cell_length_c                   12.7198(4)
_cell_measurement_reflns_used    6264
_cell_measurement_temperature    292.5(4)
_cell_measurement_theta_max      73.8780
_cell_measurement_theta_min      5.1480
_cell_volume                     804.39(5)
_computing_cell_refinement       'CrysAlisPro 1.171.39.32a (Rigaku OD, 2017)'
_computing_data_collection       'CrysAlisPro 1.171.39.32a (Rigaku OD, 2017)'
_computing_data_reduction        'CrysAlisPro 1.171.39.32a (Rigaku OD, 2017)'
_computing_molecular_graphics    'Olex2 (Dolomanov et al., 2009)'
_computing_publication_material  'Olex2 (Dolomanov et al., 2009)'
_computing_structure_refinement  'ShelXL (Sheldrick, 2015)'
_computing_structure_solution    'ShelXT (Sheldrick, 2015)'
_diffrn_ambient_environment      air
_diffrn_ambient_temperature      292.5(4)
_diffrn_detector                 'CCD plate'
_diffrn_detector_area_resol_mean 5.1688
_diffrn_detector_type            AtlasS2
_diffrn_measured_fraction_theta_full 1.000
_diffrn_measured_fraction_theta_max 1.000
_diffrn_measurement_details
;
List of Runs (angles in degrees, time in seconds):

  # Type    Start    End  Width  t~exp~   \w     \q     \k     \f   Frames
#--------------------------------------------------------------------------
  1  \w    -66.00  32.00   1.00    1.00    --  -41.94  38.00 120.00   98
  2  \w   -116.00 -17.00   1.00    1.00    --  -41.94 -38.00  60.00   99
  3  \w    -75.00  34.00   1.00    1.00    --  -41.94  77.00 -30.00  109
  4  \w    -70.00  31.00   1.00    1.00    --  -41.94  57.00-150.00  101
  5  \w     24.00  99.00   1.00    1.00    --   41.94-126.00-121.00   75
  6  \w     35.00 136.00   1.00    1.00    --  107.13 -61.00 -30.00  101
  7  \w     31.00 140.00   1.00    1.00    --  107.13 -77.00 150.00  109
  8  \w     34.00 121.00   1.00    1.00    --  107.13-125.00  30.00   87
  9  \w     34.00 121.00   1.00    1.00    --  107.13-125.00 150.00   87
 10  \w     81.00 178.00   1.00    1.00    --  107.13  45.00 -30.00   97
 11  \w     78.00 178.00   1.00    1.00    --  107.13  61.00  30.00  100
 12  \w     31.00 140.00   1.00    1.00    --  107.13 -77.00-150.00  109
 13  \w     94.00 178.00   1.00    1.00    --  107.13 125.00-150.00   84
 14  \w     75.00 178.00   1.00    1.00    --  107.13  77.00 -90.00  103
 15  \w     81.00 178.00   1.00    1.00    --  107.13  45.00-150.00   97
 16  \w   -114.00 -14.00   1.00    1.00    --  -41.94 -57.00 -30.00  100
 17  \w   -114.00 -14.00   1.00    1.00    --  -41.94 -57.00 -90.00  100
 18  \w   -118.00  -9.00   1.00    1.00    --  -41.94 -77.00 120.00  109
 19  \w   -118.00  -9.00   1.00    1.00    --  -41.94 -77.00-150.00  109
;
_diffrn_measurement_device       'four-circle diffractometer'
_diffrn_measurement_device_type  'SuperNova, Dual, Cu at home/near, AtlasS2'
_diffrn_measurement_method       '\w scans'
_diffrn_orient_matrix_type
'CrysAlisPro convention (1999,Acta A55,543-557)'
_diffrn_orient_matrix_UB_11      -0.1469301000
_diffrn_orient_matrix_UB_12      -0.0837034000
_diffrn_orient_matrix_UB_13      -0.0142093000
_diffrn_orient_matrix_UB_21      -0.0652665000
_diffrn_orient_matrix_UB_22      -0.0166689000
_diffrn_orient_matrix_UB_23      0.1247618000
_diffrn_orient_matrix_UB_31      -0.1413901000
_diffrn_orient_matrix_UB_32      0.1588671000
_diffrn_orient_matrix_UB_33      0.0080372000
_diffrn_radiation_monochromator  mirror
_diffrn_radiation_probe          x-ray
_diffrn_radiation_type           CuK\a
_diffrn_radiation_wavelength     1.54178
_diffrn_reflns_av_R_equivalents  0.0397
_diffrn_reflns_av_unetI/netI     0.0387
_diffrn_reflns_Laue_measured_fraction_full 1.000
_diffrn_reflns_Laue_measured_fraction_max 1.000
_diffrn_reflns_limit_h_max       9
_diffrn_reflns_limit_h_min       -9
_diffrn_reflns_limit_k_max       10
_diffrn_reflns_limit_k_min       -10
_diffrn_reflns_limit_l_max       15
_diffrn_reflns_limit_l_min       -13
_diffrn_reflns_number            8628
_diffrn_reflns_point_group_measured_fraction_full 1.000
_diffrn_reflns_point_group_measured_fraction_max 1.000
_diffrn_reflns_theta_full        67.052
_diffrn_reflns_theta_max         67.052
_diffrn_reflns_theta_min         3.610
_diffrn_source                   'micro-focus sealed X-ray tube'
_diffrn_source_type              'SuperNova (Cu) X-ray Source'
_exptl_absorpt_coefficient_mu    11.054
_exptl_absorpt_correction_T_max  1.00000
_exptl_absorpt_correction_T_min  0.45729
_exptl_absorpt_correction_type   multi-scan
_exptl_absorpt_process_details
;
CrysAlisPro 1.171.39.32a (Rigaku Oxford Diffraction, 2017)
Empirical absorption correction using spherical harmonics,
 implemented in SCALE3 ABSPACK scaling algorithm.
;
_exptl_crystal_colour            colorless
_exptl_crystal_density_diffrn    1.592
_exptl_crystal_description       block
_exptl_crystal_F_000             380
_refine_diff_density_max         0.809
_refine_diff_density_min         -0.671
_refine_diff_density_rms         0.096
_refine_ls_extinction_method     none
_refine_ls_goodness_of_fit_ref   1.046
_refine_ls_hydrogen_treatment    constr
_refine_ls_matrix_type           full
_refine_ls_number_parameters     191
_refine_ls_number_reflns         2871
_refine_ls_number_restraints     0
_refine_ls_restrained_S_all      1.046
_refine_ls_R_factor_all          0.0356
_refine_ls_R_factor_gt           0.0327
_refine_ls_shift/su_max          0.001
_refine_ls_shift/su_mean         0.000
_refine_ls_structure_factor_coef Fsqd
_refine_ls_weighting_details
'w=1/[\s^2^(Fo^2^)+(0.0515P)^2^+0.0521P] where P=(Fo^2^+2Fc^2^)/3'
_refine_ls_weighting_scheme      calc
_refine_ls_wR_factor_gt          0.0836
_refine_ls_wR_factor_ref         0.0860
_reflns_Friedel_coverage         0.000
_reflns_number_gt                2643
_reflns_number_total             2871
_reflns_threshold_expression     'I > 2\s(I)'
_cod_data_source_file            c9sc00178f2.cif
_cod_data_source_block           BUT-102
_cod_database_code               1550670
_shelx_shelxl_version_number     2018/3
_chemical_oxdiff_formula         'C11 H10 N O'
_shelx_space_group_comment
;
The symmetry employed for this shelxl refinement is uniquely defined
by the following loop, which should always be used as a source of
symmetry information in preference to the above space-group names.
They are only intended as comments.
;
_reflns_odcompleteness_completeness 100.00
_reflns_odcompleteness_iscentric 1
_reflns_odcompleteness_theta     66.97
_olex2_refinement_description
;
1. Fixed Uiso
 At 1.2 times of:
  All C(H) groups, All N(H,H) groups
 At 1.5 times of:
  All O(H,H) groups
2.a Rotating group:
 O1(H1A,H1B)
2.b Secondary CH2 refined with riding coordinates:
 N1(H1C,H1D)
2.c Aromatic/amide H refined with riding coordinates:
 C7(H7), C6(H6), C3(H3), C11(H11), C14(H14), C10(H10), C13(H13)
;
_shelx_res_file
;
TITL p1_a.res in P-1
    p1.res
    created by SHELXL-2018/3 at 08:54:49 on 27-Jul-2018
REM Old TITL P1 in P1
REM SHELXT solution in P-1: R1 0.117, Rweak 0.008, Alpha 0.062
REM <I/s> 0.000 for 0 systematic absences, Orientation as input
REM Formula found by SHELXT: C17 N2 O5 I
CELL 1.54178 7.6897 8.7992 12.7198 87.203 74.302 76.159
ZERR 2 0.0003 0.0003 0.0004 0.003 0.003 0.003
LATT 1
SFAC C H Cd N O
UNIT 28 22 2 2 10

L.S. 20
PLAN  5
BOND
list 4
ABIN
fmap 2
ACTA
OMIT 1 -1 1
REM <olex2.extras>
REM <HklSrc "%.\\P1.hkl">
REM </olex2.extras>

WGHT    0.051500    0.052100
FVAR       0.53788
CD1   3    0.984283    0.290305    0.572982    11.00000    0.03634    0.03012 =
         0.02187   -0.00082   -0.00556    0.00322
O3    5    0.787461    0.598997    0.532349    11.00000    0.03471    0.04396 =
         0.02554   -0.00565    0.00063   -0.00520
O4    5    0.195055    1.035858    0.570655    11.00000    0.05218    0.03405 =
         0.03325    0.00136   -0.01710    0.00432
O2    5    0.825992    0.490952    0.687170    11.00000    0.04886    0.03278 =
         0.03387   -0.00306   -0.00752    0.01673
O5    5    0.165255    1.209852    0.696401    11.00000    0.05391    0.03241 =
         0.04292    0.00025   -0.02150    0.01341
O1    5    0.930270    0.230214    0.414272    11.00000    0.08701    0.06335 =
         0.03100    0.00197   -0.02282   -0.02941
AFIX   7
H1A   2    0.854258    0.319010    0.377659    11.00000   -1.50000
H1B   2    0.845757    0.154956    0.419842    11.00000   -1.50000
AFIX   0
N1    4    0.260061    0.837118    1.345442    11.00000    0.04935    0.06076 =
         0.02435   -0.00269   -0.00427   -0.01455
AFIX  23
H1C   2    0.227592    0.934741    1.371709    11.00000   -1.20000
H1D   2    0.361583    0.787963    1.365058    11.00000   -1.20000
AFIX   0
C1    1    0.746367    0.597702    0.635662    11.00000    0.03109    0.03232 =
         0.02645   -0.00312   -0.00378    0.00077
C2    1    0.596050    0.727101    0.700028    11.00000    0.03013    0.02843 =
         0.02368    0.00103   -0.00239    0.00008
C4    1    0.349968    0.955023    0.709752    11.00000    0.03020    0.02889 =
         0.03064    0.00173   -0.00637    0.00048
C7    1    0.558286    0.730014    0.813043    11.00000    0.03715    0.03066 =
         0.02797    0.00168   -0.00683    0.00317
AFIX  43
H7    2    0.628767    0.652244    0.846706    11.00000   -1.20000
AFIX   0
C5    1    0.229986    1.075173    0.656087    11.00000    0.03464    0.03385 =
         0.03237    0.00341   -0.00422   -0.00108
C8    1    0.418719    0.845098    0.877968    11.00000    0.03261    0.02582 =
         0.02696   -0.00037   -0.00374   -0.00119
C9    1    0.378461    0.845398    0.998899    11.00000    0.03113    0.03398 =
         0.02559    0.00132   -0.00335   -0.00402
C6    1    0.316797    0.959081    0.822739    11.00000    0.02986    0.02732 =
         0.02990   -0.00265   -0.00109    0.00421
AFIX  43
H6    2    0.224444    1.039633    0.862791    11.00000   -1.20000
AFIX   0
C3    1    0.489360    0.837849    0.648010    11.00000    0.03300    0.03229 =
         0.02379    0.00130   -0.00647   -0.00117
AFIX  43
H3    2    0.510746    0.833874    0.572540    11.00000   -1.20000
AFIX   0
C12   1    0.304614    0.841861    1.228255    11.00000    0.03870    0.04775 =
         0.02363   -0.00154   -0.00180   -0.01360
C11   1    0.207581    0.960377    1.176583    11.00000    0.05251    0.04030 =
         0.03238   -0.01070    0.00766   -0.00111
AFIX  43
H11   2    0.115832    1.040118    1.217914    11.00000   -1.20000
AFIX   0
C14   1    0.473651    0.727104    1.052762    11.00000    0.05404    0.05047 =
         0.02546   -0.00136   -0.00459    0.01491
AFIX  43
H14   2    0.564810    0.646547    1.011915    11.00000   -1.20000
AFIX   0
C10   1    0.245132    0.961811    1.064596    11.00000    0.05087    0.03718 =
         0.03157    0.00302   -0.00548    0.00676
AFIX  43
H10   2    0.178664    1.043821    1.031848    11.00000   -1.20000
AFIX   0
C13   1    0.437084    0.725433    1.165131    11.00000    0.05197    0.06568 =
         0.02949    0.01015   -0.00894    0.00514
AFIX  43
H13   2    0.503441    0.644010    1.198385    11.00000   -1.20000
AFIX   0
HKLF 4




REM  p1_a.res in P-1
REM wR2 = 0.0860, GooF = S = 1.046, Restrained GooF = 1.046 for all data
REM R1 = 0.0327 for 2643 Fo > 4sig(Fo) and 0.0356 for all 2871 data
REM 191 parameters refined using 0 restraints

END

WGHT      0.0524      0.0000

REM Highest difference peak  0.809,  deepest hole -0.671,  1-sigma level  0.096
Q1    1   1.0822  0.3385  0.5800  11.00000  0.05    0.81
Q2    1   0.9037  0.3762  0.5479  11.00000  0.05    0.61
Q3    1   0.0559  1.1288  1.2806  11.00000  0.05    0.54
Q4    1   0.8745  0.2333  0.5735  11.00000  0.05    0.45
Q5    1   1.0676  0.1999  0.5835  11.00000  0.05    0.42
;
_shelx_res_checksum              35130
_shelx_fab_file
;
-8 -6 1 0.3602 -0.7831
-8 -5 1 -0.6172 -0.1948
-8 -5 2 -1.6451 0.1806
-8 -4 1 -0.0779 1.2413
-8 -4 2 0.9797 0.2599
-8 -4 3 -0.3783 0.1941
-8 -3 1 0.1800 -0.4171
-8 -3 2 -0.2604 -0.1354
-8 -3 3 0.4898 -0.1759
-8 -2 1 0.2122 -1.2675
-8 -2 2 0.0804 -0.3695
-8 -2 3 -0.1243 0.2555
-8 -1 1 0.2218 1.1230
-8 -1 2 0.4696 0.1909
-8 -1 3 0.1122 -0.2294
-8 0 1 -0.3968 0.8497
-8 0 2 -0.6250 0.7753
-8 1 1 -0.2523 -1.6480
-7 -7 1 -0.1523 1.1144
-7 -7 2 0.2890 -0.0361
-7 -7 3 0.3084 -0.0631
-7 -6 1 1.0330 -1.5479
-7 -6 2 0.1735 -0.2774
-7 -6 3 0.2279 0.1630
-7 -6 4 -0.4861 0.6250
-7 -5 1 -1.2359 -0.4827
-7 -5 2 -0.3989 -0.0947
-7 -5 3 -0.7371 0.0919
-7 -5 4 1.0691 -0.4101
-7 -5 5 0.3377 0.4846
-7 -4 1 -0.3723 2.2131
-7 -4 2 -0.4755 0.5687
-7 -4 3 0.4390 -0.5148
-7 -4 4 -1.5996 -0.0266
-7 -4 5 -0.3180 -0.1443
-7 -3 1 1.5167 -0.6524
-7 -3 2 0.5323 -0.2408
-7 -3 3 -0.2502 0.2996
-7 -3 4 1.3455 -0.0945
-7 -3 5 0.2886 -0.4119
-7 -3 6 0.4792 0.3160
-7 -2 1 -1.4213 -2.1537
-7 -2 2 0.2955 -0.5877
-7 -2 3 0.0724 0.3236
-7 -2 4 -0.8104 0.3653
-7 -2 5 -0.4975 0.1629
-7 -2 6 -0.9691 -0.3945
-7 -1 1 1.3589 1.8142
-7 -1 2 -0.0856 0.5829
-7 -1 3 0.8164 -0.5724
-7 -1 4 0.6212 -0.1927
-7 -1 5 0.7003 0.6571
-7 -1 6 0.9298 0.7486
-7 0 1 -0.5386 1.5547
-7 0 2 -0.2211 0.4961
-7 0 3 -1.0977 0.2438
-7 0 4 -0.0981 -0.2257
-7 0 5 -0.2411 -0.7163
-7 1 1 -1.1013 -2.8853
-7 1 2 -0.3290 -0.9229
-7 1 3 0.4733 0.3549
-7 1 4 -0.3603 0.7993
-7 1 5 -0.3821 0.4124
-7 2 1 1.5229 0.3141
-7 2 2 0.4616 -0.0079
-7 2 3 -0.3011 -0.2603
-7 2 4 -0.1374 -0.7445
-7 3 1 -0.6228 1.7442
-7 3 2 -0.0524 0.7054
-7 3 3 0.3671 -0.5478
-6 -8 1 0.2455 0.1729
-6 -8 2 0.7325 0.1413
-6 -8 3 0.1110 0.0666
-6 -7 1 0.5356 1.4195
-6 -7 2 -0.8593 0.3923
-6 -7 3 0.1366 -0.4791
-6 -7 4 0.0683 -0.2791
-6 -7 5 -0.1245 -0.3998
-6 -6 1 -0.8081 -1.7478
-6 -6 2 1.0927 -0.6296
-6 -6 3 -0.5782 0.7743
-6 -6 4 -0.5334 0.2183
-6 -6 5 -0.6452 -0.0094
-6 -6 6 -0.0568 -0.1121
-6 -5 1 0.7011 -0.6284
-6 -5 2 -1.2496 -0.1149
-6 -5 3 0.8761 -0.2944
-6 -5 4 0.8923 0.0339
-6 -5 5 1.8160 0.1163
-6 -5 6 0.4516 0.4737
-6 -5 7 -0.3547 0.3388
-6 -4 1 -1.2309 2.3308
-6 -4 2 0.2512 0.7725
-6 -4 3 -1.0277 -0.6277
-6 -4 4 -0.8788 -0.4827
-6 -4 5 -2.6909 0.1266
-6 -4 6 -0.7218 -0.1653
-6 -4 7 0.1279 -0.4441
-6 -3 1 0.9291 -0.5012
-6 -3 2 0.7496 -0.3016
-6 -3 3 0.2173 0.5840
-6 -3 4 0.0986 0.3499
-6 -3 5 2.5005 -0.3554
-6 -3 6 0.8580 -0.2768
-6 -3 7 0.5233 0.5412
-6 -3 8 0.0073 0.3434
-6 -2 1 0.5337 -2.3194
-6 -2 2 -1.2250 -0.6982
-6 -2 3 0.7567 0.4081
-6 -2 4 0.4061 0.2528
-6 -2 5 -1.5700 0.0216
-6 -2 6 -0.7828 0.1205
-6 -2 7 -1.1002 -0.4819
-6 -2 8 -0.0330 -0.5467
-6 -1 1 -1.3016 1.7359
-6 -1 2 1.7701 0.7983
-6 -1 3 -0.5897 -0.7695
-6 -1 4 0.1838 -0.4714
-6 -1 5 0.6539 0.4843
-6 -1 6 0.4157 0.3713
-6 -1 7 0.8487 0.1461
-6 -1 8 -0.3723 0.2299
-6 0 1 1.1793 1.7680
-6 0 2 -1.2906 0.3218
-6 0 3 0.4962 -0.0802
-6 0 4 -0.4070 0.0867
-6 0 5 0.3309 -0.2082
-6 0 6 0.0349 -0.3090
-6 0 7 -0.3966 -0.0510
-6 0 8 0.5959 0.0743
-6 1 1 -0.8171 -2.7469
-6 1 2 -0.2122 -0.9637
-6 1 3 -0.8959 0.9761
-6 1 4 -0.0600 0.4786
-6 1 5 -0.9483 -0.2392
-6 1 6 -0.2906 0.0684
-6 1 7 0.2976 0.5546
-6 2 1 0.2438 -0.6811
-6 2 2 0.9612 -0.0310
-6 2 3 0.6592 -0.6206
-6 2 4 -0.0211 -0.2288
-6 2 5 0.4019 0.2043
-6 2 6 0.1583 -0.3415
-6 3 1 0.1157 3.1277
-6 3 2 -0.6847 0.9492
-6 3 3 -0.1817 -0.4480
-6 3 4 0.2713 -0.6684
-6 3 5 0.4394 -0.1505
-6 3 6 0.1774 0.5435
-6 4 1 -0.0935 -1.1747
-6 4 2 0.0228 -0.2276
-6 4 3 -0.0509 0.6458
-6 4 4 -0.1886 0.5802
-6 5 1 0.0328 -1.0690
-6 5 2 0.5003 -0.6919
-5 -9 1 -0.6796 -1.3093
-5 -9 2 -0.0289 -0.1299
-5 -9 3 -0.0553 0.1561
-5 -8 1 1.3894 0.7214
-5 -8 2 0.6603 0.1563
-5 -8 3 0.8673 -0.1334
-5 -8 4 0.0564 -0.0668
-5 -8 5 0.2837 0.5560
-5 -7 1 -0.8046 1.5833
-5 -7 2 -0.2122 0.4074
-5 -7 3 -1.2890 -0.2662
-5 -7 4 0.2713 -0.0676
-5 -7 5 -0.0515 -0.2374
-5 -7 6 -0.2114 -0.2842
-5 -7 7 -0.3299 -0.2917
-5 -6 1 -0.2199 -1.7854
-5 -6 2 -0.6158 -0.5602
-5 -6 3 1.3373 0.5877
-5 -6 4 -0.9497 0.3169
-5 -6 5 -0.6551 -0.4602
-5 -6 6 -0.2848 -0.1798
-5 -6 7 0.5021 0.3492
-5 -6 8 0.4748 -0.1328
-5 -5 1 1.2805 -1.1182
-5 -5 2 1.0122 -0.2342
-5 -5 3 -1.3264 -0.1845
-5 -5 4 1.5615 -0.2220
-5 -5 5 1.4795 0.4271
-5 -5 6 1.3707 0.2867
-5 -5 7 -0.0424 -0.2024
-5 -5 8 -0.5347 0.1372
-5 -4 1 -2.7164 2.6591
-5 -4 2 -1.3455 0.7145
-5 -4 3 0.8838 -0.6156
-5 -4 4 -1.6718 -0.3377
-5 -4 5 -1.8657 0.1799
-5 -4 6 -2.4043 0.1489
-5 -4 7 -0.3378 0.0904
-5 -4 8 0.3616 -0.1087
-5 -4 9 -0.2163 -0.6052
-5 -3 1 3.4418 -0.1056
-5 -3 2 1.0998 -0.1316
-5 -3 3 -0.2287 0.5039
-5 -3 4 0.6115 0.4582
-5 -3 5 1.0995 -0.4408
-5 -3 6 2.7265 -0.3804
-5 -3 7 0.5154 -0.0129
-5 -3 8 0.0535 0.1386
-5 -3 9 0.2935 0.2272
-5 -2 1 -2.6843 -2.9745
-5 -2 2 -0.2282 -0.5942
-5 -2 3 -0.8404 0.5115
-5 -2 4 0.7016 0.1447
-5 -2 5 0.1627 -0.0489
-5 -2 6 -2.1124 0.0044
-5 -2 7 -0.5035 0.1239
-5 -2 8 -0.5614 -0.1293
-5 -2 9 -0.1057 -0.1817
-5 -2 10 -0.3053 -0.3307
-5 -1 1 1.1182 1.8412
-5 -1 2 -0.7256 0.4001
-5 -1 3 1.9919 -0.7456
-5 -1 4 -1.0994 -0.5341
-5 -1 5 -0.5922 0.4807
-5 -1 6 1.0744 0.3896
-5 -1 7 0.2554 -0.3707
-5 -1 8 0.6073 -0.0898
-5 -1 9 -0.5069 0.4142
-5 -1 10 0.2036 0.2949
-5 0 1 0.3990 2.1921
-5 0 2 1.6496 0.5599
-5 0 3 -1.6110 -0.3300
-5 0 4 1.4205 0.0866
-5 0 5 0.4834 0.0278
-5 0 6 -0.2135 -0.0323
-5 0 7 -0.2897 0.2959
-5 0 8 -0.6507 0.0151
-5 0 9 0.7574 -0.4363
-5 1 1 -1.2226 -3.0892
-5 1 2 -1.6236 -0.9109
-5 1 3 0.3099 1.0773
-5 1 4 -1.7240 0.5490
-5 1 5 -0.3931 -0.6779
-5 1 6 -0.1990 -0.4854
-5 1 7 0.6216 0.2766
-5 1 8 0.9235 0.5629
-5 1 9 -0.3077 0.1717
-5 2 1 1.2454 -0.7595
-5 2 2 0.5169 -0.1558
-5 2 3 0.2322 -0.3254
-5 2 4 1.1377 -0.2305
-5 2 5 0.0698 0.5493
-5 2 6 -0.0177 0.3249
-5 2 7 -0.7691 -0.7224
-5 2 8 -0.8431 -0.7817
-5 3 1 -0.8301 3.3844
-5 3 2 0.2048 1.1075
-5 3 3 -0.2935 -0.8117
-5 3 4 -0.3514 -0.6168
-5 3 5 0.1826 0.0583
-5 3 6 0.5238 0.1316
-5 3 7 0.6951 0.4504
-5 3 8 0.5612 0.2215
-5 4 1 0.2183 -0.6527
-5 4 2 -0.3342 -0.2675
-5 4 3 0.0220 0.8874
-5 4 4 -0.1245 0.5118
-5 4 5 -0.1648 -0.6817
-5 4 6 -0.6443 -0.4254
-5 4 7 -0.3575 -0.0053
-5 5 1 0.2387 -2.7936
-5 5 2 0.4210 -0.9080
-5 5 3 0.5550 -0.1893
-5 5 4 0.4115 0.1587
-5 5 5 0.1924 0.6458
-5 6 1 -0.2578 1.9747
-5 6 2 -0.2390 0.4597
-5 6 3 -0.4988 -0.2388
-4 -10 1 -0.6684 0.6201
-4 -9 1 0.7763 -1.7261
-4 -9 2 -0.6102 -0.4105
-4 -9 3 -0.0484 0.4811
-4 -9 4 0.1422 0.2206
-4 -9 5 0.0564 -0.0761
-4 -8 1 -0.7245 0.5423
-4 -8 2 1.4436 0.4582
-4 -8 3 0.3557 -0.2951
-4 -8 4 0.1408 -0.2485
-4 -8 5 -0.2682 0.0889
-4 -8 6 0.0160 0.1647
-4 -8 7 -0.3431 -0.2003
-4 -7 1 0.9498 2.2627
-4 -7 2 -1.3922 0.4722
-4 -7 3 -0.1402 -0.3331
-4 -7 4 -0.4110 -0.0801
-4 -7 5 0.9513 0.2668
-4 -7 6 0.2161 -0.1758
-4 -7 7 0.0366 0.0931
-4 -7 8 -0.2012 0.1076
-4 -6 1 -1.2925 -2.0107
-4 -6 2 0.4439 -0.7153
-4 -6 3 -0.3406 0.6941
-4 -6 4 0.7911 0.3795
-4 -6 5 -1.7831 -0.5992
-4 -6 6 -0.9997 -0.1974
-4 -6 7 -0.2361 0.1404
-4 -6 8 0.6638 0.1661
-4 -6 9 0.1308 -0.2268
-4 -5 1 1.2509 -1.5893
-4 -5 2 1.4005 -0.3258
-4 -5 3 0.8869 -0.1247
-4 -5 4 -1.1796 -0.1061
-4 -5 5 2.4071 0.3297
-4 -5 6 1.9488 0.1965
-4 -5 7 0.9505 -0.2836
-4 -5 8 -0.3860 -0.3496
-4 -5 9 -0.3405 0.3321
-4 -5 10 0.0914 0.1128
-4 -4 1 -0.0935 3.1225
-4 -4 2 -3.5868 0.9489
-4 -4 3 -1.6497 -0.7419
-4 -4 4 1.0490 -0.4068
-4 -4 5 -2.5763 0.2824
-4 -4 6 -2.4642 0.2530
-4 -4 7 -1.5671 0.0515
-4 -4 8 0.0672 0.1462
-4 -4 9 0.3057 -0.2269
-4 -4 10 -0.3450 -0.3535
-4 -3 1 -1.8791 0.0900
-4 -3 2 4.5367 -0.1272
-4 -3 3 1.7720 0.5212
-4 -3 4 -0.5950 0.3113
-4 -3 5 1.6778 -0.4433
-4 -3 6 1.9830 -0.4484
-4 -3 7 2.0062 0.3176
-4 -3 8 0.0944 0.1874
-4 -3 9 -0.0960 -0.1122
-4 -3 10 0.5416 0.1844
-4 -3 11 -0.1962 0.5290
-4 -2 1 3.4123 -3.4863
-4 -2 2 -3.7907 -0.9012
-4 -2 3 -0.9785 0.6401
-4 -2 4 -0.2586 0.3029
-4 -2 5 -0.1155 -0.1160
-4 -2 6 -0.7227 0.0140
-4 -2 7 -2.1779 -0.2048
-4 -2 8 -0.1770 -0.0750
-4 -2 9 -0.1456 0.2958
-4 -2 10 -0.3371 0.1025
-4 -2 11 0.1352 -0.3908
-4 -1 1 -3.9370 1.6960
-4 -1 2 1.6251 0.5487
-4 -1 3 -0.5440 -0.9560
-4 -1 4 1.3392 -0.4766
-4 -1 5 -0.8966 0.5649
-4 -1 6 -0.1381 0.4807
-4 -1 7 2.0350 -0.2118
-4 -1 8 0.1837 -0.3574
-4 -1 9 0.1766 -0.1408
-4 -1 10 -0.2937 -0.0283
-4 -1 11 0.1406 -0.1363
-4 0 1 3.3503 2.8967
-4 0 2 1.0616 0.7001
-4 0 3 2.4998 -0.2015
-4 0 4 -1.3768 -0.1464
-4 0 5 1.4173 -0.1474
-4 0 6 0.1679 -0.2278
-4 0 7 -1.7741 0.2527
-4 0 8 -0.6213 0.3636
-4 0 9 -0.5662 -0.0762
-4 0 10 0.5683 -0.0594
-4 0 11 -0.3979 0.5769
-4 1 1 -1.9360 -3.4035
-4 1 2 -2.2412 -0.9790
-4 1 3 -2.9622 1.0455
-4 1 4 0.7054 0.6557
-4 1 5 -1.6443 -0.4582
-4 1 6 0.0569 -0.3526
-4 1 7 1.2519 0.1365
-4 1 8 1.1317 0.0699
-4 1 9 1.1173 -0.0103
-4 1 10 -0.2673 -0.2641
-4 2 1 0.5759 -0.9435
-4 2 2 1.5939 -0.2213
-4 2 3 1.3361 -0.2168
-4 2 4 -0.5269 -0.1650
-4 2 5 1.1496 0.3522
-4 2 6 -0.3163 0.2920
-4 2 7 -0.7507 -0.3181
-4 2 8 -1.0702 -0.1770
-4 2 9 -0.8999 0.3768
-4 2 10 0.2450 0.7341
-4 3 1 0.3301 3.6555
-4 3 2 -0.6428 1.2095
-4 3 3 0.2379 -0.9209
-4 3 4 0.4885 -0.5817
-4 3 5 -0.3384 0.2353
-4 3 6 0.4790 0.3205
-4 3 7 0.7925 -0.0212
-4 3 8 0.9232 -0.1690
-4 3 9 0.5208 -0.4468
-4 4 1 -0.6502 -0.7688
-4 4 2 0.0266 -0.3194
-4 4 3 -0.8197 0.6942
-4 4 4 -0.4940 0.3628
-4 4 5 -0.3103 -0.5424
-4 4 6 -0.3367 -0.6750
-4 4 7 -0.8341 0.3146
-4 4 8 -0.6448 0.2330
-4 4 9 -0.4517 -0.0103
-4 5 1 0.2520 -2.9706
-4 5 2 0.1362 -1.1788
-4 5 3 0.6832 0.3822
-4 5 4 0.5358 0.4367
-4 5 5 0.5511 0.2057
-4 5 6 0.1082 0.3196
-4 5 7 0.4978 -0.2125
-4 6 1 0.1167 1.9700
-4 6 2 0.1595 0.8365
-4 6 3 0.1236 -0.8629
-4 6 4 0.1163 -0.6668
-4 6 5 0.0878 0.2128
-4 6 6 0.1377 0.1203
-4 7 1 0.0830 0.8746
-4 7 2 -0.3293 0.4774
-4 7 3 -0.6076 0.2816
-4 7 4 -0.6550 0.2256
-3 -10 1 0.2754 0.8526
-3 -10 2 -0.3140 0.0138
-3 -10 3 0.2430 -0.6973
-3 -9 1 -0.0945 -1.9909
-3 -9 2 0.3230 -0.6531
-3 -9 3 -0.9232 0.7969
-3 -9 4 -0.1346 0.3517
-3 -9 5 0.3424 -0.2704
-3 -9 6 -0.3623 -0.5707
-3 -8 1 -0.2448 0.4922
-3 -8 2 -0.7620 0.3519
-3 -8 3 1.6375 -0.3522
-3 -8 4 0.0200 -0.3086
-3 -8 5 -0.5899 0.1946
-3 -8 6 0.1937 0.4114
-3 -8 7 0.3318 0.0037
-3 -8 8 -0.1307 0.2951
-3 -7 1 0.2058 2.4111
-3 -7 2 1.6282 0.8079
-3 -7 3 -1.6992 -0.3986
-3 -7 4 0.5132 -0.1747
-3 -7 5 0.9144 0.0543
-3 -7 6 0.8108 0.0412
-3 -7 7 -0.1901 0.0485
-3 -7 8 -0.1834 0.0898
-3 -7 9 -0.2055 -0.0852
-3 -6 1 -0.6787 -1.9203
-3 -6 2 -2.4995 -0.7581
-3 -6 3 1.2094 0.7360
-3 -6 4 -1.0045 0.5072
-3 -6 5 -0.9283 -0.2631
-3 -6 6 -2.3543 -0.3238
-3 -6 7 -0.8335 0.2409
-3 -6 8 -0.0763 -0.0974
-3 -6 9 0.3563 -0.1677
-3 -6 10 -0.2650 0.1011
-3 -5 1 2.2199 -1.7804
-3 -5 2 3.3103 -0.5504
-3 -5 3 0.4486 0.0119
-3 -5 4 1.1645 -0.0204
-3 -5 5 0.2055 0.1913
-3 -5 6 3.4800 0.1612
-3 -5 7 2.0149 -0.4726
-3 -5 8 0.5603 -0.1645
-3 -5 9 -0.1326 0.2714
-3 -5 10 0.3104 0.0934
-3 -5 11 0.2819 -0.7356
-3 -4 1 -3.7315 3.2033
-3 -4 2 -2.5460 1.1467
-3 -4 3 -3.3533 -0.9157
-3 -4 4 -1.5951 -0.6158
-3 -4 5 0.7336 0.2288
-3 -4 6 -3.5959 0.2058
-3 -4 7 -2.5387 0.0853
-3 -4 8 -0.6692 -0.0378
-3 -4 9 0.1622 -0.1450
-3 -4 10 -0.0765 -0.0831
-3 -4 11 -0.5420 0.6476
-3 -3 1 4.8624 0.3072
-3 -3 2 -0.8816 -0.1100
-3 -3 3 5.3358 0.5022
-3 -3 4 1.8053 0.3844
-3 -3 5 -1.2960 -0.4565
-3 -3 6 2.5859 -0.3452
-3 -3 7 2.2469 0.3889
-3 -3 8 0.9637 0.5197
-3 -3 9 -0.2253 -0.0326
-3 -3 10 -0.2974 -0.2433
-3 -3 11 0.4032 -0.3390
-3 -3 12 -0.1388 0.1405
-3 -2 1 -4.8153 -3.9085
-3 -2 2 5.0469 -1.1938
-3 -2 3 -4.9200 0.7204
-3 -2 4 -0.9978 0.3889
-3 -2 5 1.0640 -0.0130
-3 -2 6 -0.9774 0.0124
-3 -2 7 -1.2874 -0.1809
-3 -2 8 -1.5471 -0.3595
-3 -2 9 0.1356 0.0636
-3 -2 10 0.3407 0.3690
-3 -2 11 -0.1172 0.1214
-3 -2 12 0.5442 -0.3339
-3 -1 1 2.0636 1.7188
-3 -1 2 -7.5577 0.7477
-3 -1 3 2.4084 -0.9645
-3 -1 4 -0.7045 -0.5729
-3 -1 5 0.1086 0.5189
-3 -1 6 -0.1021 0.3930
-3 -1 7 0.4833 -0.2560
-3 -1 8 1.9905 -0.2670
-3 -1 9 -0.2018 0.0763
-3 -1 10 -0.1995 -0.0431
-3 -1 11 0.0327 -0.0011
-3 -1 12 -0.1240 0.1290
-3 0 1 2.0174 3.1785
-3 0 2 7.0533 0.7975
-3 0 3 0.7198 -0.1996
-3 0 4 2.6608 -0.1592
-3 0 5 -1.1398 -0.2019
-3 0 6 0.5673 -0.2149
-3 0 7 -0.4240 0.1702
-3 0 8 -2.3369 0.3749
-3 0 9 -0.1433 -0.1877
-3 0 10 -0.2308 -0.2604
-3 0 11 0.0311 -0.0063
-3 0 12 -0.4387 0.2232
-3 1 1 -4.6034 -3.1349
-3 1 2 -3.6861 -1.0154
-3 1 3 -2.1205 1.0824
-3 1 4 -3.2445 0.7452
-3 1 5 1.3192 -0.4723
-3 1 6 -1.0492 -0.2954
-3 1 7 0.4608 0.2402
-3 1 8 2.0554 0.0650
-3 1 9 0.7485 -0.0169
-3 1 10 0.8100 0.1037
-3 1 11 -0.1168 -0.0128
-3 1 12 0.3525 -0.3379
-3 2 1 4.7057 -1.6467
-3 2 2 -0.0246 -0.2313
-3 2 3 1.4608 -0.3186
-3 2 4 1.7604 -0.2302
-3 2 5 -1.2737 0.4569
-3 2 6 1.0682 0.2959
-3 2 7 -0.4969 -0.3161
-3 2 8 -1.1730 -0.2365
-3 2 9 -0.7097 0.3489
-3 2 10 -0.6868 0.2136
-3 2 11 0.3056 -0.0366
-3 3 1 -2.9278 3.9239
-3 3 2 1.9705 1.0183
-3 3 3 -0.3520 -0.7818
-3 3 4 0.1957 -0.5822
-3 3 5 1.1932 0.2223
-3 3 6 -0.3166 0.2150
-3 3 7 0.9195 -0.0175
-3 3 8 0.9554 -0.0773
-3 3 9 0.6108 -0.2201
-3 3 10 0.2750 -0.0853
-3 3 11 -0.4540 0.0098
-3 4 1 1.2047 -0.4086
-3 4 2 -2.0052 -0.1996
-3 4 3 -0.3828 0.4633
-3 4 4 -1.3620 0.4127
-3 4 5 -0.9938 -0.4727
-3 4 6 -0.3936 -0.2907
-3 4 7 -0.9394 0.2782
-3 4 8 -1.0912 0.2542
-3 4 9 -0.6518 -0.3855
-3 4 10 -0.2818 -0.3801
-3 5 1 -0.9333 -3.3853
-3 5 2 0.6818 -1.0425
-3 5 3 0.1834 0.6155
-3 5 4 1.2491 0.4383
-3 5 5 0.6551 -0.0407
-3 5 6 0.5778 -0.3109
-3 5 7 0.3137 -0.2122
-3 5 8 0.6273 -0.0131
-3 5 9 0.1160 0.7539
-3 6 1 1.1360 1.6224
-3 6 2 0.5730 0.6636
-3 6 3 0.9227 -0.9386
-3 6 4 0.2011 -0.6591
-3 6 5 0.2492 0.3495
-3 6 6 -0.1592 0.4459
-3 6 7 0.0987 -0.1791
-3 6 8 -0.2217 -0.2081
-3 7 1 -0.9517 2.0571
-3 7 2 -0.6724 0.4423
-3 7 3 -1.4461 0.3720
-3 7 4 -1.2368 -0.0978
-3 7 5 -0.9800 -0.0520
-3 7 6 -0.4552 0.2437
-3 8 1 0.8188 -1.8595
-3 8 2 0.2253 -0.1379
-3 8 3 0.7684 0.1151
-3 8 4 0.5868 0.7225
-2 -10 1 0.0925 1.1314
-2 -10 2 0.3876 -0.1142
-2 -10 3 -0.1986 -0.6248
-2 -9 1 -0.0909 -2.1228
-2 -9 2 -0.5247 -0.5138
-2 -9 3 -0.1552 0.5664
-2 -9 4 -0.5936 0.5882
-2 -9 5 0.1425 -0.3116
-2 -9 6 0.3183 -0.3454
-2 -8 1 -0.1733 0.1459
-2 -8 2 -0.0851 0.1903
-2 -8 3 0.1554 -0.2002
-2 -8 4 1.5351 -0.3930
-2 -8 5 -0.5594 0.3483
-2 -8 6 -0.7555 0.3469
-2 -8 7 1.1676 0.2961
-2 -8 8 0.5359 -0.0222
-2 -7 1 -0.8813 2.7822
-2 -7 2 0.9426 0.7696
-2 -7 3 1.1292 -0.4239
-2 -7 4 -1.9103 -0.1664
-2 -7 5 1.2771 0.0430
-2 -7 6 1.4479 -0.0170
-2 -7 7 -0.5592 -0.0242
-2 -7 8 -0.7837 0.1754
-2 -7 9 -0.2636 -0.3315
-2 -7 10 -0.0745 -0.3203
-2 -6 1 3.1165 -1.7084
-2 -6 2 -2.0170 -0.5291
-2 -6 3 -3.1286 0.8165
-2 -6 4 1.5959 0.5473
-2 -6 5 -2.0433 -0.4071
-2 -6 6 -2.0584 -0.2473
-2 -6 7 -1.1874 0.1458
-2 -6 8 0.0262 -0.0581
-2 -6 9 0.0400 -0.1262
-2 -6 10 -0.1421 0.2616
-2 -6 11 -0.1497 0.4699
-2 -5 1 -5.4152 -2.3315
-2 -5 2 3.9172 -0.5171
-2 -5 3 4.8737 -0.0388
-2 -5 4 -0.6621 -0.0195
-2 -5 5 1.9032 0.2753
-2 -5 6 1.5589 0.1334
-2 -5 7 2.9822 -0.3160
-2 -5 8 1.0421 -0.1919
-2 -5 9 0.1617 0.3736
-2 -5 10 0.5196 0.1956
-2 -5 11 0.4584 -0.3818
-2 -4 1 6.4731 3.2781
-2 -4 2 -5.6923 0.8430
-2 -4 3 -4.7534 -0.9172
-2 -4 4 -1.6602 -0.7277
-2 -4 5 -1.3935 0.2776
-2 -4 6 0.0743 0.2620
-2 -4 7 -3.8007 -0.0413
-2 -4 8 -1.6149 -0.0306
-2 -4 9 0.3393 -0.0842
-2 -4 10 -0.0600 -0.1280
-2 -4 11 -0.3169 0.1526
-2 -4 12 -0.3802 0.5481
-2 -3 1 -4.8863 0.9530
-2 -3 2 6.2835 0.0233
-2 -3 3 1.1103 0.3539
-2 -3 4 4.3522 0.4871
-2 -3 5 1.0750 -0.4469
-2 -3 6 -1.7290 -0.4424
-2 -3 7 3.4033 0.3713
-2 -3 8 1.7498 0.4208
-2 -3 9 -0.4251 -0.2264
-2 -3 10 -0.7053 -0.3097
-2 -3 11 -0.5693 0.0034
-2 -3 12 0.1846 -0.0329
-2 -3 13 0.1331 0.9542
-2 -2 1 2.6908 -4.3773
-2 -2 2 -4.9571 -1.0848
-2 -2 3 5.0728 0.8394
-2 -2 4 -5.1691 0.4114
-2 -2 5 -0.2621 -0.1380
-2 -2 6 2.4092 0.0088
-2 -2 7 -2.1093 -0.0619
-2 -2 8 -1.3566 -0.1862
-2 -2 9 -0.4659 0.1587
-2 -2 10 0.6134 0.2586
-2 -2 11 0.8966 -0.1408
-2 -2 12 0.2060 -0.2611
-2 -2 13 0.2970 -0.8380
-2 -1 1 -2.6118 1.1957
-2 -1 2 1.2340 0.5176
-2 -1 3 -10.4568 -0.7609
-2 -1 4 3.5635 -0.6717
-2 -1 5 -1.1011 0.5458
-2 -1 6 -1.4571 0.4554
-2 -1 7 0.9907 -0.3834
-2 -1 8 0.7668 -0.3577
-2 -1 9 1.3900 0.0927
-2 -1 10 -0.2340 0.2534
-2 -1 11 -0.3338 0.1240
-2 -1 12 0.0343 0.0886
-2 -1 13 -0.2221 0.2722
-2 0 1 3.0036 3.9399
-2 0 2 2.4520 1.0403
-2 0 3 11.2067 -0.5182
-2 0 4 -1.0618 -0.0696
-2 0 5 2.3560 -0.1163
-2 0 6 -0.4037 -0.1628
-2 0 7 -0.5852 0.2837
-2 0 8 -0.8668 0.3171
-2 0 9 -2.0568 -0.2077
-2 0 10 0.1135 -0.5519
-2 0 11 -0.0819 -0.0089
-2 0 12 -0.0946 0.2192
-2 0 13 0.0772 0.1779
-2 1 1 -1.8217 -2.9777
-2 1 2 -3.5522 -1.0031
-2 1 3 -6.3839 1.1822
-2 1 4 -0.2524 0.6782
-2 1 5 -2.7807 -0.4787
-2 1 6 1.4475 -0.5108
-2 1 7 0.0473 0.1714
-2 1 8 1.2351 0.2355
-2 1 9 2.2526 0.0537
-2 1 10 0.0550 0.2478
-2 1 11 0.2348 0.0094
-2 1 12 -0.2058 -0.2032
-2 1 13 -0.2052 -0.4426
-2 2 1 -0.2346 -2.3726
-2 2 2 2.9286 -0.4942
-2 2 3 0.2480 -0.1303
-2 2 4 0.1538 -0.1738
-2 2 5 1.8125 0.3608
-2 2 6 -1.5998 0.5313
-2 2 7 0.4342 -0.3095
-2 2 8 -1.3454 -0.4383
-2 2 9 -1.6690 0.1251
-2 2 10 -0.1640 0.2210
-2 2 11 -0.4108 -0.0906
-2 2 12 0.0892 -0.1369
-2 3 1 1.4803 4.1363
-2 3 2 -1.7306 1.2000
-2 3 3 3.0456 -1.1110
-2 3 4 0.2060 -0.6173
-2 3 5 -0.0681 0.2948
-2 3 6 1.6193 0.2191
-2 3 7 0.0565 0.0364
-2 3 8 1.6871 0.0363
-2 3 9 1.1687 -0.0266
-2 3 10 0.2436 -0.1552
-2 3 11 0.4516 0.0594
-2 3 12 0.1459 0.1639
-2 4 1 -0.5982 0.1023
-2 4 2 0.6044 -0.1867
-2 4 3 -3.3427 0.6579
-2 4 4 -0.4829 0.4278
-2 4 5 -1.2014 -0.4300
-2 4 6 -1.2093 -0.5155
-2 4 7 -0.5696 0.2244
-2 4 8 -1.6237 0.2949
-2 4 9 -0.9688 -0.1906
-2 4 10 -0.2820 -0.2399
-2 4 11 -0.3073 0.1399
-2 5 1 -1.2048 -4.0069
-2 5 2 -0.4701 -1.0869
-2 5 3 1.6538 0.6127
-2 5 4 0.2099 0.3705
-2 5 5 1.2981 -0.1726
-2 5 6 0.3980 -0.1685
-2 5 7 0.3169 -0.1755
-2 5 8 0.6090 -0.0496
-2 5 9 0.4226 0.2114
-2 5 10 -0.0798 0.2857
-2 6 1 1.6374 1.7116
-2 6 2 0.8139 0.4554
-2 6 3 0.5800 -0.8093
-2 6 4 1.0333 -0.5017
-2 6 5 -0.2394 0.5832
-2 6 6 0.2422 0.5539
-2 6 7 -0.0641 -0.3129
-2 6 8 0.1049 -0.4865
-2 6 9 -0.0137 -0.0327
-2 7 1 -1.2774 2.5039
-2 7 2 -1.0130 1.0167
-2 7 3 -1.5889 -0.1941
-2 7 4 -1.9620 -0.0499
-2 7 5 -0.8161 -0.4336
-2 7 6 -0.5373 -0.0540
-2 7 7 -0.0086 0.7237
-2 7 8 -0.0799 0.6390
-2 8 1 1.3837 -2.1620
-2 8 2 1.2070 -0.7118
-2 8 3 1.1773 1.0991
-2 8 4 1.4245 0.0481
-2 8 5 0.6282 0.0304
-2 8 6 0.3051 -0.3820
-2 9 1 -1.2078 -0.1991
-2 9 2 -0.9131 -0.3143
-1 -10 1 0.7709 1.4654
-1 -10 2 -0.0715 -0.1054
-1 -10 3 0.1691 -0.7784
-1 -9 1 -0.8476 -2.2799
-1 -9 2 -0.1154 -0.6625
-1 -9 3 -0.4383 0.7792
-1 -9 4 0.2178 0.4036
-1 -9 5 0.3021 -0.2439
-1 -9 6 0.5496 -0.0272
-1 -9 7 0.4048 0.5443
-1 -8 1 0.4496 -0.2205
-1 -8 2 -0.1916 0.3148
-1 -8 3 0.4801 -0.2692
-1 -8 4 0.4055 -0.2427
-1 -8 5 0.2704 0.2676
-1 -8 6 -1.2784 0.4169
-1 -8 7 -0.7100 -0.3780
-1 -8 8 1.0926 -0.3748
-1 -8 9 -0.0972 -0.3639
-1 -7 1 -0.5469 3.2511
-1 -7 2 0.1690 0.8242
-1 -7 3 0.4751 -0.5127
-1 -7 4 0.2238 -0.1864
-1 -7 5 -0.9172 0.1587
-1 -7 6 2.1734 -0.1334
-1 -7 7 1.3272 0.0883
-1 -7 8 -1.2183 0.1594
-1 -7 9 -0.1690 0.0705
-1 -7 10 0.1701 -0.2935
-1 -6 1 0.0183 -1.5860
-1 -6 2 0.8464 -0.6299
-1 -6 3 -2.6083 0.8263
-1 -6 4 -2.4965 0.5182
-1 -6 5 1.3631 -0.4566
-1 -6 6 -2.9316 -0.4000
-1 -6 7 -2.1343 0.1678
-1 -6 8 0.2909 0.1994
-1 -6 9 0.0763 -0.0396
-1 -6 10 -0.1943 0.3281
-1 -6 11 -0.3418 0.4931
-1 -5 1 3.1551 -3.0087
-1 -5 2 -3.2704 -0.5997
-1 -5 3 5.2357 0.1948
-1 -5 4 4.8792 -0.0431
-1 -5 5 -1.9386 0.1406
-1 -5 6 2.4258 0.2898
-1 -5 7 2.1869 -0.1517
-1 -5 8 1.4496 -0.3097
-1 -5 9 0.2458 0.2314
-1 -5 10 -0.0317 0.1493
-1 -5 11 0.7891 -0.2003
-1 -5 12 0.0195 0.0093
-1 -4 1 -9.4977 3.5581
-1 -4 2 6.7076 0.9807
-1 -4 3 -6.8628 -1.1313
-1 -4 4 -5.5788 -0.6092
-1 -4 5 1.1272 0.4234
-1 -4 6 -1.1666 0.4124
-1 -4 7 -0.8226 -0.1629
-1 -4 8 -3.0588 -0.0783
-1 -4 9 -0.4371 -0.0797
-1 -4 10 1.0243 0.0399
-1 -4 11 -0.3511 0.0011
-1 -4 12 0.0012 -0.1550
-1 -4 13 0.0197 -0.0973
-1 -3 1 14.9610 1.3900
-1 -3 2 -8.9002 0.1717
-1 -3 3 6.6549 0.2315
-1 -3 4 2.6585 0.2337
-1 -3 5 1.4777 -0.3397
-1 -3 6 0.4531 -0.6171
-1 -3 7 -1.1973 0.2525
-1 -3 8 3.6945 0.4063
-1 -3 9 0.6374 -0.2021
-1 -3 10 -1.6092 -0.5800
-1 -3 11 -0.7759 0.0513
-1 -3 12 -0.7414 0.4750
-1 -3 13 -0.3024 0.2059
-1 -2 1 -11.5558 -4.5237
-1 -2 2 9.6963 -1.3796
-1 -2 3 -4.1286 1.0780
-1 -2 4 4.1059 0.6614
-1 -2 5 -3.4464 -0.3604
-1 -2 6 0.2270 -0.1352
-1 -2 7 2.5333 -0.0018
-1 -2 8 -3.2689 -0.1244
-1 -2 9 -0.8061 0.1423
-1 -2 10 0.6814 0.4196
-1 -2 11 0.9267 -0.1364
-1 -2 12 1.0673 -0.5776
-1 -2 13 0.4864 -0.1458
-1 -1 1 -1.5481 0.8387
-1 -1 2 -9.9051 0.4611
-1 -1 3 -0.7945 -0.8254
-1 -1 4 -11.3983 -0.6179
-1 -1 5 3.5904 0.5607
-1 -1 6 -1.2714 0.6355
-1 -1 7 -2.1715 -0.2063
-1 -1 8 2.5217 -0.3745
-1 -1 9 0.7960 0.0841
-1 -1 10 0.6969 0.1632
-1 -1 11 -0.2485 -0.0434
-1 -1 12 -0.4192 -0.0743
-1 -1 13 -0.0554 -0.0822
-1 -1 14 0.1572 0.2811
-1 0 1 15.2558 3.7274
-1 0 2 6.6144 1.4010
-1 0 3 4.3787 -0.3937
-1 0 4 13.8749 -0.4271
-1 0 5 -2.9754 -0.0138
-1 0 6 1.9698 -0.0879
-1 0 7 0.3028 0.1135
-1 0 8 -2.1203 0.3232
-1 0 9 -1.0455 -0.1315
-1 0 10 -1.3142 -0.3765
-1 0 11 0.2098 0.2013
-1 0 12 0.0670 0.7124
-1 0 13 -0.0331 0.2089
-1 0 14 0.0048 -0.3577
-1 1 1 -21.4933 -2.4640
-1 1 2 0.5598 -1.1153
-1 1 3 -3.1413 0.8471
-1 1 4 -9.1311 0.9608
-1 1 5 2.5101 -0.4375
-1 1 6 -2.1620 -0.6003
-1 1 7 1.3231 0.1600
-1 1 8 1.6676 0.2915
-1 1 9 1.6341 0.0052
-1 1 10 1.3180 -0.0067
-1 1 11 -0.6022 -0.1092
-1 1 12 -0.0424 -0.5008
-1 1 13 -0.0741 -0.1154
-1 2 1 18.1778 -1.7850
-1 2 2 -6.2320 -0.8135
-1 2 3 0.2786 0.0074
-1 2 4 1.5690 -0.1227
-1 2 5 -2.1368 0.2854
-1 2 6 1.6138 0.4282
-1 2 7 -1.8807 -0.2010
-1 2 8 -1.0347 -0.5505
-1 2 9 -2.1017 0.1139
-1 2 10 -1.1899 0.4454
-1 2 11 0.4016 0.0743
-1 2 12 -0.5657 -0.1279
-1 2 13 -0.5392 -0.3273
-1 3 1 -9.5117 2.9505
-1 3 2 7.0886 1.5884
-1 3 3 0.4621 -0.8135
-1 3 4 2.8542 -0.8618
-1 3 5 1.4921 0.1985
-1 3 6 -0.1984 0.3884
-1 3 7 1.9736 0.0497
-1 3 8 0.8275 0.0390
-1 3 9 2.2167 -0.1407
-1 3 10 0.9951 -0.2850
-1 3 11 0.1137 -0.0667
-1 3 12 1.0882 0.3149
-1 3 13 0.9253 0.6832
-1 4 1 3.1806 0.0817
-1 4 2 -4.1810 -0.2350
-1 4 3 0.0448 0.3658
-1 4 4 -3.2800 0.5359
-1 4 5 -0.6696 -0.3167
-1 4 6 -0.8334 -0.6598
-1 4 7 -1.2896 -0.0090
-1 4 8 -0.5508 0.4454
-1 4 9 -1.6151 0.1211
-1 4 10 -0.4894 -0.1208
-1 4 11 -0.0945 0.0035
-1 4 12 -0.7072 0.0383
-1 5 1 -1.2719 -2.9294
-1 5 2 0.3716 -1.4395
-1 5 3 -0.5839 0.5042
-1 5 4 1.6002 0.5509
-1 5 5 -0.1712 -0.0802
-1 5 6 0.6287 0.0018
-1 5 7 -0.1249 0.0205
-1 5 8 -0.1696 -0.2459
-1 5 9 0.5647 -0.1037
-1 5 10 -0.0116 0.0415
-1 5 11 -0.2135 -0.0387
-1 6 1 0.8534 1.3449
-1 6 2 1.5450 0.8755
-1 6 3 1.0409 -0.6362
-1 6 4 0.5947 -0.7411
-1 6 5 1.0791 0.4184
-1 6 6 0.1168 0.4453
-1 6 7 0.8795 -0.1337
-1 6 8 0.3948 -0.3419
-1 6 9 -0.1415 0.0468
-1 6 10 -0.0982 0.3425
-1 7 1 -1.2740 1.8333
-1 7 2 -1.8528 0.8533
-1 7 3 -1.3720 0.0491
-1 7 4 -1.8283 -0.1875
-1 7 5 -1.6069 -0.2961
-1 7 6 -0.5844 -0.1496
-1 7 7 -0.7146 0.2163
-1 7 8 -0.1292 0.5044
-1 7 9 0.2337 0.0038
-1 8 1 2.2158 -1.6861
-1 8 2 1.8992 -0.7449
-1 8 3 1.4979 0.5343
-1 8 4 1.6256 0.7371
-1 8 5 1.2810 -0.3961
-1 8 6 0.4712 -0.2602
-1 8 7 0.3337 0.0520
-1 9 1 -1.9399 -0.0514
-1 9 2 -1.2093 -0.3025
-1 9 3 -0.9037 -0.3966
-1 9 4 -0.6538 -0.3251
-1 9 5 -0.4878 1.0411
0 -10 1 0.9651 1.1756
0 -10 2 0.5337 0.1898
0 -10 3 -0.2721 -0.8260
0 -9 1 -1.3791 -1.6464
0 -9 2 -0.5865 -0.8912
0 -9 3 0.1181 0.6600
0 -9 4 -0.1298 0.5146
0 -9 5 0.5074 -0.3056
0 -9 6 0.7215 -0.3211
0 -9 7 0.5962 0.5863
0 -8 1 1.0290 -0.1077
0 -8 2 0.1344 0.2701
0 -8 3 -0.2851 -0.0278
0 -8 4 0.2959 -0.3599
0 -8 5 -0.1290 0.1107
0 -8 6 -0.7665 0.5146
0 -8 7 -1.2757 -0.1277
0 -8 8 -0.4595 -0.8830
0 -8 9 0.5162 -0.6807
0 -7 1 -1.2853 2.2361
0 -7 2 -0.0627 1.1281
0 -7 3 0.7718 -0.4917
0 -7 4 0.3431 -0.3246
0 -7 5 0.4408 0.2686
0 -7 6 0.6122 -0.0839
0 -7 7 2.3525 -0.2010
0 -7 8 0.9927 0.3304
0 -7 9 -0.6781 0.3084
0 -7 10 0.5328 0.0031
0 -6 1 2.0665 -1.1290
0 -6 2 -0.3907 -0.8581
0 -6 3 -1.0640 0.4723
0 -6 4 -2.2131 0.6924
0 -6 5 -1.7667 -0.3757
0 -6 6 0.0888 -0.3883
0 -6 7 -3.4799 0.2018
0 -6 8 -1.8329 0.2317
0 -6 9 0.5850 0.0886
0 -6 10 -0.4288 0.2671
0 -6 11 -0.1534 0.0954
0 -5 1 -1.4567 -2.0944
0 -5 2 2.3828 -0.8988
0 -5 3 -0.4298 0.2941
0 -5 4 4.8096 0.0541
0 -5 5 3.1020 0.0904
0 -5 6 -2.1223 0.1624
0 -5 7 3.4898 -0.0456
0 -5 8 2.6661 -0.2031
0 -5 9 0.2708 -0.0688
0 -5 10 -0.0444 0.1493
0 -5 11 -0.4190 0.1235
0 -5 12 0.5094 0.2228
0 -4 1 -2.5102 2.3566
0 -4 2 -6.3358 1.5275
0 -4 3 5.2406 -0.7646
0 -4 4 -6.8061 -0.8438
0 -4 5 -4.1556 0.2893
0 -4 6 3.5177 0.4946
0 -4 7 -1.9772 -0.0961
0 -4 8 -2.2402 -0.3379
0 -4 9 -1.9050 0.0750
0 -4 10 0.4448 -0.0996
0 -4 11 1.5163 -0.0667
0 -4 12 -0.2327 -0.0350
0 -4 13 0.4313 -0.1260
0 -3 1 6.5419 1.2483
0 -3 2 10.8753 0.1191
0 -3 3 -11.3962 0.1121
0 -3 4 6.3870 0.2631
0 -3 5 3.1505 -0.2546
0 -3 6 -2.0017 -0.4996
0 -3 7 0.4378 0.0434
0 -3 8 0.0783 0.5370
0 -3 9 3.1329 -0.1430
0 -3 10 -0.3822 -0.3241
0 -3 11 -2.0398 -0.0494
0 -3 12 -0.5374 0.2503
0 -3 13 -0.9105 -0.2700
0 -3 14 -0.6320 -0.9037
0 -2 1 -3.6830 -3.0038
0 -2 2 -9.8732 -1.7374
0 -2 3 15.9488 0.5319
0 -2 4 -3.1546 0.8212
0 -2 5 1.8970 -0.1313
0 -2 6 -0.9942 -0.3375
0 -2 7 0.0607 0.0158
0 -2 8 1.8608 -0.0925
0 -2 9 -3.4158 -0.0007
0 -2 10 0.1177 0.1775
0 -2 11 1.2676 -0.0722
0 -2 12 0.7405 -0.5392
0 -2 13 0.7822 0.0439
0 -2 14 0.5915 1.0230
0 -1 1 -4.2660 0.1797
0 -1 2 0.6132 0.6908
0 -1 3 -17.4563 -0.3529
0 -1 4 -1.3721 -0.6754
0 -1 5 -8.4309 0.2486
0 -1 6 3.3803 0.6540
0 -1 7 -0.1883 -0.0607
0 -1 8 -1.8199 -0.3718
0 -1 9 3.3200 0.1155
0 -1 10 0.1058 0.2318
0 -1 11 -0.0579 -0.0206
0 -1 12 -0.3161 -0.0336
0 -1 13 -0.0770 0.0915
0 -1 14 0.1315 0.0656
0 0 1 9.2189 2.1399
0 0 2 8.9905 1.2459
0 0 3 12.3958 -0.0507
0 0 4 3.7746 -0.4652
0 0 5 11.3412 -0.0970
0 0 6 -4.8514 0.0267
0 0 7 0.6004 0.1559
0 0 8 0.2978 0.2358
0 0 9 -3.0706 -0.0136
0 0 10 -0.4035 -0.2272
0 0 11 -0.4921 0.0675
0 0 12 0.0915 0.4749
0 0 13 -0.2647 -0.0368
0 0 14 -0.3181 -1.2296
0 1 0 -37.4362 -1.0240
0 1 1 -8.7814 -1.0081
0 1 2 -12.0252 -0.9869
0 1 3 -0.2609 0.2619
0 1 4 -1.5251 0.8703
0 1 5 -8.4409 -0.0132
0 1 6 5.2265 -0.5597
0 1 7 -1.1527 -0.0829
0 1 8 1.2952 0.3653
0 1 9 2.5795 -0.0136
0 1 10 0.9037 -0.1961
0 1 11 0.3432 0.0580
0 1 12 -0.1474 -0.0102
0 1 13 0.4973 0.0266
0 1 14 0.2623 0.9841
0 2 0 18.7761 2.6353
0 2 1 4.2428 -0.5022
0 2 2 9.9051 -0.5295
0 2 3 -10.2417 -0.2738
0 2 4 -1.9992 0.0075
0 2 5 2.5250 0.1237
0 2 6 -4.5329 0.2793
0 2 7 1.0995 -0.0392
0 2 8 -2.2399 -0.4847
0 2 9 -2.1216 -0.0379
0 2 10 -1.6657 0.5153
0 2 11 -0.3065 0.0019
0 2 12 -0.0158 -0.4562
0 2 13 -1.0822 -0.1332
0 2 14 -0.7230 -0.2229
0 3 0 -0.7353 -1.5053
0 3 1 0.9862 0.7494
0 3 2 -6.1107 1.0130
0 3 3 11.7854 0.1882
0 3 4 2.0596 -0.8192
0 3 5 1.6723 -0.1630
0 3 6 3.3062 0.3667
0 3 7 -0.1522 0.0762
0 3 8 2.2901 -0.1136
0 3 9 1.6189 -0.0734
0 3 10 2.0894 -0.2459
0 3 11 0.5230 0.0562
0 3 12 0.2685 0.4074
0 3 13 1.2474 0.2230
0 4 0 -5.5452 -1.6597
0 4 1 -1.5787 -0.2835
0 4 2 3.4388 -0.1185
0 4 3 -6.8372 -0.0459
0 4 4 0.1878 0.4883
0 4 5 -2.4626 0.0406
0 4 6 -1.7751 -0.5211
0 4 7 -0.4360 -0.0825
0 4 8 -1.0829 0.4695
0 4 9 -0.5189 0.1939
0 4 10 -1.3230 -0.2878
0 4 11 -0.1550 -0.3283
0 4 12 0.0138 -0.1191
0 4 13 -0.5928 0.0450
0 5 0 3.3819 2.0849
0 5 1 -1.2898 -0.5874
0 5 2 -2.6938 -0.9302
0 5 3 1.2661 -0.1378
0 5 4 -1.6797 0.3664
0 5 5 1.1536 0.1541
0 5 6 0.1946 -0.0063
0 5 7 -0.0561 -0.0401
0 5 8 -0.5361 -0.2345
0 5 9 -0.4773 -0.1822
0 5 10 0.3110 0.3737
0 5 11 -0.3898 0.3334
0 5 12 -0.4422 -0.0072
0 6 0 -0.8906 0.3073
0 6 1 2.5735 0.6399
0 6 2 2.3536 0.4896
0 6 3 1.7079 -0.0133
0 6 4 2.0117 -0.5411
0 6 5 0.6688 -0.2014
0 6 6 0.9575 0.3962
0 6 7 0.6859 0.0450
0 6 8 0.9726 -0.0871
0 6 9 0.2480 0.1432
0 6 10 -0.4503 -0.0206
0 6 11 0.0329 -0.0677
0 7 0 -0.1629 -1.6902
0 7 1 -2.3294 0.2109
0 7 2 -2.2367 0.7167
0 7 3 -2.2327 0.2975
0 7 4 -1.7079 -0.1433
0 7 5 -1.6030 -0.0721
0 7 6 -1.3254 -0.2345
0 7 7 -0.8731 0.1711
0 7 8 -0.5652 0.1097
0 7 9 0.2678 -0.1477
0 7 10 0.7774 -0.2094
0 8 0 0.6342 0.6577
0 8 1 2.1176 -0.4383
0 8 2 2.3374 -0.6412
0 8 3 1.7064 -0.0992
0 8 4 1.1431 0.5986
0 8 5 1.2433 0.1977
0 8 6 0.8858 -0.1533
0 8 7 0.6306 -0.1678
0 8 8 0.3027 0.1899
0 9 0 -0.6965 0.9339
0 9 1 -1.4776 0.1345
0 9 2 -1.4525 0.0111
0 9 3 -0.5846 -0.0942
0 9 4 -0.4746 -0.1610
0 9 5 -0.4975 0.0797
0 9 6 -0.2282 0.3723
0 10 0 0.2699 -1.1989
0 10 1 0.5598 0.0019
0 10 2 0.2521 -0.1386
1 -9 0 -1.0070 0.2204
1 -9 1 -0.6361 -0.2652
1 -9 2 -1.6395 -0.5003
1 -9 3 -0.6482 -0.0670
1 -9 4 0.0906 0.5818
1 -9 5 -0.0251 -0.1888
1 -9 6 0.3151 -0.4822
1 -8 0 1.0363 1.1458
1 -8 1 0.3729 -0.1283
1 -8 2 1.0054 0.1204
1 -8 3 0.0213 0.1550
1 -8 4 -0.5218 -0.3328
1 -8 5 0.0306 -0.1043
1 -8 6 -0.0592 0.3205
1 -8 7 -0.6461 0.3585
1 -8 8 -0.4428 -0.2583
1 -8 9 0.1782 -0.5734
1 -7 0 -0.8322 -1.4830
1 -7 1 0.0721 0.4143
1 -7 2 -0.6648 0.6712
1 -7 3 0.6088 0.1036
1 -7 4 1.8177 -0.3386
1 -7 5 0.6272 0.0344
1 -7 6 0.3639 0.2262
1 -7 7 0.9995 -0.1893
1 -7 8 1.7233 0.0425
1 -7 9 0.5698 0.2829
1 -7 10 -0.2070 0.1240
1 -6 0 1.2130 -0.8402
1 -6 1 -1.0610 -0.2522
1 -6 2 1.0885 -0.4627
1 -6 3 -0.9921 -0.1120
1 -6 4 -2.6586 0.5747
1 -6 5 -1.6695 0.2023
1 -6 6 -1.2684 -0.4724
1 -6 7 -0.8779 0.0064
1 -6 8 -3.1712 0.1366
1 -6 9 -1.4350 0.0463
1 -6 10 0.2531 0.1146
1 -6 11 -0.3777 0.3483
1 -6 12 0.0922 -0.4907
1 -5 0 -0.9646 2.3706
1 -5 1 3.3588 -0.4353
1 -5 2 -1.4108 -0.5497
1 -5 3 1.9511 -0.1090
1 -5 4 1.7198 0.0964
1 -5 5 2.8856 -0.0738
1 -5 6 1.6431 0.2018
1 -5 7 -0.6968 -0.0333
1 -5 8 4.2059 -0.1329
1 -5 9 2.2878 -0.0464
1 -5 10 -0.5026 0.1290
1 -5 11 -0.2931 0.1235
1 -5 12 -0.6922 0.6702
1 -4 0 -0.8111 -0.4531
1 -4 1 -6.2810 0.7657
1 -4 2 0.1727 0.7197
1 -4 3 -3.2676 0.2177
1 -4 4 2.3475 -0.6953
1 -4 5 -5.0355 -0.1861
1 -4 6 -1.9674 0.2496
1 -4 7 3.3338 0.0750
1 -4 8 -3.6765 -0.2046
1 -4 9 -2.7769 -0.0662
1 -4 10 -0.2411 0.0702
1 -4 11 1.1046 -0.2573
1 -4 12 1.6571 -0.2985
1 -4 13 -0.1976 0.1023
1 -3 0 -0.7969 -2.1677
1 -3 1 3.7839 0.1176
1 -3 2 2.9107 0.4975
1 -3 3 4.5816 -0.1319
1 -3 4 -9.9818 0.2122
1 -3 5 6.2290 0.1511
1 -3 6 2.2383 -0.2477
1 -3 7 -4.3537 -0.1264
1 -3 8 1.5522 0.3294
1 -3 9 1.5119 0.1120
1 -3 10 1.8330 -0.4398
1 -3 11 -1.0440 0.0442
1 -3 12 -1.8059 0.2155
1 -3 13 -0.0103 -0.5139
1 -3 14 -0.3588 -1.2635
1 -2 0 9.0597 2.0689
1 -2 1 11.0733 -0.9056
1 -2 2 -3.2535 -1.2002
1 -2 3 -4.2522 -0.1407
1 -2 4 17.5664 0.5589
1 -2 5 -4.4498 0.0885
1 -2 6 -0.5530 -0.2960
1 -2 7 1.9462 0.0329
1 -2 8 -0.3677 -0.0084
1 -2 9 0.5245 -0.0700
1 -2 10 -2.8981 0.1697
1 -2 11 0.7174 -0.0109
1 -2 12 1.0653 -0.3849
1 -2 13 0.0647 0.0100
1 -2 14 -0.0917 1.1480
1 -1 0 -16.8142 1.1157
1 -1 2 -0.9925 -0.1542
1 -1 3 0.3785 0.1120
1 -1 4 -19.7467 -0.3938
1 -1 5 1.7453 -0.1559
1 -1 6 -2.9078 0.4199
1 -1 7 2.1967 0.0332
1 -1 8 0.8791 -0.2747
1 -1 9 -0.9651 -0.0528
1 -1 10 3.3079 0.2462
1 -1 11 -0.5617 -0.0469
1 -1 12 -0.3125 -0.0284
1 -1 13 -0.2816 0.2222
1 -1 14 0.3830 -0.0029
1 0 0 16.5895 -3.4980
1 0 1 42.7509 -0.6993
1 0 2 3.2407 1.4410
1 0 3 3.5043 0.2758
1 0 4 13.6936 -0.3213
1 0 5 -0.7665 -0.1536
1 0 6 5.5876 0.1142
1 0 7 -5.1606 0.1451
1 0 8 -1.0138 0.1590
1 0 9 -0.1094 0.0698
1 0 10 -3.3422 -0.1772
1 0 11 -0.0258 0.0075
1 0 12 -0.4805 0.1882
1 0 13 0.0869 -0.1828
1 0 14 -0.2173 -0.7778
1 1 0 -8.7229 0.5583
1 1 1 -37.7391 -0.0079
1 1 2 0.0060 -0.5722
1 1 3 -3.1767 -0.1643
1 1 4 -1.3870 0.4477
1 1 5 1.8271 0.3395
1 1 6 -5.6265 -0.4248
1 1 7 5.8996 -0.1802
1 1 8 0.1906 0.2358
1 1 9 1.4777 0.1527
1 1 10 2.8734 -0.1680
1 1 11 0.7060 0.0622
1 1 12 0.8714 0.2875
1 1 13 0.6985 0.1900
1 1 14 0.4866 0.1202
1 2 0 -1.7336 3.9754
1 2 1 21.6063 1.8795
1 2 2 -4.3394 -0.7732
1 2 3 1.4221 -0.4437
1 2 4 -9.1897 0.0575
1 2 5 -3.0502 0.0639
1 2 6 3.0045 0.1980
1 2 7 -5.3415 -0.0359
1 2 8 0.2397 -0.2786
1 2 9 -2.6179 -0.1765
1 2 10 -2.4045 0.3113
1 2 11 -1.0988 0.0792
1 2 12 -0.3670 -0.4625
1 2 13 -0.8099 -0.0128
1 2 14 -0.8355 1.0584
1 3 0 6.8666 -2.4452
1 3 1 -5.2514 -1.7932
1 3 2 5.3894 0.8085
1 3 3 -1.8828 0.5878
1 3 4 11.1848 -0.3594
1 3 5 2.0682 -0.4781
1 3 6 0.1000 0.1940
1 3 7 4.2174 0.2704
1 3 8 -0.0405 -0.1266
1 3 9 2.7478 -0.1743
1 3 10 2.1157 -0.0282
1 3 11 1.4624 -0.0079
1 3 12 -0.0283 0.2441
1 3 13 0.1959 -0.1954
1 3 14 0.5161 -1.2277
1 4 0 -3.6776 -2.9116
1 4 1 -1.9652 -0.8097
1 4 2 -2.3538 0.0446
1 4 3 3.4381 0.0306
1 4 4 -6.7179 0.2063
1 4 5 0.3991 0.3080
1 4 6 -1.3662 -0.3072
1 4 7 -2.3544 -0.3246
1 4 8 0.3413 0.2972
1 4 9 -1.2707 0.2804
1 4 10 -1.2161 -0.3828
1 4 11 -1.2054 -0.2701
1 4 12 0.0820 0.1421
1 4 13 0.2432 0.5404
1 5 0 -1.3863 3.6197
1 5 1 1.3576 1.9132
1 5 2 -1.9261 -0.7195
1 5 3 -4.1432 -0.5750
1 5 4 1.6182 0.0318
1 5 5 -2.0551 0.1543
1 5 6 0.7463 0.0614
1 5 7 0.4003 0.0215
1 5 8 -1.0201 -0.1874
1 5 9 -0.3958 -0.0279
1 5 10 0.1394 0.4191
1 5 11 0.3955 0.3109
1 5 12 -0.3604 -0.4702
1 5 13 -0.4591 -0.8327
1 6 0 3.0821 0.8095
1 6 1 0.5611 -0.2234
1 6 2 3.9543 0.3579
1 6 3 3.7360 0.1637
1 6 4 1.3907 -0.1460
1 6 5 2.6234 -0.2827
1 6 6 0.6812 0.0922
1 6 7 0.6574 0.2307
1 6 8 0.9174 0.0748
1 6 9 0.3840 -0.1114
1 6 10 -0.1774 -0.1211
1 6 11 -0.2904 -0.2599
1 6 12 0.3556 0.2249
1 7 0 -2.4969 -3.2880
1 7 1 -1.5085 -1.3560
1 7 2 -3.8474 0.4600
1 7 3 -2.8171 0.4786
1 7 4 -1.9553 0.0383
1 7 5 -2.3175 -0.1317
1 7 6 -1.6954 -0.0012
1 7 7 -1.0178 -0.0495
1 7 8 -0.4734 0.0938
1 7 9 0.4383 0.0320
1 7 10 0.6355 -0.1283
1 7 11 0.5414 0.2288
1 8 0 1.8370 0.8263
1 8 1 1.5980 0.8822
1 8 2 2.9478 -0.4446
1 8 3 1.7351 -0.2271
1 8 4 0.9741 0.1103
1 8 5 1.2251 0.4337
1 8 6 1.4176 -0.1067
1 8 7 0.8906 -0.1446
1 8 8 0.4313 -0.1342
1 8 9 -0.4319 0.1277
1 9 0 -1.6836 2.0676
1 9 1 -1.1007 0.4828
1 9 2 -1.6911 -0.0657
1 9 3 -0.5064 -0.2271
1 9 4 0.0616 0.0976
1 9 5 -0.3360 -0.0975
1 9 6 -0.5460 0.1283
1 9 7 -0.2690 0.0079
1 10 0 1.1192 -1.7807
1 10 1 0.5300 -0.8098
1 10 2 0.8076 0.3222
1 10 3 -0.2076 0.1096
1 10 4 -0.4088 -0.3497
2 -9 0 -1.6950 0.4847
2 -9 1 -0.8898 0.2920
2 -9 2 -0.9363 -0.0880
2 -9 3 -1.7417 -0.1392
2 -9 4 -0.4113 0.0640
2 -9 5 0.1491 0.2006
2 -8 0 1.7207 1.7377
2 -8 1 0.5777 0.6040
2 -8 2 0.4035 -0.4174
2 -8 3 0.9065 0.0868
2 -8 4 -0.0757 0.0578
2 -8 5 -0.3256 -0.2880
2 -8 6 -0.0514 0.0922
2 -8 7 0.1809 0.4260
2 -8 8 -0.2540 0.3175
2 -7 0 -0.8423 -2.8183
2 -7 1 -0.1482 -1.5106
2 -7 2 0.2491 0.6951
2 -7 3 0.3367 0.3484
2 -7 4 1.2908 -0.0891
2 -7 5 1.8025 -0.0842
2 -7 6 0.3263 0.1365
2 -7 7 0.2687 -0.0061
2 -7 8 1.4133 -0.1773
2 -7 9 1.1948 -0.0210
2 -7 10 0.1372 -0.2206
2 -6 0 0.1699 -0.8588
2 -6 1 0.0475 0.2313
2 -6 2 -1.1821 -0.0537
2 -6 3 -0.2501 -0.1837
2 -6 4 -1.4895 0.0253
2 -6 5 -3.0092 0.3557
2 -6 6 -0.7208 -0.0516
2 -6 7 -0.7986 -0.2387
2 -6 8 -1.4527 0.0713
2 -6 9 -2.5249 -0.0495
2 -6 10 -0.8843 0.3297
2 -6 11 0.1202 0.4142
2 -5 0 -0.3594 3.9774
2 -5 1 -0.0882 1.6384
2 -5 2 2.9848 -0.7303
2 -5 3 -0.7703 -0.3991
2 -5 4 1.2197 0.1236
2 -5 5 2.3007 -0.0597
2 -5 6 0.9591 -0.0728
2 -5 7 1.1081 0.0983
2 -5 8 0.3221 -0.1595
2 -5 9 3.2497 -0.0340
2 -5 10 1.0220 -0.0941
2 -5 11 -0.7651 0.1618
2 -5 12 -0.2184 0.1954
2 -4 0 2.2801 -0.8828
2 -4 1 -0.1847 -0.8976
2 -4 2 -4.7305 0.6167
2 -4 3 1.9688 0.3319
2 -4 4 -1.5430 -0.2326
2 -4 5 0.0895 -0.3011
2 -4 6 -2.3343 0.1177
2 -4 7 -0.9059 0.1132
2 -4 8 1.7238 -0.0072
2 -4 9 -3.7838 0.0175
2 -4 10 -1.3127 0.1720
2 -4 11 1.2073 -0.2320
2 -4 12 1.0461 -0.3127
2 -4 13 1.0034 -0.1736
2 -3 0 -8.7303 -3.9206
2 -3 1 -0.9964 -1.3488
2 -3 2 4.0631 0.3583
2 -3 3 -2.0790 0.3225
2 -3 4 1.1429 -0.0670
2 -3 5 -5.4542 0.1308
2 -3 6 4.5156 -0.0386
2 -3 7 0.4416 -0.2416
2 -3 8 -4.0531 0.0578
2 -3 9 3.1661 0.1692
2 -3 10 1.4829 -0.2625
2 -3 11 -0.1673 -0.1157
2 -3 12 -1.3216 0.1928
2 -3 13 -1.0119 -0.3273
2 -3 14 0.6460 -1.0928
2 -2 0 19.5759 3.2202
2 -2 1 7.4948 1.8774
2 -2 2 3.6816 -0.8951
2 -2 3 0.4849 -0.6147
2 -2 4 0.0604 0.4564
2 -2 5 12.9411 0.2994
2 -2 6 -5.3093 -0.2183
2 -2 7 -0.1965 -0.0294
2 -2 8 3.8483 0.2020
2 -2 9 -2.0724 -0.1694
2 -2 10 -0.7477 0.0438
2 -2 11 -1.3613 0.1183
2 -2 12 1.2903 -0.0863
2 -2 13 0.4983 0.0897
2 -2 14 -0.6475 0.9534
2 -1 0 -26.7711 2.2439
2 -1 1 -16.3789 -0.0437
2 -1 2 -18.2800 0.0873
2 -1 3 1.8184 -0.0497
2 -1 4 -0.2156 -0.2183
2 -1 5 -16.5002 -0.2699
2 -1 6 4.7723 0.2122
2 -1 7 -0.2302 0.3241
2 -1 8 -0.3929 -0.2953
2 -1 9 1.9103 0.0041
2 -1 10 0.0976 0.0940
2 -1 11 2.3855 0.0081
2 -1 12 -1.3078 -0.2285
2 -1 13 -0.4961 0.0060
2 -1 14 -0.5761 -0.2733
2 -1 15 0.3360 -0.6488
2 0 0 21.8702 -4.6403
2 0 1 18.1544 -1.7721
2 0 2 29.3547 0.7362
2 0 3 -5.2103 0.8961
2 0 4 -1.2706 -0.3517
2 0 5 12.5015 -0.2538
2 0 6 -3.9493 0.1072
2 0 7 1.5991 -0.0398
2 0 8 -3.2202 0.0992
2 0 9 -1.8603 -0.0143
2 0 10 -0.4175 -0.0460
2 0 11 -3.0471 -0.0576
2 0 12 0.2125 0.1806
2 0 13 -0.1765 0.0332
2 0 14 1.2656 -0.0781
2 0 15 0.7099 0.3269
2 1 0 -5.9686 0.0452
2 1 1 -9.5103 0.9028
2 1 2 -28.1328 -0.2777
2 1 3 9.6587 -0.5436
2 1 4 3.1625 0.4122
2 1 5 -3.6446 0.3798
2 1 6 3.1367 -0.2074
2 1 7 -3.0879 -0.2929
2 1 8 4.8661 0.1925
2 1 9 1.2624 0.2098
2 1 10 1.3689 -0.0322
2 1 11 2.8486 -0.0657
2 1 12 1.0825 0.1960
2 1 13 1.3446 -0.0530
2 1 14 0.0823 -0.3083
2 1 15 -0.4465 -0.7647
2 2 0 -10.0145 4.5425
2 2 1 -2.1332 1.2912
2 2 2 17.5385 -0.4771
2 2 3 -11.5814 -0.6466
2 2 4 -2.9534 0.0185
2 2 5 -4.3764 0.2135
2 2 6 -2.7056 0.0312
2 2 7 2.7620 0.1195
2 2 8 -4.9095 -0.2162
2 2 9 -0.6362 -0.1362
2 2 10 -2.3227 0.1353
2 2 11 -1.9231 0.2364
2 2 12 -0.8817 -0.2799
2 2 13 -0.7390 0.1549
2 2 14 -0.8834 0.8967
2 3 0 15.1102 -2.0679
2 3 1 6.7028 -1.1027
2 3 2 -6.9720 0.3909
2 3 3 8.5773 0.9645
2 3 4 -0.1587 -0.2663
2 3 5 6.9780 -0.5967
2 3 6 1.8206 0.1713
2 3 7 -1.0089 0.2785
2 3 8 3.8359 -0.0641
2 3 9 0.0426 -0.2159
2 3 10 2.5876 -0.0997
2 3 11 1.5432 0.0266
2 3 12 0.4999 0.2019
2 3 13 -0.4540 -0.0619
2 3 14 0.1393 -0.6916
2 4 0 -9.9482 -3.0647
2 4 1 -2.7486 -0.9158
2 4 2 2.2362 0.2747
2 4 3 -2.9684 0.0088
2 4 4 3.2420 0.0925
2 4 5 -4.7723 0.2356
2 4 6 0.2312 -0.2266
2 4 7 0.1900 -0.3842
2 4 8 -1.7343 0.1793
2 4 9 0.7595 0.2737
2 4 10 -1.8521 -0.1234
2 4 11 -1.6635 -0.3475
2 4 12 -0.8471 0.2303
2 4 13 0.1902 0.3833
2 4 14 0.1352 0.3041
2 5 0 3.1477 3.0907
2 5 1 -2.3704 1.2562
2 5 2 -1.7872 -0.6132
2 5 3 -1.6423 -0.8470
2 5 4 -4.1561 0.2008
2 5 5 1.4820 0.2543
2 5 6 -2.1318 0.0866
2 5 7 -0.6569 0.0091
2 5 8 -0.2924 -0.1279
2 5 9 -1.4204 -0.0816
2 5 10 0.7167 0.2163
2 5 11 1.3325 0.1642
2 5 12 0.7985 -0.8378
2 5 13 0.2546 -1.1526
2 6 0 0.6494 1.2052
2 6 1 4.1111 0.3315
2 6 2 2.2223 0.1172
2 6 3 3.7608 0.3822
2 6 4 3.7766 -0.2836
2 6 5 0.9731 -0.2461
2 6 6 3.0704 0.0075
2 6 7 1.2654 0.3067
2 6 8 0.8600 0.0963
2 6 9 1.1474 -0.0353
2 6 10 -0.2327 -0.2565
2 6 11 -0.6757 -0.0724
2 6 12 -0.3394 0.4858
2 7 0 -1.4468 -3.1054
2 7 1 -3.5275 -1.1642
2 7 2 -2.3473 0.4489
2 7 3 -3.7597 0.4995
2 7 4 -2.7097 -0.0211
2 7 5 -1.7330 -0.1426
2 7 6 -3.0890 0.0619
2 7 7 -1.6758 -0.0930
2 7 8 -0.5165 -0.0057
2 7 9 -0.2007 0.0990
2 7 10 0.5680 0.4323
2 7 11 0.2187 0.3750
2 8 0 0.8007 0.4356
2 8 1 2.0792 0.1920
2 8 2 1.5790 -0.2356
2 8 3 2.4850 -0.4815
2 8 4 1.1092 0.3915
2 8 5 0.7987 0.2584
2 8 6 2.0327 -0.1498
2 8 7 1.5652 -0.2322
2 8 8 0.4022 0.0135
2 8 9 -0.2134 0.0323
2 8 10 -0.7542 -0.3059
2 9 0 -0.6269 2.0682
2 9 1 -1.1105 0.7527
2 9 2 -0.5329 -0.2838
2 9 3 -1.2017 -0.0204
2 9 4 -0.0301 -0.2473
2 9 5 0.0325 0.1453
2 9 6 -0.8073 0.1429
2 9 7 -0.8182 0.1886
2 9 8 -0.2784 -0.1287
2 10 0 0.5624 -1.4145
2 10 1 0.7449 -0.3325
2 10 2 0.2610 0.4670
2 10 3 0.7822 0.2200
2 10 4 -0.1104 -0.1376
2 10 5 0.0031 -0.4369
3 -8 0 0.5903 1.6259
3 -8 1 0.4328 -0.2133
3 -8 2 -0.1703 0.0189
3 -8 3 -0.0885 0.0316
3 -8 4 0.6039 0.3148
3 -8 5 0.0080 -0.0557
3 -8 6 -0.3294 -0.0495
3 -8 7 -0.8163 0.1174
3 -7 0 -0.8482 -2.5533
3 -7 1 -0.2457 -0.7242
3 -7 2 0.4048 0.1773
3 -7 3 0.6708 0.7452
3 -7 4 0.5069 -0.3380
3 -7 5 0.7026 -0.1346
3 -7 6 1.4033 0.0625
3 -7 7 1.6294 0.1744
3 -7 8 1.5811 -0.1550
3 -7 9 1.7707 -0.0839
3 -6 0 1.2935 -0.8425
3 -6 1 -0.3723 0.0868
3 -6 2 -0.5042 0.2612
3 -6 3 -0.8862 -0.6051
3 -6 4 -0.5134 0.0358
3 -6 5 -0.9266 0.1318
3 -6 6 -2.5052 0.0701
3 -6 7 -1.1594 -0.2522
3 -6 8 -1.7125 0.0351
3 -6 9 -1.9513 -0.0788
3 -6 10 -1.2910 -0.1187
3 -6 11 -0.0786 0.6408
3 -5 0 -1.1363 3.6989
3 -5 1 1.1306 1.2397
3 -5 2 0.8695 -0.6131
3 -5 3 1.7522 -0.4094
3 -5 4 -0.9089 0.1359
3 -5 5 0.1385 0.1373
3 -5 6 2.2344 -0.1398
3 -5 7 0.2881 0.0945
3 -5 8 1.1310 -0.0723
3 -5 9 0.3497 -0.0721
3 -5 10 1.4641 0.1505
3 -5 11 -0.0198 -0.2568
3 -5 12 -0.4202 0.0821
3 -4 0 0.7505 -0.5914
3 -4 1 0.1722 -0.4989
3 -4 2 -0.4853 0.2272
3 -4 3 -2.8710 0.5837
3 -4 4 2.3934 -0.1836
3 -4 5 -0.3680 -0.3717
3 -4 6 -0.8816 0.1708
3 -4 7 -0.4525 0.0995
3 -4 8 -0.8447 -0.0622
3 -4 9 0.9876 -0.0628
3 -4 10 -2.0758 0.1048
3 -4 11 0.3958 0.1983
3 -4 12 1.3079 -0.4031
3 -4 13 0.2758 -0.1432
3 -3 0 -1.3871 -3.8159
3 -3 1 -5.2161 -1.2246
3 -3 2 -0.7829 0.5682
3 -3 3 2.7980 0.2961
3 -3 4 -3.6840 -0.0915
3 -3 5 0.7409 0.1579
3 -3 6 -1.9998 -0.1200
3 -3 7 1.8401 -0.2295
3 -3 8 0.0891 -0.0423
3 -3 9 -2.1571 0.3369
3 -3 10 3.0932 -0.0223
3 -3 11 -0.2991 -0.2962
3 -3 12 -1.5025 0.3283
3 -3 13 -0.7546 -0.0744
3 -3 14 -0.2783 -0.8192
3 -2 0 2.9396 2.5490
3 -2 1 13.4686 1.1245
3 -2 2 3.1346 -0.7251
3 -2 3 -0.4415 -0.8469
3 -2 4 3.4266 0.4634
3 -2 5 0.5062 0.3415
3 -2 6 6.9349 -0.1153
3 -2 7 -3.7512 -0.0826
3 -2 8 0.5410 0.2439
3 -2 9 2.8228 -0.1279
3 -2 10 -3.3152 -0.2326
3 -2 11 0.1879 0.2034
3 -2 12 0.6427 -0.2282
3 -2 13 1.0814 -0.0117
3 -2 14 -0.1856 0.6841
3 -1 0 -3.6363 2.6426
3 -1 1 -20.5013 0.6159
3 -1 2 -6.6080 -0.1896
3 -1 3 -4.7590 0.2522
3 -1 4 0.5661 -0.1625
3 -1 5 -1.1688 -0.3151
3 -1 6 -10.7760 0.1746
3 -1 7 5.3404 0.3804
3 -1 8 -0.3046 -0.0521
3 -1 9 -1.8247 -0.2193
3 -1 10 2.6639 0.2076
3 -1 11 -0.2728 -0.1722
3 -1 12 0.6492 0.0474
3 -1 13 -1.4915 0.1350
3 -1 14 -0.2869 0.0757
3 0 0 1.9566 -3.8976
3 0 1 19.4107 -1.3713
3 0 2 7.8772 0.9491
3 0 3 10.6407 0.6878
3 0 4 -7.2183 -0.4901
3 0 5 -0.4194 -0.3048
3 0 6 10.2938 0.0868
3 0 7 -5.5508 0.0064
3 0 8 0.2015 -0.1576
3 0 9 -0.3901 0.1973
3 0 10 -1.6583 -0.0546
3 0 11 0.0440 0.0813
3 0 12 -2.0558 -0.0053
3 0 13 0.6038 -0.2005
3 0 14 0.3811 -0.4707
3 0 15 2.1110 0.3369
3 1 0 1.3232 -0.8600
3 1 1 -8.1832 -0.0167
3 1 2 -3.7387 -0.3481
3 1 3 -13.1665 -0.6057
3 1 4 12.5624 0.4698
3 1 5 2.5602 0.4785
3 1 6 -5.8375 -0.2535
3 1 7 4.2817 -0.3622
3 1 8 -0.8156 0.1723
3 1 9 2.6760 0.0736
3 1 10 1.0474 -0.0813
3 1 11 0.6396 0.0198
3 1 12 2.3818 -0.0064
3 1 13 0.9429 0.0577
3 1 14 0.8730 -0.1042
3 1 15 -0.9151 -0.3746
3 2 0 -2.2036 4.1612
3 2 1 -5.1884 1.1889
3 2 2 -2.5457 -0.8833
3 2 3 11.3778 -0.3447
3 2 4 -13.1185 0.1539
3 2 5 -2.9204 0.1291
3 2 6 0.0109 0.1181
3 2 7 -2.9896 0.0408
3 2 8 1.4384 -0.0893
3 2 9 -3.6302 -0.1151
3 2 10 -0.7024 0.1878
3 2 11 -1.4333 0.0185
3 2 12 -1.2900 0.1070
3 2 13 -0.7232 0.0606
3 2 14 -0.7983 0.7772
3 2 15 -0.6412 0.4988
3 3 0 -1.6297 -1.1572
3 3 1 10.0951 -0.2964
3 3 2 4.0682 1.0186
3 3 3 -8.1234 0.6744
3 3 4 8.7757 -0.4596
3 3 5 0.6387 -0.5490
3 3 6 3.3777 0.1270
3 3 7 1.9034 0.3910
3 3 8 -1.5488 -0.1294
3 3 9 2.6419 -0.2005
3 3 10 -0.1437 -0.0302
3 3 11 1.7619 0.1697
3 3 12 0.6427 0.0618
3 3 13 -0.0529 0.2566
3 3 14 -0.4502 -0.2984
3 4 0 5.8522 -2.9542
3 4 1 -6.4183 -0.8036
3 4 2 -0.1129 0.2652
3 4 3 5.7055 0.0330
3 4 4 -3.0993 0.0845
3 4 5 2.2736 0.1791
3 4 6 -2.7799 -0.1648
3 4 7 0.0518 -0.3374
3 4 8 1.5712 0.2240
3 4 9 -0.9913 0.3685
3 4 10 0.8231 -0.2740
3 4 11 -1.6070 -0.3694
3 4 12 -1.1169 -0.0085
3 4 13 -0.3899 0.0100
3 4 14 0.2263 -0.2331
3 5 0 -6.3248 2.3349
3 5 1 1.7525 0.3965
3 5 2 -3.5189 -1.1485
3 5 3 -4.0640 -0.5350
3 5 4 -0.8393 0.4000
3 5 5 -3.5321 0.3884
3 5 6 0.6172 -0.0648
3 5 7 -2.1281 -0.0635
3 5 8 -1.7879 -0.0990
3 5 9 -0.2477 -0.1787
3 5 10 -0.8380 0.1889
3 5 11 1.2993 0.0377
3 5 12 1.4391 -0.5418
3 5 13 0.7528 -1.0059
3 6 0 4.5790 1.2709
3 6 1 0.8761 0.5093
3 6 2 4.2821 0.3465
3 6 3 3.0109 0.0510
3 6 4 2.7577 -0.3093
3 6 5 3.4744 -0.3567
3 6 6 0.9719 0.2021
3 6 7 3.0174 0.2431
3 6 8 1.7072 0.0422
3 6 9 0.7957 -0.1118
3 6 10 0.8458 -0.0359
3 6 11 -0.7072 0.1003
3 6 12 -0.9186 0.4792
3 7 0 -2.3505 -2.4041
3 7 1 -1.7773 -0.4963
3 7 2 -3.4962 0.7842
3 7 3 -2.3118 0.5121
3 7 4 -2.8480 -0.2259
3 7 5 -2.4778 -0.1942
3 7 6 -1.3329 -0.0366
3 7 7 -2.8126 0.0134
3 7 8 -1.2008 -0.1707
3 7 9 -0.4229 0.2198
3 7 10 -0.5860 0.3833
3 7 11 0.1484 0.6080
3 8 0 0.3053 0.0168
3 8 1 0.7942 -0.2942
3 8 2 1.5867 -0.6334
3 8 3 1.0690 -0.2943
3 8 4 1.6044 0.3937
3 8 5 0.7310 0.4490
3 8 6 0.4339 -0.1917
3 8 7 1.8309 -0.2603
3 8 8 0.6588 0.3569
3 8 9 -0.2141 0.0843
3 8 10 -0.1354 -0.5003
3 9 0 0.2536 1.6794
3 9 1 0.0829 0.5380
3 9 2 -0.0688 -0.3209
3 9 3 0.0355 -0.1440
3 9 4 -0.7392 0.0984
3 9 5 0.1378 -0.1051
3 9 6 0.2531 0.1736
3 9 7 -0.6817 0.1087
3 9 8 -0.2475 -0.3398
3 10 0 0.0319 -0.8864
3 10 1 0.1635 -0.0068
3 10 2 0.1477 0.7765
3 10 3 0.0155 0.1618
3 10 4 0.7472 -0.5048
3 10 5 0.1128 -0.2035
4 -8 1 -0.2124 -0.1239
4 -8 2 -0.6543 -0.7908
4 -8 3 -0.1719 0.7475
4 -7 0 -1.0201 -1.1256
4 -7 1 -0.4863 -0.3967
4 -7 2 0.2754 1.0856
4 -7 3 -0.0136 -0.1924
4 -7 4 -0.0202 -0.3894
4 -7 5 -0.1375 -0.3864
4 -7 6 0.5663 0.2868
4 -7 7 2.0940 0.0473
4 -7 8 2.9587 0.4219
4 -6 0 1.2849 -1.3040
4 -6 1 1.0279 0.1336
4 -6 2 -0.0272 -0.3015
4 -6 3 0.3923 -0.1271
4 -6 4 -0.0840 -0.1640
4 -6 5 -0.2054 0.3511
4 -6 6 -0.6641 -0.1348
4 -6 7 -2.6175 -0.1104
4 -6 8 -2.4106 -0.3616
4 -6 9 -1.7589 -0.1379
4 -6 10 -0.8710 -0.5429
4 -5 0 -0.6826 2.9903
4 -5 1 -0.2456 0.5868
4 -5 2 1.0492 -0.7433
4 -5 3 -0.1378 -0.3020
4 -5 4 0.2317 0.4539
4 -5 5 -0.6946 0.0137
4 -5 6 -0.0429 -0.1463
4 -5 7 2.0561 0.0725
4 -5 8 0.4690 0.2136
4 -5 9 0.9641 -0.2449
4 -5 10 -0.1916 0.3206
4 -5 11 0.1264 0.3168
4 -4 0 0.8922 0.0140
4 -4 1 -0.0163 -0.1000
4 -4 2 -1.1389 0.5857
4 -4 3 -0.1648 0.3865
4 -4 4 -1.1022 -0.3120
4 -4 5 1.9034 -0.2710
4 -4 6 0.1616 0.1801
4 -4 7 -1.0675 0.0301
4 -4 8 0.3422 -0.3010
4 -4 9 -0.8360 0.1134
4 -4 10 0.9417 -0.0603
4 -4 11 -0.6980 0.0303
4 -4 12 0.5274 0.2842
4 -3 0 -3.1245 -3.3793
4 -3 1 -1.8300 -0.7377
4 -3 2 -2.0128 0.7124
4 -3 3 -0.4190 0.2593
4 -3 4 1.7878 -0.1576
4 -3 5 -3.0825 -0.0298
4 -3 6 0.5002 0.1656
4 -3 7 -0.4757 -0.1536
4 -3 8 0.3131 0.0713
4 -3 9 0.6828 0.1048
4 -3 10 -1.1579 0.2976
4 -3 11 1.7926 -0.2175
4 -3 12 -1.0514 -0.2225
4 -3 13 -0.9064 0.3919
4 -2 0 5.1999 1.6514
4 -2 1 3.8073 0.3588
4 -2 2 7.2004 -1.1821
4 -2 3 1.1448 -0.6140
4 -2 4 -1.3496 0.5037
4 -2 5 4.0179 0.5753
4 -2 6 -0.3626 -0.5058
4 -2 7 2.8094 -0.0483
4 -2 8 -2.0903 0.2607
4 -2 9 0.0634 0.1341
4 -2 10 1.5261 -0.4498
4 -2 11 -2.6499 0.1354
4 -2 12 1.1395 0.2938
4 -2 13 0.5852 -0.5125
4 -2 14 -0.0961 0.0919
4 -1 0 -4.7478 2.6850
4 -1 1 -3.4845 0.7108
4 -1 2 -11.4090 -0.0904
4 -1 3 -1.1588 0.0910
4 -1 4 -0.0239 -0.1246
4 -1 5 -2.5162 -0.3869
4 -1 6 -0.2685 0.3046
4 -1 7 -4.8654 0.2342
4 -1 8 4.3097 -0.1256
4 -1 9 -0.6984 -0.2306
4 -1 10 -1.7385 0.2551
4 -1 11 2.7368 -0.0945
4 -1 12 -0.6957 -0.5109
4 -1 13 0.4124 0.5388
4 -1 14 -0.3520 0.5761
4 0 0 2.1114 -3.0481
4 0 1 1.1934 -0.8188
4 0 2 12.1328 1.2719
4 0 3 0.5506 0.5349
4 0 4 2.1411 -0.4497
4 0 5 -2.0806 -0.4193
4 0 6 0.2579 0.2752
4 0 7 5.4307 0.1031
4 0 8 -5.5943 -0.0737
4 0 9 0.8525 0.0263
4 0 10 1.2073 0.0259
4 0 11 -1.9660 -0.0330
4 0 12 0.0366 0.2889
4 0 13 -1.5903 -0.4304
4 0 14 0.3668 -0.9421
4 1 0 1.2618 -1.2035
4 1 1 1.5001 -0.3711
4 1 2 -8.1009 -0.6534
4 1 3 0.6953 -0.3270
4 1 4 -4.3675 0.2685
4 1 5 7.3117 0.6228
4 1 6 0.4881 -0.5039
4 1 7 -4.2648 -0.3468
4 1 8 5.1012 0.1569
4 1 9 -0.5826 0.1443
4 1 10 0.6030 -0.2631
4 1 11 1.2345 0.0759
4 1 12 0.3918 0.2534
4 1 13 1.7399 0.0174
4 1 14 0.3845 0.1442
4 2 0 -3.4656 3.5560
4 2 1 -2.4006 1.0238
4 2 2 1.4107 -0.8415
4 2 3 -1.9868 -0.3629
4 2 4 5.8667 0.3963
4 2 5 -9.7848 -0.0034
4 2 6 -1.2955 0.1159
4 2 7 1.7409 0.0057
4 2 8 -3.3252 -0.1926
4 2 9 0.8049 -0.1349
4 2 10 -2.3278 0.2516
4 2 11 -1.1307 0.0708
4 2 12 -0.9457 -0.4036
4 2 13 -0.6371 0.4458
4 2 14 -0.2073 0.8168
4 3 0 3.1468 -0.6709
4 3 1 -0.4897 -0.1389
4 3 2 2.5595 1.0547
4 3 3 1.3967 0.4075
4 3 4 -6.5201 -0.5872
4 3 5 7.6765 -0.4598
4 3 6 0.5333 0.3228
4 3 7 0.3817 0.3503
4 3 8 1.4129 -0.0453
4 3 9 -1.7086 -0.1410
4 3 10 1.9426 0.0616
4 3 11 0.4161 0.0799
4 3 12 1.3991 0.2109
4 3 13 0.0857 -0.4456
4 3 14 -0.3955 -0.4729
4 4 0 -1.7130 -2.7465
4 4 1 4.6185 -0.8051
4 4 2 -2.0642 0.2712
4 4 3 1.1924 0.2527
4 4 4 6.0461 0.0251
4 4 5 -3.2398 0.2103
4 4 6 1.6440 -0.1921
4 4 7 -0.4933 -0.2319
4 4 8 0.1761 0.2288
4 4 9 1.9572 0.2953
4 4 10 -0.7284 -0.3015
4 4 11 0.7842 -0.3875
4 4 12 -0.9551 0.1439
4 4 13 -0.4300 0.5347
4 4 14 0.0222 -0.0854
4 5 0 0.7144 1.8785
4 5 1 -5.7973 0.6492
4 5 2 0.5121 -1.0126
4 5 3 -3.2227 -0.5062
4 5 4 -4.5097 0.5723
4 5 5 -0.0573 0.2545
4 5 6 -2.8632 -0.2641
4 5 7 -0.2931 -0.0995
4 5 8 -1.4283 -0.0059
4 5 9 -1.4937 -0.0071
4 5 10 0.3731 0.1731
4 5 11 -0.8442 0.1380
4 5 12 0.3764 -0.5884
4 5 13 0.5150 -0.9103
4 6 0 0.2180 1.4751
4 6 1 4.7088 0.1316
4 6 2 0.6324 0.1661
4 6 3 3.6867 -0.0042
4 6 4 3.0949 -0.3966
4 6 5 1.6779 -0.1725
4 6 6 2.7199 0.3523
4 6 7 0.5929 0.1375
4 6 8 2.0200 -0.1634
4 6 9 1.1773 -0.2289
4 6 10 -0.1129 -0.0665
4 6 11 0.3519 0.2169
4 6 12 -0.3435 0.5802
4 7 0 -0.7448 -2.1996
4 7 1 -3.1007 -0.4949
4 7 2 -1.4530 0.6765
4 7 3 -3.1418 0.3596
4 7 4 -2.0293 -0.2201
4 7 5 -1.8277 -0.3131
4 7 6 -1.8945 0.0008
4 7 7 -0.4321 0.1781
4 7 8 -1.8122 -0.0680
4 7 9 -0.6978 -0.0623
4 7 10 -0.1230 0.3411
4 7 11 -0.3124 0.2470
4 8 0 0.3681 -0.3393
4 8 1 0.9486 0.0855
4 8 2 0.7514 -0.3548
4 8 3 1.5019 -0.0316
4 8 4 0.7215 0.2948
4 8 5 0.7213 0.3674
4 8 6 0.3958 -0.2994
4 8 7 -0.1963 -0.3989
4 8 8 1.0463 0.3296
4 8 9 -0.0621 0.5653
4 8 10 -0.2310 -0.4060
4 9 0 -0.0152 1.8478
4 9 1 0.3102 0.1742
4 9 2 0.3078 -0.3254
4 9 3 -0.0005 -0.3695
4 9 4 0.0578 0.2132
4 9 5 -0.1086 0.0472
4 9 6 0.5073 0.2002
4 9 7 0.6723 0.1948
4 9 8 -0.2777 -0.2525
4 10 0 0.1229 -0.8944
4 10 1 -0.0207 0.0702
4 10 2 -0.0560 0.3422
4 10 3 -0.0513 0.2660
4 10 4 0.0997 -0.5085
5 -7 0 0.2610 -0.6588
5 -7 1 -0.8037 0.1859
5 -7 2 -0.2421 0.2666
5 -7 3 0.3712 0.1119
5 -7 4 -0.5369 -0.9451
5 -7 5 -0.4730 -0.1613
5 -6 0 -0.0642 -0.9497
5 -6 1 1.2558 -0.2874
5 -6 2 0.9192 0.1668
5 -6 3 -0.0618 -0.2269
5 -6 4 0.4204 0.4709
5 -6 5 -0.2249 0.3114
5 -6 6 -0.2602 -0.1037
5 -6 7 -0.4046 -0.1698
5 -6 8 -1.4532 0.2157
5 -5 0 0.1303 2.1535
5 -5 1 -0.6448 0.6936
5 -5 2 -0.3313 -0.6814
5 -5 3 0.3027 -0.1737
5 -5 4 -0.4112 0.2621
5 -5 5 0.5510 -0.1177
5 -5 6 -0.0608 -0.0940
5 -5 7 -0.3433 -0.1149
5 -5 8 0.9679 -0.1329
5 -5 9 0.2177 -0.1511
5 -5 10 0.2040 -0.3235
5 -4 0 0.0104 0.4354
5 -4 1 0.4384 -0.1499
5 -4 2 -0.4842 0.3579
5 -4 3 -0.8167 0.4069
5 -4 4 0.3608 -0.3843
5 -4 5 -0.6283 -0.1101
5 -4 6 0.8912 0.0876
5 -4 7 0.5087 0.2969
5 -4 8 -0.5054 -0.2774
5 -4 9 0.3487 0.1588
5 -4 10 -0.8548 0.6578
5 -4 11 0.6497 -0.3100
5 -3 0 -0.7680 -3.2757
5 -3 1 -2.3886 -0.6343
5 -3 2 -0.7800 0.6655
5 -3 3 -0.2198 0.0622
5 -3 4 -0.4951 -0.1920
5 -3 5 0.7310 -0.0111
5 -3 6 -2.1467 0.1383
5 -3 7 0.0616 -0.1610
5 -3 8 -0.0779 0.2081
5 -3 9 -0.2128 0.0576
5 -3 10 1.0041 -0.3184
5 -3 11 -0.6494 0.3770
5 -3 12 1.1160 -0.0341
5 -2 0 1.2299 1.3908
5 -2 1 4.6269 0.3291
5 -2 2 3.1436 -0.7742
5 -2 3 3.1516 -0.3875
5 -2 4 0.7420 0.6164
5 -2 5 -0.8998 0.2444
5 -2 6 3.3180 -0.2896
5 -2 7 -0.6380 -0.2304
5 -2 8 0.9158 0.2820
5 -2 9 -0.8430 0.1208
5 -2 10 -0.3462 0.0281
5 -2 11 0.7836 -0.4207
5 -2 12 -2.0680 0.3356
5 -2 13 0.4933 0.2152
5 -1 0 -0.9300 2.6866
5 -1 1 -4.2609 0.5763
5 -1 2 -3.4067 -0.4013
5 -1 3 -5.9567 -0.0744
5 -1 4 -0.4356 -0.1811
5 -1 5 1.1384 -0.0703
5 -1 6 -2.8682 0.0913
5 -1 7 1.0089 0.3228
5 -1 8 -1.7212 -0.3497
5 -1 9 2.5722 -0.1263
5 -1 10 -0.2295 0.1148
5 -1 11 -0.4915 0.3214
5 -1 12 2.9540 -0.6563
5 -1 13 -0.2006 -0.4439
5 -1 14 0.5559 0.6850
5 0 0 0.9460 -2.8654
5 0 1 2.0264 -0.7008
5 0 2 1.4010 0.9778
5 0 3 7.0002 0.4932
5 0 4 -0.5150 -0.5262
5 0 5 -0.6993 -0.2487
5 0 6 0.5813 0.2778
5 0 7 -1.0035 0.1302
5 0 8 2.1989 -0.0151
5 0 9 -3.8769 -0.1164
5 0 10 0.5256 -0.0684
5 0 11 -0.0400 -0.2329
5 0 12 -3.0221 0.2883
5 0 13 -0.1816 0.2909
5 0 14 -0.9353 -0.7676
5 1 0 -1.5144 -0.9453
5 1 1 0.1357 -0.2010
5 1 2 0.6681 -0.0664
5 1 3 -6.0146 -0.1137
5 1 4 1.7646 0.4935
5 1 5 -0.4508 0.1422
5 1 6 2.4522 -0.3068
5 1 7 0.4603 -0.4331
5 1 8 -2.3700 0.3642
5 1 9 4.0136 0.2228
5 1 10 -0.4354 -0.2553
5 1 11 0.7899 -0.0366
5 1 12 1.9778 0.4029
5 1 13 -0.0262 0.2591
5 1 14 0.6685 0.1413
5 2 0 1.6080 3.0002
5 2 1 -1.8698 0.8189
5 2 2 -1.6464 -0.8671
5 2 3 3.4283 -0.4619
5 2 4 -2.5153 0.1711
5 2 5 1.8040 0.1653
5 2 6 -4.8464 -0.1430
5 2 7 0.0060 0.1362
5 2 8 2.1016 -0.3080
5 2 9 -2.8361 -0.1200
5 2 10 0.4261 0.2866
5 2 11 -1.8835 0.2349
5 2 12 -1.2774 -0.4579
5 2 13 0.0763 -0.4202
5 2 14 0.2622 0.7404
5 3 0 -1.3035 -0.5963
5 3 1 2.3444 -0.3044
5 3 2 0.6615 0.4565
5 3 3 -0.9005 0.3348
5 3 4 1.6545 -0.5405
5 3 5 -3.5917 -0.1858
5 3 6 4.5188 0.4655
5 3 7 -0.6640 0.2556
5 3 8 -1.2971 -0.1519
5 3 9 1.3240 -0.2128
5 3 10 -1.1266 0.0608
5 3 11 1.8430 0.0255
5 3 12 0.8229 -0.0377
5 3 13 0.6041 -0.0587
5 3 14 -0.5270 -0.9319
5 4 0 1.2344 -2.3883
5 4 1 -1.1633 -0.5324
5 4 2 2.0207 0.5334
5 4 3 -0.1476 0.2526
5 4 4 0.3026 0.1669
5 4 5 4.6702 -0.0787
5 4 6 -1.9627 -0.1639
5 4 7 1.9716 -0.1974
5 4 8 0.7434 0.3084
5 4 9 -0.4844 0.3512
5 4 10 1.4725 -0.2480
5 4 11 -0.6224 -0.3343
5 4 12 0.5056 0.4293
5 4 13 -0.5650 0.7246
5 5 0 -0.9399 1.6581
5 5 1 -0.1583 0.5472
5 5 2 -3.9981 -0.4926
5 5 3 0.1607 -0.3668
5 5 4 -1.8201 0.3593
5 5 5 -3.7413 0.2616
5 5 6 0.2818 -0.2838
5 5 7 -2.4785 -0.1247
5 5 8 -0.6672 0.0744
5 5 9 -0.1748 -0.0289
5 5 10 -0.8940 0.1759
5 5 11 0.2315 0.2760
5 5 12 -1.2576 -0.4495
5 5 13 -0.2497 -0.9040
5 6 0 0.1409 1.3497
5 6 1 0.7470 0.2951
5 6 2 4.1617 -0.3125
5 6 3 0.3228 -0.0336
5 6 4 2.6314 -0.2541
5 6 5 2.3212 -0.0311
5 6 6 0.2227 0.2795
5 6 7 1.7646 0.1589
5 6 8 0.3301 -0.3413
5 6 9 0.8555 -0.0844
5 6 10 0.3763 -0.0374
5 6 11 -0.6211 -0.1932
5 6 12 0.5242 0.2196
5 7 0 0.4183 -1.9551
5 7 1 -0.7291 -0.6632
5 7 2 -2.9979 0.4430
5 7 3 -0.8250 0.2021
5 7 4 -2.6575 -0.1800
5 7 5 -1.4879 -0.2512
5 7 6 -0.6465 -0.0014
5 7 7 -1.1458 0.1671
5 7 8 0.1468 0.2486
5 7 9 -0.9415 -0.3217
5 7 10 -0.0900 -0.1033
5 7 11 0.5747 0.4221
5 8 0 -0.5050 -0.1974
5 8 1 0.2376 -0.1228
5 8 2 1.0240 0.1465
5 8 3 0.4864 0.0298
5 8 4 1.6122 0.1856
5 8 5 0.5233 -0.0306
5 8 6 0.3608 -0.1558
5 8 7 0.5338 -0.4191
5 8 8 -0.3666 -0.1911
5 8 9 0.5869 0.5636
5 9 0 0.6226 1.2425
5 9 1 0.0903 0.7226
5 9 2 0.2826 -0.5205
5 9 3 0.0908 -0.1564
5 9 4 -0.5290 0.0624
5 9 5 0.1004 0.4538
5 9 6 0.2275 0.0246
5 9 7 0.2136 0.3280
6 -6 2 0.5515 -0.0061
6 -6 3 0.1891 0.0408
6 -6 4 -0.8437 0.4501
6 -5 0 -0.1053 1.8819
6 -5 1 -0.1230 0.1392
6 -5 2 -0.4372 -0.2308
6 -5 3 -0.2518 0.0461
6 -5 4 0.6265 -0.1043
6 -5 5 0.1998 -0.1190
6 -5 6 0.5358 -0.3270
6 -5 7 -0.3761 0.3683
6 -5 8 -0.6655 -0.4317
6 -4 0 0.5249 -0.0018
6 -4 1 0.4943 -0.0523
6 -4 2 0.2931 0.0182
6 -4 3 -0.1699 -0.0981
6 -4 4 -0.3063 0.0695
6 -4 5 0.3521 -0.3666
6 -4 6 -0.5718 0.4467
6 -4 7 0.5098 -0.4214
6 -4 8 0.5169 0.3217
6 -4 9 -0.3942 0.1974
6 -4 10 -0.1951 0.5712
6 -3 0 -1.0193 -2.4784
6 -3 1 -0.9677 -0.6947
6 -3 2 -1.1654 0.5245
6 -3 3 0.0252 0.3183
6 -3 4 -0.1098 -0.4193
6 -3 5 -1.0259 0.3220
6 -3 6 0.1063 -0.2317
6 -3 7 -1.1129 0.2871
6 -3 8 0.0270 -0.3259
6 -3 9 0.1172 0.3940
6 -3 10 0.0095 -0.1546
6 -3 11 0.9689 -0.1594
6 -2 0 1.2613 0.9576
6 -2 1 1.0635 0.5889
6 -2 2 2.6745 -0.4635
6 -2 3 1.1946 -0.2629
6 -2 4 0.9605 0.4949
6 -2 5 1.0167 -0.0167
6 -2 6 -0.0659 -0.1976
6 -2 7 2.1587 -0.2123
6 -2 8 -0.5663 0.4615
6 -2 9 0.3167 -0.2528
6 -2 10 -0.2020 -0.2253
6 -2 11 -0.6033 0.0866
6 -2 12 0.3051 -0.4734
6 -1 0 -0.9241 2.4525
6 -1 1 -0.3581 0.3669
6 -1 2 -2.8219 -0.3394
6 -1 3 -1.8117 -0.2389
6 -1 4 -1.8702 -0.0067
6 -1 5 0.0999 -0.0214
6 -1 6 1.3135 0.3097
6 -1 7 -2.2842 0.1303
6 -1 8 0.9375 -0.2992
6 -1 9 -0.6201 -0.0792
6 -1 10 1.5326 0.3604
6 -1 11 0.6540 -0.1363
6 -1 12 0.2026 -0.0690
6 -1 13 1.7985 -0.6689
6 0 0 0.2196 -2.1097
6 0 1 -0.2150 -0.6448
6 0 2 1.3892 0.6389
6 0 3 0.8068 0.3836
6 0 4 2.5090 -0.4982
6 0 5 -1.2242 -0.0937
6 0 6 -2.1930 0.0812
6 0 7 1.2929 0.0988
6 0 8 -1.0850 -0.1141
6 0 9 0.8055 -0.0197
6 0 10 -2.9643 -0.2409
6 0 11 -0.8903 0.1677
6 0 12 -0.8858 0.0984
6 0 13 -2.0722 0.5083
6 1 0 0.5673 -1.4240
6 1 1 -0.1095 -0.0756
6 1 2 0.0699 0.0660
6 1 3 0.6419 0.0909
6 1 4 -2.7561 0.3470
6 1 5 1.8170 0.0184
6 1 6 1.4140 -0.3235
6 1 7 -0.1270 -0.1905
6 1 8 0.5844 0.3291
6 1 9 -1.0963 0.2893
6 1 10 3.2788 -0.1402
6 1 11 0.4283 -0.3859
6 1 12 0.7296 0.0962
6 1 13 1.1969 0.2020
6 2 0 -1.7973 2.6969
6 2 1 0.4429 0.5587
6 2 2 -1.1048 -0.6939
6 2 3 -1.3363 -0.4157
6 2 4 2.5173 0.2304
6 2 5 -2.0575 0.1588
6 2 6 0.0372 -0.0221
6 2 7 -1.2326 0.0061
6 2 8 0.0914 -0.0737
6 2 9 1.4920 -0.2201
6 2 10 -2.3313 0.2583
6 2 11 0.3587 0.3020
6 2 12 -0.5421 -0.1083
6 2 13 -0.1732 -0.5054
6 3 0 2.8005 -0.1010
6 3 1 -0.5986 -0.1535
6 3 2 1.5368 0.3082
6 3 3 0.7846 0.1001
6 3 4 -2.0629 -0.3967
6 3 5 1.1872 -0.1464
6 3 6 -1.9547 0.3670
6 3 7 1.9675 0.1226
6 3 8 -0.2199 -0.2726
6 3 9 -1.0627 -0.1894
6 3 10 1.2536 -0.0796
6 3 11 -1.0490 0.2357
6 3 12 0.6542 0.0748
6 3 13 0.0202 0.0745
6 4 0 -2.0829 -2.3449
6 4 1 1.3638 -0.4773
6 4 2 -0.8498 0.4379
6 4 3 0.9080 0.3838
6 4 4 1.4100 -0.0141
6 4 5 0.3334 -0.1116
6 4 6 3.6524 -0.1552
6 4 7 -1.0248 0.0217
6 4 8 0.7620 0.1403
6 4 9 0.1717 0.3044
6 4 10 -0.9949 0.0115
6 4 11 1.2691 -0.4629
6 4 12 -0.2482 -0.0645
6 4 13 0.2727 0.4435
6 5 0 0.5572 1.2520
6 5 1 -2.0153 0.4048
6 5 2 -0.3088 -0.3991
6 5 3 -2.6865 -0.3231
6 5 4 -0.5965 0.3203
6 5 5 -1.0535 0.3188
6 5 6 -3.1327 -0.1987
6 5 7 0.1781 -0.1547
6 5 8 -1.7183 0.1865
6 5 9 -0.2143 -0.0706
6 5 10 0.7176 -0.0836
6 5 11 -0.7537 0.2959
6 5 12 -0.0094 0.2270
6 6 0 -0.0537 1.2949
6 6 1 1.3536 0.2907
6 6 2 0.8063 -0.1394
6 6 3 3.3790 -0.1058
6 6 4 0.2248 -0.0988
6 6 5 1.4306 -0.1298
6 6 6 1.3942 0.2573
6 6 7 -0.5079 -0.0046
6 6 8 1.5429 -0.1931
6 6 9 0.3911 0.0939
6 6 10 -0.0190 0.2749
6 6 11 0.1084 -0.2241
6 7 0 -0.1166 -1.3285
6 7 1 0.0351 -0.4210
6 7 2 -0.3145 0.3097
6 7 3 -2.4761 0.2093
6 7 4 -0.1635 -0.1531
6 7 5 -1.8543 -0.1285
6 7 6 -0.6837 -0.1555
6 7 7 0.4265 0.1687
6 7 8 -0.7332 0.0876
6 7 9 0.1767 -0.2037
6 7 10 -0.2589 -0.4609
6 8 0 0.6812 -0.4925
6 8 1 -0.7711 -0.1701
6 8 2 -0.3892 -0.1727
6 8 3 0.8129 0.0582
6 8 4 -0.0211 -0.0342
6 8 5 1.5233 -0.0864
6 8 6 0.4039 -0.0533
6 8 7 0.0860 -0.0378
6 8 8 0.4412 -0.1423
6 9 0 -0.6663 0.9665
6 9 1 0.6478 0.2410
6 9 2 0.3656 0.0678
6 9 3 0.0323 -0.2695
6 9 4 -0.0551 0.2412
6 9 5 -0.7902 0.3274
7 -4 0 0.1822 0.6327
7 -4 1 0.6799 -0.4128
7 -4 2 0.6563 -0.0103
7 -4 3 0.2382 0.3139
7 -4 4 0.5159 -0.4706
7 -4 5 0.1726 0.3246
7 -4 6 0.4904 -0.3580
7 -4 7 -0.0982 0.1824
7 -3 0 -0.0474 -2.0072
7 -3 1 -1.1000 -0.2034
7 -3 2 -1.0135 0.4922
7 -3 3 -0.6990 -0.2152
7 -3 4 -0.4707 0.2983
7 -3 5 -0.5841 -0.3794
7 -3 6 -1.0773 0.4875
7 -3 7 0.0632 -0.6173
7 -3 8 -0.3797 0.6063
7 -3 9 0.1407 -0.3907
7 -2 0 0.2234 0.7660
7 -2 1 1.1703 0.1932
7 -2 2 0.6599 -0.3568
7 -2 3 1.3750 -0.0057
7 -2 4 0.6689 -0.1161
7 -2 5 0.7615 0.4121
7 -2 6 1.2968 -0.4743
7 -2 7 0.1070 0.5822
7 -2 8 0.8867 -0.2491
7 -2 9 -0.4806 0.3147
7 -2 10 0.1889 -0.7022
7 -1 0 -0.4716 1.8546
7 -1 1 -0.8382 0.5845
7 -1 2 0.2316 -0.3338
7 -1 3 -1.3527 -0.0962
7 -1 4 -0.4570 0.1361
7 -1 5 -0.2589 -0.1617
7 -1 6 -0.2888 0.1900
7 -1 7 0.5774 -0.1548
7 -1 8 -1.4300 0.0981
7 -1 9 0.6813 -0.3704
7 -1 10 -0.2583 0.3032
7 -1 11 0.5400 0.0675
7 0 0 0.5087 -1.4368
7 0 1 0.1018 -0.5688
7 0 2 -0.8406 0.6378
7 0 3 0.6709 0.2309
7 0 4 -0.1216 -0.2332
7 0 5 0.0287 -0.1859
7 0 6 -0.7570 0.2780
7 0 7 -1.4167 -0.0534
7 0 8 1.3692 -0.1574
7 0 9 -0.9609 0.2087
7 0 10 0.1058 0.2087
7 0 11 -1.6096 0.0507
7 0 12 -0.5396 0.5818
7 1 0 -0.7457 -1.4198
7 1 1 0.6724 -0.3283
7 1 2 0.5801 -0.0762
7 1 3 -0.2255 -0.0816
7 1 4 0.2937 0.0239
7 1 5 -0.7968 0.1939
7 1 6 0.8673 -0.3995
7 1 7 1.0791 0.0782
7 1 8 -1.0758 0.1368
7 1 9 1.0124 0.0709
7 1 10 -0.0378 -0.3059
7 1 11 1.9718 -0.2275
7 1 12 0.0777 -0.4779
7 2 0 0.6059 2.1309
7 2 1 -1.2446 0.5793
7 2 2 0.2854 -0.5887
7 2 3 0.2231 -0.1878
7 2 4 0.0676 0.3422
7 2 5 1.7492 0.1564
7 2 6 -1.0049 0.0966
7 2 7 -0.4037 -0.1638
7 2 8 0.3927 0.1100
7 2 9 -0.3775 -0.0961
7 2 10 0.6550 0.0021
7 2 11 -1.3467 0.1123
7 2 12 0.7759 0.1627
7 3 0 0.4261 0.2400
7 3 1 1.5288 0.1870
7 3 2 -1.2279 0.3521
7 3 3 -0.3689 0.2249
7 3 4 -0.7984 -0.2615
7 3 5 -2.3945 -0.2901
7 3 6 0.8697 0.1367
7 3 7 -0.2530 0.1281
7 3 8 0.9497 -0.2911
7 3 9 0.1784 0.0170
7 3 10 -1.0100 0.2187
7 3 11 0.5573 0.1874
7 3 12 -1.1156 0.3982
7 4 0 -0.9505 -1.9850
7 4 1 -1.2422 -0.8276
7 4 2 1.7638 0.4189
7 4 3 0.3676 0.0192
7 4 4 1.6295 -0.0984
7 4 5 2.4210 0.0044
7 4 6 0.1819 -0.1166
7 4 7 1.6886 0.1440
7 4 8 -1.2838 0.1156
7 4 9 -0.2900 -0.2739
7 4 10 0.2669 -0.1615
7 4 11 -0.5260 -0.1134
7 4 12 0.9257 -0.5849
7 5 0 0.5691 0.6198
7 5 1 0.4012 0.4302
7 5 2 -1.8473 -0.5731
7 5 3 -0.3067 -0.0750
7 5 4 -2.2691 0.1237
7 5 5 -1.4882 0.1919
7 5 6 -0.8266 0.1008
7 5 7 -2.4171 -0.3353
7 5 8 0.3654 0.1112
7 5 9 -0.5790 0.4421
7 5 10 0.1551 -0.0810
7 5 11 0.7476 -0.1378
7 6 0 -0.5516 1.4681
7 6 1 0.4081 0.3622
7 6 2 1.7312 0.1006
7 6 3 0.4617 -0.1613
7 6 4 2.5146 0.1525
7 6 5 0.3720 -0.0117
7 6 6 0.7122 -0.1211
7 6 7 1.2796 0.2215
7 6 8 -0.2360 -0.1537
7 6 9 1.2145 -0.0732
7 6 10 0.0839 0.4588
7 7 0 0.6970 -1.2340
7 7 1 -0.6606 -0.2574
7 7 2 -1.0103 0.2269
7 7 3 -0.2806 0.2136
7 7 4 -1.8325 -0.2845
7 7 5 0.2741 -0.1402
7 7 6 -0.8227 0.0164
7 7 7 -0.1621 -0.1125
7 7 8 0.6508 0.1536
7 7 9 -0.6539 -0.1500
7 8 0 -0.3482 -0.0338
7 8 1 0.4959 -0.3489
7 8 2 -0.1165 -0.1319
7 8 3 -0.2563 -0.0332
7 8 4 0.6347 0.1327
7 8 5 -0.4807 -0.0757
7 8 6 0.9285 0.0258
8 -2 0 0.9402 -0.2779
8 -2 1 -0.1649 0.2868
8 -2 2 0.7247 -0.1079
8 -2 3 0.6074 -0.4540
8 -2 4 0.8418 0.5449
8 -2 5 0.6421 -0.5001
8 -2 6 0.3408 0.5346
8 -2 7 0.7344 -0.2490
8 -1 0 -1.0516 1.7470
8 -1 1 0.2486 0.0547
8 -1 2 -0.4465 -0.0584
8 -1 3 0.2626 0.2231
8 -1 4 -0.8565 -0.2414
8 -1 5 -0.3222 0.3030
8 -1 6 -0.0262 -0.4400
8 -1 7 -0.3789 0.2416
8 -1 8 0.3409 -0.5507
8 -1 9 -0.5824 0.4212
8 0 0 -0.1125 -1.1874
8 0 1 -0.3987 0.0243
8 0 2 -0.0304 0.0983
8 0 3 -0.8926 0.1587
8 0 4 0.4429 -0.0053
8 0 5 -0.2296 -0.2503
8 0 6 -0.2433 0.1230
8 0 7 0.0191 -0.0408
8 0 8 -0.5992 0.0880
8 0 9 0.8122 -0.1256
8 0 10 -0.3840 0.6425
8 1 0 1.0229 -0.9760
8 1 1 0.2929 -0.6088
8 1 2 0.5689 0.1784
8 1 3 0.5561 -0.1909
8 1 4 -0.5308 -0.0815
8 1 5 0.1326 0.2014
8 1 6 -0.1675 0.3140
8 1 7 -0.1018 -0.1116
8 1 8 0.3449 0.1614
8 1 9 -0.7375 -0.0911
8 1 10 0.8460 -0.4114
8 2 0 -0.9230 1.5553
8 2 1 0.3298 0.7748
8 2 2 -0.6781 -0.4503
8 2 3 0.3705 -0.0537
8 2 4 0.8218 0.2403
8 2 5 0.2771 0.0114
8 2 6 0.5671 -0.3775
8 2 7 -0.2903 0.0687
8 2 8 0.0990 -0.1705
8 2 9 0.8516 0.1974
8 2 10 -0.6159 -0.1207
8 3 0 0.6513 0.1512
8 3 1 -0.6695 -0.2610
8 3 2 0.2026 0.2369
8 3 3 -1.4041 0.0075
8 3 4 -0.8895 0.0204
8 3 5 -0.6998 0.0271
8 3 6 -0.8584 0.0570
8 3 7 1.0058 -0.0075
8 3 8 -0.0966 0.0605
8 3 9 -0.4584 -0.1335
8 3 10 -0.1223 0.4411
8 4 0 -0.1694 -1.4570
8 4 1 0.0603 -0.2284
8 4 2 -0.1266 0.1273
8 4 3 1.7112 0.4245
8 4 4 0.6290 -0.3697
8 4 5 1.2664 -0.2588
8 4 6 1.4307 0.1732
8 4 7 -0.6016 -0.0437
8 4 8 0.4885 0.0445
8 4 9 -0.3706 -0.1931
8 4 10 0.1771 -0.5469
8 5 0 -0.5372 0.5244
8 5 1 0.5822 -0.0088
8 5 2 0.2563 -0.0741
8 5 3 -1.3221 -0.5262
8 5 4 -0.1819 0.3911
8 5 5 -1.6602 0.0955
8 5 6 -1.4844 -0.2025
8 5 7 -0.3210 0.1290
8 5 8 -1.2791 -0.1808
8 5 9 0.4359 0.3810
8 6 0 0.6212 0.8775
8 6 1 -0.2665 0.5306
8 6 2 0.7401 -0.1233
8 6 3 1.4908 0.1693
8 6 4 0.1065 -0.2889
8 6 5 1.5577 0.2910
8 6 6 0.5888 0.1269
8 6 7 0.3920 -0.2040
8 6 8 1.0517 0.2593
8 7 2 -1.7222 0.1066
8 7 3 -1.6503 -0.0364
8 7 4 -0.1458 0.1579
8 7 5 -0.8926 -0.3651
9 1 3 -0.0556 0.1962
9 1 4 0.3425 -0.0534
9 1 5 -0.3427 -0.1030
9 1 6 0.1606 0.5107
9 2 2 0.1414 0.4064
9 2 3 -0.1155 -0.2574
9 2 4 0.0582 0.1835
9 2 5 0.3558 0.0103
9 2 6 -0.1550 -0.4215
9 3 2 -0.7438 -0.5900
9 3 3 -0.1076 0.1332
9 3 4 -0.5118 -0.1399
9 3 5 -0.1870 0.1882
9 3 6 0.0847 0.2444
9 4 3 0.2664 0.0163
9 4 4 0.8335 0.2145
9 4 5 0.1293 -0.4311
0 0 0 0.0 0.0
;
_shelx_fab_checksum              34461
_olex2_submission_special_instructions 'No special instructions were received'
_oxdiff_exptl_absorpt_empirical_details
;
Empirical correction (ABSPACK) includes:
- Absorption correction using spherical harmonics
- Frame scaling
- Detector area scaling
;
_oxdiff_exptl_absorpt_empirical_full_max 1.898
_oxdiff_exptl_absorpt_empirical_full_min 0.690
loop_
_space_group_symop_operation_xyz
'x, y, z'
'-x, -y, -z'
loop_
_atom_site_label
_atom_site_type_symbol
_atom_site_fract_x
_atom_site_fract_y
_atom_site_fract_z
_atom_site_U_iso_or_equiv
_atom_site_adp_type
_atom_site_occupancy
_atom_site_site_symmetry_order
_atom_site_calc_flag
_atom_site_refinement_flags_posn
Cd1 Cd 0.98428(3) 0.29030(3) 0.57298(2) 0.03178(12) Uani 1 1 d .
O3 O 0.7875(4) 0.5990(3) 0.5323(2) 0.0370(6) Uani 1 1 d .
O4 O 0.1951(4) 1.0359(3) 0.5707(2) 0.0413(6) Uani 1 1 d .
O2 O 0.8260(4) 0.4910(3) 0.6872(2) 0.0437(7) Uani 1 1 d .
O5 O 0.1653(4) 1.2099(3) 0.6964(2) 0.0455(7) Uani 1 1 d .
O1 O 0.9303(5) 0.2302(4) 0.4143(2) 0.0570(8) Uani 1 1 d .
H1A H 0.854258 0.319010 0.377659 0.086 Uiso 1 1 d GR
H1B H 0.845757 0.154956 0.419842 0.086 Uiso 1 1 d GR
N1 N 0.2601(5) 0.8371(5) 1.3454(2) 0.0455(9) Uani 1 1 d .
H1C H 0.227592 0.934741 1.371709 0.055 Uiso 1 1 calc R
H1D H 0.361583 0.787963 1.365058 0.055 Uiso 1 1 calc R
C1 C 0.7464(5) 0.5977(4) 0.6357(3) 0.0321(8) Uani 1 1 d .
C2 C 0.5960(5) 0.7271(4) 0.7000(3) 0.0296(8) Uani 1 1 d .
C4 C 0.3500(5) 0.9550(4) 0.7098(3) 0.0316(8) Uani 1 1 d .
C7 C 0.5583(5) 0.7300(4) 0.8130(3) 0.0343(8) Uani 1 1 d .
H7 H 0.628767 0.652244 0.846706 0.041 Uiso 1 1 calc R
C5 C 0.2300(5) 1.0752(4) 0.6561(3) 0.0359(8) Uani 1 1 d .
C8 C 0.4187(5) 0.8451(4) 0.8780(3) 0.0303(8) Uani 1 1 d .
C9 C 0.3785(5) 0.8454(4) 0.9989(3) 0.0317(8) Uani 1 1 d .
C6 C 0.3168(5) 0.9591(4) 0.8227(3) 0.0322(8) Uani 1 1 d .
H6 H 0.224444 1.039633 0.862791 0.039 Uiso 1 1 calc R
C3 C 0.4894(5) 0.8378(4) 0.6480(3) 0.0311(8) Uani 1 1 d .
H3 H 0.510746 0.833874 0.572540 0.037 Uiso 1 1 calc R
C12 C 0.3046(5) 0.8419(5) 1.2283(3) 0.0373(9) Uani 1 1 d .
C11 C 0.2076(6) 0.9604(5) 1.1766(3) 0.0469(11) Uani 1 1 d .
H11 H 0.115832 1.040118 1.217914 0.056 Uiso 1 1 calc R
C14 C 0.4737(6) 0.7271(5) 1.0528(3) 0.0492(11) Uani 1 1 d .
H14 H 0.564810 0.646547 1.011915 0.059 Uiso 1 1 calc R
C10 C 0.2451(6) 0.9618(5) 1.0646(3) 0.0441(10) Uani 1 1 d .
H10 H 0.178664 1.043821 1.031848 0.053 Uiso 1 1 calc R
C13 C 0.4371(6) 0.7254(6) 1.1651(3) 0.0531(12) Uani 1 1 d .
H13 H 0.503441 0.644010 1.198385 0.064 Uiso 1 1 calc R
loop_
_atom_site_aniso_label
_atom_site_aniso_U_11
_atom_site_aniso_U_22
_atom_site_aniso_U_33
_atom_site_aniso_U_23
_atom_site_aniso_U_13
_atom_site_aniso_U_12
Cd1 0.03634(18) 0.03012(17) 0.02187(16) -0.00082(10) -0.00556(11) 0.00322(12)
O3 0.0347(14) 0.0440(16) 0.0255(13) -0.0056(11) 0.0006(10) -0.0052(12)
O4 0.0522(17) 0.0341(15) 0.0332(14) 0.0014(11) -0.0171(12) 0.0043(12)
O2 0.0489(17) 0.0328(14) 0.0339(14) -0.0031(11) -0.0075(12) 0.0167(12)
O5 0.0539(17) 0.0324(15) 0.0429(16) 0.0002(12) -0.0215(13) 0.0134(13)
O1 0.087(2) 0.063(2) 0.0310(15) 0.0020(14) -0.0228(15) -0.0294(18)
N1 0.049(2) 0.061(2) 0.0244(17) -0.0027(15) -0.0043(14) -0.0146(18)
C1 0.0311(19) 0.032(2) 0.0264(18) -0.0031(15) -0.0038(14) 0.0008(16)
C2 0.0301(18) 0.0284(18) 0.0237(17) 0.0010(14) -0.0024(14) 0.0001(15)
C4 0.0302(18) 0.0289(18) 0.0306(19) 0.0017(14) -0.0064(14) 0.0005(15)
C7 0.037(2) 0.0307(19) 0.0280(19) 0.0017(15) -0.0068(15) 0.0032(16)
C5 0.035(2) 0.034(2) 0.032(2) 0.0034(16) -0.0042(15) -0.0011(16)
C8 0.0326(19) 0.0258(18) 0.0270(18) -0.0004(14) -0.0037(14) -0.0012(15)
C9 0.0311(19) 0.0340(19) 0.0256(18) 0.0013(14) -0.0033(14) -0.0040(15)
C6 0.0299(18) 0.0273(18) 0.0299(18) -0.0026(14) -0.0011(14) 0.0042(15)
C3 0.0330(19) 0.0323(19) 0.0238(17) 0.0013(14) -0.0065(14) -0.0012(15)
C12 0.039(2) 0.048(2) 0.0236(18) -0.0015(16) -0.0018(15) -0.0136(18)
C11 0.053(3) 0.040(2) 0.032(2) -0.0107(17) 0.0077(18) -0.001(2)
C14 0.054(3) 0.050(3) 0.025(2) -0.0014(18) -0.0046(18) 0.015(2)
C10 0.051(2) 0.037(2) 0.032(2) 0.0030(16) -0.0055(17) 0.0068(18)
C13 0.052(3) 0.066(3) 0.029(2) 0.010(2) -0.0089(18) 0.005(2)
loop_
_atom_type_symbol
_atom_type_description
_atom_type_scat_dispersion_real
_atom_type_scat_dispersion_imag
_atom_type_scat_source
C C 0.0181 0.0091 'International Tables Vol C Tables 4.2.6.8 and 6.1.1.4'
H H 0.0000 0.0000 'International Tables Vol C Tables 4.2.6.8 and 6.1.1.4'
Cd Cd 0.1185 4.6533 'International Tables Vol C Tables 4.2.6.8 and 6.1.1.4'
N N 0.0311 0.0180 'International Tables Vol C Tables 4.2.6.8 and 6.1.1.4'
O O 0.0492 0.0322 'International Tables Vol C Tables 4.2.6.8 and 6.1.1.4'
loop_
_geom_angle_atom_site_label_1
_geom_angle_atom_site_label_2
_geom_angle_atom_site_label_3
_geom_angle
_geom_angle_site_symmetry_1
_geom_angle_site_symmetry_3
O3 Cd1 O4 93.26(10) 2_766 1_645
O3 Cd1 O5 89.59(10) 2_766 1_645
O3 Cd1 N1 170.44(10) 2_766 2_667
O3 Cd1 C5 92.82(10) 2_766 1_645
O4 Cd1 C5 27.73(10) 1_645 1_645
O2 Cd1 O3 99.24(10) . 2_766
O2 Cd1 O4 140.04(9) . 1_645
O2 Cd1 O5 87.31(10) . 1_645
O2 Cd1 O1 127.48(12) . .
O2 Cd1 N1 87.02(12) . 2_667
O2 Cd1 C5 113.29(11) . 1_645
O5 Cd1 O4 54.80(9) 1_645 1_645
O5 Cd1 N1 97.96(11) 1_645 2_667
O5 Cd1 C5 27.12(10) 1_645 1_645
O1 Cd1 O3 87.01(10) . 2_766
O1 Cd1 O4 90.75(11) . 1_645
O1 Cd1 O5 145.14(11) . 1_645
O1 Cd1 N1 83.45(11) . 2_667
O1 Cd1 C5 118.44(12) . 1_645
N1 Cd1 O4 86.39(12) 2_667 1_645
N1 Cd1 C5 91.29(12) 2_667 1_645
C1 O3 Cd1 123.6(2) . 2_766
C5 O4 Cd1 89.5(2) . 1_465
C1 O2 Cd1 108.9(2) . .
C5 O5 Cd1 93.8(2) . 1_465
C12 N1 Cd1 114.3(3) . 2_667
O3 C1 C2 119.5(3) . .
O2 C1 O3 122.4(3) . .
O2 C1 C2 118.1(3) . .
C7 C2 C1 119.4(3) . .
C3 C2 C1 120.4(3) . .
C3 C2 C7 120.1(3) . .
C6 C4 C5 119.3(3) . .
C3 C4 C5 120.5(3) . .
C3 C4 C6 120.2(3) . .
C2 C7 C8 122.5(3) . .
O4 C5 Cd1 62.75(19) . 1_465
O4 C5 C4 118.6(3) . .
O5 C5 Cd1 59.09(19) . 1_465
O5 C5 O4 121.7(3) . .
O5 C5 C4 119.8(3) . .
C4 C5 Cd1 174.8(3) . 1_465
C7 C8 C9 121.8(3) . .
C7 C8 C6 116.2(3) . .
C6 C8 C9 122.0(3) . .
C14 C9 C8 121.3(3) . .
C10 C9 C8 122.7(3) . .
C10 C9 C14 116.0(3) . .
C4 C6 C8 121.8(3) . .
C2 C3 C4 119.2(3) . .
C11 C12 N1 120.6(4) . .
C13 C12 N1 121.2(4) . .
C13 C12 C11 118.2(4) . .
C10 C11 C12 120.7(4) . .
C13 C14 C9 122.0(4) . .
C11 C10 C9 122.3(4) . .
C12 C13 C14 120.9(4) . .
loop_
_geom_bond_atom_site_label_1
_geom_bond_atom_site_label_2
_geom_bond_distance
_geom_bond_site_symmetry_2
Cd1 O3 2.290(3) 2_766
Cd1 O4 2.426(3) 1_645
Cd1 O2 2.230(3) .
Cd1 O5 2.346(3) 1_645
Cd1 O1 2.278(3) .
Cd1 N1 2.388(4) 2_667
Cd1 C5 2.729(4) 1_645
O3 C1 1.266(4) .
O4 C5 1.270(5) .
O2 C1 1.252(4) .
O5 C5 1.247(5) .
N1 C12 1.437(5) .
C1 C2 1.501(5) .
C2 C7 1.388(5) .
C2 C3 1.382(5) .
C4 C5 1.496(5) .
C4 C6 1.391(5) .
C4 C3 1.387(5) .
C7 C8 1.393(5) .
C8 C9 1.485(5) .
C8 C6 1.402(5) .
C9 C14 1.388(5) .
C9 C10 1.384(5) .
C12 C11 1.379(6) .
C12 C13 1.368(6) .
C11 C10 1.375(6) .
C14 C13 1.380(6) .
loop_
_smtbx_masks_void_nr
_smtbx_masks_void_average_x
_smtbx_masks_void_average_y
_smtbx_masks_void_average_z
_smtbx_masks_void_volume
_smtbx_masks_void_count_electrons
1 0.126 0.500 -0.126 192.5 58.7
