#------------------------------------------------------------------------------
#$Date: 2019-03-01 01:27:00 +0200 (Fri, 01 Mar 2019) $
#$Revision: 213903 $
#$URL: file:///home/coder/svn-repositories/cod/cif/1/55/06/1550672.cif $
#------------------------------------------------------------------------------
#
# This file is available in the Crystallography Open Database (COD),
# http://www.crystallography.net/
#
# All data on this site have been placed in the public domain by the
# contributors.
#
data_1550672
loop_
_publ_author_name
'Kong, Xiang-Jing'
'He, Tao'
'Zhang, Yongzheng'
'Wu, Xue-Qian'
'Wang, Si-Nan'
'Xu, Ming-Ming'
'Si, Guang-Rui'
'Li, Jian-Rong Jeff'
_publ_section_title
;
 Constructing New Metal-Organic Frameworks with Complicated Ligands
 Generated from &#x201C;One-Pot&#x201D; In Situ Reactions
;
_journal_name_full               'Chemical Science'
_journal_paper_doi               10.1039/C9SC00178F
_journal_year                    2019
_chemical_formula_moiety         '0.06(C252 H162 N18 O72 Zn18)'
_chemical_formula_sum            'C14 H9 N O4 Zn'
_chemical_formula_weight         320.59
_chemical_name_systematic
;
 ?
;
_space_group_crystal_system      trigonal
_space_group_IT_number           166
_space_group_name_Hall           '-R 3 2"'
_space_group_name_H-M_alt        'R -3 m'
_symmetry_space_group_name_Hall  '-R 3 2"'
_symmetry_space_group_name_H-M   'R -3 m :H'
_atom_sites_solution_hydrogens   geom
_audit_creation_date             2017-11-02
_audit_creation_method
;
Olex2 1.2-alpha
(compiled 2017.08.10 svn.r3458 for OlexSys, GUI svn.r5381)
;
_audit_update_record
;
2019-01-04 deposited with the CCDC.    2019-02-28 downloaded from the CCDC.
;
_cell_angle_alpha                90
_cell_angle_beta                 90
_cell_angle_gamma                120
_cell_formula_units_Z            18
_cell_length_a                   18.4038(8)
_cell_length_b                   18.4038(8)
_cell_length_c                   34.5026(19)
_cell_measurement_reflns_used    4009
_cell_measurement_temperature    150.00(10)
_cell_measurement_theta_max      74.3480
_cell_measurement_theta_min      3.7380
_cell_volume                     10120.4(8)
_computing_cell_refinement       'CrysAlisPro 1.171.39.32a (Rigaku OD, 2017)'
_computing_data_collection       'CrysAlisPro 1.171.39.32a (Rigaku OD, 2017)'
_computing_data_reduction        'CrysAlisPro 1.171.39.32a (Rigaku OD, 2017)'
_computing_molecular_graphics    'Olex2 (Dolomanov et al., 2009)'
_computing_publication_material  'Olex2 (Dolomanov et al., 2009)'
_computing_structure_refinement  'ShelXL (Sheldrick, 2015)'
_diffrn_ambient_environment      N~2~
_diffrn_ambient_temperature      150.00(10)
_diffrn_detector                 'CCD plate'
_diffrn_detector_area_resol_mean 10.3376
_diffrn_detector_type            AtlasS2
_diffrn_measured_fraction_theta_full 0.988
_diffrn_measured_fraction_theta_max 1.000
_diffrn_measurement_details
;
List of Runs (angles in degrees, time in seconds):

  # Type    Start    End  Width  t~exp~   \w     \q     \k     \f   Frames
#--------------------------------------------------------------------------
  1  \w    -78.00   3.00   1.00    3.00    --  -41.81  19.00  90.00   81
  2  \w      1.00  33.00   1.00    3.00    --   41.81 -99.00 120.00   32
  3  \w     75.00 117.00   1.00   15.00    --  107.13-125.00 150.00   42
  4  \w    101.00 160.00   1.00   15.00    --  107.13 125.00-120.00   59
  5  \w     37.00 109.00   1.00   15.00    --  107.13 -94.00   0.00   72
  6  \w     41.00 129.00   1.00   15.00    --  107.13 -45.00 -30.00   88
;
_diffrn_measurement_device       'four-circle diffractometer'
_diffrn_measurement_device_type  'SuperNova, Dual, Cu at home/near, AtlasS2'
_diffrn_measurement_method       '\w scans'
_diffrn_orient_matrix_type
'CrysAlisPro convention (1999,Acta A55,543-557)'
_diffrn_orient_matrix_UB_11      -0.0110792000
_diffrn_orient_matrix_UB_12      -0.0691803000
_diffrn_orient_matrix_UB_13      -0.0285618000
_diffrn_orient_matrix_UB_21      0.0352892000
_diffrn_orient_matrix_UB_22      -0.0354859000
_diffrn_orient_matrix_UB_23      0.0305055000
_diffrn_orient_matrix_UB_31      -0.0892328000
_diffrn_orient_matrix_UB_32      -0.0573906000
_diffrn_orient_matrix_UB_33      0.0155598000
_diffrn_radiation_monochromator  mirror
_diffrn_radiation_probe          x-ray
_diffrn_radiation_type           CuK\a
_diffrn_radiation_wavelength     1.54184
_diffrn_reflns_av_R_equivalents  0.0595
_diffrn_reflns_av_unetI/netI     0.0446
_diffrn_reflns_Laue_measured_fraction_full 0.988
_diffrn_reflns_Laue_measured_fraction_max 1.000
_diffrn_reflns_limit_h_max       14
_diffrn_reflns_limit_h_min       -17
_diffrn_reflns_limit_k_max       7
_diffrn_reflns_limit_k_min       -21
_diffrn_reflns_limit_l_max       41
_diffrn_reflns_limit_l_min       -27
_diffrn_reflns_number            7259
_diffrn_reflns_point_group_measured_fraction_full 0.988
_diffrn_reflns_point_group_measured_fraction_max 1.000
_diffrn_reflns_theta_full        67.684
_diffrn_reflns_theta_max         67.038
_diffrn_reflns_theta_min         3.776
_diffrn_source                   'micro-focus sealed X-ray tube'
_diffrn_source_type              'SuperNova (Cu) X-ray Source'
_exptl_absorpt_coefficient_mu    1.591
_exptl_absorpt_correction_T_max  1.00000
_exptl_absorpt_correction_T_min  0.69025
_exptl_absorpt_correction_type   multi-scan
_exptl_absorpt_process_details
;
CrysAlisPro 1.171.39.32a (Rigaku Oxford Diffraction, 2017)
Empirical absorption correction using spherical harmonics,
 implemented in SCALE3 ABSPACK scaling algorithm.
;
_exptl_crystal_colour            'light yellow'
_exptl_crystal_density_diffrn    0.947
_exptl_crystal_description       block
_exptl_crystal_F_000             2916
_exptl_crystal_size_max          0.15
_exptl_crystal_size_mid          0.08
_exptl_crystal_size_min          0.08
_refine_diff_density_max         1.285
_refine_diff_density_min         -0.546
_refine_diff_density_rms         0.101
_refine_ls_extinction_method     none
_refine_ls_goodness_of_fit_ref   1.088
_refine_ls_hydrogen_treatment    constr
_refine_ls_matrix_type           full
_refine_ls_number_parameters     100
_refine_ls_number_reflns         2221
_refine_ls_number_restraints     12
_refine_ls_restrained_S_all      1.145
_refine_ls_R_factor_all          0.0645
_refine_ls_R_factor_gt           0.0602
_refine_ls_shift/su_max          0.000
_refine_ls_shift/su_mean         0.000
_refine_ls_structure_factor_coef Fsqd
_refine_ls_weighting_details
'w=1/[\s^2^(Fo^2^)+(0.0720P)^2^+97.4730P] where P=(Fo^2^+2Fc^2^)/3'
_refine_ls_weighting_scheme      calc
_refine_ls_wR_factor_gt          0.1639
_refine_ls_wR_factor_ref         0.1673
_reflns_Friedel_coverage         0.000
_reflns_number_gt                2002
_reflns_number_total             2221
_reflns_threshold_expression     'I > 2\s(I)'
_iucr_refine_instructions_details
;
TITL kxj17103010_a.res in R-3m
REM Old TITL kxj17103010 in R-3m #166
CELL 1.54184 18.4038 18.4038 34.5026 90 90 120
ZERR 18 0.0008 0.0008 0.0019 0 0 0
LATT 3
SYMM -Y,+X-Y,+Z
SYMM +Y-X,-X,+Z
SYMM +Y,+X,-Z
SYMM -Y+X,-Y,-Z
SYMM -X,-X+Y,-Z
SFAC C H N O Zn
UNIT 252 162 18 72 18
ISOR 0.01 0.002 C7 C8
 
L.S. 10
PLAN  1
BOND $H
LIST 6
fmap 2
ABIN
ACTA
REM <olex2.extras>
REM <HklSrc "%.\\kxj17103010.hkl">
REM </olex2.extras>
 
WGHT    0.072000   97.473000
FVAR       1.36151
ZN1   5    0.195087   -0.195087    0.368092    10.50000    0.02540    0.02540 =
         0.00671    0.00026   -0.00026    0.01813
O002  4    0.189728   -0.036117    0.334322    11.00000    0.06781    0.03411 =
         0.02009   -0.00971   -0.01488    0.03205
O003  4    0.231476   -0.076762    0.386382    11.00000    0.08072    0.03523 =
         0.02583   -0.00824   -0.01650    0.04078
N1    3    0.476437    0.238219    0.586745    10.50000    0.01828    0.06803 =
         0.00691    0.00229    0.00458    0.00914
AFIX  23
H1A   2    0.509040    0.293568    0.588925    10.50000   -1.20000
H1B   2    0.509040    0.215472    0.588925    10.50000   -1.20000
AFIX   0
C2    1    0.247964    0.059366    0.385842    11.00000    0.03986    0.03190 =
         0.01819   -0.00605   -0.00565    0.02174
C3    1    0.229296    0.114648    0.368178    10.50000    0.03600    0.02641 =
         0.01457   -0.00449   -0.00899    0.01800
AFIX  43
H3    2    0.203696    0.101849    0.343956    10.50000   -1.20000
AFIX   0
C1    1    0.221533   -0.024339    0.367618    11.00000    0.04118    0.03253 =
         0.01872   -0.00520   -0.00395    0.02247
C6    1    0.357474    0.178737    0.477526    10.50000    0.04129    0.03566 =
         0.01747   -0.00112   -0.00224    0.02065
C9    1    0.438314    0.219157    0.548891    10.50000    0.02405    0.05242 =
         0.01073    0.00009    0.00019    0.01202
C5    1    0.311273    0.155637    0.439416    10.50000    0.05095    0.03265 =
         0.01312   -0.00506   -0.01012    0.02548
C4    1    0.289158    0.079491    0.421167    11.00000    0.04921    0.03126 =
         0.02294   -0.00538   -0.01618    0.02502
AFIX  43
H4    2    0.302262    0.041972    0.432885    11.00000   -1.20000
AFIX   0
C7    1    0.375819    0.248647    0.495896    11.00000    0.14004    0.08761 =
         0.05140   -0.04304   -0.05767    0.09160
AFIX  43
H7    2    0.357878    0.283395    0.485217    11.00000   -1.20000
AFIX   0
C8    1    0.421296    0.273393    0.530940    11.00000    0.12661    0.10741 =
         0.04913   -0.05032   -0.05563    0.09397
AFIX  43
H8    2    0.439080    0.326278    0.541352    11.00000   -1.20000
AFIX   0
HKLF 4
 
REM  kxj17103010_a.res in R-3m
REM R1 =  0.0602 for    2002 Fo > 4sig(Fo)  and  0.0645 for all    2221 data
REM    100 parameters refined using     12 restraints
 
END  
     
WGHT      0.0723     94.7816 

REM Highest difference peak  1.285,  deepest hole -0.546,  1-sigma level  0.101
Q1    1   0.6038  0.2076  0.5901  10.50000  0.05    1.28

  REM The information below was added by Olex2.
  REM
  REM R1 = 0.0602 for 2002 Fo > 4sig(Fo) and 0.0645 for all 7259 data
  REM n/a parameters refined using n/a restraints
  REM Highest difference peak 1.28, deepest hole -0.55
  REM Mean Shift 0, Max Shift 0.000.

  REM +++ Tabular Listing of Refinement Information +++
  REM R1_all = 0.0645
  REM R1_gt = 0.0602
  REM wR_ref = 0.1673
  REM GOOF = 1.088
  REM Shift_max = 0.000
  REM Shift_mean = 0
  REM Reflections_all = 7259
  REM Reflections_gt = 2002
  REM Parameters = n/a
  REM Hole = -0.55
  REM Peak = 1.28
  REM Flack = n/a

  
;
_cod_data_source_file            c9sc00178f2.cif
_cod_data_source_block           BUT-101(Zn)
_cod_original_cell_volume        10120.4(10)
_cod_database_code               1550672
_shelxl_version_number           2014-1
_chemical_oxdiff_formula         'C H O N Zn'
_shelx_space_group_comment
;
The symmetry employed for this shelxl refinement is uniquely defined
by the following loop, which should always be used as a source of
symmetry information in preference to the above space-group names.
They are only intended as comments.
;
_reflns_odcompleteness_completeness 99.96
_reflns_odcompleteness_iscentric 1
_reflns_odcompleteness_theta     66.97
_olex2_refinement_description
;
1. Fixed Uiso
 At 1.2 times of:
  All C(H) groups, All N(H,H) groups
2. Uiso/Uaniso restraints and constraints
Uanis(C7) \\sim Ueq, Uanis(C8) \\sim Ueq: with sigma of 0.01 and sigma for
terminal atoms of 0.002
3. Others
 Fixed Sof: H1A(0.5) H1B(0.5)
4.a Secondary CH2 refined with riding coordinates:
 N1(H1A,H1B)
4.b Aromatic/amide H refined with riding coordinates:
 C3(H3), C4(H4), C7(H7), C8(H8)
;
_shelx_fab_file
;
0 0 3 164.6959 -6.9043
0 0 6 -134.9915 -2.7426
0 0 9 -210.6401 2.3918
0 0 12 62.7726 5.2300
0 0 15 140.4618 5.8496
0 0 18 15.9411 4.7308
0 0 21 -33.8080 0.9178
0 0 24 2.5201 -2.8432
0 0 27 10.5536 -5.4438
0 0 30 3.8010 -6.3053
0 0 33 -9.7076 -4.4814
0 0 36 -14.5692 -1.4383
0 0 39 -0.1569 1.2407
1 0 -41 -6.2321 -1.7436
1 0 -38 -0.0262 -0.2341
1 0 -35 12.4929 2.9612
1 0 -32 2.9595 3.5990
1 0 -29 -24.2504 3.8724
1 0 -26 -1.6433 2.9033
1 0 -23 12.3346 0.9701
1 0 -20 1.2342 -1.6042
1 0 -17 -62.3629 -2.8966
1 0 -14 -57.6298 -3.9306
1 0 -11 0.9670 -2.7949
1 0 -8 -5.3668 -0.2886
1 0 -5 27.4740 2.6189
1 0 -2 83.3570 4.4294
1 0 4 120.6938 0.5831
1 0 7 122.4198 -1.1490
1 0 10 -128.8697 -2.4318
1 0 13 -66.6475 -2.0788
1 0 16 29.0384 -0.9239
1 0 19 43.6268 0.3585
1 0 22 42.3765 2.1307
1 0 25 -3.1516 2.3097
1 0 28 17.0494 1.2727
1 0 31 6.5807 0.3865
1 0 34 4.4636 -0.3414
1 0 37 -6.6068 -0.7104
1 0 40 0.7416 -1.8210
1 1 0 334.2877 4.2096
1 1 3 -77.7451 0.7252
1 1 6 39.2478 -1.5427
1 1 9 90.6029 -3.5190
1 1 12 52.7003 -3.8920
1 1 15 41.9198 -2.4320
1 1 18 -23.6842 -0.2600
1 1 21 -18.8531 2.2477
1 1 24 -2.5978 3.6969
1 1 27 5.5294 3.4373
1 1 30 1.4085 2.3082
1 1 33 -3.5846 0.4503
1 1 36 -16.8403 -2.2128
1 1 39 -2.7405 -2.6559
2 0 -40 -4.4191 4.4320
2 0 -37 0.5614 0.5553
2 0 -34 2.6468 -2.5169
2 0 -31 6.0221 -5.9913
2 0 -28 19.0973 -7.5607
2 0 -25 2.0859 -6.0847
2 0 -22 34.1955 -2.2631
2 0 -19 -20.2912 3.2352
2 0 -16 -0.2333 6.4978
2 0 -13 42.3030 7.7634
2 0 -10 169.3744 5.4299
2 0 -7 24.8522 0.0294
2 0 -4 -356.6807 -5.3434
2 0 -1 -409.9537 -7.3128
2 0 2 178.3135 -6.3983
2 0 5 221.3042 -5.0831
2 0 8 193.6078 -1.1093
2 0 11 -109.7060 3.1652
2 0 14 -119.1836 5.5870
2 0 17 -48.8998 5.0751
2 0 20 17.8046 3.4377
2 0 23 -6.2855 -0.1834
2 0 26 -11.6466 -3.3907
2 0 29 -12.6260 -5.3249
2 0 32 -7.1713 -5.4820
2 0 35 2.0123 -3.1014
2 0 38 -0.9104 0.6631
2 1 -38 1.0024 -1.7410
2 1 -35 8.7094 -1.9008
2 1 -32 -10.4438 0.0586
2 1 -29 -1.1966 1.5944
2 1 -26 3.1859 3.0994
2 1 -23 -28.7430 3.1314
2 1 -20 -29.8728 1.6604
2 1 -17 6.0427 -0.2995
2 1 -14 41.1090 -2.4237
2 1 -11 12.2077 -3.4255
2 1 -8 -55.6740 -2.6948
2 1 -5 -112.0406 -1.0541
2 1 -2 -90.7798 1.2400
2 1 1 53.0593 3.9505
2 1 4 -82.4275 3.9347
2 1 7 8.6150 2.5774
2 1 10 31.5944 0.2693
2 1 13 45.6759 -1.8911
2 1 16 16.0699 -3.1296
2 1 19 -27.1090 -3.4175
2 1 22 3.6311 -1.9755
2 1 25 12.6362 0.2957
2 1 28 11.6540 2.6407
2 1 31 -7.8797 3.5359
2 1 34 -3.7563 3.1761
2 1 37 3.8518 1.4712
2 1 40 3.9204 -1.3181
2 2 0 268.2947 -1.6678
2 2 3 29.8744 -0.5883
2 2 6 35.6144 0.1513
2 2 9 -49.5722 1.2213
2 2 12 3.7149 1.7186
2 2 15 40.1522 1.6418
2 2 18 34.0698 0.7439
2 2 21 5.9121 -0.3605
2 2 24 -13.6264 -1.4493
2 2 27 -18.7207 -1.8923
2 2 30 -7.6420 -1.4007
2 2 33 10.1097 -1.0496
2 2 36 4.5293 0.3764
2 2 39 -2.9228 1.3196
3 0 -39 -3.9762 1.3111
3 0 -36 -15.7661 4.0519
3 0 -33 9.8329 2.8224
3 0 -30 18.9270 1.1995
3 0 -27 -8.6744 -0.8321
3 0 -24 -30.0521 -3.3033
3 0 -21 10.4892 -4.4565
3 0 -18 75.6349 -3.3360
3 0 -15 60.6436 -0.7208
3 0 -12 -40.1048 2.2511
3 0 -9 -15.7228 4.1506
3 0 -6 48.6423 4.0399
3 0 -3 87.4428 2.1509
3 0 0 105.9955 -0.5879
3 0 3 -114.8579 -2.9552
3 0 6 136.9740 -2.8049
3 0 9 191.4780 -2.2945
3 0 12 59.1462 -1.1769
3 0 15 -39.4525 0.6819
3 0 18 -46.3274 1.9549
3 0 21 16.7629 3.1462
3 0 24 7.1504 2.4124
3 0 27 -4.7760 0.7257
3 0 30 -15.9556 -1.3687
3 0 33 7.9870 -2.5915
3 0 36 0.9961 -2.9595
3 0 39 -3.7339 -2.9966
3 1 -40 3.5228 0.6663
3 1 -37 11.6211 -0.6393
3 1 -34 8.2812 -1.5146
3 1 -31 -5.6807 -1.3880
3 1 -28 2.1375 -1.1163
3 1 -25 12.8107 -0.3049
3 1 -22 48.4443 0.9519
3 1 -19 17.2073 1.7508
3 1 -16 -31.1562 1.5904
3 1 -13 -55.1682 0.9539
3 1 -10 14.3746 -0.1931
3 1 -7 91.5762 -1.2261
3 1 -4 -70.7165 -1.8259
3 1 -1 24.1878 -2.2629
3 1 2 -13.5601 -0.8398
3 1 5 14.3438 0.6957
3 1 8 15.1038 1.8878
3 1 11 -63.0353 2.0043
3 1 14 -31.2665 1.4553
3 1 17 23.4970 0.5347
3 1 20 -6.2333 -0.7946
3 1 23 -28.8944 -1.9087
3 1 26 -30.2371 -2.0053
3 1 29 3.4559 -1.4091
3 1 32 8.9393 -0.1339
3 1 35 1.5836 0.7964
3 1 38 -5.6257 1.4632
3 2 -38 2.7641 -0.4202
3 2 -35 7.5202 -0.5076
3 2 -32 -2.2045 -0.5058
3 2 -29 -2.7763 -0.6047
3 2 -26 3.1107 -0.2681
3 2 -23 3.8791 -0.0591
3 2 -20 -15.7151 0.1445
3 2 -17 -47.3927 0.5120
3 2 -14 -45.0833 0.5868
3 2 -11 -4.9280 0.4962
3 2 -8 30.8335 0.3910
3 2 -5 38.7535 -0.0880
3 2 -2 -86.1979 -0.4223
3 2 1 -27.3649 -0.4177
3 2 4 17.4450 -0.4878
3 2 7 27.6646 -0.5473
3 2 10 -61.2920 -0.0169
3 2 13 -27.9407 0.3462
3 2 16 27.5729 0.3219
3 2 19 13.5085 0.2158
3 2 22 -1.4889 0.3282
3 2 25 3.6093 0.2823
3 2 28 4.6684 -0.0304
3 2 31 1.9058 0.0590
3 2 34 0.2685 0.0516
3 2 37 0.2789 0.2149
3 2 40 6.3937 -2.9107
3 3 0 55.6670 -0.0492
3 3 3 23.5585 0.2263
3 3 6 1.6985 0.8097
3 3 9 27.2370 1.2941
3 3 12 60.5820 1.0973
3 3 15 33.0676 0.3852
3 3 18 -35.6781 -0.0698
3 3 21 -22.0444 -0.3617
3 3 24 6.8533 -0.6494
3 3 27 30.8902 -0.2199
3 3 30 4.1814 -0.0695
3 3 33 -13.5224 0.2014
3 3 36 2.5410 1.2910
3 3 39 6.5675 1.2612
4 0 -38 7.7075 2.4421
4 0 -35 5.7259 3.0044
4 0 -32 -20.4406 1.6499
4 0 -29 7.6282 -0.0035
4 0 -26 34.6617 -1.7326
4 0 -23 -1.9971 -2.3134
4 0 -20 -39.6029 -2.2242
4 0 -17 -55.7010 -1.0227
4 0 -14 -11.8679 1.1473
4 0 -11 -45.5829 2.6265
4 0 -8 29.2456 3.0967
4 0 -5 85.1196 2.1280
4 0 -2 8.4602 1.6234
4 0 1 2.2960 -0.7032
4 0 4 -117.4642 -2.4751
4 0 7 -94.7801 -2.7745
4 0 10 57.7877 -1.7802
4 0 13 78.1634 0.3053
4 0 16 30.3841 2.2269
4 0 19 -58.9773 3.2068
4 0 22 -11.4570 3.0203
4 0 25 22.5951 1.9513
4 0 28 25.6616 0.1629
4 0 31 7.1138 -1.9802
4 0 34 -1.4035 -2.3790
4 0 37 -7.4224 -1.5379
4 0 40 4.0554 1.3095
4 1 -39 -7.6936 -0.8451
4 1 -36 -2.0093 -0.4789
4 1 -33 4.7844 -0.1765
4 1 -30 7.2450 0.4993
4 1 -27 -4.8115 0.8968
4 1 -24 -17.6753 0.9768
4 1 -21 0.1563 0.6904
4 1 -18 -8.3987 0.0209
4 1 -15 -10.4805 -0.7504
4 1 -12 -17.1591 -1.2269
4 1 -9 28.9391 -1.0731
4 1 -6 121.6430 -0.2669
4 1 -3 89.6695 0.5363
4 1 0 -21.4203 0.7737
4 1 3 -22.6954 0.8382
4 1 6 34.6362 0.4964
4 1 9 42.6428 0.0016
4 1 12 27.7144 -0.6644
4 1 15 4.5335 -1.1122
4 1 18 -11.1797 -0.8056
4 1 21 16.5028 -0.3697
4 1 24 13.7402 0.1582
4 1 27 8.8496 0.5374
4 1 30 -5.4601 0.9071
4 1 33 3.8315 0.7874
4 1 36 3.7921 -0.3109
4 1 39 1.2435 0.3128
4 2 -37 -7.7620 -0.2625
4 2 -34 3.8626 1.3611
4 2 -31 19.6936 1.6574
4 2 -28 23.1570 1.4358
4 2 -25 -22.9035 0.8770
4 2 -22 -19.8714 -0.4908
4 2 -19 0.7207 -1.6510
4 2 -16 45.2124 -2.1443
4 2 -13 -6.8225 -1.9938
4 2 -10 -0.6938 -0.9624
4 2 -7 28.0600 0.4448
4 2 -4 31.1054 1.6470
4 2 -1 -0.7047 1.7781
4 2 2 -75.7300 1.3040
4 2 5 -4.5272 0.5497
4 2 8 41.2893 -0.7826
4 2 11 -11.0901 -1.6935
4 2 14 -43.6932 -1.7609
4 2 17 -32.3737 -1.2127
4 2 20 3.7443 -0.3528
4 2 23 15.4511 0.3960
4 2 26 -1.2386 1.2730
4 2 29 -7.6617 1.2818
4 2 32 -9.1589 1.0058
4 2 35 -5.0045 0.5090
4 2 38 0.4351 -0.6947
4 3 -38 -1.5675 0.5730
4 3 -35 9.6731 1.5666
4 3 -32 6.0852 0.7146
4 3 -29 2.7485 -1.2489
4 3 -26 -13.5772 -2.6688
4 3 -23 12.6632 -2.9813
4 3 -20 5.0429 -1.8884
4 3 -17 -10.6940 0.0039
4 3 -14 -17.8539 1.7649
4 3 -11 41.6770 2.9558
4 3 -8 14.5243 2.7873
4 3 -5 -18.6910 1.4144
4 3 -2 12.8172 -0.5546
4 3 1 19.5244 -2.2515
4 3 4 12.9972 -2.9170
4 3 7 7.3637 -2.7775
4 3 10 -42.9368 -1.3703
4 3 13 -12.2415 0.6367
4 3 16 45.0132 2.2934
4 3 19 17.1353 3.0233
4 3 22 -7.5906 2.5024
4 3 25 -18.4526 0.7850
4 3 28 7.1295 -1.0034
4 3 31 15.3050 -2.2597
4 3 34 -0.2012 -3.4779
4 3 37 -10.8473 -1.0630
4 4 0 28.1281 -0.5123
4 4 3 -4.5862 0.3009
4 4 6 7.5260 0.8454
4 4 9 -9.2095 1.1661
4 4 12 32.3626 0.7575
4 4 15 16.5080 0.0184
4 4 18 3.1073 -0.5683
4 4 21 9.6804 -0.8314
4 4 24 2.5875 -0.8237
4 4 27 3.0339 -0.5908
4 4 30 -5.5804 0.2907
4 4 33 -7.9533 0.9777
4 4 36 6.8068 -0.1631
5 0 -37 3.3854 1.8355
5 0 -34 1.7635 2.7094
5 0 -31 -11.2931 1.9670
5 0 -28 12.6270 1.0362
5 0 -25 -0.7417 -0.5430
5 0 -22 -8.1118 -1.7797
5 0 -19 -37.9072 -2.5927
5 0 -16 3.3707 -1.8610
5 0 -13 7.1545 -0.0739
5 0 -10 34.6946 1.6833
5 0 -7 19.1692 2.5695
5 0 -4 -80.4067 2.1620
5 0 -1 25.6589 1.6693
5 0 2 30.0720 0.2609
5 0 5 -3.2031 -1.2984
5 0 8 -78.6427 -2.2366
5 0 11 -40.8946 -2.3755
5 0 14 16.0150 -1.0424
5 0 17 11.9994 0.2909
5 0 20 -22.5842 1.8583
5 0 23 -6.3830 2.9195
5 0 26 -16.1556 2.6232
5 0 29 15.6701 1.0809
5 0 32 2.5471 -0.8019
5 0 35 -3.7359 -2.2347
5 0 38 -7.9147 -2.9844
5 1 -38 -3.2110 -0.3269
5 1 -35 0.5432 -1.1880
5 1 -32 5.7696 -1.2743
5 1 -29 3.0848 -1.2921
5 1 -26 -12.3217 -0.9256
5 1 -23 -25.1589 -0.0282
5 1 -20 -7.9319 0.9336
5 1 -17 20.7554 1.6144
5 1 -14 15.1905 1.3876
5 1 -11 -11.2355 0.5914
5 1 -8 -28.7438 -0.5491
5 1 -5 -2.2628 -1.3050
5 1 -2 -54.0547 -1.3705
5 1 1 7.4561 -1.0904
5 1 4 -52.1475 -0.2952
5 1 7 1.8001 0.4573
5 1 10 -9.7325 1.1678
5 1 13 -11.8297 1.1995
5 1 16 -3.5073 0.5838
5 1 19 4.5045 -0.0702
5 1 22 20.2248 -0.6549
5 1 25 6.7432 -1.3853
5 1 28 -4.0488 -1.6899
5 1 31 -2.9641 -0.6961
5 1 34 -7.7236 -0.4193
5 1 37 -3.1719 0.8738
5 2 -36 6.8863 -1.4036
5 2 -33 -6.2778 -2.1612
5 2 -30 -3.0511 -1.8449
5 2 -27 1.7987 -0.5407
5 2 -24 -4.2703 1.0060
5 2 -21 10.4658 2.0368
5 2 -18 20.0418 2.2299
5 2 -15 9.4413 1.4350
5 2 -12 26.6192 0.0030
5 2 -9 -26.1138 -1.5412
5 2 -6 34.0701 -2.4340
5 2 -3 51.6740 -2.1318
5 2 0 42.2901 -0.8754
5 2 3 -52.9811 0.3563
5 2 6 -7.3898 1.4551
5 2 9 33.4898 2.0463
5 2 12 32.2949 1.9066
5 2 15 19.5714 0.6846
5 2 18 -17.8483 -0.6042
5 2 21 4.4004 -1.9239
5 2 24 4.2279 -2.1415
5 2 27 24.5544 -1.5267
5 2 30 -6.6519 -0.6469
5 2 33 -10.0897 0.7068
5 2 36 -10.1828 2.4112
5 3 -37 -2.2381 -0.7553
5 3 -34 5.2169 1.3440
5 3 -31 -1.3468 1.4004
5 3 -28 0.0849 2.2355
5 3 -25 -2.9338 1.2423
5 3 -22 10.2336 -0.1223
5 3 -19 16.5467 -1.3145
5 3 -16 11.9174 -1.9321
5 3 -13 -26.8421 -1.9194
5 3 -10 -11.1721 -0.9729
5 3 -7 11.6324 0.3288
5 3 -4 13.2198 1.4548
5 3 -1 22.7839 2.2030
5 3 2 -27.6749 2.0189
5 3 5 17.2884 0.7258
5 3 8 4.7151 -0.6603
5 3 11 -2.6610 -1.8598
5 3 14 -16.5869 -2.2344
5 3 17 1.1349 -1.6624
5 3 20 5.0798 -0.4363
5 3 23 -4.1231 1.0352
5 3 26 -21.5197 1.9346
5 3 29 -3.0281 2.0043
5 3 32 -2.3226 1.3694
5 3 35 2.9773 0.3631
5 3 38 1.3343 0.1999
5 4 -35 -6.8418 0.3552
5 4 -32 -4.9778 -0.7146
5 4 -29 -1.0262 -0.1927
5 4 -26 1.2190 -0.3348
5 4 -23 7.3578 0.3209
5 4 -20 -9.4085 0.7061
5 4 -17 -17.4730 0.8453
5 4 -14 -1.8098 0.6066
5 4 -11 12.2360 0.0917
5 4 -8 18.9948 -0.5321
5 4 -5 -28.0809 -0.8880
5 4 -2 -14.1497 -0.9463
5 4 1 -0.9058 -0.4097
5 4 4 14.2084 0.0932
5 4 7 -0.2582 0.6306
5 4 10 -28.7948 0.7104
5 4 13 -2.2478 0.9568
5 4 16 -0.2711 0.4300
5 4 19 -4.9943 -0.2199
5 4 22 5.4425 -0.6404
5 4 25 -0.6638 -0.7946
5 4 28 -9.9352 -0.9363
5 4 31 -4.7410 -0.6303
5 4 34 2.4202 0.0106
5 4 37 4.4229 -0.5277
5 5 0 -12.7370 0.6247
5 5 3 -10.8483 0.9017
5 5 6 6.9973 0.4191
5 5 9 -3.9297 -0.2588
5 5 12 -0.3360 -0.8528
5 5 15 -4.6428 -0.8937
5 5 18 7.8715 -0.6903
5 5 21 -1.7505 -0.3175
5 5 24 -12.6881 0.1821
5 5 27 3.1942 0.5555
5 5 30 9.2812 0.9795
5 5 33 4.5343 0.7707
5 5 36 -0.0356 -0.3904
6 0 -39 -9.4253 0.2275
6 0 -36 17.4514 2.0238
6 0 -33 6.6560 2.4745
6 0 -30 -26.6765 1.9186
6 0 -27 -42.9830 -0.0861
6 0 -24 0.8675 -1.3620
6 0 -21 44.6723 -2.7050
6 0 -18 23.3857 -2.3195
6 0 -15 -50.1957 -1.0812
6 0 -12 4.2849 0.5879
6 0 -9 -10.7365 2.0264
6 0 -6 71.2131 2.6728
6 0 -3 -33.4492 2.3325
6 0 0 -62.3268 1.4251
6 0 3 55.8958 -0.0066
6 0 6 70.3553 -1.6262
6 0 9 -13.3436 -2.6513
6 0 12 -12.4354 -2.5969
6 0 15 11.4602 -1.2848
6 0 18 32.2693 0.6057
6 0 21 14.6737 2.1024
6 0 24 -10.7721 2.6980
6 0 27 1.4428 2.3879
6 0 30 5.0775 0.9879
6 0 33 -3.2080 -0.5516
6 0 36 -3.6414 -2.0521
6 0 39 5.1055 -0.4023
6 1 -37 0.8279 -1.2327
6 1 -34 -12.1500 -0.5180
6 1 -31 -14.8857 -0.6121
6 1 -28 17.2762 0.2111
6 1 -25 2.4622 1.1333
6 1 -22 -11.2970 1.2658
6 1 -19 -9.1587 1.0617
6 1 -16 13.7834 0.5438
6 1 -13 21.9105 -0.3304
6 1 -10 9.4008 -0.9858
6 1 -7 -65.3473 -1.1544
6 1 -4 -1.3864 -1.0476
6 1 -1 74.2768 -0.4243
6 1 2 -2.4687 0.3683
6 1 5 10.7911 1.0259
6 1 8 -37.2484 1.4330
6 1 11 -0.8536 1.2152
6 1 14 13.1870 0.6345
6 1 17 -6.6655 -0.2053
6 1 20 -20.2905 -1.1632
6 1 23 -9.3089 -1.5633
6 1 26 -5.4004 -0.8303
6 1 29 1.6683 -0.0756
6 1 32 -23.6579 0.6262
6 1 35 4.3911 0.8615
6 1 38 8.8546 1.5372
6 2 -38 0.7109 -1.1579
6 2 -35 -12.0777 0.8217
6 2 -32 -10.7271 0.2279
6 2 -29 9.7713 0.3529
6 2 -26 18.6462 -0.2757
6 2 -23 7.5540 -0.6672
6 2 -20 -18.2576 -0.4568
6 2 -17 -12.7321 -0.4440
6 2 -14 3.4625 -0.0927
6 2 -11 -7.6380 0.5896
6 2 -8 -3.0912 0.9185
6 2 -5 -26.3414 0.7704
6 2 -2 1.6775 0.0932
6 2 1 13.2832 -0.3983
6 2 4 -11.8154 -0.6825
6 2 7 -19.4735 -0.5964
6 2 10 -28.0740 -0.2916
6 2 13 -3.9888 0.1514
6 2 16 9.3661 0.4009
6 2 19 -11.6201 0.9047
6 2 22 -1.2364 0.7969
6 2 25 -10.4853 0.4888
6 2 28 0.5873 0.0613
6 2 31 1.8699 -0.0475
6 2 34 14.1222 -0.8177
6 2 37 2.7447 -0.6756
6 3 -36 -9.4728 -0.0305
6 3 -33 4.8219 0.6113
6 3 -30 11.8479 0.2923
6 3 -27 10.4966 0.0472
6 3 -24 -28.0218 0.4324
6 3 -21 3.4763 -0.0202
6 3 -18 11.2019 -0.4425
6 3 -15 4.9076 -0.2972
6 3 -12 -30.5885 -0.1663
6 3 -9 -29.1948 -0.1457
6 3 -6 55.9738 0.2067
6 3 -3 -15.6591 0.3227
6 3 0 -14.1125 0.4001
6 3 3 -51.0689 0.2104
6 3 6 11.9904 0.2497
6 3 9 17.7088 -0.0547
6 3 12 9.0723 -0.2587
6 3 15 -16.9917 -0.2788
6 3 18 -12.0721 -0.2425
6 3 21 14.4836 -0.1204
6 3 24 11.4379 0.0376
6 3 27 3.3274 0.1075
6 3 30 -0.3706 0.3775
6 3 33 16.9540 -0.3502
6 3 36 0.7821 1.3502
6 4 -34 18.5249 -0.4284
6 4 -31 -2.2290 -0.5679
6 4 -28 -10.4258 -0.8063
6 4 -25 -20.5114 -0.8106
6 4 -22 0.1779 -0.3254
6 4 -19 -1.2641 0.3431
6 4 -16 -6.3470 0.9713
6 4 -13 -22.2464 1.1952
6 4 -10 36.7384 0.9905
6 4 -7 26.5387 0.2292
6 4 -4 -16.4331 -0.3178
6 4 -1 -8.0993 -0.8474
6 4 2 9.4469 -0.9480
6 4 5 31.8650 -0.8316
6 4 8 10.9821 -0.2143
6 4 11 -18.0364 0.5670
6 4 14 -5.2348 1.0954
6 4 17 -0.7505 0.9747
6 4 20 1.6567 0.4970
6 4 23 -10.2109 -0.1112
6 4 26 11.9729 -0.4448
6 4 29 15.9786 -0.9507
6 4 32 2.9498 -0.3377
6 4 35 -23.0160 -0.4951
6 5 -35 1.0154 -0.8486
6 5 -32 -4.4084 -0.8735
6 5 -29 -5.6298 0.1395
6 5 -26 -2.5776 0.8561
6 5 -23 2.9318 0.9256
6 5 -20 3.0162 0.3996
6 5 -17 -4.1160 -0.0133
6 5 -14 7.9610 -0.6379
6 5 -11 23.2888 -0.7269
6 5 -8 12.0731 -0.5012
6 5 -5 -18.3282 -0.2349
6 5 -2 -15.2351 0.1377
6 5 1 11.4385 0.3179
6 5 4 11.0606 0.4969
6 5 7 -6.1033 0.6339
6 5 10 -5.3372 0.3599
6 5 13 -11.6640 -0.0962
6 5 16 0.4214 -0.4759
6 5 19 -9.3691 -0.5259
6 5 22 4.2607 -0.5982
6 5 25 0.9658 -0.1628
6 5 28 -0.4670 0.6480
6 5 31 -11.0820 0.2013
6 5 34 -2.0348 0.8594
6 6 0 -23.7556 0.0949
6 6 3 1.2399 -0.3169
6 6 6 -28.8945 -0.6293
6 6 9 -32.8559 -0.6440
6 6 12 9.3826 -0.5751
6 6 15 11.2289 -0.1695
6 6 18 6.7317 0.1381
6 6 21 -7.9026 0.6543
6 6 24 4.9727 0.3699
6 6 27 9.1790 0.0306
6 6 30 -9.4117 -0.6005
6 6 33 -2.7054 0.3872
7 0 -38 -6.9208 1.3993
7 0 -35 -7.7362 3.1288
7 0 -32 11.2775 3.5780
7 0 -29 6.8070 3.2146
7 0 -26 -7.3847 1.4089
7 0 -23 -21.4698 -1.3771
7 0 -20 5.4093 -3.4136
7 0 -17 26.6309 -3.9331
7 0 -14 -19.4483 -2.7208
7 0 -11 -63.0108 -0.5645
7 0 -8 -3.8064 2.1609
7 0 -5 32.5853 4.0741
7 0 -2 -19.7492 3.4681
7 0 1 -33.4499 2.0069
7 0 4 -13.9630 -0.0678
7 0 7 39.7634 -1.7043
7 0 10 -4.8447 -2.8852
7 0 13 -20.0058 -3.2795
7 0 16 -32.2634 -1.8784
7 0 19 8.2780 0.1774
7 0 22 22.7944 2.3719
7 0 25 -6.3369 3.1497
7 0 28 -19.1736 2.9052
7 0 31 -7.8689 1.3923
7 0 34 11.5430 -0.5948
7 0 37 11.6508 -2.6625
7 1 -36 0.0443 0.7025
7 1 -33 3.3405 -1.1565
7 1 -30 -7.7377 -1.3691
7 1 -27 -10.7122 -1.3911
7 1 -24 -1.6367 -0.8615
7 1 -21 12.8682 -0.0732
7 1 -18 -11.9017 0.7233
7 1 -15 -32.9311 1.2353
7 1 -12 -17.3034 1.3013
7 1 -9 0.9146 0.8514
7 1 -6 83.5686 -0.0279
7 1 -3 -19.2119 -0.8832
7 1 0 -44.6847 -1.3936
7 1 3 -9.5143 -1.3778
7 1 6 31.4530 -0.8584
7 1 9 -0.5529 0.0060
7 1 12 2.0759 0.6850
7 1 15 10.0350 1.4044
7 1 18 7.4382 1.3134
7 1 21 0.8151 0.7797
7 1 24 -5.9907 -0.1971
7 1 27 9.2878 -1.0197
7 1 30 7.4083 -1.3081
7 1 33 21.3330 -0.8734
7 1 36 -8.6798 0.0853
7 2 -37 1.0105 0.1869
7 2 -34 4.0739 -0.3433
7 2 -31 -10.5568 -0.3407
7 2 -28 -5.3680 -0.6477
7 2 -25 -2.2823 -0.4656
7 2 -22 2.3442 -0.2931
7 2 -19 -4.3234 0.2173
7 2 -16 -19.2034 0.5843
7 2 -13 -9.1425 0.4257
7 2 -10 56.0322 0.2583
7 2 -7 15.4614 -0.0381
7 2 -4 -2.4566 -0.1757
7 2 -1 15.2485 -0.3262
7 2 2 10.8081 -0.4251
7 2 5 32.7707 -0.2688
7 2 8 -28.4353 -0.1832
7 2 11 -16.0459 0.1441
7 2 14 -2.1952 0.4197
7 2 17 14.0734 0.2465
7 2 20 -8.1371 0.0932
7 2 23 -16.8783 -0.0669
7 2 26 -2.8877 -0.3224
7 2 29 17.6236 -0.4320
7 2 32 5.2016 0.0763
7 2 35 0.9306 0.2798
7 3 -35 -4.5628 0.2697
7 3 -32 -10.7111 0.1098
7 3 -29 -1.3099 0.4716
7 3 -26 15.5112 0.3046
7 3 -23 7.7071 0.2305
7 3 -20 -16.1648 0.1746
7 3 -17 -12.6365 -0.4651
7 3 -14 30.7576 -0.7877
7 3 -11 38.4746 -0.6870
7 3 -8 -5.9380 -0.4347
7 3 -5 -33.0215 0.0921
7 3 -2 10.1557 0.4065
7 3 1 37.8599 0.5530
7 3 4 -6.4241 0.3768
7 3 7 -28.9202 0.0824
7 3 10 -13.2235 0.0019
7 3 13 -0.8554 -0.5530
7 3 16 -5.8101 -0.5444
7 3 19 -25.8578 -0.3843
7 3 22 7.7723 -0.0825
7 3 25 19.4845 0.2968
7 3 28 10.0316 0.3100
7 3 31 -10.0904 0.4903
7 3 34 -5.8219 -0.0446
7 4 -33 8.2464 0.2037
7 4 -30 11.2166 -0.0758
7 4 -27 4.9532 -0.1175
7 4 -24 -16.8214 -0.5641
7 4 -21 -10.7142 -0.7132
7 4 -18 10.1817 -0.3897
7 4 -15 18.9189 0.0489
7 4 -12 -3.6119 0.4087
7 4 -9 -21.7332 0.4522
7 4 -6 14.6139 0.4813
7 4 -3 -14.1813 0.1137
7 4 0 -20.7200 -0.2200
7 4 3 -14.4233 -0.4092
7 4 6 -3.7481 -0.4785
7 4 9 11.6015 -0.4716
7 4 12 8.6855 -0.1790
7 4 15 -6.0586 -0.0293
7 4 18 -1.6712 0.4988
7 4 21 7.1510 0.6487
7 4 24 6.0982 0.4967
7 4 27 7.5599 0.0379
7 4 30 -1.4597 -0.2324
7 4 33 3.0369 0.1540
7 5 -34 2.2535 -0.3230
7 5 -31 5.9010 -0.2470
7 5 -28 -1.1813 -0.4022
7 5 -25 -14.7967 -0.6876
7 5 -22 2.5454 -0.1981
7 5 -19 -8.7256 0.4874
7 5 -16 11.2904 0.8481
7 5 -13 -6.9235 0.7439
7 5 -10 -10.3928 0.5803
7 5 -7 17.0560 0.1448
7 5 -4 7.7443 -0.2803
7 5 -1 -11.1810 -0.6010
7 5 2 -9.3255 -0.5234
7 5 5 19.3421 -0.2832
7 5 8 16.6795 0.0765
7 5 11 2.8877 0.5698
7 5 14 -8.0097 1.0511
7 5 17 0.3198 0.7394
7 5 20 16.9830 0.3716
7 5 23 1.0283 -0.2706
7 5 26 -5.2991 -0.5319
7 5 29 -6.9176 -0.3693
7 5 32 5.2246 -0.9944
7 6 -32 1.9236 -0.0690
7 6 -29 -6.9297 0.1190
7 6 -26 -6.7368 0.1200
7 6 -23 13.2556 0.4787
7 6 -20 17.2054 0.4495
7 6 -17 -2.1304 0.1272
7 6 -14 -13.1659 -0.0769
7 6 -11 9.6070 -0.3286
7 6 -8 12.4439 -0.4460
7 6 -5 1.4758 -0.2271
7 6 -2 -14.6544 -0.0146
7 6 1 5.4518 0.1398
7 6 4 24.2717 0.2606
7 6 7 4.6834 0.3161
7 6 10 -24.6887 0.1662
7 6 13 -18.2433 -0.0923
7 6 16 -1.8796 -0.2695
7 6 19 -1.9716 -0.5320
7 6 22 -5.1244 -0.3678
7 6 25 4.3641 -0.3854
7 6 28 -5.1217 -0.1764
7 6 31 2.4685 0.1556
7 7 0 12.3949 -0.6598
7 7 3 -3.1915 -0.5407
7 7 6 -11.4451 -0.2714
7 7 9 -12.8037 0.0776
7 7 12 7.2360 0.4935
7 7 15 2.1327 0.7410
7 7 18 -10.5337 0.4423
7 7 21 -1.6037 -0.1060
7 7 24 6.6414 0.1080
7 7 27 8.4288 0.4834
7 7 30 -1.7124 -1.5463
8 0 -37 -6.6453 -2.0647
8 0 -34 1.4142 0.3499
8 0 -31 6.2319 2.1083
8 0 -28 13.6365 2.2237
8 0 -25 -16.4805 1.0449
8 0 -22 -27.4440 -0.6056
8 0 -19 -16.6790 -1.0763
8 0 -16 14.3762 -1.7279
8 0 -13 27.0732 -1.8725
8 0 -10 37.9170 -1.5922
8 0 -7 -18.3734 -0.4517
8 0 -4 20.8480 0.5381
8 0 -1 35.0324 1.7042
8 0 2 -0.0381 1.9015
8 0 5 0.1679 1.2342
8 0 8 -21.2448 -0.3875
8 0 11 32.4836 -1.9880
8 0 14 31.4833 -3.0382
8 0 17 -23.2324 -2.1547
8 0 20 -23.2123 -0.8168
8 0 23 -5.3302 0.9346
8 0 26 9.5858 1.8340
8 0 29 9.2057 2.2144
8 0 32 -3.0635 0.6668
8 0 35 -13.0873 -0.7953
8 1 -35 7.7318 -0.8049
8 1 -32 7.5310 0.1471
8 1 -29 -7.6472 -0.0507
8 1 -26 -6.3217 0.4239
8 1 -23 14.3451 1.1388
8 1 -20 4.7784 0.8026
8 1 -17 5.1160 0.2435
8 1 -14 -1.5140 -0.3029
8 1 -11 28.0746 -0.6585
8 1 -8 26.2505 -0.8568
8 1 -5 1.3893 -0.5910
8 1 -2 -31.7014 0.0603
8 1 1 -6.1160 0.5386
8 1 4 10.0776 0.9592
8 1 7 4.3186 1.0402
8 1 10 -11.9081 0.5433
8 1 13 -20.7167 -0.0599
8 1 16 -10.6621 -0.5883
8 1 19 -7.2335 -1.0548
8 1 22 12.2121 -0.9235
8 1 25 11.0101 -0.2866
8 1 28 4.2742 0.0355
8 1 31 -9.6718 0.6160
8 1 34 -6.3876 1.2180
8 2 -36 0.0248 -1.5360
8 2 -33 -1.6060 -0.6185
8 2 -30 -2.0638 0.1356
8 2 -27 -2.0754 0.3443
8 2 -24 -11.2094 0.2805
8 2 -21 11.6773 0.1517
8 2 -18 12.1208 0.2141
8 2 -15 13.9339 0.2082
8 2 -12 -18.9436 0.0601
8 2 -9 -31.6564 -0.0847
8 2 -6 18.5628 -0.0172
8 2 -3 1.1282 0.0058
8 2 0 19.4052 0.0134
8 2 3 -19.7989 -0.1293
8 2 6 11.6994 -0.0392
8 2 9 -4.2211 0.1632
8 2 12 -7.8632 0.3216
8 2 15 -21.3491 0.2784
8 2 18 6.7670 0.1574
8 2 21 23.1467 -0.0798
8 2 24 18.6055 -0.3304
8 2 27 -6.9715 -0.3125
8 2 30 -18.1720 -0.7926
8 2 33 0.5935 -1.3903
8 2 36 8.4166 1.5496
8 3 -34 -6.9882 0.0958
8 3 -31 -9.7752 0.5162
8 3 -28 2.5205 0.4658
8 3 -25 -6.7572 0.3445
8 3 -22 4.9442 0.0130
8 3 -19 -9.6246 -0.4955
8 3 -16 -6.5879 -0.6733
8 3 -13 6.1976 -0.4506
8 3 -10 4.9520 -0.2626
8 3 -7 0.8946 0.0368
8 3 -4 -2.7357 0.2905
8 3 -1 12.8690 0.5340
8 3 2 37.5805 0.4773
8 3 5 15.3581 0.2743
8 3 8 -8.1223 -0.1198
8 3 11 -20.1077 -0.6364
8 3 14 7.5609 -0.7871
8 3 17 22.7179 -0.6192
8 3 20 4.1085 -0.1231
8 3 23 -17.7352 0.1608
8 3 26 -6.9621 0.7773
8 3 29 -4.2064 1.0244
8 3 32 8.1187 0.6644
8 3 35 -1.4544 0.1520
8 4 -32 3.2352 0.4531
8 4 -29 13.2948 -0.9122
8 4 -26 10.7926 -0.2644
8 4 -23 -4.4394 0.4236
8 4 -20 2.7371 0.6657
8 4 -17 -10.4854 0.5747
8 4 -14 -0.6985 0.2771
8 4 -11 7.0126 -0.2743
8 4 -8 0.7633 -0.5305
8 4 -5 20.1280 -0.7163
8 4 -2 -3.0284 -0.4143
8 4 1 -4.9229 -0.0342
8 4 4 -22.1767 0.2528
8 4 7 -17.6279 0.4248
8 4 10 15.4750 0.6147
8 4 13 10.6964 0.3166
8 4 16 3.5112 0.0039
8 4 19 -13.2421 -0.3073
8 4 22 -7.7531 -0.4887
8 4 25 -9.3914 -0.6977
8 4 28 0.1321 -0.2970
8 4 31 5.1990 0.0210
8 4 34 9.7644 1.5874
8 5 -33 22.9297 1.4271
8 5 -30 9.9034 0.4994
8 5 -27 4.6349 0.1421
8 5 -24 -8.3308 0.1638
8 5 -21 -6.9659 -0.2158
8 5 -18 -9.5449 -0.5614
8 5 -15 5.1422 -0.7176
8 5 -12 1.2895 -0.4851
8 5 -9 1.5631 -0.1689
8 5 -6 -3.3315 0.3090
8 5 -3 -1.8494 0.7399
8 5 0 -0.4861 0.8227
8 5 3 -8.2300 0.5385
8 5 6 -2.0993 -0.1122
8 5 9 -6.5810 -0.4833
8 5 12 9.5035 -0.9409
8 5 15 12.5805 -0.5810
8 5 18 -1.3827 -0.4096
8 5 21 -9.3352 0.1629
8 5 24 -1.8067 0.6433
8 5 27 10.3228 0.4673
8 5 30 12.4219 -0.2203
8 5 33 -2.6533 -0.2095
8 6 -31 8.2385 1.1668
8 6 -28 -5.6685 0.9577
8 6 -25 -8.0328 0.4281
8 6 -22 -0.8462 0.3126
8 6 -19 -11.3183 0.0403
8 6 -16 -2.1979 -0.6516
8 6 -13 7.0601 -0.7647
8 6 -10 3.8773 -0.6310
8 6 -7 12.1474 -0.2143
8 6 -4 6.3498 0.2549
8 6 -1 -3.4432 0.6844
8 6 2 1.9250 0.7286
8 6 5 25.7806 0.5448
8 6 8 9.0911 0.2068
8 6 11 -2.7572 -0.2040
8 6 14 -18.0931 -0.7646
8 6 17 -8.8991 -0.6217
8 6 20 10.9655 -0.0500
8 6 23 14.3412 0.3349
8 6 26 -0.4143 0.3124
8 6 29 -3.1859 1.5186
8 7 -29 -4.9645 0.8446
8 7 -26 -1.2620 -0.4649
8 7 -23 10.1816 -0.5793
8 7 -20 5.4026 -0.5540
8 7 -17 7.5316 -0.7902
8 7 -14 4.9699 0.0855
8 7 -11 7.5443 0.6557
8 7 -8 -9.8931 0.9462
8 7 -5 -7.2235 0.8236
8 7 -2 9.2124 0.3652
8 7 1 10.4721 -0.1625
8 7 4 -0.0534 -0.6709
8 7 7 -11.7206 -0.9517
8 7 10 -2.4511 -0.8121
8 7 13 -2.0813 -0.1726
8 7 16 -2.0206 0.6921
8 7 19 -12.8408 0.6630
8 7 22 -0.9044 0.2289
8 7 25 8.8832 -0.2592
8 7 28 1.1715 -0.0585
8 8 0 12.9967 0.0808
8 8 3 -2.8708 0.0627
8 8 6 -14.3865 0.1584
8 8 9 -1.5987 0.0224
8 8 12 4.8063 0.1217
8 8 15 3.1814 -0.1358
8 8 18 11.1248 -0.3207
8 8 21 7.0294 -0.3411
8 8 24 -3.3388 0.3585
8 8 27 -2.2628 0.0882
9 0 -36 1.4932 1.4633
9 0 -33 -4.3232 2.2456
9 0 -30 0.9301 2.2315
9 0 -27 15.6175 1.5755
9 0 -24 5.3234 -0.2245
9 0 -21 -7.5637 -1.1057
9 0 -18 -29.5983 -2.1928
9 0 -15 23.1916 -2.2783
9 0 -12 34.3358 -1.5789
9 0 -9 -9.9895 -0.3202
9 0 -6 -0.9141 1.4214
9 0 -3 -27.4030 2.1165
9 0 0 -20.2696 2.2269
9 0 3 -0.9840 1.2411
9 0 6 -14.1575 -0.5055
9 0 9 -2.7485 -1.8244
9 0 12 16.9198 -2.6627
9 0 15 18.8512 -2.1627
9 0 18 -0.7210 -1.0085
9 0 21 9.0293 0.6704
9 0 24 22.2854 1.9676
9 0 27 11.1351 1.9452
9 0 30 -17.5675 1.6452
9 0 33 -6.4560 0.7587
9 0 36 -3.5652 -2.4588
9 1 -34 6.6096 -0.2485
9 1 -31 6.7293 -1.5375
9 1 -28 7.3464 -2.0771
9 1 -25 -20.6382 -1.5998
9 1 -22 -12.1900 -0.4545
9 1 -19 -0.8291 0.9968
9 1 -16 24.7199 1.6687
9 1 -13 22.8423 1.9554
9 1 -10 -21.9804 1.3836
9 1 -7 -13.5767 0.2408
9 1 -4 41.2556 -1.2432
9 1 -1 37.5166 -2.0119
9 1 2 8.2390 -1.9095
9 1 5 -5.0358 -0.8160
9 1 8 -3.9920 0.1917
9 1 11 1.3039 1.4268
9 1 14 2.0266 2.0245
9 1 17 12.7404 1.9960
9 1 20 11.5374 0.7810
9 1 23 -0.6633 -0.6434
9 1 26 -9.5107 -1.3811
9 1 29 -14.0945 -1.3492
9 1 32 -2.1680 -1.0834
9 1 35 9.6386 0.3198
9 2 -32 4.4106 0.0272
9 2 -29 2.0007 -0.1909
9 2 -26 -8.2627 0.3159
9 2 -23 -4.9595 0.0292
9 2 -20 11.8711 -0.1094
9 2 -17 21.3228 -0.0780
9 2 -14 2.2229 0.0494
9 2 -11 -20.2069 0.1381
9 2 -8 -27.6390 0.1616
9 2 -5 -1.3107 -0.0041
9 2 -2 -6.5241 0.0029
9 2 1 35.7336 -0.0201
9 2 4 -9.7935 0.0427
9 2 7 -2.0508 0.0685
9 2 10 -8.4244 0.1070
9 2 13 -10.3318 0.2037
9 2 16 -3.0931 0.0532
9 2 19 -0.0752 0.0199
9 2 22 -7.6262 0.1337
9 2 25 -3.2986 0.1866
9 2 28 -8.9354 -0.2533
9 2 31 -8.7945 0.6826
9 2 34 3.6908 -0.6817
9 3 -33 6.6403 0.1956
9 3 -30 -7.4787 0.5512
9 3 -27 -13.6173 0.8992
9 3 -24 3.2083 0.4321
9 3 -21 5.5794 0.0353
9 3 -18 -1.2612 -0.0301
9 3 -15 -29.7618 -0.4247
9 3 -12 -34.8723 -0.7411
9 3 -9 12.5226 -0.5581
9 3 -6 -4.4916 -0.1575
9 3 -3 -32.0216 0.3851
9 3 0 -14.9296 0.6231
9 3 3 -11.3746 0.6991
9 3 6 11.2126 0.4939
9 3 9 -2.6661 -0.0329
9 3 12 3.2350 -0.3092
9 3 15 11.8491 -0.7527
9 3 18 7.7334 -0.7730
9 3 21 -10.4359 -0.4497
9 3 24 -7.8293 -0.0449
9 3 27 -1.4657 0.5532
9 3 30 10.0809 0.4120
9 3 33 0.2392 -0.7318
9 4 -31 8.8336 0.0078
9 4 -28 -1.7138 -0.2035
9 4 -25 -7.4994 -0.4391
9 4 -22 14.1124 -0.4104
9 4 -19 -20.9995 -0.2548
9 4 -16 -22.5107 0.1267
9 4 -13 2.1007 0.8183
9 4 -10 15.2982 1.0062
9 4 -7 5.7253 0.8502
9 4 -4 7.2616 0.1726
9 4 -1 15.8297 -0.6484
9 4 2 11.8304 -1.0886
9 4 5 -4.1862 -1.0485
9 4 8 -8.7889 -0.3648
9 4 11 17.3507 0.3287
9 4 14 11.3988 0.7748
9 4 17 6.3875 1.1243
9 4 20 -10.0563 0.7895
9 4 23 -3.0649 0.4358
9 4 26 5.8178 -0.2011
9 4 29 4.7369 -0.1254
9 4 32 0.7245 -0.8363
9 5 -29 13.2491 -0.2384
9 5 -26 4.7398 0.4190
9 5 -23 -5.3887 0.1563
9 5 -20 -4.6151 -0.3775
9 5 -17 2.2434 -0.0841
9 5 -14 10.2488 0.2250
9 5 -11 11.4625 0.2394
9 5 -8 -4.0624 0.1268
9 5 -5 0.2166 -0.1829
9 5 -2 13.4202 -0.4013
9 5 1 -6.7400 -0.3259
9 5 4 1.7769 -0.0383
9 5 7 -3.7395 0.0411
9 5 10 -1.8753 -0.0809
9 5 13 -9.3826 0.1524
9 5 16 -10.2125 0.2400
9 5 19 -3.5317 -0.0455
9 5 22 3.5286 -0.2928
9 5 25 4.6921 0.0118
9 5 28 2.0989 -0.4392
9 5 31 -5.6495 -1.3494
9 6 -27 -1.9762 -0.7563
9 6 -24 -11.5077 -0.4461
9 6 -21 -4.9992 0.0808
9 6 -18 3.2988 0.6747
9 6 -15 9.3092 0.7610
9 6 -12 -14.0294 0.1548
9 6 -9 -14.1447 -0.2656
9 6 -6 6.7032 -0.7056
9 6 -3 -0.3097 -0.8023
9 6 0 -0.2204 -0.4944
9 6 3 -33.0687 -0.0970
9 6 6 0.8483 0.4515
9 6 9 5.5071 0.7205
9 6 12 1.0587 0.8450
9 6 15 -13.4154 0.1382
9 6 18 -13.3310 -0.5041
9 6 21 7.7907 -0.5347
9 6 24 7.7622 -0.1882
9 6 27 -0.6777 -0.6132
9 7 -28 -7.0779 -1.1036
9 7 -25 -4.6132 -0.1032
9 7 -22 14.1646 0.1556
9 7 -19 8.2485 0.1496
9 7 -16 -3.4795 -0.2054
9 7 -13 -21.6821 -0.1821
9 7 -10 8.8829 -0.0912
9 7 -7 9.2983 -0.1047
9 7 -4 -4.1892 -0.0260
9 7 -1 -5.6956 0.0784
9 7 2 2.7017 0.0015
9 7 5 4.2726 -0.1259
9 7 8 -8.4188 -0.2658
9 7 11 -6.7703 -0.2225
9 7 14 4.3882 -0.2746
9 7 17 12.6758 -0.1314
9 7 20 0.3033 0.4093
9 7 23 -4.0744 -0.0917
9 7 26 -8.3154 -0.2299
9 8 -26 3.5743 1.3685
9 8 -23 6.1634 1.0747
9 8 -20 1.8905 -0.1162
9 8 -17 1.7918 -0.2309
9 8 -14 -5.2546 -0.2467
9 8 -11 7.2984 -0.2026
9 8 -8 1.3314 -0.3269
9 8 -5 -4.0726 -0.2031
9 8 -2 -13.5244 -0.1192
9 8 1 13.1000 0.0870
9 8 4 0.0839 0.3361
9 8 7 1.1602 0.4112
9 8 10 6.1308 0.2122
9 8 13 -17.5028 -0.0952
9 8 16 0.5013 0.0303
9 8 19 3.2023 0.3649
9 8 22 2.8382 -1.0344
9 8 25 -3.4508 -0.3502
9 9 0 11.9210 0.1722
9 9 3 1.5339 0.1642
9 9 6 -3.1997 0.0859
9 9 9 -5.2728 0.1761
9 9 12 4.7101 0.2016
9 9 15 2.9167 0.9242
9 9 18 -16.8645 -0.2758
9 9 21 -7.4979 0.0162
10 0 -35 6.2370 -2.0964
10 0 -32 8.7110 0.6451
10 0 -29 -10.1698 2.9250
10 0 -26 -6.5095 3.2392
10 0 -23 32.4506 2.2810
10 0 -20 22.1221 0.1579
10 0 -17 -16.5445 -2.0818
10 0 -14 -41.4579 -3.2285
10 0 -11 22.4013 -3.2436
10 0 -8 36.8005 -2.4296
10 0 -5 21.8238 -0.4363
10 0 -2 -30.6929 2.0719
10 0 1 -31.0146 3.3461
10 0 4 -15.8553 3.3642
10 0 7 -13.4923 1.8326
10 0 10 -17.6531 -0.4030
10 0 13 -2.5960 -2.6130
10 0 16 22.3862 -3.8525
10 0 19 13.5506 -3.4228
10 0 22 -11.4796 -1.3675
10 0 25 -0.4365 1.1814
10 0 28 0.5811 2.6496
10 0 31 -7.7305 2.7096
10 0 34 7.0987 3.5480
10 1 -33 -5.1104 -0.0816
10 1 -30 -3.1264 0.3881
10 1 -27 7.0018 -0.3175
10 1 -24 6.3761 -0.9134
10 1 -21 1.3107 -0.8366
10 1 -18 -20.2347 -0.4618
10 1 -15 -15.8670 0.2489
10 1 -12 -21.7173 0.7927
10 1 -9 9.5419 1.2781
10 1 -6 -12.3276 1.0092
10 1 -3 -26.9011 0.4505
10 1 0 7.2629 -0.3143
10 1 3 -14.6503 -0.9915
10 1 6 -5.4620 -1.2234
10 1 9 -0.2879 -0.8935
10 1 12 20.8513 -0.2493
10 1 15 20.1274 0.8407
10 1 18 -1.9980 1.4117
10 1 21 -9.8973 1.4652
10 1 24 4.9903 0.6299
10 1 27 -1.3730 0.0987
10 1 30 -13.5730 -0.2711
10 1 33 0.3893 -1.5127
10 2 -31 -0.7783 -0.0893
10 2 -28 5.8841 -0.8125
10 2 -25 -6.9676 -0.4200
10 2 -22 -10.9497 -0.2570
10 2 -19 -25.3684 -0.1227
10 2 -16 5.1741 0.1028
10 2 -13 35.3675 0.1753
10 2 -10 5.5780 0.4106
10 2 -7 -23.5169 0.5212
10 2 -4 -27.4981 0.0862
10 2 -1 -2.4355 -0.2540
10 2 2 31.8484 -0.5152
10 2 5 31.9718 -0.4729
10 2 8 21.4729 -0.4012
10 2 11 14.7973 -0.0204
10 2 14 -2.5200 0.2407
10 2 17 -13.1042 0.4233
10 2 20 -17.0237 0.2908
10 2 23 -2.4700 0.0601
10 2 26 8.1862 -0.3547
10 2 29 -5.7447 -1.0968
10 2 32 -0.6701 1.7285
10 3 -32 1.2466 1.1131
10 3 -29 7.1645 -0.3162
10 3 -26 -8.2678 -0.0606
10 3 -23 -10.7516 0.0884
10 3 -20 4.6750 0.3830
10 3 -17 27.2219 0.3957
10 3 -14 13.8891 0.1605
10 3 -11 -11.6843 -0.3103
10 3 -8 -17.2284 -0.6980
10 3 -5 11.7602 -0.7205
10 3 -2 6.0860 -0.5257
10 3 1 -8.6754 0.0451
10 3 4 -23.7336 0.4373
10 3 7 13.1156 0.5682
10 3 10 17.0207 0.4087
10 3 13 -11.0638 0.1598
10 3 16 -22.2769 -0.3091
10 3 19 -11.4431 -0.4898
10 3 22 9.5177 -0.5314
10 3 25 9.7629 -0.4678
10 3 28 3.2858 -0.1573
10 3 31 -2.9581 -0.4645
10 4 -30 -6.7161 -0.2401
10 4 -27 -13.0684 -0.5496
10 4 -24 -5.9829 -0.7193
10 4 -21 11.7811 -0.0423
10 4 -18 13.1737 0.1731
10 4 -15 -4.9984 0.0609
10 4 -12 -31.5543 0.1131
10 4 -9 -9.0228 0.2114
10 4 -6 -0.9412 0.1839
10 4 -3 5.9908 0.2752
10 4 0 16.0351 0.1162
10 4 3 1.1676 -0.0429
10 4 6 -3.2332 -0.1707
10 4 9 -17.5626 -0.2332
10 4 12 -14.7614 -0.3161
10 4 15 6.9712 0.0333
10 4 18 18.3360 0.5027
10 4 21 10.9159 0.5053
10 4 24 0.8074 0.1955
10 4 27 -1.6926 -0.1057
10 4 30 -0.9565 1.4181
10 5 -28 -5.1786 0.0742
10 5 -25 2.8573 0.2850
10 5 -22 10.1496 0.5944
10 5 -19 -4.7799 0.3017
10 5 -16 -19.0883 -0.0191
10 5 -13 -17.6708 -0.2041
10 5 -10 10.4045 -0.3351
10 5 -7 21.1408 -0.3066
10 5 -4 1.5339 0.0040
10 5 -1 -9.0839 0.2654
10 5 2 8.4197 0.2702
10 5 5 17.3483 0.0625
10 5 8 -3.7436 0.1755
10 5 11 -15.5012 0.0305
10 5 14 -8.9273 0.0742
10 5 17 9.5523 0.0195
10 5 20 9.2638 -0.3634
10 5 23 2.7487 -0.3448
10 5 26 -11.9650 0.1653
10 5 29 -4.5353 0.0239
10 6 -26 14.6130 0.5766
10 6 -23 6.6047 0.1732
10 6 -20 -7.2591 -0.3339
10 6 -17 -3.1291 -0.1039
10 6 -14 -14.4685 -0.2507
10 6 -11 8.6196 0.1253
10 6 -8 4.3342 0.2495
10 6 -5 -1.0415 0.3756
10 6 -2 -1.9317 0.1523
10 6 1 -2.9496 -0.1365
10 6 4 -17.2911 -0.0716
10 6 7 -6.1929 0.0222
10 6 10 6.0578 -0.0608
10 6 13 -8.2574 -0.2361
10 6 16 6.3206 -0.0571
10 6 19 -18.2520 0.0569
10 6 22 -11.3990 0.0895
10 6 25 3.1115 -0.0532
10 7 -24 -4.2405 -0.5499
10 7 -21 -8.7645 -0.4132
10 7 -18 6.3123 0.6005
10 7 -15 3.2606 0.1782
10 7 -12 -1.3317 -0.0294
10 7 -9 -2.3054 0.1675
10 7 -6 -4.5600 0.1179
10 7 -3 1.0514 -0.0688
10 7 0 -11.0604 0.0503
10 7 3 -8.5189 0.0015
10 7 6 -3.5656 -0.1203
10 7 9 4.0899 -0.0521
10 7 12 -0.3835 0.4049
10 7 15 -3.9105 -0.3136
10 7 18 -3.4119 -0.0651
10 7 21 2.1001 0.6377
10 7 24 -1.8590 1.3997
10 8 -22 -6.5924 0.1426
10 8 -19 -3.6878 0.3887
10 8 -16 4.8238 0.5471
10 8 -13 -1.5688 -0.1010
10 8 -10 -1.4681 -0.2732
10 8 -7 5.0653 -0.3682
10 8 -4 -0.2993 -0.4259
10 8 -1 -5.6330 -0.3484
10 8 2 -2.9354 -0.2213
10 8 5 12.5352 -0.0243
10 8 8 -6.0890 0.0433
10 8 11 -4.0506 0.1226
10 8 14 -10.6430 0.0197
10 8 17 -8.0726 0.4884
10 8 20 2.5253 -0.1346
10 8 23 7.3277 -0.9977
10 9 -20 -3.5993 -1.3938
10 9 -17 0.2579 -0.9322
10 9 -14 -2.3247 -0.4440
10 9 -11 -1.0855 -0.4334
10 9 -8 3.9701 -0.3330
10 9 -5 0.4381 -0.0618
10 9 -2 -13.4475 0.2967
10 9 1 9.4411 0.1927
10 9 4 18.1616 0.1534
10 9 7 5.6413 0.2991
10 9 10 -10.8315 0.3511
10 9 13 -8.8360 -0.4891
10 9 16 0.9057 -0.7440
10 9 19 6.9786 0.1375
10 10 0 14.6468 -0.0832
10 10 3 0.8666 -0.3024
10 10 6 2.1520 -0.2368
10 10 9 -5.0964 -0.2168
10 10 12 4.2915 0.5801
10 10 15 10.0135 1.1096
11 0 -31 -6.4366 0.3328
11 0 -28 -0.1645 1.1958
11 0 -25 -0.9157 1.4713
11 0 -22 8.1090 1.9821
11 0 -19 9.3752 0.6396
11 0 -16 -14.9470 -0.8307
11 0 -13 -23.4129 -2.1696
11 0 -10 5.6198 -2.8147
11 0 -7 33.2812 -2.3506
11 0 -4 45.5193 -0.6419
11 0 -1 10.2515 1.1510
11 0 2 -24.9914 2.3565
11 0 5 -13.1840 2.3418
11 0 8 1.2868 1.0230
11 0 11 24.4823 -0.5350
11 0 14 -0.2939 -1.7637
11 0 17 -13.1031 -2.4067
11 0 20 -23.9529 -2.0657
11 0 23 -3.4232 -1.1622
11 0 26 1.8855 0.0304
11 0 29 -0.1784 0.9507
11 0 32 0.0979 0.8441
11 1 -32 -8.6166 0.7198
11 1 -29 2.8758 -0.4857
11 1 -26 15.1044 -0.7805
11 1 -23 10.4937 -0.7968
11 1 -20 -7.8588 -0.2174
11 1 -17 4.9235 0.6714
11 1 -14 9.3314 0.8573
11 1 -11 28.6679 0.6857
11 1 -8 0.8321 0.4622
11 1 -5 -4.4876 0.1293
11 1 -2 -12.7308 -0.3977
11 1 1 -1.3746 -0.9164
11 1 4 2.8981 -0.7523
11 1 7 7.2161 -0.5459
11 1 10 -1.3145 -0.0430
11 1 13 -12.6973 0.3701
11 1 16 -22.9435 0.4502
11 1 19 -13.4506 0.4304
11 1 22 6.4154 0.6145
11 1 25 9.6296 -0.0257
11 1 28 1.1355 -0.1190
11 1 31 -6.9626 -0.8391
11 2 -30 -1.6042 0.4712
11 2 -27 -1.2352 0.3226
11 2 -24 1.4206 0.6258
11 2 -21 -9.3429 0.7473
11 2 -18 -14.3254 0.0535
11 2 -15 -0.6140 -0.3770
11 2 -12 14.7607 -0.4426
11 2 -9 5.6981 -0.4787
11 2 -6 -13.4205 -0.2297
11 2 -3 -35.2165 0.1623
11 2 0 -15.9504 0.5039
11 2 3 17.5694 0.5397
11 2 6 37.9255 0.4413
11 2 9 14.9704 0.4129
11 2 12 -13.6059 0.1304
11 2 15 -12.3364 -0.2010
11 2 18 7.7617 -0.3275
11 2 21 23.0830 -0.5731
11 2 24 9.4849 -0.2100
11 2 27 -0.8436 0.2300
11 2 30 -11.4903 0.1412
11 3 -28 -5.0684 1.0194
11 3 -25 -10.4145 1.3312
11 3 -22 -0.7490 0.5083
11 3 -19 0.4327 -0.3044
11 3 -16 20.9661 -0.6681
11 3 -13 4.8746 -0.8454
11 3 -10 -6.7713 -0.7789
11 3 -7 -9.7999 -0.4148
11 3 -4 7.3397 0.3341
11 3 -1 21.0059 0.6916
11 3 2 15.3941 0.8982
11 3 5 4.2094 0.7242
11 3 8 -16.7145 0.3666
11 3 11 -3.4170 -0.3663
11 3 14 11.6287 -0.8277
11 3 17 14.9283 -0.9746
11 3 20 -0.0133 -0.6531
11 3 23 -7.4664 0.2224
11 3 26 -4.8995 0.7854
11 3 29 -1.1049 -0.4461
11 4 -29 0.4656 -0.6877
11 4 -26 -3.4996 0.1090
11 4 -23 1.4255 -0.6772
11 4 -20 4.4026 -0.6600
11 4 -17 23.4342 -0.0321
11 4 -14 0.3628 0.1875
11 4 -11 -14.5646 0.4752
11 4 -8 15.5382 0.7300
11 4 -5 -1.3685 0.6133
11 4 -2 12.1736 0.2476
11 4 1 -0.4392 -0.3335
11 4 4 -2.2207 -0.7519
11 4 7 -12.9383 -0.6550
11 4 10 -14.7576 -0.5146
11 4 13 -6.4837 -0.0513
11 4 16 8.1950 0.1022
11 4 19 7.9818 0.5986
11 4 22 -5.5229 0.4939
11 4 25 -8.0589 0.2017
11 4 28 1.7424 -0.5000
11 5 -27 -1.5953 -0.8323
11 5 -24 1.0251 -0.3625
11 5 -21 0.2818 0.1439
11 5 -18 -3.1030 -0.0750
11 5 -15 -11.0117 -0.3373
11 5 -12 -12.0182 -0.2152
11 5 -9 1.3665 -0.2530
11 5 -6 7.8345 -0.1114
11 5 -3 10.4045 -0.0328
11 5 0 -4.6490 0.1344
11 5 3 -18.2670 0.3080
11 5 6 9.9906 0.1529
11 5 9 9.2772 -0.0556
11 5 12 6.3010 0.0192
11 5 15 -4.1098 0.1606
11 5 18 -18.0917 0.0084
11 5 21 5.0296 0.2060
11 5 24 6.1977 0.0899
11 5 27 5.9881 -0.3761
11 6 -25 3.3402 0.4706
11 6 -22 5.7769 0.5410
11 6 -19 -2.3658 -0.3658
11 6 -16 -2.1455 -0.1927
11 6 -13 -7.4798 0.1581
11 6 -10 9.1703 0.0111
11 6 -7 5.2520 -0.2196
11 6 -4 -5.6633 -0.1332
11 6 -1 -7.3223 0.2232
11 6 2 6.2092 0.2742
11 6 5 6.7087 0.1280
11 6 8 -2.5254 -0.0412
11 6 11 -4.5436 0.0098
11 6 14 5.2511 -0.1466
11 6 17 9.7020 -0.0435
11 6 20 -1.8663 -0.4272
11 6 23 -2.8738 -0.4628
11 7 -23 -0.7121 -0.0460
11 7 -20 -1.0933 -0.1857
11 7 -17 4.9950 -0.4506
11 7 -14 1.1864 0.3133
11 7 -11 0.0957 0.2759
11 7 -8 -3.3773 0.5438
11 7 -5 -0.5805 0.7554
11 7 -2 -7.3011 0.5434
11 7 1 5.3865 0.0022
11 7 4 -0.7924 -0.3179
11 7 7 -5.7302 -0.3527
11 7 10 -3.8519 -0.4292
11 7 13 -10.2454 0.0664
11 7 16 -0.8968 0.2751
11 7 19 9.6571 0.2449
11 7 22 3.3020 -0.0499
11 8 -18 -2.7454 -0.6565
11 8 -15 2.7316 -0.3457
11 8 -12 7.4132 0.2047
11 8 -9 -3.5211 0.3465
11 8 -6 -4.8722 -0.0099
11 8 -3 -0.6154 -0.0560
11 8 0 9.0901 -0.0747
11 8 3 6.4636 0.1571
11 8 6 -4.0359 -0.1326
11 8 9 -12.0825 -0.4790
11 8 12 6.3482 -0.3953
11 8 15 2.7090 -0.0359
11 8 18 -8.8629 -0.5403
11 9 -16 6.1659 -0.0727
11 9 -13 10.5405 0.4288
11 9 -10 -3.7379 -0.0180
11 9 -7 1.2924 -0.0240
11 9 -4 8.4488 -0.3347
11 9 -1 -7.4726 -0.5409
11 9 2 -2.7503 -0.5229
11 9 5 -3.2141 -0.1050
11 9 8 2.0563 0.1105
11 9 11 3.2772 0.2169
11 9 14 -1.5097 0.5490
11 10 -11 1.4532 -0.4405
11 10 -8 -1.1655 0.2070
11 10 -5 -1.5720 0.7058
11 10 -2 -4.6536 0.8695
11 10 1 0.2188 0.4426
11 10 4 2.7143 -0.1150
11 10 7 -4.9126 -0.2461
11 10 10 3.4180 -0.1117
12 0 -30 -1.6790 0.4278
12 0 -27 -9.7187 2.6078
12 0 -24 -13.7174 3.1459
12 0 -21 -3.1679 2.2938
12 0 -18 9.4791 1.1070
12 0 -15 13.0418 -0.7830
12 0 -12 -35.4638 -2.1197
12 0 -9 -17.0138 -2.7001
12 0 -6 -5.4801 -2.3352
12 0 -3 17.4095 -0.7257
12 0 0 39.9773 1.2657
12 0 3 -5.1475 2.8650
12 0 6 -9.3738 3.4699
12 0 9 -15.6544 2.3130
12 0 12 -13.2228 0.6637
12 0 15 -3.9563 -1.4861
12 0 18 7.0030 -2.7463
12 0 21 14.3525 -2.7561
12 0 24 4.8802 -1.3993
12 0 27 -10.4699 0.4460
12 0 30 -6.4172 2.6798
12 1 -31 1.6898 1.0552
12 1 -28 -13.1830 -0.4713
12 1 -25 -13.4958 -0.5675
12 1 -22 2.6688 -0.9199
12 1 -19 11.6874 -1.2063
12 1 -16 7.6535 -0.6987
12 1 -13 -6.2989 0.3116
12 1 -10 -13.8574 1.0366
12 1 -7 14.7341 1.2628
12 1 -4 14.9316 1.0634
12 1 -1 5.0601 0.2931
12 1 2 13.1663 -0.4952
12 1 5 14.8455 -1.0071
12 1 8 -6.7150 -1.1782
12 1 11 -21.3421 -0.6666
12 1 14 -0.1374 0.0705
12 1 17 6.5147 0.5062
12 1 20 8.2979 0.5987
12 1 23 -5.9124 0.8087
12 1 26 -7.6236 0.4796
12 1 29 2.9330 -0.1335
12 2 -29 -3.8971 0.1781
12 2 -26 5.8902 -1.1790
12 2 -23 16.3981 -1.6474
12 2 -20 4.9029 -0.6545
12 2 -17 2.6508 0.2315
12 2 -14 -7.2402 0.9203
12 2 -11 3.3650 1.0704
12 2 -8 19.5949 0.9238
12 2 -5 15.6432 0.1848
12 2 -2 -6.3188 -0.5339
12 2 1 -25.4297 -0.9703
12 2 4 -34.3664 -1.2446
12 2 7 -1.6977 -1.0563
12 2 10 -3.3057 -0.3615
12 2 13 16.7521 0.1992
12 2 16 9.5991 1.2181
12 2 19 -10.8995 1.4455
12 2 22 -7.7632 1.3118
12 2 25 -3.3501 0.0544
12 2 28 10.2458 0.3253
12 3 -27 6.5525 0.2175
12 3 -24 -1.0621 0.5776
12 3 -21 -8.0698 1.4224
12 3 -18 -16.2785 1.1935
12 3 -15 -3.9640 0.3941
12 3 -12 11.5709 -0.0596
12 3 -9 -0.2923 -0.6572
12 3 -6 -16.0711 -1.1229
12 3 -3 -8.1283 -1.1866
12 3 0 -0.2678 -0.5947
12 3 3 -1.9056 0.3248
12 3 6 -16.1732 0.9258
12 3 9 -6.6863 1.2815
12 3 12 11.3369 1.1685
12 3 15 18.0843 0.4584
12 3 18 3.3149 -0.6025
12 3 21 -6.1296 -1.6188
12 3 24 -9.5886 -1.5093
12 3 27 14.0853 0.5524
12 4 -25 -6.6243 0.0164
12 4 -22 -9.7770 -0.4336
12 4 -19 -6.6089 -0.9455
12 4 -16 8.3231 -0.3033
12 4 -13 14.5776 0.1979
12 4 -10 6.1034 0.4317
12 4 -7 -7.3519 0.4415
12 4 -4 -9.6697 0.3798
12 4 -1 -1.9205 0.0968
12 4 2 3.2648 -0.2345
12 4 5 23.6061 -0.2882
12 4 8 9.0582 -0.3519
12 4 11 0.7970 -0.5606
12 4 14 -6.7495 -0.1488
12 4 17 -10.3111 0.0977
12 4 20 4.5651 0.0031
12 4 23 9.2258 -0.2174
12 4 26 -0.0891 -0.2321
12 5 -23 1.8968 -0.1643
12 5 -20 6.0104 0.2334
12 5 -17 12.4139 0.9453
12 5 -14 -2.6632 0.5223
12 5 -11 -1.7984 -0.1140
12 5 -8 -7.4169 -0.2618
12 5 -5 5.7437 -0.3898
12 5 -2 -6.3437 -0.4126
12 5 1 4.7885 -0.2746
12 5 4 4.4695 -0.0022
12 5 7 5.3043 0.2734
12 5 10 7.3869 0.4703
12 5 13 -7.2388 0.4550
12 5 16 1.3571 -0.0015
12 5 19 -4.4729 -0.1987
12 5 22 0.9045 1.3245
12 5 25 6.4330 1.8277
12 6 -21 4.4050 0.5994
12 6 -18 3.8517 0.5971
12 6 -15 -8.9374 0.1401
12 6 -12 -10.8263 -0.3910
12 6 -9 -4.3652 -0.4333
12 6 -6 1.4760 -0.5604
12 6 -3 8.6918 -0.4185
12 6 0 0.0222 -0.1701
12 6 3 2.7016 0.2498
12 6 6 -9.3346 0.3804
12 6 9 -14.6360 0.7065
12 6 12 -2.2631 -0.0805
12 6 15 0.9338 -0.2143
12 6 18 11.0047 0.3220
12 6 21 0.2875 -0.8503
12 7 -19 -10.1042 -1.6097
12 7 -16 2.9974 -0.8736
12 7 -13 0.4412 -0.3398
12 7 -10 0.3352 0.0892
12 7 -7 -1.3115 0.1402
12 7 -4 2.7096 0.2477
12 7 -1 12.0602 0.2673
12 7 2 0.2356 0.0277
12 7 5 -15.1101 -0.2205
12 7 8 -15.7648 -0.1121
12 7 11 9.8272 -0.8037
12 7 14 5.3545 -0.6890
12 7 17 -1.5521 -0.0424
12 7 20 -0.7272 1.7282
12 8 -14 0.0991 1.0421
12 8 -11 5.1046 -0.0509
12 8 -8 0.6558 -0.3018
12 8 -5 -1.3297 -0.4174
12 8 -2 -3.5440 -0.3730
12 8 1 -3.3704 -0.2528
12 8 4 -1.8104 0.0867
12 8 7 -0.5415 0.2661
12 8 10 5.3784 1.2232
12 8 13 1.0797 1.5127
12 8 16 5.3515 1.3340
12 9 -9 -2.9917 0.0093
12 9 -6 3.4005 0.1220
12 9 -3 3.8574 0.3500
12 9 0 -4.9471 0.7429
12 9 3 -7.2847 0.7268
12 9 6 5.7342 0.0097
12 9 9 -0.6410 -1.0875
13 0 -29 -19.7811 -0.9781
13 0 -26 -0.1280 -0.0895
13 0 -23 -3.8260 1.5414
13 0 -20 -6.0890 2.0994
13 0 -17 21.6207 1.7765
13 0 -14 23.5937 0.4230
13 0 -11 -6.7847 -0.9978
13 0 -8 -24.1147 -2.1350
13 0 -5 -17.8193 -2.2922
13 0 -2 27.5851 -1.3466
13 0 1 36.4611 0.3973
13 0 4 0.9924 1.6857
13 0 7 -47.8578 1.9271
13 0 10 -30.4782 1.8611
13 0 13 4.2486 0.9362
13 0 16 21.8852 -0.2426
13 0 19 7.2916 -1.2075
13 0 22 -12.8234 -1.7902
13 0 25 -4.9106 -1.4461
13 0 28 8.3786 -1.5788
13 1 -27 -6.7699 -0.1484
13 1 -24 1.8314 -0.5056
13 1 -21 -5.5926 -0.4991
13 1 -18 -9.6973 -0.4966
13 1 -15 -9.3737 0.0754
13 1 -12 -11.9507 0.3506
13 1 -9 -12.2261 0.5853
13 1 -6 -10.1494 0.5195
13 1 -3 3.3212 0.3152
13 1 0 0.7144 -0.0977
13 1 3 -12.6328 -0.5497
13 1 6 2.9625 -0.6988
13 1 9 11.6575 -0.3840
13 1 12 12.6795 -0.0216
13 1 15 3.2774 0.2374
13 1 18 -1.5764 0.6869
13 1 21 -3.2536 0.3460
13 1 24 2.1834 -0.0711
13 1 27 13.0738 0.0259
13 2 -25 -0.2522 0.6100
13 2 -22 10.1459 0.2392
13 2 -19 1.4717 -0.3721
13 2 -16 -1.3856 -0.5942
13 2 -13 -20.8532 -0.7448
13 2 -10 0.6957 -0.4774
13 2 -7 -4.1682 -0.0626
13 2 -4 31.1176 0.4009
13 2 -1 -6.5383 0.6911
13 2 2 -27.1101 0.6616
13 2 5 -15.5658 0.4207
13 2 8 -1.8851 -0.0212
13 2 11 13.6002 -0.5419
13 2 14 6.4009 -1.0760
13 2 17 -8.2023 -1.1107
13 2 20 -14.3755 0.0950
13 2 23 2.3897 0.6505
13 2 26 0.3596 -0.6521
13 3 -26 2.1486 0.5084
13 3 -23 -0.2777 -0.3292
13 3 -20 2.4972 0.5018
13 3 -17 -0.5106 0.6507
13 3 -14 -1.0982 0.2935
13 3 -11 11.5053 -0.1706
13 3 -8 14.0567 -0.4324
13 3 -5 -3.6063 -0.2339
13 3 -2 -22.7492 -0.0224
13 3 1 -5.7771 0.2992
13 3 4 9.4476 0.3292
13 3 7 10.6485 0.2925
13 3 10 -16.5617 0.2165
13 3 13 -17.0766 0.4174
13 3 16 4.1704 0.0868
13 3 19 10.6230 0.4618
13 3 22 6.4258 -0.1574
13 3 25 -5.7944 0.2931
13 4 -24 -1.1421 -0.5610
13 4 -21 -6.8953 -0.0917
13 4 -18 -11.1160 -0.8879
13 4 -15 -4.7223 -1.0753
13 4 -12 13.7888 -0.4534
13 4 -9 -6.6265 0.3654
13 4 -6 -11.1845 0.7038
13 4 -3 -15.8124 0.6614
13 4 0 5.3413 0.3943
13 4 3 6.5055 -0.0943
13 4 6 7.3295 -0.6226
13 4 9 9.1423 -0.9767
13 4 12 2.0423 -0.8623
13 4 15 -4.5985 -0.1839
13 4 18 -7.7010 0.1550
13 4 21 1.0826 0.4743
13 4 24 -2.3887 0.0661
13 5 -22 -0.8387 0.4726
13 5 -19 -5.1740 -0.1534
13 5 -16 3.1929 0.0974
13 5 -13 4.3412 0.4394
13 5 -10 -5.4228 0.2866
13 5 -7 -9.0962 0.1187
13 5 -4 -2.1580 -0.0474
13 5 -1 13.9933 -0.3893
13 5 2 6.0159 -0.3045
13 5 5 -6.8732 -0.3377
13 5 8 -11.0429 -0.2192
13 5 11 -1.2716 0.2707
13 5 14 8.4461 0.2340
13 5 17 0.5863 -0.8117
13 5 20 -9.6983 -0.5632
13 6 -17 1.4932 -0.3312
13 6 -14 -5.0385 0.1314
13 6 -11 -10.7699 0.1580
13 6 -8 1.6431 0.1897
13 6 -5 13.5409 -0.1560
13 6 -2 12.1224 -0.1768
13 6 1 -6.4866 -0.1654
13 6 4 -10.8690 0.0393
13 6 7 0.4681 0.0111
13 6 10 5.9823 0.5283
13 6 13 -8.9953 0.7540
13 6 16 -3.8394 1.1862
13 6 19 3.3206 0.0056
13 7 -15 -8.7819 -1.0586
13 7 -12 -5.7194 -0.3271
13 7 -9 6.4685 -0.2021
13 7 -6 8.9244 0.0705
13 7 -3 -7.3081 0.1096
13 7 0 -5.4015 0.2805
13 7 3 0.2075 0.5604
13 7 6 5.0389 0.5318
13 7 9 0.0192 0.0703
13 7 12 -3.1159 -0.1973
13 7 15 1.5366 -1.0301
13 8 -10 7.4209 0.2392
13 8 -7 4.9558 0.5295
13 8 -4 -7.5522 0.8630
13 8 -1 -8.0125 0.4669
13 8 2 -1.5593 -0.2186
13 8 5 1.8483 -0.5783
13 8 8 1.3174 -0.2804
14 0 -25 -5.0386 2.4587
14 0 -22 4.2990 3.1117
14 0 -19 -9.1961 2.4431
14 0 -16 -3.3980 1.0200
14 0 -13 5.8351 -0.5708
14 0 -10 12.3198 -1.7257
14 0 -7 -2.8540 -2.3450
14 0 -4 -20.3752 -1.8268
14 0 -1 -13.4914 -0.4730
14 0 2 14.1923 0.9773
14 0 5 26.1879 2.1027
14 0 8 0.9565 2.5687
14 0 11 2.6429 1.7689
14 0 14 -21.0614 0.3731
14 0 17 -13.8374 -0.8746
14 0 20 2.1939 -1.8522
14 0 23 9.2692 -2.0865
14 0 26 5.8677 -0.8882
14 1 -26 3.8504 0.2763
14 1 -23 -5.7267 -0.4881
14 1 -20 9.5680 -1.0603
14 1 -17 6.3763 -0.8016
14 1 -14 8.0052 -0.9754
14 1 -11 10.8373 -0.1200
14 1 -8 1.5650 0.5412
14 1 -5 0.9094 0.9486
14 1 -2 -18.6420 1.0145
14 1 1 2.7338 0.5398
14 1 4 -0.3381 -0.1697
14 1 7 -0.1383 -0.9017
14 1 10 -2.5232 -1.2362
14 1 13 -5.4635 -0.9730
14 1 16 -2.9066 -0.4843
14 1 19 -5.5421 0.0197
14 1 22 5.1989 0.4509
14 1 25 6.8881 1.1980
14 2 -24 -4.9600 0.4745
14 2 -21 -0.6627 -0.2145
14 2 -18 2.4138 -0.4052
14 2 -15 -2.2436 -0.1912
14 2 -12 4.8672 0.3177
14 2 -9 -22.2255 0.6519
14 2 -6 -20.6754 0.4790
14 2 -3 1.6045 0.1085
14 2 0 25.5141 -0.3953
14 2 3 16.0349 -0.7305
14 2 6 -16.6005 -0.4856
14 2 9 9.1982 -0.3931
14 2 12 -11.8325 -0.0518
14 2 15 7.9777 0.4825
14 2 18 14.0669 0.2000
14 2 21 1.4850 -0.0367
14 2 24 -7.8634 -0.5283
14 3 -22 1.7800 -0.4477
14 3 -19 4.7837 0.5968
14 3 -16 9.0439 0.5980
14 3 -13 -10.2984 0.6555
14 3 -10 -5.5310 0.0305
14 3 -7 -3.6037 -0.2326
14 3 -4 6.0946 -0.8960
14 3 -1 13.1403 -0.7255
14 3 2 2.5626 -0.0805
14 3 5 7.5868 0.4428
14 3 8 1.9013 0.9068
14 3 11 -2.8497 1.0087
14 3 14 -5.7724 0.6178
14 3 17 -6.3562 0.0619
14 3 20 2.3277 0.6257
14 3 23 5.4336 1.2215
14 4 -20 4.1144 0.0907
14 4 -17 0.5941 0.4475
14 4 -14 -4.0457 -0.3889
14 4 -11 1.4045 -0.4981
14 4 -8 7.8447 -0.2745
14 4 -5 15.6530 0.1574
14 4 -2 -4.3581 0.5605
14 4 1 -14.1975 0.7240
14 4 4 -10.7221 0.7697
14 4 7 4.0796 0.6419
14 4 10 10.4926 0.0186
14 4 13 -3.8281 -0.4970
14 4 16 4.2298 -0.2320
14 4 19 -9.3543 -0.6546
14 5 -18 -5.2298 -2.2182
14 5 -15 -12.5560 -0.2769
14 5 -12 -0.6949 -0.2080
14 5 -9 8.3244 0.1649
14 5 -6 6.2456 0.4313
14 5 -3 -8.1348 0.7298
14 5 0 -12.5461 0.2256
14 5 3 -2.3622 -0.2555
14 5 6 5.4443 -0.2660
14 5 9 -2.8808 -0.9058
14 5 12 -7.0266 -1.0513
14 5 15 -0.4380 -0.7022
14 5 18 1.9726 0.3013
14 6 -13 3.5086 1.0785
14 6 -10 1.7923 -0.2811
14 6 -7 -5.7067 -0.4276
14 6 -4 -8.7086 -0.2791
14 6 -1 5.3222 -0.1404
14 6 2 8.0267 -0.3544
14 6 5 3.9320 -0.4910
14 6 8 6.7300 0.1145
14 6 11 -0.3433 0.6378
14 6 14 3.8362 0.5856
14 7 -8 2.2976 0.6166
14 7 -5 -0.0953 0.7026
14 7 -2 0.1338 0.0602
14 7 1 4.2562 0.0284
14 7 4 2.8090 -0.4852
14 7 7 3.0538 -0.8998
15 0 -24 -2.6205 -0.7815
15 0 -21 -4.9923 1.4789
15 0 -18 -8.7318 3.4007
15 0 -15 -3.5435 2.8859
15 0 -12 20.0948 1.2358
15 0 -9 3.7016 -0.8697
15 0 -6 -1.4283 -2.1617
15 0 -3 -44.0431 -2.7142
15 0 0 -10.8625 -1.9346
15 0 3 14.8605 -0.0541
15 0 6 23.5258 1.8019
15 0 9 31.9773 2.8355
15 0 12 -0.4150 2.3184
15 0 15 -15.1251 1.4252
15 0 18 -3.1039 0.1746
15 0 21 10.3860 -0.7752
15 0 24 -3.2417 -1.9904
15 1 -22 9.5995 0.4736
15 1 -19 4.7878 -0.7896
15 1 -16 8.8351 -0.3647
15 1 -13 -6.3373 0.1975
15 1 -10 -3.2399 0.2202
15 1 -7 -14.2388 0.2633
15 1 -4 4.6862 0.2827
15 1 -1 22.1463 0.1423
15 1 2 9.0645 -0.1820
15 1 5 -7.3130 -0.2375
15 1 8 -6.4485 -0.2644
15 1 11 12.5838 0.0554
15 1 14 -2.1193 -0.0669
15 1 17 -5.0966 0.2653
15 1 20 -1.5826 -0.7193
15 1 23 0.8305 0.2686
15 2 -20 8.3086 0.0325
15 2 -17 10.9686 -0.0458
15 2 -14 2.9445 0.0468
15 2 -11 -13.7061 -0.5255
15 2 -8 -2.5869 -0.6215
15 2 -5 7.3164 0.0200
15 2 -2 17.2498 0.4040
15 2 1 13.8857 0.5751
15 2 4 7.5050 0.5372
15 2 7 4.6063 -0.0401
15 2 10 -7.6197 -0.2872
15 2 13 -16.9918 -0.6332
15 2 16 5.7563 0.3999
15 2 19 7.0796 0.2437
15 2 22 3.7393 -0.2859
15 3 -18 0.3108 0.1341
15 3 -15 -8.1459 -0.0264
15 3 -12 -0.3155 0.4479
15 3 -9 4.0173 -0.0490
15 3 -6 9.0411 -0.1993
15 3 -3 -1.2317 -0.6274
15 3 0 -9.9190 -0.8722
15 3 3 -13.7246 -1.1385
15 3 6 -4.5802 -0.8237
15 3 9 16.1285 0.2105
15 3 12 -1.9661 0.6556
15 3 15 -3.6741 -0.6403
15 3 18 -2.7411 -0.8396
15 4 -16 -0.9657 1.0353
15 4 -13 -0.1932 0.3797
15 4 -10 9.8216 0.4991
15 4 -7 -1.3931 0.0668
15 4 -4 -8.7476 -0.0878
15 4 -1 -5.8846 -0.0527
15 4 2 -0.6132 -0.0926
15 4 5 -3.0676 0.1083
15 4 8 -7.5117 -0.2637
15 4 11 -0.6916 0.2620
15 4 14 12.6841 1.5830
15 5 -11 -2.8759 -1.0019
15 5 -8 -8.6511 -0.6825
15 5 -5 -3.0773 -0.7344
15 5 -2 2.7847 -0.2876
15 5 1 4.4633 0.3364
15 5 4 2.1348 0.9003
15 5 7 11.3118 1.2719
15 5 10 8.5765 0.7683
15 5 13 2.2939 -0.2177
15 6 -6 1.9416 -0.3493
15 6 -3 -0.4316 -0.6442
15 6 0 2.6501 -0.4752
15 6 3 1.5032 -0.3452
15 6 6 1.2895 0.1847
16 0 -20 4.4728 1.4703
16 0 -17 0.7816 1.6432
16 0 -14 -8.0466 0.8882
16 0 -11 -13.7495 -0.6211
16 0 -8 3.5033 -1.7508
16 0 -5 37.3522 -1.8870
16 0 -2 10.1519 -1.3654
16 0 1 -12.1334 -0.6758
16 0 4 -22.4276 0.3275
16 0 7 10.3395 1.5715
16 0 10 19.3548 1.5811
16 0 13 4.8204 1.2571
16 0 16 -5.6149 0.1360
16 0 19 -4.7719 -0.9070
16 0 22 0.7836 -1.5188
16 1 -18 -8.4422 -0.7963
16 1 -15 -14.3109 -1.0604
16 1 -12 -5.6260 -0.6697
16 1 -9 5.4665 0.6367
16 1 -6 7.5842 1.4434
16 1 -3 -0.1844 1.2704
16 1 0 -2.5282 0.8889
16 1 3 1.0891 -0.1871
16 1 6 3.1604 -0.8852
16 1 9 9.9503 -1.1358
16 1 12 -3.7574 -0.9834
16 1 15 0.7792 -0.5594
16 1 18 6.9287 0.5094
16 2 -16 4.9545 -0.0221
16 2 -13 -3.5138 -0.0691
16 2 -10 14.6649 0.3721
16 2 -7 -0.3461 -0.3096
16 2 -4 -7.9942 0.1168
16 2 -1 -9.3458 0.2107
16 2 2 8.1476 0.2265
16 2 5 9.2047 0.6191
16 2 8 -7.1310 0.0293
16 2 11 -9.1728 -0.1044
16 2 14 -4.7963 -0.4551
16 2 17 0.0519 -0.4025
16 3 -14 10.8244 -0.0655
16 3 -11 -1.9480 0.2535
16 3 -8 -5.4305 0.4099
16 3 -5 -4.6475 0.0334
16 3 -2 3.2258 -0.1852
16 3 1 2.3171 0.2737
16 3 4 -9.5228 -0.2191
16 3 7 -6.1456 -0.5613
16 3 10 6.3817 -0.5028
16 3 13 9.3667 -0.4844
16 4 -9 -6.2384 -0.1604
16 4 -6 -1.3767 0.0013
16 4 -3 0.8676 0.2690
16 4 0 2.1279 0.3782
16 4 3 -7.7789 0.1251
16 4 6 1.8648 -0.2902
16 4 9 3.2477 -0.4499
16 5 -1 5.8416 0.7305
16 5 2 0.0734 0.0714
17 0 -16 -8.2361 3.1982
17 0 -13 -4.8120 3.1067
17 0 -10 10.3923 1.4156
17 0 -7 -0.1815 -0.6124
17 0 -4 10.0994 -2.7471
17 0 -1 5.0520 -3.0843
17 0 2 -1.1428 -2.1406
17 0 5 -20.1702 -1.1669
17 0 8 -11.7897 0.6224
17 0 11 0.2649 2.5656
17 0 14 13.5142 3.3582
17 0 17 4.7126 2.5094
17 1 -14 8.3312 -1.9914
17 1 -11 7.4357 -1.4617
17 1 -8 -5.3472 -0.3873
17 1 -5 -2.4790 0.4506
17 1 -2 -0.1727 0.9233
17 1 1 3.3836 1.1421
17 1 4 0.3490 1.2969
17 1 7 -7.2295 0.8171
17 1 10 -1.3308 0.1103
17 1 13 3.3302 -1.2436
17 1 16 2.8188 -1.8805
17 2 -12 -0.4621 1.1153
17 2 -9 -4.2357 0.8663
17 2 -6 -1.8899 0.0173
17 2 -3 -1.4776 -0.1379
17 2 0 -6.4683 -0.4383
17 2 3 -7.5415 -0.7141
17 2 6 3.8479 -0.2150
17 2 9 9.0733 0.2469
17 2 12 -0.6856 1.0213
17 3 -7 -1.0322 -1.2049
17 3 -4 -3.7766 -0.8018
17 3 -1 0.3417 0.3940
17 3 2 4.2094 0.8129
17 3 5 9.0070 1.4720
18 0 -12 0.6589 0.9071
18 0 -9 0.8996 0.8521
18 0 -6 -10.5613 0.2070
18 0 -3 -4.2149 -0.5667
18 0 0 5.8351 -1.0833
18 0 3 -1.7532 -0.8914
18 0 6 -10.7320 -0.7310
18 0 9 -7.3804 -0.6490
18 0 12 7.9629 0.1420
18 1 -7 -3.2065 -0.6566
18 1 -4 0.0537 -0.6308
18 1 -1 -5.2796 -0.9638
18 1 2 -4.1673 -0.3961
18 1 5 10.0602 0.4302
18 1 8 -0.5622 0.2900
19 0 -2 -6.0661 -2.1267
19 0 1 7.0407 -2.8101
0 0 0 0.0 0.0
;
_olex2_submission_special_instructions 'No special instructions were received'
_oxdiff_exptl_absorpt_empirical_details
;
Empirical correction (ABSPACK) includes:
- Absorption correction using spherical harmonics
- Frame scaling
- Detector area scaling
;
_oxdiff_exptl_absorpt_empirical_full_max 1.273
_oxdiff_exptl_absorpt_empirical_full_min 0.830
loop_
_space_group_symop_operation_xyz
'x, y, z'
'-y, x-y, z'
'-x+y, -x, z'
'y, x, -z'
'x-y, -y, -z'
'-x, -x+y, -z'
'x+2/3, y+1/3, z+1/3'
'-y+2/3, x-y+1/3, z+1/3'
'-x+y+2/3, -x+1/3, z+1/3'
'y+2/3, x+1/3, -z+1/3'
'x-y+2/3, -y+1/3, -z+1/3'
'-x+2/3, -x+y+1/3, -z+1/3'
'x+1/3, y+2/3, z+2/3'
'-y+1/3, x-y+2/3, z+2/3'
'-x+y+1/3, -x+2/3, z+2/3'
'y+1/3, x+2/3, -z+2/3'
'x-y+1/3, -y+2/3, -z+2/3'
'-x+1/3, -x+y+2/3, -z+2/3'
'-x, -y, -z'
'y, -x+y, -z'
'x-y, x, -z'
'-y, -x, z'
'-x+y, y, z'
'x, x-y, z'
'-x+2/3, -y+1/3, -z+1/3'
'y+2/3, -x+y+1/3, -z+1/3'
'x-y+2/3, x+1/3, -z+1/3'
'-y+2/3, -x+1/3, z+1/3'
'-x+y+2/3, y+1/3, z+1/3'
'x+2/3, x-y+1/3, z+1/3'
'-x+1/3, -y+2/3, -z+2/3'
'y+1/3, -x+y+2/3, -z+2/3'
'x-y+1/3, x+2/3, -z+2/3'
'-y+1/3, -x+2/3, z+2/3'
'-x+y+1/3, y+2/3, z+2/3'
'x+1/3, x-y+2/3, z+2/3'
loop_
_atom_site_label
_atom_site_type_symbol
_atom_site_fract_x
_atom_site_fract_y
_atom_site_fract_z
_atom_site_U_iso_or_equiv
_atom_site_adp_type
_atom_site_occupancy
_atom_site_site_symmetry_order
_atom_site_calc_flag
_atom_site_refinement_flags_posn
_atom_site_refinement_flags_adp
_atom_site_refinement_flags_occupancy
Zn1 Zn 0.19509(2) -0.19509(2) 0.36809(2) 0.0168(2) Uani 1 2 d S T P
O002 O 0.1897(2) -0.03612(19) 0.33432(8) 0.0377(8) Uani 1 1 d . . .
O003 O 0.2315(2) -0.0768(2) 0.38638(8) 0.0420(8) Uani 1 1 d . . .
N1 N 0.4764(3) 0.23822(14) 0.58674(11) 0.0366(13) Uani 1 2 d S T P
H1A H 0.5090 0.2936 0.5889 0.044 Uiso 0.5 1 calc R . .
H1B H 0.5090 0.2155 0.5889 0.044 Uiso 0.5 1 calc R . .
C2 C 0.2480(3) 0.0594(3) 0.38584(10) 0.0283(9) Uani 1 1 d . . .
C3 C 0.2293(4) 0.11465(18) 0.36818(14) 0.0246(11) Uani 1 2 d S T P
H3 H 0.2037 0.1018 0.3440 0.030 Uiso 1 2 calc RS T P
C1 C 0.2215(3) -0.0243(3) 0.36762(10) 0.0290(9) Uani 1 1 d . . .
C6 C 0.3575(4) 0.1787(2) 0.47753(15) 0.0308(12) Uani 1 2 d S T P
C9 C 0.4383(4) 0.21916(18) 0.54889(14) 0.0322(13) Uani 1 2 d S T P
C5 C 0.3113(4) 0.1556(2) 0.43942(14) 0.0302(13) Uani 1 2 d S T P
C4 C 0.2892(3) 0.0795(3) 0.42117(11) 0.0323(9) Uani 1 1 d . . .
H4 H 0.3023 0.0420 0.4329 0.039 Uiso 1 1 calc R . .
C7 C 0.3758(5) 0.2486(4) 0.49590(17) 0.078(2) Uani 1 1 d . U .
H7 H 0.3579 0.2834 0.4852 0.093 Uiso 1 1 calc R . .
C8 C 0.4213(5) 0.2734(5) 0.53094(16) 0.079(2) Uani 1 1 d . U .
H8 H 0.4391 0.3263 0.5414 0.094 Uiso 1 1 calc R . .
loop_
_atom_site_aniso_label
_atom_site_aniso_U_11
_atom_site_aniso_U_22
_atom_site_aniso_U_33
_atom_site_aniso_U_23
_atom_site_aniso_U_13
_atom_site_aniso_U_12
Zn1 0.0254(3) 0.0254(3) 0.0067(3) 0.00026(11) -0.00026(11) 0.0181(3)
O002 0.068(2) 0.0341(16) 0.0201(13) -0.0097(12) -0.0149(13) 0.0321(16)
O003 0.081(2) 0.0352(16) 0.0258(14) -0.0082(12) -0.0165(15) 0.0408(17)
N1 0.018(2) 0.068(3) 0.0069(19) 0.0023(8) 0.0046(16) 0.0091(11)
C2 0.040(2) 0.032(2) 0.0182(17) -0.0061(15) -0.0057(16) 0.0217(18)
C3 0.036(3) 0.0264(19) 0.015(2) -0.0045(10) -0.009(2) 0.0180(15)
C1 0.041(2) 0.033(2) 0.0187(17) -0.0052(15) -0.0040(16) 0.0225(19)
C6 0.041(3) 0.036(2) 0.017(2) -0.0011(12) -0.002(2) 0.0206(17)
C9 0.024(3) 0.052(3) 0.011(2) 0.0001(10) 0.000(2) 0.0120(14)
C5 0.051(4) 0.033(2) 0.013(2) -0.0051(12) -0.010(2) 0.0255(18)
C4 0.049(3) 0.031(2) 0.0229(18) -0.0054(16) -0.0162(18) 0.025(2)
C7 0.140(6) 0.088(4) 0.051(3) -0.043(3) -0.058(4) 0.092(4)
C8 0.127(5) 0.107(5) 0.049(3) -0.050(3) -0.056(3) 0.094(4)
loop_
_atom_type_symbol
_atom_type_description
_atom_type_scat_dispersion_real
_atom_type_scat_dispersion_imag
_atom_type_scat_source
C C 0.0181 0.0091 'International Tables Vol C Tables 4.2.6.8 and 6.1.1.4'
H H 0.0000 0.0000 'International Tables Vol C Tables 4.2.6.8 and 6.1.1.4'
N N 0.0311 0.0180 'International Tables Vol C Tables 4.2.6.8 and 6.1.1.4'
O O 0.0492 0.0322 'International Tables Vol C Tables 4.2.6.8 and 6.1.1.4'
Zn Zn -1.5491 0.6778 'International Tables Vol C Tables 4.2.6.8 and 6.1.1.4'
loop_
_geom_angle_atom_site_label_1
_geom_angle_atom_site_label_2
_geom_angle_atom_site_label_3
_geom_angle
_geom_angle_site_symmetry_1
_geom_angle_site_symmetry_3
O002 Zn1 Zn1 75.90(8) 16_545 31_545
O002 Zn1 Zn1 75.90(8) 31_545 31_545
O002 Zn1 O002 87.6(2) 31_545 16_545
O002 Zn1 N1 101.03(12) 31_545 20_556
O002 Zn1 N1 101.03(12) 16_545 20_556
O003 Zn1 Zn1 81.98(8) . 31_545
O003 Zn1 Zn1 81.98(8) 22 31_545
O003 Zn1 O002 157.87(12) . 31_545
O003 Zn1 O002 87.52(14) . 16_545
O003 Zn1 O002 157.88(12) 22 16_545
O003 Zn1 O002 87.52(14) 22 31_545
O003 Zn1 O003 88.9(2) . 22
O003 Zn1 N1 101.09(12) . 20_556
O003 Zn1 N1 101.08(12) 22 20_556
N1 Zn1 Zn1 175.65(13) 20_556 31_545
C1 O002 Zn1 132.2(3) . 31_545
C1 O003 Zn1 124.7(3) . .
Zn1 N1 H1A 108.8 21_556 .
Zn1 N1 H1B 108.8 21_556 .
H1A N1 H1B 107.7 . .
C9 N1 Zn1 113.6(3) . 21_556
C9 N1 H1A 108.8 . .
C9 N1 H1B 108.8 . .
C3 C2 C1 120.2(3) . .
C3 C2 C4 120.0(4) . .
C4 C2 C1 119.7(3) . .
C2 C3 C2 120.6(5) . 24
C2 C3 H3 119.7 . .
C2 C3 H3 119.7 24 .
O002 C1 C2 116.3(3) . .
O003 C1 O002 125.1(4) . .
O003 C1 C2 118.5(3) . .
C7 C6 C5 121.9(3) . .
C7 C6 C5 121.9(3) 24 .
C7 C6 C7 116.0(6) . 24
C8 C9 N1 120.3(3) 24 .
C8 C9 N1 120.3(3) . .
C8 C9 C8 119.3(6) . 24
C4 C5 C6 121.1(2) . .
C4 C5 C6 121.1(2) 24 .
C4 C5 C4 117.9(5) 24 .
C2 C4 C5 120.7(4) . .
C2 C4 H4 119.6 . .
C5 C4 H4 119.6 . .
C6 C7 H7 118.4 . .
C6 C7 C8 123.3(5) . .
C8 C7 H7 118.4 . .
C9 C8 C7 118.6(6) . .
C9 C8 H8 120.7 . .
C7 C8 H8 120.7 . .
loop_
_geom_bond_atom_site_label_1
_geom_bond_atom_site_label_2
_geom_bond_distance
_geom_bond_site_symmetry_2
Zn1 Zn1 3.0059(12) 31_545
Zn1 O002 2.042(3) 16_545
Zn1 O002 2.042(3) 31_545
Zn1 O003 2.032(3) 22
Zn1 O003 2.032(3) .
Zn1 N1 2.078(4) 20_556
O002 Zn1 2.042(3) 31_545
O002 C1 1.258(5) .
O003 C1 1.249(5) .
N1 Zn1 2.078(4) 21_556
N1 H1A 0.8900 .
N1 H1B 0.8900 .
N1 C9 1.440(6) .
C2 C3 1.369(5) .
C2 C1 1.502(5) .
C2 C4 1.384(5) .
C3 C2 1.369(5) 24
C3 H3 0.9300 .
C6 C5 1.507(7) .
C6 C7 1.318(6) 24
C6 C7 1.318(6) .
C9 C8 1.338(7) .
C9 C8 1.338(7) 24
C5 C4 1.398(5) 24
C5 C4 1.398(5) .
C4 H4 0.9300 .
C7 H7 0.9300 .
C7 C8 1.410(7) .
C8 H8 0.9300 .
loop_
_smtbx_masks_void_nr
_smtbx_masks_void_average_x
_smtbx_masks_void_average_y
_smtbx_masks_void_average_z
_smtbx_masks_void_volume
_smtbx_masks_void_count_electrons
1 -0.365 -0.953 -0.867 5685.2 1522.6
