#------------------------------------------------------------------------------
#$Date: 2019-03-01 01:27:00 +0200 (Fri, 01 Mar 2019) $
#$Revision: 213903 $
#$URL: file:///home/coder/svn-repositories/cod/cif/1/55/06/1550669.cif $
#------------------------------------------------------------------------------
#
# This file is available in the Crystallography Open Database (COD),
# http://www.crystallography.net/
#
# All data on this site have been placed in the public domain by the
# contributors.
#
data_1550669
loop_
_publ_author_name
'Kong, Xiang-Jing'
'He, Tao'
'Zhang, Yongzheng'
'Wu, Xue-Qian'
'Wang, Si-Nan'
'Xu, Ming-Ming'
'Si, Guang-Rui'
'Li, Jian-Rong Jeff'
_publ_section_title
;
 Constructing New Metal-Organic Frameworks with Complicated Ligands
 Generated from &#x201C;One-Pot&#x201D; In Situ Reactions
;
_journal_name_full               'Chemical Science'
_journal_paper_doi               10.1039/C9SC00178F
_journal_year                    2019
_chemical_formula_moiety         '2(C28.5 H6 N3 O19 Zr3)'
_chemical_formula_sum            'C57 H12 N6 O38 Zr6'
_chemical_formula_weight         1936.05
_space_group_crystal_system      cubic
_space_group_IT_number           229
_space_group_name_Hall           '-I 4 2 3'
_space_group_name_H-M_alt        'I m -3 m'
_symmetry_space_group_name_Hall  '-I 4 2 3'
_symmetry_space_group_name_H-M   'I m -3 m'
_atom_sites_solution_hydrogens   geom
_atom_sites_solution_primary     dual
_audit_creation_date             2018-09-07
_audit_creation_method
;
Olex2 1.2
(compiled 2018.05.29 svn.r3508 for OlexSys, GUI svn.r5506)
;
_audit_update_record
;
2019-01-04 deposited with the CCDC.    2019-02-28 downloaded from the CCDC.
;
_cell_angle_alpha                90
_cell_angle_beta                 90
_cell_angle_gamma                90
_cell_formula_units_Z            2
_cell_length_a                   19.225(2)
_cell_length_b                   19.225(2)
_cell_length_c                   19.225(2)
_cell_measurement_reflns_used    359
_cell_measurement_temperature    173.01(10)
_cell_measurement_theta_max      56.5890
_cell_measurement_theta_min      4.5520
_cell_volume                     7105.6(13)
_computing_cell_refinement       'CrysAlisPro 1.171.39.32a (Rigaku OD, 2017)'
_computing_data_collection       'CrysAlisPro 1.171.39.32a (Rigaku OD, 2017)'
_computing_data_reduction        'CrysAlisPro 1.171.39.32a (Rigaku OD, 2017)'
_computing_molecular_graphics    'Olex2 (Dolomanov et al., 2009)'
_computing_publication_material  'Olex2 (Dolomanov et al., 2009)'
_computing_structure_refinement  'ShelXL (Sheldrick, 2015)'
_computing_structure_solution    'ShelXT (Sheldrick, 2015)'
_diffrn_ambient_environment      N~2~
_diffrn_ambient_temperature      173.01(10)
_diffrn_detector                 'CCD plate'
_diffrn_detector_area_resol_mean 10.3376
_diffrn_detector_type            AtlasS2
_diffrn_measured_fraction_theta_full 0.997
_diffrn_measured_fraction_theta_max 0.997
_diffrn_measurement_details
;
List of Runs (angles in degrees, time in seconds):

  # Type    Start    End  Width  t~exp~   \w     \q     \k     \f   Frames
#--------------------------------------------------------------------------
  1  \w    -84.00 -27.00   1.00   15.00    --  -41.69 125.00-180.00   57
  2  \w    153.00 178.00   1.00   25.00    --  107.13  78.00 137.00   25
  3  \w     34.00 107.00   1.00   25.00    --  107.13 -94.00-120.00   73
;
_diffrn_measurement_device       'four-circle diffractometer'
_diffrn_measurement_device_type  'SuperNova, Dual, Cu at home/near, AtlasS2'
_diffrn_measurement_method       '\w scans'
_diffrn_orient_matrix_type
'CrysAlisPro convention (1999,Acta A55,543-557)'
_diffrn_orient_matrix_UB_11      0.0724163000
_diffrn_orient_matrix_UB_12      -0.0065587000
_diffrn_orient_matrix_UB_13      -0.0350022000
_diffrn_orient_matrix_UB_21      0.0350348000
_diffrn_orient_matrix_UB_22      0.0064072000
_diffrn_orient_matrix_UB_23      0.0711961000
_diffrn_orient_matrix_UB_31      -0.0029213000
_diffrn_orient_matrix_UB_32      -0.0796022000
_diffrn_orient_matrix_UB_33      0.0086312000
_diffrn_radiation_monochromator  mirror
_diffrn_radiation_probe          x-ray
_diffrn_radiation_type           CuK\a
_diffrn_radiation_wavelength     1.54178
_diffrn_reflns_av_R_equivalents  0.0956
_diffrn_reflns_av_unetI/netI     0.0490
_diffrn_reflns_Laue_measured_fraction_full 0.997
_diffrn_reflns_Laue_measured_fraction_max 0.997
_diffrn_reflns_limit_h_max       21
_diffrn_reflns_limit_h_min       -20
_diffrn_reflns_limit_k_max       0
_diffrn_reflns_limit_k_min       -22
_diffrn_reflns_limit_l_max       8
_diffrn_reflns_limit_l_min       -13
_diffrn_reflns_number            2912
_diffrn_reflns_point_group_measured_fraction_full 0.997
_diffrn_reflns_point_group_measured_fraction_max 0.997
_diffrn_reflns_theta_full        63.488
_diffrn_reflns_theta_max         63.488
_diffrn_reflns_theta_min         4.600
_diffrn_source                   'micro-focus sealed X-ray tube'
_diffrn_source_type              'SuperNova (Cu) X-ray Source'
_exptl_absorpt_coefficient_mu    3.927
_exptl_absorpt_correction_T_max  1.00000
_exptl_absorpt_correction_T_min  0.13456
_exptl_absorpt_correction_type   multi-scan
_exptl_absorpt_process_details
;
CrysAlisPro 1.171.39.32a (Rigaku Oxford Diffraction, 2017)
Empirical absorption correction using spherical harmonics,
 implemented in SCALE3 ABSPACK scaling algorithm.
;
_exptl_crystal_colour            'dark grey'
_exptl_crystal_density_diffrn    0.905
_exptl_crystal_description       block
_exptl_crystal_F_000             1880
_exptl_crystal_size_max          0.06
_exptl_crystal_size_mid          0.06
_exptl_crystal_size_min          0.06
_refine_diff_density_max         1.047
_refine_diff_density_min         -0.771
_refine_diff_density_rms         0.155
_refine_ls_extinction_method     none
_refine_ls_goodness_of_fit_ref   1.116
_refine_ls_hydrogen_treatment    constr
_refine_ls_matrix_type           full
_refine_ls_number_parameters     69
_refine_ls_number_reflns         612
_refine_ls_number_restraints     104
_refine_ls_restrained_S_all      1.043
_refine_ls_R_factor_all          0.1529
_refine_ls_R_factor_gt           0.1155
_refine_ls_shift/su_max          0.002
_refine_ls_shift/su_mean         0.000
_refine_ls_structure_factor_coef Fsqd
_refine_ls_weighting_details
'w=1/[\s^2^(Fo^2^)+(0.3000P)^2^] where P=(Fo^2^+2Fc^2^)/3'
_refine_ls_weighting_scheme      calc
_refine_ls_wR_factor_gt          0.3515
_refine_ls_wR_factor_ref         0.4127
_reflns_Friedel_coverage         0.000
_reflns_number_gt                377
_reflns_number_total             612
_reflns_threshold_expression     'I > 2\s(I)'
_cod_data_source_file            c9sc00178f2.cif
_cod_data_source_block           BUT-109(Zr)
_cod_original_cell_volume        7105(2)
_cod_database_code               1550669
_shelx_shelxl_version_number     2018/3
_chemical_oxdiff_formula         'C H O N Zr'
_shelx_space_group_comment
;
The symmetry employed for this shelxl refinement is uniquely defined
by the following loop, which should always be used as a source of
symmetry information in preference to the above space-group names.
They are only intended as comments.
;
_shelx_estimated_absorpt_t_max   0.798
_shelx_estimated_absorpt_t_min   0.798
_reflns_odcompleteness_completeness 99.67
_reflns_odcompleteness_iscentric 1
_reflns_odcompleteness_theta     63.60
_olex2_refinement_description
;
1. Fixed Uiso
 At 1.2 times of:
  All C(H) groups
2. Restrained distances
 C2-C3
 1.35 with sigma of 0.01
 C3-C4
 1.45 with sigma of 0.02
 C4-C5
 1.34 with sigma of 0.01
 C5-N1
 1.48 with sigma of 0.02
 N1-C6
 1.4 with sigma of 0.02
3. Rigid bond restraints
 All non-hydrogen atoms
 with sigma for 1-2 distances of 0.01 and sigma for 1-3 distances of 0.01
4. Uiso/Uaniso restraints and constraints
All non-hydrogen atoms have similar U: within 2A with sigma of 0.04 and sigma
for terminal atoms of 0.08
Uanis(O1) \\sim Ueq: with sigma of 0.01 and sigma for terminal atoms of 0.01
5. Others
 Fixed Sof: C2(0.1875) C3(0.125) H3(0.125) C4(0.125) H4(0.125) N1(0.125)
 C5(0.0625) O3(0.125) C6(0.125) C8(0.0625) C7(0.125) C9(0.125)
6.a Aromatic/amide H refined with riding coordinates:
 C3(H3), C4(H4)
;
_shelx_res_file
;
TITL 229_a.res in Im-3m
    229.res
    created by SHELXL-2018/3 at 07:55:59 on 07-Sep-2018
REM Old TITL 229 in Im-3m
REM SHELXT solution in Im-3m: R1 0.253, Rweak 0.006, Alpha 0.130
REM <I/s> 0.000 for 0 systematic absences, Orientation as input
REM Formula found by SHELXT: C24 N6 O16 Zr3
CELL 1.54178 19.2248 19.2248 19.2248 90 90 90
ZERR 2 0.0022 0.0022 0.0022 0 0 0
LATT 2
SYMM -X,-Y,+Z
SYMM -X,+Y,-Z
SYMM +X,-Y,-Z
SYMM +Z,+X,+Y
SYMM +Z,-X,-Y
SYMM -Z,-X,+Y
SYMM -Z,+X,-Y
SYMM +Y,+Z,+X
SYMM -Y,+Z,-X
SYMM +Y,-Z,-X
SYMM -Y,-Z,+X
SYMM +Y,+X,-Z
SYMM -Y,-X,-Z
SYMM +Y,-X,+Z
SYMM -Y,+X,+Z
SYMM +X,+Z,-Y
SYMM -X,+Z,+Y
SYMM -X,-Z,-Y
SYMM +X,-Z,+Y
SYMM +Z,+Y,-X
SYMM +Z,-Y,+X
SYMM -Z,+Y,+X
SYMM -Z,-Y,-X
SFAC C H N O Zr
UNIT 114 24 12 76 12
DFIX 1.35 0.01 C2 C3
DFIX 1.45 C3 C4
DFIX 1.34 0.01 C4 C5
DFIX 1.48 C5 N1
DFIX 1.4 N1 C6
DELU
SIMU
ISOR 0.01 0.01 O1

L.S. 20
PLAN  1
SIZE 0.06 0.06 0.06
damp 3000
list 4
ABIN
fmap 2
acta
REM <olex2.extras>
REM <HklSrc "%.\\229.hkl">
REM </olex2.extras>

WGHT    0.300000
FVAR       0.18442
ZR1   5    0.500000    0.500000    0.370974    10.12500    0.07789    0.07789 =
         0.07122    0.00000    0.00000    0.00000
O1    4    0.435196    0.564804    0.435196    10.16667    0.08792    0.08792 =
         0.08792   -0.01797    0.01797   -0.01797
O2    4    0.399312    0.500000    0.314401    10.50000    0.10478    0.11184 =
         0.09402    0.00000   -0.02888    0.00000
C1    1    0.333002    0.500000    0.333002    10.25000    0.10128    0.12092 =
         0.10128    0.00000   -0.02897    0.00000
C2    1    0.282664    0.500000    0.282664    10.18750    0.09832    0.14694 =
         0.09832    0.00000   -0.02577    0.00000
C3    1    0.301128    0.500000    0.214958    10.12500    0.06130    0.14118 =
         0.10007    0.00000   -0.03310    0.00000
AFIX  43
H3    2    0.348067    0.500000    0.203259    10.12500   -1.20000
AFIX   0
C4    1    0.249843    0.500000    0.160427    10.12500    0.07905    0.13320 =
         0.10572    0.00000   -0.04291    0.00000
AFIX  43
H4    2    0.261023    0.500000    0.113362    10.12500   -1.20000
AFIX   0
N1    3    0.129948    0.500000    0.129948    10.12500    0.09509    0.10786 =
         0.09509    0.00000   -0.07427    0.00000
C5    1    0.184318    0.500000    0.184318    10.06250    0.07687    0.10864 =
         0.07687    0.00000   -0.05701    0.00000
O3    4    0.129677    0.383641    0.129677    10.12500    0.11582    0.10764 =
         0.11582    0.00607   -0.10298    0.00607
C6    1    0.106895    0.435183    0.106895    10.12500    0.09054    0.10445 =
         0.09054    0.00598   -0.07599    0.00598
C8    1    0.027243    0.500000    0.027243    10.06250    0.07996    0.07392 =
         0.07996    0.00000   -0.06280    0.00000
C7    1    0.051852    0.440158    0.051852    10.12500    0.07840    0.08197 =
         0.07840    0.00219   -0.06557    0.00219
C9    1    0.000000    0.370092    0.041126    10.12500    0.08390    0.06866 =
         0.03844   -0.02908    0.00000    0.00000
HKLF 4




REM  229_a.res in Im-3m
REM wR2 = 0.4127, GooF = S = 1.116, Restrained GooF = 1.043 for all data
REM R1 = 0.1155 for 377 Fo > 4sig(Fo) and 0.1529 for all 612 data
REM 69 parameters refined using 104 restraints

END

WGHT      0.2000      0.0000

REM Highest difference peak  1.047,  deepest hole -0.771,  1-sigma level  0.155
Q1    1   0.4606  0.5000  0.3325  10.50000  0.05    0.80
;
_shelx_res_checksum              81511
_shelx_fab_file
;
0 2 0 -65.6596 -2.5455
0 2 2 68.4690 -3.2391
0 3 1 -18.6861 -1.3076
0 3 3 23.9131 -1.8701
0 4 0 45.2698 5.2421
0 4 2 -40.3696 0.3339
0 4 4 43.1753 4.4815
0 5 1 3.2701 -1.2167
0 5 3 -20.4631 -4.2787
0 5 5 2.6408 -1.6664
0 6 0 28.6076 0.7980
0 6 2 0.7850 0.9150
0 6 4 -5.9247 1.2626
0 6 6 25.6219 1.0555
0 7 1 -2.1362 0.3172
0 7 3 -11.9495 -1.6750
0 7 5 -1.6307 -0.2827
0 7 7 0.8247 -1.1742
0 8 0 -13.0778 1.0918
0 8 2 10.3156 0.2810
0 8 4 -0.3924 0.8836
0 8 6 -4.2591 -0.8467
0 8 8 9.2413 0.0492
0 9 1 -7.7035 0.0771
0 9 3 6.5151 -2.1219
0 9 5 -11.0443 0.1502
0 9 7 -10.5857 -0.3474
0 9 9 15.1849 0.1640
0 10 0 6.4964 2.4080
0 10 2 5.7362 0.3034
0 10 4 8.8989 1.9520
0 10 6 1.2021 0.1267
0 10 8 5.9845 -0.1557
0 10 10 2.2263 -0.2874
0 11 1 -4.9734 -0.1108
0 11 3 -1.7347 -2.2583
0 11 5 0.1430 0.5056
0 11 7 -3.9328 0.3857
0 11 9 -8.2777 -0.4351
0 11 11 0.5293 0.5330
0 12 0 -0.4112 2.3330
0 12 2 -1.7492 -0.6323
0 12 4 5.4158 1.7076
0 12 6 1.6327 -0.0831
0 12 8 -4.6644 0.1969
0 12 10 -0.0830 0.1361
0 12 12 7.8202 -0.3208
0 13 1 -1.6381 -0.2655
0 13 3 -1.7331 -1.1716
0 13 5 1.4015 0.4035
0 13 7 -2.0753 0.3732
0 13 9 -3.5157 -0.6623
0 13 11 2.7335 0.1766
0 13 13 0.6899 0.1357
0 14 0 9.2326 0.3028
0 14 2 -5.2364 -0.4126
0 14 4 1.4049 0.2189
0 14 6 2.4170 -0.7713
0 14 8 3.7673 -0.2068
0 14 10 -2.8964 -0.3575
0 14 12 2.5437 -0.1828
0 14 14 -1.0324 -0.1386
0 15 1 -0.8132 -0.3763
0 15 3 2.5248 -0.1854
0 15 5 -7.0214 0.3719
0 15 7 4.5071 -0.3598
0 15 9 3.4412 0.2190
0 15 11 -7.8924 0.5911
0 15 13 -0.1052 -0.0729
0 15 15 3.9618 -0.8502
0 16 0 6.7796 -0.0998
0 16 2 3.8319 0.1589
0 16 4 -6.7167 0.4691
0 16 6 2.1278 -0.5581
0 16 8 3.2483 -0.1890
0 16 10 2.4137 0.1853
0 16 12 -8.1388 0.1534
0 16 14 3.9763 -0.4707
0 17 1 6.1711 -0.2391
0 17 3 -9.0197 -0.5432
0 17 5 0.9980 0.0014
0 17 7 0.7672 0.1308
0 17 9 1.7633 -0.0286
0 17 11 0.6480 -0.0192
0 17 13 -2.3500 -0.0349
0 18 0 -3.8007 0.8374
0 18 2 -5.9012 0.2579
0 18 4 4.2999 0.8526
0 18 6 -2.6964 0.2741
0 18 8 -3.6147 0.4830
0 18 10 -1.0828 0.2958
0 18 12 4.2487 -0.0550
0 19 1 -10.8692 0.3977
0 19 3 12.7139 -0.8094
0 19 5 3.8570 0.0121
0 19 7 -7.6121 0.2677
0 19 9 -0.6590 -0.8036
0 19 11 2.7242 -0.1043
0 20 0 -4.4848 0.4521
0 20 2 7.6297 -0.4808
0 20 4 5.2061 0.2602
0 20 6 -1.5525 -0.1544
0 20 8 0.4835 -0.0259
0 21 1 3.0861 0.1909
0 21 3 -4.0697 -0.3881
0 21 5 -5.1116 0.3699
0 21 7 2.2060 -0.3317
0 22 0 5.1804 -0.0036
0 22 2 -0.5833 -0.2806
1 2 1 0.4161 1.0970
1 3 2 9.5291 2.5278
1 4 1 -4.2788 -0.9426
1 4 3 8.4864 3.0460
1 5 2 -2.1027 3.3712
1 5 4 -1.9497 -0.1089
1 6 1 3.2060 -0.6316
1 6 3 -15.5586 1.1207
1 6 5 3.6091 -0.5302
1 7 2 3.9701 -3.1293
1 7 4 -5.9671 0.4137
1 7 6 4.1404 -4.1600
1 8 1 3.9106 -2.0645
1 8 3 5.9051 1.6140
1 8 5 0.9119 3.7378
1 8 7 0.8299 -3.6501
1 9 2 4.4652 -0.2918
1 9 4 -0.1632 0.0529
1 9 6 -4.7965 2.3445
1 9 8 1.3036 -5.4840
1 10 1 -4.3871 -1.3933
1 10 3 0.4846 0.1306
1 10 5 -4.0705 -0.3608
1 10 7 -0.9464 1.5504
1 10 9 1.2940 -2.4653
1 11 2 2.5473 3.7477
1 11 4 -0.0773 -2.9075
1 11 6 -0.0489 0.9629
1 11 8 0.1601 0.5338
1 11 10 0.2089 -1.2464
1 12 1 1.5156 -0.8244
1 12 3 2.0260 1.8255
1 12 5 3.0905 -3.0225
1 12 7 1.8112 0.4236
1 12 9 -4.1181 0.7431
1 12 11 3.4399 -0.8421
1 13 2 -1.0184 1.6670
1 13 4 0.6782 -1.0351
1 13 6 1.1473 0.0971
1 13 8 -4.8729 0.8748
1 13 10 0.2510 -0.2763
1 13 12 1.8182 0.3987
1 14 1 2.0714 -0.7395
1 14 3 -3.1512 1.1364
1 14 5 3.5976 -0.5571
1 14 7 -0.6826 0.8940
1 14 9 -1.7870 0.8725
1 14 11 0.8333 -1.0480
1 14 13 -1.5367 -0.5428
1 15 2 1.9101 -0.8330
1 15 4 -5.5010 0.3834
1 15 6 1.9835 -0.5939
1 15 8 1.2688 0.8003
1 15 10 0.1745 0.1885
1 15 12 -4.0358 -0.4038
1 15 14 1.6165 -0.5888
1 16 1 1.9620 -0.6757
1 16 3 -3.9305 0.1766
1 16 5 -3.8805 0.2576
1 16 7 4.0124 -0.2878
1 16 9 2.6580 0.6368
1 16 11 -1.7509 0.2741
1 16 13 -1.6695 0.0889
1 16 15 3.1568 -1.3632
1 17 2 -4.5583 0.2664
1 17 4 1.5085 0.1691
1 17 6 -4.0636 0.0312
1 17 8 2.9256 -0.6961
1 17 10 -0.0691 -0.2741
1 17 12 -0.7376 0.1597
1 17 14 -0.6412 0.0474
1 18 1 2.0336 -0.5459
1 18 3 3.6207 0.2847
1 18 5 5.3266 -0.1550
1 18 7 -0.7778 -0.8937
1 18 9 -1.9467 0.2284
1 18 11 3.3828 -0.1679
1 18 13 0.8898 -0.0269
1 19 2 3.1638 1.1252
1 19 4 2.5516 -0.6645
1 19 6 1.2272 0.3812
1 19 8 -6.5793 -0.8534
1 19 10 1.5199 0.3160
1 20 1 -3.8111 0.2683
1 20 3 -0.8248 0.6387
1 20 5 -0.1233 0.1180
1 20 7 -2.6131 -0.2180
1 20 9 -1.0152 0.3848
1 21 2 -0.6676 -0.1156
1 21 4 -1.7453 -0.5658
1 21 6 -2.6089 0.2336
1 22 1 4.6608 -0.2045
1 22 3 -1.0678 -0.2854
2 2 2 -73.8679 -2.4212
2 3 3 -10.4156 1.9440
2 4 2 29.9338 -1.5079
2 4 4 -25.6552 2.3846
2 5 3 13.3597 1.7592
2 5 5 -0.1841 0.4832
2 6 2 -2.8863 -1.5676
2 6 4 2.2193 -1.3302
2 6 6 -6.2476 -1.5822
2 7 3 5.1712 -3.0790
2 7 5 3.7217 4.4814
2 7 7 -4.6735 -1.2292
2 8 2 -23.0465 -4.2128
2 8 4 1.4191 -0.0055
2 8 6 -4.6439 0.1867
2 8 8 -6.2806 -3.9460
2 9 3 -0.6717 -2.4313
2 9 5 5.5981 4.7171
2 9 7 11.1455 0.0984
2 9 9 -8.1721 -2.2738
2 10 2 -2.4841 -0.9644
2 10 4 -1.5735 0.1863
2 10 6 0.7873 -0.0066
2 10 8 -2.5960 0.5301
2 10 10 -2.3859 0.0543
2 11 3 3.8256 1.9139
2 11 5 -1.3364 -1.7483
2 11 7 -0.6830 0.8209
2 11 9 7.9767 0.3722
2 11 11 -6.6359 0.4830
2 12 2 -3.3512 0.0647
2 12 4 -3.7220 -0.2080
2 12 6 -4.4628 -1.0697
2 12 8 2.0093 0.8366
2 12 10 -1.4200 0.5751
2 12 12 -2.6421 0.6174
2 13 3 4.5666 0.7444
2 13 5 -0.5658 -0.7859
2 13 7 1.6060 0.8446
2 13 9 1.1350 -0.9920
2 13 11 1.4304 -0.3847
2 13 13 0.8016 -0.3340
2 14 2 1.1837 -1.6358
2 14 4 1.1601 0.0900
2 14 6 -0.3997 -0.9000
2 14 8 -0.5213 0.5884
2 14 10 0.4117 -0.9452
2 14 12 0.5599 -0.0557
2 14 14 0.5312 -0.5375
2 15 3 -3.9325 -2.2848
2 15 5 4.7191 1.8045
2 15 7 -3.8116 0.6591
2 15 9 1.5042 -0.7252
2 15 11 0.6478 0.1488
2 15 13 -1.7416 -0.0132
2 15 15 0.8041 -0.4160
2 16 2 0.0186 -1.4817
2 16 4 2.3209 0.4518
2 16 6 -0.7110 -0.6005
2 16 8 0.9723 -0.0287
2 16 10 -1.6888 -0.1018
2 16 12 1.8878 0.4833
2 16 14 -1.8283 -0.3790
2 17 3 8.3309 -0.4470
2 17 5 -5.1542 1.0698
2 17 7 -0.2563 -0.2242
2 17 9 0.6626 -0.0002
2 17 11 -2.2646 0.5637
2 17 13 2.5187 0.8134
2 18 2 0.9760 0.2380
2 18 4 -5.5837 0.4196
2 18 6 1.5490 0.0201
2 18 8 -0.2448 -0.1800
2 18 10 -1.0884 0.1019
2 18 12 0.3326 0.0772
2 19 3 -3.9499 0.9007
2 19 5 -0.5744 -0.2856
2 19 7 2.2405 -0.1655
2 19 9 -0.0081 0.0010
2 19 11 -1.5506 0.0933
2 20 2 -1.7927 -0.1018
2 20 4 2.8175 -0.3183
2 20 6 2.9552 -0.7722
2 20 8 -0.3954 -0.2352
2 21 3 1.5174 -0.3043
2 21 5 2.0161 0.2791
2 21 7 -2.3436 0.3489
2 22 2 -4.5123 -0.4529
3 4 3 -15.2144 3.7756
3 5 4 2.8557 1.0355
3 6 3 20.9651 0.7667
3 6 5 -11.4588 0.2956
3 7 4 6.4256 -4.7012
3 7 6 -7.2262 3.8948
3 8 3 -2.6091 0.8245
3 8 5 4.8569 0.0719
3 8 7 2.1566 1.9218
3 9 4 -5.6062 -2.9017
3 9 6 7.6885 0.4787
3 9 8 -3.7721 1.3637
3 10 3 -11.3891 2.3528
3 10 5 2.2144 -1.6528
3 10 7 1.7115 -0.6420
3 10 9 -5.0550 1.2743
3 11 4 -3.3807 1.8541
3 11 6 4.0044 -2.0441
3 11 8 0.9902 0.7844
3 11 10 1.8272 1.2470
3 12 3 -0.7428 3.4151
3 12 5 -1.2359 -0.9387
3 12 7 -0.0540 -0.8139
3 12 9 3.7691 0.5218
3 12 11 -1.5591 1.1774
3 13 4 -1.1910 0.6305
3 13 6 -1.6821 -0.2489
3 13 8 3.3038 -0.1727
3 13 10 1.6692 0.0827
3 13 12 -4.5660 1.0319
3 14 3 2.6712 0.6686
3 14 5 -3.7994 0.7485
3 14 7 -1.4339 -0.2375
3 14 9 -0.9778 0.3769
3 14 11 -0.4869 -0.3991
3 14 13 0.0728 1.1080
3 15 4 10.0660 -2.6251
3 15 6 -3.0178 1.5076
3 15 8 -2.7021 -0.4863
3 15 10 2.9653 -0.4298
3 15 12 3.5038 -0.0607
3 15 14 -0.7230 0.8025
3 16 3 -3.0612 -0.3439
3 16 5 4.7176 0.4931
3 16 7 -4.1336 -0.4697
3 16 9 -5.2989 0.2188
3 16 11 5.4005 -0.3504
3 16 13 1.3452 -0.2399
3 16 15 -3.6897 0.3254
3 17 4 -3.7461 -0.8965
3 17 6 6.9644 1.1264
3 17 8 -3.4907 -0.4701
3 17 10 1.4823 -0.1003
3 17 12 -0.4500 0.0407
3 17 14 1.0495 -0.2159
3 18 3 -0.6115 0.5362
3 18 5 -3.1600 -0.8950
3 18 7 4.1482 -0.1147
3 18 9 0.3060 -0.5279
3 18 11 -3.0025 -0.1385
3 19 4 -0.2375 1.0249
3 19 6 -4.6510 -0.3167
3 19 8 9.6033 0.6444
3 19 10 -2.7222 0.7575
3 20 3 -6.0753 1.3191
3 20 5 -3.1793 -0.5020
3 20 7 0.9962 0.0680
3 20 9 -1.5781 0.2474
3 21 4 2.1843 -0.3785
3 21 6 3.6744 -0.1014
4 4 4 -1.0079 4.0686
4 5 5 -3.4680 2.1332
4 6 4 19.3562 2.5300
4 6 6 -13.2688 0.6388
4 7 5 -6.7143 -3.3593
4 7 7 1.9297 2.4911
4 8 4 -7.4999 -2.4184
4 8 6 6.0607 -0.4471
4 8 8 -1.5063 1.2978
4 9 5 2.7074 -1.4542
4 9 7 -5.8938 0.7684
4 9 9 4.4181 1.4187
4 10 4 7.3201 2.2571
4 10 6 1.3068 0.0627
4 10 8 4.0076 0.1552
4 10 10 -5.2494 1.5242
4 11 5 -0.2023 2.1540
4 11 7 1.1136 -1.3455
4 11 9 -5.2489 -0.8009
4 11 11 3.5123 1.8972
4 12 4 -1.0029 2.9221
4 12 6 0.7227 -0.1203
4 12 8 0.4113 -0.7520
4 12 10 0.8210 0.2307
4 12 12 -1.4086 0.6644
4 13 5 -2.2421 2.1835
4 13 7 -1.3945 -1.0900
4 13 9 8.0269 -1.0060
4 13 11 -6.1881 0.3456
4 13 13 0.8669 0.6135
4 14 4 -0.0556 -0.4862
4 14 6 -1.9547 0.3503
4 14 8 1.4244 -0.4426
4 14 10 2.0514 -0.4060
4 14 12 -1.6206 0.2093
4 14 14 0.2309 0.0174
4 15 5 -3.6784 -1.7923
4 15 7 0.1378 0.9761
4 15 9 -2.8156 -0.0475
4 15 11 3.4754 -0.4010
4 15 13 4.6920 0.1837
4 15 15 -6.8070 -0.0708
4 16 4 3.0183 -0.7997
4 16 6 2.2876 0.3547
4 16 8 -5.1248 0.4091
4 16 10 -4.4118 0.1032
4 16 12 5.9685 -0.1630
4 16 14 -1.9759 0.1948
4 17 5 5.7542 -0.9586
4 17 7 -0.7136 0.7505
4 17 9 -0.0763 -0.5853
4 17 11 0.3636 0.2258
4 17 13 -0.1020 0.7762
4 18 4 -2.4354 1.6829
4 18 6 -3.7481 0.0772
4 18 8 2.8548 0.5327
4 18 10 0.5159 0.1200
4 18 12 -4.0210 0.2753
4 19 5 -4.8788 0.5517
4 19 7 3.5092 -0.2022
4 19 9 3.9384 -0.9123
4 19 11 -2.1521 0.1691
4 20 4 -4.2842 1.2740
4 20 6 3.4510 -0.5033
4 20 8 2.3108 0.4722
4 21 5 1.0692 -0.0650
5 6 5 3.8538 -0.1382
5 7 6 3.3057 -0.3749
5 8 5 -0.2865 -3.6728
5 8 7 1.4409 2.4291
5 9 6 -2.4317 -2.3729
5 9 8 -0.9184 1.3582
5 10 5 -1.2454 -0.8806
5 10 7 -1.5627 -1.5346
5 10 9 -0.9545 1.0606
5 11 6 -0.4791 2.1915
5 11 8 -1.7106 -1.6147
5 11 10 3.9522 -0.5828
5 12 5 2.7784 1.9190
5 12 7 1.8756 -0.9044
5 12 9 0.2383 -0.3847
5 12 11 -0.7119 -0.3892
5 13 6 0.3227 0.9597
5 13 8 -0.3525 -0.1506
5 13 10 0.2689 -0.0697
5 13 12 -3.8743 0.5431
5 14 5 -0.3620 -0.3236
5 14 7 1.3157 0.3718
5 14 9 -0.6741 1.5306
5 14 11 0.8311 -0.3053
5 14 13 1.6518 0.0326
5 15 6 0.0099 -1.2000
5 15 8 -0.4829 0.1788
5 15 10 -1.3787 0.3279
5 15 12 2.8594 -1.0281
5 15 14 -1.9050 1.0972
5 16 5 1.7770 -0.8996
5 16 7 -0.9393 -0.0452
5 16 9 0.3544 1.2614
5 16 11 0.7965 -0.4605
5 16 13 1.2666 -0.6134
5 17 6 -3.3965 -0.6729
5 17 8 -1.3462 -0.0551
5 17 10 0.0867 0.0625
5 17 12 0.1404 -1.0395
5 18 5 3.5304 0.0823
5 18 7 0.5394 -0.4237
5 18 9 0.4460 0.5137
5 18 11 1.3654 0.1829
5 19 6 2.5635 0.8395
5 19 8 -0.9011 -0.5882
5 19 10 1.7844 -0.3923
5 20 5 -1.4471 0.7384
5 20 7 2.5994 0.1621
6 6 6 14.1786 -0.4109
6 7 7 2.2280 -0.7534
6 8 6 -5.0381 -0.8193
6 8 8 4.2045 -1.6312
6 9 7 -1.1294 -1.1485
6 9 9 2.3591 -0.5893
6 10 6 0.3997 0.7653
6 10 8 -8.4545 0.3083
6 10 10 9.9453 0.3412
6 11 7 -1.5775 1.9842
6 11 9 1.5562 -1.8306
6 11 11 -0.8678 0.3239
6 12 6 -3.8069 1.1083
6 12 8 4.6011 -0.0911
6 12 10 -3.2880 -0.3185
6 12 12 1.0596 0.3232
6 13 7 1.9581 1.0270
6 13 9 -1.4416 -1.1315
6 13 11 -0.7537 -0.3242
6 13 13 2.3377 -0.8105
6 14 6 3.1870 -0.7705
6 14 8 2.8610 0.1172
6 14 10 -4.7795 0.2490
6 14 12 4.0588 -0.0565
6 14 14 -0.7539 -0.7809
6 15 7 0.8568 -0.5315
6 15 9 0.8028 0.1496
6 15 11 -2.3414 -0.0221
6 15 13 -2.4671 0.2437
6 15 15 1.7888 -0.9092
6 16 6 -3.0758 -1.1752
6 16 8 1.3336 0.2466
6 16 10 1.6930 0.3196
6 16 12 -1.4268 0.4434
6 16 14 0.2990 -0.1342
6 17 7 -2.2627 -0.0060
6 17 9 0.8815 -0.0022
6 17 11 -0.6032 0.2312
6 17 13 0.8931 -0.1658
6 18 6 4.3189 0.3105
6 18 8 -2.2058 0.3552
6 18 10 -0.1175 0.0932
6 19 7 -1.8511 0.5383
6 19 9 0.5981 -0.1220
6 20 6 -0.2274 0.1823
7 8 7 -0.6931 -1.0922
7 9 8 -1.1572 -0.2801
7 10 7 -3.3213 -0.3766
7 10 9 5.6301 -1.3712
7 11 8 -0.5368 2.0143
7 11 10 2.4570 -1.7354
7 12 7 0.8170 0.5113
7 12 9 -2.6405 1.1809
7 12 11 -1.8323 -1.5549
7 13 8 -0.1603 1.1746
7 13 10 -4.7746 1.0001
7 13 12 5.8660 -1.3172
7 14 7 1.3346 -1.4619
7 14 9 -3.0275 0.2024
7 14 11 1.3140 0.9472
7 14 13 -2.5532 -0.9456
7 15 8 -0.4736 -0.9408
7 15 10 3.0442 0.3766
7 15 12 -5.7392 0.4309
7 15 14 3.3420 -0.2739
7 16 7 3.1493 -1.3422
7 16 9 -0.0991 -0.3908
7 16 11 0.9269 -0.0439
7 16 13 -1.8936 -0.4351
7 17 8 1.4369 -0.1920
7 17 10 1.4909 0.1158
7 17 12 -2.1494 -0.0656
7 18 7 -1.8261 -0.3913
7 18 9 0.3739 0.0655
7 18 11 0.6257 -0.2603
7 19 8 -2.9803 0.9060
7 20 7 -3.0942 0.0393
8 8 8 -7.7102 -1.5146
8 9 9 1.1653 -1.1190
8 10 8 12.5594 -1.0418
8 10 10 -6.5828 0.3392
8 11 9 2.6651 1.5301
8 11 11 -6.1208 -0.4078
8 12 8 -3.6506 0.4888
8 12 10 -2.9154 -0.0118
8 12 12 8.9862 -0.6973
8 13 9 -5.9648 0.5016
8 13 11 4.4918 -0.0389
8 13 13 0.7089 -0.1700
8 14 8 -2.2794 -1.2942
8 14 10 2.3506 -0.1358
8 14 12 -0.7223 -0.3105
8 14 14 -1.4430 -1.1558
8 15 9 2.8012 -1.3363
8 15 11 -3.5025 1.3344
8 15 13 -0.0552 0.3372
8 16 8 3.3850 -0.6451
8 16 10 -1.7147 -0.5904
8 16 12 -2.4432 0.5452
8 17 9 0.9693 -0.5652
8 17 11 -0.1502 0.4161
8 18 8 0.2315 0.1773
8 18 10 0.0471 -0.5566
9 10 9 -1.0801 0.5094
9 11 10 -5.1123 -0.2515
9 12 9 -3.6933 1.5566
9 12 11 4.1398 -0.5243
9 13 10 7.9713 1.0197
9 13 12 -3.3402 0.0421
9 14 9 0.5776 0.4784
9 14 11 1.5218 0.6627
9 14 13 -0.2522 -0.3275
9 15 10 -0.1721 -1.3003
9 15 12 -0.8784 0.1842
9 16 9 3.5422 -0.4539
9 16 11 -3.2934 -0.2407
9 17 10 0.5982 -0.4597
9 18 9 -4.4940 0.4061
10 10 10 -11.5137 0.8301
10 11 11 4.6385 0.4955
10 12 10 8.9779 0.7743
10 12 12 -6.1686 0.5154
10 13 11 0.8985 -0.0566
10 13 13 -3.0776 0.0906
10 14 10 -2.9328 0.2237
10 14 12 -0.5998 0.0919
10 14 14 -0.5265 0.0997
10 15 11 0.7093 -0.6561
10 15 13 0.6538 0.4464
10 16 10 -2.4927 0.1363
11 12 11 -0.7541 0.9721
11 13 12 -5.3639 0.4864
11 14 11 -1.9656 -0.3075
11 14 13 1.7070 0.8338
11 15 12 1.1363 -0.6888
11 16 11 3.8353 -0.2674
12 13 13 2.5693 0.6476
12 14 12 1.2868 0.3413
0 0 0 0.0 0.0
;
_shelx_fab_checksum              88282
_olex2_submission_special_instructions 'No special instructions were received'
_oxdiff_exptl_absorpt_empirical_details
;
Empirical correction (ABSPACK) includes:
- Absorption correction using spherical harmonics
- Frame scaling
- Detector area scaling
;
_oxdiff_exptl_absorpt_empirical_full_max 3.845
_oxdiff_exptl_absorpt_empirical_full_min 0.347
loop_
_space_group_symop_operation_xyz
'x, y, z'
'-x, -y, z'
'-x, y, -z'
'x, -y, -z'
'z, x, y'
'z, -x, -y'
'-z, -x, y'
'-z, x, -y'
'y, z, x'
'-y, z, -x'
'y, -z, -x'
'-y, -z, x'
'y, x, -z'
'-y, -x, -z'
'y, -x, z'
'-y, x, z'
'x, z, -y'
'-x, z, y'
'-x, -z, -y'
'x, -z, y'
'z, y, -x'
'z, -y, x'
'-z, y, x'
'-z, -y, -x'
'x+1/2, y+1/2, z+1/2'
'-x+1/2, -y+1/2, z+1/2'
'-x+1/2, y+1/2, -z+1/2'
'x+1/2, -y+1/2, -z+1/2'
'z+1/2, x+1/2, y+1/2'
'z+1/2, -x+1/2, -y+1/2'
'-z+1/2, -x+1/2, y+1/2'
'-z+1/2, x+1/2, -y+1/2'
'y+1/2, z+1/2, x+1/2'
'-y+1/2, z+1/2, -x+1/2'
'y+1/2, -z+1/2, -x+1/2'
'-y+1/2, -z+1/2, x+1/2'
'y+1/2, x+1/2, -z+1/2'
'-y+1/2, -x+1/2, -z+1/2'
'y+1/2, -x+1/2, z+1/2'
'-y+1/2, x+1/2, z+1/2'
'x+1/2, z+1/2, -y+1/2'
'-x+1/2, z+1/2, y+1/2'
'-x+1/2, -z+1/2, -y+1/2'
'x+1/2, -z+1/2, y+1/2'
'z+1/2, y+1/2, -x+1/2'
'z+1/2, -y+1/2, x+1/2'
'-z+1/2, y+1/2, x+1/2'
'-z+1/2, -y+1/2, -x+1/2'
'-x, -y, -z'
'x, y, -z'
'x, -y, z'
'-x, y, z'
'-z, -x, -y'
'-z, x, y'
'z, x, -y'
'z, -x, y'
'-y, -z, -x'
'y, -z, x'
'-y, z, x'
'y, z, -x'
'-y, -x, z'
'y, x, z'
'-y, x, -z'
'y, -x, -z'
'-x, -z, y'
'x, -z, -y'
'x, z, y'
'-x, z, -y'
'-z, -y, x'
'-z, y, -x'
'z, -y, -x'
'z, y, x'
'-x+1/2, -y+1/2, -z+1/2'
'x+1/2, y+1/2, -z+1/2'
'x+1/2, -y+1/2, z+1/2'
'-x+1/2, y+1/2, z+1/2'
'-z+1/2, -x+1/2, -y+1/2'
'-z+1/2, x+1/2, y+1/2'
'z+1/2, x+1/2, -y+1/2'
'z+1/2, -x+1/2, y+1/2'
'-y+1/2, -z+1/2, -x+1/2'
'y+1/2, -z+1/2, x+1/2'
'-y+1/2, z+1/2, x+1/2'
'y+1/2, z+1/2, -x+1/2'
'-y+1/2, -x+1/2, z+1/2'
'y+1/2, x+1/2, z+1/2'
'-y+1/2, x+1/2, -z+1/2'
'y+1/2, -x+1/2, -z+1/2'
'-x+1/2, -z+1/2, y+1/2'
'x+1/2, -z+1/2, -y+1/2'
'x+1/2, z+1/2, y+1/2'
'-x+1/2, z+1/2, -y+1/2'
'-z+1/2, -y+1/2, x+1/2'
'-z+1/2, y+1/2, -x+1/2'
'z+1/2, -y+1/2, -x+1/2'
'z+1/2, y+1/2, x+1/2'
loop_
_atom_site_label
_atom_site_type_symbol
_atom_site_fract_x
_atom_site_fract_y
_atom_site_fract_z
_atom_site_U_iso_or_equiv
_atom_site_adp_type
_atom_site_occupancy
_atom_site_site_symmetry_order
_atom_site_calc_flag
_atom_site_refinement_flags_posn
_atom_site_refinement_flags_adp
_atom_site_refinement_flags_occupancy
Zr1 Zr 0.500000 0.500000 0.37097(7) 0.0757(4) Uani 1 8 d S TU P
O1 O 0.4352(3) 0.5648(3) 0.4352(3) 0.088(2) Uani 1 6 d S TU P
O2 O 0.3993(4) 0.500000 0.3144(4) 0.1035(18) Uani 1 2 d S TU P
C1 C 0.3330(5) 0.500000 0.3330(5) 0.108(3) Uani 1 4 d S TU P
C2 C 0.2827(3) 0.500000 0.2827(3) 0.115(4) Uani 0.75 4 d DS TU P
C3 C 0.3011(6) 0.500000 0.2150(3) 0.101(5) Uani 0.25 2 d DS TU P
H3 H 0.348067 0.500000 0.203259 0.121 Uiso 0.25 2 calc RS T P
C4 C 0.2498(3) 0.500000 0.1604(5) 0.106(5) Uani 0.25 2 d DS TU P
H4 H 0.261023 0.500000 0.113362 0.127 Uiso 0.25 2 calc RS T P
N1 N 0.1299(3) 0.500000 0.1299(3) 0.099(2) Uani 0.5 4 d DS TU P
C5 C 0.1843(3) 0.500000 0.1843(3) 0.087(4) Uani 0.25 4 d DS TU P
O3 O 0.1297(6) 0.3836(13) 0.1297(6) 0.113(3) Uani 0.25 2 d S TU P
C6 C 0.1069(6) 0.4352(6) 0.1069(6) 0.095(2) Uani 0.25 2 d DS TU P
C8 C 0.0272(10) 0.500000 0.0272(10) 0.078(4) Uani 0.25 4 d S TU P
C7 C 0.0519(8) 0.4402(16) 0.0519(8) 0.080(2) Uani 0.25 2 d S TU P
C9 C 0.000000 0.3701(13) 0.0411(11) 0.064(4) Uani 0.25 2 d S TU P
loop_
_atom_site_aniso_label
_atom_site_aniso_U_11
_atom_site_aniso_U_22
_atom_site_aniso_U_33
_atom_site_aniso_U_23
_atom_site_aniso_U_13
_atom_site_aniso_U_12
Zr1 0.0779(5) 0.0779(5) 0.0712(8) 0.000 0.000 0.000
O1 0.088(2) 0.088(2) 0.088(2) -0.018(2) 0.018(2) -0.018(2)
O2 0.105(3) 0.112(4) 0.094(3) 0.000 -0.029(3) 0.000
C1 0.101(2) 0.121(8) 0.101(2) 0.000 -0.029(4) 0.000
C2 0.098(2) 0.147(11) 0.098(2) 0.000 -0.026(4) 0.000
C3 0.061(5) 0.141(14) 0.100(4) 0.000 -0.033(4) 0.000
C4 0.079(4) 0.133(13) 0.106(5) 0.000 -0.043(4) 0.000
N1 0.095(3) 0.108(4) 0.095(3) 0.000 -0.074(3) 0.000
C5 0.077(3) 0.109(11) 0.077(3) 0.000 -0.057(3) 0.000
O3 0.116(4) 0.108(4) 0.116(4) 0.006(3) -0.103(5) 0.006(3)
C6 0.091(3) 0.104(4) 0.091(3) 0.0060(19) -0.076(3) 0.0060(19)
C8 0.080(6) 0.074(4) 0.080(6) 0.000 -0.063(6) 0.000
C7 0.078(3) 0.082(5) 0.078(3) 0.002(2) -0.066(3) 0.002(2)
C9 0.084(7) 0.069(4) 0.038(9) -0.029(6) 0.000 0.000
loop_
_atom_type_symbol
_atom_type_description
_atom_type_scat_dispersion_real
_atom_type_scat_dispersion_imag
_atom_type_scat_source
C C 0.0181 0.0091 'International Tables Vol C Tables 4.2.6.8 and 6.1.1.4'
H H 0.0000 0.0000 'International Tables Vol C Tables 4.2.6.8 and 6.1.1.4'
N N 0.0311 0.0180 'International Tables Vol C Tables 4.2.6.8 and 6.1.1.4'
O O 0.0492 0.0322 'International Tables Vol C Tables 4.2.6.8 and 6.1.1.4'
Zr Zr -0.1862 2.2449 'International Tables Vol C Tables 4.2.6.8 and 6.1.1.4'
loop_
_geom_angle_atom_site_label_1
_geom_angle_atom_site_label_2
_geom_angle_atom_site_label_3
_geom_angle
_geom_angle_site_symmetry_1
_geom_angle_site_symmetry_3
Zr1 Zr1 Zr1 60.0 57_666 53_666
Zr1 Zr1 Zr1 60.0 57_666 5
Zr1 Zr1 Zr1 60.0 9 5
Zr1 Zr1 Zr1 90.0 57_666 9
Zr1 Zr1 Zr1 60.0 53_666 9
Zr1 Zr1 Zr1 90.0 53_666 5
O1 Zr1 Zr1 35.39(14) 2_665 53_666
O1 Zr1 Zr1 90.2(2) . 9
O1 Zr1 Zr1 35.39(14) . 57_666
O1 Zr1 Zr1 35.39(14) . 5
O1 Zr1 Zr1 35.38(14) 51_565 9
O1 Zr1 Zr1 35.39(14) 52_655 53_666
O1 Zr1 Zr1 90.2(2) . 53_666
O1 Zr1 Zr1 35.38(14) 52_655 57_666
O1 Zr1 Zr1 35.38(14) 2_665 9
O1 Zr1 Zr1 90.2(2) 2_665 5
O1 Zr1 Zr1 90.2(2) 51_565 57_666
O1 Zr1 Zr1 90.2(2) 52_655 9
O1 Zr1 Zr1 90.2(2) 52_655 5
O1 Zr1 Zr1 90.2(2) 2_665 57_666
O1 Zr1 Zr1 35.39(14) 51_565 5
O1 Zr1 Zr1 90.2(2) 51_565 53_666
O1 Zr1 O1 70.8(3) . 52_655
O1 Zr1 O1 110.0(6) . 2_665
O1 Zr1 O1 70.8(3) 52_655 2_665
O1 Zr1 O1 70.8(3) . 51_565
O1 Zr1 O1 110.0(6) 52_655 51_565
O1 Zr1 O1 70.8(3) 2_665 51_565
O1 Zr1 O2 77.1(3) 52_655 2_665
O1 Zr1 O2 77.1(3) 51_565 .
O1 Zr1 O2 141.81(7) . 2_665
O1 Zr1 O2 141.81(7) 52_655 62
O1 Zr1 O2 77.1(3) 52_655 61_665
O1 Zr1 O2 141.81(7) 51_565 61_665
O1 Zr1 O2 141.81(7) . 62
O1 Zr1 O2 77.1(3) . 61_665
O1 Zr1 O2 141.81(7) 52_655 .
O1 Zr1 O2 141.81(7) 2_665 .
O1 Zr1 O2 77.1(3) 2_665 62
O1 Zr1 O2 77.1(3) 2_665 2_665
O1 Zr1 O2 77.1(3) 51_565 62
O1 Zr1 O2 141.81(7) 2_665 61_665
O1 Zr1 O2 141.81(7) 51_565 2_665
O1 Zr1 O2 77.1(3) . .
O2 Zr1 Zr1 164.33(19) . 53_666
O2 Zr1 Zr1 74.33(19) . 5
O2 Zr1 Zr1 74.33(19) 62 9
O2 Zr1 Zr1 110.27(12) 2_665 9
O2 Zr1 Zr1 110.27(12) 61_665 5
O2 Zr1 Zr1 74.33(19) 61_665 57_666
O2 Zr1 Zr1 164.33(19) 2_665 5
O2 Zr1 Zr1 164.33(19) 62 57_666
O2 Zr1 Zr1 110.27(12) 61_665 53_666
O2 Zr1 Zr1 110.27(12) 62 53_666
O2 Zr1 Zr1 164.33(19) 61_665 9
O2 Zr1 Zr1 74.33(19) 2_665 53_666
O2 Zr1 Zr1 110.27(12) . 9
O2 Zr1 Zr1 110.27(12) 62 5
O2 Zr1 Zr1 110.27(12) . 57_666
O2 Zr1 Zr1 110.27(12) 2_665 57_666
O2 Zr1 O2 76.12(16) . 62
O2 Zr1 O2 121.3(4) 62 61_665
O2 Zr1 O2 76.12(16) . 61_665
O2 Zr1 O2 76.12(16) 61_665 2_665
O2 Zr1 O2 121.3(4) . 2_665
O2 Zr1 O2 76.12(16) 62 2_665
Zr1 O1 Zr1 109.2(3) 57_666 .
Zr1 O1 Zr1 109.2(3) 57_666 5
Zr1 O1 Zr1 109.2(3) 5 .
C1 O2 Zr1 135.0(7) . .
O2 C1 O2 121.3(12) 22_565 .
O2 C1 C2 119.3(6) . .
O2 C1 C2 119.3(6) 22_565 .
C3 C2 C1 119.7(6) 22_565 .
C3 C2 C1 119.7(6) . .
C3 C2 C3 120.5(12) . 22_565
C2 C3 C4 121.5(10) . .
C5 C4 C3 113.2(9) . .
C6 N1 C5 116.7(7) . .
C6 N1 C5 116.7(7) 51_565 .
C6 N1 C6 126.6(14) 51_565 .
C4 C5 C4 130.1(11) 22_565 .
C4 C5 N1 115.0(6) . .
C4 C5 N1 115.0(6) 22_565 .
N1 C6 C7 113.0(15) . .
O3 C6 N1 121.3(16) . .
O3 C6 C7 125.7(18) . .
C8 C8 C8 44.997(1) 50 49_565
C8 C8 C8 89.994(8) 50 2_565
C8 C8 C8 44.997(4) 2_565 49_565
C8 C8 C7 110.8(9) 2_565 .
C8 C8 C7 110.8(9) 2_565 51_565
C8 C8 C7 110.8(9) 50 51_565
C8 C8 C7 103.9(7) 2_565 4_565
C8 C8 C7 39.3(8) 2_565 2_565
C8 C8 C7 110.8(9) 50 .
C8 C8 C7 67.9(8) 49_565 2_565
C8 C8 C7 39.3(8) 50 4_565
C8 C8 C7 67.9(8) 49_565 50
C8 C8 C7 39.3(8) 2_565 52
C8 C8 C7 103.9(7) 50 2_565
C8 C8 C7 39.3(8) 50 50
C8 C8 C7 67.9(8) 49_565 4_565
C8 C8 C7 103.9(7) 2_565 50
C8 C8 C7 103.9(7) 50 52
C8 C8 C7 67.9(8) 49_565 52
C7 C8 C8 120.2(14) . 49_565
C7 C8 C8 120.2(14) 51_565 49_565
C7 C8 C7 71.5(13) 51_565 2_565
C7 C8 C7 91.7(15) 52 50
C7 C8 C7 134.1(7) 51_565 50
C7 C8 C7 135.7(15) 50 2_565
C7 C8 C7 134.1(7) 51_565 52
C7 C8 C7 135.7(15) 52 4_565
C7 C8 C7 134.1(7) . 2_565
C7 C8 C7 91.7(15) 4_565 2_565
C7 C8 C7 71.5(13) . 52
C7 C8 C7 120(3) 51_565 .
C7 C8 C7 71.7(16) 50 4_565
C7 C8 C7 71.5(13) 51_565 4_565
C7 C8 C7 71.7(16) 52 2_565
C7 C8 C7 71.5(13) . 50
C7 C8 C7 134.1(7) . 4_565
C6 C7 C8 138.9(16) . 2_565
C6 C7 C8 138.9(16) . 50
C6 C7 C7 134.88(8) . 52
C6 C7 C7 134.88(8) . 50
C6 C7 C9 116.9(18) . .
C6 C7 C9 116.9(18) . 21
C8 C7 C6 124(2) . .
C8 C7 C8 29.9(12) . 2_565
C8 C7 C8 29.9(12) . 50
C8 C7 C8 44.3(15) 2_565 50
C8 C7 C7 69.2(9) . 50
C8 C7 C7 76.1(7) 50 52
C8 C7 C7 76.1(7) 2_565 50
C8 C7 C7 69.2(9) . 52
C8 C7 C7 39.3(8) 50 50
C8 C7 C7 39.3(8) 2_565 52
C8 C7 C9 115.9(17) . 21
C8 C7 C9 115.9(17) . .
C7 C7 C7 89.999(1) 50 52
C9 C7 C8 88.9(10) . 2_565
C9 C7 C8 103.3(13) . 50
C9 C7 C8 103.3(13) 21 2_565
C9 C7 C8 88.9(10) 21 50
C9 C7 C7 83.0(9) . 50
C9 C7 C7 83.0(9) 21 52
C9 C7 C7 53.8(9) . 52
C9 C7 C7 53.8(9) 21 50
C9 C7 C9 38.7(13) . 21
C7 C9 C7 72.4(17) . 52
C9 C9 C7 97.0(9) 50 52
C9 C9 C7 120.3(10) 21 52
C9 C9 C7 70.7(7) 21 .
C9 C9 C7 97.0(9) 50 .
C9 C9 C7 70.7(7) 70 52
C9 C9 C7 120.3(10) 70 .
C9 C9 C9 45.000(2) 70 50
C9 C9 C9 45.000(4) 21 50
C9 C9 C9 90.000(7) 70 21
loop_
_geom_bond_atom_site_label_1
_geom_bond_atom_site_label_2
_geom_bond_distance
_geom_bond_site_symmetry_2
Zr1 Zr1 3.5079(19) 57_666
Zr1 Zr1 3.5079(19) 9
Zr1 Zr1 3.5079(19) 5
Zr1 Zr1 3.5079(19) 53_666
Zr1 O1 2.151(4) .
Zr1 O1 2.151(4) 2_665
Zr1 O1 2.151(4) 52_655
Zr1 O1 2.151(4) 51_565
Zr1 O2 2.220(7) .
Zr1 O2 2.220(7) 61_665
Zr1 O2 2.220(7) 62
Zr1 O2 2.220(7) 2_665
O2 C1 1.324(10) .
C1 C2 1.369(17) .
C2 C3 1.349(7) .
C2 C3 1.349(7) 22_565
C3 C4 1.439(11) .
C4 C5 1.341(6) .
N1 C5 1.478(11) .
N1 C6 1.395(12) .
N1 C6 1.395(12) 51_565
O3 C6 1.17(3) .
C6 C7 1.50(3) .
C8 C8 1.05(4) 50
C8 C8 1.05(4) 2_565
C8 C8 1.48(5) 49_565
C8 C7 1.33(3) .
C8 C7 1.96(3) 52
C8 C7 1.33(3) 51_565
C8 C7 1.96(3) 4_565
C8 C7 1.96(3) 2_565
C8 C7 1.96(3) 50
C7 C7 1.99(3) 50
C7 C7 1.99(3) 52
C7 C9 1.69(3) .
C7 C9 1.69(3) 21
C9 C9 1.12(3) 21
C9 C9 1.12(3) 70
C9 C9 1.58(4) 50
loop_
_smtbx_masks_void_nr
_smtbx_masks_void_average_x
_smtbx_masks_void_average_y
_smtbx_masks_void_average_z
_smtbx_masks_void_volume
_smtbx_masks_void_count_electrons
1 0.000 0.250 0.500 21.6 1.5
2 0.000 0.500 0.250 21.6 1.5
3 0.000 0.500 0.750 21.6 1.5
4 0.000 0.750 0.500 21.6 1.6
5 0.250 0.250 0.250 165.3 12.1
6 0.250 0.250 0.750 165.3 12.1
7 0.250 0.750 0.250 165.3 12.1
8 0.250 0.750 0.750 165.3 12.1
9 0.250 0.000 0.500 21.6 1.5
10 0.250 0.500 0.000 21.6 1.8
11 0.500 0.000 0.250 21.6 1.5
12 0.500 0.000 0.750 21.6 1.5
13 0.500 0.250 0.000 21.6 1.6
14 0.500 0.750 0.000 21.6 1.5
15 0.750 0.250 0.250 165.3 12.1
16 0.750 0.250 0.750 165.3 12.1
17 0.750 0.750 0.250 165.3 12.1
18 0.750 0.750 0.750 165.3 12.1
19 0.750 0.000 0.500 21.6 1.8
20 0.750 0.500 0.000 21.6 1.5
