#------------------------------------------------------------------------------
#$Date: 2019-11-22 15:53:07 +0200 (Fri, 22 Nov 2019) $
#$Revision: 231202 $
#$URL: file:///home/coder/svn-repositories/cod/cif/1/55/03/1550332.cif $
#------------------------------------------------------------------------------
#
# This file is available in the Crystallography Open Database (COD),
# http://www.crystallography.net/
#
# All data on this site have been placed in the public domain by the
# contributors.
#
data_1550332
loop_
_publ_author_name
'Rui-Biao Lin'
'Libo Li'
'Hao-Long Zhou'
'Hui Wu'
'Chaohui He'
'Shun Li'
'Rajamani Krishna'
'Jinping Li'
'Wei Zhou'
'Banglin Chen'
_publ_section_title
;
 Molecular sieving of ethylene from ethane using a rigid metal-organic
 framework
;
_journal_name_full               'Nature Materials'
_journal_page_first              1128
_journal_page_last               1133
_journal_paper_doi               10.1038/s41563-018-0206-2
_journal_volume                  17
_journal_year                    2018
_chemical_formula_moiety         'C4 H2 Ca O5, 0.16(C2 H4)'
_chemical_formula_sum            'C4.32 H2.64 Ca O5'
_chemical_formula_weight         173.17
_space_group_crystal_system      tetragonal
_space_group_IT_number           122
_space_group_name_Hall           'I -4 2bw'
_space_group_name_H-M_alt        'I -4 2 d'
_symmetry_space_group_name_Hall  'I -4 2bw'
_symmetry_space_group_name_H-M   'I -4 2 d'
_atom_sites_solution_hydrogens   mixed
_audit_creation_method           SHELXL-2014/7
_cell_angle_alpha                90
_cell_angle_beta                 90
_cell_angle_gamma                90
_cell_formula_units_Z            8
_cell_length_a                   13.61515(13)
_cell_length_b                   13.61515(13)
_cell_length_c                   7.67903(13)
_cell_measurement_reflns_used    2843
_cell_measurement_temperature    298(2)
_cell_measurement_theta_max      76.8190
_cell_measurement_theta_min      6.4840
_cell_volume                     1423.48(3)
_computing_cell_refinement       'CrysAlisPro 1.171.38.30e (Agilent, 2015)'
_computing_data_collection       'CrysAlisPro 1.171.38.30e (Agilent, 2015)'
_computing_data_reduction        'CrysAlisPro 1.171.38.30e (Agilent, 2015)'
_computing_structure_refinement  'SHELXL-2014/7 (Sheldrick, 2014)'
_diffrn_ambient_temperature      298(2)
_diffrn_measured_fraction_theta_full 0.992
_diffrn_measured_fraction_theta_max 0.992
_diffrn_measurement_device_type
'dtrek-CrysAlisPro-abstract goniometer imported rigaku-d*trek images'
_diffrn_radiation_type           CuK\a
_diffrn_radiation_wavelength     1.54184
_diffrn_reflns_av_R_equivalents  0.0978
_diffrn_reflns_av_unetI/netI     0.0567
_diffrn_reflns_Laue_measured_fraction_full 0.992
_diffrn_reflns_Laue_measured_fraction_max 0.992
_diffrn_reflns_limit_h_max       15
_diffrn_reflns_limit_h_min       -16
_diffrn_reflns_limit_k_max       16
_diffrn_reflns_limit_k_min       -16
_diffrn_reflns_limit_l_max       8
_diffrn_reflns_limit_l_min       -6
_diffrn_reflns_number            2330
_diffrn_reflns_point_group_measured_fraction_full 0.995
_diffrn_reflns_point_group_measured_fraction_max 0.995
_diffrn_reflns_theta_full        64.952
_diffrn_reflns_theta_max         64.952
_diffrn_reflns_theta_min         6.502
_diffrn_source                   'fine-focus sealed X-ray tube'
_exptl_absorpt_coefficient_mu    7.425
_exptl_absorpt_correction_type   none
_exptl_crystal_colour            Colourless
_exptl_crystal_density_diffrn    1.616
_exptl_crystal_description       Block
_exptl_crystal_F_000             695
_exptl_crystal_size_max          0.250
_exptl_crystal_size_mid          0.120
_exptl_crystal_size_min          0.120
_refine_diff_density_max         0.786
_refine_diff_density_min         -0.762
_refine_diff_density_rms         0.207
_refine_ls_abs_structure_details
;
 Refined as an inversion twin.
;
_refine_ls_abs_structure_Flack   1.03(4)
_refine_ls_extinction_coef       0.020(6)
_refine_ls_extinction_expression Fc^*^=kFc[1+0.001xFc^2^\l^3^/sin(2\q)]^-1/4^
_refine_ls_extinction_method     'SHELXL-2014/7 (Sheldrick 2014'
_refine_ls_goodness_of_fit_ref   1.135
_refine_ls_hydrogen_treatment    constr
_refine_ls_matrix_type           full
_refine_ls_number_parameters     65
_refine_ls_number_reflns         593
_refine_ls_number_restraints     25
_refine_ls_restrained_S_all      1.138
_refine_ls_R_factor_all          0.0806
_refine_ls_R_factor_gt           0.0747
_refine_ls_shift/su_max          0.000
_refine_ls_shift/su_mean         0.000
_refine_ls_structure_factor_coef Fsqd
_refine_ls_weighting_details
'w=1/[\s^2^(Fo^2^)+(0.1962P)^2^+0.2279P] where P=(Fo^2^+2Fc^2^)/3'
_refine_ls_weighting_scheme      calc
_refine_ls_wR_factor_gt          0.2029
_refine_ls_wR_factor_ref         0.2211
_reflns_Friedel_coverage         0.706
_reflns_Friedel_fraction_full    1.000
_reflns_Friedel_fraction_max     1.000
_reflns_number_gt                584
_reflns_number_total             593
_reflns_threshold_expression     'I > 2\s(I)'
_cod_data_source_file            File-1.cif
_cod_data_source_block           UTSA-280_C2H4_LL
_cod_original_cell_volume        1423.48(4)
_cod_database_code               1550332
_shelx_shelxl_version_number     2014/7
_shelx_space_group_comment
;
The symmetry employed for this shelxl refinement is uniquely defined
by the following loop, which should always be used as a source of
symmetry information in preference to the above space-group names.
They are only intended as comments.
;
_shelx_estimated_absorpt_t_min   0.258
_shelx_estimated_absorpt_t_max   0.469
_shelx_res_file
;

    Ca_C2H4_LL.res created by SHELXL-2014/7

TITL UTSA-280-C2H4 in I-42d
CELL 1.54184 13.615152 13.615152 7.679026 90 90 90
ZERR 8 0.000126 0.000126 0.000129 0 0 0
LATT -2
SYMM -X,-Y,+Z
SYMM +Y,-X,-Z
SYMM -Y,+X,-Z
SYMM 0.5-X,+Y,0.75-Z
SYMM 0.5+X,-Y,0.75-Z
SYMM 0.5-Y,-X,0.75+Z
SYMM 0.5+Y,+X,0.75+Z
SFAC C H Ca O
UNIT 34.88 5.76 8 40
DFIX 1.3 0.01 C3 C4
ISOR 0.01 0.02 O3A O3B
ISOR 0.01 0.02 C3 C4
EADP C3 C4

L.S. 20
PLAN  -20
SIZE 0.12 0.12 0.25
TEMP 25
BOND $H
CONF
MORE -1
fmap 2
acta
TWIN -1 0 0 0 -1 0 0 0 -1 2
REM <olex2.extras>
REM <HklSrc "%.\\Ca_C2H4_LL.hkl">
REM </olex2.extras>

WGHT    0.196200    0.227900
EXTI    0.019555
BASF   1.03123
FVAR       2.33174
CA1   3    0.250000    0.691587    0.875000    10.50000    0.01426    0.01911 =
         0.02484    0.00000    0.00143    0.00000
O1    4    0.414790    0.727630    0.832801    11.00000    0.01065    0.10560 =
         0.03560   -0.00202    0.00175   -0.01036
O2    4    0.655303    0.732460    0.822003    11.00000    0.01820    0.04787 =
         0.02877   -0.00087   -0.00184    0.00338
PART 1
O3A   4    0.250000    0.524953    0.875000    10.25000    0.15717    0.04306 =
         0.02641    0.00000   -0.00114    0.00000
AFIX  83
H3A   2    0.242369    0.504878    0.775236    10.50000   -1.50000
AFIX   0
PART 0
PART 2
O3B   4    0.343707    0.532615    0.866373    10.25000    0.07736    0.02743 =
         0.04698    0.00667    0.00815    0.02873
AFIX   7
H3BA  2    0.338097    0.485445    0.751537    10.25000   -1.50000
H3BB  2    0.329005    0.477773    0.965941    10.25000   -1.50000
AFIX   0
PART 0
C1    1    0.475944    0.739089    0.719444    11.00000    0.02041    0.06125 =
         0.01909    0.00317    0.00278   -0.00263
C2    1    0.585925    0.741680    0.718464    11.00000    0.00816    0.04832 =
         0.02125   -0.00130   -0.00070   -0.00346

C3    1    0.500000    0.500000    0.861782    10.08000    0.04634    0.04543 =
         0.05820    0.00000    0.00000    0.00460
H3    2   10.464849   10.548000   10.934289    10.16000   -1.50000
C4    1    0.500000    0.500000    0.692547    10.08000    0.04634    0.04543 =
         0.05820    0.00000    0.00000    0.00460
H4    2   10.464849   10.548000   10.626930    10.16000   -1.50000
HKLF 4

REM  UTSA-280-C2H4 in I-42d
REM R1 =  0.0747 for     584 Fo > 4sig(Fo)  and  0.0806 for all     593 data
REM     65 parameters refined using     25 restraints

END

WGHT      0.1935      0.4513

REM Highest difference peak  0.786,  deepest hole -0.762,  1-sigma level  0.207
Q1    1   0.2052  0.5147  0.9008  11.00000  0.05    0.69
Q2    1   0.2441  0.7998  0.9176  11.00000  0.05    0.57
Q3    1   0.2198  0.7394  0.5500  11.00000  0.05    0.50
Q4    1   0.5368  0.6231  0.6292  11.00000  0.05    0.47
Q5    1   0.1352  0.7192  0.8925  11.00000  0.05    0.43
Q6    1   0.3195  0.6399  1.0260  11.00000  0.05    0.41
Q7    1   0.4161  0.6684  0.9105  11.00000  0.05    0.37
Q8    1   0.1907  0.7472  1.0038  11.00000  0.05    0.35
Q9    1   0.4338  0.4385  0.7695  11.00000  0.05    0.34
Q10   1   0.3657  0.7500  0.6250  10.50000  0.05    0.32
Q11   1   0.4432  0.6667  1.0298  11.00000  0.05    0.29
Q12   1   0.3927  0.5655  0.9086  11.00000  0.05    0.28
Q13   1   0.2867  0.8782  0.8829  11.00000  0.05    0.25
Q14   1   0.4941  0.7545  0.7060  11.00000  0.05    0.24
Q15   1   0.1989  0.6352  1.0225  11.00000  0.05    0.16
Q16   1   0.3202  0.5805  0.5428  11.00000  0.05    0.16
Q17   1   0.2153  0.5304  1.0877  11.00000  0.05    0.12
Q18   1   0.1314  0.5347  0.9541  11.00000  0.05    0.09
Q19   1   0.0479  0.6505  1.0692  11.00000  0.05    0.05
;
_shelx_res_checksum              98524
_shelx_hkl_file
;
   0   0   2 88.9551 18.1183   2
   0   0   2 4.91385 4.16277   3
   0   0  -6 5.10100 5.39332   1
   0   0   6 6.47297 6.63109   7
   0   0   6 19.5489 11.0140   5
   0   0   6 3.75513 2.64688   6
   0   0   8 2816.12 117.124   5
   0  -1  -1 558.208 34.5522   3
  -1   0   1 462.425 22.2980   2
  -1   0  -1 447.741 33.6538   2
   1   0  -1 496.466 25.1032   2
   0   1  -1 428.599 31.2819   2
   0   1   1 446.169 27.0098   3
   1   0   1 406.451 31.5423   2
  -1   0  -1 448.889 24.4396   1
   0   1  -1 373.169 17.7229   3
   0   1   3 33955.6 396.394   3
  -1   0   3 34585.0 369.379   3
  -1   0  -5 3359.69 168.795   1
   0   1   7 9807.56 214.794   7
   0  -1   7 9110.51 216.480   5
  -1   0   7 9644.32 221.502   5
   1   0   7 8535.82 242.268   6
   0   1   7 9850.96 236.103   5
   1   0   7 9294.22 226.027   5
  -1   0   7 10310.5 215.323   7
  -1   1   8 4.76470 3.88606   7
  -1   1   8 0.47383 3.16850   5
  -1  -1  -6 24311.8 510.353   1
  -1   1   6 23266.6 330.240   5
   1  -1   6 23003.0 348.884   5
  -1   1   6 24077.5 335.044   7
  -1   1   4 9.89982 10.5734   3
  -1   1   4 9.13556 7.02479   2
  -1   1   2 48849.6 394.389   2
  -1   1   2 39565.5 351.897   3
   1   1   0 5.54632 2.62097   1
  -1  -1   0 3.79789 2.98885   1
  -1  -1   2 48652.5 300.638   3
   1   1   4 19.1768 11.2936   2
  -1  -1   6 25327.5 320.718   7
   1   1   6 24997.7 372.407   5
  -1  -1   6 25326.9 335.609   5
   1   1   8-0.59514 6.16532   5
   2   0   0 73339.8 305.015   2
   0   2   0 89683.2 307.645   3
   0  -2   0 57571.6 307.210   1
   0  -2   0 98718.6 359.939   3
  -2   0   0 74420.7 442.264   1
   2   0   0 73221.5 453.207   1
   0   2   2 3499.93 127.228   2
   0   2   2 3550.91 115.581   3
  -2   0   2 4290.78 117.451   3
   2   0   2 3433.91 132.913   2
  -2   0  -2 4031.27 110.472   1
  -2   0   4 27325.6 403.021   3
   0   2   4 28469.6 459.833   3
  -2   0   6 1106.05 70.3079   7
   2   0   6 935.170 82.8108   6
  -2   0   6 843.584 59.2810   8
   0   2   6 1088.93 73.6221   7
   2   0   6 1080.96 78.2864   5
   0   2   6 1045.73 74.3991   5
  -2   0   6 929.115 63.7468   5
   0   2   8 2893.24 115.758   7
   2   0   8 2627.77 127.124   5
   0   2   8 2454.61 109.972   5
  -2   0   8 2546.21 96.9404   7
  -1   2   7 11531.0 247.693   7
  -2   1   7 10706.3 233.236   5
  -1   2   7 10765.5 246.224   5
   2  -1   7 11252.6 269.999   5
  -2   1   7 11555.6 243.064   7
  -2  -1  -5 10696.0 317.239   1
  -2   1   5 6847.40 251.417   3
  -1  -2  -5 12299.3 395.208   1
  -1   2   5 7882.41 294.428   2
  -1   2   3 46294.0 504.839   3
  -2   1   3 46012.8 430.380   2
   1   2  -1 10999.5 189.650   1
   2  -1   1 3821.68 73.6687   1
  -1  -2  -1 6509.09 147.166   1
  -1   2   1 8804.60 147.325   3
  -2  -1   1 6432.09 104.211   3
  -2   1  -1 6461.80 98.1950   1
   2   1   3 35595.4 521.847   2
  -2  -1   3 37095.2 343.072   3
   2   1   5 6511.31 311.555   2
   1   2   5 6681.07 296.109   2
  -2   1  -5 12490.2 341.947   1
  -1   2  -5 11683.7 292.512   1
   1   2   7 10237.1 254.004   5
   1   2   7 10060.1 233.196   7
   2   1   7 10071.2 250.942   5
  -2  -1   7 10215.8 209.954   7
   1   2   7 6768.08 205.199   6
   2   1   7 6655.88 211.486   6
  -2   2   8 1949.56 92.7149   5
  -2   2   8 2595.20 108.555   7
  -2  -2  -6 22.6367 17.4789   1
   2  -2   6-5.55026 9.48464   6
  -2   2   6-0.55556 8.13925   7
   2  -2   6 15.2656 6.58931   5
  -2   2   4 24246.1 399.404   2
  -2   2   4 23613.3 399.902   3
  -2  -2  -2-8.07619 6.51048   1
  -2   2   2 0.49513 15.4048   3
  -2  -2   0 1675.32 76.0614   1
  -2  -2   2 9.39799 4.37402   3
  -2   2  -2 4.22220 2.52531   1
  -2   2  -4 42135.4 477.835   1
   2   2   4 20203.9 458.661   2
  -2  -2   6 9.35786 9.06544   8
   2   2   6 5.42965 8.36356   6
   2   2   6 7.09187 2.72664   5
  -2  -2   6 13.3921 9.66704   7
   2   2   6 14.2154 10.4792   7
   2   2   8 2672.68 125.551   5
   3   0   1 25335.6 303.275   2
   0   3   1 28447.3 274.753   3
   0   3  -1 27811.8 205.304   1
   0  -3   1 16700.4 182.058   1
  -3   0  -1 25551.6 290.896   1
  -3   0   1 18985.3 274.328   3
   3   0   3 25049.9 461.715   2
  -3   0  -3 29055.4 384.247   1
   0   3   5 835.140 99.0295   2
  -3   0   5 1035.14 92.3038   3
   3   0   7 2722.59 142.076   6
  -3   0   7 2381.11 98.3343   8
   3   0   7 3634.74 162.750   5
  -3   0   7 3200.62 118.489   5
  -3   0   7 3486.41 130.000   7
   0   3   7 3760.64 150.398   7
  -3   1   8 474.443 40.6338   5
   3  -1   8 582.638 57.2196   5
  -3   1   8 612.100 49.2733   7
  -1   3   8 593.353 54.7441   5
   3  -1   6 11251.9 264.191   5
  -3   1   6 13007.5 256.406   7
  -3   1   6 10334.8 213.743   8
  -1   3   6 12860.6 265.033   7
  -1   3   4 174.269 38.7170   2
  -3  -1  -4 294.155 48.1853   1
  -1  -3  -4 234.141 47.1341   1
  -1   3   4 162.586 35.2719   3
   3   1  -2 2339.98 62.5082   2
  -3   1   2 2202.89 59.8064   2
   3  -1   2 2092.23 118.307   2
  -3   1   0 14394.4 173.913   2
   1   3   0 14849.8 136.135   3
   1   3   2 3297.63 114.968   3
   3   1   2 3071.83 137.554   2
   1   3   4 55.8064 24.0692   2
  -3   1  -4 145.955 30.7016   1
   3   1   4 63.9645 29.0529   2
  -3  -1   4 70.8041 19.3285   3
   1   3   6 13377.8 275.673   7
  -1  -3   6 10946.7 236.685   8
   1   3   6 13969.2 289.538   5
  -3  -1   6 13260.7 249.135   7
   3   1   6 10682.5 289.117   6
   1   3   6 8907.99 245.088   6
   1   3   6 8513.35 386.008   2
  -3  -1   6 11583.0 235.217   8
   1  -3  -6 15705.1 478.326   1
   3   1   8 615.110 63.0449   5
   1   3   8 647.469 56.3352   7
  -2   3   7 4287.77 155.240   5
   3  -2   7 4278.69 172.895   5
  -3   2   7 4015.30 143.101   5
  -2   3   7 5212.58 171.580   7
  -3   2   7 5128.08 167.498   7
  -3   2   5 7327.33 183.135   7
  -2   3   5 5365.20 235.217   2
  -2  -3  -5 10179.5 390.479   1
  -3  -2  -5 8314.00 309.203   1
  -2   3   5 7097.03 178.851   7
  -3   2   5 4903.26 220.762   3
  -2   3   5 5061.22 231.469   3
   3  -2   5 6606.51 210.818   6
  -2   3   3 18293.8 336.485   3
  -3   2   3 18006.6 346.597   3
  -3   2   3 19878.1 286.495   2
  -2  -3  -3 20462.3 359.833   1
  -2  -3  -1 4707.80 154.060   1
  -3  -2  -1 4425.82 147.631   1
  -3   2  -1 5907.20 92.0908   1
   3   2   1 5577.25 160.974   2
  -3  -2   3 15469.1 209.541   3
  -2   3  -3 19365.6 181.365   1
   2   3   3 15563.3 377.114   2
   3   2   3 16816.5 381.521   2
  -3   2  -3 26168.7 284.299   1
  -2   3  -3 22417.5 176.396   1
   3   2   5 4018.29 144.958   5
   2   3   5 4240.50 148.910   5
  -2  -3   7 3613.37 126.328   8
   2   3   7 5636.46 189.729   7
  -3  -2   7 5140.30 146.206   7
  -3  -2   7 4000.87 133.004   8
   3   2   7 3116.79 152.938   6
   3   2   7 5333.90 190.509   5
   2   3   7 2606.25 139.349   6
   2   3   7 5889.60 198.208   5
  -3   3   8 5.46565 1.48592   7
  -3   3   8 3.12907 5.17737   5
   3  -3   6 5922.10 201.084   5
  -3   3   6 6337.38 172.325   8
  -3  -3  -4-2.23099 9.43535   1
  -3   3   4 15.5019 8.42885   2
  -3   3   4 21.6521 16.1207   3
  -3  -3   0-0.57744 7.11997   1
  -3   3   0-8.36531 13.4718   3
  -3  -3   2 1917.86 41.6235   3
   3   3   2 2604.43 144.023   2
   3   3   4 2.73983 10.8390   2
   3   3   6 8271.92 235.438   5
   3   3   6 8062.78 229.122   7
   3   3   8-4.12031 4.62069   6
   3   3   8-2.65621 3.97172   5
  -4   0   0 106265. 636.108   1
   0  -4   0 68985.4 495.828   1
   0   4   2 19510.5 306.294   3
   0   4  -2 18808.5 164.997   3
   4   0   2 19314.0 361.416   2
   0   4   4 5737.84 224.902   3
   4   0   4 6194.16 292.021   2
  -4   0   4 5505.42 196.549   3
  -4   0   6 1849.23 97.4996   7
   0   4   6 1846.31 102.643   7
   4   0   6 1731.35 124.879   6
   0  -4   6 1470.03 87.8246   8
  -4   0   6 1686.33 91.0151   8
   4   0   6 1886.84 116.482   5
  -4   0   8 2458.72 95.4157   7
   0   4   8 2439.83 114.170   5
  -4   1   7 11773.0 233.438   5
  -4   1   7 10905.7 217.871   8
  -1   4   7 14286.4 297.757   7
  -1   4   7 13821.5 290.924   5
  -4   1   7 12905.2 260.018   7
   4  -1   7 13210.8 323.410   5
  -1  -4  -5 847.941 97.8821   1
   4  -1   5 749.932 76.4995   6
  -1   4   5 868.123 65.6695   7
  -1   4   5 595.773 81.7910   3
  -4   1   5 508.524 68.9385   3
   4  -1   5 745.002 66.5716   5
  -1   4   5 385.823 70.4653   2
  -4  -1  -5 1012.04 110.874   1
  -1   4   3 35486.7 487.833   3
  -4  -1  -3 40157.5 568.020   1
  -4  -1  -1 24174.8 365.100   1
  -1   4   1 24375.7 311.482   3
   4   1   1 15825.2 269.854   2
   1   4   1 13456.3 189.853   3
   4   1   3 31791.8 546.528   2
   1   4   3 33269.3 471.619   3
   1   4   5 2264.15 106.925   7
   4   1   5 1890.53 182.733   2
   4   1   5 2093.43 109.161   5
   4   1   5 1949.93 118.993   6
  -4  -1   5 2170.74 104.038   8
   1   4   7 12421.6 287.313   5
   1   4   7 5920.74 193.164   6
  -1  -4   7 7056.15 181.760   8
   4   1   7 8165.59 253.591   6
   1   4   7 13466.5 301.208   7
  -4  -1   7 10585.0 220.606   7
  -4  -1   7 9621.06 208.180   8
  -4   2   8 1850.22 79.2745   5
  -2   4   8 2151.64 99.1751   5
  -4   2   6 7698.62 197.605   8
   4  -2   6 7700.50 253.712   6
   4  -2   6 8060.18 250.552   5
  -4   2   6 8201.74 210.038   7
  -4   2   4 5668.01 214.442   3
  -2   4   4 5076.13 211.305   2
  -4  -2  -2 7062.17 222.630   1
  -4   2   2 5443.29 190.242   3
  -2   4   2 7101.78 209.682   3
  -2  -4  -2 6341.78 207.375   1
   4   2  -2 5991.89 97.2803   2
  -2   4   0 16559.8 258.144   3
  -2  -4   0 7876.60 210.760   1
   4   2   2 5482.30 197.151   2
  -4  -2   2 5359.94 122.666   3
   4   2   4 6094.94 270.061   2
  -4  -2   4 6238.75 173.033   3
   2   4   6 8719.05 236.283   5
   2   4   6 8657.91 241.699   7
  -4  -2   6 7695.94 207.442   8
   4   2   6 7909.36 227.286   5
   4   2   8 643.574 58.4752   6
  -4  -2   8 1518.97 68.8172   8
  -3   4   7 11468.4 261.403   7
   4  -3   7 10520.2 273.659   5
  -4   3   7 10905.4 254.082   7
  -3   4   5 202.371 46.6908   3
  -3   4   5 328.232 40.2037   7
  -4   3   5 285.958 37.1485   8
  -4   3   5 308.983 39.4717   7
   4  -3   5 299.931 47.7533   6
  -3  -4  -5 445.635 86.7776   1
   4  -3   5 266.768 43.3377   5
  -4  -3  -5 333.387 65.2498   1
  -4   3   3 34701.4 366.524   2
  -4  -3  -3 39312.8 604.656   1
  -3  -4  -3 41488.4 618.989   1
  -3   4   3 33694.7 528.757   3
  -3   4   3 26671.7 433.486   2
  -4   3   3 29803.4 509.841   3
   4  -3   1 0.65418 1.12950   1
  -3  -4  -1-14.3234 14.4355   1
   4   3   1 16631.2 322.316   2
  -3  -4   1 4889.43 186.371   1
   4   3   3 32646.6 574.975   2
  -4  -3   3 33066.4 277.496   3
  -4  -3   5 215.440 35.5925   8
   3   4   5 157.812 49.7436   2
   4   3   5 222.489 35.2423   5
   4   3   5 181.609 55.6951   2
   3   4   5 157.944 34.7974   6
   3   4   5 244.655 36.7636   5
   3   4   5 278.507 42.6661   7
  -4  -3   7 10101.8 196.903   7
   3   4   7 12320.1 286.386   5
   4   3   7 12549.8 301.014   5
   3   4   7 2814.65 147.164   6
  -3  -4   7 7583.69 193.996   8
  -4  -3   7 8175.56 192.696   8
   4   3   7 5277.91 211.653   6
  -4   4   8 406.379 38.5834   5
  -4   4   6 5.07839 8.05411   7
  -4  -4  -4 8768.12 334.806   1
  -4   4   4 5199.36 224.632   3
  -4  -4  -2 1.02142 6.83022   1
  -4   4   2 0.78275 26.2354   3
  -4   4   0 8478.76 250.638   3
  -4  -4   0 5717.77 233.190   1
   4   4   2 5.27764 10.9347   2
   4   4   4 5416.82 288.327   2
   4   4   6 8.44065 7.25652   5
   4   4   8-1.40316 1.39872   6
  -4  -4   8 693.932 44.0910   8
   0   5   1 63564.0 485.048   3
   0  -5  -1 49954.9 469.061   1
  -5   0  -3 13420.0 316.872   1
   0  -5  -3 12322.4 316.972   1
  -5   0   3 8119.94 233.968   3
   5   0   3 10303.8 340.626   2
   0   5   3 8695.03 241.448   3
   5   0   5 15982.6 326.909   5
   5   0   5 15077.6 337.224   6
  -5   0   5 11327.6 313.271   3
   0  -5   5 13436.8 282.561   8
   0   5   5 16166.7 299.152   7
   0  -5  -5 20028.4 535.131   1
   0   5   5 6741.47 318.840   2
   5   0   7 1191.98 95.0739   6
   0   5   7 1574.84 97.4359   5
  -5   0   7 1110.65 73.9785   7
   5   0   7 1512.58 114.369   5
  -5   0   7 1246.76 76.2276   8
   0   5   7 1677.97 108.809   7
  -1   5   8 1194.99 80.6025   7
   5  -1   8 1143.27 82.6428   5
  -5   1   6 2420.61 110.906   8
   5  -1   6 2718.82 150.980   5
   5  -1   6 2354.70 142.184   6
  -1   5   6 2571.06 127.104   7
  -5   1   6 2508.67 117.896   7
  -1  -5  -4 13366.0 370.065   1
  -5  -1  -4 17372.3 438.772   1
  -1   5   4 5670.95 255.431   2
  -1   5   4 10490.5 309.850   3
  -5   1   4 8503.05 265.110   3
  -1  -5  -2 38934.9 517.327   1
  -1   5   2 38098.3 462.956   3
   5   1   0 73784.8 484.772   2
   1   5   0 73458.6 383.416   3
   1   5   2 36919.5 444.377   3
   5   1   2 40016.4 552.494   2
   5   1   4 11116.5 397.419   2
  -5  -1   4 9173.80 245.229   3
   5   1   6 3113.56 155.281   5
   5   1   6 2733.26 157.802   6
   1   5   6 3175.81 150.030   7
  -5  -1   6 2819.59 118.355   8
  -1  -5   6 2350.79 120.230   8
   1   5   6 3485.57 150.534   5
  -5  -1   8 210.712 26.8822   7
   5   1   8 513.691 58.0254   5
   1   5   8 479.516 47.4055   5
  -5  -1   8 236.053 26.3542   8
  -2   5   7 1855.88 102.350   5
  -2   5   7 2230.15 118.490   7
   5  -2   7 1903.30 120.685   5
  -5   2   7 1834.03 98.7325   7
  -5   2   7 1858.34 95.8539   8
   5  -2   5 14048.3 328.802   5
  -2   5   5 16186.5 298.922   7
  -2   5   5 7929.99 323.310   2
  -2  -5  -5 19251.5 545.602   1
  -5   2   5 14477.9 265.705   8
  -2   5   5 11257.2 367.255   3
   2  -5   5 11684.2 275.390   8
  -5   2   5 8423.49 291.453   3
   5  -2   5 15259.3 347.466   6
  -2   5   3 16808.8 356.415   3
  -2  -5  -3 22162.4 463.242   1
  -2   5   3 7648.25 276.861   2
  -5   2   3 11864.4 306.003   3
  -5  -2  -1 26473.2 474.025   1
   5   2  -1 27066.4 228.538   2
  -2   5  -1 35945.2 432.517   3
  -5  -2   1 23373.4 424.096   1
   2   5   3 15205.5 425.525   2
   5   2   3 19488.8 463.676   2
   2   5   5 16123.4 333.197   7
   5   2   5 14419.9 345.201   6
   5   2   5 14925.8 308.040   5
   2   5   5 16689.8 304.903   5
  -5  -2   5 16006.5 293.163   8
   5   2   5 13781.6 512.371   2
  -5  -2   7 2245.59 103.210   8
   5   2   7 1918.52 128.780   6
  -2  -5   7 1334.76 80.4454   8
  -5  -2   7 1755.94 89.7125   7
   2   5   7 308.062 45.7273   6
   2   5   7 3287.40 162.288   7
   2   5   7 3034.21 141.156   5
   5   2   7 3113.94 159.005   5
  -5   3   8 65.3942 14.1585   5
  -3   5   6 404.246 49.7614   7
   5  -3   6 404.807 58.7895   6
  -5   3   6 376.626 46.1471   7
   5  -3   6 330.564 50.8456   5
  -5   3   6 369.896 44.6093   8
  -3  -5  -4 21806.8 577.984   1
  -5   3   4 9113.67 305.170   3
  -3   5   4 9237.36 293.297   2
  -3   5   4 13546.9 386.330   3
  -5  -3  -4 20752.5 528.469   1
  -3  -5  -2 4149.22 185.785   1
  -5   3   2 4047.50 113.079   2
  -3   5   2 4243.70 176.884   3
  -3   5   0 44452.4 488.839   3
   5   3   0 50590.1 510.258   2
   3   5   2 4440.42 224.894   2
   5   3   4 12758.2 432.693   2
   3   5   6 512.094 67.0576   7
   5   3   6 464.287 58.7538   5
   3   5   6 507.505 58.5171   5
  -5  -3   6 423.822 51.6557   8
   5   3   6 370.932 57.1035   6
  -3  -5   6 323.597 45.9811   8
  -5  -3   8 44.4971 11.5154   8
   5   3   8 12.1329 8.92397   6
   3   5   8 141.685 27.5208   5
   5   3   8 128.370 26.9356   5
  -3  -5   8 10.1584 5.53868   8
   3   5   8-3.28786 5.35208   6
  -5   4   7 5636.40 178.376   7
  -4   5   7 5585.09 184.791   7
  -4   5   5 8384.65 215.919   7
  -4   5   5 4724.40 231.910   3
   5  -4   5 7287.60 248.661   5
  -4  -5  -5 11131.2 462.122   1
   5  -4   5 8436.83 269.203   6
  -5   4   5 8353.18 212.269   7
  -5   4   5 7410.29 200.366   8
  -4   5   3 21318.8 462.640   3
  -5   4   3 18265.2 438.709   3
  -4  -5  -1 28394.4 524.308   1
  -5  -4  -1 28394.9 544.553   1
  -5  -4   1 10788.1 287.946   1
  -5  -4   1 14131.2 220.852   3
   5   4   3 27240.0 579.936   2
   4   5   3 24909.6 562.951   2
   4   5   5 10967.0 302.370   7
  -5  -4   5 10705.4 259.744   8
   4   5   5 11225.6 265.001   5
  -4  -5   5 11191.5 274.610   8
   4   5   5 7404.89 372.037   2
   5   4   5 10253.5 256.982   5
   5   4   5 8328.18 404.385   2
   5   4   5 8664.93 278.096   6
   4   5   5 7370.62 266.578   6
  -5  -4   7 4231.57 141.288   8
  -4  -5   7 3503.66 134.105   8
   5   4   7 7245.81 236.863   5
   4   5   7 6812.66 214.216   5
   4   5   7 635.590 66.8443   6
  -5  -4   7 4282.02 124.649   7
  -5   5   8 8.68259 4.09980   7
  -5   5   8-3.64596 3.57386   5
  -5   5   6 2652.29 126.947   7
  -5   5   4 89.7135 32.5315   3
  -5   5   4 50.3684 16.3604   7
  -5   5   4 1.24562 1.86253   8
  -5  -5  -2 2561.14 187.800   1
  -5   5   2 1743.31 126.251   3
   5   5   4 1.25670 5.63725   5
   5   5   4 7.44756 17.6076   2
   5   5   4 1.88089 2.81241   6
  -5  -5   4-3.70431 4.43111   8
  -5  -5   6 2461.38 124.185   8
   5   5   6 2950.33 145.283   5
   5   5   8 3.98696 2.38461   6
  -5  -5   8 3.87274 4.13624   8
   5   5   8-3.60237 7.40298   5
   0   6   0 37081.5 334.049   3
  -6   0   0 36190.7 490.703   1
   0   6   2 21129.0 361.110   3
   0  -6  -2 20787.3 375.894   1
  -6   0   4 86.1161 26.7823   3
   0   6   4 120.511 35.3391   3
   0  -6  -4 139.472 44.3594   1
  -6   0  -4 135.115 34.6229   1
   6   0   6 10824.1 313.748   5
   6   0   6 11011.8 328.780   6
   0   6   6 11046.9 290.258   7
   0   6   8 35.2640 13.2198   5
   0   6   8 34.7724 14.5650   7
  -6   0   8 7.38069 3.66024   7
   6   0   8 37.4766 13.6223   5
  -6   0   8 19.7846 8.30402   8
  -6   1   7 4549.37 147.317   8
   6  -1   7 4906.31 197.117   6
  -1   6   7 5181.22 176.573   5
   6  -1   7 4911.35 203.042   5
   1  -6   5 4090.25 173.242   8
  -1   6   5 1671.31 155.862   2
  -1   6   5 5563.15 272.879   3
  -1  -6  -5 8997.19 379.894   1
  -6   1   5 6703.62 185.993   8
   6  -1   5 7318.24 258.113   6
  -6   1   5 3542.49 184.708   3
  -1   6   5 6949.48 202.948   7
  -6  -1  -3 20758.2 463.876   1
  -1  -6  -3 24375.8 551.020   1
  -6   1   1 8705.24 277.918   3
   1   6   1 19808.0 285.766   3
   6   1   1 19253.9 352.673   2
  -6  -1   1 19103.7 375.417   1
   6   1   3 14880.5 423.868   2
   1   6   3 14108.6 338.060   3
   1   6   5 7498.84 227.536   7
   6   1   5 6837.31 236.823   6
   1   6   5 1844.06 122.901   6
   6   1   5 7314.37 239.383   5
  -6  -1   5 7027.94 191.512   8
   1   6   5 2424.57 201.924   2
  -1  -6   5 5226.77 189.580   8
   1  -6  -5 10074.0 427.093   1
  -6  -1   7 3829.43 135.111   8
  -6  -1   7 2088.58 100.294   7
   6   1   7 3639.39 167.522   6
   6   1   7 4367.68 193.738   5
   1   6   7 4591.98 169.769   5
  -1  -6   7 1179.68 73.1138   8
   1   6   7 4756.08 189.523   7
  -2   6   8 16.5640 7.80635   5
  -6   2   6 18553.0 333.251   7
  -2   6   6 17999.4 339.915   7
   6  -2   6 18434.5 399.117   6
  -6   2   6 17402.8 308.197   8
  -2   6   4 1727.07 93.2835   7
  -6  -2  -4 2095.76 168.612   1
   6  -2   4 1818.62 117.009   6
  -2  -6  -4 1896.20 161.645   1
  -6  -2  -2 21835.8 463.035   1
  -2  -6  -2 22412.7 486.072   1
  -2   6   0 63.5424 18.3031   3
  -6  -2   0 40.4805 22.1906   1
   2  -6   0 23.9259 10.0004   1
   6   2   0 36.0829 13.3646   2
   6   2   2 19453.3 428.107   2
  -6   2  -2 22866.9 316.436   1
   2   6   4 1683.41 103.308   7
   6   2   4 1670.66 112.698   6
   6   2   4 1530.71 157.136   2
   6   2   4 1703.73 104.803   5
  -6  -2   4 1753.33 93.1681   8
  -2  -6   4 2015.05 119.638   8
   6   2   6 16249.2 378.290   6
   2   6   6 20220.2 363.688   5
  -6  -2   6 16453.1 299.564   8
   6   2   6 19011.8 408.723   5
   2   6   8 33.0143 12.0560   5
  -6  -2   8 10.0116 5.06077   7
  -6  -2   8 21.0509 8.42402   8
   6   2   8 43.7354 14.2116   5
  -2  -6   8 4.36999 2.99437   8
  -3   6   7 4527.61 166.724   7
  -6   3   7 4002.38 148.234   7
  -6   3   5 3805.86 146.039   7
  -3   6   5 3894.55 153.440   7
  -3   6   5 2811.93 194.191   3
   6  -3   5 3255.77 168.890   5
   6  -3   5 3735.24 175.831   6
  -3  -6  -5 4598.09 276.353   1
  -6  -3  -5 5499.13 306.119   1
  -6   3   5 1506.32 139.837   3
   3  -6   5 1558.13 103.995   8
  -3   6   3 12314.7 346.690   3
  -3  -6  -3 14810.2 419.553   1
   6   3  -1 22298.5 270.076   2
  -3  -6  -1 19281.0 444.149   1
  -6  -3  -1 22465.0 504.687   1
  -3   6   1 20007.8 357.912   3
  -3  -6   1 417.038 62.7103   1
  -6  -3   1 9833.91 312.577   1
   3   6   3 10028.9 390.981   2
  -6  -3   3 9439.50 179.047   3
   3   6   5 3055.69 136.156   5
   6   3   5 2765.82 143.048   5
  -6  -3   5 2953.00 131.780   8
   6   3   5 2694.48 236.305   2
   6   3   7 3160.75 160.926   6
   6   3   7 4992.84 204.745   5
  -3  -6   7 1463.95 84.8105   8
   3   6   7 4659.28 169.950   5
  -6  -3   7 1015.86 66.4833   7
  -6   4   8 11.1709 4.74965   7
  -4   6   8 11.5751 4.99632   7
  -6   4   8 0.26104 1.35211   5
  -4   6   8 5.05692 3.89471   5
  -6   4   6 3110.34 134.788   7
  -4   6   6 3124.51 142.447   7
  -6   4   4 5631.12 166.856   7
   6  -4   4 4866.39 204.500   5
  -6  -4  -4 7285.92 368.280   1
  -4   6   4 4237.82 228.872   3
   6  -4   4 5519.02 200.569   6
  -4  -6  -4 7124.60 355.797   1
  -4   6   4 5525.32 166.866   7
  -6   4   4 4853.10 159.386   8
  -4   6   2 12226.8 339.651   3
  -6  -4  -2 14961.7 441.570   1
  -6  -4   0 15068.2 434.586   1
  -6   4   0 20687.2 522.050   3
   6   4   0 18667.5 370.681   2
  -4  -6   0 12064.9 388.572   1
   6   4   4 6975.76 256.234   6
   4   6   4 4364.49 272.573   2
   6   4   4 5796.14 189.429   5
   6   4   4 5270.46 299.480   2
  -6  -4   4 6873.91 198.568   8
   6   4   6 3055.06 165.222   6
  -4  -6   6 2862.53 136.408   8
  -6  -4   6 3540.70 150.167   8
   6   4   6 3978.58 183.971   5
   4   6   6 3991.20 169.859   5
  -6  -4   8 20.2635 7.48069   8
   6   4   8 19.3934 9.50490   6
   4   6   8 95.6568 21.3758   5
   4   6   8 12.6651 6.44004   6
   6   4   8 102.020 24.1530   5
  -4  -6   8 3.43443 4.21433   8
  -6   5   7 2280.96 108.455   7
  -5   6   7 2204.53 108.978   7
  -6   5   5 8547.55 224.724   7
  -5   6   5 8708.68 226.353   7
  -6  -5  -3 13803.4 473.746   1
  -5  -6  -3 13918.4 492.725   1
  -6   5   3 7220.01 308.038   3
  -5   6   3 8997.14 326.885   3
  -5  -6  -1 29675.2 630.351   1
  -6  -5  -1 28648.9 679.509   1
  -5   6  -1 39325.9 669.601   3
   6   5   1 33026.0 597.293   2
   5   6   3 10605.1 416.715   2
   6   5   3 10753.2 396.918   2
   6   5   5 9016.43 257.772   5
  -6  -5   5 9186.06 251.421   8
   5   6   5 9294.93 252.719   5
  -5  -6   5 9314.29 254.183   8
  -5  -6   7 920.917 66.7982   8
   5   6   7 322.330 45.1142   6
   6   5   7 1035.25 84.0205   6
   5   6   7 2362.58 126.295   5
  -6  -5   7 1112.83 69.0157   8
  -6  -5   7 930.506 54.0380   7
   6   5   7 2109.94 125.657   5
  -6   6   6-3.21199 2.71684   7
  -6   6   4 4640.13 253.356   3
  -6  -6  -4 10650.7 470.316   1
  -6   6   2 11.7316 10.5250   3
  -6  -6  -2 56.9999 31.5140   1
  -6   6   0 6494.80 254.777   3
   6   6   0 8765.41 316.346   2
  -6  -6   2-2.46225 8.23251   1
   6   6   4 8014.20 279.288   6
   6   6   4 7447.36 219.913   5
   6   6   4 7190.59 377.385   2
   6   6   6 4.24430 8.79371   5
   6   6   6 31.7507 16.7560   6
  -6  -6   6 14.6272 9.31720   8
   0   7   1 17143.7 295.613   3
   0  -7  -1 17632.2 387.604   1
  -7   0  -1 17531.1 355.034   1
   0  -7  -3 3239.12 189.745   1
   0   7   5 2417.05 134.039   7
   7   0   5 2271.47 144.975   5
   0   7   5 249.099 65.9572   2
   0  -7   5 939.726 82.5959   8
  -7   0   5 2423.62 114.523   8
   0   7   5 278.714 47.6178   6
   7   0   7 583.585 69.2072   5
   7   0   7 753.858 74.6763   6
   0   7   7 848.657 69.7090   5
   0   7   7 832.718 78.2422   7
  -7   0   7 684.725 56.2077   8
  -1   7   8 3612.38 120.870   5
  -7   1   6 1693.77 98.6258   7
  -1   7   6 2141.32 128.262   7
   7  -1   6 2114.10 135.487   6
  -7   1   6 1704.01 99.1559   8
  -1   7   4 31843.0 606.069   3
   7  -1   4 33436.7 528.964   5
  -7  -1  -4 58380.5 946.244   1
   1  -7   4 17978.8 383.569   8
  -1   7   4 37109.2 456.065   7
  -7   1   4 39877.3 440.760   8
  -1  -7  -4 47515.2 844.016   1
   7  -1   4 42923.0 575.079   6
  -1  -7  -2 5022.59 221.821   1
  -1  -7   0 36711.9 559.732   1
   1  -7   0 39521.6 491.763   1
   1   7   2 4393.46 170.755   3
   7   1   2 4562.80 216.825   2
   7   1   4 36069.7 543.716   5
   7   1   4 42364.9 581.532   6
   1  -7  -4 44441.4 788.727   1
  -7  -1   4 41266.9 459.185   8
   1   7   4 38278.1 515.649   7
   7   1   6 2144.95 146.504   5
   1   7   6 2332.13 143.006   7
   7   1   6 2383.79 152.529   6
   1   7   6 2439.33 124.551   5
  -7  -1   6 2024.40 105.752   8
  -7  -1   8 1667.72 71.6039   8
  -7  -1   8 47.7752 11.8869   7
  -2   7   7 1720.14 108.345   7
  -2   7   7 1457.87 89.0502   5
  -7   2   7 1642.44 93.0339   8
  -7   2   5 3985.27 150.844   8
   7  -2   5 4333.48 192.153   6
  -2   7   5 4070.87 158.251   7
  -2  -7  -3 11780.4 419.002   1
  -7  -2  -3 13873.9 465.402   1
  -2  -7  -1 3948.45 199.224   1
  -2   7   1 4402.67 178.811   3
   7   2   1 3053.94 146.966   2
   2  -7  -1 2857.48 129.791   1
   2  -7  -3 11411.1 353.089   1
  -7  -2   3 7736.42 229.798   3
   2   7   5 4160.66 189.263   7
   2   7   5 4796.51 172.891   5
   7   2   5 4359.01 196.821   6
  -7  -2   5 4371.82 159.389   8
   7   2   5 4084.26 190.681   5
   2   7   7 127.243 25.1923   6
   7   2   7 1806.02 113.592   6
   2   7   7 2167.85 115.823   5
  -7  -2   7 324.244 38.2381   7
   7   2   7 1983.59 129.478   5
  -2  -7   7 230.313 32.7505   8
  -7   3   6 2885.63 128.047   7
  -3   7   6 3122.12 141.684   7
  -7   3   6 3160.08 144.301   8
  -3   7   4 27393.9 387.851   7
   7  -3   4 28437.3 453.634   6
  -7  -3  -4 30329.5 695.319   1
  -3  -7  -4 31771.8 737.314   1
  -3   7   4 22360.3 531.854   3
  -7   3   4 25715.1 373.717   8
   7  -3   4 23647.5 472.490   5
  -3  -7  -2 509.520 80.4743   1
  -7  -3  -2 591.995 91.5976   1
  -3   7   2 464.991 64.8234   3
  -3   7   0 19406.0 363.293   3
   7   3   0 18393.4 329.641   2
   7   3   2 248.289 52.3573   2
  -3   7  -2 297.972 43.2686   3
  -7  -3   2 145.900 28.8890   3
   7   3   4 24550.6 435.442   5
  -3  -7   4 26932.7 442.282   8
   3   7   4 28186.5 499.592   7
   7   3   4 28782.4 493.168   6
   3   7   4 28221.9 391.459   5
   3   7   4 23435.7 377.313   4
  -7  -3   4 27176.3 392.541   8
   7   3   4 26488.0 688.980   2
   7   3   6 2838.83 157.203   6
   7   3   6 3184.67 174.807   5
   3   7   6 3408.85 149.591   5
  -7  -3   6 2782.79 121.743   8
  -4   7   7 4200.30 158.757   7
  -7   4   7 3719.86 135.191   7
  -7   4   5 2191.88 113.270   7
  -4   7   5 2129.33 114.688   7
  -7   4   5 2109.38 119.591   8
  -4   7   3 13281.8 385.642   3
  -7   4   3 15484.2 288.034   8
  -4  -7  -1 10339.6 362.314   1
   7   4  -1 10951.7 213.882   2
  -7  -4   1 4285.74 175.143   3
  -4   7  -1 11192.6 302.733   3
   7   4   1 9343.69 290.954   2
  -7  -4   1 6778.53 293.539   1
  -4  -7   3 23939.0 392.545   8
  -7  -4   3 22356.6 346.283   8
   7   4   5 3275.51 166.784   5
   4   7   5 3335.61 147.492   5
  -7  -4   5 3109.90 142.956   8
  -4  -7   5 3476.68 173.951   8
  -7  -4   7 85.6142 17.3239   7
   7   4   7 3383.78 156.796   6
   4   7   7 28.4294 11.8618   6
   7   4   7 4055.11 178.083   5
   4   7   7 4286.08 158.945   5
  -7  -4   7 2788.22 110.060   8
  -5   7   6 8389.91 223.826   7
  -7   5   6 8667.68 221.973   7
  -7  -5  -4 5642.82 339.373   1
  -7   5   2 38.7956 21.9124   3
  -5   7   2 95.5039 31.4984   3
  -5  -7  -2 64.3469 28.6460   1
   5   7   2 736.817 104.391   2
   7   5   2 779.563 98.4234   2
  -5   7  -2 987.933 112.317   3
   7   5   4 5407.95 239.039   6
   5   7   4 4704.57 169.693   5
  -7  -5   4 5212.47 182.269   8
   7   5   6 8563.02 269.131   6
   5   7   6 9766.58 255.419   5
   7   5   6 9451.63 282.460   5
  -7  -5   6 8248.33 221.177   8
  -7   6   7 1403.84 77.6861   7
  -6   7   7 1466.33 84.4152   7
  -7   6   5 4138.31 153.438   7
  -6   7   5 4204.06 158.820   7
  -6   7   3 4865.00 263.349   3
  -7   6   3 5660.64 177.814   4
  -6   7   3 6536.07 178.371   7
  -6   7   3 6396.28 199.780   4
   7  -6   3 5780.93 181.438   9
  -7  -6  -3 7689.50 382.963   1
  -6  -7  -3 7583.67 387.986   1
   6  -7   3 6003.56 185.318   9
  -7   6   3 6543.48 174.692   7
  -7   6   3 3987.84 251.257   3
  -6  -7  -1 15111.1 517.952   1
  -6   7   1 13106.2 397.935   3
  -6   7  -1 14425.0 407.217   3
   6   7   1 13309.0 426.433   2
   7   6   1 14106.0 406.092   2
  -7   6  -3 7253.68 194.577   4
  -6   7  -3 7326.42 195.640   4
   7  -6  -3 6631.36 202.450   9
   6   7   3 6561.71 345.783   2
   6   7   3 7267.68 203.797   5
   7   6   3 7290.03 222.146   5
   7   6   3 6933.74 345.608   2
   6  -7  -3 7088.10 209.965   9
   6   7   5 4299.04 200.795   6
   7   6   5 4876.36 218.043   6
   7   6   5 5029.44 204.240   5
  -6  -7   5 4945.44 184.153   8
  -7  -6   5 5008.12 179.969   8
  -7  -6   7 661.037 50.0882   8
   7   6   7 947.897 74.9080   6
   6   7   7 1334.14 91.1412   5
   7   6   7 1237.06 90.0585   5
  -6  -7   7 516.359 43.6733   8
  -7   7   6 15931.2 295.858   7
  -7   7   4-5.45203 7.24638   7
  -7   7   4 3.16222 1.89133   4
   7  -7   2 3388.83 147.696   9
  -7  -7  -2 3857.61 285.783   1
  -7   7   0 6.19159 6.67605   4
   7   7   0 2.77062 7.17552   2
   7  -7  -2 3514.86 155.807   9
   7   7   2 3758.19 249.111   2
  -7   7  -2 5101.59 300.103   3
  -7  -7   2 5195.53 182.963   8
  -7   7  -2 3753.62 147.755   4
   7  -7  -4-2.44144 5.77206   9
   7   7   4 8.09241 2.42005   5
   7   7   6 14733.7 341.367   6
  -7  -7   6 14921.0 291.108   8
   0   8   0 16577.3 240.025   3
   0  -8   0 11499.4 301.690   1
  -8   0  -2 23699.1 452.954   1
   0  -8  -2 22529.4 495.456   1
   0   8   4 241.991 41.7099   7
   0  -8   4 177.987 36.1295   8
   8   0   4 387.049 53.9078   6
   0  -8  -4 293.601 72.3631   1
   0   8   4 246.366 39.5697   4
   0  -8  -4 291.178 38.2011   9
   8   0   4 229.099 47.6069   5
  -8   0   4 256.003 37.4753   8
   0   8   6 8342.62 266.029   7
   8   0   6 8526.54 268.405   6
   0   8   6 8427.68 224.041   5
   8   0   6 7504.00 269.170   5
  -8   0   6 7562.88 205.655   8
  -1   8   7 2553.64 134.978   7
  -1   8   7 2548.13 113.809   5
   8  -1   5 13204.4 365.766   5
  -1   8   5 13487.5 319.483   7
  -8   1   5 13062.0 278.040   8
  -1   8   3 9804.58 246.619   7
  -1   8   3 8758.87 290.498   3
   8  -1   3 9958.94 301.254   5
  -8  -1  -3 14764.0 458.616   1
  -1  -8  -3 13887.0 475.830   1
  -8   1   3 10662.4 228.044   8
  -1   8   1 3586.32 151.539   3
  -1  -8  -1 3358.50 188.165   1
  -8  -1  -1 2375.08 149.230   1
  -8   1   1 1762.52 151.720   3
  -1  -8   1 1395.70 105.614   1
  -8  -1   1 386.823 64.0665   3
   1   8   3 8559.43 247.545   7
  -8  -1   3 8648.18 194.589   8
   1   8   5 12931.0 343.695   7
  -8  -1   5 13219.8 276.820   8
   8   1   5 14141.2 354.449   6
   1   8   5 13936.7 282.559   5
  -8  -1   7 695.667 54.5894   7
   8   1   7 2046.00 116.960   6
   1   8   7 2189.71 108.767   5
   8   1   7 2232.39 131.709   5
  -8  -1   7 1872.48 93.3356   8
  -1  -8   7 8.31830 6.14098   8
  -8   2   6 12277.0 267.893   7
  -2   8   6 11925.8 296.815   7
  -8   2   6 12103.1 266.555   8
  -2   8   4 186.226 34.7601   7
  -2   8   4 203.411 34.5486   4
  -2  -8  -4 293.906 66.5323   1
   8  -2   4 168.716 40.5230   5
  -8   2   4 234.713 35.4520   8
  -8  -2  -2 12885.5 445.250   1
  -2  -8  -2 11345.1 398.630   1
  -2  -8   0 5215.02 229.002   1
  -8  -2   0 9726.85 352.448   1
   2  -8   0 5907.99 182.556   1
  -2   8   0 9785.55 248.814   3
   2  -8  -2 11731.6 335.380   1
   8   2   2 12351.6 379.201   2
  -8  -2   4 122.412 26.8364   8
   2   8   4 122.594 30.9757   7
   8   2   4 129.581 33.9786   5
   8   2   4 138.813 35.2101   6
   2   8   4 159.912 27.7945   5
   2  -8  -4 120.697 25.3194   9
   2   8   4 99.0323 24.7496   4
   2   8   6 15162.0 368.166   7
  -8  -2   6 13061.2 270.296   8
   8   2   6 15688.9 385.936   6
   2   8   6 15024.0 307.253   5
   8   2   6 12765.0 353.988   5
  -3   8   7 2679.01 128.541   7
  -8   3   7 2472.02 106.292   7
  -8   3   5 12124.3 264.013   7
  -3   8   5 11376.9 282.789   7
  -8   3   5 11883.6 275.472   8
  -3   8   3 12243.6 256.371   7
   8  -3   3 14260.5 305.265   6
  -3  -8  -3 16512.6 563.878   1
  -8  -3  -3 16505.8 526.521   1
  -8   3   3 13435.7 268.548   8
  -3   8   1 7672.03 260.481   3
  -8   3   1 4896.14 244.032   3
   3  -8  -1 10948.8 311.988   1
  -3   8  -1 10090.1 257.060   3
   3  -8  -3 13424.1 445.482   1
   3   8   3 12039.0 238.687   5
   3   8   3 12115.1 297.082   4
   3  -8  -3 12993.8 281.513   9
   8   3   3 11096.1 416.570   2
  -8  -3   3 12447.2 261.016   8
   8   3   5 8692.88 294.219   5
  -8  -3   5 8653.94 226.023   8
  -8  -3   7 57.9282 14.6244   7
   3   8   7 439.085 43.8823   6
   8   3   7 2361.32 125.744   6
   3   8   7 2446.60 113.666   5
   8   3   7 2388.44 135.889   5
  -8  -3   7 1826.52 87.3011   8
  -4   8   6 3897.29 160.485   7
  -8   4   6 3902.33 144.628   7
  -8   4   4 5052.25 164.940   7
  -4   8   4 4658.19 174.054   4
  -8   4   4 5111.50 185.967   8
  -8   4   2 9829.15 243.447   8
  -4   8   2 9227.83 324.122   3
   8   4   0 7612.85 232.293   2
  -8  -4   0 5932.31 270.207   1
  -4   8   0 7460.09 252.834   3
  -4  -8   0 5334.41 269.976   1
  -8   4   0 8389.20 356.953   3
   4  -8  -2 11765.4 357.193   1
   4   8   2 11530.1 464.430   2
   4   8   2 12551.4 307.737   4
   8   4   4 5443.41 224.341   6
   4   8   4 5127.93 172.745   5
   8   4   4 4761.97 207.947   5
   4  -8  -4 4784.22 161.430   9
  -8  -4   4 5315.31 182.230   8
  -4  -8   4 5344.24 200.249   8
   8   4   6 5596.63 218.409   6
   4   8   6 5803.90 187.426   5
  -8  -4   6 5098.85 166.770   8
   8   4   6 5473.77 224.463   5
  -8   5   7 1264.53 73.1693   7
  -5   8   7 1146.25 76.7831   7
  -8   5   5 12924.3 268.815   7
  -5   8   5 11615.5 267.525   7
  -8   5   3 3111.20 129.555   4
  -8   5   3 3890.06 135.709   7
  -5   8   3 2803.68 192.199   3
  -5  -8  -3 4548.94 303.885   1
  -5   8   3 3865.96 160.960   4
   5  -8   3 3225.28 137.269   9
  -5   8   3 3480.62 134.903   7
  -8  -5  -1 9056.02 415.885   1
  -5   8   1 8835.62 234.815   4
   5  -8   1 8088.50 226.804   9
  -5  -8  -1 8049.54 378.846   1
  -8   5   1 7977.50 208.140   4
  -5   8  -1 7515.99 209.126   4
  -8  -5   1 4201.44 247.499   1
  -5  -8   1 2318.17 161.584   1
   5  -8  -1 7370.59 218.826   9
  -8   5  -1 7398.05 197.898   4
  -8   5  -1 10735.6 465.048   3
   5   8   1 7550.29 237.834   4
   8   5   1 6732.15 272.880   2
  -5   8  -3 3356.31 138.505   4
   8   5   3 3332.31 234.453   2
   5   8   3 3044.50 123.107   5
   5   8   3 3359.71 162.056   4
   8   5   3 2906.51 153.176   5
  -5  -8   3 4059.21 167.578   8
   5  -8  -3 3540.52 153.569   9
   8  -5  -3 2625.08 124.656   9
  -8   5  -3 2999.81 125.499   4
   8   5   5 10071.4 303.841   5
   5   8   5 10309.3 257.846   5
  -5  -8   5 10444.8 278.006   8
  -8  -5   7 130.929 19.2885   7
  -8  -5   7 1064.63 62.5258   8
   5   8   7 1779.18 98.6316   5
   5   8   7 487.754 47.3739   6
   8   5   7 1689.59 101.940   6
   8   5   7 1669.90 104.674   5
  -5  -8   7 545.943 46.1050   8
  -6   8   6 454.705 52.2237   7
  -8   6   6 485.005 51.6503   7
  -8   6   4 13897.5 268.505   7
  -6   8   4 13373.6 274.922   7
  -8   6   2 1257.51 69.4122   7
  -6  -8  -2 1199.25 162.543   1
   6  -8   2 1165.65 87.4800   9
  -8   6   2 1078.17 78.5465   4
  -6   8   0 19234.9 345.736   4
   6  -8   0 18904.6 359.863   9
   6   8   0 20172.0 397.766   4
  -8   6   0 19382.3 335.091   4
  -6   8  -2 1155.71 84.2238   4
   8   6   2 930.423 81.5734   5
   8   6   2 1129.56 128.593   2
  -6   8  -2 1132.00 111.051   3
  -8  -6   2 1352.11 85.0781   8
  -8   6  -2 1125.98 80.1375   4
   6   8   4 11145.3 334.725   6
   8   6   4 15058.8 403.109   6
   8   6   4 11841.3 319.277   5
   6   8   4 12785.3 292.986   5
   6  -8  -4 10774.7 252.997   9
  -6  -8   4 15222.0 350.300   8
  -8  -6   4 13024.7 285.990   8
   8   6   6 847.332 78.7219   6
   6   8   6 645.976 70.1621   6
   8   6   6 832.689 80.3472   5
  -6  -8   6 593.816 55.6165   8
  -8  -6   6 724.452 58.3717   8
  -8   7   3 740.581 58.7911   7
  -8   7   3 669.237 66.4313   4
  -7   8   3 716.024 59.4472   7
  -7   8   3 749.668 71.2131   4
   8  -7   3 693.301 67.4406   9
   7  -8   3 697.097 67.1804   9
  -8   7   1 1097.92 84.5781   4
  -7   8   1 1105.87 85.4655   4
  -7   8   1 859.201 105.530   3
   7  -8   1 1100.32 88.1169   9
  -8   7   1 1036.87 130.213   3
  -8  -7   1 678.937 108.412   1
  -7   8  -1 1275.86 88.8978   4
   8  -7  -1 1171.93 93.4123   9
  -8   7  -1 1340.75 136.783   3
  -7  -8   1 1873.91 101.747   8
   7  -8  -1 1343.03 98.4460   9
  -7  -8   1 777.782 117.462   1
  -8   7  -1 1514.42 95.0502   4
  -8   7  -3 797.011 67.9973   4
  -7   8  -3 826.471 71.8754   4
   8   7   3 1011.12 98.6454   6
   8   7   3 822.310 78.2241   5
   7  -8  -3 757.713 72.7513   9
   7   8   3 804.167 73.5834   5
   8  -7  -3 776.505 72.1329   9
  -8  -7   3 973.344 77.8421   8
   7   8   5 5655.83 220.555   6
   8   7   5 5404.83 208.690   5
   7   8   5 6012.85 212.983   5
  -7  -8   5 5524.11 182.923   8
  -8  -7   5 5711.23 186.179   8
  -8   8   4 20759.6 330.817   7
  -8   8   4 15987.3 320.729   4
  -8   8   2 30.2933 19.8737   4
   8  -8   2 29.8969 14.1169   9
  -8   8   0 18297.3 360.108   4
   8  -8   0 18634.4 376.943   9
  -8   8  -2-2.11691 8.70064   4
  -8  -8   2 14.3144 3.56729   8
   8   8   4 20798.4 472.608   6
   8  -8  -4 13410.9 270.929   9
  -8  -8   4 18046.1 328.037   8
   8   8   4 15335.4 334.334   5
   8   8   6-1.27140 2.68852   6
   8   8   6-8.90366 11.6401   5
   0  -9  -1 3358.04 192.671   1
   0   9   1 2988.44 134.108   3
   0   9   3 1238.68 98.1577   7
   0   9   3 1159.83 111.918   3
   9   0   3 1412.75 99.8784   6
   9   0   3 1159.36 111.238   5
   0   9   3 1596.51 107.131   4
   0  -9  -3 1636.07 167.962   1
   0  -9  -3 1411.87 90.8011   9
  -9   0   3 1061.92 66.0741   4
  -9   0  -3 1407.12 81.0346   4
  -9   0   3 1335.73 84.2329   8
  -9   0   5 1176.32 82.2453   8
   0   9   5 1108.99 99.9412   7
   9   0   5 1024.68 114.706   5
   9   0   7 355.740 49.3037   6
   0   9   7 337.377 39.5521   5
  -9   0   7 263.798 33.6016   8
  -9   1   6 2533.67 115.582   7
  -1   9   6 2775.80 149.235   7
   9  -1   6 2966.80 152.875   6
  -1   9   6 2802.60 122.268   5
  -9   1   6 2635.02 121.025   8
  -1   9   4 3364.39 165.676   7
  -9   1   4 3620.77 145.592   8
  -9  -1  -4 3678.94 127.165   4
   9  -1   4 3488.73 196.950   5
  -1   9   4 3607.17 157.903   4
  -9  -1  -2 8979.87 315.293   1
  -1  -9  -2 9612.67 235.444   9
  -1  -9  -2 9541.07 377.717   1
   1  -9   0 13912.5 321.621   1
  -1  -9   0 14127.9 372.095   1
   1   9   2 10247.5 268.268   4
   1  -9  -2 10848.1 378.760   1
   1   9   4 2669.64 160.139   7
   1   9   4 2504.17 135.158   4
   9   1   4 2167.69 148.256   5
   1  -9  -4 2563.76 118.675   9
  -9   1  -4 2441.91 103.108   4
  -9  -1   4 2567.03 121.555   8
   1   9   6 2989.62 160.596   7
   9   1   6 3096.11 160.778   6
   1   9   6 2926.25 129.263   5
   9   1   6 2799.19 173.435   5
  -9  -1   6 2561.30 115.509   8
  -9   2   7 2033.42 89.1858   7
  -2   9   7 2350.43 101.365   5
  -2   9   5 2253.20 134.106   7
   9  -2   5 2672.74 148.370   6
  -9   2   5 2390.04 122.149   8
  -2   9   3 2063.83 118.415   7
  -2   9   3 1680.37 129.037   3
  -2   9   3 2590.49 137.549   4
   9  -2   3 2525.99 130.587   6
  -9   2   3 1912.94 96.3812   4
  -9   2   3 2107.45 110.104   8
  -2   9   1 1237.09 95.7463   3
  -2  -9  -1 1378.49 137.459   1
  -2  -9   1 549.860 76.5524   1
   2  -9  -1 835.555 82.3350   1
   9   2   3 2857.72 155.196   6
   2  -9  -3 2540.43 188.721   1
   2   9   3 2378.58 101.474   5
   2   9   3 2458.76 136.277   4
   9   2   3 1817.16 131.235   5
   2  -9  -3 2514.53 124.297   9
  -2  -9   3 2471.03 138.656   8
  -9   2  -3 2162.66 100.221   4
  -9  -2   3 2000.75 97.9223   8
   9   2   5 3413.19 172.978   6
   2   9   5 3355.02 141.656   5
   9   2   5 2956.79 172.668   5
  -9  -2   5 2949.57 130.866   8
  -9  -2   7 469.244 41.4953   7
   9   2   7 2944.13 128.132   6
   2   9   7 2740.12 109.698   5
  -9  -2   7 2159.73 92.4672   8
  -2  -9   7 83.9972 17.1313   8
   9   2   7 3000.23 148.937   5
  -9   3   6 891.208 66.7761   7
  -3   9   6 862.892 78.8657   7
  -3   9   4 4400.22 179.681   7
  -3   9   4 4514.27 174.623   4
   9  -3   4 4992.58 198.548   6
  -9   3   4 4724.84 176.387   8
  -3   9   2 15102.9 389.214   3
  -3   9   2 15095.8 296.988   7
  -3   9   2 21106.2 390.623   4
   3   9  -2 19791.3 369.487   4
   3  -9   2 17830.4 325.595   9
  -9   3   2 17407.2 299.058   4
  -9   3   2 17878.7 325.040   8
  -3  -9   0 5089.94 259.751   1
  -3   9   0 7773.77 222.256   4
   3   9   0 7764.76 238.729   4
  -9   3   0 6929.97 182.475   4
  -3  -9   0 7237.44 203.122   9
  -9   3   0 9156.87 424.948   3
   3  -9   0 7712.68 223.676   9
  -9  -3   0 6418.81 301.095   1
  -3   9   0 7062.08 240.330   3
  -3   9  -2 20969.8 372.667   4
   9   3   2 21896.6 392.775   6
   3  -9  -2 18229.6 453.043   1
  -9  -3   2 18160.3 281.799   8
   3   9   2 19435.4 389.295   4
   9   3   2 16331.2 377.335   5
   9   3   2 18665.0 496.404   2
  -9   3  -2 18398.6 304.329   4
   3   9   4 2817.08 124.508   5
   3   9   4 2521.33 134.715   4
   3  -9  -4 2530.49 119.242   9
  -3  -9   4 2810.81 148.896   8
   9   3   4 2296.51 150.888   5
  -9  -3   4 2525.68 117.288   8
   9   3   6 713.725 80.8886   5
  -9  -3   6 621.602 55.6114   8
  -9   4   7 3104.97 107.812   7
  -4   9   7 3070.65 129.691   7
  -9   4   5 1570.03 92.9044   7
  -4   9   5 1459.60 102.657   7
  -4   9   3 3400.88 214.688   3
  -4   9   3 3384.22 143.300   7
   4  -9   3 3562.20 146.214   9
  -9   4   3 3108.41 126.290   4
  -9   4   3 3801.64 163.208   8
   4  -9   1 5276.00 183.758   9
  -4   9   1 5412.98 193.353   4
  -4  -9  -1 4917.84 291.212   1
   4   9  -1 5559.86 200.377   4
  -9   4   1 4759.36 164.858   4
  -4   9   1 4918.41 232.606   3
  -4  -9   1 1542.85 128.287   1
  -9  -4   1 2642.40 205.811   1
  -9   4  -1 7006.55 430.841   3
   4   9   1 4434.09 188.375   4
   4  -9  -1 4192.41 168.445   9
  -4  -9   1 5355.66 183.881   8
   9   4   1 3786.89 196.464   2
  -9   4  -1 3978.24 146.116   4
   4  -9  -3 5023.79 246.818   1
  -4   9  -3 6258.90 206.330   4
  -4  -9   3 6356.45 220.278   8
   9   4   3 6221.84 227.420   6
   4   9   3 5400.74 164.782   5
   4   9   3 5314.79 204.121   4
   4  -9  -3 5843.85 201.948   9
   9   4   3 4519.99 201.477   5
  -9  -4   3 5266.41 172.047   8
   9   4   3 5457.32 304.000   2
  -9   4  -3 5277.05 168.877   4
   4   9   5 2507.47 122.948   5
   9   4   5 2285.54 147.985   5
  -4  -9   5 2617.40 149.713   8
  -9  -4   5 2205.11 110.001   8
   9   4   7 3481.13 151.227   5
  -9  -4   7 7.05577 4.30302   7
   4   9   7 1428.25 71.1028   6
   9   4   7 3422.06 131.454   6
   4   9   7 3350.03 122.847   5
  -4  -9   7 879.986 56.5108   8
  -9  -4   7 2339.07 89.6874   8
  -9   5   6 952.059 66.3264   7
  -5   9   6 853.994 74.3806   7
  -9   5   4 206.768 33.0365   7
  -5   9   4 185.957 34.1429   7
  -5   9   4 146.397 30.5740   4
  -5   9   2 15665.2 459.757   3
  -9   5   2 19289.5 278.241   7
  -9  -5  -2 21231.6 687.678   1
  -5   9   2 14630.0 277.628   7
  -5   9   2 17387.0 357.640   4
  -5  -9  -2 17813.1 590.100   1
   5  -9   2 16521.5 334.264   9
  -9   5   2 10578.6 405.705   3
   5   9  -2 17084.2 352.105   4
  -9   5   2 15665.7 307.052   4
  -5   9   0 2148.37 123.039   4
  -9   5   0 1974.18 174.192   3
   5  -9   0 2176.14 122.310   9
   5   9   0 2234.11 132.504   4
  -5  -9   0 1744.10 179.277   1
  -9   5   0 1956.12 110.871   4
  -5   9  -2 18286.9 353.938   4
   5   9   2 18633.9 390.661   4
   9   5   2 17860.7 502.088   2
  -9   5  -2 17745.1 321.549   4
   9   5   4 22.1193 15.6234   6
   5   9   4 1.83055 32.9776   5
   9   5   4 19.8753 9.85655   5
   5  -9  -4 12.8126 8.75037   9
  -9  -5   4 12.3972 10.6875   8
   9   5   6 1739.58 111.799   6
   9   5   6 1436.93 109.707   5
   5   9   6 1575.20 97.1490   5
  -5  -9   6 1094.74 74.4890   8
  -9  -5   6 1344.96 79.7947   8
  -9   6   3 468.759 53.0374   4
  -9   6   3 577.614 50.7169   7
  -6   9   3 512.201 53.4329   7
  -6   9   3 594.086 66.3732   4
   6  -9   3 531.076 58.4204   9
  -6   9   1 3059.21 151.097   4
   6  -9   1 2956.46 146.919   9
  -6   9   1 2585.80 184.062   3
  -9   6   1 2916.48 136.871   4
  -6   9  -1 2924.66 145.419   4
  -6   9  -1 2929.32 195.606   3
   6  -9  -1 2719.31 143.614   9
   6   9   1 2950.50 160.682   4
  -9   6  -1 2819.08 133.268   4
  -6   9  -3 1092.05 82.0889   4
   9  -6  -3 975.852 80.6584   9
   9   6   3 977.346 89.0857   5
  -9  -6   3 1189.99 82.4542   8
   6  -9  -3 1043.71 85.4929   9
  -9   6  -3 1028.93 75.8574   4
   6   9   5 2079.63 142.431   6
   9   6   5 2576.14 156.623   6
   6   9   5 2204.01 119.739   5
  -6  -9   5 2153.06 114.687   8
  -9  -6   5 2128.49 106.847   8
  -9   7   4 2484.82 110.298   7
  -7   9   4 2126.74 108.588   7
  -9   7   4 1567.89 91.7951   4
  -7   9   4 1877.64 111.407   4
  -7   9   2 20439.3 399.059   4
   7  -9   2 19205.6 374.114   9
  -7   9   0 716.895 72.4039   4
   7  -9   0 788.319 77.2189   9
  -9   7   0 719.973 67.5125   4
  -9   7  -2 20130.9 362.187   4
  -7   9  -2 20960.0 387.251   4
   7  -9  -2 20065.1 391.380   9
   9   7   4 2010.52 124.939   5
   9   7   4 2528.58 151.252   6
   7   9   4 2297.66 123.270   5
   9  -7  -4 1851.07 98.6975   9
  -7  -9   4 2640.40 128.597   8
  -9  -7   4 2445.91 121.127   8
   7  -9  -4 1952.74 101.888   9
   9   7   6 7376.67 213.420   5
   7   9   6 5977.67 184.992   6
   9   7   6 7221.03 202.060   6
  -7  -9   6 5915.27 152.341   8
  -9  -7   6 5985.64 151.893   8
   7   9   6 6444.39 180.245   5
  -9   8   5 1746.71 84.6809   7
  -8   9   5 1830.30 92.8391   7
  -9   8   3 1664.51 83.3792   7
  -9   8   3 1612.02 104.016   4
  -8   9   3 1658.68 88.8489   7
  -8   9   3 1668.39 108.843   4
   8  -9   3 1602.34 98.6665   9
   9  -8   3 1577.61 100.254   9
  -9   8   1 1642.33 110.022   4
  -8   9   1 1752.37 116.973   4
   9  -8   1 1655.66 115.728   9
   8  -9   1 1707.60 117.175   9
  -9   8  -1 1398.70 99.1563   4
  -8   9  -1 1400.11 101.112   4
   9  -8  -1 1339.99 103.995   9
   8  -9  -1 1339.41 102.642   9
  -9   8  -3 2027.27 110.360   4
  -8   9  -3 1983.35 110.942   4
   8   9   3 2348.16 149.063   6
   9  -8  -3 1907.50 111.494   9
   8  -9  -3 2070.23 120.926   9
  -8  -9   3 2403.02 119.667   8
  -9  -8   3 2189.64 107.720   8
   9   8   5 2502.24 142.795   6
   9   8   5 2373.14 123.232   5
  -8  -9   5 2319.42 105.054   8
  -9  -8   5 2177.12 97.5291   8
  -9   9   4-1.34808 2.32755   7
  -9   9   4 8.84535 7.57617   4
  -9   9   2 20199.7 390.833   4
  -9   9   0 8.07819 6.39158   4
   9  -9   0 19.9197 13.7050   9
   9  -9  -2 20862.7 394.884   9
  -9   9  -2 20941.0 380.976   4
   9  -9  -4 2.65822 1.32491   9
   9   9   4 10.1147 7.56201   6
  -9  -9   4 20.5450 13.3676   8
   0  10   0 5764.35 210.436   4
   0 -10   0 5057.81 182.709   9
 -10   0   0 6217.12 389.281   3
 -10   0   0 4999.48 161.174   4
 -10   0  -2 31551.7 591.084   1
  10   0   2 31292.7 460.470   6
   0  10   2 29344.6 475.312   4
   0  10  -2 29242.5 451.606   4
   0 -10  -2 28429.1 432.662   9
   0 -10   2 23535.7 367.731   9
 -10   0   2 24129.9 337.026   4
   0 -10  -2 28936.5 680.166   1
 -10   0   2 26448.6 377.072   8
   0  10   4 220.785 47.3706   7
  10   0   4 277.031 47.9733   6
   0  10   4 239.208 41.3560   4
   0 -10   4 137.765 33.8535   8
 -10   0  -4 182.728 29.5837   4
 -10   0   4 213.926 37.6470   8
   0  10   6 3373.30 131.147   5
 -10   0   6 3128.24 129.419   8
 -10   1   7 761.210 50.3363   7
  -1  10   7 981.227 59.6585   5
  -1  10   5 5651.44 226.915   7
 -10   1   5 6162.81 194.836   8
  -1  10   3 1954.82 127.147   7
  -1  10   3 1973.58 154.371   3
  10  -1   3 2682.48 138.254   6
  -1  10   3 2470.87 137.843   4
   1 -10   3 1653.07 91.6431   9
  -1 -10  -3 2493.73 124.443   9
 -10  -1  -3 2425.47 112.243   4
 -10   1   3 1935.81 97.1440   4
 -10   1   3 2198.34 112.540   8
  -1 -10  -1 227.100 58.1225   1
  -1  10   1 281.056 46.0583   4
  -1 -10  -1 288.126 42.8475   9
 -10   1   1 266.551 36.0659   4
 -10   1   1 140.397 44.4814   3
 -10   1   1 256.130 36.3874   8
 -10  -1   1 1.46588 7.59284   3
   1 -10  -1 7.83888 5.52539   1
   1 -10  -1 16.6141 6.10998   9
 -10  -1   1 15.9553 8.43094   8
  10   1   3 3300.12 154.528   6
  -1  10  -3 3030.72 138.348   4
  -1 -10   3 3148.38 167.492   8
   1  10   3 2956.78 155.957   4
   1 -10  -3 3122.49 140.843   9
 -10   1  -3 2984.37 123.692   4
  10   1   5 6449.90 268.033   5
 -10  -1   5 5987.70 184.810   8
 -10  -1   7 478.760 39.1548   7
  10   1   7 1633.24 91.5496   6
   1  10   7 1219.70 66.0292   5
  -1 -10   7 176.626 23.1610   8
 -10  -1   7 1097.48 63.8111   8
 -10   2   6 5503.01 163.421   7
  -2  10   6 5805.06 217.768   7
  -2  10   6 5580.17 159.737   5
 -10   2   6 5916.05 185.210   8
  -2  10   4 440.010 61.7152   7
  10  -2   4 539.475 63.3625   6
  -2  10   4 475.773 57.6974   4
 -10  -2  -4 611.664 53.3678   4
 -10   2   4 554.299 58.7497   8
  -2  10   2 12289.5 327.724   3
  -2  10   2 14292.2 336.049   7
  -2  10   2 18668.4 388.868   4
   2  10  -2 17164.9 350.769   4
   2 -10   2 15668.3 313.163   9
  -2 -10  -2 17450.1 341.563   9
 -10   2   2 15462.1 282.395   4
  -2 -10  -2 17694.9 566.686   1
   2  10   0 1707.98 115.394   4
   2 -10   0 1738.16 110.393   9
  -2 -10   0 1538.91 97.4617   9
 -10   2   0 1763.28 196.057   3
 -10   2   0 1591.01 92.2969   4
  -2  10  -2 19854.0 379.145   4
  10   2   2 21044.1 375.661   6
   2  10   2 18862.4 395.765   4
   2 -10  -2 15982.4 434.426   1
   2 -10  -2 19038.7 365.728   9
  -2 -10   2 14791.0 294.311   9
 -10  -2   2 17066.4 280.718   8
 -10   2  -4 556.187 51.0400   4
  10   2   4 670.595 74.7422   6
   2  10   4 573.083 64.2610   4
   2  10   4 599.519 56.7770   5
  10   2   4 546.396 80.7461   5
   2 -10  -4 557.596 56.5679   9
  -2 -10   4 670.151 78.9905   8
 -10  -2   4 586.811 57.8129   8
  10   2   6 5898.53 235.089   5
 -10  -2   6 5156.36 155.275   8
 -10   3   5 5168.09 165.906   7
 -10   3   5 5243.17 189.854   8
  -3  10   3 6190.18 215.250   7
  -3  10   3 7060.70 237.907   4
  10  -3   3 8078.67 242.166   6
   3 -10   3 5823.85 179.766   9
 -10   3   3 5650.55 174.158   4
 -10   3   3 6947.51 227.021   8
  -3  10   1 5164.52 221.378   3
  -3  10   1 7201.70 249.841   4
  -3 -10  -1 5347.54 294.076   1
   3  10  -1 5429.37 205.102   4
   3 -10   1 6538.97 215.911   9
 -10  -3  -1 6491.38 339.874   1
 -10   3   1 4575.10 272.871   3
 -10   3   1 5973.01 181.618   4
   3  10   1 4764.10 200.574   4
 -10   3  -1 7969.38 482.167   3
   3 -10  -1 5319.93 199.283   9
 -10   3  -1 4372.39 159.191   4
  -3 -10   1 7155.91 244.569   8
  10   3   3 8750.36 274.992   6
  -3  10  -3 7006.37 214.753   4
   3  10   3 7111.26 247.928   4
   3 -10  -3 6888.16 216.855   9
 -10  -3   3 4817.63 144.653   4
  -3 -10   3 9232.75 297.729   8
 -10   3  -3 6667.30 194.127   4
 -10  -3   3 6572.71 189.350   8
   3  10   5 6844.78 195.963   5
  10   3   5 6706.72 262.940   5
 -10  -3   5 6293.63 185.148   8
 -10   4   6 701.766 55.5561   7
  -4  10   6 614.933 63.6049   7
  -4  10   4 2306.46 128.416   7
  -4  10   4 2327.61 124.878   4
  -4  10   2 9690.97 342.237   3
   4 -10   2 11130.0 274.066   9
  -4  10   2 8797.25 239.021   7
  -4  10   2 13262.4 342.007   4
   4  10  -2 11204.2 285.758   4
 -10   4   2 10863.4 255.066   4
   4 -10   0 8223.90 252.493   9
  -4  10   0 7951.08 247.197   4
   4  10   0 8297.16 269.317   4
 -10   4   0 7821.84 377.233   3
 -10   4   0 7743.76 217.050   4
  -4  10  -2 13229.9 314.214   4
  10   4   2 13775.5 323.400   6
   4  10   2 12669.7 334.493   4
   4 -10  -2 12625.5 315.773   9
 -10  -4   2 12008.5 236.774   8
   4  10   4 3404.53 132.353   5
 -10  -4   4 3392.96 138.790   8
   4 -10  -4 3299.24 133.975   9
 -10   4  -4 3067.69 118.377   4
  10   4   6 1107.11 87.9993   6
   4  10   6 870.480 65.4375   5
  10   4   6 871.589 84.1430   5
  -4 -10   6 583.916 52.6959   8
 -10  -4   6 764.805 57.0986   8
 -10   5   3 4664.76 165.709   4
 -10   5   3 6159.33 169.510   7
  -5  10   3 4969.24 179.560   7
  -5  10   3 6875.00 254.600   4
   5 -10   3 5285.08 182.763   9
  -5  10   1 10283.6 288.535   4
   5 -10   1 9921.13 274.637   9
 -10   5   1 10092.4 253.416   4
  -5  10  -1 7427.63 235.050   4
   5  10   1 7294.73 251.169   4
  -5 -10   1 5210.08 282.202   1
  -5 -10   1 9558.23 244.333   8
 -10   5  -1 7527.73 222.861   4
  -5  10  -3 8952.20 285.057   4
  10   5   3 7698.55 256.899   6
  10  -5  -3 5497.97 187.154   9
  10   5   3 6097.12 242.855   5
   5 -10  -3 6567.01 215.632   9
  -5 -10   3 7822.95 241.781   8
 -10  -5   3 6283.15 179.785   8
 -10   5  -3 6272.56 190.467   4
   5  10   5 5642.19 227.817   6
  10   5   5 7636.03 238.733   6
   5  10   5 6954.59 197.904   5
  -5 -10   5 6451.77 200.406   8
 -10  -5   5 6697.92 187.036   8
 -10   6   4 6209.09 169.899   7
 -10   6   4 3861.77 135.855   4
  -6  10   4 5476.80 182.404   7
  -6  10   4 4495.11 165.011   4
  10  -6   4 4459.73 148.846   9
  -6  10   2 1788.66 118.276   4
   6 -10   2 1810.81 113.207   9
  -6  10   0 10544.5 295.296   4
   6 -10   0 10771.3 294.572   9
   6  10   0 10686.9 315.602   4
 -10   6   0 10300.1 265.635   4
  -6  10  -2 1742.23 111.091   4
 -10  -6   2 1765.66 88.5653   8
   6 -10  -2 1815.16 118.527   9
   6  10   4 6285.98 241.168   6
   6  10   4 6518.59 195.330   5
   6 -10  -4 5651.13 172.665   9
  10   6   4 6343.48 235.462   5
   6  10   6 346.264 41.7174   6
   6  10   6 353.533 38.3244   5
  -6 -10   6 323.377 35.5293   8
 -10  -6   6 392.736 37.3823   8
 -10   7   5 3587.91 118.938   7
  -7  10   5 3536.61 135.573   7
 -10   7   3 1319.18 90.8439   4
 -10   7   3 1557.37 79.1103   7
  -7  10   3 1225.49 80.3188   7
  -7  10   3 1494.81 110.747   4
  10  -7   3 1268.80 90.5920   9
   7 -10   3 1272.85 87.2999   9
 -10   7   1 1768.38 110.570   4
  -7  10   1 1773.15 120.217   4
   7 -10   1 1634.00 115.315   9
  -7  10  -1 989.846 88.6009   4
  10   7   1 1190.99 98.2177   6
  10  -7  -1 892.132 81.5610   9
   7 -10  -1 970.985 88.5201   9
  -7 -10   1 1283.61 84.7001   8
 -10   7  -1 921.198 80.7692   4
 -10   7  -3 1696.68 97.6262   4
  -7  10  -3 1777.85 106.878   4
  10   7   3 2044.56 133.135   6
  10  -7  -3 1549.73 101.129   9
   7 -10  -3 1810.48 112.989   9
  -7 -10   3 2117.82 112.947   8
 -10  -7   3 1740.92 92.7055   8
   7  10   5 3906.34 166.184   6
  -7 -10   5 3897.18 135.759   8
 -10  -7   5 3641.69 123.611   8
 -10   8   4 7553.77 167.868   7
  -8  10   4 7636.84 188.844   7
 -10   8   4 6013.63 168.900   4
  -8  10   4 5846.79 166.192   4
 -10   8   2 53.8135 20.4439   4
  -8  10   2 68.2790 24.1864   4
   8 -10   2 57.5744 18.9544   9
 -10   8   0 13267.6 306.756   4
  -8  10   0 13312.8 330.336   4
  10  -8   0 12913.6 323.270   9
   8 -10   0 12928.3 321.967   9
  -8  10  -2 42.6021 16.8721   4
   8 -10  -2 47.8570 17.4921   9
  -8 -10   2 51.7244 16.8763   8
 -10  -8   2 41.6022 12.1190   8
   8 -10  -4 5888.16 155.420   9
  10  -8  -4 6184.64 156.716   9
 -10  -8   4 6464.39 165.339   8
  10  -9   3 3412.83 133.103   9
 -10   9   3 3215.40 136.823   4
  -9  10   3 3581.54 155.555   4
   9 -10   3 3184.33 127.894   9
 -10   9   1 404.833 54.1815   4
  -9  10   1 398.938 54.1140   4
  10  -9   1 377.194 54.0484   9
   9 -10   1 365.929 53.1455   9
 -10   9  -1 355.555 49.8036   4
  -9  10  -1 353.743 52.1705   4
  10   9   1 423.339 56.7405   6
  10  -9  -1 363.119 52.1633   9
   9 -10  -1 358.468 52.0994   9
 -10   9  -3 3819.87 139.553   4
  -9  10  -3 3633.11 139.192   4
   9 -10  -3 3787.81 149.940   9
  -9 -10   3 3966.90 129.538   8
 -10  -9   3 3781.69 117.208   8
  10  -9  -3 3743.07 148.974   9
 -10  10   2 9.03735 5.09236   4
 -10  10   0 10350.8 272.568   4
  10 -10   0 10119.6 269.135   9
  10 -10  -2 2.09083 6.91257   9
 -10  10  -2 15.2938 7.13038   4
 -10 -10   4 4805.93 112.894   8
   0 -11  -1 1095.87 88.4097   9
   0  11   1 1063.95 95.3114   4
 -11   0  -1 1043.56 76.8686   4
 -11   0   1 998.417 73.0611   4
 -11   0   1 955.329 71.1607   8
  11   0   3 4617.07 180.171   6
   0  11   3 4544.34 196.121   4
   0  11  -3 3894.55 157.718   4
   0 -11  -3 4162.37 164.865   9
   0 -11   3 2900.85 123.019   9
   0 -11   3 5124.50 229.161   8
 -11   0  -3 4098.07 146.738   4
 -11   0   3 3168.65 124.878   4
   0  11   5 1027.46 77.6555   6
  11   0   5 1303.63 94.2631   6
   0  11   5 1548.93 87.2037   5
   0 -11   5 877.433 78.1692   8
 -11   0   5 1373.21 88.0436   8
 -11   1   6 62.9399 15.5770   7
   1 -11   6 20.4936 10.3442   8
 -11   1   6 83.8534 20.8444   8
  -1  11   4 12870.8 353.895   7
  11  -1   4 17636.5 352.787   6
  -1  11   4 13558.7 310.324   4
   1 -11   4 11165.4 305.198   8
 -11  -1  -4 15740.6 267.086   4
 -11   1   4 14956.9 305.240   8
  -1  11   2 704.551 76.9788   4
   1  11  -2 768.173 76.4559   4
   1 -11   2 570.401 60.2269   9
  -1 -11  -2 656.310 68.4763   9
 -11  -1  -2 701.108 61.6930   4
 -11   1   2 545.593 55.6037   4
 -11   1   2 651.254 63.7828   8
 -11  -1   0 6710.44 192.603   4
  -1  11   0 7083.58 244.718   4
   1  11   0 7226.48 247.696   4
   1 -11   0 7001.90 226.585   9
  -1 -11   0 6451.61 208.649   9
 -11  -1   0 6900.75 386.763   3
 -11   1   0 6509.19 190.003   4
  -1  11  -2 948.785 84.3055   4
   1  11   2 992.439 91.8364   4
   1 -11  -2 983.928 83.0562   9
  -1 -11   2 820.370 69.9435   9
 -11  -1   2 766.413 63.5714   4
 -11   1  -2 918.392 73.5379   4
 -11  -1   2 863.225 65.9675   8
   1  11   4 15685.8 279.404   5
 -11   1  -4 15135.1 266.210   4
 -11  -1   4 15265.5 306.928   8
 -11  -1   6 108.604 20.0492   7
   1  11   6 110.658 21.7840   5
  -1 -11   6 67.3283 18.0759   8
 -11  -1   6 87.0484 20.4042   8
 -11   2   5 4241.15 144.033   7
  -2  11   5 3766.44 180.091   7
 -11   2   5 4165.78 164.427   8
  -2  11   3 6242.06 232.638   7
  -2  11   3 6691.05 233.162   4
  11  -2   3 7966.78 230.966   6
   2  11  -3 6257.82 199.077   4
   2 -11   3 5128.37 165.393   9
 -11  -2  -3 7215.13 199.063   4
 -11   2   3 5773.10 175.170   4
 -11   2   3 7549.27 233.556   8
  -2  11   1 2218.80 139.108   4
   2 -11   1 2025.29 120.043   9
  -2 -11  -1 2018.90 121.062   9
 -11   2   1 1896.46 105.630   4
   2  11   1 2450.35 147.093   4
   2 -11  -1 2303.42 128.959   9
 -11   2  -1 2110.47 110.337   4
 -11  -2   1 1927.77 91.8314   8
  -2  11  -3 6402.34 204.375   4
   2 -11  -3 6651.09 212.047   9
 -11   2  -3 6760.20 191.116   4
 -11  -2   3 6015.98 177.342   8
   2  11   5 3908.44 135.339   5
 -11  -2   5 3648.60 138.497   8
 -11   3   6 470.835 41.8633   7
  -3  11   6 404.602 39.9180   5
 -11   3   4 10832.8 234.236   7
 -11  -3  -4 10589.0 216.805   4
  -3  11   2 703.961 76.5622   4
   3  11  -2 583.893 67.8009   4
   3 -11   2 567.451 62.8774   9
 -11   3   2 582.608 60.0230   4
  -3  11   0 323.422 57.6331   4
   3  11   0 264.757 47.4853   4
   3 -11   0 256.109 41.5175   9
  -3 -11   0 409.984 56.9877   8
 -11   3   0 221.189 37.5928   4
  -3  11  -2 686.250 72.9349   4
  11   3   2 726.944 69.2272   6
   3  11   2 673.782 77.8402   4
   3 -11  -2 642.916 68.8720   9
 -11  -3   2 528.619 52.9311   4
 -11  -3   2 572.660 52.5283   8
  11   3   4 10377.3 280.435   6
   3  11   4 9146.60 206.390   5
   3  11   4 8318.13 246.090   4
   3 -11  -4 8367.38 213.502   9
  -3 -11   4 10099.6 277.870   8
 -11  -3   4 9106.12 222.362   8
 -11   3  -4 8891.99 201.477   4
   3  11   6 294.451 34.0434   6
  11   3   6 456.293 49.5829   6
   3  11   6 417.593 40.8291   5
  -3 -11   6 273.283 34.5155   8
 -11  -3   6 339.983 35.9439   8
   4 -11   5 2853.83 131.740   8
  -4  11   3 10019.1 282.557   7
  -4  11   3 10552.9 290.514   4
   4 -11   3 9207.45 230.173   9
 -11   4   3 8894.00 217.305   4
   4 -11   1 7872.91 247.582   9
 -11   4   1 7269.48 220.973   4
  -4  11  -1 10170.7 342.303   4
   4  11   1 6278.91 244.959   4
   4 -11  -1 7824.82 251.606   9
  -4 -11   1 10690.7 292.026   8
 -11   4  -1 7080.64 215.931   4
  11   4   3 13645.3 325.570   6
  -4  11  -3 11135.3 269.400   4
   4 -11  -3 11299.0 282.587   9
  -4 -11   3 14592.8 335.669   8
 -11  -4   3 11204.5 239.119   8
 -11   4  -3 11917.0 261.460   4
  11   4   5 4734.22 183.158   6
   4  11   5 3997.17 133.770   5
  -4 -11   5 4499.13 169.745   8
 -11  -4   5 3861.35 135.831   8
  -5  11   4 1081.97 85.2043   7
  -5  11   4 972.116 76.1225   4
  11  -5   4 1108.45 72.2058   9
   5 -11   4 1013.47 91.8007   8
  -5  11   2 4420.30 225.783   4
   5 -11   2 3254.76 155.334   9
  -5  11   0 1652.14 124.362   4
   5  11   0 1639.74 122.269   4
   5 -11   0 1668.29 114.689   9
 -11   5   0 1630.37 106.144   4
  -5  11  -2 5359.00 237.590   4
   5  11   2 3883.42 190.682   4
   5 -11  -2 3832.84 176.292   9
  -5 -11   2 4848.10 181.316   8
 -11  -5   2 3455.67 121.879   8
 -11   5  -4 1113.93 67.5315   4
   5  11   4 1175.65 98.9489   6
   5 -11  -4 1113.08 73.0848   9
 -11   6   5 3534.87 109.733   7
  -6  11   5 3509.66 136.931   7
   6 -11   5 3482.08 108.292   8
 -11   6   3 5328.91 173.237   4
  -6  11   3 5587.22 185.628   7
  -6  11   3 6026.46 211.508   4
  11  -6   3 5626.33 187.046   9
   6 -11   3 5327.30 172.630   9
  -6  11   1 3817.72 180.737   4
   6 -11   1 3600.24 170.765   9
 -11   6   1 3561.00 153.332   4
  -6  11  -1 4060.27 184.096   4
   6 -11  -1 4026.98 179.939   9
 -11   6  -1 3937.77 166.037   4
 -11   6  -3 6081.82 185.266   4
  -6  11  -3 6798.36 213.338   4
  11  -6  -3 6124.09 193.033   9
   6 -11  -3 6304.24 202.116   9
 -11  -6   3 6192.16 166.609   8
   6  11   5 3037.62 136.815   6
  -6 -11   5 3178.89 122.299   8
 -11  -6   5 3010.86 108.163   8
 -11   7   4 307.183 31.9923   7
  -7  11   4 302.458 38.5339   7
  -7  11   4 242.235 33.4959   4
   7 -11   4 318.264 41.1245   8
  -7  11   2 5950.45 227.241   4
   7 -11   2 5172.50 186.660   9
 -11   7   0 2320.90 123.658   4
  -7  11   0 2458.37 142.437   4
  11  -7   0 2337.09 133.325   9
   7 -11   0 2568.77 144.612   9
  -7  11  -2 6067.81 213.802   4
   7 -11  -2 6385.98 220.481   9
 -11  -7   2 5867.72 145.476   8
   7 -11  -4 166.336 25.6251   9
 -11  -7   4 213.422 28.7792   8
 -11   8   3 1931.13 100.433   4
  -8  11   3 1996.10 115.942   4
  11  -8   3 2065.31 102.964   9
   8 -11   3 1771.68 92.2816   9
 -11   8   1 1785.20 110.463   4
  -8  11   1 1789.33 120.257   4
  11  -8   1 1744.90 114.308   9
   8 -11   1 1826.22 118.628   9
 -11   8  -1 992.476 82.6206   4
  -8  11  -1 1010.19 87.4910   4
  11  -8  -1 993.343 86.9182   9
   8 -11  -1 1127.17 92.9815   9
 -11   8  -3 2087.37 102.596   4
   8  11   3 2282.87 141.227   6
  -8  11  -3 2206.53 116.249   4
  11  -8  -3 1993.00 101.505   9
   8 -11  -3 1887.84 101.522   9
  -8 -11   3 2181.07 95.5001   8
 -11  -8   3 2047.14 82.9020   8
 -11   9   2 9686.22 242.176   4
  -9  11   2 9109.51 253.131   4
   9 -11   2 8924.69 225.043   9
 -11   9   0 4698.14 180.514   4
  -9  11   0 4485.73 179.851   4
  11  -9   0 4714.18 184.019   9
   9 -11   0 4641.09 182.029   9
  -9  11  -2 10094.1 251.215   4
   9 -11  -2 9806.03 254.734   9
   9  11   4 258.695 37.9002   6
  -9 -11   4 213.150 23.0012   8
 -11  -9   4 203.456 22.1848   8
 -10  11   3 1155.08 69.0724   4
  11 -10   3 1151.90 60.2990   9
  10 -11   3 1034.82 53.7118   9
 -11  10   1 1082.23 81.0073   4
 -10  11   1 1049.37 82.5329   4
  11 -10   1 1129.57 81.8609   9
  10 -11   1 1129.65 82.7820   9
 -11  10  -1 955.224 75.6698   4
 -10  11  -1 912.404 74.0639   4
  10  11   1 974.109 77.0647   6
  11  10   1 1113.18 77.2919   6
  11 -10  -1 818.446 71.7151   9
  10 -11  -1 920.598 76.0253   9
 -10  11  -3 1170.36 60.2744   4
  11 -10  -3 1367.26 69.9942   9
  10 -11  -3 1300.84 67.3769   9
 -11  11   2 5085.21 176.926   4
  11 -11   2 3721.76 119.810   9
 -11  11   0 8.92153 5.62462   4
  11 -11   0 8.48583 10.0088   9
 -11  11  -2 4739.73 143.684   4
  11  11   2 4608.30 131.801   6
  11 -11  -2 4413.87 135.208   9
   0 -12   0 26232.1 430.085   9
 -12   0   0 26934.4 393.709   4
   0  12   2 18296.0 408.954   4
   0  12  -2 18317.8 380.405   4
   0 -12  -2 18733.1 368.020   9
 -12   0  -2 18756.2 335.841   4
 -12   0   2 19187.8 345.054   8
  12   0   4 1143.12 82.4541   6
   0  12   4 918.699 61.4831   5
   0  12   4 850.074 74.3174   4
 -12   0  -4 949.204 63.6953   4
 -12   0   4 928.404 74.0173   8
 -12   1   5 5881.21 158.075   7
  -1  12   5 5361.81 142.104   5
  12  -1   3 2732.01 126.232   6
   1  12  -3 2115.48 112.842   4
   1 -12   3 1772.83 93.7569   9
   1 -12   3 2928.58 173.582   8
 -12  -1  -3 2430.04 113.018   4
 -12   1   3 1867.67 96.6954   4
  -1  12   1 13614.8 345.808   4
   1 -12   1 12542.0 295.941   9
  -1 -12  -1 13773.1 310.750   9
 -12  -1  -1 14145.7 292.421   4
 -12   1   1 12628.0 270.471   4
   1  12   1 15992.9 390.018   4
   1 -12  -1 15455.1 335.009   9
 -12  -1   1 13848.6 280.597   4
 -12   1  -1 14636.9 306.031   4
  12   1   3 3171.11 137.774   6
  -1  12  -3 2545.08 125.015   4
   1 -12  -3 2706.60 132.680   9
  -1 -12   3 3034.28 161.500   8
 -12   1  -3 2745.98 121.680   4
 -12  -1   3 2542.97 117.355   8
   1  12   5 5067.86 137.327   5
 -12  -1   5 5020.01 157.751   8
  -2  12   4 1581.80 100.938   4
   2 -12   4 1692.83 111.906   8
 -12  -2  -4 1897.43 89.7112   4
  -2  12   2 9077.53 279.135   4
   2  12  -2 9075.24 268.271   4
 -12  -2  -2 9494.71 236.456   4
 -12   2   2 8554.67 224.961   4
  -2  12   0 9593.70 294.967   4
   2  12   0 9686.63 297.546   4
   2 -12   0 9446.68 271.987   9
  -2 -12   0 9339.54 262.106   9
 -12  -2   0 9278.49 238.093   4
 -12   2   0 9516.41 244.249   4
  -2  12  -2 8870.15 261.807   4
   2  12   2 9715.38 298.665   4
   2 -12  -2 9454.03 261.373   9
 -12  -2   2 7863.62 198.552   4
 -12   2  -2 9631.94 239.436   4
 -12  -2   2 8594.39 205.329   8
   2  12   4 1633.00 105.401   4
  -2 -12   4 1833.49 115.202   8
 -12   2  -4 1759.49 86.3462   4
  -3  12   5 4288.53 122.145   5
  -3  12   3 5676.47 213.137   4
   3 -12   3 4371.53 146.121   9
 -12  -3  -3 6227.92 180.868   4
 -12   3   3 4699.58 154.204   4
 -12   3   3 6730.26 172.509   7
   3 -12   1 16597.7 352.915   9
 -12   3   1 17051.7 335.323   4
  -3  12  -1 17891.4 397.104   4
   3  12   1 16215.1 415.423   4
   3 -12  -1 17681.6 368.478   9
 -12  -3   1 15603.4 298.459   4
 -12   3  -1 17866.2 346.903   4
  12   3   3 7490.21 220.487   6
  -3  12  -3 6049.21 192.430   4
   3 -12  -3 6077.72 196.280   9
  -3 -12   3 7783.26 242.878   8
 -12   3  -3 6745.88 193.339   4
 -12  -3   3 6143.50 179.676   8
   3  12   5 4271.93 163.624   6
  12   3   5 6433.46 184.757   6
   3  12   5 3898.73 112.870   5
  -3 -12   5 5887.55 202.008   8
 -12  -3   5 5118.56 146.419   8
 -12   4   4 786.184 55.0929   7
  -4  12   4 576.933 57.4192   4
  12  -4   4 624.524 51.6167   9
   4 -12   4 617.229 62.7533   8
 -12  -4  -4 724.078 51.4859   4
  -4  12   2 2651.81 153.589   4
   4  12  -2 2579.35 139.934   4
   4 -12   2 2383.57 124.699   9
  -4  12   0 4436.35 206.332   4
   4  12   0 3833.24 187.039   4
   4 -12   0 3856.97 173.748   9
 -12   4   0 4050.31 164.120   4
  -4  12  -2 2545.14 138.564   4
   4  12   2 2580.33 149.546   4
   4 -12  -2 2500.63 137.565   9
 -12  -4   2 2136.89 103.685   4
 -12   4  -2 2637.89 130.019   4
 -12  -4   2 2473.93 104.631   8
 -12   4  -4 773.556 53.6566   4
   4  12   4 773.349 76.0151   6
   4 -12  -4 707.928 56.0404   9
 -12  -4   4 800.785 58.2684   8
 -12   5   5 4723.26 118.545   7
   5 -12   5 4369.45 124.043   8
 -12   5   3 3466.13 131.258   4
   5 -12   3 3332.46 127.079   9
   5 -12   1 12019.4 307.236   9
 -12   5   1 12404.5 285.174   4
   5  12   1 11149.5 327.061   4
   5 -12  -1 11654.0 303.708   9
 -12   5  -1 11225.8 277.789   4
  -5  12  -3 4672.99 162.939   4
  12  -5  -3 4922.36 166.347   9
   5 -12  -3 4799.98 171.885   9
 -12  -5   3 4694.92 138.899   8
 -12   5  -3 4997.25 158.692   4
   5  12   5 4257.58 148.335   6
  -5 -12   5 4870.81 139.962   8
 -12   6   4 2263.79 79.5126   7
 -12  -6  -4 2460.70 89.3066   4
   6 -12   4 2431.93 112.796   8
  -6  12   2 464.158 63.3008   4
   6 -12   2 437.050 52.0269   9
 -12   6   0 70.3801 18.5884   4
  -6  12   0 82.6650 25.1264   4
   6 -12   0 98.4229 29.0964   9
  -6  12  -2 723.907 75.4605   4
  12   6   2 801.095 67.8435   6
   6 -12  -2 703.161 71.0082   9
  -6 -12   2 932.264 77.6855   8
  12   6   4 3018.86 124.902   6
   6 -12  -4 2061.54 84.2093   9
  -6 -12   4 2906.94 116.176   8
 -12  -6   4 2365.20 88.7839   8
 -12   7   3 949.273 67.0889   4
  -7  12   3 918.467 73.7470   4
  12  -7   3 1030.43 71.1038   9
   7 -12   3 889.682 59.8346   9
 -12   7   1 6840.93 211.226   4
  12  -7   1 7124.34 222.755   9
   7 -12   1 7622.06 232.996   9
 -12   7  -1 6854.56 208.814   4
  12  -7  -1 6363.54 216.697   9
   7 -12  -1 6671.99 227.756   9
 -12   7  -3 1714.59 87.1736   4
   7  12   3 1850.34 117.108   6
  12   7   3 2015.31 105.040   6
  -7  12  -3 1608.07 86.2128   4
  12  -7  -3 1773.13 92.5956   9
   7 -12  -3 1562.53 90.9980   9
  -7 -12   3 1979.84 91.4312   8
 -12  -7   3 1578.01 67.7714   8
 -12   8   2 758.091 64.9778   4
  -8  12   2 870.596 78.6805   4
   8 -12   2 785.207 65.5186   9
 -12   8   0 1301.67 91.9859   4
  -8  12   0 1525.90 111.274   4
   8 -12   0 1458.90 101.699   9
  -8  12  -2 1163.72 91.2123   4
   8 -12  -2 1054.42 78.7620   9
  -8 -12   2 1011.28 53.2501   8
 -12   9   3 3110.77 108.437   4
  -9  12   3 3045.02 111.088   4
  12  -9   3 2939.85 94.9718   9
 -12   9   1 4847.92 169.810   4
  12  -9   1 4814.10 167.782   9
   9 -12   1 5027.88 169.604   9
 -12   9  -1 4153.00 155.262   4
  -9  12  -1 4467.07 171.071   4
  12  -9  -1 4046.20 156.417   9
   9 -12  -1 4055.86 159.280   9
 -12   9  -3 3281.55 100.580   4
   9  12   3 4390.65 161.217   6
  12   9   3 3674.35 114.342   6
  -9  12  -3 2604.60 83.0406   4
  12  -9  -3 3616.41 108.569   9
   9 -12  -3 3202.43 104.237   9
 -12  10   0 2369.64 110.142   4
  12 -10   0 2309.89 109.018   9
  10 -12   0 2507.30 114.069   9
   0  13   1 3722.85 186.283   4
   0 -13  -1 3499.35 156.361   9
 -13   0  -1 3629.39 149.202   4
 -13   0   1 3249.61 136.386   4
   0  13  -3 408.342 45.9487   4
   0 -13   3 576.844 66.2086   8
 -13   0  -3 513.848 49.7985   4
 -13   0   3 374.032 40.1641   4
 -13   0   5 6054.32 143.150   7
  -1  13   4 1066.28 75.9409   4
 -13  -1  -4 1474.81 72.9097   4
  -1  13   2 7394.15 251.501   4
   1  13  -2 7260.47 232.383   4
 -13  -1  -2 7437.34 207.047   4
 -13   1   2 6933.48 195.797   4
  -1  13   0 6336.90 237.955   4
   1  13   0 5976.89 234.070   4
   1 -13   0 5935.76 205.298   9
  -1 -13   0 6063.96 208.974   9
 -13  -1   0 5717.09 185.996   4
 -13   1   0 6432.21 198.573   4
  -1  13  -2 7935.69 244.797   4
   1  13   2 8086.27 267.043   4
   1 -13  -2 8193.40 238.346   9
 -13   1  -2 8873.08 225.811   4
   1  13   4 1223.08 83.4194   6
  13   1   4 1935.11 93.4908   6
   1  13   4 1334.51 86.0453   4
  -1 -13   4 1760.62 103.919   8
 -13   1  -4 1555.36 74.9867   4
  -2  13   5 2879.57 80.9425   5
   2 -13   5 6227.27 160.280   8
   2 -13   3 2983.42 162.687   8
 -13  -2  -3 2293.73 103.809   4
  -2  13   1 10105.4 295.764   4
 -13  -2  -1 10474.9 246.370   4
 -13   2   1 9915.48 249.347   4
  -2  13  -1 8802.12 269.335   4
   2  13   1 7688.53 271.019   4
   2 -13  -1 9135.58 253.253   9
 -13  -2   1 8360.06 211.551   4
 -13   2  -1 9541.51 243.277   4
  -2  13  -3 946.581 69.7515   4
 -13   2  -3 1196.90 77.9517   4
 -13  -2   3 1135.42 75.8393   8
  13   2   5 8637.46 178.467   6
  -2 -13   5 8508.27 207.264   8
 -13   3   4 555.126 42.2850   7
  -3  13   4 430.273 45.8633   4
 -13  -3  -4 522.680 40.6989   4
  -3  13   2 2341.25 138.878   4
   3  13  -2 2135.58 121.412   4
   3 -13   2 2063.20 109.659   9
 -13  -3  -2 2567.54 117.540   4
 -13   3   2 2229.52 113.066   4
  -3  13   0 842.594 86.6090   4
   3  13   0 908.008 89.4124   4
   3 -13   0 873.788 80.8939   9
 -13  -3   0 815.303 69.7457   4
 -13   3   0 895.276 75.6650   4
  -3  13  -2 2451.76 131.964   4
   3  13   2 2587.98 148.882   4
   3 -13  -2 2555.16 132.062   9
 -13   3  -2 2869.73 130.755   4
 -13  -3   2 2604.37 108.506   8
  13   3   4 553.778 48.6993   6
 -13  -3   4 448.187 42.3168   8
 -13   3  -4 447.242 36.9491   4
 -13   4   3 3520.59 123.079   4
   4 -13   3 3313.22 113.206   9
  -4  13   1 13717.7 344.870   4
   4 -13   1 12938.7 298.034   9
 -13   4   1 13268.0 288.859   4
  -4  13  -1 12544.0 324.594   4
   4  13   1 12209.3 329.949   4
   4 -13  -1 12370.5 302.724   9
 -13  -4   1 12041.3 252.328   4
  -4  13  -3 3045.40 119.374   4
  13  -4  -3 3387.70 126.858   9
   4 -13  -3 3440.77 135.689   9
 -13  -4   3 3274.73 110.772   8
 -13   4  -3 3604.29 128.063   4
 -13   5   4 517.293 32.8267   7
  -5  13   4 385.451 37.2758   4
  -5  13   2 263.344 45.0164   4
   5 -13   2 247.607 36.6438   9
 -13   5   0 74.8103 22.3721   4
  -5  13   0 78.7368 23.2155   4
   5 -13   0 76.1347 22.6552   9
  -5  13  -2 162.321 31.5958   4
  13  -5  -2 200.735 35.6857   9
   5 -13  -2 147.340 30.2592   9
 -13  -5   2 117.706 22.9205   4
 -13   5  -2 164.228 30.0083   4
  13   5   4 599.665 47.2388   6
  -5 -13   4 627.420 50.8875   8
 -13  -5   4 503.289 38.7297   8
 -13   6   3 2517.06 100.435   4
  -6  13   3 2584.63 117.834   4
 -13   6   1 8347.94 221.297   4
  -6  13   1 8209.37 255.149   4
   6 -13   1 7880.50 224.364   9
  -6  13  -1 7642.77 240.247   4
  13  -6  -1 7617.07 222.983   9
   6 -13  -1 7810.20 229.471   9
 -13   6  -1 8038.26 214.856   4
 -13   6  -3 2422.74 97.0312   4
  13   6   3 2668.16 102.011   6
  13  -6  -3 2401.95 99.1697   9
   6 -13  -3 2168.36 97.7895   9
  -6 -13   3 2661.96 102.630   8
  -7  13   2 1229.69 86.5224   4
  13  -7   2 1319.40 83.6898   9
   7 -13   2 1268.00 76.4535   9
 -13   7   0 655.000 62.6609   4
  -7  13   0 668.512 69.2745   4
  13  -7   0 635.719 64.9342   9
   7 -13   0 644.163 63.1067   9
  -7  13  -2 862.633 68.3112   4
   7 -13  -2 982.777 72.1911   9
 -13  -7   2 767.264 49.8821   4
  -7 -13   2 997.212 52.2146   8
 -13   8   1 4174.99 148.386   4
  -8  13   1 3816.00 154.513   4
  13  -8   1 3940.96 148.785   9
   8 -13   1 3955.33 140.046   9
 -13   8  -1 3809.68 139.296   4
  -8  13  -1 3783.25 148.144   4
  13  -8  -1 3994.69 146.137   9
   8 -13  -1 3565.16 138.259   9
 -13   9   0 3936.73 138.174   4
  -9  13   0 3905.58 143.968   4
  13  -9   0 3531.57 136.101   9
   9 -13   0 3763.53 131.196   9
   0  14   0 5603.28 215.978   4
   0 -14   0 5858.78 197.602   9
 -14   0   0 5883.70 184.653   4
   0  14   2 154.579 35.2749   4
   0  14  -2 120.267 28.3290   4
   0 -14   2 183.387 35.3087   8
 -14   0  -2 132.239 25.6305   4
 -14   0   2 117.510 24.1663   4
   0 -14   4 2730.45 116.919   8
 -14   0   4 2878.18 93.9563   7
 -14  -1  -3 1644.18 81.9363   4
 -14   1   3 970.911 56.7975   4
  -1  14   1 2553.74 149.988   4
   1 -14   1 2478.25 122.726   9
 -14  -1  -1 2640.18 121.395   4
 -14   1   1 2649.97 123.086   4
   1  14   1 3318.36 166.191   4
   1 -14  -1 3161.55 142.808   9
 -14  -1   1 3076.28 124.973   4
 -14   1  -1 3302.39 139.767   4
  -1 -14   3 2131.65 122.746   8
 -14   1  -3 1684.32 85.6053   4
 -14   2   4 2813.24 81.8588   7
  14  -2   4 2568.75 78.7422   9
  -2  14   4 1597.47 74.2156   4
   2 -14   4 3912.50 144.452   8
 -14  -2  -4 2956.99 84.6105   4
 -14  -2  -2 89.8562 20.9066   4
 -14   2   2 77.9529 19.4195   4
  -2  14   2 86.4922 25.9231   4
   2  14  -2 97.8946 23.8067   4
   2 -14   2 96.1510 21.2553   9
  -2  14   0 1685.82 115.423   4
   2  14   0 1677.49 120.233   4
   2 -14   0 1703.14 105.189   9
 -14  -2   0 1576.49 94.4009   4
 -14   2   0 1818.59 103.749   4
  -2  14  -2 194.631 34.4343   4
   2  14   2 190.867 39.0971   4
   2 -14  -2 202.329 33.0485   9
 -14  -2   2 159.334 26.6382   4
 -14   2  -2 227.351 34.6348   4
   3 -14   3 3752.23 147.836   8
 -14  -3  -3 3450.75 113.989   4
  -3  14   1 3462.61 166.254   4
   3 -14   1 3288.88 137.339   9
 -14  -3  -1 3777.46 137.186   4
 -14   3   1 3759.70 144.676   4
  -3  14  -1 3201.48 152.958   4
   3  14   1 3333.30 161.230   4
   3 -14  -1 3353.58 143.458   9
 -14  -3   1 3025.08 122.079   4
 -14   3  -1 3677.50 148.609   4
  14  -3  -3 2818.13 101.350   9
   3 -14  -3 2940.05 115.863   9
 -14   4   2 955.828 66.5465   4
  -4  14   2 1065.54 83.7091   4
   4 -14   2 909.951 64.3810   9
 -14  -4  -2 1049.42 68.9514   4
 -14  -4   0 70.9655 19.9584   4
 -14   4   0 61.5825 18.5082   4
  -4  14   0 62.7387 20.5878   4
   4  14   0 42.7396 22.3640   4
   4 -14   0 55.4795 19.5191   9
  -4  14  -2 920.961 70.6791   4
  14  -4  -2 992.939 71.5268   9
   4 -14  -2 1029.48 73.6264   9
 -14  -4   2 857.311 55.6688   4
 -14   4  -2 1068.94 72.7443   4
 -14   5   3 1579.09 68.2857   4
  -5  14   3 1793.41 92.9617   4
  14  -5   3 2195.23 88.7241   9
   5 -14   3 2403.60 113.209   8
 -14   5   1 2627.15 115.013   4
  -5  14   1 2744.76 133.325   4
   5 -14   1 2601.06 118.331   9
 -14  -5  -1 2939.63 114.041   4
  -5  14  -1 2375.17 121.921   4
  14  -5  -1 2676.65 123.271   9
   5 -14  -1 2579.76 119.313   9
 -14   5  -1 2646.83 115.245   4
  14  -5  -3 1964.83 75.5375   9
   5 -14  -3 1946.49 83.7791   9
  -6  14   2 2393.10 116.050   4
  14  -6   2 2760.97 112.943   9
   6 -14   2 2230.86 89.3206   9
 -14  -6  -2 2803.33 102.265   4
 -14   6   0 283.500 37.6349   4
  -6  14   0 269.363 42.0753   4
  14  -6   0 254.577 38.1848   9
   6 -14   0 255.497 36.6608   9
 -14  -6   0 272.354 33.0844   4
  -6  14  -2 2632.79 107.074   4
  14  -6  -2 3005.46 113.651   9
   6 -14  -2 2660.58 109.874   9
 -14  -6   2 2340.90 79.2144   4
  -6 -14   2 2764.48 80.4194   8
 -14   7   1 1782.35 88.1174   4
  -7  14   1 1748.05 97.3642   4
  14  -7   1 1837.99 93.8517   9
   7 -14   1 1648.98 84.1119   9
 -14  -7  -1 1775.36 79.8350   4
 -14   7  -1 2240.57 97.8682   4
  -7  14  -1 2049.86 101.863   4
  14  -7  -1 2167.88 102.087   9
   7 -14  -1 2018.13 95.6794   9
   0  15   1 754.878 74.0572   4
   0 -15  -1 764.392 53.0522   8
 -15   0  -1 882.363 63.8288   4
 -15   0   1 732.215 58.0809   4
   0 -15   3 292.241 35.6444   8
 -15   0  -3 229.004 26.8766   4
  -1  15   2 4924.10 174.233   4
   1  15  -2 4586.12 142.758   4
 -15   1   2 4602.12 131.255   4
  -1  15   0 518.536 58.5856   4
   1  15   0 470.618 57.2734   4
   1 -15   0 802.264 72.6310   8
  -1 -15   0 823.444 63.8710   8
 -15  -1   0 557.147 50.1843   4
 -15   1   0 577.750 55.3299   4
  -1  15  -2 5300.11 154.570   4
   1  15   2 5628.48 183.980   4
 -15  -1   2 5390.67 138.741   4
 -15  -2  -1 3550.41 122.588   4
 -15   2   1 3494.32 126.199   4
   2  15   1 2815.64 135.757   4
   2 -15  -1 2804.68 123.761   9
 -15  -2   1 2755.58 106.293   4
 -15   2  -1 3175.70 124.033   4
 -15   3   2 1797.56 79.8109   4
  -3  15   2 1813.83 100.204   4
 -15  -3  -2 2044.13 85.8972   4
 -15  -3   0 34.6953 10.8883   4
 -15   3   0 30.9610 11.7523   4
  -3  15   0 33.5531 12.2866   4
   3  15   0 16.8207 7.52857   4
   3 -15   0 45.6800 15.8582   9
  -3  15  -2 1950.35 89.2445   4
  15  -3  -2 2183.06 92.0851   9
 -15  -3   2 1875.87 74.4443   4
 -15   3  -2 2367.66 95.6642   4
  -4  15   1 5824.71 182.657   4
   4 -15   1 5561.58 149.960   9
 -15   4   1 6049.91 157.786   4
   4 -15  -1 5200.79 155.890   9
 -15   4  -1 5561.99 151.070   4
 -15   5   0 1416.55 77.0279   4
  -5  15   0 1265.76 80.9420   4
  15  -5   0 1352.99 80.0003   9
   5 -15   0 1243.56 72.9810   9
 -15  -5   0 1276.12 66.1984   4
   0  16   0 562.538 53.1627   4
   0 -16   0 660.869 44.8127   8
 -16   0   0 660.291 49.8640   4
   0   0   0    0.00    0.00   0

TITL zhl6 in I-42d
REM I-42d (#122 in standard setting)
CELL 1.54184  13.615152  13.615152   7.679026  90.0000  90.0000  90.0000
ZERR    4.00   0.000126   0.000126   0.000129   0.0000   0.0000   0.0000
LATT -2
SYMM -x,-y, z
SYMM  y,-x,-z
SYMM -y, x,-z
SYMM -x+1/2, y,-z+3/4
SYMM  x+1/2,-y,-z+3/4
SYMM -y+1/2,-x, z+3/4
SYMM  y+1/2, x, z+3/4
SFAC C H N O Ca
UNIT 4.00 4.00 4.00 4.00 4.00
TREF
HKLF 4
END
;
_shelx_hkl_checksum              43402
loop_
_space_group_symop_operation_xyz
'x, y, z'
'-x, -y, z'
'y, -x, -z'
'-y, x, -z'
'-x+1/2, y, -z+3/4'
'x+1/2, -y, -z+3/4'
'-y+1/2, -x, z+3/4'
'y+1/2, x, z+3/4'
'x+1/2, y+1/2, z+1/2'
'-x+1/2, -y+1/2, z+1/2'
'y+1/2, -x+1/2, -z+1/2'
'-y+1/2, x+1/2, -z+1/2'
'-x+1, y+1/2, -z+5/4'
'x+1, -y+1/2, -z+5/4'
'-y+1, -x+1/2, z+5/4'
'y+1, x+1/2, z+5/4'
loop_
_atom_site_label
_atom_site_type_symbol
_atom_site_fract_x
_atom_site_fract_y
_atom_site_fract_z
_atom_site_U_iso_or_equiv
_atom_site_adp_type
_atom_site_occupancy
_atom_site_site_symmetry_order
_atom_site_calc_flag
_atom_site_refinement_flags_posn
_atom_site_refinement_flags_adp
_atom_site_refinement_flags_occupancy
_atom_site_disorder_assembly
_atom_site_disorder_group
Ca1 Ca 0.2500 0.69159(12) 0.8750 0.0194(13) Uani 1 2 d S T P . .
O1 O 0.4148(4) 0.7276(7) 0.8328(8) 0.051(2) Uani 1 1 d . . . . .
O2 O 0.6553(4) 0.7325(5) 0.8220(8) 0.0316(19) Uani 1 1 d . . . . .
O3A O 0.2500 0.5250(17) 0.8750 0.076(8) Uani 0.5 2 d S TU P A 1
H3A H 0.2424 0.5049 0.7752 0.113 Uiso 0.5 1 calc R U P A 1
O3B O 0.344(3) 0.533(2) 0.866(4) 0.051(6) Uani 0.25 1 d . U P A 2
H3BA H 0.3381 0.4854 0.7515 0.076 Uiso 0.25 1 d R U P A 2
H3BB H 0.3290 0.4778 0.9659 0.076 Uiso 0.25 1 d R U P A 2
C1 C 0.4759(5) 0.7391(8) 0.7194(10) 0.034(2) Uani 1 1 d . . . . .
C2 C 0.5859(5) 0.7417(7) 0.7185(8) 0.0259(19) Uani 1 1 d . . . . .
C3 C 0.5000 0.5000 0.862(10) 0.050(14) Uani 0.16 2 d DS TU P . .
H3 H 0.4648 0.5480 0.9343 0.075 Uiso 0.16 1 d . U P . .
C4 C 0.5000 0.5000 0.693(10) 0.050(14) Uani 0.16 2 d DS TU P . .
H4 H 0.4648 0.5480 0.6269 0.075 Uiso 0.16 1 d . U P . .
loop_
_atom_site_aniso_label
_atom_site_aniso_U_11
_atom_site_aniso_U_22
_atom_site_aniso_U_33
_atom_site_aniso_U_23
_atom_site_aniso_U_13
_atom_site_aniso_U_12
Ca1 0.0143(15) 0.0191(16) 0.0248(17) 0.000 0.0014(8) 0.000
O1 0.011(3) 0.106(7) 0.036(4) -0.002(4) 0.002(2) -0.010(3)
O2 0.018(3) 0.048(4) 0.029(3) -0.001(3) -0.002(2) 0.003(2)
O3A 0.16(2) 0.043(11) 0.026(9) 0.000 -0.001(14) 0.000
O3B 0.077(16) 0.027(10) 0.047(13) 0.007(13) 0.008(15) 0.029(12)
C1 0.020(4) 0.061(6) 0.019(4) 0.003(4) 0.003(3) -0.003(4)
C2 0.008(3) 0.048(4) 0.021(4) -0.001(4) -0.001(3) -0.003(4)
C3 0.046(18) 0.045(19) 0.06(2) 0.000 0.000 0.005(17)
C4 0.046(18) 0.045(19) 0.06(2) 0.000 0.000 0.005(17)
loop_
_atom_type_symbol
_atom_type_description
_atom_type_scat_dispersion_real
_atom_type_scat_dispersion_imag
_atom_type_scat_source
C C 0.0181 0.0091 'International Tables Vol C Tables 4.2.6.8 and 6.1.1.4'
H H 0.0000 0.0000 'International Tables Vol C Tables 4.2.6.8 and 6.1.1.4'
Ca Ca 0.3641 1.2855 'International Tables Vol C Tables 4.2.6.8 and 6.1.1.4'
O O 0.0492 0.0322 'International Tables Vol C Tables 4.2.6.8 and 6.1.1.4'
loop_
_geom_angle_atom_site_label_1
_geom_angle_atom_site_label_2
_geom_angle_atom_site_label_3
_geom_angle
_geom_angle_site_symmetry_1
_geom_angle_site_symmetry_3
O3A Ca1 O1 102.2(3) . 5_556
O3A Ca1 O1 102.2(3) . .
O1 Ca1 O1 155.6(5) 5_556 .
O3A Ca1 O2 78.07(13) . 8_454
O1 Ca1 O2 94.8(2) 5_556 8_454
O1 Ca1 O2 90.3(2) . 8_454
O3A Ca1 O2 78.07(13) . 4_657
O1 Ca1 O2 90.3(2) 5_556 4_657
O1 Ca1 O2 94.8(2) . 4_657
O2 Ca1 O2 156.1(3) 8_454 4_657
O1 Ca1 O3B 132.6(9) 5_556 .
O1 Ca1 O3B 71.8(9) . .
O2 Ca1 O3B 81.2(8) 8_454 .
O2 Ca1 O3B 78.3(8) 4_657 .
O1 Ca1 O3B 71.8(9) 5_556 5_556
O1 Ca1 O3B 132.6(8) . 5_556
O2 Ca1 O3B 78.3(8) 8_454 5_556
O2 Ca1 O3B 81.2(8) 4_657 5_556
O3B Ca1 O3B 61.1(17) . 5_556
O3A Ca1 O2 143.70(13) . 15_564
O1 Ca1 O2 80.6(3) 5_556 15_564
O1 Ca1 O2 79.7(3) . 15_564
O2 Ca1 O2 138.16(16) 8_454 15_564
O2 Ca1 O2 65.7(2) 4_657 15_564
O3B Ca1 O2 131.5(8) . 15_564
O3B Ca1 O2 136.5(8) 5_556 15_564
O3A Ca1 O2 143.70(13) . 11_466
O1 Ca1 O2 79.7(3) 5_556 11_466
O1 Ca1 O2 80.6(3) . 11_466
O2 Ca1 O2 65.7(2) 8_454 11_466
O2 Ca1 O2 138.16(16) 4_657 11_466
O3B Ca1 O2 136.5(8) . 11_466
O3B Ca1 O2 131.5(8) 5_556 11_466
O2 Ca1 O2 72.6(3) 15_564 11_466
O3A Ca1 C2 166.51(12) . 15_564
O1 Ca1 C2 78.3(3) 5_556 15_564
O1 Ca1 C2 78.0(3) . 15_564
O2 Ca1 C2 115.39(19) 8_454 15_564
O2 Ca1 C2 88.46(15) 4_657 15_564
O3B Ca1 C2 145.6(9) . 15_564
O3B Ca1 C2 148.2(8) 5_556 15_564
O2 Ca1 C2 22.82(17) 15_564 15_564
O2 Ca1 C2 49.79(17) 11_466 15_564
O3A Ca1 C2 166.51(12) . 11_466
O1 Ca1 C2 78.0(3) 5_556 11_466
O1 Ca1 C2 78.3(3) . 11_466
O2 Ca1 C2 88.46(15) 8_454 11_466
O2 Ca1 C2 115.39(19) 4_657 11_466
O3B Ca1 C2 148.2(8) . 11_466
O3B Ca1 C2 145.6(9) 5_556 11_466
O2 Ca1 C2 49.79(17) 15_564 11_466
O2 Ca1 C2 22.82(17) 11_466 11_466
C2 Ca1 C2 27.0(2) 15_564 11_466
O3A Ca1 Ca1 112.50(4) . 10_565
O1 Ca1 Ca1 77.88(16) 5_556 10_565
O1 Ca1 Ca1 92.76(17) . 10_565
O2 Ca1 Ca1 168.04(15) 8_454 10_565
O2 Ca1 Ca1 34.91(12) 4_657 10_565
O3B Ca1 Ca1 110.7(8) . 10_565
O3B Ca1 Ca1 107.8(7) 5_556 10_565
O2 Ca1 Ca1 31.93(13) 15_564 10_565
O2 Ca1 Ca1 103.41(14) 11_466 10_565
C2 Ca1 Ca1 54.20(11) 15_564 10_565
C2 Ca1 Ca1 80.83(13) 11_466 10_565
C1 O1 Ca1 142.2(5) . .
C2 O2 Ca1 140.4(5) . 3_567
C2 O2 Ca1 103.3(4) . 12_656
Ca1 O2 Ca1 113.2(2) 3_567 12_656
Ca1 O3A H3A 109.5 . .
Ca1 O3B H3BA 119.4 . .
Ca1 O3B H3BB 118.6 . .
H3BA O3B H3BB 98.7 . .
O1 C1 C1 136.7(4) . 14_465
O1 C1 C2 133.8(6) . .
C1 C1 C2 89.4(4) 14_465 .
O2 C2 C2 130.4(4) . 14_465
O2 C2 C1 139.1(6) . .
C2 C2 C1 90.5(3) 14_465 .
O2 C2 Ca1 53.9(4) . 12_656
C2 C2 Ca1 76.51(12) 14_465 12_656
C1 C2 Ca1 166.9(4) . 12_656
C4 C3 H3 125(4) . .
C3 C4 H4 122(4) . .
loop_
_geom_bond_atom_site_label_1
_geom_bond_atom_site_label_2
_geom_bond_distance
_geom_bond_site_symmetry_2
Ca1 O3A 2.27(2) .
Ca1 O1 2.319(6) 5_556
Ca1 O1 2.319(6) .
Ca1 O2 2.391(6) 8_454
Ca1 O2 2.391(6) 4_657
Ca1 O3B 2.51(2) .
Ca1 O3B 2.51(2) 5_556
Ca1 O2 2.587(6) 15_564
Ca1 O2 2.587(6) 11_466
Ca1 C2 3.115(7) 15_564
Ca1 C2 3.115(7) 11_466
Ca1 Ca1 4.1559(13) 10_565
O1 C1 1.215(11) .
O2 C2 1.241(9) .
O2 Ca1 2.391(6) 3_567
O2 Ca1 2.587(6) 12_656
O3A H3A 0.8200 .
O3B H3BA 1.0936 .
O3B H3BB 1.0873 .
C1 C1 1.481(16) 14_465
C1 C2 1.498(10) .
C2 C2 1.453(13) 14_465
C2 Ca1 3.115(7) 12_656
C3 C4 1.300(14) .
C3 H3 0.98(5) .
C4 H4 0.95(4) .
loop_
_geom_torsion_atom_site_label_1
_geom_torsion_atom_site_label_2
_geom_torsion_atom_site_label_3
_geom_torsion_atom_site_label_4
_geom_torsion
_geom_torsion_site_symmetry_1
_geom_torsion_site_symmetry_2
_geom_torsion_site_symmetry_3
_geom_torsion_site_symmetry_4
Ca1 O1 C1 C1 20(3) . . . 14_465
Ca1 O1 C1 C2 -164.3(10) . . . .
Ca1 O2 C2 C2 156.9(9) 3_567 . . 14_465
Ca1 O2 C2 C2 0.0(16) 12_656 . . 14_465
Ca1 O2 C2 C1 -25(2) 3_567 . . .
Ca1 O2 C2 C1 178.0(13) 12_656 . . .
Ca1 O2 C2 Ca1 156.9(11) 3_567 . . 12_656
O1 C1 C2 O2 2(3) . . . .
C1 C1 C2 O2 178.9(11) 14_465 . . .
O1 C1 C2 C2 -180.0(11) . . . 14_465
C1 C1 C2 C2 -2.6(13) 14_465 . . 14_465
O1 C1 C2 Ca1 174(3) . . . 12_656
C1 C1 C2 Ca1 -8(4) 14_465 . . 12_656
