#------------------------------------------------------------------------------
#$Date: 2019-03-01 01:27:00 +0200 (Fri, 01 Mar 2019) $
#$Revision: 213903 $
#$URL: file:///home/coder/svn-repositories/cod/cif/1/55/06/1550666.cif $
#------------------------------------------------------------------------------
#
# This file is available in the Crystallography Open Database (COD),
# http://www.crystallography.net/
#
# All data on this site have been placed in the public domain by the
# contributors.
#
data_1550666
loop_
_publ_author_name
'Kong, Xiang-Jing'
'He, Tao'
'Zhang, Yongzheng'
'Wu, Xue-Qian'
'Wang, Si-Nan'
'Xu, Ming-Ming'
'Si, Guang-Rui'
'Li, Jian-Rong Jeff'
_publ_section_title
;
 Constructing New Metal-Organic Frameworks with Complicated Ligands
 Generated from &#x201C;One-Pot&#x201D; In Situ Reactions
;
_journal_name_full               'Chemical Science'
_journal_paper_doi               10.1039/C9SC00178F
_journal_year                    2019
_chemical_formula_moiety         '0.06(C252 H162 Cu18 N18 O72)'
_chemical_formula_sum            'C14 H9 Cu N O4'
_chemical_formula_weight         318.76
_chemical_name_systematic
;
 ?
;
_space_group_crystal_system      trigonal
_space_group_IT_number           166
_space_group_name_Hall           '-R 3 2"'
_space_group_name_H-M_alt        'R -3 m'
_symmetry_space_group_name_Hall  '-R 3 2"'
_symmetry_space_group_name_H-M   'R -3 m :H'
_atom_sites_solution_hydrogens   geom
_audit_creation_date             2017-11-14
_audit_creation_method
;
Olex2 1.2-alpha
(compiled 2017.08.10 svn.r3458 for OlexSys, GUI svn.r5381)
;
_audit_update_record
;
2019-01-04 deposited with the CCDC.    2019-02-28 downloaded from the CCDC.
;
_cell_angle_alpha                90
_cell_angle_beta                 90
_cell_angle_gamma                120
_cell_formula_units_Z            18
_cell_length_a                   18.6355(7)
_cell_length_b                   18.6355(7)
_cell_length_c                   34.4019(12)
_cell_measurement_reflns_used    3995
_cell_measurement_temperature    173.01(10)
_cell_measurement_theta_max      74.2420
_cell_measurement_theta_min      3.7200
_cell_volume                     10346.5(7)
_computing_cell_refinement       'CrysAlisPro 1.171.39.32a (Rigaku OD, 2017)'
_computing_data_collection       'CrysAlisPro 1.171.39.32a (Rigaku OD, 2017)'
_computing_data_reduction        'CrysAlisPro 1.171.39.32a (Rigaku OD, 2017)'
_computing_molecular_graphics    'Olex2 (Dolomanov et al., 2009)'
_computing_publication_material  'Olex2 (Dolomanov et al., 2009)'
_computing_structure_refinement  'ShelXL (Sheldrick, 2015)'
_diffrn_ambient_environment      N~2~
_diffrn_ambient_temperature      173.01(10)
_diffrn_detector                 'CCD plate'
_diffrn_detector_area_resol_mean 10.3376
_diffrn_detector_type            AtlasS2
_diffrn_measured_fraction_theta_full 0.990
_diffrn_measured_fraction_theta_max 1.000
_diffrn_measurement_details
;
List of Runs (angles in degrees, time in seconds):

  # Type    Start    End  Width  t~exp~   \w     \q     \k     \f   Frames
#--------------------------------------------------------------------------
  1  \w    -70.00  20.00   1.00    3.00    --  -41.94  57.00 -90.00   90
  2  \w      6.00  36.00   1.00    3.00    --   41.94 -38.00 -60.00   30
  3  \w    145.00 175.00   1.00   10.00    --  107.13 125.00 -60.00   30
  4  \w     84.00 177.00   1.00   10.00    --  107.13  45.00 120.00   93
  5  \w     95.00 157.00   1.00   10.00    --  107.13 125.00 120.00   62
  6  \w     36.00 104.00   1.00   10.00    --  107.13 -61.00  60.00   68
;
_diffrn_measurement_device       'four-circle diffractometer'
_diffrn_measurement_device_type  'SuperNova, Dual, Cu at home/near, AtlasS2'
_diffrn_measurement_method       '\w scans'
_diffrn_orient_matrix_type
'CrysAlisPro convention (1999,Acta A55,543-557)'
_diffrn_orient_matrix_UB_11      0.0066536000
_diffrn_orient_matrix_UB_12      0.0013675000
_diffrn_orient_matrix_UB_13      -0.0446060000
_diffrn_orient_matrix_UB_21      -0.0942962000
_diffrn_orient_matrix_UB_22      -0.0355188000
_diffrn_orient_matrix_UB_23      -0.0032414000
_diffrn_orient_matrix_UB_31      0.0134318000
_diffrn_orient_matrix_UB_32      0.0886175000
_diffrn_orient_matrix_UB_33      -0.0006567000
_diffrn_radiation_monochromator  mirror
_diffrn_radiation_probe          x-ray
_diffrn_radiation_type           CuK\a
_diffrn_radiation_wavelength     1.54184
_diffrn_reflns_av_R_equivalents  0.0302
_diffrn_reflns_av_unetI/netI     0.0257
_diffrn_reflns_Laue_measured_fraction_full 0.990
_diffrn_reflns_Laue_measured_fraction_max 1.000
_diffrn_reflns_limit_h_max       22
_diffrn_reflns_limit_h_min       -22
_diffrn_reflns_limit_k_max       20
_diffrn_reflns_limit_k_min       -18
_diffrn_reflns_limit_l_max       32
_diffrn_reflns_limit_l_min       -41
_diffrn_reflns_number            7625
_diffrn_reflns_point_group_measured_fraction_full 0.990
_diffrn_reflns_point_group_measured_fraction_max 1.000
_diffrn_reflns_theta_full        67.684
_diffrn_reflns_theta_max         67.080
_diffrn_reflns_theta_min         3.756
_diffrn_source                   'micro-focus sealed X-ray tube'
_diffrn_source_type              'SuperNova (Cu) X-ray Source'
_exptl_absorpt_coefficient_mu    1.413
_exptl_absorpt_correction_T_max  1.00000
_exptl_absorpt_correction_T_min  0.65582
_exptl_absorpt_correction_type   multi-scan
_exptl_absorpt_process_details
;
CrysAlisPro 1.171.39.32a (Rigaku Oxford Diffraction, 2017)
Empirical absorption correction using spherical harmonics,
 implemented in SCALE3 ABSPACK scaling algorithm.
;
_exptl_crystal_colour            'light green'
_exptl_crystal_density_diffrn    0.921
_exptl_crystal_description       block
_exptl_crystal_F_000             2898
_exptl_crystal_size_max          0.2
_exptl_crystal_size_mid          0.2
_exptl_crystal_size_min          0.05
_refine_diff_density_max         0.352
_refine_diff_density_min         -0.640
_refine_diff_density_rms         0.062
_refine_ls_extinction_method     none
_refine_ls_goodness_of_fit_ref   1.086
_refine_ls_hydrogen_treatment    constr
_refine_ls_matrix_type           full
_refine_ls_number_parameters     100
_refine_ls_number_reflns         2276
_refine_ls_number_restraints     0
_refine_ls_restrained_S_all      1.086
_refine_ls_R_factor_all          0.0408
_refine_ls_R_factor_gt           0.0381
_refine_ls_shift/su_max          0.001
_refine_ls_shift/su_mean         0.000
_refine_ls_structure_factor_coef Fsqd
_refine_ls_weighting_details
'w=1/[\s^2^(Fo^2^)+(0.0750P)^2^+16.2290P] where P=(Fo^2^+2Fc^2^)/3'
_refine_ls_weighting_scheme      calc
_refine_ls_wR_factor_gt          0.1216
_refine_ls_wR_factor_ref         0.1244
_reflns_Friedel_coverage         0.000
_reflns_number_gt                2064
_reflns_number_total             2276
_reflns_threshold_expression     'I > 2\s(I)'
_iucr_refine_instructions_details
;
TITL kxj17110823smart_a.res in R-3m
REM Old TITL kxj17110823smart in R-3m #166
CELL 1.54184 18.6355 18.6355 34.4019 90 90 120
ZERR 18 0.0007 0.0007 0.0012 0 0 0
LATT 3
SYMM -Y,+X-Y,+Z
SYMM +Y-X,-X,+Z
SYMM +Y,+X,-Z
SYMM -Y+X,-Y,-Z
SYMM -X,-X+Y,-Z
SFAC C H Cu N O
UNIT 252 162 18 18 72
 
L.S. 5
PLAN  1
BOND $H
LIST 6
fmap 2
ABIN
ACTA
REM <olex2.extras>
REM <HklSrc "%.\\kxj17110823smart.hkl">
REM </olex2.extras>
 
WGHT    0.075000   16.229010
FVAR       1.28753
CU01  3    1.143299    0.856701    0.301787    10.50000    0.02949    0.02949 =
         0.01015   -0.00001    0.00001    0.02015
O002  5    1.077123    0.774659    0.383058    11.00000    0.03502    0.06412 =
         0.02359    0.01476    0.00804    0.03157
O003  5    1.038152    0.815074    0.329740    11.00000    0.03482    0.07015 =
         0.02172    0.01538    0.00819    0.03357
N004  4    0.768615    0.537230    0.584315    10.50000    0.05541    0.02583 =
         0.01325   -0.00286   -0.00143    0.01291
AFIX  23
H00A  2    0.790874    0.504736    0.585675    10.50000   -1.20000
H00B  2    0.713863    0.504736    0.585675    10.50000   -1.20000
AFIX   0
C005  1    0.830154    0.660308    0.475557    10.50000    0.03611    0.04684 =
         0.02113    0.00714    0.00357    0.02342
C006  1    1.026897    0.785709    0.363741    11.00000    0.03596    0.04352 =
         0.02184    0.00328    0.00337    0.02647
C007  1    0.890276    0.780552    0.363875    10.50000    0.03540    0.05378 =
         0.02006    0.01052    0.00526    0.02689
AFIX  43
H007  2    0.902587    0.805175    0.339434    10.50000   -1.20000
AFIX   0
C008  1    0.945539    0.762088    0.382199    11.00000    0.03562    0.05343 =
         0.02228    0.01039    0.00712    0.02779
C009  1    0.788752    0.577503    0.547508    10.50000    0.04829    0.02998 =
         0.01313   -0.00323   -0.00161    0.01499
C00A  1    0.926129    0.724054    0.418526    11.00000    0.04001    0.06104 =
         0.02502    0.01358    0.00598    0.03454
AFIX  43
H00C  2    0.963856    0.712557    0.430654    11.00000   -1.20000
AFIX   0
C00B  1    0.851303    0.702606    0.437331    10.50000    0.03521    0.05636 =
         0.02239    0.00932    0.00466    0.02818
C00C  1    0.736311    0.597907    0.529722    11.00000    0.06674    0.12260 =
         0.03592    0.03829    0.02591    0.06155
AFIX  43
H00D  2    0.685949    0.584237    0.541286    11.00000   -1.20000
AFIX   0
C00D  1    0.757875    0.639277    0.494186    11.00000    0.07232    0.13710 =
         0.04219    0.04926    0.02796    0.07793
AFIX  43
H00E  2    0.721251    0.653127    0.482693    11.00000   -1.20000
AFIX   0
HKLF 4
 
REM  kxj17110823smart_a.res in R-3m
REM R1 =  0.0381 for    2064 Fo > 4sig(Fo)  and  0.0408 for all    2276 data
REM    100 parameters refined using      0 restraints
 
END  
     
WGHT      0.0678     19.2120 

REM Highest difference peak  0.352,  deepest hole -0.640,  1-sigma level  0.062
Q1    1   1.1121  0.8879  0.3119  10.50000  0.05    0.35

  REM The information below was added by Olex2.
  REM
  REM R1 = 0.0381 for 2064 Fo > 4sig(Fo) and 0.0408 for all 7625 data
  REM n/a parameters refined using n/a restraints
  REM Highest difference peak 0.35, deepest hole -0.64
  REM Mean Shift 0, Max Shift -0.001.

  REM +++ Tabular Listing of Refinement Information +++
  REM R1_all = 0.0408
  REM R1_gt = 0.0381
  REM wR_ref = 0.1244
  REM GOOF = 1.086
  REM Shift_max = -0.001
  REM Shift_mean = 0
  REM Reflections_all = 7625
  REM Reflections_gt = 2064
  REM Parameters = n/a
  REM Hole = -0.64
  REM Peak = 0.35
  REM Flack = n/a

  
;
_cod_data_source_file            c9sc00178f2.cif
_cod_data_source_block           BUT-101(Cu)
_cod_original_cell_volume        10346.5(9)
_cod_database_code               1550666
_shelxl_version_number           2014-1
_chemical_oxdiff_formula         'C H O N Cu'
_shelx_space_group_comment
;
The symmetry employed for this shelxl refinement is uniquely defined
by the following loop, which should always be used as a source of
symmetry information in preference to the above space-group names.
They are only intended as comments.
;
_reflns_odcompleteness_completeness 99.96
_reflns_odcompleteness_iscentric 1
_reflns_odcompleteness_theta     66.97
_olex2_refinement_description
;
1. Fixed Uiso
 At 1.2 times of:
  All C(H) groups, All N(H,H) groups
2. Others
 Fixed Sof: H00A(0.5) H00B(0.5)
3.a Secondary CH2 refined with riding coordinates:
 N004(H00A,H00B)
3.b Aromatic/amide H refined with riding coordinates:
 C007(H007), C00A(H00C), C00C(H00D), C00D(H00E)
;
_shelx_fab_file
;
0 0 3 -23.4085 -6.8404
0 0 6 -125.2735 -3.8986
0 0 9 -11.3195 0.2676
0 0 12 107.4534 2.9962
0 0 15 51.8300 4.5224
0 0 18 -5.3082 4.9255
0 0 21 7.1619 2.5924
0 0 24 21.5478 0.1559
0 0 27 -8.7755 -2.2143
0 0 30 27.2520 -4.2717
0 0 33 -16.9859 -5.3587
0 0 36 -2.3938 -4.5333
0 0 39 3.2500 -1.7775
1 0 -41 -0.1939 0.6655
1 0 -38 1.3796 2.5582
1 0 -35 0.2922 3.8830
1 0 -32 7.2388 3.1779
1 0 -29 -23.2241 2.6813
1 0 -26 -5.9340 1.4794
1 0 -23 -5.3265 -0.0918
1 0 -20 34.9555 -2.0570
1 0 -17 -41.4933 -2.8102
1 0 -14 -58.0805 -3.3853
1 0 -11 22.3847 -2.2336
1 0 -8 41.9175 -0.2237
1 0 -5 -6.1010 2.2483
1 0 -2 127.3934 3.9668
1 0 4 134.2452 1.1790
1 0 7 111.4912 -0.2384
1 0 10 -72.3799 -1.6838
1 0 13 -13.6722 -2.0069
1 0 16 17.5363 -1.5900
1 0 19 4.7358 -0.9815
1 0 22 30.6543 0.5252
1 0 25 -1.2140 0.9744
1 0 28 -1.5174 0.8573
1 0 31 16.3367 0.6910
1 0 34 -9.9004 0.4079
1 0 37 15.5549 -0.1897
1 0 40 -3.9304 -1.0174
1 1 0 410.9568 3.6860
1 1 3 -136.0613 0.8251
1 1 6 59.6324 -0.9359
1 1 9 51.3845 -2.6492
1 1 12 74.5661 -3.3153
1 1 15 57.7234 -2.6422
1 1 18 -15.2000 -1.3677
1 1 21 -4.6664 0.5542
1 1 24 12.6573 2.0489
1 1 27 -2.7234 2.8649
1 1 30 14.8750 2.8369
1 1 33 -12.5790 2.2786
1 1 36 -2.4373 0.3534
1 1 39 0.2903 -0.9876
2 0 -40 -2.7110 0.4334
2 0 -37 11.9636 -3.1032
2 0 -34 -3.9638 -4.8644
2 0 -31 14.2637 -5.7070
2 0 -28 -1.8589 -5.0172
2 0 -25 1.4468 -2.4751
2 0 -22 9.6784 0.9332
2 0 -19 -0.5514 5.0169
2 0 -16 31.1913 6.4423
2 0 -13 -32.6419 6.3817
2 0 -10 36.4466 3.5477
2 0 -7 157.0792 -1.3046
2 0 -4 -201.0659 -5.5428
2 0 -1 -460.4073 -6.9534
2 0 2 200.6170 -5.6972
2 0 5 196.7774 -4.5437
2 0 8 47.3143 -1.3878
2 0 11 -26.7729 2.1615
2 0 14 -23.9744 4.4289
2 0 17 -32.6563 4.5266
2 0 20 10.4242 4.0059
2 0 23 -8.0621 1.4180
2 0 26 -6.4647 -1.0478
2 0 29 -13.3824 -3.3110
2 0 32 3.8714 -4.6383
2 0 35 -2.7463 -4.4752
2 0 38 -1.0174 -2.4985
2 1 -38 -3.8974 -0.6744
2 1 -35 -0.4979 -0.1960
2 1 -32 2.4071 1.4327
2 1 -29 -13.4834 1.8146
2 1 -26 -4.2258 2.2570
2 1 -23 -15.4069 1.6328
2 1 -20 0.1725 0.1663
2 1 -17 -17.8315 -1.1912
2 1 -14 -8.5399 -2.4032
2 1 -11 12.9830 -2.6555
2 1 -8 -34.7718 -1.6009
2 1 -5 -35.2120 -0.2637
2 1 -2 -210.1434 1.1900
2 1 1 -17.6222 3.3663
2 1 4 -1.3447 3.2502
2 1 7 8.6368 2.1392
2 1 10 45.9054 0.4099
2 1 13 -0.4725 -1.0267
2 1 16 4.3126 -2.1169
2 1 19 -9.6785 -2.7849
2 1 22 12.5216 -2.0847
2 1 25 8.2934 -0.8378
2 1 28 -1.3777 0.8805
2 1 31 15.6472 2.1668
2 1 34 -7.1519 2.4735
2 1 37 7.6402 3.0457
2 1 40 0.5694 1.4500
2 2 0 180.1578 -1.4006
2 2 3 -25.6826 -0.4865
2 2 6 -46.7242 0.1079
2 2 9 -14.9430 1.1085
2 2 12 27.2358 1.5240
2 2 15 22.0139 1.5972
2 2 18 9.4834 1.2171
2 2 21 10.0611 0.1813
2 2 24 -1.0211 -0.9145
2 2 27 5.8777 -1.5309
2 2 30 1.5505 -1.5272
2 2 33 -4.9215 -1.1892
2 2 36 2.9736 -0.7299
2 2 39 -3.1263 -0.1797
3 0 -39 -4.7379 2.5626
3 0 -36 -1.4343 2.5670
3 0 -33 -0.5783 0.5236
3 0 -30 10.8993 -0.7583
3 0 -27 -1.5278 -1.7085
3 0 -24 -5.3213 -2.5996
3 0 -21 -4.6231 -2.5564
3 0 -18 16.8154 -1.1041
3 0 -15 59.0382 1.1254
3 0 -12 18.1490 2.7666
3 0 -9 -70.2992 3.3084
3 0 -6 69.8135 2.6035
3 0 -3 20.3071 1.1196
3 0 0 26.0700 -1.0718
3 0 3 10.0884 -2.8065
3 0 6 114.3679 -2.1683
3 0 9 91.3608 -1.5671
3 0 12 34.8010 -0.8670
3 0 15 34.1511 0.2338
3 0 18 -13.1340 1.1973
3 0 21 12.0559 2.4436
3 0 24 6.6459 2.1999
3 0 27 6.4872 1.1760
3 0 30 10.6173 -0.3624
3 0 33 -6.0904 -1.5230
3 0 36 3.0012 -2.6710
3 0 39 2.0425 -3.2436
3 1 -40 1.3293 -0.1642
3 1 -37 7.0664 -0.7819
3 1 -34 0.3706 -0.9965
3 1 -31 4.6645 -0.4634
3 1 -28 -6.6681 -0.1790
3 1 -25 10.6746 0.0883
3 1 -22 14.1285 0.8138
3 1 -19 10.2847 1.0153
3 1 -16 -10.4845 0.5949
3 1 -13 -61.9971 0.1784
3 1 -10 -4.2829 -0.4723
3 1 -7 61.2104 -0.8661
3 1 -4 -32.5829 -1.0384
3 1 -1 -62.8862 -1.5217
3 1 2 15.5118 -0.6687
3 1 5 9.4562 0.3140
3 1 8 -5.0015 1.0747
3 1 11 -36.4528 1.2899
3 1 14 -13.6925 1.2274
3 1 17 24.7123 0.8356
3 1 20 0.0176 -0.0860
3 1 23 -15.6406 -0.9000
3 1 26 -9.3407 -1.2737
3 1 29 6.8550 -1.3603
3 1 32 5.2942 -0.7896
3 1 35 -2.4666 -0.4920
3 1 38 -1.3501 0.3894
3 2 -38 -2.3150 -0.4450
3 2 -35 -0.7230 -0.4981
3 2 -32 -3.8797 -0.7931
3 2 -29 -5.8074 -0.8163
3 2 -26 1.0505 -0.2220
3 2 -23 -6.0074 -0.1108
3 2 -20 6.0745 0.2580
3 2 -17 -17.1382 0.5152
3 2 -14 -36.6082 0.6290
3 2 -11 -14.6995 0.5765
3 2 -8 -20.6939 0.5514
3 2 -5 4.1546 -0.1273
3 2 -2 -51.8226 -0.5230
3 2 1 28.4043 -0.5337
3 2 4 -48.9035 -0.5810
3 2 7 -49.5187 -0.6479
3 2 10 14.2281 -0.0409
3 2 13 -8.6749 0.5438
3 2 16 7.6292 0.5175
3 2 19 7.7815 0.4267
3 2 22 4.3559 0.5684
3 2 25 13.6394 0.4929
3 2 28 -1.7612 0.1816
3 2 31 3.5825 0.1368
3 2 34 1.4325 -0.0648
3 2 37 5.0495 0.3835
3 2 40 -0.2727 -2.6772
3 3 0 61.2802 -0.1522
3 3 3 24.4418 0.2210
3 3 6 12.6163 0.7877
3 3 9 29.4921 1.2875
3 3 12 32.5082 1.2190
3 3 15 9.0357 0.6119
3 3 18 -13.3603 0.1724
3 3 21 10.1280 -0.2487
3 3 24 -0.0952 -0.8311
3 3 27 6.5769 -0.7658
3 3 30 1.1979 -0.3728
3 3 33 -1.5411 -0.3394
3 3 36 1.8718 0.6446
3 3 39 -3.2500 0.3332
4 0 -38 -2.6275 1.1990
4 0 -35 -2.9290 0.8927
4 0 -32 -9.5331 -0.5456
4 0 -29 -1.7424 -1.7303
4 0 -26 5.2665 -2.3235
4 0 -23 -2.4547 -1.6189
4 0 -20 -15.5239 -0.6559
4 0 -17 -50.3082 0.7506
4 0 -14 -5.2609 2.3752
4 0 -11 -7.6979 3.0662
4 0 -8 -95.9679 2.7373
4 0 -5 157.7922 1.3683
4 0 -2 46.9773 0.9243
4 0 1 16.2963 -1.0797
4 0 4 -29.4458 -2.2743
4 0 7 -29.7342 -2.4164
4 0 10 64.9515 -1.6466
4 0 13 7.2998 0.0208
4 0 16 23.3029 1.3087
4 0 19 -8.7442 2.3920
4 0 22 -2.1483 2.5892
4 0 25 17.3650 2.2879
4 0 28 -3.6272 1.2280
4 0 31 12.8875 -0.4675
4 0 34 -5.4647 -1.1653
4 0 37 8.1803 -1.5334
4 0 40 1.7834 -0.2069
4 1 -39 -7.0861 -1.2771
4 1 -36 2.0729 0.1500
4 1 -33 -2.0672 0.3388
4 1 -30 4.9989 0.9531
4 1 -27 6.6496 1.1519
4 1 -24 -6.1940 1.0560
4 1 -21 5.0150 0.4905
4 1 -18 -10.6305 -0.2760
4 1 -15 15.0101 -1.0625
4 1 -12 10.7449 -1.4847
4 1 -9 -37.5110 -1.2143
4 1 -6 83.2243 -0.4646
4 1 -3 183.9956 0.4133
4 1 0 -32.9614 0.9398
4 1 3 -28.6508 1.1493
4 1 6 36.1574 0.9116
4 1 9 62.4300 0.3774
4 1 12 10.6143 -0.4196
4 1 15 21.8655 -1.1688
4 1 18 -2.1608 -0.9760
4 1 21 13.7865 -0.8458
4 1 24 -5.0669 -0.5376
4 1 27 5.7137 0.0481
4 1 30 -5.0837 0.5002
4 1 33 0.6121 0.8062
4 1 36 3.3745 0.4877
4 1 39 1.0921 0.3587
4 2 -37 2.9019 0.3782
4 2 -34 5.4485 2.0568
4 2 -31 5.3009 1.6747
4 2 -28 -3.1240 1.1195
4 2 -25 5.9951 0.1836
4 2 -22 2.0175 -1.0205
4 2 -19 -4.5916 -1.8713
4 2 -16 11.0994 -2.0707
4 2 -13 -4.1424 -1.6901
4 2 -10 17.8498 -0.6646
4 2 -7 48.1008 0.5589
4 2 -4 21.7355 1.6691
4 2 -1 -40.2746 1.8350
4 2 2 -3.0726 1.3759
4 2 5 13.2891 0.6871
4 2 8 -4.0883 -0.5393
4 2 11 -23.4122 -1.4907
4 2 14 -20.7442 -1.8675
4 2 17 6.4249 -1.6274
4 2 20 6.8128 -1.1188
4 2 23 -14.1604 -0.2477
4 2 26 -5.2186 0.7694
4 2 29 3.4284 1.3786
4 2 32 3.4792 1.3970
4 2 35 0.1838 1.0802
4 2 38 -3.9520 -0.2680
4 3 -38 -2.5296 0.1594
4 3 -35 -0.4672 0.2611
4 3 -32 2.5429 -0.9802
4 3 -29 -1.7049 -1.9183
4 3 -26 -3.0533 -2.6474
4 3 -23 -10.4673 -2.1441
4 3 -20 -0.0950 -0.9281
4 3 -17 -0.0642 0.7842
4 3 -14 -16.4086 1.8488
4 3 -11 5.9834 2.5044
4 3 -8 34.7338 2.1219
4 3 -5 12.3447 0.9288
4 3 -2 16.8604 -0.5262
4 3 1 46.9639 -1.9066
4 3 4 43.8983 -2.4480
4 3 7 3.2972 -2.3574
4 3 10 -19.3934 -1.4305
4 3 13 -0.0120 -0.0168
4 3 16 7.7874 1.4291
4 3 19 -0.2013 2.2875
4 3 22 -1.4809 2.4226
4 3 25 3.9197 1.6980
4 3 28 4.0177 0.2923
4 3 31 3.5395 -1.0217
4 3 34 -1.2571 -2.0345
4 3 37 2.7772 -1.4733
4 4 0 76.0512 -0.0651
4 4 3 1.9117 0.3503
4 4 6 -0.0160 0.5615
4 4 9 19.8821 0.5677
4 4 12 19.6503 0.2953
4 4 15 8.1027 -0.2515
4 4 18 -4.6277 -0.5961
4 4 21 0.6081 -0.4783
4 4 24 4.3018 -0.3196
4 4 27 0.1300 -0.2826
4 4 30 -2.1894 0.3134
4 4 33 -1.5296 0.6679
4 4 36 -0.3466 -0.1810
5 0 -37 5.9509 1.8683
5 0 -34 1.6785 1.2368
5 0 -31 1.1068 0.0284
5 0 -28 0.7851 -1.0453
5 0 -25 8.3480 -1.7077
5 0 -22 8.7849 -1.9711
5 0 -19 -13.8081 -1.5042
5 0 -16 -23.0245 -0.2466
5 0 -13 5.2809 1.1787
5 0 -10 63.8638 2.1156
5 0 -7 14.0210 2.0367
5 0 -4 -10.4013 1.2998
5 0 -1 -26.4813 0.6198
5 0 2 5.6550 -0.5083
5 0 5 31.6636 -1.4081
5 0 8 -6.1334 -1.7619
5 0 11 -29.7251 -1.6040
5 0 14 -12.6578 -0.4037
5 0 17 27.2769 0.3172
5 0 20 -13.1217 1.4143
5 0 23 -18.7271 2.1811
5 0 26 -7.6158 2.1988
5 0 29 0.9292 1.0828
5 0 32 7.1828 0.0807
5 0 35 -3.7156 -1.0632
5 0 38 -7.0031 -1.8517
5 1 -38 -2.2214 -0.6662
5 1 -35 -1.0241 -1.4444
5 1 -32 -4.6626 -0.8859
5 1 -29 -1.8701 -0.6096
5 1 -26 0.6130 -0.1991
5 1 -23 -6.2339 0.3794
5 1 -20 -19.7719 0.7659
5 1 -17 -2.3925 1.0823
5 1 -14 29.9232 0.7343
5 1 -11 29.6677 0.2482
5 1 -8 -58.5296 -0.4234
5 1 -5 -6.1043 -0.9907
5 1 -2 -1.8760 -1.0962
5 1 1 34.2390 -0.8398
5 1 4 -28.6011 -0.3074
5 1 7 -24.4944 0.2092
5 1 10 13.2427 0.6992
5 1 13 -4.2083 0.8534
5 1 16 3.1300 0.6025
5 1 19 3.9469 0.2530
5 1 22 -8.9614 -0.0021
5 1 25 14.3924 -0.5237
5 1 28 -0.2322 -1.2793
5 1 31 1.8280 -0.7842
5 1 34 -6.0661 -0.8307
5 1 37 3.0914 0.6106
5 2 -36 0.3976 -1.5567
5 2 -33 0.5126 -1.0284
5 2 -30 5.0300 -0.5843
5 2 -27 -3.3890 0.4877
5 2 -24 -4.1483 1.4693
5 2 -21 3.5351 1.8732
5 2 -18 7.9966 1.5503
5 2 -15 34.1540 0.7313
5 2 -12 20.0148 -0.3195
5 2 -9 -23.3327 -1.4491
5 2 -6 23.5390 -2.0240
5 2 -3 49.8474 -1.6778
5 2 0 35.4185 -0.6523
5 2 3 -5.1646 0.3159
5 2 6 0.6115 1.0187
5 2 9 25.0629 1.5549
5 2 12 9.2702 1.7100
5 2 15 2.5596 0.9856
5 2 18 -10.0076 0.0087
5 2 21 10.0552 -1.0620
5 2 24 6.1085 -1.6590
5 2 27 6.0197 -1.7702
5 2 30 -6.6879 -1.2717
5 2 33 -1.1963 -0.4380
5 2 36 -0.7327 1.1608
5 3 -37 2.3304 -0.0959
5 3 -34 1.1856 1.2383
5 3 -31 2.1100 0.6870
5 3 -28 0.3918 0.9268
5 3 -25 -2.0119 0.1139
5 3 -22 4.5776 -0.6408
5 3 -19 7.0895 -1.0609
5 3 -16 13.9312 -1.0636
5 3 -13 -5.9931 -0.8087
5 3 -10 -15.7034 -0.1461
5 3 -7 -14.9329 0.5255
5 3 -4 26.2680 0.9820
5 3 -1 6.2116 1.3352
5 3 2 -11.4118 1.0816
5 3 5 21.4805 0.3703
5 3 8 21.8999 -0.3410
5 3 11 -17.0173 -1.0649
5 3 14 -19.9996 -1.3279
5 3 17 0.6196 -0.9876
5 3 20 3.9238 -0.3476
5 3 23 -8.2535 0.2174
5 3 26 -2.7117 1.1111
5 3 29 -0.9407 1.3082
5 3 32 -1.1174 1.0907
5 3 35 0.9086 1.0488
5 3 38 -0.0926 -0.3093
5 4 -35 0.9520 -0.0498
5 4 -32 -1.9386 -0.4089
5 4 -29 -1.6321 0.3701
5 4 -26 -1.6152 0.3342
5 4 -23 -0.6927 0.8117
5 4 -20 4.2456 0.8879
5 4 -17 -7.3868 0.5231
5 4 -14 -20.7037 0.0541
5 4 -11 -3.5878 -0.4844
5 4 -8 10.5235 -0.9015
5 4 -5 -24.4355 -0.8916
5 4 -2 -19.2626 -0.6197
5 4 1 19.5438 -0.1730
5 4 4 16.6052 0.3841
5 4 7 2.2291 0.9260
5 4 10 -21.6101 0.8129
5 4 13 -0.0887 0.7314
5 4 16 10.7031 0.2779
5 4 19 3.0937 -0.3657
5 4 22 4.7722 -0.7117
5 4 25 -3.8725 -0.8192
5 4 28 0.4559 -0.8552
5 4 31 3.1087 -0.8589
5 4 34 -1.8160 -0.2353
5 4 37 1.6876 -0.2423
5 5 0 12.9213 0.2125
5 5 3 -1.9427 0.4442
5 5 6 5.5781 0.3007
5 5 9 -8.0117 -0.0527
5 5 12 3.0992 -0.3680
5 5 15 0.3702 -0.2975
5 5 18 6.5363 -0.3271
5 5 21 -3.1058 -0.4310
5 5 24 4.5821 -0.0766
5 5 27 -1.0701 0.1475
5 5 30 1.6877 0.4584
5 5 33 0.3156 0.8925
5 5 36 0.2506 -1.3674
6 0 -39 -7.2016 1.0171
6 0 -36 2.5852 1.5661
6 0 -33 2.2644 0.7897
6 0 -30 -1.7991 -0.5330
6 0 -27 -1.6769 -2.1049
6 0 -24 -8.9875 -2.2664
6 0 -21 17.6881 -2.4229
6 0 -18 20.1755 -0.8962
6 0 -15 17.4061 0.6186
6 0 -12 13.0297 1.8786
6 0 -9 -8.3190 2.5767
6 0 -6 -1.9077 2.3933
6 0 -3 25.5957 1.5200
6 0 0 -43.0604 0.4743
6 0 3 4.0325 -0.7534
6 0 6 21.2823 -1.7835
6 0 9 42.2596 -2.3785
6 0 12 5.3171 -2.0091
6 0 15 -0.9238 -0.8665
6 0 18 0.7874 0.5356
6 0 21 -0.4282 1.8913
6 0 24 1.7184 2.3703
6 0 27 9.4033 2.2588
6 0 30 -15.6673 0.9898
6 0 33 2.8819 -0.1890
6 0 36 -3.9983 -1.3691
6 0 39 1.6297 -0.3871
6 1 -37 1.1832 -1.1490
6 1 -34 5.8387 0.0115
6 1 -31 -1.6573 0.3469
6 1 -28 -2.4589 1.0643
6 1 -25 4.6037 1.5136
6 1 -22 11.2703 1.1206
6 1 -19 7.6538 0.5673
6 1 -16 2.0887 -0.0462
6 1 -13 6.0052 -0.8144
6 1 -10 39.9509 -1.2652
6 1 -7 -81.1936 -1.0832
6 1 -4 -34.3035 -0.6314
6 1 -1 20.0931 -0.1370
6 1 2 -4.0195 0.4794
6 1 5 6.7985 1.0935
6 1 8 -27.2577 1.4036
6 1 11 -6.9586 1.1686
6 1 14 -6.9329 0.5392
6 1 17 3.5312 -0.0696
6 1 20 -0.2104 -0.7889
6 1 23 -12.9537 -1.4614
6 1 26 1.8197 -1.2359
6 1 29 -2.0945 -0.3824
6 1 32 1.5611 0.3568
6 1 35 -2.2794 0.3919
6 1 38 -0.0782 1.2017
6 2 -38 -0.0449 -0.3136
6 2 -35 -3.2447 0.0960
6 2 -32 -4.5712 0.0250
6 2 -29 -2.4357 0.2250
6 2 -26 1.2155 -0.1431
6 2 -23 4.7646 -0.1375
6 2 -20 -7.4460 -0.0823
6 2 -17 -8.1767 -0.2729
6 2 -14 -1.1742 -0.1317
6 2 -11 -11.0588 0.2768
6 2 -8 -45.5706 0.4174
6 2 -5 -37.3062 0.4666
6 2 -2 23.5543 -0.0859
6 2 1 25.9153 -0.3182
6 2 4 -9.0420 -0.3095
6 2 7 1.6330 -0.2611
6 2 10 -26.2583 -0.0904
6 2 13 -10.8391 0.0413
6 2 16 3.4366 0.1992
6 2 19 -2.5432 0.3926
6 2 22 4.0234 0.3721
6 2 25 2.6382 0.3855
6 2 28 -1.3107 0.0187
6 2 31 3.2578 0.2470
6 2 34 -1.7589 -0.3347
6 2 37 3.0234 -0.6766
6 3 -36 -0.9098 0.2131
6 3 -33 -1.6031 0.6914
6 3 -30 0.5273 -0.0693
6 3 -27 -5.3454 -0.2984
6 3 -24 5.7530 -0.2049
6 3 -21 -3.4273 -0.6023
6 3 -18 -2.8851 -0.5770
6 3 -15 2.9197 -0.2476
6 3 -12 -7.6859 0.0609
6 3 -9 -35.5113 0.2268
6 3 -6 8.9349 0.5642
6 3 -3 11.1186 0.5337
6 3 0 -3.5437 0.4481
6 3 3 -33.1498 -0.0002
6 3 6 15.7421 -0.2305
6 3 9 22.6241 -0.4225
6 3 12 4.8659 -0.5016
6 3 15 -0.9266 -0.2678
6 3 18 1.0095 -0.1424
6 3 21 -0.7993 0.1945
6 3 24 1.9072 0.3976
6 3 27 2.6015 0.4426
6 3 30 -2.5978 0.4293
6 3 33 -0.7741 -0.6006
6 3 36 0.0057 0.7552
6 4 -34 1.4934 -0.9493
6 4 -31 2.9742 -0.5530
6 4 -28 -1.7220 -0.3944
6 4 -25 0.7054 -0.0770
6 4 -22 2.0790 0.4284
6 4 -19 0.8322 0.7295
6 4 -16 -0.6971 0.8977
6 4 -13 -14.6094 0.7292
6 4 -10 -5.6673 0.5389
6 4 -7 0.0033 -0.1286
6 4 -4 2.8483 -0.5656
6 4 -1 -3.8865 -0.7586
6 4 2 -2.5033 -0.6419
6 4 5 17.8206 -0.5523
6 4 8 2.0106 -0.0191
6 4 11 -0.5126 0.6266
6 4 14 1.7825 0.9377
6 4 17 4.1457 0.7606
6 4 20 -0.5824 0.5331
6 4 23 -3.0817 -0.0229
6 4 26 -0.8514 -0.4611
6 4 29 4.8043 -0.8510
6 4 32 0.4730 -0.2800
6 4 35 -0.1856 -0.4461
6 5 -35 2.4116 -0.6166
6 5 -32 -0.6152 0.0188
6 5 -29 -1.0786 0.4216
6 5 -26 2.6699 0.6423
6 5 -23 2.7082 0.6638
6 5 -20 -0.2056 0.0248
6 5 -17 -9.0130 -0.3533
6 5 -14 3.0732 -0.5707
6 5 -11 11.2337 -0.4551
6 5 -8 1.2610 -0.2678
6 5 -5 -14.6036 0.0603
6 5 -2 -7.6630 0.3241
6 5 1 23.4513 0.3992
6 5 4 19.5615 0.3250
6 5 7 -8.8989 0.3642
6 5 10 3.5167 0.0195
6 5 13 -2.4878 -0.2518
6 5 16 3.5554 -0.4576
6 5 19 2.5679 -0.4086
6 5 22 2.2199 -0.6269
6 5 25 -0.8476 -0.4477
6 5 28 1.7568 0.4126
6 5 31 2.1830 0.1733
6 5 34 2.4434 0.6719
6 6 0 5.1421 -0.0473
6 6 3 1.6479 -0.3172
6 6 6 -1.2717 -0.5624
6 6 9 -1.8280 -0.6378
6 6 12 10.6831 -0.4549
6 6 15 -8.2440 -0.0865
6 6 18 13.1028 0.0601
6 6 21 0.3765 0.5634
6 6 24 0.0904 0.5210
6 6 27 0.0024 0.4153
6 6 30 -1.1183 -0.4859
6 6 33 1.3164 0.4216
7 0 -38 -1.6268 2.9845
7 0 -35 -4.8108 2.5736
7 0 -32 -3.7775 1.7985
7 0 -29 -5.4498 0.3205
7 0 -26 5.0751 -1.3513
7 0 -23 3.2609 -3.0926
7 0 -20 -10.4834 -3.2914
7 0 -17 15.2473 -2.5567
7 0 -14 -8.3477 -0.7856
7 0 -11 -36.2293 1.0058
7 0 -8 -37.2708 2.8603
7 0 -5 -18.6932 3.4919
7 0 -2 31.2892 2.3943
7 0 1 25.7006 0.9271
7 0 4 -42.0521 -0.7620
7 0 7 -3.3310 -1.9379
7 0 10 -0.0806 -2.6480
7 0 13 -7.2705 -2.6516
7 0 16 -3.7921 -1.4295
7 0 19 2.8883 0.0748
7 0 22 -5.3311 1.8310
7 0 25 3.9684 2.7485
7 0 28 -1.5667 3.0327
7 0 31 -6.4287 2.0868
7 0 34 -0.4839 0.3337
7 0 37 4.3099 -1.5806
7 1 -36 0.2170 0.3570
7 1 -33 -0.4883 -0.9687
7 1 -30 0.8398 -0.8499
7 1 -27 -6.1944 -0.3834
7 1 -24 5.7138 -0.1738
7 1 -21 9.7798 0.2668
7 1 -18 -0.8633 0.5782
7 1 -15 -11.6791 0.7219
7 1 -12 -29.1734 0.6703
7 1 -9 -6.7011 0.3169
7 1 -6 50.1217 -0.2854
7 1 -3 18.3106 -0.5131
7 1 0 -13.0186 -0.6716
7 1 3 7.5158 -0.6151
7 1 6 9.9223 -0.5252
7 1 9 -6.6965 -0.1096
7 1 12 5.1464 0.2801
7 1 15 -3.7174 0.5584
7 1 18 5.3714 0.6561
7 1 21 -1.6658 0.5327
7 1 24 -4.6434 0.2280
7 1 27 5.0982 -0.3676
7 1 30 -8.9451 -0.7645
7 1 33 2.9080 -0.6067
7 1 36 2.7696 -0.1841
7 2 -37 -1.3992 1.0688
7 2 -34 3.0580 -0.3730
7 2 -31 -0.3013 -0.2740
7 2 -28 0.5770 -0.3205
7 2 -25 6.4880 -0.2133
7 2 -22 3.7700 0.0405
7 2 -19 -5.1545 0.4682
7 2 -16 -17.3154 0.3806
7 2 -13 -1.6218 0.2769
7 2 -10 41.2522 0.1663
7 2 -7 -30.9322 -0.1015
7 2 -4 -1.7541 -0.0987
7 2 -1 6.5308 -0.1527
7 2 2 -17.9004 -0.2903
7 2 5 11.8219 -0.2029
7 2 8 -25.4192 -0.0824
7 2 11 -2.9027 0.1599
7 2 14 9.5463 0.2793
7 2 17 -3.5984 0.2010
7 2 20 -6.9545 -0.0231
7 2 23 -9.3663 -0.0315
7 2 26 -1.5534 -0.0319
7 2 29 3.2298 -0.1792
7 2 32 3.0003 0.0168
7 2 35 0.8574 0.4671
7 3 -35 -1.2119 0.2658
7 3 -32 -2.3116 0.5632
7 3 -29 -1.3090 0.0340
7 3 -26 5.6296 -0.1716
7 3 -23 0.6032 -0.3297
7 3 -20 -9.2074 -0.3676
7 3 -17 -16.2771 -0.5800
7 3 -14 0.1413 -0.3888
7 3 -11 14.8350 -0.3187
7 3 -8 -1.3157 -0.0524
7 3 -5 -31.2132 0.2539
7 3 -2 -3.0899 0.3620
7 3 1 14.1775 0.2922
7 3 4 -14.7730 0.1863
7 3 7 -18.0706 -0.0841
7 3 10 4.3544 -0.2510
7 3 13 5.2246 -0.5671
7 3 16 4.5255 -0.4676
7 3 19 -9.3924 -0.3227
7 3 22 2.6334 -0.0784
7 3 25 0.1979 0.0989
7 3 28 2.9164 0.1653
7 3 31 0.3385 0.4688
7 3 34 -2.0490 0.2519
7 4 -33 0.5525 -0.6889
7 4 -30 2.6395 -0.2255
7 4 -27 1.2912 -0.0440
7 4 -24 -1.7645 -0.4528
7 4 -21 -8.5482 -0.5435
7 4 -18 11.0141 -0.0660
7 4 -15 4.0044 0.2163
7 4 -12 -3.6153 0.1713
7 4 -9 -23.5697 0.1434
7 4 -6 7.4560 0.2162
7 4 -3 10.5030 0.0168
7 4 0 -17.7797 -0.2069
7 4 3 -16.2051 -0.1368
7 4 6 13.1380 -0.1605
7 4 9 22.4499 -0.2793
7 4 12 9.5074 -0.0969
7 4 15 -18.4064 -0.1059
7 4 18 5.6557 0.1580
7 4 21 5.4495 0.4998
7 4 24 3.0567 0.5070
7 4 27 -0.7066 0.3947
7 4 30 1.7240 -0.0341
7 4 33 0.4779 0.5075
7 5 -34 -2.2198 -1.5672
7 5 -31 4.3664 -0.0947
7 5 -28 1.2543 -0.4188
7 5 -25 -0.3060 -0.4947
7 5 -22 -2.6781 -0.0903
7 5 -19 9.8788 0.4294
7 5 -16 -0.9202 0.5143
7 5 -13 -3.6029 0.5180
7 5 -10 10.3351 0.4204
7 5 -7 7.2436 0.1099
7 5 -4 7.7059 -0.1115
7 5 -1 -10.8898 -0.2273
7 5 2 11.4123 -0.3209
7 5 5 12.8361 -0.2778
7 5 8 9.1457 -0.1180
7 5 11 -5.6358 0.2137
7 5 14 -5.7134 0.5367
7 5 17 6.5200 0.6477
7 5 20 1.4091 0.4512
7 5 23 0.8060 0.2293
7 5 26 -0.4828 0.0265
7 5 29 0.5036 -0.0641
7 5 32 3.8313 -0.7699
7 6 -32 0.0459 0.5305
7 6 -29 0.4472 -0.2682
7 6 -26 -1.3766 -0.0189
7 6 -23 0.9653 0.0462
7 6 -20 2.9747 0.0823
7 6 -17 -2.0590 -0.0729
7 6 -14 9.3826 0.1213
7 6 -11 10.7967 0.1207
7 6 -8 9.2955 0.0469
7 6 -5 -1.4904 0.1927
7 6 -2 -3.2987 0.1930
7 6 1 13.1056 -0.0446
7 6 4 14.2111 -0.2094
7 6 7 -5.5618 -0.1856
7 6 10 -1.0865 -0.1904
7 6 13 -2.6051 -0.2492
7 6 16 5.5056 -0.0020
7 6 19 5.3437 -0.0070
7 6 22 -6.0140 0.1169
7 6 25 0.4386 -0.2194
7 6 28 1.2757 -0.0897
7 6 31 -0.6006 0.0214
7 7 0 11.4684 -0.6624
7 7 3 1.2531 -0.4942
7 7 6 -15.7310 -0.1393
7 7 9 -2.5834 0.2216
7 7 12 16.7142 0.5510
7 7 15 4.4098 0.7054
7 7 18 -0.8043 0.7044
7 7 21 -0.7127 0.0713
7 7 24 1.3356 0.0257
7 7 27 0.0405 0.3454
7 7 30 -2.8207 -1.1903
8 0 -37 -1.2413 0.2056
8 0 -34 5.0108 0.6959
8 0 -31 1.7719 0.6181
8 0 -28 0.7284 -0.3384
8 0 -25 12.8998 -1.5295
8 0 -22 0.1771 -1.6697
8 0 -19 -12.4812 -1.0248
8 0 -16 -8.9445 -0.6784
8 0 -13 7.2999 -0.3612
8 0 -10 52.9408 -0.1667
8 0 -7 -31.3759 0.5542
8 0 -4 27.1675 0.3879
8 0 -1 36.2515 0.8662
8 0 2 0.0936 0.6841
8 0 5 -3.7157 0.2511
8 0 8 -44.0060 -0.7010
8 0 11 17.5698 -1.6885
8 0 14 22.7015 -2.0688
8 0 17 -10.9279 -1.2380
8 0 20 -1.0956 -0.2455
8 0 23 -13.8489 0.6606
8 0 26 -2.3999 1.2301
8 0 29 1.9917 1.5252
8 0 32 0.7237 0.6139
8 0 35 -3.3602 -0.2077
8 1 -35 -3.9100 -0.9744
8 1 -32 0.3900 0.4207
8 1 -29 -0.3161 0.5107
8 1 -26 11.6178 1.2453
8 1 -23 -3.9581 1.2857
8 1 -20 -16.6699 0.6831
8 1 -17 6.9869 0.0106
8 1 -14 6.9156 -0.5256
8 1 -11 -3.3865 -0.9616
8 1 -8 21.3013 -1.0344
8 1 -5 4.4479 -0.8301
8 1 -2 6.2104 -0.1116
8 1 1 -1.0811 0.5744
8 1 4 -17.1033 1.0571
8 1 7 -2.3959 1.1219
8 1 10 -1.1614 0.8659
8 1 13 -4.0137 0.3943
8 1 16 -4.7434 -0.3191
8 1 19 -7.4541 -0.8726
8 1 22 5.1954 -1.1358
8 1 25 1.6479 -0.8310
8 1 28 0.4069 -0.5389
8 1 31 -3.4502 0.0700
8 1 34 1.9985 0.4672
8 2 -36 1.8724 -0.6155
8 2 -33 0.0925 -0.3055
8 2 -30 1.9967 0.2936
8 2 -27 -0.3783 0.4210
8 2 -24 -6.9803 0.3331
8 2 -21 -4.2100 0.2749
8 2 -18 15.8825 0.3315
8 2 -15 3.1037 0.1041
8 2 -12 -18.7372 -0.1542
8 2 -9 1.4870 -0.1764
8 2 -6 23.0349 -0.1779
8 2 -3 3.4963 -0.1208
8 2 0 -19.0376 -0.1063
8 2 3 -19.3911 -0.0741
8 2 6 2.1664 0.0836
8 2 9 15.7162 0.2604
8 2 12 7.2270 0.4138
8 2 15 -18.5173 0.4386
8 2 18 4.4346 0.3617
8 2 21 8.2928 0.0242
8 2 24 -0.3090 -0.3683
8 2 27 0.2268 -0.4429
8 2 30 -5.6137 -0.3793
8 2 33 -0.3703 -0.8642
8 2 36 -1.2229 1.0857
8 3 -34 0.2618 -0.5238
8 3 -31 2.9446 0.4415
8 3 -28 2.6572 0.0053
8 3 -25 -0.5817 -0.2291
8 3 -22 -2.3549 -0.3780
8 3 -19 13.0896 -0.5304
8 3 -16 -11.1689 -0.4340
8 3 -13 -10.3638 0.0459
8 3 -10 13.6975 0.2966
8 3 -7 -5.0334 0.4144
8 3 -4 -11.2485 0.4819
8 3 -1 -9.3340 0.3351
8 3 2 15.5292 0.1986
8 3 5 4.1356 -0.0593
8 3 8 -12.5638 -0.2842
8 3 11 -5.1194 -0.5822
8 3 14 3.5549 -0.6169
8 3 17 16.8267 -0.4599
8 3 20 -2.6170 -0.1446
8 3 23 -4.1035 0.3200
8 3 26 -1.9101 0.6673
8 3 29 1.6417 0.7463
8 3 32 -1.6047 0.1059
8 3 35 -1.5203 0.8483
8 4 -32 0.4413 0.2550
8 4 -29 2.5701 -0.4170
8 4 -26 -0.0353 0.5122
8 4 -23 4.6712 1.0180
8 4 -20 4.4708 0.7813
8 4 -17 -23.1035 0.5205
8 4 -14 5.7701 0.0009
8 4 -11 19.9398 -0.4947
8 4 -8 0.3265 -0.7471
8 4 -5 -21.6172 -0.7954
8 4 -2 4.9193 -0.4914
8 4 1 13.2935 0.0143
8 4 4 -2.0531 0.3559
8 4 7 -11.8755 0.5652
8 4 10 11.1002 0.7492
8 4 13 -0.3625 0.4998
8 4 16 -1.6912 0.2169
8 4 19 -2.3266 -0.2190
8 4 22 -4.9073 -0.5789
8 4 25 -2.2201 -0.9471
8 4 28 1.8996 -0.6575
8 4 31 -1.1378 -0.2248
8 4 34 3.6100 1.0867
8 5 -33 3.7626 0.8540
8 5 -30 1.0850 0.6713
8 5 -27 -0.5674 0.0168
8 5 -24 -3.3919 -0.1430
8 5 -21 -0.7604 -0.0933
8 5 -18 3.4382 -0.2635
8 5 -15 -0.1866 -0.3407
8 5 -12 6.3955 -0.3192
8 5 -9 1.5507 -0.0998
8 5 -6 -4.6354 -0.0168
8 5 -3 21.8181 0.1703
8 5 0 -1.6627 0.3783
8 5 3 -6.0288 0.3998
8 5 6 4.2925 0.2627
8 5 9 4.3761 -0.0049
8 5 12 10.6107 -0.1131
8 5 15 -12.8620 -0.3307
8 5 18 -4.5818 -0.3734
8 5 21 -1.1222 -0.3573
8 5 24 6.0033 0.1516
8 5 27 0.1279 -0.0230
8 5 30 -3.4627 -0.1827
8 5 33 1.4920 0.7319
8 6 -31 2.4805 1.5497
8 6 -28 -0.1206 0.3833
8 6 -25 0.4463 0.1540
8 6 -22 -6.0296 -0.0422
8 6 -19 -0.0393 -0.5154
8 6 -16 8.6197 -0.8625
8 6 -13 7.2596 -0.8298
8 6 -10 -1.4409 -0.5298
8 6 -7 0.0306 -0.0142
8 6 -4 13.4127 0.4315
8 6 -1 -4.6356 0.6598
8 6 2 -0.0210 0.7822
8 6 5 2.6856 0.7183
8 6 8 7.9454 0.3399
8 6 11 0.2314 -0.2172
8 6 14 -4.4603 -0.8119
8 6 17 -0.7673 -0.9233
8 6 20 3.7339 -0.6367
8 6 23 5.9888 -0.0571
8 6 26 -2.1309 0.1883
8 6 29 1.6114 1.3012
8 7 -29 0.6197 0.1666
8 7 -26 -1.3561 -0.1197
8 7 -23 3.8053 -0.1225
8 7 -20 0.6552 -0.1016
8 7 -17 0.7275 -0.1789
8 7 -14 2.6382 0.1981
8 7 -11 2.0978 0.1783
8 7 -8 9.7232 0.1910
8 7 -5 7.4917 0.1161
8 7 -2 -17.1260 0.0623
8 7 1 5.2046 -0.0754
8 7 4 13.0675 -0.2231
8 7 7 0.5843 -0.3467
8 7 10 -7.9833 -0.2770
8 7 13 1.4263 -0.0610
8 7 16 5.7108 0.1007
8 7 19 2.2039 0.2647
8 7 22 -3.8907 0.2766
8 7 25 -2.7968 -0.1060
8 7 28 1.6650 0.1672
8 8 0 12.3229 0.3544
8 8 3 3.0137 0.2547
8 8 6 4.7045 0.0970
8 8 9 -0.6822 -0.1343
8 8 12 2.5677 -0.3938
8 8 15 0.4528 -0.3704
8 8 18 -2.7425 -0.0907
8 8 21 -2.7141 -0.1271
8 8 24 1.7365 0.0209
8 8 27 2.0361 0.5099
9 0 -36 3.3888 3.0225
9 0 -33 2.1787 2.4557
9 0 -30 3.3552 0.7423
9 0 -27 -4.4203 -0.7122
9 0 -24 -4.7592 -2.2923
9 0 -21 -4.1842 -2.2433
9 0 -18 7.3285 -2.3470
9 0 -15 13.2987 -1.2511
9 0 -12 -10.1119 0.0772
9 0 -9 17.4778 1.5006
9 0 -6 40.4745 2.4707
9 0 -3 1.3923 2.3768
9 0 0 -29.1086 1.5523
9 0 3 21.3634 0.1209
9 0 6 11.8212 -1.5605
9 0 9 9.0471 -2.5112
9 0 12 22.3374 -3.0125
9 0 15 -16.6585 -1.9998
9 0 18 2.8591 -0.6795
9 0 21 12.5758 1.0338
9 0 24 -1.5061 2.1163
9 0 27 2.9864 2.3567
9 0 30 -3.3409 1.8067
9 0 33 3.1357 0.5974
9 0 36 -3.3066 -1.4013
9 1 -34 2.4259 -1.2538
9 1 -31 -0.1832 -1.2083
9 1 -28 2.4225 -1.1974
9 1 -25 -0.0780 -0.2544
9 1 -22 -6.9268 0.6762
9 1 -19 7.6426 1.2890
9 1 -16 -0.7172 1.4225
9 1 -13 20.0722 1.2413
9 1 -10 17.1946 0.5400
9 1 -7 -27.9859 -0.3181
9 1 -4 4.3703 -1.2166
9 1 -1 2.0078 -1.5754
9 1 2 3.0998 -1.2755
9 1 5 15.1183 -0.5430
9 1 8 -2.6896 0.2915
9 1 11 1.3551 1.0753
9 1 14 6.9845 1.5484
9 1 17 6.9827 1.4643
9 1 20 1.0189 0.7313
9 1 23 -3.0676 -0.0583
9 1 26 -1.7835 -0.7726
9 1 29 4.1379 -0.9948
9 1 32 -1.4735 -0.8829
9 1 35 0.0415 -0.6783
9 2 -32 -1.3468 -0.0621
9 2 -29 -0.6822 -0.0269
9 2 -26 0.6327 0.4878
9 2 -23 -3.9626 0.1300
9 2 -20 9.4458 -0.0483
9 2 -17 -6.2907 0.0255
9 2 -14 -3.2282 0.0176
9 2 -11 -3.7394 -0.0367
9 2 -8 0.9166 -0.0433
9 2 -5 -33.1943 -0.1704
9 2 -2 2.6052 -0.1682
9 2 1 17.9158 -0.0501
9 2 4 -9.4067 0.1539
9 2 7 -13.9219 0.2606
9 2 10 -0.7276 0.2824
9 2 13 -6.8711 0.2934
9 2 16 4.7657 0.0973
9 2 19 2.2235 0.0816
9 2 22 4.2977 -0.0072
9 2 25 -4.4579 -0.1381
9 2 28 1.2725 -0.5392
9 2 31 -5.9178 0.0512
9 2 34 -2.7692 -0.0254
9 3 -33 1.3379 -0.3902
9 3 -30 1.0415 0.7898
9 3 -27 -3.4600 0.3287
9 3 -24 -6.3677 -0.2372
9 3 -21 4.5361 -0.4504
9 3 -18 8.7148 -0.5220
9 3 -15 -1.1063 -0.7660
9 3 -12 -27.3666 -0.6174
9 3 -9 -7.0312 -0.1631
9 3 -6 -2.7106 0.3654
9 3 -3 13.3463 0.7155
9 3 0 -7.2119 0.8008
9 3 3 -6.2929 0.5372
9 3 6 3.6456 0.1483
9 3 9 -2.2233 -0.2571
9 3 12 7.3850 -0.6098
9 3 15 -5.2756 -0.8191
9 3 18 2.9218 -0.7236
9 3 21 3.2351 -0.3724
9 3 24 4.2153 0.0602
9 3 27 -4.7302 0.6415
9 3 30 -4.2040 0.6611
9 3 33 -1.3590 -0.8528
9 4 -31 0.7806 0.0140
9 4 -28 -0.0941 -0.5214
9 4 -25 2.1849 -0.0956
9 4 -22 5.1369 0.1018
9 4 -19 3.5792 0.1000
9 4 -16 -10.8795 0.3690
9 4 -13 -0.2223 0.6785
9 4 -10 0.4464 0.5805
9 4 -7 5.6679 0.2968
9 4 -4 4.7926 -0.1495
9 4 -1 -1.0693 -0.6006
9 4 2 14.9687 -0.7982
9 4 5 -0.3950 -0.6194
9 4 8 3.6072 -0.2833
9 4 11 5.0099 0.0647
9 4 14 -3.6969 0.4110
9 4 17 8.3305 0.7128
9 4 20 -6.6451 0.6799
9 4 23 -0.8721 0.3207
9 4 26 -2.9132 0.0202
9 4 29 -1.1226 0.0311
9 4 32 3.5706 -0.3253
9 5 -29 2.3774 -0.1648
9 5 -26 2.2577 0.7105
9 5 -23 4.3130 -0.2245
9 5 -20 -0.9948 -0.4418
9 5 -17 -7.7798 -0.0124
9 5 -14 4.6331 0.1394
9 5 -11 2.9984 0.2537
9 5 -8 -1.1532 0.3249
9 5 -5 -1.6070 0.0983
9 5 -2 0.9710 -0.0410
9 5 1 8.7214 -0.2824
9 5 4 1.7706 -0.4160
9 5 7 -3.8569 -0.3466
9 5 10 6.8617 -0.1747
9 5 13 2.9020 0.1740
9 5 16 -5.5152 0.3018
9 5 19 -3.7997 0.3267
9 5 22 -5.5758 0.0807
9 5 25 -2.4772 0.1704
9 5 28 3.5311 -0.1851
9 5 31 -2.5332 -1.6866
9 6 -30 2.4001 0.4116
9 6 -27 -0.7659 -0.4587
9 6 -24 1.7772 -0.1878
9 6 -21 -3.7847 0.1842
9 6 -18 -4.8345 0.3784
9 6 -15 0.6781 0.2315
9 6 -12 -0.2125 0.1452
9 6 -9 0.9820 -0.0014
9 6 -6 -11.7701 -0.1453
9 6 -3 10.9894 -0.2368
9 6 0 2.9561 -0.1829
9 6 3 -2.3552 -0.0719
9 6 6 -2.2801 0.0670
9 6 9 -4.8220 0.1316
9 6 12 1.6766 0.1975
9 6 15 -2.2440 0.1581
9 6 18 -6.9998 -0.1544
9 6 21 -0.7075 -0.1983
9 6 24 5.9532 -0.1206
9 6 27 2.1012 -0.0967
9 6 30 0.3125 0.3388
9 7 -28 0.0179 -1.6477
9 7 -25 -2.6796 -0.1946
9 7 -22 -5.1504 0.1055
9 7 -19 0.7781 0.1736
9 7 -16 2.2872 0.2641
9 7 -13 -0.3957 0.3536
9 7 -10 0.2938 0.1196
9 7 -7 6.0071 -0.0526
9 7 -4 10.9709 -0.3549
9 7 -1 -4.0182 -0.4548
9 7 2 -3.6000 -0.3585
9 7 5 7.6264 -0.2038
9 7 8 11.0365 -0.0940
9 7 11 -2.3029 0.2300
9 7 14 -7.9286 0.3850
9 7 17 0.1366 0.1897
9 7 20 1.9399 0.3113
9 7 23 7.0210 -0.0332
9 7 26 -0.1391 -0.7480
9 8 -26 1.9861 1.1850
9 8 -23 4.2988 0.7782
9 8 -20 -2.4856 -0.5819
9 8 -17 1.5597 -0.1216
9 8 -14 -1.5767 -0.3516
9 8 -11 2.7056 -0.4514
9 8 -8 8.6284 -0.4287
9 8 -5 2.7560 -0.3321
9 8 -2 -7.9994 -0.0306
9 8 1 2.0247 0.3818
9 8 4 6.0633 0.5220
9 8 7 2.5292 0.5231
9 8 10 -1.2071 0.2262
9 8 13 -0.3257 0.0044
9 8 16 1.7219 -0.2172
9 8 19 4.0578 -0.0408
9 8 22 0.3188 -0.3073
9 8 25 -3.3354 -0.2227
9 9 0 6.4423 0.2182
9 9 3 2.6825 0.0826
9 9 6 -7.4048 0.0679
9 9 9 -4.0694 0.1506
9 9 12 1.2861 -0.1330
9 9 15 2.3949 -0.0049
9 9 18 -1.2513 0.2843
9 9 21 -3.3810 0.2562
9 9 24 -0.9453 -0.0674
10 0 -35 -5.0683 0.6781
10 0 -32 -4.3072 2.1165
10 0 -29 0.4045 2.1825
10 0 -26 -1.0354 0.8455
10 0 -23 -7.6525 -0.4421
10 0 -20 9.9763 -2.0956
10 0 -17 -2.8892 -2.6476
10 0 -14 -5.7710 -2.3452
10 0 -11 2.3678 -1.6172
10 0 -8 18.1179 -0.3121
10 0 -5 -16.1623 1.1427
10 0 -2 1.0218 2.4926
10 0 1 -11.8737 2.5824
10 0 4 -1.0224 1.8353
10 0 7 14.3897 0.4418
10 0 10 -0.0544 -1.1534
10 0 13 -3.6549 -2.4325
10 0 16 3.4232 -2.8939
10 0 19 -3.5239 -2.3608
10 0 22 6.4027 -0.8285
10 0 25 -1.1459 0.5941
10 0 28 1.5546 1.9239
10 0 31 -3.7696 2.1763
10 0 34 5.9144 2.5183
10 1 -33 -1.0136 -1.6847
10 1 -30 -3.4366 -0.2356
10 1 -27 -4.3620 -0.1974
10 1 -24 -6.0675 -0.1462
10 1 -21 4.2439 0.0871
10 1 -18 3.4553 0.1937
10 1 -15 5.0944 0.2548
10 1 -12 -21.0875 0.3599
10 1 -9 9.4099 0.3651
10 1 -6 -2.9789 0.0548
10 1 -3 13.4816 -0.0524
10 1 0 -4.2772 -0.3145
10 1 3 -3.0603 -0.4285
10 1 6 1.8346 -0.3625
10 1 9 6.7689 -0.0662
10 1 12 13.5967 0.2024
10 1 15 -2.9729 0.6098
10 1 18 -3.7601 0.6471
10 1 21 5.7666 0.4807
10 1 24 4.1293 0.1820
10 1 27 -1.4525 0.0778
10 1 30 -7.8825 -0.0552
10 1 33 4.6509 -0.3197
10 2 -31 -0.9371 -0.2389
10 2 -28 1.7029 -0.7685
10 2 -25 2.3162 -0.4665
10 2 -22 2.3142 -0.0995
10 2 -19 -0.6960 -0.0535
10 2 -16 1.5410 0.1909
10 2 -13 17.0354 0.4326
10 2 -10 -21.1230 0.4680
10 2 -7 -5.4306 0.3931
10 2 -4 4.0620 0.1570
10 2 -1 -7.4569 -0.1952
10 2 2 15.0863 -0.5841
10 2 5 7.7549 -0.5198
10 2 8 -4.8007 -0.4319
10 2 11 0.0337 -0.2347
10 2 14 -5.7161 -0.0512
10 2 17 15.8346 0.1095
10 2 20 -0.8065 0.4188
10 2 23 0.0531 0.2963
10 2 26 -3.5583 0.2072
10 2 29 -0.6622 -0.1585
10 2 32 2.1925 0.7503
10 3 -32 -1.4529 0.5753
10 3 -29 2.7481 0.2514
10 3 -26 -0.9743 -0.1148
10 3 -23 2.9762 -0.3130
10 3 -20 3.1522 0.0217
10 3 -17 -7.7920 0.0974
10 3 -14 6.1817 -0.0687
10 3 -11 -3.1268 -0.1749
10 3 -8 -6.0287 -0.2739
10 3 -5 -12.6762 -0.1887
10 3 -2 -0.1548 -0.1210
10 3 1 3.0594 0.1466
10 3 4 -1.5472 0.1864
10 3 7 -3.5163 0.1127
10 3 10 0.8161 0.0157
10 3 13 -1.3902 0.0893
10 3 16 -5.7975 0.0559
10 3 19 -0.9934 -0.2303
10 3 22 1.6292 -0.0920
10 3 25 -6.2270 0.0335
10 3 28 1.2743 -0.2583
10 3 31 -1.2340 -0.3089
10 4 -30 2.6013 0.3779
10 4 -27 -3.2714 -0.7225
10 4 -24 -3.0869 -0.4254
10 4 -21 0.9312 0.3415
10 4 -18 6.8600 0.5037
10 4 -15 -2.9700 0.3975
10 4 -12 -23.9110 0.2388
10 4 -9 7.6244 0.0501
10 4 -6 -3.8344 -0.1178
10 4 -3 3.7344 -0.1809
10 4 0 -2.4759 -0.1182
10 4 3 -0.3506 -0.1174
10 4 6 -0.4767 -0.0689
10 4 9 -0.4053 0.2078
10 4 12 5.6166 0.0625
10 4 15 0.0891 0.2324
10 4 18 -2.8498 0.2995
10 4 21 -2.3211 0.3374
10 4 24 5.2191 -0.0535
10 4 27 -0.2152 -0.3572
10 4 30 -0.5622 0.7656
10 5 -28 -1.0780 -0.1989
10 5 -25 1.6804 0.2531
10 5 -22 -0.3604 0.3198
10 5 -19 -1.2377 -0.0355
10 5 -16 -3.7861 -0.1139
10 5 -13 -0.5037 -0.1778
10 5 -10 -0.9679 -0.3848
10 5 -7 4.0499 -0.2605
10 5 -4 -2.5622 -0.0058
10 5 -1 6.5530 0.1876
10 5 2 9.8398 0.2189
10 5 5 -3.1480 0.0907
10 5 8 -0.1866 0.0850
10 5 11 2.3279 -0.0600
10 5 14 -2.2901 -0.1294
10 5 17 5.1871 -0.0577
10 5 20 2.5684 -0.1352
10 5 23 1.7599 -0.0556
10 5 26 -0.4224 -0.1390
10 5 29 5.6186 0.3402
10 6 -26 -1.0904 0.7266
10 6 -23 3.6698 -0.1016
10 6 -20 -0.7565 -0.0721
10 6 -17 -4.9407 -0.0392
10 6 -14 -2.0033 -0.3625
10 6 -11 0.4262 -0.1375
10 6 -8 8.7991 -0.0180
10 6 -5 -3.6337 0.1461
10 6 -2 -1.4781 0.2207
10 6 1 2.3357 0.2230
10 6 4 5.1101 0.2179
10 6 7 0.6548 0.1943
10 6 10 -5.3561 0.0283
10 6 13 -2.4844 -0.2179
10 6 16 -1.5837 -0.2675
10 6 19 -0.6121 0.1309
10 6 22 0.9096 -0.0719
10 6 25 -3.3042 -0.0238
10 6 28 1.9237 0.5047
10 7 -24 2.5518 -0.7785
10 7 -21 -4.9057 0.1181
10 7 -18 -3.6977 0.3198
10 7 -15 2.0378 0.2250
10 7 -12 0.6528 0.4620
10 7 -9 -2.6387 0.4386
10 7 -6 -7.2871 0.3724
10 7 -3 10.9755 0.1915
10 7 0 -3.1598 -0.1156
10 7 3 -9.6135 -0.3772
10 7 6 -0.3639 -0.5014
10 7 9 2.2168 -0.3392
10 7 12 1.4064 0.1594
10 7 15 -0.3497 0.2120
10 7 18 -3.2267 0.1503
10 7 21 -3.8243 0.2494
10 7 24 3.4559 1.0100
10 8 -22 -1.2262 0.4961
10 8 -19 1.8837 0.3766
10 8 -16 3.0553 0.4800
10 8 -13 -1.8453 0.1936
10 8 -10 -0.8015 -0.0159
10 8 -7 -1.2810 -0.4359
10 8 -4 5.9440 -0.3867
10 8 -1 -5.0736 -0.5381
10 8 2 -4.4552 -0.4955
10 8 5 -0.1931 -0.1529
10 8 8 4.9263 0.0510
10 8 11 5.2007 0.3545
10 8 14 -2.0530 0.4931
10 8 17 1.4154 0.1759
10 8 20 2.5270 -0.2812
10 8 23 1.4414 -0.8328
10 9 -20 -1.8772 -0.7826
10 9 -17 -2.1380 -0.3984
10 9 -14 -2.0601 -0.0290
10 9 -11 4.7108 -0.5256
10 9 -8 2.4169 -0.4535
10 9 -5 3.1773 -0.3170
10 9 -2 -2.0009 0.0315
10 9 1 3.0405 0.1163
10 9 4 3.2988 0.3384
10 9 7 -1.4934 0.4966
10 9 10 -1.6005 0.3598
10 9 13 -1.2863 -0.1219
10 9 16 -0.5113 -0.3592
10 9 19 2.8086 -0.2483
10 10 0 1.6469 0.3924
10 10 3 3.3583 0.1985
10 10 6 -5.1574 0.0759
10 10 9 0.3960 -0.1116
10 10 12 0.6171 0.0549
10 10 15 -1.1124 0.6075
10 10 18 -1.5688 0.2273
11 0 -31 -3.7922 1.4947
11 0 -28 3.3481 1.0152
11 0 -25 0.6096 0.3056
11 0 -22 1.7420 -0.3910
11 0 -19 -4.5199 -1.4740
11 0 -16 5.0336 -1.8533
11 0 -13 24.6870 -1.7255
11 0 -10 -20.7986 -1.2916
11 0 -7 4.5177 -0.1459
11 0 -4 40.6395 1.4423
11 0 -1 3.2357 2.1990
11 0 2 -18.0677 2.2186
11 0 5 1.4331 1.1742
11 0 8 17.9499 -0.4423
11 0 11 2.7302 -1.7503
11 0 14 2.4014 -2.4743
11 0 17 11.6509 -2.3386
11 0 20 -8.8093 -1.3091
11 0 23 -4.4075 -0.1087
11 0 26 -1.5226 0.4598
11 0 29 0.2930 0.8852
11 0 32 -0.7572 1.0722
11 1 -32 -2.3890 -1.4677
11 1 -29 6.1160 -0.6278
11 1 -26 -0.9348 -0.5353
11 1 -23 -0.7228 0.0134
11 1 -20 7.4585 0.7451
11 1 -17 -9.3280 1.3317
11 1 -14 -1.8409 1.1076
11 1 -11 4.5023 0.5238
11 1 -8 20.9043 0.0127
11 1 -5 -2.4980 -0.5959
11 1 -2 1.1632 -1.0715
11 1 1 -7.5538 -1.1769
11 1 4 -2.0893 -0.7367
11 1 7 2.1970 -0.2386
11 1 10 -3.3787 0.4527
11 1 13 1.3901 1.0329
11 1 16 -2.7611 0.9954
11 1 19 -8.5862 0.7518
11 1 22 3.8889 0.3647
11 1 25 -7.2930 -0.0486
11 1 28 1.5944 -0.3120
11 1 31 -3.6171 -1.3138
11 2 -30 3.4634 0.6406
11 2 -27 -3.7593 0.5662
11 2 -24 -3.3905 0.7555
11 2 -21 -2.3008 0.6812
11 2 -18 -1.5613 0.0586
11 2 -15 6.0657 -0.3747
11 2 -12 -15.8065 -0.4446
11 2 -9 17.3543 -0.5613
11 2 -6 -3.4775 -0.6140
11 2 -3 -9.3857 -0.3084
11 2 0 -7.1789 0.2151
11 2 3 -1.4930 0.5139
11 2 6 6.5416 0.6872
11 2 9 -4.2099 0.7166
11 2 12 -2.9594 0.5844
11 2 15 -6.6819 0.1605
11 2 18 -6.2609 -0.2369
11 2 21 4.4475 -0.8063
11 2 24 8.7135 -0.9020
11 2 27 -2.7338 -0.7908
11 2 30 -2.4185 0.5750
11 3 -28 -0.4037 0.7476
11 3 -25 -1.7916 1.1623
11 3 -22 -1.4564 -0.0833
11 3 -19 -3.3890 -0.7654
11 3 -16 1.4783 -0.9772
11 3 -13 15.1714 -0.9690
11 3 -10 -5.3928 -0.5250
11 3 -7 4.8320 -0.0081
11 3 -4 -8.8706 0.7037
11 3 -1 -3.3085 1.0659
11 3 2 6.7685 1.0131
11 3 5 -5.3599 0.7246
11 3 8 1.8147 0.1444
11 3 11 4.5394 -0.5260
11 3 14 -8.7476 -1.0736
11 3 17 5.0676 -1.0180
11 3 20 0.6125 -0.7345
11 3 23 6.8039 -0.0519
11 3 26 0.3465 0.6468
11 3 29 -1.1033 -0.3592
11 4 -29 0.2574 -0.2326
11 4 -26 -1.0333 -0.3429
11 4 -23 -1.1337 -0.3883
11 4 -20 1.7227 -0.0005
11 4 -17 5.7234 0.2445
11 4 -14 7.6756 0.4452
11 4 -11 -7.4173 0.4865
11 4 -8 1.5078 0.4543
11 4 -5 3.8895 0.2367
11 4 -2 7.3088 -0.2613
11 4 1 -4.3221 -0.5103
11 4 4 -1.7162 -0.4785
11 4 7 0.3477 -0.3664
11 4 10 -2.4241 -0.0588
11 4 13 2.7820 0.3579
11 4 16 1.3553 0.4446
11 4 19 3.0564 0.3398
11 4 22 1.0433 0.1063
11 4 25 -4.4490 0.4071
11 4 28 3.6875 0.3837
11 5 -27 -2.8594 -0.6414
11 5 -24 2.1734 0.2616
11 5 -21 -0.3613 0.2001
11 5 -18 2.2749 -0.2671
11 5 -15 0.3426 -0.2362
11 5 -12 -11.7256 -0.0866
11 5 -9 4.1410 -0.0918
11 5 -6 -0.0010 -0.1363
11 5 -3 6.8994 -0.0613
11 5 0 -0.1457 -0.0064
11 5 3 4.9582 0.1485
11 5 6 4.3638 0.2234
11 5 9 -9.3182 -0.0425
11 5 12 -2.5679 -0.0742
11 5 15 4.9319 -0.1982
11 5 18 -2.2610 -0.4958
11 5 21 -2.0278 -0.2026
11 5 24 3.8358 0.1098
11 5 27 -0.7096 -0.6345
11 6 -25 -3.2147 0.1302
11 6 -22 0.2535 -0.0919
11 6 -19 2.0611 -0.5206
11 6 -16 -2.2232 -0.1767
11 6 -13 -3.9848 -0.1139
11 6 -10 3.6086 -0.2845
11 6 -7 1.2499 -0.2710
11 6 -4 -1.5271 -0.0635
11 6 -1 -3.3677 0.3065
11 6 2 2.0714 0.3807
11 6 5 2.5828 0.3166
11 6 8 8.7573 0.1473
11 6 11 3.8749 -0.0900
11 6 14 -5.0348 -0.1908
11 6 17 1.3858 -0.1720
11 6 20 0.8792 -0.0175
11 6 23 0.3911 -0.3578
11 6 26 -0.5702 -0.1853
11 7 -23 3.6855 0.0097
11 7 -20 0.2152 0.2139
11 7 -17 -2.6647 -0.0734
11 7 -14 0.2526 -0.2033
11 7 -11 2.7000 -0.0338
11 7 -8 3.6641 0.2521
11 7 -5 -4.2430 0.3614
11 7 -2 -2.1746 0.3085
11 7 1 0.3292 0.1601
11 7 4 -5.2195 0.1070
11 7 7 -0.5727 -0.1274
11 7 10 1.0986 -0.1866
11 7 13 1.6595 -0.5069
11 7 16 -1.9354 0.0013
11 7 19 1.2460 0.4887
11 7 22 -0.2912 0.1443
11 8 -21 -2.8941 0.5342
11 8 -18 -4.2347 -0.7437
11 8 -15 4.0692 -0.5488
11 8 -12 2.2693 -0.0070
11 8 -9 -4.3364 0.2998
11 8 -6 -3.2820 0.3180
11 8 -3 9.0301 0.2754
11 8 0 0.8121 0.2311
11 8 3 -1.3696 0.0923
11 8 6 -4.5092 -0.2183
11 8 9 -4.0211 -0.4767
11 8 12 -1.6590 -0.6585
11 8 15 -0.0629 -0.2277
11 8 18 1.4670 -0.6659
11 8 21 -5.6411 -0.9601
11 9 -16 1.4208 0.4177
11 9 -13 -5.1840 0.3830
11 9 -10 0.2273 0.3420
11 9 -7 4.3262 0.2208
11 9 -4 1.5731 -0.1455
11 9 -1 -4.1556 -0.1317
11 9 2 -1.0590 -0.2048
11 9 5 7.4883 -0.2043
11 9 8 -0.2259 -0.1086
11 9 11 2.9118 -0.0098
11 9 14 -1.1666 0.5338
11 9 17 1.3421 0.4944
11 10 -11 2.4592 0.0120
11 10 -8 3.5777 0.2044
11 10 -5 1.1383 0.2392
11 10 -2 -3.6819 -0.0636
11 10 1 -2.5500 -0.2131
11 10 4 1.9904 -0.3348
11 10 7 -0.7501 -0.3061
11 10 10 -0.5787 -0.0639
11 10 13 0.9771 0.1418
11 11 0 2.9914 -0.0443
11 11 3 -0.0163 0.1038
11 11 6 -5.3479 0.1232
12 0 -30 0.1095 2.5943
12 0 -27 -3.8738 2.2576
12 0 -24 -4.5727 1.5106
12 0 -21 -2.6255 -0.0381
12 0 -18 -7.1114 -1.1575
12 0 -15 5.2644 -2.0733
12 0 -12 -16.3371 -1.9929
12 0 -9 23.5055 -1.3347
12 0 -6 1.4734 -0.2168
12 0 -3 13.0257 1.1258
12 0 0 17.1559 2.1990
12 0 3 -9.9421 2.6561
12 0 6 -8.7458 2.0608
12 0 9 9.3872 0.9893
12 0 12 1.2620 -0.3151
12 0 15 0.2222 -1.7067
12 0 18 -9.7914 -2.2791
12 0 21 -4.1884 -2.0230
12 0 24 2.7014 -0.7834
12 0 27 0.7187 0.3281
12 0 30 -4.2329 1.2808
12 1 -31 1.7013 -0.0902
12 1 -28 -0.0792 -0.5120
12 1 -25 -2.6255 -0.3072
12 1 -22 -6.0044 -0.3642
12 1 -19 -6.9986 -0.2897
12 1 -16 2.6816 0.1868
12 1 -13 18.4356 0.4752
12 1 -10 -20.2680 0.6527
12 1 -7 10.8367 0.6741
12 1 -4 10.2564 0.2278
12 1 -1 3.2800 -0.2254
12 1 2 4.6792 -0.6078
12 1 5 3.3088 -0.7561
12 1 8 3.5667 -0.5587
12 1 11 0.3014 -0.4739
12 1 14 -9.7883 0.0766
12 1 17 6.1176 0.3979
12 1 20 -5.7939 0.4804
12 1 23 3.3807 0.3140
12 1 26 -0.4638 0.3346
12 1 29 -1.0538 0.3394
12 2 -29 1.8881 0.6409
12 2 -26 -2.7986 -1.2791
12 2 -23 -1.5826 -1.2341
12 2 -20 2.4115 -0.4036
12 2 -17 -4.3903 0.4466
12 2 -14 9.9907 0.9274
12 2 -11 5.5068 0.9326
12 2 -8 4.9054 0.7793
12 2 -5 -5.5672 0.2272
12 2 -2 -0.4105 -0.5420
12 2 1 -12.1879 -0.9218
12 2 4 -5.1681 -0.9666
12 2 7 8.5139 -0.9286
12 2 10 -10.8654 -0.5655
12 2 13 -4.0513 -0.0484
12 2 16 -4.6503 0.7162
12 2 19 -2.8677 1.2527
12 2 22 8.6109 1.3543
12 2 25 -3.6139 0.8392
12 2 28 2.0506 -0.0103
12 3 -27 -2.3074 -0.3767
12 3 -24 -1.1530 0.6084
12 3 -21 4.0178 0.8217
12 3 -18 3.2224 0.1760
12 3 -15 3.8006 -0.1803
12 3 -12 -7.6691 -0.3132
12 3 -9 17.5804 -0.5198
12 3 -6 5.5689 -0.4203
12 3 -3 -2.9050 -0.1925
12 3 0 -9.1905 0.1230
12 3 3 -3.4049 0.3467
12 3 6 -5.1922 0.4999
12 3 9 -8.8966 0.6239
12 3 12 2.3109 0.3472
12 3 15 5.4652 -0.0373
12 3 18 -2.2661 -0.4410
12 3 21 -1.7755 -0.5996
12 3 24 7.2671 -0.9211
12 3 27 1.5546 0.0942
12 4 -25 3.6868 0.2892
12 4 -22 -2.6565 -0.6666
12 4 -19 -2.6654 -0.3072
12 4 -16 5.8861 0.3399
12 4 -13 5.8359 0.3035
12 4 -10 3.4322 0.2544
12 4 -7 2.1730 0.1297
12 4 -4 4.0461 -0.1372
12 4 -1 8.7889 -0.3127
12 4 2 10.7859 -0.3808
12 4 5 -2.4134 -0.4106
12 4 8 -2.9553 -0.3050
12 4 11 4.7385 -0.1159
12 4 14 2.6792 0.2346
12 4 17 4.9222 0.6418
12 4 20 0.2208 0.5771
12 4 23 3.2379 -0.3594
12 4 26 -2.5453 -0.8240
12 5 -23 0.3965 -0.4750
12 5 -20 0.6778 0.2914
12 5 -17 1.8028 0.3112
12 5 -14 4.8200 0.0663
12 5 -11 -6.4943 0.0179
12 5 -8 0.5851 0.2093
12 5 -5 -0.0892 0.0764
12 5 -2 -1.9648 -0.1625
12 5 1 -2.1946 -0.1701
12 5 4 5.3766 -0.1053
12 5 7 8.4353 0.0957
12 5 10 1.1553 0.3145
12 5 13 -2.5461 0.0763
12 5 16 -3.1956 0.2281
12 5 19 -2.4732 -0.1406
12 5 22 2.8550 0.8247
12 5 25 -1.8089 0.9918
12 6 -21 -0.6318 0.8000
12 6 -18 1.8397 0.2058
12 6 -15 2.0896 0.1645
12 6 -12 -2.7854 -0.0652
12 6 -9 -2.7081 -0.1367
12 6 -6 -3.6067 -0.1602
12 6 -3 2.4372 -0.1009
12 6 0 -7.2909 -0.1617
12 6 3 -4.5008 -0.1063
12 6 6 1.9501 -0.0548
12 6 9 -1.8035 0.0684
12 6 12 0.2977 0.4355
12 6 15 0.9819 -0.0588
12 6 18 -1.4800 -0.1132
12 6 21 -6.5342 -1.2131
12 7 -19 2.2189 -0.8110
12 7 -16 3.4982 0.0162
12 7 -13 -4.4541 0.3638
12 7 -10 2.5855 0.1434
12 7 -7 4.6455 -0.1689
12 7 -4 -1.2982 -0.3237
12 7 -1 1.4048 -0.4314
12 7 2 3.9360 -0.2563
12 7 5 2.6560 -0.0465
12 7 8 -0.4223 0.1226
12 7 11 1.2204 0.4582
12 7 14 0.4053 -0.3524
12 7 17 -0.4816 0.0804
12 7 20 1.6486 0.6784
12 8 -17 -3.3343 0.3726
12 8 -14 2.0597 0.5313
12 8 -11 1.3393 -0.3446
12 8 -8 -1.6037 -0.4837
12 8 -5 2.1866 -0.1018
12 8 -2 1.1029 0.0679
12 8 1 2.2178 0.2806
12 8 4 2.4425 0.2442
12 8 7 -4.7486 0.3492
12 8 10 -3.2154 0.3645
12 8 13 1.2556 0.7065
12 8 16 -0.1106 0.2868
12 9 -12 -0.2653 -0.1402
12 9 -9 -3.5001 -0.0251
12 9 -6 -2.0215 0.1035
12 9 -3 0.9817 0.1828
12 9 0 -0.6721 0.2407
12 9 3 -3.7151 0.1557
12 9 6 -2.6469 -0.0030
12 9 9 -2.3604 -0.5069
12 9 12 -0.8593 -1.0205
12 10 -4 0.9107 -0.3911
12 10 -1 -2.8615 -0.5474
12 10 2 -3.0810 -0.4817
12 10 5 0.9664 -0.1315
13 0 -29 2.5192 0.8698
13 0 -26 -7.2146 0.7806
13 0 -23 -4.4462 0.4562
13 0 -20 4.3000 0.0366
13 0 -17 -6.5789 -0.6285
13 0 -14 0.1878 -1.3934
13 0 -11 -0.0562 -1.3096
13 0 -8 0.8427 -1.1734
13 0 -5 -18.0962 -0.2057
13 0 -2 9.7140 0.9817
13 0 1 11.9470 1.8078
13 0 4 3.7011 1.8601
13 0 7 2.2826 0.9217
13 0 10 -13.5857 0.2735
13 0 13 -3.4570 -0.6889
13 0 16 1.7068 -1.2397
13 0 19 -2.8102 -1.3560
13 0 22 4.5223 -0.8848
13 0 25 -11.2443 -0.2371
13 0 28 2.8112 0.5113
13 1 -27 -3.2530 -0.9564
13 1 -24 -1.9379 -0.4558
13 1 -21 3.4882 -0.2175
13 1 -18 0.3477 0.1251
13 1 -15 4.5744 0.7239
13 1 -12 -9.9189 0.6427
13 1 -9 3.2437 0.4154
13 1 -6 -11.2402 0.0627
13 1 -3 -7.6740 -0.2058
13 1 0 6.7241 -0.5103
13 1 3 -0.2280 -0.8408
13 1 6 -3.3283 -0.6761
13 1 9 -2.1816 -0.0766
13 1 12 -6.3221 0.4122
13 1 15 2.8949 0.4387
13 1 18 1.6872 0.7300
13 1 21 -1.6463 0.6472
13 1 24 2.3954 -0.0795
13 1 27 2.5334 -0.6137
13 2 -28 -0.6647 -0.7634
13 2 -25 3.9113 0.7302
13 2 -22 1.3359 0.2608
13 2 -19 1.2086 0.1873
13 2 -16 -1.6350 -0.1720
13 2 -13 2.1025 -0.2920
13 2 -10 4.2840 -0.1987
13 2 -7 7.7106 -0.0998
13 2 -4 4.0307 0.0516
13 2 -1 2.7021 0.0103
13 2 2 0.3764 0.1318
13 2 5 -7.9937 0.1562
13 2 8 -3.4758 0.1175
13 2 11 10.6906 -0.0029
13 2 14 4.0114 -0.0720
13 2 17 4.4222 -0.3468
13 2 20 -4.5010 -0.4099
13 2 23 5.8818 0.0121
13 2 26 1.9428 0.1232
13 3 -26 1.4838 -0.7589
13 3 -23 -0.0050 0.1945
13 3 -20 2.4583 0.4007
13 3 -17 -1.6505 -0.0783
13 3 -14 3.5068 -0.3772
13 3 -11 -4.5489 -0.4041
13 3 -8 7.8889 -0.4431
13 3 -5 8.7259 -0.1552
13 3 -2 8.1695 0.3044
13 3 1 -5.0177 0.6286
13 3 4 -6.3483 0.6865
13 3 7 -0.1038 0.5742
13 3 10 -0.0059 0.1416
13 3 13 3.2888 -0.0283
13 3 16 0.9563 -0.5746
13 3 19 -3.2542 -0.7231
13 3 22 4.4135 0.0427
13 3 25 -1.3968 0.1200
13 4 -24 1.1498 -0.3490
13 4 -21 -2.9133 -0.3534
13 4 -18 -3.2331 -0.3306
13 4 -15 3.5829 -0.0476
13 4 -12 0.9455 0.1913
13 4 -9 3.1916 0.2979
13 4 -6 -4.6281 0.3581
13 4 -3 -5.1533 0.2765
13 4 0 -3.1062 0.0158
13 4 3 5.2265 -0.3291
13 4 6 6.6301 -0.6854
13 4 9 -6.6061 -0.6686
13 4 12 -1.4175 -0.4067
13 4 15 3.7919 -0.1413
13 4 18 -0.3912 0.1195
13 4 21 -2.8921 0.3557
13 4 24 -2.1708 0.6246
13 5 -22 -3.4407 0.2224
13 5 -19 0.7785 0.0219
13 5 -16 4.2597 0.1719
13 5 -13 3.0112 -0.0596
13 5 -10 3.1290 -0.1421
13 5 -7 -4.0360 -0.2105
13 5 -4 -4.1493 0.0513
13 5 -1 0.0114 0.0515
13 5 2 -0.8671 0.0470
13 5 5 1.7964 0.0813
13 5 8 4.6526 0.2191
13 5 11 3.5410 0.0129
13 5 14 1.5635 0.1216
13 5 17 2.3347 0.3463
13 5 20 -1.0928 0.4814
13 6 -20 3.5285 1.2165
13 6 -17 1.1727 -0.3989
13 6 -14 1.3040 -0.3822
13 6 -11 -3.9797 -0.0325
13 6 -8 -0.8784 0.0477
13 6 -5 0.4191 -0.0493
13 6 -2 -0.0259 0.1509
13 6 1 -0.6383 0.3029
13 6 4 -2.8464 0.2176
13 6 7 -5.8729 0.0307
13 6 10 0.3844 -0.2060
13 6 13 0.5766 0.4616
13 6 16 -1.4964 0.2109
13 6 19 -2.2974 -0.2171
13 7 -15 -1.3663 0.3373
13 7 -12 0.5243 0.1787
13 7 -9 -2.7937 0.1697
13 7 -6 -0.0074 0.2591
13 7 -3 1.9923 0.1462
13 7 0 -0.0273 -0.1590
13 7 3 0.9346 -0.2655
13 7 6 -1.2785 -0.1723
13 7 9 -2.0169 -0.1635
13 7 12 -0.7319 -0.2929
13 7 15 -1.0218 0.3219
13 8 -10 2.0356 -0.0288
13 8 -7 3.5172 0.3603
13 8 -4 -0.3259 0.1095
13 8 -1 -2.0131 -0.1086
13 8 2 5.2162 -0.0618
13 8 5 2.3333 0.2292
13 8 8 2.0640 0.3395
13 8 11 2.2281 0.6254
13 9 -2 0.6169 -0.0064
13 9 1 -2.6578 0.1119
13 9 4 0.9142 0.2259
14 0 -28 -2.2667 2.8041
14 0 -25 0.3798 2.8291
14 0 -22 0.4315 2.1860
14 0 -19 4.4371 0.4721
14 0 -16 4.3276 -1.0786
14 0 -13 -6.1390 -2.1561
14 0 -10 -12.4940 -2.2868
14 0 -7 -0.7348 -1.6524
14 0 -4 -5.2469 -0.3004
14 0 -1 -1.3127 1.2274
14 0 2 14.0982 2.2480
14 0 5 7.6174 2.4976
14 0 8 -2.5334 2.1438
14 0 11 6.8536 0.8043
14 0 14 2.8718 -0.4428
14 0 17 7.3736 -1.4089
14 0 20 -2.5233 -2.1869
14 0 23 3.3408 -2.0215
14 0 26 -0.6939 -1.5253
14 1 -26 0.1428 -0.8133
14 1 -23 4.3726 -0.8440
14 1 -20 3.6212 -0.1010
14 1 -17 -5.7027 -0.2088
14 1 -14 0.1263 -0.1359
14 1 -11 -0.4226 0.2461
14 1 -8 -0.0588 0.3853
14 1 -5 -8.2753 0.4315
14 1 -2 2.4039 0.2809
14 1 1 3.3805 -0.1666
14 1 4 -9.2178 -0.4106
14 1 7 6.3296 -0.5565
14 1 10 2.7446 -0.5635
14 1 13 2.9863 -0.3243
14 1 16 1.7977 -0.2620
14 1 19 -3.3704 0.1629
14 1 22 8.7650 0.1826
14 1 25 -4.1402 0.9983
14 2 -24 3.7153 1.3242
14 2 -21 -2.8862 -0.5065
14 2 -18 -0.4178 -0.3634
14 2 -15 -5.1979 0.0717
14 2 -12 -2.8521 0.5074
14 2 -9 7.3432 0.5584
14 2 -6 1.3949 0.2843
14 2 -3 -0.5852 -0.0308
14 2 0 -1.9232 -0.2217
14 2 3 -5.7080 -0.4663
14 2 6 -1.1908 -0.5131
14 2 9 -2.4459 -0.4103
14 2 12 0.7416 -0.1891
14 2 15 2.0707 0.2838
14 2 18 4.8748 0.5563
14 2 21 -2.5159 0.0248
14 2 24 -3.5292 -0.8199
14 3 -22 -5.8251 -0.5883
14 3 -19 -1.8807 0.3172
14 3 -16 0.7852 -0.0126
14 3 -13 -0.1255 -0.2044
14 3 -10 3.1653 -0.4055
14 3 -7 -1.6871 -0.3330
14 3 -4 3.5777 -0.2387
14 3 -1 8.9642 -0.0239
14 3 2 3.2518 0.2396
14 3 5 1.2344 0.6535
14 3 8 0.7926 0.5755
14 3 11 1.6160 0.6375
14 3 14 3.1377 0.4476
14 3 17 3.1264 0.1427
14 3 20 -1.1170 0.2515
14 3 23 0.3732 0.6497
14 4 -20 4.5297 0.3485
14 4 -17 -3.5769 0.3237
14 4 -14 2.0436 0.0316
14 4 -11 -3.8995 0.2729
14 4 -8 3.2975 0.3721
14 4 -5 -1.3326 0.1843
14 4 -2 -5.8643 0.2828
14 4 1 -3.6328 0.2194
14 4 4 3.3361 0.0385
14 4 7 2.1094 -0.1153
14 4 10 1.8311 -0.1018
14 4 13 -1.6079 -0.0797
14 4 16 0.3293 -0.4133
14 4 19 -2.4646 -1.2006
14 5 -18 -2.5702 -1.3631
14 5 -15 -1.7279 -0.0729
14 5 -12 2.7581 -0.0980
14 5 -9 1.2087 0.0679
14 5 -6 -3.2551 -0.1806
14 5 -3 -3.6172 -0.2958
14 5 0 -7.0672 -0.2082
14 5 3 -2.4840 -0.0337
14 5 6 -0.0644 0.2678
14 5 9 -3.8851 -0.0859
14 5 12 0.8506 -1.1298
14 5 15 -2.1090 -0.5549
14 5 18 1.4872 -0.1287
14 6 -13 0.4899 -0.1006
14 6 -10 -0.1908 -0.6088
14 6 -7 0.6702 -0.3560
14 6 -4 -1.6074 -0.2672
14 6 -1 3.4578 -0.0144
14 6 2 3.4144 0.2565
14 6 5 -3.1794 0.0816
14 6 8 1.9154 0.2679
14 6 11 -0.2055 0.3046
14 6 14 -1.9907 0.0885
14 7 -11 -0.8057 0.6880
14 7 -8 -2.5143 0.7166
14 7 -5 1.2444 0.9913
14 7 -2 1.1157 0.7440
14 7 1 2.3962 0.3784
14 7 4 2.2134 -0.3033
14 7 7 -3.5673 -1.2314
14 7 10 -0.6469 -1.4207
15 0 -24 1.8736 0.1459
15 0 -21 -4.1152 0.7502
15 0 -18 -1.7951 0.7133
15 0 -15 4.8630 -0.0846
15 0 -12 -2.0328 -0.7027
15 0 -9 -1.0780 -1.3735
15 0 -6 -3.5547 -1.1731
15 0 -3 -5.4800 -0.6818
15 0 0 -9.5045 0.2217
15 0 3 -2.7695 1.2464
15 0 6 7.3654 1.9054
15 0 9 13.3051 1.5847
15 0 12 -5.1013 0.7096
15 0 15 -2.7097 0.0654
15 0 18 6.4150 -0.4118
15 0 21 -2.7670 -0.5318
15 0 24 -1.4576 -0.4135
15 1 -22 -3.0326 -0.5924
15 1 -19 -4.5129 -0.0681
15 1 -16 0.5247 0.6502
15 1 -13 0.3736 0.8630
15 1 -10 5.5796 0.6365
15 1 -7 5.2462 0.4328
15 1 -4 1.8165 -0.0956
15 1 -1 -2.9248 -0.4166
15 1 2 2.9769 -0.7430
15 1 5 6.8157 -0.6890
15 1 8 -1.5925 -0.4922
15 1 11 5.3057 0.1474
15 1 14 3.7902 0.6122
15 1 17 0.4358 0.4969
15 1 20 -1.3532 0.2245
15 1 23 1.3221 0.1174
15 2 -20 3.6888 0.1492
15 2 -17 -1.9941 -0.0424
15 2 -14 1.6165 0.1247
15 2 -11 -6.5027 -0.0916
15 2 -8 2.1626 0.0359
15 2 -5 -0.9669 0.1268
15 2 -2 4.1574 0.1198
15 2 1 5.6669 0.0939
15 2 4 -4.2259 0.0659
15 2 7 -2.0943 0.0232
15 2 10 -4.9089 -0.4488
15 2 13 -3.1059 -0.6935
15 2 16 0.2543 -0.1465
15 2 19 -3.1856 0.6070
15 2 22 2.8417 0.2904
15 3 -18 -1.7579 -0.0364
15 3 -15 -2.1450 -0.1867
15 3 -12 0.1752 -0.2585
15 3 -9 0.0378 -0.5336
15 3 -6 -5.5737 -0.7291
15 3 -3 -3.4186 -0.6930
15 3 0 1.7919 -0.4906
15 3 3 5.4261 -0.1181
15 3 6 2.2221 -0.0213
15 3 9 -4.6635 0.2990
15 3 12 1.2086 0.4290
15 3 15 -2.9752 0.0056
15 3 18 2.0009 0.3357
15 4 -16 -1.0910 0.5363
15 4 -13 1.8654 0.1390
15 4 -10 -0.6276 0.2748
15 4 -7 -0.2131 0.6240
15 4 -4 4.6708 0.4287
15 4 -1 1.2179 0.1253
15 4 2 -1.4340 -0.1934
15 4 5 -1.3142 -0.4938
15 4 8 6.1789 -0.1474
15 4 11 0.6259 0.2629
15 4 14 1.4754 0.7884
15 4 17 3.1712 0.4704
15 5 -14 0.4945 0.5383
15 5 -11 -3.9316 0.2606
15 5 -8 1.5451 0.1991
15 5 -5 2.6895 0.0695
15 5 -2 -0.9916 -0.0449
15 5 1 -0.6212 -0.1968
15 5 4 -4.2005 -0.2184
15 5 7 -3.8346 0.3355
15 5 10 0.2465 0.3769
15 5 13 -2.6726 0.6926
15 6 -9 0.6413 -0.5055
15 6 -6 -0.3716 -0.4843
15 6 -3 -1.8124 -0.6833
15 6 0 0.5663 -0.4856
15 6 3 -1.9187 -0.2672
15 6 6 -2.4328 0.3124
15 6 9 0.5414 1.0133
16 0 -20 2.5852 1.3954
16 0 -17 -5.4728 -0.2047
16 0 -14 9.6940 -2.1589
16 0 -11 0.7070 -2.9168
16 0 -8 -2.3890 -2.4276
16 0 -5 -4.1949 -1.3708
16 0 -2 4.3343 0.0146
16 0 1 -0.2461 1.2643
16 0 4 -7.2685 2.0144
16 0 7 2.6512 2.1492
16 0 10 4.8727 1.1179
16 0 13 -1.4969 0.2288
16 0 16 -1.1388 -0.9867
16 0 19 -5.8324 -2.0948
16 0 22 3.8612 -2.5758
16 1 -21 0.1439 -1.6500
16 1 -18 -0.7979 -0.5974
16 1 -15 2.6426 -0.0110
16 1 -12 0.7032 0.5128
16 1 -9 0.6485 0.9154
16 1 -6 -2.8468 0.9953
16 1 -3 0.8482 0.7698
16 1 0 -4.3239 0.2169
16 1 3 1.6328 -0.2931
16 1 6 3.4963 -0.8598
16 1 9 -1.3906 -0.9522
16 1 12 -4.4984 -0.3041
16 1 15 -3.9199 -0.3657
16 1 18 3.4407 0.5507
16 1 21 0.8284 1.1433
16 2 -19 -4.4477 0.3962
16 2 -16 2.1449 0.1090
16 2 -13 5.0052 0.1231
16 2 -10 -1.0217 0.2386
16 2 -7 -2.8043 0.2526
16 2 -4 5.3078 0.3449
16 2 -1 4.1593 0.1604
16 2 2 4.2891 -0.1858
16 2 5 0.9009 -0.0709
16 2 8 -1.4303 0.4529
16 2 11 -3.0202 0.1239
16 2 14 1.2485 -0.3894
16 2 17 0.7153 -0.7579
16 3 -14 2.8028 -0.0729
16 3 -11 -8.5773 -0.0904
16 3 -8 1.1245 -0.5298
16 3 -5 -1.9444 -0.3342
16 3 -2 -2.7919 -0.0642
16 3 1 3.4397 0.1886
16 3 4 0.1703 0.3200
16 3 7 -1.7070 -0.4151
16 3 10 0.0581 -0.3383
16 3 13 -0.5313 -0.6539
16 3 16 1.1348 -0.3698
16 4 -12 -1.5061 -0.7423
16 4 -9 0.4399 -0.6723
16 4 -6 -0.1772 0.0006
16 4 -3 -1.8791 0.3482
16 4 0 0.4328 0.3792
16 4 3 0.9257 0.2881
16 4 6 0.4533 0.5360
16 4 9 1.9373 0.5467
16 4 12 2.5174 0.1837
16 5 -7 2.2415 1.0808
16 5 -4 5.7872 1.3587
16 5 -1 5.0600 1.2040
16 5 2 -0.4497 0.4553
16 5 5 -5.5667 -0.2931
17 0 -19 -3.0760 1.5317
17 0 -16 -0.8460 1.2054
17 0 -13 7.5077 0.1293
17 0 -10 3.2728 -1.0377
17 0 -7 -2.9698 -1.6895
17 0 -4 3.3167 -1.7011
17 0 -1 3.2931 -1.0890
17 0 2 0.8172 -0.2690
17 0 5 -0.1227 0.7114
17 0 8 -4.8420 1.2708
17 0 11 5.6801 1.8007
17 0 14 4.3352 1.7459
17 0 17 -0.1111 1.2450
17 1 -17 -1.3937 -0.8845
17 1 -14 6.0292 -0.9475
17 1 -11 -6.7185 -0.1496
17 1 -8 -0.0325 0.5442
17 1 -5 1.7056 0.4582
17 1 -2 4.6511 0.4538
17 1 1 -1.0433 0.3403
17 1 4 -9.8471 0.3250
17 1 7 -0.6546 -0.2942
17 1 10 0.8103 -0.3430
17 1 13 -1.6522 -0.3706
17 1 16 -1.6695 -0.5943
17 2 -12 -0.1849 0.6943
17 2 -9 0.1511 0.2136
17 2 -6 1.0313 -0.1205
17 2 -3 -2.4605 -0.3636
17 2 0 -2.3272 -0.2845
17 2 3 1.6739 -0.0369
17 2 6 4.4787 -0.1535
17 2 9 -0.9017 0.1182
17 2 12 0.8486 0.7431
17 3 -10 1.9045 -0.1835
17 3 -7 -1.3875 0.1054
17 3 -4 -1.3848 0.0749
17 3 -1 -3.8760 0.3732
17 3 2 1.1235 0.7029
17 3 5 0.9713 0.4906
17 3 8 4.1471 0.3773
18 0 -12 -4.2199 -1.1294
18 0 -9 3.8401 -1.6596
18 0 -6 5.0700 -1.9564
18 0 -3 1.2423 -1.4137
18 0 0 -4.5786 -0.4392
18 0 3 -0.9089 0.5304
18 0 6 3.5629 1.1571
18 0 9 -1.3838 1.4065
18 0 12 -0.0429 0.9354
18 1 -10 2.9002 0.8439
18 1 -7 0.0402 0.9087
18 1 -4 0.8821 0.6349
18 1 -1 0.3916 0.0856
18 1 2 -1.5808 -0.2806
18 1 5 -3.1613 -0.7569
18 1 8 -1.7891 -1.1432
18 1 11 3.1795 -1.1709
18 2 -5 -5.2126 -0.3215
18 2 -2 -1.7970 -0.1338
18 2 1 -2.0636 -0.1775
18 2 4 -3.4000 -0.1830
19 0 -5 -0.6756 -1.5168
19 0 -2 0.9678 -1.9753
19 0 1 -4.6473 -1.9187
19 0 4 -5.3085 -1.2556
19 0 7 -0.1957 -0.0940
0 0 0 0.0 0.0
;
_olex2_submission_special_instructions 'No special instructions were received'
_oxdiff_exptl_absorpt_empirical_details
;
Empirical correction (ABSPACK) includes:
- Absorption correction using spherical harmonics
- Frame scaling
- Detector area scaling
;
_oxdiff_exptl_absorpt_empirical_full_max 1.320
_oxdiff_exptl_absorpt_empirical_full_min 0.799
loop_
_space_group_symop_operation_xyz
'x, y, z'
'-y, x-y, z'
'-x+y, -x, z'
'y, x, -z'
'x-y, -y, -z'
'-x, -x+y, -z'
'x+2/3, y+1/3, z+1/3'
'-y+2/3, x-y+1/3, z+1/3'
'-x+y+2/3, -x+1/3, z+1/3'
'y+2/3, x+1/3, -z+1/3'
'x-y+2/3, -y+1/3, -z+1/3'
'-x+2/3, -x+y+1/3, -z+1/3'
'x+1/3, y+2/3, z+2/3'
'-y+1/3, x-y+2/3, z+2/3'
'-x+y+1/3, -x+2/3, z+2/3'
'y+1/3, x+2/3, -z+2/3'
'x-y+1/3, -y+2/3, -z+2/3'
'-x+1/3, -x+y+2/3, -z+2/3'
'-x, -y, -z'
'y, -x+y, -z'
'x-y, x, -z'
'-y, -x, z'
'-x+y, y, z'
'x, x-y, z'
'-x+2/3, -y+1/3, -z+1/3'
'y+2/3, -x+y+1/3, -z+1/3'
'x-y+2/3, x+1/3, -z+1/3'
'-y+2/3, -x+1/3, z+1/3'
'-x+y+2/3, y+1/3, z+1/3'
'x+2/3, x-y+1/3, z+1/3'
'-x+1/3, -y+2/3, -z+2/3'
'y+1/3, -x+y+2/3, -z+2/3'
'x-y+1/3, x+2/3, -z+2/3'
'-y+1/3, -x+2/3, z+2/3'
'-x+y+1/3, y+2/3, z+2/3'
'x+1/3, x-y+2/3, z+2/3'
loop_
_atom_site_label
_atom_site_type_symbol
_atom_site_fract_x
_atom_site_fract_y
_atom_site_fract_z
_atom_site_U_iso_or_equiv
_atom_site_adp_type
_atom_site_occupancy
_atom_site_site_symmetry_order
_atom_site_calc_flag
_atom_site_refinement_flags_posn
_atom_site_refinement_flags_adp
_atom_site_refinement_flags_occupancy
Cu01 Cu 1.14330(2) 0.85670(2) 0.30179(2) 0.02064(18) Uani 1 2 d S T P
O002 O 1.07712(10) 0.77466(11) 0.38306(4) 0.0379(4) Uani 1 1 d . . .
O003 O 1.03815(10) 0.81507(11) 0.32974(4) 0.0390(4) Uani 1 1 d . . .
N004 N 0.76862(8) 0.53723(16) 0.58431(6) 0.0348(6) Uani 1 2 d S T P
H00A H 0.7909 0.5047 0.5857 0.042 Uiso 0.5 1 calc R . .
H00B H 0.7139 0.5047 0.5857 0.042 Uiso 0.5 1 calc R . .
C005 C 0.83015(11) 0.6603(2) 0.47556(8) 0.0335(7) Uani 1 2 d S T P
C006 C 1.02690(14) 0.78571(14) 0.36374(6) 0.0308(5) Uani 1 1 d . . .
C007 C 0.89028(11) 0.7806(2) 0.36387(8) 0.0344(7) Uani 1 2 d S T P
H007 H 0.9026 0.8052 0.3394 0.041 Uiso 1 2 calc RS T P
C008 C 0.94554(14) 0.76209(15) 0.38220(6) 0.0347(5) Uani 1 1 d . . .
C009 C 0.78875(9) 0.57750(19) 0.54751(8) 0.0325(7) Uani 1 2 d S T P
C00A C 0.92613(15) 0.72405(16) 0.41853(6) 0.0379(5) Uani 1 1 d . . .
H00C H 0.9639 0.7126 0.4307 0.045 Uiso 1 1 calc R . .
C00B C 0.85130(11) 0.7026(2) 0.43733(9) 0.0356(7) Uani 1 2 d S T P
C00C C 0.7363(2) 0.5979(3) 0.52972(8) 0.0688(10) Uani 1 1 d . . .
H00D H 0.6859 0.5842 0.5413 0.083 Uiso 1 1 calc R . .
C00D C 0.7579(2) 0.6393(3) 0.49419(9) 0.0725(11) Uani 1 1 d . . .
H00E H 0.7213 0.6531 0.4827 0.087 Uiso 1 1 calc R . .
loop_
_atom_site_aniso_label
_atom_site_aniso_U_11
_atom_site_aniso_U_22
_atom_site_aniso_U_33
_atom_site_aniso_U_23
_atom_site_aniso_U_13
_atom_site_aniso_U_12
Cu01 0.0295(2) 0.0295(2) 0.0101(2) -0.00001(6) 0.00001(6) 0.02015(19)
O002 0.0350(8) 0.0641(11) 0.0236(7) 0.0148(7) 0.0080(6) 0.0316(8)
O003 0.0348(8) 0.0701(11) 0.0217(7) 0.0154(7) 0.0082(6) 0.0336(8)
N004 0.0554(13) 0.0258(12) 0.0132(11) -0.0029(9) -0.0014(5) 0.0129(6)
C005 0.0361(12) 0.0468(18) 0.0211(14) 0.0071(13) 0.0036(6) 0.0234(9)
C006 0.0360(12) 0.0435(12) 0.0218(10) 0.0033(9) 0.0034(8) 0.0265(10)
C007 0.0354(11) 0.054(2) 0.0201(13) 0.0105(13) 0.0053(6) 0.0269(10)
C008 0.0356(12) 0.0534(14) 0.0223(10) 0.0104(9) 0.0071(9) 0.0278(11)
C009 0.0483(14) 0.0300(15) 0.0131(12) -0.0032(11) -0.0016(5) 0.0150(8)
C00A 0.0400(12) 0.0610(15) 0.0250(10) 0.0136(10) 0.0060(9) 0.0345(12)
C00B 0.0352(11) 0.056(2) 0.0224(15) 0.0093(13) 0.0047(7) 0.0282(10)
C00C 0.0667(19) 0.123(3) 0.0359(14) 0.0383(17) 0.0259(14) 0.062(2)
C00D 0.072(2) 0.137(3) 0.0422(15) 0.0493(19) 0.0280(15) 0.078(2)
loop_
_atom_type_symbol
_atom_type_description
_atom_type_scat_dispersion_real
_atom_type_scat_dispersion_imag
_atom_type_scat_source
C C 0.0181 0.0091 'International Tables Vol C Tables 4.2.6.8 and 6.1.1.4'
H H 0.0000 0.0000 'International Tables Vol C Tables 4.2.6.8 and 6.1.1.4'
Cu Cu -1.9646 0.5888 'International Tables Vol C Tables 4.2.6.8 and 6.1.1.4'
N N 0.0311 0.0180 'International Tables Vol C Tables 4.2.6.8 and 6.1.1.4'
O O 0.0492 0.0322 'International Tables Vol C Tables 4.2.6.8 and 6.1.1.4'
loop_
_geom_angle_atom_site_label_1
_geom_angle_atom_site_label_2
_geom_angle_atom_site_label_3
_geom_angle
_geom_angle_site_symmetry_1
_geom_angle_site_symmetry_3
O002 Cu01 Cu01 84.12(4) 31_765 31_765
O002 Cu01 Cu01 84.12(4) 16_545 31_765
O002 Cu01 O002 89.22(11) 16_545 31_765
O002 Cu01 N004 97.69(6) 16_545 15_664
O002 Cu01 N004 97.69(6) 31_765 15_664
O003 Cu01 Cu01 84.01(4) . 31_765
O003 Cu01 Cu01 84.01(4) 22_775 31_765
O003 Cu01 O002 89.95(8) . 16_545
O003 Cu01 O002 168.13(6) . 31_765
O003 Cu01 O002 89.95(8) 22_775 31_765
O003 Cu01 O002 168.13(6) 22_775 16_545
O003 Cu01 O003 88.43(11) . 22_775
O003 Cu01 N004 94.16(6) . 15_664
O003 Cu01 N004 94.16(6) 22_775 15_664
N004 Cu01 Cu01 177.44(7) 15_664 31_765
C006 O002 Cu01 122.79(13) . 31_765
C006 O003 Cu01 122.81(14) . .
Cu01 N004 H00A 108.4 8_655 .
Cu01 N004 H00B 108.4 8_655 .
H00A N004 H00B 107.5 . .
C009 N004 Cu01 115.46(19) . 8_655
C009 N004 H00A 108.4 . .
C009 N004 H00B 108.4 . .
C00D C005 C00B 122.21(15) 23_655 .
C00D C005 C00B 122.21(15) . .
C00D C005 C00D 115.6(3) . 23_655
O002 C006 O003 126.1(2) . .
O002 C006 C008 117.42(17) . .
O003 C006 C008 116.46(18) . .
C008 C007 H007 120.1 23_655 .
C008 C007 H007 120.1 . .
C008 C007 C008 119.8(3) . 23_655
C007 C008 C006 120.21(19) . .
C007 C008 C00A 119.8(2) . .
C00A C008 C006 119.93(19) . .
C00C C009 N004 120.76(15) . .
C00C C009 N004 120.76(15) 23_655 .
C00C C009 C00C 118.5(3) . 23_655
C008 C00A H00C 119.1 . .
C008 C00A C00B 121.8(2) . .
C00B C00A H00C 119.1 . .
C00A C00B C005 121.55(14) 23_655 .
C00A C00B C005 121.56(14) . .
C00A C00B C00A 116.9(3) 23_655 .
C009 C00C H00D 120.0 . .
C009 C00C C00D 120.1(3) . .
C00D C00C H00D 120.0 . .
C005 C00D C00C 122.9(3) . .
C005 C00D H00E 118.6 . .
C00C C00D H00E 118.6 . .
loop_
_geom_bond_atom_site_label_1
_geom_bond_atom_site_label_2
_geom_bond_distance
_geom_bond_site_symmetry_2
Cu01 Cu01 2.6433(7) 31_765
Cu01 O002 1.9665(15) 31_765
Cu01 O002 1.9665(15) 16_545
Cu01 O003 1.9612(15) 22_775
Cu01 O003 1.9611(15) .
Cu01 N004 2.199(2) 15_664
O002 Cu01 1.9665(15) 31_765
O002 C006 1.246(3) .
O003 C006 1.264(3) .
N004 Cu01 2.199(2) 8_655
N004 H00A 0.8900 .
N004 H00B 0.8900 .
N004 C009 1.423(4) .
C005 C00B 1.482(4) .
C005 C00D 1.360(3) .
C005 C00D 1.360(3) 23_655
C006 C008 1.493(3) .
C007 H007 0.9300 .
C007 C008 1.390(3) .
C007 C008 1.390(3) 23_655
C008 C00A 1.392(3) .
C009 C00C 1.359(3) .
C009 C00C 1.359(3) 23_655
C00A H00C 0.9300 .
C00A C00B 1.402(3) .
C00B C00A 1.402(3) 23_655
C00C H00D 0.9300 .
C00C C00D 1.393(4) .
C00D H00E 0.9300 .
loop_
_smtbx_masks_void_nr
_smtbx_masks_void_average_x
_smtbx_masks_void_average_y
_smtbx_masks_void_average_z
_smtbx_masks_void_volume
_smtbx_masks_void_count_electrons
1 -0.146 -0.289 -0.021 5998.0 1835.2
