#------------------------------------------------------------------------------
#$Date: 2019-11-14 09:28:08 +0200 (Thu, 14 Nov 2019) $
#$Revision: 227760 $
#$URL: file:///home/coder/svn-repositories/cod/cif/1/55/29/1552903.cif $
#------------------------------------------------------------------------------
#
# This file is available in the Crystallography Open Database (COD),
# http://www.crystallography.net/
#
# All data on this site have been placed in the public domain by the
# contributors.
#
data_1552903
loop_
_publ_author_name
'Asgari, Mehrdad'
'Jawahery, Sudi'
'Bloch, Eric D.'
'Hudson, Matthew R.'
'Flacau, Roxana'
'Vlaisavljevich, Bess'
'Long, Jeffrey R.'
'Brown, Craig M.'
'Queen, Wendy L.'
_publ_section_title
;
 An experimental and computational study of CO<sub>2</sub> adsorption in
 the sodalite-type M-BTT (M = Cr, Mn, Fe, Cu) metal-organic frameworks
 featuring open metal sites.
;
_journal_issue                   20
_journal_name_full               'Chemical science'
_journal_page_first              4579
_journal_page_last               4588
_journal_paper_doi               10.1039/c8sc00971f
_journal_volume                  9
_journal_year                    2018
_chemical_formula_sum            'C25.75 H8 Cl Cr4 N32 O4.45'
_chemical_formula_weight         1080.17
_space_group_IT_number           221
_space_group_name_Hall           '-P 4 2 3'
_space_group_name_H-M_alt        'P m -3 m'
_symmetry_cell_setting           cubic
_symmetry_space_group_name_Hall  '-P 4 2 3'
_symmetry_space_group_name_H-M   'P m -3 m'
_audit_creation_date             2016-03-08T11:11
_audit_creation_method           'from EXP file using GSAS2CIF'
_audit_update_record
;
2017-10-25 deposited with the CCDC.
2018-04-23 downloaded from the CCDC.
;
_cell_angle_alpha                90.0
_cell_angle_beta                 90.0
_cell_angle_gamma                90.0
_cell_formula_units_Z            3
_cell_length_a                   18.7761(6)
_cell_length_b                   18.7761
_cell_length_c                   18.7761
_cell_measurement_temperature    30
_cell_measurement_theta_max      117
_cell_measurement_theta_min      5
_cell_volume                     6619.4(2)
_computing_structure_refinement  GSAS
_diffrn_ambient_temperature      30
_diffrn_measurement_device_type  C2
_diffrn_radiation_probe          neutron
_diffrn_radiation_wavelength     2.37039
_exptl_absorpt_correction_T_max  1.00000
_exptl_absorpt_correction_T_min  1.00000
_exptl_absorpt_process_details
;   GSAS Absorption/surface roughness correction: function number 0
 No correction is applied.
;
_pd_block_id                     2016-03-08T11:11|1CO2||c2
_pd_calc_method                  'Rietveld Refinement'
_pd_instr_location               ' ?'
_pd_meas_2theta_range_inc        0.1002
_pd_meas_2theta_range_max        117.0758
_pd_meas_2theta_range_min        2.9001
_pd_meas_number_of_points        1140
_pd_phase_name
'from F:/Gas Storage Research/Jeff Long/Fe-BTT with Kenji/0p5 wt %/'
_pd_proc_2theta_range_inc        0.1002
_pd_proc_2theta_range_max        116.7141
_pd_proc_2theta_range_min        2.5385
_pd_proc_info_datetime           2016-03-08T11:11:49
_pd_proc_info_excluded_regions   ' ?'
_pd_proc_ls_background_function
;   GSAS Background function number 1 with 16 terms.
 Shifted Chebyshev function of 1st kind
      1:    2374.65     2:   -509.536     3:    174.214     4:   -8.44540    
      5:    77.9087     6:    26.6667     7:   -13.0880     8:   -20.3936    
      9:   -16.7192    10:    34.8309    11:    14.8467    12:   -14.3354    
     13:   -5.46108    14:    1.58679    15:    13.0466    16:    26.5208    
;
_pd_proc_ls_peak_cutoff          0.00100
_pd_proc_ls_profile_function
;
 CW Profile function number 3 with  19 terms
 Pseudovoigt profile coefficients as parameterized in
 P. Thompson, D.E. Cox & J.B. Hastings (1987). J. Appl. Cryst.,20,79-83.
 Asymmetry correction of L.W. Finger, D.E. Cox & A. P. Jephcoat (1994).
 J. Appl. Cryst.,27,892-900.
 #1(GU)   =  972.824 #2(GV)   = ******** #3(GW)   =  326.988
 #4(GP)   =  317.388 #5(LX)   =    0.000 #6(LY)   =   13.069
 #7(S/L)  =   0.0402 #8(H/L)  =   0.0058
 #9(trns) =     0.00 #10(shft)=   0.0000
 #11(stec)=     0.00 #12(ptec)=     0.00 #13(sfec)=     0.00
 #14(L11) =    0.000 #15(L22) =    0.000 #16(L33) =    0.000
 #17(L12) =    0.000 #18(L13) =    0.000 #19(L23) =    0.000
 Peak tails are ignored  where the intensity is below 0.0010 times the peak
   Aniso. broadening axis   0.0   0.0   1.0
;
_pd_proc_ls_prof_R_factor        0.0284
_pd_proc_ls_prof_wR_expected     0.0173
_pd_proc_ls_prof_wR_factor       0.0360
_pd_proc_number_of_points        1140
_pd_spec_mounting                ' ?'
_refine_ls_goodness_of_fit_all   2.13
_refine_ls_matrix_type           full
_refine_ls_number_parameters     45
_refine_ls_number_restraints     7
_refine_ls_R_Fsqd_factor         0.05807
_refine_ls_shift/su_max          0.04
_refine_ls_shift/su_mean         0.01
_reflns_d_resolution_high        1.396
_reflns_d_resolution_low         18.776
_reflns_limit_h_max              14
_reflns_limit_h_min              1
_reflns_limit_k_max              9
_reflns_limit_k_min              0
_reflns_limit_l_max              8
_reflns_limit_l_min              0
_reflns_number_total             310
_cod_data_source_file            c8sc00971f3.cif
_cod_data_source_block           1CO2_publ
_cod_depositor_comments
;
The following automatic conversions were performed:

'_geom_bond_publ_flag' value 'N' changed to 'n' according to
/home/data/users/saulius/crontab/automatic-downloads/current/RSC/lib/dictionaries/cif_core.dic
dictionary named 'cif_core.dic' version 2.4.2 from 2011-04-26 (50
times).

'_geom_angle_publ_flag' value 'N' changed to 'n' according to
/home/data/users/saulius/crontab/automatic-downloads/current/RSC/lib/dictionaries/cif_core.dic
dictionary named 'cif_core.dic' version 2.4.2 from 2011-04-26 (46
times).

Automatic conversion script
Id: cif_fix_values 5376 2017-05-30 11:51:03Z andrius 
;
_cod_original_cell_volume        6619.4(6)
_cod_database_code               1552903
_gsas_exptl_extinct_corr_t_min   1.00000
_gsas_exptl_extinct_corr_t_max   1.00000
loop_
_symmetry_equiv_pos_site_id
_symmetry_equiv_pos_as_xyz
1 +x,+y,+z
2 +z,+x,+y
3 +y,+z,+x
4 +x,+y,-z
5 -z,+x,+y
6 +y,-z,+x
7 -z,+x,-y
8 -y,-z,+x
9 +y,-z,-x
10 -x,+y,-z
11 -z,-x,+y
12 +x,-y,-z
13 +y,+x,+z
14 +z,+y,+x
15 +x,+z,+y
16 +y,+x,-z
17 -z,+y,+x
18 +x,-z,+y
19 -z,+y,-x
20 -x,-z,+y
21 +x,-z,-y
22 -y,+x,-z
23 -z,-y,+x
24 +y,-x,-z
-1 -x,-y,-z
-2 -z,-x,-y
-3 -y,-z,-x
-4 -x,-y,+z
-5 +z,-x,-y
-6 -y,+z,-x
-7 +z,-x,+y
-8 +y,+z,-x
-9 -y,+z,+x
-10 +x,-y,+z
-11 +z,+x,-y
-12 -x,+y,+z
-13 -y,-x,-z
-14 -z,-y,-x
-15 -x,-z,-y
-16 -y,-x,+z
-17 +z,-y,-x
-18 -x,+z,-y
-19 +z,-y,+x
-20 +x,+z,-y
-21 -x,+z,+y
-22 +y,-x,+z
-23 +z,+y,-x
-24 -y,+x,+z
loop_
_atom_site_type_symbol
_atom_site_label
_atom_site_fract_x
_atom_site_fract_y
_atom_site_fract_z
_atom_site_occupancy
_atom_site_thermal_displace_type
_atom_site_U_iso_or_equiv
_atom_site_symmetry_multiplicity
Cr Cr1 0.1340(16) 0.5 0.0 1.0 Uiso 0.010(3) 12
C C1 0.1476(5) 0.3328(8) -0.1476(5) 1.0 Uiso 0.0115(29) 24
C C2 0.1811(5) 0.2703(6) -0.1811(5) 1.0 Uiso 0.0115(29) 24
C C3 0.2440(5) 0.2440(5) -0.1484(6) 1.0 Uiso 0.0115(29) 24
Cl Cl1 0.0 0.5 0.0 1.0 Uiso 0.124(15) 3
N N1 0.13139(30) 0.42209(34) -0.07877(30) 1.0 Uiso 0.0103(14) 48
N N2 0.1748(4) 0.36949(32) -0.0924(4) 1.0 Uiso 0.0103(14) 48
H H1 0.2635(7) 0.2635(7) -0.1027(9) 1.0 Uiso 0.02(1) 24
O Os 0.2334(19) 0.5 0.0 0.22 Uiso 0.004 12
C Ca 0.2892(21) 0.4385(8) 0.0 0.218(5) Uiso 0.012(3) 24
O Oa 0.2767(18) 0.5 0.0 0.436(10) Uiso 0.018(2) 12
O Ob 0.3057(27) 0.3784(11) 0.0 0.218(5) Uiso 0.012(2) 24
loop_
_atom_type_symbol
_atom_type_number_in_cell
_atom_type_scat_length_neutron
_atom_type_scat_source
Cr 12.0 0.3635 International_Tables_Vol_C
C 77.237 0.6646 International_Tables_Vol_C
Cl 3.0 0.9577 International_Tables_Vol_C
N 96.0 0.9360 International_Tables_Vol_C
H 24.0 -0.3739 International_Tables_Vol_C
O 13.353 0.5803 International_Tables_Vol_C
loop_
_geom_angle_atom_site_label_1
_geom_angle_atom_site_label_2
_geom_angle_atom_site_label_3
_geom_angle
_geom_angle_site_symmetry_1
_geom_angle_site_symmetry_3
_geom_angle_publ_flag
Cl1 Cr1 N1 88.6(9) 1_555 1_555 n
Cl1 Cr1 N1 88.6(9) 1_555 4_555 n
Cl1 Cr1 N1 88.6(9) 1_555 12_565 n
Cl1 Cr1 N1 88.6(9) 1_555 -10_565 n
Cl1 Cr1 Os 180.0 1_555 1_555 n
N1 Cr1 N1 90.6(4) 1_555 4_555 n
N1 Cr1 N1 177.3(17) 1_555 12_565 n
N1 Cr1 N1 89.3(4) 1_555 -10_565 n
N1 Cr1 Os 91.4(9) 1_555 1_555 n
N1 Cr1 N1 89.3(4) 4_555 12_565 n
N1 Cr1 N1 177.3(17) 4_555 -10_565 n
N1 Cr1 Os 91.4(9) 4_555 1_555 n
N1 Cr1 N1 90.6(4) 12_565 -10_565 n
N1 Cr1 Os 91.4(9) 12_565 1_555 n
N1 Cr1 Os 91.4(9) -10_565 1_555 n
C2 C1 N2 125.1(6) 1_555 1_555 n
C2 C1 N2 125.1(6) 1_555 19_555 n
N2 C1 N2 108.8(13) 1_555 19_555 n
C1 C2 C3 116.6(6) 1_555 1_555 n
C1 C2 C3 116.6(6) 1_555 7_555 n
C3 C2 C3 126.8(12) 1_555 7_555 n
C2 C3 C2 113.0(12) 1_555 9_555 n
C2 C3 H1 123.2(6) 1_555 1_555 n
C2 C3 H1 123.2(6) 9_555 1_555 n
Cr1 Cl1 Cr1 180.0 1_555 10_555 n
Cr1 Cl1 Cr1 90.0 1_555 14_555 n
Cr1 Cl1 Cr1 90.0 1_555 19_555 n
Cr1 Cl1 Cr1 90.0 10_555 14_555 n
Cr1 Cl1 Cr1 90.0 10_555 19_555 n
Cr1 Cl1 Cr1 180.0 14_555 19_555 n
Cr1 N1 N1 121.3(7) 1_555 19_555 n
Cr1 N1 N2 131.0(9) 1_555 1_555 n
N1 N1 N2 107.6(5) 19_555 1_555 n
C1 N2 N1 107.6(9) 1_555 1_555 n
Cr1 Os Ca 132.2(16) 1_555 1_555 n
Cr1 Os Ca 132.2(16) 1_555 12_565 n
Cr1 Os Oa 180.0 1_555 1_555 n
Ca Os Ca 95.6(33) 1_555 12_565 n
Ca Os Oa 47.8(16) 1_555 1_555 n
Ca Os Oa 47.8(16) 12_565 1_555 n
Os Ca Oa 30.7(13) 1_555 1_555 n
Os Ca Ob 153(4) 1_555 1_555 n
Oa Ca Ob 176(5) 1_555 1_555 n
Os Oa Ca 101.5(25) 1_555 1_555 n
Os Oa Ca 101.5(25) 1_555 12_565 n
Ca Oa Ca 157(5) 1_555 12_565 n
loop_
_geom_bond_atom_site_label_1
_geom_bond_atom_site_label_2
_geom_bond_distance
_geom_bond_site_symmetry_2
_geom_bond_publ_flag
Cr1 Cl1 2.517(30) 1_555 n
Cr1 N1 2.081(5) 1_555 n
Cr1 N1 2.081(5) 4_555 n
Cr1 N1 2.081(5) 12_565 n
Cr1 N1 2.081(5) -10_565 n
Cr1 Os 1.865(21) 1_555 n
Cr1 Oa 2.678(20) 1_555 n
C1 C2 1.471(16) 1_555 n
C1 N1 2.139(14) 1_555 n
C1 N1 2.139(14) 19_555 n
C1 N2 1.345(8) 1_555 n
C1 N2 1.345(8) 19_555 n
C2 C1 1.471(16) 1_555 n
C2 C2 2.369(20) 7_555 n
C2 C2 2.369(20) 9_555 n
C2 C3 1.420(7) 1_555 n
C2 C3 1.420(7) 7_555 n
C3 C2 1.420(7) 1_555 n
C3 C2 1.420(7) 9_555 n
C3 H1 1.001(18) 1_555 n
Cl1 Cr1 2.517(30) 1_555 n
Cl1 Cr1 2.517(30) 10_555 n
Cl1 Cr1 2.517(30) 14_555 n
Cl1 Cr1 2.517(30) 19_555 n
N1 Cr1 2.081(5) 1_555 n
N1 C1 2.139(14) 1_555 n
N1 N1 1.397(12) 19_555 n
N1 N2 1.306(7) 1_555 n
N1 N2 2.182(7) 19_555 n
N2 C1 1.345(8) 1_555 n
N2 N1 1.306(7) 1_555 n
N2 N1 2.182(7) 19_555 n
N2 N2 2.188(14) 19_555 n
H1 C3 1.001(18) 1_555 n
Os Cr1 1.865(21) 1_555 n
Os Ca 1.560(30) 1_555 n
Os Ca 1.560(30) 12_565 n
Os Oa 0.813(29) 1_555 n
Ca Os 1.560(30) 1_555 n
Ca Ca 2.311(29) 12_565 n
Ca Oa 1.179(10) 1_555 n
Ca Ob 1.169(11) 1_555 n
Oa Cr1 2.678(20) 1_555 n
Oa Os 0.813(29) 1_555 n
Oa Ca 1.179(10) 1_555 n
Oa Ca 1.179(10) 12_565 n
Oa Ob 2.347(15) 1_555 n
Oa Ob 2.347(15) 12_565 n
Ob Ca 1.169(11) 1_555 n
Ob Oa 2.347(15) 1_555 n
loop_
_pd_meas_counts_total
_pd_proc_ls_weight
_pd_proc_intensity_bkg_calc
_pd_calc_intensity_total
3628.0 0.0 2602.65112 .
3731.0 0.0 2651.89355 .
3766.0 0.0 2697.38379 .
3501.0 0.0 2739.33691 .
3429.0 0.0 2777.95752 .
3592.0 0.0 2813.44141 .
3278.0 0.0 2845.97485 .
3434.0 0.0 2875.73584 .
3457.0 0.0 2902.89307 .
3293.0 0.0 2927.60791 .
3437.0 0.0 2950.03345 .
3413.0 0.0 2970.31567 .
3317.0 0.0 2988.59277 .
3332.0 0.0 3004.99707 .
3218.0 0.0 3019.65259 .
3190.0 0.0 3032.67847 .
3227.0 0.0 3044.18677 .
3275.0 0.0 3054.28442 .
3141.0 0.0 3063.07178 .
3229.0 0.0 3070.64478 .
3114.0 0.0 3077.09326 .
3160.0 0.0003165 3082.50293 3082.50610
3001.0 0.0003332 3086.95386 3086.95703
3135.0 0.0003190 3090.52246 3090.52515
3167.0 0.0003158 3093.27979 3093.28223
3089.0 0.0003237 3095.29346 3095.29590
3047.0 0.0003282 3096.62695 3096.62915
3100.0 0.0003226 3097.33984 3097.34180
3025.0 0.0003306 3097.48779 3097.48950
3049.0 0.0003280 3097.12378 3097.12524
3146.0 0.0003179 3096.29639 3096.29761
3102.0 0.0003224 3095.05200 3111.07520
3173.0 0.0003152 3093.43359 3111.86865
3031.0 0.0003299 3091.48071 3113.08398
3128.0 0.0003197 3089.23120 3115.82983
3119.0 0.0003206 3086.71973 3124.42456
3100.0 0.0003226 3083.97852 3154.45801
3298.0 0.0003032 3081.03735 3253.94165
3424.0 0.0002921 3077.92383 3545.49048
4173.0 0.0002396 3074.66382 4283.90430
5744.0 0.0001741 3071.28076 5887.06787
8368.0 0.0001195 3067.79590 8856.06152
13636.0 0.0000733 3064.22949 13507.39551
20150.0 0.0000496 3060.59961 19559.40039
26867.0 0.0000372 3056.92261 25825.29102
31525.0 0.0000317 3053.21362 30399.80078
32564.0 0.0000307 3049.48608 31498.13867
28638.0 0.0000349 3045.75244 28535.38086
23117.0 0.0000433 3042.02319 22611.87305
16308.0 0.0000613 3038.30835 15865.37891
10686.0 0.0000936 3034.61670 10194.82324
6602.0 0.0001515 3030.95532 6434.66992
4366.0 0.0002290 3027.33130 4414.29004
3352.0 0.0002983 3023.74976 3520.87891
3218.0 0.0003108 3020.21606 3190.24976
3171.0 0.0003154 3016.73364 3083.87866
3037.0 0.0003293 3013.30615 3050.52271
3035.0 0.0003295 3009.93604 3009.93164
3021.0 0.0003310 3006.62524 3006.62085
3110.0 0.0003215 3003.37500 3003.37036
2989.0 0.0003346 3000.18604 3000.18140
3082.0 0.0003245 2997.05859 2997.05396
2998.0 0.0003336 2993.99268 3011.26953
3189.0 0.0003136 2990.98779 3010.95068
2871.0 0.0003483 2988.04248 3011.43408
2911.0 0.0003435 2985.15576 3013.40601
2970.0 0.0003367 2982.32593 3019.65283
3021.0 0.0003310 2979.55127 3041.47412
3135.0 0.0003190 2976.82910 3118.37109
3192.0 0.0003133 2974.15747 3363.41235
3914.0 0.0002555 2971.53369 4033.22876
5591.0 0.0001789 2968.95508 5568.39746
8475.0 0.0001180 2966.41870 8474.63965
13455.0 0.0000743 2963.92139 12935.57813
18369.0 0.0000544 2961.46021 18296.99609
23398.0 0.0000427 2959.03198 22920.17578
24438.0 0.0000409 2956.63354 24872.34570
22225.0 0.0000450 2954.26147 23183.52734
18045.0 0.0000554 2951.91284 18616.96875
13047.0 0.0000766 2949.58398 13121.37109
8582.0 0.0001165 2947.27148 8488.11035
5515.0 0.0001813 2944.97241 5485.75781
3747.0 0.0002669 2942.68359 3937.02393
3249.0 0.0003078 2940.40161 3287.93872
2963.0 0.0003375 2938.12329 3061.49341
3085.0 0.0003241 2935.84570 3017.30957
2962.0 0.0003376 2933.56592 2998.76855
3130.0 0.0003195 2931.28076 2993.50000
2935.0 0.0003407 2928.98755 2992.94043
3221.0 0.0003105 2926.68384 2996.61206
3127.0 0.0003198 2924.36646 2993.37817
3018.0 0.0003313 2922.03345 3046.86792
3131.0 0.0003194 2919.68213 3229.68188
3642.0 0.0002746 2917.31006 3793.46167
5107.0 0.0001958 2914.91528 5259.23828
8360.0 0.0001196 2912.49585 8382.11523
13740.0 0.0000728 2910.04956 13719.87402
21097.0 0.0000474 2907.57471 20813.83008
28120.0 0.0000356 2905.06958 27640.02344
31177.0 0.0000321 2902.53296 31287.86328
28766.0 0.0000348 2899.96313 29875.31445
22879.0 0.0000437 2897.35864 24099.57813
15758.0 0.0000635 2894.71875 16692.23828
10207.0 0.0000980 2892.04224 10341.19727
6322.0 0.0001582 2889.32837 6245.01514
4091.0 0.0002444 2886.57617 4172.40088
3237.0 0.0003089 2883.78491 3329.26440
3099.0 0.0003227 2880.95435 3044.95654
3027.0 0.0003304 2878.08398 2959.13721
3048.0 0.0003281 2875.17334 2930.57910
2946.0 0.0003394 2872.22266 2916.63452
2896.0 0.0003453 2869.23169 2907.09961
2935.0 0.0003407 2866.20044 2900.57397
2882.0 0.0003470 2863.12915 2871.84009
2916.0 0.0003429 2860.01831 2883.09033
2888.0 0.0003463 2856.86792 2909.32764
2957.0 0.0003382 2853.67871 2953.32813
3125.0 0.0003200 2850.45117 3007.02124
3232.0 0.0003094 2847.18628 3049.62305
3283.0 0.0003046 2843.88452 3058.45557
3255.0 0.0003072 2840.54688 3026.42773
2966.0 0.0003372 2837.17432 2968.97656
2961.0 0.0003377 2833.76758 2910.49805
2871.0 0.0003483 2830.32837 2867.21436
2698.0 0.000371 2826.85718 2841.76392
2819.0 0.000355 2823.35571 2828.72754
2702.0 0.000370 2819.82520 2821.87036
2816.0 0.000355 2816.26709 2817.36230
2870.0 0.0003484 2812.68262 2813.62744
2711.0 0.000369 2809.07324 2810.39624
2823.0 0.000354 2805.44067 2808.32715
2766.0 0.000362 2801.78662 2809.21216
2779.0 0.000360 2798.11230 2815.92603
2877.0 0.0003476 2794.41968 2830.55957
2881.0 0.0003471 2790.71021 2851.82593
2923.0 0.0003421 2786.98608 2871.89282
2961.0 0.0003377 2783.24854 2878.41455
2957.0 0.0003382 2779.49976 2865.95581
2941.0 0.0003400 2775.74121 2839.55127
2770.0 0.000361 2771.97485 2810.55078
2876.0 0.0003477 2768.20264 2787.68994
2705.0 0.000370 2764.42627 2773.19824
2737.0 0.000365 2760.64771 2764.89502
2712.0 0.000369 2756.86890 2759.93237
2670.0 0.000375 2753.09131 2757.01880
2655.0 0.000377 2749.31714 2757.73730
2820.0 0.000355 2745.54810 2768.97925
2713.0 0.000369 2741.78613 2806.13232
2955.0 0.0003384 2738.03296 2890.76880
3031.0 0.0003299 2734.29077 3033.74097
3285.0 0.0003044 2730.56079 3208.12354
3586.0 0.0002789 2726.84521 3341.97192
3480.0 0.0002874 2723.14551 3359.51099
3153.0 0.0003172 2719.46387 3247.08081
3058.0 0.0003270 2715.80176 3067.71533
2930.0 0.0003413 2712.16064 2901.94922
2773.0 0.000361 2708.54272 2792.13501
2800.0 0.000357 2704.94922 2735.96021
2777.0 0.000360 2701.38184 2712.03369
2746.0 0.000364 2697.84204 2702.05713
2717.0 0.000368 2694.33179 2696.69165
2705.0 0.000370 2690.85205 2692.57764
2675.0 0.000374 2687.40479 2691.81885
2706.0 0.000370 2683.99097 2688.54761
2693.0 0.000371 2680.61230 2685.43677
2688.0 0.000372 2677.26978 2682.49121
2709.0 0.000369 2673.96484 2679.72925
2742.0 0.000365 2670.69897 2677.18408
2710.0 0.000369 2667.47314 2674.90649
2608.0 0.000383 2664.28857 2672.46753
2711.0 0.000369 2661.14624 2671.12891
2661.0 0.000376 2658.04736 2671.00342
2744.0 0.000364 2654.99268 2675.25586
2585.0 0.000387 2651.98340 2696.76489
2792.0 0.000358 2649.02051 2775.92822
2988.0 0.0003347 2646.10449 3010.57861
3463.0 0.0002888 2643.23633 3514.53564
4365.0 0.0002291 2640.41699 4349.39697
5222.0 0.0001915 2637.64673 5329.28711
5894.0 0.0001697 2634.92651 6005.68750
5815.0 0.0001720 2632.25684 5965.16699
4932.0 0.0002028 2629.63818 5231.93994
4153.0 0.0002408 2627.07129 4245.37842
3373.0 0.0002965 2624.55615 3439.50952
2969.0 0.0003368 2622.09375 2973.74170
2764.0 0.000362 2619.68359 2786.51904
2798.0 0.000357 2617.32690 2790.60376
2975.0 0.0003361 2615.02295 3021.51099
3530.0 0.0002833 2612.77271 3687.37866
4808.0 0.0002080 2610.57593 5057.75000
7246.0 0.0001380 2608.43262 7115.37695
9163.0 0.0001091 2606.34302 9197.45703
9785.0 0.0001022 2604.30688 10184.38965
8614.0 0.0001161 2602.32446 9415.76758
7032.0 0.0001422 2600.39526 7403.62158
5180.0 0.0001931 2598.51929 5281.64795
3915.0 0.0002554 2596.69653 3794.75439
2997.0 0.0003337 2594.92627 3042.12646
2696.0 0.000371 2593.20850 2751.43945
2794.0 0.000358 2591.54297 2661.69434
2804.0 0.000357 2589.92920 2637.90308
2704.0 0.000370 2588.36670 2633.37256
2652.0 0.000377 2586.85498 2635.74023
2651.0 0.000377 2585.39355 2640.06372
2745.0 0.000364 2583.98193 2641.82202
2719.0 0.000368 2582.61963 2638.71704
2698.0 0.000371 2581.30566 2634.26392
2748.0 0.000364 2580.03979 2631.03467
2705.0 0.000370 2578.82104 2637.23706
2808.0 0.000356 2577.64893 2666.57373
2786.0 0.000359 2576.52222 2809.17212
3206.0 0.0003119 2575.44092 3250.00903
4136.0 0.0002418 2574.40332 4303.14990
6072.0 0.0001647 2573.40918 6162.21582
8299.0 0.0001205 2572.45752 8439.88379
9817.0 0.0001019 2571.54736 10034.18066
9673.0 0.0001034 2570.67773 9883.80469
8168.0 0.0001224 2569.84790 8094.47607
6157.0 0.0001624 2569.05664 5818.77588
4339.0 0.0002305 2568.30298 4079.46460
3256.0 0.0003071 2567.58618 3152.66162
2771.0 0.000361 2566.90479 2811.51050
2699.0 0.000371 2566.25806 2795.06543
3025.0 0.0003306 2565.64502 3003.27612
3264.0 0.0003064 2565.06421 3414.46045
3923.0 0.0002549 2564.51489 3914.40063
4074.0 0.0002455 2563.99561 4240.59180
4116.0 0.0002430 2563.50562 4162.87842
3739.0 0.0002675 2563.04370 3735.31763
3315.0 0.0003017 2562.60840 3231.83374
2970.0 0.0003367 2562.19897 2868.01611
2702.0 0.000370 2561.81421 2686.15039
2625.0 0.000381 2561.45264 2631.01514
2651.0 0.000377 2561.11328 2654.36206
2661.0 0.000376 2560.79517 2743.10449
2892.0 0.0003458 2560.49683 2876.28052
2959.0 0.0003380 2560.21704 3008.33276
3028.0 0.0003303 2559.95508 3047.90723
2860.0 0.0003497 2559.70923 2963.83057
2849.0 0.000351 2559.47876 2816.71802
2618.0 0.000382 2559.26245 2687.99414
2714.0 0.000368 2559.05884 2614.14502
2468.0 0.000405 2558.86694 2589.48779
2555.0 0.000391 2558.68579 2601.73047
2639.0 0.000379 2558.51392 2649.58374
2618.0 0.000382 2558.35034 2728.80664
2660.0 0.000376 2558.19385 2813.94702
2725.0 0.000367 2558.04346 2845.45239
2713.0 0.000369 2557.89795 2803.13452
2653.0 0.000377 2557.75635 2719.24658
2642.0 0.000379 2557.61768 2643.26343
2790.0 0.000358 2557.48047 2598.54028
2550.0 0.000392 2557.34375 2580.37524
2558.0 0.000391 2557.20679 2575.76489
2719.0 0.000368 2557.06836 2576.18701
2604.0 0.000384 2556.92749 2582.16235
2562.0 0.000390 2556.78296 2585.97412
2579.0 0.000388 2556.63428 2590.84619
2716.0 0.000368 2556.47998 2598.43408
2736.0 0.000365 2556.31934 2611.82617
2724.0 0.000367 2556.15137 2648.41309
2789.0 0.000359 2555.97534 2779.28320
3057.0 0.0003271 2555.79028 3207.68701
4062.0 0.0002462 2555.59521 4286.20410
6026.0 0.0001659 2555.38940 6227.74561
8728.0 0.0001146 2555.17188 8517.54297
10038.0 0.0000996 2554.94214 9831.27051
9392.0 0.0001065 2554.69897 9143.83203
7625.0 0.0001311 2554.44214 7018.25000
5277.0 0.0001895 2554.17041 4873.04395
3853.0 0.0002595 2553.88330 3566.30176
3278.0 0.0003051 2553.58032 3163.65796
3442.0 0.0002905 2553.26050 3506.22168
4682.0 0.0002136 2552.92334 4520.10498
6033.0 0.0001658 2552.56836 5905.87207
7202.0 0.0001389 2552.19458 6896.23682
7144.0 0.0001400 2551.80176 6720.78516
6007.0 0.0001665 2551.38916 5523.66016
4705.0 0.0002125 2550.95654 4169.01416
3400.0 0.0002941 2550.50317 3291.82959
3142.0 0.0003183 2550.02856 3017.12085
3190.0 0.0003135 2549.53247 3284.73755
3932.0 0.0002543 2549.01440 4058.05371
5219.0 0.0001916 2548.47388 5111.71533
5703.0 0.0001753 2547.91089 5840.27539
5757.0 0.0001737 2547.32446 5661.41162
4803.0 0.0002082 2546.71484 4723.39063
3986.0 0.0002509 2546.08154 3725.63477
3129.0 0.0003196 2545.42407 3155.08765
3052.0 0.0003277 2544.74268 3178.64771
3501.0 0.0002856 2544.03687 3910.03638
5171.0 0.0001934 2543.30640 5390.07666
6590.0 0.0001517 2542.55127 7125.25781
7500.0 0.0001333 2541.77124 7992.34668
6858.0 0.0001458 2540.96606 7247.98633
5545.0 0.0001803 2540.13599 5521.58350
4082.0 0.0002450 2539.28076 3959.53491
3213.0 0.0003112 2538.40015 3073.66650
2799.0 0.000357 2537.49438 2732.20410
2673.0 0.000374 2536.56348 2648.88501
2741.0 0.000365 2535.60742 2652.84351
2870.0 0.0003484 2534.62622 2670.11548
2792.0 0.000358 2533.61987 2664.65112
2644.0 0.000378 2532.58838 2631.89844
2620.0 0.000382 2531.53223 2589.77002
2671.0 0.000374 2530.45142 2562.67603
2420.0 0.000413 2529.34570 2550.65771
2475.0 0.000404 2528.21582 2549.91650
2480.0 0.000403 2527.06152 2556.43457
2588.0 0.000386 2525.88354 2564.68408
2553.0 0.000392 2524.68140 2566.70142
2525.0 0.000396 2523.45605 2558.87256
2553.0 0.000392 2522.20728 2547.02148
2572.0 0.000389 2520.93555 2535.19385
2413.0 0.000414 2519.64111 2543.22754
2536.0 0.000394 2518.32422 2578.60962
2537.0 0.000394 2516.98535 2649.92920
2645.0 0.000378 2515.62500 2735.48633
2669.0 0.000375 2514.24316 2777.12109
2708.0 0.000369 2512.84033 2735.95752
2541.0 0.000394 2511.41699 2647.89136
2492.0 0.000401 2509.97363 2571.82275
2457.0 0.000407 2508.51050 2530.97314
2482.0 0.000403 2507.02808 2514.94312
2366.0 0.000423 2505.52686 2509.40283
2352.0 0.000425 2504.00732 2506.80542
2450.0 0.000408 2502.46973 2506.55493
2477.0 0.000404 2500.91479 2504.96533
2493.0 0.000401 2499.34277 2503.50586
2427.0 0.000412 2497.75439 2502.20117
2395.0 0.000418 2496.15015 2501.15820
2448.0 0.000408 2494.53027 2500.71875
2497.0 0.000400 2492.89575 2501.01367
2422.0 0.000413 2491.24658 2504.90356
2528.0 0.000396 2489.58374 2505.14746
2491.0 0.000401 2487.90747 2504.63232
2544.0 0.000393 2486.21851 2505.79663
2396.0 0.000417 2484.51733 2516.59253
2578.0 0.000388 2482.80444 2557.37354
2570.0 0.000389 2481.08057 2659.45752
2750.0 0.000364 2479.34619 2823.18481
3148.0 0.0003177 2477.60181 2967.14868
3041.0 0.0003288 2475.84790 2971.73706
2892.0 0.0003458 2474.08521 2838.07031
2600.0 0.000385 2472.31445 2699.61450
2733.0 0.000366 2470.53613 2691.84790
2894.0 0.0003455 2468.75049 2937.53662
3543.0 0.0002822 2466.95850 3522.82788
4302.0 0.0002325 2465.16040 4285.54541
4627.0 0.0002161 2463.35718 4697.01270
4546.0 0.0002200 2461.54883 4368.15283
3654.0 0.0002737 2459.73657 3641.29688
3082.0 0.0003245 2457.92041 3122.01855
3080.0 0.0003247 2456.10156 3183.20337
4058.0 0.0002464 2454.27979 4009.27319
5765.0 0.0001735 2452.45630 5465.85547
6765.0 0.0001478 2450.63135 6700.67920
7252.0 0.0001379 2448.80566 6591.80127
5934.0 0.0001685 2446.97949 5240.96826
4106.0 0.0002435 2445.15356 3796.12329
3065.0 0.0003263 2443.32861 2943.28882
2573.0 0.000389 2441.50464 2614.26294
2509.0 0.000399 2439.68286 2521.44458
2537.0 0.000394 2437.86328 2496.56323
2464.0 0.000406 2436.04639 2487.89063
2470.0 0.000405 2434.23315 2486.89478
2543.0 0.000393 2432.42358 2504.00830
2537.0 0.000394 2430.61841 2588.91040
2708.0 0.000369 2428.81812 2860.43921
3478.0 0.0002875 2427.02295 3430.02661
4186.0 0.0002389 2425.23364 4123.53516
4392.0 0.0002277 2423.45068 4422.09814
4088.0 0.0002446 2421.67432 4016.29907
3493.0 0.0002863 2419.90503 3316.27783
2870.0 0.0003484 2418.14307 2818.73804
2642.0 0.000379 2416.38916 2662.91943
2779.0 0.000360 2414.64355 2762.71533
3013.0 0.0003319 2412.90674 2968.70459
3204.0 0.0003121 2411.17920 3075.38940
3164.0 0.0003161 2409.46069 2956.23682
2863.0 0.0003493 2407.75244 2725.12939
2589.0 0.000386 2406.05396 2552.23047
2348.0 0.000426 2404.36646 2475.81250
2358.0 0.000424 2402.68945 2454.23682
2503.0 0.000400 2401.02368 2453.29150
2478.0 0.000404 2399.36938 2460.41992
2407.0 0.000415 2397.72705 2478.27515
2589.0 0.000386 2396.09644 2538.98926
2543.0 0.000393 2394.47827 2781.67310
3366.0 0.0002971 2392.87256 3554.08984
4886.0 0.0002047 2391.27954 5176.91357
6815.0 0.0001467 2389.69971 7151.40967
7499.0 0.0001334 2388.13330 7899.52734
6667.0 0.0001500 2386.58008 6611.28906
4871.0 0.0002053 2385.04053 4615.34570
3590.0 0.0002786 2383.51465 3276.81909
2745.0 0.000364 2382.00293 2797.37524
2778.0 0.000360 2380.50537 2806.26147
2896.0 0.0003453 2379.02197 2947.22314
3157.0 0.0003168 2377.55322 2964.59106
3249.0 0.0003078 2376.09888 2809.25000
2674.0 0.000374 2374.65918 2652.70215
2605.0 0.000384 2373.23413 2681.56030
2835.0 0.000353 2371.82373 3031.66260
3737.0 0.0002676 2370.42847 3680.85327
3937.0 0.0002540 2369.04810 4220.82080
3774.0 0.0002650 2367.68262 4101.04199
3509.0 0.0002850 2366.33228 3462.16504
2903.0 0.0003445 2364.99683 2912.30908
2711.0 0.000369 2363.67676 2781.21411
3182.0 0.0003143 2362.37158 3083.84082
3757.0 0.0002662 2361.08130 3603.42188
3787.0 0.0002641 2359.80615 3862.17554
3522.0 0.0002839 2358.54590 3548.22827
3019.0 0.0003312 2357.30078 2997.57007
2685.0 0.000372 2356.07056 2610.92627
2490.0 0.000402 2354.85498 2467.03174
2662.0 0.000376 2353.65430 2454.37622
2325.0 0.000430 2352.46826 2474.72607
2608.0 0.000383 2351.29688 2468.57080
2449.0 0.000408 2350.13989 2430.68848
2408.0 0.000415 2348.99731 2394.47754
2359.0 0.000424 2347.86890 2379.59424
2412.0 0.000415 2346.75464 2387.61060
2363.0 0.000423 2345.65430 2407.20923
2443.0 0.000409 2344.56787 2417.52930
2401.0 0.000416 2343.49512 2405.78394
2366.0 0.000423 2342.43604 2393.40430
2458.0 0.000407 2341.39014 2415.20703
2497.0 0.000400 2340.35742 2518.09863
2792.0 0.000358 2339.33765 2714.77393
2880.0 0.0003472 2338.33057 2886.13257
2767.0 0.000361 2337.33618 2851.03003
2572.0 0.000389 2336.35425 2650.52759
2498.0 0.000400 2335.38452 2470.52222
2484.0 0.000403 2334.42676 2382.45850
2367.0 0.000422 2333.48047 2355.70703
2387.0 0.000419 2332.54614 2349.26636
2285.0 0.000438 2331.62280 2347.79883
2416.0 0.000414 2330.71045 2348.78711
2321.0 0.000431 2329.80908 2355.69922
2364.0 0.000423 2328.91821 2381.87549
2472.0 0.000405 2328.03784 2445.76831
2573.0 0.000389 2327.16748 2535.05859
2541.0 0.000394 2326.30664 2579.16919
2578.0 0.000388 2325.45557 2536.76685
2569.0 0.000389 2324.61401 2499.27734
2478.0 0.000404 2323.78125 2631.24561
3370.0 0.0002967 2322.95728 3117.47217
3909.0 0.0002558 2322.14185 3918.06201
4549.0 0.0002198 2321.33472 4436.19580
4105.0 0.0002436 2320.53564 4063.79248
3197.0 0.0003128 2319.74414 3260.75122
2732.0 0.000366 2318.96021 2728.44702
2532.0 0.000395 2318.18335 2629.11230
2620.0 0.000382 2317.41333 2797.21387
3203.0 0.0003122 2316.65015 2960.76367
2902.0 0.0003446 2315.89331 2876.78638
2560.0 0.000391 2315.14258 2635.28857
2525.0 0.000396 2314.39795 2452.97412
2389.0 0.000419 2313.65869 2387.61523
2307.0 0.000433 2312.92480 2391.69312
2375.0 0.000421 2312.19604 2408.82764
2404.0 0.000416 2311.47192 2400.41650
2222.0 0.000450 2310.75269 2374.48462
2325.0 0.000430 2310.03760 2365.93164
2316.0 0.000432 2309.32666 2402.59595
2475.0 0.000404 2308.61963 2488.63696
2586.0 0.000387 2307.91626 2569.12378
2586.0 0.000387 2307.21606 2559.24927
2435.0 0.000411 2306.51929 2497.94995
2499.0 0.000400 2305.82520 2546.78296
2971.0 0.0003366 2305.13379 2901.76343
3778.0 0.0002647 2304.44507 3619.46948
4466.0 0.0002239 2303.75854 4245.70605
3945.0 0.0002535 2303.07422 4050.16943
3382.0 0.0002957 2302.39160 3284.57568
2745.0 0.000364 2301.71069 2679.85693
2492.0 0.000401 2301.03125 2424.71997
2363.0 0.000423 2300.35327 2354.52148
2264.0 0.000442 2299.67627 2340.29297
2354.0 0.000425 2299.00049 2332.68945
2200.0 0.000455 2298.32544 2327.63647
2313.0 0.000432 2297.65088 2324.79932
2355.0 0.000425 2296.97705 2324.00635
2234.0 0.000448 2296.30347 2325.01196
2324.0 0.000430 2295.63013 2328.91577
2379.0 0.000420 2294.95703 2336.96509
2421.0 0.000413 2294.28394 2366.21753
2430.0 0.000412 2293.61060 2479.27319
2658.0 0.000376 2292.93701 2782.04907
3081.0 0.0003246 2292.26343 3233.95801
3477.0 0.0002876 2291.58911 3449.65186
0.0 0.0 2290.91455 .
2840.0 0.000352 2290.23950 2762.09473
2536.0 0.000394 2289.56372 2652.21094
2902.0 0.0003446 2288.88745 2910.62231
3367.0 0.0002970 2288.21021 3326.11182
3261.0 0.0003067 2287.53247 3424.06470
3019.0 0.0003312 2286.85400 3097.75977
2630.0 0.000380 2286.17456 2879.26367
3158.0 0.0003167 2285.49463 3293.95898
4721.0 0.0002118 2284.81372 4516.82617
5835.0 0.0001714 2284.13208 5778.16846
5465.0 0.0001830 2283.44971 5583.33496
4182.0 0.0002391 2282.76660 4199.00684
3167.0 0.0003158 2282.08276 3112.53540
2817.0 0.000355 2281.39844 2824.36914
3171.0 0.0003154 2280.71338 3038.63135
3161.0 0.0003164 2280.02759 3239.79883
3066.0 0.0003262 2279.34155 3056.67334
2721.0 0.000368 2278.65527 2735.22925
2546.0 0.000393 2277.96851 2661.62207
2914.0 0.0003432 2277.28125 2983.46655
3512.0 0.0002847 2276.59424 3510.19922
3467.0 0.0002884 2275.90698 3653.83813
3189.0 0.0003136 2275.21997 3197.37720
2695.0 0.000371 2274.53320 2695.77075
2517.0 0.000397 2273.84668 2482.12378
2582.0 0.000387 2273.16064 2499.60596
2633.0 0.000380 2272.47534 2569.49512
2605.0 0.000384 2271.79077 2538.21753
2503.0 0.000400 2271.10742 2435.83008
2393.0 0.000418 2270.42480 2384.40796
2530.0 0.000395 2269.74390 2441.50952
2658.0 0.000376 2269.06421 2574.02344
2687.0 0.000372 2268.38623 2638.30835
2652.0 0.000377 2267.71021 2533.05127
2448.0 0.000408 2267.03638 2393.26587
2417.0 0.000414 2266.36475 2315.90674
2284.0 0.000438 2265.69556 2290.97412
2296.0 0.000436 2265.02930 2284.90576
2310.0 0.000433 2264.36597 2282.77271
2458.0 0.000407 2263.70581 2284.91357
2222.0 0.000450 2263.04907 2296.67480
2412.0 0.000415 2262.39600 2331.20532
2425.0 0.000412 2261.74683 2386.82300
2495.0 0.000401 2261.10181 2419.73535
2494.0 0.000401 2260.46143 2395.79541
2424.0 0.000413 2259.82544 2398.54517
2648.0 0.000378 2259.19458 2560.30493
3061.0 0.0003267 2258.56909 2960.89258
3457.0 0.0002893 2257.94897 3369.53589
3234.0 0.0003092 2257.33472 3289.64551
2838.0 0.000352 2256.72632 2842.10205
2511.0 0.000398 2256.12451 2526.33032
2589.0 0.000386 2255.52930 2484.41479
2676.0 0.000374 2254.94092 2591.64746
2576.0 0.000388 2254.35962 2637.94897
2478.0 0.000404 2253.78589 2538.06567
2412.0 0.000415 2253.21997 2467.28491
2629.0 0.000380 2252.66211 2606.87671
3170.0 0.0003155 2252.11279 2987.83008
3359.0 0.0002977 2251.57178 3305.39063
3212.0 0.0003113 2251.04004 3129.62378
2710.0 0.000369 2250.51733 2703.20923
2437.0 0.000410 2250.00415 2424.05103
2326.0 0.000430 2249.50073 2327.38794
2368.0 0.000422 2249.00732 2309.71924
2296.0 0.000436 2248.52441 2315.05518
2268.0 0.000441 2248.05225 2352.88770
2466.0 0.000406 2247.59106 2516.43384
3052.0 0.0003277 2247.14111 2990.63599
3873.0 0.0002582 2246.70239 3738.80200
3843.0 0.0002602 2246.27563 4080.01270
3465.0 0.0002886 2245.86108 3546.45703
2794.0 0.000358 2245.45874 2883.30884
2618.0 0.000382 2245.06885 2667.58765
2736.0 0.000365 2244.69189 2857.14282
2823.0 0.000354 2244.32813 3069.40479
2722.0 0.000367 2243.97754 2919.84131
2518.0 0.000397 2243.64063 2590.91431
2347.0 0.000426 2243.31763 2379.31201
2330.0 0.000429 2243.00879 2304.16772
2435.0 0.000411 2242.71411 2285.22632
2258.0 0.000443 2242.43408 2279.72876
2303.0 0.000434 2242.16870 2278.68262
2306.0 0.000434 2241.91821 2282.28296
2360.0 0.000424 2241.68311 2293.16357
2359.0 0.000424 2241.46313 2310.65747
2330.0 0.000429 2241.25879 2324.75684
2395.0 0.000418 2241.07007 2352.53735
2340.0 0.000427 2240.89746 2485.17773
2955.0 0.0003384 2240.74072 2890.59570
3573.0 0.0002799 2240.60034 3548.82959
3785.0 0.0002642 2240.47632 3877.35718
3278.0 0.0003051 2240.36865 3446.47681
2816.0 0.000355 2240.27783 2961.20264
3221.0 0.0003105 2240.20361 3069.88257
4042.0 0.0002474 2240.14624 3774.13184
4466.0 0.0002239 2240.10571 4314.51758
3754.0 0.0002664 2240.08252 3864.06323
2975.0 0.0003361 2240.07617 3038.12793
2609.0 0.000383 2240.08716 2563.01855
2478.0 0.000404 2240.11523 2449.83472
2481.0 0.000403 2240.16064 2457.69971
2546.0 0.000393 2240.22339 2426.46729
2546.0 0.000393 2240.30347 2377.83081
2464.0 0.000406 2240.40088 2405.45264
2540.0 0.000394 2240.51587 2553.59814
2886.0 0.0003465 2240.64795 2720.35107
2597.0 0.000385 2240.79736 2693.95728
2371.0 0.000422 2240.96387 2532.60327
2469.0 0.000405 2241.14795 2487.84229
2660.0 0.000376 2241.34888 2666.56641
2803.0 0.000357 2241.56689 2922.77466
2765.0 0.000362 2241.80200 2916.89722
2652.0 0.000377 2242.05396 2649.25708
2349.0 0.000426 2242.32275 2443.45435
2414.0 0.000414 2242.60815 2409.93188
2378.0 0.000421 2242.90991 2463.64258
2405.0 0.000416 2243.22827 2465.66138
2349.0 0.000426 2243.56250 2386.41772
2343.0 0.000427 2243.91284 2315.91284
2246.0 0.000445 2244.27905 2285.50806
2298.0 0.000435 2244.66089 2278.35913
2333.0 0.000429 2245.05786 2278.78174
2309.0 0.000433 2245.46997 2280.91479
2244.0 0.000446 2245.89722 2289.90161
2255.0 0.000443 2246.33887 2309.11865
2355.0 0.000425 2246.79492 2335.60425
2293.0 0.000436 2247.26489 2360.50024
2327.0 0.000430 2247.74854 2407.06274
2364.0 0.000423 2248.24585 2602.74976
3177.0 0.0003148 2248.75610 3137.31592
4273.0 0.0002340 2249.27905 3902.22021
4202.0 0.0002380 2249.81445 4155.29932
3594.0 0.0002782 2250.36182 3619.07007
3044.0 0.0003285 2250.92090 3266.51489
3924.0 0.0002548 2251.49121 3797.45508
5116.0 0.0001955 2252.07227 4924.58984
5146.0 0.0001943 2252.66357 5277.59424
4257.0 0.0002349 2253.26489 4264.16748
3295.0 0.0003035 2253.87573 3181.66968
2885.0 0.0003466 2254.49561 2736.21777
2922.0 0.0003422 2255.12402 2720.96851
2862.0 0.0003494 2255.76050 2720.37891
2680.0 0.000373 2256.40479 2575.39185
2369.0 0.000422 2257.05566 2435.46777
2406.0 0.000416 2257.71338 2390.69092
2446.0 0.000409 2258.37695 2406.76489
2406.0 0.000416 2259.04614 2418.27686
2348.0 0.000426 2259.72021 2419.66211
2521.0 0.000397 2260.39844 2518.01709
2958.0 0.0003381 2261.08032 2829.27979
3332.0 0.0003001 2261.76563 3251.58594
3162.0 0.0003163 2262.45337 3332.17798
2947.0 0.0003393 2263.14282 2955.98608
2584.0 0.000387 2263.83374 2596.47632
2615.0 0.000382 2264.52539 2470.32886
2530.0 0.000395 2265.21729 2483.92847
2475.0 0.000404 2265.90820 2476.70825
2367.0 0.000422 2266.59814 2406.38013
2337.0 0.000428 2267.28589 2345.27173
2353.0 0.000425 2267.97119 2319.42065
2336.0 0.000428 2268.65332 2315.63770
2242.0 0.000446 2269.33130 2324.28906
2243.0 0.000446 2270.00464 2355.69141
2401.0 0.000416 2270.67285 2464.12109
2752.0 0.000363 2271.33472 2689.25049
2827.0 0.000354 2271.98975 2922.45288
2751.0 0.000364 2272.63745 2921.31616
2695.0 0.000371 2273.27686 2802.92773
3076.0 0.0003251 2273.90747 2985.63916
4020.0 0.0002488 2274.52832 3627.73535
4490.0 0.0002227 2275.13867 4247.40479
3947.0 0.0002534 2275.73779 4013.17554
3199.0 0.0003126 2276.32495 3237.16455
2739.0 0.000365 2276.89966 2680.23364
2483.0 0.000403 2277.46069 2478.16382
2385.0 0.000419 2278.00781 2434.57959
2402.0 0.000416 2278.53979 2401.80981
2320.0 0.000431 2279.05640 2364.49976
2245.0 0.000445 2279.55640 2348.92822
2316.0 0.000432 2280.03931 2353.81079
2396.0 0.000417 2280.50415 2364.25391
2396.0 0.000417 2280.95020 2376.99536
2419.0 0.000413 2281.37720 2438.83276
2682.0 0.000373 2281.78369 2619.50073
3023.0 0.0003308 2282.16919 2882.68213
3005.0 0.0003328 2282.53320 2993.92188
2815.0 0.000355 2282.87476 2820.63647
2628.0 0.000381 2283.19312 2639.17676
2689.0 0.000372 2283.48755 2652.01514
2846.0 0.000351 2283.75732 2795.49121
2773.0 0.000361 2284.00195 2841.60669
2702.0 0.000370 2284.22021 2764.86377
2825.0 0.000354 2284.41187 2865.47607
3518.0 0.0002843 2284.57593 3327.90674
4066.0 0.0002459 2284.71167 3871.04053
3716.0 0.0002691 2284.81860 3824.93823
3062.0 0.0003266 2284.89600 3228.15479
2703.0 0.000370 2284.94312 2703.09546
2305.0 0.000434 2284.95923 2461.02759
2354.0 0.000425 2284.94360 2391.72461
2306.0 0.000434 2284.89600 2391.23047
2361.0 0.000424 2284.81519 2454.68701
2711.0 0.000369 2284.70117 2636.24731
3090.0 0.0003236 2284.55273 2924.92651
3061.0 0.0003267 2284.36963 3109.52075
2819.0 0.000355 2284.15112 2985.56787
2795.0 0.000358 2283.89673 2809.37183
2844.0 0.000352 2283.60596 2873.20605
3172.0 0.0003153 2283.27808 3140.48413
3328.0 0.0003005 2282.91235 3272.50293
3015.0 0.0003317 2282.50854 3140.31421
3157.0 0.0003168 2282.06616 3191.21484
4230.0 0.0002364 2281.58472 3758.21509
4999.0 0.0002000 2281.06348 4520.31641
4589.0 0.0002179 2280.50220 4561.32617
3585.0 0.0002789 2279.90015 3779.76245
2982.0 0.0003353 2279.25732 3043.64307
2783.0 0.000359 2278.57300 2728.84009
2812.0 0.000356 2277.84692 2669.55640
2606.0 0.000384 2277.07861 2600.03491
2554.0 0.000392 2276.26758 2480.03027
2402.0 0.000416 2275.41382 2386.94873
2339.0 0.000428 2274.51660 2341.59790
2228.0 0.000449 2273.57593 2325.13550
2314.0 0.000432 2272.59131 2321.32031
2316.0 0.000432 2271.56274 2326.86938
2269.0 0.000441 2270.48975 2347.56396
2288.0 0.000437 2269.37207 2377.15186
2301.0 0.000435 2268.20972 2398.83984
2352.0 0.000425 2267.00220 2428.53125
2395.0 0.000418 2265.74976 2546.06470
2728.0 0.000367 2264.45166 2797.94507
3149.0 0.0003176 2263.10840 3056.09204
2906.0 0.0003441 2261.71973 3042.10400
2713.0 0.000369 2260.28516 2767.50537
2455.0 0.000407 2258.80518 2506.65503
2351.0 0.000425 2257.27930 2371.36230
2264.0 0.000442 2255.70801 2327.27344
2245.0 0.000445 2254.09106 2325.43286
2336.0 0.000428 2252.42822 2355.64111
2490.0 0.000402 2250.71997 2430.19580
2654.0 0.000377 2248.96631 2533.30176
2665.0 0.000375 2247.16699 2603.56616
2560.0 0.000391 2245.32275 2646.54004
2825.0 0.000354 2243.43335 2842.19678
3457.0 0.0002893 2241.49878 3317.79126
3828.0 0.0002612 2239.51978 3844.85718
3602.0 0.0002776 2237.49634 3874.81909
3210.0 0.0003115 2235.42871 3364.82739
2762.0 0.000362 2233.31738 2859.56812
2768.0 0.000361 2231.16211 2623.00586
2617.0 0.000382 2228.96362 2562.88745
2498.0 0.000400 2226.72266 2506.20654
2502.0 0.000400 2224.43872 2436.66919
2407.0 0.000415 2222.11279 2415.77124
2457.0 0.000407 2219.74512 2446.42603
2526.0 0.000396 2217.33618 2463.85181
2417.0 0.000414 2214.88672 2424.80151
2419.0 0.000413 2212.39673 2383.72119
2405.0 0.000416 2209.86719 2391.00244
2538.0 0.000394 2207.29834 2430.96753
2444.0 0.000409 2204.69092 2458.07056
2500.0 0.000400 2202.04565 2503.98730
2801.0 0.000357 2199.36304 2674.93579
3145.0 0.0003180 2196.64355 2977.92139
3194.0 0.0003131 2193.88770 3200.94238
2944.0 0.0003397 2191.09717 3077.66748
2812.0 0.000356 2188.27148 2737.74414
2459.0 0.000407 2185.41211 2451.69922
2368.0 0.000422 2182.51953 2303.75854
2328.0 0.000430 2179.59448 2247.76611
2336.0 0.000428 2176.63794 2226.79272
2277.0 0.000439 2173.65063 2216.38477
2307.0 0.000433 2170.63354 2211.16382
2250.0 0.000444 2167.58740 2211.81128
2340.0 0.000427 2164.51318 2225.80835
2328.0 0.000430 2161.41162 2272.17090
2398.0 0.000417 2158.28394 2370.18628
2535.0 0.000394 2155.13062 2508.17017
2728.0 0.000367 2151.95288 2602.77539
2600.0 0.000385 2148.75195 2585.88013
2625.0 0.000381 2145.52856 2556.18750
2866.0 0.0003489 2142.28369 2630.96851
3011.0 0.0003321 2139.01855 2774.95947
3109.0 0.0003216 2135.73413 2811.36450
2630.0 0.000380 2132.43164 2671.62378
2712.0 0.000369 2129.11182 2513.24146
2382.0 0.000420 2125.77563 2448.09668
2576.0 0.000388 2122.42480 2452.78467
2590.0 0.000386 2119.06030 2453.16138
2639.0 0.000379 2115.68311 2472.45679
2817.0 0.000355 2112.29419 2587.35107
3015.0 0.0003317 2108.89478 2774.26978
2952.0 0.0003388 2105.48657 2876.63867
2885.0 0.0003466 2102.06982 2790.33936
2852.0 0.0003506 2098.64697 2669.22729
2858.0 0.0003499 2095.21753 2664.13354
3056.0 0.0003272 2091.78467 2734.53271
2834.0 0.000353 2088.34766 2709.46338
2318.0 0.000431 2084.90942 2547.04907
2439.0 0.000410 2081.47046 2374.99634
2120.0 0.000472 2078.03125 2275.73169
2082.0 0.000480 2074.59424 2236.47461
2125.0 0.000471 2071.16113 2215.67578
2037.0 0.000491 2067.73096 2210.75122
2173.0 0.000460 2064.30713 2235.91724
2229.0 0.000449 2060.88940 2275.16260
2254.0 0.000444 2057.47974 2280.22119
2137.0 0.000468 2054.08032 2229.44580
2128.0 0.000470 2050.69019 2161.45190
2070.0 0.000483 2047.31262 2110.68359
1980.0 0.000505 2043.94763 2083.81494
2015.0 0.000496 2040.59717 2072.47900
1948.0 0.000513 2037.26282 2068.32007
1998.0 0.000501 2033.94446 2067.87476
1890.0 0.000529 2030.64478 2073.85791
2024.0 0.000494 2027.36340 2096.42285
1988.0 0.000503 2024.10352 2158.58691
2135.0 0.000468 2020.86511 2288.14551
2348.0 0.000426 2017.64929 2474.79346
2467.0 0.000405 2014.45813 2642.95825
2588.0 0.000386 2011.29150 2680.69873
2554.0 0.000392 2008.15247 2613.83350
2523.0 0.000396 2005.04077 2586.44800
2651.0 0.000377 2001.95728 2643.61230
2655.0 0.000377 1998.90417 2684.14087
2481.0 0.000403 1995.88281 2591.54956
2277.0 0.000439 1992.89282 2420.32544
2203.0 0.000454 1989.93677 2281.57471
2169.0 0.000461 1987.01440 2209.77124
2062.0 0.000485 1984.12805 2174.40796
2075.0 0.000482 1981.27881 2149.11768
2081.0 0.000481 1978.46619 2141.28955
2098.0 0.000477 1975.69275 2155.09229
1996.0 0.000501 1972.95850 2166.56592
2037.0 0.000491 1970.26526 2145.14624
2130.0 0.0 1967.61340 .
14.0 0.0 1965.00354 .
2123.0 0.0 1962.43750 .
2068.0 0.000484 1959.91528 2030.60974
2068.0 0.000484 1957.43860 2062.65894
2187.0 0.000457 1955.00781 2129.08179
2240.0 0.000446 1952.62329 2216.47070
2314.0 0.000432 1950.28674 2280.39966
2301.0 0.000435 1947.99780 2268.57520
2244.0 0.000446 1945.75842 2192.05908
2101.0 0.000476 1943.56860 2107.53809
2045.0 0.000489 1941.42883 2050.54956
2048.0 0.000488 1939.34009 2027.72058
2020.0 0.000495 1937.30322 2032.11084
2024.0 0.000494 1935.31812 2059.02319
1995.0 0.000501 1933.38586 2111.84204
2151.0 0.000465 1931.50635 2213.19019
2181.0 0.000459 1929.68079 2419.95532
2709.0 0.000369 1927.90967 2819.80127
3533.0 0.0002830 1926.19250 3442.76245
4017.0 0.0002489 1924.53052 4129.56104
4322.0 0.0002314 1922.92358 4508.00146
4380.0 0.0002283 1921.37231 4319.22461
3795.0 0.0002635 1919.87671 3827.36304
3452.0 0.0002897 1918.43689 3412.25635
3095.0 0.0003231 1917.05359 3181.57178
2948.0 0.0003392 1915.72656 3000.27734
2755.0 0.000363 1914.45605 2770.29932
2509.0 0.000399 1913.24219 2550.30322
2509.0 0.000399 1912.08472 2400.29077
2422.0 0.000413 1910.98413 2309.33521
2303.0 0.000434 1909.94031 2227.73950
2191.0 0.000456 1908.95264 2141.81079
2100.0 0.000476 1908.02161 2070.83838
2131.0 0.000469 1907.14685 2033.07520
2177.0 0.000459 1906.32825 2039.89636
2146.0 0.000466 1905.56567 2098.23950
2257.0 0.000443 1904.85864 2205.04736
2389.0 0.000419 1904.20703 2331.56421
2554.0 0.000392 1903.61035 2416.09375
2469.0 0.000405 1903.06848 2400.97485
2516.0 0.000397 1902.58093 2309.46021
2305.0 0.000434 1902.14722 2210.31201
2310.0 0.000433 1901.76672 2140.21094
2263.0 0.000442 1901.43909 2092.88452
2246.0 0.000445 1901.16382 2050.00977
2170.0 0.000461 1900.94019 2010.08887
2010.0 0.000498 1900.76770 1980.75293
1998.0 0.000501 1900.64551 1968.09814
1975.0 0.000506 1900.57300 1975.23669
2018.0 0.000496 1900.54956 2002.71863
2112.0 0.000473 1900.57422 2048.55664
2101.0 0.000476 1900.64624 2099.79321
2200.0 0.000455 1900.76477 2143.98486
2242.0 0.000446 1900.92896 2179.18726
2227.0 0.000449 1901.13806 2223.77808
2280.0 0.000439 1901.39087 2285.83350
2295.0 0.000436 1901.68652 2341.31860
2379.0 0.000420 1902.02405 2351.47583
2216.0 0.000451 1902.40234 2317.45093
2258.0 0.000443 1902.82043 2278.93823
2349.0 0.000426 1903.27722 2270.00806
2230.0 0.000448 1903.77148 2289.50659
2381.0 0.000420 1904.30212 2332.43750
2399.0 0.000417 1904.86804 2409.72070
2534.0 0.000395 1905.46802 2522.76685
2525.0 0.000396 1906.10071 2629.46167
2635.0 0.000380 1906.76514 2666.01660
2520.0 0.000397 1907.45972 2623.92334
2516.0 0.000397 1908.18323 2562.80811
2485.0 0.000402 1908.93457 2520.64038
2454.0 0.000407 1909.71216 2478.40283
2337.0 0.000428 1910.51465 2395.49512
2342.0 0.000427 1911.34119 2276.11475
2212.0 0.000452 1912.18958 2158.09839
2093.0 0.000478 1913.05908 2070.91309
2008.0 0.000498 1913.94800 2024.86145
2105.0 0.000475 1914.85486 2015.08362
2145.0 0.000466 1915.77844 2029.89355
2015.0 0.000496 1916.71704 2053.64233
2089.0 0.000479 1917.66956 2070.20679
2038.0 0.000491 1918.63428 2067.05688
2038.0 0.000491 1919.60950 2047.08240
2001.0 0.000500 1920.59436 2024.45483
2097.0 0.000477 1921.58691 2012.70215
2028.0 0.000493 1922.58606 2020.85510
2010.0 0.000498 1923.58984 2053.29004
2077.0 0.000481 1924.59717 2109.83911
2192.0 0.000456 1925.60669 2182.17285
2198.0 0.000455 1926.61646 2259.32739
2248.0 0.000445 1927.62549 2332.97388
2351.0 0.000425 1928.63196 2412.98193
2546.0 0.000393 1929.63452 2517.23657
2564.0 0.000390 1930.63220 2641.73608
2775.0 0.000360 1931.62305 2762.40625
2863.0 0.0003493 1932.60559 2865.82593
2983.0 0.0003352 1933.57898 2975.91846
3058.0 0.0003270 1934.54138 3100.55762
3183.0 0.0003142 1935.49182 3184.10034
2998.0 0.0003336 1936.42871 3136.09570
2976.0 0.0003360 1937.35059 2936.23975
2873.0 0.0003481 1938.25671 2664.04199
2463.0 0.000406 1939.14526 2409.50757
2391.0 0.000418 1940.01550 2221.43604
2276.0 0.000439 1940.86584 2106.97510
2124.0 0.000471 1941.69507 2048.30713
2164.0 0.000462 1942.50256 2023.89551
2027.0 0.000493 1943.28662 2018.59546
2059.0 0.000486 1944.04675 2025.88928
1982.0 0.000505 1944.78125 2044.52502
1982.0 0.000505 1945.48962 2074.73169
2102.0 0.000476 1946.17090 2118.98267
2085.0 0.000480 1946.82385 2178.18628
2179.0 0.000459 1947.44800 2254.68530
2267.0 0.000441 1948.04211 2350.64917
2381.0 0.000420 1948.60571 2460.21533
2527.0 0.000396 1949.13794 2553.04883
2627.0 0.000381 1949.63818 2586.23022
2543.0 0.000393 1950.10547 2538.13770
2332.0 0.000429 1950.53979 2439.99268
2337.0 0.000428 1950.94019 2348.98413
2336.0 0.000428 1951.30640 2312.00098
2290.0 0.000437 1951.63782 2358.21899
2539.0 0.000394 1951.93408 2489.22803
2744.0 0.000364 1952.19507 2676.50928
2796.0 0.000358 1952.42029 2859.91333
2870.0 0.0003484 1952.60974 2962.23560
2954.0 0.0003385 1952.76318 2933.23389
2895.0 0.0003454 1952.88049 2801.75513
2695.0 0.000371 1952.96179 2644.40186
2667.0 0.000375 1953.00696 2527.64038
2439.0 0.000410 1953.01624 2487.59302
2566.0 0.000390 1952.98962 2531.75244
2641.0 0.000379 1952.92761 2644.56226
2724.0 0.000367 1952.83032 2791.24219
2880.0 0.0003472 1952.69812 2920.34717
2829.0 0.000353 1952.53149 2990.69653
2891.0 0.0003459 1952.33093 3004.58447
2958.0 0.0003381 1952.09705 2993.19604
2869.0 0.0003486 1951.83032 2969.45923
2750.0 0.000364 1951.53149 2916.33569
2824.0 0.000354 1951.20154 2817.56128
2561.0 0.000390 1950.84094 2690.47754
2674.0 0.000374 1950.45081 2569.08838
2521.0 0.000397 1950.03198 2474.43628
2414.0 0.000414 1949.58557 2412.85889
2349.0 0.000426 1949.11279 2382.08203
2378.0 0.000421 1948.61438 2376.08008
2381.0 0.000420 1948.09192 2385.89233
2307.0 0.000433 1947.54651 2392.84937
2336.0 0.000428 1946.97961 2382.26294
2279.0 0.000439 1946.39270 2354.55420
2351.0 0.000425 1945.78687 2320.45996
2271.0 0.000440 1945.16394 2284.03882
2227.0 0.000449 1944.52539 2243.65918
2098.0 0.000477 1943.87292 2196.63208
2091.0 0.000478 1943.20813 2146.97607
2184.0 0.000458 1942.53271 2102.12427
1956.0 0.000511 1941.84851 2068.14478
1928.0 0.000519 1941.15759 2048.98120
1977.0 0.000506 1940.46130 2047.23364
1997.0 0.000501 1939.76208 2066.35107
2174.0 0.000460 1939.06165 2112.20117
2193.0 0.000456 1938.36206 2189.66504
2265.0 0.000442 1937.66553 2303.75171
2443.0 0.000409 1936.97375 2451.62085
2723.0 0.000367 1936.28918 2621.19751
2746.0 0.000364 1935.61365 2787.25830
2935.0 0.0003407 1934.94971 2919.49585
3020.0 0.0003311 1934.29944 3004.01074
3219.0 0.0003107 1933.66492 3052.22095
3107.0 0.0003219 1933.04846 3077.12549
3069.0 0.0003258 1932.45227 3071.61768
3089.0 0.0003237 1931.87866 3017.84912
3108.0 0.0003218 1931.32996 2914.41870
2952.0 0.0003388 1930.80823 2786.47949
2809.0 0.000356 1930.31592 2656.87476
2639.0 0.000379 1929.85535 2535.22314
2552.0 0.000392 1929.42859 2423.40210
2430.0 0.000412 1929.03796 2326.03687
2372.0 0.000422 1928.68579 2252.57983
2359.0 0.000424 1928.37402 2211.41528
2164.0 0.000462 1928.10522 2207.23071
2230.0 0.000448 1927.88110 2237.52710
2327.0 0.000430 1927.70410 2293.83643
2410.0 0.000415 1927.57617 2357.28833
2440.0 0.000410 1927.49939 2403.38647
2447.0 0.000409 1927.47571 2411.15894
2365.0 0.000423 1927.50708 2374.95728
2256.0 0.000443 1927.59534 2310.23779
2251.0 0.000444 1927.74231 2237.34766
2207.0 0.000453 1927.94971 2170.64844
2154.0 0.000464 1928.21924 2121.26733
2136.0 0.000468 1928.55249 2095.05371
2060.0 0.000485 1928.95093 2095.69116
2185.0 0.000458 1929.41614 2125.95874
2170.0 0.000461 1929.94910 2187.04956
2172.0 0.000460 1930.55115 2277.09204
2386.0 0.000419 1931.22363 2388.27393
2452.0 0.000408 1931.96729 2505.46289
2606.0 0.000384 1932.78296 2607.96045
2472.0 0.000405 1933.67175 2674.29346
2759.0 0.000362 1934.63391 2699.18311
2644.0 0.000378 1935.67041 2698.80786
2741.0 0.000365 1936.78125 2695.67676
2769.0 0.000361 1937.96655 2706.30713
2711.0 0.000369 1939.22681 2736.43018
2630.0 0.000380 1940.56165 2784.54175
2791.0 0.000358 1941.97107 2842.37158
2736.0 0.000365 1943.45447 2891.12769
2676.0 0.000374 1945.01135 2904.91577
2586.0 0.000387 1946.64148 2866.59302
2770.0 0.000361 1948.34326 2784.45166
2618.0 0.000382 1950.11621 2688.56689
2552.0 0.000392 1951.95862 2612.49951
2646.0 0.000378 1953.86938 2579.61450
2599.0 0.000385 1955.84705 2598.96851
2618.0 0.000382 1957.88940 2663.06958
2786.0 0.000359 1959.99512 2749.64307
2862.0 0.0003494 1962.16125 2826.65698
2832.0 0.000353 1964.38574 2862.20068
2901.0 0.0003447 1966.66650 2841.29858
2930.0 0.0003413 1969.00037 2775.41040
2843.0 0.000352 1971.38403 2686.33472
2740.0 0.000365 1973.81531 2594.49487
2670.0 0.000375 1976.29004 2510.39233
2378.0 0.000421 1978.80566 2442.09619
2511.0 0.000398 1981.35742 2390.28198
2285.0 0.000438 1983.94153 2351.91382
2431.0 0.000411 1986.55481 2320.84985
2223.0 0.000450 1989.19202 2290.91040
2301.0 0.000435 1991.84973 2261.79004
2313.0 0.000432 1994.52209 2237.15210
2299.0 0.000435 1997.20483 2222.56104
2267.0 0.000441 1999.89380 2222.72900
2286.0 0.000437 2002.58276 2238.09692
2314.0 0.000432 2005.26733 2266.82397
2348.0 0.000426 2007.94141 2303.03687
2377.0 0.000421 2010.59973 2338.32324
2346.0 0.000426 2013.23743 2364.32202
2328.0 0.000430 2015.84778 2375.79468
2310.0 0.000433 2018.42468 2376.83765
2422.0 0.000413 2020.96387 2375.39868
2454.0 0.000407 2023.45776 2380.85449
2333.0 0.000429 2025.90161 2401.03979
2434.0 0.000411 2028.28857 2441.93408
2413.0 0.000414 2030.61230 2507.40259
2556.0 0.000391 2032.86829 2598.28955
2716.0 0.000368 2035.04907 2710.97192
2905.0 0.0003442 2037.14954 2837.83032
2953.0 0.0003386 2039.16357 2968.66626
3086.0 0.0003240 2041.08521 3092.21631
3279.0 0.0003050 2042.90967 3193.24390
3229.0 0.0003097 2044.63086 3252.05737
3207.0 0.0003118 2046.24414 3252.41602
3208.0 0.0003117 2047.74390 3193.29688
3184.0 0.0003141 2049.12598 3094.39282
3021.0 0.0003310 2050.38599 2983.97852
2970.0 0.0003367 2051.51953 2886.83618
2917.0 0.0003428 2052.52368 2818.03247
2729.0 0.000366 2053.39453 2783.33472
2682.0 0.000373 2054.12988 2777.31128
2807.0 0.000356 2054.72778 2786.45435
2817.0 0.000355 2055.18628 2792.46655
2763.0 0.000362 2055.50464 2778.96265
2621.0 0.000382 2055.68286 2739.93237
2628.0 0.000381 2055.72119 2679.18677
2534.0 0.000395 2055.62134 2605.57739
2433.0 0.000411 2055.38574 2526.88477
2382.0 0.000420 2055.01733 2451.50098
2405.0 0.000416 2054.52051 2384.40088
2335.0 0.000428 2053.90112 2329.83594
2234.0 0.000448 2053.16528 2291.07593
2244.0 0.000446 2052.32129 2269.16211
2290.0 0.000437 2051.37817 2263.49268
2214.0 0.000452 2050.34692 2272.08423
2293.0 0.000436 2049.23975 2291.86597
2237.0 0.000447 2048.07056 2318.87524
2285.0 0.000438 2046.85535 2347.99097
2294.0 0.000436 2045.61145 2377.38892
2320.0 0.000431 2044.35828 2404.13159
2450.0 0.000408 2043.11768 2428.39990
2518.0 0.000397 2041.91394 2450.45239
2409.0 0.000415 2040.77234 2470.08472
2458.0 0.000407 2039.72229 2488.22314
2458.0 0.000407 2038.79456 2508.03784
2604.0 0.000384 2038.02356 2531.10083
2548.0 0.000392 2037.44617 2560.98901
2506.0 0.000399 2037.10205 2597.84229
2771.0 0.000361 2037.03467 2640.23730
2622.0 0.000381 2037.29028 2685.54175
2805.0 0.000357 2037.91919 2728.48291
2958.0 0.0003381 2038.97498 2763.59912
2810.0 0.000356 2040.51550 2784.13135
2875.0 0.0003478 2042.60217 2785.94678
2886.0 0.0003465 2045.30176 2771.34326
2760.0 0.000362 2048.68384 2747.88110
2861.0 0.0003495 2052.82373 2724.48462
2879.0 0.0003473 2057.80347 2708.67993
2892.0 0.0003458 2063.70532 2704.41675
2735.0 0.000366 2070.62231 2712.35962
2629.0 0.000380 2078.64893 2729.90039
2774.0 0.000360 2087.88794 2751.14331
2784.0 0.000359 2098.44995 2767.80859
2787.0 0.000359 2110.44604 2773.11914
2673.0 0.000374 2123.99561 2763.66528
2657.0 0.000376 2139.23560 2740.85938
2522.0 0.000397 2156.29248 2708.37622
0.0 . . .
loop_
_gsas_i100_meas
100.00
68.70
85.54
0.94
0.39
2.02
9.02
12.85
6.83
0.15
20.27
4.27
1.12
0.46
19.13
3.91
8.06
5.30
2.87
12.25
0.44
0.02
0.06
0.00
0.89
0.16
2.86
2.10
6.61
4.38
2.99
1.52
1.63
11.59
1.34
0.06
0.01
3.64
3.30
0.13
0.17
0.12
0.55
0.65
0.50
1.67
0.86
1.92
1.27
0.06
0.42
0.94
3.25
0.00
2.09
0.26
1.71
2.75
4.37
0.00
0.35
1.39
2.60
0.57
0.09
0.05
0.90
0.00
0.39
0.00
2.42
0.69
1.08
1.14
1.39
2.01
0.45
0.79
0.07
0.01
0.40
2.60
0.00
2.71
1.52
0.40
0.08
0.84
0.05
1.13
0.31
0.02
0.02
3.42
0.30
1.75
1.47
2.99
0.27
0.69
0.18
0.09
2.13
0.39
1.08
0.28
1.14
2.71
0.20
0.09
0.04
0.00
0.06
1.50
0.56
0.42
0.38
2.72
0.28
1.57
1.00
0.44
0.40
0.02
4.92
0.09
0.42
0.68
0.06
0.12
1.43
0.64
0.00
3.70
0.48
0.10
0.02
0.04
0.44
0.04
0.07
0.39
0.74
1.63
0.00
0.25
0.02
0.01
0.95
0.28
1.05
0.98
0.60
0.16
1.23
0.99
0.67
0.98
0.09
0.00
0.02
0.23
0.02
0.63
0.39
0.06
0.09
0.77
0.51
0.20
0.02
0.19
0.00
0.00
0.00
0.24
0.71
0.16
0.48
0.49
5.99
2.01
0.40
0.13
0.28
0.57
0.69
0.11
0.33
0.79
0.03
0.36
0.22
0.59
0.53
0.21
0.20
0.23
0.15
0.55
0.85
0.36
0.78
1.26
0.20
0.00
0.12
0.00
0.32
0.00
0.51
0.19
0.00
4.20
1.33
0.59
0.01
0.01
0.01
0.00
0.19
0.10
1.97
1.31
2.31
0.20
0.13
0.02
1.45
0.40
0.40
0.00
0.54
2.04
0.52
0.40
0.04
0.37
0.32
0.70
0.10
0.39
0.13
0.02
0.03
1.31
0.37
0.60
0.72
0.01
1.60
2.16
0.20
1.25
0.04
1.97
0.12
0.02
2.52
0.23
0.01
0.02
0.95
0.28
2.66
0.34
0.01
0.10
0.21
3.69
0.00
0.24
0.73
0.27
0.66
0.06
1.39
0.02
0.32
0.00
0.01
0.03
0.63
0.83
1.63
0.86
2.87
0.01
0.46
0.30
0.00
1.40
1.16
0.36
0.35
0.01
0.78
0.01
1.16
0.62
0.00
0.47
1.85
1.30
0.24
0.56
0.25
0.20
2.02
0.46
