#------------------------------------------------------------------------------
#$Date: 2021-12-07 06:03:46 +0200 (Tue, 07 Dec 2021) $
#$Revision: 271237 $
#$URL: file:///home/coder/svn-repositories/cod/cif/1/56/49/1564914.cif $
#------------------------------------------------------------------------------
#
# This file is available in the Crystallography Open Database (COD),
# http://www.crystallography.net/
#
# All data on this site have been placed in the public domain by the
# contributors.
#
data_1564914
loop_
_publ_author_name
'Bara, Dominic'
'Meekel, Emily G.'
'Pakamor\.e, Ignas'
'Wilson, Claire'
'Ling, Sanliang'
'Forgan, Ross S.'
_publ_section_title
;
 Exploring and expanding the Fe-terephthalate metal-organic framework
 phase space by coordination and oxidation modulation.
;
_journal_issue                   12
_journal_name_full               'Materials horizons'
_journal_page_first              3377
_journal_page_last               3386
_journal_paper_doi               10.1039/d1mh01663f
_journal_volume                  8
_journal_year                    2021
_chemical_formula_moiety         '[Fe3O(C8H4O4)3(H2O)2(OH)]'
_chemical_formula_sum            'C24 H17 Fe3 O16'
_chemical_formula_weight         728.92
_space_group_crystal_system      hexagonal
_space_group_IT_number           194
_space_group_name_Hall           '-P 6c 2c'
_space_group_name_H-M_alt        'P 63/m m c'
_atom_sites_solution_hydrogens   geom
_audit_block_doi                 10.5517/ccdc.csd.cc28393t
_audit_creation_date             2021-06-08
_audit_creation_method
;
Olex2 1.3
(compiled 2020.11.12 svn.r5f609507 for OlexSys, GUI svn.r6226)
;
_audit_update_record
;
2021-06-09 deposited with the CCDC.	2021-10-12 downloaded from the CCDC.
;
_cell_angle_alpha                90
_cell_angle_beta                 90
_cell_angle_gamma                120
_cell_formula_units_Z            2
_cell_length_a                   13.9105(12)
_cell_length_b                   13.9105(12)
_cell_length_c                   17.6608(13)
_cell_measurement_reflns_used    9971
_cell_measurement_temperature    150
_cell_measurement_theta_max      26.337
_cell_measurement_theta_min      2.860
_cell_volume                     2959.6(4)
_computing_cell_refinement       'SAINT V8.37A (Bruker-AXS, 2016)'
_computing_data_collection       'APEX3 Ver. 2016.9-0 (Bruker-AXS, 2016)'
_computing_data_reduction        'APEX3 Ver. 2016.9-0 (Bruker-AXS, 2016)'
_computing_molecular_graphics    'Olex2 1.3 (Dolomanov et al., 2009)'
_computing_publication_material  'Olex2 1.3 (Dolomanov et al., 2009)'
_computing_structure_refinement  'XL (Sheldrick, 2015b)'
_computing_structure_solution    'XT (Sheldrick, 2015a)'
_diffrn_ambient_temperature      150
_diffrn_detector                 'charge integrating pixel array detector'
_diffrn_detector_area_resol_mean 7.4074
_diffrn_detector_type            'Bruker PHOTON II'
_diffrn_measured_fraction_theta_full 0.991
_diffrn_measured_fraction_theta_max 0.992
_diffrn_measurement_device       'four-circle diffractometer'
_diffrn_measurement_device_type  'Bruker D8 VENTURE'
_diffrn_measurement_method       '\f and \w scans'
_diffrn_radiation_collimation    'focusing mirrors'
_diffrn_radiation_monochromator  'multilayer mirror optics'
_diffrn_radiation_type           MoK\a
_diffrn_radiation_wavelength     0.71073
_diffrn_reflns_av_R_equivalents  0.0553
_diffrn_reflns_av_unetI/netI     0.0166
_diffrn_reflns_Laue_measured_fraction_full 0.991
_diffrn_reflns_Laue_measured_fraction_max 0.992
_diffrn_reflns_limit_h_max       14
_diffrn_reflns_limit_h_min       -17
_diffrn_reflns_limit_k_max       17
_diffrn_reflns_limit_k_min       -17
_diffrn_reflns_limit_l_max       21
_diffrn_reflns_limit_l_min       -22
_diffrn_reflns_number            32529
_diffrn_reflns_point_group_measured_fraction_full 0.991
_diffrn_reflns_point_group_measured_fraction_max 0.992
_diffrn_reflns_theta_full        25.242
_diffrn_reflns_theta_max         26.379
_diffrn_reflns_theta_min         2.306
_diffrn_source                   'microfocus sealed tube'
_diffrn_source_current           1.4
_diffrn_source_power             0.07
_diffrn_source_type              'INCOATEC I\ms 3.0'
_diffrn_source_voltage           50.0
_diffrn_standards_number         0
_exptl_absorpt_coefficient_mu    0.762
_exptl_absorpt_correction_T_max  0.7454
_exptl_absorpt_correction_T_min  0.6673
_exptl_absorpt_correction_type   multi-scan
_exptl_absorpt_process_details
;
SADABS-2016/2 (Bruker,2016/2) was used for absorption correction.
wR2(int) was 0.1067 before and 0.0608 after correction.
The Ratio of minimum to maximum transmission is 0.8952.
The \l/2 correction factor is Not present.
;
_exptl_crystal_colour            orange
_exptl_crystal_colour_primary    orange
_exptl_crystal_density_diffrn    0.818
_exptl_crystal_description       rod
_exptl_crystal_F_000             734
_exptl_crystal_size_max          0.13
_exptl_crystal_size_mid          0.03
_exptl_crystal_size_min          0.03
_refine_diff_density_max         0.846
_refine_diff_density_min         -0.339
_refine_diff_density_rms         0.092
_refine_ls_extinction_method     none
_refine_ls_goodness_of_fit_ref   1.115
_refine_ls_hydrogen_treatment    constr
_refine_ls_matrix_type           full
_refine_ls_number_parameters     41
_refine_ls_number_reflns         1175
_refine_ls_number_restraints     0
_refine_ls_restrained_S_all      1.115
_refine_ls_R_factor_all          0.0437
_refine_ls_R_factor_gt           0.0391
_refine_ls_shift/su_max          0.001
_refine_ls_shift/su_mean         0.000
_refine_ls_structure_factor_coef Fsqd
_refine_ls_weighting_details
'w=1/[\s^2^(Fo^2^)+(0.0830P)^2^+1.1060P] where P=(Fo^2^+2Fc^2^)/3'
_refine_ls_weighting_scheme      calc
_refine_ls_wR_factor_gt          0.1176
_refine_ls_wR_factor_ref         0.1239
_reflns_Friedel_coverage         0.000
_reflns_number_gt                1056
_reflns_number_total             1175
_reflns_threshold_expression     'I > 2\s(I)'
_cod_data_source_file            d1mh01663f2.cif
_cod_data_source_block           MIL888Fe
_cod_depositor_comments
'Adding full bibliography for 1564910--1564914.cif.'
_cod_original_cell_volume        2959.6(6)
_cod_database_code               1564914
_shelx_shelxl_version_number     2018/3
_shelx_space_group_comment
;
The symmetry employed for this shelxl refinement is uniquely defined
by the following loop, which should always be used as a source of
symmetry information in preference to the above space-group names.
They are only intended as comments.
;
_shelx_estimated_absorpt_t_max   0.977
_shelx_estimated_absorpt_t_min   0.907
_olex2_refinement_description
;
1. Fixed Uiso
 At 1.2 times of:
  All C(H) groups
2.a Aromatic/amide H refined with riding coordinates:
 C6(H6)
;
_shelx_res_file
;
TITL mo_DJB_06_62d_150K_0m in P63/mmc #194
    mo_djb_06_62d_150k_0m_sq.res
    created by SHELXL-2018/3 at 15:08:27 on 08-Jun-2021
REM reset to P63/mmc #194
CELL 0.71073 13.9105 13.9105 17.6608 90 90 120
ZERR 2 0.0012 0.0012 0.0013 0 0 0
LATT 1
SYMM -Y+X,+X,0.5+Z
SYMM -Y,+X-Y,+Z
SYMM -X,-Y,0.5+Z
SYMM +Y-X,-X,+Z
SYMM +Y,-X+Y,0.5+Z
SYMM -Y+X,-Y,-Z
SYMM -X,-X+Y,-Z
SYMM +Y,+X,-Z
SYMM -Y,-X,0.5-Z
SYMM +Y-X,+Y,0.5-Z
SYMM +X,+X-Y,0.5-Z
SFAC C H Fe O
UNIT 48 34 6 32

L.S. 10 0 11
PLAN  10
SIZE 0.03 0.03 0.13
TEMP 0
CONF
BOND
ABIN
MORE -1
BOND $H
fmap 2 53
acta
OMIT 0 2 3
OMIT -1 2 0
OMIT 0 3 1
OMIT -1 4 0
OMIT 0 2 1
OMIT -1 2 4
OMIT 0 2 0
OMIT -2 4 4
REM <olex2.extras>
REM <HklSrc "%.\\mo_DJB_06_62d_150K_0m_sq.hkl">
REM </olex2.extras>

WGHT    0.083000    1.106000
FVAR       0.44375
FE1   3    0.746390    0.492779    0.250000    10.25000    0.02332    0.02441 =
         0.01017    0.00000    0.00000    0.01220
O1    4    0.653678    0.506265    0.332400    11.00000    0.04340    0.03452 =
         0.02859   -0.00520    0.01369    0.01695
O2    4    0.666667    0.333333    0.250000    10.08333    0.02141    0.02141 =
         0.01252    0.00000    0.00000    0.01070
O3    4    0.831285    0.662570    0.250000    10.25000    0.04237    0.02699 =
         0.03445    0.00000    0.00000    0.01350
C4    1    0.561283    0.438717    0.359718    10.50000    0.03535    0.03535 =
         0.01938   -0.00353    0.00353    0.02185
C5    1    0.529051    0.470949    0.431972    10.50000    0.03721    0.03721 =
         0.02319   -0.00668    0.00668    0.01623
C6    1    0.428210    0.399674    0.465954    11.00000    0.04146    0.04392 =
         0.04210   -0.02051    0.01446    0.00448
AFIX  43
H6    2    0.379513    0.332442    0.442962    11.00000   -1.20000
AFIX   0
HKLF 4




REM  mo_DJB_06_62d_150K_0m in P63/mmc #194
REM wR2 = 0.1239, GooF = S = 1.115, Restrained GooF = 1.115 for all data
REM R1 = 0.0391 for 1056 Fo > 4sig(Fo) and 0.0437 for all 1175 data
REM 41 parameters refined using 0 restraints

END

WGHT      0.0751      1.1335

REM Highest difference peak  0.846,  deepest hole -0.339,  1-sigma level  0.092
Q1    1   0.8619  0.7238  0.2974  10.50000  0.05    0.85
Q2    1   0.7923  0.5846  0.2500  10.25000  0.05    0.47
Q3    1   0.7955  0.6950  0.2500  10.50000  0.05    0.40
Q4    1   0.7065  0.5131  0.2252  11.00000  0.05    0.29
Q5    1   0.6468  0.4943  0.3059  11.00000  0.05    0.28
Q6    1   0.5556  0.5175  0.4432  11.00000  0.05    0.25
Q7    1   0.7026  0.4053  0.2500  10.25000  0.05    0.23
Q8    1   0.5407  0.4592  0.3944  10.50000  0.05    0.23
Q9    1   0.1880  0.3759  0.2736  10.50000  0.05    0.22
Q10   1   0.9397  0.8795  0.2840  10.50000  0.05    0.22
;
_shelx_res_checksum              85159
_shelx_fab_file
;
   -1    2    0    -20.93      0.00
    0    2    0    -63.38      0.00
   -1    3    0    -22.11      0.00
    0    3    0    -17.31      0.00
   -1    4    0     -7.93      0.00
   -2    4    0     29.94      0.00
    0    4    0    -32.60      0.00
   -1    5    0      3.42      0.00
   -2    5    0      3.52      0.00
    0    5    0    -14.04      0.00
   -1    6    0      4.86      0.00
   -2    6    0      5.80      0.00
   -3    6    0     25.37      0.00
    0    6    0      6.16      0.00
   -1    7    0     -0.80      0.00
   -2    7    0      9.34      0.00
   -3    7    0      3.59      0.00
    0    7    0      2.45      0.00
   -1    8    0      6.00      0.00
   -2    8    0     -5.70      0.00
   -3    8    0     -5.48      0.00
   -4    8    0     12.45      0.00
    0    8    0      2.10      0.00
   -1    9    0     -0.93      0.00
   -2    9    0     -2.22      0.00
   -3    9    0     -1.99      0.00
   -4    9    0     -0.42      0.00
    0    9    0      1.70      0.00
   -1   10    0     -2.99      0.00
   -2   10    0     -0.11      0.00
   -3   10    0     -4.91      0.00
   -4   10    0     -5.11      0.00
   -5   10    0      8.27      0.00
    0   10    0     -0.65      0.00
   -1   11    0      1.07      0.00
   -2   11    0     -2.05      0.00
   -3   11    0     -1.55      0.00
   -4   11    0     -3.24      0.00
   -5   11    0      3.62      0.00
    0   11    0     -1.84      0.00
   -1   12    0     -0.25      0.00
   -2   12    0     -1.22      0.00
   -3   12    0      2.07      0.00
   -4   12    0     -2.93      0.00
   -5   12    0     -1.06      0.00
   -6   12    0      8.16      0.00
    0   12    0      0.00      0.00
   -1   13    0     -0.43      0.00
   -2   13    0      1.90      0.00
   -3   13    0      0.62      0.00
   -4   13    0     -0.32      0.00
   -5   13    0     -2.46      0.00
   -6   13    0     -0.83      0.00
    0   13    0     -0.46      0.00
   -1   14    0      0.51      0.00
   -2   14    0      1.85      0.00
   -3   14    0      0.02      0.00
   -4   14    0     -0.18      0.00
   -5   14    0     -0.49      0.00
   -6   14    0     -1.53      0.00
   -7   14    0      0.10      0.00
    0   14    0     -0.44      0.00
   -1   15    0      1.79      0.00
   -2   15    0      1.36      0.00
   -3   15    0     -0.49      0.00
   -4   15    0     -0.06      0.00
   -5   15    0      0.20      0.00
   -6   15    0      3.07      0.00
   -7   15    0      0.26      0.00
    0   15    0      1.28      0.00
   -3   16    0     -1.49      0.00
   -4   16    0     -1.12      0.00
   -5   16    0      1.56      0.00
   -6   16    0      2.70      0.00
   -7   16    0     -0.27      0.00
   -8   16    0      0.52      0.00
   -6   17    0     -0.59      0.00
   -7   17    0      0.98      0.00
   -8   17    0     -1.00      0.00
   -1    3    1      8.90      0.00
    0    2    1     64.28      0.00
   -2    5    1     -3.69      0.00
   -1    4    1    -21.99      0.00
    0    3    1      3.39      0.00
   -3    7    1      2.38      0.00
   -2    6    1     -0.91      0.00
   -1    5    1     -2.45      0.00
    0    4    1    -14.31      0.00
   -4    9    1      3.72      0.00
   -3    8    1     -2.92      0.00
   -2    7    1      0.35      0.00
   -1    6    1      3.47      0.00
    0    5    1      3.87      0.00
   -5   11    1      4.49      0.00
   -4   10    1      4.11      0.00
   -3    9    1     -1.62      0.00
   -2    8    1     -0.08      0.00
   -1    7    1      3.22      0.00
    0    6    1     -2.66      0.00
   -6   13    1      0.22      0.00
   -5   12    1      0.68      0.00
   -4   11    1     -0.41      0.00
   -3   10    1     -3.68      0.00
   -2    9    1     -1.78      0.00
   -1    8    1      3.46      0.00
    0    7    1      2.71      0.00
   -7   15    1     -0.12      0.00
   -6   14    1     -0.41      0.00
   -5   13    1     -0.46      0.00
   -4   12    1     -3.19      0.00
   -3   11    1     -1.74      0.00
   -2   10    1      1.85      0.00
   -1    9    1      0.50      0.00
    0    8    1     -0.40      0.00
   -8   17    1     -0.15      0.00
   -7   16    1     -0.80      0.00
   -6   15    1     -1.26      0.00
   -5   14    1     -0.78      0.00
   -4   13    1     -0.47      0.00
   -3   12    1      0.39      0.00
   -2   11    1      1.69      0.00
   -1   10    1      0.41      0.00
    0    9    1     -2.52      0.00
   -7   17    1     -0.08      0.00
   -6   16    1      1.45      0.00
   -5   15    1      0.40      0.00
   -4   14    1      0.44      0.00
   -3   13    1      0.51      0.00
   -2   12    1     -1.65      0.00
   -1   11    1     -0.05      0.00
    0   10    1     -0.87      0.00
   -6   17    1      0.60      0.00
   -5   16    1     -0.23      0.00
   -4   15    1      0.06      0.00
   -3   14    1      1.00      0.00
   -2   13    1     -1.27      0.00
   -1   12    1      0.75      0.00
    0   11    1      0.48      0.00
   -4   16    1     -0.09      0.00
   -3   15    1      0.46      0.00
   -2   14    1     -1.47      0.00
   -1   13    1      0.16      0.00
    0   12    1      1.40      0.00
   -3   16    1      0.96      0.00
   -2   15    1     -0.86      0.00
   -1   14    1     -0.01      0.00
    0   13    1      0.79      0.00
   -1   15    1     -0.04      0.00
    0   14    1      1.02      0.00
    0   15    1      0.80      0.00
    0    0    2    -40.62      0.00
    0    1    2     13.62      0.00
   -1    2    2     45.12      0.00
   -1    3    2    -19.66      0.00
    0    2    2      3.84      0.00
   -2    4    2      0.99      0.00
   -2    5    2      6.26      0.00
   -1    4    2    -23.79      0.00
    0    3    2    -12.40      0.00
   -3    6    2     17.48      0.00
   -3    7    2      1.67      0.00
   -2    6    2      0.26      0.00
   -1    5    2      6.54      0.00
    0    4    2     -5.32      0.00
   -4    8    2     -0.48      0.00
   -4    9    2     -5.85      0.00
   -3    8    2     -2.71      0.00
   -2    7    2      7.46      0.00
   -1    6    2     -4.37      0.00
    0    5    2     -1.87      0.00
   -5   10    2     -2.20      0.00
   -5   11    2     -2.39      0.00
   -4   10    2     -0.66      0.00
   -3    9    2      1.88      0.00
   -2    8    2     -0.60      0.00
   -1    7    2      1.51      0.00
    0    6    2      8.94      0.00
   -6   12    2     -2.08      0.00
   -6   13    2     -0.56      0.00
   -5   12    2      0.46      0.00
   -4   11    2      4.13      0.00
   -3   10    2     -1.46      0.00
   -2    9    2     -5.22      0.00
   -1    8    2      4.57      0.00
    0    7    2      2.00      0.00
   -7   14    2      3.00      0.00
   -7   15    2      1.40      0.00
   -6   14    2      0.63      0.00
   -5   13    2      3.38      0.00
   -4   12    2      1.25      0.00
   -3   11    2     -3.31      0.00
   -2   10    2      0.83      0.00
   -1    9    2      1.02      0.00
    0    8    2      2.01      0.00
   -8   16    2      1.45      0.00
   -8   17    2      0.53      0.00
   -7   16    2     -0.34      0.00
   -6   15    2     -0.38      0.00
   -5   14    2     -0.78      0.00
   -4   13    2     -0.91      0.00
   -3   12    2     -0.90      0.00
   -2   11    2      0.05      0.00
   -1   10    2      0.06      0.00
    0    9    2      4.60      0.00
   -7   17    2     -0.16      0.00
   -6   16    2     -1.45      0.00
   -5   15    2     -1.20      0.00
   -4   14    2      0.93      0.00
   -3   13    2      0.27      0.00
   -2   12    2     -1.12      0.00
   -1   11    2     -0.82      0.00
    0   10    2     -1.91      0.00
   -6   17    2     -0.59      0.00
   -5   16    2      0.40      0.00
   -4   15    2     -0.07      0.00
   -3   14    2      0.06      0.00
   -2   13    2     -0.65      0.00
   -1   12    2     -1.58      0.00
    0   11    2     -3.34      0.00
   -4   16    2     -0.05      0.00
   -3   15    2      0.90      0.00
   -2   14    2     -0.90      0.00
   -1   13    2     -1.59      0.00
    0   12    2      0.23      0.00
   -3   16    2      0.96      0.00
   -2   15    2     -1.19      0.00
   -1   14    2      0.86      0.00
    0   13    2      2.56      0.00
   -1   15    2      2.10      0.00
    0   14    2      1.80      0.00
    0   15    2      2.86      0.00
    0    1    3      5.37      0.00
   -1    3    3     17.87      0.00
    0    2    3     -8.90      0.00
   -2    5    3      8.49      0.00
   -1    4    3     11.71      0.00
    0    3    3      3.43      0.00
   -3    7    3      4.08      0.00
   -2    6    3      1.38      0.00
   -1    5    3     -4.15      0.00
    0    4    3      0.80      0.00
   -4    9    3     -2.86      0.00
   -3    8    3     -2.18      0.00
   -2    7    3      1.94      0.00
   -1    6    3      2.23      0.00
    0    5    3     -4.02      0.00
   -5   11    3     -2.80      0.00
   -4   10    3     -4.96      0.00
   -3    9    3     -3.45      0.00
   -2    8    3     -1.34      0.00
   -1    7    3     -1.61      0.00
    0    6    3      8.06      0.00
   -6   13    3      0.25      0.00
   -5   12    3     -0.44      0.00
   -4   11    3      1.44      0.00
   -3   10    3      1.94      0.00
   -2    9    3     -3.37      0.00
   -1    8    3     -3.19      0.00
    0    7    3     -0.79      0.00
   -7   15    3      0.30      0.00
   -6   14    3     -1.42      0.00
   -5   13    3      1.35      0.00
   -4   12    3      4.22      0.00
   -3   11    3      3.31      0.00
   -2   10    3     -1.55      0.00
   -1    9    3     -1.45      0.00
    0    8    3     -1.61      0.00
   -8   17    3      0.40      0.00
   -7   16    3      0.73      0.00
   -6   15    3     -0.40      0.00
   -5   14    3      0.33      0.00
   -4   13    3      1.56      0.00
   -3   12    3      0.99      0.00
   -2   11    3     -0.08      0.00
   -1   10    3     -0.43      0.00
    0    9    3      2.48      0.00
   -7   17    3     -1.22      0.00
   -6   16    3      0.65      0.00
   -5   15    3     -0.49      0.00
   -4   14    3     -0.20      0.00
   -3   13    3     -0.61      0.00
   -2   12    3      1.46      0.00
   -1   11    3      1.46      0.00
    0   10    3      1.28      0.00
   -5   16    3      0.01      0.00
   -4   15    3      0.06      0.00
   -3   14    3     -0.69      0.00
   -2   13    3      0.86      0.00
   -1   12    3      0.34      0.00
    0   11    3     -1.07      0.00
   -4   16    3      0.07      0.00
   -3   15    3     -0.41      0.00
   -2   14    3      0.63      0.00
   -1   13    3     -0.65      0.00
    0   12    3     -2.67      0.00
   -3   16    3      0.50      0.00
   -2   15    3      0.24      0.00
   -1   14    3     -2.26      0.00
    0   13    3     -1.45      0.00
   -1   15    3      0.37      0.00
    0   14    3     -0.39      0.00
    0    0    4     25.22      0.00
    0    1    4      4.10      0.00
   -1    2    4     -1.11      0.00
   -1    3    4     -0.33      0.00
    0    2    4      7.19      0.00
   -2    4    4     -8.08      0.00
   -2    5    4    -19.89      0.00
   -1    4    4     -5.40      0.00
    0    3    4     15.51      0.00
   -3    6    4     -2.86      0.00
   -3    7    4      3.16      0.00
   -2    6    4     -0.58      0.00
   -1    5    4      4.54      0.00
    0    4    4    -11.20      0.00
   -4    8    4      7.88      0.00
   -4    9    4     -0.29      0.00
   -3    8    4      1.81      0.00
   -2    7    4      8.09      0.00
   -1    6    4      6.08      0.00
    0    5    4     -1.92      0.00
   -5   10    4      1.66      0.00
   -5   11    4      0.18      0.00
   -4   10    4     -4.24      0.00
   -3    9    4      0.61      0.00
   -2    8    4      1.37      0.00
   -1    7    4     -0.58      0.00
    0    6    4      7.88      0.00
   -6   12    4      4.05      0.00
   -6   13    4      1.95      0.00
   -5   12    4     -1.84      0.00
   -4   11    4     -2.16      0.00
   -3   10    4     -0.96      0.00
   -2    9    4      0.83      0.00
   -1    8    4      1.88      0.00
    0    7    4     -0.16      0.00
   -7   14    4      0.35      0.00
   -7   15    4     -1.21      0.00
   -6   14    4     -0.67      0.00
   -5   13    4     -1.01      0.00
   -4   12    4     -2.14      0.00
   -3   11    4     -0.01      0.00
   -2   10    4      1.54      0.00
   -1    9    4     -2.82      0.00
    0    8    4     -4.63      0.00
   -8   16    4     -0.48      0.00
   -8   17    4     -0.80      0.00
   -7   16    4      0.87      0.00
   -6   15    4      0.61      0.00
   -5   14    4     -0.03      0.00
   -4   13    4     -0.44      0.00
   -3   12    4      1.62      0.00
   -2   11    4     -0.12      0.00
   -1   10    4     -4.03      0.00
    0    9    4     -3.16      0.00
   -7   17    4      0.70      0.00
   -6   16    4      0.57      0.00
   -5   15    4     -0.05      0.00
   -4   14    4      1.31      0.00
   -3   13    4      0.17      0.00
   -2   12    4     -1.66      0.00
   -1   11    4      0.94      0.00
    0   10    4      0.70      0.00
   -5   16    4      0.40      0.00
   -4   15    4     -0.85      0.00
   -3   14    4     -1.12      0.00
   -2   13    4      0.23      0.00
   -1   12    4      2.08      0.00
    0   11    4      1.90      0.00
   -4   16    4     -1.05      0.00
   -3   15    4     -1.49      0.00
   -2   14    4      0.24      0.00
   -1   13    4      0.47      0.00
    0   12    4      1.03      0.00
   -3   16    4     -0.60      0.00
   -2   15    4      0.82      0.00
   -1   14    4      0.16      0.00
    0   13    4     -2.32      0.00
   -1   15    4      1.31      0.00
    0   14    4      0.39      0.00
    0    1    5      9.20      0.00
   -1    3    5      3.28      0.00
    0    2    5     11.48      0.00
   -2    5    5      3.32      0.00
   -1    4    5     -7.46      0.00
    0    3    5     -0.04      0.00
   -3    7    5      1.17      0.00
   -2    6    5     -0.37      0.00
   -1    5    5      2.71      0.00
    0    4    5      6.66      0.00
   -4    9    5      3.08      0.00
   -3    8    5     -0.05      0.00
   -2    7    5     -1.50      0.00
   -1    6    5      0.83      0.00
    0    5    5     -0.80      0.00
   -5   11    5      3.00      0.00
   -4   10    5      2.17      0.00
   -3    9    5     -0.30      0.00
   -2    8    5      0.40      0.00
   -1    7    5     -1.22      0.00
    0    6    5     -7.57      0.00
   -6   13    5      1.67      0.00
   -5   12    5      2.04      0.00
   -4   11    5     -1.37      0.00
   -3   10    5     -3.20      0.00
   -2    9    5     -0.47      0.00
   -1    8    5      2.99      0.00
    0    7    5      0.36      0.00
   -7   15    5      0.02      0.00
   -6   14    5      0.63      0.00
   -5   13    5      0.31      0.00
   -4   12    5     -1.94      0.00
   -3   11    5     -2.40      0.00
   -2   10    5      0.75      0.00
   -1    9    5      1.17      0.00
    0    8    5      0.29      0.00
   -7   16    5     -0.80      0.00
   -6   15    5      0.37      0.00
   -5   14    5      0.44      0.00
   -4   13    5     -1.30      0.00
   -3   12    5      0.21      0.00
   -2   11    5      2.20      0.00
   -1   10    5      0.49      0.00
    0    9    5     -1.11      0.00
   -6   16    5      0.50      0.00
   -5   15    5     -1.58      0.00
   -4   14    5     -0.24      0.00
   -3   13    5      0.94      0.00
   -2   12    5      1.25      0.00
   -1   11    5     -0.93      0.00
    0   10    5     -1.35      0.00
   -5   16    5     -0.33      0.00
   -4   15    5      0.27      0.00
   -3   14    5      0.37      0.00
   -2   13    5     -1.65      0.00
   -1   12    5     -0.58      0.00
    0   11    5      0.66      0.00
   -4   16    5     -0.02      0.00
   -3   15    5      0.63      0.00
   -2   14    5     -1.47      0.00
   -1   13    5     -0.43      0.00
    0   12    5      1.08      0.00
   -2   15    5      0.25      0.00
   -1   14    5      0.33      0.00
    0   13    5      1.21      0.00
   -1   15    5      0.20      0.00
    0   14    5      1.28      0.00
    0    0    6    -20.63      0.00
    0    1    6      5.07      0.00
   -1    2    6      8.40      0.00
   -1    3    6     -9.36      0.00
    0    2    6      6.35      0.00
   -2    4    6     -6.29      0.00
   -2    5    6      1.20      0.00
   -1    4    6      0.05      0.00
    0    3    6     -2.11      0.00
   -3    6    6      1.09      0.00
   -3    7    6     -2.56      0.00
   -2    6    6     -0.97      0.00
   -1    5    6      3.24      0.00
    0    4    6      2.88      0.00
   -4    8    6     -0.80      0.00
   -4    9    6      0.08      0.00
   -3    8    6      1.55      0.00
   -2    7    6      1.95      0.00
   -1    6    6     -3.02      0.00
    0    5    6      2.72      0.00
   -5   10    6     -2.21      0.00
   -5   11    6     -2.82      0.00
   -4   10    6      1.60      0.00
   -3    9    6      3.80      0.00
   -2    8    6      0.10      0.00
   -1    7    6     -0.79      0.00
    0    6    6      3.86      0.00
   -6   12    6     -3.06      0.00
   -6   13    6     -1.39      0.00
   -5   12    6      0.28      0.00
   -4   11    6      2.47      0.00
   -3   10    6     -0.51      0.00
   -2    9    6     -4.75      0.00
   -1    8    6     -0.15      0.00
    0    7    6      1.58      0.00
   -7   14    6      1.06      0.00
   -7   15    6      2.18      0.00
   -6   14    6      0.50      0.00
   -5   13    6      1.07      0.00
   -4   12    6      1.53      0.00
   -3   11    6     -2.01      0.00
   -2   10    6     -2.35      0.00
   -1    9    6      0.54      0.00
    0    8    6     -1.07      0.00
   -8   16    6      1.32      0.00
   -7   16    6     -0.84      0.00
   -6   15    6     -0.46      0.00
   -5   14    6      0.95      0.00
   -4   13    6     -0.74      0.00
   -3   12    6     -0.17      0.00
   -2   11    6      0.98      0.00
   -1   10    6      1.55      0.00
    0    9    6      2.95      0.00
   -6   16    6      0.21      0.00
   -5   15    6      0.69      0.00
   -4   14    6     -1.18      0.00
   -3   13    6     -1.63      0.00
   -2   12    6      0.88      0.00
   -1   11    6      1.97      0.00
    0   10    6      1.34      0.00
   -5   16    6     -0.45      0.00
   -4   15    6      0.81      0.00
   -3   14    6     -2.10      0.00
   -2   13    6     -0.63      0.00
   -1   12    6     -0.28      0.00
    0   11    6     -1.48      0.00
   -4   16    6      1.40      0.00
   -3   15    6      1.20      0.00
   -2   14    6     -1.12      0.00
   -1   13    6     -0.66      0.00
    0   12    6     -0.47      0.00
   -2   15    6      0.77      0.00
   -1   14    6     -0.19      0.00
    0   13    6      0.39      0.00
    0   14    6      0.60      0.00
    0    1    7     -7.93      0.00
   -1    3    7      1.99      0.00
    0    2    7     -2.61      0.00
   -2    5    7     -1.45      0.00
   -1    4    7      6.30      0.00
    0    3    7     12.87      0.00
   -3    7    7     -1.78      0.00
   -2    6    7     -3.93      0.00
   -1    5    7     -0.28      0.00
    0    4    7      1.90      0.00
   -4    9    7     -2.00      0.00
   -3    8    7      0.07      0.00
   -2    7    7      0.07      0.00
   -1    6    7     -1.74      0.00
    0    5    7     -3.77      0.00
   -5   11    7     -3.07      0.00
   -4   10    7     -1.53      0.00
   -3    9    7      2.35      0.00
   -2    8    7      3.32      0.00
   -1    7    7      0.25      0.00
    0    6    7     -0.33      0.00
   -6   13    7     -0.23      0.00
   -5   12    7     -1.16      0.00
   -4   11    7     -0.88      0.00
   -3   10    7      1.04      0.00
   -2    9    7      2.56      0.00
   -1    8    7     -1.30      0.00
    0    7    7     -0.96      0.00
   -7   15    7      0.72      0.00
   -6   14    7      0.44      0.00
   -5   13    7      0.66      0.00
   -4   12    7      0.86      0.00
   -3   11    7      0.09      0.00
   -2   10    7     -3.03      0.00
   -1    9    7     -1.62      0.00
    0    8    7      1.39      0.00
   -7   16    7      0.63      0.00
   -6   15    7     -0.93      0.00
   -5   14    7      0.55      0.00
   -4   13    7      1.45      0.00
   -3   12    7     -1.05      0.00
   -2   11    7     -2.95      0.00
   -1   10    7      0.54      0.00
    0    9    7      2.03      0.00
   -6   16    7     -1.21      0.00
   -5   15    7      1.04      0.00
   -4   14    7      0.53      0.00
   -3   13    7     -0.24      0.00
   -2   12    7     -0.05      0.00
   -1   11    7      0.32      0.00
    0   10    7      1.77      0.00
   -5   16    7      0.06      0.00
   -4   15    7      0.65      0.00
   -3   14    7     -1.21      0.00
   -2   13    7     -0.20      0.00
   -1   12    7      0.92      0.00
    0   11    7      1.58      0.00
   -3   15    7     -0.85      0.00
   -2   14    7      0.49      0.00
   -1   13    7      0.48      0.00
    0   12    7      0.02      0.00
   -2   15    7      0.91      0.00
   -1   14    7      0.89      0.00
    0   13    7     -1.54      0.00
    0   14    7     -0.66      0.00
    0    0    8     16.81      0.00
    0    1    8      3.46      0.00
   -1    2    8      0.87      0.00
   -1    3    8     -1.74      0.00
    0    2    8     -3.51      0.00
   -2    4    8      2.86      0.00
   -2    5    8      2.93      0.00
   -1    4    8     -3.59      0.00
    0    3    8     -1.82      0.00
   -3    6    8      4.84      0.00
   -3    7    8      0.92      0.00
   -2    6    8      1.81      0.00
   -1    5    8      0.49      0.00
    0    4    8     -5.02      0.00
   -4    8    8      1.16      0.00
   -4    9    8     -0.59      0.00
   -3    8    8     -3.48      0.00
   -2    7    8     -0.95      0.00
   -1    6    8      0.92      0.00
    0    5    8     -1.75      0.00
   -5   10    8      3.65      0.00
   -5   11    8      1.80      0.00
   -4   10    8     -1.72      0.00
   -3    9    8     -2.54      0.00
   -2    8    8     -2.51      0.00
   -1    7    8      0.36      0.00
    0    6    8      2.08      0.00
   -6   12    8      3.12      0.00
   -6   13    8      0.75      0.00
   -5   12    8      0.09      0.00
   -4   11    8     -0.15      0.00
   -3   10    8     -0.66      0.00
   -2    9    8      0.68      0.00
   -1    8    8      2.27      0.00
    0    7    8     -0.45      0.00
   -7   14    8     -1.81      0.00
   -7   15    8     -1.95      0.00
   -6   14    8     -0.64      0.00
   -5   13    8     -0.90      0.00
   -4   12    8     -0.89      0.00
   -3   11    8      0.82      0.00
   -2   10    8      2.77      0.00
   -1    9    8      0.46      0.00
    0    8    8     -0.84      0.00
   -8   16    8     -1.46      0.00
   -7   16    8      0.25      0.00
   -6   15    8      0.23      0.00
   -5   14    8     -0.69      0.00
   -4   13    8     -0.59      0.00
   -3   12    8     -0.08      0.00
   -2   11    8     -0.86      0.00
   -1   10    8     -0.64      0.00
    0    9    8      1.39      0.00
   -6   16    8      0.40      0.00
   -5   15    8      0.05      0.00
   -4   14    8      0.32      0.00
   -3   13    8      0.82      0.00
   -2   12    8     -0.27      0.00
   -1   11    8     -0.75      0.00
    0   10    8     -0.12      0.00
   -4   15    8      0.79      0.00
   -3   14    8      1.85      0.00
   -2   13    8      0.40      0.00
   -1   12    8     -1.24      0.00
    0   11    8     -0.64      0.00
   -3   15    8     -1.56      0.00
   -2   14    8      0.30      0.00
   -1   13    8      0.10      0.00
    0   12    8     -0.57      0.00
   -1   14    8      0.61      0.00
    0   13    8      1.08      0.00
    0   14    8     -0.56      0.00
    0    1    9     -4.17      0.00
   -1    3    9     -1.95      0.00
    0    2    9      1.83      0.00
   -2    5    9     -0.63      0.00
   -1    4    9      2.13      0.00
    0    3    9      1.73      0.00
   -3    7    9     -0.21      0.00
   -2    6    9      4.18      0.00
   -1    5    9      1.76      0.00
    0    4    9     -0.06      0.00
   -4    9    9     -0.09      0.00
   -3    8    9      1.18      0.00
   -2    7    9      0.45      0.00
   -1    6    9     -1.63      0.00
    0    5    9      0.69      0.00
   -5   11    9      0.61      0.00
   -4   10    9      1.20      0.00
   -3    9    9     -0.93      0.00
   -2    8    9     -2.75      0.00
   -1    7    9     -0.88      0.00
    0    6    9     -1.31      0.00
   -6   13    9     -0.06      0.00
   -5   12    9      0.60      0.00
   -4   11    9     -0.64      0.00
   -3   10    9     -1.16      0.00
   -2    9    9      0.48      0.00
   -1    8    9     -0.03      0.00
    0    7    9     -1.34      0.00
   -7   15    9     -0.10      0.00
   -6   14    9      0.59      0.00
   -5   13    9     -0.09      0.00
   -4   12    9     -1.83      0.00
   -3   11    9      0.14      0.00
   -2   10    9      0.72      0.00
   -1    9    9      0.25      0.00
    0    8    9      0.95      0.00
   -6   15    9     -0.27      0.00
   -5   14    9     -0.25      0.00
   -4   13    9      0.37      0.00
   -3   12    9     -0.18      0.00
   -2   11    9     -0.88      0.00
   -1   10    9      0.92      0.00
    0    9    9     -0.85      0.00
   -5   15    9     -1.55      0.00
   -4   14    9     -0.50      0.00
   -3   13    9      0.43      0.00
   -2   12    9      0.77      0.00
   -1   11    9      0.74      0.00
    0   10    9     -0.07      0.00
   -4   15    9     -0.68      0.00
   -3   14    9      0.70      0.00
   -2   13    9      1.40      0.00
   -1   12    9      0.11      0.00
    0   11    9      1.77      0.00
   -3   15    9      0.23      0.00
   -2   14    9     -1.88      0.00
   -1   13    9     -0.03      0.00
    0   12    9      0.25      0.00
   -1   14    9     -0.79      0.00
    0   13    9      0.05      0.00
    0    0   10     15.93      0.00
    0    1   10      2.68      0.00
   -1    2   10      3.81      0.00
   -1    3   10     -3.19      0.00
    0    2   10     -4.20      0.00
   -2    4   10      1.86      0.00
   -2    5   10      1.16      0.00
   -1    4   10     -2.47      0.00
    0    3   10     -0.99      0.00
   -3    6   10      5.32      0.00
   -3    7   10      0.72      0.00
   -2    6   10      1.11      0.00
   -1    5   10      1.77      0.00
    0    4   10     -1.69      0.00
   -4    8   10      0.17      0.00
   -4    9   10     -1.44      0.00
   -3    8   10     -1.11      0.00
   -2    7   10      1.92      0.00
   -1    6   10     -1.83      0.00
    0    5   10     -3.67      0.00
   -5   10   10      0.86      0.00
   -5   11   10      0.79      0.00
   -4   10   10      0.48      0.00
   -3    9   10      0.57      0.00
   -2    8   10     -0.60      0.00
   -1    7   10     -1.20      0.00
    0    6   10     -1.04      0.00
   -6   12   10      0.53      0.00
   -6   13   10     -0.69      0.00
   -5   12   10      0.33      0.00
   -4   11   10      1.61      0.00
   -3   10   10     -1.63      0.00
   -2    9   10     -1.15      0.00
   -1    8   10      2.58      0.00
    0    7   10      0.85      0.00
   -7   14   10     -0.23      0.00
   -7   15   10     -0.20      0.00
   -6   14   10     -0.75      0.00
   -5   13   10      0.21      0.00
   -4   12   10     -0.67      0.00
   -3   11   10     -1.22      0.00
   -2   10   10      0.31      0.00
   -1    9   10     -0.19      0.00
    0    8   10      1.76      0.00
   -6   15   10     -0.90      0.00
   -5   14   10     -0.57      0.00
   -4   13   10     -0.08      0.00
   -3   12   10      0.57      0.00
   -2   11   10     -1.03      0.00
   -1   10   10     -0.99      0.00
    0    9   10      1.10      0.00
   -5   15   10      0.90      0.00
   -4   14   10      0.00      0.00
   -3   13   10      0.76      0.00
   -2   12   10     -0.09      0.00
   -1   11   10     -0.15      0.00
    0   10   10     -1.82      0.00
   -3   14   10      1.17      0.00
   -2   13   10      0.72      0.00
   -1   12   10      0.11      0.00
    0   11   10      0.10      0.00
   -2   14   10      1.07      0.00
   -1   13   10     -0.04      0.00
    0   12   10      0.44      0.00
    0   13   10     -0.87      0.00
    0    1   11     -0.72      0.00
   -1    3   11     -2.06      0.00
    0    2   11      1.12      0.00
   -2    5   11     -2.27      0.00
   -1    4   11     -0.73      0.00
    0    3   11     -2.03      0.00
   -3    7   11     -1.00      0.00
   -2    6   11      1.74      0.00
   -1    5   11     -0.87      0.00
    0    4   11     -3.53      0.00
   -4    9   11     -1.77      0.00
   -3    8   11      0.35      0.00
   -2    7   11      0.59      0.00
   -1    6   11      0.41      0.00
    0    5   11      1.69      0.00
   -5   11   11     -0.59      0.00
   -4   10   11     -0.01      0.00
   -3    9   11     -1.25      0.00
   -2    8   11     -1.98      0.00
   -1    7   11      1.69      0.00
    0    6   11      2.21      0.00
   -6   13   11     -0.17      0.00
   -5   12   11      0.31      0.00
   -4   11   11      1.22      0.00
   -3   10   11     -0.10      0.00
   -2    9   11     -1.10      0.00
   -1    8   11     -1.15      0.00
    0    7   11     -0.61      0.00
   -7   15   11      0.37      0.00
   -6   14   11     -0.35      0.00
   -5   13   11     -0.64      0.00
   -4   12   11      0.05      0.00
   -3   11   11      0.22      0.00
   -2   10   11     -0.02      0.00
   -1    9   11      0.14      0.00
    0    8   11      0.75      0.00
   -5   14   11     -0.83      0.00
   -4   13   11     -0.78      0.00
   -3   12   11     -0.64      0.00
   -2   11   11     -0.63      0.00
   -1   10   11      1.36      0.00
    0    9   11      2.29      0.00
   -4   14   11      0.25      0.00
   -3   13   11     -1.05      0.00
   -2   12   11      0.01      0.00
   -1   11   11      0.62      0.00
    0   10   11      0.81      0.00
   -3   14   11      1.03      0.00
   -2   13   11     -0.61      0.00
   -1   12   11     -0.89      0.00
    0   11   11      0.28      0.00
   -1   13   11     -0.16      0.00
    0   12   11      0.84      0.00
    0   13   11      0.24      0.00
    0    0   12      3.00      0.00
    0    1   12     -2.54      0.00
   -1    2   12      2.31      0.00
   -1    3   12     -0.14      0.00
    0    2   12     -1.12      0.00
   -2    4   12      1.30      0.00
   -2    5   12     -2.66      0.00
   -1    4   12     -1.39      0.00
    0    3   12      3.52      0.00
   -3    6   12      1.28      0.00
   -3    7   12     -2.11      0.00
   -2    6   12     -1.58      0.00
   -1    5   12      2.30      0.00
    0    4   12      0.33      0.00
   -4    8   12      1.63      0.00
   -4    9   12      0.12      0.00
   -3    8   12     -0.94      0.00
   -2    7   12      1.64      0.00
   -1    6   12      0.27      0.00
    0    5   12      0.29      0.00
   -5   10   12      2.84      0.00
   -5   11   12     -0.12      0.00
   -4   10   12     -0.09      0.00
   -3    9   12      1.82      0.00
   -2    8   12     -0.93      0.00
   -1    7   12     -0.72      0.00
    0    6   12      3.12      0.00
   -6   12   12      0.55      0.00
   -6   13   12      0.08      0.00
   -5   12   12     -0.90      0.00
   -4   11   12     -0.40      0.00
   -3   10   12     -0.54      0.00
   -2    9   12      0.27      0.00
   -1    8   12      1.03      0.00
    0    7   12     -1.20      0.00
   -7   14   12     -0.01      0.00
   -6   14   12      0.71      0.00
   -5   13   12      0.49      0.00
   -4   12   12     -0.91      0.00
   -3   11   12     -1.24      0.00
   -2   10   12      0.43      0.00
   -1    9   12     -1.33      0.00
    0    8   12     -1.23      0.00
   -5   14   12      0.78      0.00
   -4   13   12      0.23      0.00
   -3   12   12      0.70      0.00
   -2   11   12     -0.45      0.00
   -1   10   12     -0.57      0.00
    0    9   12      0.14      0.00
   -4   14   12      0.19      0.00
   -3   13   12     -0.58      0.00
   -2   12   12      0.14      0.00
   -1   11   12      1.74      0.00
    0   10   12      0.31      0.00
   -2   13   12      0.11      0.00
   -1   12   12      0.19      0.00
    0   11   12      0.07      0.00
   -1   13   12     -0.08      0.00
    0   12   12     -0.40      0.00
    0    1   13      0.38      0.00
   -1    3   13     -1.09      0.00
    0    2   13      1.04      0.00
   -2    5   13     -0.16      0.00
   -1    4   13      0.77      0.00
    0    3   13     -1.07      0.00
   -3    7   13     -1.01      0.00
   -2    6   13      0.65      0.00
   -1    5   13      0.69      0.00
    0    4   13     -0.42      0.00
   -4    9   13     -0.03      0.00
   -3    8   13     -1.24      0.00
   -2    7   13     -0.45      0.00
   -1    6   13      0.51      0.00
    0    5   13      1.65      0.00
   -5   11   13      0.34      0.00
   -4   10   13      0.23      0.00
   -3    9   13     -0.24      0.00
   -2    8   13     -1.21      0.00
   -1    7   13      0.22      0.00
    0    6   13     -0.09      0.00
   -6   13   13     -0.25      0.00
   -5   12   13      0.05      0.00
   -4   11   13     -0.09      0.00
   -3   10   13     -0.27      0.00
   -2    9   13     -0.32      0.00
   -1    8   13      0.27      0.00
    0    7   13      0.28      0.00
   -6   14   13      0.42      0.00
   -5   13   13      0.47      0.00
   -4   12   13      1.12      0.00
   -3   11   13      0.54      0.00
   -2   10   13      1.04      0.00
   -1    9   13      0.19      0.00
    0    8   13     -0.78      0.00
   -4   13   13     -0.14      0.00
   -3   12   13      0.15      0.00
   -2   11   13      1.95      0.00
   -1   10   13     -0.10      0.00
    0    9   13     -0.64      0.00
   -3   13   13     -2.12      0.00
   -2   12   13     -0.94      0.00
   -1   11   13     -0.52      0.00
    0   10   13     -1.22      0.00
   -2   13   13     -0.19      0.00
   -1   12   13      0.46      0.00
    0   11   13     -1.30      0.00
    0   12   13      0.85      0.00
    0    0   14     -4.62      0.00
    0    1   14     -2.25      0.00
   -1    2   14      2.25      0.00
   -1    3   14     -0.13      0.00
    0    2   14      0.47      0.00
   -2    4   14      1.05      0.00
   -2    5   14     -2.19      0.00
   -1    4   14     -0.83      0.00
    0    3   14      3.07      0.00
   -3    6   14      0.05      0.00
   -3    7   14     -0.84      0.00
   -2    6   14     -1.56      0.00
   -1    5   14      1.85      0.00
    0    4   14      0.78      0.00
   -4    8   14      1.78      0.00
   -4    9   14      0.31      0.00
   -3    8   14      0.01      0.00
   -2    7   14      2.54      0.00
   -1    6   14     -1.27      0.00
    0    5   14     -0.28      0.00
   -5   10   14      0.15      0.00
   -5   11   14     -1.83      0.00
   -4   10   14     -0.71      0.00
   -3    9   14      1.49      0.00
   -2    8   14      0.41      0.00
   -1    7   14     -0.65      0.00
    0    6   14     -0.22      0.00
   -6   12   14     -0.29      0.00
   -6   13   14      0.18      0.00
   -5   12   14      0.18      0.00
   -4   11   14      0.61      0.00
   -3   10   14     -0.23      0.00
   -2    9   14     -0.84      0.00
   -1    8   14      0.71      0.00
    0    7   14     -1.04      0.00
   -5   13   14      0.13      0.00
   -4   12   14      0.45      0.00
   -3   11   14      1.43      0.00
   -2   10   14      0.31      0.00
   -1    9   14     -0.43      0.00
    0    8   14     -0.33      0.00
   -4   13   14     -0.39      0.00
   -3   12   14      0.00      0.00
   -2   11   14     -0.27      0.00
   -1   10   14     -0.20      0.00
    0    9   14     -0.33      0.00
   -2   12   14      0.11      0.00
   -1   11   14     -0.61      0.00
    0   10   14     -0.59      0.00
   -1   12   14      0.45      0.00
    0   11   14     -0.01      0.00
    0    1   15     -1.10      0.00
   -1    3   15      0.14      0.00
    0    2   15      0.49      0.00
   -2    5   15     -0.44      0.00
   -1    4   15      0.86      0.00
    0    3   15      0.50      0.00
   -3    7   15      1.08      0.00
   -2    6   15     -1.22      0.00
   -1    5   15     -0.75      0.00
    0    4   15      1.19      0.00
   -4    9   15      0.36      0.00
   -3    8   15      0.95      0.00
   -2    7   15      0.85      0.00
   -1    6   15     -0.80      0.00
    0    5   15     -0.15      0.00
   -5   11   15      0.05      0.00
   -4   10   15     -1.15      0.00
   -3    9   15      0.18      0.00
   -2    8   15      2.20      0.00
   -1    7   15     -0.60      0.00
    0    6   15     -0.75      0.00
   -5   12   15      0.10      0.00
   -4   11   15      0.44      0.00
   -3   10   15      1.06      0.00
   -2    9   15      0.13      0.00
   -1    8   15      0.21      0.00
    0    7   15     -0.31      0.00
   -4   12   15     -0.61      0.00
   -3   11   15     -0.02      0.00
   -2   10   15      0.72      0.00
   -1    9   15     -0.38      0.00
    0    8   15     -0.02      0.00
   -3   12   15      0.05      0.00
   -2   11   15     -1.06      0.00
   -1   10   15     -1.26      0.00
    0    9   15     -0.80      0.00
   -1   11   15     -0.24      0.00
    0   10   15     -0.05      0.00
    0   11   15      0.91      0.00
    0    0   16      2.30      0.00
    0    1   16     -0.81      0.00
   -1    2   16      0.51      0.00
   -1    3   16     -0.44      0.00
    0    2   16     -1.12      0.00
   -2    4   16      1.63      0.00
   -2    5   16     -0.03      0.00
   -1    4   16      0.19      0.00
    0    3   16      0.68      0.00
   -3    6   16      1.31      0.00
   -3    7   16      0.15      0.00
   -2    6   16     -0.36      0.00
   -1    5   16      0.89      0.00
    0    4   16     -1.30      0.00
   -4    8   16      0.24      0.00
   -4    9   16     -0.87      0.00
   -3    8   16     -0.48      0.00
   -2    7   16     -0.36      0.00
   -1    6   16     -0.15      0.00
    0    5   16     -0.06      0.00
   -5   10   16     -0.17      0.00
   -5   11   16     -0.20      0.00
   -4   10   16      0.75      0.00
   -3    9   16      0.17      0.00
   -2    8   16     -0.08      0.00
   -1    7   16     -0.88      0.00
    0    6   16      0.80      0.00
   -4   11   16      0.23      0.00
   -3   10   16      0.89      0.00
   -2    9   16      0.40      0.00
   -1    8   16      0.14      0.00
    0    7   16     -0.67      0.00
   -3   11   16     -0.10      0.00
   -2   10   16     -0.08      0.00
   -1    9   16      0.51      0.00
    0    8   16      0.09      0.00
   -2   11   16      1.15      0.00
   -1   10   16     -1.01      0.00
    0    9   16      0.17      0.00
    0   10   16     -1.37      0.00
    0    1   17      0.28      0.00
   -1    3   17     -0.04      0.00
    0    2   17      1.19      0.00
   -2    5   17     -0.24      0.00
   -1    4   17     -0.53      0.00
    0    3   17      0.17      0.00
   -3    7   17      0.17      0.00
   -2    6   17     -0.42      0.00
   -1    5   17      0.06      0.00
    0    4   17     -0.55      0.00
   -4    9   17      0.12      0.00
   -3    8   17     -0.05      0.00
   -2    7   17     -0.72      0.00
   -1    6   17      0.26      0.00
    0    5   17     -0.52      0.00
   -5   11   17      1.05      0.00
   -4   10   17     -0.03      0.00
   -3    9   17      0.81      0.00
   -2    8   17      1.05      0.00
   -1    7   17      0.20      0.00
    0    6   17     -0.11      0.00
   -3   10   17     -1.54      0.00
   -2    9   17      0.56      0.00
   -1    8   17      0.21      0.00
    0    7   17     -0.07      0.00
   -2   10   17     -2.31      0.00
   -1    9   17      0.53      0.00
    0    8   17     -0.37      0.00
   -1   10   17      0.67      0.00
    0    9   17      1.14      0.00
    0    0   18      0.91      0.00
    0    1   18      0.00      0.00
   -1    2   18      0.29      0.00
   -1    3   18     -1.04      0.00
    0    2   18     -0.61      0.00
   -2    4   18      1.12      0.00
   -2    5   18      0.79      0.00
   -1    4   18     -0.25      0.00
    0    3   18     -0.28      0.00
   -3    6   18      1.11      0.00
   -3    7   18      0.16      0.00
   -2    6   18      0.04      0.00
   -1    5   18      0.44      0.00
    0    4   18      0.75      0.00
   -4    8   18      0.35      0.00
   -4    9   18      0.34      0.00
   -3    8   18     -0.05      0.00
   -2    7   18     -1.13      0.00
   -1    6   18     -0.40      0.00
    0    5   18      0.10      0.00
   -5   10   18     -0.43      0.00
   -4   10   18     -2.08      0.00
   -3    9   18      0.17      0.00
   -2    8   18     -0.68      0.00
   -1    7   18     -0.04      0.00
    0    6   18      0.27      0.00
   -2    9   18      0.42      0.00
   -1    8   18      0.52      0.00
    0    7   18      0.91      0.00
   -1    9   18     -0.22      0.00
    0    8   18     -0.48      0.00
    0    1   19     -0.25      0.00
   -1    3   19     -0.01      0.00
    0    2   19     -0.82      0.00
   -2    5   19      1.51      0.00
   -1    4   19      0.43      0.00
    0    3   19     -0.25      0.00
   -3    7   19     -0.71      0.00
   -2    6   19      0.61      0.00
   -1    5   19      0.49      0.00
    0    4   19     -0.40      0.00
   -3    8   19      0.47      0.00
   -2    7   19     -0.02      0.00
   -1    6   19     -0.46      0.00
    0    5   19      0.34      0.00
   -2    8   19     -0.21      0.00
   -1    7   19     -0.32      0.00
    0    6   19     -0.80      0.00
   -1    8   19      0.05      0.00
    0    7   19      0.42      0.00
    0    0   20     -0.65      0.00
    0    1   20     -0.10      0.00
   -1    2   20      0.10      0.00
   -1    3   20      0.30      0.00
    0    2   20      0.15      0.00
   -2    4   20     -1.22      0.00
   -2    5   20      0.58      0.00
   -1    4   20     -0.17      0.00
    0    3   20      0.26      0.00
   -3    6   20     -0.40      0.00
   -3    7   20     -0.45      0.00
   -2    6   20      0.13      0.00
   -1    5   20      0.22      0.00
    0    4   20     -0.45      0.00
   -2    7   20      0.85      0.00
   -1    6   20     -0.10      0.00
    0    5   20     -0.81      0.00
    0    6   20     -0.15      0.00
    0    1   21      0.07      0.00
   -1    3   21      0.05      0.00
    0    2   21      1.11      0.00
   -2    5   21     -1.48      0.00
   -1    4   21      0.38      0.00
    0    3   21      0.41      0.00
   -1    5   21     -0.88      0.00
    0    4   21      0.78      0.00
    0    0   22      0.54      0.00
    0    1   22     -0.16      0.00
    0    1    0     55.18      0.00
   -2   16    0      2.13      0.00
   -1   16    0      1.47      0.00
   -5   17    0     -0.38      0.00
   -4   17    0     -0.41      0.00
   -3   17    0     -2.32      0.00
    0    1    1     49.38      0.00
   -2   16    1     -0.29      0.00
   -1   16    1     -0.40      0.00
   -5   17    1      0.23      0.00
   -4   17    1      0.54      0.00
   -3   17    1     -0.16      0.00
   -2   16    2     -0.17      0.00
   -1   16    2      0.79      0.00
   -5   17    2      0.67      0.00
   -4   17    2      0.81      0.00
    0   15    3     -0.16      0.00
   -2   16    3      0.53      0.00
   -1   16    3     -0.01      0.00
   -6   17    3     -0.47      0.00
   -5   17    3      1.43      0.00
   -4   17    3     -0.05      0.00
    0   15    4      0.19      0.00
   -2   16    4      1.03      0.00
   -6   17    4      2.30      0.00
   -5   17    4      0.66      0.00
   -4   17    4     -0.91      0.00
    0   15    5     -0.34      0.00
   -3   16    5      1.24      0.00
   -2   16    5     -0.76      0.00
   -8   17    5     -0.32      0.00
   -7   17    5      1.24      0.00
   -6   17    5      0.42      0.00
   -5   17    5     -0.07      0.00
   -1   15    6     -0.23      0.00
    0   15    6      0.35      0.00
   -3   16    6      1.64      0.00
   -2   16    6     -1.22      0.00
   -8   17    6     -0.69      0.00
   -7   17    6     -0.92      0.00
   -6   17    6     -0.65      0.00
   -5   17    6     -0.18      0.00
   -1   15    7     -0.31      0.00
    0   15    7     -1.20      0.00
   -4   16    7     -0.35      0.00
   -3   16    7     -0.88      0.00
   -8   17    7      2.04      0.00
   -7   17    7      0.60      0.00
   -6   17    7     -0.28      0.00
   -2   15    8     -0.28      0.00
   -1   15    8     -0.32      0.00
   -5   16    8      1.14      0.00
   -4   16    8      0.25      0.00
   -3   16    8     -0.84      0.00
   -8   17    8      1.22      0.00
    0   14    9      0.05      0.00
   -2   15    9     -0.79      0.00
   -7   16    9     -0.13      0.00
   -6   16    9      0.64      0.00
   -5   16    9     -0.53      0.00
   -4   16    9      0.90      0.00
   -1   14   10     -0.49      0.00
    0   14   10      0.51      0.00
   -4   15   10      1.01      0.00
   -3   15   10      1.30      0.00
   -2   15   10     -1.24      0.00
   -8   16   10      0.65      0.00
   -7   16   10      0.71      0.00
   -6   16   10     -0.31      0.00
   -5   16   10     -1.12      0.00
   -2   14   11      0.40      0.00
   -1   14   11      0.40      0.00
   -6   15   11      1.00      0.00
   -5   15   11      0.79      0.00
   -4   15   11     -0.96      0.00
   -3   15   11      0.24      0.00
    0   13   12      1.08      0.00
   -3   14   12     -0.57      0.00
   -2   14   12     -0.25      0.00
   -7   15   12      0.48      0.00
   -6   15   12      0.14      0.00
   -5   15   12     -1.31      0.00
   -1   13   13      1.95      0.00
    0   13   13      0.46      0.00
   -5   14   13      0.40      0.00
   -4   14   13     -1.00      0.00
   -3   14   13     -1.39      0.00
   -7   15   13     -0.17      0.00
    0   12   14      0.09      0.00
   -3   13   14     -0.01      0.00
   -2   13   14      0.64      0.00
   -7   14   14      0.88      0.00
   -6   14   14     -0.09      0.00
   -5   14   14     -0.72      0.00
   -4   14   14      0.44      0.00
   -2   12   15     -0.34      0.00
   -1   12   15      0.12      0.00
   -6   13   15      0.40      0.00
   -5   13   15      0.30      0.00
   -4   13   15     -0.05      0.00
   -3   13   15      1.56      0.00
   -1   11   16     -0.84      0.00
    0   11   16     -0.15      0.00
   -6   12   16      0.43      0.00
   -5   12   16     -1.13      0.00
   -4   12   16     -0.82      0.00
   -3   12   16      1.00      0.00
   -2   12   16      1.03      0.00
   -6   13   16      0.12      0.00
    0   10   17      1.20      0.00
   -4   11   17      1.14      0.00
   -3   11   17     -1.41      0.00
   -2   11   17     -1.02      0.00
   -1   11   17      0.32      0.00
   -5   12   17      0.38      0.00
   -4   12   17      1.26      0.00
    0    9   18     -1.63      0.00
   -3   10   18      0.22      0.00
   -2   10   18      1.40      0.00
   -1   10   18      0.03      0.00
   -5   11   18      0.17      0.00
   -4   11   18     -0.77      0.00
   -3   11   18     -0.28      0.00
    0    8   19      0.48      0.00
   -4    9   19      0.72      0.00
   -3    9   19     -0.05      0.00
   -2    9   19     -0.51      0.00
   -1    9   19     -0.22      0.00
   -4   10   19      1.03      0.00
   -3   10   19      1.37      0.00
   -1    7   20      0.12      0.00
    0    7   20     -0.28      0.00
   -4    8   20      1.06      0.00
   -3    8   20     -0.03      0.00
   -2    8   20      0.54      0.00
   -1    8   20     -0.49      0.00
   -4    9   20     -0.38      0.00
    0    5   21     -0.84      0.00
   -2    6   21     -0.26      0.00
   -1    6   21     -0.68      0.00
    0    6   21     -0.33      0.00
   -3    7   21      0.69      0.00
   -2    7   21     -0.07      0.00
   -1    2   22     -0.30      0.00
    0    2   22     -0.29      0.00
   -1    3   22     -0.34      0.00
    0    3   22      0.02      0.00
   -2    4   22      0.86      0.00
   -1    4   22      0.46      0.00
    0    4   22      0.30      0.00
   -2    5   22     -0.14      0.00
   -1    5   22      0.01      0.00
    0    0    0      0.00      0.00
# SQUEEZE RESULTS (Version = 260217)
# Note: Data are Listed for all Voids in the P1 Unit Cell
# i.e. Centre of Gravity, Solvent Accessible Volume,
# Recovered number of Electrons in the Void and
# Details about the Squeezed Material
loop_
  _platon_squeeze_void_nr
  _platon_squeeze_void_average_x
  _platon_squeeze_void_average_y
  _platon_squeeze_void_average_z
  _platon_squeeze_void_volume
  _platon_squeeze_void_count_electrons
  _platon_squeeze_void_content
   1 -0.019 -0.013 -0.002      1905       242 ' '
# Missing Reflections Below sin(th)/lambda = 0.25
loop_
  _platon_missing_refln_index_h
  _platon_missing_refln_index_k
  _platon_missing_refln_index_l
  _platon_missing_refln_theta
    0    1    0     1.690
    0    1    1     2.046
_platon_squeeze_void_probe_radius                  1.20
_platon_squeeze_details
)
TITL mo_DJB_06_62d_150K_0m in P63/mmc #194
CELL   13.9105   13.9105   17.6608     90.00     90.00    120.00
SPGR P63/mmc
# Solvent Accessible Volume =      1902
# Electrons Found in S.A.V. =       238
# Note: Atoms in Void as Cxxx and Qxxx all others
C101 0.667 0.331 0.005 !       2.31 eA-3
C102 0.178 0.828 0.244 !       1.88 eA-3
C103 0.337 0.668 0.078 !       1.69 eA-3
C104 0.279 0.375 0.252 !       1.68 eA-3
Q105 0.120 0.235 0.613 !       1.26 eA-3
C106 0.148 0.305 0.379 !       1.05 eA-3
Q107 0.867 0.140 0.299 !       1.03 eA-3
C108 0.199 0.093 0.989 !       0.86 eA-3
Q109 0.163 0.828 0.746 !       0.76 eA-3
C110 0.157 0.014 0.513 !       0.75 eA-3
Q111 0.803 0.203 0.243 !       0.74 eA-3
Q112 0.280 0.062 0.251 !       0.70 eA-3
Q113 0.282 0.237 0.781 !       0.70 eA-3
C114 0.116 0.297 0.320 !       0.69 eA-3
Q115 0.076 0.156 0.751 !       0.60 eA-3
Q116 0.164 0.083 0.206 !       0.58 eA-3
Q117 0.519 0.768 0.718 !       0.55 eA-3
C118 0.765 0.537 0.891 !       0.55 eA-3
)
;
_shelx_fab_checksum              64361
_olex2_submission_special_instructions 'No special instructions were received'
loop_
_space_group_symop_operation_xyz
'x, y, z'
'x-y, x, z+1/2'
'-y, x-y, z'
'-x, -y, z+1/2'
'-x+y, -x, z'
'y, -x+y, z+1/2'
'x-y, -y, -z'
'-x, -x+y, -z'
'y, x, -z'
'-y, -x, -z+1/2'
'-x+y, y, -z+1/2'
'x, x-y, -z+1/2'
'-x, -y, -z'
'-x+y, -x, -z-1/2'
'y, -x+y, -z'
'x, y, -z-1/2'
'x-y, x, -z'
'-y, x-y, -z-1/2'
'-x+y, y, z'
'x, x-y, z'
'-y, -x, z'
'y, x, z-1/2'
'x-y, -y, z-1/2'
'-x, -x+y, z-1/2'
loop_
_atom_site_label
_atom_site_type_symbol
_atom_site_fract_x
_atom_site_fract_y
_atom_site_fract_z
_atom_site_U_iso_or_equiv
_atom_site_adp_type
_atom_site_occupancy
_atom_site_site_symmetry_order
_atom_site_calc_flag
_atom_site_refinement_flags_posn
_atom_site_refinement_flags_adp
_atom_site_refinement_flags_occupancy
_atom_site_disorder_assembly
_atom_site_disorder_group
Fe1 Fe 0.74639(2) 0.49278(4) 0.250000 0.0192(2) Uani 1 4 d S T P . .
O1 O 0.65368(13) 0.50626(11) 0.33240(8) 0.0366(4) Uani 1 1 d . . . . .
O2 O 0.666667 0.333333 0.250000 0.0184(8) Uani 1 12 d S T P . .
O3 O 0.83128(12) 0.6626(2) 0.250000 0.0363(6) Uani 1 4 d S T P . .
C4 C 0.56128(11) 0.43872(11) 0.35972(14) 0.0282(6) Uani 1 2 d S T P . .
C5 C 0.52905(14) 0.47095(14) 0.43197(15) 0.0336(7) Uani 1 2 d S T P . .
C6 C 0.4282(2) 0.3997(2) 0.46595(13) 0.0500(7) Uani 1 1 d . . . . .
H6 H 0.379513 0.332442 0.442962 0.060 Uiso 1 1 calc R U . . .
loop_
_atom_site_aniso_label
_atom_site_aniso_U_11
_atom_site_aniso_U_22
_atom_site_aniso_U_33
_atom_site_aniso_U_23
_atom_site_aniso_U_13
_atom_site_aniso_U_12
Fe1 0.0233(3) 0.0244(3) 0.0102(3) 0.000 0.000 0.01220(16)
O1 0.0434(8) 0.0345(8) 0.0286(7) -0.0052(6) 0.0137(7) 0.0170(7)
O2 0.0214(12) 0.0214(12) 0.0125(17) 0.000 0.000 0.0107(6)
O3 0.0424(12) 0.0270(14) 0.0345(14) 0.000 0.000 0.0135(7)
C4 0.0353(11) 0.0353(11) 0.0194(11) -0.0035(5) 0.0035(5) 0.0218(13)
C5 0.0372(11) 0.0372(11) 0.0232(13) -0.0067(6) 0.0067(6) 0.0162(13)
C6 0.0415(13) 0.0439(13) 0.0421(13) -0.0205(11) 0.0145(10) 0.0045(11)
loop_
_atom_type_symbol
_atom_type_description
_atom_type_scat_dispersion_real
_atom_type_scat_dispersion_imag
_atom_type_scat_source
C C 0.0033 0.0016 'International Tables Vol C Tables 4.2.6.8 and 6.1.1.4'
H H 0.0000 0.0000 'International Tables Vol C Tables 4.2.6.8 and 6.1.1.4'
Fe Fe 0.3463 0.8444 'International Tables Vol C Tables 4.2.6.8 and 6.1.1.4'
O O 0.0106 0.0060 'International Tables Vol C Tables 4.2.6.8 and 6.1.1.4'
loop_
_citation_id
_citation_doi
_citation_year
1 10.33774/chemrxiv-2021-lkt60 2021
loop_
_geom_angle_atom_site_label_1
_geom_angle_atom_site_label_2
_geom_angle_atom_site_label_3
_geom_angle
_geom_angle_site_symmetry_1
_geom_angle_site_symmetry_3
_geom_angle_publ_flag
O1 Fe1 O1 92.51(9) 16_556 . ?
O1 Fe1 O1 170.75(8) . 11_655 ?
O1 Fe1 O1 170.75(8) 16_556 19_655 ?
O1 Fe1 O1 92.50(9) 19_655 11_655 ?
O1 Fe1 O1 86.75(9) 16_556 11_655 ?
O1 Fe1 O1 86.75(9) . 19_655 ?
O1 Fe1 O3 85.37(4) 11_655 . ?
O1 Fe1 O3 85.37(4) 19_655 . ?
O1 Fe1 O3 85.37(4) . . ?
O1 Fe1 O3 85.37(4) 16_556 . ?
O2 Fe1 O1 94.63(4) . 11_655 ?
O2 Fe1 O1 94.63(4) . 19_655 ?
O2 Fe1 O1 94.63(4) . 16_556 ?
O2 Fe1 O1 94.63(4) . . ?
O2 Fe1 O3 180.00(3) . . ?
C4 O1 Fe1 132.45(14) . . ?
Fe1 O2 Fe1 120.0 14_666 3_655 ?
Fe1 O2 Fe1 120.000(1) . 3_655 ?
Fe1 O2 Fe1 120.0 14_666 . ?
O1 C4 O1 125.9(2) . 21_665 ?
O1 C4 C5 117.04(11) . . ?
O1 C4 C5 117.04(11) 21_665 . ?
C6 C5 C4 120.24(13) 21_665 . ?
C6 C5 C4 120.24(13) . . ?
C6 C5 C6 119.5(3) . 21_665 ?
C5 C6 H6 119.9 . . ?
C6 C6 C5 120.24(13) 9_556 . ?
C6 C6 H6 119.9 9_556 . ?
loop_
_geom_bond_atom_site_label_1
_geom_bond_atom_site_label_2
_geom_bond_distance
_geom_bond_site_symmetry_2
_geom_bond_publ_flag
Fe1 O1 2.0145(13) 16_556 ?
Fe1 O1 2.0145(13) . ?
Fe1 O1 2.0145(13) 19_655 ?
Fe1 O1 2.0145(13) 11_655 ?
Fe1 O2 1.9208(5) . ?
Fe1 O3 2.045(3) . ?
O1 C4 1.2489(18) . ?
C4 C5 1.494(3) . ?
C5 C6 1.386(3) . ?
C5 C6 1.386(3) 21_665 ?
C6 C6 1.385(4) 9_556 ?
C6 H6 0.9300 . ?
loop_
_geom_torsion_atom_site_label_1
_geom_torsion_atom_site_label_2
_geom_torsion_atom_site_label_3
_geom_torsion_atom_site_label_4
_geom_torsion
_geom_torsion_site_symmetry_1
_geom_torsion_site_symmetry_2
_geom_torsion_site_symmetry_3
_geom_torsion_site_symmetry_4
_geom_torsion_publ_flag
Fe1 O1 C4 O1 -12.4(4) . . . 21_665 ?
Fe1 O1 C4 C5 167.02(18) . . . . ?
O1 C4 C5 C6 0.1(4) 21_665 . . . ?
O1 C4 C5 C6 -179.4(3) . . . . ?
O1 C4 C5 C6 179.4(3) 21_665 . . 21_665 ?
O1 C4 C5 C6 -0.1(4) . . . 21_665 ?
C4 C5 C6 C6 178.2(3) . . . 9_556 ?
C6 C5 C6 C6 -1.1(7) 21_665 . . 9_556 ?
