#------------------------------------------------------------------------------
#$Date: 2022-08-06 14:42:14 +0300 (Sat, 06 Aug 2022) $
#$Revision: 277100 $
#$URL: file:///home/coder/svn-repositories/cod/cif/1/56/71/1567195.cif $
#------------------------------------------------------------------------------
#
# This file is available in the Crystallography Open Database (COD),
# http://www.crystallography.net/
#
# All data on this site have been placed in the public domain by the
# contributors.
#
data_1567195
loop_
_publ_author_name
'Xia, Hai-Lun'
'Zhou, Kang'
'Wu, Shenjie'
'Ren, Daming'
'Xing, Kai'
'Guo, Jiandong'
'Wang, Xiaotai'
'Liu, Xiao-Yuan'
'Li, Jing'
_publ_section_title
;
 Building an emission library of donor-acceptor-donor type linker-based
 luminescent metal-organic frameworks.
;
_journal_issue                   27
_journal_name_full               'Chemical science'
_journal_page_first              8036
_journal_page_last               8044
_journal_paper_doi               10.1039/d2sc02267b
_journal_volume                  13
_journal_year                    2022
_chemical_formula_moiety         'C12 H6 N6 S Zn'
_chemical_formula_sum            'C12 H6 N6 S Zn'
_chemical_formula_weight         331.66
_space_group_crystal_system      tetragonal
_space_group_IT_number           80
_space_group_name_Hall           'I 4bw'
_space_group_name_H-M_alt        'I 41'
_atom_sites_solution_hydrogens   geom
_audit_creation_date             2021-01-20
_audit_creation_method
;
Olex2 1.3
(compiled 2020.11.12 svn.r5f609507 for OlexSys, GUI svn.r6226)
;
_audit_update_record
;
2021-12-16 deposited with the CCDC.	2022-06-29 downloaded from the CCDC.
;
_cell_angle_alpha                90
_cell_angle_beta                 90
_cell_angle_gamma                90
_cell_formula_units_Z            8
_cell_length_a                   16.5490(14)
_cell_length_b                   16.5490(14)
_cell_length_c                   12.4563(12)
_cell_measurement_reflns_used    5961
_cell_measurement_temperature    190.0
_cell_measurement_theta_max      60.144
_cell_measurement_theta_min      3.285
_cell_volume                     3411.4(5)
_computing_cell_refinement       'SAINT V8.40A (Bruker, 2019)'
_computing_data_reduction        'SAINT V8.40A (Bruker, 2019)'
_computing_molecular_graphics    'Olex2 1.3 (Dolomanov et al., 2009)'
_computing_publication_material  'Olex2 1.3 (Dolomanov et al., 2009)'
_computing_structure_refinement  'SHELXL 2018/3 (Sheldrick, 2015)'
_diffrn_ambient_temperature      190.0
_diffrn_measured_fraction_theta_full 0.985
_diffrn_measured_fraction_theta_max 0.985
_diffrn_measurement_device_type  'Bruker D8 VENTURE'
_diffrn_measurement_method       '\f and \w scans'
_diffrn_radiation_type           GaK\a
_diffrn_radiation_wavelength     1.34139
_diffrn_reflns_av_unetI/netI     0.0777
_diffrn_reflns_Laue_measured_fraction_full 0.985
_diffrn_reflns_Laue_measured_fraction_max 0.985
_diffrn_reflns_limit_h_max       14
_diffrn_reflns_limit_h_min       -14
_diffrn_reflns_limit_k_max       19
_diffrn_reflns_limit_k_min       0
_diffrn_reflns_limit_l_max       14
_diffrn_reflns_limit_l_min       -14
_diffrn_reflns_number            2887
_diffrn_reflns_point_group_measured_fraction_full 0.933
_diffrn_reflns_point_group_measured_fraction_max 0.931
_diffrn_reflns_theta_full        53.594
_diffrn_reflns_theta_max         53.866
_diffrn_reflns_theta_min         3.286
_diffrn_source_current           2.86
_diffrn_source_power             0.1993706
_diffrn_source_voltage           69.71
_diffrn_standards_number         0
_exptl_absorpt_coefficient_mu    2.071
_exptl_absorpt_correction_T_max  0.7518
_exptl_absorpt_correction_T_min  0.5524
_exptl_absorpt_correction_type   multi-scan
_exptl_absorpt_process_details
;
SADABS-2016/2 (Bruker,2016/2) was used for absorption correction.
wR2(int) was 0.1318 before and 0.0798 after correction.
The Ratio of minimum to maximum transmission is 0.7348.
The \l/2 correction factor is Not present.
;
_exptl_crystal_density_diffrn    1.292
_exptl_crystal_description       block
_exptl_crystal_F_000             1328
_exptl_crystal_size_max          0.12
_exptl_crystal_size_mid          0.1
_exptl_crystal_size_min          0.1
_refine_diff_density_max         1.617
_refine_diff_density_min         -0.611
_refine_diff_density_rms         0.150
_refine_ls_abs_structure_details
;
 Flack x determined using 1106 quotients [(I+)-(I-)]/[(I+)+(I-)]
 (Parsons, Flack and Wagner, Acta Cryst. B69 (2013) 249-259).
;
_refine_ls_abs_structure_Flack   0.03(4)
_refine_ls_extinction_method     none
_refine_ls_goodness_of_fit_ref   1.093
_refine_ls_hydrogen_treatment    constr
_refine_ls_matrix_type           full
_refine_ls_number_parameters     170
_refine_ls_number_reflns         2887
_refine_ls_number_restraints     174
_refine_ls_restrained_S_all      1.105
_refine_ls_R_factor_all          0.0770
_refine_ls_R_factor_gt           0.0718
_refine_ls_shift/su_max          0.002
_refine_ls_shift/su_mean         0.000
_refine_ls_structure_factor_coef Fsqd
_refine_ls_weighting_details
'w=1/[\s^2^(Fo^2^)+(0.1383P)^2^+1.6530P] where P=(Fo^2^+2Fc^2^)/3'
_refine_ls_weighting_scheme      calc
_refine_ls_wR_factor_gt          0.1839
_refine_ls_wR_factor_ref         0.1932
_reflns_Friedel_coverage         0.800
_reflns_Friedel_fraction_full    0.875
_reflns_Friedel_fraction_max     0.871
_reflns_number_gt                2751
_reflns_number_total             2887
_reflns_threshold_expression     'I > 2\s(I)'
_cod_data_source_file            d2sc02267b2.cif
_cod_data_source_block           b_tw_sq
_cod_depositor_comments
'Adding full bibliography for 1567192--1567197.cif.'
_cod_original_cell_volume        3411.4(7)
_cod_database_code               1567195
_shelx_shelxl_version_number     2018/3
_shelx_space_group_comment
;
The symmetry employed for this shelxl refinement is uniquely defined
by the following loop, which should always be used as a source of
symmetry information in preference to the above space-group names.
They are only intended as comments.
;
_shelx_estimated_absorpt_t_max   0.820
_shelx_estimated_absorpt_t_min   0.789
_olex2_refinement_description
;
1. Twinned data refinement
 Scales: 0.521(5)
 0.479(5)
2. Fixed Uiso
 At 1.2 times of:
  All C(H) groups
3. Uiso/Uaniso restraints and constraints
Uanis(N6) \\sim Ueq: with sigma of 0.005 and sigma for terminal atoms of 0.01
Uanis(S5) \\sim Ueq: with sigma of 0.005 and sigma for terminal atoms of 0.01
4. Rigid body (RIGU) restrains
 All non-hydrogen atoms
 with sigma for 1-2 distances of 0.001 and sigma for 1-3 distances of 0.001
5.a Aromatic/amide H refined with riding coordinates:
 C5(H5), C6(H6), C13(H13), C12(H12), C15(H15), C16(H16)
5.b Fitted hexagon refined as free rotating group:
 C9(C8,C13,C12,C11,C10)
;
_shelx_res_file
;
TITL b_a.res in I4(1)
    b_tw_sq.res
    created by SHELXL-2018/3 at 09:49:52 on 20-Jan-2021
REM Old TITL B in I4(1)
REM SHELXT solution in I4(1): R1 0.320, Rweak 0.352, Alpha 0.227
REM <I/s> 0.669 for 4 systematic absences, Orientation as input
REM Flack x = 0.406 ( 0.031 ) from 1255 Parsons' quotients
REM Formula found by SHELXT: C45 N20 O4 Zn2
CELL 1.34139 16.549 16.549 12.4563 90 90 90
ZERR 8 0.0014 0.0014 0.0012 0 0 0
LATT -2
SYMM 0.5-X,0.5-Y,0.5+Z
SYMM -Y,0.5+X,0.25+Z
SYMM 0.5+Y,-X,0.75+Z
SFAC C H N S Zn
DISP C 0.0137 0.0067 57.1
DISP H 0 0 0.6
DISP N 0.0241 0.0134 109.9
DISP S 0.2925 0.4295 3294.4
DISP ZN -2.7473 0.5279 4188.7
UNIT 96 48 48 8 8
RIGU 0.001 0.001
ISOR 0.005 0.01 N6
ISOR 0.005 0.01 S5

L.S. 50 0 44
PLAN  8
SIZE 0.1 0.12 0.1
TEMP -83.15
CONF
BOND
MORE -1
BOND $H
ABIN
fmap 2 53
acta
SHEL 999 0.83
OMIT 2 2 0
OMIT 3 3 2
REM <olex2.extras>
REM <HklSrc "%.\\B_tw_sq.hkl">
REM </olex2.extras>

WGHT    0.138300    1.653000
BASF   0.47902
FVAR       3.03901
ZN1   5    0.237050    0.322172   -0.007790    11.00000    0.02287    0.03038 =
         0.01576   -0.00173    0.00281    0.00140
S5    4    0.140108    0.513480    0.618828    11.00000    0.07105    0.08758 =
         0.06388   -0.02146   -0.00942    0.05112
N1    3    0.255486    0.361212    0.223560    11.00000    0.04151    0.01891 =
         0.02586    0.00529    0.01393    0.00805
N2    3    0.219937    0.385329    0.127932    11.00000    0.03914    0.03895 =
         0.02683    0.01186    0.01752    0.01878
N3    3   -0.161391    0.759315    0.508915    11.00000    0.02247    0.02033 =
         0.01916    0.00060    0.00207    0.01170
N4    3   -0.123478    0.743401    0.605971    11.00000    0.02365    0.02233 =
         0.02056   -0.00246   -0.00045    0.01098
N5    3    0.166966    0.487686    0.494282    11.00000    0.06069    0.06447 =
         0.06044   -0.00283    0.00741    0.03270
N6    3    0.069173    0.581309    0.591796    11.00000    0.05964    0.06511 =
         0.05328   -0.01477    0.00657    0.01421
C5    1    0.175690    0.449558    0.147259    11.00000    0.05552    0.04677 =
         0.03821    0.00583    0.01422    0.03033
AFIX  43
H5    2    0.148691    0.480100    0.093561    11.00000   -1.20000
AFIX   0
C6    1    0.225293    0.409602    0.300129    11.00000    0.03135    0.02880 =
         0.03430   -0.00417    0.01154    0.00758
AFIX  43
H6    2    0.238306    0.404393    0.374087    11.00000   -1.20000
AFIX   0
C7    1    0.173313    0.467823    0.260465    11.00000    0.03190    0.03501 =
         0.03970    0.00392    0.01815    0.01286
AFIX  66
C9    1    0.119557    0.531517    0.429971    11.00000    0.04018    0.03983 =
         0.05126   -0.00787    0.01152    0.01448
C8    1    0.121227    0.529156    0.318447    11.00000    0.02375    0.02910 =
         0.05163   -0.00127    0.02033    0.00306
C13   1    0.070424    0.579146    0.259408    11.00000    0.04990    0.03828 =
         0.04415   -0.01169    0.01776    0.02399
AFIX  43
H13   2    0.071565    0.577532    0.183187    11.00000   -1.20000
AFIX  65
C12   1    0.017950    0.631497    0.311892    11.00000    0.05234    0.04192 =
         0.04621   -0.01904    0.01458    0.02485
AFIX  43
H12   2   -0.016772    0.665663    0.271541    11.00000   -1.20000
AFIX  65
C11   1    0.016280    0.633859    0.423416    11.00000    0.03293    0.03215 =
         0.04587   -0.02133    0.01097    0.00692
C10   1    0.067083    0.583869    0.482456    11.00000    0.03535    0.04389 =
         0.05301   -0.01597    0.00828    0.01090
AFIX   0
C14   1   -0.051008    0.685209    0.477506    11.00000    0.01492    0.02122 =
         0.03342   -0.01886    0.00111   -0.00291
C15   1   -0.057725    0.702680    0.587584    11.00000    0.02675    0.02612 =
         0.03201   -0.01395   -0.00350    0.01486
AFIX  43
H15   2   -0.019729    0.687007    0.640827    11.00000   -1.20000
AFIX   0
C16   1   -0.113868    0.727882    0.435840    11.00000    0.02371    0.04216 =
         0.02649   -0.01676    0.00226    0.00802
AFIX  43
H16   2   -0.122498    0.734290    0.360922    11.00000   -1.20000
AFIX   0
HKLF 5




REM  b_a.res in I4(1)
REM wR2 = 0.1932, GooF = S = 1.093, Restrained GooF = 1.105 for all data
REM R1 = 0.0718 for 2751 Fo > 4sig(Fo) and 0.0770 for all 2887 data
REM 170 parameters refined using 174 restraints

END

WGHT      0.1382      1.6874

REM Highest difference peak  1.617,  deepest hole -0.611,  1-sigma level  0.150
Q1    1   0.2745  0.3605 -0.0080  11.00000  0.05    1.62
Q2    1   0.2762  0.2828  0.0050  11.00000  0.05    1.36
Q3    1   0.2845  0.3160  0.2316  11.00000  0.05    1.27
Q4    1   0.3018  0.3377  0.2359  11.00000  0.05    1.07
Q5    1  -0.1873  0.8180  0.5052  11.00000  0.05    1.03
Q6    1   0.1955  0.3653 -0.0070  11.00000  0.05    0.87
Q7    1  -0.0256  0.6291  0.1198  11.00000  0.05    0.70
Q8    1  -0.1355  0.7765  0.5031  11.00000  0.05    0.68
;
_shelx_res_checksum              78240
_shelx_fab_file
;
    7    7   12     -0.56     -0.02
   -6    8   12     -1.83     -1.32
    6    8   12     -0.80     -0.03
    8    8   12     -0.77      0.77
   -7    9   12      2.70      2.76
    5    9   12     -0.76      2.07
    7    9   12     -0.22     -1.49
   -6   10   12     -2.74     -0.27
    4   10   12     -1.18      0.01
    6   10   12     -1.03      3.27
   -4    5   11    -10.60      7.84
    4    5   11    -11.57      2.79
   -2    7   11     -0.20      4.87
    2    7   11     -8.79     -2.23
   -3    8   11     -3.72      2.19
   -1    8   11      0.63      4.51
   -8    9   11     -2.87     -1.46
    8    9   11      2.35     -1.47
   -9   10   11      1.03      0.55
   -7   10   11     -2.62     -4.57
   -5   10   11     -1.53      3.32
   -3   10   11     -2.27      1.36
   -1   10   11      1.54      0.62
    1   10   11      0.40      1.70
    3   10   11      2.61     -0.86
    5   10   11     -0.66     -2.69
    7   10   11     -1.25      1.86
    9   10   11      0.96     -0.39
   -6   11   11      1.38     -2.33
   -4   11   11      1.51      0.45
   -2   11   11     -1.64     -0.67
    0   11   11      0.13     -1.16
    2   11   11      1.37      0.81
    4   11   11      1.90      1.35
    6   11   11      0.37     -2.29
   -5   12   11     -0.07     -0.33
   -3   12   11     -0.87     -0.17
   -1   12   11     -1.73     -1.21
    1   12   11     -0.78     -2.28
    3   12   11      0.40      0.30
    5   12   11     -0.61      2.08
   -2   13   11      0.98      0.05
    0   13   11      0.19     -0.08
    2   13   11      1.09     -1.50
   -2    4   10      7.49      8.59
    2    4   10     -5.42    -11.29
   -1    7   10     -2.53     -2.62
    1    7   10      1.01    -11.64
    7    7   10     -4.36      3.50
   -6    8   10      0.93     -0.47
   -4    8   10      1.52     -4.02
   -2    8   10      1.98     -2.74
    2    8   10      1.36     -2.60
    4    8   10      0.28      3.85
    6    8   10      1.94      1.90
    8    8   10     -3.73      3.61
   -7    9   10     -0.89     -2.96
   -5    9   10     -0.59      0.98
   -3    9   10      0.42     -2.86
   -1    9   10      1.08     -6.02
    1    9   10     -1.95     -2.02
    3    9   10     -0.13     -3.38
    5    9   10     -2.25      2.07
    7    9   10     -0.36     -0.65
    9    9   10     -1.34     -2.02
   -8   10   10      1.56      0.16
   -6   10   10     -1.11     -1.12
   -4   10   10     -1.77      1.55
   -2   10   10     -0.48      0.06
    0   10   10      2.17     -0.82
    2   10   10     -0.94      1.58
    4   10   10      1.52     -0.19
    6   10   10     -0.10      1.05
    8   10   10     -0.38     -0.41
   10   10   10      0.48     -2.97
   -9   11   10     -1.62      0.71
   -7   11   10      1.17      1.84
   -5   11   10      0.39      0.22
   -3   11   10      1.01      1.12
   -1   11   10      0.41     -1.82
    1   11   10      1.28      0.07
    3   11   10     -1.41      1.32
    5   11   10     -0.19      1.10
    7   11   10     -0.49      0.17
    9   11   10     -0.77      1.59
   -8   12   10     -0.92     -1.44
   -6   12   10     -0.90      1.42
   -4   12   10     -3.18     -1.06
   -2   12   10     -1.38      1.65
    0   12   10      0.75     -0.54
    2   12   10     -0.37      2.01
    4   12   10     -1.77     -0.41
    6   12   10     -0.62     -0.91
    8   12   10      0.80     -2.86
   -7   13   10      0.18      0.06
   -5   13   10      0.97      2.39
   -3   13   10      0.06     -1.74
   -1   13   10      0.50     -0.26
    1   13   10      2.50     -1.11
    3   13   10     -0.02      2.42
    5   13   10     -0.45     -0.35
    7   13   10     -0.99     -0.49
   -4   14   10     -1.31      1.58
   -2   14   10     -1.81      0.39
    0   14   10     -0.19      1.21
    2   14   10      1.53      0.01
    4   14   10     -1.45      1.58
    0    1    9     -4.04     -9.19
   -4    5    9      1.67     -2.66
    0    5    9     -4.53      0.95
    4    5    9      0.60     -5.83
   -5    6    9      4.42     -0.09
   -3    6    9      6.84     -0.24
   -1    6    9      2.00     -0.70
    1    6    9     -1.09      0.21
    3    6    9      3.93      3.39
    5    6    9     -2.98      0.69
   -6    7    9     -3.55     -0.30
   -4    7    9     -2.70      3.45
    0    7    9      3.35      1.62
    2    7    9      2.17     -1.92
    4    7    9      1.89      0.23
    6    7    9     -6.68     -2.34
   -7    8    9      6.71      3.04
   -5    8    9      1.42     -0.06
   -3    8    9     -0.08      0.57
   -1    8    9      1.33      1.97
    1    8    9      0.65      1.22
    3    8    9     -0.37     -2.48
    5    8    9      1.29      0.96
    7    8    9     -3.58      1.22
   -6    9    9      1.78     -1.15
   -4    9    9      0.77     -0.16
   -2    9    9      0.60      0.83
    0    9    9      5.21      0.72
    2    9    9      3.81      2.82
    4    9    9     -2.16     -3.19
    6    9    9     -0.79     -3.34
    8    9    9     -0.12     -1.42
   -9   10    9      1.36      3.23
   -7   10    9      0.54     -0.44
   -5   10    9     -0.15      0.64
   -3   10    9      0.36     -1.31
   -1   10    9     -1.79      1.98
    1   10    9      1.24     -1.75
    3   10    9      2.49      2.77
    5   10    9     -1.51     -0.94
    7   10    9      0.69     -2.08
    9   10    9      2.33     -0.17
  -10   11    9     -1.35     -1.10
   -8   11    9     -0.17      0.45
   -6   11    9      0.34     -2.48
   -4   11    9     -0.23      1.34
   -2   11    9      2.78     -3.02
    0   11    9     -0.40      2.04
    2   11    9     -0.51     -3.07
    4   11    9      1.26      1.77
    6   11    9     -1.60      0.52
    8   11    9     -0.61      0.10
   10   11    9      1.22      2.56
   -9   12    9      0.79     -0.72
   -7   12    9     -1.39     -1.00
   -5   12    9     -0.51     -4.68
   -3   12    9     -3.08      0.49
   -1   12    9      0.24     -0.95
    1   12    9     -1.85      4.35
    3   12    9     -1.60     -2.59
    5   12    9      2.02     -0.78
    7   12    9      2.30     -0.10
    9   12    9      0.65     -1.57
   -8   13    9      1.91      1.23
   -6   13    9     -1.39      1.08
   -4   13    9      4.53     -2.35
   -2   13    9      1.93     -1.53
    0   13    9      2.02     -2.69
    2   13    9     -1.33      1.63
    4   13    9     -1.23     -1.59
    6   13    9      0.66     -1.39
    8   13    9      1.71      1.59
   -7   14    9      1.01     -0.44
   -5   14    9     -4.78      0.00
   -3   14    9      0.81     -0.55
   -1   14    9     -0.82      0.31
    1   14    9      0.25      1.21
    3   14    9     -1.13      1.32
    5   14    9     -0.51     -0.16
    7   14    9      0.71     -1.07
   -4   15    9     -1.61      0.09
   -2   15    9      2.24     -0.85
    0   15    9     -0.58     -2.52
    2   15    9     -0.37     -0.19
    4   15    9      0.25      0.56
    1    1    8      6.73     13.36
    0    2    8      4.67     -0.77
    2    2    8      7.87      6.62
   -1    3    8      0.60      1.29
    1    3    8      7.87      8.97
    3    3    8      3.41      9.87
   -2    4    8      1.73     -4.81
    0    4    8     -0.31     -1.93
    2    4    8     10.29      3.94
    4    4    8      6.59      7.68
   -3    5    8      0.66      2.82
   -1    5    8      0.18     -2.64
    1    5    8     -2.97      2.77
    3    5    8      0.71     -0.66
    5    5    8     -0.89     -1.78
   -4    6    8      2.16     -0.24
   -2    6    8      1.26     -0.18
    0    6    8      2.61     -2.35
    2    6    8      2.83      4.67
    4    6    8      5.71      1.39
    6    6    8      2.15     -0.13
   -5    7    8     -0.77      0.64
   -3    7    8     -2.16      1.04
   -1    7    8     -3.01      1.72
    1    7    8      0.19      2.81
    3    7    8     -2.77      5.31
    5    7    8      0.88     -3.73
    7    7    8      2.58     -1.64
   -6    8    8     -1.32      2.26
   -4    8    8      1.28     -1.86
   -2    8    8     -0.59     -2.02
    0    8    8     -4.82     -2.74
    2    8    8      1.58     -3.49
    4    8    8      0.12      3.74
    6    8    8      0.55     -0.66
    8    8    8      0.63      4.53
   -7    9    8      0.17      0.29
   -5    9    8     -2.56      0.20
   -3    9    8      1.31      1.18
   -1    9    8      2.34      4.25
    1    9    8     -2.77      6.88
    3    9    8      0.69     -0.89
    5    9    8      2.14      0.54
    7    9    8      1.82     -1.66
    9    9    8     -0.91      4.81
   -8   10    8      2.57      0.32
   -6   10    8      1.37      4.27
   -4   10    8     -1.95     -0.83
   -2   10    8     -0.16     -0.89
    0   10    8     -0.45     -0.15
    2   10    8     -2.96      2.53
    4   10    8     -1.12     -1.66
    6   10    8      1.39      0.51
    8   10    8      1.27     -0.54
   10   10    8      0.14      3.44
   -9   11    8     -0.99      1.38
   -7   11    8      2.81     -2.89
   -5   11    8      1.15      3.42
   -3   11    8      0.79      0.64
   -1   11    8      2.21     -1.07
    1   11    8      0.47      0.39
    3   11    8     -1.70      0.93
    5   11    8     -0.67     -0.22
    7   11    8      0.26      0.65
    9   11    8     -1.20      0.04
   11   11    8      0.87      2.58
  -10   12    8     -0.88     -0.95
   -8   12    8     -0.98      2.58
   -6   12    8      2.95     -3.09
   -4   12    8     -1.54      1.08
   -2   12    8     -0.73      2.69
    0   12    8     -0.73     -1.14
    2   12    8     -0.70      0.93
    4   12    8     -0.76     -0.65
    6   12    8      0.88      2.06
    8   12    8      0.90      1.16
   10   12    8     -1.04     -2.20
   -9   13    8     -0.16     -0.22
   -7   13    8      0.31      3.33
   -5   13    8      4.37      0.38
   -3   13    8      1.01      1.52
   -1   13    8      3.30      2.79
    1   13    8      1.43     -3.97
    3   13    8     -0.54     -0.65
    5   13    8     -0.78     -2.21
    7   13    8     -0.22      1.13
    9   13    8     -1.65      2.24
   -8   14    8     -1.41     -1.68
   -6   14    8      0.38     -0.49
   -4   14    8      0.11     -1.01
   -2   14    8     -2.94      0.23
    0   14    8     -0.78      4.27
    2   14    8      0.00     -0.11
    4   14    8     -0.39      1.45
    6   14    8      0.90      0.43
    8   14    8      2.01      0.45
   -7   15    8     -2.79     -0.42
   -5   15    8      1.90      0.43
   -3   15    8      1.38      1.40
   -1   15    8      0.62     -0.23
    1   15    8      0.99      0.24
    3   15    8     -0.09     -0.32
    5   15    8     -1.84      0.44
    7   15    8     -0.93      0.55
   -4   16    8      1.29     -0.88
   -2   16    8      0.26      0.52
    0   16    8      0.87      0.38
    2   16    8      2.24     -0.58
    4   16    8      1.14     -0.32
    0    1    7    -14.27     -8.72
   -1    2    7      5.41     -2.72
    1    2    7    -18.84      1.59
   -2    3    7    -11.91      5.85
    0    3    7      0.18     -4.58
    2    3    7    -21.21      3.91
   -3    4    7      5.47     -1.15
   -1    4    7     -5.26      3.66
    1    4    7      5.82     -2.49
    3    4    7     -7.85      6.62
   -4    5    7     -5.50      4.87
   -2    5    7     -0.08     -1.78
    0    5    7     -9.45      2.29
    2    5    7     -4.25      0.36
    4    5    7     -9.00     -0.94
   -5    6    7     -4.40      0.13
   -3    6    7     -1.38      2.37
   -1    6    7      2.48     -1.16
    1    6    7     -0.95     -0.63
    3    6    7      3.16      4.47
    5    6    7      1.22      5.31
   -6    7    7      4.25      0.50
   -4    7    7     -3.77      1.78
   -2    7    7     -1.89      1.46
    0    7    7     -1.63      3.12
    2    7    7     -6.69     -0.22
    4    7    7     -4.12     -3.41
    6    7    7      0.31      1.86
   -7    8    7     -3.55     -1.61
   -5    8    7      4.11     -1.76
   -3    8    7     -1.29     -1.88
   -1    8    7     -0.45     -5.83
    1    8    7      2.73     -2.77
    3    8    7      1.31      0.63
    5    8    7     -2.74     -2.36
    7    8    7     -2.37      0.78
   -8    9    7      2.47      1.93
   -6    9    7     -4.62     -2.29
   -4    9    7      0.88      1.75
   -2    9    7     -1.88      3.49
    0    9    7     -3.02      0.52
    2    9    7     -0.88      1.23
    4    9    7      2.12      0.76
    6    9    7      0.11     -0.60
    8    9    7     -2.01      2.18
   -9   10    7     -0.63      1.41
   -7   10    7      2.53      5.10
   -5   10    7     -2.30     -3.99
   -3   10    7      0.02     -0.74
   -1   10    7     -1.36     -0.74
    1   10    7     -2.11     -5.28
    3   10    7      0.33     -0.94
    5   10    7     -0.55     -0.28
    7   10    7     -2.32     -1.14
    9   10    7     -0.20      1.04
  -10   11    7     -1.89     -1.20
   -8   11    7     -2.29     -0.96
   -6   11    7      0.35      3.70
   -4   11    7     -0.45     -2.69
   -2   11    7      0.10      1.12
    0   11    7      1.04      3.13
    2   11    7     -0.59     -2.56
    4   11    7      2.32     -0.91
    6   11    7      1.22      1.03
    8   11    7     -1.11     -0.64
   10   11    7      0.14     -1.39
  -11   12    7      0.80      0.24
   -9   12    7     -1.78      0.30
   -7   12    7     -3.48      0.96
   -5   12    7     -1.74      1.37
   -3   12    7     -0.18     -2.56
   -1   12    7     -2.43     -0.76
    1   12    7     -0.25      0.62
    3   12    7      0.26     -0.67
    5   12    7      0.35     -1.32
    7   12    7     -0.99      3.04
    9   12    7      0.65      1.40
   11   12    7      1.96     -2.22
  -10   13    7      1.95     -1.41
   -8   13    7      1.40     -0.28
   -6   13    7     -2.04      2.90
   -4   13    7     -1.14      2.04
   -2   13    7      1.80      1.00
    0   13    7      0.21      1.29
    2   13    7      0.89     -2.47
    4   13    7      1.28     -0.46
    6   13    7      0.09     -4.37
    8   13    7     -2.67     -0.04
   10   13    7     -2.57      0.90
   -9   14    7     -0.62     -1.41
   -7   14    7      1.90     -0.76
   -5   14    7     -0.82      0.63
   -3   14    7     -1.67     -2.32
   -1   14    7     -1.18     -1.02
    1   14    7     -3.36      2.68
    3   14    7     -0.52     -1.96
    5   14    7      1.71      3.52
    7   14    7      1.88     -0.40
    9   14    7      1.99      0.88
   -8   15    7     -1.16     -1.80
   -6   15    7     -0.17      0.50
   -4   15    7      0.42      2.85
   -2   15    7     -0.07     -0.28
    0   15    7      1.75     -0.93
    2   15    7     -2.09      1.04
    4   15    7     -2.53     -4.70
    6   15    7     -1.04      0.59
    8   15    7     -0.85     -0.98
   -7   16    7      1.71     -0.55
   -5   16    7     -1.11      0.29
   -3   16    7     -0.34      0.97
   -1   16    7     -1.59     -0.99
    1   16    7      0.78      0.87
    3   16    7      0.19      2.88
    5   16    7     -1.07     -2.54
    7   16    7     -0.42     -0.30
   -4   17    7     -0.69      1.34
   -2   17    7     -1.54      1.77
    0   17    7     -1.86     -1.47
    2   17    7      0.04      0.31
    4   17    7      1.44      2.34
    1    1    6      9.19    -13.52
    0    2    6      4.66     -0.43
    2    2    6     -7.55      3.04
   -1    3    6      4.66    -12.22
    1    3    6      4.57    -13.16
    3    3    6    -10.19     -9.49
   -2    4    6      2.22     -6.27
    0    4    6      6.46      0.39
    2    4    6      5.83     -3.99
    4    4    6     -8.36     -1.48
   -3    5    6      2.78     -2.16
   -1    5    6      0.67    -12.05
    1    5    6     -1.74      1.45
    3    5    6      0.20     -3.88
    5    5    6     -4.46     -5.77
   -4    6    6     -1.86     -4.40
   -2    6    6      3.16     -0.46
    0    6    6      3.45     -9.86
    2    6    6      3.37      2.04
    4    6    6      3.43      4.47
    6    6    6      2.67     -1.09
   -5    7    6      0.07      1.39
   -3    7    6      0.03     -3.10
   -1    7    6      1.25      0.75
    1    7    6     -3.90     -3.99
    3    7    6     -0.55     -4.40
    5    7    6      0.78      0.63
    7    7    6      1.71      1.99
   -6    8    6      0.07      0.10
   -4    8    6      3.02     -2.04
   -2    8    6      3.30     -3.53
    0    8    6      5.85     -1.66
    2    8    6      0.79      2.31
    4    8    6      2.87     -0.49
    6    8    6      1.47     -1.71
    8    8    6      2.32     -0.80
   -7    9    6     -2.83     -0.99
   -5    9    6     -3.20      1.97
   -3    9    6      0.55      0.00
   -1    9    6     -0.42      0.42
    1    9    6     -0.33      0.08
    3    9    6     -0.99      1.52
    5    9    6      4.33     -1.09
    7    9    6      1.24      2.73
    9    9    6     -1.40      3.75
   -8   10    6      0.26      5.22
   -6   10    6      2.16     -3.67
   -4   10    6     -0.51     -0.66
    0   10    6      2.79     -3.64
    2   10    6     -0.37     -1.21
    4   10    6     -2.38      2.92
    6   10    6     -0.36     -6.02
    8   10    6     -0.75     -0.42
   10   10    6      0.29      7.05
   -9   11    6     -1.79     -9.40
   -7   11    6     -0.91      2.45
   -5   11    6      2.34     -1.70
   -3   11    6     -1.96      0.75
   -1   11    6     -0.18      4.98
    1   11    6      1.52      2.00
    3   11    6      0.07     -1.17
    5   11    6      2.21      4.73
    7   11    6      0.61     -4.29
    9   11    6     -1.40     -3.46
   11   11    6      2.51      2.85
  -10   12    6      2.07      5.87
   -8   12    6     -3.57     -6.06
   -6   12    6     -1.52     -1.14
   -4   12    6      2.31     -1.25
   -2   12    6     -0.72     -2.79
    0   12    6      0.64     -2.11
    2   12    6      0.87      1.20
    4   12    6     -1.15     -0.39
    6   12    6      0.04      3.81
    8   12    6     -2.38      0.10
   10   12    6     -0.20      0.50
   12   12    6      1.52      2.47
  -11   13    6      1.96     -3.89
   -9   13    6      5.30      4.39
   -7   13    6     -0.87     -3.66
   -5   13    6     -1.65     -1.32
   -3   13    6     -1.03      3.24
   -1   13    6     -2.26      2.66
    1   13    6      2.17     -0.85
    3   13    6      0.76     -0.03
    5   13    6      0.21     -0.37
    7   13    6      1.43     -0.19
    9   13    6     -3.84     -3.20
   11   13    6      0.25     -1.34
  -10   14    6     -1.54     -2.81
   -8   14    6      1.01      3.91
   -6   14    6     -0.05     -1.34
   -4   14    6     -0.33     -2.60
   -2   14    6     -0.29      0.30
    0   14    6     -3.18     -1.01
    2   14    6      2.37     -0.70
    4   14    6      1.81      0.42
    6   14    6      0.14      3.40
    8   14    6      2.21      3.16
   10   14    6     -0.12     -0.53
   -9   15    6      0.02     -2.08
   -7   15    6     -0.41      0.16
   -5   15    6      0.48      0.20
   -3   15    6     -0.54      0.15
   -1   15    6      1.95      1.99
    1   15    6     -0.44     -2.12
    3   15    6      1.29     -1.84
    5   15    6      1.55     -3.19
    7   15    6     -0.64      1.29
    9   15    6     -1.61      0.16
   -8   16    6     -0.02      1.43
   -6   16    6     -1.30     -0.50
   -4   16    6     -0.70     -0.83
   -2   16    6     -1.99     -1.51
    0   16    6      0.68      1.44
    2   16    6     -1.33     -0.45
    4   16    6     -0.87      0.61
    6   16    6      1.20     -3.01
    8   16    6      2.12      2.12
   -5   17    6      0.34     -0.45
   -3   17    6      0.40     -0.28
   -1   17    6     -0.89     -3.06
    1   17    6      3.36     -0.40
    3   17    6      1.05      0.27
    5   17    6     -0.14      2.24
   -2   18    6      0.88     -0.21
    0   18    6     -2.30     -2.57
    2   18    6     -0.61     -1.32
    0    1    5     14.35      0.89
   -1    2    5      3.96     15.25
    1    2    5     -7.50     10.51
   -2    3    5      7.85      9.30
    0    3    5     17.67      1.30
    2    3    5     10.38     -7.19
   -3    4    5      4.84      5.56
   -1    4    5     -1.34     13.76
    1    4    5      0.17      4.86
    3    4    5      0.12     -4.69
   -4    5    5     -2.50      1.38
   -2    5    5     11.59      6.42
    0    5    5      1.51      7.03
    2    5    5     -3.61      4.08
    4    5    5      2.42     -3.21
   -5    6    5      0.78      0.55
   -3    6    5     -3.35      2.71
   -1    6    5      9.76      8.25
    1    6    5      1.26      1.55
    3    6    5     -6.06      4.11
    5    6    5      2.50     -0.41
   -6    7    5      0.04     -5.04
   -4    7    5      1.29      1.75
   -2    7    5     -2.68      0.05
    0    7    5      2.74      4.99
    2    7    5     -2.22     -2.22
    4    7    5     -5.31      0.99
    6    7    5     -3.32      2.09
   -7    8    5     -1.16      0.75
   -5    8    5      2.77     -2.97
   -3    8    5      1.47      6.06
   -1    8    5      1.13      3.29
    1    8    5      3.47      4.60
    3    8    5     -1.01      3.64
    5    8    5     -0.33      1.77
    7    8    5     -0.96     -1.83
   -8    9    5     -2.87     -3.54
   -6    9    5     -1.63      0.95
   -4    9    5      1.95     -2.86
   -2    9    5     -3.37      2.12
    0    9    5     -4.17      1.22
    2    9    5     -0.92     -2.19
    4    9    5      2.15      1.90
    6    9    5      2.38      4.82
    8    9    5     -4.03      1.14
   -9   10    5      2.39      1.14
   -7   10    5      0.04     -0.55
   -5   10    5      1.46      0.35
   -3   10    5      3.30     -1.59
   -1   10    5      0.57     -0.16
    1   10    5      3.07     -1.11
    3   10    5     -3.43     -1.61
    5   10    5     -0.78      0.98
    7   10    5      2.14     -0.58
    9   10    5     -2.35      1.51
  -10   11    5      4.53      0.05
   -8   11    5      2.13     -1.58
   -6   11    5      0.85      3.17
   -4   11    5     -0.37      1.25
   -2   11    5     -3.08      0.21
    2   11    5      4.28     -0.65
    4   11    5      1.01     -2.21
    6   11    5      2.25      2.31
    8   11    5      1.78     -4.50
   10   11    5     -0.24     -3.65
  -11   12    5     -6.40      3.77
   -9   12    5     -0.11      2.71
   -7   12    5      0.60     -2.39
   -5   12    5      3.61      0.61
   -3   12    5      2.98     -1.65
   -1   12    5      5.01     -5.15
    1   12    5     -4.05      0.37
    3   12    5      1.90      1.44
    5   12    5     -1.36     -1.20
    7   12    5      0.79      1.20
    9   12    5     -0.78      0.76
   11   12    5     -2.66     -0.17
  -12   13    5      3.64      0.81
  -10   13    5     -1.54      0.70
   -8   13    5      2.63      2.33
   -6   13    5      0.07     -0.46
   -4   13    5      0.45     -1.81
   -2   13    5     -4.07     -0.10
    0   13    5      1.76      0.93
    2   13    5     -1.58     -0.49
    4   13    5     -0.94      1.77
    6   13    5     -2.94      0.37
    8   13    5      2.35     -4.22
   10   13    5      1.23     -0.23
   12   13    5      1.34      1.59
  -11   14    5      0.51      2.19
   -9   14    5     -3.85     -1.65
   -7   14    5      0.51      2.02
   -5   14    5     -0.81      1.55
   -3   14    5      1.61     -4.89
   -1   14    5     -1.88     -3.34
    1   14    5      1.67      1.36
    3   14    5      3.19     -0.12
    5   14    5     -0.16      1.49
    7   14    5     -5.68      2.14
    9   14    5      1.53     -1.10
   11   14    5      0.97      2.64
  -10   15    5      1.23      2.55
   -6   15    5      3.00      0.15
   -4   15    5     -0.77      3.13
   -2   15    5      1.11     -3.02
    0   15    5      0.21      0.31
    2   15    5     -0.03      1.43
    4   15    5      2.43      0.53
    6   15    5      1.49      0.84
    8   15    5     -5.69     -0.40
   10   15    5      0.55     -2.24
   -9   16    5     -0.50      1.20
   -7   16    5     -1.37     -1.79
   -5   16    5      0.52     -1.22
   -3   16    5     -2.11      1.21
   -1   16    5     -0.24     -2.99
    1   16    5     -1.37      2.22
    3   16    5     -1.87     -1.44
    5   16    5     -0.58      0.08
    7   16    5      2.46      1.13
    9   16    5     -1.73      3.28
   -8   17    5      1.17     -1.79
   -6   17    5      0.64     -0.76
   -4   17    5      1.39      0.35
   -2   17    5      0.55      1.09
    0   17    5      4.14     -1.55
    2   17    5      2.00      5.32
    4   17    5      1.63     -1.72
    6   17    5     -2.15      0.03
    8   17    5     -0.77     -2.77
   -5   18    5     -0.88     -0.47
   -3   18    5     -0.31      0.69
   -1   18    5     -0.56      1.18
    1   18    5      0.48     -3.11
    3   18    5     -2.33      1.96
    5   18    5      1.52     -2.53
    0    0    4    -28.60      6.52
    1    1    4      5.32     -3.92
    0    2    4    -28.98      8.90
    2    2    4    -19.34     -8.81
   -1    3    4      2.69      4.34
    1    3    4      9.00     19.92
    3    3    4     10.29     -2.24
   -2    4    4    -18.79     -8.53
    0    4    4    -14.80     -9.10
    2    4    4     -5.74      4.01
    4    4    4      3.53     -3.52
   -3    5    4      1.56      4.75
   -1    5    4     -5.54      0.72
    1    5    4      0.57     -4.76
    3    5    4      1.78      2.87
    5    5    4      6.56      4.75
   -4    6    4     -3.14     -2.93
   -2    6    4     -4.48      5.23
    0    6    4     -5.69      0.73
    2    6    4      0.23     -9.56
    4    6    4     -1.70     -3.31
    6    6    4      7.24      4.16
   -5    7    4      3.99     -1.08
   -3    7    4      0.10     -6.77
   -1    7    4     -5.83     -4.68
    1    7    4     -4.29     -3.38
    3    7    4      1.62     -8.72
    5    7    4     -3.72     -1.08
    7    7    4     -0.41      4.61
   -6    8    4     -0.59      2.69
   -4    8    4     -1.05      4.46
   -2    8    4      1.34      4.57
    0    8    4     -0.46      0.05
    2    8    4     -0.13      1.09
    4    8    4     -1.65     -3.52
    6    8    4      0.40     -1.94
    8    8    4      0.25      1.14
   -7    9    4      0.64     -3.01
   -5    9    4      1.76      2.47
   -3    9    4      0.00     -2.64
   -1    9    4     -2.80     -2.36
    1    9    4     -5.46     -5.14
    3    9    4      3.43      0.10
    5    9    4     -2.77      1.20
    7    9    4      0.19     -0.46
    9    9    4     -2.19     -0.25
   -8   10    4     -1.08      1.75
   -6   10    4     -2.61     -3.64
   -4   10    4      0.55      3.38
   -2   10    4      4.31     -0.91
    0   10    4      7.71     -0.10
    2   10    4     -3.18     -0.34
    4   10    4     -1.19      2.73
    6   10    4     -3.74      1.78
    8   10    4      2.34      0.40
   10   10    4     -4.75      3.00
   -9   11    4      1.26      0.02
   -7   11    4     -1.29      3.54
   -5   11    4     -3.89      0.97
   -3   11    4     -2.03      2.79
   -1   11    4     -6.03     -2.81
    1   11    4      1.45     -1.47
    3   11    4      1.73     -0.25
    5   11    4      0.58      2.81
    7   11    4     -0.46      0.39
    9   11    4      4.28     -5.36
   11   11    4     -2.81      2.86
  -10   12    4     -4.55     -2.29
   -8   12    4      0.53     -1.94
   -6   12    4      0.24      1.19
   -4   12    4      0.58      2.29
   -2   12    4      5.92      3.53
    0   12    4      2.04     -1.09
    2   12    4     -0.81      0.72
    4   12    4     -0.26      0.23
    6   12    4      0.14      1.67
    8   12    4      1.15      3.86
   10   12    4     -1.82     -3.70
   12   12    4     -6.30      0.58
  -11   13    4      1.12     -1.79
   -9   13    4     -1.42     -1.03
   -7   13    4      0.83     -0.60
   -5   13    4      0.54     -0.04
   -3   13    4     -0.04      0.40
   -1   13    4     -1.34      1.91
    1   13    4      0.27      1.25
    3   13    4     -2.49      0.71
    5   13    4     -2.82     -1.63
    7   13    4      0.60     -0.62
    9   13    4      5.22      1.55
   11   13    4     -1.76     -2.31
   13   13    4     -3.12      5.12
  -12   14    4     -1.07     -1.48
  -10   14    4      0.50     -1.19
   -8   14    4     -2.34     -0.51
   -6   14    4     -2.33      0.49
   -4   14    4      2.22     -0.24
   -2   14    4      5.14      0.41
    0   14    4     -0.20     -1.17
    2   14    4      2.36      2.07
    4   14    4      0.75      0.48
    6   14    4     -0.91     -5.04
    8   14    4     -1.40     -1.26
   10   14    4      0.79      1.73
   12   14    4     -3.79     -3.49
  -11   15    4     -1.98     -1.18
   -9   15    4      2.47      1.74
   -7   15    4      3.13      0.55
   -5   15    4     -1.87      1.18
   -3   15    4      1.93     -0.13
   -1   15    4      3.28      3.28
    1   15    4     -2.22     -0.05
    3   15    4     -0.30      3.00
    5   15    4     -1.01      2.47
    7   15    4      1.37     -4.26
    9   15    4     -0.97     -3.70
   11   15    4     -0.89      1.54
  -10   16    4     -0.17     -1.77
   -8   16    4     -0.75      2.85
   -6   16    4      1.56     -0.19
   -4   16    4     -2.08     -1.40
   -2   16    4      1.33     -2.16
    0   16    4     -0.32      1.08
    2   16    4     -2.14     -2.58
    4   16    4      0.46     -0.10
    6   16    4     -2.03      1.77
    8   16    4      1.93      0.79
   10   16    4     -3.16     -0.81
   -7   17    4      1.63      2.10
   -5   17    4      1.68      0.85
   -3   17    4     -0.40     -0.83
   -1   17    4      2.85      0.24
    1   17    4     -0.45      3.13
    3   17    4     -0.11      0.43
    5   17    4      3.05     -1.28
    7   17    4     -1.75     -2.88
   -6   18    4     -0.03      0.47
   -4   18    4     -0.76     -0.29
   -2   18    4     -1.55     -1.16
    0   18    4      0.11     -0.11
    2   18    4     -2.35     -0.87
    4   18    4     -1.75      1.12
    6   18    4      3.13      1.64
   -1   19    4     -0.52     -1.48
    1   19    4      0.30      2.12
    0    1    3     29.33     -2.58
   -1    2    3     -0.27    -29.21
    1    2    3     -2.54    -35.62
   -2    3    3     12.49     15.55
    0    3    3      5.68     12.89
    2    3    3      9.31      3.60
   -3    4    3      5.56    -11.53
   -1    4    3      3.56    -11.40
    1    4    3    -15.14    -14.32
    3    4    3      0.23     -4.81
   -4    5    3     -2.83      2.57
   -2    5    3      5.86      3.00
    0    5    3     16.67      6.98
    2    5    3     -3.52      1.41
    4    5    3      2.12      5.27
   -5    6    3      5.12      1.60
   -3    6    3     -5.47      4.64
   -1    6    3     -1.86      3.54
    1    6    3     12.53      4.59
    3    6    3     -3.09     -1.66
    5    6    3     -3.87     -2.03
   -6    7    3      0.12     -1.18
   -4    7    3      5.02     -4.46
   -2    7    3     -0.29     -6.28
    0    7    3     -1.65     -5.32
    2    7    3     11.85      1.99
    4    7    3      3.48      4.85
    6    7    3     -6.18     -0.19
   -7    8    3     -2.15      1.24
   -5    8    3     -4.67      3.93
   -3    8    3     -3.35      6.71
   -1    8    3      5.51      6.02
    1    8    3      2.23      4.59
    3    8    3      4.00     -1.88
    5    8    3      3.13      0.77
    7    8    3     -2.57     -1.18
   -8    9    3      3.55     -1.62
   -6    9    3      3.87     -1.34
   -4    9    3      1.30      0.75
   -2    9    3     -6.46     -0.86
    0    9    3      2.45     -6.77
    2    9    3     -0.02      2.81
    4    9    3      0.06     -1.96
    6    9    3      0.60     -1.21
    8    9    3      0.44     -3.74
   -9   10    3     -3.27     -2.55
   -7   10    3     -0.42     -2.32
   -5   10    3      0.05     -4.78
   -3   10    3      1.63      0.22
   -1   10    3     -1.29      8.43
    1   10    3      7.69     -0.97
    3   10    3     -4.34      3.05
    5   10    3     -3.09     -1.04
    7   10    3      0.17      2.19
    9   10    3     -0.94     -2.59
  -10   11    3      6.03      1.56
   -8   11    3      0.80     -1.51
   -6   11    3     -1.36      1.93
   -4   11    3     -1.18     -0.70
   -2   11    3      0.18     -5.87
    0   11    3     -6.18      0.45
    2   11    3      7.65     -3.60
    4   11    3     -2.59     -0.44
    6   11    3     -3.30     -2.07
    8   11    3      2.84      1.33
   10   11    3      2.22     -2.77
  -11   12    3     -2.07     -0.85
   -9   12    3      2.59      1.68
   -7   12    3      2.32     -3.50
   -5   12    3     -2.03      0.02
   -3   12    3     -2.94      2.57
   -1   12    3      3.98      0.13
    1   12    3     -5.52      3.08
    3   12    3      3.27     -1.42
    5   12    3     -0.63     -1.13
    7   12    3     -3.67      0.86
    9   12    3      0.84      3.11
   11   12    3      0.78     -5.29
  -12   13    3      4.41     -0.07
  -10   13    3      2.12     -1.50
   -8   13    3      0.25      3.54
   -6   13    3      2.57     -1.27
   -4   13    3     -0.65      0.05
   -2   13    3     -5.30     -1.35
    0   13    3      0.55     -2.33
    2   13    3     -5.01      1.04
    4   13    3      0.57     -0.52
    6   13    3     -0.05     -0.18
    8   13    3     -1.35      1.16
   10   13    3      5.07      2.29
   12   13    3     -0.36     -3.56
  -13   14    3      1.00      5.26
  -11   14    3      0.74      2.06
   -9   14    3      2.00     -3.27
   -7   14    3     -3.72      1.98
   -5   14    3      0.72     -0.15
   -3   14    3      1.41      3.58
   -1   14    3     -1.66      0.24
    1   14    3      1.37     -2.11
    3   14    3     -0.75     -1.02
    5   14    3      3.76     -1.44
    7   14    3      1.17      0.44
    9   14    3     -3.04      0.41
   11   14    3      5.04     -1.09
   13   14    3      3.53     -5.50
  -12   15    3      1.73     -0.79
  -10   15    3     -2.18      1.97
   -8   15    3      2.37     -1.61
   -6   15    3     -2.88      1.82
   -4   15    3     -1.76     -0.43
   -2   15    3     -1.26      3.43
    0   15    3     -3.49      1.77
    2   15    3     -2.82      0.28
    4   15    3     -2.08     -0.30
    6   15    3      2.92     -0.27
    8   15    3      3.33      0.57
   10   15    3     -0.01     -0.43
   12   15    3      0.28     -0.83
  -11   16    3      2.63     -1.11
   -9   16    3     -3.65      1.21
   -7   16    3     -1.10     -0.56
   -5   16    3      0.11      0.82
   -3   16    3      0.12     -0.29
   -1   16    3      0.27      0.16
    1   16    3     -0.12     -1.14
    3   16    3     -1.21     -0.40
    5   16    3     -0.97      0.02
    7   16    3      0.09      1.55
    9   16    3      0.79      0.27
   11   16    3      1.17     -1.93
   -8   17    3     -0.81      0.78
   -6   17    3     -1.54      1.11
   -4   17    3      1.26      0.56
   -2   17    3      0.56      2.08
    0   17    3      0.12      0.23
    2   17    3      0.28     -0.59
    4   17    3      0.34     -0.38
    6   17    3      2.01     -1.63
    8   17    3      0.74      0.26
   -7   18    3     -1.09     -0.33
   -5   18    3     -1.69     -0.05
   -3   18    3      0.85     -1.04
   -1   18    3     -0.39      2.82
    1   18    3      0.38     -1.20
    3   18    3     -0.64     -0.95
    5   18    3     -2.07      1.91
    7   18    3      0.79      0.88
   -4   19    3     -0.03     -0.29
   -2   19    3      1.97     -2.59
    0   19    3     -0.38      2.11
    2   19    3      0.38     -0.37
    4   19    3      0.95     -1.62
    1    1    2    -15.06     80.88
    0    2    2     12.71      0.80
    2    2    2     -5.83     24.36
   -1    3    2    -13.00     13.29
    1    3    2     13.39     31.16
    3    3    2    -12.16     23.81
   -2    4    2     -7.94      3.43
    0    4    2    -13.28    -22.44
    2    4    2     10.49     -1.36
    4    4    2     -3.53      4.46
   -3    5    2     -1.16     -5.87
   -1    5    2     -2.97     16.53
    1    5    2     -2.08     -4.90
    3    5    2      4.57      4.05
    5    5    2      0.26      4.54
   -4    6    2     -1.16      4.22
   -2    6    2     -8.33     -6.02
    0    6    2     -8.96     14.93
    2    6    2     -1.78     -5.16
    4    6    2     -3.32     -8.11
    6    6    2      0.12     -5.74
   -5    7    2      0.58      1.32
   -3    7    2      2.17     -6.21
   -1    7    2     -2.55    -14.32
    1    7    2     -6.03      5.86
    3    7    2      0.72      7.02
    5    7    2     -1.38      1.98
    7    7    2      3.35     -3.65
   -6    8    2     -1.45     -2.07
   -4    8    2     -4.44      3.82
   -2    8    2     -1.51      4.71
    0    8    2     -0.18      5.91
    2    8    2     -4.02      0.66
    4    8    2     -0.16     -0.50
    6    8    2     -0.06      2.09
    8    8    2      3.10      0.67
   -5    9    2      0.75     -0.11
   -3    9    2     -1.48     -1.74
   -1    9    2     -1.51     -8.24
    1    9    2     -0.30      2.03
    3    9    2     -3.39     -0.40
    5    9    2     -1.39     -1.81
    7    9    2      1.77     -0.79
    9    9    2      6.07      5.64
   -8   10    2     -0.72      2.11
   -6   10    2      1.64      0.18
   -4   10    2     -1.11     -2.45
   -2   10    2     -0.93      3.16
    0   10    2     -1.32      3.56
    2   10    2      0.04      3.73
    4   10    2     -0.47     -1.89
    6   10    2     -0.31      1.64
    8   10    2      0.94     -0.61
   10   10    2      4.27      2.27
   -9   11    2      1.20      1.62
   -7   11    2     -1.21      2.04
   -5   11    2      0.89      4.09
   -3   11    2      2.11      0.54
   -1   11    2      3.28     -4.22
    1   11    2      1.27      0.48
    3   11    2      0.64      1.03
    5   11    2      0.09     -5.02
    7   11    2     -0.58      0.80
    9   11    2      1.60      2.48
   11   11    2      1.80      4.87
  -10   12    2     -3.14      3.11
   -8   12    2      2.31      1.44
   -6   12    2     -1.54     -2.88
   -4   12    2     -1.97     -1.84
   -2   12    2     -0.31      3.14
    0   12    2      0.41     -0.51
    2   12    2      0.20      2.39
    4   12    2      0.70      0.85
    6   12    2      1.65     -4.45
    8   12    2     -1.87     -0.42
   10   12    2     -0.19      2.01
   12   12    2      2.83      3.07
  -11   13    2      0.64     -2.17
   -9   13    2     -3.03      2.43
   -7   13    2      1.43      2.69
   -5   13    2     -0.25      0.00
   -3   13    2      0.38     -2.73
   -1   13    2      1.62     -1.66
    1   13    2      0.10     -3.61
    3   13    2      0.03      2.95
    5   13    2     -1.73      1.48
    7   13    2      1.41     -2.97
    9   13    2      0.93      0.38
   11   13    2      0.13      3.21
   13   13    2     -1.83     -0.36
  -12   14    2     -3.59      3.17
  -10   14    2      0.49     -0.47
   -8   14    2     -1.03     -1.22
   -6   14    2     -0.19     -1.00
   -4   14    2      0.80      0.64
   -2   14    2      1.66      1.17
    0   14    2      2.63     -0.12
    2   14    2      1.94     -4.36
    4   14    2      2.49      2.30
    6   14    2     -1.62      0.83
    8   14    2     -2.10     -1.28
   10   14    2     -0.49      0.47
   12   14    2      4.42      6.01
  -11   15    2      0.51      0.28
   -9   15    2      0.53      0.02
   -7   15    2      0.34     -2.21
   -5   15    2     -2.78     -3.88
   -3   15    2     -1.06     -3.68
   -1   15    2     -1.03     -1.24
    1   15    2     -1.58     -0.11
    3   15    2     -0.07     -2.61
    5   15    2      1.27      2.72
    7   15    2      0.71     -0.24
    9   15    2     -0.92      2.17
   11   15    2     -2.08     -0.15
  -10   16    2      2.00      0.22
   -8   16    2      0.02     -0.20
   -6   16    2      1.69     -0.96
   -4   16    2     -0.34     -0.24
   -2   16    2      0.55     -1.90
    0   16    2      1.08     -1.42
    2   16    2      0.11     -0.07
    4   16    2      0.43     -0.77
    6   16    2     -1.60      3.01
    8   16    2      0.78     -2.33
   10   16    2      0.20      1.43
   -9   17    2      2.03     -0.58
   -7   17    2     -0.22     -0.54
   -5   17    2      0.67     -1.11
   -3   17    2     -0.28      0.35
   -1   17    2     -0.83     -0.17
    1   17    2     -0.65     -1.23
    3   17    2      0.39     -0.48
    5   17    2      2.21     -0.36
    7   17    2     -1.40      2.62
    9   17    2      0.60     -0.22
   -8   18    2      0.47     -1.45
   -6   18    2     -0.77     -1.18
   -4   18    2      0.60     -0.79
   -2   18    2     -1.31     -0.22
    0   18    2     -0.43      1.95
    2   18    2      0.20      0.07
    4   18    2     -0.72     -0.01
    6   18    2      0.40     -0.05
    8   18    2     -0.40      0.88
   -5   19    2     -0.30      0.54
   -3   19    2      2.15      0.17
   -1   19    2     -1.64     -2.00
    1   19    2     -0.70      0.73
    3   19    2      1.36     -0.30
    5   19    2      0.81      0.15
    0    1    1   -125.71    -23.52
   -1    2    1     50.62    -22.23
    1    2    1    -54.65    -48.64
   -2    3    1    -27.80     -9.82
    0    3    1     16.27      6.07
    2    3    1    -41.85    -10.40
   -3    4    1      6.25     -2.86
   -1    4    1    -16.12    -17.89
    1    4    1     12.71     -5.15
    3    4    1     -9.99     -4.88
   -4    5    1      0.92     -1.98
   -2    5    1     14.71     -5.53
    0    5    1     -3.20     -3.24
    2    5    1      5.99      6.61
    4    5    1     -4.60      2.83
   -5    6    1     -5.47     -2.78
   -3    6    1     -2.50      2.41
   -1    6    1      2.15     -5.76
    1    6    1     -3.78     -0.52
    3    6    1      7.52     -1.75
    5    6    1      0.84     -7.94
   -6    7    1      1.96      6.97
   -4    7    1     -2.23     -7.77
   -2    7    1      5.81     -2.86
    0    7    1      3.73    -11.32
    2    7    1     -5.54      3.32
    4    7    1      0.32      5.63
    6    7    1      4.59     -3.00
   -7    8    1     -1.91     -3.39
   -5    8    1      3.57      4.57
   -3    8    1     -2.61     -4.04
   -1    8    1     -0.30      7.99
    1    8    1      0.42     -3.69
    3    8    1      1.69     -4.67
    5    8    1     -1.59     -0.20
    7    8    1      0.06      1.52
   -8    9    1      0.74      3.65
   -6    9    1     -3.02     -1.63
   -4    9    1      1.84      1.36
   -2    9    1      1.94     -8.11
    0    9    1      3.13     -1.33
    2    9    1     -2.30     -0.49
    4    9    1     -0.34     -3.66
    6    9    1     -1.49     -2.97
    8    9    1     -2.27      3.84
   -9   10    1     -5.02     -4.67
   -7   10    1     -0.20      1.87
   -5   10    1     -1.66     -3.57
   -3   10    1     -1.71     -1.12
   -1   10    1     -4.96      1.76
    1   10    1     -1.37      0.51
    3   10    1      2.16      0.12
    5   10    1      1.95     -0.70
    7   10    1      0.97     -0.99
    9   10    1     -0.31     -0.56
  -10   11    1      0.33      0.82
   -8   11    1     -2.73     -3.63
   -6   11    1      0.67      1.41
   -4   11    1     -0.39      1.68
   -2   11    1      1.95     -1.86
    0   11    1      0.89      1.15
    2   11    1     -2.88     -0.61
    4   11    1      0.92     -0.68
    6   11    1     -0.56      0.05
    8   11    1     -1.90      2.81
   10   11    1     -2.40      0.55
  -11   12    1     -0.10     -2.85
   -9   12    1     -0.83      1.50
   -7   12    1     -1.35     -3.05
   -5   12    1      1.52     -4.45
   -3   12    1     -0.99     -0.47
   -1   12    1     -1.94     -0.48
    1   12    1     -0.50      2.02
    3   12    1     -1.82     -0.80
    5   12    1      3.19     -0.38
    7   12    1      1.45      0.57
    9   12    1     -2.51      1.57
   11   12    1     -0.67     -2.09
  -12   13    1      1.26     -0.53
  -10   13    1      0.71     -3.37
   -8   13    1     -1.32      2.76
   -6   13    1     -1.18      1.30
   -4   13    1     -0.39      0.47
   -2   13    1     -0.06      0.83
    0   13    1      2.02     -1.88
    2   13    1     -0.88      1.09
    4   13    1     -2.51      0.08
    6   13    1      2.77     -0.16
    8   13    1      3.80      1.41
   10   13    1     -2.64      1.97
   12   13    1     -1.19     -5.52
  -13   14    1      2.83      0.96
  -11   14    1     -2.44      1.21
   -9   14    1      0.68     -2.27
   -7   14    1      1.83      0.70
   -5   14    1      2.61      0.51
   -3   14    1      0.81      4.61
   -1   14    1     -2.43      4.56
    1   14    1      3.35     -0.31
    3   14    1     -0.87      0.03
    5   14    1     -1.96      0.47
    7   14    1     -0.52     -0.48
    9   14    1      2.00     -0.87
   11   14    1     -4.14      3.32
   13   14    1     -2.32      1.70
  -12   15    1      4.61     -2.33
  -10   15    1      0.10      1.27
   -8   15    1     -0.73     -0.18
   -6   15    1      1.33     -0.54
   -4   15    1      2.36     -2.31
   -2   15    1      3.72      0.98
    0   15    1     -2.05      0.77
    2   15    1      2.43     -0.08
    4   15    1     -1.89     -0.21
    6   15    1      0.56      0.99
    8   15    1     -1.10      0.76
   10   15    1      1.74     -1.99
   12   15    1     -2.21     -2.03
  -11   16    1     -1.53     -0.91
   -9   16    1      1.58      2.68
   -7   16    1      0.03      1.91
   -5   16    1      1.13      2.44
   -3   16    1      0.37      2.48
   -1   16    1      3.11      1.30
    1   16    1     -0.12     -0.75
    3   16    1      2.23      0.72
    5   16    1     -2.48     -1.04
    7   16    1      1.62      0.01
    9   16    1     -0.20     -0.38
   11   16    1      1.62     -0.38
  -10   17    1     -2.78     -0.62
   -8   17    1      1.45      2.11
   -6   17    1      0.48      0.79
   -4   17    1      0.89      0.66
   -2   17    1      0.71      2.69
    0   17    1     -0.12     -0.68
    2   17    1     -0.70     -2.20
    4   17    1      0.64      1.13
    6   17    1     -2.48     -0.68
    8   17    1     -0.85      1.23
   10   17    1     -1.76      0.57
   -7   18    1      1.13      0.48
   -5   18    1      0.45      0.14
   -3   18    1      0.01     -0.58
   -1   18    1      2.38      1.45
    1   18    1     -0.60      0.99
    3   18    1      0.11     -0.34
    5   18    1      0.05      0.28
    7   18    1     -0.03     -0.99
   -4   19    1     -0.22      0.58
   -2   19    1     -0.57     -0.93
    0   19    1      2.36     -2.77
    2   19    1     -0.18      0.67
    4   19    1      0.22      1.37
    1    1    0    167.11     -0.51
    0    2    0    -18.91      0.07
   -1    3    0     51.69     -0.06
    1    3    0    -25.32     -0.12
    3    3    0     41.93      0.46
   -2    4    0    -24.92     -0.09
    0    4    0     28.50     -0.01
    2    4    0    -12.34     -0.50
    4    4    0     18.10      0.18
   -3    5    0     21.81      0.05
   -1    5    0     -3.62     -0.09
    1    5    0     10.85      0.43
    3    5    0    -15.41     -0.14
    5    5    0      2.01     -0.30
   -4    6    0     -3.61      0.17
   -2    6    0      4.58      0.05
    0    6    0     -5.35     -0.26
    2    6    0      4.71      0.27
    4    6    0      1.14      0.37
    6    6    0      0.28      0.25
   -5    7    0     -1.77     -0.17
   -3    7    0      2.89      0.07
   -1    7    0      7.71      0.10
    1    7    0     -0.92     -0.17
    3    7    0     -7.64     -0.23
    5    7    0      3.73     -0.23
    7    7    0      4.00      0.09
   -6    8    0      0.14      0.15
   -4    8    0      3.67      0.13
   -2    8    0     -1.27      0.11
    0    8    0     -2.57      0.07
    2    8    0      6.40      0.08
    4    8    0      0.72      0.09
    6    8    0      0.61     -0.08
    8    8    0     -0.53      0.01
   -7    9    0     -1.27     -0.38
   -5    9    0     -2.56     -0.30
   -3    9    0      6.42      0.03
   -1    9    0      6.18      0.06
    1    9    0     -1.30      0.04
    3    9    0      1.00     -0.01
    5    9    0      1.74      0.22
    7    9    0     -0.91      0.21
    9    9    0     -4.89     -0.16
   -8   10    0      2.18      0.47
   -6   10    0      0.80      0.01
   -4   10    0     -0.66     -0.13
   -2   10    0     -0.07      0.09
    0   10    0     -3.58     -0.01
    2   10    0      0.80     -0.10
    4   10    0      4.68     -0.35
    6   10    0      2.96     -0.08
    8   10    0      2.73      0.24
   10   10    0      1.57     -0.56
   -9   11    0      2.57     -0.51
   -7   11    0      2.96      0.47
   -5   11    0      1.61      0.00
   -3   11    0      1.15     -0.20
   -1   11    0      5.10      0.01
    1   11    0     -1.53      0.16
    3   11    0     -2.42      0.14
    5   11    0      0.70     -0.07
    7   11    0     -3.55      0.01
    9   11    0     -1.63      0.52
   11   11    0      0.23     -0.57
  -10   12    0      0.26      0.86
   -8   12    0      0.10     -0.69
   -6   12    0      2.99      0.44
   -4   12    0      3.46      0.06
   -2   12    0     -0.07     -0.06
    0   12    0      0.32      0.09
    2   12    0      1.47      0.15
    4   12    0      0.01     -0.20
    6   12    0      0.61     -0.19
    8   12    0     -3.59     -0.17
   10   12    0      1.30      0.60
   12   12    0      3.41     -0.95
  -11   13    0      3.21     -1.51
   -9   13    0      0.18      0.78
   -7   13    0     -3.01     -0.58
   -5   13    0     -2.15      0.32
   -3   13    0     -2.71     -0.13
   -1   13    0      2.04     -0.30
    1   13    0     -0.22      0.03
    3   13    0      1.61      0.42
    5   13    0      0.24     -0.05
    7   13    0      0.28      0.03
    9   13    0     -3.07     -0.31
   11   13    0      3.63      0.89
   13   13    0      6.27     -2.10
  -12   14    0     -4.22      2.90
  -10   14    0      0.01     -0.92
   -8   14    0      1.98      0.70
   -6   14    0      0.15     -0.43
   -4   14    0     -0.66      0.26
   -2   14    0     -7.56      0.14
    0   14    0     -0.48     -0.07
    2   14    0     -1.18     -0.22
    4   14    0      0.72      0.24
    6   14    0     -1.33     -0.13
    8   14    0     -0.89      0.20
   10   14    0     -3.76     -0.56
   12   14    0     -0.56      1.57
   14   14    0     -0.43     -0.57
  -13   15    0      1.56     -1.09
  -11   15    0      2.39      1.68
   -9   15    0     -2.41     -0.87
   -7   15    0     -0.27      0.33
   -5   15    0     -0.71     -0.29
   -3   15    0      0.53      0.29
   -1   15    0     -2.22      0.05
    1   15    0      1.17      0.37
    3   15    0     -1.10     -0.21
    5   15    0      0.32      0.32
    7   15    0     -0.45     -0.08
    9   15    0      0.52      0.46
   11   15    0      0.44     -0.68
   13   15    0      3.76      0.66
  -10   16    0      0.44      1.09
   -8   16    0     -3.02     -0.40
   -6   16    0     -1.12      0.05
   -4   16    0     -3.75     -0.21
   -2   16    0     -5.11      0.95
    0   16    0      0.94     -0.44
    2   16    0      2.17      0.75
    4   16    0      0.44     -0.03
    6   16    0      0.32      0.28
    8   16    0      1.41     -0.28
   10   16    0      1.63      0.33
   -9   17    0     -1.36      0.41
   -7   17    0     -2.99     -0.04
   -5   17    0      0.03     -0.23
   -3   17    0     -1.36     -0.54
   -1   17    0     -5.87      1.89
    1   17    0      1.72     -1.45
    3   17    0      0.09      0.04
    5   17    0     -0.13     -0.11
    7   17    0     -2.14      0.19
    9   17    0     -1.96     -0.24
   -8   18    0     -0.38      0.16
   -6   18    0     -1.67      0.48
   -4   18    0      0.40      0.16
   -2   18    0      1.32     -0.65
    0   18    0     -2.74      3.24
    2   18    0      0.73     -0.42
    4   18    0      0.28      0.09
    6   18    0      1.85     -0.01
    8   18    0      0.86      0.12
   -5   19    0     -1.20      0.10
   -3   19    0     -0.49      0.03
   -1   19    0      2.27     -1.50
    1   19    0      0.95      1.63
    3   19    0     -1.71     -0.33
    5   19    0     -0.63     -0.02
   -7    9    2      3.97      2.77
    0   11    5     -8.24      4.68
   -8   15    5      0.45     -3.73
   -2   10    6      2.57     -0.96
   -1    2    9     -4.05      2.83
    1    2    9     -0.49    -15.45
    0    3    9      0.44     -0.88
   -3    4    9      2.47      4.12
   -1    4    9     -7.71     -0.87
    1    4    9      0.31     -5.81
    3    4    9      6.71     -3.35
   -2    5    9     -1.81     -0.82
    2    5    9      2.03     -2.72
   -2    7    9      1.32      3.92
   -8    9    9     -1.68     -4.75
    1    1   10      2.23      3.35
    0    2   10     -3.18      2.91
    2    2   10     -0.63     -9.39
   -1    3   10     -4.08      5.66
    1    3   10     -2.90      1.44
    3    3   10     -2.29      0.76
    4    4   10     -2.73      1.90
   -3    5   10    -11.60     -5.99
   -1    5   10      0.26      1.99
    3    5   10     -0.87    -15.13
    5    5   10     -4.65     -4.21
   -4    6   10      6.02     -5.86
   -2    6   10     -1.65     -6.59
    2    6   10      0.52     11.54
    4    6   10      2.28     -1.20
    6    6   10     -3.50      4.78
   -5    7   10     -2.48      0.76
   -3    7   10     -0.82     -0.16
    3    7   10     -0.60     -0.08
    5    7   10      1.11     -1.54
    0    8   10     -0.86      2.33
    0    1   11      1.31     -9.45
   -1    2   11      0.96      1.05
    1    2   11     -6.63     -2.11
   -2    3   11      4.83     -2.12
    0    3   11      3.02     -1.27
   -3    4   11      7.84     -2.59
    1    4   11      0.19     -8.83
    3    4   11    -11.36     10.18
   -2    5   11     -7.92      7.53
   -5    6   11      1.92      0.42
   -3    6   11      4.13     -1.81
    3    6   11      7.99     -0.15
    5    6   11     -0.84      5.32
   -6    7   11     -2.45      0.21
   -4    7   11     -4.77      9.15
    0    7   11     -5.95     -1.62
    4    7   11      1.21     -5.20
   -7    8   11      0.49      0.08
   -5    8   11     -2.34     -5.87
    1    8   11      2.79      1.38
    3    8   11     -1.19      3.54
    5    8   11      3.04     -0.87
    7    8   11      2.22      0.31
   -6    9   11      1.96      5.29
   -4    9   11      0.00     -1.34
   -2    9   11     -2.81     -0.67
    0    9   11     -5.98     -0.04
    2    9   11     -1.53     -3.92
    4    9   11     -3.29     -0.91
    6    9   11      0.46      0.47
    1    1   12     -2.42      6.13
    2    2   12     -3.69      3.52
   -1    3   12     -7.46      4.03
    1    3   12      6.91      5.09
    3    3   12      9.79      3.26
   -2    4   12      2.94    -15.28
    0    4   12    -11.14     -2.75
    2    4   12     -1.65      0.92
    4    4   12      8.89     -0.38
   -3    5   12     -4.73     11.36
   -1    5   12      4.25      0.28
    1    5   12     -4.89     -1.09
    3    5   12     -1.02     -0.85
   -2    6   12     -0.65     -3.16
    0    6   12      4.27      1.20
    2    6   12      0.30     -0.73
    4    6   12      4.54     -0.73
    6    6   12      1.14      2.25
   -5    7   12      0.26      5.06
   -3    7   12      7.56      0.29
   -1    7   12     -0.41      1.99
    1    7   12     -1.12      4.43
    3    7   12     -4.01     -1.94
    5    7   12     -0.81     -1.33
   -4    8   12     -2.41     -0.36
   -2    8   12      3.26     -2.04
    0    8   12      3.34      1.78
    2    8   12      4.07      4.96
    4    8   12      1.52      0.88
   -5    9   12      5.54      1.54
   -3    9   12      1.85      0.25
   -1    9   12     -1.00     -2.21
    1    9   12     -3.14      0.89
    3    9   12     -2.48      1.61
   -4   10   12      1.57      2.75
   -2   10   12      1.32      2.93
    0   10   12      1.34     -1.69
    2   10   12      0.43     -0.13
   -3   11   12      1.19      0.08
   -1   11   12     -0.83      2.51
    1   11   12     -0.45     -0.08
    3   11   12      0.88     -0.54
    0    1   13      5.12    -12.34
   -3    4   13      4.86    -10.69
   -1    4   13    -10.59      3.43
    3    4   13      1.75      0.31
   -4    5   13     -7.61      6.76
   -2    5   13      8.18      5.41
    0    5   13     -3.53      4.11
    2    5   13     -1.96      1.21
    4    5   13      0.36      4.10
   -5    6   13     -0.71     -3.04
   -3    6   13     -7.43     -5.42
   -1    6   13      4.21     -2.03
    1    6   13     -0.68     -2.27
    3    6   13     -2.28     -3.03
    5    6   13      2.61     -0.46
   -6    7   13      2.87     -1.71
   -4    7   13     -0.03      1.26
   -2    7   13     -2.25      1.18
    0    7   13      4.93      0.51
    2    7   13     -0.99     -0.61
    4    7   13     -2.53     -1.00
    6    7   13      1.81     -0.81
   -5    8   13     -1.87     -1.87
   -3    8   13     -3.56     -0.54
   -1    8   13     -3.10      0.83
    1    8   13      5.17     -1.88
    3    8   13      1.55     -1.01
    5    8   13      1.40      0.21
   -4    9   13      1.61     -3.05
   -2    9   13      0.31     -1.42
    0    9   13     -2.52      1.61
    2    9   13      1.94     -1.41
    4    9   13      0.40     -0.50
    1    1   14    -11.93     -6.07
    0    2   14     -5.07     -2.39
    2    2   14     -4.62      4.10
   -1    3   14      5.96     -0.54
    1    3   14     -3.54     -7.57
    3    3   14     -1.11      2.47
   -2    4   14     -4.69     -5.11
    0    4   14      1.77      3.46
    2    4   14     -0.32     -3.80
    4    4   14     -0.11      0.21
   -3    5   14      5.66      4.03
   -1    5   14      2.66     -2.51
    1    5   14      1.46      5.74
    3    5   14     -0.02      1.52
    5    5   14      1.56      0.73
   -2    6   14     -0.15     -2.12
    0    6   14     -1.95     -4.00
    2    6   14     -0.19      2.34
   -1    7   14      3.96     -1.39
    1    7   14     -1.63     -0.87
    2    2    0    124.88     -0.19
  -12   16    0     -2.05     -0.34
   12   16    0     -0.81     -0.28
    0   20    0     -0.16     -0.43
   -6   19    1      0.42      0.48
    6   19    1     -0.45      0.21
   -1   20    1     -1.45      0.89
    1   20    1      0.15     -2.06
   14   14    2      2.98      0.61
  -13   15    2     -0.71     -2.98
   13   15    2      0.55      2.30
   -9   17    4      2.09     -1.42
    9   17    4      2.88     -1.44
   -3   19    4     -0.95     -0.85
    3   19    4      0.31     -0.82
   13   13    6      1.43     -0.02
  -12   14    6     -0.43      0.14
   12   14    6      0.94     -0.19
   -7   17    6     -0.42      0.38
    7   17    6     -0.56     -1.20
   -4   18    6     -0.32     -0.52
    4   18    6     -2.07     -0.72
  -12   13    7     -1.20      1.16
   12   13    7     -0.50     -2.30
  -11   14    7     -2.83      1.37
   11   14    7      0.86      0.90
    0    0    8     16.51     26.58
   12   12    8      2.05     -0.20
  -11   13    8      1.55      0.30
   11   13    8     -3.34     -0.05
   -1   17    8     -0.93      1.29
    1   17    8     -0.44      0.69
   -2    3    9     -7.34     -7.27
    2    3    9      4.15     -3.93
   -1   16    9      1.54     -0.09
    1   16    9     -0.01     -2.00
    0    4   10     -1.89      8.68
    1    5   10      2.92     10.34
    0    6   10     -0.08     -5.19
   -1   15   10     -1.94     -0.23
    1   15   10     -1.20      0.15
    2    3   11     -4.12     12.69
   -1    4   11     12.10     -4.35
    0    5   11      6.11      1.46
    2    5   11      6.09     -8.95
   -1    6   11     -4.78      1.40
    1    6   11     -1.77      4.12
    6    7   11      1.33     -0.02
   -8   11   11      0.96      2.21
    8   11   11     -1.26      1.42
   -4   13   11      1.27      1.37
    4   13   11      1.64     -0.07
    0    0   12     -8.13     28.14
    0    2   12      0.73      6.68
    5    5   12     -0.17      1.82
   -4    6   12      9.97    -10.20
   -5   11   12     -0.48     -1.44
    5   11   12     -0.45     -1.35
   -2   12   12     -0.57     -0.54
    0   12   12     -1.64     -0.37
    2   12   12     -1.95     -0.23
   -1    2   13      9.67     -0.64
    1    2   13      5.07      1.46
   -2    3   13     -4.81     13.60
    0    3   13     11.61     -3.10
    2    3   13      7.19     -1.09
    1    4   13      1.94     -0.27
   -1   10   13      1.48     -0.66
    1   10   13     -0.98      0.83
   -4    6   14     -1.95      0.32
    4    6   14     -1.98     -0.61
    0    1   15     -2.56      5.62
   -1    2   15      0.16      0.49
    1    2   15      2.73      5.37
    0    0    0      0.00      0.00
# SQUEEZE RESULTS (Version = 170121)
# Note: Data are Listed for all Voids in the P1 Unit Cell
# i.e. Centre of Gravity, Solvent Accessible Volume,
# Recovered number of Electrons in the Void and
# Details about the Squeezed Material
loop_
  _platon_squeeze_void_nr
  _platon_squeeze_void_average_x
  _platon_squeeze_void_average_y
  _platon_squeeze_void_average_z
  _platon_squeeze_void_volume
  _platon_squeeze_void_count_electrons
  _platon_squeeze_void_content
   1 -0.048  0.430 -0.048      1297       311 ' '
# Missing Reflections Below sin(th)/lambda = 0.25
loop_
  _platon_missing_refln_index_h
  _platon_missing_refln_index_k
  _platon_missing_refln_index_l
  _platon_missing_refln_theta
    2    2    0     6.582
_platon_squeeze_void_probe_radius                  1.20
_platon_squeeze_details
)
TITL b_tw             I 41         R = 0.10
CELL   16.5490   16.5490   12.4563     90.00     90.00     90.00
SPGR I41
# Solvent Accessible Volume =      1302
# Electrons Found in S.A.V. =       310
# Note: Atoms in Void are Labelled as Cxxx and Qxxx for all Others
C101 0.500 0.999 0.392 !       2.47 eA-3
C102 0.543 0.475 0.126 !       2.29 eA-3
C103 0.461 0.470 0.124 !       2.17 eA-3
Q104 0.730 0.638-0.002 !       2.08 eA-3
C105 0.709 0.361 0.106 !       1.80 eA-3
Q106 0.962 0.628 0.092 !       1.67 eA-3
Q107 0.286 0.232 0.257 !       1.58 eA-3
C108 0.294 0.778 0.391 !       1.51 eA-3
C109 0.753 0.236 0.182 !       1.46 eA-3
C110 0.251 0.804 0.482 !       1.46 eA-3
C111 0.624 0.403 0.265 !       1.45 eA-3
Q112 0.689 0.777 0.489 !       1.42 eA-3
C113 0.687 0.329 0.203 !       1.32 eA-3
C114 0.239 0.730 0.285 !       1.30 eA-3
C115 0.285 0.854 0.472 !       1.29 eA-3
Q116 0.297 0.345 0.227 !       1.27 eA-3
C117 0.387 0.801 0.283 !       1.25 eA-3
C118 0.167 0.673 0.005 !       1.25 eA-3
Q119 0.083 0.668 0.135 !       1.24 eA-3
Q120 0.450 0.843 0.277 !       1.18 eA-3
C121 0.389 0.929 0.410 !       1.18 eA-3
C122 0.409 0.884 0.343 !       1.15 eA-3
C123 0.627 0.144 0.420 !       1.15 eA-3
Q124 0.692 0.688 0.012 !       1.14 eA-3
C125 0.657 0.090 0.418 !       1.13 eA-3
Q126 0.468 0.392 0.189 !       1.11 eA-3
C127 0.753 0.298 0.215 !       1.11 eA-3
Q128 0.564 0.444 0.026 !       1.11 eA-3
C129 0.783 0.267 0.146 !       1.10 eA-3
C130 0.293 0.861 0.400 !       1.09 eA-3
C131 0.326 0.816 0.268 !       1.09 eA-3
C132 0.625 0.124 0.329 !       1.07 eA-3
C133 0.672 0.253 0.309 !       1.06 eA-3
Q134 0.469 0.907 0.278 !       1.06 eA-3
Q135 0.639 0.685 0.259 !       1.05 eA-3
C136 0.289 0.780 0.274 !       1.05 eA-3
C137 0.175 0.736 0.010 !       1.02 eA-3
Q138 0.069 0.628 0.766 !       1.01 eA-3
Q139 0.569 0.128 0.266 !       1.01 eA-3
Q140 0.572 0.360 0.097 !       1.00 eA-3
Q141 0.615 0.404 1.007 !       0.99 eA-3
Q142 0.669 0.497 0.356 !       0.92 eA-3
C143 0.520 0.512 0.265 !       0.92 eA-3
C144 0.716 0.194 0.169 !       0.89 eA-3
C145 0.174 0.756 0.346 !       0.85 eA-3
Q146 0.231 0.582 0.042 !       0.81 eA-3
C147 0.551 0.131 0.418 !       0.81 eA-3
C148 0.420 0.460 0.028 !       0.78 eA-3
Q149 0.377 0.861 0.281 !       0.77 eA-3
Q150 0.585 0.961 0.280 !       0.76 eA-3
Q151 0.507 0.167 0.377 !       0.75 eA-3
C152 0.213 0.767 0.342 !       0.75 eA-3
C153 0.638 0.018 0.438 !       0.75 eA-3
Q154 0.238 0.403-0.006 !       0.73 eA-3
C155 0.248 0.904 0.468 !       0.71 eA-3
Q156 0.334 0.231 0.382 !       0.68 eA-3
Q157 0.383 0.513 0.395 !       0.67 eA-3
C158 0.507 0.457 0.216 !       0.64 eA-3
Q159 0.249 0.583 0.108 !       0.64 eA-3
Q160 0.284 0.124 0.255 !       0.62 eA-3
Q161 0.630 0.499 0.278 !       0.62 eA-3
Q162 0.749 0.622 0.231 !       0.62 eA-3
Q163 0.736 0.800 0.363 !       0.61 eA-3
Q164 0.135 0.628 0.113 !       0.60 eA-3
Q165 0.347 0.036 0.351 !       0.59 eA-3
Q166 0.859 0.688 0.487 !       0.59 eA-3
C167 0.998 0.582 0.048 !       0.58 eA-3
Q168 0.111 0.518 0.286 !       0.58 eA-3
Q169 0.229 0.102 0.255 !       0.57 eA-3
C170 0.329 0.578 0.106 !       0.56 eA-3
Q171 0.186 0.072 0.197 !       0.54 eA-3
Q172 0.970 0.717 0.450 !       0.54 eA-3
Q173 0.905 0.756 0.104 !       0.52 eA-3
)
;
_shelx_fab_checksum              4132
_platon_squeeze_void_probe_radius 1.20
_olex2_submission_special_instructions 'No special instructions were received'
loop_
_space_group_symop_operation_xyz
'x, y, z'
'-x+1/2, -y+1/2, z+1/2'
'-y, x+1/2, z+1/4'
'y+1/2, -x, z+3/4'
'x+1/2, y+1/2, z+1/2'
'-x+1, -y+1, z+1'
'-y+1/2, x+1, z+3/4'
'y+1, -x+1/2, z+5/4'
loop_
_atom_site_label
_atom_site_type_symbol
_atom_site_fract_x
_atom_site_fract_y
_atom_site_fract_z
_atom_site_U_iso_or_equiv
_atom_site_adp_type
_atom_site_occupancy
_atom_site_site_symmetry_order
_atom_site_calc_flag
_atom_site_refinement_flags_posn
_atom_site_refinement_flags_adp
_atom_site_refinement_flags_occupancy
_atom_site_disorder_assembly
_atom_site_disorder_group
Zn1 Zn 0.23705(10) 0.32217(10) -0.00779(17) 0.0230(4) Uani 1 1 d . . . . .
S5 S 0.1401(4) 0.5135(4) 0.6188(5) 0.0742(17) Uani 1 1 d . U . . .
N1 N 0.2555(7) 0.3612(6) 0.2236(9) 0.029(2) Uani 1 1 d . . . . .
N2 N 0.2199(7) 0.3853(7) 0.1279(11) 0.035(2) Uani 1 1 d . . . . .
N3 N -0.1614(5) 0.7593(6) 0.5089(8) 0.0207(18) Uani 1 1 d . . . . .
N4 N -0.1235(6) 0.7434(6) 0.6060(8) 0.0222(19) Uani 1 1 d . . . . .
N5 N 0.1670(10) 0.4877(9) 0.4943(16) 0.062(4) Uani 1 1 d . . . . .
N6 N 0.0692(10) 0.5813(11) 0.5918(14) 0.059(3) Uani 1 1 d . U . . .
C5 C 0.1757(11) 0.4496(10) 0.1473(15) 0.047(4) Uani 1 1 d . . . . .
H5 H 0.148691 0.480100 0.093561 0.056 Uiso 1 1 calc R U . . .
C6 C 0.2253(8) 0.4096(8) 0.3001(12) 0.031(2) Uani 1 1 d . . . . .
H6 H 0.238306 0.404393 0.374087 0.038 Uiso 1 1 calc R U . . .
C7 C 0.1733(9) 0.4678(8) 0.2605(13) 0.036(2) Uani 1 1 d . . . . .
C9 C 0.1196(6) 0.5315(6) 0.4300(8) 0.044(3) Uani 1 1 d G . . . .
C8 C 0.1212(5) 0.5292(5) 0.3184(8) 0.035(2) Uani 1 1 d G . . . .
C13 C 0.0704(6) 0.5791(6) 0.2594(6) 0.044(3) Uani 1 1 d G . . . .
H13 H 0.071565 0.577532 0.183187 0.053 Uiso 1 1 calc R U . . .
C12 C 0.0180(6) 0.6315(6) 0.3119(8) 0.047(4) Uani 1 1 d G . . . .
H12 H -0.016772 0.665663 0.271541 0.056 Uiso 1 1 calc R U . . .
C11 C 0.0163(5) 0.6339(6) 0.4234(8) 0.037(3) Uani 1 1 d G . . . .
C10 C 0.0671(6) 0.5839(6) 0.4825(6) 0.044(3) Uani 1 1 d G . . . .
C14 C -0.0510(6) 0.6852(7) 0.4775(12) 0.0232(19) Uani 1 1 d . . . . .
C15 C -0.0577(8) 0.7027(8) 0.5876(12) 0.028(2) Uani 1 1 d . . . . .
H15 H -0.019729 0.687007 0.640827 0.034 Uiso 1 1 calc R U . . .
C16 C -0.1139(8) 0.7279(9) 0.4358(12) 0.031(3) Uani 1 1 d . . . . .
H16 H -0.122498 0.734290 0.360922 0.037 Uiso 1 1 calc R U . . .
loop_
_atom_site_aniso_label
_atom_site_aniso_U_11
_atom_site_aniso_U_22
_atom_site_aniso_U_33
_atom_site_aniso_U_23
_atom_site_aniso_U_13
_atom_site_aniso_U_12
Zn1 0.0229(8) 0.0304(9) 0.0158(8) -0.0017(7) 0.0028(8) 0.0014(7)
S5 0.071(3) 0.088(3) 0.064(3) -0.021(2) -0.009(2) 0.051(3)
N1 0.042(6) 0.019(4) 0.026(4) 0.005(3) 0.014(3) 0.008(4)
N2 0.039(6) 0.039(4) 0.027(4) 0.012(3) 0.018(4) 0.019(4)
N3 0.022(3) 0.020(4) 0.019(4) 0.001(3) 0.002(3) 0.012(3)
N4 0.024(3) 0.022(5) 0.021(4) -0.002(3) 0.000(3) 0.011(3)
N5 0.061(7) 0.064(8) 0.060(6) -0.003(6) 0.007(6) 0.033(6)
N6 0.060(6) 0.065(6) 0.053(4) -0.015(4) 0.007(4) 0.014(5)
C5 0.056(8) 0.047(6) 0.038(4) 0.006(4) 0.014(5) 0.030(6)
C6 0.031(5) 0.029(5) 0.034(4) -0.004(4) 0.012(4) 0.008(4)
C7 0.032(5) 0.035(5) 0.040(4) 0.004(4) 0.018(4) 0.013(4)
C9 0.040(6) 0.040(6) 0.051(4) -0.008(4) 0.012(4) 0.014(5)
C8 0.024(5) 0.029(5) 0.052(4) -0.001(4) 0.020(4) 0.003(4)
C13 0.050(6) 0.038(6) 0.044(5) -0.012(4) 0.018(5) 0.024(5)
C12 0.052(8) 0.042(8) 0.046(4) -0.019(5) 0.015(4) 0.025(6)
C11 0.033(5) 0.032(6) 0.046(4) -0.021(4) 0.011(4) 0.007(4)
C10 0.035(5) 0.044(6) 0.053(4) -0.016(4) 0.008(4) 0.011(5)
C14 0.015(3) 0.021(4) 0.033(4) -0.019(3) 0.001(3) -0.003(3)
C15 0.027(4) 0.026(6) 0.032(4) -0.014(4) -0.003(3) 0.015(4)
C16 0.024(4) 0.042(6) 0.026(4) -0.017(4) 0.002(3) 0.008(4)
loop_
_atom_type_symbol
_atom_type_description
_atom_type_scat_dispersion_real
_atom_type_scat_dispersion_imag
_atom_type_scat_source
C C 0.0137 0.0067 'International Tables Vol C Tables 4.2.6.8 and 6.1.1.4'
H H 0.0000 0.0000 'International Tables Vol C Tables 4.2.6.8 and 6.1.1.4'
N N 0.0241 0.0134 'International Tables Vol C Tables 4.2.6.8 and 6.1.1.4'
S S 0.2925 0.4295 'International Tables Vol C Tables 4.2.6.8 and 6.1.1.4'
Zn Zn -2.7473 0.5279 'International Tables Vol C Tables 4.2.6.8 and 6.1.1.4'
loop_
_geom_angle_atom_site_label_1
_geom_angle_atom_site_label_2
_geom_angle_atom_site_label_3
_geom_angle
_geom_angle_site_symmetry_1
_geom_angle_site_symmetry_3
_geom_angle_publ_flag
N1 Zn1 N2 105.9(5) 7_544 . ?
N1 Zn1 N3 114.5(4) 7_544 5_544 ?
N3 Zn1 N2 107.7(5) 5_544 . ?
N4 Zn1 N1 107.0(4) 3_654 7_544 ?
N4 Zn1 N2 121.1(4) 3_654 . ?
N4 Zn1 N3 101.1(5) 3_654 5_544 ?
N6 S5 N5 100.0(8) . . ?
N2 N1 Zn1 125.0(8) . 8_454 ?
C6 N1 Zn1 127.9(10) . 8_454 ?
C6 N1 N2 106.3(11) . . ?
N1 N2 Zn1 120.9(8) . . ?
C5 N2 Zn1 130.9(12) . . ?
C5 N2 N1 108.2(12) . . ?
N4 N3 Zn1 125.0(7) . 5_455 ?
C16 N3 Zn1 130.0(10) . 5_455 ?
C16 N3 N4 105.0(10) . . ?
N3 N4 Zn1 121.3(7) . 4_465 ?
C15 N4 Zn1 128.8(10) . 4_465 ?
C15 N4 N3 108.9(11) . . ?
C9 N5 S5 105.2(10) . . ?
C10 N6 S5 104.0(10) . . ?
N2 C5 H5 124.3 . . ?
N2 C5 C7 111.3(14) . . ?
C7 C5 H5 124.3 . . ?
N1 C6 H6 123.4 . . ?
N1 C6 C7 113.2(14) . . ?
C7 C6 H6 123.4 . . ?
C5 C7 C8 128.5(13) . . ?
C6 C7 C5 100.7(12) . . ?
C6 C7 C8 130.6(14) . . ?
N5 C9 C8 124.9(9) . . ?
N5 C9 C10 115.1(9) . . ?
C8 C9 C10 120.0 . . ?
C9 C8 C7 120.4(8) . . ?
C9 C8 C13 120.0 . . ?
C13 C8 C7 119.4(8) . . ?
C8 C13 H13 120.0 . . ?
C12 C13 C8 120.0 . . ?
C12 C13 H13 120.0 . . ?
C13 C12 H12 120.0 . . ?
C13 C12 C11 120.0 . . ?
C11 C12 H12 120.0 . . ?
C12 C11 C10 120.0 . . ?
C12 C11 C14 117.6(8) . . ?
C10 C11 C14 122.0(8) . . ?
N6 C10 C9 115.8(9) . . ?
N6 C10 C11 124.2(9) . . ?
C11 C10 C9 120.0 . . ?
C15 C14 C11 126.3(11) . . ?
C16 C14 C11 131.8(12) . . ?
C16 C14 C15 101.8(10) . . ?
N4 C15 C14 110.2(12) . . ?
N4 C15 H15 124.9 . . ?
C14 C15 H15 124.9 . . ?
N3 C16 C14 113.6(14) . . ?
N3 C16 H16 123.2 . . ?
C14 C16 H16 123.2 . . ?
loop_
_geom_bond_atom_site_label_1
_geom_bond_atom_site_label_2
_geom_bond_distance
_geom_bond_site_symmetry_2
_geom_bond_publ_flag
Zn1 N1 1.979(10) 7_544 ?
Zn1 N2 2.008(13) . ?
Zn1 N3 1.987(9) 5_544 ?
Zn1 N4 1.948(10) 3_654 ?
S5 N5 1.669(19) . ?
S5 N6 1.659(17) . ?
N1 N2 1.387(18) . ?
N1 C6 1.342(16) . ?
N2 C5 1.313(19) . ?
N3 N4 1.387(14) . ?
N3 C16 1.311(16) . ?
N4 C15 1.300(16) . ?
N5 C9 1.335(18) . ?
N6 C10 1.363(19) . ?
C5 H5 0.9500 . ?
C5 C7 1.44(3) . ?
C6 H6 0.9500 . ?
C6 C7 1.38(2) . ?
C7 C8 1.515(13) . ?
C9 C8 1.3900 . ?
C9 C10 1.3900 . ?
C8 C13 1.3900 . ?
C13 H13 0.9500 . ?
C13 C12 1.3900 . ?
C12 H12 0.9500 . ?
C12 C11 1.3900 . ?
C11 C10 1.3900 . ?
C11 C14 1.554(12) . ?
C14 C15 1.41(2) . ?
C14 C16 1.360(19) . ?
C15 H15 0.9500 . ?
C16 H16 0.9500 . ?
loop_
_geom_torsion_atom_site_label_1
_geom_torsion_atom_site_label_2
_geom_torsion_atom_site_label_3
_geom_torsion_atom_site_label_4
_geom_torsion
_geom_torsion_site_symmetry_1
_geom_torsion_site_symmetry_2
_geom_torsion_site_symmetry_3
_geom_torsion_site_symmetry_4
_geom_torsion_publ_flag
Zn1 N1 N2 Zn1 -2.4(14) 8_454 . . . ?
Zn1 N1 N2 C5 175.4(11) 8_454 . . . ?
Zn1 N1 C6 C7 -172.8(10) 8_454 . . . ?
Zn1 N2 C5 C7 172.2(11) . . . . ?
Zn1 N3 N4 Zn1 12.6(13) 5_455 . . 4_465 ?
Zn1 N3 N4 C15 -178.4(9) 5_455 . . . ?
Zn1 N3 C16 C14 -177.1(9) 5_455 . . . ?
Zn1 N4 C15 C14 164.3(9) 4_465 . . . ?
S5 N5 C9 C8 -179.9(8) . . . . ?
S5 N5 C9 C10 1.7(14) . . . . ?
S5 N6 C10 C9 1.4(15) . . . . ?
S5 N6 C10 C11 -179.3(8) . . . . ?
N1 N2 C5 C7 -5.4(19) . . . . ?
N1 C6 C7 C5 -0.5(18) . . . . ?
N1 C6 C7 C8 174.2(13) . . . . ?
N2 N1 C6 C7 -2.5(16) . . . . ?
N2 C5 C7 C6 3.6(19) . . . . ?
N2 C5 C7 C8 -171.2(14) . . . . ?
N3 N4 C15 C14 -3.5(16) . . . . ?
N4 N3 C16 C14 6.1(16) . . . . ?
N5 S5 N6 C10 -0.3(15) . . . . ?
N5 C9 C8 C7 6.5(16) . . . . ?
N5 C9 C8 C13 -178.3(15) . . . . ?
N5 C9 C10 N6 -2.2(15) . . . . ?
N5 C9 C10 C11 178.5(13) . . . . ?
N6 S5 N5 C9 -0.8(15) . . . . ?
C5 C7 C8 C9 171.8(14) . . . . ?
C5 C7 C8 C13 -3(2) . . . . ?
C6 N1 N2 Zn1 -173.1(9) . . . . ?
C6 N1 N2 C5 4.8(15) . . . . ?
C6 C7 C8 C9 -2(2) . . . . ?
C6 C7 C8 C13 -176.8(14) . . . . ?
C7 C8 C13 C12 175.2(11) . . . . ?
C9 C8 C13 C12 0.0 . . . . ?
C8 C9 C10 N6 179.4(14) . . . . ?
C8 C9 C10 C11 0.0 . . . . ?
C8 C13 C12 C11 0.0 . . . . ?
C13 C12 C11 C10 0.0 . . . . ?
C13 C12 C11 C14 -172.3(10) . . . . ?
C12 C11 C10 N6 -179.3(15) . . . . ?
C12 C11 C10 C9 0.0 . . . . ?
C12 C11 C14 C15 -172.4(11) . . . . ?
C12 C11 C14 C16 3.3(18) . . . . ?
C11 C14 C15 N4 -176.5(12) . . . . ?
C11 C14 C16 N3 175.6(12) . . . . ?
C10 C9 C8 C7 -175.2(11) . . . . ?
C10 C9 C8 C13 0.0 . . . . ?
C10 C11 C14 C15 15.4(17) . . . . ?
C10 C11 C14 C16 -168.9(13) . . . . ?
C14 C11 C10 N6 -7.3(15) . . . . ?
C14 C11 C10 C9 172.0(10) . . . . ?
C15 C14 C16 N3 -7.9(17) . . . . ?
C16 N3 N4 Zn1 -170.3(10) . . . 4_465 ?
C16 N3 N4 C15 -1.4(14) . . . . ?
C16 C14 C15 N4 6.7(16) . . . . ?
loop_
_platon_squeeze_void_nr
_platon_squeeze_void_average_x
_platon_squeeze_void_average_y
_platon_squeeze_void_average_z
_platon_squeeze_void_volume
_platon_squeeze_void_count_electrons
_platon_squeeze_void_content
1 -0.048 0.430 -0.048 1297 311 ' '
loop_
_twin_individual_id
_twin_individual_mass_fraction_refined
1 0.521(5)
2 0.479(5)
