#------------------------------------------------------------------------------
#$Date: 2022-08-06 14:42:14 +0300 (Sat, 06 Aug 2022) $
#$Revision: 277100 $
#$URL: file:///home/coder/svn-repositories/cod/cif/1/56/71/1567192.cif $
#------------------------------------------------------------------------------
#
# This file is available in the Crystallography Open Database (COD),
# http://www.crystallography.net/
#
# All data on this site have been placed in the public domain by the
# contributors.
#
data_1567192
loop_
_publ_author_name
'Xia, Hai-Lun'
'Zhou, Kang'
'Wu, Shenjie'
'Ren, Daming'
'Xing, Kai'
'Guo, Jiandong'
'Wang, Xiaotai'
'Liu, Xiao-Yuan'
'Li, Jing'
_publ_section_title
;
 Building an emission library of donor-acceptor-donor type linker-based
 luminescent metal-organic frameworks.
;
_journal_issue                   27
_journal_name_full               'Chemical science'
_journal_page_first              8036
_journal_page_last               8044
_journal_paper_doi               10.1039/d2sc02267b
_journal_volume                  13
_journal_year                    2022
_chemical_formula_moiety         'C144 H82 N12 O32 S6 Zr6'
_chemical_formula_sum            'C144 H82 N12 O32 S6 Zr6'
_chemical_formula_weight         3231.89
_space_group_crystal_system      cubic
_space_group_IT_number           227
_space_group_name_Hall           '-F 4vw 2vw 3'
_space_group_name_H-M_alt        'F d -3 m :2'
_atom_sites_solution_hydrogens   geom
_atom_sites_solution_primary     dual
_audit_creation_date             2021-09-06
_audit_creation_method
;
Olex2 1.3
(compiled 2020.02.04 svn.rd84adfe8 for OlexSys, GUI svn.r6032)
;
_audit_update_record
;
2021-12-16 deposited with the CCDC.	2022-06-29 downloaded from the CCDC.
;
_cell_angle_alpha                90
_cell_angle_beta                 90
_cell_angle_gamma                90
_cell_formula_units_Z            8
_cell_length_a                   39.3006(5)
_cell_length_b                   39.3006(5)
_cell_length_c                   39.3006(5)
_cell_measurement_reflns_used    9911
_cell_measurement_temperature    200.0
_cell_measurement_theta_max      68.27
_cell_measurement_theta_min      3.73
_cell_volume                     60701.2(13)
_computing_cell_refinement       'SAINT V8.38A (Bruker, 2018)'
_computing_data_reduction        'SAINT V8.38A (Bruker, 2018)'
_computing_molecular_graphics    'Olex2 1.3 (Dolomanov et al., 2009)'
_computing_publication_material  'Olex2 1.3 (Dolomanov et al., 2009)'
_computing_structure_refinement  'SHELXL 2017/1 (Sheldrick, 2015)'
_computing_structure_solution    'SHELXT 2014/5 (Sheldrick, 2014)'
_diffrn_ambient_temperature      200.0
_diffrn_measured_fraction_theta_full 0.988
_diffrn_measured_fraction_theta_max 0.987
_diffrn_measurement_device_type  'Bruker APEX-II CCD'
_diffrn_measurement_method       '\f and \w scans'
_diffrn_radiation_type           CuK\a
_diffrn_radiation_wavelength     1.54178
_diffrn_reflns_av_R_equivalents  0.0364
_diffrn_reflns_av_unetI/netI     0.0257
_diffrn_reflns_Laue_measured_fraction_full 0.988
_diffrn_reflns_Laue_measured_fraction_max 0.987
_diffrn_reflns_limit_h_max       32
_diffrn_reflns_limit_h_min       -38
_diffrn_reflns_limit_k_max       42
_diffrn_reflns_limit_k_min       -44
_diffrn_reflns_limit_l_max       36
_diffrn_reflns_limit_l_min       -46
_diffrn_reflns_number            13875
_diffrn_reflns_point_group_measured_fraction_full 0.988
_diffrn_reflns_point_group_measured_fraction_max 0.987
_diffrn_reflns_theta_full        67.679
_diffrn_reflns_theta_max         68.309
_diffrn_reflns_theta_min         3.180
_diffrn_source_current           1.0
_diffrn_source_power             0.05
_diffrn_source_voltage           50.0
_diffrn_standards_number         0
_exptl_absorpt_coefficient_mu    2.325
_exptl_absorpt_correction_T_max  0.7531
_exptl_absorpt_correction_T_min  0.6892
_exptl_absorpt_correction_type   multi-scan
_exptl_absorpt_process_details
;
SADABS-2016/2 (Bruker,2016/2) was used for absorption correction.
wR2(int) was 0.0762 before and 0.0539 after correction.
The Ratio of minimum to maximum transmission is 0.9152.
The \l/2 correction factor is Not present.
;
_exptl_crystal_colour            orange
_exptl_crystal_colour_primary    orange
_exptl_crystal_density_diffrn    0.707
_exptl_crystal_description       block
_exptl_crystal_F_000             12976
_exptl_crystal_size_max          0.08
_exptl_crystal_size_mid          0.08
_exptl_crystal_size_min          0.08
_refine_diff_density_max         1.036
_refine_diff_density_min         -0.762
_refine_diff_density_rms         0.095
_refine_ls_extinction_method     none
_refine_ls_goodness_of_fit_ref   1.122
_refine_ls_hydrogen_treatment    constr
_refine_ls_matrix_type           full
_refine_ls_number_parameters     167
_refine_ls_number_reflns         2616
_refine_ls_number_restraints     150
_refine_ls_restrained_S_all      1.235
_refine_ls_R_factor_all          0.0608
_refine_ls_R_factor_gt           0.0528
_refine_ls_shift/su_max          0.001
_refine_ls_shift/su_mean         0.000
_refine_ls_structure_factor_coef Fsqd
_refine_ls_weighting_details
'w=1/[\s^2^(Fo^2^)+(0.1062P)^2^+195.2717P] where P=(Fo^2^+2Fc^2^)/3'
_refine_ls_weighting_scheme      calc
_refine_ls_wR_factor_gt          0.1621
_refine_ls_wR_factor_ref         0.1732
_reflns_Friedel_coverage         0.000
_reflns_number_gt                2075
_reflns_number_total             2616
_reflns_threshold_expression     'I > 2\s(I)'
_cod_data_source_file            d2sc02267b2.cif
_cod_data_source_block           a
_cod_depositor_comments
'Adding full bibliography for 1567192--1567197.cif.'
_cod_original_cell_volume        60701(2)
_cod_original_sg_symbol_H-M      'F d -3 m'
_cod_database_code               1567192
_shelx_shelxl_version_number     2017/1
_shelx_space_group_comment
;
The symmetry employed for this shelxl refinement is uniquely defined
by the following loop, which should always be used as a source of
symmetry information in preference to the above space-group names.
They are only intended as comments.
;
_olex2_refinement_description
;
1. Fixed Uiso
 At 1.2 times of:
  All C(H) groups
 At 1.5 times of:
  All O(H) groups
2. Restrained distances
 C7-C6
 1.4 with sigma of 0.02
 C6-C5
 1.5 with sigma of 0.02
 N1-C13 \\sim N2-C12
 with sigma of 0.02
 C7-C6 \\sim C15-C14
 with sigma of 0.02
 S1-N1 \\sim S1-N2
 with sigma of 0.02
 C14-C11 \\sim C7-C8
 with sigma of 0.02
 C7-C9 \\sim C7-C13
 with sigma of 0.02
 C14-C10 \\sim C14-C12
 with sigma of 0.02
3. Restrained planarity
 S1, N1, N2, C7, C8, C9, C10, C11, C12, C13, C14
 with sigma of 0.01
 C2, C3, C4, C5, C6
 with sigma of 0.01
4. Uiso/Uaniso restraints and constraints
All non-hydrogen atoms have similar U: within 2A with sigma of 0.005 and sigma
for terminal atoms of 0.01 within 2A
C10 \\sim C11 \\sim C12 \\sim C13 \\sim C14 \\sim C15: within 2A with sigma of
0.001 and sigma for terminal atoms of 0.002 within 2A
5. Others
 Fixed Sof: S1(0.25) O2(0.08333) H2(0.08333) O2A(0.08333) O3(0.08333)
 H3(0.08333) O3A(0.08333) N1(0.25) N2(0.25) C6(0.25) H6(0.25) C7(0.25) H7(0.25)
 C12(0.25) C13(0.25) C8(0.25) C9(0.25) H9(0.25) C10(0.25) H10(0.25) C11(0.25)
 C14(0.25) H14(0.25) C15(0.25)
6.a Ternary CH refined with riding coordinates:
 O2(H2), O3(H3)
6.b Aromatic/amide H refined with riding coordinates:
 C3(H3A), C4(H4), C6(H6), C7(H7), C9(H9), C10(H10), C14(H14)
6.c Fitted hexagon refined as free rotating group:
 C12(C13,C8,C9,C10,C11)
;
_smtbx_masks_void_probe_radius   1.2
_smtbx_masks_void_truncation_radius 1.2
_shelx_res_file
;
TITL a_a.res in Fd-3m
    a.res
    created by SHELXL-2017/1 at 09:40:45 on 06-Sep-2021
REM Old TITL a in Fd-3m
REM SHELXT solution in Fd-3m
REM R1 0.196, Rweak 0.003, Alpha 0.026, Orientation as input
REM Formula found by SHELXT: C80 O23 S16 I3
CELL 1.54178 39.3006 39.3006 39.3006 90 90 90
ZERR 8 0.0005 0.0005 0.0005 0 0 0
LATT 4
SYMM 0.75-X,0.25-Y,0.5+Z
SYMM 0.25-X,0.5+Y,0.75-Z
SYMM 0.5+X,0.75-Y,0.25-Z
SYMM +Z,+X,+Y
SYMM 0.5+Z,0.75-X,0.25-Y
SYMM 0.75-Z,0.25-X,0.5+Y
SYMM 0.25-Z,0.5+X,0.75-Y
SYMM +Y,+Z,+X
SYMM 0.25-Y,0.5+Z,0.75-X
SYMM 0.5+Y,0.75-Z,0.25-X
SYMM 0.75-Y,0.25-Z,0.5+X
SYMM 0.75+Y,0.25+X,0.5-Z
SYMM -Y,-X,-Z
SYMM 0.25+Y,0.5-X,0.75+Z
SYMM 0.5-Y,0.75+X,0.25+Z
SYMM 0.75+X,0.25+Z,0.5-Y
SYMM 0.5-X,0.75+Z,0.25+Y
SYMM -X,-Z,-Y
SYMM 0.25+X,0.5-Z,0.75+Y
SYMM 0.75+Z,0.25+Y,0.5-X
SYMM 0.25+Z,0.5-Y,0.75+X
SYMM 0.5-Z,0.75+Y,0.25+X
SYMM -Z,-Y,-X
SFAC C H N O S Zr
UNIT 1152 656 96 256 48 48
SADI N1 C13 N2 C12
SADI C7 C6 C15 C14
SADI S1 N1 S1 N2
SADI C14 C11 C7 C8
SIMU 0.005 0.01 2
FLAT 0.01 S1 N1 N2 C7 C8 C9 C10 C11 C12 C13 C14
SADI C7 C9 C7 C13
DFIX 1.4 C7 C6
DFIX 1.5 C6 C5
FLAT 0.01 C2 C3 C4 C5 C6
SADI C14 C10 C14 C12
SIMU 0.001 0.002 2 C10 C11 C12 C13 C14 C15

L.S. 10 0 0
PLAN  18
TEMP -73.15
CONF
list 4
MORE -1
ABIN
BOND $H
fmap 2 53
acta
OMIT 2 2 8
OMIT 1 5 7
REM <olex2.extras>
REM <HklSrc "%.\\a.hkl">
REM </olex2.extras>

WGHT    0.106200  195.271713
FVAR       0.03516
ZR1   6    0.625000    0.625000    0.187932    10.25000    0.01700    0.01700 =
         0.01139    0.00000    0.00000    0.00073
PART -1
S1    5    0.882576    0.542465    0.361988    10.25000    0.10723    0.14995 =
         0.13132   -0.03596   -0.08706    0.03761
PART 0
O1    4    0.674480    0.625017    0.215462    11.00000    0.03093    0.04218 =
         0.02601   -0.00014   -0.01143   -0.00136
PART 2
O2    4    0.589925    0.589925    0.160075    10.08333    0.02035    0.02035 =
         0.02035   -0.00216   -0.00216    0.00216
AFIX  13
H2    2    0.575234    0.575234    0.174765    10.08333   -1.50000
AFIX   0
PART 1
O2A   4    0.598902    0.598902    0.151098    10.08333    0.01876    0.01876 =
         0.01876    0.00142    0.00142   -0.00142
O3    4    0.660648    0.589352    0.160648    10.08333    0.02012    0.02012 =
         0.02012    0.00052   -0.00052    0.00052
AFIX  13
H3    2    0.675339    0.574661    0.175338    10.08333   -1.50000
AFIX   0
PART 2
O3A   4    0.652168    0.597832    0.152168    10.08333    0.02125    0.02125 =
         0.02125   -0.00260    0.00260   -0.00260
PART -1
N1    3    0.852153    0.567299    0.351030    10.25000    0.10164    0.14999 =
         0.12458   -0.03101   -0.08062    0.04020
N2    3    0.896690    0.563402    0.393456    10.25000    0.10101    0.14956 =
         0.12372   -0.03253   -0.08159    0.03877
PART 0
C1    1    0.705026    0.623588    0.205026    10.50000    0.02944    0.04977 =
         0.02944   -0.00086   -0.01209   -0.00086
C2    1    0.731688    0.620418    0.231688    10.50000    0.03943    0.09409 =
         0.03943    0.00345   -0.01690    0.00345
C3    1    0.723251    0.619291    0.265381    11.00000    0.05497    0.18868 =
         0.05128    0.02286   -0.02279   -0.01287
AFIX  43
H3A   2    0.700029    0.620737    0.271939    11.00000   -1.20000
AFIX   0
C4    1    0.747967    0.616089    0.289901    11.00000    0.07303    0.20758 =
         0.06345    0.02716   -0.03352   -0.01183
AFIX  43
H4    2    0.741363    0.615484    0.313146    11.00000   -1.20000
AFIX   0
C5    1    0.781909    0.613735    0.281909    10.50000    0.07033    0.18692 =
         0.07033    0.00388   -0.04602    0.00388
PART -1
C6    1    0.805878    0.610458    0.312376    10.25000    0.07368    0.17411 =
         0.08025   -0.00119   -0.05511    0.01106
AFIX  43
H6    2    0.825978    0.597596    0.308522    10.25000   -1.20000
AFIX   0
C7    1    0.802135    0.624142    0.345917    10.25000    0.07835    0.16238 =
         0.09094   -0.01031   -0.06677    0.01723
AFIX  43
H7    2    0.781585    0.635416    0.351824    10.25000   -1.20000
AFIX  66
C12   1    0.878269    0.591673    0.397398    10.25000    0.09326    0.14682 =
         0.11429   -0.02555   -0.08307    0.04043
C13   1    0.852826    0.593568    0.372904    10.25000    0.09340    0.14692 =
         0.11422   -0.02577   -0.08280    0.03981
C8    1    0.830558    0.621045    0.372625    10.25000    0.08925    0.15403 =
         0.10665   -0.01940   -0.07530    0.03135
C9    1    0.833734    0.646627    0.396840    10.25000    0.09579    0.15324 =
         0.11346   -0.02360   -0.07880    0.03948
AFIX  43
H9    2    0.818515    0.665407    0.396649    10.25000   -1.20000
AFIX  65
C10   1    0.859177    0.644732    0.421334    10.25000    0.09360    0.14735 =
         0.11418   -0.02530   -0.08301    0.04094
AFIX  43
H10   2    0.861347    0.662217    0.437884    10.25000   -1.20000
AFIX  65
C11   1    0.881445    0.617255    0.421614    10.25000    0.09320    0.14698 =
         0.11407   -0.02534   -0.08313    0.04067
AFIX   0
C14   1    0.908485    0.616910    0.448917    10.25000    0.09298    0.14690 =
         0.11395   -0.02537   -0.08307    0.04059
AFIX  43
H14   2    0.902463    0.623606    0.471350    10.25000   -1.20000
AFIX   0
C15   1    0.942953    0.606834    0.442221    10.25000    0.09266    0.14624 =
         0.11365   -0.02565   -0.08268    0.04082
HKLF 4




REM  a_a.res in Fd-3m
REM R1 =  0.0528 for    2075 Fo > 4sig(Fo)  and  0.0608 for all    2616 data
REM    167 parameters refined using    150 restraints

END

WGHT      0.1064    194.3780

REM Highest difference peak  1.036,  deepest hole -0.762,  1-sigma level  0.095
Q1    1   0.6616  0.6288  0.2264  11.00000  0.05    0.40
Q2    1   0.8351  0.6285  0.4381  11.00000  0.05    0.36
Q3    1   0.6920  0.5814  0.1920  10.50000  0.05    0.35
Q4    1   0.6666  0.6238  0.2233  11.00000  0.05    0.34
Q5    1   0.6635  0.5598  0.2007  11.00000  0.05    0.32
Q6    1   0.6837  0.5820  0.1994  11.00000  0.05    0.32
Q7    1   0.6692  0.6182  0.2150  11.00000  0.05    0.31
Q8    1   0.5806  0.5873  0.1694  10.50000  0.05    0.31
Q9    1   0.6669  0.6287  0.2174  11.00000  0.05    0.30
Q10   1   0.6762  0.6099  0.2129  11.00000  0.05    0.29
Q11   1   0.7216  0.5960  0.2597  11.00000  0.05    0.29
Q12   1   0.9145  0.5462  0.3355  10.50000  0.05    0.28
Q13   1   0.6669  0.6268  0.2121  11.00000  0.05    0.28
Q14   1   0.8151  0.6340  0.4217  11.00000  0.05    0.28
Q15   1   0.7100  0.5464  0.2036  10.50000  0.05    0.27
Q16   1   0.8377  0.6334  0.4427  11.00000  0.05    0.27
Q17   1   0.8197  0.6498  0.4303  10.50000  0.05    0.26
Q18   1   0.7131  0.5877  0.2131  10.50000  0.05    0.25
;
_shelx_res_checksum              35117
_shelx_fab_file
;
0 2 2 201.2251 23.7736
0 4 0 1158.8417 6.9652
0 4 4 762.7627 -25.1515
0 6 2 -23.1377 -10.3673
0 6 6 -439.7142 6.1006
0 8 0 163.2493 16.5952
0 8 4 95.3241 17.7579
0 8 8 38.2749 20.4212
0 10 2 47.2008 10.0037
0 10 6 21.6977 2.3569
0 10 10 -55.3435 -7.5901
0 12 0 -294.3394 -17.6059
0 12 4 -145.1526 -23.9867
0 12 8 3.6505 3.2648
0 12 12 78.0428 -17.2947
0 14 2 60.6415 -29.2518
0 14 6 163.8424 10.7591
0 14 10 -20.5489 -17.3057
0 14 14 -103.8103 36.7142
0 16 0 -28.3095 23.5853
0 16 4 -38.0718 29.5402
0 16 8 -69.0322 -11.4780
0 16 12 5.6161 34.1296
0 16 16 5.4216 -42.2468
0 18 2 31.3260 28.2670
0 18 6 74.6072 -10.9061
0 18 10 -33.1962 18.7026
0 18 14 -46.5856 -34.9156
0 18 18 -47.4821 35.3981
0 20 0 59.8148 -26.7835
0 20 4 29.5750 -19.9664
0 20 8 -58.8496 -4.5884
0 20 12 -51.9621 -16.8045
0 20 16 23.2751 25.9890
0 20 20 23.8533 -14.0764
0 22 2 -19.5659 -10.9132
0 22 6 -2.7792 -5.5870
0 22 10 -12.6672 3.1432
0 22 14 20.1729 11.9449
0 22 18 -1.4278 -14.1690
0 22 22 -22.8725 -2.7901
0 24 0 32.3808 24.9210
0 24 4 4.8680 15.7053
0 24 8 -10.2058 17.9078
0 24 12 -23.7893 -0.5931
0 24 16 -3.8374 -11.6309
0 24 20 -5.0409 3.4926
0 24 24 -0.7421 8.8323
0 26 2 -27.2321 10.4201
0 26 6 -53.0315 3.5087
0 26 10 -10.0060 -2.9733
0 26 14 41.2246 -11.3377
0 26 18 20.0708 12.9267
0 26 22 -16.3785 3.0427
0 26 26 -52.4097 -2.0914
0 28 0 -4.2334 -21.8544
0 28 4 -1.8049 -21.5426
0 28 8 20.4291 -1.9804
0 28 12 1.0244 -15.6049
0 28 16 -12.5749 24.4565
0 28 20 -18.1160 -13.0501
0 28 24 7.7850 2.1828
0 28 28 3.2767 -13.4004
0 30 2 -8.8185 -27.0643
0 30 6 -26.1762 9.7737
0 30 10 3.7582 -12.6712
0 30 14 -4.3384 30.1945
0 30 18 -11.4867 -27.9137
0 30 22 2.2659 11.6949
0 30 26 -0.3238 -11.4066
0 30 30 3.7662 27.8339
0 32 0 -21.0581 20.7645
0 32 4 -14.1779 25.6456
0 32 8 9.4749 -12.4320
0 32 12 30.5383 27.7092
0 32 16 -12.6498 -34.9255
0 32 20 -25.8748 18.7023
0 32 24 -13.6602 -10.7721
0 32 28 9.1957 21.7214
0 32 32 7.2904 -38.5934
0 34 2 15.7725 22.4347
0 34 6 16.3807 -8.1842
0 34 10 10.7007 11.5766
0 34 14 -24.0205 -28.9029
0 34 18 -7.8850 26.0180
0 34 22 3.5343 -10.0649
0 34 26 27.8422 11.6667
0 34 30 6.3831 -30.9761
0 36 4 19.0528 -17.6331
0 36 8 24.3312 -1.0734
0 36 12 -0.3549 -11.0953
0 36 16 -1.6403 18.7772
0 36 20 1.0574 -9.5580
0 36 24 -2.1037 1.5013
0 36 28 -1.4316 -11.3512
0 38 6 7.5183 -5.6451
0 38 10 -7.2545 5.2931
0 38 14 -7.0476 9.9628
0 38 18 7.9460 -8.3148
0 38 22 10.0866 -5.6837
0 38 26 3.3053 4.4213
0 40 4 18.5369 8.8170
0 40 8 -4.6439 15.6500
0 40 12 -4.8675 -2.9509
0 40 16 -3.4385 -6.8723
0 40 20 14.7867 0.8725
0 40 24 2.8233 11.8323
0 42 2 -7.4601 7.9798
0 42 6 -0.2159 3.9181
0 42 10 0.9805 -5.4586
0 42 14 -0.3117 -13.3090
0 42 18 -7.4853 12.1862
0 44 0 20.7359 -3.4027
0 44 4 -0.7109 -14.3556
0 44 8 -39.4662 -2.3038
0 44 12 -9.9727 -13.6952
0 44 16 20.0973 25.2533
0 46 6 6.1485 8.0585
0 46 10 -5.3552 -14.7483
1 3 1 -62.9758 1.8516
1 3 3 249.1501 6.1161
1 5 1 -383.5460 -1.0771
1 5 3 -140.6343 7.2589
1 5 5 -207.3278 4.8293
1 7 1 -409.8387 2.7446
1 7 3 -87.7211 -9.6550
1 7 5 -114.7699 5.9613
1 7 7 163.7359 -1.0742
1 9 1 -211.3947 -1.2127
1 9 3 82.0607 -6.6327
1 9 5 -115.7960 -2.1008
1 9 7 30.7552 0.5475
1 9 9 26.2027 -16.8387
1 11 1 -125.3640 -0.3201
1 11 3 -50.2507 4.4503
1 11 5 -91.4020 -4.5796
1 11 7 61.8870 9.0355
1 11 9 22.8950 7.3415
1 11 11 43.8578 0.0253
1 13 1 52.1811 -2.1627
1 13 3 22.1205 6.0466
1 13 5 -33.5140 -2.2119
1 13 7 102.4542 -1.2671
1 13 9 -47.8556 3.6561
1 13 11 29.3916 -3.8579
1 13 13 -58.0007 15.4474
1 15 1 68.6419 -7.1194
1 15 3 0.1199 -8.3087
1 15 5 -5.3970 -0.7124
1 15 7 -35.3623 6.5387
1 15 9 -6.3568 6.3761
1 15 11 5.3634 -0.6587
1 15 13 -32.0168 9.0822
1 15 15 13.2715 -26.5195
1 17 1 43.3876 0.7225
1 17 3 -11.3898 0.8767
1 17 5 11.4322 6.0471
1 17 7 9.2312 11.7624
1 17 9 -15.5074 -6.3018
1 17 11 8.9877 -19.9961
1 17 13 -11.8000 9.6344
1 17 15 -9.4681 -6.7255
1 17 17 -3.1532 25.1269
1 19 1 35.4100 0.8057
1 19 3 4.2887 10.2945
1 19 5 -15.0808 3.2625
1 19 7 -23.2936 -6.7952
1 19 9 -20.7220 -7.2178
1 19 11 -2.8702 10.1254
1 19 13 -57.4650 20.3842
1 19 15 7.0846 -5.5567
1 19 17 -11.3823 7.7909
1 19 19 26.0714 -15.1678
1 21 1 -5.0617 4.8638
1 21 3 -24.9163 5.7103
1 21 5 -20.2016 -4.7461
1 21 7 -31.0982 1.6870
1 21 9 16.2302 -5.1124
1 21 11 -20.6246 4.7601
1 21 13 12.0875 -10.7483
1 21 15 9.5003 -13.9338
1 21 17 1.1542 4.1757
1 21 19 16.9197 -9.8821
1 21 21 -15.5451 1.5253
1 23 1 -3.5452 7.8630
1 23 3 9.7595 -10.0255
1 23 5 -17.1467 -5.7568
1 23 7 -9.4381 -2.7701
1 23 9 -7.5197 -8.4763
1 23 11 -18.3299 -0.4506
1 23 13 -2.6790 -6.3339
1 23 15 8.1333 9.4999
1 23 17 6.4425 4.4005
1 23 19 -3.7396 3.2413
1 23 21 -4.6206 4.9184
1 23 23 11.1846 7.4617
1 25 1 -14.8178 -4.3844
1 25 3 -3.9109 -9.3593
1 25 5 -21.5812 6.4733
1 25 7 -30.4876 -0.3937
1 25 9 -6.3376 3.7710
1 25 11 -6.4402 5.4556
1 25 13 17.9317 3.8686
1 25 15 2.1068 8.0873
1 25 17 -6.9758 -1.4021
1 25 19 20.7263 0.0448
1 25 21 -7.4595 -10.7408
1 25 23 -17.0426 -5.0509
1 25 25 5.0605 -4.5748
1 27 1 -30.8903 -4.1570
1 27 3 0.9750 7.5762
1 27 5 -18.8199 3.1356
1 27 7 10.8933 0.8473
1 27 9 11.9935 5.4365
1 27 11 -0.4129 0.6709
1 27 13 14.7803 2.7765
1 27 15 -23.6872 -11.5028
1 27 17 4.2416 -7.4778
1 27 19 -7.6490 0.0013
1 27 21 -24.8687 -4.1803
1 27 23 5.1376 8.3674
1 27 25 -22.1596 4.9019
1 27 27 9.9248 -2.4130
1 29 1 -9.8308 -2.8718
1 29 3 -4.1326 10.8595
1 29 5 -15.7822 -2.9720
1 29 7 22.0198 -4.9826
1 29 9 6.2457 1.4643
1 29 11 7.3513 0.7318
1 29 13 -17.9190 -10.3324
1 29 15 -3.4179 -8.6863
1 29 17 -3.0852 15.4581
1 29 19 -15.7693 8.6200
1 29 21 -3.6555 0.0227
1 29 23 -2.4413 1.2407
1 29 25 6.9558 0.4445
1 29 27 0.5572 -4.9234
1 29 29 0.3286 11.8630
1 31 1 -22.4358 -3.4070
1 31 3 6.4669 -3.5317
1 31 5 -8.0914 -4.4914
1 31 7 27.7400 7.7867
1 31 9 2.3315 5.0739
1 31 11 0.0432 -7.4117
1 31 13 14.7975 -5.5586
1 31 15 -1.3921 14.2327
1 31 17 -10.2073 12.0256
1 31 19 -8.8058 -14.4609
1 31 21 -8.3497 -9.5729
1 31 23 2.0699 3.4816
1 31 25 -3.7088 6.5922
1 31 27 0.5827 -5.3995
1 31 29 5.5505 3.2789
1 31 31 3.3087 -21.5595
1 33 1 15.2914 1.9912
1 33 3 -7.8922 -8.2340
1 33 5 9.1436 3.3461
1 33 7 13.5382 2.0584
1 33 9 -7.9928 -1.7020
1 33 11 -0.7374 -5.3038
1 33 13 -15.1056 7.9784
1 33 15 -6.6773 6.8981
1 33 17 -11.2897 -13.0698
1 33 19 -11.2202 -11.0194
1 33 21 8.9370 7.8098
1 33 23 -1.9101 7.2540
1 33 25 -0.0934 -8.3163
1 33 27 9.4695 -14.6525
1 33 29 3.8930 9.0754
1 33 31 0.6954 -6.3249
1 33 33 -2.4821 21.3209
1 35 3 -22.8701 4.1776
1 35 5 2.3851 0.8670
1 35 7 -3.2045 -8.2462
1 35 9 -2.0984 -4.7139
1 35 11 -5.9083 0.8725
1 35 13 -3.7447 6.4668
1 35 15 2.4626 -6.2606
1 35 17 -5.7512 -7.4192
1 35 19 4.8550 3.9357
1 35 21 12.2214 3.9294
1 35 23 7.0304 -2.3751
1 35 25 4.9662 -3.0359
1 35 27 -0.9560 10.5018
1 35 29 0.4247 2.9413
1 35 31 -5.9263 4.5934
1 37 5 8.9002 -2.0190
1 37 7 1.9016 6.2840
1 37 9 1.3938 -6.5515
1 37 11 2.0501 2.7978
1 37 13 -12.4990 -1.1602
1 37 15 -5.4596 -5.1992
1 37 17 4.9346 4.4044
1 37 19 -8.1070 1.5230
1 37 21 5.0414 -2.0070
1 37 23 3.2761 5.2412
1 37 25 -1.8238 -2.1633
1 37 27 2.8187 1.3109
1 37 29 -1.1396 -0.9063
1 39 3 -10.0984 -5.3543
1 39 5 13.4906 -2.5624
1 39 7 3.1859 -2.8836
1 39 9 -14.1914 -3.9958
1 39 11 -12.2936 2.7618
1 39 13 -3.8086 1.6359
1 39 15 -5.2148 5.3417
1 39 17 1.2528 1.1055
1 39 19 1.6319 -0.7071
1 39 21 5.1741 2.5696
1 39 23 2.3808 -5.4491
1 39 25 3.1767 4.0234
1 41 1 -4.3899 -0.9728
1 41 3 -5.0861 -5.5806
1 41 5 -8.0369 1.0675
1 41 7 -12.0200 -3.5467
1 41 9 -2.7658 1.0325
1 41 11 11.0561 0.7673
1 41 13 6.3483 2.5778
1 41 15 4.2338 1.8609
1 41 17 -7.8763 2.7085
1 41 19 7.0687 -1.0488
1 41 21 -7.7145 0.4652
1 43 1 7.0438 -1.1845
1 43 3 -1.1952 5.2552
1 43 5 -9.5944 3.5868
1 43 7 -7.6490 1.0726
1 43 9 -10.1645 2.1916
1 43 11 6.2119 3.2629
1 43 13 1.8878 0.7647
1 43 15 12.4198 -5.4248
1 43 17 -2.8761 -0.5545
1 43 19 -14.7583 -2.0666
1 45 1 -4.7036 -5.6636
1 45 3 1.6112 4.2881
1 45 5 2.2307 1.6281
1 45 7 2.1444 -3.3404
1 45 9 -2.7660 5.1470
1 45 11 -4.5994 -5.1997
1 45 13 7.0813 6.3591
2 2 2 -408.6906 1.9045
2 4 2 106.8138 -4.0752
2 4 4 -51.1761 -0.7030
2 6 2 121.0070 -4.0531
2 6 4 -96.6344 -13.3216
2 6 6 76.7624 3.3657
2 8 2 -43.4739 -13.1913
2 8 4 -163.6258 -3.2187
2 8 6 50.2838 3.6849
2 8 8 12.0661 -7.6671
2 10 2 26.8593 1.7634
2 10 4 29.1472 14.6866
2 10 6 -14.8076 1.8074
2 10 8 1.8170 3.5862
2 10 10 65.0029 8.3050
2 12 2 -1.0128 -7.6826
2 12 4 25.9711 4.7692
2 12 6 66.2992 17.1632
2 12 8 -10.5377 -2.8094
2 12 10 9.6427 -1.1146
2 12 12 24.7038 -6.3417
2 14 2 49.5376 -4.3635
2 14 4 25.7059 0.6778
2 14 6 8.8941 2.7233
2 14 8 -23.8859 3.7085
2 14 10 5.3815 -0.7635
2 14 12 -40.9393 20.7180
2 14 14 21.6281 3.9663
2 16 2 -6.5378 22.6421
2 16 4 27.5391 0.1741
2 16 6 -1.6479 -1.2060
2 16 8 23.2366 0.0774
2 16 10 -14.3822 -16.3520
2 16 12 -11.5870 5.3694
2 16 14 -7.6982 -27.2468
2 16 16 -13.3655 -3.8101
2 18 2 21.6257 1.8162
2 18 4 15.3557 -2.3812
2 18 6 20.1005 2.2509
2 18 8 -2.9551 -5.2309
2 18 10 -12.3866 -3.1915
2 18 12 -21.3262 21.3042
2 18 14 19.0163 -3.1382
2 18 16 9.5737 31.1220
2 18 18 12.0612 3.9714
2 20 2 -14.4984 -6.2601
2 20 4 -7.2501 -2.7211
2 20 6 -29.3024 -0.4907
2 20 8 -25.8912 0.9442
2 20 10 10.6127 8.1498
2 20 12 8.2835 -0.7241
2 20 14 16.7310 -10.7154
2 20 16 12.0525 2.6933
2 20 18 3.3605 -21.8884
2 20 20 26.0936 -4.8626
2 22 2 -6.8817 1.6606
2 22 4 -23.5370 -25.2453
2 22 6 -37.7165 -2.7192
2 22 8 12.4871 -11.4040
2 22 10 -6.2278 3.0982
2 22 12 12.8587 -5.0425
2 22 14 4.0027 0.3290
2 22 16 12.1969 4.8279
2 22 18 3.1647 -2.4245
2 22 20 -4.2638 8.0479
2 22 22 21.5320 8.9280
2 24 2 21.2624 -6.9442
2 24 4 -28.1969 3.3235
2 24 6 1.8314 5.7964
2 24 8 -7.1078 -1.1295
2 24 10 4.5713 7.3385
2 24 12 -11.5911 -1.3403
2 24 14 1.1519 4.7942
2 24 16 9.7691 1.7033
2 24 18 -8.6126 2.9164
2 24 20 3.2703 -5.4965
2 24 22 -20.0704 1.5668
2 24 24 27.2954 -6.1719
2 26 2 -21.4245 -1.8772
2 26 4 -9.7191 27.6590
2 26 6 -6.0658 -3.2797
2 26 8 10.0602 3.1559
2 26 10 -4.3950 3.1916
2 26 12 0.5152 -0.5620
2 26 14 18.7284 0.2886
2 26 16 -13.2593 -5.8897
2 26 18 2.0013 -5.8741
2 26 20 -10.7103 -6.1224
2 26 22 -4.1552 6.8201
2 26 24 -2.4971 0.4588
2 26 26 -3.1411 5.4420
2 28 2 13.2395 -6.3180
2 28 4 11.6551 2.9529
2 28 6 9.0223 -1.3698
2 28 8 -4.3605 -3.3096
2 28 10 5.7351 -1.0373
2 28 12 10.8224 1.3223
2 28 14 -6.6263 -6.1715
2 28 16 6.5682 2.0802
2 28 18 -7.4943 6.2283
2 28 20 -3.3001 1.6689
2 28 22 -3.5877 7.6379
2 28 24 -5.3558 -3.2191
2 28 26 5.5784 -6.5554
2 28 28 19.4305 -4.6882
2 30 2 -31.0569 1.9431
2 30 4 -0.6506 -1.8156
2 30 6 -4.8771 1.2509
2 30 8 -4.1107 -0.5215
2 30 10 19.4995 0.5872
2 30 12 -5.9484 -1.4406
2 30 14 -18.9837 -0.2802
2 30 16 -4.6118 5.8287
2 30 18 2.4740 -1.8791
2 30 20 -1.4191 -5.3640
2 30 22 -5.6680 -0.3284
2 30 24 7.2553 -0.8543
2 30 26 9.7559 -0.6424
2 30 28 12.2193 15.2919
2 30 30 15.4838 1.7283
2 32 2 5.6185 22.5232
2 32 4 6.4228 -0.9538
2 32 6 8.8424 -4.5999
2 32 8 7.0597 -0.4442
2 32 10 -3.1283 -4.7091
2 32 12 9.9535 0.0030
2 32 14 -8.5897 -0.0201
2 32 16 33.3415 0.9583
2 32 18 3.6794 -6.8310
2 32 20 14.0285 1.1997
2 32 22 8.4430 3.7045
2 32 24 -3.7036 0.7307
2 32 26 5.0418 -6.6455
2 32 28 -12.5297 0.5551
2 32 30 4.2336 -17.6640
2 32 32 13.3743 -2.3662
2 34 2 20.1532 -0.5891
2 34 4 -2.9181 -0.3915
2 34 6 23.9079 -1.2578
2 34 8 -12.7670 -3.4917
2 34 10 21.7792 -3.0615
2 34 12 -6.6365 2.1951
2 34 14 -20.1247 1.6082
2 34 16 -6.1607 2.7063
2 34 18 -20.6976 -0.3526
2 34 20 8.0881 3.5177
2 34 22 6.3500 -1.4505
2 34 24 3.4913 -7.9446
2 34 26 11.3279 -1.7418
2 34 28 -4.3439 13.1815
2 34 30 12.4787 -4.0361
2 34 32 8.2766 26.1667
2 36 2 -10.8796 -5.8318
2 36 4 2.8047 -1.6402
2 36 6 0.8466 0.6960
2 36 8 13.5066 2.9544
2 36 10 3.4359 2.8823
2 36 12 3.3280 0.6166
2 36 14 4.8689 -1.3118
2 36 16 -6.5682 -1.8340
2 36 18 -3.2309 1.4092
2 36 20 8.1235 -1.5641
2 36 22 -2.9603 -2.3955
2 36 24 -0.0952 2.0968
2 36 26 0.1076 5.1300
2 36 28 -15.5113 0.9881
2 36 30 -0.5614 1.8636
2 38 2 18.4911 0.7064
2 38 4 0.9855 -17.8930
2 38 6 -0.7376 -1.0275
2 38 8 -6.9905 -4.4802
2 38 10 -7.1483 2.3510
2 38 12 -0.4180 0.8520
2 38 14 -4.6067 0.7533
2 38 16 1.0152 -3.2151
2 38 18 12.1829 -1.9299
2 38 20 8.1248 -0.1608
2 38 22 4.5116 3.9214
2 38 24 -1.2598 -0.3031
2 38 26 5.4589 5.7374
2 38 28 -4.6737 -5.9736
2 40 2 1.1889 -7.2600
2 40 4 14.0580 1.1137
2 40 6 -6.2758 -1.3387
2 40 8 18.0614 -0.1370
2 40 10 -2.7677 2.0647
2 40 12 -13.1911 2.0991
2 40 14 8.0224 0.1570
2 40 16 -5.0668 1.3597
2 40 18 -0.5145 2.0921
2 40 20 0.4703 -0.9841
2 40 22 4.5833 4.0624
2 40 24 -11.0442 1.7358
2 42 2 9.2561 -1.0753
2 42 4 -8.6722 13.0114
2 42 6 27.6409 1.3064
2 42 8 0.7208 3.9503
2 42 10 -16.5138 1.4175
2 42 12 12.9211 1.5384
2 42 14 -30.0101 -0.1077
2 42 16 -0.4860 2.2628
2 42 18 2.4924 -3.8946
2 42 20 -6.9537 4.2487
2 44 2 -6.8151 -9.6861
2 44 4 -20.9274 -1.0207
2 44 6 4.2984 2.4924
2 44 8 -10.3887 -2.8042
2 44 10 -3.0430 1.5199
2 44 12 9.8217 -0.6864
2 44 14 -14.3593 3.8082
2 44 16 29.4799 2.1395
2 46 2 -27.7403 3.1059
2 46 4 -2.7263 7.0674
2 46 6 9.1458 -3.4711
2 46 8 12.0692 -6.3090
2 46 10 22.8885 0.0169
3 3 3 -513.0361 -5.7935
3 5 3 43.4447 -2.7515
3 5 5 -59.7649 2.7344
3 7 3 148.2195 -6.5865
3 7 5 -40.7138 5.5363
3 7 7 -66.4082 11.8558
3 9 3 -88.7867 11.3399
3 9 5 99.6207 4.6694
3 9 7 -37.8028 -10.0437
3 9 9 129.8558 -8.8385
3 11 3 98.6492 13.0983
3 11 5 -9.4290 5.6885
3 11 7 -15.5954 5.4828
3 11 9 4.9512 -0.6819
3 11 11 -17.4528 -3.4004
3 13 3 15.9095 16.0817
3 13 5 28.6394 17.1148
3 13 7 38.1446 -5.1146
3 13 9 5.0734 2.9661
3 13 11 -19.4498 3.8349
3 13 13 -25.2244 23.3000
3 15 3 64.9796 17.4078
3 15 5 15.2354 -13.8678
3 15 7 22.4237 2.0382
3 15 9 8.3199 -11.3962
3 15 11 -17.9583 -0.8502
3 15 13 -13.7533 -11.7449
3 15 15 -35.2898 -31.6430
3 17 3 8.3257 -22.9749
3 17 5 -30.6037 -14.4666
3 17 7 -11.6760 -1.3585
3 17 9 -33.6273 -1.2301
3 17 11 -22.9268 15.6858
3 17 13 12.7981 -4.1458
3 17 15 -20.3239 22.0676
3 17 17 21.7961 31.1979
3 19 3 -24.8278 -23.3940
3 19 5 -21.3748 12.5730
3 19 7 -32.9961 3.1882
3 19 9 -11.8496 5.0299
3 19 11 -3.5505 5.6481
3 19 13 0.7794 -10.0870
3 19 15 0.8225 6.6928
3 19 17 11.6115 -18.6126
3 19 19 -8.3482 -20.7309
3 21 3 22.4307 -6.0786
3 21 5 -18.0886 -10.7894
3 21 7 -11.8878 -3.1621
3 21 9 -10.6460 -3.3712
3 21 11 3.1553 2.5829
3 21 13 12.8224 3.2146
3 21 15 -14.4355 1.0078
3 21 17 -5.4274 -6.1048
3 21 19 -4.0475 7.8612
3 21 21 -24.0020 4.7134
3 23 3 -39.3811 -5.5961
3 23 5 0.3267 11.2394
3 23 7 -15.0470 -3.0938
3 23 9 -23.9550 9.1508
3 23 11 30.0348 8.0424
3 23 13 0.0248 -2.4428
3 23 15 15.9032 -0.7648
3 23 17 10.7743 0.7080
3 23 19 -13.6345 2.3011
3 23 21 -7.6201 3.1803
3 23 23 -31.5521 1.3536
3 25 3 36.2285 5.0700
3 25 5 5.0590 10.3834
3 25 7 -15.2136 -2.4591
3 25 9 7.6006 3.4030
3 25 11 5.1885 -7.3140
3 25 13 -0.2940 -5.6042
3 25 15 8.8125 -0.6219
3 25 17 1.5807 0.2811
3 25 19 -6.3852 -3.2362
3 25 21 -2.1786 1.0328
3 25 23 -3.4653 -3.9083
3 25 25 3.5875 -0.8279
3 27 3 -20.2949 8.5004
3 27 5 -9.7968 -10.1006
3 27 7 20.1025 -1.9062
3 27 9 -11.1497 -2.8261
3 27 11 6.9523 -3.6179
3 27 13 4.5125 5.5689
3 27 15 4.6963 -0.0823
3 27 17 -0.0958 -2.0612
3 27 19 -0.0607 0.0108
3 27 21 3.7700 5.3503
3 27 23 -4.6236 2.9019
3 27 25 3.5979 -0.7774
3 27 27 0.2645 -8.5786
3 29 3 -22.0967 20.7624
3 29 5 10.8278 11.4716
3 29 7 -8.1712 -1.5302
3 29 9 9.8748 1.0212
3 29 11 12.2189 2.9710
3 29 13 17.9308 0.3102
3 29 15 17.8389 -3.1350
3 29 17 -18.6892 -0.1132
3 29 19 -0.1250 1.4781
3 29 21 -15.7889 4.0842
3 29 23 2.1810 -5.2839
3 29 25 12.1678 -2.8942
3 29 27 -3.2333 8.0128
3 29 29 11.4090 16.9195
3 31 3 3.8671 19.9264
3 31 5 6.5996 -15.3198
3 31 7 -6.9631 -1.3001
3 31 9 -2.0792 0.8612
3 31 11 -14.9860 -1.5747
3 31 13 4.8268 -8.1297
3 31 15 -8.4950 -4.8835
3 31 17 -2.4873 5.3180
3 31 19 -0.2920 2.9811
3 31 21 -3.9620 0.1603
3 31 23 8.0020 -5.2992
3 31 25 -0.3290 3.2396
3 31 27 -1.1140 3.9676
3 31 29 -4.8234 -14.2503
3 31 31 7.3270 -22.8496
3 33 3 7.4276 -17.4837
3 33 5 -9.1316 -12.7606
3 33 7 -9.3836 -0.9230
3 33 9 30.0571 -1.3368
3 33 11 -2.5544 0.8233
3 33 13 4.4590 -3.9445
3 33 15 3.9991 11.9486
3 33 17 -4.4015 4.9755
3 33 19 -3.6968 -4.9967
3 33 21 4.4029 -2.4358
3 33 23 -5.1376 0.9710
3 33 25 0.8714 -0.9904
3 33 27 -3.0474 0.7164
3 33 29 2.9952 -3.5411
3 33 31 -4.3564 13.0683
3 35 3 13.9677 -19.8453
3 35 5 0.6881 10.6520
3 35 7 -4.4161 -2.9315
3 35 9 6.9687 4.1170
3 35 11 -12.8416 3.4510
3 35 13 3.2027 3.6561
3 35 15 -1.4140 6.0388
3 35 17 -2.1891 -6.5988
3 35 19 1.2493 -5.3349
3 35 21 -6.2255 -1.7189
3 35 23 9.2185 1.7542
3 35 25 -1.3868 0.8048
3 35 27 4.0096 2.8502
3 35 29 0.5455 -1.6152
3 35 31 3.7612 7.5410
3 37 3 17.9835 -7.9091
3 37 5 -3.3462 -6.4674
3 37 7 2.1543 1.0583
3 37 9 -12.2816 0.1475
3 37 11 -5.8272 -0.1310
3 37 13 -7.3075 1.6286
3 37 15 -5.6457 -5.6650
3 37 17 0.9893 -5.4068
3 37 19 -11.9314 -0.1669
3 37 21 -1.3316 3.0999
3 37 23 2.9622 2.0121
3 37 25 -0.5461 1.4626
3 37 27 5.3171 2.6580
3 37 29 -8.5723 -3.1921
3 39 3 -5.3147 -3.3842
3 39 5 0.6857 7.1981
3 39 7 0.3883 1.1628
3 39 9 3.7729 0.2071
3 39 11 0.5021 2.5058
3 39 13 3.0138 -3.6494
3 39 15 13.0057 -1.7775
3 39 17 10.5357 3.1813
3 39 19 15.6195 0.5834
3 39 21 -5.8043 2.9667
3 39 23 10.9822 3.2538
3 39 25 4.7366 -2.9467
3 41 3 1.4159 4.5680
3 41 5 -2.7425 3.9370
3 41 7 3.6039 2.9388
3 41 9 -6.5202 0.3331
3 41 11 1.8084 -0.3844
3 41 13 4.2999 -0.7989
3 41 15 8.2452 4.7606
3 41 17 17.6253 3.1853
3 41 19 -1.4269 -3.6612
3 41 21 4.8332 6.4657
3 41 23 6.4844 -11.6422
3 43 3 7.1952 0.8419
3 43 5 -24.3192 -3.6770
3 43 7 7.2572 -1.8212
3 43 9 2.0442 -2.5101
3 43 11 -17.3368 -2.3362
3 43 13 0.5361 1.4542
3 43 15 -2.4078 1.7730
3 43 17 0.9335 -3.8409
3 43 19 23.5606 -2.4321
3 45 3 6.2352 16.0187
3 45 5 -3.5263 8.6018
3 45 7 2.3068 -5.1248
3 45 9 -2.1544 3.9073
3 45 11 -2.3660 2.8457
3 45 13 7.9455 7.3974
4 4 4 440.6077 -0.4723
4 6 4 -6.6433 3.8030
4 6 6 -182.5651 8.6578
4 8 4 198.1490 5.6851
4 8 6 -26.3216 -1.5664
4 8 8 59.9581 -17.0961
4 10 4 80.1303 9.3295
4 10 6 -16.0149 -8.6231
4 10 8 35.0182 3.0531
4 10 10 -46.6703 12.2836
4 12 4 -16.9016 -4.7254
4 12 6 39.2759 2.4712
4 12 8 23.8274 1.2406
4 12 10 -20.3103 1.2446
4 12 12 -2.0051 1.4096
4 14 4 -29.4713 -3.8075
4 14 6 15.0461 -6.8624
4 14 8 10.3329 4.4164
4 14 10 -5.6441 -14.2038
4 14 12 -1.0760 -2.9546
4 14 14 -25.8965 -10.9855
4 16 4 -47.7238 -14.3624
4 16 6 -22.7269 -0.6736
4 16 8 -18.3688 -11.5260
4 16 10 -20.1845 10.2302
4 16 12 6.1244 18.9186
4 16 14 -20.4721 5.2094
4 16 16 -0.2100 18.7534
4 18 4 -53.9979 -5.3002
4 18 6 -0.7726 9.8523
4 18 8 -24.1453 5.1871
4 18 10 -9.5147 12.7705
4 18 12 -4.0597 -4.2814
4 18 14 -17.3571 -15.0747
4 18 16 3.8777 -8.0015
4 18 18 -5.6850 -10.5984
4 20 4 -8.6702 -0.4047
4 20 6 -2.9916 -3.2084
4 20 8 -13.6464 -1.8484
4 20 10 -23.4709 -3.8775
4 20 12 -12.2829 -2.7073
4 20 14 -22.0844 4.1519
4 20 16 -5.8794 7.8530
4 20 18 -3.1161 4.7173
4 20 20 3.8780 2.8487
4 22 4 3.6984 0.8449
4 22 6 -11.8909 9.8978
4 22 8 4.2986 -0.9621
4 22 10 -3.0464 16.1784
4 22 12 14.1976 0.8998
4 22 14 -13.9149 5.1475
4 22 16 8.0850 -0.9967
4 22 18 5.4875 -8.6365
4 22 20 14.4767 -1.0065
4 22 22 1.1699 7.0342
4 24 4 -25.3132 12.7230
4 24 6 25.0225 -1.8965
4 24 8 -0.8191 6.9577
4 24 10 20.3658 -2.1310
4 24 12 -12.2678 -16.4188
4 24 14 -12.5158 -3.3530
4 24 16 -19.9421 -6.2322
4 24 18 -18.2032 2.5676
4 24 20 10.2308 3.6935
4 24 22 -21.3491 -1.0404
4 24 24 -8.8385 -4.4545
4 26 4 16.8969 6.6432
4 26 6 -13.6476 -9.6432
4 26 8 3.8118 -0.1397
4 26 10 6.5691 -11.7720
4 26 12 6.0023 0.3053
4 26 14 15.7004 0.6334
4 26 16 3.0539 -0.0688
4 26 18 -6.0571 3.8562
4 26 20 -5.5714 1.8540
4 26 22 -10.8396 1.6414
4 26 24 -1.8425 1.5240
4 26 26 -8.9974 2.4471
4 28 4 -12.2219 3.7438
4 28 6 12.2554 6.1512
4 28 8 5.8340 2.4563
4 28 10 30.5188 3.3921
4 28 12 -14.3603 3.4693
4 28 14 4.0389 -2.4032
4 28 16 -9.9799 5.9853
4 28 18 -8.7193 -0.2882
4 28 20 -2.9325 0.7962
4 28 22 -3.1128 1.2374
4 28 24 -8.3815 -3.7461
4 28 26 -18.6169 1.0351
4 28 28 -2.2846 4.5479
4 30 4 27.7714 -5.7173
4 30 6 -3.2441 -11.1342
4 30 8 10.1327 2.0339
4 30 10 -1.2695 -7.3853
4 30 12 -5.4576 -2.9988
4 30 14 -0.6892 6.4202
4 30 16 -15.2423 0.8515
4 30 18 -2.3248 -5.3906
4 30 20 -6.5773 2.4518
4 30 22 0.1130 -3.1461
4 30 24 -5.9485 -1.2936
4 30 26 3.0791 -0.7743
4 30 28 1.5379 -4.2566
4 30 30 8.0515 -8.9419
4 32 4 -0.7704 -15.7581
4 32 6 21.0145 0.9035
4 32 8 2.2508 -8.0706
4 32 10 -10.0902 0.6800
4 32 12 2.1057 3.9650
4 32 14 -13.3471 1.7017
4 32 16 2.0768 -1.3931
4 32 18 9.2184 -0.7681
4 32 20 -2.8194 4.3327
4 32 22 16.0409 -1.0137
4 32 24 -3.9674 -0.2275
4 32 26 15.7668 -0.3856
4 32 28 4.6112 8.5506
4 32 30 -25.4787 4.3503
4 32 32 2.4694 10.1871
4 34 4 24.2258 -5.4432
4 34 6 4.1055 5.7053
4 34 8 -10.8538 1.2194
4 34 10 6.4757 9.4255
4 34 12 -9.2656 0.5025
4 34 14 -1.7962 -1.4466
4 34 16 -10.9852 -1.1586
4 34 18 -7.7077 -2.1324
4 34 20 -10.2145 -2.0557
4 34 22 10.8121 1.8937
4 34 24 -1.0794 1.8342
4 34 26 27.2844 2.4931
4 34 28 2.8961 -2.1612
4 34 30 13.1152 -1.8006
4 34 32 -13.6208 -7.1392
4 36 4 10.5089 1.9052
4 36 6 0.9897 -6.0589
4 36 8 0.4631 4.0860
4 36 10 -19.1849 -2.2698
4 36 12 -9.1825 -3.0130
4 36 14 -14.2226 0.2327
4 36 16 8.0419 0.4834
4 36 18 -8.2307 -0.0483
4 36 20 7.1098 2.4997
4 36 22 -12.6610 0.8297
4 36 24 4.4108 -6.2810
4 36 26 1.8098 0.4089
4 36 28 1.0089 -2.4802
4 36 30 -2.2975 -0.0605
4 38 4 2.3302 6.5739
4 38 6 -0.1627 7.8871
4 38 8 -16.0355 -0.2043
4 38 10 -4.9536 5.3710
4 38 12 -5.9857 0.1121
4 38 14 -3.4892 -2.6560
4 38 16 -0.5614 0.2049
4 38 18 -1.8360 -1.1203
4 38 20 -3.1302 1.0206
4 38 22 0.3530 -0.9013
4 38 24 -20.8002 2.4745
4 38 26 5.6269 -4.1549
4 38 28 12.6560 1.4770
4 40 4 -1.4982 10.5569
4 40 6 -9.3281 -0.2168
4 40 8 -9.6038 2.8235
4 40 10 -16.3246 1.7194
4 40 12 -3.8894 -5.2125
4 40 14 -19.2755 0.9962
4 40 16 -4.9995 -2.7081
4 40 18 0.3076 -0.0244
4 40 20 5.9604 -1.8527
4 40 22 -15.3456 2.0482
4 40 24 5.3840 -5.2213
4 42 4 -1.6872 1.6827
4 42 6 -5.7083 -7.8367
4 42 8 -8.8008 -3.5205
4 42 10 1.7396 -5.0924
4 42 12 19.8770 -1.8500
4 42 14 12.9846 0.9037
4 42 16 0.0541 2.2543
4 42 18 3.1213 1.7788
4 42 20 -27.6895 2.9370
4 44 4 7.8851 2.0224
4 44 6 -24.9251 2.5518
4 44 8 -12.0828 2.6267
4 44 10 19.9091 3.9395
4 44 12 -0.1804 -0.2317
4 44 14 6.7448 -2.0359
4 44 16 1.7675 -5.8000
4 46 4 18.0595 -1.9295
4 46 6 -5.0815 -12.1214
4 46 8 -2.4804 -2.5057
4 46 10 3.8286 -0.8398
5 5 5 -139.4724 -5.8954
5 7 5 -62.0552 7.9427
5 7 7 136.2905 -4.8512
5 9 5 -24.8543 -12.2830
5 9 7 53.6845 -6.8337
5 9 9 -10.3767 9.2707
5 11 5 -43.4881 -19.2450
5 11 7 22.9557 -1.1479
5 11 9 9.7937 6.1724
5 11 11 10.6933 -11.9278
5 13 5 18.7243 -0.7457
5 13 7 42.4597 -5.0508
5 13 9 -19.8353 2.8499
5 13 11 24.3660 -4.8486
5 13 13 -36.7419 -0.7979
5 15 5 8.7435 -1.7327
5 15 7 -39.2086 7.3072
5 15 9 -42.2434 -7.8280
5 15 11 -12.2909 15.7781
5 15 13 -21.2333 11.2275
5 15 15 19.4778 4.3995
5 17 5 32.2415 8.0405
5 17 7 -0.6568 6.7683
5 17 9 -24.2637 1.1377
5 17 11 15.0303 10.1870
5 17 13 -10.7457 -7.9453
5 17 15 -8.6587 -7.4008
5 17 17 -1.4144 -7.2271
5 19 5 33.4113 5.7672
5 19 7 -37.7397 -2.1997
5 19 9 -38.2445 -4.3446
5 19 11 -11.8380 -5.1842
5 19 13 -25.8627 -6.1634
5 19 15 19.7459 6.0899
5 19 17 -3.8284 9.5979
5 19 19 18.0690 0.7058
5 21 5 -8.5331 12.3170
5 21 7 -28.1734 4.3788
5 21 9 0.5431 3.2992
5 21 11 -11.7262 1.7019
5 21 13 20.0059 0.2276
5 21 15 24.1502 7.0322
5 21 17 -7.1221 -9.5584
5 21 19 -1.0152 -7.9414
5 21 21 -16.4982 6.7302
5 23 5 -10.7224 17.0724
5 23 7 3.8068 -6.5808
5 23 9 -0.1164 7.6228
5 23 11 1.4648 -14.3025
5 23 13 6.7258 -2.6560
5 23 15 19.0580 -3.3787
5 23 17 4.1540 -5.3803
5 23 19 -6.5369 7.2153
5 23 21 -5.7582 8.3865
5 23 23 6.6265 -6.5689
5 25 5 -7.3984 -10.9223
5 25 7 -5.6380 -3.1329
5 25 9 10.9681 -2.5857
5 25 11 -11.2757 -5.7243
5 25 13 14.7289 3.3273
5 25 15 1.4789 -2.1585
5 25 17 -13.7659 5.0052
5 25 19 7.6473 4.1110
5 25 21 -11.1463 -2.5117
5 25 23 -11.8221 -8.9841
5 25 25 -11.9449 5.3619
5 27 5 -21.3883 -10.4022
5 27 7 13.4056 5.9328
5 27 9 -2.2293 -1.2624
5 27 11 9.1921 3.7607
5 27 13 27.4330 -0.4159
5 27 15 5.3770 3.3217
5 27 17 17.8790 0.7172
5 27 19 -5.2340 -0.1503
5 27 21 -2.0236 0.1231
5 27 23 0.9921 -0.1855
5 27 25 -4.3304 4.6158
5 27 27 12.3920 -1.6449
5 29 5 -23.9595 -9.5634
5 29 7 2.3497 -5.1883
5 29 9 -3.1202 0.6618
5 29 11 -4.0949 -6.3070
5 29 13 -18.9260 2.9233
5 29 15 -8.5029 4.7738
5 29 17 4.5009 -4.6480
5 29 19 -12.0447 0.4771
5 29 21 3.6517 0.9924
5 29 23 2.0826 -1.4643
5 29 25 16.1242 -2.5012
5 29 27 2.7022 -4.2429
5 29 29 8.6693 -1.0302
5 31 5 -19.7557 -10.1698
5 31 7 3.4194 6.3061
5 31 9 2.1746 -2.4607
5 31 11 -7.2563 6.9160
5 31 13 5.3016 4.2649
5 31 15 -5.9152 -4.5487
5 31 17 -1.4899 -1.0515
5 31 19 -9.7796 3.2973
5 31 21 -8.5397 0.6131
5 31 23 5.4815 1.4314
5 31 25 -4.2896 -1.5690
5 31 27 5.2671 5.0663
5 31 29 8.4905 7.6067
5 31 31 12.5147 1.0330
5 33 5 -10.8660 6.1702
5 33 7 12.6597 2.9318
5 33 9 -5.5931 3.5195
5 33 11 15.9374 6.7853
5 33 13 -12.8600 -5.3298
5 33 15 -3.3781 -3.1812
5 33 17 7.6878 1.4097
5 33 19 -12.1849 0.1815
5 33 21 3.7462 -1.4153
5 33 23 5.5425 1.1303
5 33 25 -9.4860 2.6658
5 33 27 3.2591 5.2331
5 33 29 -1.2996 -4.7836
5 33 31 -6.1551 -4.2092
5 33 33 -0.5557 -5.8717
5 35 5 0.4993 6.8395
5 35 7 -4.8198 -3.4486
5 35 9 -3.8994 0.4201
5 35 11 7.6923 -6.1763
5 35 13 -19.5510 -2.5239
5 35 15 10.2275 1.9854
5 35 17 7.1516 1.4818
5 35 19 4.0638 2.0637
5 35 21 15.3113 0.0259
5 35 23 3.7142 -1.2830
5 35 25 -1.3568 -0.3933
5 35 27 6.9628 -5.0545
5 35 29 8.2631 -1.3844
5 35 31 4.2357 -2.3569
5 37 5 -0.9613 13.2443
5 37 7 8.6341 4.3477
5 37 9 -10.6163 0.9567
5 37 11 7.3967 1.2221
5 37 13 -5.7497 3.1275
5 37 15 -8.5046 1.1479
5 37 17 3.6050 -0.2743
5 37 19 -5.5696 -0.3554
5 37 21 4.2596 -4.6476
5 37 23 -1.7464 -3.0882
5 37 25 2.8059 3.2892
5 37 27 -0.7674 -4.0802
5 37 29 -10.3749 7.1502
5 39 5 -1.8390 10.5643
5 39 7 -11.0843 -4.3383
5 39 9 5.0026 1.9668
5 39 11 2.0149 -3.5480
5 39 13 -10.8123 -4.4670
5 39 15 -0.6599 -1.7179
5 39 17 -5.6302 -3.3535
5 39 19 12.8766 1.7447
5 39 21 3.5538 0.7935
5 39 23 2.9579 0.6131
5 39 25 4.0401 -7.0642
5 41 5 -2.1716 -13.8938
5 41 7 -6.0233 -5.8652
5 41 9 9.4241 -4.1010
5 41 11 -1.6700 -6.7722
5 41 13 7.9553 0.4597
5 41 15 4.5334 1.8569
5 41 17 0.6921 4.2870
5 41 19 11.5348 0.9855
5 41 21 5.6915 -3.1584
5 41 23 2.6224 -11.9488
5 43 5 4.6508 -7.2324
5 43 7 3.5171 3.6092
5 43 9 -2.7879 1.9952
5 43 11 -5.8078 4.5159
5 43 13 -2.4830 0.4634
5 43 15 14.7210 5.0801
5 43 17 -16.7178 4.2032
5 43 19 3.9091 -2.6777
5 45 5 40.1226 -4.6989
5 45 7 1.0640 -5.2577
5 45 9 2.3529 -0.0248
5 45 11 4.1919 -1.4180
5 45 13 7.8084 -2.7862
6 6 6 12.6776 0.3670
6 8 6 89.3311 -36.1740
6 8 8 28.3072 -10.2218
6 10 6 -24.6365 1.4355
6 10 8 10.7767 0.1713
6 10 10 61.2927 8.3887
6 12 6 131.0919 -4.0305
6 12 8 -23.1123 2.4492
6 12 10 19.5060 -1.0388
6 12 12 -28.8458 5.9875
6 14 6 4.7801 1.0959
6 14 8 -70.2243 20.5945
6 14 10 8.6564 -2.1438
6 14 12 -58.9123 6.8859
6 14 14 16.3791 -6.4804
6 16 6 -10.5472 24.1604
6 16 8 -27.5303 -6.3442
6 16 10 -16.8782 -0.2528
6 16 12 -15.1591 -0.4898
6 16 14 19.7104 2.2949
6 16 16 29.7216 2.9836
6 18 6 10.4275 2.3651
6 18 8 -13.6505 -17.6969
6 18 10 -6.0613 4.2091
6 18 12 -41.4551 -1.9502
6 18 14 -26.4147 -1.9165
6 18 16 -3.1694 0.3623
6 18 18 -3.4941 -2.0832
6 20 6 -54.4192 1.4862
6 20 8 -0.8444 1.0490
6 20 10 -1.0302 1.2921
6 20 12 2.0186 -3.1253
6 20 14 32.0459 -3.5936
6 20 16 2.6440 -0.5374
6 20 18 13.3350 -5.0013
6 20 20 -25.0476 3.5374
6 22 6 -1.2479 1.0360
6 22 8 23.5286 -11.4556
6 22 10 8.5823 -3.3706
6 22 12 21.0779 -6.0319
6 22 14 2.4449 4.2987
6 22 16 -10.2175 2.2956
6 22 18 13.2888 0.7260
6 22 20 -26.8336 9.8398
6 22 22 7.4825 -1.1535
6 24 6 -33.8145 -20.7284
6 24 8 -7.2443 4.2088
6 24 10 6.1827 -2.2436
6 24 12 -22.6032 4.9909
6 24 14 0.2033 6.0928
6 24 16 -3.7601 -0.1558
6 24 18 -0.8167 -1.2075
6 24 20 15.9005 -5.2871
6 24 22 -10.4917 -13.3793
6 24 24 17.5604 -2.2680
6 26 6 -1.8720 -4.6683
6 26 8 17.8933 11.2705
6 26 10 -6.7717 -1.6391
6 26 12 25.1133 -1.9288
6 26 14 -15.8299 1.3115
6 26 16 -7.2324 -3.7958
6 26 18 5.4936 -2.0143
6 26 20 -26.3229 0.4939
6 26 22 -18.9910 0.5151
6 26 24 3.8184 12.2363
6 26 26 -11.3058 0.7462
6 28 6 18.0373 -3.6710
6 28 8 5.6893 -3.7885
6 28 10 4.1684 -4.1398
6 28 12 -1.1496 -2.4361
6 28 14 -2.6268 -0.0058
6 28 16 -4.6042 -0.8650
6 28 18 -13.9128 6.8134
6 28 20 8.1401 1.2061
6 28 22 11.5458 -0.6065
6 28 24 -5.2475 -1.8155
6 28 26 22.0044 -6.4602
6 28 28 -4.2439 0.5122
6 30 6 8.3854 2.6218
6 30 8 -12.6596 16.9971
6 30 10 -12.0504 1.4413
6 30 12 2.6719 2.7403
6 30 14 -10.7200 -1.7419
6 30 16 -9.9439 6.8258
6 30 18 10.2318 0.8612
6 30 20 -4.2641 -4.5559
6 30 22 -1.3114 -0.0595
6 30 24 0.1160 2.7014
6 30 26 -9.7529 2.2730
6 30 28 9.1154 2.0064
6 30 30 -20.8419 -3.0595
6 32 6 23.5645 25.3671
6 32 8 3.5176 -1.5609
6 32 10 1.8307 2.1028
6 32 12 9.3857 -0.2557
6 32 14 -11.5296 1.1212
6 32 16 -7.9376 0.1832
6 32 18 -6.9934 -5.6872
6 32 20 -3.5819 1.9193
6 32 22 6.9867 4.5010
6 32 24 -4.2899 0.2661
6 32 26 9.4020 -2.7553
6 32 28 5.1050 1.2511
6 32 30 8.9810 1.7437
6 34 6 0.5183 4.2661
6 34 8 -16.7537 -11.5037
6 34 10 -7.6646 -2.0797
6 34 12 -18.7236 -4.6126
6 34 14 -5.1531 0.9507
6 34 16 2.0415 -5.3310
6 34 18 -9.1966 1.6626
6 34 20 19.2669 3.0443
6 34 22 -1.9748 -1.2048
6 34 24 9.0410 1.2660
6 34 26 -9.6595 1.5143
6 34 28 -9.5543 -1.4788
6 34 30 -18.6070 0.0909
6 34 32 -1.9829 -7.1089
6 36 6 4.0512 1.4590
6 36 8 -3.2476 4.4152
6 36 10 -1.2535 -0.5402
6 36 12 14.4556 2.6680
6 36 14 -5.4851 -0.5865
6 36 16 17.0703 0.3923
6 36 18 5.2932 3.2859
6 36 20 10.6504 -3.0676
6 36 22 6.7723 -1.6370
6 36 24 -18.7351 -0.4145
6 36 26 -4.0457 -1.1333
6 36 28 5.1640 -1.5509
6 36 30 8.1119 2.0335
6 38 6 17.6780 -6.3504
6 38 8 -9.4561 -9.9986
6 38 10 -5.2097 -1.0847
6 38 12 -11.3921 -0.2923
6 38 14 13.6972 -1.6278
6 38 16 3.5124 3.3161
6 38 18 -4.8358 -0.8063
6 38 20 13.0758 -1.8011
6 38 22 14.2901 0.7330
6 38 24 6.4595 -3.7782
6 38 26 -12.3011 -2.8722
6 40 6 -15.5496 -21.2706
6 40 8 -19.8575 -2.6313
6 40 10 -3.8158 -3.2909
6 40 12 4.1866 -1.6055
6 40 14 4.6177 4.5388
6 40 16 -16.3393 -0.1841
6 40 18 7.4080 2.4259
6 40 20 4.5133 -0.9770
6 40 22 2.0708 -8.2198
6 40 24 -14.7343 5.9743
6 42 6 19.9284 0.9671
6 42 8 0.1255 7.2924
6 42 10 16.8263 2.2582
6 42 12 4.9080 7.0985
6 42 14 11.7048 2.2865
6 42 16 4.9621 1.5089
6 42 18 5.4631 0.3647
6 42 20 -2.4251 -9.7880
6 44 6 -9.7775 -1.8144
6 44 8 -6.8448 0.6590
6 44 10 0.9779 2.7443
6 44 12 -21.2789 -3.0271
6 44 14 -7.2699 -2.1053
6 44 16 -4.7278 1.1205
6 46 6 12.7368 3.5422
6 46 8 9.8529 8.2394
7 7 7 64.2412 11.5305
7 9 7 -9.2217 37.3029
7 9 9 -1.9242 31.7152
7 11 7 71.0225 2.0048
7 11 9 -12.0861 6.8935
7 11 11 21.6127 -14.8975
7 13 7 -57.5105 7.3380
7 13 9 -16.1425 15.0025
7 13 11 -65.0494 1.1987
7 13 13 -48.8377 1.9713
7 15 7 -33.5645 5.2757
7 15 9 2.8679 -17.6964
7 15 11 -40.0388 4.2511
7 15 13 18.6693 -10.5826
7 15 15 7.7648 0.0070
7 17 7 -10.8804 -13.4979
7 17 9 -15.9008 -13.2882
7 17 11 -7.9512 1.4378
7 17 13 -22.3343 1.3860
7 17 15 8.3137 6.1191
7 17 17 -23.6403 1.8213
7 19 7 -59.1515 -4.9775
7 19 9 23.4638 9.7744
7 19 11 -7.5359 -0.5783
7 19 13 39.8145 0.9738
7 19 15 17.9623 0.8503
7 19 17 1.6272 -6.9335
7 19 19 16.6446 -4.8770
7 21 7 -2.1062 -11.4133
7 21 9 12.2658 -8.7940
7 21 11 22.6321 -5.1880
7 21 13 30.1891 -1.7469
7 21 15 -17.0273 2.3919
7 21 17 12.3138 0.2986
7 21 19 -17.2705 6.1833
7 21 21 -34.5119 9.1312
7 23 7 9.7387 -14.5777
7 23 9 3.6578 12.3948
7 23 11 -1.8282 -3.0784
7 23 13 -10.6809 7.5638
7 23 15 2.2582 3.5717
7 23 17 -7.0222 -6.5699
7 23 19 0.1243 -3.0038
7 23 21 -4.7132 -10.7833
7 23 23 -7.0888 -10.0154
7 25 7 10.5841 11.6021
7 25 9 -6.8017 11.7516
7 25 11 -0.7046 1.2065
7 25 13 20.5989 1.5383
7 25 15 0.2017 -3.7636
7 25 17 -6.5799 -6.9665
7 25 19 -18.0987 -1.4268
7 25 21 -11.7531 4.2779
7 25 23 9.7992 8.9527
7 25 25 -1.7668 9.0847
7 27 7 30.2526 7.4304
7 27 9 -22.2518 -10.5581
7 27 11 6.9004 -3.0984
7 27 13 -11.0097 0.8051
7 27 15 -22.8052 -1.1332
7 27 17 2.0566 4.1834
7 27 19 -22.1313 5.7766
7 27 21 17.7052 -1.6352
7 27 23 -11.8380 -1.1932
7 27 25 11.7166 -7.2873
7 27 27 27.1163 -7.6260
7 29 7 5.5374 10.3164
7 29 9 6.6338 7.9996
7 29 11 -10.3344 5.3520
7 29 13 -9.4143 1.4345
7 29 15 4.7416 0.9034
7 29 17 -14.5719 1.8910
7 29 19 2.3558 -4.9011
7 29 21 -3.1461 -1.8645
7 29 23 12.9057 1.0166
7 29 25 12.2576 2.9261
7 29 27 4.2833 6.3376
7 29 29 17.4612 3.7898
7 31 7 20.6764 14.6980
7 31 9 -4.1738 -10.2081
7 31 11 7.9790 1.2089
7 31 13 -14.8628 0.5641
7 31 15 4.0718 1.2733
7 31 17 13.2926 -1.3138
7 31 19 -13.7283 1.3352
7 31 21 11.2736 2.4063
7 31 23 9.2655 4.3564
7 31 25 4.1420 -2.5218
7 31 27 15.8781 -0.7397
7 31 29 6.6758 -2.5966
7 31 31 14.4961 0.1567
7 33 7 -15.3159 -10.8684
7 33 9 -3.0350 -10.1835
7 33 11 -6.3352 -6.2038
7 33 13 -9.4463 -0.7946
7 33 15 16.7606 -0.4368
7 33 17 -7.2637 0.8606
7 33 19 13.4462 3.9745
7 33 21 5.7385 -2.6152
7 33 23 8.1204 -1.2435
7 33 25 1.6245 -2.2869
7 33 27 0.8837 0.8831
7 33 29 10.7350 1.1945
7 33 31 11.7379 2.1313
7 33 33 -10.6180 -2.9733
7 35 7 -7.7269 -4.6369
7 35 9 5.1538 4.4687
7 35 11 -2.3035 0.2790
7 35 13 -6.6112 2.3719
7 35 15 -6.7728 -1.3432
7 35 17 15.0662 1.0064
7 35 19 -2.1354 -0.7955
7 35 21 -2.3498 -1.4928
7 35 23 10.5771 -0.2880
7 35 25 7.1658 2.6362
7 35 27 -6.9735 -1.5286
7 35 29 1.0304 0.1747
7 35 31 -5.1329 0.2089
7 37 7 -4.4081 -10.1431
7 37 9 -2.7274 -6.5236
7 37 11 1.9371 1.4418
7 37 13 -8.8785 -1.8004
7 37 15 -1.2582 0.4864
7 37 17 8.7198 3.2503
7 37 19 -5.8324 -1.8320
7 37 21 7.6866 -1.2966
7 37 23 -4.6421 -1.6210
7 37 25 6.9892 -2.9812
7 37 27 -1.1147 2.6411
7 39 7 -0.2930 -11.6170
7 39 9 0.1255 7.6253
7 39 11 -8.8766 -1.9589
7 39 13 7.3430 5.0719
7 39 15 21.3444 0.1937
7 39 17 17.5338 -3.6450
7 39 19 -9.3574 0.4955
7 39 21 -14.7888 0.6858
7 39 23 12.9298 -2.2276
7 39 25 16.9046 10.7678
7 41 7 5.5846 13.9403
7 41 9 -5.3298 7.3688
7 41 11 -5.4028 4.7401
7 41 13 1.9929 3.8510
7 41 15 -3.5308 -1.3403
7 41 17 -12.3770 -0.1677
7 41 19 -9.5427 -3.6808
7 41 21 6.1722 -4.0045
7 43 7 -8.0245 8.4475
7 43 9 4.9401 -1.7464
7 43 11 8.7123 1.3096
7 43 13 5.7006 -4.7022
7 43 15 3.6450 3.8573
7 43 17 3.8538 -0.6520
7 45 7 -0.6141 4.0432
7 45 9 6.3875 2.2662
7 45 11 0.8110 1.6212
7 45 13 0.1073 -1.2578
8 8 8 12.3275 -31.2748
8 10 8 8.3402 -15.1740
8 10 10 -41.0146 -28.4665
8 12 8 -32.2151 -5.9661
8 12 10 -17.9172 1.3231
8 12 12 -100.5996 16.1558
8 14 8 -12.8451 -2.2654
8 14 10 -10.6538 -15.8176
8 14 12 -21.5456 4.0080
8 14 14 40.1757 -23.2392
8 16 8 2.1738 -10.0367
8 16 10 -20.0899 0.2985
8 16 12 0.1980 -5.4147
8 16 14 -14.7584 4.5878
8 16 16 1.6778 13.6600
8 18 8 -2.4148 -3.3369
8 18 10 12.3712 17.2356
8 18 12 4.1732 3.5420
8 18 14 14.2660 7.1314
8 18 16 2.1392 -2.2087
8 18 18 5.3472 -18.4839
8 20 8 7.1577 -5.7153
8 20 10 -17.9701 -4.1963
8 20 12 29.2138 -4.2760
8 20 14 7.0671 -3.3281
8 20 16 1.5902 -5.9363
8 20 18 3.4509 -0.0346
8 20 20 -28.8639 16.1529
8 22 8 -14.1981 2.1538
8 22 10 5.0864 7.5145
8 22 12 5.8702 0.7383
8 22 14 -18.3949 3.1303
8 22 16 -11.2631 -1.0730
8 22 18 -5.7832 -0.9093
8 22 20 -11.9033 0.3100
8 22 22 -5.5961 -18.0481
8 24 8 3.9477 24.1135
8 24 10 14.8643 0.9581
8 24 12 -6.5768 5.7409
8 24 14 -12.2581 -1.2510
8 24 16 -21.8789 -4.9868
8 24 18 -1.4361 -1.5166
8 24 20 6.6782 -1.2889
8 24 22 -10.8598 0.5655
8 24 24 9.1610 14.3538
8 26 8 24.8972 3.1660
8 26 10 -4.5097 -10.1550
8 26 12 -0.9108 0.2540
8 26 14 -8.7988 -1.8889
8 26 16 1.9210 1.0600
8 26 18 -9.4858 6.3922
8 26 20 -0.2602 -0.3140
8 26 22 6.0324 -1.0447
8 26 24 -3.0088 0.2656
8 26 26 17.5182 -15.2188
8 28 8 -20.1494 0.0592
8 28 10 1.7102 5.1962
8 28 12 -7.2503 3.7936
8 28 14 3.1453 1.0543
8 28 16 -2.6850 -3.1215
8 28 18 12.8872 -0.4536
8 28 20 14.4158 -4.7204
8 28 22 -0.2770 2.6213
8 28 24 9.4387 1.5118
8 28 26 -6.6604 -0.0348
8 28 28 -16.2951 14.8301
8 30 8 20.7921 -2.6144
8 30 10 -4.9147 -7.8511
8 30 12 4.6673 -0.6497
8 30 14 -3.5346 -4.5083
8 30 16 -10.7695 0.0120
8 30 18 20.5170 6.6998
8 30 20 7.4998 2.9302
8 30 22 8.5593 1.7824
8 30 24 4.3430 0.7744
8 30 26 2.0649 0.9738
8 30 28 2.7129 -1.1694
8 30 30 -0.7548 -11.1492
8 32 8 -11.8467 -16.8588
8 32 10 -7.8123 -3.6907
8 32 12 -0.2935 -1.3280
8 32 14 -23.1052 -0.9503
8 32 16 6.0660 8.1923
8 32 18 1.4693 2.4753
8 32 20 10.2139 -4.9153
8 32 22 10.7038 -1.5437
8 32 24 0.5259 -3.1865
8 32 26 16.6584 -3.0695
8 32 28 -20.1505 -8.4158
8 32 30 -1.7319 2.8202
8 32 32 0.4542 10.0370
8 34 8 -4.1231 -3.5474
8 34 10 -4.1225 5.3292
8 34 12 5.3170 3.0796
8 34 14 12.5720 5.5945
8 34 16 5.1677 -0.6913
8 34 18 1.0505 -6.5129
8 34 20 -4.9184 -1.2177
8 34 22 6.5353 0.5216
8 34 24 -12.5245 -0.6314
8 34 26 -2.8403 4.2908
8 34 28 -1.4612 3.5540
8 34 30 -8.9173 1.2400
8 34 32 14.3182 3.1316
8 36 8 -11.0185 -3.0004
8 36 10 -21.6829 0.4200
8 36 12 3.8214 -0.5345
8 36 14 -31.5496 -2.5229
8 36 16 2.6429 -2.3664
8 36 18 -10.5319 -0.3205
8 36 20 2.4429 -0.6187
8 36 22 7.1814 1.1100
8 36 24 -5.9433 2.4909
8 36 26 8.5936 -1.2985
8 36 28 -7.0004 5.3150
8 38 8 -13.6520 5.1521
8 38 10 1.7685 6.6718
8 38 12 7.5753 0.9224
8 38 14 4.8546 2.1561
8 38 16 0.6279 -1.1225
8 38 18 0.9458 -1.4717
8 38 20 5.5571 0.1929
8 38 22 1.5955 -0.2240
8 38 24 -38.2271 -1.0177
8 38 26 4.1707 9.7865
8 40 8 10.9991 18.8076
8 40 10 -27.5931 -0.2056
8 40 12 6.2537 5.4577
8 40 14 5.1021 -1.8622
8 40 16 -0.5730 -1.3592
8 40 18 23.3852 0.0897
8 40 20 -5.2204 4.1164
8 40 22 -22.9852 1.7087
8 40 24 8.3367 19.8400
8 42 8 -21.9957 1.2434
8 42 10 -5.2129 -6.1679
8 42 12 -23.8599 -4.9303
8 42 14 5.7640 1.4536
8 42 16 8.4610 0.7989
8 42 18 -3.0985 -6.5070
8 42 20 13.1616 4.5814
8 44 8 7.6551 -3.5590
8 44 10 10.0387 0.9790
8 44 12 10.0806 2.3487
8 44 14 19.3449 1.7685
8 46 8 -6.2664 -5.8414
9 9 9 -21.2266 26.0946
9 11 9 -70.2602 -3.9313
9 11 11 -39.9586 12.1793
9 13 9 3.8137 2.1306
9 13 11 -11.4268 -3.5413
9 13 13 -5.5270 -6.1962
9 15 9 -15.9303 -11.3144
9 15 11 -9.3056 9.5721
9 15 13 10.4519 -15.6807
9 15 15 14.3115 14.5834
9 17 9 -1.7910 12.4234
9 17 11 -8.4223 13.4862
9 17 13 4.6947 -4.2139
9 17 15 8.4305 6.0944
9 17 17 -0.3724 -8.7063
9 19 9 3.3520 12.5374
9 19 11 15.7129 -8.8700
9 19 13 16.2180 -6.3987
9 19 15 -19.9849 1.2693
9 19 17 -6.1867 -11.4338
9 19 19 -14.2330 9.6452
9 21 9 -18.1876 12.2047
9 21 11 -0.9248 3.2126
9 21 13 -12.4390 2.4544
9 21 15 5.4774 5.7234
9 21 17 2.5650 -1.6973
9 21 19 -3.3994 4.4185
9 21 21 3.1916 -7.1882
9 23 9 23.2805 17.9073
9 23 11 7.9974 -4.1151
9 23 13 -3.1257 2.9879
9 23 15 0.7427 -8.1751
9 23 17 -30.8718 -6.6672
9 23 19 0.3192 1.6669
9 23 21 -4.2346 -7.8431
9 23 23 -7.0933 7.3666
9 25 9 -0.8113 -12.6981
9 25 11 -3.6571 -4.9661
9 25 13 -10.3080 -1.7122
9 25 15 -13.1410 -4.4995
9 25 17 -5.2598 6.6188
9 25 19 -0.2983 3.4388
9 25 21 -1.2881 -0.5947
9 25 23 23.1129 11.0837
9 25 25 7.5594 -7.0189
9 27 9 2.8361 -8.1617
9 27 11 -6.8650 9.0018
9 27 13 -2.2857 1.7828
9 27 15 16.7044 0.2537
9 27 17 -11.3565 3.4492
9 27 19 7.5113 -3.5077
9 27 21 3.0163 -0.8747
9 27 23 -6.7394 0.7680
9 27 25 7.5268 -7.1122
9 27 27 4.6608 6.2213
9 29 9 17.9799 -13.8346
9 29 11 -17.5303 -5.4812
9 29 13 14.0701 0.9566
9 29 15 -2.2335 -0.7727
9 29 17 0.6913 1.4389
9 29 19 7.6497 1.2632
9 29 21 -1.8641 3.8255
9 29 23 2.1485 -0.2723
9 29 25 -0.2626 -1.0076
9 29 27 1.2460 5.9418
9 29 29 -12.5366 -7.6073
9 31 9 0.1519 -16.3178
9 31 11 -5.4371 4.9496
9 31 13 22.2382 1.0124
9 31 15 -5.5483 3.5006
9 31 17 13.6857 5.2887
9 31 19 7.3280 -2.1462
9 31 21 6.1079 -1.3613
9 31 23 6.1251 -5.7510
9 31 25 -0.9500 -4.9226
9 31 27 10.8073 -3.5622
9 31 29 1.2942 -6.4853
9 31 31 0.3150 9.5267
9 33 9 2.8737 11.7815
9 33 11 -5.3717 6.1803
9 33 13 15.7161 0.9620
9 33 15 5.5554 3.5367
9 33 17 5.1191 -5.7922
9 33 19 -10.1050 -2.9672
9 33 21 -11.5187 -0.1235
9 33 23 -1.4654 -3.4667
9 33 25 4.5743 3.0332
9 33 27 -6.9918 6.3279
9 33 29 11.3338 2.3921
9 33 31 -1.0019 3.7819
9 35 9 -11.2326 9.4171
9 35 11 -0.3560 -3.7770
9 35 13 8.4362 -2.7831
9 35 15 2.7761 -2.5545
9 35 17 8.6409 -2.6470
9 35 19 0.9907 2.7363
9 35 21 4.5284 1.3785
9 35 23 0.3730 3.7703
9 35 25 -3.5135 4.0178
9 35 27 -2.9960 -0.0881
9 35 29 2.3844 -0.1900
9 37 9 4.9138 8.0820
9 37 11 -1.5205 3.7625
9 37 13 1.5679 -0.0670
9 37 15 4.2375 0.3728
9 37 17 12.8932 -1.8570
9 37 19 -11.0362 0.1149
9 37 21 -2.0723 1.8488
9 37 23 10.7921 -2.9699
9 37 25 6.1471 1.4866
9 37 27 -2.8887 1.7011
9 39 9 8.8394 11.2406
9 39 11 10.5814 -4.1595
9 39 13 1.6850 1.4116
9 39 15 6.2005 -2.5878
9 39 17 -0.3570 -3.8463
9 39 19 -14.3161 2.0341
9 39 21 11.4237 2.5113
9 39 23 5.5999 -0.1407
9 39 25 0.6880 5.5734
9 41 11 0.7068 -7.3249
9 41 13 -11.2341 -4.5568
9 41 15 12.3626 0.2458
9 41 17 -3.2550 0.9628
9 41 19 6.2375 -0.1697
9 41 21 11.6844 12.0635
9 43 9 3.8767 -7.9408
9 43 11 1.4565 3.3374
9 43 13 8.6407 4.5721
9 43 15 1.5206 -5.0903
9 43 17 -4.6687 -1.1088
9 45 9 -1.5333 -7.0475
9 45 11 8.9427 3.8745
10 12 10 3.5730 0.4737
10 12 12 9.3493 8.4217
10 14 10 -19.8027 -1.9406
10 14 12 -0.1591 -3.0098
10 14 14 -6.8973 -0.8964
10 16 10 25.4735 20.1217
10 16 12 21.4508 -6.9816
10 16 14 7.4003 7.5088
10 16 16 27.2899 2.7009
10 18 10 10.0134 7.0010
10 18 12 2.2981 -16.0667
10 18 14 -5.2638 5.5378
10 18 16 -6.8146 -12.0291
10 18 18 -25.6317 -1.9158
10 20 10 -4.2462 3.3313
10 20 12 5.7810 0.4347
10 20 14 7.0159 7.5455
10 20 16 -1.9992 -2.6999
10 20 18 0.5947 5.8616
10 20 20 12.9034 5.1695
10 22 10 8.4125 -2.2104
10 22 12 2.1841 -5.8019
10 22 14 1.9219 -1.2840
10 22 16 -2.3880 -15.6120
10 22 18 6.1997 1.6305
10 22 20 -0.4699 0.1287
10 22 22 14.1995 -10.1608
10 24 10 1.0285 -21.8167
10 24 12 -2.6103 3.1117
10 24 14 -2.1897 -7.3686
10 24 16 -18.3171 0.3228
10 24 18 6.2257 11.8877
10 24 20 10.4471 3.1932
10 24 22 11.4666 4.2351
10 24 24 -0.8545 9.5186
10 26 10 -9.9221 -5.5442
10 26 12 2.5665 11.9622
10 26 14 3.8322 1.2973
10 26 16 10.2982 8.2431
10 26 18 30.0465 2.2263
10 26 20 -0.3407 -4.3813
10 26 22 -15.7586 -3.5364
10 26 24 9.0278 -7.3457
10 26 26 -20.3312 -5.7367
10 28 10 -12.7078 -0.4611
10 28 12 -2.9006 -5.4112
10 28 14 1.8856 -1.8658
10 28 16 -16.1144 1.0507
10 28 18 -1.0247 -0.0243
10 28 20 4.5431 -0.4031
10 28 22 6.6383 -0.1720
10 28 24 12.4970 -0.1046
10 28 26 9.1332 4.8636
10 28 28 13.3048 4.1119
10 30 10 -17.3465 4.3521
10 30 12 -2.9350 9.6852
10 30 14 -8.1360 -0.0265
10 30 16 -2.9564 -1.5126
10 30 18 -4.5490 2.0652
10 30 20 6.9047 -0.2989
10 30 22 -12.9671 -0.0924
10 30 24 4.9987 -6.3218
10 30 26 -12.2856 -0.3201
10 30 28 -6.4092 -4.9930
10 30 30 -9.5134 -0.6680
10 32 10 2.1908 17.7195
10 32 12 -3.3836 0.9964
10 32 14 4.8478 2.0249
10 32 16 0.5791 -1.6625
10 32 18 -0.4990 -5.4980
10 32 20 0.9975 -0.9831
10 32 22 4.8753 -6.4023
10 32 24 -9.9400 1.1341
10 32 26 3.1400 8.8182
10 32 28 6.1160 -0.4412
10 32 30 0.0799 8.4271
10 32 32 -11.7852 0.4675
10 34 10 -1.6170 2.3861
10 34 12 -1.4280 -8.5238
10 34 14 -6.3421 -2.1586
10 34 16 2.9006 -1.8872
10 34 18 14.7414 1.5471
10 34 20 -8.3441 4.5091
10 34 22 -0.2538 1.0947
10 34 24 1.8661 4.8932
10 34 26 16.4789 2.4727
10 34 28 -5.8886 -6.6104
10 34 30 0.8155 5.4675
10 36 10 -2.5019 -1.9767
10 36 12 -5.8358 3.0579
10 36 14 5.8599 0.1646
10 36 16 10.4502 -0.6457
10 36 18 -1.5959 0.7419
10 36 20 -3.2408 0.1219
10 36 22 0.4365 2.3266
10 36 24 -24.4991 -1.1105
10 36 26 10.3135 -2.4017
10 36 28 10.3194 1.9280
10 38 10 2.8384 -2.6255
10 38 12 -1.1485 -7.1199
10 38 14 -0.0490 0.6729
10 38 16 -10.1837 -3.9587
10 38 18 25.3236 -0.7800
10 38 20 -11.4133 -0.1578
10 38 22 -11.0303 -2.9754
10 38 24 0.9962 4.2055
10 38 26 0.3535 -10.6231
10 40 10 -4.5328 -14.6425
10 40 12 11.3400 -2.3270
10 40 14 8.5780 -2.6900
10 40 16 -1.1983 -0.4190
10 40 18 -1.1875 4.0246
10 40 20 -15.9220 2.7541
10 40 22 4.5683 8.0301
10 42 10 30.7456 -3.8359
10 42 12 1.3814 6.3390
10 42 14 -19.5875 1.2803
10 42 16 12.3598 -0.9222
10 42 18 -13.6803 0.0467
10 44 10 7.8826 -0.1179
10 44 12 -11.1523 0.0148
10 44 14 16.0040 1.3712
11 11 11 35.4182 -6.2767
11 13 11 -19.6374 6.8919
11 13 13 -33.5720 -8.7745
11 15 11 -4.2683 5.6524
11 15 13 10.8229 3.0714
11 15 15 49.0437 2.3863
11 17 11 -3.2228 -8.8448
11 17 13 -8.1921 -4.0241
11 17 15 15.1747 -8.4475
11 17 17 -25.7898 -7.6029
11 19 11 -19.5441 -12.2705
11 19 13 -3.7806 7.4943
11 19 15 -7.6664 -1.5222
11 19 17 -6.8511 6.9414
11 19 19 -20.4790 2.7324
11 21 11 0.2544 -10.2708
11 21 13 6.7692 -4.0196
11 21 15 -5.4747 -1.4867
11 21 17 -4.2372 -1.7223
11 21 19 -19.0008 2.1497
11 21 21 -11.6283 -10.0700
11 23 11 -4.1274 -10.1350
11 23 13 -16.1571 5.8333
11 23 15 -6.2257 -3.4712
11 23 17 1.8210 10.0851
11 23 19 4.5025 6.2324
11 23 21 2.3727 -4.3802
11 23 23 24.4256 9.7189
11 25 11 -13.5942 10.7620
11 25 13 5.4465 7.6870
11 25 15 -12.1854 3.0306
11 25 17 -12.8598 5.5156
11 25 19 -8.8122 -1.9970
11 25 21 5.4069 -7.6736
11 25 23 16.7586 0.7824
11 25 25 -4.6602 -7.3955
11 27 11 2.1400 10.8352
11 27 13 -16.2878 -7.8241
11 27 15 6.9555 -3.9408
11 27 17 8.1598 0.9422
11 27 19 12.2339 -2.7597
11 27 21 20.8624 -3.1564
11 27 23 7.4677 3.4501
11 27 25 7.1412 1.2525
11 27 27 9.3250 6.3613
11 29 11 -8.8724 6.0481
11 29 13 -5.5020 3.9357
11 29 15 5.9995 0.2704
11 29 17 -4.9029 4.0983
11 29 19 9.8694 -1.3047
11 29 21 20.8256 -0.2402
11 29 23 4.7161 -0.1147
11 29 25 5.4817 -2.2041
11 29 27 -4.9045 -0.5766
11 29 29 0.1150 -5.6063
11 31 11 2.0845 7.7981
11 31 13 -2.1268 -5.0451
11 31 15 1.1912 0.5633
11 31 17 6.2478 -5.0936
11 31 19 2.9541 -4.1821
11 31 21 8.2301 2.7641
11 31 23 5.6726 -4.0405
11 31 25 5.6275 5.6096
11 31 27 1.9762 -2.7955
11 31 29 -9.1244 4.8960
11 31 31 7.7079 5.9099
11 33 11 -11.3833 -8.5694
11 33 13 0.3640 -5.0101
11 33 15 0.9070 -3.0118
11 33 17 4.9081 -3.8423
11 33 19 6.1932 4.1107
11 33 21 12.1521 1.8702
11 33 23 0.1818 1.9266
11 33 25 -1.4672 2.1091
11 33 27 -5.6468 -1.3420
11 33 29 0.2792 0.8660
11 33 31 2.0314 2.7955
11 35 11 9.9157 -6.8165
11 35 13 8.2937 3.3016
11 35 15 5.3217 -1.1292
11 35 17 5.2103 3.7850
11 35 19 20.8207 2.9757
11 35 21 6.3543 -3.1867
11 35 23 11.0154 1.7904
11 35 25 -5.4218 -0.4928
11 35 27 -12.7397 -0.2080
11 35 29 -9.6128 8.5638
11 37 11 25.0149 -5.3169
11 37 13 -5.1013 -5.1867
11 37 15 13.5315 1.4735
11 37 17 -8.5986 -1.0404
11 37 19 -4.2971 -0.5918
11 37 21 6.9257 0.7859
11 37 23 5.0795 -0.7020
11 37 25 -2.0919 0.5198
11 37 27 -2.9465 -4.2939
11 39 11 -13.1902 -5.0769
11 39 13 10.9452 4.3084
11 39 15 -4.1858 0.2952
11 39 17 -1.0087 0.1093
11 39 19 9.7916 -1.2844
11 39 21 1.9928 0.1882
11 39 23 -2.1013 2.0812
11 41 11 -2.7727 6.1813
11 41 13 2.0073 3.8651
11 41 15 8.2945 -0.7276
11 41 17 -2.1750 4.0185
11 41 19 3.2542 2.0960
11 41 21 1.9353 4.3166
11 43 11 -3.0852 4.1895
11 43 13 10.1406 -2.5027
11 43 15 -34.8159 -1.3082
12 12 12 -72.7282 -0.0358
12 14 12 6.7366 -2.6989
12 14 14 36.7772 1.7653
12 16 12 3.4183 -18.5238
12 16 14 -9.1451 -4.8221
12 16 16 -23.3206 5.6702
12 18 12 -5.2774 -11.0947
12 18 14 31.9645 8.0259
12 18 16 -0.7831 6.6414
12 18 18 -4.1636 -3.7214
12 20 12 29.9282 5.5048
12 20 14 -11.8560 -1.7979
12 20 16 -1.1823 -1.7933
12 20 18 4.2471 -3.7842
12 20 20 -11.2782 8.0871
12 22 12 -11.8767 3.2317
12 22 14 -12.1967 11.9441
12 22 16 -1.6078 -3.4886
12 22 18 -12.8276 4.0027
12 22 20 -0.6987 -2.2248
12 22 22 18.8853 -2.2425
12 24 12 6.7380 16.9771
12 24 14 15.3253 3.2568
12 24 16 -1.4744 -0.1735
12 24 18 9.0384 -0.1216
12 24 20 1.1138 -4.8078
12 24 22 -2.3350 1.3648
12 24 24 3.0730 1.7738
12 26 12 16.9154 3.9568
12 26 14 -9.1576 -11.6435
12 26 16 14.5559 -0.9467
12 26 18 -1.2801 -1.6102
12 26 20 11.3237 -2.7771
12 26 22 19.2113 3.2788
12 26 24 7.8239 -1.8228
12 26 26 6.6569 -2.0109
12 28 12 -29.4886 -0.1586
12 28 14 17.1173 -1.1291
12 28 16 5.4025 3.8206
12 28 18 -2.2679 0.4138
12 28 20 3.4808 -1.0178
12 28 22 -25.1919 1.4285
12 28 24 8.2859 -2.9070
12 28 26 9.3235 -0.4194
12 28 28 -1.3547 2.8560
12 30 12 40.2299 -3.1266
12 30 14 9.5585 -6.4828
12 30 16 36.3930 0.6032
12 30 18 -1.1878 -4.2228
12 30 20 -0.2338 1.7496
12 30 22 -6.6149 0.8945
12 30 24 -12.9029 0.6687
12 30 26 -0.5780 2.3792
12 30 28 18.9497 -0.5380
12 30 30 -2.0085 -1.2860
12 32 12 -15.5315 -17.3464
12 32 14 13.0668 1.2072
12 32 16 7.7981 -1.5045
12 32 18 8.1605 0.0520
12 32 20 10.3249 3.4517
12 32 22 -23.5992 -2.5795
12 32 24 1.5734 -1.9763
12 32 26 12.8343 -0.8749
12 32 28 -10.9130 5.2719
12 32 30 16.8063 -3.1300
12 32 32 -6.6869 10.7259
12 34 12 14.8718 -1.3744
12 34 14 18.4592 4.2183
12 34 16 14.3061 -0.2083
12 34 18 4.4885 3.8541
12 34 20 -15.1437 -2.7039
12 34 22 -11.6734 -0.7399
12 34 24 -14.6785 0.5538
12 34 26 10.3207 3.8897
12 34 28 10.8422 1.5996
12 34 30 2.1121 7.9490
12 36 12 -6.9374 0.5313
12 36 14 -3.7441 -2.2966
12 36 16 2.3272 1.5867
12 36 18 1.1854 -0.8875
12 36 20 8.9372 -0.7139
12 36 22 -3.6612 2.7019
12 36 24 -0.0501 3.1758
12 36 26 9.7519 1.6949
12 36 28 -14.0909 7.0260
12 38 12 10.0011 2.9232
12 38 14 8.2670 7.7658
12 38 16 11.3404 0.2130
12 38 18 -1.5774 -1.0105
12 38 20 14.3699 -3.5184
12 38 22 -6.3778 0.0651
12 38 24 -6.0615 -3.2243
12 40 12 12.2014 10.1012
12 40 14 3.8103 -1.4146
12 40 16 1.1728 0.7143
12 40 18 -14.6940 2.0399
12 40 20 5.4884 -1.2649
12 40 22 -5.6172 -4.4905
12 42 12 -27.2654 3.2343
12 42 14 -1.0069 -4.3444
12 42 16 20.4242 0.4378
12 42 18 4.1322 -3.1500
12 44 12 7.2627 5.7456
13 13 13 28.6801 6.6074
13 15 13 13.3548 -12.8965
13 15 15 -7.0456 -0.8443
13 17 13 29.4841 20.0203
13 17 15 6.2458 7.0040
13 17 17 -3.4856 -3.8970
13 19 13 29.1637 17.2052
13 19 15 -16.0374 -2.0207
13 19 17 3.9840 -6.0493
13 19 19 -9.3363 9.9464
13 21 13 -30.3498 6.7151
13 21 15 -20.4714 3.7811
13 21 17 -10.5575 -2.2924
13 21 19 -15.9414 8.0634
13 21 21 29.3744 -12.0080
13 23 13 -15.7247 10.8445
13 23 15 2.8857 -8.9109
13 23 17 -4.4430 4.0578
13 23 19 2.4457 -0.9269
13 23 21 -3.1743 -7.2617
13 23 23 7.5711 11.0976
13 25 13 -57.5999 -8.8264
13 25 15 -10.1423 -8.3713
13 25 17 -6.5799 0.7885
13 25 19 -29.7425 -1.0054
13 25 21 15.1925 0.2910
13 25 23 3.7531 3.8204
13 25 25 -0.4522 -7.1878
13 27 13 -24.9251 -8.9285
13 27 15 10.9534 4.3032
13 27 17 6.5926 0.9873
13 27 19 24.1613 -1.9093
13 27 21 26.6639 0.9174
13 27 23 11.9116 -3.1619
13 27 25 4.6516 -5.7733
13 27 27 -11.3163 8.9156
13 29 13 9.9578 -9.9478
13 29 15 0.5483 -3.7022
13 29 17 16.9330 1.4358
13 29 19 14.5557 -0.5524
13 29 21 5.1121 3.5955
13 29 23 19.3016 0.7417
13 29 25 -6.0054 1.7061
13 29 27 4.5360 6.3564
13 29 29 -12.6329 -8.9216
13 31 13 -9.4688 -10.1045
13 31 15 1.5901 10.9254
13 31 17 -2.4650 -0.6662
13 31 19 7.7498 -1.6299
13 31 21 25.0692 0.2594
13 31 23 7.1489 -1.8694
13 31 25 -11.2888 -0.6428
13 31 27 -5.0801 1.4747
13 31 29 1.2545 -5.0439
13 31 31 8.2853 3.8893
13 33 13 21.5029 8.8090
13 33 15 4.1235 6.7569
13 33 17 -0.8197 -0.4068
13 33 19 26.8220 -3.5587
13 33 21 1.8815 -2.8412
13 33 23 4.3420 -0.8168
13 33 25 -14.5662 3.8715
13 33 27 -18.0212 2.5736
13 33 29 -5.7638 4.3086
13 33 31 -3.0796 9.5411
13 35 13 12.2358 6.0678
13 35 15 -4.8934 -7.0453
13 35 17 0.2334 0.2184
13 35 19 -10.6373 -1.4693
13 35 21 2.1504 0.3639
13 35 23 -9.7565 0.8641
13 35 25 -3.1888 4.7471
13 35 27 5.7032 3.2702
13 35 29 2.3073 7.5487
13 37 13 -0.2507 6.9084
13 37 15 11.0043 3.2184
13 37 17 10.4159 0.2688
13 37 19 0.1910 0.7078
13 37 21 -4.1336 -2.0191
13 37 23 -2.3351 1.4711
13 37 25 -13.7130 -4.3421
13 39 13 2.7122 6.8682
13 39 15 5.6465 -4.1130
13 39 17 6.4379 -0.0188
13 39 19 -22.9534 -3.7384
13 39 21 -7.7008 1.5788
13 39 23 -7.9684 -6.0256
13 41 13 16.8476 -2.9257
13 41 15 -10.7177 -1.5213
13 41 17 1.0741 -1.7475
13 41 19 -6.2655 -1.3417
13 43 13 3.4505 3.3041
13 43 15 -5.6907 -3.2789
14 14 14 17.8422 0.7690
14 16 14 -0.4182 21.4525
14 16 16 -4.2308 14.1755
14 18 14 0.7671 -5.9712
14 18 16 -11.4735 1.3120
14 18 18 -3.0049 -5.3021
14 20 14 -32.7210 3.0301
14 20 16 -21.8728 -3.0549
14 20 18 -27.7935 3.6268
14 20 20 -36.4823 -4.8129
14 22 14 -28.8160 -2.5264
14 22 16 -2.3126 -10.3265
14 22 18 5.2722 1.9768
14 22 20 22.6898 -11.1901
14 22 22 34.1169 6.3552
14 24 14 11.0421 -14.9267
14 24 16 19.3216 1.2712
14 24 18 17.5395 -0.1940
14 24 20 6.2886 -1.3766
14 24 22 11.7257 15.0420
14 24 24 25.6444 -4.3226
14 26 14 -14.0712 -2.8529
14 26 16 1.7034 8.9639
14 26 18 15.9487 -2.1387
14 26 20 15.3123 -4.2846
14 26 22 2.7857 3.7850
14 26 24 7.4006 -11.2293
14 26 26 0.1929 1.8676
14 28 14 4.9147 2.1705
14 28 16 -5.3917 0.8006
14 28 18 21.4370 -5.6294
14 28 20 3.1183 0.3433
14 28 22 -4.1640 3.9023
14 28 24 -2.4698 1.2212
14 28 26 -26.3519 10.0986
14 28 28 -10.2529 -2.1398
14 30 14 6.1763 4.4049
14 30 16 7.1229 12.7965
14 30 18 -15.9145 -2.2777
14 30 20 4.1991 2.5026
14 30 22 -22.4939 -2.3408
14 30 24 13.5845 -3.7953
14 30 26 -3.9913 0.4347
14 30 28 -10.2564 -4.9435
14 30 30 -23.2527 -1.1602
14 32 14 -8.4634 12.6933
14 32 16 17.7805 -1.9549
14 32 18 9.2840 -0.7755
14 32 20 -21.7789 -0.3453
14 32 22 8.1811 -4.0397
14 32 24 -19.4494 0.0980
14 32 26 -9.5607 3.1131
14 32 28 -5.8271 -1.7789
14 32 30 -0.9788 9.1179
14 32 32 8.0279 -0.3409
14 34 14 18.1513 3.9002
14 34 16 -2.0225 -10.8924
14 34 18 -19.9707 -2.5558
14 34 20 -12.7689 -1.5877
14 34 22 -10.5518 -1.9832
14 34 24 -3.0434 2.8567
14 34 26 9.5514 2.6309
14 34 28 -3.2154 6.8841
14 36 14 5.7091 0.8640
14 36 16 -11.1065 2.9553
14 36 18 1.3765 -0.9164
14 36 20 -3.5852 1.0887
14 36 22 1.7889 0.4895
14 36 24 -5.4045 2.1666
14 36 26 16.5933 3.1904
14 38 14 2.4884 -3.6007
14 38 16 -4.1203 -3.9606
14 38 18 9.8870 -1.9449
14 38 20 -1.9692 -3.3349
14 38 22 2.0286 3.2934
14 38 24 -11.3054 -0.6956
14 40 14 -18.4147 -9.1588
14 40 16 13.0387 0.8963
14 40 18 -6.6704 0.5164
14 40 20 -0.5779 0.9926
14 42 14 13.2221 0.7767
14 42 16 0.3631 -4.5217
15 15 15 -37.1364 -19.8874
15 17 15 14.7220 -19.4241
15 17 17 15.2586 -23.0662
15 19 15 20.3333 -3.2679
15 19 17 2.0059 -1.8845
15 21 15 10.6249 -11.8224
15 21 17 -19.5496 -9.1128
15 21 19 21.6426 -5.8566
15 21 21 -37.1442 -5.0670
15 23 15 -15.9122 -9.2619
15 23 17 4.6904 6.7164
15 23 19 19.4051 0.5979
15 23 21 28.0636 13.8645
15 23 23 -2.1845 5.8938
15 25 15 -10.6539 11.1299
15 25 17 20.5207 10.7727
15 25 19 -21.5162 -4.0926
15 25 21 11.6748 0.3126
15 25 23 -7.7309 -9.7838
15 25 25 0.2784 -7.7386
15 27 15 12.8659 8.2216
15 27 17 1.7397 -5.7229
15 27 19 -5.1412 -3.7238
15 27 21 6.9433 5.5531
15 27 23 -5.8983 -2.4736
15 27 25 -0.5369 9.0174
15 27 27 26.9114 7.0780
15 29 15 13.5518 8.8739
15 29 17 -1.2092 0.0796
15 29 19 -11.9605 1.7446
15 29 21 15.1208 6.2267
15 29 23 -7.4410 -4.8702
15 29 25 -13.9787 -4.2234
15 29 27 -2.0201 -5.5518
15 29 29 7.6653 -6.6944
15 31 15 0.0126 9.6825
15 31 17 7.8676 -7.3185
15 31 19 -0.9414 -2.7377
15 31 21 -7.1437 -5.0496
15 31 23 -6.7153 -4.5788
15 31 25 2.6800 3.9982
15 31 27 6.6318 4.6576
15 31 29 16.3833 -1.3268
15 31 31 -14.9451 17.9228
15 33 15 -10.0176 -8.1741
15 33 17 -0.5231 -4.8269
15 33 19 0.6829 0.1871
15 33 21 -9.8287 -3.8473
15 33 23 6.3220 1.5749
15 33 25 -16.7698 3.3988
15 33 27 1.0998 -1.2339
15 33 29 -2.3145 6.0073
15 35 15 23.1292 -5.5682
15 35 17 9.8024 2.2844
15 35 19 -13.9232 1.4733
15 35 21 -4.4484 1.8026
15 35 23 -1.6593 4.1813
15 35 25 -6.2319 2.3346
15 35 27 -8.3500 2.5620
15 37 15 9.4288 -6.3630
15 37 17 -9.1200 -4.0508
15 37 19 -1.9331 -2.4838
15 37 21 -4.2388 -0.5924
15 37 23 3.7833 1.9734
15 37 25 -6.3404 5.2214
15 39 15 -21.9619 -3.9806
15 39 17 -11.0382 6.3742
15 39 19 -10.8749 2.9559
15 39 21 5.8926 -1.1238
15 41 15 -0.4308 4.3501
15 41 17 5.2440 0.2760
16 20 18 -47.9126 -4.3064
16 20 20 20.1421 -14.2065
16 22 16 16.3883 1.0911
16 22 18 17.4214 13.3146
16 22 20 8.7498 2.2908
16 22 22 -3.5329 17.0369
16 24 16 1.5684 13.4634
16 24 18 -6.4626 4.7764
16 24 20 15.6777 -1.2695
16 24 22 17.2462 -4.3365
16 24 24 -5.4171 -10.7203
16 26 16 32.3430 3.0216
16 26 18 41.3911 -11.7537
16 26 20 22.9043 1.0512
16 26 22 19.5451 0.5057
16 26 24 6.0021 0.2844
16 26 26 -6.1420 13.4051
16 28 16 6.2600 5.1021
16 28 18 14.7714 -1.2841
16 28 20 7.9167 4.5273
16 28 22 4.5319 0.2594
16 28 24 -1.8987 -3.3370
16 28 26 -21.8869 -2.8203
16 28 28 4.3399 -12.8356
16 30 16 65.7976 -3.4088
16 30 18 5.0950 -10.8385
16 30 20 2.9946 -1.5276
16 30 22 12.2863 -7.4418
16 30 24 -3.7466 0.1161
16 30 26 0.4841 6.2666
16 30 28 -25.6607 1.1407
16 30 30 3.7846 15.6300
16 32 16 -12.6861 -16.0737
16 32 18 28.4475 -0.2228
16 32 20 -0.3223 3.5289
16 32 22 -13.3177 -0.6734
16 32 24 3.9336 8.7691
16 32 26 -18.6746 0.3370
16 32 28 1.0044 -0.0366
16 32 30 8.0744 0.7303
16 34 16 13.8214 -0.4677
16 34 18 -1.8597 8.3663
16 34 20 7.1864 1.9161
16 34 22 -3.2871 -1.2579
16 34 24 8.4549 1.7468
16 34 26 8.0254 0.4414
16 34 28 0.0229 -2.4634
16 36 16 -7.2343 -0.0967
16 36 18 -8.2811 -0.9349
16 36 20 -8.6710 -2.4952
16 36 22 -13.5422 1.8120
16 36 24 -0.6059 -3.3542
16 36 26 9.5908 2.5361
16 38 16 15.6480 4.4882
16 38 18 0.5527 5.6946
16 38 20 0.4668 3.6223
16 38 22 -2.8922 -1.6370
16 40 16 -4.7577 4.8443
16 40 18 -21.5222 -1.3645
17 21 17 17.9896 -0.9302
17 21 19 10.0052 5.2218
17 21 21 16.3335 6.8061
17 23 17 11.5334 10.6910
17 23 19 25.7635 -7.7902
17 23 21 25.3861 10.2138
17 23 23 -10.4641 -12.8522
17 25 17 6.5062 -5.6792
17 25 19 -12.8127 -12.1667
17 25 21 11.0572 2.7536
17 25 23 7.2620 -7.2498
17 25 25 -11.6665 5.5108
17 27 17 11.4190 -4.8765
17 27 19 13.3134 5.4728
17 27 21 6.3155 2.5763
17 27 23 -3.8553 -0.2941
17 27 25 -1.6997 6.9547
17 27 27 -9.7477 -8.9257
17 29 17 -4.4799 -12.4365
17 29 19 6.2066 -3.2892
17 29 21 3.4556 -3.7517
17 29 23 -12.3346 -5.1593
17 29 25 -5.8897 5.2541
17 29 27 -2.1709 -2.1327
17 29 29 1.5160 7.2817
17 31 17 -4.4461 -10.6695
17 31 19 -4.6627 11.0330
17 31 21 -9.3443 -1.0021
17 31 23 2.9499 6.8542
17 31 25 -2.2770 5.5219
17 31 27 0.0496 -2.0216
17 31 29 1.5072 9.5828
17 31 31 -4.3014 -17.3593
17 33 17 -14.7211 8.3638
17 33 19 11.4492 11.2306
17 33 21 2.9857 -2.9214
17 33 23 -10.9212 -0.3148
17 33 25 -2.3523 -1.7675
17 33 27 -6.7065 2.4952
17 33 29 2.9664 -21.1499
17 35 17 5.8464 5.5971
17 35 19 -6.2257 -4.1193
17 35 21 -2.0485 -1.8641
17 35 23 -18.6831 1.7026
17 35 25 -9.5951 -1.1961
17 35 27 -1.2857 -5.1732
17 37 17 7.0888 6.7079
17 37 19 -5.6568 -0.1701
17 37 21 -6.4964 2.9346
17 37 23 1.6018 -1.6393
17 39 17 7.7564 2.9549
17 39 19 -4.2459 -4.9760
18 22 18 32.4394 0.7742
18 22 20 30.4866 -0.9591
18 22 22 22.4490 -0.1693
18 24 18 -25.5470 -16.1505
18 24 20 -18.2287 1.0434
18 24 22 0.7461 -11.1941
18 24 24 -11.9653 -6.1579
18 26 18 3.7072 -2.0483
18 26 20 9.4526 12.3162
18 26 22 -7.3079 -1.7807
18 26 24 -3.6641 11.7575
18 26 26 3.7803 2.1718
18 28 18 10.3781 0.8598
18 28 20 -11.6575 0.4381
18 28 22 -7.3862 -4.8688
18 28 24 -2.8298 -0.8319
18 28 26 -29.7724 -4.8085
18 28 28 -5.8095 -3.4684
18 30 18 -21.0228 3.4212
18 30 20 -10.4964 6.8598
18 30 22 -7.2294 0.1292
18 30 24 -17.8564 7.2607
18 30 26 -9.8708 1.1009
18 30 28 -4.0850 3.0229
18 30 30 -16.7837 7.7511
18 32 18 6.7660 14.3654
18 32 20 -16.0871 -0.7884
18 32 22 -7.5923 2.6572
18 32 24 -4.1808 -2.5937
18 32 26 -5.5422 -0.2128
18 32 28 -10.6054 2.5734
18 34 18 -28.2649 3.5449
18 34 20 -13.1328 -7.7255
18 34 22 0.2976 1.1412
18 34 24 -0.4464 2.1930
18 34 26 14.5434 0.1116
18 36 18 -0.6862 0.4924
18 36 20 -10.3749 -0.2697
18 36 22 -0.4819 -1.0825
18 36 24 -6.1418 2.1791
18 38 18 0.2941 -4.5412
18 38 20 -9.0974 -6.6419
19 21 19 4.6916 -6.7617
19 21 21 -16.8203 4.9943
19 23 19 22.6610 -7.6925
19 23 21 1.1136 -3.1600
19 23 23 4.1732 -1.0638
19 25 19 2.3970 11.1093
19 25 21 4.8485 4.3870
19 25 23 6.4477 0.6931
19 25 25 11.6376 9.4904
19 27 19 3.6521 7.1898
19 27 21 0.2898 -4.6590
19 27 23 -0.7777 0.1958
19 27 25 -1.2881 -7.3437
19 27 27 23.3363 -0.9172
19 29 19 4.7503 7.3336
19 29 21 -8.7086 0.8176
19 29 23 -11.1806 -0.8178
19 29 25 3.2452 5.0714
19 29 27 -18.7771 1.5411
19 29 29 -16.8280 7.2881
19 31 19 17.2022 10.7836
19 31 21 5.2085 -3.3720
19 31 23 -8.3717 0.7637
19 31 25 -7.8327 -1.9021
19 31 27 -7.6729 2.3608
19 31 29 7.3176 -6.5667
19 33 19 -0.2479 -8.2169
19 33 21 -10.4979 -3.0282
19 33 23 2.4484 0.2540
19 33 25 -8.5843 1.4598
19 33 27 3.0076 -0.7037
19 35 19 -0.0737 -4.7399
19 35 21 1.6102 1.1372
19 35 23 -10.5009 -1.5586
19 35 25 9.6713 4.1275
19 37 19 -0.2715 -6.5737
19 37 21 -18.5537 -6.3181
19 39 19 -3.2120 -8.5954
20 20 20 56.2348 7.9509
20 22 20 14.6751 5.8911
20 22 22 12.6840 2.0053
20 24 20 23.9719 12.0188
20 24 22 -20.9385 -1.3812
20 24 24 -5.0768 -2.1582
20 26 20 28.5465 3.2393
20 26 22 -2.3683 -6.8683
20 26 24 -4.5913 2.9892
20 26 26 -22.9193 5.2454
20 28 20 17.1569 -1.6312
20 28 22 3.4101 3.1461
20 28 24 -4.7749 -0.8627
20 28 26 12.5605 2.6927
20 28 28 15.5459 -6.3873
20 30 20 -13.1642 -2.0279
20 30 22 16.3672 -6.6279
20 30 24 -18.9488 1.9136
20 30 26 30.6047 -0.2052
20 30 28 -1.1011 0.3003
20 30 30 11.7589 -8.5924
20 32 20 -24.0019 -12.5403
20 32 22 -3.8298 -0.7075
20 32 24 -20.5658 -0.6808
20 32 26 -14.4531 2.0580
20 32 28 6.2136 -5.2884
20 34 20 -15.2674 -1.7092
20 34 22 8.3447 4.2185
20 34 24 -14.2626 0.3996
20 34 26 25.5030 1.5297
20 36 20 -3.7435 -6.4162
20 36 22 2.1359 -1.1810
20 38 20 -11.4349 0.8999
21 21 21 -23.2778 -3.0914
21 23 21 15.0870 5.6010
21 23 23 -7.1646 -2.0853
21 25 21 -5.0017 -11.4292
21 25 23 -9.6056 2.4461
21 25 25 -2.3180 4.9390
21 27 21 -7.6212 -11.0241
21 27 23 -6.1443 5.6345
21 27 25 -11.2226 1.4222
21 27 27 -41.5663 -12.8829
21 29 21 1.8175 -0.7446
21 29 23 -16.4118 -6.7840
21 29 25 -7.0036 0.4786
21 29 27 5.5631 -1.3084
21 29 29 11.6069 10.0487
21 31 21 -18.5275 -4.4033
21 31 23 17.7692 5.0546
21 31 25 -3.5873 -0.6853
21 31 27 -11.8177 -1.6405
21 31 29 10.5877 5.1541
21 33 21 4.8334 2.6498
21 33 23 -3.3462 3.3410
21 33 25 -0.2762 0.4033
21 35 21 -12.3255 -4.8924
21 35 23 4.9025 3.6553
22 22 22 42.9523 -11.3117
22 24 22 -8.3630 -19.4007
22 24 24 6.9952 -7.5259
22 26 22 -4.8337 2.1460
22 26 24 -10.3591 0.8883
22 26 26 -0.9179 0.7867
22 28 22 -1.6108 8.0063
22 28 24 25.5403 -1.0745
22 28 26 -13.1155 -5.2562
22 28 28 7.8768 7.7673
22 30 22 -18.6840 2.7403
22 30 24 -2.6639 7.9852
22 30 26 -16.4609 -1.1677
22 30 28 -12.0097 8.1369
22 32 22 -9.4639 3.1885
22 32 24 0.0815 -3.8031
22 32 26 7.2866 -2.2197
22 34 22 -10.3412 -1.5887
22 34 24 8.2339 2.9266
23 23 23 9.3175 24.0840
23 25 23 -5.3499 18.9137
23 25 25 -2.3405 19.6188
23 27 23 -15.3919 5.9325
23 27 25 -4.8933 -3.1223
23 27 27 -9.1220 -5.5679
23 29 23 -13.3232 4.2170
23 29 25 5.2279 0.0109
23 29 27 -0.8112 6.5276
23 29 29 6.5143 2.2008
23 31 23 2.7111 -1.7635
23 31 25 2.2445 -5.5942
23 31 27 13.1784 -1.5526
23 33 23 13.9474 -2.1996
23 33 25 -3.1865 1.7008
24 24 24 -11.4019 -25.2100
24 26 24 19.6303 -7.6128
24 26 26 1.3415 -19.1431
24 28 24 -4.2993 -7.0043
24 28 26 37.2133 4.7679
24 28 28 -7.6719 7.9255
24 30 24 -7.8467 -3.1473
24 30 26 10.4371 -4.3043
24 32 24 -1.6077 4.6282
25 25 25 20.5740 12.2002
25 27 25 -18.1860 -2.1793
25 27 27 3.0497 7.2262
25 29 25 5.1974 3.2818
25 29 27 3.5255 -2.1224
25 31 25 1.2769 -3.2549
26 26 26 -5.6653 -1.1498
26 28 26 11.7306 1.5890
0 0 0 0.0 0.0
;
_shelx_fab_checksum              16893
_olex2_submission_special_instructions 'No special instructions were received'
loop_
_space_group_symop_operation_xyz
'x, y, z'
'-x+3/4, -y+1/4, z+1/2'
'-x+1/4, y+1/2, -z+3/4'
'x+1/2, -y+3/4, -z+1/4'
'z, x, y'
'z+1/2, -x+3/4, -y+1/4'
'-z+3/4, -x+1/4, y+1/2'
'-z+1/4, x+1/2, -y+3/4'
'y, z, x'
'-y+1/4, z+1/2, -x+3/4'
'y+1/2, -z+3/4, -x+1/4'
'-y+3/4, -z+1/4, x+1/2'
'y+3/4, x+1/4, -z+1/2'
'-y, -x, -z'
'y+1/4, -x+1/2, z+3/4'
'-y+1/2, x+3/4, z+1/4'
'x+3/4, z+1/4, -y+1/2'
'-x+1/2, z+3/4, y+1/4'
'-x, -z, -y'
'x+1/4, -z+1/2, y+3/4'
'z+3/4, y+1/4, -x+1/2'
'z+1/4, -y+1/2, x+3/4'
'-z+1/2, y+3/4, x+1/4'
'-z, -y, -x'
'x, y+1/2, z+1/2'
'-x+3/4, -y+3/4, z+1'
'-x+1/4, y+1, -z+5/4'
'x+1/2, -y+5/4, -z+3/4'
'z, x+1/2, y+1/2'
'z+1/2, -x+5/4, -y+3/4'
'-z+3/4, -x+3/4, y+1'
'-z+1/4, x+1, -y+5/4'
'y, z+1/2, x+1/2'
'-y+1/4, z+1, -x+5/4'
'y+1/2, -z+5/4, -x+3/4'
'-y+3/4, -z+3/4, x+1'
'y+3/4, x+3/4, -z+1'
'-y, -x+1/2, -z+1/2'
'y+1/4, -x+1, z+5/4'
'-y+1/2, x+5/4, z+3/4'
'x+3/4, z+3/4, -y+1'
'-x+1/2, z+5/4, y+3/4'
'-x, -z+1/2, -y+1/2'
'x+1/4, -z+1, y+5/4'
'z+3/4, y+3/4, -x+1'
'z+1/4, -y+1, x+5/4'
'-z+1/2, y+5/4, x+3/4'
'-z, -y+1/2, -x+1/2'
'x+1/2, y, z+1/2'
'-x+5/4, -y+1/4, z+1'
'-x+3/4, y+1/2, -z+5/4'
'x+1, -y+3/4, -z+3/4'
'z+1/2, x, y+1/2'
'z+1, -x+3/4, -y+3/4'
'-z+5/4, -x+1/4, y+1'
'-z+3/4, x+1/2, -y+5/4'
'y+1/2, z, x+1/2'
'-y+3/4, z+1/2, -x+5/4'
'y+1, -z+3/4, -x+3/4'
'-y+5/4, -z+1/4, x+1'
'y+5/4, x+1/4, -z+1'
'-y+1/2, -x, -z+1/2'
'y+3/4, -x+1/2, z+5/4'
'-y+1, x+3/4, z+3/4'
'x+5/4, z+1/4, -y+1'
'-x+1, z+3/4, y+3/4'
'-x+1/2, -z, -y+1/2'
'x+3/4, -z+1/2, y+5/4'
'z+5/4, y+1/4, -x+1'
'z+3/4, -y+1/2, x+5/4'
'-z+1, y+3/4, x+3/4'
'-z+1/2, -y, -x+1/2'
'x+1/2, y+1/2, z'
'-x+5/4, -y+3/4, z+1/2'
'-x+3/4, y+1, -z+3/4'
'x+1, -y+5/4, -z+1/4'
'z+1/2, x+1/2, y'
'z+1, -x+5/4, -y+1/4'
'-z+5/4, -x+3/4, y+1/2'
'-z+3/4, x+1, -y+3/4'
'y+1/2, z+1/2, x'
'-y+3/4, z+1, -x+3/4'
'y+1, -z+5/4, -x+1/4'
'-y+5/4, -z+3/4, x+1/2'
'y+5/4, x+3/4, -z+1/2'
'-y+1/2, -x+1/2, -z'
'y+3/4, -x+1, z+3/4'
'-y+1, x+5/4, z+1/4'
'x+5/4, z+3/4, -y+1/2'
'-x+1, z+5/4, y+1/4'
'-x+1/2, -z+1/2, -y'
'x+3/4, -z+1, y+3/4'
'z+5/4, y+3/4, -x+1/2'
'z+3/4, -y+1, x+3/4'
'-z+1, y+5/4, x+1/4'
'-z+1/2, -y+1/2, -x'
'-x, -y, -z'
'x-3/4, y-1/4, -z-1/2'
'x-1/4, -y-1/2, z-3/4'
'-x-1/2, y-3/4, z-1/4'
'-z, -x, -y'
'-z-1/2, x-3/4, y-1/4'
'z-3/4, x-1/4, -y-1/2'
'z-1/4, -x-1/2, y-3/4'
'-y, -z, -x'
'y-1/4, -z-1/2, x-3/4'
'-y-1/2, z-3/4, x-1/4'
'y-3/4, z-1/4, -x-1/2'
'-y-3/4, -x-1/4, z-1/2'
'y, x, z'
'-y-1/4, x-1/2, -z-3/4'
'y-1/2, -x-3/4, -z-1/4'
'-x-3/4, -z-1/4, y-1/2'
'x-1/2, -z-3/4, -y-1/4'
'x, z, y'
'-x-1/4, z-1/2, -y-3/4'
'-z-3/4, -y-1/4, x-1/2'
'-z-1/4, y-1/2, -x-3/4'
'z-1/2, -y-3/4, -x-1/4'
'z, y, x'
'-x, -y+1/2, -z+1/2'
'x-3/4, y+1/4, -z'
'x-1/4, -y, z-1/4'
'-x-1/2, y-1/4, z+1/4'
'-z, -x+1/2, -y+1/2'
'-z-1/2, x-1/4, y+1/4'
'z-3/4, x+1/4, -y'
'z-1/4, -x, y-1/4'
'-y, -z+1/2, -x+1/2'
'y-1/4, -z, x-1/4'
'-y-1/2, z-1/4, x+1/4'
'y-3/4, z+1/4, -x'
'-y-3/4, -x+1/4, z'
'y, x+1/2, z+1/2'
'-y-1/4, x, -z-1/4'
'y-1/2, -x-1/4, -z+1/4'
'-x-3/4, -z+1/4, y'
'x-1/2, -z-1/4, -y+1/4'
'x, z+1/2, y+1/2'
'-x-1/4, z, -y-1/4'
'-z-3/4, -y+1/4, x'
'-z-1/4, y, -x-1/4'
'z-1/2, -y-1/4, -x+1/4'
'z, y+1/2, x+1/2'
'-x+1/2, -y, -z+1/2'
'x-1/4, y-1/4, -z'
'x+1/4, -y-1/2, z-1/4'
'-x, y-3/4, z+1/4'
'-z+1/2, -x, -y+1/2'
'-z, x-3/4, y+1/4'
'z-1/4, x-1/4, -y'
'z+1/4, -x-1/2, y-1/4'
'-y+1/2, -z, -x+1/2'
'y+1/4, -z-1/2, x-1/4'
'-y, z-3/4, x+1/4'
'y-1/4, z-1/4, -x'
'-y-1/4, -x-1/4, z'
'y+1/2, x, z+1/2'
'-y+1/4, x-1/2, -z-1/4'
'y, -x-3/4, -z+1/4'
'-x-1/4, -z-1/4, y'
'x, -z-3/4, -y+1/4'
'x+1/2, z, y+1/2'
'-x+1/4, z-1/2, -y-1/4'
'-z-1/4, -y-1/4, x'
'-z+1/4, y-1/2, -x-1/4'
'z, -y-3/4, -x+1/4'
'z+1/2, y, x+1/2'
'-x+1/2, -y+1/2, -z'
'x-1/4, y+1/4, -z-1/2'
'x+1/4, -y, z-3/4'
'-x, y-1/4, z-1/4'
'-z+1/2, -x+1/2, -y'
'-z, x-1/4, y-1/4'
'z-1/4, x+1/4, -y-1/2'
'z+1/4, -x, y-3/4'
'-y+1/2, -z+1/2, -x'
'y+1/4, -z, x-3/4'
'-y, z-1/4, x-1/4'
'y-1/4, z+1/4, -x-1/2'
'-y-1/4, -x+1/4, z-1/2'
'y+1/2, x+1/2, z'
'-y+1/4, x, -z-3/4'
'y, -x-1/4, -z-1/4'
'-x-1/4, -z+1/4, y-1/2'
'x, -z-1/4, -y-1/4'
'x+1/2, z+1/2, y'
'-x+1/4, z, -y-3/4'
'-z-1/4, -y+1/4, x-1/2'
'-z+1/4, y, -x-3/4'
'z, -y-1/4, -x-1/4'
'z+1/2, y+1/2, x'
loop_
_atom_site_label
_atom_site_type_symbol
_atom_site_fract_x
_atom_site_fract_y
_atom_site_fract_z
_atom_site_U_iso_or_equiv
_atom_site_adp_type
_atom_site_occupancy
_atom_site_site_symmetry_order
_atom_site_calc_flag
_atom_site_refinement_flags_posn
_atom_site_refinement_flags_adp
_atom_site_refinement_flags_occupancy
_atom_site_disorder_assembly
_atom_site_disorder_group
Zr1 Zr 0.625000 0.625000 0.18793(2) 0.0151(2) Uani 1 4 d S T P . .
S1 S 0.8826(3) 0.54247(19) 0.3620(3) 0.129(3) Uani 0.25 1 d D U P A -1
O1 O 0.67448(6) 0.62502(5) 0.21546(6) 0.0330(5) Uani 1 1 d . U . . .
O2 O 0.58993(16) 0.58993(16) 0.16007(16) 0.020(2) Uani 0.5 6 d S TU P . 2
H2 H 0.575234 0.575234 0.174765 0.031 Uiso 0.5 6 calc R U P . 2
O2A O 0.59890(16) 0.59890(16) 0.15110(16) 0.019(2) Uani 0.5 6 d S TU P . 1
O3 O 0.66065(16) 0.58935(16) 0.16065(16) 0.020(2) Uani 0.5 6 d S TU P . 1
H3 H 0.675339 0.574661 0.175338 0.030 Uiso 0.5 6 calc R U P . 1
O3A O 0.65217(17) 0.59783(17) 0.15217(17) 0.021(2) Uani 0.5 6 d S TU P . 2
N1 N 0.8522(4) 0.5673(4) 0.3510(4) 0.125(3) Uani 0.25 1 d D U P A -1
N2 N 0.8967(4) 0.5634(4) 0.3935(4) 0.125(3) Uani 0.25 1 d D U P A -1
C1 C 0.70503(8) 0.62359(12) 0.20503(8) 0.0362(10) Uani 1 2 d S TU P . .
C2 C 0.73169(9) 0.62042(16) 0.23169(9) 0.0576(13) Uani 1 2 d S TU P . .
C3 C 0.72325(14) 0.61929(15) 0.26538(13) 0.0983(15) Uani 1 1 d . U . . .
H3A H 0.700029 0.620737 0.271939 0.118 Uiso 1 1 calc R U . . .
C4 C 0.74797(16) 0.61609(15) 0.28990(16) 0.1147(17) Uani 1 1 d . U . . .
H4 H 0.741363 0.615484 0.313146 0.138 Uiso 1 1 calc R U . . .
C5 C 0.78191(12) 0.6137(2) 0.28191(12) 0.109(2) Uani 1 2 d DS TU P . .
C6 C 0.8059(9) 0.6105(4) 0.3124(6) 0.109(3) Uani 0.25 1 d D U P A -1
H6 H 0.825978 0.597596 0.308522 0.131 Uiso 0.25 1 calc R U P A -1
C7 C 0.8021(7) 0.6241(9) 0.3459(6) 0.111(3) Uani 0.25 1 d D U P A -1
H7 H 0.781585 0.635416 0.351824 0.133 Uiso 0.25 1 calc R U P A -1
C12 C 0.8783(5) 0.5917(3) 0.3974(6) 0.118(2) Uani 0.25 1 d DG U P A -1
C13 C 0.8528(6) 0.5936(3) 0.3729(5) 0.118(2) Uani 0.25 1 d DG U P A -1
C8 C 0.8306(5) 0.6210(4) 0.3726(4) 0.117(3) Uani 0.25 1 d DG U P A -1
C9 C 0.8337(3) 0.6466(3) 0.3968(4) 0.121(3) Uani 0.25 1 d DG U P A -1
H9 H 0.818515 0.665407 0.396649 0.145 Uiso 0.25 1 calc R U P A -1
C10 C 0.8592(4) 0.6447(4) 0.4213(4) 0.118(2) Uani 0.25 1 d DG U P A -1
H10 H 0.861347 0.662217 0.437884 0.142 Uiso 0.25 1 calc R U P A -1
C11 C 0.8814(4) 0.6173(5) 0.4216(6) 0.118(2) Uani 0.25 1 d DG U P A -1
C14 C 0.9085(7) 0.6169(9) 0.4489(8) 0.118(2) Uani 0.25 1 d D U P A -1
H14 H 0.902463 0.623606 0.471350 0.142 Uiso 0.25 1 calc R U P A -1
C15 C 0.9430(9) 0.6068(7) 0.4422(11) 0.118(2) Uani 0.25 1 d D U P A -1
loop_
_atom_site_aniso_label
_atom_site_aniso_U_11
_atom_site_aniso_U_22
_atom_site_aniso_U_33
_atom_site_aniso_U_23
_atom_site_aniso_U_13
_atom_site_aniso_U_12
Zr1 0.0170(2) 0.0170(2) 0.0114(3) 0.000 0.000 0.00073(16)
S1 0.107(4) 0.150(4) 0.131(6) -0.036(4) -0.087(4) 0.038(3)
O1 0.0309(12) 0.0422(13) 0.0260(11) -0.0001(9) -0.0114(9) -0.0014(9)
O2 0.020(2) 0.020(2) 0.020(2) -0.002(3) -0.002(3) 0.002(3)
O2A 0.019(2) 0.019(2) 0.019(2) 0.001(2) 0.001(2) -0.001(2)
O3 0.020(2) 0.020(2) 0.020(2) 0.001(3) -0.001(3) 0.001(3)
O3A 0.021(2) 0.021(2) 0.021(2) -0.003(3) 0.003(3) -0.003(3)
N1 0.102(5) 0.150(5) 0.125(6) -0.031(5) -0.081(4) 0.040(5)
N2 0.101(5) 0.150(5) 0.124(6) -0.033(5) -0.082(4) 0.039(5)
C1 0.0294(13) 0.050(2) 0.0294(13) -0.0009(12) -0.0121(17) -0.0009(12)
C2 0.0394(15) 0.094(3) 0.0394(15) 0.0034(15) -0.017(2) 0.0034(15)
C3 0.055(2) 0.189(4) 0.051(2) 0.023(3) -0.023(2) -0.013(3)
C4 0.073(3) 0.208(4) 0.063(3) 0.027(3) -0.034(2) -0.012(3)
C5 0.070(2) 0.187(5) 0.070(2) 0.004(2) -0.046(3) 0.004(2)
C6 0.074(5) 0.174(6) 0.080(5) -0.001(5) -0.055(5) 0.011(5)
C7 0.078(5) 0.162(6) 0.091(5) -0.010(5) -0.067(5) 0.017(5)
C12 0.093(4) 0.147(4) 0.114(5) -0.026(4) -0.083(3) 0.040(4)
C13 0.093(4) 0.147(4) 0.114(5) -0.026(4) -0.083(3) 0.040(4)
C8 0.089(5) 0.154(5) 0.107(5) -0.019(5) -0.075(4) 0.031(5)
C9 0.096(5) 0.153(5) 0.113(6) -0.024(5) -0.079(5) 0.039(5)
C10 0.094(4) 0.147(4) 0.114(5) -0.025(4) -0.083(3) 0.041(4)
C11 0.093(4) 0.147(4) 0.114(5) -0.025(4) -0.083(3) 0.041(4)
C14 0.093(4) 0.147(4) 0.114(5) -0.025(4) -0.083(3) 0.041(4)
C15 0.093(5) 0.146(5) 0.114(5) -0.026(5) -0.083(4) 0.041(4)
loop_
_atom_type_symbol
_atom_type_description
_atom_type_scat_dispersion_real
_atom_type_scat_dispersion_imag
_atom_type_scat_source
C C 0.0181 0.0091 'International Tables Vol C Tables 4.2.6.8 and 6.1.1.4'
H H 0.0000 0.0000 'International Tables Vol C Tables 4.2.6.8 and 6.1.1.4'
N N 0.0311 0.0180 'International Tables Vol C Tables 4.2.6.8 and 6.1.1.4'
O O 0.0492 0.0322 'International Tables Vol C Tables 4.2.6.8 and 6.1.1.4'
S S 0.3331 0.5567 'International Tables Vol C Tables 4.2.6.8 and 6.1.1.4'
Zr Zr -0.1862 2.2449 'International Tables Vol C Tables 4.2.6.8 and 6.1.1.4'
loop_
_geom_angle_atom_site_label_1
_geom_angle_atom_site_label_2
_geom_angle_atom_site_label_3
_geom_angle
_geom_angle_site_symmetry_1
_geom_angle_site_symmetry_3
_geom_angle_publ_flag
O1 Zr1 O1 121.81(12) 110 133_765 ?
O1 Zr1 O1 76.29(11) 133_765 50_564 ?
O1 Zr1 O1 76.36(11) 110 50_564 ?
O1 Zr1 O1 76.36(11) 133_765 . ?
O1 Zr1 O1 76.29(11) 110 . ?
O1 Zr1 O1 121.82(12) 50_564 . ?
O1 Zr1 O2 72.5(2) 133_765 . ?
O1 Zr1 O2 140.99(7) . . ?
O1 Zr1 O2 72.5(2) 50_564 . ?
O1 Zr1 O2 140.99(7) 133_765 50_564 ?
O1 Zr1 O2 140.99(7) 110 . ?
O1 Zr1 O2 72.5(2) 110 50_564 ?
O1 Zr1 O2 72.5(2) . 50_564 ?
O1 Zr1 O2 140.99(7) 50_564 50_564 ?
O1 Zr1 O3 71.8(2) 110 50_564 ?
O1 Zr1 O3 140.77(7) 50_564 . ?
O1 Zr1 O3 140.77(7) 110 . ?
O1 Zr1 O3 71.8(2) 50_564 50_564 ?
O1 Zr1 O3 71.8(2) . . ?
O1 Zr1 O3 71.8(2) 133_765 . ?
O1 Zr1 O3 140.77(8) 133_765 50_564 ?
O1 Zr1 O3 140.77(7) . 50_564 ?
O2A Zr1 O1 84.6(2) 50_564 . ?
O2A Zr1 O1 141.35(7) 50_564 50_564 ?
O2A Zr1 O1 84.6(2) . 50_564 ?
O2A Zr1 O1 141.35(7) 50_564 133_765 ?
O2A Zr1 O1 84.6(2) . 133_765 ?
O2A Zr1 O1 141.35(7) . . ?
O2A Zr1 O1 141.35(7) . 110 ?
O2A Zr1 O1 84.6(2) 50_564 110 ?
O2A Zr1 O2 105.7(5) . 50_564 ?
O2A Zr1 O2 15.6(3) 50_564 50_564 ?
O2A Zr1 O2A 90.1(6) . 50_564 ?
O2A Zr1 O3 70.4(2) 50_564 50_564 ?
O2A Zr1 O3 70.4(2) . 50_564 ?
O2A Zr1 O3 70.4(2) 50_564 . ?
O2A Zr1 O3 70.4(2) . . ?
O2A Zr1 O3A 61.2(3) . 50_564 ?
O2A Zr1 O3A 61.2(3) 50_564 50_564 ?
O3 Zr1 O3 123.2(5) . 50_564 ?
O3A Zr1 O1 83.1(3) 50_564 50_564 ?
O3A Zr1 O1 83.1(3) . . ?
O3A Zr1 O1 141.57(7) 50_564 . ?
O3A Zr1 O1 141.57(7) 50_564 133_765 ?
O3A Zr1 O1 141.57(7) . 50_564 ?
O3A Zr1 O1 83.1(3) . 133_765 ?
O3A Zr1 O2 70.5(2) 50_564 . ?
O3A Zr1 O2 70.5(2) . . ?
O3A Zr1 O3A 94.1(6) 50_564 . ?
N2 S1 N1 98.9(7) . . ?
C1 O1 Zr1 132.0(2) . . ?
Zr1 O2 Zr1 102.9(3) 7_564 . ?
Zr1 O2 Zr1 102.9(3) 59_455 7_564 ?
Zr1 O2 Zr1 102.9(3) 59_455 . ?
Zr1 O2 H2 115.4 59_455 . ?
Zr1 O2 H2 115.4 7_564 . ?
Zr1 O2 H2 115.4 . . ?
Zr1 O2A Zr1 117.17(16) 59_455 7_564 ?
Zr1 O2A Zr1 117.17(16) 59_455 . ?
Zr1 O2A Zr1 117.17(16) 7_564 . ?
Zr1 O3 Zr1 101.8(3) 53_554 . ?
Zr1 O3 Zr1 101.8(3) 59_455 53_554 ?
Zr1 O3 Zr1 101.8(3) 59_455 . ?
Zr1 O3 H3 116.3 . . ?
Zr1 O3 H3 116.3 59_455 . ?
Zr1 O3 H3 116.3 53_554 . ?
Zr1 O3A Zr1 115.9(2) 59_455 53_554 ?
Zr1 O3A Zr1 115.9(2) 59_455 . ?
Zr1 O3A Zr1 115.9(2) 53_554 . ?
C13 N1 S1 106.3(14) . . ?
C12 N2 S1 109.4(14) . . ?
O1 C1 O1 127.5(4) . 168_554 ?
O1 C1 C2 116.2(2) . . ?
O1 C1 C2 116.2(2) 168_554 . ?
C3 C2 C1 121.0(3) . . ?
C3 C2 C1 121.0(3) 168_554 . ?
C3 C2 C3 118.0(6) . 168_554 ?
C2 C3 H3A 119.6 . . ?
C2 C3 C4 120.7(6) . . ?
C4 C3 H3A 119.6 . . ?
C3 C4 H4 118.9 . . ?
C5 C4 C3 122.2(6) . . ?
C5 C4 H4 118.9 . . ?
C4 C5 C4 116.1(7) 168_554 . ?
C4 C5 C6 128.7(15) 168_554 . ?
C4 C5 C6 115.1(15) . . ?
C5 C6 H6 115.6 . . ?
C7 C6 C5 129(2) . . ?
C7 C6 H6 115.6 . . ?
C6 C7 H7 119.2 . . ?
C6 C7 C8 121.6(18) . . ?
C8 C7 H7 119.2 . . ?
N2 C12 C13 111(2) . . ?
N2 C12 C11 129(2) . . ?
C13 C12 C11 120.0 . . ?
N1 C13 C12 114.6(19) . . ?
N1 C13 C8 125.4(19) . . ?
C8 C13 C12 120.0 . . ?
C13 C8 C7 121.6(7) . . ?
C9 C8 C7 118.4(7) . . ?
C9 C8 C13 120.0 . . ?
C8 C9 H9 120.0 . . ?
C10 C9 C8 120.0 . . ?
C10 C9 H9 120.0 . . ?
C9 C10 H10 120.0 . . ?
C9 C10 C11 120.0 . . ?
C11 C10 H10 120.0 . . ?
C12 C11 C14 122.9(7) . . ?
C10 C11 C12 120.0 . . ?
C10 C11 C14 117.1(7) . . ?
C11 C14 H14 118.8 . . ?
C15 C14 C11 122.4(18) . . ?
C15 C14 H14 118.8 . . ?
loop_
_geom_bond_atom_site_label_1
_geom_bond_atom_site_label_2
_geom_bond_distance
_geom_bond_site_symmetry_2
_geom_bond_publ_flag
Zr1 O1 2.225(2) 110 ?
Zr1 O1 2.225(2) 50_564 ?
Zr1 O1 2.225(2) . ?
Zr1 O1 2.225(2) 133_765 ?
Zr1 O2 2.236(5) 50_564 ?
Zr1 O2 2.236(5) . ?
Zr1 O2A 2.0493(19) 50_564 ?
Zr1 O2A 2.0493(18) . ?
Zr1 O3 2.253(5) . ?
Zr1 O3 2.253(5) 50_564 ?
Zr1 O3A 2.063(2) . ?
Zr1 O3A 2.063(2) 50_564 ?
S1 N1 1.602(13) . ?
S1 N2 1.586(13) . ?
O1 C1 1.270(3) . ?
O2 H2 1.0000 . ?
O3 H3 1.0000 . ?
N1 C13 1.344(17) . ?
N2 C12 1.335(15) . ?
C1 C2 1.487(6) . ?
C2 C3 1.366(6) . ?
C2 C3 1.366(6) 168_554 ?
C3 H3A 0.9500 . ?
C3 C4 1.374(7) . ?
C4 H4 0.9500 . ?
C4 C5 1.374(7) . ?
C5 C6 1.529(18) . ?
C6 H6 0.9500 . ?
C6 C7 1.431(19) . ?
C7 H7 0.9500 . ?
C7 C8 1.538(14) . ?
C12 C13 1.3900 . ?
C12 C11 1.3900 . ?
C13 C8 1.3900 . ?
C8 C9 1.3900 . ?
C9 H9 0.9500 . ?
C9 C10 1.3900 . ?
C10 H10 0.9500 . ?
C10 C11 1.3900 . ?
C11 C14 1.510(15) . ?
C14 H14 0.9500 . ?
C14 C15 1.44(3) . ?
loop_
_geom_torsion_atom_site_label_1
_geom_torsion_atom_site_label_2
_geom_torsion_atom_site_label_3
_geom_torsion_atom_site_label_4
_geom_torsion
_geom_torsion_site_symmetry_1
_geom_torsion_site_symmetry_2
_geom_torsion_site_symmetry_3
_geom_torsion_site_symmetry_4
_geom_torsion_publ_flag
Zr1 O1 C1 O1 7.5(7) . . . 168_554 ?
Zr1 O1 C1 C2 -173.6(3) . . . . ?
S1 N1 C13 C12 -0.12(17) . . . . ?
S1 N1 C13 C8 -179.71(15) . . . . ?
S1 N2 C12 C13 0.15(17) . . . . ?
S1 N2 C12 C11 179.70(16) . . . . ?
O1 C1 C2 C3 178.8(5) 168_554 . . . ?
O1 C1 C2 C3 -0.3(8) . . . . ?
O1 C1 C2 C3 -178.8(5) . . . 168_554 ?
O1 C1 C2 C3 0.3(8) 168_554 . . 168_554 ?
N1 S1 N2 C12 -0.20(13) . . . . ?
N1 C13 C8 C7 -0.6(3) . . . . ?
N1 C13 C8 C9 179.6(3) . . . . ?
N2 S1 N1 C13 0.18(13) . . . . ?
N2 C12 C13 N1 -0.02(19) . . . . ?
N2 C12 C13 C8 179.6(2) . . . . ?
N2 C12 C11 C10 -179.5(3) . . . . ?
N2 C12 C11 C14 0.6(3) . . . . ?
C1 C2 C3 C4 179.5(5) . . . . ?
C2 C3 C4 C5 -0.3(3) . . . . ?
C3 C2 C3 C4 -1.9(8) 168_554 . . . ?
C3 C4 C5 C4 2.4(8) . . . 168_554 ?
C3 C4 C5 C6 179.7(3) . . . . ?
C4 C5 C6 C7 145(3) 168_554 . . . ?
C4 C5 C6 C7 -31(3) . . . . ?
C5 C6 C7 C8 -174.2(16) . . . . ?
C6 C7 C8 C13 -31(2) . . . . ?
C6 C7 C8 C9 149(2) . . . . ?
C7 C8 C9 C10 -179.9(3) . . . . ?
C12 C13 C8 C7 179.8(3) . . . . ?
C12 C13 C8 C9 0.0 . . . . ?
C12 C11 C14 C15 41(3) . . . . ?
C13 C12 C11 C10 0.0 . . . . ?
C13 C12 C11 C14 -179.9(3) . . . . ?
C13 C8 C9 C10 0.0 . . . . ?
C8 C9 C10 C11 0.0 . . . . ?
C9 C10 C11 C12 0.0 . . . . ?
C9 C10 C11 C14 179.9(3) . . . . ?
C10 C11 C14 C15 -138(3) . . . . ?
C11 C12 C13 N1 -179.6(2) . . . . ?
C11 C12 C13 C8 0.0 . . . . ?
loop_
_smtbx_masks_void_nr
_smtbx_masks_void_average_x
_smtbx_masks_void_average_y
_smtbx_masks_void_average_z
_smtbx_masks_void_volume
_smtbx_masks_void_count_electrons
_smtbx_masks_void_content
1 0.000 0.000 0.000 202.4 84.8 ?
2 -0.363 -0.310 -0.726 33612.0 1132.3 ?
3 0.000 0.250 0.250 202.4 84.8 ?
4 0.000 0.500 0.500 202.4 84.8 ?
5 0.000 0.750 0.750 202.4 84.8 ?
6 0.250 0.000 0.250 202.4 84.8 ?
7 0.250 0.250 0.000 202.4 84.8 ?
8 0.250 0.500 0.750 202.4 84.8 ?
9 0.250 0.750 0.500 202.4 84.8 ?
10 0.500 0.000 0.500 202.4 84.8 ?
11 0.500 0.250 0.750 202.4 84.8 ?
12 0.500 0.500 0.000 202.4 84.8 ?
13 0.500 0.750 0.250 202.4 84.8 ?
14 0.750 0.000 0.750 202.4 84.8 ?
15 0.750 0.250 0.500 202.4 84.8 ?
16 0.750 0.500 0.250 202.4 84.8 ?
17 0.750 0.750 0.000 202.4 84.8 ?
