#------------------------------------------------------------------------------
#$Date: 2022-08-06 14:42:14 +0300 (Sat, 06 Aug 2022) $
#$Revision: 277100 $
#$URL: file:///home/coder/svn-repositories/cod/cif/1/56/71/1567193.cif $
#------------------------------------------------------------------------------
#
# This file is available in the Crystallography Open Database (COD),
# http://www.crystallography.net/
#
# All data on this site have been placed in the public domain by the
# contributors.
#
data_1567193
loop_
_publ_author_name
'Xia, Hai-Lun'
'Zhou, Kang'
'Wu, Shenjie'
'Ren, Daming'
'Xing, Kai'
'Guo, Jiandong'
'Wang, Xiaotai'
'Liu, Xiao-Yuan'
'Li, Jing'
_publ_section_title
;
 Building an emission library of donor-acceptor-donor type linker-based
 luminescent metal-organic frameworks.
;
_journal_issue                   27
_journal_name_full               'Chemical science'
_journal_page_first              8036
_journal_page_last               8044
_journal_paper_doi               10.1039/d2sc02267b
_journal_volume                  13
_journal_year                    2022
_chemical_formula_moiety         'C84 H44 N6 O16 S3 Zr3'
_chemical_formula_sum            'C84 H44 N6 O16 S3 Zr3'
_chemical_formula_weight         1763.09
_space_group_crystal_system      cubic
_space_group_IT_number           227
_space_group_name_Hall           '-F 4vw 2vw 3'
_space_group_name_H-M_alt        'F d -3 m :2'
_atom_sites_solution_hydrogens   geom
_audit_creation_date             2021-09-06
_audit_creation_method
;
Olex2 1.3
(compiled 2020.02.04 svn.rd84adfe8 for OlexSys, GUI svn.r6032)
;
_audit_update_record
;
2021-12-16 deposited with the CCDC.	2022-06-29 downloaded from the CCDC.
;
_cell_angle_alpha                90
_cell_angle_beta                 90
_cell_angle_gamma                90
_cell_formula_units_Z            16
_cell_length_a                   39.2392(5)
_cell_length_b                   39.2392(5)
_cell_length_c                   39.2392(5)
_cell_measurement_reflns_used    9930
_cell_measurement_temperature    299.0
_cell_measurement_theta_max      68.25
_cell_measurement_theta_min      3.19
_cell_volume                     60417.2(13)
_computing_cell_refinement       'SAINT V8.38A (Bruker, 2018)'
_computing_data_reduction        'SAINT V8.38A (Bruker, 2018)'
_computing_molecular_graphics    'Olex2 1.3 (Dolomanov et al., 2009)'
_computing_publication_material  'Olex2 1.3 (Dolomanov et al., 2009)'
_computing_structure_refinement  'SHELXL 2017/1 (Sheldrick, 2015)'
_computing_structure_solution    'SHELXT 2014/5 (Sheldrick, 2014)'
_diffrn_ambient_temperature      299.0
_diffrn_measured_fraction_theta_full 1.000
_diffrn_measured_fraction_theta_max 1.000
_diffrn_measurement_device_type  'Bruker APEX-II CCD'
_diffrn_measurement_method       '\f and \w scans'
_diffrn_radiation_type           CuK\a
_diffrn_radiation_wavelength     1.54178
_diffrn_reflns_av_R_equivalents  0.0548
_diffrn_reflns_av_unetI/netI     0.0195
_diffrn_reflns_Laue_measured_fraction_full 1.000
_diffrn_reflns_Laue_measured_fraction_max 1.000
_diffrn_reflns_limit_h_max       47
_diffrn_reflns_limit_h_min       -42
_diffrn_reflns_limit_k_max       45
_diffrn_reflns_limit_k_min       -35
_diffrn_reflns_limit_l_max       47
_diffrn_reflns_limit_l_min       -37
_diffrn_reflns_number            36246
_diffrn_reflns_point_group_measured_fraction_full 1.000
_diffrn_reflns_point_group_measured_fraction_max 1.000
_diffrn_reflns_theta_full        67.679
_diffrn_reflns_theta_max         68.245
_diffrn_reflns_theta_min         3.185
_diffrn_source_current           1.0
_diffrn_source_power             0.05
_diffrn_source_voltage           50.0
_diffrn_standards_number         0
_exptl_absorpt_coefficient_mu    2.365
_exptl_absorpt_correction_T_max  0.7531
_exptl_absorpt_correction_T_min  0.7078
_exptl_absorpt_correction_type   none
_exptl_absorpt_process_details
;
SADABS-2016/2 (Bruker,2016/2) was used for absorption correction.
wR2(int) was 0.0831 before and 0.0585 after correction.
The Ratio of minimum to maximum transmission is 0.9398.
The \l/2 correction factor is Not present.
;
_exptl_crystal_colour            black
_exptl_crystal_colour_primary    black
_exptl_crystal_density_diffrn    0.775
_exptl_crystal_description       block
_exptl_crystal_F_000             14176
_exptl_crystal_size_max          0.05
_exptl_crystal_size_mid          0.05
_exptl_crystal_size_min          0.05
_refine_diff_density_max         0.481
_refine_diff_density_min         -0.762
_refine_diff_density_rms         0.067
_refine_ls_extinction_method     none
_refine_ls_goodness_of_fit_ref   1.097
_refine_ls_hydrogen_treatment    constr
_refine_ls_matrix_type           full
_refine_ls_number_parameters     132
_refine_ls_number_reflns         2635
_refine_ls_number_restraints     96
_refine_ls_restrained_S_all      1.202
_refine_ls_R_factor_all          0.0478
_refine_ls_R_factor_gt           0.0409
_refine_ls_shift/su_max          0.001
_refine_ls_shift/su_mean         0.000
_refine_ls_structure_factor_coef Fsqd
_refine_ls_weighting_details
'w=1/[\s^2^(Fo^2^)+(0.0779P)^2^+125.8776P] where P=(Fo^2^+2Fc^2^)/3'
_refine_ls_weighting_scheme      calc
_refine_ls_wR_factor_gt          0.1194
_refine_ls_wR_factor_ref         0.1286
_reflns_Friedel_coverage         0.000
_reflns_number_gt                2112
_reflns_number_total             2635
_reflns_threshold_expression     'I > 2\s(I)'
_cod_data_source_file            d2sc02267b2.cif
_cod_data_source_block           601_lxy_0m
_cod_depositor_comments
'Adding full bibliography for 1567192--1567197.cif.'
_cod_original_cell_volume        60417(2)
_cod_original_sg_symbol_H-M      'F d -3 m'
_cod_database_code               1567193
_shelx_shelxl_version_number     2017/1
_shelx_space_group_comment
;
The symmetry employed for this shelxl refinement is uniquely defined
by the following loop, which should always be used as a source of
symmetry information in preference to the above space-group names.
They are only intended as comments.
;
_shelx_estimated_absorpt_t_max   0.891
_shelx_estimated_absorpt_t_min   0.891
_olex2_refinement_description
;
1. Fixed Uiso
 At 1.2 times of:
  All C(H) groups
 At 1.5 times of:
  All O(H) groups
2. Uiso/Uaniso restraints and constraints
All non-hydrogen atoms have similar U: within 2A with sigma of 0.01 and sigma
for terminal atoms of 0.02 within 2A
3. Others
 Fixed Sof: O1(0.08333) H1(0.08333) O1A(0.08333) O2(0.08333) H2(0.08333)
 O2A(0.08333) C7(0.5) H7(0.5) C8(0.5) C9(0.5) C10(0.5) C11(0.5) H11(0.5)
 C12(0.5) H12(0.5)
4.a Ternary CH refined with riding coordinates:
 O1(H1), O2(H2)
4.b Aromatic/amide H refined with riding coordinates:
 C3(H3), C4(H4), C7(H7), C11(H11), C12(H12)
;
_smtbx_masks_void_probe_radius   1.2
_smtbx_masks_void_truncation_radius 1.2
_shelx_res_file
;
TITL 601_lxy_0m_a.res in Fd-3m
    601_lxy_0m.res
    created by SHELXL-2017/1 at 08:50:30 on 06-Sep-2021
REM Old TITL 601_LXY_0m in Fd-3m
REM SHELXT solution in Fd-3m
REM R1 0.258, Rweak 0.005, Alpha 0.036, Orientation as input
REM Formula found by SHELXT: C56 N38 O12 S19 I3
CELL 1.54178 39.2392 39.2392 39.2392 90 90 90
ZERR 16 0.0005 0.0005 0.0005 0 0 0
LATT 4
SYMM 0.75-X,0.25-Y,0.5+Z
SYMM 0.25-X,0.5+Y,0.75-Z
SYMM 0.5+X,0.75-Y,0.25-Z
SYMM +Z,+X,+Y
SYMM 0.5+Z,0.75-X,0.25-Y
SYMM 0.75-Z,0.25-X,0.5+Y
SYMM 0.25-Z,0.5+X,0.75-Y
SYMM +Y,+Z,+X
SYMM 0.25-Y,0.5+Z,0.75-X
SYMM 0.5+Y,0.75-Z,0.25-X
SYMM 0.75-Y,0.25-Z,0.5+X
SYMM 0.75+Y,0.25+X,0.5-Z
SYMM -Y,-X,-Z
SYMM 0.25+Y,0.5-X,0.75+Z
SYMM 0.5-Y,0.75+X,0.25+Z
SYMM 0.75+X,0.25+Z,0.5-Y
SYMM 0.5-X,0.75+Z,0.25+Y
SYMM -X,-Z,-Y
SYMM 0.25+X,0.5-Z,0.75+Y
SYMM 0.75+Z,0.25+Y,0.5-X
SYMM 0.25+Z,0.5-Y,0.75+X
SYMM 0.5-Z,0.75+Y,0.25+X
SYMM -Z,-Y,-X
SFAC C H N O S Zr
UNIT 1344 704 96 256 48 48
SIMU 0.01 0.02 2

L.S. 20
PLAN  13
SIZE 0.05 0.05 0.05
TEMP 25.85
CONF
BOND $H
list 4
MORE -1
ABIN
fmap 2 53
acta
REM <olex2.extras>
REM <HklSrc "%.\\601_LXY_0m.hkl">
REM </olex2.extras>

WGHT    0.077900  125.877617
FVAR       0.03312
ZR1   6    0.625000    0.625000    0.561903    10.25000    0.01631    0.01631 =
         0.01271    0.00000    0.00000   -0.00033
S1    5    0.543722    0.375000    0.375000    10.25000    0.13395    0.19409 =
         0.19409   -0.15265    0.00000    0.00000
PART 1
O1    4    0.661209    0.661209    0.588791    10.08333    0.01893    0.01893 =
         0.01893   -0.00004   -0.00004    0.00004
AFIX  13
H1    2    0.675628    0.675628    0.574371    10.08333   -1.50000
AFIX   0
PART 2
O1A   4    0.652270    0.652270    0.597730    10.08333    0.02079    0.02079 =
         0.02079   -0.00392   -0.00392    0.00392
O2    4    0.589959    0.660041    0.589959    10.08333    0.02278    0.02278 =
         0.02278   -0.00320    0.00320   -0.00320
AFIX  13
H2    2    0.575540    0.674460    0.575539    10.08333   -1.50000
AFIX   0
PART 1
O2A   4    0.598987    0.651013    0.598987    10.08333    0.02006    0.02006 =
         0.02006   -0.00123    0.00123   -0.00123
PART 0
O3    4    0.624930    0.575404    0.534439    11.00000    0.04145    0.02737 =
         0.02508   -0.00905   -0.00052    0.00077
N1    3    0.568821    0.397354    0.397354    10.50000    0.12187    0.11652 =
         0.11652   -0.07761    0.00543    0.00543
C1    1    0.623363    0.544790    0.544790    10.50000    0.03635    0.02707 =
         0.02707   -0.00932   -0.00020   -0.00020
C2    1    0.620274    0.517951    0.517951    10.50000    0.08395    0.03301 =
         0.03301   -0.01155   -0.00466   -0.00466
C3    1    0.618170    0.484518    0.526434    11.00000    0.18584    0.03927 =
         0.04405   -0.01667    0.00870   -0.01303
AFIX  43
H3    2    0.618274    0.478069    0.549240    11.00000   -1.20000
AFIX   0
C4    1    0.615867    0.459972    0.501199    11.00000    0.21111    0.04433 =
         0.07307   -0.02965    0.00791   -0.02333
AFIX  43
H4    2    0.615531    0.437136    0.507532    11.00000   -1.20000
AFIX   0
C5    1    0.614095    0.467850    0.467850    10.50000    0.16121    0.05811 =
         0.05811   -0.04062   -0.00623   -0.00623
C6    1    0.611238    0.441227    0.441227    10.50000    0.15522    0.07621 =
         0.07621   -0.05373   -0.00341   -0.00341
C7    1    0.623909    0.447529    0.408004    10.50000    0.15207    0.08200 =
         0.08575   -0.05904    0.01183   -0.02127
AFIX  43
H7    2    0.634069    0.468527    0.403808    10.50000   -1.20000
AFIX   0
C8    1    0.597199    0.398351    0.377590    10.50000    0.12857    0.09252 =
         0.09323   -0.07535    0.02363   -0.00992
C9    1    0.622033    0.423099    0.379848    10.50000    0.14925    0.10339 =
         0.10429   -0.08018    0.03821   -0.04340
C10   1    0.646159    0.423368    0.351857    10.50000    0.19286    0.14037 =
         0.16166   -0.10640    0.08021   -0.08231
C11   1    0.671114    0.445840    0.355418    10.50000    0.22262    0.19570 =
         0.20092   -0.11882    0.11033   -0.09631
AFIX  43
H11   2    0.669878    0.463215    0.371490    10.50000   -1.20000
AFIX   0
C12   1    0.697125    0.442621    0.335717    10.50000    0.24876    0.21864 =
         0.24222   -0.12400    0.09075   -0.11134
AFIX  43
H12   2    0.715819    0.456973    0.338220    10.50000   -1.20000
AFIX   0
HKLF 4




REM  601_lxy_0m_a.res in Fd-3m
REM R1 =  0.0409 for    2112 Fo > 4sig(Fo)  and  0.0478 for all    2635 data
REM    132 parameters refined using     96 restraints

END

WGHT      0.0780    125.7528

REM Highest difference peak  0.481,  deepest hole -0.762,  1-sigma level  0.067
Q1    1   0.5616  0.3986  0.3576  11.00000  0.05    0.45
Q2    1   0.5605  0.4003  0.4004  10.50000  0.05    0.34
Q3    1   0.5647  0.3497  0.4003  10.50000  0.05    0.31
Q4    1   0.6236  0.5873  0.5245  11.00000  0.05    0.30
Q5    1   0.6211  0.5815  0.5250  11.00000  0.05    0.30
Q6    1   0.6813  0.6813  0.5768  10.50000  0.05    0.26
Q7    1   0.5608  0.3895  0.3895  10.50000  0.05    0.24
Q8    1   0.5910  0.5584  0.5130  11.00000  0.05    0.24
Q9    1   0.6231  0.5864  0.5182  11.00000  0.05    0.23
Q10   1   0.5893  0.5047  0.5338  11.00000  0.05    0.23
Q11   1   0.5885  0.4844  0.5547  11.00000  0.05    0.22
Q12   1   0.6871  0.6871  0.5835  10.50000  0.05    0.22
Q13   1   0.5887  0.4911  0.5419  11.00000  0.05    0.21
;
_shelx_res_checksum              67442
_shelx_fab_file
;
0 2 2 -28.9819 16.4425
0 4 0 1167.9721 7.1578
0 4 4 839.3825 -21.5112
0 6 2 -3.4705 -7.1359
0 6 6 -515.6881 3.5723
0 8 0 32.6036 11.5825
0 8 4 195.6762 17.5705
0 8 8 65.5520 15.3614
0 10 2 63.3017 11.5801
0 10 6 -106.7978 -2.1574
0 10 10 -60.3716 2.0121
0 12 0 -382.3967 -7.8770
0 12 4 -57.7164 -20.7499
0 12 8 15.6886 4.5902
0 12 12 64.9152 -19.8758
0 14 2 23.6192 -24.3560
0 14 6 -0.8038 10.5332
0 14 10 -33.2416 -15.5696
0 14 14 -93.6341 30.9331
0 16 0 -70.6564 10.4683
0 16 4 -41.0831 26.6908
0 16 8 -4.5771 -10.2054
0 16 12 5.1311 32.2572
0 16 16 -6.9236 -37.7173
0 18 2 40.7516 21.4021
0 18 6 20.0232 -9.9584
0 18 10 -24.4939 19.4227
0 18 14 -36.1891 -32.7194
0 18 18 -26.7398 31.1965
0 20 0 16.9524 -20.9320
0 20 4 5.2822 -20.9790
0 20 8 -35.0294 -2.1632
0 20 12 -39.2815 -17.2821
0 20 16 13.9675 25.1996
0 20 20 10.9509 -14.6409
0 22 2 -7.4630 -11.4429
0 22 6 -18.2704 -5.7363
0 22 10 -4.8721 1.0199
0 22 14 16.1786 9.5113
0 22 18 7.6926 -11.6231
0 22 22 5.7037 -1.3708
0 24 0 24.9987 23.8127
0 24 4 3.8597 17.0858
0 24 8 -24.2925 11.5112
0 24 12 -12.7743 3.6149
0 24 16 8.7342 -13.6128
0 24 20 2.7010 6.0253
0 24 24 15.2349 4.3689
0 26 2 -27.4020 9.9831
0 26 6 -20.4650 3.5496
0 26 10 -0.3145 0.5812
0 26 14 14.0030 -11.1688
0 26 18 16.0974 10.7656
0 26 22 -20.4172 1.0580
0 26 26 -24.0580 1.0485
0 28 0 -4.9526 -15.3244
0 28 4 0.6546 -19.9677
0 28 8 8.6672 -0.0223
0 28 12 14.2948 -15.7467
0 28 16 12.9894 22.9320
0 28 20 -14.1073 -12.7592
0 28 24 10.4839 4.9986
0 28 28 -1.2784 -12.7398
0 30 2 -21.9966 -22.4448
0 30 6 -7.6397 7.1236
0 30 10 -5.6082 -12.2869
0 30 14 -18.0300 27.5094
0 30 18 -22.2479 -23.6695
0 30 22 -14.7678 11.9925
0 30 26 4.5156 -11.2990
0 30 30 3.1693 24.7017
0 32 0 -27.2766 10.0398
0 32 4 -12.5046 22.8228
0 32 8 24.5944 -11.4947
0 32 12 27.3637 26.4327
0 32 16 -1.5885 -31.4603
0 32 20 -13.1903 17.4730
0 32 24 -6.4494 -11.6665
0 32 28 13.0353 18.5648
0 32 32 7.3834 -33.2660
0 34 2 4.1745 18.9750
0 34 6 3.4624 -5.4198
0 34 10 0.3353 11.6839
0 34 14 -7.4180 -25.5032
0 34 18 -4.0466 21.7005
0 34 22 8.9193 -9.0278
0 34 26 15.5717 9.2762
0 34 30 4.9643 -28.0318
0 36 0 -15.8555 -14.7885
0 36 4 -12.1182 -16.5306
0 36 8 -14.7698 -0.4593
0 36 12 -19.2406 -10.9678
0 36 16 -9.8358 19.0896
0 36 20 4.6057 -10.4647
0 36 24 8.5621 3.1157
0 36 28 -0.2835 -11.3664
0 38 2 8.5927 -9.1079
0 38 6 23.5472 -5.2702
0 38 10 3.7958 0.3568
0 38 14 -7.8488 8.3150
0 38 18 1.6756 -6.3584
0 38 22 12.2687 -2.9255
0 38 26 0.6108 3.1679
0 40 0 26.9932 17.5913
0 40 4 41.0102 9.7553
0 40 8 -2.4143 12.2017
0 40 12 -6.8645 -1.8416
0 40 16 2.5782 -8.5121
0 40 20 16.3088 3.3199
0 40 24 3.6037 8.7880
0 42 2 -2.5128 10.3912
0 42 6 -5.4926 4.8551
0 42 10 15.0580 -4.0030
0 42 14 2.5891 -13.9565
0 42 18 4.1874 11.7539
0 44 0 10.0736 -1.0691
0 44 4 3.5820 -13.6259
0 44 8 -36.9140 -0.8720
0 44 12 -7.3304 -12.7758
0 44 16 28.0670 24.1465
0 46 2 -11.7364 -12.8289
0 46 6 -8.9189 4.8451
0 46 10 -1.8092 -13.0486
1 3 1 -65.4946 -4.5150
1 3 3 -184.5890 -6.9633
1 5 1 294.0538 0.2514
1 5 3 63.5853 -16.8909
1 5 5 37.4808 -11.7612
1 7 1 377.1800 -0.3528
1 7 3 140.9341 11.9399
1 7 5 144.2407 -7.2344
1 7 7 -97.6789 0.7789
1 9 1 360.2033 5.1561
1 9 3 -87.2110 9.8393
1 9 5 58.7027 0.8144
1 9 7 -42.4276 4.1306
1 9 9 -18.7260 11.9650
1 11 1 102.0996 5.7452
1 11 3 54.0759 -2.8976
1 11 5 100.0478 -0.3002
1 11 7 -72.0510 -14.8562
1 11 9 -0.4941 -7.1170
1 11 11 -51.1525 1.2539
1 13 1 -1.5192 6.0681
1 13 3 -15.0128 -9.3174
1 13 5 -69.7468 4.1256
1 13 7 -112.7255 2.1676
1 13 9 20.1879 -2.0836
1 13 11 -26.5206 0.5848
1 13 13 33.0190 -13.1064
1 15 1 -42.0272 2.7799
1 15 3 -1.0252 11.5542
1 15 5 -19.9880 2.1329
1 15 7 43.5454 -5.0331
1 15 9 9.5191 -7.9043
1 15 11 3.4433 2.1973
1 15 13 33.2313 -5.1738
1 15 15 -23.6371 26.1683
1 17 1 -44.4007 2.1181
1 17 3 22.4932 -1.1502
1 17 5 -56.2214 -8.4451
1 17 7 -4.5439 -8.1246
1 17 9 -11.3279 8.8057
1 17 11 -1.8671 19.9990
1 17 13 21.4686 -12.4027
1 17 15 15.0149 3.4922
1 17 17 17.4103 -26.2098
1 19 1 -43.0862 -4.0841
1 19 3 -8.3350 -14.9116
1 19 5 -20.0082 -3.9154
1 19 7 21.0348 5.6686
1 19 9 31.6485 9.3011
1 19 11 1.0349 -11.4027
1 19 13 32.7529 -23.9490
1 19 15 -16.3306 8.0301
1 19 17 6.1645 -2.9680
1 19 19 -25.7603 16.8634
1 21 1 8.5669 -8.3929
1 21 3 15.1193 -6.0618
1 21 5 -6.9887 4.6234
1 21 7 25.3662 -2.8688
1 21 9 -21.4273 6.4696
1 21 11 8.7871 -6.2927
1 21 13 -12.4171 10.1339
1 21 15 -2.2714 15.2590
1 21 17 0.4163 -5.7641
1 21 19 -13.1288 7.9431
1 21 21 18.1959 0.0580
1 23 1 -2.0057 -6.6264
1 23 3 1.1900 11.9635
1 23 5 4.2964 6.1681
1 23 7 7.5912 6.3464
1 23 9 19.0372 8.6313
1 23 11 6.5505 0.0358
1 23 13 6.3349 4.2418
1 23 15 -7.0772 -9.3861
1 23 17 -2.1504 -5.8865
1 23 19 1.1184 -6.2569
1 23 21 -0.7980 -7.0790
1 23 23 -7.6264 -6.4506
1 25 1 23.4904 4.9868
1 25 3 10.8480 11.6355
1 25 5 10.0353 -8.8348
1 25 7 26.0994 0.9826
1 25 9 -6.1329 -1.2650
1 25 11 -0.9708 -5.4413
1 25 13 -10.3422 -4.6050
1 25 15 -4.9893 -8.6353
1 25 17 11.2811 1.1931
1 25 19 -0.3007 1.0302
1 25 21 5.8268 10.8563
1 25 23 10.4452 6.9554
1 25 25 -15.4088 2.8615
1 27 1 5.7489 7.8628
1 27 3 -4.5926 -6.4606
1 27 5 14.3215 -4.0641
1 27 7 -16.3023 -4.9738
1 27 9 -6.0741 -5.2782
1 27 11 -13.7607 -2.1421
1 27 13 -9.7323 -2.2992
1 27 15 16.2974 12.6089
1 27 17 -14.4069 9.0648
1 27 19 0.0582 -1.8757
1 27 21 4.0205 3.1686
1 27 23 4.3735 -9.2812
1 27 25 4.0375 -7.1771
1 27 27 -20.1294 3.8017
1 29 1 -2.7171 3.2841
1 29 3 13.3157 -12.6935
1 29 5 21.0370 5.1149
1 29 7 6.6336 4.1461
1 29 9 5.5329 -2.9106
1 29 11 -9.3523 -0.3911
1 29 13 12.9043 12.0076
1 29 15 -7.9797 8.4398
1 29 17 -0.9847 -14.5568
1 29 19 19.9131 -8.6978
1 29 21 0.8553 0.6177
1 29 23 2.3222 2.0509
1 29 25 -16.9176 0.0749
1 29 27 -3.2275 4.0641
1 29 29 -2.9228 -11.6267
1 31 1 13.2973 1.2052
1 31 3 8.0288 3.1429
1 31 5 11.2561 5.7053
1 31 7 -12.9506 -3.2532
1 31 9 0.2898 -5.3126
1 31 11 -10.8053 7.2846
1 31 13 -12.1377 6.3127
1 31 15 -0.5231 -14.1066
1 31 17 3.5152 -12.1816
1 31 19 1.2709 15.5158
1 31 21 2.6509 11.7814
1 31 23 -5.9167 -4.6081
1 31 25 -1.4281 -9.4146
1 31 27 -1.2269 7.6918
1 31 29 -5.2956 -0.5875
1 31 31 -0.0723 19.3318
1 33 1 -17.4372 1.3042
1 33 3 5.0033 7.5428
1 33 5 1.1136 -4.7466
1 33 7 -12.2034 -0.0982
1 33 9 12.3864 3.0847
1 33 11 -8.8927 5.6204
1 33 13 16.2893 -8.2858
1 33 15 0.9125 -7.2637
1 33 17 11.1340 11.8732
1 33 19 7.6681 11.1555
1 33 21 0.2074 -7.9642
1 33 23 -2.6325 -8.1422
1 33 25 4.2719 8.1192
1 33 27 -9.9957 13.3554
1 33 29 -0.5977 -12.0842
1 33 31 -3.9458 6.3017
1 33 33 -4.2317 -20.0068
1 35 1 4.7820 -3.1590
1 35 3 10.9805 -6.3540
1 35 5 -7.1442 -2.4526
1 35 7 -3.8119 7.1237
1 35 9 -4.4425 5.1059
1 35 11 -9.3363 -1.4158
1 35 13 2.0179 -9.4295
1 35 15 -6.9971 7.1713
1 35 17 0.2022 6.9006
1 35 19 -2.1798 -4.4425
1 35 21 -9.2522 -3.0962
1 35 23 9.0140 4.8338
1 35 25 -6.9052 4.9054
1 35 27 -1.8037 -12.7530
1 35 29 2.7809 -3.5153
1 35 31 -0.5890 -5.1851
1 37 1 -5.5233 -7.6239
1 37 3 -11.6621 -6.9999
1 37 5 -8.2312 2.9051
1 37 7 -14.8843 -8.6523
1 37 9 -2.5832 4.5040
1 37 11 2.7298 -4.6684
1 37 13 12.9897 0.8283
1 37 15 -2.1084 6.4133
1 37 17 -1.6062 -3.5157
1 37 19 -1.3007 -1.2491
1 37 21 6.8042 2.5605
1 37 23 -10.9613 -6.6361
1 37 25 0.6820 2.7170
1 37 27 -7.1799 -1.4351
1 37 29 2.3171 1.2517
1 39 1 -13.1826 -5.5558
1 39 3 -2.2846 5.6828
1 39 5 -7.0615 3.5345
1 39 7 4.9335 2.8686
1 39 9 14.0196 3.7286
1 39 11 24.8203 -1.9390
1 39 13 11.7029 -1.7372
1 39 15 3.7556 -7.5624
1 39 17 -8.7271 -1.6518
1 39 19 -3.0624 1.3238
1 39 21 -6.9483 -2.6549
1 39 23 4.6478 4.7660
1 39 25 0.0162 -1.7668
1 41 1 11.3690 0.6220
1 41 3 7.0612 8.4266
1 41 5 -7.5464 -0.2424
1 41 7 12.9611 5.6935
1 41 9 -8.7639 -0.3666
1 41 11 13.8025 -1.3800
1 41 13 -7.2239 -3.0462
1 41 15 -12.3062 -4.8270
1 41 17 1.7569 -3.0515
1 41 19 12.2879 2.1795
1 41 21 18.6684 -0.5526
1 41 23 2.6243 -2.8196
1 43 1 -9.0667 2.5609
1 43 3 -5.1441 -7.0265
1 43 5 -12.9473 -5.8813
1 43 7 0.2340 -0.0837
1 43 9 -12.7435 -2.7785
1 43 11 3.8793 -3.6075
1 43 13 -8.7384 0.8397
1 43 15 -1.8080 7.0243
1 43 17 -8.0251 1.4220
1 43 19 3.5385 1.1914
1 45 1 14.7023 6.5921
1 45 3 -5.8564 -5.3580
1 45 5 5.3435 -0.7287
1 45 7 8.1437 3.4575
1 45 9 -12.5752 -8.3983
1 45 11 5.9204 7.3797
1 45 13 -15.3927 -3.1918
1 47 1 0.9015 16.2227
1 47 3 1.0431 1.8263
1 47 5 2.8666 -3.1745
2 2 2 -563.8071 -0.0034
2 4 2 130.1618 -13.5257
2 4 4 -173.2754 -3.5198
2 6 2 153.4079 -6.3689
2 6 4 24.0211 -7.6489
2 6 6 178.5349 3.1057
2 8 2 68.0771 -16.9119
2 8 4 -138.2817 -3.9158
2 8 6 34.7785 8.7898
2 8 8 -12.6345 -5.7587
2 10 2 14.0593 6.7579
2 10 4 -26.4271 11.3871
2 10 6 29.3991 -0.0679
2 10 8 -0.5797 -8.4012
2 10 10 45.6685 6.6392
2 12 2 33.0853 -4.2126
2 12 4 25.2117 6.8716
2 12 6 39.6745 15.2897
2 12 8 1.9655 -4.3502
2 12 10 29.9270 -0.3749
2 12 12 13.2292 -4.8628
2 14 2 69.5370 -5.4742
2 14 4 -10.5898 10.7217
2 14 6 12.5936 3.5572
2 14 8 -12.2948 1.8566
2 14 10 -11.7002 -3.9716
2 14 12 -22.8072 27.3269
2 14 14 29.1164 6.6554
2 16 2 -6.0191 26.1859
2 16 4 48.2723 1.4325
2 16 6 -6.5665 0.2522
2 16 8 28.5908 2.1872
2 16 10 4.7186 -13.6582
2 16 12 5.6459 3.6122
2 16 14 -5.5766 -34.8498
2 16 16 -1.5907 -1.9555
2 18 2 -4.9760 -1.7935
2 18 4 16.8743 -9.7492
2 18 6 -10.2756 2.1409
2 18 8 -15.8182 -5.8196
2 18 10 -24.7237 -1.3904
2 18 12 -23.3320 17.8290
2 18 14 -0.0997 -3.3685
2 18 16 -6.6427 35.7458
2 18 18 2.2214 6.9422
2 20 2 -16.4329 -5.6922
2 20 4 -22.7034 -4.0557
2 20 6 -26.5944 -0.8860
2 20 8 -4.0027 -2.3881
2 20 10 -0.1478 7.5911
2 20 12 -10.4182 -2.6022
2 20 14 25.6368 -7.1270
2 20 16 -1.9787 1.1871
2 20 18 6.5961 -24.9472
2 20 20 3.9732 -5.4172
2 22 2 -14.3515 2.2106
2 22 4 -6.7826 -20.6747
2 22 6 -19.3890 -2.2231
2 22 8 7.6293 -4.6097
2 22 10 -10.4879 4.0167
2 22 12 4.6964 -5.4567
2 22 14 -5.8819 0.6018
2 22 16 3.0005 2.8716
2 22 18 6.9678 -2.5189
2 22 20 1.5511 4.6667
2 22 22 7.8580 7.2995
2 24 2 12.9114 -11.8917
2 24 4 -23.8824 2.4543
2 24 6 -6.3079 8.9060
2 24 8 -25.8914 1.5076
2 24 10 -0.6706 2.2606
2 24 12 -3.6649 -1.4740
2 24 14 12.4581 6.8505
2 24 16 9.3217 2.6158
2 24 18 -12.1257 3.0471
2 24 20 -8.3271 -5.9630
2 24 22 -20.5876 6.8572
2 24 24 -1.3825 -5.8941
2 26 2 -13.0074 1.2923
2 26 4 -11.1074 20.4002
2 26 6 7.8917 -3.5106
2 26 8 24.8619 -0.8492
2 26 10 -4.9257 3.7506
2 26 12 6.7481 -0.4820
2 26 14 -0.0994 -0.0624
2 26 16 -4.8127 -4.3882
2 26 18 -4.4426 -4.8760
2 26 20 -12.5838 -2.8054
2 26 22 2.9145 9.0868
2 26 24 -2.4944 -2.3788
2 26 26 -8.5437 4.2969
2 28 2 -0.5039 -5.9968
2 28 4 21.5001 2.4676
2 28 6 5.8953 -0.1464
2 28 8 -1.1909 -1.4747
2 28 10 8.8762 -1.6303
2 28 12 10.2286 1.2842
2 28 14 -6.4939 -2.3343
2 28 16 2.5855 2.4536
2 28 18 -12.1992 3.8718
2 28 20 15.8236 3.4037
2 28 22 -8.2706 4.6965
2 28 24 -14.5704 -3.8162
2 28 26 4.1272 -5.3513
2 28 28 2.7751 -4.2738
2 30 2 -5.6879 0.0689
2 30 4 -2.7780 6.0721
2 30 6 -7.1643 1.4534
2 30 8 2.3164 -0.5414
2 30 10 6.0766 0.3791
2 30 12 1.2373 0.1468
2 30 14 -9.0285 -0.9448
2 30 16 -4.7160 0.0944
2 30 18 5.1191 -2.8676
2 30 20 -7.4847 -2.0332
2 30 22 6.1160 -0.2194
2 30 24 -0.7872 0.9867
2 30 26 18.8725 -0.5990
2 30 28 8.0031 19.5560
2 30 30 21.9659 0.4763
2 32 2 -4.8163 23.8201
2 32 4 4.3199 -2.3702
2 32 6 7.0132 -3.9620
2 32 8 -1.7927 0.1239
2 32 10 0.4927 -4.4100
2 32 12 -9.6674 0.2347
2 32 14 -14.1760 -6.9819
2 32 16 14.3019 -0.4096
2 32 18 -2.6491 0.3386
2 32 20 19.4590 1.0785
2 32 22 1.7172 3.5305
2 32 24 -1.8441 2.1867
2 32 26 -1.2299 -5.6265
2 32 28 1.4666 1.1756
2 32 30 -1.2115 -25.0404
2 32 32 -3.4346 -3.0885
2 34 2 -11.6981 -5.0308
2 34 4 -0.9684 -8.4593
2 34 6 9.6921 0.0500
2 34 8 -22.3003 -2.2052
2 34 10 19.7411 -2.1587
2 34 12 -14.9282 2.1114
2 34 14 2.5214 3.2982
2 34 16 0.4734 5.7986
2 34 18 -18.7007 -0.4332
2 34 20 10.0031 1.2399
2 34 22 -4.4450 -0.4793
2 34 24 7.0600 -7.7918
2 34 26 7.2014 -2.0533
2 34 28 -4.9692 10.5214
2 34 30 11.8976 -3.0914
2 34 32 -1.0892 27.7331
2 36 2 -0.0744 -2.6572
2 36 4 12.8245 -2.9839
2 36 6 6.8087 -0.1193
2 36 8 3.5514 2.4129
2 36 10 5.9508 4.1480
2 36 12 -1.0671 -0.1873
2 36 14 4.4024 0.0096
2 36 16 -7.5301 1.1278
2 36 18 3.6961 0.0490
2 36 20 0.5378 -2.8652
2 36 22 4.1594 -4.2384
2 36 24 -4.4783 0.0629
2 36 26 -0.7809 3.5567
2 36 28 10.3834 3.4548
2 36 30 1.9063 4.5368
2 38 2 -9.1223 5.3054
2 38 4 4.9243 -14.1327
2 38 6 -11.3103 -1.9537
2 38 8 -1.3986 0.0897
2 38 10 18.9053 1.5350
2 38 12 -7.9800 0.1107
2 38 14 5.3611 -0.2027
2 38 16 5.5456 -2.8443
2 38 18 -12.2337 -1.7366
2 38 20 17.1877 -2.3191
2 38 22 -24.2381 3.8100
2 38 24 6.8814 2.8098
2 38 26 -4.6299 3.0963
2 38 28 -5.5948 -5.4979
2 40 2 -4.4558 -12.0433
2 40 4 26.4822 0.8006
2 40 6 -2.9450 -0.4611
2 40 8 12.8619 -1.7607
2 40 10 4.2613 0.1530
2 40 12 1.7750 0.3974
2 40 14 3.9237 0.4671
2 40 16 -10.1491 1.0758
2 40 18 11.8811 2.9400
2 40 20 19.8171 -2.0274
2 40 22 1.5596 5.4516
2 40 24 10.6329 1.6296
2 42 2 10.5562 -0.3769
2 42 4 -4.5661 7.0051
2 42 6 -12.7056 0.5955
2 42 8 2.7682 0.1326
2 42 10 -16.6696 -0.5054
2 42 12 -5.4852 0.5265
2 42 14 -29.1781 1.5483
2 42 16 0.4756 4.3144
2 42 18 -8.4376 -1.9930
2 42 20 -0.4397 2.7136
2 44 2 -17.7082 -10.4687
2 44 4 -15.7647 2.7234
2 44 6 -10.9391 3.0014
2 44 8 -16.0698 -1.6622
2 44 10 4.2570 0.2803
2 44 12 -11.6678 0.2238
2 44 14 2.8264 5.1751
2 44 16 -2.8580 2.8422
2 46 2 -14.7088 3.1475
2 46 4 2.6465 12.4505
2 46 6 0.9511 -5.9602
2 46 8 7.6928 -8.5026
2 46 10 11.8995 2.0771
3 3 3 586.6478 2.9792
3 5 3 57.9575 8.9290
3 5 5 5.6966 1.1101
3 7 3 36.0749 5.2373
3 7 5 50.1598 -5.9348
3 7 7 50.8879 -9.7879
3 9 3 38.3324 -8.4854
3 9 5 -159.2218 -6.0184
3 9 7 15.9638 9.1746
3 9 9 -104.7139 0.6778
3 11 3 -111.0222 -8.8976
3 11 5 26.9194 -7.2868
3 11 7 -22.5611 -9.7014
3 11 9 -23.3770 -1.9712
3 11 11 35.5173 7.5731
3 13 3 -19.5040 -9.7672
3 13 5 -15.9893 -15.9607
3 13 7 -12.5678 0.3865
3 13 9 -1.1400 -2.3183
3 13 11 10.9583 -3.7283
3 13 13 25.1184 -17.2979
3 15 3 -39.1385 -11.7103
3 15 5 -25.1470 14.1587
3 15 7 -27.4801 -2.7939
3 15 9 -4.3362 14.6211
3 15 11 28.0044 -1.9941
3 15 13 27.2389 12.1540
3 15 15 24.0134 27.9835
3 17 3 13.6456 20.7311
3 17 5 26.9223 12.4271
3 17 7 11.2089 2.2179
3 17 9 25.9870 3.6048
3 17 11 23.8982 -13.5314
3 17 13 -2.5570 2.3277
3 17 15 11.6091 -18.2926
3 17 17 -19.6375 -29.3099
3 19 3 25.7706 18.5455
3 19 5 20.9783 -11.2906
3 19 7 9.7353 -2.0735
3 19 9 16.4017 -5.5748
3 19 11 -5.6623 -1.1153
3 19 13 -2.0289 8.6596
3 19 15 -4.5015 -7.4784
3 19 17 0.0850 18.0609
3 19 19 8.7723 17.8932
3 21 3 6.7801 6.8439
3 21 5 28.7149 12.9149
3 21 7 4.8660 4.7418
3 21 9 1.5253 4.9195
3 21 11 -5.6680 -4.2861
3 21 13 -12.5902 -5.1309
3 21 15 4.9745 -7.7124
3 21 17 0.7967 6.4689
3 21 19 5.8263 -5.3795
3 21 21 33.5956 -6.4117
3 23 3 11.0582 3.0406
3 23 5 4.5752 -11.4925
3 23 7 -2.3128 5.7023
3 23 9 12.0715 -10.3038
3 23 11 -22.1606 -8.8091
3 23 13 5.7099 2.7749
3 23 15 -13.2262 1.2850
3 23 17 -10.1899 0.7773
3 23 19 -0.1628 -4.4493
3 23 21 -3.9557 -3.8006
3 23 23 11.8219 1.4837
3 25 3 -18.0542 -2.5173
3 25 5 5.8643 -9.3768
3 25 7 -1.8759 1.1055
3 25 9 -4.9896 -5.1096
3 25 11 1.6183 10.2438
3 25 13 -5.9696 5.5391
3 25 15 9.0152 0.1998
3 25 17 6.7580 -0.3449
3 25 19 0.5045 4.8588
3 25 21 10.7673 -0.0242
3 25 23 0.0010 2.3340
3 25 25 -5.7230 -1.1869
3 27 3 12.1867 -8.8995
3 27 5 5.8214 11.4511
3 27 7 6.2244 0.4380
3 27 9 8.9067 5.3734
3 27 11 2.6894 4.1504
3 27 13 17.6033 -7.9169
3 27 15 2.5776 2.0515
3 27 17 -0.2869 2.0418
3 27 19 7.5308 -0.1428
3 27 21 -3.7245 -5.9653
3 27 23 6.7539 -3.7489
3 27 25 -2.7835 0.0081
3 27 27 10.4453 9.1267
3 29 3 13.0475 -20.0728
3 29 5 -13.6925 -10.4316
3 29 7 8.0110 -0.1409
3 29 9 -20.1421 -1.7902
3 29 11 -0.0414 -3.9134
3 29 13 -1.3253 -0.3607
3 29 15 -10.4557 1.4344
3 29 17 8.1398 0.8292
3 29 19 3.8251 -0.2111
3 29 21 9.0700 -5.5066
3 29 23 4.3632 5.4648
3 29 25 -12.0832 5.8476
3 29 27 -2.9081 -7.3836
3 29 29 -3.9385 -16.7206
3 31 3 -10.5427 -16.0367
3 31 5 -12.7052 12.2145
3 31 7 2.7473 -1.5853
3 31 9 -3.3507 1.6465
3 31 11 20.3426 1.7137
3 31 13 -2.9669 6.5061
3 31 15 15.3287 2.2548
3 31 17 4.3093 -4.4799
3 31 19 1.3707 -1.3924
3 31 21 6.2828 1.3697
3 31 23 -14.3843 4.1787
3 31 25 -2.1844 0.3372
3 31 27 2.0192 -2.6375
3 31 29 -2.1183 12.0144
3 31 31 -8.3071 19.0691
3 33 3 8.8585 12.8943
3 33 5 4.6507 10.4272
3 33 7 1.4041 4.4659
3 33 9 -10.0725 3.2682
3 33 11 -7.3465 -1.6422
3 33 13 3.7678 2.9336
3 33 15 -5.6934 -9.1080
3 33 17 -1.6399 -5.0044
3 33 19 -3.3486 3.0600
3 33 21 -10.2464 4.3607
3 33 23 -2.2798 0.2415
3 33 25 -5.7182 1.8605
3 33 27 1.1679 -2.5562
3 33 29 -2.1651 -0.4311
3 33 31 -4.9120 -14.5095
3 33 33 -1.1811 -20.6234
3 35 3 -12.0198 16.6598
3 35 5 8.4554 -9.6621
3 35 7 -13.1027 2.9936
3 35 9 0.6631 -2.2734
3 35 11 7.2826 -1.0223
3 35 13 -3.3582 -3.9664
3 35 15 10.4964 -3.9451
3 35 17 3.3183 5.9091
3 35 19 -9.1270 3.4198
3 35 21 21.4875 0.0087
3 35 23 -12.4817 -2.8932
3 35 25 6.3547 -0.8100
3 35 27 7.4672 -2.5860
3 35 29 3.9098 2.3166
3 35 31 -3.6491 -6.3316
3 37 3 4.9375 5.2894
3 37 5 2.0628 6.9549
3 37 7 -1.7424 1.0963
3 37 9 8.9043 2.7921
3 37 11 -21.9590 -1.9743
3 37 13 -9.8716 -5.1923
3 37 15 0.3195 2.6862
3 37 17 -1.0902 4.1288
3 37 19 -1.2852 -0.7708
3 37 21 -0.5751 -4.0531
3 37 23 -2.4225 1.8897
3 37 25 1.5271 -1.9839
3 37 27 -0.1770 -2.2995
3 37 29 -5.7720 1.7555
3 39 3 15.2584 2.6378
3 39 5 5.1480 -8.1013
3 39 7 2.8019 -0.1346
3 39 9 1.9385 -4.1907
3 39 11 -6.4321 -3.7163
3 39 13 5.1247 2.7063
3 39 15 -1.9517 2.6030
3 39 17 -9.4018 -0.8160
3 39 19 2.7211 -1.4241
3 39 21 7.0187 1.0949
3 39 23 -4.1401 -4.7934
3 39 25 3.0438 0.1282
3 41 3 0.7898 -1.1926
3 41 5 11.5388 -3.0150
3 41 7 3.1635 -2.5407
3 41 9 -6.3003 -2.4035
3 41 11 2.3727 2.8138
3 41 13 -24.1407 2.2260
3 41 15 -4.8404 -2.2989
3 41 17 3.6859 -3.0173
3 41 19 -4.4939 2.7600
3 41 21 -4.2279 -3.3716
3 41 23 0.4901 9.2945
3 43 3 -17.2353 -2.6235
3 43 5 -4.1851 4.1190
3 43 7 -4.9325 1.9712
3 43 9 2.0384 3.7035
3 43 11 12.7269 -0.2654
3 43 13 3.9665 -1.7889
3 43 15 10.5727 1.5872
3 43 17 -0.0673 3.5313
3 43 19 1.6914 2.1245
3 45 3 -9.6133 -15.9428
3 45 5 5.1524 -9.9364
3 45 7 6.3350 4.4177
3 45 9 1.6183 -2.5791
3 45 11 4.1859 -6.6714
3 45 13 -1.8624 -6.8001
3 47 3 2.0340 -22.4872
4 4 4 509.1337 -4.1406
4 6 4 -124.6511 3.8346
4 6 6 -83.7044 5.0477
4 8 4 151.7868 5.2874
4 8 6 -72.8605 -0.4344
4 8 8 98.5177 -12.2720
4 10 4 75.1185 13.0156
4 10 6 -51.4300 -6.4307
4 10 8 44.3476 -0.7228
4 10 10 -72.5683 7.1343
4 12 4 0.8647 -8.0740
4 12 6 23.0601 -1.0621
4 12 8 39.1712 -6.7518
4 12 10 -11.2877 2.3278
4 12 12 -2.5313 -0.5067
4 14 4 28.5018 -4.6624
4 14 6 13.5620 -5.7875
4 14 8 15.5502 2.6083
4 14 10 -4.2540 -18.7087
4 14 12 -4.8957 -0.4617
4 14 14 -38.5260 -4.9379
4 16 4 -65.1122 -8.2689
4 16 6 -7.3928 0.2216
4 16 8 -26.3313 -9.4070
4 16 10 -15.1096 6.5889
4 16 12 -3.3784 24.9317
4 16 14 -16.9206 5.1863
4 16 16 7.5232 14.9071
4 18 4 -20.0763 -6.3748
4 18 6 12.9373 8.6301
4 18 8 -15.5753 7.2710
4 18 10 -1.3457 11.5513
4 18 12 16.6039 -5.0729
4 18 14 -26.7893 -16.9208
4 18 16 23.3249 -8.8694
4 18 18 -28.0821 -11.4992
4 20 4 -3.8531 -5.0773
4 20 6 6.1796 -1.3240
4 20 8 -29.6550 -3.7080
4 20 10 -12.1957 -2.0423
4 20 12 -16.0370 -7.0986
4 20 14 -15.2672 3.7956
4 20 16 11.0771 13.8298
4 20 18 -12.9438 6.6621
4 20 20 19.2299 -0.0120
4 22 4 -22.6794 1.5377
4 22 6 -2.5765 9.5490
4 22 8 4.4598 -1.0364
4 22 10 4.7398 17.6387
4 22 12 17.6819 1.8004
4 22 14 -0.8190 3.8461
4 22 16 12.6426 -1.5423
4 22 18 -8.3283 -6.5925
4 22 20 12.8786 -1.1043
4 22 22 -13.4889 4.1964
4 24 4 -12.2398 15.1412
4 24 6 17.4200 -3.3996
4 24 8 -13.4014 12.5917
4 24 10 24.2197 -2.3355
4 24 12 -4.5322 -15.4165
4 24 14 11.2678 -2.5094
4 24 16 3.6792 -6.7280
4 24 18 -19.1340 1.9459
4 24 20 4.1640 2.7493
4 24 22 -21.3689 -0.4780
4 24 24 -8.1890 -3.5075
4 26 4 0.8735 6.3931
4 26 6 -17.3460 -11.3784
4 26 8 3.8219 1.7072
4 26 10 -2.5737 -9.8519
4 26 12 -4.1630 1.3511
4 26 14 10.6871 1.1043
4 26 16 0.7061 0.3087
4 26 18 2.0823 2.4336
4 26 20 5.1721 0.5157
4 26 22 -3.5442 6.2908
4 26 24 7.3246 1.6916
4 26 26 -1.7200 0.0163
4 28 4 3.9221 0.0574
4 28 6 14.2209 3.3596
4 28 8 11.2436 -0.6820
4 28 10 1.0971 4.2767
4 28 12 8.5580 -2.2731
4 28 14 1.3625 -4.1450
4 28 16 -6.7853 9.7300
4 28 18 -11.2035 0.9035
4 28 20 -3.8395 -1.3599
4 28 22 16.2767 3.0701
4 28 24 -0.8575 -3.9108
4 28 26 -13.1171 -0.0325
4 28 28 5.3673 3.6696
4 30 4 32.6223 -5.1443
4 30 6 -12.4472 -7.1577
4 30 8 -4.8191 2.6393
4 30 10 2.9072 -7.8833
4 30 12 -12.3359 -4.8616
4 30 14 -10.1152 7.3658
4 30 16 -16.0240 0.6923
4 30 18 -0.5014 -6.8997
4 30 20 0.9561 2.4010
4 30 22 -2.7979 -3.3462
4 30 24 5.2883 -0.3785
4 30 26 0.2169 -2.4726
4 30 28 11.1194 -4.2811
4 30 30 -3.9684 -7.0732
4 32 4 -0.0601 -12.1218
4 32 6 15.4701 -0.7279
4 32 8 20.1931 -4.3935
4 32 10 -2.4955 2.1558
4 32 12 12.4040 7.7331
4 32 14 -2.6828 2.0376
4 32 16 0.8041 -4.2673
4 32 18 6.9048 -1.6168
4 32 20 -13.0857 6.7750
4 32 22 3.0632 -2.2917
4 32 24 -10.7203 -0.6416
4 32 26 5.3047 0.0979
4 32 28 4.0968 10.4773
4 32 30 -11.6758 2.0499
4 32 32 4.3168 6.6259
4 34 4 36.6749 -7.1728
4 34 6 -5.1289 2.0387
4 34 8 14.3782 0.2731
4 34 10 -0.1164 7.6899
4 34 12 7.2981 -0.5413
4 34 14 -5.5993 -1.6869
4 34 16 -3.4845 -1.8151
4 34 18 -6.7811 -0.6970
4 34 20 7.4803 -2.6099
4 34 22 21.9335 1.9118
4 34 24 4.3150 2.3311
4 34 26 11.7827 4.9619
4 34 28 -4.7429 -4.4993
4 34 30 8.6391 -4.3882
4 34 32 -22.6737 -5.1841
4 36 4 1.0636 -2.2470
4 36 6 9.4891 -3.4702
4 36 8 8.2602 2.0659
4 36 10 -24.4100 -2.6266
4 36 12 -4.5033 -4.8117
4 36 14 -4.9766 1.3169
4 36 16 8.3570 1.2926
4 36 18 -10.9072 1.8602
4 36 20 14.0715 0.9235
4 36 22 -16.1517 0.9026
4 36 24 6.2167 -7.3124
4 36 26 3.9894 1.4073
4 36 28 -0.4807 -4.9397
4 36 30 -1.9401 -0.4422
4 38 4 -4.9041 5.8405
4 38 6 8.0505 8.0609
4 38 8 -13.9995 3.3486
4 38 10 -8.6587 7.8840
4 38 12 12.3869 0.7182
4 38 14 1.3584 -0.7413
4 38 16 -1.8959 -0.2634
4 38 18 -6.8156 -1.1504
4 38 20 3.6806 2.1948
4 38 22 5.8576 -3.8571
4 38 24 -15.8602 2.9709
4 38 26 7.3710 -1.6576
4 40 4 3.6398 12.5705
4 40 6 7.7020 1.3727
4 40 8 -16.1604 3.7626
4 40 10 -16.1978 2.3654
4 40 12 -10.1928 -4.9474
4 40 14 -9.7921 -1.4336
4 40 16 3.3789 -2.8652
4 40 18 9.8330 -0.0903
4 40 20 4.5210 0.0066
4 40 22 -10.0278 1.7629
4 40 24 -1.1507 -11.3875
4 42 4 -22.9470 2.0193
4 42 6 -1.1444 -7.6906
4 42 8 -21.8890 -4.0931
4 42 10 10.4353 -5.3169
4 42 12 17.4642 -1.9146
4 42 14 12.0464 -0.5020
4 42 16 19.7917 1.5639
4 42 18 4.1827 3.0900
4 42 20 3.8736 4.3707
4 44 4 7.5030 0.6408
4 44 6 -9.7420 -0.0407
4 44 8 -4.6497 -0.7371
4 44 10 16.2707 2.0961
4 44 12 -12.4638 -2.6834
4 44 14 16.8048 -1.2254
4 44 16 -2.9786 -2.1220
4 46 4 2.0676 -0.8402
4 46 6 8.3441 -10.4971
4 46 8 -7.1617 -2.8129
4 46 10 -0.1492 -1.6869
5 5 5 14.9359 10.8591
5 7 5 110.1061 -7.6029
5 7 7 -107.3940 10.1696
5 9 5 22.9072 15.8088
5 9 7 -16.2213 7.9055
5 9 9 3.8304 -11.7048
5 11 5 18.0232 13.2912
5 11 7 -14.0334 2.0577
5 11 9 4.6624 -9.8754
5 11 11 -6.4096 15.5915
5 13 5 6.6372 2.1898
5 13 7 -13.6999 -0.9579
5 13 9 23.9208 -6.8350
5 13 11 -23.5108 4.2540
5 13 13 34.1024 3.2573
5 15 5 3.1546 10.9845
5 15 7 10.8682 -12.8077
5 15 9 45.4151 8.0544
5 15 11 11.8298 -12.4577
5 15 13 22.3096 -6.7271
5 15 15 -26.3960 -6.4863
5 17 5 -16.2744 -13.1851
5 17 7 -0.7648 -8.4596
5 17 9 22.1289 -3.6105
5 17 11 -19.8517 -4.9740
5 17 13 17.8118 7.3677
5 17 15 7.5703 3.3550
5 17 17 -14.1660 11.3841
5 19 5 -14.2086 -7.5852
5 19 7 31.3841 1.5443
5 19 9 18.3815 1.5946
5 19 11 -0.3715 5.6516
5 19 13 38.6550 3.6220
5 19 15 -23.2912 -4.5118
5 19 17 2.9361 -7.3550
5 19 19 -12.0562 -1.8620
5 21 5 32.9310 -5.9125
5 21 7 24.5928 -5.5046
5 21 9 11.2199 -0.9533
5 21 11 15.0287 0.0829
5 21 13 -12.6038 3.7259
5 21 15 -9.5374 -4.7470
5 21 17 -10.4260 4.1706
5 21 19 0.7118 9.2548
5 21 21 12.4758 -8.9847
5 23 5 -1.6162 -14.2413
5 23 7 2.9915 10.3833
5 23 9 -5.6540 -3.7373
5 23 11 -12.8719 10.6945
5 23 13 19.0191 0.6644
5 23 15 -13.4967 0.4622
5 23 17 9.5251 3.7048
5 23 19 9.0939 -6.5288
5 23 21 -2.3819 -9.0137
5 23 23 10.4750 7.2911
5 25 5 -2.0094 8.6472
5 25 7 9.9719 6.6279
5 25 9 -13.9245 -2.0608
5 25 11 10.9442 2.3304
5 25 13 -11.9508 -2.3688
5 25 15 1.9476 -0.2680
5 25 17 10.3858 -4.1907
5 25 19 -7.2984 -4.8423
5 25 21 7.6639 5.0207
5 25 23 1.7090 8.5158
5 25 25 -5.1198 -6.3377
5 27 5 18.3504 4.0732
5 27 7 7.2166 -6.8534
5 27 9 -8.6627 0.0759
5 27 11 -23.1543 -1.0142
5 27 13 -8.9911 1.5759
5 27 15 -5.2660 -2.2692
5 27 17 -18.9618 0.6313
5 27 19 -2.2786 3.5273
5 27 21 7.2697 1.9965
5 27 23 3.6995 -0.7143
5 27 25 -3.0923 -5.8738
5 27 27 -22.1957 0.4214
5 29 5 -5.6408 12.6419
5 29 7 -7.5042 7.3334
5 29 9 -18.7317 0.8060
5 29 11 11.2231 7.2113
5 29 13 -5.4504 -1.8301
5 29 15 1.3717 -4.0240
5 29 17 4.6833 3.0313
5 29 19 16.5459 -1.0990
5 29 21 6.3801 -1.2456
5 29 23 -1.3078 2.0641
5 29 25 -18.5602 0.2341
5 29 27 5.8215 5.5604
5 29 29 3.3415 4.2128
5 31 5 18.3868 16.9027
5 31 7 -5.2835 -8.6799
5 31 9 5.3773 2.4992
5 31 11 -19.1581 -4.1521
5 31 13 -3.0707 -3.8010
5 31 15 7.3531 -0.2251
5 31 17 1.9914 -2.4528
5 31 19 10.7594 -1.9404
5 31 21 -7.4353 0.6729
5 31 23 -11.6834 -1.5820
5 31 25 -7.5538 -0.6142
5 31 27 -10.8157 -0.9635
5 31 29 -15.0741 -5.3517
5 31 31 0.8488 -4.7070
5 33 5 8.5159 -14.3385
5 33 7 -17.4790 -4.7257
5 33 9 6.8949 -2.9847
5 33 11 -5.8588 -4.5681
5 33 13 11.7496 3.5074
5 33 15 12.1831 0.0723
5 33 17 0.2007 2.7511
5 33 19 11.0591 -0.3799
5 33 21 13.5535 0.1614
5 33 23 1.0574 -1.5771
5 33 25 -5.7589 0.9650
5 33 27 -14.5475 -2.5453
5 33 29 0.4731 3.1964
5 33 31 -10.6357 1.3276
5 33 33 -2.4622 5.7471
5 35 5 -6.9437 -8.5329
5 35 7 4.1891 1.3274
5 35 9 5.3974 -1.6849
5 35 11 -5.6063 7.2129
5 35 13 15.6300 1.7977
5 35 15 4.6475 -0.3027
5 35 17 -6.7420 0.1763
5 35 19 10.0906 -2.2406
5 35 21 -8.2161 1.1280
5 35 23 -4.6578 1.3291
5 35 25 -3.0527 2.2904
5 35 27 -11.6490 0.7731
5 35 29 0.8782 -1.0084
5 35 31 -6.5111 2.2866
5 37 5 11.7913 -8.7697
5 37 7 -16.4715 -6.7813
5 37 9 -4.5038 0.6105
5 37 11 2.6987 0.7597
5 37 13 7.0030 -2.7685
5 37 15 1.7841 -0.3894
5 37 17 -12.7432 0.8612
5 37 19 -1.6260 1.1228
5 37 21 -9.7795 -0.9116
5 37 23 -4.7951 2.2709
5 37 25 -9.1604 -1.8266
5 37 27 -5.8809 5.9301
5 37 29 4.1400 -8.2730
5 39 5 -16.4545 -10.2323
5 39 7 -0.7265 8.2926
5 39 9 9.1683 2.5102
5 39 11 6.3475 -0.2484
5 39 13 9.5770 4.2352
5 39 15 -7.0705 -3.0455
5 39 17 10.0793 3.1120
5 39 19 -5.0122 0.4675
5 39 21 -4.9741 -4.3409
5 39 23 -2.8787 4.7161
5 39 25 -12.9133 7.2341
5 41 5 12.0328 9.8343
5 41 7 11.8814 7.4478
5 41 9 -3.3543 4.4981
5 41 11 5.6290 2.4360
5 41 13 -13.0496 -1.4755
5 41 15 -0.6796 -2.2011
5 41 17 14.4467 -1.0209
5 41 19 -2.9311 1.9532
5 41 21 1.5258 3.2952
5 41 23 1.5084 12.7047
5 43 5 -7.0325 3.6571
5 43 7 2.6954 -3.4438
5 43 9 3.1218 -3.1131
5 43 11 4.2618 -2.4638
5 43 13 -1.7393 -1.7535
5 43 15 -3.4015 -1.3155
5 43 17 8.2356 0.7115
5 43 19 -12.6628 3.1023
5 45 5 7.3598 7.8322
5 45 7 6.8464 5.9714
5 45 9 -2.5304 0.4704
5 45 11 -3.7698 1.1940
5 45 13 -4.2337 0.9016
6 6 6 136.5133 7.8331
6 8 6 132.6897 -31.8149
6 8 8 0.8336 -3.4684
6 10 6 25.0701 3.7651
6 10 8 27.8608 7.3462
6 10 10 30.4527 7.8885
6 12 6 214.0989 -6.2873
6 12 8 2.0322 -2.6475
6 12 10 52.4984 0.4380
6 12 12 -18.1809 9.7171
6 14 6 0.6099 -0.0846
6 14 8 -65.9037 14.7284
6 14 10 3.1543 -4.9153
6 14 12 -47.0352 3.5675
6 14 14 -2.5676 -1.6413
6 16 6 8.9030 17.5833
6 16 8 -29.0611 -7.7320
6 16 10 -1.4393 0.0785
6 16 12 -8.8818 -3.5415
6 16 14 -5.2860 2.6875
6 16 16 18.7146 4.1375
6 18 6 1.5846 2.5851
6 18 8 -47.0656 -17.2447
6 18 10 -4.3222 1.8934
6 18 12 -20.3749 1.3234
6 18 14 0.4569 -1.6808
6 18 16 -9.3924 1.3262
6 18 18 5.3010 -3.0314
6 20 6 -54.4849 2.4667
6 20 8 -22.8718 3.0007
6 20 10 -1.2175 1.8630
6 20 12 12.3442 0.1404
6 20 14 28.4887 -3.7856
6 20 16 0.0743 -0.9482
6 20 18 21.9809 -5.5779
6 20 20 -10.2001 3.3248
6 22 6 -14.9829 0.3522
6 22 8 12.2600 -11.6178
6 22 10 -0.9423 -2.5421
6 22 12 26.5695 -9.6675
6 22 14 5.0672 4.3720
6 22 16 -5.9234 1.2922
6 22 18 -2.5104 3.2400
6 22 20 -11.7297 10.2152
6 22 22 12.2783 -3.0488
6 24 6 -25.4714 -18.1396
6 24 8 1.3142 4.3673
6 24 10 7.2611 -1.1527
6 24 12 9.1882 5.0722
6 24 14 27.6149 5.2157
6 24 16 7.1816 -0.8324
6 24 18 -0.3835 -2.2078
6 24 20 -0.9673 -6.2136
6 24 22 -15.4107 -13.5146
6 24 24 -21.9408 -0.7640
6 26 6 -3.0720 -4.4610
6 26 8 17.9448 10.3487
6 26 10 -17.2067 -1.7725
6 26 12 12.4459 3.1642
6 26 14 9.6367 0.4763
6 26 16 -13.0852 -4.1861
6 26 18 -8.6277 -3.3477
6 26 20 -19.3918 1.3097
6 26 22 0.8553 1.3989
6 26 24 0.1511 9.7228
6 26 26 0.9997 -0.8877
6 28 6 12.2241 -5.8135
6 28 8 -3.5300 -5.4196
6 28 10 -0.7514 -0.8230
6 28 12 -8.9190 -2.2956
6 28 14 -15.1197 -1.2348
6 28 16 3.3289 -1.4250
6 28 18 -5.2067 5.3555
6 28 20 17.5665 0.3052
6 28 22 3.5592 -1.9426
6 28 24 -6.9639 -3.5125
6 28 26 12.6141 -4.9594
6 28 28 9.7197 0.7587
6 30 6 -15.6868 2.5297
6 30 8 -3.3865 17.5711
6 30 10 -17.7999 1.0129
6 30 12 -13.9806 0.9726
6 30 14 12.3749 -1.5905
6 30 16 -3.0706 3.3193
6 30 18 7.2793 1.0740
6 30 20 -1.2996 -5.8798
6 30 22 -3.4975 -0.5030
6 30 24 8.6875 4.5124
6 30 26 -6.4564 3.9819
6 30 28 6.8595 0.6392
6 30 30 -11.0468 -2.5011
6 32 6 14.2615 19.0367
6 32 8 -11.3323 -1.3551
6 32 10 -0.1309 4.6404
6 32 12 5.7440 0.2052
6 32 14 -10.8113 -0.8283
6 32 16 9.4800 1.6975
6 32 18 -13.0800 -4.0326
6 32 20 6.4513 1.2053
6 32 22 12.2818 3.6566
6 32 24 -1.3701 -0.0218
6 32 26 -3.1660 -2.7644
6 32 28 10.6053 2.1610
6 32 30 3.8019 2.0240
6 32 32 -17.4979 1.8421
6 34 6 -4.8634 3.8552
6 34 8 -9.4891 -10.7380
6 34 10 -2.6978 -1.6737
6 34 12 -18.4899 -1.9897
6 34 14 5.1707 1.7372
6 34 16 -7.2495 -1.4704
6 34 18 -10.9278 3.9870
6 34 20 22.6248 3.2856
6 34 22 -14.1135 -3.0661
6 34 24 6.6839 -0.6292
6 34 26 -9.3706 -0.5698
6 34 28 -17.0968 -2.2935
6 34 30 -7.1275 -1.4984
6 34 32 -7.3275 -5.7642
6 36 6 7.1778 1.6606
6 36 8 -2.5269 3.4740
6 36 10 0.0648 -0.3587
6 36 12 17.4530 2.6101
6 36 14 4.1571 -1.2544
6 36 16 4.5096 0.6665
6 36 18 -1.9627 3.1303
6 36 20 -10.1936 -1.7390
6 36 22 0.0756 -2.9009
6 36 24 -9.1564 1.6575
6 36 26 -4.1090 -1.6230
6 36 28 18.1445 -1.1546
6 36 30 3.8638 0.9438
6 38 6 13.0569 -6.3117
6 38 8 -8.8595 -11.7356
6 38 10 32.8509 -0.8232
6 38 12 -0.6056 -4.7757
6 38 14 -2.1685 -2.2848
6 38 16 5.7170 3.5106
6 38 18 -23.7560 -3.6866
6 38 20 5.7111 -4.1916
6 38 22 -3.1897 3.1174
6 38 24 0.9481 -4.1068
6 38 26 -16.7590 1.1218
6 40 6 -4.4671 -16.4931
6 40 8 28.7470 -0.1938
6 40 10 -4.5207 -3.6927
6 40 12 9.1178 0.4835
6 40 14 0.8891 6.4687
6 40 16 13.6252 0.9148
6 40 18 6.8366 -0.2125
6 40 20 1.2024 -2.2149
6 40 22 -3.2418 -3.3135
6 40 24 -16.9892 2.6516
6 42 6 23.8801 1.1806
6 42 8 3.6033 10.6888
6 42 10 23.5156 1.3323
6 42 12 2.3954 7.0591
6 42 14 17.7348 3.8571
6 42 16 10.7526 1.0735
6 42 18 -19.1647 0.3264
6 42 20 -3.2400 -5.3014
6 44 6 -11.2552 -1.3336
6 44 8 8.1185 0.8434
6 44 10 -7.6637 3.2024
6 44 12 -2.5221 -7.0044
6 44 14 -0.8420 -2.6875
6 44 16 15.7229 1.6478
6 46 6 -15.0764 2.0087
6 46 8 6.4357 7.6636
7 7 7 -86.2035 -8.7195
7 9 7 -0.4892 -27.8872
7 9 9 -32.8452 -17.5668
7 11 7 -41.1417 -2.8944
7 11 9 -0.8696 -10.3585
7 11 11 12.9860 18.0426
7 13 7 38.1300 -8.0247
7 13 9 -5.6216 -15.5421
7 13 11 55.3739 -3.8713
7 13 13 22.2413 -5.1194
7 15 7 -14.7150 -8.7648
7 15 9 13.1916 12.3698
7 15 11 27.4081 -5.7149
7 15 13 -7.8857 15.1174
7 15 15 3.9368 4.8314
7 17 7 1.1723 14.3375
7 17 9 14.5173 11.2076
7 17 11 32.6943 -3.8363
7 17 13 21.6725 5.0865
7 17 15 5.0271 -8.6206
7 17 17 10.7503 -2.7826
7 19 7 -64.2881 5.4288
7 19 9 -2.9703 -11.0729
7 19 11 -20.1868 0.5346
7 19 13 -26.4886 -0.9027
7 19 15 -16.8051 -4.3958
7 19 17 4.2197 10.9483
7 19 19 1.4186 4.0489
7 21 7 -14.3731 12.3441
7 21 9 3.7550 4.3487
7 21 11 -4.7245 6.1013
7 21 13 -16.0311 -0.4792
7 21 15 12.1805 0.0809
7 21 17 -4.5575 1.3410
7 21 19 12.5114 -5.4524
7 21 21 28.2467 -10.0790
7 23 7 -24.3114 14.8409
7 23 9 2.4089 -8.6583
7 23 11 -2.4600 3.7027
7 23 13 8.8126 -5.5879
7 23 15 -1.8292 -2.4973
7 23 17 1.4396 3.1262
7 23 19 5.3622 3.4986
7 23 21 4.4683 10.2523
7 23 23 -11.1703 9.0337
7 25 7 -18.3420 -12.2792
7 25 9 -4.2188 -6.0208
7 25 11 0.2103 -3.0910
7 25 13 -7.5991 -0.6678
7 25 15 9.1738 3.2701
7 25 17 6.2873 5.7964
7 25 19 7.8962 -1.3609
7 25 21 9.6115 -3.4573
7 25 23 -10.3141 -5.6572
7 25 25 5.5419 -9.0970
7 27 7 -9.7198 -9.7860
7 27 9 8.0044 4.8760
7 27 11 -9.7109 1.6226
7 27 13 24.2289 -1.6716
7 27 15 6.0027 -0.5993
7 27 17 21.0152 -4.8128
7 27 19 15.3844 -4.7642
7 27 21 -6.6992 2.5541
7 27 23 3.4799 2.3340
7 27 25 -7.4955 7.0563
7 27 27 -20.3764 6.7275
7 29 7 6.9812 -9.3202
7 29 9 -1.3775 -10.6071
7 29 11 7.8014 -3.8950
7 29 13 27.1080 -3.0532
7 29 15 -1.5064 1.9301
7 29 17 18.7861 0.4835
7 29 19 -14.1145 3.3057
7 29 21 8.9734 1.7643
7 29 23 1.9268 -0.3676
7 29 25 -12.8556 -3.7943
7 29 27 10.6865 -8.2414
7 29 29 -13.1722 -2.3165
7 31 7 -9.8778 -12.9291
7 31 9 0.4915 11.9298
7 31 11 -1.8616 0.5162
7 31 13 28.8457 4.4880
7 31 15 6.7071 1.9424
7 31 17 2.8056 -2.1636
7 31 19 -2.6377 -2.8851
7 31 21 3.9331 -3.2353
7 31 23 -19.7703 -2.4062
7 31 25 -7.4993 -0.5812
7 31 27 -7.4585 0.3228
7 31 29 9.2335 7.2041
7 31 31 -3.3034 0.1356
7 33 7 18.0339 8.3079
7 33 9 3.7563 9.9632
7 33 11 1.8580 5.2087
7 33 13 20.3438 3.0009
7 33 15 -12.5413 -3.3595
7 33 17 -1.6586 -2.6378
7 33 19 -4.2987 -1.0130
7 33 21 -13.1979 2.2719
7 33 23 -9.5850 -0.8738
7 33 25 -2.4546 -1.0013
7 33 27 1.1592 0.5346
7 33 29 -6.7698 -0.0724
7 33 31 -10.0074 -4.3450
7 33 33 -0.5629 0.0333
7 35 7 -11.9609 4.1920
7 35 9 -14.0091 -5.8114
7 35 11 7.0638 -2.1386
7 35 13 0.3073 -4.4524
7 35 15 14.5939 0.0108
7 35 17 1.9601 1.3857
7 35 19 -5.5654 0.8993
7 35 21 9.9928 3.5782
7 35 23 -10.1551 -0.4900
7 35 25 -0.5420 -1.3628
7 35 27 10.9564 2.3796
7 35 29 13.7401 -2.2142
7 35 31 -3.6398 -1.3374
7 37 7 -2.1246 11.4465
7 37 9 -2.1281 4.8614
7 37 11 0.2979 -0.0059
7 37 13 5.8998 1.2655
7 37 15 1.9217 -1.8520
7 37 17 -11.4104 -1.8222
7 37 19 -8.8464 4.7398
7 37 21 -0.5858 3.7967
7 37 23 1.6670 0.4474
7 37 25 4.5635 4.2043
7 37 27 1.9248 -3.4392
7 39 7 15.2024 11.7657
7 39 9 11.2190 -6.4464
7 39 11 7.2138 3.8902
7 39 13 -7.8810 -3.0654
7 39 15 5.9346 -0.7677
7 39 17 0.7214 0.0959
7 39 19 5.8647 1.6623
7 39 21 11.4231 -2.5517
7 39 23 -6.9810 7.2090
7 39 25 -11.2382 -13.9872
7 41 7 -1.7369 -13.9371
7 41 9 -8.9085 -5.7985
7 41 11 -8.0820 -4.5530
7 41 13 -2.8555 -5.4612
7 41 15 16.3577 0.6444
7 41 17 -5.6276 -3.5255
7 41 19 -5.2933 5.1997
7 41 21 9.6969 8.0993
7 43 7 9.8931 -6.6524
7 43 9 -1.1260 0.5150
7 43 11 1.7690 -3.2979
7 43 13 -1.1595 1.1814
7 43 15 -5.3153 -4.9850
7 43 17 -2.4302 2.8354
7 45 7 -3.6217 -3.0196
7 45 9 -16.0627 0.2774
7 45 11 -1.6314 -3.0377
8 8 8 62.0733 -18.0627
8 10 8 10.0738 -6.1154
8 10 10 -15.1078 -29.1993
8 12 8 -30.5020 -5.3497
8 12 10 -16.4297 0.5150
8 12 12 -56.7832 17.6200
8 14 8 16.1628 -6.5107
8 14 10 -15.4196 -14.6672
8 14 12 -11.1126 6.2550
8 14 14 3.4909 -20.2937
8 16 8 -11.1811 -19.1702
8 16 10 -25.6610 -0.8203
8 16 12 -4.5884 -3.9547
8 16 14 -25.7268 7.4860
8 16 16 -5.4773 10.1094
8 18 8 -10.7950 -6.2081
8 18 10 -1.1173 16.2584
8 18 12 12.0353 -0.9508
8 18 14 5.8926 6.5241
8 18 16 3.4201 -1.2679
8 18 18 13.3956 -15.9927
8 20 8 26.3714 -9.8018
8 20 10 -16.9174 -6.5528
8 20 12 26.5441 -1.8999
8 20 14 -5.1059 -2.4430
8 20 16 -0.8437 -1.7064
8 20 18 1.1570 -1.5558
8 20 20 -10.9755 17.0649
8 22 8 14.5518 1.4246
8 22 10 -2.8693 10.0130
8 22 12 13.1314 4.1470
8 22 14 -16.5234 4.2449
8 22 16 -6.5544 -1.4837
8 22 18 -4.9311 -2.7454
8 22 20 8.0119 0.6215
8 22 22 1.5300 -20.8383
8 24 8 10.7074 24.7627
8 24 10 23.1424 1.9683
8 24 12 -5.0241 4.6880
8 24 14 2.1973 -0.8034
8 24 16 -12.8779 -9.7075
8 24 18 1.2600 -0.9811
8 24 20 1.4594 -3.1799
8 24 22 -12.7360 -2.0076
8 24 24 -3.7211 18.4342
8 26 8 14.9831 3.0241
8 26 10 -10.4101 -16.1366
8 26 12 5.8772 2.0604
8 26 14 -9.5226 0.2012
8 26 16 -9.1570 -1.8575
8 26 18 -4.4435 4.1373
8 26 20 -3.8616 -1.2037
8 26 22 15.7569 1.4149
8 26 24 13.8559 1.7568
8 26 26 8.7395 -16.3537
8 28 8 -8.0880 1.8770
8 28 10 13.5809 5.5992
8 28 12 -13.0567 6.2993
8 28 14 1.6891 0.9647
8 28 16 -6.6681 -1.5182
8 28 18 -18.5364 -1.4801
8 28 20 5.9458 -3.4456
8 28 22 2.3617 3.6856
8 28 24 7.6216 0.2091
8 28 26 -4.5723 -2.2545
8 28 28 27.2483 12.2703
8 30 8 10.6948 -2.4790
8 30 10 -3.5736 -7.4561
8 30 12 1.7364 -0.9121
8 30 14 -1.6496 -1.4512
8 30 16 -13.9499 -0.8473
8 30 18 4.7164 4.0338
8 30 20 5.4606 3.0217
8 30 22 1.4288 -0.0092
8 30 24 -3.4527 -0.4218
8 30 26 -5.1116 1.1358
8 30 28 -0.6734 1.3786
8 30 30 2.1247 -9.2492
8 32 8 0.4988 -21.8811
8 32 10 -13.0878 -3.0763
8 32 12 -1.5356 -0.7528
8 32 14 -16.8459 -0.0925
8 32 16 6.9490 2.4876
8 32 18 2.2396 2.0745
8 32 20 12.6076 -2.1162
8 32 22 -5.0514 -1.3569
8 32 24 6.2043 -3.3124
8 32 26 0.7463 -1.8883
8 32 28 2.7576 -3.9022
8 32 30 -2.9206 2.1454
8 32 32 -3.8601 8.1131
8 34 8 -5.7501 -3.7628
8 34 10 -5.0853 4.7708
8 34 12 -8.4100 2.6957
8 34 14 -9.3481 3.1215
8 34 16 -2.2629 -0.7269
8 34 18 5.6026 -3.7814
8 34 20 3.2204 0.0162
8 34 22 12.5570 1.5478
8 34 24 -2.6907 -0.5010
8 34 26 -8.8510 5.7469
8 34 28 12.0061 1.3652
8 34 30 3.3609 1.7351
8 36 8 -1.1927 -4.1482
8 36 10 -8.7204 -0.3695
8 36 12 13.4121 2.8468
8 36 14 1.3790 -2.0141
8 36 16 12.6302 0.8688
8 36 18 5.2548 0.5180
8 36 20 -1.1195 0.1050
8 36 22 17.3385 -0.8776
8 36 24 -6.9333 -1.7114
8 36 26 16.3914 -0.8812
8 36 28 -3.0992 1.1011
8 38 8 2.3512 4.4310
8 38 10 -3.5222 11.1391
8 38 12 4.3704 1.0282
8 38 14 -2.2970 1.5139
8 38 16 4.3277 -1.1298
8 38 18 1.6773 -0.6542
8 38 20 11.2482 -0.2416
8 38 22 -3.0159 -3.2346
8 38 24 -19.1090 -0.8489
8 38 26 2.7235 9.7906
8 40 8 2.4220 19.2171
8 40 10 -13.3407 0.7475
8 40 12 8.5684 3.3003
8 40 14 5.3590 -3.1457
8 40 16 1.5650 -1.3179
8 40 18 18.2947 0.3175
8 40 20 -7.5303 -6.8469
8 40 22 18.4687 3.4607
8 42 8 -7.8687 2.4099
8 42 10 -1.0531 -8.1870
8 42 12 4.5244 -2.6971
8 42 14 -2.5928 0.4764
8 42 16 -4.2748 0.4723
8 42 18 -4.8685 -5.4754
8 42 20 12.9238 5.8302
8 44 8 1.0246 -0.6240
8 44 10 13.0468 0.9264
8 44 12 -1.8903 4.1035
8 44 14 13.5440 0.4753
9 9 9 35.8289 -16.2499
9 11 9 26.6316 4.0737
9 11 11 25.0601 -11.4553
9 13 9 15.4481 -0.2136
9 13 11 7.6758 1.2738
9 13 13 -4.5476 4.3171
9 15 9 29.9851 6.5687
9 15 11 7.7096 -10.5936
9 15 13 0.5085 15.5930
9 15 15 -11.4883 -10.2557
9 17 9 9.9285 -10.0896
9 17 11 -8.4797 -15.8781
9 17 13 -11.1810 3.9978
9 17 15 -10.0450 -4.6833
9 17 17 -2.4816 10.3152
9 19 9 7.9707 -10.2159
9 19 11 -3.0573 6.9414
9 19 13 12.4701 9.7086
9 19 15 -1.9066 0.3128
9 19 17 11.0204 9.1790
9 19 19 -1.6292 -9.8590
9 21 9 7.2977 -14.0404
9 21 11 -1.8139 -4.6842
9 21 13 -2.6690 -5.8972
9 21 15 -11.6108 -4.9965
9 21 17 3.9116 3.8120
9 21 19 10.2098 -5.4908
9 21 21 9.0477 5.4913
9 23 9 -17.8866 -18.8393
9 23 11 -1.7400 4.7124
9 23 13 -1.3786 -4.1024
9 23 15 -11.2037 10.7907
9 23 17 19.4004 7.3356
9 23 19 -1.8919 -1.5993
9 23 21 0.4009 7.7099
9 23 23 -11.2559 -6.9544
9 25 9 2.9467 12.2643
9 25 11 15.2405 3.7691
9 25 13 8.9862 0.5576
9 25 15 8.3662 7.8110
9 25 17 -8.2582 -5.6008
9 25 19 -7.9397 -5.5026
9 25 21 -4.4270 0.0077
9 25 23 -0.8075 -9.6705
9 25 25 2.4709 6.6787
9 27 9 6.4982 8.9301
9 27 11 -0.6137 -8.9235
9 27 13 -0.1732 0.7887
9 27 15 -15.2779 -1.9275
9 27 17 -3.6756 -5.2417
9 27 19 -7.9910 2.8633
9 27 21 -1.1097 0.6718
9 27 23 -7.2328 -1.0215
9 27 25 2.8235 7.6535
9 27 27 -2.5092 -7.2213
9 29 9 -0.9011 9.5439
9 29 11 3.1908 6.9828
9 29 13 -3.8269 0.1362
9 29 15 2.3576 -0.7169
9 29 17 -19.6760 -1.1904
9 29 19 -1.3684 -0.6032
9 29 21 -18.2557 -4.8527
9 29 23 -12.9817 -0.7127
9 29 25 -14.1018 2.9726
9 29 27 0.3222 -6.2128
9 29 29 -7.3012 6.1671
9 31 9 5.7285 13.2532
9 31 11 -7.7882 -7.5667
9 31 13 -1.4100 -1.1351
9 31 15 -2.7062 0.7985
9 31 17 -6.6474 -4.6942
9 31 19 6.8290 0.1161
9 31 21 -10.5982 0.2653
9 31 23 1.9972 4.3988
9 31 25 7.3232 5.8601
9 31 27 -2.2052 1.8759
9 31 29 10.6496 7.4323
9 31 31 10.2192 -9.0019
9 33 9 -0.0964 -8.2053
9 33 11 -4.0378 -5.7117
9 33 13 -7.6251 -0.9715
9 33 15 -9.5808 -0.9706
9 33 17 2.9996 3.8716
9 33 19 5.1378 3.2318
9 33 21 8.1126 1.8829
9 33 23 -1.1427 2.9556
9 33 25 -9.4383 -3.5728
9 33 27 -0.2128 -7.9348
9 33 29 15.5519 -1.4870
9 33 31 -15.2905 -3.9816
9 35 9 0.7264 -7.0375
9 35 11 -2.5011 4.9193
9 35 13 3.5800 1.8778
9 35 15 10.2831 0.4895
9 35 17 1.3582 2.8184
9 35 19 4.0094 -2.9115
9 35 21 -2.8803 0.5682
9 35 23 -0.4202 -1.5367
9 35 25 3.7435 -5.1802
9 35 27 15.5813 2.3752
9 35 29 -1.1008 -2.1409
9 37 9 8.5418 -9.6953
9 37 11 -6.8222 -5.2317
9 37 13 -7.6328 -1.0059
9 37 15 -16.3558 -2.4862
9 37 17 -11.0031 0.5178
9 37 19 4.2937 1.3493
9 37 21 3.8591 -2.6609
9 37 23 3.3881 3.4041
9 37 25 -1.0803 -0.5348
9 37 27 2.2630 -2.4837
9 39 9 -14.4143 -10.8625
9 39 11 -5.5066 3.2267
9 39 13 -0.3152 -1.8712
9 39 15 1.2554 5.5221
9 39 17 14.5173 2.6928
9 39 19 4.9891 -1.4481
9 39 21 5.8559 -3.0563
9 39 23 0.9074 -8.4047
9 39 25 2.4967 -9.4214
9 41 9 -0.4086 9.2091
9 41 11 -1.1390 7.9970
9 41 13 -1.6256 4.9092
9 41 15 -5.0742 0.7285
9 41 17 -1.7194 1.6300
9 41 19 0.2538 0.5650
9 41 21 2.3961 -9.5649
9 43 9 0.4542 7.6385
9 43 11 -3.1666 -2.5016
9 43 13 1.8207 -4.6083
9 43 15 1.7811 1.3936
9 43 17 -0.3911 -1.0217
9 45 9 13.4307 5.7721
9 45 11 -5.3419 -1.0833
10 10 10 21.9876 -0.3772
10 12 10 4.8812 -0.1466
10 12 12 0.6119 8.5888
10 14 10 -17.7562 -3.1300
10 14 12 -14.5886 -4.1889
10 14 14 -12.6781 -0.1594
10 16 10 -0.2434 18.7356
10 16 12 6.5925 -6.2667
10 16 14 3.9498 11.3392
10 16 16 19.1181 4.3421
10 18 10 1.8509 5.5298
10 18 12 0.9272 -16.4531
10 18 14 8.9247 7.8942
10 18 16 -5.8603 -13.2099
10 18 18 8.1510 0.4629
10 20 10 1.8296 -0.6699
10 20 12 9.8432 -2.6517
10 20 14 6.4444 6.3363
10 20 16 -1.2229 -2.3114
10 20 18 10.5019 7.0757
10 20 20 -12.9915 5.3001
10 22 10 17.3053 -4.5604
10 22 12 -3.4789 -5.5886
10 22 14 0.1862 -1.3537
10 22 16 -5.4444 -10.2331
10 22 18 -9.5991 0.4056
10 22 20 -10.5303 -2.0124
10 22 22 -6.8991 -12.7624
10 24 10 -0.3200 -19.0684
10 24 12 -1.6409 3.3706
10 24 14 5.5786 -3.7423
10 24 16 -11.5360 2.1291
10 24 18 16.0219 10.3320
10 24 20 7.5886 3.3374
10 24 22 13.4778 1.9978
10 24 24 10.0712 7.9309
10 26 10 6.0351 -5.2800
10 26 12 -7.7874 9.2573
10 26 14 -2.9389 0.3470
10 26 16 11.4260 5.6687
10 26 18 -0.7896 1.8643
10 26 20 11.0958 -6.2525
10 26 22 -8.1795 -1.8617
10 26 24 2.5258 -6.5325
10 26 26 7.2938 -7.6493
10 28 10 -27.5670 -3.9717
10 28 12 -17.2092 -5.2947
10 28 14 -4.6159 -2.0241
10 28 16 -4.4523 -0.9547
10 28 18 2.3295 -2.8479
10 28 20 10.6277 -1.0177
10 28 22 3.8514 2.4943
10 28 24 13.7356 2.1669
10 28 26 9.5568 5.7233
10 28 28 -1.2628 2.1949
10 30 10 -29.8886 3.6352
10 30 12 -5.1087 10.3261
10 30 14 -3.8497 0.0559
10 30 16 2.5435 5.2607
10 30 18 -2.2096 1.2577
10 30 20 6.4527 0.2216
10 30 22 -9.2767 0.8984
10 30 24 3.1362 -4.4002
10 30 26 -11.2369 -0.8302
10 30 28 1.9331 -6.8659
10 30 30 16.8263 1.6804
10 32 10 10.1378 14.2140
10 32 12 -3.8089 1.1393
10 32 14 6.5512 3.7318
10 32 16 11.0347 -0.2351
10 32 18 -1.6771 -6.0347
10 32 20 7.7134 -1.2424
10 32 22 6.7611 -3.6122
10 32 24 2.1301 0.5078
10 32 26 2.6692 5.3055
10 32 28 29.5468 2.9995
10 32 30 2.5101 9.0095
10 32 32 -1.3177 0.9131
10 34 10 -15.4439 2.1379
10 34 12 -0.5506 -9.6729
10 34 14 -12.8632 -3.0659
10 34 16 6.6423 -8.6344
10 34 18 -21.9856 1.0770
10 34 20 -6.6449 4.2711
10 34 22 -21.8700 1.1749
10 34 24 6.7668 4.6713
10 34 26 16.0888 0.8747
10 34 28 7.8632 -3.4532
10 34 30 -3.0238 4.5293
10 36 10 6.8965 -2.2996
10 36 12 -2.2324 2.3740
10 36 14 -5.0118 -0.4920
10 36 16 -5.2359 -1.0383
10 36 18 -2.6315 0.5157
10 36 20 -13.0026 -0.8025
10 36 22 0.8134 5.1408
10 36 24 4.5437 -1.4527
10 36 26 4.1137 -1.6786
10 36 28 19.4224 0.0955
10 38 10 17.2594 -1.4781
10 38 12 -0.8782 -2.7817
10 38 14 -2.3549 0.3184
10 38 16 -9.1037 -2.7699
10 38 18 -5.1633 -1.5084
10 38 20 -12.7848 1.7098
10 38 22 7.2643 -0.5571
10 38 24 7.6636 1.7432
10 38 26 9.4313 -8.4526
10 40 10 -11.8711 -12.2444
10 40 12 0.2764 -3.4323
10 40 14 -9.3326 -1.9397
10 40 16 8.6033 -0.7157
10 40 18 -1.2761 3.2519
10 40 20 3.1216 1.3312
10 40 22 -0.3594 5.3958
10 42 10 23.1536 -2.0587
10 42 12 7.8460 3.4975
10 42 14 4.9722 1.5677
10 42 16 0.5597 -4.9609
10 42 18 -17.5527 -3.0260
10 44 10 -4.8542 -0.3568
10 44 12 0.1964 1.0340
10 44 14 -8.4368 1.0452
11 11 11 -19.3996 3.3708
11 13 11 38.3128 -4.8298
11 13 13 27.1920 7.7112
11 15 11 -2.0450 -8.5534
11 15 13 -10.6322 -3.3259
11 15 15 -17.7571 2.1636
11 17 11 12.1971 11.0695
11 17 13 4.0971 6.2834
11 17 15 -14.2030 8.2771
11 17 17 23.8713 5.9781
11 19 11 12.7807 10.5596
11 19 13 10.8342 -9.4385
11 19 15 2.9909 2.2840
11 19 17 -1.2515 -6.1496
11 19 19 -13.5027 -0.1829
11 21 11 -2.1218 11.4233
11 21 13 -18.9443 6.1799
11 21 15 0.3315 2.3759
11 21 17 8.7102 3.2390
11 21 19 -17.0374 -2.3410
11 21 21 6.6532 10.5493
11 23 11 -12.3881 9.8279
11 23 13 6.9495 -7.3378
11 23 15 9.2046 4.0097
11 23 17 -4.0300 -6.9656
11 23 19 2.3061 -6.0843
11 23 21 -1.6314 3.6294
11 23 23 -20.4768 -14.0683
11 25 11 4.3816 -11.9668
11 25 13 0.6288 -11.5842
11 25 15 -2.4010 -2.7406
11 25 17 4.8522 -2.8505
11 25 19 12.0962 2.1899
11 25 21 -16.6567 5.0577
11 25 23 -10.8851 -0.9521
11 25 25 -3.2452 9.0155
11 27 11 -40.2295 -12.7711
11 27 13 0.3792 9.0754
11 27 15 4.4479 4.2630
11 27 17 -3.8171 -0.2890
11 27 19 8.4031 2.5785
11 27 21 -19.4663 4.0171
11 27 23 -3.2901 -0.6924
11 27 25 -1.7516 -0.6403
11 27 27 -5.8573 -6.2230
11 29 11 5.9726 -6.4421
11 29 13 15.6535 -2.4668
11 29 15 -0.6802 -0.5355
11 29 17 0.8591 -3.8187
11 29 19 -4.7051 1.5274
11 29 21 -9.3222 -0.3741
11 29 23 -3.4954 0.4229
11 29 25 -10.1795 0.8788
11 29 27 -14.3138 0.7354
11 29 29 10.0120 4.1431
11 31 11 -8.4940 -8.5102
11 31 13 4.2723 3.4720
11 31 15 -6.4908 -1.3914
11 31 17 -3.4506 2.4954
11 31 19 8.4768 4.0712
11 31 21 -2.6934 -2.0980
11 31 23 1.9738 2.6611
11 31 25 -2.6514 -4.9648
11 31 27 1.3735 4.0227
11 31 29 11.6044 -4.6949
11 31 31 -15.5488 -3.2791
11 33 11 -10.1619 9.6215
11 33 13 -1.1009 4.7968
11 33 15 -6.9613 3.5901
11 33 17 -3.0761 0.7613
11 33 19 -17.1758 -4.8089
11 33 21 -1.6355 -1.2381
11 33 23 5.7738 -0.9019
11 33 25 -0.9514 -1.7502
11 33 27 14.8012 1.6862
11 33 29 -8.1788 0.9850
11 33 31 4.4980 -2.5856
11 35 11 7.9463 6.2511
11 35 13 -4.8348 -0.9191
11 35 15 1.1124 0.6348
11 35 17 -12.7877 -3.3446
11 35 19 -9.9964 -3.7837
11 35 21 -2.4134 3.5750
11 35 23 -4.0118 -2.0404
11 35 25 13.6671 0.5511
11 35 27 -3.5140 1.8570
11 35 29 16.8101 -9.1730
11 37 11 -8.3133 6.5168
11 37 13 5.7830 7.3956
11 37 15 -16.7318 0.0457
11 37 17 -6.9378 -0.2166
11 37 19 -26.9592 0.0535
11 37 21 -3.1095 4.3862
11 37 23 3.1548 -0.2775
11 37 25 -0.4724 -0.2834
11 37 27 6.9879 4.4877
11 39 11 4.7118 6.9157
11 39 13 -12.0611 -6.3509
11 39 15 6.4753 -0.4246
11 39 17 1.5532 0.9029
11 39 19 -8.2153 -0.2135
11 39 21 6.1498 -1.8329
11 39 23 -7.8744 -2.1936
11 41 11 -17.6997 -5.7892
11 41 13 7.9851 -5.3660
11 41 15 -4.9755 -1.0109
11 41 17 -5.2766 1.0739
11 41 19 5.4954 -2.5405
11 43 11 7.9660 -3.7706
11 43 13 -5.2151 5.0611
11 43 15 2.8723 0.7073
12 12 12 -28.4054 2.8991
12 14 12 4.0561 -4.8912
12 14 14 19.0583 -2.9430
12 16 12 -10.7361 -19.2023
12 16 14 -6.1608 -7.3765
12 16 16 -9.9387 6.4928
12 18 12 -1.7875 -10.2974
12 18 14 16.9726 9.4374
12 18 16 -14.2478 9.3991
12 18 18 0.2230 -4.1115
12 20 12 20.0170 1.9305
12 20 14 -6.8469 0.3290
12 20 16 -4.4275 -1.7797
12 20 18 5.9214 -4.1303
12 20 20 -25.9538 6.7478
12 22 12 -23.4235 0.4948
12 22 14 3.1818 8.3891
12 22 16 -12.1653 -2.0428
12 22 18 5.0770 7.4473
12 22 20 20.8364 -2.5161
12 22 22 8.5390 -6.5963
12 24 12 -6.9531 14.7464
12 24 14 0.2504 1.4172
12 24 16 -9.2826 3.9847
12 24 18 23.7551 1.4639
12 24 20 1.0597 -4.2421
12 24 22 1.6966 0.1936
12 24 24 3.1174 -0.6977
12 26 12 -5.5311 3.9899
12 26 14 -9.5222 -10.1048
12 26 16 0.8600 -1.1148
12 26 18 0.2884 -1.8650
12 26 20 5.3349 -2.6965
12 26 22 6.4316 3.9129
12 26 24 18.4822 -0.4937
12 26 26 10.9023 -4.2707
12 28 12 -8.6186 -0.5772
12 28 14 15.3065 -0.6396
12 28 16 -0.0482 2.5595
12 28 18 -20.6064 -0.4429
12 28 20 -2.2544 -3.0198
12 28 22 -17.6693 2.4297
12 28 24 6.5174 -1.2157
12 28 26 3.9192 2.4716
12 28 28 6.1702 3.9640
12 30 12 -7.4402 -2.4600
12 30 14 -6.0022 -9.0934
12 30 16 -4.2783 0.1369
12 30 18 -1.6054 -1.9267
12 30 20 13.5080 0.6554
12 30 22 -0.5412 0.2693
12 30 24 1.7289 0.3962
12 30 26 4.1909 4.2441
12 30 28 2.8705 -0.4208
12 30 30 -11.9832 -1.5420
12 32 12 -15.7789 -16.1379
12 32 14 -2.5692 1.1295
12 32 16 10.6008 -0.4673
12 32 18 -0.4491 0.9175
12 32 20 14.4396 4.0121
12 32 22 19.9465 -1.0374
12 32 24 9.4390 1.8764
12 32 26 -6.7229 -0.6716
12 32 28 -3.7733 3.4601
12 32 30 -18.4671 -1.4958
12 32 32 -3.1006 10.4036
12 34 12 -5.0961 -1.0918
12 34 14 5.2593 6.1141
12 34 16 -1.7599 -0.0216
12 34 18 -4.1019 0.3177
12 34 20 -0.7746 1.0428
12 34 22 12.7099 -1.3327
12 34 24 -20.3440 2.9088
12 34 26 5.2968 3.4542
12 34 28 -7.5329 2.1293
12 34 30 -0.5666 8.5688
12 36 12 12.5831 -1.0091
12 36 14 -4.9132 -3.3950
12 36 16 -2.5034 -0.9586
12 36 18 -4.2833 -3.7596
12 36 20 -0.8094 -3.3793
12 36 22 5.5566 -0.9363
12 36 24 -3.3299 0.8339
12 36 26 -6.9089 -0.0599
12 36 28 -3.2504 5.5564
12 38 12 -2.7007 2.9093
12 38 14 -6.2419 7.3852
12 38 16 -2.7374 0.1441
12 38 18 -4.6623 -0.4557
12 38 20 4.5087 -7.0306
12 38 22 -0.4113 1.3136
12 38 24 0.9422 -5.6147
12 40 12 1.1170 10.9646
12 40 14 17.0408 0.1342
12 40 16 -17.7729 1.9747
12 40 18 5.1059 1.8171
12 40 20 -4.0582 1.8367
12 40 22 -4.6383 -0.1977
12 42 12 -3.5845 3.0647
12 42 14 -7.5425 -2.0626
12 42 16 0.5259 -1.2618
12 42 18 3.8454 -5.7382
12 44 12 7.0308 5.3747
13 13 13 -0.4449 -8.8871
13 15 13 -1.0499 7.7082
13 15 15 8.6786 -1.0620
13 17 13 -8.9777 -17.6541
13 17 15 -2.2582 -7.8615
13 17 17 -0.2378 1.6179
13 19 13 -19.3445 -17.2924
13 19 15 15.8721 3.2826
13 19 17 -5.6523 7.8137
13 19 19 -3.0209 -9.2527
13 21 13 16.5803 -5.4351
13 21 15 3.0536 -5.9418
13 21 17 13.4590 4.6877
13 21 19 11.2183 -7.4028
13 21 21 -11.7810 11.5348
13 23 13 -0.4820 -8.4665
13 23 15 -0.8530 8.6484
13 23 17 15.0760 -1.8863
13 23 19 -4.9576 2.2983
13 23 21 5.9402 7.5667
13 23 23 -17.4810 -12.5782
13 25 13 20.5132 6.6768
13 25 15 8.7170 8.5541
13 25 17 -2.9760 -1.3783
13 25 19 3.8215 3.8417
13 25 21 -14.1561 0.2816
13 25 23 -6.1948 -5.1908
13 25 25 -4.1364 7.3396
13 27 13 22.0553 7.6220
13 27 15 -9.6332 -3.7767
13 27 17 -7.9781 -3.2283
13 27 19 -15.5222 2.2409
13 27 21 -22.0614 -1.8293
13 27 23 -10.2168 -0.5010
13 27 25 -0.3829 6.8123
13 27 27 8.9224 -7.0531
13 29 13 -8.9012 11.0166
13 29 15 -0.0367 3.3852
13 29 17 -24.7500 -1.4276
13 29 19 0.3848 -0.6959
13 29 21 -10.0126 -2.8235
13 29 23 -10.3407 1.4986
13 29 25 4.4102 -1.8206
13 29 27 3.8381 -6.0573
13 29 29 5.1472 8.3029
13 31 13 15.3615 9.5036
13 31 15 0.7287 -9.2772
13 31 17 5.8534 2.9383
13 31 19 -15.6004 -0.8515
13 31 21 -6.6276 -0.2304
13 31 23 10.3583 2.4424
13 31 25 -2.0450 1.1019
13 31 27 3.1801 -3.3211
13 31 29 1.8391 6.3028
13 31 31 -5.9111 -1.9520
13 33 13 1.2183 -7.8613
13 33 15 -8.0504 -6.7928
13 33 17 7.5573 -1.1175
13 33 19 -3.8240 0.9805
13 33 21 16.4581 1.3068
13 33 23 -10.9108 1.2609
13 33 25 1.2392 -3.8414
13 33 27 13.2025 -2.8398
13 33 29 5.5155 -2.2332
13 33 31 -3.7028 -10.6063
13 35 13 1.8601 -5.5829
13 35 15 6.5134 5.4291
13 35 17 -6.9295 -0.7127
13 35 19 -0.7709 4.0197
13 35 21 0.4659 -1.4388
13 35 23 -6.3336 2.5338
13 35 25 -5.5462 -5.6916
13 35 27 -0.6113 -2.6755
13 35 29 2.3838 -3.4472
13 37 13 -12.4671 -7.0515
13 37 15 -7.8723 -1.2309
13 37 17 -2.5174 -0.5295
13 37 19 -2.2895 -1.2171
13 37 21 4.2378 3.9132
13 37 23 2.2676 -0.1159
13 37 25 4.5086 3.5091
13 39 13 3.6679 -4.5876
13 39 15 -2.7549 2.4624
13 39 17 -3.4537 0.3509
13 39 19 1.2548 3.2382
13 39 21 4.4033 2.5988
13 39 23 -0.0991 3.8750
13 41 13 -2.2869 2.9077
13 41 15 0.7582 -1.2002
13 41 17 13.2331 1.0163
13 41 19 3.3122 0.2849
13 43 13 2.1304 -3.8266
14 14 14 -1.1320 -5.2739
14 16 14 10.4039 21.2158
14 16 16 12.3587 11.0979
14 18 14 -1.7363 -8.8140
14 18 16 -10.4227 -0.7987
14 18 18 -3.1837 -7.1943
14 20 14 -17.6133 4.3617
14 20 16 -3.8819 -0.9071
14 20 18 -18.9792 4.5526
14 20 20 -15.4309 -6.9895
14 22 14 0.6928 -1.4640
14 22 16 8.0764 -11.3888
14 22 18 4.9488 5.0030
14 22 20 0.0864 -13.0134
14 22 22 10.5145 5.4283
14 24 14 -10.8395 -19.2818
14 24 16 3.9300 -0.1527
14 24 18 -4.2269 3.5132
14 24 20 10.3560 -1.8764
14 24 22 9.8646 10.7245
14 24 24 8.3054 -5.5147
14 26 14 -8.7478 -3.0177
14 26 16 3.6426 12.0857
14 26 18 -5.2855 -1.8359
14 26 20 24.6667 -2.9386
14 26 22 -10.8764 3.9621
14 26 24 7.9901 -10.5425
14 26 26 8.3343 2.2313
14 28 14 19.7962 0.0518
14 28 16 -0.4031 2.8771
14 28 18 19.9477 -4.0748
14 28 20 0.7524 1.9529
14 28 22 1.0171 4.8183
14 28 24 3.2325 2.2894
14 28 26 -3.2801 7.8388
14 28 28 14.0486 -3.5691
14 30 14 6.5771 3.7278
14 30 16 4.9816 8.5845
14 30 18 1.1412 -2.7614
14 30 20 3.6191 4.4732
14 30 22 0.4792 -2.2510
14 30 24 -10.9404 -3.4767
14 30 26 1.3276 0.7072
14 30 28 -7.1905 -4.7790
14 30 30 20.6619 -2.1266
14 32 14 18.7763 15.5683
14 32 16 12.9831 -3.2192
14 32 18 0.9523 -1.9046
14 32 20 22.4204 -2.2757
14 32 22 0.4510 -3.4605
14 32 24 -7.8741 -0.9641
14 32 26 1.0011 5.6290
14 32 28 17.3760 -0.6147
14 32 30 -0.5366 11.8994
14 34 14 15.4217 4.4271
14 34 16 10.2581 -7.4932
14 34 18 -14.9977 -3.3782
14 34 20 -5.3847 -3.8180
14 34 22 -10.1045 -0.1758
14 34 24 -11.4925 3.1874
14 34 26 14.5388 3.7666
14 34 28 -1.7646 6.3762
14 36 14 1.6119 1.5119
14 36 16 -6.0945 1.5175
14 36 18 8.4065 -1.3081
14 36 20 -3.0726 1.9010
14 36 22 -9.6299 0.0767
14 36 24 -0.9531 2.4103
14 36 26 -8.4494 2.5607
14 38 14 2.6858 -2.3248
14 38 16 -5.4173 -4.7500
14 38 18 -13.7716 -2.8104
14 38 20 10.8571 -3.0757
14 38 22 2.4415 -0.2040
14 38 24 7.0380 -0.6302
14 40 14 -9.2877 -9.8789
14 40 16 29.6909 2.9306
14 40 18 8.5962 -0.8200
14 40 20 13.2282 1.5702
14 42 14 -2.5838 0.5738
14 42 16 -0.9928 -4.9787
15 15 15 11.9274 12.1557
15 17 15 -3.9576 16.5357
15 17 17 0.9437 19.6650
15 19 15 6.2559 2.5444
15 19 17 1.1800 0.9503
15 19 19 -3.3432 -14.5742
15 21 15 -2.6718 13.5901
15 21 17 4.8356 9.9671
15 21 19 -28.3768 7.3517
15 21 21 16.2698 4.1611
15 23 15 7.2494 8.4894
15 23 17 -1.7902 -5.3583
15 23 19 0.3683 1.8709
15 23 21 -2.7375 -16.8278
15 23 23 -2.7847 -6.7957
15 25 15 0.6458 -8.5529
15 25 17 -22.4301 -10.7304
15 25 19 11.5470 2.7490
15 25 21 -14.0879 -2.5974
15 25 23 -7.1051 9.5608
15 25 25 3.7248 6.9399
15 27 15 -5.3278 -6.6307
15 27 17 -13.9428 5.6135
15 27 19 -4.5249 3.6343
15 27 21 -12.0105 -5.3758
15 27 23 -4.5795 0.3542
15 27 25 -6.2286 -9.5163
15 27 27 5.1826 -6.1414
15 29 15 -7.1980 -10.2214
15 29 17 -3.2584 -1.7497
15 29 19 3.2773 -2.8011
15 29 21 -3.3402 -4.7523
15 29 23 -0.4562 3.2416
15 29 25 1.5840 2.7249
15 29 27 -3.5780 7.6691
15 29 29 -3.1638 8.7208
15 31 15 -4.8442 -10.2452
15 31 17 2.2939 9.8442
15 31 19 2.4248 -0.0010
15 31 21 5.9947 4.8352
15 31 23 1.6578 5.4549
15 31 25 -14.7095 -4.0584
15 31 27 5.3049 -6.8479
15 31 29 -4.1910 -0.0309
15 31 31 -0.6498 -15.0637
15 33 15 11.1178 9.3864
15 33 17 -15.5104 7.9539
15 33 19 1.0691 0.6466
15 33 21 10.6552 2.4575
15 33 23 -4.2277 -2.0755
15 33 25 3.5385 -0.9330
15 33 27 -1.8269 -0.0120
15 33 29 1.9741 -7.8531
15 35 15 -21.3462 6.3871
15 35 17 -12.0569 -4.5630
15 35 19 8.4027 -1.0359
15 35 21 -2.3930 -0.4663
15 35 23 3.0960 -3.5581
15 35 25 5.7353 -1.3337
15 35 27 3.2988 -5.2095
15 37 15 0.3910 6.8930
15 37 17 5.7708 2.5447
15 37 19 -12.7862 2.6578
15 37 21 22.1104 -0.3816
15 37 23 1.0702 0.1620
15 37 25 -2.1994 -5.1103
15 39 15 12.9229 3.0890
15 39 17 5.2630 -5.1925
15 39 19 8.7516 -3.2455
15 39 21 -4.1692 -0.7085
15 41 15 5.7920 -2.9872
15 41 17 -3.1233 2.7827
16 16 16 10.2874 21.6134
16 18 16 -28.3449 4.0499
16 18 18 8.8465 17.3293
16 20 16 5.4127 6.0921
16 20 18 -12.5474 -5.2724
16 20 20 -9.1103 -14.3817
16 22 16 5.1101 2.6009
16 22 18 10.7760 13.7614
16 22 20 30.8549 3.1358
16 22 22 -2.2044 18.2029
16 24 16 -11.9474 13.1876
16 24 18 7.7330 7.4025
16 24 20 7.8918 -0.9201
16 24 22 2.2665 -6.1538
16 24 24 7.9289 -13.1878
16 26 16 -5.3606 4.1908
16 26 18 3.0757 -10.6835
16 26 20 19.0590 1.7826
16 26 22 2.6168 -1.7653
16 26 24 9.2588 -1.3885
16 26 26 3.0482 13.6073
16 28 16 4.4810 5.7958
16 28 18 -6.4391 -0.7640
16 28 20 6.1914 4.2333
16 28 22 -9.4796 0.2787
16 28 24 14.3762 -1.5750
16 28 26 0.3653 -2.6974
16 28 28 1.5656 -12.4424
16 30 16 20.0919 -2.5773
16 30 18 -4.3036 -9.8805
16 30 20 17.5204 -1.6339
16 30 22 -3.2548 -6.8632
16 30 24 -5.3721 1.2290
16 30 26 -0.5303 7.6468
16 30 28 -24.0576 -0.2793
16 30 30 -1.2600 14.1610
16 32 16 0.9136 -15.5684
16 32 18 -20.4261 -0.4539
16 32 20 8.7225 2.8612
16 32 22 9.5280 -1.2027
16 32 24 0.2347 5.8417
16 32 26 0.8803 -1.1674
16 32 28 0.7201 1.8134
16 32 30 -3.1141 2.2426
16 34 16 -13.5435 0.1775
16 34 18 8.6068 8.0874
16 34 20 13.5462 0.3271
16 34 22 -9.9160 -1.8649
16 34 24 -12.5788 1.5196
16 34 26 1.6768 -0.2265
16 34 28 -5.1869 -5.7386
16 36 16 10.9345 0.6157
16 36 18 3.3215 0.4397
16 36 20 9.4275 -3.4892
16 36 22 13.6361 4.7156
16 36 24 4.0017 -0.2984
16 36 26 -0.9601 1.9575
16 38 16 -14.3191 4.2954
16 38 18 -7.6132 3.6685
16 38 20 6.1618 2.6179
16 38 22 -3.5061 -0.8093
16 40 16 1.2690 3.8201
16 40 18 -0.3793 -0.8269
17 17 17 -18.6642 17.3784
17 19 17 3.6502 -4.9495
17 19 19 7.5588 3.9530
17 21 17 -9.4267 -0.0988
17 21 19 -8.5805 -7.3412
17 21 21 -10.6500 -6.2486
17 23 17 -6.3687 -11.0842
17 23 19 4.2898 9.2589
17 23 21 -7.7957 -10.3995
17 23 23 -3.7570 9.6376
17 25 17 -4.1544 9.3955
17 25 19 -4.9093 13.2411
17 25 21 2.1277 -5.0500
17 25 23 11.1438 4.6295
17 25 25 -5.3709 -7.1658
17 27 17 6.8365 9.0105
17 27 19 -0.4290 -5.4375
17 27 21 -1.6611 -4.7340
17 27 23 -2.5209 -1.1349
17 27 25 2.3927 -6.2912
17 27 27 10.6695 8.8137
17 29 17 -7.8003 13.1558
17 29 19 -3.9175 3.3242
17 29 21 15.1622 3.4742
17 29 23 18.8340 4.8222
17 29 25 4.7657 -5.5959
17 29 27 -3.7370 2.7526
17 29 29 0.9097 -5.6541
17 31 17 -2.3059 10.7416
17 31 19 2.4473 -8.6923
17 31 21 3.4430 0.6493
17 31 23 4.9109 -5.2250
17 31 25 -5.5941 -6.6066
17 31 27 8.9895 1.2560
17 31 29 -3.0644 -9.6377
17 31 31 4.9460 16.1026
17 33 17 -7.8076 -7.2485
17 33 19 7.8792 -7.4466
17 33 21 3.3851 2.0353
17 33 23 -5.9330 0.2205
17 33 25 5.4594 1.7794
17 33 27 6.3800 -1.3520
17 33 29 2.7660 19.7248
17 35 17 1.6602 -4.4776
17 35 19 10.0254 3.3755
17 35 21 -4.4540 2.3050
17 35 23 18.4052 -2.9077
17 35 25 2.1068 1.5845
17 37 17 -14.1547 -8.4885
17 37 19 -2.3976 -0.7056
17 37 21 4.1839 0.3171
17 37 23 -9.3824 0.5287
17 39 17 -6.6375 -4.3155
17 39 19 4.8139 3.1633
18 18 18 27.2118 2.8336
18 20 18 -12.4179 -0.4980
18 20 20 -39.1311 -6.1863
18 22 18 7.1721 1.5807
18 22 20 25.6858 1.6937
18 22 22 -0.2960 -1.8867
18 24 18 -38.2128 -14.7475
18 24 20 -11.4697 2.5333
18 24 22 -4.0760 -11.1040
18 24 24 -1.0484 -9.0554
18 26 18 14.3057 -1.6448
18 26 20 6.4879 12.2372
18 26 22 -2.1289 -2.1354
18 26 24 -2.4904 8.5263
18 26 26 13.7792 1.4929
18 28 18 -0.6573 -0.0596
18 28 20 -20.8938 1.7592
18 28 22 6.6194 -5.0773
18 28 24 -2.4312 -2.4184
18 28 26 4.3086 -5.4466
18 28 28 -7.2528 -2.5817
18 30 18 18.0497 4.6292
18 30 20 8.6848 4.9687
18 30 22 12.9386 -0.9875
18 30 24 -13.2854 7.3688
18 30 26 13.1290 3.1834
18 30 28 3.3626 2.4169
18 30 30 5.8702 6.5304
18 32 18 3.0120 15.7577
18 32 20 -16.6565 -0.2810
18 32 22 -5.1406 1.8003
18 32 24 0.9531 -2.8958
18 32 26 1.3653 -0.2550
18 32 28 -14.5453 0.8813
18 34 18 16.6531 4.2327
18 34 20 -4.6894 -6.4131
18 34 22 16.0169 1.2996
18 34 24 -6.2540 1.2742
18 34 26 10.8277 -0.7744
18 36 18 -12.5824 0.8479
18 36 20 1.6311 0.8759
18 36 22 -10.9199 -1.8654
18 36 24 -5.5423 3.1680
18 38 18 -11.7576 -3.1488
18 38 20 -7.6021 -7.2864
19 19 19 -6.2043 2.9742
19 21 19 5.8029 6.4196
19 21 21 18.5727 -5.2781
19 23 19 -8.5497 7.9769
19 23 21 2.9097 3.9329
19 23 23 -6.1362 -0.3273
19 25 19 21.2875 -6.7687
19 25 21 -7.6391 -2.5503
19 25 23 5.4291 -1.6415
19 25 25 -8.1830 -11.7683
19 27 19 -43.3943 -5.3727
19 27 21 -8.6408 4.6614
19 27 23 -3.0434 -0.7561
19 27 25 10.9616 4.4691
19 27 27 17.1091 0.4828
19 29 19 0.0240 -7.0268
19 29 21 7.8687 -3.5478
19 29 23 5.5769 -0.4406
19 29 25 10.6293 -4.6351
19 29 27 14.2796 -0.7728
19 29 29 13.0011 -7.6118
19 31 19 -17.5186 -8.2915
19 31 21 -15.6308 4.1885
19 31 23 4.3474 -0.7347
19 31 25 11.2231 3.9089
19 31 27 9.0099 -1.4901
19 31 29 -10.4792 5.7579
19 33 19 3.6405 7.5858
19 33 21 3.9168 5.6091
19 33 23 7.2195 -0.8871
19 33 25 0.4868 0.6655
19 33 27 -10.3405 1.7820
19 35 19 -9.6002 5.1867
19 35 21 11.6777 -3.4492
19 35 23 0.3018 1.4949
19 35 25 -9.8227 -4.9585
19 37 19 -3.2405 5.9082
19 37 21 1.9137 7.6289
20 20 20 30.0731 4.6915
20 22 20 -8.1187 7.2342
20 22 22 15.4197 2.0519
20 24 20 13.0163 17.4488
20 24 22 -31.2142 -2.5533
20 24 24 -8.4883 -4.9230
20 26 20 -19.1865 5.0145
20 26 22 -3.4873 -5.9275
20 26 24 -12.2733 0.1310
20 26 26 -1.6222 3.8374
20 28 20 8.7072 -3.0511
20 28 22 -2.4644 3.4968
20 28 24 5.7919 -1.2059
20 28 26 3.2945 0.9160
20 28 28 4.9701 -6.8298
20 30 20 -15.0830 -1.1221
20 30 22 0.1821 -6.4866
20 30 24 -0.2024 0.0162
20 30 26 12.9575 -3.3991
20 30 28 -5.2450 5.4187
20 30 30 11.8986 -4.3637
20 32 20 -9.9173 -10.9373
20 32 22 -9.4189 -1.4118
20 32 24 8.9616 2.7407
20 32 26 -20.2210 0.0547
20 32 28 12.7025 -4.9199
20 34 20 -4.3029 -2.8634
20 34 22 3.2764 2.4693
20 34 24 -13.6272 1.7075
20 34 26 -3.1264 4.1569
20 36 20 12.9541 -7.2464
20 36 22 -8.7640 -1.4977
21 21 21 13.4982 5.7125
21 23 21 -1.3294 -3.5875
21 23 23 -13.7028 5.6717
21 25 21 4.3178 12.3173
21 25 23 14.0651 -0.6674
21 25 25 -3.2689 -2.7880
21 27 21 13.6549 12.1526
21 27 23 5.5109 -6.9830
21 27 25 -2.1830 -2.4682
21 27 27 4.8565 13.8879
21 29 21 10.1203 1.3001
21 29 23 2.7020 4.3712
21 29 25 -7.9996 -3.3087
21 29 27 -5.3561 2.6961
21 29 29 -10.6772 -7.8802
21 31 21 15.5385 6.2721
21 31 23 -5.7950 -5.4344
21 31 25 -0.4885 -3.9287
21 31 27 -6.7611 0.7518
21 33 21 6.5378 -1.6705
21 33 23 4.8461 -2.5231
21 33 25 -3.6475 -0.1182
21 35 21 4.3279 5.2062
21 35 23 2.3110 -5.0365
22 22 22 -21.4386 -6.2921
22 24 22 0.4579 -16.4305
22 24 24 1.4893 -4.0843
22 26 22 -1.2523 3.2090
22 26 24 -7.3287 2.1381
22 26 26 -2.0569 0.5368
22 28 22 3.5046 4.0667
22 28 24 -17.6740 -0.8728
22 28 26 -11.9938 -4.1727
22 28 28 -15.1826 7.4485
22 30 22 -11.1573 1.0656
22 30 24 3.0555 6.6868
22 30 26 -11.5440 -1.4771
22 30 28 -0.3918 5.7530
22 32 22 6.6599 4.6972
22 32 24 -14.7142 -6.2792
22 32 26 3.0572 -1.0131
22 34 22 8.0280 -1.6597
22 34 24 13.9134 5.0165
23 23 23 15.5082 -19.5836
23 25 23 9.9670 -15.6396
23 25 25 18.9000 -15.5131
23 27 23 5.3105 -4.9060
23 27 25 8.6467 2.6399
23 27 27 -2.9648 5.9231
23 29 23 -4.1261 -7.0385
23 29 25 2.2490 -0.1144
23 29 27 2.8850 -7.3042
23 29 29 4.3858 -1.4778
23 31 23 14.1756 1.4814
23 31 25 -6.9291 5.1331
23 31 27 5.4105 2.0768
23 33 23 -1.8013 1.0753
24 24 24 -15.8464 -18.7859
24 26 24 32.4931 -4.0321
24 26 26 -7.5482 -15.9349
24 28 24 -6.1375 -7.8355
24 28 26 13.8209 6.2753
24 28 28 0.5515 9.0024
24 30 24 14.3440 -3.7660
24 30 26 5.9296 -6.2957
24 32 24 2.2141 1.0188
25 25 25 22.1948 -7.2076
25 27 25 3.3518 5.0785
25 27 27 9.4831 -5.9057
25 29 25 -3.5397 -1.6194
25 29 27 0.1564 3.9254
25 31 25 5.5768 2.7376
26 26 26 -13.9995 4.8041
26 28 26 3.5676 0.6953
27 27 27 -6.0182 6.7776
0 0 0 0.0 0.0
;
_shelx_fab_checksum              97810
_olex2_submission_special_instructions 'No special instructions were received'
loop_
_space_group_symop_operation_xyz
'x, y, z'
'-x+3/4, -y+1/4, z+1/2'
'-x+1/4, y+1/2, -z+3/4'
'x+1/2, -y+3/4, -z+1/4'
'z, x, y'
'z+1/2, -x+3/4, -y+1/4'
'-z+3/4, -x+1/4, y+1/2'
'-z+1/4, x+1/2, -y+3/4'
'y, z, x'
'-y+1/4, z+1/2, -x+3/4'
'y+1/2, -z+3/4, -x+1/4'
'-y+3/4, -z+1/4, x+1/2'
'y+3/4, x+1/4, -z+1/2'
'-y, -x, -z'
'y+1/4, -x+1/2, z+3/4'
'-y+1/2, x+3/4, z+1/4'
'x+3/4, z+1/4, -y+1/2'
'-x+1/2, z+3/4, y+1/4'
'-x, -z, -y'
'x+1/4, -z+1/2, y+3/4'
'z+3/4, y+1/4, -x+1/2'
'z+1/4, -y+1/2, x+3/4'
'-z+1/2, y+3/4, x+1/4'
'-z, -y, -x'
'x, y+1/2, z+1/2'
'-x+3/4, -y+3/4, z+1'
'-x+1/4, y+1, -z+5/4'
'x+1/2, -y+5/4, -z+3/4'
'z, x+1/2, y+1/2'
'z+1/2, -x+5/4, -y+3/4'
'-z+3/4, -x+3/4, y+1'
'-z+1/4, x+1, -y+5/4'
'y, z+1/2, x+1/2'
'-y+1/4, z+1, -x+5/4'
'y+1/2, -z+5/4, -x+3/4'
'-y+3/4, -z+3/4, x+1'
'y+3/4, x+3/4, -z+1'
'-y, -x+1/2, -z+1/2'
'y+1/4, -x+1, z+5/4'
'-y+1/2, x+5/4, z+3/4'
'x+3/4, z+3/4, -y+1'
'-x+1/2, z+5/4, y+3/4'
'-x, -z+1/2, -y+1/2'
'x+1/4, -z+1, y+5/4'
'z+3/4, y+3/4, -x+1'
'z+1/4, -y+1, x+5/4'
'-z+1/2, y+5/4, x+3/4'
'-z, -y+1/2, -x+1/2'
'x+1/2, y, z+1/2'
'-x+5/4, -y+1/4, z+1'
'-x+3/4, y+1/2, -z+5/4'
'x+1, -y+3/4, -z+3/4'
'z+1/2, x, y+1/2'
'z+1, -x+3/4, -y+3/4'
'-z+5/4, -x+1/4, y+1'
'-z+3/4, x+1/2, -y+5/4'
'y+1/2, z, x+1/2'
'-y+3/4, z+1/2, -x+5/4'
'y+1, -z+3/4, -x+3/4'
'-y+5/4, -z+1/4, x+1'
'y+5/4, x+1/4, -z+1'
'-y+1/2, -x, -z+1/2'
'y+3/4, -x+1/2, z+5/4'
'-y+1, x+3/4, z+3/4'
'x+5/4, z+1/4, -y+1'
'-x+1, z+3/4, y+3/4'
'-x+1/2, -z, -y+1/2'
'x+3/4, -z+1/2, y+5/4'
'z+5/4, y+1/4, -x+1'
'z+3/4, -y+1/2, x+5/4'
'-z+1, y+3/4, x+3/4'
'-z+1/2, -y, -x+1/2'
'x+1/2, y+1/2, z'
'-x+5/4, -y+3/4, z+1/2'
'-x+3/4, y+1, -z+3/4'
'x+1, -y+5/4, -z+1/4'
'z+1/2, x+1/2, y'
'z+1, -x+5/4, -y+1/4'
'-z+5/4, -x+3/4, y+1/2'
'-z+3/4, x+1, -y+3/4'
'y+1/2, z+1/2, x'
'-y+3/4, z+1, -x+3/4'
'y+1, -z+5/4, -x+1/4'
'-y+5/4, -z+3/4, x+1/2'
'y+5/4, x+3/4, -z+1/2'
'-y+1/2, -x+1/2, -z'
'y+3/4, -x+1, z+3/4'
'-y+1, x+5/4, z+1/4'
'x+5/4, z+3/4, -y+1/2'
'-x+1, z+5/4, y+1/4'
'-x+1/2, -z+1/2, -y'
'x+3/4, -z+1, y+3/4'
'z+5/4, y+3/4, -x+1/2'
'z+3/4, -y+1, x+3/4'
'-z+1, y+5/4, x+1/4'
'-z+1/2, -y+1/2, -x'
'-x, -y, -z'
'x-3/4, y-1/4, -z-1/2'
'x-1/4, -y-1/2, z-3/4'
'-x-1/2, y-3/4, z-1/4'
'-z, -x, -y'
'-z-1/2, x-3/4, y-1/4'
'z-3/4, x-1/4, -y-1/2'
'z-1/4, -x-1/2, y-3/4'
'-y, -z, -x'
'y-1/4, -z-1/2, x-3/4'
'-y-1/2, z-3/4, x-1/4'
'y-3/4, z-1/4, -x-1/2'
'-y-3/4, -x-1/4, z-1/2'
'y, x, z'
'-y-1/4, x-1/2, -z-3/4'
'y-1/2, -x-3/4, -z-1/4'
'-x-3/4, -z-1/4, y-1/2'
'x-1/2, -z-3/4, -y-1/4'
'x, z, y'
'-x-1/4, z-1/2, -y-3/4'
'-z-3/4, -y-1/4, x-1/2'
'-z-1/4, y-1/2, -x-3/4'
'z-1/2, -y-3/4, -x-1/4'
'z, y, x'
'-x, -y+1/2, -z+1/2'
'x-3/4, y+1/4, -z'
'x-1/4, -y, z-1/4'
'-x-1/2, y-1/4, z+1/4'
'-z, -x+1/2, -y+1/2'
'-z-1/2, x-1/4, y+1/4'
'z-3/4, x+1/4, -y'
'z-1/4, -x, y-1/4'
'-y, -z+1/2, -x+1/2'
'y-1/4, -z, x-1/4'
'-y-1/2, z-1/4, x+1/4'
'y-3/4, z+1/4, -x'
'-y-3/4, -x+1/4, z'
'y, x+1/2, z+1/2'
'-y-1/4, x, -z-1/4'
'y-1/2, -x-1/4, -z+1/4'
'-x-3/4, -z+1/4, y'
'x-1/2, -z-1/4, -y+1/4'
'x, z+1/2, y+1/2'
'-x-1/4, z, -y-1/4'
'-z-3/4, -y+1/4, x'
'-z-1/4, y, -x-1/4'
'z-1/2, -y-1/4, -x+1/4'
'z, y+1/2, x+1/2'
'-x+1/2, -y, -z+1/2'
'x-1/4, y-1/4, -z'
'x+1/4, -y-1/2, z-1/4'
'-x, y-3/4, z+1/4'
'-z+1/2, -x, -y+1/2'
'-z, x-3/4, y+1/4'
'z-1/4, x-1/4, -y'
'z+1/4, -x-1/2, y-1/4'
'-y+1/2, -z, -x+1/2'
'y+1/4, -z-1/2, x-1/4'
'-y, z-3/4, x+1/4'
'y-1/4, z-1/4, -x'
'-y-1/4, -x-1/4, z'
'y+1/2, x, z+1/2'
'-y+1/4, x-1/2, -z-1/4'
'y, -x-3/4, -z+1/4'
'-x-1/4, -z-1/4, y'
'x, -z-3/4, -y+1/4'
'x+1/2, z, y+1/2'
'-x+1/4, z-1/2, -y-1/4'
'-z-1/4, -y-1/4, x'
'-z+1/4, y-1/2, -x-1/4'
'z, -y-3/4, -x+1/4'
'z+1/2, y, x+1/2'
'-x+1/2, -y+1/2, -z'
'x-1/4, y+1/4, -z-1/2'
'x+1/4, -y, z-3/4'
'-x, y-1/4, z-1/4'
'-z+1/2, -x+1/2, -y'
'-z, x-1/4, y-1/4'
'z-1/4, x+1/4, -y-1/2'
'z+1/4, -x, y-3/4'
'-y+1/2, -z+1/2, -x'
'y+1/4, -z, x-3/4'
'-y, z-1/4, x-1/4'
'y-1/4, z+1/4, -x-1/2'
'-y-1/4, -x+1/4, z-1/2'
'y+1/2, x+1/2, z'
'-y+1/4, x, -z-3/4'
'y, -x-1/4, -z-1/4'
'-x-1/4, -z+1/4, y-1/2'
'x, -z-1/4, -y-1/4'
'x+1/2, z+1/2, y'
'-x+1/4, z, -y-3/4'
'-z-1/4, -y+1/4, x-1/2'
'-z+1/4, y, -x-3/4'
'z, -y-1/4, -x-1/4'
'z+1/2, y+1/2, x'
loop_
_atom_site_label
_atom_site_type_symbol
_atom_site_fract_x
_atom_site_fract_y
_atom_site_fract_z
_atom_site_U_iso_or_equiv
_atom_site_adp_type
_atom_site_occupancy
_atom_site_site_symmetry_order
_atom_site_calc_flag
_atom_site_refinement_flags_posn
_atom_site_refinement_flags_adp
_atom_site_refinement_flags_occupancy
_atom_site_disorder_assembly
_atom_site_disorder_group
Zr1 Zr 0.625000 0.625000 0.56190(2) 0.01511(17) Uani 1 4 d S T P . .
S1 S 0.54372(11) 0.375000 0.375000 0.174(2) Uani 1 4 d S TU P . .
O1 O 0.66121(13) 0.66121(13) 0.58879(13) 0.019(2) Uani 0.5 6 d S TU P . 1
H1 H 0.675628 0.675628 0.574371 0.028 Uiso 0.5 6 calc R U P . 1
O1A O 0.65227(15) 0.65227(15) 0.59773(15) 0.021(2) Uani 0.5 6 d S TU P . 2
O2 O 0.58996(15) 0.66004(15) 0.58996(15) 0.023(2) Uani 0.5 6 d S TU P . 2
H2 H 0.575540 0.674460 0.575539 0.034 Uiso 0.5 6 calc R U P . 2
O2A O 0.59899(14) 0.65101(14) 0.59899(14) 0.020(2) Uani 0.5 6 d S TU P . 1
O3 O 0.62493(4) 0.57540(4) 0.53444(4) 0.0313(4) Uani 1 1 d . U . . .
N1 N 0.56882(18) 0.39735(9) 0.39735(9) 0.118(2) Uani 1 2 d S TU P . .
C1 C 0.62336(9) 0.54479(6) 0.54479(6) 0.0302(7) Uani 1 2 d S TU P . .
C2 C 0.62027(13) 0.51795(7) 0.51795(7) 0.0500(11) Uani 1 2 d S TU P . .
C3 C 0.61817(14) 0.48452(9) 0.52643(10) 0.0897(14) Uani 1 1 d . U . . .
H3 H 0.618274 0.478069 0.549240 0.108 Uiso 1 1 calc R U . . .
C4 C 0.61587(15) 0.45997(11) 0.50120(12) 0.1095(16) Uani 1 1 d . U . . .
H4 H 0.615531 0.437136 0.507532 0.131 Uiso 1 1 calc R U . . .
C5 C 0.6141(2) 0.46785(9) 0.46785(9) 0.0925(19) Uani 1 2 d S TU P . .
C6 C 0.6112(2) 0.44123(9) 0.44123(9) 0.103(2) Uani 1 2 d S TU P . .
C7 C 0.6239(3) 0.4475(3) 0.4080(3) 0.107(3) Uani 0.5 1 d . U P . .
H7 H 0.634069 0.468527 0.403808 0.128 Uiso 0.5 1 calc R U P . .
C8 C 0.5972(3) 0.3984(2) 0.3776(2) 0.105(3) Uani 0.5 1 d . U P . .
C9 C 0.6220(3) 0.4231(3) 0.3798(3) 0.119(3) Uani 0.5 1 d . U P . .
C10 C 0.6462(4) 0.4234(4) 0.3519(4) 0.165(4) Uani 0.5 1 d . U P . .
C11 C 0.6711(5) 0.4458(5) 0.3554(5) 0.206(5) Uani 0.5 1 d . U P . .
H11 H 0.669878 0.463215 0.371490 0.248 Uiso 0.5 1 calc R U P . .
C12 C 0.6971(5) 0.4426(4) 0.3357(5) 0.237(6) Uani 0.5 1 d . U P . .
H12 H 0.715819 0.456973 0.338220 0.284 Uiso 0.5 1 calc R U P . .
loop_
_atom_site_aniso_label
_atom_site_aniso_U_11
_atom_site_aniso_U_22
_atom_site_aniso_U_33
_atom_site_aniso_U_23
_atom_site_aniso_U_13
_atom_site_aniso_U_12
Zr1 0.01631(18) 0.01631(18) 0.0127(2) 0.000 0.000 -0.00033(13)
S1 0.134(3) 0.194(3) 0.194(3) -0.153(3) 0.000 0.000
O1 0.019(2) 0.019(2) 0.019(2) 0.000(2) 0.000(2) 0.000(2)
O1A 0.021(2) 0.021(2) 0.021(2) -0.004(2) -0.004(2) 0.004(2)
O2 0.023(2) 0.023(2) 0.023(2) -0.003(2) 0.003(2) -0.003(2)
O2A 0.020(2) 0.020(2) 0.020(2) -0.001(2) 0.001(2) -0.001(2)
O3 0.0414(10) 0.0274(9) 0.0251(8) -0.0090(7) -0.0005(7) 0.0008(7)
N1 0.122(4) 0.117(3) 0.117(3) -0.078(4) 0.0054(19) 0.0054(19)
C1 0.0363(19) 0.0271(11) 0.0271(11) -0.0093(14) -0.0002(10) -0.0002(10)
C2 0.084(3) 0.0330(13) 0.0330(13) -0.0115(17) -0.0047(13) -0.0047(13)
C3 0.186(4) 0.0393(18) 0.0441(19) -0.0167(16) 0.009(2) -0.013(2)
C4 0.211(5) 0.044(2) 0.073(3) -0.030(2) 0.008(3) -0.023(3)
C5 0.161(5) 0.058(2) 0.058(2) -0.041(3) -0.0062(19) -0.0062(19)
C6 0.155(5) 0.076(3) 0.076(3) -0.054(3) -0.003(2) -0.003(2)
C7 0.152(7) 0.082(5) 0.086(5) -0.059(4) 0.012(5) -0.021(5)
C8 0.129(6) 0.093(5) 0.093(5) -0.075(4) 0.024(4) -0.010(4)
C9 0.149(6) 0.103(5) 0.104(5) -0.080(4) 0.038(5) -0.043(5)
C10 0.193(8) 0.140(7) 0.162(7) -0.106(6) 0.080(6) -0.082(6)
C11 0.223(11) 0.196(9) 0.201(9) -0.119(8) 0.110(8) -0.096(8)
C12 0.249(13) 0.219(11) 0.242(12) -0.124(10) 0.091(10) -0.111(10)
loop_
_atom_type_symbol
_atom_type_description
_atom_type_scat_dispersion_real
_atom_type_scat_dispersion_imag
_atom_type_scat_source
C C 0.0181 0.0091 'International Tables Vol C Tables 4.2.6.8 and 6.1.1.4'
H H 0.0000 0.0000 'International Tables Vol C Tables 4.2.6.8 and 6.1.1.4'
N N 0.0311 0.0180 'International Tables Vol C Tables 4.2.6.8 and 6.1.1.4'
O O 0.0492 0.0322 'International Tables Vol C Tables 4.2.6.8 and 6.1.1.4'
S S 0.3331 0.5567 'International Tables Vol C Tables 4.2.6.8 and 6.1.1.4'
Zr Zr -0.1862 2.2449 'International Tables Vol C Tables 4.2.6.8 and 6.1.1.4'
loop_
_geom_angle_atom_site_label_1
_geom_angle_atom_site_label_2
_geom_angle_atom_site_label_3
_geom_angle
_geom_angle_site_symmetry_1
_geom_angle_site_symmetry_3
_geom_angle_publ_flag
O1 Zr1 O1 124.6(4) 50_564 . ?
O1A Zr1 O1A 94.2(5) 50_564 . ?
O1A Zr1 O2 70.41(19) 50_564 . ?
O1A Zr1 O2 70.41(19) . . ?
O1A Zr1 O3 82.9(2) 50_564 110 ?
O1A Zr1 O3 82.9(2) . 50_564 ?
O1A Zr1 O3 141.59(5) . . ?
O1A Zr1 O3 141.59(5) 50_564 133_765 ?
O1A Zr1 O3 141.59(5) . 110 ?
O1A Zr1 O3 82.9(2) . 133_765 ?
O1A Zr1 O3 141.59(5) 50_564 50_564 ?
O1A Zr1 O3 82.9(2) 50_564 . ?
O2A Zr1 O1 70.73(17) 50_564 50_564 ?
O2A Zr1 O1 70.73(17) . . ?
O2A Zr1 O1 70.73(17) 50_564 . ?
O2A Zr1 O1 70.73(17) . 50_564 ?
O2A Zr1 O1A 61.1(2) . 50_564 ?
O2A Zr1 O1A 61.1(2) 50_564 50_564 ?
O2A Zr1 O2 15.7(3) 50_564 50_564 ?
O2A Zr1 O2 105.3(4) . 50_564 ?
O2A Zr1 O2A 89.5(5) 50_564 . ?
O2A Zr1 O3 141.17(6) . 133_765 ?
O2A Zr1 O3 84.8(2) . 50_564 ?
O2A Zr1 O3 141.17(6) . . ?
O2A Zr1 O3 84.8(2) . 110 ?
O2A Zr1 O3 141.17(6) 50_564 110 ?
O2A Zr1 O3 84.8(2) 50_564 133_765 ?
O2A Zr1 O3 141.17(6) 50_564 50_564 ?
O2A Zr1 O3 84.8(2) 50_564 . ?
O3 Zr1 O1 140.68(6) 50_564 50_564 ?
O3 Zr1 O1 71.14(16) 133_765 . ?
O3 Zr1 O1 140.68(6) 110 . ?
O3 Zr1 O1 71.14(16) 50_564 . ?
O3 Zr1 O1 140.68(6) 133_765 50_564 ?
O3 Zr1 O1 140.68(6) . . ?
O3 Zr1 O1 71.14(16) 110 50_564 ?
O3 Zr1 O1 71.14(16) . 50_564 ?
O3 Zr1 O2 72.61(18) . 50_564 ?
O3 Zr1 O2 140.92(6) . . ?
O3 Zr1 O2 140.92(6) 50_564 50_564 ?
O3 Zr1 O2 72.61(18) 110 . ?
O3 Zr1 O2 72.61(18) 133_765 50_564 ?
O3 Zr1 O2 140.92(6) 133_765 . ?
O3 Zr1 O2 72.61(18) 50_564 . ?
O3 Zr1 O2 140.92(6) 110 50_564 ?
O3 Zr1 O3 76.55(9) 110 50_564 ?
O3 Zr1 O3 122.05(9) 50_564 . ?
O3 Zr1 O3 76.30(9) 133_765 50_564 ?
O3 Zr1 O3 76.55(9) 133_765 . ?
O3 Zr1 O3 76.30(9) 110 . ?
O3 Zr1 O3 122.05(9) 110 133_765 ?
N1 S1 N1 103.1(5) 52_455 . ?
N1 S1 C8 35.4(3) 52_455 52_455 ?
N1 S1 C8 35.4(3) . . ?
N1 S1 C8 35.4(3) . 115 ?
N1 S1 C8 71.1(3) . 52_455 ?
N1 S1 C8 71.1(3) 52_455 . ?
N1 S1 C8 35.4(3) 52_455 186_566 ?
N1 S1 C8 71.1(3) . 186_566 ?
N1 S1 C8 71.1(3) 52_455 115 ?
C8 S1 C8 29.1(5) 186_566 52_455 ?
C8 S1 C8 47.4(5) 52_455 . ?
C8 S1 C8 36.6(3) 186_566 . ?
C8 S1 C8 47.4(5) 115 186_566 ?
C8 S1 C8 36.6(3) 115 52_455 ?
C8 S1 C8 29.1(5) 115 . ?
Zr1 O1 Zr1 101.0(3) . 83_456 ?
Zr1 O1 Zr1 101.0(3) 83_456 55_564 ?
Zr1 O1 Zr1 101.0(3) . 55_564 ?
Zr1 O1 H1 117.0 . . ?
Zr1 O1 H1 117.0 83_456 . ?
Zr1 O1 H1 117.0 55_564 . ?
Zr1 O1A Zr1 115.90(18) . 55_564 ?
Zr1 O1A Zr1 115.90(18) 83_456 55_564 ?
Zr1 O1A Zr1 115.90(18) . 83_456 ?
Zr1 O2 Zr1 103.2(3) . 83_456 ?
Zr1 O2 Zr1 103.2(3) . 5 ?
Zr1 O2 Zr1 103.2(3) 83_456 5 ?
Zr1 O2 H2 115.2 . . ?
Zr1 O2 H2 115.2 83_456 . ?
Zr1 O2 H2 115.2 5 . ?
Zr1 O2A Zr1 117.33(14) . 83_456 ?
Zr1 O2A Zr1 117.33(14) 83_456 5 ?
Zr1 O2A Zr1 117.33(14) . 5 ?
C1 O3 Zr1 132.29(17) . . ?
C8 N1 S1 102.1(5) . . ?
C8 N1 S1 102.1(5) 115 . ?
C8 N1 C8 50.2(9) 115 . ?
O3 C1 O3 127.1(3) . 115 ?
O3 C1 C2 116.44(15) . . ?
O3 C1 C2 116.44(15) 115 . ?
C3 C2 C1 120.9(2) 115 . ?
C3 C2 C1 120.9(2) . . ?
C3 C2 C3 118.1(4) 115 . ?
C2 C3 H3 119.9 . . ?
C2 C3 C4 120.1(4) . . ?
C4 C3 H3 119.9 . . ?
C3 C4 H4 118.7 . . ?
C5 C4 C3 122.6(4) . . ?
C5 C4 H4 118.7 . . ?
C4 C5 C4 116.3(5) 115 . ?
C4 C5 C6 121.8(2) 115 . ?
C4 C5 C6 121.8(2) . . ?
C7 C6 C5 119.9(5) . . ?
C7 C6 C5 119.9(5) 115 . ?
C7 C6 C7 101.4(10) . 115 ?
C6 C7 H7 117.9 . . ?
C6 C7 C9 124.2(10) . . ?
C9 C7 H7 117.9 . . ?
N1 C8 S1 42.5(4) . . ?
N1 C8 C8 112.6(4) . 186_566 ?
N1 C8 C8 92.0(6) . 52_455 ?
N1 C8 C9 124.3(7) . . ?
C8 C8 S1 66.3(2) 52_455 . ?
C8 C8 S1 71.69(17) 186_566 . ?
C8 C8 S1 75.4(3) 115 . ?
C8 C8 N1 64.9(5) 115 . ?
C8 C8 C8 51.3(5) 115 52_455 ?
C8 C8 C8 38.7(5) 186_566 52_455 ?
C8 C8 C8 89.992(3) 115 186_566 ?
C8 C8 C9 116.9(8) 115 . ?
C9 C8 S1 158.7(9) . . ?
C9 C8 C8 135.0(7) . 52_455 ?
C9 C8 C8 122.9(5) . 186_566 ?
C8 C9 C7 123.0(10) . . ?
C8 C9 C10 114.7(8) . . ?
C10 C9 C7 122.3(10) . . ?
C10 C10 C9 122.0(6) 186_566 . ?
C11 C10 C9 114.0(11) . . ?
C11 C10 C10 123.0(8) . 186_566 ?
C10 C11 H11 121.4 . . ?
C12 C11 C10 117.2(15) . . ?
C12 C11 H11 121.4 . . ?
C11 C12 C12 119.6(11) . 186_566 ?
C11 C12 H12 120.2 . . ?
C12 C12 H12 120.2 186_566 . ?
loop_
_geom_bond_atom_site_label_1
_geom_bond_atom_site_label_2
_geom_bond_distance
_geom_bond_site_symmetry_2
_geom_bond_publ_flag
Zr1 O1 2.270(4) . ?
Zr1 O1 2.269(4) 50_564 ?
Zr1 O1A 2.065(2) 50_564 ?
Zr1 O1A 2.066(2) . ?
Zr1 O2 2.235(4) 50_564 ?
Zr1 O2 2.235(4) . ?
Zr1 O2A 2.0497(16) . ?
Zr1 O2A 2.0497(16) 50_564 ?
Zr1 O3 2.2245(16) 110 ?
Zr1 O3 2.2246(16) . ?
Zr1 O3 2.2245(16) 133_765 ?
Zr1 O3 2.2245(16) 50_564 ?
S1 N1 1.584(6) 52_455 ?
S1 N1 1.584(6) . ?
S1 C8 2.292(10) 186_566 ?
S1 C8 2.292(10) . ?
S1 C8 2.292(10) 52_455 ?
S1 C8 2.292(10) 115 ?
O1 H1 0.9800 . ?
O2 H2 0.9800 . ?
O3 C1 1.270(2) . ?
N1 C8 1.357(10) 115 ?
N1 C8 1.358(10) . ?
C1 C2 1.494(5) . ?
C2 C3 1.356(4) . ?
C2 C3 1.356(4) 115 ?
C3 H3 0.9300 . ?
C3 C4 1.384(5) . ?
C4 H4 0.9300 . ?
C4 C5 1.346(5) . ?
C5 C6 1.482(7) . ?
C6 C7 1.417(11) . ?
C6 C7 1.417(11) 115 ?
C7 H7 0.9300 . ?
C7 C9 1.465(10) . ?
C8 C8 1.844(17) 52_455 ?
C8 C8 1.15(2) 115 ?
C8 C8 1.440(12) 186_566 ?
C8 C9 1.379(14) . ?
C9 C10 1.450(16) . ?
C10 C10 1.40(2) 186_566 ?
C10 C11 1.325(18) . ?
C11 H11 0.9300 . ?
C11 C12 1.29(2) . ?
C12 C12 1.57(3) 186_566 ?
C12 H12 0.9300 . ?
loop_
_geom_torsion_atom_site_label_1
_geom_torsion_atom_site_label_2
_geom_torsion_atom_site_label_3
_geom_torsion_atom_site_label_4
_geom_torsion
_geom_torsion_site_symmetry_1
_geom_torsion_site_symmetry_2
_geom_torsion_site_symmetry_3
_geom_torsion_site_symmetry_4
_geom_torsion_publ_flag
Zr1 O3 C1 O3 -8.0(6) . . . 115 ?
Zr1 O3 C1 C2 173.8(3) . . . . ?
S1 N1 C8 C8 -17.0(3) . . . 186_566 ?
S1 N1 C8 C8 -50.7(6) . . . 52_455 ?
S1 N1 C8 C8 -95.8(2) . . . 115 ?
S1 N1 C8 C9 157.6(11) . . . . ?
S1 C8 C9 C7 57(3) . . . . ?
S1 C8 C9 C10 -122.6(19) . . . . ?
O3 C1 C2 C3 179.5(4) 115 . . 115 ?
O3 C1 C2 C3 -179.5(4) . . . . ?
O3 C1 C2 C3 -2.1(6) . . . 115 ?
O3 C1 C2 C3 2.1(6) 115 . . . ?
N1 S1 N1 C8 25.7(5) 52_455 . . . ?
N1 S1 N1 C8 -25.7(5) 52_455 . . 115 ?
N1 C8 C9 C7 12(2) . . . . ?
N1 C8 C9 C10 -167.6(12) . . . . ?
C1 C2 C3 C4 -179.0(5) . . . . ?
C2 C3 C4 C5 -3.0(10) . . . . ?
C3 C2 C3 C4 3.5(10) 115 . . . ?
C3 C4 C5 C4 2.2(12) . . . 115 ?
C3 C4 C5 C6 -179.3(7) . . . . ?
C4 C5 C6 C7 -25.9(13) . . . 115 ?
C4 C5 C6 C7 152.5(8) 115 . . 115 ?
C4 C5 C6 C7 -152.5(8) . . . . ?
C4 C5 C6 C7 25.9(13) 115 . . . ?
C5 C6 C7 C9 -179.4(10) . . . . ?
C6 C7 C9 C8 27(2) . . . . ?
C6 C7 C9 C10 -153.7(15) . . . . ?
C7 C6 C7 C9 45.9(16) 115 . . . ?
C7 C9 C10 C10 174.1(9) . . . 186_566 ?
C7 C9 C10 C11 5(3) . . . . ?
C8 S1 N1 C8 51.4(10) 115 . . . ?
C8 S1 N1 C8 -10.3(2) 52_455 . . 115 ?
C8 S1 N1 C8 41.1(8) 52_455 . . . ?
C8 S1 N1 C8 -51.4(10) . . . 115 ?
C8 S1 N1 C8 -41.1(8) 186_566 . . 115 ?
C8 S1 N1 C8 10.3(2) 186_566 . . . ?
C8 N1 C8 S1 95.8(2) 115 . . . ?
C8 N1 C8 C8 45.0(6) 115 . . 52_455 ?
C8 N1 C8 C8 78.8(3) 115 . . 186_566 ?
C8 N1 C8 C9 -106.6(12) 115 . . . ?
C8 C8 C9 C7 -64.9(15) 115 . . . ?
C8 C8 C9 C7 -126.0(14) 52_455 . . . ?
C8 C8 C9 C7 -174.1(9) 186_566 . . . ?
C8 C8 C9 C10 55(2) 52_455 . . . ?
C8 C8 C9 C10 6.5(18) 186_566 . . . ?
C8 C8 C9 C10 115.7(13) 115 . . . ?
C8 C9 C10 C10 -6.5(18) . . . 186_566 ?
C8 C9 C10 C11 -176.0(19) . . . . ?
C9 C10 C11 C12 165(2) . . . . ?
C10 C10 C11 C12 -4(3) 186_566 . . . ?
C10 C11 C12 C12 4(3) . . . 186_566 ?
loop_
_smtbx_masks_void_nr
_smtbx_masks_void_average_x
_smtbx_masks_void_average_y
_smtbx_masks_void_average_z
_smtbx_masks_void_volume
_smtbx_masks_void_count_electrons
_smtbx_masks_void_content
1 -0.098 -0.670 -0.327 28730.5 2224.8 ?
2 0.000 0.000 0.500 191.0 60.7 ?
3 0.000 0.250 0.750 191.0 60.7 ?
4 0.000 0.500 1.000 191.0 60.7 ?
5 0.000 0.750 0.250 191.0 60.7 ?
6 0.250 0.000 0.750 191.0 60.7 ?
7 0.250 0.250 0.500 191.0 60.7 ?
8 0.250 0.500 0.250 191.0 60.7 ?
9 0.250 0.750 0.000 191.0 60.7 ?
10 0.500 0.000 0.000 191.0 60.7 ?
11 0.500 0.250 0.250 191.0 60.7 ?
12 0.500 0.500 0.500 191.0 60.7 ?
13 0.500 0.750 0.750 191.0 60.7 ?
14 0.750 0.000 0.250 191.0 60.7 ?
15 0.750 0.250 0.000 191.0 60.7 ?
16 0.750 0.500 0.750 191.0 60.7 ?
17 0.750 0.750 0.500 191.0 60.7 ?
