#------------------------------------------------------------------------------
#$Date: 2022-11-23 01:14:00 +0200 (Wed, 23 Nov 2022) $
#$Revision: 279474 $
#$URL: file:///home/coder/svn-repositories/cod/cif/1/56/79/1567996.cif $
#------------------------------------------------------------------------------
#
# This file is available in the Crystallography Open Database (COD),
# http://www.crystallography.net/
#
# All data on this site have been placed in the public domain by the
# contributors.
#
data_1567996
loop_
_publ_author_name
'Miguel-Casa\~n, Eugenia'
'Darawsheh, Mohanad D.'
'Fari\~na-Torres, V\'ictor'
'Vitorica-Yrzebal, Inigo'
'Andres-Garcia, Eduardo'
'Fa\~nan\'as-Mastral, Mart\'in'
'Minguez Espallargas, Guillermo'
_publ_section_title
;
 Heterometallic palladium-iron Metal-Organic Framework as a highly active
 catalyst for cross-coupling reactions
;
_journal_name_full               'Chemical Science'
_journal_paper_doi               10.1039/D2SC05192C
_journal_year                    2022
_chemical_formula_moiety         'C42 H30 Cl6 Fe6 N6 O32 Pd3, 6(H2 O)'
_chemical_formula_sum            'C42 H42 Cl6 Fe6 N6 O38 Pd3'
_chemical_formula_weight         2105.81
_space_group_crystal_system      cubic
_space_group_IT_number           223
_space_group_name_Hall           '-P 4n 2 3'
_space_group_name_H-M_alt        'P m -3 n'
_atom_sites_solution_hydrogens   mixed
_atom_sites_solution_primary     dual
_audit_creation_date             2021-12-02
_audit_creation_method
;
Olex2 1.5
(compiled 2021.10.07 svn.r9718050b for OlexSys, GUI svn.r6410)
;
_audit_update_record
;
2022-02-14 deposited with the CCDC.	2022-11-22 downloaded from the CCDC.
;
_cell_angle_alpha                90
_cell_angle_beta                 90
_cell_angle_gamma                90
_cell_formula_units_Z            4
_cell_length_a                   22.1165(4)
_cell_length_b                   22.1165(4)
_cell_length_c                   22.1165(4)
_cell_measurement_reflns_used    1855
_cell_measurement_temperature    119.6(8)
_cell_measurement_theta_max      15.7940
_cell_measurement_theta_min      3.6700
_cell_volume                     10818.1(3)
_computing_cell_refinement       'CrysAlisPro 1.171.41.119a (Rigaku OD, 2021)'
_computing_data_collection       'CrysAlisPro 1.171.41.119a (Rigaku OD, 2021)'
_computing_data_reduction        'CrysAlisPro 1.171.41.119a (Rigaku OD, 2021)'
_computing_molecular_graphics    'Olex2 1.5 (Dolomanov et al., 2009)'
_computing_publication_material  'Olex2 1.5 (Dolomanov et al., 2009)'
_computing_structure_refinement  'SHELXL 2018/3 (Sheldrick, 2015)'
_computing_structure_solution    'SHELXT 2018/2 (Sheldrick, 2018)'
_diffrn_ambient_environment      N~2~
_diffrn_ambient_temperature      119.6(8)
_diffrn_detector                 'CCD plate'
_diffrn_detector_area_resol_mean 16.0267
_diffrn_detector_type            Sapphire3
_diffrn_measured_fraction_theta_full 0.987
_diffrn_measured_fraction_theta_max 0.987
_diffrn_measurement_details
;
List of Runs (angles in degrees, time in seconds):

  # Type    Start    End  Width  t~exp~   \w     \q     \k     \f   Frames
#--------------------------------------------------------------------------
  1  \w    -14.00  23.00   1.00   40.00    --  -14.89 -99.00 150.00   37
  2  \w    -84.00   7.00   1.00   40.00    --  -14.89 -57.00   0.00   91
  3  \w    -59.00  45.00   1.00   40.00    --  -14.89  19.00  90.00  104
  4  \w    -74.00 -38.00   1.00   40.00    --  -14.89 127.00 -22.20   36
  5  \w    -79.00   7.00   1.00   40.00    --  -14.89 -57.00-120.00   86
  6  \w      8.00  76.00   1.00   40.00    --   15.67-129.00 -35.56   68
  7  \w    -53.00  32.00   1.00   40.00    --   15.67 -57.00-120.00   85
  8  \w    -10.00  88.00   1.00   40.00    --   15.67  38.00-180.00   98
  9  \w    -54.00  46.00   1.00   40.00    --   15.67 -77.00 150.00  100
;
_diffrn_measurement_device       'four-circle diffractometer'
_diffrn_measurement_device_type
'SuperNova, Single source at offset/far, Sapphire3'
_diffrn_measurement_method       '\w scans'
_diffrn_orient_matrix_type
'CrysAlisPro convention (1999,Acta A55,543-557)'
_diffrn_orient_matrix_UB_11      0.0291090000
_diffrn_orient_matrix_UB_12      0.0041425000
_diffrn_orient_matrix_UB_13      0.0128225000
_diffrn_orient_matrix_UB_21      0.0134653000
_diffrn_orient_matrix_UB_22      -0.0079250000
_diffrn_orient_matrix_UB_23      -0.0280029000
_diffrn_orient_matrix_UB_31      -0.0004456000
_diffrn_orient_matrix_UB_32      0.0307997000
_diffrn_orient_matrix_UB_33      -0.0089246000
_diffrn_radiation_monochromator  mirror
_diffrn_radiation_probe          x-ray
_diffrn_radiation_type           'Mo K\a'
_diffrn_radiation_wavelength     0.71073
_diffrn_reflns_av_R_equivalents  0.2715
_diffrn_reflns_av_unetI/netI     0.0304
_diffrn_reflns_Laue_measured_fraction_full 0.987
_diffrn_reflns_Laue_measured_fraction_max 0.987
_diffrn_reflns_limit_h_max       17
_diffrn_reflns_limit_h_min       -17
_diffrn_reflns_limit_k_max       17
_diffrn_reflns_limit_k_min       -17
_diffrn_reflns_limit_l_max       17
_diffrn_reflns_limit_l_min       -17
_diffrn_reflns_number            54934
_diffrn_reflns_point_group_measured_fraction_full 0.987
_diffrn_reflns_point_group_measured_fraction_max 0.987
_diffrn_reflns_theta_full        16.515
_diffrn_reflns_theta_max         16.515
_diffrn_reflns_theta_min         3.321
_diffrn_source                   'micro-focus sealed X-ray tube'
_diffrn_source_type              'SuperNova (Mo) X-ray Source'
_exptl_absorpt_coefficient_mu    1.477
_exptl_absorpt_correction_T_max  1.00000
_exptl_absorpt_correction_T_min  0.45071
_exptl_absorpt_correction_type   multi-scan
_exptl_absorpt_process_details
;
CrysAlisPro 1.171.41.119a (Rigaku Oxford Diffraction, 2021)
Empirical absorption correction using spherical harmonics,
implemented in SCALE3 ABSPACK scaling algorithm.
;
_exptl_crystal_colour            'clear reddish red'
_exptl_crystal_colour_lustre     clear
_exptl_crystal_colour_modifier   reddish
_exptl_crystal_colour_primary    red
_exptl_crystal_density_diffrn    1.293
_exptl_crystal_description       block
_exptl_crystal_F_000             4144
_exptl_crystal_size_max          0.03
_exptl_crystal_size_mid          0.02
_exptl_crystal_size_min          0.02
_refine_diff_density_max         0.540
_refine_diff_density_min         -0.382
_refine_diff_density_rms         0.070
_refine_ls_extinction_method     none
_refine_ls_goodness_of_fit_ref   1.050
_refine_ls_hydrogen_treatment    constr
_refine_ls_matrix_type           full
_refine_ls_number_parameters     68
_refine_ls_number_reflns         544
_refine_ls_number_restraints     1
_refine_ls_restrained_S_all      1.126
_refine_ls_R_factor_all          0.0598
_refine_ls_R_factor_gt           0.0492
_refine_ls_shift/su_max          0.000
_refine_ls_shift/su_mean         0.000
_refine_ls_structure_factor_coef Fsqd
_refine_ls_weighting_details
'w=1/[\s^2^(Fo^2^)+(0.0831P)^2^+46.9800P] where P=(Fo^2^+2Fc^2^)/3'
_refine_ls_weighting_scheme      calc
_refine_ls_wR_factor_gt          0.1301
_refine_ls_wR_factor_ref         0.1370
_reflns_Friedel_coverage         0.000
_reflns_number_gt                435
_reflns_number_total             544
_reflns_threshold_expression     'I > 2\s(I)'
_cod_data_source_file            d2sc05192c2.cif
_cod_data_source_block           muv22
_cod_original_cell_volume        10818.1(6)
_cod_database_code               1567996
_shelx_shelxl_version_number     2018/3
_shelx_space_group_comment
;
The symmetry employed for this shelxl refinement is uniquely defined
by the following loop, which should always be used as a source of
symmetry information in preference to the above space-group names.
They are only intended as comments.
;
_shelx_estimated_absorpt_t_max   0.971
_shelx_estimated_absorpt_t_min   0.957
_olex2_refinement_description
;
1. Fixed Uiso
 At 1.2 times of:
  All C(H) groups
 At 1.5 times of:
  All O(H,H) groups
2. Restrained distances
 Fe1-H4A \\sim Fe1-H4B
 with sigma of 0.02
3. Others
 Fixed Sof: H4A(0.5) H4B(0.5) Cl2(0.25) Cl1(0.25)
4.a Riding coordinates:
 O4(H4A,H4B), O5(H5A,H5B)
4.b Aromatic/amide H refined with riding coordinates:
 C3(H3), C4(H4)
;
_smtbx_masks_void_probe_radius   1.2
_smtbx_masks_void_truncation_radius 1.2
_shelx_res_file
;
TITL sx745_a.res in Pm-3n
    sx745.res
    created by SHELXL-2018/3 at 12:09:50 on 02-Dec-2021
REM Old TITL sx745_a.res in Pm-3n
REM SHELXT solution in Pm-3n: R1 0.150, Rweak 0.005, Alpha 0.051
REM <I/s> 0.542 for 87 systematic absences, Orientation as input
REM Formula found by SHELXT: C108 Fe12 N37 O64 Pd6
CELL 0.71073 22.1165 22.1165 22.1165 90 90 90
ZERR 4 0.0004 0.0004 0.0004 0 0 0
LATT 1
SYMM -X,-Y,+Z
SYMM -X,+Y,-Z
SYMM +X,-Y,-Z
SYMM +Z,+X,+Y
SYMM +Z,-X,-Y
SYMM -Z,-X,+Y
SYMM -Z,+X,-Y
SYMM +Y,+Z,+X
SYMM -Y,+Z,-X
SYMM +Y,-Z,-X
SYMM -Y,-Z,+X
SYMM 0.5+Y,0.5+X,0.5-Z
SYMM 0.5-Y,0.5-X,0.5-Z
SYMM 0.5+Y,0.5-X,0.5+Z
SYMM 0.5-Y,0.5+X,0.5+Z
SYMM 0.5+X,0.5+Z,0.5-Y
SYMM 0.5-X,0.5+Z,0.5+Y
SYMM 0.5-X,0.5-Z,0.5-Y
SYMM 0.5+X,0.5-Z,0.5+Y
SYMM 0.5+Z,0.5+Y,0.5-X
SYMM 0.5+Z,0.5-Y,0.5+X
SYMM 0.5-Z,0.5+Y,0.5+X
SYMM 0.5-Z,0.5-Y,0.5-X
SFAC C H Cl Fe N O Pd
UNIT 168 168 24 24 24 152 12
SADI Fe1 H4a Fe1 H4b

L.S. 25 0 0
PLAN  7
SIZE 0.02 0.03 0.02
TEMP -154
CONF
BOND
list 4
MORE -1
ABIN
BOND $H
fmap 2 53
acta
REM <olex2.extras>
REM <HklSrc "%.\\sx745.hkl">
REM </olex2.extras>

WGHT    0.083100   46.980003
FVAR       0.12298
PD1   7    0.172156    0.500000    0.500000    10.25000    0.11969    0.03934 =
         0.03447    0.00000    0.00000    0.00000
FE1   4    0.188989    0.311011    0.250000    10.50000    0.03910    0.03910 =
         0.02409    0.00121    0.00121    0.00380
O3    6    0.240433    0.244454    0.383710    11.00000    0.03574    0.05662 =
         0.03020   -0.00130   -0.00632    0.00396
O1    6    0.250000    0.250000    0.250000    10.16667    0.01811    0.01811 =
         0.01811   -0.00392   -0.00392   -0.00392
O2    6    0.190607    0.322530    0.341202    11.00000    0.04921    0.03972 =
         0.02639   -0.00117   -0.00469    0.01620
O4    6    0.122618    0.377382    0.250000    10.50000    0.05105    0.05105 =
         0.05823    0.00734    0.00734    0.01996
AFIX   3
H4A   2    0.131098    0.412360    0.267400    10.50000   -1.50000
H4B   2    0.085818    0.382590    0.236840    10.50000   -1.50000
AFIX   0
N1    5    0.175909    0.411565    0.500000    10.50000    0.04995
CL2   3    0.089314    0.500000    0.445648    10.25000    0.13482    0.03586 =
         0.32331    0.00000   -0.04328    0.00000
C1    1    0.211001    0.294196    0.384277    11.00000    0.03255
C2    1    0.203342    0.321247    0.446304    11.00000    0.03409
C3    1    0.184987    0.379293    0.448053    11.00000    0.04077
AFIX  43
H3    2    0.177863    0.399166    0.410645    11.00000   -1.20000
AFIX   0
C4    1    0.213859    0.289588    0.500000    10.50000    0.03394
AFIX  43
H4    2    0.227402    0.248825    0.500000    10.50000   -1.20000
AFIX   0
CL1   3    0.257078    0.500000    0.439644    10.25000    0.18344    0.02665 =
         0.45476    0.00000    0.14313    0.00000

O5    6    0.152161    0.500000    0.308440    10.50000    0.25450
AFIX   3
H5A   2    0.189171    0.500000    0.321340    10.50000   -1.50000
H5B   2    0.127431    0.500000    0.338990    10.50000   -1.50000
AFIX   0
HKLF 4




REM  sx745_a.res in Pm-3n
REM wR2 = 0.1370, GooF = S = 1.050, Restrained GooF = 1.126 for all data
REM R1 = 0.0492 for 435 Fo > 4sig(Fo) and 0.0598 for all 544 data
REM 68 parameters refined using 1 restraints

END

WGHT      0.0796     55.2596

REM Highest difference peak  0.540,  deepest hole -0.382,  1-sigma level  0.070
Q1    1   0.0860  0.5000  0.5000  10.25000  0.05    0.54
Q2    1   0.2656  0.5000  0.3538  10.50000  0.05    0.52
Q3    1   0.1184  0.5000  0.4263  10.50000  0.05    0.32
Q4    1   0.2406  0.5000  0.4311  10.50000  0.05    0.31
Q5    1   0.1464  0.5000  0.4204  10.50000  0.05    0.27
Q6    1   0.1230  0.4175  0.5000  10.50000  0.05    0.27
Q7    1   0.2471  0.2298  0.5000  10.50000  0.05    0.24
;
_shelx_res_checksum              9284
_shelx_fab_file
;
0 3 2 -37.5081 0.4216
0 3 3 150.3517 -1.2358
0 4 0 -105.8365 -2.5546
0 4 1 -34.8751 0.3340
0 4 2 -44.7344 1.2851
0 4 3 1.8340 0.5487
0 4 4 9.3199 -1.8587
0 5 1 -76.2904 -0.7501
0 5 2 10.2218 -0.2856
0 5 3 100.3885 -1.6531
0 5 4 -2.4253 0.5763
0 5 5 50.2000 0.7035
0 6 0 31.1805 -2.4814
0 6 1 -41.8750 -0.3768
0 6 2 13.9670 -0.2534
0 6 3 -3.7327 -0.1087
0 6 4 -25.2924 -1.5732
0 6 5 -18.0797 2.0628
0 6 6 33.6932 -3.8590
0 7 1 9.7739 0.2094
0 7 2 42.0119 -0.1449
0 7 3 -32.8083 -0.8699
0 7 4 -12.2851 -0.0625
0 7 5 10.1005 0.3468
0 7 6 -1.7765 -0.1472
0 7 7 11.7707 0.2057
0 8 0 63.8278 -5.8736
0 8 1 13.7576 0.2357
0 8 2 11.4534 1.5720
0 8 3 6.4019 -0.0252
0 8 4 -9.8934 -1.1510
0 8 5 -6.3859 -0.3495
0 8 6 31.3024 -4.0871
0 8 7 -20.7003 -0.0146
0 8 8 -9.1006 2.7572
0 9 1 5.5601 -0.2652
0 9 2 8.3006 0.0872
0 9 3 3.8954 -1.3506
0 9 4 -25.4047 0.2488
0 9 5 35.9974 -1.8739
0 9 6 -9.4318 -0.3570
0 9 7 -14.8380 -1.6655
0 9 8 7.2644 -1.4176
0 9 9 -1.2775 -3.2119
0 10 0 -41.1841 -0.3145
0 10 1 -9.8662 0.8259
0 10 2 12.1360 1.2822
0 10 3 -30.5600 0.2828
0 10 4 35.0592 -0.4623
0 10 5 18.8913 1.2787
0 10 6 -5.9105 -2.2088
0 10 7 -6.5572 0.5626
0 10 8 -0.6793 -1.2209
0 10 9 -2.6121 0.1683
0 10 10 0.0560 -0.0018
0 11 1 0.3559 1.0161
0 11 2 -5.7570 -0.3926
0 11 3 17.5917 -2.5253
0 11 4 2.7487 0.4483
0 11 5 2.0056 1.8744
0 11 6 10.6026 0.4257
0 11 7 -9.2971 -0.7102
0 11 8 5.7494 -1.4422
0 11 9 11.8351 -1.6154
0 11 10 4.2863 -0.7844
0 11 11 1.2456 1.4587
0 12 0 -17.9590 -3.2769
0 12 1 -4.1124 0.4258
0 12 2 2.5058 -0.0362
0 12 3 -13.1736 0.1599
0 12 4 3.2322 -1.4816
0 12 5 16.3139 -0.5681
0 12 6 -7.0203 -3.5213
0 12 7 -10.2463 -0.0383
0 12 8 8.8520 -0.9594
0 12 9 -7.6049 0.1486
0 12 10 2.3955 -1.2779
0 12 11 -14.4220 -0.4084
0 12 12 -1.1710 -3.3298
0 13 1 5.3006 -1.1735
0 13 2 -2.8378 -0.0589
0 13 3 -11.0239 -0.0388
0 13 4 6.1565 -0.1174
0 13 5 -4.2870 -0.8578
0 13 6 11.8344 -0.3403
0 13 7 -1.3800 -0.4260
0 13 8 11.7688 -0.6246
0 13 9 8.9991 -1.3760
0 13 10 2.6917 0.1133
0 13 11 2.7632 -1.9392
0 13 12 -5.1734 -1.1470
0 14 0 19.0135 -4.6372
0 14 1 -7.4956 0.0493
0 14 2 0.1221 1.7203
0 14 3 -10.0232 -0.2219
0 14 4 -2.5635 0.2465
0 14 5 -0.1679 0.3642
0 14 6 6.4971 -2.5512
0 14 7 1.0814 -0.4561
0 14 8 12.8477 0.4459
0 14 9 11.3082 -0.5256
0 14 10 12.6319 -0.3513
0 15 1 5.9230 0.6396
0 15 2 -1.2614 -0.4481
0 15 3 -5.7703 -2.0832
0 15 4 2.9346 0.2127
0 15 5 -2.4448 -0.5702
0 15 6 1.3063 0.4188
0 15 7 0.8059 -1.7769
0 15 8 5.2772 -0.2709
0 15 9 8.1156 -3.0993
0 16 0 24.1186 -0.0244
0 16 1 1.5105 0.1959
0 16 2 3.4243 0.9583
0 16 3 1.2856 0.1286
0 16 4 1.8515 -1.4300
0 16 5 -10.2799 -0.0788
0 16 6 2.1446 -1.9089
0 16 7 -15.0928 -0.7199
0 17 1 9.7538 0.0187
0 17 2 3.8674 0.4121
0 17 3 -0.6378 -2.7623
0 17 4 2.8128 0.4976
1 3 2 -30.1056 0.5217
1 4 1 78.8703 -1.8926
1 4 2 -2.5222 0.4661
1 4 3 17.1014 -4.0845
1 5 2 -23.4751 0.7555
1 5 3 -55.1193 2.1573
1 5 4 45.5570 2.0109
1 6 1 23.8671 0.6022
1 6 2 2.9584 1.8146
1 6 3 -8.7644 -1.2304
1 6 4 16.0241 0.1293
1 6 5 -6.4794 -2.0129
1 7 2 -1.5413 0.3844
1 7 3 3.9580 0.1334
1 7 4 11.4248 1.0777
1 7 5 -6.7364 -0.9789
1 7 6 17.1403 -0.3714
1 8 1 18.3200 -0.1175
1 8 2 -15.0751 -1.9712
1 8 3 -10.0169 0.1888
1 8 4 10.7880 0.7379
1 8 5 -9.2137 -2.9809
1 8 6 7.7950 1.6453
1 8 7 15.4907 1.3819
1 9 2 -0.4583 -1.3796
1 9 3 5.1205 -0.7660
1 9 4 4.1915 -0.2983
1 9 5 -12.4065 -0.4137
1 9 6 12.0838 0.4631
1 9 7 24.1649 -1.5268
1 9 8 -12.6205 -0.3166
1 10 1 -6.8493 0.7183
1 10 2 -15.4276 2.7448
1 10 3 20.4055 -1.6618
1 10 4 -9.8836 -0.6370
1 10 5 -6.8786 -1.3372
1 10 6 19.8597 0.0989
1 10 7 9.8881 -0.7475
1 10 8 2.8537 0.9228
1 10 9 -5.4315 -0.8911
1 11 2 9.9460 -0.3820
1 11 3 -0.3761 1.6999
1 11 4 -1.7026 -0.3177
1 11 5 -10.6965 -0.1914
1 11 6 1.1975 -0.3591
1 11 7 5.9320 -1.1422
1 11 8 7.8128 -1.4358
1 11 9 -10.0963 0.4829
1 11 10 5.8066 -0.8747
1 12 1 -0.5788 1.1543
1 12 2 5.1016 -0.9528
1 12 3 13.7910 -1.3439
1 12 4 10.3137 -0.2154
1 12 5 -3.3623 -1.0290
1 12 6 2.0938 0.3228
1 12 7 8.8855 -1.0078
1 12 8 -2.3741 0.5928
1 12 9 3.8548 1.1191
1 12 10 2.6143 -1.1338
1 12 11 6.8273 -0.7758
1 13 2 7.6061 -0.8453
1 13 3 13.0357 -0.5041
1 13 4 2.3677 -0.9125
1 13 5 -13.4790 1.0259
1 13 6 -5.3578 -0.2375
1 13 7 -11.6281 0.3324
1 13 8 -4.5291 -0.4765
1 13 9 1.0966 0.1344
1 13 10 2.7248 -0.6646
1 13 11 6.0926 0.0068
1 14 1 -10.9069 -0.4848
1 14 2 8.9608 -0.7553
1 14 3 2.5827 -1.9319
1 14 4 -2.3537 0.3951
1 14 5 6.8768 -1.8262
1 14 6 -10.7420 0.4084
1 14 7 -3.7359 -0.9652
1 14 8 9.0155 0.0109
1 14 9 -11.5710 -0.7926
1 14 10 0.3968 -0.8416
1 15 2 9.2971 -0.8966
1 15 3 -8.4948 1.3906
1 15 4 2.9153 -0.7339
1 15 5 -11.9104 -0.9057
1 15 6 3.4929 0.7882
1 15 7 5.0822 -1.2847
1 15 8 -0.8815 -0.5742
1 15 9 4.6447 0.0411
1 16 1 -0.2005 0.7669
1 16 2 -3.9182 0.8171
1 16 3 -7.8602 0.1369
1 16 4 -9.4864 -0.2429
1 16 5 0.0789 -1.4423
1 16 6 0.0991 0.7483
1 16 7 10.3299 0.2809
1 17 2 7.1154 1.7971
1 17 3 -2.0895 -0.1856
1 17 4 -8.5276 1.3337
2 3 3 67.1417 -0.4664
2 4 2 21.6029 -0.2021
2 4 3 9.8496 -0.4296
2 4 4 27.2934 -1.4564
2 5 3 24.2459 1.8356
2 5 4 -1.7335 -3.7302
2 5 5 11.3540 1.6863
2 6 2 -0.2098 -0.7442
2 6 3 17.8520 3.9319
2 6 4 -20.4793 3.9087
2 6 5 -5.5737 -0.9981
2 6 6 11.3739 -2.9580
2 7 3 -14.6439 -0.4798
2 7 4 -9.3761 2.0665
2 7 5 24.6820 2.0943
2 7 6 -7.2525 -2.7497
2 7 7 7.2416 0.3909
2 8 2 -1.5879 2.9762
2 8 3 12.8197 -1.1478
2 8 4 0.0364 -1.6245
2 8 5 1.0668 3.3721
2 8 6 11.8095 1.5963
2 8 7 -4.0884 -0.0391
2 8 8 -8.7968 3.8232
2 9 3 4.8023 0.9011
2 9 4 -9.7699 -0.4724
2 9 5 24.3688 -2.2551
2 9 6 -8.9483 0.4391
2 9 7 -9.3523 -0.4921
2 9 8 -2.8713 0.1754
2 9 9 -4.9139 -2.4925
2 10 2 20.2261 -1.1345
2 10 3 -17.7652 0.8786
2 10 4 11.9220 1.2804
2 10 5 0.4392 -1.1312
2 10 6 -3.6470 2.1855
2 10 7 -4.4410 -0.8822
2 10 8 4.0491 1.5301
2 10 9 3.1958 0.0204
2 10 10 5.3031 -0.4174
2 11 3 9.5883 1.8265
2 11 4 5.1410 -0.6262
2 11 5 -0.2690 0.7237
2 11 6 2.5221 0.4008
2 11 7 -3.0196 -2.9502
2 11 8 -1.9896 -0.0924
2 11 9 7.1495 0.9689
2 11 10 -2.3335 1.5419
2 11 11 -9.9130 1.4347
2 12 2 0.4418 -1.0372
2 12 3 -17.8796 0.4836
2 12 4 -5.3123 0.8773
2 12 5 2.9682 0.0341
2 12 6 -9.3824 0.6403
2 12 7 1.7964 -0.4736
2 12 8 5.0443 -1.0847
2 12 9 3.0122 -1.4724
2 12 10 4.2481 0.9771
2 12 11 -2.0995 1.6399
2 12 12 -1.7154 -2.2994
2 13 3 -1.4727 -1.4918
2 13 4 9.0566 0.0787
2 13 5 -4.3624 -3.2478
2 13 6 5.5897 1.4647
2 13 7 2.3040 0.5154
2 13 8 -4.8113 -0.9436
2 13 9 15.1923 -0.4465
2 13 10 -3.0031 -0.7121
2 13 11 -3.9459 1.5678
2 14 2 -10.0558 2.4855
2 14 3 -7.4899 -0.2783
2 14 4 -6.5441 0.9778
2 14 5 2.9473 0.0028
2 14 6 -1.3383 1.0363
2 14 7 2.4864 0.3215
2 14 8 3.6641 0.4702
2 14 9 4.6460 -0.9917
2 14 10 4.6783 -1.4080
2 15 3 -4.1706 1.3774
2 15 4 3.6916 -0.8732
2 15 5 -11.9586 0.7563
2 15 6 -2.0484 0.5149
2 15 7 -4.2385 -0.1789
2 15 8 -4.0366 0.2481
2 15 9 11.9615 -0.9490
2 16 2 1.5484 -1.7388
2 16 3 7.5290 0.4929
2 16 4 2.5532 1.3208
2 16 5 -1.2257 0.2411
2 16 6 -5.5894 -0.2360
2 16 7 -7.0725 0.4831
2 17 3 0.0200 -1.0820
2 17 4 1.5316 -0.2008
3 4 3 -29.0190 0.0694
3 5 4 -20.5200 -4.0939
3 6 3 -2.3682 -3.0122
3 6 4 -2.4038 0.9320
3 6 5 3.7159 2.8466
3 7 4 18.4632 1.8716
3 7 5 24.8646 -2.1921
3 7 6 -6.7121 -1.5485
3 8 3 8.9863 -2.0847
3 8 4 7.0846 -3.6267
3 8 5 -6.7786 -0.4556
3 8 6 8.9463 2.2012
3 8 7 -5.5473 1.4000
3 9 4 2.9462 2.5005
3 9 5 4.5622 -0.1261
3 9 6 11.0684 -0.1931
3 9 7 2.2843 -0.2008
3 9 8 6.4868 -1.3899
3 10 3 -14.6951 -4.6031
3 10 4 -5.7947 -0.6387
3 10 5 -20.3274 0.0292
3 10 6 2.7937 0.6306
3 10 7 8.9960 0.9566
3 10 8 6.8676 -0.3260
3 10 9 -4.5694 -0.7905
3 11 4 -10.5204 -1.8228
3 11 5 -10.1081 0.8951
3 11 6 3.1746 0.8995
3 11 7 1.4250 -0.5604
3 11 8 11.4583 1.3735
3 11 9 1.8144 0.3380
3 11 10 3.5349 1.9940
3 12 3 2.4288 -3.9440
3 12 4 -5.9999 -0.5543
3 12 5 -5.4408 1.7730
3 12 6 -7.8908 1.1846
3 12 7 -1.1332 1.2532
3 12 8 -4.9497 1.4938
3 12 9 -3.2849 -0.6757
3 12 10 1.2146 0.0744
3 12 11 -0.1934 -1.5990
3 13 4 -1.1952 3.0495
3 13 5 1.0017 -0.4521
3 13 6 -6.9668 2.9280
3 13 7 -1.0508 1.2416
3 13 8 -2.1553 0.1826
3 13 9 -3.7394 0.0075
3 13 10 -0.5208 0.2052
3 13 11 6.7992 1.2683
3 14 3 5.1764 -4.4764
3 14 4 -6.7297 -0.9173
3 14 5 5.1655 -0.2739
3 14 6 -7.7147 -0.9943
3 14 7 -10.3182 -0.0332
3 14 8 -2.8301 0.6372
3 14 9 -12.3062 0.3717
3 14 10 0.5445 1.6182
3 15 4 1.0834 -0.7829
3 15 5 3.2626 0.2418
3 15 6 -0.7366 -0.1936
3 15 7 1.7553 -0.2341
3 15 8 -3.4413 -0.0430
3 16 3 -2.7015 -0.6378
3 16 4 -6.8241 0.7224
3 16 5 -1.1806 0.5642
3 16 6 -1.2732 -1.9016
4 4 4 12.4213 -0.3585
4 5 5 -17.3665 1.7617
4 6 4 6.4100 0.8469
4 6 5 -3.7313 0.2320
4 6 6 5.9801 -0.0764
4 7 5 5.8649 0.3866
4 7 6 -3.8521 0.4468
4 7 7 -19.2490 1.7846
4 8 4 14.3835 -0.1115
4 8 5 -10.7562 -1.4184
4 8 6 3.9712 0.1930
4 8 7 -0.5689 1.4403
4 8 8 -0.0884 -0.4668
4 9 5 -4.7813 -0.8400
4 9 6 0.4555 -0.6851
4 9 7 -5.2029 -0.2550
4 9 8 4.5297 0.6688
4 9 9 -1.5647 -0.5401
4 10 4 -7.3261 2.8937
4 10 5 -4.0765 0.5132
4 10 6 2.8300 0.0781
4 10 7 -5.5081 -0.3409
4 10 8 2.7030 0.0677
4 10 9 -10.4842 -1.2469
4 10 10 -4.7057 0.1370
4 11 5 -12.2628 4.0135
4 11 6 -3.4115 -0.3989
4 11 7 2.2477 -0.5928
4 11 8 -0.8858 -0.4652
4 11 9 5.3704 0.0333
4 11 10 3.7990 -0.8557
4 11 11 -10.6711 3.3736
4 12 4 -6.5253 0.2403
4 12 5 7.3114 -0.2438
4 12 6 -4.6168 0.3249
4 12 7 5.8768 -0.0282
4 12 8 4.4929 0.3659
4 12 9 0.2646 -0.2748
4 12 10 0.8665 -0.4075
4 12 11 0.0248 -0.0529
4 12 12 -0.6094 -1.1056
4 13 5 -6.9153 -2.4655
4 13 6 -0.2428 0.7104
4 13 7 -0.3526 -1.0431
4 13 8 -7.2376 0.8798
4 13 9 10.7553 -0.2240
4 13 10 -3.6118 0.4524
4 13 11 -6.5476 0.9867
4 14 4 0.3315 2.1820
4 14 5 5.1147 -1.5725
4 14 6 -3.0454 -0.0168
4 14 7 -1.0877 -0.0213
4 14 8 -1.7010 -0.0712
4 14 9 -2.9681 0.5935
4 14 10 0.5816 -0.4183
4 15 5 -1.2367 2.0784
4 15 6 1.6412 0.0719
4 15 7 -9.7439 0.5172
4 15 8 -5.6714 -0.1576
4 16 4 3.2313 1.1545
4 16 5 -0.0313 1.1376
4 16 6 -2.1532 -1.3481
5 6 5 -2.8518 0.1667
5 7 6 -18.8970 -1.6388
5 8 5 -3.7868 3.8480
5 8 6 17.5913 -1.3324
5 8 7 -0.3022 -1.9636
5 9 6 -5.0290 -0.2471
5 9 7 -11.2544 1.0816
5 9 8 8.4981 -0.6276
5 10 5 1.2542 0.0736
5 10 6 -1.1891 1.1805
5 10 7 14.4344 0.3056
5 10 8 0.3391 -1.3376
5 10 9 4.7261 2.7894
5 11 6 -6.2037 -0.2616
5 11 7 -3.5398 1.0599
5 11 8 0.2380 -3.1339
5 11 9 0.9905 -1.2916
5 11 10 -2.0157 -1.6974
5 12 5 -4.2209 3.4055
5 12 6 -4.2009 1.1167
5 12 7 -4.8595 1.8219
5 12 8 -0.2177 -0.0825
5 12 9 -6.7161 1.5396
5 12 10 -1.7819 1.0457
5 12 11 -0.4556 1.2055
5 13 6 -6.3995 1.7917
5 13 7 7.1618 -0.0774
5 13 8 -9.7296 -0.4038
5 13 9 2.3360 -0.2024
5 13 10 -2.5471 0.2016
5 14 5 13.6034 0.4980
5 14 6 1.7717 -0.8304
5 14 7 -2.3783 0.0574
5 14 8 1.2576 1.1786
5 14 9 -4.9864 0.5440
5 15 6 2.5772 -2.0878
5 15 7 5.7219 -1.2945
5 16 5 11.4201 3.2497
6 6 6 2.2194 -4.3136
6 7 7 3.0152 -0.6165
6 8 6 4.8811 -2.5115
6 8 7 -5.7119 -1.2965
6 8 8 0.9005 1.6212
6 9 7 4.4941 0.5488
6 9 8 1.0429 0.5720
6 9 9 0.9339 -2.1911
6 10 6 -2.0194 0.2025
6 10 7 4.9273 -1.0074
6 10 8 -7.1147 -0.6175
6 10 9 -4.8209 -0.0749
6 10 10 -5.4574 2.2158
6 11 7 3.7837 1.1544
6 11 8 -8.3631 -0.2732
6 11 9 -1.5554 -0.3465
6 11 10 -1.3833 -1.7470
6 11 11 -6.6177 0.5372
6 12 6 3.5340 -5.6350
6 12 7 0.7767 -0.3554
6 12 8 7.9043 -1.4994
6 12 9 -0.5060 -0.2864
6 12 10 3.0346 -0.3996
6 12 11 -0.4044 -0.2128
6 13 7 4.1384 -2.8032
6 13 8 1.0301 0.8666
6 13 9 3.9238 -0.3520
6 13 10 -0.4986 -0.4828
6 14 6 -11.3194 -2.4817
6 14 7 -5.3555 -0.2893
6 14 8 -6.8055 1.3652
6 14 9 1.1255 0.6616
6 15 7 2.2562 -0.0484
7 8 7 7.6823 -0.7147
7 9 8 5.8225 5.2650
7 10 7 -6.0358 0.3057
7 10 8 -7.8240 0.9313
7 10 9 0.9044 -0.6996
7 11 8 4.3380 0.0439
7 11 9 -1.3663 -0.0881
7 11 10 5.0643 -0.2698
7 12 7 -19.8394 0.9894
7 12 8 5.5608 -0.3819
7 12 9 -12.3100 0.6125
7 12 10 -1.4103 0.2073
7 13 8 1.8523 -0.5853
7 13 9 3.0104 -0.5867
7 14 7 -2.4479 0.3163
7 14 8 9.5357 0.1070
8 8 8 -3.1090 2.0128
8 9 9 -3.3574 0.3228
8 10 8 -7.4921 0.9709
8 10 9 1.8301 0.2167
8 10 10 5.4268 -1.3887
8 11 9 -1.6662 -0.8682
8 11 10 -0.2676 1.0121
8 11 11 -8.2511 1.5040
8 12 8 11.1690 -0.8566
8 12 9 -4.5904 0.1507
8 12 10 14.4960 -0.7853
9 10 9 9.5076 -0.5684
9 11 10 15.3048 1.0247
9 12 9 -1.9810 -1.2647
10 10 10 -0.7990 1.8698
0 0 0 0.0 0.0
;
_shelx_fab_checksum              45271
_olex2_date_sample_data_collection 2019-02-20
_olex2_submission_special_instructions 'No special instructions were received'
_oxdiff_exptl_absorpt_empirical_details
;
Empirical correction (ABSPACK) includes:
- Absorption correction using spherical harmonics
- Frame scaling
;
_oxdiff_exptl_absorpt_empirical_full_max 1.476
_oxdiff_exptl_absorpt_empirical_full_min 0.565
loop_
_space_group_symop_operation_xyz
'x, y, z'
'-x, -y, z'
'-x, y, -z'
'x, -y, -z'
'z, x, y'
'z, -x, -y'
'-z, -x, y'
'-z, x, -y'
'y, z, x'
'-y, z, -x'
'y, -z, -x'
'-y, -z, x'
'y+1/2, x+1/2, -z+1/2'
'-y+1/2, -x+1/2, -z+1/2'
'y+1/2, -x+1/2, z+1/2'
'-y+1/2, x+1/2, z+1/2'
'x+1/2, z+1/2, -y+1/2'
'-x+1/2, z+1/2, y+1/2'
'-x+1/2, -z+1/2, -y+1/2'
'x+1/2, -z+1/2, y+1/2'
'z+1/2, y+1/2, -x+1/2'
'z+1/2, -y+1/2, x+1/2'
'-z+1/2, y+1/2, x+1/2'
'-z+1/2, -y+1/2, -x+1/2'
'-x, -y, -z'
'x, y, -z'
'x, -y, z'
'-x, y, z'
'-z, -x, -y'
'-z, x, y'
'z, x, -y'
'z, -x, y'
'-y, -z, -x'
'y, -z, x'
'-y, z, x'
'y, z, -x'
'-y-1/2, -x-1/2, z-1/2'
'y-1/2, x-1/2, z-1/2'
'-y-1/2, x-1/2, -z-1/2'
'y-1/2, -x-1/2, -z-1/2'
'-x-1/2, -z-1/2, y-1/2'
'x-1/2, -z-1/2, -y-1/2'
'x-1/2, z-1/2, y-1/2'
'-x-1/2, z-1/2, -y-1/2'
'-z-1/2, -y-1/2, x-1/2'
'-z-1/2, y-1/2, -x-1/2'
'z-1/2, -y-1/2, -x-1/2'
'z-1/2, y-1/2, x-1/2'
loop_
_atom_site_label
_atom_site_type_symbol
_atom_site_fract_x
_atom_site_fract_y
_atom_site_fract_z
_atom_site_U_iso_or_equiv
_atom_site_adp_type
_atom_site_occupancy
_atom_site_site_symmetry_order
_atom_site_calc_flag
_atom_site_refinement_flags_posn
_atom_site_refinement_flags_adp
_atom_site_refinement_flags_occupancy
_atom_site_disorder_assembly
_atom_site_disorder_group
Pd1 Pd 0.17216(11) 0.500000 0.500000 0.0645(11) Uani 1 4 d S T P . .
Fe1 Fe 0.18899(7) 0.31101(7) 0.250000 0.0341(11) Uani 1 2 d DS T P . .
O3 O 0.2404(3) 0.2445(4) 0.3837(3) 0.041(2) Uani 1 1 d . . . . .
O1 O 0.250000 0.250000 0.250000 0.018(4) Uani 1 6 d S T P . .
O2 O 0.1906(3) 0.3225(3) 0.3412(3) 0.038(2) Uani 1 1 d . . . . .
O4 O 0.1226(3) 0.3774(3) 0.250000 0.053(3) Uani 1 2 d S T P . .
H4A H 0.131098 0.412360 0.267400 0.080 Uiso 0.5 1 d DR U P . .
H4B H 0.085818 0.382590 0.236840 0.080 Uiso 0.5 1 d DR U P . .
N1 N 0.1759(6) 0.4116(6) 0.500000 0.050(4) Uiso 1 2 d S . P . .
Cl2 Cl 0.0893(7) 0.500000 0.4456(8) 0.165(7) Uani 0.5 2 d S T P . .
C1 C 0.2110(6) 0.2942(7) 0.3843(6) 0.033(4) Uiso 1 1 d . . . . .
C2 C 0.2033(5) 0.3212(5) 0.4463(5) 0.034(4) Uiso 1 1 d . . . . .
C3 C 0.1850(5) 0.3793(5) 0.4481(5) 0.041(4) Uiso 1 1 d . . . . .
H3 H 0.177863 0.399166 0.410645 0.049 Uiso 1 1 calc R U . . .
C4 C 0.2139(6) 0.2896(7) 0.500000 0.034(5) Uiso 1 2 d S . P . .
H4 H 0.227402 0.248825 0.500000 0.041 Uiso 1 2 calc R U P . .
Cl1 Cl 0.2571(8) 0.500000 0.4396(10) 0.222(10) Uani 0.5 2 d S T P . .
O5 O 0.1522(12) 0.500000 0.3084(11) 0.254(12) Uiso 1 2 d S . P . .
H5A H 0.189171 0.500000 0.321340 0.382 Uiso 1 2 d R U P . .
H5B H 0.127431 0.500000 0.338990 0.382 Uiso 1 2 d R U P . .
loop_
_atom_site_aniso_label
_atom_site_aniso_U_11
_atom_site_aniso_U_22
_atom_site_aniso_U_33
_atom_site_aniso_U_23
_atom_site_aniso_U_13
_atom_site_aniso_U_12
Pd1 0.120(2) 0.0393(17) 0.0345(17) 0.000 0.000 0.000
Fe1 0.0391(13) 0.0391(13) 0.0241(18) 0.0012(9) 0.0012(9) 0.0038(14)
O3 0.036(5) 0.057(6) 0.030(5) -0.001(4) -0.006(4) 0.004(5)
O1 0.018(4) 0.018(4) 0.018(4) -0.004(5) -0.004(5) -0.004(5)
O2 0.049(6) 0.040(5) 0.026(5) -0.001(4) -0.005(4) 0.016(4)
O4 0.051(5) 0.051(5) 0.058(8) 0.007(5) 0.007(5) 0.020(6)
Cl2 0.135(12) 0.036(8) 0.32(2) 0.000 -0.043(12) 0.000
Cl1 0.183(15) 0.027(8) 0.45(3) 0.000 0.143(17) 0.000
loop_
_atom_type_symbol
_atom_type_description
_atom_type_scat_dispersion_real
_atom_type_scat_dispersion_imag
_atom_type_scat_source
C C 0.0033 0.0016 'International Tables Vol C Tables 4.2.6.8 and 6.1.1.4'
H H 0.0000 0.0000 'International Tables Vol C Tables 4.2.6.8 and 6.1.1.4'
Cl Cl 0.1484 0.1585 'International Tables Vol C Tables 4.2.6.8 and 6.1.1.4'
Fe Fe 0.3463 0.8444 'International Tables Vol C Tables 4.2.6.8 and 6.1.1.4'
N N 0.0061 0.0033 'International Tables Vol C Tables 4.2.6.8 and 6.1.1.4'
O O 0.0106 0.0060 'International Tables Vol C Tables 4.2.6.8 and 6.1.1.4'
Pd Pd -0.9988 1.0072 'International Tables Vol C Tables 4.2.6.8 and 6.1.1.4'
loop_
_geom_angle_atom_site_label_1
_geom_angle_atom_site_label_2
_geom_angle_atom_site_label_3
_geom_angle
_geom_angle_site_symmetry_1
_geom_angle_site_symmetry_3
_geom_angle_publ_flag
N1 Pd1 N1 175.1(7) . 27_565 ?
N1 Pd1 Cl2 92.0(3) 27_565 . ?
N1 Pd1 Cl2 92.0(3) 27_565 26_556 ?
N1 Pd1 Cl2 92.0(3) . . ?
N1 Pd1 Cl2 92.0(3) . 26_556 ?
N1 Pd1 Cl1 88.0(3) 27_565 26_556 ?
N1 Pd1 Cl1 88.0(3) 27_565 . ?
N1 Pd1 Cl1 88.0(3) . . ?
N1 Pd1 Cl1 88.0(3) . 26_556 ?
Cl2 Pd1 Cl2 66.5(9) . 26_556 ?
Cl2 Pd1 Cl1 177.9(7) 26_556 . ?
Cl2 Pd1 Cl1 111.3(8) . . ?
Cl2 Pd1 Cl1 111.3(8) 26_556 26_556 ?
Cl2 Pd1 Cl1 177.9(7) . 26_556 ?
Cl1 Pd1 Cl1 70.8(12) 26_556 . ?
O3 Fe1 O3 164.8(4) 9 24 ?
O3 Fe1 O2 89.2(3) 24 . ?
O3 Fe1 O2 89.6(3) 24 14 ?
O3 Fe1 O2 89.6(3) 9 . ?
O3 Fe1 O2 89.2(3) 9 14 ?
O3 Fe1 O4 82.4(2) 9 . ?
O3 Fe1 O4 82.4(2) 24 . ?
O1 Fe1 O3 97.6(2) . 9 ?
O1 Fe1 O3 97.6(2) . 24 ?
O1 Fe1 O2 94.4(2) . 14 ?
O1 Fe1 O2 94.4(2) . . ?
O1 Fe1 O4 180.00(13) . . ?
O2 Fe1 O2 171.3(4) . 14 ?
O2 Fe1 O4 85.6(2) . . ?
O2 Fe1 O4 85.6(2) 14 . ?
C1 O3 Fe1 125.4(8) . 5 ?
Fe1 O1 Fe1 120.0 9 5 ?
Fe1 O1 Fe1 120.0 9 . ?
Fe1 O1 Fe1 120.0 5 . ?
C1 O2 Fe1 135.5(8) . . ?
Fe1 O4 H4A 117.9 . . ?
Fe1 O4 H4A 117.949(1) . 14 ?
Fe1 O4 H4B 138.9 . . ?
Fe1 O4 H4B 138.885(3) . 14 ?
H4A O4 H4A 124.1 . 14 ?
H4A O4 H4B 103.2 14 14 ?
H4A O4 H4B 103.2 . . ?
H4A O4 H4B 20.9 . 14 ?
H4B O4 H4A 20.9 . 14 ?
H4B O4 H4B 82.2 . 14 ?
C3 N1 Pd1 121.9(7) . . ?
C3 N1 Pd1 121.9(7) 26_556 . ?
C3 N1 C3 114.3(14) 26_556 . ?
Pd1 Cl2 Cl2 56.7(5) . 26_556 ?
O3 C1 C2 114.1(12) . . ?
O2 C1 O3 128.3(12) . . ?
O2 C1 C2 117.6(12) . . ?
C3 C2 C1 116.0(11) . . ?
C3 C2 C4 120.2(11) . . ?
C4 C2 C1 123.8(11) . . ?
N1 C3 H3 117.8 . . ?
C2 C3 N1 124.5(12) . . ?
C2 C3 H3 117.8 . . ?
C2 C4 C2 116.3(15) . 26_556 ?
C2 C4 H4 121.9 . . ?
C2 C4 H4 121.9 26_556 . ?
H5A O5 H5B 109.8 . . ?
loop_
_geom_bond_atom_site_label_1
_geom_bond_atom_site_label_2
_geom_bond_distance
_geom_bond_site_symmetry_2
_geom_bond_publ_flag
Pd1 N1 1.958(13) . ?
Pd1 N1 1.958(13) 27_565 ?
Pd1 Cl2 2.191(15) . ?
Pd1 Cl2 2.191(15) 26_556 ?
Pd1 Cl1 2.304(15) 26_556 ?
Pd1 Cl1 2.304(15) . ?
Fe1 O3 2.033(7) 9 ?
Fe1 O3 2.033(7) 24 ?
Fe1 O1 1.908(2) . ?
Fe1 O2 2.033(7) . ?
Fe1 O2 2.033(7) 14 ?
Fe1 O4 2.076(10) . ?
O3 C1 1.278(13) . ?
O2 C1 1.226(13) . ?
O4 H4A 0.8841 . ?
O4 H4A 0.8842 14 ?
O4 H4B 0.8720 . ?
O4 H4B 0.8720 14 ?
N1 C3 1.367(12) 26_556 ?
N1 C3 1.367(12) . ?
Cl2 Cl2 2.40(3) 26_556 ?
C1 C2 1.506(14) . ?
C2 C3 1.347(12) . ?
C2 C4 1.398(12) . ?
C3 H3 0.9500 . ?
C4 H4 0.9500 . ?
O5 H5A 0.8668 . ?
O5 H5B 0.8693 . ?
loop_
_geom_torsion_atom_site_label_1
_geom_torsion_atom_site_label_2
_geom_torsion_atom_site_label_3
_geom_torsion_atom_site_label_4
_geom_torsion
_geom_torsion_site_symmetry_1
_geom_torsion_site_symmetry_2
_geom_torsion_site_symmetry_3
_geom_torsion_site_symmetry_4
_geom_torsion_publ_flag
Pd1 N1 C3 C2 162.1(9) . . . . ?
Fe1 O3 C1 O2 -11.4(18) 5 . . . ?
Fe1 O3 C1 C2 171.1(6) 5 . . . ?
Fe1 O2 C1 O3 1(2) . . . . ?
Fe1 O2 C1 C2 178.0(6) . . . . ?
O3 C1 C2 C3 165.7(10) . . . . ?
O3 C1 C2 C4 -14.6(16) . . . . ?
O2 C1 C2 C3 -12.1(15) . . . . ?
O2 C1 C2 C4 167.6(12) . . . . ?
C1 C2 C3 N1 -179.6(11) . . . . ?
C1 C2 C4 C2 -178.7(8) . . . 26_556 ?
C3 N1 C3 C2 -2(2) 26_556 . . . ?
C3 C2 C4 C2 1(2) . . . 26_556 ?
C4 C2 C3 N1 0.7(18) . . . . ?
loop_
_smtbx_masks_void_nr
_smtbx_masks_void_average_x
_smtbx_masks_void_average_y
_smtbx_masks_void_average_z
_smtbx_masks_void_volume
_smtbx_masks_void_count_electrons
_smtbx_masks_void_content
1 0.000 0.000 0.000 870.7 0.0 ?
2 -0.010 -0.260 -0.268 2681.6 513.4 ?
3 0.500 0.500 0.500 870.7 0.0 ?
