#------------------------------------------------------------------------------
#$Date: 2016-03-21 18:28:38 +0200 (Mon, 21 Mar 2016) $
#$Revision: 178813 $
#$URL: svn://www.crystallography.net/cod/cif/4/10/67/4106777.cif $
#------------------------------------------------------------------------------
#
# This file is available in the Crystallography Open Database (COD),
# http://www.crystallography.net/
#
# All data on this site have been placed in the public domain by the
# contributors.
#
data_4106777
loop_
_publ_author_name
'Eric D. Bloch'
'Leslie J. Murray'
'Wendy L. Queen'
'Sachin Chavan'
'Sergey N. Maximoff'
'Julian P. Bigi'
'Rajamani Krishna'
'Vanessa K. Peterson'
'Fernande Grandjean'
'Gary J. Long'
'Berend Smit'
'Silvia Bordiga'
'Craig M. Brown'
'Jeffrey R. Long'
_publ_section_title
;
 Selective Binding of O2 over N2 in a Redox-Active Metal-Organic Framework
 with Open Iron(II) Coordination Sites
;
_journal_name_full               'Journal of the American Chemical Society'
_journal_page_first              14814
_journal_page_last               14822
_journal_paper_doi               10.1021/ja205976v
_journal_volume                  133
_journal_year                    2011
_chemical_formula_sum            'C4 H Fe O3.92'
_chemical_formula_weight         167.66
_space_group_IT_number           148
_symmetry_cell_setting           trigonal
_symmetry_space_group_name_Hall  '-R 3'
_symmetry_space_group_name_H-M   'R -3 :H'
_audit_creation_date             2011-01-13T15:57
_audit_creation_method           'from EXP file using GSAS2CIF'
_audit_update_record
' 2011-01-13T15:57  Initial CIF as created by GSAS2CIF'
_cell_angle_alpha                90.0
_cell_angle_beta                 90.0
_cell_angle_gamma                120.0
_cell_formula_units_Z            18
_cell_length_a                   26.0087(13)
_cell_length_b                   26.0087
_cell_length_c                   6.8131(7)
_cell_volume                     3991.3(5)
_computing_structure_refinement  GSAS
_pd_block_id                     2011-01-13T15:57|OXIDIZED_phase1|||
_pd_phase_name
'from /data/people/craigy/MgMOF/BT1/1108/MOF74.xtl'
_refine_ls_goodness_of_fit_all   1.01
_refine_ls_matrix_type           full
_refine_ls_number_parameters     33
_refine_ls_number_restraints     2
_refine_ls_shift/su_max          0.49
_refine_ls_shift/su_mean         0.20
_cod_data_source_file            ja205976v_si_005.cif
_cod_data_source_block           OXIDIZED_publ
_cod_original_cell_volume        3991.3(4)
_cod_original_sg_symbol_H-M      'R -3'
_cod_database_code               4106777
loop_
_symmetry_equiv_pos_site_id
_symmetry_equiv_pos_as_xyz
1 +x,+y,+z
2 -y,x-y,+z
3 y-x,-x,+z
-1 -x,-y,-z
-2 +y,y-x,-z
-3 x-y,+x,-z
101 +x+1/3,+y+2/3,+z+2/3
102 -y+1/3,x-y+2/3,+z+2/3
103 y-x+1/3,-x+2/3,+z+2/3
-101 -x+2/3,-y+1/3,-z+1/3
-102 +y+2/3,y-x+1/3,-z+1/3
-103 x-y+2/3,+x+1/3,-z+1/3
201 +x+2/3,+y+1/3,+z+1/3
202 -y+2/3,x-y+1/3,+z+1/3
203 y-x+2/3,-x+1/3,+z+1/3
-201 -x+1/3,-y+2/3,-z+2/3
-202 +y+1/3,y-x+2/3,-z+2/3
-203 x-y+1/3,+x+2/3,-z+2/3
loop_
_atom_site_aniso_label
_atom_site_aniso_U_11
_atom_site_aniso_U_12
_atom_site_aniso_U_13
_atom_site_aniso_U_22
_atom_site_aniso_U_23
_atom_site_aniso_U_33
O1b 0.2063 0.16102 0.18063 0.29585 0.09292 0.56759
loop_
_atom_site_type_symbol
_atom_site_label
_atom_site_fract_x
_atom_site_fract_y
_atom_site_fract_z
_atom_site_occupancy
_atom_site_thermal_displace_type
_atom_site_U_iso_or_equiv
_atom_site_symmetry_multiplicity
Fe Fe 0.3804(5) 0.3479(6) 0.1410(16) 1.0 Uiso 0.03437 18
O O1 0.3266(7) 0.2968(8) 0.3491(26) 1.0 Uiso 0.0177 18
O O2 0.2997(9) 0.2206(8) 0.6080(26) 1.0 Uiso 0.03076 18
O O3 0.3568(7) 0.2730(6) 0.0073(24) 1.0 Uiso 0.00454 18
C C1 0.3175(8) 0.2465(7) 0.4145(25) 1.0 Uiso 0.02885 18
C C2 0.3336(9) 0.2091(8) 0.3005(29) 1.0 Uiso 0.05062 18
C C3 0.3460(7) 0.2259(7) 0.0971(23) 1.0 Uiso 0.0006 18
C C4 0.3537(9) 0.1823(8) -0.0161(25) 1.0 Uiso 0.02333 18
H H 0.3701(11) 0.1922(11) -0.180(4) 1.0 Uiso 0.00814 18
O O1a 0.5306(14) 0.6107(15) 0.730(5) 0.46(3) Uiso 0.00662 18
O O1b 0.5135(29) 0.634(4) 0.924(16) 0.46(3) Uani 0.34081 18
loop_
_atom_type_symbol
_atom_type_number_in_cell
Fe 18.0
O 70.606
C 72.0
H 18.0
loop_
_geom_angle_atom_site_label_1
_geom_angle_atom_site_label_2
_geom_angle_atom_site_label_3
_geom_angle
_geom_angle_site_symmetry_1
_geom_angle_site_symmetry_3
_geom_angle_publ_flag
O1 Fe O1 84.6(5) 1_555 103_554 n
O1 Fe O3 84.2(9) 1_555 1_555 n
O1 Fe O3 82.6(8) 1_555 202_555 n
O1 Fe O3 84.5(8) 103_554 1_555 n
O1 Fe O3 95.0(8) 103_554 202_555 n
O3 Fe O3 166.8(10) 1_555 202_555 n
Fe O1 Fe 93.2(7) 1_555 202_555 n
Fe O1 C1 130.0(19) 1_555 1_555 n
Fe O1 C1 133.2(17) 202_555 1_555 n
Fe O3 Fe 92.0(8) 1_555 103_554 n
Fe O3 C3 123.1(14) 1_555 1_555 n
Fe O3 C3 128.4(13) 103_554 1_555 n
O1 C1 O2 130.0(19) 1_555 1_555 n
O1 C1 C2 121.7(21) 1_555 1_555 n
O2 C1 C2 107.7(15) 1_555 1_555 n
C1 C2 C3 113.8(18) 1_555 1_555 n
C1 C2 C4 121.4(18) 1_555 -201_555 n
C3 C2 C4 118.4(17) 1_555 -201_555 n
O3 C3 C2 131.7(19) 1_555 1_555 n
O3 C3 C4 116.3(16) 1_555 1_555 n
C2 C3 C4 111.5(13) 1_555 1_555 n
C2 C4 C3 126.6(16) -201_555 1_555 n
C2 C4 H 111.9(16) -201_555 1_555 n
C3 C4 H 120.3(18) 1_555 1_555 n
loop_
_geom_bond_atom_site_label_1
_geom_bond_atom_site_label_2
_geom_bond_distance
_geom_bond_site_symmetry_2
_geom_bond_publ_flag
Fe O1 1.968(17) 1_555 n
Fe O1 2.086(21) 103_554 n
Fe O2 2.174(19) 202_554 n
Fe O3 1.952(18) 1_555 n
Fe O3 2.142(19) 202_555 n
Fe O1a 2.190(32) -1_666 n
O1 Fe 1.968(17) 1_555 n
O1 Fe 2.086(21) 202_555 n
O1 C1 1.288(19) 1_555 n
O2 Fe 2.174(19) 103_555 n
O2 C1 1.447(23) 1_555 n
O2 O1b 2.17(8) -103_435 n
O3 Fe 1.952(18) 1_555 n
O3 Fe 2.142(19) 103_554 n
O3 C3 1.268(18) 1_555 n
C1 O1 1.288(19) 1_555 n
C1 O2 1.447(23) 1_555 n
C1 C2 1.462(24) 1_555 n
C2 C1 1.462(24) 1_555 n
C2 C3 1.441(22) 1_555 n
C2 C4 1.366(21) -201_444 n
C3 O3 1.268(18) 1_555 n
C3 C2 1.441(22) 1_555 n
C3 C4 1.465(19) 1_555 n
C4 C2 1.366(21) -201_444 n
C4 C3 1.465(19) 1_555 n
C4 H 1.178(30) 1_555 n
H C4 1.178(30) 1_555 n
O1a Fe 2.190(32) -1_666 n
O1a O1b 1.61(10) 1_555 n
O1b O2 2.17(8) -102_445 n
O1b O1a 1.61(10) 1_555 n
