#------------------------------------------------------------------------------
#$Date: 2016-03-21 18:49:09 +0200 (Mon, 21 Mar 2016) $
#$Revision: 178825 $
#$URL: svn://www.crystallography.net/cod/cif/4/10/79/4107965.cif $
#------------------------------------------------------------------------------
#
# This file is available in the Crystallography Open Database (COD),
# http://www.crystallography.net/
#
# All data on this site have been placed in the public domain by the
# contributors.
#
data_4107965
loop_
_publ_author_name
'Kristine K. Tanabe'
'Zhenqiang Wang'
'Seth M. Cohen'
_publ_section_title
;
 Systematic Functionalization of a Metal-Organic Framework via a
 Postsynthetic Modification Approach
;
_journal_name_full               'Journal of the American Chemical Society'
_journal_page_first              8508
_journal_page_last               8517
_journal_paper_doi               10.1021/ja801848j
_journal_volume                  130
_journal_year                    2008
_chemical_formula_moiety         'C39 H39 N3 O16 Zn4'
_chemical_formula_sum            'C39 H39 N3 O16 Zn4'
_chemical_formula_weight         1067.21
_chemical_name_common            IRMOF-3-AM4
_chemical_name_systematic
; 
 ? 
;
_space_group_IT_number           225
_symmetry_cell_setting           cubic
_symmetry_space_group_name_Hall  '-F 4 2 3'
_symmetry_space_group_name_H-M   'F m -3 m'
_atom_sites_solution_hydrogens   none
_atom_sites_solution_primary     direct
_atom_sites_solution_secondary   difmap
_audit_creation_method           SHELXL-97
_cell_angle_alpha                90.00
_cell_angle_beta                 90.00
_cell_angle_gamma                90.00
_cell_formula_units_Z            8
_cell_length_a                   25.7386(6)
_cell_length_b                   25.7386(6)
_cell_length_c                   25.7386(6)
_cell_measurement_reflns_used    2366
_cell_measurement_temperature    200(2)
_cell_measurement_theta_max      26.8
_cell_measurement_theta_min      2.74
_cell_volume                     17051.2(7)
_computing_cell_refinement       SAINT
_computing_data_collection       'Apex2 v.1.0-2.1 (Bruker, 2006)'
_computing_data_reduction        'sAINT v7.34A (Bruker, 2007)'
_computing_molecular_graphics    'SHELXTL 5.1 (Sheldrick, 1994)'
_computing_publication_material  SHELXL97
_computing_structure_refinement  'SHELXL-97 (Sheldrick, 1997)'
_computing_structure_solution    'SHELXS-97 (Sheldrick, 1990)'
_diffrn_ambient_temperature      200(2)
_diffrn_detector_area_resol_mean 8.3
_diffrn_measured_fraction_theta_full 0.998
_diffrn_measured_fraction_theta_max 0.998
_diffrn_measurement_device_type  'Bruker Apex'
_diffrn_measurement_method       \w\f
_diffrn_radiation_monochromator  graphite
_diffrn_radiation_source         'fine-focus sealed tube'
_diffrn_radiation_type           MoK\a
_diffrn_radiation_wavelength     0.71073
_diffrn_reflns_av_R_equivalents  0.0000
_diffrn_reflns_av_sigmaI/netI    0.0222
_diffrn_reflns_limit_h_max       18
_diffrn_reflns_limit_h_min       0
_diffrn_reflns_limit_k_max       22
_diffrn_reflns_limit_k_min       0
_diffrn_reflns_limit_l_max       32
_diffrn_reflns_limit_l_min       1
_diffrn_reflns_number            935
_diffrn_reflns_theta_full        25.00
_diffrn_reflns_theta_max         26.37
_diffrn_reflns_theta_min         1.37
_diffrn_standards_number         0
_exptl_absorpt_coefficient_mu    1.149
_exptl_absorpt_correction_T_max  0.8027
_exptl_absorpt_correction_T_min  0.7243
_exptl_absorpt_correction_type   multi-scan
_exptl_absorpt_process_details   'SADABS 2.10 (Sheldrick, 2004)'
_exptl_crystal_colour            amber
_exptl_crystal_density_diffrn    0.831
_exptl_crystal_description       block
_exptl_crystal_F_000             4336
_exptl_crystal_size_max          0.30
_exptl_crystal_size_mid          0.20
_exptl_crystal_size_min          0.20
_platon_squeeze_details
;
;
_refine_diff_density_max         0.357
_refine_diff_density_min         -0.207
_refine_diff_density_rms         0.042
_refine_ls_extinction_method     none
_refine_ls_goodness_of_fit_ref   0.918
_refine_ls_hydrogen_treatment    none
_refine_ls_matrix_type           full
_refine_ls_number_parameters     28
_refine_ls_number_reflns         935
_refine_ls_number_restraints     0
_refine_ls_restrained_S_all      0.918
_refine_ls_R_factor_all          0.0387
_refine_ls_R_factor_gt           0.0304
_refine_ls_shift/su_max          0.000
_refine_ls_shift/su_mean         0.000
_refine_ls_structure_factor_coef Fsqd
_refine_ls_weighting_details
'calc w=1/[\s^2^(Fo^2^)+(0.0566P)^2^] where P=(Fo^2^+2Fc^2^)/3'
_refine_ls_weighting_scheme      calc
_refine_ls_wR_factor_gt          0.0814
_refine_ls_wR_factor_ref         0.0849
_reflns_number_gt                659
_reflns_number_total             935
_reflns_threshold_expression     >2\s(I)
_cod_data_source_file            ja801848j-file005.cif
_cod_data_source_block           squeeze2
_cod_database_code               4107965
loop_
_symmetry_equiv_pos_as_xyz
'x, y, z'
'-x, -y, z'
'-x, y, -z'
'x, -y, -z'
'z, x, y'
'z, -x, -y'
'-z, -x, y'
'-z, x, -y'
'y, z, x'
'-y, z, -x'
'y, -z, -x'
'-y, -z, x'
'y, x, -z'
'-y, -x, -z'
'y, -x, z'
'-y, x, z'
'x, z, -y'
'-x, z, y'
'-x, -z, -y'
'x, -z, y'
'z, y, -x'
'z, -y, x'
'-z, y, x'
'-z, -y, -x'
'x, y+1/2, z+1/2'
'-x, -y+1/2, z+1/2'
'-x, y+1/2, -z+1/2'
'x, -y+1/2, -z+1/2'
'z, x+1/2, y+1/2'
'z, -x+1/2, -y+1/2'
'-z, -x+1/2, y+1/2'
'-z, x+1/2, -y+1/2'
'y, z+1/2, x+1/2'
'-y, z+1/2, -x+1/2'
'y, -z+1/2, -x+1/2'
'-y, -z+1/2, x+1/2'
'y, x+1/2, -z+1/2'
'-y, -x+1/2, -z+1/2'
'y, -x+1/2, z+1/2'
'-y, x+1/2, z+1/2'
'x, z+1/2, -y+1/2'
'-x, z+1/2, y+1/2'
'-x, -z+1/2, -y+1/2'
'x, -z+1/2, y+1/2'
'z, y+1/2, -x+1/2'
'z, -y+1/2, x+1/2'
'-z, y+1/2, x+1/2'
'-z, -y+1/2, -x+1/2'
'x+1/2, y, z+1/2'
'-x+1/2, -y, z+1/2'
'-x+1/2, y, -z+1/2'
'x+1/2, -y, -z+1/2'
'z+1/2, x, y+1/2'
'z+1/2, -x, -y+1/2'
'-z+1/2, -x, y+1/2'
'-z+1/2, x, -y+1/2'
'y+1/2, z, x+1/2'
'-y+1/2, z, -x+1/2'
'y+1/2, -z, -x+1/2'
'-y+1/2, -z, x+1/2'
'y+1/2, x, -z+1/2'
'-y+1/2, -x, -z+1/2'
'y+1/2, -x, z+1/2'
'-y+1/2, x, z+1/2'
'x+1/2, z, -y+1/2'
'-x+1/2, z, y+1/2'
'-x+1/2, -z, -y+1/2'
'x+1/2, -z, y+1/2'
'z+1/2, y, -x+1/2'
'z+1/2, -y, x+1/2'
'-z+1/2, y, x+1/2'
'-z+1/2, -y, -x+1/2'
'x+1/2, y+1/2, z'
'-x+1/2, -y+1/2, z'
'-x+1/2, y+1/2, -z'
'x+1/2, -y+1/2, -z'
'z+1/2, x+1/2, y'
'z+1/2, -x+1/2, -y'
'-z+1/2, -x+1/2, y'
'-z+1/2, x+1/2, -y'
'y+1/2, z+1/2, x'
'-y+1/2, z+1/2, -x'
'y+1/2, -z+1/2, -x'
'-y+1/2, -z+1/2, x'
'y+1/2, x+1/2, -z'
'-y+1/2, -x+1/2, -z'
'y+1/2, -x+1/2, z'
'-y+1/2, x+1/2, z'
'x+1/2, z+1/2, -y'
'-x+1/2, z+1/2, y'
'-x+1/2, -z+1/2, -y'
'x+1/2, -z+1/2, y'
'z+1/2, y+1/2, -x'
'z+1/2, -y+1/2, x'
'-z+1/2, y+1/2, x'
'-z+1/2, -y+1/2, -x'
'-x, -y, -z'
'x, y, -z'
'x, -y, z'
'-x, y, z'
'-z, -x, -y'
'-z, x, y'
'z, x, -y'
'z, -x, y'
'-y, -z, -x'
'y, -z, x'
'-y, z, x'
'y, z, -x'
'-y, -x, z'
'y, x, z'
'-y, x, -z'
'y, -x, -z'
'-x, -z, y'
'x, -z, -y'
'x, z, y'
'-x, z, -y'
'-z, -y, x'
'-z, y, -x'
'z, -y, -x'
'z, y, x'
'-x, -y+1/2, -z+1/2'
'x, y+1/2, -z+1/2'
'x, -y+1/2, z+1/2'
'-x, y+1/2, z+1/2'
'-z, -x+1/2, -y+1/2'
'-z, x+1/2, y+1/2'
'z, x+1/2, -y+1/2'
'z, -x+1/2, y+1/2'
'-y, -z+1/2, -x+1/2'
'y, -z+1/2, x+1/2'
'-y, z+1/2, x+1/2'
'y, z+1/2, -x+1/2'
'-y, -x+1/2, z+1/2'
'y, x+1/2, z+1/2'
'-y, x+1/2, -z+1/2'
'y, -x+1/2, -z+1/2'
'-x, -z+1/2, y+1/2'
'x, -z+1/2, -y+1/2'
'x, z+1/2, y+1/2'
'-x, z+1/2, -y+1/2'
'-z, -y+1/2, x+1/2'
'-z, y+1/2, -x+1/2'
'z, -y+1/2, -x+1/2'
'z, y+1/2, x+1/2'
'-x+1/2, -y, -z+1/2'
'x+1/2, y, -z+1/2'
'x+1/2, -y, z+1/2'
'-x+1/2, y, z+1/2'
'-z+1/2, -x, -y+1/2'
'-z+1/2, x, y+1/2'
'z+1/2, x, -y+1/2'
'z+1/2, -x, y+1/2'
'-y+1/2, -z, -x+1/2'
'y+1/2, -z, x+1/2'
'-y+1/2, z, x+1/2'
'y+1/2, z, -x+1/2'
'-y+1/2, -x, z+1/2'
'y+1/2, x, z+1/2'
'-y+1/2, x, -z+1/2'
'y+1/2, -x, -z+1/2'
'-x+1/2, -z, y+1/2'
'x+1/2, -z, -y+1/2'
'x+1/2, z, y+1/2'
'-x+1/2, z, -y+1/2'
'-z+1/2, -y, x+1/2'
'-z+1/2, y, -x+1/2'
'z+1/2, -y, -x+1/2'
'z+1/2, y, x+1/2'
'-x+1/2, -y+1/2, -z'
'x+1/2, y+1/2, -z'
'x+1/2, -y+1/2, z'
'-x+1/2, y+1/2, z'
'-z+1/2, -x+1/2, -y'
'-z+1/2, x+1/2, y'
'z+1/2, x+1/2, -y'
'z+1/2, -x+1/2, y'
'-y+1/2, -z+1/2, -x'
'y+1/2, -z+1/2, x'
'-y+1/2, z+1/2, x'
'y+1/2, z+1/2, -x'
'-y+1/2, -x+1/2, z'
'y+1/2, x+1/2, z'
'-y+1/2, x+1/2, -z'
'y+1/2, -x+1/2, -z'
'-x+1/2, -z+1/2, y'
'x+1/2, -z+1/2, -y'
'x+1/2, z+1/2, y'
'-x+1/2, z+1/2, -y'
'-z+1/2, -y+1/2, x'
'-z+1/2, y+1/2, -x'
'z+1/2, -y+1/2, -x'
'z+1/2, y+1/2, x'
loop_
_atom_site_label
_atom_site_type_symbol
_atom_site_fract_x
_atom_site_fract_y
_atom_site_fract_z
_atom_site_U_iso_or_equiv
_atom_site_adp_type
_atom_site_occupancy
_atom_site_symmetry_multiplicity
_atom_site_calc_flag
_atom_site_refinement_flags
Zn1 Zn 0.206575(9) 0.206575(9) 0.206575(9) 0.04315(19) Uani 1 6 d S
O1 O 0.21946(5) 0.21946(5) 0.13421(7) 0.0773(6) Uani 1 2 d S
O2 O 0.2500 0.2500 0.2500 0.0367(10) Uani 1 24 d S
C1 C 0.2500 0.2500 0.11152(13) 0.0650(9) Uani 1 4 d S
C2 C 0.2500 0.2500 0.05391(14) 0.0729(11) Uani 1 4 d S
C3 C 0.20872(18) 0.2295(2) 0.02634(13) 0.084(2) Uani 0.50 1 d P
loop_
_atom_site_aniso_label
_atom_site_aniso_U_11
_atom_site_aniso_U_22
_atom_site_aniso_U_33
_atom_site_aniso_U_23
_atom_site_aniso_U_13
_atom_site_aniso_U_12
Zn1 0.04315(19) 0.04315(19) 0.04315(19) -0.00220(11) -0.00220(11) -0.00220(11)
O1 0.0945(9) 0.0945(9) 0.0428(10) -0.0001(7) -0.0001(7) -0.0259(11)
O2 0.0367(10) 0.0367(10) 0.0367(10) 0.000 0.000 0.000
C1 0.0770(15) 0.0770(15) 0.0411(19) 0.000 0.000 0.004(2)
C2 0.0866(18) 0.0866(18) 0.0455(19) 0.000 0.000 -0.005(2)
C3 0.095(4) 0.112(5) 0.0460(17) -0.001(2) -0.0005(17) -0.017(4)
loop_
_atom_type_symbol
_atom_type_description
_atom_type_scat_dispersion_real
_atom_type_scat_dispersion_imag
_atom_type_scat_source
C C 0.0033 0.0016 'International Tables Vol C Tables 4.2.6.8 and 6.1.1.4'
H H 0.0000 0.0000 'International Tables Vol C Tables 4.2.6.8 and 6.1.1.4'
N N 0.0061 0.0033 'International Tables Vol C Tables 4.2.6.8 and 6.1.1.4'
O O 0.0106 0.0060 'International Tables Vol C Tables 4.2.6.8 and 6.1.1.4'
Zn Zn 0.2839 1.4301 'International Tables Vol C Tables 4.2.6.8 and 6.1.1.4'
loop_
_geom_angle_atom_site_label_1
_geom_angle_atom_site_label_2
_geom_angle_atom_site_label_3
_geom_angle
_geom_angle_site_symmetry_1
_geom_angle_site_symmetry_3
O1 Zn1 O1 107.77(6) 9 5
O1 Zn1 O1 107.76(6) 9 .
O1 Zn1 O1 107.76(6) 5 .
O1 Zn1 O2 111.13(6) 9 .
O1 Zn1 O2 111.13(6) 5 .
O1 Zn1 O2 111.13(6) . .
C1 O1 Zn1 131.9(2) . .
Zn1 O2 Zn1 109.5 . 28
Zn1 O2 Zn1 109.472(1) . 51
Zn1 O2 Zn1 109.473(1) 28 51
Zn1 O2 Zn1 109.5 . 74
Zn1 O2 Zn1 109.5 28 74
Zn1 O2 Zn1 109.5 51 74
O1 C1 O1 124.6(3) . 74
O1 C1 C2 117.72(16) . .
O1 C1 C2 117.72(16) 74 .
C3 C2 C3 108.8(4) 181 .
C3 C2 C3 118.2(4) 74 .
C3 C2 C3 118.2(4) 181 110
C3 C2 C3 108.8(4) 74 110
C3 C2 C1 120.9(2) 181 .
C3 C2 C1 120.9(2) 74 .
C3 C2 C1 120.9(2) . .
C3 C2 C1 120.9(2) 110 .
C3 C3 C2 120.9(2) 98 .
loop_
_geom_bond_atom_site_label_1
_geom_bond_atom_site_label_2
_geom_bond_distance
_geom_bond_site_symmetry_2
Zn1 O1 1.9205(17) 9
Zn1 O1 1.9205(17) 5
Zn1 O1 1.9206(17) .
Zn1 O2 1.9359(4) .
O1 C1 1.256(2) .
O2 Zn1 1.9360(4) 28
O2 Zn1 1.9360(4) 51
O2 Zn1 1.9361(4) 74
C1 O1 1.256(2) 74
C1 C2 1.483(4) .
C2 C3 1.382(4) 181
C2 C3 1.382(4) 74
C2 C3 1.382(4) .
C2 C3 1.382(4) 110
C3 C3 1.356(7) 98
loop_
_geom_torsion_atom_site_label_1
_geom_torsion_atom_site_label_2
_geom_torsion_atom_site_label_3
_geom_torsion_atom_site_label_4
_geom_torsion
_geom_torsion_site_symmetry_1
_geom_torsion_site_symmetry_4
O1 Zn1 O1 C1 -121.98(7) 9 .
O1 Zn1 O1 C1 121.98(7) 5 .
O2 Zn1 O1 C1 0.0 . .
O1 Zn1 O2 Zn1 -120.0 9 28
O1 Zn1 O2 Zn1 0.0 5 28
O1 Zn1 O2 Zn1 120.0 . 28
O1 Zn1 O2 Zn1 0.0 9 51
O1 Zn1 O2 Zn1 120.0 5 51
O1 Zn1 O2 Zn1 -120.0 . 51
O1 Zn1 O2 Zn1 120.0 9 74
O1 Zn1 O2 Zn1 -120.0 5 74
O1 Zn1 O2 Zn1 0.0 . 74
Zn1 O1 C1 O1 0.0 . 74
Zn1 O1 C1 C2 180.0 . .
O1 C1 C2 C3 161.4(3) . 181
O1 C1 C2 C3 -18.6(3) 74 181
O1 C1 C2 C3 -161.4(3) . 74
O1 C1 C2 C3 18.6(3) 74 74
O1 C1 C2 C3 18.6(3) . .
O1 C1 C2 C3 -161.4(3) 74 .
O1 C1 C2 C3 -18.6(3) . 110
O1 C1 C2 C3 161.4(3) 74 110
C3 C2 C3 C3 33.3(5) 181 98
C3 C2 C3 C3 0.001(1) 74 98
C3 C2 C3 C3 -80.18(17) 110 98
C1 C2 C3 C3 180.002(1) . 98
loop_
_platon_squeeze_void_nr
_platon_squeeze_void_average_x
_platon_squeeze_void_average_y
_platon_squeeze_void_average_z
_platon_squeeze_void_volume
_platon_squeeze_void_count_electrons
_platon_squeeze_void_content
1 -0.015 -0.006 -0.005 12880 3797 ' '
