#------------------------------------------------------------------------------
#$Date: 2016-02-16 22:30:59 +0200 (Tue, 16 Feb 2016) $
#$Revision: 176467 $
#$URL: svn://www.crystallography.net/cod/cif/4/10/79/4107962.cif $
#------------------------------------------------------------------------------
#
# This file is available in the Crystallography Open Database (COD),
# http://www.crystallography.net/
#
# All data on this site have been placed in the public domain by the
# contributors.
#
data_4107962
loop_
_publ_author_name
'Kristine K. Tanabe'
'Zhenqiang Wang'
'Seth M. Cohen'
_publ_section_title
;
 Systematic Functionalization of a Metal-Organic Framework via a
 Postsynthetic Modification Approach
;
_journal_name_full               'Journal of the American Chemical Society'
_journal_page_first              8508
_journal_page_last               8517
_journal_paper_doi               10.1021/ja801848j
_journal_volume                  130
_journal_year                    2008
_chemical_formula_moiety         'C42.90 H47.40 N3 O15.70 Zn4'
_chemical_formula_sum            'C42.9 H47.4 N3 O15.7 Zn4'
_chemical_formula_weight         1117.72
_chemical_name_common            IRMOF-3-AM6
_chemical_name_systematic
; 
 ? 
;
_space_group_IT_number           225
_symmetry_cell_setting           cubic
_symmetry_space_group_name_Hall  '-F 4 2 3'
_symmetry_space_group_name_H-M   'F m -3 m'
_atom_sites_solution_hydrogens   none
_atom_sites_solution_primary     direct
_atom_sites_solution_secondary   difmap
_audit_creation_method           SHELXL-97
_cell_angle_alpha                90.00
_cell_angle_beta                 90.00
_cell_angle_gamma                90.00
_cell_formula_units_Z            8
_cell_length_a                   25.7228(6)
_cell_length_b                   25.7228(6)
_cell_length_c                   25.7228(6)
_cell_measurement_reflns_used    3192
_cell_measurement_temperature    200(2)
_cell_measurement_theta_max      25.4
_cell_measurement_theta_min      2.23
_cell_volume                     17019.8(7)
_computing_cell_refinement       SAINT
_computing_data_collection       'Apex2 v.1.0-2.1 (Bruker, 2006)'
_computing_data_reduction        'sAINT v7.34A (Bruker, 2007)'
_computing_molecular_graphics    'SHELXTL 5.1 (Sheldrick, 1994)'
_computing_publication_material  SHELXL97
_computing_structure_refinement  'SHELXL-97 (Sheldrick, 1997)'
_computing_structure_solution    'SHELXS-97 (Sheldrick, 1990)'
_diffrn_ambient_temperature      200(2)
_diffrn_detector_area_resol_mean 8.3
_diffrn_measured_fraction_theta_full 0.999
_diffrn_measured_fraction_theta_max 0.999
_diffrn_measurement_device_type  'Bruker Apex'
_diffrn_measurement_method       \w\f
_diffrn_radiation_monochromator  graphite
_diffrn_radiation_source         'fine-focus sealed tube'
_diffrn_radiation_type           MoK\a
_diffrn_radiation_wavelength     0.71073
_diffrn_reflns_av_R_equivalents  0.0193
_diffrn_reflns_av_sigmaI/netI    0.0104
_diffrn_reflns_limit_h_max       31
_diffrn_reflns_limit_h_min       -21
_diffrn_reflns_limit_k_max       21
_diffrn_reflns_limit_k_min       -23
_diffrn_reflns_limit_l_max       30
_diffrn_reflns_limit_l_min       -29
_diffrn_reflns_number            6551
_diffrn_reflns_theta_full        25.00
_diffrn_reflns_theta_max         25.40
_diffrn_reflns_theta_min         1.58
_diffrn_standards_number         0
_exptl_absorpt_coefficient_mu    1.153
_exptl_absorpt_correction_T_max  0.7460
_exptl_absorpt_correction_T_min  0.6952
_exptl_absorpt_correction_type   multi-scan
_exptl_absorpt_process_details   'SADABS 2.10 (Sheldrick, 2004)'
_exptl_crystal_colour            amber
_exptl_crystal_density_diffrn    0.872
_exptl_crystal_description       block
_exptl_crystal_F_000             4571
_exptl_crystal_size_max          0.34
_exptl_crystal_size_mid          0.32
_exptl_crystal_size_min          0.27
_platon_squeeze_details
;
;
_refine_diff_density_max         0.297
_refine_diff_density_min         -0.278
_refine_diff_density_rms         0.047
_refine_ls_extinction_method     none
_refine_ls_goodness_of_fit_ref   1.082
_refine_ls_hydrogen_treatment    none
_refine_ls_matrix_type           full
_refine_ls_number_parameters     28
_refine_ls_number_reflns         845
_refine_ls_number_restraints     0
_refine_ls_restrained_S_all      1.082
_refine_ls_R_factor_all          0.0395
_refine_ls_R_factor_gt           0.0349
_refine_ls_shift/su_max          0.000
_refine_ls_shift/su_mean         0.000
_refine_ls_structure_factor_coef Fsqd
_refine_ls_weighting_details
'calc w=1/[\s^2^(Fo^2^)+(0.0762P)^2^] where P=(Fo^2^+2Fc^2^)/3'
_refine_ls_weighting_scheme      calc
_refine_ls_wR_factor_gt          0.1047
_refine_ls_wR_factor_ref         0.1081
_reflns_number_gt                678
_reflns_number_total             845
_reflns_threshold_expression     >2\s(I)
_cod_data_source_file            ja801848j-file002.cif
_cod_data_source_block           kkt09squeeze
_cod_original_formula_sum        'C42.90 H47.40 N3 O15.70 Zn4'
_cod_database_code               4107962
loop_
_symmetry_equiv_pos_as_xyz
'x, y, z'
'-x, -y, z'
'-x, y, -z'
'x, -y, -z'
'z, x, y'
'z, -x, -y'
'-z, -x, y'
'-z, x, -y'
'y, z, x'
'-y, z, -x'
'y, -z, -x'
'-y, -z, x'
'y, x, -z'
'-y, -x, -z'
'y, -x, z'
'-y, x, z'
'x, z, -y'
'-x, z, y'
'-x, -z, -y'
'x, -z, y'
'z, y, -x'
'z, -y, x'
'-z, y, x'
'-z, -y, -x'
'x, y+1/2, z+1/2'
'-x, -y+1/2, z+1/2'
'-x, y+1/2, -z+1/2'
'x, -y+1/2, -z+1/2'
'z, x+1/2, y+1/2'
'z, -x+1/2, -y+1/2'
'-z, -x+1/2, y+1/2'
'-z, x+1/2, -y+1/2'
'y, z+1/2, x+1/2'
'-y, z+1/2, -x+1/2'
'y, -z+1/2, -x+1/2'
'-y, -z+1/2, x+1/2'
'y, x+1/2, -z+1/2'
'-y, -x+1/2, -z+1/2'
'y, -x+1/2, z+1/2'
'-y, x+1/2, z+1/2'
'x, z+1/2, -y+1/2'
'-x, z+1/2, y+1/2'
'-x, -z+1/2, -y+1/2'
'x, -z+1/2, y+1/2'
'z, y+1/2, -x+1/2'
'z, -y+1/2, x+1/2'
'-z, y+1/2, x+1/2'
'-z, -y+1/2, -x+1/2'
'x+1/2, y, z+1/2'
'-x+1/2, -y, z+1/2'
'-x+1/2, y, -z+1/2'
'x+1/2, -y, -z+1/2'
'z+1/2, x, y+1/2'
'z+1/2, -x, -y+1/2'
'-z+1/2, -x, y+1/2'
'-z+1/2, x, -y+1/2'
'y+1/2, z, x+1/2'
'-y+1/2, z, -x+1/2'
'y+1/2, -z, -x+1/2'
'-y+1/2, -z, x+1/2'
'y+1/2, x, -z+1/2'
'-y+1/2, -x, -z+1/2'
'y+1/2, -x, z+1/2'
'-y+1/2, x, z+1/2'
'x+1/2, z, -y+1/2'
'-x+1/2, z, y+1/2'
'-x+1/2, -z, -y+1/2'
'x+1/2, -z, y+1/2'
'z+1/2, y, -x+1/2'
'z+1/2, -y, x+1/2'
'-z+1/2, y, x+1/2'
'-z+1/2, -y, -x+1/2'
'x+1/2, y+1/2, z'
'-x+1/2, -y+1/2, z'
'-x+1/2, y+1/2, -z'
'x+1/2, -y+1/2, -z'
'z+1/2, x+1/2, y'
'z+1/2, -x+1/2, -y'
'-z+1/2, -x+1/2, y'
'-z+1/2, x+1/2, -y'
'y+1/2, z+1/2, x'
'-y+1/2, z+1/2, -x'
'y+1/2, -z+1/2, -x'
'-y+1/2, -z+1/2, x'
'y+1/2, x+1/2, -z'
'-y+1/2, -x+1/2, -z'
'y+1/2, -x+1/2, z'
'-y+1/2, x+1/2, z'
'x+1/2, z+1/2, -y'
'-x+1/2, z+1/2, y'
'-x+1/2, -z+1/2, -y'
'x+1/2, -z+1/2, y'
'z+1/2, y+1/2, -x'
'z+1/2, -y+1/2, x'
'-z+1/2, y+1/2, x'
'-z+1/2, -y+1/2, -x'
'-x, -y, -z'
'x, y, -z'
'x, -y, z'
'-x, y, z'
'-z, -x, -y'
'-z, x, y'
'z, x, -y'
'z, -x, y'
'-y, -z, -x'
'y, -z, x'
'-y, z, x'
'y, z, -x'
'-y, -x, z'
'y, x, z'
'-y, x, -z'
'y, -x, -z'
'-x, -z, y'
'x, -z, -y'
'x, z, y'
'-x, z, -y'
'-z, -y, x'
'-z, y, -x'
'z, -y, -x'
'z, y, x'
'-x, -y+1/2, -z+1/2'
'x, y+1/2, -z+1/2'
'x, -y+1/2, z+1/2'
'-x, y+1/2, z+1/2'
'-z, -x+1/2, -y+1/2'
'-z, x+1/2, y+1/2'
'z, x+1/2, -y+1/2'
'z, -x+1/2, y+1/2'
'-y, -z+1/2, -x+1/2'
'y, -z+1/2, x+1/2'
'-y, z+1/2, x+1/2'
'y, z+1/2, -x+1/2'
'-y, -x+1/2, z+1/2'
'y, x+1/2, z+1/2'
'-y, x+1/2, -z+1/2'
'y, -x+1/2, -z+1/2'
'-x, -z+1/2, y+1/2'
'x, -z+1/2, -y+1/2'
'x, z+1/2, y+1/2'
'-x, z+1/2, -y+1/2'
'-z, -y+1/2, x+1/2'
'-z, y+1/2, -x+1/2'
'z, -y+1/2, -x+1/2'
'z, y+1/2, x+1/2'
'-x+1/2, -y, -z+1/2'
'x+1/2, y, -z+1/2'
'x+1/2, -y, z+1/2'
'-x+1/2, y, z+1/2'
'-z+1/2, -x, -y+1/2'
'-z+1/2, x, y+1/2'
'z+1/2, x, -y+1/2'
'z+1/2, -x, y+1/2'
'-y+1/2, -z, -x+1/2'
'y+1/2, -z, x+1/2'
'-y+1/2, z, x+1/2'
'y+1/2, z, -x+1/2'
'-y+1/2, -x, z+1/2'
'y+1/2, x, z+1/2'
'-y+1/2, x, -z+1/2'
'y+1/2, -x, -z+1/2'
'-x+1/2, -z, y+1/2'
'x+1/2, -z, -y+1/2'
'x+1/2, z, y+1/2'
'-x+1/2, z, -y+1/2'
'-z+1/2, -y, x+1/2'
'-z+1/2, y, -x+1/2'
'z+1/2, -y, -x+1/2'
'z+1/2, y, x+1/2'
'-x+1/2, -y+1/2, -z'
'x+1/2, y+1/2, -z'
'x+1/2, -y+1/2, z'
'-x+1/2, y+1/2, z'
'-z+1/2, -x+1/2, -y'
'-z+1/2, x+1/2, y'
'z+1/2, x+1/2, -y'
'z+1/2, -x+1/2, y'
'-y+1/2, -z+1/2, -x'
'y+1/2, -z+1/2, x'
'-y+1/2, z+1/2, x'
'y+1/2, z+1/2, -x'
'-y+1/2, -x+1/2, z'
'y+1/2, x+1/2, z'
'-y+1/2, x+1/2, -z'
'y+1/2, -x+1/2, -z'
'-x+1/2, -z+1/2, y'
'x+1/2, -z+1/2, -y'
'x+1/2, z+1/2, y'
'-x+1/2, z+1/2, -y'
'-z+1/2, -y+1/2, x'
'-z+1/2, y+1/2, -x'
'z+1/2, -y+1/2, -x'
'z+1/2, y+1/2, x'
loop_
_atom_site_label
_atom_site_type_symbol
_atom_site_fract_x
_atom_site_fract_y
_atom_site_fract_z
_atom_site_U_iso_or_equiv
_atom_site_adp_type
_atom_site_occupancy
_atom_site_symmetry_multiplicity
_atom_site_calc_flag
_atom_site_refinement_flags
Zn1 Zn 0.206562(10) 0.206562(10) 0.206562(10) 0.0561(3) Uani 1 6 d S
O1 O 0.2500 0.2500 0.2500 0.0536(11) Uani 1 24 d S
O2 O 0.21943(6) 0.21943(6) 0.13404(7) 0.0951(7) Uani 1 2 d S
C1 C 0.2500 0.2500 0.11175(12) 0.0773(9) Uani 1 4 d S
C2 C 0.2500 0.2500 0.05333(13) 0.0867(11) Uani 1 4 d S
C3 C 0.2298(2) 0.20853(18) 0.02583(13) 0.101(3) Uani 0.50 1 d P
loop_
_atom_site_aniso_label
_atom_site_aniso_U_11
_atom_site_aniso_U_22
_atom_site_aniso_U_33
_atom_site_aniso_U_23
_atom_site_aniso_U_13
_atom_site_aniso_U_12
Zn1 0.0561(3) 0.0561(3) 0.0561(3) -0.00215(9) -0.00215(9) -0.00215(9)
O1 0.0536(11) 0.0536(11) 0.0536(11) 0.000 0.000 0.000
O2 0.1148(10) 0.1148(10) 0.0557(11) -0.0002(7) -0.0002(7) -0.0254(12)
C1 0.0909(16) 0.0909(16) 0.0501(18) 0.000 0.000 0.004(2)
C2 0.1041(19) 0.1041(19) 0.0521(19) 0.000 0.000 -0.002(2)
C3 0.132(5) 0.115(4) 0.0549(19) 0.0049(15) 0.001(2) -0.024(4)
loop_
_atom_type_symbol
_atom_type_description
_atom_type_scat_dispersion_real
_atom_type_scat_dispersion_imag
_atom_type_scat_source
C C 0.0033 0.0016 'International Tables Vol C Tables 4.2.6.8 and 6.1.1.4'
H H 0.0000 0.0000 'International Tables Vol C Tables 4.2.6.8 and 6.1.1.4'
N N 0.0061 0.0033 'International Tables Vol C Tables 4.2.6.8 and 6.1.1.4'
O O 0.0106 0.0060 'International Tables Vol C Tables 4.2.6.8 and 6.1.1.4'
Zn Zn 0.2839 1.4301 'International Tables Vol C Tables 4.2.6.8 and 6.1.1.4'
loop_
_geom_angle_atom_site_label_1
_geom_angle_atom_site_label_2
_geom_angle_atom_site_label_3
_geom_angle
_geom_angle_site_symmetry_1
_geom_angle_site_symmetry_3
O2 Zn1 O2 107.72(7) 9 5
O2 Zn1 O2 107.71(7) 9 .
O2 Zn1 O2 107.71(7) 5 .
O2 Zn1 O1 111.17(7) 9 .
O2 Zn1 O1 111.17(7) 5 .
O2 Zn1 O1 111.18(7) . .
Zn1 O1 Zn1 109.475(1) 28 51
Zn1 O1 Zn1 109.470(1) 28 .
Zn1 O1 Zn1 109.5 51 .
Zn1 O1 Zn1 109.5 28 74
Zn1 O1 Zn1 109.471(1) 51 74
Zn1 O1 Zn1 109.5 . 74
C1 O2 Zn1 131.37(19) . .
O2 C1 O2 125.4(3) 74 .
O2 C1 C2 117.28(15) 74 .
O2 C1 C2 117.28(15) . .
C3 C2 C3 108.6(4) . 181
C3 C2 C3 118.4(4) 110 181
C3 C2 C3 118.4(4) . 74
C3 C2 C3 108.6(4) 110 74
C3 C2 C1 120.80(19) . .
C3 C2 C1 120.80(19) 110 .
C3 C2 C1 120.80(19) 181 .
C3 C2 C1 120.80(19) 74 .
C3 C3 C3 90.002(1) 110 98
C3 C3 C2 73.8(3) 110 .
C3 C3 C2 120.80(19) 98 .
C3 C3 C3 59.8(4) 110 13
C2 C3 C3 107.6(4) . 13
loop_
_geom_bond_atom_site_label_1
_geom_bond_atom_site_label_2
_geom_bond_distance
_geom_bond_site_symmetry_2
Zn1 O2 1.9232(19) 9
Zn1 O2 1.9232(19) 5
Zn1 O2 1.9232(19) .
Zn1 O1 1.9353(4) .
O1 Zn1 1.9353(4) 28
O1 Zn1 1.9353(4) 51
O1 Zn1 1.9354(4) 74
O2 C1 1.251(2) .
C1 O2 1.251(2) 74
C1 C2 1.503(4) .
C2 C3 1.382(4) .
C2 C3 1.382(4) 110
C2 C3 1.382(4) 181
C2 C3 1.382(4) 74
C3 C3 0.773(12) 110
C3 C3 1.329(7) 98
C3 C3 1.537(9) 13
loop_
_geom_torsion_atom_site_label_1
_geom_torsion_atom_site_label_2
_geom_torsion_atom_site_label_3
_geom_torsion_atom_site_label_4
_geom_torsion
_geom_torsion_site_symmetry_1
_geom_torsion_site_symmetry_4
O2 Zn1 O1 Zn1 -120.0 9 28
O2 Zn1 O1 Zn1 0.0 5 28
O2 Zn1 O1 Zn1 120.0 . 28
O2 Zn1 O1 Zn1 0.0 9 51
O2 Zn1 O1 Zn1 120.0 5 51
O2 Zn1 O1 Zn1 -120.0 . 51
O2 Zn1 O1 Zn1 120.0 9 74
O2 Zn1 O1 Zn1 -120.0 5 74
O2 Zn1 O1 Zn1 0.0 . 74
O2 Zn1 O2 C1 -122.03(8) 9 .
O2 Zn1 O2 C1 122.03(8) 5 .
O1 Zn1 O2 C1 0.0 . .
Zn1 O2 C1 O2 0.0 . 74
Zn1 O2 C1 C2 180.0 . .
O2 C1 C2 C3 161.0(3) 74 .
O2 C1 C2 C3 -19.0(3) . .
O2 C1 C2 C3 -161.0(3) 74 110
O2 C1 C2 C3 19.0(3) . 110
O2 C1 C2 C3 19.0(3) 74 181
O2 C1 C2 C3 -161.0(3) . 181
O2 C1 C2 C3 -19.0(3) 74 74
O2 C1 C2 C3 161.0(3) . 74
C3 C2 C3 C3 -113.9(4) 181 110
C3 C2 C3 C3 -80.00(18) 74 110
C1 C2 C3 C3 99.99(18) . 110
C3 C2 C3 C3 80.01(18) 110 98
C3 C2 C3 C3 -33.9(5) 181 98
C3 C2 C3 C3 0.005(2) 74 98
C1 C2 C3 C3 180.002(1) . 98
C3 C2 C3 C3 50.1(5) 110 13
C3 C2 C3 C3 -63.8(7) 181 13
C3 C2 C3 C3 -29.9(3) 74 13
C1 C2 C3 C3 150.1(3) . 13
loop_
_platon_squeeze_void_nr
_platon_squeeze_void_average_x
_platon_squeeze_void_average_y
_platon_squeeze_void_average_z
_platon_squeeze_void_volume
_platon_squeeze_void_count_electrons
_platon_squeeze_void_content
1 -0.015 -0.006 -0.005 12832 3552 ' '
