#------------------------------------------------------------------------------
#$Date: 2016-03-21 18:50:35 +0200 (Mon, 21 Mar 2016) $
#$Revision: 178826 $
#$URL: svn://www.crystallography.net/cod/cif/4/10/80/4108055.cif $
#------------------------------------------------------------------------------
#
# This file is available in the Crystallography Open Database (COD),
# http://www.crystallography.net/
#
# All data on this site have been placed in the public domain by the
# contributors.
#
data_4108055
loop_
_publ_author_name
'Guillermo M\'inguez Espallargas'
'Lee Brammer'
'David R. Allan'
'Colin R. Pulham'
'Neil Robertson'
'John E. Warren'
_publ_section_title
;
 Noncovalent Interactions under Extreme Conditions: High-Pressure and
 Low-Temperature Diffraction Studies of the Isostructural Metal-Organic
 Networks (4-Chloropyridinium)2[CoX4] (X = Cl, Br)
;
_journal_name_full               'Journal of the American Chemical Society'
_journal_page_first              9058
_journal_page_last               9071
_journal_paper_doi               10.1021/ja8010868
_journal_volume                  130
_journal_year                    2008
_chemical_formula_moiety         '2(C5 H5 Cl N), Br4 Co'
_chemical_formula_sum            'C10 H10 Br4 Cl2 Co N2'
_chemical_formula_weight         607.67
_chemical_name_systematic
;
 ?
;
_space_group_IT_number           15
_symmetry_cell_setting           monoclinic
_symmetry_space_group_name_Hall  '-C 2yc'
_symmetry_space_group_name_H-M   'C 1 2/c 1'
_atom_sites_solution_hydrogens   geom
_atom_sites_solution_primary     direct
_atom_sites_solution_secondary   difmap
_audit_creation_method           SHELXL-97
_cell_angle_alpha                90.00
_cell_angle_beta                 101.541(14)
_cell_angle_gamma                90.00
_cell_formula_units_Z            4
_cell_length_a                   16.920(3)
_cell_length_b                   6.768(2)
_cell_length_c                   13.009(2)
_cell_measurement_reflns_used    1328
_cell_measurement_temperature    300(2)
_cell_measurement_theta_max      19.46
_cell_measurement_theta_min      2.49
_cell_volume                     1459.6(6)
_computing_cell_refinement       'Bruker SMART'
_computing_data_collection       'Bruker SMART'
_computing_data_reduction        'Bruker SAINT'
_computing_molecular_graphics    'Bruker SHELXTL'
_computing_publication_material  'Bruker SHELXTL'
_computing_structure_refinement  'SHELXL-97 (Sheldrick, 1997)'
_computing_structure_solution    'SHELXS-97 (Sheldrick, 1990)'
_diffrn_ambient_temperature      300(2)
_diffrn_measured_fraction_theta_full 0.589
_diffrn_measured_fraction_theta_max 0.589
_diffrn_measurement_device_type  'CCD area detector'
_diffrn_measurement_method       'phi and omega scans'
_diffrn_radiation_monochromator  graphite
_diffrn_radiation_source         synchrotron
_diffrn_radiation_type           X-rays
_diffrn_radiation_wavelength     0.48800
_diffrn_reflns_av_R_equivalents  0.0629
_diffrn_reflns_av_sigmaI/netI    0.0622
_diffrn_reflns_limit_h_max       23
_diffrn_reflns_limit_h_min       -23
_diffrn_reflns_limit_k_max       6
_diffrn_reflns_limit_k_min       -6
_diffrn_reflns_limit_l_max       18
_diffrn_reflns_limit_l_min       -18
_diffrn_reflns_number            4560
_diffrn_reflns_theta_full        20.51
_diffrn_reflns_theta_max         20.51
_diffrn_reflns_theta_min         2.49
_exptl_absorpt_coefficient_mu    4.539
_exptl_absorpt_correction_T_max  0.3499
_exptl_absorpt_correction_T_min  0.3499
_exptl_absorpt_correction_type   multi-scan
_exptl_absorpt_process_details   sadabs
_exptl_crystal_colour            blue
_exptl_crystal_density_diffrn    2.765
_exptl_crystal_description       block
_exptl_crystal_F_000             1140
_exptl_crystal_size_max          0.20
_exptl_crystal_size_mid          0.20
_exptl_crystal_size_min          0.20
_refine_diff_density_max         2.061
_refine_diff_density_min         -1.808
_refine_diff_density_rms         0.270
_refine_ls_extinction_method     none
_refine_ls_goodness_of_fit_ref   1.439
_refine_ls_hydrogen_treatment    constr
_refine_ls_matrix_type           full
_refine_ls_number_parameters     66
_refine_ls_number_reflns         1333
_refine_ls_number_restraints     0
_refine_ls_restrained_S_all      1.439
_refine_ls_R_factor_all          0.1014
_refine_ls_R_factor_gt           0.0681
_refine_ls_shift/su_max          0.000
_refine_ls_shift/su_mean         0.000
_refine_ls_structure_factor_coef Fsqd
_refine_ls_weighting_details
'calc w=1/[\s^2^(Fo^2^)+(0.0850P)^2^+0.0000P] where P=(Fo^2^+2Fc^2^)/3'
_refine_ls_weighting_scheme      calc
_refine_ls_wR_factor_gt          0.1883
_refine_ls_wR_factor_ref         0.2036
_reflns_number_gt                907
_reflns_number_total             1333
_reflns_threshold_expression     >2sigma(I)
_cod_data_source_file            ja8010868-file002_36.cif
_cod_data_source_block           cobr09s
_cod_database_code               4108055
loop_
_symmetry_equiv_pos_as_xyz
'x, y, z'
'-x, y, -z+1/2'
'x+1/2, y+1/2, z'
'-x+1/2, y+1/2, -z+1/2'
'-x, -y, -z'
'x, -y, z-1/2'
'-x+1/2, -y+1/2, -z'
'x+1/2, -y+1/2, z-1/2'
loop_
_atom_site_label
_atom_site_type_symbol
_atom_site_fract_x
_atom_site_fract_y
_atom_site_fract_z
_atom_site_U_iso_or_equiv
_atom_site_adp_type
_atom_site_occupancy
_atom_site_symmetry_multiplicity
_atom_site_calc_flag
_atom_site_refinement_flags
Co1 Co 0.5000 0.5736(5) 0.2500 0.0265(9) Uani 1 2 d S
Br1 Br 0.57638(7) 0.3483(3) 0.37075(9) 0.0344(5) Uani 1 1 d .
Br2 Br 0.59719(7) 0.7487(3) 0.18041(8) 0.0344(5) Uani 1 1 d .
N1 N 0.39280(7) 0.7805(3) 0.87689(8) 0.033(4) Uani 1 1 d R
H1 H 0.4229 0.7276 0.8385 0.040 Uiso 1 1 calc R
C2 C 0.31768(7) 0.8346(3) 0.83116(8) 0.026(4) Uani 1 1 d R
H2 H 0.2990 0.8135 0.7598 0.031 Uiso 1 1 calc R
C3 C 0.26827(7) 0.9219(3) 0.89086(8) 0.029(4) Uani 1 1 d R
H3 H 0.2159 0.9599 0.8608 0.035 Uiso 1 1 calc R
C4 C 0.29891(7) 0.9514(3) 0.99693(8) 0.033(4) Uani 1 1 d R
Cl4 Cl 0.23853(7) 1.0600(3) 1.07309(8) 0.0317(11) Uani 1 1 d R
C5 C 0.37669(7) 0.8917(3) 1.04316(8) 0.043(6) Uani 1 1 d R
H5 H 0.3966 0.9099 1.1145 0.052 Uiso 1 1 calc R
C6 C 0.42343(7) 0.8048(3) 0.97984(8) 0.031(5) Uani 1 1 d R
H6 H 0.4757 0.7634 1.0082 0.037 Uiso 1 1 calc R
loop_
_atom_site_aniso_label
_atom_site_aniso_U_11
_atom_site_aniso_U_22
_atom_site_aniso_U_33
_atom_site_aniso_U_23
_atom_site_aniso_U_13
_atom_site_aniso_U_12
Co1 0.0191(11) 0.029(3) 0.0326(12) 0.000 0.0085(9) 0.000
Br1 0.0191(6) 0.0446(17) 0.0391(7) 0.0104(6) 0.0050(4) -0.0005(6)
Br2 0.0280(7) 0.0429(17) 0.0341(6) 0.0032(5) 0.0109(5) -0.0056(7)
N1 0.022(5) 0.043(15) 0.035(6) 0.005(5) 0.010(4) 0.016(5)
C2 0.036(7) 0.016(14) 0.027(6) 0.009(5) 0.008(5) 0.008(7)
C3 0.035(7) 0.025(15) 0.026(6) 0.000(5) 0.007(5) 0.001(6)
C4 0.031(7) 0.038(16) 0.033(6) -0.001(6) 0.012(5) 0.004(7)
Cl4 0.0314(15) 0.035(4) 0.0319(15) -0.0019(12) 0.0143(12) 0.0014(16)
C5 0.036(7) 0.07(2) 0.029(6) 0.003(6) 0.015(5) 0.014(8)
C6 0.016(6) 0.037(17) 0.038(7) -0.001(5) 0.004(5) 0.010(6)
loop_
_atom_type_symbol
_atom_type_description
_atom_type_scat_dispersion_real
_atom_type_scat_dispersion_imag
_atom_type_scat_source
C C -0.0020 0.0007 'International Tables Vol C Tables 4.2.6.8 and 6.1.1.4'
H H 0.0000 0.0000 'International Tables Vol C Tables 4.2.6.8 and 6.1.1.4'
N N -0.0030 0.0014 'International Tables Vol C Tables 4.2.6.8 and 6.1.1.4'
Cl Cl 0.0646 0.0747 'International Tables Vol C Tables 4.2.6.8 and 6.1.1.4'
Co Co 0.1848 0.4883 'International Tables Vol C Tables 4.2.6.8 and 6.1.1.4'
Br Br 0.2378 1.2974 'International Tables Vol C Tables 4.2.6.8 and 6.1.1.4'
loop_
_geom_angle_atom_site_label_1
_geom_angle_atom_site_label_2
_geom_angle_atom_site_label_3
_geom_angle
_geom_angle_site_symmetry_1
_geom_angle_site_symmetry_3
Br2 Co1 Br2 119.46(17) 2_655 .
Br2 Co1 Br1 113.49(5) 2_655 .
Br2 Co1 Br1 104.37(5) . .
Br2 Co1 Br1 104.37(5) 2_655 2_655
Br2 Co1 Br1 113.49(5) . 2_655
Br1 Co1 Br1 100.19(16) . 2_655
C2 N1 C6 123.4 . .
C2 N1 H1 118.3 . .
C6 N1 H1 118.3 . .
N1 C2 C3 119.5 . .
N1 C2 H2 120.2 . .
C3 C2 H2 120.2 . .
C2 C3 C4 118.2 . .
C2 C3 H3 120.9 . .
C4 C3 H3 120.9 . .
C3 C4 C5 121.4 . .
C3 C4 Cl4 119.1 . .
C5 C4 Cl4 119.5 . .
C6 C5 C4 118.0 . .
C6 C5 H5 121.0 . .
C4 C5 H5 121.0 . .
N1 C6 C5 119.5 . .
N1 C6 H6 120.2 . .
C5 C6 H6 120.2 . .
loop_
_geom_bond_atom_site_label_1
_geom_bond_atom_site_label_2
_geom_bond_distance
_geom_bond_site_symmetry_2
Co1 Br2 2.350(2) 2_655
Co1 Br2 2.350(2) .
Co1 Br1 2.377(3) .
Co1 Br1 2.377(3) 2_655
N1 C2 1.3420 .
N1 C6 1.3460 .
N1 H1 0.8600 .
C2 C3 1.3824 .
C2 H2 0.9300 .
C3 C4 1.3879 .
C3 H3 0.9300 .
C4 C5 1.3928 .
C4 Cl4 1.7238 .
C5 C6 1.3823 .
C5 H5 0.9300 .
C6 H6 0.9300 .
loop_
_geom_torsion_atom_site_label_1
_geom_torsion_atom_site_label_2
_geom_torsion_atom_site_label_3
_geom_torsion_atom_site_label_4
_geom_torsion
C6 N1 C2 C3 0.7
N1 C2 C3 C4 0.3
C2 C3 C4 C5 -1.2
C2 C3 C4 Cl4 180.0
C3 C4 C5 C6 1.1
Cl4 C4 C5 C6 179.9
C2 N1 C6 C5 -0.8
C4 C5 C6 N1 -0.1
