#------------------------------------------------------------------------------
#$Date: 2016-03-21 18:50:35 +0200 (Mon, 21 Mar 2016) $
#$Revision: 178826 $
#$URL: svn://www.crystallography.net/cod/cif/4/10/80/4108043.cif $
#------------------------------------------------------------------------------
#
# This file is available in the Crystallography Open Database (COD),
# http://www.crystallography.net/
#
# All data on this site have been placed in the public domain by the
# contributors.
#
data_4108043
loop_
_publ_author_name
'Guillermo M\'inguez Espallargas'
'Lee Brammer'
'David R. Allan'
'Colin R. Pulham'
'Neil Robertson'
'John E. Warren'
_publ_section_title
;
 Noncovalent Interactions under Extreme Conditions: High-Pressure and
 Low-Temperature Diffraction Studies of the Isostructural Metal-Organic
 Networks (4-Chloropyridinium)2[CoX4] (X = Cl, Br)
;
_journal_name_full               'Journal of the American Chemical Society'
_journal_page_first              9058
_journal_page_last               9071
_journal_paper_doi               10.1021/ja8010868
_journal_volume                  130
_journal_year                    2008
_chemical_formula_moiety         '2(C5 H5 Cl N), Cl4 Co'
_chemical_formula_sum            'C10 H10 Cl6 Co N2'
_chemical_formula_weight         429.83
_chemical_name_systematic
;
 ?
;
_space_group_IT_number           15
_symmetry_cell_setting           monoclinic
_symmetry_space_group_name_Hall  '-C 2yc'
_symmetry_space_group_name_H-M   'C 1 2/c 1'
_atom_sites_solution_hydrogens   geom
_atom_sites_solution_primary     direct
_atom_sites_solution_secondary   difmap
_audit_creation_method           SHELXL-97
_cell_angle_alpha                90.00
_cell_angle_beta                 101.387(4)
_cell_angle_gamma                90.00
_cell_formula_units_Z            4
_cell_length_a                   16.3973(7)
_cell_length_b                   6.8907(7)
_cell_length_c                   13.2377(7)
_cell_measurement_reflns_used    813
_cell_measurement_temperature    300(2)
_cell_measurement_theta_max      19.49
_cell_measurement_theta_min      2.96
_cell_volume                     1466.27(18)
_computing_cell_refinement       'Bruker SMART'
_computing_data_collection       'Bruker SMART'
_computing_data_reduction        'Bruker SAINT'
_computing_molecular_graphics    'Bruker SHELXTL'
_computing_publication_material  'Bruker SHELXTL'
_computing_structure_refinement  'SHELXL-97 (Sheldrick, 1997)'
_computing_structure_solution    'SHELXS-97 (Sheldrick, 1990)'
_diffrn_ambient_temperature      300(2)
_diffrn_measured_fraction_theta_full 0.535
_diffrn_measured_fraction_theta_max 0.535
_diffrn_measurement_device_type  'CCD area detector'
_diffrn_measurement_method       'phi and omega scans'
_diffrn_radiation_monochromator  graphite
_diffrn_radiation_source         synchrotron
_diffrn_radiation_type           X-rays
_diffrn_radiation_wavelength     0.48800
_diffrn_reflns_av_R_equivalents  0.1071
_diffrn_reflns_av_sigmaI/netI    0.1191
_diffrn_reflns_limit_h_max       23
_diffrn_reflns_limit_h_min       -23
_diffrn_reflns_limit_k_max       5
_diffrn_reflns_limit_k_min       -5
_diffrn_reflns_limit_l_max       18
_diffrn_reflns_limit_l_min       -18
_diffrn_reflns_number            4084
_diffrn_reflns_theta_full        20.46
_diffrn_reflns_theta_max         20.46
_diffrn_reflns_theta_min         2.96
_exptl_absorpt_coefficient_mu    0.773
_exptl_absorpt_correction_T_max  0.8936
_exptl_absorpt_correction_T_min  0.8196
_exptl_absorpt_correction_type   multi-scan
_exptl_absorpt_process_details   sadabs
_exptl_crystal_colour            blue
_exptl_crystal_density_diffrn    1.947
_exptl_crystal_description       block
_exptl_crystal_F_000             852
_exptl_crystal_size_max          0.18
_exptl_crystal_size_mid          0.14
_exptl_crystal_size_min          0.10
_refine_diff_density_max         0.768
_refine_diff_density_min         -0.995
_refine_diff_density_rms         0.155
_refine_ls_extinction_method     none
_refine_ls_goodness_of_fit_ref   1.115
_refine_ls_hydrogen_treatment    constr
_refine_ls_matrix_type           full
_refine_ls_number_parameters     36
_refine_ls_number_reflns         1210
_refine_ls_number_restraints     0
_refine_ls_restrained_S_all      1.115
_refine_ls_R_factor_all          0.1430
_refine_ls_R_factor_gt           0.0703
_refine_ls_shift/su_max          0.000
_refine_ls_shift/su_mean         0.000
_refine_ls_structure_factor_coef Fsqd
_refine_ls_weighting_details
'calc w=1/[\s^2^(Fo^2^)+(0.1169P)^2^+0.0000P] where P=(Fo^2^+2Fc^2^)/3'
_refine_ls_weighting_scheme      calc
_refine_ls_wR_factor_gt          0.1789
_refine_ls_wR_factor_ref         0.2184
_reflns_number_gt                721
_reflns_number_total             1210
_reflns_threshold_expression     >2sigma(I)
_cod_data_source_file            ja8010868-file002_24.cif
_cod_data_source_block           cocl06s
_cod_database_code               4108043
loop_
_symmetry_equiv_pos_as_xyz
'x, y, z'
'-x, y, -z+1/2'
'x+1/2, y+1/2, z'
'-x+1/2, y+1/2, -z+1/2'
'-x, -y, -z'
'x, -y, z-1/2'
'-x+1/2, -y+1/2, -z'
'x+1/2, -y+1/2, z-1/2'
loop_
_atom_site_label
_atom_site_type_symbol
_atom_site_fract_x
_atom_site_fract_y
_atom_site_fract_z
_atom_site_U_iso_or_equiv
_atom_site_adp_type
_atom_site_occupancy
_atom_site_symmetry_multiplicity
_atom_site_calc_flag
_atom_site_refinement_flags
Co1 Co 0.5000 0.5584(4) 0.2500 0.0322(9) Uani 1 2 d S
Cl1 Cl 0.40660(11) 0.7313(6) 0.31374(16) 0.0462(13) Uani 1 1 d .
Cl2 Cl 0.57505(6) 0.3435(4) 0.36069(9) 0.0394(13) Uani 1 1 d .
N1 N 0.59915(6) 0.1971(4) 0.11981(9) 0.0301(15) Uiso 1 1 d R
H1 H 0.5665 0.2437 0.1572 0.036 Uiso 1 1 calc R
C2 C 0.67652(6) 0.1397(4) 0.16682(9) 0.0333(18) Uiso 1 1 d R
H2 H 0.6934 0.1534 0.2378 0.040 Uiso 1 1 calc R
C3 C 0.73043(6) 0.0606(4) 0.10921(9) 0.0320(17) Uiso 1 1 d R
H3 H 0.7836 0.0201 0.1403 0.038 Uiso 1 1 calc R
C4 C 0.70215(6) 0.0438(4) 0.00293(9) 0.0224(14) Uiso 1 1 d R
Cl4 Cl 0.76746(6) -0.0532(4) -0.07202(9) 0.0303(10) Uani 1 1 d R
C5 C 0.62237(6) 0.1077(4) -0.04441(9) 0.0296(17) Uiso 1 1 d R
H5 H 0.6044 0.0988 -0.1154 0.035 Uiso 1 1 calc R
C6 C 0.57119(6) 0.1843(4) 0.01712(9) 0.0313(18) Uiso 1 1 d R
H6 H 0.5179 0.2266 -0.0121 0.038 Uiso 1 1 calc R
loop_
_atom_site_aniso_label
_atom_site_aniso_U_11
_atom_site_aniso_U_22
_atom_site_aniso_U_33
_atom_site_aniso_U_23
_atom_site_aniso_U_13
_atom_site_aniso_U_12
Co1 0.0191(6) 0.049(3) 0.0302(8) 0.000 0.0080(5) 0.000
Cl1 0.0312(9) 0.070(4) 0.0412(11) -0.0062(15) 0.0151(7) 0.0076(12)
Cl2 0.0196(7) 0.049(4) 0.0480(11) 0.0218(14) 0.0018(7) -0.0026(10)
Cl4 0.0324(8) 0.031(3) 0.0311(9) -0.0013(11) 0.0139(7) -0.0021(10)
loop_
_atom_type_symbol
_atom_type_description
_atom_type_scat_dispersion_real
_atom_type_scat_dispersion_imag
_atom_type_scat_source
C C -0.0020 0.0007 'International Tables Vol C Tables 4.2.6.8 and 6.1.1.4'
H H 0.0000 0.0000 'International Tables Vol C Tables 4.2.6.8 and 6.1.1.4'
N N -0.0030 0.0014 'International Tables Vol C Tables 4.2.6.8 and 6.1.1.4'
Cl Cl 0.0646 0.0747 'International Tables Vol C Tables 4.2.6.8 and 6.1.1.4'
Co Co 0.1848 0.4883 'International Tables Vol C Tables 4.2.6.8 and 6.1.1.4'
loop_
_geom_angle_atom_site_label_1
_geom_angle_atom_site_label_2
_geom_angle_atom_site_label_3
_geom_angle
_geom_angle_site_symmetry_1
_geom_angle_site_symmetry_3
Cl1 Co1 Cl1 115.5(2) 2_655 .
Cl1 Co1 Cl2 105.51(8) 2_655 .
Cl1 Co1 Cl2 115.43(8) . .
Cl1 Co1 Cl2 115.43(8) 2_655 2_655
Cl1 Co1 Cl2 105.50(8) . 2_655
Cl2 Co1 Cl2 98.46(15) . 2_655
C6 N1 C2 123.0 . .
C6 N1 H1 118.5 . .
C2 N1 H1 118.5 . .
N1 C2 C3 120.1 . .
N1 C2 H2 119.9 . .
C3 C2 H2 119.9 . .
C2 C3 C4 117.7 . .
C2 C3 H3 121.1 . .
C4 C3 H3 121.1 . .
C3 C4 C5 121.2 . .
C3 C4 Cl4 119.3 . .
C5 C4 Cl4 119.5 . .
C6 C5 C4 118.4 . .
C6 C5 H5 120.8 . .
C4 C5 H5 120.8 . .
N1 C6 C5 119.5 . .
N1 C6 H6 120.2 . .
C5 C6 H6 120.2 . .
loop_
_geom_bond_atom_site_label_1
_geom_bond_atom_site_label_2
_geom_bond_distance
_geom_bond_site_symmetry_2
Co1 Cl1 2.233(3) 2_655
Co1 Cl1 2.233(3) .
Co1 Cl2 2.268(3) .
Co1 Cl2 2.268(3) 2_655
N1 C6 1.3489 .
N1 C2 1.3570 .
N1 H1 0.8600 .
C2 C3 1.3879 .
C2 H2 0.9300 .
C3 C4 1.3964 .
C3 H3 0.9300 .
C4 C5 1.4052 .
C4 Cl4 1.7313 .
C5 C6 1.3842 .
C5 H5 0.9300 .
C6 H6 0.9300 .
loop_
_geom_torsion_atom_site_label_1
_geom_torsion_atom_site_label_2
_geom_torsion_atom_site_label_3
_geom_torsion_atom_site_label_4
_geom_torsion
C6 N1 C2 C3 -1.1
N1 C2 C3 C4 0.2
C2 C3 C4 C5 1.0
C2 C3 C4 Cl4 179.8
C3 C4 C5 C6 -1.4
Cl4 C4 C5 C6 179.8
C2 N1 C6 C5 0.7
C4 C5 C6 N1 0.6
