#------------------------------------------------------------------------------
#$Date: 2016-03-21 18:50:35 +0200 (Mon, 21 Mar 2016) $
#$Revision: 178826 $
#$URL: svn://www.crystallography.net/cod/cif/4/10/80/4108045.cif $
#------------------------------------------------------------------------------
#
# This file is available in the Crystallography Open Database (COD),
# http://www.crystallography.net/
#
# All data on this site have been placed in the public domain by the
# contributors.
#
data_4108045
loop_
_publ_author_name
'Guillermo M\'inguez Espallargas'
'Lee Brammer'
'David R. Allan'
'Colin R. Pulham'
'Neil Robertson'
'John E. Warren'
_publ_section_title
;
 Noncovalent Interactions under Extreme Conditions: High-Pressure and
 Low-Temperature Diffraction Studies of the Isostructural Metal-Organic
 Networks (4-Chloropyridinium)2[CoX4] (X = Cl, Br)
;
_journal_name_full               'Journal of the American Chemical Society'
_journal_page_first              9058
_journal_page_last               9071
_journal_paper_doi               10.1021/ja8010868
_journal_volume                  130
_journal_year                    2008
_chemical_formula_moiety         '2(C5 H5 Cl N), Cl4 Co'
_chemical_formula_sum            'C10 H10 Cl6 Co N2'
_chemical_formula_weight         429.83
_chemical_name_systematic
;
 ?
;
_space_group_IT_number           15
_symmetry_cell_setting           monoclinic
_symmetry_space_group_name_Hall  '-C 2yc'
_symmetry_space_group_name_H-M   'C 1 2/c 1'
_atom_sites_solution_hydrogens   geom
_atom_sites_solution_primary     direct
_atom_sites_solution_secondary   difmap
_audit_creation_method           SHELXL-97
_cell_angle_alpha                90.00
_cell_angle_beta                 102.23(2)
_cell_angle_gamma                90.00
_cell_formula_units_Z            4
_cell_length_a                   16.354(5)
_cell_length_b                   6.577(4)
_cell_length_c                   13.014(5)
_cell_measurement_reflns_used    815
_cell_measurement_temperature    300(2)
_cell_measurement_theta_max      19.80
_cell_measurement_theta_min      2.50
_cell_volume                     1368.0(11)
_computing_cell_refinement       'Bruker SMART'
_computing_data_collection       'Bruker SMART'
_computing_data_reduction        'Bruker SAINT'
_computing_molecular_graphics    'Bruker SHELXTL'
_computing_publication_material  'Bruker SHELXTL'
_computing_structure_refinement  'SHELXL-97 (Sheldrick, 1997)'
_computing_structure_solution    'SHELXS-97 (Sheldrick, 1990)'
_diffrn_ambient_temperature      300(2)
_diffrn_measured_fraction_theta_full 0.538
_diffrn_measured_fraction_theta_max 0.538
_diffrn_measurement_device_type  'CCD area detector'
_diffrn_measurement_method       'phi and omega scans'
_diffrn_radiation_monochromator  graphite
_diffrn_radiation_source         synchrotron
_diffrn_radiation_type           X-rays
_diffrn_radiation_wavelength     0.48800
_diffrn_reflns_av_R_equivalents  0.1078
_diffrn_reflns_av_sigmaI/netI    0.0958
_diffrn_reflns_limit_h_max       23
_diffrn_reflns_limit_h_min       -23
_diffrn_reflns_limit_k_max       5
_diffrn_reflns_limit_k_min       -5
_diffrn_reflns_limit_l_max       18
_diffrn_reflns_limit_l_min       -18
_diffrn_reflns_number            4039
_diffrn_reflns_theta_full        20.47
_diffrn_reflns_theta_max         20.47
_diffrn_reflns_theta_min         2.50
_exptl_absorpt_coefficient_mu    0.829
_exptl_absorpt_correction_T_max  0.8866
_exptl_absorpt_correction_T_min  0.8084
_exptl_absorpt_correction_type   multi-scan
_exptl_absorpt_process_details   sadabs
_exptl_crystal_colour            blue
_exptl_crystal_density_diffrn    2.087
_exptl_crystal_description       block
_exptl_crystal_F_000             852
_exptl_crystal_size_max          0.18
_exptl_crystal_size_mid          0.14
_exptl_crystal_size_min          0.10
_refine_diff_density_max         0.760
_refine_diff_density_min         -0.981
_refine_diff_density_rms         0.182
_refine_ls_extinction_method     none
_refine_ls_goodness_of_fit_ref   1.060
_refine_ls_hydrogen_treatment    constr
_refine_ls_matrix_type           full
_refine_ls_number_parameters     36
_refine_ls_number_reflns         1144
_refine_ls_number_restraints     0
_refine_ls_restrained_S_all      1.060
_refine_ls_R_factor_all          0.1354
_refine_ls_R_factor_gt           0.0790
_refine_ls_shift/su_max          0.000
_refine_ls_shift/su_mean         0.000
_refine_ls_structure_factor_coef Fsqd
_refine_ls_weighting_details
'calc w=1/[\s^2^(Fo^2^)+(0.1396P)^2^+0.0000P] where P=(Fo^2^+2Fc^2^)/3'
_refine_ls_weighting_scheme      calc
_refine_ls_wR_factor_gt          0.2068
_refine_ls_wR_factor_ref         0.2437
_reflns_number_gt                663
_reflns_number_total             1144
_reflns_threshold_expression     >2sigma(I)
_cod_data_source_file            ja8010868-file002_26.cif
_cod_data_source_block           cocl08s
_cod_original_cell_volume        1368.1(10)
_cod_database_code               4108045
loop_
_symmetry_equiv_pos_as_xyz
'x, y, z'
'-x, y, -z+1/2'
'x+1/2, y+1/2, z'
'-x+1/2, y+1/2, -z+1/2'
'-x, -y, -z'
'x, -y, z-1/2'
'-x+1/2, -y+1/2, -z'
'x+1/2, -y+1/2, z-1/2'
loop_
_atom_site_label
_atom_site_type_symbol
_atom_site_fract_x
_atom_site_fract_y
_atom_site_fract_z
_atom_site_U_iso_or_equiv
_atom_site_adp_type
_atom_site_occupancy
_atom_site_symmetry_multiplicity
_atom_site_calc_flag
_atom_site_refinement_flags
Co1 Co 0.5000 0.5637(5) 0.2500 0.0267(9) Uani 1 2 d S
Cl1 Cl 0.59518(13) 0.7304(6) 0.1851(2) 0.0314(11) Uani 1 1 d .
Cl2 Cl 0.42450(8) 0.3423(4) 0.13664(11) 0.0304(11) Uani 1 1 d .
N1 N 0.89984(8) 0.7085(4) 0.37769(11) 0.0343(19) Uiso 1 1 d R
H1 H 0.9324 0.7572 0.3399 0.041 Uiso 1 1 calc R
C2 C 0.82164(8) 0.6498(4) 0.32916(11) 0.0299(19) Uiso 1 1 d R
H2 H 0.8041 0.6649 0.2568 0.036 Uiso 1 1 calc R
C3 C 0.76782(8) 0.5671(4) 0.38735(11) 0.0292(19) Uiso 1 1 d R
H3 H 0.7141 0.5257 0.3552 0.035 Uiso 1 1 calc R
C4 C 0.79706(8) 0.5482(4) 0.49580(11) 0.0285(19) Uiso 1 1 d R
Cl4 Cl 0.73190(8) 0.4468(4) 0.57154(11) 0.0276(10) Uani 1 1 d R
C5 C 0.87770(8) 0.6137(4) 0.54470(11) 0.034(2) Uiso 1 1 d R
H5 H 0.8963 0.6035 0.6172 0.040 Uiso 1 1 calc R
C6 C 0.92874(8) 0.6938(4) 0.48248(11) 0.039(2) Uiso 1 1 d R
H6 H 0.9826 0.7372 0.5127 0.046 Uiso 1 1 calc R
loop_
_atom_site_aniso_label
_atom_site_aniso_U_11
_atom_site_aniso_U_22
_atom_site_aniso_U_33
_atom_site_aniso_U_23
_atom_site_aniso_U_13
_atom_site_aniso_U_12
Co1 0.0261(8) 0.014(3) 0.0401(10) 0.000 0.0086(7) 0.000
Cl1 0.0344(11) 0.015(4) 0.0456(13) 0.0042(15) 0.0110(9) -0.0046(11)
Cl2 0.0267(9) 0.011(4) 0.0511(14) -0.0137(15) 0.0035(8) 0.0012(10)
Cl4 0.0355(10) 0.014(3) 0.0354(12) 0.0030(14) 0.0126(8) 0.0006(11)
loop_
_atom_type_symbol
_atom_type_description
_atom_type_scat_dispersion_real
_atom_type_scat_dispersion_imag
_atom_type_scat_source
C C -0.0020 0.0007 'International Tables Vol C Tables 4.2.6.8 and 6.1.1.4'
H H 0.0000 0.0000 'International Tables Vol C Tables 4.2.6.8 and 6.1.1.4'
N N -0.0030 0.0014 'International Tables Vol C Tables 4.2.6.8 and 6.1.1.4'
Cl Cl 0.0646 0.0747 'International Tables Vol C Tables 4.2.6.8 and 6.1.1.4'
Co Co 0.1848 0.4883 'International Tables Vol C Tables 4.2.6.8 and 6.1.1.4'
loop_
_geom_angle_atom_site_label_1
_geom_angle_atom_site_label_2
_geom_angle_atom_site_label_3
_geom_angle
_geom_angle_site_symmetry_1
_geom_angle_site_symmetry_3
Cl1 Co1 Cl1 120.6(2) 2_655 .
Cl1 Co1 Cl2 113.82(9) 2_655 2_655
Cl1 Co1 Cl2 103.80(9) . 2_655
Cl1 Co1 Cl2 103.80(9) 2_655 .
Cl1 Co1 Cl2 113.82(9) . .
Cl2 Co1 Cl2 99.21(17) 2_655 .
C6 N1 C2 123.0 . .
C6 N1 H1 118.5 . .
C2 N1 H1 118.5 . .
N1 C2 C3 120.1 . .
N1 C2 H2 119.9 . .
C3 C2 H2 119.9 . .
C2 C3 C4 117.7 . .
C2 C3 H3 121.1 . .
C4 C3 H3 121.1 . .
C3 C4 C5 121.2 . .
C3 C4 Cl4 119.3 . .
C5 C4 Cl4 119.5 . .
C6 C5 C4 118.4 . .
C6 C5 H5 120.8 . .
C4 C5 H5 120.8 . .
N1 C6 C5 119.5 . .
N1 C6 H6 120.2 . .
C5 C6 H6 120.2 . .
loop_
_geom_bond_atom_site_label_1
_geom_bond_atom_site_label_2
_geom_bond_distance
_geom_bond_site_symmetry_2
Co1 Cl1 2.212(3) 2_655
Co1 Cl1 2.212(3) .
Co1 Cl2 2.247(3) 2_655
Co1 Cl2 2.247(3) .
N1 C6 1.3489 .
N1 C2 1.3570 .
N1 H1 0.8600 .
C2 C3 1.3879 .
C2 H2 0.9300 .
C3 C4 1.3964 .
C3 H3 0.9300 .
C4 C5 1.4051 .
C4 Cl4 1.7313 .
C5 C6 1.3842 .
C5 H5 0.9300 .
C6 H6 0.9300 .
loop_
_geom_torsion_atom_site_label_1
_geom_torsion_atom_site_label_2
_geom_torsion_atom_site_label_3
_geom_torsion_atom_site_label_4
_geom_torsion
C6 N1 C2 C3 -1.1
N1 C2 C3 C4 0.2
C2 C3 C4 C5 1.0
C2 C3 C4 Cl4 179.8
C3 C4 C5 C6 -1.4
Cl4 C4 C5 C6 179.8
C2 N1 C6 C5 0.7
C4 C5 C6 N1 0.6
