#------------------------------------------------------------------------------
#$Date: 2016-02-16 22:30:59 +0200 (Tue, 16 Feb 2016) $
#$Revision: 176467 $
#$URL: svn://www.crystallography.net/cod/cif/4/12/09/4120934.cif $
#------------------------------------------------------------------------------
#
# This file is available in the Crystallography Open Database (COD),
# http://www.crystallography.net/
#
# All data on this site have been placed in the public domain by the
# contributors.
#
data_4120934
loop_
_publ_author_name
'Xingtang Rao'
'Tao Song'
'Junkuo Gao'
'Yuanjing Cui'
'Yu Yang'
'Chuande Wu'
'Banglin Chen'
'Guodong Qian'
_publ_section_title
;
 A Highly Sensitive Mixed Lanthanide Metal-Organic Framework
 Self-Calibrated Luminescent Thermometer
;
_journal_name_full               'Journal of the American Chemical Society'
_journal_page_first              15559
_journal_page_last               15564
_journal_paper_doi               10.1021/ja407219k
_journal_volume                  135
_journal_year                    2013
_chemical_formula_sum            'C26 H20 N2 O10.5 Tb'
_chemical_formula_weight         687.36
_chemical_name_systematic
;
 ?
;
_space_group_crystal_system      orthorhombic
_space_group_IT_number           32
_space_group_name_Hall           'P 2 -2ab'
_space_group_name_H-M_alt        'P b a 2'
_symmetry_space_group_name_Hall  'P 2 -2ab'
_symmetry_space_group_name_H-M   'P b a 2'
_atom_sites_solution_hydrogens   mixed
_atom_sites_solution_primary     direct
_atom_sites_solution_secondary   difmap
_audit_creation_method           SHELXL-2013
_cell_angle_alpha                90
_cell_angle_beta                 90
_cell_angle_gamma                90
_cell_formula_units_Z            4
_cell_length_a                   31.8047(9)
_cell_length_b                   7.4805(3)
_cell_length_c                   9.8565(3)
_cell_measurement_reflns_used    14264
_cell_measurement_temperature    293(2)
_cell_measurement_theta_max      26.37
_cell_measurement_theta_min      3.01
_cell_volume                     2345.01(14)
_computing_cell_refinement       'CrysAlisPro (Oxford Diffraction Ltd., 2010)'
_computing_data_collection       'CrysAlisPro (Oxford Diffraction Ltd., 2010)'
_computing_data_reduction        'CrysAlisPro (Oxford Diffraction Ltd., 2010)'
_computing_structure_refinement  'SHELXL-2013 (Sheldrick, 2013)'
_computing_structure_solution    'SHELXL-2013 (Sheldrick, 2013)'
_diffrn_ambient_temperature      293(2)
_diffrn_detector_area_resol_mean 10.3592
_diffrn_measured_fraction_theta_full 0.998
_diffrn_measured_fraction_theta_max 0.998
_diffrn_measurement_device_type  'Xcalibur, Atlas, Gemini ultra'
_diffrn_measurement_method       '\w scans'
_diffrn_radiation_type           MoK\a
_diffrn_radiation_wavelength     0.71073
_diffrn_reflns_av_R_equivalents  0.0397
_diffrn_reflns_av_unetI/netI     0.0385
_diffrn_reflns_Laue_measured_fraction_full 0.998
_diffrn_reflns_Laue_measured_fraction_max 0.998
_diffrn_reflns_limit_h_max       38
_diffrn_reflns_limit_h_min       -39
_diffrn_reflns_limit_k_max       9
_diffrn_reflns_limit_k_min       -7
_diffrn_reflns_limit_l_max       12
_diffrn_reflns_limit_l_min       -12
_diffrn_reflns_number            14264
_diffrn_reflns_point_group_measured_fraction_full 0.975
_diffrn_reflns_point_group_measured_fraction_max 0.969
_diffrn_reflns_theta_full        25.242
_diffrn_reflns_theta_max         26.373
_diffrn_reflns_theta_min         3.009
_diffrn_source                   'fine-focus sealed tube'
_exptl_absorpt_coefficient_mu    3.086
_exptl_absorpt_correction_T_max  0.507
_exptl_absorpt_correction_T_min  0.276
_exptl_absorpt_correction_type   empirical
_exptl_absorpt_process_details   CrysAlisPro
_exptl_crystal_colour            colorless
_exptl_crystal_density_diffrn    1.947
_exptl_crystal_description       block
_exptl_crystal_F_000             1356
_exptl_crystal_size_max          0.43
_exptl_crystal_size_mid          0.36
_exptl_crystal_size_min          0.22
_refine_diff_density_max         1.138
_refine_diff_density_min         -0.823
_refine_diff_density_rms         0.115
_refine_ls_abs_structure_details
;
 Flack x determined using 1722 quotients [(I+)-(I-)]/[(I+)+(I-)]
 (Parsons and Flack (2004), Acta Cryst. A60, s61).
;
_refine_ls_abs_structure_Flack   0.178(13)
_refine_ls_extinction_method     none
_refine_ls_goodness_of_fit_ref   1.046
_refine_ls_hydrogen_treatment    constr
_refine_ls_matrix_type           full
_refine_ls_number_parameters     357
_refine_ls_number_reflns         4664
_refine_ls_number_restraints     1
_refine_ls_restrained_S_all      1.046
_refine_ls_R_factor_all          0.0437
_refine_ls_R_factor_gt           0.0387
_refine_ls_shift/su_max          0.000
_refine_ls_shift/su_mean         0.000
_refine_ls_structure_factor_coef Fsqd
_refine_ls_weighting_details
'w=1/[\s^2^(Fo^2^)+(0.0491P)^2^+5.2358P] where P=(Fo^2^+2Fc^2^)/3'
_refine_ls_weighting_scheme      calc
_refine_ls_wR_factor_gt          0.0939
_refine_ls_wR_factor_ref         0.0974
_reflns_Friedel_coverage         0.830
_reflns_Friedel_fraction_full    0.949
_reflns_Friedel_fraction_max     0.935
_reflns_number_gt                4246
_reflns_number_total             4664
_reflns_threshold_expression     'I > 2\s(I)'
_cod_data_source_file            ja407219k_si_002.cif
_cod_data_source_block           TbL3
_cod_original_formula_sum        'C26 H20 N2 O10.50 Tb'
_cod_database_code               4120934
#BEGIN Tags that were not found in dictionaries:
_shelx_space_group_comment
;
The symmetry employed for this shelxl refinement is uniquely defined
by the following loop, which should always be used as a source of
symmetry information in preference to the above space-group names.
They are only intended as comments.
;
_shelxl_version_number           2013-4
_shelx_res_file
;
TITL TbL3 in Pba2
CELL 0.71073  31.8047   7.4805   9.8565  90.000  90.000  90.000
ZERR   4.00   0.0009   0.0003   0.0003   0.000   0.000   0.000
LATT -1
SYMM -X, -Y, Z
SYMM 0.5+X, 0.5-Y, Z
SYMM 0.5-X, 0.5+Y, Z
SFAC C H N O TB
UNIT 104 80 8 42 4

L.S. 4
ACTA
BOND
FMAP 2
PLAN 20

WGHT    0.049100    5.235800
FVAR       0.08431
TB1   5    0.096677    0.925827    0.655061    11.00000    0.02235    0.04309 =
         0.02392   -0.00214    0.00114   -0.00204
O1    4    0.034700    0.831285    0.790079    11.00000    0.02215    0.05112 =
         0.01913    0.00096   -0.00310   -0.00001
O2    4    0.089359    0.939095    0.898449    11.00000    0.03550    0.07486 =
         0.02385    0.00192   -0.00373   -0.01121
O3    4    0.082970    0.998108    1.411314    11.00000    0.04408    0.05822 =
         0.03218   -0.00123   -0.00583   -0.02497
O4    4    0.048686    0.781031    1.506295    11.00000    0.03956    0.05357 =
         0.02655    0.00316   -0.00165   -0.01382
O5    4    0.130306    1.195435    0.644685    11.00000    0.02770    0.04718 =
         0.04789   -0.00319    0.01079   -0.00565
O6    4    0.167902    1.390975    0.768634    11.00000    0.03627    0.07060 =
         0.04957   -0.02697    0.01299    0.00120
O7    4    0.324394    1.358845    0.718397    11.00000    0.02549    0.04109 =
         0.02367   -0.01281    0.00358   -0.00260
O8    4    0.348324    1.302381    0.512653    11.00000    0.02589    0.06108 =
         0.03408   -0.00707    0.00430   -0.00239
O9    4    0.099562    0.605066    0.594890    11.00000    0.04765    0.05639 =
         0.09509    0.01552   -0.00655   -0.00130
O10   4    0.043215    1.157496    0.665691    11.00000    0.02778    0.05604 =
         0.07116   -0.00217    0.01327    0.00167
AFIX   1
H10A  2    0.019500    1.141910    0.703910    11.00000   -1.20000
H10B  2    0.048480    1.224600    0.597860    11.00000   -1.20000
AFIX   0
O101  4    0.000000    0.500000    1.599084    10.50000    0.28362    0.08858 =
         0.04694    0.00000    0.00000   -0.10280
N1    3   -0.147441    0.457879    1.175673    11.00000    0.03753    0.08148 =
         0.09413    0.03718    0.00482   -0.01722
N2    3    0.205877    0.984576   -0.037396    11.00000    0.05424    0.05461 =
         0.02443   -0.01127   -0.01302    0.00058
AFIX  43
H2A   2    0.200736    0.952903   -0.119614    11.00000   -1.20000
AFIX   0
C1    1    0.054818    0.868396    0.896665    11.00000    0.04299    0.04249 =
         0.01441   -0.00199    0.00016    0.00134
C2    1    0.033417    0.821904    1.027461    11.00000    0.03120    0.02773 =
         0.02905   -0.00323   -0.01154    0.00213
C3    1    0.054187    0.870318    1.155935    11.00000    0.02915    0.03693 =
         0.02845    0.01207   -0.01287   -0.00297
AFIX  43
H3A   2    0.079858    0.929836    1.155109    11.00000   -1.20000
AFIX   0
C4    1    0.036355    0.829201    1.270481    11.00000    0.03273    0.03995 =
         0.01579   -0.00347   -0.00679   -0.00172
C5    1    0.056142    0.871285    1.403140    11.00000    0.02102    0.03713 =
         0.02927   -0.00742   -0.00202    0.00112
C6    1   -0.002992    0.749101    1.272023    11.00000    0.03109    0.04909 =
         0.03563    0.00900    0.00510    0.00641
AFIX  43
H6A   2   -0.015045    0.725063    1.356030    11.00000   -1.20000
AFIX   0
C7    1   -0.024985    0.703652    1.160199    11.00000    0.03515    0.03191 =
         0.02876    0.00883    0.01126    0.00198
C8    1   -0.005261    0.738395    1.030656    11.00000    0.02973    0.02753 =
         0.01704    0.00135   -0.00067   -0.00333
AFIX  43
H8A   2   -0.018487    0.704856    0.950447    11.00000   -1.20000
AFIX   0
C9    1   -0.123265    0.486885    1.284274    11.00000    0.02815    0.07104 =
         0.05848    0.01523   -0.00323   -0.01229
AFIX  43
H9A   2   -0.133976    0.450704    1.367664    11.00000   -1.20000
AFIX   0
C10   1   -0.086230    0.560697    1.285032    11.00000    0.04854    0.05084 =
         0.04488    0.01056    0.01301   -0.01835
AFIX  43
H10C  2   -0.071358    0.573754    1.365664    11.00000   -1.20000
AFIX   0
C11   1   -0.068682    0.621925    1.158224    11.00000    0.03394    0.02971 =
         0.03559    0.00774   -0.00308    0.00440
C12   1   -0.091033    0.603854    1.049775    11.00000    0.04694    0.09267 =
         0.05001    0.00211   -0.01161   -0.02596
AFIX  43
H12A  2   -0.081642    0.646212    0.966402    11.00000   -1.20000
AFIX   0
C13   1   -0.132616    0.512178    1.063341    11.00000    0.03044    0.14967 =
         0.09073    0.02654   -0.00214   -0.01993
AFIX  43
H13A  2   -0.148476    0.493945    0.985289    11.00000   -1.20000
AFIX   0
C14   1    0.163367    1.280913    0.677374    11.00000    0.02989    0.05024 =
         0.02393   -0.00316   -0.00206   -0.00297
C15   1    0.201028    1.249494    0.582910    11.00000    0.02512    0.02462 =
         0.03932    0.00667    0.00673   -0.00106
C16   1    0.241210    1.284900    0.631528    11.00000    0.02579    0.03362 =
         0.04786    0.00092    0.00029   -0.00076
AFIX  43
H16A  2    0.245049    1.324048    0.720221    11.00000   -1.20000
AFIX   0
C17   1    0.275560    1.261265    0.546425    11.00000    0.02955    0.03387 =
         0.02377   -0.00048   -0.00017    0.00142
C18   1    0.317764    1.305943    0.596812    11.00000    0.02451    0.02747 =
         0.03893    0.00314    0.00446   -0.00205
C19   1    0.268764    1.198891    0.414961    11.00000    0.02629    0.03261 =
         0.02395   -0.00584    0.00109   -0.00999
AFIX  43
H19A  2    0.291809    1.181131    0.358470    11.00000   -1.20000
AFIX   0
C20   1    0.228972    1.162473    0.365541    11.00000    0.03258    0.04289 =
         0.02675    0.00374    0.00315   -0.00289
C21   1    0.194480    1.185856    0.453219    11.00000    0.01649    0.03910 =
         0.04070   -0.00855   -0.00267   -0.00184
AFIX  43
H21A  2    0.167435    1.158579    0.423918    11.00000   -1.20000
AFIX   0
C22   1    0.245185    1.022117   -0.002233    11.00000    0.04047    0.05582 =
         0.02919    0.00084    0.00103   -0.00405
AFIX  43
H22A  2    0.266993    1.009480   -0.064354    11.00000   -1.20000
AFIX   0
C23   1    0.253176    1.080729    0.129268    11.00000    0.03668    0.05281 =
         0.03582   -0.02192   -0.00107   -0.00895
AFIX  43
H23A  2    0.280604    1.108582    0.154227    11.00000   -1.20000
AFIX   0
C24   1    0.221209    1.098574    0.223938    11.00000    0.02960    0.03923 =
         0.03230   -0.00745    0.00038    0.00061
C25   1    0.181032    1.051077    0.178178    11.00000    0.02953    0.11493 =
         0.06523   -0.03423    0.00125   -0.01034
AFIX  43
H25A  2    0.158454    1.058989    0.237834    11.00000   -1.20000
AFIX   0
C26   1    0.174099    0.994341    0.050520    11.00000    0.03429    0.08803 =
         0.05828   -0.01875   -0.00292   -0.01728
AFIX  43
H26A  2    0.147127    0.961933    0.023628    11.00000   -1.20000

AFIX   0
HKLF 4

REM  TbL3 in Pba2
REM R1 =  0.0387 for    4246 Fo > 4sig(Fo)  and  0.0437 for all    4664 data
REM    357 parameters refined using      1 restraints

END

WGHT      0.0407      4.9946

REM Highest difference peak  1.138,  deepest hole -0.823,  1-sigma level  0.115
Q1    1   0.1016  0.6251  0.7321  11.00000  0.05    1.14
Q2    1   0.1254  0.9226  0.6604  11.00000  0.05    0.88
Q3    1   0.1021  0.8350  0.7281  11.00000  0.05    0.78
Q4    1   0.1031  1.0520  0.6610  11.00000  0.05    0.77
Q5    1   0.0976  0.7997  0.6577  11.00000  0.05    0.77
Q6    1   0.0986  0.9938  0.7393  11.00000  0.05    0.76
Q7    1   0.1016  0.8448  0.5871  11.00000  0.05    0.74
Q8    1   0.0956  0.9769  0.5621  11.00000  0.05    0.73
Q9    1   0.0686  0.9376  0.6547  11.00000  0.05    0.69
Q10   1   0.1725  1.5670  0.6511  11.00000  0.05    0.49
Q11   1   0.1177  1.3086  0.6338  11.00000  0.05    0.48
Q12   1   0.2785  0.9189  0.1530  11.00000  0.05    0.44
Q13   1   0.0880  0.8270  0.8378  11.00000  0.05    0.43
Q14   1   0.0313  0.6557  0.7096  11.00000  0.05    0.43
Q15   1   0.0694  0.6158  0.6525  11.00000  0.05    0.42
Q16   1   0.2112  1.2765  0.6542  11.00000  0.05    0.40
Q17   1   0.0777  1.1509  0.6604  11.00000  0.05    0.38
Q18   1   0.2481  1.2482 -0.0755  11.00000  0.05    0.38
Q19   1   0.0481  0.8172  1.3356  11.00000  0.05    0.38
Q20   1   0.2799  1.2254  0.3797  11.00000  0.05    0.36
;
_shelx_res_checksum              76281
#END Tags that were not found in dictionaries
loop_
_space_group_symop_operation_xyz
'x, y, z'
'-x, -y, z'
'x+1/2, -y+1/2, z'
'-x+1/2, y+1/2, z'
loop_
_atom_site_label
_atom_site_type_symbol
_atom_site_fract_x
_atom_site_fract_y
_atom_site_fract_z
_atom_site_U_iso_or_equiv
_atom_site_adp_type
_atom_site_occupancy
_atom_site_site_symmetry_order
_atom_site_calc_flag
_atom_site_refinement_flags_posn
_atom_site_refinement_flags_adp
_atom_site_refinement_flags_occupancy
Tb1 Tb 0.09668(2) 0.92583(5) 0.65506(13) 0.02979(14) Uani 1 1 d . . .
O1 O 0.0347(2) 0.8313(11) 0.7901(7) 0.0308(18) Uani 1 1 d . . .
O2 O 0.0894(3) 0.9391(15) 0.8984(11) 0.045(3) Uani 1 1 d . . .
O3 O 0.0830(4) 0.9981(17) 1.4113(10) 0.045(2) Uani 1 1 d . . .
O4 O 0.0487(3) 0.7810(12) 1.5063(8) 0.040(2) Uani 1 1 d . . .
O5 O 0.13031(18) 1.1954(9) 0.6447(14) 0.0409(16) Uani 1 1 d . . .
O6 O 0.1679(2) 1.3910(13) 0.7686(9) 0.052(2) Uani 1 1 d . . .
O7 O 0.3244(2) 1.3588(11) 0.7184(8) 0.0301(19) Uani 1 1 d . . .
O8 O 0.3483(2) 1.3024(12) 0.5127(7) 0.0403(18) Uani 1 1 d . . .
O9 O 0.0996(3) 0.6051(13) 0.5949(12) 0.066(3) Uani 1 1 d . . .
O10 O 0.0432(2) 1.1575(10) 0.6657(15) 0.052(2) Uani 1 1 d . . .
H10A H 0.0195 1.1419 0.7039 0.062 Uiso 1 1 d . U .
H10B H 0.0485 1.2246 0.5979 0.062 Uiso 1 1 d . U .
O101 O 0.0000 0.5000 1.5991(16) 0.140(11) Uani 1 2 d S T P
N1 N -0.1474(3) 0.4579(17) 1.176(2) 0.071(5) Uani 1 1 d . . .
N2 N 0.2059(3) 0.9846(14) -0.0374(9) 0.044(2) Uani 1 1 d . . .
H2A H 0.2007 0.9529 -0.1196 0.053 Uiso 1 1 calc R U .
C1 C 0.0548(5) 0.868(2) 0.8967(13) 0.033(3) Uani 1 1 d . . .
C2 C 0.0334(4) 0.8219(19) 1.0275(14) 0.029(3) Uani 1 1 d . . .
C3 C 0.0542(2) 0.8703(11) 1.1559(19) 0.0315(18) Uani 1 1 d . . .
H3A H 0.0799 0.9298 1.1551 0.038 Uiso 1 1 calc R U .
C4 C 0.0364(4) 0.8292(19) 1.2705(12) 0.029(3) Uani 1 1 d . . .
C5 C 0.0561(4) 0.871(2) 1.4031(14) 0.029(3) Uani 1 1 d . . .
C6 C -0.0030(4) 0.7491(18) 1.2720(15) 0.039(3) Uani 1 1 d . . .
H6A H -0.0150 0.7251 1.3560 0.046 Uiso 1 1 calc R U .
C7 C -0.0250(3) 0.7037(11) 1.1602(17) 0.0319(18) Uani 1 1 d . . .
C8 C -0.0053(4) 0.7384(15) 1.0307(12) 0.025(3) Uani 1 1 d . . .
H8A H -0.0185 0.7049 0.9504 0.030 Uiso 1 1 calc R U .
C9 C -0.1233(4) 0.487(2) 1.2843(17) 0.053(4) Uani 1 1 d . . .
H9A H -0.1340 0.4507 1.3677 0.063 Uiso 1 1 calc R U .
C10 C -0.0862(7) 0.561(2) 1.285(2) 0.048(4) Uani 1 1 d . . .
H10C H -0.0714 0.5738 1.3657 0.058 Uiso 1 1 calc R U .
C11 C -0.0687(3) 0.6219(11) 1.158(2) 0.0331(18) Uani 1 1 d . . .
C12 C -0.0910(6) 0.604(3) 1.050(2) 0.063(6) Uani 1 1 d . . .
H12A H -0.0816 0.6462 0.9664 0.076 Uiso 1 1 calc R U .
C13 C -0.1326(5) 0.512(4) 1.063(2) 0.090(7) Uani 1 1 d . . .
H13A H -0.1485 0.4939 0.9853 0.108 Uiso 1 1 calc R U .
C14 C 0.1634(3) 1.2809(15) 0.6774(11) 0.035(3) Uani 1 1 d . . .
C15 C 0.2010(3) 1.2495(13) 0.5829(10) 0.030(2) Uani 1 1 d . . .
C16 C 0.2412(3) 1.2849(12) 0.6315(14) 0.036(3) Uani 1 1 d . . .
H16A H 0.2450 1.3240 0.7202 0.043 Uiso 1 1 calc R U .
C17 C 0.2756(3) 1.2613(14) 0.5464(9) 0.029(2) Uani 1 1 d . . .
C18 C 0.3178(3) 1.3059(16) 0.5968(13) 0.030(3) Uani 1 1 d . . .
C19 C 0.2688(3) 1.1989(13) 0.4150(9) 0.028(2) Uani 1 1 d . . .
H19A H 0.2918 1.1811 0.3585 0.033 Uiso 1 1 calc R U .
C20 C 0.2290(3) 1.1625(15) 0.3655(10) 0.034(2) Uani 1 1 d . . .
C21 C 0.1945(3) 1.1859(14) 0.4532(10) 0.032(2) Uani 1 1 d . . .
H21A H 0.1674 1.1586 0.4239 0.039 Uiso 1 1 calc R U .
C22 C 0.2452(4) 1.0221(17) -0.0022(11) 0.042(3) Uani 1 1 d . . .
H22A H 0.2670 1.0095 -0.0644 0.050 Uiso 1 1 calc R U .
C23 C 0.2532(3) 1.0807(14) 0.1293(12) 0.042(4) Uani 1 1 d . . .
H23A H 0.2806 1.1086 0.1542 0.050 Uiso 1 1 calc R U .
C24 C 0.2212(3) 1.0986(14) 0.2239(11) 0.034(2) Uani 1 1 d . . .
C25 C 0.1810(4) 1.051(2) 0.178(2) 0.070(6) Uani 1 1 d . . .
H25A H 0.1585 1.0590 0.2378 0.084 Uiso 1 1 calc R U .
C26 C 0.1741(4) 0.994(2) 0.0505(15) 0.060(4) Uani 1 1 d . . .
H26A H 0.1471 0.9619 0.0236 0.072 Uiso 1 1 calc R U .
loop_
_atom_site_aniso_label
_atom_site_aniso_U_11
_atom_site_aniso_U_22
_atom_site_aniso_U_33
_atom_site_aniso_U_23
_atom_site_aniso_U_13
_atom_site_aniso_U_12
Tb1 0.0224(2) 0.0431(2) 0.0239(2) -0.0021(4) 0.0011(3) -0.00204(15)
O1 0.022(3) 0.051(5) 0.019(3) 0.001(4) -0.003(3) 0.000(3)
O2 0.036(5) 0.075(9) 0.024(5) 0.002(4) -0.004(3) -0.011(4)
O3 0.044(5) 0.058(6) 0.032(5) -0.001(4) -0.006(4) -0.025(5)
O4 0.040(5) 0.054(6) 0.027(4) 0.003(4) -0.002(3) -0.014(4)
O5 0.028(3) 0.047(3) 0.048(4) -0.003(6) 0.011(5) -0.006(3)
O6 0.036(4) 0.071(6) 0.050(5) -0.027(5) 0.013(4) 0.001(4)
O7 0.025(4) 0.041(5) 0.024(3) -0.013(3) 0.004(3) -0.003(3)
O8 0.026(3) 0.061(5) 0.034(4) -0.007(4) 0.004(3) -0.002(3)
O9 0.048(5) 0.056(6) 0.095(8) 0.016(5) -0.007(4) -0.001(4)
O10 0.028(3) 0.056(4) 0.071(6) -0.002(7) 0.013(5) 0.002(3)
O101 0.28(3) 0.089(12) 0.047(8) 0.000 0.000 -0.103(17)
N1 0.038(5) 0.081(8) 0.094(14) 0.037(10) 0.005(7) -0.017(5)
N2 0.054(6) 0.055(6) 0.024(4) -0.011(4) -0.013(4) 0.001(5)
C1 0.043(8) 0.042(9) 0.014(6) -0.002(6) 0.000(5) 0.001(7)
C2 0.031(6) 0.028(7) 0.029(6) -0.003(6) -0.012(5) 0.002(5)
C3 0.029(4) 0.037(4) 0.028(4) 0.012(8) -0.013(7) -0.003(3)
C4 0.033(6) 0.040(8) 0.016(5) -0.003(6) -0.007(4) -0.002(6)
C5 0.021(6) 0.037(8) 0.029(7) -0.007(6) -0.002(5) 0.001(6)
C6 0.031(7) 0.049(9) 0.036(8) 0.009(6) 0.005(6) 0.006(7)
C7 0.035(4) 0.032(4) 0.029(4) 0.009(7) 0.011(7) 0.002(3)
C8 0.030(6) 0.028(7) 0.017(6) 0.001(5) -0.001(4) -0.003(5)
C9 0.028(6) 0.071(9) 0.058(9) 0.015(8) -0.003(6) -0.012(6)
C10 0.049(7) 0.051(8) 0.045(9) 0.011(7) 0.013(7) -0.018(6)
C11 0.034(4) 0.030(4) 0.036(4) 0.008(9) -0.003(8) 0.004(3)
C12 0.047(9) 0.093(15) 0.050(11) 0.002(10) -0.012(7) -0.026(9)
C13 0.030(9) 0.150(19) 0.091(16) 0.027(15) -0.002(8) -0.020(11)
C14 0.030(4) 0.050(5) 0.024(8) -0.003(5) -0.002(4) -0.003(4)
C15 0.025(4) 0.025(5) 0.039(5) 0.007(4) 0.007(4) -0.001(4)
C16 0.026(4) 0.034(4) 0.048(9) 0.001(5) 0.000(4) -0.001(3)
C17 0.030(5) 0.034(5) 0.024(4) 0.000(4) 0.000(3) 0.001(4)
C18 0.025(5) 0.027(6) 0.039(6) 0.003(5) 0.004(4) -0.002(4)
C19 0.026(4) 0.033(5) 0.024(4) -0.006(4) 0.001(3) -0.010(4)
C20 0.033(5) 0.043(6) 0.027(5) 0.004(5) 0.003(4) -0.003(5)
C21 0.016(4) 0.039(6) 0.041(5) -0.009(5) -0.003(4) -0.002(4)
C22 0.040(6) 0.056(7) 0.029(5) 0.001(5) 0.001(4) -0.004(5)
C23 0.037(5) 0.053(6) 0.036(10) -0.022(6) -0.001(5) -0.009(4)
C24 0.030(5) 0.039(6) 0.032(5) -0.007(5) 0.000(4) 0.001(4)
C25 0.030(5) 0.115(12) 0.065(16) -0.034(11) 0.001(7) -0.010(6)
C26 0.034(7) 0.088(10) 0.058(9) -0.019(8) -0.003(6) -0.017(7)
loop_
_atom_type_symbol
_atom_type_description
_atom_type_scat_dispersion_real
_atom_type_scat_dispersion_imag
_atom_type_scat_source
C C 0.0033 0.0016 'International Tables Vol C Tables 4.2.6.8 and 6.1.1.4'
H H 0.0000 0.0000 'International Tables Vol C Tables 4.2.6.8 and 6.1.1.4'
N N 0.0061 0.0033 'International Tables Vol C Tables 4.2.6.8 and 6.1.1.4'
O O 0.0106 0.0060 'International Tables Vol C Tables 4.2.6.8 and 6.1.1.4'
Tb Tb -0.1723 4.1537 'International Tables Vol C Tables 4.2.6.8 and 6.1.1.4'
loop_
_geom_angle_atom_site_label_1
_geom_angle_atom_site_label_2
_geom_angle_atom_site_label_3
_geom_angle
_geom_angle_site_symmetry_1
_geom_angle_site_symmetry_3
O5 Tb1 O4 132.4(4) . 1_554
O5 Tb1 O2 93.1(4) . .
O4 Tb1 O2 124.8(3) 1_554 .
O5 Tb1 O8 88.4(3) . 4_545
O4 Tb1 O8 86.1(3) 1_554 4_545
O2 Tb1 O8 131.4(3) . 4_545
O5 Tb1 O10 72.5(2) . .
O4 Tb1 O10 84.4(3) 1_554 .
O2 Tb1 O10 82.0(4) . .
O8 Tb1 O10 143.2(4) 4_545 .
O5 Tb1 O9 145.9(3) . .
O4 Tb1 O9 55.5(3) 1_554 .
O2 Tb1 O9 106.4(4) . .
O8 Tb1 O9 57.7(3) 4_545 .
O10 Tb1 O9 136.7(3) . .
O5 Tb1 O1 130.3(3) . .
O4 Tb1 O1 72.0(2) 1_554 .
O2 Tb1 O1 53.3(3) . .
O8 Tb1 O1 140.8(3) 4_545 .
O10 Tb1 O1 67.9(3) . .
O9 Tb1 O1 83.2(3) . .
O5 Tb1 O3 81.2(4) . 1_554
O4 Tb1 O3 52.7(3) 1_554 1_554
O2 Tb1 O3 158.4(3) . 1_554
O8 Tb1 O3 69.6(4) 4_545 1_554
O10 Tb1 O3 76.4(5) . 1_554
O9 Tb1 O3 89.2(4) . 1_554
O1 Tb1 O3 116.0(3) . 1_554
O5 Tb1 O7 74.5(3) . 4_545
O4 Tb1 O7 132.2(3) 1_554 4_545
O2 Tb1 O7 82.2(3) . 4_545
O8 Tb1 O7 51.5(2) 4_545 4_545
O10 Tb1 O7 142.4(3) . 4_545
O9 Tb1 O7 80.6(3) . 4_545
O1 Tb1 O7 125.1(2) . 4_545
O3 Tb1 O7 115.8(3) 1_554 4_545
O5 Tb1 C1 113.7(5) . .
O4 Tb1 C1 98.7(4) 1_554 .
O2 Tb1 C1 26.2(4) . .
O8 Tb1 C1 141.9(4) 4_545 .
O10 Tb1 C1 74.7(5) . .
O9 Tb1 C1 94.2(4) . .
O1 Tb1 C1 27.2(3) . .
O3 Tb1 C1 141.1(4) 1_554 .
O7 Tb1 C1 103.0(4) 4_545 .
O5 Tb1 C5 107.5(5) . 1_554
O4 Tb1 C5 25.8(4) 1_554 1_554
O2 Tb1 C5 146.6(3) . 1_554
O8 Tb1 C5 76.4(3) 4_545 1_554
O10 Tb1 C5 79.7(4) . 1_554
O9 Tb1 C5 70.5(4) . 1_554
O1 Tb1 C5 93.9(3) . 1_554
O3 Tb1 C5 26.9(4) 1_554 1_554
O7 Tb1 C5 128.0(3) 4_545 1_554
C1 Tb1 C5 121.0(2) . 1_554
O5 Tb1 C18 80.0(3) . 4_545
O4 Tb1 C18 109.7(3) 1_554 4_545
O2 Tb1 C18 107.3(4) . 4_545
O8 Tb1 C18 25.6(3) 4_545 4_545
O10 Tb1 C18 151.5(3) . 4_545
O9 Tb1 C18 67.7(3) . 4_545
O1 Tb1 C18 139.3(3) . 4_545
O3 Tb1 C18 92.3(4) 1_554 4_545
O7 Tb1 C18 26.0(2) 4_545 4_545
C1 Tb1 C18 124.8(4) . 4_545
C5 Tb1 C18 102.0(4) 1_554 4_545
C1 O1 Tb1 88.9(8) . .
C1 O2 Tb1 93.1(9) . .
C5 O3 Tb1 90.9(8) . 1_556
C5 O4 Tb1 97.7(8) . 1_556
C14 O5 Tb1 145.0(8) . .
C18 O7 Tb1 89.7(7) . 4
C18 O8 Tb1 99.5(7) . 4
C13 N1 C9 115.7(12) . .
C22 N2 C26 122.2(10) . .
O2 C1 O1 124.4(13) . .
O2 C1 C2 119.8(12) . .
O1 C1 C2 115.8(13) . .
O2 C1 Tb1 60.7(8) . .
O1 C1 Tb1 63.9(7) . .
C2 C1 Tb1 175.3(11) . .
C8 C2 C3 119.4(12) . .
C8 C2 C1 122.0(12) . .
C3 C2 C1 118.6(12) . .
C4 C3 C2 119.5(7) . .
C3 C4 C6 120.3(12) . .
C3 C4 C5 122.0(12) . .
C6 C4 C5 117.7(12) . .
O4 C5 O3 118.6(12) . .
O4 C5 C4 121.6(13) . .
O3 C5 C4 119.7(13) . .
O4 C5 Tb1 56.4(7) . 1_556
O3 C5 Tb1 62.2(7) . 1_556
C4 C5 Tb1 175.7(10) . 1_556
C7 C6 C4 124.6(13) . .
C6 C7 C8 116.8(8) . .
C6 C7 C11 125.9(15) . .
C8 C7 C11 117.3(14) . .
C2 C8 C7 119.2(11) . .
C10 C9 N1 126.5(17) . .
C9 C10 C11 118.7(19) . .
C12 C11 C10 118.1(10) . .
C12 C11 C7 123.8(18) . .
C10 C11 C7 118.1(17) . .
C11 C12 C13 117(2) . .
N1 C13 C12 124(2) . .
O6 C14 O5 128.3(10) . .
O6 C14 C15 117.1(9) . .
O5 C14 C15 114.5(9) . .
C21 C15 C16 121.6(9) . .
C21 C15 C14 119.8(8) . .
C16 C15 C14 118.6(9) . .
C17 C16 C15 119.4(11) . .
C16 C17 C19 118.8(9) . .
C16 C17 C18 119.0(9) . .
C19 C17 C18 122.1(9) . .
O8 C18 O7 119.3(11) . .
O8 C18 C17 118.1(10) . .
O7 C18 C17 122.5(10) . .
O8 C18 Tb1 55.0(5) . 4
O7 C18 Tb1 64.4(6) . 4
C17 C18 Tb1 170.6(8) . 4
C20 C19 C17 122.4(9) . .
C19 C20 C21 118.2(9) . .
C19 C20 C24 122.9(9) . .
C21 C20 C24 118.9(9) . .
C15 C21 C20 119.6(8) . .
N2 C22 C23 118.8(10) . .
C24 C23 C22 121.5(10) . .
C23 C24 C25 115.3(12) . .
C23 C24 C20 122.5(9) . .
C25 C24 C20 122.1(11) . .
C26 C25 C24 122.0(15) . .
N2 C26 C25 120.0(12) . .
loop_
_geom_bond_atom_site_label_1
_geom_bond_atom_site_label_2
_geom_bond_distance
_geom_bond_site_symmetry_2
Tb1 O5 2.285(6) .
Tb1 O4 2.378(8) 1_554
Tb1 O2 2.412(11) .
Tb1 O8 2.425(7) 4_545
Tb1 O10 2.430(7) .
Tb1 O9 2.473(10) .
Tb1 O1 2.481(7) .
Tb1 O3 2.501(10) 1_554
Tb1 O7 2.635(7) 4_545
Tb1 C1 2.762(14) .
Tb1 C5 2.827(14) 1_554
Tb1 C18 2.922(11) 4_545
O1 C1 1.261(16) .
O2 C1 1.219(18) .
O3 C5 1.278(17) .
O3 Tb1 2.501(10) 1_556
O4 C5 1.243(17) .
O4 Tb1 2.378(8) 1_556
O5 C14 1.272(12) .
O6 C14 1.228(13) .
O7 C18 1.280(12) .
O7 Tb1 2.635(7) 4
O8 C18 1.278(13) .
O8 Tb1 2.425(7) 4
N1 C13 1.27(3) .
N1 C9 1.34(2) .
N2 C22 1.327(14) .
N2 C26 1.333(17) .
C1 C2 1.499(19) .
C2 C8 1.380(18) .
C2 C3 1.47(2) .
C3 C4 1.30(2) .
C4 C6 1.388(19) .
C4 C5 1.485(17) .
C5 Tb1 2.827(14) 1_556
C6 C7 1.35(2) .
C7 C8 1.446(18) .
C7 C11 1.518(11) .
C9 C10 1.30(2) .
C10 C11 1.44(3) .
C11 C12 1.29(3) .
C12 C13 1.50(3) .
C14 C15 1.535(13) .
C15 C21 1.380(14) .
C15 C16 1.390(13) .
C16 C17 1.389(14) .
C17 C19 1.394(13) .
C17 C18 1.470(14) .
C18 Tb1 2.922(11) 4
C19 C20 1.383(13) .
C20 C21 1.407(13) .
C20 C24 1.496(14) .
C22 C23 1.392(16) .
C23 C24 1.386(15) .
C24 C25 1.401(16) .
C25 C26 1.35(2) .
