#------------------------------------------------------------------------------
#$Date: 2016-03-22 21:09:53 +0200 (Tue, 22 Mar 2016) $
#$Revision: 179014 $
#$URL: svn://www.crystallography.net/cod/cif/4/12/12/4121292.cif $
#------------------------------------------------------------------------------
#
# This file is available in the Crystallography Open Database (COD),
# http://www.crystallography.net/
#
# All data on this site have been placed in the public domain by the
# contributors.
#
data_4121292
loop_
_publ_author_name
'Gang Wu'
'Jiaquan Bai'
'Yuan Jiang'
'Guanghua Li'
'Jian Huang'
'Yi Li'
'Christopher E. Anson'
'Annie K. Powell'
'Shilun Qiu'
_publ_section_title
;
 Rolling Up the Sheet: Constructing Metal-Organic Lamellae and Nanotubes
 from a [{Mn3(propanediolato)2}(dicyanamide)2]n Honeycomb Skeleton
;
_journal_name_full               'Journal of the American Chemical Society'
_journal_page_first              18276
_journal_page_last               18279
_journal_paper_doi               10.1021/ja409569q
_journal_volume                  135
_journal_year                    2013
_chemical_formula_moiety
;
 '(C6 H16 N), (C27.25 H40.5 Br2 Mn3 N8 O12 S2), 0.75(C H4 O),
 0.25(H2 O)'
;
_chemical_formula_sum            'C34 H60 Br2 Mn3 N9 O13 S2'
_chemical_formula_weight         1191.67
_chemical_name_systematic
;
 ?
;
_space_group_crystal_system      tetragonal
_space_group_IT_number           85
_space_group_name_Hall           '-P 4a'
_space_group_name_H-M_alt        'P 4/n'
_symmetry_space_group_name_Hall  '-P 4a'
_symmetry_space_group_name_H-M   'P 4/n :2'
_atom_sites_solution_hydrogens   mixed
_atom_sites_solution_primary     direct
_atom_sites_solution_secondary   difmap
_audit_creation_method           SHELXL-2013
_cell_angle_alpha                90
_cell_angle_beta                 90
_cell_angle_gamma                90
_cell_formula_units_Z            16
_cell_length_a                   28.1886(3)
_cell_length_b                   28.1886(3)
_cell_length_c                   26.1977(6)
_cell_measurement_reflns_used    9994
_cell_measurement_temperature    185(2)
_cell_measurement_theta_max      24.92
_cell_measurement_theta_min      2.28
_cell_volume                     20816.6(6)
_computing_cell_refinement       'Apex2 (Bruker AXS Inc., 2005)'
_computing_data_collection       'Apex2 (Bruker AXS Inc., 2005)'
_computing_data_reduction        'Apex2 (Bruker AXS Inc., 2005)'
_computing_molecular_graphics    'Diamond 2.1 (Crystal Impact, 1998)'
_computing_publication_material  'SHELXL-2013 (Sheldrick, 2013)'
_computing_structure_refinement  'SHELXL-2013 (Sheldrick, 2013)'
_computing_structure_solution    'Apex2 (Bruker AXS Inc., 2005)'
_diffrn_ambient_temperature      185(2)
_diffrn_measured_fraction_theta_full 0.999
_diffrn_measured_fraction_theta_max 0.999
_diffrn_measurement_device_type  'Bruker Apex II'
_diffrn_measurement_method       \w-scans
_diffrn_radiation_type           MoK\a
_diffrn_radiation_wavelength     0.71073
_diffrn_reflns_av_R_equivalents  0.0753
_diffrn_reflns_av_unetI/netI     0.0960
_diffrn_reflns_Laue_measured_fraction_full 0.999
_diffrn_reflns_Laue_measured_fraction_max 0.999
_diffrn_reflns_limit_h_max       24
_diffrn_reflns_limit_h_min       -31
_diffrn_reflns_limit_k_max       22
_diffrn_reflns_limit_k_min       -31
_diffrn_reflns_limit_l_max       29
_diffrn_reflns_limit_l_min       -20
_diffrn_reflns_number            62359
_diffrn_reflns_point_group_measured_fraction_full 0.999
_diffrn_reflns_point_group_measured_fraction_max 0.999
_diffrn_reflns_theta_full        23.250
_diffrn_reflns_theta_max         23.256
_diffrn_reflns_theta_min         1.714
_diffrn_source                   'fine-focus sealed tube'
_exptl_absorpt_coefficient_mu    2.394
_exptl_absorpt_correction_T_max  0.687
_exptl_absorpt_correction_T_min  0.653
_exptl_absorpt_correction_type   multi-scan
_exptl_absorpt_process_details   'SADABS 2.10 (Bruker AXS Inc., 2005)'
_exptl_crystal_colour            yellow
_exptl_crystal_density_diffrn    1.521
_exptl_crystal_description       block
_exptl_crystal_F_000             9728
_exptl_crystal_size_max          0.200
_exptl_crystal_size_mid          0.170
_exptl_crystal_size_min          0.160
_platon_squeeze_details
;
;
_refine_diff_density_max         0.864
_refine_diff_density_min         -0.866
_refine_diff_density_rms         0.091
_refine_ls_extinction_method     none
_refine_ls_goodness_of_fit_ref   0.950
_refine_ls_hydrogen_treatment    mixed
_refine_ls_matrix_type           full
_refine_ls_number_parameters     1095
_refine_ls_number_reflns         14942
_refine_ls_number_restraints     60
_refine_ls_restrained_S_all      0.961
_refine_ls_R_factor_all          0.1271
_refine_ls_R_factor_gt           0.0596
_refine_ls_shift/su_max          0.001
_refine_ls_shift/su_mean         0.000
_refine_ls_structure_factor_coef Fsqd
_refine_ls_weighting_details
'w=1/[\s^2^(Fo^2^)+(0.0803P)^2^] where P=(Fo^2^+2Fc^2^)/3'
_refine_ls_weighting_scheme      calc
_refine_ls_wR_factor_gt          0.1416
_refine_ls_wR_factor_ref         0.1635
_reflns_Friedel_coverage         0.000
_reflns_number_gt                7579
_reflns_number_total             14942
_reflns_threshold_expression     'I > 2\s(I)'
_cod_data_source_file            ja409569q_si_005.cif
_cod_data_source_block           wg-tubes
_cod_original_cell_volume        20816.6(7)
_cod_database_code               4121292
#BEGIN Tags that were not found in dictionaries:
_shelx_space_group_comment
;
The symmetry employed for this shelxl refinement is uniquely defined
by the following loop, which should always be used as a source of
symmetry information in preference to the above space-group names.
They are only intended as comments.
;
_shelx_estimated_absorpt_t_min   0.646
_shelx_estimated_absorpt_t_max   0.701
_shelxl_version_number           2013-4
_shelx_res_file
;
TITL wg-tube in P4/n
CELL 0.71073  28.1886  28.1886  26.1977  90.000  90.000  90.000
ZERR   16.00   0.0003   0.0003   0.0006   0.000   0.000   0.000
LATT  1
SYMM 0.5-X, 0.5-Y, Z
SYMM 0.5-Y, X, Z
SYMM Y, 0.5-X, Z
SFAC C H N O S MN BR
UNIT 544 960 144 144 32 48 32
SHEL 12.00 0.90
OMIT 0 2 2
OMIT 0 2 4
OMIT -1 5 0
SIZE 0.20 0.17 0.16
TEMP -88
BIND MN1 BR2
BIND MN2 O18B
BIND MN4 BR4
EQIV $1   -y+1/2, x, z
EQIV $2   x, y, z-1
EQIV $3   -y+1/2, x, z-1
EQIV $4   y, -x+1/2, z
EQIV $5   x, y, z+1
EQIV $6   y, -x+1/2, z+1
EQIV $7   -x, -y+1, -z
EQIV $8 -x+1, -y+1, -z+1
L.S. 32
ACTA 46.5
BOND $H
HTAB
HTAB N1 BR2
HTAB N2 BR2
HTAB N3 BR4
HTAB N4 BR4
HTAB O17 BR2
HTAB O18A BR1
HTAB O19 BR2
HTAB O20 BR1
HTAB O21 BR4
HTAB O22 BR3
HTAB O23 BR4
HTAB O24 BR3
HTAB N61 O15
HTAB N71A BR2
HTAB C3 O4
HTAB C3 O8_$4
HTAB C13 Br1_$1
HTAB C22 Br3_$4
HTAB C23 Br3_$4
HTAB C33 O12_$1
HTAB O17 Br2
HTAB O18A Br1
HTAB O19 Br2
HTAB O20 Br1
HTAB O21 Br4
HTAB O22 Br3
HTAB O23 Br4
HTAB O24 Br3
HTAB N61 S4
HTAB N61 O15
HTAB C65 O11_$8
FMAP 2
PLAN 40
SADI O18A C51A O19 C52 O20 C53A O20 C53B O21 C54 O22 C55 =
     O23 C56A O24 C57
DFIX 0.92 0.04 O17 H171 O17 H172 O19 H19 O20 H20 O21 H21 O22 H22 O23 H23 O24 H24
SADI MN2 H171 MN2 H172
DFIX 2.30 0.04 H171 BR2
EADP N14A N14B
EADP N16A N16B
SADI MN2 N14A MN2 N14B
SADI N16A MN6_$3 N16B MN6_$3
DELU N14A > N16A
SADI N71A C71A N71A C73A N71A C75A
SADI C71A C72A C73A C74A C75A C76A
SADI N71A C72A N71A C74A N71A C76A
RIGU O23 C56A
SADI MN2 O18A MN2 O18B

WGHT    0.080300
FVAR       0.40334
MN1   6    0.206898    0.456376    0.118845    11.00000    0.04627    0.06093 =
         0.01814   -0.00057    0.00048   -0.01078
MN2   6    0.201487    0.464575   -0.001023    11.00000    0.06232    0.08678 =
         0.01744   -0.00566    0.00188   -0.01109
MN3   6    0.206863    0.458284    0.239038    11.00000    0.05472    0.06537 =
         0.01699    0.00590   -0.00022   -0.00401
MN4   6    0.342437    0.437815    0.624016    11.00000    0.05150    0.05445 =
         0.01825    0.00125   -0.00194    0.01340
MN5   6    0.343721    0.431955    0.503747    11.00000    0.05595    0.05967 =
         0.01803   -0.00390   -0.00117    0.00847
MN6   6    0.346676    0.448639    0.743627    11.00000    0.05852    0.07129 =
         0.01752    0.00743    0.00107    0.00633
BR1   7    0.265179    0.379151    0.116033    11.00000    0.06952    0.08060 =
         0.05945   -0.00580    0.00089    0.01554
BR2   7    0.136519    0.553288    0.126798    11.00000    0.06848    0.07086 =
         0.03530    0.00044    0.00162    0.00502
BR3   7    0.266862    0.376966    0.630724    11.00000    0.06449    0.09663 =
         0.05889    0.00403   -0.00173   -0.00990
BR4   7    0.432389    0.515575    0.619805    11.00000    0.05256    0.05955 =
         0.03092    0.00040    0.00170    0.00002
O1    4    0.238887    0.488469    0.171561    11.00000    0.04796    0.05870 =
         0.01500   -0.00326    0.00088   -0.01159
C1    1    0.285459    0.506324    0.166875    11.00000    0.03912    0.05466 =
         0.02624    0.00335   -0.00531   -0.01066
AFIX  23
H1A   2    0.308149    0.479526    0.167597    11.00000   -1.20000
H1B   2    0.292444    0.527030    0.196459    11.00000   -1.20000
AFIX   0
O2    4    0.238545    0.488020    0.065261    11.00000    0.05012    0.06522 =
         0.01816   -0.00090    0.00163   -0.01188
C2    1    0.285983    0.504341    0.069774    11.00000    0.05795    0.05775 =
         0.02096    0.00000    0.00482   -0.01291
AFIX  23
H2A   2    0.294199    0.523671    0.039487    11.00000   -1.20000
H2B   2    0.307750    0.476797    0.070837    11.00000   -1.20000
AFIX   0
C3    1    0.292590    0.534226    0.118201    11.00000    0.04637    0.05837 =
         0.03031    0.00943   -0.00278   -0.00279
AFIX  13
H3A   2    0.325866    0.546523    0.118221    11.00000   -1.20000
AFIX   0
N1    3    0.261048    0.574546    0.115583    11.00000    0.07024    0.05069 =
         0.03573   -0.00529   -0.01927   -0.00232
AFIX  43
H1    2    0.231251    0.570214    0.106715    11.00000   -1.20000
AFIX   0
S1    5    0.279528    0.627600    0.128676    11.00000    0.09244    0.05781 =
         0.05094   -0.00003   -0.00374   -0.00612
O3    4    0.240619    0.658903    0.116384    11.00000    0.12862    0.06958 =
         0.08115    0.00998   -0.03410    0.02040
O4    4    0.325072    0.633764    0.107165    11.00000    0.09065    0.08162 =
         0.07548   -0.00901    0.02358   -0.02773
C4    1    0.287961    0.630128    0.194448    11.00000    0.04765    0.04426 =
         0.04677    0.00583    0.00133   -0.00194
C5    1    0.249790    0.635991    0.226588    11.00000    0.06443    0.05647 =
         0.09355    0.00271   -0.01109   -0.00731
AFIX  43
H5A   2    0.218496    0.638264    0.213352    11.00000   -1.20000
AFIX   0
C6    1    0.258188    0.638570    0.279959    11.00000    0.11184    0.06207 =
         0.07466   -0.02195    0.03945   -0.02319
AFIX  43
H6A   2    0.231894    0.643532    0.302004    11.00000   -1.20000
AFIX   0
C7    1    0.300876    0.634393    0.300454    11.00000    0.11211    0.08806 =
         0.06052    0.01568   -0.00694   -0.04749
C8    1    0.338203    0.627560    0.268951    11.00000    0.08531    0.07788 =
         0.10287    0.03730   -0.05117   -0.04605
AFIX  43
H8A   2    0.369023    0.623873    0.283076    11.00000   -1.20000
AFIX   0
C9    1    0.332290    0.625774    0.215050    11.00000    0.06604    0.06556 =
         0.07380    0.00450    0.01381   -0.00606
AFIX  43
H9A   2    0.359046    0.621573    0.193470    11.00000   -1.20000
AFIX   0
C10   1    0.307701    0.637578    0.357644    11.00000    0.34756    0.10329 =
         0.04243    0.01129   -0.02000   -0.08117
AFIX  33
H10A  2    0.341389    0.633608    0.365840    11.00000   -1.50000
H10B  2    0.289271    0.612548    0.374399    11.00000   -1.50000
H10C  2    0.296863    0.668643    0.369732    11.00000   -1.50000
AFIX   0
O5    4    0.167131    0.435902    0.065364    11.00000    0.03883    0.06499 =
         0.02210   -0.00945   -0.00124   -0.01402
C11   1    0.136770    0.395784    0.069702    11.00000    0.04568    0.07226 =
         0.03034   -0.01163    0.00035   -0.00537
AFIX  23
H11A  2    0.156093    0.366476    0.068576    11.00000   -1.20000
H11B  2    0.114696    0.395166    0.040317    11.00000   -1.20000
AFIX   0
O6    4    0.169022    0.432856    0.172512    11.00000    0.04503    0.04524 =
         0.02187    0.00189    0.00376   -0.00676
C12   1    0.138388    0.393465    0.166279    11.00000    0.05231    0.05323 =
         0.03125    0.00229    0.00133   -0.00905
AFIX  23
H12A  2    0.117538    0.390992    0.196572    11.00000   -1.20000
H12B  2    0.157675    0.364161    0.164498    11.00000   -1.20000
AFIX   0
C13   1    0.108176    0.396745    0.119330    11.00000    0.04319    0.05073 =
         0.04493   -0.00388   -0.00381   -0.01603
AFIX  13
H13A  2    0.086173    0.368918    0.119128    11.00000   -1.20000
AFIX   0
N2    3    0.079337    0.439984    0.118824    11.00000    0.05175    0.05651 =
         0.04146    0.00784    0.00513   -0.01696
AFIX  43
H2    2    0.092675    0.466644    0.108849    11.00000   -1.20000
AFIX   0
S2    5    0.024415    0.441061    0.135643    11.00000    0.05394    0.06953 =
         0.04210   -0.00017    0.00156   -0.00122
O7    4    0.008125    0.488661    0.126589    11.00000    0.05812    0.06682 =
         0.06093    0.01651    0.00215    0.00863
O8    4    0.000107    0.403109    0.111847    11.00000    0.06805    0.07503 =
         0.05356   -0.01110    0.00086   -0.02774
C14   1    0.023590    0.431235    0.202641    11.00000    0.04862    0.04862 =
         0.04210    0.00465    0.00989   -0.00112
C15   1   -0.007362    0.398230    0.221412    11.00000    0.06306    0.06334 =
         0.05801    0.00273    0.00290   -0.00306
AFIX  43
H15A  2   -0.027521    0.380361    0.199621    11.00000   -1.20000
AFIX   0
C16   1   -0.007786    0.392046    0.275397    11.00000    0.07773    0.05940 =
         0.08418    0.03664    0.03388    0.00934
AFIX  43
H16A  2   -0.027975    0.368884    0.290297    11.00000   -1.20000
AFIX   0
C17   1    0.021106    0.419645    0.306337    11.00000    0.06122    0.12806 =
         0.04197    0.00938    0.00105    0.04386
C18   1    0.051318    0.449537    0.285679    11.00000    0.06987    0.16802 =
         0.04530   -0.01692    0.02010   -0.02673
AFIX  43
H18B  2    0.072749    0.466477    0.306916    11.00000   -1.20000
AFIX   0
C19   1    0.052353    0.456773    0.232688    11.00000    0.06676    0.10987 =
         0.04991   -0.01962    0.01384   -0.04095
AFIX  43
H19A  2    0.073249    0.479561    0.218260    11.00000   -1.20000
AFIX   0
C20   1    0.020406    0.411013    0.364254    11.00000    0.10147    0.20580 =
         0.05216    0.03589    0.00142    0.05693
AFIX 137
H20A  2    0.048528    0.392748    0.374126    11.00000   -1.50000
H20B  2   -0.008238    0.393247    0.373418    11.00000   -1.50000
H20C  2    0.020481    0.441542    0.382152    11.00000   -1.50000
AFIX   0
O9    4    0.375366    0.410833    0.679070    11.00000    0.04942    0.04868 =
         0.01650    0.00619   -0.00239    0.01527
C21   1    0.395862    0.365620    0.677286    11.00000    0.04520    0.05639 =
         0.03156    0.01042   -0.00217    0.00372
AFIX  23
H21A  2    0.370366    0.341590    0.679911    11.00000   -1.20000
H21B  2    0.416850    0.361729    0.707295    11.00000   -1.20000
AFIX   0
O10   4    0.372188    0.401705    0.572422    11.00000    0.05081    0.03862 =
         0.02509   -0.00107   -0.00154    0.00834
C22   1    0.392430    0.356690    0.581617    11.00000    0.04875    0.04735 =
         0.03834    0.00036   -0.00697    0.00363
AFIX  23
H22A  2    0.411232    0.347079    0.551421    11.00000   -1.20000
H22B  2    0.366686    0.333180    0.586177    11.00000   -1.20000
AFIX   0
C23   1    0.424602    0.355968    0.629022    11.00000    0.04972    0.04474 =
         0.03582    0.01131   -0.00547   -0.00551
AFIX  13
H23A  2    0.439186    0.323744    0.631955    11.00000   -1.20000
AFIX   0
N3    3    0.462537    0.390623    0.621759    11.00000    0.05944    0.04392 =
         0.03435    0.00777   -0.00502   -0.00079
AFIX  43
H3    2    0.455459    0.418835    0.609557    11.00000   -1.20000
AFIX   0
S3    5    0.516440    0.378789    0.635316    11.00000    0.04364    0.05967 =
         0.03627   -0.00675    0.00397   -0.00281
O11   4    0.543380    0.419152    0.619814    11.00000    0.04992    0.06176 =
         0.05446   -0.00013    0.01032   -0.01140
O12   4    0.528269    0.333975    0.613897    11.00000    0.06285    0.05686 =
         0.04412   -0.01559    0.00984    0.01377
C24   1    0.521096    0.373397    0.702082    11.00000    0.04813    0.04271 =
         0.03222   -0.00973   -0.00714    0.00570
C25   1    0.505855    0.411309    0.731628    11.00000    0.05953    0.06162 =
         0.04192   -0.00421   -0.00120    0.00437
AFIX  43
H25A  2    0.492241    0.438829    0.716675    11.00000   -1.20000
AFIX   0
C26   1    0.511701    0.406916    0.786383    11.00000    0.06790    0.07741 =
         0.04389   -0.02535    0.00952   -0.01647
AFIX  43
H26A  2    0.500868    0.431744    0.807957    11.00000   -1.20000
AFIX   0
C27   1    0.532461    0.367823    0.807638    11.00000    0.07925    0.06952 =
         0.03810    0.01246   -0.00723   -0.02609
C28   1    0.545896    0.331853    0.776545    11.00000    0.08039    0.04826 =
         0.07359    0.01282   -0.02386   -0.00210
AFIX  43
H28A  2    0.559721    0.304257    0.791107    11.00000   -1.20000
AFIX   0
C29   1    0.539953    0.334221    0.723368    11.00000    0.05390    0.04819 =
         0.05267   -0.00658   -0.01894   -0.00248
AFIX  43
H29A  2    0.549209    0.308266    0.702491    11.00000   -1.20000
AFIX   0
C30   1    0.539908    0.366151    0.863289    11.00000    0.13351    0.12658 =
         0.04675    0.01652   -0.02015   -0.04019
AFIX  33
H30A  2    0.527770    0.395371    0.878790    11.00000   -1.50000
H30B  2    0.573885    0.363162    0.870526    11.00000   -1.50000
H30C  2    0.523019    0.338810    0.877559    11.00000   -1.50000
AFIX   0
O13   4    0.319196    0.479206    0.674153    11.00000    0.04361    0.05753 =
         0.01386    0.00300   -0.00048    0.01539
C31   1    0.277823    0.506453    0.667718    11.00000    0.04641    0.04405 =
         0.01883    0.00018    0.00270   -0.00436
AFIX  23
H31A  2    0.274623    0.528670    0.696782    11.00000   -1.20000
H31B  2    0.249871    0.485190    0.667873    11.00000   -1.20000
AFIX   0
O14   4    0.319079    0.473329    0.568022    11.00000    0.04373    0.05518 =
         0.01405    0.00316   -0.00450    0.01929
C32   1    0.279004    0.501791    0.571587    11.00000    0.05481    0.04972 =
         0.02292    0.00303   -0.00949    0.01518
AFIX  23
H32A  2    0.250607    0.481161    0.572889    11.00000   -1.20000
H32B  2    0.276677    0.521390    0.540329    11.00000   -1.20000
AFIX   0
C33   1    0.278525    0.534580    0.618045    11.00000    0.04113    0.04975 =
         0.03734   -0.00521   -0.00491    0.00872
AFIX  13
H33A  2    0.249206    0.554502    0.616530    11.00000   -1.20000
AFIX   0
N4    3    0.319410    0.565737    0.616085    11.00000    0.05001    0.05238 =
         0.04071   -0.00495    0.00836    0.01030
AFIX  43
H4    2    0.347660    0.553598    0.610275    11.00000   -1.20000
AFIX   0
S4    5    0.314170    0.622126    0.624329    11.00000    0.08099    0.05034 =
         0.03554    0.00223    0.00689    0.00882
O15   4    0.361254    0.641318    0.616995    11.00000    0.09357    0.05551 =
         0.05208    0.00498    0.03231   -0.01668
O16   4    0.276662    0.639898    0.593820    11.00000    0.11085    0.06425 =
         0.05183   -0.00029   -0.01441    0.02748
C34   1    0.298088    0.633036    0.688297    11.00000    0.05178    0.05664 =
         0.03740    0.00053    0.00186    0.00329
C35   1    0.263069    0.664762    0.699048    11.00000    0.04601    0.07884 =
         0.06107   -0.00641    0.00552    0.01663
AFIX  43
H35A  2    0.246157    0.679949    0.672276    11.00000   -1.20000
AFIX   0
C36   1    0.252494    0.674538    0.749373    11.00000    0.05241    0.09320 =
         0.08617   -0.02756    0.01779    0.02095
AFIX  43
H36A  2    0.228295    0.696906    0.756972    11.00000   -1.20000
AFIX   0
C37   1    0.276153    0.652672    0.788821    11.00000    0.07073    0.07081 =
         0.04852   -0.02517    0.01825   -0.01763
C38   1    0.311489    0.621650    0.777486    11.00000    0.07410    0.06731 =
         0.03384    0.00140   -0.00120   -0.00038
AFIX  43
H38A  2    0.328381    0.606660    0.804402    11.00000   -1.20000
AFIX   0
C39   1    0.323487    0.611349    0.726564    11.00000    0.05500    0.05712 =
         0.05784   -0.00946    0.00571    0.00182
AFIX  43
H39A  2    0.348503    0.589951    0.718800    11.00000   -1.20000
AFIX   0
C40   1    0.262983    0.664074    0.844235    11.00000    0.11864    0.12108 =
         0.05443   -0.03608    0.03441   -0.02315
AFIX 137
H40A  2    0.238068    0.642306    0.855728    11.00000   -1.50000
H40B  2    0.251432    0.696802    0.846424    11.00000   -1.50000
H40C  2    0.291027    0.660405    0.865989    11.00000   -1.50000
AFIX   0
N5    3    0.252186    0.495191    0.294280    11.00000    0.06910    0.08793 =
         0.03260    0.00863   -0.01890   -0.01276
C41   1    0.263095    0.505708    0.334490    11.00000    0.06181    0.06326 =
         0.03896    0.01038   -0.01206   -0.00005
N6    3    0.273548    0.521878    0.378954    11.00000    0.15491    0.06728 =
         0.03946   -0.00873   -0.04683    0.01934
C42   1    0.291633    0.495123    0.414269    11.00000    0.07768    0.06217 =
         0.02783   -0.01653   -0.00926   -0.00290
N7    3    0.306552    0.475412    0.448724    11.00000    0.07193    0.08258 =
         0.02727    0.00352   -0.01106    0.01650
N8    3    0.171198    0.419099    0.298371    11.00000    0.07590    0.08995 =
         0.03780    0.02201    0.02112    0.00263
C43   1    0.166661    0.397191    0.333596    11.00000    0.06608    0.08932 =
         0.03443   -0.00484    0.00744    0.00487
N9    3    0.165813    0.366820    0.371882    11.00000    0.12853    0.11510 =
         0.05501    0.03887    0.05151    0.03583
C44   1    0.138888    0.371739    0.411476    11.00000    0.06413    0.07082 =
         0.04051    0.01469    0.00279   -0.00068
N10   3    0.117606    0.372201    0.448839    11.00000    0.06049    0.08360 =
         0.02805    0.01035    0.00829   -0.00283
N11   3    0.244490    0.502193   -0.055724    11.00000    0.08246    0.12052 =
         0.02342    0.00121    0.01429   -0.02527
C45   1    0.258672    0.516777   -0.092817    11.00000    0.06578    0.07976 =
         0.03288   -0.01855    0.00582   -0.01191
N12   3    0.275085    0.537814   -0.133338    11.00000    0.14050    0.07642 =
         0.04169   -0.00582    0.04950    0.00036
C46   1    0.292773    0.513395   -0.169961    11.00000    0.07796    0.06744 =
         0.02844    0.00435    0.00968   -0.00033
N13   3    0.308622    0.496060   -0.205646    11.00000    0.08918    0.09321 =
         0.03863    0.00911    0.01820    0.01704
PART   1
N14A  3    0.160981    0.425488   -0.054702    10.71000    0.05664
C47A  1    0.155023    0.405082   -0.090166    10.71000    0.10404
N15A  3    0.153803    0.373364   -0.131139    10.71000    0.14636
C48A  1    0.121307    0.382176   -0.166536    10.71000    0.10039
N16A  3    0.095588    0.377254   -0.197621    10.71000    0.06342
PART   2
SAME N14A > N16A
N14B  3    0.146507    0.443823   -0.053839    10.29000    0.05664
C47B  1    0.120958    0.424064   -0.078064    10.29000    0.09996
N15B  3    0.081615    0.408693   -0.106428    10.29000    0.16032
C48B  1    0.087124    0.402511   -0.156419    10.29000    0.10869
N16B  3    0.079598    0.392384   -0.195962    10.29000    0.06342
PART   0
O17   4    0.155881    0.529059    0.006100    11.00000    0.14520    0.14022 =
         0.03311    0.00770    0.01408    0.06771
H171  2    0.139525    0.531045    0.036497    11.00000   -1.50000
H172  2    0.171543    0.557194   -0.003679    11.00000   -1.50000
PART   1
O18A  4    0.251696    0.404004   -0.000738    10.70000    0.10939    0.14537 =
         0.02267   -0.00723    0.01555    0.02196
AFIX  43
H18A  2    0.246642    0.383322    0.027373    10.70000   -1.20000
AFIX   0
C51A  1    0.285797    0.390205   -0.029272    10.70000    0.13695
AFIX  33
H51A  2    0.299546    0.361053   -0.015250    10.70000   -1.50000
H51B  2    0.310190    0.414940   -0.030693    10.70000   -1.50000
H51C  2    0.273796    0.384041   -0.063749    10.70000   -1.50000
AFIX   0
PART   2
O18B  4    0.250102    0.401426   -0.013134    10.30000    0.10294
PART   0
O19   4    0.156186    0.517586    0.241960    11.00000    0.06650    0.05954 =
         0.02758   -0.00255    0.00045    0.00408
H19   2    0.157489    0.532636    0.211504    11.00000   -1.20000
C52   1    0.147831    0.549927    0.282283    11.00000    0.08798    0.07949 =
         0.06876   -0.02669   -0.00928    0.00140
AFIX  33
H52A  2    0.123179    0.572534    0.272081    11.00000   -1.50000
H52B  2    0.177169    0.567127    0.290054    11.00000   -1.50000
H52C  2    0.137360    0.532519    0.312640    11.00000   -1.50000
AFIX   0
O20   4    0.258172    0.399233    0.236090    11.00000    0.08868    0.12362 =
         0.03699    0.01421   -0.00190    0.03398
H20   2    0.260310    0.397363    0.201649    11.00000   -1.20000
PART   1
C53A  1    0.296843    0.389565    0.269576    10.65000    0.08328
AFIX  33
H53A  2    0.312844    0.360403    0.258697    10.65000   -1.50000
H53B  2    0.284920    0.385599    0.304455    10.65000   -1.50000
H53C  2    0.319350    0.416046    0.268597    10.65000   -1.50000
AFIX   0
PART   2
C53B  1    0.281347    0.372678    0.273756    10.35000    0.08324
AFIX  33
H53D  2    0.300347    0.347751    0.257569    10.35000   -1.50000
H53E  2    0.257780    0.358176    0.296402    10.35000   -1.50000
H53F  2    0.302134    0.393522    0.293657    10.35000   -1.50000
AFIX   0
PART   0
O21   4    0.408964    0.475396    0.504812    11.00000    0.05827    0.06064 =
         0.03849   -0.00570    0.01078    0.00959
H21   2    0.409913    0.495718    0.529973    11.00000   -1.20000
C54   1    0.452684    0.455001    0.493884    11.00000    0.12545    0.12258 =
         0.07851   -0.02310    0.01163   -0.01436
AFIX 137
H54A  2    0.471431    0.476870    0.472937    11.00000   -1.50000
H54B  2    0.447850    0.425270    0.475207    11.00000   -1.50000
H54C  2    0.469602    0.448483    0.525803    11.00000   -1.50000
AFIX   0
O22   4    0.281411    0.384716    0.510397    11.00000    0.08936    0.14343 =
         0.04042   -0.00541   -0.00198   -0.05748
H22   2    0.274168    0.372962    0.540640    11.00000   -1.20000
C55   1    0.250612    0.365775    0.476020    11.00000    0.08782    0.13199 =
         0.09033   -0.02624   -0.02652   -0.01253
AFIX  33
H55A  2    0.227427    0.345908    0.493911    11.00000   -1.50000
H55B  2    0.268153    0.346398    0.451354    11.00000   -1.50000
H55C  2    0.234063    0.391371    0.458026    11.00000   -1.50000
AFIX   0
O23   4    0.404349    0.500069    0.738941    11.00000    0.07977    0.11170 =
         0.03093   -0.00524   -0.00003   -0.02802
H23   2    0.412266    0.511460    0.707437    11.00000   -1.20000
PART 1
C56A  1    0.428316    0.523280    0.777172    10.80000    0.10580    0.11275 =
         0.07419   -0.01241   -0.02084   -0.01427
AFIX  33
H56A  2    0.452480    0.544020    0.762160    10.80000   -1.50000
H56B  2    0.443630    0.499992    0.799531    10.80000   -1.50000
H56C  2    0.405935    0.542383    0.797093    10.80000   -1.50000
AFIX   0
PART 2
O56B  4    0.416617    0.531698    0.834546    10.20000    0.04963
PART 0
O24   4    0.284567    0.397649    0.747511    11.00000    0.11416    0.14403 =
         0.03595    0.01698    0.01938   -0.01779
H24   2    0.282068    0.398934    0.711473    11.00000   -1.20000
C57   1    0.243954    0.402033    0.780014    11.00000    0.14771    0.24452 =
         0.14563   -0.01674    0.02015   -0.10044
AFIX  33
H57A  2    0.222942    0.374754    0.774849    11.00000   -1.50000
H57B  2    0.226876    0.431314    0.771708    11.00000   -1.50000
H57C  2    0.254251    0.403030    0.815727    11.00000   -1.50000
AFIX   0
N61   3    0.415528    0.647387    0.527886    11.00000    0.05976    0.06026 =
         0.04013    0.00816   -0.00075   -0.01122
AFIX  13
H61   2    0.389247    0.643236    0.553133    11.00000   -1.20000
AFIX   0
C61   1    0.461233    0.654987    0.560546    11.00000    0.08774    0.08518 =
         0.09738   -0.01827    0.02000   -0.01224
AFIX  23
H61A  2    0.455343    0.680081    0.586214    11.00000   -1.20000
H61B  2    0.468914    0.625309    0.578984    11.00000   -1.20000
AFIX   0
C62   1    0.501003    0.668444    0.528943    11.00000    0.11745    0.15173 =
         0.16544    0.00098    0.00895    0.00228
AFIX  33
H62A  2    0.529122    0.672979    0.550393    11.00000   -1.50000
H62B  2    0.493650    0.698101    0.511097    11.00000   -1.50000
H62C  2    0.507221    0.643382    0.503895    11.00000   -1.50000
AFIX   0
C63   1    0.401464    0.688673    0.496090    11.00000    0.08819    0.06936 =
         0.05162    0.01020    0.01191    0.01555
AFIX  23
H63A  2    0.427429    0.695781    0.471820    11.00000   -1.20000
H63B  2    0.373111    0.679961    0.475855    11.00000   -1.20000
AFIX   0
C64   1    0.390756    0.731976    0.525752    11.00000    0.13712    0.07183 =
         0.06628    0.01318    0.01959    0.00855
AFIX  33
H64A  2    0.382191    0.757726    0.502369    11.00000   -1.50000
H64B  2    0.418753    0.741199    0.545585    11.00000   -1.50000
H64C  2    0.364224    0.725714    0.548967    11.00000   -1.50000
AFIX   0
C65   1    0.417391    0.602279    0.498887    11.00000    0.09441    0.06202 =
         0.04503   -0.00454    0.01158    0.01497
AFIX  23
H65A  2    0.438345    0.606653    0.468927    11.00000   -1.20000
H65B  2    0.431807    0.577572    0.520813    11.00000   -1.20000
AFIX   0
C66   1    0.370806    0.585259    0.481046    11.00000    0.10071    0.07421 =
         0.05631    0.01136    0.00145   -0.00681
AFIX  33
H66A  2    0.374931    0.555646    0.461958    11.00000   -1.50000
H66B  2    0.356390    0.609226    0.458828    11.00000   -1.50000
H66C  2    0.350128    0.579589    0.510493    11.00000   -1.50000
AFIX   0
PART  -1
N71A  3    0.041275    0.576732    0.041079    10.50000    0.07481
AFIX  13
H71A  2    0.067817    0.562456    0.061214    10.50000   -1.20000
AFIX   0
C71A  1    0.011035    0.602700    0.078793    10.50000    0.07976
AFIX  23
H71B  2    0.000137    0.580027    0.105163    10.50000   -1.20000
H71C  2    0.030648    0.627055    0.095997    10.50000   -1.20000
AFIX   0
C72A  1   -0.030386    0.625774    0.056219    10.50000    0.10287
AFIX  33
H72A  2   -0.048319    0.642207    0.082947    10.50000   -1.50000
H72B  2   -0.050638    0.601823    0.040084    10.50000   -1.50000
H72C  2   -0.019975    0.648763    0.030490    10.50000   -1.50000
AFIX   0
C73A  1    0.014446    0.534765    0.016955    10.50000    0.07893
AFIX  23
H73A  2   -0.005738    0.519207    0.042957    10.50000   -1.20000
H73B  2   -0.006272    0.546298   -0.010921    10.50000   -1.20000
AFIX   0
C74A  1    0.049610    0.500098   -0.003630    10.50000    0.09820
AFIX  33
H74A  2    0.032797    0.473396   -0.019333    10.50000   -1.50000
H74B  2    0.069639    0.488417    0.024243    10.50000   -1.50000
H74C  2    0.069478    0.515722   -0.029314    10.50000   -1.50000
AFIX   0
C75A  1    0.063932    0.608777    0.003281    10.50000    0.05582
AFIX  23
H75A  2    0.084228    0.589374   -0.019419    10.50000   -1.20000
H75B  2    0.038668    0.622935   -0.018097    10.50000   -1.20000
AFIX   0
C76A  1    0.092977    0.647493    0.024312    10.50000    0.06835
AFIX  33
H76A  2    0.105904    0.666563   -0.003703    10.50000   -1.50000
H76B  2    0.119095    0.634112    0.044369    10.50000   -1.50000
H76C  2    0.073278    0.667590    0.046277    10.50000   -1.50000
PART   2

AFIX   0
HKLF 4

REM  wg-tube in P4/n
REM R1 =  0.0596 for    7579 Fo > 4sig(Fo)  and  0.1271 for all   14942 data
REM   1095 parameters refined using     60 restraints

END

WGHT      0.0877      0.0000

REM Instructions for potential hydrogen bonds
HTAB C3 O8_$4
HTAB N1 Br2
HTAB C13 Br1_$1
HTAB N2 Br2
HTAB C19 O19
HTAB C22 Br3_$4
HTAB C23 Br3_$4
HTAB N3 Br4
HTAB C33 O12_$1
HTAB N4 Br4
HTAB O17 Br2
HTAB O18A Br1
HTAB O19 Br2
HTAB O20 Br1
HTAB O21 Br4
HTAB C54 N10_$4
HTAB O22 Br3
HTAB O23 Br4
HTAB O24 Br3
HTAB N61 S4
HTAB N61 O15
EQIV $9 -y+1, x+1/2, -z+1
HTAB C64 O16_$9
HTAB C65 O11_$8
HTAB C65 Br4

REM Highest difference peak  0.864,  deepest hole -0.866,  1-sigma level  0.091
Q1    1   0.0987  0.5100 -0.0029  11.00000  0.05    0.86
Q2    1   0.1591  0.4145 -0.1436  11.00000  0.05    0.65
Q3    1   0.2606  0.4218  0.6295  11.00000  0.05    0.60
Q4    1   0.1617  0.5779  0.1224  11.00000  0.05    0.55
Q5    1   0.5562  0.3170  0.6262  11.00000  0.05    0.54
Q6    1   0.1376  0.6633  0.0216  11.00000  0.05    0.54
Q7    1   0.2908  0.4136  0.1112  11.00000  0.05    0.53
Q8    1   0.2611  0.3689 -0.0278  11.00000  0.05    0.51
Q9    1   0.1263  0.6725  0.0274  11.00000  0.05    0.50
Q10   1   0.0272  0.6050  0.0028  11.00000  0.05    0.49
Q11   1   0.2726  0.6320  0.6288  11.00000  0.05    0.46
Q12   1  -0.0286  0.3889  0.1223  11.00000  0.05    0.45
Q13   1   0.2500  0.2500  0.0317  10.25000  0.05    0.45
Q14   1   0.2977  0.4081  0.6122  11.00000  0.05    0.44
Q15   1   0.1518  0.4251 -0.0998  11.00000  0.05    0.44
Q16   1   0.3577  0.6414  0.1141  11.00000  0.05    0.41
Q17   1   0.0610  0.6318  0.0283  11.00000  0.05    0.41
Q18   1   0.2352  0.4124  0.6113  11.00000  0.05    0.40
Q19   1   0.2355  0.4074  0.7713  11.00000  0.05    0.38
Q20   1   0.1218  0.6079 -0.0213  11.00000  0.05    0.37
Q21   1   0.1552  0.5370  0.0287  11.00000  0.05    0.37
Q22   1   0.3113  0.6583  0.5799  11.00000  0.05    0.37
Q23   1   0.3190  0.6220  0.1318  11.00000  0.05    0.36
Q24   1   0.2494  0.4204  0.1091  11.00000  0.05    0.36
Q25   1   0.4209  0.5422  0.6179  11.00000  0.05    0.36
Q26   1   0.4226  0.5618  0.8295  11.00000  0.05    0.35
Q27   1   0.2345  0.4105  0.6525  11.00000  0.05    0.35
Q28   1   0.5227  0.4034  0.7638  11.00000  0.05    0.35
Q29   1   0.1234  0.5546  0.1237  11.00000  0.05    0.35
Q30   1   0.4528  0.5268  0.6104  11.00000  0.05    0.35
Q31   1   0.4512  0.4785  0.6124  11.00000  0.05    0.34
Q32   1   0.3262  0.5714  0.1192  11.00000  0.05    0.34
Q33   1   0.4351  0.5139  0.6446  11.00000  0.05    0.34
Q34   1   0.1811  0.5743  0.0020  11.00000  0.05    0.34
Q35   1   0.4105  0.3569  0.6118  11.00000  0.05    0.34
Q36   1   0.4047  0.4912  0.6248  11.00000  0.05    0.34
Q37   1   0.1337  0.6144  0.0095  11.00000  0.05    0.34
Q38   1   0.3099  0.4090  0.2685  11.00000  0.05    0.34
Q39   1   0.4715  0.3380  0.6197  11.00000  0.05    0.33
Q40   1   0.2289  0.3459  0.1379  11.00000  0.05    0.33
;
_shelx_res_checksum              45855
#END Tags that were not found in dictionaries
loop_
_space_group_symop_operation_xyz
'x, y, z'
'-x+1/2, -y+1/2, z'
'-y+1/2, x, z'
'y, -x+1/2, z'
'-x, -y, -z'
'x-1/2, y-1/2, -z'
'y-1/2, -x, -z'
'-y, x-1/2, -z'
loop_
_atom_site_label
_atom_site_type_symbol
_atom_site_fract_x
_atom_site_fract_y
_atom_site_fract_z
_atom_site_U_iso_or_equiv
_atom_site_adp_type
_atom_site_occupancy
_atom_site_site_symmetry_order
_atom_site_calc_flag
_atom_site_refinement_flags_posn
_atom_site_refinement_flags_adp
_atom_site_refinement_flags_occupancy
_atom_site_disorder_assembly
_atom_site_disorder_group
Mn1 Mn 0.20690(4) 0.45638(4) 0.11885(3) 0.0418(3) Uani 1 1 d . . . . .
Mn2 Mn 0.20149(4) 0.46458(5) -0.00102(4) 0.0555(4) Uani 1 1 d D . . . .
Mn3 Mn 0.20686(4) 0.45828(4) 0.23904(3) 0.0457(3) Uani 1 1 d . . . . .
Mn4 Mn 0.34244(4) 0.43782(4) 0.62402(3) 0.0414(3) Uani 1 1 d . . . . .
Mn5 Mn 0.34372(4) 0.43196(4) 0.50375(3) 0.0445(3) Uani 1 1 d . . . . .
Mn6 Mn 0.34668(4) 0.44864(4) 0.74363(4) 0.0491(4) Uani 1 1 d . . . . .
Br1 Br 0.26518(3) 0.37915(4) 0.11603(3) 0.0699(3) Uani 1 1 d . . . . .
Br2 Br 0.13652(3) 0.55329(3) 0.12680(3) 0.0582(3) Uani 1 1 d D . . . .
Br3 Br 0.26686(3) 0.37697(4) 0.63072(3) 0.0733(3) Uani 1 1 d . . . . .
Br4 Br 0.43239(3) 0.51558(3) 0.61980(2) 0.0477(2) Uani 1 1 d . . . . .
O1 O 0.23889(17) 0.48847(17) 0.17156(14) 0.0406(13) Uani 1 1 d . . . . .
C1 C 0.2855(3) 0.5063(3) 0.1669(2) 0.040(2) Uani 1 1 d . . . . .
H1A H 0.3081 0.4795 0.1676 0.048 Uiso 1 1 calc R U . . .
H1B H 0.2924 0.5270 0.1965 0.048 Uiso 1 1 calc R U . . .
O2 O 0.23854(18) 0.48802(17) 0.06526(14) 0.0445(14) Uani 1 1 d . . . . .
C2 C 0.2860(3) 0.5043(3) 0.0698(2) 0.046(2) Uani 1 1 d . . . . .
H2A H 0.2942 0.5237 0.0395 0.055 Uiso 1 1 calc R U . . .
H2B H 0.3077 0.4768 0.0708 0.055 Uiso 1 1 calc R U . . .
C3 C 0.2926(3) 0.5342(3) 0.1182(2) 0.045(2) Uani 1 1 d . . . . .
H3A H 0.3259 0.5465 0.1182 0.054 Uiso 1 1 calc R U . . .
N1 N 0.2610(2) 0.5745(2) 0.11558(18) 0.0522(18) Uani 1 1 d . . . . .
H1 H 0.2313 0.5702 0.1067 0.063 Uiso 1 1 calc R U . . .
S1 S 0.27953(10) 0.62760(9) 0.12868(8) 0.0671(7) Uani 1 1 d . . . . .
O3 O 0.2406(3) 0.6589(2) 0.1164(2) 0.093(2) Uani 1 1 d . . . . .
O4 O 0.3251(2) 0.6338(2) 0.1072(2) 0.0826(19) Uani 1 1 d . . . . .
C4 C 0.2880(3) 0.6301(3) 0.1944(3) 0.046(2) Uani 1 1 d . . . . .
C5 C 0.2498(3) 0.6360(3) 0.2266(4) 0.071(3) Uani 1 1 d . . . . .
H5A H 0.2185 0.6383 0.2134 0.086 Uiso 1 1 calc R U . . .
C6 C 0.2582(5) 0.6386(3) 0.2800(4) 0.083(3) Uani 1 1 d . . . . .
H6A H 0.2319 0.6435 0.3020 0.099 Uiso 1 1 calc R U . . .
C7 C 0.3009(5) 0.6344(4) 0.3005(4) 0.087(4) Uani 1 1 d . . . . .
C8 C 0.3382(4) 0.6276(3) 0.2690(4) 0.089(4) Uani 1 1 d . . . . .
H8A H 0.3690 0.6239 0.2831 0.106 Uiso 1 1 calc R U . . .
C9 C 0.3323(3) 0.6258(3) 0.2151(3) 0.068(3) Uani 1 1 d . . . . .
H9A H 0.3590 0.6216 0.1935 0.082 Uiso 1 1 calc R U . . .
C10 C 0.3077(5) 0.6376(4) 0.3576(3) 0.164(7) Uani 1 1 d . . . . .
H10A H 0.3414 0.6336 0.3658 0.247 Uiso 1 1 calc R U . . .
H10B H 0.2893 0.6125 0.3744 0.247 Uiso 1 1 calc R U . . .
H10C H 0.2969 0.6686 0.3697 0.247 Uiso 1 1 calc R U . . .
O5 O 0.16713(16) 0.43590(18) 0.06536(14) 0.0420(13) Uani 1 1 d . . . . .
C11 C 0.1368(3) 0.3958(3) 0.0697(2) 0.049(2) Uani 1 1 d . . . . .
H11A H 0.1561 0.3665 0.0686 0.059 Uiso 1 1 calc R U . . .
H11B H 0.1147 0.3952 0.0403 0.059 Uiso 1 1 calc R U . . .
O6 O 0.16902(16) 0.43286(16) 0.17251(14) 0.0374(12) Uani 1 1 d . . . . .
C12 C 0.1384(3) 0.3935(3) 0.1663(2) 0.046(2) Uani 1 1 d . . . . .
H12A H 0.1175 0.3910 0.1966 0.055 Uiso 1 1 calc R U . . .
H12B H 0.1577 0.3642 0.1645 0.055 Uiso 1 1 calc R U . . .
C13 C 0.1082(3) 0.3967(3) 0.1193(2) 0.046(2) Uani 1 1 d . . . . .
H13A H 0.0862 0.3689 0.1191 0.056 Uiso 1 1 calc R U . . .
N2 N 0.0793(2) 0.4400(2) 0.11882(19) 0.0499(18) Uani 1 1 d . . . . .
H2 H 0.0927 0.4666 0.1088 0.060 Uiso 1 1 calc R U . . .
S2 S 0.02442(8) 0.44106(9) 0.13564(7) 0.0552(6) Uani 1 1 d . . . . .
O7 O 0.00813(18) 0.4887(2) 0.12659(17) 0.0620(16) Uani 1 1 d . . . . .
O8 O 0.00011(19) 0.4031(2) 0.11185(18) 0.0655(17) Uani 1 1 d . . . . .
C14 C 0.0236(3) 0.4312(3) 0.2026(3) 0.046(2) Uani 1 1 d . . . . .
C15 C -0.0074(3) 0.3982(3) 0.2214(3) 0.061(2) Uani 1 1 d . . . . .
H15A H -0.0275 0.3804 0.1996 0.074 Uiso 1 1 calc R U . . .
C16 C -0.0078(3) 0.3920(3) 0.2754(4) 0.074(3) Uani 1 1 d . . . . .
H16A H -0.0280 0.3689 0.2903 0.089 Uiso 1 1 calc R U . . .
C17 C 0.0211(4) 0.4196(4) 0.3063(3) 0.077(3) Uani 1 1 d . . . . .
C18 C 0.0513(4) 0.4495(4) 0.2857(3) 0.094(4) Uani 1 1 d . . . . .
H18B H 0.0727 0.4665 0.3069 0.113 Uiso 1 1 calc R U . . .
C19 C 0.0524(3) 0.4568(3) 0.2327(3) 0.076(3) Uani 1 1 d . . . . .
H19A H 0.0732 0.4796 0.2183 0.091 Uiso 1 1 calc R U . . .
C20 C 0.0204(4) 0.4110(4) 0.3643(3) 0.120(5) Uani 1 1 d . . . . .
H20A H 0.0485 0.3927 0.3741 0.180 Uiso 1 1 calc R U . . .
H20B H -0.0082 0.3932 0.3734 0.180 Uiso 1 1 calc R U . . .
H20C H 0.0205 0.4415 0.3822 0.180 Uiso 1 1 calc R U . . .
O9 O 0.37537(16) 0.41083(17) 0.67907(13) 0.0382(13) Uani 1 1 d . . . . .
C21 C 0.3959(3) 0.3656(3) 0.6773(2) 0.044(2) Uani 1 1 d . . . . .
H21A H 0.3704 0.3416 0.6799 0.053 Uiso 1 1 calc R U . . .
H21B H 0.4169 0.3617 0.7073 0.053 Uiso 1 1 calc R U . . .
O10 O 0.37219(16) 0.40170(16) 0.57242(14) 0.0382(13) Uani 1 1 d . . . . .
C22 C 0.3924(3) 0.3567(3) 0.5816(2) 0.045(2) Uani 1 1 d . . . . .
H22A H 0.4112 0.3471 0.5514 0.054 Uiso 1 1 calc R U . . .
H22B H 0.3667 0.3332 0.5862 0.054 Uiso 1 1 calc R U . . .
C23 C 0.4246(3) 0.3560(3) 0.6290(2) 0.043(2) Uani 1 1 d . . . . .
H23A H 0.4392 0.3237 0.6320 0.052 Uiso 1 1 calc R U . . .
N3 N 0.4625(2) 0.3906(2) 0.62176(18) 0.0459(17) Uani 1 1 d . . . . .
H3 H 0.4555 0.4188 0.6096 0.055 Uiso 1 1 calc R U . . .
S3 S 0.51644(7) 0.37879(8) 0.63532(7) 0.0465(6) Uani 1 1 d . . . . .
O11 O 0.54338(17) 0.41915(19) 0.61981(16) 0.0554(15) Uani 1 1 d . . . . .
O12 O 0.52827(18) 0.33398(18) 0.61390(17) 0.0546(15) Uani 1 1 d . . . . .
C24 C 0.5211(3) 0.3734(3) 0.7021(2) 0.041(2) Uani 1 1 d . . . . .
C25 C 0.5059(3) 0.4113(3) 0.7316(3) 0.054(2) Uani 1 1 d . . . . .
H25A H 0.4922 0.4388 0.7167 0.065 Uiso 1 1 calc R U . . .
C26 C 0.5117(3) 0.4069(3) 0.7864(3) 0.063(3) Uani 1 1 d . . . . .
H26A H 0.5009 0.4317 0.8080 0.076 Uiso 1 1 calc R U . . .
C27 C 0.5325(3) 0.3678(4) 0.8076(3) 0.062(3) Uani 1 1 d . . . . .
C28 C 0.5459(3) 0.3319(3) 0.7765(3) 0.067(3) Uani 1 1 d . . . . .
H28A H 0.5597 0.3043 0.7911 0.081 Uiso 1 1 calc R U . . .
C29 C 0.5400(3) 0.3342(3) 0.7234(3) 0.052(2) Uani 1 1 d . . . . .
H29A H 0.5492 0.3083 0.7025 0.062 Uiso 1 1 calc R U . . .
C30 C 0.5399(4) 0.3662(4) 0.8633(3) 0.102(4) Uani 1 1 d . . . . .
H30A H 0.5278 0.3954 0.8788 0.153 Uiso 1 1 calc R U . . .
H30B H 0.5739 0.3632 0.8705 0.153 Uiso 1 1 calc R U . . .
H30C H 0.5230 0.3388 0.8776 0.153 Uiso 1 1 calc R U . . .
O13 O 0.31920(16) 0.47921(17) 0.67415(13) 0.0383(13) Uani 1 1 d . . . . .
C31 C 0.2778(3) 0.5065(2) 0.6677(2) 0.0364(19) Uani 1 1 d . . . . .
H31A H 0.2746 0.5287 0.6968 0.044 Uiso 1 1 calc R U . . .
H31B H 0.2499 0.4852 0.6679 0.044 Uiso 1 1 calc R U . . .
O14 O 0.31908(16) 0.47333(16) 0.56802(13) 0.0377(13) Uani 1 1 d . . . . .
C32 C 0.2790(3) 0.5018(3) 0.5716(2) 0.042(2) Uani 1 1 d . . . . .
H32A H 0.2506 0.4812 0.5729 0.051 Uiso 1 1 calc R U . . .
H32B H 0.2767 0.5214 0.5403 0.051 Uiso 1 1 calc R U . . .
C33 C 0.2785(3) 0.5346(3) 0.6180(2) 0.043(2) Uani 1 1 d . . . . .
H33A H 0.2492 0.5545 0.6165 0.051 Uiso 1 1 calc R U . . .
N4 N 0.3194(2) 0.5657(2) 0.61609(19) 0.0477(17) Uani 1 1 d . . . . .
H4 H 0.3477 0.5536 0.6103 0.057 Uiso 1 1 calc R U . . .
S4 S 0.31417(9) 0.62213(8) 0.62433(7) 0.0556(6) Uani 1 1 d . . . . .
O15 O 0.3613(2) 0.64132(18) 0.61699(17) 0.0671(17) Uani 1 1 d . . . . .
O16 O 0.2767(2) 0.63990(19) 0.59382(19) 0.0756(18) Uani 1 1 d . . . . .
C34 C 0.2981(3) 0.6330(3) 0.6883(3) 0.049(2) Uani 1 1 d . . . . .
C35 C 0.2631(3) 0.6648(3) 0.6990(3) 0.062(2) Uani 1 1 d . . . . .
H35A H 0.2462 0.6799 0.6723 0.074 Uiso 1 1 calc R U . . .
C36 C 0.2525(3) 0.6745(4) 0.7494(4) 0.077(3) Uani 1 1 d . . . . .
H36A H 0.2283 0.6969 0.7570 0.093 Uiso 1 1 calc R U . . .
C37 C 0.2762(4) 0.6527(3) 0.7888(3) 0.063(3) Uani 1 1 d . . . . .
C38 C 0.3115(3) 0.6217(3) 0.7775(3) 0.058(2) Uani 1 1 d . . . . .
H38A H 0.3284 0.6067 0.8044 0.070 Uiso 1 1 calc R U . . .
C39 C 0.3235(3) 0.6113(3) 0.7266(3) 0.057(2) Uani 1 1 d . . . . .
H39A H 0.3485 0.5900 0.7188 0.068 Uiso 1 1 calc R U . . .
C40 C 0.2630(3) 0.6641(4) 0.8442(3) 0.098(4) Uani 1 1 d . . . . .
H40A H 0.2381 0.6423 0.8557 0.147 Uiso 1 1 calc R U . . .
H40B H 0.2514 0.6968 0.8464 0.147 Uiso 1 1 calc R U . . .
H40C H 0.2910 0.6604 0.8660 0.147 Uiso 1 1 calc R U . . .
N5 N 0.2522(2) 0.4952(2) 0.2943(2) 0.063(2) Uani 1 1 d . . . . .
C41 C 0.2631(3) 0.5057(3) 0.3345(3) 0.055(2) Uani 1 1 d . . . . .
N6 N 0.2735(3) 0.5219(3) 0.3790(2) 0.087(3) Uani 1 1 d . . . . .
C42 C 0.2916(3) 0.4951(3) 0.4143(3) 0.056(2) Uani 1 1 d . . . . .
N7 N 0.3066(2) 0.4754(2) 0.4487(2) 0.061(2) Uani 1 1 d . . . . .
N8 N 0.1712(2) 0.4191(3) 0.2984(2) 0.068(2) Uani 1 1 d . . . . .
C43 C 0.1667(3) 0.3972(3) 0.3336(3) 0.063(3) Uani 1 1 d . . . . .
N9 N 0.1658(3) 0.3668(3) 0.3719(3) 0.100(3) Uani 1 1 d . . . . .
C44 C 0.1389(3) 0.3717(3) 0.4115(3) 0.058(2) Uani 1 1 d . . . . .
N10 N 0.1176(2) 0.3722(2) 0.4488(2) 0.057(2) Uani 1 1 d . . . . .
N11 N 0.2445(3) 0.5022(3) -0.0557(2) 0.075(2) Uani 1 1 d . . . . .
C45 C 0.2587(3) 0.5168(3) -0.0928(3) 0.059(3) Uani 1 1 d . . . . .
N12 N 0.2751(3) 0.5378(3) -0.1333(2) 0.086(3) Uani 1 1 d . . . . .
C46 C 0.2928(3) 0.5134(3) -0.1700(3) 0.058(3) Uani 1 1 d . . . . .
N13 N 0.3086(3) 0.4961(3) -0.2056(2) 0.074(2) Uani 1 1 d . . . . .
N14A N 0.1610(3) 0.4255(3) -0.0547(4) 0.057(3) Uiso 0.71 1 d D . P A 1
C47A C 0.1550(6) 0.4051(6) -0.0902(6) 0.104(5) Uiso 0.71 1 d D . P A 1
N15A N 0.1538(6) 0.3734(5) -0.1311(6) 0.146(5) Uiso 0.71 1 d D . P A 1
C48A C 0.1213(6) 0.3822(6) -0.1665(6) 0.100(5) Uiso 0.71 1 d D . P A 1
N16A N 0.0956(4) 0.3773(4) -0.1976(4) 0.063(3) Uiso 0.71 1 d D . P A 1
N14B N 0.1465(7) 0.4438(9) -0.0538(8) 0.057(3) Uiso 0.29 1 d D . P A 2
C47B C 0.1210(12) 0.4241(13) -0.0781(12) 0.100(12) Uiso 0.29 1 d D . P A 2
N15B N 0.0816(11) 0.4087(14) -0.1064(10) 0.160(14) Uiso 0.29 1 d D . P A 2
C48B C 0.0871(14) 0.4025(14) -0.1564(10) 0.109(13) Uiso 0.29 1 d D . P A 2
N16B N 0.0796(9) 0.3924(9) -0.1960(8) 0.063(3) Uiso 0.29 1 d D . P A 2
O17 O 0.1559(3) 0.5291(3) 0.0061(2) 0.106(3) Uani 1 1 d D . . . .
H171 H 0.140(3) 0.531(3) 0.0365(15) 0.159 Uiso 1 1 d D U . . .
H172 H 0.172(3) 0.5572(18) -0.004(4) 0.159 Uiso 1 1 d D U . . .
O18A O 0.2517(6) 0.4040(6) -0.0007(5) 0.092(7) Uani 0.7 1 d D . P A 1
H18A H 0.2466 0.3833 0.0274 0.111 Uiso 0.7 1 calc R U P A 1
C51A C 0.2858(6) 0.3902(6) -0.0293(6) 0.137(7) Uiso 0.7 1 d D . P A 1
H51A H 0.2995 0.3611 -0.0153 0.205 Uiso 0.7 1 calc R U P A 1
H51B H 0.3102 0.4149 -0.0307 0.205 Uiso 0.7 1 calc R U P A 1
H51C H 0.2738 0.3840 -0.0637 0.205 Uiso 0.7 1 calc R U P A 1
O18B O 0.2501(16) 0.4014(13) -0.0131(15) 0.10(2) Uiso 0.3 1 d D . P A 2
O19 O 0.15619(19) 0.51759(18) 0.24196(16) 0.0512(15) Uani 1 1 d D . . . .
H19 H 0.157(2) 0.533(2) 0.2115(17) 0.061 Uiso 1 1 d D U . . .
C52 C 0.1478(3) 0.5499(3) 0.2823(3) 0.079(3) Uani 1 1 d D . . . .
H52A H 0.1232 0.5725 0.2721 0.118 Uiso 1 1 calc R U . . .
H52B H 0.1772 0.5671 0.2901 0.118 Uiso 1 1 calc R U . . .
H52C H 0.1374 0.5325 0.3126 0.118 Uiso 1 1 calc R U . . .
O20 O 0.2582(2) 0.3992(2) 0.23609(19) 0.083(2) Uani 1 1 d D . . . .
H20 H 0.260(3) 0.397(3) 0.2016(15) 0.100 Uiso 1 1 d D U . . .
C53A C 0.2968(5) 0.3896(6) 0.2696(5) 0.083(6) Uiso 0.65 1 d D . P B 1
H53A H 0.3128 0.3604 0.2587 0.125 Uiso 0.65 1 calc R U P B 1
H53B H 0.2849 0.3856 0.3045 0.125 Uiso 0.65 1 calc R U P B 1
H53C H 0.3194 0.4160 0.2686 0.125 Uiso 0.65 1 calc R U P B 1
C53B C 0.2813(11) 0.3727(10) 0.2738(9) 0.083(11) Uiso 0.35 1 d D . P B 2
H53D H 0.3003 0.3478 0.2576 0.125 Uiso 0.35 1 calc R U P B 2
H53E H 0.2578 0.3582 0.2964 0.125 Uiso 0.35 1 calc R U P B 2
H53F H 0.3021 0.3935 0.2937 0.125 Uiso 0.35 1 calc R U P B 2
O21 O 0.4090(2) 0.4754(2) 0.50481(17) 0.0525(15) Uani 1 1 d D . . . .
H21 H 0.410(3) 0.496(2) 0.530(2) 0.063 Uiso 1 1 d D U . . .
C54 C 0.4527(4) 0.4550(4) 0.4939(3) 0.109(4) Uani 1 1 d D . . . .
H54A H 0.4714 0.4769 0.4729 0.163 Uiso 1 1 calc R U . . .
H54B H 0.4479 0.4253 0.4752 0.163 Uiso 1 1 calc R U . . .
H54C H 0.4696 0.4485 0.5258 0.163 Uiso 1 1 calc R U . . .
O22 O 0.2814(2) 0.3847(3) 0.5104(2) 0.091(2) Uani 1 1 d D . . . .
H22 H 0.274(3) 0.373(3) 0.541(2) 0.109 Uiso 1 1 d D U . . .
C55 C 0.2506(3) 0.3658(4) 0.4760(4) 0.103(4) Uani 1 1 d D . . . .
H55A H 0.2274 0.3459 0.4939 0.155 Uiso 1 1 calc R U . . .
H55B H 0.2682 0.3464 0.4514 0.155 Uiso 1 1 calc R U . . .
H55C H 0.2341 0.3914 0.4580 0.155 Uiso 1 1 calc R U . . .
O23 O 0.4043(2) 0.5001(2) 0.73894(18) 0.0741(19) Uani 1 1 d D U . . .
H23 H 0.412(3) 0.511(3) 0.7074(18) 0.089 Uiso 1 1 d D U . . .
C56A C 0.4283(4) 0.5233(4) 0.7772(4) 0.098(4) Uani 0.8 1 d D U P C 1
H56A H 0.4525 0.5440 0.7622 0.146 Uiso 0.8 1 calc R U P C 1
H56B H 0.4436 0.5000 0.7995 0.146 Uiso 0.8 1 calc R U P C 1
H56C H 0.4059 0.5424 0.7971 0.146 Uiso 0.8 1 calc R U P C 1
O56B O 0.4166(8) 0.5317(8) 0.8345(9) 0.050(7) Uiso 0.2 1 d . . P D 2
O24 O 0.2846(3) 0.3976(3) 0.7475(2) 0.098(2) Uani 1 1 d D . . . .
H24 H 0.282(3) 0.399(3) 0.7115(15) 0.118 Uiso 1 1 d D U . . .
C57 C 0.2440(4) 0.4020(5) 0.7800(5) 0.179(7) Uani 1 1 d D . . . .
H57A H 0.2229 0.3748 0.7748 0.269 Uiso 1 1 calc R U . . .
H57B H 0.2269 0.4313 0.7717 0.269 Uiso 1 1 calc R U . . .
H57C H 0.2543 0.4030 0.8157 0.269 Uiso 1 1 calc R U . . .
N61 N 0.4155(2) 0.6474(2) 0.5279(2) 0.0534(18) Uani 1 1 d . . . . .
H61 H 0.3892 0.6432 0.5531 0.064 Uiso 1 1 calc R U . . .
C61 C 0.4612(4) 0.6550(4) 0.5605(4) 0.090(3) Uani 1 1 d . . . . .
H61A H 0.4553 0.6801 0.5862 0.108 Uiso 1 1 calc R U . . .
H61B H 0.4689 0.6253 0.5790 0.108 Uiso 1 1 calc R U . . .
C62 C 0.5010(4) 0.6684(4) 0.5289(5) 0.145(5) Uani 1 1 d . . . . .
H62A H 0.5291 0.6730 0.5504 0.217 Uiso 1 1 calc R U . . .
H62B H 0.4936 0.6981 0.5111 0.217 Uiso 1 1 calc R U . . .
H62C H 0.5072 0.6434 0.5039 0.217 Uiso 1 1 calc R U . . .
C63 C 0.4015(3) 0.6887(3) 0.4961(3) 0.070(3) Uani 1 1 d . . . . .
H63A H 0.4274 0.6958 0.4718 0.084 Uiso 1 1 calc R U . . .
H63B H 0.3731 0.6800 0.4759 0.084 Uiso 1 1 calc R U . . .
C64 C 0.3908(4) 0.7320(3) 0.5258(3) 0.092(3) Uani 1 1 d . . . . .
H64A H 0.3822 0.7577 0.5024 0.138 Uiso 1 1 calc R U . . .
H64B H 0.4188 0.7412 0.5456 0.138 Uiso 1 1 calc R U . . .
H64C H 0.3642 0.7257 0.5490 0.138 Uiso 1 1 calc R U . . .
C65 C 0.4174(3) 0.6023(3) 0.4989(3) 0.067(3) Uani 1 1 d . . . . .
H65A H 0.4383 0.6067 0.4689 0.081 Uiso 1 1 calc R U . . .
H65B H 0.4318 0.5776 0.5208 0.081 Uiso 1 1 calc R U . . .
C66 C 0.3708(3) 0.5853(3) 0.4810(3) 0.077(3) Uani 1 1 d . . . . .
H66A H 0.3749 0.5556 0.4620 0.116 Uiso 1 1 calc R U . . .
H66B H 0.3564 0.6092 0.4588 0.116 Uiso 1 1 calc R U . . .
H66C H 0.3501 0.5796 0.5105 0.116 Uiso 1 1 calc R U . . .
N71A N 0.0413(4) 0.5767(4) 0.0411(5) 0.075(4) Uiso 0.5 1 d D . P E -1
H71A H 0.0678 0.5625 0.0612 0.090 Uiso 0.5 1 calc R U P E -1
C71A C 0.0110(6) 0.6027(6) 0.0788(6) 0.080(6) Uiso 0.5 1 d D . P E -1
H71B H 0.0001 0.5800 0.1052 0.096 Uiso 0.5 1 calc R U P E -1
H71C H 0.0306 0.6271 0.0960 0.096 Uiso 0.5 1 calc R U P E -1
C72A C -0.0304(6) 0.6258(7) 0.0562(7) 0.103(7) Uiso 0.5 1 d D . P E -1
H72A H -0.0483 0.6422 0.0829 0.154 Uiso 0.5 1 calc R U P E -1
H72B H -0.0506 0.6018 0.0401 0.154 Uiso 0.5 1 calc R U P E -1
H72C H -0.0200 0.6488 0.0305 0.154 Uiso 0.5 1 calc R U P E -1
C73A C 0.0144(5) 0.5348(6) 0.0170(6) 0.079(6) Uiso 0.5 1 d D . P E -1
H73A H -0.0057 0.5192 0.0430 0.095 Uiso 0.5 1 calc R U P E -1
H73B H -0.0063 0.5463 -0.0109 0.095 Uiso 0.5 1 calc R U P E -1
C74A C 0.0496(6) 0.5001(6) -0.0036(7) 0.098(7) Uiso 0.5 1 d D . P E -1
H74A H 0.0328 0.4734 -0.0193 0.147 Uiso 0.5 1 calc R U P E -1
H74B H 0.0696 0.4884 0.0242 0.147 Uiso 0.5 1 calc R U P E -1
H74C H 0.0695 0.5157 -0.0293 0.147 Uiso 0.5 1 calc R U P E -1
C75A C 0.0639(5) 0.6088(5) 0.0033(5) 0.056(4) Uiso 0.5 1 d D . P E -1
H75A H 0.0842 0.5894 -0.0194 0.067 Uiso 0.5 1 calc R U P E -1
H75B H 0.0387 0.6229 -0.0181 0.067 Uiso 0.5 1 calc R U P E -1
C76A C 0.0930(6) 0.6475(5) 0.0243(6) 0.068(5) Uiso 0.5 1 d D . P E -1
H76A H 0.1059 0.6666 -0.0037 0.103 Uiso 0.5 1 calc R U P E -1
H76B H 0.1191 0.6341 0.0444 0.103 Uiso 0.5 1 calc R U P E -1
H76C H 0.0733 0.6676 0.0463 0.103 Uiso 0.5 1 calc R U P E -1
loop_
_atom_site_aniso_label
_atom_site_aniso_U_11
_atom_site_aniso_U_22
_atom_site_aniso_U_33
_atom_site_aniso_U_23
_atom_site_aniso_U_13
_atom_site_aniso_U_12
Mn1 0.0463(8) 0.0609(8) 0.0181(5) -0.0006(5) 0.0005(5) -0.0108(6)
Mn2 0.0623(9) 0.0868(10) 0.0174(6) -0.0057(6) 0.0019(6) -0.0111(8)
Mn3 0.0547(8) 0.0654(9) 0.0170(5) 0.0059(5) -0.0002(5) -0.0040(7)
Mn4 0.0515(8) 0.0545(8) 0.0182(5) 0.0013(5) -0.0019(5) 0.0134(6)
Mn5 0.0559(8) 0.0597(9) 0.0180(5) -0.0039(5) -0.0012(5) 0.0085(7)
Mn6 0.0585(9) 0.0713(9) 0.0175(5) 0.0074(5) 0.0011(5) 0.0063(7)
Br1 0.0695(7) 0.0806(7) 0.0594(5) -0.0058(5) 0.0009(5) 0.0155(6)
Br2 0.0685(6) 0.0709(6) 0.0353(4) 0.0004(4) 0.0016(4) 0.0050(5)
Br3 0.0645(7) 0.0966(8) 0.0589(6) 0.0040(5) -0.0017(5) -0.0099(6)
Br4 0.0526(5) 0.0596(6) 0.0309(4) 0.0004(4) 0.0017(4) 0.0000(4)
O1 0.048(4) 0.059(4) 0.015(2) -0.003(2) 0.001(2) -0.012(3)
C1 0.039(5) 0.055(5) 0.026(4) 0.003(4) -0.005(3) -0.011(4)
O2 0.050(4) 0.065(4) 0.018(2) -0.001(2) 0.002(2) -0.012(3)
C2 0.058(6) 0.058(6) 0.021(4) 0.000(4) 0.005(4) -0.013(5)
C3 0.046(5) 0.058(6) 0.030(4) 0.009(4) -0.003(4) -0.003(5)
N1 0.070(5) 0.051(5) 0.036(3) -0.005(3) -0.019(3) -0.002(4)
S1 0.092(2) 0.0578(17) 0.0509(13) 0.0000(12) -0.0037(14) -0.0061(16)
O3 0.129(6) 0.070(5) 0.081(4) 0.010(3) -0.034(4) 0.020(4)
O4 0.091(5) 0.082(5) 0.075(4) -0.009(3) 0.024(4) -0.028(4)
C4 0.048(6) 0.044(6) 0.047(5) 0.006(4) 0.001(5) -0.002(5)
C5 0.064(7) 0.056(7) 0.094(7) 0.003(6) -0.011(6) -0.007(5)
C6 0.112(10) 0.062(7) 0.075(7) -0.022(6) 0.039(7) -0.023(7)
C7 0.112(11) 0.088(8) 0.061(7) 0.016(6) -0.007(7) -0.047(9)
C8 0.085(9) 0.078(8) 0.103(9) 0.037(7) -0.051(7) -0.046(7)
C9 0.066(7) 0.066(7) 0.074(6) 0.004(5) 0.014(6) -0.006(6)
C10 0.35(2) 0.103(10) 0.042(6) 0.011(6) -0.020(9) -0.081(12)
O5 0.039(3) 0.065(4) 0.022(2) -0.009(2) -0.001(2) -0.014(3)
C11 0.046(6) 0.072(6) 0.030(4) -0.012(4) 0.000(4) -0.005(5)
O6 0.045(3) 0.045(3) 0.022(2) 0.002(2) 0.004(2) -0.007(3)
C12 0.052(6) 0.053(6) 0.031(4) 0.002(4) 0.001(4) -0.009(5)
C13 0.043(5) 0.051(6) 0.045(4) -0.004(4) -0.004(4) -0.016(5)
N2 0.052(5) 0.057(5) 0.041(4) 0.008(3) 0.005(3) -0.017(4)
S2 0.0539(16) 0.0695(18) 0.0421(11) -0.0002(11) 0.0016(11) -0.0012(14)
O7 0.058(4) 0.067(4) 0.061(3) 0.017(3) 0.002(3) 0.009(3)
O8 0.068(4) 0.075(4) 0.054(3) -0.011(3) 0.001(3) -0.028(4)
C14 0.049(6) 0.049(6) 0.042(4) 0.005(4) 0.010(4) -0.001(5)
C15 0.063(7) 0.063(7) 0.058(5) 0.003(5) 0.003(5) -0.003(5)
C16 0.078(8) 0.059(7) 0.084(7) 0.037(6) 0.034(6) 0.009(6)
C17 0.061(8) 0.128(10) 0.042(5) 0.009(6) 0.001(5) 0.044(7)
C18 0.070(8) 0.168(12) 0.045(6) -0.017(6) 0.020(5) -0.027(8)
C19 0.067(7) 0.110(8) 0.050(5) -0.020(5) 0.014(5) -0.041(6)
C20 0.101(9) 0.206(13) 0.052(6) 0.036(7) 0.001(6) 0.057(9)
O9 0.049(3) 0.049(3) 0.017(2) 0.006(2) -0.002(2) 0.015(3)
C21 0.045(5) 0.056(6) 0.032(4) 0.010(4) -0.002(4) 0.004(5)
O10 0.051(3) 0.039(3) 0.025(2) -0.001(2) -0.002(2) 0.008(3)
C22 0.049(5) 0.047(6) 0.038(4) 0.000(4) -0.007(4) 0.004(5)
C23 0.050(5) 0.045(5) 0.036(4) 0.011(4) -0.005(4) -0.006(4)
N3 0.059(5) 0.044(4) 0.034(3) 0.008(3) -0.005(3) -0.001(4)
S3 0.0436(14) 0.0597(16) 0.0363(10) -0.0067(10) 0.0040(10) -0.0028(12)
O11 0.050(4) 0.062(4) 0.054(3) 0.000(3) 0.010(3) -0.011(3)
O12 0.063(4) 0.057(4) 0.044(3) -0.016(3) 0.010(3) 0.014(3)
C24 0.048(5) 0.043(5) 0.032(4) -0.010(4) -0.007(4) 0.006(4)
C25 0.060(6) 0.062(6) 0.042(4) -0.004(4) -0.001(4) 0.004(5)
C26 0.068(7) 0.077(7) 0.044(5) -0.025(5) 0.010(5) -0.016(6)
C27 0.079(7) 0.070(7) 0.038(5) 0.012(5) -0.007(5) -0.026(6)
C28 0.080(7) 0.048(6) 0.074(6) 0.013(5) -0.024(5) -0.002(6)
C29 0.054(6) 0.048(6) 0.053(5) -0.007(4) -0.019(4) -0.002(5)
C30 0.134(10) 0.127(9) 0.047(5) 0.017(6) -0.020(6) -0.040(8)
O13 0.044(3) 0.058(4) 0.014(2) 0.003(2) 0.000(2) 0.015(3)
C31 0.046(5) 0.044(5) 0.019(3) 0.000(3) 0.003(3) -0.004(4)
O14 0.044(3) 0.055(3) 0.014(2) 0.003(2) -0.005(2) 0.019(3)
C32 0.055(6) 0.050(5) 0.023(4) 0.003(4) -0.009(4) 0.015(5)
C33 0.041(5) 0.050(5) 0.037(4) -0.005(4) -0.005(4) 0.009(4)
N4 0.050(4) 0.052(5) 0.041(4) -0.005(3) 0.008(3) 0.010(4)
S4 0.0810(18) 0.0503(15) 0.0355(11) 0.0022(10) 0.0069(12) 0.0088(14)
O15 0.094(5) 0.056(4) 0.052(3) 0.005(3) 0.032(3) -0.017(4)
O16 0.111(5) 0.064(4) 0.052(3) 0.000(3) -0.014(3) 0.027(4)
C34 0.052(6) 0.057(6) 0.037(4) 0.001(4) 0.002(4) 0.003(5)
C35 0.046(6) 0.079(7) 0.061(6) -0.006(5) 0.006(5) 0.017(5)
C36 0.052(7) 0.093(8) 0.086(7) -0.028(6) 0.018(6) 0.021(6)
C37 0.071(7) 0.071(7) 0.049(5) -0.025(5) 0.018(5) -0.018(6)
C38 0.074(7) 0.067(7) 0.034(4) 0.001(4) -0.001(4) 0.000(6)
C39 0.055(6) 0.057(6) 0.058(5) -0.009(5) 0.006(5) 0.002(5)
C40 0.119(9) 0.121(9) 0.054(6) -0.036(6) 0.034(6) -0.023(7)
N5 0.069(5) 0.088(6) 0.033(4) 0.009(4) -0.019(4) -0.013(4)
C41 0.062(6) 0.063(6) 0.039(5) 0.010(4) -0.012(4) 0.000(5)
N6 0.155(8) 0.067(5) 0.039(4) -0.009(4) -0.047(5) 0.019(5)
C42 0.078(7) 0.062(6) 0.028(4) -0.017(4) -0.009(4) -0.003(5)
N7 0.072(5) 0.083(6) 0.027(3) 0.004(4) -0.011(3) 0.016(4)
N8 0.076(6) 0.090(6) 0.038(4) 0.022(4) 0.021(4) 0.003(5)
C43 0.066(7) 0.089(8) 0.034(5) -0.005(5) 0.007(5) 0.005(6)
N9 0.129(8) 0.115(7) 0.055(5) 0.039(5) 0.052(5) 0.036(6)
C44 0.064(7) 0.071(7) 0.041(5) 0.015(5) 0.003(5) -0.001(5)
N10 0.060(5) 0.084(6) 0.028(3) 0.010(4) 0.008(3) -0.003(4)
N11 0.082(6) 0.121(7) 0.023(3) 0.001(4) 0.014(4) -0.025(5)
C45 0.066(7) 0.080(7) 0.033(5) -0.019(5) 0.006(5) -0.012(5)
N12 0.140(8) 0.076(6) 0.042(4) -0.006(4) 0.050(5) 0.000(5)
C46 0.078(7) 0.067(7) 0.028(4) 0.004(4) 0.010(4) 0.000(5)
N13 0.089(6) 0.093(6) 0.039(4) 0.009(4) 0.018(4) 0.017(5)
O17 0.145(7) 0.140(6) 0.033(3) 0.008(4) 0.014(4) 0.068(6)
O18A 0.109(11) 0.145(13) 0.023(5) -0.007(6) 0.016(6) 0.022(7)
O19 0.067(4) 0.060(4) 0.028(3) -0.003(3) 0.000(3) 0.004(3)
C52 0.088(8) 0.079(7) 0.069(6) -0.027(5) -0.009(5) 0.001(6)
O20 0.089(5) 0.124(6) 0.037(3) 0.014(4) -0.002(3) 0.034(4)
O21 0.058(4) 0.061(4) 0.038(3) -0.006(3) 0.011(3) 0.010(3)
C54 0.125(11) 0.123(10) 0.079(7) -0.023(7) 0.012(7) -0.014(9)
O22 0.089(5) 0.143(6) 0.040(3) -0.005(4) -0.002(4) -0.057(5)
C55 0.088(8) 0.132(10) 0.090(7) -0.026(7) -0.027(6) -0.013(7)
O23 0.080(5) 0.112(5) 0.031(3) -0.005(3) 0.000(3) -0.028(4)
C56A 0.106(10) 0.113(10) 0.074(7) -0.012(7) -0.021(7) -0.014(8)
O24 0.114(6) 0.144(6) 0.036(3) 0.017(4) 0.019(4) -0.018(5)
C57 0.148(13) 0.245(18) 0.146(12) -0.017(12) 0.020(11) -0.100(13)
N61 0.060(5) 0.060(5) 0.040(4) 0.008(4) -0.001(3) -0.011(4)
C61 0.088(9) 0.085(8) 0.097(8) -0.018(6) 0.020(7) -0.012(7)
C62 0.117(11) 0.152(13) 0.165(13) 0.001(10) 0.009(10) 0.002(10)
C63 0.088(7) 0.069(7) 0.052(5) 0.010(5) 0.012(5) 0.016(6)
C64 0.137(10) 0.072(8) 0.066(6) 0.013(6) 0.020(6) 0.009(7)
C65 0.094(8) 0.062(7) 0.045(5) -0.005(5) 0.012(5) 0.015(6)
C66 0.101(8) 0.074(7) 0.056(5) 0.011(5) 0.001(6) -0.007(7)
loop_
_atom_type_symbol
_atom_type_description
_atom_type_scat_dispersion_real
_atom_type_scat_dispersion_imag
_atom_type_scat_source
C C 0.0033 0.0016 'International Tables Vol C Tables 4.2.6.8 and 6.1.1.4'
H H 0.0000 0.0000 'International Tables Vol C Tables 4.2.6.8 and 6.1.1.4'
N N 0.0061 0.0033 'International Tables Vol C Tables 4.2.6.8 and 6.1.1.4'
O O 0.0106 0.0060 'International Tables Vol C Tables 4.2.6.8 and 6.1.1.4'
S S 0.1246 0.1234 'International Tables Vol C Tables 4.2.6.8 and 6.1.1.4'
Mn Mn 0.3368 0.7283 'International Tables Vol C Tables 4.2.6.8 and 6.1.1.4'
Br Br -0.2901 2.4595 'International Tables Vol C Tables 4.2.6.8 and 6.1.1.4'
loop_
_geom_angle_atom_site_label_1
_geom_angle_atom_site_label_2
_geom_angle_atom_site_label_3
_geom_angle
_geom_angle_site_symmetry_1
_geom_angle_site_symmetry_3
O1 Mn1 O5 168.0(2) . .
O1 Mn1 O6 83.87(19) . .
O5 Mn1 O6 96.3(2) . .
O1 Mn1 O2 95.29(19) . .
O5 Mn1 O2 82.7(2) . .
O6 Mn1 O2 171.2(2) . .
O1 Mn1 Br1 96.60(15) . .
O5 Mn1 Br1 95.38(15) . .
O6 Mn1 Br1 94.62(14) . .
O2 Mn1 Br1 94.15(15) . .
O1 Mn1 Br2 81.23(15) . .
O5 Mn1 Br2 86.81(15) . .
O6 Mn1 Br2 84.60(14) . .
O2 Mn1 Br2 86.64(15) . .
Br1 Mn1 Br2 177.75(4) . .
N14A Mn2 O2 164.9(3) . .
N14A Mn2 O5 95.7(3) . .
O2 Mn2 O5 71.22(17) . .
N14A Mn2 N11 96.7(3) . .
O2 Mn2 N11 96.5(2) . .
O5 Mn2 N11 167.6(2) . .
O2 Mn2 N14B 163.4(7) . .
O5 Mn2 N14B 95.4(7) . .
N11 Mn2 N14B 96.4(7) . .
N14A Mn2 O18A 86.9(6) . .
O2 Mn2 O18A 85.6(5) . .
O5 Mn2 O18A 89.7(4) . .
N11 Mn2 O18A 91.3(5) . .
N14A Mn2 O17 99.7(3) . .
O2 Mn2 O17 87.8(2) . .
O5 Mn2 O17 88.8(2) . .
N11 Mn2 O17 88.8(3) . .
N14B Mn2 O17 82.0(7) . .
O18A Mn2 O17 173.4(5) . .
O2 Mn2 O18B 93.5(12) . .
O5 Mn2 O18B 95.2(11) . .
N11 Mn2 O18B 87.3(12) . .
N14B Mn2 O18B 97.6(14) . .
O17 Mn2 O18B 176.0(11) . .
N8 Mn3 O1 170.8(2) . .
N8 Mn3 O6 100.4(2) . .
O1 Mn3 O6 71.19(17) . .
N8 Mn3 N5 92.2(2) . .
O1 Mn3 N5 96.3(2) . .
O6 Mn3 N5 167.2(2) . .
N8 Mn3 O19 93.5(2) . .
O1 Mn3 O19 90.03(18) . .
O6 Mn3 O19 87.69(17) . .
N5 Mn3 O19 89.7(2) . .
N8 Mn3 O20 86.8(2) . .
O1 Mn3 O20 89.7(2) . .
O6 Mn3 O20 92.6(2) . .
N5 Mn3 O20 89.9(3) . .
O19 Mn3 O20 179.5(2) . .
O13 Mn4 O9 83.49(19) . .
O13 Mn4 O10 172.7(2) . .
O9 Mn4 O10 96.43(19) . .
O13 Mn4 O14 95.29(19) . .
O9 Mn4 O14 169.0(2) . .
O10 Mn4 O14 83.39(19) . .
O13 Mn4 Br3 94.18(15) . .
O9 Mn4 Br3 94.68(15) . .
O10 Mn4 Br3 93.08(15) . .
O14 Mn4 Br3 96.33(15) . .
O13 Mn4 Br4 83.14(15) . .
O9 Mn4 Br4 85.19(15) . .
O10 Mn4 Br4 89.60(14) . .
O14 Mn4 Br4 83.79(15) . .
Br3 Mn4 Br4 177.31(5) . .
Mn6 Mn4 Br4 86.60(4) . .
Mn5 Mn4 Br4 89.58(4) . .
O10 Mn5 N10 99.3(2) . 4
O10 Mn5 N7 164.8(2) . .
N10 Mn5 N7 95.9(2) 4 .
O10 Mn5 O14 71.44(16) . .
N10 Mn5 O14 170.6(2) 4 .
N7 Mn5 O14 93.3(2) . .
O10 Mn5 O21 84.17(18) . .
N10 Mn5 O21 93.3(2) 4 .
N7 Mn5 O21 95.6(2) . .
O14 Mn5 O21 87.63(18) . .
O10 Mn5 O22 89.5(2) . .
N10 Mn5 O22 87.6(2) 4 .
N7 Mn5 O22 90.5(3) . .
O14 Mn5 O22 90.5(2) . .
O21 Mn5 O22 173.7(2) . .
O9 Mn6 O13 70.76(16) . .
O9 Mn6 N16A 97.1(3) . 4_556
O13 Mn6 N16A 167.1(3) . 4_556
O9 Mn6 N13 166.1(2) . 1_556
O13 Mn6 N13 95.3(2) . 1_556
N16A Mn6 N13 96.7(3) 4_556 1_556
O9 Mn6 O23 90.27(19) . .
O13 Mn6 O23 87.40(19) . .
N16A Mn6 O23 97.2(3) 4_556 .
N13 Mn6 O23 89.6(3) 1_556 .
O9 Mn6 N16B 99.6(7) . 4_556
O13 Mn6 N16B 165.0(7) . 4_556
N13 Mn6 N16B 94.1(7) 1_556 4_556
O23 Mn6 N16B 81.0(7) . 4_556
O9 Mn6 O24 90.7(2) . .
O13 Mn6 O24 90.8(2) . .
N16A Mn6 O24 84.9(3) 4_556 .
N13 Mn6 O24 88.9(3) 1_556 .
O23 Mn6 O24 177.6(3) . .
N16B Mn6 O24 101.0(7) 4_556 .
C1 O1 Mn1 123.6(4) . .
C1 O1 Mn3 126.9(3) . .
Mn1 O1 Mn3 102.2(2) . .
O1 C1 C3 112.5(5) . .
O1 C1 H1A 109.1 . .
C3 C1 H1A 109.1 . .
O1 C1 H1B 109.1 . .
C3 C1 H1B 109.1 . .
H1A C1 H1B 107.8 . .
C2 O2 Mn1 122.5(4) . .
C2 O2 Mn2 129.1(3) . .
Mn1 O2 Mn2 103.2(2) . .
O2 C2 C3 111.2(6) . .
O2 C2 H2A 109.4 . .
C3 C2 H2A 109.4 . .
O2 C2 H2B 109.4 . .
C3 C2 H2B 109.4 . .
H2A C2 H2B 108.0 . .
N1 C3 C1 111.6(6) . .
N1 C3 C2 108.5(6) . .
C1 C3 C2 113.3(6) . .
N1 C3 H3A 107.7 . .
C1 C3 H3A 107.7 . .
C2 C3 H3A 107.7 . .
C3 N1 S1 121.2(5) . .
C3 N1 H1 119.4 . .
S1 N1 H1 119.4 . .
O4 S1 O3 121.7(4) . .
O4 S1 N1 108.7(4) . .
O3 S1 N1 105.8(4) . .
O4 S1 C4 105.4(4) . .
O3 S1 C4 107.4(4) . .
N1 S1 C4 106.9(3) . .
C9 C4 C5 118.9(8) . .
C9 C4 S1 120.8(7) . .
C5 C4 S1 120.2(7) . .
C4 C5 C6 118.6(9) . .
C4 C5 H5A 120.7 . .
C6 C5 H5A 120.7 . .
C7 C6 C5 123.1(10) . .
C7 C6 H6A 118.4 . .
C5 C6 H6A 118.4 . .
C6 C7 C8 118.2(10) . .
C6 C7 C10 120.8(12) . .
C8 C7 C10 120.9(12) . .
C7 C8 C9 121.3(10) . .
C7 C8 H8A 119.3 . .
C9 C8 H8A 119.3 . .
C4 C9 C8 119.7(9) . .
C4 C9 H9A 120.1 . .
C8 C9 H9A 120.1 . .
C7 C10 H10A 109.5 . .
C7 C10 H10B 109.5 . .
H10A C10 H10B 109.5 . .
C7 C10 H10C 109.5 . .
H10A C10 H10C 109.5 . .
H10B C10 H10C 109.5 . .
C11 O5 Mn1 122.8(4) . .
C11 O5 Mn2 129.4(3) . .
Mn1 O5 Mn2 102.6(2) . .
O5 C11 C13 111.8(6) . .
O5 C11 H11A 109.3 . .
C13 C11 H11A 109.3 . .
O5 C11 H11B 109.3 . .
C13 C11 H11B 109.3 . .
H11A C11 H11B 107.9 . .
C12 O6 Mn1 122.3(4) . .
C12 O6 Mn3 130.7(4) . .
Mn1 O6 Mn3 101.8(2) . .
O6 C12 C13 113.1(6) . .
O6 C12 H12A 109.0 . .
C13 C12 H12A 109.0 . .
O6 C12 H12B 109.0 . .
C13 C12 H12B 109.0 . .
H12A C12 H12B 107.8 . .
N2 C13 C12 112.0(6) . .
N2 C13 C11 107.4(6) . .
C12 C13 C11 113.4(6) . .
N2 C13 H13A 108.0 . .
C12 C13 H13A 108.0 . .
C11 C13 H13A 108.0 . .
C13 N2 S2 123.1(5) . .
C13 N2 H2 118.4 . .
S2 N2 H2 118.4 . .
O8 S2 O7 118.6(3) . .
O8 S2 N2 109.3(3) . .
O7 S2 N2 106.2(3) . .
O8 S2 C14 108.1(4) . .
O7 S2 C14 107.7(3) . .
N2 S2 C14 106.3(3) . .
C19 C14 C15 122.7(7) . .
C19 C14 S2 119.2(7) . .
C15 C14 S2 118.0(7) . .
C14 C15 C16 116.5(8) . .
C14 C15 H15A 121.8 . .
C16 C15 H15A 121.8 . .
C17 C16 C15 120.4(8) . .
C17 C16 H16A 119.8 . .
C15 C16 H16A 119.8 . .
C18 C17 C16 119.9(9) . .
C18 C17 C20 121.1(11) . .
C16 C17 C20 118.7(11) . .
C17 C18 C19 120.9(9) . .
C17 C18 H18B 119.5 . .
C19 C18 H18B 119.5 . .
C14 C19 C18 119.4(9) . .
C14 C19 H19A 120.3 . .
C18 C19 H19A 120.3 . .
C17 C20 H20A 109.5 . .
C17 C20 H20B 109.5 . .
H20A C20 H20B 109.5 . .
C17 C20 H20C 109.5 . .
H20A C20 H20C 109.5 . .
H20B C20 H20C 109.5 . .
C21 O9 Mn4 123.2(4) . .
C21 O9 Mn6 129.1(3) . .
Mn4 O9 Mn6 102.5(2) . .
O9 C21 C23 114.1(6) . .
O9 C21 H21A 108.7 . .
C23 C21 H21A 108.7 . .
O9 C21 H21B 108.7 . .
C23 C21 H21B 108.7 . .
H21A C21 H21B 107.6 . .
C22 O10 Mn4 122.8(4) . .
C22 O10 Mn5 130.6(4) . .
Mn4 O10 Mn5 102.7(2) . .
O10 C22 C23 112.8(6) . .
O10 C22 H22A 109.0 . .
C23 C22 H22A 109.0 . .
O10 C22 H22B 109.0 . .
C23 C22 H22B 109.0 . .
H22A C22 H22B 107.8 . .
N3 C23 C21 112.2(6) . .
N3 C23 C22 108.5(5) . .
C21 C23 C22 110.7(6) . .
N3 C23 H23A 108.5 . .
C21 C23 H23A 108.5 . .
C22 C23 H23A 108.5 . .
C23 N3 S3 121.9(5) . .
C23 N3 H3 119.1 . .
S3 N3 H3 119.1 . .
O12 S3 O11 118.1(3) . .
O12 S3 N3 108.7(3) . .
O11 S3 N3 106.1(3) . .
O12 S3 C24 107.3(3) . .
O11 S3 C24 108.2(3) . .
N3 S3 C24 108.1(3) . .
C29 C24 C25 121.5(7) . .
C29 C24 S3 120.8(6) . .
C25 C24 S3 117.7(6) . .
C24 C25 C26 116.8(7) . .
C24 C25 H25A 121.6 . .
C26 C25 H25A 121.6 . .
C27 C26 C25 121.4(8) . .
C27 C26 H26A 119.3 . .
C25 C26 H26A 119.3 . .
C28 C27 C26 118.6(8) . .
C28 C27 C30 122.1(10) . .
C26 C27 C30 119.3(9) . .
C27 C28 C29 121.8(8) . .
C27 C28 H28A 119.1 . .
C29 C28 H28A 119.1 . .
C24 C29 C28 119.8(8) . .
C24 C29 H29A 120.1 . .
C28 C29 H29A 120.1 . .
C27 C30 H30A 109.5 . .
C27 C30 H30B 109.5 . .
H30A C30 H30B 109.5 . .
C27 C30 H30C 109.5 . .
H30A C30 H30C 109.5 . .
H30B C30 H30C 109.5 . .
C31 O13 Mn4 123.1(4) . .
C31 O13 Mn6 128.1(3) . .
Mn4 O13 Mn6 102.5(2) . .
O13 C31 C33 112.1(5) . .
O13 C31 H31A 109.2 . .
C33 C31 H31A 109.2 . .
O13 C31 H31B 109.2 . .
C33 C31 H31B 109.2 . .
H31A C31 H31B 107.9 . .
C32 O14 Mn4 122.4(4) . .
C32 O14 Mn5 128.7(3) . .
Mn4 O14 Mn5 101.9(2) . .
O14 C32 C33 114.2(6) . .
O14 C32 H32A 108.7 . .
C33 C32 H32A 108.7 . .
O14 C32 H32B 108.7 . .
C33 C32 H32B 108.7 . .
H32A C32 H32B 107.6 . .
N4 C33 C31 110.8(6) . .
N4 C33 C32 109.3(6) . .
C31 C33 C32 111.4(6) . .
N4 C33 H33A 108.4 . .
C31 C33 H33A 108.4 . .
C32 C33 H33A 108.4 . .
C33 N4 S4 121.3(5) . .
C33 N4 H4 119.3 . .
S4 N4 H4 119.3 . .
O16 S4 O15 118.5(4) . .
O16 S4 N4 110.0(3) . .
O15 S4 N4 105.5(3) . .
O16 S4 C34 106.4(4) . .
O15 S4 C34 107.3(3) . .
N4 S4 C34 108.9(3) . .
C35 C34 C39 121.2(7) . .
C35 C34 S4 119.8(6) . .
C39 C34 S4 118.8(6) . .
C34 C35 C36 119.1(8) . .
C34 C35 H35A 120.5 . .
C36 C35 H35A 120.5 . .
C37 C36 C35 121.6(8) . .
C37 C36 H36A 119.2 . .
C35 C36 H36A 119.2 . .
C38 C37 C36 118.7(7) . .
C38 C37 C40 121.3(9) . .
C36 C37 C40 120.0(9) . .
C37 C38 C39 121.1(8) . .
C37 C38 H38A 119.4 . .
C39 C38 H38A 119.4 . .
C34 C39 C38 118.3(8) . .
C34 C39 H39A 120.8 . .
C38 C39 H39A 120.8 . .
C37 C40 H40A 109.5 . .
C37 C40 H40B 109.5 . .
H40A C40 H40B 109.5 . .
C37 C40 H40C 109.5 . .
H40A C40 H40C 109.5 . .
H40B C40 H40C 109.5 . .
C41 N5 Mn3 153.2(7) . .
N5 C41 N6 174.0(9) . .
C41 N6 C42 122.0(7) . .
N7 C42 N6 172.8(9) . .
C42 N7 Mn5 169.2(7) . .
C43 N8 Mn3 158.7(7) . .
N8 C43 N9 171.3(10) . .
C44 N9 C43 123.5(8) . .
N10 C44 N9 172.8(9) . .
C44 N10 Mn5 154.4(7) . 3
C45 N11 Mn2 162.0(7) . .
N11 C45 N12 174.1(9) . .
C46 N12 C45 120.3(8) . .
N13 C46 N12 172.6(9) . .
C46 N13 Mn6 162.9(7) . 1_554
C47A N14A Mn2 155.4(12) . .
N14A C47A N15A 169.2(18) . .
C48A N15A C47A 115.7(15) . .
N16A C48A N15A 161.7(19) . .
C48A N16A Mn6 163.5(13) . 3_554
C47B N14B Mn2 166(3) . .
N14B C47B N15B 166(5) . .
C48B N15B C47B 118(3) . .
N16B C48B N15B 161(4) . .
C48B N16B Mn6 155(3) . 3_554
Mn2 O17 H171 114(5) . .
Mn2 O17 H172 113(5) . .
H171 O17 H172 115(9) . .
C51A O18A Mn2 135.4(12) . .
C51A O18A H18A 112.3 . .
Mn2 O18A H18A 112.3 . .
O18A C51A H51A 109.5 . .
O18A C51A H51B 109.5 . .
H51A C51A H51B 109.5 . .
O18A C51A H51C 109.5 . .
H51A C51A H51C 109.5 . .
H51B C51A H51C 109.5 . .
C52 O19 Mn3 128.6(5) . .
C52 O19 H19 111(5) . .
Mn3 O19 H19 107(5) . .
O19 C52 H52A 109.5 . .
O19 C52 H52B 109.5 . .
H52A C52 H52B 109.5 . .
O19 C52 H52C 109.5 . .
H52A C52 H52C 109.5 . .
H52B C52 H52C 109.5 . .
C53B O20 Mn3 133.2(13) . .
C53A O20 Mn3 128.6(8) . .
C53B O20 H20 130(6) . .
C53A O20 H20 123(6) . .
Mn3 O20 H20 97(5) . .
O20 C53A H53A 109.5 . .
O20 C53A H53B 109.5 . .
H53A C53A H53B 109.5 . .
O20 C53A H53C 109.5 . .
H53A C53A H53C 109.5 . .
H53B C53A H53C 109.5 . .
O20 C53B H53D 109.5 . .
O20 C53B H53E 109.5 . .
H53D C53B H53E 109.5 . .
O20 C53B H53F 109.5 . .
H53D C53B H53F 109.5 . .
H53E C53B H53F 109.5 . .
C54 O21 Mn5 120.4(6) . .
C54 O21 H21 114(5) . .
Mn5 O21 H21 113(5) . .
O21 C54 H54A 109.5 . .
O21 C54 H54B 109.5 . .
H54A C54 H54B 109.5 . .
O21 C54 H54C 109.5 . .
H54A C54 H54C 109.5 . .
H54B C54 H54C 109.5 . .
C55 O22 Mn5 133.7(6) . .
C55 O22 H22 107(6) . .
Mn5 O22 H22 119(6) . .
O22 C55 H55A 109.5 . .
O22 C55 H55B 109.5 . .
H55A C55 H55B 109.5 . .
O22 C55 H55C 109.5 . .
H55A C55 H55C 109.5 . .
H55B C55 H55C 109.5 . .
C56A O23 Mn6 129.9(6) . .
C56A O23 H23 112(5) . .
Mn6 O23 H23 118(5) . .
O23 C56A H56A 109.5 . .
O23 C56A H56B 109.5 . .
H56A C56A H56B 109.5 . .
O23 C56A H56C 109.5 . .
H56A C56A H56C 109.5 . .
H56B C56A H56C 109.5 . .
C57 O24 Mn6 126.1(7) . .
C57 O24 H24 122(6) . .
Mn6 O24 H24 89(6) . .
O24 C57 H57A 109.5 . .
O24 C57 H57B 109.5 . .
H57A C57 H57B 109.5 . .
O24 C57 H57C 109.5 . .
H57A C57 H57C 109.5 . .
H57B C57 H57C 109.5 . .
C65 N61 C63 113.2(6) . .
C65 N61 C61 111.7(7) . .
C63 N61 C61 114.8(7) . .
C65 N61 H61 105.4 . .
C63 N61 H61 105.4 . .
C61 N61 H61 105.4 . .
C62 C61 N61 111.2(9) . .
C62 C61 H61A 109.4 . .
N61 C61 H61A 109.4 . .
C62 C61 H61B 109.4 . .
N61 C61 H61B 109.4 . .
H61A C61 H61B 108.0 . .
C61 C62 H62A 109.5 . .
C61 C62 H62B 109.5 . .
H62A C62 H62B 109.5 . .
C61 C62 H62C 109.5 . .
H62A C62 H62C 109.5 . .
H62B C62 H62C 109.5 . .
C64 C63 N61 114.0(7) . .
C64 C63 H63A 108.8 . .
N61 C63 H63A 108.8 . .
C64 C63 H63B 108.8 . .
N61 C63 H63B 108.8 . .
H63A C63 H63B 107.6 . .
C63 C64 H64A 109.5 . .
C63 C64 H64B 109.5 . .
H64A C64 H64B 109.5 . .
C63 C64 H64C 109.5 . .
H64A C64 H64C 109.5 . .
H64B C64 H64C 109.5 . .
C66 C65 N61 114.2(7) . .
C66 C65 H65A 108.7 . .
N61 C65 H65A 108.7 . .
C66 C65 H65B 108.7 . .
N61 C65 H65B 108.7 . .
H65A C65 H65B 107.6 . .
C65 C66 H66A 109.5 . .
C65 C66 H66B 109.5 . .
H66A C66 H66B 109.5 . .
C65 C66 H66C 109.5 . .
H66A C66 H66C 109.5 . .
H66B C66 H66C 109.5 . .
C75A N71A C71A 112.8(11) . .
C75A N71A C73A 113.9(11) . .
C71A N71A C73A 111.5(11) . .
C75A N71A H71A 106.0 . .
C71A N71A H71A 106.0 . .
C73A N71A H71A 106.0 . .
C72A C71A N71A 113.9(12) . .
C72A C71A H71B 108.8 . .
N71A C71A H71B 108.8 . .
C72A C71A H71C 108.8 . .
N71A C71A H71C 108.8 . .
H71B C71A H71C 107.7 . .
C71A C72A H72A 109.5 . .
C71A C72A H72B 109.5 . .
H72A C72A H72B 109.5 . .
C71A C72A H72C 109.5 . .
H72A C72A H72C 109.5 . .
H72B C72A H72C 109.5 . .
C74A C73A N71A 109.0(12) . .
C74A C73A H73A 109.9 . .
N71A C73A H73A 109.9 . .
C74A C73A H73B 109.9 . .
N71A C73A H73B 109.9 . .
H73A C73A H73B 108.3 . .
C73A C74A H74A 109.5 . .
C73A C74A H74B 109.5 . .
H74A C74A H74B 109.5 . .
C73A C74A H74C 109.5 . .
H74A C74A H74C 109.5 . .
H74B C74A H74C 109.5 . .
C76A C75A N71A 116.2(11) . .
C76A C75A H75A 108.2 . .
N71A C75A H75A 108.2 . .
C76A C75A H75B 108.2 . .
N71A C75A H75B 108.2 . .
H75A C75A H75B 107.4 . .
C75A C76A H76A 109.5 . .
C75A C76A H76B 109.5 . .
H76A C76A H76B 109.5 . .
C75A C76A H76C 109.5 . .
H76A C76A H76C 109.5 . .
H76B C76A H76C 109.5 . .
loop_
_geom_bond_atom_site_label_1
_geom_bond_atom_site_label_2
_geom_bond_distance
_geom_bond_site_symmetry_2
Mn1 O1 1.881(4) .
Mn1 O5 1.885(4) .
Mn1 O6 1.886(4) .
Mn1 O2 1.887(4) .
Mn1 Br1 2.7282(15) .
Mn1 Mn3 3.1492(13) .
Mn1 Mn2 3.1524(13) .
Mn1 Br2 3.3826(15) .
Mn2 N14A 2.120(9) .
Mn2 O2 2.132(4) .
Mn2 O5 2.148(4) .
Mn2 N11 2.156(7) .
Mn2 N14B 2.158(15) .
Mn2 O18A 2.218(9) .
Mn2 O17 2.234(7) .
Mn2 O18B 2.269(17) .
Mn3 N8 2.156(6) .
Mn3 O1 2.160(4) .
Mn3 O6 2.165(4) .
Mn3 N5 2.193(6) .
Mn3 O19 2.200(5) .
Mn3 O20 2.206(6) .
Mn4 O13 1.875(4) .
Mn4 O9 1.876(4) .
Mn4 O10 1.888(4) .
Mn4 O14 1.894(4) .
Mn4 Br3 2.7407(15) .
Mn4 Mn6 3.1506(13) .
Mn4 Mn5 3.1553(13) .
Mn4 Br4 3.3535(14) .
Mn5 O10 2.147(4) .
Mn5 N10 2.160(6) 4
Mn5 N7 2.162(6) .
Mn5 O14 2.163(4) .
Mn5 O21 2.210(6) .
Mn5 O22 2.211(6) .
Mn6 O9 2.156(4) .
Mn6 O13 2.158(4) .
Mn6 N16A 2.160(9) 4_556
Mn6 N13 2.169(7) 1_556
Mn6 O23 2.182(6) .
Mn6 N16B 2.190(15) 4_556
Mn6 O24 2.267(7) .
O1 C1 1.411(7) .
C1 C3 1.512(8) .
C1 H1A 0.9900 .
C1 H1B 0.9900 .
O2 C2 1.419(8) .
C2 C3 1.534(9) .
C2 H2A 0.9900 .
C2 H2B 0.9900 .
C3 N1 1.445(9) .
C3 H3A 1.0000 .
N1 S1 1.620(6) .
N1 H1 0.8800 .
S1 O4 1.413(6) .
S1 O3 1.444(6) .
S1 C4 1.741(7) .
C4 C9 1.367(10) .
C4 C5 1.376(10) .
C5 C6 1.420(12) .
C5 H5A 0.9500 .
C6 C7 1.323(13) .
C6 H6A 0.9500 .
C7 C8 1.351(13) .
C7 C10 1.513(12) .
C8 C9 1.423(12) .
C8 H8A 0.9500 .
C9 H9A 0.9500 .
C10 H10A 0.9800 .
C10 H10B 0.9800 .
C10 H10C 0.9800 .
O5 C11 1.423(8) .
C11 C13 1.530(9) .
C11 H11A 0.9900 .
C11 H11B 0.9900 .
O6 C12 1.416(8) .
C12 C13 1.499(9) .
C12 H12A 0.9900 .
C12 H12B 0.9900 .
C13 N2 1.465(9) .
C13 H13A 1.0000 .
N2 S2 1.610(6) .
N2 H2 0.8800 .
S2 O8 1.415(5) .
S2 O7 1.438(5) .
S2 C14 1.777(7) .
C14 C19 1.340(10) .
C14 C15 1.367(10) .
C15 C16 1.425(11) .
C15 H15A 0.9500 .
C16 C17 1.388(12) .
C16 H16A 0.9500 .
C17 C18 1.315(13) .
C17 C20 1.537(10) .
C18 C19 1.403(11) .
C18 H18B 0.9500 .
C19 H19A 0.9500 .
C20 H20A 0.9800 .
C20 H20B 0.9800 .
C20 H20C 0.9800 .
O9 C21 1.400(8) .
C21 C23 1.526(9) .
C21 H21A 0.9900 .
C21 H21B 0.9900 .
O10 C22 1.412(8) .
C22 C23 1.538(8) .
C22 H22A 0.9900 .
C22 H22B 0.9900 .
C23 N3 1.461(8) .
C23 H23A 1.0000 .
N3 S3 1.596(6) .
N3 H3 0.8800 .
S3 O12 1.422(5) .
S3 O11 1.427(5) .
S3 C24 1.761(7) .
C24 C29 1.347(9) .
C24 C25 1.388(9) .
C25 C26 1.449(9) .
C25 H25A 0.9500 .
C26 C27 1.366(11) .
C26 H26A 0.9500 .
C27 C28 1.355(11) .
C27 C30 1.474(10) .
C28 C29 1.405(10) .
C28 H28A 0.9500 .
C29 H29A 0.9500 .
C30 H30A 0.9800 .
C30 H30B 0.9800 .
C30 H30C 0.9800 .
O13 C31 1.407(7) .
C31 C33 1.524(8) .
C31 H31A 0.9900 .
C31 H31B 0.9900 .
O14 C32 1.389(7) .
C32 C33 1.528(8) .
C32 H32A 0.9900 .
C32 H32B 0.9900 .
C33 N4 1.450(9) .
C33 H33A 1.0000 .
N4 S4 1.611(6) .
N4 H4 0.8800 .
S4 O16 1.417(6) .
S4 O15 1.446(6) .
S4 C34 1.763(7) .
C34 C35 1.361(10) .
C34 C39 1.375(10) .
C35 C36 1.379(10) .
C35 H35A 0.9500 .
C36 C37 1.376(11) .
C36 H36A 0.9500 .
C37 C38 1.358(11) .
C37 C40 1.533(9) .
C38 C39 1.407(9) .
C38 H38A 0.9500 .
C39 H39A 0.9500 .
C40 H40A 0.9800 .
C40 H40B 0.9800 .
C40 H40C 0.9800 .
N5 C41 1.137(8) .
C41 N6 1.285(9) .
N6 C42 1.298(10) .
C42 N7 1.140(9) .
N8 C43 1.118(9) .
C43 N9 1.319(10) .
N9 C44 1.293(10) .
C44 N10 1.148(8) .
N10 Mn5 2.160(6) 3
N11 C45 1.128(9) .
C45 N12 1.301(10) .
N12 C46 1.282(10) .
C46 N13 1.146(9) .
N13 Mn6 2.169(7) 1_554
N14A C47A 1.106(14) .
C47A N15A 1.397(17) .
N15A C48A 1.327(16) .
C48A N16A 1.099(14) .
N16A Mn6 2.160(9) 3_554
N14B C47B 1.11(2) .
C47B N15B 1.40(2) .
N15B C48B 1.33(2) .
C48B N16B 1.095(19) .
N16B Mn6 2.191(15) 3_554
O17 H171 0.92(3) .
O17 H172 0.94(4) .
O18A C51A 1.278(13) .
O18A H18A 0.9500 .
C51A H51A 0.9800 .
C51A H51B 0.9800 .
C51A H51C 0.9800 .
O19 C52 1.415(7) .
O19 H19 0.90(4) .
C52 H52A 0.9800 .
C52 H52B 0.9800 .
C52 H52C 0.9800 .
O20 C53B 1.400(14) .
O20 C53A 1.426(11) .
O20 H20 0.91(4) .
C53A H53A 0.9800 .
C53A H53B 0.9800 .
C53A H53C 0.9800 .
C53B H53D 0.9800 .
C53B H53E 0.9800 .
C53B H53F 0.9800 .
O21 C54 1.390(9) .
O21 H21 0.87(4) .
C54 H54A 0.9800 .
C54 H54B 0.9800 .
C54 H54C 0.9800 .
O22 C55 1.360(8) .
O22 H22 0.88(4) .
C55 H55A 0.9800 .
C55 H55B 0.9800 .
C55 H55C 0.9800 .
O23 C56A 1.374(9) .
O23 H23 0.91(4) .
C56A H56A 0.9800 .
C56A H56B 0.9800 .
C56A H56C 0.9800 .
O24 C57 1.432(10) .
O24 H24 0.95(4) .
C57 H57A 0.9800 .
C57 H57B 0.9800 .
C57 H57C 0.9800 .
N61 C65 1.482(9) .
N61 C63 1.485(9) .
N61 C61 1.561(11) .
N61 H61 1.0000 .
C61 C62 1.444(12) .
C61 H61A 0.9900 .
C61 H61B 0.9900 .
C62 H62A 0.9800 .
C62 H62B 0.9800 .
C62 H62C 0.9800 .
C63 C64 1.478(10) .
C63 H63A 0.9900 .
C63 H63B 0.9900 .
C64 H64A 0.9800 .
C64 H64B 0.9800 .
C64 H64C 0.9800 .
C65 C66 1.474(10) .
C65 H65A 0.9900 .
C65 H65B 0.9900 .
C66 H66A 0.9800 .
C66 H66B 0.9800 .
C66 H66C 0.9800 .
N71A C75A 1.485(13) .
N71A C71A 1.496(13) .
N71A C73A 1.540(14) .
N71A H71A 1.0000 .
C71A C72A 1.462(16) .
C71A H71B 0.9900 .
C71A H71C 0.9900 .
C72A H72A 0.9800 .
C72A H72B 0.9800 .
C72A H72C 0.9800 .
C73A C74A 1.493(16) .
C73A H73A 0.9900 .
C73A H73B 0.9900 .
C74A H74A 0.9800 .
C74A H74B 0.9800 .
C74A H74C 0.9800 .
C75A C76A 1.471(15) .
C75A H75A 0.9900 .
C75A H75B 0.9900 .
C76A H76A 0.9800 .
C76A H76B 0.9800 .
C76A H76C 0.9800 .
loop_
_geom_hbond_atom_site_label_D
_geom_hbond_atom_site_label_H
_geom_hbond_atom_site_label_A
_geom_hbond_distance_DH
_geom_hbond_distance_HA
_geom_hbond_distance_DA
_geom_hbond_angle_DHA
_geom_hbond_site_symmetry_A
N1 H1 Br2 0.88 2.76 3.573(7) 153.7 .
N2 H2 Br2 0.88 2.78 3.584(6) 153.0 .
N3 H3 Br4 0.88 2.82 3.624(6) 153.2 .
N4 H4 Br4 0.88 2.63 3.486(6) 164.6 .
O17 H171 Br2 0.92(3) 2.45(3) 3.281(6) 150(7) .
O18A H18A Br1 0.95 2.38 3.161(14) 138.8 .
O19 H19 Br2 0.90(4) 2.37(4) 3.228(4) 159(6) .
O20 H20 Br1 0.91(4) 2.31(4) 3.202(5) 170(8) .
O21 H21 Br4 0.87(4) 2.50(5) 3.285(5) 150(6) .
O22 H22 Br3 0.88(4) 2.37(5) 3.186(5) 154(8) .
O23 H23 Br4 0.91(4) 2.37(4) 3.249(5) 162(7) .
O24 H24 Br3 0.95(4) 2.25(5) 3.154(6) 160(8) .
N61 H61 O15 1.00 1.85 2.796(7) 156.5 .
N71A H71A Br2 1.00 2.60 3.562(13) 160.9 .
C3 H3A O4 1.00 2.48 2.966(10) 109.6 .
C3 H3A O8 1.00 2.55 3.266(10) 128.5 4
C13 H13A Br1 1.00 3.08 3.727(8) 123.2 3
C22 H22B Br3 0.99 3.07 3.738(8) 126.3 4
C23 H23A Br3 1.00 3.10 3.714(8) 121.0 4
C33 H33A O12 1.00 2.46 3.178(9) 128.3 3
O17 H171 Br2 0.92(3) 2.45(3) 3.281(6) 150(7) .
O18A H18A Br1 0.95 2.38 3.161(14) 138.8 .
O19 H19 Br2 0.90(4) 2.37(4) 3.228(4) 159(6) .
O20 H20 Br1 0.91(4) 2.31(4) 3.202(5) 170(8) .
O21 H21 Br4 0.87(4) 2.50(5) 3.285(5) 150(6) .
O22 H22 Br3 0.88(4) 2.37(5) 3.186(5) 154(8) .
O23 H23 Br4 0.91(4) 2.37(4) 3.249(5) 162(7) .
O24 H24 Br3 0.95(4) 2.25(5) 3.154(6) 160(8) .
N61 H61 S4 1.00 2.88 3.880(6) 174.8 .
N61 H61 O15 1.00 1.85 2.796(7) 156.5 .
C65 H65A O11 0.99 2.49 3.355(9) 145.8 5_666
loop_
_platon_squeeze_void_nr
_platon_squeeze_void_average_x
_platon_squeeze_void_average_y
_platon_squeeze_void_average_z
_platon_squeeze_void_volume
_platon_squeeze_void_count_electrons
_platon_squeeze_void_content
1 0.250 0.250 0.942 668 126 '2(NHEt3)+ = 116 e'
2 0.250 0.750 1.000 308 76 '4MeOH = 72 e'
3 0.250 0.750 0.500 138 28 '2MeOH = 36 e'
4 0.750 0.250 0.000 308 75 '4MeOH = 72 e'
5 0.750 0.750 0.056 668 126 '2(NHEt3)+ = 116 e'
6 0.750 0.250 0.500 138 28 '2MeOH = 36 e'
