#------------------------------------------------------------------------------
#$Date: 2017-06-04 13:03:43 +0300 (Sun, 04 Jun 2017) $
#$Revision: 197242 $
#$URL: file:///home/coder/svn-repositories/cod/cif/4/12/60/4126094.cif $
#------------------------------------------------------------------------------
#
# This file is available in the Crystallography Open Database (COD),
# http://www.crystallography.net/
#
# All data on this site have been placed in the public domain by the
# contributors.
#
data_4126094
loop_
_publ_author_name
'Marshall, Ross J.'
'Kalinovskyy, Yaroslav'
'Griffin, Sarah L.'
'Wilson, Claire'
'Blight, Barry A.'
'Forgan, Ross S.'
_publ_section_title
;
 Functional Versatility of a Series of Zr Metal-Organic Frameworks Probed
 by Solid-State Photoluminescence Spectroscopy.
;
_journal_issue                   17
_journal_name_full               'Journal of the American Chemical Society'
_journal_page_first              6253
_journal_page_last               6260
_journal_paper_doi               10.1021/jacs.7b02184
_journal_volume                  139
_journal_year                    2017
_chemical_formula_moiety         'C26 H14 F4 O4'
_chemical_formula_sum            'C26 H14 F4 O4'
_chemical_formula_weight         466.37
_space_group_crystal_system      monoclinic
_space_group_IT_number           14
_space_group_name_Hall           '-P 2ybc'
_space_group_name_H-M_alt        'P 1 21/c 1'
_symmetry_space_group_name_Hall  '-P 2ybc'
_symmetry_space_group_name_H-M   'P 1 21/c 1'
_atom_sites_solution_hydrogens   geom
_audit_creation_date             2016-10-28
_audit_creation_method
;
Olex2 1.2
(compiled 2016.09.09 svn.r3337 for OlexSys, GUI svn.r5227)
;
_cell_angle_alpha                90
_cell_angle_beta                 93.881(19)
_cell_angle_gamma                90
_cell_formula_units_Z            2
_cell_length_a                   17.248(12)
_cell_length_b                   4.784(3)
_cell_length_c                   12.021(8)
_cell_measurement_reflns_used    766
_cell_measurement_temperature    100(2)
_cell_measurement_theta_max      23.771
_cell_measurement_theta_min      3.397
_cell_volume                     989.6(11)
_computing_cell_refinement       'SAINT v8.34A (Bruker, 2013)'
_computing_data_collection       'Collect (Bruker AXS BV, 1997-2004)'
_computing_data_reduction        'SAINT v8.34A (Bruker, 2013)'
_computing_molecular_graphics    'Olex2 (Dolomanov et al., 2009)'
_computing_publication_material  'Olex2 (Dolomanov et al., 2009)'
_computing_structure_refinement  'ShelXL (Sheldrick, 2015)'
_computing_structure_solution    'ShelXT (Sheldrick, 2015)'
_diffrn_ambient_temperature      100(2)
_diffrn_detector                 'CCD plate'
_diffrn_detector_area_resol_mean 9
_diffrn_measured_fraction_theta_full 0.785
_diffrn_measured_fraction_theta_max 0.785
_diffrn_measurement_device       '95mm CCD camera on \k-goniostat'
_diffrn_measurement_device_type  KappaCCD
_diffrn_measurement_method       '\f & \w scans'
_diffrn_orient_matrix_type       'by Bruker AXS Collect from scalepack cell'
_diffrn_radiation_monochromator  graphite
_diffrn_radiation_probe          x-ray
_diffrn_radiation_type           MoK\a
_diffrn_radiation_wavelength     0.71073
_diffrn_reflns_av_R_equivalents  0.0728
_diffrn_reflns_av_unetI/netI     0.0923
_diffrn_reflns_Laue_measured_fraction_full 0.785
_diffrn_reflns_Laue_measured_fraction_max 0.785
_diffrn_reflns_number            8314
_diffrn_reflns_point_group_measured_fraction_full 0.785
_diffrn_reflns_point_group_measured_fraction_max 0.785
_diffrn_reflns_theta_full        25.503
_diffrn_reflns_theta_max         25.503
_diffrn_reflns_theta_min         2.367
_diffrn_source                   'Enraf Nonius FR590'
_diffrn_standards_number         0
_exptl_absorpt_coefficient_mu    0.130
_exptl_absorpt_correction_T_max  1.00
_exptl_absorpt_correction_T_min  0.53
_exptl_absorpt_correction_type   multi-scan
_exptl_absorpt_process_details
;
 TWINABS-2012/1 (Bruker,2012) was used for absorption correction.
 
For component 1:
 wR2(int) was 0.0999 before and 0.0728 after correction.
 The Ratio of minimum to maximum transmission is 0.53.
 The \l/2 correction factor is Not present

Final HKLF 4 output contains 8314 reflections, Rint = 0.1494
 (1708 with I > 3sig(I), Rint = 0.0719)
;
_exptl_crystal_colour            colourless
_exptl_crystal_colour_primary    colourless
_exptl_crystal_density_diffrn    1.565
_exptl_crystal_description       plate
_exptl_crystal_F_000             476
_exptl_crystal_size_max          0.6
_exptl_crystal_size_mid          0.14
_exptl_crystal_size_min          0.03
_refine_diff_density_max         1.020
_refine_diff_density_min         -0.614
_refine_diff_density_rms         0.165
_refine_ls_extinction_method     none
_refine_ls_goodness_of_fit_ref   1.411
_refine_ls_hydrogen_treatment    constr
_refine_ls_matrix_type           full
_refine_ls_number_parameters     70
_refine_ls_number_reflns         1450
_refine_ls_number_restraints     0
_refine_ls_restrained_S_all      1.411
_refine_ls_R_factor_all          0.1925
_refine_ls_R_factor_gt           0.1301
_refine_ls_shift/su_max          0.000
_refine_ls_shift/su_mean         0.000
_refine_ls_structure_factor_coef Fsqd
_refine_ls_weighting_details
'w=1/[\s^2^(Fo^2^)+(0.2000P)^2^] where P=(Fo^2^+2Fc^2^)/3'
_refine_ls_weighting_scheme      calc
_refine_ls_wR_factor_gt          0.3547
_refine_ls_wR_factor_ref         0.4055
_reflns_Friedel_coverage         0.000
_reflns_number_gt                869
_reflns_number_total             1450
_reflns_threshold_expression     'I > 2\s(I)'
_cod_data_source_file            ja7b02184_si_006.cif
_cod_data_source_block           L5-Me2
_cod_database_code               4126094
_shelx_space_group_comment
;
The symmetry employed for this shelxl refinement is uniquely defined
by the following loop, which should always be used as a source of
symmetry information in preference to the above space-group names.
They are only intended as comments.
;
_olex2_refinement_description
;
1. Fixed Uiso
 At 1.2 times of:
  All C(H) groups
 At 1.5 times of:
  All C(H,H,H) groups
2. Uiso/Uaniso restraints and constraints
: with sigma of 0.1 and sigma for terminal atoms of 0.2
3. Rigid body (RIGU) restrains
 C1, C2, C3, C4, C5, C6, C7, C8, C9, C10, C11, C12, C13
 with sigma for 1-2 distances of 0.01 and sigma for 1-3 distances of 0.01
4.a Aromatic/amide H refined with riding coordinates:
 C4(H4), C5(H5), C7(H7), C8(H8)
4.b Idealised Me refined as rotating group:
 C1(H1A,H1B,H1C)
;
_shelx_res_file
;
TITL rjm_10_094_hklf4_a.res in P2(1)/c
    rjm_10_094_hklf4.res
    created by SHELXL-2016/6 at 15:59:07 on 28-Oct-2016
REM Old TITL RJM_10_094_hklf4 in P21/c #14
REM SHELXT solution in P2(1)/c
REM R1 0.207, Rweak 0.010, Alpha 0.046, Orientation as input
REM Formula found by SHELXT: C13 O2 F2
CELL 0.71073 17.2476 4.7843 12.0205 90 93.881 90
ZERR 2 0.0123 0.003 0.0078 0 0.019 0
LATT 1
SYMM -X,0.5+Y,0.5-Z
SFAC C H O F
UNIT 52 28 8 8
RIGU 0.01 0.01 $c
ISOR C13 C3

L.S. 4 0 0
PLAN  20
TEMP -173(2)
BOND $H
MORE -1
CONF
fmap 2 53
acta 52
OMIT 1 0 0
REM <olex2.extras>
REM <HklSrc "%.\\RJM_10_094_hklf4.hkl">
REM </olex2.extras>

WGHT    0.200000
FVAR       0.61644
F1    4    0.618153    0.884715    0.367396    11.00000    0.02715
F2    4    0.516680    1.292338    0.309610    11.00000    0.02715
O1    3    0.879225   -0.496979    0.843040    11.00000    0.02972
O2    3    0.918528   -0.564137    0.669879    11.00000    0.02961
C1    1    0.938628   -0.699566    0.884428    11.00000    0.03462
AFIX 137
H1A   2    0.935086   -0.867943    0.837933    11.00000   -1.50000
H1B   2    0.930000   -0.749313    0.961706    11.00000   -1.50000
H1C   2    0.990339   -0.616290    0.881194    11.00000   -1.50000
AFIX   0
C2    1    0.876771   -0.446955    0.733291    11.00000    0.02301
C3    1    0.820059   -0.228286    0.699732    11.00000    0.02454
C4    1    0.815427   -0.126079    0.589565    11.00000    0.02237
AFIX  43
H4    2    0.849205   -0.201045    0.537914    11.00000   -1.20000
AFIX   0
C5    1    0.764155    0.076271    0.555015    11.00000    0.02737
AFIX  43
H5    2    0.763361    0.143007    0.480512    11.00000   -1.20000
AFIX   0
C6    1    0.712166    0.188057    0.628602    11.00000    0.02502
C7    1    0.712293    0.086055    0.737748    11.00000    0.02233
AFIX  43
H7    2    0.676193    0.155186    0.787328    11.00000   -1.20000
AFIX   0
C8    1    0.766014   -0.117907    0.772573    11.00000    0.02216
AFIX  43
H8    2    0.766653   -0.185350    0.846963    11.00000   -1.20000
AFIX   0
C9    1    0.656469    0.402621    0.591611    11.00000    0.02679
C10   1    0.608979    0.574548    0.565447    11.00000    0.02526
C11   1    0.555368    0.786624    0.531649    11.00000    0.02030
C12   1    0.559135    0.934421    0.435010    11.00000    0.02551
C13   1    0.506792    1.140428    0.401990    11.00000    0.02060
HKLF 4




REM  rjm_10_094_hklf4_a.res in P2(1)/c
REM R1 =  0.1301 for     869 Fo > 4sig(Fo)  and  0.1925 for all    1450 data
REM     70 parameters refined using      0 restraints

END

WGHT      0.2000      0.0000

REM Highest difference peak  1.020,  deepest hole -0.614,  1-sigma level  0.165
Q1    1   0.9025 -0.4444  0.8436  11.00000  0.05    1.02
Q2    1   0.5851  0.8775  0.3577  11.00000  0.05    0.84
Q3    1   0.7959 -0.1041  0.7734  11.00000  0.05    0.76
Q4    1   0.8461 -0.4821  0.8463  11.00000  0.05    0.76
Q5    1   0.7898 -0.1962  0.6915  11.00000  0.05    0.75
Q6    1   0.5439  1.2576  0.3082  11.00000  0.05    0.72
Q7    1   0.4746  1.1837  0.4009  11.00000  0.05    0.70
Q8    1   0.9416 -0.5242  0.6783  11.00000  0.05    0.65
Q9    1   0.8931 -0.5922  0.6677  11.00000  0.05    0.63
Q10   1   0.9103 -0.4843  0.7405  11.00000  0.05    0.62
Q11   1   0.9781 -0.9441  1.0444  11.00000  0.05    0.59
Q12   1   0.5422  1.0280  0.4184  11.00000  0.05    0.59
Q13   1   0.7374  0.1360  0.7309  11.00000  0.05    0.58
Q14   1   0.9677 -0.6684  0.8756  11.00000  0.05    0.57
Q15   1   0.5356  0.7381  0.5555  11.00000  0.05    0.56
Q16   1   0.8371 -0.1767  0.6863  11.00000  0.05    0.56
Q17   1   0.8400 -0.0626  0.5561  11.00000  0.05    0.54
Q18   1   0.7003  0.0780  0.6588  11.00000  0.05    0.51
Q19   1   0.8362 -0.1639  0.5990  11.00000  0.05    0.51
Q20   1   0.6355  0.6465  0.5641  11.00000  0.05    0.50
;
_shelx_res_checksum              84392
_shelx_hkl_file
;
   0   0   1    0.70    0.70
   0   0   2  585.84   20.30
   0   0   3    0.70    2.60
   0   0   4 1240.38   42.70
   0   0   5    3.30    3.40
   0   0   6  114.09    6.50
   0   0   7    2.00    4.90
   0   0   8   54.19    8.00
   0   0   9    4.10    7.80
   0   0  10   54.49   10.20
   0   0  11    5.20   10.40
   0   0  12   20.90   11.10
   0   0  13    6.70   11.60
   0   0  14    7.70   15.10
   0  -1   0    1.90    2.60
   0  -1   1 1454.75   39.80
   0  -1   2  135.19    3.80
   0  -1   3    0.00    2.20
   0  -1   4    0.00    4.20
   0  -1   5  616.74   13.80
   0  -1   6  576.64   14.80
   0  -1   7  185.28    7.20
   0  -1   8   61.59    4.80
   0  -1   9    6.80    4.30
   0  -1  10   43.70    6.20
   0  -1  11   62.69    7.30
   0  -1  12  288.27   13.20
   0  -1  13    9.20    7.30
   0  -1  14    8.80    9.80
   0  -2   0   20.10   14.20
   0  -2   1   35.00    4.60
   0  -2   2    0.00    5.00
   0  -2   3   38.10    4.60
   0  -2   4    6.50    3.30
   0  -2   5    0.40    3.30
   0  -2   6   63.79    4.00
   0  -2   7   40.80    4.90
   0  -2   8   12.30    4.70
   0  -2   9  172.98    9.70
   0  -2  10  367.66   14.30
   0  -2  11  166.48   10.50
   0  -2  12  224.68   13.20
   0  -2  13  312.17   19.60
   0  -3   1  302.07   29.90
   0  -3   2 1000.40   78.69
   0  -3   3    9.60    7.90
   0  -3   4  139.89   18.60
   0  -3   5  230.88   14.90
   0  -3   6  140.59    7.20
   0  -3   7   36.50    6.30
   0  -3   8   30.70    6.10
   0  -3   9  124.49    8.70
   0  -3  10    8.90    7.10
   0  -3  11   14.40    8.30
   0  -3  12   10.70   10.90
   0  -4   2   21.20    5.40
   0  -4   3   11.40    7.10
   0  -4   5   18.10   10.80
   0  -4   6   42.80   11.30
   0  -4   7   72.89   18.60
   0  -4   8   70.59   13.10
   0  -4   9   17.10   18.70
   0  -4  10   21.20   14.30
   1   0 -14    0.00   14.30
   1   0 -13    1.40   11.70
   1   0 -12   24.80   11.30
   1   0 -11    7.30    9.70
   1   0 -10   14.00    8.90
   1   0  -9    0.00    7.30
   1   0  -8  428.66   23.30
   1   0  -7    0.60    5.00
   1   0  -6    0.20    4.40
   1   0  -5    0.00    3.80
   1   0  -4  598.54   21.10
   1   0  -3    0.60    3.60
   1   0  -2 3144.89  110.09
   1   0  -1    0.60    0.90
   1   0   0    0.00    0.50
   1   0   1    0.10    1.10
   1   0   2   88.69    4.30
   1   0   3    1.30    2.20
   1   0   4  508.35   15.90
   1   0   5    5.90    4.30
   1   0   6 1312.17   45.30
   1   0   7    5.90    5.10
   1   0   8   23.90    5.70
   1   0   9    2.20    8.10
   1   0  10  190.48   15.00
   1   0  11    4.20    9.70
   1   0  12   82.89   13.10
   1   0  13    0.00   13.20
   1   0  14   30.50   15.00
   1  -1 -14   17.40   11.60
   1  -1 -13   11.60    8.40
   1  -1 -12  182.08   10.20
   1  -1 -11   24.40    6.40
   1  -1 -10  130.89    7.60
   1  -1  -9   23.30    5.00
   1  -1  -8   68.49    4.60
   1  -1  -7   23.50    3.60
   1  -1  -6  568.44   14.50
   1  -1  -5  576.74   14.00
   1  -1  -4  286.67    8.10
   1  -1  -3  372.76   12.60
   1  -1  -2    4.90    2.10
   1  -1  -1    6.30    2.80
   1  -1   0   79.69    5.20
   1  -1   1  172.58    5.90
   1  -1   2   31.00    3.30
   1  -1   3  130.09    4.50
   1  -1   4    1.80    3.00
   1  -1   5  448.06   10.60
   1  -1   6  387.46   10.50
   1  -1   7   44.80    4.00
   1  -1   8   10.80    3.90
   1  -1   9   16.30    4.40
   1  -1  10   49.70    6.20
   1  -1  11   62.09    7.10
   1  -1  12   54.09    7.50
   1  -1  13    8.80    7.30
   1  -1  14   17.00   15.50
   1  -2 -13  185.88   15.10
   1  -2 -12   84.09   10.10
   1  -2 -11  116.09    9.30
   1  -2 -10   81.49    7.10
   1  -2  -9   33.80    5.50
   1  -2  -8    0.70    4.40
   1  -2  -7  233.38    9.30
   1  -2  -6  209.98    7.00
   1  -2  -5  497.95   13.30
   1  -2  -4   20.60    2.40
   1  -2  -3    0.00    3.40
   1  -2  -2  178.68    8.80
   1  -2  -1 1039.00   36.90
   1  -2   0  648.44   22.50
   1  -2   1  304.17   22.00
   1  -2   2  644.54   34.70
   1  -2   3  220.08    8.20
   1  -2   4  147.39    5.80
   1  -2   5    0.80    3.40
   1  -2   6  630.24   21.50
   1  -2   7    8.50    5.30
   1  -2   8   86.89    6.80
   1  -2   9   53.19    6.60
   1  -2  10   49.70    7.40
   1  -2  11  293.87   15.50
   1  -2  12   19.50    8.70
   1  -2  13   57.29   11.90
   1  -3 -12    6.30    9.30
   1  -3 -11   46.90    8.80
   1  -3 -10   19.00    7.60
   1  -3  -9   14.50    6.60
   1  -3  -8   29.40    6.00
   1  -3  -7  124.59    7.70
   1  -3  -6    7.00    3.10
   1  -3  -5   64.99   14.70
   1  -3  -4   24.00   12.50
   1  -3  -3    3.90   10.90
   1  -3  -2   45.50    6.90
   1  -3   0    6.40   13.30
   1  -3   1  248.78   22.60
   1  -3   3   31.40    6.60
   1  -3   4   69.09    9.60
   1  -3   5   39.80   13.70
   1  -3   6   58.79    4.60
   1  -3   7   66.89    6.80
   1  -3   8  112.89    8.60
   1  -3   9    9.40    6.70
   1  -3  10   29.60    7.60
   1  -3  11   11.80    8.40
   1  -3  12    8.10   11.20
   1  -4 -10   88.29   23.10
   1  -4  -9   12.80   12.60
   1  -4  -8   36.10   12.70
   1  -4  -7  278.77   22.10
   1  -4  -6   37.40   16.00
   1  -4  -5   14.90   15.20
   1  -4  -4    8.10   14.30
   1  -4  -3   19.80   13.70
   1  -4  -2    9.10    6.40
   1  -4   5  185.78   24.90
   1  -4   6    7.30   15.80
   1  -4   7    1.50    4.90
   1  -4   8   37.20   14.00
   1  -4   9    0.00    6.90
   1  -4  10   58.39   17.80
   1  -5  -6    0.00   16.40
   2   0 -14   17.40   12.90
   2   0 -13   17.00   12.30
   2   0 -12    6.70   10.30
   2   0 -11    0.00    9.10
   2   0 -10   68.89   10.00
   2   0  -9    0.00    7.20
   2   0  -8  101.19    9.50
   2   0  -7    0.30    5.10
   2   0  -6  181.88    8.90
   2   0  -5    0.60    3.80
   2   0  -4    7.70    3.20
   2   0  -3    0.00    2.80
   2   0  -2   73.29    4.70
   2   0  -1    2.40    1.80
   2   0   0   15.60    2.00
   2   0   1    0.00    2.20
   2   0   2  263.47   12.80
   2   0   3    0.00    4.40
   2   0   4 1772.92   52.99
   2   0   5    1.50    3.90
   2   0   6  628.34   22.50
   2   0   7    2.60    5.00
   2   0   8  401.66   22.00
   2   0   9    2.00    8.10
   2   0  10   60.19   10.60
   2   0  11    4.90   10.10
   2   0  12    4.00   11.20
   2   0  13    6.80   14.40
   2   0  14   99.59   16.70
   2  -1 -14    9.30    8.70
   2  -1 -13   81.99    9.30
   2  -1 -12  104.49    8.30
   2  -1 -11   51.49    6.60
   2  -1 -10  365.06   14.10
   2  -1  -9  335.87   12.60
   2  -1  -8   52.29    4.40
   2  -1  -7  113.09    5.20
   2  -1  -6   33.60    2.90
   2  -1  -5  739.13   17.40
   2  -1  -4   88.99    3.50
   2  -1  -3 1279.37   30.60
   2  -1  -2   24.70    6.00
   2  -1  -1  159.28    4.80
   2  -1   0    7.50    2.10
   2  -1   1  402.16   13.40
   2  -1   2 3559.14   86.49
   2  -1   3 2148.78   53.59
   2  -1   4  150.38    5.00
   2  -1   5   19.20    3.40
   2  -1   6  123.39    5.20
   2  -1   7  134.89    5.90
   2  -1   8    6.30    3.80
   2  -1   9    4.40    4.40
   2  -1  10    7.00    5.70
   2  -1  11   17.80    6.50
   2  -1  12    7.70    8.10
   2  -1  13   20.40   11.60
   2  -1  14   22.70   15.60
   2  -2 -13   42.90   10.90
   2  -2 -12   19.00    8.70
   2  -2 -11   85.79    7.50
   2  -2 -10   91.89    7.00
   2  -2  -9   10.10    5.00
   2  -2  -8    8.20    4.50
   2  -2  -7   86.59    5.10
   2  -2  -6   20.90    2.70
   2  -2  -5   22.00    2.50
   2  -2  -4  358.56    9.50
   2  -2  -3  151.48    5.70
   2  -2  -1   45.30    6.30
   2  -2   0  141.69    8.70
   2  -2   1   39.00    7.70
   2  -2   2   15.80    6.90
   2  -2   3   43.20    4.50
   2  -2   4    2.30    3.30
   2  -2   5   66.19    4.70
   2  -2   6    8.00    6.00
   2  -2   7    0.00    5.20
   2  -2   8   26.50    6.30
   2  -2   9  344.87   15.20
   2  -2  10   29.60    7.40
   2  -2  11   52.39    8.20
   2  -2  12    4.60    8.40
   2  -2  13    4.10    9.40
   2  -3 -12    4.20   10.10
   2  -3 -11   13.00    7.70
   2  -3 -10   70.59    7.90
   2  -3  -9   10.80    6.50
   2  -3  -8   17.80    5.60
   2  -3  -7    8.90    3.80
   2  -3  -6   90.29    5.90
   2  -3  -5   13.70    4.30
   2  -3  -4  150.48   11.00
   2  -3  -3   53.19   12.70
   2  -3  -2   56.59   18.30
   2  -3  -1  189.98   13.20
   2  -3   0  112.49   15.70
   2  -3   1  356.56   34.70
   2  -3   4   36.00    7.00
   2  -3   5  182.18   11.00
   2  -3   6  196.78   11.50
   2  -3   7   18.80    5.90
   2  -3   8  332.27   16.20
   2  -3   9   28.30    6.70
   2  -3  10    0.00    7.00
   2  -3  11   84.89   10.90
   2  -3  12  104.79   14.50
   2  -4 -10   12.80   12.90
   2  -4  -9   93.69   14.90
   2  -4  -8   79.49   13.30
   2  -4  -7  170.08   15.20
   2  -4  -6  180.88   23.70
   2  -4  -5    6.50   14.40
   2  -4  -4   45.10   15.10
   2  -4  -2   47.70   13.90
   2  -4   6   43.40   17.30
   2  -4   7   29.70   17.40
   2  -4   8   75.59   15.50
   2  -4   9    1.30    7.10
   2  -4  10   85.59   35.70
   2  -5  -6   24.70   18.10
   2  -5  -5   18.40   18.00
   3   0 -14   71.29   14.40
   3   0 -13    3.50   11.40
   3   0 -12   33.50   10.90
   3   0 -11    0.30    9.00
   3   0 -10   52.69    9.60
   3   0  -9    2.70    7.50
   3   0  -8  639.44   33.10
   3   0  -7    5.20    4.90
   3   0  -6 1005.90   41.40
   3   0  -5    2.50    4.00
   3   0  -4  123.79    6.20
   3   0  -3    0.30    2.70
   3   0  -2 2906.61   99.19
   3   0  -1    6.10    4.90
   3   0   0 1724.23   75.59
   3   0   1    0.00    3.70
   3   0   2  593.24   23.10
   3   0   3    2.60    5.50
   3   0   4  487.95   15.90
   3   0   5    1.60    3.90
   3   0   6  248.08   16.20
   3   0   7    5.60    4.00
   3   0   8  369.66   22.40
   3   0   9    0.00    8.40
   3   0  10  128.29   13.10
   3   0  11    0.00   10.80
   3   0  12   38.90   13.00
   3   0  13    0.30   12.80
   3   0  14  174.78   26.70
   3  -1 -14   26.80    8.90
   3  -1 -13   56.89    8.40
   3  -1 -12  249.88   12.30
   3  -1 -11  609.04   21.10
   3  -1 -10  205.68    9.60
   3  -1  -9  258.97   10.70
   3  -1  -8  208.08    8.80
   3  -1  -7   47.70    4.00
   3  -1  -6   84.19    3.70
   3  -1  -5  290.67    8.20
   3  -1  -4  192.98    6.30
   3  -1  -3  110.89    4.50
   3  -1  -2  370.96    9.80
   3  -1  -1 2142.29   60.19
   3  -1   0   92.89    4.60
   3  -1   1 9999.00  264.57
   3  -1   2 4212.88  137.89
   3  -1   3  519.95   18.40
   3  -1   4   53.69    5.60
   3  -1   5  160.98    5.90
   3  -1   6    3.50    2.80
   3  -1   7   74.59    5.50
   3  -1   8   21.50    3.90
   3  -1   9   18.20    4.90
   3  -1  10  120.29    8.90
   3  -1  11    9.20    7.70
   3  -1  12   43.60   11.00
   3  -1  13    6.70   11.40
   3  -2 -13    8.30   10.00
   3  -2 -12   63.19    8.70
   3  -2 -11   92.09    7.30
   3  -2 -10  108.49    7.10
   3  -2  -9   60.69    5.70
   3  -2  -8    8.00    4.50
   3  -2  -7  184.28    8.00
   3  -2  -6   20.10    3.10
   3  -2  -5   69.79    3.70
   3  -2  -4  503.65   13.40
   3  -2  -3  737.13   20.80
   3  -2  -2  104.49    6.70
   3  -2  -1   75.29    7.60
   3  -2   0  144.39    9.70
   3  -2   1 1327.77   44.20
   3  -2   2    0.30    6.60
   3  -2   3   43.40    3.60
   3  -2   4    8.90    3.70
   3  -2   5   37.20    4.10
   3  -2   6    4.20    4.20
   3  -2   7   20.30   10.10
   3  -2   8  389.96   18.10
   3  -2   9   13.70    7.30
   3  -2  10  111.39    8.80
   3  -2  11   39.10    8.40
   3  -2  12    7.20   10.30
   3  -2  13    3.50   10.60
   3  -3 -12   13.40    8.90
   3  -3 -11    5.70    7.60
   3  -3 -10   95.69    8.30
   3  -3  -9   13.60    6.40
   3  -3  -8   31.00    4.90
   3  -3  -7   34.40    5.40
   3  -3  -6   10.30    2.50
   3  -3  -5   11.00    3.10
   3  -3  -4   73.79   13.90
   3  -3  -3  136.59   16.70
   3  -3  -2    5.50    7.10
   3  -3  -1    7.70    6.60
   3  -3   0  225.88   15.30
   3  -3   1   39.90   10.80
   3  -3   2   26.20    8.50
   3  -3   3  196.68   11.20
   3  -3   4   52.19    6.30
   3  -3   5   82.89    7.70
   3  -3   6   96.29    8.80
   3  -3   7  482.85   21.20
   3  -3   8   65.49    8.20
   3  -3   9   43.30    7.90
   3  -3  10    3.70    7.20
   3  -3  11  139.19   10.40
   3  -4 -10    0.00   12.60
   3  -4  -9    1.40   10.80
   3  -4  -8    7.20   11.10
   3  -4  -7   15.00   10.70
   3  -4  -6   14.60   14.70
   3  -4  -5    7.20   13.70
   3  -4  -4   47.10   15.50
   3  -4  -3    0.00   12.90
   3  -4  -1   16.30   12.70
   3  -4   0   37.00    6.90
   3  -4   6    7.80   12.80
   3  -4   7    0.00   15.70
   3  -4   8    0.00    6.30
   3  -4   9    2.70    7.20
   3  -5  -6  269.77   32.30
   3  -5  -5  285.07   32.10
   3  -5  -4  233.78   28.20
   4   0 -14  116.09   15.50
   4   0 -13    2.00   11.20
   4   0 -12    7.30   10.40
   4   0 -11    1.30    9.50
   4   0 -10  271.27   18.60
   4   0  -9    5.10    7.50
   4   0  -8   73.99    8.30
   4   0  -7    4.70    5.90
   4   0  -6   32.20    5.40
   4   0  -5    0.90    4.20
   4   0  -4 1958.30   67.09
   4   0  -3    1.60    2.90
   4   0  -2   91.39    5.10
   4   0  -1    3.00    3.60
   4   0   0   38.40    4.10
   4   0   1    0.10    6.20
   4   0   2   24.60    7.80
   4   0   3    0.00    3.30
   4   0   4   21.00    7.10
   4   0   5    0.00    8.90
   4   0   6  204.28   14.30
   4   0   7    5.10    4.70
   4   0   8   75.99    9.50
   4   0   9    3.20    9.10
   4   0  10   40.70   11.20
   4   0  11    7.10   11.00
   4   0  12  139.39   15.70
   4   0  13    0.00   14.90
   4  -1 -14   17.20   12.00
   4  -1 -13   55.59    8.30
   4  -1 -12  249.18   12.00
   4  -1 -11   90.99    8.20
   4  -1 -10   30.80    5.80
   4  -1  -9   34.50    5.10
   4  -1  -8   21.20    4.40
   4  -1  -7  241.88    9.30
   4  -1  -6    2.30    3.50
   4  -1  -5  354.06   10.90
   4  -1  -4    2.30    2.80
   4  -1  -3  648.74   18.10
   4  -1  -2  132.39    7.10
   4  -1  -1  685.23   18.10
   4  -1   0 4475.95  120.19
   4  -1   1    7.80    4.00
   4  -1   2  502.95   18.80
   4  -1   3  278.47    9.70
   4  -1   4  342.17   10.30
   4  -1   5    0.00    6.20
   4  -1   6  189.88   11.30
   4  -1   7  675.93   25.20
   4  -1   8   33.30    4.90
   4  -1   9   30.70    5.30
   4  -1  10    8.70    7.30
   4  -1  11    5.70    7.90
   4  -1  12   51.19   10.30
   4  -1  13   28.90   12.40
   4  -2 -13   14.10    8.80
   4  -2 -12   35.20    6.40
   4  -2 -11   29.40    6.30
   4  -2 -10   10.80    5.50
   4  -2  -9   19.00    5.20
   4  -2  -8    9.80    4.50
   4  -2  -7  165.08    8.50
   4  -2  -6  380.16   14.30
   4  -2  -5   33.30    3.20
   4  -2  -4  100.19    4.30
   4  -2  -3   18.90    3.10
   4  -2  -2    2.10    3.20
   4  -2  -1    2.20    3.90
   4  -2   0 1619.24   46.80
   4  -2   1  428.76   18.10
   4  -2   2  852.91   33.60
   4  -2   3   25.20    3.60
   4  -2   4  146.19    8.90
   4  -2   5   43.00    6.30
   4  -2   6    5.80   16.10
   4  -2   7  152.38   15.60
   4  -2   8   19.00    6.80
   4  -2   9  147.19    8.90
   4  -2  10    3.10    8.30
   4  -2  11   10.80    9.00
   4  -2  12    4.30   11.00
   4  -2  13   49.20   14.60
   4  -3 -12   13.50    8.70
   4  -3 -11   40.90    8.10
   4  -3 -10   15.60    7.00
   4  -3  -9   45.10    5.50
   4  -3  -8   85.29    7.00
   4  -3  -7   41.30    5.60
   4  -3  -6  216.28    9.80
   4  -3  -5    2.20    3.10
   4  -3  -4   15.70    5.70
   4  -3  -3   57.89   12.20
   4  -3  -2  109.19   10.50
   4  -3  -1   55.89   12.40
   4  -3   0  263.07   19.80
   4  -3   2    1.30    9.40
   4  -3   4   16.70   10.60
   4  -3   6  791.92   53.09
   4  -3   7   38.60    7.70
   4  -3   8    1.30    8.00
   4  -3   9   19.10    7.60
   4  -3  10   13.20    7.30
   4  -3  11   10.60    9.40
   4  -4  -9    3.20   10.90
   4  -4  -8    2.30   10.20
   4  -4  -7   14.50   10.40
   4  -4  -6   26.30   10.10
   4  -4  -5    0.00   13.30
   4  -4  -4   63.89   15.00
   4  -4  -3  171.18   21.30
   4  -4  -2   75.59   15.50
   4  -4   7    0.00   16.30
   4  -4   8    0.00    6.50
   4  -4   9    0.00    8.20
   4  -5  -6    6.20   16.90
   4  -5  -5    0.00   16.90
   4  -5  -4  106.59   20.70
   4  -5  -3    0.80   14.80
   5   0 -14  156.48   17.50
   5   0 -13   14.80   11.30
   5   0 -12   22.90   11.10
   5   0 -11    1.50    9.50
   5   0  -9    1.20    7.40
   5   0  -8  979.50   48.30
   5   0  -7    0.00    5.60
   5   0  -6   26.70    5.30
   5   0  -5    0.00    4.30
   5   0  -4   77.09    5.10
   5   0  -3    1.30    3.30
   5   0  -2 2390.56   91.79
   5   0  -1    0.90    7.70
   5   0   0  657.23   29.60
   5   0   1    0.00    4.20
   5   0   2  620.54   40.10
   5   0   3    0.00    5.10
   5   0   4    4.80    4.20
   5   0   5    0.00    6.90
   5   0   6  494.05   20.90
   5   0   7    3.90    6.70
   5   0   8  578.84   30.30
   5   0   9    1.50    9.10
   5   0  10    5.40   10.10
   5   0  11    2.50   11.10
   5   0  12   97.19   18.50
   5   0  13    3.60   14.00
   5  -1 -13    7.90    8.30
   5  -1 -12   24.90    7.00
   5  -1 -11   24.50    6.10
   5  -1 -10   32.10    5.60
   5  -1  -9   95.79    6.30
   5  -1  -8    5.40    4.30
   5  -1  -7   34.20    4.10
   5  -1  -6   13.20    3.70
   5  -1  -5    1.60    2.60
   5  -1  -4  383.56   11.50
   5  -1  -3    7.40    2.90
   5  -1  -2   47.30    3.60
   5  -1  -1  245.88    9.00
   5  -1   0  693.13   20.50
   5  -1   1  726.03   24.50
   5  -1   2  261.17   14.30
   5  -1   3  141.19    7.10
   5  -1   4   59.89    3.60
   5  -1   5   54.59    4.40
   5  -1   6   10.30   16.30
   5  -1   7    6.30    5.50
   5  -1   8   14.60    4.80
   5  -1   9   53.99    6.40
   5  -1  10    2.30    7.10
   5  -1  11    1.50    6.40
   5  -1  12   31.40   10.60
   5  -1  13   22.10   12.70
   5  -2 -13    1.30    8.50
   5  -2 -12   77.49    8.00
   5  -2 -11   39.20    6.50
   5  -2 -10   81.39    6.60
   5  -2  -9  136.19    8.30
   5  -2  -8   34.90    4.70
   5  -2  -7    1.20    1.50
   5  -2  -6   17.60    4.50
   5  -2  -5  468.75   14.60
   5  -2  -4  176.58    6.60
   5  -2  -3  286.57    8.40
   5  -2  -2    1.60    2.70
   5  -2  -1   62.69    3.50
   5  -2   0    5.20    4.50
   5  -2   1  374.66   13.60
   5  -2   2  794.22   30.00
   5  -2   3 1011.20   37.00
   5  -2   4  545.05   21.20
   5  -2   5   21.30    4.30
   5  -2   6   96.49   11.40
   5  -2   7   21.90   15.60
   5  -2   8   10.40    7.00
   5  -2   9  145.39   10.60
   5  -2  10    9.90    8.20
   5  -2  11    3.40    9.30
   5  -2  12   10.70   10.20
   5  -3 -11    5.80    7.40
   5  -3 -10    1.00    6.70
   5  -3  -9   46.00    6.90
   5  -3  -8   10.60    5.90
   5  -3  -7    2.30    1.90
   5  -3  -6    0.20    1.20
   5  -3  -5   15.90    3.50
   5  -3  -4   17.30    4.60
   5  -3  -3   31.70    6.10
   5  -3  -2   10.70    7.60
   5  -3  -1    3.10    6.70
   5  -3   0   11.80    7.70
   5  -3   1   18.10    9.30
   5  -3   2   39.70    7.80
   5  -3   3   58.49    7.30
   5  -3   5   56.99    5.60
   5  -3   6   43.60    9.60
   5  -3   7    4.30   15.60
   5  -3   8    7.60    9.60
   5  -3   9   24.80   12.20
   5  -3  10  323.27   21.80
   5  -3  11    5.70   11.00
   5  -4  -9   38.70   11.50
   5  -4  -8    0.00    9.80
   5  -4  -7  122.49   12.80
   5  -4  -6   13.60   10.00
   5  -4  -5    0.00   13.60
   5  -4  -4    0.00   12.80
   5  -4  -3  183.78   21.90
   5  -4  -2    0.00   11.60
   5  -4  -1   48.30   12.60
   5  -4   7   54.29  145.99
   5  -4   9    0.00    8.60
   5  -5  -6    7.60   18.00
   5  -5  -5  191.88   25.90
   5  -5  -4   58.29   18.40
   5  -5  -3   22.40   16.00
   6   0 -14   30.00   17.50
   6   0 -13    6.80   11.10
   6   0 -12    7.20   10.60
   6   0 -11    7.40    9.90
   6   0 -10 3013.20  144.79
   6   0  -9    0.60    7.70
   6   0  -8   20.50    6.20
   6   0  -7    4.50    6.10
   6   0  -6  530.95   27.60
   6   0  -5    1.90    4.10
   6   0  -4   93.29    5.90
   6   0  -3    0.00    4.10
   6   0  -2  146.99    8.00
   6   0  -1    0.00    8.60
   6   0   0  216.28   14.20
   6   0   1    1.90    3.80
   6   0   2    6.60    5.10
   6   0   3    0.00   13.50
   6   0   4    6.70    7.40
   6   0   5    0.00    5.70
   6   0   6   44.30   11.50
   6   0   7   13.40   15.40
   6   0   8   19.60   11.40
   6   0   9    3.70   12.30
   6   0  10   50.69   14.90
   6   0  11   12.00   15.50
   6   0  12   35.10   20.60
   6   0  13   10.30   22.50
   6  -1 -13   12.30    8.20
   6  -1 -12    7.30    6.60
   6  -1 -11  105.19    7.30
   6  -1 -10    4.60    5.30
   6  -1  -9   28.10    5.30
   6  -1  -8   17.70    4.50
   6  -1  -7   29.10    4.50
   6  -1  -6  146.39    8.50
   6  -1  -5    0.10    2.90
   6  -1  -4  869.71   23.90
   6  -1  -3   22.80    3.20
   6  -1  -2    5.60    3.00
   6  -1  -1   29.10    3.40
   6  -1   0  470.85   15.00
   6  -1   1    0.40    3.70
   6  -1   2 2249.68   81.99
   6  -1   3  272.07   11.00
   6  -1   4   61.89    5.80
   6  -1   5   79.69   10.00
   6  -1   6   22.70   17.50
   6  -1   7   33.90   10.30
   6  -1   8   54.99    7.10
   6  -1   9   12.40    7.90
   6  -1  10   66.39    9.50
   6  -1  11    5.20    9.70
   6  -1  12    2.90   10.40
   6  -1  13   30.60   12.40
   6  -2 -13    0.20    9.20
   6  -2 -12   11.60    6.40
   6  -2 -11   22.50    6.10
   6  -2 -10    3.00    5.40
   6  -2  -9   23.90    5.00
   6  -2  -8    1.90    2.90
   6  -2  -7    0.60    1.40
   6  -2  -6    0.30    1.40
   6  -2  -5    0.50    1.50
   6  -2  -4  269.67    8.80
   6  -2  -3  138.09    5.40
   6  -2  -2    8.70    2.80
   6  -2  -1    2.40    2.70
   6  -2   0  617.64   18.40
   6  -2   1   16.30    4.40
   6  -2   2  876.11   33.30
   6  -2   3 1660.73  104.19
   6  -2   5  358.36   19.40
   6  -2   6  148.49   12.40
   6  -2   9  269.07   18.80
   6  -2  10    7.70    9.60
   6  -2  11    3.70   10.90
   6  -2  12   12.10   13.20
   6  -3 -11    6.50    7.50
   6  -3 -10   26.40    4.90
   6  -3  -9  113.09    8.30
   6  -3  -8  177.38    9.70
   6  -3  -7    9.20    5.60
   6  -3  -6   19.20    5.20
   6  -3  -5  224.88   10.20
   6  -3  -4   11.20    3.10
   6  -3  -3  111.89    7.30
   6  -3  -2  126.09    7.10
   6  -3  -1  258.97   12.70
   6  -3   0   31.80    4.00
   6  -3   6    0.00   17.50
   6  -3   9   41.10   11.80
   6  -3  10   23.20   10.40
   6  -3  11    1.00   10.80
   6  -4  -9   30.90   11.30
   6  -4  -8   30.20   10.50
   6  -4  -7   11.10    9.70
   6  -4  -6   81.79   11.60
   6  -4  -5  213.58   24.70
   6  -4  -4  405.06   36.60
   6  -4  -3    0.00   12.20
   6  -4  -2  261.27   25.70
   6  -4  -1    0.00   11.30
   6  -4   0    3.90   10.40
   6  -4   7    0.00  147.49
   6  -5  -5    0.00   16.80
   6  -5  -4    0.00   17.00
   6  -5  -3   52.59   17.90
   6  -5  -2    0.90   11.80
   7   0 -13    5.00   11.40
   7   0 -12    6.80   10.60
   7   0 -11    3.20    9.00
   7   0 -10  650.93   33.60
   7   0  -9    0.30    7.40
   7   0  -8   28.90    7.00
   7   0  -7    5.00    5.80
   7   0  -6  158.28   11.30
   7   0  -5    0.00    5.20
   7   0  -4  742.83   29.20
   7   0  -3    1.40    4.70
   7   0  -2   62.19    5.70
   7   0  -1    0.00    4.70
   7   0   0  604.54   28.70
   7   0   1   10.10   13.80
   7   0   2  235.18   13.90
   7   0   3    1.20    6.50
   7   0   4  148.69   18.60
   7   0   5    0.00    9.50
   7   0   6  300.67   17.20
   7   0   9    0.00   12.90
   7   0  10   34.20   14.70
   7   0  11    0.00   16.20
   7   0  12    0.00   22.50
   7   0  13    0.00   19.80
   7  -1 -13   27.40    7.50
   7  -1 -12   14.10    6.60
   7  -1 -11   44.50    6.40
   7  -1 -10    5.30    5.30
   7  -1  -9  123.59    6.80
   7  -1  -8    2.50    4.80
   7  -1  -7   15.10    3.70
   7  -1  -6   15.80    4.90
   7  -1  -5  570.04   23.00
   7  -1  -4  149.88    6.10
   7  -1  -3  269.17    8.80
   7  -1  -2    3.80    3.40
   7  -1  -1  105.29    5.10
   7  -1   0   81.59    5.60
   7  -1   1 1222.98   41.50
   7  -1   2  542.25   21.40
   7  -1   3  165.08    9.00
   7  -1   8  192.78   21.80
   7  -1   9   13.00   14.40
   7  -1  10    0.20    9.60
   7  -1  11    5.70   11.20
   7  -1  12   11.90   13.50
   7  -2 -12   14.10    6.50
   7  -2 -11   27.40    6.10
   7  -2 -10   15.30    5.50
   7  -2  -9    4.90    4.60
   7  -2  -8   14.30    5.50
   7  -2  -7   53.89    5.60
   7  -2  -6   49.20    5.90
   7  -2  -5    0.10    1.10
   7  -2  -4  165.58    7.20
   7  -2  -3   39.30    3.40
   7  -2  -2  142.59    5.60
   7  -2  -1   65.89    4.00
   7  -2   0   70.19    6.60
   7  -2   1  868.41   28.20
   7  -2   2   51.69    7.50
   7  -2   4   40.80    6.70
   7  -2   5   83.79   11.60
   7  -2   6  218.88   23.30
   7  -2   7 1233.98   79.29
   7  -2   9   13.20   14.80
   7  -2  10    0.00    9.90
   7  -2  11    0.00   17.60
   7  -2  12   20.80   13.40
   7  -3 -11   58.09    8.30
   7  -3 -10   10.80    5.20
   7  -3  -9   29.80    6.80
   7  -3  -8   56.19    6.90
   7  -3  -7   36.20    5.90
   7  -3  -6    0.10    1.20
   7  -3  -5   42.20    5.10
   7  -3  -4  146.69    7.40
   7  -3  -3    1.90    4.60
   7  -3  -2  241.68   10.10
   7  -3  -1   25.70    5.40
   7  -3   0   88.19   10.10
   7  -3   1    9.10    4.90
   7  -3   3   42.80   11.10
   7  -3   4   85.49   11.10
   7  -3   5   59.89   10.50
   7  -3   7   41.30   20.50
   7  -3   9    3.50   11.20
   7  -3  10    5.40    9.80
   7  -4  -9   14.70   11.50
   7  -4  -8   14.10   10.30
   7  -4  -7  147.29   14.80
   7  -4  -6   85.29   11.80
   7  -4  -5  182.38   23.00
   7  -4  -4   25.50   13.60
   7  -4  -3  221.58   24.10
   7  -4  -2   52.89   13.30
   7  -4  -1   23.30   11.80
   7  -4   0  108.29   14.90
   7  -5  -5   21.30   17.00
   7  -5  -4    0.00   17.00
   7  -5  -3    0.00    9.00
   8   0 -13   10.30   11.10
   8   0 -12   11.20   10.40
   8   0 -11    0.00    8.50
   8   0 -10  126.89   11.80
   8   0  -9    3.20    8.00
   8   0  -8  187.78   13.30
   8   0  -7    0.20    6.30
   8   0  -6   27.90    6.00
   8   0  -5    2.90    5.00
   8   0  -4   15.00    5.60
   8   0  -3    0.00    6.50
   8   0  -2  368.16   16.20
   8   0  -1    0.00    5.60
   8   0   0  204.98   12.30
   8   0   1    0.00    6.20
   8   0   2   88.09   10.90
   8   0   4  153.78   11.30
   8   0   5    0.00   13.60
   8   0  10    0.00   14.60
   8   0  11    1.40   16.20
   8   0  12   17.00   19.20
   8  -1 -13  114.79    9.10
   8  -1 -12   11.50    6.50
   8  -1 -11   11.30    5.70
   8  -1 -10    8.30    5.40
   8  -1  -9   46.30    5.60
   8  -1  -8  243.48   12.90
   8  -1  -7  567.64   23.00
   8  -1  -6   55.39    5.90
   8  -1  -5    9.00    3.00
   8  -1  -4   77.49    6.10
   8  -1  -3  184.58    7.60
   8  -1  -2   65.79    4.30
   8  -1  -1   18.00    3.80
   8  -1   0  126.09    6.50
   8  -1   1  141.49    8.40
   8  -1   2   60.99    6.40
   8  -1   3  251.17   15.00
   8  -1   5   33.40    7.90
   8  -1   7  145.29   15.30
   8  -1  10  226.48   17.60
   8  -1  11    0.00   11.40
   8  -1  12   14.90   12.90
   8  -2 -12   10.90    6.30
   8  -2 -11   21.60    5.70
   8  -2 -10   44.00    5.90
   8  -2  -9    1.70    2.70
   8  -2  -8   32.90    6.00
   8  -2  -7    8.90    5.90
   8  -2  -6    0.20    1.20
   8  -2  -5   22.20    5.20
   8  -2  -4   99.49    6.70
   8  -2  -3    0.50    3.60
   8  -2  -2  113.19    4.90
   8  -2  -1  406.66   12.50
   8  -2   0  292.97    9.70
   8  -2   1   23.30    3.70
   8  -2   2   63.39    7.60
   8  -2   5   27.30    8.90
   8  -2  10    6.60   10.50
   8  -2  11   11.10   11.50
   8  -3 -11   18.50    5.00
   8  -3 -10   16.30    4.60
   8  -3  -9   12.80    6.80
   8  -3  -8   20.60    6.40
   8  -3  -7    9.00    5.70
   8  -3  -6   64.29    6.00
   8  -3  -5   58.99    6.40
   8  -3  -4   65.29    6.10
   8  -3  -3    0.90    3.70
   8  -3  -2  243.08   14.70
   8  -3  -1    3.50    4.30
   8  -3   0   25.40    6.50
   8  -3   1  124.79   15.50
   8  -3   2  129.09   13.20
   8  -3   3  108.29   12.30
   8  -3   9   12.80   11.60
   8  -3  10    0.00   12.60
   8  -4  -8   13.70   11.10
   8  -4  -7   34.00   10.80
   8  -4  -6    7.20    5.10
   8  -4  -5    0.50    5.20
   8  -4  -4    4.30    5.70
   8  -4  -3    8.70   13.50
   8  -4  -2   50.99   14.10
   8  -4  -1    0.00   10.60
   8  -4   0   42.60   10.70
   8  -5  -4    3.40   10.40
   9   0 -13   15.10   11.50
   9   0 -12   85.69    9.90
   9   0 -11    6.90    9.50
   9   0 -10  150.58   12.30
   9   0  -9    4.40    8.30
   9   0  -8   24.20    7.00
   9   0  -7    3.30    6.10
   9   0  -6    0.60    5.30
   9   0  -5    1.30    4.50
   9   0  -4   21.00    6.30
   9   0  -3    0.20    6.40
   9   0  -2 1155.68   56.69
   9   0  -1    0.00    5.00
   9   0   0   83.59   10.40
   9   0   1    0.00    4.50
   9   0   3    0.00   13.00
   9   0   4 2525.85  158.48
   9   0   5    0.00    8.60
   9   0  10   46.20   16.70
   9   0  11    0.00   15.90
   9   0  12    0.00   22.30
   9  -1 -13   16.80    7.20
   9  -1 -12   23.90    6.80
   9  -1 -11   19.00    6.10
   9  -1 -10    8.90    5.30
   9  -1  -9  317.27   16.00
   9  -1  -8  623.54   25.60
   9  -1  -7  186.28   10.90
   9  -1  -6   36.60    5.70
   9  -1  -5   30.30    5.30
   9  -1  -4    2.20    3.30
   9  -1  -3  173.48    9.70
   9  -1  -2  149.19    8.70
   9  -1  -1   42.40    4.60
   9  -1   0   22.90    5.70
   9  -1   1    1.40    3.70
   9  -1   2  128.39   15.50
   9  -1   5   28.00    7.80
   9  -1  10  366.26   34.70
   9  -1  11    5.60   11.10
   9  -1  12    7.60   15.00
   9  -2 -12   20.00    6.20
   9  -2 -11   13.90    5.50
   9  -2 -10    6.70    5.00
   9  -2  -9  117.59    8.10
   9  -2  -8   18.90    6.70
   9  -2  -7   19.70    6.30
   9  -2  -6   35.20    6.10
   9  -2  -5   40.60    5.80
   9  -2  -4   64.89    6.20
   9  -2  -3   11.50    5.10
   9  -2  -2   94.99    5.10
   9  -2  -1   38.70    4.40
   9  -2   0  357.06   13.40
   9  -2   1  216.28   11.50
   9  -2   2   39.30    5.30
   9  -2   5    0.00   16.70
   9  -2  11    0.00   12.30
   9  -3 -10   40.70    8.00
   9  -3  -9   24.70    6.90
   9  -3  -8    0.10    1.30
   9  -3  -7   44.70    6.20
   9  -3  -6    8.40    6.10
   9  -3  -5   96.69    7.60
   9  -3  -4  189.58   10.60
   9  -3  -3  364.06   16.00
   9  -3  -2  414.46   17.50
   9  -3  -1  162.88    8.30
   9  -3   0   34.30    6.20
   9  -3   2  181.78   16.00
   9  -3   3    0.50    5.10
   9  -3   9    0.00   11.50
   9  -3  10   24.00   15.10
   9  -4  -8   43.50   12.00
   9  -4  -7   60.69   11.60
   9  -4  -6    2.90    5.20
   9  -4  -5   10.10    5.80
   9  -4  -4   74.59    8.00
   9  -4  -3   30.90   13.80
   9  -4  -2    9.70    6.60
   9  -4  -1   23.40    6.90
   9  -4   0   11.70    5.30
   9  -4   3   19.80    9.90
   9  -4   8   50.89   37.90
  10   0 -13    0.00   13.50
  10   0 -12   12.90    8.90
  10   0 -11    3.00    9.00
  10   0 -10   25.00    8.90
  10   0  -9    4.10    8.20
  10   0  -8   17.80    7.40
  10   0  -7    1.80    6.60
  10   0  -6   58.59    6.90
  10   0  -5    0.00    4.70
  10   0  -4  319.57   18.00
  10   0  -3    0.00    6.60
  10   0  -2  177.68   12.50
  10   0  -1    0.00    7.70
  10   0   0  141.49   13.90
  10   0   1    0.00    6.90
  10   0   2  510.45   34.90
  10   0  11    8.60   17.70
  10   0  12   56.89   19.10
  10  -1 -12   12.30    6.40
  10  -1 -11   13.50    5.90
  10  -1 -10   71.79    6.20
  10  -1  -9   74.19    6.50
  10  -1  -8   95.39    8.00
  10  -1  -7    0.50    1.60
  10  -1  -6   94.69    7.30
  10  -1  -5    0.30    2.50
  10  -1  -4   43.00    5.80
  10  -1  -3  260.17   12.50
  10  -1  -2   66.59    5.90
  10  -1  -1    0.00    4.90
  10  -1   0   85.99    6.40
  10  -1   1   19.90    6.30
  10  -1   2  152.78   14.00
  10  -1   4    5.10   15.30
  10  -1   6    4.40    7.80
  10  -1  11   23.30   21.40
  10  -2 -12   15.20    7.50
  10  -2 -11   15.90    5.90
  10  -2 -10  111.69    8.40
  10  -2  -9   37.60    6.60
  10  -2  -8   92.79    8.30
  10  -2  -7    0.30    1.50
  10  -2  -6    0.30    1.30
  10  -2  -5   33.40    6.10
  10  -2  -4    6.20    5.20
  10  -2  -3  204.48   10.80
  10  -2  -2  166.48    9.30
  10  -2  -1  212.08   10.70
  10  -2   0    2.40    4.70
  10  -2   1    5.30    5.30
  10  -2   2   58.69   10.00
  10  -2   3   68.09   10.20
  10  -2   4   80.79   19.50
  10  -2   5   44.80   10.70
  10  -2  11   10.40   16.60
  10  -3 -10    1.70    2.10
  10  -3  -9   18.40    7.10
  10  -3  -8   18.60    6.40
  10  -3  -7    0.50    1.40
  10  -3  -6    0.10    1.20
  10  -3  -5   35.20    6.20
  10  -3  -4  773.72   30.70
  10  -3  -3   18.00    5.60
  10  -3  -2   32.50    5.80
  10  -3  -1    0.00    2.90
  10  -3   0    3.40    3.30
  10  -3   1    2.70    3.90
  10  -3   4   10.10   19.80
  10  -4  -8    0.00    1.60
  10  -4  -7    6.00   10.30
  10  -4  -6    8.30    5.50
  10  -4  -5    0.50    5.10
  10  -4  -4    2.60    5.50
  10  -4  -3   38.70    7.40
  10  -4  -2    5.90    7.20
  10  -4  -1    4.00    5.50
  10  -4   0    0.00    9.70
  10  -4   1    0.00   10.00
  10  -4   4   39.50   11.70
  11   0 -12   84.09    9.80
  11   0 -11   19.80    9.00
  11   0 -10   13.30    9.20
  11   0  -9    6.10    8.70
  11   0  -8   70.59    8.90
  11   0  -7    0.00    6.70
  11   0  -6    2.80    6.60
  11   0  -5    0.00    5.80
  11   0  -4  282.67   17.00
  11   0  -3    0.00    6.80
  11   0  -2  308.37   17.70
  11   0  -1    4.10    7.80
  11   0   0   10.10    7.20
  11   0   2   56.49   16.20
  11   0   3    2.20    8.10
  11   0  11    0.00   16.90
  11  -1 -12   15.40    6.40
  11  -1 -11   41.80    6.40
  11  -1 -10   12.50    6.50
  11  -1  -9  214.58   13.10
  11  -1  -8   12.80    4.50
  11  -1  -7   49.80    7.00
  11  -1  -6   19.60    6.20
  11  -1  -5    2.10    2.50
  11  -1  -4   36.90    6.00
  11  -1  -3   19.20    5.60
  11  -1  -2    1.20    5.00
  11  -1  -1   18.80    5.40
  11  -1   0    8.90    4.90
  11  -1   1   14.60    5.00
  11  -1   2   94.79   11.30
  11  -1  11    0.00   19.80
  11  -2 -11   19.80    6.10
  11  -2 -10    7.00    4.70
  11  -2  -9   20.40    7.50
  11  -2  -8   34.70    7.50
  11  -2  -7  296.57   15.00
  11  -2  -6  183.38   11.30
  11  -2  -5   11.50    5.80
  11  -2  -4   18.20    6.30
  11  -2  -3    4.40    5.80
  11  -2  -2   10.00    5.40
  11  -2  -1   45.40    5.70
  11  -2   0    8.30    5.90
  11  -2   1    7.50    4.80
  11  -2   2   29.30    6.70
  11  -2   5    0.00   19.50
  11  -2   6  174.28   24.30
  11  -3 -10    6.90    7.60
  11  -3  -9    1.10    1.90
  11  -3  -8   27.90    6.60
  11  -3  -7    5.40    6.80
  11  -3  -6    6.00    6.30
  11  -3  -5   68.69    7.30
  11  -3  -4    1.10    5.80
  11  -3  -3   13.50    5.80
  11  -3  -2   14.00    5.90
  11  -3  -1    6.90   10.40
  11  -3   0  191.58   14.20
  11  -3   1  107.99    9.10
  11  -3   2   22.50   10.80
  11  -3   7    8.80   18.70
  11  -4  -7   30.40   10.40
  11  -4  -6   43.30   10.50
  11  -4  -5    8.80    5.50
  11  -4  -4    2.20    6.50
  11  -4  -3   44.20    7.90
  11  -4  -2    7.10    7.20
  11  -4  -1    3.30    9.60
  11  -4   0    0.00   10.40
  11  -4   1   29.40   11.80
  11  -4   2    3.60   11.70
  11  -4   5   22.80   12.20
  12   0 -12   38.10    8.80
  12   0 -11   11.00   10.10
  12   0 -10   12.10    8.80
  12   0  -9    4.40    7.40
  12   0  -8   14.80    7.80
  12   0  -7    0.00    7.30
  12   0  -6    1.80    6.30
  12   0  -5    0.00    6.00
  12   0  -4  173.98   13.10
  12   0  -3    2.20    7.40
  12   0  -2  151.58   12.00
  12   0  -1    0.00    8.20
  12   0   0   32.20    8.30
  12   0   6    0.00   10.90
  12   0  11    0.00   33.80
  12  -1 -12    9.40    8.00
  12  -1 -11   16.20    7.00
  12  -1 -10   86.19    7.70
  12  -1  -9    7.90    5.30
  12  -1  -8  132.29    9.50
  12  -1  -7   16.90    6.80
  12  -1  -6   15.60    6.50
  12  -1  -5    1.50    2.20
  12  -1  -4    6.50    3.70
  12  -1  -3  154.88    9.60
  12  -1  -2   81.59    7.00
  12  -1  -1   27.00    6.10
  12  -1   0  221.88   12.00
  12  -1   1   71.49    6.50
  12  -1   2   17.70    8.50
  12  -1   5   15.10    9.70
  12  -2 -11    9.60    5.70
  12  -2 -10    0.60    2.80
  12  -2  -9   18.50    7.80
  12  -2  -8    0.20    1.30
  12  -2  -7  389.16   18.10
  12  -2  -6  101.69    8.30
  12  -2  -5   97.59    8.20
  12  -2  -4    6.10    6.30
  12  -2  -3  125.39    8.50
  12  -2  -2  463.45   20.10
  12  -2  -1  944.31   36.70
  12  -2   0   45.50    6.20
  12  -2   1   17.50    7.10
  12  -2   2   35.10    7.10
  12  -2   3    0.00    9.80
  12  -3  -9   39.90    7.60
  12  -3  -8    0.10    1.50
  12  -3  -7   20.90    7.30
  12  -3  -6   40.90    7.30
  12  -3  -5    1.30    6.00
  12  -3  -4    4.90    6.30
  12  -3  -3   92.79    7.70
  12  -3  -2   18.40    6.20
  12  -3  -1    7.10    5.90
  12  -3   0   97.89   10.00
  12  -3   1    8.60   10.80
  12  -3   2   76.69    8.40
  12  -3   3   19.90   11.80
  12  -4  -6   10.20    7.20
  12  -4  -5    4.90    6.50
  12  -4  -4    0.50    6.50
  12  -4  -3    3.70    7.50
  12  -4  -2    7.10    7.10
  12  -4  -1   91.39   12.90
  12  -4   0    0.00   10.80
  12  -4   1   18.70   12.00
  12  -4   2   21.70   13.80
  12  -4   3    4.40   12.00
  13   0 -11   14.30    9.40
  13   0 -10   10.30    8.80
  13   0  -9    3.00    8.50
  13   0  -8    2.10    8.10
  13   0  -7    0.00    7.00
  13   0  -6   37.10   11.30
  13   0  -5    2.00    6.70
  13   0  -4   51.49    8.40
  13   0  -3    0.80    8.10
  13   0  -2    5.00    7.60
  13   0  -1    0.00    8.70
  13   0   0    0.30    7.90
  13   0   1    0.00    8.10
  13   0   2   34.50    9.70
  13   0   7    3.60   17.20
  13  -1 -11   26.70    7.10
  13  -1 -10   10.00    6.30
  13  -1  -9   38.70    6.50
  13  -1  -8   87.29    8.70
  13  -1  -7    0.80    1.90
  13  -1  -6   13.40    6.90
  13  -1  -5   26.50    7.00
  13  -1  -4    1.30    3.70
  13  -1  -3    6.90    6.20
  13  -1  -2  136.89    9.30
  13  -1  -1   18.30    6.30
  13  -1   0    1.70    5.90
  13  -1   1    0.00    5.40
  13  -1   2   25.60    6.70
  13  -1   6    0.00   20.20
  13  -1   7   36.20   21.80
  13  -2 -10    5.30    2.90
  13  -2  -9   56.79    8.70
  13  -2  -8  143.49   10.40
  13  -2  -7   35.60    7.40
  13  -2  -6   16.60    6.80
  13  -2  -5   12.50    6.70
  13  -2  -4    5.30    8.50
  13  -2  -3  797.82   32.00
  13  -2  -2   44.90    6.80
  13  -2  -1   11.60    5.90
  13  -2   0    1.30    6.00
  13  -2   1   11.50    7.40
  13  -2   2   60.79    8.30
  13  -2   3   51.19    7.80
  13  -2   4    0.00   10.30
  13  -3  -8    0.60    1.70
  13  -3  -7   32.30    7.80
  13  -3  -6    0.20    1.30
  13  -3  -5    4.60    6.60
  13  -3  -4   81.79    7.90
  13  -3  -3    8.10    6.30
  13  -3  -2   44.50    6.90
  13  -3  -1    5.40    6.20
  13  -3   0   18.20    8.00
  13  -3   1    0.00   11.80
  13  -3   4    4.00   12.60
  13  -4  -5    7.20    7.30
  13  -4  -4    6.40    6.50
  13  -4  -3    8.90    6.10
  13  -4  -2   22.00   10.60
  13  -4  -1    0.00   10.30
  13  -4   0    0.00   11.20
  13  -4   1   34.30   12.90
  13  -4   2   10.40   14.10
  13  -4   3   65.19   14.30
  13  -4   4   15.40   12.40
  14   0 -11   21.60   10.40
  14   0 -10   30.40    9.70
  14   0  -9    3.90    9.20
  14   0  -8   37.30    9.40
  14   0  -7    3.80    7.80
  14   0  -6   27.10    8.30
  14   0  -5    3.10    7.30
  14   0  -4   29.10    8.60
  14   0  -3    0.30    8.40
  14   0  -2   45.00    8.60
  14   0  -1    1.80    8.10
  14   0   0    0.00    8.40
  14   0   1    2.10    8.60
  14   0   2   16.60    9.30
  14   0   3    0.00   10.30
  14   0   8  313.17   30.00
  14  -1 -11    0.80    9.70
  14  -1 -10   28.40    6.70
  14  -1  -9    8.10    5.20
  14  -1  -8    2.90    4.50
  14  -1  -7    9.30    7.10
  14  -1  -6    0.50    1.80
  14  -1  -5   38.60    7.40
  14  -1  -4    1.90    4.10
  14  -1  -3   64.79    7.50
  14  -1  -2    5.70    6.20
  14  -1  -1   12.10    6.50
  14  -1   0  235.38   13.10
  14  -1   1    0.60    5.90
  14  -1   2    0.30    8.00
  14  -1   3    0.00    9.80
  14  -1   4    0.00   11.00
  14  -1   5    0.00   23.30
  14  -1   7   15.90   22.30
  14  -1   8    4.50   19.20
  14  -2 -10   37.90   10.20
  14  -2  -9   17.10    8.10
  14  -2  -8   76.19    8.80
  14  -2  -7   86.69    8.70
  14  -2  -6   19.20    7.20
  14  -2  -5   34.30    7.50
  14  -2  -4   54.59    7.70
  14  -2  -3   13.30    6.60
  14  -2  -2    1.40    6.50
  14  -2  -1    5.70    6.20
  14  -2   0    9.80    6.20
  14  -2   1    2.10    5.90
  14  -2   2   32.60    7.90
  14  -2   3   50.19   11.70
  14  -2   7    6.10   21.00
  14  -3  -8   32.60    8.60
  14  -3  -7   32.40    8.10
  14  -3  -6   58.79    8.20
  14  -3  -5   27.40    7.00
  14  -3  -4   98.29    8.70
  14  -3  -3   45.80    7.20
  14  -3  -2    9.10    6.70
  14  -3  -1   14.10    6.50
  14  -3   0   21.10    4.90
  14  -3   1    0.00   12.50
  14  -3   2   13.60   12.20
  14  -3   5    8.50   11.50
  14  -3   7   37.30   30.80
  14  -4  -4    5.00    8.30
  14  -4  -3    0.00    8.60
  14  -4  -2    0.00   10.00
  14  -4  -1    0.00   11.30
  14  -4   0    0.00   11.70
  14  -4   1    0.00   12.10
  14  -4   2   50.69   15.60
  14  -4   3   26.00   13.60
  15   0 -10   19.60    9.80
  15   0  -9    7.50    9.20
  15   0  -8   42.40   10.00
  15   0  -7    4.90    8.50
  15   0  -6  198.08   22.80
  15   0  -5    2.80    8.10
  15   0  -4    1.70    8.90
  15   0  -3    2.50   19.30
  15   0  -2   67.29    9.80
  15   0  -1    0.00    8.40
  15   0   0   33.40   11.00
  15   0   1    0.00    9.10
  15   0   2   24.30    9.80
  15   0   3    0.00    9.60
  15  -1 -10   11.40    6.90
  15  -1  -9   15.10    5.30
  15  -1  -8    8.50    5.10
  15  -1  -7   44.40    8.10
  15  -1  -6    0.20    1.90
  15  -1  -5    4.00    3.70
  15  -1  -4    1.80    4.60
  15  -1  -3    0.00    7.10
  15  -1  -2   30.80    7.40
  15  -1  -1  226.18   13.20
  15  -1   0  699.13   29.10
  15  -1   1    3.60    6.20
  15  -1   2    0.80    6.10
  15  -1   3   20.40   10.80
  15  -1   4    0.10    8.00
  15  -1   9   55.79   45.50
  15  -2  -9   21.80    8.70
  15  -2  -8   23.60    7.90
  15  -2  -7    0.40    1.60
  15  -2  -6   18.20    7.10
  15  -2  -5   18.90    7.30
  15  -2  -4   58.29    8.10
  15  -2  -3   37.80    7.50
  15  -2  -2   93.39    8.40
  15  -2  -1   23.10    6.70
  15  -2   0    4.60    6.60
  15  -2   1    1.10    6.40
  15  -2   2   25.70    6.60
  15  -2   3   23.20    5.20
  15  -2   8    0.00   30.00
  15  -3  -7   18.00    7.90
  15  -3  -6  177.48   11.70
  15  -3  -5   42.30    7.70
  15  -3  -4   47.50    8.00
  15  -3  -3   13.40    7.30
  15  -3  -2   14.40    7.30
  15  -3  -1   12.20    6.40
  15  -3   0   91.79   10.10
  15  -3   1    6.70    8.70
  15  -3   2    4.50    8.40
  15  -3   3    6.30   12.20
  15  -3   6   24.30   14.90
  15  -4  -1   12.10   11.20
  15  -4   0    0.00   11.30
  16   0 -10   17.70   13.70
  16   0  -9   18.30   10.70
  16   0  -8    4.90    9.40
  16   0  -7    2.00    9.70
  16   0  -6   32.70    7.70
  16   0  -5    9.60    8.50
  16   0  -4    1.00    9.40
  16   0  -3    0.00    9.60
  16   0  -2    0.20    8.60
  16   0  -1    0.00    8.90
  16   0   0  237.38   21.50
  16   0   1    0.00    9.30
  16   0   2   18.60   10.30
  16   0   3    1.70   10.70
  16   0   6    0.00   26.10
  16  -1  -9   15.10    6.30
  16  -1  -8   21.40    6.10
  16  -1  -7    1.40    2.30
  16  -1  -6    9.90    7.70
  16  -1  -5    6.20    4.40
  16  -1  -4    4.50    5.10
  16  -1  -3    1.30    5.60
  16  -1  -2  142.99   10.20
  16  -1  -1  363.46   17.80
  16  -1   0   91.19    8.80
  16  -1   1    0.00    6.60
  16  -1   2    1.90    6.40
  16  -1   3   13.10    6.40
  16  -1   4    8.50   11.20
  16  -2  -8   10.40    8.20
  16  -2  -7   12.00    7.80
  16  -2  -6   24.40    7.90
  16  -2  -5    0.30    1.30
  16  -2  -4   10.40    7.40
  16  -2  -3   10.30    7.50
  16  -2  -2    6.80    7.20
  16  -2  -1   30.80    7.40
  16  -2   0   13.00    7.20
  16  -2   1   28.80    7.30
  16  -2   2    2.30    7.40
  16  -2   3    4.20    7.60
  16  -2   4   15.80   12.10
  16  -3  -6    4.60    9.10
  16  -3  -5   31.20    8.40
  16  -3  -4    9.60    7.70
  16  -3  -3    6.60    7.60
  16  -3  -2   11.10    7.60
  16  -3  -1   52.79    9.50
  16  -3   0   12.60    8.90
  16  -3   1    0.00    9.20
  16  -3   2   24.30    9.30
  16  -3   3    0.00    8.90
  16  -3   4    0.00   13.10
  17   0  -9    4.10   11.50
  17   0  -8    7.70   10.50
  17   0  -7    3.70    9.30
  17   0  -6   17.60    8.40
  17   0  -5    7.10    9.50
  17   0  -4   28.40    9.90
  17   0  -3    2.80    9.80
  17   0  -2    2.70    9.60
  17   0  -1    0.00    8.40
  17   0   0   34.00   12.10
  17   0   1    0.00   10.10
  17   0   3    0.00   11.00
  17   0   4    0.00   11.80
  17   0   5    0.00   26.10
  17  -1  -8    9.20    6.10
  17  -1  -7    1.60    2.20
  17  -1  -6   46.00    8.30
  17  -1  -5    1.70    5.20
  17  -1  -4   20.80    5.80
  17  -1  -3   38.20    7.80
  17  -1  -2    4.50    7.30
  17  -1  -1   15.90    7.40
  17  -1   0    0.00    7.40
  17  -1   1    0.00    6.70
  17  -1   2    2.60    6.50
  17  -1   3    6.40    6.80
  17  -1   4    0.00    8.40
  17  -1   5    6.10   12.80
  17  -2  -7   19.40    8.50
  17  -2  -6    0.30    1.70
  17  -2  -5    0.30    1.50
  17  -2  -4   49.20    8.60
  17  -2  -3    5.30    7.50
  17  -2  -2    5.70    7.50
  17  -2  -1    7.40    7.30
  17  -2   0    5.10    7.00
  17  -2   1   12.80    7.20
  17  -2   2    2.70    8.10
  17  -2   3   17.80    8.50
  17  -2   4    8.20   12.90
  17  -2   5    3.70   13.00
  17  -2   6    0.00   15.20
  17  -3  -4    5.80    9.80
  17  -3  -3   29.20    8.40
  17  -3  -2    6.80    9.30
  17  -3  -1   10.30    9.40
  17  -3   0    7.80    9.40
  17  -3   1    0.60    9.50
  17  -3   2    0.00   16.10
  17  -3   3   23.40   14.10
  18   0  -8  107.99   14.60
  18   0  -7    7.80   10.80
  18   0  -6   56.39   10.60
  18   0  -5    6.70    9.60
  18   0  -4    4.40   10.30
  18   0  -3    0.00   18.20
  18   0  -2   40.70   10.30
  18   0  -1    0.00    8.80
  18   0   0  155.28   17.70
  18   0   1    5.70   12.40
  18   0   3    0.40   12.10
  18   0   4   17.60   11.60
  18   0   5    0.00   13.90
  18   0   6    0.00   27.20
  18  -1  -7   44.40    9.20
  18  -1  -6    4.20    4.60
  18  -1  -5    5.30    5.70
  18  -1  -4   61.09    8.90
  18  -1  -3   68.09    9.00
  18  -1  -2   17.70    6.60
  18  -1  -1    2.80    7.40
  18  -1   0    0.00    7.70
  18  -1   1   11.40    7.60
  18  -1   2    7.90    7.00
  18  -1   3    0.00    8.50
  18  -1   4    7.90   13.00
  18  -1   5    1.70   13.80
  18  -2  -6   14.40    9.00
  18  -2  -5   13.00    8.90
  18  -2  -4   26.80    8.50
  18  -2  -3   10.70    8.10
  18  -2  -2   12.30    7.70
  18  -2  -1   23.90    7.90
  18  -2   0   17.00    8.00
  18  -2   1    0.00    9.50
  18  -2   2    4.70    8.70
  18  -2   3    9.60   12.40
  18  -2   4   13.30   13.30
  19   0  -6   15.70   12.40
  19   0  -5    5.90   10.90
  19   0  -4    9.90   10.90
  19   0  -3    8.00   19.30
  19   0  -2   32.00   10.90
  19   0  -1    0.00    8.80
  19   0   0  457.75   35.70
  19   0   1   32.70   12.70
  19   0   2   69.99   13.20
  19   0   3    0.00   12.10
  19   0   4    0.00   12.80
  19   0   5    0.00   14.30
  19  -1  -6   14.50    9.20
  19  -1  -5    6.00    6.60
  19  -1  -4    3.00    6.80
  19  -1  -3    4.60    6.60
  19  -1  -2    2.40    6.80
  19  -1  -1    2.40    7.80
  19  -1   0    0.00    8.00
  19  -1   1   21.70    8.80
  19  -1   2   10.40    7.40
  19  -1   3    3.20    5.20
  19  -1   4   19.70   13.80
  19  -2  -4    6.40   10.00
  19  -2  -3    8.60    8.70
  19  -2  -2   10.40    8.70
  19  -2  -1   13.10    8.30
  19  -2   0   18.30    7.50
  19  -2   1    0.40    9.70
  19  -2   2    6.40   10.30
  20   0  -5    4.90   14.00
  20   0  -4    0.00   11.40
  20   0  -3    4.80   20.60
  20   0  -2  190.28   17.20
  20   0  -1    5.20    9.80
  20   0   0    9.80   10.00
  20   0   1    3.10   12.60
  20   0   2    2.80   12.30
  20   0   3    0.00   13.60
  20  -1  -4    8.70   10.00
  20  -1  -3    7.30    7.40
  20  -1  -2    4.30    7.10
  20  -1  -1    6.50    9.10
  20  -1   0    1.40    8.90
  20  -1   1    2.00    9.20
  20  -1   2    0.00    9.60
   0   0   0    0.00    0.00

_computing_structure_solution     'SHELXT 2014/5 (Sheldrick, 2014)'
;
_shelx_hkl_checksum              10573
_shelx_shelxl_version_number     2016/6
_olex2_submission_special_instructions 'No special instructions were received'
loop_
_space_group_symop_operation_xyz
'x, y, z'
'-x, y+1/2, -z+1/2'
'-x, -y, -z'
'x, -y-1/2, z-1/2'
loop_
_atom_site_label
_atom_site_type_symbol
_atom_site_fract_x
_atom_site_fract_y
_atom_site_fract_z
_atom_site_U_iso_or_equiv
_atom_site_adp_type
_atom_site_occupancy
_atom_site_site_symmetry_order
_atom_site_calc_flag
_atom_site_refinement_flags_posn
_atom_site_refinement_flags_adp
F1 F 0.6182(3) 0.8847(11) 0.3674(4) 0.0272(13) Uiso 1 1 d . .
F2 F 0.5167(3) 1.2923(11) 0.3096(4) 0.0272(13) Uiso 1 1 d . .
O1 O 0.8792(3) -0.4970(13) 0.8430(5) 0.0297(15) Uiso 1 1 d . .
O2 O 0.9185(3) -0.5641(14) 0.6699(5) 0.0296(16) Uiso 1 1 d . .
C1 C 0.9386(5) -0.700(2) 0.8844(8) 0.035(2) Uiso 1 1 d . U
H1A H 0.935086 -0.867943 0.837933 0.052 Uiso 1 1 calc GR .
H1B H 0.930000 -0.749313 0.961706 0.052 Uiso 1 1 calc GR .
H1C H 0.990339 -0.616290 0.881194 0.052 Uiso 1 1 calc GR .
C2 C 0.8768(5) -0.4470(18) 0.7333(7) 0.0230(19) Uiso 1 1 d . U
C3 C 0.8201(5) -0.2283(19) 0.6997(7) 0.025(2) Uiso 1 1 d . U
C4 C 0.8154(5) -0.126(2) 0.5896(7) 0.0224(19) Uiso 1 1 d . U
H4 H 0.849205 -0.201045 0.537914 0.027 Uiso 1 1 calc R .
C5 C 0.7642(5) 0.076(2) 0.5550(8) 0.027(2) Uiso 1 1 d . U
H5 H 0.763361 0.143007 0.480512 0.033 Uiso 1 1 calc R .
C6 C 0.7122(5) 0.1881(19) 0.6286(7) 0.025(2) Uiso 1 1 d . U
C7 C 0.7123(4) 0.0861(19) 0.7377(7) 0.0223(19) Uiso 1 1 d . U
H7 H 0.676193 0.155186 0.787328 0.027 Uiso 1 1 calc R .
C8 C 0.7660(5) -0.1179(19) 0.7726(7) 0.0222(18) Uiso 1 1 d . U
H8 H 0.766653 -0.185350 0.846963 0.027 Uiso 1 1 calc R .
C9 C 0.6565(5) 0.403(2) 0.5916(7) 0.027(2) Uiso 1 1 d . U
C10 C 0.6090(5) 0.575(2) 0.5654(7) 0.025(2) Uiso 1 1 d . U
C11 C 0.5554(4) 0.7866(18) 0.5316(7) 0.0203(19) Uiso 1 1 d . U
C12 C 0.5591(5) 0.934(2) 0.4350(7) 0.026(2) Uiso 1 1 d . U
C13 C 0.5068(5) 1.1404(19) 0.4020(7) 0.0206(18) Uiso 1 1 d . U
loop_
_atom_type_symbol
_atom_type_description
_atom_type_scat_dispersion_real
_atom_type_scat_dispersion_imag
_atom_type_scat_source
C C 0.0033 0.0016 'International Tables Vol C Tables 4.2.6.8 and 6.1.1.4'
H H 0.0000 0.0000 'International Tables Vol C Tables 4.2.6.8 and 6.1.1.4'
O O 0.0106 0.0060 'International Tables Vol C Tables 4.2.6.8 and 6.1.1.4'
F F 0.0171 0.0103 'International Tables Vol C Tables 4.2.6.8 and 6.1.1.4'
loop_
_geom_angle_atom_site_label_1
_geom_angle_atom_site_label_2
_geom_angle_atom_site_label_3
_geom_angle
_geom_angle_site_symmetry_3
C2 O1 C1 115.2(6) .
O1 C1 H1A 109.5 .
O1 C1 H1B 109.5 .
O1 C1 H1C 109.5 .
H1A C1 H1B 109.5 .
H1A C1 H1C 109.5 .
H1B C1 H1C 109.5 .
O1 C2 C3 111.9(6) .
O2 C2 O1 123.6(8) .
O2 C2 C3 124.4(8) .
C4 C3 C2 120.0(7) .
C4 C3 C8 116.9(8) .
C8 C3 C2 123.1(8) .
C3 C4 H4 119.0 .
C5 C4 C3 122.0(7) .
C5 C4 H4 119.0 .
C4 C5 H5 119.7 .
C4 C5 C6 120.6(8) .
C6 C5 H5 119.7 .
C5 C6 C9 120.8(8) .
C7 C6 C5 119.7(9) .
C7 C6 C9 119.4(7) .
C6 C7 H7 120.5 .
C8 C7 C6 119.1(7) .
C8 C7 H7 120.5 .
C3 C8 H8 119.1 .
C7 C8 C3 121.7(8) .
C7 C8 H8 119.1 .
C10 C9 C6 176.9(8) .
C9 C10 C11 177.1(9) .
C10 C11 C13 121.2(7) 3_676
C12 C11 C10 123.3(7) .
C12 C11 C13 115.5(8) 3_676
F1 C12 C13 117.0(7) .
C11 C12 F1 119.8(8) .
C11 C12 C13 123.2(7) .
F2 C13 C11 118.2(8) 3_676
F2 C13 C12 120.4(6) .
C12 C13 C11 121.2(8) 3_676
loop_
_geom_bond_atom_site_label_1
_geom_bond_atom_site_label_2
_geom_bond_distance
_geom_bond_site_symmetry_2
F1 C12 1.366(8) .
F2 C13 1.348(9) .
O1 C1 1.472(11) .
O1 C2 1.339(10) .
O2 C2 1.220(9) .
C1 H1A 0.9800 .
C1 H1B 0.9800 .
C1 H1C 0.9800 .
C2 C3 1.470(12) .
C3 C4 1.409(12) .
C3 C8 1.423(10) .
C4 H4 0.9500 .
C4 C5 1.357(13) .
C5 H5 0.9500 .
C5 C6 1.407(11) .
C6 C7 1.400(12) .
C6 C9 1.455(13) .
C7 H7 0.9500 .
C7 C8 1.390(12) .
C8 H8 0.9500 .
C9 C10 1.188(13) .
C10 C11 1.414(12) .
C11 C12 1.365(12) .
C11 C13 1.422(9) 3_676
C12 C13 1.377(13) .
loop_
_geom_torsion_atom_site_label_1
_geom_torsion_atom_site_label_2
_geom_torsion_atom_site_label_3
_geom_torsion_atom_site_label_4
_geom_torsion
_geom_torsion_site_symmetry_1
_geom_torsion_site_symmetry_4
F1 C12 C13 F2 -3.1(13) . .
F1 C12 C13 C11 -178.1(8) . 3_676
O1 C2 C3 C4 173.1(8) . .
O1 C2 C3 C8 -9.5(12) . .
O2 C2 C3 C4 -4.9(14) . .
O2 C2 C3 C8 172.6(9) . .
C1 O1 C2 O2 2.1(12) . .
C1 O1 C2 C3 -175.9(7) . .
C2 C3 C4 C5 -179.8(8) . .
C2 C3 C8 C7 -179.0(8) . .
C3 C4 C5 C6 -1.3(14) . .
C4 C3 C8 C7 -1.5(14) . .
C4 C5 C6 C7 -1.2(14) . .
C4 C5 C6 C9 -179.3(9) . .
C5 C6 C7 C8 2.3(14) . .
C6 C7 C8 C3 -0.9(14) . .
C8 C3 C4 C5 2.6(14) . .
C9 C6 C7 C8 -179.6(8) . .
C10 C11 C12 F1 -1.8(14) . .
C10 C11 C12 C13 179.8(9) . .
C11 C12 C13 F2 175.4(9) . .
C11 C12 C13 C11 0.3(16) . 3_676
C13 C11 C12 F1 178.1(7) 3_676 .
C13 C11 C12 C13 -0.2(15) 3_676 .
