#------------------------------------------------------------------------------
#$Date: 2019-11-25 11:16:22 +0200 (Mon, 25 Nov 2019) $
#$Revision: 240736 $
#$URL: file:///home/coder/svn-repositories/cod/cif/4/13/02/4130224.cif $
#------------------------------------------------------------------------------
#
# This file is available in the Crystallography Open Database (COD),
# http://www.crystallography.net/
#
# All data on this site have been placed in the public domain by the
# contributors.
#
data_4130224
loop_
_publ_author_name
'Savage, Mathew'
'da Silva, Ivan'
'Johnson, Mark'
'Carter, Joseph H.'
'Newby, Ruth'
'Suyetin, Mikhail'
'Besley, Elena'
'Manuel, Pascal'
'Rudi\'c, Svemir'
'Fitch, Andrew N.'
'Murray, Claire'
'David, William I. F.'
'Yang, Sihai'
'Schr\"oder, Martin'
_publ_section_title
;
 Observation of Binding and Rotation of Methane and Hydrogen within a
 Functional Metal-Organic Framework.
;
_journal_issue                   29
_journal_name_full               'Journal of the American Chemical Society'
_journal_page_first              9119
_journal_page_last               9127
_journal_paper_doi               10.1021/jacs.6b01323
_journal_volume                  138
_journal_year                    2016
_chemical_formula_moiety         '0.5(C16 H8 In2 O10), 2.09(C D4)'
_chemical_formula_structural     '0.5[In2(O H)2(C16 H6 O8)] 2.09(C D4)'
_chemical_formula_sum            'C10.09 H4 D8.36 In O5'
_chemical_formula_weight         336.82
_chemical_name_common            'NOTT-300 (In) 2.09 CD4'
_space_group_IT_number           98
_space_group_name_Hall           'I 4bw 2bw'
_space_group_name_H-M_alt        'I 41 2 2'
_symmetry_cell_setting           tetragonal
_symmetry_Int_Tables_number      98
_symmetry_space_group_name_Hall  'I 4bw 2bw'
_symmetry_space_group_name_H-M   'I 41 2 2'
_cell_angle_alpha                90
_cell_angle_beta                 90
_cell_angle_gamma                90
_cell_formula_units_Z            8
_cell_length_a                   15.43745(10)
_cell_length_b                   15.43745(10)
_cell_length_c                   12.2848(2)
_cell_measurement_temperature    7
_cell_volume                     2927.65(5)
_computing_cell_refinement       'Bruker Topas 4.2'
_computing_data_reduction        'Bruker Topas 4.2'
_computing_molecular_graphics    'CrystalImpact Diamond 3.2'
_computing_structure_refinement  'Bruker Topas 4.2'
_computing_structure_solution    'Bruker Topas 4.2'
_diffrn_ambient_temperature      7
_diffrn_detector                 '1520 pixellated 3He tubes'
_diffrn_detector_type            10-70
_diffrn_measurement_device_type  'ISIS WISH diffractometer'
_diffrn_radiation_probe          neutron
_diffrn_radiation_type           neutron
_diffrn_source                   'ISIS TS2'
_diffrn_source_type              'ISIS WISH diffractometer'
_pd_char_colour                  'white powder'
_pd_instr_dist_spec/detc         2200
_pd_instr_dist_src/spec          40000
_pd_instr_location
; 
WISH is situated on E8 of the second target station of the ISIS neutron source,
located at the Rutherford Appleton Laboratory, Didcot, UK.
;
_pd_meas_2theta_fixed            10-70
_pd_meas_scan_method             tof
_pd_proc_ls_prof_R_factor        1.49974193
_pd_proc_ls_prof_wR_expected     0.317480173
_pd_proc_ls_prof_wR_factor       1.62399045
_pd_spec_mounting
;                                       
ISIS vanadium sample can equipped with gas handling equipment 
and cartridge heaters, sealed with compressed indium wire.
;
_pd_spec_mount_mode              transmission
_pd_spec_shape                   cylinder
_pd_spec_size_axial              '65 mm'
_pd_spec_size_thick              '8 mm'
_refine_ls_goodness_of_fit_all   5.11524997
_cod_data_source_file            ja6b01323_si_004.cif
_cod_data_source_block           NOTT_300_In_2.09_CD4
_cod_original_cell_volume        2927.65(6)
_cod_database_code               4130224
loop_
_symmetry_equiv_pos_site_id
_symmetry_equiv_pos_as_xyz
1 x,y,z
2 -y,1/2+x,1/4+z
3 1/2-x,1/2-y,1/2+z
4 1/2+y,-x,3/4+z
5 x,1/2-y,1/4-z
6 1/2+y,1/2+x,1/2-z
7 1/2-x,y,3/4-z
8 -y,-x,-z
9 1/2+x,1/2+y,1/2+z
10 1/2-y,x,3/4+z
11 -x,-y,z
12 y,1/2-x,1/4+z
13 1/2+x,-y,3/4-z
14 y,x,-z
15 -x,1/2+y,1/4-z
16 1/2-y,1/2-x,1/2-z
loop_
_atom_site_label
_atom_site_type_symbol
_atom_site_thermal_displace_type
_atom_site_fract_x
_atom_site_fract_y
_atom_site_fract_z
_atom_site_occupancy
_atom_site_U_iso_or_equiv
In In Uiso 0.6837(4) 0.3163(4) 0.50000 1.000 0.058(3)
O1 O Uiso 0.7580(4) 0.25000 0.62500 1.000 0.0602(13)
O2 O Uiso 0.6140(6) 0.3806(7) 0.6173(5) 1.000 0.0602(13)
O3 O Uiso 0.5910(7) 0.2909(4) 0.7508(6) 1.000 0.0602(13)
C1 C Uiso 0.5833(5) 0.3637(4) 0.7085(4) 1.000 0.0578(9)
C2 C Uiso 0.53734(17) 0.43096(13) 0.7673(3) 1.000 0.0578(9)
C3 C Uiso 0.50000 0.50000 0.7104(4) 1.000 0.0578(9)
C4 C Uiso 0.53734(17) 0.43096(13) 0.8812(2) 1.000 0.0578(9)
C5 C Uiso 0.50000 0.50000 0.9381(2) 1.000 0.0578(9)
H1 H Uiso 0.8163(8) 0.25000 0.62500 1.000 0.0602(13)
H3 H Uiso 0.50000 0.50000 0.6249(7) 1.000 0.0578(9)
H4 H Uiso 0.5654(4) 0.3792(4) 0.9239(4) 1.000 0.0578(9)
C1_1 C Uiso 0.5197(3) 0.7430(5) 0.1781(4) 0.463(4) 0.129(4)
D1_1 D Uiso 0.5306(8) 0.7466(9) 0.2607(6) 0.463(4) 0.155(4)
D2_1 D Uiso 0.5567(8) 0.7890(8) 0.1390(10) 0.463(4) 0.155(4)
D3_1 D Uiso 0.4552(5) 0.7542(10) 0.1624(10) 0.463(4) 0.155(4)
D4_1 D Uiso 0.5365(9) 0.6823(7) 0.1505(10) 0.463(4) 0.155(4)
C1_2 C Uiso 0.6349(3) 0.6349(3) 0.50000 0.596(6) 0.129(4)
D1_2 D Uiso 0.640(2) 0.5775(8) 0.5421(14) 0.298(3) 0.155(4)
D2_2 D Uiso 0.5704(8) 0.650(3) 0.4892(17) 0.298(3) 0.155(4)
D3_2 D Uiso 0.6644(13) 0.6287(16) 0.4252(10) 0.298(3) 0.155(4)
D4_2 D Uiso 0.665(2) 0.6836(14) 0.5435(14) 0.298(3) 0.155(4)
C1_3 C Uiso 0.6078(5) 0.7379(5) 0.3633(7) 0.284(4) 0.129(4)
D1_3 D Uiso 0.642(2) 0.6844(17) 0.3368(17) 0.284(4) 0.155(4)
D2_3 D Uiso 0.6402(15) 0.7659(13) 0.4275(14) 0.284(4) 0.155(4)
D3_3 D Uiso 0.5469(12) 0.719(3) 0.3881(17) 0.284(4) 0.155(4)
D4_3 D Uiso 0.603(2) 0.7819(12) 0.3006(15) 0.284(4) 0.155(4)
loop_
_geom_angle_atom_site_label_1
_geom_angle_atom_site_label_2
_geom_angle_atom_site_label_3
_geom_angle
_geom_angle_site_symmetry_1
_geom_angle_site_symmetry_3
_geom_angle_publ_flag
O1 In O2 90.5(2) . . yes
O1 In O1 90.1(3) . 4_564 yes
O1 In O3 84.6(3) . 4_564 yes
O1 In O3 89.6(3) . 5_556 yes
O1 In O2 176.0(4) . 8_666 yes
O1 In O2 176.0(4) 4_564 . yes
O2 In O3 94.4(4) . 4_564 yes
O2 In O3 91.5(4) . 5_556 yes
O2 In O2 89.2(4) . 8_666 yes
O1 In O3 89.6(3) 4_564 4_564 yes
O1 In O3 84.6(3) 4_564 5_556 yes
O1 In O2 90.5(2) 4_564 8_666 yes
O3 In O3 171.7(5) 4_564 5_556 yes
O2 In O3 91.5(4) 8_666 4_564 yes
O2 In O3 94.4(4) 8_666 5_556 yes
In O1 In 116.3(3) . 2_645 yes
In O2 C1 136.9(8) . . yes
In O3 C1 138.1(8) 2_645 . yes
In O1 H1 121.9(2) . . no
In O1 H1 121.9(2) 2_645 . no
O2 C1 O3 122.0(8) . . yes
O2 C1 C2 119.0(7) . . yes
O3 C1 C2 119.1(6) . . yes
C1 C2 C3 119.9(4) . . no
C3 C2 C4 120.0(3) . . no
C1 C2 C4 119.9(3) . . no
C2 C3 C2 120.0(4) . 11_665 no
C2 C4 C5 120.0(2) . . no
C4 C5 C5 119.98(13) 11_665 8_667 no
C4 C5 C5 119.98(13) . 8_667 no
C4 C5 C4 120.0(2) . 11_665 no
C2 C3 H3 120.0(2) . . no
C2 C3 H3 120.0(2) 11_665 . no
C2 C4 H4 120.0(4) . . no
C5 C4 H4 120.0(4) . . no
D1_1 C1_1 D2_1 109.4(11) . . yes
D1_1 C1_1 D3_1 109.5(11) . . yes
D1_1 C1_1 D4_1 109.4(12) . . yes
D2_1 C1_1 D3_1 109.5(12) . . yes
D2_1 C1_1 D4_1 109.5(11) . . yes
D3_1 C1_1 D4_1 109.6(13) . . yes
D1_3 C1_3 D2_3 109(2) . . yes
D1_3 C1_3 D3_3 110(3) . . yes
D1_3 C1_3 D4_3 109.2(19) . . yes
D2_3 C1_3 D3_3 110(2) . . yes
D2_3 C1_3 D4_3 109.3(18) . . yes
D3_3 C1_3 D4_3 110(3) . . yes
loop_
_geom_bond_atom_site_label_1
_geom_bond_atom_site_label_2
_geom_bond_distance
_geom_bond_site_symmetry_2
_geom_bond_publ_flag
In O1 2.173(5) . yes
In O2 2.054(9) . yes
In O1 2.173(5) 4_564 yes
In O3 2.188(10) 4_564 yes
In O3 2.188(10) 5_556 yes
In O2 2.054(9) 8_666 yes
O2 C1 1.244(9) . yes
O3 C1 1.244(9) . yes
O1 H1 0.900(14) . no
C1 C2 1.450(7) . no
C2 C3 1.399(4) . no
C2 C4 1.399(4) . no
C4 C5 1.399(3) . no
C5 C5 1.521(3) 8_667 no
C3 H3 1.050(10) . no
C4 H4 1.049(6) . no
C1_1 D1_1 1.030(9) . yes
C1_1 D2_1 1.030(14) . yes
C1_1 D3_1 1.029(10) . yes
C1_1 D4_1 1.030(13) . yes
C1_3 D1_3 1.03(3) . yes
C1_3 D2_3 1.03(2) . yes
C1_3 D3_3 1.03(2) . yes
C1_3 D4_3 1.03(2) . yes
loop_
_geom_torsion_atom_site_label_1
_geom_torsion_atom_site_label_2
_geom_torsion_atom_site_label_3
_geom_torsion_atom_site_label_4
_geom_torsion
_geom_torsion_site_symmetry_1
_geom_torsion_site_symmetry_4
_geom_torsion_publ_flag
O1 In O2 C1 -37.8(10) . . no
O3 In O2 C1 -122.4(10) 4_564 . no
O3 In O2 C1 51.8(10) 5_556 . no
O2 In O2 C1 146.2(10) 8_666 . no
In O2 C1 O3 -0.6(15) . . no
In O2 C1 C2 179.2(6) . . no
In O3 C1 O2 30.5(14) 2_645 . no
In O3 C1 C2 -149.4(6) 2_645 . no
O2 C1 C2 C3 23.7(9) . . no
O2 C1 C2 C4 -150.3(6) . . no
O3 C1 C2 C3 -156.4(7) . . no
O3 C1 C2 C4 29.5(9) . . no
C1 C2 C3 C2 -174.1(4) . 11_665 no
C4 C2 C3 C2 0.0(3) . 11_665 no
C1 C2 C4 C5 174.1(4) . . no
C3 C2 C4 C5 0.0(3) . . no
C2 C4 C5 C5 180.00(17) . 8_667 no
C2 C4 C5 C4 0.0(3) . 11_665 no
