#------------------------------------------------------------------------------
#$Date: 2019-11-25 11:16:22 +0200 (Mon, 25 Nov 2019) $
#$Revision: 240736 $
#$URL: file:///home/coder/svn-repositories/cod/cif/4/13/02/4130223.cif $
#------------------------------------------------------------------------------
#
# This file is available in the Crystallography Open Database (COD),
# http://www.crystallography.net/
#
# All data on this site have been placed in the public domain by the
# contributors.
#
data_4130223
loop_
_publ_author_name
'Savage, Mathew'
'da Silva, Ivan'
'Johnson, Mark'
'Carter, Joseph H.'
'Newby, Ruth'
'Suyetin, Mikhail'
'Besley, Elena'
'Manuel, Pascal'
'Rudi\'c, Svemir'
'Fitch, Andrew N.'
'Murray, Claire'
'David, William I. F.'
'Yang, Sihai'
'Schr\"oder, Martin'
_publ_section_title
;
 Observation of Binding and Rotation of Methane and Hydrogen within a
 Functional Metal-Organic Framework.
;
_journal_issue                   29
_journal_name_full               'Journal of the American Chemical Society'
_journal_page_first              9119
_journal_page_last               9127
_journal_paper_doi               10.1021/jacs.6b01323
_journal_volume                  138
_journal_year                    2016
_chemical_formula_moiety         '0.5(C16 H8 In2 O10), 1.09(C D4)'
_chemical_formula_structural     '0.5[In2(O H)2(C16 H6 O8)] 1.09(C D4)'
_chemical_formula_sum            'C9.09 H4 D4.35 In O5'
_chemical_formula_weight         316.73
_chemical_name_common            'NOTT-300 (In) 1.09 CD4'
_space_group_IT_number           98
_space_group_name_Hall           'I 4bw 2bw'
_space_group_name_H-M_alt        'I 41 2 2'
_symmetry_cell_setting           tetragonal
_symmetry_Int_Tables_number      98
_symmetry_space_group_name_Hall  'I 4bw 2bw'
_symmetry_space_group_name_H-M   'I 41 2 2'
_cell_angle_alpha                90
_cell_angle_beta                 90
_cell_angle_gamma                90
_cell_formula_units_Z            8
_cell_length_a                   15.46363(5)
_cell_length_b                   15.46363(5)
_cell_length_c                   12.29044(10)
_cell_measurement_temperature    7
_cell_volume                     2938.94(3)
_computing_cell_refinement       'Bruker Topas 4.2'
_computing_data_reduction        'Bruker Topas 4.2'
_computing_molecular_graphics    'CrystalImpact Diamond 3.2'
_computing_structure_refinement  'Bruker Topas 4.2'
_computing_structure_solution    'Bruker Topas 4.2'
_diffrn_ambient_temperature      7
_diffrn_detector                 '1520 pixellated 3He tubes'
_diffrn_detector_type            10-70
_diffrn_measurement_device_type  'ISIS WISH diffractometer'
_diffrn_radiation_probe          neutron
_diffrn_radiation_type           neutron
_diffrn_source                   'ISIS TS2'
_diffrn_source_type              'ISIS WISH diffractometer'
_pd_char_colour                  'white powder'
_pd_instr_dist_spec/detc         2200
_pd_instr_dist_src/spec          40000
_pd_instr_location
; 
WISH is situated on E8 of the second target station of the ISIS neutron source,
located at the Rutherford Appleton Laboratory, Didcot, UK.
;
_pd_meas_2theta_fixed            10-70
_pd_meas_scan_method             tof
_pd_proc_ls_prof_R_factor        1.21700275
_pd_proc_ls_prof_wR_expected     0.825782602
_pd_proc_ls_prof_wR_factor       1.55980583
_pd_spec_mounting
;                                       
ISIS vanadium sample can equipped with gas handling equipment 
and cartridge heaters, sealed with compressed indium wire.
;
_pd_spec_mount_mode              transmission
_pd_spec_shape                   cylinder
_pd_spec_size_axial              '65 mm'
_pd_spec_size_thick              '8 mm'
_refine_ls_goodness_of_fit_all   1.88888193
_cod_data_source_file            ja6b01323_si_004.cif
_cod_data_source_block           NOTT_300_In_1.09_CD4
_cod_database_code               4130223
loop_
_symmetry_equiv_pos_site_id
_symmetry_equiv_pos_as_xyz
1 x,y,z
2 -y,1/2+x,1/4+z
3 1/2-x,1/2-y,1/2+z
4 1/2+y,-x,3/4+z
5 x,1/2-y,1/4-z
6 1/2+y,1/2+x,1/2-z
7 1/2-x,y,3/4-z
8 -y,-x,-z
9 1/2+x,1/2+y,1/2+z
10 1/2-y,x,3/4+z
11 -x,-y,z
12 y,1/2-x,1/4+z
13 1/2+x,-y,3/4-z
14 y,x,-z
15 -x,1/2+y,1/4-z
16 1/2-y,1/2-x,1/2-z
loop_
_atom_site_label
_atom_site_type_symbol
_atom_site_thermal_displace_type
_atom_site_fract_x
_atom_site_fract_y
_atom_site_fract_z
_atom_site_occupancy
_atom_site_U_iso_or_equiv
In In Uiso 0.6875(4) 0.3125(4) 0.50000 1.000 0.085(5)
O1 O Uiso 0.7617(3) 0.25000 0.62500 1.000 0.075(2)
O2 O Uiso 0.6139(6) 0.3806(7) 0.6160(4) 1.000 0.075(2)
O3 O Uiso 0.5938(7) 0.2910(4) 0.7512(5) 1.000 0.075(2)
C1 C Uiso 0.5837(5) 0.3644(4) 0.7088(3) 1.000 0.0779(14)
C2 C Uiso 0.53685(17) 0.43088(11) 0.7674(2) 1.000 0.0779(14)
C3 C Uiso 0.50000 0.50000 0.7106(3) 1.000 0.0779(14)
C4 C Uiso 0.53685(17) 0.43088(11) 0.88125(16) 1.000 0.0779(14)
C5 C Uiso 0.50000 0.50000 0.93814(15) 1.000 0.0779(14)
H1 H Uiso 0.8199(8) 0.25000 0.62500 1.000 0.075(2)
H3 H Uiso 0.50000 0.50000 0.6251(6) 1.000 0.0779(14)
H4 H Uiso 0.5645(4) 0.3790(4) 0.9240(3) 1.000 0.0779(14)
C1_1 C Uiso 0.5127(2) 0.7333(8) 0.1360(7) 0.398(2) 0.190(6)
D1_1 D Uiso 0.552(3) 0.783(2) 0.1642(15) 0.398(2) 0.228(9)
D2_1 D Uiso 0.5034(8) 0.7402(15) 0.0522(10) 0.398(2) 0.228(9)
D3_1 D Uiso 0.4530(8) 0.736(3) 0.1756(14) 0.398(2) 0.228(9)
D4_1 D Uiso 0.542(3) 0.6737(19) 0.1519(15) 0.398(2) 0.228(9)
C1_2 C Uiso 0.6399(5) 0.6399(5) 0.50000 0.292(6) 0.190(6)
D1_2 D Uiso 0.663(3) 0.649(4) 0.578(2) 0.146(2) 0.228(9)
D4_2 D Uiso 0.648(2) 0.696(2) 0.456(4) 0.146(2) 0.228(9)
D2_2 D Uiso 0.5753(16) 0.624(2) 0.503(4) 0.146(2) 0.228(9)
D3_2 D Uiso 0.674(3) 0.5906(18) 0.464(4) 0.146(2) 0.228(9)
loop_
_geom_angle_atom_site_label_1
_geom_angle_atom_site_label_2
_geom_angle_atom_site_label_3
_geom_angle
_geom_angle_site_symmetry_1
_geom_angle_site_symmetry_3
_geom_angle_publ_flag
O1 In O2 91.7(2) . . yes
O1 In O1 91.8(3) . 4_564 yes
O1 In O3 84.3(3) . 4_564 yes
O1 In O3 91.7(3) . 5_556 yes
O1 In O2 174.0(4) . 8_666 yes
O1 In O2 174.0(4) 4_564 . yes
O2 In O3 93.5(4) . 4_564 yes
O2 In O3 90.7(4) . 5_556 yes
O2 In O2 85.3(4) . 8_666 yes
O1 In O3 91.7(3) 4_564 4_564 yes
O1 In O3 84.3(3) 4_564 5_556 yes
O1 In O2 91.7(2) 4_564 8_666 yes
O3 In O3 174.3(5) 4_564 5_556 yes
O2 In O3 90.7(4) 8_666 4_564 yes
O2 In O3 93.5(4) 8_666 5_556 yes
In O1 In 115.4(3) . 2_645 yes
In O2 C1 135.6(8) . . yes
In O3 C1 138.5(7) 2_645 . yes
In O1 H1 122.30(18) . . no
In O1 H1 122.30(18) 2_645 . no
O2 C1 O3 120.6(8) . . yes
O2 C1 C2 119.7(7) . . yes
O3 C1 C2 119.7(5) . . yes
C1 C2 C3 119.9(3) . . no
C3 C2 C4 120.0(2) . . no
C1 C2 C4 119.8(3) . . no
C2 C3 C2 120.1(3) . 11_665 no
C2 C4 C5 120.00(17) . . no
C4 C5 C5 120.00(10) 11_665 8_667 no
C4 C5 C5 120.00(10) . 8_667 no
C4 C5 C4 120.01(17) . 11_665 no
C2 C3 H3 119.96(16) . . no
C2 C3 H3 119.96(16) 11_665 . no
C2 C4 H4 120.0(3) . . no
C5 C4 H4 120.0(3) . . no
D1_1 C1_1 D2_1 109.5(18) . . yes
D1_1 C1_1 D3_1 109(3) . . yes
D1_1 C1_1 D4_1 110(3) . . yes
D1_1 C1_1 D3_1 110(3) . 5_565 yes
D2_1 C1_1 D3_1 109.5(12) . . yes
D2_1 C1_1 D4_1 109.5(18) . . yes
D3_1 C1_1 D4_1 109(3) . . yes
D2_1 C1_1 D4_1 108.8(19) 5_565 . yes
loop_
_geom_bond_atom_site_label_1
_geom_bond_atom_site_label_2
_geom_bond_distance
_geom_bond_site_symmetry_2
_geom_bond_publ_flag
In O1 2.147(5) . yes
In O2 2.106(9) . yes
In O1 2.147(5) 4_564 yes
In O3 2.159(11) 4_564 yes
In O3 2.159(11) 5_556 yes
In O2 2.106(9) 8_666 yes
O2 C1 1.258(8) . yes
O3 C1 1.259(9) . yes
O1 H1 0.900(13) . no
C1 C2 1.449(7) . no
C2 C3 1.398(3) . no
C2 C4 1.399(3) . no
C4 C5 1.399(2) . no
C5 C5 1.521(3) 8_667 no
C3 H3 1.051(8) . no
C4 H4 1.050(6) . no
C1_1 D1_1 1.04(4) . yes
C1_1 D2_1 1.045(15) . yes
C1_1 D3_1 1.045(15) . yes
C1_1 D4_1 1.05(4) . yes
loop_
_geom_torsion_atom_site_label_1
_geom_torsion_atom_site_label_2
_geom_torsion_atom_site_label_3
_geom_torsion_atom_site_label_4
_geom_torsion
_geom_torsion_site_symmetry_1
_geom_torsion_site_symmetry_4
_geom_torsion_publ_flag
O1 In O2 C1 -36.6(10) . . no
O3 In O2 C1 -121.0(10) 4_564 . no
O3 In O2 C1 55.1(10) 5_556 . no
O2 In O2 C1 148.6(10) 8_666 . no
In O2 C1 O3 -2.0(14) . . no
In O2 C1 C2 178.0(6) . . no
In O3 C1 O2 31.0(13) 2_645 . no
In O3 C1 C2 -149.0(6) 2_645 . no
O2 C1 C2 C3 21.7(9) . . no
O2 C1 C2 C4 -151.2(6) . . no
O3 C1 C2 C3 -158.3(6) . . no
O3 C1 C2 C4 28.8(9) . . no
C1 C2 C3 C2 -172.9(4) . 11_665 no
C4 C2 C3 C2 0.0(3) . 11_665 no
C1 C2 C4 C5 172.9(4) . . no
C3 C2 C4 C5 0.0(3) . . no
C2 C4 C5 C5 180.00(16) . 8_667 no
C2 C4 C5 C4 0.0(3) . 11_665 no
