#------------------------------------------------------------------------------
#$Date: 2019-11-25 11:15:33 +0200 (Mon, 25 Nov 2019) $
#$Revision: 240735 $
#$URL: file:///home/coder/svn-repositories/cod/cif/4/13/02/4130221.cif $
#------------------------------------------------------------------------------
#
# This file is available in the Crystallography Open Database (COD),
# http://www.crystallography.net/
#
# All data on this site have been placed in the public domain by the
# contributors.
#
data_4130221
loop_
_publ_author_name
'Savage, Mathew'
'da Silva, Ivan'
'Johnson, Mark'
'Carter, Joseph H.'
'Newby, Ruth'
'Suyetin, Mikhail'
'Besley, Elena'
'Manuel, Pascal'
'Rudi\'c, Svemir'
'Fitch, Andrew N.'
'Murray, Claire'
'David, William I. F.'
'Yang, Sihai'
'Schr\"oder, Martin'
_publ_section_title
;
 Observation of Binding and Rotation of Methane and Hydrogen within a
 Functional Metal-Organic Framework.
;
_journal_issue                   29
_journal_name_full               'Journal of the American Chemical Society'
_journal_page_first              9119
_journal_page_last               9127
_journal_paper_doi               10.1021/jacs.6b01323
_journal_volume                  138
_journal_year                    2016
_chemical_formula_moiety         '0.5(C16 H8 In2 O10), 6.08(D2)'
_chemical_formula_structural     '0.5[In2(O H)2(C16 H6 O8)] 6.08(D2)'
_chemical_formula_sum            'C8 H4 D12.17 In O5'
_chemical_formula_weight         319.39
_chemical_name_common            'MFM-300 (In) 6.08 D2'
_space_group_IT_number           98
_space_group_name_Hall           'I 4bw 2bw'
_space_group_name_H-M_alt        'I 41 2 2'
_symmetry_cell_setting           tetragonal
_symmetry_Int_Tables_number      98
_symmetry_space_group_name_Hall  'I 4bw 2bw'
_symmetry_space_group_name_H-M   'I 41 2 2'
_cell_angle_alpha                90
_cell_angle_beta                 90
_cell_angle_gamma                90
_cell_formula_units_Z            8
_cell_length_a                   15.49785(17)
_cell_length_b                   15.49785(17)
_cell_length_c                   12.3052(2)
_cell_volume                     2955.50(7)
_computing_cell_refinement       'Bruker Topas 4.2'
_computing_data_reduction        'Bruker Topas 4.2'
_computing_molecular_graphics    'CrystalImpact Diamond 3.2'
_computing_structure_refinement  'Bruker Topas 4.2'
_computing_structure_solution    'Bruker Topas 4.2'
_diffrn_ambient_temperature      7
_diffrn_detector                 '1520 pixellated 3He tubes'
_diffrn_measurement_device_type  'ISIS WISH diffractometer'
_diffrn_radiation_probe          neutron
_diffrn_radiation_type           neutron
_diffrn_source                   'ISIS TS2'
_diffrn_source_type              'ISIS WISH diffractometer'
_pd_char_colour                  'white powder'
_pd_instr_dist_spec/detc         2200
_pd_instr_dist_src/spec          40000
_pd_instr_location
; 
WISH is situated on E8 of the second target station of the ISIS neutron source,
located at the Rutherford Appleton Laboratory, Didcot, UK.
;
_pd_meas_2theta_fixed            10-70
_pd_meas_scan_method             tof
_pd_proc_ls_prof_R_factor        1.59662613
_pd_proc_ls_prof_wR_expected     0.371659411
_pd_proc_ls_prof_wR_factor       2.02626659
_pd_spec_mounting
;                                       
ISIS vanadium sample can equipped with gas handling equipment 
and cartridge heaters, sealed with compressed indium wire.
;
_pd_spec_mount_mode              transmission
_pd_spec_shape                   cylinder
_pd_spec_size_axial              '65 mm'
_pd_spec_size_thick              '8 mm'
_refine_ls_goodness_of_fit_all   5.4519448
_cod_data_source_file            ja6b01323_si_003.cif
_cod_data_source_block           MFM_300_In_6.08_D2
_cod_original_cell_volume        2955.51(8)
_cod_database_code               4130221
loop_
_symmetry_equiv_pos_site_id
_symmetry_equiv_pos_as_xyz
1 x,y,z
2 -y,1/2+x,1/4+z
3 1/2-x,1/2-y,1/2+z
4 1/2+y,-x,3/4+z
5 x,1/2-y,1/4-z
6 1/2+y,1/2+x,1/2-z
7 1/2-x,y,3/4-z
8 -y,-x,-z
9 1/2+x,1/2+y,1/2+z
10 1/2-y,x,3/4+z
11 -x,-y,z
12 y,1/2-x,1/4+z
13 1/2+x,-y,3/4-z
14 y,x,-z
15 -x,1/2+y,1/4-z
16 1/2-y,1/2-x,1/2-z
loop_
_atom_site_label
_atom_site_type_symbol
_atom_site_thermal_displace_type
_atom_site_fract_x
_atom_site_fract_y
_atom_site_fract_z
_atom_site_occupancy
_atom_site_U_iso_or_equiv
In In Uiso 0.6805(5) 0.3195(5) 0.50000 1.000 0.022(4)
O1 O Uiso 0.7557(6) 0.25000 0.62500 1.000 0.0612(19)
O2 O Uiso 0.6082(8) 0.3773(8) 0.6167(6) 1.000 0.0612(19)
O3 O Uiso 0.5918(9) 0.2924(5) 0.7553(8) 1.000 0.0612(19)
C1 C Uiso 0.5828(6) 0.3626(4) 0.7098(5) 1.000 0.0332(10)
C2 C Uiso 0.5400(2) 0.43149(18) 0.7687(4) 1.000 0.0332(10)
C3 C Uiso 0.50000 0.50000 0.7110(5) 1.000 0.0332(10)
C4 C Uiso 0.5400(2) 0.43149(18) 0.8841(3) 1.000 0.0332(10)
C5 C Uiso 0.50000 0.50000 0.9418(3) 1.000 0.0332(10)
H1 H Uiso 0.8138(12) 0.25000 0.62500 1.000 0.0612(19)
H3 H Uiso 0.50000 0.50000 0.6299(8) 1.000 0.0332(10)
H4 H Uiso 0.5681(4) 0.3833(5) 0.9246(4) 1.000 0.0332(10)
D2_1 D Uiso 0.4589(5) 0.7586(7) 0.2017(8) 1.274(19) 0.210(6)
D2_2 D Uiso 0.6118(8) 0.6118(8) 0.50000 1.24(3) 0.380(19)
D2_3 D Uiso 0.75000 0.9163(12) 0.87500 2.00(6) 0.346(14)
D2_4 D Uiso 0.7211(7) 0.5477(6) 0.6946(9) 1.40(3) 0.252(10)
D2_5 D Uiso 0.6829(11) 0.8685(12) 0.1532(12) 1.09(3) 0.284(14)
D2_6 D Uiso 0.6778(10) 0.6174(9) 0.8286(14) 0.45(2) 0.074(10)
D2_7 D Uiso 0.681(7) 0.693(6) 0.699(6) 0.25(2) 0.380(19)
loop_
_geom_angle_atom_site_label_1
_geom_angle_atom_site_label_2
_geom_angle_atom_site_label_3
_geom_angle
_geom_angle_site_symmetry_1
_geom_angle_site_symmetry_3
_geom_angle_publ_flag
O1 In O2 90.8(3) . . yes
O1 In O1 88.3(3) . 4_564 yes
O1 In O3 82.5(4) . 4_564 yes
O1 In O3 88.1(4) . 5_556 yes
O1 In O2 173.8(6) . 8_666 yes
O1 In O2 173.8(6) 4_564 . yes
O2 In O3 97.9(5) . 4_564 yes
O2 In O3 91.4(5) . 5_556 yes
O2 In O2 90.8(5) . 8_666 yes
O1 In O3 88.1(4) 4_564 4_564 yes
O1 In O3 82.5(4) 4_564 5_556 yes
O1 In O2 90.8(3) 4_564 8_666 yes
O3 In O3 166.8(6) 4_564 5_556 yes
O2 In O3 91.4(5) 8_666 4_564 yes
O2 In O3 97.9(5) 8_666 5_556 yes
In O1 In 116.4(5) . 2_645 yes
In O2 C1 138.8(9) . . yes
In O3 C1 138.5(9) 2_645 . yes
In O1 H1 121.8(3) . . no
In O1 H1 121.8(3) 2_645 . no
O2 C1 O3 123.3(9) . . yes
O2 C1 C2 118.3(8) . . yes
O3 C1 C2 118.3(7) . . yes
C1 C2 C3 120.0(5) . . no
C3 C2 C4 120.0(3) . . no
C1 C2 C4 120.0(4) . . no
C2 C3 C2 120.0(5) . 11_665 no
C2 C4 C5 120.0(3) . . no
C4 C5 C5 120.01(19) 11_665 8_667 no
C4 C5 C5 120.01(19) . 8_667 no
C4 C5 C4 120.0(3) . 11_665 no
C2 C3 H3 120.0(3) . . no
C2 C3 H3 120.0(3) 11_665 . no
C2 C4 H4 120.0(4) . . no
C5 C4 H4 120.0(5) . . no
loop_
_geom_bond_atom_site_label_1
_geom_bond_atom_site_label_2
_geom_bond_distance
_geom_bond_site_symmetry_2
_geom_bond_publ_flag
In O1 2.210(7) . yes
In O2 2.030(12) . yes
In O1 2.210(7) 4_564 yes
In O3 2.214(13) 4_564 yes
In O3 2.214(13) 5_556 yes
In O2 2.030(12) 8_666 yes
O2 C1 1.233(11) . yes
O3 C1 1.232(10) . yes
O1 H1 0.90(2) . no
C1 C2 1.451(8) . no
C2 C3 1.420(5) . no
C2 C4 1.420(6) . no
C4 C5 1.420(4) . no
C5 C5 1.432(5) 8_667 no
C3 H3 0.998(12) . no
C4 H4 0.998(8) . no
loop_
_geom_torsion_atom_site_label_1
_geom_torsion_atom_site_label_2
_geom_torsion_atom_site_label_3
_geom_torsion_atom_site_label_4
_geom_torsion
_geom_torsion_site_symmetry_1
_geom_torsion_site_symmetry_4
_geom_torsion_publ_flag
O1 In O2 C1 -28.5(14) . . no
O3 In O2 C1 -111.0(14) 4_564 . no
O3 In O2 C1 59.6(14) 5_556 . no
O2 In O2 C1 157.5(14) 8_666 . no
In O2 C1 O3 -9(2) . . no
In O2 C1 C2 171.5(9) . . no
In O3 C1 O2 27.1(19) 2_645 . no
In O3 C1 C2 -153.0(8) 2_645 . no
O2 C1 C2 C3 23.2(11) . . no
O2 C1 C2 C4 -155.2(8) . . no
O3 C1 C2 C3 -156.7(8) . . no
O3 C1 C2 C4 24.9(11) . . no
C1 C2 C3 C2 -178.4(4) . 11_665 no
C4 C2 C3 C2 0.0(3) . 11_665 no
C1 C2 C4 C5 178.4(4) . . no
C3 C2 C4 C5 0.0(4) . . no
C2 C4 C5 C5 -180.0(2) . 8_667 no
C2 C4 C5 C4 0.0(3) . 11_665 no
