#------------------------------------------------------------------------------
#$Date: 2019-11-25 10:27:58 +0200 (Mon, 25 Nov 2019) $
#$Revision: 240675 $
#$URL: file:///home/coder/svn-repositories/cod/cif/4/13/01/4130101.cif $
#------------------------------------------------------------------------------
#
# This file is available in the Crystallography Open Database (COD),
# http://www.crystallography.net/
#
# All data on this site have been placed in the public domain by the
# contributors.
#
data_4130101
loop_
_publ_author_name
'Reed, Douglas A.'
'Xiao, Dianne J.'
'Gonzalez, Miguel I.'
'Darago, Lucy E.'
'Herm, Zoey R.'
'Grandjean, Fernande'
'Long, Jeffrey R.'
_publ_section_title
;
 Reversible CO Scavenging via Adsorbate-Dependent Spin State Transitions
 in an Iron(II)-Triazolate Metal-Organic Framework.
;
_journal_issue                   17
_journal_name_full               'Journal of the American Chemical Society'
_journal_page_first              5594
_journal_page_last               5602
_journal_paper_doi               10.1021/jacs.6b00248
_journal_volume                  138
_journal_year                    2016
_chemical_formula_moiety         '(C216 H96 Cl6 Fe24 N144 O24) Fe3'
_chemical_formula_sum            'C216 H96 Cl6 Fe27 N144 O24'
_chemical_formula_weight         6812.64
_space_group_crystal_system      cubic
_space_group_IT_number           226
_space_group_name_Hall           '-F 4a 2 3'
_space_group_name_H-M_alt        'F m -3 c'
_atom_sites_solution_hydrogens   geom
_atom_sites_solution_primary     direct
_atom_sites_solution_secondary   difmap
_audit_creation_date             2015-10-07
_audit_creation_method
;
Olex2 1.2
(compiled 2015.09.30 svn.r3233 for OlexSys, GUI svn.r5103)
;
_cell_angle_alpha                90
_cell_angle_beta                 90
_cell_angle_gamma                90
_cell_formula_units_Z            4
_cell_length_a                   37.2012(9)
_cell_length_b                   37.2012(9)
_cell_length_c                   37.2012(9)
_cell_measurement_reflns_used    9910
_cell_measurement_temperature    100
_cell_measurement_theta_max      26.75
_cell_measurement_theta_min      2.67
_cell_volume                     51484(2)
_computing_cell_refinement       'SAINT v8.34A (Bruker, 2013)'
_computing_data_collection       'Bruker APEX 2'
_computing_data_reduction        'SAINT v8.34A (Bruker, 2013)'
_computing_molecular_graphics    'Olex2 (Dolomanov et al., 2009)'
_computing_publication_material  'Olex2 (Dolomanov et al., 2009)'
_computing_structure_refinement  'ShelXL (Sheldrick, 2015)'
_computing_structure_solution    'ShelXT (Sheldrick, 2015)'
_diffrn_ambient_temperature      100
_diffrn_detector_area_resol_mean 10.42
_diffrn_measured_fraction_theta_full 0.998
_diffrn_measured_fraction_theta_max 0.998
_diffrn_measurement_device_type  'Bruker PHOTON100 CMOS diffractometer'
_diffrn_measurement_method       '\w/\q scans'
_diffrn_radiation_type           synchrotron
_diffrn_radiation_wavelength     0.7749
_diffrn_reflns_av_R_equivalents  0.0862
_diffrn_reflns_av_unetI/netI     0.0118
_diffrn_reflns_Laue_measured_fraction_full 0.998
_diffrn_reflns_Laue_measured_fraction_max 0.998
_diffrn_reflns_limit_h_max       43
_diffrn_reflns_limit_h_min       -43
_diffrn_reflns_limit_k_max       43
_diffrn_reflns_limit_k_min       -43
_diffrn_reflns_limit_l_max       43
_diffrn_reflns_limit_l_min       -43
_diffrn_reflns_number            155474
_diffrn_reflns_point_group_measured_fraction_full 0.998
_diffrn_reflns_point_group_measured_fraction_max 0.998
_diffrn_reflns_theta_full        26.753
_diffrn_reflns_theta_max         26.753
_diffrn_reflns_theta_min         2.388
_diffrn_source                   'Advanced Light Source station 11.3.1'
_diffrn_standards_number         0
_exptl_absorpt_coefficient_mu    0.925
_exptl_absorpt_correction_T_max  0.9582
_exptl_absorpt_correction_T_min  0.8579
_exptl_absorpt_correction_type   multi-scan
_exptl_absorpt_process_details
;
SADABS-2014/5 (Bruker,2014) was used for absorption correction.
wR2(int) was 0.1350 before and 0.0680 after correction.
The Ratio of minimum to maximum transmission is 0.8953.
The \l/2 correction factor is Not present.
;
_exptl_crystal_colour            red
_exptl_crystal_density_diffrn    0.857
_exptl_crystal_density_method    'not measured'
_exptl_crystal_description       cube
_exptl_crystal_F_000             13272
_exptl_crystal_size_max          0.075
_exptl_crystal_size_mid          0.075
_exptl_crystal_size_min          0.075
_refine_diff_density_max         1.208
_refine_diff_density_min         -0.313
_refine_diff_density_rms         0.069
_refine_ls_extinction_method     none
_refine_ls_goodness_of_fit_ref   1.077
_refine_ls_hydrogen_treatment    constr
_refine_ls_matrix_type           full
_refine_ls_number_parameters     84
_refine_ls_number_reflns         1873
_refine_ls_number_restraints     0
_refine_ls_restrained_S_all      1.077
_refine_ls_R_factor_all          0.0439
_refine_ls_R_factor_gt           0.0405
_refine_ls_shift/su_max          0.001
_refine_ls_shift/su_mean         0.000
_refine_ls_structure_factor_coef Fsqd
_refine_ls_weighting_details
'w=1/[\s^2^(Fo^2^)+(0.0883P)^2^+114.3153P] where P=(Fo^2^+2Fc^2^)/3'
_refine_ls_weighting_scheme      calc
_refine_ls_wR_factor_gt          0.1272
_refine_ls_wR_factor_ref         0.1292
_reflns_Friedel_coverage         0.000
_reflns_number_gt                1646
_reflns_number_total             1873
_reflns_threshold_expression     'I > 2\s(I)'
_cod_data_source_file            ja6b00248_si_001.cif
_cod_data_source_block           dar002s
_cod_original_cell_volume        51484(4)
_cod_original_sg_symbol_Hall     '-F 4c 2 3'
_cod_database_code               4130101
_shelx_space_group_comment
;
The symmetry employed for this shelxl refinement is uniquely defined
by the following loop, which should always be used as a source of
symmetry information in preference to the above space-group names.
They are only intended as comments.
;
_shelx_estimated_absorpt_t_max   0.934
_shelx_estimated_absorpt_t_min   0.934
_olex2_refinement_description
;
1. Fixed Uiso
 At 1.2 times of:
  All C(H) groups
2.a Aromatic/amide H refined with riding coordinates:
 C1(H1), C4(H4)
;
_shelx_res_file
;
    dar002s.res created by SHELXL-2014/7

TITL dar002s_a.res in Fm-3c
REM Old TITL DAR002S in F-43c #219
REM SHELXT solution in Fm-3c
REM R1 0.129, Rweak 0.005, Alpha 0.029, Orientation as input
REM Formula found by SHELXT: C144 Cl3 Fe12 N49 O12
CELL 0.7749 37.2012 37.2012 37.2012 90 90 90
ZERR 4 0.0009 0.0009 0.0009 0 0 0
LATT 4
SYMM -X,-Y,+Z
SYMM -X,+Y,-Z
SYMM +X,-Y,-Z
SYMM +Z,+X,+Y
SYMM +Z,-X,-Y
SYMM -Z,-X,+Y
SYMM -Z,+X,-Y
SYMM +Y,+Z,+X
SYMM -Y,+Z,-X
SYMM +Y,-Z,-X
SYMM -Y,-Z,+X
SYMM 0.5+Y,0.5+X,0.5-Z
SYMM 0.5-Y,0.5-X,0.5-Z
SYMM 0.5+Y,0.5-X,0.5+Z
SYMM 0.5-Y,0.5+X,0.5+Z
SYMM 0.5+X,0.5+Z,0.5-Y
SYMM 0.5-X,0.5+Z,0.5+Y
SYMM 0.5-X,0.5-Z,0.5-Y
SYMM 0.5+X,0.5-Z,0.5+Y
SYMM 0.5+Z,0.5+Y,0.5-X
SYMM 0.5+Z,0.5-Y,0.5+X
SYMM 0.5-Z,0.5+Y,0.5+X
SYMM 0.5-Z,0.5-Y,0.5-X
SFAC C H Cl Fe N O
DISP C 0.004 0.002 13.872
DISP Cl 0.169 0.19 870.405
DISP Fe 0.368 0.995 4430.405
DISP H -0 0 0.627
DISP N 0.008 0.004 24.297
DISP O 0.014 0.007 40.889
UNIT 864 384 24 96 576 96

L.S. 100
PLAN  20
SIZE 0.075 0.075 0.075
TEMP -173.15
BOND $H
LIST 6
MORE -1
CONF
fmap 2
ACTA
REM <olex2.extras>
REM <HklSrc "%./DAR002S-mask.hkl">
REM </olex2.extras>

WGHT    0.088300  114.315300
FVAR       0.03970
FE1   4    0.683983    0.744865    0.500000    10.50000    0.03971    0.01680 =
         0.01140    0.00000    0.00000    0.00081
CL1   3    0.750000    0.750000    0.500000    10.12500    0.02428    0.02428 =
         0.01680    0.00000    0.00000    0.00000
O1    6    0.607702    0.737742    0.500000    10.50000    0.03690    0.06217 =
         0.05761    0.00000    0.00000    0.00191
N1    5    0.717074    0.683370    0.462564    11.00000    0.01989    0.02430 =
         0.01477    0.00018    0.00199    0.00188
N2    5    0.689895    0.707327    0.462833    11.00000    0.02508    0.01802 =
         0.01423    0.00058   -0.00201    0.00053
N3    5    0.667910    0.701820    0.435437    11.00000    0.02519    0.02184 =
         0.01921   -0.00218   -0.00281    0.00359
C1    1    0.711869    0.662253    0.433979    11.00000    0.02383    0.02448 =
         0.01847   -0.00404    0.00106    0.00415
AFIX  43
H1    2    0.726849    0.642893    0.426704    11.00000   -1.20000
AFIX   0
C2    1    0.681196    0.673386    0.417023    11.00000    0.02278    0.02161 =
         0.01859   -0.00366   -0.00144    0.00452
C3    1    0.663449    0.659666    0.384204    11.00000    0.02154    0.02403 =
         0.01999   -0.00345   -0.00493    0.00230
C4    1    0.632900    0.676747    0.370659    11.00000    0.02094    0.02106 =
         0.02277   -0.00707   -0.00120    0.00540
AFIX  43
H4    2    0.623790    0.697583    0.382277    11.00000   -1.20000
AFIX   0
C5    1    0.636509    0.740328    0.500000    10.50000    0.05689    0.02603 =
         0.02392    0.00000    0.00000   -0.00532
HKLF 4

REM  dar002s_a.res in Fm-3c
REM R1 =  0.0405 for    1646 Fo > 4sig(Fo)  and  0.0439 for all    1873 data
REM     84 parameters refined using      0 restraints

END

WGHT      0.0883    114.1505

REM Highest difference peak  1.208,  deepest hole -0.313,  1-sigma level  0.069
Q1    1   0.7122  0.7488  0.5000  10.50000  0.05    1.21
Q2    1   0.6584  0.7436  0.5000  10.50000  0.05    0.81
Q3    1   0.7507  0.6359  0.4257  11.00000  0.05    0.33
Q4    1   0.5973  0.7077  0.5000  10.50000  0.05    0.32
Q5    1   0.7126  0.6955  0.4575  11.00000  0.05    0.30
Q6    1   0.7015  0.6960  0.4623  11.00000  0.05    0.28
Q7    1   0.5789  0.7493  0.5000  10.50000  0.05    0.27
Q8    1   0.5754  0.7411  0.5000  10.50000  0.05    0.26
Q9    1   0.5914  0.7235  0.4811  11.00000  0.05    0.22
Q10   1   0.5839  0.7290  0.4778  11.00000  0.05    0.22
Q11   1   0.7069  0.7150  0.5000  10.50000  0.05    0.20
Q12   1   0.6765  0.6872  0.4195  11.00000  0.05    0.19
Q13   1   0.6638  0.7162  0.4289  11.00000  0.05    0.18
Q14   1   0.7189  0.7477  0.4606  11.00000  0.05    0.18
Q15   1   0.7688  0.7349  0.4807  11.00000  0.05    0.18
Q16   1   0.6826  0.6783  0.4147  11.00000  0.05    0.18
Q17   1   0.7237  0.7280  0.4762  11.00000  0.05    0.18
Q18   1   0.6730  0.7082  0.4386  11.00000  0.05    0.18
Q19   1   0.6632  0.6680  0.3777  11.00000  0.05    0.17
Q20   1   0.6685  0.6662  0.3930  11.00000  0.05    0.17
;
_shelx_res_checksum              58406
_shelx_hkl_file
;
   0   4   0 3982.23  138.69
   0   4   2  220.60    3.02
   0   4   4 5728.07   23.98
   0   6   0 9816.45   82.47
   0   6   2 1787.28    3.74
   0   6   4    1.97    0.90
   0   6   6 5456.12   24.17
   0   8   0  959.65    2.00
   0   8   2   47.33    2.52
   0   8   4   51.37    1.42
   0   8   6   79.29    0.68
   0   8   8 4463.48   36.77
   0  10   0  470.44    1.81
   0  10   2  181.63    0.91
   0  10   4  635.54    1.83
   0  10   6 1346.84    2.97
   0  10   8    3.36    0.71
   0  10  10 3575.10   19.86
   0  12   0 4609.75   45.04
   0  12   2  225.55    2.44
   0  12   4  593.47    3.32
   0  12   6  183.69    1.89
   0  12   8 2382.65   10.84
   0  12  10  194.60    1.41
   0  12  12 2658.83   14.54
   0  14   0  981.81    9.51
   0  14   2  825.84    3.66
   0  14   4  754.83    2.94
   0  14   6  393.90    1.80
   0  14   8  686.22    3.58
   0  14  10 2464.65    9.79
   0  14  12   35.87    1.11
   0  14  14 2324.99   12.27
   0  16   0 8702.15   70.56
   0  16   2  682.84    3.24
   0  16   4 1900.05    7.22
   0  16   6  310.41    1.72
   0  16   8 2794.50   12.06
   0  16  10    8.82    0.77
   0  16  12 2536.30   10.63
   0  16  14  152.94    1.67
   0  16  16 1927.97   12.66
   0  18   0  298.34    2.11
   0  18   2  715.35    2.52
   0  18   4  468.89    3.11
   0  18   6  813.33    2.85
   0  18   8   37.23    1.31
   0  18  10  879.78    3.42
   0  18  12    1.76    0.86
   0  18  14  266.47    1.61
   0  18  16   80.04    1.55
   0  18  18  145.75    1.85
   0  20   0  206.67    6.08
   0  20   2   60.85    1.72
   0  20   4 1209.93    5.82
   0  20   6   29.80    1.36
   0  20   8  197.85    2.27
   0  20  10    3.22    0.91
   0  20  12  499.35    3.20
   0  20  14  307.28    2.34
   0  20  16  759.12    4.27
   0  20  18    2.87    1.04
   0  20  20  547.14    5.00
   0  22   0  134.61    2.96
   0  22   2  584.00    2.92
   0  22   4  506.24    2.79
   0  22   6  741.15    3.56
   0  22   8  558.10    2.67
   0  22  10   78.70    1.24
   0  22  12   13.23    0.94
   0  22  14  574.87    3.15
   0  22  16  402.98    2.62
   0  22  18 1269.31    5.46
   0  22  20    3.86    1.14
   0  22  22  448.85    4.18
   0  24   0 4251.40   36.13
   0  24   2  779.25    3.99
   0  24   4   26.72    1.27
   0  24   6  195.03    1.73
   0  24   8  414.27    2.32
   0  24  10    4.63    0.91
   0  24  12  258.42    2.33
   0  24  14  555.78    3.36
   0  24  16 1634.61    7.83
   0  24  18   42.48    1.69
   0  24  20   35.56    1.34
   0  24  22   14.90    1.39
   0  24  24   92.63    2.77
   0  26   0   33.37    2.13
   0  26   2  969.59    4.18
   0  26   4  150.56    1.71
   0  26   6  203.26    1.69
   0  26   8   18.44    0.99
   0  26  10   81.22    1.15
   0  26  12    5.53    1.10
   0  26  14  318.84    2.14
   0  26  16   55.41    1.74
   0  26  18   24.61    1.24
   0  26  20   88.62    1.47
   0  26  22  301.24    3.19
   0  26  24   10.46    1.70
   0  26  26   42.39    3.00
   0  28   0 3877.26   35.63
   0  28   2  635.33    4.12
   0  28   4 1259.57    6.02
   0  28   6   42.32    1.13
   0  28   8   54.58    1.73
   0  28  10   33.78    1.20
   0  28  12  624.21    3.86
   0  28  14  193.50    2.25
   0  28  16  919.68    5.11
   0  28  18  323.37    3.21
   0  28  20  223.54    2.80
   0  28  22  336.61    3.24
   0  28  24  169.47    3.99
   0  28  26    5.92    3.05
   0  28  28  491.73   12.29
   0  30   0  229.32    6.70
   0  30   2  814.08    3.89
   0  30   4  129.35    1.98
   0  30   6  154.27    1.94
   0  30   8  143.83    2.07
   0  30  10   15.75    1.34
   0  30  12  124.34    2.01
   0  30  14   38.14    1.59
   0  30  16   30.21    1.64
   0  30  18   62.06    1.94
   0  30  20   31.16    2.00
   0  30  22  317.96    3.90
   0  30  24   96.70    3.30
   0  30  26  206.44    5.63
   0  30  28   53.29    2.70
   0  30  30   33.22    3.87
   0  32   0 2014.58   20.09
   0  32   2  492.58    3.41
   0  32   4  667.21    4.03
   0  32   6   27.66    1.49
   0  32   8  107.36    2.21
   0  32  10    1.41    1.37
   0  32  12  169.50    2.37
   0  32  14  246.02    2.80
   0  32  16  280.68    3.13
   0  32  18   29.29    1.92
   0  32  20  228.33    3.58
   0  32  22    0.18    2.24
   0  32  24  235.89    4.10
   0  32  26    1.87    2.39
   0  32  28  388.99    5.76
   0  34   0   59.44    3.40
   0  34   2  211.25    2.56
   0  34   4    3.35    1.52
   0  34   6   52.65    1.66
   0  34   8    8.25    1.54
   0  34  10  123.22    2.07
   0  34  12  132.79    2.66
   0  34  14  184.64    2.64
   0  34  16   16.36    1.77
   0  34  18  167.96    3.10
   0  34  20    0.97    2.01
   0  34  22    2.28    2.21
   0  34  24    7.17    2.52
   0  34  26   34.85    2.68
   0  36   0  126.83    7.55
   0  36   2  117.08    3.04
   0  36   4   61.00    1.94
   0  36   6    7.99    2.24
   0  36   8    9.95    1.86
   0  36  10   20.99    1.87
   0  36  12  167.80    3.41
   0  36  14  177.79    3.21
   0  36  16  261.89    3.89
   0  36  18   15.71    2.32
   0  36  20   32.95    2.31
   0  36  22   15.91    2.31
   0  38   0  399.52   11.63
   0  38   2   27.14    2.50
   0  38   4   83.54    2.56
   0  38   6   49.29    2.07
   0  38   8  241.31    3.45
   0  38  10  133.65    2.65
   0  38  12  116.89    3.10
   0  38  14  280.70    5.00
   0  38  16  204.34    3.43
   0  38  18   41.10    2.63
   0  38  20    2.27    2.94
   0  40   0   61.18    5.34
   0  40   2    5.84    2.43
   0  40   4    2.80    2.30
   0  40   6   90.87    3.07
   0  40   8   95.05    3.77
   0  40  10   52.99    2.38
   0  40  12  128.40    4.68
   0  40  14  100.22    3.31
   0  40  16  259.74    4.72
   0  42   0    0.57    5.12
   0  42   2   11.88    2.50
   0  42   4   31.18    2.58
   0  42   6   87.58    2.93
   0  42   8    6.06    2.33
   0  42  10   75.36    3.12
   1   5   3   38.16    0.44
   1   7   3    9.94    0.63
   1   7   5  115.02    1.14
   1   9   3   31.17    0.67
   1   9   5   25.17    0.67
   1   9   7   77.35    0.78
   1  11   3   51.37    0.65
   1  11   5   45.76    0.57
   1  11   7   47.46    0.71
   1  11   9   24.64    0.52
   1  13   3   93.02    0.77
   1  13   5    1.76    0.48
   1  13   7  210.20    1.08
   1  13   9   16.10    0.53
   1  13  11  220.18    1.14
   1  15   3   37.70    0.66
   1  15   5   58.50    0.72
   1  15   7   27.59    0.63
   1  15   9   45.76    0.73
   1  15  11    4.72    0.54
   1  15  13  101.69    0.94
   1  17   3   52.34    0.77
   1  17   5   30.47    0.64
   1  17   7   68.90    0.85
   1  17   9    1.94    0.55
   1  17  11   28.05    0.68
   1  17  13   30.12    0.72
   1  17  15   13.12    0.61
   1  19   3   74.61    0.88
   1  19   5   88.83    0.94
   1  19   7    2.56    0.56
   1  19   9   86.77    0.92
   1  19  11   11.04    0.61
   1  19  13  106.35    1.01
   1  19  15    0.53    0.61
   1  19  17   46.37    0.78
   1  21   3  211.31    1.30
   1  21   5    2.52    0.60
   1  21   7    0.56    0.59
   1  21   9   35.11    0.74
   1  21  11    0.06    0.61
   1  21  13   15.72    0.67
   1  21  15   75.67    1.00
   1  21  17    0.32    0.67
   1  21  19   65.30    0.98
   1  23   3  360.84    1.71
   1  23   5    7.23    0.66
   1  23   7    3.86    0.65
   1  23   9  157.65    1.20
   1  23  11   88.47    1.03
   1  23  13  140.75    1.22
   1  23  15   17.59    0.78
   1  23  17   13.50    0.81
   1  23  19   25.04    0.89
   1  23  21    2.19    0.86
   1  25   3  487.97    2.06
   1  25   5   59.47    0.95
   1  25   7    7.57    0.71
   1  25   9   80.16    1.02
   1  25  11   19.39    0.77
   1  25  13   19.18    0.80
   1  25  15  235.35    1.55
   1  25  17  114.71    1.28
   1  25  19  190.30    1.54
   1  25  21   11.26    0.95
   1  25  23   32.09    1.13
   1  27   3  392.84    1.86
   1  27   5   33.81    0.87
   1  27   7   12.00    0.75
   1  27   9   74.79    1.06
   1  27  11   56.95    0.98
   1  27  13  146.39    1.40
   1  27  15   24.30    0.94
   1  27  17   58.00    1.12
   1  27  19  128.44    1.44
   1  27  21    0.23    1.02
   1  27  23    2.87    1.15
   1  27  25   86.99    1.80
   1  29   3  248.60    1.60
   1  29   5   15.67    0.83
   1  29   7   33.39    0.92
   1  29   9   24.63    0.93
   1  29  11   16.43    0.91
   1  29  13  109.80    1.35
   1  29  15    0.22    0.97
   1  29  17   32.06    1.13
   1  29  19  181.35    1.84
   1  29  21   41.14    1.39
   1  29  23   72.18    1.87
   1  29  25   23.21    1.58
   1  29  27    4.95    1.77
   1  31   3  129.74    1.37
   1  31   5    1.95    0.91
   1  31   7   35.52    1.00
   1  31   9   32.62    1.05
   1  31  11   19.30    1.02
   1  31  13  101.67    1.39
   1  31  15   33.44    1.13
   1  31  17   12.57    1.12
   1  31  19   23.16    1.27
   1  31  21    0.68    1.33
   1  31  23    0.47    1.48
   1  31  25  149.75    3.05
   1  31  27   42.83    1.91
   1  31  29   52.91    2.12
   1  33   3   70.07    1.51
   1  33   5    6.68    1.05
   1  33   7  110.34    1.47
   1  33   9    2.04    1.02
   1  33  11    0.24    1.03
   1  33  13   22.93    1.15
   1  33  15    3.82    1.21
   1  33  17    8.37    1.23
   1  33  19   49.46    1.53
   1  33  21   12.91    1.56
   1  33  23   34.36    1.96
   1  33  25   17.43    1.77
   1  33  27    2.74    1.79
   1  35   3   12.67    1.29
   1  35   5    4.26    1.18
   1  35   7   31.28    1.21
   1  35   9   20.14    1.22
   1  35  11    3.01    1.20
   1  35  13   66.49    1.63
   1  35  15   18.26    1.30
   1  35  17   47.13    1.51
   1  35  19    1.46    1.45
   1  35  21   10.31    1.56
   1  35  23    2.43    1.70
   1  35  25   57.67    2.05
   1  37   3    1.14    1.33
   1  37   5   11.47    1.42
   1  37   7   19.86    1.37
   1  37   9    1.03    1.27
   1  37  11   25.87    1.47
   1  37  13   11.06    1.38
   1  37  15    3.48    1.36
   1  37  17    1.37    1.50
   1  37  19   19.10    1.63
   1  37  21    1.82    1.65
   1  39   3    0.87    1.53
   1  39   5   18.01    1.57
   1  39   7    0.03    1.48
   1  39   9   31.01    1.60
   1  39  11    2.99    1.42
   1  39  13   47.27    1.75
   1  39  15    3.08    1.46
   1  39  17    0.14    1.55
   1  41   3   14.85    1.70
   1  41   5    0.19    1.64
   1  41   7    0.72    1.61
   1  41   9   27.54    1.73
   1  41  11    7.05    1.61
   1  41  13    4.30    1.55
   1  43   3   39.26    1.89
   2   4   2  271.22    0.55
   2   4   4 3348.66    3.80
   2   6   2  388.44    2.37
   2   6   4  346.95    1.28
   2   6   6  860.64    4.15
   2   8   2 2090.57   12.43
   2   8   4  253.14    1.33
   2   8   6   29.64    0.63
   2   8   8 1499.38    7.29
   2  10   2  105.35    1.53
   2  10   4   12.12    0.55
   2  10   6   75.10    0.53
   2  10   8    3.82    0.43
   2  10  10  402.26    2.44
   2  12   2  206.79    1.39
   2  12   4    7.85    0.46
   2  12   6    5.00    0.48
   2  12   8  317.20    1.57
   2  12  10    3.82    0.52
   2  12  12 1974.24    7.65
   2  14   2 4192.88   17.29
   2  14   4   16.64    0.48
   2  14   6  988.83    2.77
   2  14   8    6.94    0.54
   2  14  10 1669.12    5.03
   2  14  12    1.22    0.52
   2  14  14 2373.54    9.37
   2  16   2  574.40    3.65
   2  16   4   16.58    0.52
   2  16   6 1387.16    4.05
   2  16   8  552.05    2.16
   2  16  10   86.08    0.99
   2  16  12  635.41    2.22
   2  16  14   87.74    0.88
   2  16  16   76.66    1.30
   2  18   2 1104.47    4.28
   2  18   4   52.70    0.86
   2  18   6  616.66    1.83
   2  18   8   38.54    0.89
   2  18  10  537.43    1.94
   2  18  12  136.67    1.06
   2  18  14  873.83    2.71
   2  18  16  160.84    1.04
   2  18  18  322.00    2.00
   2  20   2   19.11    1.25
   2  20   4  469.62    2.03
   2  20   6   51.43    1.01
   2  20   8  228.87    1.59
   2  20  10    1.29    0.61
   2  20  12   90.63    1.00
   2  20  14   45.03    0.85
   2  20  16  248.98    1.49
   2  20  18    4.62    0.70
   2  20  20  208.37    2.08
   2  22   2  314.73    2.32
   2  22   4    2.25    0.72
   2  22   6  153.16    1.07
   2  22   8  103.88    1.09
   2  22  10   87.76    0.97
   2  22  12   11.04    0.77
   2  22  14  519.88    2.32
   2  22  16  327.21    1.76
   2  22  18  467.00    2.11
   2  22  20    1.25    0.78
   2  22  22  321.52    2.44
   2  24   2  290.67    1.96
   2  24   4  113.12    0.94
   2  24   6  446.72    1.90
   2  24   8   80.64    1.08
   2  24  10   61.69    0.92
   2  24  12   34.47    0.82
   2  24  14   49.15    0.93
   2  24  16  435.69    2.03
   2  24  18   44.33    1.01
   2  24  20    1.38    0.84
   2  24  22   18.88    0.99
   2  24  24    9.10    1.56
   2  26   2 1461.27    6.07
   2  26   4    9.52    0.76
   2  26   6   88.53    1.16
   2  26   8  318.23    1.88
   2  26  10    0.39    0.72
   2  26  12   64.86    0.86
   2  26  14 1055.60    3.45
   2  26  16  272.91    1.64
   2  26  18  233.94    1.54
   2  26  20    0.37    0.96
   2  26  22    1.36    1.12
   2  26  24  111.99    1.63
   2  26  26   31.19    2.01
   2  28   2   12.66    1.14
   2  28   4  200.92    1.44
   2  28   6  166.83    1.35
   2  28   8   22.57    0.90
   2  28  10  215.39    1.52
   2  28  12   47.76    1.02
   2  28  14   56.93    1.13
   2  28  16   20.61    0.98
   2  28  18    4.90    0.95
   2  28  20  181.70    1.88
   2  28  22   60.90    1.60
   2  28  24  186.60    2.31
   2  28  26   54.18    1.73
   2  28  28  118.48    3.19
   2  30   2 1686.95    7.39
   2  30   4    0.19    0.85
   2  30   6  200.14    1.51
   2  30   8  113.98    1.33
   2  30  10  132.68    1.51
   2  30  12   12.95    1.01
   2  30  14  465.17    2.51
   2  30  16  325.42    2.13
   2  30  18  347.41    2.30
   2  30  20   15.90    1.34
   2  30  22  149.84    2.26
   2  30  24   75.06    1.75
   2  30  26  359.14    4.09
   2  30  28   21.30    1.83
   2  30  30  393.27    6.07
   2  32   2    0.40    1.40
   2  32   4   45.35    1.08
   2  32   6  171.16    1.59
   2  32   8   36.45    1.09
   2  32  10   32.97    1.12
   2  32  12   28.40    1.10
   2  32  14   24.93    1.12
   2  32  16   74.70    1.41
   2  32  18    7.75    1.26
   2  32  20   55.28    1.50
   2  32  22   45.93    1.75
   2  32  24   41.04    1.78
   2  32  26   60.48    2.00
   2  32  28   38.16    1.95
   2  34   2  546.82    3.59
   2  34   4   23.48    1.16
   2  34   6   41.68    1.15
   2  34   8   48.38    1.25
   2  34  10   36.87    1.18
   2  34  12   70.42    1.46
   2  34  14  231.29    2.07
   2  34  16   25.49    1.34
   2  34  18  177.37    2.09
   2  34  20    2.30    1.43
   2  34  22   24.18    1.70
   2  34  24    0.00    1.68
   2  34  26   79.18    2.03
   2  36   2   39.30    2.03
   2  36   4   10.64    1.18
   2  36   6    7.32    1.32
   2  36   8   33.66    1.54
   2  36  10   32.07    1.33
   2  36  12  135.94    2.22
   2  36  14   91.28    1.79
   2  36  16  156.02    2.33
   2  36  18    0.82    1.43
   2  36  20    3.05    1.56
   2  36  22    1.06    1.66
   2  38   2   15.78    2.18
   2  38   4    4.78    1.48
   2  38   6    2.20    1.42
   2  38   8   16.32    1.46
   2  38  10    4.02    1.56
   2  38  12   10.23    1.36
   2  38  14  122.18    2.22
   2  38  16  164.74    2.79
   2  38  18   55.32    2.02
   2  38  20    0.18    1.61
   2  40   2   63.82    2.75
   2  40   4   17.66    1.68
   2  40   6   74.84    1.92
   2  40   8   70.75    2.16
   2  40  10   11.90    1.53
   2  40  12   38.58    1.65
   2  40  14   12.41    1.56
   2  40  16   44.23    1.90
   2  42   2   46.45    2.64
   2  42   4   13.80    1.73
   2  42   6   55.00    1.93
   2  42   8    2.73    1.68
   2  42  10  146.36    3.90
   3   7   5  107.74    0.84
   3   9   5    0.19    0.49
   3   9   7  210.37    1.04
   3  11   5  117.83    0.81
   3  11   7    4.26    0.50
   3  11   9  417.18    1.54
   3  13   5   41.47    0.63
   3  13   7   89.01    0.91
   3  13   9  179.28    0.99
   3  13  11  358.99    1.47
   3  15   5   74.53    0.78
   3  15   7   28.58    0.67
   3  15   9  455.38    1.86
   3  15  11   14.01    0.61
   3  15  13  106.93    0.94
   3  17   5   14.82    0.55
   3  17   7  371.38    1.63
   3  17   9    1.99    0.62
   3  17  11  255.37    1.36
   3  17  13    2.27    0.57
   3  17  15   56.35    0.80
   3  19   5  200.75    1.24
   3  19   7   27.27    0.69
   3  19   9   61.46    0.88
   3  19  11   25.08    0.72
   3  19  13   40.67    0.78
   3  19  15    8.95    0.65
   3  19  17  178.21    1.23
   3  21   5   75.31    0.90
   3  21   7  103.16    1.06
   3  21   9   46.91    0.83
   3  21  11  340.32    1.66
   3  21  13   46.07    0.85
   3  21  15  215.30    1.42
   3  21  17   69.93    0.97
   3  21  19  121.91    1.19
   3  23   5  106.15    1.04
   3  23   7   10.42    0.73
   3  23   9    0.00    0.65
   3  23  11   64.44    0.96
   3  23  13   50.05    0.89
   3  23  15    1.61    0.73
   3  23  17  585.52    2.37
   3  23  19    8.07    0.82
   3  23  21   47.97    1.14
   3  25   5  130.34    1.16
   3  25   7    8.90    0.74
   3  25   9    0.09    0.75
   3  25  11  195.03    1.38
   3  25  13    4.86    0.74
   3  25  15  200.16    1.50
   3  25  17  102.05    1.23
   3  25  19    3.03    0.85
   3  25  21  121.90    1.49
   3  25  23   12.95    1.07
   3  27   5  240.07    1.47
   3  27   7    3.70    0.77
   3  27   9    2.79    0.80
   3  27  11   85.24    1.12
   3  27  13   66.50    1.13
   3  27  15    0.25    0.89
   3  27  17  159.09    1.54
   3  27  19   73.03    1.30
   3  27  21  393.66    2.29
   3  27  23    6.04    1.16
   3  27  25  240.97    3.12
   3  29   5  235.03    1.60
   3  29   7   20.60    0.93
   3  29   9    3.13    0.87
   3  29  11  260.75    1.71
   3  29  13   12.69    1.00
   3  29  15    9.63    0.98
   3  29  17    4.62    1.00
   3  29  19   10.82    1.04
   3  29  21   24.02    1.32
   3  29  23  243.00    3.00
   3  29  25    2.99    1.49
   3  29  27  260.56    3.19
   3  31   5  266.38    1.79
   3  31   7    5.60    0.91
   3  31   9   48.22    1.10
   3  31  11   81.60    1.27
   3  31  13   24.95    1.08
   3  31  15    7.59    1.04
   3  31  17   51.14    1.24
   3  31  19   10.85    1.27
   3  31  21  197.05    2.25
   3  31  23    4.89    1.53
   3  31  25  105.86    2.70
   3  31  27   18.75    1.77
   3  31  29   36.33    1.90
   3  33   5  110.55    1.48
   3  33   7   92.97    1.33
   3  33   9   33.30    1.11
   3  33  11   83.33    1.35
   3  33  13   56.70    1.28
   3  33  15   83.94    1.53
   3  33  17   15.23    1.29
   3  33  19   31.33    1.42
   3  33  21    5.11    1.56
   3  33  23  161.21    2.93
   3  33  25   26.07    1.78
   3  33  27  184.85    3.42
   3  35   5  103.21    1.57
   3  35   7   34.17    1.17
   3  35   9  115.42    2.19
   3  35  11    7.14    1.24
   3  35  13    8.73    1.24
   3  35  15   27.75    1.32
   3  35  17   62.67    1.57
   3  35  19    2.25    1.43
   3  35  21   67.01    1.84
   3  35  23    4.28    1.75
   3  35  25    0.69    1.74
   3  37   5   42.02    1.57
   3  37   7   94.34    1.87
   3  37   9    1.11    1.33
   3  37  11  248.26    2.42
   3  37  13    1.23    1.30
   3  37  15  124.82    2.52
   3  37  17    4.71    1.44
   3  37  19   31.10    1.72
   3  37  21   17.67    1.72
   3  39   5   50.92    1.96
   3  39   7   20.09    1.54
   3  39   9   52.27    1.75
   3  39  11   78.41    2.02
   3  39  13  182.84    2.51
   3  39  15    0.20    1.48
   3  39  17  131.00    2.49
   3  41   5    8.12    1.68
   3  41   7   51.31    1.89
   3  41   9    9.26    1.65
   3  41  11  167.98    2.42
   3  41  13   38.88    1.73
   4   4   4 3226.70   25.69
   4   6   4 3161.44   30.76
   4   6   6  120.15    2.15
   4   8   4 1841.07   10.11
   4   8   6   20.53    0.81
   4   8   8  265.15    1.44
   4  10   4  258.82    2.01
   4  10   6  231.08    1.23
   4  10   8  277.89    1.11
   4  10  10  269.97    1.50
   4  12   4    4.47    0.68
   4  12   6    7.50    0.51
   4  12   8  365.52    1.43
   4  12  10    7.11    0.48
   4  12  12  167.12    1.50
   4  14   4 2738.85    9.29
   4  14   6  237.94    1.21
   4  14   8  121.51    1.06
   4  14  10   12.43    0.59
   4  14  12  125.58    0.88
   4  14  14    0.55    0.72
   4  16   4  323.00    1.51
   4  16   6   69.71    0.84
   4  16   8  252.10    1.42
   4  16  10    0.20    0.58
   4  16  12  356.27    1.48
   4  16  14  263.71    1.38
   4  16  16  247.11    1.80
   4  18   4   79.10    1.16
   4  18   6    6.23    0.60
   4  18   8  214.36    1.41
   4  18  10   16.30    0.64
   4  18  12    4.06    0.60
   4  18  14    8.07    0.64
   4  18  16   13.23    0.67
   4  18  18    0.01    0.85
   4  20   4  224.53    1.79
   4  20   6  533.95    1.87
   4  20   8  299.24    1.41
   4  20  10  112.85    1.13
   4  20  12    0.54    0.63
   4  20  14  280.83    1.45
   4  20  16  288.57    1.52
   4  20  18  129.43    1.19
   4  20  20  110.64    1.82
   4  22   4  143.45    2.13
   4  22   6    2.72    0.66
   4  22   8   51.33    0.95
   4  22  10    9.93    0.71
   4  22  12   14.39    0.85
   4  22  14    0.15    0.70
   4  22  16    0.75    0.71
   4  22  18   54.06    0.88
   4  22  20  235.07    1.74
   4  22  22  132.08    2.30
   4  24   4   83.51    1.81
   4  24   6   41.30    1.01
   4  24   8  629.87    2.49
   4  24  10  210.96    1.53
   4  24  12   59.61    1.08
   4  24  14   84.10    1.02
   4  24  16  142.92    1.23
   4  24  18  251.80    1.62
   4  24  20   14.71    0.99
   4  24  22   82.06    1.57
   4  24  24  381.29    3.78
   4  26   4   37.20    1.12
   4  26   6   12.35    0.78
   4  26   8   39.41    0.99
   4  26  10   27.22    0.92
   4  26  12   78.42    1.19
   4  26  14   12.48    0.87
   4  26  16   62.32    1.05
   4  26  18   56.56    1.04
   4  26  20   41.52    1.20
   4  26  22   62.37    1.24
   4  26  24    5.94    1.20
   4  26  26   44.74    2.24
   4  28   4   87.18    1.44
   4  28   6  374.40    2.00
   4  28   8    8.51    0.86
   4  28  10   76.16    1.22
   4  28  12  377.54    1.92
   4  28  14  319.17    1.83
   4  28  16  392.09    2.03
   4  28  18    3.66    0.95
   4  28  20   52.89    1.22
   4  28  22   53.50    1.41
   4  28  24    5.15    1.38
   4  28  26   41.43    1.64
   4  28  28  166.09    4.66
   4  30   4  383.73    2.50
   4  30   6    8.16    0.91
   4  30   8  240.95    1.64
   4  30  10    5.93    0.95
   4  30  12   25.64    0.96
   4  30  14   10.44    1.04
   4  30  16   38.34    1.04
   4  30  18   13.11    1.11
   4  30  20   89.43    1.58
   4  30  22    1.61    1.33
   4  30  24  169.56    2.51
   4  30  26    3.63    1.61
   4  30  28   77.87    1.98
   4  30  30    1.02    2.50
   4  32   4   61.31    1.53
   4  32   6  107.00    1.42
   4  32   8    2.52    0.98
   4  32  10   11.73    1.05
   4  32  12   88.26    1.31
   4  32  14   71.61    1.22
   4  32  16  301.94    2.28
   4  32  18   24.42    1.29
   4  32  20   17.18    1.50
   4  32  22   76.75    1.99
   4  32  24   13.98    1.74
   4  32  26    1.09    1.67
   4  32  28  156.09    3.12
   4  34   4   81.66    1.83
   4  34   6   16.34    1.06
   4  34   8   41.54    1.19
   4  34  10    6.67    1.11
   4  34  12    2.76    1.19
   4  34  14   93.89    1.70
   4  34  16    8.38    1.25
   4  34  18    2.34    1.35
   4  34  20   15.91    1.54
   4  34  22    0.85    1.59
   4  34  24   29.76    1.82
   4  34  26    0.13    1.76
   4  36   4    1.81    1.91
   4  36   6   10.96    1.43
   4  36   8   48.87    1.44
   4  36  10   17.63    1.37
   4  36  12    0.22    1.27
   4  36  14    2.20    1.29
   4  36  16   85.96    2.04
   4  36  18   22.69    1.57
   4  36  20   15.59    1.64
   4  36  22   35.84    2.07
   4  38   4   64.67    2.35
   4  38   6    4.29    1.39
   4  38   8   27.56    1.51
   4  38  10    5.49    1.75
   4  38  12    4.22    1.45
   4  38  14    1.36    1.39
   4  38  16   15.57    1.52
   4  38  18   13.21    1.61
   4  38  20   37.78    1.79
   4  40   4   10.85    3.02
   4  40   6   28.55    1.77
   4  40   8   32.87    1.70
   4  40  10    7.72    1.57
   4  40  12    9.89    1.52
   4  40  14   21.52    1.59
   4  42   4   66.39    2.72
   4  42   6    7.29    1.67
   4  42   8   49.29    2.00
   5   9   7    0.88    0.48
   5  11   7    9.70    0.48
   5  11   9    0.80    0.46
   5  13   7   22.21    0.63
   5  13   9    0.04    0.52
   5  13  11  236.87    1.20
   5  15   7    0.64    0.57
   5  15   9  121.40    1.03
   5  15  11    4.71    0.60
   5  15  13   74.12    0.86
   5  17   7   33.67    0.68
   5  17   9    8.29    0.64
   5  17  11    4.65    0.58
   5  17  13    7.72    0.61
   5  17  15    1.63    0.60
   5  19   7    0.06    0.60
   5  19   9   86.63    0.93
   5  19  11   98.82    1.06
   5  19  13  115.34    1.07
   5  19  15    3.44    0.65
   5  19  17    1.43    0.68
   5  21   7    0.87    0.66
   5  21   9   11.67    0.70
   5  21  11   33.46    0.80
   5  21  13   69.10    0.95
   5  21  15   35.45    0.82
   5  21  17    7.07    0.73
   5  21  19  162.59    1.33
   5  23   7    1.51    0.72
   5  23   9    3.69    0.75
   5  23  11   28.46    0.85
   5  23  13  191.84    1.39
   5  23  15    0.03    0.74
   5  23  17   48.10    0.93
   5  23  19  121.91    1.30
   5  23  21   61.22    1.11
   5  25   7   16.59    0.77
   5  25   9    7.61    0.82
   5  25  11    2.64    0.77
   5  25  13   25.92    0.91
   5  25  15  100.32    1.22
   5  25  17    5.35    0.86
   5  25  19  191.11    1.63
   5  25  21   73.23    1.23
   5  25  23  134.71    1.70
   5  27   7   43.22    0.96
   5  27   9    2.87    0.85
   5  27  11    0.01    0.84
   5  27  13  102.48    1.25
   5  27  15    0.08    0.88
   5  27  17    3.61    0.90
   5  27  19   73.46    1.28
   5  27  21    5.31    1.05
   5  27  23  125.46    1.96
   5  27  25   72.14    1.71
   5  29   7   26.31    0.96
   5  29   9   11.27    0.92
   5  29  11    0.13    0.87
   5  29  13   20.82    0.97
   5  29  15    6.57    0.97
   5  29  17   10.84    0.98
   5  29  19   29.19    1.17
   5  29  21    0.79    1.41
   5  29  23  162.60    2.39
   5  29  25    3.62    1.48
   5  29  27  103.24    2.39
   5  31   7   16.04    0.97
   5  31   9   70.74    1.19
   5  31  11   44.56    1.13
   5  31  13   26.79    1.08
   5  31  15    2.53    1.03
   5  31  17    3.68    1.06
   5  31  19    6.21    1.24
   5  31  21   77.11    1.90
   5  31  23    2.88    1.66
   5  31  25  222.70    2.66
   5  31  27    2.49    1.78
   5  31  29   44.15    1.93
   5  33   7   67.74    1.42
   5  33   9   23.63    1.10
   5  33  11    5.04    1.05
   5  33  13    6.61    1.14
   5  33  15    8.76    1.21
   5  33  17    0.02    1.23
   5  33  19   56.35    1.81
   5  33  21    1.31    1.47
   5  33  23   12.45    1.65
   5  33  25   20.74    1.76
   5  33  27    5.32    1.80
   5  35   7   12.37    1.21
   5  35   9  111.22    1.90
   5  35  11   45.14    1.41
   5  35  13  105.53    1.81
   5  35  15    4.91    1.30
   5  35  17   10.40    1.40
   5  35  19   45.46    1.59
   5  35  21    8.41    1.64
   5  35  23   24.11    1.80
   5  37   7   11.84    1.33
   5  37   9   80.11    1.81
   5  37  11    5.74    1.34
   5  37  13   46.39    1.62
   5  37  15   57.51    1.77
   5  37  17    0.50    1.49
   5  37  19   80.32    1.91
   5  37  21    0.10    1.68
   5  39   7   10.99    1.53
   5  39   9  138.93    2.78
   5  39  11   13.35    1.56
   5  39  13  150.84    2.97
   5  39  15   13.95    1.73
   5  39  17   23.37    1.69
   5  41   7   55.82    1.87
   5  41   9   32.77    1.72
   5  41  11  104.39    2.52
   6   6   6 7560.58   96.68
   6   8   6 2625.84   12.74
   6   8   8  752.01    2.60
   6  10   6 1945.90    9.53
   6  10   8   40.14    0.46
   6  10  10 2430.30   10.30
   6  12   6  172.34    1.00
   6  12   8  735.00    1.82
   6  12  10   22.12    0.59
   6  12  12  963.35    3.70
   6  14   6   62.14    0.89
   6  14   8   15.20    0.60
   6  14  10    1.66    0.56
   6  14  12  333.09    1.44
   6  14  14  112.39    1.09
   6  16   6  232.90    1.71
   6  16   8  155.63    1.03
   6  16  10  412.91    1.80
   6  16  12  267.77    1.29
   6  16  14    1.52    0.61
   6  16  16   15.86    0.76
   6  18   6  503.38    3.72
   6  18   8  473.51    2.45
   6  18  10  257.64    1.58
   6  18  12    5.55    0.57
   6  18  14   92.29    0.84
   6  18  16  461.99    1.87
   6  18  18   54.68    1.13
   6  20   6    5.41    0.94
   6  20   8   53.83    0.77
   6  20  10    2.27    0.73
   6  20  12   36.38    0.83
   6  20  14    3.79    0.68
   6  20  16  149.74    1.26
   6  20  18   21.03    0.81
   6  20  20  184.18    2.04
   6  22   6 1052.35    4.87
   6  22   8  304.74    1.74
   6  22  10  604.63    2.39
   6  22  12    0.76    0.74
   6  22  14    1.32    0.79
   6  22  16  291.75    1.78
   6  22  18  300.81    1.68
   6  22  20    2.76    0.87
   6  22  22  159.97    1.93
   6  24   6   23.78    1.14
   6  24   8  159.83    1.36
   6  24  10    0.07    0.79
   6  24  12   63.69    1.04
   6  24  14   17.76    0.86
   6  24  16  216.02    1.56
   6  24  18  123.17    1.39
   6  24  20    1.70    0.90
   6  24  22   95.02    1.27
   6  24  24   51.21    1.93
   6  26   6   62.94    1.59
   6  26   8   73.75    1.31
   6  26  10   91.75    1.41
   6  26  12    7.49    0.90
   6  26  14    2.72    0.87
   6  26  16  290.23    1.71
   6  26  18  102.01    1.17
   6  26  20   20.56    1.15
   6  26  22  331.45    2.17
   6  26  24   42.62    1.40
   6  26  26   22.04    2.27
   6  28   6  453.48    3.37
   6  28   8   15.50    0.92
   6  28  10  137.64    1.40
   6  28  12    4.34    0.93
   6  28  14   15.49    0.98
   6  28  16   67.30    1.22
   6  28  18  167.06    1.63
   6  28  20   77.42    1.28
   6  28  22  146.45    2.62
   6  28  24  130.40    2.54
   6  28  26   50.57    1.88
   6  28  28    0.01    2.17
   6  30   6   94.88    1.74
   6  30   8  253.45    1.80
   6  30  10   17.42    1.04
   6  30  12  179.19    1.72
   6  30  14  384.64    2.37
   6  30  16   15.33    1.11
   6  30  18   78.50    1.43
   6  30  20   12.43    1.28
   6  30  22   13.26    1.32
   6  30  24   26.62    1.64
   6  30  26    1.52    1.57
   6  30  28    7.87    1.73
   6  30  30   90.54    3.98
   6  32   6   83.81    1.72
   6  32   8   69.44    1.23
   6  32  10   19.93    1.11
   6  32  12    2.04    1.05
   6  32  14   25.28    1.17
   6  32  16    3.37    1.18
   6  32  18   59.94    1.42
   6  32  20   39.48    1.56
   6  32  22  100.76    2.24
   6  32  24   80.41    2.40
   6  32  26   44.92    1.81
   6  32  28    3.32    1.86
   6  34   6   78.68    1.91
   6  34   8    9.17    1.11
   6  34  10   51.24    1.40
   6  34  12   18.33    1.27
   6  34  14  132.59    1.87
   6  34  16  128.18    1.79
   6  34  18    2.13    1.36
   6  34  20   38.87    1.98
   6  34  22   82.72    1.96
   6  34  24   40.71    1.91
   6  34  26    0.08    2.20
   6  36   6   15.35    1.82
   6  36   8   47.14    1.38
   6  36  10   39.51    1.38
   6  36  12  132.91    2.35
   6  36  14   42.13    1.40
   6  36  16    9.19    1.42
   6  36  18   41.34    1.62
   6  36  20    1.89    1.91
   6  36  22    0.41    1.69
   6  38   6  275.86    3.88
   6  38   8  124.89    2.07
   6  38  10  165.52    2.17
   6  38  12    2.13    1.40
   6  38  14   70.40    1.75
   6  38  16    9.85    1.55
   6  38  18   65.50    1.86
   6  40   6   20.97    2.23
   6  40   8   62.20    1.97
   6  40  10   19.18    1.61
   6  40  12   48.35    1.72
   6  40  14   33.24    1.73
   6  42   6    7.72    2.38
   6  42   8   57.84    2.52
   7  11   9    0.51    0.48
   7  13   9    1.64    0.52
   7  13  11   73.17    0.86
   7  15   9    0.37    0.62
   7  15  11    0.02    0.57
   7  15  13    0.45    0.62
   7  17   9   46.79    0.84
   7  17  11  157.78    1.12
   7  17  13  222.39    1.37
   7  17  15    1.32    0.66
   7  19   9    1.73    0.70
   7  19  11   16.68    0.77
   7  19  13   47.97    0.86
   7  19  15    0.21    0.67
   7  19  17   17.26    0.73
   7  21   9    2.84    0.77
   7  21  11   31.57    0.86
   7  21  13   44.21    0.94
   7  21  15    2.49    0.75
   7  21  17    1.08    0.74
   7  21  19    6.38    0.85
   7  23   9    1.27    0.79
   7  23  11   49.64    0.97
   7  23  13   29.07    0.91
   7  23  15   14.20    0.84
   7  23  17   40.46    0.96
   7  23  19   51.51    1.08
   7  23  21   25.00    1.09
   7  25   9   54.61    1.06
   7  25  11    8.97    0.88
   7  25  13    5.92    0.88
   7  25  15   14.03    0.95
   7  25  17   62.94    1.12
   7  25  19   64.16    1.20
   7  25  21  166.14    1.68
   7  25  23   39.89    1.25
   7  27   9   43.10    1.02
   7  27  11    0.60    0.89
   7  27  13    1.43    0.92
   7  27  15    0.06    0.92
   7  27  17   17.75    1.00
   7  27  19   17.02    1.10
   7  27  21   72.09    1.71
   7  27  23    6.10    1.33
   7  27  25   37.10    1.59
   7  29   9    0.49    0.96
   7  29  11   13.56    1.01
   7  29  13   88.62    1.30
   7  29  15    0.74    0.99
   7  29  17    0.88    1.01
   7  29  19   17.25    1.20
   7  29  21   44.95    1.49
   7  29  23    0.04    1.40
   7  29  25    3.15    1.50
   7  29  27   25.02    1.62
   7  31   9   10.85    1.00
   7  31  11    1.16    0.98
   7  31  13    3.78    1.01
   7  31  15    6.57    1.06
   7  31  17   15.00    1.28
   7  31  19    3.53    1.23
   7  31  21    1.56    1.37
   7  31  23   14.93    1.52
   7  31  25    0.28    1.59
   7  31  27   14.92    1.71
   7  31  29    0.04    1.76
   7  33   9  135.31    1.82
   7  33  11   59.48    1.27
   7  33  13   11.50    1.25
   7  33  15   11.57    1.18
   7  33  17   32.05    1.39
   7  33  19   15.29    1.36
   7  33  21    0.20    1.49
   7  33  23   23.79    1.70
   7  33  25   43.12    1.83
   7  33  27   36.20    2.28
   7  35   9  141.41    2.17
   7  35  11   58.44    1.40
   7  35  13    2.21    1.23
   7  35  15    0.56    1.27
   7  35  17   50.46    1.57
   7  35  19   10.69    1.46
   7  35  21    7.16    1.61
   7  35  23    3.17    1.71
   7  37   9   43.75    1.47
   7  37  11   71.55    1.72
   7  37  13   10.55    1.43
   7  37  15   12.94    1.53
   7  37  17   36.89    1.62
   7  37  19    3.54    1.55
   7  37  21    3.92    1.78
   7  39   9    8.48    1.49
   7  39  11   34.01    1.60
   7  39  13    0.83    1.48
   7  39  15   26.67    1.68
   7  39  17   24.12    1.72
   7  41   9   25.67    1.70
   7  41  11   39.97    1.86
   8   8   810319.61   52.53
   8  10   8  678.20    2.86
   8  10  10 1433.29    4.61
   8  12   8    9.24    0.73
   8  12  10  237.12    1.16
   8  12  12  342.07    1.99
   8  14   8 1205.82    6.27
   8  14  10 1403.01    4.58
   8  14  12  259.61    1.47
   8  14  14  487.09    3.35
   8  16   8  300.59    1.89
   8  16  10  288.36    1.43
   8  16  12    0.65    0.60
   8  16  14  419.89    2.04
   8  16  16  900.29    4.76
   8  18   8    0.65    1.10
   8  18  10   61.50    1.03
   8  18  12   68.37    1.14
   8  18  14   87.88    1.15
   8  18  16   59.26    1.04
   8  18  18  140.46    2.04
   8  20   8  957.73    4.13
   8  20  10  182.97    1.40
   8  20  12   55.02    0.86
   8  20  14  137.38    1.31
   8  20  16    0.04    0.73
   8  20  18  100.13    1.34
   8  20  20  187.28    2.02
   8  22   8   13.34    1.10
   8  22  10   77.27    1.09
   8  22  12   63.92    1.04
   8  22  14   36.27    0.89
   8  22  16  196.63    1.59
   8  22  18  220.36    1.60
   8  22  20   55.42    1.07
   8  22  22   24.61    1.46
   8  24   8  541.76    2.94
   8  24  10    2.76    0.81
   8  24  12   35.96    0.92
   8  24  14  244.20    1.71
   8  24  16  107.53    1.27
   8  24  18   27.03    1.06
   8  24  20  245.19    1.70
   8  24  22   33.66    1.22
   8  24  24  324.23    3.25
   8  26   8   11.56    1.45
   8  26  10   22.13    1.09
   8  26  12    9.33    0.88
   8  26  14   28.75    1.05
   8  26  16    0.03    0.92
   8  26  18   12.49    1.13
   8  26  20    3.91    1.01
   8  26  22   41.36    1.30
   8  26  24    2.28    1.27
   8  26  26  169.04    4.37
   8  28   8   19.88    1.47
   8  28  10    8.69    0.91
   8  28  12    0.73    0.94
   8  28  14   24.59    1.03
   8  28  16  493.93    2.45
   8  28  18   33.60    1.21
   8  28  20    9.21    1.09
   8  28  22   94.32    2.02
   8  28  24   77.53    1.70
   8  28  26   15.15    1.54
   8  28  28   24.67    2.57
   8  30   8  225.59    2.46
   8  30  10   23.55    1.03
   8  30  12    0.11    0.98
   8  30  14   81.91    1.42
   8  30  16  133.47    1.49
   8  30  18   63.65    1.41
   8  30  20  196.40    2.17
   8  30  22  197.57    2.12
   8  30  24  132.77    2.68
   8  30  26   76.61    1.91
   8  30  28    1.40    1.64
   8  30  30    9.63    2.96
   8  32   8  221.67    2.39
   8  32  10   13.84    1.05
   8  32  12  169.77    1.84
   8  32  14  106.42    1.74
   8  32  16  119.48    1.79
   8  32  18    1.77    1.28
   8  32  20    6.08    1.45
   8  32  22   26.30    1.55
   8  32  24   37.90    1.82
   8  32  26    0.09    1.66
   8  34   8   16.25    1.60
   8  34  10  100.29    1.76
   8  34  12  426.45    2.97
   8  34  14  119.40    2.13
   8  34  16    8.96    1.27
   8  34  18    1.51    1.36
   8  34  20    4.46    1.52
   8  34  22   54.69    1.76
   8  34  24   26.83    1.81
   8  36   8  232.96    3.13
   8  36  10   20.86    1.28
   8  36  12   12.51    1.28
   8  36  14   21.50    1.43
   8  36  16   35.36    1.46
   8  36  18    3.23    1.47
   8  36  20   37.53    1.79
   8  36  22   10.57    1.75
   8  38   8   32.26    2.16
   8  38  10  124.11    1.95
   8  38  12   63.21    1.64
   8  38  14   12.90    1.56
   8  38  16   19.73    1.66
   8  38  18   48.34    1.82
   8  40   8  215.58    4.51
   8  40  10   51.71    1.79
   8  40  12  217.59    2.84
   8  40  14    3.23    1.61
   9  13  11    5.45    0.58
   9  15  11  389.30    1.77
   9  15  13  128.98    1.06
   9  17  11   95.34    1.05
   9  17  13    0.24    0.66
   9  17  15  119.12    1.10
   9  19  11   93.97    1.12
   9  19  13   37.97    0.89
   9  19  15  136.02    1.18
   9  19  17   32.75    0.86
   9  21  11   17.41    0.83
   9  21  13   26.50    0.86
   9  21  15  102.20    1.19
   9  21  17    1.31    0.75
   9  21  19   45.71    1.04
   9  23  11    0.04    0.83
   9  23  13   13.02    0.87
   9  23  15    0.97    0.84
   9  23  17   59.22    1.10
   9  23  19    1.01    0.93
   9  23  21    6.98    1.01
   9  25  11    3.47    0.86
   9  25  13   29.51    0.98
   9  25  15    0.33    0.91
   9  25  17   18.78    0.97
   9  25  19   79.95    1.29
   9  25  21   20.23    1.10
   9  25  23    2.86    1.11
   9  27  11    0.08    0.90
   9  27  13    4.52    0.92
   9  27  15    0.13    0.92
   9  27  17    8.76    1.01
   9  27  19  129.33    1.74
   9  27  21  154.60    1.79
   9  27  23   41.81    1.44
   9  27  25   14.80    1.45
   9  29  11    4.76    0.97
   9  29  13   34.67    1.08
   9  29  15    6.86    0.99
   9  29  17    0.61    1.02
   9  29  19    9.56    1.19
   9  29  21    0.26    1.25
   9  29  23   19.52    1.50
   9  29  25    8.75    1.47
   9  29  27   30.85    1.70
   9  31  11  132.29    1.57
   9  31  13    9.62    1.03
   9  31  15   28.24    1.15
   9  31  17   51.16    1.38
   9  31  19    7.90    1.29
   9  31  21   59.17    1.58
   9  31  23    0.03    1.44
   9  31  25    1.82    1.61
   9  31  27   14.15    1.69
   9  33  11   60.17    1.40
   9  33  13    1.50    1.16
   9  33  15    0.19    1.19
   9  33  17   47.80    1.42
   9  33  19   17.45    1.40
   9  33  21    2.03    1.48
   9  33  23   55.18    1.82
   9  33  25   10.79    1.74
   9  35  11  137.12    2.02
   9  35  13    2.82    1.31
   9  35  15    3.54    1.31
   9  35  17   67.82    1.80
   9  35  19    1.54    1.54
   9  35  21   18.10    1.66
   9  35  23   31.78    1.81
   9  37  11  170.27    2.39
   9  37  13   24.59    1.51
   9  37  15   13.81    1.58
   9  37  17    0.98    1.55
   9  37  19    3.17    1.58
   9  39  11   71.80    1.80
   9  39  13    1.96    1.52
   9  39  15    1.70    1.63
  10  10  10  564.92    3.36
  10  12  10  787.39    4.20
  10  12  12 2416.98   10.90
  10  14  10   90.93    1.27
  10  14  12   19.55    0.66
  10  14  14  895.08    3.98
  10  16  10  685.27    3.80
  10  16  12  156.93    1.25
  10  16  14 1004.52    3.21
  10  16  16   68.41    1.22
  10  18  10  216.70    2.10
  10  18  12   69.67    1.02
  10  18  14  520.24    2.12
  10  18  16  201.78    1.28
  10  18  18  195.46    1.90
  10  20  10    2.48    1.06
  10  20  12    0.79    0.75
  10  20  14   31.25    0.86
  10  20  16    0.11    0.74
  10  20  18    0.29    0.83
  10  20  20   33.86    1.33
  10  22  10  163.86    1.82
  10  22  12   83.13    1.26
  10  22  14   18.22    0.84
  10  22  16  121.72    1.39
  10  22  18   57.64    1.13
  10  22  20   17.59    0.97
  10  22  22  450.45    3.27
  10  24  10  155.95    2.07
  10  24  12    8.02    0.88
  10  24  14  428.38    2.18
  10  24  16    6.40    0.92
  10  24  18   15.09    1.02
  10  24  20   49.45    1.13
  10  24  22   28.42    1.15
  10  24  24   20.63    1.68
  10  26  10    0.24    1.34
  10  26  12   66.76    1.02
  10  26  14   46.27    1.02
  10  26  16   17.76    0.98
  10  26  18    4.16    1.04
  10  26  20    5.70    1.15
  10  26  22   31.55    1.29
  10  26  24    1.56    1.33
  10  26  26    0.65    2.03
  10  28  10   38.30    1.48
  10  28  12    0.25    0.93
  10  28  14  198.86    1.67
  10  28  16    0.46    0.96
  10  28  18   59.33    1.23
  10  28  20    3.89    1.16
  10  28  22   64.68    1.73
  10  28  24   39.01    1.59
  10  28  26   16.90    1.56
  10  28  28    0.39    2.20
  10  30  10    0.63    1.38
  10  30  12   26.35    1.07
  10  30  14  426.47    2.48
  10  30  16   71.11    1.46
  10  30  18  216.33    2.26
  10  30  20    2.84    1.29
  10  30  22    5.49    1.35
  10  30  24    9.71    1.60
  10  30  26   19.73    1.66
  10  30  28   47.81    1.85
  10  32  10  250.32    2.76
  10  32  12   34.09    1.18
  10  32  14   74.90    1.50
  10  32  16    6.20    1.23
  10  32  18   33.93    1.37
  10  32  20   11.42    1.41
  10  32  22   83.31    2.33
  10  32  24   37.62    1.82
  10  32  26    9.92    1.69
  10  34  10   18.29    1.93
  10  34  12   15.46    1.20
  10  34  14   21.00    1.28
  10  34  16   32.25    1.40
  10  34  18   23.43    1.42
  10  34  20    0.61    1.54
  10  34  22    2.26    1.57
  10  34  24   20.69    1.81
  10  36  10   14.24    2.14
  10  36  12    9.07    1.39
  10  36  14   61.62    1.62
  10  36  16    4.68    1.49
  10  36  18    5.81    1.58
  10  36  20    0.25    1.64
  10  38  10  227.61    3.65
  10  38  12    5.84    1.47
  10  38  14    2.22    1.54
  10  38  16   93.11    2.17
  10  38  18   17.28    2.24
  10  40  10   13.66    2.28
  10  40  12    1.17    1.72
  11  15  13  134.05    1.09
  11  17  13  522.63    2.21
  11  17  15   17.16    0.73
  11  19  13  358.88    1.84
  11  19  15    0.24    0.80
  11  19  17  224.33    1.49
  11  21  13  133.01    1.38
  11  21  15   26.40    0.91
  11  21  17   23.56    0.93
  11  21  19  145.42    1.44
  11  23  13   27.46    0.95
  11  23  15   12.06    0.91
  11  23  17  125.79    1.41
  11  23  19    2.73    0.97
  11  23  21   22.32    1.12
  11  25  13   36.10    1.02
  11  25  15   43.69    1.10
  11  25  17   47.83    1.16
  11  25  19   34.55    1.16
  11  25  21   21.16    1.16
  11  25  23  132.69    1.96
  11  27  13    1.15    0.93
  11  27  15    3.93    0.96
  11  27  17   33.87    1.16
  11  27  19    3.07    1.06
  11  27  21   16.23    1.27
  11  27  23    1.02    1.39
  11  27  25  116.93    2.09
  11  29  13   90.61    1.41
  11  29  15    7.29    1.03
  11  29  17   45.54    1.24
  11  29  19  162.63    2.22
  11  29  21   18.58    1.57
  11  29  23   77.40    2.06
  11  29  25   34.80    1.66
  11  29  27   24.56    1.68
  11  31  13   45.89    1.24
  11  31  15   41.19    1.33
  11  31  17    7.96    1.26
  11  31  19   13.52    1.39
  11  31  21   73.44    1.68
  11  31  23   11.65    1.54
  11  31  25  122.73    2.72
  11  31  27    8.55    1.66
  11  33  13   77.09    1.48
  11  33  15   32.08    1.37
  11  33  17    7.33    1.33
  11  33  19  145.17    2.43
  11  33  21   12.35    1.74
  11  33  23   41.64    1.70
  11  33  25    7.27    1.72
  11  35  13  128.38    2.10
  11  35  15    0.00    1.38
  11  35  17  124.95    2.29
  11  35  19   22.25    1.76
  11  35  21   26.33    1.71
  11  37  13   79.79    1.80
  11  37  15   46.14    1.65
  11  37  17    0.41    1.60
  11  37  19  141.69    2.50
  11  39  13  105.63    2.30
  11  39  15    0.51    1.98
  12  12  12  158.15    2.66
  12  14  12 2669.31   10.94
  12  14  14  138.36    1.43
  12  16  12 1548.19    6.58
  12  16  14   78.23    0.99
  12  16  16 2329.39    9.90
  12  18  12  382.55    2.52
  12  18  14  190.73    1.37
  12  18  16  269.05    1.54
  12  18  18   48.89    1.24
  12  20  12   31.08    1.18
  12  20  14  113.01    1.26
  12  20  16  424.52    2.03
  12  20  18    1.25    0.88
  12  20  20   11.20    1.37
  12  22  12  730.06    4.36
  12  22  14   93.09    1.36
  12  22  16  140.42    1.49
  12  22  18   36.86    1.03
  12  22  20   29.49    1.09
  12  22  22    5.34    1.48
  12  24  12   20.11    1.28
  12  24  14  158.91    1.57
  12  24  16    0.04    0.92
  12  24  18    0.14    0.95
  12  24  20   80.13    1.31
  12  24  22   14.40    1.22
  12  24  24    1.27    1.72
  12  26  12   47.96    1.43
  12  26  14   76.74    1.11
  12  26  16    1.41    1.00
  12  26  18   11.15    1.09
  12  26  20   16.60    1.19
  12  26  22    4.33    1.35
  12  26  24   11.13    1.44
  12  26  26   25.96    2.05
  12  28  12  633.08    4.05
  12  28  14   14.84    1.04
  12  28  16  167.13    1.66
  12  28  18    2.67    1.11
  12  28  20  109.59    1.95
  12  28  22    1.33    1.29
  12  28  24   64.99    1.76
  12  28  26    1.71    1.54
  12  28  28  180.69    3.70
  12  30  12  994.95    5.12
  12  30  14    7.66    1.05
  12  30  16   49.21    1.34
  12  30  18  109.80    2.04
  12  30  20   20.93    1.34
  12  30  22    1.16    1.41
  12  30  24   53.54    1.68
  12  30  26   21.90    1.69
  12  30  28    1.57    1.68
  12  32  12   27.88    1.80
  12  32  14    4.88    1.16
  12  32  16  449.01    2.83
  12  32  18   80.56    2.19
  12  32  20  114.05    2.21
  12  32  22    8.63    1.52
  12  32  24   18.03    1.68
  12  32  26    0.10    1.68
  12  34  12   98.94    2.58
  12  34  14   71.55    1.47
  12  34  16   12.19    1.44
  12  34  18    0.75    1.48
  12  34  20   12.26    1.56
  12  34  22   13.03    1.63
  12  36  12    6.25    1.98
  12  36  14  181.79    2.53
  12  36  16   67.97    1.80
  12  36  18   20.43    1.74
  12  36  20    1.79    1.69
  12  38  12   64.02    3.03
  12  38  14   43.76    1.81
  12  38  16  224.45    2.99
  13  17  15  246.08    1.40
  13  19  15  140.54    1.29
  13  19  17  129.16    1.36
  13  21  15  257.27    1.66
  13  21  17    2.72    0.86
  13  21  19  205.16    1.67
  13  23  15    1.67    0.93
  13  23  17   55.27    1.11
  13  23  19    1.91    0.99
  13  23  21   64.54    1.31
  13  25  15    8.91    1.00
  13  25  17    5.23    1.00
  13  25  19    5.77    1.05
  13  25  21    0.08    1.09
  13  25  23   53.32    1.74
  13  27  15  170.12    1.66
  13  27  17   66.84    1.26
  13  27  19   56.54    1.25
  13  27  21   44.69    1.48
  13  27  23    7.38    1.35
  13  27  25   45.36    1.59
  13  29  15   29.19    1.18
  13  29  17   52.86    1.38
  13  29  19    0.81    1.24
  13  29  21    0.31    1.27
  13  29  23  142.91    2.59
  13  29  25    0.94    1.55
  13  29  27  125.13    3.21
  13  31  15   22.21    1.27
  13  31  17   78.29    1.62
  13  31  19   27.15    1.36
  13  31  21  126.22    2.28
  13  31  23    0.57    1.52
  13  31  25    0.94    1.64
  13  31  27   70.88    2.26
  13  33  15  163.05    2.04
  13  33  17   11.85    1.50
  13  33  19    8.18    1.52
  13  33  21   15.49    1.58
  13  33  23    7.07    1.61
  13  35  15  137.37    2.33
  13  35  17  119.06    2.43
  13  35  19    7.16    1.58
  13  35  21   91.55    2.07
  13  37  15  217.78    2.70
  13  37  17    1.03    1.65
  14  14  14 4644.64   29.92
  14  16  14 1544.57    6.05
  14  16  16  499.78    2.82
  14  18  14 2745.71   11.27
  14  18  16   83.23    1.05
  14  18  18  899.02    4.22
  14  20  14   36.61    1.31
  14  20  16  312.96    1.77
  14  20  18    1.70    0.94
  14  20  20  178.90    2.32
  14  22  14    7.52    1.30
  14  22  16   56.41    1.18
  14  22  18    3.19    0.93
  14  22  20   34.62    1.10
  14  22  22    3.96    1.53
  14  24  14  421.22    3.14
  14  24  16   61.21    1.08
  14  24  18   70.75    1.21
  14  24  20   12.79    1.12
  14  24  22    2.38    1.14
  14  24  24   69.24    2.03
  14  26  14  187.70    2.32
  14  26  16   38.15    1.13
  14  26  18    7.82    1.05
  14  26  20    0.27    1.11
  14  26  22  123.93    2.45
  14  26  24    0.00    1.39
  14  26  26  280.96    4.31
  14  28  14  117.75    2.29
  14  28  16   24.52    1.17
  14  28  18   13.52    1.25
  14  28  20   79.71    1.78
  14  28  22   31.82    1.53
  14  28  24   58.29    1.82
  14  28  26   20.80    1.60
  14  28  28  217.66    3.93
  14  30  14  356.55    3.60
  14  30  16   65.94    2.03
  14  30  18  561.18    3.48
  14  30  20   11.46    1.35
  14  30  22  129.25    2.85
  14  30  24    0.50    1.58
  14  30  26  137.85    3.07
  14  32  14   53.70    1.99
  14  32  16   74.40    1.85
  14  32  18   17.06    1.45
  14  32  20   54.47    1.76
  14  32  22   15.50    1.62
  14  32  24   37.14    1.80
  14  34  14  305.54    3.84
  14  34  16   98.57    2.30
  14  34  18  199.04    2.83
  14  34  20    1.61    1.56
  14  34  22   10.75    1.69
  14  36  14  254.69    3.83
  14  36  16  102.29    2.50
  14  36  18    5.12    1.62
  14  38  14   88.89    3.49
  15  19  17   85.71    1.21
  15  21  17   20.56    0.95
  15  21  19    4.49    1.01
  15  23  17    6.05    0.94
  15  23  19   11.74    1.05
  15  23  21   25.42    1.17
  15  25  17  148.51    1.61
  15  25  19    6.14    1.14
  15  25  21    0.05    1.16
  15  25  23   12.43    1.37
  15  27  17  120.16    1.63
  15  27  19    5.22    1.26
  15  27  21    4.67    1.32
  15  27  23    0.70    1.41
  15  27  25    7.98    1.45
  15  29  17   34.34    1.37
  15  29  19    8.38    1.39
  15  29  21    1.93    1.36
  15  29  23    0.29    1.51
  15  29  25   81.98    2.00
  15  29  27    3.53    1.67
  15  31  17   11.83    1.39
  15  31  19   34.06    1.51
  15  31  21    8.68    1.52
  15  31  23    3.57    1.61
  15  31  25   21.37    1.72
  15  33  17    6.62    1.54
  15  33  19   76.33    2.17
  15  33  21   36.77    1.73
  15  33  23    0.90    1.73
  15  35  17   48.39    1.81
  15  35  19    1.05    1.60
  16  16  16 5365.83   36.45
  16  18  16  158.27    2.02
  16  18  18  491.97    3.18
  16  20  16  207.30    2.19
  16  20  18    1.18    0.96
  16  20  20   49.08    1.80
  16  22  16  369.54    3.12
  16  22  18  102.89    1.48
  16  22  20   23.49    1.14
  16  22  22  125.76    2.53
  16  24  16    6.78    1.48
  16  24  18   11.95    1.04
  16  24  20    5.09    1.11
  16  24  22    3.91    1.36
  16  24  24  268.08    3.48
  16  26  16   13.15    1.54
  16  26  18   46.31    1.23
  16  26  20    5.80    1.26
  16  26  22   93.56    1.98
  16  26  24   60.05    1.75
  16  26  26  104.73    2.94
  16  28  16  530.41    4.08
  16  28  18   55.76    1.51
  16  28  20  204.08    2.79
  16  28  22    2.22    1.47
  16  28  24  162.39    2.84
  16  28  26    6.83    1.60
  16  28  28  160.94    3.64
  16  30  16  111.33    2.58
  16  30  18   38.95    1.57
  16  30  20   61.79    1.67
  16  30  22   46.56    1.92
  16  30  24    6.45    1.64
  16  30  26  116.67    2.88
  16  32  16  463.41    6.30
  16  32  18   24.90    1.53
  16  32  20  168.94    2.44
  16  32  22   10.02    1.74
  16  32  24   18.35    1.84
  16  34  16   16.87    2.24
  16  34  18   88.56    1.92
  16  34  20    4.63    1.67
  16  36  16  152.38    3.45
  17  21  19    0.80    1.05
  17  23  19    7.71    1.12
  17  23  21   19.54    1.20
  17  25  19   50.88    1.31
  17  25  21    2.37    1.29
  17  25  23  140.44    2.31
  17  27  19   56.89    1.62
  17  27  21   20.54    1.50
  17  27  23    0.09    1.48
  17  27  25  131.69    3.13
  17  29  19   80.60    1.90
  17  29  21   14.44    1.53
  17  29  23   15.88    1.63
  17  29  25    0.35    1.59
  17  29  27   17.66    1.67
  17  31  19   30.49    1.57
  17  31  21    0.04    1.52
  17  31  23   19.54    1.71
  17  33  19   34.47    1.72
  17  33  21    0.80    1.65
  18  18  18  542.64    5.46
  18  20  18   70.52    2.22
  18  20  20  159.50    2.81
  18  22  18   52.22    1.89
  18  22  20    7.53    1.22
  18  22  22   15.00    2.31
  18  24  18  170.33    2.74
  18  24  20   65.62    2.23
  18  24  22    0.91    1.36
  18  24  24   20.93    2.02
  18  26  18  160.08    3.06
  18  26  20   18.23    1.37
  18  26  22   31.93    1.61
  18  26  24    2.36    1.61
  18  26  26   48.96    2.39
  18  28  18   83.38    2.40
  18  28  20    2.42    1.44
  18  28  22   20.58    1.65
  18  28  24   38.45    1.74
  18  28  26    5.38    1.62
  18  30  18  283.57    4.13
  18  30  20    2.11    1.49
  18  30  22   19.00    1.66
  18  30  24   16.16    1.71
  18  32  18   48.59    2.52
  18  32  20    8.69    1.66
  18  32  22   32.91    1.73
  18  34  18   88.82    3.52
  19  23  21  112.87    2.32
  19  25  21  140.24    2.40
  19  25  23  139.17    2.50
  19  27  21  193.33    2.98
  19  27  23    0.94    1.56
  19  27  25  284.52    2.95
  19  29  21    3.30    1.53
  19  29  23   67.28    1.84
  19  29  25   10.69    1.66
  19  31  21    8.70    1.59
  19  31  23    1.38    1.68
  20  20  20  103.28    3.67
  20  22  20  228.64    3.02
  20  22  22   35.50    2.20
  20  24  20    5.50    2.14
  20  24  22    1.87    1.49
  20  24  24  166.19    3.50
  20  26  20    8.77    2.08
  20  26  22   30.81    1.65
  20  26  24   12.61    1.61
  20  26  26    1.46    2.27
  20  28  20   16.87    2.24
  20  28  22    7.06    1.59
  20  28  24    3.33    1.59
  20  28  26    4.03    1.70
  20  30  20   71.41    2.62
  20  30  22    5.74    1.64
  20  32  20    1.10    2.22
  21  25  23  308.16    3.10
  21  27  23   81.29    1.97
  21  27  25  182.42    2.68
  21  29  23   70.28    2.03
  22  22  22  576.57    8.55
  22  24  22  199.48    3.56
  22  24  24   77.10    3.38
  22  26  22  273.68    3.85
  22  26  24    1.41    1.69
  22  26  26   79.28    4.02
  22  28  22   51.21    3.44
  22  28  24   89.31    2.63
  22  30  22    4.05    3.37
  24  24  24  666.70   12.42
  24  26  24    7.56    2.37
   0   0   0    0.00    0.00
;
_shelx_hkl_checksum              86358
_shelx_shelxl_version_number     2014/7
_olex2_submission_special_instructions 'No special instructions were received'
loop_
_space_group_symop_operation_xyz
'x, y, z'
'-x, -y, z'
'-x, y, -z'
'x, -y, -z'
'z, x, y'
'z, -x, -y'
'-z, -x, y'
'-z, x, -y'
'y, z, x'
'-y, z, -x'
'y, -z, -x'
'-y, -z, x'
'y+1/2, x+1/2, -z+1/2'
'-y+1/2, -x+1/2, -z+1/2'
'y+1/2, -x+1/2, z+1/2'
'-y+1/2, x+1/2, z+1/2'
'x+1/2, z+1/2, -y+1/2'
'-x+1/2, z+1/2, y+1/2'
'-x+1/2, -z+1/2, -y+1/2'
'x+1/2, -z+1/2, y+1/2'
'z+1/2, y+1/2, -x+1/2'
'z+1/2, -y+1/2, x+1/2'
'-z+1/2, y+1/2, x+1/2'
'-z+1/2, -y+1/2, -x+1/2'
'x, y+1/2, z+1/2'
'-x, -y+1/2, z+1/2'
'-x, y+1/2, -z+1/2'
'x, -y+1/2, -z+1/2'
'z, x+1/2, y+1/2'
'z, -x+1/2, -y+1/2'
'-z, -x+1/2, y+1/2'
'-z, x+1/2, -y+1/2'
'y, z+1/2, x+1/2'
'-y, z+1/2, -x+1/2'
'y, -z+1/2, -x+1/2'
'-y, -z+1/2, x+1/2'
'y+1/2, x+1, -z+1'
'-y+1/2, -x+1, -z+1'
'y+1/2, -x+1, z+1'
'-y+1/2, x+1, z+1'
'x+1/2, z+1, -y+1'
'-x+1/2, z+1, y+1'
'-x+1/2, -z+1, -y+1'
'x+1/2, -z+1, y+1'
'z+1/2, y+1, -x+1'
'z+1/2, -y+1, x+1'
'-z+1/2, y+1, x+1'
'-z+1/2, -y+1, -x+1'
'x+1/2, y, z+1/2'
'-x+1/2, -y, z+1/2'
'-x+1/2, y, -z+1/2'
'x+1/2, -y, -z+1/2'
'z+1/2, x, y+1/2'
'z+1/2, -x, -y+1/2'
'-z+1/2, -x, y+1/2'
'-z+1/2, x, -y+1/2'
'y+1/2, z, x+1/2'
'-y+1/2, z, -x+1/2'
'y+1/2, -z, -x+1/2'
'-y+1/2, -z, x+1/2'
'y+1, x+1/2, -z+1'
'-y+1, -x+1/2, -z+1'
'y+1, -x+1/2, z+1'
'-y+1, x+1/2, z+1'
'x+1, z+1/2, -y+1'
'-x+1, z+1/2, y+1'
'-x+1, -z+1/2, -y+1'
'x+1, -z+1/2, y+1'
'z+1, y+1/2, -x+1'
'z+1, -y+1/2, x+1'
'-z+1, y+1/2, x+1'
'-z+1, -y+1/2, -x+1'
'x+1/2, y+1/2, z'
'-x+1/2, -y+1/2, z'
'-x+1/2, y+1/2, -z'
'x+1/2, -y+1/2, -z'
'z+1/2, x+1/2, y'
'z+1/2, -x+1/2, -y'
'-z+1/2, -x+1/2, y'
'-z+1/2, x+1/2, -y'
'y+1/2, z+1/2, x'
'-y+1/2, z+1/2, -x'
'y+1/2, -z+1/2, -x'
'-y+1/2, -z+1/2, x'
'y+1, x+1, -z+1/2'
'-y+1, -x+1, -z+1/2'
'y+1, -x+1, z+1/2'
'-y+1, x+1, z+1/2'
'x+1, z+1, -y+1/2'
'-x+1, z+1, y+1/2'
'-x+1, -z+1, -y+1/2'
'x+1, -z+1, y+1/2'
'z+1, y+1, -x+1/2'
'z+1, -y+1, x+1/2'
'-z+1, y+1, x+1/2'
'-z+1, -y+1, -x+1/2'
'-x, -y, -z'
'x, y, -z'
'x, -y, z'
'-x, y, z'
'-z, -x, -y'
'-z, x, y'
'z, x, -y'
'z, -x, y'
'-y, -z, -x'
'y, -z, x'
'-y, z, x'
'y, z, -x'
'-y-1/2, -x-1/2, z-1/2'
'y-1/2, x-1/2, z-1/2'
'-y-1/2, x-1/2, -z-1/2'
'y-1/2, -x-1/2, -z-1/2'
'-x-1/2, -z-1/2, y-1/2'
'x-1/2, -z-1/2, -y-1/2'
'x-1/2, z-1/2, y-1/2'
'-x-1/2, z-1/2, -y-1/2'
'-z-1/2, -y-1/2, x-1/2'
'-z-1/2, y-1/2, -x-1/2'
'z-1/2, -y-1/2, -x-1/2'
'z-1/2, y-1/2, x-1/2'
'-x, -y+1/2, -z+1/2'
'x, y+1/2, -z+1/2'
'x, -y+1/2, z+1/2'
'-x, y+1/2, z+1/2'
'-z, -x+1/2, -y+1/2'
'-z, x+1/2, y+1/2'
'z, x+1/2, -y+1/2'
'z, -x+1/2, y+1/2'
'-y, -z+1/2, -x+1/2'
'y, -z+1/2, x+1/2'
'-y, z+1/2, x+1/2'
'y, z+1/2, -x+1/2'
'-y-1/2, -x, z'
'y-1/2, x, z'
'-y-1/2, x, -z'
'y-1/2, -x, -z'
'-x-1/2, -z, y'
'x-1/2, -z, -y'
'x-1/2, z, y'
'-x-1/2, z, -y'
'-z-1/2, -y, x'
'-z-1/2, y, -x'
'z-1/2, -y, -x'
'z-1/2, y, x'
'-x+1/2, -y, -z+1/2'
'x+1/2, y, -z+1/2'
'x+1/2, -y, z+1/2'
'-x+1/2, y, z+1/2'
'-z+1/2, -x, -y+1/2'
'-z+1/2, x, y+1/2'
'z+1/2, x, -y+1/2'
'z+1/2, -x, y+1/2'
'-y+1/2, -z, -x+1/2'
'y+1/2, -z, x+1/2'
'-y+1/2, z, x+1/2'
'y+1/2, z, -x+1/2'
'-y, -x-1/2, z'
'y, x-1/2, z'
'-y, x-1/2, -z'
'y, -x-1/2, -z'
'-x, -z-1/2, y'
'x, -z-1/2, -y'
'x, z-1/2, y'
'-x, z-1/2, -y'
'-z, -y-1/2, x'
'-z, y-1/2, -x'
'z, -y-1/2, -x'
'z, y-1/2, x'
'-x+1/2, -y+1/2, -z'
'x+1/2, y+1/2, -z'
'x+1/2, -y+1/2, z'
'-x+1/2, y+1/2, z'
'-z+1/2, -x+1/2, -y'
'-z+1/2, x+1/2, y'
'z+1/2, x+1/2, -y'
'z+1/2, -x+1/2, y'
'-y+1/2, -z+1/2, -x'
'y+1/2, -z+1/2, x'
'-y+1/2, z+1/2, x'
'y+1/2, z+1/2, -x'
'-y, -x, z-1/2'
'y, x, z-1/2'
'-y, x, -z-1/2'
'y, -x, -z-1/2'
'-x, -z, y-1/2'
'x, -z, -y-1/2'
'x, z, y-1/2'
'-x, z, -y-1/2'
'-z, -y, x-1/2'
'-z, y, -x-1/2'
'z, -y, -x-1/2'
'z, y, x-1/2'
loop_
_atom_site_label
_atom_site_type_symbol
_atom_site_fract_x
_atom_site_fract_y
_atom_site_fract_z
_atom_site_U_iso_or_equiv
_atom_site_adp_type
_atom_site_occupancy
_atom_site_site_symmetry_order
_atom_site_calc_flag
_atom_site_refinement_flags_posn
_atom_site_refinement_flags_adp
_atom_site_refinement_flags_occupancy
Fe1 Fe 0.68398(2) 0.74486(2) 0.5000 0.0226(2) Uani 1 2 d S T P
Cl1 Cl 0.7500 0.7500 0.5000 0.0218(4) Uani 1 8 d S T P
O1 O 0.60770(9) 0.73774(9) 0.5000 0.0522(8) Uani 1 2 d S T P
N1 N 0.71707(5) 0.68337(5) 0.46256(5) 0.0197(5) Uani 1 1 d . . .
N2 N 0.68990(5) 0.70733(5) 0.46283(5) 0.0191(4) Uani 1 1 d . . .
N3 N 0.66791(5) 0.70182(5) 0.43544(5) 0.0221(5) Uani 1 1 d . . .
C1 C 0.71187(6) 0.66225(6) 0.43398(6) 0.0223(5) Uani 1 1 d . . .
H1 H 0.7268 0.6429 0.4267 0.027 Uiso 1 1 calc R . .
C2 C 0.68120(6) 0.67339(6) 0.41702(6) 0.0210(5) Uani 1 1 d . . .
C3 C 0.66345(6) 0.65967(6) 0.38420(6) 0.0219(5) Uani 1 1 d . . .
C4 C 0.63290(6) 0.67675(6) 0.37066(6) 0.0216(5) Uani 1 1 d . . .
H4 H 0.6238 0.6976 0.3823 0.026 Uiso 1 1 calc R . .
C5 C 0.63651(13) 0.74033(10) 0.5000 0.0356(9) Uani 1 2 d S T P
loop_
_atom_site_aniso_label
_atom_site_aniso_U_11
_atom_site_aniso_U_22
_atom_site_aniso_U_33
_atom_site_aniso_U_23
_atom_site_aniso_U_13
_atom_site_aniso_U_12
Fe1 0.0397(4) 0.0168(3) 0.0114(3) 0.000 0.000 0.0008(2)
Cl1 0.0243(5) 0.0243(5) 0.0168(7) 0.000 0.000 0.000
O1 0.0369(19) 0.062(2) 0.058(2) 0.000 0.000 0.0019(15)
N1 0.0199(10) 0.0243(11) 0.0148(9) 0.0002(8) 0.0020(8) 0.0019(8)
N2 0.0251(10) 0.0180(9) 0.0142(9) 0.0006(8) -0.0020(8) 0.0005(8)
N3 0.0252(10) 0.0218(10) 0.0192(10) -0.0022(8) -0.0028(8) 0.0036(8)
C1 0.0238(12) 0.0245(12) 0.0185(12) -0.0040(9) 0.0011(9) 0.0042(10)
C2 0.0228(12) 0.0216(12) 0.0186(12) -0.0037(10) -0.0014(9) 0.0045(10)
C3 0.0215(12) 0.0240(12) 0.0200(11) -0.0034(9) -0.0049(9) 0.0023(10)
C4 0.0209(12) 0.0211(11) 0.0228(12) -0.0071(9) -0.0012(10) 0.0054(10)
C5 0.057(3) 0.0260(19) 0.0239(19) 0.000 0.000 -0.0053(18)
loop_
_atom_type_symbol
_atom_type_description
_atom_type_scat_dispersion_real
_atom_type_scat_dispersion_imag
_atom_type_scat_source
C C 0.0040 0.0020 'International Tables Vol C Tables 4.2.6.8 and 6.1.1.4'
H H 0.0000 0.0000 'International Tables Vol C Tables 4.2.6.8 and 6.1.1.4'
Cl Cl 0.1690 0.1900 'International Tables Vol C Tables 4.2.6.8 and 6.1.1.4'
Fe Fe 0.3680 0.9950 'International Tables Vol C Tables 4.2.6.8 and 6.1.1.4'
N N 0.0080 0.0040 'International Tables Vol C Tables 4.2.6.8 and 6.1.1.4'
O O 0.0140 0.0070 'International Tables Vol C Tables 4.2.6.8 and 6.1.1.4'
loop_
_geom_angle_atom_site_label_1
_geom_angle_atom_site_label_2
_geom_angle_atom_site_label_3
_geom_angle
_geom_angle_site_symmetry_1
_geom_angle_site_symmetry_3
N1 Fe1 Cl1 87.48(6) 160_576 .
N1 Fe1 Cl1 87.48(6) 63_464 .
N1 Fe1 N1 89.04(10) 160_576 63_464
N2 Fe1 Cl1 86.78(6) 98_556 .
N2 Fe1 Cl1 86.78(6) . .
N2 Fe1 N1 90.83(7) 98_556 160_576
N2 Fe1 N1 174.27(8) . 160_576
N2 Fe1 N1 90.83(7) . 63_464
N2 Fe1 N1 174.26(8) 98_556 63_464
N2 Fe1 N2 88.73(11) . 98_556
C5 Fe1 Cl1 178.99(12) . .
C5 Fe1 N1 93.24(10) . 63_464
C5 Fe1 N1 93.24(10) . 160_576
C5 Fe1 N2 92.50(10) . .
C5 Fe1 N2 92.50(10) . 98_556
Fe1 Cl1 Fe1 180.0 135_756 63_464
Fe1 Cl1 Fe1 90.0 135_756 .
Fe1 Cl1 Fe1 180.0 169_666 .
Fe1 Cl1 Fe1 90.0 169_666 135_756
Fe1 Cl1 Fe1 90.000(1) 169_666 63_464
Fe1 Cl1 Fe1 89.998(1) 63_464 .
N2 N1 Fe1 121.46(14) . 135_756
C1 N1 Fe1 131.92(16) . 135_756
C1 N1 N2 106.62(18) . .
N1 N2 Fe1 123.75(14) . .
N3 N2 Fe1 125.41(15) . .
N3 N2 N1 110.84(17) . .
N2 N3 C2 106.57(17) . .
N1 C1 H1 126.0 . .
N1 C1 C2 108.0(2) . .
C2 C1 H1 126.0 . .
N3 C2 C1 107.93(19) . .
N3 C2 C3 121.63(19) . .
C1 C2 C3 130.4(2) . .
C4 C3 C2 120.3(2) . .
C4 C3 C2 120.0(2) 11_566 .
C4 C3 C4 119.7(2) 11_566 .
C3 C4 C3 120.3(2) 8_656 .
C3 C4 H4 119.8 . .
C3 C4 H4 119.8 8_656 .
O1 C5 Fe1 179.7(4) . .
loop_
_geom_bond_atom_site_label_1
_geom_bond_atom_site_label_2
_geom_bond_distance
_geom_bond_site_symmetry_2
Fe1 Cl1 2.4633(5) .
Fe1 N1 1.9861(19) 160_576
Fe1 N1 1.9861(19) 63_464
Fe1 N2 1.9774(19) .
Fe1 N2 1.9775(19) 98_556
Fe1 C5 1.774(5) .
Cl1 Fe1 2.4632(5) 135_756
Cl1 Fe1 2.4632(5) 63_464
Cl1 Fe1 2.4632(5) 169_666
O1 C5 1.076(5) .
N1 Fe1 1.9862(19) 135_756
N1 N2 1.348(3) .
N1 C1 1.336(3) .
N2 N3 1.323(3) .
N3 C2 1.354(3) .
C1 H1 0.9500 .
C1 C2 1.368(3) .
C2 C3 1.479(3) .
C3 C4 1.386(3) 11_566
C3 C4 1.396(3) .
C4 C3 1.386(3) 8_656
C4 H4 0.9500 .
loop_
_geom_torsion_atom_site_label_1
_geom_torsion_atom_site_label_2
_geom_torsion_atom_site_label_3
_geom_torsion_atom_site_label_4
_geom_torsion
_geom_torsion_site_symmetry_1
_geom_torsion_site_symmetry_4
Fe1 N1 N2 Fe1 -1.0(2) 135_756 .
Fe1 N1 N2 N3 179.93(14) 135_756 .
Fe1 N1 C1 C2 179.78(16) 135_756 .
Fe1 N2 N3 C2 -178.83(15) . .
N1 N2 N3 C2 0.3(2) . .
N1 C1 C2 N3 0.6(3) . .
N1 C1 C2 C3 179.5(2) . .
N2 N1 C1 C2 -0.4(3) . .
N2 N3 C2 C1 -0.5(3) . .
N2 N3 C2 C3 -179.5(2) . .
N3 C2 C3 C4 -176.6(2) . 11_566
N3 C2 C3 C4 2.2(3) . .
C1 N1 N2 Fe1 179.20(15) . .
C1 N1 N2 N3 0.1(2) . .
C1 C2 C3 C4 -176.6(3) . .
C1 C2 C3 C4 4.6(4) . 11_566
C2 C3 C4 C3 -178.62(16) . 8_656
C4 C3 C4 C3 0.2(5) 11_566 8_656
loop_
_smtbx_masks_void_nr
_smtbx_masks_void_average_x
_smtbx_masks_void_average_y
_smtbx_masks_void_average_z
_smtbx_masks_void_volume
_smtbx_masks_void_count_electrons
1 -0.265 -0.107 -0.996 25059.7 826.1
2 0.250 0.250 0.250 930.2 123.1
3 0.250 0.250 0.750 930.2 129.8
4 0.250 0.750 0.250 930.2 129.8
5 0.250 0.750 0.750 930.2 123.1
6 0.750 0.250 0.250 930.2 129.8
7 0.750 0.250 0.750 930.2 123.1
8 0.750 0.750 0.250 930.2 123.1
9 0.750 0.750 0.750 930.2 129.8
