#------------------------------------------------------------------------------
#$Date: 2019-11-25 16:52:24 +0200 (Mon, 25 Nov 2019) $
#$Revision: 241376 $
#$URL: file:///home/coder/svn-repositories/cod/cif/4/13/10/4131073.cif $
#------------------------------------------------------------------------------
#
# This file is available in the Crystallography Open Database (COD),
# http://www.crystallography.net/
#
# All data on this site have been placed in the public domain by the
# contributors.
#
data_4131073
loop_
_publ_author_name
'Taylor, Mercedes K.'
'Run\<cevski, Tom\<ce'
'Oktawiec, Julia'
'Gonzalez, Miguel I.'
'Siegelman, Rebecca L.'
'Mason, Jarad A.'
'Ye, Jinxing'
'Brown, Craig M.'
'Long, Jeffrey R.'
_publ_section_title
;
 Tuning the Adsorption-Induced Phase Change in the Flexible Metal-Organic
 Framework Co(bdp).
;
_journal_issue                   45
_journal_name_full               'Journal of the American Chemical Society'
_journal_page_first              15019
_journal_page_last               15026
_journal_paper_doi               10.1021/jacs.6b09155
_journal_volume                  138
_journal_year                    2016
_chemical_formula_moiety         'C12 H4 Co1 D4 N4'
_chemical_formula_sum            'C12 H4 Co D4 N4'
_chemical_formula_weight         271.18
_chemical_name_common            Co(d4-bdp)
_space_group_IT_number           15
_space_group_name_Hall           '-C 2yc'
_space_group_name_H-M_alt        'C 1 2/c 1'
_symmetry_cell_setting           monoclinic
_symmetry_Int_Tables_number      15
_symmetry_space_group_name_H-M   'C 1 2/c 1'
_cell_angle_alpha                90
_cell_angle_beta                 92.409(47)
_cell_angle_gamma                90
_cell_formula_units_Z            4
_cell_length_a                   24.6870(90)
_cell_length_b                   6.6675(10)
_cell_length_c                   7.0913(26)
_cell_measurement_temperature    298
_cell_volume                     1166.2(6)
_computing_cell_refinement       'TOPAS, Bruker AXS 2005, Karlsruhe, Germany'
_computing_publication_material  'TOPAS, Bruker AXS 2005, Karlsruhe, Germany'
_computing_structure_refinement  'TOPAS, Bruker AXS 2005, Karlsruhe, Germany'
_computing_structure_solution    'TOPAS, Bruker AXS 2005, Karlsruhe, Germany'
_diffrn_ambient_temperature      298
_diffrn_detector_type            'Perkin Elmer a-Si Flat Panel'
_diffrn_measurement_device_type  custom
_diffrn_radiation_monochromator  'DCM Si(111)'
_diffrn_radiation_probe          x-ray
_diffrn_radiation_type           synchrotron
_diffrn_radiation_wavelength     0.727680
_exptl_crystal_colour            purple
_pd_char_colour                  purple
_pd_instr_location
' Advanced Photon Source, Argonne National Laboratory'
_pd_meas_2theta_range_inc        0.01
_pd_meas_2theta_range_max        26.69
_pd_meas_2theta_range_min        1.70
_pd_meas_number_of_points        2499
_pd_proc_2theta_range_inc        0.01
_pd_proc_2theta_range_max        26.69
_pd_proc_2theta_range_min        1.7
_pd_proc_ls_background_function  'Chebychev polynomial'
_pd_proc_ls_pref_orient_corr     none
_pd_proc_ls_profile_function     'fundamental parameters approach'
_pd_proc_ls_prof_R_factor        0.115
_pd_proc_ls_prof_wR_expected     0.016
_pd_proc_ls_prof_wR_factor       0.159
_pd_spec_mounting
;
packed powder in quartz glass capillary
;
_pd_spec_mount_mode              transmission
_pd_spec_shape                   cylinder
_pd_spec_size_axial              10
_pd_spec_size_equat              0.5
_refine_ls_extinction_method     none
_refine_ls_goodness_of_fit_all   9.93
_refine_ls_hydrogen_treatment    constr
_refine_ls_matrix_type           fullcycle
_refine_ls_number_parameters     46
_refine_ls_number_restraints     0
_refine_ls_R_I_factor            0.063
_refine_ls_shift/su_max          .01
_refine_ls_structure_factor_coef Inet
_refine_ls_weighting_scheme      sigma
_cod_data_source_file            ja6b09155_si_007.cif
_cod_data_source_block           Cod4bdp
_cod_depositor_comments
;
The following automatic conversions were performed:

data item '_geom_angle_publ_flag' value 'N' was changed to 'n' in
accordance with the
/home/saulius/struct/COD-crude-data/automatic-downloads/DataCite-retrospective/ACS/depositions/lib/dictionaries/cif_core.dic
dictionary named 'cif_core.dic' version 2.4.2 last updated on
2011-04-26 (16 times).

data item '_geom_bond_publ_flag' value 'N' was changed to 'n' in
accordance with the
/home/saulius/struct/COD-crude-data/automatic-downloads/DataCite-retrospective/ACS/depositions/lib/dictionaries/cif_core.dic
dictionary named 'cif_core.dic' version 2.4.2 last updated on
2011-04-26 (13 times).

Automatic conversion script
Id: cif_fix_values 6909 2019-04-08 15:41:33Z antanas 
;
_cod_original_cell_volume        1166.1(7)
_cod_original_sg_symbol_H-M      'C 2/c'
_cod_original_formula_sum        'C12 H4 Co1 D4 N4'
_cod_database_code               4131073
loop_
_symmetry_equiv_pos_site_id
_symmetry_equiv_pos_as_xyz
1 -x,-y,-z
2 -x,y,1/2-z
3 x,-y,1/2+z
4 x,y,z
5 1/2-x,1/2-y,-z
6 1/2-x,1/2+y,1/2-z
7 1/2+x,1/2-y,1/2+z
8 1/2+x,1/2+y,z
loop_
_atom_site_label
_atom_site_type_symbol
_atom_site_symmetry_multiplicity
_atom_site_fract_x
_atom_site_fract_y
_atom_site_fract_z
_atom_site_occupancy
_atom_site_B_iso_or_equiv
Co Co 4 0.5 -0.0344(30) 0.25 1 0.046(12)
C1 C 8 0.2192(4) 0.118(1) 0.402(1) 1 0.078(63)
C2 C 8 0.2756(4) 0.121(1) 0.386(1) 1 0.078(43)
C3 C 8 0.3106(4) 0.254(1) 0.484(1) 1 0.078(44)
C4 C 8 0.3708(4) 0.213(1) 0.495(1) 1 0.078(51)
C5 C 8 0.4000(4) 0.114(1) 0.360(1) 1 0.002(43)
C6 C 8 0.4080(4) 0.288(1) 0.632(1) 1 0.078(67)
N1 N 8 0.4561(4) 0.120(1) 0.399(1) 1 0.002(34)
N2 N 8 0.4608(4) 0.222(1) 0.602(1) 1 0.002(33)
D1 D 8 0.1906 -0.0026 0.332 1 0.016(99)
D2 D 8 0.2897 -0.0124 0.307 1 0.016(99)
H1 H 8 0.3776 0.034 0.236 1 0.016(99)
H2 H 8 0.3926 0.391 0.727 1 0.016(99)
loop_
_atom_type_symbol
_atom_type_description
_atom_type_scat_source
C C 'International Tables Vol C Tables 4.2.6.8 and 6.1.1.4'
H H 'International Tables Vol C Tables 4.2.6.8 and 6.1.1.4'
Co Co 'International Tables Vol C Tables 4.2.6.8 and 6.1.1.4'
D D 'International Tables Vol C Tables 4.2.6.8 and 6.1.1.4'
N N 'International Tables Vol C Tables 4.2.6.8 and 6.1.1.4'
loop_
_geom_angle_atom_site_label_1
_geom_angle_atom_site_label_2
_geom_angle_atom_site_label_3
_geom_angle
_geom_angle_publ_flag
Co N1 C5 117.9(6) n
Co N1 N2 136.8(7) n
N1 C5 C4 112.8(7) n
N1 C5 H1 127.1 n
N1 N2 C6 103.8(7) n
C5 C4 C3 126.1(7) n
C5 C4 C6 107.7(8) n
H1 C5 C4 120 n
C4 C3 C2 119.7(7) n
C4 C6 H2 115.9 n
C4 C6 N2 111.7(7) n
C6 C4 C5 107.7(8) n
C3 C2 C1 124.2(7) n
C3 C2 D2 123.7 n
C2 C1 D1 124.1 n
D2 C2 C1 111.2 n
loop_
_geom_bond_atom_site_label_1
_geom_bond_atom_site_label_2
_geom_bond_distance
_geom_bond_site_symmetry_2
_geom_bond_publ_flag
Co N1 1.855(14) 1.555 n
C1 C2 1.40(4) 1.555 n
C1 D1 1.17 1.555 n
C2 C3 1.40(3) 1.555 n
C2 D2 1.12 1.555 n
C3 C4 1.510(14) 1.555 n
C4 C5 1.389(11) 1.555 n
C4 C6 1.401(12) 1.555 n
C5 N1 1.401(14) 1.555 n
C5 H1 1.14 1.555 n
C6 N2 1.401(14) 1.555 n
C6 H2 1.04 1.555 n
N1 N2 1.592(10) 1.555 n
loop_
_pd_proc_wavelength
0.727680
