#------------------------------------------------------------------------------
#$Date: 2021-07-04 04:44:05 +0300 (Sun, 04 Jul 2021) $
#$Revision: 266969 $
#$URL: file:///home/coder/svn-repositories/cod/cif/4/13/56/4135634.cif $
#------------------------------------------------------------------------------
#
# This file is available in the Crystallography Open Database (COD),
# http://www.crystallography.net/
#
# All data on this site have been placed in the public domain by the
# contributors.
#
data_4135634
loop_
_publ_author_name
'Geng, Shubo'
'Lin, En'
'Li, Xia'
'Liu, Wansheng'
'Wang, Ting'
'Wang, Zhifang'
'Sensharma, Debobroto'
'Darwish, Shaza'
'Andaloussi, Yassin H.'
'Pham, Tony'
'Cheng, Peng'
'Zaworotko, Michael J.'
'Chen, Yao'
'Zhang, Zhenjie'
_publ_section_title
;
 Scalable Room-Temperature Synthesis of Highly Robust Ethane-Selective
 Metal-Organic Frameworks for Efficient Ethylene Purification.
;
_journal_issue                   23
_journal_name_full               'Journal of the American Chemical Society'
_journal_page_first              8654
_journal_page_last               8660
_journal_paper_doi               10.1021/jacs.1c02108
_journal_volume                  143
_journal_year                    2021
_chemical_formula_moiety         'Br0.5 C2.5 Cu0.5 N2, 0.5(C H3)'
_chemical_formula_sum            'C3 H1.5 Br0.5 Cu0.5 N2'
_chemical_formula_weight         137.29
_chemical_name_systematic        Br-C2H6
_space_group_crystal_system      orthorhombic
_space_group_IT_number           52
_space_group_name_Hall           '-P 2a 2bc'
_space_group_name_H-M_alt        'P n n a'
_atom_sites_solution_hydrogens   geom
_atom_sites_solution_primary     direct
_audit_creation_date             2021-03-11
_audit_creation_method
;
Olex2 1.3
(compiled 2020.11.12 svn.r5f609507 for OlexSys, GUI svn.r6272)
;
_cell_angle_alpha                90
_cell_angle_beta                 90
_cell_angle_gamma                90
_cell_formula_units_Z            8
_cell_length_a                   10.9745(13)
_cell_length_b                   8.6056(11)
_cell_length_c                   10.0876(14)
_cell_measurement_reflns_used    1376
_cell_measurement_temperature    120
_cell_measurement_theta_max      25.2360
_cell_measurement_theta_min      4.0250
_cell_volume                     952.7(2)
_computing_cell_refinement       'CrysAlisPro 1.171.40.53 (Rigaku OD, 2019)'
_computing_data_collection       'CrysAlisPro 1.171.40.53 (Rigaku OD, 2019)'
_computing_data_reduction        'CrysAlisPro 1.171.40.53 (Rigaku OD, 2019)'
_computing_molecular_graphics    'Olex2 1.3 (Dolomanov et al., 2009)'
_computing_publication_material  'Olex2 1.3 (Dolomanov et al., 2009)'
_computing_structure_refinement  'SHELXL 2018/3 (Sheldrick, 2015)'
_computing_structure_solution    'SHELXS  (Sheldrick, 2008)'
_diffrn_ambient_environment      N~2~
_diffrn_ambient_temperature      120
_diffrn_detector                 'CCD plate'
_diffrn_detector_area_resol_mean 16.2116
_diffrn_detector_type            Eos
_diffrn_measured_fraction_theta_full 0.967
_diffrn_measured_fraction_theta_max 0.966
_diffrn_measurement_details
;
List of Runs (angles in degrees, time in seconds):

  # Type    Start    End  Width  t~exp~   \w     \q     \k     \f   Frames
--------------------------------------------------------------------------
  1  \w      6.00  43.00   1.00   40.00    --   18.63  77.00-180.00   37
  2  \w     35.00  94.00   1.00   40.00    --   18.63-178.00-180.00   59
  3  \w    -12.00  51.00   1.00   40.00    --  -19.72  19.00 -60.00   63
;
_diffrn_measurement_device       'four-circle diffractometer'
_diffrn_measurement_device_type  'SuperNova, Single source at offset/far, Eos'
_diffrn_measurement_method       '\w scans'
_diffrn_orient_matrix_type
'CrysAlisPro convention (1999,Acta A55,543-557)'
_diffrn_orient_matrix_UB_11      -0.0517085000
_diffrn_orient_matrix_UB_12      -0.0493155000
_diffrn_orient_matrix_UB_13      -0.0029943000
_diffrn_orient_matrix_UB_21      0.0326418000
_diffrn_orient_matrix_UB_22      -0.0520480000
_diffrn_orient_matrix_UB_23      -0.0414196000
_diffrn_orient_matrix_UB_31      0.0209843000
_diffrn_orient_matrix_UB_32      -0.0406520000
_diffrn_orient_matrix_UB_33      0.0567153000
_diffrn_radiation_monochromator  mirror
_diffrn_radiation_probe          x-ray
_diffrn_radiation_type           'Mo K\a'
_diffrn_radiation_wavelength     0.71073
_diffrn_reflns_av_R_equivalents  0.0831
_diffrn_reflns_av_unetI/netI     0.0686
_diffrn_reflns_Laue_measured_fraction_full 0.967
_diffrn_reflns_Laue_measured_fraction_max 0.966
_diffrn_reflns_limit_h_max       12
_diffrn_reflns_limit_h_min       -13
_diffrn_reflns_limit_k_max       10
_diffrn_reflns_limit_k_min       -10
_diffrn_reflns_limit_l_max       12
_diffrn_reflns_limit_l_min       -11
_diffrn_reflns_number            2138
_diffrn_reflns_point_group_measured_fraction_full 0.967
_diffrn_reflns_point_group_measured_fraction_max 0.966
_diffrn_reflns_theta_full        25.242
_diffrn_reflns_theta_max         25.345
_diffrn_reflns_theta_min         3.112
_diffrn_source                   'micro-focus sealed X-ray tube'
_diffrn_source_type              'SuperNova (Mo) X-ray Source'
_exptl_absorpt_coefficient_mu    6.436
_exptl_absorpt_correction_T_max  1.00000
_exptl_absorpt_correction_T_min  0.40062
_exptl_absorpt_correction_type   multi-scan
_exptl_absorpt_process_details
;
CrysAlisPro 1.171.40.53 (Rigaku Oxford Diffraction, 2019)
Empirical absorption correction using spherical harmonics,
 implemented in SCALE3 ABSPACK scaling algorithm.
;
_exptl_crystal_colour            'metallic light colourless'
_exptl_crystal_colour_lustre     metallic
_exptl_crystal_colour_modifier   light
_exptl_crystal_colour_primary    colourless
_exptl_crystal_density_diffrn    1.914
_exptl_crystal_description       plate
_exptl_crystal_F_000             524
_exptl_crystal_size_max          0.2
_exptl_crystal_size_mid          0.2
_exptl_crystal_size_min          0.2
_refine_diff_density_max         1.439
_refine_diff_density_min         -1.032
_refine_diff_density_rms         0.229
_refine_ls_extinction_method     none
_refine_ls_goodness_of_fit_ref   1.056
_refine_ls_hydrogen_treatment    constr
_refine_ls_matrix_type           full
_refine_ls_number_parameters     62
_refine_ls_number_reflns         846
_refine_ls_number_restraints     6
_refine_ls_restrained_S_all      1.052
_refine_ls_R_factor_all          0.0687
_refine_ls_R_factor_gt           0.0589
_refine_ls_shift/su_max          0.000
_refine_ls_shift/su_mean         0.000
_refine_ls_structure_factor_coef Fsqd
_refine_ls_weighting_details
'w=1/[\s^2^(Fo^2^)+(0.0916P)^2^+0.4763P] where P=(Fo^2^+2Fc^2^)/3'
_refine_ls_weighting_scheme      calc
_refine_ls_wR_factor_gt          0.1377
_refine_ls_wR_factor_ref         0.1440
_reflns_Friedel_coverage         0.000
_reflns_number_gt                746
_reflns_number_total             846
_reflns_threshold_expression     'I > 2\s(I)'
_cod_data_source_file            ja1c02108_si_003.cif
_cod_data_source_block           a
_cod_depositor_comments
'Adding full bibliography for 4135632--4135635.cif.'
_cod_original_formula_sum        'C3 H1.50 Br0.50 Cu0.50 N2'
_cod_database_code               4135634
_shelx_shelxl_version_number     2018/3
_shelx_space_group_comment
;
The symmetry employed for this shelxl refinement is uniquely defined
by the following loop, which should always be used as a source of
symmetry information in preference to the above space-group names.
They are only intended as comments.
;
_shelx_estimated_absorpt_t_max   0.359
_shelx_estimated_absorpt_t_min   0.359
_reflns_odcompleteness_completeness 89.19
_reflns_odcompleteness_iscentric 1
_reflns_odcompleteness_theta     26.32
_olex2_refinement_description
;
1. Fixed Uiso
 At 1.5 times of:
  All C(H,H,H) groups
2. Uiso/Uaniso restraints and constraints
Uanis(C007) \\sim Ueq: with sigma of 0.001 and sigma for terminal atoms of 0.002
3. Others
 Fixed Sof: C1(0.5) H1A(0.5) H1B(0.5) H1C(0.5)
4.a Idealised Me refined as rotating group:
 C1(H1A,H1B,H1C)
;
_shelx_res_file
;
TITL a_a.res in Pnna
    a.res
    created by SHELXL-2018/3 at 20:55:42 on 11-Mar-2021
REM Old TITL A in Pnna #52
REM SHELXT solution in Pnna
REM R1 0.167, Rweak 0.015, Alpha 0.053, Orientation as input
REM Formula found by SHELXT: C4 N5 Br2
CELL 0.71073 10.9745 8.6056 10.0876 90 90 90
ZERR 8 0.0013 0.0011 0.0014 0 0 0
LATT 1
SYMM 0.5-X,-Y,+Z
SYMM 0.5-X,0.5+Y,0.5-Z
SYMM +X,0.5-Y,0.5-Z
SFAC C H Br Cu N
UNIT 24 12 4 4 16
ISOR 0.001 0.002 C007

L.S. 10
PLAN  1
SIZE 0.2 0.2 0.2
TEMP -153.15
CONF
BOND $H
list 4
MORE -1
fmap 2
acta
OMIT 8 3 3
OMIT 7 8 2
OMIT 7 4 2
OMIT 2 0 0
OMIT 1 4 10
OMIT 11 2 4
OMIT 0 6 6
OMIT 1 1 2
OMIT 10 0 6
OMIT 6 3 3
OMIT 8 0 6
OMIT 1 4 4
OMIT 0 4 10
OMIT 1 4 2
OMIT 0 2 0
OMIT 0 5 5
OMIT 0 0 6
OMIT 0 4 4
OMIT 1 6 6
OMIT 1 5 5
OMIT 1 0 3
OMIT 4 0 6
OMIT 1 3 3
OMIT 1 7 7
OMIT 2 0 6
OMIT 6 0 0
OMIT 12 2 2
REM <olex2.extras>
REM <HklSrc "%.\\A.hkl">
REM </olex2.extras>

WGHT    0.091600    0.476300
FVAR       0.33608
BR01  3    0.079525    0.250000    0.250000    10.50000    0.00508    0.03244 =
         0.03439   -0.01907    0.00000    0.00000
CU02  4    0.750000    0.500000    0.532765    10.50000    0.00603    0.01259 =
         0.01227    0.00000    0.00000   -0.00053
N003  5    0.313808    0.335919    0.335950    11.00000    0.01031    0.00925 =
         0.01570   -0.00373    0.00233    0.00154
N004  5    0.616127    0.417300    0.424033    11.00000    0.00946    0.01793 =
         0.01859   -0.00486    0.00251    0.00312
C005  1    0.533916    0.365995    0.369536    11.00000    0.01291    0.01191 =
         0.01388   -0.00140   -0.00008    0.00437
C006  1    0.432181    0.302144    0.301722    11.00000    0.00624    0.01165 =
         0.01486    0.00221    0.00309    0.00240
C007  1    0.251847    0.250000    0.250000    10.50000    0.01078    0.01183 =
         0.01197    0.00021    0.00000    0.00000
C1    1    0.309289    0.035593    0.572103    10.50000    0.07573    0.05340 =
         0.09119    0.03885   -0.01238    0.00819
AFIX 137
H1A   2    0.321078    0.092777    0.489075    10.50000   -1.50000
H1B   2    0.371940   -0.045008    0.580123    10.50000   -1.50000
H1C   2    0.315642    0.107512    0.647109    10.50000   -1.50000
AFIX   0
HKLF 4




REM  a_a.res in Pnna
REM wR2 = 0.1440, GooF = S = 1.056, Restrained GooF = 1.052 for all data
REM R1 = 0.0589 for 746 Fo > 4sig(Fo) and 0.0687 for all 846 data
REM 62 parameters refined using 6 restraints

END

WGHT      0.0916      0.4818

REM Highest difference peak  1.439,  deepest hole -1.032,  1-sigma level  0.229
Q1    1   0.7500  0.5000  0.4667  10.50000  0.05    1.44
;
_shelx_res_checksum              81673
_shelx_hkl_file
;
  -2   0   0  464.68   14.06
  -3   0   0    0.61    0.76
  -4   0   0  288.98   14.88
  -5   0   0    0.31    0.79
  -6   0   0 6325.21   90.50
   6   0   0 6295.63   58.43
  -7   0   0    0.25    0.65
   7   0   0    0.70    0.84
  -8   0   0    5.64    3.58
   8   0   0    6.92    2.34
  -9   0   0    3.94    3.59
   9   0   0    0.35    0.92
 -10   0   0  226.76   21.42
  10   0   0  257.15   15.49
 -11   0   0    1.71    2.82
 -12   0   0 1504.56   61.15
 -13   0   0    3.12    4.27
   2   0   1    0.02    0.21
  -2   0   1    0.04    0.19
  -2   0  -1   -0.41    0.67
  -2   0  -1    0.27    0.23
   3   0   1  596.07   13.85
  -3   0   1  585.48   16.07
  -3   0  -1  603.89   20.29
  -3   0  -1  585.53   13.16
   4   0   1   -0.17    0.12
  -4   0  -1   -0.37    0.64
  -4   0   1   -0.06    1.58
  -5   0   1 1057.20   30.67
   5   0   1 1020.42   21.67
  -5   0  -1  987.20   32.33
  -6   0  -1    0.67    0.63
   6   0   1    0.33    0.40
  -6   0   1   -0.04    0.74
   7   0   1  154.91    9.62
  -7   0  -1  186.38   17.40
  -7   0   1  165.62   14.43
  -8   0   1    1.88    5.52
   8   0   1    0.24    1.00
  -8   0  -1    2.00    1.86
  -9   0   1  820.61   36.35
   9   0  -1  798.03   27.84
  -9   0  -1  811.98   38.98
   9   0   1  850.38   25.77
  10   0  -1    0.22    0.82
  10   0   1   -1.00    1.22
 -10   0  -1    1.48    4.53
 -11   0   1  613.83   33.82
 -11   0  -1  720.59   40.98
 -12   0  -1    5.09    4.06
 -12   0   1    2.94    3.83
 -13   0   1   47.84   12.72
 -13   0  -1   49.98   12.84
   0   0  -2  398.35    9.89
   0   0   2  377.52    8.88
   0   0  -2  433.76    9.87
   1   0   2    1.20    0.41
  -1   0  -2    0.03    0.17
  -1   0  -2    0.47    0.58
  -2   0  -2 2735.25   40.26
  -2   0  -2 2973.08   37.91
  -3   0  -2    0.38    0.37
  -3   0  -2    0.02    0.51
  -3   0   2    0.33    0.41
   4   0   2 1083.66   24.03
  -4   0   2 1168.10   26.23
  -4   0  -2 1151.41   26.01
   5   0   2    1.26    1.18
  -5   0  -2   -0.19    0.43
  -5   0   2    0.12    1.10
  -5   0  -2   -1.02    1.29
  -6   0  -2  112.96   13.00
  -6   0   2  104.27    9.60
   6   0   2  108.33    8.24
   7   0   2    0.68    0.61
  -7   0   2    2.31    2.23
  -7   0  -2   -0.05    0.50
   8   0   2 1863.16   36.82
  -8   0  -2 2026.76   62.51
  -8   0   2 1950.18   49.77
  -9   0  -2    2.35    2.49
  -9   0   2    1.31    2.23
   9   0   2   -0.76    0.72
 -10   0  -2  376.59   29.36
 -10   0   2  302.86   20.96
 -11   0   2    0.85    1.98
 -11   0  -2    3.54    4.01
 -12   0  -2   81.07   14.44
 -12   0   2  100.79   16.62
 -13   0  -2    1.60    2.34
   0   0  -3    0.19    0.23
   0   0   3    0.34    0.38
   0   0  -3    0.56    0.64
   1   0   3  498.09   13.79
  -1   0  -3  492.95   15.84
  -1   0  -3  529.62   13.06
  -2   0  -3    0.35    0.29
  -2   0  -3    1.45    0.79
  -3   0  -3 4447.79   56.49
  -3   0  -3 4018.69   59.03
  -4   0   3    1.08    0.75
  -4   0  -3    0.88    1.13
  -4   0  -3    1.31    1.25
  -5   0  -3   91.59    8.67
  -5   0  -3   79.22   10.22
  -5   0   3   78.59    6.38
  -6   0   3    1.40    1.59
  -6   0  -3    0.29    0.32
  -6   0  -3   -0.16    1.45
  -7   0  -3    1.85    2.26
  -7   0   3    1.02    1.36
   7   0   3    1.28    0.84
  -8   0   3    1.39    1.82
  -8   0  -3    1.11    1.68
   8   0   3    0.91    0.76
   9   0   3  796.54   25.69
  -9   0  -3  858.30   42.13
  -9   0   3  834.20   32.89
 -10   0  -3    3.22    3.63
 -10   0   3    1.39    1.95
 -11   0   3    7.82    3.39
 -11   0  -3   15.51    7.05
 -12   0  -3    0.99    2.86
   0   0  -4 1719.66   29.44
   0   0  -4 1653.26   26.12
  -1   0  -4    1.57    1.04
   1   0   4    1.06    0.84
  -1   0   4    2.35    1.17
  -1   0  -4    0.15    0.75
  -2   0   4   83.11    7.43
  -2   0  -4   86.08    8.53
  -2   0  -4   76.99    5.88
  -3   0  -4   -0.29    0.99
  -3   0  -4   -0.08    0.55
  -4   0  -4   61.01    8.67
  -5   0  -4    0.92    1.34
  -6   0  -4 2644.04   67.56
  -7   0  -4    0.37    1.75
  -7   0   4   -1.28    1.84
  -8   0  -4    5.12    2.82
  -8   0   4    1.98    0.89
  -9   0  -4    2.16    3.08
  -9   0   4   -1.47    2.42
 -10   0  -4   81.00   13.98
 -11   0  -4    2.96    4.14
 -12   0  -4  898.42   49.30
   0   0  -5    0.17    0.46
   0   0   5    0.39    0.54
  -1   0  -5  788.19   23.02
   1   0   5  725.33   20.21
  -1   0   5  707.24   19.57
  -1   0  -5  734.56   19.18
  -2   0   5    0.39    0.87
  -2   0  -5    0.57    1.42
  -3   0  -5   12.43    4.02
  -4   0  -5    0.35    1.81
  -5   0  -5 2218.50   56.99
  -6   0  -5    0.76    1.66
  -7   0  -5  628.32   33.05
  -8   0  -5    1.65    2.30
  -9   0  -5   19.35    6.94
 -10   0  -5    6.63    5.84
 -11   0  -5  719.61   44.36
 -12   0  -5    0.71    3.40
   0   0  -6  507.36   18.13
   0   0   6  544.68   18.95
  -1   0   6  479.54   18.64
  -1   0  -6  495.10   19.89
  -2   0  -6  833.52   27.97
  -2   0   6  796.41   27.57
  -3   0   6    1.65    1.11
  -3   0  -6    1.34    1.72
  -4   0  -6  800.95   32.23
  -5   0  -6   59.18    9.77
  -6   0  -6  590.46   31.14
  -7   0  -6  254.23   21.93
  -8   0  -6  146.27   17.78
  -9   0  -6   37.83   10.21
 -10   0  -6  205.86   23.55
 -11   0  -6   77.27   14.72
   0   0  -7   -2.94    2.58
   0   0   7    0.05    0.93
   1   0   7  264.38   14.83
  -1   0  -7  257.61   14.56
  -1   0   7  276.19   14.83
  -2   0   7    0.72    1.16
  -2   0  -7   -0.17    1.15
   2   0   7    1.21    1.42
  -3   0   7 1318.43   37.90
  -3   0  -7 1259.24   39.02
  -4   0   7    0.18    3.25
  -4   0  -7    4.00    3.70
  -5   0  -7   66.24   10.07
  -5   0   7   79.01    9.78
  -6   0  -7    2.09    3.16
  -7   0  -7   27.53    7.67
  -8   0  -7    4.54    4.01
  -9   0  -7  626.50   38.17
 -10   0  -7    0.47    2.93
   0   0   8  139.61   10.66
  -1   0   8    2.18    2.54
  -1   0  -8    7.03    4.30
   1   0   8    0.84    1.14
  -2   0  -8  140.53   12.74
   2   0   8  135.99   12.76
  -2   0   8  148.30   12.13
  -3   0  -8    1.08    1.50
  -3   0   8   -0.09    1.09
  -4   0  -8    0.41    1.75
  -4   0   8    3.51    2.40
  -5   0   8    0.59    1.61
  -5   0  -8    3.08    2.65
  -6   0   8  141.53   13.62
  -6   0  -8  166.99   17.22
  -7   0   8    0.66    1.05
  -7   0  -8    2.18    2.73
  -8   0  -8   57.31   10.85
  -9   0  -8    2.97    4.11
   0   0   9    1.74    1.73
   1   0   9  642.26   27.03
  -1   0   9  783.88   29.98
  -2   0  -9    1.73    1.27
  -2   0   9    1.23    1.24
  -3   0   9   31.12    6.22
  -3   0  -9   45.82    8.83
  -4   0   9    1.23    1.65
  -4   0  -9    1.19    2.16
  -5   0  -9  290.19   22.54
  -5   0   9  274.01   19.75
  -6   0  -9    2.86    2.83
  -6   0   9   -0.74    2.17
  -7   0   9  535.18   29.65
  -7   0  -9  567.90   34.68
  -8   0  -9    2.71    3.59
  -8   0   9   -3.34    3.08
   0   0  10  473.42   24.66
   1   0  10   -0.34    1.44
  -1   0  10    0.37    0.17
  -2   0  10   23.90    5.63
  -3   0  10    0.43    1.28
  -3   0 -10   -6.30    6.07
  -4   0 -10   22.64    6.54
  -4   0  10   22.43    5.58
  -5   0  10    0.26    0.94
  -5   0 -10    2.75    3.39
  -6   0  10  187.78   17.77
  -6   0 -10  206.53   21.91
  -7   0 -10    1.15    2.26
  -7   0  10   -0.46    0.61
   0   0  11    1.99    1.91
  -1   0  11   12.53    4.25
   1   0  11   11.02    4.22
  -2   0  11    2.46    2.78
  -3   0  11  189.96   17.31
  -4   0  11    3.03    2.72
  -5   0  11    8.34    3.94
  -5   0 -11   -1.62    4.69
   2   1   0  728.14   18.89
  -3  -1   0   -0.64    2.24
   3   1   0    1.17    0.86
   4  -1   0 1902.63   32.06
   4   1   0 1977.10   38.73
  -5  -1   0    3.50    2.58
   5  -1   0    0.34    0.98
   6  -1   0   22.86    4.15
  -6  -1   0   23.31    5.08
   6   1   0   20.74    2.94
  -7   1   0   -0.89    1.84
  -7  -1   0    1.53    1.95
   7   1   0    0.27    0.49
   7  -1   0   -0.19    0.44
  -8  -1   0  285.00   21.35
   8  -1   0  292.72   15.94
  -8   1   0  290.75   22.61
   8   1   0  288.23   12.15
  -9   1   0    0.61    1.89
   9  -1   0    0.75    1.29
  -9  -1   0    7.37    6.52
   9   1   0    3.10    2.27
 -10  -1   0  139.25   18.48
 -10   1   0  123.37   17.37
  10  -1   0  137.16   12.42
  11  -1   0    3.68    3.41
 -11  -1   0   10.15    9.29
 -11   1   0    6.39    5.29
 -12   1   0   11.99    6.16
 -12  -1   0    6.81    1.89
 -13   1   0    3.93    4.72
   0   1  -1 3347.58   38.10
   1  -1   1  146.10    7.28
  -1   1  -1  166.54    8.86
  -2   1  -1  701.84   18.89
   2  -1   1  670.23   17.34
   3  -1   1   34.41    4.13
   3   1   1   62.25    6.70
  -3  -1  -1   62.62    6.87
  -3   1  -1   33.84    4.22
   3   1  -1   35.97    3.94
   4   1  -1  634.71   20.60
   4  -1   1  646.18   19.99
   5  -1   1  915.10   24.85
  -5  -1   1 1005.63   32.25
  -6  -1   1  840.84   32.13
   6   1   1 1250.53   17.93
  -6  -1  -1 1103.34   34.65
   6  -1   1  770.62   24.84
  -6   1  -1  764.92   34.00
  -7   1   1  762.21   33.83
   7   1   1  826.97   16.44
  -7  -1   1  516.36   27.49
   7  -1   1  459.31   19.72
  -7   1  -1  452.56   28.10
  -7  -1  -1  668.84   29.59
   8  -1   1  637.09   24.17
  -8   1   1 1002.09   39.81
  -8   1  -1  601.59   33.84
  -8  -1   1  676.64   34.50
   8   1   1  945.01   18.73
  -8  -1  -1  924.81   37.35
   9   1   1    3.70    1.49
   9  -1  -1    3.78    2.17
  -9  -1  -1    3.97    3.18
  -9  -1   1    0.21    1.43
   9  -1   1    0.87    1.05
  -9   1   1    2.24    2.19
  -9   1  -1    1.02    2.26
 -10  -1   1  305.67   28.75
 -10   1   1  516.46   34.66
  10  -1  -1  517.53   25.35
 -10  -1  -1  503.01   34.55
 -10   1  -1  308.05   28.16
  10  -1   1  316.83   18.35
 -11   1   1  314.58   26.08
  11  -1  -1  350.34   21.41
 -11  -1   1  155.89   21.09
 -11   1  -1  207.41   24.34
 -11  -1  -1  358.68   33.01
 -12   1   1  201.72   22.16
 -12  -1  -1  218.01   27.99
 -13   1   1  592.12   38.76
 -13  -1  -1  692.39   55.64
   0  -1  -2    0.04    0.21
   0   1   2    0.03    0.27
   0  -1   2    0.16    0.05
   1   1   2  305.21   11.79
  -1   1   2  345.96   12.74
   1   1   2  306.27   11.66
  -1   1  -2  376.62   15.45
   1  -1  -2  329.77   12.15
  -1  -1  -2  357.25   11.38
  -2   1  -2  312.88   13.40
   2   1   2  341.57   14.10
   2  -1   2  355.94   15.16
  -3  -1  -2  722.11   23.38
   3   1  -2  670.89   14.56
  -3   1  -2  803.54   24.83
  -3  -1  -2  775.73   16.41
   3   1   2  809.72   26.87
   3  -1   2  749.59   22.55
   4   1  -2  828.30   21.06
  -4  -1  -2  843.13   16.88
   4  -1   2  784.43   23.07
  -4   1  -2  828.70   25.81
  -5   1  -2   72.42    7.54
   5   1  -2   77.95    7.82
  -5  -1  -2   72.43    8.78
   5  -1   2   50.58    5.81
  -5  -1  -2   67.88    4.67
  -6   1  -2    4.16    0.39
  -6  -1  -2    6.11    2.90
   6  -1   2    3.48    1.52
  -6   1   2    3.27    1.35
   7  -1   2   13.94    2.99
  -7  -1   2   11.98    3.33
  -7  -1  -2   16.96    5.00
  -7   1  -2   14.55    5.09
  -7   1   2   18.18    4.87
  -8   1   2  293.46   20.48
   8  -1   2  252.82   13.56
  -8  -1   2  283.00   22.71
  -8   1  -2  328.01   25.69
  -8  -1  -2  279.39   21.04
  -9   1  -2    3.44    2.94
  -9  -1  -2    4.14    7.22
   9  -1   2    1.53    1.69
 -10   1   2  332.11   25.26
 -10   1  -2  367.62   31.52
 -10  -1  -2  353.01   28.50
  10  -1   2  330.42   18.44
 -11   1  -2  118.48   19.15
 -11   1   2  114.79   16.41
 -11  -1  -2  127.48   20.20
  11  -1  -2  128.96   13.35
 -12  -1  -2   21.04    9.00
 -12   1   2   21.52    7.12
 -12   1  -2   26.88    9.45
   0   1   3  155.55    8.05
   0  -1  -3  145.62    7.51
   0  -1   3  149.02    5.30
   0   1   3  148.99    8.35
  -1   1  -3 1362.43   32.45
  -1   1  -3 1286.54   15.45
   1   1   3 1215.06   25.49
  -1   1   3 1401.47   27.98
   1   1   3 1356.34   26.84
   1  -1  -3 1522.79   29.70
   1  -1   3 1339.97   18.56
  -1  -1  -3 1465.03   25.80
   2   1   3  808.65   26.22
  -2   1   3  754.26   23.25
  -2   1  -3  774.65   16.58
  -2  -1  -3  805.04   26.25
  -2   1  -3  849.47   28.22
  -2  -1  -3  843.21   24.01
  -3  -1  -3    1.98    1.39
  -3   1  -3    3.22    1.60
   3   1  -3    1.52    0.64
   3  -1   3    3.09    1.85
   4  -1   3  395.54   18.91
  -4  -1  -3  343.56   17.87
   4   1  -3  409.73   13.01
  -4  -1  -3  378.78   15.02
  -5   1  -3  609.27   29.76
  -5  -1  -3  587.64   26.10
   5  -1   3  610.26   23.67
  -5  -1  -3  658.59   19.50
  -6  -1  -3  558.08   27.35
   6  -1   3  544.27   22.96
  -6   1  -3  586.30   31.35
  -6   1   3  570.40   23.07
  -6  -1  -3  560.07   17.20
  -7  -1  -3  353.50   22.36
  -7   1  -3  401.98   27.04
  -7   1   3  361.00   19.28
  -8   1  -3  473.97   31.23
  -8  -1  -3  412.09   26.37
  -8   1   3  456.05   24.16
   8  -1   3  393.40   20.91
   9  -1   3    3.32    1.74
  -9  -1  -3    1.71    1.38
  -9   1  -3    2.84    2.57
  -9   1   3    5.15    2.89
 -10   1  -3  197.88   23.82
 -10   1   3  165.03   15.86
  10  -1   3  171.32   13.90
 -10  -1  -3  186.52   21.55
 -11  -1  -3  154.33   21.16
 -11   1   3  133.43   15.00
 -11   1  -3  180.25   23.47
 -12  -1  -3  161.63   24.30
 -12   1  -3  153.26   22.25
   0  -1   4    0.82    0.42
   0   1   4    0.46    0.66
   0   1   4    1.02    1.00
   1   1   4  171.01   10.29
  -1  -1   4  190.27    9.26
  -1   1  -4  217.64    8.40
   1   1   4  208.92   12.87
   1  -1   4  194.08    8.02
  -1   1   4  198.10   11.02
  -1   1   4  165.41    7.23
  -2   1  -4  700.62   16.07
  -2   1   4  669.77   23.32
  -3  -1  -4  742.76   26.44
  -3   1   4  758.06   25.49
  -4  -1  -4  209.72   12.38
  -4   1  -4  254.76   18.11
  -4  -1  -4  223.04   15.15
  -5  -1  -4  405.48   21.70
  -5  -1  -4  417.23   17.65
  -5   1   4  454.70   16.27
  -5   1  -4  449.28   26.03
  -6  -1  -4    6.90    2.12
  -6   1  -4    3.98    2.00
  -6   1   4    6.03    2.02
  -6  -1  -4    5.32    2.71
  -7   1  -4  165.91   17.38
   7  -1   4  166.07   13.42
  -7   1   4  177.05   12.70
  -7  -1  -4  142.53   14.38
  -7  -1  -4  140.33   10.04
   8  -1   4  333.49   19.53
  -8   1   4  349.48   18.64
  -8  -1  -4  339.03   24.36
  -8   1  -4  359.78   27.86
   9  -1   4  162.90   13.68
  -9   1  -4  190.21   21.72
  -9  -1  -4  170.80   19.15
  -9   1   4  152.53   12.97
 -10   1  -4  591.18   42.38
 -10  -1  -4  517.00   35.83
 -11  -1  -4  207.60   26.32
 -11   1  -4  183.78   23.43
 -12  -1  -4   20.95    7.94
 -12   1  -4   21.01    8.61
   0  -1   5  125.75    7.15
   0   1   5  108.67    8.65
   0   1   5  116.85    9.15
  -1  -1   5 1005.66   23.27
  -1   1   5  985.39   22.09
  -1   1  -5  977.12   20.90
   1   1   5 1023.93   30.43
  -1   1   5  934.71   26.52
   1   1   5  823.00   24.83
   1  -1   5  848.01   19.19
  -2   1   5  372.07   19.00
  -2  -1   5 1073.75   27.24
  -2   1   5  378.45   11.43
   2   1   5  337.71   18.10
  -2   1  -5  879.79   18.40
  -2   1  -5  952.40   33.37
  -2  -1  -5  392.25   21.81
  -3   1   5    0.00    0.95
  -3  -1  -5    0.16    1.12
  -3   1  -5    3.12    1.28
  -3   1  -5   -0.46    1.60
  -4   1   5  242.74   15.92
  -4  -1  -5  248.62   17.24
  -5   1   5  126.43    6.22
  -5  -1  -5  108.83   11.86
  -5   1  -5  124.50   13.65
  -6   1   5   79.66    5.74
  -6  -1  -5   78.17   10.71
  -7   1  -5  518.81   31.54
  -7  -1  -5  450.35   26.94
  -7   1   5  466.95   16.26
  -8  -1  -5   28.97    7.57
  -8   1  -5  441.10   33.04
  -9  -1  -5   67.01   12.38
  -9   1  -5   85.70   15.52
 -10   1  -5  232.26   26.70
 -10  -1  -5   74.50   14.16
 -11   1  -5  206.10   24.74
 -11  -1  -5  227.75   27.66
   0   1  -6   -0.19    0.60
   0   1   6    1.33    1.57
   0   1   6    1.79    1.86
   0  -1   6    0.01    0.50
   1   1   6  493.64   20.80
  -1   1  -6  509.16   20.94
   1  -1   6  497.33   16.67
  -1   1  -6  556.01   18.58
  -1  -1   6  541.46   17.28
   1   1  -6  548.49   16.17
  -1   1   6  500.72   20.43
  -2   1   6  813.28   26.06
  -2  -1   6  939.41   26.22
  -2   1  -6  880.15   30.22
   2   1  -6  943.95   14.59
  -2   1  -6  869.23   20.37
   2   1   6  783.65   28.52
  -2  -1  -6  908.09   37.06
  -3   1   6  434.79   21.97
  -3   1  -6  406.19   21.88
  -3  -1   6  404.55   18.35
  -4   1   6  321.06   19.62
  -4  -1  -6  350.70   22.65
  -4   1  -6  308.60   20.61
  -5   1   6  492.30   23.97
  -5   1  -6  547.39   29.01
  -5  -1  -6  567.40   29.62
  -6  -1  -6   16.61    5.33
  -6   1  -6   17.09    5.77
  -7  -1  -6  157.74   16.99
  -7   1  -6  153.60   18.18
  -8   1  -6  261.95   25.30
  -8  -1  -6  245.56   23.13
  -9   1  -6  299.97   28.18
  -9  -1  -6  298.86   27.58
 -10   1  -6  352.58   31.21
 -10  -1  -6  400.41   35.73
 -11  -1  -6  165.59   24.77
 -11   1  -6  162.53   22.09
   0   1   7   15.75    3.79
   0   1  -7   17.15    3.75
   0  -1   7   19.05    3.78
   1  -1   7  426.24   17.06
  -1   1   7  460.22   21.71
  -1   1  -7  437.28   20.09
   1   1  -7  480.13   15.87
  -1  -1   7  429.48   16.46
   1   1   7  426.84   21.13
  -2  -1   7    7.36    2.35
  -2   1  -7   11.42    3.35
  -3   1   7    6.97    2.76
  -3  -1  -7    8.50    2.52
  -3  -1   7    8.19    2.48
  -3   1  -7    9.01    3.53
  -4  -1  -7  788.43   38.83
  -4   1  -7   66.18    9.76
  -4  -1   7   69.31    8.18
  -4   1   7  557.92   28.02
  -5   1   7  182.69   15.79
  -5  -1  -7  222.80   20.90
  -5   1  -7  186.52   17.68
  -6   1  -7    3.30    3.38
  -6   1   7    8.70    5.09
  -7  -1  -7  398.96   29.63
  -7   1  -7  399.11   30.21
  -8   1  -7    9.56    5.44
  -8  -1  -7  131.65   18.85
  -9  -1  -7   38.07   10.82
  -9   1  -7   36.91    9.66
 -10   1  -7   11.57    6.53
 -10  -1  -7  164.03   24.38
   0   1  -8    1.76    1.64
   0  -1   8    0.49    0.68
   0   1   8    0.24    1.05
   1   1   8  488.08   24.10
  -1  -1   8  510.89   20.35
  -1   1  -8  595.16   24.72
   1   1  -8  579.25   18.42
   1  -1   8  450.71   18.99
  -1   1   8  577.12   25.92
   2   1   8  405.11   24.97
  -2   1   8  408.62   21.57
  -2  -1   8  346.01   17.44
  -2   1  -8  381.82   22.84
  -3   1  -8  298.43   21.56
  -3  -1   8  301.90   17.94
  -3   1   8  302.66   19.54
  -4   1  -8  375.73   25.59
  -4   1   8  403.00   24.25
  -4  -1  -8  381.04   29.52
  -4  -1   8  331.54   19.20
  -5   1  -8  214.54   20.44
  -5  -1   8  189.58   14.94
  -5  -1  -8  240.47   23.64
  -5   1   8  191.82   16.69
  -6   1  -8   83.53   13.23
  -6  -1  -8   92.86   15.18
  -6   1   8   83.28   11.14
  -7   1   8  222.11   18.28
  -7   1  -8  254.41   23.63
  -7  -1  -8  289.00   27.68
  -8   1   8   91.10   12.31
  -8  -1  -8   88.19   17.02
  -8   1  -8   72.85   13.07
  -9  -1  -8  149.72   22.31
  -9   1  -8  128.62   18.02
  -9   1   8  102.46   13.29
   0  -1   9   59.84    6.95
   0   1   9   70.30    9.26
   0   1  -9   74.44    8.23
   1   1   9  216.52   17.20
  -1   1   9  264.43   19.73
  -1   1  -9  261.29   16.84
  -1  -1   9  240.66   14.84
   1  -1   9  216.52   14.33
   2   1   9   42.62    8.08
  -2   1  -9   47.57    7.85
  -2  -1   9   41.55    6.10
  -2   1   9   51.28    8.27
  -3   1  -9    1.00    1.87
  -3   1   9    1.93    1.84
  -3  -1   9    0.09    0.78
  -4  -1   9    3.41    1.80
  -4   1   9    4.54    2.66
  -4   1  -9    8.17    4.05
  -5   1   9  248.95   19.23
  -5  -1   9  239.79   17.37
  -5   1  -9  255.49   21.14
  -5  -1  -9  205.02   23.96
  -6  -1  -9   13.43    4.80
  -6   1  -9   20.14    6.53
  -6   1   9   19.18    5.34
  -6  -1   9   16.31    4.58
  -7   1  -9  201.81   20.66
  -7  -1   9  174.61   16.13
  -7   1   9  186.83   17.39
  -7  -1  -9  193.08   24.56
  -8  -1   9    4.88    2.72
  -8   1   9    4.40    2.08
  -8  -1  -9   -1.07    5.18
  -8   1  -9   11.05    5.49
   0   1  10    1.86    2.14
   0  -1  10   -0.23    0.97
   1  -1  10  151.78   13.52
   1   1  10  140.66   14.35
  -1   1  10  143.15   14.03
  -1  -1  10  160.50   12.70
  -2   1 -10  136.82   13.32
   2   1  10  132.46   15.33
  -2   1  10  153.12   15.44
  -2  -1  10  153.91   13.28
  -3   1 -10  152.36   15.25
  -3   1  10  145.19   15.17
  -3  -1  10  140.88   12.48
  -4   1 -10  264.81   21.18
  -4  -1  10  243.82   16.09
  -4   1  10  262.30   20.17
  -5   1 -10   80.71   12.22
  -5  -1  10   61.26    9.00
  -5   1  10   68.86   10.27
  -6  -1  10    7.38    3.52
  -6   1 -10    9.15    4.41
  -6   1  10    7.37    2.71
  -7  -1  10  218.27   18.41
  -7   1  10  223.39   20.44
  -7   1 -10  247.12   23.52
   0   1  11   49.95    9.30
   1   1  11   99.35   13.37
  -1   1  11  113.34   13.06
  -2   1  11   51.68    9.43
  -3   1  11   33.06    7.94
  -4  -1  11  128.22   12.91
  -4   1  11  117.30   14.23
  -5   1 -11   94.01   13.68
  -5  -1  11   88.96   10.92
  -5   1  11   89.32   12.63
   0   1  12   -3.98    3.48
  -1   1  12   77.03   12.27
   0  -2   0  254.67    8.29
   0   2   0  220.75    9.21
   0  -2   0  207.94    8.86
   0   2   0  214.69    8.24
   1  -2   0    0.02    0.23
  -1   2   0    0.58    0.45
  -1  -2   0    0.23    0.22
   1   2   0    0.27    0.55
   1  -2   0    0.51    0.69
   2  -2   0 2924.96   38.95
   2   2   0 2865.43   25.70
   3   2   0    0.34    0.27
   3  -2   0   -0.03    0.68
   4  -2   0 1158.22   28.26
   5  -2   0   -0.07    0.69
   6   2   0   65.79    3.37
   6  -2   0   77.52    8.23
   7  -2   0    0.66    0.75
   7   2   0    0.25    0.27
   8  -2   0 2071.85   47.64
   8   2   0 2072.37   23.12
  -9   2   0   -0.10    3.49
   9  -2   0   -1.25    1.97
 -10   2   0  385.50   30.97
  10  -2   0  425.55   24.11
  11  -2   0    1.21    2.12
 -11   2   0   -0.85    2.93
 -12   2   0   67.79   14.42
   0   2   1    0.38    0.50
   0  -2   1    0.12    0.32
   0   2  -1    0.86    0.81
   0  -2  -1    0.44    0.53
   0  -2   1    0.22    0.34
  -1   2  -1 1134.24   27.50
  -1   2  -1  952.61   11.65
  -1  -2   1 1120.09   24.48
   1  -2  -1 1043.66   19.68
   1   2  -1  990.15   20.37
   1  -2   1 1055.77   24.94
  -1  -2  -1 1186.84   24.85
  -1   2   1 1036.57   20.79
   1   2   1 1077.75   26.07
   2   2  -1  101.58    7.15
  -2   2  -1   93.05    7.98
   2  -2   1   81.52    6.94
  -2   2   1   82.91    6.92
  -3   2  -1 1955.69   38.05
   3   2  -1 1976.85   28.19
   3  -2   1 1991.76   37.48
   4  -2   1   53.84    6.55
   4   2  -1   56.75    6.56
   5  -2   1  347.62   17.41
   6  -2   1   20.10    4.31
   7  -2   1   33.61    6.07
   8  -2   1    4.24    2.15
   8  -2  -1    4.55    2.28
   9  -2  -1  876.75   33.34
   9  -2   1  919.75   32.94
  -9   2  -1  907.83   48.20
  -9   2   1  860.53   43.76
 -10   2  -1   52.95   11.47
  10  -2   1   61.89    8.77
  10  -2  -1   63.18    9.19
 -10   2   1   57.14   12.02
  11  -2   1  202.36   16.94
 -11   2   1  205.58   22.87
 -11   2  -1  215.50   25.13
  11  -2  -1  234.43   18.69
 -12   2   1    7.99    5.67
 -12   2  -1    4.41    3.29
   0  -2   2 9007.41   85.33
   0   2  -2 9999.00   90.17
  -1  -2  -2 1395.77   26.02
  -1   2   2 1273.37   26.29
   1   2  -2  898.44   25.43
   1  -2   2  876.85   27.44
   1  -2  -2 1177.40   24.13
  -1   2  -2  905.20   27.32
   1   2   2 1462.45   28.99
   2  -2   2  207.07   12.95
  -2   2  -2  232.22   14.76
   3  -2   2   50.78    6.11
   4   2  -2  166.69   11.24
   4  -2   2  154.64   11.20
   5  -2   2   12.43    3.30
   6  -2   2 2922.54   52.51
   7  -2   2    7.51    2.80
   8  -2   2    3.60    2.15
  -8   2  -2    1.95    2.34
   9  -2   2    1.63    0.28
  -9   2   2    1.65    1.92
  -9   2  -2   -0.21    4.56
 -10   2   2  200.09   20.78
 -10   2  -2  142.28   20.05
  10  -2  -2  220.92   18.57
  10  -2   2  107.55   10.72
  11  -2  -2   -0.07    1.79
 -11   2   2    0.34    1.19
 -11   2  -2    1.60    2.61
  11  -2   2    1.79    0.57
 -12   2   2 1729.62   69.95
  12  -2  -2 1877.80   56.10
   0   2   3    0.84    0.75
  -1   2   3 1077.59   26.67
   1   2   3  985.19   26.72
  -2   2   3  140.65   10.86
   2  -2   3  125.31   11.56
  -2   2  -3  138.19    5.18
  -3   2   3  138.24   11.06
   3  -2   3  133.33   11.76
   4   2  -3   47.03    5.42
   4  -2   3   53.90    7.77
   5  -2   3 1636.63   41.30
  -5  -2  -3 1655.13   24.06
   5   2  -3 1573.88   31.30
  -6  -2  -3    1.33    0.64
   6  -2   3    1.18    0.21
   7  -2   3  435.05   21.72
  -7  -2  -3  418.59   32.46
  -8  -2  -3    8.28    3.25
   8  -2   3   19.93    4.63
  -8   2  -3   22.44    6.41
  -9   2   3  111.41   14.52
  -9  -2  -3   78.38   15.59
   9  -2   3   92.87   10.77
  -9   2  -3  101.16   16.57
 -10   2  -3   63.36   13.35
  10  -2   3   58.10    8.72
 -10   2   3   81.12   13.25
 -11   2   3  681.23   38.45
 -11   2  -3  822.23   51.83
 -12   2  -3    7.10    6.82
  12  -2  -3   -2.46    3.62
   0   2   4  242.46   14.36
   0  -2   4  910.21   12.78
  -1   2   4   11.55    2.86
   1   2   4   11.90    3.14
  -2   2   4 1152.60   32.61
  -2   2  -4 1181.75   13.20
  -3   2   4    2.57    1.48
  -3   2  -4    5.87    2.02
  -4   2   4  735.31   28.23
   4   2  -4  982.53   23.73
  -5  -2  -4   37.82    4.75
   5   2  -4  101.47    7.87
  -6  -2  -4  178.34   20.78
  -6  -2  -4  209.12   10.64
   7  -2   4  609.25   31.05
  -7   2  -4  355.14   29.65
  -8   2  -4  655.88   40.20
  -8  -2  -4  525.77   39.26
   8  -2   4  640.02   29.27
  -8   2   4  534.25   27.45
  -9   2  -4   70.67   13.83
   9  -2   4   87.20   12.31
  -9   2   4   39.90    7.27
  -9  -2  -4   57.50   15.04
  10  -2   4  374.77   23.81
 -10   2  -4  274.10   28.71
 -11   2  -4  150.65   23.55
 -12   2  -4  135.27   23.94
   0  -2   5    0.15    0.38
   0   2   5    0.13    0.78
   0   2   5    0.14    0.75
  -1  -2   5   41.88    4.34
   1  -2   5   36.39    3.28
  -1   2   5   31.94    5.48
   1   2   5   32.00    5.28
  -2   2  -5  234.50    8.22
  -2   2   5  226.00   14.81
   2   2   5  192.43   14.77
  -3   2   5 2293.88   51.99
  -3   2  -5 2425.00   28.75
   4   2  -5   30.53    3.55
  -4   2   5   28.87    5.94
  -4   2  -5   31.38    4.16
   5   2  -5    6.74    1.66
  -5   2   5    7.28    2.80
  -6  -2  -5    9.35    2.68
  -6   2  -5    5.88    3.31
  -7   2  -5   13.43    5.35
  -7   2   5   14.25    3.46
  -7  -2  -5    2.61    4.08
  -8   2  -5    2.84    1.52
  -8  -2  -5  -10.50    7.62
  -9   2  -5  851.12   47.56
 -10   2  -5    3.13    7.02
 -11   2  -5    3.19    3.15
   0   2   6  514.37   22.72
   0  -2   6  551.67   14.15
  -1  -2   6    1.61    0.76
  -1   2   6    2.05    1.88
   1   2   6    2.77    2.00
   1  -2   6    1.09    0.80
  -1   2   6    2.50    1.66
  -2  -2   6   14.92    2.95
  -2   2   6   16.88    4.50
   2   2   6   17.81    4.70
  -2   2  -6   14.99    2.39
  -2   2   6   12.92    2.71
  -3   2   6   12.93    3.68
  -3   2  -6   15.37    2.30
  -4   2   6   10.80    3.79
   4   2  -6   13.42    1.73
  -4   2  -6   15.39    2.94
  -5   2  -6   58.98   10.07
  -5   2   6   47.45    7.88
  -6   2   6  705.31   31.42
  -6   2  -6  821.62   41.34
  -7   2   6    7.69    3.01
  -7   2  -6    8.79    4.31
  -8   2  -6   10.83    4.92
  -9   2  -6    1.62    1.88
 -10   2  -6   17.84    7.22
 -11   2  -6   19.01    8.52
   0  -2   7   -0.14    0.58
   0   2   7    1.37    1.40
  -1   2   7  853.94   26.92
  -1  -2   7  889.16   22.20
   1   2   7  837.06   32.54
  -1   2   7  922.04   33.74
   1  -2   7  840.65   21.22
  -2  -2   7    3.12    1.22
  -2   2   7    3.09    1.41
  -2   2   7    1.79    1.42
   2   2   7    2.33    1.95
  -3  -2   7   14.65    3.34
  -3   2   7   15.81    4.41
  -3   2  -7   15.18    4.34
  -4   2   7   84.94   11.16
  -4   2  -7   72.03   10.68
  -5   2   7  853.17   35.72
  -5   2  -7  838.36   39.72
  -6   2   7   32.55    6.92
  -6   2  -7   33.54    8.12
  -7   2   7  553.13   29.15
  -7   2  -7  607.18   36.21
  -8   2   7    2.33    1.95
  -8   2  -7    0.91    1.46
  -9   2  -7    6.70    3.81
  -9   2   7   11.10    3.94
 -10   2  -7    1.18    1.32
   0   2  -8  401.72   19.94
   0  -2   8  365.20   13.86
  -1  -2   8    7.12    2.15
   1   2  -8    9.20    2.66
  -1   2   8  252.55   19.09
   1  -2   8    3.76    1.65
  -1   2  -8    5.92    2.14
   1   2   8  338.43   22.35
  -2  -2   8   23.31    3.85
  -2   2  -8   22.72    5.54
  -3  -2   8    2.36    1.54
  -3   2   8    2.65    2.25
  -3   2  -8   -0.23    1.94
  -4   2  -8   23.96    6.26
  -4  -2   8   18.86    4.30
  -5   2  -8   54.01    9.87
  -5   2   8   82.58   12.89
  -6   2  -8  240.52   22.10
  -6   2   8  330.59   23.40
  -7   2   8   44.68   14.78
  -7   2  -8   -0.14    1.69
  -8   2  -8    6.31    3.31
  -8   2   8   44.97    9.44
  -9   2  -8    1.91    3.66
  -9   2   8    5.74    4.94
   0   2   9    1.94    2.09
   0  -2   9   -0.51    0.57
   0   2  -9   -0.07    0.84
   1   2   9   97.82   13.05
  -1   2  -9   95.13   10.63
  -1  -2   9   92.87    8.42
  -1   2   9  107.23   12.78
  -2  -2   9    1.60    1.18
  -2   2   9    1.24    2.21
   2   2   9    0.88    1.86
  -2   2  -9    0.26    0.31
  -3   2  -9  514.30   28.20
  -3  -2   9  503.03   20.82
  -3   2   9  579.91   29.99
  -4   2   9   22.41    6.38
  -4  -2   9   22.81    4.93
  -4   2  -9   21.93    6.30
  -5   2  -9   33.10    8.12
  -5  -2   9   30.71    5.91
  -5   2   9   37.60    8.36
  -6  -2   9   11.89    3.66
  -6   2   9   18.48    4.97
  -6   2  -9   21.90    6.78
  -7   2   9   81.46   12.61
  -7   2  -9   68.91   13.60
  -8   2   9   12.25    4.77
  -8   2  -9   20.83    7.87
   0   2  10   37.16    8.29
  -1   2  10    2.48    1.98
   1   2  10    2.30    2.51
  -2   2 -10  108.06   13.79
   2   2  10   92.59   14.01
  -2   2  10  113.03   14.34
  -3   2 -10   50.92    9.76
  -3   2  10   44.90    8.93
  -4  -2  10   83.60    9.23
  -4   2 -10  108.56   14.95
  -4   2  10   95.93   12.73
  -5   2 -10    1.85    2.26
  -5  -2  10   -0.74    1.52
  -5   2  10   -1.80    2.15
  -6   2  10   15.40    4.79
  -6  -2  10   83.51   13.71
  -7  -2  10    8.76    4.06
  -7   2  10    3.22    1.77
   0   2  11   -1.30    1.06
   1   2  11  282.50   24.73
  -1   2  11  302.50   23.62
  -2   2  11    3.09    2.53
  -3   2  11    9.97    4.84
  -4   2  11   -2.73    2.37
  -5   2 -11  203.53   20.80
   0  -3   0    0.19    0.32
   0   3   0   -0.44    0.68
   0  -3   0   -0.17    0.64
   1  -3   0    0.41    0.29
  -1   3   0    0.88    0.78
  -1  -3   0   -0.03    0.31
  -1  -3   0    0.72    0.29
   1  -3   0    0.40    0.73
   1   3   0   -0.25    0.63
   2   3   0  158.79    7.99
  -2   3   0  174.21    9.46
  -2  -3   0  148.65    7.68
   2  -3   0  173.08   10.94
  -3   3   0    0.91    0.86
  -3  -3   0    1.47    0.90
   3  -3   0    0.77    1.24
   3   3   0    0.17    0.16
   4  -3   0  239.18   14.26
   4   3   0  208.38    6.81
   5  -3   0    0.00    0.62
   6  -3   0   54.52    7.60
   7  -3   0    1.85    1.97
   8  -3   0  303.71   20.23
   9  -3   0    0.58    1.44
  10  -3   0  646.86   32.37
  11  -3   0    1.67    2.12
 -11   3   0   -3.14    5.47
 -12   3   0   28.80    9.56
  12  -3   0   37.44    8.07
   0  -3   1  160.80    6.34
   0  -3  -1  173.53    8.71
   0  -3   1  155.70   10.24
   0   3   1  139.11    8.81
   0   3  -1  183.04   12.08
   1   3  -1 1350.05   31.49
  -1  -3   1 1443.78   30.29
   1   3   1 1092.94   29.92
  -1  -3  -1 1072.57   22.28
  -1  -3  -1 1234.77   26.16
   1  -3  -1 1128.12   22.59
   1  -3   1 1126.67   29.08
  -1   3  -1  973.22   15.94
  -1  -3   1 1132.93   27.64
   1  -3   1 1132.55   16.59
  -1   3   1 1097.83   24.92
   2  -3   1  831.52   25.60
  -2   3   1  871.97   23.80
  -2  -3   1  866.65   24.23
  -2   3  -1  877.47   17.95
   2   3  -1  944.07   24.55
  -2  -3  -1  832.77   17.23
  -3   3   1    4.52    2.18
   3   3  -1    3.54    1.51
  -3  -3  -1    3.16    0.98
   3  -3   1    3.56    1.88
   4  -3   1  613.49   24.66
   4   3  -1  553.54   15.82
   5   3  -1  566.60   15.71
   5  -3   1  586.80   25.05
   6   3  -1  753.69   17.76
   6  -3   1  782.61   30.11
   7  -3  -1  423.74   23.09
   7  -3   1  425.90   23.86
   8  -3  -1  602.14   28.65
   8  -3   1  630.87   29.20
   9  -3   1    4.34    2.86
   9  -3  -1    3.92    2.69
 -10   3  -1  281.78   30.09
  10  -3   1  270.75   20.19
  10  -3  -1  293.34   21.63
 -11   3  -1  142.28   22.29
  11  -3   1  166.95   16.46
  11  -3  -1  148.35   16.22
 -11   3   1  145.27   20.98
 -12   3  -1  227.83   28.44
  12  -3   1  236.96   20.66
 -12   3   1  190.58   23.70
  12  -3  -1  251.62   22.14
   0  -3   2   -0.41    1.61
   0   3   2   -0.11    0.51
   0  -3   2    0.10    0.22
  -1  -3   2   25.64    4.84
   1  -3   2   26.25    4.92
   1   3  -2   26.64    4.48
  -1   3   2   24.91    4.76
   2  -3   2  813.75   26.08
  -2   3  -2  847.90   12.62
  -2   3   2  857.12   23.98
   3   3  -2   56.48    6.87
  -3   3   2   53.25    7.04
   3  -3   2   48.42    6.76
  -4   3   2  631.18   24.98
   4  -3   2  604.25   24.47
   4   3  -2  646.15   21.67
  -4  -3  -2  587.40   10.38
   5   3  -2  238.17   12.85
   5  -3   2  220.79   15.45
   6  -3   2    4.35    2.23
   7  -3   2  102.38   11.48
   8  -3   2  314.95   20.37
   9  -3   2  178.37   15.78
 -10   3  -2  279.19   30.98
  10  -3  -2  273.27   21.45
 -10   3   2  225.57   23.97
  10  -3   2  246.76   19.12
  11  -3   2   16.43    4.83
 -11   3  -2   11.58    5.92
  11  -3  -2   19.97    6.21
 -11   3   2   22.49   11.29
 -12   3  -2    2.33    0.52
  12  -3  -2    3.83    2.27
 -12   3   2    1.51    2.25
   0  -3   3 2092.10   21.04
   0  -3   3 2246.94   52.22
   1   3   3  423.32   19.65
  -1   3   3  376.81   17.97
   2  -3   3 1642.06   43.29
  -2   3   3  845.46   28.24
  -3   3   3   14.58    3.91
   3  -3   3    8.93    3.88
   4  -3   3 1328.98   38.42
  -4   3   3  941.73   33.77
   5  -3   3  225.18   16.55
  -5   3   3  255.46   17.19
   6  -3   3  440.41   24.09
   7  -3   3  563.38   26.59
   8  -3   3  736.65   32.58
   9  -3   3  104.99   12.39
 -10   3  -3  292.96   32.01
 -10   3   3  243.04   23.79
  11  -3   3  226.72   19.32
 -11   3  -3  228.56   29.10
  12  -3  -3  137.42   17.09
 -12   3  -3  115.73   21.51
   0   3   4    2.00    1.74
   0  -3   4    0.71    0.27
  -1   3   4  810.23   28.79
   1   3   4  749.24   28.37
   2   3   4  627.64   28.53
  -2   3   4  717.19   27.77
   2  -3   4  685.00   31.26
   3  -3   4  420.19   24.42
  -3   3   4  389.54   21.16
  -3   3  -4  422.48    9.58
   4  -3   4  689.78   31.04
  -4   3   4  708.15   29.39
   5  -3   4  243.38   18.71
  -5   3   4  240.00   17.20
  -6   3   4   10.36    3.75
   6  -3   4   11.22    3.83
  -6  -3  -4   11.32    2.05
   7  -3   4   62.78   10.29
   8  -3   4  146.88   15.49
  -9   3  -4   69.80   14.59
   9  -3   4   59.90    9.93
  10  -3   4  191.55   18.34
 -10   3  -4  230.56   31.59
 -11   3  -4  159.27   26.13
  11  -3   4  117.37   14.16
   0  -3   5  110.53    3.99
   0   3   5   87.68    9.34
  -1   3   5  515.68   24.46
   1   3   5  497.44   24.66
   2   3   5   82.41   11.12
  -2   3   5   91.28   10.32
  -3   3   5    7.65    2.99
  -4   3  -5  161.00    7.15
  -4   3   5  157.71   14.81
  -5   3   5  490.24   26.07
   5  -3   5  476.89   27.37
   5   3  -5  441.52   19.05
   6  -3   5  110.38   13.20
  -6   3   5  106.36   12.10
   7  -3   5  274.53   21.17
  -7   3   5  254.64   19.32
   8  -3   5  124.26   14.33
   9  -3   5   -1.38    1.40
  -9   3  -5   -2.55    5.84
  10  -3   5   44.64    8.63
 -10   3  -5   48.55   12.11
 -11   3  -5  138.83   22.22
   0  -3   6    0.24    0.44
   0   3   6    1.45    2.35
  -1  -3   6  443.94   13.16
  -1   3   6  477.30   25.17
   2   3   6  164.29   16.11
  -2   3   6  193.19   15.85
  -3   3   6  560.00   27.72
  -4   3   6  342.05   22.41
  -5   3   6  173.14   16.40
  -6   3   6   57.97    9.34
  -7   3   6  357.99   24.42
  -8   3  -6  125.93   18.82
  -8   3   6   90.53   12.13
  -9   3   6   78.80   11.82
  -9   3  -6  104.29   17.98
 -10   3  -6  339.09   33.85
 -10   3   6  232.77   20.89
   0   3   7   17.29    4.75
   0  -3   7   15.25    2.14
  -1  -3   7  388.15   12.56
   1   3   7  372.97   24.17
  -2   3   7   14.43    4.71
  -2  -3   7   16.52    3.18
   2   3   7   12.80    4.01
  -3   3   7    9.08    3.67
  -4   3   7    5.21    2.95
  -5   3   7  234.50   19.31
  -6   3  -7    9.54    3.89
  -6   3   7   13.24    3.97
  -7   3  -7  229.48   24.30
  -7   3   7  216.94   19.16
  -8   3   7    9.12    3.62
  -8   3  -7   11.32    5.76
  -9   3   7    9.90    3.86
  -9   3  -7   11.46    6.06
 -10   3   7    6.50    2.67
 -10   3  -7    9.85    5.71
   0   3   8    1.88    2.08
  -1   3   8  179.38   16.56
  -1  -3   8  167.02    9.14
   1   3   8  167.85   17.30
   2   3   8  297.81   23.85
  -2  -3   8  286.92   13.19
  -2   3   8  343.11   24.06
  -3  -3   8  261.78   14.34
  -3   3   8  290.41   21.76
  -4   3   8  235.36   20.18
  -4  -3   8  212.32   13.60
  -5   3  -8  270.80   24.23
  -5   3   8  259.03   19.63
  -6   3  -8    3.54    0.84
  -6   3   8    1.67    1.25
  -7   3   8  203.67   19.58
  -7   3  -8  208.64   23.31
  -8   3   8  163.77   17.49
  -8   3  -8  175.41   22.22
  -9   3  -8  312.53   30.85
  -9   3   8  225.83   21.41
   0   3   9    2.71    2.16
  -1   3  -9  170.69   15.88
  -1   3   9  172.72   16.81
   1   3   9  170.99   18.07
   2   3   9  560.54   36.11
  -2   3   9  305.07   25.67
  -3   3  -9   26.15    7.04
  -3   3   9   29.66    7.33
  -4  -3   9   38.76    6.03
  -4   3  -9   36.79    8.75
  -5  -3   9   55.76    9.24
  -5   3   9   93.33   13.45
  -5   3  -9   73.29   13.41
  -6   3   9   10.01    4.29
  -6   3  -9   35.68   10.70
  -7   3  -9  223.13   23.93
  -7   3   9  169.39   17.74
  -8   3  -9   64.94   13.78
   0   3  10    1.18    1.78
   1   3  10  249.66   23.16
  -1   3  10  275.84   22.49
   2   3  10  148.87   20.35
  -2   3  10  147.71   18.43
  -3   3 -10   57.97   10.11
  -3   3  10   82.59   13.27
  -4   3 -10  135.59   16.05
  -4   3  10  195.36   20.17
  -5   3  10  176.31   18.06
  -5   3 -10  347.78   27.17
  -6   3  10    3.75    3.17
  -6   3 -10    2.29    0.98
   0   3  11  120.10   17.33
   1   3  11  120.37   17.69
  -1   3  11  126.62   16.90
  -2   3  11   80.50   12.90
  -3   3  11    1.00    1.77
  -4   3  11   30.24    8.45
   0   4   0 2271.17   41.05
   0  -4   0 2387.00   43.09
   0  -4   0 2316.52   32.28
   1  -4   0    1.00    0.37
  -1   4   0    0.37    0.66
  -1  -4   0    0.39    0.46
   1  -4   0    0.33    0.73
  -2   4   0  326.91   13.96
   2  -4   0  367.96   18.21
  -2  -4   0  351.61   14.99
  -3   4   0   -0.20    1.00
  -3  -4   0    0.73    0.67
   3  -4   0    0.08    0.69
  -4   4   0  296.46   16.23
   4  -4   0  283.06   17.76
   5  -4   0   -1.06    1.78
   6  -4   0 2903.84   61.85
   7  -4   0   -0.83    1.59
   8  -4   0   41.99    7.98
   9  -4   0    0.16    1.42
  10  -4   0  191.10   18.47
  11  -4   0    1.16    0.09
  12  -4   0 1307.82   52.14
 -12   4   0 1096.24   66.11
   0  -4   1    0.23    0.37
   0   4   1    0.82    0.42
   0  -4   1    0.77    1.19
   0  -4  -1   -0.14    1.26
   1  -4  -1  471.03   19.74
  -1  -4   1  457.16   19.63
   1  -4   1  454.66   12.39
   1  -4   1  503.05   21.58
  -1   4   1  446.29   17.79
  -1   4  -1  447.48   14.81
  -1  -4  -1  492.97   17.64
   2  -4  -1  208.62   13.82
  -2  -4   1  206.26   13.56
  -2  -4  -1  188.37   10.37
  -2   4   1  172.37   11.17
   2  -4   1  188.13   13.40
  -2   4  -1  183.98    9.18
   2   4  -1  195.10   12.63
   3   4  -1  780.13   23.43
   3  -4  -1  766.58   28.26
   3  -4   1  751.17   28.04
  -3  -4   1  669.09   22.25
  -3   4  -1  746.74   20.60
  -3   4   1  753.49   25.63
  -3  -4  -1  700.67   18.62
  -4   4  -1    2.56    1.15
  -4   4   1    3.92    1.99
  -4  -4  -1    3.06    0.89
   4   4  -1    3.42    1.50
   4  -4   1    3.31    2.17
   4  -4  -1    3.15    1.70
   5  -4  -1  847.35   32.58
  -5   4   1  828.35   30.06
   5   4  -1  868.46   21.70
   5  -4   1  922.92   35.25
   6   4  -1    1.90    1.01
   6  -4   1    3.16    1.69
   6  -4  -1    1.41    1.29
   7  -4  -1  217.16   17.99
   7  -4   1  230.75   18.61
   8  -4   1    9.58    4.19
   8  -4  -1    8.32    3.67
   9  -4   1  102.17   12.69
   9  -4  -1  111.12   13.67
  10  -4   1    0.40    0.84
  10  -4  -1    4.41    2.63
  11  -4   1  289.41   23.84
  11  -4  -1  293.55   24.10
  12  -4   1    5.17    3.35
 -12   4  -1    0.16    6.43
 -12   4   1   -3.44    6.37
  12  -4  -1    5.19    2.43
   0  -4   2   94.46    5.43
   0   4   2   46.51    6.56
  -1  -4   2  463.63   17.59
   1  -4   2  409.60   10.51
  -1  -4   2 1039.59   35.73
   1  -4   2  753.89   30.74
   2  -4   2 1510.78   36.26
  -2   4  -2 1492.84   20.07
  -2   4   2 1458.98   35.58
  -3   4  -2    2.60    1.00
  -3   4   2    3.39    2.03
   3  -4   2    3.39    2.52
  -3  -4  -2    2.67    1.20
  -4   4  -2 1299.83   27.86
   4  -4   2 1253.43   38.77
  -4   4   2 1116.33   36.04
  -4  -4  -2 1067.72   20.22
  -5   4   2   27.85    5.81
   5   4  -2   49.58    6.47
  -6   4   2   84.13   10.06
   6   4  -2  110.05   10.34
   7  -4   2  512.76   28.35
   8  -4  -2  811.05   37.51
   8  -4   2  701.52   33.30
   9  -4  -2   45.53    8.84
   9  -4   2  104.61   13.19
  10  -4  -2  291.66   23.70
  10  -4   2  302.60   22.71
  11  -4   2  172.88   16.71
  11  -4  -2   12.81    5.28
 -12   4   2   12.81    4.55
 -12   4  -2   55.55   16.21
  12  -4  -2   29.47    7.87
  12  -4   2   77.08   11.42
   0  -4   3    0.53    1.83
   0  -4   3    0.37    0.47
   0   4   3    0.78    1.11
   1  -4   3    0.52    3.55
  -1   4   3   12.42    5.19
   2  -4   3  134.78   14.88
  -2   4   3  113.95   11.11
  -3   4   3 1010.87   33.09
  -3   4  -3 1018.06   15.13
  -4   4  -3    0.65    0.49
  -4   4   3    1.04    2.33
   4  -4   3    4.78    3.36
  -5   4   3   12.31    3.81
   5  -4   3   10.65    4.15
  -5  -4  -3    9.47    1.62
   6  -4   3   26.26    5.93
  -6   4   3   29.86    6.15
  -7   4   3    1.42    0.57
   7  -4   3    2.01    2.03
   8  -4   3    8.50    3.35
   9  -4   3  825.77   37.15
  10  -4  -3   57.36   11.28
  10  -4   3   48.98    9.13
  11  -4  -3   72.74   12.78
  11  -4   3   66.25   11.04
 -11   4  -3   72.52   16.63
   0   4   4 5416.74   76.57
   1   4   4  449.50   24.33
  -1   4   4  459.78   23.81
   2  -4   4    6.49    3.59
  -2   4   4    8.89    3.49
   2   4   4    7.48    2.85
   3  -4   4   46.28    8.26
  -3   4   4   81.69   10.31
   4  -4   4   91.38   12.06
  -4   4  -4  118.55    5.65
  -5   4   4   27.93    6.22
   5  -4   4   20.76    6.05
   6  -4   4 1178.01   44.53
  -6   4   4 1726.74   50.60
   7  -4   4   35.19    7.73
  -7   4   4   43.38    7.87
  -8   4   4    2.93    1.66
   8  -4   4    2.90    2.18
  -9   4   4    0.51    1.23
   9  -4   4   -1.02    1.96
  10  -4   4   58.93   10.64
  11  -4   4   12.30    4.88
 -11   4  -4    4.93    1.66
   0   4   5    0.54    0.74
  -1   4   5 1346.35   45.80
   1   4   5 1059.54   39.90
  -2   4   5   19.84    6.09
   2   4   5   17.35    6.18
   3  -4   5    1.66    0.70
  -3   4   5    2.89    2.60
   4  -4   5   37.92    8.14
  -4   4   5   42.94    7.34
   5  -4   5  658.95   34.43
  -5   4   5  703.30   34.26
   6  -4   5   38.44    8.15
  -6   4   5   46.66    8.57
   7  -4   5  613.20   33.38
  -7   4   5  563.05   30.07
  -8   4   5    4.19    3.64
   8  -4   5    3.13    2.71
  -9   4   5   27.95    6.92
   9  -4   5   29.36    7.72
 -10   4  -5   61.99   14.92
 -10   4   5   63.72   11.67
  10  -4   5   60.36   10.90
   0   4   6  271.28   20.04
  -1   4   6   23.28    6.06
   1   4   6   23.37    6.32
  -1  -4   6   27.68    2.75
   2   4   6  149.73   17.48
  -2   4   6  170.00   16.87
  -3   4   6    2.78    2.09
  -4   4   6   83.07   11.60
  -5   4   6   23.62    6.31
  -6   4   6   97.80   13.13
  -7   4   6   40.42    8.30
  -8   4   6  238.76   20.57
  -9   4   6    6.20    2.94
  -9   4  -6    7.67    4.16
 -10   4   6   32.95    7.78
 -10   4  -6   51.87   13.70
   0   4   7    0.18    0.65
  -1   4   7   24.63    6.06
   1   4   7   21.50    6.07
  -1  -4   7   26.20    2.71
   2   4   7   75.90   12.95
  -2  -4   7   69.89    6.01
  -2   4   7   84.05   12.43
  -3   4   7 1136.20   45.88
  -4   4   7   82.87   12.41
  -5   4   7   24.13    6.51
  -6   4   7    2.56    2.38
  -7   4   7  115.68   15.14
  -8   4   7   14.79    5.65
  -8   4  -7   18.67    7.46
  -9   4   7  439.72   29.98
  -9   4  -7  548.53   44.39
   0   4   8  186.85   19.72
  -1   4   8    3.35    2.55
   1   4   8    0.30    2.34
  -2   4   8   18.18    6.22
   2   4   8   22.00    7.27
  -3   4   8   30.50    7.97
  -4   4   8   75.44   11.83
  -5   4   8   24.50    6.96
  -6   4   8  170.43   17.73
  -7   4   8   23.98    6.57
  -7   4  -8   21.34    8.27
  -8   4   8   27.20    7.27
  -8   4  -8   32.99   10.31
   0   4   9    2.78    2.49
  -1   4   9  409.33   28.62
   1   4   9  385.61   28.95
  -2   4   9    1.12    0.60
   2   4   9    1.19    2.83
  -3   4   9   16.49    7.12
  -4   4   9   41.18    9.29
  -5   4  -9  631.49   39.09
  -5   4   9  501.75   30.80
  -6   4  -9   -5.24    5.12
  -6   4   9    0.50    1.57
  -7   4   9  157.01   17.56
  -7   4  -9  225.34   25.58
   0   4  10  564.22   37.91
   1   4  10  152.62   21.65
  -1   4  10  138.21   17.41
   2   4  10  224.12   26.24
  -2   4  10   83.14   16.58
  -3   4 -10   -2.99    2.69
  -3   4  10   30.50    9.36
  -4   4 -10    2.69    2.05
  -4   4  10   42.61   11.79
  -5   4 -10   36.62    9.16
  -5   4  10   59.95   11.87
   0   4  11   -2.75    3.26
   1   4  11   42.46   13.97
  -1   4  11   58.49   13.96
  -2   4  11    2.10    1.27
   0   5   0    0.09    1.37
   0  -5   0    0.62    0.91
  -1   5   0    1.94    1.64
  -1  -5   0    0.28    1.06
   1  -5   0    0.18    1.43
  -2  -5   0  699.65   23.88
  -2   5   0  759.21   25.25
   2  -5   0  743.14   29.36
  -3   5   0    0.66    1.09
  -3  -5   0    0.30    0.44
   3  -5   0    0.78    2.57
  -4   5   0  196.04   12.94
  -4  -5   0  193.72   11.62
   4  -5   0  199.60   16.25
  -5   5   0    2.33    1.68
   5  -5   0    2.09    2.55
  -6   5   0    0.66    0.26
   6  -5   0    0.35    1.30
  -7   5   0    0.52    0.53
   7  -5   0   -0.28    1.17
   8  -5   0  352.40   25.82
   9  -5   0    3.17    3.27
  10  -5   0  477.99   33.20
  11  -5   0   -1.29    2.86
   0  -5  -1  311.36   17.01
   0   5   1  245.64   15.79
  -1  -5  -1  765.97   25.54
  -1  -5   1  694.79   25.81
   1  -5   1  708.21   17.28
   1  -5   1  769.53   29.21
  -1   5   1  666.58   23.96
   1  -5  -1  818.26   28.33
  -1   5  -1  719.04   22.49
   2  -5  -1  682.03   27.69
  -2  -5   1 1080.72   33.17
   2  -5   1  993.92   33.80
  -2  -5  -1  697.52   24.04
  -2   5   1  624.60   24.31
  -2   5  -1  835.79   21.57
  -3  -5   1    1.69    1.29
  -3   5   1    1.20    1.10
  -3   5  -1    0.40    0.54
  -3  -5  -1    0.04    0.69
   3  -5   1    2.68    2.03
   3  -5  -1    0.13    0.55
  -4  -5  -1  576.89   19.15
  -4   5   1  608.48   23.87
   5  -5  -1  111.59   12.66
  -5   5  -1  123.26   10.56
  -5   5   1  116.62   11.96
   5  -5   1  111.77   12.67
   5   5  -1   98.56    7.86
  -6   5  -1  598.84   24.95
  -6   5   1  324.62   20.34
   6  -5   1  706.81   33.90
   6  -5  -1  349.54   22.98
   7  -5   1  458.62   27.38
   7  -5  -1  468.41   27.88
   8  -5   1  209.39   19.16
   8  -5  -1  172.16   17.58
   9  -5   1   52.86    9.86
   9  -5  -1   51.81   10.18
  10  -5   1  279.64   23.76
  10  -5  -1  238.81   22.41
  11  -5   1  162.06   18.82
  11  -5  -1  186.36   20.92
   0  -5   2    0.37    0.32
   0  -5   2   -0.47    1.05
   0   5   2   -0.14    1.29
   0  -5  -2   -0.10    1.44
   1   5   2  269.77   19.85
  -1  -5  -2  310.29   16.48
  -1  -5   2  345.18   22.00
   1  -5   2  272.53    9.42
  -1   5   2  249.72   15.81
  -1  -5   2  362.89   14.30
  -2  -5   2  623.60   30.96
   2  -5   2  602.90   25.71
  -2   5   2  440.17   22.31
  -2   5  -2  543.57   16.78
  -2  -5  -2  448.79   18.34
  -3   5   2   10.12    3.15
  -3  -5  -2    8.91    2.49
   3  -5   2   42.23   10.52
  -3   5  -2   56.11    7.31
   4  -5   2  306.30   20.66
  -4   5   2  293.78   18.43
  -4   5  -2  333.35   14.11
  -4  -5  -2  279.98   12.58
  -5  -5  -2   65.16    4.82
   5  -5   2  127.44   14.32
  -5   5  -2  113.04    9.64
  -5   5   2   85.98   11.05
   6  -5  -2   49.68    9.11
  -6   5  -2   47.84    6.46
  -6   5   2   40.16    7.36
   6  -5   2   41.25    8.16
  -7   5   2   23.70    5.54
   7  -5   2   32.64    8.94
   7  -5  -2   29.67    7.24
   8  -5  -2  205.35   20.09
  -8   5   2  157.16   15.47
   8  -5   2  201.05   18.96
   9  -5  -2   55.74   10.84
  -9   5   2   43.97    8.20
   9  -5   2   63.82   11.40
  10  -5   2  324.30   25.20
  10  -5  -2  359.30   28.06
  11  -5   2   15.78    6.70
  11  -5  -2    7.82    5.30
   0  -5   3  202.30   17.17
   0  -5   3  186.51    6.62
   0   5   3  181.48   15.66
   1   5   3  338.41   22.66
  -1  -5   3  381.35   23.37
   1  -5   3  394.89   24.82
  -1   5   3  310.65   18.74
  -1  -5   3  412.75   14.41
   2  -5   3  224.04   17.83
  -2   5   3  240.59   17.59
  -3   5   3    2.31    1.74
   3  -5   3    1.64    0.71
  -3   5  -3    2.48    0.91
   4  -5   3  324.66   22.22
  -4   5   3  337.12   21.91
  -4   5  -3  299.15   10.10
  -4  -5  -3  320.28   13.84
   5  -5   3  410.84   24.04
  -5   5   3  439.16   25.25
  -5  -5  -3  457.81   14.63
  -6   5  -3  271.49   14.54
  -6   5   3  254.01   19.80
   7  -5   3  231.01   19.15
  -7   5   3  247.43   19.60
   8  -5   3  222.47   19.17
  -8   5   3  231.93   19.90
  -9   5   3    0.27    0.74
   9  -5   3    1.23    1.63
   9  -5  -3    1.47    1.90
  10  -5  -3  157.47   19.22
  10  -5   3  130.20   15.70
 -10   5   3  108.92   14.04
  11  -5  -3  126.97   17.66
  11  -5   3   99.80   14.82
 -11   5   3   81.89   12.88
   0  -5   4   -0.47    1.14
   0  -5   4    0.33    0.22
   0   5   4    0.17    0.60
   1  -5   4  320.87   23.58
  -1   5   4  331.69   21.67
  -1  -5   4  318.77   11.50
   1   5   4  336.43   23.83
   2  -5   4  274.26   21.37
  -2   5   4  280.90   20.58
   3  -5   4  135.75   15.07
  -3   5   4  147.62   14.63
   4  -5   4  544.64   31.09
  -4   5   4  583.77   30.19
  -5   5   4  109.17   13.64
   5  -5   4  103.82   13.60
  -6   5   4   29.71    6.88
   6  -5   4   30.03    7.00
   7  -5   4  315.99   23.66
  -7   5   4  319.41   23.62
   8  -5   4   81.57   12.04
  -8   5   4   75.44   11.36
   9  -5   4  131.54   16.13
  -9   5   4  118.26   14.88
  10  -5   4  122.87   16.16
 -10   5   4   99.65   13.79
   0   5   5  587.63   32.04
  -1   5   5  243.42   18.93
   1   5   5  263.57   20.81
   2   5   5  172.89   19.00
  -2   5   5  141.54   15.59
   3  -5   5    7.88    3.62
  -3   5   5   18.88    5.58
   4  -5   5   64.42   11.13
  -4   5   5  124.27   14.31
   5  -5   5  279.16   22.98
  -5   5   5  503.23   28.37
   6  -5   5   64.01   11.06
  -6   5   5  101.87   13.17
   7  -5   5  215.13   20.68
  -7   5   5  348.03   25.14
   8  -5   5   48.70   10.07
  -8   5   5   82.99   12.81
  -9   5   5   11.81    5.17
   9  -5   5    5.30    3.16
  10  -5   5   53.69   11.05
 -10   5   5   77.53   12.95
   0   5   6   -0.77    1.24
  -1   5   6  288.46   22.03
   1   5   6  247.87   21.64
   2   5   6  171.13   19.91
  -2   5   6  193.70   19.65
  -3   5   6  339.56   25.87
  -4   5   6  378.58   25.07
  -5   5   6  185.72   18.47
   6  -5   6    3.22    1.64
  -6   5   6    1.77    1.91
   7  -5   6  175.48   18.93
  -7   5   6  180.67   18.44
   8  -5   6  102.46   14.68
  -8   5   6  119.81   15.64
   9  -5   6  127.55   17.12
  -9   5   6  156.83   18.44
   0   5   7   53.89   11.04
  -1   5   7  176.35   18.30
   1   5   7  158.55   18.12
  -2   5   7   14.23    5.39
   2   5   7   13.38    6.19
  -3   5   7   33.24    8.46
  -4   5   7   22.96    6.95
  -5   5   7  155.48   17.19
  -6   5   7   14.29    4.95
  -7   5   7  115.94   14.18
  -8   5   7    7.16    3.20
   0   5   8   -0.80    1.35
  -1   5   8  283.95   24.90
   1   5   8  276.63   26.14
   2   5   8   62.60   13.39
  -2   5   8   57.87   11.34
  -3   5   8  197.88   21.69
  -4   5   8  116.43   16.65
  -5   5   8  218.78   21.73
  -6   5   8   -0.12    1.96
  -7   5   8   94.71   14.26
   0   5   9   69.05   13.46
   1   5   9  193.14   23.23
  -1   5   9  190.21   21.84
  -2   5   9    6.21    4.32
   2   5   9    6.97    4.21
  -3   5   9    0.97    1.87
  -4   5   9   12.62    6.28
  -5   5   9   73.52   13.41
  -6   5   9   25.71    7.82
   0   5  10   -3.14    3.40
  -1   5  10   47.47   12.20
   1   5  10   42.54   12.10
  -2   5  10   84.76   14.88
  -3   5  10  230.05   24.70
   0  -6   0   17.70    4.74
  -1  -6   0  414.96   22.70
   1  -6   0  449.46   24.45
  -1   6   0  428.41   20.95
  -2  -6   0  991.03   31.41
  -2   6   0  936.61   28.90
  -3   6   0    6.57    2.57
  -3  -6   0    5.60    2.84
   3  -6   0    8.16    3.95
  -4  -6   0  944.65   29.23
  -4   6   0 1017.45   32.07
  -5   6   0  113.81   11.78
   5  -6   0  167.86   17.40
  -6   6   0   54.01    8.13
   6  -6   0   56.00   10.08
  -7   6   0  240.00   18.31
   7  -6   0  327.62   25.93
  -8   6   0  242.98   18.82
   8  -6   0  287.19   25.10
  -9   6   0   23.20    6.13
   9  -6   0   30.27    9.20
 -10   6   0  212.82   18.67
  10  -6   0  276.57   25.89
   0  -6   1   -0.59    0.94
   0   6   1   -1.78    1.63
   0  -6  -1    1.07    1.34
  -1   6  -1   48.59    8.97
  -1   6   1   12.80    4.24
  -1  -6  -1    3.67    3.44
   1  -6  -1    1.84    3.13
  -1  -6   1  104.58   10.70
   1  -6   1   64.35   10.82
  -2  -6   1    5.25    2.41
  -2   6   1    6.51    2.72
  -2   6  -1    6.71    2.39
   2  -6   1    6.54    2.99
  -2  -6  -1    6.74    2.57
   2  -6  -1    7.18    3.01
  -3  -6   1  478.16   28.21
  -3  -6  -1  413.53   19.39
   3  -6   1  606.32   31.25
  -3   6   1  423.28   22.49
  -3   6  -1  616.84   22.10
   3  -6  -1  455.15   25.96
   4  -6   1   35.66    7.12
  -4  -6  -1   30.56    4.95
  -4   6   1   32.88    6.21
  -4   6  -1   31.45    5.20
   4  -6  -1   38.55    7.73
  -5  -6  -1  131.54    9.09
  -5   6   1  159.16   14.51
   5  -6   1  148.80   15.66
  -5   6  -1  152.97   12.20
   5  -6  -1  172.15   17.45
  -6   6  -1    6.55    2.57
  -6   6   1    7.85    3.31
   6  -6   1    5.81    3.67
   6  -6  -1    6.31    3.34
  -7   6   1   31.26    6.96
   7  -6   1   28.86    7.51
  -7   6  -1   38.50    7.23
   7  -6  -1   43.22    9.76
  -8   6  -1    0.82    1.03
  -8   6   1    0.88    1.21
   8  -6   1    0.11    0.77
   8  -6  -1   -0.48    0.61
  -9   6  -1  183.67   16.43
  -9   6   1  135.79   14.96
   9  -6   1  214.30   21.82
   9  -6  -1  167.92   19.34
 -10   6   1    0.99    1.24
  10  -6   1    0.95    1.86
  10  -6  -1   -3.34    4.06
   0  -6   2 1128.44   38.78
   0   6   2 1005.15   38.43
   1  -6   2    0.21    0.35
  -1  -6   2   -1.57    2.12
   1  -6   2    0.99    1.03
  -1   6   2   -0.05    0.70
  -1  -6  -2   -0.76    1.03
   1  -6  -2   -1.81    1.54
  -2   6  -2   97.91    8.83
   2  -6  -2  108.24   12.49
  -2  -6   2  103.40   11.68
   2  -6   2   78.80    9.70
  -2   6   2   83.54   10.16
  -2  -6  -2   99.78   10.01
  -3   6   2   11.89    4.30
  -3   6  -2   10.87    2.74
   3  -6   2   10.15    4.10
  -3  -6  -2   10.95    3.08
   3  -6  -2   12.48    4.19
   4  -6  -2  240.62   20.26
   4  -6   2  197.52   17.47
  -4  -6  -2  218.67   13.16
  -4   6   2  197.72   16.43
  -4   6  -2  225.47   12.27
  -5   6   2   15.03    4.75
  -5  -6  -2   15.89    3.12
   5  -6   2   19.45    5.63
   5  -6  -2   18.09    5.76
  -5   6  -2   20.01    3.68
   6  -6   2 1217.92   46.37
  -6   6  -2 1253.20   33.83
  -6   6   2 1203.71   42.47
  -7   6  -2   17.07    4.56
  -7   6   2   14.23    4.76
   7  -6   2   12.66    4.86
   7  -6  -2   16.50    5.93
  -8   6   2   29.89    7.18
   8  -6   2   27.42    7.19
   8  -6  -2   33.31    8.78
  -9   6   2    1.47    0.95
   9  -6   2    0.84    2.00
   9  -6  -2    3.54    3.20
  10  -6   2  115.69   15.62
 -10   6   2  101.41   13.70
  10  -6  -2  145.90   19.37
   0  -6   3    0.48    0.57
   0  -6   3   -0.07    1.14
   0   6   3   -0.73    1.56
   1   6   3  640.71   35.11
  -1  -6  -3  756.76   30.25
  -1  -6   3  665.08   32.61
   1  -6   3  691.34   34.78
  -1  -6   3  686.84   17.74
  -1   6   3  629.28   30.92
  -2  -6  -3   40.39    6.52
   2  -6   3   39.46    7.84
  -2   6   3   33.94    7.31
  -3   6  -3   69.10    5.88
   3  -6   3   65.67   10.41
  -3   6   3   66.59   10.51
  -3  -6  -3   72.00    8.01
   4  -6   3   65.97   10.76
  -4   6   3   73.11   10.47
  -4  -6  -3   69.15    7.40
  -4   6  -3   59.84    4.93
   5  -6   3  341.93   24.05
  -5   6   3  381.47   25.10
  -6   6   3   20.91    5.60
   6  -6   3   15.21    5.18
   6  -6  -3   18.49    6.21
   7  -6   3  354.57   25.12
  -7   6   3  408.63   26.91
  -8   6   3    0.36    0.48
   8  -6   3    0.64    0.73
   8  -6  -3   -1.20    2.90
  -9   6   3   16.05    5.57
   9  -6  -3   14.17    5.77
   9  -6   3   16.79    5.82
 -10   6   3    2.71    2.00
  10  -6   3    5.03    3.48
  10  -6  -3    4.95    4.11
   0  -6   4   83.62   11.91
   0   6   4   80.57   12.31
   1  -6   4   30.82    7.68
  -1   6   4   28.39    6.90
   1   6   4   30.36    7.69
   2  -6   4  349.81   24.78
  -2   6   4  343.15   24.17
   3  -6   4    2.53    2.34
  -3   6   4    7.64    3.60
  -4  -6  -4  223.30   14.04
   4  -6   4  204.55   20.21
  -4   6   4  210.83   18.86
  -5   6   4   34.15    7.80
   5  -6   4   29.60    7.65
  -6   6   4   14.47    4.76
   6  -6   4   19.88    5.79
  -7   6   4   25.68    6.79
   7  -6   4   30.04    7.72
   8  -6   4  357.32   27.16
  -8   6   4  384.28   27.78
  -9   6   4    3.89    3.17
   9  -6   4    3.57    2.47
   9  -6  -4    6.29    3.88
   0   6   5   -1.88    2.76
  -1   6   5   23.48    7.29
   1   6   5   29.91    9.86
   2  -6   5   29.40    7.45
  -2   6   5   43.84    9.48
   3  -6   5  620.84   35.64
  -3   6   5  663.25   36.71
   4  -6   5   25.53    7.54
  -4   6   5   32.91   10.06
   5  -6   5   13.78    5.76
  -5   6   5   15.48    5.78
  -6   6   5   -0.81    1.58
   6  -6   5   -2.90    2.76
   7  -6   5  101.33   14.48
  -7   6   5   92.43   12.56
  -8   6   5   26.00    7.06
   8  -6   5   29.26    8.14
   9  -6   5  575.89   35.86
  -9   6   5  614.57   36.86
   0   6   6 2495.66   78.50
   1   6   6  247.95   25.17
  -1   6   6  223.46   21.63
  -2   6   6   -0.33    1.85
  -3   6   6   34.90    9.62
  -4   6   6   17.44    6.02
   5  -6   6   33.39    8.18
  -5   6   6   20.41    6.57
   6  -6   6  513.35   34.57
  -6   6   6  544.85   33.62
   7  -6   6   36.08    9.60
  -7   6   6   61.49   11.23
  -8   6   6   12.17    5.10
   8  -6   6   41.99   12.17
   0   6   7   -0.64    1.16
   1   6   7  652.94   42.77
  -1   6   7  654.24   40.18
  -2   6   7   24.55    7.59
  -3   6   7    9.71    5.06
  -4   6   7   26.74    8.19
  -5   6   7  522.17   35.83
  -6   6   7    5.22    3.80
  -7   6   7  195.13   21.27
   0   6   8  191.50   23.89
  -1   6   8   49.72   11.79
   1   6   8   45.13   12.01
  -2   6   8    4.94    3.44
  -3   6   8   -1.16    1.98
  -4   6   8    2.75    4.54
  -5   6   8   12.77    6.15
  -6   6   8  151.90   19.10
   0   6   9   -0.84    1.39
  -1   6   9   10.95    6.77
   1   6   9   14.92    7.94
  -2   6   9   29.74    9.55
  -3   6   9  593.02   39.81
  -4   6   9   26.44    9.32
   0  -7   0    1.53    0.72
  -1   7   0  155.94   16.97
  -1  -7   0  130.88   14.30
   2  -7   0  627.55   32.02
  -2   7   0  613.50   27.92
   3  -7   0   16.60    8.38
  -3   7   0   43.37    9.19
  -4  -7   0  278.35   18.78
   4  -7   0  282.75   24.51
  -5   7   0   24.35    5.83
   5  -7   0   11.11    7.04
  -6   7   0   52.57    9.11
   6  -7   0   53.50   11.85
  -7   7   0   19.99    5.71
   7  -7   0   22.04    8.96
  -8   7   0  119.63   13.88
   8  -7   0  123.38   17.83
  -9   7   0    8.66    7.54
   9  -7   0    9.30    6.71
   0  -7   1  271.44   18.13
   0  -7  -1  777.42   34.86
  -1  -7   1  288.19   19.81
   1  -7   1  290.04   20.96
  -1  -7  -1  298.96   19.72
   1  -7  -1  333.50   22.91
  -1   7   1  267.51   19.85
  -2   7  -1  259.57   17.14
  -2  -7   1  245.92   18.23
   2  -7   1  267.94   20.91
  -2  -7  -1  306.99   19.50
   2  -7  -1  310.84   22.68
  -2   7   1  279.64   19.89
  -3  -7   1    0.51    0.42
  -3   7   1    3.86    2.39
  -3   7  -1    0.94    1.44
  -3  -7  -1    3.28    2.47
   3  -7   1    2.21    2.15
   3  -7  -1    2.16    1.91
  -4  -7   1  367.28   20.79
  -4  -7  -1  396.96   19.77
   4  -7   1  453.78   28.81
  -4   7   1  493.96   26.40
  -4   7  -1  398.72   19.07
   4  -7  -1  512.85   30.95
   5  -7   1  129.15   15.75
  -5   7   1  174.02   16.24
  -5   7  -1  129.27   11.89
   5  -7  -1  183.59   19.32
   6  -7   1  155.18   17.59
  -6   7   1  368.03   23.29
  -6   7  -1  158.11   12.80
   6  -7  -1  418.70   30.46
   7  -7   1  284.31   24.54
  -7   7   1  276.53   20.06
   7  -7  -1  314.79   26.83
   8  -7   1  107.86   15.96
  -8   7   1  104.57   13.16
   8  -7  -1  122.06   17.79
  -9   7   1   32.14    7.45
   9  -7   1   35.41    9.11
   9  -7  -1   50.39   12.28
   0  -7   2   -0.09    1.24
   0   7   2   -1.20    3.39
   0  -7  -2    2.16    1.43
  -1  -7   2  119.11   14.14
   1  -7   2  121.95   14.35
  -1  -7  -2  136.58   13.44
   1  -7  -2  138.54   14.56
  -1   7   2  103.30   13.28
  -2  -7   2  218.41   18.44
   2  -7   2  205.40   17.54
  -2  -7  -2  262.47   18.54
  -2   7   2  222.80   18.73
   2  -7  -2  270.40   21.15
  -3  -7   2   40.03    7.54
   3  -7   2   43.00    7.75
  -3  -7  -2   51.48    7.52
  -3   7   2   48.13    8.34
   3  -7  -2   67.57   11.12
  -3   7  -2   44.24    6.02
   4  -7   2  220.97   19.48
  -4  -7  -2  234.85   14.98
  -4   7   2  248.15   20.52
   4  -7  -2  275.82   22.95
  -5   7   2    0.63    1.08
   5  -7   2    1.66    2.41
   5  -7  -2    3.32    4.49
  -6   7   2   29.34    6.53
   6  -7   2   25.02    7.01
   6  -7  -2   30.63    7.93
   7  -7   2  102.49   14.42
  -7   7   2  102.46   13.66
   7  -7  -2  136.65   17.79
   8  -7   2   93.51   14.43
  -8   7   2   88.09   12.20
   8  -7  -2  115.27   17.16
  -9   7   2    3.27    2.68
   9  -7   2    3.00    3.30
   9  -7  -2    0.61    0.92
   0  -7  -3   57.03    9.18
   0   7   3   47.79    9.97
   0  -7   3   46.81    8.95
   1  -7  -3  389.59   25.47
  -1  -7   3  310.04   23.34
   1  -7   3  344.20   25.60
  -1   7   3  319.00   25.11
  -1  -7  -3  364.38   22.09
   2  -7  -3  227.12   20.29
  -2  -7   3  158.96   16.39
   2  -7   3  174.10   17.69
  -2   7   3  182.43   17.46
  -2  -7  -3  213.24   16.46
  -3   7   3    0.07    1.46
   3  -7   3    1.06    1.54
  -3  -7  -3   -0.36    1.53
   3  -7  -3   -0.47    1.19
   4  -7  -3  198.01   20.41
   4  -7   3  151.41   16.81
  -4  -7  -3  163.16   12.87
  -4   7   3  169.44   17.88
   5  -7  -3  213.04   21.67
   5  -7   3  172.21   18.06
  -5   7   3  177.43   18.41
   6  -7  -3  223.08   23.11
   6  -7   3  167.36   18.25
  -6   7   3  182.73   17.93
   7  -7  -3  217.94   23.57
   7  -7   3  175.46   19.07
  -7   7   3  168.87   17.78
   8  -7  -3  171.93   21.28
   8  -7   3  133.61   16.82
  -8   7   3  131.77   14.84
  -9   7   3    6.43    3.12
   9  -7   3    7.54    4.44
   9  -7  -3    9.72    5.13
   0  -7   4   -1.17    2.90
   0   7   4    2.83    2.39
   1   7   4  137.22   18.99
  -1  -7  -4  161.30   16.14
   1  -7   4  141.42   16.61
  -1   7   4  146.78   18.10
  -2  -7  -4  130.21   13.34
   2  -7   4  101.42   13.88
  -2   7   4  106.81   14.49
   3  -7   4   73.02   12.39
  -3   7   4   81.97   12.69
  -3  -7  -4   85.22   10.11
   4  -7   4  206.47   21.17
  -4   7   4  219.07   21.66
   5  -7   4  100.65   14.56
  -5   7   4  119.07   15.95
  -6   7   4    2.76    2.68
   6  -7   4   -4.07    3.42
   6  -7  -4   -1.45    2.82
   7  -7  -4  164.67   21.64
   7  -7   4  130.26   17.32
  -7   7   4  128.98   16.43
   8  -7   4  100.72   15.34
  -8   7   4   89.51   13.17
   0   7   5   98.93   15.29
   1   7   5  126.69   19.02
  -1   7   5  128.71   18.07
   2  -7   5   85.55   13.86
  -2   7   5   91.15   14.15
  -3   7   5   33.43    8.46
   3  -7   5   40.17   10.83
  -4   7   5   14.07    6.45
   4  -7   5   62.04   11.86
   5  -7   5  168.89   19.87
  -5   7   5  132.49   17.58
   6  -7   5   91.76   14.27
  -6   7   5   72.81   12.68
   7  -7   5  257.01   27.36
  -7   7   5  113.61   15.38
   8  -7   5  107.65   16.41
  -8   7   5   46.49   10.05
   0   7   6   -1.58    2.62
   1   7   6  346.95   34.28
  -1   7   6  343.00   31.31
  -2   7   6   98.10   15.32
  -3   7   6   84.82   13.87
   4  -7   6  164.39   20.02
  -4   7   6  181.21   21.91
   5  -7   6  606.78   39.01
  -5   7   6  246.00   25.34
   6  -7   6    4.26    3.33
  -6   7   6    3.48    4.23
   7  -7   6  161.15   23.66
  -7   7   6  100.69   14.63
   0   7   7   66.52   13.88
   1   7   7  196.09   26.98
  -1   7   7  149.19   22.30
  -2   7   7    7.23    5.59
  -3   7   7    9.06    4.14
  -4   7   7    5.93    3.93
  -5   7   7  194.94   24.09
  -6   7   7    8.30    4.69
   0   7   8    2.16    3.25
   1   7   8  125.43   22.80
  -1   7   8  111.50   19.63
  -2   7   8   40.26   11.73
  -3   7   8  328.64   30.73
  -4   7   8   83.59   15.29
   0  -8   0  804.36   36.57
  -1  -8   0    2.12    2.37
   1  -8   0    0.97    1.15
  -2   8   0   60.93    9.88
  -2  -8   0   56.85    9.20
   2  -8   0   57.91   10.17
  -3  -8   0   -2.27    2.05
  -3   8   0    0.32    1.69
   3  -8   0   -0.20    0.73
  -4  -8   0  188.63   15.47
  -4   8   0  205.87   16.57
  -5   8   0    0.87    1.83
   5  -8   0    2.02    3.17
   6  -8   0  696.58   40.50
   7  -8   0    3.04    3.90
   8  -8   0   75.73   13.59
   0  -8   1   -2.51    2.22
   0  -8  -1   -0.03    0.96
  -1   8   1  117.13   15.89
  -1  -8   1   87.97   11.88
   1  -8   1   78.63   10.92
  -1  -8  -1  108.46   13.12
   1  -8  -1  111.51   14.59
  -2  -8   1    7.03    3.17
  -2   8   1    2.65    1.81
   2  -8   1    7.85    3.67
  -2  -8  -1    8.29    3.86
   2  -8  -1    7.29    3.21
  -3  -8   1   30.46    6.54
  -3   8  -1   25.54    5.68
   3  -8   1   38.36    8.45
  -3  -8  -1  163.71   14.66
   3  -8  -1   96.58   15.71
  -3   8   1  168.58   19.87
  -4  -8   1    5.09    2.28
  -4   8   1   11.15    4.93
   4  -8   1    8.10    2.96
   4  -8  -1   10.90    4.93
   5  -8   1   68.62   12.07
   5  -8  -1   81.90   13.75
  -5   8   1   84.71   12.84
  -6   8   1    9.26    4.12
   6  -8   1    6.65    4.24
   6  -8  -1    7.65    4.21
   7  -8   1  160.26   19.65
  -7   8   1  141.30   15.73
   7  -8  -1  179.15   21.86
  -8   8   1    3.25    3.55
   8  -8   1   -1.16    2.97
   8  -8  -1   -0.86    1.54
   0  -8   2   -1.30    1.83
   0  -8  -2    0.91    0.93
  -1   8   2  239.66   23.87
  -1  -8   2   -2.05    3.02
   1  -8   2    3.81    3.17
  -1  -8  -2  171.36   18.56
   1  -8  -2  154.99   17.52
  -2  -8   2  332.33   23.72
   2  -8   2  330.53   24.83
  -2  -8  -2  380.50   23.57
   2  -8  -2  400.69   28.31
  -2   8   2  342.26   26.49
  -3  -8   2   -0.80    3.16
  -3   8   2   28.23    7.78
   3  -8   2    0.86    0.84
  -3  -8  -2   17.38    5.96
   3  -8  -2   17.99    6.23
  -4   8   2  316.80   23.13
   4  -8  -2  392.99   29.81
  -5   8   2  126.21   15.84
   5  -8  -2  107.64   16.13
  -6   8   2   19.81    6.44
   6  -8   2    3.00    2.44
   6  -8  -2   17.38    6.99
  -7   8   2  143.47   16.95
   7  -8  -2  164.72   21.93
  -8   8   2  224.19   20.66
   8  -8  -2  274.17   28.43
   0  -8   3    0.98    0.81
   0   8   3    3.55    4.14
   0  -8  -3    0.44    1.14
  -1  -8   3    5.82    3.08
   1  -8   3    4.49    3.90
  -1   8   3    2.61    4.21
  -1  -8  -3    5.14    3.52
   1  -8  -3   11.20    5.84
  -2  -8   3    1.19    1.44
   2  -8   3    3.18    2.02
  -2   8   3   -3.01    3.29
  -2  -8  -3    2.04    1.85
   2  -8  -3    4.55    3.23
   3  -8   3  299.80   24.81
  -3  -8  -3  377.52   23.32
  -3   8   3  300.46   24.29
   3  -8  -3  398.63   29.19
   4  -8   3   61.60   11.52
  -4   8   3   60.68   10.62
   4  -8  -3   80.07   13.42
  -5   8   3   10.59    5.67
   5  -8   3    3.78    2.76
   5  -8  -3   15.39    6.72
  -6   8   3    2.31    3.45
   6  -8   3    2.33    1.14
   6  -8  -3    1.59    3.89
  -7   8   3   21.87    6.54
   7  -8   3   22.91    8.30
   7  -8  -3   32.75   10.31
   0  -8  -4  561.24   33.03
   0   8   4  498.97   39.06
   0  -8   4  484.41   32.53
   1  -8   4    1.11    1.84
  -1   8   4   -0.70    2.11
  -1  -8  -4    3.43    2.49
   1  -8  -4   -0.33    2.73
   2  -8  -4   83.54   13.32
  -2  -8  -4   85.02   11.61
  -2   8   4   72.92   14.04
  -3   8   4   16.26    6.48
   3  -8  -4   17.25    6.57
  -4   8   4   12.54    4.96
   4  -8  -4    6.54    2.43
   5  -8   4   11.19    5.47
  -5   8   4    9.09    5.66
   5  -8  -4   13.03    6.09
   6  -8   4  411.21   31.69
  -6   8   4  433.21   32.53
  -7   8   4   18.46    6.47
   7  -8   4   23.67    7.51
   7  -8  -4   29.76    9.76
   0   8   5   -0.49    1.17
   0  -8  -5    3.32    3.72
  -1  -8  -5  533.16   32.61
   1  -8   5  572.32   38.07
  -2   8   5   19.69    7.57
  -2  -8  -5   19.91    5.80
  -3   8   5    1.98    0.96
   3  -8   5   51.25   11.94
  -4   8   5   32.00    8.91
   4  -8   5  125.28   18.69
   5  -8  -5  518.09   39.46
   5  -8   5  470.04   34.36
  -5   8   5  417.38   34.03
   6  -8   5    4.10    3.42
  -6   8   5    9.17    5.15
   6  -8  -5    3.78    3.78
   0   8   6   70.45   16.15
  -1   8   6   38.55   10.64
  -2   8   6   71.82   15.01
  -3   8   6    3.80    3.74
   4  -8   6   29.05    8.14
  -4   8   6   34.46    9.46
   5  -8   6    9.92    4.95
  -5   8   6   18.60    7.93
   0   8   7   -6.95    5.94
  -1   8   7   18.67    8.12
   1   8   7   21.48   12.29
  -2   8   7    7.75    5.71
  -3   8   7  423.47   36.55
   0  -9   0    0.29    1.76
  -1  -9   0   -0.65    1.10
   1  -9   0    3.37    2.96
  -2  -9   0   79.53   11.49
   2  -9   0   88.02   14.04
  -3  -9   0    1.52    1.11
   3  -9   0    2.49    2.88
   4  -9   0  259.86   24.78
   5  -9   0   -0.36    1.14
   6  -9   0   71.42   13.58
   0  -9   1  124.82   15.83
   0  -9  -1  140.54   16.45
  -1  -9   1  125.28   15.35
   1  -9   1  124.36   14.92
  -1  -9  -1  145.23   16.03
   1  -9  -1  133.77   16.35
  -2   9   1  141.33   18.25
  -2  -9   1  133.95   15.79
  -2  -9  -1  111.56   12.47
   2  -9   1  113.24   13.89
   2  -9  -1  168.76   19.09
  -3  -9   1    2.65    2.69
  -3   9   1   -2.63    2.88
   3  -9   1    0.22    2.86
   3  -9  -1   -1.07    1.88
   4  -9   1  177.07   19.91
   4  -9  -1  200.22   22.62
  -4   9   1  167.95   18.17
   5  -9   1  156.88   19.34
   5  -9  -1  188.03   22.84
   6  -9   1  134.75   19.00
   6  -9  -1  184.74   23.09
   0  -9   2   -1.60    3.29
   0  -9  -2   -0.23    1.03
  -1  -9   2    1.16    1.57
   1  -9   2    1.11    1.07
  -1  -9  -2   23.75    8.59
   1  -9  -2   24.20    9.02
  -2   9   2  204.32   22.66
  -2  -9   2  151.13   16.95
   2  -9   2  162.09   19.14
  -2  -9  -2  198.32   18.78
   2  -9  -2  211.67   22.09
  -3  -9   2   24.15    6.37
   3  -9   2   33.92    8.76
  -3   9   2   50.19   11.00
   3  -9  -2   48.97   11.27
   4  -9  -2  192.89   23.10
  -4   9   2  204.35   22.12
   5  -9   2   21.17    6.62
   5  -9  -2   38.95   11.27
   6  -9   2   -1.64    1.51
   6  -9  -2    1.84    0.89
   0  -9   3  241.25   23.48
   0  -9  -3  484.45   33.13
  -1   9   3  154.47   22.14
  -1  -9   3  212.42   21.84
   1  -9   3  195.97   21.01
  -1  -9  -3  135.19   17.03
   1  -9  -3  140.57   17.70
  -2  -9   3  158.44   18.49
   2  -9   3  175.17   21.64
  -2  -9  -3  183.62   18.35
   2  -9  -3  173.92   20.37
  -2   9   3  142.60   18.75
  -3   9   3   27.96    8.25
   3  -9  -3   26.78    8.00
  -4   9   3   76.29   13.40
   4  -9  -3   86.80   15.61
   5  -9   3  100.46   16.22
  -5   9   3   64.31   12.00
   5  -9  -3   68.49   14.70
   0  -9   4    4.61    3.07
   0  -9  -4   -1.93    2.25
  -1   9   4  157.51   23.05
  -1  -9  -4  177.77   19.05
   1  -9  -4  201.67   21.87
   2  -9   4   73.20   13.37
   2  -9  -4   99.58   15.95
  -2   9   4   73.04   14.54
   3  -9   4   44.70   10.55
  -3   9   4   49.79   12.75
   3  -9  -4   65.15   13.39
   4  -9   4   59.49   11.94
  -4   9   4   71.24   13.80
   4  -9  -4   91.19   16.03
   0   9   5    1.68    2.01
   0  -9  -5   -0.58    3.13
  -1   9   5  151.31   24.21
   1  -9  -5  184.44   21.66
   1  -9   5  136.36   18.44
  -1  -9  -5  178.21   19.76
   2  -9   5   34.32    9.51
  -2   9   5   32.53   10.18
   2  -9  -5   50.84   11.33
   3  -9   5   -1.65    2.46
  -3   9   5    7.28    6.43
   3  -9  -5   -1.82    3.56
   0   9   6   -2.62    3.90
   0  -9  -6    0.43    1.47
   0 -10   0    7.95    3.50
  -1 -10   0   -0.87    2.28
   1 -10   0    2.31    2.92
  -2 -10   0  135.91   16.36
   2 -10   0  176.16   20.25
   3 -10   0   -3.40    3.22
   0 -10   1   -0.05    2.45
   0 -10  -1    2.86    3.10
  -1 -10   1   13.76    6.04
   1 -10   1   15.78    6.25
  -1 -10  -1   12.29    4.97
   1 -10  -1   10.55    4.48
  -2 -10   1    0.69    1.16
   2 -10   1    3.15    2.63
   2 -10  -1   -2.22    3.13
   3 -10   1   35.38    8.30
   3 -10  -1   49.61   11.42
   0 -10   2  421.29   32.05
   0 -10  -2  448.39   32.01
   1 -10   2    0.61    0.80
  -1 -10  -2    1.00    1.34
  -2  10   2   70.02   14.82
  -2 -10   2  120.41   16.32
   2 -10   2   89.98   16.73
   2 -10  -2   92.11   15.31
   0 -10   3   -0.15    3.02
   0 -10  -3    1.59    3.16
  -1 -10   3  142.99   19.62
   1 -10   3  151.72   19.38
  -1 -10  -3  127.91   17.15
   1 -10  -3  144.21   19.80
   0   0   0    0.00    0.00



TITL A in Pnna
REM Pnna (#52, found as Pncn in cab setting)
CELL 0.71073  10.974524   8.605577  10.087597  90.0000  90.0000  90.0000
ZERR    4.00   0.001302   0.001117   0.001408   0.0000   0.0000   0.0000
LATT  1
SYMM -x+1/2,-y, z
SYMM -x+1/2, y+1/2,-z+1/2
SYMM  x,-y+1/2,-z+1/2
SFAC C H N O
UNIT 44.00 40.00 4.00 4.00
TREF
HKLF 4
END
_computing_structure_solution     'SHELXT 2014/5 (Sheldrick, 2014)'
_computing_structure_solution     'SHELXT 2014/5 (Sheldrick, 2014)'
;
_shelx_hkl_checksum              95303
_olex2_submission_special_instructions 'No special instructions were received'
_oxdiff_exptl_absorpt_empirical_details
;
Empirical correction (ABSPACK) includes:
- Absorption correction using spherical harmonics
- Frame scaling
;
_oxdiff_exptl_absorpt_empirical_full_max 1.705
_oxdiff_exptl_absorpt_empirical_full_min 0.571
loop_
_space_group_symop_operation_xyz
'x, y, z'
'-x+1/2, -y, z'
'-x+1/2, y+1/2, -z+1/2'
'x, -y+1/2, -z+1/2'
'-x, -y, -z'
'x-1/2, y, -z'
'x-1/2, -y-1/2, z-1/2'
'-x, y-1/2, z-1/2'
loop_
_atom_site_label
_atom_site_type_symbol
_atom_site_fract_x
_atom_site_fract_y
_atom_site_fract_z
_atom_site_U_iso_or_equiv
_atom_site_adp_type
_atom_site_occupancy
_atom_site_site_symmetry_order
_atom_site_calc_flag
_atom_site_refinement_flags_posn
_atom_site_refinement_flags_adp
_atom_site_refinement_flags_occupancy
_atom_site_disorder_assembly
_atom_site_disorder_group
Br01 Br 0.07953(6) 0.250000 0.250000 0.0240(4) Uani 1 2 d S T P . .
Cu02 Cu 0.750000 0.500000 0.53276(8) 0.0103(4) Uani 1 2 d S T P . .
N003 N 0.3138(4) 0.3359(5) 0.3360(4) 0.0118(10) Uani 1 1 d . . . . .
N004 N 0.6161(4) 0.4173(5) 0.4240(4) 0.0153(10) Uani 1 1 d . . . . .
C005 C 0.5339(5) 0.3660(6) 0.3695(5) 0.0129(11) Uani 1 1 d . . . . .
C006 C 0.4322(4) 0.3021(7) 0.3017(6) 0.0109(11) Uani 1 1 d . . . . .
C007 C 0.2518(6) 0.250000 0.250000 0.0115(17) Uani 1 2 d S TU P . .
C1 C 0.3093(19) 0.036(2) 0.572(2) 0.073(6) Uani 0.5 1 d . . P . .
H1A H 0.321078 0.092777 0.489075 0.110 Uiso 0.5 1 calc R U P . .
H1B H 0.371940 -0.045008 0.580123 0.110 Uiso 0.5 1 calc R U P . .
H1C H 0.315642 0.107512 0.647109 0.110 Uiso 0.5 1 calc R U P . .
loop_
_atom_site_aniso_label
_atom_site_aniso_U_11
_atom_site_aniso_U_22
_atom_site_aniso_U_33
_atom_site_aniso_U_23
_atom_site_aniso_U_13
_atom_site_aniso_U_12
Br01 0.0051(5) 0.0324(6) 0.0344(7) -0.0191(4) 0.000 0.000
Cu02 0.0060(6) 0.0126(6) 0.0123(6) 0.000 0.000 -0.0005(3)
N003 0.010(2) 0.009(2) 0.016(2) -0.0037(19) 0.0023(17) 0.0015(16)
N004 0.009(2) 0.018(2) 0.019(2) -0.005(2) 0.003(2) 0.0031(17)
C005 0.013(2) 0.012(2) 0.014(3) -0.001(2) 0.000(2) 0.004(2)
C006 0.006(2) 0.012(3) 0.015(3) 0.002(3) 0.003(2) 0.0024(18)
C007 0.0108(19) 0.0118(19) 0.0120(19) 0.0002(10) 0.000 0.000
C1 0.076(14) 0.053(10) 0.091(14) 0.039(12) -0.012(13) 0.008(11)
loop_
_atom_type_symbol
_atom_type_description
_atom_type_scat_dispersion_real
_atom_type_scat_dispersion_imag
_atom_type_scat_source
C C 0.0033 0.0016 'International Tables Vol C Tables 4.2.6.8 and 6.1.1.4'
H H 0.0000 0.0000 'International Tables Vol C Tables 4.2.6.8 and 6.1.1.4'
Br Br -0.2901 2.4595 'International Tables Vol C Tables 4.2.6.8 and 6.1.1.4'
Cu Cu 0.3201 1.2651 'International Tables Vol C Tables 4.2.6.8 and 6.1.1.4'
N N 0.0061 0.0033 'International Tables Vol C Tables 4.2.6.8 and 6.1.1.4'
loop_
_geom_angle_atom_site_label_1
_geom_angle_atom_site_label_2
_geom_angle_atom_site_label_3
_geom_angle
_geom_angle_site_symmetry_1
_geom_angle_site_symmetry_3
_geom_angle_publ_flag
N003 Cu02 N003 99.9(2) 5_666 6_656 ?
N004 Cu02 N003 110.66(16) . 5_666 ?
N004 Cu02 N003 111.39(16) . 6_656 ?
N004 Cu02 N003 111.39(16) 2_665 5_666 ?
N004 Cu02 N003 110.66(16) 2_665 6_656 ?
N004 Cu02 N004 112.2(3) . 2_665 ?
C006 N003 Cu02 128.9(4) . 5_666 ?
C007 N003 Cu02 128.9(3) . 5_666 ?
C007 N003 C006 101.7(4) . . ?
C005 N004 Cu02 174.8(4) . . ?
N004 C005 C006 179.8(7) . . ?
N003 C006 C005 122.7(5) . . ?
N003 C006 C006 109.2(3) . 4 ?
C006 C006 C005 128.1(3) 4 . ?
N003 C007 Br01 120.8(3) . . ?
N003 C007 Br01 120.8(3) 4 . ?
N003 C007 N003 118.3(6) . 4 ?
C1 C1 H1A 109.5 2 . ?
C1 C1 H1B 109.5 2 . ?
C1 C1 H1C 109.5 2 . ?
H1A C1 H1B 109.5 . . ?
H1A C1 H1C 109.5 . . ?
H1B C1 H1C 109.5 . . ?
loop_
_geom_bond_atom_site_label_1
_geom_bond_atom_site_label_2
_geom_bond_distance
_geom_bond_site_symmetry_2
_geom_bond_publ_flag
Br01 C007 1.891(6) . ?
Cu02 N003 2.059(4) 6_656 ?
Cu02 N003 2.059(4) 5_666 ?
Cu02 N004 1.967(5) . ?
Cu02 N004 1.967(5) 2_665 ?
N003 C006 1.375(6) . ?
N003 C007 1.327(5) . ?
N004 C005 1.145(7) . ?
C005 C006 1.420(8) . ?
C006 C006 1.376(12) 4 ?
C1 C1 1.44(4) 2 ?
C1 H1A 0.9800 . ?
C1 H1B 0.9800 . ?
C1 H1C 0.9800 . ?
loop_
_geom_torsion_atom_site_label_1
_geom_torsion_atom_site_label_2
_geom_torsion_atom_site_label_3
_geom_torsion_atom_site_label_4
_geom_torsion
_geom_torsion_site_symmetry_1
_geom_torsion_site_symmetry_2
_geom_torsion_site_symmetry_3
_geom_torsion_site_symmetry_4
_geom_torsion_publ_flag
Cu02 N003 C006 C005 9.1(8) 5_666 . . . ?
Cu02 N003 C006 C006 -172.5(4) 5_666 . . 4 ?
Cu02 N003 C007 Br01 -7.7(4) 5_666 . . . ?
Cu02 N003 C007 N003 172.3(4) 5_666 . . 4 ?
C006 N003 C007 Br01 -179.9(3) . . . . ?
C006 N003 C007 N003 0.1(3) . . . 4 ?
C007 N003 C006 C005 -178.7(4) . . . . ?
C007 N003 C006 C006 -0.3(7) . . . 4 ?
