#------------------------------------------------------------------------------
#$Date: 2016-03-23 23:46:23 +0200 (Wed, 23 Mar 2016) $
#$Revision: 179513 $
#$URL: svn://www.crystallography.net/cod/cif/4/34/10/4341076.cif $
#------------------------------------------------------------------------------
#
# This file is available in the Crystallography Open Database (COD),
# http://www.crystallography.net/
#
# All data on this site have been placed in the public domain by the
# contributors.
#
data_4341076
loop_
_publ_author_name
'Yang, E.'
'Wang, Lin'
'Wang, Fei'
'Lin, Qipu'
'Kang, Yao'
'Zhang, Jian'
_publ_section_title
;
 Zeolitic metal-organic frameworks based on amino Acid.
;
_journal_issue                   19
_journal_name_full               'Inorganic chemistry'
_journal_page_first              10027
_journal_page_last               10029
_journal_paper_doi               10.1021/ic501556w
_journal_volume                  53
_journal_year                    2014
_chemical_absolute_configuration rm
_chemical_formula_moiety         'C6 H12 N2 Ni O4'
_chemical_formula_sum            'C6 H12 N2 Ni O4'
_chemical_formula_weight         234.89
_chemical_name_systematic
; 
 ? 
;
_space_group_IT_number           197
_symmetry_cell_setting           cubic
_symmetry_space_group_name_Hall  'I 2 2 3'
_symmetry_space_group_name_H-M   'I 2 3'
_atom_sites_solution_hydrogens   geom
_atom_sites_solution_primary     direct
_atom_sites_solution_secondary   difmap
_audit_creation_method           SHELXL-97
_cell_angle_alpha                90.00
_cell_angle_beta                 90.00
_cell_angle_gamma                90.00
_cell_formula_units_Z            12
_cell_length_a                   14.1407(2)
_cell_length_b                   14.1407(2)
_cell_length_c                   14.1407(2)
_cell_measurement_reflns_used    198
_cell_measurement_temperature    293(2)
_cell_measurement_theta_max      23.5
_cell_measurement_theta_min      2.01
_cell_volume                     2827.57(7)
_computing_cell_refinement       'Bruker FRAMBO'
_computing_data_collection       'Bruker FRAMBO'
_computing_data_reduction        'Bruker SAINT'
_computing_molecular_graphics    'Bruker SHELXTL'
_computing_publication_material  'Bruker SHELXTL'
_computing_structure_refinement  'SHELXL-97 (Sheldrick, 1997)'
_computing_structure_solution    'SHELXS-97 (Sheldrick, 1990)'
_diffrn_ambient_temperature      293(2)
_diffrn_detector_area_resol_mean none
_diffrn_measured_fraction_theta_full 0.998
_diffrn_measured_fraction_theta_max 0.998
_diffrn_measurement_device_type  'multiwire proportional'
_diffrn_measurement_method       'phi and omega scans'
_diffrn_radiation_monochromator  graphite
_diffrn_radiation_source         'fine-focus sealed tube'
_diffrn_radiation_type           MoK\a
_diffrn_radiation_wavelength     0.71073
_diffrn_reflns_av_R_equivalents  0.0281
_diffrn_reflns_av_sigmaI/netI    0.0532
_diffrn_reflns_limit_h_max       5
_diffrn_reflns_limit_h_min       -16
_diffrn_reflns_limit_k_max       11
_diffrn_reflns_limit_k_min       -10
_diffrn_reflns_limit_l_max       7
_diffrn_reflns_limit_l_min       -17
_diffrn_reflns_number            1269
_diffrn_reflns_theta_full        25.99
_diffrn_reflns_theta_max         25.99
_diffrn_reflns_theta_min         2.88
_diffrn_standards_decay_%        none
_diffrn_standards_interval_count none
_diffrn_standards_interval_time  none
_diffrn_standards_number         none
_exptl_absorpt_coefficient_mu    2.044
_exptl_absorpt_correction_T_max  0.736
_exptl_absorpt_correction_T_min  0.618
_exptl_absorpt_correction_type   multi-scan
_exptl_absorpt_process_details   sadabs
_exptl_crystal_colour            blue
_exptl_crystal_density_diffrn    1.655
_exptl_crystal_density_method    'not measured'
_exptl_crystal_description       prism
_exptl_crystal_F_000             1464
_exptl_crystal_size_max          0.24
_exptl_crystal_size_mid          0.20
_exptl_crystal_size_min          0.15
_refine_diff_density_max         0.261
_refine_diff_density_min         -0.265
_refine_diff_density_rms         0.065
_refine_ls_abs_structure_details 'Flack H D (1983), Acta Cryst. A39, 876-881'
_refine_ls_abs_structure_Flack   0.00(4)
_refine_ls_extinction_method     none
_refine_ls_goodness_of_fit_ref   1.045
_refine_ls_hydrogen_treatment    none
_refine_ls_matrix_type           full
_refine_ls_number_parameters     60
_refine_ls_number_reflns         856
_refine_ls_number_restraints     0
_refine_ls_restrained_S_all      1.045
_refine_ls_R_factor_all          0.0480
_refine_ls_R_factor_gt           0.0370
_refine_ls_shift/su_max          0.000
_refine_ls_shift/su_mean         0.000
_refine_ls_structure_factor_coef Fsqd
_refine_ls_weighting_details
'calc w=1/[\s^2^(Fo^2^)+(0.0378P)^2^+0.0000P] where P=(Fo^2^+2Fc^2^)/3'
_refine_ls_weighting_scheme      calc
_refine_ls_wR_factor_gt          0.0803
_refine_ls_wR_factor_ref         0.0885
_reflns_number_gt                716
_reflns_number_total             856
_reflns_threshold_expression     >2sigma(I)
_cod_data_source_file            ic501556w_si_002.cif
_cod_data_source_block           1L
_cod_depositor_comments
;
The following automatic conversions were performed:

'_symmetry_cell_setting' value 'Cubic' changed to 'cubic' according
to
/home/saulius/struct/COD-crude-data--automatic-downloads/rss-feeds/ACS/lib/dictionaries/cif_core.dic
dictionary named 'cif_core.dic' version 2.4.2 from 2011-04-26.

Automatic conversion script
Id: cif_fix_values 2281 2013-09-26 08:29:07Z andrius 

 Adding full bibliography for 4341076--4341077.cif.
;
_cod_original_sg_symbol_H-M      I23
_cod_database_code               4341076
loop_
_symmetry_equiv_pos_as_xyz
'x, y, z'
'-x, -y, z'
'-x, y, -z'
'x, -y, -z'
'z, x, y'
'z, -x, -y'
'-z, -x, y'
'-z, x, -y'
'y, z, x'
'-y, z, -x'
'y, -z, -x'
'-y, -z, x'
'x+1/2, y+1/2, z+1/2'
'-x+1/2, -y+1/2, z+1/2'
'-x+1/2, y+1/2, -z+1/2'
'x+1/2, -y+1/2, -z+1/2'
'z+1/2, x+1/2, y+1/2'
'z+1/2, -x+1/2, -y+1/2'
'-z+1/2, -x+1/2, y+1/2'
'-z+1/2, x+1/2, -y+1/2'
'y+1/2, z+1/2, x+1/2'
'-y+1/2, z+1/2, -x+1/2'
'y+1/2, -z+1/2, -x+1/2'
'-y+1/2, -z+1/2, x+1/2'
loop_
_atom_site_label
_atom_site_type_symbol
_atom_site_fract_x
_atom_site_fract_y
_atom_site_fract_z
_atom_site_U_iso_or_equiv
_atom_site_adp_type
_atom_site_occupancy
_atom_site_symmetry_multiplicity
_atom_site_calc_flag
_atom_site_refinement_flags
Ni1 Ni 0.5000 0.26141(5) 0.0000 0.0282(2) Uani 1 2 d S
C1 C 0.5504(3) 0.1924(4) 0.1799(3) 0.0346(12) Uani 1 1 d .
C2 C 0.5538(4) 0.2995(4) 0.1972(4) 0.0412(13) Uani 1 1 d .
H2A H 0.6186 0.3149 0.2162 0.049 Uiso 1 1 calc R
O1 O 0.5408(2) 0.1646(2) 0.0960(2) 0.0340(8) Uani 1 1 d .
N1 N 0.5345(3) 0.3521(3) 0.1094(3) 0.0349(11) Uani 1 1 d .
H1A H 0.5860 0.3860 0.0934 0.042 Uiso 1 1 calc R
H1B H 0.4865 0.3927 0.1192 0.042 Uiso 1 1 calc R
O2 O 0.5570(3) 0.1403(2) 0.2489(2) 0.0413(9) Uani 1 1 d .
C3 C 0.4919(9) 0.3268(4) 0.2759(4) 0.087(2) Uani 1 1 d .
H3A H 0.4955 0.3939 0.2853 0.130 Uiso 1 1 calc R
H3B H 0.5117 0.2949 0.3324 0.130 Uiso 1 1 calc R
H3C H 0.4278 0.3094 0.2614 0.130 Uiso 1 1 calc R
loop_
_atom_site_aniso_label
_atom_site_aniso_U_11
_atom_site_aniso_U_22
_atom_site_aniso_U_33
_atom_site_aniso_U_23
_atom_site_aniso_U_13
_atom_site_aniso_U_12
Ni1 0.0375(5) 0.0219(4) 0.0254(4) 0.000 0.0014(5) 0.000
C1 0.030(3) 0.040(3) 0.033(3) -0.002(2) -0.003(2) -0.002(2)
C2 0.053(4) 0.032(3) 0.038(3) -0.005(2) -0.001(3) -0.005(3)
O1 0.045(2) 0.0262(18) 0.0304(18) -0.0010(14) -0.0005(15) -0.0005(15)
N1 0.041(3) 0.030(2) 0.034(2) 0.0015(19) 0.0055(18) -0.0003(17)
O2 0.054(2) 0.041(2) 0.029(2) 0.0059(18) -0.0079(17) -0.0063(17)
C3 0.154(8) 0.058(4) 0.048(4) -0.004(3) 0.035(6) 0.001(7)
loop_
_atom_type_symbol
_atom_type_description
_atom_type_scat_dispersion_real
_atom_type_scat_dispersion_imag
_atom_type_scat_source
C C 0.0033 0.0016 'International Tables Vol C Tables 4.2.6.8 and 6.1.1.4'
H H 0.0000 0.0000 'International Tables Vol C Tables 4.2.6.8 and 6.1.1.4'
N N 0.0061 0.0033 'International Tables Vol C Tables 4.2.6.8 and 6.1.1.4'
O O 0.0106 0.0060 'International Tables Vol C Tables 4.2.6.8 and 6.1.1.4'
Ni Ni 0.3393 1.1124 'International Tables Vol C Tables 4.2.6.8 and 6.1.1.4'
loop_
_geom_angle_atom_site_label_1
_geom_angle_atom_site_label_2
_geom_angle_atom_site_label_3
_geom_angle
_geom_angle_site_symmetry_1
_geom_angle_site_symmetry_3
O1 Ni1 O1 94.23(18) 3_655 .
O1 Ni1 N1 173.82(15) 3_655 .
O1 Ni1 N1 81.36(14) . .
O1 Ni1 N1 81.36(14) 3_655 3_655
O1 Ni1 N1 173.82(15) . 3_655
N1 Ni1 N1 103.4(2) . 3_655
O1 Ni1 O2 86.70(14) 3_655 24_554
O1 Ni1 O2 88.00(14) . 24_554
N1 Ni1 O2 88.81(16) . 24_554
N1 Ni1 O2 96.02(14) 3_655 24_554
O1 Ni1 O2 88.00(14) 3_655 23
O1 Ni1 O2 86.70(14) . 23
N1 Ni1 O2 96.02(14) . 23
N1 Ni1 O2 88.81(16) 3_655 23
O2 Ni1 O2 172.21(18) 24_554 23
O2 C1 O1 124.8(5) . .
O2 C1 C2 117.6(4) . .
O1 C1 C2 117.5(4) . .
C3 C2 N1 113.3(5) . .
C3 C2 C1 111.2(5) . .
N1 C2 C1 111.0(4) . .
C3 C2 H2A 107.0 . .
N1 C2 H2A 107.0 . .
C1 C2 H2A 107.0 . .
C1 O1 Ni1 117.0(3) . .
C2 N1 Ni1 111.2(3) . .
C2 N1 H1A 109.4 . .
Ni1 N1 H1A 109.4 . .
C2 N1 H1B 109.4 . .
Ni1 N1 H1B 109.4 . .
H1A N1 H1B 108.0 . .
C1 O2 Ni1 118.2(3) . 18
C2 C3 H3A 109.5 . .
C2 C3 H3B 109.5 . .
H3A C3 H3B 109.5 . .
C2 C3 H3C 109.5 . .
H3A C3 H3C 109.5 . .
H3B C3 H3C 109.5 . .
loop_
_geom_bond_atom_site_label_1
_geom_bond_atom_site_label_2
_geom_bond_distance
_geom_bond_site_symmetry_2
Ni1 O1 2.012(3) 3_655
Ni1 O1 2.012(3) .
Ni1 N1 2.068(4) .
Ni1 N1 2.068(4) 3_655
Ni1 O2 2.146(3) 24_554
Ni1 O2 2.146(3) 23
C1 O2 1.227(5) .
C1 O1 1.257(5) .
C1 C2 1.535(7) .
C2 C3 1.468(10) .
C2 N1 1.472(7) .
C2 H2A 0.9800 .
N1 H1A 0.9000 .
N1 H1B 0.9000 .
O2 Ni1 2.146(3) 18
C3 H3A 0.9600 .
C3 H3B 0.9600 .
C3 H3C 0.9600 .
