#------------------------------------------------------------------------------
#$Date: 2019-11-22 23:49:15 +0200 (Fri, 22 Nov 2019) $
#$Revision: 231597 $
#$URL: file:///home/coder/svn-repositories/cod/cif/4/34/60/4346049.cif $
#------------------------------------------------------------------------------
#
# This file is available in the Crystallography Open Database (COD),
# http://www.crystallography.net/
#
# All data on this site have been placed in the public domain by the
# contributors.
#
data_4346049
loop_
_publ_author_name
'Gonzalez, Miguel I.'
'Bloch, Eric D.'
'Mason, Jarad A.'
'Teat, Simon J.'
'Long, Jeffrey R.'
_publ_section_title
;
 Single-crystal-to-single-crystal metalation of a metal-organic framework:
 a route toward structurally well-defined catalysts.
;
_journal_issue                   6
_journal_name_full               'Inorganic chemistry'
_journal_page_first              2995
_journal_page_last               3005
_journal_paper_doi               10.1021/acs.inorgchem.5b00096
_journal_volume                  54
_journal_year                    2015
_chemical_formula_moiety         '0.5(C123.84 H74.24 N20.64 O56 Zr12), 4(O)'
_chemical_formula_sum            'C61.92 H37.05 N10.32 O32 Zr6'
_chemical_formula_weight         1984.90
_chemical_name_common            Zr6O4(OH)4(bpydc)5.16
_space_group_crystal_system      cubic
_space_group_IT_number           225
_space_group_name_Hall           '-F 4 2 3'
_space_group_name_H-M_alt        'F m -3 m'
_atom_sites_solution_hydrogens   geom
_atom_sites_solution_primary     direct
_atom_sites_solution_secondary   difmap
_audit_creation_date             2014-11-06
_audit_creation_method
;
Olex2 1.2
(compiled 2014.08.28 svn.r2986 for OlexSys, GUI svn.r4874)
;
_cell_angle_alpha                90
_cell_angle_beta                 90
_cell_angle_gamma                90
_cell_formula_units_Z            4
_cell_length_a                   26.520(2)
_cell_length_b                   26.520(2)
_cell_length_c                   26.520(2)
_cell_measurement_reflns_used    5088
_cell_measurement_temperature    100(2)
_cell_volume                     18652(2)
_computing_cell_refinement       'Bruker SAINT v8.27b'
_computing_data_reduction        'Bruker SAINT v8.27b'
_computing_molecular_graphics    'Olex2 (Dolomanov et al., 2009)'
_computing_publication_material  'Olex2 (Dolomanov et al., 2009)'
_computing_structure_refinement  'SHELXL-2014/6 (Sheldrick, 2014)'
_computing_structure_solution    SHELXS-2014
_diffrn_ambient_temperature      100(2)
_diffrn_detector_area_resol_mean 8.366
_diffrn_measured_fraction_theta_full 0.944
_diffrn_measured_fraction_theta_max 0.940
_diffrn_measurement_device_type  'Bruker APEX-II CCD'
_diffrn_measurement_method       'phi and omega scans'
_diffrn_radiation_type           MoK\a
_diffrn_radiation_wavelength     0.71073
_diffrn_reflns_av_R_equivalents  0.0708
_diffrn_reflns_av_unetI/netI     0.0344
_diffrn_reflns_Laue_measured_fraction_full 0.944
_diffrn_reflns_Laue_measured_fraction_max 0.940
_diffrn_reflns_limit_h_max       26
_diffrn_reflns_limit_h_min       -29
_diffrn_reflns_limit_k_max       18
_diffrn_reflns_limit_k_min       -27
_diffrn_reflns_limit_l_max       26
_diffrn_reflns_limit_l_min       -30
_diffrn_reflns_number            14200
_diffrn_reflns_point_group_measured_fraction_full 0.944
_diffrn_reflns_point_group_measured_fraction_max 0.940
_diffrn_reflns_theta_full        25.242
_diffrn_reflns_theta_max         25.325
_diffrn_reflns_theta_min         1.330
_diffrn_source                   'micro focus sealed tube'
_exptl_absorpt_coefficient_mu    0.360
_exptl_absorpt_correction_T_max  0.4901
_exptl_absorpt_correction_T_min  0.4534
_exptl_absorpt_correction_type   multi-scan
_exptl_absorpt_process_details
;
SADABS-2008/1 (Bruker,2008) was used for absorption correction.
wR2(int) was 0.0624 before and 0.0511 after correction.
The Ratio of minimum to maximum transmission is 0.9251.
The \l/2 correction factor is 0.0000.
;
_exptl_crystal_colour            colorless
_exptl_crystal_density_diffrn    0.707
_exptl_crystal_density_method    'not measured'
_exptl_crystal_description       octahedral
_exptl_crystal_F_000             3907
_exptl_crystal_size_max          0.04
_exptl_crystal_size_mid          0.04
_exptl_crystal_size_min          0.04
_refine_diff_density_max         0.284
_refine_diff_density_min         -0.755
_refine_diff_density_rms         0.068
_refine_ls_extinction_method     none
_refine_ls_goodness_of_fit_ref   1.084
_refine_ls_hydrogen_treatment    constr
_refine_ls_matrix_type           full
_refine_ls_number_parameters     47
_refine_ls_number_reflns         866
_refine_ls_number_restraints     0
_refine_ls_restrained_S_all      1.084
_refine_ls_R_factor_all          0.0396
_refine_ls_R_factor_gt           0.0329
_refine_ls_shift/su_max          0.000
_refine_ls_shift/su_mean         0.000
_refine_ls_structure_factor_coef Fsqd
_refine_ls_weighting_details
'w=1/[\s^2^(Fo^2^)+(0.0639P)^2^] where P=(Fo^2^+2Fc^2^)/3'
_refine_ls_weighting_scheme      calc
_refine_ls_wR_factor_gt          0.0984
_refine_ls_wR_factor_ref         0.0997
_reflns_Friedel_coverage         0.000
_reflns_number_gt                704
_reflns_number_total             866
_reflns_threshold_expression     'I > 2\s(I)'
_cod_data_source_file            ic5b00096_si_001.cif
_cod_data_source_block           mig006_0m
_cod_depositor_comments
;
The following automatic conversions were performed:

data item '_atom_sites_solution_secondary' value 'diffmap' was
changed to 'difmap'.

Automatic conversion script
Id: cif_fix_values 6909 2019-04-08 15:41:33Z antanas 
;
_cod_original_cell_volume        18652(4)
_cod_database_code               4346049
_shelxl_version_number           2014/6
_shelx_space_group_comment
;
The symmetry employed for this shelxl refinement is uniquely defined
by the following loop, which should always be used as a source of
symmetry information in preference to the above space-group names.
They are only intended as comments.
;
_shelx_estimated_absorpt_t_max   0.986
_shelx_estimated_absorpt_t_min   0.986
_olex2_refinement_description
;
1. Fixed Uiso
 At 1.2 times of:
  All C(H) groups, All C(H,H) groups
2. Shared sites
{N9, C9}
3. Rigid bond restraints
 O3
 with sigma for 1-2 distances of 0.01 and sigma for 1-3 distances of 0.01
4. Uiso/Uaniso restraints and constraints
O3: within 2.5A with sigma of 0.04 and sigma for terminal atoms of 0.08
Uanis(N9) = Uanis(C9)
5. Others
 Fixed Sof: O2B(0.08333) O1(0.43) C4(0.215) C5(0.215) C8(0.215) C9(0.215)
 H9(0.215) N9(0.215) C10(0.43) H10(0.25) O2A(0.08333) O3(0.07)
6.a Aromatic/amide H refined with riding coordinates:
 C9(H9), C10(H10), C10(H10A)
;
_shelx_res_file
;
TITL MIG006_0m in Fm-3m
CELL 0.71073 26.5201 26.5201 26.5201 90 90 90
ZERR 4 0.002 0.002 0.002 0 0 0
LATT 4
SYMM -X,-Y,+Z
SYMM -X,+Y,-Z
SYMM +X,-Y,-Z
SYMM +Z,+X,+Y
SYMM +Z,-X,-Y
SYMM -Z,-X,+Y
SYMM -Z,+X,-Y
SYMM +Y,+Z,+X
SYMM -Y,+Z,-X
SYMM +Y,-Z,-X
SYMM -Y,-Z,+X
SYMM +Y,+X,-Z
SYMM -Y,-X,-Z
SYMM +Y,-X,+Z
SYMM -Y,+X,+Z
SYMM +X,+Z,-Y
SYMM -X,+Z,+Y
SYMM -X,-Z,-Y
SYMM +X,-Z,+Y
SYMM +Z,+Y,-X
SYMM +Z,-Y,+X
SYMM -Z,+Y,+X
SYMM -Z,-Y,-X

SFAC C H N O Zr
UNIT 247.68 148.20864 41.28 127.99872 24
DELU O3
SIMU 0.04 0.08 2.5 O3
EADP N9 C9
EXYZ N9 C9

L.S. 20
PLAN  25
SIZE 0.04 0.04 0.04
TEMP -173.15
BIND O2A Zr1
LIST 4
MORE -1
BOND $H
CONF
fmap 2
acta
MERG 2
OMIT 1 3 3
REM <HKL>/Users/MIG/Desktop/MIG006/modeled%20disorder/final/more%20disorder/MI
REM G006_0m-mask.hkl</HKL>

WGHT    0.063900
FVAR       0.02564
PART 2
O2B   4    0.459424   -0.040576    0.040576    10.08333    0.00792    0.00792 =
         0.00792   -0.00190   -0.00190    0.00190
PART 0
PART 1
O1    4    0.426925    0.000000    0.133634    10.43000    0.01713    0.04279 =
         0.01444    0.00000    0.00787    0.00000
C4    1    0.381868    0.000000    0.118132    10.21500    0.03317    0.02961 =
         0.03317    0.00000    0.02093    0.00000
PART 0
C5    1    0.342124    0.000000    0.157876    10.21500    0.03158    0.07090 =
         0.03158    0.00000    0.01904    0.00000
C8    1    0.270265    0.000000    0.229735    10.21500    0.02691    0.12080 =
         0.02691    0.00000    0.01385    0.00000
PART 1
C9    1    0.318788    0.000000    0.244224    10.21500    0.03517    0.18976 =
         0.02610    0.00000    0.01854    0.00000
AFIX  43
H9    2    0.327740    0.000000    0.278909    10.21500   -1.20000
AFIX   0
PART 0
PART 2
N9    3    0.318788    0.000000    0.244224    10.21500    0.03517    0.18976 =
         0.02610    0.00000    0.01854    0.00000
PART 0
C10   1    0.354684    0.000000    0.207609    10.43000    0.03792    0.14570 =
         0.03722    0.00000    0.01943    0.00000
PART 1
AFIX  43
H10   2    0.389264    0.000000    0.216958    10.25000   -1.20000
AFIX  43
PART 0
PART 2
H10A  2    0.389264    0.000000    0.216958     0.30834   -1.20000
AFIX   0
PART 0
ZR1   5    0.500000    0.000000    0.093202    10.12500    0.01460    0.01460 =
         0.00609    0.00000    0.00000    0.00000
PART 1
O2A   4    0.446508   -0.053492    0.053492    10.08333    0.02027    0.02027 =
         0.02027    0.00169    0.00169   -0.00169
PART 0
PART 2
O3    4    0.442380    0.000000    0.151603    10.07000    0.06093    0.03140 =
         0.03898    0.00000   -0.04214    0.00000
HKLF 4

REM  MIG006_0m in Fm-3m
REM R1 =  0.0329 for     704 Fo > 4sig(Fo)  and  0.0396 for all     866 data
REM     47 parameters refined using      0 restraints

END

WGHT      0.0639      0.0000

REM Highest difference peak  0.284,  deepest hole -0.755,  1-sigma level  0.068
Q1    1   0.4224  0.0312  0.1689  11.00000  0.05    0.26
Q2    1   0.5000  0.0000  0.1504  10.12500  0.05    0.26
Q3    1   0.4117  0.0000  0.1254  10.50000  0.05    0.26
Q4    1   0.4484  0.0000  0.1621  10.50000  0.05    0.22
Q5    1   0.4572  0.0000  0.1091  10.50000  0.05    0.22
Q6    1   0.4214  0.0222  0.1423  11.00000  0.05    0.20
Q7    1   0.4308  0.0228  0.1548  11.00000  0.05    0.20
Q8    1   0.4260  0.0000  0.1449  10.50000  0.05    0.19
Q9    1   0.3875  0.0326  0.2140  11.00000  0.05    0.19
Q10   1   0.4130  0.0000  0.2380  10.50000  0.05    0.19
Q11   1   0.5000  0.0000  0.1918  10.12500  0.05    0.18
Q12   1   0.5000  0.0000  0.2708  10.12500  0.05    0.17
Q13   1   0.5000  0.0186  0.1079  10.50000  0.05    0.17
Q14   1   0.3481  0.0310  0.2793  11.00000  0.05    0.17
Q15   1   0.4301 -0.0699  0.0699  10.16667  0.05    0.17
Q16   1   0.4393 -0.0761  0.0761  10.50000  0.05    0.17
Q17   1   0.4462  0.0000  0.1238  10.50000  0.05    0.17
Q18   1   0.4802  0.0000  0.1934  10.50000  0.05    0.17
Q19   1   0.3510  0.0000  0.1346  10.50000  0.05    0.16
Q20   1   0.3782  0.0268  0.2188  11.00000  0.05    0.16
Q21   1   0.4678  0.0000  0.1162  10.50000  0.05    0.16
Q22   1   0.3760  0.0000  0.1664  10.50000  0.05    0.16
Q23   1   0.3981  0.0400  0.2139  11.00000  0.05    0.16
Q24   1   0.4497 -0.0264  0.1292  11.00000  0.05    0.16
Q25   1   0.4390  0.0000  0.2020  10.50000  0.05    0.16
;
_shelx_res_checksum              67512
_shelx_hkl_file
;
   0   2   2   50.83    2.33
   0   4   0  448.62    1.15
   0   4   2   47.99    0.14
   0   4   4  103.48    0.32
   0   6   0  528.04    9.90
   0   6   2   10.81    0.35
   0   6   4   35.88    0.37
   0   6   6   71.99    0.68
   0   8   0  787.41    8.24
   0   8   2   18.89    0.28
   0   8   4    0.64    0.26
   0   8   6    1.03    0.22
   0   8   8   27.27    0.88
   0  10   0  322.85    2.80
   0  10   2   18.02    0.46
   0  10   4    0.89    0.23
   0  10   6    4.24    0.21
   0  10   8  207.38    1.57
   0  10  10  141.67    1.86
   0  12   0  439.31    3.91
   0  12   2   18.00    0.40
   0  12   4    5.78    0.34
   0  12   6   39.17    0.54
   0  12   8  129.19    1.13
   0  12  10  148.71    1.25
   0  12  12  161.30    2.06
   0  14   0  321.29    3.14
   0  14   2   29.13    0.48
   0  14   4   12.07    0.31
   0  14   6    0.28    0.24
   0  14   8   35.07    0.69
   0  14  10   55.44    0.78
   0  14  12   50.17    0.81
   0  14  14   61.61    1.86
   0  16   0  151.37    2.71
   0  16   2    5.28    0.33
   0  16   4   19.65    0.46
   0  16   6   23.32    0.51
   0  16   8    2.74    0.37
   0  16  10   12.39    0.56
   0  16  12   17.73    0.64
   0  16  14    0.48    0.35
   0  16  16    0.07    0.50
   0  18   0   76.45    2.65
   0  18   2    8.38    0.43
   0  18   4   10.02    0.49
   0  18   6    9.88    0.53
   0  18   8    5.91    0.58
   0  18  10    7.10    0.58
   0  18  12    9.69    0.54
   0  18  14    0.56    0.46
   0  18  16    1.98    0.58
   0  18  18    0.60    0.91
   0  20   0  155.82    3.71
   0  20   2   60.44    0.85
   0  20   4    4.22    0.41
   0  20   6    8.70    0.43
   0  20   8    6.85    0.58
   0  20  10   42.25    0.94
   0  20  12   39.49    1.11
   0  20  14   15.00    1.01
   0  20  16    1.02    0.78
   0  20  18   13.66    1.94
   0  20  20   44.84    2.73
   0  22   0  170.13    5.27
   0  22   2   79.90    1.28
   0  22   4   31.92    0.74
   0  22   6    0.17    0.33
   0  22   8   27.16    0.87
   0  22  10   59.44    1.33
   0  22  12   64.14    1.66
   0  22  14   23.74    1.71
   0  22  16    7.47    1.87
   0  22  18   15.74    1.76
   0  22  20   37.05    3.61
   0  24   0   90.20    2.94
   0  24   2   36.53    1.14
   0  24   4    0.57    0.48
   0  24   6    1.65    0.75
   0  24   8   10.02    0.90
   0  24  10   22.97    1.46
   0  24  12   23.04    1.55
   0  24  14    2.82    1.01
   0  24  16    0.01    1.24
   0  24  18    1.92    1.96
   0  26   0   33.10    2.38
   0  26   2    0.80    0.66
   0  26   4    5.49    1.19
   0  26   6    3.07    1.02
   0  26   8    1.58    1.12
   0  26  10    4.79    1.56
   0  26  12    0.56    0.92
   0  26  14    0.95    1.69
   0  26  18    0.36    1.93
   0  28   0   28.32    3.70
   0  28   2    2.18    1.20
   0  28   4    5.74    1.86
   0  28   6    2.70    1.19
   0  28   8    0.33    2.01
   0  30   6    0.64    2.32
   1   1   1 1928.36   17.56
   1   3   1   61.90    0.75
   1   3   3    7.51    0.35
   1   5   1   49.95    0.29
   1   5   3   78.46    0.57
   1   5   5   70.38    0.53
   1   7   1  130.97    0.86
   1   7   3    4.63    0.21
   1   7   5   25.57    0.26
   1   7   7   14.02    0.34
   1   9   1  224.13    1.45
   1   9   3    2.28    0.16
   1   9   5    0.79    0.16
   1   9   7   25.48    0.31
   1   9   9  229.35    1.58
   1  11   1   91.44    0.69
   1  11   3    5.71    0.22
   1  11   5    0.03    0.16
   1  11   7   92.92    0.62
   1  11   9  156.48    0.86
   1  11  11  145.63    1.28
   1  13   1  157.41    1.07
   1  13   3    0.58    0.17
   1  13   5    1.94    0.20
   1  13   7   21.37    0.36
   1  13   9   89.45    0.64
   1  13  11   83.54    0.67
   1  13  13   70.90    0.95
   1  15   1   82.80    0.79
   1  15   3    3.23    0.19
   1  15   5   38.81    0.40
   1  15   7    0.07    0.19
   1  15   9   14.60    0.37
   1  15  11   18.94    0.42
   1  15  13   16.27    0.42
   1  15  15    2.60    0.38
   1  17   1   26.66    0.58
   1  17   3    6.20    0.28
   1  17   5   34.87    0.45
   1  17   7    9.64    0.30
   1  17   9    5.73    0.38
   1  17  11    5.50    0.35
   1  17  13    0.58    0.29
   1  17  15    6.11    0.37
   1  17  17    1.47    0.54
   1  19   1   63.39    0.93
   1  19   3    2.96    0.25
   1  19   5    1.92    0.23
   1  19   7    4.26    0.28
   1  19   9    8.69    0.45
   1  19  11   21.43    0.54
   1  19  13    9.17    0.46
   1  19  15    0.13    0.41
   1  19  17    0.47    0.62
   1  19  19   20.31    1.52
   1  21   1  118.91    1.44
   1  21   3   38.59    0.54
   1  21   5   12.89    0.39
   1  21   7    1.82    0.23
   1  21   9   39.16    0.67
   1  21  11   65.91    0.97
   1  21  13   36.21    0.89
   1  21  15    6.82    0.63
   1  21  17    7.84    0.87
   1  21  19   28.27    1.31
   1  23   1   91.87    1.43
   1  23   3   30.09    0.61
   1  23   5    0.07    0.33
   1  23   7    5.24    0.49
   1  23   9   32.85    0.91
   1  23  11   41.35    1.32
   1  23  13   25.88    1.16
   1  23  15    3.02    0.80
   1  23  17    2.51    0.98
   1  23  19   12.60    2.18
   1  25   1   30.22    1.08
   1  25   3    0.36    0.39
   1  25   5    3.11    0.53
   1  25   7    0.90    0.49
   1  25   9    5.46    0.78
   1  25  11   10.08    0.89
   1  25  13    0.38    0.71
   1  25  15    1.99    1.04
   1  25  17    1.48    1.90
   1  25  19    1.22    1.49
   1  27   1    4.11    1.12
   1  27   3    4.73    0.78
   1  27   5   15.13    1.17
   1  27   7    3.13    0.74
   1  27   9    1.39    0.80
   1  27  11    0.06    1.05
   1  27  13    1.00    1.40
   1  27  15    8.17    2.79
   1  27  17    7.76    2.81
   1  29   3    0.18    3.01
   1  29   5    1.75    1.64
   1  29   7    0.20    1.20
   2   2   2  513.28    3.26
   2   4   2    2.29    0.19
   2   4   4   65.63    0.77
   2   6   2    4.36    0.37
   2   6   4   40.75    0.35
   2   6   6  110.41    1.15
   2   8   2   47.56    0.51
   2   8   4    9.04    0.28
   2   8   6    6.87    0.25
   2   8   8    0.50    0.23
   2  10   2  118.00    0.75
   2  10   4    2.18    0.16
   2  10   6    8.01    0.26
   2  10   8  179.80    0.94
   2  10  10  180.61    1.15
   2  12   2    8.25    0.29
   2  12   4    2.37    0.17
   2  12   6    2.99    0.21
   2  12   8   37.07    0.39
   2  12  10   93.15    0.65
   2  12  12   59.73    0.70
   2  14   2   12.80    0.42
   2  14   4   41.63    0.38
   2  14   6    8.05    0.29
   2  14   8    2.68    0.20
   2  14  10   26.84    0.42
   2  14  12    7.78    0.28
   2  14  14   11.88    0.63
   2  16   2    0.37    0.25
   2  16   4   54.15    0.49
   2  16   6   61.12    0.56
   2  16   8    4.51    0.27
   2  16  10    2.23    0.27
   2  16  12    0.49    0.23
   2  16  14    9.37    0.39
   2  16  16   11.60    0.63
   2  18   2    2.22    0.34
   2  18   4   15.42    0.34
   2  18   6   17.98    0.36
   2  18   8    0.15    0.21
   2  18  10    3.15    0.31
   2  18  12    0.78    0.31
   2  18  14    4.73    0.37
   2  18  16   14.68    0.68
   2  18  18    1.82    0.79
   2  20   2   37.98    1.09
   2  20   4    2.50    0.25
   2  20   6    4.80    0.27
   2  20   8    2.05    0.28
   2  20  10   40.18    0.65
   2  20  12   26.52    0.67
   2  20  14    4.33    0.51
   2  20  16    0.13    0.48
   2  20  18    5.65    0.83
   2  20  20   33.28    1.81
   2  22   2   53.02    0.94
   2  22   4   24.87    0.49
   2  22   6    0.42    0.25
   2  22   8   15.01    0.54
   2  22  10   49.60    1.04
   2  22  12   41.56    1.01
   2  22  14    8.18    0.66
   2  22  16    1.53    0.80
   2  22  18    6.58    1.11
   2  22  20   26.31    3.51
   2  24   2   23.00    0.91
   2  24   4    1.71    0.36
   2  24   6    0.00    0.41
   2  24   8    3.71    0.57
   2  24  10   15.65    0.77
   2  24  12   10.59    1.09
   2  24  14    0.00    0.67
   2  24  16    1.25    0.83
   2  24  18    0.04    1.77
   2  24  20    7.15    2.31
   2  26   2    3.00    0.81
   2  26   4   20.08    0.89
   2  26   6   18.65    0.98
   2  26   8    0.75    0.63
   2  26  10    0.11    0.68
   2  26  12    2.49    0.88
   2  26  14   10.50    1.51
   2  26  16   19.94    2.77
   2  26  18    5.37    2.40
   2  28   2    0.10    1.35
   2  28   4   13.95    1.48
   2  28   6   10.78    1.11
   2  28   8    0.36    0.98
   2  28  10    0.74    1.69
   2  30   6    0.17    1.67
   3   3   3   68.82    1.32
   3   5   3   24.27    0.44
   3   5   5  120.25    1.21
   3   7   3    1.27    0.31
   3   7   5   64.86    0.48
   3   7   7   53.42    0.69
   3   9   3    4.78    0.27
   3   9   5   14.39    0.23
   3   9   7    0.04    0.16
   3   9   9   77.72    0.72
   3  11   3   34.99    0.38
   3  11   5    0.37    0.18
   3  11   7   52.39    0.46
   3  11   9   82.10    0.59
   3  11  11  105.83    0.93
   3  13   3   26.50    0.46
   3  13   5   29.29    0.37
   3  13   7    7.30    0.25
   3  13   9    4.46    0.26
   3  13  11   14.53    0.31
   3  13  13    0.63    0.25
   3  15   3   35.28    0.55
   3  15   5  127.50    0.80
   3  15   7   38.14    0.44
   3  15   9    4.05    0.24
   3  15  11    0.02    0.21
   3  15  13    6.82    0.30
   3  15  15   21.22    0.67
   3  17   3   26.52    0.53
   3  17   5   74.98    0.55
   3  17   7   45.82    0.53
   3  17   9    1.70    0.25
   3  17  11    0.25    0.24
   3  17  13   16.47    0.49
   3  17  15   53.30    0.79
   3  17  17   26.98    1.07
   3  19   3    0.32    0.31
   3  19   5   10.03    0.29
   3  19   7    0.47    0.24
   3  19   9    0.22    0.25
   3  19  11    7.93    0.38
   3  19  13    0.18    0.32
   3  19  15   11.12    0.76
   3  19  17   14.09    0.87
   3  19  19    3.84    1.22
   3  21   3   22.48    0.61
   3  21   5    6.60    0.29
   3  21   7    0.14    0.28
   3  21   9   22.03    0.52
   3  21  11   49.16    0.83
   3  21  13   12.68    0.62
   3  21  15    0.02    0.60
   3  21  17    0.25    1.01
   3  21  19   11.57    1.22
   3  21  21   30.42    2.60
   3  23   3   16.11    0.66
   3  23   5    0.88    0.32
   3  23   7    0.08    0.40
   3  23   9   15.18    0.65
   3  23  11   24.55    0.85
   3  23  13    7.08    0.66
   3  23  15    0.53    0.67
   3  23  17    0.33    0.89
   3  23  19    2.92    2.08
   3  25   3   18.71    1.06
   3  25   5   30.39    0.94
   3  25   7   10.51    0.79
   3  25   9    2.30    0.62
   3  25  11    0.06    0.78
   3  25  13    9.72    0.95
   3  25  15   25.17    1.63
   3  25  17   18.63    3.14
   3  25  19    2.38    2.08
   3  27   3   17.41    1.66
   3  27   5   35.05    1.36
   3  27   7   16.90    1.27
   3  27   9    0.98    0.89
   3  27  11    3.12    1.40
   3  27  13   11.84    1.46
   3  27  15   29.68    3.95
   3  29   3    4.44    1.82
   3  29   5   14.22    2.82
   3  29   7    5.31    1.59
   4   4   4   60.79    0.91
   4   6   4   46.95    0.65
   4   6   6  154.36    1.20
   4   8   4   32.16    0.42
   4   8   6   65.09    0.54
   4   8   8   46.61    0.85
   4  10   4    2.35    0.26
   4  10   6    8.50    0.25
   4  10   8   27.43    0.32
   4  10  10   33.46    0.67
   4  12   4    0.81    0.27
   4  12   6    0.26    0.18
   4  12   8    3.50    0.24
   4  12  10   26.49    0.37
   4  12  12   24.72    0.52
   4  14   4  133.87    1.11
   4  14   6   94.54    0.63
   4  14   8   36.17    0.38
   4  14  10    3.75    0.22
   4  14  12    6.14    0.27
   4  14  14   12.14    0.55
   4  16   4  111.05    0.92
   4  16   6  147.35    0.93
   4  16   8   52.03    0.52
   4  16  10   11.42    0.33
   4  16  12   12.08    0.42
   4  16  14   75.11    0.79
   4  16  16   77.20    1.09
   4  18   4   41.60    0.60
   4  18   6   52.99    0.58
   4  18   8    9.34    0.36
   4  18  10    1.59    0.28
   4  18  12    2.56    0.28
   4  18  14   36.54    0.68
   4  18  16   60.04    1.10
   4  18  18   18.98    1.42
   4  20   4    0.73    0.33
   4  20   6    0.39    0.24
   4  20   8    2.39    0.29
   4  20  10   13.35    0.45
   4  20  12    8.83    0.50
   4  20  14    1.67    0.44
   4  20  16   15.21    0.93
   4  20  18    0.08    0.66
   4  20  20   12.41    1.87
   4  22   4   16.45    0.73
   4  22   6    3.16    0.43
   4  22   8    4.56    0.39
   4  22  10   30.61    0.75
   4  22  12   28.48    0.85
   4  22  14    0.41    0.58
   4  22  16    1.68    0.71
   4  22  18    0.17    0.90
   4  22  20   11.17    1.82
   4  24   4   34.51    1.06
   4  24   6   23.02    0.85
   4  24   8    9.55    0.65
   4  24  10    0.13    0.53
   4  24  12    0.01    0.61
   4  24  14   15.05    1.06
   4  24  16   23.98    1.66
   4  24  18    9.26    2.59
   4  24  20    0.04    2.00
   4  26   4   38.25    1.65
   4  26   6   43.49    1.43
   4  26   8   14.15    1.09
   4  26  10    5.77    0.96
   4  26  12   12.55    1.31
   4  26  14   36.99    1.98
   4  26  16   52.65    4.74
   4  26  18   22.49    3.94
   4  28   4   33.60    3.92
   4  28   6   34.22    1.75
   4  28   8   13.65    1.96
   4  28  10    2.79    1.80
   4  28  12    3.53    2.38
   5   5   5  121.60    2.03
   5   7   5  155.59    1.16
   5   7   7  259.56    1.89
   5   9   5   42.97    0.58
   5   9   7   63.06    0.67
   5   9   9    1.27    0.30
   5  11   5   13.37    0.43
   5  11   7    0.04    0.18
   5  11   9    5.57    0.25
   5  11  11   22.58    0.50
   5  13   5   15.83    0.48
   5  13   7   22.57    0.34
   5  13   9    0.19    0.18
   5  13  11    2.49    0.20
   5  13  13    0.05    0.26
   5  15   5  219.35    1.40
   5  15   7  136.59    0.85
   5  15   9   51.73    0.57
   5  15  11   20.26    0.41
   5  15  13   30.21    0.50
   5  15  15   81.33    1.09
   5  17   5  124.24    1.13
   5  17   7  101.94    0.73
   5  17   9   20.66    0.40
   5  17  11    9.91    0.36
   5  17  13   34.36    0.56
   5  17  15  112.46    1.07
   5  17  17   63.77    1.76
   5  19   5   26.15    0.72
   5  19   7    9.54    0.35
   5  19   9    2.25    0.29
   5  19  11    1.90    0.29
   5  19  13    1.68    0.37
   5  19  15   33.08    1.05
   5  19  17   32.80    1.42
   5  19  19    0.12    1.01
   5  21   5    0.22    0.43
   5  21   7    6.51    0.35
   5  21   9    6.51    0.39
   5  21  11   29.00    0.77
   5  21  13    5.65    0.56
   5  21  15    7.15    0.83
   5  21  17    2.85    0.73
   5  21  19    2.18    0.91
   5  21  21   10.83    1.92
   5  23   5   28.96    1.69
   5  23   7   19.51    0.66
   5  23   9    0.07    0.39
   5  23  11    3.17    0.45
   5  23  13    0.02    0.53
   5  23  15   15.85    1.04
   5  23  17   12.19    1.41
   5  23  19    0.80    1.50
   5  25   5   43.82    1.50
   5  25   7   26.41    0.92
   5  25   9   10.48    0.84
   5  25  11    2.02    0.70
   5  25  13   15.17    1.22
   5  25  15   44.16    2.03
   5  25  17   32.47    3.87
   5  25  19    7.57    2.85
   5  27   5   55.99    4.16
   5  27   7   45.28    1.76
   5  27   9   11.05    1.23
   5  27  11   11.59    1.43
   5  27  13   21.84    2.65
   5  27  15   48.46    4.44
   5  29   5   25.80    2.85
   5  29   7   22.67    2.09
   5  29   9    5.81    2.39
   6   6   6  451.47    4.25
   6   8   6  223.81    1.75
   6   8   8  165.56    1.51
   6  10   6   53.01    0.80
   6  10   8    0.01    0.22
   6  10  10    5.84    0.43
   6  12   6    5.28    0.38
   6  12   8    0.50    0.19
   6  12  10   13.65    0.31
   6  12  12   23.78    0.47
   6  14   6   92.08    0.92
   6  14   8   46.24    0.46
   6  14  10    4.44    0.26
   6  14  12    3.32    0.24
   6  14  14   10.34    0.53
   6  16   6  200.94    1.47
   6  16   8   88.04    0.69
   6  16  10   20.25    0.41
   6  16  12   14.29    0.44
   6  16  14   79.49    0.82
   6  16  16   93.63    1.40
   6  18   6   71.56    0.94
   6  18   8   17.13    0.38
   6  18  10    2.07    0.25
   6  18  12    1.22    0.28
   6  18  14   35.40    0.69
   6  18  16   66.02    1.10
   6  18  18   20.72    1.37
   6  20   6    1.02    0.41
   6  20   8    2.41    0.30
   6  20  10   17.21    0.46
   6  20  12   14.76    0.55
   6  20  14    1.01    0.45
   6  20  16   18.72    0.90
   6  20  18    0.48    0.65
   6  20  20    5.23    1.74
   6  22   6   52.92    1.05
   6  22   8    7.80    0.48
   6  22  10    3.58    0.39
   6  22  12    6.14    0.51
   6  22  14    3.33    0.59
   6  22  16   14.62    1.00
   6  22  18    2.80    0.86
   6  22  20    0.57    1.18
   6  24   6   19.63    1.15
   6  24   8    7.62    0.56
   6  24  10    0.33    0.52
   6  24  12    0.53    0.57
   6  24  14    8.92    1.00
   6  24  16   21.08    1.59
   6  24  18    7.97    1.96
   6  24  20    0.20    2.02
   6  26   6   53.88    2.18
   6  26   8   19.96    1.25
   6  26  10    5.64    0.81
   6  26  12   11.40    1.43
   6  26  14   29.13    3.84
   6  26  16   44.29    4.64
   6  28   6   42.82    2.60
   6  28   8   23.52    2.39
   6  28  10    4.45    1.71
   6  28  12    6.61    2.82
   7   7   7  426.78    4.30
   7   9   7  109.13    1.07
   7   9   9    0.03    0.31
   7  11   7    1.14    0.30
   7  11   9   20.62    0.41
   7  11  11   75.13    1.02
   7  13   7   36.07    0.67
   7  13   9    0.37    0.21
   7  13  11   10.01    0.32
   7  13  13    0.17    0.25
   7  15   7   92.03    0.97
   7  15   9   19.19    0.37
   7  15  11    0.74    0.23
   7  15  13   12.89    0.39
   7  15  15   38.87    0.79
   7  17   7   83.31    0.93
   7  17   9    7.07    0.31
   7  17  11    0.06    0.25
   7  17  13   16.82    0.48
   7  17  15   66.19    1.00
   7  17  17   39.33    1.32
   7  19   7    2.71    0.37
   7  19   9    0.70    0.24
   7  19  11   18.28    0.49
   7  19  13    0.21    0.32
   7  19  15   13.10    0.74
   7  19  17   18.30    0.90
   7  19  19    1.48    0.95
   7  21   7   24.61    0.81
   7  21   9    1.23    0.32
   7  21  11   24.52    0.59
   7  21  13    2.15    0.42
   7  21  15    7.26    0.73
   7  21  17    4.91    0.69
   7  21  19    0.49    0.81
   7  21  21    1.36    1.54
   7  23   7   12.45    1.03
   7  23   9    1.16    0.43
   7  23  11   12.85    0.73
   7  23  13    1.32    0.59
   7  23  15    3.99    0.99
   7  23  17    5.88    1.09
   7  23  19    0.05    1.38
   7  23  21    0.87    2.14
   7  25   7   10.89    1.11
   7  25   9    0.94    0.66
   7  25  11    1.16    0.73
   7  25  13    3.18    0.87
   7  25  15   14.09    1.87
   7  25  17   13.36    4.55
   7  27   7   31.51    1.86
   7  27   9    4.41    1.05
   7  27  11    3.91    1.53
   7  27  13   12.13    3.25
   7  29   7   18.12    3.24
   7  29   9    4.36    2.74
   8   8   8  128.92    1.80
   8  10   8   23.86    0.66
   8  10  10  102.99    1.23
   8  12   8    0.73    0.29
   8  12  10   52.42    0.60
   8  12  12   32.82    0.78
   8  14   8   15.16    0.57
   8  14  10    4.35    0.27
   8  14  12    0.06    0.23
   8  14  14    0.72    0.29
   8  16   8   21.21    0.58
   8  16  10    1.20    0.23
   8  16  12    0.11    0.26
   8  16  14   26.56    0.51
   8  16  16   31.70    1.28
   8  18   8    0.06    0.35
   8  18  10   13.52    0.42
   8  18  12    5.77    0.36
   8  18  14    6.32    0.60
   8  18  16   20.72    0.75
   8  18  18    4.36    0.89
   8  20   8    1.44    0.40
   8  20  10   27.82    0.57
   8  20  12   18.33    0.62
   8  20  14    0.02    0.45
   8  20  16    7.52    0.63
   8  20  18    0.07    0.57
   8  20  20    6.15    1.37
   8  22   8    2.76    0.58
   8  22  10   41.79    0.84
   8  22  12   33.98    1.08
   8  22  14    2.25    0.61
   8  22  16    0.15    0.61
   8  22  18    0.24    0.73
   8  22  20    4.41    1.09
   8  24   8    0.18    0.59
   8  24  10   10.05    0.77
   8  24  12    7.11    0.81
   8  24  14    0.33    0.61
   8  24  16    2.92    1.00
   8  24  18    1.03    1.69
   8  26   8    0.72    0.99
   8  26  10    1.27    0.78
   8  26  12    0.13    1.01
   8  26  14    4.80    1.80
   8  28   8    7.19    2.44
   8  28  10    0.01    1.27
   8  28  12    0.97    2.58
   9   9   9   91.26    1.92
   9  11   9   78.69    1.17
   9  11  11   81.17    1.12
   9  13   9   22.20    0.62
   9  13  11   23.80    0.47
   9  13  13    8.58    0.60
   9  15   9    1.12    0.35
   9  15  11    3.13    0.28
   9  15  13    0.37    0.26
   9  15  15    8.89    0.49
   9  17   9   12.97    0.65
   9  17  11   12.35    0.42
   9  17  13    0.04    0.29
   9  17  15   18.25    0.67
   9  17  17    6.00    0.75
   9  19   9   15.77    0.71
   9  19  11   31.87    0.61
   9  19  13    5.29    0.42
   9  19  15    2.99    0.48
   9  19  17    3.59    0.62
   9  19  19    4.85    0.99
   9  21   9   49.18    1.24
   9  21  11   80.48    1.13
   9  21  13   30.97    0.98
   9  21  15    1.16    0.55
   9  21  17    3.01    0.66
   9  21  19   10.93    1.06
   9  21  21   23.35    2.10
   9  23   9   33.74    1.22
   9  23  11   47.49    1.18
   9  23  13   19.38    1.07
   9  23  15    1.34    0.62
   9  23  17    0.64    0.73
   9  23  19    3.35    1.34
   9  25   9    3.66    1.43
   9  25  11    7.96    0.97
   9  25  13    0.19    0.97
   9  25  15    2.08    1.16
   9  25  17    0.99    1.25
   9  27   9    3.00    2.25
   9  27  11    0.74    1.85
   9  27  13    0.51    1.48
   9  29   9    0.21    2.07
  10  10  10   87.30    1.94
  10  12  10   61.70    1.00
  10  12  12   46.18    0.85
  10  14  10   13.89    0.57
  10  14  12    4.33    0.34
  10  14  14    1.53    0.47
  10  16  10   12.73    0.67
  10  16  12    3.32    0.32
  10  16  14    5.67    0.38
  10  16  16    8.86    0.73
  10  18  10   23.68    0.69
  10  18  12   11.37    0.47
  10  18  14    0.83    0.41
  10  18  16    7.30    0.55
  10  18  18    0.32    0.70
  10  20  10   87.48    1.40
  10  20  12   61.59    0.97
  10  20  14   11.37    0.73
  10  20  16    0.27    0.56
  10  20  18    9.23    0.92
  10  20  20   31.22    2.18
  10  22  10   93.10    1.87
  10  22  12   76.01    1.65
  10  22  14   20.60    0.93
  10  22  16    6.62    0.75
  10  22  18   11.97    1.03
  10  22  20   26.96    1.79
  10  24  10   30.85    1.54
  10  24  12   23.46    1.30
  10  24  14    2.93    0.79
  10  24  16    0.27    0.90
  10  24  18    1.55    1.14
  10  26  10    4.34    1.73
  10  26  12    0.34    1.04
  10  26  14    1.47    1.46
  10  28  10    3.86    2.32
  11  11  11   88.62    2.21
  11  13  11   26.65    0.76
  11  13  13    9.75    0.59
  11  15  11    7.33    0.61
  11  15  13    0.01    0.28
  11  15  15    2.33    0.52
  11  17  11   12.67    0.60
  11  17  13    0.03    0.33
  11  17  15   11.67    0.49
  11  17  17    6.53    0.97
  11  19  11   50.97    1.34
  11  19  13   13.07    0.60
  11  19  15    0.02    0.56
  11  19  17    0.50    0.52
  11  19  19   16.06    1.37
  11  21  11  115.03    3.12
  11  21  13   52.98    1.18
  11  21  15   10.05    0.76
  11  21  17    9.83    1.10
  11  21  19   28.41    1.56
  11  21  21   45.69    3.63
  11  23  11   65.58    2.14
  11  23  13   32.52    1.19
  11  23  15    8.93    0.90
  11  23  17    4.83    1.43
  11  23  19   14.72    2.02
  11  25  11   11.13    2.72
  11  25  13    1.28    0.91
  11  25  15    0.60    1.19
  11  27  11    0.01    2.09
  11  27  13    1.17    1.47
  12  12  12   45.10    1.82
  12  14  12    3.31    0.55
  12  14  14    0.26    0.48
  12  16  12    1.40    0.43
  12  16  14    8.07    0.55
  12  16  16   13.26    0.88
  12  18  12    7.81    0.63
  12  18  14    1.53    0.37
  12  18  16   10.41    0.56
  12  18  18    2.10    0.84
  12  20  12   53.32    1.52
  12  20  14   10.80    0.75
  12  20  16    0.25    0.53
  12  20  18    6.78    0.78
  12  20  20   33.65    3.94
  12  22  12   69.37    2.30
  12  22  14   22.55    1.07
  12  22  16    6.90    0.84
  12  22  18    9.98    1.12
  12  24  12   18.97    2.00
  12  24  14    3.28    0.89
  12  24  16    0.09    1.01
  12  26  12    0.36    3.07
  12  26  14    3.32    1.78
  13  13  13   12.04    1.38
  13  15  13    0.20    0.53
  13  15  15    9.07    1.12
  13  17  13    2.30    0.63
  13  17  15   26.35    0.89
  13  17  17   21.40    0.95
  13  19  13    4.30    0.72
  13  19  15    2.84    0.56
  13  19  17    6.95    0.75
  13  19  19    3.01    1.17
  13  21  13   31.07    1.63
  13  21  15    2.15    0.66
  13  21  17    1.51    0.68
  13  21  19   11.53    1.40
  13  23  13   17.62    1.38
  13  23  15    2.16    0.82
  13  23  17    0.07    0.94
  13  25  13    0.03    1.32
  13  25  15    4.03    1.36
  14  14  14    1.16    1.30
  14  16  14   19.13    1.01
  14  16  16   43.44    1.24
  14  18  14    9.73    0.85
  14  18  16   34.06    1.06
  14  18  18   13.91    1.47
  14  20  14    0.44    0.82
  14  20  16    6.27    0.68
  14  20  18    0.08    0.71
  14  20  20    6.32    1.94
  14  22  14    4.58    1.15
  14  22  16    0.13    0.85
  14  22  18    0.21    1.10
  14  24  14    0.07    1.45
  15  15  15   17.89    2.11
  15  17  15   48.45    1.43
  15  17  17   47.35    1.37
  15  19  15   15.32    1.16
  15  19  17   23.17    1.06
  15  19  19    0.53    1.57
  15  21  15    2.48    1.00
  15  21  17    3.10    0.94
  15  23  15    0.62    1.37
  16  16  16   42.71    2.13
  16  18  16   40.62    1.62
  16  18  18   22.50    1.43
  16  20  16   13.05    1.37
  16  20  18    3.26    1.41
  16  22  16    2.52    2.20
  17  17  17   25.57    1.91
  17  19  17   15.47    1.99
  17  21  17    0.54    2.06
   0   0   0    0.00    0.00
;
_shelx_hkl_checksum              94231
_olex2_submission_special_instructions 'No special instructions were received'
loop_
_space_group_symop_operation_xyz
'x, y, z'
'-x, -y, z'
'-x, y, -z'
'x, -y, -z'
'z, x, y'
'z, -x, -y'
'-z, -x, y'
'-z, x, -y'
'y, z, x'
'-y, z, -x'
'y, -z, -x'
'-y, -z, x'
'y, x, -z'
'-y, -x, -z'
'y, -x, z'
'-y, x, z'
'x, z, -y'
'-x, z, y'
'-x, -z, -y'
'x, -z, y'
'z, y, -x'
'z, -y, x'
'-z, y, x'
'-z, -y, -x'
'x, y+1/2, z+1/2'
'-x, -y+1/2, z+1/2'
'-x, y+1/2, -z+1/2'
'x, -y+1/2, -z+1/2'
'z, x+1/2, y+1/2'
'z, -x+1/2, -y+1/2'
'-z, -x+1/2, y+1/2'
'-z, x+1/2, -y+1/2'
'y, z+1/2, x+1/2'
'-y, z+1/2, -x+1/2'
'y, -z+1/2, -x+1/2'
'-y, -z+1/2, x+1/2'
'y, x+1/2, -z+1/2'
'-y, -x+1/2, -z+1/2'
'y, -x+1/2, z+1/2'
'-y, x+1/2, z+1/2'
'x, z+1/2, -y+1/2'
'-x, z+1/2, y+1/2'
'-x, -z+1/2, -y+1/2'
'x, -z+1/2, y+1/2'
'z, y+1/2, -x+1/2'
'z, -y+1/2, x+1/2'
'-z, y+1/2, x+1/2'
'-z, -y+1/2, -x+1/2'
'x+1/2, y, z+1/2'
'-x+1/2, -y, z+1/2'
'-x+1/2, y, -z+1/2'
'x+1/2, -y, -z+1/2'
'z+1/2, x, y+1/2'
'z+1/2, -x, -y+1/2'
'-z+1/2, -x, y+1/2'
'-z+1/2, x, -y+1/2'
'y+1/2, z, x+1/2'
'-y+1/2, z, -x+1/2'
'y+1/2, -z, -x+1/2'
'-y+1/2, -z, x+1/2'
'y+1/2, x, -z+1/2'
'-y+1/2, -x, -z+1/2'
'y+1/2, -x, z+1/2'
'-y+1/2, x, z+1/2'
'x+1/2, z, -y+1/2'
'-x+1/2, z, y+1/2'
'-x+1/2, -z, -y+1/2'
'x+1/2, -z, y+1/2'
'z+1/2, y, -x+1/2'
'z+1/2, -y, x+1/2'
'-z+1/2, y, x+1/2'
'-z+1/2, -y, -x+1/2'
'x+1/2, y+1/2, z'
'-x+1/2, -y+1/2, z'
'-x+1/2, y+1/2, -z'
'x+1/2, -y+1/2, -z'
'z+1/2, x+1/2, y'
'z+1/2, -x+1/2, -y'
'-z+1/2, -x+1/2, y'
'-z+1/2, x+1/2, -y'
'y+1/2, z+1/2, x'
'-y+1/2, z+1/2, -x'
'y+1/2, -z+1/2, -x'
'-y+1/2, -z+1/2, x'
'y+1/2, x+1/2, -z'
'-y+1/2, -x+1/2, -z'
'y+1/2, -x+1/2, z'
'-y+1/2, x+1/2, z'
'x+1/2, z+1/2, -y'
'-x+1/2, z+1/2, y'
'-x+1/2, -z+1/2, -y'
'x+1/2, -z+1/2, y'
'z+1/2, y+1/2, -x'
'z+1/2, -y+1/2, x'
'-z+1/2, y+1/2, x'
'-z+1/2, -y+1/2, -x'
'-x, -y, -z'
'x, y, -z'
'x, -y, z'
'-x, y, z'
'-z, -x, -y'
'-z, x, y'
'z, x, -y'
'z, -x, y'
'-y, -z, -x'
'y, -z, x'
'-y, z, x'
'y, z, -x'
'-y, -x, z'
'y, x, z'
'-y, x, -z'
'y, -x, -z'
'-x, -z, y'
'x, -z, -y'
'x, z, y'
'-x, z, -y'
'-z, -y, x'
'-z, y, -x'
'z, -y, -x'
'z, y, x'
'-x, -y+1/2, -z+1/2'
'x, y+1/2, -z+1/2'
'x, -y+1/2, z+1/2'
'-x, y+1/2, z+1/2'
'-z, -x+1/2, -y+1/2'
'-z, x+1/2, y+1/2'
'z, x+1/2, -y+1/2'
'z, -x+1/2, y+1/2'
'-y, -z+1/2, -x+1/2'
'y, -z+1/2, x+1/2'
'-y, z+1/2, x+1/2'
'y, z+1/2, -x+1/2'
'-y, -x+1/2, z+1/2'
'y, x+1/2, z+1/2'
'-y, x+1/2, -z+1/2'
'y, -x+1/2, -z+1/2'
'-x, -z+1/2, y+1/2'
'x, -z+1/2, -y+1/2'
'x, z+1/2, y+1/2'
'-x, z+1/2, -y+1/2'
'-z, -y+1/2, x+1/2'
'-z, y+1/2, -x+1/2'
'z, -y+1/2, -x+1/2'
'z, y+1/2, x+1/2'
'-x+1/2, -y, -z+1/2'
'x+1/2, y, -z+1/2'
'x+1/2, -y, z+1/2'
'-x+1/2, y, z+1/2'
'-z+1/2, -x, -y+1/2'
'-z+1/2, x, y+1/2'
'z+1/2, x, -y+1/2'
'z+1/2, -x, y+1/2'
'-y+1/2, -z, -x+1/2'
'y+1/2, -z, x+1/2'
'-y+1/2, z, x+1/2'
'y+1/2, z, -x+1/2'
'-y+1/2, -x, z+1/2'
'y+1/2, x, z+1/2'
'-y+1/2, x, -z+1/2'
'y+1/2, -x, -z+1/2'
'-x+1/2, -z, y+1/2'
'x+1/2, -z, -y+1/2'
'x+1/2, z, y+1/2'
'-x+1/2, z, -y+1/2'
'-z+1/2, -y, x+1/2'
'-z+1/2, y, -x+1/2'
'z+1/2, -y, -x+1/2'
'z+1/2, y, x+1/2'
'-x+1/2, -y+1/2, -z'
'x+1/2, y+1/2, -z'
'x+1/2, -y+1/2, z'
'-x+1/2, y+1/2, z'
'-z+1/2, -x+1/2, -y'
'-z+1/2, x+1/2, y'
'z+1/2, x+1/2, -y'
'z+1/2, -x+1/2, y'
'-y+1/2, -z+1/2, -x'
'y+1/2, -z+1/2, x'
'-y+1/2, z+1/2, x'
'y+1/2, z+1/2, -x'
'-y+1/2, -x+1/2, z'
'y+1/2, x+1/2, z'
'-y+1/2, x+1/2, -z'
'y+1/2, -x+1/2, -z'
'-x+1/2, -z+1/2, y'
'x+1/2, -z+1/2, -y'
'x+1/2, z+1/2, y'
'-x+1/2, z+1/2, -y'
'-z+1/2, -y+1/2, x'
'-z+1/2, y+1/2, -x'
'z+1/2, -y+1/2, -x'
'z+1/2, y+1/2, x'
loop_
_atom_site_label
_atom_site_type_symbol
_atom_site_fract_x
_atom_site_fract_y
_atom_site_fract_z
_atom_site_U_iso_or_equiv
_atom_site_adp_type
_atom_site_occupancy
_atom_site_site_symmetry_order
_atom_site_calc_flag
_atom_site_refinement_flags_posn
_atom_site_refinement_flags_adp
_atom_site_refinement_flags_occupancy
_atom_site_disorder_assembly
_atom_site_disorder_group
O2B O 0.4594(2) -0.0406(2) 0.0406(2) 0.008(2) Uani 0.5 6 d S T P . 2
O1 O 0.42693(14) 0.0000 0.13363(14) 0.0248(9) Uani 0.86 2 d S T P . 1
C4 C 0.38187(15) 0.0000 0.11813(15) 0.0320(15) Uani 0.86 4 d S T P . 1
C5 C 0.34212(15) 0.0000 0.15788(15) 0.0447(17) Uani 0.86 4 d S T P . .
C8 C 0.27027(16) 0.0000 0.22973(16) 0.058(2) Uani 0.86 4 d S T P . .
C9 C 0.31879(17) 0.0000 0.24422(18) 0.084(2) Uani 0.43 2 d S T P . 1
H9 H 0.3277 0.0000 0.2789 0.100 Uiso 0.43 2 calc RS T P . 1
N9 N 0.31879(17) 0.0000 0.24422(18) 0.084(2) Uani 0.43 2 d S T P . 2
C10 C 0.3547(2) 0.0000 0.2076(2) 0.0736(19) Uani 0.86 2 d S T P . .
H10 H 0.3893 0.0000 0.2170 0.088 Uiso 0.5 2 calc RS T P A 1
H10A H 0.3893 0.0000 0.2170 0.088 Uiso 0.62(8) 2 calc RS T P B 2
Zr1 Zr 0.5000 0.0000 0.09320(2) 0.0118(3) Uani 1 8 d S T P . .
O2A O 0.4465(2) -0.0535(2) 0.0535(2) 0.020(3) Uani 0.5 6 d S T P . 1
O3 O 0.4424(12) 0.0000 0.1516(10) 0.044(9) Uani 0.14 2 d S TU P . 2
loop_
_atom_site_aniso_label
_atom_site_aniso_U_11
_atom_site_aniso_U_22
_atom_site_aniso_U_33
_atom_site_aniso_U_23
_atom_site_aniso_U_13
_atom_site_aniso_U_12
O2B 0.008(2) 0.008(2) 0.008(2) -0.002(2) -0.002(2) 0.002(2)
O1 0.017(2) 0.043(2) 0.014(2) 0.000 0.0079(17) 0.000
C4 0.033(3) 0.030(4) 0.033(3) 0.000 0.021(3) 0.000
C5 0.032(2) 0.071(5) 0.032(2) 0.000 0.019(3) 0.000
C8 0.027(3) 0.121(7) 0.027(3) 0.000 0.014(3) 0.000
C9 0.035(3) 0.190(7) 0.026(3) 0.000 0.019(2) 0.000
N9 0.035(3) 0.190(7) 0.026(3) 0.000 0.019(2) 0.000
C10 0.038(3) 0.146(6) 0.037(3) 0.000 0.019(3) 0.000
Zr1 0.0146(3) 0.0146(3) 0.0061(4) 0.000 0.000 0.000
O2A 0.020(3) 0.020(3) 0.020(3) 0.002(3) 0.002(3) -0.002(3)
O3 0.06(2) 0.031(12) 0.039(18) 0.000 -0.042(13) 0.000
loop_
_atom_type_symbol
_atom_type_description
_atom_type_scat_dispersion_real
_atom_type_scat_dispersion_imag
_atom_type_scat_source
C C 0.0033 0.0016 'International Tables Vol C Tables 4.2.6.8 and 6.1.1.4'
H H 0.0000 0.0000 'International Tables Vol C Tables 4.2.6.8 and 6.1.1.4'
N N 0.0061 0.0033 'International Tables Vol C Tables 4.2.6.8 and 6.1.1.4'
O O 0.0106 0.0060 'International Tables Vol C Tables 4.2.6.8 and 6.1.1.4'
Zr Zr -2.9673 0.5597 'International Tables Vol C Tables 4.2.6.8 and 6.1.1.4'
loop_
_geom_angle_atom_site_label_1
_geom_angle_atom_site_label_2
_geom_angle_atom_site_label_3
_geom_angle
_geom_angle_site_symmetry_1
_geom_angle_site_symmetry_3
Zr1 O2B Zr1 115.65(17) . 153
Zr1 O2B Zr1 115.65(17) . 173
Zr1 O2B Zr1 115.65(17) 153 173
C4 O1 Zr1 132.1(4) . .
O1 C4 O1 128.0(6) 166 .
O1 C4 C5 116.0(3) 166 .
O1 C4 C5 116.0(3) . .
C10 C5 C4 120.8(3) . .
C10 C5 C4 120.8(3) 166 .
C10 C5 C10 118.4(6) . 166
C9 C8 C8 118.4(3) 166 145
C9 C8 C8 118.4(3) . 145
C9 C8 C9 123.3(6) 166 .
N9 C8 C8 118.4(3) 166 145
N9 C8 C8 118.4(3) . 145
N9 C8 N9 123.3(6) 166 .
C8 C9 H9 121.1 . .
C8 C9 C10 117.8(5) . .
C10 C9 H9 121.1 . .
C8 N9 C10 117.8(5) . .
C5 C10 H10 119.3 . .
C5 C10 H10A 119.3 . .
C9 C10 C5 121.4(5) . .
C9 C10 H10 119.3 . .
N9 C10 C5 121.4(5) . .
N9 C10 H10A 119.3 . .
O2B Zr1 O2B 62.8(3) 100_655 2_655
O2B Zr1 O2B 95.0(5) 100_655 99
O2B Zr1 O2B 95.0(5) . 2_655
O2B Zr1 O2B 62.8(3) . 100_655
O2B Zr1 O2B 62.8(3) . 99
O2B Zr1 O2B 62.8(3) 99 2_655
O2B Zr1 O3 147.90(14) . 181
O2B Zr1 O3 96.6(5) . 182_545
O2B Zr1 O3 147.90(14) 100_655 .
O2B Zr1 O3 147.90(14) 100_655 181
O2B Zr1 O3 147.90(14) 99 182_545
O2B Zr1 O3 96.6(5) 99 181
O2B Zr1 O3 147.90(14) 2_655 .
O2B Zr1 O3 96.6(5) 2_655 181
O2B Zr1 O3 96.6(5) 100_655 182_545
O2B Zr1 O3 147.90(14) . 2_655
O2B Zr1 O3 147.90(14) 2_655 182_545
O2B Zr1 O3 96.6(5) 100_655 2_655
O2B Zr1 O3 96.6(5) 99 .
O2B Zr1 O3 147.90(14) 99 2_655
O2B Zr1 O3 96.6(5) 2_655 2_655
O2B Zr1 O3 96.6(5) . .
O1 Zr1 O1 76.45(9) . 181
O1 Zr1 O1 76.45(9) 2_655 182_545
O1 Zr1 O1 122.1(2) 181 182_545
O1 Zr1 O1 76.45(9) 181 2_655
O1 Zr1 O1 76.45(9) . 182_545
O1 Zr1 O1 122.1(2) . 2_655
O3 Zr1 O3 59.6(7) 181 2_655
O3 Zr1 O3 89.2(11) 2_655 .
O3 Zr1 O3 59.6(7) 182_545 .
O3 Zr1 O3 89.2(11) 181 182_545
O3 Zr1 O3 59.6(7) 2_655 182_545
O3 Zr1 O3 59.6(7) 181 .
Zr1 O2A Zr1 101.0(3) . 153
Zr1 O2A Zr1 101.0(3) 153 173
Zr1 O2A Zr1 101.0(3) . 173
loop_
_geom_bond_atom_site_label_1
_geom_bond_atom_site_label_2
_geom_bond_distance
_geom_bond_site_symmetry_2
O2B Zr1 2.065(2) .
O2B Zr1 2.065(2) 153
O2B Zr1 2.065(2) 173
O1 C4 1.264(5) .
O1 Zr1 2.215(4) .
C4 O1 1.264(5) 166
C4 C5 1.491(8) .
C5 C10 1.360(6) .
C5 C10 1.360(6) 166
C8 C8 1.520(12) 145
C8 C9 1.343(5) .
C8 C9 1.343(5) 166
C8 N9 1.343(5) .
C8 N9 1.343(5) 166
C9 H9 0.9500 .
C9 C10 1.360(7) .
N9 C10 1.360(7) .
C10 H10 0.9500 .
C10 H10A 0.9500 .
Zr1 O2B 2.065(2) 2_655
Zr1 O2B 2.065(2) 100_655
Zr1 O2B 2.065(2) 99
Zr1 O1 2.215(4) 181
Zr1 O1 2.215(4) 2_655
Zr1 O1 2.215(4) 182_545
Zr1 O3 2.18(4) 2_655
Zr1 O3 2.18(4) .
Zr1 O3 2.18(4) 182_545
Zr1 O3 2.18(4) 181
O2A Zr1 2.266(4) 153
O2A Zr1 2.266(4) 173
loop_
_geom_torsion_atom_site_label_1
_geom_torsion_atom_site_label_2
_geom_torsion_atom_site_label_3
_geom_torsion_atom_site_label_4
_geom_torsion
_geom_torsion_site_symmetry_1
_geom_torsion_site_symmetry_4
O1 C4 C5 C10 180.000(0) 166 .
O1 C4 C5 C10 180.000(0) . 166
O1 C4 C5 C10 0.000(0) . .
O1 C4 C5 C10 0.000(0) 166 166
C4 C5 C10 C9 180.000(0) . .
C8 C8 C9 C10 180.000(0) 145 .
C8 C8 N9 C10 180.000(0) 145 .
C8 C9 C10 C5 0.000(0) . .
C8 N9 C10 C5 0.000(0) . .
C9 C8 C9 C10 0.000(0) 166 .
N9 C8 N9 C10 0.000(0) 166 .
C10 C5 C10 C9 0.000(0) 166 .
C10 C5 C10 N9 0.000(0) 166 .
Zr1 O1 C4 O1 0.0 . 166
Zr1 O1 C4 C5 180.0 . .
loop_
_smtbx_masks_void_nr
_smtbx_masks_void_average_x
_smtbx_masks_void_average_y
_smtbx_masks_void_average_z
_smtbx_masks_void_volume
_smtbx_masks_void_count_electrons
1 -0.623 -0.942 -0.570 12759.6 2549.9
