#------------------------------------------------------------------------------
#$Date: 2019-11-23 03:41:02 +0200 (Sat, 23 Nov 2019) $
#$Revision: 232029 $
#$URL: file:///home/coder/svn-repositories/cod/cif/4/34/68/4346862.cif $
#------------------------------------------------------------------------------
#
# This file is available in the Crystallography Open Database (COD),
# http://www.crystallography.net/
#
# All data on this site have been placed in the public domain by the
# contributors.
#
data_4346862
loop_
_publ_author_name
'\/Oien-\/Odegaard, Sigurd'
'Bouchevreau, Boris'
'Hylland, Knut'
'Wu, Lianpao'
'Blom, Richard'
'Grande, Carlos'
'Olsbye, Unni'
'Tilset, Mats'
'Lillerud, Karl P.'
_publ_section_title
;
 UiO-67-type Metal-Organic Frameworks with Enhanced Water Stability and
 Methane Adsorption Capacity.
;
_journal_issue                   5
_journal_name_full               'Inorganic chemistry'
_journal_page_first              1986
_journal_page_last               1991
_journal_paper_doi               10.1021/acs.inorgchem.5b02257
_journal_volume                  55
_journal_year                    2016
_chemical_formula_moiety         'C14 H10 O4'
_chemical_formula_sum            'C14 H10 O4'
_chemical_formula_weight         242.22
_chemical_name_common            'Biphenyl dicarboxylic acid'
_chemical_name_systematic        'Biphenyl-4,4'-dicarboxylic acid'
_space_group_crystal_system      monoclinic
_space_group_IT_number           15
_space_group_name_Hall           '-C 2yc'
_space_group_name_H-M_alt        'C 1 2/c 1'
_atom_sites_solution_hydrogens   mixed
_atom_sites_solution_primary     direct
_audit_creation_date             2015-09-03
_audit_creation_method
;
Olex2 1.2
(compiled 2015.01.26 svn.r3150 for OlexSys, GUI svn.r4998)
;
_cell_angle_alpha                90
_cell_angle_beta                 104.991(7)
_cell_angle_gamma                90
_cell_formula_units_Z            4
_cell_length_a                   15.3346(19)
_cell_length_b                   3.6746(5)
_cell_length_c                   19.146(2)
_cell_measurement_reflns_used    2754
_cell_measurement_temperature    100(2)
_cell_measurement_theta_max      27.81
_cell_measurement_theta_min      3.22
_cell_volume                     1042.1(2)
_computing_cell_refinement       'SAINT v8.34A (Bruker AXS, 2014)'
_computing_data_collection       'APEX2 v2014.11-0 (Bruker AXS, 2014)'
_computing_data_reduction        'SAINT v8.34A (Bruker AXS, 2014)'
_computing_molecular_graphics    'Diamond v4.0.1 (Brandenburg, 2012)'
_computing_publication_material  'Olex2 (Dolomanov et al., 2009)'
_computing_structure_refinement  'XL Ver. 2014/7. (Sheldrick, 2015)'
_computing_structure_solution    'XS Ver. 2013/1. (Sheldrick, 2013)'
_diffrn_ambient_temperature      100.0
_diffrn_detector                 'CCD area detector'
_diffrn_detector_area_resol_mean 13.6986
_diffrn_detector_type            'Marmosaic 225'
_diffrn_measured_fraction_theta_full 0.952
_diffrn_measured_fraction_theta_max 0.945
_diffrn_measurement_device       '\k-geometry diffractometer'
_diffrn_measurement_device_type  'MD2 microdiffractometer with MK3 mini-kappa'
_diffrn_measurement_method       '\f scans'
_diffrn_radiation_collimation    'Rh-coated Si focusing mirrors'
_diffrn_radiation_monochromator  'Silicon 111'
_diffrn_radiation_probe          x-ray
_diffrn_radiation_type           synchrotron
_diffrn_radiation_wavelength     0.7600
_diffrn_reflns_av_unetI/netI     0.0366
_diffrn_reflns_Laue_measured_fraction_full 0.952
_diffrn_reflns_Laue_measured_fraction_max 0.945
_diffrn_reflns_limit_h_max       18
_diffrn_reflns_limit_h_min       -18
_diffrn_reflns_limit_k_max       4
_diffrn_reflns_limit_k_min       0
_diffrn_reflns_limit_l_max       23
_diffrn_reflns_limit_l_min       0
_diffrn_reflns_number            1003
_diffrn_reflns_point_group_measured_fraction_full 0.952
_diffrn_reflns_point_group_measured_fraction_max 0.945
_diffrn_reflns_theta_full        26.744
_diffrn_reflns_theta_max         27.928
_diffrn_reflns_theta_min         2.324
_diffrn_source                   synchrotron
_diffrn_source_type              'Wiggler, Station I911-3, MAX II, MAXLAB'
_diffrn_standards_number         0
_exptl_absorpt_coefficient_mu    0.129
_exptl_absorpt_correction_type   multi-scan
_exptl_absorpt_process_details
;
 TWINABS-2012/1 (Bruker,2012) was used for absorption correction.
 
For component 1:
 wR2(int) was 0.0774 before and 0.0572 after correction.
 The Ratio of minimum to maximum transmission not present.
 The \l/2 correction factor is Not present
 
For component 2:
 wR2(int) was 0.0659 before and 0.0480 after correction.
 The Ratio of minimum to maximum transmission is 0.76.
 The \l/2 correction factor is Not present

Final HKLF 4 output contains 6272 reflections, Rint = 0.0569
 (3966 with I > 3sig(I), Rint = 0.0535)
;
_exptl_crystal_colour            colorless
_exptl_crystal_density_diffrn    1.544
_exptl_crystal_description       block
_exptl_crystal_F_000             504
_exptl_crystal_size_max          0.06
_exptl_crystal_size_mid          0.06
_exptl_crystal_size_min          0.01
_refine_diff_density_max         0.249
_refine_diff_density_min         -0.198
_refine_diff_density_rms         0.059
_refine_ls_extinction_method     none
_refine_ls_goodness_of_fit_ref   1.084
_refine_ls_hydrogen_treatment    mixed
_refine_ls_matrix_type           full
_refine_ls_number_parameters     91
_refine_ls_number_reflns         1003
_refine_ls_number_restraints     0
_refine_ls_restrained_S_all      1.084
_refine_ls_R_factor_all          0.0446
_refine_ls_R_factor_gt           0.0409
_refine_ls_shift/su_max          0.000
_refine_ls_shift/su_mean         0.000
_refine_ls_structure_factor_coef Fsqd
_refine_ls_weighting_details
'w=1/[\s^2^(Fo^2^)+(0.0790P)^2^+0.5480P] where P=(Fo^2^+2Fc^2^)/3'
_refine_ls_weighting_scheme      calc
_refine_ls_wR_factor_gt          0.1213
_refine_ls_wR_factor_ref         0.1238
_reflns_Friedel_coverage         0.000
_reflns_number_gt                916
_reflns_number_total             1003
_reflns_threshold_expression     'I > 2\s(I)'
_cod_data_source_file            ic5b02257_si_001.cif
_cod_data_source_block           soe-bplinker-twin5
_cod_database_code               4346862
_shelx_space_group_comment
;
The symmetry employed for this shelxl refinement is uniquely defined
by the following loop, which should always be used as a source of
symmetry information in preference to the above space-group names.
They are only intended as comments.
;
_olex2_refinement_description
;
1. Twinned data refinement
 Scales: 0.417(3) 0.583(3)
2. Fixed Uiso
 At 1.2 times of:
  All C(H) groups
3. Others
 Fixed Sof: H002(0.5) H001(0.5)
4.a Aromatic/amide H refined with riding coordinates:
 C003(H003), C005(H005), C006(H006), C007(H007)
;
_shelx_res_file
;
    soe-bplinker-twin5.res created by SHELXL-2014/7

TITL SOE-bplinker-hkl4_a.res in C2/c
REM Old TITL SOE-bplinker-hkl4 in C2/c
REM SHELXT solution in C2/c
REM R1 0.133, Rweak 0.004, Alpha 0.037, Orientation as input
REM Formula found by SHELXT: C7 O2
CELL 0.75 15.3346 3.6746 19.1463 90 104.991 90
ZERR 4 0.0019 0.0005 0.0023 0 0.007 0
LATT 7
SYMM -X,+Y,0.5-Z
SFAC C H O
DISP C 0.004 0.002 12.834
DISP H -0 0 0.626
DISP O 0.013 0.007 37.215
UNIT 56 40 16

L.S. 10
PLAN  20
TEMP -173.15
BOND $H
LIST 6
MORE -1
CONF
fmap 2
acta
REM <olex2.extras>
REM <HklSrc "%.\\twin5.hkl">
REM </olex2.extras>

WGHT    0.079000    0.548000
BASF   0.58326
FVAR       1.07825
O001  3    0.240198    0.444885    0.417941    11.00000    0.01189    0.03539 =
         0.02122    0.00441    0.00819    0.00392
O002  3    0.360299    0.190293    0.493949    11.00000    0.01793    0.03405 =
         0.01757    0.00611    0.00802    0.00282
C003  1    0.335635    0.538329    0.313221    11.00000    0.00924    0.01726 =
         0.01857   -0.00158    0.00555    0.00020
AFIX  43
H003  2    0.274425    0.615161    0.301923    11.00000   -1.20000
AFIX   0
C004  1    0.376443    0.401380    0.381823    11.00000    0.01201    0.01417 =
         0.01632   -0.00198    0.00591   -0.00149
C005  1    0.467106    0.305107    0.399509    11.00000    0.01324    0.01923 =
         0.01498    0.00067    0.00470   -0.00030
AFIX  43
H005  2    0.495515    0.218359    0.446646    11.00000   -1.20000
AFIX   0
C006  1    0.516207    0.336013    0.348039    11.00000    0.00951    0.01991 =
         0.01848    0.00005    0.00529    0.00026
AFIX  43
H006  2    0.578462    0.273938    0.360498    11.00000   -1.20000
AFIX   0
C007  1    0.384035    0.562825    0.261424    11.00000    0.01387    0.01739 =
         0.01615    0.00063    0.00511   -0.00010
AFIX  43
H007  2    0.355557    0.651270    0.214434    11.00000   -1.20000
AFIX   0
C008  1    0.320915    0.346943    0.433823    11.00000    0.01212    0.01722 =
         0.01718   -0.00093    0.00563   -0.00133
C009  1    0.474883    0.457276    0.278323    11.00000    0.01370    0.01563 =
         0.01843   -0.00194    0.00723   -0.00177
H002  2    0.319489    0.143494    0.517650    10.50000    0.01555
H001  2    0.202418    0.366677    0.449388    10.50000    0.08976
HKLF 5

REM  SOE-bplinker-hkl4_a.res in C2/c
REM R1 =  0.0409 for     916 Fo > 4sig(Fo)  and  0.0446 for all    1003 data
REM     91 parameters refined using      0 restraints

END

WGHT      0.0790      0.5480

REM Highest difference peak  0.249,  deepest hole -0.198,  1-sigma level  0.059
Q1    1   0.5000  0.4686  0.2500  10.50000  0.05    0.25
Q2    1   0.3636  0.5296  0.3606  11.00000  0.05    0.24
Q3    1   0.3606  0.4206  0.3476  11.00000  0.05    0.24
Q4    1   0.3840  0.3003  0.3706  11.00000  0.05    0.22
Q5    1   0.3519  0.3809  0.4086  11.00000  0.05    0.22
Q6    1   0.3199 -0.1304  0.4342  11.00000  0.05    0.19
Q7    1   0.4894  0.3514  0.3061  11.00000  0.05    0.19
Q8    1   0.5417  0.3423  0.4912  11.00000  0.05    0.18
Q9    1   0.3783  0.6103  0.2951  11.00000  0.05    0.17
Q10   1   0.3359  0.1622  0.4477  11.00000  0.05    0.17
Q11   1   0.2534  0.5579  0.2769  11.00000  0.05    0.16
Q12   1   0.3980  0.0729  0.3295  11.00000  0.05    0.16
Q13   1   0.2602  0.5133  0.4727  11.00000  0.05    0.15
Q14   1   0.3438  0.8027  0.1419  11.00000  0.05    0.15
Q15   1   0.2336  0.3283  0.2680  11.00000  0.05    0.15
Q16   1   0.4962  0.3714  0.3780  11.00000  0.05    0.15
Q17   1   0.4833  0.2997  0.3713  11.00000  0.05    0.14
Q18   1   0.4414  0.4568  0.3244  11.00000  0.05    0.14
Q19   1   0.4351  0.2987  0.5426  11.00000  0.05    0.13
Q20   1   0.3406  0.3583  0.1775  11.00000  0.05    0.13
;
_shelx_res_checksum              11411
_shelx_hkl_file
;
   2   0   0 35.8775 1.44357   2
   4   0   0 23.6552 1.30308   2
   6   0   0 2859.67 105.213  -1
  -2   0   8 2859.67 105.213   2
   8   0   0 3426.38 178.051  -1
  -2   0  10 3426.38 178.051   2
  10   0   0 947.913 34.9651   2
  12   0   0 2.32805 1.56750   2
  14   0   0 1300.55 48.0315  -1
  -4   0  18 1300.55 48.0315   2
  16   0   0 24.7556 2.94535   2
   1   1   0 9999.99 518.306   2
   3   1   0 214.389 5.80888  -1
  -1   1   4 214.389 5.80888   2
   5   1   0 83.3169 2.54414   2
   7   1   0 1745.53 45.3491   2
  11   1   0 308.986 8.52926  -1
  -3   1  14 308.986 8.52926   2
  13   1   0 712.832 18.8097   2
  15   1   0 75.0299 3.44572   2
  17   1   0 61.1303 3.96506  -1
  -5   1  22 61.1303 3.96506   2
   0   2   0 473.552 14.4385  -1
   0   2   0 473.552 14.4385   2
   2   2   0 604.635 15.8926   2
   4   2   0 36.0101 1.47214   2
   6   2   0 269.074 7.52672  -1
  -2   2   8 269.074 7.52672   2
   8   2   0 98.0020 4.66797  -1
  -2   2  10 98.0020 4.66797   2
  10   2   0 15.1827 1.89832   2
  12   2   0 75.8749 3.89415   2
  14   2   0 176.176 6.10777  -1
  -4   2  18 176.176 6.10777   2
  16   2   0 10.6924 3.44114   2
   1   3   0 16.4544 2.02722   2
   3   3   0 531.087 14.2793  -1
  -1   3   4 531.087 14.2793   2
   5   3   0 321.073 18.8542  -1
  -1   3   6 321.073 18.8542   2
   7   3   0 89.4805 4.12226   2
   9   3   0 494.645 14.0221  -1
  -3   3  12 494.645 14.0221   2
  11   3   0 168.232 6.95532  -1
  -3   3  14 168.232 6.95532   2
  13   3   0 41.9523 3.86682   2
   0   4   0 44.1594 6.16653  -1
   0   4   0 44.1594 6.16653   2
   2   4   0 45.3505 8.15760  -1
   0   4   2 45.3505 8.15760   2
   4   4   0 32.1068 4.10508   2
   6   4   0 5.16419 5.95598  -1
  -2   4   8 5.16419 5.95598   2
   8   4   0 7.29623 6.98757  -1
  -2   4  10 7.29623 6.98757   2
 -16   0   1 0.33354 2.45830   2
 -14   0   1 1.70922 1.92205   2
 -10   0   1 0.72646 1.20593   2
  -8   0   1 0.69027 0.90518   2
  -6   0   1 -0.0796 0.74597   2
  -2   0   1 -0.1030 0.34403   2
   4   0   1 -0.1791 0.52818   2
   6   0   1 0.82791 0.69227   2
   8   0   1 0.68962 0.95284   2
  12   0   1 -0.0016 1.57151   2
  14   0   1 2.18717 2.05893   2
  18   0   1 -2.7344 3.85700   2
 -17   1   1 153.330 6.79124   2
 -15   1   1 63.9635 3.50383  -1
  -5   1  19 63.9635 3.50383   2
 -13   1   1 4.58854 1.49368   2
 -11   1   1 41.1470 2.24328   2
  -9   1   1 692.165 36.3954  -1
  -3   1  11 692.165 36.3954   2
  -7   1   1 1083.02 28.2484  -1
  -3   1   9 1083.02 28.2484   2
  -5   1   1 2478.84 64.3218   2
  -3   1   1 445.283 11.6641   2
  -1   1   1 1026.21 23.9432  -1
  -1   1   1 1026.21 23.9432   2
   3   1   1 2584.12 67.0315   2
   5   1   1 141.809 6.01580  -1
  -1   1   7 141.809 6.01580   2
   7   1   1 407.707 10.7459   2
   7   1   1 326.357 17.4166  -1
  -1   1   9 326.357 17.4166   2
   9   1   1 772.122 20.1927   2
  11   1   1 5.10696 1.27893   2
  13   1   1 853.022 22.4213  -1
  -3   1  17 853.022 22.4213   2
  15   1   1 83.7482 4.04952   2
  17   1   1 2.50464 3.02656   2
 -16   2   1 95.5994 5.74483   2
 -14   2   1 58.6817 3.16040   2
 -12   2   1 1235.12 32.4380  -1
  -4   2  15 1235.12 32.4380   2
 -10   2   1 692.037 18.5272  -1
  -4   2  13 692.037 18.5272   2
  -8   2   1 38.8964 1.96084   2
  -6   2   1 17.9005 1.48975   2
  -4   2   1 668.959 17.5924  -1
  -2   2   5 668.959 17.5924   2
  -2   2   1 203.762 5.68977   2
   0   2   1 804.359 18.8248   2
   2   2   1 3971.75 103.116  -1
   0   2   3 3971.75 103.116   2
   4   2   1 955.013 24.9429   2
   6   2   1 178.650 4.62568   2
   8   2   1 619.676 19.1551  -1
  -2   2  11 619.676 19.1551   2
  10   2   1 350.576 9.87195  -1
  -2   2  13 350.576 9.87195   2
  12   2   1 230.096 6.98590   2
  14   2   1 284.819 8.72127   2
  16   2   1 62.4254 3.80720  -1
  -4   2  21 62.4254 3.80720   2
 -13   3   1 26.8916 15.2620  -1
  -5   3  17 26.8916 15.2620   2
 -11   3   1 0.89253 2.65045   2
  -9   3   1 37.3942 5.00517  -1
  -3   3  11 37.3942 5.00517   2
  -7   3   1 173.347 6.12704  -1
  -3   3   9 173.347 6.12704   2
  -5   3   1 9.84070 2.05337   2
  -3   3   1 387.572 9.49319   2
  -1   3   1 176.118 4.84687  -1
  -1   3   1 176.118 4.84687   2
   1   3   1 65.4414 3.05882   2
   3   3   1 9.12106 1.83402   2
   5   3   1 89.2850 4.51254  -1
  -1   3   7 89.2850 4.51254   2
   7   3   1 70.5622 4.63016  -1
  -1   3   9 70.5622 4.63016   2
   9   3   1 0.63435 2.55557   2
  11   3   1 2.24655 8.94460  -1
  -3   3  15 2.24655 8.94460   2
  13   3   1 -2.4345 5.20160  -1
  -3   3  17 -2.4345 5.20160   2
  -8   4   1 1.37871 3.41689   2
  -6   4   1 93.4355 7.33298  -1
  -2   4   7 93.4355 7.33298   2
  -4   4   1 36.7142 5.23657  -1
  -2   4   5 36.7142 5.23657   2
  -2   4   1 21.5866 3.24729   2
   0   4   1 98.8039 4.75756   2
   2   4   1 9.88258 5.07504  -1
   0   4   3 9.88258 5.07504   2
   4   4   1 95.9877 8.19618  -1
   0   4   5 95.9877 8.19618   2
   6   4   1 441.020 11.4256   2
   8   4   1 26.6505 8.93482  -1
  -2   4  11 26.6505 8.93482   2
 -18   0   2 422.996 16.6480   2
 -16   0   2 188.123 8.28143  -1
  -6   0  20 188.123 8.28143   2
 -14   0   2 56.1008 3.13307   2
 -12   0   2 436.060 16.3754   2
 -10   0   2 903.548 33.3402   2
  -8   0   2 1403.12 73.0971  -1
  -4   0  10 1403.12 73.0971   2
  -6   0   2 617.429 22.7730   2
  -4   0   2 424.358 15.6633   2
  -2   0   2 555.866 20.6978  -1
  -2   0   2 555.866 20.6978   2
   0   0   2 23.2150 1.35884   2
   4   0   2 1580.37 82.8684  -1
   0   0   6 1580.37 82.8684   2
   6   0   2 113.309 4.37916   2
   8   0   2 1131.40 41.6058   2
  10   0   2 403.215 15.0817   2
  12   0   2 1731.98 63.7607  -1
  -2   0  16 1731.98 63.7607   2
  14   0   2 695.655 25.9902   2
 -17   1   2 2.72361 2.20448   2
 -15   1   2 24.7168 1.97518   2
 -13   1   2 88.8454 3.61409  -1
  -5   1  16 88.8454 3.61409   2
  -9   1   2 78.5322 2.66728   2
  -7   1   2 1356.09 35.2724   2
  -5   1   2 10.0178 1.49415  -1
  -3   1   6 10.0178 1.49415   2
  -3   1   2 24.6306 1.05793   2
  -1   1   2 347.402 8.17853   2
   3   1   2 784.545 18.2689   2
   5   1   2 28.4935 1.36220   2
   7   1   2 181.478 4.98233   2
   9   1   2 909.420 23.7860  -1
  -1   1  12 909.420 23.7860   2
  11   1   2 485.554 12.8997   2
  13   1   2 173.857 5.40386   2
  15   1   2 433.689 11.8952  -1
  -3   1  20 433.689 11.8952   2
  17   1   2 -1.4606 3.34636   2
 -16   2   2 113.526 5.27802  -1
  -6   2  20 113.526 5.27802   2
 -14   2   2 20.3917 12.8179  -1
  -6   2  18 20.3917 12.8179   2
 -12   2   2 181.244 5.84950   2
 -10   2   2 155.053 5.50444  -1
  -4   2  12 155.053 5.50444   2
  -8   2   2 600.456 15.9863  -1
  -4   2  10 600.456 15.9863   2
  -6   2   2 1823.52 47.4312   2
  -4   2   2 589.355 13.8743   2
  -2   2   2 33.0027 1.68858  -1
  -2   2   2 33.0027 1.68858   2
   0   2   2 2283.95 53.0658   2
   2   2   2 593.418 13.9628   2
   4   2   2 1396.37 36.3993  -1
   0   2   6 1396.37 36.3993   2
   6   2   2 463.692 14.3710  -1
   0   2   8 463.692 14.3710   2
   8   2   2 144.514 4.05932   2
  10   2   2 66.5129 3.36534   2
  12   2   2 59.5209 3.70483  -1
  -2   2  16 59.5209 3.70483   2
  14   2   2 9.27528 2.83768   2
  16   2   2 -1.7244 3.69055   2
 -13   3   2 173.023 7.65765  -1
  -5   3  16 173.023 7.65765   2
 -11   3   2 155.654 7.13733  -1
  -5   3  14 155.654 7.13733   2
  -9   3   2 198.496 5.81296   2
  -7   3   2 25.8038 6.83766  -1
  -3   3   8 25.8038 6.83766   2
  -5   3   2 270.929 7.93352  -1
  -3   3   6 270.929 7.93352   2
  -3   3   2 33.9229 1.99659   2
  -1   3   2 22.5989 1.89724   2
   1   3   2 121.427 4.58724  -1
   1   3   2 121.427 4.58724   2
   3   3   2 1698.10 62.8168  -1
   1   3   4 1698.10 62.8168   2
   5   3   2 165.797 4.85518   2
   7   3   2 141.254 5.93834  -1
  -1   3  10 141.254 5.93834   2
   9   3   2 46.1086 4.82558  -1
  -1   3  12 46.1086 4.82558   2
  11   3   2 14.6194 3.08685   2
  13   3   2 -2.8363 3.79247   2
  -8   4   2 96.9116 6.85741  -1
  -4   4  10 96.9116 6.85741   2
  -6   4   2 4.22481 3.11045   2
  -4   4   2 68.0681 7.30255  -1
  -2   4   4 68.0681 7.30255   2
  -2   4   2 48.6968 6.86108  -1
  -2   4   2 48.6968 6.86108   2
   0   4   2 26.1716 6.88406  -1
   2   4   0 26.1716 6.88406   2
   2   4   2 38.0410 3.48130   2
   4   4   2 7.85880 7.01904  -1
   0   4   6 7.85880 7.01904   2
   6   4   2 162.446 8.10693  -1
   0   4   8 162.446 8.10693   2
   8   4   2 3.19749 3.60190   2
 -18   0   3 -0.2557 3.02310   2
 -16   0   3 -0.5977 2.26516   2
 -12   0   3 0.98470 1.47015   2
 -10   0   3 -0.0936 1.15058   2
  -8   0   3 0.36986 0.92192   2
  -4   0   3 0.08074 0.63394   2
  -2   0   3 0.56045 0.46843   2
   4   0   3 0.08681 0.50038   2
   6   0   3 0.94692 0.69238   2
  10   0   3 0.17567 1.32528   2
  12   0   3 -1.5209 1.77616   2
  16   0   3 1.80982 3.16705   2
 -17   1   3 76.0064 4.18878  -1
  -7   1  21 76.0064 4.18878   2
 -15   1   3 218.505 6.50177   2
 -13   1   3 348.365 9.49515   2
 -11   1   3 151.396 5.66200  -1
  -5   1  13 151.396 5.66200   2
  -9   1   3 906.339 23.7218  -1
  -5   1  11 906.339 23.7218   2
  -7   1   3 164.633 4.57932   2
  -5   1   3 1061.60 27.6277   2
  -3   1   3 1032.70 26.9064  -1
  -3   1   3 1032.70 26.9064   2
  -1   1   3 385.286 10.1080   2
   1   1   3 8886.46 205.995   2
   3   1   3 13.0068 0.81932   2
   5   1   3 341.125 8.99339   2
   7   1   3 655.545 17.1268   2
   9   1   3 74.7040 2.61528   2
  11   1   3 17.2179 2.23521  -1
  -1   1  15 17.2179 2.23521   2
  13   1   3 232.068 6.82197   2
  15   1   3 70.4732 3.88702   2
  17   1   3 86.6652 7.22183  -1
  -3   1  23 86.6652 7.22183   2
 -16   2   3 298.978 9.31692   2
 -14   2   3 943.542 25.0871  -1
  -6   2  17 943.542 25.0871   2
 -12   2   3 164.441 8.77575  -1
  -6   2  15 164.441 8.77575   2
 -10   2   3 94.5098 3.76045   2
  -8   2   3 235.902 6.67123   2
  -6   2   3 308.966 8.46072  -1
  -4   2   7 308.966 8.46072   2
  -4   2   3 26.8784 1.35210   2
  -2   2   3 36.1670 1.55694   2
   0   2   3 3118.34 80.9773  -1
   2   2   1 3118.34 80.9773   2
   2   2   3 1016.56 23.7351   2
   4   2   3 88.7685 2.75088   2
   6   2   3 357.277 13.9992  -1
   0   2   9 357.277 13.9992   2
   8   2   3 151.462 5.00033  -1
   0   2  11 151.462 5.00033   2
  10   2   3 191.206 5.22301   2
  12   2   3 70.9714 3.95420   2
  14   2   3 106.081 4.48234  -1
  -2   2  19 106.081 4.48234   2
 -13   3   3 322.835 8.99850   2
 -11   3   3 458.013 13.3269  -1
  -5   3  13 458.013 13.3269   2
  -9   3   3 405.796 11.6823  -1
  -5   3  11 405.796 11.6823   2
  -7   3   3 5.63582 2.00244   2
  -5   3   3 405.918 11.1254   2
  -3   3   3 381.157 9.30293  -1
  -3   3   3 381.157 9.30293   2
  -1   3   3 12.4925 1.81340   2
   1   3   3 7.58896 2.07104   2
   3   3   3 1390.03 36.3982  -1
   1   3   5 1390.03 36.3982   2
   5   3   3 280.411 7.62426  -1
   1   3   7 280.411 7.62426   2
   7   3   3 235.306 6.42912   2
   9   3   3 176.175 10.8752  -1
  -1   3  13 176.175 10.8752   2
  11   3   3 6.60628 4.58498  -1
  -1   3  15 6.60628 4.58498   2
  13   3   3 2.67388 3.92220   2
  -8   4   3 100.829 7.63977  -1
  -4   4   9 100.829 7.63977   2
  -6   4   3 72.5133 5.54001  -1
  -4   4   7 72.5133 5.54001   2
  -4   4   3 50.4141 3.22272   2
  -2   4   3 536.508 14.8430   2
   0   4   3 9.91718 5.05551  -1
   2   4   1 9.91718 5.05551   2
   2   4   3 145.161 9.00723  -1
   2   4   3 145.161 9.00723   2
   4   4   3 447.165 14.8512   2
   6   4   3 345.980 11.5484  -1
   0   4   9 345.980 11.5484   2
   8   4   3 328.291 13.2995  -1
   0   4  11 328.291 13.2995   2
 -18   0   4 21.7664 5.33831  -1
  -8   0  22 21.7664 5.33831   2
 -16   0   4 119.678 5.85791   2
 -14   0   4 16.7888 2.01518   2
 -12   0   4 129.995 5.45384   2
 -10   0   4 85.0936 5.31433  -1
  -6   0  12 85.0936 5.31433   2
  -8   0   4 552.708 20.4759   2
  -6   0   4 480.574 17.7938   2
  -2   0   4 124.988 4.74255   2
   0   0   4 31.4115 1.41194   2
   6   0   4 205.958 7.69216   2
   8   0   4 132.152 5.20841   2
  10   0   4 543.764 20.2047  -1
   0   0  14 543.764 20.2047   2
  12   0   4 749.132 27.7799   2
  14   0   4 640.939 24.0527   2
  16   0   4 458.794 18.9357  -1
  -2   0  22 458.794 18.9357   2
 -17   1   4 348.772 9.88149   2
 -15   1   4 488.834 13.3456  -1
  -7   1  18 488.834 13.3456   2
 -11   1   4 14.7027 1.28833   2
  -9   1   4 203.186 5.61988   2
  -7   1   4 4355.51 113.048  -1
  -5   1   8 4355.51 113.048   2
  -5   1   4 1426.75 37.0869   2
  -3   1   4 599.889 15.6648   2
  -1   1   4 200.847 5.45109  -1
   3   1   0 200.847 5.45109   2
   1   1   4 514.252 13.4357   2
   3   1   4 1967.78 45.6742   2
   7   1   4 261.620 7.12919  -1
   1   1  10 261.620 7.12919   2
   9   1   4 19.7029 1.22069   2
  11   1   4 43.0527 2.03126   2
  13   1   4 514.946 13.7885  -1
  -1   1  18 514.946 13.7885   2
  15   1   4 2.16834 2.60124   2
 -14   2   4 1170.08 30.7633   2
 -12   2   4 202.232 6.81707  -1
  -6   2  14 202.232 6.81707   2
 -10   2   4 744.557 19.7795  -1
  -6   2  12 744.557 19.7795   2
  -8   2   4 780.291 20.5135   2
  -6   2   4 96.0814 3.30833   2
  -4   2   4 1248.48 32.5435  -1
  -4   2   4 1248.48 32.5435   2
  -2   2   4 42.3912 1.85152   2
   0   2   4 56.1771 2.40319   2
   2   2   4 6654.79 172.671  -1
   2   2   4 6654.79 172.671   2
   4   2   4 107.040 8.08626  -1
   2   2   6 107.040 8.08626   2
   6   2   4 358.459 9.64114   2
  10   2   4 316.329 8.84594  -1
   0   2  14 316.329 8.84594   2
  12   2   4 0.69610 2.14420   2
  14   2   4 7.70210 2.73643   2
 -13   3   4 400.766 12.6172  -1
  -7   3  16 400.766 12.6172   2
 -11   3   4 306.641 8.30099   2
  -9   3   4 42.4586 5.19215  -1
  -5   3  10 42.4586 5.19215   2
  -7   3   4 84.5931 4.23966  -1
  -5   3   8 84.5931 4.23966   2
  -5   3   4 177.117 5.08711   2
  -3   3   4 57.9079 2.96506   2
  -1   3   4 522.601 14.0626  -1
   3   3   0 522.601 14.0626   2
   1   3   4 1310.79 68.6674  -1
   3   3   2 1310.79 68.6674   2
   3   3   4 176.541 5.65817   2
   5   3   4 1.28157 4.53196  -1
   1   3   8 1.28157 4.53196   2
   7   3   4 1407.43 36.8873  -1
   1   3  10 1407.43 36.8873   2
   9   3   4 87.5368 4.21479   2
  11   3   4 1.62282 2.83142   2
  -8   4   4 8.75546 3.68782   2
  -6   4   4 92.4058 7.61259  -1
  -4   4   6 92.4058 7.61259   2
  -4   4   4 39.9371 4.10797  -1
  -4   4   4 39.9371 4.10797   2
  -2   4   4 55.0646 6.45515  -1
  -4   4   2 55.0646 6.45515   2
   0   4   4 100.514 5.09016   2
   2   4   4 315.949 11.9351  -1
   2   4   4 315.949 11.9351   2
   4   4   4 228.714 9.04370  -1
   2   4   6 228.714 9.04370   2
   6   4   4 44.6210 4.84863   2
 -18   0   5 -0.3411 2.76748   2
 -14   0   5 3.72334 1.79208   2
 -12   0   5 0.28429 1.41298   2
 -10   0   5 0.88636 1.17051   2
  -6   0   5 1.71303 0.83211   2
  -4   0   5 0.07214 0.71110   2
   0   0   5 1.59849 0.53900   2
   8   0   5 0.39517 1.07014   2
  10   0   5 0.54356 1.43678   2
  14   0   5 -1.4097 2.83821   2
  16   0   5 -0.8629 4.34722   2
 -17   1   5 69.7746 3.80752   2
 -15   1   5 340.851 9.43196   2
 -13   1   5 350.312 9.54359   2
 -13   1   5 572.139 21.6872  -1
  -7   1  15 572.139 21.6872   2
 -11   1   5 193.557 6.56254  -1
  -7   1  13 193.557 6.56254   2
  -9   1   5 699.858 18.3439   2
  -7   1   5 24.5749 1.45118   2
  -5   1   5 3722.36 96.6480  -1
  -5   1   5 3722.36 96.6480   2
  -3   1   5 953.479 24.8195   2
  -1   1   5 35.7291 1.49369   2
   1   1   5 727.235 16.9423   2
   3   1   5 123.865 3.10332   2
   5   1   5 396.887 10.4137   2
   7   1   5 134.025 3.77841   2
   9   1   5 550.917 14.5304  -1
   1   1  13 550.917 14.5304   2
  11   1   5 6.93630 1.42243   2
  13   1   5 227.021 6.70794   2
  15   1   5 422.872 12.2773  -1
  -1   1  21 422.872 12.2773   2
 -16   2   5 16.0642 5.20244  -1
  -8   2  19 16.0642 5.20244   2
 -14   2   5 328.720 14.2493  -1
  -8   2  17 328.720 14.2493   2
 -12   2   5 329.784 9.26003   2
 -10   2   5 23.0552 1.87297   2
 -10   2   5 432.672 23.8515  -1
  -6   2  11 432.672 23.8515   2
  -8   2   5 40.6146 2.82752  -1
  -6   2   9 40.6146 2.82752   2
  -6   2   5 355.681 9.59056   2
  -4   2   5 24.3443 1.51871   2
  -2   2   5 789.235 20.6933  -1
  -4   2   1 789.235 20.6933   2
   0   2   5 54.9156 2.36304   2
   2   2   5 3936.31 102.136   2
   4   2   5 414.307 15.8109  -1
   2   2   7 414.307 15.8109   2
   6   2   5 317.946 8.78861  -1
   2   2   9 317.946 8.78861   2
   8   2   5 1465.65 38.1988   2
  10   2   5 149.373 4.94067   2
  12   2   5 198.522 6.21654  -1
   0   2  17 198.522 6.21654   2
  14   2   5 5.94694 2.94141   2
 -13   3   5 48.4495 6.76716  -1
  -7   3  15 48.4495 6.76716   2
 -11   3   5 400.707 10.7220  -1
  -7   3  13 400.707 10.7220   2
  -9   3   5 90.8621 4.06820   2
  -7   3   5 431.996 10.6433   2
  -5   3   5 15.4299 2.58030  -1
  -5   3   5 15.4299 2.58030   2
  -3   3   5 31.1631 2.21315   2
  -1   3   5 403.147 9.86070   2
   1   3   5 1383.88 36.2357  -1
   3   3   3 1383.88 36.2357   2
   3   3   5 210.952 7.04686  -1
   3   3   5 210.952 7.04686   2
   5   3   5 750.087 19.9084   2
   7   3   5 187.596 8.61217  -1
   1   3  11 187.596 8.61217   2
   9   3   5 359.449 10.4715  -1
   1   3  13 359.449 10.4715   2
  11   3   5 220.612 7.64813   2
  -8   4   5 330.656 10.4938  -1
  -6   4   9 330.656 10.4938   2
  -6   4   5 72.0644 3.70887   2
  -4   4   5 148.935 5.65375   2
  -2   4   5 37.9509 5.88020  -1
  -4   4   1 37.9509 5.88020   2
   0   4   5 115.942 7.39866  -1
   4   4   1 115.942 7.39866   2
   2   4   5 66.7297 4.67786   2
   4   4   5 902.129 24.6792  -1
   2   4   7 902.129 24.6792   2
   6   4   5 309.913 12.6025  -1
   2   4   9 309.913 12.6025   2
 -18   0   6 64.2292 3.96162   2
 -16   0   6 97.2860 5.13963   2
 -14   0   6 4927.41 180.840   2
 -12   0   6 524.457 27.8488  -1
  -8   0  14 524.457 27.8488   2
 -10   0   6 176.346 6.95427   2
  -8   0   6 189.920 7.31437   2
  -2   0   6 2107.73 77.3288   2
   0   0   6 1363.34 50.5598  -1
   4   0   2 1363.34 50.5598   2
   2   0   6 6.28682 0.55441   2
   2   0   6 2930.73 155.783  -1
   4   0   4 2930.73 155.783   2
   8   0   6 1268.87 46.8925  -1
   2   0  12 1268.87 46.8925   2
  10   0   6 40.2722 2.78398   2
  12   0   6 23.4132 2.33610   2
  14   0   6 161.294 8.43668  -1
   0   0  20 161.294 8.43668   2
 -17   1   6 20.8862 4.39455  -1
  -9   1  20 20.8862 4.39455   2
 -15   1   6 30.3116 1.97054   2
 -13   1   6 2953.08 76.7396   2
 -11   1   6 0.58867 1.12561   2
  -9   1   6 5.42095 1.79978  -1
  -7   1  10 5.42095 1.79978   2
  -7   1   6 109.349 3.26389   2
  -5   1   6 1322.50 34.3997   2
  -3   1   6 13.3247 1.49488  -1
  -5   1   2 13.3247 1.49488   2
  -1   1   6 84.4259 2.52371   2
   1   1   6 1524.32 35.4000   2
   3   1   6 129.153 3.57404   2
   5   1   6 669.132 20.3243  -1
   3   1   8 669.132 20.3243   2
   7   1   6 1228.39 45.2133   2
   9   1   6 14.4409 1.15035   2
  11   1   6 15.2910 1.86813  -1
   1   1  16 15.2910 1.86813   2
  13   1   6 20.0511 2.13385   2
  15   1   6 224.951 10.6978   2
 -16   2   6 256.018 8.19281   2
 -14   2   6 21.3543 4.90272  -1
  -8   2  16 21.3543 4.90272   2
 -12   2   6 122.428 5.16707  -1
  -8   2  14 122.428 5.16707   2
 -10   2   6 88.9779 3.60578   2
  -8   2   6 467.129 12.4884   2
  -6   2   6 1290.35 33.6459  -1
  -6   2   6 1290.35 33.6459   2
  -4   2   6 21.8260 1.45486   2
  -2   2   6 189.336 4.82287   2
   0   2   6 1397.87 36.4462  -1
   4   2   2 1397.87 36.4462   2
   2   2   6 162.420 9.93393  -1
   4   2   4 162.420 9.93393   2
   4   2   6 32.6784 1.78418   2
   6   2   6 17.4657 1.44964   2
   8   2   6 1336.87 34.8849  -1
   2   2  12 1336.87 34.8849   2
  10   2   6 3.90292 1.86918   2
  12   2   6 1.71632 2.28504   2
  14   2   6 536.002 15.3439  -1
   0   2  20 536.002 15.3439   2
 -13   3   6 2.14104 3.35513   2
 -11   3   6 63.0204 7.41511  -1
  -7   3  12 63.0204 7.41511   2
  -9   3   6 539.963 13.1668  -1
  -7   3  10 539.963 13.1668   2
  -7   3   6 18.2141 2.13620   2
  -5   3   6 8.20079 1.92255   2
  -3   3   6 230.091 6.94757  -1
  -5   3   2 230.091 6.94757   2
  -1   3   6 321.165 13.3330  -1
   5   3   0 321.165 13.3330   2
   1   3   6 3.21616 2.14204   2
   3   3   6 1825.24 47.6783  -1
   3   3   6 1825.24 47.6783   2
   5   3   6 374.182 10.7764  -1
   3   3   8 374.182 10.7764   2
   7   3   6 1.64028 2.57963   2
   9   3   6 684.205 18.5150   2
  11   3   6 44.0066 5.32105  -1
   1   3  16 44.0066 5.32105   2
  -8   4   6 52.0598 8.72954  -1
  -6   4   8 52.0598 8.72954   2
  -6   4   6 14.4669 4.30578  -1
  -6   4   6 14.4669 4.30578   2
  -4   4   6 52.9530 10.5588  -1
  -6   4   4 52.9530 10.5588   2
  -2   4   6 10.2785 3.02148   2
   0   4   6 30.0607 6.89492  -1
   4   4   2 30.0607 6.89492   2
   2   4   6 223.571 10.5695  -1
   4   4   4 223.571 10.5695   2
   4   4   6 121.174 5.98953   2
   6   4   6 58.1779 10.2058  -1
   2   4  10 58.1779 10.2058   2
 -16   0   7 2.21224 2.13364   2
 -14   0   7 1.75504 1.54254   2
 -12   0   7 5.52063 1.38869   2
  -8   0   7 1.08209 0.98385   2
  -6   0   7 1.99756 0.89739   2
  -2   0   7 0.46694 0.67334   2
   0   0   7 -0.0348 0.62071   2
   2   0   7 0.97493 0.68700   2
  12   0   7 -0.2908 1.87416   2
  14   0   7 -2.2775 2.73206   2
 -17   1   7 127.164 4.88911   2
 -15   1   7 54.7199 2.88244   2
 -15   1   7 171.130 8.48106  -1
  -9   1  17 171.130 8.48106   2
 -13   1   7 1178.23 43.6571  -1
  -9   1  15 1178.23 43.6571   2
 -11   1   7 190.877 5.45875   2
  -9   1   7 0.65040 0.95862   2
  -7   1   7 1701.50 44.2561  -1
  -7   1   7 1701.50 44.2561   2
  -5   1   7 1700.36 44.1907   2
  -3   1   7 701.591 18.3153   2
  -1   1   7 118.879 5.07344  -1
   5   1   1 118.879 5.07344   2
   1   1   7 77.6090 2.12127   2
   3   1   7 60.9784 1.93901   2
   5   1   7 1140.22 41.9729   2
   7   1   7 388.340 14.6588  -1
   3   1  11 388.340 14.6588   2
   9   1   7 123.662 5.46790   2
  11   1   7 0.96116 2.24101   2
  13   1   7 309.908 12.8693  -1
   1   1  19 309.908 12.8693   2
 -16   2   7 275.392 9.54506  -1
 -10   2  19 275.392 9.54506   2
 -14   2   7 108.887 4.72374   2
 -12   2   7 388.012 10.7190   2
 -10   2   7 341.552 9.49824  -1
  -8   2  11 341.552 9.49824   2
  -8   2   7 512.573 13.6531   2
  -6   2   7 117.106 3.84366   2
  -4   2   7 437.115 11.7169  -1
  -6   2   3 437.115 11.7169   2
  -2   2   7 293.107 7.13933   2
   0   2   7 512.917 13.5612   2
   2   2   7 487.190 26.2127  -1
   4   2   5 487.190 26.2127   2
   4   2   7 16.6172 2.66309  -1
   4   2   7 16.6172 2.66309   2
   6   2   7 157.133 4.31847   2
   8   2   7 917.966 21.5502   2
  10   2   7 155.216 5.10001  -1
   2   2  15 155.216 5.10001   2
  12   2   7 75.1062 4.27020   2
  14   2   7 44.6590 5.56840   2
 -13   3   7 64.0233 6.61989  -1
  -9   3  15 64.0233 6.61989   2
 -11   3   7 39.8044 3.13276   2
  -9   3   7 182.517 15.0104  -1
  -7   3   9 182.517 15.0104   2
  -9   3   7 221.498 7.13714   2
  -7   3   7 27.7049 3.00057  -1
  -7   3   7 27.7049 3.00057   2
  -5   3   7 108.121 3.94821   2
  -3   3   7 8.10559 2.09198   2
  -1   3   7 97.9315 4.61760  -1
   5   3   1 97.9315 4.61760   2
   1   3   7 347.269 10.1463  -1
   5   3   3 347.269 10.1463   2
   3   3   7 272.644 7.95360   2
   5   3   7 81.6038 6.41439  -1
   3   3   9 81.6038 6.41439   2
   7   3   7 244.763 7.76107  -1
   3   3  11 244.763 7.76107   2
   9   3   7 6.01082 3.25442   2
  11   3   7 0.97317 3.53521   2
  -8   4   7 13.0473 3.83968   2
  -6   4   7 0.31024 3.45781   2
  -4   4   7 71.3230 5.54620  -1
  -6   4   3 71.3230 5.54620   2
  -2   4   7 86.2199 7.31719  -1
  -6   4   1 86.2199 7.31719   2
   0   4   7 7.18992 3.46180   2
   2   4   7 913.018 28.8219  -1
   4   4   5 913.018 28.8219   2
   4   4   7 159.464 9.53169  -1
   4   4   7 159.464 9.53169   2
 -18   0   8 371.691 14.5921   2
 -16   0   8 42.7443 2.94014   2
 -16   0   8 72.1831 9.48604  -1
 -10   0  18 72.1831 9.48604   2
 -14   0   8 1013.82 37.6637  -1
 -10   0  16 1013.82 37.6637   2
 -10   0   8 487.495 18.1872   2
  -8   0   8 233.874 8.93777  -1
  -8   0   8 233.874 8.93777   2
  -6   0   8 1312.26 48.2768   2
  -2   0   8 4343.51 225.900  -1
   6   0   0 4343.51 225.900   2
   0   0   8 421.716 15.5740   2
   2   0   8 4986.68 258.486   2
 -17   1   8 12.3187 2.13121   2
 -15   1   8 40.3605 2.37964   2
 -11   1   8 739.507 19.4361  -1
  -9   1  12 739.507 19.4361   2
  -9   1   8 2.91456 1.03423   2
  -7   1   8 2.40977 0.88896   2
  -5   1   8 4170.46 108.258  -1
  -7   1   4 4170.46 108.258   2
  -3   1   8 348.793 9.22378   2
  -1   1   8 944.768 24.5900   2
   1   1   8 2082.27 48.3346   2
   1   1   8 1911.13 99.7509  -1
   5   1   4 1911.13 99.7509   2
   3   1   8 606.303 18.4523  -1
   5   1   6 606.303 18.4523   2
   5   1   8 12.3155 1.66257   2
   7   1   8 46.1490 2.96670   2
   9   1   8 2839.24 104.333  -1
   3   1  14 2839.24 104.333   2
  11   1   8 -0.1427 1.91974   2
  13   1   8 2.37545 2.53925   2
  15   1   8 18.3566 11.1857  -1
   1   1  22 18.3566 11.1857   2
 -16   2   8 211.486 8.09086  -1
 -10   2  18 211.486 8.09086   2
 -14   2   8 28.2816 4.55396  -1
 -10   2  16 28.2816 4.55396   2
 -12   2   8 254.834 7.47456   2
 -10   2   8 464.287 12.5303   2
  -8   2   8 40.1238 2.53816  -1
  -8   2   8 40.1238 2.53816   2
  -6   2   8 52.6807 2.66407   2
  -4   2   8 11.3111 1.40805   2
  -2   2   8 369.654 10.0960  -1
   6   2   0 369.654 10.0960   2
   0   2   8 441.743 13.7431  -1
   6   2   2 441.743 13.7431   2
   2   2   8 265.042 6.51947   2
   4   2   8 5.10626 1.39021   2
   6   2   8 273.939 7.63934  -1
   4   2  10 273.939 7.63934   2
   8   2   8 0.97466 1.67788   2
  10   2   8 304.506 10.2468   2
  12   2   8 64.5840 8.37038  -1
   2   2  18 64.5840 8.37038   2
 -13   3   8 136.521 9.19762  -1
  -9   3  14 136.521 9.19762   2
 -11   3   8 299.939 9.29447  -1
  -9   3  12 299.939 9.29447   2
  -9   3   8 40.1146 2.97316   2
  -7   3   8 169.646 5.22334   2
  -5   3   8 116.612 4.91639  -1
  -7   3   4 116.612 4.91639   2
  -3   3   8 23.4242 5.37663  -1
  -7   3   2 23.4242 5.37663   2
  -1   3   8 12.7107 2.02644   2
   1   3   8 8.59724 4.27525  -1
   5   3   4 8.59724 4.27525   2
   3   3   8 265.871 8.19322  -1
   5   3   6 265.871 8.19322   2
   5   3   8 -0.4900 2.47108   2
   7   3   8 87.2205 5.13254   2
   9   3   8 24.8967 4.82403  -1
   3   3  14 24.8967 4.82403   2
  -8   4   8 172.669 10.4250  -1
  -8   4   8 172.669 10.4250   2
  -6   4   8 44.0558 9.70198  -1
  -8   4   6 44.0558 9.70198   2
  -4   4   8 7.23893 3.13833   2
  -2   4   8 42.7051 6.22015  -1
   6   4   0 42.7051 6.22015   2
   0   4   8 229.735 10.7856  -1
   6   4   2 229.735 10.7856   2
   2   4   8 6.23076 3.74588   2
   4   4   8 49.1497 9.83775  -1
   4   4   8 49.1497 9.83775   2
 -18   0   9 1.49777 2.66288   2
 -16   0   9 0.65204 2.09569   2
 -14   0   9 0.94377 1.55233   2
 -10   0   9 -0.9249 1.15734   2
  -8   0   9 0.31828 0.99934   2
  -4   0   9 2.78690 0.89093   2
  -2   0   9 1.11547 0.83347   2
   0   0   9 0.87154 1.00123   2
 -17   1   9 99.5356 4.29848   2
 -17   1   9 103.602 11.8785  -1
 -11   1  19 103.602 11.8785   2
 -15   1   9 76.4950 4.52017  -1
 -11   1  17 76.4950 4.52017   2
 -13   1   9 609.932 16.1499   2
 -11   1   9 426.422 11.3959   2
  -9   1   9 1807.50 47.0291  -1
  -9   1   9 1807.50 47.0291   2
  -7   1   9 19.7992 1.17669   2
  -5   1   9 23.7499 1.18973   2
  -3   1   9 948.450 24.7723  -1
  -7   1   1 948.450 24.7723   2
   1   1   9 546.840 12.7963   2
   3   1   9 606.495 22.4610   2
   5   1   9 5.55570 2.72494  -1
   5   1   9 5.55570 2.72494   2
   7   1   9 123.980 5.48703   2
   9   1   9 1470.36 54.1412   2
  11   1   9 122.565 7.17426  -1
   3   1  17 122.565 7.17426   2
 -16   2   9 127.348 5.58104   2
 -14   2   9 8.86988 2.37008   2
 -14   2   9 117.522 12.5680  -1
 -10   2  15 117.522 12.5680   2
 -12   2   9 696.649 18.5651  -1
 -10   2  13 696.649 18.5651   2
 -10   2   9 183.207 5.65728   2
  -8   2   9 166.968 5.13591   2
  -6   2   9 58.1908 3.07293  -1
  -8   2   5 58.1908 3.07293   2
  -4   2   9 472.986 12.6034   2
  -2   2   9 279.127 6.87618   2
   0   2   9 399.755 12.6067  -1
   6   2   3 399.755 12.6067   2
   2   2   9 371.514 10.1489  -1
   6   2   5 371.514 10.1489   2
   4   2   9 271.034 7.49098   2
   6   2   9 371.257 10.0487   2
   8   2   9 42.0730 4.61922  -1
   4   2  13 42.0730 4.61922   2
  10   2   9 470.034 18.3979   2
  12   2   9 115.163 7.38386   2
 -13   3   9 37.9413 3.63025   2
 -11   3   9 89.5431 4.37800   2
  -9   3   9 79.5035 4.43897  -1
  -9   3   9 79.5035 4.43897   2
  -5   3   9 67.1207 2.83722   2
  -3   3   9 239.760 7.65513  -1
  -7   3   1 239.760 7.65513   2
  -1   3   9 97.9240 5.25267  -1
   7   3   1 97.9240 5.25267   2
   1   3   9 -0.9069 2.12294   2
   3   3   9 110.211 7.16322  -1
   5   3   7 110.211 7.16322   2
   5   3   9 115.990 5.32436  -1
   5   3   9 115.990 5.32436   2
   7   3   9 -3.0411 2.92487   2
   9   3   9 -1.8317 3.59831   2
  -6   4   9 259.837 9.00452  -1
  -8   4   5 259.837 9.00452   2
  -4   4   9 147.501 8.58077  -1
  -8   4   3 147.501 8.58077   2
  -2   4   9 75.1741 3.88230   2
   0   4   9 498.571 17.4645  -1
   6   4   3 498.571 17.4645   2
   2   4   9 395.396 14.5748  -1
   6   4   5 395.396 14.5748   2
 -16   0  10 300.936 12.3790  -1
 -12   0  18 300.936 12.3790   2
 -14   0  10 0.55684 1.57600   2
 -12   0  10 185.777 7.49043   2
 -10   0  10 486.611 18.1821  -1
 -10   0  10 486.611 18.1821   2
  -8   0  10 28.5278 2.22645   2
  -6   0  10 148.194 5.85896   2
  -4   0  10 1034.39 53.9082  -1
  -8   0   2 1034.39 53.9082   2
  -2   0  10 5660.14 207.851  -1
   8   0   0 5660.14 207.851   2
   0   0  10 1348.21 49.5261   2
   2   0  10 1115.21 40.9501   2
 -17   1  10 6.70076 2.11623   2
 -15   1  10 7.57191 1.63548   2
 -13   1  10 390.847 10.5995  -1
 -11   1  14 390.847 10.5995   2
 -11   1  10 1890.34 49.1985   2
  -9   1  10 126.646 3.89920   2
  -7   1  10 3.38811 1.42560  -1
  -9   1   6 3.38811 1.42560   2
  -5   1  10 10.0845 0.99625   2
  -3   1  10 2160.97 56.1239   2
  -1   1  10 706.584 18.4506   2
   1   1  10 222.664 6.10182  -1
   7   1   4 222.664 6.10182   2
   3   1  10 986.750 36.3670   2
   5   1  10 20.4475 1.93967   2
   7   1  10 5.00379 2.77424  -1
   5   1  12 5.00379 2.77424   2
   9   1  10 329.727 12.7038   2
  11   1  10 848.077 31.5772   2
  13   1  10 51.5765 8.72291  -1
   3   1  20 51.5765 8.72291   2
 -16   2  10 14.9608 5.33533  -1
 -12   2  18 14.9608 5.33533   2
 -14   2  10 2.17661 2.45221   2
 -12   2  10 891.359 23.5207   2
 -10   2  10 858.802 22.6239  -1
 -10   2  10 858.802 22.6239   2
  -8   2  10 149.970 4.80288   2
  -6   2  10 104.516 3.72480   2
  -4   2  10 487.564 13.1044  -1
  -8   2   2 487.564 13.1044   2
  -2   2  10 164.959 6.40454  -1
   8   2   0 164.959 6.40454   2
   0   2  10 5.64123 1.27805   2
   2   2  10 164.475 4.39048   2
   4   2  10 373.299 10.1634  -1
   6   2   8 373.299 10.1634   2
   6   2  10 6.10690 2.82042   2
   8   2  10 0.74597 3.38060   2
  10   2  10 145.728 9.05270  -1
   4   2  16 145.728 9.05270   2
  12   2  10 27.1843 18.9110  -1
   4   2  18 27.1843 18.9110   2
 -13   3  10 175.925 7.18871  -1
 -11   3  14 175.925 7.18871   2
 -11   3  10 275.616 8.71391   2
  -9   3  10 30.6664 2.93590   2
  -7   3  10 429.820 12.0496  -1
  -9   3   6 429.820 12.0496   2
  -5   3  10 43.4572 6.36993  -1
  -9   3   4 43.4572 6.36993   2
  -3   3  10 7.32947 2.24844   2
  -1   3  10 156.444 6.30626  -1
   7   3   2 156.444 6.30626   2
   1   3  10 1954.13 51.0267  -1
   7   3   4 1954.13 51.0267   2
   3   3  10 219.536 6.93833   2
   5   3  10 107.129 5.82694   2
   7   3  10 72.4023 5.61208  -1
   5   3  12 72.4023 5.61208   2
  -6   4  10 334.786 10.6148   2
  -4   4  10 143.892 7.72443  -1
  -8   4   2 143.892 7.72443   2
  -2   4  10 3.50316 8.35340  -1
   8   4   0 3.50316 8.35340   2
   0   4  10 55.3393 4.23727   2
   2   4  10 83.4761 10.0450  -1
   6   4   6 83.4761 10.0450   2
 -18   0  11 -2.3937 2.67367   2
 -16   0  11 -0.0988 2.20127   2
 -12   0  11 1.82670 1.42809   2
 -10   0  11 1.79924 1.27265   2
  -6   0  11 0.42185 1.01846   2
  -4   0  11 0.34015 1.04736   2
  -2   0  11 0.72730 0.99010   2
   2   0  11 -0.2752 0.87974   2
 -17   1  11 140.588 5.67181  -1
 -13   1  19 140.588 5.67181   2
 -15   1  11 6.40726 1.59958   2
 -13   1  11 11.7686 1.46995   2
 -11   1  11 1578.42 41.1328  -1
 -11   1  11 1578.42 41.1328   2
  -9   1  11 242.247 6.71041   2
  -7   1  11 66.7363 2.50603   2
  -5   1  11 979.151 25.6117  -1
  -9   1   3 979.151 25.6117   2
  -3   1  11 1004.93 52.5731  -1
  -9   1   1 1004.93 52.5731   2
  -1   1  11 173.291 4.80896   2
   1   1  11 490.296 11.5241   2
   3   1  11 500.432 18.7140  -1
   7   1   7 500.432 18.7140   2
   5   1  11 253.001 9.77425   2
   7   1  11 1.91057 2.02936   2
   9   1  11 660.365 24.8479  -1
   5   1  15 660.365 24.8479   2
  11   1  11 426.949 24.9989  -1
   5   1  17 426.949 24.9989   2
  13   1  11 63.5385 7.78359   2
 -16   2  11 10.7005 11.7416  -1
 -12   2  17 10.7005 11.7416   2
 -14   2  11 26.7570 3.61081  -1
 -12   2  15 26.7570 3.61081   2
 -12   2  11 1328.05 34.7621   2
 -10   2  11 14.0831 1.92667   2
  -8   2  11 361.012 10.0273  -1
 -10   2   7 361.012 10.0273   2
  -4   2  11 859.704 22.5697   2
  -2   2  11 569.057 15.2536  -1
   8   2   1 569.057 15.2536   2
   0   2  11 177.263 5.61207  -1
   8   2   3 177.263 5.61207   2
   2   2  11 4.80476 1.39226   2
   4   2  11 -1.3307 1.51477   2
   6   2  11 85.4683 5.41566  -1
   6   2  11 85.4683 5.41566   2
   8   2  11 31.5879 3.94605   2
  10   2  11 17.5018 4.53510   2
  12   2  11 57.6192 6.20473   2
 -13   3  11 18.5380 3.38713   2
 -11   3  11 40.3929 4.66548  -1
 -11   3  11 40.3929 4.66548   2
  -9   3  11 490.643 13.6132   2
  -7   3  11 520.195 12.7541   2
  -5   3  11 366.146 10.7036  -1
  -9   3   3 366.146 10.7036   2
  -3   3  11 29.4641 4.88357  -1
  -9   3   1 29.4641 4.88357   2
  -1   3  11 60.2233 3.00151   2
   1   3  11 262.281 12.8339  -1
   7   3   5 262.281 12.8339   2
   3   3  11 239.702 7.60597  -1
   7   3   7 239.702 7.60597   2
   5   3  11 12.3133 2.87267   2
   7   3  11 137.021 7.01507   2
  -4   4  11 33.1828 3.66663   2
  -2   4  11 16.2287 8.71895  -1
   8   4   1 16.2287 8.71895   2
   0   4  11 396.690 15.0563  -1
   8   4   3 396.690 15.0563   2
 -18   0  12 182.149 9.53459  -1
 -14   0  20 182.149 9.53459   2
 -16   0  12 238.343 9.64046   2
 -14   0  12 90.3635 4.67212   2
 -12   0  12 21.0381 2.66607  -1
 -12   0  12 21.0381 2.66607   2
 -10   0  12 58.7806 3.29331   2
  -8   0  12 2122.46 78.0269   2
  -6   0  12 246.161 9.59311  -1
 -10   0   4 246.161 9.59311   2
  -4   0  12 126.288 5.16270   2
  -2   0  12 112.354 4.62419   2
   0   0  12 1487.77 54.6704   2
   2   0  12 1451.08 53.6086  -1
   8   0   6 1451.08 53.6086   2
 -17   1  12 92.0345 4.12663   2
 -15   1  12 166.832 5.27754  -1
 -13   1  16 166.832 5.27754   2
 -13   1  12 63.7666 2.97977   2
 -11   1  12 72.1353 2.94300   2
  -9   1  12 1090.27 32.9128  -1
 -11   1   8 1090.27 32.9128   2
  -7   1  12 34.1550 1.57284   2
  -5   1  12 56.8106 2.31515   2
  -3   1  12 22.3854 1.25829   2
  -3   1  12 22.3784 5.12460  -1
   9   1   0 22.3784 5.12460   2
  -1   1  12 1341.77 34.9863  -1
   9   1   2 1341.77 34.9863   2
   1   1  12 19.4504 1.07312   2
   3   1  12 56.2454 3.38416   2
   5   1  12 6.21404 2.86627  -1
   7   1  10 6.21404 2.86627   2
   7   1  12 48.5870 3.73330   2
   9   1  12 34.8126 2.89671   2
  11   1  12 240.019 14.1117  -1
   5   1  18 240.019 14.1117   2
 -16   2  12 27.0772 2.78921   2
 -14   2  12 56.0729 3.40880   2
 -14   2  12 177.542 14.7360  -1
 -12   2  14 177.542 14.7360   2
 -12   2  12 3.93051 3.15849  -1
 -12   2  12 3.93051 3.15849   2
 -10   2  12 755.848 20.0261   2
  -8   2  12 39.7788 2.19827   2
  -6   2  12 651.901 17.4335  -1
 -10   2   4 651.901 17.4335   2
  -4   2  12 136.368 5.19841  -1
 -10   2   2 136.368 5.19841   2
  -2   2  12 331.735 8.15101   2
   0   2  12 27.2832 1.69630   2
   0   2  12 182.944 12.2901  -1
   8   2   4 182.944 12.2901   2
   2   2  12 1805.93 47.0459  -1
   8   2   6 1805.93 47.0459   2
   4   2  12 729.990 19.2072   2
   6   2  12 77.1090 5.60385   2
   8   2  12 154.410 9.05082  -1
   6   2  14 154.410 9.05082   2
  10   2  12 364.601 25.9867  -1
   6   2  16 364.601 25.9867   2
 -11   3  12 831.499 22.3253   2
  -9   3  12 237.628 8.00997  -1
 -11   3   8 237.628 8.00997   2
  -7   3  12 57.5391 6.35805  -1
 -11   3   6 57.5391 6.35805   2
  -5   3  12 1377.29 32.3001   2
  -3   3  12 405.597 11.8159  -1
   9   3   0 405.597 11.8159   2
  -1   3  12 32.0239 4.80580  -1
   9   3   2 32.0239 4.80580   2
   1   3  12 74.8431 3.25019   2
   3   3  12 10.0382 2.81106   2
   5   3  12 61.7006 5.00599  -1
   7   3  10 61.7006 5.00599   2
   7   3  12 10.9308 3.57975   2
 -18   0  13 0.01106 2.65392   2
 -14   0  13 -0.3547 1.77669   2
 -12   0  13 1.98843 1.59132   2
  -8   0  13 1.77073 1.24488   2
  -6   0  13 -1.0561 1.23564   2
  -4   0  13 1.29939 1.18615   2
   0   0  13 0.23263 1.18938   2
   2   0  13 -0.7258 1.08176   2
 -17   1  13 228.627 7.01341   2
 -15   1  13 2.99975 1.67134   2
 -13   1  13 23.0280 2.41518  -1
 -13   1  13 23.0280 2.41518   2
 -11   1  13 37.9952 1.85929   2
  -9   1  13 17.1295 1.41087   2
  -7   1  13 307.739 12.1089  -1
 -11   1   5 307.739 12.1089   2
  -5   1  13 158.444 7.17861  -1
 -11   1   3 158.444 7.17861   2
  -3   1  13 393.734 10.4813   2
  -1   1  13 162.239 4.63496   2
   1   1  13 594.903 15.6468  -1
   9   1   5 594.903 15.6468   2
   3   1  13 19.4405 2.07998   2
   5   1  13 225.152 8.95872   2
   7   1  13 32.5657 4.51131  -1
   7   1  13 32.5657 4.51131   2
   9   1  13 12.6879 2.47403   2
   9   1  13 -0.8660 9.56173  -1
   7   1  15 -0.8660 9.56173   2
 -14   2  13 18.6709 2.62793   2
 -12   2  13 11.9848 2.27058   2
 -10   2  13 533.805 14.4239  -1
 -12   2   9 533.805 14.4239   2
  -8   2  13 12.4308 1.96104   2
  -6   2  13 816.820 21.5188   2
  -4   2  13 626.941 23.9002  -1
 -10   2   1 626.941 23.9002   2
  -2   2  13 337.572 9.58520  -1
  10   2   1 337.572 9.58520   2
   0   2  13 143.348 4.15320   2
   2   2  13 123.829 3.78044   2
   4   2  13 44.9801 4.09192  -1
   8   2   9 44.9801 4.09192   2
   6   2  13 7.91172 3.46034   2
   8   2  13 2.15835 4.29924   2
  10   2  13 585.914 24.6723  -1
   6   2  17 585.914 24.6723   2
 -11   3  13 333.702 10.1378   2
  -9   3  13 11.1394 3.01155   2
  -7   3  13 315.718 9.97959  -1
 -11   3   5 315.718 9.97959   2
  -5   3  13 423.076 12.5430  -1
 -11   3   3 423.076 12.5430   2
  -3   3  13 289.098 7.73358   2
  -1   3  13 149.257 8.23102  -1
   9   3   3 149.257 8.23102   2
   1   3  13 452.965 12.7231  -1
   9   3   5 452.965 12.7231   2
   3   3  13 117.143 6.25156   2
   5   3  13 113.729 6.30985   2
   7   3  13 140.931 11.1489  -1
   7   3  13 140.931 11.1489   2
 -16   0  14 321.023 12.6345   2
 -14   0  14 66.0873 4.09467  -1
 -14   0  14 66.0873 4.09467   2
 -12   0  14 332.655 12.7675   2
 -10   0  14 3.83326 1.52808   2
  -8   0  14 641.467 23.9778  -1
 -12   0   6 641.467 23.9778   2
  -6   0  14 3.64278 1.42309   2
  -4   0  14 1469.21 54.0842   2
  -2   0  14 94.0768 4.20855   2
   0   0  14 472.054 17.6259  -1
  10   0   4 472.054 17.6259   2
   2   0  14 53.0534 2.39994   2
 -17   1  14 242.244 14.0371  -1
 -15   1  18 242.244 14.0371   2
 -15   1  14 14.8875 1.85141   2
 -13   1  14 7.12743 1.61650   2
 -11   1  14 330.000 10.4559  -1
 -13   1  10 330.000 10.4559   2
  -9   1  14 1253.79 65.7647  -1
 -13   1   8 1253.79 65.7647   2
  -9   1  14 16.4252 1.46401   2
  -7   1  14 370.029 9.98017   2
  -5   1  14 1557.24 81.2674  -1
 -11   1   2 1557.24 81.2674   2
  -5   1  14 1823.25 47.4360   2
  -3   1  14 374.988 11.8195  -1
  11   1   0 374.988 11.8195   2
  -1   1  14 4.83402 1.16005   2
   1   1  14 28.4058 1.39917   2
   3   1  14 3858.89 115.706  -1
   9   1   8 3858.89 115.706   2
   5   1  14 60.9255 4.09219   2
   7   1  14 42.1479 2.96465   2
 -14   2  14 236.772 10.3150  -1
 -14   2  14 236.772 10.3150   2
 -10   2  14 -1.5430 2.21120   2
  -8   2  14 168.931 5.92592  -1
 -12   2   6 168.931 5.92592   2
  -6   2  14 230.919 7.57990  -1
 -12   2   4 230.919 7.57990   2
  -4   2  14 1309.68 34.2335   2
  -2   2  14 11.2461 1.95659   2
   0   2  14 414.967 11.3088  -1
  10   2   4 414.967 11.3088   2
   2   2  14 107.682 4.11875   2
   4   2  14 236.460 10.0894   2
   6   2  14 135.208 8.67467  -1
   8   2  12 135.208 8.67467   2
   8   2  14 -0.4500 11.5763  -1
   8   2  14 -0.4500 11.5763   2
 -11   3  14 187.800 7.57535  -1
 -13   3  10 187.800 7.57535   2
  -9   3  14 105.476 10.3824  -1
 -13   3   8 105.476 10.3824   2
  -7   3  14 -2.3506 2.70171   2
  -5   3  14 195.532 8.04462  -1
 -11   3   2 195.532 8.04462   2
  -3   3  14 162.450 6.95775  -1
  11   3   0 162.450 6.95775   2
  -1   3  14 104.946 5.05035   2
   1   3  14 22.2892 3.18552   2
   3   3  14 31.3942 4.98554  -1
   9   3   8 31.3942 4.98554   2
   5   3  14 27.6988 20.0277  -1
   9   3  10 27.6988 20.0277   2
   5   3  14 37.1471 4.35563   2
 -16   0  15 -0.2607 2.33475   2
 -14   0  15 0.90264 1.94700   2
 -10   0  15 0.21525 1.53912   2
  -8   0  15 0.60789 1.43462   2
  -6   0  15 0.21448 1.34824   2
  -2   0  15 -1.7981 1.46388   2
   0   0  15 1.66859 1.47161   2
 -15   1  15 62.6925 3.32324  -1
 -15   1  15 62.6925 3.32324   2
 -13   1  15 75.2314 3.33368   2
 -11   1  15 54.4876 2.87814   2
  -9   1  15 1853.91 68.3547  -1
 -13   1   7 1853.91 68.3547   2
  -5   1  15 1144.76 29.8969   2
  -3   1  15 19.7042 1.44062   2
  -1   1  15 18.5637 2.30928  -1
  11   1   3 18.5637 2.30928   2
   1   1  15 577.933 13.6382   2
   3   1  15 38.5645 2.81079   2
   5   1  15 715.078 26.7790  -1
   9   1  11 715.078 26.7790   2
 -14   2  15 7.88583 2.45475   2
 -12   2  15 32.2826 4.19611  -1
 -14   2  11 32.2826 4.19611   2
  -8   2  15 118.760 4.55359   2
  -6   2  15 271.290 12.1341  -1
 -12   2   3 271.290 12.1341   2
  -4   2  15 1249.61 32.8242  -1
 -12   2   1 1249.61 32.8242   2
  -2   2  15 1.10071 1.75301   2
   0   2  15 109.402 4.21389   2
   2   2  15 202.309 5.47412  -1
  10   2   7 202.309 5.47412   2
   4   2  15 175.783 8.47638   2
   6   2  15 -2.1372 3.98599   2
   8   2  15 97.7899 12.1343  -1
   8   2  15 97.7899 12.1343   2
  -9   3  15 46.4621 6.18115  -1
 -13   3   7 46.4621 6.18115   2
  -7   3  15 49.8691 6.94129  -1
 -13   3   5 49.8691 6.94129   2
  -5   3  15 24.3105 2.82250   2
  -3   3  15 -9.1060 7.74510  -1
  11   3   1 -9.1060 7.74510   2
  -1   3  15 3.69349 4.74280  -1
  11   3   3 3.69349 4.74280   2
   1   3  15 24.9205 3.37778   2
   3   3  15 56.9751 4.43851   2
 -16   0  16 1854.74 68.4076  -1
 -16   0  16 1854.74 68.4076   2
 -14   0  16 0.95069 2.14881   2
 -12   0  16 81.4949 4.59300   2
 -10   0  16 939.202 34.9172  -1
 -14   0   8 939.202 34.9172   2
  -8   0  16 3.98288 1.64426   2
  -6   0  16 47.1011 3.18823   2
  -4   0  16 5088.41 186.704   2
  -2   0  16 1683.31 61.9749  -1
  12   0   2 1683.31 61.9749   2
   0   0  16 126.254 5.49425   2
   2   0  16 261.517 9.96807   2
 -15   1  16 27.6153 2.05481   2
 -13   1  16 179.485 5.61389  -1
 -15   1  12 179.485 5.61389   2
 -11   1  16 277.744 7.80001   2
  -9   1  16 102.859 3.71061   2
  -7   1  16 46.8922 5.35028  -1
 -13   1   4 46.8922 5.35028   2
  -7   1  16 40.9184 1.98753   2
  -5   1  16 69.5435 4.11858  -1
 -13   1   2 69.5435 4.11858   2
  -3   1  16 3264.78 84.7857   2
  -1   1  16 11.3336 1.52709   2
   1   1  16 15.4408 1.69636  -1
  11   1   6 15.4408 1.69636   2
   3   1  16 20.7651 2.77843   2
   5   1  16 306.550 12.1602   2
 -14   2  16 7.51993 2.62565   2
 -12   2  16 36.9755 2.73366   2
 -10   2  16 26.6242 4.55617  -1
 -14   2   8 26.6242 4.55617   2
  -8   2  16 28.8984 6.15299  -1
 -14   2   6 28.8984 6.15299   2
  -6   2  16 174.306 5.71672   2
  -4   2  16 5.78096 2.12194   2
  -2   2  16 63.4355 4.04395  -1
  12   2   2 63.4355 4.04395   2
   0   2  16 4.61608 2.14557   2
   2   2  16 138.431 4.93188   2
   4   2  16 196.181 10.5590  -1
  10   2  10 196.181 10.5590   2
   6   2  16 518.508 22.1119  -1
  10   2  12 518.508 22.1119   2
  -9   3  16 172.010 7.02669   2
  -7   3  16 538.587 16.0092  -1
 -13   3   4 538.587 16.0092   2
  -5   3  16 238.879 10.3838  -1
 -13   3   2 238.879 10.3838   2
  -3   3  16 5.48817 3.09794   2
  -1   3  16 148.678 6.30696   2
   1   3  16 79.1478 6.18157  -1
  11   3   6 79.1478 6.18157   2
   3   3  16 0.36546 3.99169   2
 -16   0  17 2.69797 2.63620   2
 -12   0  17 -0.0989 2.02024   2
 -10   0  17 -0.0332 1.88496   2
  -8   0  17 -0.9108 1.71058   2
  -4   0  17 -0.6538 1.77370   2
  -2   0  17 1.98877 1.97838   2
 -15   1  17 75.1891 4.06197   2
 -13   1  17 53.5762 2.87586   2
 -11   1  17 97.1440 5.65979  -1
 -15   1   9 97.1440 5.65979   2
  -7   1  17 36.4046 2.00901   2
  -5   1  17 32.3204 1.83925   2
  -3   1  17 878.480 23.0840  -1
  13   1   1 878.480 23.0840   2
  -1   1  17 321.912 8.87742   2
   1   1  17 0.94643 2.18456   2
   3   1  17 110.358 8.23965  -1
  11   1   9 110.358 8.23965   2
   5   1  17 362.597 21.8885  -1
  11   1  11 362.597 21.8885   2
 -12   2  17 5.58216 12.7974  -1
 -16   2  11 5.58216 12.7974   2
 -10   2  17 0.04800 2.39009   2
  -8   2  17 498.878 16.5168  -1
 -14   2   5 498.878 16.5168   2
  -6   2  17 1346.50 35.4625  -1
 -14   2   3 1346.50 35.4625   2
  -4   2  17 5.22343 2.21687   2
  -2   2  17 261.720 6.99783   2
   0   2  17 222.263 6.88430  -1
  12   2   5 222.263 6.88430   2
   2   2  17 148.661 8.02520   2
   4   2  17 7.22003 4.19192   2
   6   2  17 827.366 32.6822  -1
  10   2  13 827.366 32.6822   2
  -7   3  17 89.8510 4.11647   2
  -5   3  17 28.2397 10.4575  -1
 -13   3   1 28.2397 10.4575   2
  -3   3  17 1.89816 5.72917  -1
  13   3   1 1.89816 5.72917   2
  -1   3  17 2.11098 3.27902   2
   1   3  17 95.5522 5.39791   2
 -14   0  18 11.0576 2.55681   2
 -12   0  18 273.830 11.5548  -1
 -16   0  10 273.830 11.5548   2
  -8   0  18 124.019 5.77322   2
  -6   0  18 3.46628 2.03587   2
  -4   0  18 1502.12 55.3799  -1
  14   0   0 1502.12 55.3799   2
  -2   0  18 2985.36 109.690   2
   0   0  18 87.7317 4.97982   2
 -15   1  18 337.600 11.2883  -1
 -17   1  14 337.600 11.2883   2
 -13   1  18 32.2390 2.05830   2
 -11   1  18 10.8519 1.75735   2
  -9   1  18 153.075 4.94535   2
  -7   1  18 788.532 20.9749  -1
 -15   1   4 788.532 20.9749   2
  -5   1  18 25.1896 1.85594   2
  -3   1  18 238.513 6.93715   2
  -1   1  18 532.402 14.2473  -1
  13   1   4 532.402 14.2473   2
   1   1  18 87.0951 5.62098   2
   3   1  18 13.1769 3.32669   2
   5   1  18 592.926 32.6515  -1
  11   1  12 592.926 32.6515   2
 -12   2  18 14.4996 5.47108  -1
 -16   2  10 14.4996 5.47108   2
 -10   2  18 190.565 9.23139  -1
 -16   2   8 190.565 9.23139   2
  -8   2  18 7.58471 2.42258   2
  -6   2  18 24.6199 13.0477  -1
 -14   2   2 24.6199 13.0477   2
  -4   2  18 252.175 8.01920  -1
  14   2   0 252.175 8.01920   2
  -2   2  18 412.212 10.3287   2
   0   2  18 122.529 5.06017   2
   2   2  18 36.2688 7.81274  -1
  12   2   8 36.2688 7.81274   2
   4   2  18 91.6271 13.5599  -1
  12   2  10 91.6271 13.5599   2
  -5   3  18 -1.2552 3.33433   2
  -3   3  18 84.4507 4.54741   2
 -14   0  19 -0.0763 2.63378   2
 -12   0  19 -0.0096 2.25152   2
 -10   0  19 -2.4168 2.12389   2
  -6   0  19 -0.7864 2.24778   2
  -4   0  19 0.29115 2.47501   2
   0   0  19 2.37145 2.63094   2
 -13   1  19 190.972 8.08631  -1
 -17   1  11 190.972 8.08631   2
  -9   1  19 90.4615 3.82462   2
  -7   1  19 10.4586 1.80067   2
  -5   1  19 79.5431 3.68766  -1
 -15   1   1 79.5431 3.68766   2
  -3   1  19 1119.43 29.3493   2
  -1   1  19 9.72610 2.09636   2
   3   1  19 152.332 16.8963  -1
  13   1   9 152.332 16.8963   2
   3   1  19 78.0040 5.29810   2
 -10   2  19 441.258 15.3908  -1
 -16   2   7 441.258 15.3908   2
  -8   2  19 32.6797 6.08127  -1
 -16   2   5 32.6797 6.08127   2
  -6   2  19 7.71377 2.51461   2
  -4   2  19 104.060 4.86247   2
  -2   2  19 115.665 6.28487  -1
  14   2   3 115.665 6.28487   2
   0   2  19 34.7578 3.08132   2
   2   2  19 0.64274 4.70692   2
 -14   0  20 243.887 11.4284  -1
 -18   0  12 243.887 11.4284   2
 -12   0  20 186.347 8.31416   2
 -12   0  20 168.598 13.7585  -1
 -18   0  10 168.598 13.7585   2
 -10   0  20 76.5083 5.13101   2
  -8   0  20 12.8838 2.65222   2
  -6   0  20 192.687 8.19842  -1
 -16   0   2 192.687 8.19842   2
  -4   0  20 39.6909 3.51716   2
  -2   0  20 407.757 15.9089   2
   0   0  20 228.479 9.85198  -1
  14   0   6 228.479 9.85198   2
 -13   1  20 4.11006 2.04843   2
 -11   1  20 111.931 4.46497   2
  -9   1  20 24.3657 4.56709  -1
 -17   1   6 24.3657 4.56709   2
  -7   1  20 5.07898 1.96385   2
  -5   1  20 29.8418 2.27485   2
  -3   1  20 731.949 22.5506  -1
  15   1   2 731.949 22.5506   2
  -1   1  20 262.337 7.89930   2
   1   1  20 47.3923 4.10511   2
   3   1  20 61.7187 9.84780  -1
  13   1  10 61.7187 9.84780   2
 -10   2  20 256.507 8.15835   2
  -8   2  20 302.648 22.3143  -1
 -16   2   4 302.648 22.3143   2
  -8   2  20 296.453 8.90136   2
  -6   2  20 184.174 6.97831  -1
 -16   2   2 184.174 6.97831   2
  -4   2  20 3.77716 2.85425   2
  -2   2  20 429.060 11.0018   2
   2   2  20 5.80366 5.69562   2
 -12   0  21 0.77287 2.88918   2
  -8   0  21 -1.0521 2.98416   2
  -6   0  21 0.23327 3.07005   2
  -2   0  21 0.28403 3.41493   2
   0   0  21 2.93743 3.59473   2
 -11   1  21 0.34141 2.10436   2
  -9   1  21 56.6114 2.82051   2
  -7   1  21 88.3918 4.28840  -1
 -17   1   3 88.3918 4.28840   2
  -5   1  21 9.40658 2.19501   2
  -3   1  21 8.38734 2.49375   2
  -1   1  21 399.583 13.3776  -1
  15   1   5 399.583 13.3776   2
   1   1  21 78.0806 5.41019   2
   1   1  21 85.5739 15.8497  -1
  15   1   7 85.5739 15.8497   2
   3   1  21 5.93970 4.66801   2
  -8   2  21 16.4274 3.02068   2
  -6   2  21 2.44334 3.00240   2
  -4   2  21 83.2106 5.58681  -1
  16   2   1 83.2106 5.58681   2
  -2   2  21 625.621 15.5240   2
 -10   0  22 229.260 10.2074   2
  -8   0  22 22.5269 4.58644  -1
 -18   0   4 22.5269 4.58644   2
  -6   0  22 34.2519 4.08174   2
  -4   0  22 38.3896 4.25879   2
   0   0  22 17.5419 5.22526   2
   0   0  22 84.3204 14.9917  -1
  16   0   6 84.3204 14.9917   2
  -9   1  22 489.737 13.4517   2
  -7   1  22 19.5443 2.48539   2
  -5   1  22 63.1488 4.86532  -1
  17   1   0 63.1488 4.86532   2
  -3   1  22 167.847 6.44296   2
  -1   1  22 4.25758 3.08512   2
   1   1  22 5.25074 10.3515  -1
  15   1   8 5.25074 10.3515   2
  -8   0  23 -0.3474 3.96271   2
  -4   0  23 4.36154 4.54581   2
  -2   0  23 4.94332 4.96033   2
  -7   1  23 89.4795 4.20751   2
  -5   1  23 10.2120 3.05484   2
  -3   1  23 126.665 11.0733  -1
  17   1   3 126.665 11.0733   2
   0   0   0    0.00    0.00   0
;
_shelx_hkl_checksum              28405
_shelx_shelxl_version_number     2014/7
_olex2_submission_special_instructions 'No special instructions were received'
loop_
_space_group_symop_operation_xyz
'x, y, z'
'-x, y, -z+1/2'
'x+1/2, y+1/2, z'
'-x+1/2, y+1/2, -z+1/2'
'-x, -y, -z'
'x, -y, z-1/2'
'-x+1/2, -y+1/2, -z'
'x+1/2, -y+1/2, z-1/2'
loop_
_atom_site_label
_atom_site_type_symbol
_atom_site_fract_x
_atom_site_fract_y
_atom_site_fract_z
_atom_site_U_iso_or_equiv
_atom_site_adp_type
_atom_site_occupancy
_atom_site_site_symmetry_order
_atom_site_calc_flag
_atom_site_refinement_flags_posn
_atom_site_refinement_flags_occupancy
O001 O 0.24020(8) 0.4449(4) 0.41794(7) 0.0221(4) Uani 1 1 d . .
O002 O 0.36030(9) 0.1903(4) 0.49395(7) 0.0225(4) Uani 1 1 d . .
C003 C 0.33564(11) 0.5383(5) 0.31322(9) 0.0147(4) Uani 1 1 d . .
H003 H 0.2744 0.6152 0.3019 0.018 Uiso 1 1 calc R .
C004 C 0.37644(11) 0.4014(4) 0.38182(9) 0.0138(4) Uani 1 1 d . .
C005 C 0.46711(12) 0.3051(5) 0.39951(9) 0.0156(4) Uani 1 1 d . .
H005 H 0.4955 0.2184 0.4466 0.019 Uiso 1 1 calc R .
C006 C 0.51621(11) 0.3360(5) 0.34804(9) 0.0157(4) Uani 1 1 d . .
H006 H 0.5785 0.2739 0.3605 0.019 Uiso 1 1 calc R .
C007 C 0.38404(11) 0.5628(5) 0.26142(10) 0.0156(4) Uani 1 1 d . .
H007 H 0.3556 0.6513 0.2144 0.019 Uiso 1 1 calc R .
C008 C 0.32092(11) 0.3469(5) 0.43382(9) 0.0152(4) Uani 1 1 d . .
C009 C 0.47488(12) 0.4573(5) 0.27832(9) 0.0154(4) Uani 1 1 d . .
H002 H 0.319(3) 0.143(11) 0.518(2) 0.016(10) Uiso 0.5 1 d . P
H001 H 0.202(6) 0.37(2) 0.449(4) 0.09(3) Uiso 0.5 1 d . P
loop_
_atom_site_aniso_label
_atom_site_aniso_U_11
_atom_site_aniso_U_22
_atom_site_aniso_U_33
_atom_site_aniso_U_23
_atom_site_aniso_U_13
_atom_site_aniso_U_12
O001 0.0119(7) 0.0354(8) 0.0212(7) 0.0044(5) 0.0082(6) 0.0039(5)
O002 0.0179(7) 0.0341(8) 0.0176(7) 0.0061(6) 0.0080(6) 0.0028(6)
C003 0.0092(8) 0.0173(8) 0.0186(9) -0.0016(6) 0.0056(7) 0.0002(6)
C004 0.0120(8) 0.0142(7) 0.0163(9) -0.0020(6) 0.0059(7) -0.0015(6)
C005 0.0132(8) 0.0192(9) 0.0150(9) 0.0007(7) 0.0047(7) -0.0003(7)
C006 0.0095(8) 0.0199(9) 0.0185(9) 0.0000(7) 0.0053(7) 0.0003(6)
C007 0.0139(9) 0.0174(8) 0.0162(9) 0.0006(7) 0.0051(7) -0.0001(7)
C008 0.0121(8) 0.0172(8) 0.0172(9) -0.0009(7) 0.0056(7) -0.0013(7)
C009 0.0137(9) 0.0156(8) 0.0184(9) -0.0019(6) 0.0072(7) -0.0018(6)
loop_
_atom_type_symbol
_atom_type_description
_atom_type_scat_dispersion_real
_atom_type_scat_dispersion_imag
_atom_type_scat_source
C C 0.0040 0.0020 'International Tables Vol C Tables 4.2.6.8 and 6.1.1.4'
H H 0.0000 0.0000 'International Tables Vol C Tables 4.2.6.8 and 6.1.1.4'
O O 0.0130 0.0070 'International Tables Vol C Tables 4.2.6.8 and 6.1.1.4'
loop_
_geom_angle_atom_site_label_1
_geom_angle_atom_site_label_2
_geom_angle_atom_site_label_3
_geom_angle
_geom_angle_site_symmetry_3
C008 O001 H001 118(5) .
C008 O002 H002 108(3) .
C004 C003 H003 119.9 .
C007 C003 H003 119.9 .
C007 C003 C004 120.28(16) .
C003 C004 C008 119.06(15) .
C005 C004 C003 119.90(15) .
C005 C004 C008 120.99(16) .
C004 C005 H005 120.1 .
C004 C005 C006 119.84(16) .
C006 C005 H005 120.1 .
C005 C006 H006 119.7 .
C005 C006 C009 120.60(15) .
C009 C006 H006 119.7 .
C003 C007 H007 120.0 .
C003 C007 C009 120.07(17) .
C009 C007 H007 120.0 .
O001 C008 O002 123.51(15) .
O001 C008 C004 120.21(16) .
O002 C008 C004 116.26(15) .
C006 C009 C007 119.22(14) .
C006 C009 C009 120.42(19) 2_655
C007 C009 C009 120.3(2) 2_655
loop_
_geom_bond_atom_site_label_1
_geom_bond_atom_site_label_2
_geom_bond_distance
_geom_bond_site_symmetry_2
O001 C008 1.249(2) .
O001 H001 0.98(8) .
O002 C008 1.289(2) .
O002 H002 0.88(5) .
C003 H003 0.9500 .
C003 C004 1.395(3) .
C003 C007 1.387(2) .
C004 C005 1.389(2) .
C004 C008 1.482(2) .
C005 H005 0.9500 .
C005 C006 1.391(2) .
C006 H006 0.9500 .
C006 C009 1.394(3) .
C007 H007 0.9500 .
C007 C009 1.401(2) .
C009 C009 1.484(3) 2_655
loop_
_geom_torsion_atom_site_label_1
_geom_torsion_atom_site_label_2
_geom_torsion_atom_site_label_3
_geom_torsion_atom_site_label_4
_geom_torsion
_geom_torsion_site_symmetry_4
C003 C004 C005 C006 -1.8(2) .
C003 C004 C008 O001 -4.6(2) .
C003 C004 C008 O002 174.13(15) .
C003 C007 C009 C006 -1.5(3) .
C003 C007 C009 C009 175.52(12) 2_655
C004 C003 C007 C009 -1.4(3) .
C004 C005 C006 C009 -1.1(3) .
C005 C004 C008 O001 177.86(16) .
C005 C004 C008 O002 -3.4(2) .
C005 C006 C009 C007 2.7(2) .
C005 C006 C009 C009 -174.28(13) 2_655
C007 C003 C004 C005 3.0(2) .
C007 C003 C004 C008 -174.48(15) .
C008 C004 C005 C006 175.66(15) .
loop_
_twin_individual_id
_twin_individual_mass_fraction_refined
1 0.417(3)
2 0.583(3)
