#------------------------------------------------------------------------------
#$Date: 2019-11-23 14:22:42 +0200 (Sat, 23 Nov 2019) $
#$Revision: 233605 $
#$URL: file:///home/coder/svn-repositories/cod/cif/4/34/91/4349124.cif $
#------------------------------------------------------------------------------
#
# This file is available in the Crystallography Open Database (COD),
# http://www.crystallography.net/
#
# All data on this site have been placed in the public domain by the
# contributors.
#
data_4349124
loop_
_publ_author_name
'Gee, William J.'
'Cadman, Laura K.'
'Amer Hamzah, Harina'
'Mahon, Mary F.'
'Raithby, Paul R.'
'Burrows, Andrew D.'
_publ_section_title
;
 Furnishing Amine-Functionalized Metal-Organic Frameworks with the
 \b-Amidoketone Group by Postsynthetic Modification.
;
_journal_issue                   21
_journal_name_full               'Inorganic chemistry'
_journal_page_first              10839
_journal_page_last               10842
_journal_paper_doi               10.1021/acs.inorgchem.6b01917
_journal_volume                  55
_journal_year                    2016
_chemical_formula_moiety         'C6.16 H1.25 N0.75 O2.44 Zn0.5'
_chemical_formula_sum            'C7.13 H7.88 N O2.69 Zn0.5'
_chemical_formula_weight         183.31
_space_group_crystal_system      monoclinic
_space_group_IT_number           12
_space_group_name_Hall           '-C 2y'
_space_group_name_H-M_alt        'C 1 2/m 1'
_atom_sites_solution_hydrogens   geom
_atom_sites_solution_primary     iterative
_audit_creation_date
;
'Thu Jul 09 10:24:15 2015'
;
_audit_creation_method
;
CrysAlisPro, Agilent Technologies,
Version 1.171.37.34 (release 22-05-2014 CrysAlis171 .NET)
(compiled May 22 2014,16:03:01)
;
_cell_angle_alpha                90
_cell_angle_beta                 100.526(3)
_cell_angle_gamma                90
_cell_formula_units_Z            8
_cell_length_a                   13.9532(6)
_cell_length_b                   16.6496(5)
_cell_length_c                   9.5586(3)
_cell_measurement_reflns_used    5188
_cell_measurement_temperature    150(2)
_cell_measurement_theta_max      71.6380
_cell_measurement_theta_min      4.7390
_cell_volume                     2183.24(14)
_computing_cell_refinement
;
CrysAlisPro, Agilent Technologies,
Version 1.171.37.34 (release 22-05-2014 CrysAlis171 .NET)
(compiled May 22 2014,16:03:01)
;
_computing_data_collection
;
CrysAlisPro, Agilent Technologies,
Version 1.171.37.34 (release 22-05-2014 CrysAlis171 .NET)
(compiled May 22 2014,16:03:01)
;
_computing_data_reduction
;
CrysAlisPro, Agilent Technologies,
Version 1.171.37.34 (release 22-05-2014 CrysAlis171 .NET)
(compiled May 22 2014,16:03:01)
;
_computing_molecular_graphics    'Olex2 (Dolomanov et al., 2009)'
_computing_publication_material  'Olex2 (Dolomanov et al., 2009)'
_computing_structure_refinement  'ShelXL (Sheldrick, 2008)'
_computing_structure_solution    'olex2.solve (Bourhis et al., 2015)'
_diffrn_ambient_environment      N~2~
_diffrn_ambient_temperature      150(2)
_diffrn_detector                 'CCD plate'
_diffrn_detector_area_resol_mean 8.1150
_diffrn_detector_type            EosS2
_diffrn_measured_fraction_theta_full 0.982
_diffrn_measured_fraction_theta_max 0.997
_diffrn_measurement_device       'four-circle diffractometer'
_diffrn_measurement_device_type  'SuperNova, Dual, Cu at zero, EosS2'
_diffrn_measurement_method       '\w scans'
_diffrn_radiation_monochromator  mirror
_diffrn_radiation_probe          x-ray
_diffrn_radiation_type           CuK\a
_diffrn_radiation_wavelength     1.54184
_diffrn_reflns_av_unetI/netI     0.0374
_diffrn_reflns_Laue_measured_fraction_full 0.982
_diffrn_reflns_Laue_measured_fraction_max 0.997
_diffrn_reflns_limit_h_max       17
_diffrn_reflns_limit_h_min       -16
_diffrn_reflns_limit_k_max       20
_diffrn_reflns_limit_k_min       -20
_diffrn_reflns_limit_l_max       11
_diffrn_reflns_limit_l_min       -11
_diffrn_reflns_number            10650
_diffrn_reflns_point_group_measured_fraction_full 0.982
_diffrn_reflns_point_group_measured_fraction_max 0.997
_diffrn_reflns_theta_full        26.000
_diffrn_reflns_theta_max         70.074
_diffrn_reflns_theta_min         4.705
_diffrn_source                   'sealed X-ray tube'
_diffrn_source_type              'SuperNova (Cu) X-ray Source'
_exptl_absorpt_coefficient_mu    1.752
_exptl_absorpt_correction_T_max  1.00000
_exptl_absorpt_correction_T_min  0.53825
_exptl_absorpt_correction_type   multi-scan
_exptl_absorpt_process_details
;
CrysAlisPro, Agilent Technologies,
Version 1.171.37.34 (release 22-05-2014 CrysAlis171 .NET)
(compiled May 22 2014,16:03:01)
Empirical absorption correction using spherical harmonics,
 implemented in SCALE3 ABSPACK scaling algorithm.
;
_exptl_crystal_colour            colorless
_exptl_crystal_density_diffrn    1.115
_exptl_crystal_description       block
_exptl_crystal_F_000             753
_exptl_crystal_size_max          0.1786
_exptl_crystal_size_mid          0.1136
_exptl_crystal_size_min          0.0876
_refine_diff_density_max         1.705
_refine_diff_density_min         -0.724
_refine_diff_density_rms         0.172
_refine_ls_extinction_method     none
_refine_ls_goodness_of_fit_ref   1.089
_refine_ls_hydrogen_treatment    constr
_refine_ls_matrix_type           full
_refine_ls_number_parameters     139
_refine_ls_number_reflns         2151
_refine_ls_number_restraints     56
_refine_ls_restrained_S_all      1.115
_refine_ls_R_factor_all          0.0920
_refine_ls_R_factor_gt           0.0890
_refine_ls_shift/su_max          0.000
_refine_ls_shift/su_mean         0.000
_refine_ls_structure_factor_coef Fsqd
_refine_ls_weighting_details
'w=1/[\s^2^(Fo^2^)+(0.1645P)^2^+13.0017P] where P=(Fo^2^+2Fc^2^)/3'
_refine_ls_weighting_scheme      calc
_refine_ls_wR_factor_gt          0.2401
_refine_ls_wR_factor_ref         0.2445
_reflns_Friedel_coverage         0.000
_reflns_number_gt                2045
_reflns_number_total             2151
_reflns_threshold_expression     'I > 2\s(I)'
_cod_data_source_file            ic6b01917_si_002.cif
_cod_data_source_block           s15prr65
_cod_original_cell_volume        2183.25(13)
_cod_original_formula_sum        'C7.13 H7.88 N O2.69 Zn0.50'
_cod_database_code               4349124
_shelxl_version_number           2014-3
_shelx_space_group_comment
;
The symmetry employed for this shelxl refinement is uniquely defined
by the following loop, which should always be used as a source of
symmetry information in preference to the above space-group names.
They are only intended as comments.
;
_olex2_refinement_description
;
1. Fixed Uiso
 At 1.2 times of:
  All C(H) groups, All N(H) groups
2. Restrained distances
 C5-C6 \\sim N2-C5
 with sigma of 0.02
 O4-C7 \\sim O3-C5
 with sigma of 0.02
 C6-C7 \\sim C5-C6
 with sigma of 0.02
3. Restrained planarity
 O3, N2, C1, C2, C3, C4, C5
 with sigma of 0.1
4. Uiso/Uaniso restraints and constraints
Uanis(O3) \\sim Ueq, Uanis(C5) \\sim Ueq, Uanis(C6) \\sim Ueq, Uanis(N2) \\sim
Ueq: with sigma of 0.02 and sigma for terminal atoms of 0.01
: with sigma of 0.03 and sigma for terminal atoms of 0.005
Uanis(C10) \\sim Ueq, Uanis(C11) \\sim Ueq, Uanis(C8) \\sim Ueq, Uanis(C9)
\\sim Ueq: with sigma of 0.01 and sigma for terminal atoms of 0.007
Uanis(N2) \\sim Ueq: with sigma of 0.01 and sigma for terminal atoms of 0.02
5. Others
 Fixed Sof: O3(0.22) O4(0.22) N2(0.25) H2(0.25) C5(0.22) C6(0.22) C7(0.22)
 C8(0.25) C9(0.5) C11(0.25) C10(0.5)
 Fixed Uiso: O4(0.15) C7(0.15)
6.a Aromatic/amide H refined with riding coordinates:
 N2(H2), C4(H4)
;
_shelx_fab_checksum              64568
_shelx_fab_file
;
    2    0    0     -1.90      0.00
    4    0    0    -12.31      0.00
    6    0    0      7.87      0.00
    8    0    0      3.86      0.00
   10    0    0     -1.46      0.00
   12    0    0     -0.36      0.00
   14    0    0      0.38      0.00
   16    0    0      0.89      0.00
    3    1    0     18.32      0.00
    5    1    0      0.94      0.00
    7    1    0     -7.72      0.00
    9    1    0      0.69      0.00
   11    1    0      0.75      0.00
   13    1    0      0.35      0.00
   15    1    0     -0.72      0.00
    0    2    0     31.95      0.00
    2    2    0     -6.82      0.00
    4    2    0    -14.78      0.00
    6    2    0      5.75      0.00
    8    2    0      2.47      0.00
   10    2    0     -1.83      0.00
   12    2    0     -0.45      0.00
   14    2    0     -0.02      0.00
   16    2    0      0.41      0.00
    1    3    0    -14.83      0.00
    3    3    0     19.67      0.00
    5    3    0      2.70      0.00
    7    3    0     -5.02      0.00
    9    3    0      1.53      0.00
   11    3    0      0.89      0.00
   13    3    0      0.08      0.00
   15    3    0     -0.20      0.00
    0    4    0     22.50      0.00
    2    4    0     -6.80      0.00
    4    4    0    -12.77      0.00
    6    4    0      4.08      0.00
    8    4    0      0.51      0.00
   10    4    0     -1.98      0.00
   12    4    0      0.27      0.00
   14    4    0      0.22      0.00
   16    4    0      0.32      0.00
    1    5    0    -10.63      0.00
    3    5    0     14.10      0.00
    5    5    0      1.41      0.00
    7    5    0     -2.82      0.00
    9    5    0      2.14      0.00
   11    5    0      0.65      0.00
   13    5    0     -0.64      0.00
   15    5    0     -0.23      0.00
    0    6    0     15.40      0.00
    2    6    0     -3.47      0.00
    4    6    0     -7.48      0.00
    6    6    0      3.50      0.00
    8    6    0     -0.49      0.00
   10    6    0     -1.95      0.00
   12    6    0      0.52      0.00
   14    6    0      0.03      0.00
    1    7    0     -7.96      0.00
    3    7    0      7.03      0.00
    5    7    0     -0.69      0.00
    7    7    0     -2.00      0.00
    9    7    0      1.90      0.00
   11    7    0      0.32      0.00
   13    7    0     -0.52      0.00
   15    7    0      0.19      0.00
    0    8    0      9.94      0.00
    2    8    0     -0.82      0.00
    4    8    0     -3.04      0.00
    6    8    0      2.49      0.00
    8    8    0     -0.48      0.00
   10    8    0     -1.09      0.00
   12    8    0      1.10      0.00
   14    8    0      0.17      0.00
    1    9    0     -4.20      0.00
    3    9    0      3.53      0.00
    5    9    0     -0.33      0.00
    7    9    0     -0.99      0.00
    9    9    0      1.06      0.00
   11    9    0     -0.79      0.00
   13    9    0     -1.02      0.00
    0   10    0      4.35      0.00
    2   10    0     -1.23      0.00
    4   10    0     -1.65      0.00
    6   10    0      0.90      0.00
    8   10    0      0.02      0.00
   10   10    0     -0.18      0.00
   12   10    0      1.27      0.00
   14   10    0      0.24      0.00
    1   11    0     -0.94      0.00
    3   11    0      2.36      0.00
    5   11    0      0.44      0.00
    7   11    0     -0.45      0.00
    9   11    0      0.49      0.00
   11   11    0     -0.52      0.00
   13   11    0     -0.27      0.00
    0   12    0      1.08      0.00
    2   12    0     -1.79      0.00
    4   12    0     -1.62      0.00
    6   12    0     -0.57      0.00
    8   12    0     -0.24      0.00
   10   12    0     -0.51      0.00
   12   12    0      0.25      0.00
    1   13    0      0.05      0.00
    3   13    0      1.69      0.00
    5   13    0      0.99      0.00
    7   13    0      0.31      0.00
    9   13    0      0.55      0.00
   11   13    0      0.15      0.00
    0   14    0      0.95      0.00
    2   14    0     -0.52      0.00
    4   14    0     -0.44      0.00
    6   14    0     -0.07      0.00
    8   14    0      0.21      0.00
   10   14    0     -0.30      0.00
   12   14    0      0.01      0.00
    1   15    0     -0.42      0.00
    3   15    0      0.26      0.00
    5   15    0     -0.35      0.00
    7   15    0     -0.60      0.00
    9   15    0     -0.21      0.00
   11   15    0      0.07      0.00
    0   16    0      0.42      0.00
    2   16    0     -0.28      0.00
    4   16    0      0.08      0.00
    6   16    0      0.43      0.00
    8   16    0      0.38      0.00
   10   16    0     -0.14      0.00
    1   17    0     -0.05      0.00
    3   17    0      0.27      0.00
    5   17    0     -0.18      0.00
    7   17    0     -0.16      0.00
    9   17    0      0.22      0.00
    0   18    0      0.17      0.00
    2   18    0     -0.41      0.00
    4   18    0      0.07      0.00
    6   18    0      0.10      0.00
    1   19    0      0.50      0.00
    3   19    0      0.39      0.00
    5   19    0     -0.14      0.00
    0   20    0     -0.37      0.00
    2   20    0     -0.85      0.00
  -16    0    1      0.12      0.00
  -14    0    1     -0.44      0.00
  -12    0    1     -2.30      0.00
  -10    0    1      5.59      0.00
   -8    0    1     -3.41      0.00
   -6    0    1    -11.67      0.00
   -4    0    1      5.52      0.00
   -2    0    1     12.74      0.00
    0    0    1     -4.20      0.00
    2    0    1    -10.24      0.00
    4    0    1      2.91      0.00
    6    0    1      0.65      0.00
    8    0    1     -1.05      0.00
   10    0    1     -0.60      0.00
   12    0    1      1.44      0.00
   14    0    1     -0.25      0.00
   16    0    1     -1.02      0.00
  -15    1    1     -0.20      0.00
  -13    1    1      1.86      0.00
  -11    1    1     -1.28      0.00
   -9    1    1     -4.39      0.00
   -7    1    1     10.35      0.00
   -5    1    1      4.08      0.00
   -3    1    1    -14.20      0.00
   -1    1    1     -6.26      0.00
    1    1    1      8.95      0.00
    3    1    1      2.85      0.00
    5    1    1     -4.55      0.00
    7    1    1      1.49      0.00
    9    1    1      0.64      0.00
   11    1    1     -0.49      0.00
   13    1    1     -1.05      0.00
   15    1    1      0.68      0.00
  -16    2    1      0.25      0.00
  -14    2    1     -0.19      0.00
  -12    2    1     -1.85      0.00
  -10    2    1      5.39      0.00
   -8    2    1     -2.32      0.00
   -6    2    1     -9.74      0.00
   -4    2    1      8.33      0.00
   -2    2    1     14.93      0.00
    0    2    1     -1.32      0.00
    2    2    1     -6.67      0.00
    4    2    1      4.64      0.00
    6    2    1      1.02      0.00
    8    2    1     -1.43      0.00
   10    2    1     -0.50      0.00
   12    2    1      1.52      0.00
   14    2    1      0.23      0.00
   16    2    1     -0.63      0.00
  -15    3    1     -0.43      0.00
  -13    3    1      1.52      0.00
  -11    3    1     -1.21      0.00
   -9    3    1     -4.45      0.00
   -7    3    1      8.29      0.00
   -5    3    1      1.38      0.00
   -3    3    1    -15.21      0.00
   -1    3    1     -6.52      0.00
    1    3    1      7.07      0.00
    3    3    1      0.29      0.00
    5    3    1     -4.18      0.00
    7    3    1      1.90      0.00
    9    3    1      1.25      0.00
   11    3    1     -0.55      0.00
   13    3    1     -1.10      0.00
   15    3    1      0.34      0.00
  -16    4    1      0.13      0.00
  -14    4    1     -0.25      0.00
  -12    4    1     -1.59      0.00
  -10    4    1      4.00      0.00
   -8    4    1     -1.31      0.00
   -6    4    1     -8.32      0.00
   -4    4    1      8.44      0.00
   -2    4    1     11.13      0.00
    0    4    1     -4.02      0.00
    2    4    1     -5.89      0.00
    4    4    1      3.98      0.00
    6    4    1      0.21      0.00
    8    4    1     -2.20      0.00
   10    4    1     -0.20      0.00
   12    4    1      1.10      0.00
   14    4    1      0.18      0.00
   16    4    1     -0.67      0.00
  -15    5    1     -0.53      0.00
  -13    5    1      1.25      0.00
  -11    5    1     -0.38      0.00
   -9    5    1     -3.05      0.00
   -7    5    1      7.43      0.00
   -5    5    1      1.47      0.00
   -3    5    1    -11.40      0.00
   -1    5    1     -1.51      0.00
    1    5    1      8.16      0.00
    3    5    1     -0.67      0.00
    5    5    1     -2.93      0.00
    7    5    1      1.89      0.00
    9    5    1      0.94      0.00
   11    5    1     -1.04      0.00
   13    5    1     -0.86      0.00
   15    5    1      0.48      0.00
  -16    6    1      0.43      0.00
  -14    6    1      0.39      0.00
  -12    6    1     -0.97      0.00
  -10    6    1      2.11      0.00
   -8    6    1     -1.65      0.00
   -6    6    1     -8.18      0.00
   -4    6    1      6.15      0.00
   -2    6    1      6.26      0.00
    0    6    1     -6.27      0.00
    2    6    1     -3.99      0.00
    4    6    1      3.52      0.00
    6    6    1     -0.38      0.00
    8    6    1     -2.10      0.00
   10    6    1      0.76      0.00
   12    6    1      1.27      0.00
   14    6    1      0.37      0.00
  -15    7    1     -1.04      0.00
  -13    7    1      0.23      0.00
  -11    7    1     -0.13      0.00
   -9    7    1     -1.76      0.00
   -7    7    1      6.34      0.00
   -5    7    1      2.10      0.00
   -3    7    1     -7.89      0.00
   -1    7    1      1.73      0.00
    1    7    1      7.09      0.00
    3    7    1     -1.34      0.00
    5    7    1     -1.15      0.00
    7    7    1      2.52      0.00
    9    7    1      0.69      0.00
   11    7    1     -1.25      0.00
   13    7    1     -0.83      0.00
   15    7    1      0.05      0.00
  -14    8    1      0.46      0.00
  -12    8    1     -0.74      0.00
  -10    8    1      1.17      0.00
   -8    8    1     -0.79      0.00
   -6    8    1     -5.83      0.00
   -4    8    1      4.86      0.00
   -2    8    1      3.95      0.00
    0    8    1     -6.06      0.00
    2    8    1     -1.90      0.00
    4    8    1      2.24      0.00
    6    8    1     -1.53      0.00
    8    8    1     -2.05      0.00
   10    8    1      0.63      0.00
   12    8    1      0.68      0.00
   14    8    1      0.05      0.00
  -15    9    1     -0.34      0.00
  -13    9    1      0.55      0.00
  -11    9    1      0.45      0.00
   -9    9    1     -1.35      0.00
   -7    9    1      3.30      0.00
   -5    9    1      0.80      0.00
   -3    9    1     -6.73      0.00
   -1    9    1      1.48      0.00
    1    9    1      3.83      0.00
    3    9    1     -2.05      0.00
    5    9    1     -0.27      0.00
    7    9    1      2.25      0.00
    9    9    1      0.24      0.00
   11    9    1     -0.55      0.00
   13    9    1      0.06      0.00
  -14   10    1      0.07      0.00
  -12   10    1     -0.82      0.00
  -10   10    1      0.60      0.00
   -8   10    1     -0.01      0.00
   -6   10    1     -3.35      0.00
   -4   10    1      3.43      0.00
   -2   10    1      3.20      0.00
    0   10    1     -3.57      0.00
    2   10    1      0.53      0.00
    4   10    1      1.62      0.00
    6   10    1     -1.54      0.00
    8   10    1     -0.97      0.00
   10   10    1      0.51      0.00
   12   10    1      0.09      0.00
   14   10    1     -0.43      0.00
  -13   11    1      0.16      0.00
  -11   11    1      0.09      0.00
   -9   11    1     -1.12      0.00
   -7   11    1      1.53      0.00
   -5   11    1      1.17      0.00
   -3   11    1     -3.93      0.00
   -1   11    1      1.09      0.00
    1   11    1      1.25      0.00
    3   11    1     -2.07      0.00
    5   11    1      0.20      0.00
    7   11    1      1.11      0.00
    9   11    1     -0.58      0.00
   11   11    1     -0.36      0.00
   13   11    1      0.26      0.00
  -12   12    1     -0.20      0.00
  -10   12    1      0.76      0.00
   -8   12    1      0.76      0.00
   -6   12    1     -1.81      0.00
   -4   12    1      1.12      0.00
   -2   12    1      1.43      0.00
    0   12    1     -1.90      0.00
    2   12    1      1.32      0.00
    4   12    1      1.02      0.00
    6   12    1     -0.57      0.00
    8   12    1      0.73      0.00
   10   12    1      0.83      0.00
   12   12    1      0.05      0.00
  -11   13    1     -0.03      0.00
   -9   13    1     -0.91      0.00
   -7   13    1      0.21      0.00
   -5   13    1      1.15      0.00
   -3   13    1     -1.15      0.00
   -1   13    1      1.01      0.00
    1   13    1      0.61      0.00
    3   13    1     -1.11      0.00
    5   13    1      0.54      0.00
    7   13    1     -0.43      0.00
    9   13    1     -1.20      0.00
   11   13    1     -0.26      0.00
  -12   14    1     -0.32      0.00
  -10   14    1     -0.03      0.00
   -8   14    1      0.37      0.00
   -6   14    1     -1.27      0.00
   -4   14    1     -0.60      0.00
   -2   14    1     -0.33      0.00
    0   14    1     -1.40      0.00
    2   14    1      0.02      0.00
    4   14    1     -0.82      0.00
    6   14    1     -0.83      0.00
    8   14    1      0.80      0.00
   10   14    1      0.28      0.00
  -11   15    1      0.32      0.00
   -9   15    1      0.15      0.00
   -7   15    1      0.43      0.00
   -5   15    1      1.21      0.00
   -3   15    1      0.58      0.00
   -1   15    1      0.58      0.00
    1   15    1      0.56      0.00
    3   15    1      0.29      0.00
    5   15    1      1.71      0.00
    7   15    1     -0.01      0.00
    9   15    1     -0.12      0.00
  -10   16    1     -0.36      0.00
   -8   16    1      0.09      0.00
   -6   16    1     -0.50      0.00
   -4   16    1     -0.58      0.00
   -2   16    1     -0.34      0.00
    0   16    1      0.00      0.00
    2   16    1      0.21      0.00
    4   16    1     -0.83      0.00
    6   16    1     -0.59      0.00
    8   16    1      0.31      0.00
   -9   17    1     -0.05      0.00
   -7   17    1     -0.31      0.00
   -5   17    1      0.04      0.00
   -3   17    1      0.59      0.00
   -1   17    1     -0.05      0.00
    1   17    1     -0.15      0.00
    3   17    1     -0.22      0.00
    5   17    1      0.60      0.00
    7   17    1     -0.53      0.00
   -6   18    1      0.40      0.00
   -4   18    1     -0.20      0.00
   -2   18    1     -0.45      0.00
    0   18    1      0.12      0.00
    2   18    1      0.29      0.00
    4   18    1     -0.02      0.00
    6   18    1      0.22      0.00
   -5   19    1     -0.28      0.00
   -3   19    1      0.41      0.00
   -1   19    1     -0.04      0.00
    1   19    1     -0.28      0.00
    3   19    1     -0.46      0.00
    5   19    1     -0.18      0.00
   -2   20    1     -0.23      0.00
    0   20    1      0.09      0.00
    2   20    1      0.36      0.00
  -16    0    2     -0.91      0.00
  -14    0    2      1.12      0.00
  -12    0    2      0.65      0.00
  -10    0    2     -5.48      0.00
   -8    0    2      1.99      0.00
   -6    0    2      8.77      0.00
   -4    0    2     -2.97      0.00
   -2    0    2      5.05      0.00
    0    0    2      3.42      0.00
    2    0    2     -0.31      0.00
    4    0    2     -1.54      0.00
    6    0    2     -3.37      0.00
    8    0    2      2.96      0.00
   10    0    2      1.16      0.00
   12    0    2     -1.70      0.00
   14    0    2      0.08      0.00
  -15    1    2      0.42      0.00
  -13    1    2     -2.30      0.00
  -11    1    2      3.32      0.00
   -9    1    2      3.52      0.00
   -7    1    2     -7.23      0.00
   -5    1    2     -2.95      0.00
   -3    1    2      2.74      0.00
   -1    1    2     -6.41      0.00
    1    1    2      1.09      0.00
    3    1    2      0.15      0.00
    5    1    2      3.50      0.00
    7    1    2      0.62      0.00
    9    1    2     -4.05      0.00
   11    1    2      1.71      0.00
   13    1    2      0.35      0.00
   15    1    2      0.27      0.00
  -16    2    2     -0.89      0.00
  -14    2    2      1.25      0.00
  -12    2    2      0.43      0.00
  -10    2    2     -5.69      0.00
   -8    2    2      1.08      0.00
   -6    2    2      7.63      0.00
   -4    2    2     -4.49      0.00
   -2    2    2      1.48      0.00
    0    2    2      1.21      0.00
    2    2    2     -1.05      0.00
    4    2    2     -1.28      0.00
    6    2    2     -3.09      0.00
    8    2    2      3.42      0.00
   10    2    2      1.51      0.00
   12    2    2     -1.57      0.00
   14    2    2     -0.25      0.00
  -15    3    2      0.18      0.00
  -13    3    2     -2.16      0.00
  -11    3    2      3.33      0.00
   -9    3    2      4.63      0.00
   -7    3    2     -5.85      0.00
   -5    3    2     -1.71      0.00
   -3    3    2      4.98      0.00
   -1    3    2     -2.62      0.00
    1    3    2      0.78      0.00
    3    3    2     -0.86      0.00
    5    3    2      2.31      0.00
    7    3    2     -0.11      0.00
    9    3    2     -4.40      0.00
   11    3    2      0.88      0.00
   13    3    2      0.45      0.00
   15    3    2      0.47      0.00
  -16    4    2     -0.81      0.00
  -14    4    2      1.67      0.00
  -12    4    2      0.46      0.00
  -10    4    2     -5.45      0.00
   -8    4    2     -0.10      0.00
   -6    4    2      6.90      0.00
   -4    4    2     -3.93      0.00
   -2    4    2     -1.40      0.00
    0    4    2      1.10      0.00
    2    4    2      0.61      0.00
    4    4    2      0.19      0.00
    6    4    2     -2.97      0.00
    8    4    2      3.10      0.00
   10    4    2      1.59      0.00
   12    4    2     -1.02      0.00
   14    4    2     -0.04      0.00
  -15    5    2     -0.10      0.00
  -13    5    2     -2.25      0.00
  -11    5    2      2.22      0.00
   -9    5    2      4.24      0.00
   -7    5    2     -5.86      0.00
   -5    5    2     -3.12      0.00
   -3    5    2      4.47      0.00
   -1    5    2     -0.04      0.00
    1    5    2     -0.11      0.00
    3    5    2     -0.75      0.00
    5    5    2      3.15      0.00
    7    5    2      1.48      0.00
    9    5    2     -2.71      0.00
   11    5    2      0.73      0.00
   13    5    2      0.35      0.00
   15    5    2      0.00      0.00
  -16    6    2     -0.76      0.00
  -14    6    2      1.46      0.00
  -12    6    2      0.69      0.00
  -10    6    2     -3.92      0.00
   -8    6    2      0.54      0.00
   -6    6    2      7.95      0.00
   -4    6    2     -0.93      0.00
   -2    6    2     -2.66      0.00
    0    6    2      0.28      0.00
    2    6    2      0.36      0.00
    4    6    2     -1.05      0.00
    6    6    2     -4.34      0.00
    8    6    2      1.06      0.00
   10    6    2      0.75      0.00
   12    6    2     -0.96      0.00
   14    6    2      0.24      0.00
  -15    7    2      0.07      0.00
  -13    7    2     -1.64      0.00
  -11    7    2      1.43      0.00
   -9    7    2      3.42      0.00
   -7    7    2     -5.36      0.00
   -5    7    2     -4.69      0.00
   -3    7    2      2.68      0.00
   -1    7    2      0.76      0.00
    1    7    2     -1.06      0.00
    3    7    2     -0.79      0.00
    5    7    2      3.00      0.00
    7    7    2      1.70      0.00
    9    7    2     -1.82      0.00
   11    7    2      0.35      0.00
   13    7    2      0.12      0.00
  -14    8    2      1.06      0.00
  -12    8    2      0.88      0.00
  -10    8    2     -3.03      0.00
   -8    8    2     -0.58      0.00
   -6    8    2      5.69      0.00
   -4    8    2     -0.20      0.00
   -2    8    2     -2.58      0.00
    0    8    2      0.70      0.00
    2    8    2      1.73      0.00
    4    8    2     -0.46      0.00
    6    8    2     -2.67      0.00
    8    8    2      0.81      0.00
   10    8    2      1.10      0.00
   12    8    2     -0.47      0.00
   14    8    2      0.57      0.00
  -15    9    2     -0.05      0.00
  -13    9    2     -1.47      0.00
  -11    9    2      0.44      0.00
   -9    9    2      3.01      0.00
   -7    9    2     -2.13      0.00
   -5    9    2     -2.33      0.00
   -3    9    2      2.93      0.00
   -1    9    2      1.11      0.00
    1    9    2     -1.52      0.00
    3    9    2     -1.11      0.00
    5    9    2      1.60      0.00
    7    9    2      0.68      0.00
    9    9    2     -1.52      0.00
   11    9    2     -0.01      0.00
   13    9    2     -0.11      0.00
  -14   10    2      0.28      0.00
  -12   10    2      0.93      0.00
  -10   10    2     -1.75      0.00
   -8   10    2     -1.22      0.00
   -6   10    2      2.64      0.00
   -4   10    2     -1.05      0.00
   -2   10    2     -2.13      0.00
    0   10    2      0.42      0.00
    2   10    2      1.69      0.00
    4   10    2     -0.30      0.00
    6   10    2     -0.61      0.00
    8   10    2      0.77      0.00
   10   10    2      1.10      0.00
   12   10    2     -0.44      0.00
  -13   11    2     -0.25      0.00
  -11   11    2      0.11      0.00
   -9   11    2      1.96      0.00
   -7   11    2     -0.66      0.00
   -5   11    2     -0.87      0.00
   -3   11    2      1.94      0.00
   -1   11    2      0.32      0.00
    1   11    2     -1.02      0.00
    3   11    2     -0.35      0.00
    5   11    2      0.46      0.00
    7   11    2     -0.34      0.00
    9   11    2     -1.22      0.00
   11   11    2     -0.05      0.00
   13   11    2      0.05      0.00
  -12   12    2      0.27      0.00
  -10   12    2     -0.85      0.00
   -8   12    2     -1.15      0.00
   -6   12    2      0.93      0.00
   -4   12    2     -1.29      0.00
   -2   12    2     -0.71      0.00
    0   12    2      0.30      0.00
    2   12    2      0.32      0.00
    4   12    2     -0.94      0.00
    6   12    2      0.11      0.00
    8   12    2      0.29      0.00
   10   12    2      0.65      0.00
   12   12    2     -0.44      0.00
  -13   13    2      0.18      0.00
  -11   13    2     -0.28      0.00
   -9   13    2      1.01      0.00
   -7   13    2     -0.03      0.00
   -5   13    2      0.44      0.00
   -3   13    2      1.22      0.00
   -1   13    2     -0.44      0.00
    1   13    2     -0.31      0.00
    3   13    2      0.72      0.00
    5   13    2      0.26      0.00
    7   13    2     -0.04      0.00
    9   13    2     -0.22      0.00
   11   13    2      0.20      0.00
  -12   14    2      0.21      0.00
  -10   14    2      0.17      0.00
   -8   14    2     -0.41      0.00
   -6   14    2      0.41      0.00
   -4   14    2     -1.36      0.00
   -2   14    2      0.23      0.00
    0   14    2      0.67      0.00
    2   14    2     -0.15      0.00
    4   14    2     -0.33      0.00
    6   14    2      0.55      0.00
    8   14    2     -0.09      0.00
   10   14    2      0.11      0.00
  -11   15    2     -0.46      0.00
   -9   15    2      0.08      0.00
   -7   15    2     -0.49      0.00
   -5   15    2      0.50      0.00
   -3   15    2      0.78      0.00
   -1   15    2     -0.74      0.00
    1   15    2      0.00      0.00
    3   15    2      0.59      0.00
    5   15    2     -0.52      0.00
    7   15    2     -0.20      0.00
    9   15    2     -0.04      0.00
  -10   16    2      0.27      0.00
   -8   16    2     -0.09      0.00
   -6   16    2      0.41      0.00
   -4   16    2     -1.15      0.00
   -2   16    2      0.22      0.00
    0   16    2      0.35      0.00
    2   16    2     -0.82      0.00
    4   16    2     -0.18      0.00
    6   16    2      0.27      0.00
    8   16    2     -0.23      0.00
   -9   17    2      0.24      0.00
   -7   17    2     -0.12      0.00
   -5   17    2      0.30      0.00
   -3   17    2      0.60      0.00
   -1   17    2     -0.86      0.00
    1   17    2      0.17      0.00
    3   17    2      0.48      0.00
    5   17    2     -0.25      0.00
    7   17    2      0.31      0.00
   -6   18    2      0.22      0.00
   -4   18    2     -0.74      0.00
   -2   18    2      0.25      0.00
    0   18    2      0.55      0.00
    2   18    2     -0.24      0.00
    4   18    2      0.24      0.00
    6   18    2      0.03      0.00
   -5   19    2     -0.04      0.00
   -3   19    2      0.81      0.00
   -1   19    2     -0.39      0.00
    1   19    2      0.19      0.00
    3   19    2     -0.05      0.00
  -16    0    3      0.80      0.00
  -14    0    3     -2.37      0.00
  -12    0    3     -2.56      0.00
  -10    0    3      4.12      0.00
   -8    0    3      0.63      0.00
   -6    0    3     -5.73      0.00
   -4    0    3     -1.83      0.00
   -2    0    3      9.69      0.00
    0    0    3      0.43      0.00
    2    0    3     -7.66      0.00
    4    0    3      1.85      0.00
    6    0    3      5.09      0.00
    8    0    3      1.66      0.00
   10    0    3     -1.20      0.00
   12    0    3     -0.59      0.00
   14    0    3      0.14      0.00
  -15    1    3     -0.03      0.00
  -13    1    3      4.08      0.00
  -11    1    3     -1.45      0.00
   -9    1    3     -3.67      0.00
   -7    1    3      3.06      0.00
   -5    1    3      5.13      0.00
   -3    1    3     -4.17      0.00
   -1    1    3     -8.51      0.00
    1    1    3      7.50      0.00
    3    1    3      2.48      0.00
    5    1    3     -3.41      0.00
    7    1    3     -4.09      0.00
    9    1    3      0.91      0.00
   11    1    3      0.92      0.00
   13    1    3      0.02      0.00
   15    1    3      0.12      0.00
  -16    2    3      0.79      0.00
  -14    2    3     -2.07      0.00
  -12    2    3     -2.22      0.00
  -10    2    3      4.41      0.00
   -8    2    3      1.02      0.00
   -6    2    3     -4.59      0.00
   -4    2    3     -1.52      0.00
   -2    2    3      8.50      0.00
    0    2    3     -0.53      0.00
    2    2    3     -7.75      0.00
    4    2    3      0.33      0.00
    6    2    3      3.23      0.00
    8    2    3      0.57      0.00
   10    2    3     -1.60      0.00
   12    2    3     -0.48      0.00
   14    2    3      0.22      0.00
  -15    3    3     -0.29      0.00
  -13    3    3      3.06      0.00
  -11    3    3     -1.83      0.00
   -9    3    3     -4.60      0.00
   -7    3    3      1.52      0.00
   -5    3    3      3.17      0.00
   -3    3    3     -3.17      0.00
   -1    3    3     -5.34      0.00
    1    3    3      7.79      0.00
    3    3    3      4.20      0.00
    5    3    3     -0.57      0.00
    7    3    3     -1.32      0.00
    9    3    3      1.61      0.00
   11    3    3      1.22      0.00
   13    3    3     -0.17      0.00
   15    3    3      0.07      0.00
  -16    4    3      1.16      0.00
  -14    4    3     -1.22      0.00
  -12    4    3     -1.65      0.00
  -10    4    3      4.71      0.00
   -8    4    3      1.84      0.00
   -6    4    3     -1.96      0.00
   -4    4    3     -0.59      0.00
   -2    4    3      5.67      0.00
    0    4    3     -1.93      0.00
    2    4    3     -6.46      0.00
    4    4    3     -1.24      0.00
    6    4    3      0.99      0.00
    8    4    3     -0.12      0.00
   10    4    3     -1.47      0.00
   12    4    3     -0.08      0.00
   14    4    3      0.14      0.00
  -15    5    3     -0.67      0.00
  -13    5    3      2.29      0.00
  -11    5    3     -0.96      0.00
   -9    5    3     -3.86      0.00
   -7    5    3      1.18      0.00
   -5    5    3      1.37      0.00
   -3    5    3     -2.34      0.00
   -1    5    3     -3.23      0.00
    1    5    3      3.91      0.00
    3    5    3      1.71      0.00
    5    5    3     -1.03      0.00
    7    5    3     -1.34      0.00
    9    5    3      0.16      0.00
   11    5    3      0.38      0.00
   13    5    3     -0.57      0.00
  -16    6    3      1.19      0.00
  -14    6    3     -0.65      0.00
  -12    6    3     -1.94      0.00
  -10    6    3      2.92      0.00
   -8    6    3      0.18      0.00
   -6    6    3     -2.04      0.00
   -4    6    3     -0.53      0.00
   -2    6    3      3.04      0.00
    0    6    3     -0.36      0.00
    2    6    3     -1.32      0.00
    4    6    3      0.81      0.00
    6    6    3      1.58      0.00
    8    6    3      1.18      0.00
   10    6    3     -0.27      0.00
   12    6    3      0.58      0.00
   14    6    3      0.17      0.00
  -15    7    3     -0.60      0.00
  -13    7    3      1.80      0.00
  -11    7    3      0.00      0.00
   -9    7    3     -2.35      0.00
   -7    7    3      2.14      0.00
   -5    7    3      1.30      0.00
   -3    7    3     -0.66      0.00
   -1    7    3     -0.77      0.00
    1    7    3      0.77      0.00
    3    7    3     -0.14      0.00
    5    7    3     -0.79      0.00
    7    7    3     -1.13      0.00
    9    7    3     -0.36      0.00
   11    7    3      0.02      0.00
   13    7    3     -0.52      0.00
  -14    8    3     -0.61      0.00
  -12    8    3     -1.94      0.00
  -10    8    3      1.98      0.00
   -8    8    3      0.12      0.00
   -6    8    3     -1.67      0.00
   -4    8    3      0.39      0.00
   -2    8    3      0.58      0.00
    0    8    3     -0.23      0.00
    2    8    3      0.04      0.00
    4    8    3     -0.03      0.00
    6    8    3      0.35      0.00
    8    8    3      0.92      0.00
   10    8    3     -0.11      0.00
   12    8    3      0.52      0.00
  -15    9    3     -0.15      0.00
  -13    9    3      1.61      0.00
  -11    9    3      0.46      0.00
   -9    9    3     -2.07      0.00
   -7    9    3      1.44      0.00
   -5    9    3     -0.05      0.00
   -3    9    3     -1.11      0.00
   -1    9    3      0.09      0.00
    1    9    3     -0.43      0.00
    3    9    3      0.21      0.00
    5    9    3      0.57      0.00
    7    9    3     -0.73      0.00
    9    9    3     -0.42      0.00
   11    9    3     -0.36      0.00
   13    9    3     -0.49      0.00
  -14   10    3     -0.25      0.00
  -12   10    3     -1.43      0.00
  -10   10    3      1.36      0.00
   -8   10    3      0.45      0.00
   -6   10    3     -1.75      0.00
   -4   10    3      1.24      0.00
   -2   10    3     -0.05      0.00
    0   10    3      0.31      0.00
    2   10    3      0.15      0.00
    4   10    3     -1.10      0.00
    6   10    3     -0.39      0.00
    8   10    3      0.61      0.00
   10   10    3      0.08      0.00
   12   10    3      0.37      0.00
  -13   11    3      0.53      0.00
  -11   11    3      0.27      0.00
   -9   11    3     -1.93      0.00
   -7   11    3      1.57      0.00
   -5   11    3      0.65      0.00
   -3   11    3     -0.69      0.00
   -1   11    3      0.38      0.00
    1   11    3     -0.73      0.00
    3   11    3      0.68      0.00
    5   11    3      1.11      0.00
    7   11    3     -0.36      0.00
    9   11    3      0.09      0.00
   11   11    3      0.05      0.00
  -12   12    3     -0.72      0.00
  -10   12    3      0.98      0.00
   -8   12    3      0.83      0.00
   -6   12    3     -2.16      0.00
   -4   12    3      0.64      0.00
   -2   12    3     -0.16      0.00
    0   12    3      0.56      0.00
    2   12    3      0.33      0.00
    4   12    3     -0.85      0.00
    6   12    3      0.21      0.00
    8   12    3      0.39      0.00
   10   12    3     -0.21      0.00
  -11   13    3      0.66      0.00
   -9   13    3     -1.67      0.00
   -7   13    3      0.99      0.00
   -5   13    3      0.92      0.00
   -3   13    3     -0.71      0.00
   -1   13    3      0.03      0.00
    1   13    3     -0.65      0.00
    3   13    3      0.54      0.00
    5   13    3      0.07      0.00
    7   13    3     -0.89      0.00
    9   13    3     -0.14      0.00
   11   13    3      0.15      0.00
  -12   14    3     -0.65      0.00
  -10   14    3      0.12      0.00
   -8   14    3      0.97      0.00
   -6   14    3     -1.60      0.00
   -4   14    3      0.28      0.00
   -2   14    3      0.44      0.00
    0   14    3      0.20      0.00
    2   14    3     -0.18      0.00
    4   14    3     -0.70      0.00
    6   14    3      0.79      0.00
    8   14    3      0.48      0.00
   10   14    3      0.08      0.00
  -11   15    3      1.09      0.00
   -9   15    3     -0.89      0.00
   -7   15    3      0.40      0.00
   -5   15    3      0.94      0.00
   -3   15    3     -0.78      0.00
   -1   15    3     -0.38      0.00
    1   15    3     -0.23      0.00
    3   15    3      0.62      0.00
    5   15    3     -0.35      0.00
    7   15    3     -0.69      0.00
    9   15    3     -0.14      0.00
  -10   16    3     -0.65      0.00
   -8   16    3      0.66      0.00
   -6   16    3     -1.03      0.00
   -4   16    3     -0.27      0.00
   -2   16    3      0.77      0.00
    0   16    3      0.18      0.00
    2   16    3     -0.02      0.00
    4   16    3     -0.13      0.00
    6   16    3      0.84      0.00
    8   16    3      0.17      0.00
   -7   17    3      0.03      0.00
   -5   17    3      1.10      0.00
   -3   17    3     -0.17      0.00
   -1   17    3     -0.16      0.00
    1   17    3      0.17      0.00
    3   17    3      0.43      0.00
    5   17    3     -0.30      0.00
    7   17    3     -0.23      0.00
   -6   18    3     -0.55      0.00
   -4   18    3     -0.59      0.00
   -2   18    3      0.39      0.00
    0   18    3     -0.19      0.00
    2   18    3     -0.38      0.00
    4   18    3     -0.34      0.00
   -3   19    3     -0.29      0.00
   -1   19    3     -0.43      0.00
    1   19    3      0.01      0.00
    3   19    3      0.10      0.00
  -16    0    4     -1.38      0.00
  -14    0    4     -0.23      0.00
  -12    0    4      1.82      0.00
  -10    0    4     -1.38      0.00
   -8    0    4     -4.79      0.00
   -6    0    4      1.69      0.00
   -4    0    4      2.21      0.00
   -2    0    4     -1.91      0.00
    0    0    4     -6.12      0.00
    2    0    4     -2.79      0.00
    4    0    4      1.39      0.00
    6    0    4     -0.68      0.00
    8    0    4     -0.26      0.00
   10    0    4     -2.20      0.00
   12    0    4      0.87      0.00
   14    0    4     -0.21      0.00
  -15    1    4      1.24      0.00
  -13    1    4     -1.21      0.00
  -11    1    4     -1.37      0.00
   -9    1    4      4.22      0.00
   -7    1    4      1.08      0.00
   -5    1    4     -3.11      0.00
   -3    1    4     -1.22      0.00
   -1    1    4      4.08      0.00
    1    1    4      4.80      0.00
    3    1    4     -0.90      0.00
    5    1    4     -0.11      0.00
    7    1    4     -0.37      0.00
    9    1    4      1.96      0.00
   11    1    4      0.22      0.00
   13    1    4     -0.31      0.00
  -16    2    4     -0.77      0.00
  -14    2    4      0.05      0.00
  -12    2    4      1.97      0.00
  -10    2    4     -1.00      0.00
   -8    2    4     -3.48      0.00
   -6    2    4      2.77      0.00
   -4    2    4      3.46      0.00
   -2    2    4     -0.28      0.00
    0    2    4     -3.67      0.00
    2    2    4     -0.43      0.00
    4    2    4      2.34      0.00
    6    2    4      0.25      0.00
    8    2    4      0.38      0.00
   10    2    4     -1.63      0.00
   12    2    4      0.82      0.00
   14    2    4     -0.21      0.00
  -15    3    4      0.63      0.00
  -13    3    4     -1.07      0.00
  -11    3    4     -1.06      0.00
   -9    3    4      3.22      0.00
   -7    3    4      0.17      0.00
   -5    3    4     -4.10      0.00
   -3    3    4     -1.99      0.00
   -1    3    4      1.32      0.00
    1    3    4      1.24      0.00
    3    3    4     -3.42      0.00
    5    3    4     -1.20      0.00
    7    3    4     -1.72      0.00
    9    3    4      0.78      0.00
   11    3    4     -0.12      0.00
   13    3    4     -0.40      0.00
  -16    4    4     -0.36      0.00
  -14    4    4     -0.05      0.00
  -12    4    4      1.55      0.00
  -10    4    4     -1.10      0.00
   -8    4    4     -2.35      0.00
   -6    4    4      2.46      0.00
   -4    4    4      2.72      0.00
   -2    4    4     -0.64      0.00
    0    4    4     -2.01      0.00
    2    4    4      1.68      0.00
    4    4    4      2.16      0.00
    6    4    4      0.77      0.00
    8    4    4      0.90      0.00
   10    4    4     -0.83      0.00
   12    4    4      0.63      0.00
   14    4    4     -0.18      0.00
  -15    5    4      0.36      0.00
  -13    5    4     -0.88      0.00
  -11    5    4     -0.91      0.00
   -9    5    4      1.71      0.00
   -7    5    4     -0.27      0.00
   -5    5    4     -3.29      0.00
   -3    5    4      0.40      0.00
   -1    5    4      2.54      0.00
    1    5    4      1.46      0.00
    3    5    4     -1.92      0.00
    5    5    4      0.91      0.00
    7    5    4     -0.78      0.00
    9    5    4      0.67      0.00
   11    5    4      0.12      0.00
   13    5    4     -0.37      0.00
  -14    6    4     -0.04      0.00
  -12    6    4      1.37      0.00
  -10    6    4     -0.34      0.00
   -8    6    4     -0.62      0.00
   -6    6    4      2.55      0.00
   -4    6    4      1.80      0.00
   -2    6    4     -2.20      0.00
    0    6    4     -2.59      0.00
    2    6    4      0.78      0.00
    4    6    4     -0.61      0.00
    6    6    4     -0.88      0.00
    8    6    4      0.31      0.00
   10    6    4     -0.55      0.00
   12    6    4      0.58      0.00
  -15    7    4      0.19      0.00
  -13    7    4     -0.60      0.00
  -11    7    4     -0.38      0.00
   -9    7    4      0.84      0.00
   -7    7    4     -0.40      0.00
   -5    7    4     -3.11      0.00
   -3    7    4      0.49      0.00
   -1    7    4      2.05      0.00
    1    7    4      0.17      0.00
    3    7    4     -1.23      0.00
    5    7    4      1.67      0.00
    7    7    4     -0.45      0.00
    9    7    4     -0.19      0.00
   11    7    4     -0.25      0.00
   13    7    4     -0.77      0.00
  -14    8    4     -0.04      0.00
  -12    8    4      0.59      0.00
  -10    8    4     -0.66      0.00
   -8    8    4     -1.12      0.00
   -6    8    4      1.26      0.00
   -4    8    4      1.45      0.00
   -2    8    4     -1.59      0.00
    0    8    4     -0.82      0.00
    2    8    4      1.94      0.00
    4    8    4     -0.40      0.00
    6    8    4     -0.74      0.00
    8    8    4      0.89      0.00
   10    8    4     -0.06      0.00
   12    8    4      0.63      0.00
  -13    9    4     -0.33      0.00
  -11    9    4      0.15      0.00
   -9    9    4      1.05      0.00
   -7    9    4      1.04      0.00
   -5    9    4     -1.63      0.00
   -3    9    4      0.30      0.00
   -1    9    4      1.45      0.00
    1    9    4     -1.22      0.00
    3    9    4     -1.37      0.00
    5    9    4      1.02      0.00
    7    9    4     -0.35      0.00
    9    9    4     -0.43      0.00
   11    9    4      0.21      0.00
  -14   10    4     -0.31      0.00
  -12   10    4      0.14      0.00
  -10   10    4     -0.47      0.00
   -8   10    4     -1.42      0.00
   -6   10    4      0.05      0.00
   -4   10    4      1.41      0.00
   -2   10    4     -0.94      0.00
    0   10    4     -0.05      0.00
    2   10    4      2.00      0.00
    4   10    4      0.27      0.00
    6   10    4     -0.38      0.00
    8   10    4      1.15      0.00
   10   10    4     -0.20      0.00
   12   10    4      0.09      0.00
  -13   11    4     -0.08      0.00
  -11   11    4      0.03      0.00
   -9   11    4      0.52      0.00
   -7   11    4      1.24      0.00
   -5   11    4     -1.28      0.00
   -3   11    4     -0.78      0.00
   -1   11    4      0.96      0.00
    1   11    4     -1.09      0.00
    3   11    4     -1.08      0.00
    5   11    4      0.25      0.00
    7   11    4     -0.70      0.00
    9   11    4     -0.93      0.00
   11   11    4     -0.02      0.00
  -12   12    4      0.41      0.00
  -10   12    4      0.27      0.00
   -8   12    4     -0.76      0.00
   -6   12    4     -0.39      0.00
   -4   12    4      1.68      0.00
   -2   12    4     -0.42      0.00
    0   12    4     -0.48      0.00
    2   12    4      0.73      0.00
    4   12    4      0.08      0.00
    6   12    4     -0.32      0.00
    8   12    4      1.21      0.00
   10   12    4      0.22      0.00
  -11   13    4     -0.57      0.00
   -9   13    4     -0.28      0.00
   -7   13    4      1.03      0.00
   -5   13    4     -0.58      0.00
   -3   13    4     -0.86      0.00
   -1   13    4      0.99      0.00
    1   13    4      0.02      0.00
    3   13    4     -0.37      0.00
    5   13    4      0.44      0.00
    7   13    4     -0.31      0.00
    9   13    4     -0.52      0.00
  -10   14    4      0.39      0.00
   -8   14    4     -0.25      0.00
   -6   14    4     -0.92      0.00
   -4   14    4      0.96      0.00
   -2   14    4     -0.28      0.00
    0   14    4     -0.68      0.00
    2   14    4      0.36      0.00
    4   14    4      0.11      0.00
    6   14    4     -0.29      0.00
    8   14    4      0.42      0.00
   -9   15    4     -0.11      0.00
   -7   15    4      0.82      0.00
   -5   15    4      0.17      0.00
   -3   15    4     -0.50      0.00
   -1   15    4      0.70      0.00
    1   15    4      0.33      0.00
    3   15    4     -0.37      0.00
    5   15    4      0.40      0.00
    7   15    4     -0.05      0.00
   -8   16    4     -0.03      0.00
   -6   16    4     -0.59      0.00
   -4   16    4      0.54      0.00
   -2   16    4      0.20      0.00
    0   16    4     -0.55      0.00
    2   16    4      0.26      0.00
    4   16    4     -0.11      0.00
    6   16    4     -0.19      0.00
   -7   17    4     -0.08      0.00
   -5   17    4     -0.16      0.00
   -3   17    4     -0.88      0.00
   -1   17    4     -0.18      0.00
    1   17    4     -0.20      0.00
    3   17    4     -0.59      0.00
    5   17    4     -0.01      0.00
   -6   18    4      0.32      0.00
   -4   18    4      0.40      0.00
   -2   18    4      0.66      0.00
    0   18    4      0.01      0.00
    2   18    4      0.72      0.00
    4   18    4      0.33      0.00
   -1   19    4      0.15      0.00
  -16    0    5      0.09      0.00
  -14    0    5     -0.34      0.00
  -12    0    5     -0.91      0.00
  -10    0    5      0.26      0.00
   -8    0    5      1.44      0.00
   -6    0    5      0.22      0.00
   -4    0    5     -0.33      0.00
   -2    0    5      4.19      0.00
    0    0    5     -0.70      0.00
    2    0    5      0.98      0.00
    4    0    5      1.68      0.00
    6    0    5      1.01      0.00
    8    0    5     -1.00      0.00
   10    0    5     -0.21      0.00
   12    0    5      0.22      0.00
  -15    1    5      0.13      0.00
  -13    1    5      0.75      0.00
  -11    1    5      0.77      0.00
   -9    1    5     -0.89      0.00
   -7    1    5     -1.08      0.00
   -5    1    5      1.81      0.00
   -3    1    5     -1.96      0.00
   -1    1    5     -0.86      0.00
    1    1    5      0.78      0.00
    3    1    5     -0.91      0.00
    5    1    5     -1.83      0.00
    7    1    5      0.35      0.00
    9    1    5      0.57      0.00
   11    1    5     -0.34      0.00
   13    1    5      0.36      0.00
  -16    2    5     -0.23      0.00
  -14    2    5     -0.44      0.00
  -12    2    5     -1.05      0.00
  -10    2    5      0.06      0.00
   -8    2    5      1.11      0.00
   -6    2    5     -0.70      0.00
   -4    2    5     -2.51      0.00
   -2    2    5      0.97      0.00
    0    2    5     -2.43      0.00
    2    2    5     -0.86      0.00
    4    2    5      0.67      0.00
    6    2    5      0.67      0.00
    8    2    5     -0.63      0.00
   10    2    5     -0.03      0.00
   12    2    5      0.30      0.00
  -15    3    5      0.09      0.00
  -13    3    5      0.59      0.00
  -11    3    5      0.36      0.00
   -9    3    5     -1.03      0.00
   -7    3    5     -1.47      0.00
   -5    3    5      2.78      0.00
   -3    3    5      1.37      0.00
   -1    3    5      1.64      0.00
    1    3    5      2.47      0.00
    3    3    5      1.15      0.00
    5    3    5     -0.36      0.00
    7    3    5      0.37      0.00
    9    3    5      0.56      0.00
   11    3    5     -0.50      0.00
   13    3    5      0.41      0.00
  -16    4    5     -0.05      0.00
  -14    4    5      0.03      0.00
  -12    4    5     -0.62      0.00
  -10    4    5      0.52      0.00
   -8    4    5      2.11      0.00
   -6    4    5      0.54      0.00
   -4    4    5     -2.57      0.00
   -2    4    5     -0.53      0.00
    0    4    5     -1.11      0.00
    2    4    5     -1.56      0.00
    4    4    5     -0.34      0.00
    6    4    5     -0.06      0.00
    8    4    5     -0.39      0.00
   10    4    5     -0.02      0.00
   12    4    5      0.41      0.00
  -15    5    5     -0.23      0.00
  -13    5    5      0.53      0.00
  -11    5    5      0.39      0.00
   -9    5    5     -0.81      0.00
   -7    5    5     -2.56      0.00
   -5    5    5      1.10      0.00
   -3    5    5      1.11      0.00
   -1    5    5     -0.91      0.00
    1    5    5     -0.36      0.00
    3    5    5      0.49      0.00
    5    5    5     -0.21      0.00
    7    5    5     -0.26      0.00
    9    5    5      0.33      0.00
   11    5    5     -0.66      0.00
   13    5    5      0.17      0.00
  -14    6    5     -0.03      0.00
  -12    6    5     -0.88      0.00
  -10    6    5     -0.34      0.00
   -8    6    5      1.57      0.00
   -6    6    5      1.26      0.00
   -4    6    5     -1.82      0.00
   -2    6    5      0.07      0.00
    0    6    5      2.46      0.00
    2    6    5      0.01      0.00
    4    6    5      0.06      0.00
    6    6    5      0.28      0.00
    8    6    5      0.07      0.00
   10    6    5     -0.10      0.00
   12    6    5      0.23      0.00
  -15    7    5     -0.04      0.00
  -13    7    5      0.56      0.00
  -11    7    5      0.61      0.00
   -9    7    5      0.03      0.00
   -7    7    5     -2.05      0.00
   -5    7    5      0.51      0.00
   -3    7    5      1.90      0.00
   -1    7    5     -2.04      0.00
    1    7    5     -1.64      0.00
    3    7    5      0.46      0.00
    5    7    5      0.06      0.00
    7    7    5     -0.42      0.00
    9    7    5      0.45      0.00
   11    7    5     -0.07      0.00
  -14    8    5     -0.17      0.00
  -12    8    5     -0.48      0.00
  -10    8    5     -0.54      0.00
   -8    8    5      0.79      0.00
   -6    8    5      1.37      0.00
   -4    8    5     -1.81      0.00
   -2    8    5     -0.29      0.00
    0    8    5      3.05      0.00
    2    8    5      0.07      0.00
    4    8    5     -0.37      0.00
    6    8    5      0.52      0.00
    8    8    5      0.30      0.00
   10    8    5     -0.06      0.00
   12    8    5      0.11      0.00
  -13    9    5      0.16      0.00
  -11    9    5      0.22      0.00
   -9    9    5      0.39      0.00
   -7    9    5     -1.19      0.00
   -5    9    5     -0.06      0.00
   -3    9    5      2.08      0.00
   -1    9    5     -2.12      0.00
    1    9    5     -1.50      0.00
    3    9    5      0.69      0.00
    5    9    5     -0.19      0.00
    7    9    5     -1.02      0.00
    9    9    5     -0.42      0.00
   11    9    5     -0.34      0.00
  -14   10    5      0.03      0.00
  -12   10    5      0.24      0.00
  -10   10    5     -0.14      0.00
   -8   10    5     -0.02      0.00
   -6   10    5      1.11      0.00
   -4   10    5     -1.56      0.00
   -2   10    5     -0.44      0.00
    0   10    5      2.07      0.00
    2   10    5     -0.49      0.00
    4   10    5     -0.78      0.00
    6   10    5      0.83      0.00
    8   10    5      0.77      0.00
   10   10    5      0.32      0.00
  -13   11    5     -0.09      0.00
  -11   11    5     -0.42      0.00
   -9   11    5      0.28      0.00
   -7   11    5     -0.45      0.00
   -5   11    5     -0.22      0.00
   -3   11    5      1.76      0.00
   -1   11    5     -1.23      0.00
    1   11    5     -0.51      0.00
    3   11    5      1.16      0.00
    5   11    5     -0.08      0.00
    7   11    5     -0.80      0.00
    9   11    5     -0.33      0.00
  -12   12    5      0.09      0.00
  -10   12    5      0.16      0.00
   -8   12    5     -0.47      0.00
   -6   12    5      0.74      0.00
   -4   12    5     -0.91      0.00
   -2   12    5     -0.19      0.00
    0   12    5      1.32      0.00
    2   12    5     -0.43      0.00
    4   12    5     -0.50      0.00
    6   12    5      0.70      0.00
    8   12    5      0.49      0.00
   10   12    5     -0.28      0.00
  -11   13    5     -0.24      0.00
   -9   13    5      0.34      0.00
   -7   13    5      0.00      0.00
   -5   13    5     -0.25      0.00
   -3   13    5      0.75      0.00
   -1   13    5     -0.84      0.00
    1   13    5     -0.51      0.00
    3   13    5      0.70      0.00
    5   13    5     -0.22      0.00
    7   13    5     -0.52      0.00
    9   13    5     -0.08      0.00
  -10   14    5      0.40      0.00
   -8   14    5     -0.28      0.00
   -6   14    5      0.53      0.00
   -4   14    5     -0.17      0.00
   -2   14    5      0.01      0.00
    0   14    5      0.91      0.00
    2   14    5     -0.26      0.00
    4   14    5     -0.24      0.00
    6   14    5      0.27      0.00
    8   14    5      0.31      0.00
   -9   15    5     -0.25      0.00
   -7   15    5     -0.34      0.00
   -5   15    5     -0.35      0.00
   -3   15    5      0.05      0.00
   -1   15    5     -0.53      0.00
    1   15    5     -0.72      0.00
    3   15    5      0.14      0.00
    5   15    5     -0.27      0.00
    7   15    5     -0.34      0.00
   -8   16    5      0.24      0.00
   -6   16    5      0.32      0.00
   -4   16    5      0.01      0.00
   -2   16    5     -0.12      0.00
    0   16    5      0.82      0.00
    2   16    5      0.27      0.00
    4   16    5      0.25      0.00
    6   16    5      0.26      0.00
   -7   17    5     -0.21      0.00
   -5   17    5      0.09      0.00
   -3   17    5      0.33      0.00
   -1   17    5      0.06      0.00
    1   17    5     -0.43      0.00
    3   17    5      0.17      0.00
   -4   18    5     -0.12      0.00
   -2   18    5     -0.32      0.00
    0   18    5      0.31      0.00
  -14    0    6     -0.02      0.00
  -12    0    6      0.63      0.00
  -10    0    6     -1.20      0.00
   -8    0    6     -0.89      0.00
   -6    0    6     -2.95      0.00
   -4    0    6      0.53      0.00
   -2    0    6     -0.14      0.00
    0    0    6     -5.04      0.00
    2    0    6      0.77      0.00
    4    0    6      0.75      0.00
    6    0    6     -0.22      0.00
    8    0    6     -0.43      0.00
   10    0    6      0.79      0.00
   12    0    6     -0.34      0.00
  -15    1    6     -0.06      0.00
  -13    1    6     -0.43      0.00
  -11    1    6     -0.21      0.00
   -9    1    6      0.84      0.00
   -7    1    6      1.34      0.00
   -5    1    6      1.38      0.00
   -3    1    6     -2.24      0.00
   -1    1    6      2.86      0.00
    1    1    6      2.37      0.00
    3    1    6     -1.88      0.00
    5    1    6      0.26      0.00
    7    1    6      0.73      0.00
    9    1    6     -0.17      0.00
   11    1    6     -0.09      0.00
  -14    2    6      0.27      0.00
  -12    2    6      1.04      0.00
  -10    2    6     -0.20      0.00
   -8    2    6      0.13      0.00
   -6    2    6     -1.20      0.00
   -4    2    6      1.91      0.00
   -2    2    6      1.73      0.00
    0    2    6     -3.14      0.00
    2    2    6      1.30      0.00
    4    2    6      0.63      0.00
    6    2    6     -0.64      0.00
    8    2    6     -0.89      0.00
   10    2    6      0.33      0.00
   12    2    6     -0.32      0.00
  -15    3    6     -0.07      0.00
  -13    3    6     -0.61      0.00
  -11    3    6     -0.72      0.00
   -9    3    6     -0.09      0.00
   -7    3    6     -0.02      0.00
   -5    3    6     -0.05      0.00
   -3    3    6     -3.38      0.00
   -1    3    6      0.66      0.00
    1    3    6      0.67      0.00
    3    3    6     -1.75      0.00
    5    3    6     -0.06      0.00
    7    3    6      0.83      0.00
    9    3    6      0.00      0.00
   11    3    6     -0.04      0.00
  -14    4    6      0.12      0.00
  -12    4    6      0.81      0.00
  -10    4    6      0.41      0.00
   -8    4    6      0.18      0.00
   -6    4    6     -0.36      0.00
   -4    4    6      1.08      0.00
   -2    4    6      1.75      0.00
    0    4    6     -1.86      0.00
    2    4    6      1.04      0.00
    4    4    6      0.78      0.00
    6    4    6     -0.04      0.00
    8    4    6     -0.25      0.00
   10    4    6      0.36      0.00
   12    4    6     -0.01      0.00
  -15    5    6      0.17      0.00
  -13    5    6     -0.44      0.00
  -11    5    6     -0.85      0.00
   -9    5    6     -0.16      0.00
   -7    5    6     -0.01      0.00
   -5    5    6      0.73      0.00
   -3    5    6     -1.43      0.00
   -1    5    6      0.75      0.00
    1    5    6      0.61      0.00
    3    5    6     -0.73      0.00
    5    5    6     -0.54      0.00
    7    5    6      0.11      0.00
    9    5    6     -0.37      0.00
   11    5    6     -0.35      0.00
  -14    6    6      0.05      0.00
  -12    6    6      0.48      0.00
  -10    6    6      0.50      0.00
   -8    6    6     -0.41      0.00
   -6    6    6     -0.44      0.00
   -4    6    6     -0.41      0.00
   -2    6    6      0.95      0.00
    0    6    6     -0.81      0.00
    2    6    6      0.30      0.00
    4    6    6      0.60      0.00
    6    6    6      0.34      0.00
    8    6    6      0.33      0.00
   10    6    6      0.56      0.00
  -13    7    6      0.02      0.00
  -11    7    6     -0.38      0.00
   -9    7    6      0.65      0.00
   -7    7    6      0.43      0.00
   -5    7    6      0.99      0.00
   -3    7    6     -0.61      0.00
   -1    7    6     -0.37      0.00
    1    7    6      0.05      0.00
    3    7    6     -0.12      0.00
    5    7    6     -0.43      0.00
    7    7    6     -0.31      0.00
    9    7    6     -0.36      0.00
   11    7    6     -0.70      0.00
  -12    8    6     -0.12      0.00
  -10    8    6     -0.08      0.00
   -8    8    6     -0.97      0.00
   -6    8    6     -0.37      0.00
   -4    8    6     -0.50      0.00
   -2    8    6      0.85      0.00
    0    8    6      0.17      0.00
    2    8    6     -0.60      0.00
    4    8    6     -0.15      0.00
    6    8    6     -0.01      0.00
    8    8    6      0.02      0.00
   10    8    6      0.15      0.00
  -13    9    6      0.35      0.00
  -11    9    6     -0.16      0.00
   -9    9    6      0.81      0.00
   -7    9    6      0.23      0.00
   -5    9    6      0.43      0.00
   -3    9    6     -0.39      0.00
   -1    9    6     -0.87      0.00
    1    9    6      0.41      0.00
    3    9    6      0.63      0.00
    5    9    6      0.34      0.00
    7    9    6      0.01      0.00
    9    9    6      0.56      0.00
  -12   10    6     -0.14      0.00
  -10   10    6     -0.13      0.00
   -8   10    6     -0.75      0.00
   -6   10    6     -0.10      0.00
   -4   10    6     -0.06      0.00
   -2   10    6      0.92      0.00
    0   10    6      0.75      0.00
    2   10    6     -0.54      0.00
    4   10    6     -0.10      0.00
    6   10    6      0.12      0.00
    8   10    6     -0.29      0.00
   10   10    6     -0.28      0.00
  -11   11    6     -0.35      0.00
   -9   11    6      0.52      0.00
   -7   11    6      0.31      0.00
   -5   11    6      0.27      0.00
   -3   11    6     -0.26      0.00
   -1   11    6     -1.08      0.00
    1   11    6      0.13      0.00
    3   11    6      0.07      0.00
    5   11    6     -0.14      0.00
    7   11    6     -0.44      0.00
    9   11    6      0.33      0.00
  -10   12    6      0.49      0.00
   -8   12    6     -0.19      0.00
   -6   12    6     -0.15      0.00
   -4   12    6     -0.14      0.00
   -2   12    6      0.54      0.00
    0   12    6      0.28      0.00
    2   12    6     -0.49      0.00
    4   12    6      0.09      0.00
    6   12    6      0.60      0.00
    8   12    6      0.11      0.00
  -11   13    6     -0.72      0.00
   -9   13    6     -0.48      0.00
   -7   13    6     -0.08      0.00
   -5   13    6      0.06      0.00
   -3   13    6     -0.31      0.00
   -1   13    6     -0.60      0.00
    1   13    6      0.37      0.00
    3   13    6      0.05      0.00
    5   13    6     -0.56      0.00
    7   13    6     -0.63      0.00
  -10   14    6      0.55      0.00
   -8   14    6      0.24      0.00
   -6   14    6     -0.08      0.00
   -4   14    6      0.13      0.00
   -2   14    6      0.83      0.00
    0   14    6      0.17      0.00
    2   14    6     -0.20      0.00
    4   14    6      0.34      0.00
    6   14    6      0.75      0.00
   -7   15    6      0.17      0.00
   -5   15    6      0.25      0.00
   -3   15    6     -0.66      0.00
   -1   15    6     -0.59      0.00
    1   15    6      0.20      0.00
    3   15    6      0.25      0.00
    5   15    6     -0.37      0.00
   -6   16    6     -0.40      0.00
   -4   16    6      0.13      0.00
   -2   16    6      0.90      0.00
    0   16    6      0.13      0.00
    2   16    6     -0.37      0.00
    4   16    6     -0.10      0.00
   -3   17    6     -0.69      0.00
   -1   17    6     -0.55      0.00
    1   17    6     -0.09      0.00
  -14    0    7      0.32      0.00
  -12    0    7     -0.44      0.00
  -10    0    7     -0.84      0.00
   -8    0    7      0.16      0.00
   -6    0    7      1.01      0.00
   -4    0    7      1.42      0.00
   -2    0    7     -1.04      0.00
    0    0    7     -0.57      0.00
    2    0    7      0.80      0.00
    4    0    7     -1.81      0.00
    6    0    7     -0.97      0.00
    8    0    7     -0.36      0.00
   10    0    7     -1.10      0.00
  -15    1    7     -0.42      0.00
  -13    1    7      0.29      0.00
  -11    1    7      0.53      0.00
   -9    1    7      0.90      0.00
   -7    1    7     -0.85      0.00
   -5    1    7     -0.80      0.00
   -3    1    7     -0.33      0.00
   -1    1    7      1.63      0.00
    1    1    7     -0.69      0.00
    3    1    7     -0.04      0.00
    5    1    7      1.68      0.00
    7    1    7     -0.54      0.00
    9    1    7      0.75      0.00
   11    1    7      0.46      0.00
  -14    2    7      0.21      0.00
  -12    2    7     -0.45      0.00
  -10    2    7     -0.87      0.00
   -8    2    7      0.02      0.00
   -6    2    7      0.33      0.00
   -4    2    7      0.37      0.00
   -2    2    7     -1.30      0.00
    0    2    7     -0.49      0.00
    2    2    7      1.44      0.00
    4    2    7     -0.70      0.00
    6    2    7      0.59      0.00
    8    2    7      0.76      0.00
   10    2    7     -0.23      0.00
  -15    3    7     -0.60      0.00
  -13    3    7      0.20      0.00
  -11    3    7      0.22      0.00
   -9    3    7      0.47      0.00
   -7    3    7     -0.48      0.00
   -5    3    7      0.10      0.00
   -3    3    7      0.45      0.00
   -1    3    7      1.00      0.00
    1    3    7     -1.09      0.00
    3    3    7     -0.94      0.00
    5    3    7      0.24      0.00
    7    3    7     -1.72      0.00
    9    3    7     -0.19      0.00
   11    3    7     -0.12      0.00
  -14    4    7      0.16      0.00
  -12    4    7     -0.07      0.00
  -10    4    7     -0.31      0.00
   -8    4    7      0.39      0.00
   -6    4    7      0.15      0.00
   -4    4    7     -0.22      0.00
   -2    4    7     -0.36      0.00
    0    4    7      0.15      0.00
    2    4    7      1.70      0.00
    4    4    7     -0.55      0.00
    6    4    7      1.09      0.00
    8    4    7      0.66      0.00
   10    4    7      0.09      0.00
  -13    5    7      0.39      0.00
  -11    5    7      0.13      0.00
   -9    5    7     -0.01      0.00
   -7    5    7     -0.59      0.00
   -5    5    7     -0.04      0.00
   -3    5    7      0.15      0.00
   -1    5    7     -0.05      0.00
    1    5    7     -0.70      0.00
    3    5    7     -0.08      0.00
    5    5    7      0.60      0.00
    7    5    7     -0.98      0.00
    9    5    7      0.20      0.00
  -14    6    7     -0.28      0.00
  -12    6    7     -0.36      0.00
  -10    6    7     -0.12      0.00
   -8    6    7      0.56      0.00
   -6    6    7      0.71      0.00
   -4    6    7     -0.10      0.00
   -2    6    7      0.27      0.00
    0    6    7     -0.32      0.00
    2    6    7      0.22      0.00
    4    6    7     -1.64      0.00
    6    6    7      0.38      0.00
    8    6    7     -0.20      0.00
   10    6    7     -0.28      0.00
  -13    7    7      0.58      0.00
  -11    7    7      0.27      0.00
   -9    7    7     -0.08      0.00
   -7    7    7     -0.70      0.00
   -5    7    7     -0.52      0.00
   -3    7    7     -0.15      0.00
   -1    7    7     -0.18      0.00
    1    7    7      0.06      0.00
    3    7    7      1.00      0.00
    5    7    7      0.81      0.00
    7    7    7     -0.28      0.00
    9    7    7      0.62      0.00
  -12    8    7     -0.55      0.00
  -10    8    7     -0.40      0.00
   -8    8    7     -0.39      0.00
   -6    8    7      0.51      0.00
   -4    8    7     -0.05      0.00
   -2    8    7      0.60      0.00
    0    8    7      0.23      0.00
    2    8    7      0.19      0.00
    4    8    7     -1.00      0.00
    6    8    7      0.46      0.00
    8    8    7     -0.22      0.00
  -11    9    7      0.54      0.00
   -9    9    7      0.93      0.00
   -7    9    7      0.58      0.00
   -5    9    7      0.00      0.00
   -3    9    7      0.08      0.00
   -1    9    7     -0.29      0.00
    1    9    7     -0.48      0.00
    3    9    7      0.46      0.00
    5    9    7     -0.09      0.00
    7    9    7     -0.43      0.00
    9    9    7      0.33      0.00
  -12   10    7     -0.23      0.00
  -10   10    7     -0.43      0.00
   -8   10    7     -1.12      0.00
   -6   10    7      0.06      0.00
   -4   10    7     -0.22      0.00
   -2   10    7     -0.25      0.00
    0   10    7      0.02      0.00
    2   10    7     -0.23      0.00
    4   10    7     -0.35      0.00
    6   10    7      0.54      0.00
    8   10    7      0.06      0.00
  -11   11    7      0.09      0.00
   -9   11    7      0.55      0.00
   -7   11    7      0.32      0.00
   -5   11    7     -0.60      0.00
   -3   11    7      0.18      0.00
   -1   11    7      0.26      0.00
    1   11    7     -0.01      0.00
    3   11    7      0.44      0.00
    5   11    7     -0.44      0.00
    7   11    7     -0.54      0.00
  -10   12    7     -0.12      0.00
   -8   12    7     -0.56      0.00
   -6   12    7      0.51      0.00
   -4   12    7      0.63      0.00
   -2   12    7     -0.24      0.00
    0   12    7      0.36      0.00
    2   12    7     -0.14      0.00
    4   12    7      0.32      0.00
    6   12    7      0.71      0.00
   -9   13    7      0.22      0.00
   -7   13    7      0.23      0.00
   -5   13    7     -0.86      0.00
   -3   13    7      0.02      0.00
   -1   13    7     -0.16      0.00
    1   13    7     -0.16      0.00
    3   13    7      0.08      0.00
    5   13    7     -0.42      0.00
   -8   14    7     -0.04      0.00
   -6   14    7      0.24      0.00
   -4   14    7      0.53      0.00
   -2   14    7     -0.30      0.00
    0   14    7      0.35      0.00
    2   14    7     -0.35      0.00
    4   14    7      0.01      0.00
   -5   15    7     -0.57      0.00
   -3   15    7      0.13      0.00
   -1   15    7     -0.33      0.00
    1   15    7      0.03      0.00
    3   15    7      0.12      0.00
   -4   16    7      0.25      0.00
   -2   16    7      0.07      0.00
    0   16    7      0.43      0.00
  -14    0    8     -0.56      0.00
  -12    0    8      0.00      0.00
  -10    0    8     -0.17      0.00
   -8    0    8     -0.27      0.00
   -6    0    8     -0.07      0.00
   -4    0    8      0.21      0.00
   -2    0    8      0.11      0.00
    0    0    8      0.16      0.00
    2    0    8      0.57      0.00
    4    0    8      0.56      0.00
    6    0    8      0.81      0.00
    8    0    8      0.67      0.00
   10    0    8      0.06      0.00
  -13    1    8     -0.06      0.00
  -11    1    8      0.12      0.00
   -9    1    8      0.00      0.00
   -7    1    8      0.16      0.00
   -5    1    8      0.03      0.00
   -3    1    8     -0.39      0.00
   -1    1    8      0.30      0.00
    1    1    8     -0.43      0.00
    3    1    8     -0.05      0.00
    5    1    8     -0.39      0.00
    7    1    8     -0.47      0.00
    9    1    8      0.01      0.00
  -14    2    8     -0.41      0.00
  -12    2    8      0.17      0.00
  -10    2    8      0.12      0.00
   -8    2    8      0.16      0.00
   -6    2    8     -0.07      0.00
   -4    2    8      0.18      0.00
   -2    2    8     -0.03      0.00
    0    2    8     -0.36      0.00
    2    2    8     -0.26      0.00
    4    2    8     -0.41      0.00
    6    2    8     -0.22      0.00
    8    2    8     -0.21      0.00
  -13    3    8     -0.03      0.00
  -11    3    8     -0.07      0.00
   -9    3    8     -0.42      0.00
   -7    3    8     -0.43      0.00
   -5    3    8      0.13      0.00
   -3    3    8     -0.47      0.00
   -1    3    8      0.60      0.00
    1    3    8      0.53      0.00
    3    3    8      0.67      0.00
    5    3    8      0.57      0.00
    7    3    8      0.22      0.00
    9    3    8      0.57      0.00
  -12    4    8      0.03      0.00
  -10    4    8      0.24      0.00
   -8    4    8      0.99      0.00
   -6    4    8      0.17      0.00
   -4    4    8      0.44      0.00
   -2    4    8      0.28      0.00
    0    4    8     -0.58      0.00
    2    4    8     -0.45      0.00
    4    4    8     -0.36      0.00
    6    4    8     -0.06      0.00
    8    4    8     -0.18      0.00
  -13    5    8     -0.01      0.00
  -11    5    8      0.05      0.00
   -9    5    8     -0.59      0.00
   -7    5    8     -0.82      0.00
   -5    5    8      0.20      0.00
   -3    5    8     -1.02      0.00
   -1    5    8     -0.18      0.00
    1    5    8      0.11      0.00
    3    5    8     -0.31      0.00
    5    5    8     -0.12      0.00
    7    5    8     -0.41      0.00
    9    5    8      0.15      0.00
  -12    6    8     -0.22      0.00
  -10    6    8     -0.37      0.00
   -8    6    8      0.60      0.00
   -6    6    8     -0.61      0.00
   -4    6    8      0.08      0.00
   -2    6    8      0.95      0.00
    0    6    8      0.06      0.00
    2    6    8      0.65      0.00
    4    6    8      0.50      0.00
    6    6    8      0.62      0.00
    8    6    8      0.07      0.00
  -11    7    8      0.75      0.00
   -9    7    8      0.25      0.00
   -7    7    8      0.25      0.00
   -5    7    8      1.23      0.00
   -3    7    8     -0.40      0.00
   -1    7    8     -0.02      0.00
    1    7    8      0.28      0.00
    3    7    8     -0.55      0.00
    5    7    8     -0.27      0.00
    7    7    8     -0.34      0.00
  -12    8    8     -0.46      0.00
  -10    8    8     -0.72      0.00
   -8    8    8      0.30      0.00
   -6    8    8     -0.85      0.00
   -4    8    8     -0.56      0.00
   -2    8    8      0.19      0.00
    0    8    8     -1.38      0.00
    2    8    8     -0.28      0.00
    4    8    8     -0.30      0.00
    6    8    8      0.26      0.00
    8    8    8     -0.16      0.00
  -11    9    8      0.66      0.00
   -9    9    8     -0.16      0.00
   -7    9    8     -0.21      0.00
   -5    9    8      0.47      0.00
   -3    9    8     -0.39      0.00
   -1    9    8      0.63      0.00
    1    9    8      1.17      0.00
    3    9    8      0.27      0.00
    5    9    8      0.12      0.00
    7    9    8      0.04      0.00
  -10   10    8     -0.38      0.00
   -8   10    8      0.36      0.00
   -6   10    8     -0.12      0.00
   -4   10    8      0.17      0.00
   -2   10    8      0.80      0.00
    0   10    8     -0.96      0.00
    2   10    8      0.15      0.00
    4   10    8     -0.18      0.00
    6   10    8      0.19      0.00
   -9   11    8     -0.09      0.00
   -7   11    8      0.11      0.00
   -5   11    8      0.15      0.00
   -3   11    8     -0.78      0.00
   -1   11    8      0.00      0.00
    1   11    8      0.12      0.00
    3   11    8     -0.23      0.00
    5   11    8     -0.05      0.00
   -8   12    8      0.09      0.00
   -6   12    8     -0.14      0.00
   -4   12    8      0.21      0.00
   -2   12    8      0.55      0.00
    0   12    8     -0.58      0.00
    2   12    8      0.36      0.00
    4   12    8     -0.05      0.00
   -7   13    8     -0.01      0.00
   -5   13    8     -0.11      0.00
   -3   13    8     -0.62      0.00
   -1   13    8      0.29      0.00
    1   13    8      0.00      0.00
    3   13    8     -0.31      0.00
   -6   14    8     -0.01      0.00
   -4   14    8      0.48      0.00
   -2   14    8      0.25      0.00
    0   14    8     -0.28      0.00
  -12    0    9     -0.07      0.00
  -10    0    9     -0.19      0.00
   -8    0    9     -0.11      0.00
   -6    0    9      0.01      0.00
   -4    0    9     -0.37      0.00
   -2    0    9     -0.96      0.00
    0    0    9     -0.97      0.00
    2    0    9     -0.20      0.00
    4    0    9     -0.76      0.00
    6    0    9     -0.06      0.00
    8    0    9     -0.81      0.00
  -13    1    9      0.28      0.00
  -11    1    9      0.12      0.00
   -9    1    9      0.01      0.00
   -7    1    9      0.01      0.00
   -5    1    9     -0.26      0.00
   -3    1    9      0.47      0.00
   -1    1    9      0.84      0.00
    1    1    9      0.20      0.00
    3    1    9      0.43      0.00
    5    1    9      0.03      0.00
    7    1    9      0.31      0.00
  -12    2    9     -0.02      0.00
  -10    2    9      0.05      0.00
   -8    2    9      0.18      0.00
   -6    2    9      0.53      0.00
   -4    2    9      0.38      0.00
   -2    2    9     -0.04      0.00
    0    2    9     -0.16      0.00
    2    2    9      0.30      0.00
    4    2    9     -0.07      0.00
    6    2    9      0.46      0.00
    8    2    9     -0.29      0.00
  -11    3    9     -0.17      0.00
   -9    3    9     -0.29      0.00
   -7    3    9     -0.24      0.00
   -5    3    9     -0.59      0.00
   -3    3    9     -0.45      0.00
   -1    3    9     -0.13      0.00
    1    3    9     -0.57      0.00
    3    3    9     -0.09      0.00
    5    3    9     -0.58      0.00
    7    3    9     -0.03      0.00
  -12    4    9      0.23      0.00
  -10    4    9      0.25      0.00
   -8    4    9     -0.08      0.00
   -6    4    9      0.06      0.00
   -4    4    9      0.07      0.00
   -2    4    9      0.14      0.00
    0    4    9      0.21      0.00
    2    4    9      0.24      0.00
    4    4    9      0.25      0.00
    6    4    9      0.30      0.00
  -11    5    9     -0.17      0.00
   -9    5    9     -0.03      0.00
   -7    5    9      0.18      0.00
   -5    5    9      0.36      0.00
   -3    5    9      0.25      0.00
   -1    5    9      0.45      0.00
    1    5    9      0.07      0.00
    3    5    9      0.31      0.00
    5    5    9     -0.38      0.00
    7    5    9      0.17      0.00
  -10    6    9      0.20      0.00
   -8    6    9      0.16      0.00
   -6    6    9      0.10      0.00
   -4    6    9     -0.32      0.00
   -2    6    9     -0.48      0.00
    0    6    9     -0.48      0.00
    2    6    9     -0.69      0.00
    4    6    9      0.02      0.00
    6    6    9      0.03      0.00
  -11    7    9     -0.11      0.00
   -9    7    9     -0.09      0.00
   -7    7    9     -0.65      0.00
   -5    7    9     -0.08      0.00
   -3    7    9     -0.09      0.00
   -1    7    9      0.10      0.00
    1    7    9      0.28      0.00
    3    7    9      0.28      0.00
    5    7    9     -0.24      0.00
  -10    8    9     -0.38      0.00
   -8    8    9      0.16      0.00
   -6    8    9      0.32      0.00
   -4    8    9      0.07      0.00
   -2    8    9      0.41      0.00
    0    8    9      0.51      0.00
    2    8    9     -0.01      0.00
    4    8    9      0.36      0.00
   -9    9    9      0.70      0.00
   -7    9    9     -0.34      0.00
   -5    9    9      0.31      0.00
   -3    9    9      0.00      0.00
   -1    9    9     -0.55      0.00
    1    9    9     -0.13      0.00
    3    9    9     -0.25      0.00
    5    9    9     -0.10      0.00
   -8   10    9      0.05      0.00
   -6   10    9      0.12      0.00
   -4   10    9     -0.55      0.00
   -2   10    9     -0.10      0.00
    0   10    9     -0.12      0.00
    2   10    9     -0.24      0.00
    4   10    9     -0.07      0.00
   -7   11    9     -0.62      0.00
   -5   11    9      0.27      0.00
   -3   11    9      0.51      0.00
   -1   11    9      0.14      0.00
    1   11    9      0.60      0.00
    3   11    9      0.04      0.00
   -6   12    9      0.29      0.00
   -4   12    9     -0.54      0.00
   -2   12    9     -0.04      0.00
    0   12    9     -0.38      0.00
  -10    0   10     -0.35      0.00
   -8    0   10      0.47      0.00
   -6    0   10     -0.08      0.00
   -4    0   10      0.57      0.00
   -2    0   10      0.21      0.00
    0    0   10      0.54      0.00
    2    0   10     -0.02      0.00
    4    0   10     -0.22      0.00
  -11    1   10      0.24      0.00
   -9    1   10     -0.12      0.00
   -7    1   10     -0.02      0.00
   -5    1   10      0.01      0.00
   -3    1   10     -0.10      0.00
   -1    1   10     -0.24      0.00
    1    1   10     -0.21      0.00
    3    1   10      0.20      0.00
    5    1   10      0.01      0.00
  -10    2   10     -0.19      0.00
   -8    2   10      0.19      0.00
   -6    2   10     -0.68      0.00
   -4    2   10     -0.27      0.00
   -2    2   10     -0.48      0.00
    0    2   10      0.07      0.00
    2    2   10     -0.10      0.00
    4    2   10     -0.13      0.00
   -9    3   10     -0.20      0.00
   -7    3   10      0.36      0.00
   -5    3   10      0.54      0.00
   -3    3   10      0.69      0.00
   -1    3   10      0.42      0.00
    1    3   10      0.19      0.00
    3    3   10      0.23      0.00
    5    3   10     -0.27      0.00
  -10    4   10      0.20      0.00
   -8    4   10      0.37      0.00
   -6    4   10     -0.31      0.00
   -4    4   10     -0.13      0.00
   -2    4   10     -0.46      0.00
    0    4   10     -0.28      0.00
    2    4   10     -0.32      0.00
    4    4   10     -0.12      0.00
   -9    5   10     -0.50      0.00
   -7    5   10     -0.02      0.00
   -5    5   10     -0.26      0.00
   -3    5   10     -0.07      0.00
   -1    5   10     -0.03      0.00
    1    5   10      0.11      0.00
    3    5   10      0.37      0.00
   -8    6   10     -0.01      0.00
   -6    6   10     -0.13      0.00
   -4    6   10      0.27      0.00
   -2    6   10      0.22      0.00
    0    6   10      0.25      0.00
    2    6   10     -0.06      0.00
    4    6   10     -0.01      0.00
   -9    7   10      0.04      0.00
   -7    7   10      0.49      0.00
   -5    7   10      0.07      0.00
   -3    7   10      0.00      0.00
   -1    7   10     -0.06      0.00
    1    7   10     -0.19      0.00
    3    7   10      0.10      0.00
   -8    8   10     -0.33      0.00
   -6    8   10     -0.16      0.00
   -4    8   10     -0.09      0.00
   -2    8   10     -0.34      0.00
    0    8   10     -0.06      0.00
    2    8   10     -0.17      0.00
   -7    9   10      0.13      0.00
   -5    9   10     -0.11      0.00
   -3    9   10      0.15      0.00
   -1    9   10      0.33      0.00
    1    9   10     -0.02      0.00
   -4   10   10      0.20      0.00
   -2   10   10     -0.22      0.00
   -8    0   11     -0.47      0.00
   -6    0   11     -0.37      0.00
   -4    0   11     -0.08      0.00
   -2    0   11     -0.42      0.00
    0    0   11     -0.03      0.00
    2    0   11     -0.05      0.00
   -7    1   11      0.22      0.00
   -5    1   11      0.27      0.00
   -3    1   11     -0.10      0.00
   -1    1   11      0.56      0.00
    1    1   11     -0.20      0.00
   -8    2   11     -0.26      0.00
   -6    2   11     -0.04      0.00
   -4    2   11      0.27      0.00
   -2    2   11     -0.24      0.00
    0    2   11     -0.19      0.00
    2    2   11     -0.34      0.00
   -7    3   11     -0.08      0.00
   -5    3   11     -0.02      0.00
   -3    3   11     -0.39      0.00
   -1    3   11      0.38      0.00
    1    3   11     -0.01      0.00
   -6    4   11     -0.19      0.00
   -4    4   11      0.22      0.00
   -2    4   11     -0.01      0.00
    0    4   11      0.12      0.00
   -5    5   11      0.33      0.00
   -3    5   11     -0.21      0.00
   -1    5   11      0.00      0.00
   -4    6   11      0.01      0.00
   -2    6   11      0.02      0.00
    1    1    0    -23.88      0.00
   16    6    0      0.14      0.00
   15    9    0     -0.17      0.00
   13   13    0      0.15      0.00
    8   18    0     -0.13      0.00
    4   20    0      0.08      0.00
  -14   12    1      0.14      0.00
  -13   13    1      0.24      0.00
   12   14    1     -0.24      0.00
   11   15    1      0.37      0.00
   10   16    1     -0.41      0.00
    9   17    1      0.06      0.00
   -8   18    1      0.33      0.00
   -4   20    1     -0.12      0.00
   16    0    2      0.17      0.00
   16    2    2     -0.29      0.00
   15    7    2     -0.30      0.00
   14   10    2      0.41      0.00
  -14   12    2     -0.58      0.00
   -8   18    2     -0.39      0.00
    5   19    2     -0.22      0.00
   -2   20    2     -0.29      0.00
    0   20    2     -0.04      0.00
    2   20    2     -0.09      0.00
   15    5    3      0.09      0.00
   14    8    3      0.20      0.00
   12   12    3     -0.31      0.00
  -13   13    3      0.10      0.00
   -9   17    3     -0.07      0.00
    6   18    3      0.08      0.00
   -5   19    3      0.58      0.00
  -16    6    4     -0.14      0.00
   14    6    4      0.07      0.00
  -15    9    4      0.35      0.00
   13    9    4     -0.18      0.00
  -12   14    4      0.31      0.00
   10   14    4     -0.16      0.00
  -11   15    4     -0.10      0.00
    9   15    4      0.04      0.00
  -10   16    4     -0.11      0.00
    8   16    4      0.01      0.00
   -3   19    4     -0.27      0.00
    1   19    4     -0.02      0.00
   14    0    5     -0.46      0.00
   11   11    5      0.23      0.00
    5   17    5      0.03      0.00
    2   18    5     -0.07      0.00
  -16    0    6     -0.45      0.00
   13    1    6      0.20      0.00
  -16    2    6     -0.17      0.00
   12    6    6      0.39      0.00
  -15    7    6      0.21      0.00
  -14    8    6     -0.16      0.00
   11    9    6     -0.03      0.00
  -13   11    6     -0.10      0.00
  -12   12    6      0.56      0.00
   -9   15    6     -0.36      0.00
   -8   16    6      0.16      0.00
   -5   17    6      0.37      0.00
   11    5    7     -0.09      0.00
   10    8    7     -0.30      0.00
  -13    9    7      0.22      0.00
   -7   15    7     -0.02      0.00
   10    2    8     -0.39      0.00
  -14    4    8     -0.24      0.00
  -13    7    8      0.16      0.00
    9    7    8     -0.04      0.00
    2   14    8      0.41      0.00
   -3   15    8     -0.45      0.00
   -1   15    8      0.32      0.00
  -13    3    9     -0.02      0.00
    8    4    9     -0.20      0.00
  -12    6    9      0.14      0.00
    7    7    9      0.04      0.00
    6    8    9      0.13      0.00
    2   12    9     -0.02      0.00
   -5   13    9      0.21      0.00
   -3   13    9      0.24      0.00
   -1   13    9     -0.01      0.00
    6    0   10      0.07      0.00
    6    2   10      0.19      0.00
  -11    3   10     -0.03      0.00
    5    5   10     -0.20      0.00
  -10    6   10      0.25      0.00
   -6   10   10      0.14      0.00
    0   10   10      0.25      0.00
   -3   11   10     -0.06      0.00
   -9    1   11      0.41      0.00
    3    1   11      0.48      0.00
   -8    4   11     -0.22      0.00
    2    4   11      0.10      0.00
   -7    5   11      0.13      0.00
    1    5   11     -0.47      0.00
   -6    6   11     -0.22      0.00
    0    6   11      0.18      0.00
   -5    7   11      0.10      0.00
   -3    7   11     -0.14      0.00
   -1    7   11      0.01      0.00
    0    0    0      0.00      0.00
# SQUEEZE RESULTS
# Note: Data are Listed for all Voids in the P1 Unit Cell
# i.e. Centre of Gravity, Solvent Accessible Volume,
# Recovered number of Electrons in the Void and
# Details about the Squeezed Material
loop_
  _platon_squeeze_void_nr
  _platon_squeeze_void_average_x
  _platon_squeeze_void_average_y
  _platon_squeeze_void_average_z
  _platon_squeeze_void_volume
  _platon_squeeze_void_count_electrons
  _platon_squeeze_void_content
   1  0.000  0.500 -0.077       278        21 ' '
   2  0.500  0.000 -0.094       278        21 ' '
_platon_squeeze_details
(replace by semicolon in column 1 when used as .sqf)
TITL s15prr65  C 1 2/m 1    R = 0.10
CELL   13.9532   16.6496    9.5586     90.00    100.53     90.00
SPGR C2/m
# Solvent Accessible Volume =     559.0
# Electrons Found in S.A.V. =      41.0
# Note: Atoms in Void as Cxxx and Qxxx all others
C101 0.135 0.503 0.406 !       2.25 eA-3
Q102 0.529 0.475 0.323 !       1.47 eA-3
Q103 0.934 0.030 0.362 !       1.26 eA-3
Q104 0.593 0.442 0.979 !       1.25 eA-3
Q105 0.081 0.057 0.089 !       1.13 eA-3
Q106 0.500 0.413 0.930 !       1.12 eA-3
C107 0.172 0.498 0.563 !       0.98 eA-3
Q108 0.340 0.278 0.934 !       0.96 eA-3
Q109 0.801 0.341 0.757 !       0.91 eA-3
Q110 0.264 0.208 0.027 !       0.84 eA-3
Q111 0.189 0.378 0.877 !       0.82 eA-3
Q112 0.063 0.333 0.723 !       0.63 eA-3
Q113 0.848 0.382 0.012 !       0.60 eA-3
Q114 0.137 0.415 0.071 !       0.58 eA-3
Q115 0.018 0.076 0.664 !       0.58 eA-3
C116 0.081 0.498 0.156 !       0.57 eA-3
C117 0.833 0.501 0.781 !       0.57 eA-3
Q118 0.365 0.048 0.905 !       0.55 eA-3
Q119 1.000 0.031 0.006 !       0.53 eA-3
Q120 0.718 0.234 0.094 !       0.52 eA-3
Q121 0.030 0.127 0.123 !       0.52 eA-3
(replace by semicolon in column 1 when used as .sqf)
;
_olex2_submission_special_instructions 'No special instructions were received'
loop_
_space_group_symop_operation_xyz
'x, y, z'
'-x, y, -z'
'x+1/2, y+1/2, z'
'-x+1/2, y+1/2, -z'
'-x, -y, -z'
'x, -y, z'
'-x+1/2, -y+1/2, -z'
'x+1/2, -y+1/2, z'
loop_
_atom_site_label
_atom_site_type_symbol
_atom_site_fract_x
_atom_site_fract_y
_atom_site_fract_z
_atom_site_U_iso_or_equiv
_atom_site_adp_type
_atom_site_occupancy
_atom_site_site_symmetry_order
_atom_site_calc_flag
_atom_site_refinement_flags_posn
_atom_site_refinement_flags_adp
_atom_site_refinement_flags_occupancy
_atom_site_disorder_assembly
_atom_site_disorder_group
Zn1 Zn 0.52108(6) 0.5000 0.65711(8) 0.0215(4) Uani 1 2 d S T P A .
O1 O 0.4188(3) 0.4144(3) 0.5894(4) 0.0460(11) Uani 1 1 d . . . . .
O2 O 0.3769(3) 0.4141(3) 0.3520(4) 0.0450(11) Uani 1 1 d . . . . .
O3 O 0.1191(18) 0.2464(15) 0.078(3) 0.075(7) Uani 0.22 1 d D U . . .
O4 O 0.060(4) 0.302(3) -0.201(6) 0.150 Uiso 0.22 1 d D U . . .
N1 N 0.5073(4) 0.5000 0.8673(6) 0.0260(12) Uani 1 2 d S T P . .
N2 N 0.2326(11) 0.3190(10) 0.2312(19) 0.044(4) Uani 0.25 1 d D U . . .
H2 H 0.2717 0.3588 0.2297 0.053 Uiso 0.25 1 calc R . . . .
C1 C 0.3717(4) 0.3880(3) 0.4746(6) 0.0381(12) Uani 1 1 d . . . . .
C2 C 0.3075(4) 0.3163(4) 0.4854(6) 0.0398(13) Uani 1 1 d . . . . .
C3 C 0.2415(6) 0.2872(5) 0.3679(7) 0.065(2) Uani 1 1 d . . . . .
C4 C 0.3144(6) 0.2784(5) 0.6138(7) 0.063(2) Uani 1 1 d . . . . .
H4 H 0.3585 0.2978 0.6913 0.076 Uiso 1 1 calc R . . . .
C5 C 0.176(2) 0.304(2) 0.091(2) 0.064(8) Uani 0.22 1 d D U . . .
C6 C 0.199(3) 0.345(3) -0.034(4) 0.096(13) Uani 0.22 1 d D U . . .
C7 C 0.128(5) 0.352(4) -0.166(7) 0.150 Uiso 0.22 1 d D U . . .
C8 C 0.4033(15) 0.5000 0.879(2) 0.061(5) Uani 0.5 2 d S TU P A 1
C9 C 0.4560(13) 0.4279(9) 0.9019(16) 0.061(4) Uani 0.5 1 d . U . A 2
C11 C 0.6087(16) 0.5000 0.962(2) 0.062(5) Uani 0.5 2 d S TU P A 1
C10 C 0.5469(14) 0.4248(10) 0.9363(15) 0.066(4) Uani 0.5 1 d . U . A 3
loop_
_atom_site_aniso_label
_atom_site_aniso_U_11
_atom_site_aniso_U_22
_atom_site_aniso_U_33
_atom_site_aniso_U_23
_atom_site_aniso_U_13
_atom_site_aniso_U_12
Zn1 0.0363(6) 0.0222(5) 0.0075(5) 0.000 0.0081(3) 0.000
O1 0.067(3) 0.051(2) 0.0221(19) -0.0108(17) 0.0135(18) -0.034(2)
O2 0.062(2) 0.048(2) 0.0237(19) 0.0083(17) 0.0048(17) -0.030(2)
O3 0.087(10) 0.077(10) 0.058(10) 0.005(8) 0.000(8) -0.022(8)
N1 0.038(3) 0.025(3) 0.017(3) 0.000 0.010(2) 0.000
N2 0.054(8) 0.049(8) 0.027(7) 0.017(6) -0.002(6) -0.031(7)
C1 0.054(3) 0.039(3) 0.024(3) 0.000(2) 0.013(2) -0.017(2)
C2 0.059(3) 0.042(3) 0.020(2) 0.001(2) 0.010(2) -0.024(3)
C3 0.094(5) 0.074(5) 0.025(3) 0.014(3) 0.000(3) -0.047(4)
C4 0.091(5) 0.073(5) 0.022(3) 0.006(3) 0.001(3) -0.047(4)
C5 0.080(16) 0.076(16) 0.031(12) 0.007(12) -0.004(11) -0.036(14)
C6 0.077(17) 0.11(2) 0.09(2) -0.008(16) -0.013(14) -0.050(16)
C8 0.053(8) 0.096(10) 0.037(7) 0.000 0.017(6) 0.000
C9 0.085(6) 0.059(6) 0.044(5) 0.000(5) 0.026(5) -0.029(5)
C11 0.058(8) 0.092(10) 0.039(8) 0.000 0.015(7) 0.000
C10 0.105(8) 0.061(7) 0.037(6) 0.017(5) 0.025(6) 0.035(7)
loop_
_atom_type_symbol
_atom_type_description
_atom_type_scat_dispersion_real
_atom_type_scat_dispersion_imag
_atom_type_scat_source
C C 0.0181 0.0091 'International Tables Vol C Tables 4.2.6.8 and 6.1.1.4'
H H 0.0000 0.0000 'International Tables Vol C Tables 4.2.6.8 and 6.1.1.4'
N N 0.0311 0.0180 'International Tables Vol C Tables 4.2.6.8 and 6.1.1.4'
O O 0.0492 0.0322 'International Tables Vol C Tables 4.2.6.8 and 6.1.1.4'
Zn Zn -1.5491 0.6778 'International Tables Vol C Tables 4.2.6.8 and 6.1.1.4'
loop_
_geom_angle_atom_site_label_1
_geom_angle_atom_site_label_2
_geom_angle_atom_site_label_3
_geom_angle
_geom_angle_site_symmetry_1
_geom_angle_site_symmetry_3
O1 Zn1 Zn1 71.27(11) 6_565 5_666
O1 Zn1 Zn1 71.27(11) . 5_666
O1 Zn1 O1 88.8(3) 6_565 .
O1 Zn1 N1 97.21(16) . .
O1 Zn1 N1 97.21(16) 6_565 .
O2 Zn1 Zn1 88.12(11) 5_666 5_666
O2 Zn1 Zn1 88.12(11) 2_656 5_666
O2 Zn1 O1 87.1(2) 5_666 6_565
O2 Zn1 O1 159.21(17) 2_656 6_565
O2 Zn1 O1 159.21(17) 5_666 .
O2 Zn1 O1 87.1(2) 2_656 .
O2 Zn1 O2 89.5(3) 5_666 2_656
O2 Zn1 N1 103.52(16) 2_656 .
O2 Zn1 N1 103.52(16) 5_666 .
N1 Zn1 Zn1 163.42(18) . 5_666
C1 O1 Zn1 138.6(4) . .
C1 O2 Zn1 116.2(3) . 5_666
C8 N1 Zn1 110.1(9) . .
C8 N1 C11 140.3(11) . .
C9 N1 Zn1 111.0(6) 6_565 .
C9 N1 Zn1 111.0(6) . .
C9 N1 C9 109.9(15) 6_565 .
C11 N1 Zn1 109.6(8) . .
C10 N1 Zn1 110.1(6) 6_565 .
C10 N1 Zn1 110.1(6) . .
C10 N1 C10 116.2(15) . 6_565
C3 N2 H2 111.1 . .
C3 N2 C5 137.7(18) . .
C5 N2 H2 111.1 . .
O1 C1 O2 125.5(5) . .
O1 C1 C2 116.3(5) . .
O2 C1 C2 118.1(5) . .
C3 C2 C1 122.1(5) . .
C4 C2 C1 118.7(5) . .
C4 C2 C3 119.2(6) . .
N2 C3 C2 123.5(9) . .
C4 C3 N2 117.8(9) 7_556 .
C4 C3 C2 118.6(6) 7_556 .
C2 C4 C3 122.2(6) . 7_556
C2 C4 H4 118.9 . .
C3 C4 H4 118.9 7_556 .
O3 C5 N2 118(2) . .
O3 C5 C6 121(3) . .
N2 C5 C6 120(3) . .
C7 C6 C5 121(4) . .
O4 C7 C6 123(6) . .
N1 C8 C11 110.9(15) . 5_667
N1 C11 C8 108.8(15) . 5_667
N1 C10 C10 92.3(10) . 2_657
loop_
_geom_bond_atom_site_label_1
_geom_bond_atom_site_label_2
_geom_bond_distance
_geom_bond_site_symmetry_2
Zn1 Zn1 2.9533(14) 5_666
Zn1 O1 2.037(4) .
Zn1 O1 2.037(4) 6_565
Zn1 O2 2.030(4) 2_656
Zn1 O2 2.030(4) 5_666
Zn1 N1 2.053(6) .
O1 C1 1.251(7) .
O2 Zn1 2.030(4) 5_666
O2 C1 1.265(7) .
O3 C5 1.23(4) .
O4 C7 1.25(4) .
N1 C8 1.48(2) .
N1 C9 1.466(14) .
N1 C9 1.466(14) 6_565
N1 C11 1.53(2) .
N1 C10 1.474(14) 6_565
N1 C10 1.474(14) .
N2 H2 0.8600 .
N2 C3 1.394(18) .
N2 C5 1.45(2) .
C1 C2 1.506(7) .
C2 C3 1.402(8) .
C2 C4 1.368(8) .
C3 C4 1.372(9) 7_556
C4 C3 1.372(9) 7_556
C4 H4 0.9300 .
C5 C6 1.47(3) .
C6 C7 1.46(3) .
C8 C11 1.56(3) 5_667
C11 C8 1.56(3) 5_667
C10 C10 1.94(3) 2_657
loop_
_geom_torsion_atom_site_label_1
_geom_torsion_atom_site_label_2
_geom_torsion_atom_site_label_3
_geom_torsion_atom_site_label_4
_geom_torsion
_geom_torsion_site_symmetry_1
_geom_torsion_site_symmetry_4
Zn1 O1 C1 O2 -1.4(11) . .
Zn1 O1 C1 C2 175.4(5) . .
Zn1 O2 C1 O1 5.4(9) 5_666 .
Zn1 O2 C1 C2 -171.5(4) 5_666 .
Zn1 N1 C8 C11 180.000(5) . 5_667
Zn1 N1 C11 C8 180.000(5) . 5_667
Zn1 N1 C10 C10 -147.7(7) . 2_657
O1 C1 C2 C3 171.5(7) . .
O1 C1 C2 C4 -8.8(10) . .
O2 C1 C2 C3 -11.4(10) . .
O2 C1 C2 C4 168.3(7) . .
O3 C5 C6 C7 32(8) . .
N2 C5 C6 C7 -160(5) . .
C1 C2 C3 N2 3.1(14) . .
C1 C2 C3 C4 179.9(7) . 7_556
C1 C2 C4 C3 -179.9(8) . 7_556
C3 N2 C5 O3 -2(5) . .
C3 N2 C5 C6 -171(3) . .
C3 C2 C4 C3 -0.3(15) . 7_556
C4 C2 C3 N2 -176.6(11) . .
C4 C2 C3 C4 0.3(15) . 7_556
C5 N2 C3 C2 179(2) . .
C5 N2 C3 C4 2(3) . 7_556
C5 C6 C7 O4 -27(11) . .
C8 N1 C11 C8 0.000(8) . 5_667
C8 N1 C10 C10 -29.3(13) . 2_657
C9 N1 C8 C11 77.5(9) . 5_667
C9 N1 C8 C11 -77.5(9) 6_565 5_667
C9 N1 C11 C8 59.2(7) 6_565 5_667
C9 N1 C11 C8 -59.2(7) . 5_667
C9 N1 C10 C10 27(2) 6_565 2_657
C9 N1 C10 C10 -46.7(10) . 2_657
C11 N1 C8 C11 0.000(8) . 5_667
C11 N1 C10 C10 110.6(13) . 2_657
C10 N1 C8 C11 61.5(7) . 5_667
C10 N1 C8 C11 -61.5(7) 6_565 5_667
C10 N1 C11 C8 77.4(8) 6_565 5_667
C10 N1 C11 C8 -77.4(8) . 5_667
C10 N1 C10 C10 86.3(16) 6_565 2_657
