#------------------------------------------------------------------------------
#$Date: 2019-11-25 02:38:54 +0200 (Mon, 25 Nov 2019) $
#$Revision: 239977 $
#$URL: file:///home/coder/svn-repositories/cod/cif/4/35/06/4350653.cif $
#------------------------------------------------------------------------------
#
# This file is available in the Crystallography Open Database (COD),
# http://www.crystallography.net/
#
# All data on this site have been placed in the public domain by the
# contributors.
#
data_4350653
loop_
_publ_author_name
'Huang, Xiao-feng'
'Ma, Jing-xin'
'Liu, Wei-sheng'
_publ_section_title
;
 Lanthanide metalloligand strategy toward d-f heterometallic metal-organic
 frameworks: magnetism and symmetric-dependent luminescent properties.
;
_journal_issue                   12
_journal_name_full               'Inorganic chemistry'
_journal_page_first              5922
_journal_page_last               5930
_journal_paper_doi               10.1021/ic403080n
_journal_volume                  53
_journal_year                    2014
_chemical_formula_sum            'C24 H30 Cd3 Ho2 O48'
_chemical_formula_weight         1753.57
_space_group_IT_number           228
_space_group_name_Hall           '-F 4ud 2vw 3'
_space_group_name_H-M_alt        'F d -3 c :2'
_symmetry_cell_setting           cubic
_symmetry_space_group_name_H-M   'F d -3 c :2'
_atom_sites_solution_hydrogens   geom
_atom_sites_solution_primary     direct
_atom_sites_solution_secondary   difmap
_audit_creation_method           SHELXL-97
_cell_angle_alpha                90.00
_cell_angle_beta                 90.00
_cell_angle_gamma                90.00
_cell_formula_units_Z            16
_cell_length_a                   26.179(3)
_cell_length_b                   26.179(3)
_cell_length_c                   26.179(3)
_cell_measurement_temperature    293(2)
_cell_volume                     17942(4)
_computing_structure_refinement  'SHELXL-97 (Sheldrick, 1997)'
_computing_structure_solution    'SHELXS-97 (Sheldrick, 1990)'
_diffrn_ambient_temperature      293(2)
_diffrn_measured_fraction_theta_full 0.999
_diffrn_measured_fraction_theta_max 0.999
_diffrn_radiation_monochromator  graphite
_diffrn_radiation_source         'fine-focus sealed tube'
_diffrn_radiation_type           MoK\a
_diffrn_radiation_wavelength     0.71073
_diffrn_reflns_av_R_equivalents  0.0362
_diffrn_reflns_av_sigmaI/netI    0.0110
_diffrn_reflns_limit_h_max       33
_diffrn_reflns_limit_h_min       -34
_diffrn_reflns_limit_k_max       34
_diffrn_reflns_limit_k_min       -22
_diffrn_reflns_limit_l_max       34
_diffrn_reflns_limit_l_min       -33
_diffrn_reflns_number            24325
_diffrn_reflns_theta_full        28.29
_diffrn_reflns_theta_max         28.29
_diffrn_reflns_theta_min         2.20
_exptl_absorpt_coefficient_mu    5.029
_exptl_absorpt_correction_T_max  0.267
_exptl_absorpt_correction_T_min  0.175
_exptl_absorpt_correction_type   multi-scan
_exptl_absorpt_process_details   SADABS
_exptl_crystal_colour            colorless
_exptl_crystal_density_diffrn    2.597
_exptl_crystal_density_method    'not measured'
_exptl_crystal_description       block
_exptl_crystal_F_000             13376.0
_exptl_crystal_size_max          0.37
_exptl_crystal_size_mid          0.33
_exptl_crystal_size_min          0.29
_refine_diff_density_max         1.575
_refine_diff_density_min         -2.050
_refine_diff_density_rms         0.199
_refine_ls_extinction_method     none
_refine_ls_goodness_of_fit_ref   1.018
_refine_ls_hydrogen_treatment    constr
_refine_ls_matrix_type           full
_refine_ls_number_parameters     64
_refine_ls_number_reflns         940
_refine_ls_number_restraints     2
_refine_ls_restrained_S_all      1.019
_refine_ls_R_factor_all          0.0914
_refine_ls_R_factor_gt           0.0519
_refine_ls_shift/su_max          0.000
_refine_ls_shift/su_mean         0.000
_refine_ls_structure_factor_coef Fsqd
_refine_ls_weighting_details
'calc w=1/[\s^2^(Fo^2^)+(0.0641P)^2^+1899.8850P] where P=(Fo^2^+2Fc^2^)/3'
_refine_ls_weighting_scheme      calc
_refine_ls_wR_factor_gt          0.1330
_refine_ls_wR_factor_ref         0.1940
_reflns_number_gt                497
_reflns_number_total             940
_reflns_threshold_expression     >2sigma(I)
_cod_data_source_file            ic403080n_si_002.cif
_cod_data_source_block           3b
_cod_original_cell_volume        17942(6)
_cod_original_sg_symbol_H-M      Fd-3c
_cod_original_formula_sum        'C24 H30 Cd3 Ho2 O48  '
_cod_database_code               4350653
loop_
_symmetry_equiv_pos_as_xyz
'x, y, z'
'-y, x+1/4, z+3/4'
'-x+3/4, -y+1/4, z+1/2'
'y+3/4, -x, z+1/4'
'x, -y+1/4, -z+1/4'
'y+3/4, x+1/4, -z'
'-x+3/4, y, -z+3/4'
'-y, -x, -z+1/2'
'z, x, y'
'-x, z+1/4, y+3/4'
'-z+3/4, -x+1/4, y+1/2'
'x+3/4, -z, y+1/4'
'z, -x+1/4, -y+1/4'
'x+3/4, z+1/4, -y'
'-z+3/4, x, -y+3/4'
'-x, -z, -y+1/2'
'y, z, x'
'-z+1/2, -y, -x'
'-z, y+3/4, x+1/4'
'z+1/4, y+3/4, -x'
'z+3/4, -y, x+1/4'
'y, -z+3/4, -x+3/4'
'-y+1/4, -z+1/4, x'
'-y+1/4, z+1/2, -x+3/4'
'x, y+1/2, z+1/2'
'-y, x+3/4, z+5/4'
'-x+3/4, -y+3/4, z+1'
'y+3/4, -x+1/2, z+3/4'
'x, -y+3/4, -z+3/4'
'y+3/4, x+3/4, -z+1/2'
'-x+3/4, y+1/2, -z+5/4'
'-y, -x+1/2, -z+1'
'z, x+1/2, y+1/2'
'-x, z+3/4, y+5/4'
'-z+3/4, -x+3/4, y+1'
'x+3/4, -z+1/2, y+3/4'
'z, -x+3/4, -y+3/4'
'x+3/4, z+3/4, -y+1/2'
'-z+3/4, x+1/2, -y+5/4'
'-x, -z+1/2, -y+1'
'y, z+1/2, x+1/2'
'-z+1/2, -y+1/2, -x+1/2'
'-z, y+5/4, x+3/4'
'z+1/4, y+5/4, -x+1/2'
'z+3/4, -y+1/2, x+3/4'
'y, -z+5/4, -x+5/4'
'-y+1/4, -z+3/4, x+1/2'
'-y+1/4, z+1, -x+5/4'
'x+1/2, y, z+1/2'
'-y+1/2, x+1/4, z+5/4'
'-x+5/4, -y+1/4, z+1'
'y+5/4, -x, z+3/4'
'x+1/2, -y+1/4, -z+3/4'
'y+5/4, x+1/4, -z+1/2'
'-x+5/4, y, -z+5/4'
'-y+1/2, -x, -z+1'
'z+1/2, x, y+1/2'
'-x+1/2, z+1/4, y+5/4'
'-z+5/4, -x+1/4, y+1'
'x+5/4, -z, y+3/4'
'z+1/2, -x+1/4, -y+3/4'
'x+5/4, z+1/4, -y+1/2'
'-z+5/4, x, -y+5/4'
'-x+1/2, -z, -y+1'
'y+1/2, z, x+1/2'
'-z+1, -y, -x+1/2'
'-z+1/2, y+3/4, x+3/4'
'z+3/4, y+3/4, -x+1/2'
'z+5/4, -y, x+3/4'
'y+1/2, -z+3/4, -x+5/4'
'-y+3/4, -z+1/4, x+1/2'
'-y+3/4, z+1/2, -x+5/4'
'x+1/2, y+1/2, z'
'-y+1/2, x+3/4, z+3/4'
'-x+5/4, -y+3/4, z+1/2'
'y+5/4, -x+1/2, z+1/4'
'x+1/2, -y+3/4, -z+1/4'
'y+5/4, x+3/4, -z'
'-x+5/4, y+1/2, -z+3/4'
'-y+1/2, -x+1/2, -z+1/2'
'z+1/2, x+1/2, y'
'-x+1/2, z+3/4, y+3/4'
'-z+5/4, -x+3/4, y+1/2'
'x+5/4, -z+1/2, y+1/4'
'z+1/2, -x+3/4, -y+1/4'
'x+5/4, z+3/4, -y'
'-z+5/4, x+1/2, -y+3/4'
'-x+1/2, -z+1/2, -y+1/2'
'y+1/2, z+1/2, x'
'-z+1, -y+1/2, -x'
'-z+1/2, y+5/4, x+1/4'
'z+3/4, y+5/4, -x'
'z+5/4, -y+1/2, x+1/4'
'y+1/2, -z+5/4, -x+3/4'
'-y+3/4, -z+3/4, x'
'-y+3/4, z+1, -x+3/4'
'-x, -y, -z'
'y, -x-1/4, -z-3/4'
'x-3/4, y-1/4, -z-1/2'
'-y-3/4, x, -z-1/4'
'-x, y-1/4, z-1/4'
'-y-3/4, -x-1/4, z'
'x-3/4, -y, z-3/4'
'y, x, z-1/2'
'-z, -x, -y'
'x, -z-1/4, -y-3/4'
'z-3/4, x-1/4, -y-1/2'
'-x-3/4, z, -y-1/4'
'-z, x-1/4, y-1/4'
'-x-3/4, -z-1/4, y'
'z-3/4, -x, y-3/4'
'x, z, y-1/2'
'-y, -z, -x'
'z-1/2, y, x'
'z, -y-3/4, -x-1/4'
'-z-1/4, -y-3/4, x'
'-z-3/4, y, -x-1/4'
'-y, z-3/4, x-3/4'
'y-1/4, z-1/4, -x'
'y-1/4, -z-1/2, x-3/4'
'-x, -y+1/2, -z+1/2'
'y, -x+1/4, -z-1/4'
'x-3/4, y+1/4, -z'
'-y-3/4, x+1/2, -z+1/4'
'-x, y+1/4, z+1/4'
'-y-3/4, -x+1/4, z+1/2'
'x-3/4, -y+1/2, z-1/4'
'y, x+1/2, z'
'-z, -x+1/2, -y+1/2'
'x, -z+1/4, -y-1/4'
'z-3/4, x+1/4, -y'
'-x-3/4, z+1/2, -y+1/4'
'-z, x+1/4, y+1/4'
'-x-3/4, -z+1/4, y+1/2'
'z-3/4, -x+1/2, y-1/4'
'x, z+1/2, y'
'-y, -z+1/2, -x+1/2'
'z-1/2, y+1/2, x+1/2'
'z, -y-1/4, -x+1/4'
'-z-1/4, -y-1/4, x+1/2'
'-z-3/4, y+1/2, -x+1/4'
'-y, z-1/4, x-1/4'
'y-1/4, z+1/4, -x+1/2'
'y-1/4, -z, x-1/4'
'-x+1/2, -y, -z+1/2'
'y+1/2, -x-1/4, -z-1/4'
'x-1/4, y-1/4, -z'
'-y-1/4, x, -z+1/4'
'-x+1/2, y-1/4, z+1/4'
'-y-1/4, -x-1/4, z+1/2'
'x-1/4, -y, z-1/4'
'y+1/2, x, z'
'-z+1/2, -x, -y+1/2'
'x+1/2, -z-1/4, -y-1/4'
'z-1/4, x-1/4, -y'
'-x-1/4, z, -y+1/4'
'-z+1/2, x-1/4, y+1/4'
'-x-1/4, -z-1/4, y+1/2'
'z-1/4, -x, y-1/4'
'x+1/2, z, y'
'-y+1/2, -z, -x+1/2'
'z, y, x+1/2'
'z+1/2, -y-3/4, -x+1/4'
'-z+1/4, -y-3/4, x+1/2'
'-z-1/4, y, -x+1/4'
'-y+1/2, z-3/4, x-1/4'
'y+1/4, z-1/4, -x+1/2'
'y+1/4, -z-1/2, x-1/4'
'-x+1/2, -y+1/2, -z'
'y+1/2, -x+1/4, -z-3/4'
'x-1/4, y+1/4, -z-1/2'
'-y-1/4, x+1/2, -z-1/4'
'-x+1/2, y+1/4, z-1/4'
'-y-1/4, -x+1/4, z'
'x-1/4, -y+1/2, z-3/4'
'y+1/2, x+1/2, z-1/2'
'-z+1/2, -x+1/2, -y'
'x+1/2, -z+1/4, -y-3/4'
'z-1/4, x+1/4, -y-1/2'
'-x-1/4, z+1/2, -y-1/4'
'-z+1/2, x+1/4, y-1/4'
'-x-1/4, -z+1/4, y'
'z-1/4, -x+1/2, y-3/4'
'x+1/2, z+1/2, y-1/2'
'-y+1/2, -z+1/2, -x'
'z, y+1/2, x'
'z+1/2, -y-1/4, -x-1/4'
'-z+1/4, -y-1/4, x'
'-z-1/4, y+1/2, -x-1/4'
'-y+1/2, z-1/4, x-3/4'
'y+1/4, z+1/4, -x'
'y+1/4, -z, x-3/4'
loop_
_atom_site_label
_atom_site_type_symbol
_atom_site_fract_x
_atom_site_fract_y
_atom_site_fract_z
_atom_site_U_iso_or_equiv
_atom_site_adp_type
_atom_site_occupancy
_atom_site_symmetry_multiplicity
_atom_site_calc_flag
_atom_site_refinement_flags
Ho2 Ho 0.0000 0.2500 0.0000 0.0355(4) Uani 1 6 d S
Cd1 Cd 0.0000 0.5000 0.0000 0.0328(4) Uani 1 6 d S
O2 O 0.0142(4) 0.4175(4) -0.0222(4) 0.073(3) Uani 1 1 d .
O3 O 0.0089(4) 0.3343(3) -0.0300(3) 0.065(2) Uani 1 1 d .
O1 O 0.0000 0.3156(3) 0.0656(3) 0.060(3) Uani 1 2 d S
C2 C 0.0087(5) 0.3736(4) -0.0012(5) 0.058(4) Uani 1 1 d .
C1 C 0.0031(6) 0.3674(5) 0.0546(6) 0.075(4) Uani 1 1 d .
H1A H 0.0321 0.3824 0.0720 0.090 Uiso 1 1 calc R
H1B H -0.0276 0.3847 0.0662 0.090 Uiso 1 1 calc R
Cd2 Cd 0.1250 0.1250 0.1250 0.0843(13) Uani 1 12 d S
O4 O 0.0388(7) 0.1250 0.1250 0.113(7) Uani 1 2 d SD
H4 H 0.0283 0.1019 0.1066 0.170 Uiso 0.50 1 calc PRD
O5 O 0.9225(18) 0.1250 0.1250 0.262(18) Uani 1 2 d S
O6 O 0.094(6) 0.344(6) 0.0000 2.0(4) Uani 1 2 d S
loop_
_atom_site_aniso_label
_atom_site_aniso_U_11
_atom_site_aniso_U_22
_atom_site_aniso_U_33
_atom_site_aniso_U_23
_atom_site_aniso_U_13
_atom_site_aniso_U_12
Ho2 0.0355(4) 0.0355(4) 0.0355(4) -0.0124(2) 0.0124(2) -0.0124(2)
Cd1 0.0328(4) 0.0328(4) 0.0328(4) -0.0023(3) -0.0023(3) -0.0023(3)
O2 0.076(6) 0.063(6) 0.079(7) -0.012(5) 0.006(5) -0.009(5)
O3 0.074(6) 0.059(6) 0.061(5) -0.007(4) 0.012(5) -0.012(4)
O1 0.077(9) 0.051(4) 0.051(4) -0.016(5) 0.011(4) -0.011(4)
C2 0.050(7) 0.040(7) 0.083(10) -0.012(6) -0.001(6) -0.014(5)
C1 0.101(12) 0.058(8) 0.066(9) -0.020(7) 0.020(8) -0.014(7)
Cd2 0.0843(13) 0.0843(13) 0.0843(13) 0.000 0.000 0.000
O4 0.077(11) 0.086(14) 0.18(2) 0.008(12) 0.000 0.000
O5 0.35(6) 0.12(2) 0.32(5) -0.01(2) 0.000 0.000
O6 2.0(5) 2.0(5) 2.0(9) -1.0(6) 1.0(6) -1.0(5)
loop_
_atom_type_symbol
_atom_type_description
_atom_type_scat_dispersion_real
_atom_type_scat_dispersion_imag
_atom_type_scat_source
C C 0.0033 0.0016 'International Tables Vol C Tables 4.2.6.8 and 6.1.1.4'
H H 0.0000 0.0000 'International Tables Vol C Tables 4.2.6.8 and 6.1.1.4'
Cd Cd -0.8075 1.2024 'International Tables Vol C Tables 4.2.6.8 and 6.1.1.4'
Ho Ho -0.2175 4.6783 'International Tables Vol C Tables 4.2.6.8 and 6.1.1.4'
O O 0.0106 0.0060 'International Tables Vol C Tables 4.2.6.8 and 6.1.1.4'
loop_
_geom_angle_atom_site_label_1
_geom_angle_atom_site_label_2
_geom_angle_atom_site_label_3
_geom_angle
_geom_angle_site_symmetry_1
_geom_angle_site_symmetry_3
O3 Ho2 O3 129.5(4) 6_455 13
O3 Ho2 O3 144.3(4) 6_455 23
O3 Ho2 O3 79.2(4) 13 23
O3 Ho2 O3 79.2(4) 6_455 90_455
O3 Ho2 O3 85.7(5) 13 90_455
O3 Ho2 O3 129.5(4) 23 90_455
O3 Ho2 O3 85.7(5) 6_455 .
O3 Ho2 O3 79.2(4) 13 .
O3 Ho2 O3 79.2(4) 23 .
O3 Ho2 O3 144.3(4) 90_455 .
O3 Ho2 O3 79.2(4) 6_455 10_554
O3 Ho2 O3 144.3(4) 13 10_554
O3 Ho2 O3 85.7(5) 23 10_554
O3 Ho2 O3 79.2(4) 90_455 10_554
O3 Ho2 O3 129.5(4) . 10_554
O3 Ho2 O1 72.2(2) 6_455 .
O3 Ho2 O1 137.1(2) 13 .
O3 Ho2 O1 72.2(2) 23 .
O3 Ho2 O1 137.1(2) 90_455 .
O3 Ho2 O1 64.7(2) . .
O3 Ho2 O1 64.7(2) 10_554 .
O3 Ho2 O1 137.1(2) 6_455 90_455
O3 Ho2 O1 72.2(2) 13 90_455
O3 Ho2 O1 64.7(2) 23 90_455
O3 Ho2 O1 64.7(2) 90_455 90_455
O3 Ho2 O1 137.1(2) . 90_455
O3 Ho2 O1 72.2(2) 10_554 90_455
O1 Ho2 O1 120.0 . 90_455
O3 Ho2 O1 64.7(2) 6_455 6_455
O3 Ho2 O1 64.7(2) 13 6_455
O3 Ho2 O1 137.1(2) 23 6_455
O3 Ho2 O1 72.2(2) 90_455 6_455
O3 Ho2 O1 72.2(2) . 6_455
O3 Ho2 O1 137.1(2) 10_554 6_455
O1 Ho2 O1 120.000(1) . 6_455
O1 Ho2 O1 120.0 90_455 6_455
O2 Cd1 O2 87.4(4) 97_565 185
O2 Cd1 O2 180.0(5) 97_565 .
O2 Cd1 O2 92.6(4) 185 .
O2 Cd1 O2 92.6(4) 97_565 33_554
O2 Cd1 O2 92.6(4) 185 33_554
O2 Cd1 O2 87.4(4) . 33_554
O2 Cd1 O2 87.4(4) 97_565 129
O2 Cd1 O2 87.4(4) 185 129
O2 Cd1 O2 92.6(4) . 129
O2 Cd1 O2 180.0(5) 33_554 129
O2 Cd1 O2 92.6(4) 97_565 89_455
O2 Cd1 O2 180.00(15) 185 89_455
O2 Cd1 O2 87.4(4) . 89_455
O2 Cd1 O2 87.4(4) 33_554 89_455
O2 Cd1 O2 92.6(4) 129 89_455
C2 O2 Cd1 136.5(9) . .
C2 O3 Ho2 123.9(9) . .
C1 O1 C1 114.1(14) . 10_554
C1 O1 Ho2 122.9(7) . .
C1 O1 Ho2 122.9(7) 10_554 .
O3 C2 O2 117.9(13) . .
O3 C2 C1 119.9(11) . .
O2 C2 C1 122.2(11) . .
O1 C1 C2 108.5(10) . .
O1 C1 H1A 110.0 . .
C2 C1 H1A 110.0 . .
O1 C1 H1B 110.0 . .
C2 C1 H1B 110.0 . .
H1A C1 H1B 108.4 . .
O4 Cd2 O4 90.000(1) 17 .
O4 Cd2 O4 90.0 17 9
O4 Cd2 O4 90.000(1) . 9
O4 Cd2 O4 180.000(1) 17 46_544
O4 Cd2 O4 90.000(1) . 46_544
O4 Cd2 O4 90.0 9 46_544
O4 Cd2 O4 90.0 17 59_454
O4 Cd2 O4 90.0 . 59_454
O4 Cd2 O4 180.0 9 59_454
O4 Cd2 O4 90.0 46_544 59_454
O4 Cd2 O4 90.0 17 51_454
O4 Cd2 O4 180.0 . 51_454
O4 Cd2 O4 90.0 9 51_454
O4 Cd2 O4 90.000(1) 46_544 51_454
O4 Cd2 O4 90.0 59_454 51_454
Cd2 O4 H4 109.5 . .
loop_
_geom_bond_atom_site_label_1
_geom_bond_atom_site_label_2
_geom_bond_distance
_geom_bond_site_symmetry_2
Ho2 O3 2.355(9) 6_455
Ho2 O3 2.355(9) 13
Ho2 O3 2.355(9) 23
Ho2 O3 2.355(9) 90_455
Ho2 O3 2.355(9) .
Ho2 O3 2.355(9) 10_554
Ho2 O1 2.430(11) .
Ho2 O1 2.430(11) 90_455
Ho2 O1 2.430(11) 6_455
Cd1 O2 2.268(10) 97_565
Cd1 O2 2.268(10) 185
Cd1 O2 2.268(10) .
Cd1 O2 2.268(10) 33_554
Cd1 O2 2.268(10) 129
Cd1 O2 2.268(10) 89_455
O2 C2 1.282(14) .
O3 C2 1.275(13) .
O1 C1 1.388(14) .
O1 C1 1.388(14) 10_554
C2 C1 1.477(19) .
C1 H1A 0.9700 .
C1 H1B 0.9700 .
Cd2 O4 2.257(17) 17
Cd2 O4 2.257(17) .
Cd2 O4 2.257(17) 9
Cd2 O4 2.257(17) 46_544
Cd2 O4 2.257(17) 59_454
Cd2 O4 2.257(17) 51_454
O4 H4 0.8200 .
loop_
_geom_torsion_atom_site_label_1
_geom_torsion_atom_site_label_2
_geom_torsion_atom_site_label_3
_geom_torsion_atom_site_label_4
_geom_torsion
_geom_torsion_site_symmetry_1
_geom_torsion_site_symmetry_4
O2 Cd1 O2 C2 105(87) 97_565 .
O2 Cd1 O2 C2 123.1(14) 185 .
O2 Cd1 O2 C2 -144.5(12) 33_554 .
O2 Cd1 O2 C2 35.5(12) 129 .
O2 Cd1 O2 C2 -56.9(14) 89_455 .
O3 Ho2 O3 C2 -73.8(10) 6_455 .
O3 Ho2 O3 C2 154.7(10) 13 .
O3 Ho2 O3 C2 73.7(11) 23 .
O3 Ho2 O3 C2 -138.6(10) 90_455 .
O3 Ho2 O3 C2 -1.5(9) 10_554 .
O1 Ho2 O3 C2 -1.5(9) . .
O1 Ho2 O3 C2 106.2(10) 90_455 .
O1 Ho2 O3 C2 -138.6(10) 6_455 .
O3 Ho2 O1 C1 96.1(9) 6_455 .
O3 Ho2 O1 C1 -33.3(9) 13 .
O3 Ho2 O1 C1 -83.9(9) 23 .
O3 Ho2 O1 C1 146.7(9) 90_455 .
O3 Ho2 O1 C1 2.4(8) . .
O3 Ho2 O1 C1 -177.6(8) 10_554 .
O1 Ho2 O1 C1 -129.2(8) 90_455 .
O1 Ho2 O1 C1 50.8(8) 6_455 .
O3 Ho2 O1 C1 -83.9(9) 6_455 10_554
O3 Ho2 O1 C1 146.7(9) 13 10_554
O3 Ho2 O1 C1 96.1(9) 23 10_554
O3 Ho2 O1 C1 -33.3(9) 90_455 10_554
O3 Ho2 O1 C1 -177.6(8) . 10_554
O3 Ho2 O1 C1 2.4(8) 10_554 10_554
O1 Ho2 O1 C1 50.8(8) 90_455 10_554
O1 Ho2 O1 C1 -129.2(8) 6_455 10_554
Ho2 O3 C2 O2 179.5(8) . .
Ho2 O3 C2 C1 0.6(18) . .
Cd1 O2 C2 O3 162.7(9) . .
Cd1 O2 C2 C1 -18(2) . .
C1 O1 C1 C2 177.2(15) 10_554 .
Ho2 O1 C1 C2 -2.8(15) . .
O3 C2 C1 O1 1.4(19) . .
O2 C2 C1 O1 -177.5(11) . .
