#------------------------------------------------------------------------------
#$Date: 2019-11-24 22:54:24 +0200 (Sun, 24 Nov 2019) $
#$Revision: 239659 $
#$URL: file:///home/coder/svn-repositories/cod/cif/4/51/69/4516964.cif $
#------------------------------------------------------------------------------
#
# This file is available in the Crystallography Open Database (COD),
# http://www.crystallography.net/
#
# All data on this site have been placed in the public domain by the
# contributors.
#
data_4516964
loop_
_publ_author_name
'Chi-Dur\'an, Ignacio'
'Enr\'iquez, Javier'
'Manqui\'an, Carolina'
'Fritz, Rub\'en Alejandro'
'Vega, Andr\'es'
'Serafini, Daniel'
'Herrera, Felipe'
'Singh, Dinesh Pratap'
_publ_section_title
;
 Azide-Based High-Energy Metal-Organic Frameworks with Enhanced Thermal
 Stability.
;
_journal_issue                   11
_journal_name_full               'ACS omega'
_journal_page_first              14398
_journal_page_last               14403
_journal_paper_doi               10.1021/acsomega.9b01127
_journal_volume                  4
_journal_year                    2019
_chemical_formula_sum            'C H N O Zn'
_chemical_formula_weight         108.40
_space_group_crystal_system      monoclinic
_space_group_IT_number           15
_space_group_name_Hall           '-C 2yc'
_space_group_name_H-M_alt        'C 1 2/c 1'
_atom_sites_solution_hydrogens   geom
_audit_creation_method           SHELXL-2014/7
_cell_angle_alpha                90
_cell_angle_beta                 130.500(2)
_cell_angle_gamma                90
_cell_formula_units_Z            20
_cell_length_a                   20.565(3)
_cell_length_b                   7.6846(10)
_cell_length_c                   14.6916(19)
_cell_measurement_temperature    296(2)
_cell_volume                     1765.5(4)
_computing_structure_refinement  'SHELXL-2014/7 (Sheldrick, 2014)'
_diffrn_ambient_temperature      296(2)
_diffrn_measured_fraction_theta_full 0.856
_diffrn_measured_fraction_theta_max 0.856
_diffrn_radiation_type           MoK\a
_diffrn_radiation_wavelength     0.71073
_diffrn_reflns_av_R_equivalents  0.0346
_diffrn_reflns_av_unetI/netI     0.0384
_diffrn_reflns_Laue_measured_fraction_full 0.856
_diffrn_reflns_Laue_measured_fraction_max 0.856
_diffrn_reflns_limit_h_max       20
_diffrn_reflns_limit_h_min       -20
_diffrn_reflns_limit_k_max       7
_diffrn_reflns_limit_k_min       -7
_diffrn_reflns_limit_l_max       14
_diffrn_reflns_limit_l_min       -14
_diffrn_reflns_number            2584
_diffrn_reflns_point_group_measured_fraction_full 0.856
_diffrn_reflns_point_group_measured_fraction_max 0.856
_diffrn_reflns_theta_full        21.184
_diffrn_reflns_theta_max         21.184
_diffrn_reflns_theta_min         2.605
_exptl_absorpt_coefficient_mu    6.711
_exptl_crystal_density_diffrn    2.039
_exptl_crystal_F_000             1040
_refine_diff_density_max         0.693
_refine_diff_density_min         -1.343
_refine_diff_density_rms         0.143
_refine_ls_extinction_method     none
_refine_ls_goodness_of_fit_ref   1.101
_refine_ls_hydrogen_treatment    constr
_refine_ls_matrix_type           full
_refine_ls_number_parameters     136
_refine_ls_number_reflns         832
_refine_ls_number_restraints     0
_refine_ls_restrained_S_all      1.101
_refine_ls_R_factor_all          0.0484
_refine_ls_R_factor_gt           0.0469
_refine_ls_shift/su_max          10.886
_refine_ls_shift/su_mean         0.581
_refine_ls_structure_factor_coef Fsqd
_refine_ls_weighting_details
'w=1/[\s^2^(Fo^2^)+(0.0731P)^2^+12.4112P] where P=(Fo^2^+2Fc^2^)/3'
_refine_ls_weighting_scheme      calc
_refine_ls_wR_factor_gt          0.1138
_refine_ls_wR_factor_ref         0.1148
_reflns_Friedel_coverage         0.000
_reflns_number_gt                788
_reflns_number_total             832
_reflns_threshold_expression     'I > 2\s(I)'
_cod_data_source_file            ao9b01127_si_003.cif
_cod_data_source_block           SCD18_104_C2c
_cod_original_sg_symbol_H-M      'C 2/c'
_cod_database_code               4516964
_shelx_shelxl_version_number     2014/7
_shelx_space_group_comment
;
The symmetry employed for this shelxl refinement is uniquely defined
by the following loop, which should always be used as a source of
symmetry information in preference to the above space-group names.
They are only intended as comments.
;
_shelx_res_file
;

    SCD18_104_C2c.res created by SHELXL-2014/7

TITL SCD18_104_C2c in C2/c
CELL 0.71073  20.5651   7.6846  14.6916  90.000 130.500  90.000
ZERR   20.00   0.0029   0.0010   0.0019   0.000   0.002   0.000
LATT 7
SYMM -X, Y, 0.5-Z
SFAC C  H  N  O  Zn
UNIT 20 20 20 20 20
L.S. 40
ACTA
BOND
FMAP 2
PLAN 5
TEMP 23.000
WGHT    0.073100   12.411201
FVAR       0.12108
MOLE 1
ZN1   5    0.209647    0.789571    1.069582    11.00000   -0.00091    0.01989 =
         0.00733    0.00215   -0.00151   -0.00007
C7    1   -0.124974    0.797600    0.837537    11.00000   -0.00077    0.01595 =
         0.01248   -0.00258    0.00036   -0.00179
C1    1    0.023483    0.757391    0.929224    11.00000   -0.00086    0.01805 =
         0.01238   -0.00441   -0.00154   -0.00086
AFIX  43
H1    2    0.029902    0.874628    0.949202    11.00000   -1.20000
AFIX   0
N5    3    0.092638    0.666719    0.966984    11.00000   -0.00089    0.01628 =
         0.01188   -0.00428    0.00047   -0.00089
C3    1   -0.057073    0.684207    0.861797    11.00000   -0.00057    0.01958 =
         0.00809    0.00140   -0.00031    0.00297
C4    1    0.004047    0.419545    0.866603    11.00000   -0.00080    0.01663 =
         0.02055   -0.00315    0.00104    0.00039
AFIX  43
H4    2   -0.000864    0.302831    0.846239    11.00000   -1.20000
AFIX   0
C5    1   -0.067243    0.511902    0.827369    11.00000   -0.00054    0.02149 =
         0.01327   -0.00612   -0.00076   -0.00296
AFIX  43
H5    2   -0.120957    0.459961    0.778917    11.00000   -1.20000
AFIX   0
C6    1    0.082164    0.499136    0.935539    11.00000   -0.00018    0.02161 =
         0.01728   -0.00344    0.00132    0.00327
AFIX  43
H6    2    0.129743    0.434477    0.961518    11.00000   -1.20000
AFIX   0
N2    3   -0.241569    0.933642    0.756882    11.00000   -0.00063    0.02274 =
         0.01092   -0.00209    0.00066    0.00207
N1    3   -0.206845    0.808333    0.737051    11.00000   -0.00071    0.01487 =
         0.00929   -0.00331   -0.00015   -0.00215
N4    3   -0.108426    0.909518    0.919039    11.00000   -0.00063    0.02121 =
         0.01253   -0.00689   -0.00139    0.00287
N3    3   -0.183083    0.991873    0.864828    11.00000   -0.00056    0.02274 =
         0.00760   -0.00400   -0.00247   -0.00022
N11   3    0.232918    0.922475    0.978402    11.00000    0.00907    0.01921 =
         0.01949    0.01527    0.01020    0.01088
N10   3    0.190117    1.043379    0.915514    11.00000    0.03678    0.03412 =
         0.03378    0.00427    0.02802    0.00696
N6    3    0.155543    1.162279    0.856871    11.00000    0.13421    0.06364 =
         0.08403    0.05055    0.07451    0.06357
HKLF 4

REM  SCD18_104_C2c in C2/c
REM R1 =  0.0469 for     788 Fo > 4sig(Fo)  and  0.0484 for all     832 data
REM    136 parameters refined using      0 restraints

END

WGHT      0.0730     12.4089

REM Highest difference peak  0.693,  deepest hole -1.343,  1-sigma level  0.143
Q1    1   0.1025  1.0230  0.8570  11.00000  0.05    0.69
Q2    1   0.1133  0.7451  0.9842  11.00000  0.05    0.38
Q3    1  -0.0383  0.1767  0.8068  11.00000  0.05    0.31
Q4    1  -0.1988  0.2869  0.7131  11.00000  0.05    0.31
Q5    1   0.2047  0.9047  1.0881  11.00000  0.05    0.31
;
_shelx_res_checksum              25730
_shelx_hkl_file
;
  13  -1 -14    9.23    1.29
  15  -1 -14    0.93    0.70
  14   0 -14  114.99    6.68
  16   0 -14   45.49    3.35
  10  -2 -13    0.54    0.60
  12  -2 -13   22.28    1.90
  14  -2 -13    0.51    0.62
  11  -1 -13   72.06    4.54
  13  -1 -13  109.24    6.27
  15  -1 -13  187.77   10.47
  17  -1 -13   79.01    4.79
  12   0 -13    0.42    0.51
  14   0 -13    0.73    0.55
  16   0 -13    0.71    0.60
  18   0 -13   -0.15    0.61
  10  -2 -12   10.99    1.25
  12  -2 -12   30.05    2.30
  14  -2 -12  101.66    6.20
  16  -2 -12  157.41    8.82
  11  -1 -12    0.83    0.56
  13  -1 -12    3.52    0.76
  15  -1 -12    1.54    0.73
  17  -1 -12    3.79    1.02
  10   0 -12    1.79    0.59
  12   0 -12   62.55    3.81
  14   0 -12  100.36    5.88
  16   0 -12   10.72    1.21
  18   0 -12   36.06    2.74
  20   0 -12   32.36    2.84
  11   1 -12    0.97    0.51
  13   1 -12    1.85    0.60
   9  -3 -11   25.98    2.02
  11  -3 -11    0.26    0.50
  13  -3 -11    4.36    0.92
   8  -2 -11   22.39    1.76
  10  -2 -11    5.30    0.92
  12  -2 -11   54.89    3.47
  14  -2 -11  124.46    7.14
  16  -2 -11    8.81    1.39
   9  -1 -11  127.28    7.25
  11  -1 -11   35.38    2.41
  13  -1 -11    0.36    0.45
  15  -1 -11   36.92    2.61
  17  -1 -11  135.35    7.84
  10   0 -11    0.05    0.39
  12   0 -11    0.13    0.36
  14   0 -11    0.11    0.44
  16   0 -11   -0.23    0.42
  18   0 -11   -0.45    0.63
  20   0 -11   -0.69    0.86
  11   1 -11   37.78    2.32
  13   1 -11    0.94    0.43
  15   1 -11   38.66    2.50
  17   1 -11  138.14    7.67
   9   3 -11   25.50    1.98
  11   3 -11    0.11    0.42
  13   3 -11    3.49    0.80
   4   4 -11   20.57    2.00
   6   4 -11    7.60    1.17
   8   4 -11   23.66    1.98
  10   4 -11   33.31    2.46
  12   4 -11   16.54    1.63
  14   4 -11   89.38    5.62
  16   4 -11   16.85    1.89
   9   5 -11    9.65    1.40
  11   5 -11    9.91    1.41
   8  -4 -10   49.35    3.16
  10  -4 -10   40.54    2.83
  12  -4 -10   69.96    4.41
   7  -3 -10   18.39    1.55
   9  -3 -10   10.29    1.14
  11  -3 -10   52.67    3.32
  13  -3 -10  181.25   10.00
  15  -3 -10   39.00    2.81
   8  -2 -10  267.96   14.74
  10  -2 -10   78.16    4.62
  12  -2 -10   49.86    3.08
  14  -2 -10    3.74    0.84
  16  -2 -10   47.62    3.36
   7  -1 -10   23.48    1.75
   9  -1 -10    0.57    0.39
  11  -1 -10    3.36    0.67
  13  -1 -10   38.14    2.53
  15  -1 -10   15.37    1.57
  17  -1 -10   36.99    2.79
  19  -1 -10   -0.76    0.94
   8   0 -10  523.62   27.15
  10   0 -10  293.78   15.78
  12   0 -10   65.24    3.76
  14   0 -10    8.07    1.00
  16   0 -10   66.53    4.16
  18   0 -10  246.13   13.52
  20   0 -10  293.78   16.36
   5   1 -10   27.04    2.08
   7   1 -10   26.25    1.70
   9   1 -10    0.83    0.24
  11   1 -10    3.44    0.38
  13   1 -10   40.00    2.42
  15   1 -10   15.18    1.41
  17   1 -10   33.65    2.58
  19   1 -10    0.22    0.80
   0   2 -10   28.91    2.84
   2   2 -10   23.97    2.25
   4   2 -10  233.45   12.97
   6   2 -10  154.27    8.80
   8   2 -10  282.71   15.45
  10   2 -10   81.54    3.20
  12   2 -10   45.86    2.97
   1   3 -10  149.47    8.96
   3   3 -10  127.52    7.49
   5   3 -10   31.61    2.27
   7   3 -10   17.29    1.50
   9   3 -10   10.39    1.07
  11   3 -10   50.06    3.31
  13   3 -10  188.18   10.41
   2   4 -10    1.62    0.84
   4   4 -10   17.03    1.70
   6   4 -10   23.14    1.93
   8   4 -10   48.33    3.22
  10   4 -10   40.14    2.82
  12   4 -10   73.78    4.55
  14   4 -10   13.62    1.60
  16   4 -10   13.46    1.84
   7   5 -10    1.96    0.80
   9   5 -10    0.48    0.66
  11   5 -10   74.47    4.88
  13   5 -10  231.58   13.71
   6  -4  -9   55.13    3.44
   8  -4  -9    5.64    0.92
  10  -4  -9   35.54    2.54
  12  -4  -9  166.22    9.14
   7  -3  -9   74.91    4.24
   9  -3  -9  143.21    7.90
  11  -3  -9   58.58    3.49
  13  -3  -9   14.17    1.47
  15  -3  -9    1.32    0.76
   6  -2  -9   21.05    1.57
   8  -2  -9    8.95    0.95
  10  -2  -9   11.02    1.10
  12  -2  -9   15.56    1.44
  14  -2  -9   69.29    4.25
  16  -2  -9    5.04    1.12
   7  -1  -9  576.96   31.10
   9  -1  -9  275.88   14.52
  11  -1  -9  229.80   12.17
  13  -1  -9   22.30    1.74
  15  -1  -9    5.10    0.98
  17  -1  -9   23.64    2.31
  -2   0  -9    0.19    0.79
   0   0  -9    0.25    0.70
   2   0  -9    1.40    0.72
   4   0  -9   -0.19    0.50
   6   0  -9    2.45    0.36
   8   0  -9    0.06    0.15
  10   0  -9    0.51    0.14
  12   0  -9    0.18    0.38
  14   0  -9    0.08    0.38
  16   0  -9    1.38    0.76
  18   0  -9    0.60    0.89
  -3   1  -9  270.98   15.29
  -1   1  -9  140.26    8.48
   1   1  -9   25.58    2.44
   3   1  -9    6.41    1.01
   5   1  -9   26.83    1.28
   7   1  -9  616.98   23.21
   9   1  -9  275.98    8.59
  11   1  -9  230.74    7.19
  13   1  -9   21.79    1.58
  15   1  -9    6.03    0.95
  17   1  -9   23.74    2.20
  19   1  -9  133.11    7.98
  -2   2  -9   58.58    4.64
   0   2  -9   38.75    3.03
   2   2  -9  103.10    6.42
   4   2  -9  235.74   12.97
   6   2  -9   20.36    1.02
   8   2  -9    8.80    0.84
  10   2  -9   11.99    0.67
  12   2  -9   18.38    0.94
  14   2  -9   67.56    3.92
  16   2  -9    7.08    1.07
  -1   3  -9   91.17    5.93
   1   3  -9    9.29    1.34
   3   3  -9    0.86    0.56
   5   3  -9    0.51    0.45
   7   3  -9   66.17    4.30
   9   3  -9  147.81    8.23
  11   3  -9   52.35    3.50
  13   3  -9   13.56    1.45
   0   4  -9    4.38    1.13
   2   4  -9   66.03    4.31
   4   4  -9   56.81    3.70
   6   4  -9   53.09    3.55
   8   4  -9    4.44    0.84
  10   4  -9   34.52    2.58
  12   4  -9  165.09    9.56
  14   4  -9   71.80    4.80
   5   5  -9   18.12    1.71
   7   5  -9   23.51    2.02
   9   5  -9    3.69    0.91
  11   5  -9   48.40    3.48
  13   5  -9    2.55    1.01
   5  -5  -8  157.69    8.76
   7  -5  -8   34.70    2.46
   9  -5  -8   19.85    1.77
  11  -5  -8   97.72    5.55
   6  -4  -8    0.45    0.44
   8  -4  -8   17.36    1.51
  10  -4  -8   50.45    3.18
  12  -4  -8   47.05    3.19
  14  -4  -8   79.70    4.97
   5  -3  -8   31.46    2.08
   7  -3  -8   43.75    2.75
   9  -3  -8   13.07    1.26
  11  -3  -8    0.85    0.50
  13  -3  -8   12.66    1.44
  15  -3  -8   26.39    2.35
  -2  -2  -8  208.05   12.16
   0  -2  -8  181.82   10.80
   2  -2  -8  125.25    7.64
   4  -2  -8   45.96    2.78
   6  -2  -8  112.95    6.21
   8  -2  -8   11.53    1.07
  10  -2  -8   22.47    1.69
  12  -2  -8  102.18    5.76
  14  -2  -8   25.26    2.05
  16  -2  -8    2.65    0.97
  -5  -1  -8   -0.63    0.90
  -3  -1  -8    0.54    0.83
  -1  -1  -8    2.68    0.89
   1  -1  -8    2.02    0.63
   3  -1  -8    0.81    0.34
   5  -1  -8   83.86    2.70
   7  -1  -8    6.50    0.74
   9  -1  -8  101.38    5.53
  11  -1  -8   19.67    1.14
  13  -1  -8   55.15    3.64
  15  -1  -8   34.57    2.67
  17  -1  -8   35.97    3.11
  -4   0  -8   45.21    3.26
   0   0  -8  211.83   11.00
   2   0  -8   23.18    1.87
   4   0  -8    1.55    0.26
   6   0  -8   23.07    0.84
   8   0  -8  380.70   11.86
  10   0  -8  622.44   32.91
  12   0  -8  405.52   21.27
  14   0  -8  512.19   27.35
  16   0  -8  206.95   11.73
  18   0  -8  100.76    6.47
  -5   1  -8   -0.37    1.19
  -3   1  -8    0.35    1.00
  -1   1  -8    3.66    1.09
   1   1  -8    3.13    0.87
   3   1  -8    2.01    0.56
   5   1  -8   89.16    3.44
   7   1  -8    5.82    0.34
   9   1  -8  100.47    3.22
  11   1  -8   18.99    0.96
  13   1  -8   58.74    3.54
  15   1  -8   33.52    2.50
  17   1  -8   36.63    2.99
  19   1  -8  134.55    8.51
  -4   2  -8  167.57   10.78
  -2   2  -8  199.60   12.27
   0   2  -8  192.48   11.00
   2   2  -8  149.09    7.90
   4   2  -8   48.95    2.05
   6   2  -8  110.94    4.38
   8   2  -8   12.78    0.67
  10   2  -8   24.16    1.11
  12   2  -8  103.15    5.47
  14   2  -8   23.80    1.79
  16   2  -8    2.22    0.78
  18   2  -8   15.36    1.95
  -3   3  -8    0.83    0.87
  -1   3  -8   12.22    1.49
   1   3  -8   88.66    5.49
   3   3  -8  132.23    7.57
   5   3  -8   29.43    2.09
   7   3  -8   43.21    2.78
   9   3  -8   11.87    1.17
  11   3  -8    0.82    0.53
   0   4  -8   86.48    5.35
   2   4  -8   45.36    3.07
   4   4  -8   15.68    1.45
   6   4  -8    0.64    0.50
   8   4  -8   18.04    1.56
  10   4  -8   46.59    3.24
  12   4  -8   45.77    3.27
   3   5  -8   58.69    3.85
   5   5  -8  162.04    9.29
   7   5  -8   33.56    2.56
   9   5  -8   21.59    1.92
  11   5  -8   94.43    5.82
  13   5  -8   58.95    4.24
   4  -6  -7   49.87    3.29
   6  -6  -7   69.63    4.29
   8  -6  -7  148.16    8.14
   5  -5  -7    3.55    0.77
   7  -5  -7    0.61    0.49
   9  -5  -7    0.51    0.52
  11  -5  -7   52.96    3.51
   2  -4  -7   60.71    3.73
   4  -4  -7  209.77    8.09
   6  -4  -7  147.41    5.74
   8  -4  -7  348.55   18.50
  10  -4  -7  266.74   14.01
  12  -4  -7    0.56    0.57
  14  -4  -7    1.43    0.82
  -5  -3  -7   -0.30    0.82
  -3  -3  -7   49.68    3.65
  -1  -3  -7  228.26   14.43
   1  -3  -7  270.68   16.32
   3  -3  -7   64.64    3.64
   5  -3  -7  155.86    5.81
   7  -3  -7   10.09    0.99
   9  -3  -7   40.43    1.74
  11  -3  -7  231.69   11.84
  13  -3  -7   70.29    4.34
  15  -3  -7   78.38    5.19
  -6  -2  -7   67.08    5.07
  -4  -2  -7   68.50    4.84
  -2  -2  -7    7.52    1.19
   0  -2  -7   19.09    1.57
   2  -2  -7   10.37    0.87
   4  -2  -7  113.46    4.38
   6  -2  -7   22.50    1.44
   8  -2  -7   21.51    0.98
  10  -2  -7   74.57    2.98
  12  -2  -7    1.55    0.37
  14  -2  -7    9.26    1.39
  16  -2  -7   58.47    4.36
  -7  -1  -7   93.62    6.35
  -5  -1  -7    4.44    1.24
  -3  -1  -7   90.00    5.25
  -1  -1  -7  411.00   23.71
   1  -1  -7  301.77   17.63
   3  -1  -7  145.76    7.79
   5  -1  -7  179.17    9.20
   9  -1  -7   82.70    3.44
  11  -1  -7  255.65   13.92
  13  -1  -7  453.27   24.48
  15  -1  -7  319.74   17.42
  17  -1  -7   34.97    3.22
  -6   0  -7    0.55    0.84
  -4   0  -7    0.62    0.89
  -2   0  -7   -0.42    0.69
   0   0  -7    1.41    0.76
   2   0  -7    0.26    0.45
   4   0  -7    0.76    0.20
   6   0  -7    0.29    0.10
   8   0  -7    0.29    0.14
  10   0  -7    0.26    0.20
  12   0  -7    6.90    0.94
  14   0  -7   -0.42    0.52
  16   0  -7   -0.84    0.61
  18   0  -7   -0.30    1.06
  -5   1  -7    4.25    1.46
  -3   1  -7   76.91    5.32
  -1   1  -7  420.33   23.84
   1   1  -7  326.79   17.76
   3   1  -7  148.23    5.56
   5   1  -7  175.01    5.44
   7   1  -7   55.75    1.81
   9   1  -7   88.67    3.42
  11   1  -7  254.37   13.79
  13   1  -7  464.80   24.38
  15   1  -7  331.37   17.30
  17   1  -7   33.40    3.05
  19   1  -7   16.27    2.39
  -4   2  -7   64.85    4.86
  -2   2  -7    6.87    1.29
   0   2  -7   19.49    1.68
   2   2  -7   10.28    1.01
   4   2  -7  110.22    4.37
   6   2  -7   18.93    1.36
   8   2  -7   22.77    0.99
  10   2  -7   75.63    3.96
  12   2  -7    2.20    0.50
  14   2  -7   10.23    1.20
  16   2  -7   63.95    4.12
  18   2  -7   94.76    6.49
  -3   3  -7   51.03    3.71
  -1   3  -7  266.80   14.60
   1   3  -7  305.51   16.51
   3   3  -7   61.49    2.54
   5   3  -7  151.79    5.74
   7   3  -7   10.18    1.00
   9   3  -7   39.93    1.65
  11   3  -7  227.61   11.38
  -2   4  -7  109.09    6.70
   0   4  -7    0.63    0.56
   2   4  -7   61.09    3.87
   4   4  -7  216.21   11.90
   6   4  -7  151.36    8.49
   8   4  -7  362.07   19.61
  10   4  -7  267.34   14.81
   1   5  -7    2.93    0.88
   3   5  -7    4.50    0.88
   5   5  -7    0.30    0.56
   7   5  -7    0.13    0.48
   9   5  -7    0.37    0.53
  11   5  -7   49.30    3.65
  13   5  -7    4.35    1.26
   4  -6  -6    3.79    0.81
   6  -6  -6    4.17    0.88
  10  -6  -6    5.46    1.13
  -3  -5  -6   51.17    3.76
  -1  -5  -6   62.02    4.21
   1  -5  -6   19.83    1.64
   3  -5  -6   20.83    1.17
   5  -5  -6  115.43    4.60
   7  -5  -6  239.66   12.68
   9  -5  -6  103.99    5.89
  11  -5  -6   90.93    5.48
  13  -5  -6   33.67    2.78
  -6  -4  -6   14.90    2.09
  -4  -4  -6    8.94    1.45
  -2  -4  -6   22.48    2.01
   0  -4  -6   57.24    3.80
   2  -4  -6   44.27    2.81
   4  -4  -6   78.13    3.15
   6  -4  -6    4.52    0.75
   8  -4  -6    9.21    1.01
  10  -4  -6    9.39    1.14
  12  -4  -6    7.07    1.22
  14  -4  -6   73.61    4.78
  -7  -3  -6   63.31    5.21
  -5  -3  -6  113.67    7.51
  -3  -3  -6   55.25    3.95
  -1  -3  -6  133.69    8.10
   1  -3  -6   36.16    2.19
   3  -3  -6   35.73    1.52
   5  -3  -6  110.55    4.34
   7  -3  -6  345.96   13.09
   9  -3  -6  270.63   10.14
  11  -3  -6   13.53    1.34
  13  -3  -6    2.38    0.81
  15  -3  -6    7.19    1.49
  -6  -2  -6   65.40    5.01
  -4  -2  -6    1.02    0.79
  -2  -2  -6   50.30    3.35
   0  -2  -6  173.59    9.75
   2  -2  -6  250.26   13.39
   4  -2  -6  802.27   29.23
   6  -2  -6   33.25    2.06
   8  -2  -6    8.34    0.49
  10  -2  -6  120.97    4.67
  12  -2  -6  219.77   12.34
  14  -2  -6  314.47   16.85
  16  -2  -6  192.76   11.25
  -7  -1  -6   76.26    5.02
  -5  -1  -6   44.09    3.08
  -3  -1  -6   -0.06    0.62
  -1  -1  -6   27.80    2.22
   1  -1  -6   31.52    2.05
   3  -1  -6   76.66    4.09
   5  -1  -6   24.55    1.53
   7  -1  -6   20.14    0.89
   9  -1  -6   56.87    3.40
  11  -1  -6    1.16    0.55
  13  -1  -6    1.35    0.71
  15  -1  -6   -0.67    0.77
  17  -1  -6    1.94    1.19
  -6   0  -6   17.94    2.06
  -4   0  -6   11.67    1.50
  -2   0  -6  562.92   28.26
   0   0  -6  447.74   25.03
   2   0  -6  307.62   18.23
   4   0  -6  720.29   18.97
   6   0  -6   26.58    1.09
   8   0  -6   38.80    1.66
  10   0  -6  231.75   12.82
  12   0  -6  246.55   13.96
  14   0  -6  203.76   11.33
  16   0  -6  411.05   21.86
  18   0  -6   27.54    3.02
  -7   1  -6   69.23    5.07
  -5   1  -6   33.41    3.00
  -3   1  -6    1.01    0.76
  -1   1  -6   29.39    2.32
   1   1  -6   32.44    2.11
   3   1  -6   73.65    2.35
   5   1  -6   24.00    0.72
   7   1  -6   19.18    0.89
   9   1  -6   58.44    2.40
  11   1  -6    2.60    0.52
  13   1  -6    1.22    0.63
  15   1  -6    1.26    0.75
  17   1  -6    1.51    1.10
  -6   2  -6   68.19    5.11
  -4   2  -6    1.41    0.93
  -2   2  -6   50.08    3.41
   0   2  -6  176.94    9.81
   2   2  -6  237.02    9.22
   4   2  -6  794.83   24.11
   6   2  -6   33.75    1.14
   8   2  -6    8.13    0.60
  10   2  -6  125.51    6.28
  12   2  -6  241.93   12.20
  14   2  -6  313.38   16.57
  16   2  -6  181.22   10.73
  18   2  -6   38.16    3.18
  -5   3  -6  105.79    7.45
  -3   3  -6   61.63    4.01
  -1   3  -6  140.10    8.16
   1   3  -6   31.66    1.50
   3   3  -6   34.86    1.46
   5   3  -6  116.51    6.42
   7   3  -6  356.40   19.18
   9   3  -6  267.20   13.64
  11   3  -6   14.61    1.09
  13   3  -6    2.83    0.70
  15   3  -6    8.11    1.27
  -4   4  -6    8.13    1.44
  -2   4  -6   24.41    2.07
   0   4  -6   65.38    3.96
   2   4  -6   45.36    2.98
   4   4  -6   79.40    4.69
   6   4  -6    4.22    0.77
   8   4  -6    8.56    1.04
  10   4  -6    9.10    1.30
  -1   5  -6   68.29    4.33
   1   5  -6   22.80    1.81
   3   5  -6   21.17    1.77
   5   5  -6  117.98    6.84
   7   5  -6  244.54   13.51
   9   5  -6   97.80    6.22
  11   5  -6   87.67    5.76
   4   6  -6    4.13    0.91
   6   6  -6    4.92    1.00
   3  -7  -5    0.77    0.63
   5  -7  -5    1.79    0.74
   7  -7  -5    6.13    1.08
  -4  -6  -5   31.40    2.81
  -2  -6  -5   97.50    6.35
   0  -6  -5   84.33    5.29
   2  -6  -5   31.24    2.39
   4  -6  -5    2.87    0.50
   6  -6  -5   48.28    3.14
   8  -6  -5   67.17    4.20
  10  -6  -5  231.37   12.90
  -5  -5  -5   -0.16    0.76
  -3  -5  -5   47.31    3.48
  -1  -5  -5   -0.02    0.51
   1  -5  -5    6.12    0.87
   3  -5  -5   47.41    2.10
   5  -5  -5   15.28    0.91
   7  -5  -5   20.97    1.65
   9  -5  -5    0.45    0.48
  11  -5  -5    9.48    1.37
  13  -5  -5   18.27    2.16
  -6  -4  -5  155.69    9.56
  -4  -4  -5   55.69    4.05
  -2  -4  -5  334.24   19.76
   0  -4  -5  142.53    8.33
   2  -4  -5   11.33    0.71
   4  -4  -5    7.07    0.54
   6  -4  -5    2.79    0.56
   8  -4  -5   49.57    3.09
  10  -4  -5  138.74    7.58
  12  -4  -5   54.29    3.66
  14  -4  -5    6.64    1.42
  -7  -3  -5   66.87    4.96
  -5  -3  -5   25.39    2.39
  -3  -3  -5    8.18    1.18
  -1  -3  -5   43.49    2.73
   1  -3  -5  302.90   16.44
   3  -3  -5  187.40    6.95
   5  -3  -5  127.32    4.81
   7  -3  -5   96.85    3.79
   9  -3  -5  103.41    5.93
  11  -3  -5   24.48    1.98
  13  -3  -5    4.81    1.10
  15  -3  -5   65.97    4.75
  -8  -2  -5   -1.57    0.88
  -6  -2  -5    0.45    0.88
  -4  -2  -5    7.13    1.20
  -2  -2  -5    3.09    0.72
   0  -2  -5    3.86    0.55
   2  -2  -5    0.69    0.18
   6  -2  -5   72.72    2.87
   8  -2  -5   27.08    1.20
  10  -2  -5  212.53    8.46
  12  -2  -5   33.01    2.67
  14  -2  -5   39.30    3.15
  16  -2  -5    1.97    1.23
  -9  -1  -5   90.25    6.20
  -5  -1  -5   71.93    4.34
  -3  -1  -5    5.05    1.00
  -1  -1  -5   52.04    3.38
   1  -1  -5   34.28    2.04
   3  -1  -5  412.42   12.44
   5  -1  -5  171.31    8.94
   7  -1  -5  132.44    5.28
   9  -1  -5    8.50    0.92
  11  -1  -5    0.53    0.43
  13  -1  -5  263.57   15.78
  15  -1  -5  492.85   26.10
  17  -1  -5   66.03    4.97
  -8   0  -5    0.12    1.01
  -6   0  -5    1.10    0.81
  -4   0  -5    0.93    0.77
  -2   0  -5    0.90    0.71
   0   0  -5    0.55    0.52
   2   0  -5    0.40    0.17
   4   0  -5   -0.01    0.10
   6   0  -5    0.26    0.12
   8   0  -5    0.31    0.18
  10   0  -5    0.44    0.33
  12   0  -5    0.92    0.60
  14   0  -5   -0.35    0.61
  16   0  -5   -0.24    1.08
  -7   1  -5  284.42   15.32
  -5   1  -5   58.82    4.36
  -3   1  -5    4.90    1.00
  -1   1  -5   53.55    3.43
   1   1  -5   28.97    1.86
   3   1  -5  414.86   12.67
   5   1  -5  171.60    5.30
   7   1  -5  141.18    5.24
   9   1  -5    7.81    0.52
  11   1  -5    0.31    0.43
  13   1  -5  290.06   15.76
  15   1  -5  491.33   25.85
  17   1  -5   62.24    4.61
  -8   2  -5    0.17    1.15
  -6   2  -5    0.97    0.92
  -4   2  -5    6.23    1.22
  -2   2  -5    2.04    0.67
   0   2  -5    2.27    0.32
   2   2  -5    0.45    0.15
   6   2  -5   74.44    2.35
   8   2  -5   25.99    1.50
  12   2  -5   40.56    2.60
  14   2  -5   37.93    2.85
  16   2  -5    2.11    0.90
  18   2  -5   17.88    2.22
  -7   3  -5   60.31    5.02
  -5   3  -5   26.42    2.33
  -3   3  -5    8.82    1.22
  -1   3  -5   43.93    2.73
   1   3  -5  312.31   16.55
   3   3  -5  182.82    6.88
   5   3  -5  125.14    7.08
   7   3  -5   97.62    3.70
   9   3  -5  110.60    5.67
  11   3  -5   27.57    1.80
  13   3  -5    4.84    0.91
  15   3  -5   58.79    4.01
  17   3  -5   16.14    1.92
  -4   4  -5   61.18    4.04
  -2   4  -5  354.20   19.78
   0   4  -5  141.45    8.40
   2   4  -5   10.51    1.11
   4   4  -5    8.61    0.94
   6   4  -5    2.75    0.59
   8   4  -5   51.22    3.33
  -3   5  -5   52.37    3.49
  -1   5  -5    0.93    0.66
   1   5  -5    4.05    0.84
   3   5  -5   48.09    3.16
   5   5  -5   16.06    1.45
   7   5  -5   21.69    1.88
   9   5  -5    0.52    0.61
   2   6  -5   31.22    2.53
   4   6  -5    3.80    0.86
   6   6  -5   49.12    3.46
   8   6  -5   69.29    4.64
  -1  -7  -4   43.37    3.29
   1  -7  -4   68.76    4.59
   3  -7  -4   78.93    3.42
   5  -7  -4   14.90    1.45
   7  -7  -4   15.25    1.49
   9  -7  -4   38.98    2.98
  -4  -6  -4    3.16    1.01
  -2  -6  -4   69.00    4.66
   0  -6  -4    5.42    0.98
   2  -6  -4   -0.04    0.30
   4  -6  -4   19.71    1.14
   6  -6  -4    8.36    1.09
   8  -6  -4   47.61    3.20
  10  -6  -4  100.88    6.15
  -5  -5  -4  156.92    9.86
  -3  -5  -4  164.12    9.63
  -1  -5  -4  235.88   13.53
   1  -5  -4  169.92    9.49
   3  -5  -4   42.06    1.87
   5  -5  -4   27.78    1.36
   7  -5  -4    4.49    0.77
   9  -5  -4  249.29   13.81
  11  -5  -4   32.33    2.65
  13  -5  -4  195.32   11.00
  -8  -4  -4  107.43    6.99
  -6  -4  -4   53.76    3.91
  -4  -4  -4   87.76    5.64
  -2  -4  -4   25.05    1.91
   0  -4  -4   31.47    2.19
   2  -4  -4    1.61    0.29
   4  -4  -4  154.46    5.88
   6  -4  -4   92.00    5.14
   8  -4  -4   20.48    1.62
  10  -4  -4   17.39    1.65
  12  -4  -4    8.16    1.37
  14  -4  -4    2.11    1.10
  -9  -3  -4   12.09    2.20
  -7  -3  -4   20.68    2.30
  -5  -3  -4    4.60    1.10
  -3  -3  -4  166.08    9.14
  -1  -3  -4  227.54   12.96
   1  -3  -4  218.76    8.28
   3  -3  -4  215.24    7.96
   5  -3  -4   57.93    2.34
   7  -3  -4    8.79    0.59
   9  -3  -4  232.12   12.53
  11  -3  -4  256.26   13.37
  13  -3  -4  174.55    9.95
  15  -3  -4   76.45    5.48
  -8  -2  -4  137.76    9.12
  -6  -2  -4  255.83   14.51
  -4  -2  -4  213.58   11.62
  -2  -2  -4   72.03    4.33
   0  -2  -4    1.00    0.30
   2  -2  -4  224.87    8.30
   4  -2  -4  639.04   19.20
   6  -2  -4  957.47   35.93
   8  -2  -4  793.97   29.41
  10  -2  -4  109.34    6.34
  12  -2  -4    9.66    1.45
  14  -2  -4   79.35    5.59
  16  -2  -4  206.16   12.86
  -9  -1  -4   77.95    5.16
  -7  -1  -4    3.67    1.03
  -5  -1  -4    2.81    0.91
  -3  -1  -4   -0.12    0.49
  -1  -1  -4   60.13    3.51
   1  -1  -4   33.72    1.37
   3  -1  -4  693.59   20.62
   5  -1  -4   79.26    2.98
   7  -1  -4   90.16    3.73
   9  -1  -4   16.79    1.10
  11  -1  -4   36.24    2.62
  13  -1  -4   25.07    2.30
  15  -1  -4   52.75    4.04
  -8   0  -4  595.11   28.80
  -6   0  -4  800.26   38.13
  -4   0  -4  965.04   49.36
  -2   0  -4   80.70    4.82
   0   0  -4  131.36    5.22
   2   0  -4  176.10    6.69
   4   0  -4  402.45   10.55
   6   0  -4   36.99    1.51
   8   0  -4   72.98    3.83
  10   0  -4  108.40    6.10
  12   0  -4    5.09    1.03
  14   0  -4  181.07   10.84
  16   0  -4   13.90    2.21
  -9   1  -4   83.49    5.27
  -7   1  -4    4.50    1.40
  -5   1  -4    1.82    1.05
  -3   1  -4    1.31    0.62
  -1   1  -4   60.49    3.53
   1   1  -4   30.94    1.34
   3   1  -4  693.91   21.07
   5   1  -4   77.80    2.96
   7   1  -4   99.07    3.68
   9   1  -4   17.27    1.30
  11   1  -4   34.07    2.54
  13   1  -4   21.74    2.06
  15   1  -4   50.15    3.67
  17   1  -4    0.32    0.94
  -8   2  -4  139.39    9.09
  -6   2  -4  226.25   14.39
  -4   2  -4  184.03   11.48
  -2   2  -4   72.34    4.30
   0   2  -4    0.94    0.22
   2   2  -4  222.54    6.83
   4   2  -4  642.17   24.02
   6   2  -4  964.51   35.91
   8   2  -4  893.79   40.35
  10   2  -4  120.95    6.25
  12   2  -4    7.83    1.17
  14   2  -4   82.74    5.17
  16   2  -4  225.18   12.22
  -7   3  -4   18.01    2.20
  -5   3  -4    7.81    1.23
  -3   3  -4  157.30    9.02
  -1   3  -4  230.74   12.98
   1   3  -4  222.41   12.13
   3   3  -4  215.90   11.66
   5   3  -4   57.84    3.48
   7   3  -4    9.38    0.69
   9   3  -4  250.26   12.33
  11   3  -4  241.33   12.98
  13   3  -4  173.92    9.39
  15   3  -4   79.25    4.76
  17   3  -4   14.58    1.85
  -6   4  -4   50.67    3.71
  -4   4  -4   85.13    5.51
  -2   4  -4   24.80    1.91
   0   4  -4   33.55    2.27
   2   4  -4    2.01    0.22
   4   4  -4  153.15    8.66
   6   4  -4   94.09    2.86
   8   4  -4   20.10    1.32
  10   4  -4   17.89    1.34
  -3   5  -4  163.96    9.55
  -1   5  -4  250.58   13.60
   1   5  -4  164.19    9.55
   3   5  -4   42.62    2.84
   5   5  -4   26.92    2.09
   7   5  -4    6.40    1.08
   9   5  -4  251.55   14.75
   0   6  -4    5.31    1.02
   2   6  -4   -0.03    0.50
   4   6  -4   19.41    1.77
   6   6  -4    9.11    1.31
   8   6  -4   50.00    3.58
  -1  -7  -3   16.29    1.81
   1  -7  -3    0.60    0.62
   3  -7  -3   36.08    2.70
  -4  -6  -3    8.05    1.37
  -2  -6  -3  131.83    8.09
   0  -6  -3  297.56   16.44
   2  -6  -3  287.41   10.84
   4  -6  -3  152.72    6.06
   6  -6  -3    5.52    0.85
   8  -6  -3   14.11    1.44
  10  -6  -3   57.01    3.96
  -7  -5  -3   33.87    3.10
  -5  -5  -3   33.10    2.77
  -3  -5  -3   69.77    4.43
  -1  -5  -3   10.14    1.10
   1  -5  -3    0.64    0.27
   3  -5  -3    0.92    0.31
   5  -5  -3    5.10    0.74
   7  -5  -3   58.51    3.52
   9  -5  -3    8.40    1.19
  11  -5  -3    3.30    0.99
  -8  -4  -3   38.84    3.43
  -6  -4  -3    2.17    0.92
  -4  -4  -3    0.13    0.54
  -2  -4  -3   77.75    4.75
   0  -4  -3  406.62   22.24
   2  -4  -3  117.58    4.50
   4  -4  -3  105.06    4.04
   6  -4  -3    1.25    0.41
   8  -4  -3   82.57    4.70
  10  -4  -3  172.90    9.66
  12  -4  -3  230.40   12.94
  -9  -3  -3   65.28    4.86
  -7  -3  -3  162.44    9.03
  -5  -3  -3   38.27    2.76
  -3  -3  -3  159.71    9.05
  -1  -3  -3    7.17    0.74
   1  -3  -3    0.31    0.16
   3  -3  -3  347.89   10.64
   5  -3  -3  107.57    4.25
   7  -3  -3  370.41   19.26
   9  -3  -3  227.66   12.39
  11  -3  -3   99.33    6.13
  13  -3  -3    0.16    0.77
 -10  -2  -3   95.47    6.52
  -8  -2  -3   70.69    5.02
  -6  -2  -3    4.30    1.04
  -4  -2  -3    0.53    0.53
  -2  -2  -3  212.79   10.94
   0  -2  -3  251.67    9.09
   2  -2  -3  417.42   12.31
   4  -2  -3  374.82   14.03
   6  -2  -3    6.68    0.45
   8  -2  -3  126.53    6.88
  10  -2  -3    1.28    0.64
  12  -2  -3   35.27    2.85
  14  -2  -3   87.21    6.18
  -9  -1  -3  182.94    9.93
  -7  -1  -3  545.34   27.48
  -5  -1  -3  761.98   46.13
  -3  -1  -3  326.93   18.57
  -1  -1  -3  237.02    9.14
   1  -1  -3  335.30    9.79
   3  -1  -3  847.84   30.56
   5  -1  -3  753.31   28.22
   7  -1  -3  508.69   24.04
   9  -1  -3  300.03   16.74
  11  -1  -3  149.35    8.22
  13  -1  -3   10.69    1.75
  15  -1  -3  147.68    9.38
 -10   0  -3    0.79    0.92
  -8   0  -3    0.20    0.76
  -6   0  -3    1.04    0.68
  -4   0  -3    0.71    0.57
  -2   0  -3    1.44    0.28
   0   0  -3    1.30    0.39
   2   0  -3    0.66    0.20
   4   0  -3    0.36    0.09
   6   0  -3    0.46    0.19
   8   0  -3    0.45    0.28
  10   0  -3    0.66    0.48
  12   0  -3    1.26    0.71
  14   0  -3   -0.13    0.78
  16   0  -3   -0.78    0.89
  -9   1  -3  171.46    9.97
  -7   1  -3  462.36   27.45
  -5   1  -3  808.43   46.25
  -3   1  -3  312.61   18.59
  -1   1  -3  261.02   13.37
   1   1  -3  321.62    9.97
   3   1  -3  832.48   25.30
   5   1  -3  777.77   28.26
   7   1  -3  434.32   25.37
   9   1  -3  330.72   16.74
  11   1  -3  135.57    7.99
  13   1  -3   19.35    1.86
  15   1  -3  160.28    9.02
 -10   2  -3   88.85    6.41
  -8   2  -3   67.62    4.94
  -6   2  -3    3.75    0.97
  -4   2  -3    3.19    0.71
  -2   2  -3  214.29   10.91
   0   2  -3  234.54    7.69
   2   2  -3  411.35   12.54
   4   2  -3  381.50   11.56
   6   2  -3    7.13    0.47
   8   2  -3  126.62    6.75
  10   2  -3    0.83    0.47
  12   2  -3   34.27    2.44
  14   2  -3   98.98    5.71
  16   2  -3   21.40    2.15
  -9   3  -3   60.24    4.70
  -7   3  -3  137.80    8.74
  -5   3  -3   36.17    2.59
  -3   3  -3  158.18    8.97
  -1   3  -3    6.74    0.49
   1   3  -3    0.58    0.28
   3   3  -3  361.76   18.91
   5   3  -3  110.96    3.37
   7   3  -3  374.80   19.06
   9   3  -3  245.84   12.11
  11   3  -3  104.63    5.70
  13   3  -3    0.59    0.58
  15   3  -3   23.37    2.06
  -8   4  -3   32.46    3.19
  -6   4  -3    4.81    0.99
  -4   4  -3    0.43    0.48
  -2   4  -3   80.00    4.75
   0   4  -3  395.22   15.21
   2   4  -3  114.93    3.54
   4   4  -3  102.20    3.16
   6   4  -3    0.99    0.20
   8   4  -3   81.72    4.37
  10   4  -3  180.99    9.20
  12   4  -3  240.81   12.27
  14   4  -3  276.49   13.33
  -5   5  -3   34.86    2.60
  -3   5  -3   69.61    4.35
  -1   5  -3   11.45    1.22
   1   5  -3    0.05    0.43
   3   5  -3    0.37    0.41
   5   5  -3    3.15    0.73
   7   5  -3   58.20    3.84
  -2   6  -3  133.69    8.06
   0   6  -3  296.70   16.47
   2   6  -3  279.94   15.93
   4   6  -3  157.05    9.02
   6   6  -3    5.65    1.16
   8   6  -3   13.67    1.71
  -1  -7  -2   19.10    1.89
   1  -7  -2  105.72    6.51
   3  -7  -2   85.17    5.38
  -6  -6  -2   38.28    3.19
  -4  -6  -2    7.43    1.29
  -2  -6  -2    5.83    1.04
   0  -6  -2    7.21    1.05
   2  -6  -2    1.04    0.35
   4  -6  -2    2.39    0.44
   6  -6  -2    4.56    0.83
   8  -6  -2   21.24    1.84
  10  -6  -2   -0.17    0.75
  -7  -5  -2   49.70    3.93
  -5  -5  -2   75.23    4.82
  -3  -5  -2   53.90    3.67
  -1  -5  -2  159.73    9.27
   1  -5  -2  133.87    5.21
   3  -5  -2  179.98    7.00
   5  -5  -2   97.31    5.26
   7  -5  -2   29.79    2.12
   9  -5  -2   29.97    2.44
  11  -5  -2   41.66    3.39
  -8  -4  -2    7.57    1.51
  -6  -4  -2   31.83    2.60
  -4  -4  -2  206.71   11.64
  -2  -4  -2  103.06    5.86
   0  -4  -2   26.37    1.17
   2  -4  -2    2.04    0.29
   4  -4  -2   23.14    1.56
   6  -4  -2  111.68    6.13
   8  -4  -2   68.62    4.11
  10  -4  -2   34.06    2.63
  12  -4  -2   50.79    3.92
  -9  -3  -2   68.11    4.82
  -7  -3  -2    4.08    1.05
  -5  -3  -2   29.39    2.27
  -3  -3  -2   23.93    1.73
  -1  -3  -2   83.04    3.30
   1  -3  -2   38.25    1.26
   3  -3  -2   65.18    2.14
   5  -3  -2  138.76    7.30
   7  -3  -2  105.77    5.81
   9  -3  -2    2.73    0.74
  11  -3  -2   69.78    4.63
  13  -3  -2   87.63    5.98
 -10  -2  -2    5.16    1.54
  -8  -2  -2  117.70    7.35
  -6  -2  -2  172.06    9.47
  -4  -2  -2  379.59   20.52
  -2  -2  -2  145.82    5.56
   0  -2  -2  118.42    3.63
   2  -2  -2    2.48    0.18
   4  -2  -2    2.66    0.26
   6  -2  -2  119.93    4.75
   8  -2  -2  364.77   19.05
  10  -2  -2  266.67   14.18
  12  -2  -2  151.09    8.75
  14  -2  -2   -0.68    0.90
 -11  -1  -2   98.04    6.10
  -9  -1  -2   38.97    3.14
  -7  -1  -2   -0.60    0.48
  -5  -1  -2   70.64    4.65
  -3  -1  -2    1.54    0.29
  -1  -1  -2   18.57    0.82
   1  -1  -2   47.47    1.51
   3  -1  -2    4.51    0.39
   5  -1  -2   18.64    0.92
   7  -1  -2   59.11    2.65
   9  -1  -2    6.78    1.06
  11  -1  -2   21.06    2.07
  13  -1  -2   -1.06    0.65
  15  -1  -2   20.92    2.52
 -10   0  -2   73.35    4.76
  -8   0  -2  143.13    7.80
  -6   0  -2  432.73   21.62
  -4   0  -2  260.52   14.22
  -2   0  -2  334.28   12.55
   0   0  -2  395.49   15.90
   2   0  -2   58.74    1.56
   4   0  -2   43.83    1.78
   8   0  -2  632.12   30.83
  10   0  -2  662.03   36.26
  12   0  -2  206.59   12.54
  14   0  -2   70.17    4.94
 -11   1  -2   98.75    6.15
  -9   1  -2   40.29    3.25
  -7   1  -2    0.57    0.74
  -5   1  -2   70.36    4.72
  -3   1  -2    1.87    0.34
  -1   1  -2   17.66    0.81
   1   1  -2   48.58    1.53
   3   1  -2    2.70    0.39
   5   1  -2   21.44    0.91
   7   1  -2   62.86    2.47
   9   1  -2    6.63    0.90
  11   1  -2   21.79    1.86
  13   1  -2    0.77    0.78
  15   1  -2   19.88    2.15
 -10   2  -2    8.23    1.77
  -8   2  -2  113.19    7.36
  -6   2  -2  154.82    9.39
  -4   2  -2  370.43   20.46
  -2   2  -2  137.86    5.56
   0   2  -2  119.44    3.71
   2   2  -2    2.48    0.14
   4   2  -2    2.78    0.36
   6   2  -2  133.20    6.47
   8   2  -2  384.24   18.85
  10   2  -2  276.82   13.80
  12   2  -2  153.82    8.19
  14   2  -2    0.84    0.67
  -9   3  -2   62.48    4.70
  -7   3  -2    4.59    1.07
  -5   3  -2   28.56    2.13
  -3   3  -2   21.04    1.11
  -1   3  -2   80.88    3.27
   1   3  -2   37.09    1.41
   3   3  -2   65.38    2.04
   5   3  -2  139.95    7.12
   7   3  -2  104.74    5.58
   9   3  -2    2.63    0.56
  11   3  -2   78.75    4.17
  13   3  -2   94.64    5.29
  15   3  -2   77.88    4.80
  -8   4  -2    8.04    1.36
  -6   4  -2   32.95    2.44
  -4   4  -2  198.25   11.50
  -2   4  -2   96.13    3.94
   0   4  -2   23.77    1.11
   2   4  -2    1.62    0.16
   4   4  -2   23.73    0.84
   6   4  -2  115.28    4.19
   8   4  -2   66.80    3.77
  10   4  -2   32.29    2.19
  12   4  -2   53.92    3.24
  14   4  -2    0.54    0.65
  -7   5  -2   52.08    3.69
  -5   5  -2   70.00    4.61
  -3   5  -2   54.61    3.61
  -1   5  -2  163.54    9.28
   1   5  -2  134.51    5.15
   3   5  -2  188.79    6.96
   5   5  -2   96.80    3.78
  -4   6  -2    5.17    1.02
  -2   6  -2    6.54    1.05
   0   6  -2    7.28    1.07
   2   6  -2    2.02    0.73
   4   6  -2    2.71    0.82
   6   6  -2    3.91    0.98
   8   6  -2   18.58    2.11
  -1  -7  -1    0.49    0.60
   1  -7  -1    1.27    0.66
   3  -7  -1    0.34    0.64
  -6  -6  -1  122.06    7.66
  -4  -6  -1   26.00    2.26
  -2  -6  -1    7.63    1.17
   0  -6  -1    9.32    0.72
   2  -6  -1   61.65    2.59
   4  -6  -1   98.08    5.52
   6  -6  -1  150.30    8.26
   8  -6  -1   22.36    1.99
  10  -6  -1   13.64    1.91
  -9  -5  -1   11.31    2.03
  -7  -5  -1    0.35    0.78
  -5  -5  -1   35.28    2.69
  -3  -5  -1   40.70    2.84
  -1  -5  -1   14.87    1.36
   1  -5  -1    7.38    0.56
   3  -5  -1   28.60    1.33
   5  -5  -1    0.90    0.45
   7  -5  -1   19.90    1.73
   9  -5  -1    0.58    0.72
  11  -5  -1    2.21    1.13
 -10  -4  -1   43.52    3.51
  -8  -4  -1   88.80    5.84
  -6  -4  -1  157.71    9.44
  -4  -4  -1   33.88    2.43
  -2  -4  -1    6.60    0.79
   0  -4  -1  109.36    4.24
   2  -4  -1  105.01    4.11
   4  -4  -1  339.61   17.93
   6  -4  -1  365.78   18.86
   8  -4  -1  114.25    6.61
  10  -4  -1   23.79    2.25
  12  -4  -1   -0.10    0.80
 -11  -3  -1  149.14    9.13
  -9  -3  -1   35.18    2.88
  -7  -3  -1   13.98    1.62
  -5  -3  -1   17.05    1.54
  -3  -3  -1   97.55    3.81
  -1  -3  -1  147.72    5.55
   1  -3  -1  334.70   10.26
   3  -3  -1    3.75    0.33
   5  -3  -1    2.87    0.50
   7  -3  -1  224.72   12.20
   9  -3  -1  184.04   10.02
  11  -3  -1  378.03   19.36
  13  -3  -1   81.21    5.59
 -12  -2  -1   80.71    5.92
 -10  -2  -1   43.30    3.53
  -8  -2  -1  208.96   11.20
  -6  -2  -1  343.73   18.63
  -4  -2  -1  152.21    8.46
  -2  -2  -1   21.88    1.43
   0  -2  -1    7.26    0.37
   2  -2  -1   26.04    0.90
   4  -2  -1   21.43    0.98
   6  -2  -1  307.53   16.30
   8  -2  -1   37.74    2.51
  10  -2  -1   58.15    3.95
  12  -2  -1   13.93    2.00
  14  -2  -1   41.21    3.56
 -11  -1  -1  377.34   21.00
  -9  -1  -1   78.32    5.33
  -7  -1  -1    0.30    0.58
  -5  -1  -1  526.12   30.94
  -3  -1  -1  483.68   17.88
  -1  -1  -1  237.83    9.09
   1  -1  -1  523.80   13.73
   3  -1  -1  224.91    8.20
   5  -1  -1   12.09    0.71
   7  -1  -1   29.47    2.08
   9  -1  -1  270.26   14.89
  11  -1  -1  316.82   18.01
  13  -1  -1  203.13   11.79
 -12   0  -1    1.57    1.02
 -10   0  -1    0.24    0.76
  -8   0  -1    0.68    0.65
  -6   0  -1    0.13    0.50
  -4   0  -1    0.46    0.25
  -2   0  -1    1.01    0.20
   0   0  -1    0.89    0.14
   2   0  -1    0.35    0.06
   4   0  -1    1.80    0.29
   6   0  -1    0.65    0.29
   8   0  -1    1.48    0.56
  10   0  -1    1.08    0.63
  12   0  -1    0.17    0.64
  14   0  -1   -0.28    0.79
 -11   1  -1  403.55   21.08
  -9   1  -1   81.71    5.46
  -7   1  -1    3.28    1.06
  -5   1  -1  524.21   31.03
  -3   1  -1  483.87   17.92
  -1   1  -1  245.18    9.11
   1   1  -1  522.75   20.05
   3   1  -1  225.50    8.18
   5   1  -1   12.43    0.66
   7   1  -1   32.78    2.01
   9   1  -1  299.97   14.71
  11   1  -1  336.03   17.73
  13   1  -1  194.77   11.42
 -12   2  -1   79.83    5.83
 -10   2  -1   43.16    3.64
  -8   2  -1  171.23   11.03
  -6   2  -1  314.66   18.56
  -4   2  -1  141.25    5.81
  -2   2  -1   23.48    0.88
   0   2  -1    7.12    0.31
   2   2  -1   27.14    0.75
   4   2  -1   21.68    0.93
   6   2  -1  323.24   16.15
   8   2  -1   34.89    2.24
  10   2  -1   59.72    3.56
  12   2  -1   16.54    1.53
  14   2  -1   40.23    2.95
 -11   3  -1  137.36    8.92
  -9   3  -1   26.43    2.63
  -7   3  -1   14.48    1.50
  -5   3  -1   16.81    1.42
  -3   3  -1   91.52    3.77
  -1   3  -1  143.78    5.52
   1   3  -1  337.87   10.02
   3   3  -1    3.56    0.22
   5   3  -1    1.69    0.32
   7   3  -1  235.24   11.94
   9   3  -1  181.69    9.59
  11   3  -1  356.94   18.68
  13   3  -1   80.48    4.82
 -10   4  -1   35.87    3.14
  -8   4  -1   89.89    5.63
  -6   4  -1  160.31    9.27
  -4   4  -1   34.61    2.35
  -2   4  -1    4.68    0.41
   0   4  -1  108.43    3.39
   2   4  -1  106.45    3.28
   4   4  -1  356.89   12.60
   6   4  -1  374.41   18.62
   8   4  -1  115.57    6.24
  10   4  -1   21.46    1.71
  12   4  -1    2.16    0.68
  14   4  -1  108.92    6.32
  -7   5  -1    0.26    0.65
  -5   5  -1   35.76    2.55
  -3   5  -1   40.83    2.75
  -1   5  -1   13.77    0.63
   1   5  -1    7.50    0.42
   3   5  -1   27.24    1.02
   5   5  -1    0.82    0.29
   7   5  -1   22.45    1.54
   9   5  -1    1.38    0.51
  -6   6  -1  123.43    7.51
  -4   6  -1   27.16    2.17
  -2   6  -1    7.53    1.09
   0   6  -1   10.27    1.24
   2   6  -1   58.81    3.91
   4   6  -1  103.73    6.16
   6   6  -1  151.40    9.05
  -1  -7   0   30.66    2.54
   1  -7   0   28.30    2.46
  -6  -6   0    1.08    0.84
  -4  -6   0   50.81    3.52
  -2  -6   0    2.80    0.80
   0  -6   0    1.03    0.56
   2  -6   0    3.06    0.74
   4  -6   0   51.83    3.14
   6  -6   0    1.42    0.67
  -9  -5   0  120.50    7.49
  -7  -5   0   60.35    4.16
  -5  -5   0  536.32   29.64
  -3  -5   0  222.85   12.15
  -1  -5   0    1.24    0.29
   1  -5   0    0.97    0.27
   3  -5   0  205.45   11.20
   5  -5   0  523.02   27.73
   7  -5   0   58.31    3.79
   9  -5   0  118.39    6.94
  11  -5   0    5.69    1.43
 -10  -4   0   56.26    4.09
  -8  -4   0  124.93    7.72
  -6  -4   0    2.46    0.69
  -4  -4   0   39.40    2.64
  -2  -4   0   60.07    2.49
   0  -4   0  258.37    9.55
   2  -4   0   62.29    2.50
   4  -4   0   39.14    2.38
   6  -4   0    1.90    0.55
   8  -4   0  123.47    7.23
  10  -4   0   51.52    3.76
  12  -4   0   51.35    4.07
 -11  -3   0   77.68    5.14
  -9  -3   0  159.60    9.32
  -7  -3   0  137.57    8.34
  -5  -3   0  112.21    4.65
  -3  -3   0  134.25    5.08
  -1  -3   0   41.45    1.34
   1  -3   0   40.83    1.38
   3  -3   0  133.42    6.97
   5  -3   0  122.22    6.48
   7  -3   0  145.07    7.91
   9  -3   0  157.68    8.82
  11  -3   0   71.72    4.86
 -12  -2   0  521.90   32.13
 -10  -2   0  202.71   11.45
  -8  -2   0   34.24    2.50
  -6  -2   0   19.73    1.64
  -4  -2   0   85.11    3.41
  -2  -2   0  118.22    4.40
   0  -2   0  133.39    4.13
   2  -2   0  115.73    4.40
   4  -2   0   88.33    3.46
   6  -2   0   18.33    1.53
   8  -2   0   27.94    2.27
  10  -2   0  182.96   10.72
  12  -2   0  611.07   30.42
 -13  -1   0   72.93    5.22
 -11  -1   0   24.29    2.44
  -9  -1   0   79.62    5.57
  -7  -1   0   43.03    2.99
  -5  -1   0  354.34   17.38
  -3  -1   0  638.11   24.40
  -1  -1   0   12.24    0.53
   1  -1   0   13.33    0.53
   3  -1   0  694.04   25.93
   5  -1   0  287.90   18.02
   7  -1   0   42.22    2.82
   9  -1   0   87.34    5.27
  11  -1   0   25.36    2.38
  13  -1   0   74.82    4.96
 -12   0   0  381.23   20.22
 -10   0   0  864.37   43.55
  -8   0   0  137.55    7.81
  -6   0   0   64.00    3.53
  -4   0   0  259.24   14.79
  -2   0   0  481.31   20.64
   4   0   0  278.93   13.89
   6   0   0   49.71    3.84
   8   0   0  125.65    7.20
  10   0   0  731.00   40.78
  12   0   0  332.32   18.82
 -13   1   0   81.87    5.31
 -11   1   0   31.15    2.79
  -9   1   0   91.16    5.75
  -7   1   0   41.84    3.12
  -5   1   0  336.61   12.35
  -3   1   0  683.93   24.42
  -1   1   0   12.24    0.44
   1   1   0   12.24    0.52
   7   1   0   45.56    2.71
   9   1   0   95.08    5.12
  11   1   0   26.79    2.10
  13   1   0   66.63    4.57
 -12   2   0  577.59   32.19
 -10   2   0  184.69   11.37
  -8   2   0   25.64    2.44
  -6   2   0   21.13    1.71
  -4   2   0   86.12    3.52
  -2   2   0  114.59    3.63
   0   2   0  133.47    3.53
   2   2   0  118.28    3.54
   4   2   0   90.89    3.38
   6   2   0   22.39    1.43
   8   2   0   34.13    2.09
  10   2   0  200.79   10.41
  12   2   0  601.94   29.89
 -11   3   0   62.89    4.90
  -9   3   0  146.95    9.13
  -7   3   0  144.71    8.25
  -5   3   0  121.83    6.80
  -3   3   0  128.46    5.06
  -1   3   0   41.56    1.18
   1   3   0   40.56    1.18
   3   3   0  135.80    4.90
   5   3   0  126.63    6.30
   7   3   0  142.43    7.58
   9   3   0  154.95    8.33
  11   3   0   70.46    4.29
  13   3   0   -0.03    0.63
 -10   4   0   45.65    3.69
  -8   4   0  125.85    7.47
  -6   4   0    2.46    0.61
  -4   4   0   40.01    2.56
  -2   4   0   61.33    2.00
   0   4   0  252.61    7.70
   2   4   0   62.21    2.00
   4   4   0   38.72    2.28
   6   4   0    2.90    0.52
   8   4   0  129.18    6.83
  10   4   0   55.69    3.30
  12   4   0   49.72    3.32
  -9   5   0  109.82    7.02
  -7   5   0   59.63    3.92
  -5   5   0  527.90   29.46
  -3   5   0  210.47    8.20
  -1   5   0    1.24    0.36
   1   5   0    1.02    0.27
   3   5   0  222.29    8.21
   5   5   0  576.55   27.61
   7   5   0   61.58    3.52
   9   5   0  114.13    6.39
  11   5   0   10.45    1.29
  -6   6   0    1.93    0.72
  -4   6   0   47.90    2.27
  -2   6   0    1.74    0.63
   0   6   0    1.04    0.53
   2   6   0    2.31    0.75
   4   6   0   54.48    3.59
   6   6   0    1.20    0.81
  -1   7   0   28.68    2.41
   1   7   0   30.73    2.47
  -6  -6   1  149.18    9.01
  -4  -6   1   97.86    6.11
  -2  -6   1   61.81    3.97
   0  -6   1   10.49    1.18
  -9  -5   1    1.32    0.95
  -7  -5   1   24.59    2.12
  -5  -5   1    0.91    0.54
  -3  -5   1   27.24    2.08
  -1  -5   1    7.51    0.53
   1  -5   1   15.03    0.82
   3  -5   1   40.66    2.45
   5  -5   1   34.96    2.36
   7  -5   1    0.01    0.59
   9  -5   1   11.71    1.79
 -12  -4   1    0.21    0.92
 -10  -4   1   24.71    2.41
  -8  -4   1  118.31    7.08
  -6  -4   1  358.10   20.09
  -4  -4   1  353.79   13.05
  -2  -4   1  101.89    6.07
   0  -4   1  111.27    4.22
   2  -4   1    4.36    0.54
   4  -4   1   34.44    2.20
   6  -4   1  160.72    8.85
   8  -4   1   92.03    5.51
  10  -4   1   38.81    3.22
 -13  -3   1   85.20    5.83
 -11  -3   1  380.42   20.42
  -9  -3   1  178.75   10.53
  -7  -3   1  219.79   12.92
  -5  -3   1    0.57    0.34
  -3  -3   1    3.50    0.29
  -1  -3   1  336.82   12.41
   1  -3   1  146.72    5.53
   3  -3   1   99.56    5.23
   5  -3   1   19.30    1.45
   7  -3   1   11.33    1.43
   9  -3   1   29.23    2.50
  11  -3   1  139.66    8.46
 -14  -2   1   35.32    3.67
 -12  -2   1   16.06    2.01
 -10  -2   1   57.95    4.07
  -8  -2   1   33.72    2.52
  -6  -2   1  306.01   17.27
  -4  -2   1   19.88    0.93
  -2  -2   1   24.97    1.06
   0  -2   1    7.28    0.31
   2  -2   1   24.80    1.09
   4  -2   1  155.69    7.99
   6  -2   1  331.60   17.52
   8  -2   1  180.34   10.39
  10  -2   1   48.30    3.37
  12  -2   1   92.41    5.52
 -13  -1   1  204.84   12.45
 -11  -1   1  306.12   19.03
  -9  -1   1  262.40   15.72
  -7  -1   1   30.46    2.19
  -5  -1   1   13.23    1.02
  -3  -1   1  205.87    8.17
  -1  -1   1  522.25   20.03
   1  -1   1  260.03    9.12
   3  -1   1  491.09   18.55
   5  -1   1  598.54   29.15
   7  -1   1    0.48    0.46
   9  -1   1   86.20    4.94
  11  -1   1  368.98   19.63
 -14   0   1   -0.20    0.90
 -12   0   1    0.47    0.87
 -10   0   1    1.70    0.79
  -8   0   1    0.41    0.49
  -6   0   1    0.83    0.29
  -4   0   1    1.77    0.25
   0   0   1    1.12    0.14
   2   0   1    1.20    0.20
   4   0   1    0.87    0.26
   6   0   1    1.47    0.47
   8   0   1    3.17    0.69
  10   0   1    0.39    0.59
  12   0   1   -0.20    0.65
 -13   1   1  238.78   12.54
 -11   1   1  395.09   19.23
  -9   1   1  286.56   15.88
  -7   1   1   27.59    2.26
  -5   1   1   10.43    0.65
  -3   1   1  227.90    8.19
  -1   1   1  535.11   13.74
   1   1   1  241.14    9.08
   5   1   1  628.94   29.05
   7   1   1    2.29    0.55
   9   1   1   79.47    4.78
  11   1   1  336.04   19.39
 -14   2   1   47.67    3.72
 -12   2   1   15.86    2.22
 -10   2   1   58.33    4.19
  -8   2   1   32.33    2.58
  -6   2   1  321.26   17.30
  -4   2   1   21.33    0.95
  -2   2   1   26.16    0.89
   0   2   1    7.40    0.31
   2   2   1   24.88    1.05
   4   2   1  159.92    7.84
   6   2   1  351.12   17.29
   8   2   1  199.66   10.14
  10   2   1   42.97    2.99
  12   2   1   79.99    5.04
 -13   3   1   77.65    5.61
 -11   3   1  322.94   20.15
  -9   3   1  177.91   10.45
  -7   3   1  240.86   12.87
  -5   3   1    0.70    0.35
  -3   3   1    3.03    0.26
  -1   3   1  332.87    8.79
   1   3   1  146.47    3.92
   3   3   1  100.25    3.68
   5   3   1   17.26    1.27
   7   3   1   17.36    1.29
   9   3   1   32.16    2.18
  11   3   1  146.03    8.01
 -12   4   1    1.34    0.99
 -10   4   1   23.03    2.19
  -8   4   1  115.02    6.83
  -6   4   1  358.12   19.93
  -4   4   1  336.58   19.05
  -2   4   1  106.66    3.32
   0   4   1  109.25    3.42
   2   4   1    5.30    0.47
   4   4   1   33.94    2.10
   6   4   1  167.35    8.60
   8   4   1   86.44    5.01
  10   4   1   38.96    2.69
  -9   5   1    1.62    0.73
  -7   5   1   23.31    1.86
  -5   5   1    0.46    0.43
  -3   5   1   25.76    1.30
  -1   5   1    7.36    0.56
   1   5   1   14.42    0.84
   3   5   1   40.64    1.85
   5   5   1   33.05    2.20
   7   5   1    0.66    0.49
   9   5   1   15.55    1.45
  11   5   1   15.01    1.56
  -8   6   1   21.52    1.99
  -6   6   1  153.46    8.80
  -4   6   1   99.36    4.07
  -2   6   1   58.99    2.58
   0   6   1    8.86    0.71
   2   6   1    7.78    0.71
   4   6   1   23.56    2.17
  -3   7   1   -0.07    0.62
  -1   7   1    1.52    0.77
   1   7   1    0.50    0.69
  -8  -6   2   20.30    2.16
  -6  -6   2    3.91    0.96
  -4  -6   2    3.63    0.90
  -2  -6   2    1.48    0.63
   0  -6   2    8.35    1.17
 -11  -5   2   40.09    3.56
  -9  -5   2   30.81    2.64
  -7  -5   2   30.42    2.37
  -5  -5   2   89.55    5.69
  -3  -5   2  180.10   10.35
  -1  -5   2  134.99    5.16
   1  -5   2  163.43    6.27
   3  -5   2   57.46    3.28
   5  -5   2   74.95    4.41
   7  -5   2   50.42    3.57
   9  -5   2   84.06    5.47
 -12  -4   2   54.57    4.06
 -10  -4   2   33.38    2.76
  -8  -4   2   66.67    4.37
  -6  -4   2  109.99    4.40
  -4  -4   2   24.22    1.08
  -2  -4   2    1.38    0.21
   0  -4   2   24.93    1.11
   2  -4   2  105.68    5.39
   4  -4   2  214.23   10.90
   6  -4   2   33.72    2.44
   8  -4   2    8.89    1.47
  10  -4   2    2.98    1.15
 -13  -3   2   96.67    6.26
 -11  -3   2   67.43    4.75
  -9  -3   2    2.05    0.68
  -7  -3   2  102.52    6.14
  -5  -3   2  135.68    5.25
  -3  -3   2   65.72    2.55
  -1  -3   2   38.89    1.52
   1  -3   2   87.00    4.45
   3  -3   2   24.27    1.61
   5  -3   2   28.83    2.09
   7  -3   2    6.64    1.10
   9  -3   2   66.45    4.40
  11  -3   2  152.88    8.80
 -14  -2   2    0.07    1.10
 -12  -2   2  145.18    9.04
 -10  -2   2  268.25   14.92
  -8  -2   2  366.49   20.15
  -6  -2   2  122.26    6.92
  -4  -2   2    3.40    0.45
  -2  -2   2    2.91    0.26
   0  -2   2  117.77    3.70
   2  -2   2  154.18    5.59
   4  -2   2  373.15   19.28
   6  -2   2  158.96    8.77
   8  -2   2  124.88    6.81
  10  -2   2    8.55    1.45
 -15  -1   2   19.67    2.44
 -13  -1   2   -0.61    0.83
 -11  -1   2   22.00    2.19
  -9  -1   2    5.25    0.97
  -5  -1   2   19.57    0.90
  -3  -1   2    4.99    0.36
  -1  -1   2   48.55    1.53
   1  -1   2   18.21    0.82
   3  -1   2    3.15    0.43
   5  -1   2   83.19    4.32
   7  -1   2    1.13    0.53
   9  -1   2   40.49    2.73
  11  -1   2   86.01    5.45
 -14   0   2   80.88    5.30
 -12   0   2  255.12   13.38
 -10   0   2  748.93   38.49
  -8   0   2  569.10   32.64
  -6   0   2   87.38    3.63
  -4   0   2   46.92    1.78
  -2   0   2   58.73    2.21
   0   0   2  400.32   15.56
   4   0   2  246.89   13.16
   6   0   2  347.49   20.06
   8   0   2  112.66    7.01
  10   0   2   59.02    4.05
 -15   1   2   26.84    2.71
 -13   1   2    1.54    0.92
 -11   1   2   30.33    2.33
  -9   1   2    8.52    1.23
  -7   1   2   56.76    2.46
  -5   1   2   18.85    0.91
  -3   1   2    2.97    0.38
  -1   1   2   48.89    1.51
   1   1   2   16.28    0.78
   3   1   2    1.37    0.27
   5   1   2   74.34    4.18
   7   1   2    0.07    0.39
   9   1   2   32.78    2.59
  11   1   2   78.18    5.31
 -14   2   2    1.89    1.27
 -12   2   2  144.17    9.03
 -10   2   2  239.68   14.87
  -8   2   2  348.23   20.18
  -6   2   2  119.62    4.71
  -4   2   2    2.64    0.20
  -2   2   2    2.58    0.17
   0   2   2  119.26    3.63
   2   2   2  144.07    5.52
   4   2   2  370.48   19.14
   6   2   2  159.54    8.57
   8   2   2  115.33    6.54
  10   2   2    8.48    1.27
 -13   3   2   84.40    6.06
 -11   3   2   63.69    4.65
  -9   3   2    2.64    0.74
  -7   3   2  105.13    6.05
  -5   3   2  138.94    7.69
  -3   3   2   66.71    1.84
  -1   3   2   36.51    1.10
   1   3   2   84.83    2.66
   3   3   2   23.95    1.52
   5   3   2   29.20    1.90
   7   3   2    3.80    0.70
   9   3   2   69.79    4.10
  11   3   2  146.72    8.42
 -12   4   2   45.75    3.78
 -10   4   2   34.14    2.60
  -8   4   2   69.33    4.23
  -6   4   2  111.20    6.44
  -4   4   2   22.82    1.13
  -2   4   2    1.04    0.35
   0   4   2   23.22    1.14
   2   4   2  100.25    5.41
   4   4   2  202.06   10.75
   6   4   2   30.59    2.14
   8   4   2    8.29    1.03
  10   4   2    5.17    1.04
 -11   5   2   49.56    3.44
  -9   5   2   33.06    2.43
  -7   5   2   27.35    2.15
  -5   5   2   92.97    3.82
  -3   5   2  180.07    7.00
  -1   5   2  132.21    5.20
   1   5   2  163.91    6.31
   3   5   2   57.19    3.29
   5   5   2   73.73    4.23
   7   5   2   54.12    3.27
   9   5   2   81.64    4.92
  -8   6   2   23.20    1.99
  -6   6   2    4.05    0.60
  -4   6   2    2.13    0.43
  -2   6   2    0.66    0.33
   0   6   2    7.33    0.68
   2   6   2    6.51    0.67
   4   6   2    5.60    0.69
   6   6   2   38.96    2.62
  -5   7   2   59.17    3.99
  -3   7   2   86.14    5.38
  -1   7   2  107.97    6.53
   1   7   2   21.39    1.99
  -8  -6   3   16.18    1.84
  -6  -6   3    5.85    1.07
  -4  -6   3  155.49    9.02
  -2  -6   3  285.51   15.95
   0  -6   3  293.25   16.47
 -11  -5   3    3.18    1.14
  -9  -5   3    6.80    1.23
  -7  -5   3   56.66    3.82
  -5  -5   3    3.53    0.80
  -3  -5   3    0.17    0.41
  -1  -5   3    0.12    0.45
 -12  -4   3  237.11   13.63
 -10  -4   3  165.78   10.16
  -8  -4   3   77.12    3.27
  -6  -4   3    1.13    0.21
  -4  -4   3  101.42    5.98
  -2  -4   3  115.37    4.41
   0  -4   3  418.06   15.20
   2  -4   3   79.75    4.39
   4  -4   3    1.25    0.59
   6  -4   3    1.58    0.78
   8  -4   3   42.18    3.14
 -13  -3   3    0.23    0.89
 -11  -3   3  110.96    6.48
  -9  -3   3  226.83   13.08
  -7  -3   3  369.87   20.45
  -5  -3   3  109.79    5.62
  -3  -3   3  344.37   18.90
  -1  -3   3    0.40    0.13
   1  -3   3    6.70    0.65
   3  -3   3  162.27    8.49
   5  -3   3   34.23    2.45
   7  -3   3  143.85    8.24
   9  -3   3   67.54    4.32
 -14  -2   3   91.53    6.37
 -12  -2   3   37.42    2.87
 -10  -2   3    1.32    0.56
  -8  -2   3  125.26    7.23
  -6  -2   3    6.06    0.41
  -4  -2   3  358.36   19.15
  -2  -2   3  405.06   12.53
   0  -2   3  241.85    9.08
   2  -2   3  192.13   10.23
   4  -2   3    0.95    0.39
   6  -2   3    4.27    0.83
   8  -2   3   79.39    4.48
  10  -2   3  101.20    5.83
 -15  -1   3  159.17    9.68
 -13  -1   3   13.22    1.85
 -11  -1   3  146.94    8.55
  -9  -1   3  315.21   17.72
  -7  -1   3  481.74   18.50
  -5  -1   3  765.04   28.21
  -3  -1   3  827.52   24.79
  -1  -1   3  331.26   12.09
   1  -1   3  243.07    9.13
   3  -1   3  363.29   17.42
   5  -1   3  937.76   43.39
   7  -1   3  511.01   25.60
   9  -1   3  152.43    8.97
 -16   0   3    0.30    0.96
 -14   0   3    0.13    0.88
 -12   0   3    0.03    0.71
 -10   0   3   -0.13    0.53
  -8   0   3    0.51    0.24
  -6   0   3    0.52    0.15
  -4   0   3    0.23    0.11
  -2   0   3    0.87    0.15
   0   0   3    1.07    0.29
   2   0   3    0.51    0.25
   4   0   3    0.62    0.33
   6   0   3    0.20    0.42
   8   0   3    0.76    0.61
 -13   1   3   15.11    1.76
  -9   1   3  337.46   17.83
  -7   1   3  464.08   17.45
  -5   1   3  786.95   38.76
  -3   1   3  826.36   21.63
  -1   1   3  322.59    9.79
   1   1   3  241.57   12.50
   3   1   3  346.03   17.34
   5   1   3  894.65   43.28
   7   1   3  463.72   25.49
   9   1   3  147.99    8.95
 -16   2   3   24.84    2.69
 -14   2   3  102.52    6.35
 -12   2   3   33.49    2.85
 -10   2   3    1.04    0.74
  -8   2   3  125.56    7.31
  -6   2   3    7.47    0.69
  -4   2   3  385.65    9.92
  -2   2   3  413.64   10.76
   0   2   3  248.87    7.35
   2   2   3  183.82    7.40
   4   2   3    0.25    0.33
   6   2   3    3.32    0.67
   8   2   3   68.63    4.29
  10   2   3   93.30    5.68
 -15   3   3   23.38    2.75
 -13   3   3    0.10    0.84
 -11   3   3   95.73    6.33
  -9   3   3  228.54   13.03
  -7   3   3  379.67   20.35
  -5   3   3  110.73    4.35
  -3   3   3  343.41   10.64
  -1   3   3    0.35    0.13
   1   3   3    5.99    0.65
   3   3   3  154.40    8.38
   5   3   3   33.21    2.26
   7   3   3  144.04    7.98
   9   3   3   64.04    4.01
 -14   4   3  221.41   14.42
 -12   4   3  222.00   13.37
 -10   4   3  175.66   10.03
  -8   4   3   83.74    4.84
  -6   4   3    0.68    0.39
  -4   4   3  102.61    4.03
  -2   4   3  114.74    4.49
   0   4   3  415.12   15.25
   2   4   3   78.36    4.41
   4   4   3    0.23    0.43
   6   4   3    1.52    0.58
   8   4   3   40.43    2.68
 -13   5   3    1.53    1.03
 -11   5   3    3.37    0.92
  -9   5   3    9.64    1.22
  -7   5   3   56.20    3.62
  -5   5   3    4.19    0.50
  -3   5   3    0.10    0.35
  -1   5   3    0.18    0.23
   1   5   3    9.99    0.74
   3   5   3   66.96    3.97
   5   5   3   32.71    2.28
   7   5   3   32.97    2.37
 -10   6   3   59.23    4.00
  -8   6   3   13.79    1.05
  -6   6   3    5.80    0.65
  -4   6   3  153.50    6.05
  -2   6   3  285.67   10.84
   0   6   3  293.13   11.22
   2   6   3  140.76    5.50
   4   6   3   10.36    0.97
   6   6   3    0.35    0.55
  -7   7   3    7.19    1.24
  -5   7   3   19.34    1.78
  -3   7   3   36.92    2.74
  -1   7   3    0.06    0.58
   1   7   3   18.15    1.84
  -8  -6   4   47.23    3.54
  -6  -6   4    8.28    1.26
  -4  -6   4   19.31    1.78
  -2  -6   4    0.42    0.56
 -11  -5   4   32.38    2.82
  -9  -5   4  271.10   14.80
  -7  -5   4    3.89    0.85
  -5  -5   4   28.56    2.16
  -3  -5   4   41.00    2.82
  -1  -5   4  169.27    9.58
 -14  -4   4    1.79    1.14
 -12  -4   4    5.86    1.23
 -10  -4   4   19.93    1.80
  -8  -4   4   21.03    1.78
  -6  -4   4   90.05    5.49
  -4  -4   4  155.46    8.67
  -2  -4   4    1.61    0.19
   0  -4   4   33.43    1.95
   2  -4   4   24.08    1.73
   4  -4   4   95.08    5.30
   6  -4   4   49.93    3.49
   8  -4   4   97.74    6.28
 -15  -3   4   80.84    5.55
 -13  -3   4  183.91   10.37
 -11  -3   4  260.61   14.07
  -9  -3   4  226.42   13.24
  -7  -3   4   10.70    0.58
  -5  -3   4   56.95    3.48
  -3  -3   4  208.49   11.65
  -1  -3   4  230.11   11.27
   1  -3   4  244.63   12.22
   3  -3   4  149.27    8.48
   7  -3   4   18.97    1.81
   9  -3   4   14.96    1.77
 -16  -2   4  197.65   13.14
 -14  -2   4   82.07    5.67
 -12  -2   4    9.76    1.29
 -10  -2   4  112.19    6.63
  -8  -2   4  813.70   42.89
  -6  -2   4 1000.00   52.39
  -4  -2   4  614.96   18.77
  -2  -2   4  219.04    6.84
   0  -2   4    0.78    0.28
   2  -2   4   74.07    3.99
   4  -2   4  216.14   10.73
   6  -2   4  271.84   13.39
   8  -2   4  160.59    8.33
 -17  -1   4    0.26    1.03
 -15  -1   4   48.72    3.90
 -13  -1   4   22.61    2.19
 -11  -1   4   35.60    2.68
  -9  -1   4   15.65    0.89
  -7  -1   4   95.19    3.67
  -5  -1   4   77.43    2.96
  -3  -1   4  706.33   18.09
  -1  -1   4   32.42    1.34
   1  -1   4   54.83    2.34
   3  -1   4    1.23    0.44
   5  -1   4    2.58    0.66
   7  -1   4    4.31    0.87
   9  -1   4   67.64    4.44
 -16   0   4   19.72    2.28
 -14   0   4  201.23   11.28
 -10   0   4  108.43    6.41
  -8   0   4   63.35    3.67
  -6   0   4   35.84    1.48
  -4   0   4  406.55   12.07
  -2   0   4  181.29    5.40
   0   0   4  141.07    5.20
   2   0   4   81.83    3.67
   4   0   4  855.30   46.17
   6   0   4  593.83   35.48
   8   0   4  442.33   26.69
 -17   1   4    1.90    1.22
 -13   1   4   28.59    2.24
 -11   1   4   41.81    2.72
  -9   1   4   18.95    1.48
  -7   1   4   98.87    3.72
  -5   1   4   78.00    2.94
  -3   1   4  678.16   20.61
  -1   1   4   31.95    1.34
   1   1   4   55.06    3.19
   5   1   4    4.03    0.68
   7   1   4    3.77    0.80
   9   1   4   62.19    4.41
 -16   2   4  253.68   13.08
 -14   2   4   98.12    5.75
 -12   2   4   11.36    1.56
 -10   2   4  107.76    6.70
  -8   2   4  689.33   42.86
  -6   2   4  992.49   37.00
  -4   2   4  633.64   16.47
  -2   2   4  224.18    8.30
   0   2   4    0.83    0.20
   2   2   4   65.25    3.94
   4   2   4  194.93   10.64
   6   2   4  252.53   13.27
   8   2   4  151.36    8.21
 -15   3   4   72.35    5.35
 -13   3   4  159.95   10.19
 -11   3   4  232.95   13.96
  -9   3   4  238.99   13.21
  -7   3   4    9.02    0.60
  -5   3   4   58.59    1.92
  -3   3   4  208.99    6.54
  -1   3   4  215.24    8.27
   1   3   4  236.54   12.22
   3   3   4  159.81    8.44
   5   3   4    5.49    0.86
   7   3   4   20.57    1.71
 -14   4   4    1.96    1.01
 -12   4   4    6.29    1.23
 -10   4   4   19.85    1.69
  -8   4   4   23.05    1.64
  -6   4   4   92.22    3.70
  -4   4   4  150.39    5.87
  -2   4   4    1.57    0.31
   0   4   4   33.05    2.10
   2   4   4   23.20    1.70
   4   4   4   91.99    5.13
   6   4   4   50.36    3.24
 -13   5   4  186.45   11.20
 -11   5   4   37.57    2.70
  -9   5   4  267.65   14.51
  -7   5   4    4.63    0.55
  -5   5   4   27.43    1.36
  -3   5   4   41.58    1.87
  -1   5   4  167.58    6.50
   1   5   4  240.52    9.27
   3   5   4  167.02    8.92
   5   5   4  172.54    9.03
 -12   6   4    1.93    0.94
 -10   6   4  104.42    6.28
  -8   6   4   49.60    2.31
  -6   6   4    8.49    0.78
  -4   6   4   18.31    1.12
  -2   6   4    0.29    0.31
   0   6   4    5.87    0.68
   2   6   4   73.04    3.18
   4   6   4    4.33    0.93
  -9   7   4   38.98    2.14
  -7   7   4   14.75    1.09
  -5   7   4   13.55    1.04
  -3   7   4   79.64    3.43
  -1   7   4   71.95    3.15
   1   7   4   44.92    3.32
  -8  -6   5   66.36    4.61
  -6  -6   5   50.37    3.51
  -4  -6   5    3.37    0.83
  -2  -6   5   34.22    2.59
 -11  -5   5    9.14    1.49
  -9  -5   5    0.22    0.54
  -7  -5   5   21.68    1.83
  -5  -5   5   15.95    1.49
  -3  -5   5   48.07    3.16
 -14  -4   5    3.33    1.10
 -12  -4   5   54.26    3.81
 -10  -4   5  129.49    7.95
  -8  -4   5   48.19    3.27
  -6  -4   5    2.57    0.64
  -4  -4   5    6.15    0.88
  -2  -4   5   10.71    0.61
   0  -4   5  159.88    7.81
   2  -4   5  385.68   18.64
   4  -4   5   60.31    3.77
   6  -4   5  157.72    8.84
   8  -4   5   78.49    5.10
 -15  -3   5   66.42    4.65
 -13  -3   5    4.97    1.13
 -11  -3   5   23.92    1.99
  -9  -3   5  105.37    6.26
  -7  -3   5   88.49    3.69
  -5  -3   5  123.62    7.08
  -3  -3   5  188.72    6.89
  -1  -3   5  301.64   15.46
   1  -3   5   37.30    2.47
   3  -3   5    8.78    1.02
   5  -3   5   26.70    2.06
   7  -3   5   75.98    4.43
 -16  -2   5    3.74    1.28
 -14  -2   5   35.82    3.02
 -12  -2   5   37.39    2.74
 -10  -2   5  207.01    7.96
  -8  -2   5   24.06    1.13
  -6  -2   5   71.44    2.27
  -2  -2   5    0.69    0.22
   0  -2   5    2.85    0.46
   2  -2   5    2.79    0.58
   4  -2   5    6.74    0.92
   6  -2   5    2.38    0.76
   8  -2   5    1.17    0.73
 -17  -1   5   61.51    4.74
 -15  -1   5  486.88   27.30
 -13  -1   5  291.87   16.63
 -11  -1   5    0.75    0.43
  -9  -1   5    6.99    0.49
  -7  -1   5  142.33    5.24
  -5  -1   5  172.76    5.19
  -3  -1   5  420.57   12.42
  -1  -1   5   32.17    1.37
   1  -1   5   54.11    3.03
   3  -1   5    5.05    0.73
   5  -1   5   58.23    3.72
   7  -1   5  259.62   13.99
 -18   0   5    0.38    1.09
 -16   0   5    0.34    0.94
 -14   0   5   -0.49    0.66
 -12   0   5   -0.10    0.52
 -10   0   5    0.60    0.43
  -8   0   5    1.08    0.21
  -6   0   5    0.13    0.08
  -4   0   5    0.02    0.14
  -2   0   5    0.75    0.18
   0   0   5   -0.29    0.21
   2   0   5    0.45    0.37
   4   0   5   -0.11    0.45
   6   0   5    0.73    0.55
   8   0   5    0.63    0.69
 -13   1   5  335.82   16.63
 -11   1   5    1.10    0.59
  -9   1   5    7.29    0.86
  -7   1   5  140.81    5.28
  -5   1   5  173.73    6.32
  -3   1   5  416.54   14.99
  -1   1   5   31.92    1.92
   1   1   5   51.26    3.05
   3   1   5    5.63    0.77
   5   1   5   58.10    3.67
   7   1   5  245.22   13.91
 -16   2   5    4.12    1.19
 -14   2   5   43.96    3.09
 -12   2   5   37.61    2.80
 -10   2   5  219.64   11.77
  -8   2   5   25.52    1.77
  -6   2   5   75.31    2.36
  -2   2   5    0.63    0.17
   0   2   5    2.42    0.34
   2   2   5    2.73    0.56
   4   2   5    6.36    0.90
   6   2   5    1.88    0.68
 -17   3   5   22.57    2.47
 -15   3   5   63.83    4.52
 -13   3   5    3.30    1.02
 -11   3   5   23.12    2.01
  -9   3   5  107.72    6.19
  -7   3   5  101.53    3.12
  -5   3   5  124.64    3.94
  -3   3   5  178.40    5.71
  -1   3   5  299.23   11.31
   1   3   5   39.75    2.53
   3   3   5    9.06    1.07
   5   3   5   25.16    1.95
 -16   4   5    7.98    1.58
 -14   4   5    2.62    1.09
 -12   4   5   50.76    3.63
 -10   4   5  137.58    7.82
  -8   4   5   50.73    2.19
  -6   4   5    2.63    0.36
  -4   4   5    6.86    0.53
  -2   4   5   11.71    0.72
   0   4   5  144.53    7.91
   2   4   5  359.18   18.59
   4   4   5   59.27    3.67
   6   4   5  153.40    8.71
 -15   5   5   51.16    3.99
 -13   5   5   19.14    2.02
 -11   5   5    9.98    1.28
  -9   5   5    0.16    0.34
  -7   5   5   20.42    1.15
  -5   5   5   14.10    0.89
  -3   5   5   46.65    2.10
  -1   5   5    4.20    0.54
   1   5   5    0.30    0.46
   3   5   5   47.72    3.14
 -12   6   5  132.52    8.01
 -10   6   5  241.22    9.30
  -8   6   5   69.93    3.02
  -6   6   5   49.53    2.26
  -4   6   5    2.70    0.49
  -2   6   5   33.70    1.67
   0   6   5   85.73    3.63
   2   6   5  105.34    4.37
  -7   7   5    6.14    1.07
  -5   7   5    2.07    0.77
  -3   7   5    1.09    0.68
  -1   7   5    5.97    1.07
  -8  -6   6    9.83    1.47
  -6  -6   6    4.99    1.01
  -4  -6   6    3.22    0.86
 -11  -5   6   89.25    5.78
  -9  -5   6  103.38    6.27
  -7  -5   6  233.56   13.47
  -5  -5   6  115.36    6.82
  -3  -5   6   21.27    1.78
 -14  -4   6   74.23    4.87
 -12  -4   6    6.01    1.10
 -10  -4   6    9.14    1.16
  -8  -4   6    9.19    1.11
  -6  -4   6    4.36    0.77
  -4  -4   6   76.82    4.67
 -15  -3   6    9.12    1.51
 -13  -3   6    1.82    0.77
 -11  -3   6   13.99    1.39
  -9  -3   6  266.15   14.84
  -7  -3   6  332.74   19.15
  -5  -3   6  114.02    6.41
  -3  -3   6   32.42    1.94
  -1  -3   6   35.66    2.04
   1  -3   6  149.14    7.60
   3  -3   6   62.88    3.62
   5  -3   6  138.74    6.94
   7  -3   6   82.81    4.77
 -16  -2   6  205.42   11.56
 -14  -2   6  310.48   17.59
 -12  -2   6  218.66   12.94
 -10  -2   6  116.05    4.59
  -8  -2   6    8.45    0.48
  -6  -2   6   32.92    1.08
  -4  -2   6  799.10   20.66
  -2  -2   6  251.91   12.65
   0  -2   6  175.53    9.13
   2  -2   6   51.19    3.04
   4  -2   6    1.49    0.64
   6  -2   6   78.76    4.43
 -17  -1   6    0.63    1.02
 -15  -1   6    0.89    0.78
 -13  -1   6    1.59    0.65
 -11  -1   6    1.81    0.50
  -9  -1   6   58.98    2.39
  -7  -1   6   20.78    0.76
  -5  -1   6   24.20    0.72
  -3  -1   6   74.56    2.31
  -1  -1   6   30.79    1.37
   1  -1   6   32.78    1.98
   3  -1   6    1.07    0.47
   5  -1   6   32.98    2.46
   7  -1   6   64.43    4.38
 -18   0   6   30.91    2.91
 -16   0   6  402.69   22.77
 -14   0   6  207.21   11.82
 -12   0   6  283.97   14.80
 -10   0   6  262.25   13.58
  -8   0   6   41.62    1.63
  -6   0   6   27.07    0.91
  -4   0   6  739.38   21.70
  -2   0   6  347.74   12.44
   0   0   6  466.67   23.39
   2   0   6  465.74   26.24
   4   0   6    9.22    1.17
   6   0   6   12.95    1.48
 -17   1   6    2.61    1.05
 -15   1   6   -0.19    0.66
 -13   1   6    1.28    0.64
 -11   1   6    1.74    0.56
  -9   1   6   67.95    3.54
  -7   1   6   20.16    0.88
  -5   1   6   24.26    1.52
  -3   1   6   69.78    2.86
  -1   1   6   26.73    1.87
   1   1   6   30.00    1.98
   3   1   6    0.34    0.43
   5   1   6   32.37    2.42
 -12   2   6  242.50   12.99
 -10   2   6  112.78    6.79
  -8   2   6    8.14    0.44
  -6   2   6   33.32    1.12
  -4   2   6  783.48   24.09
  -2   2   6  257.08   12.81
   0   2   6  169.68    9.20
   2   2   6   45.24    2.99
   4   2   6    1.35    0.59
   6   2   6   71.23    4.38
 -17   3   6   87.19    5.76
 -15   3   6    9.41    1.50
 -13   3   6    2.70    0.86
 -11   3   6   11.53    1.30
  -9   3   6  268.56    8.34
  -7   3   6  358.98   10.78
  -5   3   6  111.64    3.55
  -3   3   6   34.66    1.23
  -1   3   6   33.92    1.54
   1   3   6  142.01    7.66
   3   3   6   56.48    3.59
   5   3   6  123.27    6.84
 -16   4   6   76.72    5.28
 -14   4   6   63.53    4.67
 -12   4   6    7.33    1.14
 -10   4   6   10.37    0.80
  -8   4   6    9.42    0.69
  -6   4   6    4.51    0.36
  -4   4   6   77.40    3.15
  -2   4   6   45.28    1.99
   0   4   6   62.82    3.69
   2   4   6   24.01    1.90
   4   4   6    9.01    1.22
 -15   5   6    3.27    1.23
 -13   5   6   31.89    2.69
 -11   5   6   91.93    3.85
  -9   5   6  101.89    4.17
  -7   5   6  239.50    9.15
  -5   5   6  113.95    4.59
  -3   5   6   21.01    1.17
  -1   5   6   19.23    1.15
   1   5   6   67.94    4.06
 -10   6   6    4.77    1.06
  -8   6   6    8.41    1.20
  -6   6   6    4.77    0.90
  -4   6   6    3.38    0.80
  -2   6   6    2.97    0.76
   0   6   6   20.27    1.77
 -13  -5   7    3.89    1.08
 -11  -5   7   50.69    3.62
  -9  -5   7    0.58    0.62
  -7  -5   7    0.93    0.62
  -5  -5   7    0.19    0.54
 -14  -4   7    0.77    0.70
 -12  -4   7    0.58    0.57
 -10  -4   7  253.39   14.76
  -8  -4   7  349.96   19.59
  -6  -4   7  147.90    8.47
  -4  -4   7  211.76   11.89
 -17  -3   7   35.41    3.35
 -15  -3   7   74.37    5.19
 -13  -3   7   71.32    4.43
 -11  -3   7  224.83   12.42
  -9  -3   7   40.47    1.65
  -7  -3   7   10.25    0.38
  -5  -3   7  148.29    4.62
  -3  -3   7   64.00    3.47
  -1  -3   7  316.80   15.45
   1  -3   7  286.33   13.63
   3  -3   7   54.63    3.30
   5  -3   7    2.50    0.87
 -18  -2   7   97.69    6.92
 -16  -2   7   61.11    4.32
 -14  -2   7   10.24    1.32
 -12  -2   7    1.60    0.55
 -10  -2   7   69.89    2.92
  -8  -2   7   20.92    0.78
  -6  -2   7   18.78    0.70
  -4  -2   7  118.92    4.23
  -2  -2   7   10.57    0.86
   0  -2   7   20.90    1.44
   2  -2   7    9.06    1.01
   4  -2   7   77.74    4.40
   6  -2   7   73.16    4.44
 -19  -1   7   13.44    2.19
 -17  -1   7   36.93    3.11
 -15  -1   7  327.04   18.20
 -13  -1   7  475.62   25.83
 -11  -1   7  258.34   14.63
  -9  -1   7   89.47    2.76
  -7  -1   7   55.39    1.77
  -5  -1   7  176.20    5.34
  -3  -1   7  142.40    5.37
  -1  -1   7  332.04   16.57
   1  -1   7  455.53   22.20
   3  -1   7   76.87    4.62
   5  -1   7    4.53    1.00
 -18   0   7   -1.01    0.84
 -16   0   7    0.59    0.73
 -14   0   7    1.03    0.59
 -10   0   7    0.05    0.22
  -8   0   7    0.29    0.14
  -6   0   7    0.02    0.25
  -4   0   7    0.28    0.14
   2   0   7    0.39    0.43
   4   0   7    0.22    0.50
 -19   1   7   17.50    2.05
 -17   1   7   41.26    3.00
 -15   1   7  321.66   18.12
 -13   1   7  496.50   25.84
 -11   1   7  298.55   14.66
  -9   1   7   91.35    3.42
  -7   1   7   55.24    3.14
  -5   1   7  173.95    9.19
  -3   1   7  132.78    5.37
  -1   1   7  325.21   16.62
   1   1   7  436.85   22.22
   3   1   7   75.84    4.62
   5   1   7    3.64    0.88
 -18   2   7  123.03    6.73
 -14   2   7   13.83    1.38
 -12   2   7    2.00    0.60
 -10   2   7   75.53    3.00
  -8   2   7   23.00    0.98
  -6   2   7   21.64    1.42
  -4   2   7  113.94    6.17
  -2   2   7    9.60    0.96
   0   2   7   16.15    1.43
   2   2   7    8.48    1.04
   4   2   7   71.82    4.32
 -19   3   7    3.80    1.22
 -17   3   7   43.55    3.17
 -15   3   7   86.27    5.17
 -13   3   7   63.90    4.33
 -11   3   7  212.07    8.68
  -9   3   7   38.30    1.41
  -7   3   7   10.11    0.47
  -5   3   7  153.02    4.76
  -3   3   7   63.53    2.60
  -1   3   7  301.97   15.58
   1   3   7  256.81   13.67
   3   3   7   49.75    3.29
 -12   4   7    0.26    0.59
 -10   4   7  266.49   10.08
  -8   4   7  359.19   13.36
  -6   4   7  148.85    5.75
  -4   4   7  213.77    8.10
  -2   4   7   61.88    3.69
   0   4   7    1.56    0.60
   2   4   7  109.45    6.24
 -11   5   7   52.04    3.41
  -9   5   7    0.41    0.50
  -7   5   7    0.99    0.53
  -5   5   7    1.82    0.67
  -3   5   7    4.18    0.81
  -1   5   7    3.43    0.86
  -8   6   7  142.95    8.11
  -6   6   7   70.65    4.32
  -4   6   7   52.54    3.35
 -13  -5   8   60.12    4.23
 -11  -5   8   84.10    5.70
  -9  -5   8   19.63    1.82
  -7  -5   8   33.71    2.51
  -5  -5   8  157.21    9.26
 -16  -4   8    8.49    1.50
 -14  -4   8   74.71    5.03
 -12  -4   8   47.67    3.30
 -10  -4   8   48.03    3.27
  -8  -4   8   16.77    1.53
  -6  -4   8    0.18    0.45
 -17  -3   8   23.10    2.40
 -15  -3   8   26.02    2.24
 -13  -3   8   10.34    1.28
 -11  -3   8    1.33    0.49
  -9  -3   8   13.35    1.19
  -7  -3   8   41.62    2.76
  -1  -3   8   95.82    5.13
   1  -3   8   11.65    1.28
 -18  -2   8   11.49    1.76
 -16  -2   8    2.60    0.88
 -14  -2   8   22.46    1.94
 -12  -2   8  101.85    5.93
 -10  -2   8   23.62    0.87
  -8  -2   8   12.51    0.52
  -6  -2   8  117.44    3.55
  -4  -2   8   51.15    1.98
  -2  -2   8  139.28    7.28
   0  -2   8  201.22   10.17
   2  -2   8  230.44   11.37
   4  -2   8  189.31    9.88
 -19  -1   8  138.61    8.72
 -17  -1   8   39.93    3.02
 -15  -1   8   35.02    2.55
 -13  -1   8   60.98    3.73
 -11  -1   8   20.31    1.40
  -9  -1   8  102.31    3.16
  -7  -1   8    5.95    0.34
  -5  -1   8   86.46    3.35
  -3  -1   8    0.68    0.38
  -1  -1   8    2.70    0.56
   1  -1   8    3.68    0.69
   3  -1   8    1.43    0.70
 -20   0   8    0.62    1.09
 -18   0   8   99.78    6.42
 -16   0   8  217.80   12.17
 -14   0   8  547.88   28.88
 -12   0   8  420.74   22.41
 -10   0   8  659.94   23.89
  -8   0   8  403.66   14.42
  -6   0   8   24.04    1.53
  -4   0   8    1.56    0.25
  -2   0   8   23.10    1.23
   0   0   8  169.52   10.02
   2   0   8   77.80    4.58
   4   0   8   32.32    2.68
 -19   1   8  145.92    8.54
 -17   1   8   37.02    2.91
 -15   1   8   33.67    2.50
 -13   1   8   65.31    3.71
 -11   1   8   20.01    0.96
  -9   1   8  103.16    5.53
  -7   1   8    5.93    0.73
  -5   1   8   85.28    3.31
  -3   1   8    0.68    0.24
  -1   1   8    5.23    0.76
   1   1   8    3.10    0.70
   3   1   8    0.85    0.60
 -16   2   8    2.96    0.84
 -14   2   8   25.33    1.89
 -12   2   8   98.66    5.80
 -10   2   8   23.52    0.87
  -8   2   8   13.54    1.11
  -6   2   8  112.41    6.21
  -4   2   8   48.85    2.95
  -2   2   8  133.94    7.40
   0   2   8  189.04   10.23
   2   2   8  205.39   11.31
 -11   3   8    0.65    0.48
  -9   3   8   13.03    1.19
  -7   3   8   45.28    2.74
  -5   3   8   30.48    2.07
  -3   3   8  131.09    7.20
  -1   3   8   87.51    5.18
   1   3   8   11.33    1.30
 -12   4   8   46.06    3.09
 -10   4   8   49.96    3.15
  -8   4   8   17.70    1.50
  -6   4   8    0.43    0.46
  -4   4   8   14.91    1.38
  -2   4   8   43.09    2.89
   0   4   8   82.41    4.97
 -11   5   8   91.12    5.44
  -9   5   8   20.65    1.78
  -7   5   8   33.97    2.46
  -5   5   8  163.42    8.80
  -3   5   8   56.76    3.64
 -13  -5   9    2.21    0.83
 -11  -5   9   48.74    3.47
  -9  -5   9    3.34    0.87
  -7  -5   9   23.56    2.01
 -16  -4   9  135.09    8.30
 -14  -4   9   73.37    4.77
 -12  -4   9  162.07    9.53
 -10  -4   9   36.49    2.59
  -8  -4   9    4.49    0.83
 -17  -3   9    7.81    1.40
 -15  -3   9    1.22    0.69
 -13  -3   9   14.46    1.42
 -11  -3   9   56.75    3.51
  -9  -3   9  142.21    8.21
  -7  -3   9   66.20    4.30
 -18  -2   9    6.64    1.35
 -16  -2   9    6.46    1.14
 -14  -2   9   68.17    4.26
 -12  -2   9   16.54    0.90
 -10  -2   9   11.33    0.66
  -8  -2   9    9.08    0.58
  -6  -2   9   23.50    1.43
  -4  -2   9  241.38   12.16
  -2  -2   9  115.44    5.95
   0  -2   9   40.07    2.57
   2  -2   9   71.56    4.18
 -19  -1   9  130.31    8.13
 -17  -1   9   28.92    2.26
 -15  -1   9    5.39    0.89
 -13  -1   9   21.41    1.60
 -11  -1   9  233.16    8.72
  -9  -1   9  283.81   10.43
  -7  -1   9  628.77   31.03
  -5  -1   9   27.14    1.24
  -1  -1   9   31.53    2.08
   1  -1   9  142.22    7.64
   3  -1   9  254.15   14.01
 -20   0   9   -0.07    0.88
 -18   0   9   -0.10    0.66
 -16   0   9    0.17    0.51
 -14   0   9   -0.04    0.34
 -12   0   9    0.05    0.19
 -10   0   9    1.11    0.41
  -8   0   9   -0.03    0.31
  -6   0   9    3.51    0.37
  -4   0   9    1.05    0.46
  -2   0   9   -0.30    0.35
   0   0   9    0.23    0.55
   2   0   9   -0.07    0.52
 -11   1   9  236.75   12.14
  -9   1   9  287.06   14.51
  -7   1   9  610.99   31.13
  -5   1   9   27.66    1.85
  -3   1   9    7.20    0.88
  -1   1   9   29.41    2.08
   1   1   9  131.56    7.62
 -12   2   9   16.80    1.42
 -10   2   9   11.09    1.08
  -8   2   9    8.82    0.99
  -6   2   9   19.29    1.55
  -4   2   9  223.21   12.30
  -2   2   9  103.90    6.02
   0   2   9   36.44    2.63
 -13   3   9   13.99    1.39
 -11   3   9   53.31    3.40
  -9   3   9  145.67    7.88
  -7   3   9   82.84    4.29
  -5   3   9    0.51    0.48
  -3   3   9    0.68    0.58
  -1   3   9   10.59    1.24
 -14   4   9   71.89    4.56
 -12   4   9  164.84    9.06
 -10   4   9   37.53    2.58
  -8   4   9    4.89    0.86
  -6   4   9   57.15    3.47
  -4   4   9   55.72    3.54
  -9   5   9    3.24    0.85
  -7   5   9   22.30    1.95
 -13  -5  10  242.79   13.65
 -11  -5  10   75.48    4.85
  -9  -5  10    1.07    0.70
 -16  -4  10   17.52    1.91
 -14  -4  10   12.22    1.53
 -12  -4  10   71.19    4.50
 -10  -4  10   38.70    2.79
  -8  -4  10   48.85    3.21
 -19  -3  10   17.21    2.14
 -17  -3  10   30.36    2.62
 -15  -3  10   33.85    2.64
 -13  -3  10  180.93   10.36
 -11  -3  10   51.35    3.29
  -9  -3  10    9.47    1.03
 -20  -2  10   48.82    3.86
 -18  -2  10  103.30    6.46
 -16  -2  10   47.21    3.27
 -14  -2  10    4.35    0.77
 -12  -2  10   45.68    2.95
 -10  -2  10   77.88    4.65
  -8  -2  10  299.63   14.56
  -6  -2  10  162.92    8.30
  -4  -2  10  243.74   12.14
  -2  -2  10   26.38    1.91
   0  -2  10   32.89    2.36
   2  -2  10  103.74    6.21
 -15  -1  10   16.48    1.43
 -13  -1  10   37.30    1.68
 -11  -1  10    2.86    0.35
  -9  -1  10    0.65    0.38
  -7  -1  10   23.59    1.65
  -5  -1  10   29.43    1.92
  -3  -1  10   23.71    1.73
  -1  -1  10    1.55    0.66
   1  -1  10   21.04    1.85
 -14   0  10    6.54    0.89
 -12   0  10   63.49    3.70
 -10   0  10  316.18   15.80
  -8   0  10  538.50   27.16
  -6   0  10   87.89    4.93
  -4   0  10   54.57    3.29
  -2   0  10   26.97    2.02
   0   0  10  164.78    9.01
 -13   1  10   37.64    2.46
 -11   1  10    3.17    0.66
  -9   1  10    0.91    0.48
  -7   1  10   22.98    1.75
  -5   1  10   27.39    1.96
  -3   1  10   21.24    1.73
  -1   1  10    3.61    0.88
 -14   2  10    4.60    0.88
 -12   2  10   48.01    3.01
 -10   2  10   80.83    4.61
  -8   2  10  276.98   14.75
  -6   2  10  151.22    8.44
  -4   2  10  215.92   12.23
  -2   2  10   24.63    1.96
 -15   3  10   34.64    2.55
 -13   3  10  179.52    9.90
 -11   3  10   52.18    3.27
  -9   3  10    9.48    1.12
  -7   3  10   17.43    1.53
  -5   3  10   29.91    2.22
  -3   3  10  124.85    7.10
 -12   4  10   67.35    4.33
 -10   4  10   41.92    2.80
  -8   4  10   45.19    3.12
  -6   4  10   23.01    1.91
 -11  -5  11    9.97    1.43
  -9  -5  11    9.18    1.33
 -16  -4  11   15.42    1.81
 -14  -4  11   89.39    5.58
 -12  -4  11   16.18    1.58
 -10  -4  11   32.44    2.45
 -13  -3  11    3.90    0.79
 -11  -3  11    0.29    0.46
 -15  -1  11   36.50    2.39
 -13  -1  11    0.57    0.41
 -11  -1  11   36.79    2.31
  -9  -1  11  139.51    7.18
  -7  -1  11  173.40    9.15
  -5  -1  11  205.92   10.42
  -3  -1  11  108.94    6.05
  -1  -1  11    2.14    0.79
 -16   0  11    0.19    0.51
 -14   0  11    0.13    0.42
 -12   0  11   -0.07    0.39
 -10   0  11    0.08    0.41
  -8   0  11    0.27    0.37
  -6   0  11   -0.20    0.45
  -4   0  11    1.63    0.61
  -2   0  11    0.05    0.50
 -15   1  11   36.76    2.54
 -13   1  11    0.65    0.45
 -11   1  11   36.09    2.40
  -9   1  11  132.16    7.26
  -7   1  11  170.13    9.24
  -5   1  11  184.03   10.42
  -3   1  11  103.95    6.08
 -16   2  11    9.85    1.23
 -14   2  11  128.24    7.06
 -12   2  11   55.36    3.42
 -10   2  11    5.92    0.95
  -8   2  11   22.15    1.76
  -6   2  11    2.51    0.69
  -4   2  11   21.18    1.86
 -13   3  11    3.29    0.81
 -11   3  11    0.29    0.50
  -9   3  11   27.68    2.05
  -7   3  11   73.90    4.45
 -13  -1  12    2.66    0.61
 -11  -1  12    1.43    0.53
  -9  -1  12   71.33    4.13
  -7  -1  12    0.41    0.55
  -5  -1  12    1.30    0.65
  -3  -1  12    0.85    0.70
 -18   0  12   37.54    2.61
 -16   0  12    9.11    1.14
 -14   0  12  108.33    5.87
 -12   0  12   65.76    3.82
 -10   0  12    2.58    0.67
  -8   0  12  136.76    7.51
  -6   0  12  193.88   10.42
  -4   0  12  188.86   10.26
 -17   1  12    5.46    0.97
 -15   1  12    1.15    0.58
 -13   1  12    2.67    0.72
 -11   1  12    1.25    0.55
  -9   1  12   70.36    4.23
  -7   1  12    0.42    0.53
  -5   1  12    0.94    0.61
 -16   2  12  154.28    8.63
 -14   2  12  113.24    6.19
 -12   2  12   33.54    2.36
 -10   2  12   12.12    1.29
  -8   2  12   88.74    5.19
 -18   0  13   -0.06    0.58
 -16   0  13    0.33    0.56
 -14   0  13    0.41    0.54
 -12   0  13   -0.16    0.50
 -10   0  13   12.07    1.32
  -8   0  13    0.87    0.64
  -6   0  13    1.42    0.76
 -17   1  13   74.10    4.62
 -15   1  13  196.44   10.41
 -13   1  13  110.09    6.22
 -11   1  13   80.81    4.61
  -9   1  13    5.55    1.03
  -7   1  13    0.88    0.62
 -12   2  13   22.99    1.91
 -16   0  14   49.39    3.21
 -14   0  14  121.38    6.69
 -12   0  14  157.07    8.64
 -10   0  14  128.82    7.27
  -8   0  14   19.29    1.85
 -15   1  14    0.77    0.63
 -13   1  14    9.42    1.29
 -11   1  14    2.31    0.78
   0   0   0    0.00    0.00
;
_shelx_hkl_checksum              86444
loop_
_space_group_symop_operation_xyz
'x, y, z'
'-x, y, -z+1/2'
'x+1/2, y+1/2, z'
'-x+1/2, y+1/2, -z+1/2'
'-x, -y, -z'
'x, -y, z-1/2'
'-x+1/2, -y+1/2, -z'
'x+1/2, -y+1/2, z-1/2'
loop_
_atom_site_label
_atom_site_type_symbol
_atom_site_fract_x
_atom_site_fract_y
_atom_site_fract_z
_atom_site_U_iso_or_equiv
_atom_site_adp_type
_atom_site_occupancy
_atom_site_site_symmetry_order
_atom_site_calc_flag
_atom_site_refinement_flags_posn
_atom_site_refinement_flags_adp
Zn1 Zn 0.20965(4) 0.78957(9) 1.06958(6) 0.0115(5) Uani 1 1 d . .
C7 C -0.1250(5) 0.7976(7) 0.8375(7) 0.0118(17) Uani 1 1 d . .
C1 C 0.0235(4) 0.7574(9) 0.9292(6) 0.0138(17) Uani 1 1 d . .
H1 H 0.0299 0.8746 0.9492 0.017 Uiso 1 1 calc R U
N5 N 0.0926(3) 0.6667(7) 0.9670(5) 0.0114(13) Uani 1 1 d . .
C3 C -0.0571(4) 0.6842(8) 0.8618(6) 0.0111(16) Uani 1 1 d . .
C4 C 0.0040(4) 0.4195(8) 0.8666(6) 0.0162(17) Uani 1 1 d . .
H4 H -0.0009 0.3028 0.8462 0.019 Uiso 1 1 calc R U
C5 C -0.0672(4) 0.5119(8) 0.8274(6) 0.0151(17) Uani 1 1 d . .
H5 H -0.1210 0.4600 0.7789 0.018 Uiso 1 1 calc R U
C6 C 0.0822(4) 0.4991(8) 0.9355(6) 0.0161(17) Uani 1 1 d . .
H6 H 0.1297 0.4345 0.9615 0.019 Uiso 1 1 calc R U
N2 N -0.2416(3) 0.9336(7) 0.7569(5) 0.0130(14) Uani 1 1 d . .
N1 N -0.2068(4) 0.8083(6) 0.7371(5) 0.0100(14) Uani 1 1 d . .
N4 N -0.1084(3) 0.9095(7) 0.9190(5) 0.0150(14) Uani 1 1 d . .
N3 N -0.1831(4) 0.9919(7) 0.8648(5) 0.0135(14) Uani 1 1 d . .
N11 N 0.2329(4) 0.9225(7) 0.9784(5) 0.0152(14) Uani 1 1 d . .
N10 N 0.1901(5) 1.0434(9) 0.9155(6) 0.0311(17) Uani 1 1 d . .
N6 N 0.1555(7) 1.1623(13) 0.8569(9) 0.091(4) Uani 1 1 d . .
loop_
_atom_site_aniso_label
_atom_site_aniso_U_11
_atom_site_aniso_U_22
_atom_site_aniso_U_33
_atom_site_aniso_U_23
_atom_site_aniso_U_13
_atom_site_aniso_U_12
Zn1 -0.0009(7) 0.0199(7) 0.0073(7) 0.0021(3) -0.0015(5) -0.0001(3)
C7 -0.001(5) 0.016(4) 0.012(4) -0.003(3) 0.000(5) -0.002(3)
C1 -0.001(5) 0.018(3) 0.012(4) -0.004(3) -0.002(4) -0.001(4)
N5 -0.001(3) 0.016(3) 0.012(3) -0.004(3) 0.000(3) -0.001(3)
C3 -0.001(4) 0.020(4) 0.008(4) 0.001(3) 0.000(4) 0.003(3)
C4 -0.001(4) 0.017(3) 0.021(4) -0.003(3) 0.001(4) 0.000(3)
C5 -0.001(4) 0.021(4) 0.013(4) -0.006(3) -0.001(4) -0.003(3)
C6 0.000(5) 0.022(4) 0.017(4) -0.003(3) 0.001(4) 0.003(3)
N2 -0.001(4) 0.023(3) 0.011(4) -0.002(3) 0.001(3) 0.002(3)
N1 -0.001(4) 0.015(3) 0.009(4) -0.003(2) 0.000(4) -0.002(2)
N4 -0.001(4) 0.021(3) 0.013(3) -0.007(3) -0.001(3) 0.003(3)
N3 -0.001(4) 0.023(3) 0.008(3) -0.004(3) -0.002(3) 0.000(3)
N11 0.009(3) 0.019(3) 0.019(3) 0.015(3) 0.010(3) 0.011(3)
N10 0.037(5) 0.034(4) 0.034(4) 0.004(4) 0.028(4) 0.007(4)
N6 0.134(10) 0.064(6) 0.084(7) 0.051(6) 0.075(8) 0.064(7)
loop_
_atom_type_symbol
_atom_type_description
_atom_type_scat_dispersion_real
_atom_type_scat_dispersion_imag
_atom_type_scat_source
C C 0.0033 0.0016 'International Tables Vol C Tables 4.2.6.8 and 6.1.1.4'
H H 0.0000 0.0000 'International Tables Vol C Tables 4.2.6.8 and 6.1.1.4'
N N 0.0061 0.0033 'International Tables Vol C Tables 4.2.6.8 and 6.1.1.4'
O O 0.0106 0.0060 'International Tables Vol C Tables 4.2.6.8 and 6.1.1.4'
Zn Zn 0.2839 1.4301 'International Tables Vol C Tables 4.2.6.8 and 6.1.1.4'
loop_
_geom_angle_atom_site_label_1
_geom_angle_atom_site_label_2
_geom_angle_atom_site_label_3
_geom_angle
_geom_angle_site_symmetry_1
_geom_angle_site_symmetry_3
N11 Zn1 N1 129.1(2) . 8_566
N11 Zn1 N5 115.0(2) . .
N1 Zn1 N5 112.7(2) 8_566 .
N11 Zn1 N3 98.2(2) . 5_577
N1 Zn1 N3 90.4(2) 8_566 5_577
N5 Zn1 N3 99.7(2) . 5_577
N11 Zn1 N11 76.5(2) . 7_567
N1 Zn1 N11 84.99(19) 8_566 7_567
N5 Zn1 N11 92.19(19) . 7_567
N3 Zn1 N11 168.1(2) 5_577 7_567
N4 C7 N1 110.9(6) . .
N4 C7 C3 121.0(6) . .
N1 C7 C3 128.0(6) . .
N5 C1 C3 122.8(6) . .
C6 N5 C1 118.0(6) . .
C6 N5 Zn1 122.9(4) . .
C1 N5 Zn1 119.1(4) . .
C1 C3 C5 118.5(6) . .
C1 C3 C7 115.9(6) . .
C5 C3 C7 125.5(6) . .
C6 C4 C5 120.0(6) . .
C4 C5 C3 118.3(6) . .
N5 C6 C4 122.3(6) . .
N3 N2 N1 108.2(5) . .
C7 N1 N2 105.7(5) . .
C7 N1 Zn1 141.8(4) . 8_465
N2 N1 Zn1 112.4(4) . 8_465
C7 N4 N3 104.2(5) . .
N2 N3 N4 110.9(5) . .
N2 N3 Zn1 120.5(4) . 5_577
N4 N3 Zn1 128.3(4) . 5_577
N10 N11 Zn1 123.0(5) . .
N10 N11 Zn1 124.2(4) . 7_567
Zn1 N11 Zn1 103.5(2) . 7_567
N6 N10 N11 174.0(9) . .
loop_
_geom_bond_atom_site_label_1
_geom_bond_atom_site_label_2
_geom_bond_distance
_geom_bond_site_symmetry_2
Zn1 N11 1.975(5) .
Zn1 N1 2.020(6) 8_566
Zn1 N5 2.060(5) .
Zn1 N3 2.175(5) 5_577
Zn1 N11 2.372(5) 7_567
C7 N4 1.327(8) .
C7 N1 1.339(9) .
C7 C3 1.480(10) .
C1 N5 1.338(8) .
C1 C3 1.382(10) .
N5 C6 1.338(8) .
C3 C5 1.384(9) .
C4 C6 1.366(9) .
C4 C5 1.374(9) .
N2 N3 1.298(7) .
N2 N1 1.339(7) .
N1 Zn1 2.020(6) 8_465
N4 N3 1.343(7) .
N3 Zn1 2.175(5) 5_577
N11 N10 1.198(9) .
N11 Zn1 2.373(5) 7_567
N10 N6 1.134(11) .
