#------------------------------------------------------------------------------
#$Date: 2016-03-25 14:18:03 +0200 (Fri, 25 Mar 2016) $
#$Revision: 179889 $
#$URL: svn://www.crystallography.net/cod/cif/7/01/85/7018532.cif $
#------------------------------------------------------------------------------
#
# This file is available in the Crystallography Open Database (COD),
# http://www.crystallography.net/
#
# All data on this site have been placed in the public domain by the
# contributors.
#
data_7018532
loop_
_publ_author_name
'Yao, Qingxia'
'Sun, Junliang'
'Li, Kuo'
'Su, Jie'
'Peskov, Maxim V.'
'Zou, Xiaodong'
_publ_section_title
;
 A series of isostructural mesoporous metal-organic frameworks obtained by
 ion-exchange induced single-crystal to single-crystal transformation.
;
_journal_issue                   14
_journal_name_full
'Dalton transactions (Cambridge, England : 2003)'
_journal_page_first              3953
_journal_page_last               3955
_journal_paper_doi               10.1039/c2dt12088g
_journal_volume                  41
_journal_year                    2012
_chemical_formula_sum            'C23 H14 N O4 Zn'
_chemical_formula_weight         433.72
_chemical_name_systematic
;
?
;
_space_group_IT_number           223
_symmetry_cell_setting           cubic
_symmetry_space_group_name_Hall  '-P 4n 2 3'
_symmetry_space_group_name_H-M   'P m -3 n'
_atom_sites_solution_hydrogens   geom
_atom_sites_solution_primary     direct
_atom_sites_solution_secondary   difmap
_audit_creation_method           SHELXL-97
_cell_angle_alpha                90.00
_cell_angle_beta                 90.00
_cell_angle_gamma                90.00
_cell_formula_units_Z            12
_cell_length_a                   27.6567(7)
_cell_length_b                   27.6567(7)
_cell_length_c                   27.6567(7)
_cell_measurement_reflns_used    6409
_cell_measurement_temperature    293(2)
_cell_measurement_theta_max      32.3741
_cell_measurement_theta_min      4.1566
_cell_volume                     21154.4(9)
_computing_structure_refinement  'SHELXL-97 (Sheldrick, 1997)'
_computing_structure_solution    'SHELXS-97 (Sheldrick, 1990)'
_diffrn_ambient_temperature      293(2)
_diffrn_detector_area_resol_mean 16.5467
_diffrn_measured_fraction_theta_full 0.988
_diffrn_measured_fraction_theta_max 0.988
_diffrn_measurement_device_type  'Xcalibur, Sapphire3'
_diffrn_measurement_method       '\w scans'
_diffrn_radiation_monochromator  graphite
_diffrn_radiation_source         'fine-focus sealed tube'
_diffrn_radiation_type           MoK\a
_diffrn_radiation_wavelength     0.71073
_diffrn_reflns_av_R_equivalents  0.1535
_diffrn_reflns_av_sigmaI/netI    0.0402
_diffrn_reflns_limit_h_max       27
_diffrn_reflns_limit_h_min       -20
_diffrn_reflns_limit_k_max       27
_diffrn_reflns_limit_k_min       -27
_diffrn_reflns_limit_l_max       27
_diffrn_reflns_limit_l_min       -27
_diffrn_reflns_number            79277
_diffrn_reflns_theta_full        20.83
_diffrn_reflns_theta_max         20.83
_diffrn_reflns_theta_min         4.17
_exptl_absorpt_coefficient_mu    0.356
_exptl_absorpt_correction_T_max  1.00000
_exptl_absorpt_correction_T_min  0.82378
_exptl_absorpt_correction_type   multi-scan
_exptl_absorpt_process_details
;
CrysAlisPro, Agilent Technologies,
Version 1.171.35.6 (release 27-01-2011 CrysAlis171 .NET)
(compiled Jan 27 2011,13:34:29)
Empirical absorption correction using spherical harmonics,
implemented in SCALE3 ABSPACK scaling algorithm.
;
_exptl_crystal_colour            colorless
_exptl_crystal_density_diffrn    0.409
_exptl_crystal_density_method    'not measured'
_exptl_crystal_description       polyhedron
_exptl_crystal_F_000             2652
_exptl_crystal_size_max          0.55
_exptl_crystal_size_mid          0.50
_exptl_crystal_size_min          0.50
_platon_squeeze_details
;
;
_refine_diff_density_max         0.569
_refine_diff_density_min         -0.263
_refine_diff_density_rms         0.062
_refine_ls_extinction_method     none
_refine_ls_goodness_of_fit_ref   1.076
_refine_ls_hydrogen_treatment    constr
_refine_ls_matrix_type           full
_refine_ls_number_parameters     77
_refine_ls_number_reflns         1991
_refine_ls_number_restraints     6
_refine_ls_restrained_S_all      1.084
_refine_ls_R_factor_all          0.1183
_refine_ls_R_factor_gt           0.0983
_refine_ls_shift/su_max          0.000
_refine_ls_shift/su_mean         0.000
_refine_ls_structure_factor_coef Fsqd
_refine_ls_weighting_details
'calc w=1/[\s^2^(Fo^2^)+(0.1719P)^2^+30.2876P] where P=(Fo^2^+2Fc^2^)/3'
_refine_ls_weighting_scheme      calc
_refine_ls_wR_factor_gt          0.2734
_refine_ls_wR_factor_ref         0.2972
_reflns_number_gt                1736
_reflns_number_total             1991
_reflns_threshold_expression     >2sigma(I)
_cod_data_source_file            c2dt12088g.txt
_cod_data_source_block           SUMOF-1-Zn
_cod_depositor_comments
;
The following automatic conversions were performed:

'_symmetry_cell_setting' value 'Cubic' changed to 'cubic' according
to /home/saulius/struct/CIF-dictionaries/cif_core.dic dictionary
named 'cif_core.dic' version 2.4.1 from 2010-06-29.

Automatic conversion script
Id: cif_fix_values 1715 2011-07-08 13:25:40Z adriana 
;
_cod_original_sg_symbol_H-M      Pm-3n
_cod_database_code               7018532
loop_
_symmetry_equiv_pos_as_xyz
'x, y, z'
'-x, -y, z'
'-x, y, -z'
'x, -y, -z'
'z, x, y'
'z, -x, -y'
'-z, -x, y'
'-z, x, -y'
'y, z, x'
'-y, z, -x'
'y, -z, -x'
'-y, -z, x'
'y+1/2, x+1/2, -z+1/2'
'-y+1/2, -x+1/2, -z+1/2'
'y+1/2, -x+1/2, z+1/2'
'-y+1/2, x+1/2, z+1/2'
'x+1/2, z+1/2, -y+1/2'
'-x+1/2, z+1/2, y+1/2'
'-x+1/2, -z+1/2, -y+1/2'
'x+1/2, -z+1/2, y+1/2'
'z+1/2, y+1/2, -x+1/2'
'z+1/2, -y+1/2, x+1/2'
'-z+1/2, y+1/2, x+1/2'
'-z+1/2, -y+1/2, -x+1/2'
'-x, -y, -z'
'x, y, -z'
'x, -y, z'
'-x, y, z'
'-z, -x, -y'
'-z, x, y'
'z, x, -y'
'z, -x, y'
'-y, -z, -x'
'y, -z, x'
'-y, z, x'
'y, z, -x'
'-y-1/2, -x-1/2, z-1/2'
'y-1/2, x-1/2, z-1/2'
'-y-1/2, x-1/2, -z-1/2'
'y-1/2, -x-1/2, -z-1/2'
'-x-1/2, -z-1/2, y-1/2'
'x-1/2, -z-1/2, -y-1/2'
'x-1/2, z-1/2, y-1/2'
'-x-1/2, z-1/2, -y-1/2'
'-z-1/2, -y-1/2, x-1/2'
'-z-1/2, y-1/2, -x-1/2'
'z-1/2, -y-1/2, -x-1/2'
'z-1/2, y-1/2, x-1/2'
loop_
_atom_site_label
_atom_site_type_symbol
_atom_site_fract_x
_atom_site_fract_y
_atom_site_fract_z
_atom_site_U_iso_or_equiv
_atom_site_adp_type
_atom_site_occupancy
_atom_site_symmetry_multiplicity
_atom_site_calc_flag
_atom_site_refinement_flags
Zn Zn 0.19836(4) 0.0000 0.5000 0.0638(8) Uani 1 4 d S
O O 0.21057(17) 0.05195(18) 0.44879(18) 0.0926(16) Uani 1 1 d .
N N 0.1283(4) 0.0000 0.5000 0.092(4) Uani 1 4 d SD
C1 C 0.2500 0.0659(3) 0.4341(3) 0.074(3) Uani 1 2 d S
C2 C 0.2500 0.1045(2) 0.3955(2) 0.076(3) Uani 1 2 d S
C3 C 0.2073(3) 0.1211(3) 0.3773(3) 0.115(3) Uani 1 1 d .
H3 H 0.1781 0.1089 0.3886 0.138 Uiso 1 1 calc R
C4 C 0.2079(3) 0.1567(4) 0.3414(3) 0.121(3) Uani 1 1 d .
H4 H 0.1786 0.1676 0.3289 0.146 Uiso 1 1 calc R
C5 C 0.2500 0.1762(2) 0.3238(2) 0.094(3) Uani 1 2 d S
C6 C 0.2500 0.2140(3) 0.2860(3) 0.102(3) Uani 1 2 d S
C7 C 0.2851(3) 0.2149(3) 0.2500 0.106(4) Uani 1 2 d S
H7 H 0.3088 0.1912 0.2500 0.127 Uiso 1 2 calc SR
C8 C 0.1028(4) 0.0350(5) 0.5264(6) 0.186(8) Uani 0.50 1 d PD
H8 H 0.1197 0.0582 0.5440 0.224 Uiso 0.50 1 calc PR
C9 C 0.0507(3) 0.0353(5) 0.5267(6) 0.186(8) Uani 0.50 1 d PD
H9 H 0.0341 0.0586 0.5443 0.224 Uiso 0.50 1 calc PR
C10 C 0.0247(4) 0.0000 0.5000 0.096(5) Uani 1 4 d SD
loop_
_atom_site_aniso_label
_atom_site_aniso_U_11
_atom_site_aniso_U_22
_atom_site_aniso_U_33
_atom_site_aniso_U_23
_atom_site_aniso_U_13
_atom_site_aniso_U_12
Zn 0.0452(10) 0.0747(12) 0.0715(12) 0.000 0.000 0.000
O 0.066(3) 0.111(4) 0.101(4) 0.023(3) 0.002(3) 0.007(3)
N 0.087(9) 0.114(10) 0.075(8) 0.000 0.000 0.000
C1 0.042(6) 0.090(5) 0.090(5) 0.002(6) 0.006(4) 0.006(4)
C2 0.055(6) 0.087(4) 0.087(4) 0.027(6) 0.013(4) 0.013(4)
C3 0.075(5) 0.159(8) 0.110(7) 0.061(6) 0.027(5) 0.016(5)
C4 0.065(5) 0.173(9) 0.126(7) 0.069(7) 0.009(5) 0.034(5)
C5 0.072(7) 0.104(5) 0.104(5) 0.040(7) 0.033(5) 0.033(5)
C6 0.097(8) 0.105(5) 0.105(5) 0.028(7) 0.023(6) 0.023(6)
C7 0.105(5) 0.105(5) 0.108(9) 0.032(6) 0.032(6) 0.031(7)
C8 0.064(7) 0.247(17) 0.25(2) -0.118(13) 0.002(8) 0.003(9)
C9 0.064(7) 0.247(17) 0.25(2) -0.118(13) 0.002(8) 0.003(9)
C10 0.045(7) 0.133(13) 0.111(11) 0.000 0.000 0.000
loop_
_atom_type_symbol
_atom_type_description
_atom_type_scat_dispersion_real
_atom_type_scat_dispersion_imag
_atom_type_scat_source
C C 0.0033 0.0016 'International Tables Vol C Tables 4.2.6.8 and 6.1.1.4'
H H 0.0000 0.0000 'International Tables Vol C Tables 4.2.6.8 and 6.1.1.4'
N N 0.0061 0.0033 'International Tables Vol C Tables 4.2.6.8 and 6.1.1.4'
O O 0.0106 0.0060 'International Tables Vol C Tables 4.2.6.8 and 6.1.1.4'
Zn Zn 0.2839 1.4301 'International Tables Vol C Tables 4.2.6.8 and 6.1.1.4'
loop_
_geom_angle_atom_site_label_1
_geom_angle_atom_site_label_2
_geom_angle_atom_site_label_3
_geom_angle
_geom_angle_site_symmetry_1
_geom_angle_site_symmetry_3
N Zn O 99.50(13) . 26_556
N Zn O 99.50(14) . 27
O Zn O 161.0(3) 26_556 27
N Zn O 99.50(14) . 4_556
O Zn O 89.2(3) 26_556 4_556
O Zn O 87.6(3) 27 4_556
N Zn O 99.50(13) . .
O Zn O 87.6(3) 26_556 .
O Zn O 89.2(3) 27 .
O Zn O 161.0(3) 4_556 .
N Zn Zn 180.000(1) . 41_666
O Zn Zn 80.50(13) 26_556 41_666
O Zn Zn 80.50(13) 27 41_666
O Zn Zn 80.50(13) 4_556 41_666
O Zn Zn 80.50(13) . 41_666
C1 O Zn 126.7(5) . .
C8 N C8 62.9(14) 4_556 27
C8 N C8 119.8(11) 4_556 .
C8 N C8 87.3(14) 27 .
C8 N C8 87.3(14) 4_556 26_556
C8 N C8 119.8(11) 27 26_556
C8 N C8 62.9(14) . 26_556
C8 N Zn 120.1(5) 4_556 .
C8 N Zn 120.1(5) 27 .
C8 N Zn 120.1(5) . .
C8 N Zn 120.1(5) 26_556 .
O C1 O 125.6(9) . 19
O C1 C2 117.2(5) . .
O C1 C2 117.2(5) 19 .
C3 C2 C3 119.9(9) . 19
C3 C2 C1 120.0(5) . .
C3 C2 C1 120.0(5) 19 .
C4 C3 C2 119.4(7) . .
C4 C3 H3 120.3 . .
C2 C3 H3 120.3 . .
C3 C4 C5 122.4(7) . .
C3 C4 H4 118.8 . .
C5 C4 H4 118.8 . .
C4 C5 C4 116.4(9) 19 .
C4 C5 C6 121.8(5) 19 .
C4 C5 C6 121.8(5) . .
C7 C6 C7 117.3(12) 9 .
C7 C6 C5 121.4(6) 9 .
C7 C6 C5 121.4(6) . .
C6 C7 C6 122.7(12) 5 .
C6 C7 H7 118.6 5 .
C6 C7 H7 118.6 . .
N C8 C9 120.5(8) . .
N C8 H8 119.8 . .
C9 C8 H8 119.8 . .
C10 C9 C8 120.1(8) . .
C10 C9 H9 120.0 . .
C8 C9 H9 120.0 . .
C10 C10 C9 120.4(5) 25_556 .
C10 C10 C9 120.4(5) 25_556 4_556
C9 C10 C9 119.1(11) . 4_556
C10 C10 C9 120.4(5) 25_556 26_556
C9 C10 C9 62.6(14) . 26_556
C9 C10 C9 86.9(14) 4_556 26_556
C10 C10 C9 120.4(5) 25_556 27
C9 C10 C9 86.9(14) . 27
C9 C10 C9 62.6(14) 4_556 27
C9 C10 C9 119.1(11) 26_556 27
loop_
_geom_bond_atom_site_label_1
_geom_bond_atom_site_label_2
_geom_bond_distance
_geom_bond_site_symmetry_2
Zn N 1.939(11) .
Zn O 2.046(5) 26_556
Zn O 2.046(5) 27
Zn O 2.046(5) 4_556
Zn O 2.046(5) .
Zn Zn 2.856(2) 41_666
O C1 1.226(6) .
N C8 1.402(9) 4_556
N C8 1.402(9) 27
N C8 1.402(9) .
N C8 1.402(9) 26_556
C1 O 1.226(6) 19
C1 C2 1.507(13) .
C2 C3 1.364(9) .
C2 C3 1.364(9) 19
C3 C4 1.398(11) .
C3 H3 0.9300 .
C4 C5 1.372(10) .
C4 H4 0.9300 .
C5 C4 1.372(10) 19
C5 C6 1.479(14) .
C6 C7 1.391(7) 9
C6 C7 1.391(7) .
C7 C6 1.391(7) 5
C7 H7 0.9300 .
C8 C9 1.442(8) .
C8 H8 0.9300 .
C9 C10 1.418(9) .
C9 H9 0.9300 .
C10 C10 1.37(2) 25_556
C10 C9 1.418(9) 4_556
C10 C9 1.418(9) 26_556
C10 C9 1.418(9) 27
loop_
_platon_squeeze_void_nr
_platon_squeeze_void_average_x
_platon_squeeze_void_average_y
_platon_squeeze_void_average_z
_platon_squeeze_void_volume
_platon_squeeze_void_count_electrons
_platon_squeeze_void_content
1 -0.005 -0.012 -0.006 16555 -45 ' '
