#------------------------------------------------------------------------------
#$Date: 2016-03-25 16:59:06 +0200 (Fri, 25 Mar 2016) $
#$Revision: 179998 $
#$URL: svn://www.crystallography.net/cod/cif/7/02/92/7029210.cif $
#------------------------------------------------------------------------------
#
# This file is available in the Crystallography Open Database (COD),
# http://www.crystallography.net/
#
# All data on this site have been placed in the public domain by the
# contributors.
#
data_7029210
loop_
_publ_author_name
'Gong, Yun'
'Zhang, Miao Miao'
'Hua, Wei'
'Sun, Jun Liang'
'Shi, Hui Fang'
'Jiang, Peng Gang'
'Liao, Fu Hui'
'Lin, Jian Hua'
_publ_section_title
;
 Metal-organic frameworks built from achiral
 3-(5-(pyridin-4-yl)-4H-1,2,4-triazol-3-yl)benzoic acid: syntheses and
 structures of metal(II) complexes.
;
_journal_issue                   1
_journal_name_full
'Dalton transactions (Cambridge, England : 2003)'
_journal_page_first              145
_journal_page_last               151
_journal_paper_doi               10.1039/c3dt51736e
_journal_volume                  43
_journal_year                    2014
_chemical_formula_sum            'C28 H18 N8 O6 Zn'
_chemical_formula_weight         627.87
_chemical_name_systematic
; 
 ? 
;
_space_group_IT_number           91
_symmetry_cell_setting           tetragonal
_symmetry_space_group_name_Hall  'P 4w 2c'
_symmetry_space_group_name_H-M   'P 41 2 2'
_atom_sites_solution_hydrogens   geom
_atom_sites_solution_primary     direct
_atom_sites_solution_secondary   difmap
_audit_creation_method           SHELXL-97
_cell_angle_alpha                90.00
_cell_angle_beta                 90.00
_cell_angle_gamma                90.00
_cell_formula_units_Z            4
_cell_length_a                   10.0386(2)
_cell_length_b                   10.0386(2)
_cell_length_c                   26.4595(8)
_cell_measurement_reflns_used    2957
_cell_measurement_temperature    293(2)
_cell_measurement_theta_max      29.1570
_cell_measurement_theta_min      2.9652
_cell_volume                     2666.42(11)
_computing_cell_refinement       'CrysAlisPro, Agilent Technologies'
_computing_data_collection       'CrysAlisPro, Agilent Technologies'
_computing_data_reduction        'CrysAlisPro, Agilent Technologies'
_computing_molecular_graphics    'SHELXTL (Sheldrick, 1997)'
_computing_publication_material  'SHELXTL (Sheldrick, 1997)'
_computing_structure_refinement  'SHELXL97 (Sheldrick, 2008)'
_computing_structure_solution    'SHELXS97 (Sheldrick, 2008)'
_diffrn_ambient_temperature      293(2)
_diffrn_measured_fraction_theta_full 0.993
_diffrn_measured_fraction_theta_max 0.993
_diffrn_measurement_device_type  'SuperNova, Single source at offset, Eos'
_diffrn_measurement_method       '\w scans'
_diffrn_radiation_monochromator  graphite
_diffrn_radiation_source         'SuperNova (Mo) X-ray Source'
_diffrn_radiation_type           MoK\a
_diffrn_radiation_wavelength     0.71073
_diffrn_reflns_av_R_equivalents  0.0259
_diffrn_reflns_av_unetI/netI     0.0334
_diffrn_reflns_limit_h_max       11
_diffrn_reflns_limit_h_min       -7
_diffrn_reflns_limit_k_max       8
_diffrn_reflns_limit_k_min       -11
_diffrn_reflns_limit_l_max       23
_diffrn_reflns_limit_l_min       -31
_diffrn_reflns_number            5255
_diffrn_reflns_theta_full        25.01
_diffrn_reflns_theta_max         25.01
_diffrn_reflns_theta_min         2.97
_exptl_absorpt_coefficient_mu    0.982
_exptl_absorpt_correction_T_max  1.00000
_exptl_absorpt_correction_T_min  0.82151
_exptl_absorpt_correction_type   multi-scan
_exptl_absorpt_process_details   'CrysAlisPro, Agilent Technologies'
_exptl_crystal_colour            colorless
_exptl_crystal_density_diffrn    1.564
_exptl_crystal_density_method    'not measured'
_exptl_crystal_description       block
_exptl_crystal_F_000             1280
_exptl_crystal_size_max          0.24
_exptl_crystal_size_mid          0.20
_exptl_crystal_size_min          0.16
_refine_diff_density_max         0.639
_refine_diff_density_min         -0.583
_refine_diff_density_rms         0.066
_refine_ls_abs_structure_details 'Flack H D (1983), Acta Cryst. A39, 876-881'
_refine_ls_abs_structure_Flack   0.004(16)
_refine_ls_extinction_method     none
_refine_ls_goodness_of_fit_ref   1.100
_refine_ls_hydrogen_treatment    none
_refine_ls_matrix_type           full
_refine_ls_number_parameters     204
_refine_ls_number_reflns         2351
_refine_ls_number_restraints     0
_refine_ls_restrained_S_all      1.100
_refine_ls_R_factor_all          0.0387
_refine_ls_R_factor_gt           0.0353
_refine_ls_shift/su_max          0.000
_refine_ls_shift/su_mean         0.000
_refine_ls_structure_factor_coef Fsqd
_refine_ls_weighting_details
'calc w=1/[\s^2^(Fo^2^)+(0.0511P)^2^+1.3571P] where P=(Fo^2^+2Fc^2^)/3'
_refine_ls_weighting_scheme      calc
_refine_ls_wR_factor_gt          0.0920
_refine_ls_wR_factor_ref         0.0938
_reflns_number_gt                2217
_reflns_number_total             2351
_reflns_threshold_expression     >2sigma(I)
_iucr_refine_instructions_details
;

TITL 121109a in P4(1)22 
CELL 0.71073  10.0386  10.0386  26.4595  90.000  90.000  90.000 
ZERR   4.00   0.0002   0.0002   0.0008   0.000   0.000   0.000 
LATT -1 
SYMM -X, -Y, 0.5+Z 
SYMM -Y, X, 0.25+Z 
SYMM Y, -X, 0.75+Z 
SYMM -X, Y, -Z 
SYMM X, -Y, 0.5-Z 
SYMM Y, X, 0.75-Z 
SYMM -Y, -X, 0.25-Z 
SFAC C  H  N  O  Zn 
UNIT 112 72 32 24 4 
OMIT  -3.00  50.02
L.S. 20
ACTA
BOND $H 
FMAP 2
PLAN 20
HTAB 
WGHT  0.051100  1.357100 
FVAR  0.135450
MOLE 1
C1     1   0.139404  0.697840  0.052517 11.000000  0.021760  0.020630 = 
           0.013610  0.002620  0.001540  0.000860
Zn1    5   0.000000  0.883458  0.000000 10.500000  0.019660  0.021160 = 
           0.010470  0.000000 -0.001670  0.000000
C13    1   0.800224  0.102489  0.013211 11.000000  0.031260  0.028500 = 
           0.018700 -0.002380 -0.006680  0.004120
AFIX 43
H13    2   0.826185  0.128962 -0.018999 11.000000  0.024270
AFIX 0
O2     4   0.194956  0.677243  0.011648 11.000000  0.041790  0.034500 = 
           0.008960 -0.001450 -0.005380  0.010870
N1     3   0.860547 -0.000988  0.033850 11.000000  0.021820  0.020880 = 
           0.018390  0.000090 -0.004470  0.002760
N2     3   0.481460  0.306126  0.095212 11.000000  0.024850  0.022010 = 
           0.015310 -0.000010 -0.000020 -0.000940
O1     4   0.056199  0.789617  0.060218 11.000000  0.026200  0.027140 = 
           0.013260 -0.001070  0.000670  0.007270
C6     1   0.302035  0.439290  0.136839 11.000000  0.020730  0.018190 = 
           0.014400 -0.000410  0.000640 -0.001950
C2     1   0.171200  0.611424  0.097464 11.000000  0.021170  0.021800 = 
           0.008600 -0.000430  0.001070 -0.003710
N4     3   0.435501  0.258168  0.173416 11.000000  0.026730  0.025760 = 
           0.016120 -0.002830 -0.006040  0.007990
AFIX 43
H4     2   0.397648  0.261947  0.202539 11.000000 -1.200000
AFIX 0
C10    1   0.661878  0.134807  0.085828 11.000000  0.024030  0.021270 = 
           0.020280  0.001510 -0.000850 -0.001480
C3     1   0.105970  0.635825  0.142968 11.000000  0.019750  0.020710 = 
           0.016560  0.004780 -0.003190  0.000030
AFIX 43
H3     2   0.040532  0.701203  0.144911 11.000000  0.010460
AFIX 0
C4     1   0.139291  0.562048  0.185245 11.000000  0.031020  0.027900 = 
           0.011230 -0.000880 -0.005520  0.004050
AFIX 43
H4A    2   0.095539  0.577362  0.215676 11.000000  0.009880
AFIX 0
C14    1   0.700585  0.173274  0.037071 11.000000  0.031320  0.030230 = 
           0.018280 -0.005070 -0.005630  0.006960
AFIX 43
H14    2   0.659909  0.245100  0.021112 11.000000  0.056000
AFIX 0
C11    1   0.725162  0.027345  0.107101 11.000000  0.031620  0.033640 = 
           0.021050 -0.006290 -0.010160  0.009620
AFIX 43
H11    2   0.701868 -0.001139  0.139357 11.000000  0.030450
AFIX 0
N3     3   0.533123  0.173062  0.161310 11.000000  0.022540  0.026200 = 
           0.019960 -0.003920 -0.005130  0.006530
C7     1   0.267425  0.513522  0.094234 11.000000  0.022420  0.022350 = 
           0.009280  0.001950 -0.001790  0.000040
AFIX 43
H7     2   0.309355  0.496983  0.063526 11.000000  0.016290
AFIX 0
C8     1   0.404757  0.336168  0.134428 11.000000  0.021350  0.021530 = 
           0.013690  0.001130 -0.000610 -0.002760
C12    1   0.822683 -0.037772  0.080682 11.000000  0.035200  0.031060 = 
           0.022590 -0.006320 -0.005550  0.011070
AFIX 43
H12    2   0.864523 -0.110377  0.095669 11.000000  0.028880
AFIX 0
C5     1   0.237374  0.465591  0.182488 11.000000  0.029970  0.023960 = 
           0.008900 -0.002650 -0.002970  0.003500
AFIX 43
H5     2   0.260479  0.417808  0.211296 11.000000  0.024890
AFIX 0
C9     1   0.558710  0.205560  0.113431 11.000000  0.019530  0.022210 = 
           0.015490  0.000460 -0.001030 -0.001050
O3     4   0.649983  1.000000  0.250000 10.500000  0.041170  0.054270 = 
           0.056730  0.018320  0.000000  0.000000
O4     4   0.500000  0.462896  0.000000 10.500000  0.074130  0.063720 = 
           0.045320  0.000000 -0.004360  0.000000
HKLF 4 
END  

;
_cod_data_source_file            c3dt51736e.txt
_cod_data_source_block           121109a
_cod_depositor_comments
;
The following automatic conversions were performed:

'_symmetry_cell_setting' value 'Tetragonal' changed to 'tetragonal'
according to
/usr/data/users/saulius/automatic-downloads/current/RSC/lib/dictionaries/cif_core.dic
dictionary named 'cif_core.dic' version 2.4.2 from 2011-04-26.

Automatic conversion script
Id: cif_fix_values 2281 2013-09-26 08:29:07Z andrius 
;
_cod_original_sg_symbol_H-M      P4(1)22
_cod_database_code               7029210
loop_
_symmetry_equiv_pos_as_xyz
'x, y, z'
'-x, -y, z+1/2'
'-y, x, z+1/4'
'y, -x, z+3/4'
'-x, y, -z'
'x, -y, -z+1/2'
'y, x, -z+3/4'
'-y, -x, -z+1/4'
loop_
_atom_site_label
_atom_site_type_symbol
_atom_site_fract_x
_atom_site_fract_y
_atom_site_fract_z
_atom_site_U_iso_or_equiv
_atom_site_adp_type
_atom_site_occupancy
_atom_site_symmetry_multiplicity
_atom_site_calc_flag
_atom_site_refinement_flags
C1 C 0.1394(3) 0.6978(3) 0.05252(11) 0.0187(7) Uani 1 1 d .
Zn1 Zn 0.0000 0.88346(5) 0.0000 0.01710(16) Uani 1 2 d S
C13 C 0.8002(4) 0.1025(4) 0.01321(12) 0.0262(8) Uani 1 1 d .
H13 H 0.8262 0.1290 -0.0190 0.024(9) Uiso 1 1 calc R
O2 O 0.1950(3) 0.6772(3) 0.01165(7) 0.0284(6) Uani 1 1 d .
N1 N 0.8605(3) -0.0010(3) 0.03385(9) 0.0204(6) Uani 1 1 d .
N2 N 0.4815(3) 0.3061(3) 0.09521(9) 0.0207(6) Uani 1 1 d .
O1 O 0.0562(2) 0.7896(2) 0.06022(7) 0.0222(6) Uani 1 1 d .
C6 C 0.3020(3) 0.4393(3) 0.13684(11) 0.0178(7) Uani 1 1 d .
C2 C 0.1712(3) 0.6114(3) 0.09746(10) 0.0172(7) Uani 1 1 d .
N4 N 0.4355(3) 0.2582(3) 0.17342(10) 0.0229(7) Uani 1 1 d .
H4 H 0.3976 0.2619 0.2025 0.027 Uiso 1 1 calc R
C10 C 0.6619(3) 0.1348(3) 0.08583(12) 0.0219(7) Uani 1 1 d .
C3 C 0.1060(3) 0.6358(3) 0.14297(10) 0.0190(7) Uani 1 1 d .
H3 H 0.0405 0.7012 0.1449 0.010(8) Uiso 1 1 calc R
C4 C 0.1393(4) 0.5620(4) 0.18524(11) 0.0234(8) Uani 1 1 d .
H4A H 0.0955 0.5774 0.2157 0.010(8) Uiso 1 1 calc R
C14 C 0.7006(4) 0.1733(4) 0.03707(11) 0.0266(8) Uani 1 1 d .
H14 H 0.6599 0.2451 0.0211 0.056(14) Uiso 1 1 calc R
C11 C 0.7252(4) 0.0273(4) 0.10710(12) 0.0288(9) Uani 1 1 d .
H11 H 0.7019 -0.0011 0.1394 0.030(10) Uiso 1 1 calc R
N3 N 0.5331(3) 0.1731(3) 0.16131(10) 0.0229(7) Uani 1 1 d .
C7 C 0.2674(3) 0.5135(4) 0.09423(11) 0.0180(7) Uani 1 1 d .
H7 H 0.3094 0.4970 0.0635 0.016(8) Uiso 1 1 calc R
C8 C 0.4048(3) 0.3362(3) 0.13443(11) 0.0189(7) Uani 1 1 d .
C12 C 0.8227(4) -0.0378(4) 0.08068(12) 0.0296(8) Uani 1 1 d .
H12 H 0.8645 -0.1104 0.0957 0.029(10) Uiso 1 1 calc R
C5 C 0.2374(3) 0.4656(3) 0.18249(11) 0.0209(8) Uani 1 1 d .
H5 H 0.2605 0.4178 0.2113 0.025(9) Uiso 1 1 calc R
C9 C 0.5587(3) 0.2056(3) 0.11343(11) 0.0191(7) Uani 1 1 d .
O3 O 0.6500(4) 1.0000 0.2500 0.0507(11) Uani 1 2 d S
O4 O 0.5000 0.4629(5) 0.0000 0.0611(13) Uani 1 2 d S
loop_
_atom_site_aniso_label
_atom_site_aniso_U_11
_atom_site_aniso_U_22
_atom_site_aniso_U_33
_atom_site_aniso_U_23
_atom_site_aniso_U_13
_atom_site_aniso_U_12
C1 0.0218(18) 0.0206(17) 0.0136(13) -0.0026(13) -0.0015(13) 0.0009(14)
Zn1 0.0197(3) 0.0212(3) 0.0105(2) 0.000 0.0017(2) 0.000
C13 0.031(2) 0.028(2) 0.0187(15) 0.0024(15) 0.0067(15) 0.0041(16)
O2 0.0418(16) 0.0345(15) 0.0090(10) 0.0015(10) 0.0054(10) 0.0109(11)
N1 0.0218(14) 0.0209(14) 0.0184(12) -0.0001(12) 0.0045(11) 0.0028(12)
N2 0.0248(16) 0.0220(15) 0.0153(12) 0.0000(11) 0.0000(12) -0.0009(13)
O1 0.0262(13) 0.0271(14) 0.0133(10) 0.0011(10) -0.0007(9) 0.0073(11)
C6 0.0207(19) 0.0182(18) 0.0144(13) 0.0004(13) -0.0006(13) -0.0019(13)
C2 0.0212(17) 0.0218(18) 0.0086(13) 0.0004(14) -0.0011(13) -0.0037(15)
N4 0.0267(16) 0.0258(17) 0.0161(13) 0.0028(12) 0.0060(12) 0.0080(13)
C10 0.0240(19) 0.0213(19) 0.0203(15) -0.0015(14) 0.0008(14) -0.0015(14)
C3 0.0198(17) 0.0207(18) 0.0166(14) -0.0048(13) 0.0032(14) 0.0000(14)
C4 0.031(2) 0.0279(19) 0.0112(14) 0.0009(13) 0.0055(14) 0.0041(15)
C14 0.031(2) 0.030(2) 0.0183(14) 0.0051(15) 0.0056(16) 0.0070(15)
C11 0.032(2) 0.034(2) 0.0210(17) 0.0063(16) 0.0102(15) 0.0096(16)
N3 0.0225(17) 0.0262(16) 0.0200(13) 0.0039(12) 0.0051(12) 0.0065(12)
C7 0.0224(17) 0.0224(18) 0.0093(13) -0.0019(13) 0.0018(13) 0.0000(14)
C8 0.0214(18) 0.0215(18) 0.0137(14) -0.0011(13) 0.0006(13) -0.0028(14)
C12 0.035(2) 0.031(2) 0.0226(16) 0.0063(15) 0.0055(16) 0.0111(16)
C5 0.030(2) 0.024(2) 0.0089(13) 0.0026(13) 0.0030(13) 0.0035(14)
C9 0.0195(18) 0.0222(19) 0.0155(14) -0.0005(13) 0.0010(13) -0.0010(14)
O3 0.041(2) 0.054(3) 0.057(3) 0.018(2) 0.000 0.000
O4 0.074(3) 0.064(3) 0.045(2) 0.000 0.004(2) 0.000
loop_
_atom_type_symbol
_atom_type_description
_atom_type_scat_dispersion_real
_atom_type_scat_dispersion_imag
_atom_type_scat_source
C C 0.0033 0.0016 'International Tables Vol C Tables 4.2.6.8 and 6.1.1.4'
H H 0.0000 0.0000 'International Tables Vol C Tables 4.2.6.8 and 6.1.1.4'
N N 0.0061 0.0033 'International Tables Vol C Tables 4.2.6.8 and 6.1.1.4'
O O 0.0106 0.0060 'International Tables Vol C Tables 4.2.6.8 and 6.1.1.4'
Zn Zn 0.2839 1.4301 'International Tables Vol C Tables 4.2.6.8 and 6.1.1.4'
loop_
_geom_angle_atom_site_label_1
_geom_angle_atom_site_label_2
_geom_angle_atom_site_label_3
_geom_angle
_geom_angle_site_symmetry_1
_geom_angle_site_symmetry_3
O2 C1 O1 124.3(3) . .
O2 C1 C2 120.0(3) . .
O1 C1 C2 115.7(3) . .
O1 Zn1 O1 121.74(14) 5 .
O1 Zn1 N1 96.67(9) 5 5_665
O1 Zn1 N1 116.18(10) . 5_665
O1 Zn1 N1 116.18(10) 5 1_465
O1 Zn1 N1 96.67(9) . 1_465
N1 Zn1 N1 110.17(16) 5_665 1_465
N1 C13 C14 123.2(3) . .
N1 C13 H13 118.4 . .
C14 C13 H13 118.4 . .
C13 N1 C12 117.8(3) . .
C13 N1 Zn1 125.7(2) . 1_645
C12 N1 Zn1 116.4(2) . 1_645
C8 N2 C9 102.8(3) . .
C1 O1 Zn1 114.58(19) . .
C7 C6 C5 118.8(3) . .
C7 C6 C8 121.2(3) . .
C5 C6 C8 120.0(3) . .
C7 C2 C3 120.5(3) . .
C7 C2 C1 120.6(3) . .
C3 C2 C1 118.8(3) . .
C8 N4 N3 111.1(3) . .
C8 N4 H4 124.5 . .
N3 N4 H4 124.5 . .
C11 C10 C14 117.8(3) . .
C11 C10 C9 120.5(3) . .
C14 C10 C9 121.7(3) . .
C4 C3 C2 119.4(3) . .
C4 C3 H3 120.3 . .
C2 C3 H3 120.3 . .
C3 C4 C5 120.3(3) . .
C3 C4 H4A 119.8 . .
C5 C4 H4A 119.8 . .
C13 C14 C10 118.7(3) . .
C13 C14 H14 120.7 . .
C10 C14 H14 120.7 . .
C12 C11 C10 119.8(3) . .
C12 C11 H11 120.1 . .
C10 C11 H11 120.1 . .
C9 N3 N4 102.3(3) . .
C2 C7 C6 120.3(3) . .
C2 C7 H7 119.9 . .
C6 C7 H7 119.9 . .
N2 C8 N4 109.7(3) . .
N2 C8 C6 127.2(3) . .
N4 C8 C6 123.1(3) . .
N1 C12 C11 122.7(3) . .
N1 C12 H12 118.6 . .
C11 C12 H12 118.6 . .
C4 C5 C6 120.6(3) . .
C4 C5 H5 119.7 . .
C6 C5 H5 119.7 . .
N3 C9 N2 114.1(3) . .
N3 C9 C10 119.7(3) . .
N2 C9 C10 126.2(3) . .
loop_
_geom_bond_atom_site_label_1
_geom_bond_atom_site_label_2
_geom_bond_distance
_geom_bond_site_symmetry_2
C1 O2 1.234(4) .
C1 O1 1.260(4) .
C1 C2 1.506(4) .
Zn1 O1 1.935(2) 5
Zn1 O1 1.935(2) .
Zn1 N1 2.027(3) 5_665
Zn1 N1 2.027(3) 1_465
C13 N1 1.321(4) .
C13 C14 1.380(5) .
C13 H13 0.9300 .
N1 C12 1.348(4) .
N1 Zn1 2.027(3) 1_645
N2 C8 1.327(4) .
N2 C9 1.361(4) .
C6 C7 1.395(4) .
C6 C5 1.396(4) .
C6 C8 1.463(5) .
C2 C7 1.381(5) .
C2 C3 1.392(4) .
N4 C8 1.331(4) .
N4 N3 1.339(4) .
N4 H4 0.8600 .
C10 C11 1.373(5) .
C10 C14 1.402(4) .
C10 C9 1.453(5) .
C3 C4 1.383(4) .
C3 H3 0.9300 .
C4 C5 1.383(5) .
C4 H4A 0.9300 .
C14 H14 0.9300 .
C11 C12 1.369(5) .
C11 H11 0.9300 .
N3 C9 1.333(4) .
C7 H7 0.9300 .
C12 H12 0.9300 .
C5 H5 0.9300 .
