#------------------------------------------------------------------------------
#$Date: 2016-03-25 17:04:47 +0200 (Fri, 25 Mar 2016) $
#$Revision: 180002 $
#$URL: svn://www.crystallography.net/cod/cif/7/02/96/7029668.cif $
#------------------------------------------------------------------------------
#
# This file is available in the Crystallography Open Database (COD),
# http://www.crystallography.net/
#
# All data on this site have been placed in the public domain by the
# contributors.
#
data_7029668
loop_
_publ_author_name
'Karmakar, Anirban'
'Guedes da Silva, M F\'atima C'
'Pombeiro, Armando J. L.'
_publ_section_title
;
 Zinc metal-organic frameworks: efficient catalysts for the
 diastereoselective Henry reaction and transesterification.
;
_journal_issue                   21
_journal_name_full
'Dalton transactions (Cambridge, England : 2003)'
_journal_page_first              7795
_journal_page_last               7810
_journal_paper_doi               10.1039/c4dt00219a
_journal_volume                  43
_journal_year                    2014
_chemical_formula_moiety         'C43 H39 N7 O12 Zn2'
_chemical_formula_sum            'C43 H39 N7 O12 Zn2'
_chemical_formula_weight         976.55
_chemical_name_systematic
;
 ?
;
_space_group_crystal_system      monoclinic
_space_group_IT_number           14
_space_group_name_Hall           '-P 2ybc'
_space_group_name_H-M_alt        'P 1 21/c 1'
_symmetry_space_group_name_Hall  '-P 2ybc'
_symmetry_space_group_name_H-M   'P 1 21/c 1'
_atom_sites_solution_hydrogens   mixed
_audit_creation_method           SHELXL-2013
_cell_angle_alpha                90
_cell_angle_beta                 90.1460(10)
_cell_angle_gamma                90
_cell_formula_units_Z            4
_cell_length_a                   18.4237(10)
_cell_length_b                   11.3275(6)
_cell_length_c                   19.4776(9)
_cell_measurement_reflns_used    9955
_cell_measurement_temperature    296(2)
_cell_measurement_theta_max      26.39
_cell_measurement_theta_min      2.35
_cell_volume                     4064.9(4)
_computing_cell_refinement       'Bruker SAINT'
_computing_data_collection       'Bruker APEX2'
_computing_data_reduction        'Bruker SAINT'
_computing_publication_material  'WinGX publication routines (Farrugia, 1999)'
_computing_structure_refinement  'SHELXL-2013 (Sheldrick, 2013)'
_computing_structure_solution    'SIR97 (Giacovazzo et al, 1997)'
_diffrn_ambient_temperature      296(2)
_diffrn_measured_fraction_theta_full 0.999
_diffrn_measured_fraction_theta_max 0.997
_diffrn_measurement_device_type  'Bruker APEX-II PHOTON 100 detector'
_diffrn_measurement_method       '\f and \w scans'
_diffrn_radiation_source         'fine-focus sealed tube'
_diffrn_radiation_type           MoK\a
_diffrn_radiation_wavelength     0.71069
_diffrn_reflns_av_R_equivalents  0.1516
_diffrn_reflns_av_unetI/netI     0.0831
_diffrn_reflns_Laue_measured_fraction_full 0.999
_diffrn_reflns_Laue_measured_fraction_max 0.997
_diffrn_reflns_limit_h_max       23
_diffrn_reflns_limit_h_min       -23
_diffrn_reflns_limit_k_max       14
_diffrn_reflns_limit_k_min       -14
_diffrn_reflns_limit_l_max       24
_diffrn_reflns_limit_l_min       -22
_diffrn_reflns_number            70544
_diffrn_reflns_point_group_measured_fraction_full 0.999
_diffrn_reflns_point_group_measured_fraction_max 0.997
_diffrn_reflns_theta_full        25.240
_diffrn_reflns_theta_max         26.435
_diffrn_reflns_theta_min         2.354
_exptl_absorpt_coefficient_mu    1.256
_exptl_absorpt_correction_T_max  0.9
_exptl_absorpt_correction_T_min  0.8
_exptl_absorpt_correction_type   multi-scan
_exptl_absorpt_process_details   sadabs
_exptl_crystal_colour            colourless
_exptl_crystal_density_diffrn    1.596
_exptl_crystal_description       needle
_exptl_crystal_F_000             2008
_exptl_crystal_size_max          0.267
_exptl_crystal_size_mid          0.081
_exptl_crystal_size_min          0.035
_refine_diff_density_max         0.662
_refine_diff_density_min         -0.418
_refine_diff_density_rms         0.103
_refine_ls_extinction_method     none
_refine_ls_goodness_of_fit_ref   0.920
_refine_ls_hydrogen_treatment    constr
_refine_ls_matrix_type           full
_refine_ls_number_parameters     580
_refine_ls_number_reflns         8345
_refine_ls_number_restraints     0
_refine_ls_restrained_S_all      0.920
_refine_ls_R_factor_all          0.1135
_refine_ls_R_factor_gt           0.0503
_refine_ls_shift/su_max          0.000
_refine_ls_shift/su_mean         0.000
_refine_ls_structure_factor_coef Fsqd
_refine_ls_weighting_details
'w=1/[\s^2^(Fo^2^)+(0.0634P)^2^] where P=(Fo^2^+2Fc^2^)/3'
_refine_ls_weighting_scheme      calc
_refine_ls_wR_factor_gt          0.1042
_refine_ls_wR_factor_ref         0.1214
_reflns_Friedel_coverage         0.000
_reflns_number_gt                5071
_reflns_number_total             8345
_reflns_threshold_expression     'I > 2\s(I)'
_cod_data_source_file            c4dt00219a2.cif
_cod_data_source_block           Compound1
_cod_depositor_comments
'Adding full bibliography for 7029668--7029670.cif.'
_cod_database_code               7029668
#BEGIN Tags that were not found in dictionaries:
_shelx_space_group_comment
;
The symmetry employed for this shelxl refinement is uniquely defined
by the following loop, which should always be used as a source of
symmetry information in preference to the above space-group names.
They are only intended as comments.
;
_shelx_estimated_absorpt_t_min   0.730
_shelx_estimated_absorpt_t_max   0.957
_shelxl_version_number           2013-4
_shelx_res_file
;
TITL AK161 in P2(1)/c
CELL  0.71069  18.4237  11.3275  19.4776   90.000   90.146   90.000
ZERR     4.00   0.0010   0.0006   0.0009    0.000    0.001    0.000
LATT   1
SYMM  - X, 1/2 + Y, 1/2 - Z
SFAC  C    H    N    O    ZN
UNIT  172  156  28   48   8
MERG   2
OMIT     0.00 180.00
FMAP   2
PLAN   25
ACTA
eqiv $1 x, -y+3/2, z-1/2
eqiv $2  x, -y+3/2, z+1/2
HTAB     N1     O2
HTAB N2   O7
HTAB O12    O4_$1
HTAB O12    O10_$2
size 0.267 0.081 0.035
BOND   $H
LIST   4
L.S.   12
TEMP    23.00
WGHT    0.063400
FVAR       0.05960
C1    1    0.192447    0.638773    0.547898    11.00000    0.03721    0.03306 =
         0.02855   -0.00093   -0.00928    0.00041
C2    1    0.233951    0.613905    0.612793    11.00000    0.03131    0.02928 =
         0.02112    0.00212   -0.00356    0.00424
C3    1    0.199646    0.577002    0.673700    11.00000    0.02973    0.03371 =
         0.02556   -0.00252   -0.00282   -0.00150
C4    1    0.241320    0.554661    0.731584    11.00000    0.03682    0.03724 =
         0.01949    0.00406   -0.00292   -0.00503
AFIX  43
H4    2    0.218872    0.530333    0.771888    11.00000   -1.20000
AFIX   0
C5    1    0.315593    0.568069    0.730115    11.00000    0.03783    0.01849 =
         0.02253    0.00075   -0.00668    0.00311
C6    1    0.360436    0.543294    0.793241    11.00000    0.04013    0.01767 =
         0.02959   -0.00045   -0.01557   -0.00406
C7    1    0.349491    0.606445    0.670450    11.00000    0.02465    0.03449 =
         0.02865    0.00021   -0.00211    0.00014
AFIX  43
H7    2    0.399546    0.616914    0.669548    11.00000   -1.20000
AFIX   0
C8    1    0.308414    0.628887    0.612616    11.00000    0.03432    0.03253 =
         0.01822    0.00414    0.00214   -0.00079
AFIX  43
H8    2    0.331221    0.654563    0.572778    11.00000   -1.20000
AFIX   0
C9    1    0.079055    0.520829    0.722134    11.00000    0.05106    0.08739 =
         0.04303   -0.01234    0.01387   -0.01258
C10   1   -0.000798    0.534634    0.704066    11.00000    0.03999    0.19213 =
         0.07358   -0.04366    0.01247   -0.02302
AFIX 137
H10A  2   -0.006953    0.528196    0.655252    11.00000   -1.50000
H10B  2   -0.017557    0.610565    0.719122    11.00000   -1.50000
H10C  2   -0.028321    0.473859    0.726411    11.00000   -1.50000
AFIX   0
C11   1    0.204220    0.644849    0.275702    11.00000    0.04074    0.03876 =
         0.02811    0.00022    0.00979   -0.00089
C12   1    0.253798    0.610323    0.217496    11.00000    0.02784    0.02865 =
         0.02230   -0.00128    0.00775    0.00136
C13   1    0.327267    0.598582    0.230339    11.00000    0.03952    0.03653 =
         0.01867    0.00130    0.00102    0.00078
AFIX  43
H13   2    0.344739    0.613098    0.274375    11.00000   -1.20000
AFIX   0
C14   1    0.375477    0.565855    0.179516    11.00000    0.03069    0.03220 =
         0.02432    0.00101   -0.00126    0.00220
AFIX  43
H14   2    0.424594    0.557019    0.189378    11.00000   -1.20000
AFIX   0
C15   1    0.349523    0.546427    0.113692    11.00000    0.02437    0.01856 =
         0.02349    0.00311    0.00064    0.00453
C16   1    0.400474    0.511681    0.057294    11.00000    0.02378    0.00921 =
         0.02509    0.00175    0.00137    0.00357
C17   1    0.276627    0.558666    0.099313    11.00000    0.02793    0.03785 =
         0.01850    0.00162    0.00190    0.00686
AFIX  43
H17   2    0.259982    0.546677    0.054739    11.00000   -1.20000
AFIX   0
C18   1    0.227811    0.588628    0.150478    11.00000    0.02484    0.03102 =
         0.02569    0.00648    0.00312    0.00306
C19   1    0.115374    0.574510    0.079684    11.00000    0.03143    0.06775 =
         0.04250    0.00619    0.00315    0.00242
C20   1    0.035903    0.607801    0.083086    11.00000    0.03790    0.09493 =
         0.06291    0.00923   -0.00494    0.00344
AFIX  33
H20A  2    0.025761    0.643174    0.126811    11.00000   -1.50000
H20B  2    0.006663    0.538311    0.077445    11.00000   -1.50000
H20C  2    0.024880    0.663034    0.047161    11.00000   -1.50000
AFIX   0
C21   1    0.009752    0.641081    0.439014    11.00000    0.04019    0.05164 =
         0.04459    0.01160   -0.00224    0.00079
AFIX  43
H21   2    0.026916    0.584245    0.469447    11.00000   -1.20000
AFIX   0
C22   1   -0.064303    0.649140    0.428940    11.00000    0.04283    0.05195 =
         0.05265    0.00865    0.00745   -0.00749
AFIX  43
H22   2   -0.095239    0.598165    0.452204    11.00000   -1.20000
AFIX   0
C23   1   -0.092797    0.732396    0.384541    11.00000    0.04422    0.04537 =
         0.04561    0.00088    0.00367    0.00666
C24   1   -0.171845    0.739685    0.368209    11.00000    0.04088    0.04548 =
         0.06604   -0.00921    0.00471    0.00813
C25   1   -0.223762    0.695153    0.410953    11.00000    0.04075    0.09202 =
         0.08036    0.00164    0.01005   -0.00466
AFIX  43
H25   2   -0.210675    0.661964    0.452865    11.00000   -1.20000
AFIX   0
C26   1   -0.296372    0.699833    0.391298    11.00000    0.04676    0.09654 =
         0.10177   -0.00118    0.00648   -0.00612
AFIX  43
H26   2   -0.330612    0.667959    0.421001    11.00000   -1.20000
AFIX   0
C27   1   -0.269262    0.789178    0.293620    11.00000    0.06629    0.07301 =
         0.11302    0.00668   -0.01940    0.01221
AFIX  43
H27   2   -0.283886    0.823078    0.252357    11.00000   -1.20000
AFIX   0
C28   1   -0.195654    0.788114    0.307909    11.00000    0.04963    0.07565 =
         0.08001    0.01029   -0.01277    0.01321
AFIX  43
H28   2   -0.162758    0.819963    0.276867    11.00000   -1.20000
AFIX   0
C29   1   -0.042819    0.810051    0.356603    11.00000    0.04378    0.06731 =
         0.07560    0.03937    0.00409    0.00662
AFIX  43
H29   2   -0.058942    0.872674    0.329715    11.00000   -1.20000
AFIX   0
C30   1    0.030726    0.795597    0.368200    11.00000    0.03603    0.06113 =
         0.06646    0.02448    0.00198   -0.00092
AFIX  43
H30   2    0.062533    0.848300    0.347415    11.00000   -1.20000
AFIX   0
C31   1    0.512244    0.235395    0.136735    11.00000    0.03026    0.01933 =
         0.03002   -0.00339    0.00704   -0.00135
AFIX  43
H31   2    0.477887    0.280687    0.159670    11.00000   -1.20000
AFIX   0
C32   1    0.508714    0.114053    0.142578    11.00000    0.03191    0.02160 =
         0.03016    0.00171    0.00735   -0.00511
AFIX  43
H32   2    0.473512    0.078530    0.169775    11.00000   -1.20000
AFIX   0
C33   1    0.558913    0.046115    0.106933    11.00000    0.03188    0.01232 =
         0.02280   -0.00081   -0.00466    0.00003
C34   1    0.610906    0.104252    0.069251    11.00000    0.03132    0.02107 =
         0.03405   -0.00128    0.00696    0.00704
AFIX  43
H34   2    0.645295    0.061428    0.044809    11.00000   -1.20000
AFIX   0
C35   1    0.612060    0.224827    0.067706    11.00000    0.02941    0.01784 =
         0.02965   -0.00002    0.00595    0.00060
AFIX  43
H35   2    0.648747    0.262464    0.043371    11.00000   -1.20000
AFIX   0
C36   1    0.559110    0.727898    0.163157    11.00000    0.04551    0.02066 =
         0.02809    0.00424    0.00614    0.00216
AFIX  43
H36   2    0.560624    0.685198    0.203917    11.00000   -1.20000
AFIX   0
C37   1    0.556175    0.849418    0.166697    11.00000    0.04466    0.01832 =
         0.02766   -0.00377    0.00480   -0.00049
AFIX  43
H37   2    0.553880    0.886807    0.209144    11.00000   -1.20000
AFIX   0
C38   1    0.556648    0.915064    0.107481    11.00000    0.02411    0.02000 =
         0.02656   -0.00080   -0.00212    0.00062
C39   1    0.556067    0.853016    0.046491    11.00000    0.06245    0.02208 =
         0.02931    0.00303   -0.00704    0.00630
AFIX  43
H39   2    0.554788    0.893678    0.005026    11.00000   -1.20000
AFIX   0
C40   1    0.557363    0.731576    0.046471    11.00000    0.06004    0.02208 =
         0.02546   -0.00254   -0.01091    0.00577
AFIX  43
H40   2    0.556448    0.691953    0.004659    11.00000   -1.20000
AFIX   0
C51   1    0.195116    0.410718    0.403627    11.00000    0.04973    0.05583 =
         0.06444   -0.00372    0.00702    0.00349
AFIX  43
H51   2    0.240944    0.444390    0.399589    11.00000   -1.20000
AFIX   0
C52   1    0.122886    0.234403    0.405674    11.00000    0.06570    0.06882 =
         0.12472   -0.01271    0.01144   -0.01639
AFIX 137
H52A  2    0.119807    0.176209    0.369954    11.00000   -1.50000
H52B  2    0.084139    0.290364    0.400402    11.00000   -1.50000
H52C  2    0.118954    0.196431    0.449570    11.00000   -1.50000
AFIX   0
C53   1    0.255365    0.219995    0.395948    11.00000    0.06452    0.07258 =
         0.17934   -0.00629    0.00895    0.01707
AFIX 137
H53A  2    0.248832    0.164360    0.359269    11.00000   -1.50000
H53B  2    0.262557    0.178267    0.438321    11.00000   -1.50000
H53C  2    0.297021    0.268304    0.386700    11.00000   -1.50000
AFIX   0
N1    3    0.123710    0.567565    0.674589    11.00000    0.03385    0.07108 =
         0.03531    0.00315   -0.00470   -0.00583
AFIX  43
H1    2    0.102173    0.596210    0.639083    11.00000   -1.20000
AFIX   0
N2    3    0.153367    0.599938    0.137547    11.00000    0.02951    0.06824 =
         0.02802   -0.00188    0.00520    0.01107
AFIX  43
H2    2    0.128082    0.626891    0.171128    11.00000   -1.20000
AFIX   0
N3    3    0.058595    0.710700    0.407355    11.00000    0.03603    0.04302 =
         0.03112    0.00389    0.00212    0.00335
N4    3   -0.319825    0.746522    0.333290    11.00000    0.05116    0.06704 =
         0.13285   -0.01270   -0.00274    0.00717
N5    3    0.562642    0.290546    0.099727    11.00000    0.02514    0.01387 =
         0.02334   -0.00055   -0.00016   -0.00062
N6    3    0.559874    0.668993    0.104038    11.00000    0.02945    0.01160 =
         0.02892   -0.00305   -0.00470    0.00090
N7    3    0.191176    0.294408    0.401339    11.00000    0.04759    0.03877 =
         0.07404   -0.01060   -0.00142    0.00620
O1    4    0.229381    0.654675    0.493879    11.00000    0.04194    0.06482 =
         0.02191    0.00489   -0.00007   -0.00522
O2    4    0.124931    0.642417    0.547803    11.00000    0.03644    0.09759 =
         0.03216    0.00478   -0.00875    0.00800
O3    4    0.427925    0.534358    0.787744    11.00000    0.04034    0.02737 =
         0.03365   -0.00218   -0.01545    0.00584
O4    4    0.328439    0.532967    0.850366    11.00000    0.04442    0.03882 =
         0.02282    0.01056   -0.00884   -0.00643
O5    4    0.098940    0.473807    0.774054    11.00000    0.07102    0.12188 =
         0.05843    0.02418    0.01618   -0.01979
O6    4    0.234170    0.649171    0.335099    11.00000    0.04721    0.05539 =
         0.01978   -0.00537    0.00765    0.00320
O7    4    0.139590    0.666688    0.265401    11.00000    0.03387    0.10131 =
         0.03699   -0.00830    0.01100    0.01453
O8    4    0.377778    0.521382   -0.004000    11.00000    0.02738    0.03575 =
         0.01969    0.00250    0.00294    0.00545
O9    4    0.461213    0.472199    0.073508    11.00000    0.02369    0.03010 =
         0.03566   -0.00285   -0.00161    0.00418
O10   4    0.140695    0.529482    0.028423    11.00000    0.04377    0.09168 =
         0.03545   -0.00903   -0.00298    0.00097
O11   4    0.143432    0.478493    0.410640    11.00000    0.05065    0.04673 =
         0.06465   -0.00535    0.00166    0.00690
O12   4    0.192207    0.866533    0.406947    11.00000    0.05958    0.05272 =
         0.04436   -0.00113    0.01053   -0.00366
ZN1   5    0.569604    0.480195    0.094815    11.00000    0.02212    0.01439 =
         0.01910    0.00007   -0.00010    0.00149
ZN2   5    0.168253    0.681746    0.411612    11.00000    0.03213    0.06374 =
         0.01963    0.00055    0.00170    0.00793
H12A  2   10.231100   10.904200   10.388803    11.00000   -1.50000
H12B  2   10.181203   10.918100   10.448100    11.00000   -1.50000
HKLF    4

REM  AK161 in P2(1)/c
REM R1 =  0.0503 for    5071 Fo > 4sig(Fo)  and  0.1135 for all    8345 data
REM    580 parameters refined using      0 restraints

END

WGHT      0.0590      0.0000

REM Highest difference peak  0.662,  deepest hole -0.418,  1-sigma level  0.103
Q1    1   0.1875  0.7638  0.4034  11.00000  0.05    0.66
Q2    1   0.5432  0.4869  0.1223  11.00000  0.05    0.62
Q3    1  -0.0267  0.6793  0.7752  11.00000  0.05    0.55
Q4    1   0.5577  0.3651  0.1074  11.00000  0.05    0.53
Q5    1   0.5913  0.4767  0.0983  11.00000  0.05    0.52
Q6    1   0.5705  0.1617  0.0928  11.00000  0.05    0.49
Q7    1   0.5554  0.4475  0.0855  11.00000  0.05    0.49
Q8    1   0.4553  0.5198  0.0555  11.00000  0.05    0.48
Q9    1   0.5593  0.5155  0.0834  11.00000  0.05    0.47
Q10   1   0.1549  0.5877  0.4255  11.00000  0.05    0.47
Q11   1   0.5754  0.5177  0.0720  11.00000  0.05    0.47
Q12   1   0.5342  0.0985  0.1085  11.00000  0.05    0.46
Q13   1   0.5783  0.8869  0.0823  11.00000  0.05    0.46
Q14   1   0.5546  0.6027  0.1071  11.00000  0.05    0.45
Q15   1   0.1610  0.3539  0.4169  11.00000  0.05    0.44
Q16   1   0.1764  0.5632  0.4138  11.00000  0.05    0.43
Q17   1   0.2187  0.6242  0.6416  11.00000  0.05    0.42
Q18   1   0.5938  0.4567  0.0587  11.00000  0.05    0.42
Q19   1   0.1636  0.6981  0.2969  11.00000  0.05    0.42
Q20   1   0.4862  0.4734  0.0890  11.00000  0.05    0.41
Q21   1   0.0954  0.6649  0.4302  11.00000  0.05    0.40
Q22   1   0.4888  0.5028  0.1152  11.00000  0.05    0.40
Q23   1   0.2340  0.5447  0.2693  11.00000  0.05    0.40
Q24   1   0.5430  0.4844  0.0320  11.00000  0.05    0.40
Q25   1   0.4323  0.5205  0.8060  11.00000  0.05    0.39
;
_shelx_res_checksum              47813
#END Tags that were not found in dictionaries
loop_
_space_group_symop_operation_xyz
'x, y, z'
'-x, y+1/2, -z+1/2'
'-x, -y, -z'
'x, -y-1/2, z-1/2'
loop_
_atom_site_label
_atom_site_type_symbol
_atom_site_fract_x
_atom_site_fract_y
_atom_site_fract_z
_atom_site_U_iso_or_equiv
_atom_site_adp_type
_atom_site_occupancy
_atom_site_site_symmetry_order
_atom_site_calc_flag
_atom_site_refinement_flags_posn
_atom_site_refinement_flags_adp
C1 C 0.1924(2) 0.6388(4) 0.5479(2) 0.0330(10) Uani 1 1 d . .
C2 C 0.2340(2) 0.6139(3) 0.61279(18) 0.0272(9) Uani 1 1 d . .
C3 C 0.1996(2) 0.5770(4) 0.67370(19) 0.0297(9) Uani 1 1 d . .
C4 C 0.2413(2) 0.5547(4) 0.73158(19) 0.0312(10) Uani 1 1 d . .
H4 H 0.2189 0.5303 0.7719 0.037 Uiso 1 1 calc R U
C5 C 0.3156(2) 0.5681(3) 0.73012(18) 0.0263(9) Uani 1 1 d . .
C6 C 0.3604(2) 0.5433(3) 0.7932(2) 0.0292(9) Uani 1 1 d . .
C7 C 0.3495(2) 0.6064(3) 0.67045(19) 0.0293(9) Uani 1 1 d . .
H7 H 0.3995 0.6169 0.6695 0.035 Uiso 1 1 calc R U
C8 C 0.3084(2) 0.6289(3) 0.61262(18) 0.0284(9) Uani 1 1 d . .
H8 H 0.3312 0.6546 0.5728 0.034 Uiso 1 1 calc R U
C9 C 0.0791(3) 0.5208(5) 0.7221(3) 0.0605(15) Uani 1 1 d . .
C10 C -0.0008(3) 0.5346(8) 0.7041(3) 0.102(3) Uani 1 1 d . .
H10A H -0.0070 0.5282 0.6553 0.153 Uiso 1 1 calc R U
H10B H -0.0176 0.6106 0.7191 0.153 Uiso 1 1 calc R U
H10C H -0.0283 0.4739 0.7264 0.153 Uiso 1 1 calc R U
C11 C 0.2042(2) 0.6448(4) 0.2757(2) 0.0359(10) Uani 1 1 d . .
C12 C 0.2538(2) 0.6103(3) 0.21750(18) 0.0263(9) Uani 1 1 d . .
C13 C 0.3273(2) 0.5986(4) 0.23034(19) 0.0316(10) Uani 1 1 d . .
H13 H 0.3447 0.6131 0.2744 0.038 Uiso 1 1 calc R U
C14 C 0.3755(2) 0.5659(3) 0.17952(19) 0.0291(9) Uani 1 1 d . .
H14 H 0.4246 0.5570 0.1894 0.035 Uiso 1 1 calc R U
C15 C 0.3495(2) 0.5464(3) 0.11369(18) 0.0221(8) Uani 1 1 d . .
C16 C 0.4005(2) 0.5117(3) 0.05729(18) 0.0194(8) Uani 1 1 d . .
C17 C 0.2766(2) 0.5587(4) 0.09931(19) 0.0281(9) Uani 1 1 d . .
H17 H 0.2600 0.5467 0.0547 0.034 Uiso 1 1 calc R U
C18 C 0.2278(2) 0.5886(3) 0.15048(19) 0.0272(9) Uani 1 1 d . .
C19 C 0.1154(3) 0.5745(5) 0.0797(2) 0.0472(12) Uani 1 1 d . .
C20 C 0.0359(3) 0.6078(6) 0.0831(3) 0.0653(16) Uani 1 1 d . .
H20A H 0.0258 0.6432 0.1268 0.098 Uiso 1 1 calc R U
H20B H 0.0067 0.5383 0.0774 0.098 Uiso 1 1 calc R U
H20C H 0.0249 0.6630 0.0472 0.098 Uiso 1 1 calc R U
C21 C 0.0098(3) 0.6411(4) 0.4390(2) 0.0455(12) Uani 1 1 d . .
H21 H 0.0269 0.5842 0.4694 0.055 Uiso 1 1 calc R U
C22 C -0.0643(3) 0.6491(4) 0.4289(2) 0.0491(12) Uani 1 1 d . .
H22 H -0.0952 0.5982 0.4522 0.059 Uiso 1 1 calc R U
C23 C -0.0928(3) 0.7324(4) 0.3845(2) 0.0451(12) Uani 1 1 d . .
C24 C -0.1718(3) 0.7397(4) 0.3682(3) 0.0508(13) Uani 1 1 d . .
C25 C -0.2238(3) 0.6952(6) 0.4110(3) 0.0710(17) Uani 1 1 d . .
H25 H -0.2107 0.6620 0.4529 0.085 Uiso 1 1 calc R U
C26 C -0.2964(3) 0.6998(6) 0.3913(4) 0.0817(19) Uani 1 1 d . .
H26 H -0.3306 0.6680 0.4210 0.098 Uiso 1 1 calc R U
C27 C -0.2693(4) 0.7892(6) 0.2936(4) 0.084(2) Uani 1 1 d . .
H27 H -0.2839 0.8231 0.2524 0.101 Uiso 1 1 calc R U
C28 C -0.1957(3) 0.7881(5) 0.3079(3) 0.0685(16) Uani 1 1 d . .
H28 H -0.1628 0.8200 0.2769 0.082 Uiso 1 1 calc R U
C29 C -0.0428(3) 0.8101(5) 0.3566(3) 0.0622(16) Uani 1 1 d . .
H29 H -0.0589 0.8727 0.3297 0.075 Uiso 1 1 calc R U
C30 C 0.0307(3) 0.7956(5) 0.3682(3) 0.0545(14) Uani 1 1 d . .
H30 H 0.0625 0.8483 0.3474 0.065 Uiso 1 1 calc R U
C31 C 0.5122(2) 0.2354(3) 0.13673(19) 0.0265(9) Uani 1 1 d . .
H31 H 0.4779 0.2807 0.1597 0.032 Uiso 1 1 calc R U
C32 C 0.5087(2) 0.1141(3) 0.14258(19) 0.0279(9) Uani 1 1 d . .
H32 H 0.4735 0.0785 0.1698 0.033 Uiso 1 1 calc R U
C33 C 0.5589(2) 0.0461(3) 0.10693(18) 0.0223(8) Uani 1 1 d . .
C34 C 0.6109(2) 0.1043(3) 0.06925(19) 0.0288(9) Uani 1 1 d . .
H34 H 0.6453 0.0614 0.0448 0.035 Uiso 1 1 calc R U
C35 C 0.6121(2) 0.2248(3) 0.06771(19) 0.0256(9) Uani 1 1 d . .
H35 H 0.6487 0.2625 0.0434 0.031 Uiso 1 1 calc R U
C36 C 0.5591(2) 0.7279(3) 0.1632(2) 0.0314(10) Uani 1 1 d . .
H36 H 0.5606 0.6852 0.2039 0.038 Uiso 1 1 calc R U
C37 C 0.5562(2) 0.8494(3) 0.1667(2) 0.0302(9) Uani 1 1 d . .
H37 H 0.5539 0.8868 0.2091 0.036 Uiso 1 1 calc R U
C38 C 0.5566(2) 0.9151(3) 0.10748(18) 0.0236(8) Uani 1 1 d . .
C39 C 0.5561(3) 0.8530(3) 0.0465(2) 0.0380(11) Uani 1 1 d . .
H39 H 0.5548 0.8937 0.0050 0.046 Uiso 1 1 calc R U
C40 C 0.5574(3) 0.7316(3) 0.0465(2) 0.0359(10) Uani 1 1 d . .
H40 H 0.5564 0.6920 0.0047 0.043 Uiso 1 1 calc R U
C51 C 0.1951(3) 0.4107(5) 0.4036(3) 0.0567(14) Uani 1 1 d . .
H51 H 0.2409 0.4444 0.3996 0.068 Uiso 1 1 calc R U
C52 C 0.1229(3) 0.2344(6) 0.4057(4) 0.086(2) Uani 1 1 d . .
H52A H 0.1198 0.1762 0.3700 0.130 Uiso 1 1 calc R U
H52B H 0.0841 0.2904 0.4004 0.130 Uiso 1 1 calc R U
H52C H 0.1190 0.1964 0.4496 0.130 Uiso 1 1 calc R U
C53 C 0.2554(4) 0.2200(6) 0.3959(4) 0.105(3) Uani 1 1 d . .
H53A H 0.2488 0.1644 0.3593 0.158 Uiso 1 1 calc R U
H53B H 0.2626 0.1783 0.4383 0.158 Uiso 1 1 calc R U
H53C H 0.2970 0.2683 0.3867 0.158 Uiso 1 1 calc R U
N1 N 0.1237(2) 0.5676(4) 0.67459(19) 0.0468(10) Uani 1 1 d . .
H1 H 0.1022 0.5962 0.6391 0.056 Uiso 1 1 calc R U
N2 N 0.15337(19) 0.5999(4) 0.13755(17) 0.0419(9) Uani 1 1 d . .
H2 H 0.1281 0.6269 0.1711 0.050 Uiso 1 1 calc R U
N3 N 0.05860(19) 0.7107(3) 0.40735(17) 0.0367(9) Uani 1 1 d . .
N4 N -0.3198(3) 0.7465(5) 0.3333(4) 0.0837(17) Uani 1 1 d . .
N5 N 0.56264(16) 0.2905(2) 0.09973(14) 0.0208(7) Uani 1 1 d . .
N6 N 0.55987(17) 0.6690(2) 0.10404(15) 0.0233(7) Uani 1 1 d . .
N7 N 0.1912(2) 0.2944(4) 0.4013(2) 0.0535(11) Uani 1 1 d . .
O1 O 0.22938(16) 0.6547(3) 0.49388(13) 0.0429(8) Uani 1 1 d . .
O2 O 0.12493(18) 0.6424(3) 0.54780(15) 0.0554(9) Uani 1 1 d . .
O3 O 0.42792(16) 0.5344(2) 0.78774(13) 0.0338(7) Uani 1 1 d . .
O4 O 0.32844(16) 0.5330(2) 0.85037(13) 0.0354(7) Uani 1 1 d . .
O5 O 0.0989(2) 0.4738(4) 0.7741(2) 0.0837(13) Uani 1 1 d . .
O6 O 0.23417(16) 0.6492(3) 0.33510(13) 0.0408(7) Uani 1 1 d . .
O7 O 0.13959(17) 0.6667(3) 0.26540(15) 0.0574(10) Uani 1 1 d . .
O8 O 0.37778(14) 0.5214(2) -0.00400(12) 0.0276(6) Uani 1 1 d . .
O9 O 0.46121(14) 0.4722(2) 0.07351(13) 0.0298(6) Uani 1 1 d . .
O10 O 0.14070(18) 0.5295(3) 0.02842(16) 0.0570(9) Uani 1 1 d . .
O11 O 0.14343(19) 0.4785(3) 0.41064(18) 0.0540(9) Uani 1 1 d . .
O12 O 0.19221(19) 0.8665(3) 0.40695(15) 0.0522(9) Uani 1 1 d . .
Zn1 Zn 0.56960(2) 0.48019(4) 0.09482(2) 0.01854(12) Uani 1 1 d . .
Zn2 Zn 0.16825(3) 0.68175(5) 0.41161(2) 0.03850(16) Uani 1 1 d . .
H12A H 0.2311 0.9042 0.3888 0.058 Uiso 1 1 d . U
H12B H 0.1812 0.9181 0.4481 0.058 Uiso 1 1 d . U
loop_
_atom_site_aniso_label
_atom_site_aniso_U_11
_atom_site_aniso_U_22
_atom_site_aniso_U_33
_atom_site_aniso_U_23
_atom_site_aniso_U_13
_atom_site_aniso_U_12
C1 0.037(3) 0.033(2) 0.029(2) -0.0009(17) -0.0093(19) 0.000(2)
C2 0.031(2) 0.029(2) 0.021(2) 0.0021(16) -0.0036(16) 0.0042(18)
C3 0.030(2) 0.034(2) 0.026(2) -0.0025(17) -0.0028(17) -0.0015(18)
C4 0.037(3) 0.037(2) 0.019(2) 0.0041(16) -0.0029(17) -0.0050(19)
C5 0.038(2) 0.0185(19) 0.023(2) 0.0008(15) -0.0067(17) 0.0031(17)
C6 0.040(3) 0.018(2) 0.030(2) -0.0005(16) -0.0156(19) -0.0041(17)
C7 0.025(2) 0.034(2) 0.029(2) 0.0002(17) -0.0021(17) 0.0001(18)
C8 0.034(2) 0.033(2) 0.0182(19) 0.0041(16) 0.0021(16) -0.0008(19)
C9 0.051(3) 0.087(4) 0.043(3) -0.012(3) 0.014(3) -0.013(3)
C10 0.040(3) 0.192(8) 0.074(4) -0.044(5) 0.012(3) -0.023(4)
C11 0.041(3) 0.039(3) 0.028(2) 0.0002(18) 0.0098(19) -0.001(2)
C12 0.028(2) 0.029(2) 0.0223(19) -0.0013(16) 0.0078(16) 0.0014(17)
C13 0.040(3) 0.037(2) 0.019(2) 0.0013(16) 0.0010(17) 0.0008(19)
C14 0.031(2) 0.032(2) 0.024(2) 0.0010(16) -0.0013(17) 0.0022(18)
C15 0.024(2) 0.019(2) 0.0235(19) 0.0031(14) 0.0006(15) 0.0045(15)
C16 0.024(2) 0.0092(17) 0.0251(19) 0.0017(14) 0.0014(15) 0.0036(15)
C17 0.028(2) 0.038(2) 0.0185(19) 0.0016(16) 0.0019(16) 0.0069(18)
C18 0.025(2) 0.031(2) 0.026(2) 0.0065(16) 0.0031(16) 0.0031(17)
C19 0.031(3) 0.068(3) 0.042(3) 0.006(2) 0.003(2) 0.002(2)
C20 0.038(3) 0.095(5) 0.063(4) 0.009(3) -0.005(3) 0.003(3)
C21 0.040(3) 0.052(3) 0.045(3) 0.012(2) -0.002(2) 0.001(2)
C22 0.043(3) 0.052(3) 0.053(3) 0.009(2) 0.007(2) -0.007(2)
C23 0.044(3) 0.045(3) 0.046(3) 0.001(2) 0.004(2) 0.007(2)
C24 0.041(3) 0.045(3) 0.066(3) -0.009(2) 0.005(3) 0.008(2)
C25 0.041(3) 0.092(5) 0.080(4) 0.002(3) 0.010(3) -0.005(3)
C26 0.047(4) 0.097(5) 0.102(5) -0.001(4) 0.006(4) -0.006(4)
C27 0.066(5) 0.073(5) 0.113(6) 0.007(4) -0.019(4) 0.012(4)
C28 0.050(4) 0.076(4) 0.080(4) 0.010(3) -0.013(3) 0.013(3)
C29 0.044(3) 0.067(4) 0.076(4) 0.039(3) 0.004(3) 0.007(3)
C30 0.036(3) 0.061(3) 0.066(3) 0.024(3) 0.002(2) -0.001(3)
C31 0.030(2) 0.019(2) 0.030(2) -0.0034(16) 0.0070(17) -0.0013(17)
C32 0.032(2) 0.022(2) 0.030(2) 0.0017(16) 0.0074(17) -0.0051(17)
C33 0.032(2) 0.012(2) 0.023(2) -0.0008(14) -0.0047(16) 0.0000(15)
C34 0.031(2) 0.021(2) 0.034(2) -0.0013(16) 0.0070(18) 0.0070(17)
C35 0.029(2) 0.018(2) 0.030(2) 0.0000(15) 0.0060(17) 0.0006(17)
C36 0.046(3) 0.021(2) 0.028(2) 0.0042(16) 0.0061(18) 0.0022(18)
C37 0.045(3) 0.018(2) 0.028(2) -0.0038(16) 0.0048(18) -0.0005(18)
C38 0.024(2) 0.020(2) 0.027(2) -0.0008(15) -0.0021(16) 0.0006(16)
C39 0.062(3) 0.022(2) 0.029(2) 0.0030(17) -0.007(2) 0.006(2)
C40 0.060(3) 0.022(2) 0.025(2) -0.0025(17) -0.0109(19) 0.006(2)
C51 0.050(3) 0.056(4) 0.064(4) -0.004(3) 0.007(3) 0.003(3)
C52 0.066(5) 0.069(4) 0.125(6) -0.013(4) 0.011(4) -0.016(3)
C53 0.065(5) 0.073(5) 0.179(8) -0.006(5) 0.009(5) 0.017(4)
N1 0.034(2) 0.071(3) 0.035(2) 0.0032(19) -0.0047(17) -0.006(2)
N2 0.030(2) 0.068(3) 0.0280(19) -0.0019(17) 0.0052(15) 0.0111(19)
N3 0.036(2) 0.043(2) 0.0311(19) 0.0039(16) 0.0021(16) 0.0033(17)
N4 0.051(3) 0.067(4) 0.133(5) -0.013(3) -0.003(4) 0.007(3)
N5 0.0251(18) 0.0139(15) 0.0233(16) -0.0006(12) -0.0002(13) -0.0006(13)
N6 0.0294(18) 0.0116(16) 0.0289(17) -0.0031(13) -0.0047(13) 0.0009(13)
N7 0.048(3) 0.039(3) 0.074(3) -0.011(2) -0.001(2) 0.006(2)
O1 0.0419(19) 0.065(2) 0.0219(15) 0.0049(14) -0.0001(13) -0.0052(16)
O2 0.036(2) 0.098(3) 0.0322(18) 0.0048(17) -0.0087(14) 0.0080(19)
O3 0.0403(19) 0.0274(16) 0.0337(16) -0.0022(12) -0.0155(13) 0.0058(13)
O4 0.0444(18) 0.0388(17) 0.0228(15) 0.0106(12) -0.0088(13) -0.0064(14)
O5 0.071(3) 0.122(4) 0.058(3) 0.024(2) 0.016(2) -0.020(3)
O6 0.0472(19) 0.055(2) 0.0198(15) -0.0054(13) 0.0077(13) 0.0032(16)
O7 0.034(2) 0.101(3) 0.0370(18) -0.0083(17) 0.0110(14) 0.0145(19)
O8 0.0274(15) 0.0357(15) 0.0197(14) 0.0025(11) 0.0029(11) 0.0054(12)
O9 0.0237(15) 0.0301(15) 0.0357(15) -0.0029(12) -0.0016(12) 0.0042(13)
O10 0.044(2) 0.092(3) 0.0355(19) -0.0090(18) -0.0030(15) 0.0010(19)
O11 0.051(2) 0.047(2) 0.065(2) -0.0054(17) 0.0017(17) 0.0069(18)
O12 0.060(2) 0.053(2) 0.0444(19) -0.0011(16) 0.0105(16) -0.0037(17)
Zn1 0.0221(2) 0.0144(2) 0.0191(2) 0.00007(17) -0.00010(16) 0.00149(18)
Zn2 0.0321(3) 0.0637(4) 0.0196(2) 0.0006(2) 0.00170(19) 0.0079(3)
loop_
_atom_type_symbol
_atom_type_description
_atom_type_scat_dispersion_real
_atom_type_scat_dispersion_imag
_atom_type_scat_source
C C 0.0033 0.0016 'International Tables Vol C Tables 4.2.6.8 and 6.1.1.4'
H H 0.0000 0.0000 'International Tables Vol C Tables 4.2.6.8 and 6.1.1.4'
N N 0.0061 0.0033 'International Tables Vol C Tables 4.2.6.8 and 6.1.1.4'
O O 0.0106 0.0060 'International Tables Vol C Tables 4.2.6.8 and 6.1.1.4'
Zn Zn 0.2839 1.4301 'International Tables Vol C Tables 4.2.6.8 and 6.1.1.4'
loop_
_geom_angle_atom_site_label_1
_geom_angle_atom_site_label_2
_geom_angle_atom_site_label_3
_geom_angle
_geom_angle_site_symmetry_1
_geom_angle_site_symmetry_3
O2 C1 O1 122.2(4) . .
O2 C1 C2 120.9(4) . .
O1 C1 C2 116.9(4) . .
C8 C2 C3 119.1(3) . .
C8 C2 C1 118.5(3) . .
C3 C2 C1 122.4(4) . .
C4 C3 N1 121.8(4) . .
C4 C3 C2 119.4(4) . .
N1 C3 C2 118.8(3) . .
C5 C4 C3 120.8(4) . .
C5 C4 H4 119.6 . .
C3 C4 H4 119.6 . .
C4 C5 C7 120.0(3) . .
C4 C5 C6 120.4(4) . .
C7 C5 C6 119.6(4) . .
O3 C6 O4 122.2(3) . .
O3 C6 C5 119.2(4) . .
O4 C6 C5 118.6(4) . .
O3 C6 Zn1 64.1(2) . 3_666
O4 C6 Zn1 58.20(19) . 3_666
C5 C6 Zn1 174.2(3) . 3_666
C8 C7 C5 119.6(4) . .
C8 C7 H7 120.2 . .
C5 C7 H7 120.2 . .
C7 C8 C2 121.2(3) . .
C7 C8 H8 119.4 . .
C2 C8 H8 119.4 . .
O5 C9 N1 124.6(5) . .
O5 C9 C10 122.3(5) . .
N1 C9 C10 113.1(5) . .
C9 C10 H10A 109.5 . .
C9 C10 H10B 109.5 . .
H10A C10 H10B 109.5 . .
C9 C10 H10C 109.5 . .
H10A C10 H10C 109.5 . .
H10B C10 H10C 109.5 . .
O7 C11 O6 123.6(4) . .
O7 C11 C12 121.1(4) . .
O6 C11 C12 115.3(4) . .
C13 C12 C18 118.7(3) . .
C13 C12 C11 118.9(3) . .
C18 C12 C11 122.4(4) . .
C14 C13 C12 121.8(4) . .
C14 C13 H13 119.1 . .
C12 C13 H13 119.1 . .
C13 C14 C15 119.0(4) . .
C13 C14 H14 120.5 . .
C15 C14 H14 120.5 . .
C17 C15 C14 120.4(3) . .
C17 C15 C16 119.3(3) . .
C14 C15 C16 120.3(3) . .
O9 C16 O8 124.3(3) . .
O9 C16 C15 118.2(3) . .
O8 C16 C15 117.5(3) . .
C15 C17 C18 120.8(3) . .
C15 C17 H17 119.6 . .
C18 C17 H17 119.6 . .
C17 C18 N2 122.0(3) . .
C17 C18 C12 119.2(4) . .
N2 C18 C12 118.7(3) . .
O10 C19 N2 125.0(4) . .
O10 C19 C20 120.9(5) . .
N2 C19 C20 114.1(4) . .
C19 C20 H20A 109.5 . .
C19 C20 H20B 109.5 . .
H20A C20 H20B 109.5 . .
C19 C20 H20C 109.5 . .
H20A C20 H20C 109.5 . .
H20B C20 H20C 109.5 . .
N3 C21 C22 123.9(4) . .
N3 C21 H21 118.1 . .
C22 C21 H21 118.1 . .
C23 C22 C21 120.5(4) . .
C23 C22 H22 119.7 . .
C21 C22 H22 119.7 . .
C22 C23 C29 115.3(5) . .
C22 C23 C24 122.7(5) . .
C29 C23 C24 122.0(4) . .
C28 C24 C25 116.6(5) . .
C28 C24 C23 121.1(5) . .
C25 C24 C23 122.3(5) . .
C24 C25 C26 119.5(6) . .
C24 C25 H25 120.3 . .
C26 C25 H25 120.3 . .
N4 C26 C25 124.3(6) . .
N4 C26 H26 117.9 . .
C25 C26 H26 117.9 . .
N4 C27 C28 125.4(7) . .
N4 C27 H27 117.3 . .
C28 C27 H27 117.3 . .
C24 C28 C27 119.2(6) . .
C24 C28 H28 120.4 . .
C27 C28 H28 120.4 . .
C30 C29 C23 120.8(5) . .
C30 C29 H29 119.6 . .
C23 C29 H29 119.6 . .
N3 C30 C29 123.8(5) . .
N3 C30 H30 118.1 . .
C29 C30 H30 118.1 . .
N5 C31 C32 123.0(4) . .
N5 C31 H31 118.5 . .
C32 C31 H31 118.5 . .
C31 C32 C33 118.6(3) . .
C31 C32 H32 120.7 . .
C33 C32 H32 120.7 . .
C34 C33 C32 117.8(3) . .
C34 C33 C38 120.1(3) . 1_545
C32 C33 C38 122.1(3) . 1_545
C35 C34 C33 120.1(4) . .
C35 C34 H34 120.0 . .
C33 C34 H34 120.0 . .
N5 C35 C34 122.5(4) . .
N5 C35 H35 118.7 . .
C34 C35 H35 118.7 . .
N6 C36 C37 123.0(4) . .
N6 C36 H36 118.5 . .
C37 C36 H36 118.5 . .
C38 C37 C36 119.9(3) . .
C38 C37 H37 120.1 . .
C36 C37 H37 120.1 . .
C37 C38 C39 116.6(3) . .
C37 C38 C33 123.2(3) . 1_565
C39 C38 C33 120.2(3) . 1_565
C40 C39 C38 120.6(4) . .
C40 C39 H39 119.7 . .
C38 C39 H39 119.7 . .
N6 C40 C39 122.3(4) . .
N6 C40 H40 118.8 . .
C39 C40 H40 118.8 . .
O11 C51 N7 125.7(5) . .
O11 C51 H51 117.1 . .
N7 C51 H51 117.1 . .
N7 C52 H52A 109.5 . .
N7 C52 H52B 109.5 . .
H52A C52 H52B 109.5 . .
N7 C52 H52C 109.5 . .
H52A C52 H52C 109.5 . .
H52B C52 H52C 109.5 . .
N7 C53 H53A 109.5 . .
N7 C53 H53B 109.5 . .
H53A C53 H53B 109.5 . .
N7 C53 H53C 109.5 . .
H53A C53 H53C 109.5 . .
H53B C53 H53C 109.5 . .
C9 N1 C3 130.4(4) . .
C9 N1 H1 114.8 . .
C3 N1 H1 114.8 . .
C19 N2 C18 129.3(4) . .
C19 N2 H2 115.3 . .
C18 N2 H2 115.3 . .
C30 N3 C21 115.4(4) . .
C30 N3 Zn2 121.2(3) . .
C21 N3 Zn2 123.2(3) . .
C27 N4 C26 115.0(6) . .
C35 N5 C31 118.0(3) . .
C35 N5 Zn1 119.7(2) . .
C31 N5 Zn1 122.2(2) . .
C40 N6 C36 117.6(3) . .
C40 N6 Zn1 117.6(2) . .
C36 N6 Zn1 124.8(2) . .
C51 N7 C52 121.3(5) . .
C51 N7 C53 122.4(5) . .
C52 N7 C53 116.3(5) . .
C1 O1 Zn2 112.9(3) . .
C6 O3 Zn1 86.4(2) . 3_666
C6 O4 Zn1 92.0(2) . 3_666
C11 O6 Zn2 115.3(3) . .
C16 O8 Zn1 131.7(2) . 3_665
C16 O9 Zn1 156.1(3) . .
C51 O11 Zn2 117.5(4) . .
Zn2 O12 H12A 130.00 . .
Zn2 O12 H12B 119.00 . .
H12A O12 H12B 101.00 . .
O8 Zn1 O9 107.05(10) 3_665 .
O8 Zn1 N6 97.01(11) 3_665 .
O9 Zn1 N6 88.82(11) . .
O8 Zn1 N5 93.37(11) 3_665 .
O9 Zn1 N5 84.63(11) . .
N6 Zn1 N5 168.99(11) . .
O8 Zn1 O4 90.77(10) 3_665 3_666
O9 Zn1 O4 160.96(10) . 3_666
N6 Zn1 O4 95.72(11) . 3_666
N5 Zn1 O4 87.77(11) . 3_666
O8 Zn1 O3 149.83(11) 3_665 3_666
O9 Zn1 O3 102.51(11) . 3_666
N6 Zn1 O3 89.41(10) . 3_666
N5 Zn1 O3 83.40(10) . 3_666
O4 Zn1 O3 59.19(10) 3_666 3_666
O8 Zn1 C6 120.43(13) 3_665 3_666
O9 Zn1 C6 131.54(13) . 3_666
N6 Zn1 C6 94.27(11) . 3_666
N5 Zn1 C6 83.55(11) . 3_666
O4 Zn1 C6 29.82(12) 3_666 3_666
O3 Zn1 C6 29.43(12) 3_666 3_666
O6 Zn2 O1 103.53(12) . .
O6 Zn2 N3 127.76(13) . .
O1 Zn2 N3 128.06(13) . .
O6 Zn2 O12 91.35(12) . .
O1 Zn2 O12 93.95(13) . .
N3 Zn2 O12 92.59(14) . .
O6 Zn2 O11 86.00(12) . .
O1 Zn2 O11 88.00(13) . .
N3 Zn2 O11 87.97(13) . .
O12 Zn2 O11 177.03(12) . .
loop_
_geom_bond_atom_site_label_1
_geom_bond_atom_site_label_2
_geom_bond_distance
_geom_bond_site_symmetry_2
C1 O2 1.245(5) .
C1 O1 1.267(5) .
C1 C2 1.502(5) .
C2 C8 1.382(6) .
C2 C3 1.409(5) .
C3 C4 1.386(5) .
C3 N1 1.403(5) .
C4 C5 1.377(6) .
C4 H4 0.9300 .
C5 C7 1.390(5) .
C5 C6 1.506(5) .
C6 O3 1.252(5) .
C6 O4 1.266(5) .
C6 Zn1 2.544(4) 3_666
C7 C8 1.379(5) .
C7 H7 0.9300 .
C8 H8 0.9300 .
C9 O5 1.199(6) .
C9 N1 1.349(6) .
C9 C10 1.520(8) .
C10 H10A 0.9600 .
C10 H10B 0.9600 .
C10 H10C 0.9600 .
C11 O7 1.232(5) .
C11 O6 1.281(5) .
C11 C12 1.509(5) .
C12 C13 1.382(6) .
C12 C18 1.411(5) .
C13 C14 1.382(5) .
C13 H13 0.9300 .
C14 C15 1.385(5) .
C14 H14 0.9300 .
C15 C17 1.378(5) .
C15 C16 1.499(5) .
C16 O9 1.245(4) .
C16 O8 1.269(4) .
C17 C18 1.386(5) .
C17 H17 0.9300 .
C18 N2 1.400(5) .
C19 O10 1.215(5) .
C19 N2 1.356(6) .
C19 C20 1.514(7) .
C20 H20A 0.9600 .
C20 H20B 0.9600 .
C20 H20C 0.9600 .
C21 N3 1.347(6) .
C21 C22 1.381(6) .
C21 H21 0.9300 .
C22 C23 1.382(7) .
C22 H22 0.9300 .
C23 C29 1.386(7) .
C23 C24 1.492(7) .
C24 C28 1.368(7) .
C24 C25 1.366(7) .
C25 C26 1.392(8) .
C25 H25 0.9300 .
C26 N4 1.319(8) .
C26 H26 0.9300 .
C27 N4 1.305(8) .
C27 C28 1.384(8) .
C27 H27 0.9300 .
C28 H28 0.9300 .
C29 C30 1.383(7) .
C29 H29 0.9300 .
C30 N3 1.330(6) .
C30 H30 0.9300 .
C31 N5 1.332(5) .
C31 C32 1.381(5) .
C31 H31 0.9300 .
C32 C33 1.390(5) .
C32 H32 0.9300 .
C33 C34 1.376(5) .
C33 C38 1.485(5) 1_545
C34 C35 1.366(5) .
C34 H34 0.9300 .
C35 N5 1.332(5) .
C35 H35 0.9300 .
C36 N6 1.331(5) .
C36 C37 1.379(5) .
C36 H36 0.9300 .
C37 C38 1.372(5) .
C37 H37 0.9300 .
C38 C39 1.380(5) .
C38 C33 1.485(5) 1_565
C39 C40 1.376(5) .
C39 H39 0.9300 .
C40 N6 1.327(5) .
C40 H40 0.9300 .
C51 O11 1.231(6) .
C51 N7 1.320(6) .
C51 H51 0.9300 .
C52 N7 1.433(7) .
C52 H52A 0.9600 .
C52 H52B 0.9600 .
C52 H52C 0.9600 .
C53 N7 1.456(7) .
C53 H53A 0.9600 .
C53 H53B 0.9600 .
C53 H53C 0.9600 .
N1 H1 0.8600 .
N2 H2 0.8600 .
N3 Zn2 2.048(4) .
N5 Zn1 2.154(3) .
N6 Zn1 2.154(3) .
O1 Zn2 1.980(3) .
O3 Zn1 2.294(3) 3_666
O4 Zn1 2.163(3) 3_666
O6 Zn2 1.960(3) .
O8 Zn1 2.019(2) 3_665
O9 Zn1 2.041(3) .
O11 Zn2 2.347(3) .
O12 Zn2 2.141(3) .
O12 H12A 0.910 .
O12 H12B 1.010 .
Zn1 O8 2.019(2) 3_665
Zn1 O4 2.163(3) 3_666
Zn1 O3 2.294(3) 3_666
Zn1 C6 2.544(4) 3_666
loop_
_geom_hbond_atom_site_label_D
_geom_hbond_atom_site_label_H
_geom_hbond_atom_site_label_A
_geom_hbond_distance_DH
_geom_hbond_distance_HA
_geom_hbond_distance_DA
_geom_hbond_angle_DHA
_geom_hbond_site_symmetry_A
N1 H1 O2 0.86 1.90 2.611(5) 138.9 .
N2 H2 O7 0.86 1.90 2.616(4) 139.4 .
O12 H12A O4 0.910 2.070 2.971(4) 171.4(2) 4_575
O12 H12B O10 1.010 1.830 2.810(5) 160.9(2) 4_576
