#------------------------------------------------------------------------------
#$Date: 2016-03-25 23:05:32 +0200 (Fri, 25 Mar 2016) $
#$Revision: 180025 $
#$URL: svn://www.crystallography.net/cod/cif/7/03/19/7031997.cif $
#------------------------------------------------------------------------------
#
# This file is available in the Crystallography Open Database (COD),
# http://www.crystallography.net/
#
# All data on this site have been placed in the public domain by the
# contributors.
#
data_7031997
loop_
_publ_author_name
'Liu, Dan'
'Liu, Xiaojuan'
'Liu, Yongxin'
'Yu, Yang'
'Chen, Fanglin'
'Wang, Cheng'
_publ_section_title
;
 Host-guest interaction dictated selective adsorption and fluorescence
 quenching of a luminescent lightweight metal-organic framework toward
 liquid explosives.
;
_journal_issue                   40
_journal_name_full
'Dalton transactions (Cambridge, England : 2003)'
_journal_page_first              15237
_journal_page_last               15244
_journal_paper_doi               10.1039/c4dt01883d
_journal_volume                  43
_journal_year                    2014
_chemical_formula_moiety         'C32 H30 Mg2 N4 O12'
_chemical_formula_sum            'C32 H30 Mg2 N4 O12'
_chemical_formula_weight         711.22
_chemical_melting_point          ?
_chemical_name_systematic
;
 ?
;
_space_group_crystal_system      monoclinic
_space_group_IT_number           15
_space_group_name_Hall           '-C 2yc'
_space_group_name_H-M_alt        'C 1 2/c 1'
_symmetry_space_group_name_Hall  '-C 2yc'
_symmetry_space_group_name_H-M   'C 1 2/c 1'
_atom_sites_solution_hydrogens   geom
_audit_creation_method           SHELXL-2013
_cell_angle_alpha                90
_cell_angle_beta                 130.542(3)
_cell_angle_gamma                90
_cell_formula_units_Z            4
_cell_length_a                   18.510(5)
_cell_length_b                   16.894(4)
_cell_length_c                   13.924(6)
_cell_measurement_reflns_used    3258
_cell_measurement_temperature    293(2)
_cell_measurement_theta_max      26.092
_cell_measurement_theta_min      3.086
_cell_volume                     3308.8(19)
_computing_cell_refinement       'Bruker SMART'
_computing_data_collection       'Bruker SMART'
_computing_data_reduction        'Bruker SAINT'
_computing_molecular_graphics    SHELXP-97
_computing_publication_material  SHELXTL
_computing_structure_refinement  'SHELXL-2013 (Sheldrick, 2013)'
_computing_structure_solution    'SHELXS-97 (Sheldrick, 1990)'
_diffrn_ambient_temperature      293(2)
_diffrn_detector_area_resol_mean 9.00cm
_diffrn_measured_fraction_theta_full 0.989
_diffrn_measured_fraction_theta_max 0.989
_diffrn_measurement_device_type  'CCD area detector'
_diffrn_measurement_method       'phi and omega scans'
_diffrn_radiation_type           MoK\a
_diffrn_radiation_wavelength     0.71073
_diffrn_reflns_av_R_equivalents  0.0366
_diffrn_reflns_av_unetI/netI     0.0424
_diffrn_reflns_Laue_measured_fraction_full 0.989
_diffrn_reflns_Laue_measured_fraction_max 0.989
_diffrn_reflns_limit_h_max       17
_diffrn_reflns_limit_h_min       -22
_diffrn_reflns_limit_k_max       17
_diffrn_reflns_limit_k_min       -20
_diffrn_reflns_limit_l_max       17
_diffrn_reflns_limit_l_min       -13
_diffrn_reflns_number            9006
_diffrn_reflns_point_group_measured_fraction_full 0.989
_diffrn_reflns_point_group_measured_fraction_max 0.989
_diffrn_reflns_theta_full        25.242
_diffrn_reflns_theta_max         26.092
_diffrn_reflns_theta_min         3.086
_diffrn_source                   'fine-focus sealed tube'
_exptl_absorpt_coefficient_mu    0.143
_exptl_absorpt_correction_T_max  0.9692
_exptl_absorpt_correction_T_min  0.9428
_exptl_absorpt_correction_type   empirical
_exptl_absorpt_process_details   SADABS
_exptl_crystal_colour            yellow
_exptl_crystal_density_diffrn    1.428
_exptl_crystal_density_meas      ?
_exptl_crystal_density_method    'not measured'
_exptl_crystal_description       block
_exptl_crystal_F_000             1480
_exptl_crystal_size_max          0.37
_exptl_crystal_size_mid          0.33
_exptl_crystal_size_min          0.29
_refine_diff_density_max         0.733
_refine_diff_density_min         -0.464
_refine_diff_density_rms         0.076
_refine_ls_extinction_method     none
_refine_ls_goodness_of_fit_ref   1.051
_refine_ls_hydrogen_treatment    noref
_refine_ls_matrix_type           full
_refine_ls_number_parameters     256
_refine_ls_number_reflns         3258
_refine_ls_number_restraints     38
_refine_ls_restrained_S_all      1.070
_refine_ls_R_factor_all          0.0717
_refine_ls_R_factor_gt           0.0565
_refine_ls_shift/su_max          0.000
_refine_ls_shift/su_mean         0.000
_refine_ls_structure_factor_coef Fsqd
_refine_ls_weighting_details
'w=1/[\s^2^(Fo^2^)+(0.1085P)^2^+2.5892P] where P=(Fo^2^+2Fc^2^)/3'
_refine_ls_weighting_scheme      calc
_refine_ls_wR_factor_gt          0.1638
_refine_ls_wR_factor_ref         0.1782
_reflns_Friedel_coverage         0.000
_reflns_number_gt                2546
_reflns_number_total             3258
_reflns_threshold_expression     'I > 2\s(I)'
_cod_data_source_file            c4dt01883d2.cif
_cod_data_source_block           1
_cod_depositor_comments
;
The following automatic conversions were performed:

'_chemical_melting_point' value 'not measured' was changed to '?' -
the value is undefined or not given.

Automatic conversion script
Id: cif_fix_values 2281 2013-09-26 08:29:07Z andrius 

 Adding full bibliography for 7031997--7032004.cif.

The following automatic conversions were performed:

'_exptl_crystal_density_meas' value 'none' was changed to '?' - the
value is perceived as not measured.

Automatic conversion script
Id: cif_fix_values 3008 2015-01-20 13:52:24Z robertas 
;
_cod_original_cell_volume        3308.8(18)
_cod_database_code               7031997
#BEGIN Tags that were not found in dictionaries:
_shelx_space_group_comment
;
The symmetry employed for this shelxl refinement is uniquely defined
by the following loop, which should always be used as a source of
symmetry information in preference to the above space-group names.
They are only intended as comments.
;
_shelxl_version_number           2013-3
_shelx_res_file
;
TITL sad in C2/c
CELL 0.71073  18.5103  16.8941  13.9237  90.000 130.542  90.000
ZERR    4.00   0.0046   0.0040   0.0057   0.000   0.003   0.000
LATT  7
SYMM -X, Y, 0.5-Z
SFAC C H N O Mg
UNIT 128 120 16 48 8
omit     0   2   0
omit    -2   0   2
omit     2   0   0
omit    -3   1   1
omit    -4   2   4
omit    -3   1   2
omit     1   3   1
omit    -2   2   1
omit     3   1   1
omit    -1   3   1
omit    -1   1   2
omit    -2   4   1
omit     4   2   0
omit    -1   5   1
omit    -2   2   4
omit    -3   3   1
omit    -3   3   3
omit    -4   0   4
omit    -1   1   1
omit    -1   1   3
omit     2   2   0
omit    -3   3   2
omit     0   2   2
omit     0   4   1
omit     1   1   0
omit     1   5   0
omit     0   4   2
omit     2   2   1

L.S. 50
BOND $h
acta
htab
dfix 1.4 0.02 n2 c14
dfix 1.5 0.02 n2 c15
dfix 1.4 0.02 n2 c16
dfix 1.4 0.02 o6 c16
dfix 1.4 0.02 n2' c14'
dfix 1.5 0.02 n2' c15'
dfix 1.4 0.02 n2' c16'
dfix 1.4 0.02 o6' c16'
exyz n2 n2'
exyz o6 o6'
eadp n2 n2'
eadp o6 o6'
isor 0.01 0.01 c14 c14' c15 c15' c16
EQIV $1 x, -y+1, z-1/2
HTAB C9 O3_$1
EQIV $2 -x+1, y, -z+1/2
HTAB C10 O6_$2
EQIV $3 x, -y, z-1/2
HTAB C12 O6_$3
EQIV $4 x-1/2, -y+1/2, z-1/2
HTAB C13 O2_$4
FMAP 2
PLAN -20

REM  sad in C2/c
REM R1 =  0.0655 for   2546 Fo > 4sig(Fo)  and  0.0806 for all   3258 data
REM    210 parameters refined using     30 restraints

WGHT    0.108500    2.589200
FVAR       0.12729   0.53013
MG1   5    0.500000    0.307903    0.250000    10.50000    0.01755    0.01606 =
         0.01848    0.00000    0.01001    0.00000
MG2   5    0.750000    0.250000    0.500000    10.50000    0.01725    0.01306 =
         0.01886    0.00222    0.01097    0.00107
O1    4    0.588396    0.391307    0.380598    11.00000    0.02646    0.02423 =
         0.02607   -0.00757    0.00979   -0.00173
O2    4    0.730607    0.353184    0.558481    11.00000    0.02949    0.02438 =
         0.02908   -0.00240    0.01613    0.00599
O3    4    0.575999    0.697972    0.692392    11.00000    0.02702    0.03069 =
         0.02761    0.00191    0.01860    0.00744
O4    4    0.730305    0.685903    0.857974    11.00000    0.02439    0.03134 =
         0.02519   -0.00966    0.01452   -0.00294
O5    4    0.400786    0.219897    0.112326    11.00000    0.02019    0.02340 =
         0.03338   -0.01255    0.01524   -0.00156
N1    3    0.426689    0.159493    0.079056    11.00000    0.01712    0.02612 =
         0.02694   -0.00899    0.01107    0.00136
C1    1    0.664939    0.473050    0.558646    11.00000    0.02354    0.02263 =
         0.02704   -0.00589    0.01422   -0.00202
C2    1    0.588287    0.523712    0.494491    11.00000    0.03259    0.03875 =
         0.02536   -0.00847    0.00697    0.00921
AFIX  41
H2    2    0.537027    0.514908    0.409387    11.00000   10.08000
AFIX   0
C3    1    0.586743    0.587507    0.555266    11.00000    0.03449    0.03693 =
         0.02982   -0.00400    0.01113    0.01517
AFIX  41
H3    2    0.533983    0.620667    0.510884    11.00000   10.08000
AFIX   0
C4    1    0.662450    0.602622    0.680902    11.00000    0.02354    0.02513 =
         0.02567   -0.00398    0.01465    0.00105
C5    1    0.739801    0.553258    0.743606    11.00000    0.02832    0.05410 =
         0.02900   -0.01770    0.00338    0.01220
AFIX  41
H5    2    0.792251    0.563482    0.827654    11.00000   10.08000
AFIX   0
C6    1    0.741040    0.488416    0.683734    11.00000    0.02987    0.04706 =
         0.03165   -0.01310    0.00573    0.01630
AFIX  41
H6    2    0.793625    0.455056    0.728343    11.00000   10.08000
AFIX   0
C7    1    0.661101    0.400002    0.493792    11.00000    0.02444    0.02226 =
         0.02700   -0.00255    0.01624   -0.00195
C8    1    0.656454    0.667745    0.749348    11.00000    0.02434    0.02273 =
         0.02557   -0.00096    0.01757   -0.00105
C9    1    0.462952    0.173482    0.023206    11.00000    0.04797    0.02914 =
         0.06073   -0.01310    0.04243   -0.00894
AFIX  41
H9    2    0.468380    0.225167    0.005570    11.00000   10.08000
AFIX   0
C10   1    0.492157    0.111443   -0.008060    11.00000    0.04985    0.03587 =
         0.06491   -0.01896    0.04584   -0.00860
AFIX  41
H10   2    0.517429    0.121654   -0.046686    11.00000   10.08000
AFIX   0
C11   1    0.484615    0.033851    0.016963    11.00000    0.02199    0.03091 =
         0.03016   -0.00826    0.01296    0.00350
C12   1    0.443987    0.022443    0.071692    11.00000    0.04962    0.02708 =
         0.04720    0.00106    0.03367    0.01009
AFIX  41
H12   2    0.436378   -0.028698    0.088609    11.00000   10.08000
AFIX   0
C13   1    0.414881    0.085656    0.101186    11.00000    0.04288    0.02792 =
         0.03895    0.00140    0.02832    0.00879
AFIX  41
H13   2    0.386905    0.077057    0.136623    11.00000   10.08000
AFIX   0
part 1
N2    3    0.217545    0.167233    0.369709    21.00000    0.14399    0.16448 =
         0.15176   -0.02244    0.10397   -0.03399
O6    4    0.366887    0.155563    0.571352    21.00000    0.16130    0.21833 =
         0.26726   -0.01323    0.14285    0.04109
C14   1    0.179913    0.124468    0.419926    21.00000    0.33570    0.35280 =
         0.36591    0.02320    0.23271   -0.03030
C15   1    0.166577    0.214293    0.247854    21.00000    0.19368    0.17774 =
         0.15149    0.02005    0.11385    0.00276
C16   1    0.314370    0.202120    0.450598    21.00000    0.24832    0.25368 =
         0.26617    0.01846    0.16647   -0.02541
part 2
N2'   3    0.217545    0.167233    0.369709   -21.00000    0.14399    0.16448 =
         0.15176   -0.02244    0.10397   -0.03399
O6'   4    0.366887    0.155563    0.571352   -21.00000    0.16130    0.21833 =
         0.26726   -0.01323    0.14285    0.04109
C14'  1    0.250036    0.217962    0.329161   -21.00000    0.11511    0.11385 =
         0.10873    0.01682    0.08065   -0.02317
C15'  1    0.122196    0.130470    0.285247   -21.00000    0.13129    0.18334 =
         0.15390   -0.00434    0.09510   -0.04975
C16'  1    0.273859    0.131616    0.492188   -21.00000    0.09619    0.13197 =
         0.07515    0.02641    0.04831    0.00805
part 0
HKLF 4

REM  sad in C2/c
REM R1 =  0.0565 for    2546 Fo > 4sig(Fo)  and  0.0717 for all    3258 data
REM    256 parameters refined using     38 restraints

END

WGHT      0.1085      2.5899

REM Instructions for potential hydrogen bonds
HTAB C9 O3_$1
HTAB C10 O6_$2
HTAB C12 O6_$3
HTAB C13 O2_$4

REM Highest difference peak  0.733,  deepest hole -0.464,  1-sigma level  0.076
Q1    1   0.0000  0.3662  0.2500  10.50000  0.05    0.73
Q2    1   0.1485  0.2428  0.3180  11.00000  0.05    0.67
Q3    1   0.3340  0.1853  0.6431  11.00000  0.05    0.44
Q4    1   0.1013  0.1850  0.3022  11.00000  0.05    0.40
Q5    1   0.0727  0.2167  0.2351  11.00000  0.05    0.31
Q6    1   0.1852  0.0979  0.3830  11.00000  0.05    0.29
Q7    1   0.1463  0.0971  0.3050  11.00000  0.05    0.28
Q8    1   0.7574  0.5312  0.7015  11.00000  0.05    0.24
Q9    1   0.1406  0.1604  0.2122  11.00000  0.05    0.23
Q10   1   0.1108  0.1723  0.2379  11.00000  0.05    0.23
Q11   1   0.3654  0.2478  0.0462  11.00000  0.05    0.21
Q12   1   0.0131  0.2624  0.1877  11.00000  0.05    0.20
Q13   1   0.4305  0.2447  0.1035  11.00000  0.05    0.19
Q14   1   0.4859  0.0297  0.0577  11.00000  0.05    0.18
Q15   1   0.6549  0.4327  0.5409  11.00000  0.05    0.18
Q16   1   0.5489  0.6411  0.4908  11.00000  0.05    0.18
Q17   1   0.6955  0.5530  0.7468  11.00000  0.05    0.18
Q18   1   0.7654  0.2393  0.6019  11.00000  0.05    0.17
Q19   1   0.2847  0.1601  0.2948  11.00000  0.05    0.17
Q20   1   0.6278  0.4776  0.5559  11.00000  0.05    0.17
;
_shelx_res_checksum              91833
#END Tags that were not found in dictionaries
loop_
_space_group_symop_operation_xyz
'x, y, z'
'-x, y, -z+1/2'
'x+1/2, y+1/2, z'
'-x+1/2, y+1/2, -z+1/2'
'-x, -y, -z'
'x, -y, z-1/2'
'-x+1/2, -y+1/2, -z'
'x+1/2, -y+1/2, z-1/2'
loop_
_atom_site_label
_atom_site_type_symbol
_atom_site_fract_x
_atom_site_fract_y
_atom_site_fract_z
_atom_site_U_iso_or_equiv
_atom_site_adp_type
_atom_site_occupancy
_atom_site_site_symmetry_order
_atom_site_calc_flag
_atom_site_refinement_flags_posn
_atom_site_refinement_flags_adp
_atom_site_refinement_flags_occupancy
_atom_site_disorder_assembly
_atom_site_disorder_group
Mg1 Mg 0.5000 0.30790(6) 0.2500 0.0186(3) Uani 1 2 d S T P . .
Mg2 Mg 0.7500 0.2500 0.5000 0.0170(3) Uani 1 2 d S . P . .
O1 O 0.58840(12) 0.39131(10) 0.38060(17) 0.0311(5) Uani 1 1 d . . . . .
O2 O 0.73061(13) 0.35318(10) 0.55848(17) 0.0298(4) Uani 1 1 d . . . . .
O3 O 0.57600(13) 0.69797(10) 0.69239(17) 0.0278(4) Uani 1 1 d . . . . .
O4 O 0.73030(12) 0.68590(10) 0.85797(16) 0.0282(4) Uani 1 1 d . . . . .
O5 O 0.40079(12) 0.21990(10) 0.11233(17) 0.0273(4) Uani 1 1 d . . . . .
N1 N 0.42669(14) 0.15949(12) 0.0791(2) 0.0258(5) Uani 1 1 d . . . . .
C1 C 0.66494(17) 0.47305(14) 0.5586(2) 0.0261(6) Uani 1 1 d . . . . .
C2 C 0.5883(2) 0.52371(18) 0.4945(3) 0.0411(7) Uani 1 1 d . . . . .
H2 H 0.5370 0.5149 0.4094 0.080 Uiso 1 1 calc . U . . .
C3 C 0.5867(2) 0.58751(17) 0.5553(3) 0.0411(8) Uani 1 1 d . . . . .
H3 H 0.5340 0.6207 0.5109 0.080 Uiso 1 1 calc . U . . .
C4 C 0.66245(17) 0.60262(15) 0.6809(2) 0.0258(6) Uani 1 1 d . . . . .
C5 C 0.7398(2) 0.5533(2) 0.7436(3) 0.0486(9) Uani 1 1 d . . . . .
H5 H 0.7923 0.5635 0.8277 0.080 Uiso 1 1 calc . U . . .
C6 C 0.7410(2) 0.48842(19) 0.6837(3) 0.0469(9) Uani 1 1 d . . . . .
H6 H 0.7936 0.4551 0.7283 0.080 Uiso 1 1 calc . U . . .
C7 C 0.66110(17) 0.40000(14) 0.4938(2) 0.0249(5) Uani 1 1 d . . . . .
C8 C 0.65645(17) 0.66775(14) 0.7493(2) 0.0232(5) Uani 1 1 d . . . . .
C9 C 0.4630(2) 0.17348(17) 0.0232(3) 0.0406(7) Uani 1 1 d . . . . .
H9 H 0.4684 0.2252 0.0056 0.080 Uiso 1 1 calc . U . . .
C10 C 0.4922(2) 0.11144(18) -0.0081(3) 0.0438(8) Uani 1 1 d . . . . .
H10 H 0.5174 0.1217 -0.0467 0.080 Uiso 1 1 calc . U . . .
C11 C 0.48461(18) 0.03385(15) 0.0170(3) 0.0307(6) Uani 1 1 d . . . . .
C12 C 0.4440(2) 0.02244(17) 0.0717(3) 0.0396(7) Uani 1 1 d . . . . .
H12 H 0.4364 -0.0287 0.0886 0.080 Uiso 1 1 calc . U . . .
C13 C 0.4149(2) 0.08566(16) 0.1012(3) 0.0353(6) Uani 1 1 d . . . . .
H13 H 0.3869 0.0771 0.1366 0.080 Uiso 1 1 calc . U . . .
N2 N 0.2175(5) 0.1672(4) 0.3697(7) 0.148(2) Uani 0.530(16) 1 d D . P A 1
O6 O 0.3669(6) 0.1556(5) 0.5714(9) 0.213(3) Uani 0.530(16) 1 d D . P A 1
C14 C 0.180(3) 0.124(2) 0.420(5) 0.35(2) Uani 0.530(16) 1 d D U P A 1
C15 C 0.1666(17) 0.2143(11) 0.2479(17) 0.173(8) Uani 0.530(16) 1 d D U P A 1
C16 C 0.3144(15) 0.2021(16) 0.451(2) 0.257(14) Uani 0.530(16) 1 d D U P A 1
N2' N 0.2175(5) 0.1672(4) 0.3697(7) 0.148(2) Uani 0.470(16) 1 d D . P A 2
O6' O 0.3669(6) 0.1556(5) 0.5714(9) 0.213(3) Uani 0.470(16) 1 d D . P A 2
C14' C 0.2500(11) 0.2180(8) 0.3292(15) 0.107(5) Uani 0.470(16) 1 d D U P A 2
C15' C 0.1222(11) 0.1305(13) 0.2852(18) 0.154(8) Uani 0.470(16) 1 d D U P A 2
C16' C 0.2739(10) 0.1316(8) 0.4922(11) 0.107(6) Uani 0.470(16) 1 d D . P A 2
loop_
_atom_site_aniso_label
_atom_site_aniso_U_11
_atom_site_aniso_U_22
_atom_site_aniso_U_33
_atom_site_aniso_U_23
_atom_site_aniso_U_13
_atom_site_aniso_U_12
Mg1 0.0176(6) 0.0161(6) 0.0185(6) 0.000 0.0100(5) 0.000
Mg2 0.0172(5) 0.0131(5) 0.0189(6) 0.0022(4) 0.0110(5) 0.0011(4)
O1 0.0265(9) 0.0242(9) 0.0261(9) -0.0076(7) 0.0098(8) -0.0017(7)
O2 0.0295(9) 0.0244(10) 0.0291(10) -0.0024(7) 0.0161(8) 0.0060(8)
O3 0.0270(9) 0.0307(10) 0.0276(9) 0.0019(7) 0.0186(8) 0.0074(7)
O4 0.0244(9) 0.0313(10) 0.0252(9) -0.0097(8) 0.0145(8) -0.0029(7)
O5 0.0202(9) 0.0234(9) 0.0334(10) -0.0125(8) 0.0152(8) -0.0016(7)
N1 0.0171(10) 0.0261(11) 0.0269(11) -0.0090(9) 0.0111(9) 0.0014(8)
C1 0.0235(12) 0.0226(13) 0.0270(13) -0.0059(10) 0.0142(11) -0.0020(10)
C2 0.0326(15) 0.0388(16) 0.0254(14) -0.0085(12) 0.0070(12) 0.0092(12)
C3 0.0345(16) 0.0369(16) 0.0298(15) -0.0040(12) 0.0111(13) 0.0152(13)
C4 0.0235(12) 0.0251(13) 0.0257(13) -0.0040(10) 0.0146(11) 0.0010(10)
C5 0.0283(15) 0.054(2) 0.0290(15) -0.0177(14) 0.0034(13) 0.0122(14)
C6 0.0299(15) 0.0471(18) 0.0316(16) -0.0131(13) 0.0057(13) 0.0163(13)
C7 0.0244(13) 0.0223(13) 0.0270(13) -0.0025(10) 0.0162(11) -0.0019(10)
C8 0.0243(12) 0.0227(12) 0.0256(13) -0.0010(10) 0.0176(11) -0.0011(10)
C9 0.0480(18) 0.0291(15) 0.061(2) -0.0131(14) 0.0424(17) -0.0089(13)
C10 0.0498(18) 0.0359(16) 0.065(2) -0.0190(15) 0.0458(18) -0.0086(14)
C11 0.0220(13) 0.0309(15) 0.0302(14) -0.0083(11) 0.0130(11) 0.0035(10)
C12 0.0496(18) 0.0271(15) 0.0472(18) 0.0011(13) 0.0337(16) 0.0101(13)
C13 0.0429(16) 0.0279(14) 0.0389(16) 0.0014(12) 0.0283(14) 0.0088(12)
N2 0.144(6) 0.164(6) 0.152(6) -0.022(5) 0.104(5) -0.034(5)
O6 0.161(6) 0.218(7) 0.267(9) -0.013(7) 0.143(7) 0.041(6)
C14 0.34(2) 0.35(2) 0.37(2) 0.023(10) 0.233(15) -0.030(10)
C15 0.194(12) 0.178(11) 0.151(11) 0.020(8) 0.114(9) 0.003(8)
C16 0.248(16) 0.254(17) 0.266(17) 0.018(9) 0.166(12) -0.025(9)
N2' 0.144(6) 0.164(6) 0.152(6) -0.022(5) 0.104(5) -0.034(5)
O6' 0.161(6) 0.218(7) 0.267(9) -0.013(7) 0.143(7) 0.041(6)
C14' 0.115(9) 0.114(8) 0.109(8) 0.017(6) 0.081(7) -0.023(6)
C15' 0.131(10) 0.183(11) 0.154(11) -0.004(8) 0.095(8) -0.050(7)
C16' 0.096(10) 0.132(11) 0.075(8) 0.026(8) 0.048(8) 0.008(8)
loop_
_atom_type_symbol
_atom_type_description
_atom_type_scat_dispersion_real
_atom_type_scat_dispersion_imag
_atom_type_scat_source
C C 0.0033 0.0016 'International Tables Vol C Tables 4.2.6.8 and 6.1.1.4'
H H 0.0000 0.0000 'International Tables Vol C Tables 4.2.6.8 and 6.1.1.4'
N N 0.0061 0.0033 'International Tables Vol C Tables 4.2.6.8 and 6.1.1.4'
O O 0.0106 0.0060 'International Tables Vol C Tables 4.2.6.8 and 6.1.1.4'
Mg Mg 0.0486 0.0363 'International Tables Vol C Tables 4.2.6.8 and 6.1.1.4'
loop_
_geom_angle_atom_site_label_1
_geom_angle_atom_site_label_2
_geom_angle_atom_site_label_3
_geom_angle
_geom_angle_site_symmetry_1
_geom_angle_site_symmetry_3
O3 Mg1 O3 174.38(11) 5_666 6_565
O3 Mg1 O1 91.49(8) 5_666 2_655
O3 Mg1 O1 92.42(8) 6_565 2_655
O3 Mg1 O1 92.42(8) 5_666 .
O3 Mg1 O1 91.49(8) 6_565 .
O1 Mg1 O1 91.83(11) 2_655 .
O3 Mg1 O5 84.79(8) 5_666 .
O3 Mg1 O5 91.35(7) 6_565 .
O1 Mg1 O5 87.56(7) 2_655 .
O1 Mg1 O5 177.12(7) . .
O3 Mg1 O5 91.35(7) 5_666 2_655
O3 Mg1 O5 84.79(8) 6_565 2_655
O1 Mg1 O5 177.12(7) 2_655 2_655
O1 Mg1 O5 87.56(7) . 2_655
O5 Mg1 O5 93.19(10) . 2_655
O3 Mg1 Mg2 65.89(6) 5_666 2_655
O3 Mg1 Mg2 112.49(6) 6_565 2_655
O1 Mg1 Mg2 63.28(5) 2_655 2_655
O1 Mg1 Mg2 145.03(6) . 2_655
O5 Mg1 Mg2 32.66(4) . 2_655
O5 Mg1 Mg2 118.46(6) 2_655 2_655
O3 Mg1 Mg2 112.49(6) 5_666 .
O3 Mg1 Mg2 65.89(6) 6_565 .
O1 Mg1 Mg2 145.03(6) 2_655 .
O1 Mg1 Mg2 63.28(5) . .
O5 Mg1 Mg2 118.46(6) . .
O5 Mg1 Mg2 32.66(4) 2_655 .
Mg2 Mg1 Mg2 149.17(3) 2_655 .
O2 Mg2 O2 180.0 7_656 .
O2 Mg2 O4 91.88(8) 7_656 6_565
O2 Mg2 O4 88.11(8) . 6_565
O2 Mg2 O4 88.12(8) 7_656 4_646
O2 Mg2 O4 91.89(8) . 4_646
O4 Mg2 O4 180.0 6_565 4_646
O2 Mg2 O5 90.58(7) 7_656 8_556
O2 Mg2 O5 89.42(7) . 8_556
O4 Mg2 O5 84.96(7) 6_565 8_556
O4 Mg2 O5 95.04(7) 4_646 8_556
O2 Mg2 O5 89.42(7) 7_656 2_655
O2 Mg2 O5 90.58(7) . 2_655
O4 Mg2 O5 95.04(7) 6_565 2_655
O4 Mg2 O5 84.96(7) 4_646 2_655
O5 Mg2 O5 180.00(7) 8_556 2_655
O2 Mg2 Mg1 73.31(5) 7_656 7_656
O2 Mg2 Mg1 106.69(5) . 7_656
O4 Mg2 Mg1 112.04(5) 6_565 7_656
O4 Mg2 Mg1 67.96(5) 4_646 7_656
O5 Mg2 Mg1 32.13(5) 8_556 7_656
O5 Mg2 Mg1 147.87(5) 2_655 7_656
O2 Mg2 Mg1 106.69(5) 7_656 .
O2 Mg2 Mg1 73.31(5) . .
O4 Mg2 Mg1 67.96(5) 6_565 .
O4 Mg2 Mg1 112.04(5) 4_646 .
O5 Mg2 Mg1 147.87(5) 8_556 .
O5 Mg2 Mg1 32.13(5) 2_655 .
Mg1 Mg2 Mg1 180.0 7_656 .
C7 O1 Mg1 142.56(17) . .
C7 O2 Mg2 127.64(16) . .
C8 O3 Mg1 125.10(16) . 5_666
C8 O4 Mg2 131.28(16) . 4_656
N1 O5 Mg1 122.98(13) . .
N1 O5 Mg2 120.53(13) . 2_655
Mg1 O5 Mg2 115.21(7) . 2_655
O5 N1 C13 119.0(2) . .
O5 N1 C9 119.8(2) . .
C13 N1 C9 121.2(2) . .
C6 C1 C2 118.6(2) . .
C6 C1 C7 121.6(2) . .
C2 C1 C7 119.6(2) . .
C1 C2 C3 120.7(2) . .
C1 C2 H2 119.7 . .
C3 C2 H2 119.7 . .
C4 C3 C2 120.8(2) . .
C4 C3 H3 119.6 . .
C2 C3 H3 119.6 . .
C5 C4 C3 118.3(2) . .
C5 C4 C8 121.1(2) . .
C3 C4 C8 120.4(2) . .
C4 C5 C6 121.1(3) . .
C4 C5 H5 119.5 . .
C6 C5 H5 119.5 . .
C1 C6 C5 120.4(3) . .
C1 C6 H6 119.8 . .
C5 C6 H6 119.8 . .
O1 C7 O2 126.2(2) . .
O1 C7 C1 116.5(2) . .
O2 C7 C1 117.3(2) . .
O4 C8 O3 125.5(2) . .
O4 C8 C4 118.2(2) . .
O3 C8 C4 116.3(2) . .
N1 C9 C10 119.9(3) . .
N1 C9 H9 120.0 . .
C10 C9 H9 120.0 . .
C9 C10 C11 121.1(3) . .
C9 C10 H10 119.4 . .
C11 C10 H10 119.4 . .
C10 C11 C12 116.6(2) . .
C10 C11 C11 121.7(3) . 5_655
C12 C11 C11 121.6(3) . 5_655
C13 C12 C11 120.9(3) . .
C13 C12 H12 119.5 . .
C11 C12 H12 119.5 . .
N1 C13 C12 120.1(3) . .
N1 C13 H13 119.9 . .
C12 C13 H13 119.9 . .
C14 N2 C16 123(2) . .
C14 N2 C15 130(2) . .
C16 N2 C15 101.9(13) . .
N2 C16 O6 103.0(13) . .
loop_
_geom_bond_atom_site_label_1
_geom_bond_atom_site_label_2
_geom_bond_distance
_geom_bond_site_symmetry_2
Mg1 O3 2.0246(18) 5_666
Mg1 O3 2.0246(18) 6_565
Mg1 O1 2.0251(19) 2_655
Mg1 O1 2.0252(19) .
Mg1 O5 2.1636(18) .
Mg1 O5 2.1636(18) 2_655
Mg1 Mg2 3.6807(8) 2_655
Mg1 Mg2 3.6807(8) .
Mg2 O2 2.0519(17) 7_656
Mg2 O2 2.0520(17) .
Mg2 O4 2.0686(18) 6_565
Mg2 O4 2.0686(18) 4_646
Mg2 O5 2.1955(17) 8_556
Mg2 O5 2.1955(17) 2_655
Mg2 Mg1 3.6807(8) 7_656
O1 C7 1.249(3) .
O2 C7 1.259(3) .
O3 C8 1.254(3) .
O3 Mg1 2.0246(18) 5_666
O4 C8 1.250(3) .
O4 Mg2 2.0685(18) 4_656
O5 N1 1.332(2) .
O5 Mg2 2.1955(17) 2_655
N1 C13 1.337(3) .
N1 C9 1.338(4) .
C1 C6 1.377(4) .
C1 C2 1.377(4) .
C1 C7 1.503(3) .
C2 C3 1.382(4) .
C2 H2 0.9300 .
C3 C4 1.379(4) .
C3 H3 0.9300 .
C4 C5 1.372(4) .
C4 C8 1.506(3) .
C5 C6 1.386(4) .
C5 H5 0.9300 .
C6 H6 0.9300 .
C9 C10 1.373(4) .
C9 H9 0.9300 .
C10 C11 1.387(4) .
C10 H10 0.9300 .
C11 C12 1.389(4) .
C11 C11 1.485(5) 5_655
C12 C13 1.374(4) .
C12 H12 0.9300 .
C13 H13 0.9300 .
N2 C14 1.459(19) .
N2 C16 1.485(17) .
N2 C15 1.523(15) .
O6 C16 1.505(17) .
loop_
_geom_hbond_atom_site_label_D
_geom_hbond_atom_site_label_H
_geom_hbond_atom_site_label_A
_geom_hbond_distance_DH
_geom_hbond_distance_HA
_geom_hbond_distance_DA
_geom_hbond_angle_DHA
_geom_hbond_site_symmetry_A
C9 H9 O3 0.93 2.38 2.870(3) 112.4 6_565
C10 H10 O6 0.93 2.45 3.336(7) 160.0 2_655
C12 H12 O6 0.93 2.43 3.327(8) 162.2 6
C13 H13 O2 0.93 2.62 3.228(3) 123.7 8_455
