#------------------------------------------------------------------------------
#$Date: 2017-03-02 17:12:34 +0200 (Thu, 02 Mar 2017) $
#$Revision: 192777 $
#$URL: file:///home/coder/svn-repositories/cod/cif/7/03/27/7032764.cif $
#------------------------------------------------------------------------------
#
# This file is available in the Crystallography Open Database (COD),
# http://www.crystallography.net/
#
# All data on this site have been placed in the public domain by the
# contributors.
#
data_7032764
loop_
_publ_author_name
'Sim, Jaeung'
'Yim, Haneul'
'Ko, Nakeun'
'Choi, Sang Beom'
'Oh, Youjin'
'Park, Hye Jeong'
'Park, SangYoun'
'Kim, Jaheon'
_publ_section_title
;
 Gas adsorption properties of highly porous metal-organic frameworks
 containing functionalized naphthalene dicarboxylate linkers.
;
_journal_issue                   48
_journal_name_full
'Dalton transactions (Cambridge, England : 2003)'
_journal_page_first              18017
_journal_page_last               18024
_journal_paper_doi               10.1039/c4dt02300e
_journal_volume                  43
_journal_year                    2014
_chemical_formula_moiety         'C12 H7 N O6, C3 H7 N O'
_chemical_formula_sum            'C15 H14 N2 O7'
_chemical_formula_weight         334.28
_chemical_name_common            H2NDC-NO2
_chemical_name_systematic
; 
1-Nitronaphthlanene-3,7-dicarboxylic acid 
;
_space_group_IT_number           15
_symmetry_cell_setting           monoclinic
_symmetry_space_group_name_Hall  '-C 2yc'
_symmetry_space_group_name_H-M   'C 1 2/c 1'
_atom_sites_solution_hydrogens   geom
_atom_sites_solution_primary     direct
_atom_sites_solution_secondary   difmap
_audit_creation_method           SHELXL-97
_cell_angle_alpha                90.00
_cell_angle_beta                 106.07(3)
_cell_angle_gamma                90.00
_cell_formula_units_Z            8
_cell_length_a                   23.991(5)
_cell_length_b                   5.7460(10)
_cell_length_c                   21.791(4)
_cell_measurement_temperature    100(2)
_cell_volume                     2886.6(10)
_computing_cell_refinement       'PAL ADSC Quantum-210 ADX Program'
_computing_data_collection       HKL3000
_computing_data_reduction        HKL3000
_computing_molecular_graphics    'SHELX-TL XP'
_computing_publication_material  'SHELX-TL XCIF'
_computing_structure_refinement  'SHELXL-97 (Sheldrick, 1997)'
_computing_structure_solution    'SHELXS-97 (Sheldrick, 1990)'
_diffrn_ambient_temperature      100(2)
_diffrn_measured_fraction_theta_full 0.971
_diffrn_measured_fraction_theta_max 0.971
_diffrn_measurement_device_type  'ADSC Q210 CCD area detector'
_diffrn_measurement_method       'omega scan'
_diffrn_radiation_monochromator  'Si(111) double crystal monochromator'
_diffrn_radiation_source         'PLSII 2D-SMC bending magnet'
_diffrn_radiation_type           synchrotron
_diffrn_radiation_wavelength     0.70000
_diffrn_reflns_av_R_equivalents  0.0899
_diffrn_reflns_av_sigmaI/netI    0.0728
_diffrn_reflns_limit_h_max       33
_diffrn_reflns_limit_h_min       -34
_diffrn_reflns_limit_k_max       8
_diffrn_reflns_limit_k_min       0
_diffrn_reflns_limit_l_max       30
_diffrn_reflns_limit_l_min       -30
_diffrn_reflns_number            7410
_diffrn_reflns_theta_full        30.00
_diffrn_reflns_theta_max         30.00
_diffrn_reflns_theta_min         3.48
_exptl_absorpt_coefficient_mu    0.120
_exptl_absorpt_correction_type   none
_exptl_crystal_colour            colourless
_exptl_crystal_density_diffrn    1.538
_exptl_crystal_density_method    'not measured'
_exptl_crystal_description       needle
_exptl_crystal_F_000             1392
_exptl_crystal_recrystallization_method 'Re-crystallisation from solvent: DMF'
_exptl_crystal_size_max          0.30
_exptl_crystal_size_mid          0.10
_exptl_crystal_size_min          0.05
_refine_diff_density_max         0.778
_refine_diff_density_min         -0.929
_refine_diff_density_rms         0.212
_refine_ls_extinction_coef       0.212(15)
_refine_ls_extinction_expression Fc^*^=kFc[1+0.001xFc^2^\l^3^/sin(2\q)]^-1/4^
_refine_ls_extinction_method     SHELXL
_refine_ls_goodness_of_fit_ref   1.234
_refine_ls_hydrogen_treatment    mixed
_refine_ls_matrix_type           full
_refine_ls_number_parameters     222
_refine_ls_number_reflns         4283
_refine_ls_number_restraints     0
_refine_ls_restrained_S_all      1.234
_refine_ls_R_factor_all          0.1032
_refine_ls_R_factor_gt           0.0679
_refine_ls_shift/su_max          0.000
_refine_ls_shift/su_mean         0.000
_refine_ls_structure_factor_coef Fsqd
_refine_ls_weighting_details
'calc w=1/[\s^2^(Fo^2^)+(0.1317P)^2^+0.8679P] where P=(Fo^2^+2Fc^2^)/3'
_refine_ls_weighting_scheme      calc
_refine_ls_wR_factor_gt          0.1770
_refine_ls_wR_factor_ref         0.2108
_reflns_number_gt                3902
_reflns_number_total             4283
_reflns_threshold_expression     >2sigma(I)
_iucr_refine_instructions_details
;
TITL H2NDC_NO2 in C2/c synchrotron _shelx_res_file
CELL 0.70000 23.991 5.746 21.791 90 106.07 90
ZERR 8        0.005 0.001  0.004  0   0.03  0
LATT 7
SYMM -X,+Y,0.5-Z
 
SFAC C H N O
DISP C 0.003 0.002 11.182
DISP H -0 0 0.623
DISP N 0.006 0.003 18.982
DISP O 0.011 0.006 31.371
UNIT 120 112 16 56
 
L.S. 12
ACTA
SHEL 999 0.70
PLAN  10
BOND $H
EQIV $9 -x, y-1, -z+1/2
EQIV $10 -x+1/2, -y+7/2, -z
HTAB O2 O7_$9
HTAB O4 O3_$10
MPLA C1 C2 C3 C4 C9 C10
MPLA N1 O5 O6
FMAP 2
TEMP -173
MORE -1
CONF
WGHT    0.131700    0.867900
EXTI    0.212471
FVAR       1.01509
O1    4    0.005537    0.359029    0.089627    11.00000    0.02270    0.03288 =
         0.02184    0.00343   -0.00143   -0.00914
O2    4    0.080166    0.245490    0.171252    11.00000    0.02235    0.02434 =
         0.02117    0.00372    0.00171   -0.00449
AFIX 147
H2    2    0.057806    0.134232    0.172543    11.00000   -1.50000
AFIX   0
O3    4    0.251492    1.542435    0.051698    11.00000    0.02498    0.02608 =
         0.02204    0.00241    0.00141   -0.00604
O4    4    0.182303    1.600601   -0.039981    11.00000    0.02737    0.02805 =
         0.02123    0.00674    0.00198   -0.00629
AFIX 147
H4    2    0.204855    1.707458   -0.044189    11.00000   -1.50000
AFIX   0
O5    4    0.240930    0.803280    0.248807    11.00000    0.02786    0.02974 =
         0.01682    0.00365   -0.00208   -0.00673
O6    4    0.278343    0.895218    0.172032    11.00000    0.01679    0.02785 =
         0.02646   -0.00092    0.00379   -0.00116
 
O7    4   -0.011498    0.905828    0.322941    11.00000    0.02417    0.02430 =
         0.02988   -0.00288    0.00874    0.00148
N1    3    0.237099    0.839272    0.192142    11.00000    0.01845    0.01800 =
         0.01801   -0.00016    0.00016   -0.00077
N2    3    0.081983    0.846299    0.321150    11.00000    0.02080    0.02383 =
         0.02067   -0.00095    0.00336    0.00203
C1    1    0.072763    0.720062    0.060847    11.00000    0.01888    0.02204 =
         0.01528   -0.00052    0.00189   -0.00279
AFIX  43
H1    2    0.036184    0.687432    0.031562    11.00000   -1.20000
AFIX   0
C2    1    0.092368    0.583026    0.114080    11.00000    0.01797    0.02025 =
         0.01489   -0.00172    0.00298   -0.00233
C3    1    0.146953    0.628466    0.158011    11.00000    0.01959    0.01962 =
         0.01439   -0.00034    0.00240   -0.00059
AFIX  43
H3    2    0.160555    0.535497    0.195211    11.00000   -1.20000
AFIX   0
C4    1    0.179872    0.808900    0.145983    11.00000    0.01597    0.01932 =
         0.01459   -0.00140    0.00106   -0.00062
C5    1    0.193043    1.152443    0.078783    11.00000    0.01865    0.02006 =
         0.01597   -0.00117    0.00360   -0.00105
AFIX  43
H5    2    0.229968    1.189089    0.106805    11.00000   -1.20000
AFIX   0
C6    1    0.170119    1.288466    0.025488    11.00000    0.02061    0.02010 =
         0.01537   -0.00092    0.00481   -0.00138
C7    1    0.114938    1.240085   -0.016965    11.00000    0.02476    0.02381 =
         0.01471    0.00132    0.00175   -0.00188
AFIX  43
H7    2    0.099638    1.336353   -0.053160    11.00000   -1.20000
AFIX   0
C8    1    0.083831    1.053259   -0.005370    11.00000    0.02105    0.02431 =
         0.01602    0.00139    0.00084   -0.00220
AFIX  43
H8    2    0.046943    1.019833   -0.033932    11.00000   -1.20000
AFIX   0
C9    1    0.106049    0.908905    0.048834    11.00000    0.01840    0.02131 =
         0.01450   -0.00061    0.00209   -0.00121
C10   1    0.161680    0.958550    0.091781    11.00000    0.01828    0.01907 =
         0.01365   -0.00112    0.00279   -0.00030
C11   1    0.055035    0.385502    0.123587    11.00000    0.02144    0.02176 =
         0.01551   -0.00150    0.00357   -0.00340
C12   1    0.205023    1.488949    0.013704    11.00000    0.02384    0.01971 =
         0.01556    0.00025    0.00523   -0.00089
 
C13   1    0.038576    0.976434    0.327951    11.00000    0.02345    0.02241 =
         0.02033   -0.00043    0.00404    0.00223
AFIX  43
H13   2    0.046274    1.136596    0.337417    11.00000   -1.20000
AFIX   0
C14   1    0.074797    0.600678    0.307210    11.00000    0.02877    0.02394 =
         0.03977   -0.00548    0.01035    0.00408
AFIX 137
H14A  2    0.038055    0.547593    0.313781    11.00000   -1.50000
H14B  2    0.106978    0.514534    0.335658    11.00000   -1.50000
H14C  2    0.074480    0.573201    0.262730    11.00000   -1.50000
AFIX   0
C15   1    0.137931    0.946221    0.323908    11.00000    0.02442    0.03662 =
         0.05977   -0.00861    0.01209   -0.00273
AFIX 137
H15A  2    0.137439    1.113041    0.333102    11.00000   -1.50000
H15B  2    0.146344    0.923686    0.282791    11.00000   -1.50000
H15C  2    0.167934    0.869668    0.357700    11.00000   -1.50000
HKLF 4
 
REM  H2NDC_NO2 in C2/c synchrotron
REM R1 =  0.0679 for   3902 Fo > 4sig(Fo)  and  0.1032 for all   4283 data
REM    222 parameters refined using      0 restraints
 
END  
     
WGHT      0.1353      0.8754 
REM Highest difference peak  0.778,  deepest hole -0.929,  1-sigma level  0.212
Q1    1   0.1281  0.4202  0.1887  11.00000  0.05    0.78
Q2    1   0.0938  0.9644  0.0239  11.00000  0.05    0.72
Q3    1   0.1003  0.8875  0.3463  11.00000  0.05    0.68
Q4    1   0.0314  0.7866  0.3200  11.00000  0.05    0.68
Q5    1   0.1662  0.9075  0.1128  11.00000  0.05    0.68
Q6    1   0.2384  1.2399  0.0989  11.00000  0.05    0.66
Q7    1   0.1605  1.7748 -0.0587  11.00000  0.05    0.66
Q8    1   0.2386  1.0639  0.1981  11.00000  0.05    0.65
Q9    1   0.2148  1.4358 -0.0681  11.00000  0.05    0.64
Q10   1   0.1588  0.6539  0.3876  11.00000  0.05    0.64
;
_cod_data_source_file            c4dt02300e2.cif
_cod_data_source_block           ndc2
_cod_depositor_comments
;Adding full bibliography for 7032761--7032764.cif.

The following automatic conversions were performed:
'_symmetry_space_group_it_number' data item was removed -- it should
have been renamed to '_space_group_IT_number' as specified in the
replacement file
'/home/antanas/src/cod-tools/trunk/data/replacement-values/replacement_tags.lst',
but the replacement data item was already present in the data block
and had the same value as the '_symmetry_space_group_it_number' data
item.

Automatic conversion script
Id: cif_correct_tags 4998 2017-03-02 13:24:31Z antanas 
;
_cod_original_cell_volume        2886.6(9)
_cod_original_sg_symbol_H-M      'C 2/c'
_cod_database_code               7032764
loop_
_symmetry_equiv_pos_as_xyz
'x, y, z'
'-x, y, -z+1/2'
'x+1/2, y+1/2, z'
'-x+1/2, y+1/2, -z+1/2'
'-x, -y, -z'
'x, -y, z-1/2'
'-x+1/2, -y+1/2, -z'
'x+1/2, -y+1/2, z-1/2'
loop_
_atom_site_label
_atom_site_type_symbol
_atom_site_fract_x
_atom_site_fract_y
_atom_site_fract_z
_atom_site_U_iso_or_equiv
_atom_site_adp_type
_atom_site_occupancy
_atom_site_symmetry_multiplicity
_atom_site_calc_flag
_atom_site_refinement_flags
O1 O 0.00554(4) 0.35903(19) 0.08963(5) 0.0273(3) Uani 1 1 d .
O2 O 0.08017(4) 0.24549(17) 0.17125(4) 0.0235(3) Uani 1 1 d .
H2 H 0.0578 0.1342 0.1725 0.035 Uiso 1 1 calc R
O3 O 0.25149(4) 1.54244(18) 0.05170(4) 0.0254(3) Uani 1 1 d .
O4 O 0.18230(4) 1.60060(18) -0.03998(4) 0.0265(3) Uani 1 1 d .
H4 H 0.2049 1.7075 -0.0442 0.040 Uiso 1 1 calc R
O5 O 0.24093(4) 0.80328(18) 0.24881(4) 0.0265(3) Uani 1 1 d .
O6 O 0.27834(4) 0.89522(18) 0.17203(4) 0.0241(3) Uani 1 1 d .
O7 O -0.01150(4) 0.90583(18) 0.32294(5) 0.0259(3) Uani 1 1 d .
N1 N 0.23710(4) 0.83927(18) 0.19214(5) 0.0191(3) Uani 1 1 d .
N2 N 0.08198(5) 0.8463(2) 0.32115(5) 0.0222(3) Uani 1 1 d .
C1 C 0.07276(5) 0.7201(2) 0.06085(5) 0.0193(3) Uani 1 1 d .
H1 H 0.0362 0.6874 0.0316 0.023 Uiso 1 1 calc R
C2 C 0.09237(5) 0.5830(2) 0.11408(5) 0.0180(3) Uani 1 1 d .
C3 C 0.14695(5) 0.6285(2) 0.15801(5) 0.0183(3) Uani 1 1 d .
H3 H 0.1606 0.5355 0.1952 0.022 Uiso 1 1 calc R
C4 C 0.17987(5) 0.8089(2) 0.14598(5) 0.0173(3) Uani 1 1 d .
C5 C 0.19304(5) 1.1524(2) 0.07878(5) 0.0185(3) Uani 1 1 d .
H5 H 0.2300 1.1891 0.1068 0.022 Uiso 1 1 calc R
C6 C 0.17012(5) 1.2885(2) 0.02549(5) 0.0187(3) Uani 1 1 d .
C7 C 0.11494(5) 1.2401(2) -0.01697(5) 0.0218(3) Uani 1 1 d .
H7 H 0.0996 1.3364 -0.0532 0.026 Uiso 1 1 calc R
C8 C 0.08383(5) 1.0533(2) -0.00537(5) 0.0213(3) Uani 1 1 d .
H8 H 0.0469 1.0198 -0.0339 0.026 Uiso 1 1 calc R
C9 C 0.10605(5) 0.9089(2) 0.04883(5) 0.0186(3) Uani 1 1 d .
C10 C 0.16168(5) 0.9586(2) 0.09178(5) 0.0173(3) Uani 1 1 d .
C11 C 0.05504(5) 0.3855(2) 0.12359(5) 0.0199(3) Uani 1 1 d .
C12 C 0.20502(5) 1.4889(2) 0.01370(5) 0.0197(3) Uani 1 1 d .
C13 C 0.03858(5) 0.9764(2) 0.32795(6) 0.0225(3) Uani 1 1 d .
H13 H 0.0463 1.1366 0.3374 0.027 Uiso 1 1 calc R
C14 C 0.07480(7) 0.6007(3) 0.30721(8) 0.0307(3) Uani 1 1 d .
H14A H 0.0381 0.5476 0.3138 0.046 Uiso 1 1 calc R
H14B H 0.1070 0.5145 0.3357 0.046 Uiso 1 1 calc R
H14C H 0.0745 0.5732 0.2627 0.046 Uiso 1 1 calc R
C15 C 0.13793(7) 0.9462(3) 0.32391(10) 0.0402(4) Uani 1 1 d .
H15A H 0.1374 1.1130 0.3331 0.060 Uiso 1 1 calc R
H15B H 0.1463 0.9237 0.2828 0.060 Uiso 1 1 calc R
H15C H 0.1679 0.8697 0.3577 0.060 Uiso 1 1 calc R
loop_
_atom_site_aniso_label
_atom_site_aniso_U_11
_atom_site_aniso_U_22
_atom_site_aniso_U_33
_atom_site_aniso_U_23
_atom_site_aniso_U_13
_atom_site_aniso_U_12
O1 0.0227(5) 0.0329(5) 0.0218(5) 0.0034(4) -0.0014(3) -0.0091(4)
O2 0.0224(4) 0.0243(5) 0.0212(4) 0.0037(3) 0.0017(3) -0.0045(3)
O3 0.0250(5) 0.0261(5) 0.0220(4) 0.0024(3) 0.0014(3) -0.0060(3)
O4 0.0274(5) 0.0280(5) 0.0212(5) 0.0067(3) 0.0020(3) -0.0063(4)
O5 0.0279(5) 0.0297(5) 0.0168(4) 0.0036(3) -0.0021(3) -0.0067(4)
O6 0.0168(4) 0.0279(5) 0.0265(5) -0.0009(3) 0.0038(3) -0.0012(3)
O7 0.0242(5) 0.0243(5) 0.0299(5) -0.0029(3) 0.0087(4) 0.0015(3)
N1 0.0185(4) 0.0180(5) 0.0180(5) -0.0002(3) 0.0002(3) -0.0008(3)
N2 0.0208(5) 0.0238(5) 0.0207(5) -0.0010(4) 0.0034(4) 0.0020(4)
C1 0.0189(5) 0.0220(5) 0.0153(5) -0.0005(4) 0.0019(4) -0.0028(4)
C2 0.0180(5) 0.0203(5) 0.0149(5) -0.0017(4) 0.0030(4) -0.0023(4)
C3 0.0196(5) 0.0196(5) 0.0144(5) -0.0003(4) 0.0024(4) -0.0006(4)
C4 0.0160(5) 0.0193(5) 0.0146(5) -0.0014(4) 0.0011(3) -0.0006(4)
C5 0.0187(5) 0.0201(5) 0.0160(5) -0.0012(4) 0.0036(4) -0.0010(4)
C6 0.0206(5) 0.0201(5) 0.0154(5) -0.0009(4) 0.0048(4) -0.0014(4)
C7 0.0248(6) 0.0238(5) 0.0147(5) 0.0013(4) 0.0017(4) -0.0019(4)
C8 0.0210(5) 0.0243(6) 0.0160(5) 0.0014(4) 0.0008(4) -0.0022(4)
C9 0.0184(5) 0.0213(5) 0.0145(5) -0.0006(4) 0.0021(4) -0.0012(4)
C10 0.0183(5) 0.0191(5) 0.0136(5) -0.0011(4) 0.0028(4) -0.0003(4)
C11 0.0214(5) 0.0218(5) 0.0155(5) -0.0015(4) 0.0036(4) -0.0034(4)
C12 0.0238(5) 0.0197(5) 0.0156(5) 0.0002(4) 0.0052(4) -0.0009(4)
C13 0.0234(5) 0.0224(5) 0.0203(5) -0.0004(4) 0.0040(4) 0.0022(4)
C14 0.0288(6) 0.0239(6) 0.0398(8) -0.0055(5) 0.0103(5) 0.0041(5)
C15 0.0244(6) 0.0366(8) 0.0598(10) -0.0086(7) 0.0121(6) -0.0027(6)
loop_
_atom_type_symbol
_atom_type_description
_atom_type_scat_dispersion_real
_atom_type_scat_dispersion_imag
_atom_type_scat_source
C C 0.0030 0.0020 'International Tables Vol C Tables 4.2.6.8 and 6.1.1.4'
H H 0.0000 0.0000 'International Tables Vol C Tables 4.2.6.8 and 6.1.1.4'
N N 0.0060 0.0030 'International Tables Vol C Tables 4.2.6.8 and 6.1.1.4'
O O 0.0110 0.0060 'International Tables Vol C Tables 4.2.6.8 and 6.1.1.4'
loop_
_geom_angle_atom_site_label_1
_geom_angle_atom_site_label_2
_geom_angle_atom_site_label_3
_geom_angle
C11 O2 H2 109.5
C12 O4 H4 109.5
O5 N1 O6 123.87(11)
O5 N1 C4 117.57(10)
O6 N1 C4 118.55(10)
C13 N2 C14 121.61(12)
C13 N2 C15 121.42(13)
C14 N2 C15 116.89(12)
C2 C1 C9 121.17(11)
C2 C1 H1 119.4
C9 C1 H1 119.4
C1 C2 C3 120.12(11)
C1 C2 C11 118.30(10)
C3 C2 C11 121.57(10)
C4 C3 C2 118.93(10)
C4 C3 H3 120.5
C2 C3 H3 120.5
C3 C4 C10 123.56(10)
C3 C4 N1 115.90(10)
C10 C4 N1 120.53(10)
C6 C5 C10 120.22(10)
C6 C5 H5 119.9
C10 C5 H5 119.9
C5 C6 C7 121.36(11)
C5 C6 C12 118.10(10)
C7 C6 C12 120.53(10)
C8 C7 C6 119.44(11)
C8 C7 H7 120.3
C6 C7 H7 120.3
C7 C8 C9 120.83(11)
C7 C8 H8 119.6
C9 C8 H8 119.6
C1 C9 C8 120.05(11)
C1 C9 C10 120.28(10)
C8 C9 C10 119.65(11)
C5 C10 C4 125.55(10)
C5 C10 C9 118.50(10)
C4 C10 C9 115.92(10)
O1 C11 O2 123.78(11)
O1 C11 C2 121.96(11)
O2 C11 C2 114.26(10)
O3 C12 O4 123.58(11)
O3 C12 C6 121.74(11)
O4 C12 C6 114.67(10)
O7 C13 N2 125.22(12)
O7 C13 H13 117.4
N2 C13 H13 117.4
N2 C14 H14A 109.5
N2 C14 H14B 109.5
H14A C14 H14B 109.5
N2 C14 H14C 109.5
H14A C14 H14C 109.5
H14B C14 H14C 109.5
N2 C15 H15A 109.5
N2 C15 H15B 109.5
H15A C15 H15B 109.5
N2 C15 H15C 109.5
H15A C15 H15C 109.5
H15B C15 H15C 109.5
loop_
_geom_bond_atom_site_label_1
_geom_bond_atom_site_label_2
_geom_bond_distance
O1 C11 1.2225(15)
O2 C11 1.3202(15)
O2 H2 0.8400
O3 C12 1.2296(15)
O4 C12 1.3131(14)
O4 H4 0.8400
O5 N1 1.2301(14)
O6 N1 1.2307(14)
O7 C13 1.2438(16)
N1 C4 1.4706(15)
N2 C13 1.3233(16)
N2 C14 1.4439(18)
N2 C15 1.4458(19)
C1 C2 1.3729(16)
C1 C9 1.4140(16)
C1 H1 0.9500
C2 C3 1.4162(16)
C2 C11 1.4953(16)
C3 C4 1.3718(16)
C3 H3 0.9500
C4 C10 1.4281(15)
C5 C6 1.3815(16)
C5 C10 1.4162(16)
C5 H5 0.9500
C6 C7 1.4169(17)
C6 C12 1.4877(16)
C7 C8 1.3703(17)
C7 H7 0.9500
C8 C9 1.4208(16)
C8 H8 0.9500
C9 C10 1.4307(16)
C13 H13 0.9500
C14 H14A 0.9800
C14 H14B 0.9800
C14 H14C 0.9800
C15 H15A 0.9800
C15 H15B 0.9800
C15 H15C 0.9800
loop_
_geom_hbond_atom_site_label_D
_geom_hbond_atom_site_label_H
_geom_hbond_atom_site_label_A
_geom_hbond_distance_DH
_geom_hbond_distance_HA
_geom_hbond_distance_DA
_geom_hbond_angle_DHA
_geom_hbond_site_symmetry_A
O2 H2 O7 0.84 1.74 2.5796(14) 178.6 2_545
O4 H4 O3 0.84 1.81 2.6494(14) 174.5 7_585
loop_
_geom_torsion_atom_site_label_1
_geom_torsion_atom_site_label_2
_geom_torsion_atom_site_label_3
_geom_torsion_atom_site_label_4
_geom_torsion
C9 C1 C2 C3 -0.38(18)
C9 C1 C2 C11 -179.69(10)
C1 C2 C3 C4 -0.79(17)
C11 C2 C3 C4 178.50(10)
C2 C3 C4 C10 1.31(18)
C2 C3 C4 N1 -177.39(10)
O5 N1 C4 C3 -37.33(15)
O6 N1 C4 C3 141.55(11)
O5 N1 C4 C10 143.92(11)
O6 N1 C4 C10 -37.20(16)
C10 C5 C6 C7 0.61(17)
C10 C5 C6 C12 -179.50(10)
C5 C6 C7 C8 -0.65(18)
C12 C6 C7 C8 179.46(11)
C6 C7 C8 C9 0.44(19)
C2 C1 C9 C8 -177.68(11)
C2 C1 C9 C10 1.06(18)
C7 C8 C9 C1 178.54(11)
C7 C8 C9 C10 -0.21(18)
C6 C5 C10 C4 -178.18(10)
C6 C5 C10 C9 -0.36(17)
C3 C4 C10 C5 177.24(11)
N1 C4 C10 C5 -4.12(17)
C3 C4 C10 C9 -0.64(17)
N1 C4 C10 C9 178.01(10)
C1 C9 C10 C5 -178.58(10)
C8 C9 C10 C5 0.16(17)
C1 C9 C10 C4 -0.55(16)
C8 C9 C10 C4 178.19(10)
C1 C2 C11 O1 -8.25(18)
C3 C2 C11 O1 172.45(12)
C1 C2 C11 O2 171.80(10)
C3 C2 C11 O2 -7.50(16)
C5 C6 C12 O3 -4.10(18)
C7 C6 C12 O3 175.80(12)
C5 C6 C12 O4 175.61(10)
C7 C6 C12 O4 -4.50(17)
C14 N2 C13 O7 -0.5(2)
C15 N2 C13 O7 176.11(14)
