#------------------------------------------------------------------------------
#$Date: 2015-10-09 13:39:24 +0300 (Fri, 09 Oct 2015) $
#$Revision: 161668 $
#$URL: svn://www.crystallography.net/cod/cif/7/03/49/7034900.cif $
#------------------------------------------------------------------------------
#
# This file is available in the Crystallography Open Database (COD),
# http://www.crystallography.net/
#
# All data on this site have been placed in the public domain by the
# contributors.
#
data_7034900
loop_
_publ_author_name
'Lee, Jae Hwa'
'Moon, Byoungnam'
'Kim, Tae Kyung'
'Jeoung, Sungeun'
'Moon, Hoi Ri'
_publ_section_title
;
 Thermal conversion of a tailored metal-organic framework into lithium
 silicate with an unusual morphology for efficient CO2 capture.
;
_journal_issue                   34
_journal_name_full
'Dalton transactions (Cambridge, England : 2003)'
_journal_page_first              15130
_journal_page_last               15134
_journal_paper_doi               10.1039/c5dt00690b
_journal_volume                  44
_journal_year                    2015
_chemical_compound_source
'Lithium nitrate hexahydrate, Tetrakis(4-carboxyphenyl)silane, N,N-Diethylformamide, Ethanol'
_chemical_formula_moiety         'C40 H44 Li4 N2 O11 Si'
_chemical_formula_sum            'C40 H44 Li4 N2 O11 Si'
_chemical_formula_weight         784.62
_chemical_name_systematic        LiTCS
_space_group_crystal_system      triclinic
_space_group_IT_number           2
_space_group_name_Hall           '-P 1'
_space_group_name_H-M_alt        'P -1'
_symmetry_space_group_name_Hall  '-P 1'
_symmetry_space_group_name_H-M   'P -1'
_atom_sites_solution_hydrogens   mixed
_audit_creation_method           SHELXL-2014/7
_audit_update_record
;
2015-02-13 deposited with the CCDC.
2015-04-24 downloaded from the CCDC.
;
_cell_angle_alpha                114.15(3)
_cell_angle_beta                 114.20(3)
_cell_angle_gamma                98.24(3)
_cell_formula_units_Z            2
_cell_length_a                   13.725(3)
_cell_length_b                   14.074(3)
_cell_length_c                   14.187(3)
_cell_measurement_reflns_used    54354
_cell_measurement_temperature    100(2)
_cell_measurement_theta_max      32.91
_cell_measurement_theta_min      1.56
_cell_volume                     2115.6(15)
_computing_cell_refinement       HKL3000
_computing_data_collection       'PAL ADSC Quantum-210 ADX Program'
_computing_data_reduction        HKL3000
_computing_molecular_graphics    'MS Modeling'
_computing_publication_material  WinGX
_computing_structure_refinement  SHELXL
_computing_structure_solution    SHELXS
_diffrn_ambient_temperature      100(2)
_diffrn_measured_fraction_theta_full 0.944
_diffrn_measured_fraction_theta_max 0.940
_diffrn_measurement_device_type  'ADSC Q210 CCD area detector'
_diffrn_measurement_method       'omega scan'
_diffrn_radiation_type           synchrotron
_diffrn_radiation_wavelength     0.64999
_diffrn_reflns_av_R_equivalents  0.0198
_diffrn_reflns_av_unetI/netI     0.0307
_diffrn_reflns_laue_measured_fraction_full 0.944
_diffrn_reflns_laue_measured_fraction_max 0.940
_diffrn_reflns_limit_h_max       17
_diffrn_reflns_limit_h_min       -17
_diffrn_reflns_limit_k_max       17
_diffrn_reflns_limit_k_min       -17
_diffrn_reflns_limit_l_max       17
_diffrn_reflns_limit_l_min       -17
_diffrn_reflns_number            16681
_diffrn_reflns_point_group_measured_fraction_full 0.944
_diffrn_reflns_point_group_measured_fraction_max 0.940
_diffrn_reflns_theta_full        22.954
_diffrn_reflns_theta_max         24.347
_diffrn_reflns_theta_min         1.563
_diffrn_source                   'PLSII 2D bending magnet'
_exptl_absorpt_coefficient_mu    0.091
_exptl_absorpt_correction_T_max  0.991
_exptl_absorpt_correction_T_min  0.991
_exptl_absorpt_correction_type   multi-scan
_exptl_absorpt_process_details   'HKL3000 Scalepack'
_exptl_crystal_colour            'pale yellow'
_exptl_crystal_density_diffrn    1.232
_exptl_crystal_description       block-like
_exptl_crystal_F_000             824
_exptl_crystal_recrystallization_method 'Solvothermal synthesis'
_exptl_crystal_size_max          0.100
_exptl_crystal_size_mid          0.100
_exptl_crystal_size_min          0.100
_refine_diff_density_max         0.983
_refine_diff_density_min         -0.499
_refine_diff_density_rms         0.106
_refine_ls_extinction_method     none
_refine_ls_goodness_of_fit_ref   1.075
_refine_ls_hydrogen_treatment    mixed
_refine_ls_matrix_type           full
_refine_ls_number_parameters     552
_refine_ls_number_reflns         8489
_refine_ls_number_restraints     12
_refine_ls_restrained_S_all      1.076
_refine_ls_R_factor_all          0.0663
_refine_ls_R_factor_gt           0.0577
_refine_ls_shift/su_max          0.001
_refine_ls_shift/su_mean         0.000
_refine_ls_structure_factor_coef Fsqd
_refine_ls_weighting_details
'w=1/[\s^2^(Fo^2^)+(0.1155P)^2^+1.4119P] where P=(Fo^2^+2Fc^2^)/3'
_refine_ls_weighting_scheme      calc
_refine_ls_wR_factor_gt          0.1731
_refine_ls_wR_factor_ref         0.1816
_reflns_Friedel_coverage         0.000
_reflns_number_gt                7301
_reflns_number_total             8489
_reflns_threshold_expression     'I > 2\s(I)'
_cod_data_source_file            c5dt00690b2.cif
_cod_data_source_block           LiTCS
_cod_depositor_comments          'Adding full bibliography for 7034900.cif.'
_cod_original_cell_volume        2115.7(10)
_cod_database_code               7034900
_shelx_shelxl_version_number     2014/7
_shelx_space_group_comment
;
The symmetry employed for this shelxl refinement is uniquely defined
by the following loop, which should always be used as a source of
symmetry information in preference to the above space-group names.
They are only intended as comments.
;
_shelx_res_file
;

    LiTCS.res created by SHELXL-2014/7


TITL LiTCS in P-1
CELL 0.64999  13.7250  14.0740  14.1870 114.146 114.200  98.238
ZERR    2.00   0.0027   0.0028   0.0028   0.030   0.030   0.030
LATT 1
SFAC C  H  Li N  O  Si
DISP Si         0.0705         0.0592         235.66
DISP O          0.0087         0.0050          25.62
DISP N          0.0048         0.0027          15.81
DISP C          0.0024         0.0013           9.52
DISP Li         0.0003         0.0000           2.14
UNIT 80 88 8 4 22 2
OMIT  -3.00  48.70
L.S. 50
ACTA
BOND
FMAP 2
PLAN 20
SIZE 0.1 0.1 0.1
ISOR 0.01 C39D C40D
TEMP -173
WGHT    0.115500    1.411900
FVAR       0.49555   0.59098
MOLE 1
LI1   3    0.182762   -0.074115    0.852831    11.00000    0.03379    0.02346 =
         0.02012    0.01090    0.01054    0.01069
LI2   3   -0.083073   -0.062037    0.502952    11.00000    0.02449    0.02303 =
         0.02078    0.01238    0.00537    0.00840
LI3   3   -0.035643    0.566729    0.457136    11.00000    0.02483    0.01722 =
         0.01829    0.00866    0.00523    0.00752
LI4   3    0.082073    0.825495    0.599939    11.00000    0.01815    0.01611 =
         0.01276    0.00632    0.00348    0.00647
SI1   6    0.328172    0.560069    1.099724    11.00000    0.01496    0.01260 =
         0.00904    0.00380    0.00175    0.00575
O1    5    0.161641   -0.016952    0.748688    11.00000    0.02661    0.01387 =
         0.01639    0.00751    0.00586    0.00654
O2    5    0.078633    0.032797    0.615762    11.00000    0.02342    0.01701 =
         0.01206    0.00556    0.00207    0.00502
O3    5    0.915375    0.804094    1.507273    11.00000    0.01675    0.01822 =
         0.02355    0.00928    0.00513    0.00387
O4    5    0.869073    0.640756    1.497541    11.00000    0.02046    0.02325 =
         0.02147    0.01236    0.00647    0.00937
O5    5    0.146167    0.800512    1.494021    11.00000    0.03151    0.02756 =
         0.02074    0.01052    0.01361    0.01442
O6    5    0.018051    0.623963    1.381205    11.00000    0.03414    0.03407 =
         0.03304    0.02083    0.01974    0.01378
O7    5    0.095058    0.593756    0.604209    11.00000    0.02485    0.01429 =
         0.01381    0.00533   -0.00120    0.00440
O8    5    0.147717    0.777439    0.724501    11.00000    0.02462    0.01444 =
         0.01695    0.00866    0.00393    0.00602
C1    1    0.268400    0.403774    0.995225    11.00000    0.01727    0.01489 =
         0.01255    0.00570    0.00485    0.00664
C2    1    0.323969    0.332761    1.018430    11.00000    0.01815    0.01680 =
         0.01252    0.00598    0.00203    0.00666
AFIX  43
H2    2    0.393201    0.363080    1.093566    11.00000   -1.20000
AFIX   0
C3    1    0.279388    0.218757    0.933285    11.00000    0.02011    0.01675 =
         0.01438    0.00830    0.00486    0.00854
AFIX  43
H3    2    0.316420    0.171333    0.951637    11.00000   -1.20000
AFIX   0
C4    1    0.180445    0.174283    0.821166    11.00000    0.01633    0.01428 =
         0.01314    0.00595    0.00479    0.00442
C5    1    0.123826    0.243291    0.796925    11.00000    0.01676    0.01722 =
         0.01391    0.00563    0.00120    0.00600
AFIX  43
H5    2    0.055583    0.212949    0.720953    11.00000   -1.20000
AFIX   0
C6    1    0.166599    0.355796    0.883049    11.00000    0.01848    0.01711 =
         0.01651    0.00596    0.00339    0.00904
AFIX  43
H6    2    0.126241    0.401658    0.865973    11.00000   -1.20000
AFIX   0
C7    1    0.137624    0.054684    0.722546    11.00000    0.01619    0.01444 =
         0.01358    0.00596    0.00452    0.00366
C8    1    0.484917    0.609594    1.209592    11.00000    0.01635    0.01502 =
         0.01162    0.00476    0.00406    0.00617
C9    1    0.570208    0.681771    1.214840    11.00000    0.02061    0.01896 =
         0.01639    0.01021    0.00690    0.00783
AFIX  43
H9    2    0.549260    0.706821    1.159123    11.00000   -1.20000
AFIX   0
C10   1    0.686278    0.717968    1.300905    11.00000    0.01916    0.01855 =
         0.01944    0.00959    0.00790    0.00505
AFIX  43
H10   2    0.743182    0.770039    1.305751    11.00000   -1.20000
AFIX   0
C11   1    0.718763    0.678169    1.379319    11.00000    0.01709    0.01524 =
         0.01455    0.00470    0.00499    0.00625
C12   1    0.634980    0.604165    1.373725    11.00000    0.01967    0.02146 =
         0.01471    0.01006    0.00347    0.00534
AFIX  43
H12   2    0.656777    0.574823    1.425479    11.00000   -1.20000
AFIX   0
C13   1    0.519634    0.573135    1.292685    11.00000    0.01740    0.02261 =
         0.01762    0.01127    0.00454    0.00331
AFIX  43
H13   2    0.462802    0.526343    1.293136    11.00000   -1.20000
AFIX   0
C14   1    0.844016    0.710025    1.467647    11.00000    0.01700    0.01945 =
         0.01514    0.00582    0.00657    0.00552
C15   1    0.256926    0.601147    1.189697    11.00000    0.01754    0.01672 =
         0.01261    0.00583    0.00398    0.00895
C16   1    0.316634    0.699952    1.303875    11.00000    0.02115    0.02299 =
         0.01951    0.00221    0.00771    0.00224
AFIX  43
H16   2    0.393037    0.745266    1.334604    11.00000   -1.20000
AFIX   0
C17   1    0.266162    0.732477    1.372414    11.00000    0.02497    0.02330 =
         0.01548    0.00050    0.00681    0.00530
AFIX  43
H17   2    0.307583    0.800689    1.448485    11.00000   -1.20000
AFIX   0
C18   1    0.155304    0.666418    1.331249    11.00000    0.02164    0.02189 =
         0.01789    0.01063    0.00826    0.01254
C19   1    0.095248    0.567678    1.218518    11.00000    0.01705    0.02041 =
         0.02433    0.00857    0.00691    0.00845
AFIX  43
H19   2    0.019852    0.521308    1.189359    11.00000   -1.20000
AFIX   0
C20   1    0.145039    0.536619    1.148448    11.00000    0.01755    0.01731 =
         0.01613    0.00265    0.00368    0.00698
AFIX  43
H20   2    0.102087    0.470098    1.070852    11.00000   -1.20000
AFIX   0
C21   1    0.101937    0.699190    1.407807    11.00000    0.02473    0.02630 =
         0.01932    0.01395    0.00919    0.01516
C22   1    0.295491    0.618753    0.998168    11.00000    0.01754    0.01592 =
         0.01322    0.00620    0.00217    0.00593
C23   1    0.312262    0.574232    0.900130    11.00000    0.02337    0.01997 =
         0.01815    0.01059    0.00716    0.01198
AFIX  43
H23   2    0.356290    0.527952    0.897007    11.00000   -1.20000
AFIX   0
C24   1    0.266034    0.596252    0.807699    11.00000    0.02384    0.01895 =
         0.01575    0.00850    0.00672    0.00909
AFIX  43
H24   2    0.275649    0.562460    0.740508    11.00000   -1.20000
AFIX   0
C25   1    0.205507    0.667900    0.813349    11.00000    0.01885    0.01460 =
         0.01469    0.00732    0.00202    0.00364
C26   1    0.194300    0.718694    0.913459    11.00000    0.02561    0.01808 =
         0.02041    0.00984    0.00720    0.01160
AFIX  43
H26   2    0.157681    0.771505    0.920614    11.00000   -1.20000
AFIX   0
C27   1    0.236583    0.692411    1.003295    11.00000    0.02767    0.02010 =
         0.01610    0.00839    0.00907    0.01220
AFIX  43
H27   2    0.225235    0.725111    1.069388    11.00000   -1.20000
AFIX   0
C28   1    0.145191    0.681459    0.706261    11.00000    0.01762    0.01545 =
         0.01574    0.00834    0.00159    0.00404
N1    4    0.486046    0.041175    1.171747    11.00000    0.03033    0.04354 =
         0.03122    0.00973    0.00194    0.01555
O9    5    0.327002    0.002684    1.001738    11.00000    0.04659    0.03404 =
         0.02334    0.01284   -0.00526    0.00515
C29   1    0.405346   -0.022693    1.055540    11.00000    0.03845    0.03472 =
         0.02686    0.00933    0.00906    0.00801
AFIX  43
H29   2    0.407951   -0.093064    1.010373    11.00000   -1.20000
AFIX   0
C30   1    0.573151    0.001838    1.230471    11.00000    0.03815    0.06637 =
         0.06134    0.01305   -0.00322    0.03127
AFIX  23
H30A  2    0.648612    0.065158    1.287533    11.00000   -1.20000
H30B  2    0.580686   -0.057146    1.168183    11.00000   -1.20000
AFIX   0
C31   1    0.543158   -0.044224    1.297458    11.00000    0.09500    0.04583 =
         0.05902    0.01933   -0.02265    0.02620
AFIX 137
H31A  2    0.529186    0.011603    1.354573    11.00000   -1.50000
H31B  2    0.607035   -0.061706    1.341727    11.00000   -1.50000
H31C  2    0.473621   -0.112724    1.239924    11.00000   -1.50000
AFIX   0
C32   1    0.484296    0.148123    1.246494    11.00000    0.03804    0.04027 =
         0.03444    0.01413    0.00870    0.01116
AFIX  23
H32A  2    0.506021    0.158631    1.326811    11.00000   -1.20000
H32B  2    0.405197    0.147283    1.208718    11.00000   -1.20000
AFIX   0
C33   1    0.565230    0.244057    1.261943    11.00000    0.06988    0.05657 =
         0.12822    0.03498    0.05686    0.01024
AFIX 137
H33A  2    0.644784    0.254174    1.313094    11.00000   -1.50000
H33B  2    0.552154    0.312703    1.300148    11.00000   -1.50000
H33C  2    0.551823    0.228203    1.182720    11.00000   -1.50000
AFIX   0
N2    4   -0.120911   -0.230388    0.809464    11.00000    0.04544    0.05871 =
         0.04107    0.02497    0.02659    0.02063
O10   5    0.044770   -0.102899    0.865021    11.00000    0.05014    0.03790 =
         0.04545    0.02356    0.03050    0.02069
C34   1   -0.039483   -0.193653    0.790730    11.00000    0.03656    0.04826 =
         0.03128    0.02184    0.01601    0.01904
AFIX  43
H34   2   -0.046085   -0.239762    0.715646    11.00000   -1.20000
AFIX   0
C35   1   -0.208135   -0.342697    0.725401    11.00000    0.06050    0.05665 =
         0.05174    0.03421    0.02918    0.02615
AFIX  23
H35A  2   -0.202405   -0.384140    0.768256    11.00000   -1.20000
H35B  2   -0.192893   -0.382459    0.660253    11.00000   -1.20000
AFIX   0
C36   1   -0.329411   -0.343986    0.669354    11.00000    0.05411    0.07085 =
         0.06214    0.03556    0.03038    0.01754
AFIX 137
H36A  2   -0.347573   -0.310555    0.732609    11.00000   -1.50000
H36B  2   -0.384069   -0.421609    0.609821    11.00000   -1.50000
H36C  2   -0.334999   -0.300627    0.629397    11.00000   -1.50000
AFIX   0
C37   1   -0.111367   -0.159338    0.925619    11.00000    0.05668    0.06298 =
         0.04628    0.01998    0.03473    0.01344
AFIX  23
H37A  2   -0.187369   -0.181483    0.917709    11.00000   -1.20000
H37B  2   -0.087368   -0.079882    0.947737    11.00000   -1.20000
AFIX   0
C38   1   -0.024045   -0.171599    1.024026    11.00000    0.08132    0.09673 =
         0.04909    0.04177    0.03745    0.02024
AFIX 137
H38A  2   -0.044098   -0.251173    0.998690    11.00000   -1.50000
H38B  2   -0.024439   -0.130209    1.098615    11.00000   -1.50000
H38C  2    0.052831   -0.141339    1.038367    11.00000   -1.50000
AFIX   0
O11   5   -0.178149    0.018092    0.541434    11.00000    0.03533    0.03402 =
         0.03382    0.02210    0.01978    0.01798
H11   2   -0.167860    0.070900    0.533079    11.00000    0.04092
PART 1
C39   1   -0.213086    0.039650    0.628681    21.00000    0.05384    0.03682 =
         0.03268    0.02590    0.03105    0.02324
AFIX  23
H39A  2   -0.289280    0.046229    0.597347    21.00000   -1.20000
H39B  2   -0.156869    0.111281    0.704696    21.00000   -1.20000
AFIX   0
C40   1   -0.219658   -0.054860    0.652883    21.00000    0.08111    0.04061 =
         0.05095    0.03292    0.04868    0.03497
AFIX 137
H40A  2   -0.283173   -0.123409    0.580418    21.00000   -1.50000
H40B  2   -0.232994   -0.035504    0.720041    21.00000   -1.50000
H40C  2   -0.147091   -0.067278    0.673969    21.00000   -1.50000
PART 2
AFIX   0
C39D  1   -0.188934    0.029607    0.643367   -21.00000    0.09529    0.10175 =
         0.07275    0.06029    0.03675    0.04226
AFIX  23
H39C  2   -0.166767    0.109783    0.701432   -21.00000   -1.20000
H39D  2   -0.137227   -0.000101    0.685694   -21.00000   -1.20000
AFIX   0
C40D  1   -0.310373   -0.034144    0.596960   -21.00000    0.15086    0.14578 =
         0.17006    0.08672    0.12802    0.04344
AFIX 137
H40D  2   -0.361660   -0.010613    0.546808   -21.00000   -1.50000
H40E  2   -0.321165   -0.019261    0.665080   -21.00000   -1.50000
H40F  2   -0.328439   -0.114632    0.548366   -21.00000   -1.50000
PART 0
AFIX   0
HKLF 4

REM  LiTCS in P-1
REM R1 =  0.0577 for    7301 Fo > 4sig(Fo)  and  0.0663 for all    8489 data
REM    552 parameters refined using     12 restraints

END

WGHT      0.1155      1.4119

REM Highest difference peak  0.983,  deepest hole -0.499,  1-sigma level  0.106
Q1    1   0.1144 -0.0172  0.9507  11.00000  0.05    0.98
Q2    1  -0.1409 -0.1028  0.8255  11.00000  0.05    0.92
Q3    1  -0.1741 -0.2799  0.8706  11.00000  0.05    0.76
Q4    1  -0.1514 -0.1938  0.7608  11.00000  0.05    0.72
Q5    1  -0.2865 -0.4822  0.6096  11.00000  0.05    0.64
Q6    1  -0.2405 -0.2762  0.7022  11.00000  0.05    0.54
Q7    1  -0.2407 -0.5415  0.5068  11.00000  0.05    0.50
Q8    1   0.5452  0.1635  1.1866  11.00000  0.05    0.42
Q9    1  -0.2844 -0.0604  0.7031  11.00000  0.05    0.35
Q10   1  -0.1604  0.0880  0.7378  11.00000  0.05    0.32
Q11   1   0.4386  0.6018  1.1820  11.00000  0.05    0.31
Q12   1   0.4997  0.5917  1.2411  11.00000  0.05    0.31
Q13   1   0.3635  0.0870  1.2696  11.00000  0.05    0.31
Q14   1  -0.1217 -0.4287  0.6561  11.00000  0.05    0.31
Q15   1  -0.2935 -0.4146  0.6707  11.00000  0.05    0.29
Q16   1  -0.3806 -0.1192  0.6309  11.00000  0.05    0.29
Q17   1   0.2211  0.3803  0.9458  11.00000  0.05    0.29
Q18   1   0.3661  0.1326  1.3117  11.00000  0.05    0.29
Q19   1   0.5219  0.6456  1.2179  11.00000  0.05    0.28
Q20   1   0.5985  0.3235  1.3587  11.00000  0.05    0.27
;
_shelx_res_checksum              14937
loop_
_space_group_symop_operation_xyz
'x, y, z'
'-x, -y, -z'
loop_
_atom_site_label
_atom_site_type_symbol
_atom_site_fract_x
_atom_site_fract_y
_atom_site_fract_z
_atom_site_U_iso_or_equiv
_atom_site_adp_type
_atom_site_occupancy
_atom_site_site_symmetry_order
_atom_site_calc_flag
_atom_site_refinement_flags_posn
_atom_site_refinement_flags_adp
_atom_site_refinement_flags_occupancy
_atom_site_disorder_assembly
_atom_site_disorder_group
Li1 Li 0.1828(3) -0.0741(3) 0.8528(3) 0.0274(8) Uani 1 1 d . . . . .
Li2 Li -0.0831(3) -0.0620(3) 0.5030(3) 0.0251(7) Uani 1 1 d . . . . .
Li3 Li -0.0356(3) 0.5667(3) 0.4571(3) 0.0228(7) Uani 1 1 d . . . . .
Li4 Li 0.0821(3) 0.8255(3) 0.5999(3) 0.0180(6) Uani 1 1 d . . . . .
Si1 Si 0.32817(4) 0.56007(4) 1.09972(4) 0.01472(14) Uani 1 1 d . . . . .
O1 O 0.16164(13) -0.01695(11) 0.74869(12) 0.0214(3) Uani 1 1 d . . . . .
O2 O 0.07863(12) 0.03280(11) 0.61576(12) 0.0216(3) Uani 1 1 d . . . . .
O3 O 0.91537(12) 0.80409(12) 1.50727(13) 0.0227(3) Uani 1 1 d . . . . .
O4 O 0.86907(12) 0.64076(12) 1.49754(13) 0.0231(3) Uani 1 1 d . . . . .
O5 O 0.14617(14) 0.80051(13) 1.49402(13) 0.0269(3) Uani 1 1 d . . . . .
O6 O 0.01805(15) 0.62396(14) 1.38121(15) 0.0312(4) Uani 1 1 d . . . . .
O7 O 0.09506(13) 0.59376(11) 0.60421(12) 0.0235(3) Uani 1 1 d . . . . .
O8 O 0.14772(12) 0.77744(11) 0.72450(12) 0.0215(3) Uani 1 1 d . . . . .
C1 C 0.26840(16) 0.40377(15) 0.99523(16) 0.0166(4) Uani 1 1 d . . . . .
C2 C 0.32397(17) 0.33276(16) 1.01843(17) 0.0189(4) Uani 1 1 d . . . . .
H2 H 0.3932 0.3631 1.0936 0.023 Uiso 1 1 calc R U . . .
C3 C 0.27939(17) 0.21876(16) 0.93328(17) 0.0185(4) Uani 1 1 d . . . . .
H3 H 0.3164 0.1713 0.9516 0.022 Uiso 1 1 calc R U . . .
C4 C 0.18045(16) 0.17428(15) 0.82117(16) 0.0164(4) Uani 1 1 d . . . . .
C5 C 0.12383(16) 0.24329(16) 0.79693(17) 0.0198(4) Uani 1 1 d . . . . .
H5 H 0.0556 0.2129 0.7210 0.024 Uiso 1 1 calc R U . . .
C6 C 0.16660(17) 0.35580(16) 0.88305(17) 0.0205(4) Uani 1 1 d . . . . .
H6 H 0.1262 0.4017 0.8660 0.025 Uiso 1 1 calc R U . . .
C7 C 0.13762(16) 0.05468(15) 0.72255(17) 0.0169(4) Uani 1 1 d . . . . .
C8 C 0.48492(16) 0.60959(15) 1.20959(16) 0.0165(4) Uani 1 1 d . . . . .
C9 C 0.57021(17) 0.68177(16) 1.21484(17) 0.0193(4) Uani 1 1 d . . . . .
H9 H 0.5493 0.7068 1.1591 0.023 Uiso 1 1 calc R U . . .
C10 C 0.68628(17) 0.71797(16) 1.30091(18) 0.0203(4) Uani 1 1 d . . . . .
H10 H 0.7432 0.7700 1.3058 0.024 Uiso 1 1 calc R U . . .
C11 C 0.71876(16) 0.67817(16) 1.37932(17) 0.0182(4) Uani 1 1 d . . . . .
C12 C 0.63498(17) 0.60416(17) 1.37373(17) 0.0209(4) Uani 1 1 d . . . . .
H12 H 0.6568 0.5748 1.4255 0.025 Uiso 1 1 calc R U . . .
C13 C 0.51963(17) 0.57314(17) 1.29269(18) 0.0213(4) Uani 1 1 d . . . . .
H13 H 0.4628 0.5263 1.2931 0.026 Uiso 1 1 calc R U . . .
C14 C 0.84402(17) 0.71003(16) 1.46765(17) 0.0194(4) Uani 1 1 d . . . . .
C15 C 0.25693(16) 0.60115(16) 1.18970(16) 0.0176(4) Uani 1 1 d . . . . .
C16 C 0.31663(19) 0.69995(18) 1.30388(19) 0.0268(5) Uani 1 1 d . . . . .
H16 H 0.3930 0.7453 1.3346 0.032 Uiso 1 1 calc R U . . .
C17 C 0.26616(19) 0.73248(18) 1.37241(19) 0.0272(5) Uani 1 1 d . . . . .
H17 H 0.3076 0.8007 1.4485 0.033 Uiso 1 1 calc R U . . .
C18 C 0.15530(17) 0.66642(17) 1.33125(18) 0.0206(4) Uani 1 1 d . . . . .
C19 C 0.09525(17) 0.56768(17) 1.21852(19) 0.0232(4) Uani 1 1 d . . . . .
H19 H 0.0199 0.5213 1.1894 0.028 Uiso 1 1 calc R U . . .
C20 C 0.14504(17) 0.53662(16) 1.14845(18) 0.0215(4) Uani 1 1 d . . . . .
H20 H 0.1021 0.4701 1.0709 0.026 Uiso 1 1 calc R U . . .
C21 C 0.10194(18) 0.69919(18) 1.40781(18) 0.0227(4) Uani 1 1 d . . . . .
C22 C 0.29549(16) 0.61875(16) 0.99817(17) 0.0186(4) Uani 1 1 d . . . . .
C23 C 0.31226(18) 0.57423(16) 0.90013(18) 0.0212(4) Uani 1 1 d . . . . .
H23 H 0.3563 0.5280 0.8970 0.025 Uiso 1 1 calc R U . . .
C24 C 0.26603(18) 0.59625(16) 0.80770(18) 0.0210(4) Uani 1 1 d . . . . .
H24 H 0.2756 0.5625 0.7405 0.025 Uiso 1 1 calc R U . . .
C25 C 0.20551(17) 0.66790(16) 0.81335(17) 0.0193(4) Uani 1 1 d . . . . .
C26 C 0.19430(18) 0.71869(17) 0.91346(18) 0.0229(4) Uani 1 1 d . . . . .
H26 H 0.1577 0.7715 0.9206 0.028 Uiso 1 1 calc R U . . .
C27 C 0.23658(18) 0.69241(17) 1.00329(18) 0.0222(4) Uani 1 1 d . . . . .
H27 H 0.2252 0.7251 1.0694 0.027 Uiso 1 1 calc R U . . .
C28 C 0.14519(16) 0.68146(16) 0.70626(17) 0.0194(4) Uani 1 1 d . . . . .
N1 N 0.48605(19) 0.0412(2) 1.1717(2) 0.0446(6) Uani 1 1 d . . . . .
O9 O 0.32700(17) 0.00268(16) 1.00174(16) 0.0465(5) Uani 1 1 d . . . . .
C29 C 0.4053(2) -0.0227(2) 1.0555(2) 0.0401(6) Uani 1 1 d . . . . .
H29 H 0.4080 -0.0931 1.0104 0.048 Uiso 1 1 calc R U . . .
C30 C 0.5732(3) 0.0018(3) 1.2305(4) 0.0740(13) Uani 1 1 d . . . . .
H30A H 0.6486 0.0652 1.2875 0.089 Uiso 1 1 calc R U . . .
H30B H 0.5807 -0.0571 1.1682 0.089 Uiso 1 1 calc R U . . .
C31 C 0.5432(4) -0.0442(3) 1.2975(4) 0.0958(18) Uani 1 1 d . . . . .
H31A H 0.5292 0.0116 1.3546 0.144 Uiso 1 1 calc R U . . .
H31B H 0.6070 -0.0617 1.3417 0.144 Uiso 1 1 calc R U . . .
H31C H 0.4736 -0.1127 1.2399 0.144 Uiso 1 1 calc R U . . .
C32 C 0.4843(2) 0.1481(2) 1.2465(3) 0.0444(7) Uani 1 1 d . . . . .
H32A H 0.5060 0.1586 1.3268 0.053 Uiso 1 1 calc R U . . .
H32B H 0.4052 0.1473 1.2087 0.053 Uiso 1 1 calc R U . . .
C33 C 0.5652(4) 0.2441(4) 1.2619(5) 0.0897(15) Uani 1 1 d . . . . .
H33A H 0.6448 0.2542 1.3131 0.135 Uiso 1 1 calc R U . . .
H33B H 0.5522 0.3127 1.3001 0.135 Uiso 1 1 calc R U . . .
H33C H 0.5518 0.2282 1.1827 0.135 Uiso 1 1 calc R U . . .
N2 N -0.1209(2) -0.2304(2) 0.8095(2) 0.0469(6) Uani 1 1 d . . . . .
O10 O 0.04477(18) -0.10290(16) 0.86502(18) 0.0408(4) Uani 1 1 d . . . . .
C34 C -0.0395(2) -0.1937(2) 0.7907(2) 0.0384(6) Uani 1 1 d . . . . .
H34 H -0.0461 -0.2398 0.7156 0.046 Uiso 1 1 calc R U . . .
C35 C -0.2081(3) -0.3427(3) 0.7254(3) 0.0532(8) Uani 1 1 d . . . . .
H35A H -0.2024 -0.3841 0.7683 0.064 Uiso 1 1 calc R U . . .
H35B H -0.1929 -0.3825 0.6603 0.064 Uiso 1 1 calc R U . . .
C36 C -0.3294(3) -0.3440(3) 0.6694(4) 0.0626(9) Uani 1 1 d . . . . .
H36A H -0.3476 -0.3106 0.7326 0.094 Uiso 1 1 calc R U . . .
H36B H -0.3841 -0.4216 0.6098 0.094 Uiso 1 1 calc R U . . .
H36C H -0.3350 -0.3006 0.6294 0.094 Uiso 1 1 calc R U . . .
C37 C -0.1114(3) -0.1593(3) 0.9256(3) 0.0566(8) Uani 1 1 d . . . . .
H37A H -0.1874 -0.1815 0.9177 0.068 Uiso 1 1 calc R U . . .
H37B H -0.0874 -0.0799 0.9477 0.068 Uiso 1 1 calc R U . . .
C38 C -0.0240(4) -0.1716(4) 1.0240(3) 0.0743(12) Uani 1 1 d . . . . .
H38A H -0.0441 -0.2512 0.9987 0.111 Uiso 1 1 calc R U . . .
H38B H -0.0244 -0.1302 1.0986 0.111 Uiso 1 1 calc R U . . .
H38C H 0.0528 -0.1413 1.0384 0.111 Uiso 1 1 calc R U . . .
O11 O -0.17815(15) 0.01809(15) 0.54143(15) 0.0311(4) Uani 1 1 d . . . . .
H11 H -0.168(3) 0.071(3) 0.533(3) 0.041(8) Uiso 1 1 d . . . . .
C39 C -0.2131(8) 0.0397(6) 0.6287(8) 0.0334(15) Uani 0.591(12) 1 d . . P A 1
H39A H -0.2893 0.0462 0.5973 0.040 Uiso 0.591(12) 1 calc R U P A 1
H39B H -0.1569 0.1113 0.7047 0.040 Uiso 0.591(12) 1 calc R U P A 1
C40 C -0.2197(6) -0.0549(4) 0.6529(5) 0.0462(18) Uani 0.591(12) 1 d . . P A 1
H40A H -0.2832 -0.1234 0.5804 0.069 Uiso 0.591(12) 1 calc R U P A 1
H40B H -0.2330 -0.0355 0.7200 0.069 Uiso 0.591(12) 1 calc R U P A 1
H40C H -0.1471 -0.0673 0.6740 0.069 Uiso 0.591(12) 1 calc R U P A 1
C39D C -0.1889(19) 0.0296(19) 0.643(2) 0.086(7) Uani 0.409(12) 1 d . U P A 2
H39C H -0.1668 0.1098 0.7014 0.103 Uiso 0.409(12) 1 calc R U P A 2
H39D H -0.1372 -0.0001 0.6857 0.103 Uiso 0.409(12) 1 calc R U P A 2
C40D C -0.3104(17) -0.0341(16) 0.5970(18) 0.137(8) Uani 0.409(12) 1 d . U P A 2
H40D H -0.3617 -0.0106 0.5468 0.205 Uiso 0.409(12) 1 calc R U P A 2
H40E H -0.3212 -0.0193 0.6651 0.205 Uiso 0.409(12) 1 calc R U P A 2
H40F H -0.3284 -0.1146 0.5484 0.205 Uiso 0.409(12) 1 calc R U P A 2
loop_
_atom_site_aniso_label
_atom_site_aniso_U_11
_atom_site_aniso_U_22
_atom_site_aniso_U_33
_atom_site_aniso_U_23
_atom_site_aniso_U_13
_atom_site_aniso_U_12
Li1 0.0338(19) 0.0235(17) 0.0201(17) 0.0109(14) 0.0105(16) 0.0107(15)
Li2 0.0245(17) 0.0230(17) 0.0208(16) 0.0124(14) 0.0054(14) 0.0084(14)
Li3 0.0248(17) 0.0172(16) 0.0183(16) 0.0087(13) 0.0052(14) 0.0075(13)
Li4 0.0182(15) 0.0161(15) 0.0128(14) 0.0063(12) 0.0035(12) 0.0065(12)
Si1 0.0150(3) 0.0126(2) 0.0090(2) 0.00380(19) 0.0018(2) 0.00575(19)
O1 0.0266(7) 0.0139(6) 0.0164(6) 0.0075(5) 0.0059(6) 0.0065(5)
O2 0.0234(7) 0.0170(7) 0.0121(6) 0.0056(5) 0.0021(6) 0.0050(6)
O3 0.0167(6) 0.0182(7) 0.0235(7) 0.0093(6) 0.0051(6) 0.0039(5)
O4 0.0205(7) 0.0232(7) 0.0215(7) 0.0124(6) 0.0065(6) 0.0094(6)
O5 0.0315(8) 0.0276(8) 0.0207(7) 0.0105(6) 0.0136(7) 0.0144(7)
O6 0.0341(9) 0.0341(9) 0.0330(9) 0.0208(7) 0.0197(8) 0.0138(7)
O7 0.0249(7) 0.0143(6) 0.0138(6) 0.0053(5) -0.0012(6) 0.0044(5)
O8 0.0246(7) 0.0144(6) 0.0170(7) 0.0087(5) 0.0039(6) 0.0060(5)
C1 0.0173(8) 0.0149(8) 0.0125(8) 0.0057(7) 0.0049(7) 0.0066(7)
C2 0.0181(9) 0.0168(9) 0.0125(8) 0.0060(7) 0.0020(7) 0.0067(7)
C3 0.0201(9) 0.0167(9) 0.0144(8) 0.0083(7) 0.0049(8) 0.0085(7)
C4 0.0163(8) 0.0143(8) 0.0131(8) 0.0059(7) 0.0048(7) 0.0044(7)
C5 0.0168(9) 0.0172(9) 0.0139(8) 0.0056(7) 0.0012(7) 0.0060(7)
C6 0.0185(9) 0.0171(9) 0.0165(9) 0.0060(7) 0.0034(8) 0.0090(7)
C7 0.0162(8) 0.0144(8) 0.0136(8) 0.0060(7) 0.0045(7) 0.0037(7)
C8 0.0163(8) 0.0150(8) 0.0116(8) 0.0048(7) 0.0041(7) 0.0062(7)
C9 0.0206(9) 0.0190(9) 0.0164(9) 0.0102(7) 0.0069(8) 0.0078(7)
C10 0.0192(9) 0.0186(9) 0.0194(9) 0.0096(8) 0.0079(8) 0.0050(7)
C11 0.0171(9) 0.0152(8) 0.0146(8) 0.0047(7) 0.0050(8) 0.0062(7)
C12 0.0197(9) 0.0215(9) 0.0147(9) 0.0101(8) 0.0035(8) 0.0053(8)
C13 0.0174(9) 0.0226(9) 0.0176(9) 0.0113(8) 0.0045(8) 0.0033(8)
C14 0.0170(9) 0.0194(9) 0.0151(9) 0.0058(7) 0.0066(8) 0.0055(7)
C15 0.0175(9) 0.0167(9) 0.0126(8) 0.0058(7) 0.0040(7) 0.0090(7)
C16 0.0211(10) 0.0230(10) 0.0195(10) 0.0022(8) 0.0077(9) 0.0022(8)
C17 0.0250(10) 0.0233(10) 0.0155(9) 0.0005(8) 0.0068(8) 0.0053(8)
C18 0.0216(9) 0.0219(10) 0.0179(9) 0.0106(8) 0.0083(8) 0.0125(8)
C19 0.0171(9) 0.0204(9) 0.0243(10) 0.0086(8) 0.0069(8) 0.0084(8)
C20 0.0176(9) 0.0173(9) 0.0161(9) 0.0026(7) 0.0037(8) 0.0070(7)
C21 0.0247(10) 0.0263(10) 0.0193(9) 0.0139(8) 0.0092(8) 0.0152(8)
C22 0.0175(9) 0.0159(9) 0.0132(8) 0.0062(7) 0.0022(7) 0.0059(7)
C23 0.0234(9) 0.0200(9) 0.0181(9) 0.0106(8) 0.0072(8) 0.0120(8)
C24 0.0238(9) 0.0189(9) 0.0157(9) 0.0085(7) 0.0067(8) 0.0091(8)
C25 0.0188(9) 0.0146(8) 0.0147(9) 0.0073(7) 0.0020(8) 0.0036(7)
C26 0.0256(10) 0.0181(9) 0.0204(9) 0.0098(8) 0.0072(8) 0.0116(8)
C27 0.0277(10) 0.0201(9) 0.0161(9) 0.0084(8) 0.0091(8) 0.0122(8)
C28 0.0176(9) 0.0155(9) 0.0157(9) 0.0083(7) 0.0016(8) 0.0040(7)
N1 0.0303(11) 0.0435(13) 0.0312(11) 0.0097(10) 0.0019(9) 0.0156(10)
O9 0.0466(11) 0.0340(10) 0.0233(8) 0.0128(8) -0.0053(8) 0.0052(8)
C29 0.0385(13) 0.0347(13) 0.0269(12) 0.0093(10) 0.0091(11) 0.0080(11)
C30 0.0382(16) 0.066(2) 0.061(2) 0.0130(18) -0.0032(16) 0.0313(16)
C31 0.095(3) 0.0458(19) 0.059(2) 0.0193(18) -0.023(2) 0.026(2)
C32 0.0380(14) 0.0403(14) 0.0344(13) 0.0141(12) 0.0087(12) 0.0112(12)
C33 0.070(3) 0.057(2) 0.128(4) 0.035(3) 0.057(3) 0.010(2)
N2 0.0454(13) 0.0587(15) 0.0411(13) 0.0250(12) 0.0266(12) 0.0206(12)
O10 0.0501(11) 0.0379(10) 0.0455(10) 0.0236(9) 0.0305(10) 0.0207(9)
C34 0.0366(13) 0.0483(15) 0.0313(12) 0.0218(12) 0.0160(11) 0.0190(12)
C35 0.0605(19) 0.0567(18) 0.0517(17) 0.0342(15) 0.0292(16) 0.0261(16)
C36 0.0541(19) 0.071(2) 0.062(2) 0.0356(19) 0.0304(18) 0.0175(17)
C37 0.0567(19) 0.063(2) 0.0463(17) 0.0200(15) 0.0347(16) 0.0134(16)
C38 0.081(3) 0.097(3) 0.0491(19) 0.042(2) 0.037(2) 0.020(2)
O11 0.0353(9) 0.0340(9) 0.0338(9) 0.0221(8) 0.0198(8) 0.0180(7)
C39 0.054(4) 0.037(3) 0.033(3) 0.026(2) 0.031(3) 0.023(3)
C40 0.081(4) 0.041(3) 0.051(3) 0.033(2) 0.049(3) 0.035(3)
C39D 0.095(10) 0.102(10) 0.073(8) 0.060(7) 0.037(7) 0.042(6)
C40D 0.151(14) 0.146(13) 0.170(14) 0.087(10) 0.128(12) 0.043(9)
loop_
_atom_type_symbol
_atom_type_description
_atom_type_scat_dispersion_real
_atom_type_scat_dispersion_imag
_atom_type_scat_source
C C 0.0024 0.0013 'International Tables Vol C Tables 4.2.6.8 and 6.1.1.4'
H H 0.0000 0.0000 'International Tables Vol C Tables 4.2.6.8 and 6.1.1.4'
Li Li 0.0003 0.0000 'International Tables Vol C Tables 4.2.6.8 and 6.1.1.4'
N N 0.0048 0.0027 'International Tables Vol C Tables 4.2.6.8 and 6.1.1.4'
O O 0.0087 0.0050 'International Tables Vol C Tables 4.2.6.8 and 6.1.1.4'
Si Si 0.0705 0.0592 'International Tables Vol C Tables 4.2.6.8 and 6.1.1.4'
loop_
_geom_angle_atom_site_label_1
_geom_angle_atom_site_label_2
_geom_angle_atom_site_label_3
_geom_angle
_geom_angle_site_symmetry_1
_geom_angle_site_symmetry_3
O1 Li1 O9 116.2(2) . .
O1 Li1 O8 90.84(17) . 1_545
O9 Li1 O8 120.5(2) . 1_545
O1 Li1 O10 109.7(2) . .
O9 Li1 O10 115.9(2) . .
O8 Li1 O10 100.29(19) 1_545 .
O1 Li1 Li4 46.03(11) . 1_545
O9 Li1 Li4 143.0(2) . 1_545
O8 Li1 Li4 46.69(11) 1_545 1_545
O10 Li1 Li4 101.13(18) . 1_545
O3 Li2 O2 126.9(2) 1_444 2_556
O3 Li2 O2 100.95(17) 1_444 .
O2 Li2 O2 90.17(17) 2_556 .
O3 Li2 O11 122.3(2) 1_444 .
O2 Li2 O11 100.82(17) 2_556 .
O2 Li2 O11 110.24(19) . .
O3 Li2 Li2 123.9(2) 1_444 2_556
O2 Li2 Li2 45.50(12) 2_556 2_556
O2 Li2 Li2 44.67(12) . 2_556
O11 Li2 Li2 112.3(2) . 2_556
O3 Li2 Li4 38.34(10) 1_444 1_545
O2 Li2 Li4 117.29(18) 2_556 1_545
O2 Li2 Li4 63.19(12) . 1_545
O11 Li2 Li4 140.73(18) . 1_545
Li2 Li2 Li4 90.04(18) 2_556 1_545
O6 Li3 O4 109.21(18) 1_554 1_454
O6 Li3 O7 109.49(19) 1_554 .
O4 Li3 O7 109.33(18) 1_454 .
O6 Li3 O7 122.2(2) 1_554 2_566
O4 Li3 O7 113.12(19) 1_454 2_566
O7 Li3 O7 91.69(16) . 2_566
O6 Li3 Li3 128.4(3) 1_554 2_566
O4 Li3 Li3 121.3(2) 1_454 2_566
O7 Li3 Li3 45.86(11) . 2_566
O7 Li3 Li3 45.83(11) 2_566 2_566
O6 Li3 C14 86.83(14) 1_554 1_454
O4 Li3 C14 22.44(8) 1_454 1_454
O7 Li3 C14 120.54(16) . 1_454
O7 Li3 C14 127.75(17) 2_566 1_454
Li3 Li3 C14 143.5(2) 2_566 1_454
O6 Li3 Li4 65.56(13) 1_554 .
O4 Li3 Li4 67.35(12) 1_454 .
O7 Li3 Li4 78.61(13) . .
O7 Li3 Li4 169.56(17) 2_566 .
Li3 Li3 Li4 124.36(19) 2_566 .
C14 Li3 Li4 56.45(10) 1_454 .
O5 Li4 O3 109.34(16) 1_554 1_454
O5 Li4 O1 114.01(17) 1_554 1_565
O3 Li4 O1 106.21(17) 1_454 1_565
O5 Li4 O8 115.33(17) 1_554 .
O3 Li4 O8 124.75(18) 1_454 .
O1 Li4 O8 83.93(13) 1_565 .
O5 Li4 C21 25.43(8) 1_554 1_554
O3 Li4 C21 98.12(14) 1_454 1_554
O1 Li4 C21 139.26(17) 1_565 1_554
O8 Li4 C21 108.39(14) . 1_554
O5 Li4 C7 104.55(15) 1_554 1_565
O3 Li4 C7 89.19(14) 1_454 1_565
O1 Li4 C7 24.81(7) 1_565 1_565
O8 Li4 C7 108.54(14) . 1_565
C21 Li4 C7 128.38(14) 1_554 1_565
O5 Li4 Li1 133.42(17) 1_554 1_565
O3 Li4 Li1 115.65(17) 1_454 1_565
O1 Li4 Li1 42.10(11) 1_565 1_565
O8 Li4 Li1 43.50(10) . 1_565
C21 Li4 Li1 144.54(16) 1_554 1_565
C7 Li4 Li1 65.73(12) 1_565 1_565
O5 Li4 Li3 85.43(14) 1_554 .
O3 Li4 Li3 78.78(13) 1_454 .
O1 Li4 Li3 155.72(17) 1_565 .
O8 Li4 Li3 74.23(12) . .
C21 Li4 Li3 60.38(11) 1_554 .
C7 Li4 Li3 166.48(16) 1_565 .
Li1 Li4 Li3 113.99(15) 1_565 .
O5 Li4 Li2 98.58(14) 1_554 1_565
O3 Li4 Li2 35.93(10) 1_454 1_565
O1 Li4 Li2 80.41(13) 1_565 1_565
O8 Li4 Li2 146.04(17) . 1_565
C21 Li4 Li2 103.10(13) 1_554 1_565
C7 Li4 Li2 57.88(11) 1_565 1_565
Li1 Li4 Li2 110.51(15) 1_565 1_565
Li3 Li4 Li2 112.24(14) . 1_565
C8 Si1 C15 107.09(9) . .
C8 Si1 C22 113.69(9) . .
C15 Si1 C22 110.08(9) . .
C8 Si1 C1 109.90(10) . .
C15 Si1 C1 111.15(9) . .
C22 Si1 C1 104.99(9) . .
C7 O1 Li1 148.44(18) . .
C7 O1 Li4 112.07(15) . 1_545
Li1 O1 Li4 91.88(16) . 1_545
C7 O2 Li2 143.98(17) . 2_556
C7 O2 Li2 126.17(18) . .
Li2 O2 Li2 89.83(17) 2_556 .
C14 O3 Li2 139.48(18) . 1_666
C14 O3 Li4 114.74(16) . 1_656
Li2 O3 Li4 105.73(16) 1_666 1_656
C14 O4 Li3 121.94(17) . 1_656
C21 O5 Li4 112.73(18) . 1_556
C21 O6 Li3 139.54(19) . 1_556
C28 O7 Li3 126.04(17) . .
C28 O7 Li3 135.22(17) . 2_566
Li3 O7 Li3 88.31(16) . 2_566
C28 O8 Li1 140.86(17) . 1_565
C28 O8 Li4 128.71(16) . .
Li1 O8 Li4 89.81(15) 1_565 .
C6 C1 C2 117.67(17) . .
C6 C1 Si1 118.21(15) . .
C2 C1 Si1 123.94(14) . .
C3 C2 C1 121.13(17) . .
C2 C3 C4 119.89(18) . .
C5 C4 C3 119.70(17) . .
C5 C4 C7 118.99(17) . .
C3 C4 C7 121.18(17) . .
C6 C5 C4 120.16(18) . .
C5 C6 C1 121.38(18) . .
O1 C7 O2 123.57(18) . .
O1 C7 C4 119.91(17) . .
O2 C7 C4 116.52(17) . .
O1 C7 Li4 43.13(11) . 1_545
O2 C7 Li4 80.58(13) . 1_545
C4 C7 Li4 162.62(15) . 1_545
C9 C8 C13 117.79(17) . .
C9 C8 Si1 123.47(14) . .
C13 C8 Si1 118.73(15) . .
C8 C9 C10 120.93(18) . .
C11 C10 C9 120.26(19) . .
C10 C11 C12 119.60(18) . .
C10 C11 C14 121.32(18) . .
C12 C11 C14 119.04(18) . .
C13 C12 C11 119.98(18) . .
C12 C13 C8 121.30(19) . .
O4 C14 O3 124.68(18) . .
O4 C14 C11 116.76(17) . .
O3 C14 C11 118.55(18) . .
O4 C14 Li3 35.62(12) . 1_656
O3 C14 Li3 105.57(15) . 1_656
C11 C14 Li3 125.82(15) . 1_656
C20 C15 C16 117.5(2) . .
C20 C15 Si1 122.65(15) . .
C16 C15 Si1 119.87(16) . .
C17 C16 C15 121.2(2) . .
C16 C17 C18 120.8(2) . .
C19 C18 C17 118.7(2) . .
C19 C18 C21 120.3(2) . .
C17 C18 C21 120.96(19) . .
C20 C19 C18 120.4(2) . .
C19 C20 C15 121.44(19) . .
O6 C21 O5 125.6(2) . .
O6 C21 C18 116.93(19) . .
O5 C21 C18 117.5(2) . .
O6 C21 Li4 84.03(16) . 1_556
O5 C21 Li4 41.84(13) . 1_556
C18 C21 Li4 158.36(16) . 1_556
C27 C22 C23 117.35(17) . .
C27 C22 Si1 122.23(16) . .
C23 C22 Si1 119.54(14) . .
C24 C23 C22 121.53(18) . .
C23 C24 C25 120.05(19) . .
C26 C25 C24 119.35(18) . .
C26 C25 C28 121.13(18) . .
C24 C25 C28 119.33(18) . .
C25 C26 C27 120.20(19) . .
C26 C27 C22 121.32(19) . .
O7 C28 O8 124.86(18) . .
O7 C28 C25 116.08(17) . .
O8 C28 C25 119.06(17) . .
C29 N1 C32 120.1(2) . .
C29 N1 C30 121.2(3) . .
C32 N1 C30 118.4(2) . .
C29 O9 Li1 136.5(2) . .
O9 C29 N1 124.7(3) . .
N1 C30 C31 112.6(3) . .
N1 C32 C33 111.6(3) . .
C34 N2 C35 121.2(3) . .
C34 N2 C37 118.1(3) . .
C35 N2 C37 120.3(3) . .
C34 O10 Li1 121.7(2) . .
O10 C34 N2 124.5(3) . .
N2 C35 C36 113.1(3) . .
N2 C37 C38 110.4(3) . .
C39 O11 Li2 133.0(4) . .
C39D O11 Li2 117.8(8) . .
O11 C39 C40 109.5(5) . .
O11 C39D C40D 108.6(16) . .
loop_
_geom_bond_atom_site_label_1
_geom_bond_atom_site_label_2
_geom_bond_distance
_geom_bond_site_symmetry_2
Li1 O1 1.898(4) .
Li1 O9 1.908(4) .
Li1 O8 1.948(4) 1_545
Li1 O10 1.972(5) .
Li1 Li4 2.830(5) 1_545
Li2 O3 1.907(4) 1_444
Li2 O2 1.911(4) 2_556
Li2 O2 1.939(4) .
Li2 O11 1.943(4) .
Li2 Li2 2.719(8) 2_556
Li2 Li4 3.129(5) 1_545
Li3 O6 1.882(4) 1_554
Li3 O4 1.908(4) 1_454
Li3 O7 1.950(4) .
Li3 O7 1.951(4) 2_566
Li3 Li3 2.717(7) 2_566
Li3 C14 2.780(4) 1_454
Li3 Li4 3.094(5) .
Li4 O5 1.974(4) 1_554
Li4 O3 2.016(4) 1_454
Li4 O1 2.037(4) 1_565
Li4 O8 2.059(3) .
Li4 C21 2.729(4) 1_554
Li4 C7 2.762(4) 1_565
Li4 Li1 2.830(5) 1_565
Li4 Li2 3.129(5) 1_565
Si1 C8 1.864(2) .
Si1 C15 1.871(2) .
Si1 C22 1.873(2) .
Si1 C1 1.878(2) .
O1 C7 1.250(2) .
O1 Li4 2.037(4) 1_545
O2 C7 1.260(2) .
O2 Li2 1.911(4) 2_556
O3 C14 1.263(3) .
O3 Li2 1.907(4) 1_666
O3 Li4 2.017(4) 1_656
O4 C14 1.250(2) .
O4 Li3 1.908(4) 1_656
O5 C21 1.271(3) .
O5 Li4 1.974(4) 1_556
O6 C21 1.248(3) .
O6 Li3 1.882(4) 1_556
O7 C28 1.253(3) .
O7 Li3 1.951(4) 2_566
O8 C28 1.259(2) .
O8 Li1 1.948(4) 1_565
C1 C6 1.403(3) .
C1 C2 1.404(3) .
C2 C3 1.391(3) .
C3 C4 1.392(3) .
C4 C5 1.391(3) .
C4 C7 1.501(3) .
C5 C6 1.381(3) .
C7 Li4 2.762(4) 1_545
C8 C9 1.391(3) .
C8 C13 1.409(3) .
C9 C10 1.397(3) .
C10 C11 1.387(3) .
C11 C12 1.388(3) .
C11 C14 1.510(3) .
C12 C13 1.385(3) .
C14 Li3 2.780(4) 1_656
C15 C20 1.398(3) .
C15 C16 1.404(3) .
C16 C17 1.383(3) .
C17 C18 1.394(3) .
C18 C19 1.393(3) .
C18 C21 1.506(3) .
C19 C20 1.390(3) .
C21 Li4 2.729(4) 1_556
C22 C27 1.400(3) .
C22 C23 1.404(3) .
C23 C24 1.387(3) .
C24 C25 1.394(3) .
C25 C26 1.390(3) .
C25 C28 1.510(3) .
C26 C27 1.392(3) .
N1 C29 1.326(3) .
N1 C32 1.455(4) .
N1 C30 1.477(4) .
O9 C29 1.236(3) .
C30 C31 1.497(7) .
C32 C33 1.494(5) .
N2 C34 1.333(4) .
N2 C35 1.449(4) .
N2 C37 1.473(4) .
O10 C34 1.247(4) .
C35 C36 1.516(5) .
C37 C38 1.517(6) .
O11 C39 1.441(8) .
O11 C39D 1.46(2) .
C39 C40 1.503(9) .
C39D C40D 1.48(3) .
