#------------------------------------------------------------------------------
#$Date: 2016-02-13 21:28:24 +0200 (Sat, 13 Feb 2016) $
#$Revision: 176429 $
#$URL: svn://www.crystallography.net/cod/cif/7/03/55/7035542.cif $
#------------------------------------------------------------------------------
#
# This file is available in the Crystallography Open Database (COD),
# http://www.crystallography.net/
#
# All data on this site have been placed in the public domain by the
# contributors.
#
data_7035542
loop_
_publ_author_name
'Ghosh, Raja'
'Pedicini, Anthony F.'
'Rao, Purna Chandra'
'Asha, K. S.'
'Reber, Arthur C.'
'Mandal, Sukhendu'
_publ_section_title
;
 The effect of cluster size on the optical band gap energy of Zn-based
 metal-organic frameworks.
;
_journal_issue                   30
_journal_name_full
'Dalton transactions (Cambridge, England : 2003)'
_journal_page_first              13464
_journal_page_last               13468
_journal_paper_doi               10.1039/c5dt02132d
_journal_volume                  44
_journal_year                    2015
_chemical_formula_sum            'C15.5 H9 N0.5 O7.5 S Zn1.5'
_chemical_formula_weight         452.35
_chemical_name_common            zinccarboxylate
_chemical_name_systematic
;
 ?
;
_space_group_crystal_system      monoclinic
_space_group_IT_number           14
_space_group_name_Hall           '-P 2yn'
_space_group_name_H-M_alt        'P 1 21/n 1'
_symmetry_space_group_name_Hall  '-P 2yn'
_symmetry_space_group_name_H-M   'P 1 21/n 1'
_atom_sites_solution_hydrogens   geom
_atom_sites_solution_primary     direct
_atom_sites_solution_secondary   difmap
_audit_creation_method           SHELXL-2014
_audit_update_record
;
2015-03-09 deposited with the CCDC.
2015-06-24 downloaded from the CCDC.
;
_cell_angle_alpha                90
_cell_angle_beta                 93.616(2)
_cell_angle_gamma                90
_cell_formula_units_Z            4
_cell_length_a                   13.9367(7)
_cell_length_b                   6.1040(3)
_cell_length_c                   19.7129(11)
_cell_measurement_temperature    298(2)
_cell_volume                     1673.63(15)
_computing_cell_refinement       'Bruker SMART'
_computing_data_collection       'Bruker SMART'
_computing_data_reduction        'Bruker SAINT'
_computing_molecular_graphics    'Bruker SHELXTL'
_computing_publication_material  'Bruker SHELXTL'
_computing_structure_refinement  'SHELXL-2014 (Sheldrick, 2014)'
_computing_structure_solution    'SHELXS-97 (Sheldrick, 1990)'
_diffrn_ambient_temperature      298(2)
_diffrn_measured_fraction_theta_full 0.998
_diffrn_measured_fraction_theta_max 0.995
_diffrn_measurement_device_type  'CCD area detector'
_diffrn_measurement_method       'phi and omega scans'
_diffrn_radiation_type           MoK\a
_diffrn_radiation_wavelength     0.71073
_diffrn_reflns_av_R_equivalents  0.0373
_diffrn_reflns_av_unetI/netI     0.0414
_diffrn_reflns_Laue_measured_fraction_full 0.998
_diffrn_reflns_Laue_measured_fraction_max 0.995
_diffrn_reflns_limit_h_max       18
_diffrn_reflns_limit_h_min       -16
_diffrn_reflns_limit_k_max       8
_diffrn_reflns_limit_k_min       -7
_diffrn_reflns_limit_l_max       26
_diffrn_reflns_limit_l_min       -26
_diffrn_reflns_number            15867
_diffrn_reflns_point_group_measured_fraction_full 0.998
_diffrn_reflns_point_group_measured_fraction_max 0.995
_diffrn_reflns_theta_full        25.242
_diffrn_reflns_theta_max         28.381
_diffrn_reflns_theta_min         1.739
_exptl_absorpt_coefficient_mu    2.333
_exptl_absorpt_correction_T_max  0.800
_exptl_absorpt_correction_T_min  0.653
_exptl_absorpt_correction_type   empirical
_exptl_absorpt_process_details   SADABS
_exptl_crystal_colour            colorless
_exptl_crystal_density_diffrn    1.795
_exptl_crystal_description       platelike
_exptl_crystal_F_000             906
_exptl_crystal_size_max          0.200
_exptl_crystal_size_mid          0.150
_exptl_crystal_size_min          0.100
_refine_diff_density_max         0.974
_refine_diff_density_min         -0.762
_refine_diff_density_rms         0.257
_refine_ls_extinction_method     none
_refine_ls_goodness_of_fit_ref   1.085
_refine_ls_hydrogen_treatment    none
_refine_ls_matrix_type           full
_refine_ls_number_parameters     235
_refine_ls_number_reflns         4173
_refine_ls_number_restraints     0
_refine_ls_restrained_S_all      1.085
_refine_ls_R_factor_all          0.0668
_refine_ls_R_factor_gt           0.0356
_refine_ls_shift/su_max          0.000
_refine_ls_shift/su_mean         0.000
_refine_ls_structure_factor_coef Fsqd
_refine_ls_weighting_details
'w=1/[\s^2^(Fo^2^)+(0.0667P)^2^] where P=(Fo^2^+2Fc^2^)/3'
_refine_ls_weighting_scheme      calc
_refine_ls_wR_factor_gt          0.0948
_refine_ls_wR_factor_ref         0.1210
_reflns_Friedel_coverage         0.000
_reflns_number_gt                2943
_reflns_number_total             4173
_reflns_threshold_expression     'I > 2\s(I)'
_cod_data_source_file            c5dt02132d2.cif
_cod_data_source_block           compound3
_cod_depositor_comments
'Adding full bibliography for 7035540--7035542.cif.'
_cod_original_formula_sum        'C15.50 H9 N0.50 O7.50 S Zn1.50'
_cod_database_code               7035542
#BEGIN Tags that were not found in dictionaries:
_shelx_space_group_comment
;
The symmetry employed for this shelxl refinement is uniquely defined
by the following loop, which should always be used as a source of
symmetry information in preference to the above space-group names.
They are only intended as comments.
;
_shelx_estimated_absorpt_t_min   0.653
_shelx_estimated_absorpt_t_max   0.800
_shelxl_version_number           2014-3
_shelx_res_file
;
TITL 0319_040913_SKM_ZN_SDB_0m in P2(1)/n
CELL  0.71073  13.9367   6.1040  19.7129   90.000   93.616   90.000
ZERR     4.00   0.0007   0.0003   0.0011    0.000    0.002    0.000
LATT   1
SYMM  1/2 - X, 1/2 + Y, 1/2 - Z
SFAC  C    H    O    S    ZN   N
UNIT  62   36   30   4    6    2
MERG   2
bloc C1 C16 C17 N1 O8
FMAP   2
PLAN  100
SIZE     0.100   0.150   0.200
ACTA
BOND   $H
L.S.   4
WGHT    0.066700
FVAR       0.09815
ZN1   5    1.102010    0.510490    0.017560    11.00000    0.01772    0.02202 =
         0.03154    0.00656   -0.00085   -0.00027
ZN2   5    1.000000    1.000000    0.000000    10.50000    0.01892    0.01651 =
         0.02597    0.00076    0.00456    0.00129
S1    4    0.531900    0.924380    0.270040    11.00000    0.01733    0.03744 =
         0.02159    0.00629    0.00087    0.00095
O1    3    1.164560    0.378170    0.095780    11.00000    0.04308    0.02974 =
         0.04004    0.00590   -0.01802    0.00305
O2    3    1.194500    0.634360   -0.039270    11.00000    0.02838    0.03427 =
         0.04574    0.01237    0.01341    0.00227
O3    3    0.988040    0.689010    0.036190    11.00000    0.02185    0.01841 =
         0.02165    0.00115    0.00242    0.00086
AFIX  13
H3A   2    0.975733    0.688096    0.084590    11.00000    1.20000
AFIX   0
O4    3    0.897230    1.076040    0.068330    11.00000    0.03076    0.03960 =
         0.03310    0.00323    0.01322    0.00928
O5    3    1.119580    0.030360    0.076480    11.00000    0.02975    0.03417 =
         0.03853    0.00332   -0.01539   -0.00344
O6    3    0.545640    1.063160    0.328570    11.00000    0.02892    0.06669 =
         0.02263   -0.00720   -0.00007   -0.00295
O7    3    0.537310    0.690520    0.277420    11.00000    0.03028    0.03545 =
         0.04383    0.01995    0.00209    0.00414
C8    1    0.824420    1.192790    0.072920    11.00000    0.02374    0.02790 =
         0.02445   -0.00289    0.00569   -0.00276
C9    1    0.752250    1.126380    0.122550    11.00000    0.02108    0.02694 =
         0.02425   -0.00045    0.00407    0.00207
C14   1    0.755130    0.920390    0.151570    11.00000    0.03064    0.03285 =
         0.04292    0.00603    0.01428    0.01095
AFIX  43
H14   2    0.803456    0.823047    0.141294    11.00000   -1.20000
AFIX   0
C13   1    0.687320    0.857410    0.195530    11.00000    0.03175    0.02991 =
         0.03838    0.00856    0.01349    0.00726
AFIX  43
H13   2    0.688687    0.717145    0.213987    11.00000   -1.20000
AFIX   0
C12   1    0.617010    1.005260    0.211980    11.00000    0.02063    0.02947 =
         0.02086    0.00386    0.00078   -0.00159
C11   1    0.614820    1.213410    0.184590    11.00000    0.03249    0.03024 =
         0.04790    0.00594    0.01724    0.01010
AFIX  43
H11   2    0.568326    1.313120    0.196526    11.00000   -1.20000
AFIX   0
C10   1    0.681680    1.272770    0.139570    11.00000    0.03473    0.02498 =
         0.04482    0.00766    0.01903    0.00475
AFIX  43
H10   2    0.679512    1.412071    0.120426    11.00000   -1.20000
AFIX   0
C5    1    1.420410   -0.008680    0.227980    11.00000    0.01717    0.02798 =
         0.01882    0.00410    0.00170   -0.00122
C1    1    1.171890    0.173170    0.104410    11.00000    0.02232    0.03175 =
         0.01988    0.00453    0.00180    0.00258
C2    1    1.255550    0.102720    0.151400    11.00000    0.01877    0.02736 =
         0.02372    0.00621   -0.00011   -0.00067
C7    1    1.298070    0.251670    0.196950    11.00000    0.02410    0.02603 =
         0.02965    0.00011    0.00020    0.00297
AFIX  43
H7    2    1.271165    0.390081    0.201088    11.00000   -1.20000
AFIX   0
C6    1    1.380410    0.196510    0.236480    11.00000    0.02205    0.03457 =
         0.02354   -0.00549   -0.00101   -0.00161
AFIX  43
H6    2    1.408109    0.294975    0.267950    11.00000   -1.20000
AFIX   0
C4    1    1.377480   -0.159910    0.183740    11.00000    0.02676    0.02568 =
         0.03685    0.00087   -0.00356    0.00539
AFIX  43
H4    2    1.404716   -0.297867    0.179333    11.00000   -1.20000
AFIX   0
C3    1    1.293840   -0.105710    0.145980    11.00000    0.03043    0.02751 =
         0.03392   -0.00444   -0.00811    0.00016
AFIX  43
H3    2    1.263482   -0.208416    0.117141    11.00000   -1.20000
AFIX   0
C15   1    0.410510    0.275410    0.010790    10.50000    0.28077
C17   1    0.477250    0.585350    0.062240    10.50000    0.24275
O8    3    0.492350    0.392410   -0.001610    10.50000    0.17259
N1    6    0.508210    0.151240   -0.015760    10.50000    0.31770
C16   1    0.425950    0.461770    0.041420    10.50000    0.16297
HKLF    4

REM  0319_040913_SKM_ZN_SDB_0m in P2(1)/n
REM R1 =  0.0356 for    2943 Fo > 4sig(Fo)  and  0.0668 for all    4173 data
REM    235 parameters refined using      0 restraints

END

WGHT      0.0667      0.0000

REM Highest difference peak  0.974,  deepest hole -0.762,  1-sigma level  0.257
Q1    1   0.4306  0.5585  0.0221  11.00000  0.05    0.97
Q2    1   0.4356  0.6784  0.0306  11.00000  0.05    0.86
Q3    1   0.5000  0.5000  0.0000  10.50000  0.05    0.85
Q4    1   0.4682  0.2853  0.0017  11.00000  0.05    0.79
Q5    1   0.4794  0.2514 -0.0609  11.00000  0.05    0.75
Q6    1   0.4402  0.3633  0.0621  11.00000  0.05    0.74
Q7    1   0.4102  0.3659  0.0371  11.00000  0.05    0.74
Q8    1   0.5208  0.2754  0.0009  11.00000  0.05    0.73
Q9    1   0.4265  0.0241 -0.0019  11.00000  0.05    0.71
Q10   1   0.5635  0.0438  0.0029  11.00000  0.05    0.69
Q11   1   0.4471  0.5031  0.0802  11.00000  0.05    0.67
Q12   1   0.5214  0.6367  0.0883  11.00000  0.05    0.66
Q13   1   0.3608  0.1221 -0.0188  11.00000  0.05    0.56
Q14   1   0.4505  0.2299  0.0405  11.00000  0.05    0.55
Q15   1   0.3990  0.2347 -0.0249  11.00000  0.05    0.54
Q16   1   0.5001  0.2095  0.0772  11.00000  0.05    0.53
Q17   1   0.4781  0.4478  0.1268  11.00000  0.05    0.53
Q18   1   0.4952 -0.0353 -0.0555  11.00000  0.05    0.51
Q19   1   0.6231  0.2125  0.0214  11.00000  0.05    0.51
Q20   1   0.5600  0.2702  0.0598  11.00000  0.05    0.50
Q21   1   0.5411  0.3544  0.0528  11.00000  0.05    0.50
Q22   1   0.3819  0.6647  0.0673  11.00000  0.05    0.50
Q23   1   0.4951  0.0955 -0.0500  11.00000  0.05    0.50
Q24   1   1.4773 -0.0230  0.2416  11.00000  0.05    0.49
Q25   1   0.6121  1.6058  0.0821  11.00000  0.05    0.49
Q26   1   0.4402  0.3184  0.1226  11.00000  0.05    0.48
Q27   1   0.5929  0.0824 -0.0435  11.00000  0.05    0.47
Q28   1   0.3845  0.5676  0.0554  11.00000  0.05    0.47
Q29   1   0.3869  0.0314 -0.0510  11.00000  0.05    0.46
Q30   1   0.5401  0.0579 -0.0793  11.00000  0.05    0.46
Q31   1   1.4254  0.0309  0.2041  11.00000  0.05    0.45
Q32   1   0.5395  1.2307  0.1321  11.00000  0.05    0.45
Q33   1   0.4196  0.1728  0.0776  11.00000  0.05    0.45
Q34   1   0.5598  1.1201  0.0899  11.00000  0.05    0.45
Q35   1   0.4397  0.0712 -0.1002  11.00000  0.05    0.44
Q36   1   0.3378  0.4535  0.0265  11.00000  0.05    0.44
Q37   1   1.4993 -0.0937  0.1261  11.00000  0.05    0.43
Q38   1   0.3471  0.5558  0.0329  11.00000  0.05    0.43
Q39   1   0.4716  0.0521 -0.1068  11.00000  0.05    0.42
Q40   1   0.4631  1.2049  0.1184  11.00000  0.05    0.42
Q41   1   0.6388  0.9118  0.1925  11.00000  0.05    0.42
Q42   1   1.3398  0.2129  0.2106  11.00000  0.05    0.42
Q43   1   0.5066  1.0822  0.1133  11.00000  0.05    0.41
Q44   1   0.5350  1.4383  0.1254  11.00000  0.05    0.41
Q45   1   0.6827  1.1960  0.1139  11.00000  0.05    0.41
Q46   1   0.3600  0.2153  0.0432  11.00000  0.05    0.41
Q47   1   0.3646  0.0468  0.0183  11.00000  0.05    0.41
Q48   1   0.5824  1.4694  0.0794  11.00000  0.05    0.41
Q49   1   0.3224  0.2283 -0.0063  11.00000  0.05    0.41
Q50   1   1.4774 -0.2231  0.1219  11.00000  0.05    0.40
Q51   1   0.6556  1.4302  0.0817  11.00000  0.05    0.40
Q52   1   0.5222  1.0473  0.1483  11.00000  0.05    0.39
Q53   1   0.5206  1.2233  0.1813  11.00000  0.05    0.39
Q54   1   0.6127  1.0808  0.1841  11.00000  0.05    0.39
Q55   1   0.3321  0.1636  0.0110  11.00000  0.05    0.39
Q56   1   0.4837  1.3245  0.1569  11.00000  0.05    0.39
Q57   1   0.5865  0.9787  0.1914  11.00000  0.05    0.38
Q58   1   1.4637  0.0515  0.1174  11.00000  0.05    0.38
Q59   1   0.3487  0.2758 -0.0086  11.00000  0.05    0.38
Q60   1   1.3869  0.3458  0.1570  11.00000  0.05    0.37
Q61   1   0.6166  1.2253  0.0802  11.00000  0.05    0.37
Q62   1   0.6225  1.1806  0.1274  11.00000  0.05    0.37
Q63   1   0.6445  1.3394  0.0817  11.00000  0.05    0.37
Q64   1   1.3247 -0.1469  0.1728  11.00000  0.05    0.37
Q65   1   0.6138  1.4332  0.1362  11.00000  0.05    0.36
Q66   1   0.6026  0.7497  0.1093  11.00000  0.05    0.36
Q67   1   1.3455 -0.0167  0.0683  11.00000  0.05    0.36
Q68   1   1.4229 -0.1165  0.1125  11.00000  0.05    0.35
Q69   1   1.4230 -0.5087  0.1348  11.00000  0.05    0.35
Q70   1   0.6647  1.2652  0.1733  11.00000  0.05    0.35
Q71   1   1.4030  0.1884  0.1352  11.00000  0.05    0.35
Q72   1   0.6813  1.3387  0.1258  11.00000  0.05    0.34
Q73   1   1.4007 -0.0417  0.1108  11.00000  0.05    0.34
Q74   1   1.4181 -0.2989  0.1462  11.00000  0.05    0.34
Q75   1   1.2811  0.1052  0.1395  11.00000  0.05    0.34
Q76   1   1.4981 -0.0421  0.1905  11.00000  0.05    0.33
Q77   1   1.4423  0.1955  0.1799  11.00000  0.05    0.33
Q78   1   1.3748 -0.1493  0.1470  11.00000  0.05    0.33
Q79   1   0.5824  1.0503  0.1208  11.00000  0.05    0.33
Q80   1   1.4193 -0.2467  0.1688  11.00000  0.05    0.32
Q81   1   1.3042  0.2687  0.2174  11.00000  0.05    0.32
Q82   1   0.6752  0.0641 -0.0097  11.00000  0.05    0.32
Q83   1   0.4960  1.4687  0.1738  11.00000  0.05    0.32
Q84   1   1.4723 -0.3852  0.1436  11.00000  0.05    0.32
Q85   1   0.7281  1.1953  0.1351  11.00000  0.05    0.32
Q86   1   1.5408 -0.3179  0.1803  11.00000  0.05    0.32
Q87   1   1.2748 -0.0087  0.1584  11.00000  0.05    0.32
Q88   1   1.3445 -0.3088  0.1121  11.00000  0.05    0.31
Q89   1   1.4064 -0.1978  0.1704  11.00000  0.05    0.31
Q90   1   1.2834  0.1650  0.1775  11.00000  0.05    0.31
Q91   1   0.3629  0.2746  0.1035  11.00000  0.05    0.31
Q92   1   1.2983 -0.1629  0.1144  11.00000  0.05    0.30
Q93   1   0.6796  0.8098  0.2006  11.00000  0.05    0.30
Q94   1   0.6381  0.7469  0.1591  11.00000  0.05    0.30
Q95   1   0.3037  0.4355  0.0693  11.00000  0.05    0.30
Q96   1   1.5212 -0.3972  0.1901  11.00000  0.05    0.30
Q97   1   1.3674 -0.2148  0.1968  11.00000  0.05    0.29
Q98   1   1.4616  0.0708  0.1549  11.00000  0.05    0.29
Q99   1   1.4026 -0.3812  0.2025  11.00000  0.05    0.28
Q100  1   0.5684  0.9935  0.2386  11.00000  0.05    0.28
;
_shelx_res_checksum              47791
#END Tags that were not found in dictionaries
loop_
_space_group_symop_operation_xyz
'x, y, z'
'-x+1/2, y+1/2, -z+1/2'
'-x, -y, -z'
'x-1/2, -y-1/2, z-1/2'
loop_
_atom_site_label
_atom_site_type_symbol
_atom_site_fract_x
_atom_site_fract_y
_atom_site_fract_z
_atom_site_U_iso_or_equiv
_atom_site_adp_type
_atom_site_occupancy
_atom_site_site_symmetry_order
_atom_site_calc_flag
_atom_site_refinement_flags_posn
_atom_site_refinement_flags_adp
_atom_site_refinement_flags_occupancy
Zn1 Zn 1.1020 0.5105 0.0176 0.024 Uani 1 1 d . . .
Zn2 Zn 1.0000 1.0000 0.0000 0.020 Uani 1 2 d S . P
S1 S 0.5319 0.9244 0.2700 0.025 Uani 1 1 d . . .
O1 O 1.1646 0.3782 0.0958 0.038 Uani 1 1 d . . .
O2 O 1.1945 0.6344 -0.0393 0.036 Uani 1 1 d . . .
O3 O 0.9880 0.6890 0.0362 0.021 Uani 1 1 d . . .
H3A H 0.9757 0.6881 0.0846 1.200 Uiso 1 1 calc R . .
O4 O 0.8972 1.0760 0.0683 0.034 Uani 1 1 d . . .
O5 O 1.1196 0.0304 0.0765 0.035 Uani 1 1 d . . .
O6 O 0.5456 1.0632 0.3286 0.039 Uani 1 1 d . . .
O7 O 0.5373 0.6905 0.2774 0.037 Uani 1 1 d . . .
C8 C 0.8244 1.1928 0.0729 0.025 Uani 1 1 d . . .
C9 C 0.7522 1.1264 0.1226 0.024 Uani 1 1 d . . .
C14 C 0.7551 0.9204 0.1516 0.035 Uani 1 1 d . . .
H14 H 0.8035 0.8230 0.1413 0.042 Uiso 1 1 calc R U .
C13 C 0.6873 0.8574 0.1955 0.033 Uani 1 1 d . . .
H13 H 0.6887 0.7171 0.2140 0.039 Uiso 1 1 calc R U .
C12 C 0.6170 1.0053 0.2120 0.024 Uani 1 1 d . . .
C11 C 0.6148 1.2134 0.1846 0.036 Uani 1 1 d . . .
H11 H 0.5683 1.3131 0.1965 0.044 Uiso 1 1 calc R U .
C10 C 0.6817 1.2728 0.1396 0.034 Uani 1 1 d . . .
H10 H 0.6795 1.4121 0.1204 0.041 Uiso 1 1 calc R U .
C5 C 1.4204 -0.0087 0.2280 0.021 Uani 1 1 d . . .
C1 C 1.1719 0.1732 0.1044 0.025 Uani 1 1 d . . .
C2 C 1.2555 0.1027 0.1514 0.023 Uani 1 1 d . . .
C7 C 1.2981 0.2517 0.1969 0.027 Uani 1 1 d . . .
H7 H 1.2712 0.3901 0.2011 0.032 Uiso 1 1 calc R U .
C6 C 1.3804 0.1965 0.2365 0.027 Uani 1 1 d . . .
H6 H 1.4081 0.2950 0.2680 0.032 Uiso 1 1 calc R U .
C4 C 1.3775 -0.1599 0.1837 0.030 Uani 1 1 d . . .
H4 H 1.4047 -0.2979 0.1793 0.036 Uiso 1 1 calc R U .
C3 C 1.2938 -0.1057 0.1460 0.031 Uani 1 1 d . . .
H3 H 1.2635 -0.2084 0.1171 0.037 Uiso 1 1 calc R U .
C15 C 0.4105 0.2754 0.0108 0.281 Uiso 0.5 1 d . . P
C17 C 0.4773 0.5853 0.0622 0.243 Uiso 0.5 1 d . . P
O8 O 0.4924 0.3924 -0.0016 0.173 Uiso 0.5 1 d . . P
N1 N 0.5082 0.1512 -0.0158 0.318 Uiso 0.5 1 d . . P
C16 C 0.4260 0.4618 0.0414 0.163 Uiso 0.5 1 d . . P
loop_
_atom_site_aniso_label
_atom_site_aniso_U_11
_atom_site_aniso_U_22
_atom_site_aniso_U_33
_atom_site_aniso_U_23
_atom_site_aniso_U_13
_atom_site_aniso_U_12
Zn1 0.018 0.022 0.032 0.007 -0.001 0.000
Zn2 0.019 0.017 0.026 0.001 0.005 0.001
S1 0.017 0.037 0.022 0.006 0.001 0.001
O1 0.043 0.030 0.040 0.006 -0.018 0.003
O2 0.028 0.034 0.046 0.012 0.013 0.002
O3 0.022 0.018 0.022 0.001 0.002 0.001
O4 0.031 0.040 0.033 0.003 0.013 0.009
O5 0.030 0.034 0.039 0.003 -0.015 -0.003
O6 0.029 0.067 0.023 -0.007 0.000 -0.003
O7 0.030 0.035 0.044 0.020 0.002 0.004
C8 0.024 0.028 0.024 -0.003 0.006 -0.003
C9 0.021 0.027 0.024 0.000 0.004 0.002
C14 0.031 0.033 0.043 0.006 0.014 0.011
C13 0.032 0.030 0.038 0.009 0.013 0.007
C12 0.021 0.029 0.021 0.004 0.001 -0.002
C11 0.032 0.030 0.048 0.006 0.017 0.010
C10 0.035 0.025 0.045 0.008 0.019 0.005
C5 0.017 0.028 0.019 0.004 0.002 -0.001
C1 0.022 0.032 0.020 0.005 0.002 0.003
C2 0.019 0.027 0.024 0.006 0.000 -0.001
C7 0.024 0.026 0.030 0.000 0.000 0.003
C6 0.022 0.035 0.024 -0.005 -0.001 -0.002
C4 0.027 0.026 0.037 0.001 -0.004 0.005
C3 0.030 0.028 0.034 -0.004 -0.008 0.000
loop_
_atom_type_symbol
_atom_type_description
_atom_type_scat_dispersion_real
_atom_type_scat_dispersion_imag
_atom_type_scat_source
C C 0.0033 0.0016 'International Tables Vol C Tables 4.2.6.8 and 6.1.1.4'
H H 0.0000 0.0000 'International Tables Vol C Tables 4.2.6.8 and 6.1.1.4'
O O 0.0106 0.0060 'International Tables Vol C Tables 4.2.6.8 and 6.1.1.4'
S S 0.1246 0.1234 'International Tables Vol C Tables 4.2.6.8 and 6.1.1.4'
Zn Zn 0.2839 1.4301 'International Tables Vol C Tables 4.2.6.8 and 6.1.1.4'
N N 0.0061 0.0033 'International Tables Vol C Tables 4.2.6.8 and 6.1.1.4'
loop_
_geom_angle_atom_site_label_1
_geom_angle_atom_site_label_2
_geom_angle_atom_site_label_3
_geom_angle
_geom_angle_site_symmetry_1
_geom_angle_site_symmetry_3
O1 Zn1 O2 110.5 . .
O1 Zn1 O3 114.5 . .
O2 Zn1 O3 117.9 . .
O1 Zn1 O3 114.2 . 3_765
O2 Zn1 O3 110.7 . 3_765
O3 Zn1 O3 87.1 . 3_765
O1 Zn1 Zn1 124.7 . 3_765
O2 Zn1 Zn1 124.5 . 3_765
O3 Zn1 Zn1 43.9 . 3_765
O3 Zn1 Zn1 43.2 3_765 3_765
O3 Zn2 O3 180.0 . 3_775
O3 Zn2 O4 95.4 . 3_775
O3 Zn2 O4 84.6 3_775 3_775
O3 Zn2 O4 84.6 . .
O3 Zn2 O4 95.4 3_775 .
O4 Zn2 O4 180.0 3_775 .
O3 Zn2 O5 95.0 . 3_765
O3 Zn2 O5 85.0 3_775 3_765
O4 Zn2 O5 93.5 3_775 3_765
O4 Zn2 O5 86.5 . 3_765
O3 Zn2 O5 85.0 . 1_565
O3 Zn2 O5 95.0 3_775 1_565
O4 Zn2 O5 86.5 3_775 1_565
O4 Zn2 O5 93.5 . 1_565
O5 Zn2 O5 180.0 3_765 1_565
O6 S1 O7 120.1 . .
O6 S1 C5 108.1 . 1_465
O7 S1 C5 108.5 . 1_465
O6 S1 C12 107.1 . .
O7 S1 C12 108.0 . .
C5 S1 C12 103.8 1_465 .
C1 O1 Zn1 123.9 . .
C8 O2 Zn1 120.7 3_775 .
Zn1 O3 Zn1 92.9 . 3_765
Zn1 O3 Zn2 111.3 . .
Zn1 O3 Zn2 116.3 3_765 .
Zn1 O3 H3A 111.7 . .
Zn1 O3 H3A 111.7 3_765 .
Zn2 O3 H3A 111.7 . .
C8 O4 Zn2 140.4 . .
C1 O5 Zn2 140.0 . 1_545
O4 C8 O2 125.6 . 3_775
O4 C8 C9 118.3 . .
O2 C8 C9 116.1 3_775 .
C14 C9 C10 119.3 . .
C14 C9 C8 120.8 . .
C10 C9 C8 119.9 . .
C13 C14 C9 120.8 . .
C13 C14 H14 119.6 . .
C9 C14 H14 119.6 . .
C14 C13 C12 119.3 . .
C14 C13 H13 120.4 . .
C12 C13 H13 120.4 . .
C11 C12 C13 120.4 . .
C11 C12 S1 120.7 . .
C13 C12 S1 118.8 . .
C10 C11 C12 119.7 . .
C10 C11 H11 120.1 . .
C12 C11 H11 120.1 . .
C11 C10 C9 120.4 . .
C11 C10 H10 119.8 . .
C9 C10 H10 119.8 . .
C4 C5 C6 121.3 . .
C4 C5 S1 118.5 . 1_645
C6 C5 S1 120.1 . 1_645
O5 C1 O1 126.4 . .
O5 C1 C2 118.8 . .
O1 C1 C2 114.7 . .
C7 C2 C3 120.1 . .
C7 C2 C1 119.6 . .
C3 C2 C1 120.1 . .
C2 C7 C6 120.7 . .
C2 C7 H7 119.7 . .
C6 C7 H7 119.7 . .
C5 C6 C7 118.4 . .
C5 C6 H6 120.8 . .
C7 C6 H6 120.8 . .
C5 C4 C3 119.8 . .
C5 C4 H4 120.1 . .
C3 C4 H4 120.1 . .
C4 C3 C2 119.6 . .
C4 C3 H3 120.2 . .
C2 C3 H3 120.2 . .
C16 C15 O8 61.0 . .
C16 C15 N1 115.4 . .
O8 C15 N1 58.7 . .
C16 C17 O8 88.3 . 3_665
C16 C17 O8 51.2 . .
O8 C17 O8 49.2 3_665 .
C16 C17 N1 119.7 . 3_665
O8 C17 N1 53.7 3_665 3_665
O8 C17 N1 101.8 . 3_665
C17 O8 O8 83.1 3_665 3_665
C17 O8 C16 144.5 3_665 .
O8 O8 C16 77.1 3_665 .
C17 O8 C15 122.5 3_665 .
O8 O8 C15 129.3 3_665 .
C16 O8 C15 56.6 . .
C17 O8 N1 82.7 3_665 .
O8 O8 N1 160.3 3_665 .
C16 O8 N1 121.9 . .
C15 O8 N1 70.3 . .
C17 O8 C16 41.0 3_665 3_665
O8 O8 C16 52.3 3_665 3_665
C16 O8 C16 129.4 . 3_665
C15 O8 C16 161.7 . 3_665
N1 O8 C16 108.5 . 3_665
C17 O8 C17 130.8 3_665 .
O8 O8 C17 47.7 3_665 .
C16 O8 C17 39.1 . .
C15 O8 C17 94.7 . .
N1 O8 C17 144.3 . .
C16 O8 C17 95.5 3_665 .
O8 N1 C15 51.0 . .
O8 N1 C17 43.7 . 3_665
C15 N1 C17 83.0 . 3_665
C17 C16 C15 149.1 . .
C17 C16 O8 89.7 . .
C15 C16 O8 62.4 . .
C17 C16 O8 50.7 . 3_665
C15 C16 O8 110.1 . 3_665
O8 C16 O8 50.6 . 3_665
loop_
_geom_bond_atom_site_label_1
_geom_bond_atom_site_label_2
_geom_bond_distance
_geom_bond_site_symmetry_2
Zn1 O1 1.9027 .
Zn1 O2 1.9158 .
Zn1 O3 1.9796 .
Zn1 O3 2.0032 3_765
Zn1 Zn1 2.8866 3_765
Zn2 O3 2.0384 .
Zn2 O3 2.0385 3_775
Zn2 O4 2.0795 3_775
Zn2 O4 2.0796 .
Zn2 O5 2.1835 3_765
Zn2 O5 2.1835 1_565
S1 O6 1.4344 .
S1 O7 1.4364 .
S1 C5 1.7624 1_465
S1 C12 1.7697 .
O1 C1 1.2661 .
O2 C8 1.2652 3_775
O3 Zn1 2.0033 3_765
O3 H3A 0.9800 .
O4 C8 1.2479 .
O5 C1 1.2425 .
O5 Zn2 2.1835 1_545
C8 O2 1.2652 3_775
C8 C9 1.5024 .
C9 C14 1.3809 .
C9 C10 1.3856 .
C14 C13 1.3766 .
C14 H14 0.9300 .
C13 C12 1.3856 .
C13 H13 0.9300 .
C12 C11 1.3801 .
C11 C10 1.3753 .
C11 H11 0.9300 .
C10 H10 0.9300 .
C5 C4 1.3802 .
C5 C6 1.3854 .
C5 S1 1.7624 1_645
C1 C2 1.5054 .
C2 C7 1.3845 .
C2 C3 1.3864 .
C7 C6 1.3873 .
C7 H7 0.9300 .
C6 H6 0.9300 .
C4 C3 1.3831 .
C4 H4 0.9300 .
C3 H3 0.9300 .
C15 C16 1.2994 .
C15 O8 1.3805 .
C15 N1 1.6710 .
C17 C16 1.1007 .
C17 O8 1.3001 3_665
C17 O8 1.7461 .
C17 N1 1.8679 3_665
O8 C17 1.3001 3_665
O8 O8 1.3315 3_665
O8 C16 1.3617 .
O8 N1 1.5171 .
O8 C16 1.6785 3_665
N1 C17 1.8679 3_665
C16 O8 1.6785 3_665
