#------------------------------------------------------------------------------
#$Date: 2016-03-05 11:41:45 +0200 (Sat, 05 Mar 2016) $
#$Revision: 177798 $
#$URL: svn://www.crystallography.net/cod/cif/7/03/76/7037659.cif $
#------------------------------------------------------------------------------
#
# This file is available in the Crystallography Open Database (COD),
# http://www.crystallography.net/
#
# All data on this site have been placed in the public domain by the
# contributors.
#
data_7037659
loop_
_publ_author_name
'Cadman, Laura K.'
'Bristow, Jessica K.'
'Stubbs, Naomi E.'
'Tiana, Davide'
'Mahon, Mary F.'
'Walsh, Aron'
'Burrows, Andrew D.'
_publ_section_title
;
 Compositional control of pore geometry in multivariate metal-organic
 frameworks: an experimental and computational study.
;
_journal_issue                   10
_journal_name_full
'Dalton transactions (Cambridge, England : 2003)'
_journal_page_first              4316
_journal_page_last               4326
_journal_paper_doi               10.1039/c5dt04045k
_journal_volume                  45
_journal_year                    2016
_chemical_formula_moiety         '0.25(C88 H48 N12.8 O32 Zn8)'
_chemical_formula_sum            'C29.5 H36.7 N5.3 O12.1 Zn2'
_chemical_formula_weight         789.88
_chemical_name_systematic
;
 ?
;
_space_group_crystal_system      tetragonal
_space_group_IT_number           140
_space_group_name_Hall           '-I 4 2c'
_space_group_name_H-M_alt        'I 4/m c m'
_symmetry_space_group_name_Hall  '-I 4 2c'
_symmetry_space_group_name_H-M   'I 4/m c m'
_atom_sites_solution_hydrogens   geom
_audit_creation_date             2015-11-13
_audit_creation_method
;
Olex2 1.2
(compiled 2015.09.30 svn.r3233 for OlexSys, GUI svn.r5103)
;
_audit_update_record
;
2015-11-13 deposited with the CCDC.
2015-12-02 downloaded from the CCDC.
;
_cell_angle_alpha                90
_cell_angle_beta                 90
_cell_angle_gamma                90
_cell_formula_units_Z            4
_cell_length_a                   15.0210(4)
_cell_length_b                   15.0210(4)
_cell_length_c                   19.2220(8)
_cell_measurement_reflns_used    40591
_cell_measurement_temperature    150(2)
_cell_measurement_theta_max      27.485
_cell_measurement_theta_min      2.910
_cell_volume                     4337.1(2)
_computing_cell_refinement       'HKL Scalepack (Otwinowski & Minor 1997)'
_computing_data_collection       'Collect (Bruker AXS BV, 1997-2004)'
_computing_data_reduction
'Denzo & Scalepack (Otwinowski & Minor, 1997)'
_computing_molecular_graphics    'ORTEX (P.McArdle, 1995)'
_computing_publication_material  'SHELXL-97/2 (Sheldrick,1997)'
_computing_structure_refinement  'SHELXL-97 (Sheldrick, 1997)'
_computing_structure_solution    'SHELXS-97 (Sheldrick, 1990)'
_diffrn_ambient_temperature      150(2)
_diffrn_measured_fraction_theta_full 0.994
_diffrn_measured_fraction_theta_max 0.993
_diffrn_measurement_device_type  '95mm CCD camera on \k-goniostat'
_diffrn_measurement_method       CCD
_diffrn_radiation_monochromator  graphite
_diffrn_radiation_source         'fine-focus sealed tube'
_diffrn_radiation_type           MoK\a
_diffrn_radiation_wavelength     0.71073
_diffrn_reflns_av_R_equivalents  0.1208
_diffrn_reflns_av_unetI/netI     0.0333
_diffrn_reflns_laue_measured_fraction_full 0.994
_diffrn_reflns_laue_measured_fraction_max 0.993
_diffrn_reflns_limit_h_max       19
_diffrn_reflns_limit_h_min       -19
_diffrn_reflns_limit_k_max       18
_diffrn_reflns_limit_k_min       -19
_diffrn_reflns_limit_l_max       24
_diffrn_reflns_limit_l_min       -24
_diffrn_reflns_number            39254
_diffrn_reflns_point_group_measured_fraction_full 0.994
_diffrn_reflns_point_group_measured_fraction_max 0.993
_diffrn_reflns_theta_full        25.242
_diffrn_reflns_theta_max         27.474
_diffrn_reflns_theta_min         3.837
_exptl_absorpt_coefficient_mu    1.160
_exptl_absorpt_correction_T_max  0.894
_exptl_absorpt_correction_T_min  0.822
_exptl_absorpt_correction_type   multi-scan
_exptl_absorpt_process_details
;
multi-scan from symmetry-related measurements 
 Sortav (Blessing 1995)
;
_exptl_crystal_colour            colorless
_exptl_crystal_density_diffrn    1.210
_exptl_crystal_description       block
_exptl_crystal_F_000             1630
_exptl_crystal_size_max          0.40
_exptl_crystal_size_mid          0.20
_exptl_crystal_size_min          0.20
_refine_diff_density_max         0.453
_refine_diff_density_min         -0.408
_refine_diff_density_rms         0.072
_refine_ls_extinction_method     none
_refine_ls_goodness_of_fit_ref   1.071
_refine_ls_hydrogen_treatment    constr
_refine_ls_matrix_type           full
_refine_ls_number_parameters     64
_refine_ls_number_reflns         1356
_refine_ls_number_restraints     21
_refine_ls_restrained_S_all      1.079
_refine_ls_R_factor_all          0.0806
_refine_ls_R_factor_gt           0.0529
_refine_ls_shift/su_max          0.000
_refine_ls_shift/su_mean         0.000
_refine_ls_structure_factor_coef Fsqd
_refine_ls_weighting_details
'w=1/[\s^2^(Fo^2^)+(0.0620P)^2^+15.6898P] where P=(Fo^2^+2Fc^2^)/3'
_refine_ls_weighting_scheme      calc
_refine_ls_wR_factor_gt          0.1299
_refine_ls_wR_factor_ref         0.1483
_reflns_Friedel_coverage         0.000
_reflns_number_gt                942
_reflns_number_total             1356
_reflns_threshold_expression     'I > 2\s(I)'
_iucr_refine_instructions_details
;
TITL Compound X
REM EQIV $1 Y,-X,Z
REM EQIV $2 -Y,X,Z
REM FREE C4 C4_$1
REM FREE C4 C4_$2
REM FREE C5 C5_$1
REM FREE C5 C5_$2
CELL 0.71073 15.021 15.021 19.222 90 90 90
ZERR 4 0.0004 0.0004 0.0008 0 0 0
LATT 2
SYMM -Y,+X,+Z
SYMM -X,-Y,+Z
SYMM +Y,-X,+Z
SYMM +X,-Y,0.5-Z
SYMM -X,+Y,0.5-Z
SYMM +Y,+X,0.5-Z
SYMM -Y,-X,0.5-Z
SFAC C H O N Zn
UNIT 118 146.8 48.4 21.2 8
EQIV $1 +Y,-X,+Z
EQIV $2 -Y,+X,+Z
DFIX 1.38 N1 C3
FLAT O1 C1 C2 C3 N1
ISOR 0.01 0.01 C4 C5 N1
 
L.S. 5 0 21
PLAN  -10
SIZE 0.4 0.2 0.2
TEMP -123
FREE C5 C5_$1
FREE C5 C5_$2
FREE C4 C4_$1
FREE C4 C4_$2
GRID
BOND $H
CONF
MORE -1
ABIN
fmap 2
acta
MERG 2
SHEL 5.8 0
OMIT -3 180
OMIT 1 3 2
REM <olex2.extras>
REM <HklSrc "%.\\k14adb1_sq.hkl">
REM </olex2.extras>
 
WGHT    0.062000   15.689800
FVAR       0.11406
ZN1   5   10.000000   10.000000    0.076793    10.25000    0.02986    0.02986 =
         0.04497    0.00000    0.00000    0.00000
O1    3    0.120566    0.054423    0.057072    11.00000    0.05045    0.09601 =
         0.06022    0.04273   -0.01554   -0.03498
N1    4    0.245015    0.133330   -0.124492    10.15000    0.09240    0.10360 =
         0.11109    0.00545    0.00521   -0.02955
N2    4   10.000000   10.000000    0.182899    10.25000    0.02966    0.02966 =
         0.05161    0.00000    0.00000    0.00000
C1    1    0.150948    0.076639   10.000000    10.50000    0.03087    0.03337 =
         0.05116    0.00000    0.00000   -0.00063
C2    1    0.230096    0.138670   10.000000    10.50000    0.03139    0.02887 =
         0.04035    0.00000    0.00000    0.00105
C3    1    0.264977    0.169901   -0.061657    11.00000    0.04581    0.04991 =
         0.03036   -0.00644    0.00208   -0.01191
PART 1
C4    1    0.051728    0.075965    0.209229    10.35000    0.06524    0.04038 =
         0.04663   -0.00391    0.01130   -0.02554
AFIX  23
H4A   2    0.016253    0.131415    0.206682    10.35000   -1.20000
H4B   2    0.106798    0.083976    0.181634    10.35000   -1.20000
AFIX   0
PART 0
PART 2
C5    1    0.090167    0.019404    0.210410    10.40000    0.03692    0.08412 =
         0.05556    0.00220   -0.00211    0.00223
AFIX  23
H5A   2    0.101745    0.084286    0.210337    10.40000   -1.20000
H5B   2    0.136303   -0.010457    0.181979    10.40000   -1.20000
AFIX   0
HKLF 4
 
REM  Compound X
REM R1 =  0.0529 for     942 Fo > 4sig(Fo)  and  0.0806 for all    1356 data
REM     64 parameters refined using     21 restraints
 
END  
     
WGHT      0.0620     15.6954 

REM Highest difference peak  0.453,  deepest hole -0.408,  1-sigma level  0.072
Q1    1   0.2799  0.0357 -0.1373  11.00000  0.05    0.45
Q2    1   0.0000  0.0000  0.1617  10.25000  0.05    0.35
Q3    1   0.0992 -0.0954  0.0523  11.00000  0.05    0.32
Q4    1   0.2225  0.1706 -0.1684  11.00000  0.05    0.31
Q5    1   0.1307  0.0339  0.0395  11.00000  0.05    0.31
Q6    1   0.0000  0.0000  0.0000  10.12500  0.05    0.28
Q7    1   0.0080 -0.1137  0.0527  11.00000  0.05    0.28
Q8    1   0.0600  0.1246  0.1916  11.00000  0.05    0.27
Q9    1   0.2454  0.1456 -0.1871  11.00000  0.05    0.26
Q10   1   0.3693  0.1307  0.3514  10.50000  0.05    0.26

  REM The information below was added by Olex2.
  REM
  REM R1 = 0.0529 for 942 Fo > 4sig(Fo) and 0.0806 for all 40879 data
  REM n/a parameters refined using n/a restraints
  REM Highest difference peak 0.45, deepest hole -0.41
  REM Mean Shift 0, Max Shift 0.000.
  
  REM +++ Tabular Listing of Refinement Information +++
  REM R1_all = 0.0806
  REM R1_gt = 0.0529
  REM wR_ref = 0.1483
  REM GOOF = 1.071
  REM Shift_max = 0.000
  REM Shift_mean = 0
  REM Reflections_all = 40879
  REM Reflections_gt = 942
  REM Parameters = n/a
  REM Hole = -0.41
  REM Peak = 0.45
  REM Flack = n/a
  
  
;
_cod_data_source_file            c5dt04045k2.cif
_cod_data_source_block           k14adb1_sq
_cod_depositor_comments
'Adding full bibliography for 7037655--7037663.cif.'
_cod_original_cell_volume        4337.1(3)
_cod_original_formula_sum        'C29.50 H36.70 N5.30 O12.10 Zn2'
_cod_database_code               7037659
_shelxl_version_number           2014-3
_shelx_space_group_comment
;
The symmetry employed for this shelxl refinement is uniquely defined
by the following loop, which should always be used as a source of
symmetry information in preference to the above space-group names.
They are only intended as comments.
;
_shelx_estimated_absorpt_t_max   0.801
_shelx_estimated_absorpt_t_min   0.654
_olex2_refinement_description
;
1. Fixed Uiso
 At 1.2 times of:
  All C(H,H) groups
2. Restrained distances
 N1-C3
 1.38 with sigma of 0.02
3. Restrained planarity
 O1, C1, C2, C3, N1
 with sigma of 0.1
4. Uiso/Uaniso restraints and constraints
Uanis(C4) \\sim Ueq, Uanis(C5) \\sim Ueq, Uanis(N1) \\sim Ueq: with sigma of
0.01 and sigma for terminal atoms of 0.01
5. Others
 Fixed Sof: N1(0.15) C4(0.35) H4A(0.35) H4B(0.35) C5(0.4) H5A(0.4) H5B(0.4)
 Fixed X: Zn1(0) N2(0)
 Fixed Y: Zn1(0) N2(0)
 Fixed Z: C1(0) C2(0)
6.a Secondary CH2 refined with riding coordinates:
 C4(H4A,H4B), C5(H5A,H5B)
;
_shelx_fab_checksum              33529
_shelx_fab_file
;
    0    0    4     11.36      0.00
    0    0    6    -52.78      0.00
    0    0    8     70.48      0.00
    0    0   10    -17.72      0.00
    0    0   12     11.43      0.00
    0    0   14      2.78      0.00
    0    0   16      3.35      0.00
    0    0   18      1.38      0.00
    0    0   20     -4.37      0.00
    0    0   22     -1.23      0.00
    0    0   24      1.13      0.00
    1    1    4     10.32      0.00
    1    1    6     -1.73      0.00
    1    1    8    -17.02      0.00
    1    1   10     -1.75      0.00
    1    1   12     -0.55      0.00
    1    1   14     -4.93      0.00
    1    1   16      1.45      0.00
    1    1   18     -0.21      0.00
    1    1   20     -2.45      0.00
    1    1   22      3.31      0.00
    1    1   24     -0.68      0.00
    0    2    4    -16.22      0.00
    0    2    6     26.47      0.00
    0    2    8     -8.90      0.00
    0    2   10     13.51      0.00
    0    2   12     -4.42      0.00
    0    2   14      2.69      0.00
    0    2   16     -2.89      0.00
    0    2   18     -1.78      0.00
    0    2   20      5.56      0.00
    0    2   22     -3.33      0.00
    0    2   24     -0.26      0.00
    1    2    1    138.76      0.00
    1    2    3    -93.17      0.00
    1    2    5      7.29      0.00
    1    2    7    -15.51      0.00
    1    2    9     21.47      0.00
    1    2   11    -14.20      0.00
    1    2   13      8.27      0.00
    1    2   15     -0.46      0.00
    1    2   17     -0.89      0.00
    1    2   19      0.99      0.00
    1    2   21     -3.93      0.00
    1    2   23      2.46      0.00
    2    2    0    -38.21      0.00
    2    2    2      4.00      0.00
    2    2    4     36.15      0.00
    2    2    6     12.42      0.00
    2    2    8    -12.16      0.00
    2    2   10      1.05      0.00
    2    2   12      4.46      0.00
    2    2   14      3.96      0.00
    2    2   16     -5.18      0.00
    2    2   18      2.75      0.00
    2    2   20      0.23      0.00
    2    2   22      1.37      0.00
    2    2   24      3.98      0.00
    1    3    0    100.95      0.00
    1    3    4    -36.00      0.00
    1    3    6     -6.65      0.00
    1    3    8      5.90      0.00
    1    3   10     -6.31      0.00
    1    3   12     -3.43      0.00
    1    3   14      2.55      0.00
    1    3   16      1.15      0.00
    1    3   18      0.51      0.00
    1    3   20     -0.20      0.00
    1    3   22     -1.61      0.00
    1    3   24     -1.82      0.00
    2    3    1    -52.48      0.00
    2    3    3     30.43      0.00
    2    3    5     21.26      0.00
    2    3    7     -3.40      0.00
    2    3    9      5.35      0.00
    2    3   11     -1.34      0.00
    2    3   13      1.54      0.00
    2    3   15     -0.02      0.00
    2    3   17      1.29      0.00
    2    3   19      0.14      0.00
    2    3   21     -3.04      0.00
    2    3   23      2.98      0.00
    3    3    0    -49.89      0.00
    3    3    2     30.14      0.00
    3    3    4    -31.99      0.00
    3    3    6    -15.44      0.00
    3    3    8      3.09      0.00
    3    3   10      3.61      0.00
    3    3   12     -2.66      0.00
    3    3   14     -9.80      0.00
    3    3   16      9.57      0.00
    3    3   18      0.00      0.00
    3    3   20     -1.48      0.00
    3    3   22     -0.60      0.00
    3    3   24     -2.11      0.00
    0    4    0    -70.77      0.00
    0    4    2     27.06      0.00
    0    4    4     38.47      0.00
    0    4    6     -4.60      0.00
    0    4    8      6.36      0.00
    0    4   10      9.67      0.00
    0    4   12     -0.82      0.00
    0    4   14     -3.92      0.00
    0    4   16      2.25      0.00
    0    4   18     -4.94      0.00
    0    4   20     -0.50      0.00
    0    4   22      2.78      0.00
    0    4   24      0.40      0.00
    1    4    1     18.85      0.00
    1    4    3     13.76      0.00
    1    4    5    -28.26      0.00
    1    4    7      5.07      0.00
    1    4    9      2.67      0.00
    1    4   11      4.55      0.00
    1    4   13     -5.07      0.00
    1    4   15     -2.28      0.00
    1    4   17      2.48      0.00
    1    4   19     -4.75      0.00
    1    4   21      3.45      0.00
    1    4   23     -3.87      0.00
    2    4    0     57.85      0.00
    2    4    2    -22.91      0.00
    2    4    4     37.12      0.00
    2    4    6     -9.43      0.00
    2    4    8     17.35      0.00
    2    4   10     -5.52      0.00
    2    4   12      6.64      0.00
    2    4   14     -1.93      0.00
    2    4   16      0.86      0.00
    2    4   18      1.25      0.00
    2    4   20     -0.24      0.00
    2    4   22     -0.28      0.00
    2    4   24      0.46      0.00
    3    4    1    -46.66      0.00
    3    4    3     31.19      0.00
    3    4    5      0.84      0.00
    3    4    7    -12.88      0.00
    3    4    9    -12.22      0.00
    3    4   11      2.45      0.00
    3    4   13      4.27      0.00
    3    4   15      0.71      0.00
    3    4   17     -2.95      0.00
    3    4   19      1.71      0.00
    3    4   21     -1.84      0.00
    3    4   23      7.09      0.00
    4    4    0     18.29      0.00
    4    4    2     23.40      0.00
    4    4    4    -28.65      0.00
    4    4    6     46.21      0.00
    4    4    8    -18.02      0.00
    4    4   10      6.29      0.00
    4    4   12     -7.57      0.00
    4    4   14      8.61      0.00
    4    4   16     -8.21      0.00
    4    4   18      1.37      0.00
    4    4   20      1.26      0.00
    4    4   22      1.22      0.00
    1    5    0    -37.52      0.00
    1    5    2      4.03      0.00
    1    5    4     -7.81      0.00
    1    5    6      1.79      0.00
    1    5    8    -13.55      0.00
    1    5   10     -4.40      0.00
    1    5   12      4.74      0.00
    1    5   14      1.04      0.00
    1    5   16     -3.33      0.00
    1    5   18      0.61      0.00
    1    5   20     -3.12      0.00
    1    5   22      0.36      0.00
    1    5   24      1.35      0.00
    2    5    1     11.96      0.00
    2    5    3    -32.66      0.00
    2    5    5     21.41      0.00
    2    5    7     10.54      0.00
    2    5    9    -10.26      0.00
    2    5   11     -4.83      0.00
    2    5   13      6.06      0.00
    2    5   15     -0.98      0.00
    2    5   17      1.21      0.00
    2    5   19      2.34      0.00
    2    5   21      1.55      0.00
    2    5   23     -2.28      0.00
    3    5    0    -45.92      0.00
    3    5    2    -11.26      0.00
    3    5    4     10.16      0.00
    3    5    6     -8.29      0.00
    3    5    8     -9.90      0.00
    3    5   10      1.78      0.00
    3    5   12     -3.75      0.00
    3    5   14      6.28      0.00
    3    5   16     -4.40      0.00
    3    5   18     -2.86      0.00
    3    5   20      0.13      0.00
    3    5   22      0.91      0.00
    4    5    1     20.06      0.00
    4    5    3     -2.97      0.00
    4    5    5    -27.18      0.00
    4    5    7     13.07      0.00
    4    5    9      2.20      0.00
    4    5   11      4.70      0.00
    4    5   13     -7.13      0.00
    4    5   15     -0.16      0.00
    4    5   17      3.80      0.00
    4    5   19      1.49      0.00
    4    5   21     -1.90      0.00
    4    5   23      0.52      0.00
    5    5    0      6.77      0.00
    5    5    2     -6.64      0.00
    5    5    4    -11.08      0.00
    5    5    6    -14.66      0.00
    5    5    8      9.12      0.00
    5    5   10      3.23      0.00
    5    5   12      3.38      0.00
    5    5   14    -11.36      0.00
    5    5   16      3.88      0.00
    5    5   18     -1.21      0.00
    5    5   20      3.71      0.00
    5    5   22     -0.24      0.00
    0    6    0     23.95      0.00
    0    6    2     -7.21      0.00
    0    6    4    -18.18      0.00
    0    6    6     27.40      0.00
    0    6    8     -6.90      0.00
    0    6   10      3.16      0.00
    0    6   12     -8.81      0.00
    0    6   14      6.44      0.00
    0    6   16     -1.67      0.00
    0    6   18      3.82      0.00
    0    6   20      1.49      0.00
    0    6   22      0.14      0.00
    1    6    1      5.30      0.00
    1    6    3      5.41      0.00
    1    6    5    -13.37      0.00
    1    6    7     -4.76      0.00
    1    6    9     10.04      0.00
    1    6   11      4.53      0.00
    1    6   13    -11.21      0.00
    1    6   15      5.79      0.00
    1    6   17    -12.29      0.00
    1    6   19     -0.73      0.00
    1    6   21      1.77      0.00
    1    6   23      0.02      0.00
    2    6    0     27.53      0.00
    2    6    2     23.33      0.00
    2    6    4    -18.52      0.00
    2    6    6      1.04      0.00
    2    6    8     13.35      0.00
    2    6   10      0.41      0.00
    2    6   12     -0.47      0.00
    2    6   14     -5.40      0.00
    2    6   16      5.50      0.00
    2    6   18      0.70      0.00
    2    6   20      5.02      0.00
    2    6   22     -2.63      0.00
    3    6    1     -0.75      0.00
    3    6    3      3.59      0.00
    3    6    5     -6.00      0.00
    3    6    7    -10.35      0.00
    3    6    9     11.08      0.00
    3    6   11      0.10      0.00
    3    6   13     -4.50      0.00
    3    6   15     -1.31      0.00
    3    6   17      2.12      0.00
    3    6   19      1.35      0.00
    3    6   21      2.83      0.00
    3    6   23     -2.31      0.00
    4    6    0      3.84      0.00
    4    6    2      4.33      0.00
    4    6    4     21.66      0.00
    4    6    6    -11.64      0.00
    4    6    8      7.51      0.00
    4    6   10     -4.84      0.00
    4    6   12      5.73      0.00
    4    6   14     -2.19      0.00
    4    6   16      4.66      0.00
    4    6   18      0.17      0.00
    4    6   20     -2.87      0.00
    4    6   22      0.15      0.00
    5    6    1     15.65      0.00
    5    6    3    -17.67      0.00
    5    6    5     -1.48      0.00
    5    6    7     12.08      0.00
    5    6    9     -4.36      0.00
    5    6   11     -5.81      0.00
    5    6   13     -1.17      0.00
    5    6   15     -5.82      0.00
    5    6   17      2.65      0.00
    5    6   19     -2.63      0.00
    5    6   21      2.62      0.00
    6    6    0      1.47      0.00
    6    6    2    -11.72      0.00
    6    6    4     15.13      0.00
    6    6    6     12.02      0.00
    6    6    8     -5.81      0.00
    6    6   10     -0.76      0.00
    6    6   12     -0.41      0.00
    6    6   14     10.91      0.00
    6    6   16     -1.52      0.00
    6    6   18     -1.05      0.00
    6    6   20     -2.80      0.00
    6    6   22     -3.68      0.00
    1    7    0     -4.85      0.00
    1    7    2     -3.39      0.00
    1    7    4      6.40      0.00
    1    7    6    -20.71      0.00
    1    7    8      2.27      0.00
    1    7   10      8.69      0.00
    1    7   12     -2.29      0.00
    1    7   14     -4.44      0.00
    1    7   16      0.23      0.00
    1    7   18     -3.09      0.00
    1    7   20      1.03      0.00
    1    7   22      1.22      0.00
    2    7    1    -12.76      0.00
    2    7    3     17.06      0.00
    2    7    5      8.78      0.00
    2    7    7      2.06      0.00
    2    7    9     -7.58      0.00
    2    7   11      1.04      0.00
    2    7   13      8.16      0.00
    2    7   15     -1.52      0.00
    2    7   17      7.66      0.00
    2    7   19     -1.72      0.00
    2    7   21     -3.41      0.00
    2    7   23      3.02      0.00
    3    7    0      2.75      0.00
    3    7    2    -22.32      0.00
    3    7    4     -6.82      0.00
    3    7    6     15.10      0.00
    3    7    8     -6.38      0.00
    3    7   10     -5.23      0.00
    3    7   12      0.52      0.00
    3    7   14      1.98      0.00
    3    7   16     -1.20      0.00
    3    7   18      2.33      0.00
    3    7   20     -2.68      0.00
    3    7   22      0.86      0.00
    4    7    1     -7.90      0.00
    4    7    3     -0.67      0.00
    4    7    5     18.08      0.00
    4    7    7     -8.83      0.00
    4    7    9      0.57      0.00
    4    7   11     -1.08      0.00
    4    7   13      4.56      0.00
    4    7   15      8.06      0.00
    4    7   17     -5.92      0.00
    4    7   19      0.41      0.00
    4    7   21     -5.38      0.00
    5    7    0      6.94      0.00
    5    7    2      2.89      0.00
    5    7    4    -18.97      0.00
    5    7    6      2.05      0.00
    5    7    8      0.62      0.00
    5    7   10      0.53      0.00
    5    7   12     -3.50      0.00
    5    7   14     -0.96      0.00
    5    7   16     -3.77      0.00
    5    7   18      1.43      0.00
    5    7   20     -0.42      0.00
    5    7   22     -0.63      0.00
    6    7    1    -11.87      0.00
    6    7    3      9.73      0.00
    6    7    5     -3.08      0.00
    6    7    7     -1.58      0.00
    6    7    9      0.84      0.00
    6    7   11      6.45      0.00
    6    7   13      3.88      0.00
    6    7   15      2.18      0.00
    6    7   17     -0.36      0.00
    6    7   19      3.59      0.00
    6    7   21      2.51      0.00
    7    7    0    -22.22      0.00
    7    7    2      2.88      0.00
    7    7    4     13.16      0.00
    7    7    6     -5.15      0.00
    7    7    8     -6.19      0.00
    7    7   10      1.65      0.00
    7    7   12     -0.75      0.00
    7    7   14     -3.12      0.00
    7    7   16      0.35      0.00
    7    7   18     -2.35      0.00
    7    7   20     -1.15      0.00
    0    8    0     -4.50      0.00
    0    8    2    -14.58      0.00
    0    8    4     29.75      0.00
    0    8    6      3.49      0.00
    0    8    8      6.69      0.00
    0    8   10    -24.32      0.00
    0    8   12     15.37      0.00
    0    8   14      1.56      0.00
    0    8   16      2.14      0.00
    0    8   18      7.34      0.00
    0    8   20     -3.45      0.00
    0    8   22     -2.21      0.00
    1    8    1      5.19      0.00
    1    8    3    -18.25      0.00
    1    8    5      3.53      0.00
    1    8    7      5.49      0.00
    1    8    9     -1.51      0.00
    1    8   11     -4.87      0.00
    1    8   13      4.18      0.00
    1    8   15     -2.20      0.00
    1    8   17     -2.64      0.00
    1    8   19     -3.46      0.00
    1    8   21     -4.44      0.00
    2    8    0     -1.26      0.00
    2    8    2     10.29      0.00
    2    8    4      0.14      0.00
    2    8    6      7.34      0.00
    2    8    8     -5.84      0.00
    2    8   10      3.94      0.00
    2    8   12     -3.27      0.00
    2    8   14      5.42      0.00
    2    8   16     -2.72      0.00
    2    8   18     -4.42      0.00
    2    8   20     -0.66      0.00
    2    8   22      1.79      0.00
    3    8    1      5.26      0.00
    3    8    3     -8.23      0.00
    3    8    5     -6.32      0.00
    3    8    7      6.55      0.00
    3    8    9     -2.59      0.00
    3    8   11     -3.20      0.00
    3    8   13      0.86      0.00
    3    8   15     -4.35      0.00
    3    8   17     -1.01      0.00
    3    8   19      1.14      0.00
    3    8   21      1.91      0.00
    4    8    0     -5.34      0.00
    4    8    2      8.50      0.00
    4    8    4     12.12      0.00
    4    8    6    -10.02      0.00
    4    8    8     -0.15      0.00
    4    8   10      4.58      0.00
    4    8   12     -1.09      0.00
    4    8   14     -0.18      0.00
    4    8   16     -0.53      0.00
    4    8   18      1.52      0.00
    4    8   20      3.06      0.00
    4    8   22      1.50      0.00
    5    8    1     -2.38      0.00
    5    8    3     11.33      0.00
    5    8    5     -4.86      0.00
    5    8    7     -2.56      0.00
    5    8    9     -2.53      0.00
    5    8   11      1.68      0.00
    5    8   13     -5.22      0.00
    5    8   15     -4.51      0.00
    5    8   17      1.47      0.00
    5    8   19     -4.24      0.00
    5    8   21      0.81      0.00
    6    8    0      0.88      0.00
    6    8    2      5.75      0.00
    6    8    4     -9.92      0.00
    6    8    6      2.97      0.00
    6    8    8      3.47      0.00
    6    8   10     -1.32      0.00
    6    8   12      1.41      0.00
    6    8   14     -2.02      0.00
    6    8   16      3.44      0.00
    6    8   18      0.92      0.00
    6    8   20      2.90      0.00
    7    8    1      0.68      0.00
    7    8    3     -1.58      0.00
    7    8    5      5.11      0.00
    7    8    7     -0.30      0.00
    7    8    9     -3.95      0.00
    7    8   11     -0.89      0.00
    7    8   13     -0.57      0.00
    7    8   15      0.55      0.00
    7    8   17     -3.49      0.00
    7    8   19     -2.31      0.00
    8    8    0     23.42      0.00
    8    8    2      0.28      0.00
    8    8    4     -4.60      0.00
    8    8    6      0.95      0.00
    8    8    8      6.51      0.00
    8    8   10      0.02      0.00
    8    8   12      0.56      0.00
    8    8   14     -2.65      0.00
    8    8   16      2.90      0.00
    8    8   18     -0.17      0.00
    8    8   20      0.31      0.00
    1    9    0      3.43      0.00
    1    9    2      1.24      0.00
    1    9    4    -13.54      0.00
    1    9    6      0.98      0.00
    1    9    8      0.22      0.00
    1    9   10      3.29      0.00
    1    9   12     -4.45      0.00
    1    9   14      1.31      0.00
    1    9   16     -0.19      0.00
    1    9   18     -0.88      0.00
    1    9   20     -0.54      0.00
    1    9   22     -2.72      0.00
    2    9    1      3.77      0.00
    2    9    3     12.29      0.00
    2    9    5     -8.32      0.00
    2    9    7     -9.96      0.00
    2    9    9      8.85      0.00
    2    9   11      7.22      0.00
    2    9   13     -9.41      0.00
    2    9   15      1.89      0.00
    2    9   17      1.51      0.00
    2    9   19      0.84      0.00
    2    9   21      5.30      0.00
    3    9    0    -11.94      0.00
    3    9    2     -1.17      0.00
    3    9    4      0.65      0.00
    3    9    6     -1.75      0.00
    3    9    8     -0.06      0.00
    3    9   10     -0.90      0.00
    3    9   12      4.51      0.00
    3    9   14     -5.51      0.00
    3    9   16      1.70      0.00
    3    9   18      1.44      0.00
    3    9   20      1.16      0.00
    4    9    1      3.74      0.00
    4    9    3     -5.34      0.00
    4    9    5      0.07      0.00
    4    9    7      4.64      0.00
    4    9    9      3.03      0.00
    4    9   11     -2.18      0.00
    4    9   13      0.15      0.00
    4    9   15      3.19      0.00
    4    9   17      2.51      0.00
    4    9   19      1.99      0.00
    4    9   21      1.12      0.00
    5    9    0      5.31      0.00
    5    9    2     -6.07      0.00
    5    9    4      0.11      0.00
    5    9    6      0.04      0.00
    5    9    8     -0.53      0.00
    5    9   10      1.89      0.00
    5    9   12     -2.89      0.00
    5    9   14      2.79      0.00
    5    9   16     -0.17      0.00
    5    9   18     -1.29      0.00
    5    9   20     -1.38      0.00
    6    9    1     10.91      0.00
    6    9    3     -8.53      0.00
    6    9    5     -4.86      0.00
    6    9    7      7.92      0.00
    6    9    9      0.93      0.00
    6    9   11      1.56      0.00
    6    9   13      2.30      0.00
    6    9   15      0.56      0.00
    6    9   17     -1.07      0.00
    6    9   19      2.93      0.00
    7    9    0     -0.58      0.00
    7    9    2     -2.88      0.00
    7    9    4      4.48      0.00
    7    9    6     -2.26      0.00
    7    9    8     -1.52      0.00
    7    9   10     -0.55      0.00
    7    9   12      1.20      0.00
    7    9   14      3.07      0.00
    7    9   16     -4.44      0.00
    7    9   18     -1.04      0.00
    7    9   20     -0.29      0.00
    8    9    1     -8.19      0.00
    8    9    3      8.52      0.00
    8    9    5      3.08      0.00
    8    9    7     -2.16      0.00
    8    9    9      4.60      0.00
    8    9   11      1.44      0.00
    8    9   13     -4.31      0.00
    8    9   15      1.98      0.00
    8    9   17      2.83      0.00
    8    9   19      0.54      0.00
    9    9    0     -8.70      0.00
    9    9    2     -0.21      0.00
    9    9    4      0.34      0.00
    9    9    6      1.36      0.00
    9    9    8     -0.95      0.00
    9    9   10     -0.61      0.00
    9    9   12     -0.24      0.00
    9    9   14      1.10      0.00
    9    9   16     -3.07      0.00
    9    9   18      1.36      0.00
    0   10    0     -7.49      0.00
    0   10    2     12.24      0.00
    0   10    4      1.40      0.00
    0   10    6     -1.47      0.00
    0   10    8     -6.20      0.00
    0   10   10     12.56      0.00
    0   10   12     -2.81      0.00
    0   10   14     -7.15      0.00
    0   10   16     -1.24      0.00
    0   10   18      0.90      0.00
    0   10   20      3.48      0.00
    1   10    1     -5.47      0.00
    1   10    3     -0.53      0.00
    1   10    5      4.25      0.00
    1   10    7      5.55      0.00
    1   10    9     -8.79      0.00
    1   10   11      2.49      0.00
    1   10   13      0.72      0.00
    1   10   15     -0.34      0.00
    1   10   17     -2.29      0.00
    1   10   19      4.34      0.00
    1   10   21     -4.87      0.00
    2   10    0     13.38      0.00
    2   10    2     -0.59      0.00
    2   10    4     -1.64      0.00
    2   10    6     -0.36      0.00
    2   10    8      5.49      0.00
    2   10   10      0.09      0.00
    2   10   12     -0.81      0.00
    2   10   14      1.47      0.00
    2   10   16     -0.08      0.00
    2   10   18     -1.51      0.00
    2   10   20     -4.11      0.00
    3   10    1     -2.73      0.00
    3   10    3     -6.55      0.00
    3   10    5      1.54      0.00
    3   10    7      1.57      0.00
    3   10    9     -3.21      0.00
    3   10   11     -0.65      0.00
    3   10   13      2.22      0.00
    3   10   15      0.04      0.00
    3   10   17     -1.58      0.00
    3   10   19     -1.08      0.00
    3   10   21      1.27      0.00
    4   10    0      6.42      0.00
    4   10    2     -0.26      0.00
    4   10    4     -0.47      0.00
    4   10    6      5.10      0.00
    4   10    8      3.58      0.00
    4   10   10     -9.51      0.00
    4   10   12      3.47      0.00
    4   10   14      1.65      0.00
    4   10   16     -0.79      0.00
    4   10   18     -1.51      0.00
    4   10   20      1.05      0.00
    5   10    1     -3.05      0.00
    5   10    3      6.71      0.00
    5   10    5      4.67      0.00
    5   10    7     -9.10      0.00
    5   10    9      2.12      0.00
    5   10   11     -1.20      0.00
    5   10   13      0.01      0.00
    5   10   15     -0.82      0.00
    5   10   17      0.04      0.00
    5   10   19     -3.68      0.00
    6   10    0     -8.87      0.00
    6   10    2      0.41      0.00
    6   10    4      1.71      0.00
    6   10    6      0.81      0.00
    6   10    8     -4.57      0.00
    6   10   10     -0.31      0.00
    6   10   12      1.24      0.00
    6   10   14     -1.08      0.00
    6   10   16      1.32      0.00
    6   10   18      1.20      0.00
    7   10    1     -3.48      0.00
    7   10    3     -3.29      0.00
    7   10    5      1.10      0.00
    7   10    7     -2.79      0.00
    7   10    9     -2.59      0.00
    7   10   11     -2.57      0.00
    7   10   13      0.20      0.00
    7   10   15     -0.62      0.00
    7   10   17      0.94      0.00
    7   10   19     -0.56      0.00
    8   10    0     -6.41      0.00
    8   10    2     -0.52      0.00
    8   10    4      1.08      0.00
    8   10    6     -0.39      0.00
    8   10    8     -0.93      0.00
    8   10   10      2.05      0.00
    8   10   12     -1.64      0.00
    8   10   14      0.47      0.00
    8   10   16      3.86      0.00
    8   10   18      0.87      0.00
    9   10    1      3.90      0.00
    9   10    3     -5.84      0.00
    9   10    5     -5.36      0.00
    9   10    7      4.07      0.00
    9   10    9     -1.53      0.00
    9   10   11     -1.79      0.00
    9   10   13     -0.64      0.00
    9   10   15     -1.26      0.00
    9   10   17     -3.22      0.00
   10   10    0     10.89      0.00
   10   10    2     -2.43      0.00
   10   10    4     -4.84      0.00
   10   10    6      2.17      0.00
   10   10    8     -0.98      0.00
   10   10   10     -3.10      0.00
   10   10   12      2.48      0.00
   10   10   14      2.79      0.00
   10   10   16      0.35      0.00
    1   11    0     -4.06      0.00
    1   11    2     -7.86      0.00
    1   11    4     -0.38      0.00
    1   11    6      2.93      0.00
    1   11    8     -0.43      0.00
    1   11   10     -9.80      0.00
    1   11   12      3.60      0.00
    1   11   14      2.36      0.00
    1   11   16      3.34      0.00
    1   11   18      0.76      0.00
    1   11   20      3.87      0.00
    2   11    1      2.11      0.00
    2   11    3      1.88      0.00
    2   11    5      0.96      0.00
    2   11    7     -0.60      0.00
    2   11    9      0.26      0.00
    2   11   11     -6.18      0.00
    2   11   13      4.62      0.00
    2   11   15      2.37      0.00
    2   11   17      0.90      0.00
    2   11   19     -1.97      0.00
    3   11    0     -4.04      0.00
    3   11    2     -0.32      0.00
    3   11    4      3.48      0.00
    3   11    6     -7.49      0.00
    3   11    8     -3.76      0.00
    3   11   10      9.32      0.00
    3   11   12     -3.00      0.00
    3   11   14     -1.50      0.00
    3   11   16     -0.54      0.00
    3   11   18      0.69      0.00
    3   11   20      0.27      0.00
    4   11    1     -6.75      0.00
    4   11    3      3.75      0.00
    4   11    5     -1.03      0.00
    4   11    7      1.98      0.00
    4   11    9     -4.64      0.00
    4   11   11      2.12      0.00
    4   11   13      1.11      0.00
    4   11   15     -2.18      0.00
    4   11   17     -2.24      0.00
    4   11   19      4.05      0.00
    5   11    0     -1.56      0.00
    5   11    2      2.15      0.00
    5   11    4     -0.57      0.00
    5   11    6      0.11      0.00
    5   11    8      0.19      0.00
    5   11   10      3.96      0.00
    5   11   12     -3.17      0.00
    5   11   14     -0.13      0.00
    5   11   16      2.07      0.00
    5   11   18      0.68      0.00
    6   11    1     -1.57      0.00
    6   11    3     -3.46      0.00
    6   11    5     -0.24      0.00
    6   11    7      0.27      0.00
    6   11    9      3.38      0.00
    6   11   11      0.00      0.00
    6   11   13      1.27      0.00
    6   11   15      0.96      0.00
    6   11   17      1.26      0.00
    6   11   19      3.58      0.00
    7   11    0     11.67      0.00
    7   11    2      1.37      0.00
    7   11    4     -5.35      0.00
    7   11    6      1.43      0.00
    7   11    8      4.10      0.00
    7   11   10     -3.08      0.00
    7   11   12      0.98      0.00
    7   11   14     -3.67      0.00
    7   11   16     -4.91      0.00
    7   11   18     -0.51      0.00
    8   11    1      2.18      0.00
    8   11    3      3.83      0.00
    8   11    5     -0.92      0.00
    8   11    7      1.22      0.00
    8   11    9      3.77      0.00
    8   11   11      2.82      0.00
    8   11   13     -0.21      0.00
    8   11   15     -0.88      0.00
    8   11   17      0.53      0.00
    9   11    0     -2.67      0.00
    9   11    2      0.19      0.00
    9   11    4      1.79      0.00
    9   11    6     -2.67      0.00
    9   11    8      0.52      0.00
    9   11   10      1.41      0.00
    9   11   12     -1.90      0.00
    9   11   14     -1.95      0.00
    9   11   16     -1.22      0.00
   10   11    1      0.96      0.00
   10   11    3      7.61      0.00
   10   11    5      1.97      0.00
   10   11    7      0.71      0.00
   10   11    9     -2.31      0.00
   10   11   11      2.85      0.00
   10   11   13     -0.99      0.00
   10   11   15      1.83      0.00
   11   11    0     -5.01      0.00
   11   11    2      0.98      0.00
   11   11    4     -0.35      0.00
   11   11    6      0.89      0.00
   11   11    8     -3.13      0.00
   11   11   10     -1.57      0.00
   11   11   12      2.63      0.00
   11   11   14     -1.27      0.00
    0   12    0      5.41      0.00
    0   12    2      3.29      0.00
    0   12    4      4.55      0.00
    0   12    6     -4.45      0.00
    0   12    8      0.22      0.00
    0   12   10      3.94      0.00
    0   12   12     -2.22      0.00
    0   12   14      1.01      0.00
    0   12   16     -3.67      0.00
    0   12   18     -2.73      0.00
    1   12    1     -2.14      0.00
    1   12    3      4.93      0.00
    1   12    5      1.56      0.00
    1   12    7     -5.21      0.00
    1   12    9      5.18      0.00
    1   12   11      1.12      0.00
    1   12   13     -2.05      0.00
    1   12   15     -5.59      0.00
    1   12   17     -1.88      0.00
    1   12   19      1.30      0.00
    2   12    0     -0.29      0.00
    2   12    2      4.63      0.00
    2   12    4      2.64      0.00
    2   12    6      1.65      0.00
    2   12    8      0.33      0.00
    2   12   10     -3.63      0.00
    2   12   12      2.48      0.00
    2   12   14      0.38      0.00
    2   12   16     -4.73      0.00
    2   12   18      0.88      0.00
    3   12    1      7.02      0.00
    3   12    3     -4.70      0.00
    3   12    5     -1.51      0.00
    3   12    7     -2.20      0.00
    3   12    9      6.16      0.00
    3   12   11      2.11      0.00
    3   12   13     -3.50      0.00
    3   12   15      0.68      0.00
    3   12   17      4.90      0.00
    3   12   19     -4.70      0.00
    4   12    0     -3.34      0.00
    4   12    2     -0.62      0.00
    4   12    4     -5.83      0.00
    4   12    6      4.62      0.00
    4   12    8     -1.28      0.00
    4   12   10     -2.07      0.00
    4   12   12     -0.59      0.00
    4   12   14     -1.23      0.00
    4   12   16      1.00      0.00
    4   12   18      0.75      0.00
    5   12    1      6.57      0.00
    5   12    3      2.05      0.00
    5   12    5     -1.15      0.00
    5   12    7      5.31      0.00
    5   12    9     -3.64      0.00
    5   12   11     -0.31      0.00
    5   12   13     -3.09      0.00
    5   12   15     -1.07      0.00
    5   12   17     -3.34      0.00
    6   12    0      2.10      0.00
    6   12    2     -1.92      0.00
    6   12    4      5.58      0.00
    6   12    6     -4.10      0.00
    6   12    8      2.29      0.00
    6   12   10      1.11      0.00
    6   12   12      0.16      0.00
    6   12   14      0.34      0.00
    6   12   16      2.67      0.00
    6   12   18     -1.06      0.00
    7   12    1      0.55      0.00
    7   12    3     -2.41      0.00
    7   12    5      2.42      0.00
    7   12    7     -4.13      0.00
    7   12    9     -4.30      0.00
    7   12   11     -2.69      0.00
    7   12   13      1.66      0.00
    7   12   15     -1.15      0.00
    7   12   17      1.38      0.00
    8   12    0     -3.81      0.00
    8   12    2      2.07      0.00
    8   12    4      0.73      0.00
    8   12    6      0.32      0.00
    8   12    8     -1.56      0.00
    8   12   10      2.52      0.00
    8   12   12      1.13      0.00
    8   12   14      1.71      0.00
    8   12   16      2.71      0.00
    9   12    1     -2.30      0.00
    9   12    3     -3.01      0.00
    9   12    5      0.02      0.00
    9   12    7     -2.15      0.00
    9   12    9     -2.80      0.00
    9   12   11     -0.74      0.00
    9   12   13      2.42      0.00
    9   12   15      3.89      0.00
   10   12    0      1.59      0.00
   10   12    2      1.57      0.00
   10   12    4      2.79      0.00
   10   12    6      0.08      0.00
   10   12    8      2.48      0.00
   10   12   10     -1.00      0.00
   10   12   12     -1.29      0.00
   10   12   14     -0.19      0.00
   11   12    1      4.93      0.00
   11   12    3     -6.20      0.00
   11   12    5      4.33      0.00
   11   12    7      3.05      0.00
   11   12    9      4.23      0.00
   11   12   11     -1.61      0.00
   11   12   13      8.21      0.00
   12   12    0     -3.09      0.00
   12   12    2     -0.35      0.00
   12   12    4     -0.02      0.00
   12   12    6      2.24      0.00
   12   12    8     -0.99      0.00
   12   12   10      2.67      0.00
   12   12   12     -3.66      0.00
    1   13    0     -3.27      0.00
    1   13    2     -2.57      0.00
    1   13    4     -1.89      0.00
    1   13    6     -1.38      0.00
    1   13    8      0.86      0.00
    1   13   10      5.74      0.00
    1   13   12     -3.69      0.00
    1   13   14     -1.11      0.00
    1   13   16      2.83      0.00
    1   13   18      1.88      0.00
    2   13    1     -3.56      0.00
    2   13    3     -2.48      0.00
    2   13    5      1.58      0.00
    2   13    7      4.88      0.00
    2   13    9     -4.37      0.00
    2   13   11     -3.06      0.00
    2   13   13      0.35      0.00
    2   13   15      2.99      0.00
    2   13   17      1.47      0.00
    3   13    0      5.34      0.00
    3   13    2     -1.64      0.00
    3   13    4     -2.06      0.00
    3   13    6      0.20      0.00
    3   13    8      0.66      0.00
    3   13   10      1.07      0.00
    3   13   12      0.10      0.00
    3   13   14      1.32      0.00
    3   13   16      1.73      0.00
    3   13   18     -0.80      0.00
    4   13    1     -4.07      0.00
    4   13    3      0.19      0.00
    4   13    5      0.37      0.00
    4   13    7     -1.22      0.00
    4   13    9      2.60      0.00
    4   13   11      3.51      0.00
    4   13   13     -2.99      0.00
    4   13   15      0.55      0.00
    4   13   17      0.17      0.00
    5   13    0     -2.28      0.00
    5   13    2     -1.86      0.00
    5   13    4      0.96      0.00
    5   13    6     -0.63      0.00
    5   13    8     -0.54      0.00
    5   13   10      0.41      0.00
    5   13   12      2.37      0.00
    5   13   14      3.27      0.00
    5   13   16     -6.19      0.00
    6   13    1     -3.65      0.00
    6   13    3      2.44      0.00
    6   13    5     -3.14      0.00
    6   13    7      0.68      0.00
    6   13    9      2.72      0.00
    6   13   11      0.74      0.00
    6   13   13      3.96      0.00
    6   13   15      4.88      0.00
    7   13    0     -2.17      0.00
    7   13    2     -1.72      0.00
    7   13    4     -0.11      0.00
    7   13    6      3.15      0.00
    7   13    8     -4.25      0.00
    7   13   10     -1.26      0.00
    7   13   12     -0.22      0.00
    7   13   14      2.14      0.00
    7   13   16      1.07      0.00
    8   13    1      0.33      0.00
    8   13    3      2.31      0.00
    8   13    5     -2.05      0.00
    8   13    7      5.51      0.00
    8   13    9      1.45      0.00
    8   13   11      0.52      0.00
    8   13   13     -4.29      0.00
    8   13   15     -3.92      0.00
    9   13    0      2.09      0.00
    9   13    2     -0.65      0.00
    9   13    4     -3.44      0.00
    9   13    6      0.60      0.00
    9   13    8      2.44      0.00
    9   13   10      1.21      0.00
    9   13   12      0.32      0.00
    9   13   14      0.05      0.00
   10   13    1     -2.18      0.00
   10   13    3      2.67      0.00
   10   13    5     -0.33      0.00
   10   13    7     -0.94      0.00
   10   13    9     -0.22      0.00
   10   13   11     -0.52      0.00
   10   13   13     -3.65      0.00
   11   13    0      2.51      0.00
   11   13    2      0.26      0.00
   11   13    4     -0.15      0.00
   11   13    6      0.28      0.00
   11   13    8      0.64      0.00
   11   13   10      1.67      0.00
   11   13   12      1.55      0.00
   12   13    1     -4.50      0.00
   12   13    3     -0.82      0.00
   12   13    5     -2.49      0.00
   12   13    7     -1.78      0.00
   12   13    9     -7.44      0.00
   13   13    0      0.71      0.00
   13   13    2     -5.60      0.00
   13   13    4     -0.29      0.00
   13   13    6     -8.22      0.00
   13   13    8      0.34      0.00
    0   14    0      5.86      0.00
    0   14    2      0.68      0.00
    0   14    4     -7.06      0.00
    0   14    6      6.53      0.00
    0   14    8      0.55      0.00
    0   14   10     -4.68      0.00
    0   14   12      0.57      0.00
    0   14   14      0.87      0.00
    0   14   16      4.29      0.00
    1   14    1      1.85      0.00
    1   14    3     -0.47      0.00
    1   14    5     -0.45      0.00
    1   14    7     -2.18      0.00
    1   14    9      0.29      0.00
    1   14   11      0.45      0.00
    1   14   13      3.50      0.00
    1   14   15     -2.98      0.00
    1   14   17     -1.40      0.00
    2   14    0     -2.80      0.00
    2   14    2      2.00      0.00
    2   14    4      6.94      0.00
    2   14    6      0.60      0.00
    2   14    8     -0.33      0.00
    2   14   10     -4.63      0.00
    2   14   12      3.35      0.00
    2   14   14     -3.62      0.00
    2   14   16     -2.04      0.00
    3   14    1      1.72      0.00
    3   14    3      0.56      0.00
    3   14    5     -2.92      0.00
    3   14    7      2.93      0.00
    3   14    9     -4.65      0.00
    3   14   11      2.74      0.00
    3   14   13      4.48      0.00
    3   14   15      1.37      0.00
    4   14    0      1.00      0.00
    4   14    2      0.88      0.00
    4   14    4      0.54      0.00
    4   14    6     -2.98      0.00
    4   14    8      0.57      0.00
    4   14   10     -1.44      0.00
    4   14   12     -0.97      0.00
    4   14   14      0.47      0.00
    4   14   16      6.05      0.00
    5   14    1      0.22      0.00
    5   14    3     -1.72      0.00
    5   14    5      5.76      0.00
    5   14    7     -4.06      0.00
    5   14    9      0.71      0.00
    5   14   11     -4.07      0.00
    5   14   13      1.19      0.00
    5   14   15     -5.43      0.00
    6   14    0      3.85      0.00
    6   14    2      5.10      0.00
    6   14    4     -1.08      0.00
    6   14    6      0.27      0.00
    6   14    8      3.01      0.00
    6   14   10     -4.69      0.00
    6   14   12      0.11      0.00
    6   14   14     -1.84      0.00
    7   14    1      4.12      0.00
    7   14    3      2.59      0.00
    7   14    5      4.63      0.00
    7   14    7      1.83      0.00
    7   14    9     -0.59      0.00
    7   14   11      2.62      0.00
    7   14   13     -5.30      0.00
    8   14    0     -1.18      0.00
    8   14    2      0.37      0.00
    8   14    4     -1.99      0.00
    8   14    6     -0.27      0.00
    8   14    8     -1.55      0.00
    8   14   10     -1.51      0.00
    8   14   12     -1.42      0.00
    8   14   14     -1.20      0.00
    9   14    1      2.06      0.00
    9   14    3     -3.16      0.00
    9   14    5      0.64      0.00
    9   14    7     -3.85      0.00
    9   14    9      4.30      0.00
    9   14   11      0.86      0.00
   10   14    0      2.65      0.00
   10   14    2     -1.98      0.00
   10   14    4      2.23      0.00
   10   14    6     -3.18      0.00
   10   14    8     -3.69      0.00
   10   14   10     -4.52      0.00
   11   14    1      0.01      0.00
   11   14    3      1.72      0.00
   11   14    5     -0.64      0.00
   11   14    7      0.95      0.00
   11   14    9      1.94      0.00
   12   14    0     -0.81      0.00
   12   14    2      1.60      0.00
   12   14    4     -1.16      0.00
   12   14    6      2.81      0.00
   12   14    8     -0.32      0.00
   13   14    1     -3.86      0.00
   13   14    3     -1.81      0.00
   13   14    5     -3.40      0.00
    1   15    0     -0.57      0.00
    1   15    2     -1.07      0.00
    1   15    4     -0.98      0.00
    1   15    6     -3.09      0.00
    1   15    8     -0.25      0.00
    1   15   10      1.27      0.00
    1   15   12      2.50      0.00
    1   15   14      2.92      0.00
    2   15    1     -2.71      0.00
    2   15    3      2.82      0.00
    2   15    5      1.21      0.00
    2   15    7     -2.88      0.00
    2   15    9      1.43      0.00
    2   15   11     -0.11      0.00
    2   15   13     -3.96      0.00
    2   15   15      0.09      0.00
    3   15    0      0.82      0.00
    3   15    2     -1.57      0.00
    3   15    4     -2.87      0.00
    3   15    6      3.41      0.00
    3   15    8     -1.05      0.00
    3   15   10      1.69      0.00
    3   15   12     -1.81      0.00
    3   15   14      0.78      0.00
    4   15    1      5.31      0.00
    4   15    3      0.86      0.00
    4   15    5     -1.01      0.00
    4   15    7     -2.11      0.00
    4   15    9      2.74      0.00
    4   15   11     -4.42      0.00
    4   15   13      1.57      0.00
    4   15   15      0.78      0.00
    5   15    0     -0.77      0.00
    5   15    2      0.63      0.00
    5   15    4      0.55      0.00
    5   15    6     -0.08      0.00
    5   15    8      1.39      0.00
    5   15   10      5.68      0.00
    5   15   12     -1.92      0.00
    5   15   14     -6.38      0.00
    6   15    1     -0.33      0.00
    6   15    3     -5.08      0.00
    6   15    5     -8.93      0.00
    6   15    7      1.38      0.00
    6   15    9     -2.53      0.00
    6   15   11      1.59      0.00
    6   15   13      3.23      0.00
    7   15    0     -2.12      0.00
    7   15    2     -2.01      0.00
    7   15    4      2.01      0.00
    7   15    6     -1.59      0.00
    7   15    8     -1.65      0.00
    7   15   10      3.98      0.00
    7   15   12      1.56      0.00
    8   15    1     -4.25      0.00
    8   15    3     -1.06      0.00
    8   15    5     -1.96      0.00
    8   15    7     -5.31      0.00
    8   15    9     -4.44      0.00
    8   15   11     -4.65      0.00
    9   15    0     -2.63      0.00
    9   15    2     -3.30      0.00
    9   15    4      1.24      0.00
    9   15    6     -0.12      0.00
    9   15    8      2.96      0.00
    9   15   10      3.24      0.00
   10   15    1      1.28      0.00
   10   15    3     -1.27      0.00
   10   15    5     -1.81      0.00
   10   15    7      1.10      0.00
   10   15    9     -1.45      0.00
   11   15    0     -5.11      0.00
   11   15    2      2.87      0.00
   11   15    4     -1.58      0.00
   11   15    6      2.51      0.00
   12   15    1      2.13      0.00
   12   15    3      1.71      0.00
    0   16    0     -1.01      0.00
    0   16    2     -0.22      0.00
    0   16    4      1.09      0.00
    0   16    6      3.22      0.00
    0   16    8      0.94      0.00
    0   16   10      4.89      0.00
    0   16   12     -2.70      0.00
    0   16   14     -3.25      0.00
    1   16    1      3.66      0.00
    1   16    3     -3.43      0.00
    1   16    5     -2.86      0.00
    1   16    7      3.15      0.00
    1   16    9      2.28      0.00
    1   16   11      0.03      0.00
    1   16   13     -1.94      0.00
    2   16    0      0.15      0.00
    2   16    2      5.08      0.00
    2   16    4      2.89      0.00
    2   16    6     -3.03      0.00
    2   16    8     -0.96      0.00
    2   16   10      0.93      0.00
    2   16   12     -2.17      0.00
    2   16   14      0.46      0.00
    3   16    1     -1.63      0.00
    3   16    3      2.49      0.00
    3   16    5      0.83      0.00
    3   16    7      2.07      0.00
    3   16    9     -1.19      0.00
    3   16   11      1.91      0.00
    3   16   13     -3.28      0.00
    4   16    0     -0.36      0.00
    4   16    2      0.10      0.00
    4   16    4     -2.66      0.00
    4   16    6      0.88      0.00
    4   16    8     -0.82      0.00
    4   16   10     -0.06      0.00
    4   16   12      0.64      0.00
    5   16    1     -7.43      0.00
    5   16    3      1.15      0.00
    5   16    5      1.97      0.00
    5   16    7     -3.79      0.00
    5   16    9      1.60      0.00
    5   16   11     -0.97      0.00
    6   16    0     -0.62      0.00
    6   16    2     -1.89      0.00
    6   16    4     -1.34      0.00
    6   16    6      0.84      0.00
    6   16    8     -1.87      0.00
    6   16   10     -2.10      0.00
    6   16   12      0.67      0.00
    7   16    1      0.44      0.00
    7   16    3      3.17      0.00
    7   16    5      7.94      0.00
    7   16    7      3.84      0.00
    7   16    9      0.44      0.00
    7   16   11      3.40      0.00
    8   16    0      0.98      0.00
    8   16    2      2.32      0.00
    8   16    4      1.78      0.00
    8   16    6      1.82      0.00
    8   16    8      3.14      0.00
    9   16    1     -2.79      0.00
    9   16    3     -0.29      0.00
    9   16    5      0.23      0.00
    9   16    7      4.55      0.00
   10   16    0      3.95      0.00
   10   16    2      1.66      0.00
   10   16    4     -0.88      0.00
   10   16    6     -0.30      0.00
   11   16    1      2.60      0.00
    1   17    0      0.51      0.00
    1   17    2     -0.57      0.00
    1   17    4     -1.54      0.00
    1   17    6     -2.31      0.00
    1   17    8     -0.33      0.00
    1   17   10     -5.41      0.00
    1   17   12     -0.12      0.00
    2   17    1     -1.61      0.00
    2   17    3     -1.81      0.00
    2   17    5     -1.58      0.00
    2   17    7     -2.18      0.00
    2   17    9     -1.39      0.00
    2   17   11     -2.02      0.00
    3   17    0     -5.89      0.00
    3   17    2     -6.43      0.00
    3   17    4      0.19      0.00
    3   17    6      0.28      0.00
    3   17    8     -0.67      0.00
    3   17   10     -3.15      0.00
    4   17    1      1.07      0.00
    4   17    3     -3.90      0.00
    4   17    5      2.79      0.00
    4   17    7      5.65      0.00
    4   17    9     -4.22      0.00
    4   17   11      5.12      0.00
    5   17    0      1.91      0.00
    5   17    2     -1.43      0.00
    5   17    4      3.81      0.00
    5   17    6     -1.15      0.00
    5   17    8      0.06      0.00
    5   17   10     -3.09      0.00
    6   17    1      3.37      0.00
    6   17    3     -0.71      0.00
    6   17    5     -4.45      0.00
    6   17    7      4.40      0.00
    6   17    9      4.47      0.00
    7   17    0      1.82      0.00
    7   17    2     -0.25      0.00
    7   17    4     -3.14      0.00
    7   17    6      0.19      0.00
    7   17    8     -0.30      0.00
    8   17    1      1.90      0.00
    8   17    3      1.51      0.00
    8   17    5     -3.08      0.00
    9   17    0     -0.32      0.00
    9   17    2      1.69      0.00
    9   17    4     -0.35      0.00
    0   18    0      2.32      0.00
    0   18    2     -3.91      0.00
    0   18    4      2.28      0.00
    0   18    6      4.99      0.00
    0   18    8     -0.40      0.00
    1   18    1     -1.76      0.00
    1   18    3     -3.62      0.00
    1   18    5      5.45      0.00
    1   18    7      1.04      0.00
    1   18    9      5.54      0.00
    2   18    0      5.78      0.00
    2   18    2      0.28      0.00
    2   18    4     -0.51      0.00
    2   18    6      1.25      0.00
    2   18    8      3.84      0.00
    3   18    1      3.73      0.00
    3   18    3      3.80      0.00
    3   18    5      0.83      0.00
    3   18    7     -3.13      0.00
    4   18    0      3.24      0.00
    4   18    2      4.58      0.00
    4   18    4      1.45      0.00
    4   18    6      2.65      0.00
    4   18    8      2.84      0.00
    5   18    1      1.35      0.00
    5   18    3      2.38      0.00
    5   18    5     -1.57      0.00
    5   18    7     -4.05      0.00
    6   18    0     -2.12      0.00
    6   18    2      2.37      0.00
    6   18    4     -1.72      0.00
    7   18    1      3.78      0.00
    7   18    3      0.21      0.00
    1   19    0     -6.15      0.00
    1   19    2      2.92      0.00
    1   19    4     -0.42      0.00
    2   19    1      0.04      0.00
    2   19    3      3.58      0.00
    2   19    5     -5.11      0.00
    3   19    0     -1.31      0.00
    3   19    2      2.02      0.00
    3   19    4     -3.06      0.00
    4   19    1     -4.88      0.00
    1    1    0   -245.26      0.00
    0    2    0     -9.46      0.00
    0    0    2    -84.12      0.00
    1    1    2    -12.44      0.00
    0    2    2     78.94      0.00
    1    3    2    -39.44      0.00
   11   16    3      1.40      0.00
    4   19    3     -2.37      0.00
   12   15    5      3.13      0.00
    6   18    6     -3.78      0.00
    1   19    6     -0.62      0.00
    8   17    7     -3.44      0.00
   11   15    8      2.30      0.00
    3   18    9      1.93      0.00
    8   16   10     -2.58      0.00
    0   18   10      4.15      0.00
   10   14   12      0.76      0.00
    9   14   13      4.28      0.00
    5   16   13     -2.80      0.00
    7   14   15      2.66      0.00
    1   15   16     -3.89      0.00
    6   13   17      1.58      0.00
    3   14   17     -5.25      0.00
    6   10   20     -3.06      0.00
    7    8   21     -3.04      0.00
    5    6   23     -4.32      0.00
    4    4   24     -1.96      0.00
    0    0    0      0.00      0.00
loop_
  _platon_squeeze_void_nr
  _platon_squeeze_void_average_x
  _platon_squeeze_void_average_y
  _platon_squeeze_void_average_z
  _platon_squeeze_void_volume
  _platon_squeeze_void_count_electrons
  _platon_squeeze_void_content
   1 -0.020  0.322  0.240      2209       609 ' '
loop_
  _platon_missing_refln_index_h
  _platon_missing_refln_index_k
  _platon_missing_refln_index_l
  _platon_missing_refln_theta
    1    1    0     1.917
    0    2    0     2.712
    0    0    2     2.119
    1    1    2     2.858
    0    2    2     3.443
    1    3    2     4.787
_platon_squeeze_void_probe_radius                  1.20
_platon_squeeze_details

TITL Compound X
CELL   15.0210   15.0210   19.2220     90.00     90.00     90.00
SPGR I4/mcm
C101 0.360 0.857 0.157 !       3.49 eA-3
C102 0.500 1.000 0.000 !       2.71 eA-3
C103 0.184 0.424 0.110 !       2.37 eA-3
C104 0.669 0.163 0.216 !       2.17 eA-3
Q105 0.124 0.737 0.252 !       1.64 eA-3
C106 0.407 0.910 0.079 !       1.04 eA-3
C107 0.594 0.149 0.064 !       1.04 eA-3
Q108 0.500 0.507 0.156 !       1.01 eA-3
C109 0.104 0.391 0.005 !       0.89 eA-3
C110 0.115 0.386 0.213 !       0.88 eA-3
C111 0.845 0.654 0.077 !       0.86 eA-3
C112 0.702 0.087 0.184 !       0.85 eA-3
C113 0.916 0.688 0.046 !       0.80 eA-3
Q114 0.964 0.036 0.077 !       0.75 eA-3
C115 0.188 0.406 0.007 !       0.73 eA-3
Q116 0.250 0.889 0.015 !       0.72 eA-3
C117 0.610 0.027 0.090 !       0.71 eA-3
Q118 0.019 0.047-0.002 !       0.67 eA-3
Q119 0.215 0.531 0.136 !       0.66 eA-3
C120 1.000 0.500 0.250 !       0.66 eA-3
C121 0.356 0.861 0.012 !       0.66 eA-3
C122 0.717 0.062 0.000 !       0.64 eA-3
C123 0.047 0.549 0.203 !       0.63 eA-3
Q124 0.573 0.312 0.002 !       0.62 eA-3
C125 0.063 0.437-0.001 !       0.59 eA-3
Q126 0.800 0.707 0.075 !       0.57 eA-3
Q127 0.859 0.762 0.125 !       0.56 eA-3
Q128 0.264 0.642 0.095 !       0.52 eA-3
C129 0.718 0.027 0.033 !       0.52 eA-3
Q130 0.264 0.016-0.007 !       0.51 eA-3
C131 0.021 0.324 0.194 !       0.51 eA-3
Q132 0.500 0.500 0.250 !       0.50 eA-3
Q133 0.810 0.678 0.096 !       0.50 eA-3
Q134 0.085 0.987 0.199 !       0.50 eA-3
;
_olex2_submission_special_instructions 'No special instructions were received'
loop_
_space_group_symop_operation_xyz
'x, y, z'
'-y, x, z'
'-x, -y, z'
'y, -x, z'
'x, -y, -z+1/2'
'-x, y, -z+1/2'
'y, x, -z+1/2'
'-y, -x, -z+1/2'
'x+1/2, y+1/2, z+1/2'
'-y+1/2, x+1/2, z+1/2'
'-x+1/2, -y+1/2, z+1/2'
'y+1/2, -x+1/2, z+1/2'
'x+1/2, -y+1/2, -z+1'
'-x+1/2, y+1/2, -z+1'
'y+1/2, x+1/2, -z+1'
'-y+1/2, -x+1/2, -z+1'
'-x, -y, -z'
'y, -x, -z'
'x, y, -z'
'-y, x, -z'
'-x, y, z-1/2'
'x, -y, z-1/2'
'-y, -x, z-1/2'
'y, x, z-1/2'
'-x+1/2, -y+1/2, -z+1/2'
'y+1/2, -x+1/2, -z+1/2'
'x+1/2, y+1/2, -z+1/2'
'-y+1/2, x+1/2, -z+1/2'
'-x+1/2, y+1/2, z'
'x+1/2, -y+1/2, z'
'-y+1/2, -x+1/2, z'
'y+1/2, x+1/2, z'
loop_
_atom_site_label
_atom_site_type_symbol
_atom_site_fract_x
_atom_site_fract_y
_atom_site_fract_z
_atom_site_U_iso_or_equiv
_atom_site_adp_type
_atom_site_occupancy
_atom_site_site_symmetry_order
_atom_site_calc_flag
_atom_site_refinement_flags_posn
_atom_site_refinement_flags_adp
_atom_site_refinement_flags_occupancy
_atom_site_disorder_assembly
_atom_site_disorder_group
Zn1 Zn 0.0000 0.0000 0.07679(4) 0.0349(3) Uani 1 4 d S T P A .
O1 O 0.12057(19) 0.0544(2) 0.05707(15) 0.0689(10) Uani 1 1 d . . . . .
N1 N 0.245(2) 0.133(2) -0.1245(11) 0.102(10) Uani 0.15 1 d D U . . .
N2 N 0.0000 0.0000 0.1829(3) 0.0370(12) Uani 1 4 d S T P . .
C1 C 0.1509(3) 0.0766(3) 0.0000 0.0385(11) Uani 1 2 d S T P . .
C2 C 0.2301(3) 0.1387(3) 0.0000 0.0335(10) Uani 1 2 d S T P . .
C3 C 0.2650(2) 0.1699(2) -0.06166(17) 0.0420(8) Uani 1 1 d D . . . .
C4 C 0.0517(10) 0.0760(8) 0.2092(6) 0.051(3) Uani 0.35 1 d . U . A 1
H4A H 0.0163 0.1314 0.2067 0.061 Uiso 0.35 1 calc R . . A 1
H4B H 0.1068 0.0840 0.1816 0.061 Uiso 0.35 1 calc R . . A 1
C5 C 0.0902(7) 0.0194(10) 0.2104(6) 0.059(3) Uani 0.4 1 d . U . A 2
H5A H 0.1017 0.0843 0.2103 0.071 Uiso 0.4 1 calc R . . A 2
H5B H 0.1363 -0.0105 0.1820 0.071 Uiso 0.4 1 calc R . . A 2
loop_
_atom_site_aniso_label
_atom_site_aniso_U_11
_atom_site_aniso_U_22
_atom_site_aniso_U_33
_atom_site_aniso_U_23
_atom_site_aniso_U_13
_atom_site_aniso_U_12
Zn1 0.0299(3) 0.0299(3) 0.0450(5) 0.000 0.000 0.000
O1 0.0504(17) 0.096(3) 0.0602(17) 0.0427(17) -0.0155(14) -0.0350(17)
N1 0.092(13) 0.104(13) 0.111(13) 0.005(9) 0.005(9) -0.030(9)
N2 0.0297(16) 0.0297(16) 0.052(3) 0.000 0.000 0.000
C1 0.031(2) 0.033(3) 0.051(3) 0.000 0.000 -0.001(2)
C2 0.031(2) 0.029(2) 0.040(3) 0.000 0.000 0.0010(18)
C3 0.046(2) 0.050(2) 0.0304(17) -0.0064(15) 0.0021(15) -0.0119(17)
C4 0.065(7) 0.040(6) 0.047(5) -0.004(5) 0.011(5) -0.026(5)
C5 0.037(5) 0.084(7) 0.056(5) 0.002(6) -0.002(4) 0.002(5)
loop_
_atom_type_symbol
_atom_type_description
_atom_type_scat_dispersion_real
_atom_type_scat_dispersion_imag
_atom_type_scat_source
C C 0.0033 0.0016 'International Tables Vol C Tables 4.2.6.8 and 6.1.1.4'
H H 0.0000 0.0000 'International Tables Vol C Tables 4.2.6.8 and 6.1.1.4'
O O 0.0106 0.0060 'International Tables Vol C Tables 4.2.6.8 and 6.1.1.4'
N N 0.0061 0.0033 'International Tables Vol C Tables 4.2.6.8 and 6.1.1.4'
Zn Zn 0.2839 1.4301 'International Tables Vol C Tables 4.2.6.8 and 6.1.1.4'
loop_
_geom_angle_atom_site_label_1
_geom_angle_atom_site_label_2
_geom_angle_atom_site_label_3
_geom_angle
_geom_angle_site_symmetry_1
_geom_angle_site_symmetry_3
O1 Zn1 Zn1 79.20(9) . 17
O1 Zn1 Zn1 79.20(9) 2 17
O1 Zn1 Zn1 79.20(9) 4 17
O1 Zn1 Zn1 79.20(9) 3 17
O1 Zn1 O1 87.99(3) 3 2
O1 Zn1 O1 87.99(3) 3 4
O1 Zn1 O1 158.40(18) 4 2
O1 Zn1 O1 158.40(18) 3 .
O1 Zn1 O1 87.99(3) 4 .
O1 Zn1 O1 87.99(3) 2 .
O1 Zn1 N2 100.80(9) 2 .
O1 Zn1 N2 100.80(9) 4 .
O1 Zn1 N2 100.80(9) 3 .
O1 Zn1 N2 100.80(9) . .
N2 Zn1 Zn1 180.0 . 17
C1 O1 Zn1 127.4(3) . .
C4 N2 Zn1 110.1(5) 3 .
C4 N2 Zn1 110.1(5) 2 .
C4 N2 Zn1 110.1(5) 4 .
C4 N2 Zn1 110.1(5) . .
C4 N2 C4 83.2(3) 4 3
C4 N2 C4 139.7(10) 4 2
C4 N2 C4 83.2(3) . 2
C4 N2 C4 83.2(3) 2 3
C4 N2 C4 139.7(10) . 3
C4 N2 C4 83.2(3) . 4
C5 N2 Zn1 110.9(5) 2 .
C5 N2 Zn1 110.9(5) 3 .
C5 N2 Zn1 110.9(5) 4 .
C5 N2 Zn1 110.9(5) . .
C5 N2 C5 138.2(10) 2 4
C5 N2 C5 82.7(3) . 2
C5 N2 C5 82.7(3) . 4
C5 N2 C5 138.2(10) . 3
C5 N2 C5 82.7(3) 2 3
C5 N2 C5 82.7(3) 4 3
O1 C1 O1 125.5(5) 19 .
O1 C1 C2 117.2(2) 19 .
O1 C1 C2 117.2(2) . .
C3 C2 C1 120.6(2) . .
C3 C2 C1 120.6(2) 19 .
C3 C2 C3 118.6(4) 19 .
N1 C3 C2 122.8(13) . .
N1 C3 C3 116.2(13) . 31
C2 C3 C3 120.6(2) . 31
N2 C4 C4 105.8(7) . 7
N2 C4 H4A 110.6 . .
N2 C4 H4B 110.6 . .
C4 C4 H4A 110.6 7 .
C4 C4 H4B 110.6 7 .
H4A C4 H4B 108.7 . .
N2 C5 C5 105.2(7) . 5
N2 C5 H5A 110.7 . .
N2 C5 H5B 110.7 . .
C5 C5 H5A 110.7 5 .
C5 C5 H5B 110.7 5 .
H5A C5 H5B 108.8 . .
loop_
_geom_bond_atom_site_label_1
_geom_bond_atom_site_label_2
_geom_bond_distance
_geom_bond_site_symmetry_2
Zn1 Zn1 2.9522(16) 17
Zn1 O1 2.023(3) 2
Zn1 O1 2.023(3) 3
Zn1 O1 2.023(3) 4
Zn1 O1 2.023(3) .
Zn1 N2 2.040(6) .
O1 C1 1.234(3) .
N1 C3 1.360(18) .
N2 C4 1.470(10) .
N2 C4 1.470(10) 2
N2 C4 1.470(10) 4
N2 C4 1.470(10) 3
N2 C5 1.483(10) .
N2 C5 1.483(10) 3
N2 C5 1.483(10) 4
N2 C5 1.483(10) 2
C1 O1 1.234(3) 19
C1 C2 1.511(6) .
C2 C3 1.378(4) .
C2 C3 1.378(4) 19
C3 C3 1.383(7) 31
C4 C4 1.65(2) 7
C4 H4A 0.9900 .
C4 H4B 0.9900 .
C5 C5 1.63(2) 5
C5 H5A 0.9900 .
C5 H5B 0.9900 .
loop_
_geom_torsion_atom_site_label_1
_geom_torsion_atom_site_label_2
_geom_torsion_atom_site_label_3
_geom_torsion_atom_site_label_4
_geom_torsion
_geom_torsion_site_symmetry_1
_geom_torsion_site_symmetry_4
Zn1 O1 C1 O1 -14.7(8) . 19
Zn1 O1 C1 C2 163.1(3) . .
Zn1 N2 C4 C4 -161.4(10) . 7
Zn1 N2 C5 C5 -158.8(10) . 5
O1 C1 C2 C3 176.8(4) 19 19
O1 C1 C2 C3 -176.8(4) . .
O1 C1 C2 C3 -1.2(7) . 19
O1 C1 C2 C3 1.2(7) 19 .
C1 C2 C3 N1 -14.9(18) . .
C1 C2 C3 C3 172.0(3) . 31
C3 C2 C3 N1 169.5(17) 19 .
C3 C2 C3 C3 -3.7(6) 19 31
C4 N2 C4 C4 -52.4(11) 4 7
C4 N2 C4 C4 89.6(10) 2 7
C4 N2 C4 C4 18.6(10) 3 7
C4 N2 C5 C5 104.3(16) . 5
C4 N2 C5 C5 -27.7(13) 3 5
C4 N2 C5 C5 -61.2(12) 4 5
C4 N2 C5 C5 72.2(13) 2 5
C5 N2 C4 C4 67.2(13) 3 7
C5 N2 C4 C4 -32.0(14) 4 7
C5 N2 C4 C4 99.1(14) 2 7
C5 N2 C4 C4 -62.4(13) . 7
C5 N2 C5 C5 -49.1(12) 4 5
C5 N2 C5 C5 21.2(10) 3 5
C5 N2 C5 C5 91.6(10) 2 5
