#------------------------------------------------------------------------------
#$Date: 2016-08-07 12:09:17 +0300 (Sun, 07 Aug 2016) $
#$Revision: 185452 $
#$URL: file:///home/coder/svn-repositories/cod/cif/7/03/98/7039817.cif $
#------------------------------------------------------------------------------
#
# This file is available in the Crystallography Open Database (COD),
# http://www.crystallography.net/
#
# All data on this site have been placed in the public domain by the
# contributors.
#
data_7039817
loop_
_publ_author_name
'Wang, Xiuli'
'Sun, Junjun'
'Lin, Hongyan'
'Chang, Zhihan'
'Wang, Xiang'
'Liu, Guocheng'
_publ_section_title
;
 A series of Anderson-type polyoxometalate-based metal-organic complexes:
 their pH-dependent electrochemical behaviour, and as electrocatalysts and
 photocatalysts.
;
_journal_issue                   31
_journal_name_full
'Dalton transactions (Cambridge, England : 2003)'
_journal_page_first              12465
_journal_page_last               12478
_journal_paper_doi               10.1039/c6dt02216b
_journal_volume                  45
_journal_year                    2016
_chemical_formula_sum            'C32 H60 Cu3 Mo6 N8 O40 Te'
_chemical_formula_weight         2090.74
_space_group_crystal_system      triclinic
_space_group_IT_number           2
_space_group_name_Hall           '-P 1'
_space_group_name_H-M_alt        'P -1'
_symmetry_space_group_name_Hall  '-P 1'
_symmetry_space_group_name_H-M   'P -1'
_atom_sites_solution_hydrogens   geom
_atom_sites_solution_primary     direct
_atom_sites_solution_secondary   difmap
_audit_creation_method           SHELXL-2014/7
_audit_update_record
;
2016-06-20 deposited with the CCDC.
2016-07-06 downloaded from the CCDC.
;
_cell_angle_alpha                102.275(2)
_cell_angle_beta                 104.021(2)
_cell_angle_gamma                97.420(2)
_cell_formula_units_Z            1
_cell_length_a                   8.4320(7)
_cell_length_b                   12.9540(12)
_cell_length_c                   15.0230(14)
_cell_measurement_reflns_used    5460
_cell_measurement_temperature    296(2)
_cell_measurement_theta_max      28.3311
_cell_measurement_theta_min      2.4441
_cell_volume                     1527.1(2)
_computing_cell_refinement       'Bruker XSCANS'
_computing_data_collection       'Bruker XSCANS'
_computing_data_reduction        'Bruker SHELXTL'
_computing_molecular_graphics    'Bruker SHELXTL'
_computing_publication_material  'Bruker SHELXTL'
_computing_structure_refinement  'SHELXL-2014/7 (Sheldrick, 2014)'
_computing_structure_solution    'Bruker SHELXTL'
_diffrn_ambient_temperature      296(2)
_diffrn_measured_fraction_theta_full 0.992
_diffrn_measured_fraction_theta_max 0.992
_diffrn_measurement_device_type  'Bruker P4'
_diffrn_measurement_method       '\w scans'
_diffrn_radiation_type           MoK\a
_diffrn_radiation_wavelength     0.71069
_diffrn_reflns_av_R_equivalents  0.0160
_diffrn_reflns_av_unetI/netI     0.0273
_diffrn_reflns_Laue_measured_fraction_full 0.992
_diffrn_reflns_Laue_measured_fraction_max 0.992
_diffrn_reflns_limit_h_max       10
_diffrn_reflns_limit_h_min       -10
_diffrn_reflns_limit_k_max       15
_diffrn_reflns_limit_k_min       -15
_diffrn_reflns_limit_l_max       17
_diffrn_reflns_limit_l_min       -15
_diffrn_reflns_number            8695
_diffrn_reflns_point_group_measured_fraction_full 0.992
_diffrn_reflns_point_group_measured_fraction_max 0.992
_diffrn_reflns_theta_full        24.998
_diffrn_reflns_theta_max         24.998
_diffrn_reflns_theta_min         1.890
_diffrn_source                   'sealed tube'
_exptl_absorpt_coefficient_mu    2.787
_exptl_absorpt_correction_T_max  0.606
_exptl_absorpt_correction_T_min  0.422
_exptl_absorpt_correction_type   numerical
_exptl_absorpt_process_details   'ABSCOR by T.Higashi    8  March, 1995'
_exptl_crystal_colour            BLUE
_exptl_crystal_density_diffrn    2.273
_exptl_crystal_density_method    'not measured'
_exptl_crystal_description       BLOCK
_exptl_crystal_F_000             1019
_exptl_crystal_size_max          0.350
_exptl_crystal_size_mid          0.270
_exptl_crystal_size_min          0.180
_refine_diff_density_max         1.316
_refine_diff_density_min         -0.596
_refine_diff_density_rms         0.129
_refine_ls_extinction_method     none
_refine_ls_goodness_of_fit_ref   1.004
_refine_ls_hydrogen_treatment    constr
_refine_ls_matrix_type           full
_refine_ls_number_parameters     411
_refine_ls_number_reflns         5323
_refine_ls_number_restraints     0
_refine_ls_restrained_S_all      1.004
_refine_ls_R_factor_all          0.0366
_refine_ls_R_factor_gt           0.0308
_refine_ls_shift/su_max          0.000
_refine_ls_shift/su_mean         0.000
_refine_ls_structure_factor_coef Fsqd
_refine_ls_weighting_details
'w=1/[\s^2^(Fo^2^)+(0.0515P)^2^+4.7925P] where P=(Fo^2^+2Fc^2^)/3'
_refine_ls_weighting_scheme      calc
_refine_ls_wR_factor_gt          0.0868
_refine_ls_wR_factor_ref         0.0898
_reflns_Friedel_coverage         0.000
_reflns_number_gt                4632
_reflns_number_total             5364
_reflns_threshold_expression     'I > 2\s(I)'
_cod_data_source_file            c6dt02216b2.cif
_cod_data_source_block           complex6
_cod_depositor_comments
'Adding full bibliography for 7039813--7039819.cif.'
_cod_database_code               7039817
_shelx_shelxl_version_number     2014/7
_shelx_space_group_comment
;
The symmetry employed for this shelxl refinement is uniquely defined
by the following loop, which should always be used as a source of
symmetry information in preference to the above space-group names.
They are only intended as comments.
;
_shelx_estimated_absorpt_t_min   0.442
_shelx_estimated_absorpt_t_max   0.634
_shelx_res_file
;

    1.res created by SHELXL-2014/7


TITL                                       1 in P-1
CELL   0.71069      8.432   12.954   15.023  102.275  104.021   97.420
ZERR         1      0.0007   0.0012   0.0014   0.002   0.002   0.002
LATT  1
SFAC    C   H   N   O   CU  MO  TE
UNIT    32  60  8  40  3  6  1
MERG      2
ACTA
L.S.      4
OMIT 0 50
LIST      1
FMAP      2
PLAN     120
SIZE 0.35 0.27 0.18
WGHT    0.051500    4.792500
FVAR       0.09755
TE1   7    0.000000    0.000000    0.000000    10.50000    0.01181    0.01055 =
         0.01180    0.00440    0.00393    0.00333
MO1   6   -0.186435    0.102362   -0.168369    11.00000    0.01440    0.01419 =
         0.01508    0.00647    0.00325    0.00278
CU1   5    0.000000    0.500000    0.000000    10.50000    0.01619    0.01663 =
         0.02630    0.00742    0.00633    0.00449
O1    4   -0.099568    0.340218    0.028034    11.00000    0.02838    0.01529 =
         0.02949    0.00974    0.00866    0.00518
O1W   4   -0.006872    0.563338    0.132785    11.00000    0.03839    0.01675 =
         0.03017    0.00409    0.01294    0.00133
AFIX   3
H1WA  2    0.004288    0.628468    0.163015    11.00000   -1.20000
H1WB  2   -0.015892    0.524178    0.170735    11.00000   -1.20000
AFIX   0
N1    3   -0.230222    0.524844   -0.048343    11.00000    0.02221    0.01762 =
         0.03113    0.01075    0.00659    0.00332
C1    1   -0.424891    0.641795   -0.047077    11.00000    0.03192    0.02778 =
         0.05402    0.00209    0.00748    0.01687
AFIX  43
H1A   2   -0.448046    0.708805   -0.023308    11.00000   -1.20000
AFIX   0
MO2   6   -0.148084    0.218264    0.052102    11.00000    0.01557    0.01105 =
         0.01760    0.00538    0.00672    0.00370
CU2   5   -0.640741   -0.033634   -0.260421    11.00000    0.02269    0.03339 =
         0.02094    0.00497    0.00838    0.00058
C2    1   -0.701017    0.413362   -0.485505    11.00000    0.05834    0.05316 =
         0.05366    0.00048    0.01400    0.02072
AFIX  23
H2B   2   -0.706182    0.461846   -0.526801    11.00000   -1.20000
H2A   2   -0.654715    0.456064   -0.420543    11.00000   -1.20000
AFIX   0
O2W   4   -0.775281    0.076730   -0.292493    11.00000    0.03215    0.02590 =
         0.04265    0.00806    0.01520   -0.00026
AFIX   3
H2WB  2   -0.876991    0.060460   -0.293973    11.00000   -1.20000
H2WA  2   -0.751931    0.144410   -0.284913    11.00000   -1.20000
AFIX   0
N2    3   -0.663960   -0.097752   -0.398209    11.00000    0.01972    0.03859 =
         0.02579    0.00255    0.00720   -0.00266
O2    4   -0.374225    0.047530   -0.252009    11.00000    0.01747    0.03105 =
         0.02187    0.00775    0.00336    0.00287
MO3   6    0.055232    0.124566    0.222829    11.00000    0.01369    0.01601 =
         0.01381    0.00259    0.00335    0.00224
N3    3   -0.592071    0.336944   -0.508377    11.00000    0.05476    0.05973 =
         0.04057    0.00077    0.00894    0.01347
AFIX  43
H3B   2   -0.618243    0.297507   -0.565537    11.00000   -1.20000
AFIX   0
C3    1   -0.716251   -0.044540   -0.463619    11.00000    0.09108    0.04187 =
         0.03550    0.01307    0.02349    0.01040
AFIX  43
H3A   2   -0.749140    0.020384   -0.444118    11.00000   -1.20000
AFIX   0
O3W   4   -0.525880   -0.149427   -0.217019    11.00000    0.02665    0.04710 =
         0.03774    0.02212    0.01608    0.00773
AFIX   3
H3WA  2   -0.451981   -0.186737   -0.224449    11.00000   -1.20000
H3WB  2   -0.582130   -0.177247   -0.185189    11.00000   -1.20000
AFIX   0
O3    4   -0.895382   -0.142213   -0.273718    11.00000    0.02159    0.02595 =
         0.02191    0.00561    0.01003    0.00604
N4    3   -0.758531    0.396435   -0.275328    11.00000    0.02779    0.03206 =
         0.03746    0.00490    0.00108    0.00096
AFIX  43
H4B   2   -0.755084    0.463099   -0.275238    11.00000   -1.20000
AFIX   0
C4    1   -0.724258   -0.079945   -0.557594    11.00000    0.09602    0.06621 =
         0.03495    0.01628    0.01974    0.01981
AFIX  43
H4A   2   -0.760695   -0.039921   -0.600447    11.00000   -1.20000
AFIX   0
O4W   4   -0.609263    0.037798   -0.127690    11.00000    0.03209    0.07611 =
         0.02478   -0.00532    0.01538   -0.02114
AFIX   3
H4WB  2   -0.521103    0.085158   -0.112780    11.00000   -1.20000
H4WA  2   -0.647023    0.043958   -0.079630    11.00000   -1.20000
AFIX   0
O4    4   -0.125318    0.225902   -0.186103    11.00000    0.02977    0.01783 =
         0.02580    0.01112    0.00844    0.00180
C5    1   -0.676673   -0.176764   -0.586854    11.00000    0.04148    0.08182 =
         0.02810    0.00516    0.01151    0.01182
AFIX  43
H5A   2   -0.686653   -0.205705   -0.650600    11.00000   -1.20000
AFIX   0
O5    4    0.009535    0.136573   -0.031501    11.00000    0.01752    0.00978 =
         0.01690    0.00631    0.00525   -0.00084
O5W   4   -0.876547   -0.547169   -0.741090    11.00000    0.09317    0.03743 =
         0.05473    0.01041    0.00783    0.00684
AFIX   3
H5WA  2   -0.772187   -0.531109   -0.714890    11.00000   -1.20000
H5WB  2   -0.902297   -0.615049   -0.763361    11.00000   -1.20000
AFIX   0
C6    1   -0.616184   -0.227719   -0.521709    11.00000    0.04660    0.05650 =
         0.03392   -0.00081    0.00590    0.01527
O6    4   -0.296338    0.141310   -0.068532    11.00000    0.01552    0.02069 =
         0.01947    0.00448    0.00558    0.00568
O6W   4   -0.821458    0.604514   -0.310572    11.00000    0.11534    0.05442 =
         0.07104    0.00436    0.00447    0.02564
AFIX   3
H66   2   -0.922398    0.577002   -0.317966    11.00000   -1.20000
H67   2   -0.796828    0.662982   -0.267426    11.00000   -1.20000
AFIX   0
O7    4   -0.620672    0.278410   -0.213092    11.00000    0.04230    0.02915 =
         0.07807    0.00987   -0.01311   -0.00055
C7    1   -0.545651   -0.324101   -0.553523    11.00000    0.05411    0.05575 =
         0.03586    0.00765    0.00709    0.00323
O8    4    0.235586    0.180387    0.310259    11.00000    0.02195    0.02884 =
         0.02175   -0.00035    0.00015    0.00236
C8    1   -0.885619    0.274628   -0.438442    11.00000    0.04075    0.06230 =
         0.05955   -0.00481    0.00870    0.00162
AFIX  23
H8A   2   -0.982171    0.218519   -0.472672    11.00000    0.06742
H8B   2   -0.788369    0.241194   -0.432882    11.00000    0.08162
AFIX   0
O9    4   -0.612503   -0.387866   -0.632259    11.00000    0.08846    0.07794 =
         0.03726   -0.02199   -0.01222    0.02941
C9    1   -0.350751    0.447238   -0.110061    11.00000    0.02301    0.02032 =
         0.03564    0.00698    0.00827    0.00562
AFIX  43
H9A   2   -0.326227    0.379567   -0.129748    11.00000   -1.20000
AFIX   0
O10   4   -0.295141    0.231786    0.113611    11.00000    0.02403    0.02625 =
         0.02438    0.01009    0.01215    0.01117
C10   1   -0.548754    0.562610   -0.112277    11.00000    0.02603    0.03277 =
         0.04957    0.00575   -0.00062    0.01058
AFIX  43
H10A  2   -0.655703    0.575620   -0.133208    11.00000   -1.20000
AFIX   0
O11   4   -0.179587   -0.051551   -0.117194    11.00000    0.01211    0.01537 =
         0.01423    0.00315    0.00096   -0.00049
C11   1   -0.510891    0.463290   -0.146026    11.00000    0.02281    0.02362 =
         0.03734    0.01000    0.00758    0.00480
O12   4    0.047361    0.237186    0.158237    11.00000    0.01627    0.01435 =
         0.01989    0.00394    0.00308    0.00076
C12   1   -0.635524    0.371450   -0.215213    11.00000    0.02368    0.03232 =
         0.04382    0.00959    0.00693    0.00161
O13   4   -0.139633    0.052088    0.076176    11.00000    0.01357    0.01297 =
         0.01651    0.00315    0.00698    0.00343
C13   1   -0.267093    0.621500   -0.017272    11.00000    0.01982    0.02366 =
         0.03981    0.00879    0.00265    0.00460
AFIX  43
H13A  2   -0.183841    0.676055    0.025459    11.00000   -1.20000
AFIX   0
O14   4   -0.040210    0.027673   -0.225466    11.00000    0.01903    0.01732 =
         0.02010    0.00902    0.00998    0.00477
C14   1   -0.900118    0.317386   -0.341969    11.00000    0.03364    0.04601 =
         0.03939    0.00430   -0.00074    0.00062
AFIX  23
H14B  2   -0.998097    0.350089   -0.347662    11.00000   -1.20000
H14A  2   -0.919190    0.257156   -0.314535    11.00000   -1.20000
AFIX   0
C15   1   -0.871721    0.354838   -0.497637    11.00000    0.06116    0.06909 =
         0.04345    0.00709   -0.00133    0.02436
AFIX  23
H15B  2   -0.918838    0.316930   -0.563936    11.00000   -1.20000
H15A  2   -0.939538    0.407530   -0.482735    11.00000   -1.20000
AFIX   0
C16   1   -0.615812   -0.187369   -0.427530    11.00000    0.04714    0.06335 =
         0.02324    0.00303    0.00016    0.02719
AFIX  43
H16A  2   -0.579464   -0.226379   -0.383780    11.00000   -1.20000

AFIX   0
HKLF      4

REM                                        1 in P-1
REM R1 =  0.0308 for    4632 Fo > 4sig(Fo)  and  0.0366 for all    5323 data
REM    411 parameters refined using      0 restraints

END

WGHT      0.0449      4.5331

REM Highest difference peak  1.316,  deepest hole -0.596,  1-sigma level  0.129
Q1    1  -0.7168  0.5514 -0.4944  11.00000  0.05    1.32
Q2    1  -0.6808 -0.3850 -0.5478  11.00000  0.05    1.26
Q3    1  -0.0476 -0.0284 -0.0797  11.00000  0.05    1.22
Q4    1  -0.6986 -0.2815 -0.5115  11.00000  0.05    1.10
Q5    1  -0.1349  0.1247 -0.0971  11.00000  0.05    0.88
Q6    1  -0.1961  0.1814 -0.0331  11.00000  0.05    0.81
Q7    1  -0.9218  0.3584 -0.4319  11.00000  0.05    0.81
Q8    1   0.0048  0.1995  0.0863  11.00000  0.05    0.78
Q9    1  -0.2144  0.0683 -0.2464  11.00000  0.05    0.73
Q10   1  -0.3350  0.1224 -0.2033  11.00000  0.05    0.73
Q11   1  -0.1465  0.0397  0.0079  11.00000  0.05    0.71
Q12   1  -0.1013  0.2546  0.1347  11.00000  0.05    0.69
Q13   1   0.0812  0.1559  0.3042  11.00000  0.05    0.67
Q14   1  -0.0126  0.0622 -0.1617  11.00000  0.05    0.64
Q15   1  -0.7016 -0.4437 -0.6259  11.00000  0.05    0.64
Q16   1  -0.6704 -0.0655 -0.3412  11.00000  0.05    0.63
Q17   1  -0.0284  0.0888  0.1180  11.00000  0.05    0.62
Q18   1   0.0362  0.5340  0.0854  11.00000  0.05    0.61
Q19   1  -0.1646  0.0201 -0.0406  11.00000  0.05    0.57
Q20   1  -0.6649 -0.2380 -0.4068  11.00000  0.05    0.57
Q21   1  -0.7419  0.4343 -0.5431  11.00000  0.05    0.55
Q22   1  -0.6212 -0.1053 -0.5428  11.00000  0.05    0.53
Q23   1   0.1997  0.1127  0.2643  11.00000  0.05    0.53
Q24   1   0.0035  0.0858 -0.1083  11.00000  0.05    0.51
Q25   1  -0.0123  0.1603  0.0225  11.00000  0.05    0.51
Q26   1  -0.3084  0.2470  0.0327  11.00000  0.05    0.50
Q27   1  -0.7494  0.3579 -0.4582  11.00000  0.05    0.50
Q28   1  -0.4084 -0.1182 -0.1810  11.00000  0.05    0.47
Q29   1  -0.5778 -0.3719 -0.6284  11.00000  0.05    0.45
Q30   1  -0.6129 -0.0054 -0.1777  11.00000  0.05    0.44
Q31   1  -0.2591  0.1633 -0.1020  11.00000  0.05    0.44
Q32   1  -0.5261  0.0157 -0.0982  11.00000  0.05    0.43
Q33   1   0.1002  0.5410  0.1629  11.00000  0.05    0.42
Q34   1  -0.2617  0.2853  0.1004  11.00000  0.05    0.41
Q35   1  -0.4543 -0.3630 -0.2963  11.00000  0.05    0.41
Q36   1  -0.9866 -0.5569 -0.7607  11.00000  0.05    0.41
Q37   1  -0.6373 -0.0723 -0.4453  11.00000  0.05    0.40
Q38   1  -0.8630 -0.0022 -0.6738  11.00000  0.05    0.39
Q39   1  -0.1476  0.5265 -0.0237  11.00000  0.05    0.38
Q40   1  -0.0656  0.0318 -0.2432  11.00000  0.05    0.38
Q41   1  -0.6395  0.0591 -0.1251  11.00000  0.05    0.37
Q42   1  -0.8997 -0.1599 -0.2162  11.00000  0.05    0.36
Q43   1  -0.2526  0.1119  0.0679  11.00000  0.05    0.35
Q44   1   0.0190  0.0875 -0.0155  11.00000  0.05    0.35
Q45   1  -0.6985  0.6247 -0.2881  11.00000  0.05    0.34
Q46   1  -0.7239 -0.0440 -0.6781  11.00000  0.05    0.34
Q47   1  -0.5006  0.0598 -0.0781  11.00000  0.05    0.34
Q48   1  -0.4754 -0.0666 -0.2209  11.00000  0.05    0.34
Q49   1  -0.6585 -0.1855 -0.6605  11.00000  0.05    0.34
Q50   1  -0.9418 -0.2114 -0.3190  11.00000  0.05    0.33
Q51   1  -0.6716  0.0117 -0.1092  11.00000  0.05    0.33
Q52   1  -0.3249  0.2127 -0.0342  11.00000  0.05    0.33
Q53   1  -0.3390 -0.0547 -0.2142  11.00000  0.05    0.33
Q54   1  -0.7197 -0.1030 -0.4220  11.00000  0.05    0.33
Q55   1  -0.7198  0.0240 -0.3211  11.00000  0.05    0.33
Q56   1  -0.6890  0.0623 -0.2578  11.00000  0.05    0.33
Q57   1   0.1610  0.2009  0.2838  11.00000  0.05    0.33
Q58   1  -0.8339  0.0080 -0.4382  11.00000  0.05    0.32
Q59   1  -0.6411  0.0001 -0.5774  11.00000  0.05    0.32
Q60   1  -0.1055 -0.0148 -0.2434  11.00000  0.05    0.32
Q61   1  -0.4720  0.1960 -0.1634  11.00000  0.05    0.32
Q62   1  -0.6689 -0.2211 -0.5630  11.00000  0.05    0.32
Q63   1  -0.6454 -0.1815 -0.4731  11.00000  0.05    0.31
Q64   1  -0.2952  0.2368  0.1643  11.00000  0.05    0.31
Q65   1  -0.8342 -0.1645 -0.6793  11.00000  0.05    0.31
Q66   1  -0.5621 -0.2389 -0.5240  11.00000  0.05    0.30
Q67   1  -0.1755  0.1331  0.1393  11.00000  0.05    0.30
Q68   1  -0.7686 -0.1083 -0.5745  11.00000  0.05    0.30
Q69   1  -0.9557  0.2673 -0.5354  11.00000  0.05    0.30
Q70   1   0.1065  0.2250  0.1978  11.00000  0.05    0.29
Q71   1  -0.3258  0.3266 -0.1204  11.00000  0.05    0.29
Q72   1  -0.1026  0.5754  0.0741  11.00000  0.05    0.29
Q73   1  -0.1298  0.2884 -0.0255  11.00000  0.05    0.29
Q74   1  -0.4221  0.2152 -0.0950  11.00000  0.05    0.29
Q75   1  -1.0028  0.2423 -0.6197  11.00000  0.05    0.29
Q76   1  -0.6877 -0.1437 -0.3999  11.00000  0.05    0.28
Q77   1  -0.7135  0.1355 -0.2378  11.00000  0.05    0.28
Q78   1  -0.5838 -0.1998 -0.4404  11.00000  0.05    0.28
Q79   1  -0.6103 -0.0754 -0.2332  11.00000  0.05    0.28
Q80   1  -0.7738  0.0903 -0.1225  11.00000  0.05    0.28
Q81   1  -0.7840 -0.0121 -0.3072  11.00000  0.05    0.28
Q82   1  -0.1992  0.1960 -0.1821  11.00000  0.05    0.28
Q83   1  -0.7781  0.0791 -0.3176  11.00000  0.05    0.28
Q84   1  -0.5477  0.5008 -0.1047  11.00000  0.05    0.28
Q85   1  -0.7714 -0.4584 -0.7349  11.00000  0.05    0.27
Q86   1  -0.7982  0.2398 -0.5158  11.00000  0.05    0.27
Q87   1  -0.5595 -0.2578 -0.6753  11.00000  0.05    0.27
Q88   1  -0.3293  0.0528 -0.0363  11.00000  0.05    0.27
Q89   1  -0.6889  0.5363 -0.0912  11.00000  0.05    0.27
Q90   1  -0.2472 -0.0104 -0.1421  11.00000  0.05    0.27
Q91   1  -0.4692  0.5963 -0.1100  11.00000  0.05    0.27
Q92   1  -0.5204  0.5193 -0.1458  11.00000  0.05    0.27
Q93   1  -0.8045 -0.0389 -0.3388  11.00000  0.05    0.27
Q94   1  -0.8020 -0.5966 -0.7627  11.00000  0.05    0.26
Q95   1  -0.7084  0.6403 -0.3446  11.00000  0.05    0.26
Q96   1  -0.6624  0.1785 -0.5273  11.00000  0.05    0.26
Q97   1  -0.6506  0.4089 -0.4825  11.00000  0.05    0.26
Q98   1  -0.5557  0.2751 -0.1808  11.00000  0.05    0.25
Q99   1  -1.1702  0.4196 -0.4932  11.00000  0.05    0.25
Q100  1  -0.8077  0.0324 -0.5974  11.00000  0.05    0.25
Q101  1  -0.8746 -0.1702 -0.2852  11.00000  0.05    0.25
Q102  1  -0.1988  0.3817  0.0316  11.00000  0.05    0.25
Q103  1   0.0096  0.2216  0.1998  11.00000  0.05    0.25
Q104  1  -0.7186 -0.0204 -0.4660  11.00000  0.05    0.25
Q105  1  -0.7122 -0.2191 -0.7229  11.00000  0.05    0.25
Q106  1  -0.0546  0.2993  0.0220  11.00000  0.05    0.25
Q107  1   0.2180  0.2075  0.3391  11.00000  0.05    0.25
Q108  1  -0.2440  0.2581 -0.2142  11.00000  0.05    0.24
Q109  1  -0.7271 -0.3415 -0.4828  11.00000  0.05    0.24
Q110  1  -0.8166  0.2865 -0.3432  11.00000  0.05    0.24
Q111  1  -0.4376  0.4408 -0.1533  11.00000  0.05    0.24
Q112  1  -0.8036  0.7362 -0.3294  11.00000  0.05    0.24
Q113  1  -0.5856  0.4632 -0.5735  11.00000  0.05    0.24
Q114  1  -1.0014 -0.0358 -0.3196  11.00000  0.05    0.24
Q115  1  -0.7531  0.0188 -0.2629  11.00000  0.05    0.24
Q116  1  -0.8945 -0.0806 -0.4765  11.00000  0.05    0.24
Q117  1   0.0448  0.5072  0.1975  11.00000  0.05    0.24
Q118  1  -0.5923 -0.1244 -0.3788  11.00000  0.05    0.24
Q119  1   0.0743  0.6277  0.1523  11.00000  0.05    0.24
Q120  1  -0.5120 -0.1754 -0.1960  11.00000  0.05    0.24
;
_shelx_res_checksum              26245
loop_
_space_group_symop_operation_xyz
'x, y, z'
'-x, -y, -z'
loop_
_atom_site_label
_atom_site_type_symbol
_atom_site_fract_x
_atom_site_fract_y
_atom_site_fract_z
_atom_site_U_iso_or_equiv
_atom_site_adp_type
_atom_site_occupancy
_atom_site_site_symmetry_order
_atom_site_calc_flag
_atom_site_refinement_flags_posn
_atom_site_refinement_flags_adp
_atom_site_refinement_flags_occupancy
Te1 Te 0.0000 0.0000 0.0000 0.01091(11) Uani 1 2 d S . P
Mo1 Mo -0.18644(4) 0.10236(3) -0.16837(3) 0.01427(11) Uani 1 1 d . . .
Cu1 Cu 0.0000 0.5000 0.0000 0.01919(18) Uani 1 2 d S . P
O1 O -0.0996(4) 0.3402(3) 0.0280(2) 0.0235(7) Uani 1 1 d . . .
O1W O -0.0069(4) 0.5633(3) 0.1328(2) 0.0285(8) Uani 1 1 d . . .
H1WA H 0.0043 0.6285 0.1630 0.034 Uiso 1 1 d R U .
H1WB H -0.0159 0.5242 0.1707 0.034 Uiso 1 1 d R U .
N1 N -0.2302(5) 0.5248(3) -0.0483(3) 0.0231(9) Uani 1 1 d . . .
C1 C -0.4249(7) 0.6418(4) -0.0471(4) 0.0390(14) Uani 1 1 d . . .
H1A H -0.4480 0.7088 -0.0233 0.047 Uiso 1 1 calc R U .
Mo2 Mo -0.14808(4) 0.21826(3) 0.05210(3) 0.01397(11) Uani 1 1 d . . .
Cu2 Cu -0.64074(7) -0.03363(5) -0.26042(4) 0.02601(15) Uani 1 1 d . . .
C2 C -0.7010(9) 0.4134(6) -0.4855(5) 0.0564(18) Uani 1 1 d . . .
H2B H -0.7062 0.4618 -0.5268 0.068 Uiso 1 1 calc R U .
H2A H -0.6547 0.4561 -0.4205 0.068 Uiso 1 1 calc R U .
O2W O -0.7753(4) 0.0767(3) -0.2925(3) 0.0333(8) Uani 1 1 d . . .
H2WB H -0.8770 0.0605 -0.2940 0.040 Uiso 1 1 d R U .
H2WA H -0.7519 0.1444 -0.2849 0.040 Uiso 1 1 d R U .
N2 N -0.6640(5) -0.0978(4) -0.3982(3) 0.0295(10) Uani 1 1 d . . .
O2 O -0.3742(4) 0.0475(3) -0.2520(2) 0.0239(7) Uani 1 1 d . . .
Mo3 Mo 0.05523(4) 0.12457(3) 0.22283(3) 0.01483(11) Uani 1 1 d . . .
N3 N -0.5921(7) 0.3369(5) -0.5084(4) 0.0541(14) Uani 1 1 d . . .
H3B H -0.6182 0.2975 -0.5655 0.065 Uiso 1 1 calc R U .
C3 C -0.7163(10) -0.0445(5) -0.4636(4) 0.0548(18) Uani 1 1 d . . .
H3A H -0.7491 0.0204 -0.4441 0.066 Uiso 1 1 calc R U .
O3W O -0.5259(4) -0.1494(3) -0.2170(3) 0.0340(9) Uani 1 1 d . . .
H3WA H -0.4520 -0.1867 -0.2244 0.041 Uiso 1 1 d R U .
H3WB H -0.5821 -0.1772 -0.1852 0.041 Uiso 1 1 d R U .
O3 O -0.8954(4) -0.1422(3) -0.2737(2) 0.0224(7) Uani 1 1 d . . .
N4 N -0.7585(5) 0.3964(4) -0.2753(3) 0.0349(10) Uani 1 1 d . . .
H4B H -0.7551 0.4631 -0.2752 0.042 Uiso 1 1 calc R U .
C4 C -0.7243(11) -0.0799(6) -0.5576(5) 0.065(2) Uani 1 1 d . . .
H4A H -0.7607 -0.0399 -0.6004 0.077 Uiso 1 1 calc R U .
O4W O -0.6093(5) 0.0378(4) -0.1277(3) 0.0488(12) Uani 1 1 d . . .
H4WB H -0.5211 0.0852 -0.1128 0.059 Uiso 1 1 d R U .
H4WA H -0.6470 0.0440 -0.0796 0.059 Uiso 1 1 d R U .
O4 O -0.1253(4) 0.2259(3) -0.1861(2) 0.0237(7) Uani 1 1 d . . .
C5 C -0.6767(8) -0.1768(6) -0.5869(4) 0.0515(17) Uani 1 1 d . . .
H5A H -0.6867 -0.2057 -0.6506 0.062 Uiso 1 1 calc R U .
O5 O 0.0095(4) 0.1366(2) -0.0315(2) 0.0145(6) Uani 1 1 d . . .
O5W O -0.8765(7) -0.5472(4) -0.7411(3) 0.0648(14) Uani 1 1 d . . .
H5WA H -0.7722 -0.5311 -0.7149 0.078 Uiso 1 1 d R U .
H5WB H -0.9023 -0.6150 -0.7634 0.078 Uiso 1 1 d R U .
C6 C -0.6162(8) -0.2277(6) -0.5217(4) 0.0481(16) Uani 1 1 d . . .
O6 O -0.2963(4) 0.1413(2) -0.0685(2) 0.0183(6) Uani 1 1 d . . .
O6W O -0.8215(8) 0.6045(4) -0.3106(4) 0.0851(19) Uani 1 1 d . . .
H66 H -0.9224 0.5770 -0.3180 0.102 Uiso 1 1 d R U .
H67 H -0.7968 0.6630 -0.2674 0.102 Uiso 1 1 d R U .
O7 O -0.6207(5) 0.2784(3) -0.2131(4) 0.0565(13) Uani 1 1 d . . .
C7 C -0.5457(9) -0.3241(6) -0.5535(4) 0.0509(16) Uani 1 1 d . . .
O8 O 0.2356(4) 0.1804(3) 0.3103(2) 0.0266(8) Uani 1 1 d . . .
C8 C -0.8856(9) 0.2746(6) -0.4384(5) 0.0591(19) Uani 1 1 d . . .
H8A H -0.9822 0.2185 -0.4727 0.07(2) Uiso 1 1 calc R . .
H8B H -0.7884 0.2412 -0.4329 0.08(3) Uiso 1 1 calc R . .
O9 O -0.6125(7) -0.3879(5) -0.6323(3) 0.0777(18) Uani 1 1 d . . .
C9 C -0.3508(6) 0.4472(4) -0.1101(4) 0.0262(11) Uani 1 1 d . . .
H9A H -0.3262 0.3796 -0.1297 0.031 Uiso 1 1 calc R U .
O10 O -0.2951(4) 0.2318(3) 0.1136(2) 0.0227(7) Uani 1 1 d . . .
C10 C -0.5488(7) 0.5626(4) -0.1123(4) 0.0384(13) Uani 1 1 d . . .
H10A H -0.6557 0.5756 -0.1332 0.046 Uiso 1 1 calc R U .
O11 O -0.1796(4) -0.0516(2) -0.1172(2) 0.0148(6) Uani 1 1 d . . .
C11 C -0.5109(6) 0.4633(4) -0.1460(4) 0.0277(11) Uani 1 1 d . . .
O12 O 0.0474(4) 0.2372(2) 0.1582(2) 0.0175(6) Uani 1 1 d . . .
C12 C -0.6355(6) 0.3714(4) -0.2152(4) 0.0341(12) Uani 1 1 d . . .
O13 O -0.1396(4) 0.0521(2) 0.0762(2) 0.0138(6) Uani 1 1 d . . .
C13 C -0.2671(6) 0.6215(4) -0.0173(4) 0.0286(11) Uani 1 1 d . . .
H13A H -0.1838 0.6761 0.0255 0.034 Uiso 1 1 calc R U .
O14 O -0.0402(4) 0.0277(2) -0.2255(2) 0.0172(6) Uani 1 1 d . . .
C14 C -0.9001(7) 0.3174(5) -0.3420(4) 0.0433(14) Uani 1 1 d . . .
H14B H -0.9981 0.3501 -0.3477 0.052 Uiso 1 1 calc R U .
H14A H -0.9192 0.2572 -0.3145 0.052 Uiso 1 1 calc R U .
C15 C -0.8717(9) 0.3548(6) -0.4976(5) 0.0608(19) Uani 1 1 d . . .
H15B H -0.9188 0.3169 -0.5639 0.073 Uiso 1 1 calc R U .
H15A H -0.9395 0.4075 -0.4827 0.073 Uiso 1 1 calc R U .
C16 C -0.6158(8) -0.1874(6) -0.4275(4) 0.0460(16) Uani 1 1 d . . .
H16A H -0.5795 -0.2264 -0.3838 0.055 Uiso 1 1 calc R U .
loop_
_atom_site_aniso_label
_atom_site_aniso_U_11
_atom_site_aniso_U_22
_atom_site_aniso_U_33
_atom_site_aniso_U_23
_atom_site_aniso_U_13
_atom_site_aniso_U_12
Te1 0.01181(19) 0.0105(2) 0.0118(2) 0.00440(15) 0.00393(15) 0.00333(15)
Mo1 0.0144(2) 0.0142(2) 0.0151(2) 0.00647(15) 0.00325(15) 0.00278(15)
Cu1 0.0162(4) 0.0166(4) 0.0263(4) 0.0074(3) 0.0063(3) 0.0045(3)
O1 0.0284(18) 0.0153(16) 0.0295(18) 0.0097(14) 0.0087(15) 0.0052(14)
O1W 0.038(2) 0.0167(17) 0.0302(19) 0.0041(14) 0.0129(16) 0.0013(15)
N1 0.022(2) 0.018(2) 0.031(2) 0.0107(17) 0.0066(17) 0.0033(16)
C1 0.032(3) 0.028(3) 0.054(4) 0.002(3) 0.007(3) 0.017(2)
Mo2 0.0156(2) 0.01105(19) 0.0176(2) 0.00538(15) 0.00672(15) 0.00370(15)
Cu2 0.0227(3) 0.0334(3) 0.0209(3) 0.0050(3) 0.0084(2) 0.0006(3)
C2 0.058(4) 0.053(4) 0.054(4) 0.000(3) 0.014(3) 0.021(3)
O2W 0.032(2) 0.0259(19) 0.043(2) 0.0081(17) 0.0152(17) -0.0003(16)
N2 0.020(2) 0.039(3) 0.026(2) 0.0025(19) 0.0072(17) -0.0027(18)
O2 0.0175(16) 0.0311(19) 0.0219(17) 0.0077(15) 0.0034(13) 0.0029(14)
Mo3 0.0137(2) 0.0160(2) 0.0138(2) 0.00259(15) 0.00335(15) 0.00224(15)
N3 0.055(3) 0.060(4) 0.041(3) 0.001(3) 0.009(3) 0.013(3)
C3 0.091(6) 0.042(4) 0.036(3) 0.013(3) 0.023(4) 0.010(4)
O3W 0.0267(19) 0.047(2) 0.038(2) 0.0221(18) 0.0161(16) 0.0077(17)
O3 0.0216(17) 0.0260(18) 0.0219(17) 0.0056(14) 0.0100(14) 0.0060(14)
N4 0.028(2) 0.032(2) 0.037(3) 0.005(2) 0.001(2) 0.0010(19)
C4 0.096(6) 0.066(5) 0.035(4) 0.016(3) 0.020(4) 0.020(4)
O4W 0.032(2) 0.076(3) 0.025(2) -0.005(2) 0.0154(17) -0.021(2)
O4 0.0298(18) 0.0178(17) 0.0258(17) 0.0111(14) 0.0084(14) 0.0018(14)
C5 0.041(4) 0.082(5) 0.028(3) 0.005(3) 0.012(3) 0.012(3)
O5 0.0175(15) 0.0098(14) 0.0169(15) 0.0063(12) 0.0052(12) -0.0008(12)
O5W 0.093(4) 0.037(3) 0.055(3) 0.010(2) 0.008(3) 0.007(3)
C6 0.047(4) 0.056(4) 0.034(3) -0.001(3) 0.006(3) 0.015(3)
O6 0.0155(15) 0.0207(16) 0.0195(16) 0.0045(13) 0.0056(12) 0.0057(13)
O6W 0.115(5) 0.054(3) 0.071(4) 0.004(3) 0.004(4) 0.026(3)
O7 0.042(3) 0.029(2) 0.078(3) 0.010(2) -0.013(2) -0.0005(19)
C7 0.054(4) 0.056(4) 0.036(3) 0.008(3) 0.007(3) 0.003(3)
O8 0.0220(17) 0.0288(19) 0.0218(17) -0.0004(14) 0.0001(14) 0.0024(14)
C8 0.041(4) 0.062(5) 0.060(4) -0.005(4) 0.009(3) 0.002(3)
O9 0.088(4) 0.078(4) 0.037(3) -0.022(3) -0.012(3) 0.029(3)
C9 0.023(2) 0.020(2) 0.036(3) 0.007(2) 0.008(2) 0.006(2)
O10 0.0240(17) 0.0262(18) 0.0244(17) 0.0101(14) 0.0122(14) 0.0112(14)
C10 0.026(3) 0.033(3) 0.050(3) 0.006(3) -0.001(3) 0.011(2)
O11 0.0121(14) 0.0154(15) 0.0142(14) 0.0031(12) 0.0010(12) -0.0005(12)
C11 0.023(3) 0.024(3) 0.037(3) 0.010(2) 0.008(2) 0.005(2)
O12 0.0163(15) 0.0144(15) 0.0199(16) 0.0039(13) 0.0031(12) 0.0008(12)
C12 0.024(3) 0.032(3) 0.044(3) 0.010(3) 0.007(2) 0.002(2)
O13 0.0136(15) 0.0130(15) 0.0165(15) 0.0032(12) 0.0070(12) 0.0034(12)
C13 0.020(2) 0.024(3) 0.040(3) 0.009(2) 0.003(2) 0.005(2)
O14 0.0190(16) 0.0173(16) 0.0201(16) 0.0090(13) 0.0100(13) 0.0048(13)
C14 0.034(3) 0.046(4) 0.039(3) 0.004(3) -0.001(3) 0.001(3)
C15 0.061(5) 0.069(5) 0.043(4) 0.007(4) -0.001(3) 0.024(4)
C16 0.047(4) 0.063(4) 0.023(3) 0.003(3) 0.000(3) 0.027(3)
loop_
_atom_type_symbol
_atom_type_description
_atom_type_scat_dispersion_real
_atom_type_scat_dispersion_imag
_atom_type_scat_source
C C 0.0033 0.0016 'International Tables Vol C Tables 4.2.6.8 and 6.1.1.4'
H H 0.0000 0.0000 'International Tables Vol C Tables 4.2.6.8 and 6.1.1.4'
N N 0.0061 0.0033 'International Tables Vol C Tables 4.2.6.8 and 6.1.1.4'
O O 0.0106 0.0060 'International Tables Vol C Tables 4.2.6.8 and 6.1.1.4'
Cu Cu 0.3201 1.2651 'International Tables Vol C Tables 4.2.6.8 and 6.1.1.4'
Mo Mo -1.6832 0.6857 'International Tables Vol C Tables 4.2.6.8 and 6.1.1.4'
Te Te -0.5308 1.6751 'International Tables Vol C Tables 4.2.6.8 and 6.1.1.4'
loop_
_geom_angle_atom_site_label_1
_geom_angle_atom_site_label_2
_geom_angle_atom_site_label_3
_geom_angle
_geom_angle_site_symmetry_1
_geom_angle_site_symmetry_3
O13 Te1 O13 180.0 . 2
O13 Te1 O5 85.34(12) . .
O13 Te1 O5 94.66(12) 2 .
O13 Te1 O5 94.66(12) . 2
O13 Te1 O5 85.34(12) 2 2
O5 Te1 O5 180.0 . 2
O13 Te1 O11 94.91(12) . .
O13 Te1 O11 85.09(12) 2 .
O5 Te1 O11 84.81(12) . .
O5 Te1 O11 95.19(12) 2 .
O13 Te1 O11 85.09(12) . 2
O13 Te1 O11 94.91(12) 2 2
O5 Te1 O11 95.19(12) . 2
O5 Te1 O11 84.81(12) 2 2
O11 Te1 O11 180.00(14) . 2
O4 Mo1 O2 105.80(16) . .
O4 Mo1 O14 97.92(14) . .
O2 Mo1 O14 100.75(14) . .
O4 Mo1 O6 101.01(15) . .
O2 Mo1 O6 91.75(14) . .
O14 Mo1 O6 153.52(13) . .
O4 Mo1 O5 92.75(13) . .
O2 Mo1 O5 158.46(13) . .
O14 Mo1 O5 87.12(12) . .
O6 Mo1 O5 73.70(11) . .
O4 Mo1 O11 161.41(13) . .
O2 Mo1 O11 92.15(13) . .
O14 Mo1 O11 73.50(11) . .
O6 Mo1 O11 82.87(12) . .
O5 Mo1 O11 70.71(10) . .
N1 Cu1 N1 180.0 2_565 .
N1 Cu1 O1W 89.22(15) 2_565 2_565
N1 Cu1 O1W 90.78(15) . 2_565
N1 Cu1 O1W 90.78(15) 2_565 .
N1 Cu1 O1W 89.23(15) . .
O1W Cu1 O1W 180.0 2_565 .
N1 Cu1 O1 91.55(14) 2_565 2_565
N1 Cu1 O1 88.44(14) . 2_565
O1W Cu1 O1 84.02(13) 2_565 2_565
O1W Cu1 O1 95.99(13) . 2_565
N1 Cu1 O1 88.44(14) 2_565 .
N1 Cu1 O1 91.56(14) . .
O1W Cu1 O1 95.99(12) 2_565 .
O1W Cu1 O1 84.01(13) . .
O1 Cu1 O1 180.0 2_565 .
Mo2 O1 Cu1 172.63(19) . .
C9 N1 C13 118.6(4) . .
C9 N1 Cu1 121.8(3) . .
C13 N1 Cu1 119.5(3) . .
C13 C1 C10 119.9(5) . .
O1 Mo2 O10 106.08(15) . .
O1 Mo2 O6 99.15(15) . .
O10 Mo2 O6 97.54(14) . .
O1 Mo2 O12 96.80(14) . .
O10 Mo2 O12 98.99(14) . .
O6 Mo2 O12 152.83(13) . .
O1 Mo2 O5 94.57(13) . .
O10 Mo2 O5 158.75(13) . .
O6 Mo2 O5 73.82(11) . .
O12 Mo2 O5 83.13(12) . .
O1 Mo2 O13 163.29(13) . .
O10 Mo2 O13 89.64(13) . .
O6 Mo2 O13 84.02(12) . .
O12 Mo2 O13 74.70(11) . .
O5 Mo2 O13 70.41(10) . .
O4W Cu2 O2W 86.84(18) . .
O4W Cu2 N2 175.94(18) . .
O2W Cu2 N2 91.44(17) . .
O4W Cu2 O3W 88.51(18) . .
O2W Cu2 O3W 172.11(14) . .
N2 Cu2 O3W 93.60(17) . .
O4W Cu2 O2 90.60(14) . .
O2W Cu2 O2 102.47(13) . .
N2 Cu2 O2 86.17(14) . .
O3W Cu2 O2 83.94(13) . .
O4W Cu2 O3 93.50(14) . .
O2W Cu2 O3 86.07(13) . .
N2 Cu2 O3 90.05(14) . .
O3W Cu2 O3 87.86(13) . .
O2 Cu2 O3 170.73(12) . .
N3 C2 C15 110.7(6) . .
C16 N2 C3 116.5(5) . .
C16 N2 Cu2 122.4(4) . .
C3 N2 Cu2 120.8(4) . .
Mo1 O2 Cu2 139.09(18) . .
O8 Mo3 O3 106.52(16) . 2_455
O8 Mo3 O12 98.46(15) . .
O3 Mo3 O12 99.74(14) 2_455 .
O8 Mo3 O14 100.25(15) . 2
O3 Mo3 O14 93.97(14) 2_455 2
O12 Mo3 O14 152.57(13) . 2
O8 Mo3 O11 94.95(14) . 2
O3 Mo3 O11 157.09(13) 2_455 2
O12 Mo3 O11 84.57(12) . 2
O14 Mo3 O11 74.01(11) 2 2
O8 Mo3 O13 163.47(14) . .
O3 Mo3 O13 89.35(13) 2_455 .
O12 Mo3 O13 73.74(11) . .
O14 Mo3 O13 82.83(11) 2 .
O11 Mo3 O13 70.12(10) 2 .
C7 N3 C2 125.2(6) 2_454 .
N2 C3 C4 124.0(7) . .
Mo3 O3 Cu2 134.04(17) 2_455 .
C12 N4 C14 124.0(5) . .
C3 C4 C5 118.1(7) . .
C6 C5 C4 118.5(6) . .
Te1 O5 Mo1 103.79(12) . .
Te1 O5 Mo2 102.28(12) . .
Mo1 O5 Mo2 93.25(11) . .
C5 C6 C16 119.6(6) . .
C5 C6 C7 117.1(6) . .
C16 C6 C7 123.2(6) . .
Mo2 O6 Mo1 114.31(15) . .
O9 C7 N3 123.4(7) . 2_454
O9 C7 C6 120.6(6) . .
N3 C7 C6 116.0(6) 2_454 .
C14 C8 C15 116.6(6) . .
N1 C9 C11 122.8(5) . .
C1 C10 C11 118.8(5) . .
Te1 O11 Mo3 103.77(12) . 2
Te1 O11 Mo1 100.68(12) . .
Mo3 O11 Mo1 93.52(11) 2 .
C10 C11 C9 118.1(5) . .
C10 C11 C12 123.3(5) . .
C9 C11 C12 118.5(5) . .
Mo3 O12 Mo2 116.11(15) . .
O7 C12 N4 124.0(5) . .
O7 C12 C11 119.5(5) . .
N4 C12 C11 116.5(5) . .
Te1 O13 Mo2 101.97(12) . .
Te1 O13 Mo3 100.96(12) . .
Mo2 O13 Mo3 91.03(10) . .
N1 C13 C1 121.6(5) . .
Mo1 O14 Mo3 115.58(14) . 2
N4 C14 C8 116.9(5) . .
C2 C15 C8 116.3(6) . .
N2 C16 C6 123.1(6) . .
loop_
_geom_bond_atom_site_label_1
_geom_bond_atom_site_label_2
_geom_bond_distance
_geom_bond_site_symmetry_2
Te1 O13 1.919(3) .
Te1 O13 1.919(3) 2
Te1 O5 1.923(3) .
Te1 O5 1.923(3) 2
Te1 O11 1.946(3) .
Te1 O11 1.946(3) 2
Mo1 O4 1.712(3) .
Mo1 O2 1.719(3) .
Mo1 O14 1.913(3) .
Mo1 O6 1.958(3) .
Mo1 O5 2.221(3) .
Mo1 O11 2.287(3) .
Cu1 N1 1.994(4) 2_565
Cu1 N1 1.994(4) .
Cu1 O1W 2.007(3) 2_565
Cu1 O1W 2.007(3) .
Cu1 O1 2.293(3) 2_565
Cu1 O1 2.293(3) .
O1 Mo2 1.715(3) .
N1 C9 1.337(6) .
N1 C13 1.343(6) .
C1 C13 1.375(7) .
C1 C10 1.379(8) .
Mo2 O10 1.722(3) .
Mo2 O6 1.911(3) .
Mo2 O12 1.943(3) .
Mo2 O5 2.252(3) .
Mo2 O13 2.264(3) .
Cu2 O4W 1.949(4) .
Cu2 O2W 2.002(4) .
Cu2 N2 2.011(4) .
Cu2 O3W 2.024(4) .
Cu2 O2 2.317(3) .
Cu2 O3 2.350(3) .
C2 N3 1.478(8) .
C2 C15 1.487(10) .
N2 C16 1.303(7) .
N2 C3 1.339(8) .
Mo3 O8 1.704(3) .
Mo3 O3 1.720(3) 2_455
Mo3 O12 1.916(3) .
Mo3 O14 1.969(3) 2
Mo3 O11 2.222(3) 2
Mo3 O13 2.324(3) .
N3 C7 1.354(8) 2_454
C3 C4 1.371(9) .
O3 Mo3 1.720(3) 2_455
N4 C12 1.324(7) .
N4 C14 1.465(7) .
C4 C5 1.381(10) .
C5 C6 1.332(9) .
C6 C16 1.399(8) .
C6 C7 1.489(9) .
O7 C12 1.234(7) .
C7 O9 1.241(8) .
C7 N3 1.354(8) 2_454
C8 C14 1.478(9) .
C8 C15 1.515(11) .
C9 C11 1.388(7) .
C10 C11 1.386(7) .
O11 Mo3 2.222(3) 2
C11 C12 1.491(7) .
O14 Mo3 1.969(3) 2
