#------------------------------------------------------------------------------
#$Date: 2016-08-07 12:09:17 +0300 (Sun, 07 Aug 2016) $
#$Revision: 185452 $
#$URL: file:///home/coder/svn-repositories/cod/cif/7/03/98/7039814.cif $
#------------------------------------------------------------------------------
#
# This file is available in the Crystallography Open Database (COD),
# http://www.crystallography.net/
#
# All data on this site have been placed in the public domain by the
# contributors.
#
data_7039814
loop_
_publ_author_name
'Wang, Xiuli'
'Sun, Junjun'
'Lin, Hongyan'
'Chang, Zhihan'
'Wang, Xiang'
'Liu, Guocheng'
_publ_section_title
;
 A series of Anderson-type polyoxometalate-based metal-organic complexes:
 their pH-dependent electrochemical behaviour, and as electrocatalysts and
 photocatalysts.
;
_journal_issue                   31
_journal_name_full
'Dalton transactions (Cambridge, England : 2003)'
_journal_page_first              12465
_journal_page_last               12478
_journal_paper_doi               10.1039/c6dt02216b
_journal_volume                  45
_journal_year                    2016
_chemical_formula_sum            'C7 H17 Cu Mo4 N2 O19'
_chemical_formula_weight         880.53
_space_group_crystal_system      triclinic
_space_group_IT_number           2
_space_group_name_Hall           '-P 1'
_space_group_name_H-M_alt        'P -1'
_symmetry_space_group_name_Hall  '-P 1'
_symmetry_space_group_name_H-M   'P -1'
_atom_sites_solution_hydrogens   geom
_atom_sites_solution_primary     direct
_atom_sites_solution_secondary   difmap
_audit_creation_method           SHELXL-2014/7
_audit_update_record
;
2016-06-20 deposited with the CCDC.
2016-07-06 downloaded from the CCDC.
;
_cell_angle_alpha                99.444(4)
_cell_angle_beta                 97.040(3)
_cell_angle_gamma                109.631(3)
_cell_formula_units_Z            2
_cell_length_a                   7.7790(13)
_cell_length_b                   10.2490(18)
_cell_length_c                   14.418(2)
_cell_measurement_reflns_used    1622
_cell_measurement_temperature    296(2)
_cell_measurement_theta_max      27.3007
_cell_measurement_theta_min      2.3280
_cell_volume                     1048.3(3)
_computing_cell_refinement       'Bruker XSCANS'
_computing_data_collection       'Bruker XSCANS'
_computing_data_reduction        'Bruker SHELXTL'
_computing_molecular_graphics    'Bruker SHELXTL'
_computing_publication_material  'Bruker SHELXTL'
_computing_structure_refinement  'SHELXL-2014/7 (Sheldrick, 2014)'
_computing_structure_solution    'Bruker SHELXTL'
_diffrn_ambient_temperature      296(2)
_diffrn_measured_fraction_theta_full 0.998
_diffrn_measured_fraction_theta_max 0.991
_diffrn_measurement_device_type  'Bruker P4'
_diffrn_measurement_method       '\w scans'
_diffrn_radiation_type           MoK\a
_diffrn_radiation_wavelength     0.71069
_diffrn_reflns_av_R_equivalents  0.0396
_diffrn_reflns_av_unetI/netI     0.0808
_diffrn_reflns_Laue_measured_fraction_full 0.998
_diffrn_reflns_Laue_measured_fraction_max 0.991
_diffrn_reflns_limit_h_max       10
_diffrn_reflns_limit_h_min       -10
_diffrn_reflns_limit_k_max       13
_diffrn_reflns_limit_k_min       -10
_diffrn_reflns_limit_l_max       17
_diffrn_reflns_limit_l_min       -19
_diffrn_reflns_number            7796
_diffrn_reflns_point_group_measured_fraction_full 0.998
_diffrn_reflns_point_group_measured_fraction_max 0.991
_diffrn_reflns_theta_full        25.240
_diffrn_reflns_theta_max         28.346
_diffrn_reflns_theta_min         2.162
_diffrn_source                   'sealed tube'
_exptl_absorpt_coefficient_mu    3.420
_exptl_absorpt_correction_T_max  0.540
_exptl_absorpt_correction_T_min  0.422
_exptl_absorpt_correction_type   numerical
_exptl_absorpt_process_details   'ABSCOR by T.Higashi    8  March, 1995'
_exptl_crystal_colour            BLUE
_exptl_crystal_density_diffrn    2.790
_exptl_crystal_density_method    'not measured'
_exptl_crystal_description       BLOCK
_exptl_crystal_F_000             844
_exptl_crystal_size_max          0.280
_exptl_crystal_size_mid          0.220
_exptl_crystal_size_min          0.180
_refine_diff_density_max         1.472
_refine_diff_density_min         -2.118
_refine_diff_density_rms         0.261
_refine_ls_extinction_method     none
_refine_ls_goodness_of_fit_ref   0.995
_refine_ls_hydrogen_treatment    constr
_refine_ls_matrix_type           full
_refine_ls_number_parameters     298
_refine_ls_number_reflns         5198
_refine_ls_number_restraints     0
_refine_ls_restrained_S_all      0.995
_refine_ls_R_factor_all          0.0753
_refine_ls_R_factor_gt           0.0495
_refine_ls_shift/su_max          0.001
_refine_ls_shift/su_mean         0.000
_refine_ls_structure_factor_coef Fsqd
_refine_ls_weighting_details
'w=1/[\s^2^(Fo^2^)+(0.0649P)^2^] where P=(Fo^2^+2Fc^2^)/3'
_refine_ls_weighting_scheme      calc
_refine_ls_wR_factor_gt          0.1151
_refine_ls_wR_factor_ref         0.1285
_reflns_Friedel_coverage         0.000
_reflns_number_gt                3879
_reflns_number_total             5243
_reflns_threshold_expression     'I > 2\s(I)'
_cod_data_source_file            c6dt02216b2.cif
_cod_data_source_block           complex2
_cod_depositor_comments
'Adding full bibliography for 7039813--7039819.cif.'
_cod_database_code               7039814
_shelx_shelxl_version_number     2014/7
_shelx_space_group_comment
;
The symmetry employed for this shelxl refinement is uniquely defined
by the following loop, which should always be used as a source of
symmetry information in preference to the above space-group names.
They are only intended as comments.
;
_shelx_estimated_absorpt_t_min   0.448
_shelx_estimated_absorpt_t_max   0.578
_shelx_res_file
;

    1.res created by SHELXL-2014/7


TITL                                       1 in P-1
CELL   0.71069      7.779   10.249   14.418   99.444   97.040  109.631
ZERR         2      0.0013   0.0018   0.0024   0.004   0.003   0.003
LATT 1
SFAC C  H  N  O  Cu Mo
UNIT 14 34 4 38 2 8
MERG 2
L.S. 4
ACTA
BOND
FMAP 2
PLAN 80
LIST 1
SIZE 0.28 0.22 0.18
WGHT    0.064900
FVAR       0.08174
MO1   6    0.192784    1.119145    0.475851    11.00000    0.01413    0.01493 =
         0.00985    0.00034    0.00393    0.00370
CU1   5    0.289533    0.465787    0.267240    11.00000    0.03218    0.02444 =
         0.02242    0.00685    0.00714    0.00699
O1    4    0.122469    1.039388    0.584239    11.00000    0.01734    0.02090 =
         0.00913    0.00114    0.00500    0.00869
N1    3    0.237837    0.456859    0.125369    11.00000    0.03027    0.01883 =
         0.02766   -0.00144    0.00138    0.00305
O1W   4    0.555076    0.583006    0.276648    11.00000    0.03473    0.02164 =
         0.04091    0.00847   -0.00091    0.00256
AFIX   3
H1WA  2    0.491491    0.515416    0.229290    11.00000   -1.20000
H1WB  2    0.582001    0.546576    0.322630    11.00000   -1.20000
AFIX   0
C1    1    0.308968    0.570907    0.089206    11.00000    0.03364    0.02082 =
         0.02197    0.00068    0.00588    0.00471
AFIX  43
H1A   2    0.378263    0.657289    0.131244    11.00000   -1.20000
AFIX   0
MO2   6    0.107272    1.046836    0.742974    11.00000    0.01528    0.01760 =
         0.01191    0.00043    0.00273    0.00487
O2    4    0.041200    0.998160    0.843896    11.00000    0.03429    0.03405 =
         0.01006    0.00391    0.00760    0.01700
O2W   4    0.369103    0.279298    0.250447    11.00000    0.06581    0.03842 =
         0.06451    0.03018    0.04321    0.02976
AFIX   3
H2WA  2    0.358734    0.213768    0.287007    11.00000   -1.20000
H2WB  2    0.441123    0.256968    0.232687    11.00000   -1.20000
AFIX   0
C2    1    0.284225    0.566226   -0.007579    11.00000    0.03496    0.01541 =
         0.02294    0.00145    0.01123    0.00964
N2    3    0.449397    0.814967    0.011261    11.00000    0.20883    0.02427 =
         0.03343    0.01037    0.05611    0.01140
AFIX  43
H2A   2    0.450360    0.815929    0.071081    11.00000   -1.20000
AFIX   0
MO3   6    0.241407    0.866624    0.574373    11.00000    0.01499    0.01861 =
         0.01222    0.00311    0.00505    0.00695
O3    4   -0.000430    1.189294    0.728891    11.00000    0.01880    0.01350 =
         0.01924   -0.00123    0.00417    0.00497
O3W   4    0.333244    0.490363    0.411540    11.00000    0.06526    0.02891 =
         0.02714    0.00030    0.00722    0.00914
AFIX   3
H3WA  2    0.312594    0.558573    0.441400    11.00000   -1.20000
H3WB  2    0.237274    0.423743    0.398560    11.00000   -1.20000
AFIX   0
C3    1    0.180387    0.437273   -0.069278    11.00000    0.05346    0.04294 =
         0.02070   -0.00007    0.00839    0.01953
AFIX  43
H3A   2    0.163466    0.429760   -0.135191    11.00000   -1.20000
AFIX   0
MO4   6    0.264993    0.880435    0.304781    11.00000    0.01917    0.01982 =
         0.01117    0.00005    0.00403    0.00911
O4    4    0.068445    1.235963    0.480054    11.00000    0.01980    0.02277 =
         0.02116    0.00490    0.00604    0.00897
O4W   4    0.020625    0.372642    0.261356    11.00000    0.04080    0.03059 =
         0.04616    0.01586    0.01287    0.01281
AFIX   3
H4WA  2   -0.010615    0.284812    0.261666    11.00000   -1.20000
H4WB  2   -0.026415    0.444762    0.261666    11.00000   -1.20000
AFIX   0
C4    1    0.368029    0.695086   -0.047707    11.00000    0.05129    0.03313 =
         0.02667    0.01245    0.01977    0.01764
O5    4    0.181680    1.071648    0.341367    11.00000    0.01750    0.01943 =
         0.01139   -0.00028    0.00300    0.00636
C5    1    0.135494    0.332895    0.067165    11.00000    0.04167    0.02647 =
         0.02269    0.00159    0.01109    0.00459
AFIX  43
H5A   2    0.085232    0.253653    0.092500    11.00000   -1.20000
AFIX   0
O5W   4    0.860964    0.544322    0.352490    11.00000    0.07697    0.05140 =
         0.06772   -0.02447   -0.02284    0.03220
AFIX   3
H50   2    0.853198    0.493847    0.394175    11.00000   -1.20000
H51   2    0.910518    0.630917    0.381866    11.00000   -1.20000
AFIX   0
O6    4    0.475570    0.977671    0.625467    11.00000    0.01425    0.02999 =
         0.01778    0.00388    0.00512    0.00384
C6    1    0.541371    0.951186   -0.014285    11.00000    0.18762    0.04152 =
         0.08758    0.04068    0.08568    0.03337
AFIX  23
H6B   2    0.671626    0.989539    0.016201    11.00000   -1.20000
H6A   2    0.534400    0.935849   -0.083061    11.00000   -1.20000
AFIX   0
O7    4    0.414858    1.228430    0.518293    11.00000    0.01819    0.02474 =
         0.02162    0.00193    0.00506    0.00084
C7    1    0.102482    0.320424   -0.032418    11.00000    0.05683    0.02796 =
         0.01904   -0.00967    0.00837    0.00555
AFIX  43
H7A   2    0.028553    0.233840   -0.073012    11.00000   -1.20000
AFIX   0
O8    4    0.318551    0.917713    0.198657    11.00000    0.03390    0.03728 =
         0.01329    0.00577    0.00408    0.01518
O9    4    0.149184    0.871903    0.690988    11.00000    0.01832    0.01910 =
         0.01297    0.00245    0.00609    0.00812
O10   4    0.240670    0.699201    0.549622    11.00000    0.03133    0.02439 =
         0.02832    0.00764    0.00831    0.01263
O11   4    0.233248    0.918390    0.454977    11.00000    0.01957    0.01954 =
         0.00841   -0.00057    0.00655    0.00758
O12   4    0.290267    0.722996    0.307706    11.00000    0.03507    0.02622 =
         0.02532    0.00314    0.00531    0.01883
O13   4    0.365235    0.681004   -0.133318    11.00000    0.11184    0.06089 =
         0.02721    0.01288    0.02448   -0.00083
O14   4    0.332657    1.163168    0.778371    11.00000    0.01544    0.02591 =
         0.02740    0.00053    0.00163    0.00197

HKLF      4

REM                                        1 in P-1
REM R1 =  0.0495 for    3879 Fo > 4sig(Fo)  and  0.0753 for all    5198 data
REM    298 parameters refined using      0 restraints

END

WGHT      0.0662      0.0000

REM Highest difference peak  1.472,  deepest hole -2.118,  1-sigma level  0.261
Q1    1   0.2688  0.9527  0.2731  11.00000  0.05    1.47
Q2    1   0.3106  0.8224  0.6085  11.00000  0.05    1.46
Q3    1   0.1667  1.1753  0.4417  11.00000  0.05    1.43
Q4    1   0.3451  1.1182  0.5115  11.00000  0.05    1.42
Q5    1   0.2225  1.0966  0.7528  11.00000  0.05    1.37
Q6    1   0.3175  1.1858  0.4864  11.00000  0.05    1.35
Q7    1   0.0877  1.0664  0.4683  11.00000  0.05    1.34
Q8    1   0.2098  1.0502  0.5086  11.00000  0.05    1.34
Q9    1   0.1366  0.8254  0.3000  11.00000  0.05    1.32
Q10   1   0.3642  0.9166  0.5841  11.00000  0.05    1.29
Q11   1   0.3676  0.8543  0.3460  11.00000  0.05    1.24
Q12   1   0.2358  0.9374  0.5469  11.00000  0.05    1.24
Q13   1   0.4116  0.9257  0.3192  11.00000  0.05    1.22
Q14   1   0.1498  0.9790  0.7738  11.00000  0.05    1.16
Q15   1   0.1484  0.8027  0.5683  11.00000  0.05    1.12
Q16   1  -0.0332  0.9986  0.7337  11.00000  0.05    1.11
Q17   1   0.2651  0.8001  0.3304  11.00000  0.05    1.09
Q18   1   0.0721  1.1072  0.7124  11.00000  0.05    1.08
Q19   1   0.1864  0.4035  0.2669  11.00000  0.05    1.06
Q20   1   0.2729  1.0812  0.5047  11.00000  0.05    1.04
Q21   1   0.1318  0.8861  0.5428  11.00000  0.05    0.99
Q22   1   0.2703  1.1590  0.7307  11.00000  0.05    0.98
Q23   1   0.2917  0.4021  0.3023  11.00000  0.05    0.96
Q24   1   0.5782  0.6585  0.2620  11.00000  0.05    0.93
Q25   1   0.3953  0.5543  0.2628  11.00000  0.05    0.90
Q26   1  -0.0290  1.0790  0.7034  11.00000  0.05    0.86
Q27   1   0.6766  0.5832  0.3065  11.00000  0.05    0.85
Q28   1   0.4281  1.2764  0.7633  11.00000  0.05    0.84
Q29   1   0.7812  1.0197  0.1022  11.00000  0.05    0.84
Q30   1   0.5476  0.8158  0.3550  11.00000  0.05    0.81
Q31   1   0.2076  1.2144  0.7410  11.00000  0.05    0.80
Q32   1  -0.0421  1.1767  0.4462  11.00000  0.05    0.80
Q33   1   0.8604  0.5948  0.3189  11.00000  0.05    0.79
Q34   1   0.0839  0.7451  0.5871  11.00000  0.05    0.78
Q35   1   0.3347  1.0395  0.5373  11.00000  0.05    0.77
Q36   1   0.3331  0.8376 -0.0027  11.00000  0.05    0.77
Q37   1   0.5989  1.0384  0.0211  11.00000  0.05    0.76
Q38   1   0.3189  0.7197 -0.1114  11.00000  0.05    0.76
Q39   1   0.0955  1.2533  0.7261  11.00000  0.05    0.74
Q40   1   0.0978  1.0160  0.4276  11.00000  0.05    0.74
Q41   1   0.4525  0.3010  0.3559  11.00000  0.05    0.74
Q42   1   0.2313  0.6413 -0.1198  11.00000  0.05    0.74
Q43   1   0.5832  0.9422 -0.0089  11.00000  0.05    0.73
Q44   1   0.2118  0.2868  0.1200  11.00000  0.05    0.73
Q45   1   0.4586  0.1818  0.3483  11.00000  0.05    0.73
Q46   1   0.2943  0.9593  0.1545  11.00000  0.05    0.73
Q47   1   0.2581  0.8606  0.8030  11.00000  0.05    0.72
Q48   1   0.1887  1.1412  0.4989  11.00000  0.05    0.72
Q49   1   0.2634  0.5214  0.2292  11.00000  0.05    0.71
Q50   1   0.4147  1.2623  0.5249  11.00000  0.05    0.70
Q51   1   0.4591  0.8767  0.6695  11.00000  0.05    0.70
Q52   1   0.1218  1.1143  0.5572  11.00000  0.05    0.70
Q53   1   0.1714  1.0671  0.8562  11.00000  0.05    0.69
Q54   1   0.3323  1.2404  0.7080  11.00000  0.05    0.69
Q55   1   0.4659  0.7185  0.2150  11.00000  0.05    0.69
Q56   1   0.0465  0.8038  0.6902  11.00000  0.05    0.69
Q57   1   0.4960  0.9540  0.5760  11.00000  0.05    0.69
Q58   1   0.0994  1.1025  0.8253  11.00000  0.05    0.69
Q59   1   0.2404  0.9687  0.8227  11.00000  0.05    0.68
Q60   1   0.1645  0.5409  0.2144  11.00000  0.05    0.67
Q61   1   0.1786  0.3038  0.2816  11.00000  0.05    0.67
Q62   1   0.5046  1.1165  0.6120  11.00000  0.05    0.65
Q63   1   0.0163  0.8852  0.7917  11.00000  0.05    0.65
Q64   1  -0.0159  1.0462  0.6339  11.00000  0.05    0.65
Q65   1   0.7073  1.1023  0.0794  11.00000  0.05    0.65
Q66   1  -0.0076  0.2549  0.1253  11.00000  0.05    0.64
Q67   1   0.0840  1.0943  0.3144  11.00000  0.05    0.64
Q68   1  -0.1835  1.0000  0.8695  11.00000  0.05    0.64
Q69   1   0.3858  0.1335  0.2153  11.00000  0.05    0.64
Q70   1  -0.0992  0.3999  0.1844  11.00000  0.05    0.64
Q71   1   0.3462  0.3651  0.4362  11.00000  0.05    0.63
Q72   1   0.3131  0.7217  0.2847  11.00000  0.05    0.63
Q73   1   0.3466  0.6923  0.3474  11.00000  0.05    0.63
Q74   1   0.9685  0.6842  0.3288  11.00000  0.05    0.63
Q75   1   0.0835  1.2166  0.4215  11.00000  0.05    0.63
Q76   1   0.1100  1.1900  0.5148  11.00000  0.05    0.62
Q77   1  -0.0432  1.2476  0.6977  11.00000  0.05    0.62
Q78   1  -0.1575  1.0171  0.8495  11.00000  0.05    0.61
Q79   1  -0.0188  1.2790  0.4670  11.00000  0.05    0.61
Q80   1   0.4252  0.5178  0.1257  11.00000  0.05    0.61
;
_shelx_res_checksum              27900
loop_
_space_group_symop_operation_xyz
'x, y, z'
'-x, -y, -z'
loop_
_atom_site_label
_atom_site_type_symbol
_atom_site_fract_x
_atom_site_fract_y
_atom_site_fract_z
_atom_site_U_iso_or_equiv
_atom_site_adp_type
_atom_site_occupancy
_atom_site_site_symmetry_order
_atom_site_calc_flag
_atom_site_refinement_flags_posn
_atom_site_refinement_flags_adp
Mo1 Mo 0.19278(8) 1.11914(6) 0.47585(4) 0.01353(14) Uani 1 1 d . .
Cu1 Cu 0.28953(14) 0.46579(11) 0.26724(7) 0.0268(2) Uani 1 1 d . .
O1 O 0.1225(6) 1.0394(5) 0.5842(3) 0.0154(10) Uani 1 1 d . .
N1 N 0.2378(9) 0.4569(7) 0.1254(5) 0.0283(15) Uani 1 1 d . .
O1W O 0.5551(8) 0.5830(6) 0.2766(4) 0.0350(14) Uani 1 1 d . .
H1WA H 0.4915 0.5154 0.2293 0.042 Uiso 1 1 d R U
H1WB H 0.5820 0.5466 0.3226 0.042 Uiso 1 1 d R U
C1 C 0.3090(11) 0.5709(8) 0.0892(6) 0.0273(17) Uani 1 1 d . .
H1A H 0.3783 0.6573 0.1312 0.033 Uiso 1 1 calc R U
Mo2 Mo 0.10727(8) 1.04684(7) 0.74297(4) 0.01555(15) Uani 1 1 d . .
O2 O 0.0412(7) 0.9982(6) 0.8439(3) 0.0247(12) Uani 1 1 d . .
O2W O 0.3691(10) 0.2793(7) 0.2504(5) 0.0483(19) Uani 1 1 d . .
H2WA H 0.3587 0.2138 0.2870 0.058 Uiso 1 1 d R U
H2WB H 0.4411 0.2570 0.2327 0.058 Uiso 1 1 d R U
C2 C 0.2842(11) 0.5662(8) -0.0076(5) 0.0241(16) Uani 1 1 d . .
N2 N 0.4494(19) 0.8150(9) 0.0113(7) 0.094(5) Uani 1 1 d . .
H2A H 0.4504 0.8159 0.0711 0.112 Uiso 1 1 calc R U
Mo3 Mo 0.24141(8) 0.86662(7) 0.57437(4) 0.01486(15) Uani 1 1 d . .
O3 O -0.0004(6) 1.1893(5) 0.7289(3) 0.0180(10) Uani 1 1 d . .
O3W O 0.3332(9) 0.4904(7) 0.4115(4) 0.0434(16) Uani 1 1 d . .
H3WA H 0.3126 0.5586 0.4414 0.052 Uiso 1 1 d R U
H3WB H 0.2373 0.4237 0.3986 0.052 Uiso 1 1 d R U
C3 C 0.1804(13) 0.4373(10) -0.0693(6) 0.039(2) Uani 1 1 d . .
H3A H 0.1635 0.4298 -0.1352 0.047 Uiso 1 1 calc R U
Mo4 Mo 0.26499(8) 0.88044(7) 0.30478(4) 0.01650(15) Uani 1 1 d . .
O4 O 0.0684(7) 1.2360(5) 0.4801(4) 0.0207(11) Uani 1 1 d . .
O4W O 0.0206(8) 0.3726(7) 0.2614(4) 0.0379(15) Uani 1 1 d . .
H4WA H -0.0106 0.2848 0.2617 0.045 Uiso 1 1 d R U
H4WB H -0.0264 0.4448 0.2617 0.045 Uiso 1 1 d R U
C4 C 0.3680(13) 0.6951(10) -0.0477(6) 0.035(2) Uani 1 1 d . .
O5 O 0.1817(6) 1.0716(5) 0.3414(3) 0.0166(10) Uani 1 1 d . .
C5 C 0.1355(12) 0.3329(9) 0.0672(6) 0.0324(19) Uani 1 1 d . .
H5A H 0.0852 0.2537 0.0925 0.039 Uiso 1 1 calc R U
O5W O 0.8610(11) 0.5443(9) 0.3525(6) 0.071(3) Uani 1 1 d . .
H50 H 0.8532 0.4938 0.3942 0.085 Uiso 1 1 d R U
H51 H 0.9105 0.6309 0.3819 0.085 Uiso 1 1 d R U
O6 O 0.4756(6) 0.9777(6) 0.6255(3) 0.0218(11) Uani 1 1 d . .
C6 C 0.541(3) 0.9512(13) -0.0143(11) 0.099(6) Uani 1 1 d . .
H6B H 0.6716 0.9895 0.0162 0.119 Uiso 1 1 calc R U
H6A H 0.5344 0.9358 -0.0831 0.119 Uiso 1 1 calc R U
O7 O 0.4149(7) 1.2284(6) 0.5183(4) 0.0236(11) Uani 1 1 d . .
C7 C 0.1025(14) 0.3204(10) -0.0324(6) 0.039(2) Uani 1 1 d . .
H7A H 0.0286 0.2338 -0.0730 0.047 Uiso 1 1 calc R U
O8 O 0.3186(8) 0.9177(6) 0.1987(4) 0.0276(12) Uani 1 1 d . .
O9 O 0.1492(6) 0.8719(5) 0.6910(3) 0.0163(10) Uani 1 1 d . .
O10 O 0.2407(7) 0.6992(6) 0.5496(4) 0.0269(12) Uani 1 1 d . .
O11 O 0.2332(6) 0.9184(5) 0.4550(3) 0.0158(10) Uani 1 1 d . .
O12 O 0.2903(8) 0.7230(6) 0.3077(4) 0.0272(12) Uani 1 1 d . .
O13 O 0.3652(13) 0.6810(9) -0.1333(5) 0.074(3) Uani 1 1 d . .
O14 O 0.3327(7) 1.1632(6) 0.7784(4) 0.0253(12) Uani 1 1 d . .
loop_
_atom_site_aniso_label
_atom_site_aniso_U_11
_atom_site_aniso_U_22
_atom_site_aniso_U_33
_atom_site_aniso_U_23
_atom_site_aniso_U_13
_atom_site_aniso_U_12
Mo1 0.0141(3) 0.0149(3) 0.0098(3) 0.0003(2) 0.0039(2) 0.0037(2)
Cu1 0.0322(5) 0.0244(5) 0.0224(5) 0.0069(4) 0.0071(4) 0.0070(4)
O1 0.017(2) 0.021(2) 0.009(2) 0.0011(19) 0.0050(18) 0.009(2)
N1 0.030(4) 0.019(3) 0.028(4) -0.001(3) 0.001(3) 0.003(3)
O1W 0.035(3) 0.022(3) 0.041(4) 0.008(3) -0.001(3) 0.003(3)
C1 0.034(4) 0.021(4) 0.022(4) 0.001(3) 0.006(3) 0.005(3)
Mo2 0.0153(3) 0.0176(3) 0.0119(3) 0.0004(2) 0.0027(2) 0.0049(2)
O2 0.034(3) 0.034(3) 0.010(2) 0.004(2) 0.008(2) 0.017(3)
O2W 0.066(5) 0.038(4) 0.065(5) 0.030(4) 0.043(4) 0.030(4)
C2 0.035(4) 0.015(3) 0.023(4) 0.001(3) 0.011(3) 0.010(3)
N2 0.209(14) 0.024(5) 0.033(5) 0.010(4) 0.056(7) 0.011(7)
Mo3 0.0150(3) 0.0186(3) 0.0122(3) 0.0031(2) 0.0051(2) 0.0069(2)
O3 0.019(2) 0.013(2) 0.019(2) -0.001(2) 0.004(2) 0.005(2)
O3W 0.065(5) 0.029(3) 0.027(3) 0.000(3) 0.007(3) 0.009(3)
C3 0.053(6) 0.043(5) 0.021(4) 0.000(4) 0.008(4) 0.020(5)
Mo4 0.0192(3) 0.0198(3) 0.0112(3) 0.0001(2) 0.0040(2) 0.0091(3)
O4 0.020(2) 0.023(3) 0.021(3) 0.005(2) 0.006(2) 0.009(2)
O4W 0.041(4) 0.031(3) 0.046(4) 0.016(3) 0.013(3) 0.013(3)
C4 0.051(5) 0.033(5) 0.027(4) 0.012(4) 0.020(4) 0.018(4)
O5 0.018(2) 0.019(3) 0.011(2) 0.000(2) 0.0030(19) 0.006(2)
C5 0.042(5) 0.026(4) 0.023(4) 0.002(4) 0.011(4) 0.005(4)
O5W 0.077(6) 0.051(5) 0.068(5) -0.024(4) -0.023(4) 0.032(5)
O6 0.014(2) 0.030(3) 0.018(3) 0.004(2) 0.005(2) 0.004(2)
C6 0.188(18) 0.042(7) 0.088(10) 0.041(8) 0.086(11) 0.033(9)
O7 0.018(2) 0.025(3) 0.022(3) 0.002(2) 0.005(2) 0.001(2)
C7 0.057(6) 0.028(5) 0.019(4) -0.010(4) 0.008(4) 0.006(4)
O8 0.034(3) 0.037(3) 0.013(3) 0.006(2) 0.004(2) 0.015(3)
O9 0.018(2) 0.019(2) 0.013(2) 0.002(2) 0.0061(19) 0.008(2)
O10 0.031(3) 0.024(3) 0.028(3) 0.008(2) 0.008(2) 0.013(3)
O11 0.020(2) 0.020(2) 0.008(2) -0.0006(19) 0.0066(19) 0.008(2)
O12 0.035(3) 0.026(3) 0.025(3) 0.003(2) 0.005(2) 0.019(3)
O13 0.112(7) 0.061(5) 0.027(4) 0.013(4) 0.024(4) -0.001(5)
O14 0.015(2) 0.026(3) 0.027(3) 0.001(2) 0.002(2) 0.002(2)
loop_
_atom_type_symbol
_atom_type_description
_atom_type_scat_dispersion_real
_atom_type_scat_dispersion_imag
_atom_type_scat_source
C C 0.0033 0.0016 'International Tables Vol C Tables 4.2.6.8 and 6.1.1.4'
H H 0.0000 0.0000 'International Tables Vol C Tables 4.2.6.8 and 6.1.1.4'
N N 0.0061 0.0033 'International Tables Vol C Tables 4.2.6.8 and 6.1.1.4'
O O 0.0106 0.0060 'International Tables Vol C Tables 4.2.6.8 and 6.1.1.4'
Cu Cu 0.3201 1.2651 'International Tables Vol C Tables 4.2.6.8 and 6.1.1.4'
Mo Mo -1.6832 0.6857 'International Tables Vol C Tables 4.2.6.8 and 6.1.1.4'
loop_
_geom_angle_atom_site_label_1
_geom_angle_atom_site_label_2
_geom_angle_atom_site_label_3
_geom_angle
_geom_angle_site_symmetry_1
_geom_angle_site_symmetry_3
O7 Mo1 O4 103.5(3) . .
O7 Mo1 O5 103.4(2) . .
O4 Mo1 O5 100.0(2) . .
O7 Mo1 O1 102.8(2) . .
O4 Mo1 O1 98.6(2) . .
O5 Mo1 O1 143.2(2) . .
O7 Mo1 O11 99.0(2) . .
O4 Mo1 O11 157.4(2) . .
O5 Mo1 O11 76.77(19) . .
O1 Mo1 O11 73.97(19) . .
O7 Mo1 O1 179.2(2) . 2_576
O4 Mo1 O1 77.3(2) . 2_576
O5 Mo1 O1 76.62(18) . 2_576
O1 Mo1 O1 76.83(19) . 2_576
O11 Mo1 O1 80.24(17) . 2_576
O4W Cu1 O1W 172.6(2) . .
O4W Cu1 N1 89.2(3) . .
O1W Cu1 N1 90.9(3) . .
O4W Cu1 O3W 89.7(3) . .
O1W Cu1 O3W 89.6(3) . .
N1 Cu1 O3W 174.6(3) . .
O4W Cu1 O2W 99.6(2) . .
O1W Cu1 O2W 87.8(2) . .
N1 Cu1 O2W 94.2(3) . .
O3W Cu1 O2W 91.2(3) . .
Mo1 O1 Mo3 101.89(19) . .
Mo1 O1 Mo2 155.0(3) . .
Mo3 O1 Mo2 92.87(17) . .
Mo1 O1 Mo1 103.17(19) . 2_576
Mo3 O1 Mo1 94.86(18) . 2_576
Mo2 O1 Mo1 95.45(16) . 2_576
C5 N1 C1 119.9(7) . .
C5 N1 Cu1 118.5(6) . .
C1 N1 Cu1 121.6(6) . .
N1 C1 C2 122.8(8) . .
O2 Mo2 O14 105.5(3) . .
O2 Mo2 O3 102.5(2) . .
O14 Mo2 O3 95.9(2) . .
O2 Mo2 O9 96.1(2) . .
O14 Mo2 O9 100.0(2) . .
O3 Mo2 O9 151.3(2) . .
O2 Mo2 O5 91.2(2) . 2_576
O14 Mo2 O5 162.2(2) . 2_576
O3 Mo2 O5 74.11(19) . 2_576
O9 Mo2 O5 83.90(19) . 2_576
O2 Mo2 O1 160.8(2) . .
O14 Mo2 O1 91.7(2) . .
O3 Mo2 O1 83.70(18) . .
O9 Mo2 O1 72.14(18) . .
O5 Mo2 O1 72.85(17) 2_576 .
C1 C2 C3 118.0(7) . .
C1 C2 C4 122.4(7) . .
C3 C2 C4 119.6(7) . .
C4 N2 C6 125.7(10) . .
O10 Mo3 O6 105.8(2) . .
O10 Mo3 O11 104.3(2) . .
O6 Mo3 O11 97.4(2) . .
O10 Mo3 O9 101.7(2) . .
O6 Mo3 O9 96.7(2) . .
O11 Mo3 O9 145.5(2) . .
O10 Mo3 O1 157.2(2) . .
O6 Mo3 O1 97.0(2) . .
O11 Mo3 O1 72.84(18) . .
O9 Mo3 O1 74.37(18) . .
O10 Mo3 O4 85.2(2) . 2_576
O6 Mo3 O4 168.7(2) . 2_576
O11 Mo3 O4 81.75(19) . 2_576
O9 Mo3 O4 78.37(19) . 2_576
O1 Mo3 O4 72.00(18) . 2_576
Mo4 O3 Mo2 115.3(2) 2_576 .
C7 C3 C2 119.4(8) . .
O12 Mo4 O8 105.5(3) . .
O12 Mo4 O3 97.8(2) . 2_576
O8 Mo4 O3 99.5(2) . 2_576
O12 Mo4 O6 101.3(2) . 2_676
O8 Mo4 O6 89.6(2) . 2_676
O3 Mo4 O6 155.7(2) 2_576 2_676
O12 Mo4 O11 93.5(2) . .
O8 Mo4 O11 158.7(2) . .
O3 Mo4 O11 87.19(19) 2_576 .
O6 Mo4 O11 77.03(18) 2_676 .
O12 Mo4 O5 160.8(2) . .
O8 Mo4 O5 93.1(2) . .
O3 Mo4 O5 74.03(18) 2_576 .
O6 Mo4 O5 83.11(19) 2_676 .
O11 Mo4 O5 69.17(17) . .
Mo1 O4 Mo3 115.8(3) . 2_576
O13 C4 N2 122.4(9) . .
O13 C4 C2 119.5(9) . .
N2 C4 C2 117.9(8) . .
Mo1 O5 Mo2 113.6(2) . 2_576
Mo1 O5 Mo4 109.7(2) . .
Mo2 O5 Mo4 92.21(18) 2_576 .
N1 C5 C7 120.5(8) . .
Mo3 O6 Mo4 173.5(3) . 2_676
C6 C6 N2 111.4(14) 2_675 .
C3 C7 C5 119.4(8) . .
Mo3 O9 Mo2 116.2(2) . .
Mo3 O11 Mo1 106.9(2) . .
Mo3 O11 Mo4 149.7(3) . .
Mo1 O11 Mo4 103.19(19) . .
loop_
_geom_bond_atom_site_label_1
_geom_bond_atom_site_label_2
_geom_bond_distance
_geom_bond_site_symmetry_2
Mo1 O7 1.682(5) .
Mo1 O4 1.772(5) .
Mo1 O5 1.904(5) .
Mo1 O1 1.933(5) .
Mo1 O11 2.163(5) .
Mo1 O1 2.397(5) 2_576
Cu1 O4W 1.970(6) .
Cu1 O1W 1.985(6) .
Cu1 N1 2.017(7) .
Cu1 O3W 2.026(6) .
Cu1 O2W 2.185(6) .
O1 Mo3 2.250(5) .
O1 Mo2 2.296(4) .
O1 Mo1 2.397(5) 2_576
N1 C5 1.326(10) .
N1 C1 1.334(10) .
C1 C2 1.376(11) .
Mo2 O2 1.697(5) .
Mo2 O14 1.712(5) .
Mo2 O3 1.937(5) .
Mo2 O9 1.973(5) .
Mo2 O5 2.240(5) 2_576
C2 C3 1.382(11) .
C2 C4 1.506(11) .
N2 C4 1.279(12) .
N2 C6 1.469(13) .
Mo3 O10 1.692(5) .
Mo3 O6 1.777(5) .
Mo3 O11 1.883(5) .
Mo3 O9 1.907(5) .
Mo3 O4 2.257(5) 2_576
O3 Mo4 1.907(5) 2_576
C3 C7 1.373(13) .
Mo4 O12 1.696(5) .
Mo4 O8 1.703(5) .
Mo4 O3 1.907(5) 2_576
Mo4 O6 2.061(5) 2_676
Mo4 O11 2.196(4) .
Mo4 O5 2.266(5) .
O4 Mo3 2.257(5) 2_576
C4 O13 1.216(11) .
O5 Mo2 2.240(5) 2_576
C5 C7 1.404(11) .
O6 Mo4 2.062(5) 2_676
C6 C6 1.40(3) 2_675
