#------------------------------------------------------------------------------
#$Date: 2016-08-07 12:09:17 +0300 (Sun, 07 Aug 2016) $
#$Revision: 185452 $
#$URL: file:///home/coder/svn-repositories/cod/cif/7/03/98/7039818.cif $
#------------------------------------------------------------------------------
#
# This file is available in the Crystallography Open Database (COD),
# http://www.crystallography.net/
#
# All data on this site have been placed in the public domain by the
# contributors.
#
data_7039818
loop_
_publ_author_name
'Wang, Xiuli'
'Sun, Junjun'
'Lin, Hongyan'
'Chang, Zhihan'
'Wang, Xiang'
'Liu, Guocheng'
_publ_section_title
;
 A series of Anderson-type polyoxometalate-based metal-organic complexes:
 their pH-dependent electrochemical behaviour, and as electrocatalysts and
 photocatalysts.
;
_journal_issue                   31
_journal_name_full
'Dalton transactions (Cambridge, England : 2003)'
_journal_page_first              12465
_journal_page_last               12478
_journal_paper_doi               10.1039/c6dt02216b
_journal_volume                  45
_journal_year                    2016
_chemical_formula_sum            'C32 H58 Cu2 Mo6 N8 O38 Te'
_chemical_formula_weight         1993.18
_space_group_crystal_system      triclinic
_space_group_IT_number           2
_space_group_name_Hall           '-P 1'
_space_group_name_H-M_alt        'P -1'
_symmetry_space_group_name_Hall  '-P 1'
_symmetry_space_group_name_H-M   'P -1'
_atom_sites_solution_hydrogens   geom
_atom_sites_solution_primary     direct
_atom_sites_solution_secondary   difmap
_audit_creation_method           SHELXL-2014/7
_audit_update_record
;
2016-06-20 deposited with the CCDC.
2016-07-06 downloaded from the CCDC.
;
_cell_angle_alpha                81.355(2)
_cell_angle_beta                 82.362(2)
_cell_angle_gamma                83.746(2)
_cell_formula_units_Z            1
_cell_length_a                   8.4620(9)
_cell_length_b                   11.7360(13)
_cell_length_c                   15.3340(17)
_cell_measurement_reflns_used    3622
_cell_measurement_temperature    296(2)
_cell_measurement_theta_max      28.1319
_cell_measurement_theta_min      2.3653
_cell_volume                     1486.0(3)
_computing_cell_refinement       'Bruker XSCANS'
_computing_data_collection       'Bruker XSCANS'
_computing_data_reduction        'Bruker SHELXTL'
_computing_molecular_graphics    'Bruker SHELXTL'
_computing_publication_material  'Bruker SHELXTL'
_computing_structure_refinement  'SHELXL-2014/7 (Sheldrick, 2014)'
_computing_structure_solution    'Bruker SHELXTL'
_diffrn_ambient_temperature      296(2)
_diffrn_measured_fraction_theta_full 0.999
_diffrn_measured_fraction_theta_max 0.990
_diffrn_measurement_device_type  'Bruker P4'
_diffrn_measurement_method       '\w scans'
_diffrn_radiation_type           MoK\a
_diffrn_radiation_wavelength     0.71069
_diffrn_reflns_av_R_equivalents  0.0199
_diffrn_reflns_av_unetI/netI     0.0390
_diffrn_reflns_Laue_measured_fraction_full 0.999
_diffrn_reflns_Laue_measured_fraction_max 0.990
_diffrn_reflns_limit_h_max       11
_diffrn_reflns_limit_h_min       -8
_diffrn_reflns_limit_k_max       15
_diffrn_reflns_limit_k_min       -14
_diffrn_reflns_limit_l_max       18
_diffrn_reflns_limit_l_min       -20
_diffrn_reflns_number            10929
_diffrn_reflns_point_group_measured_fraction_full 0.999
_diffrn_reflns_point_group_measured_fraction_max 0.990
_diffrn_reflns_theta_full        25.240
_diffrn_reflns_theta_max         28.138
_diffrn_reflns_theta_min         1.353
_diffrn_source                   'sealed tube'
_exptl_absorpt_coefficient_mu    2.511
_exptl_absorpt_correction_T_max  0.740
_exptl_absorpt_correction_T_min  0.624
_exptl_absorpt_correction_type   numerical
_exptl_absorpt_process_details   'ABSCOR by T.Higashi    8  March, 1995'
_exptl_crystal_colour            GREEN
_exptl_crystal_density_diffrn    2.227
_exptl_crystal_density_method    'not measured'
_exptl_crystal_description       BLOCK
_exptl_crystal_F_000             972
_exptl_crystal_size_max          0.240
_exptl_crystal_size_mid          0.160
_exptl_crystal_size_min          0.120
_refine_diff_density_max         2.635
_refine_diff_density_min         -0.893
_refine_diff_density_rms         0.202
_refine_ls_extinction_method     none
_refine_ls_goodness_of_fit_ref   0.993
_refine_ls_hydrogen_treatment    constr
_refine_ls_matrix_type           full
_refine_ls_number_parameters     397
_refine_ls_number_reflns         7214
_refine_ls_number_restraints     30
_refine_ls_restrained_S_all      1.016
_refine_ls_R_factor_all          0.0566
_refine_ls_R_factor_gt           0.0401
_refine_ls_shift/su_max          0.002
_refine_ls_shift/su_mean         0.000
_refine_ls_structure_factor_coef Fsqd
_refine_ls_weighting_details
'w=1/[\s^2^(Fo^2^)+(0.0617P)^2^+5.5501P] where P=(Fo^2^+2Fc^2^)/3'
_refine_ls_weighting_scheme      calc
_refine_ls_wR_factor_gt          0.1097
_refine_ls_wR_factor_ref         0.1217
_reflns_Friedel_coverage         0.000
_reflns_number_gt                5503
_reflns_number_total             7286
_reflns_threshold_expression     'I > 2\s(I)'
_cod_data_source_file            c6dt02216b2.cif
_cod_data_source_block           complex7
_cod_depositor_comments
'Adding full bibliography for 7039813--7039819.cif.'
_cod_database_code               7039818
_shelx_shelxl_version_number     2014/7
_shelx_space_group_comment
;
The symmetry employed for this shelxl refinement is uniquely defined
by the following loop, which should always be used as a source of
symmetry information in preference to the above space-group names.
They are only intended as comments.
;
_shelx_estimated_absorpt_t_min   0.584
_shelx_estimated_absorpt_t_max   0.753
_shelx_res_file
;

    2.res created by SHELXL-2014/7


TITL                                       2 in P-1
CELL   0.71069      8.462   11.736   15.334   81.355   82.362   83.746
ZERR         1      0.0009   0.0013   0.0017   0.002   0.002   0.002
LATT  1
SFAC    C   H   N   O   CU  MO  TE
UNIT    32  58  8  38  2  6  1
MERG      2
ACTA
L.S.      4
LIST      1
FMAP      2
PLAN     50
ISOR 0.005 O6W O31 C7 C10 C9 C5
SIZE 0.24 0.16 0.12
WGHT    0.061700    5.550100
FVAR       0.11354
TE1   7    0.000000    1.000000    0.000000    10.50000    0.01646    0.01243 =
         0.01854   -0.00106   -0.00059   -0.00237
MO1   6    0.177641    0.885340    0.172682    11.00000    0.03414    0.01928 =
         0.02657    0.00020   -0.01002   -0.00145
CU1   5    0.557866    0.726741    0.079394    11.00000    0.02163    0.02386 =
         0.03246    0.00538   -0.00370   -0.00536
O1    4    0.377368    0.838758    0.171845    11.00000    0.03745    0.03041 =
         0.05777   -0.00518   -0.02345    0.00227
N1    3    0.504623    0.589668    0.170255    11.00000    0.02864    0.02414 =
         0.02691    0.00214   -0.00228   -0.00407
C1    1    0.051678   -0.604503    0.663465    11.00000    0.12238    0.03655 =
         0.07394    0.00725   -0.03035   -0.01914
AFIX  43
H1A   2    0.017744   -0.668065    0.643964    11.00000   -1.20000
AFIX   0
O1W   4    0.729652    0.616689   -0.008504    11.00000    0.03857    0.02950 =
         0.04439   -0.00221    0.00557   -0.00209
AFIX   3
H1WA  2    0.768012    0.650739   -0.058495    11.00000   -1.20000
H1WB  2    0.786062    0.552799    0.002046    11.00000   -1.20000
AFIX   0
O2    4    0.379292    0.699470    0.015570    11.00000    0.02257    0.02509 =
         0.04384   -0.00204   -0.00264    0.00013
MO2   6    0.002766    1.145217    0.166603    11.00000    0.04002    0.01933 =
         0.02099   -0.00426   -0.00362   -0.00317
C2    1    0.173799   -0.429519    0.633380    11.00000    0.06681    0.02805 =
         0.03834    0.00560    0.01625    0.00745
O2W   4    0.578629    0.870075   -0.006737    11.00000    0.08640    0.04905 =
         0.05741    0.02941   -0.03571   -0.04095
AFIX   3
H2WA  2    0.536269    0.887095   -0.054497    11.00000   -1.20000
H2WB  2    0.663279    0.904995   -0.014007    11.00000   -1.20000
AFIX   0
MO3   6   -0.176586    1.262888   -0.005935    11.00000    0.01811    0.01402 =
         0.02754   -0.00132   -0.00110   -0.00088
N3    3    0.028732   -0.592761    0.749731    11.00000    0.04884    0.03508 =
         0.06040    0.01790   -0.00058   -0.00750
AFIX  43
H3B   2   -0.018020   -0.644729    0.786757    11.00000   -1.20000
AFIX   0
C3    1    0.149947   -0.419727    0.722022    11.00000    0.06297    0.02594 =
         0.05000    0.00131    0.01441   -0.00233
AFIX  43
H3A   2    0.183694   -0.356923    0.742655    11.00000   -1.20000
AFIX   0
O3W   4    0.735928    0.761285    0.138265    11.00000    0.02180    0.03780 =
         0.04474   -0.00048   -0.00342   -0.00734
AFIX   3
H3WA  2    0.722218    0.745145    0.194505    11.00000   -1.20000
H3WB  2    0.829018    0.783975    0.123685    11.00000   -1.20000
AFIX   0
N4    3    0.246561   -0.236112    0.584948    11.00000    0.09348    0.05080 =
         0.06463    0.01600    0.02151   -0.02469
AFIX  43
H4B   2    0.191887   -0.223335    0.634501    11.00000   -1.20000
AFIX   0
C4    1    0.075836   -0.503448    0.779981    11.00000    0.06237    0.03582 =
         0.03535    0.00646    0.01220    0.00402
AFIX  43
H4A   2    0.058544   -0.497743    0.840407    11.00000   -1.20000
AFIX   0
O4W   4    0.689507    0.894768    0.270235    11.00000    0.05699    0.07347 =
         0.05794   -0.01618    0.00475   -0.02112
AFIX   3
H77   2    0.784100    0.914659    0.266323    11.00000   -1.20000
H78   2    0.663430    0.865769    0.323763    11.00000   -1.20000
AFIX   0
C5    1    0.317097   -0.135540    0.527542    11.00000    0.08975    0.08348 =
         0.08803    0.00703   -0.00091   -0.02610
AFIX  23
H5B   2    0.330748   -0.077871    0.564433    11.00000   -1.20000
H5A   2    0.422183   -0.161160    0.499880    11.00000   -1.20000
AFIX   0
O5W   4    0.479688    0.890297   -0.189011    10.50000    0.02138
AFIX   3
H60   2    0.451528    0.956428   -0.216261    10.50000   -1.20000
H61   2    0.400197    0.850017   -0.182031    10.50000   -1.20000
AFIX   0
N6    3    0.317310    0.212771    0.341506    11.00000    0.06882    0.03857 =
         0.06853    0.02024    0.01841   -0.01337
AFIX  43
H6B   2    0.377151    0.195609    0.294563    11.00000   -1.50000
AFIX   0
C6    1    0.125178   -0.522492    0.604541    11.00000    0.14390    0.04708 =
         0.03440    0.00148   -0.00332   -0.00676
AFIX  43
H6A   2    0.142194   -0.530044    0.544423    11.00000   -1.20000
AFIX   0
O6    4   -0.105535    1.247525   -0.128654    11.00000    0.03477    0.01557 =
         0.02776    0.00039   -0.00357   -0.00274
O6W   4    0.637050    0.742608    0.417988    10.50000    0.06486
AFIX   3
H66   2    0.689249    0.718228    0.461838    10.50000   -1.20000
H67   2    0.573409    0.692428    0.415048    10.50000   -1.20000
AFIX   0
O7    4    0.087306    0.850335    0.278217    11.00000    0.07404    0.03582 =
         0.02760   -0.00082   -0.00752   -0.00694
C7    1    0.237148    0.121021    0.402477    11.00000    0.07518    0.05940 =
         0.08311    0.01563    0.01062   -0.01322
AFIX  23
H7C   2    0.234116    0.137258    0.462892    11.00000    0.10088
H7B   2    0.127392    0.123831    0.389794    11.00000    0.11841
AFIX   0
O8    4   -0.051459    0.978794    0.127010    11.00000    0.02593    0.01880 =
         0.01940   -0.00063    0.00322   -0.00485
C8    1    0.260556   -0.338946    0.566712    11.00000    0.10028    0.04215 =
         0.04560    0.01173    0.04130    0.01130
O9    4    0.199053    1.047154    0.169103    11.00000    0.04033    0.02160 =
         0.03537   -0.00369   -0.01498   -0.00266
C9    1    0.225676   -0.086092    0.463265    11.00000    0.09705    0.09666 =
         0.11675    0.02609   -0.00450   -0.01971
AFIX  23
H9B   2    0.124229   -0.053861    0.490951    11.00000   -1.50000
H9A   2    0.203519   -0.145286    0.429866    11.00000   -1.50000
AFIX   0
O10   4    0.208128    0.925416    0.022075    11.00000    0.01738    0.01690 =
         0.02841   -0.00086   -0.00182   -0.00097
C10   1    0.307851    0.012317    0.397411    11.00000    0.10347    0.08895 =
         0.11309    0.01895    0.00053   -0.01843
AFIX  23
H10B  2    0.418243    0.010134    0.408834    11.00000    0.14717
H10C  2    0.309050   -0.004247    0.337215    11.00000    0.14174
AFIX   0
O11   4    0.053715    1.152632    0.012892    11.00000    0.02084    0.01391 =
         0.02514   -0.00416    0.00088   -0.00453
C11   1    0.298278    0.319916    0.358131    11.00000    0.04814    0.04732 =
         0.04116    0.01696    0.00294   -0.01296
O12   4   -0.084955    1.116762    0.273747    11.00000    0.06894    0.04543 =
         0.02270   -0.00478    0.00030   -0.01354
C12   1    0.378192    0.410881    0.290323    11.00000    0.03703    0.03446 =
         0.03248    0.00953    0.00124   -0.00868
O13   4    0.086694    1.273375    0.158662    11.00000    0.04476    0.02881 =
         0.03916   -0.01205   -0.00489   -0.00591
C13   1    0.408933    0.511660    0.318040    11.00000    0.05849    0.03658 =
         0.03100    0.00166    0.00833   -0.00189
AFIX  43
H13A  2    0.387135    0.521019    0.377735    11.00000   -1.20000
AFIX   0
O14   4   -0.196860    1.205082    0.116475    11.00000    0.02737    0.02294 =
         0.02770   -0.00188    0.00523   -0.00096
C14   1    0.472301    0.598974    0.256945    11.00000    0.05508    0.02377 =
         0.03546   -0.00588   -0.00074   -0.00386
AFIX  43
H14A  2    0.493153    0.666358    0.276698    11.00000   -1.20000
AFIX   0
C15   1    0.478499    0.490712    0.143836    11.00000    0.04632    0.02841 =
         0.02606    0.00154   -0.00316   -0.00829
AFIX  43
H15A  2    0.501414    0.483024    0.083873    11.00000   -1.20000
AFIX   0
O15   4   -0.095135    1.389104   -0.005505    11.00000    0.03149    0.02067 =
         0.04394   -0.00215   -0.00322   -0.00564
O16   4    0.217523    0.350964    0.424599    11.00000    0.09853    0.07327 =
         0.04832    0.00105    0.02274   -0.03191
C16   1    0.418956    0.399395    0.201724    11.00000    0.05551    0.02595 =
         0.03610    0.00150   -0.00628   -0.01309
AFIX  43
H16A  2    0.406401    0.330666    0.181194    11.00000   -1.20000
AFIX   0
O31   4    0.346371   -0.367411    0.503357    11.00000    0.17182    0.07529 =
         0.07800   -0.00124    0.06289    0.00561

HKLF      4

REM                                        2 in P-1
REM R1 =  0.0401 for    5503 Fo > 4sig(Fo)  and  0.0566 for all    7214 data
REM    397 parameters refined using     30 restraints

END

WGHT      0.0581      4.5637

REM Highest difference peak  2.635,  deepest hole -0.893,  1-sigma level  0.202
Q1    1   0.4739  0.8903 -0.2234  11.00000  0.05    2.64
Q2    1   0.4789  0.8941 -0.1579  11.00000  0.05    2.29
Q3    1   0.2091 -0.3634  0.4698  11.00000  0.05    1.62
Q4    1   0.3264  0.0394  0.4411  11.00000  0.05    1.48
Q5    1   0.2361 -0.0583  0.5008  11.00000  0.05    1.47
Q6    1   0.2508 -0.1061  0.4268  11.00000  0.05    1.37
Q7    1   0.3368 -0.0052  0.3727  11.00000  0.05    1.16
Q8    1   0.3130 -0.1789  0.4840  11.00000  0.05    0.87
Q9    1   0.1634 -0.3404  0.5416  11.00000  0.05    0.78
Q10   1   0.2257  0.1060  0.3653  11.00000  0.05    0.74
Q11   1   0.3540  0.1146  0.4388  11.00000  0.05    0.67
Q12   1   0.3776 -0.3623  0.5119  11.00000  0.05    0.65
Q13   1   0.6244  0.8005  0.4255  11.00000  0.05    0.59
Q14   1  -0.0404 -0.6954  0.6060  11.00000  0.05    0.58
Q15   1   0.2806 -0.0366  0.5409  11.00000  0.05    0.56
Q16   1   0.3068  0.3654  0.4721  11.00000  0.05    0.56
Q17   1   0.4000  0.0535  0.4730  11.00000  0.05    0.56
Q18   1   0.2948 -0.1759  0.4095  11.00000  0.05    0.55
Q19   1   0.4625 -0.0181  0.3789  11.00000  0.05    0.54
Q20   1   0.5391 -0.1222  0.5300  11.00000  0.05    0.54
Q21   1   0.1428 -0.2468  0.5589  11.00000  0.05    0.53
Q22   1   0.0791  0.1596  0.4291  11.00000  0.05    0.52
Q23   1   0.7074  0.7118  0.4229  11.00000  0.05    0.52
Q24   1   0.7115  0.8131  0.1749  11.00000  0.05    0.51
Q25   1   0.2168 -0.4180  0.6012  11.00000  0.05    0.50
Q26   1   0.1671  0.1650  0.4593  11.00000  0.05    0.50
Q27   1   0.6759  0.7815  0.4389  11.00000  0.05    0.50
Q28   1   0.0934 -0.4169  0.6797  11.00000  0.05    0.50
Q29   1   0.2002  0.3005  0.4052  11.00000  0.05    0.50
Q30   1  -0.0034 -0.0858  0.5264  11.00000  0.05    0.49
Q31   1   0.0854 -0.4035  0.6151  11.00000  0.05    0.49
Q32   1   0.0745 -0.0852  0.4317  11.00000  0.05    0.48
Q33   1   0.2484  0.0191  0.3883  11.00000  0.05    0.48
Q34   1   0.2583 -0.3396  0.5880  11.00000  0.05    0.48
Q35   1   0.4256 -0.1141  0.6168  11.00000  0.05    0.47
Q36   1   0.5123  0.9541 -0.2763  11.00000  0.05    0.47
Q37   1   0.0517 -0.3670  0.5486  11.00000  0.05    0.47
Q38   1   0.1889 -0.5424  0.5632  11.00000  0.05    0.46
Q39   1   0.3396  0.0022  0.5911  11.00000  0.05    0.46
Q40   1   0.6410  0.7423  0.4999  11.00000  0.05    0.46
Q41   1   0.5598 -0.2056  0.5481  11.00000  0.05    0.46
Q42   1   0.8448  0.7198  0.4360  11.00000  0.05    0.46
Q43   1   0.2028  0.0338  0.5386  11.00000  0.05    0.46
Q44   1   0.1560  0.1737  0.4150  11.00000  0.05    0.46
Q45   1   0.2061  0.3263  0.4728  11.00000  0.05    0.46
Q46   1   0.0765  0.0231  0.5803  11.00000  0.05    0.45
Q47   1   0.5602  0.7814  0.4136  11.00000  0.05    0.45
Q48   1   0.5537  0.7814  0.4702  11.00000  0.05    0.45
Q49   1   0.3067  0.3221  0.4235  11.00000  0.05    0.45
Q50   1  -0.0349 -0.0826  0.4810  11.00000  0.05    0.45
;
_shelx_res_checksum              68829
loop_
_space_group_symop_operation_xyz
'x, y, z'
'-x, -y, -z'
loop_
_atom_site_label
_atom_site_type_symbol
_atom_site_fract_x
_atom_site_fract_y
_atom_site_fract_z
_atom_site_U_iso_or_equiv
_atom_site_adp_type
_atom_site_occupancy
_atom_site_site_symmetry_order
_atom_site_calc_flag
_atom_site_refinement_flags_posn
_atom_site_refinement_flags_adp
_atom_site_refinement_flags_occupancy
Te1 Te 0.0000 1.0000 0.0000 0.01598(10) Uani 1 2 d S . P
Mo1 Mo 0.17764(6) 0.88534(4) 0.17268(3) 0.02650(12) Uani 1 1 d . . .
Cu1 Cu 0.55787(7) 0.72674(5) 0.07939(4) 0.02666(15) Uani 1 1 d . . .
O1 O 0.3774(5) 0.8388(3) 0.1718(3) 0.0407(10) Uani 1 1 d . . .
N1 N 0.5046(5) 0.5897(4) 0.1703(3) 0.0271(9) Uani 1 1 d . . .
C1 C 0.0517(13) -0.6045(7) 0.6635(6) 0.077(3) Uani 1 1 d . . .
H1A H 0.0177 -0.6681 0.6440 0.092 Uiso 1 1 calc R U .
O1W O 0.7297(5) 0.6167(3) -0.0085(3) 0.0388(10) Uani 1 1 d . . .
H1WA H 0.7680 0.6507 -0.0585 0.047 Uiso 1 1 d R U .
H1WB H 0.7861 0.5528 0.0020 0.047 Uiso 1 1 d R U .
O2 O 0.3793(4) 0.6995(3) 0.0156(3) 0.0311(8) Uani 1 1 d . . .
Mo2 Mo 0.00277(6) 1.14522(4) 0.16660(3) 0.02659(12) Uani 1 1 d . . .
C2 C 0.1738(9) -0.4295(5) 0.6334(4) 0.0484(17) Uani 1 1 d . . .
O2W O 0.5786(6) 0.8701(4) -0.0067(3) 0.0630(16) Uani 1 1 d . . .
H2WA H 0.5363 0.8871 -0.0545 0.076 Uiso 1 1 d R U .
H2WB H 0.6633 0.9050 -0.0140 0.076 Uiso 1 1 d R U .
Mo3 Mo -0.17659(5) 1.26289(3) -0.00594(3) 0.02024(11) Uani 1 1 d . . .
N3 N 0.0287(7) -0.5928(5) 0.7497(4) 0.0509(15) Uani 1 1 d . . .
H3B H -0.0180 -0.6447 0.7868 0.061 Uiso 1 1 calc R U .
C3 C 0.1499(9) -0.4197(5) 0.7220(5) 0.0490(17) Uani 1 1 d . . .
H3A H 0.1837 -0.3569 0.7427 0.059 Uiso 1 1 calc R U .
O3W O 0.7359(4) 0.7613(3) 0.1383(3) 0.0350(9) Uani 1 1 d . . .
H3WA H 0.7222 0.7451 0.1945 0.042 Uiso 1 1 d R U .
H3WB H 0.8290 0.7840 0.1237 0.042 Uiso 1 1 d R U .
N4 N 0.2466(9) -0.2361(6) 0.5849(5) 0.074(2) Uani 1 1 d . . .
H4B H 0.1919 -0.2233 0.6345 0.088 Uiso 1 1 calc R U .
C4 C 0.0758(9) -0.5034(6) 0.7800(4) 0.0480(17) Uani 1 1 d . . .
H4A H 0.0585 -0.4977 0.8404 0.058 Uiso 1 1 calc R U .
O4W O 0.6895(6) 0.8948(5) 0.2702(4) 0.0620(14) Uani 1 1 d . . .
H77 H 0.7841 0.9147 0.2663 0.074 Uiso 1 1 d R U .
H78 H 0.6634 0.8658 0.3238 0.074 Uiso 1 1 d R U .
C5 C 0.3171(13) -0.1355(9) 0.5275(7) 0.089(3) Uani 1 1 d . U .
H5B H 0.3307 -0.0779 0.5644 0.106 Uiso 1 1 calc R U .
H5A H 0.4222 -0.1612 0.4999 0.106 Uiso 1 1 calc R U .
O5W O 0.4797(8) 0.8903(6) -0.1890(4) 0.0214(13) Uiso 0.5 1 d . . P
H60 H 0.4515 0.9564 -0.2163 0.026 Uiso 0.5 1 d R U P
H61 H 0.4002 0.8500 -0.1820 0.026 Uiso 0.5 1 d R U P
N6 N 0.3173(8) 0.2128(5) 0.3415(4) 0.0633(18) Uani 1 1 d . . .
H6B H 0.3772 0.1956 0.2946 0.095 Uiso 1 1 calc R U .
C6 C 0.1252(13) -0.5225(7) 0.6045(5) 0.077(3) Uani 1 1 d . . .
H6A H 0.1422 -0.5300 0.5444 0.092 Uiso 1 1 calc R U .
O6 O -0.1055(4) 1.2475(3) -0.1287(2) 0.0264(8) Uani 1 1 d . . .
O6W O 0.6370(13) 0.7426(10) 0.4180(7) 0.065(3) Uiso 0.5 1 d . . P
H66 H 0.6892 0.7182 0.4618 0.078 Uiso 0.5 1 d R U P
H67 H 0.5734 0.6924 0.4150 0.078 Uiso 0.5 1 d R U P
O7 O 0.0873(6) 0.8503(4) 0.2782(3) 0.0459(11) Uani 1 1 d . . .
C7 C 0.2371(12) 0.1210(8) 0.4025(7) 0.076(2) Uani 1 1 d . U .
H7C H 0.2341 0.1373 0.4629 0.10(4) Uiso 1 1 calc R . .
H7B H 0.1274 0.1238 0.3898 0.12(4) Uiso 1 1 calc R . .
O8 O -0.0515(4) 0.9788(3) 0.1270(2) 0.0219(7) Uani 1 1 d . . .
C8 C 0.2606(12) -0.3389(7) 0.5667(5) 0.070(3) Uani 1 1 d . . .
O9 O 0.1991(5) 1.0472(3) 0.1691(3) 0.0315(8) Uani 1 1 d . . .
C9 C 0.2257(15) -0.0861(11) 0.4633(8) 0.108(4) Uani 1 1 d . U .
H9B H 0.1242 -0.0539 0.4910 0.161 Uiso 1 1 calc R U .
H9A H 0.2035 -0.1453 0.4299 0.161 Uiso 1 1 calc R U .
O10 O 0.2081(4) 0.9254(3) 0.0221(2) 0.0213(7) Uani 1 1 d . . .
C10 C 0.3079(16) 0.0123(10) 0.3974(9) 0.106(4) Uani 1 1 d . U .
H10B H 0.4182 0.0101 0.4088 0.15(5) Uiso 1 1 calc R . .
H10C H 0.3091 -0.0042 0.3372 0.14(5) Uiso 1 1 calc R . .
O11 O 0.0537(4) 1.1526(3) 0.0129(2) 0.0199(7) Uani 1 1 d . . .
C11 C 0.2983(8) 0.3199(6) 0.3581(4) 0.0480(17) Uani 1 1 d . . .
O12 O -0.0850(6) 1.1168(4) 0.2737(3) 0.0456(11) Uani 1 1 d . . .
C12 C 0.3782(7) 0.4109(5) 0.2903(4) 0.0362(13) Uani 1 1 d . . .
O13 O 0.0867(5) 1.2734(3) 0.1587(3) 0.0366(9) Uani 1 1 d . . .
C13 C 0.4089(8) 0.5117(5) 0.3180(4) 0.0441(15) Uani 1 1 d . . .
H13A H 0.3871 0.5210 0.3777 0.053 Uiso 1 1 calc R U .
O14 O -0.1969(4) 1.2051(3) 0.1165(2) 0.0270(8) Uani 1 1 d . . .
C14 C 0.4723(8) 0.5990(5) 0.2569(4) 0.0383(14) Uani 1 1 d . . .
H14A H 0.4932 0.6664 0.2767 0.046 Uiso 1 1 calc R U .
C15 C 0.4785(7) 0.4907(5) 0.1438(4) 0.0339(12) Uani 1 1 d . . .
H15A H 0.5014 0.4830 0.0839 0.041 Uiso 1 1 calc R U .
O15 O -0.0951(5) 1.3891(3) -0.0055(3) 0.0321(8) Uani 1 1 d . . .
O16 O 0.2175(8) 0.3510(5) 0.4246(4) 0.0754(18) Uani 1 1 d . . .
C16 C 0.4190(8) 0.3994(5) 0.2017(4) 0.0390(14) Uani 1 1 d . . .
H16A H 0.4064 0.3307 0.1812 0.047 Uiso 1 1 calc R U .
O31 O 0.3464(11) -0.3674(6) 0.5034(5) 0.118(3) Uani 1 1 d . U .
loop_
_atom_site_aniso_label
_atom_site_aniso_U_11
_atom_site_aniso_U_22
_atom_site_aniso_U_33
_atom_site_aniso_U_23
_atom_site_aniso_U_13
_atom_site_aniso_U_12
Te1 0.0165(2) 0.01243(18) 0.0185(2) -0.00106(14) -0.00059(15) -0.00237(14)
Mo1 0.0341(3) 0.0193(2) 0.0266(2) 0.00020(17) -0.01002(19) -0.00145(17)
Cu1 0.0216(3) 0.0239(3) 0.0325(3) 0.0054(2) -0.0037(3) -0.0054(2)
O1 0.037(2) 0.030(2) 0.058(3) -0.0052(19) -0.023(2) 0.0023(17)
N1 0.029(2) 0.024(2) 0.027(2) 0.0021(17) -0.0023(18) -0.0041(17)
C1 0.122(8) 0.037(4) 0.074(6) 0.007(4) -0.030(6) -0.019(5)
O1W 0.039(2) 0.029(2) 0.044(2) -0.0022(18) 0.0056(19) -0.0021(17)
O2 0.0226(18) 0.0251(18) 0.044(2) -0.0020(16) -0.0026(16) 0.0001(14)
Mo2 0.0400(3) 0.0193(2) 0.0210(2) -0.00426(16) -0.00362(18) -0.00317(18)
C2 0.067(5) 0.028(3) 0.038(3) 0.006(3) 0.016(3) 0.007(3)
O2W 0.086(4) 0.049(3) 0.057(3) 0.029(2) -0.036(3) -0.041(3)
Mo3 0.0181(2) 0.01402(19) 0.0275(2) -0.00132(15) -0.00110(16) -0.00088(15)
N3 0.049(3) 0.035(3) 0.060(4) 0.018(3) -0.001(3) -0.007(2)
C3 0.063(5) 0.026(3) 0.050(4) 0.001(3) 0.014(3) -0.002(3)
O3W 0.0218(19) 0.038(2) 0.045(2) -0.0005(18) -0.0034(17) -0.0073(16)
N4 0.093(6) 0.051(4) 0.065(4) 0.016(3) 0.022(4) -0.025(4)
C4 0.062(4) 0.036(3) 0.035(3) 0.006(3) 0.012(3) 0.004(3)
O4W 0.057(3) 0.073(4) 0.058(3) -0.016(3) 0.005(3) -0.021(3)
C5 0.090(5) 0.083(5) 0.088(5) 0.007(4) -0.001(4) -0.026(4)
N6 0.069(4) 0.039(3) 0.069(4) 0.020(3) 0.018(3) -0.013(3)
C6 0.144(9) 0.047(4) 0.034(4) 0.001(3) -0.003(5) -0.007(5)
O6 0.035(2) 0.0156(16) 0.0278(18) 0.0004(13) -0.0036(15) -0.0027(14)
O7 0.074(3) 0.036(2) 0.028(2) -0.0008(17) -0.008(2) -0.007(2)
C7 0.075(4) 0.059(4) 0.083(4) 0.016(3) 0.011(4) -0.013(3)
O8 0.0259(18) 0.0188(16) 0.0194(16) -0.0006(13) 0.0032(13) -0.0049(13)
C8 0.100(7) 0.042(4) 0.046(4) 0.012(3) 0.041(4) 0.011(4)
O9 0.040(2) 0.0216(18) 0.035(2) -0.0037(15) -0.0150(17) -0.0027(16)
C9 0.097(5) 0.097(5) 0.117(5) 0.026(4) -0.004(4) -0.020(4)
O10 0.0174(16) 0.0169(15) 0.0284(18) -0.0009(13) -0.0018(13) -0.0010(12)
C10 0.103(5) 0.089(5) 0.113(5) 0.019(4) 0.001(4) -0.018(4)
O11 0.0208(16) 0.0139(14) 0.0251(17) -0.0042(12) 0.0009(13) -0.0045(12)
C11 0.048(4) 0.047(4) 0.041(4) 0.017(3) 0.003(3) -0.013(3)
O12 0.069(3) 0.045(3) 0.023(2) -0.0048(18) 0.000(2) -0.014(2)
C12 0.037(3) 0.034(3) 0.032(3) 0.010(2) 0.001(2) -0.009(2)
O13 0.045(2) 0.029(2) 0.039(2) -0.0120(17) -0.0049(19) -0.0059(17)
C13 0.058(4) 0.037(3) 0.031(3) 0.002(2) 0.008(3) -0.002(3)
O14 0.0274(19) 0.0229(17) 0.0277(18) -0.0019(14) 0.0052(15) -0.0010(14)
C14 0.055(4) 0.024(3) 0.035(3) -0.006(2) -0.001(3) -0.004(3)
C15 0.046(3) 0.028(3) 0.026(3) 0.002(2) -0.003(2) -0.008(2)
O15 0.031(2) 0.0207(17) 0.044(2) -0.0022(16) -0.0032(17) -0.0056(15)
O16 0.099(5) 0.073(4) 0.048(3) 0.001(3) 0.023(3) -0.032(3)
C16 0.056(4) 0.026(3) 0.036(3) 0.001(2) -0.006(3) -0.013(3)
O31 0.172(6) 0.075(4) 0.078(4) -0.001(3) 0.063(4) 0.006(4)
loop_
_atom_type_symbol
_atom_type_description
_atom_type_scat_dispersion_real
_atom_type_scat_dispersion_imag
_atom_type_scat_source
C C 0.0033 0.0016 'International Tables Vol C Tables 4.2.6.8 and 6.1.1.4'
H H 0.0000 0.0000 'International Tables Vol C Tables 4.2.6.8 and 6.1.1.4'
N N 0.0061 0.0033 'International Tables Vol C Tables 4.2.6.8 and 6.1.1.4'
O O 0.0106 0.0060 'International Tables Vol C Tables 4.2.6.8 and 6.1.1.4'
Cu Cu 0.3201 1.2651 'International Tables Vol C Tables 4.2.6.8 and 6.1.1.4'
Mo Mo -1.6832 0.6857 'International Tables Vol C Tables 4.2.6.8 and 6.1.1.4'
Te Te -0.5308 1.6751 'International Tables Vol C Tables 4.2.6.8 and 6.1.1.4'
loop_
_geom_angle_atom_site_label_1
_geom_angle_atom_site_label_2
_geom_angle_atom_site_label_3
_geom_angle
_geom_angle_site_symmetry_1
_geom_angle_site_symmetry_3
O8 Te1 O8 180.0 2_575 .
O8 Te1 O10 94.20(15) 2_575 .
O8 Te1 O10 85.80(15) . .
O8 Te1 O10 85.80(15) 2_575 2_575
O8 Te1 O10 94.20(15) . 2_575
O10 Te1 O10 180.00(8) . 2_575
O8 Te1 O11 94.11(14) 2_575 .
O8 Te1 O11 85.89(14) . .
O10 Te1 O11 94.12(14) . .
O10 Te1 O11 85.88(14) 2_575 .
O8 Te1 O11 85.89(14) 2_575 2_575
O8 Te1 O11 94.11(14) . 2_575
O10 Te1 O11 85.89(14) . 2_575
O10 Te1 O11 94.11(14) 2_575 2_575
O11 Te1 O11 180.0 . 2_575
O7 Mo1 O1 107.6(2) . .
O7 Mo1 O9 101.70(19) . .
O1 Mo1 O9 97.04(18) . .
O7 Mo1 O6 93.89(18) . 2_575
O1 Mo1 O6 98.71(17) . 2_575
O9 Mo1 O6 153.32(15) . 2_575
O7 Mo1 O8 92.11(19) . .
O1 Mo1 O8 159.85(17) . .
O9 Mo1 O8 74.25(14) . .
O6 Mo1 O8 83.76(14) 2_575 .
O7 Mo1 O10 159.49(19) . .
O1 Mo1 O10 90.74(18) . .
O9 Mo1 O10 84.62(14) . .
O6 Mo1 O10 73.80(13) 2_575 .
O8 Mo1 O10 70.62(12) . .
O3W Cu1 O2 177.00(16) . .
O3W Cu1 O2W 90.84(18) . .
O2 Cu1 O2W 86.15(17) . .
O3W Cu1 N1 93.86(17) . .
O2 Cu1 N1 89.12(17) . .
O2W Cu1 N1 172.0(2) . .
O3W Cu1 O1W 90.65(16) . .
O2 Cu1 O1W 89.57(16) . .
O2W Cu1 O1W 93.4(2) . .
N1 Cu1 O1W 93.01(17) . .
O3W Cu1 O1 89.69(16) . .
O2 Cu1 O1 90.13(15) . .
O2W Cu1 O1 87.4(2) . .
N1 Cu1 O1 86.20(17) . .
O1W Cu1 O1 179.16(15) . .
Mo1 O1 Cu1 133.1(2) . .
C15 N1 C14 117.9(5) . .
C15 N1 Cu1 119.8(4) . .
C14 N1 Cu1 121.6(4) . .
N3 C1 C6 119.3(8) . .
Mo3 O2 Cu1 143.4(2) 2_575 .
O12 Mo2 O13 106.5(2) . .
O12 Mo2 O9 102.0(2) . .
O13 Mo2 O9 96.41(18) . .
O12 Mo2 O14 95.5(2) . .
O13 Mo2 O14 98.60(18) . .
O9 Mo2 O14 152.69(15) . .
O12 Mo2 O8 94.82(17) . .
O13 Mo2 O8 158.31(16) . .
O9 Mo2 O8 74.82(14) . .
O14 Mo2 O8 82.97(14) . .
O12 Mo2 O11 161.45(18) . .
O13 Mo2 O11 89.46(16) . .
O9 Mo2 O11 85.15(14) . .
O14 Mo2 O11 72.35(13) . .
O8 Mo2 O11 70.29(11) . .
C6 C2 C3 119.6(6) . .
C6 C2 C8 119.7(7) . .
C3 C2 C8 120.6(7) . .
O15 Mo3 O2 106.04(18) . 2_575
O15 Mo3 O14 100.76(18) . .
O2 Mo3 O14 97.83(17) 2_575 .
O15 Mo3 O6 96.53(17) . .
O2 Mo3 O6 98.11(17) 2_575 .
O14 Mo3 O6 152.19(15) . .
O15 Mo3 O11 93.95(15) . .
O2 Mo3 O11 159.87(15) 2_575 .
O14 Mo3 O11 75.66(14) . .
O6 Mo3 O11 81.59(14) . .
O15 Mo3 O10 162.63(16) . 2_575
O2 Mo3 O10 89.82(15) 2_575 2_575
O14 Mo3 O10 83.65(14) . 2_575
O6 Mo3 O10 73.77(13) . 2_575
O11 Mo3 O10 70.69(11) . 2_575
C4 N3 C1 122.0(6) . .
C2 C3 C4 119.2(7) . .
C8 N4 C5 125.4(8) . .
N3 C4 C3 119.8(7) . .
C9 C5 N4 113.0(9) . .
C11 N6 C7 120.7(7) . .
C2 C6 C1 120.1(8) . .
Mo3 O6 Mo1 115.77(17) . 2_575
C10 C7 N6 114.6(9) . .
Te1 O8 Mo2 103.75(14) . .
Te1 O8 Mo1 102.02(14) . .
Mo2 O8 Mo1 91.87(13) . .
O31 C8 N4 122.1(8) . .
O31 C8 C2 120.4(7) . .
N4 C8 C2 117.4(6) . .
Mo2 O9 Mo1 115.04(19) . .
C5 C9 C10 112.8(11) . .
Te1 O10 Mo1 101.52(14) . .
Te1 O10 Mo3 100.78(14) . 2_575
Mo1 O10 Mo3 92.30(12) . 2_575
C7 C10 C9 115.2(11) . .
Te1 O11 Mo3 102.61(14) . .
Te1 O11 Mo2 100.05(13) . .
Mo3 O11 Mo2 91.39(12) . .
O16 C11 N6 123.6(6) . .
O16 C11 C12 118.5(6) . .
N6 C11 C12 117.9(6) . .
C13 C12 C16 117.7(5) . .
C13 C12 C11 118.5(6) . .
C16 C12 C11 123.7(6) . .
C12 C13 C14 119.9(6) . .
Mo3 O14 Mo2 116.30(18) . .
N1 C14 C13 122.2(5) . .
N1 C15 C16 122.8(5) . .
C15 C16 C12 119.4(5) . .
loop_
_geom_bond_atom_site_label_1
_geom_bond_atom_site_label_2
_geom_bond_distance
_geom_bond_site_symmetry_2
Te1 O8 1.923(3) 2_575
Te1 O8 1.923(3) .
Te1 O10 1.928(3) .
Te1 O10 1.928(3) 2_575
Te1 O11 1.940(3) .
Te1 O11 1.940(3) 2_575
Mo1 O7 1.706(4) .
Mo1 O1 1.718(4) .
Mo1 O9 1.919(4) .
Mo1 O6 1.973(3) 2_575
Mo1 O8 2.262(4) .
Mo1 O10 2.272(3) .
Cu1 O3W 1.963(4) .
Cu1 O2 1.984(4) .
Cu1 O2W 1.985(4) .
Cu1 N1 2.012(4) .
Cu1 O1W 2.278(4) .
Cu1 O1 2.370(5) .
N1 C15 1.335(7) .
N1 C14 1.340(7) .
C1 N3 1.337(11) .
C1 C6 1.360(11) .
O2 Mo3 1.744(4) 2_575
Mo2 O12 1.711(4) .
Mo2 O13 1.714(4) .
Mo2 O9 1.916(4) .
Mo2 O14 1.965(4) .
Mo2 O8 2.240(3) .
Mo2 O11 2.329(3) .
C2 C6 1.359(11) .
C2 C3 1.368(9) .
C2 C8 1.535(9) .
Mo3 O15 1.702(4) .
Mo3 O2 1.744(4) 2_575
Mo3 O14 1.889(4) .
Mo3 O6 1.927(4) .
Mo3 O11 2.246(3) .
Mo3 O10 2.308(3) 2_575
N3 C4 1.326(9) .
C3 C4 1.368(8) .
N4 C8 1.269(10) .
N4 C5 1.492(10) .
C5 C9 1.356(14) .
N6 C11 1.309(9) .
N6 C7 1.477(9) .
O6 Mo1 1.973(3) 2_575
C7 C10 1.357(14) .
C8 O31 1.200(9) .
C9 C10 1.573(14) .
O10 Mo3 2.308(3) 2_575
C11 O16 1.229(9) .
C11 C12 1.521(8) .
C12 C13 1.377(9) .
C12 C16 1.380(8) .
C13 C14 1.383(8) .
C15 C16 1.380(7) .
