#------------------------------------------------------------------------------
#$Date: 2016-08-07 12:09:17 +0300 (Sun, 07 Aug 2016) $
#$Revision: 185452 $
#$URL: file:///home/coder/svn-repositories/cod/cif/7/03/98/7039815.cif $
#------------------------------------------------------------------------------
#
# This file is available in the Crystallography Open Database (COD),
# http://www.crystallography.net/
#
# All data on this site have been placed in the public domain by the
# contributors.
#
data_7039815
loop_
_publ_author_name
'Wang, Xiuli'
'Sun, Junjun'
'Lin, Hongyan'
'Chang, Zhihan'
'Wang, Xiang'
'Liu, Guocheng'
_publ_section_title
;
 A series of Anderson-type polyoxometalate-based metal-organic complexes:
 their pH-dependent electrochemical behaviour, and as electrocatalysts and
 photocatalysts.
;
_journal_issue                   31
_journal_name_full
'Dalton transactions (Cambridge, England : 2003)'
_journal_page_first              12465
_journal_page_last               12478
_journal_paper_doi               10.1039/c6dt02216b
_journal_volume                  45
_journal_year                    2016
_chemical_formula_sum            'C28 H50 Cu2 Mo6 N8 O38 Te'
_chemical_formula_weight         1937.08
_space_group_crystal_system      triclinic
_space_group_IT_number           2
_space_group_name_Hall           '-P 1'
_space_group_name_H-M_alt        'P -1'
_symmetry_space_group_name_Hall  '-P 1'
_symmetry_space_group_name_H-M   'P -1'
_atom_sites_solution_hydrogens   geom
_atom_sites_solution_primary     direct
_atom_sites_solution_secondary   difmap
_audit_creation_method           SHELXL-2014/7
_audit_update_record
;
2016-06-20 deposited with the CCDC.
2016-07-06 downloaded from the CCDC.
;
_cell_angle_alpha                73.6500(10)
_cell_angle_beta                 82.1130(10)
_cell_angle_gamma                83.9400(10)
_cell_formula_units_Z            1
_cell_length_a                   8.7020(5)
_cell_length_b                   11.6250(7)
_cell_length_c                   13.7290(9)
_cell_measurement_reflns_used    3314
_cell_measurement_temperature    296(2)
_cell_measurement_theta_max      28.2473
_cell_measurement_theta_min      2.6837
_cell_volume                     1316.79(14)
_computing_cell_refinement       'Bruker XSCANS'
_computing_data_collection       'Bruker XSCANS'
_computing_data_reduction        'Bruker SHELXTL'
_computing_molecular_graphics    'Bruker SHELXTL'
_computing_publication_material  'Bruker SHELXTL'
_computing_structure_refinement  'SHELXL-2014/7 (Sheldrick, 2014)'
_computing_structure_solution    'Bruker SHELXTL'
_diffrn_ambient_temperature      296(2)
_diffrn_measured_fraction_theta_full 0.998
_diffrn_measured_fraction_theta_max 0.990
_diffrn_measurement_device_type  'Bruker P4'
_diffrn_measurement_method       '\w scans'
_diffrn_radiation_type           MoK\a
_diffrn_radiation_wavelength     0.71069
_diffrn_reflns_av_R_equivalents  0.0193
_diffrn_reflns_av_unetI/netI     0.0402
_diffrn_reflns_Laue_measured_fraction_full 0.998
_diffrn_reflns_Laue_measured_fraction_max 0.990
_diffrn_reflns_limit_h_max       6
_diffrn_reflns_limit_h_min       -11
_diffrn_reflns_limit_k_max       15
_diffrn_reflns_limit_k_min       -15
_diffrn_reflns_limit_l_max       18
_diffrn_reflns_limit_l_min       -18
_diffrn_reflns_number            9803
_diffrn_reflns_point_group_measured_fraction_full 0.998
_diffrn_reflns_point_group_measured_fraction_max 0.990
_diffrn_reflns_theta_full        25.240
_diffrn_reflns_theta_max         28.308
_diffrn_reflns_theta_min         2.056
_diffrn_source                   'sealed tube'
_exptl_absorpt_coefficient_mu    2.830
_exptl_absorpt_correction_T_max  0.712
_exptl_absorpt_correction_T_min  0.607
_exptl_absorpt_correction_type   numerical
_exptl_absorpt_process_details   'ABSCOR by T.Higashi    8  March, 1995'
_exptl_crystal_colour            BLUE
_exptl_crystal_density_diffrn    2.443
_exptl_crystal_density_method    'not measured'
_exptl_crystal_description       BLOCK
_exptl_crystal_F_000             940
_exptl_crystal_size_max          0.210
_exptl_crystal_size_mid          0.150
_exptl_crystal_size_min          0.120
_refine_diff_density_max         0.713
_refine_diff_density_min         -0.647
_refine_diff_density_rms         0.125
_refine_ls_extinction_method     none
_refine_ls_goodness_of_fit_ref   0.998
_refine_ls_hydrogen_treatment    constr
_refine_ls_matrix_type           full
_refine_ls_number_parameters     376
_refine_ls_number_reflns         6506
_refine_ls_number_restraints     0
_refine_ls_restrained_S_all      0.998
_refine_ls_R_factor_all          0.0450
_refine_ls_R_factor_gt           0.0303
_refine_ls_shift/su_max          0.002
_refine_ls_shift/su_mean         0.000
_refine_ls_structure_factor_coef Fsqd
_refine_ls_weighting_details
'w=1/[\s^2^(Fo^2^)+(0.0304P)^2^+0.5141P] where P=(Fo^2^+2Fc^2^)/3'
_refine_ls_weighting_scheme      calc
_refine_ls_wR_factor_gt          0.0648
_refine_ls_wR_factor_ref         0.0711
_reflns_Friedel_coverage         0.000
_reflns_number_gt                5044
_reflns_number_total             6569
_reflns_threshold_expression     'I > 2\s(I)'
_cod_data_source_file            c6dt02216b2.cif
_cod_data_source_block           complex5
_cod_depositor_comments
'Adding full bibliography for 7039813--7039819.cif.'
_cod_database_code               7039815
_shelx_shelxl_version_number     2014/7
_shelx_space_group_comment
;
The symmetry employed for this shelxl refinement is uniquely defined
by the following loop, which should always be used as a source of
symmetry information in preference to the above space-group names.
They are only intended as comments.
;
_shelx_estimated_absorpt_t_min   0.588
_shelx_estimated_absorpt_t_max   0.728
_shelx_res_file
;

    2.res created by SHELXL-2014/7


TITL                                       2 in P-1
CELL   0.71069      8.702   11.625   13.729   73.650   82.113   83.940
ZERR         1      0.0005   0.0007   0.0009   0.001   0.001   0.001
LATT  1
SFAC    C   H   N   O   CU  MO  TE
UNIT     28   50   8   38   2   6   1
MERG      2
ACTA
L.S.      4
LIST      1
FMAP      2
PLAN     25
SIZE 0.21 0.15 0.12
WGHT    0.030400    0.514100
FVAR       0.10626
MO1   6    0.177850    1.738093   -0.500040    11.00000    0.01576    0.01187 =
         0.01929   -0.00264    0.00008   -0.00004
CU1   5    0.555163    1.718780   -0.420339    11.00000    0.01779    0.01604 =
         0.02140    0.00055   -0.00061   -0.00256
O1    4    0.376602    1.701892   -0.492030    11.00000    0.01888    0.02115 =
         0.02343   -0.00263    0.00059    0.00332
N1    3    0.507673    1.563925   -0.315684    11.00000    0.02256    0.01783 =
         0.01771   -0.00233   -0.00124   -0.00185
C1    1    0.314937    1.259758   -0.092346    11.00000    0.03835    0.02491 =
         0.02843    0.00670    0.00222   -0.00933
O1W   4    0.728103    1.620048   -0.514018    11.00000    0.03061    0.02137 =
         0.03584   -0.00368    0.00850    0.00118
AFIX   3
H1WA  2    0.783533    1.668178   -0.560328    11.00000   -1.20000
H1WB  2    0.772873    1.549927   -0.506048    11.00000   -1.20000
AFIX   0
TE1   7    0.000000    2.000000   -0.500000    10.50000    0.01222    0.01012 =
         0.01498   -0.00209   -0.00067   -0.00119
MO2   6   -0.012013    1.888263   -0.693643    11.00000    0.02097    0.01624 =
         0.01609   -0.00468   -0.00035   -0.00124
O2    4    0.187587    1.820290   -0.640997    11.00000    0.01917    0.01972 =
         0.02146   -0.00390    0.00120   -0.00003
N2    3    0.328060    1.153685   -0.113196    11.00000    0.04277    0.02379 =
         0.03681    0.00870    0.01550   -0.00765
AFIX  43
H2A   2    0.383278    1.144273   -0.167725    11.00000   -1.20000
AFIX   0
C2    1    0.289948    0.726117    0.018216    11.00000    0.03087    0.02198 =
         0.02531   -0.00425    0.00540   -0.00706
O2W   4    0.733467    1.742074   -0.353224    11.00000    0.01959    0.02966 =
         0.03318   -0.00693    0.00060   -0.00942
AFIX   3
H2WB  2    0.810137    1.784826   -0.378734    11.00000   -1.20000
H2WA  2    0.709647    1.783526   -0.308024    11.00000   -1.20000
AFIX   0
MO3   6   -0.184441    2.149708   -0.695046    11.00000    0.01700    0.01486 =
         0.01807   -0.00156   -0.00215   -0.00038
N3    3    0.253975    0.838444    0.025423    11.00000    0.04791    0.01755 =
         0.03914   -0.00455    0.02040   -0.01059
AFIX  43
H3C   2    0.188376    0.851608    0.074631    11.00000   -1.20000
AFIX   0
O3    4   -0.380209    2.191525   -0.688269    11.00000    0.02177    0.02459 =
         0.03532   -0.00569   -0.00711    0.00415
C3    1    0.326954    0.939217   -0.051036    11.00000    0.07013    0.02575 =
         0.04678    0.00048    0.02313   -0.02253
AFIX  23
H3A   2    0.435427    0.937732   -0.041041    11.00000   -1.50000
H3B   2    0.322575    0.931037   -0.118973    11.00000   -1.50000
AFIX   0
O3W   4    0.580779    1.874034   -0.521011    11.00000    0.03403    0.02717 =
         0.03519    0.00979   -0.00598   -0.01284
AFIX   3
H3WA  2    0.557119    1.885364   -0.581191    11.00000   -1.20000
H3WB  2    0.650459    1.921314   -0.523921    11.00000   -1.20000
AFIX   0
O4W   4   -0.318431    0.836231   -0.189990    11.00000    0.16393    0.06670 =
         0.05120   -0.02597   -0.03879    0.02375
AFIX   3
H4WB  2   -0.288701    0.787331   -0.136090    11.00000   -1.20000
H4WA  2   -0.243241    0.881011   -0.200970    11.00000   -1.20000
AFIX   0
N4    3    0.042542    0.450475    0.231307    11.00000    0.03046    0.02027 =
         0.04039    0.00554    0.00335   -0.00574
AFIX  43
H4C   2   -0.008656    0.394286    0.273641    11.00000   -1.20000
AFIX   0
O4    4   -0.092401    1.755875   -0.681811    11.00000    0.03155    0.01963 =
         0.03227   -0.00891   -0.00366   -0.00353
C4    1    0.247490    1.053172   -0.042315    11.00000    0.04481    0.02497 =
         0.06123    0.01656    0.01558   -0.00738
AFIX  23
H4A   2    0.244749    1.058657    0.027115    11.00000   -1.50000
H4B   2    0.141163    1.057342   -0.057637    11.00000   -1.50000
AFIX   0
O5W   4   -0.466966    0.076714    0.713722    11.00000    0.04019    0.03665 =
         0.06750    0.00503    0.00738   -0.01481
AFIX   3
H5WA  2   -0.453926    0.000494    0.732512    11.00000   -1.20000
H5WB  2   -0.381746    0.110234    0.693522    11.00000   -1.20000
AFIX   0
O5    4    0.204209    1.923554   -0.478633    11.00000    0.01356    0.01435 =
         0.01929   -0.00261   -0.00037    0.00170
O6    4   -0.050534    1.848637   -0.516254    11.00000    0.01779    0.01101 =
         0.01792   -0.00367    0.00106   -0.00445
O7    4   -0.201227    1.986149   -0.695128    11.00000    0.01855    0.01804 =
         0.02496   -0.00484   -0.00345   -0.00373
O8    4    0.100516    1.608554   -0.500160    11.00000    0.03381    0.01779 =
         0.03296   -0.00776   -0.00270   -0.00491
O9    4    0.067956    1.935414   -0.817938    11.00000    0.03503    0.03440 =
         0.01923   -0.00603    0.00476   -0.00072
O10   4    0.042278    2.048019   -0.647247    11.00000    0.01600    0.01506 =
         0.01657   -0.00071   -0.00030   -0.00195
O11   4   -0.106686    2.210069   -0.817241    11.00000    0.03704    0.02799 =
         0.02125   -0.00182   -0.00046   -0.00934
O12   4   -0.113718    2.274625   -0.643016    11.00000    0.02433    0.01220 =
         0.01863   -0.00175   -0.00072   -0.00212
O13   4    0.386525    0.698765   -0.045633    11.00000    0.04218    0.03037 =
         0.03066   -0.00598    0.01026   -0.00604
O15   4    0.244960    1.278813   -0.015068    11.00000    0.07493    0.04520 =
         0.03311   -0.00378    0.02089   -0.02272
C18   1    0.423039    1.364794   -0.275801    11.00000    0.05113    0.01829 =
         0.02487   -0.00008   -0.00460   -0.01133
AFIX  43
H18A  2    0.405346    1.299564   -0.298379    11.00000   -1.20000
AFIX   0
C21   1    0.164010    0.631217    0.198336    11.00000    0.03979    0.01794 =
         0.03026   -0.00636    0.00809   -0.00593
AFIX  43
H21A  2    0.194048    0.692588    0.221271    11.00000   -1.20000
AFIX   0
C24   1    0.483417    1.558744   -0.215897    11.00000    0.03192    0.02228 =
         0.02311   -0.00456   -0.00381   -0.00371
AFIX  43
H24A  2    0.505261    1.624137   -0.194979    11.00000   -1.20000
AFIX   0
C29   1    0.077681    0.446509    0.135394    11.00000    0.04370    0.02214 =
         0.04293   -0.00699   -0.00428   -0.00876
AFIX  43
H29A  2    0.049701    0.382620    0.114886    11.00000   -1.20000
AFIX   0
C30   1    0.426970    1.459195   -0.143287    11.00000    0.03715    0.02573 =
         0.01793   -0.00187    0.00094   -0.00467
AFIX  43
H30A  2    0.411994    1.457910   -0.074612    11.00000   -1.20000
AFIX   0
C31   1    0.198664    0.630377    0.096625    11.00000    0.02698    0.01591 =
         0.02485    0.00131    0.00238   -0.00195
C32   1    0.392851    1.361524   -0.173142    11.00000    0.02964    0.02353 =
         0.02266    0.00359    0.00028   -0.00744
C34   1    0.480153    1.467646   -0.343700    11.00000    0.04239    0.02226 =
         0.01874   -0.00244   -0.00171   -0.00660
AFIX  43
H34A  2    0.500421    1.469784   -0.412460    11.00000   -1.20000
AFIX   0
C35   1    0.155735    0.537319    0.066287    11.00000    0.04184    0.02700 =
         0.02454   -0.00551   -0.00218   -0.00892
AFIX  43
H35A  2    0.179439    0.535427   -0.001415    11.00000   -1.20000
AFIX   0
C38   1    0.083883    0.538593    0.264324    11.00000    0.04274    0.02572 =
         0.02680   -0.00010    0.01017    0.00106
AFIX  43
H38A  2    0.058528    0.537757    0.332556    11.00000   -1.20000

AFIX   0
HKLF      4

REM                                        2 in P-1
REM R1 =  0.0303 for    5044 Fo > 4sig(Fo)  and  0.0450 for all    6506 data
REM    376 parameters refined using      0 restraints

END

WGHT      0.0252      0.5221

REM Highest difference peak  0.713,  deepest hole -0.647,  1-sigma level  0.125
Q1    1  -0.2858  0.8539 -0.2149  11.00000  0.05    0.71
Q2    1   0.3566  0.9449  0.0018  11.00000  0.05    0.66
Q3    1   0.0065  1.9994 -0.5798  11.00000  0.05    0.56
Q4    1   0.2644  1.3022 -0.3092  11.00000  0.05    0.49
Q5    1   0.3416  1.2221 -0.0003  11.00000  0.05    0.48
Q6    1   0.1606  1.8638 -0.4808  11.00000  0.05    0.47
Q7    1   0.1000  0.6384  0.1532  11.00000  0.05    0.47
Q8    1   0.1373  1.6548 -0.5334  11.00000  0.05    0.45
Q9    1   0.4523  1.4160 -0.3018  11.00000  0.05    0.44
Q10   1   0.0216  1.7785 -0.6997  11.00000  0.05    0.44
Q11   1   0.7048  1.8159 -0.5000  11.00000  0.05    0.44
Q12   1   0.0043  0.4654  0.1693  11.00000  0.05    0.43
Q13   1   0.7618  1.7213 -0.4800  11.00000  0.05    0.43
Q14   1  -0.0972  0.8140 -0.1424  11.00000  0.05    0.43
Q15   1   0.5609  1.7378 -0.5038  11.00000  0.05    0.43
Q16   1   0.4406  1.3201 -0.2049  11.00000  0.05    0.43
Q17   1   0.0163  1.6769 -0.4978  11.00000  0.05    0.42
Q18   1   0.0090  1.9009 -0.7772  11.00000  0.05    0.42
Q19   1   0.5560  1.9770 -0.5065  11.00000  0.05    0.41
Q20   1   0.0697  2.1228 -0.7115  11.00000  0.05    0.40
Q21   1  -0.0238  2.0344 -0.8982  11.00000  0.05    0.40
Q22   1   0.0070  0.7001  0.1156  11.00000  0.05    0.40
Q23   1   0.5419  1.6844 -0.5189  11.00000  0.05    0.40
Q24   1  -0.6166  0.0408  0.7799  11.00000  0.05    0.39
Q25   1   0.0614  1.8993 -0.5138  11.00000  0.05    0.39
;
_shelx_res_checksum              91329
loop_
_space_group_symop_operation_xyz
'x, y, z'
'-x, -y, -z'
loop_
_atom_site_label
_atom_site_type_symbol
_atom_site_fract_x
_atom_site_fract_y
_atom_site_fract_z
_atom_site_U_iso_or_equiv
_atom_site_adp_type
_atom_site_occupancy
_atom_site_site_symmetry_order
_atom_site_calc_flag
_atom_site_refinement_flags_posn
_atom_site_refinement_flags_adp
_atom_site_refinement_flags_occupancy
Mo1 Mo 0.17785(3) 1.73809(2) -0.50004(2) 0.01623(7) Uani 1 1 d . . .
Cu1 Cu 0.55516(5) 1.71878(4) -0.42034(3) 0.01962(10) Uani 1 1 d . . .
O1 O 0.3766(3) 1.7019(2) -0.49203(19) 0.0225(6) Uani 1 1 d . . .
N1 N 0.5077(3) 1.5639(3) -0.3157(2) 0.0199(6) Uani 1 1 d . . .
C1 C 0.3149(5) 1.2598(4) -0.0923(3) 0.0335(10) Uani 1 1 d . . .
O1W O 0.7281(3) 1.6200(2) -0.5140(2) 0.0315(7) Uani 1 1 d . . .
H1WA H 0.7835 1.6682 -0.5603 0.038 Uiso 1 1 d R U .
H1WB H 0.7729 1.5499 -0.5060 0.038 Uiso 1 1 d R U .
Te1 Te 0.0000 2.0000 -0.5000 0.01276(7) Uani 1 2 d S . P
Mo2 Mo -0.01201(4) 1.88826(3) -0.69364(2) 0.01788(8) Uani 1 1 d . . .
O2 O 0.1876(3) 1.8203(2) -0.64100(18) 0.0209(5) Uani 1 1 d . . .
N2 N 0.3281(4) 1.1537(3) -0.1132(3) 0.0395(9) Uani 1 1 d . . .
H2A H 0.3833 1.1443 -0.1677 0.047 Uiso 1 1 calc R U .
C2 C 0.2899(5) 0.7261(3) 0.0182(3) 0.0269(8) Uani 1 1 d . . .
O2W O 0.7335(3) 1.7421(2) -0.3532(2) 0.0276(6) Uani 1 1 d . . .
H2WB H 0.8101 1.7848 -0.3787 0.033 Uiso 1 1 d R U .
H2WA H 0.7096 1.7835 -0.3080 0.033 Uiso 1 1 d R U .
Mo3 Mo -0.18444(3) 2.14971(3) -0.69505(2) 0.01728(8) Uani 1 1 d . . .
N3 N 0.2540(4) 0.8384(3) 0.0254(3) 0.0374(9) Uani 1 1 d . . .
H3C H 0.1884 0.8516 0.0746 0.045 Uiso 1 1 calc R U .
O3 O -0.3802(3) 2.1915(2) -0.6883(2) 0.0278(6) Uani 1 1 d . . .
C3 C 0.3270(6) 0.9392(4) -0.0510(4) 0.0511(14) Uani 1 1 d . . .
H3A H 0.4354 0.9377 -0.0410 0.077 Uiso 1 1 calc R U .
H3B H 0.3226 0.9310 -0.1190 0.077 Uiso 1 1 calc R U .
O3W O 0.5808(3) 1.8740(2) -0.5210(2) 0.0349(7) Uani 1 1 d . . .
H3WA H 0.5571 1.8854 -0.5812 0.042 Uiso 1 1 d R U .
H3WB H 0.6505 1.9213 -0.5239 0.042 Uiso 1 1 d R U .
O4W O -0.3184(6) 0.8362(4) -0.1900(3) 0.0917(16) Uani 1 1 d . . .
H4WB H -0.2887 0.7873 -0.1361 0.110 Uiso 1 1 d R U .
H4WA H -0.2432 0.8810 -0.2010 0.110 Uiso 1 1 d R U .
N4 N 0.0425(4) 0.4505(3) 0.2313(3) 0.0336(8) Uani 1 1 d . . .
H4C H -0.0087 0.3943 0.2736 0.040 Uiso 1 1 calc R U .
O4 O -0.0924(3) 1.7559(2) -0.6818(2) 0.0273(6) Uani 1 1 d . . .
C4 C 0.2475(6) 1.0532(4) -0.0423(4) 0.0512(14) Uani 1 1 d . . .
H4A H 0.2447 1.0587 0.0271 0.077 Uiso 1 1 calc R U .
H4B H 0.1412 1.0573 -0.0576 0.077 Uiso 1 1 calc R U .
O5W O -0.4670(4) 0.0767(3) 0.7137(3) 0.0525(10) Uani 1 1 d . . .
H5WA H -0.4539 0.0005 0.7325 0.063 Uiso 1 1 d R U .
H5WB H -0.3817 0.1102 0.6935 0.063 Uiso 1 1 d R U .
O5 O 0.2042(3) 1.9236(2) -0.47863(18) 0.0165(5) Uani 1 1 d . . .
O6 O -0.0505(3) 1.84864(19) -0.51625(17) 0.0157(5) Uani 1 1 d . . .
O7 O -0.2012(3) 1.9861(2) -0.69513(19) 0.0204(5) Uani 1 1 d . . .
O8 O 0.1005(3) 1.6086(2) -0.5002(2) 0.0279(6) Uani 1 1 d . . .
O9 O 0.0680(3) 1.9354(2) -0.8179(2) 0.0307(6) Uani 1 1 d . . .
O10 O 0.0423(3) 2.0480(2) -0.64725(17) 0.0167(5) Uani 1 1 d . . .
O11 O -0.1067(3) 2.2101(2) -0.8172(2) 0.0295(6) Uani 1 1 d . . .
O12 O -0.1137(3) 2.2746(2) -0.64302(18) 0.0190(5) Uani 1 1 d . . .
O13 O 0.3865(4) 0.6988(3) -0.0456(2) 0.0360(7) Uani 1 1 d . . .
O15 O 0.2450(4) 1.2788(3) -0.0151(2) 0.0537(10) Uani 1 1 d . . .
C18 C 0.4230(5) 1.3648(3) -0.2758(3) 0.0319(10) Uani 1 1 d . . .
H18A H 0.4053 1.2996 -0.2984 0.038 Uiso 1 1 calc R U .
C21 C 0.1640(5) 0.6312(3) 0.1983(3) 0.0302(9) Uani 1 1 d . . .
H21A H 0.1940 0.6926 0.2213 0.036 Uiso 1 1 calc R U .
C24 C 0.4834(5) 1.5587(3) -0.2159(3) 0.0259(8) Uani 1 1 d . . .
H24A H 0.5053 1.6241 -0.1950 0.031 Uiso 1 1 calc R U .
C29 C 0.0777(5) 0.4465(4) 0.1354(4) 0.0362(10) Uani 1 1 d . . .
H29A H 0.0497 0.3826 0.1149 0.043 Uiso 1 1 calc R U .
C30 C 0.4270(5) 1.4592(3) -0.1433(3) 0.0280(9) Uani 1 1 d . . .
H30A H 0.4120 1.4579 -0.0746 0.034 Uiso 1 1 calc R U .
C31 C 0.1987(4) 0.6304(3) 0.0966(3) 0.0245(8) Uani 1 1 d . . .
C32 C 0.3929(5) 1.3615(3) -0.1731(3) 0.0272(9) Uani 1 1 d . . .
C34 C 0.4802(5) 1.4676(3) -0.3437(3) 0.0283(9) Uani 1 1 d . . .
H34A H 0.5004 1.4698 -0.4125 0.034 Uiso 1 1 calc R U .
C35 C 0.1557(5) 0.5373(3) 0.0663(3) 0.0311(9) Uani 1 1 d . . .
H35A H 0.1794 0.5354 -0.0014 0.037 Uiso 1 1 calc R U .
C38 C 0.0839(5) 0.5386(4) 0.2643(3) 0.0348(10) Uani 1 1 d . . .
H38A H 0.0585 0.5378 0.3326 0.042 Uiso 1 1 calc R U .
loop_
_atom_site_aniso_label
_atom_site_aniso_U_11
_atom_site_aniso_U_22
_atom_site_aniso_U_33
_atom_site_aniso_U_23
_atom_site_aniso_U_13
_atom_site_aniso_U_12
Mo1 0.01576(15) 0.01187(14) 0.01929(16) -0.00264(12) 0.00008(12) -0.00004(11)
Cu1 0.0178(2) 0.0160(2) 0.0214(2) 0.00055(17) -0.00061(18) -0.00256(17)
O1 0.0189(13) 0.0211(13) 0.0234(14) -0.0026(11) 0.0006(11) 0.0033(10)
N1 0.0226(16) 0.0178(14) 0.0177(15) -0.0023(12) -0.0012(13) -0.0019(12)
C1 0.038(2) 0.025(2) 0.028(2) 0.0067(18) 0.0022(19) -0.0093(18)
O1W 0.0306(16) 0.0214(13) 0.0358(16) -0.0037(12) 0.0085(13) 0.0012(12)
Te1 0.01222(15) 0.01012(14) 0.01498(15) -0.00209(11) -0.00067(12) -0.00119(11)
Mo2 0.02097(16) 0.01624(15) 0.01609(15) -0.00468(12) -0.00035(12) -0.00124(12)
O2 0.0192(13) 0.0197(12) 0.0215(13) -0.0039(10) 0.0012(11) 0.0000(10)
N2 0.043(2) 0.0238(18) 0.037(2) 0.0087(16) 0.0155(17) -0.0076(16)
C2 0.031(2) 0.0220(19) 0.025(2) -0.0042(16) 0.0054(17) -0.0071(16)
O2W 0.0196(13) 0.0297(14) 0.0332(15) -0.0069(12) 0.0006(12) -0.0094(11)
Mo3 0.01700(16) 0.01486(15) 0.01807(16) -0.00156(12) -0.00215(12) -0.00038(12)
N3 0.048(2) 0.0176(16) 0.039(2) -0.0045(15) 0.0204(18) -0.0106(15)
O3 0.0218(14) 0.0246(14) 0.0353(16) -0.0057(12) -0.0071(12) 0.0041(11)
C3 0.070(4) 0.026(2) 0.047(3) 0.000(2) 0.023(3) -0.023(2)
O3W 0.0340(17) 0.0272(15) 0.0352(17) 0.0098(13) -0.0060(14) -0.0128(13)
O4W 0.164(5) 0.067(3) 0.051(3) -0.026(2) -0.039(3) 0.024(3)
N4 0.0305(19) 0.0203(17) 0.040(2) 0.0055(15) 0.0034(16) -0.0057(14)
O4 0.0315(15) 0.0196(13) 0.0323(15) -0.0089(11) -0.0037(12) -0.0035(11)
C4 0.045(3) 0.025(2) 0.061(3) 0.017(2) 0.016(2) -0.007(2)
O5W 0.0402(19) 0.0366(18) 0.068(2) 0.0050(17) 0.0074(17) -0.0148(15)
O5 0.0136(11) 0.0143(11) 0.0193(12) -0.0026(10) -0.0004(10) 0.0017(9)
O6 0.0178(12) 0.0110(11) 0.0179(12) -0.0037(9) 0.0011(10) -0.0044(9)
O7 0.0185(13) 0.0180(12) 0.0250(13) -0.0048(10) -0.0034(11) -0.0037(10)
O8 0.0338(16) 0.0178(13) 0.0330(16) -0.0078(11) -0.0027(13) -0.0049(11)
O9 0.0350(16) 0.0344(15) 0.0192(14) -0.0060(12) 0.0048(12) -0.0007(13)
O10 0.0160(12) 0.0151(11) 0.0166(12) -0.0007(9) -0.0003(10) -0.0020(9)
O11 0.0370(16) 0.0280(15) 0.0213(14) -0.0018(12) -0.0005(12) -0.0093(12)
O12 0.0243(13) 0.0122(11) 0.0186(13) -0.0017(10) -0.0007(10) -0.0021(10)
O13 0.0422(18) 0.0304(15) 0.0307(16) -0.0060(13) 0.0103(14) -0.0060(13)
O15 0.075(3) 0.045(2) 0.0331(18) -0.0038(16) 0.0209(18) -0.0227(18)
C18 0.051(3) 0.0183(19) 0.025(2) -0.0001(16) -0.0046(19) -0.0113(18)
C21 0.040(2) 0.0179(18) 0.030(2) -0.0064(16) 0.0081(19) -0.0059(17)
C24 0.032(2) 0.0223(19) 0.023(2) -0.0046(16) -0.0038(17) -0.0037(16)
C29 0.044(3) 0.022(2) 0.043(3) -0.0070(19) -0.004(2) -0.0088(18)
C30 0.037(2) 0.026(2) 0.0179(19) -0.0019(16) 0.0009(17) -0.0047(17)
C31 0.027(2) 0.0159(17) 0.025(2) 0.0013(15) 0.0024(16) -0.0020(15)
C32 0.030(2) 0.0235(19) 0.023(2) 0.0036(16) 0.0003(17) -0.0074(16)
C34 0.042(2) 0.0223(19) 0.0187(19) -0.0024(15) -0.0017(17) -0.0066(17)
C35 0.042(2) 0.027(2) 0.025(2) -0.0055(17) -0.0022(18) -0.0089(18)
C38 0.043(3) 0.026(2) 0.027(2) -0.0001(18) 0.0102(19) 0.0011(18)
loop_
_atom_type_symbol
_atom_type_description
_atom_type_scat_dispersion_real
_atom_type_scat_dispersion_imag
_atom_type_scat_source
C C 0.0033 0.0016 'International Tables Vol C Tables 4.2.6.8 and 6.1.1.4'
H H 0.0000 0.0000 'International Tables Vol C Tables 4.2.6.8 and 6.1.1.4'
N N 0.0061 0.0033 'International Tables Vol C Tables 4.2.6.8 and 6.1.1.4'
O O 0.0106 0.0060 'International Tables Vol C Tables 4.2.6.8 and 6.1.1.4'
Cu Cu 0.3201 1.2651 'International Tables Vol C Tables 4.2.6.8 and 6.1.1.4'
Mo Mo -1.6832 0.6857 'International Tables Vol C Tables 4.2.6.8 and 6.1.1.4'
Te Te -0.5308 1.6751 'International Tables Vol C Tables 4.2.6.8 and 6.1.1.4'
loop_
_geom_angle_atom_site_label_1
_geom_angle_atom_site_label_2
_geom_angle_atom_site_label_3
_geom_angle
_geom_angle_site_symmetry_1
_geom_angle_site_symmetry_3
O8 Mo1 O1 106.14(12) . .
O8 Mo1 O2 100.20(12) . .
O1 Mo1 O2 98.62(11) . .
O8 Mo1 O12 95.53(11) . 2_594
O1 Mo1 O12 97.97(11) . 2_594
O2 Mo1 O12 152.92(10) . 2_594
O8 Mo1 O6 93.83(11) . .
O1 Mo1 O6 159.94(10) . .
O2 Mo1 O6 75.54(9) . .
O12 Mo1 O6 81.57(9) 2_594 .
O8 Mo1 O5 162.18(11) . .
O1 Mo1 O5 89.85(10) . .
O2 Mo1 O5 84.72(9) . .
O12 Mo1 O5 74.07(9) 2_594 .
O6 Mo1 O5 70.65(8) . .
O3W Cu1 O2W 90.59(11) . .
O3W Cu1 N1 174.67(12) . .
O2W Cu1 N1 93.10(11) . .
O3W Cu1 O1 87.07(11) . .
O2W Cu1 O1 177.66(10) . .
N1 Cu1 O1 89.23(11) . .
O3W Cu1 O1W 92.97(11) . .
O2W Cu1 O1W 87.28(11) . .
N1 Cu1 O1W 91.04(11) . .
O1 Cu1 O1W 92.89(10) . .
O3W Cu1 O3 91.22(11) . 2_594
O2W Cu1 O3 90.85(10) . 2_594
N1 Cu1 O3 84.90(11) . 2_594
O1 Cu1 O3 89.15(10) . 2_594
O1W Cu1 O3 175.43(10) . 2_594
Mo1 O1 Cu1 143.84(15) . .
C34 N1 C24 118.0(3) . .
C34 N1 Cu1 120.9(2) . .
C24 N1 Cu1 120.6(2) . .
O15 C1 N2 124.3(4) . .
O15 C1 C32 119.6(4) . .
N2 C1 C32 116.1(4) . .
O5 Te1 O5 180.0 . 2_594
O5 Te1 O10 94.50(10) . .
O5 Te1 O10 85.50(10) 2_594 .
O5 Te1 O10 85.50(10) . 2_594
O5 Te1 O10 94.50(10) 2_594 2_594
O10 Te1 O10 180.0 . 2_594
O5 Te1 O6 94.10(10) . 2_594
O5 Te1 O6 85.90(10) 2_594 2_594
O10 Te1 O6 94.44(10) . 2_594
O10 Te1 O6 85.56(10) 2_594 2_594
O5 Te1 O6 85.90(10) . .
O5 Te1 O6 94.10(10) 2_594 .
O10 Te1 O6 85.56(10) . .
O10 Te1 O6 94.44(10) 2_594 .
O6 Te1 O6 180.0 2_594 .
O9 Mo2 O4 106.19(13) . .
O9 Mo2 O7 101.82(12) . .
O4 Mo2 O7 96.93(11) . .
O9 Mo2 O2 94.45(12) . .
O4 Mo2 O2 98.24(11) . .
O7 Mo2 O2 153.66(11) . .
O9 Mo2 O10 96.30(11) . .
O4 Mo2 O10 157.29(11) . .
O7 Mo2 O10 74.94(9) . .
O2 Mo2 O10 82.86(9) . .
O9 Mo2 O6 161.80(11) . .
O4 Mo2 O6 88.42(11) . .
O7 Mo2 O6 86.74(9) . .
O2 Mo2 O6 72.32(9) . .
O10 Mo2 O6 70.20(8) . .
Mo1 O2 Mo2 116.43(12) . .
C1 N2 C4 119.4(4) . .
O13 C2 N3 124.5(4) . .
O13 C2 C31 120.3(4) . .
N3 C2 C31 115.1(4) . .
O11 Mo3 O3 107.31(13) . .
O11 Mo3 O7 101.41(12) . .
O3 Mo3 O7 96.82(11) . .
O11 Mo3 O12 94.00(11) . .
O3 Mo3 O12 98.98(12) . .
O7 Mo3 O12 153.53(10) . .
O11 Mo3 O10 93.55(11) . .
O3 Mo3 O10 158.59(10) . .
O7 Mo3 O10 73.80(9) . .
O12 Mo3 O10 83.95(9) . .
O11 Mo3 O5 160.22(11) . 2_594
O3 Mo3 O5 90.15(11) . 2_594
O7 Mo3 O5 85.22(9) . 2_594
O12 Mo3 O5 73.67(9) . 2_594
O10 Mo3 O5 70.19(8) . 2_594
C2 N3 C3 119.8(4) . .
Mo3 O3 Cu1 134.50(15) . 2_594
C4 C3 N3 110.5(4) . .
C29 N4 C38 122.1(4) . .
C3 C4 N2 110.3(4) . .
Te1 O5 Mo3 102.02(10) . 2_594
Te1 O5 Mo1 101.16(10) . .
Mo3 O5 Mo1 92.30(8) 2_594 .
Te1 O6 Mo1 102.23(10) . .
Te1 O6 Mo2 100.41(9) . .
Mo1 O6 Mo2 91.75(8) . .
Mo2 O7 Mo3 115.97(12) . .
Te1 O10 Mo2 103.81(9) . .
Te1 O10 Mo3 102.22(10) . .
Mo2 O10 Mo3 91.93(8) . .
Mo1 O12 Mo3 115.35(11) 2_594 .
C34 C18 C32 118.3(4) . .
C38 C21 C31 118.2(4) . .
N1 C24 C30 122.0(4) . .
N4 C29 C35 119.6(4) . .
C24 C30 C32 119.7(4) . .
C35 C31 C21 119.2(3) . .
C35 C31 C2 118.2(4) . .
C21 C31 C2 122.5(4) . .
C30 C32 C18 118.4(3) . .
C30 C32 C1 117.9(4) . .
C18 C32 C1 123.6(4) . .
N1 C34 C18 123.5(4) . .
C31 C35 C29 120.2(4) . .
N4 C38 C21 120.6(4) . .
loop_
_geom_bond_atom_site_label_1
_geom_bond_atom_site_label_2
_geom_bond_distance
_geom_bond_site_symmetry_2
Mo1 O8 1.714(2) .
Mo1 O1 1.747(2) .
Mo1 O2 1.896(2) .
Mo1 O12 1.935(2) 2_594
Mo1 O6 2.252(2) .
Mo1 O5 2.295(2) .
Cu1 O3W 1.953(2) .
Cu1 O2W 1.988(3) .
Cu1 N1 2.003(3) .
Cu1 O1 2.004(3) .
Cu1 O1W 2.274(3) .
Cu1 O3 2.355(3) 2_594
N1 C34 1.335(5) .
N1 C24 1.342(5) .
C1 O15 1.213(5) .
C1 N2 1.332(6) .
C1 C32 1.521(5) .
Te1 O5 1.923(2) .
Te1 O5 1.923(2) 2_594
Te1 O10 1.933(2) .
Te1 O10 1.933(2) 2_594
Te1 O6 1.937(2) 2_594
Te1 O6 1.937(2) .
Mo2 O9 1.710(3) .
Mo2 O4 1.715(2) .
Mo2 O7 1.899(2) .
Mo2 O2 1.974(2) .
Mo2 O10 2.239(2) .
Mo2 O6 2.331(2) .
N2 C4 1.466(5) .
C2 O13 1.214(5) .
C2 N3 1.338(5) .
C2 C31 1.519(5) .
Mo3 O11 1.700(3) .
Mo3 O3 1.719(3) .
Mo3 O7 1.923(2) .
Mo3 O12 1.973(2) .
Mo3 O10 2.269(2) .
Mo3 O5 2.284(2) 2_594
N3 C3 1.469(5) .
O3 Cu1 2.355(3) 2_594
C3 C4 1.456(7) .
N4 C29 1.323(6) .
N4 C38 1.330(5) .
O5 Mo3 2.284(2) 2_594
O12 Mo1 1.935(2) 2_594
C18 C34 1.384(5) .
C18 C32 1.388(6) .
C21 C38 1.379(5) .
C21 C31 1.390(5) .
C24 C30 1.382(5) .
C29 C35 1.374(5) .
C30 C32 1.383(5) .
C31 C35 1.366(5) .
