#------------------------------------------------------------------------------
#$Date: 2016-11-08 21:52:46 +0200 (Tue, 08 Nov 2016) $
#$Revision: 188177 $
#$URL: file:///home/coder/svn-repositories/cod/cif/7/04/08/7040821.cif $
#------------------------------------------------------------------------------
#
# This file is available in the Crystallography Open Database (COD),
# http://www.crystallography.net/
#
# All data on this site have been placed in the public domain by the
# contributors.
#
data_7040821
loop_
_publ_author_name
'Kivi, Charlie E.'
'Song, Datong'
_publ_section_title
;
 A luminescent cationic metal-organic framework featuring [Cu-pyrazolate]3
 units for volatile organic compound sensing.
;
_journal_issue                   43
_journal_name_full
'Dalton transactions (Cambridge, England : 2003)'
_journal_page_first              17087
_journal_page_last               17090
_journal_paper_doi               10.1039/c6dt03582e
_journal_volume                  45
_journal_year                    2016
_chemical_formula_moiety         'C96 H84 Br4 Cu10 N18'
_chemical_formula_sum            'C96 H84 Br4 Cu10 N18'
_chemical_formula_weight         2444.85
_chemical_name_systematic
;
 ?
;
_space_group_crystal_system      monoclinic
_space_group_IT_number           15
_space_group_name_Hall           '-C 2yc'
_space_group_name_H-M_alt        'C 1 2/c 1'
_symmetry_space_group_name_Hall  '-C 2yc'
_symmetry_space_group_name_H-M   'C 1 2/c 1'
_atom_sites_solution_hydrogens   geom
_audit_creation_method           SHELXL-2013
_audit_update_record
;
2016-07-15 deposited with the CCDC.
2016-10-05 downloaded from the CCDC.
;
_cell_angle_alpha                90
_cell_angle_beta                 107.054(2)
_cell_angle_gamma                90
_cell_formula_units_Z            4
_cell_length_a                   19.6076(13)
_cell_length_b                   27.6940(16)
_cell_length_c                   21.551(2)
_cell_measurement_reflns_used    61644
_cell_measurement_temperature    150(2)
_cell_measurement_theta_max      27.547
_cell_measurement_theta_min      1.824
_cell_volume                     11187.9(14)
_computing_structure_refinement  'SHELXL-2013 (Sheldrick, 2013)'
_diffrn_ambient_temperature      150(2)
_diffrn_measured_fraction_theta_full 0.999
_diffrn_measured_fraction_theta_max 0.995
_diffrn_measurement_device_type  'Bruker Kapa Apex II'
_diffrn_radiation_type           MoK\a
_diffrn_radiation_wavelength     0.71073
_diffrn_reflns_av_R_equivalents  0.0698
_diffrn_reflns_av_unetI/netI     0.0842
_diffrn_reflns_Laue_measured_fraction_full 0.999
_diffrn_reflns_Laue_measured_fraction_max 0.995
_diffrn_reflns_limit_h_max       25
_diffrn_reflns_limit_h_min       -25
_diffrn_reflns_limit_k_max       35
_diffrn_reflns_limit_k_min       -35
_diffrn_reflns_limit_l_max       28
_diffrn_reflns_limit_l_min       -27
_diffrn_reflns_number            61644
_diffrn_reflns_point_group_measured_fraction_full 0.999
_diffrn_reflns_point_group_measured_fraction_max 0.995
_diffrn_reflns_theta_full        25.242
_diffrn_reflns_theta_max         27.547
_diffrn_reflns_theta_min         1.824
_exptl_absorpt_coefficient_mu    3.336
_exptl_absorpt_correction_T_max  0.7456
_exptl_absorpt_correction_T_min  0.6468
_exptl_absorpt_correction_type   multi-scan
_exptl_absorpt_process_details
;
multi-scan from symmetry-related measurements 
 Sortav (Blessing 1995)
;
_exptl_crystal_colour            yellow
_exptl_crystal_density_diffrn    1.451
_exptl_crystal_description       rod
_exptl_crystal_F_000             4864
_exptl_crystal_size_max          0.080
_exptl_crystal_size_mid          0.060
_exptl_crystal_size_min          0.020
_refine_diff_density_max         1.943
_refine_diff_density_min         -1.203
_refine_diff_density_rms         0.144
_refine_ls_extinction_method     none
_refine_ls_goodness_of_fit_ref   1.036
_refine_ls_hydrogen_treatment    constr
_refine_ls_matrix_type           full
_refine_ls_number_parameters     606
_refine_ls_number_reflns         12861
_refine_ls_number_restraints     0
_refine_ls_restrained_S_all      1.036
_refine_ls_R_factor_all          0.1157
_refine_ls_R_factor_gt           0.0666
_refine_ls_shift/su_max          0.001
_refine_ls_shift/su_mean         0.000
_refine_ls_structure_factor_coef Fsqd
_refine_ls_weighting_details
'w=1/[\s^2^(Fo^2^)+(0.0935P)^2^+56.6373P] where P=(Fo^2^+2Fc^2^)/3'
_refine_ls_weighting_scheme      calc
_refine_ls_wR_factor_gt          0.1722
_refine_ls_wR_factor_ref         0.1899
_reflns_Friedel_coverage         0.000
_reflns_number_gt                8030
_reflns_number_total             12861
_reflns_threshold_expression     'I > 2\s(I)'
_cod_data_source_file            c6dt03582e2.cif
_cod_data_source_block           cek879sq
_cod_depositor_comments          'Adding full bibliography for 7040821.cif.'
_cod_original_cell_volume        11187.9(15)
_cod_database_code               7040821
_shelx_space_group_comment
;
The symmetry employed for this shelxl refinement is uniquely defined
by the following loop, which should always be used as a source of
symmetry information in preference to the above space-group names.
They are only intended as comments.
;
_shelx_estimated_absorpt_t_min   0.776
_shelx_estimated_absorpt_t_max   0.936
_shelxl_version_number           2013-4
_shelx_res_file
;
TITL cek879_0m in C2/c
CELL 0.71073  19.6076  27.6940  21.5511  90.000 107.054  90.000
ZERR    4.00   0.0013   0.0016   0.0022   0.000   0.002   0.000
LATT  7
SYMM -X, Y, 0.5-Z
SFAC C H N CU BR
UNIT 384 336 72 40 16
TEMP -123.160
SIZE 0.02 0.06 0.08

L.S. 8
BOND
FMAP 2
PLAN 15
ACTA

OMIT 0 4 2
OMIT -2 0 4
OMIT 1 1 0
OMIT -1 1 2
OMIT -1 5 3

WGHT    0.093500   56.637287
FVAR       0.18034
BR1   5    0.924278    0.290938    0.164650    11.00000    0.02314    0.02541 =
         0.02739   -0.00157    0.01294   -0.00172
CU3   4    1.735832    0.203160   -0.088015    11.00000    0.02654    0.01589 =
         0.03587   -0.00072    0.01803   -0.00081
CU2   4    1.616398    0.149636   -0.036832    11.00000    0.02515    0.01923 =
         0.03398   -0.00219    0.01908    0.00114
CU1   4    1.631080    0.265234   -0.034914    11.00000    0.02514    0.02070 =
         0.03564   -0.00072    0.02053   -0.00222
CU4   4    1.046453    0.319500    0.216089    11.00000    0.02768    0.02126 =
         0.04049    0.00020    0.02418   -0.00287
N1    3    1.562676    0.235812   -0.002982    11.00000    0.02486    0.02022 =
         0.03595   -0.00106    0.02182   -0.00108
N3    3    1.125409    0.291256    0.185813    11.00000    0.01609    0.03000 =
         0.02894   -0.00011    0.01431   -0.00184
N4    3    1.682505    0.112382   -0.062847    11.00000    0.02722    0.01570 =
         0.03405    0.00025    0.01733    0.00269
N2    3    1.551794    0.186305   -0.007697    11.00000    0.02551    0.02157 =
         0.02568   -0.00464    0.01538   -0.00134
N5    3    1.730992    0.135400   -0.087924    11.00000    0.02237    0.02317 =
         0.03242   -0.00707    0.01427   -0.00185
C12   1    1.239528    0.259141    0.141833    11.00000    0.02419    0.03261 =
         0.02884    0.00226    0.01775    0.00097
C25   1    1.840810   -0.074789   -0.138682    11.00000    0.02817    0.02082 =
         0.04624   -0.00832    0.01024    0.00495
C5    1    1.470777    0.125181    0.014262    11.00000    0.04662    0.03155 =
         0.06291   -0.00230    0.04356   -0.00896
AFIX  33
H5A   2    1.498942    0.103895   -0.005045    11.00000   -1.50000
H5B   2    1.420618    0.124109   -0.011867    11.00000   -1.50000
H5C   2    1.474951    0.114391    0.058530    11.00000   -1.50000
AFIX   0
C3    1    1.472683    0.217832    0.037311    11.00000    0.02194    0.02933 =
         0.03070   -0.00570    0.01475   -0.00481
C11   1    1.420862    0.258865    0.116067    11.00000    0.02235    0.04705 =
         0.03812   -0.01225    0.01498   -0.00566
AFIX  43
H11A  2    1.464602    0.275751    0.132723    11.00000   -1.20000
AFIX   0
C23   1    1.738057   -0.030659   -0.128600    11.00000    0.03529    0.02842 =
         0.05935   -0.00677    0.01861    0.00323
AFIX  43
H23A  2    1.688560   -0.030278   -0.132351    11.00000   -1.20000
AFIX   0
C16   1    1.168476    0.252487    0.105017    11.00000    0.02526    0.04059 =
         0.02649   -0.00335    0.01646   -0.00541
AFIX  43
H16A  2    1.157626    0.236781    0.064086    11.00000   -1.20000
AFIX   0
C22   1    1.779282    0.010366   -0.105643    11.00000    0.02105    0.02346 =
         0.04731   -0.00684    0.01098    0.00536
C4    1    1.497826    0.175498    0.016032    11.00000    0.02450    0.02573 =
         0.03546   -0.00640    0.01736   -0.00703
C19   1    1.748288    0.056447   -0.093135    11.00000    0.02561    0.02714 =
         0.03261   -0.00710    0.00954    0.00499
C6    1    1.414217    0.224455    0.067201    11.00000    0.02295    0.03361 =
         0.03868   -0.00137    0.01702    0.00201
C20   1    1.771107    0.101665   -0.104772    11.00000    0.01990    0.02309 =
         0.02999   -0.00693    0.00939   -0.00377
C9    1    1.294095    0.209527    0.071721    11.00000    0.02573    0.04134 =
         0.04046   -0.00554    0.01794   -0.00510
AFIX  43
H9A   2    1.250611    0.192171    0.056231    11.00000   -1.20000
AFIX   0
C14   1    1.193059    0.295410    0.221649    11.00000    0.03951    0.04213 =
         0.03041   -0.00708    0.02256   -0.00533
AFIX  43
H14A  2    1.202083    0.309468    0.263493    11.00000   -1.20000
AFIX   0
C13   1    1.250554    0.280949    0.202723    11.00000    0.02224    0.04896 =
         0.02527   -0.00232    0.01217    0.00262
AFIX  43
H13A  2    1.297580    0.285626    0.230565    11.00000   -1.20000
AFIX   0
C2    1    1.515534    0.254865    0.024525    11.00000    0.03066    0.02202 =
         0.03116   -0.00369    0.02031    0.00261
C8    1    1.300124    0.244563    0.118038    11.00000    0.02732    0.03288 =
         0.02816   -0.00150    0.02070    0.00054
C1    1    1.514050    0.308111    0.034545    11.00000    0.03153    0.03105 =
         0.06026   -0.00651    0.02755   -0.00171
AFIX  33
H1A   2    1.551349    0.323483    0.019495    11.00000   -1.50000
H1B   2    1.522478    0.314938    0.080806    11.00000   -1.50000
H1C   2    1.467349    0.320890    0.009915    11.00000   -1.50000
AFIX   0
C24   1    1.768239   -0.072009   -0.146035    11.00000    0.04001    0.01992 =
         0.07260   -0.00945    0.02359   -0.00164
AFIX  43
H24A  2    1.738596   -0.098861   -0.163308    11.00000   -1.20000
AFIX   0
C7    1    1.350917    0.198842    0.046798    11.00000    0.02966    0.03481 =
         0.04392   -0.00759    0.02592   -0.00467
AFIX  43
H7A   2    1.345914    0.173807    0.015642    11.00000   -1.20000
AFIX   0
C17   1    1.649363    0.030063   -0.040280    11.00000    0.05654    0.02875 =
         0.06542    0.00572    0.04133    0.00141
AFIX  33
H17A  2    1.614720    0.047969   -0.024417    11.00000   -1.50000
H17B  2    1.680825    0.011442   -0.004565    11.00000   -1.50000
H17C  2    1.624037    0.008037   -0.074991    11.00000   -1.50000
AFIX   0
C10   1    1.364740    0.268542    0.140302    11.00000    0.03302    0.04642 =
         0.04302   -0.01943    0.02410   -0.00271
AFIX  43
H10A  2    1.370445    0.292319    0.173208    11.00000   -1.20000
AFIX   0
C28   1    1.874643   -0.117158   -0.160990    11.00000    0.02663    0.02421 =
         0.03716   -0.00289    0.00938    0.00784
C27   1    1.852357    0.005254   -0.093532    11.00000    0.04446    0.03582 =
         0.07825   -0.02483    0.01691   -0.00364
AFIX  43
H27A  2    1.882839    0.030870   -0.072881    11.00000   -1.20000
AFIX   0
C18   1    1.693037    0.064901   -0.066120    11.00000    0.02745    0.01685 =
         0.03822   -0.00098    0.01320    0.00387
C21   1    1.826777    0.117123   -0.135196    11.00000    0.03578    0.02839 =
         0.06370   -0.00721    0.03190   -0.00099
AFIX  33
H21A  2    1.829629    0.152454   -0.135032    11.00000   -1.50000
H21B  2    1.814237    0.105348   -0.180014    11.00000   -1.50000
H21C  2    1.873045    0.103724   -0.110533    11.00000   -1.50000
AFIX   0
C15   1    1.114498    0.268715    0.128208    11.00000    0.01774    0.03971 =
         0.02694    0.00207    0.01064   -0.00039
AFIX  43
H15A  2    1.066704    0.263801    0.102224    11.00000   -1.20000
AFIX   0
C26   1    1.882450   -0.036434   -0.110795    11.00000    0.03502    0.04412 =
         0.07142   -0.01854    0.00635    0.00366
AFIX  43
H26A  2    1.932646   -0.038177   -0.103043    11.00000   -1.20000
AFIX   0
N7    3    1.741209    0.270216   -0.092368    11.00000    0.02135    0.02100 =
         0.03165    0.00099    0.01353   -0.00320
N8    3    1.694198    0.297800   -0.070223    11.00000    0.02460    0.01810 =
         0.02982   -0.00106    0.01510    0.00083
C34   1    1.780002    0.300897   -0.117502    11.00000    0.02343    0.02535 =
         0.02694    0.00220    0.01203   -0.00765
C35   1    1.758580    0.348141   -0.112108    11.00000    0.02176    0.02014 =
         0.02996    0.00170    0.00403   -0.00649
C36   1    1.704245    0.344252   -0.081888    11.00000    0.02393    0.01879 =
         0.02567   -0.00282    0.00960   -0.00382
C33   1    1.833486    0.281131   -0.147842    11.00000    0.02468    0.03286 =
         0.03520   -0.00153    0.01876    0.00019
AFIX  33
H33A  2    1.835934    0.245951   -0.142768    11.00000   -1.50000
H33B  2    1.880413    0.295159   -0.126558    11.00000   -1.50000
H33C  2    1.819217    0.289310   -0.194115    11.00000   -1.50000
AFIX   0
C37   1    1.659659    0.382491   -0.063942    11.00000    0.02717    0.02398 =
         0.03715   -0.00654    0.01353   -0.00158
AFIX  33
H37A  2    1.626475    0.367516   -0.043396    11.00000   -1.50000
H37B  2    1.632646    0.399806   -0.103098    11.00000   -1.50000
H37C  2    1.690619    0.405226   -0.033565    11.00000   -1.50000
AFIX   0
C30   1    1.874163   -0.179614   -0.238598    11.00000    0.04422    0.02818 =
         0.03065   -0.00701    0.00679    0.00879
AFIX  43
H30A  2    1.848938   -0.197221   -0.276148    11.00000   -1.20000
AFIX   0
C29   1    1.838396   -0.143550   -0.215584    11.00000    0.03063    0.02511 =
         0.04741   -0.00436    0.01283    0.00966
AFIX  43
H29A  2    1.789592   -0.137030   -0.237028    11.00000   -1.20000
AFIX   0
C38   1    1.788308    0.392567   -0.130924    11.00000    0.02488    0.02600 =
         0.02965    0.00378    0.00985   -0.00380
C43   1    1.745229    0.432815   -0.156818    11.00000    0.03362    0.03242 =
         0.06934    0.00094    0.02711   -0.00818
AFIX  43
H43A  2    1.695442    0.431191   -0.162139    11.00000   -1.20000
AFIX   0
C39   1    1.860719    0.396968   -0.123397    11.00000    0.03175    0.02956 =
         0.04864    0.01143    0.01249    0.00405
AFIX  43
H39A  2    1.891518    0.370607   -0.106349    11.00000   -1.20000
AFIX   0
N6    3    1.942689   -0.190423   -0.209859    11.00000    0.02946    0.01666 =
         0.03900    0.00033    0.01155    0.00436
C44   1    1.879198    0.522233   -0.183551    11.00000    0.03755    0.02481 =
         0.03234    0.00250    0.01365   -0.01192
C32   1    1.942518   -0.130238   -0.130786    11.00000    0.03629    0.02313 =
         0.04704   -0.01651   -0.00204    0.00651
AFIX  43
H32A  2    1.968142   -0.113987   -0.092164    11.00000   -1.20000
AFIX   0
C31   1    1.975815   -0.166999   -0.154950    11.00000    0.02510    0.02753 =
         0.06512   -0.01039    0.00952    0.00514
AFIX  43
H31A  2    2.023348   -0.175727   -0.131876    11.00000   -1.20000
AFIX   0
C41   1    1.848198    0.477120   -0.165282    11.00000    0.03832    0.01940 =
         0.03267    0.00433    0.00969   -0.01214
C45   1    1.844357    0.548771   -0.239345    11.00000    0.05749    0.03513 =
         0.03821   -0.00114    0.00581   -0.01934
AFIX  43
H45A  2    1.800195    0.537988   -0.267730    11.00000   -1.20000
AFIX   0
C48   1    1.942269    0.540084   -0.144339    11.00000    0.03496    0.03734 =
         0.04711    0.02063   -0.00070   -0.01047
AFIX  43
H48A  2    1.967342    0.522979   -0.106273    11.00000   -1.20000
AFIX   0
C40   1    1.888869    0.438909   -0.140201    11.00000    0.03112    0.03536 =
         0.05430    0.00159    0.01993   -0.00941
AFIX  43
H40A  2    1.938847    0.440770   -0.133767    11.00000   -1.20000
AFIX   0
C42   1    1.773322    0.474554   -0.174679    11.00000    0.03561    0.03472 =
         0.06523    0.00904    0.01801    0.00029
AFIX  43
H42A  2    1.743243    0.501005   -0.192867    11.00000   -1.20000
AFIX   0
C46   1    1.875601    0.590965   -0.252205    11.00000    0.05516    0.03475 =
         0.02616    0.00852    0.00164   -0.01834
AFIX  43
H46A  2    1.852422    0.608024   -0.290887    11.00000   -1.20000
AFIX   0
C47   1    1.969785    0.583163   -0.160009    11.00000    0.02806    0.03957 =
         0.06033    0.01426    0.00093   -0.01810
AFIX  43
H47A  2    2.013707    0.594614   -0.131947    11.00000   -1.20000
AFIX   0
N9    3    1.937237    0.609416   -0.212974    11.00000    0.03311    0.02006 =
         0.03386    0.00403    0.01405   -0.00514
CU5   4    2.000000   -0.234081   -0.250000    10.50000    0.04175    0.01691 =
         0.06082    0.00000    0.03588    0.00000
PART   1
BR2B  5    1.529457    0.434946    0.424200    10.25000    0.09379    0.12070 =
         0.14159   -0.01101    0.03003    0.00174
CU6B  4    1.646196    0.414304    0.442912    10.25000    0.21776    0.27802 =
         0.17170   -0.05767    0.03422   -0.05747
BR3B  5    1.748942    0.402669    0.434131    10.25000    0.23534
PART   2
BR3A  5    1.550213    0.511304    0.309323    10.12500    0.11843
BR2A  5    1.481912    0.358835    0.264148    10.12500    0.06368
PART   3
CU6D  4    1.514930    0.433180    0.279641    10.25000    0.33198
BR3D  5    1.522926    0.533425    0.265768    10.12500    0.10259
BR2D  5    1.454106    0.354566    0.278023    10.12500    0.05393
PART   0

HKLF 4

REM  cek879_0m in C2/c
REM R1 =  0.0666 for    8030 Fo > 4sig(Fo)  and  0.1157 for all   12861 data
REM    606 parameters refined using      0 restraints

END

WGHT      0.0935     56.6802

REM Highest difference peak  1.943,  deepest hole -1.203,  1-sigma level  0.144
Q1    1   1.4540  0.3764  0.2215  11.00000  0.05    1.94
Q2    1   1.5000  0.3518  0.2500  10.50000  0.05    1.77
Q3    1   1.4383  0.3376  0.2818  11.00000  0.05    1.75
Q4    1   1.5617  0.4849  0.2538  11.00000  0.05    1.64
Q5    1   1.4783  0.3673  0.2880  11.00000  0.05    1.58
Q6    1   1.4600  0.3709  0.2717  11.00000  0.05    1.50
Q7    1   1.5222  0.3923  0.3279  11.00000  0.05    1.32
Q8    1   1.5612  0.5000  0.3399  11.00000  0.05    1.02
Q9    1   1.5432  0.5147  0.2774  11.00000  0.05    0.98
Q10   1   1.5000  0.5525  0.2500  10.50000  0.05    0.95
Q11   1   1.8385  0.4709 -0.1091  11.00000  0.05    0.84
Q12   1   1.7196  0.3968  0.3638  11.00000  0.05    0.82
Q13   1   1.8208  0.3906 -0.1866  11.00000  0.05    0.81
Q14   1   1.8529  0.4267 -0.2009  11.00000  0.05    0.75
Q15   1   1.8234 -0.0677 -0.0941  11.00000  0.05    0.71
;
_shelx_res_checksum              57790
loop_
_space_group_symop_operation_xyz
'x, y, z'
'-x, y, -z+1/2'
'x+1/2, y+1/2, z'
'-x+1/2, y+1/2, -z+1/2'
'-x, -y, -z'
'x, -y, z-1/2'
'-x+1/2, -y+1/2, -z'
'x+1/2, -y+1/2, z-1/2'
loop_
_atom_site_label
_atom_site_type_symbol
_atom_site_fract_x
_atom_site_fract_y
_atom_site_fract_z
_atom_site_U_iso_or_equiv
_atom_site_adp_type
_atom_site_occupancy
_atom_site_site_symmetry_order
_atom_site_calc_flag
_atom_site_refinement_flags_posn
_atom_site_refinement_flags_adp
_atom_site_refinement_flags_occupancy
_atom_site_disorder_assembly
_atom_site_disorder_group
Br1 Br 0.92428(3) 0.29094(2) 0.16465(3) 0.02413(16) Uani 1 1 d . . . . .
Cu3 Cu 1.73583(4) 0.20316(2) -0.08801(4) 0.02420(19) Uani 1 1 d . . . . .
Cu2 Cu 1.61640(4) 0.14964(3) -0.03683(4) 0.02390(19) Uani 1 1 d . . . . .
Cu1 Cu 1.63108(4) 0.26523(3) -0.03491(4) 0.0247(2) Uani 1 1 d . . . . .
Cu4 Cu 1.04645(4) 0.31950(3) 0.21609(4) 0.0268(2) Uani 1 1 d . . . . .
N1 N 1.5627(3) 0.23581(17) -0.0030(3) 0.0242(12) Uani 1 1 d . . . . .
N3 N 1.1254(3) 0.29126(18) 0.1858(3) 0.0234(11) Uani 1 1 d . . . . .
N4 N 1.6825(3) 0.11238(17) -0.0628(3) 0.0239(12) Uani 1 1 d . . . . .
N2 N 1.5518(3) 0.18631(17) -0.0077(2) 0.0226(11) Uani 1 1 d . . . . .
N5 N 1.7310(3) 0.13540(17) -0.0879(3) 0.0247(12) Uani 1 1 d . . . . .
C12 C 1.2395(3) 0.2591(2) 0.1418(3) 0.0264(14) Uani 1 1 d . . . . .
C25 C 1.8408(4) -0.0748(2) -0.1387(4) 0.0319(16) Uani 1 1 d . . . . .
C5 C 1.4708(4) 0.1252(2) 0.0143(4) 0.041(2) Uani 1 1 d . . . . .
H5A H 1.4989 0.1039 -0.0050 0.062 Uiso 1 1 calc R U . . .
H5B H 1.4206 0.1241 -0.0119 0.062 Uiso 1 1 calc R U . . .
H5C H 1.4750 0.1144 0.0585 0.062 Uiso 1 1 calc R U . . .
C3 C 1.4727(3) 0.2178(2) 0.0373(3) 0.0258(14) Uani 1 1 d . . . . .
C11 C 1.4209(4) 0.2589(3) 0.1161(4) 0.0345(17) Uani 1 1 d . . . . .
H11A H 1.4646 0.2758 0.1327 0.041 Uiso 1 1 calc R U . . .
C23 C 1.7381(4) -0.0307(2) -0.1286(4) 0.0400(18) Uani 1 1 d . . . . .
H23A H 1.6886 -0.0303 -0.1324 0.048 Uiso 1 1 calc R U . . .
C16 C 1.1685(3) 0.2525(2) 0.1050(3) 0.0289(15) Uani 1 1 d . . . . .
H16A H 1.1576 0.2368 0.0641 0.035 Uiso 1 1 calc R U . . .
C22 C 1.7793(3) 0.0104(2) -0.1056(4) 0.0304(16) Uani 1 1 d . . . . .
C4 C 1.4978(3) 0.1755(2) 0.0160(3) 0.0267(14) Uani 1 1 d . . . . .
C19 C 1.7483(3) 0.0564(2) -0.0931(3) 0.0282(15) Uani 1 1 d . . . . .
C6 C 1.4142(3) 0.2245(2) 0.0672(4) 0.0300(15) Uani 1 1 d . . . . .
C20 C 1.7711(3) 0.1017(2) -0.1048(3) 0.0239(14) Uani 1 1 d . . . . .
C9 C 1.2941(4) 0.2095(2) 0.0717(4) 0.0341(16) Uani 1 1 d . . . . .
H9A H 1.2506 0.1922 0.0562 0.041 Uiso 1 1 calc R U . . .
C14 C 1.1931(4) 0.2954(2) 0.2216(3) 0.0347(17) Uani 1 1 d . . . . .
H14A H 1.2021 0.3095 0.2635 0.042 Uiso 1 1 calc R U . . .
C13 C 1.2506(4) 0.2809(3) 0.2027(3) 0.0310(16) Uani 1 1 d . . . . .
H13A H 1.2976 0.2856 0.2306 0.037 Uiso 1 1 calc R U . . .
C2 C 1.5155(3) 0.2549(2) 0.0245(3) 0.0255(14) Uani 1 1 d . . . . .
C8 C 1.3001(3) 0.2446(2) 0.1180(3) 0.0268(15) Uani 1 1 d . . . . .
C1 C 1.5141(4) 0.3081(2) 0.0345(4) 0.0379(18) Uani 1 1 d . . . . .
H1A H 1.5513 0.3235 0.0195 0.057 Uiso 1 1 calc R U . . .
H1B H 1.5225 0.3149 0.0808 0.057 Uiso 1 1 calc R U . . .
H1C H 1.4673 0.3209 0.0099 0.057 Uiso 1 1 calc R U . . .
C24 C 1.7682(4) -0.0720(2) -0.1460(4) 0.043(2) Uani 1 1 d . . . . .
H24A H 1.7386 -0.0989 -0.1633 0.051 Uiso 1 1 calc R U . . .
C7 C 1.3509(4) 0.1988(2) 0.0468(4) 0.0329(16) Uani 1 1 d . . . . .
H7A H 1.3459 0.1738 0.0156 0.039 Uiso 1 1 calc R U . . .
C17 C 1.6494(4) 0.0301(3) -0.0403(4) 0.045(2) Uani 1 1 d . . . . .
H17A H 1.6147 0.0480 -0.0244 0.068 Uiso 1 1 calc R U . . .
H17B H 1.6808 0.0114 -0.0046 0.068 Uiso 1 1 calc R U . . .
H17C H 1.6240 0.0080 -0.0750 0.068 Uiso 1 1 calc R U . . .
C10 C 1.3647(4) 0.2685(3) 0.1403(4) 0.0380(18) Uani 1 1 d . . . . .
H10A H 1.3704 0.2923 0.1732 0.046 Uiso 1 1 calc R U . . .
C28 C 1.8746(3) -0.1172(2) -0.1610(3) 0.0293(15) Uani 1 1 d . . . . .
C27 C 1.8524(4) 0.0053(3) -0.0935(5) 0.053(2) Uani 1 1 d . . . . .
H27A H 1.8828 0.0309 -0.0729 0.064 Uiso 1 1 calc R U . . .
C18 C 1.6930(3) 0.0649(2) -0.0661(3) 0.0267(15) Uani 1 1 d . . . . .
C21 C 1.8268(4) 0.1171(2) -0.1352(4) 0.0389(18) Uani 1 1 d . . . . .
H21A H 1.8296 0.1525 -0.1350 0.058 Uiso 1 1 calc R U . . .
H21B H 1.8142 0.1053 -0.1800 0.058 Uiso 1 1 calc R U . . .
H21C H 1.8730 0.1037 -0.1105 0.058 Uiso 1 1 calc R U . . .
C15 C 1.1145(3) 0.2687(2) 0.1282(3) 0.0273(14) Uani 1 1 d . . . . .
H15A H 1.0667 0.2638 0.1022 0.033 Uiso 1 1 calc R U . . .
C26 C 1.8824(4) -0.0364(3) -0.1108(5) 0.052(2) Uani 1 1 d . . . . .
H26A H 1.9326 -0.0382 -0.1030 0.063 Uiso 1 1 calc R U . . .
N7 N 1.7412(3) 0.27022(17) -0.0924(3) 0.0234(11) Uani 1 1 d . . . . .
N8 N 1.6942(3) 0.29780(17) -0.0702(3) 0.0226(11) Uani 1 1 d . . . . .
C34 C 1.7800(3) 0.3009(2) -0.1175(3) 0.0242(14) Uani 1 1 d . . . . .
C35 C 1.7586(3) 0.3481(2) -0.1121(3) 0.0247(14) Uani 1 1 d . . . . .
C36 C 1.7042(3) 0.3443(2) -0.0819(3) 0.0223(13) Uani 1 1 d . . . . .
C33 C 1.8335(3) 0.2811(2) -0.1478(3) 0.0288(15) Uani 1 1 d . . . . .
H33A H 1.8359 0.2460 -0.1428 0.043 Uiso 1 1 calc R U . . .
H33B H 1.8804 0.2952 -0.1266 0.043 Uiso 1 1 calc R U . . .
H33C H 1.8192 0.2893 -0.1941 0.043 Uiso 1 1 calc R U . . .
C37 C 1.6597(3) 0.3825(2) -0.0639(3) 0.0286(15) Uani 1 1 d . . . . .
H37A H 1.6265 0.3675 -0.0434 0.043 Uiso 1 1 calc R U . . .
H37B H 1.6326 0.3998 -0.1031 0.043 Uiso 1 1 calc R U . . .
H37C H 1.6906 0.4052 -0.0336 0.043 Uiso 1 1 calc R U . . .
C30 C 1.8742(4) -0.1796(2) -0.2386(4) 0.0352(17) Uani 1 1 d . . . . .
H30A H 1.8489 -0.1972 -0.2761 0.042 Uiso 1 1 calc R U . . .
C29 C 1.8384(4) -0.1436(2) -0.2156(4) 0.0341(17) Uani 1 1 d . . . . .
H29A H 1.7896 -0.1370 -0.2370 0.041 Uiso 1 1 calc R U . . .
C38 C 1.7883(3) 0.3926(2) -0.1309(3) 0.0264(14) Uani 1 1 d . . . . .
C43 C 1.7452(4) 0.4328(3) -0.1568(4) 0.043(2) Uani 1 1 d . . . . .
H43A H 1.6954 0.4312 -0.1621 0.051 Uiso 1 1 calc R U . . .
C39 C 1.8607(4) 0.3970(2) -0.1234(4) 0.0365(17) Uani 1 1 d . . . . .
H39A H 1.8915 0.3706 -0.1063 0.044 Uiso 1 1 calc R U . . .
N6 N 1.9427(3) -0.19042(18) -0.2099(3) 0.0281(13) Uani 1 1 d . . . . .
C44 C 1.8792(4) 0.5222(2) -0.1836(3) 0.0308(16) Uani 1 1 d . . . . .
C32 C 1.9425(4) -0.1302(2) -0.1308(4) 0.0385(18) Uani 1 1 d . . . . .
H32A H 1.9681 -0.1140 -0.0922 0.046 Uiso 1 1 calc R U . . .
C31 C 1.9758(4) -0.1670(2) -0.1550(4) 0.0400(19) Uani 1 1 d . . . . .
H31A H 2.0233 -0.1757 -0.1319 0.048 Uiso 1 1 calc R U . . .
C41 C 1.8482(4) 0.4771(2) -0.1653(3) 0.0303(15) Uani 1 1 d . . . . .
C45 C 1.8444(5) 0.5488(3) -0.2393(4) 0.045(2) Uani 1 1 d . . . . .
H45A H 1.8002 0.5380 -0.2677 0.054 Uiso 1 1 calc R U . . .
C48 C 1.9423(4) 0.5401(3) -0.1443(4) 0.0425(19) Uani 1 1 d . . . . .
H48A H 1.9673 0.5230 -0.1063 0.051 Uiso 1 1 calc R U . . .
C40 C 1.8889(4) 0.4389(3) -0.1402(4) 0.0387(18) Uani 1 1 d . . . . .
H40A H 1.9388 0.4408 -0.1338 0.046 Uiso 1 1 calc R U . . .
C42 C 1.7733(4) 0.4746(3) -0.1747(4) 0.044(2) Uani 1 1 d . . . . .
H42A H 1.7432 0.5010 -0.1929 0.053 Uiso 1 1 calc R U . . .
C46 C 1.8756(4) 0.5910(3) -0.2522(4) 0.0409(19) Uani 1 1 d . . . . .
H46A H 1.8524 0.6080 -0.2909 0.049 Uiso 1 1 calc R U . . .
C47 C 1.9698(4) 0.5832(3) -0.1600(4) 0.045(2) Uani 1 1 d . . . . .
H47A H 2.0137 0.5946 -0.1319 0.054 Uiso 1 1 calc R U . . .
N9 N 1.9372(3) 0.60942(18) -0.2130(3) 0.0281(13) Uani 1 1 d . . . . .
Cu5 Cu 2.0000 -0.23408(4) -0.2500 0.0354(3) Uani 1 2 d S T P . .
Br2B Br 1.5295(3) 0.4349(2) 0.4242(4) 0.120(2) Uani 0.25 1 d . . P A 1
Cu6B Cu 1.6462(8) 0.4143(6) 0.4429(7) 0.227(6) Uani 0.25 1 d . . P A 1
Br3B Br 1.7489(7) 0.4027(5) 0.4341(7) 0.235(5) Uiso 0.25 1 d . . P A 1
Br3A Br 1.5502(8) 0.5113(5) 0.3093(7) 0.118(4) Uiso 0.125 1 d . . P B 2
Br2A Br 1.4819(5) 0.3588(3) 0.2641(4) 0.064(2) Uiso 0.125 1 d . . P C 2
Cu6D Cu 1.5149(15) 0.4332(7) 0.2796(11) 0.332(11) Uiso 0.25 1 d . . P D 3
Br3D Br 1.5229(6) 0.5334(4) 0.2658(6) 0.103(4) Uiso 0.125 1 d . . P D 3
Br2D Br 1.4541(4) 0.3546(3) 0.2780(4) 0.0539(18) Uiso 0.125 1 d . . P D 3
loop_
_atom_site_aniso_label
_atom_site_aniso_U_11
_atom_site_aniso_U_22
_atom_site_aniso_U_33
_atom_site_aniso_U_23
_atom_site_aniso_U_13
_atom_site_aniso_U_12
Br1 0.0231(3) 0.0254(3) 0.0274(3) -0.0016(3) 0.0129(3) -0.0017(2)
Cu3 0.0265(4) 0.0159(3) 0.0359(5) -0.0007(3) 0.0180(4) -0.0008(3)
Cu2 0.0252(4) 0.0192(4) 0.0340(5) -0.0022(3) 0.0191(4) 0.0011(3)
Cu1 0.0251(4) 0.0207(4) 0.0356(5) -0.0007(3) 0.0205(4) -0.0022(3)
Cu4 0.0277(4) 0.0213(4) 0.0405(5) 0.0002(3) 0.0242(4) -0.0029(3)
N1 0.025(3) 0.020(2) 0.036(3) -0.001(2) 0.022(3) -0.001(2)
N3 0.016(3) 0.030(3) 0.029(3) 0.000(2) 0.014(2) -0.002(2)
N4 0.027(3) 0.016(2) 0.034(3) 0.000(2) 0.017(3) 0.003(2)
N2 0.026(3) 0.022(2) 0.026(3) -0.005(2) 0.015(2) -0.001(2)
N5 0.022(3) 0.023(3) 0.032(3) -0.007(2) 0.014(3) -0.002(2)
C12 0.024(3) 0.033(3) 0.029(4) 0.002(3) 0.018(3) 0.001(3)
C25 0.028(4) 0.021(3) 0.046(5) -0.008(3) 0.010(3) 0.005(3)
C5 0.047(5) 0.032(4) 0.063(5) -0.002(3) 0.044(4) -0.009(3)
C3 0.022(3) 0.029(3) 0.031(4) -0.006(3) 0.015(3) -0.005(3)
C11 0.022(4) 0.047(4) 0.038(4) -0.012(3) 0.015(3) -0.006(3)
C23 0.035(4) 0.028(4) 0.059(5) -0.007(3) 0.019(4) 0.003(3)
C16 0.025(4) 0.041(4) 0.026(4) -0.003(3) 0.016(3) -0.005(3)
C22 0.021(3) 0.023(3) 0.047(5) -0.007(3) 0.011(3) 0.005(3)
C4 0.025(3) 0.026(3) 0.035(4) -0.006(3) 0.017(3) -0.007(3)
C19 0.026(4) 0.027(3) 0.033(4) -0.007(3) 0.010(3) 0.005(3)
C6 0.023(3) 0.034(4) 0.039(4) -0.001(3) 0.017(3) 0.002(3)
C20 0.020(3) 0.023(3) 0.030(4) -0.007(3) 0.009(3) -0.004(2)
C9 0.026(4) 0.041(4) 0.040(4) -0.006(3) 0.018(3) -0.005(3)
C14 0.040(4) 0.042(4) 0.030(4) -0.007(3) 0.023(4) -0.005(3)
C13 0.022(3) 0.049(4) 0.025(4) -0.002(3) 0.012(3) 0.003(3)
C2 0.031(4) 0.022(3) 0.031(4) -0.004(3) 0.020(3) 0.003(3)
C8 0.027(4) 0.033(3) 0.028(4) -0.002(3) 0.021(3) 0.001(3)
C1 0.032(4) 0.031(4) 0.060(5) -0.007(3) 0.028(4) -0.002(3)
C24 0.040(4) 0.020(3) 0.073(6) -0.009(3) 0.024(4) -0.002(3)
C7 0.030(4) 0.035(4) 0.044(4) -0.008(3) 0.026(4) -0.005(3)
C17 0.057(5) 0.029(4) 0.065(6) 0.006(4) 0.041(5) 0.001(3)
C10 0.033(4) 0.046(4) 0.043(5) -0.019(4) 0.024(4) -0.003(3)
C28 0.027(4) 0.024(3) 0.037(4) -0.003(3) 0.009(3) 0.008(3)
C27 0.044(5) 0.036(4) 0.078(7) -0.025(4) 0.017(5) -0.004(4)
C18 0.027(4) 0.017(3) 0.038(4) -0.001(3) 0.013(3) 0.004(3)
C21 0.036(4) 0.028(3) 0.064(5) -0.007(3) 0.032(4) -0.001(3)
C15 0.018(3) 0.040(4) 0.027(4) 0.002(3) 0.011(3) 0.000(3)
C26 0.035(4) 0.044(5) 0.071(6) -0.019(4) 0.006(4) 0.004(4)
N7 0.021(3) 0.021(3) 0.032(3) 0.001(2) 0.014(2) -0.003(2)
N8 0.025(3) 0.018(2) 0.030(3) -0.001(2) 0.015(2) 0.001(2)
C34 0.023(3) 0.025(3) 0.027(4) 0.002(3) 0.012(3) -0.008(3)
C35 0.022(3) 0.020(3) 0.030(4) 0.002(3) 0.004(3) -0.006(3)
C36 0.024(3) 0.019(3) 0.026(4) -0.003(2) 0.010(3) -0.004(2)
C33 0.025(3) 0.033(3) 0.035(4) -0.002(3) 0.019(3) 0.000(3)
C37 0.027(4) 0.024(3) 0.037(4) -0.007(3) 0.014(3) -0.002(3)
C30 0.044(5) 0.028(3) 0.031(4) -0.007(3) 0.007(4) 0.009(3)
C29 0.031(4) 0.025(3) 0.047(5) -0.004(3) 0.013(4) 0.010(3)
C38 0.025(3) 0.026(3) 0.030(4) 0.004(3) 0.010(3) -0.004(3)
C43 0.034(4) 0.032(4) 0.069(6) 0.001(4) 0.027(4) -0.008(3)
C39 0.032(4) 0.030(4) 0.049(5) 0.011(3) 0.012(4) 0.004(3)
N6 0.029(3) 0.017(2) 0.039(4) 0.000(2) 0.012(3) 0.004(2)
C44 0.038(4) 0.025(3) 0.032(4) 0.002(3) 0.014(3) -0.012(3)
C32 0.036(4) 0.023(3) 0.047(5) -0.017(3) -0.002(4) 0.007(3)
C31 0.025(4) 0.028(4) 0.065(6) -0.010(4) 0.010(4) 0.005(3)
C41 0.038(4) 0.019(3) 0.033(4) 0.004(3) 0.010(3) -0.012(3)
C45 0.057(5) 0.035(4) 0.038(5) -0.001(3) 0.006(4) -0.019(4)
C48 0.035(4) 0.037(4) 0.047(5) 0.021(4) -0.001(4) -0.010(3)
C40 0.031(4) 0.035(4) 0.054(5) 0.002(4) 0.020(4) -0.009(3)
C42 0.036(4) 0.035(4) 0.065(6) 0.009(4) 0.018(4) 0.000(3)
C46 0.055(5) 0.035(4) 0.026(4) 0.009(3) 0.002(4) -0.018(4)
C47 0.028(4) 0.040(4) 0.060(6) 0.014(4) 0.001(4) -0.018(3)
N9 0.033(3) 0.020(3) 0.034(3) 0.004(2) 0.014(3) -0.005(2)
Cu5 0.0417(7) 0.0169(5) 0.0608(9) 0.000 0.0359(7) 0.000
Br2B 0.094(4) 0.121(5) 0.142(6) -0.011(4) 0.030(4) 0.002(4)
Cu6B 0.218(14) 0.278(17) 0.172(12) -0.058(11) 0.034(10) -0.057(12)
loop_
_atom_type_symbol
_atom_type_description
_atom_type_scat_dispersion_real
_atom_type_scat_dispersion_imag
_atom_type_scat_source
C C 0.0033 0.0016 'International Tables Vol C Tables 4.2.6.8 and 6.1.1.4'
H H 0.0000 0.0000 'International Tables Vol C Tables 4.2.6.8 and 6.1.1.4'
N N 0.0061 0.0033 'International Tables Vol C Tables 4.2.6.8 and 6.1.1.4'
Cu Cu 0.3201 1.2651 'International Tables Vol C Tables 4.2.6.8 and 6.1.1.4'
Br Br -0.2901 2.4595 'International Tables Vol C Tables 4.2.6.8 and 6.1.1.4'
loop_
_geom_angle_atom_site_label_1
_geom_angle_atom_site_label_2
_geom_angle_atom_site_label_3
_geom_angle
_geom_angle_site_symmetry_1
_geom_angle_site_symmetry_3
Cu4 Br1 Cu5 65.65(3) . 5_855
Cu4 Br1 Cu4 63.29(3) . 2_755
Cu5 Br1 Cu4 63.80(3) 5_855 2_755
N7 Cu3 N5 177.1(2) . .
N4 Cu2 N2 177.9(2) . .
N8 Cu1 N1 175.7(2) . .
N9 Cu4 N3 103.1(2) 5_865 .
N9 Cu4 Br1 116.51(17) 5_865 .
N3 Cu4 Br1 118.10(16) . .
N9 Cu4 Br1 110.08(17) 5_865 2_755
N3 Cu4 Br1 103.67(16) . 2_755
Br1 Cu4 Br1 104.63(3) . 2_755
N9 Cu4 Cu4 99.27(15) 5_865 2_755
N3 Cu4 Cu4 154.21(15) . 2_755
Br1 Cu4 Cu4 60.77(3) . 2_755
Br1 Cu4 Cu4 55.95(3) 2_755 2_755
N9 Cu4 Cu5 159.75(15) 5_865 5_855
N3 Cu4 Cu5 95.72(14) . 5_855
Br1 Cu4 Cu5 58.70(2) . 5_855
Br1 Cu4 Cu5 57.30(2) 2_755 5_855
Cu4 Cu4 Cu5 60.760(18) 2_755 5_855
C2 N1 N2 108.0(4) . .
C2 N1 Cu1 130.8(4) . .
N2 N1 Cu1 121.1(3) . .
C14 N3 C15 115.9(5) . .
C14 N3 Cu4 120.7(4) . .
C15 N3 Cu4 123.4(4) . .
C18 N4 N5 107.4(5) . .
C18 N4 Cu2 133.7(4) . .
N5 N4 Cu2 118.8(3) . .
C4 N2 N1 108.4(4) . .
C4 N2 Cu2 134.2(4) . .
N1 N2 Cu2 117.2(3) . .
C20 N5 N4 108.1(5) . .
C20 N5 Cu3 131.5(4) . .
N4 N5 Cu3 120.2(3) . .
C16 C12 C13 116.2(5) . .
C16 C12 C8 122.3(6) . .
C13 C12 C8 121.5(6) . .
C26 C25 C24 117.9(6) . .
C26 C25 C28 119.2(6) . .
C24 C25 C28 123.0(6) . .
C4 C3 C2 105.0(5) . .
C4 C3 C6 129.6(6) . .
C2 C3 C6 125.4(6) . .
C10 C11 C6 120.7(6) . .
C24 C23 C22 121.1(7) . .
C15 C16 C12 119.8(6) . .
C27 C22 C23 116.2(6) . .
C27 C22 C19 120.9(6) . .
C23 C22 C19 122.9(6) . .
N2 C4 C3 109.4(5) . .
N2 C4 C5 121.1(5) . .
C3 C4 C5 129.5(5) . .
C20 C19 C18 104.9(5) . .
C20 C19 C22 125.5(6) . .
C18 C19 C22 129.5(6) . .
C7 C6 C11 117.7(6) . .
C7 C6 C3 122.3(6) . .
C11 C6 C3 119.9(6) . .
N5 C20 C19 109.7(5) . .
N5 C20 C21 118.9(5) . .
C19 C20 C21 131.3(6) . .
C8 C9 C7 121.3(6) . .
N3 C14 C13 124.8(6) . .
C14 C13 C12 119.4(7) . .
N1 C2 C3 109.2(5) . .
N1 C2 C1 119.8(5) . .
C3 C2 C1 131.0(5) . .
C9 C8 C10 117.8(5) . .
C9 C8 C12 122.5(6) . .
C10 C8 C12 119.6(6) . .
C25 C24 C23 121.2(7) . .
C6 C7 C9 120.6(6) . .
C11 C10 C8 121.8(6) . .
C32 C28 C29 117.0(6) . .
C32 C28 C25 121.6(6) . .
C29 C28 C25 121.3(6) . .
C22 C27 C26 121.9(7) . .
N4 C18 C19 109.8(5) . .
N4 C18 C17 119.9(5) . .
C19 C18 C17 130.2(6) . .
N3 C15 C16 123.8(6) . .
C25 C26 C27 121.0(7) . .
C34 N7 N8 107.5(5) . .
C34 N7 Cu3 133.8(4) . .
N8 N7 Cu3 118.6(3) . .
C36 N8 N7 108.4(4) . .
C36 N8 Cu1 134.0(4) . .
N7 N8 Cu1 117.5(3) . .
N7 C34 C35 109.8(5) . .
N7 C34 C33 119.6(5) . .
C35 C34 C33 130.6(5) . .
C34 C35 C36 104.8(5) . .
C34 C35 C38 127.7(6) . .
C36 C35 C38 127.4(6) . .
N8 C36 C35 109.5(5) . .
N8 C36 C37 120.2(5) . .
C35 C36 C37 130.2(5) . .
N6 C30 C29 122.5(7) . .
C28 C29 C30 119.5(7) . .
C39 C38 C43 116.8(6) . .
C39 C38 C35 121.1(6) . .
C43 C38 C35 122.1(6) . .
C42 C43 C38 122.0(7) . .
C40 C39 C38 121.2(6) . .
C30 N6 C31 117.5(6) . .
C30 N6 Cu5 123.2(5) . .
C31 N6 Cu5 119.0(4) . .
C48 C44 C45 117.7(6) . .
C48 C44 C41 120.2(6) . .
C45 C44 C41 122.1(6) . .
C28 C32 C31 121.4(7) . .
N6 C31 C32 121.8(7) . .
C40 C41 C42 119.0(6) . .
C40 C41 C44 121.8(6) . .
C42 C41 C44 119.2(6) . .
C46 C45 C44 118.7(7) . .
C44 C48 C47 120.3(7) . .
C41 C40 C39 122.3(7) . .
C43 C42 C41 118.7(7) . .
N9 C46 C45 124.0(7) . .
N9 C47 C48 123.2(7) . .
C47 N9 C46 116.1(5) . .
C47 N9 Cu4 121.3(5) . 5_865
C46 N9 Cu4 118.2(5) . 5_865
N6 Cu5 N6 106.1(3) 2_954 .
N6 Cu5 Br1 110.04(16) 2_954 6_655
N6 Cu5 Br1 113.71(16) . 6_655
N6 Cu5 Br1 113.71(16) 2_954 5_855
N6 Cu5 Br1 110.03(16) . 5_855
Br1 Cu5 Br1 103.47(5) 6_655 5_855
N6 Cu5 Cu4 156.20(15) 2_954 5_855
N6 Cu5 Cu4 97.72(15) . 5_855
Br1 Cu5 Cu4 58.91(3) 6_655 5_855
Br1 Cu5 Cu4 55.65(3) 5_855 5_855
N6 Cu5 Cu4 97.72(15) 2_954 6_655
N6 Cu5 Cu4 156.20(15) . 6_655
Br1 Cu5 Cu4 55.65(3) 6_655 6_655
Br1 Cu5 Cu4 58.91(3) 5_855 6_655
Cu4 Cu5 Cu4 58.49(4) 5_855 6_655
Br3B Cu6B Br2B 164.2(9) . .
Cu6D Cu6D Br2D 84.6(13) 2_855 .
Cu6D Cu6D Br2D 67.8(13) 2_855 2_855
Br2D Cu6D Br2D 56.6(6) . 2_855
Cu6D Cu6D Br3D 85.1(6) 2_855 .
Br2D Cu6D Br3D 155.6(12) . .
Br2D Cu6D Br3D 137.1(11) 2_855 .
Br3D Br3D Cu6D 90.3(6) 2_855 .
Br2D Br2D Cu6D 65.5(7) 2_855 .
Br2D Br2D Cu6D 57.8(6) 2_855 2_855
Cu6D Br2D Cu6D 27.6(10) . 2_855
loop_
_geom_bond_atom_site_label_1
_geom_bond_atom_site_label_2
_geom_bond_distance
_geom_bond_site_symmetry_2
Br1 Cu4 2.4568(10) .
Br1 Cu5 2.5427(9) 5_855
Br1 Cu4 2.5877(11) 2_755
Cu3 N7 1.864(5) .
Cu3 N5 1.879(5) .
Cu2 N4 1.867(5) .
Cu2 N2 1.870(5) .
Cu1 N8 1.864(5) .
Cu1 N1 1.865(5) .
Cu4 N9 1.999(5) 5_865
Cu4 N3 2.007(5) .
Cu4 Br1 2.5876(11) 2_755
Cu4 Cu4 2.6489(13) 2_755
Cu4 Cu5 2.7112(12) 5_855
N1 C2 1.344(7) .
N1 N2 1.387(7) .
N3 C14 1.330(9) .
N3 C15 1.349(8) .
N4 C18 1.336(7) .
N4 N5 1.380(6) .
N2 C4 1.337(7) .
N5 C20 1.338(7) .
C12 C16 1.399(9) .
C12 C13 1.403(9) .
C12 C8 1.482(8) .
C25 C26 1.367(10) .
C25 C24 1.387(9) .
C25 C28 1.495(8) .
C5 C4 1.488(9) .
C3 C4 1.400(8) .
C3 C2 1.403(8) .
C3 C6 1.482(8) .
C11 C10 1.376(8) .
C11 C6 1.398(9) .
C23 C24 1.390(9) .
C23 C22 1.398(9) .
C16 C15 1.372(8) .
C22 C27 1.386(10) .
C22 C19 1.472(8) .
C19 C20 1.377(9) .
C19 C18 1.392(8) .
C6 C7 1.385(9) .
C20 C21 1.491(8) .
C9 C8 1.372(9) .
C9 C7 1.403(8) .
C14 C13 1.367(9) .
C2 C1 1.492(9) .
C8 C10 1.386(10) .
C17 C18 1.501(9) .
C28 C32 1.348(9) .
C28 C29 1.390(10) .
C27 C26 1.396(10) .
N7 C34 1.355(7) .
N7 N8 1.385(6) .
N8 C36 1.336(7) .
C34 C35 1.389(8) .
C34 C33 1.493(8) .
C35 C36 1.406(8) .
C35 C38 1.469(8) .
C36 C37 1.495(8) .
C30 N6 1.338(9) .
C30 C29 1.393(9) .
C38 C39 1.386(9) .
C38 C43 1.411(10) .
C43 C42 1.383(10) .
C39 C40 1.379(9) .
N6 C31 1.339(9) .
N6 Cu5 2.011(5) .
C44 C48 1.369(10) .
C44 C45 1.404(10) .
C44 C41 1.492(8) .
C32 C31 1.390(9) .
C41 C40 1.340(10) .
C41 C42 1.424(10) .
C45 C46 1.385(9) .
C48 C47 1.391(9) .
C46 N9 1.355(9) .
C47 N9 1.346(9) .
N9 Cu4 1.999(5) 5_865
Cu5 N6 2.011(5) 2_954
Cu5 Br1 2.5427(9) 6_655
Cu5 Br1 2.5427(9) 5_855
Cu5 Cu4 2.7112(12) 5_855
Cu5 Cu4 2.7112(12) 6_655
Br2B Cu6B 2.278(17) .
Cu6B Br3B 2.10(2) .
Br3A Br3A 2.73(3) 2_855
Br2A Br2A 1.062(16) 2_855
Cu6D Cu6D 1.24(4) 2_855
Cu6D Br2D 2.48(2) .
Cu6D Br2D 2.66(2) 2_855
Cu6D Br3D 2.80(2) .
Br3D Br3D 0.95(2) 2_855
Br2D Br2D 2.444(16) 2_855
Br2D Cu6D 2.66(2) 2_855
loop_
_platon_squeeze_void_nr
_platon_squeeze_void_average_x
_platon_squeeze_void_average_y
_platon_squeeze_void_average_z
_platon_squeeze_void_volume
_platon_squeeze_void_count_electrons
_platon_squeeze_void_content
1 0.000 0.380 0.750 211 28 ' '
2 0.000 0.620 0.250 211 28 ' '
3 0.062 0.042 0.454 7 1 ' '
4 0.062 0.958 0.954 7 1 ' '
5 0.147 0.059 0.757 19 7 ' '
6 0.147 0.941 0.257 19 6 ' '
7 0.165 0.007 0.431 17 3 ' '
8 0.165 0.993 0.931 18 3 ' '
9 0.336 0.492 0.569 18 3 ' '
10 0.336 0.508 0.069 18 3 ' '
11 0.353 0.441 0.243 19 6 ' '
12 0.353 0.559 0.743 19 6 ' '
13 0.500 0.120 0.250 211 28 ' '
14 0.500 0.880 0.750 211 28 ' '
15 0.441 0.457 0.546 7 1 ' '
16 0.441 0.543 0.046 7 1 ' '
17 0.562 0.458 0.954 7 1 ' '
18 0.562 0.542 0.454 7 1 ' '
19 0.647 0.441 0.257 19 6 ' '
20 0.647 0.559 0.757 19 7 ' '
21 0.665 0.493 0.931 18 3 ' '
22 0.665 0.507 0.431 17 3 ' '
23 0.836 0.008 0.069 18 3 ' '
24 0.836 0.992 0.569 18 3 ' '
25 0.853 0.059 0.743 19 6 ' '
26 0.853 0.941 0.243 19 6 ' '
27 0.941 0.043 0.046 7 1 ' '
28 0.941 0.957 0.546 7 1 ' '
