#------------------------------------------------------------------------------
#$Date: 2017-05-06 01:10:37 +0300 (Sat, 06 May 2017) $
#$Revision: 196450 $
#$URL: file:///home/coder/svn-repositories/cod/cif/7/04/24/7042420.cif $
#------------------------------------------------------------------------------
#
# This file is available in the Crystallography Open Database (COD),
# http://www.crystallography.net/
#
# All data on this site have been placed in the public domain by the
# contributors.
#
data_7042420
loop_
_publ_author_name
'Han, Yongqiang'
'Yan, Pengfei'
'Sun, Jingwen'
'An, Guanghui'
'Yao, Xu'
'Li, Yuxin'
'Li, Guangming'
_publ_section_title
;
 Luminescence and white-light emitting luminescent sensor of
 tetrafluoroterephthalate-lanthanide metal-organic frameworks.
;
_journal_issue                   14
_journal_name_full
'Dalton transactions (Cambridge, England : 2003)'
_journal_page_first              4642
_journal_page_last               4653
_journal_paper_doi               10.1039/c7dt00215g
_journal_volume                  46
_journal_year                    2017
_chemical_formula_moiety         'C12 H4 F6 Gd O8)'
_chemical_formula_sum            'C12 H4 F6 Gd O8'
_chemical_formula_weight         547.40
_space_group_crystal_system      monoclinic
_space_group_IT_number           12
_space_group_name_Hall           '-C 2y'
_space_group_name_H-M_alt        'C 1 2/m 1'
_symmetry_space_group_name_Hall  '-C 2y'
_symmetry_space_group_name_H-M   'C 1 2/m 1'
_atom_sites_solution_hydrogens   difmap
_audit_creation_date             2017-03-03
_audit_creation_method
;
Olex2 1.2
(compiled 2017.03.02 svn.r3394 for OlexSys, GUI svn.r5324)
;
_audit_update_record
;
2017-03-08 deposited with the CCDC.
2017-03-09 downloaded from the CCDC.
;
_cell_angle_alpha                90
_cell_angle_beta                 124.941(5)
_cell_angle_gamma                90
_cell_formula_units_Z            4
_cell_length_a                   13.886(5)
_cell_length_b                   11.220(5)
_cell_length_c                   11.590(5)
_cell_measurement_reflns_used    1702
_cell_measurement_temperature    293(2)
_cell_measurement_theta_max      29.6488
_cell_measurement_theta_min      3.6244
_cell_volume                     1480.2(11)
_computing_data_collection
'CrysAlisPro, Agilent Technologies,Version 1.171.35.21 (release 20-01-2012 CrysAlis171 .NET)(compiled Jan 23 2012,18:06:46)'
_computing_molecular_graphics    'Olex2 (Dolomanov et al., 2009)'
_computing_publication_material  '(K. Brandenburg, Diamond 3.1, 2009)'
_computing_structure_refinement  'ShelXL (Sheldrick, 2015)'
_computing_structure_solution    'SHELXS-2016/6 (Sheldrick, 2015)'
_diffrn_ambient_temperature      293(2)
_diffrn_measured_fraction_theta_full 0.996
_diffrn_measured_fraction_theta_max 0.996
_diffrn_measurement_device_type  'multiwire proportional'
_diffrn_measurement_method       'phi and omega scans'
_diffrn_radiation_monochromator  graphite
_diffrn_radiation_type           MoK\a
_diffrn_radiation_wavelength     0.71069
_diffrn_reflns_av_R_equivalents  0.0540
_diffrn_reflns_av_unetI/netI     0.0535
_diffrn_reflns_Laue_measured_fraction_full 0.996
_diffrn_reflns_Laue_measured_fraction_max 0.996
_diffrn_reflns_limit_h_max       16
_diffrn_reflns_limit_h_min       -15
_diffrn_reflns_limit_k_max       13
_diffrn_reflns_limit_k_min       -13
_diffrn_reflns_limit_l_max       13
_diffrn_reflns_limit_l_min       -12
_diffrn_reflns_number            2885
_diffrn_reflns_point_group_measured_fraction_full 0.996
_diffrn_reflns_point_group_measured_fraction_max 0.996
_diffrn_reflns_theta_full        24.988
_diffrn_reflns_theta_max         24.988
_diffrn_reflns_theta_min         3.632
_exptl_absorpt_coefficient_mu    4.596
_exptl_absorpt_correction_T_max  0.550
_exptl_absorpt_correction_T_min  0.442
_exptl_absorpt_correction_type   multi-scan
_exptl_absorpt_process_details
;
CrysAlisPro, Agilent Technologies,
Version 1.171.35.21 (release 20-01-2012 CrysAlis171 .NET)
(compiled Jan 23 2012,18:06:46)
Empirical absorption correction using spherical harmonics,
 implemented in SCALE3 ABSPACK scaling algorithm.
;
_exptl_crystal_colour            colorless
_exptl_crystal_density_diffrn    2.456
_exptl_crystal_description       block
_exptl_crystal_F_000             1032
_exptl_crystal_size_max          0.18
_exptl_crystal_size_mid          0.16
_exptl_crystal_size_min          0.13
_refine_diff_density_max         1.194
_refine_diff_density_min         -2.200
_refine_diff_density_rms         0.222
_refine_ls_extinction_method     none
_refine_ls_goodness_of_fit_ref   1.081
_refine_ls_hydrogen_treatment    constr
_refine_ls_matrix_type           full
_refine_ls_number_parameters     134
_refine_ls_number_reflns         1379
_refine_ls_number_restraints     0
_refine_ls_restrained_S_all      1.081
_refine_ls_R_factor_all          0.0346
_refine_ls_R_factor_gt           0.0329
_refine_ls_shift/su_max          0.000
_refine_ls_shift/su_mean         0.000
_refine_ls_structure_factor_coef Fsqd
_refine_ls_weighting_details
'w=1/[\s^2^(Fo^2^)+(0.0484P)^2^] where P=(Fo^2^+2Fc^2^)/3'
_refine_ls_weighting_scheme      calc
_refine_ls_wR_factor_gt          0.0826
_refine_ls_wR_factor_ref         0.0837
_reflns_Friedel_coverage         0.000
_reflns_number_gt                1305
_reflns_number_total             1384
_reflns_threshold_expression     'I > 2\s(I)'
_cod_data_source_file            c7dt00215g2.cif
_cod_data_source_block           8-gd_sq
_cod_depositor_comments
'Adding full bibliography for 7042409--7042422.cif.'
_cod_database_code               7042420
_shelx_shelxl_version_number     2016/6
_shelx_space_group_comment
;
The symmetry employed for this shelxl refinement is uniquely defined
by the following loop, which should always be used as a source of
symmetry information in preference to the above space-group names.
They are only intended as comments.
;
_olex2_refinement_description
;
1. Fixed Uiso
 At 1.2 times of:
  All O(H,H) groups
2.a Riding coordinates:
 O3(H3A,H3B)
;
_shelx_res_file
;
TITL 123 in C2/m
    8-gd_sq.res
    created by SHELXL-2016/6 at 17:34:27 on 03-Mar-2017
CELL 0.71069 13.886 11.22 11.59 90 124.941 90
ZERR 4 0.005 0.005 0.005 0.005 0.005 0.005
LATT 7
SYMM -X,+Y,-Z
SFAC C H F Gd O
UNIT 48 16 24 4 32

L.S. 5 0 3
PLAN  25
fmap 2
acta
ABIN
MERG 2
OMIT -3 50
REM <olex2.extras>
REM <HklSrc "%.\\8-Gd.hkl">
REM </olex2.extras>

WGHT    0.048400
FVAR       0.09080
GD1   4    0.160282    0.000000    0.032465    10.50000    0.01439    0.00690 =
         0.01100    0.00000    0.00802    0.00000
O2    5   -0.041707    0.000000   -0.149677    10.50000    0.01888    0.02147 =
         0.01195    0.00000    0.00430    0.00000
O3    5    0.332459    0.129484    0.149921    11.00000    0.03147    0.03317 =
         0.03711   -0.01054    0.02167   -0.00930
AFIX   3
H3A   2    0.330619    0.197254    0.179281    11.00000   -1.20000
H3B   2    0.340899    0.131174    0.085761    11.00000   -1.20000
AFIX   0
O5    5    0.092023   -0.193369    0.029132    11.00000    0.02382    0.00838 =
         0.04563    0.00455    0.01804   -0.00046
F1    3   -0.100808   -0.380665   -0.245326    11.00000    0.04905    0.02046 =
         0.03326    0.01166    0.01704    0.00394
O4    5    0.234518    0.000000    0.286451    10.50000    0.02001    0.07864 =
         0.02189    0.00000    0.01373    0.00000
C2    1    0.000000   -0.375449    0.000000    10.50000    0.01815    0.00969 =
         0.03692    0.00000    0.01817    0.00000
O1    5    0.162687   -0.096966   -0.157156    11.00000    0.05967    0.03476 =
         0.02459    0.00861    0.03117    0.01826
C3    1   -0.051741   -0.438535   -0.122200    11.00000    0.02220    0.01237 =
         0.03403    0.00466    0.01684    0.00692
C1    1    0.000000   -0.240360    0.000000    10.50000    0.02409    0.00781 =
         0.03439    0.00000    0.01900    0.00000
C4    1    0.137081    0.000000    0.268839    10.50000    0.02323    0.02726 =
         0.01670    0.00000    0.00994    0.00000
C5    1    0.158552    0.000000   -0.212182    10.50000    0.02003    0.02506 =
         0.01302    0.00000    0.00895    0.00000
C7    1    0.134148    0.000000    0.396900    10.50000    0.01540    0.03813 =
         0.01230    0.00000    0.00681    0.00000
C6    1    0.147294    0.000000   -0.348583    10.50000    0.01914    0.02917 =
         0.01529    0.00000    0.01029    0.00000
F2    3    0.131126    0.207559    0.401683    11.00000    0.10134    0.02734 =
         0.03805    0.00523    0.04732   -0.00676
F3    3    0.143033    0.211038   -0.365594    11.00000    0.10116    0.02514 =
         0.04019   -0.00536    0.04826   -0.00053
C8    1    0.135728    0.104406    0.460138    11.00000    0.03501    0.01914 =
         0.02110    0.00280    0.01633   -0.00076
C9    1    0.141168    0.104529   -0.416082    11.00000    0.03341    0.02130 =
         0.02365   -0.00777    0.01748   -0.00047
HKLF 4




REM  123 in C2/m
REM R1 =  0.0329 for    1305 Fo > 4sig(Fo)  and  0.0346 for all    1379 data
REM    134 parameters refined using      0 restraints

END

WGHT      0.0484      0.0000

REM Highest difference peak  1.194,  deepest hole -2.200,  1-sigma level  0.222
Q1    1   0.2904  0.0000  0.0387  10.50000  0.05    1.19
Q2    1  -0.0411  0.0000 -0.0206  10.50000  0.05    1.03
Q3    1   0.2074  0.0628  0.1048  11.00000  0.05    0.89
Q4    1   0.1088  0.0635 -0.0376  11.00000  0.05    0.89
Q5    1   0.0152 -0.1065 -0.0388  11.00000  0.05    0.68
Q6    1  -0.0986 -0.0678 -0.0993  11.00000  0.05    0.63
Q7    1   0.2361 -0.0737 -0.0185  11.00000  0.05    0.62
Q8    1   0.2683  0.0986  0.0615  11.00000  0.05    0.62
Q9    1   0.0482  0.0000 -0.1213  10.50000  0.05    0.59
Q10   1   0.2262  0.0000  0.1810  10.50000  0.05    0.59
Q11   1   0.2182  0.2921  0.1638  11.00000  0.05    0.58
Q12   1  -0.0185  0.0000 -0.2237  10.50000  0.05    0.55
Q13   1   0.1720 -0.1359  0.0302  11.00000  0.05    0.53
Q14   1  -0.1732 -0.5000 -0.3393  10.50000  0.05    0.52
Q15   1   0.0190  0.0907 -0.1678  11.00000  0.05    0.52
Q16   1   0.0180  0.0967  0.2652  11.00000  0.05    0.50
Q17   1   0.0569  0.1159  0.4623  11.00000  0.05    0.50
Q18   1   0.2661  0.0000  0.5230  10.50000  0.05    0.49
Q19   1   0.2435  0.0000 -0.2409  10.50000  0.05    0.48
Q20   1   0.2870  0.0000  0.1966  10.50000  0.05    0.47
Q21   1   0.0201 -0.1199 -0.2178  11.00000  0.05    0.47
Q22   1   0.0166  0.1169 -0.1199  11.00000  0.05    0.47
Q23   1   0.0653  0.1920 -0.2998  11.00000  0.05    0.47
Q24   1   0.2928  0.1722  0.0158  11.00000  0.05    0.47
Q25   1  -0.0423  0.0000 -0.0945  10.50000  0.05    0.46
;
_shelx_res_checksum              70114
_shelx_fab_file
;
    0   12    0      0.81      0.00
    0   12    1     -0.23      0.00
    0   12    2     -0.95      0.00
    0   12    3      1.66      0.00
    0   12    4     -1.33      0.00
    0   10    0      1.55      0.00
    0   10    1     -0.99      0.00
    0   10    2     -0.30      0.00
    0   10    3      1.46      0.00
    0   10    4     -1.86      0.00
    0   10    5      1.44      0.00
    0   10    6     -0.63      0.00
    0   10    7     -0.02      0.00
    0    8    0      3.35      0.00
    0    8    1     -2.73      0.00
    0    8    2      1.10      0.00
    0    8    3      0.86      0.00
    0    8    4     -2.30      0.00
    0    8    5      2.52      0.00
    0    8    6     -1.49      0.00
    0    8    7     -0.02      0.00
    0    8    8      0.90      0.00
    0    8    9     -0.70      0.00
    0    6    0      8.54      0.00
    0    6    1     -6.95      0.00
    0    6    2      2.94      0.00
    0    6    3      1.60      0.00
    0    6    4     -4.61      0.00
    0    6    5      4.82      0.00
    0    6    6     -2.50      0.00
    0    6    7     -0.62      0.00
    0    6    8      2.46      0.00
    0    6    9     -2.20      0.00
    0    6   10      0.76      0.00
    0    4    0     13.39      0.00
    0    4    1    -10.76      0.00
    0    4    2      4.32      0.00
    0    4    3      2.62      0.00
    0    4    4     -6.95      0.00
    0    4    5      7.32      0.00
    0    4    6     -4.46      0.00
    0    4    7      0.49      0.00
    0    4    8      2.32      0.00
    0    4    9     -2.90      0.00
    0    4   10      1.90      0.00
    0    2    0     20.99      0.00
    0    2    1    -16.88      0.00
    0    2    2      7.08      0.00
    0    2    3      2.87      0.00
    0    2    4     -8.50      0.00
    0    2    5      8.73      0.00
    0    2    6     -5.38      0.00
    0    2    7      1.20      0.00
    0    2    8      1.69      0.00
    0    2    9     -2.59      0.00
    0    2   10      2.00      0.00
    0    2   11     -0.99      0.00
    0    0    2      9.89      0.00
    0    0    3      2.62      0.00
    0    0    4     -9.44      0.00
    0    0    5      9.57      0.00
    0    0    6     -5.70      0.00
    0    0    7      1.32      0.00
    0    0    8      1.41      0.00
    0    0    9     -2.04      0.00
    0    0   10      1.36      0.00
    0    0   11     -0.41      0.00
    1   13    1      0.15      0.00
    1   13    0     -0.66      0.00
   -1   13    1      0.33      0.00
   -1   13    2      0.52      0.00
    1   11    5     -0.57      0.00
    1   11    4      1.40      0.00
    1   11    3     -1.54      0.00
    1   11    2      0.72      0.00
    1   11    1      0.53      0.00
    1   11    0     -1.15      0.00
   -1   11    1      0.54      0.00
   -1   11    2      0.84      0.00
   -1   11    3     -1.88      0.00
   -1   11    4      1.86      0.00
   -1   11    5     -0.96      0.00
   -1   11    6     -0.05      0.00
    1    9    7      0.24      0.00
    1    9    6      0.64      0.00
    1    9    5     -1.41      0.00
    1    9    4      1.42      0.00
    1    9    3     -0.56      0.00
    1    9    2     -0.76      0.00
    1    9    1      1.82      0.00
    1    9    0     -2.05      0.00
   -1    9    1      1.28      0.00
   -1    9    2      0.11      0.00
   -1    9    3     -1.50      0.00
   -1    9    4      2.32      0.00
   -1    9    5     -2.31      0.00
   -1    9    6      1.56      0.00
   -1    9    7     -0.53      0.00
   -1    9    8     -0.15      0.00
    1    7    9      1.48      0.00
    1    7    8     -1.98      0.00
    1    7    7      0.88      0.00
    1    7    6      1.35      0.00
    1    7    5     -3.07      0.00
    1    7    4      2.85      0.00
    1    7    3     -0.60      0.00
    1    7    2     -2.50      0.00
    1    7    1      4.88      0.00
    1    7    0     -5.44      0.00
   -1    7    1      3.96      0.00
   -1    7    2     -1.13      0.00
   -1    7    3     -1.84      0.00
   -1    7    4      3.74      0.00
   -1    7    5     -3.82      0.00
   -1    7    6      2.18      0.00
   -1    7    7      0.10      0.00
   -1    7    8     -1.54      0.00
   -1    7    9      1.39      0.00
   -1    7   10     -0.25      0.00
    1    5    9      2.06      0.00
    1    5    8     -2.15      0.00
    1    5    7      0.10      0.00
    1    5    6      3.29      0.00
    1    5    5     -5.76      0.00
    1    5    4      5.24      0.00
    1    5    3     -1.32      0.00
    1    5    2     -4.44      0.00
    1    5    1      9.35      0.00
    1    5    0    -10.92      0.00
   -1    5    1      8.27      0.00
   -1    5    2     -2.68      0.00
   -1    5    3     -3.17      0.00
   -1    5    4      6.70      0.00
   -1    5    5     -6.74      0.00
   -1    5    6      3.85      0.00
   -1    5    7      0.01      0.00
   -1    5    8     -2.62      0.00
   -1    5    9      2.89      0.00
   -1    5   10     -1.50      0.00
    1    3   10     -1.36      0.00
    1    3    9      1.92      0.00
    1    3    8     -1.19      0.00
    1    3    7     -1.40      0.00
    1    3    6      4.95      0.00
    1    3    5     -7.41      0.00
    1    3    4      6.68      0.00
    1    3    3     -1.82      0.00
    1    3    2     -5.93      0.00
    1    3    1     13.16      0.00
    1    3    0    -15.86      0.00
   -1    3    1     12.17      0.00
   -1    3    2     -3.97      0.00
   -1    3    3     -4.36      0.00
   -1    3    4      9.02      0.00
   -1    3    5     -8.84      0.00
   -1    3    6      5.22      0.00
   -1    3    7     -0.69      0.00
   -1    3    8     -2.54      0.00
   -1    3    9      3.51      0.00
   -1    3   10     -2.70      0.00
   -1    3   11      1.36      0.00
    1    1   10     -1.16      0.00
    1    1    9      1.66      0.00
    1    1    8     -0.91      0.00
    1    1    7     -1.63      0.00
    1    1    6      5.33      0.00
    1    1    5     -8.24      0.00
    1    1    4      7.59      0.00
    1    1    3     -1.43      0.00
    1    1    2     -9.34      0.00
    1    1    1     19.97      0.00
   -1    1    2     -6.72      0.00
   -1    1    3     -5.28      0.00
   -1    1    4     11.51      0.00
   -1    1    5    -10.85      0.00
   -1    1    6      6.10      0.00
   -1    1    7     -1.02      0.00
   -1    1    8     -2.06      0.00
   -1    1    9      2.76      0.00
   -1    1   10     -1.97      0.00
   -1    1   11      0.88      0.00
    2   12    3      1.35      0.00
    2   12    2     -0.89      0.00
    2   12    1     -0.15      0.00
    2   12    0      0.84      0.00
   -2   12    1     -0.50      0.00
   -2   12    2     -0.57      0.00
   -2   12    3      1.35      0.00
   -2   12    4     -1.10      0.00
   -2   12    5      0.09      0.00
    2   10    6      0.17      0.00
    2   10    5      0.54      0.00
    2   10    4     -1.00      0.00
    2   10    3      0.76      0.00
    2   10    2      0.16      0.00
    2   10    1     -1.18      0.00
    2   10    0      1.52      0.00
   -2   10    1     -0.78      0.00
   -2   10    2     -0.61      0.00
   -2   10    3      1.80      0.00
   -2   10    4     -2.13      0.00
   -2   10    5      1.58      0.00
   -2   10    6     -0.64      0.00
   -2   10    7     -0.17      0.00
   -2   10    8      0.51      0.00
    2    8    7     -0.87      0.00
    2    8    6     -0.50      0.00
    2    8    5      1.70      0.00
    2    8    4     -1.65      0.00
    2    8    3      0.24      0.00
    2    8    2      1.65      0.00
    2    8    1     -2.90      0.00
    2    8    0      2.87      0.00
   -2    8    1     -1.62      0.00
   -2    8    2     -0.24      0.00
   -2    8    3      1.94      0.00
   -2    8    4     -2.90      0.00
   -2    8    5      2.85      0.00
   -2    8    6     -1.86      0.00
   -2    8    7      0.41      0.00
   -2    8    8      0.67      0.00
   -2    8    9     -0.80      0.00
    2    6    9     -1.44      0.00
    2    6    8      1.98      0.00
    2    6    7     -0.73      0.00
    2    6    6     -1.94      0.00
    2    6    5      4.08      0.00
    2    6    4     -3.75      0.00
    2    6    3      0.63      0.00
    2    6    2      3.77      0.00
    2    6    1     -7.16      0.00
    2    6    0      7.77      0.00
   -2    6    1     -5.28      0.00
   -2    6    2      0.91      0.00
   -2    6    3      3.33      0.00
   -2    6    4     -5.70      0.00
   -2    6    5      5.46      0.00
   -2    6    6     -3.08      0.00
   -2    6    7      0.02      0.00
   -2    6    8      1.98      0.00
   -2    6    9     -2.00      0.00
   -2    6   10      0.62      0.00
    2    4    9     -1.03      0.00
    2    4    8      0.85      0.00
    2    4    7      1.08      0.00
    2    4    6     -4.10      0.00
    2    4    5      6.16      0.00
    2    4    4     -5.25      0.00
    2    4    3      0.89      0.00
    2    4    2      5.43      0.00
    2    4    1    -10.80      0.00
    2    4    0     12.32      0.00
   -2    4    1     -8.86      0.00
   -2    4    2      1.98      0.00
   -2    4    3      4.91      0.00
   -2    4    4     -8.71      0.00
   -2    4    5      8.33      0.00
   -2    4    6     -4.83      0.00
   -2    4    7      0.43      0.00
   -2    4    8      2.68      0.00
   -2    4    9     -3.42      0.00
   -2    4   10      2.27      0.00
   -2    4   11     -0.66      0.00
    2    2   10      0.79      0.00
    2    2    9     -1.14      0.00
    2    2    8      0.40      0.00
    2    2    7      1.88      0.00
    2    2    6     -4.99      0.00
    2    2    5      7.11      0.00
    2    2    4     -6.20      0.00
    2    2    3      1.16      0.00
    2    2    2      6.98      0.00
    2    2    1    -14.68      0.00
    2    2    0     17.37      0.00
   -2    2    1    -12.65      0.00
   -2    2    2      2.62      0.00
   -2    2    3      7.26      0.00
   -2    2    4    -12.16      0.00
   -2    2    5     10.95      0.00
   -2    2    6     -5.96      0.00
   -2    2    7      0.62      0.00
   -2    2    8      2.75      0.00
   -2    2    9     -3.59      0.00
   -2    2   10      2.67      0.00
   -2    2   11     -1.28      0.00
   -2    2   12      0.30      0.00
    2    0   10      0.96      0.00
    2    0    9     -1.39      0.00
    2    0    8      0.64      0.00
    2    0    7      1.71      0.00
    2    0    6     -5.03      0.00
    2    0    5      7.49      0.00
    2    0    4     -6.71      0.00
    2    0    3      1.00      0.00
    2    0    2      8.79      0.00
    2    0    1    -18.38      0.00
   -2    0    2      3.35      0.00
   -2    0    3      8.99      0.00
   -2    0    4    -14.89      0.00
   -2    0    5     13.09      0.00
   -2    0    6     -6.94      0.00
   -2    0    7      0.90      0.00
   -2    0    8      2.44      0.00
   -2    0    9     -2.95      0.00
   -2    0   10      1.91      0.00
   -2    0   11     -0.73      0.00
   -2    0   12      0.11      0.00
    3   13    0     -0.65      0.00
   -3   13    1      0.57      0.00
   -3   13    2      0.06      0.00
    3   11    4      0.89      0.00
    3   11    3     -1.07      0.00
    3   11    2      0.46      0.00
    3   11    1      0.59      0.00
    3   11    0     -1.21      0.00
   -3   11    1      0.78      0.00
   -3   11    2      0.41      0.00
   -3   11    3     -1.37      0.00
   -3   11    4      1.30      0.00
   -3   11    5     -0.32      0.00
   -3   11    6     -0.80      0.00
   -3   11    7      1.33      0.00
    3    9    6     -0.06      0.00
    3    9    5     -0.76      0.00
    3    9    4      0.97      0.00
    3    9    3     -0.26      0.00
    3    9    2     -0.94      0.00
    3    9    1      1.83      0.00
    3    9    0     -1.81      0.00
   -3    9    1      0.84      0.00
   -3    9    2      0.55      0.00
   -3    9    3     -1.66      0.00
   -3    9    4      2.06      0.00
   -3    9    5     -1.72      0.00
   -3    9    6      0.90      0.00
   -3    9    7      0.07      0.00
   -3    9    8     -0.80      0.00
   -3    9    9      0.96      0.00
    3    7    7      0.96      0.00
    3    7    6      0.90      0.00
    3    7    5     -2.61      0.00
    3    7    4      2.59      0.00
    3    7    3     -0.53      0.00
    3    7    2     -2.38      0.00
    3    7    1      4.37      0.00
    3    7    0     -4.34      0.00
   -3    7    1      2.38      0.00
   -3    7    2      0.47      0.00
   -3    7    3     -2.89      0.00
   -3    7    4      3.99      0.00
   -3    7    5     -3.55      0.00
   -3    7    6      1.95      0.00
   -3    7    7      0.01      0.00
   -3    7    8     -1.33      0.00
   -3    7    9      1.37      0.00
   -3    7   10     -0.39      0.00
    3    5    8     -0.95      0.00
    3    5    7     -0.23      0.00
    3    5    6      2.72      0.00
    3    5    5     -4.65      0.00
    3    5    4      3.99      0.00
    3    5    3     -0.28      0.00
    3    5    2     -4.91      0.00
    3    5    1      8.92      0.00
    3    5    0     -9.56      0.00
   -3    5    1      6.29      0.00
   -3    5    2     -0.61      0.00
   -3    5    3     -4.78      0.00
   -3    5    4      7.57      0.00
   -3    5    5     -6.99      0.00
   -3    5    6      3.94      0.00
   -3    5    7     -0.25      0.00
   -3    5    8     -2.22      0.00
   -3    5    9      2.53      0.00
   -3    5   10     -1.15      0.00
   -3    5   11     -0.46      0.00
    3    3    9      0.39      0.00
    3    3    8     -0.04      0.00
    3    3    7     -1.65      0.00
    3    3    6      4.14      0.00
    3    3    5     -5.74      0.00
    3    3    4      4.65      0.00
    3    3    3     -0.36      0.00
    3    3    2     -5.89      0.00
    3    3    1     11.28      0.00
    3    3    0    -12.68      0.00
   -3    3    1      8.61      0.00
   -3    3    2     -0.69      0.00
   -3    3    3     -7.04      0.00
   -3    3    4     10.84      0.00
   -3    3    5     -9.64      0.00
   -3    3    6      5.15      0.00
   -3    3    7     -0.21      0.00
   -3    3    8     -3.03      0.00
   -3    3    9      3.78      0.00
   -3    3   10     -2.63      0.00
   -3    3   11      0.91      0.00
   -3    3   12      0.27      0.00
    3    1    9      1.21      0.00
    3    1    8     -0.51      0.00
    3    1    7     -1.57      0.00
    3    1    6      4.40      0.00
    3    1    5     -6.32      0.00
    3    1    4      5.46      0.00
    3    1    3     -0.77      0.00
    3    1    2     -6.86      0.00
    3    1    1     14.05      0.00
    3    1    0    -16.23      0.00
   -3    1    1     10.72      0.00
   -3    1    2      0.37      0.00
   -3    1    3    -11.07      0.00
   -3    1    4     15.79      0.00
   -3    1    5    -13.29      0.00
   -3    1    6      6.68      0.00
   -3    1    7     -0.35      0.00
   -3    1    8     -3.08      0.00
   -3    1    9      3.47      0.00
   -3    1   10     -2.18      0.00
   -3    1   11      0.74      0.00
   -3    1   12      0.05      0.00
    4   12    2     -0.64      0.00
    4   12    1     -0.15      0.00
    4   12    0      0.80      0.00
   -4   12    1     -0.71      0.00
   -4   12    2     -0.06      0.00
   -4   12    3      0.67      0.00
   -4   12    4     -0.42      0.00
   -4   12    5     -0.57      0.00
    4   10    5      0.37      0.00
    4   10    4     -0.77      0.00
    4   10    3      0.53      0.00
    4   10    2      0.33      0.00
    4   10    1     -1.28      0.00
    4   10    0      1.62      0.00
   -4   10    1     -0.99      0.00
   -4   10    2     -0.22      0.00
   -4   10    3      1.17      0.00
   -4   10    4     -1.26      0.00
   -4   10    5      0.53      0.00
   -4   10    6      0.44      0.00
   -4   10    7     -1.14      0.00
   -4   10    8      1.35      0.00
    4    8    6     -0.34      0.00
    4    8    5      1.48      0.00
    4    8    4     -1.64      0.00
    4    8    3      0.44      0.00
    4    8    2      1.35      0.00
    4    8    1     -2.52      0.00
    4    8    0      2.35      0.00
   -4    8    1     -1.01      0.00
   -4    8    2     -0.68      0.00
   -4    8    3      1.85      0.00
   -4    8    4     -2.12      0.00
   -4    8    5      1.61      0.00
   -4    8    6     -0.65      0.00
   -4    8    7     -0.43      0.00
   -4    8    8      1.24      0.00
   -4    8    9     -1.40      0.00
   -4    8   10      0.89      0.00
    4    6    7     -0.47      0.00
    4    6    6     -1.43      0.00
    4    6    5      3.22      0.00
    4    6    4     -3.05      0.00
    4    6    3      0.40      0.00
    4    6    2      3.39      0.00
    4    6    1     -6.11      0.00
    4    6    0      6.14      0.00
   -4    6    1     -3.43      0.00
   -4    6    2     -0.64      0.00
   -4    6    3      4.12      0.00
   -4    6    4     -5.55      0.00
   -4    6    5      4.69      0.00
   -4    6    6     -2.33      0.00
   -4    6    7     -0.26      0.00
   -4    6    8      1.85      0.00
   -4    6    9     -1.82      0.00
   -4    6   10      0.56      0.00
   -4    6   11      0.77      0.00
    4    4    8      0.19      0.00
    4    4    7      0.75      0.00
    4    4    6     -2.71      0.00
    4    4    5      4.12      0.00
    4    4    4     -3.19      0.00
    4    4    3     -0.53      0.00
    4    4    2      5.65      0.00
    4    4    1     -9.62      0.00
    4    4    0     10.14      0.00
   -4    4    1     -6.47      0.00
   -4    4    2      0.07      0.00
   -4    4    3      5.97      0.00
   -4    4    4     -8.87      0.00
   -4    4    5      7.78      0.00
   -4    4    6     -4.01      0.00
   -4    4    7     -0.16      0.00
   -4    4    8      2.84      0.00
   -4    4    9     -3.24      0.00
   -4    4   10      1.87      0.00
   -4    4   11     -0.05      0.00
   -4    4   12     -1.00      0.00
    4    2    8      0.27      0.00
    4    2    7      1.21      0.00
    4    2    6     -3.34      0.00
    4    2    5      4.66      0.00
    4    2    4     -3.63      0.00
    4    2    3     -0.27      0.00
    4    2    2      5.97      0.00
    4    2    1    -10.89      0.00
    4    2    0     11.88      0.00
   -4    2    1     -7.25      0.00
   -4    2    2     -1.43      0.00
   -4    2    3      9.70      0.00
   -4    2    4    -13.22      0.00
   -4    2    5     10.85      0.00
   -4    2    6     -5.01      0.00
   -4    2    7     -0.65      0.00
   -4    2    8      3.75      0.00
   -4    2    9     -3.98      0.00
   -4    2   10      2.45      0.00
   -4    2   11     -0.63      0.00
   -4    2   12     -0.49      0.00
    4    0    9     -1.39      0.00
    4    0    8      0.81      0.00
    4    0    7      0.99      0.00
    4    0    6     -3.41      0.00
    4    0    5      4.98      0.00
    4    0    4     -4.09      0.00
    4    0    3      0.03      0.00
    4    0    2      6.27      0.00
    4    0    1    -11.96      0.00
    4    0    0     13.17      0.00
   -4    0    1     -7.57      0.00
   -4    0    2     -3.04      0.00
   -4    0    3     13.08      0.00
   -4    0    4    -17.08      0.00
   -4    0    5     13.70      0.00
   -4    0    6     -6.25      0.00
   -4    0    7     -0.52      0.00
   -4    0    8      3.81      0.00
   -4    0    9     -3.69      0.00
   -4    0   10      1.93      0.00
   -4    0   11     -0.28      0.00
   -4    0   12     -0.45      0.00
   -4   12    6      1.49      0.00
    5   11    3     -0.72      0.00
    5   11    2      0.20      0.00
    5   11    1      0.64      0.00
    5   11    0     -1.18      0.00
   -5   11    1      0.88      0.00
   -5   11    2      0.05      0.00
   -5   11    3     -0.81      0.00
   -5   11    4      0.68      0.00
   -5   11    5      0.27      0.00
    5    9    5     -0.77      0.00
    5    9    4      0.97      0.00
    5    9    3     -0.30      0.00
    5    9    2     -0.91      0.00
    5    9    1      1.87      0.00
    5    9    0     -1.92      0.00
   -5    9    1      1.05      0.00
   -5    9    2      0.17      0.00
   -5    9    3     -0.99      0.00
   -5    9    4      1.03      0.00
   -5    9    5     -0.45      0.00
   -5    9    6     -0.29      0.00
   -5    9    7      0.91      0.00
   -5    9    8     -1.30      0.00
   -5    9    9      1.37      0.00
    5    7    6      0.73      0.00
    5    7    5     -2.07      0.00
    5    7    4      2.20      0.00
    5    7    3     -0.58      0.00
    5    7    2     -1.85      0.00
    5    7    1      3.48      0.00
    5    7    0     -3.28      0.00
   -5    7    1      1.41      0.00
   -5    7    2      1.00      0.00
   -5    7    3     -2.69      0.00
   -5    7    4      2.97      0.00
   -5    7    5     -2.04      0.00
   -5    7    6      0.52      0.00
   -5    7    7      0.89      0.00
   -5    7    8     -1.68      0.00
   -5    7    9      1.58      0.00
   -5    7   10     -0.75      0.00
   -5    7   11     -0.19      0.00
    5    5    7      0.18      0.00
    5    5    6      1.33      0.00
    5    5    5     -2.76      0.00
    5    5    4      2.36      0.00
    5    5    3      0.46      0.00
    5    5    2     -4.42      0.00
    5    5    1      7.26      0.00
    5    5    0     -7.20      0.00
   -5    5    1      3.97      0.00
   -5    5    2      0.96      0.00
   -5    5    3     -5.24      0.00
   -5    5    4      6.94      0.00
   -5    5    5     -5.67      0.00
   -5    5    6      2.53      0.00
   -5    5    7      0.71      0.00
   -5    5    8     -2.59      0.00
   -5    5    9      2.58      0.00
   -5    5   10     -1.16      0.00
   -5    5   11     -0.46      0.00
   -5    5   12      1.18      0.00
    5    3    8     -0.26      0.00
    5    3    7     -0.49      0.00
    5    3    6      1.97      0.00
    5    3    5     -2.96      0.00
    5    3    4      2.00      0.00
    5    3    3      1.32      0.00
    5    3    2     -5.81      0.00
    5    3    1      9.25      0.00
    5    3    0     -9.46      0.00
   -5    3    1      5.59      0.00
   -5    3    2      1.05      0.00
   -5    3    3     -7.21      0.00
   -5    3    4      9.78      0.00
   -5    3    5     -7.86      0.00
   -5    3    6      3.19      0.00
   -5    3    7      1.42      0.00
   -5    3    8     -3.95      0.00
   -5    3    9      3.97      0.00
   -5    3   10     -2.31      0.00
   -5    3   11      0.31      0.00
   -5    3   12      0.94      0.00
    5    1    8     -0.63      0.00
    5    1    7     -0.61      0.00
    5    1    6      2.36      0.00
    5    1    5     -3.36      0.00
    5    1    4      2.31      0.00
    5    1    3      1.18      0.00
    5    1    2     -6.08      0.00
    5    1    1     10.09      0.00
    5    1    0    -10.40      0.00
   -5    1    1      5.45      0.00
   -5    1    2      3.32      0.00
   -5    1    3    -11.46      0.00
   -5    1    4     14.45      0.00
   -5    1    5    -11.08      0.00
   -5    1    6      4.17      0.00
   -5    1    7      1.99      0.00
   -5    1    8     -4.76      0.00
   -5    1    9      4.23      0.00
   -5    1   10     -2.11      0.00
   -5    1   11      0.12      0.00
   -5    1   12      0.83      0.00
   -5    1   13     -0.82      0.00
   -5   11    6     -1.30      0.00
   -5   11    7      1.69      0.00
   -6   12    1     -0.40      0.00
   -6   12    2     -0.16      0.00
   -6   12    3      0.62      0.00
   -6   12    4     -0.41      0.00
   -6   12    5     -0.43      0.00
    6   10    3      0.33      0.00
    6   10    2      0.48      0.00
    6   10    1     -1.33      0.00
    6   10    0      1.61      0.00
   -6   10    1     -1.04      0.00
   -6   10    2     -0.04      0.00
   -6   10    3      0.86      0.00
   -6   10    4     -0.86      0.00
   -6   10    5      0.14      0.00
   -6   10    6      0.68      0.00
   -6   10    7     -1.10      0.00
    6    8    5      1.18      0.00
    6    8    4     -1.30      0.00
    6    8    3      0.34      0.00
    6    8    2      1.21      0.00
    6    8    1     -2.26      0.00
    6    8    0      2.12      0.00
   -6    8    1     -0.95      0.00
   -6    8    2     -0.47      0.00
   -6    8    3      1.27      0.00
   -6    8    4     -1.14      0.00
   -6    8    5      0.40      0.00
   -6    8    6      0.42      0.00
   -6    8    7     -1.00      0.00
   -6    8    8      1.29      0.00
   -6    8    9     -1.25      0.00
   -6    8   10      0.88      0.00
    6    6    6     -0.64      0.00
    6    6    5      1.86      0.00
    6    6    4     -1.89      0.00
    6    6    3      0.10      0.00
    6    6    2      2.58      0.00
    6    6    1     -4.36      0.00
    6    6    0      3.99      0.00
   -6    6    1     -1.54      0.00
   -6    6    2     -1.69      0.00
   -6    6    3      4.06      0.00
   -6    6    4     -4.50      0.00
   -6    6    5      3.07      0.00
   -6    6    6     -0.72      0.00
   -6    6    7     -1.37      0.00
   -6    6    8      2.37      0.00
   -6    6    9     -2.06      0.00
   -6    6   10      0.85      0.00
   -6    6   11      0.40      0.00
   -6    6   12     -0.89      0.00
    6    4    7     -0.29      0.00
    6    4    6     -0.78      0.00
    6    4    5      1.79      0.00
    6    4    4     -1.29      0.00
    6    4    3     -1.25      0.00
    6    4    2      4.74      0.00
    6    4    1     -7.15      0.00
    6    4    0      6.82      0.00
   -6    4    1     -3.45      0.00
   -6    4    2     -1.65      0.00
   -6    4    3      6.06      0.00
   -6    4    4     -7.61      0.00
   -6    4    5      5.80      0.00
   -6    4    6     -1.97      0.00
   -6    4    7     -1.72      0.00
   -6    4    8      3.67      0.00
   -6    4    9     -3.48      0.00
   -6    4   10      1.82      0.00
   -6    4   11      0.06      0.00
   -6    4   12     -1.10      0.00
    6    2    7      0.24      0.00
    6    2    6     -1.35      0.00
    6    2    5      2.01      0.00
    6    2    4     -1.03      0.00
    6    2    3     -1.88      0.00
    6    2    2      5.68      0.00
    6    2    1     -8.41      0.00
    6    2    0      8.17      0.00
   -6    2    1     -4.16      0.00
   -6    2    2     -2.40      0.00
   -6    2    3      8.32      0.00
   -6    2    4    -10.32      0.00
   -6    2    5      7.48      0.00
   -6    2    6     -1.91      0.00
   -6    2    7     -3.03      0.00
   -6    2    8      5.15      0.00
   -6    2    9     -4.41      0.00
   -6    2   10      2.19      0.00
   -6    2   11     -0.04      0.00
   -6    2   12     -1.14      0.00
   -6    2   13      1.23      0.00
    6    0    7      0.46      0.00
    6    0    6     -1.67      0.00
    6    0    5      2.24      0.00
    6    0    4     -1.06      0.00
    6    0    3     -2.07      0.00
    6    0    2      6.11      0.00
    6    0    1     -9.07      0.00
    6    0    0      8.76      0.00
   -6    0    1     -4.05      0.00
   -6    0    2     -3.76      0.00
   -6    0    3     10.81      0.00
   -6    0    4    -13.06      0.00
   -6    0    5      9.34      0.00
   -6    0    6     -2.38      0.00
   -6    0    7     -3.54      0.00
   -6    0    8      5.80      0.00
   -6    0    9     -4.63      0.00
   -6    0   10      2.01      0.00
   -6    0   11      0.18      0.00
   -6    0   12     -1.10      0.00
   -6    0   13      0.95      0.00
   -6   10    8      1.06      0.00
   -6   10    9     -0.77      0.00
    7   11    0     -0.85      0.00
   -7   11    1      0.53      0.00
   -7   11    2      0.26      0.00
   -7   11    3     -0.90      0.00
   -7   11    4      0.81      0.00
   -7   11    5     -0.03      0.00
   -7   11    6     -0.80      0.00
   -7   11    7      1.02      0.00
    7    9    3     -0.10      0.00
    7    9    2     -0.90      0.00
    7    9    1      1.71      0.00
    7    9    0     -1.73      0.00
   -7    9    1      0.92      0.00
   -7    9    2      0.19      0.00
   -7    9    3     -0.90      0.00
   -7    9    4      0.85      0.00
   -7    9    5     -0.26      0.00
   -7    9    6     -0.34      0.00
   -7    9    7      0.63      0.00
   -7    9    8     -0.64      0.00
   -7    9    9      0.56      0.00
    7    7    4      1.27      0.00
    7    7    3     -0.20      0.00
    7    7    2     -1.47      0.00
    7    7    1      2.51      0.00
    7    7    0     -2.13      0.00
   -7    7    1      0.53      0.00
   -7    7    2      1.28      0.00
   -7    7    3     -2.28      0.00
   -7    7    4      2.03      0.00
   -7    7    5     -0.85      0.00
   -7    7    6     -0.52      0.00
   -7    7    7      1.48      0.00
   -7    7    8     -1.75      0.00
   -7    7    9      1.39      0.00
   -7    7   10     -0.61      0.00
   -7    7   11     -0.19      0.00
    7    5    5     -1.21      0.00
    7    5    4      1.16      0.00
    7    5    3      0.50      0.00
    7    5    2     -2.95      0.00
    7    5    1      4.47      0.00
    7    5    0     -3.80      0.00
   -7    5    1      1.01      0.00
   -7    5    2      2.62      0.00
   -7    5    3     -5.31      0.00
   -7    5    4      5.75      0.00
   -7    5    5     -3.85      0.00
   -7    5    6      0.74      0.00
   -7    5    7      2.01      0.00
   -7    5    8     -3.26      0.00
   -7    5    9      2.80      0.00
   -7    5   10     -1.26      0.00
   -7    5   11     -0.33      0.00
   -7    5   12      1.07      0.00
    7    3    6      0.52      0.00
    7    3    5     -1.21      0.00
    7    3    4      0.70      0.00
    7    3    3      1.45      0.00
    7    3    2     -4.32      0.00
    7    3    1      6.16      0.00
    7    3    0     -5.56      0.00
   -7    3    1      2.27      0.00
   -7    3    2      2.53      0.00
   -7    3    3     -6.55      0.00
   -7    3    4      7.61      0.00
   -7    3    5     -5.18      0.00
   -7    3    6      0.80      0.00
   -7    3    7      3.02      0.00
   -7    3    8     -4.60      0.00
   -7    3    9      3.83      0.00
   -7    3   10     -1.76      0.00
   -7    3   11     -0.28      0.00
   -7    3   12      1.39      0.00
   -7    3   13     -1.37      0.00
    7    1    6      1.13      0.00
    7    1    5     -1.45      0.00
    7    1    4      0.41      0.00
    7    1    3      2.17      0.00
    7    1    2     -5.33      0.00
    7    1    1      7.36      0.00
    7    1    0     -6.70      0.00
   -7    1    1      2.75      0.00
   -7    1    2      3.32      0.00
   -7    1    3     -8.58      0.00
   -7    1    4      9.94      0.00
   -7    1    5     -6.50      0.00
   -7    1    6      0.50      0.00
   -7    1    7      4.46      0.00
   -7    1    8     -6.09      0.00
   -7    1    9      4.62      0.00
   -7    1   10     -1.87      0.00
   -7    1   11     -0.38      0.00
   -7    1   12      1.34      0.00
   -7    1   13     -1.19      0.00
   -7    9   10     -0.43      0.00
    8   10    1     -0.98      0.00
    8   10    0      1.10      0.00
   -8   10    1     -0.57      0.00
   -8   10    2     -0.35      0.00
   -8   10    3      1.04      0.00
   -8   10    4     -1.04      0.00
   -8   10    5      0.41      0.00
   -8   10    6      0.26      0.00
   -8   10    7     -0.48      0.00
   -8   10    8      0.24      0.00
    8    8    3      0.00      0.00
    8    8    2      1.03      0.00
    8    8    1     -1.70      0.00
    8    8    0      1.45      0.00
   -8    8    1     -0.43      0.00
   -8    8    2     -0.70      0.00
   -8    8    3      1.24      0.00
   -8    8    4     -0.97      0.00
   -8    8    5      0.20      0.00
   -8    8    6      0.51      0.00
   -8    8    7     -0.82      0.00
   -8    8    8      0.76      0.00
   -8    8    9     -0.52      0.00
   -8    8   10      0.20      0.00
   -8    8   11      0.14      0.00
    8    6    4     -0.91      0.00
    8    6    3     -0.14      0.00
    8    6    2      1.71      0.00
    8    6    1     -2.57      0.00
    8    6    0      1.87      0.00
   -8    6    1      0.14      0.00
   -8    6    2     -2.34      0.00
   -8    6    3      3.57      0.00
   -8    6    4     -3.24      0.00
   -8    6    5      1.58      0.00
   -8    6    6      0.53      0.00
   -8    6    7     -2.11      0.00
   -8    6    8      2.60      0.00
   -8    6    9     -1.99      0.00
   -8    6   10      0.74      0.00
   -8    6   11      0.47      0.00
   -8    6   12     -1.00      0.00
    8    4    5      0.84      0.00
    8    4    4     -0.76      0.00
    8    4    3     -0.67      0.00
    8    4    2      2.72      0.00
    8    4    1     -3.88      0.00
    8    4    0      3.02      0.00
   -8    4    1     -0.25      0.00
   -8    4    2     -3.24      0.00
   -8    4    3      5.74      0.00
   -8    4    4     -5.93      0.00
   -8    4    5      3.68      0.00
   -8    4    6     -0.20      0.00
   -8    4    7     -2.70      0.00
   -8    4    8      3.79      0.00
   -8    4    9     -2.98      0.00
   -8    4   10      1.11      0.00
   -8    4   11      0.69      0.00
   -8    4   12     -1.56      0.00
   -8    4   13      1.34      0.00
    8    2    5      0.95      0.00
    8    2    4     -0.42      0.00
    8    2    3     -1.39      0.00
    8    2    2      3.71      0.00
    8    2    1     -5.04      0.00
    8    2    0      4.23      0.00
   -8    2    1     -1.12      0.00
   -8    2    2     -3.21      0.00
   -8    2    3      6.67      0.00
   -8    2    4     -7.18      0.00
   -8    2    5      4.25      0.00
   -8    2    6      0.43      0.00
   -8    2    7     -4.16      0.00
   -8    2    8      5.18      0.00
   -8    2    9     -3.69      0.00
   -8    2   10      1.16      0.00
   -8    2   11      0.90      0.00
   -8    2   12     -1.78      0.00
   -8    2   13      1.57      0.00
    8    0    6     -0.84      0.00
    8    0    5      0.96      0.00
    8    0    4     -0.08      0.00
    8    0    3     -1.98      0.00
    8    0    2      4.42      0.00
    8    0    1     -5.79      0.00
    8    0    0      4.89      0.00
   -8    0    1     -1.38      0.00
   -8    0    2     -3.64      0.00
   -8    0    3      7.78      0.00
   -8    0    4     -8.46      0.00
   -8    0    5      4.95      0.00
   -8    0    6      0.72      0.00
   -8    0    7     -5.20      0.00
   -8    0    8      6.33      0.00
   -8    0    9     -4.45      0.00
   -8    0   10      1.52      0.00
   -8    0   11      0.67      0.00
   -8    0   12     -1.44      0.00
   -8    0   13      1.13      0.00
   -9   11    3     -0.60      0.00
   -9   11    4      0.54      0.00
   -9   11    5      0.02      0.00
   -9   11    6     -0.60      0.00
    9    9    1      1.02      0.00
    9    9    0     -0.93      0.00
   -9    9    1      0.25      0.00
   -9    9    2      0.63      0.00
   -9    9    3     -1.15      0.00
   -9    9    4      1.04      0.00
   -9    9    5     -0.45      0.00
   -9    9    6     -0.12      0.00
   -9    9    7      0.30      0.00
   -9    9    8     -0.14      0.00
   -9    9    9     -0.09      0.00
    9    7    3      0.18      0.00
    9    7    2     -1.16      0.00
    9    7    1      1.65      0.00
    9    7    0     -1.11      0.00
   -9    7    1     -0.18      0.00
   -9    7    2      1.42      0.00
   -9    7    3     -1.87      0.00
   -9    7    4      1.37      0.00
   -9    7    5     -0.26      0.00
   -9    7    6     -0.85      0.00
   -9    7    7      1.49      0.00
   -9    7    8     -1.49      0.00
   -9    7    9      1.00      0.00
   -9    7   10     -0.25      0.00
   -9    7   11     -0.45      0.00
    9    5    4      0.59      0.00
    9    5    3      0.40      0.00
    9    5    2     -1.84      0.00
    9    5    1      2.52      0.00
    9    5    0     -1.62      0.00
   -9    5    1     -0.56      0.00
   -9    5    2      2.90      0.00
   -9    5    3     -4.19      0.00
   -9    5    4      3.77      0.00
   -9    5    5     -1.84      0.00
   -9    5    6     -0.67      0.00
   -9    5    7      2.57      0.00
   -9    5    8     -3.11      0.00
   -9    5    9      2.28      0.00
   -9    5   10     -0.68      0.00
   -9    5   11     -0.81      0.00
   -9    5   12      1.48      0.00
    9    3    4      0.52      0.00
    9    3    3      0.67      0.00
    9    3    2     -2.36      0.00
    9    3    1      3.24      0.00
    9    3    0     -2.37      0.00
   -9    3    1     -0.16      0.00
   -9    3    2      3.23      0.00
   -9    3    3     -5.31      0.00
   -9    3    4      5.18      0.00
   -9    3    5     -2.74      0.00
   -9    3    6     -0.73      0.00
   -9    3    7      3.34      0.00
   -9    3    8     -3.85      0.00
   -9    3    9      2.43      0.00
   -9    3   10     -0.23      0.00
   -9    3   11     -1.54      0.00
   -9    3   12      2.22      0.00
   -9    3   13     -1.84      0.00
    9    1    5     -0.43      0.00
    9    1    4     -0.02      0.00
    9    1    3      1.38      0.00
    9    1    2     -3.08      0.00
    9    1    1      3.93      0.00
    9    1    0     -3.00      0.00
   -9    1    1      0.19      0.00
   -9    1    2      3.51      0.00
   -9    1    3     -6.29      0.00
   -9    1    4      6.36      0.00
   -9    1    5     -3.26      0.00
   -9    1    6     -1.39      0.00
   -9    1    7      4.87      0.00
   -9    1    8     -5.44      0.00
   -9    1    9      3.46      0.00
   -9    1   10     -0.70      0.00
   -9    1   11     -1.24      0.00
   -9    1   12      1.80      0.00
   -9    1   13     -1.35      0.00
  -10   10    2     -0.40      0.00
  -10   10    3      0.81      0.00
  -10   10    4     -0.74      0.00
  -10   10    5      0.22      0.00
  -10   10    6      0.33      0.00
  -10   10    7     -0.48      0.00
   10    8    1     -0.95      0.00
   10    8    0      0.62      0.00
  -10    8    1      0.21      0.00
  -10    8    2     -1.02      0.00
  -10    8    3      1.31      0.00
  -10    8    4     -0.97      0.00
  -10    8    5      0.28      0.00
  -10    8    6      0.34      0.00
  -10    8    7     -0.59      0.00
  -10    8    8      0.49      0.00
  -10    8    9     -0.22      0.00
  -10    8   10     -0.07      0.00
   10    6    2      1.44      0.00
   10    6    1     -1.83      0.00
   10    6    0      1.09      0.00
  -10    6    1      0.44      0.00
  -10    6    2     -1.84      0.00
  -10    6    3      2.33      0.00
  -10    6    4     -1.71      0.00
  -10    6    5      0.37      0.00
  -10    6    6      1.07      0.00
  -10    6    7     -2.02      0.00
  -10    6    8      2.15      0.00
  -10    6    9     -1.50      0.00
  -10    6   10      0.41      0.00
  -10    6   11      0.61      0.00
  -10    6   12     -1.09      0.00
   10    4    3     -0.59      0.00
   10    4    2      1.91      0.00
   10    4    1     -2.54      0.00
   10    4    0      1.67      0.00
  -10    4    1      0.42      0.00
  -10    4    2     -2.62      0.00
  -10    4    3      3.77      0.00
  -10    4    4     -3.26      0.00
  -10    4    5      1.30      0.00
  -10    4    6      1.13      0.00
  -10    4    7     -2.80      0.00
  -10    4    8      2.97      0.00
  -10    4    9     -1.74      0.00
  -10    4   10     -0.06      0.00
  -10    4   11      1.53      0.00
  -10    4   12     -2.07      0.00
  -10    4   13      1.64      0.00
   10    2    4      0.04      0.00
   10    2    3     -0.90      0.00
   10    2    2      2.13      0.00
   10    2    1     -2.73      0.00
   10    2    0      1.90      0.00
  -10    2    1      0.27      0.00
  -10    2    2     -2.86      0.00
  -10    2    3      4.53      0.00
  -10    2    4     -4.18      0.00
  -10    2    5      1.71      0.00
  -10    2    6      1.63      0.00
  -10    2    7     -3.90      0.00
  -10    2    8      3.90      0.00
  -10    2    9     -1.98      0.00
  -10    2   10     -0.43      0.00
  -10    2   11      2.02      0.00
  -10    2   12     -2.35      0.00
  -10    2   13      1.73      0.00
   10    0    4      0.50      0.00
   10    0    3     -1.31      0.00
   10    0    2      2.37      0.00
   10    0    1     -2.81      0.00
   10    0    0      1.90      0.00
  -10    0    1      0.39      0.00
  -10    0    2     -3.25      0.00
  -10    0    3      5.26      0.00
  -10    0    4     -5.01      0.00
  -10    0    5      2.15      0.00
  -10    0    6      1.93      0.00
  -10    0    7     -4.86      0.00
  -10    0    8      5.08      0.00
  -10    0    9     -2.96      0.00
  -10    0   10      0.25      0.00
  -10    0   11      1.47      0.00
  -10    0   12     -1.76      0.00
  -10    0   13      1.13      0.00
  -11    9    2      0.81      0.00
  -11    9    3     -1.09      0.00
  -11    9    4      0.91      0.00
  -11    9    5     -0.40      0.00
  -11    9    6     -0.12      0.00
  -11    9    7      0.34      0.00
  -11    9    8     -0.23      0.00
   11    7    0     -0.61      0.00
  -11    7    1     -0.40      0.00
  -11    7    2      1.24      0.00
  -11    7    3     -1.41      0.00
  -11    7    4      0.93      0.00
  -11    7    5     -0.14      0.00
  -11    7    6     -0.55      0.00
  -11    7    7      0.92      0.00
  -11    7    8     -0.91      0.00
  -11    7    9      0.61      0.00
  -11    7   10     -0.13      0.00
  -11    7   11     -0.36      0.00
   11    5    2     -1.70      0.00
   11    5    1      2.13      0.00
   11    5    0     -1.37      0.00
  -11    5    1     -0.26      0.00
  -11    5    2      1.76      0.00
  -11    5    3     -2.28      0.00
  -11    5    4      1.64      0.00
  -11    5    5     -0.24      0.00
  -11    5    6     -1.24      0.00
  -11    5    7      2.17      0.00
  -11    5    8     -2.19      0.00
  -11    5    9      1.38      0.00
  -11    5   10     -0.17      0.00
  -11    5   11     -0.89      0.00
  -11    5   12      1.33      0.00
   11    3    2     -1.87      0.00
   11    3    1      2.40      0.00
   11    3    0     -1.68      0.00
  -11    3    1     -0.10      0.00
  -11    3    2      2.00      0.00
  -11    3    3     -2.94      0.00
  -11    3    4      2.37      0.00
  -11    3    5     -0.50      0.00
  -11    3    6     -1.72      0.00
  -11    3    7      3.01      0.00
  -11    3    8     -2.69      0.00
  -11    3    9      1.06      0.00
  -11    3   10      0.86      0.00
  -11    3   11     -2.09      0.00
  -11    3   12      2.27      0.00
  -11    3   13     -1.62      0.00
   11    1    3      1.08      0.00
   11    1    2     -1.77      0.00
   11    1    1      2.05      0.00
   11    1    0     -1.32      0.00
  -11    1    1     -0.40      0.00
  -11    1    2      2.43      0.00
  -11    1    3     -3.70      0.00
  -11    1    4      3.27      0.00
  -11    1    5     -0.97      0.00
  -11    1    6     -2.11      0.00
  -11    1    7      4.16      0.00
  -11    1    8     -3.97      0.00
  -11    1    9      1.91      0.00
  -11    1   10      0.50      0.00
  -11    1   11     -1.91      0.00
  -11    1   12      1.97      0.00
  -11    1   13     -1.22      0.00
  -12    8    2     -1.01      0.00
  -12    8    3      1.16      0.00
  -12    8    4     -0.87      0.00
  -12    8    5      0.38      0.00
  -12    8    6      0.05      0.00
  -12    8    7     -0.25      0.00
  -12    8    8      0.25      0.00
  -12    8    9     -0.13      0.00
   12    6    0      0.80      0.00
  -12    6    1      0.33      0.00
  -12    6    2     -1.28      0.00
  -12    6    3      1.47      0.00
  -12    6    4     -0.92      0.00
  -12    6    5      0.07      0.00
  -12    6    6      0.66      0.00
  -12    6    7     -1.04      0.00
  -12    6    8      1.05      0.00
  -12    6    9     -0.73      0.00
  -12    6   10      0.18      0.00
  -12    6   11      0.38      0.00
   12    4    0      1.40      0.00
  -12    4    1      0.10      0.00
  -12    4    2     -1.52      0.00
  -12    4    3      2.01      0.00
  -12    4    4     -1.36      0.00
  -12    4    5     -0.04      0.00
  -12    4    6      1.45      0.00
  -12    4    7     -2.17      0.00
  -12    4    8      1.90      0.00
  -12    4    9     -0.86      0.00
  -12    4   10     -0.38      0.00
  -12    4   11      1.24      0.00
  -12    4   12     -1.41      0.00
   12    2    1     -1.73      0.00
   12    2    0      1.18      0.00
  -12    2    1      0.18      0.00
  -12    2    2     -1.64      0.00
  -12    2    3      2.38      0.00
  -12    2    4     -1.84      0.00
  -12    2    5      0.12      0.00
  -12    2    6      1.95      0.00
  -12    2    7     -3.14      0.00
  -12    2    8      2.69      0.00
  -12    2    9     -0.92      0.00
  -12    2   10     -0.99      0.00
  -12    2   11      2.02      0.00
  -12    2   12     -1.92      0.00
  -12    2   13      1.14      0.00
   12    0    2      1.16      0.00
   12    0    1     -1.26      0.00
   12    0    0      0.72      0.00
  -12    0    1      0.50      0.00
  -12    0    2     -1.94      0.00
  -12    0    3      2.81      0.00
  -12    0    4     -2.39      0.00
  -12    0    5      0.51      0.00
  -12    0    6      2.04      0.00
  -12    0    7     -3.76      0.00
  -12    0    8      3.54      0.00
  -12    0    9     -1.66      0.00
  -12    0   10     -0.54      0.00
  -12    0   11      1.75      0.00
  -12    0   12     -1.68      0.00
  -12    0   13      0.93      0.00
   12    4    1     -2.05      0.00
  -13    7    3     -1.05      0.00
  -13    7    4      0.68      0.00
  -13    7    5     -0.21      0.00
  -13    7    6     -0.09      0.00
  -13    7    7      0.19      0.00
  -13    7    8     -0.17      0.00
  -13    7    9      0.11      0.00
  -13    5    1     -0.41      0.00
  -13    5    2      1.39      0.00
  -13    5    3     -1.59      0.00
  -13    5    4      0.97      0.00
  -13    5    5     -0.02      0.00
  -13    5    6     -0.77      0.00
  -13    5    7      1.11      0.00
  -13    5    8     -1.00      0.00
  -13    5    9      0.58      0.00
  -13    5   10     -0.04      0.00
  -13    5   11     -0.44      0.00
  -13    3    1     -0.35      0.00
  -13    3    2      1.50      0.00
  -13    3    3     -1.90      0.00
  -13    3    4      1.28      0.00
  -13    3    5      0.06      0.00
  -13    3    6     -1.44      0.00
  -13    3    7      2.12      0.00
  -13    3    8     -1.73      0.00
  -13    3    9      0.56      0.00
  -13    3   10      0.68      0.00
  -13    3   11     -1.33      0.00
  -13    3   12      1.22      0.00
   13    1    0     -0.34      0.00
  -13    1    1     -0.54      0.00
  -13    1    2      1.54      0.00
  -13    1    3     -2.09      0.00
  -13    1    4      1.70      0.00
  -13    1    5     -0.28      0.00
  -13    1    6     -1.58      0.00
  -13    1    7      2.81      0.00
  -13    1    8     -2.58      0.00
  -13    1    9      1.05      0.00
  -13    1   10      0.71      0.00
  -13    1   11     -1.63      0.00
  -13    1   12      1.46      0.00
  -13    1   13     -0.74      0.00
   13    3    0     -0.83      0.00
  -14    6    4     -0.56      0.00
  -14    6    5      0.01      0.00
  -14    6    6      0.28      0.00
  -14    6    7     -0.29      0.00
  -14    6    8      0.18      0.00
  -14    6    9     -0.06      0.00
  -14    4    2     -1.60      0.00
  -14    4    3      1.75      0.00
  -14    4    4     -1.10      0.00
  -14    4    5      0.07      0.00
  -14    4    6      0.82      0.00
  -14    4    7     -1.20      0.00
  -14    4    8      1.01      0.00
  -14    4    9     -0.46      0.00
  -14    4   10     -0.14      0.00
  -14    4   11      0.50      0.00
  -14    2    1      0.71      0.00
  -14    2    2     -1.50      0.00
  -14    2    3      1.82      0.00
  -14    2    4     -1.39      0.00
  -14    2    5      0.29      0.00
  -14    2    6      1.01      0.00
  -14    2    7     -1.81      0.00
  -14    2    8      1.62      0.00
  -14    2    9     -0.58      0.00
  -14    2   10     -0.59      0.00
  -14    2   11      1.16      0.00
  -14    2   12     -0.96      0.00
  -14    0    1      0.73      0.00
  -14    0    2     -1.39      0.00
  -14    0    3      1.79      0.00
  -14    0    4     -1.58      0.00
  -14    0    5      0.58      0.00
  -14    0    6      0.89      0.00
  -14    0    7     -2.02      0.00
  -14    0    8      2.03      0.00
  -14    0    9     -0.92      0.00
  -14    0   10     -0.50      0.00
  -14    0   11      1.29      0.00
  -14    0   12     -1.15      0.00
  -15    5    6     -0.50      0.00
  -15    5    7      0.55      0.00
  -15    5    8     -0.38      0.00
  -15    5    9      0.16      0.00
  -15    3    4      1.15      0.00
  -15    3    5     -0.26      0.00
  -15    3    6     -0.62      0.00
  -15    3    7      1.11      0.00
  -15    3    8     -1.01      0.00
  -15    3    9      0.44      0.00
  -15    3   10      0.20      0.00
  -15    3   11     -0.52      0.00
  -15    1    3     -1.44      0.00
  -15    1    4      1.31      0.00
  -15    1    5     -0.64      0.00
  -15    1    6     -0.37      0.00
  -15    1    7      1.22      0.00
  -15    1    8     -1.33      0.00
  -15    1    9      0.63      0.00
  -15    1   10      0.36      0.00
  -15    1   11     -0.91      0.00
  -16    2    6      0.26      0.00
  -16    2    7     -0.78      0.00
  -16    2    8      0.87      0.00
  -16    2    9     -0.46      0.00
  -16    0    5      0.61      0.00
  -16    0    6      0.02      0.00
  -16    0    7     -0.71      0.00
  -16    0    8      0.96      0.00
  -16    0    9     -0.58      0.00
  -16    0   10     -0.13      0.00
    2    0    0     21.86      0.00
   14    0    0     -0.19      0.00
    1    1    0    -24.17      0.00
   14    2    0      0.05      0.00
   14    4    0      0.21      0.00
   13    5    0     -0.71      0.00
   13    7    0     -0.28      0.00
   12    8    0      0.15      0.00
   11    9    0     -0.21      0.00
   10   10    0      0.46      0.00
    9   11    0     -0.49      0.00
    6   12    0      0.50      0.00
    8   12    0      0.23      0.00
    5   13    0     -0.43      0.00
   -2    0    1    -15.97      0.00
    0    0    1    -22.40      0.00
   14    0    1     -0.03      0.00
  -15    1    1     -0.64      0.00
   -1    1    1     18.81      0.00
   13    1    1      0.71      0.00
   14    2    1     -0.39      0.00
  -15    3    1     -0.86      0.00
   13    3    1      1.33      0.00
  -14    4    1      0.74      0.00
   13    5    1      1.22      0.00
  -14    6    1      0.43      0.00
   12    6    1     -1.36      0.00
  -13    7    1     -0.39      0.00
   11    7    1      1.12      0.00
  -12    8    1      0.46      0.00
  -11    9    1     -0.26      0.00
   11    9    1      0.33      0.00
  -10   10    1     -0.15      0.00
   10   10    1     -0.38      0.00
   -9   11    1      0.31      0.00
    7   11    1      0.57      0.00
    9   11    1      0.32      0.00
   -8   12    1     -0.13      0.00
    6   12    1     -0.14      0.00
   -7   13    1      0.03      0.00
   -5   13    1      0.44      0.00
    3   13    1      0.10      0.00
    5   13    1      0.07      0.00
  -16    0    2     -0.51      0.00
  -15    1    2      1.13      0.00
   13    1    2     -0.61      0.00
   12    2    2      1.42      0.00
  -15    3    2      1.49      0.00
   13    3    2     -1.05      0.00
   12    4    2      1.63      0.00
  -15    5    2      1.12      0.00
  -14    6    2     -1.00      0.00
   12    6    2      1.10      0.00
  -13    7    2      0.97      0.00
   11    7    2     -0.89      0.00
   10    8    2      0.65      0.00
    9    9    2     -0.55      0.00
  -12   10    2     -0.30      0.00
    8   10    2      0.41      0.00
  -11   11    2     -0.15      0.00
   -9   11    2      0.18      0.00
    7   11    2     -0.05      0.00
   -8   12    2     -0.23      0.00
    6   12    2     -0.28      0.00
   -7   13    2      0.22      0.00
   -5   13    2     -0.05      0.00
    1   13    2      0.68      0.00
    3   13    2      0.53      0.00
    5   13    2      0.25      0.00
  -16    0    3      0.80      0.00
   12    0    3     -0.83      0.00
  -16    2    3      1.03      0.00
   12    2    3     -0.79      0.00
  -15    3    3     -1.63      0.00
   11    3    3      0.80      0.00
  -16    4    3      0.98      0.00
  -15    5    3     -1.11      0.00
   11    5    3      0.69      0.00
  -14    6    3      1.03      0.00
   10    6    3     -0.46      0.00
  -14    8    3      0.55      0.00
   10    8    3     -0.12      0.00
  -13    9    3     -0.72      0.00
    9    9    3     -0.01      0.00
  -12   10    3      0.47      0.00
    8   10    3      0.11      0.00
  -11   11    3     -0.03      0.00
    7   11    3     -0.29      0.00
  -10   12    3     -0.10      0.00
   -8   12    3      0.55      0.00
    4   12    3      0.93      0.00
   -7   13    3     -0.45      0.00
   -5   13    3     -0.30      0.00
   -3   13    3     -0.55      0.00
   -1   13    3     -1.05      0.00
    1   13    3     -1.05      0.00
    3   13    3     -0.72      0.00
  -16    0    4     -0.88      0.00
   11    1    4     -0.62      0.00
  -16    2    4     -0.87      0.00
   11    3    4     -0.09      0.00
  -16    4    4     -0.56      0.00
   10    4    4     -0.32      0.00
  -15    5    4      0.58      0.00
   10    6    4     -0.23      0.00
  -15    7    4      0.01      0.00
    9    7    4      0.46      0.00
  -14    8    4     -0.33      0.00
    8    8    4     -0.62      0.00
  -13    9    4      0.58      0.00
    7    9    4      0.62      0.00
  -12   10    4     -0.42      0.00
    6   10    4     -0.60      0.00
  -11   11    4      0.02      0.00
    5   11    4      0.67      0.00
  -10   12    4      0.12      0.00
   -8   12    4     -0.42      0.00
    2   12    4     -0.96      0.00
    4   12    4     -0.65      0.00
   -7   13    4      0.33      0.00
   -5   13    4      0.12      0.00
   -3   13    4      0.35      0.00
   -1   13    4      0.81      0.00
    1   13    4      0.73      0.00
   10    0    5     -0.25      0.00
  -16    2    5      0.39      0.00
   10    2    5      0.09      0.00
    9    3    5     -0.63      0.00
  -16    4    5     -0.05      0.00
   10    4    5      0.39      0.00
  -15    5    5      0.09      0.00
    9    5    5     -0.61      0.00
  -16    6    5     -0.43      0.00
    8    6    5      0.87      0.00
  -15    7    5      0.29      0.00
    7    7    5     -1.19      0.00
  -14    8    5      0.04      0.00
    8    8    5      0.55      0.00
  -13    9    5     -0.25      0.00
    7    9    5     -0.50      0.00
  -12   10    5      0.09      0.00
    6   10    5      0.36      0.00
  -11   11    5      0.27      0.00
    3   11    5     -0.22      0.00
    5   11    5     -0.26      0.00
  -10   12    5     -0.39      0.00
   -8   12    5     -0.17      0.00
    0   12    5      0.38      0.00
    2   12    5      0.18      0.00
   -7   13    5      0.14      0.00
   -5   13    5      0.51      0.00
   -3   13    5      0.36      0.00
   -1   13    5     -0.11      0.00
    1   13    5     -0.14      0.00
    9    1    6      0.28      0.00
    8    2    6     -0.55      0.00
    9    3    6      0.14      0.00
  -16    4    6      0.53      0.00
    8    4    6     -0.12      0.00
    7    5    6      0.26      0.00
  -16    6    6      0.49      0.00
    8    6    6     -0.27      0.00
  -15    7    6     -0.33      0.00
    7    7    6      0.46      0.00
  -14    8    6      0.14      0.00
    6    8    6     -0.43      0.00
  -13    9    6     -0.10      0.00
    5    9    6      0.13      0.00
  -12   10    6      0.30      0.00
    4   10    6      0.21      0.00
  -11   11    6     -0.60      0.00
    1   11    6     -0.24      0.00
    3   11    6     -0.36      0.00
  -10   12    6      0.65      0.00
   -8   12    6      0.72      0.00
   -6   12    6      1.22      0.00
   -2   12    6      0.83      0.00
    0   12    6      0.39      0.00
    2   12    6      0.34      0.00
   -7   13    6     -0.56      0.00
   -5   13    6     -1.04      0.00
   -3   13    6     -0.92      0.00
   -1   13    6     -0.37      0.00
    8    0    7      0.46      0.00
    7    1    7     -0.41      0.00
    8    2    7      0.08      0.00
    7    3    7      0.23      0.00
  -16    4    7     -0.70      0.00
    7    5    7      0.49      0.00
  -16    6    7     -0.28      0.00
    6    6    7     -0.40      0.00
  -15    7    7      0.16      0.00
    5    7    7      0.46      0.00
  -14    8    7     -0.17      0.00
    4    8    7     -0.70      0.00
  -13    9    7      0.29      0.00
    3    9    7      0.74      0.00
  -12   10    7     -0.46      0.00
    2   10    7     -0.60      0.00
  -11   11    7      0.61      0.00
   -9   11    7      0.67      0.00
   -1   11    7      0.55      0.00
    1   11    7      0.55      0.00
   -8   12    7     -0.75      0.00
   -6   12    7     -1.32      0.00
   -4   12    7     -1.65      0.00
   -2   12    7     -1.04      0.00
    0   12    7     -0.53      0.00
   -5   13    7      1.00      0.00
    6    0    8      0.38      0.00
    7    1    8      0.01      0.00
    6    2    8      0.35      0.00
  -16    4    8      0.57      0.00
    6    4    8      0.52      0.00
    5    5    8     -0.60      0.00
  -16    6    8      0.01      0.00
    4    6    8      1.07      0.00
  -15    7    8      0.04      0.00
    3    7    8     -1.59      0.00
  -14    8    8      0.11      0.00
    2    8    8      1.36      0.00
    4    8    8      0.88      0.00
  -13    9    8     -0.27      0.00
    1    9    8     -0.57      0.00
    3    9    8     -0.79      0.00
  -12   10    8      0.28      0.00
  -10   10    8      0.18      0.00
    0   10    8      0.20      0.00
    2   10    8      0.53      0.00
  -11   11    8     -0.22      0.00
   -9   11    8     -0.21      0.00
   -7   11    8     -0.60      0.00
   -5   11    8     -1.35      0.00
   -3   11    8     -1.14      0.00
   -1   11    8     -0.44      0.00
   -8   12    8      0.24      0.00
   -6   12    8      0.74      0.00
   -4   12    8      1.07      0.00
    5    1    9      0.94      0.00
    4    2    9     -0.66      0.00
    5    3    9      0.19      0.00
  -16    4    9     -0.29      0.00
    4    4    9     -0.02      0.00
    3    5    9      0.57      0.00
  -16    6    9      0.15      0.00
    4    6    9     -0.53      0.00
  -15    7    9     -0.14      0.00
    3    7    9      1.00      0.00
  -14    8    9     -0.05      0.00
    2    8    9     -0.89      0.00
  -13    9    9      0.14      0.00
  -11    9    9     -0.01      0.00
   -1    9    9      0.19      0.00
    1    9    9      0.31      0.00
  -12   10    9      0.03      0.00
  -10   10    9      0.23      0.00
   -8   10    9      0.10      0.00
   -4   10    9     -1.13      0.00
   -2   10    9     -0.38      0.00
    0   10    9     -0.01      0.00
   -9   11    9     -0.35      0.00
   -7   11    9     -0.01      0.00
   -5   11    9      0.66      0.00
   -3   11    9      0.57      0.00
    4    0   10      1.05      0.00
    3    1   10     -0.89      0.00
  -16    2   10     -0.12      0.00
    4    2   10      0.40      0.00
    3    3   10     -0.05      0.00
  -16    4   10      0.00      0.00
    2    4   10      0.31      0.00
  -15    5   10      0.05      0.00
    1    5   10     -0.83      0.00
    3    5   10      0.23      0.00
  -16    6   10     -0.21      0.00
  -14    6   10     -0.07      0.00
    2    6   10      0.27      0.00
  -15    7   10      0.17      0.00
  -13    7   10      0.03      0.00
    1    7   10     -0.35      0.00
  -14    8   10      0.00      0.00
  -12    8   10     -0.02      0.00
   -2    8   10      0.19      0.00
    0    8   10     -0.01      0.00
  -13    9   10     -0.03      0.00
  -11    9   10      0.16      0.00
   -9    9   10      0.19      0.00
   -5    9   10     -1.08      0.00
   -3    9   10     -0.61      0.00
   -1    9   10      0.14      0.00
  -10   10   10     -0.39      0.00
   -8   10   10     -0.24      0.00
   -6   10   10      0.44      0.00
   -4   10   10      0.67      0.00
   -7   11   10      0.36      0.00
  -16    0   11      0.59      0.00
    2    0   11     -0.18      0.00
    1    1   11      0.32      0.00
  -16    2   11      0.46      0.00
    2    2   11     -0.21      0.00
    1    3   11      0.58      0.00
  -16    4   11      0.19      0.00
    0    4   11     -0.75      0.00
  -15    5   11     -0.23      0.00
   -1    5   11      0.10      0.00
    1    5   11     -0.04      0.00
  -14    6   11      0.26      0.00
   -2    6   11      0.71      0.00
    0    6   11      0.31      0.00
  -13    7   11     -0.22      0.00
   -3    7   11     -0.61      0.00
   -1    7   11     -0.64      0.00
  -12    8   11      0.17      0.00
  -10    8   11      0.31      0.00
   -6    8   11     -0.34      0.00
   -4    8   11     -0.20      0.00
   -2    8   11      0.41      0.00
  -11    9   11     -0.17      0.00
   -9    9   11     -0.21      0.00
   -7    9   11      0.23      0.00
   -5    9   11      0.60      0.00
   -3    9   11      0.16      0.00
   -8   10   11      0.20      0.00
  -16    0   12     -0.55      0.00
    0    0   12     -0.18      0.00
  -15    1   12      0.78      0.00
   -1    1   12     -0.19      0.00
  -16    2   12     -0.37      0.00
    0    2   12      0.29      0.00
  -15    3   12      0.43      0.00
   -1    3   12     -0.46      0.00
  -16    4   12     -0.27      0.00
  -14    4   12     -0.52      0.00
   -2    4   12     -0.24      0.00
  -15    5   12      0.38      0.00
  -13    5   12      0.63      0.00
   -3    5   12      1.11      0.00
   -1    5   12      0.34      0.00
  -14    6   12     -0.43      0.00
  -12    6   12     -0.67      0.00
   -4    6   12     -1.19      0.00
   -2    6   12     -0.99      0.00
  -13    7   12      0.36      0.00
  -11    7   12      0.62      0.00
   -9    7   12      0.80      0.00
   -7    7   12      0.57      0.00
   -5    7   12      0.57      0.00
   -3    7   12      0.86      0.00
  -12    8   12     -0.25      0.00
  -10    8   12     -0.46      0.00
   -8    8   12     -0.38      0.00
   -6    8   12     -0.05      0.00
  -16    0   13      0.19      0.00
  -14    0   13      0.53      0.00
   -4    0   13      0.38      0.00
   -2    0   13     -0.03      0.00
  -15    1   13     -0.28      0.00
   -3    1   13     -0.18      0.00
  -16    2   13      0.04      0.00
  -14    2   13      0.36      0.00
   -4    2   13      0.75      0.00
   -2    2   13      0.07      0.00
  -15    3   13     -0.10      0.00
  -13    3   13     -0.62      0.00
   -5    3   13     -1.15      0.00
   -3    3   13     -0.60      0.00
  -14    4   13      0.27      0.00
  -12    4   13      0.95      0.00
   -6    4   13      1.03      0.00
   -4    4   13      1.01      0.00
  -13    5   13     -0.45      0.00
  -11    5   13     -1.03      0.00
   -9    5   13     -1.19      0.00
   -7    5   13     -0.78      0.00
   -5    5   13     -0.85      0.00
  -12    6   13      0.52      0.00
  -10    6   13      0.89      0.00
   -8    6   13      0.74      0.00
   -6    6   13      0.52      0.00
  -11    7   13     -0.52      0.00
   -9    7   13     -0.70      0.00
   -7    7   13     -0.43      0.00
    0    0    0      0.00      0.00
# SQUEEZE RESULTS (Version =  21116)
# Note: Data are Listed for all Voids in the P1 Unit Cell
# i.e. Centre of Gravity, Solvent Accessible Volume,
# Recovered number of Electrons in the Void and
# Details about the Squeezed Material
loop_
  _platon_squeeze_void_nr
  _platon_squeeze_void_average_x
  _platon_squeeze_void_average_y
  _platon_squeeze_void_average_z
  _platon_squeeze_void_volume
  _platon_squeeze_void_count_electrons
  _platon_squeeze_void_content
   1  0.500  0.000  0.500        59        11 ' '
   2  0.000  0.500  0.500        59        11 ' '
# Missing Reflections Below sin(th)/lambda = 0.25
loop_
  _platon_missing_refln_index_h
  _platon_missing_refln_index_k
  _platon_missing_refln_index_l
  _platon_missing_refln_theta
    2    0    0     3.580
    1    1    0     2.549
   -2    0    1     2.935
    0    0    1     2.143
   -1    1    1     2.588
_platon_squeeze_void_probe_radius                  1.20
_platon_squeeze_details
)
TITL 123 in C2/m
CELL   13.8860   11.2200   11.5900     90.00    124.94     90.00
SPGR C2/m
# Solvent Accessible Volume =       115
# Electrons Found in S.A.V. =        21
# Note: Atoms in Void as Cxxx and Qxxx all others
C101 0.014 0.503 0.391 !       7.02 eA-3
Q102 0.213 0.497 0.969 !       1.32 eA-3
Q103 0.460 0.494 0.984 !       1.01 eA-3
Q104 0.202 0.070 0.092 !       0.93 eA-3
Q105 0.388 0.442 0.033 !       0.88 eA-3
Q106 0.989 0.114 0.032 !       0.72 eA-3
Q107 0.590 0.442 0.090 !       0.70 eA-3
Q108 0.454 0.492 0.125 !       0.68 eA-3
Q109 0.731 0.094 0.942 !       0.67 eA-3
Q110 0.715 0.210 0.163 !       0.65 eA-3
Q111 0.829 0.139 0.963 !       0.63 eA-3
Q112 0.474 0.075 0.329 !       0.63 eA-3
Q113 0.761 0.081 0.011 !       0.62 eA-3
Q114 0.011 0.096 0.829 !       0.62 eA-3
Q115 0.182 0.497 0.344 !       0.61 eA-3
Q116 0.237 0.495 0.484 !       0.59 eA-3
Q117 0.517 0.502 0.219 !       0.59 eA-3
Q118 0.527 0.404 0.276 !       0.58 eA-3
Q119 1.003 0.199 0.109 !       0.53 eA-3
Q120 0.258 0.508 0.234 !       0.51 eA-3
)
;
_shelx_fab_checksum              57590
_olex2_submission_special_instructions 'No special instructions were received'
loop_
_space_group_symop_operation_xyz
'x, y, z'
'-x, y, -z'
'x+1/2, y+1/2, z'
'-x+1/2, y+1/2, -z'
'-x, -y, -z'
'x, -y, z'
'-x+1/2, -y+1/2, -z'
'x+1/2, -y+1/2, z'
loop_
_atom_site_label
_atom_site_type_symbol
_atom_site_fract_x
_atom_site_fract_y
_atom_site_fract_z
_atom_site_U_iso_or_equiv
_atom_site_adp_type
_atom_site_occupancy
_atom_site_site_symmetry_order
_atom_site_calc_flag
_atom_site_refinement_flags_posn
_atom_site_refinement_flags_adp
_atom_site_refinement_flags_occupancy
Gd1 Gd 0.16028(3) 0.000000 0.03246(3) 0.01034(16) Uani 1 2 d S T P
O2 O -0.0417(4) 0.000000 -0.1497(5) 0.0200(12) Uani 1 2 d S T P
O3 O 0.3325(3) 0.1295(4) 0.1499(4) 0.0328(11) Uani 1 1 d . . .
H3A H 0.330619 0.197254 0.179281 0.039 Uiso 1 1 d R . .
H3B H 0.340899 0.131174 0.085761 0.039 Uiso 1 1 d R . .
O5 O 0.0920(3) -0.1934(3) 0.0291(4) 0.0270(10) Uani 1 1 d . . .
F1 F -0.1008(3) -0.3807(3) -0.2453(4) 0.0380(9) Uani 1 1 d . . .
O4 O 0.2345(5) 0.000000 0.2865(6) 0.0392(18) Uani 1 2 d S T P
C2 C 0.000000 -0.3754(7) 0.000000 0.0202(18) Uani 1 2 d S T P
O1 O 0.1627(4) -0.0970(4) -0.1572(4) 0.0357(12) Uani 1 1 d . . .
C3 C -0.0517(5) -0.4385(5) -0.1222(6) 0.0225(13) Uani 1 1 d . . .
C1 C 0.000000 -0.2404(7) 0.000000 0.0208(18) Uani 1 2 d S T P
C4 C 0.1371(7) 0.000000 0.2688(8) 0.0233(19) Uani 1 2 d S T P
C5 C 0.1586(7) 0.000000 -0.2122(8) 0.0197(18) Uani 1 2 d S T P
C7 C 0.1341(6) 0.000000 0.3969(8) 0.0226(19) Uani 1 2 d S T P
C6 C 0.1473(7) 0.000000 -0.3486(8) 0.0210(19) Uani 1 2 d S T P
F2 F 0.1311(5) 0.2076(4) 0.4017(4) 0.0514(12) Uani 1 1 d . . .
F3 F 0.1430(5) 0.2110(4) -0.3656(4) 0.0511(12) Uani 1 1 d . . .
C8 C 0.1357(5) 0.1044(6) 0.4601(6) 0.0249(14) Uani 1 1 d . . .
C9 C 0.1412(5) 0.1045(6) -0.4161(6) 0.0255(14) Uani 1 1 d . . .
loop_
_atom_site_aniso_label
_atom_site_aniso_U_11
_atom_site_aniso_U_22
_atom_site_aniso_U_33
_atom_site_aniso_U_23
_atom_site_aniso_U_13
_atom_site_aniso_U_12
Gd1 0.0144(2) 0.0069(2) 0.0110(2) 0.000 0.00802(18) 0.000
O2 0.019(3) 0.021(3) 0.012(3) 0.000 0.004(2) 0.000
O3 0.031(2) 0.033(3) 0.037(3) -0.011(2) 0.022(2) -0.009(2)
O5 0.024(2) 0.008(2) 0.046(3) 0.005(2) 0.018(2) -0.0005(19)
F1 0.049(2) 0.0205(19) 0.033(2) 0.0117(18) 0.0170(18) 0.0039(19)
O4 0.020(3) 0.079(6) 0.022(3) 0.000 0.014(2) 0.000
C2 0.018(4) 0.010(4) 0.037(5) 0.000 0.018(4) 0.000
O1 0.060(3) 0.035(3) 0.025(2) 0.009(2) 0.031(2) 0.018(3)
C3 0.022(3) 0.012(3) 0.034(3) 0.005(3) 0.017(3) 0.007(3)
C1 0.024(4) 0.008(4) 0.034(5) 0.000 0.019(4) 0.000
C4 0.023(4) 0.027(5) 0.017(4) 0.000 0.010(3) 0.000
C5 0.020(4) 0.025(5) 0.013(4) 0.000 0.009(3) 0.000
C7 0.015(4) 0.038(5) 0.012(4) 0.000 0.007(3) 0.000
C6 0.019(4) 0.029(5) 0.015(4) 0.000 0.010(3) 0.000
F2 0.101(4) 0.027(2) 0.038(2) 0.005(2) 0.047(3) -0.007(3)
F3 0.101(4) 0.025(2) 0.040(2) -0.005(2) 0.048(3) -0.001(3)
C8 0.035(3) 0.019(3) 0.021(3) 0.003(3) 0.016(3) -0.001(3)
C9 0.033(3) 0.021(3) 0.024(3) -0.008(3) 0.017(3) 0.000(3)
loop_
_atom_type_symbol
_atom_type_description
_atom_type_scat_dispersion_real
_atom_type_scat_dispersion_imag
_atom_type_scat_source
C C 0.0033 0.0016 'International Tables Vol C Tables 4.2.6.8 and 6.1.1.4'
H H 0.0000 0.0000 'International Tables Vol C Tables 4.2.6.8 and 6.1.1.4'
F F 0.0171 0.0103 'International Tables Vol C Tables 4.2.6.8 and 6.1.1.4'
Gd Gd -0.1653 3.9035 'International Tables Vol C Tables 4.2.6.8 and 6.1.1.4'
O O 0.0106 0.0060 'International Tables Vol C Tables 4.2.6.8 and 6.1.1.4'
loop_
_geom_angle_atom_site_label_1
_geom_angle_atom_site_label_2
_geom_angle_atom_site_label_3
_geom_angle
_geom_angle_site_symmetry_1
_geom_angle_site_symmetry_3
O2 Gd1 Gd1 33.39(11) 5 5
O2 Gd1 Gd1 38.60(12) . 5
O2 Gd1 O2 71.99(19) . 5
O2 Gd1 O3 141.63(11) . 6
O2 Gd1 O3 141.63(11) . .
O2 Gd1 O5 73.99(10) . .
O2 Gd1 O5 73.98(10) . 6
O2 Gd1 O4 122.13(18) . .
O2 Gd1 O1 79.54(16) . .
O2 Gd1 O1 79.54(16) . 6
O2 Gd1 C4 25.23(19) 5 .
O2 Gd1 C4 97.2(2) . .
O2 Gd1 C5 77.2(2) . .
O2 Gd1 C5 149.21(19) 5 .
O3 Gd1 Gd1 136.23(10) . 5
O3 Gd1 Gd1 136.23(10) 6 5
O3 Gd1 O2 114.16(13) 6 5
O3 Gd1 O2 114.16(13) . 5
O3 Gd1 O3 73.1(2) 6 .
O3 Gd1 O4 74.43(14) . .
O3 Gd1 O4 74.43(14) 6 .
O3 Gd1 O1 74.09(15) 6 .
O3 Gd1 O1 104.51(16) 6 6
O3 Gd1 O1 74.09(15) . 6
O3 Gd1 O1 104.51(16) . .
O3 Gd1 C4 94.33(16) . .
O3 Gd1 C4 94.33(16) 6 .
O3 Gd1 C5 90.13(16) 6 .
O3 Gd1 C5 90.13(16) . .
O5 Gd1 Gd1 67.05(9) 6 5
O5 Gd1 Gd1 67.05(9) . 5
O5 Gd1 O2 69.45(10) . 5
O5 Gd1 O2 69.45(10) 6 5
O5 Gd1 O3 144.39(14) 6 6
O5 Gd1 O3 144.39(14) . .
O5 Gd1 O3 73.60(14) 6 .
O5 Gd1 O3 73.60(14) . 6
O5 Gd1 O5 133.76(18) . 6
O5 Gd1 O4 84.84(11) 6 .
O5 Gd1 O4 84.84(11) . .
O5 Gd1 O1 77.90(15) . .
O5 Gd1 O1 126.92(15) . 6
O5 Gd1 O1 77.90(15) 6 6
O5 Gd1 O1 126.92(15) 6 .
O5 Gd1 C4 75.97(11) . .
O5 Gd1 C4 75.97(11) 6 .
O5 Gd1 C5 102.21(12) 6 .
O5 Gd1 C5 102.21(12) . .
O4 Gd1 Gd1 83.53(13) . 5
O4 Gd1 O2 50.14(16) . 5
O4 Gd1 C4 24.9(2) . .
O4 Gd1 C5 160.6(2) . .
O1 Gd1 Gd1 113.99(12) 6 5
O1 Gd1 Gd1 113.99(11) . 5
O1 Gd1 O2 141.26(14) 6 5
O1 Gd1 O2 141.25(14) . 5
O1 Gd1 O4 147.26(13) . .
O1 Gd1 O4 147.26(13) 6 .
O1 Gd1 O1 52.3(2) 6 .
O1 Gd1 C4 153.51(12) 6 .
O1 Gd1 C4 153.51(12) . .
O1 Gd1 C5 26.16(11) 6 .
O1 Gd1 C5 26.16(11) . .
C4 Gd1 Gd1 58.62(16) . 5
C5 Gd1 Gd1 115.82(16) . 5
C5 Gd1 C4 174.4(2) . .
Gd1 O2 Gd1 108.01(19) . 5
C4 O2 Gd1 162.5(5) 5 .
C4 O2 Gd1 89.4(5) 5 5
C1 O5 Gd1 137.6(4) . .
C4 O4 Gd1 97.5(5) . .
C3 C2 C3 117.4(8) 2 .
C3 C2 C1 121.3(4) 2 .
C3 C2 C1 121.3(4) . .
C5 O1 Gd1 92.9(4) . .
F1 C3 C2 119.8(5) . .
F1 C3 C3 118.9(3) . 6_545
C2 C3 C3 121.3(4) . 6_545
O5 C1 O5 129.6(8) 2 .
O5 C1 C2 115.2(4) 2 .
O5 C1 C2 115.2(4) . .
O2 C4 Gd1 65.3(4) 5 .
O2 C4 C7 118.6(7) 5 .
O4 C4 Gd1 57.6(4) . .
O4 C4 O2 122.9(7) . 5
O4 C4 C7 118.5(7) . .
C7 C4 Gd1 176.1(5) . .
O1 C5 Gd1 60.9(3) 6 .
O1 C5 Gd1 60.9(3) . .
O1 C5 O1 121.7(7) 6 .
O1 C5 C6 119.1(3) 6 .
O1 C5 C6 119.1(3) . .
C6 C5 Gd1 175.5(6) . .
C8 C7 C4 121.6(4) 6 .
C8 C7 C4 121.6(4) . .
C8 C7 C8 116.8(7) . 6
C9 C6 C5 122.1(4) . .
C9 C6 C5 122.1(4) 6 .
C9 C6 C9 115.7(7) 6 .
C7 C8 C9 121.6(5) . 1_556
F2 C8 C7 119.4(5) . .
F2 C8 C9 119.0(5) . 1_556
C6 C9 C8 122.0(5) . 1_554
F3 C9 C6 122.4(5) . .
F3 C9 C8 115.6(5) . 1_554
loop_
_geom_bond_atom_site_label_1
_geom_bond_atom_site_label_2
_geom_bond_distance
_geom_bond_site_symmetry_2
Gd1 Gd1 4.0674(17) 5
Gd1 O2 2.354(5) .
Gd1 O2 2.668(5) 5
Gd1 O3 2.440(4) 6
Gd1 O3 2.440(4) .
Gd1 O5 2.359(4) 6
Gd1 O5 2.359(4) .
Gd1 O4 2.500(6) .
Gd1 O1 2.470(4) 6
Gd1 O1 2.470(4) .
Gd1 C4 2.936(8) .
Gd1 C5 2.822(8) .
O2 C4 1.251(9) 5
O5 C1 1.237(5) .
F1 C3 1.345(6) .
O4 C4 1.247(10) .
C2 C3 1.363(7) .
C2 C3 1.363(7) 2
C2 C1 1.516(11) .
O1 C5 1.246(6) .
C3 C3 1.379(12) 6_545
C4 C7 1.508(11) .
C5 C6 1.497(10) .
C7 C8 1.375(7) .
C7 C8 1.375(7) 6
C6 C9 1.385(7) 6
C6 C9 1.385(7) .
F2 C8 1.324(7) .
F3 C9 1.324(7) .
C8 C9 1.393(9) 1_556
