#------------------------------------------------------------------------------
#$Date: 2017-05-06 01:10:37 +0300 (Sat, 06 May 2017) $
#$Revision: 196450 $
#$URL: file:///home/coder/svn-repositories/cod/cif/7/04/24/7042422.cif $
#------------------------------------------------------------------------------
#
# This file is available in the Crystallography Open Database (COD),
# http://www.crystallography.net/
#
# All data on this site have been placed in the public domain by the
# contributors.
#
data_7042422
loop_
_publ_author_name
'Han, Yongqiang'
'Yan, Pengfei'
'Sun, Jingwen'
'An, Guanghui'
'Yao, Xu'
'Li, Yuxin'
'Li, Guangming'
_publ_section_title
;
 Luminescence and white-light emitting luminescent sensor of
 tetrafluoroterephthalate-lanthanide metal-organic frameworks.
;
_journal_issue                   14
_journal_name_full
'Dalton transactions (Cambridge, England : 2003)'
_journal_page_first              4642
_journal_page_last               4653
_journal_paper_doi               10.1039/c7dt00215g
_journal_volume                  46
_journal_year                    2017
_chemical_formula_moiety         'C12 H4 F6 Nd O8'
_chemical_formula_sum            'C12 H4 F6 Nd O8'
_chemical_formula_weight         534.39
_space_group_crystal_system      monoclinic
_space_group_IT_number           12
_space_group_name_Hall           '-C 2y'
_space_group_name_H-M_alt        'C 1 2/m 1'
_symmetry_space_group_name_Hall  '-C 2y'
_symmetry_space_group_name_H-M   'C 1 2/m 1'
_atom_sites_solution_hydrogens   difmap
_audit_creation_date             2017-03-07
_audit_creation_method
;
Olex2 1.2
(compiled 2017.03.02 svn.r3394 for OlexSys, GUI svn.r5324)
;
_audit_update_record
;
2017-03-08 deposited with the CCDC.
2017-03-09 downloaded from the CCDC.
;
_cell_angle_alpha                90
_cell_angle_beta                 125.732(5)
_cell_angle_gamma                90
_cell_formula_units_Z            4
_cell_length_a                   14.025(5)
_cell_length_b                   11.325(5)
_cell_length_c                   11.715(5)
_cell_measurement_reflns_used    1547
_cell_measurement_temperature    293(2)
_cell_measurement_theta_max      29.3584
_cell_measurement_theta_min      3.5720
_cell_volume                     1510.5(11)
_computing_data_collection
'CrysAlisPro, Agilent Technologies,Version 1.171.35.21 (release 20-01-2012 CrysAlis171 .NET)(compiled Jan 23 2012,18:06:46)'
_computing_molecular_graphics    'Olex2 (Dolomanov et al., 2009)'
_computing_publication_material  '(K. Brandenburg, Diamond 3.1, 2009)'
_computing_structure_refinement  'ShelXL (Sheldrick, 2015)'
_computing_structure_solution    'SHELXS-2016/6 (Sheldrick, 2015)'
_diffrn_ambient_temperature      293(2)
_diffrn_measured_fraction_theta_full 0.997
_diffrn_measured_fraction_theta_max 0.997
_diffrn_measurement_device_type  'multiwire proportional'
_diffrn_measurement_method       'phi and omega scans'
_diffrn_radiation_monochromator  graphite
_diffrn_radiation_type           MoK\a
_diffrn_radiation_wavelength     0.71069
_diffrn_reflns_av_R_equivalents  0.0374
_diffrn_reflns_av_unetI/netI     0.0510
_diffrn_reflns_Laue_measured_fraction_full 0.997
_diffrn_reflns_Laue_measured_fraction_max 0.997
_diffrn_reflns_limit_h_max       16
_diffrn_reflns_limit_h_min       -16
_diffrn_reflns_limit_k_max       13
_diffrn_reflns_limit_k_min       -11
_diffrn_reflns_limit_l_max       11
_diffrn_reflns_limit_l_min       -13
_diffrn_reflns_number            2773
_diffrn_reflns_point_group_measured_fraction_full 0.997
_diffrn_reflns_point_group_measured_fraction_max 0.997
_diffrn_reflns_theta_full        24.999
_diffrn_reflns_theta_max         24.999
_diffrn_reflns_theta_min         3.579
_exptl_absorpt_coefficient_mu    3.551
_exptl_absorpt_correction_T_max  0.587
_exptl_absorpt_correction_T_min  0.469
_exptl_absorpt_correction_type   multi-scan
_exptl_absorpt_process_details
;
CrysAlisPro, Agilent Technologies,
Version 1.171.35.21 (release 20-01-2012 CrysAlis171 .NET)
(compiled Jan 23 2012,18:06:46)
Empirical absorption correction using spherical harmonics,
 implemented in SCALE3 ABSPACK scaling algorithm.
;
_exptl_crystal_colour            purple
_exptl_crystal_density_diffrn    2.350
_exptl_crystal_description       block
_exptl_crystal_F_000             1056
_exptl_crystal_size_max          0.23
_exptl_crystal_size_mid          0.18
_exptl_crystal_size_min          0.15
_refine_diff_density_max         0.931
_refine_diff_density_min         -1.058
_refine_diff_density_rms         0.139
_refine_ls_extinction_method     none
_refine_ls_goodness_of_fit_ref   1.057
_refine_ls_hydrogen_treatment    constr
_refine_ls_matrix_type           full
_refine_ls_number_parameters     134
_refine_ls_number_reflns         1406
_refine_ls_number_restraints     0
_refine_ls_restrained_S_all      1.057
_refine_ls_R_factor_all          0.0293
_refine_ls_R_factor_gt           0.0274
_refine_ls_shift/su_max          0.000
_refine_ls_shift/su_mean         0.000
_refine_ls_structure_factor_coef Fsqd
_refine_ls_weighting_details
'w=1/[\s^2^(Fo^2^)+(0.0278P)^2^] where P=(Fo^2^+2Fc^2^)/3'
_refine_ls_weighting_scheme      calc
_refine_ls_wR_factor_gt          0.0639
_refine_ls_wR_factor_ref         0.0657
_reflns_Friedel_coverage         0.000
_reflns_number_gt                1325
_reflns_number_total             1410
_reflns_threshold_expression     'I > 2\s(I)'
_cod_data_source_file            c7dt00215g2.cif
_cod_data_source_block           5-nd_sq
_cod_depositor_comments
'Adding full bibliography for 7042409--7042422.cif.'
_cod_database_code               7042422
_shelx_shelxl_version_number     2016/6
_shelx_space_group_comment
;
The symmetry employed for this shelxl refinement is uniquely defined
by the following loop, which should always be used as a source of
symmetry information in preference to the above space-group names.
They are only intended as comments.
;
_olex2_refinement_description
;
1. Fixed Uiso
 At 1.2 times of:
  All O(H,H) groups
2.a Riding coordinates:
 O1(H1A,H1B)
;
_shelx_res_file
;
TITL 123 in C2 C2/m
    5-nd_sq.res
    created by SHELXL-2016/6 at 18:40:30 on 07-Mar-2017
CELL 0.71069 14.025 11.325 11.715 90 125.732 90
ZERR 1 0.005 0.005 0.005 0 0.005 0
LATT 7
SYMM -X,+Y,-Z
SFAC C H F Nd O
UNIT 48 16 24 4 32

L.S. 5 0 4
PLAN  20
BOND $H
ABIN
fmap 2 53 53
acta
MERG 2
OMIT -3 50
REM <olex2.extras>
REM <HklSrc "%.\\5-nd_sq.hkl">
REM </olex2.extras>

WGHT    0.027800
FVAR       0.08917
ND1   4   -0.162514    0.000000   -0.034618    10.50000    0.01750    0.01367 =
         0.01267    0.00000    0.01060    0.00000
F3    3    0.142341    0.210283    0.633287    11.00000    0.10331    0.03080 =
         0.04088   -0.00622    0.05225   -0.00088
F2    3    0.131336    0.206458    0.402369    11.00000    0.09580    0.03572 =
         0.03940    0.00311    0.04659   -0.01138
O2    5   -0.090718    0.195520   -0.027349    11.00000    0.02978    0.01771 =
         0.05828    0.00483    0.02561   -0.00194
O5    5    0.161328    0.096707    0.840048    11.00000    0.06744    0.03385 =
         0.02890   -0.00823    0.03547   -0.01774
O1    5   -0.336571   -0.133140   -0.154208    11.00000    0.02569    0.04135 =
         0.04542   -0.01548    0.01877   -0.00940
AFIX   3
H1A   2   -0.410861   -0.128430   -0.208958    11.00000   -1.20000
H1B   2   -0.319961   -0.207770   -0.152198    11.00000   -1.20000
AFIX   0
O3    5    0.045756    0.000000    0.152955    10.50000    0.02224    0.03575 =
         0.01365    0.00000    0.00889    0.00000
O4    5    0.237836    0.000000    0.294779    10.50000    0.02170    0.09801 =
         0.01959    0.00000    0.01397    0.00000
C1    1    0.000000    0.242251    0.000000    10.50000    0.02702    0.00899 =
         0.03503    0.00000    0.01670    0.00000
C2    1    0.000000    0.375225    0.000000    10.50000    0.02285    0.01209 =
         0.04187    0.00000    0.02213    0.00000
C4    1    0.141196    0.000000    0.274137    10.50000    0.02378    0.03072 =
         0.01637    0.00000    0.01313    0.00000
C5    1    0.135673    0.000000    0.400164    10.50000    0.01738    0.04631 =
         0.01351    0.00000    0.01018    0.00000
C6    1    0.136184    0.103975    0.461833    11.00000    0.03975    0.02716 =
         0.02054    0.00253    0.01945   -0.00342
C7    1    0.141785    0.103386    0.582962    11.00000    0.03416    0.03412 =
         0.01961   -0.00422    0.01747    0.00012
C8    1    0.146077    0.000000    0.649329    10.50000    0.02089    0.03394 =
         0.01526    0.00000    0.00933    0.00000
C3    1    0.051786    0.439226    0.122842    11.00000    0.02412    0.01640 =
         0.03665    0.00517    0.01994    0.00581
C9    1    0.157446    0.000000    0.785841    10.50000    0.01934    0.03750 =
         0.01782    0.00000    0.01137    0.00000
F1    3    0.100909    0.381582    0.245105    11.00000    0.04835    0.02708 =
         0.03671    0.01076    0.02172    0.00392
HKLF 4




REM  123 in C2 C2/m
REM R1 =  0.0274 for    1325 Fo > 4sig(Fo)  and  0.0293 for all    1406 data
REM    134 parameters refined using      0 restraints

END

WGHT      0.0279      0.0000

REM Highest difference peak  0.931,  deepest hole -1.058,  1-sigma level  0.139
Q1    1  -0.0952  0.0000  0.0376  10.50000  0.05    0.93
Q2    1  -0.2027  0.0000  0.0066  10.50000  0.05    0.81
Q3    1  -0.1294  0.0000 -0.0705  10.50000  0.05    0.79
Q4    1  -0.2396  0.0000 -0.1219  10.50000  0.05    0.71
Q5    1  -0.0738  0.1065 -0.0069  11.00000  0.05    0.63
Q6    1  -0.2484 -0.1064 -0.0523  11.00000  0.05    0.59
Q7    1  -0.3615 -0.1929 -0.1350  11.00000  0.05    0.45
Q8    1  -0.0149 -0.0494  0.1552  11.00000  0.05    0.44
Q9    1  -0.3578 -0.0782 -0.1381  11.00000  0.05    0.44
Q10   1   0.2838  0.1754  0.9306  11.00000  0.05    0.42
Q11   1   0.2589  0.1227  0.4392  11.00000  0.05    0.41
Q12   1   0.2976  0.0000  0.3655  10.50000  0.05    0.39
Q13   1   0.0000  0.1184  0.0000  10.50000  0.05    0.37
Q14   1   0.1250  0.0921  0.8970  11.00000  0.05    0.35
Q15   1   0.0055  0.0654  0.3521  11.00000  0.05    0.34
Q16   1   0.2552  0.2771  0.7620  11.00000  0.05    0.34
Q17   1  -0.3514 -0.1397 -0.0396  11.00000  0.05    0.33
Q18   1   0.1801  0.1027  0.5422  11.00000  0.05    0.33
Q19   1  -0.0636  0.1616 -0.0737  11.00000  0.05    0.33
Q20   1  -0.1612 -0.0782 -0.0319  11.00000  0.05    0.33
;
_shelx_res_checksum              96090
_shelx_fab_file
;
    0   12    0      0.76      0.00
    0   12    1     -0.62      0.00
    0   12    2      0.31      0.00
    0   12    3     -0.09      0.00
    0   12    4      0.06      0.00
    0   12    5     -0.17      0.00
    0   10    0      1.83      0.00
    0   10    1     -1.42      0.00
    0   10    2      0.48      0.00
    0   10    3      0.37      0.00
    0   10    4     -0.73      0.00
    0   10    5      0.62      0.00
    0   10    6     -0.35      0.00
    0   10    7      0.14      0.00
    0    8    0      4.65      0.00
    0    8    1     -3.60      0.00
    0    8    2      1.10      0.00
    0    8    3      1.38      0.00
    0    8    4     -2.70      0.00
    0    8    5      2.64      0.00
    0    8    6     -1.76      0.00
    0    8    7      0.72      0.00
    0    8    8      0.11      0.00
    0    8    9     -0.61      0.00
    0    6    0      8.91      0.00
    0    6    1     -6.95      0.00
    0    6    2      2.24      0.00
    0    6    3      2.53      0.00
    0    6    4     -5.14      0.00
    0    6    5      5.07      0.00
    0    6    6     -3.31      0.00
    0    6    7      1.20      0.00
    0    6    8      0.40      0.00
    0    6    9     -1.23      0.00
    0    6   10      1.35      0.00
    0    4    0     15.62      0.00
    0    4    1    -12.44      0.00
    0    4    2      4.83      0.00
    0    4    3      2.96      0.00
    0    4    4     -7.30      0.00
    0    4    5      7.33      0.00
    0    4    6     -4.64      0.00
    0    4    7      1.49      0.00
    0    4    8      0.69      0.00
    0    4    9     -1.60      0.00
    0    4   10      1.57      0.00
    0    2    0     25.76      0.00
    0    2    1    -21.03      0.00
    0    2    2      9.57      0.00
    0    2    3      2.39      0.00
    0    2    4     -9.49      0.00
    0    2    5     10.20      0.00
    0    2    6     -6.71      0.00
    0    2    7      2.36      0.00
    0    2    8      0.61      0.00
    0    2    9     -1.75      0.00
    0    2   10      1.60      0.00
    0    2   11     -0.92      0.00
    0    0    2     12.44      0.00
    0    0    3      1.88      0.00
    0    0    4    -10.63      0.00
    0    0    5     11.90      0.00
    0    0    6     -8.10      0.00
    0    0    7      3.12      0.00
    0    0    8      0.36      0.00
    0    0    9     -1.71      0.00
    0    0   10      1.57      0.00
    0    0   11     -0.83      0.00
    1   13    2     -0.42      0.00
    1   13    1      0.52      0.00
    1   13    0     -0.54      0.00
   -1   13    1      0.40      0.00
   -1   13    2     -0.15      0.00
   -1   13    3     -0.04      0.00
    1   11    6      0.02      0.00
    1   11    5     -0.01      0.00
    1   11    4     -0.02      0.00
    1   11    3      0.20      0.00
    1   11    2     -0.59      0.00
    1   11    1      0.99      0.00
    1   11    0     -1.10      0.00
   -1   11    1      0.74      0.00
   -1   11    2     -0.11      0.00
   -1   11    3     -0.38      0.00
   -1   11    4      0.47      0.00
   -1   11    5     -0.22      0.00
   -1   11    6     -0.08      0.00
    1    9    7     -0.63      0.00
    1    9    6      1.10      0.00
    1    9    5     -1.42      0.00
    1    9    4      1.29      0.00
    1    9    3     -0.45      0.00
    1    9    2     -1.01      0.00
    1    9    1      2.42      0.00
    1    9    0     -2.89      0.00
   -1    9    1      2.03      0.00
   -1    9    2     -0.33      0.00
   -1    9    3     -1.23      0.00
   -1    9    4      1.88      0.00
   -1    9    5     -1.59      0.00
   -1    9    6      0.85      0.00
   -1    9    7     -0.18      0.00
   -1    9    8     -0.24      0.00
    1    7    9      0.60      0.00
    1    7    8      0.09      0.00
    1    7    7     -1.26      0.00
    1    7    6      2.61      0.00
    1    7    5     -3.54      0.00
    1    7    4      3.23      0.00
    1    7    3     -1.16      0.00
    1    7    2     -2.22      0.00
    1    7    1      5.33      0.00
    1    7    0     -6.31      0.00
   -1    7    1      4.40      0.00
   -1    7    2     -0.63      0.00
   -1    7    3     -2.93      0.00
   -1    7    4      4.60      0.00
   -1    7    5     -4.13      0.00
   -1    7    6      2.43      0.00
   -1    7    7     -0.63      0.00
   -1    7    8     -0.64      0.00
   -1    7    9      1.28      0.00
   -1    7   10     -1.36      0.00
    1    5    9      1.02      0.00
    1    5    8     -0.13      0.00
    1    5    7     -1.63      0.00
    1    5    6      3.84      0.00
    1    5    5     -5.43      0.00
    1    5    4      4.91      0.00
    1    5    3     -1.33      0.00
    1    5    2     -4.48      0.00
    1    5    1      9.78      0.00
    1    5    0    -11.42      0.00
   -1    5    1      8.16      0.00
   -1    5    2     -1.70      0.00
   -1    5    3     -4.46      0.00
   -1    5    4      7.44      0.00
   -1    5    5     -6.74      0.00
   -1    5    6      3.90      0.00
   -1    5    7     -0.93      0.00
   -1    5    8     -1.01      0.00
   -1    5    9      1.79      0.00
   -1    5   10     -1.74      0.00
    1    3   10     -1.19      0.00
    1    3    9      1.18      0.00
    1    3    8     -0.14      0.00
    1    3    7     -2.18      0.00
    1    3    6      5.29      0.00
    1    3    5     -7.53      0.00
    1    3    4      6.51      0.00
    1    3    3     -0.74      0.00
    1    3    2     -8.50      0.00
    1    3    1     16.95      0.00
    1    3    0    -19.74      0.00
   -1    3    1     14.84      0.00
   -1    3    2     -4.76      0.00
   -1    3    3     -5.14      0.00
   -1    3    4     10.34      0.00
   -1    3    5     -9.80      0.00
   -1    3    6      5.75      0.00
   -1    3    7     -1.38      0.00
   -1    3    8     -1.36      0.00
   -1    3    9      2.22      0.00
   -1    3   10     -1.92      0.00
   -1    3   11      1.19      0.00
    1    1   10     -0.97      0.00
    1    1    9      0.90      0.00
    1    1    8      0.39      0.00
    1    1    7     -3.28      0.00
    1    1    6      7.15      0.00
    1    1    5     -9.74      0.00
    1    1    4      7.89      0.00
    1    1    3      0.30      0.00
    1    1    2    -13.01      0.00
    1    1    1     24.55      0.00
   -1    1    2     -8.43      0.00
   -1    1    3     -5.34      0.00
   -1    1    4     13.10      0.00
   -1    1    5    -13.14      0.00
   -1    1    6      8.13      0.00
   -1    1    7     -2.32      0.00
   -1    1    8     -1.48      0.00
   -1    1    9      2.72      0.00
   -1    1   10     -2.29      0.00
   -1    1   11      1.29      0.00
    2   12    3     -0.48      0.00
    2   12    2      0.61      0.00
    2   12    1     -0.71      0.00
    2   12    0      0.66      0.00
   -2   12    1     -0.35      0.00
   -2   12    2     -0.09      0.00
   -2   12    3      0.41      0.00
   -2   12    4     -0.41      0.00
   -2   12    5      0.12      0.00
    2   10    6     -0.57      0.00
    2   10    5      0.55      0.00
    2   10    4     -0.32      0.00
    2   10    3     -0.20      0.00
    2   10    2      0.93      0.00
    2   10    1     -1.57      0.00
    2   10    0      1.67      0.00
   -2   10    1     -1.03      0.00
   -2   10    2     -0.05      0.00
   -2   10    3      0.96      0.00
   -2   10    4     -1.20      0.00
   -2   10    5      0.81      0.00
   -2   10    6     -0.21      0.00
   -2   10    7     -0.22      0.00
   -2   10    8      0.36      0.00
    2    8    8     -0.29      0.00
    2    8    7      1.05      0.00
    2    8    6     -1.82      0.00
    2    8    5      2.23      0.00
    2    8    4     -1.84      0.00
    2    8    3      0.44      0.00
    2    8    2      1.65      0.00
    2    8    1     -3.44      0.00
    2    8    0      3.80      0.00
   -2    8    1     -2.32      0.00
   -2    8    2     -0.29      0.00
   -2    8    3      2.58      0.00
   -2    8    4     -3.46      0.00
   -2    8    5      2.81      0.00
   -2    8    6     -1.40      0.00
   -2    8    7      0.08      0.00
   -2    8    8      0.74      0.00
   -2    8    9     -1.07      0.00
    2    6    9     -0.47      0.00
    2    6    8     -0.25      0.00
    2    6    7      1.58      0.00
    2    6    6     -3.07      0.00
    2    6    5      3.91      0.00
    2    6    4     -3.16      0.00
    2    6    3      0.37      0.00
    2    6    2      3.71      0.00
    2    6    1     -7.09      0.00
    2    6    0      7.66      0.00
   -2    6    1     -4.70      0.00
   -2    6    2     -0.36      0.00
   -2    6    3      4.84      0.00
   -2    6    4     -6.66      0.00
   -2    6    5      5.57      0.00
   -2    6    6     -2.90      0.00
   -2    6    7      0.33      0.00
   -2    6    8      1.25      0.00
   -2    6    9     -1.82      0.00
   -2    6   10      1.72      0.00
   -2    6   11     -1.24      0.00
    2    4    9     -0.72      0.00
    2    4    8     -0.18      0.00
    2    4    7      2.00      0.00
    2    4    6     -4.18      0.00
    2    4    5      5.46      0.00
    2    4    4     -4.24      0.00
    2    4    3     -0.31      0.00
    2    4    2      7.00      0.00
    2    4    1    -12.64      0.00
    2    4    0     13.76      0.00
   -2    4    1     -9.11      0.00
   -2    4    2      0.89      0.00
   -2    4    3      6.64      0.00
   -2    4    4    -10.00      0.00
   -2    4    5      8.61      0.00
   -2    4    6     -4.57      0.00
   -2    4    7      0.61      0.00
   -2    4    8      1.67      0.00
   -2    4    9     -2.25      0.00
   -2    4   10      1.85      0.00
   -2    4   11     -1.15      0.00
    2    2   10      0.70      0.00
    2    2    9     -0.58      0.00
    2    2    8     -0.54      0.00
    2    2    7      2.85      0.00
    2    2    6     -5.70      0.00
    2    2    5      7.34      0.00
    2    2    4     -5.44      0.00
    2    2    3     -1.24      0.00
    2    2    2     11.11      0.00
    2    2    1    -19.58      0.00
    2    2    0     21.59      0.00
   -2    2    1    -15.13      0.00
   -2    2    3      8.37      0.00
   -2    2    4    -14.09      0.00
   -2    2    5     12.79      0.00
   -2    2    6     -7.18      0.00
   -2    2    7      1.28      0.00
   -2    2    8      2.28      0.00
   -2    2    9     -3.18      0.00
   -2    2   10      2.48      0.00
   -2    2   11     -1.36      0.00
   -2    2   12      0.49      0.00
    2    0   10      0.50      0.00
    2    0    9     -0.30      0.00
    2    0    8     -0.95      0.00
    2    0    7      3.49      0.00
    2    0    6     -6.63      0.00
    2    0    5      8.36      0.00
    2    0    4     -6.02      0.00
    2    0    3     -1.83      0.00
    2    0    2     13.36      0.00
    2    0    1    -23.29      0.00
    2    0    0     25.73      0.00
   -2    0    2      4.30      0.00
   -2    0    3      9.33      0.00
   -2    0    4    -16.42      0.00
   -2    0    5     15.28      0.00
   -2    0    6     -8.86      0.00
   -2    0    7      1.82      0.00
   -2    0    8      2.60      0.00
   -2    0    9     -3.83      0.00
   -2    0   10      3.04      0.00
   -2    0   11     -1.66      0.00
   -2    0   12      0.56      0.00
   -2    2    2      3.12      0.00
    3   13    0     -0.26      0.00
   -3   13    1      0.10      0.00
   -3   13    2      0.14      0.00
   -3   13    3     -0.32      0.00
    3   11    4     -0.23      0.00
    3   11    3      0.58      0.00
    3   11    2     -0.93      0.00
    3   11    1      1.13      0.00
    3   11    0     -1.03      0.00
   -3   11    1      0.54      0.00
   -3   11    2      0.16      0.00
   -3   11    3     -0.69      0.00
   -3   11    4      0.75      0.00
   -3   11    5     -0.36      0.00
   -3   11    6     -0.18      0.00
   -3   11    7      0.53      0.00
    3    9    6      1.06      0.00
    3    9    5     -1.14      0.00
    3    9    4      0.76      0.00
    3    9    3      0.12      0.00
    3    9    2     -1.26      0.00
    3    9    1      2.14      0.00
    3    9    0     -2.15      0.00
   -3    9    1      1.13      0.00
   -3    9    2      0.48      0.00
   -3    9    3     -1.82      0.00
   -3    9    4      2.20      0.00
   -3    9    5     -1.60      0.00
   -3    9    6      0.56      0.00
   -3    9    7      0.31      0.00
   -3    9    8     -0.73      0.00
   -3    9    9      0.80      0.00
    3    7    7     -1.16      0.00
    3    7    6      2.13      0.00
    3    7    5     -2.59      0.00
    3    7    4      1.95      0.00
    3    7    3     -0.06      0.00
    3    7    2     -2.50      0.00
    3    7    1      4.42      0.00
    3    7    0     -4.42      0.00
   -3    7    1      2.16      0.00
   -3    7    2      1.33      0.00
   -3    7    3     -4.20      0.00
   -3    7    4      5.09      0.00
   -3    7    5     -3.92      0.00
   -3    7    6      1.74      0.00
   -3    7    7      0.23      0.00
   -3    7    8     -1.35      0.00
   -3    7    9      1.66      0.00
   -3    7   10     -1.46      0.00
    3    5    8      0.36      0.00
    3    5    7     -1.71      0.00
    3    5    6      3.23      0.00
    3    5    5     -3.91      0.00
    3    5    4      2.70      0.00
    3    5    3      0.74      0.00
    3    5    2     -5.35      0.00
    3    5    1      8.82      0.00
    3    5    0     -8.84      0.00
   -3    5    1      4.82      0.00
   -3    5    2      1.42      0.00
   -3    5    3     -6.70      0.00
   -3    5    4      8.56      0.00
   -3    5    5     -6.81      0.00
   -3    5    6      3.19      0.00
   -3    5    7      0.10      0.00
   -3    5    8     -1.85      0.00
   -3    5    9      2.15      0.00
   -3    5   10     -1.67      0.00
   -3    5   11      0.99      0.00
    3    3    9      0.40      0.00
    3    3    8      0.51      0.00
    3    3    7     -2.30      0.00
    3    3    6      4.35      0.00
    3    3    5     -5.29      0.00
    3    3    4      3.49      0.00
    3    3    3      1.68      0.00
    3    3    2     -8.78      0.00
    3    3    1     14.34      0.00
    3    3    0    -14.76      0.00
   -3    3    1      8.88      0.00
   -3    3    2      0.77      0.00
   -3    3    3     -9.39      0.00
   -3    3    5    -10.87      0.00
   -3    3    6      5.49      0.00
   -3    3    7     -0.30      0.00
   -3    3    8     -2.56      0.00
   -3    3    9      2.98      0.00
   -3    3   10     -2.07      0.00
   -3    3   11      0.97      0.00
   -3    3   12     -0.25      0.00
    3    1    9      0.18      0.00
    3    1    8      0.86      0.00
    3    1    7     -2.90      0.00
    3    1    6      5.29      0.00
    3    1    5     -6.37      0.00
    3    1    4      4.10      0.00
    3    1    3      2.45      0.00
    3    1    2    -11.55      0.00
    3    1    1     18.83      0.00
    3    1    0    -19.60      0.00
   -3    1    1     12.14      0.00
   -3    1    2      0.51      0.00
   -3    1    3    -12.19      0.00
   -3    1    4     17.55      0.00
   -3    1    5    -15.24      0.00
   -3    1    6      8.18      0.00
   -3    1    7     -0.90      0.00
   -3    1    8     -3.45      0.00
   -3    1    9      4.36      0.00
   -3    1   10     -3.17      0.00
   -3    1   11      1.52      0.00
   -3    1   12     -0.38      0.00
   -3    3    4     12.99      0.00
    4   12    2      0.66      0.00
    4   12    1     -0.68      0.00
    4   12    0      0.55      0.00
   -4   12    1     -0.25      0.00
   -4   12    2     -0.13      0.00
   -4   12    3      0.40      0.00
   -4   12    4     -0.38      0.00
   -4   12    5      0.04      0.00
   -4   12    6      0.41      0.00
    4   10    5      0.39      0.00
    4   10    4      0.02      0.00
    4   10    3     -0.62      0.00
    4   10    2      1.22      0.00
    4   10    1     -1.56      0.00
    4   10    0      1.39      0.00
   -4   10    1     -0.67      0.00
   -4   10    2     -0.32      0.00
   -4   10    3      1.09      0.00
   -4   10    4     -1.24      0.00
   -4   10    5      0.75      0.00
   -4   10    6      0.01      0.00
   -4   10    7     -0.62      0.00
   -4   10    8      0.85      0.00
   -4   10    9     -0.76      0.00
    4    8    6     -1.14      0.00
    4    8    5      1.36      0.00
    4    8    4     -0.91      0.00
    4    8    3     -0.24      0.00
    4    8    2      1.67      0.00
    4    8    1     -2.62      0.00
    4    8    0      2.39      0.00
   -4    8    1     -0.87      0.00
   -4    8    2     -1.26      0.00
   -4    8    3      2.90      0.00
   -4    8    4     -3.24      0.00
   -4    8    5      2.30      0.00
   -4    8    6     -0.75      0.00
   -4    8    7     -0.57      0.00
   -4    8    8      1.26      0.00
   -4    8    9     -1.36      0.00
   -4    8   10      1.13      0.00
    4    6    6     -2.11      0.00
    4    6    5      2.56      0.00
    4    6    4     -1.69      0.00
    4    6    3     -0.62      0.00
    4    6    2      3.52      0.00
    4    6    1     -5.43      0.00
    4    6    0      4.96      0.00
   -4    6    1     -1.90      0.00
   -4    6    2     -2.36      0.00
   -4    6    3      5.64      0.00
   -4    6    4     -6.41      0.00
   -4    6    5      4.67      0.00
   -4    6    6     -1.77      0.00
   -4    6    7     -0.71      0.00
   -4    6    8      1.93      0.00
   -4    6    9     -2.00      0.00
   -4    6   10      1.48      0.00
   -4    6   11     -0.83      0.00
    4    4    8     -0.44      0.00
    4    4    7      1.76      0.00
    4    4    6     -3.23      0.00
    4    4    5      3.77      0.00
    4    4    4     -2.24      0.00
    4    4    3     -1.62      0.00
    4    4    2      6.51      0.00
    4    4    1     -9.88      0.00
    4    4    0      9.35      0.00
   -4    4    1     -4.43      0.00
   -4    4    2     -2.76      0.00
   -4    4    3      8.66      0.00
   -4    4    4    -10.53      0.00
   -4    4    6     -3.52      0.00
   -4    4    7     -0.59      0.00
   -4    4    8      2.62      0.00
   -4    4    9     -2.62      0.00
   -4    4   10      1.61      0.00
   -4    4   11     -0.58      0.00
   -4    4   12     -0.02      0.00
    4    2    8     -0.60      0.00
    4    2    7      2.16      0.00
    4    2    6     -3.91      0.00
    4    2    5      4.52      0.00
    4    2    4     -2.51      0.00
    4    2    3     -2.60      0.00
    4    2    2      9.24      0.00
    4    2    1    -14.02      0.00
    4    2    0     13.53      0.00
   -4    2    1     -6.81      0.00
   -4    2    2     -3.46      0.00
   -4    2    5     12.78      0.00
   -4    2    6     -6.15      0.00
   -4    2    7     -0.27      0.00
   -4    2    8      3.80      0.00
   -4    2    9     -4.11      0.00
   -4    2   10      2.59      0.00
   -4    2   11     -0.86      0.00
   -4    2   12     -0.15      0.00
    4    0    9     -0.09      0.00
    4    0    8     -0.69      0.00
    4    0    7      2.26      0.00
    4    0    6     -4.05      0.00
    4    0    5      4.66      0.00
    4    0    4     -2.47      0.00
    4    0    3     -3.12      0.00
    4    0    2     10.46      0.00
    4    0    1    -15.80      0.00
    4    0    0     15.26      0.00
   -4    0    1     -7.67      0.00
   -4    0    2     -4.08      0.00
   -4    0    3     14.44      0.00
   -4    0    4    -18.58      0.00
   -4    0    5     15.38      0.00
   -4    0    6     -7.67      0.00
   -4    0    7     -0.05      0.00
   -4    0    8      4.52      0.00
   -4    0    9     -5.14      0.00
   -4    0   10      3.40      0.00
   -4    0   11     -1.25      0.00
   -4    0   12     -0.10      0.00
   -4    2    3     12.35      0.00
   -4    2    4    -15.72      0.00
   -4    4    5      8.12      0.00
    4    6    7      1.08      0.00
    5   11    3      0.68      0.00
    5   11    2     -0.99      0.00
    5   11    1      1.07      0.00
    5   11    0     -0.86      0.00
   -5   11    1      0.39      0.00
   -5   11    2      0.17      0.00
   -5   11    3     -0.56      0.00
   -5   11    4      0.57      0.00
   -5   11    5     -0.17      0.00
   -5   11    6     -0.42      0.00
   -5   11    7      0.86      0.00
   -5   11    8     -0.97      0.00
    5    9    5     -0.44      0.00
    5    9    4      0.06      0.00
    5    9    3      0.66      0.00
    5    9    2     -1.43      0.00
    5    9    1      1.82      0.00
    5    9    0     -1.50      0.00
   -5    9    1      0.50      0.00
   -5    9    2      0.77      0.00
   -5    9    3     -1.68      0.00
   -5    9    4      1.81      0.00
   -5    9    5     -1.14      0.00
   -5    9    6      0.12      0.00
   -5    9    7      0.76      0.00
   -5    9    8     -1.20      0.00
   -5    9    9      1.20      0.00
   -5    9   10     -0.97      0.00
    5    7    5     -1.27      0.00
    5    7    4      0.78      0.00
    5    7    3      0.56      0.00
    5    7    2     -2.19      0.00
    5    7    1      3.12      0.00
    5    7    0     -2.56      0.00
   -5    7    1      0.51      0.00
   -5    7    2      2.08      0.00
   -5    7    3     -3.89      0.00
   -5    7    4      4.05      0.00
   -5    7    5     -2.66      0.00
   -5    7    6      0.63      0.00
   -5    7    7      1.02      0.00
   -5    7    8     -1.77      0.00
   -5    7    9      1.72      0.00
   -5    7   10     -1.27      0.00
   -5    7   11      0.73      0.00
    5    5    5     -2.45      0.00
    5    5    4      1.44      0.00
    5    5    3      1.13      0.00
    5    5    2     -4.26      0.00
    5    5    1      6.13      0.00
    5    5    0     -5.23      0.00
   -5    5    1      1.51      0.00
   -5    5    2      3.38      0.00
   -5    5    3     -6.99      0.00
   -5    5    4      7.61      0.00
   -5    5    5     -5.30      0.00
   -5    5    6      1.70      0.00
   -5    5    7      1.28      0.00
   -5    5    8     -2.56      0.00
   -5    5    9      2.30      0.00
   -5    5   10     -1.34      0.00
   -5    5   11      0.43      0.00
   -5    5   12      0.07      0.00
    5    3    8      0.42      0.00
    5    3    7     -1.56      0.00
    5    3    6      2.86      0.00
    5    3    5     -3.26      0.00
    5    3    4      1.65      0.00
    5    3    3      2.18      0.00
    5    3    2     -6.86      0.00
    5    3    1      9.82      0.00
    5    3    0     -8.71      0.00
   -5    3    1      3.20      0.00
   -5    3    2      4.47      0.00
   -5    3    3    -10.58      0.00
   -5    3    6      3.63      0.00
   -5    3    7      1.37      0.00
   -5    3    8     -3.79      0.00
   -5    3    9      3.56      0.00
   -5    3   10     -1.91      0.00
   -5    3   11      0.30      0.00
   -5    3   12      0.52      0.00
    5    1    8      0.46      0.00
    5    1    7     -1.57      0.00
    5    1    6      2.82      0.00
    5    1    5     -3.10      0.00
    5    1    4      1.16      0.00
    5    1    3      3.30      0.00
    5    1    2     -8.80      0.00
    5    1    1     12.32      0.00
    5    1    0    -10.97      0.00
   -5    1    1      4.11      0.00
   -5    1    2      5.66      0.00
   -5    1    3    -13.75      0.00
   -5    1    4     16.37      0.00
   -5    1    5    -12.76      0.00
   -5    1    6      5.50      0.00
   -5    1    7      1.44      0.00
   -5    1    8     -5.18      0.00
   -5    1    9      5.21      0.00
   -5    1   10     -3.00      0.00
   -5    1   11      0.57      0.00
   -5    1   12      0.82      0.00
   -5    1   13     -1.01      0.00
   -5    3    4     12.25      0.00
   -5    3    5     -9.20      0.00
    5    5    7     -0.99      0.00
    5    5    6      2.03      0.00
    5    7    6      0.95      0.00
    6   12    0      0.45      0.00
   -6   12    1     -0.26      0.00
   -6   12    2      0.05      0.00
   -6   12    3      0.07      0.00
   -6   12    4     -0.01      0.00
   -6   12    5     -0.26      0.00
   -6   12    6      0.61      0.00
    6   10    3     -0.76      0.00
    6   10    2      1.15      0.00
    6   10    1     -1.24      0.00
    6   10    0      0.92      0.00
   -6   10    1     -0.25      0.00
   -6   10    2     -0.50      0.00
   -6   10    3      0.98      0.00
   -6   10    4     -0.96      0.00
   -6   10    5      0.46      0.00
   -6   10    6      0.29      0.00
   -6   10    7     -0.92      0.00
   -6   10    8      1.22      0.00
   -6   10    9     -1.15      0.00
    6    8    3     -0.73      0.00
    6    8    2      1.60      0.00
    6    8    1     -1.99      0.00
    6    8    0      1.49      0.00
   -6    8    1     -0.18      0.00
   -6    8    2     -1.33      0.00
   -6    8    3      2.29      0.00
   -6    8    4     -2.25      0.00
   -6    8    5      1.31      0.00
   -6    8    6     -0.01      0.00
   -6    8    7     -1.04      0.00
   -6    8    8      1.53      0.00
   -6    8    9     -1.50      0.00
   -6    8   10      1.18      0.00
   -6    8   11     -0.78      0.00
    6    6    3     -0.78      0.00
    6    6    2      2.57      0.00
    6    6    1     -3.51      0.00
    6    6    0      2.68      0.00
   -6    6    1     -0.16      0.00
   -6    6    2     -2.86      0.00
   -6    6    3      4.81      0.00
   -6    6    4     -4.75      0.00
   -6    6    5      2.89      0.00
   -6    6    6     -0.38      0.00
   -6    6    7     -1.54      0.00
   -6    6    8      2.23      0.00
   -6    6    9     -1.89      0.00
   -6    6   10      1.12      0.00
   -6    6   11     -0.44      0.00
   -6    6   12      0.05      0.00
    6    4    6     -1.81      0.00
    6    4    5      2.20      0.00
    6    4    4     -1.20      0.00
    6    4    3     -1.38      0.00
    6    4    2      4.48      0.00
    6    4    1     -6.21      0.00
    6    4    0      5.02      0.00
   -6    4    1     -0.87      0.00
   -6    4    2     -4.41      0.00
   -6    4    3      8.19      0.00
   -6    4    4     -8.62      0.00
   -6    4    7     -2.08      0.00
   -6    4    8      3.52      0.00
   -6    4    9     -2.94      0.00
   -6    4   10      1.41      0.00
   -6    4   11     -0.08      0.00
   -6    4   12     -0.50      0.00
    6    2    7      1.13      0.00
    6    2    6     -2.05      0.00
    6    2    5      2.23      0.00
    6    2    4     -0.72      0.00
    6    2    3     -2.67      0.00
    6    2    2      6.68      0.00
    6    2    1     -8.96      0.00
    6    2    0      7.41      0.00
   -6    2    1     -1.82      0.00
   -6    2    2     -5.60      0.00
   -6    2    3     11.29      0.00
   -6    2    4    -12.49      0.00
   -6    2    5      8.93      0.00
   -6    2    6     -2.80      0.00
   -6    2    7     -2.70      0.00
   -6    2    8      5.31      0.00
   -6    2    9     -4.75      0.00
   -6    2   10      2.38      0.00
   -6    2   11     -0.02      0.00
   -6    2   12     -1.20      0.00
   -6    2   13      1.21      0.00
    6    0    7      1.04      0.00
    6    0    6     -1.80      0.00
    6    0    5      1.82      0.00
    6    0    4     -0.11      0.00
    6    0    3     -3.51      0.00
    6    0    2      7.76      0.00
    6    0    1    -10.14      0.00
    6    0    0      8.37      0.00
   -6    0    1     -2.15      0.00
   -6    0    2     -6.16      0.00
   -6    0    3     12.68      0.00
   -6    0    4    -14.24      0.00
   -6    0    5     10.37      0.00
   -6    0    6     -3.41      0.00
   -6    0    7     -3.04      0.00
   -6    0    8      6.27      0.00
   -6    0    9     -5.78      0.00
   -6    0   10      3.01      0.00
   -6    0   11     -0.09      0.00
   -6    0   12     -1.55      0.00
   -6    0   13      1.69      0.00
    6    4    7      0.86      0.00
   -6    4    5      5.78      0.00
   -6    4    6     -1.47      0.00
    6    6    6     -0.81      0.00
    6    6    5      1.18      0.00
    6    6    4     -0.69      0.00
    6    8    5      0.33      0.00
    6    8    4     -0.03      0.00
    7   11    1      0.62      0.00
    7   11    0     -0.39      0.00
   -7   11    1      0.04      0.00
   -7   11    2      0.29      0.00
   -7   11    3     -0.45      0.00
   -7   11    4      0.32      0.00
   -7   11    5      0.06      0.00
   -7   11    6     -0.57      0.00
   -7   11    7      0.95      0.00
    7    9    1      1.24      0.00
    7    9    0     -0.81      0.00
   -7    9    1     -0.05      0.00
   -7    9    2      0.95      0.00
   -7    9    3     -1.46      0.00
   -7    9    4      1.34      0.00
   -7    9    5     -0.67      0.00
   -7    9    6     -0.24      0.00
   -7    9    7      1.02      0.00
   -7    9    8     -1.42      0.00
   -7    9    9      1.44      0.00
   -7    9   10     -1.19      0.00
    7    7    2     -1.64      0.00
    7    7    1      2.09      0.00
    7    7    0     -1.48      0.00
   -7    7    1     -0.09      0.00
   -7    7    2      1.86      0.00
   -7    7    3     -2.88      0.00
   -7    7    4      2.64      0.00
   -7    7    5     -1.36      0.00
   -7    7    6     -0.23      0.00
   -7    7    7      1.39      0.00
   -7    7    8     -1.78      0.00
   -7    7    9      1.54      0.00
   -7    7   10     -1.04      0.00
   -7    7   11      0.59      0.00
    7    5    2     -2.67      0.00
    7    5    1      3.64      0.00
    7    5    0     -2.68      0.00
   -7    5    1     -0.14      0.00
   -7    5    2      3.50      0.00
   -7    5    3     -5.61      0.00
   -7    5    4      5.38      0.00
   -7    5    5     -3.07      0.00
   -7    5    6      0.02      0.00
   -7    5    8     -2.89      0.00
   -7    5    9      2.18      0.00
   -7    5   10     -0.94      0.00
   -7    5   11      0.00      0.00
   -7    5   12      0.32      0.00
    7    3    6      1.34      0.00
    7    3    5     -1.61      0.00
    7    3    4      0.70      0.00
    7    3    3      1.61      0.00
    7    3    2     -4.39      0.00
    7    3    1      5.87      0.00
    7    3    0     -4.52      0.00
   -7    3    2      4.89      0.00
   -7    3    3     -8.52      0.00
   -7    3    4      8.69      0.00
   -7    3    8     -4.86      0.00
   -7    3    9      3.91      0.00
   -7    3   10     -1.71      0.00
   -7    3   11     -0.26      0.00
   -7    3   12      1.12      0.00
   -7    3   13     -0.93      0.00
    7    1    6      1.26      0.00
    7    1    5     -1.23      0.00
    7    1    4     -0.08      0.00
    7    1    3      2.84      0.00
    7    1    2     -6.02      0.00
    7    1    1      7.62      0.00
    7    1    0     -5.93      0.00
   -7    1    1      0.86      0.00
   -7    1    2      5.59      0.00
   -7    1    3    -10.28      0.00
   -7    1    4     10.83      0.00
   -7    1    5     -7.04      0.00
   -7    1    6      0.99      0.00
   -7    1    7      4.32      0.00
   -7    1    8     -6.65      0.00
   -7    1    9      5.65      0.00
   -7    1   10     -2.70      0.00
   -7    1   11     -0.24      0.00
   -7    1   12      1.82      0.00
   -7    1   13     -1.85      0.00
   -7    3    1      0.34      0.00
   -7    3    5     -5.44      0.00
   -7    3    6      0.62      0.00
   -7    3    7      3.35      0.00
    7    5    5     -1.11      0.00
    7    5    4      0.67      0.00
    7    5    3      0.80      0.00
   -7    5    7      2.23      0.00
    7    7    5     -0.32      0.00
    7    7    4      0.10      0.00
    7    7    3      0.67      0.00
    7    9    3      0.71      0.00
    7    9    2     -1.14      0.00
    8   10    0      0.21      0.00
   -8   10    2     -0.77      0.00
   -8   10    3      0.96      0.00
   -8   10    4     -0.76      0.00
   -8   10    5      0.21      0.00
   -8   10    6      0.47      0.00
   -8   10    7     -1.03      0.00
   -8   10    8      1.30      0.00
   -8   10    9     -1.24      0.00
    8    8    0      0.73      0.00
   -8    8    1      0.26      0.00
   -8    8    2     -1.32      0.00
   -8    8    3      1.89      0.00
   -8    8    4     -1.65      0.00
   -8    8    5      0.76      0.00
   -8    8    6      0.32      0.00
   -8    8    7     -1.15      0.00
   -8    8    8      1.51      0.00
   -8    8    9     -1.45      0.00
   -8    8   10      1.17      0.00
   -8    8   11     -0.83      0.00
    8    6    0      1.53      0.00
   -8    6    2     -2.24      0.00
   -8    6    3      3.38      0.00
   -8    6    4     -3.01      0.00
   -8    6    5      1.37      0.00
   -8    6    6      0.57      0.00
   -8    6    7     -1.87      0.00
   -8    6    8      2.09      0.00
   -8    6    9     -1.48      0.00
   -8    6   10      0.63      0.00
   -8    6   11     -0.07      0.00
   -8    6   12     -0.06      0.00
    8    4    4     -0.47      0.00
    8    4    3     -0.88      0.00
    8    4    2      2.65      0.00
    8    4    0      2.68      0.00
   -8    4    2     -3.62      0.00
   -8    4    3      5.79      0.00
   -8    4    4     -5.43      0.00
   -8    4    5      2.77      0.00
   -8    4    9     -2.73      0.00
   -8    4   10      0.87      0.00
   -8    4   11      0.55      0.00
   -8    4   12     -0.98      0.00
   -8    4   13      0.60      0.00
    8    2    5      0.89      0.00
    8    2    4     -0.10      0.00
    8    2    3     -1.77      0.00
    8    2    2      4.01      0.00
    8    2    1     -5.14      0.00
    8    2    0      3.81      0.00
   -8    2    1      0.00      0.00
   -8    2    2     -4.68      0.00
   -8    2    3      7.79      0.00
   -8    2    4     -7.60      0.00
   -8    2    5      4.15      0.00
   -8    2    6      0.77      0.00
   -8    2    7     -4.75      0.00
   -8    2    8      6.12      0.00
   -8    2    9     -4.79      0.00
   -8    2   10      2.01      0.00
   -8    2   11      0.51      0.00
   -8    2   12     -1.69      0.00
   -8    2   13      1.51      0.00
    8    0    6     -0.79      0.00
    8    0    5      0.68      0.00
    8    0    4      0.32      0.00
    8    0    3     -2.36      0.00
    8    0    2      4.70      0.00
    8    0    1     -5.78      0.00
    8    0    0      4.23      0.00
   -8    0    1     -0.05      0.00
   -8    0    2     -5.07      0.00
   -8    0    3      8.53      0.00
   -8    0    4     -8.41      0.00
   -8    0    5      4.67      0.00
   -8    0    6      0.82      0.00
   -8    0    7     -5.41      0.00
   -8    0    8      7.16      0.00
   -8    0    9     -5.81      0.00
   -8    0   10      2.68      0.00
   -8    0   11      0.35      0.00
   -8    0   12     -1.95      0.00
   -8    0   13      1.95      0.00
    8    4    5      0.85      0.00
    8    4    1     -3.62      0.00
   -8    4    1      0.17      0.00
   -8    4    6      0.72      0.00
   -8    4    7     -3.28      0.00
   -8    4    8      3.89      0.00
    8    6    4     -0.24      0.00
    8    6    3     -0.51      0.00
    8    6    2      1.57      0.00
    8    6    1     -2.14      0.00
   -8    6    1      0.21      0.00
    8    8    3     -0.48      0.00
    8    8    2      0.98      0.00
    8    8    1     -1.17      0.00
    8   10    1     -0.53      0.00
   -8   10    1      0.29      0.00
   -9   11    4      0.13      0.00
   -9   11    5      0.22      0.00
   -9   11    6     -0.60      0.00
   -9    9    3     -1.38      0.00
   -9    9    4      1.14      0.00
   -9    9    5     -0.46      0.00
   -9    9    6     -0.38      0.00
   -9    9    7      1.07      0.00
   -9    9    8     -1.41      0.00
   -9    9    9      1.40      0.00
   -9    9   10     -1.14      0.00
   -9    7    3     -2.17      0.00
   -9    7    4      1.88      0.00
   -9    7    5     -0.78      0.00
   -9    7    6     -0.50      0.00
   -9    7    7      1.36      0.00
   -9    7    8     -1.53      0.00
   -9    7    9      1.19      0.00
   -9    7   10     -0.71      0.00
   -9    7   11      0.39      0.00
   -9    5    3     -3.45      0.00
   -9    5    4      3.02      0.00
   -9    5    5     -1.11      0.00
   -9    5    6     -1.20      0.00
   -9    5    7      2.67      0.00
   -9    5    9      1.57      0.00
   -9    5   10     -0.16      0.00
   -9    5   11     -0.73      0.00
   -9    5   12      0.81      0.00
    9    3    4      0.08      0.00
    9    3    3      1.03      0.00
    9    3    2     -2.52      0.00
   -9    3    3     -5.30      0.00
   -9    3    4      4.81      0.00
   -9    3    5     -1.96      0.00
   -9    3    6     -1.74      0.00
   -9    3    9      3.32      0.00
   -9    3   10     -0.87      0.00
   -9    3   11     -1.05      0.00
   -9    3   12      1.69      0.00
   -9    3   13     -1.22      0.00
    9    1    5     -0.32      0.00
    9    1    4     -0.29      0.00
    9    1    3      1.63      0.00
    9    1    2     -3.21      0.00
    9    1    1      3.90      0.00
    9    1    0     -2.65      0.00
   -9    1    1     -0.56      0.00
   -9    1    2      4.39      0.00
   -9    1    3     -6.77      0.00
   -9    1    4      6.19      0.00
   -9    1    5     -2.74      0.00
   -9    1    6     -1.91      0.00
   -9    1    7      5.54      0.00
   -9    1    8     -6.60      0.00
   -9    1    9      5.02      0.00
   -9    1   10     -2.06      0.00
   -9    1   11     -0.58      0.00
   -9    1   12      1.82      0.00
   -9    1   13     -1.61      0.00
    9    3    1      3.36      0.00
    9    3    0     -2.52      0.00
   -9    3    1     -0.10      0.00
   -9    3    2      3.31      0.00
   -9    3    7      4.42      0.00
   -9    3    8     -4.90      0.00
    9    5    4      0.22      0.00
    9    5    3      0.47      0.00
    9    5    2     -1.55      0.00
    9    5    1      2.23      0.00
    9    5    0     -1.74      0.00
   -9    5    1     -0.01      0.00
   -9    5    2      2.17      0.00
   -9    5    8     -2.70      0.00
    9    7    3      0.22      0.00
    9    7    2     -0.80      0.00
    9    7    1      1.13      0.00
    9    7    0     -0.79      0.00
   -9    7    1     -0.26      0.00
   -9    7    2      1.49      0.00
    9    9    1      0.43      0.00
    9    9    0     -0.13      0.00
   -9    9    1     -0.48      0.00
   -9    9    2      1.10      0.00
   -9   11    3     -0.32      0.00
  -10   10    5      0.04      0.00
  -10   10    6      0.52      0.00
  -10   10    7     -0.96      0.00
  -10   10    8      1.14      0.00
  -10    8    5      0.63      0.00
  -10    8    6      0.33      0.00
  -10    8    7     -1.05      0.00
  -10    8    8      1.30      0.00
  -10    8    9     -1.17      0.00
  -10    8   10      0.87      0.00
  -10    6    5      0.58      0.00
  -10    6    6      0.94      0.00
  -10    6    7     -1.84      0.00
  -10    6    8      1.75      0.00
  -10    6    9     -0.94      0.00
  -10    6   10      0.03      0.00
  -10    6   11      0.46      0.00
  -10    6   12     -0.41      0.00
  -10    4    5      0.59      0.00
  -10    4    6      1.96      0.00
  -10    4   10     -0.20      0.00
  -10    4   11      1.53      0.00
  -10    4   12     -1.71      0.00
  -10    4   13      1.06      0.00
   10    2    4      0.35      0.00
   10    2    3     -1.14      0.00
   10    2    2      2.16      0.00
   10    2    0      1.83      0.00
  -10    2    1      0.44      0.00
  -10    2    2     -3.18      0.00
  -10    2    3      4.78      0.00
  -10    2    4     -4.09      0.00
  -10    2    5      1.23      0.00
  -10    2    6      2.41      0.00
  -10    2    7     -4.97      0.00
  -10    2    8      5.28      0.00
  -10    2    9     -3.47      0.00
  -10    2   10      0.79      0.00
  -10    2   11      1.30      0.00
  -10    2   12     -1.99      0.00
  -10    2   13      1.46      0.00
   10    0    4      0.57      0.00
   10    0    3     -1.39      0.00
   10    0    2      2.33      0.00
   10    0    1     -2.61      0.00
   10    0    0      1.46      0.00
  -10    0    1      1.12      0.00
  -10    0    2     -4.08      0.00
  -10    0    3      5.73      0.00
  -10    0    4     -4.89      0.00
  -10    0    5      1.67      0.00
  -10    0    6      2.43      0.00
  -10    0    7     -5.43      0.00
  -10    0    8      6.04      0.00
  -10    0    9     -4.32      0.00
  -10    0   10      1.51      0.00
  -10    0   11      0.81      0.00
  -10    0   12     -1.73      0.00
  -10    0   13      1.35      0.00
   10    2    1     -2.66      0.00
   10    4    3     -0.58      0.00
   10    4    2      1.54      0.00
   10    4    1     -2.23      0.00
   10    4    0      1.86      0.00
  -10    4    1     -0.27      0.00
  -10    4    2     -1.82      0.00
  -10    4    3      3.11      0.00
  -10    4    4     -2.66      0.00
  -10    4    7     -3.56      0.00
  -10    4    8      3.42      0.00
  -10    4    9     -1.81      0.00
   10    6    2      0.74      0.00
   10    6    1     -1.21      0.00
   10    6    0      1.02      0.00
  -10    6    1     -0.01      0.00
  -10    6    2     -1.32      0.00
  -10    6    3      2.14      0.00
  -10    6    4     -1.85      0.00
   10    8    1     -0.42      0.00
   10    8    0      0.21      0.00
  -10    8    1      0.41      0.00
  -10    8    2     -1.17      0.00
  -10    8    3      1.61      0.00
  -10    8    4     -1.40      0.00
  -10   10    2     -0.61      0.00
  -10   10    3      0.71      0.00
  -10   10    4     -0.51      0.00
  -11    9    7      0.85      0.00
  -11    9    8     -1.06      0.00
  -11    9    9      0.96      0.00
  -11    7    6     -0.49      0.00
  -11    7    7      1.18      0.00
  -11    7    8     -1.23      0.00
  -11    7    9      0.78      0.00
  -11    7   10     -0.25      0.00
  -11    7   11     -0.02      0.00
  -11    5    6     -1.47      0.00
  -11    5    7      2.45      0.00
  -11    5    8     -2.17      0.00
  -11    5   10      0.55      0.00
  -11    5   11     -1.35      0.00
  -11    5   12      1.26      0.00
  -11    3    3     -2.87      0.00
  -11    3    4      2.35      0.00
  -11    3    5     -0.25      0.00
  -11    3    6     -2.35      0.00
  -11    3    7      3.97      0.00
  -11    3    8     -3.73      0.00
  -11    3   10      0.44      0.00
  -11    3   11     -1.99      0.00
  -11    3   12      2.22      0.00
  -11    3   13     -1.45      0.00
   11    1    3      1.21      0.00
   11    1    2     -1.74      0.00
   11    1    1      1.81      0.00
   11    1    0     -0.90      0.00
  -11    1    1     -1.03      0.00
  -11    1    2      3.18      0.00
  -11    1    3     -4.29      0.00
  -11    1    4      3.41      0.00
  -11    1    5     -0.69      0.00
  -11    1    6     -2.61      0.00
  -11    1    7      4.79      0.00
  -11    1    8     -4.84      0.00
  -11    1    9      2.94      0.00
  -11    1   10     -0.34      0.00
  -11    1   11     -1.54      0.00
  -11    1   12      2.01      0.00
  -11    1   13     -1.33      0.00
   11    3    2     -1.41      0.00
   11    3    1      1.87      0.00
   11    3    0     -1.49      0.00
  -11    3    1      0.08      0.00
  -11    3    2      1.76      0.00
  -11    3    9      1.88      0.00
   11    5    2     -0.74      0.00
   11    5    1      1.26      0.00
   11    5    0     -1.19      0.00
  -11    5    1      0.30      0.00
  -11    5    2      1.01      0.00
  -11    5    3     -1.88      0.00
  -11    5    4      1.61      0.00
  -11    5    5     -0.23      0.00
  -11    5    9      0.89      0.00
   11    7    0     -0.42      0.00
  -11    7    1     -0.16      0.00
  -11    7    2      1.00      0.00
  -11    7    3     -1.55      0.00
  -11    7    4      1.41      0.00
  -11    7    5     -0.57      0.00
  -11    9    2      0.69      0.00
  -11    9    3     -0.94      0.00
  -11    9    4      0.83      0.00
  -11    9    5     -0.33      0.00
  -11    9    6     -0.32      0.00
  -12    8    8      0.86      0.00
  -12    8    9     -0.61      0.00
  -12    6    8      1.34      0.00
  -12    6    9     -0.54      0.00
  -12    6   10     -0.33      0.00
  -12    6   11      0.74      0.00
  -12    4    8      2.38      0.00
  -12    4   11      1.87      0.00
  -12    4   12     -1.80      0.00
  -12    2    1      0.52      0.00
  -12    2    2     -1.98      0.00
  -12    2    3      2.74      0.00
  -12    2    4     -2.05      0.00
  -12    2    5      0.00      0.00
  -12    2    6      2.41      0.00
  -12    2    7     -3.85      0.00
  -12    2    8      3.48      0.00
  -12    2    9     -1.56      0.00
  -12    2   10     -0.75      0.00
  -12    2   11      2.22      0.00
  -12    2   12     -2.32      0.00
  -12    2   13      1.44      0.00
   12    0    2      1.37      0.00
   12    0    1     -1.19      0.00
   12    0    0      0.33      0.00
  -12    0    1      1.19      0.00
  -12    0    2     -2.73      0.00
  -12    0    3      3.36      0.00
  -12    0    4     -2.38      0.00
  -12    0    5     -0.02      0.00
  -12    0    6      2.72      0.00
  -12    0    7     -4.31      0.00
  -12    0    8      3.94      0.00
  -12    0    9     -1.92      0.00
  -12    0   10     -0.52      0.00
  -12    0   11      2.10      0.00
  -12    0   12     -2.24      0.00
  -12    0   13      1.36      0.00
   12    2    1     -1.27      0.00
   12    2    0      0.73      0.00
   12    4    1     -1.05      0.00
   12    4    0      0.97      0.00
  -12    4    1     -0.18      0.00
  -12    4    2     -0.99      0.00
  -12    4    3      1.80      0.00
  -12    4    4     -1.52      0.00
  -12    4    5      0.11      0.00
  -12    4    6      1.66      0.00
  -12    4    7     -2.72      0.00
  -12    4    9     -0.88      0.00
  -12    4   10     -0.86      0.00
   12    6    0      0.55      0.00
  -12    6    1     -0.05      0.00
  -12    6    2     -0.77      0.00
  -12    6    3      1.37      0.00
  -12    6    4     -1.25      0.00
  -12    6    5      0.37      0.00
  -12    6    6      0.78      0.00
  -12    6    7     -1.48      0.00
  -12    8    2     -0.58      0.00
  -12    8    3      0.95      0.00
  -12    8    4     -0.91      0.00
  -12    8    5      0.43      0.00
  -12    8    6      0.26      0.00
  -12    8    7     -0.76      0.00
  -13    7   10      0.19      0.00
  -13    5   10      0.61      0.00
  -13    5   11     -1.15      0.00
  -13    5   12      0.95      0.00
  -13    3    4      1.44      0.00
  -13    3    5     -0.07      0.00
  -13    3    6     -1.62      0.00
  -13    3    7      2.60      0.00
  -13    3    8     -2.25      0.00
  -13    3    9      0.74      0.00
  -13    3   11     -2.03      0.00
  -13    3   12      1.92      0.00
   13    1    0     -0.08      0.00
  -13    1    1     -0.95      0.00
  -13    1    2      1.93      0.00
  -13    1    3     -2.21      0.00
  -13    1    4      1.31      0.00
  -13    1    5      0.58      0.00
  -13    1    6     -2.61      0.00
  -13    1    7      3.62      0.00
  -13    1    8     -2.97      0.00
  -13    1    9      0.99      0.00
  -13    1   10      1.23      0.00
  -13    1   11     -2.51      0.00
  -13    1   12      2.44      0.00
  -13    1   13     -1.46      0.00
   13    3    0     -0.41      0.00
  -13    3    1     -0.32      0.00
  -13    3    2      1.27      0.00
  -13    3    3     -1.83      0.00
  -13    3   10      1.02      0.00
  -13    5    1     -0.04      0.00
  -13    5    2      0.78      0.00
  -13    5    3     -1.35      0.00
  -13    5    4      1.24      0.00
  -13    5    5     -0.37      0.00
  -13    5    6     -0.82      0.00
  -13    5    7      1.57      0.00
  -13    5    8     -1.41      0.00
  -13    5    9      0.46      0.00
  -13    7    3     -0.84      0.00
  -13    7    4      0.81      0.00
  -13    7    5     -0.31      0.00
  -13    7    6     -0.39      0.00
  -13    7    7      0.85      0.00
  -13    7    8     -0.79      0.00
  -13    7    9      0.31      0.00
  -14    2    2     -1.36      0.00
  -14    2    3      1.52      0.00
  -14    2    4     -0.90      0.00
  -14    2    5     -0.42      0.00
  -14    2    6      1.83      0.00
  -14    2    7     -2.52      0.00
  -14    2    8      2.00      0.00
  -14    2    9     -0.49      0.00
  -14    2   11      2.10      0.00
  -14    2   12     -1.94      0.00
  -14    0    1      1.02      0.00
  -14    0    2     -1.54      0.00
  -14    0    3      1.42      0.00
  -14    0    4     -0.43      0.00
  -14    0    5     -1.19      0.00
  -14    0    6      2.71      0.00
  -14    0    7     -3.28      0.00
  -14    0    8      2.43      0.00
  -14    0    9     -0.50      0.00
  -14    0   10     -1.51      0.00
  -14    0   11      2.61      0.00
  -14    0   12     -2.45      0.00
  -14    2    1      0.75      0.00
  -14    2   10     -1.18      0.00
  -14    4    2     -0.97      0.00
  -14    4    3      1.41      0.00
  -14    4    4     -1.26      0.00
  -14    4    5      0.45      0.00
  -14    4    6      0.66      0.00
  -14    4    7     -1.39      0.00
  -14    4    8      1.28      0.00
  -14    4    9     -0.40      0.00
  -14    4   10     -0.65      0.00
  -14    4   11      1.20      0.00
  -14    6    4     -0.80      0.00
  -14    6    5      0.30      0.00
  -14    6    6      0.41      0.00
  -14    6    7     -0.86      0.00
  -14    6    8      0.76      0.00
  -14    6    9     -0.20      0.00
  -14    6   10     -0.41      0.00
  -15    3    5     -0.13      0.00
  -15    3    6     -0.76      0.00
  -15    3    7      1.30      0.00
  -15    3    8     -1.13      0.00
  -15    3    9      0.33      0.00
  -15    1    3     -0.92      0.00
  -15    1    4      0.11      0.00
  -15    1    5      1.08      0.00
  -15    1    6     -2.13      0.00
  -15    1    7      2.46      0.00
  -15    1    8     -1.76      0.00
  -15    1    9      0.29      0.00
  -15    1   10      1.23      0.00
  -15    1   11     -2.04      0.00
  -15    1   12      1.88      0.00
  -15    3    4      0.87      0.00
  -15    3   10      0.62      0.00
  -15    3   11     -1.13      0.00
  -15    5    5     -0.40      0.00
  -15    5    6     -0.22      0.00
  -15    5    7      0.66      0.00
  -15    5    8     -0.63      0.00
  -15    5    9      0.17      0.00
  -16    2    6      1.08      0.00
  -16    2    7     -1.32      0.00
  -16    2    8      1.01      0.00
  -16    2    9     -0.25      0.00
  -16    0    5     -1.17      0.00
  -16    0    6      1.85      0.00
  -16    0    7     -1.96      0.00
  -16    0    8      1.33      0.00
  -16    0    9     -0.18      0.00
  -16    0   10     -0.96      0.00
  -16    0   11      1.57      0.00
  -16    2   10     -0.58      0.00
   14    0    0     -0.32      0.00
    1    1    0    -28.47      0.00
   14    2    0     -0.14      0.00
   14    4    0      0.07      0.00
   13    5    0     -0.40      0.00
   13    7    0     -0.26      0.00
   12    8    0      0.19      0.00
   11    9    0     -0.02      0.00
   10   10    0     -0.08      0.00
    9   11    0      0.01      0.00
    8   12    0      0.19      0.00
    5   13    0     -0.26      0.00
    7   13    0     -0.32      0.00
   -2    0    1    -18.32      0.00
    0    0    1    -25.99      0.00
   14    0    1     -0.20      0.00
  -15    1    1     -0.90      0.00
   -1    1    1     22.04      0.00
   13    1    1      0.70      0.00
   14    2    1     -0.21      0.00
  -15    3    1     -0.55      0.00
   13    3    1      0.64      0.00
  -14    4    1      0.35      0.00
   13    5    1      0.40      0.00
  -14    6    1      0.08      0.00
   12    6    1     -0.54      0.00
  -13    7    1      0.01      0.00
   11    7    1      0.50      0.00
  -12    8    1      0.10      0.00
  -11    9    1     -0.28      0.00
   11    9    1      0.10      0.00
  -10   10    1      0.35      0.00
   10   10    1     -0.06      0.00
   -9   11    1     -0.19      0.00
    9   11    1      0.11      0.00
   -8   12    1     -0.12      0.00
    6   12    1     -0.55      0.00
   -7   13    1      0.34      0.00
   -5   13    1      0.18      0.00
    3   13    1      0.33      0.00
    5   13    1      0.29      0.00
  -16    0    2     -0.83      0.00
  -15    1    2      1.14      0.00
   13    1    2     -0.86      0.00
  -16    2    2     -0.73      0.00
   12    2    2      1.17      0.00
  -15    3    2      0.97      0.00
   13    3    2     -0.49      0.00
   12    4    2      0.65      0.00
  -15    5    2      0.57      0.00
  -14    6    2     -0.50      0.00
   12    6    2      0.24      0.00
  -13    7    2      0.46      0.00
   11    7    2     -0.24      0.00
   10    8    2      0.26      0.00
  -13    9    2      0.15      0.00
    9    9    2     -0.40      0.00
  -12   10    2     -0.19      0.00
    8   10    2      0.57      0.00
  -11   11    2      0.11      0.00
   -9   11    2      0.33      0.00
    7   11    2     -0.64      0.00
   -8   12    2      0.08      0.00
    6   12    2      0.54      0.00
   -7   13    2     -0.32      0.00
   -5   13    2     -0.06      0.00
    3   13    2     -0.35      0.00
    5   13    2     -0.30      0.00
  -16    0    3      0.48      0.00
   12    0    3     -1.15      0.00
  -16    2    3      0.63      0.00
   12    2    3     -0.81      0.00
  -15    3    3     -1.15      0.00
   11    3    3      0.72      0.00
  -16    4    3      0.63      0.00
  -15    5    3     -0.86      0.00
   11    5    3      0.16      0.00
  -14    6    3      0.84      0.00
   10    6    3     -0.12      0.00
  -14    8    3      0.30      0.00
   10    8    3     -0.01      0.00
  -13    9    3     -0.37      0.00
    9    9    3      0.21      0.00
  -12   10    3      0.32      0.00
    8   10    3     -0.41      0.00
  -11   11    3     -0.12      0.00
    7   11    3      0.48      0.00
  -10   12    3     -0.11      0.00
   -8   12    3     -0.09      0.00
    4   12    3     -0.53      0.00
    6   12    3     -0.41      0.00
   -7   13    3      0.30      0.00
   -5   13    3     -0.03      0.00
    1   13    3      0.34      0.00
    3   13    3      0.36      0.00
  -16    0    4      0.26      0.00
   11    1    4     -0.72      0.00
  -16    2    4     -0.20      0.00
   11    3    4     -0.26      0.00
  -16    4    4     -0.57      0.00
   10    4    4     -0.01      0.00
  -15    5    4      0.82      0.00
   10    6    4     -0.20      0.00
  -15    7    4      0.25      0.00
    9    7    4      0.14      0.00
  -14    8    4     -0.32      0.00
    8    8    4      0.08      0.00
  -13    9    4      0.43      0.00
    7    9    4     -0.27      0.00
  -12   10    4     -0.32      0.00
    6   10    4      0.30      0.00
  -11   11    4      0.03      0.00
    5   11    4     -0.29      0.00
  -10   12    4      0.19      0.00
   -8   12    4      0.19      0.00
    2   12    4      0.37      0.00
    4   12    4      0.33      0.00
   -7   13    4     -0.31      0.00
   -5   13    4     -0.01      0.00
   -3   13    4      0.29      0.00
   -1   13    4      0.05      0.00
    1   13    4     -0.32      0.00
    3   13    4     -0.34      0.00
   10    0    5     -0.15      0.00
  -16    2    5     -0.47      0.00
   10    2    5     -0.03      0.00
    9    3    5     -0.42      0.00
  -16    4    5      0.25      0.00
    9    5    5     -0.31      0.00
  -16    6    5      0.04      0.00
    8    6    5      0.38      0.00
  -15    7    5      0.00      0.00
  -14    8    5      0.11      0.00
    8    8    5      0.03      0.00
  -13    9    5     -0.24      0.00
    7    9    5      0.05      0.00
  -12   10    5      0.11      0.00
    6   10    5      0.01      0.00
  -11   11    5      0.16      0.00
    3   11    5     -0.06      0.00
    5   11    5     -0.04      0.00
  -10   12    5     -0.30      0.00
   -8   12    5     -0.38      0.00
    2   12    5     -0.26      0.00
   -7   13    5      0.38      0.00
   -5   13    5      0.20      0.00
   -3   13    5     -0.07      0.00
   -1   13    5      0.07      0.00
    1   13    5      0.32      0.00
    9    1    6      0.38      0.00
    8    2    6     -0.81      0.00
    9    3    6      0.26      0.00
  -16    4    6      0.19      0.00
    8    4    6     -0.53      0.00
    7    5    6      0.73      0.00
  -16    6    6      0.24      0.00
    8    6    6     -0.12      0.00
  -15    7    6     -0.33      0.00
    7    7    6      0.10      0.00
  -14    8    6      0.22      0.00
    6    8    6     -0.20      0.00
  -13    9    6     -0.09      0.00
    5    9    6      0.44      0.00
  -12   10    6      0.21      0.00
    4   10    6     -0.51      0.00
  -11   11    6     -0.40      0.00
    3   11    6      0.24      0.00
  -10   12    6      0.41      0.00
   -8   12    6      0.58      0.00
   -2   12    6      0.22      0.00
    0   12    6      0.25      0.00
    2   12    6      0.14      0.00
   -7   13    6     -0.48      0.00
   -5   13    6     -0.43      0.00
   -3   13    6     -0.21      0.00
   -1   13    6     -0.20      0.00
    8    0    7      0.55      0.00
    7    1    7     -0.77      0.00
    8    2    7      0.44      0.00
    7    3    7     -0.64      0.00
  -16    4    7     -0.51      0.00
    7    5    7     -0.16      0.00
  -16    6    7     -0.38      0.00
    6    6    7      0.19      0.00
  -15    7    7      0.49      0.00
    5    7    7     -0.33      0.00
  -14    8    7     -0.42      0.00
    4    8    7      0.59      0.00
  -13    9    7      0.35      0.00
    3    9    7     -0.69      0.00
  -12   10    7     -0.48      0.00
    2   10    7      0.44      0.00
  -11   11    7      0.58      0.00
   -9   11    7      0.87      0.00
   -1   11    7      0.22      0.00
    1   11    7     -0.03      0.00
  -10   12    7     -0.45      0.00
   -8   12    7     -0.69      0.00
   -6   12    7     -0.83      0.00
   -4   12    7     -0.69      0.00
   -2   12    7     -0.40      0.00
    0   12    7     -0.24      0.00
   -5   13    7      0.55      0.00
   -3   13    7      0.36      0.00
    6    0    8     -0.37      0.00
    7    1    8      0.35      0.00
    6    2    8     -0.35      0.00
  -16    4    8      0.51      0.00
    6    4    8     -0.15      0.00
    5    5    8      0.16      0.00
  -16    6    8      0.28      0.00
    4    6    8     -0.20      0.00
  -15    7    8     -0.35      0.00
    3    7    8      0.28      0.00
  -14    8    8      0.34      0.00
    4    8    8     -0.10      0.00
  -13    9    8     -0.41      0.00
    1    9    8      0.17      0.00
    3    9    8      0.26      0.00
  -12   10    8      0.59      0.00
    0   10    8      0.01      0.00
    2   10    8     -0.21      0.00
  -11   11    8     -0.62      0.00
   -9   11    8     -0.92      0.00
   -7   11    8     -1.05      0.00
   -3   11    8     -0.57      0.00
   -1   11    8     -0.21      0.00
   -8   12    8      0.60      0.00
   -6   12    8      0.78      0.00
   -4   12    8      0.67      0.00
   -2   12    8      0.36      0.00
    5    1    9      0.05      0.00
    4    2    9     -0.18      0.00
    5    3    9      0.11      0.00
  -16    4    9     -0.19      0.00
    4    4    9     -0.19      0.00
    3    5    9      0.31      0.00
  -16    6    9      0.03      0.00
    4    6    9     -0.16      0.00
  -15    7    9     -0.03      0.00
    3    7    9      0.18      0.00
  -14    8    9     -0.06      0.00
    2    8    9     -0.19      0.00
  -13    9    9      0.28      0.00
   -1    9    9      0.45      0.00
    1    9    9      0.17      0.00
  -12   10    9     -0.51      0.00
  -10   10    9     -1.03      0.00
   -2   10    9     -0.33      0.00
    0   10    9     -0.13      0.00
  -11   11    9      0.49      0.00
   -9   11    9      0.73      0.00
   -7   11    9      0.86      0.00
   -5   11    9      0.77      0.00
   -3   11    9      0.40      0.00
    4    0   10      0.21      0.00
    3    1   10     -0.36      0.00
    4    2   10      0.28      0.00
    3    3   10     -0.48      0.00
  -16    4   10     -0.23      0.00
    2    4   10      0.77      0.00
  -15    5   10      0.37      0.00
    1    5   10     -1.10      0.00
    3    5   10     -0.32      0.00
  -16    6   10     -0.34      0.00
    2    6   10      0.54      0.00
  -15    7   10      0.38      0.00
    1    7   10     -0.75      0.00
  -14    8   10     -0.23      0.00
  -12    8   10      0.27      0.00
   -2    8   10      1.05      0.00
    0    8   10      0.75      0.00
  -13    9   10     -0.07      0.00
  -11    9   10     -0.69      0.00
   -3    9   10     -0.68      0.00
   -1    9   10     -0.51      0.00
  -12   10   10      0.30      0.00
  -10   10   10      0.73      0.00
   -8   10   10      0.94      0.00
   -6   10   10      0.87      0.00
   -4   10   10      0.54      0.00
   -2   10   10      0.26      0.00
   -9   11   10     -0.41      0.00
   -7   11   10     -0.52      0.00
   -5   11   10     -0.45      0.00
    2    0   11     -0.20      0.00
    1    1   11      0.47      0.00
  -16    2   11      1.03      0.00
    2    2   11     -0.33      0.00
    1    3   11      0.68      0.00
  -16    4   11      0.44      0.00
    0    4   11     -1.04      0.00
  -15    5   11     -0.61      0.00
   -1    5   11      1.25      0.00
    1    5   11      0.68      0.00
  -16    6   11      0.44      0.00
  -14    6   11      0.65      0.00
    0    6   11     -0.97      0.00
  -15    7   11     -0.49      0.00
  -13    7   11     -0.40      0.00
   -3    7   11      1.01      0.00
   -1    7   11      1.03      0.00
  -14    8   11      0.34      0.00
  -12    8   11     -0.05      0.00
  -10    8   11     -0.59      0.00
   -4    8   11     -0.75      0.00
   -2    8   11     -0.79      0.00
  -11    9   11      0.38      0.00
   -9    9   11      0.78      0.00
   -7    9   11      0.83      0.00
   -5    9   11      0.65      0.00
   -3    9   11      0.48      0.00
  -10   10   11     -0.37      0.00
   -8   10   11     -0.56      0.00
   -6   10   11     -0.54      0.00
  -16    0   12     -1.43      0.00
    0    0   12      0.12      0.00
   -1    1   12     -0.40      0.00
  -16    2   12     -0.92      0.00
    0    2   12      0.25      0.00
  -15    3   12      0.96      0.00
   -1    3   12     -0.51      0.00
  -16    4   12     -0.33      0.00
  -14    4   12     -1.00      0.00
   -2    4   12      0.54      0.00
  -15    5   12      0.42      0.00
   -3    5   12     -0.41      0.00
   -1    5   12     -0.64      0.00
  -14    6   12     -0.44      0.00
  -12    6   12     -0.59      0.00
   -4    6   12      0.28      0.00
   -2    6   12      0.63      0.00
  -13    7   12      0.28      0.00
  -11    7   12      0.01      0.00
   -9    7   12     -0.26      0.00
   -7    7   12     -0.29      0.00
   -5    7   12     -0.27      0.00
   -3    7   12     -0.48      0.00
  -12    8   12     -0.01      0.00
  -10    8   12      0.38      0.00
   -8    8   12      0.51      0.00
   -6    8   12      0.40      0.00
   -4    8   12      0.35      0.00
   -9    9   12     -0.42      0.00
   -7    9   12     -0.47      0.00
  -16    0   13      0.78      0.00
  -14    0   13      1.47      0.00
   -4    0   13      0.46      0.00
   -2    0   13      0.00      0.00
  -15    1   13     -1.07      0.00
   -3    1   13     -0.08      0.00
  -16    2   13      0.43      0.00
  -14    2   13      1.08      0.00
   -4    2   13      0.38      0.00
   -2    2   13     -0.05      0.00
  -15    3   13     -0.38      0.00
  -13    3   13     -1.07      0.00
   -5    3   13     -0.57      0.00
   -3    3   13     -0.03      0.00
  -14    4   13      0.36      0.00
  -12    4   13      1.03      0.00
   -6    4   13      0.43      0.00
   -4    4   13      0.20      0.00
  -15    5   13      0.00      0.00
  -13    5   13     -0.36      0.00
  -11    5   13     -0.67      0.00
   -9    5   13     -0.37      0.00
   -7    5   13     -0.17      0.00
   -5    5   13     -0.23      0.00
  -14    6   13      0.04      0.00
  -12    6   13      0.18      0.00
  -10    6   13      0.10      0.00
   -8    6   13     -0.05      0.00
   -6    6   13      0.09      0.00
  -11    7   13      0.09      0.00
   -9    7   13      0.22      0.00
   -7    7   13      0.11      0.00
    0    0    0      0.00      0.00
# SQUEEZE RESULTS (Version =  21116)
# Note: Data are Listed for all Voids in the P1 Unit Cell
# i.e. Centre of Gravity, Solvent Accessible Volume,
# Recovered number of Electrons in the Void and
# Details about the Squeezed Material
loop_
  _platon_squeeze_void_nr
  _platon_squeeze_void_average_x
  _platon_squeeze_void_average_y
  _platon_squeeze_void_average_z
  _platon_squeeze_void_volume
  _platon_squeeze_void_count_electrons
  _platon_squeeze_void_content
   1  0.500  0.000  0.500        54        14 ' '
   2  0.000  0.500  0.500        54        14 ' '
# Missing Reflections Below sin(th)/lambda = 0.25
loop_
  _platon_missing_refln_index_h
  _platon_missing_refln_index_k
  _platon_missing_refln_index_l
  _platon_missing_refln_theta
    1    1    0     2.537
   -2    0    1     2.905
    0    0    1     2.141
   -1    1    1     2.559
_platon_squeeze_void_probe_radius                  1.20
_platon_squeeze_details
)
TITL 123 in C2 C2/m
CELL   14.0250   11.3250   11.7150     90.00    125.73     90.00
SPGR C2/m
# Solvent Accessible Volume =       104
# Electrons Found in S.A.V. =        27
# Note: Atoms in Void as Cxxx and Qxxx all others
C101 0.016 0.507 0.391 !       7.25 eA-3
Q102 0.412 0.499 0.047 !       0.96 eA-3
Q103 0.368 0.505 0.922 !       0.95 eA-3
Q104 0.703 0.496 0.000 !       0.83 eA-3
Q105 0.071 0.114 0.001 !       0.69 eA-3
Q106 0.247 0.506 0.859 !       0.66 eA-3
Q107 0.500 0.203 0.005 !       0.59 eA-3
Q108 0.315 0.504 0.688 !       0.56 eA-3
Q109 0.746 0.095 0.940 !       0.55 eA-3
C110 1.000 0.500 0.500 !       0.52 eA-3
)
;
_shelx_fab_checksum              61910
_olex2_submission_special_instructions 'No special instructions were received'
loop_
_space_group_symop_operation_xyz
'x, y, z'
'-x, y, -z'
'x+1/2, y+1/2, z'
'-x+1/2, y+1/2, -z'
'-x, -y, -z'
'x, -y, z'
'-x+1/2, -y+1/2, -z'
'x+1/2, -y+1/2, z'
loop_
_atom_site_label
_atom_site_type_symbol
_atom_site_fract_x
_atom_site_fract_y
_atom_site_fract_z
_atom_site_U_iso_or_equiv
_atom_site_adp_type
_atom_site_occupancy
_atom_site_site_symmetry_order
_atom_site_calc_flag
_atom_site_refinement_flags_posn
_atom_site_refinement_flags_adp
_atom_site_refinement_flags_occupancy
Nd1 Nd -0.16251(2) 0.000000 -0.03462(3) 0.01356(13) Uani 1 2 d S T P
F3 F 0.1423(3) 0.2103(3) 0.6333(3) 0.0523(9) Uani 1 1 d . . .
F2 F 0.1313(3) 0.2065(3) 0.4024(3) 0.0528(9) Uani 1 1 d . . .
O2 O -0.0907(3) 0.1955(3) -0.0273(4) 0.0353(8) Uani 1 1 d . . .
O5 O 0.1613(3) 0.0967(3) 0.8400(3) 0.0391(9) Uani 1 1 d . . .
O1 O -0.3366(3) -0.1331(3) -0.1542(3) 0.0387(9) Uani 1 1 d . . .
H1A H -0.410861 -0.128430 -0.208958 0.046 Uiso 1 1 d R . .
H1B H -0.319961 -0.207770 -0.152198 0.046 Uiso 1 1 d R . .
O3 O 0.0458(3) 0.000000 0.1530(4) 0.0248(10) Uani 1 2 d S T P
O4 O 0.2378(4) 0.000000 0.2948(5) 0.0453(15) Uani 1 2 d S T P
C1 C 0.000000 0.2423(5) 0.000000 0.0245(14) Uani 1 2 d S T P
C2 C 0.000000 0.3752(5) 0.000000 0.0237(14) Uani 1 2 d S T P
C4 C 0.1412(5) 0.000000 0.2741(6) 0.0228(14) Uani 1 2 d S T P
C5 C 0.1357(5) 0.000000 0.4002(6) 0.0250(15) Uani 1 2 d S T P
C6 C 0.1362(4) 0.1040(4) 0.4618(5) 0.0281(11) Uani 1 1 d . . .
C7 C 0.1418(4) 0.1034(4) 0.5830(4) 0.0283(11) Uani 1 1 d . . .
C8 C 0.1461(5) 0.000000 0.6493(6) 0.0241(15) Uani 1 2 d S T P
C3 C 0.0518(4) 0.4392(4) 0.1228(5) 0.0244(10) Uani 1 1 d . . .
C9 C 0.1574(5) 0.000000 0.7858(6) 0.0246(15) Uani 1 2 d S T P
F1 F 0.1009(2) 0.3816(2) 0.2451(3) 0.0392(7) Uani 1 1 d . . .
loop_
_atom_site_aniso_label
_atom_site_aniso_U_11
_atom_site_aniso_U_22
_atom_site_aniso_U_33
_atom_site_aniso_U_23
_atom_site_aniso_U_13
_atom_site_aniso_U_12
Nd1 0.0175(2) 0.0137(2) 0.01267(19) 0.000 0.01060(15) 0.000
F3 0.103(3) 0.0308(18) 0.0409(18) -0.0062(14) 0.0523(18) -0.0009(17)
F2 0.096(3) 0.0357(19) 0.0394(18) 0.0031(14) 0.0466(18) -0.0114(17)
O2 0.0298(18) 0.0177(19) 0.058(2) 0.0048(16) 0.0256(16) -0.0019(14)
O5 0.067(2) 0.034(2) 0.0289(19) -0.0082(15) 0.0355(18) -0.0177(18)
O1 0.0257(17) 0.041(2) 0.045(2) -0.0155(17) 0.0188(15) -0.0094(15)
O3 0.022(2) 0.036(3) 0.014(2) 0.000 0.0089(18) 0.000
O4 0.022(2) 0.098(5) 0.020(2) 0.000 0.014(2) 0.000
C1 0.027(3) 0.009(3) 0.035(4) 0.000 0.017(3) 0.000
C2 0.023(3) 0.012(3) 0.042(4) 0.000 0.022(3) 0.000
C4 0.024(3) 0.031(4) 0.016(3) 0.000 0.013(3) 0.000
C5 0.017(3) 0.046(5) 0.014(3) 0.000 0.010(3) 0.000
C6 0.040(3) 0.027(3) 0.021(2) 0.003(2) 0.019(2) -0.003(2)
C7 0.034(3) 0.034(3) 0.020(2) -0.004(2) 0.017(2) 0.000(2)
C8 0.021(3) 0.034(4) 0.015(3) 0.000 0.009(3) 0.000
C3 0.024(2) 0.016(2) 0.037(3) 0.005(2) 0.020(2) 0.0058(19)
C9 0.019(3) 0.037(4) 0.018(3) 0.000 0.011(3) 0.000
F1 0.0484(17) 0.0271(16) 0.0367(17) 0.0108(12) 0.0217(13) 0.0039(13)
loop_
_atom_type_symbol
_atom_type_description
_atom_type_scat_dispersion_real
_atom_type_scat_dispersion_imag
_atom_type_scat_source
C C 0.0033 0.0016 'International Tables Vol C Tables 4.2.6.8 and 6.1.1.4'
H H 0.0000 0.0000 'International Tables Vol C Tables 4.2.6.8 and 6.1.1.4'
F F 0.0171 0.0103 'International Tables Vol C Tables 4.2.6.8 and 6.1.1.4'
Nd Nd -0.1943 3.0179 'International Tables Vol C Tables 4.2.6.8 and 6.1.1.4'
O O 0.0106 0.0060 'International Tables Vol C Tables 4.2.6.8 and 6.1.1.4'
loop_
_geom_angle_atom_site_label_1
_geom_angle_atom_site_label_2
_geom_angle_atom_site_label_3
_geom_angle
_geom_angle_site_symmetry_1
_geom_angle_site_symmetry_3
O2 Nd1 O2 133.13(15) 6 .
O2 Nd1 O5 125.77(11) 6 2_556
O2 Nd1 O5 77.71(12) . 2_556
O2 Nd1 O5 77.71(12) 6 5_556
O2 Nd1 O5 125.77(11) . 5_556
O2 Nd1 O1 73.50(11) 6 .
O2 Nd1 O1 145.81(11) . .
O2 Nd1 O1 145.81(11) 6 6
O2 Nd1 O1 73.50(11) . 6
O2 Nd1 O3 69.61(9) . 5
O2 Nd1 O3 73.18(8) 6 .
O2 Nd1 O3 69.61(9) 6 5
O2 Nd1 O3 73.18(8) . .
O2 Nd1 O4 85.19(9) 6 5
O2 Nd1 O4 85.19(9) . 5
O2 Nd1 C4 76.40(9) 6 5
O2 Nd1 C4 76.40(9) . 5
O2 Nd1 C9 101.63(10) 6 5_556
O2 Nd1 C9 101.63(10) . 5_556
O5 Nd1 O5 51.52(16) 2_556 5_556
O5 Nd1 O3 141.32(10) 5_556 5
O5 Nd1 O3 141.32(10) 2_556 5
O5 Nd1 O4 148.33(10) 2_556 5
O5 Nd1 O4 148.33(10) 5_556 5
O5 Nd1 C4 153.79(9) 5_556 5
O5 Nd1 C4 153.79(9) 2_556 5
O5 Nd1 C9 25.77(8) 2_556 5_556
O5 Nd1 C9 25.77(8) 5_556 5_556
O1 Nd1 O5 74.47(11) 6 2_556
O1 Nd1 O5 104.98(12) 6 5_556
O1 Nd1 O5 104.98(12) . 2_556
O1 Nd1 O5 74.47(11) . 5_556
O1 Nd1 O1 74.53(17) . 6
O1 Nd1 O3 113.66(10) . 5
O1 Nd1 O3 113.66(10) 6 5
O1 Nd1 O4 75.20(11) 6 5
O1 Nd1 O4 75.20(11) . 5
O1 Nd1 C4 94.27(12) 6 5
O1 Nd1 C4 94.27(12) . 5
O1 Nd1 C9 90.35(12) . 5_556
O1 Nd1 C9 90.35(12) 6 5_556
O3 Nd1 O5 79.16(12) . 2_556
O3 Nd1 O5 79.16(12) . 5_556
O3 Nd1 O1 141.01(9) . .
O3 Nd1 O1 141.01(9) . 6
O3 Nd1 O3 72.14(15) . 5
O3 Nd1 O4 121.14(15) . 5
O3 Nd1 C4 97.06(16) . 5
O3 Nd1 C4 24.92(13) 5 5
O3 Nd1 C9 77.14(16) . 5_556
O3 Nd1 C9 149.28(14) 5 5_556
O4 Nd1 O3 49.00(13) 5 5
O4 Nd1 C4 24.09(14) 5 5
O4 Nd1 C9 161.72(16) 5 5_556
C9 Nd1 C4 174.19(15) 5_556 5
C1 O2 Nd1 138.4(3) . .
C9 O5 Nd1 93.1(3) . 5_556
Nd1 O1 H1A 139.0 . .
Nd1 O1 H1B 114.4 . .
H1A O1 H1B 105.8 . .
Nd1 O3 Nd1 107.86(15) . 5
C4 O3 Nd1 161.3(4) . .
C4 O3 Nd1 90.8(4) . 5
C4 O4 Nd1 97.1(4) . 5
O2 C1 O2 129.3(6) . 2
O2 C1 C2 115.4(3) 2 .
O2 C1 C2 115.4(3) . .
C3 C2 C1 121.7(3) . .
C3 C2 C1 121.7(3) 2 .
C3 C2 C3 116.6(6) . 2
O3 C4 Nd1 64.2(3) . 5
O3 C4 C5 118.1(5) . .
O4 C4 Nd1 58.8(3) . 5
O4 C4 O3 123.0(6) . .
O4 C4 C5 118.9(5) . .
C5 C4 Nd1 177.7(4) . 5
C6 C5 C4 121.3(3) . .
C6 C5 C4 121.3(3) 6 .
C6 C5 C6 117.2(6) . 6
F2 C6 C5 119.1(4) . .
F2 C6 C7 119.9(4) . .
C7 C6 C5 121.1(5) . .
F3 C7 C6 115.5(4) . .
F3 C7 C8 121.8(4) . .
C6 C7 C8 122.7(5) . .
C7 C8 C7 115.1(6) . 6
C7 C8 C9 122.4(3) . .
C7 C8 C9 122.4(3) 6 .
C3 C3 C2 121.7(3) 6_565 .
F1 C3 C2 119.2(4) . .
F1 C3 C3 119.1(2) . 6_565
O5 C9 Nd1 61.1(3) . 5_556
O5 C9 Nd1 61.1(3) 6 5_556
O5 C9 O5 122.2(6) 6 .
O5 C9 C8 118.9(3) . .
O5 C9 C8 118.9(3) 6 .
C8 C9 Nd1 176.2(4) . 5_556
loop_
_geom_bond_atom_site_label_1
_geom_bond_atom_site_label_2
_geom_bond_distance
_geom_bond_site_symmetry_2
Nd1 O2 2.413(3) 6
Nd1 O2 2.413(3) .
Nd1 O5 2.520(3) 2_556
Nd1 O5 2.520(3) 5_556
Nd1 O1 2.490(3) 6
Nd1 O1 2.490(3) .
Nd1 O3 2.422(4) .
Nd1 O3 2.693(4) 5
Nd1 O4 2.578(5) 5
Nd1 C4 2.990(6) 5
Nd1 C9 2.873(6) 5_556
F3 C7 1.345(6) .
F2 C6 1.335(5) .
O2 C1 1.235(4) .
O5 C9 1.251(4) .
O1 H1A 0.8481 .
O1 H1B 0.8734 .
O3 C4 1.260(7) .
O4 C4 1.230(7) .
C1 C2 1.506(8) .
C2 C3 1.380(5) 2
C2 C3 1.380(5) .
C4 C5 1.523(8) .
C5 C6 1.379(6) .
C5 C6 1.379(6) 6
C6 C7 1.375(7) .
C7 C8 1.387(6) .
C8 C9 1.512(9) .
C3 C3 1.377(9) 6_565
C3 F1 1.342(5) .
