#------------------------------------------------------------------------------
#$Date: 2017-05-06 01:10:37 +0300 (Sat, 06 May 2017) $
#$Revision: 196450 $
#$URL: file:///home/coder/svn-repositories/cod/cif/7/04/24/7042413.cif $
#------------------------------------------------------------------------------
#
# This file is available in the Crystallography Open Database (COD),
# http://www.crystallography.net/
#
# All data on this site have been placed in the public domain by the
# contributors.
#
data_7042413
loop_
_publ_author_name
'Han, Yongqiang'
'Yan, Pengfei'
'Sun, Jingwen'
'An, Guanghui'
'Yao, Xu'
'Li, Yuxin'
'Li, Guangming'
_publ_section_title
;
 Luminescence and white-light emitting luminescent sensor of
 tetrafluoroterephthalate-lanthanide metal-organic frameworks.
;
_journal_issue                   14
_journal_name_full
'Dalton transactions (Cambridge, England : 2003)'
_journal_page_first              4642
_journal_page_last               4653
_journal_paper_doi               10.1039/c7dt00215g
_journal_volume                  46
_journal_year                    2017
_chemical_formula_moiety         'C12 H4 F6 Ho O8'
_chemical_formula_sum            'C12 H4 F6 Ho O8'
_chemical_formula_weight         555.08
_space_group_crystal_system      monoclinic
_space_group_IT_number           12
_space_group_name_Hall           '-C 2y'
_space_group_name_H-M_alt        'C 1 2/m 1'
_symmetry_space_group_name_Hall  '-C 2y'
_symmetry_space_group_name_H-M   'C 1 2/m 1'
_atom_sites_solution_hydrogens   difmap
_audit_creation_date             2017-03-07
_audit_creation_method
;
Olex2 1.2
(compiled 2017.03.02 svn.r3394 for OlexSys, GUI svn.r5324)
;
_audit_update_record
;
2017-03-08 deposited with the CCDC.
2017-03-09 downloaded from the CCDC.
;
_cell_angle_alpha                90
_cell_angle_beta                 124.208(5)
_cell_angle_gamma                90
_cell_formula_units_Z            4
_cell_length_a                   13.782(5)
_cell_length_b                   11.192(5)
_cell_length_c                   11.547(5)
_cell_measurement_reflns_used    1867
_cell_measurement_temperature    293(2)
_cell_measurement_theta_max      29.4364
_cell_measurement_theta_min      3.5680
_cell_volume                     1473.0(11)
_computing_data_collection
'CrysAlisPro, Agilent Technologies,Version 1.171.35.21 (release 20-01-2012 CrysAlis171 .NET)(compiled Jan 23 2012,18:06:46)'
_computing_molecular_graphics    'Olex2 (Dolomanov et al., 2009)'
_computing_publication_material  '(K. Brandenburg, Diamond 3.1, 2009)'
_computing_structure_refinement  'ShelXL (Sheldrick, 2015)'
_computing_structure_solution    'SHELXS-2016/6 (Sheldrick, 2015)'
_diffrn_ambient_temperature      293(2)
_diffrn_measured_fraction_theta_full 0.997
_diffrn_measured_fraction_theta_max 0.997
_diffrn_measurement_device_type  'multiwire proportional'
_diffrn_measurement_method       'phi and omega scans'
_diffrn_radiation_monochromator  graphite
_diffrn_radiation_type           MoK\a
_diffrn_radiation_wavelength     0.71069
_diffrn_reflns_av_R_equivalents  0.0514
_diffrn_reflns_av_unetI/netI     0.0542
_diffrn_reflns_Laue_measured_fraction_full 0.997
_diffrn_reflns_Laue_measured_fraction_max 0.997
_diffrn_reflns_limit_h_max       16
_diffrn_reflns_limit_h_min       -15
_diffrn_reflns_limit_k_max       13
_diffrn_reflns_limit_k_min       -12
_diffrn_reflns_limit_l_max       13
_diffrn_reflns_limit_l_min       -13
_diffrn_reflns_number            2683
_diffrn_reflns_point_group_measured_fraction_full 0.997
_diffrn_reflns_point_group_measured_fraction_max 0.997
_diffrn_reflns_theta_full        24.999
_diffrn_reflns_theta_max         24.999
_diffrn_reflns_theta_min         3.575
_exptl_absorpt_coefficient_mu    5.488
_exptl_absorpt_correction_T_max  0.416
_exptl_absorpt_correction_T_min  0.328
_exptl_absorpt_correction_type   multi-scan
_exptl_absorpt_process_details
;
CrysAlisPro, Agilent Technologies,
Version 1.171.35.21 (release 20-01-2012 CrysAlis171 .NET)
(compiled Jan 23 2012,18:06:46)
Empirical absorption correction using spherical harmonics,
 implemented in SCALE3 ABSPACK scaling algorithm.
;
_exptl_crystal_colour            orange
_exptl_crystal_density_diffrn    2.503
_exptl_crystal_description       block
_exptl_crystal_F_000             1044
_exptl_crystal_size_max          0.21
_exptl_crystal_size_mid          0.18
_exptl_crystal_size_min          0.16
_refine_diff_density_max         1.431
_refine_diff_density_min         -1.723
_refine_diff_density_rms         0.156
_refine_ls_extinction_method     none
_refine_ls_goodness_of_fit_ref   1.022
_refine_ls_hydrogen_treatment    constr
_refine_ls_matrix_type           full
_refine_ls_number_parameters     134
_refine_ls_number_reflns         1376
_refine_ls_number_restraints     3
_refine_ls_restrained_S_all      1.021
_refine_ls_R_factor_all          0.0306
_refine_ls_R_factor_gt           0.0283
_refine_ls_shift/su_max          0.000
_refine_ls_shift/su_mean         0.000
_refine_ls_structure_factor_coef Fsqd
_refine_ls_weighting_details
'w=1/[\s^2^(Fo^2^)+(0.0309P)^2^] where P=(Fo^2^+2Fc^2^)/3'
_refine_ls_weighting_scheme      calc
_refine_ls_wR_factor_gt          0.0642
_refine_ls_wR_factor_ref         0.0656
_reflns_Friedel_coverage         0.000
_reflns_number_gt                1288
_reflns_number_total             1380
_reflns_threshold_expression     'I > 2\s(I)'
_cod_data_source_file            c7dt00215g2.cif
_cod_data_source_block           11-ho_sq
_cod_depositor_comments
'Adding full bibliography for 7042409--7042422.cif.'
_cod_database_code               7042413
_shelx_shelxl_version_number     2016/6
_shelx_space_group_comment
;
The symmetry employed for this shelxl refinement is uniquely defined
by the following loop, which should always be used as a source of
symmetry information in preference to the above space-group names.
They are only intended as comments.
;
_olex2_refinement_description
;
1. Fixed Uiso
 At 1.2 times of:
  All O(H,H) groups
2. Restrained distances
 H5B-O5
 0.85 with sigma of 0.02
 H5A-O5
 0.85 with sigma of 0.02
 H5B-H5A
 1.373 with sigma of 0.04
3.a Riding coordinates:
 O5(H5A,H5B)
;
_shelx_res_file
;
TITL dd in C2 C2/m
    11-ho_sq.res
    created by SHELXL-2016/6 at 18:57:31 on 07-Mar-2017
CELL 0.71069 13.782 11.192 11.547 90 124.208 90
ZERR 1 0.005 0.005 0.005 0 0.005 0
LATT 7
SYMM -X,+Y,-Z
SFAC C H F Ho O
UNIT 48 16 24 4 32
DFIX 0.85 H5b O5
DFIX 0.85 H5a O5
DANG 1.373 H5b H5a

L.S. 5 0 4
PLAN  20
BOND $H
ABIN
fmap 2
acta
MERG 2
OMIT -3 50
REM <olex2.extras>
REM <HklSrc "%.\\11-ho_sq.hkl">
REM </olex2.extras>

WGHT    0.030900
FVAR       0.08365
HO1   4    0.658885    0.500000    0.530469    10.50000    0.01956    0.01198 =
         0.01510    0.00000    0.01128    0.00000
F1    3    0.368842    0.708520    0.098988    11.00000    0.10494    0.03209 =
         0.03994   -0.00613    0.04763    0.00571
F2    3    0.356072    0.712473   -0.135965    11.00000    0.10976    0.02964 =
         0.04167    0.00525    0.05110   -0.00107
F3    3    0.398909    0.119557    0.254991    11.00000    0.05911    0.02519 =
         0.03344    0.01030    0.01794    0.00358
O1    5    0.461380    0.500000    0.351917    10.50000    0.02426    0.03149 =
         0.01279    0.00000    0.00573    0.00000
O2    5    0.268398    0.500000    0.220138    10.50000    0.02935    0.06562 =
         0.02839    0.00000    0.02097    0.00000
O3    5    0.337690    0.402049   -0.344972    11.00000    0.06595    0.02659 =
         0.02750   -0.00815    0.03432   -0.01400
O4    5    0.592480    0.308836    0.528953    11.00000    0.02601    0.01409 =
         0.04741    0.00401    0.02166   -0.00183
O5    5    0.829156    0.372482    0.643667    11.00000    0.02864    0.03234 =
         0.03733    0.00729    0.01605    0.00538
AFIX   3
H5A   2    0.813716    0.298262    0.636507    11.00000   -1.20000
H5B   2    0.868216    0.388132    0.729837    11.00000   -1.20000
AFIX   0
C1    1    0.365509    0.500000    0.234331    10.50000    0.03084    0.02836 =
         0.01735    0.00000    0.01457    0.00000
C2    1    0.365080    0.500000    0.102881    10.50000    0.02377    0.03199 =
         0.01800    0.00000    0.01153    0.00000
C3    1    0.363722    0.604534    0.039829    11.00000    0.03863    0.02821 =
         0.02338   -0.00278    0.01955    0.00455
C4    1    0.357839    0.604832   -0.083694    11.00000    0.03744    0.02556 =
         0.02535    0.00080    0.01998   -0.00040
C5    1    0.351342    0.500000   -0.151187    10.50000    0.02273    0.03121 =
         0.01663    0.00000    0.01089    0.00000
C6    1    0.341120    0.500000   -0.289504    10.50000    0.01659    0.04306 =
         0.01029    0.00000    0.00582    0.00000
C7    1    0.500000    0.262056    0.500000    10.50000    0.02523    0.01638 =
         0.03149    0.00000    0.01388    0.00000
C8    1    0.500000    0.125741    0.500000    10.50000    0.02233    0.00949 =
         0.03715    0.00000    0.01901    0.00000
C9    1    0.448866    0.061498    0.378193    11.00000    0.02782    0.01616 =
         0.03519    0.00129    0.01849    0.00387
HKLF 4 1 -1 0 0 0 1 0 0 0 -1




REM  dd in C2 C2/m
REM R1 =  0.0283 for    1288 Fo > 4sig(Fo)  and  0.0306 for all    1376 data
REM    134 parameters refined using      3 restraints

END

WGHT      0.0309      0.0000

REM Highest difference peak  1.431,  deepest hole -1.723,  1-sigma level  0.156
Q1    1   0.6777  0.5000  0.6199  10.50000  0.05    1.43
Q2    1   0.6575  0.5000  0.4613  10.50000  0.05    1.28
Q3    1   0.5623  0.5000  0.4706  10.50000  0.05    0.99
Q4    1   0.3078  0.4336 -0.4394  11.00000  0.05    0.76
Q5    1   0.6197  0.4216  0.5980  11.00000  0.05    0.73
Q6    1   0.7280  0.5459  0.5834  11.00000  0.05    0.70
Q7    1   0.6057  0.5598  0.4852  11.00000  0.05    0.65
Q8    1   0.5234  0.5000  0.3342  10.50000  0.05    0.62
Q9    1   0.3903  0.5000  0.3334  10.50000  0.05    0.61
Q10   1   0.7774  0.5000  0.5400  10.50000  0.05    0.60
Q11   1   0.6195  0.3318  0.6396  11.00000  0.05    0.52
Q12   1   0.2173  0.3229 -0.3406  11.00000  0.05    0.51
Q13   1   0.2046  0.5000  0.2701  10.50000  0.05    0.50
Q14   1   0.1706  0.5000  0.1995  10.50000  0.05    0.48
Q15   1   0.3283  0.0000  0.3682  10.50000  0.05    0.47
Q16   1   0.7286  0.3750  0.6378  11.00000  0.05    0.46
Q17   1   0.2259  0.4375 -0.4593  11.00000  0.05    0.43
Q18   1   0.8555  0.3071  0.5493  11.00000  0.05    0.42
Q19   1   0.5000  0.3955  0.5000  10.50000  0.05    0.42
Q20   1   0.8000  0.2813  0.6851  11.00000  0.05    0.41
;
_shelx_res_checksum              71708
_shelx_fab_file
;
    0   12    0      1.52      0.00
    0   12    1      1.32      0.00
    0   12    2      0.81      0.00
    0   12    3      0.21      0.00
    0   12    4     -0.31      0.00
    0   10    0      2.10      0.00
    0   10    1      1.72      0.00
    0   10    2      0.83      0.00
    0   10    3     -0.05      0.00
    0   10    4     -0.59      0.00
    0   10    5     -0.79      0.00
    0   10    6     -0.75      0.00
    0   10    7     -0.55      0.00
    0    8    1      2.73      0.00
    0    8    2      0.59      0.00
    0    8    3     -1.33      0.00
    0    8    4     -2.08      0.00
    0    8    5     -1.71      0.00
    0    8    6     -0.89      0.00
    0    8    7     -0.15      0.00
    0    8    8      0.31      0.00
    0    8    9      0.47      0.00
    0    6    1      6.59      0.00
    0    6    2      1.75      0.00
    0    6    3     -2.78      0.00
    0    6    4     -4.72      0.00
    0    6    5     -3.95      0.00
    0    6    6     -1.90      0.00
    0    6    7     -0.05      0.00
    0    6    8      0.93      0.00
    0    6    9      1.07      0.00
    0    6   10      0.71      0.00
    0    4    1     12.68      0.00
    0    4    2      4.09      0.00
    0    4    3     -4.14      0.00
    0    4    4     -7.91      0.00
    0    4    5     -6.80      0.00
    0    4    6     -3.23      0.00
    0    4    7     -0.01      0.00
    0    4    8      1.55      0.00
    0    4    9      1.58      0.00
    0    4   10      0.89      0.00
    0    2    1     21.70      0.00
    0    2    2      8.55      0.00
    0    2    3     -4.38      0.00
    0    2    4    -10.84      0.00
    0    2    5     -9.84      0.00
    0    2    6     -4.86      0.00
    0    2    7     -0.17      0.00
    0    2    8      2.03      0.00
    0    2    9      1.94      0.00
    0    2   10      0.88      0.00
    0    2   11      0.00      0.00
    0    0    2     11.61      0.00
    0    0    3     -3.94      0.00
    0    0    4    -12.03      0.00
    0    0    5    -11.36      0.00
    0    0    6     -5.83      0.00
    0    0    7     -0.45      0.00
    0    0    8      2.10      0.00
    0    0    9      2.00      0.00
    0    0   10      0.79      0.00
    0    0   11     -0.16      0.00
    0    2    0     27.27      0.00
    0    4    0     16.35      0.00
    0    6    0      8.68      0.00
    0    8    0      3.67      0.00
    1   13    1     -0.55      0.00
    1   13    0     -0.78      0.00
   -1   13    1     -0.78      0.00
   -1   13    2     -0.51      0.00
    1   11    5      0.69      0.00
    1   11    4      0.43      0.00
    1   11    3     -0.03      0.00
    1   11    2     -0.71      0.00
    1   11    1     -1.43      0.00
    1   11    0     -1.86      0.00
   -1   11    1     -1.71      0.00
   -1   11    2     -1.05      0.00
   -1   11    3     -0.20      0.00
   -1   11    4      0.50      0.00
   -1   11    5      0.89      0.00
   -1   11    6      0.92      0.00
    1    9    7      0.54      0.00
    1    9    6      0.84      0.00
    1    9    5      1.12      0.00
    1    9    4      1.22      0.00
    1    9    3      0.78      0.00
    1    9    2     -0.34      0.00
    1    9    1     -1.69      0.00
    1    9    0     -2.41      0.00
   -1    9    1     -1.96      0.00
   -1    9    2     -0.67      0.00
   -1    9    3      0.60      0.00
   -1    9    4      1.19      0.00
   -1    9    5      1.10      0.00
   -1    9    6      0.68      0.00
   -1    9    7      0.22      0.00
   -1    9    8     -0.16      0.00
    1    7    9     -0.59      0.00
    1    7    8     -0.41      0.00
    1    7    7      0.22      0.00
    1    7    6      1.28      0.00
    1    7    5      2.47      0.00
    1    7    4      2.96      0.00
    1    7    3      1.81      0.00
    1    7    2     -1.05      0.00
    1    7    1     -4.22      0.00
    1    7    0     -5.60      0.00
   -1    7    1     -4.12      0.00
   -1    7    2     -0.72      0.00
   -1    7    3      2.43      0.00
   -1    7    4      3.67      0.00
   -1    7    5      2.96      0.00
   -1    7    6      1.35      0.00
   -1    7    7     -0.08      0.00
   -1    7    8     -0.85      0.00
   -1    7    9     -0.97      0.00
   -1    7   10     -0.67      0.00
    1    5   10     -0.90      0.00
    1    5    9     -1.27      0.00
    1    5    8     -1.10      0.00
    1    5    7      0.02      0.00
    1    5    6      2.15      0.00
    1    5    5      4.48      0.00
    1    5    4      5.22      0.00
    1    5    3      2.61      0.00
    1    5    2     -3.16      0.00
    1    5    1     -9.20      0.00
    1    5    0    -11.59      0.00
   -1    5    2     -1.72      0.00
   -1    5    3      4.59      0.00
   -1    5    4      7.25      0.00
   -1    5    5      5.98      0.00
   -1    5    6      2.79      0.00
   -1    5    7     -0.05      0.00
   -1    5    8     -1.42      0.00
   -1    5    9     -1.45      0.00
   -1    5   10     -0.78      0.00
    1    3   10     -1.07      0.00
    1    3    9     -1.71      0.00
    1    3    8     -1.65      0.00
    1    3    7     -0.01      0.00
    1    3    6      3.39      0.00
    1    3    5      7.09      0.00
    1    3    4      7.95      0.00
    1    3    3      3.22      0.00
    1    3    2     -6.55      0.00
    1    3    1    -16.50      0.00
    1    3    0    -20.40      0.00
   -1    3    2     -4.27      0.00
   -1    3    3      6.26      0.00
   -1    3    4     11.02      0.00
   -1    3    5      9.33      0.00
   -1    3    6      4.33      0.00
   -1    3    7     -0.18      0.00
   -1    3    8     -2.26      0.00
   -1    3    9     -2.10      0.00
   -1    3   10     -0.96      0.00
   -1    3   11      0.06      0.00
    1    1   10     -0.86      0.00
    1    1    9     -1.71      0.00
    1    1    8     -1.70      0.00
    1    1    7      0.41      0.00
    1    1    6      4.87      0.00
    1    1    5      9.50      0.00
    1    1    4     10.00      0.00
    1    1    3      2.83      0.00
    1    1    2    -10.95      0.00
    1    1    1    -24.70      0.00
   -1    1    2     -8.27      0.00
   -1    1    3      6.44      0.00
   -1    1    4     13.67      0.00
   -1    1    5     12.18      0.00
   -1    1    6      5.93      0.00
   -1    1    7      0.02      0.00
   -1    1    8     -2.75      0.00
   -1    1    9     -2.54      0.00
   -1    1   10     -1.03      0.00
   -1    1   11      0.22      0.00
   -1    3    1    -15.34      0.00
   -1    5    1     -8.48      0.00
    2   12    3     -0.13      0.00
    2   12    2      0.31      0.00
    2   12    1      0.88      0.00
    2   12    0      1.29      0.00
   -2   12    1      1.26      0.00
   -2   12    2      0.71      0.00
   -2   12    3     -0.10      0.00
   -2   12    4     -0.82      0.00
   -2   12    5     -1.18      0.00
    2   10    6     -0.82      0.00
    2   10    5     -0.83      0.00
    2   10    4     -0.75      0.00
    2   10    3     -0.43      0.00
    2   10    2      0.28      0.00
    2   10    1      1.22      0.00
    2   10    0      1.83      0.00
   -2   10    1      1.65      0.00
   -2   10    2      0.78      0.00
   -2   10    3     -0.26      0.00
   -2   10    4     -0.94      0.00
   -2   10    5     -1.12      0.00
   -2   10    6     -0.94      0.00
   -2   10    7     -0.56      0.00
   -2   10    8     -0.12      0.00
    2    8    8     -0.12      0.00
    2    8    7     -0.48      0.00
    2    8    6     -0.98      0.00
    2    8    5     -1.56      0.00
    2    8    4     -1.87      0.00
    2    8    3     -1.33      0.00
    2    8    2      0.28      0.00
    2    8    1      2.25      0.00
    2    8    0      3.23      0.00
   -2    8    1      2.42      0.00
   -2    8    2      0.32      0.00
   -2    8    3     -1.69      0.00
   -2    8    4     -2.47      0.00
   -2    8    5     -1.97      0.00
   -2    8    6     -0.88      0.00
   -2    8    7      0.09      0.00
   -2    8    8      0.65      0.00
   -2    8    9      0.80      0.00
    2    6    9      0.79      0.00
    2    6    8      0.58      0.00
    2    6    7     -0.15      0.00
    2    6    6     -1.42      0.00
    2    6    5     -2.82      0.00
    2    6    4     -3.31      0.00
    2    6    3     -1.72      0.00
    2    6    2      1.98      0.00
    2    6    1      5.96      0.00
    2    6    0      7.50      0.00
   -2    6    2      0.34      0.00
   -2    6    3     -4.13      0.00
   -2    6    4     -5.86      0.00
   -2    6    5     -4.66      0.00
   -2    6    6     -2.07      0.00
   -2    6    7      0.20      0.00
   -2    6    8      1.31      0.00
   -2    6    9      1.34      0.00
   -2    6   10      0.77      0.00
    2    4    9      1.48      0.00
    2    4    8      1.30      0.00
    2    4    7      0.17      0.00
    2    4    6     -2.06      0.00
    2    4    5     -4.54      0.00
    2    4    4     -5.25      0.00
    2    4    3     -2.22      0.00
    2    4    2      4.34      0.00
    2    4    1     11.09      0.00
    2    4    0     13.48      0.00
   -2    4    2      0.86      0.00
   -2    4    3     -6.92      0.00
   -2    4    4    -10.01      0.00
   -2    4    5     -7.98      0.00
   -2    4    6     -3.44      0.00
   -2    4    7      0.51      0.00
   -2    4    8      2.31      0.00
   -2    4    9      2.13      0.00
   -2    4   10      1.02      0.00
   -2    4   11      0.00      0.00
    2    2   10      1.06      0.00
    2    2    9      1.59      0.00
    2    2    8      1.50      0.00
    2    2    7     -0.06      0.00
    2    2    6     -3.37      0.00
    2    2    5     -6.98      0.00
    2    2    4     -7.67      0.00
    2    2    3     -2.57      0.00
    2    2    2      7.73      0.00
    2    2    1     18.11      0.00
    2    2    0     21.83      0.00
   -2    2    2      3.07      0.00
   -2    2    3     -8.85      0.00
   -2    2    4    -14.02      0.00
   -2    2    5    -11.57      0.00
   -2    2    6     -5.12      0.00
   -2    2    7      0.70      0.00
   -2    2    8      3.37      0.00
   -2    2    9      3.08      0.00
   -2    2   10      1.44      0.00
   -2    2   11      0.00      0.00
   -2    2   12     -0.54      0.00
    2    0   10      0.81      0.00
    2    0    9      1.40      0.00
    2    0    8      1.34      0.00
    2    0    7     -0.45      0.00
    2    0    6     -4.28      0.00
    2    0    5     -8.33      0.00
    2    0    4     -8.81      0.00
    2    0    3     -2.41      0.00
    2    0    2     10.02      0.00
    2    0    1     22.40      0.00
    2    0    0     26.88      0.00
   -2    0    2      4.92      0.00
   -2    0    3     -9.32      0.00
   -2    0    4    -15.86      0.00
   -2    0    5    -13.46      0.00
   -2    0    6     -6.22      0.00
   -2    0    7      0.52      0.00
   -2    0    8      3.69      0.00
   -2    0    9      3.42      0.00
   -2    0   10      1.56      0.00
   -2    0   11     -0.06      0.00
   -2    0   12     -0.66      0.00
   -2    2    1     15.74      0.00
   -2    4    1      9.33      0.00
   -2    6    1      5.21      0.00
   -3   13    1     -0.58      0.00
   -3   13    2     -0.19      0.00
    3   11    4      0.43      0.00
    3   11    3      0.20      0.00
    3   11    2     -0.27      0.00
    3   11    1     -0.94      0.00
    3   11    0     -1.40      0.00
   -3   11    1     -1.24      0.00
   -3   11    2     -0.46      0.00
   -3   11    3      0.53      0.00
   -3   11    4      1.27      0.00
   -3   11    5      1.51      0.00
   -3   11    6      1.32      0.00
   -3   11    7      0.86      0.00
    3    9    6      0.68      0.00
    3    9    5      0.86      0.00
    3    9    4      1.01      0.00
    3    9    3      0.80      0.00
    3    9    2     -0.04      0.00
    3    9    1     -1.21      0.00
    3    9    0     -1.92      0.00
   -3    9    1     -1.52      0.00
   -3    9    2     -0.22      0.00
   -3    9    3      1.12      0.00
   -3    9    4      1.72      0.00
   -3    9    5      1.48      0.00
   -3    9    6      0.84      0.00
   -3    9    7      0.22      0.00
   -3    9    8     -0.21      0.00
   -3    9    9     -0.46      0.00
    3    7    8     -0.11      0.00
    3    7    7      0.30      0.00
    3    7    6      0.94      0.00
    3    7    5      1.69      0.00
    3    7    4      2.04      0.00
    3    7    3      1.24      0.00
    3    7    2     -0.93      0.00
    3    7    1     -3.45      0.00
    3    7    0     -4.53      0.00
   -3    7    1     -3.11      0.00
   -3    7    3      3.04      0.00
   -3    7    4      4.11      0.00
   -3    7    5      3.15      0.00
   -3    7    6      1.26      0.00
   -3    7    7     -0.35      0.00
   -3    7    8     -1.12      0.00
   -3    7    9     -1.13      0.00
   -3    7   10     -0.73      0.00
    3    5    8     -0.73      0.00
    3    5    7     -0.02      0.00
    3    5    6      1.26      0.00
    3    5    5      2.70      0.00
    3    5    4      3.14      0.00
    3    5    3      1.29      0.00
    3    5    2     -2.88      0.00
    3    5    1     -7.26      0.00
    3    5    0     -8.73      0.00
   -3    5    1     -5.66      0.00
   -3    5    3      5.92      0.00
   -3    5    4      7.88      0.00
   -3    5    5      6.04      0.00
   -3    5    6      2.39      0.00
   -3    5    7     -0.73      0.00
   -3    5    8     -2.12      0.00
   -3    5    9     -1.92      0.00
   -3    5   10     -0.95      0.00
   -3    5   11     -0.02      0.00
    3    3    9     -1.30      0.00
    3    3    8     -1.16      0.00
    3    3    7     -0.15      0.00
    3    3    6      1.96      0.00
    3    3    5      4.39      0.00
    3    3    4      5.09      0.00
    3    3    3      1.96      0.00
    3    3    2     -4.81      0.00
    3    3    1    -11.75      0.00
    3    3    0    -13.96      0.00
   -3    3    1     -9.08      0.00
   -3    3    3      9.17      0.00
   -3    3    4     12.35      0.00
   -3    3    5      9.51      0.00
   -3    3    6      3.68      0.00
   -3    3    7     -1.36      0.00
   -3    3    8     -3.59      0.00
   -3    3    9     -3.22      0.00
   -3    3   10     -1.63      0.00
   -3    3   11     -0.20      0.00
   -3    3   12      0.42      0.00
    3    1    9     -1.04      0.00
    3    1    8     -0.97      0.00
    3    1    7      0.31      0.00
    3    1    6      3.15      0.00
    3    1    5      6.35      0.00
    3    1    4      7.01      0.00
    3    1    3      2.36      0.00
    3    1    2     -7.16      0.00
    3    1    1    -16.73      0.00
    3    1    0    -19.87      0.00
   -3    1    1    -13.44      0.00
   -3    1    2     -0.60      0.00
   -3    1    3     11.32      0.00
   -3    1    4     16.16      0.00
   -3    1    5     12.94      0.00
   -3    1    6      5.47      0.00
   -3    1    7     -1.27      0.00
   -3    1    8     -4.42      0.00
   -3    1    9     -4.09      0.00
   -3    1   10     -2.09      0.00
   -3    1   11     -0.27      0.00
   -3    1   12      0.51      0.00
   -3    3    2      0.50      0.00
   -3    5    2      0.43      0.00
   -3    7    2      0.09      0.00
   -4   12    2     -0.08      0.00
   -4   12    3     -0.92      0.00
   -4   12    4     -1.46      0.00
   -4   12    5     -1.52      0.00
    4   10    5     -0.26      0.00
    4   10    4     -0.30      0.00
    4   10    3     -0.23      0.00
    4   10    2      0.17      0.00
    4   10    1      0.83      0.00
    4   10    0      1.24      0.00
   -4   10    1      0.91      0.00
   -4   10    2     -0.07      0.00
   -4   10    3     -1.11      0.00
   -4   10    4     -1.62      0.00
   -4   10    5     -1.50      0.00
   -4   10    6     -1.08      0.00
   -4   10    7     -0.63      0.00
   -4   10    8     -0.25      0.00
    4    8    6     -0.40      0.00
    4    8    5     -0.75      0.00
    4    8    4     -1.04      0.00
    4    8    3     -0.79      0.00
    4    8    2      0.31      0.00
    4    8    1      1.79      0.00
    4    8    0      2.55      0.00
   -4    8    1      1.78      0.00
   -4    8    2     -0.18      0.00
   -4    8    3     -2.02      0.00
   -4    8    4     -2.63      0.00
   -4    8    5     -1.92      0.00
   -4    8    6     -0.68      0.00
   -4    8    7      0.29      0.00
   -4    8    8      0.72      0.00
   -4    8    9      0.72      0.00
   -4    8   10      0.54      0.00
    4    6    7     -0.18      0.00
    4    6    6     -0.82      0.00
    4    6    5     -1.56      0.00
    4    6    4     -1.81      0.00
    4    6    3     -0.74      0.00
    4    6    2      1.86      0.00
    4    6    1      4.74      0.00
    4    6    0      5.80      0.00
   -4    6    1      3.80      0.00
   -4    6    2     -0.32      0.00
   -4    6    3     -4.08      0.00
   -4    6    4     -5.37      0.00
   -4    6    5     -3.95      0.00
   -4    6    6     -1.28      0.00
   -4    6    7      0.93      0.00
   -4    6    8      1.85      0.00
   -4    6    9      1.58      0.00
   -4    6   10      0.76      0.00
   -4    6   11     -0.01      0.00
    4    4    8      0.53      0.00
    4    4    7     -0.06      0.00
    4    4    6     -1.18      0.00
    4    4    5     -2.51      0.00
    4    4    4     -2.90      0.00
    4    4    3     -0.99      0.00
    4    4    2      3.29      0.00
    4    4    1      7.77      0.00
    4    4    0      9.11      0.00
   -4    4    1      5.58      0.00
   -4    4    2     -1.19      0.00
   -4    4    3     -7.23      0.00
   -4    4    4     -9.19      0.00
   -4    4    5     -6.73      0.00
   -4    4    6     -2.14      0.00
   -4    4    7      1.72      0.00
   -4    4    8      3.32      0.00
   -4    4    9      2.84      0.00
   -4    4   10      1.39      0.00
   -4    4   11      0.09      0.00
   -4    4   12     -0.48      0.00
    4    2    8      0.51      0.00
    4    2    7     -0.25      0.00
    4    2    6     -1.98      0.00
    4    2    5     -4.09      0.00
    4    2    4     -4.69      0.00
    4    2    3     -1.75      0.00
    4    2    2      4.68      0.00
    4    2    1     11.26      0.00
    4    2    0     13.19      0.00
   -4    2    1      8.03      0.00
   -4    2    3    -10.74      0.00
   -4    2    4    -13.85      0.00
   -4    2    5    -10.49      0.00
   -4    2    6     -3.83      0.00
   -4    2    7      1.99      0.00
   -4    2    8      4.60      0.00
   -4    2    9      4.13      0.00
   -4    2   10      2.19      0.00
   -4    2   11      0.41      0.00
   -4    2   12     -0.38      0.00
    4    0    9      0.32      0.00
    4    0    8      0.27      0.00
    4    0    7     -0.57      0.00
    4    0    6     -2.60      0.00
    4    0    5     -5.05      0.00
    4    0    4     -5.65      0.00
    4    0    3     -2.00      0.00
    4    0    2      5.71      0.00
    4    0    1     13.52      0.00
    4    0    0     15.83      0.00
   -4    0    1      9.83      0.00
   -4    0    2     -1.75      0.00
   -4    0    3    -12.34      0.00
   -4    0    4    -16.32      0.00
   -4    0    5    -12.73      0.00
   -4    0    6     -5.13      0.00
   -4    0    7      1.70      0.00
   -4    0    8      4.91      0.00
   -4    0    9      4.55      0.00
   -4    0   10      2.42      0.00
   -4    0   11      0.43      0.00
   -4    0   12     -0.47      0.00
   -4    2    2     -1.84      0.00
    4   12    2      0.13      0.00
    4   12    1      0.54      0.00
    4   12    0      0.82      0.00
   -4   12    1      0.62      0.00
   -5   11    2      0.54      0.00
   -5   11    3      1.36      0.00
   -5   11    4      1.67      0.00
   -5   11    5      1.47      0.00
   -5   11    6      1.04      0.00
   -5   11    7      0.67      0.00
    5    9    5      0.00      0.00
    5    9    4      0.25      0.00
    5    9    3      0.34      0.00
    5    9    2     -0.07      0.00
    5    9    1     -0.81      0.00
    5    9    0     -1.24      0.00
   -5    9    3      1.57      0.00
   -5    9    4      1.83      0.00
   -5    9    5      1.27      0.00
   -5    9    6      0.49      0.00
   -5    9    7      0.01      0.00
   -5    9    8     -0.13      0.00
   -5    9    9     -0.15      0.00
    5    7    6      0.34      0.00
    5    7    5      0.76      0.00
    5    7    4      1.05      0.00
    5    7    3      0.60      0.00
    5    7    2     -0.87      0.00
    5    7    1     -2.73      0.00
    5    7    0     -3.59      0.00
   -5    7    1     -2.47      0.00
   -5    7    2      0.13      0.00
   -5    7    3      2.52      0.00
   -5    7    4      3.24      0.00
   -5    7    5      2.15      0.00
   -5    7    6      0.30      0.00
   -5    7    7     -1.10      0.00
   -5    7    8     -1.53      0.00
   -5    7    9     -1.18      0.00
   -5    7   10     -0.55      0.00
   -5    7   11     -0.03      0.00
    5    5    7      0.39      0.00
    5    5    6      0.94      0.00
    5    5    5      1.58      0.00
    5    5    4      1.70      0.00
    5    5    3      0.46      0.00
    5    5    2     -2.34      0.00
    5    5    1     -5.40      0.00
    5    5    0     -6.46      0.00
   -5    5    1     -4.20      0.00
   -5    5    2      0.40      0.00
   -5    5    3      4.58      0.00
   -5    5    4      5.91      0.00
   -5    5    5      4.09      0.00
   -5    5    6      0.79      0.00
   -5    5    7     -1.92      0.00
   -5    5    8     -2.89      0.00
   -5    5    9     -2.29      0.00
   -5    5   10     -0.98      0.00
   -5    5   11      0.16      0.00
   -5    5   12      0.65      0.00
    5    3    8      0.06      0.00
    5    3    7      0.50      0.00
    5    3    6      1.38      0.00
    5    3    5      2.47      0.00
    5    3    4      2.75      0.00
    5    3    3      0.88      0.00
    5    3    2     -3.27      0.00
    5    3    1     -7.61      0.00
    5    3    0     -8.88      0.00
   -5    3    1     -5.24      0.00
   -5    3    4      9.90      0.00
   -5    3    5      7.10      0.00
   -5    3    6      1.93      0.00
   -5    3    7     -2.44      0.00
   -5    3    8     -4.22      0.00
   -5    3    9     -3.56      0.00
   -5    3   10     -1.75      0.00
   -5    3   11     -0.17      0.00
   -5    3   12      0.50      0.00
    5    1    8      0.29      0.00
    5    1    7      0.75      0.00
    5    1    6      1.92      0.00
    5    1    5      3.44      0.00
    5    1    4      3.80      0.00
    5    1    3      1.21      0.00
    5    1    2     -4.39      0.00
    5    1    1    -10.14      0.00
    5    1    0    -11.71      0.00
   -5    1    1     -6.79      0.00
   -5    1    2      2.54      0.00
   -5    1    3     11.01      0.00
   -5    1    4     13.97      0.00
   -5    1    5     10.60      0.00
   -5    1    6      3.88      0.00
   -5    1    7     -2.08      0.00
   -5    1    8     -4.80      0.00
   -5    1    9     -4.31      0.00
   -5    1   10     -2.24      0.00
   -5    1   11     -0.34      0.00
   -5    1   12      0.50      0.00
   -5    1   13      0.41      0.00
   -5    3    2      1.72      0.00
   -5    3    3      7.94      0.00
   -5    9    1     -0.75      0.00
   -5    9    2      0.47      0.00
    5   11    3     -0.09      0.00
    5   11    2     -0.25      0.00
    5   11    1     -0.57      0.00
    5   11    0     -0.70      0.00
   -5   11    1     -0.31      0.00
   -6   12    2     -0.77      0.00
   -6   12    3     -1.29      0.00
   -6   12    4     -1.33      0.00
   -6   12    5     -0.94      0.00
   -6   10    3     -1.54      0.00
   -6   10    4     -1.52      0.00
   -6   10    5     -0.99      0.00
   -6   10    6     -0.48      0.00
   -6   10    7     -0.33      0.00
   -6   10    8     -0.42      0.00
   -6   10    9     -0.40      0.00
    6    8    5     -0.18      0.00
    6    8    4     -0.58      0.00
    6    8    3     -0.66      0.00
    6    8    2     -0.04      0.00
   -6    8    4     -1.90      0.00
   -6    8    5     -0.97      0.00
   -6    8    6      0.26      0.00
   -6    8    7      0.95      0.00
   -6    8    8      0.94      0.00
   -6    8    9      0.56      0.00
   -6    8   10      0.21      0.00
    6    6    6     -0.72      0.00
    6    6    5     -1.16      0.00
    6    6    4     -1.36      0.00
    6    6    3     -0.69      0.00
    6    6    2      1.12      0.00
    6    6    1      3.32      0.00
    6    6    0      4.34      0.00
   -6    6    1      3.10      0.00
   -6    6    2      0.14      0.00
   -6    6    3     -2.64      0.00
   -6    6    4     -3.47      0.00
   -6    6    5     -2.08      0.00
   -6    6    6      0.29      0.00
   -6    6    7      2.12      0.00
   -6    6    8      2.60      0.00
   -6    6    9      1.91      0.00
   -6    6   10      0.75      0.00
   -6    6   11     -0.21      0.00
   -6    6   12     -0.61      0.00
    6    4    7     -0.85      0.00
    6    4    6     -1.34      0.00
    6    4    5     -1.87      0.00
    6    4    4     -1.92      0.00
    6    4    3     -0.65      0.00
    6    4    2      2.13      0.00
    6    4    1      5.18      0.00
    6    4    0      6.28      0.00
   -6    4    1      4.04      0.00
   -6    4    2     -0.61      0.00
   -6    4    4     -6.17      0.00
   -6    4    5     -4.10      0.00
   -6    4    6     -0.37      0.00
   -6    4    7      2.69      0.00
   -6    4    8      3.73      0.00
   -6    4    9      2.89      0.00
   -6    4   10      1.21      0.00
   -6    4   11     -0.20      0.00
   -6    4   12     -0.78      0.00
    6    2    7     -0.95      0.00
    6    2    6     -1.56      0.00
    6    2    5     -2.33      0.00
    6    2    4     -2.42      0.00
    6    2    3     -0.63      0.00
    6    2    2      3.19      0.00
    6    2    1      7.20      0.00
   -6    2    2     -1.91      0.00
   -6    2    3     -8.07      0.00
   -6    2    4    -10.10      0.00
   -6    2    5     -7.35      0.00
   -6    2    6     -2.08      0.00
   -6    2    7      2.50      0.00
   -6    2    8      4.40      0.00
   -6    2    9      3.68      0.00
   -6    2   10      1.73      0.00
   -6    2   11      0.05      0.00
   -6    2   12     -0.62      0.00
   -6    2   13     -0.44      0.00
    6    0    7     -1.01      0.00
    6    0    6     -1.66      0.00
    6    0    5     -2.54      0.00
    6    0    4     -2.61      0.00
    6    0    3     -0.46      0.00
    6    0    2      4.03      0.00
    6    0    1      8.64      0.00
    6    0    0      9.85      0.00
   -6    0    1      5.64      0.00
   -6    0    2     -2.37      0.00
   -6    0    3     -9.72      0.00
   -6    0    4    -12.34      0.00
   -6    0    5     -9.37      0.00
   -6    0    6     -3.33      0.00
   -6    0    7      2.07      0.00
   -6    0    8      4.51      0.00
   -6    0    9      3.94      0.00
   -6    0   10      1.89      0.00
   -6    0   11      0.07      0.00
   -6    0   12     -0.67      0.00
   -6    0   13     -0.50      0.00
    6    2    0      8.35      0.00
   -6    2    1      4.85      0.00
   -6    4    3     -4.86      0.00
    6    8    1      1.03      0.00
    6    8    0      1.65      0.00
   -6    8    1      1.09      0.00
   -6    8    2     -0.40      0.00
   -6    8    3     -1.72      0.00
    6   10    3     -0.07      0.00
    6   10    2     -0.03      0.00
    6   10    1      0.25      0.00
    6   10    0      0.36      0.00
   -6   10    1     -0.06      0.00
   -6   10    2     -0.90      0.00
   -6   12    1     -0.11      0.00
   -7   11    3      1.39      0.00
   -7   11    4      1.18      0.00
   -7   11    5      0.65      0.00
   -7   11    6      0.30      0.00
   -7   11    7      0.38      0.00
   -7    9    4      1.24      0.00
   -7    9    5      0.43      0.00
   -7    9    6     -0.27      0.00
   -7    9    7     -0.37      0.00
   -7    9    8      0.00      0.00
   -7    9    9      0.34      0.00
   -7    9   10      0.33      0.00
   -7    7    4      2.00      0.00
   -7    7    5      0.82      0.00
   -7    7    6     -0.89      0.00
   -7    7    7     -2.02      0.00
   -7    7    8     -2.09      0.00
   -7    7    9     -1.40      0.00
   -7    7   10     -0.53      0.00
   -7    7   11      0.08      0.00
    7    5    6      1.28      0.00
    7    5    5      1.75      0.00
    7    5    4      1.90      0.00
    7    5    3      1.13      0.00
    7    5    2     -0.80      0.00
    7    5    1     -3.12      0.00
    7    5    0     -4.25      0.00
   -7    5    1     -3.06      0.00
   -7    5    2     -0.04      0.00
   -7    5    5      2.13      0.00
   -7    5    6     -0.64      0.00
   -7    5    7     -2.85      0.00
   -7    5    8     -3.45      0.00
   -7    5    9     -2.54      0.00
   -7    5   10     -0.98      0.00
   -7    5   11      0.30      0.00
   -7    5   12      0.83      0.00
    7    3    6      1.56      0.00
    7    3    5      2.01      0.00
    7    3    4      2.00      0.00
    7    3    3      0.80      0.00
    7    3    2     -1.77      0.00
    7    3    1     -4.59      0.00
    7    3    0     -5.60      0.00
   -7    3    2      1.03      0.00
   -7    3    3      5.20      0.00
   -7    3    4      6.50      0.00
   -7    3    5      4.36      0.00
   -7    3    6      0.43      0.00
   -7    3    7     -2.86      0.00
   -7    3    8     -4.01      0.00
   -7    3    9     -3.09      0.00
   -7    3   10     -1.25      0.00
   -7    3   11      0.24      0.00
   -7    3   12      0.77      0.00
   -7    3   13      0.54      0.00
    7    1    6      1.40      0.00
    7    1    5      1.86      0.00
    7    1    4      1.75      0.00
    7    1    3      0.13      0.00
    7    1    2     -3.16      0.00
    7    1    1     -6.57      0.00
    7    1    0     -7.49      0.00
   -7    1    1     -4.32      0.00
   -7    1    2      1.82      0.00
   -7    1    3      7.50      0.00
   -7    1    4      9.48      0.00
   -7    1    5      6.98      0.00
   -7    1    6      2.01      0.00
   -7    1    7     -2.40      0.00
   -7    1    8     -4.24      0.00
   -7    1    9     -3.49      0.00
   -7    1   10     -1.52      0.00
   -7    1   11      0.11      0.00
   -7    1   12      0.69      0.00
   -7    1   13      0.44      0.00
   -7    3    1     -3.46      0.00
   -7    5    3      2.85      0.00
   -7    5    4      3.71      0.00
    7    7    5      0.82      0.00
    7    7    4      1.28      0.00
    7    7    3      1.19      0.00
    7    7    2      0.19      0.00
    7    7    1     -1.32      0.00
    7    7    0     -2.24      0.00
   -7    7    1     -1.70      0.00
   -7    7    2      0.05      0.00
   -7    7    3      1.70      0.00
    7    9    3      0.68      0.00
    7    9    2      0.59      0.00
    7    9    1      0.09      0.00
    7    9    0     -0.25      0.00
   -7    9    1      0.05      0.00
   -7    9    2      0.86      0.00
   -7    9    3      1.44      0.00
    7   11    0      0.06      0.00
   -7   11    1      0.45      0.00
   -7   11    2      1.05      0.00
   -8   10    4     -0.82      0.00
   -8   10    5     -0.20      0.00
   -8   10    6      0.07      0.00
   -8   10    7     -0.27      0.00
   -8   10    8     -0.86      0.00
   -8    8    5     -0.24      0.00
   -8    8    6      0.83      0.00
   -8    8    7      1.27      0.00
   -8    8    8      0.97      0.00
   -8    8    9      0.38      0.00
   -8    8   10     -0.03      0.00
   -8    6    3     -1.88      0.00
   -8    6    5     -1.10      0.00
   -8    6    6      1.04      0.00
   -8    6    7      2.69      0.00
   -8    6    8      3.02      0.00
   -8    6    9      2.19      0.00
   -8    6   10      0.90      0.00
   -8    6   11     -0.13      0.00
   -8    6   12     -0.56      0.00
    8    4    5     -1.92      0.00
    8    4    4     -2.04      0.00
    8    4    3     -1.31      0.00
    8    4    2      0.45      0.00
    8    4    1      2.54      0.00
    8    4    0      3.54      0.00
   -8    4    2     -0.52      0.00
   -8    4    3     -3.33      0.00
   -8    4    4     -4.14      0.00
   -8    4    5     -2.46      0.00
   -8    4    6      0.55      0.00
   -8    4    7      3.03      0.00
   -8    4    8      3.75      0.00
   -8    4    9      2.76      0.00
   -8    4   10      1.03      0.00
   -8    4   11     -0.34      0.00
   -8    4   12     -0.83      0.00
   -8    4   13     -0.61      0.00
    8    2    5     -1.58      0.00
    8    2    4     -1.49      0.00
    8    2    3     -0.40      0.00
    8    2    2      1.80      0.00
    8    2    1      4.15      0.00
    8    2    0      4.86      0.00
   -8    2    1      2.77      0.00
   -8    2    2     -1.43      0.00
   -8    2    3     -5.34      0.00
   -8    2    4     -6.54      0.00
   -8    2    5     -4.42      0.00
   -8    2    6     -0.47      0.00
   -8    2    7      2.91      0.00
   -8    2    8      4.10      0.00
   -8    2    9      3.14      0.00
   -8    2   10      1.26      0.00
   -8    2   11     -0.18      0.00
   -8    2   12     -0.60      0.00
   -8    2   13     -0.30      0.00
    8    0    6     -1.03      0.00
    8    0    5     -1.27      0.00
    8    0    4     -1.06      0.00
    8    0    3      0.27      0.00
    8    0    2      2.81      0.00
    8    0    1      5.39      0.00
    8    0    0      6.00      0.00
   -8    0    1      3.35      0.00
   -8    0    2     -1.69      0.00
   -8    0    3     -6.37      0.00
   -8    0    4     -7.93      0.00
   -8    0    5     -5.64      0.00
   -8    0    6     -1.18      0.00
   -8    0    7      2.74      0.00
   -8    0    8      4.28      0.00
   -8    0    9      3.40      0.00
   -8    0   10      1.46      0.00
   -8    0   11     -0.07      0.00
   -8    0   12     -0.51      0.00
   -8    0   13     -0.22      0.00
   -8    4    1      2.38      0.00
    8    6    4     -1.90      0.00
    8    6    3     -1.63      0.00
    8    6    2     -0.37      0.00
    8    6    1      1.41      0.00
    8    6    0      2.53      0.00
   -8    6    1      2.01      0.00
   -8    6    2      0.08      0.00
   -8    6    4     -2.39      0.00
    8    8    3     -1.37      0.00
    8    8    2     -0.98      0.00
    8    8    1     -0.06      0.00
    8    8    0      0.66      0.00
   -8    8    1      0.49      0.00
   -8    8    2     -0.45      0.00
   -8    8    3     -1.28      0.00
   -8    8    4     -1.20      0.00
    8   10    1     -0.45      0.00
    8   10    0     -0.30      0.00
   -8   10    1     -0.52      0.00
   -8   10    2     -0.98      0.00
   -8   10    3     -1.18      0.00
   -9   11    4      0.43      0.00
   -9   11    5      0.01      0.00
   -9    9    5      0.06      0.00
   -9    9    6     -0.37      0.00
   -9    9    7     -0.18      0.00
   -9    9    8      0.42      0.00
   -9    9    9      0.84      0.00
   -9    7    5      0.70      0.00
   -9    7    6     -0.81      0.00
   -9    7    7     -1.85      0.00
   -9    7    8     -1.94      0.00
   -9    7    9     -1.29      0.00
   -9    7   10     -0.47      0.00
   -9    7   11      0.07      0.00
    9    5    4      1.82      0.00
   -9    5    3      2.27      0.00
   -9    5    4      2.92      0.00
   -9    5    5      1.63      0.00
   -9    5    6     -0.75      0.00
   -9    5    7     -2.74      0.00
   -9    5    8     -3.30      0.00
   -9    5    9     -2.42      0.00
   -9    5   10     -0.91      0.00
   -9    5   11      0.31      0.00
   -9    5   12      0.77      0.00
    9    3    4      1.33      0.00
    9    3    3      0.67      0.00
    9    3    2     -0.75      0.00
    9    3    1     -2.34      0.00
    9    3    0     -2.93      0.00
   -9    3    1     -1.66      0.00
   -9    3    2      1.09      0.00
   -9    3    3      3.67      0.00
   -9    3    4      4.34      0.00
   -9    3    5      2.58      0.00
   -9    3    6     -0.52      0.00
   -9    3    7     -3.08      0.00
   -9    3    8     -3.83      0.00
   -9    3    9     -2.78      0.00
   -9    3   10     -1.01      0.00
   -9    3   11      0.29      0.00
   -9    3   12      0.61      0.00
   -9    3   13      0.28      0.00
    9    1    5      0.81      0.00
    9    1    4      0.58      0.00
    9    1    3     -0.38      0.00
    9    1    2     -2.11      0.00
    9    1    1     -3.80      0.00
    9    1    0     -4.09      0.00
   -9    1    1     -2.07      0.00
   -9    1    2      1.63      0.00
   -9    1    3      4.97      0.00
   -9    1    4      5.86      0.00
   -9    1    5      3.72      0.00
   -9    1    6     -0.08      0.00
   -9    1    7     -3.30      0.00
   -9    1    8     -4.37      0.00
   -9    1    9     -3.31      0.00
   -9    1   10     -1.41      0.00
   -9    1   11     -0.05      0.00
   -9    1   12      0.25      0.00
   -9    1   13     -0.09      0.00
    9    5    3      1.46      0.00
    9    5    2      0.21      0.00
    9    5    1     -1.44      0.00
    9    5    0     -2.43      0.00
   -9    5    1     -1.82      0.00
   -9    5    2      0.19      0.00
    9    7    3      1.61      0.00
    9    7    2      0.88      0.00
    9    7    1     -0.42      0.00
    9    7    0     -1.39      0.00
   -9    7    1     -1.21      0.00
   -9    7    2      0.04      0.00
   -9    7    3      1.36      0.00
   -9    7    4      1.66      0.00
    9    9    1      0.46      0.00
    9    9    0      0.00      0.00
   -9    9    1      0.05      0.00
   -9    9    2      0.56      0.00
   -9    9    3      0.92      0.00
   -9    9    4      0.70      0.00
   -9   11    3      0.77      0.00
  -10   10    5      0.02      0.00
  -10   10    6      0.01      0.00
  -10   10    7     -0.52      0.00
  -10    8    5     -0.57      0.00
  -10    8    6      0.23      0.00
  -10    8    7      0.62      0.00
  -10    8    8      0.44      0.00
  -10    8    9      0.02      0.00
  -10    8   10     -0.24      0.00
  -10    6    5     -1.46      0.00
  -10    6    6      0.31      0.00
  -10    6    7      1.86      0.00
  -10    6    8      2.34      0.00
  -10    6    9      1.71      0.00
  -10    6   10      0.59      0.00
  -10    6   11     -0.32      0.00
  -10    6   12     -0.66      0.00
   10    4    3     -0.47      0.00
   10    4    2      0.54      0.00
   10    4    1      1.73      0.00
   10    4    0      2.27      0.00
  -10    4    4     -3.04      0.00
  -10    4    5     -1.78      0.00
  -10    4    6      0.59      0.00
  -10    4    7      2.62      0.00
  -10    4    8      3.18      0.00
  -10    4    9      2.23      0.00
  -10    4   10      0.65      0.00
  -10    4   11     -0.52      0.00
  -10    4   12     -0.81      0.00
  -10    4   13     -0.47      0.00
   10    2    4     -0.18      0.00
   10    2    3      0.49      0.00
   10    2    2      1.57      0.00
   10    2    1      2.57      0.00
   10    2    0      2.63      0.00
  -10    2    1      1.21      0.00
  -10    2    2     -1.30      0.00
  -10    2    3     -3.50      0.00
  -10    2    4     -3.90      0.00
  -10    2    5     -2.08      0.00
  -10    2    6      0.95      0.00
  -10    2    7      3.39      0.00
  -10    2    8      4.00      0.00
  -10    2    9      2.84      0.00
  -10    2   10      1.07      0.00
  -10    2   11     -0.09      0.00
  -10    2   12     -0.21      0.00
  -10    2   13      0.20      0.00
   10    0    4      0.19      0.00
   10    0    3      1.03      0.00
   10    0    2      2.25      0.00
   10    0    1      3.26      0.00
   10    0    0      3.15      0.00
  -10    0    1      1.35      0.00
  -10    0    2     -1.59      0.00
  -10    0    3     -4.09      0.00
  -10    0    4     -4.52      0.00
  -10    0    5     -2.43      0.00
  -10    0    6      0.98      0.00
  -10    0    7      3.75      0.00
  -10    0    8      4.50      0.00
  -10    0    9      3.30      0.00
  -10    0   10      1.43      0.00
  -10    0   11      0.22      0.00
  -10    0   12      0.09      0.00
  -10    0   13      0.46      0.00
  -10    4    1      1.48      0.00
  -10    4    2     -0.47      0.00
  -10    4    3     -2.43      0.00
   10    6    2     -0.23      0.00
   10    6    1      1.11      0.00
   10    6    0      2.02      0.00
  -10    6    1      1.69      0.00
  -10    6    2      0.15      0.00
  -10    6    3     -1.59      0.00
  -10    6    4     -2.29      0.00
   10    8    1      0.12      0.00
   10    8    0      0.83      0.00
  -10    8    1      0.77      0.00
  -10    8    2     -0.04      0.00
  -10    8    3     -0.93      0.00
  -10    8    4     -1.14      0.00
  -10   10    2     -0.38      0.00
  -10   10    3     -0.55      0.00
  -10   10    4     -0.33      0.00
  -11    9    5      0.42      0.00
  -11    9    6      0.17      0.00
  -11    9    7      0.27      0.00
  -11    9    8      0.61      0.00
  -11    7    6      0.30      0.00
  -11    7    7     -0.74      0.00
  -11    7    8     -1.10      0.00
  -11    7    9     -0.76      0.00
  -11    7   10     -0.14      0.00
  -11    7   11      0.33      0.00
   11    5    2     -0.73      0.00
   11    5    1     -1.75      0.00
   11    5    0     -2.31      0.00
  -11    5    5      1.73      0.00
  -11    5    6      0.00      0.00
  -11    5    7     -1.66      0.00
  -11    5    8     -2.24      0.00
  -11    5    9     -1.57      0.00
  -11    5   10     -0.29      0.00
  -11    5   11      0.73      0.00
  -11    5   12      1.03      0.00
   11    3    2     -1.48      0.00
   11    3    1     -2.11      0.00
   11    3    0     -2.13      0.00
  -11    3    1     -1.16      0.00
  -11    3    2      0.57      0.00
  -11    3    3      2.16      0.00
  -11    3    4      2.52      0.00
  -11    3    5      1.27      0.00
  -11    3    6     -0.93      0.00
  -11    3    7     -2.72      0.00
  -11    3    8     -3.08      0.00
  -11    3    9     -2.01      0.00
  -11    3   10     -0.46      0.00
  -11    3   11      0.51      0.00
  -11    3   12      0.54      0.00
  -11    3   13      0.07      0.00
   11    1    3     -1.33      0.00
   11    1    2     -2.13      0.00
   11    1    1     -2.61      0.00
   11    1    0     -2.26      0.00
  -11    1    1     -0.82      0.00
  -11    1    2      1.27      0.00
  -11    1    3      2.92      0.00
  -11    1    4      2.99      0.00
  -11    1    5      1.20      0.00
  -11    1    6     -1.54      0.00
  -11    1    7     -3.64      0.00
  -11    1    8     -3.99      0.00
  -11    1    9     -2.73      0.00
  -11    1   10     -1.03      0.00
  -11    1   11     -0.08      0.00
  -11    1   12     -0.15      0.00
  -11    1   13     -0.60      0.00
  -11    5    1     -1.79      0.00
  -11    5    2     -0.21      0.00
  -11    5    3      1.57      0.00
  -11    5    4      2.41      0.00
   11    7    0     -1.70      0.00
  -11    7    1     -1.49      0.00
  -11    7    2     -0.31      0.00
  -11    7    3      1.12      0.00
  -11    7    4      1.84      0.00
  -11    7    5      1.43      0.00
  -11    9    2      0.05      0.00
  -11    9    3      0.59      0.00
  -11    9    4      0.70      0.00
  -12    8    6     -0.57      0.00
  -12    8    7     -0.02      0.00
  -12    8    8      0.17      0.00
  -12    8    9      0.06      0.00
   12    6    0      2.07      0.00
  -12    6    6     -0.63      0.00
  -12    6    7      0.72      0.00
  -12    6    8      1.36      0.00
  -12    6    9      1.04      0.00
  -12    6   10      0.14      0.00
  -12    6   11     -0.66      0.00
   12    4    1      1.93      0.00
   12    4    0      2.06      0.00
  -12    4    1      1.46      0.00
  -12    4    2      0.17      0.00
  -12    4    3     -1.22      0.00
  -12    4    4     -1.85      0.00
  -12    4    5     -1.24      0.00
  -12    4    6      0.25      0.00
  -12    4    7      1.66      0.00
  -12    4    8      2.05      0.00
  -12    4    9      1.28      0.00
  -12    4   10      0.01      0.00
  -12    4   11     -0.86      0.00
  -12    4   12     -0.96      0.00
   12    2    1      2.02      0.00
   12    2    0      1.66      0.00
  -12    2    1      0.67      0.00
  -12    2    2     -0.68      0.00
  -12    2    3     -1.74      0.00
  -12    2    4     -1.78      0.00
  -12    2    5     -0.54      0.00
  -12    2    6      1.37      0.00
  -12    2    7      2.81      0.00
  -12    2    8      2.91      0.00
  -12    2    9      1.78      0.00
  -12    2   10      0.37      0.00
  -12    2   11     -0.32      0.00
  -12    2   12     -0.11      0.00
  -12    2   13      0.41      0.00
   12    0    2      1.98      0.00
   12    0    1      2.11      0.00
   12    0    0      1.58      0.00
  -12    0    1      0.38      0.00
  -12    0    2     -1.12      0.00
  -12    0    3     -2.16      0.00
  -12    0    4     -1.99      0.00
  -12    0    5     -0.44      0.00
  -12    0    6      1.75      0.00
  -12    0    7      3.34      0.00
  -12    0    8      3.41      0.00
  -12    0    9      2.17      0.00
  -12    0   10      0.69      0.00
  -12    0   11      0.02      0.00
  -12    0   12      0.28      0.00
  -12    0   13      0.79      0.00
  -12    6    1      1.75      0.00
  -12    6    2      0.48      0.00
  -12    6    3     -1.11      0.00
  -12    6    4     -2.08      0.00
  -12    6    5     -1.84      0.00
  -12    8    3     -0.84      0.00
  -12    8    4     -1.37      0.00
  -12    8    5     -1.18      0.00
  -13    7    6      0.79      0.00
  -13    7    7     -0.22      0.00
  -13    7    8     -0.82      0.00
  -13    7    9     -0.76      0.00
  -13    5    1     -1.40      0.00
  -13    5    2     -0.45      0.00
  -13    5    3      0.79      0.00
  -13    5    6      0.40      0.00
  -13    5    7     -0.83      0.00
  -13    5    8     -1.42      0.00
  -13    5    9     -1.03      0.00
  -13    5   10     -0.07      0.00
  -13    5   11      0.78      0.00
   13    3    0     -1.22      0.00
  -13    3    1     -0.67      0.00
  -13    3    2      0.14      0.00
  -13    3    3      0.90      0.00
  -13    3    4      1.12      0.00
  -13    3    5      0.51      0.00
  -13    3    6     -0.69      0.00
  -13    3    7     -1.71      0.00
  -13    3    8     -1.85      0.00
  -13    3    9     -1.04      0.00
  -13    3   10      0.04      0.00
  -13    3   11      0.62      0.00
  -13    3   12      0.47      0.00
   13    1    0     -0.81      0.00
  -13    1    1      0.00      0.00
  -13    1    2      0.87      0.00
  -13    1    3      1.40      0.00
  -13    1    4      1.17      0.00
  -13    1    5      0.07      0.00
  -13    1    6     -1.44      0.00
  -13    1    7     -2.49      0.00
  -13    1    8     -2.41      0.00
  -13    1    9     -1.36      0.00
  -13    1   10     -0.22      0.00
  -13    1   11      0.18      0.00
  -13    1   12     -0.21      0.00
  -13    5    4      1.60      0.00
  -13    5    5      1.45      0.00
  -13    7    3      0.91      0.00
  -13    7    4      1.69      0.00
  -13    7    5      1.62      0.00
  -14    6    6     -0.58      0.00
  -14    6    7      0.50      0.00
  -14    6    8      1.19      0.00
  -14    6    9      1.12      0.00
  -14    4    2      0.13      0.00
  -14    4    5     -0.71      0.00
  -14    4    6      0.05      0.00
  -14    4    7      0.93      0.00
  -14    4    8      1.30      0.00
  -14    4    9      0.89      0.00
  -14    4   10      0.07      0.00
  -14    4   11     -0.55      0.00
  -14    2    1     -0.21      0.00
  -14    2    2     -0.56      0.00
  -14    2    3     -0.76      0.00
  -14    2    4     -0.63      0.00
  -14    2    5     -0.05      0.00
  -14    2    6      0.84      0.00
  -14    2    7      1.51      0.00
  -14    2    8      1.48      0.00
  -14    2    9      0.76      0.00
  -14    2   10     -0.04      0.00
  -14    2   11     -0.31      0.00
  -14    2   12      0.03      0.00
  -14    0    1     -0.51      0.00
  -14    0    2     -0.89      0.00
  -14    0    3     -1.00      0.00
  -14    0    4     -0.69      0.00
  -14    0    5      0.11      0.00
  -14    0    6      1.14      0.00
  -14    0    7      1.81      0.00
  -14    0    8      1.67      0.00
  -14    0    9      0.84      0.00
  -14    0   10      0.02      0.00
  -14    0   11     -0.14      0.00
  -14    0   12      0.32      0.00
  -14    4    3     -0.47      0.00
  -14    4    4     -0.87      0.00
  -14    6    4     -1.33      0.00
  -14    6    5     -1.34      0.00
  -15    5    6      0.21      0.00
  -15    5    7     -0.60      0.00
  -15    5    8     -1.16      0.00
  -15    3    4      0.35      0.00
  -15    3    5      0.19      0.00
  -15    3    6     -0.26      0.00
  -15    3    7     -0.78      0.00
  -15    3    8     -0.94      0.00
  -15    3    9     -0.59      0.00
  -15    3   10     -0.03      0.00
  -15    1    3      0.52      0.00
  -15    1    4      0.28      0.00
  -15    1    5     -0.14      0.00
  -15    1    6     -0.69      0.00
  -15    1    7     -1.08      0.00
  -15    1    8     -0.99      0.00
  -15    1    9     -0.45      0.00
  -15    1   10      0.09      0.00
  -15    1   11      0.14      0.00
  -16    2    6      0.24      0.00
  -16    2    7      0.47      0.00
  -16    2    8      0.50      0.00
  -16    2    9      0.24      0.00
  -16    0    6      0.45      0.00
  -16    0    7      0.63      0.00
  -16    0    8      0.55      0.00
  -16    0    9      0.20      0.00
  -16    0   10     -0.14      0.00
   14    0    0      0.00      0.00
    1    1    0    -30.10      0.00
   14    2    0      0.18      0.00
   14    4    0      0.72      0.00
   13    5    0     -1.69      0.00
   13    7    0     -1.30      0.00
   12    8    0      1.12      0.00
   11    9    0     -0.57      0.00
   10   10    0      0.01      0.00
    9   11    0      0.21      0.00
    6   12    0      0.26      0.00
    8   12    0     -0.10      0.00
    3   13    0     -0.56      0.00
    5   13    0     -0.30      0.00
   -2    0    1     19.82      0.00
    0    0    1     27.19      0.00
   14    0    1      0.43      0.00
  -15    1    1      0.62      0.00
   -1    1    1    -23.34      0.00
   13    1    1     -1.30      0.00
   14    2    1      0.50      0.00
  -15    3    1      0.24      0.00
   13    3    1     -1.40      0.00
  -14    4    1      0.56      0.00
   13    5    1     -1.39      0.00
  -14    6    1      0.91      0.00
   12    6    1      1.51      0.00
  -13    7    1     -1.14      0.00
   11    7    1     -0.96      0.00
  -12    8    1      0.97      0.00
  -11    9    1     -0.49      0.00
   11    9    1     -0.17      0.00
  -10   10    1     -0.06      0.00
   10   10    1     -0.24      0.00
   -9   11    1      0.39      0.00
    7   11    1      0.02      0.00
    9   11    1      0.28      0.00
   -8   12    1     -0.38      0.00
    6   12    1      0.26      0.00
   -7   13    1      0.20      0.00
   -5   13    1     -0.13      0.00
    3   13    1     -0.24      0.00
    5   13    1     -0.16      0.00
  -16    0    2     -0.32      0.00
  -15    1    2      0.64      0.00
   13    1    2     -1.34      0.00
   12    2    2      1.82      0.00
  -15    3    2      0.26      0.00
   13    3    2     -1.27      0.00
   12    4    2      1.38      0.00
  -15    5    2     -0.22      0.00
  -14    6    2      0.32      0.00
   12    6    2      0.65      0.00
  -13    7    2     -0.26      0.00
   11    7    2      0.03      0.00
  -12    8    2      0.15      0.00
   10    8    2     -0.72      0.00
    9    9    2      0.97      0.00
  -12   10    2     -0.14      0.00
    8   10    2     -0.64      0.00
   -9   11    2      0.70      0.00
    7   11    2      0.10      0.00
   -8   12    2     -0.79      0.00
    6   12    2      0.13      0.00
   -7   13    2      0.61      0.00
   -5   13    2      0.36      0.00
    1   13    2     -0.24      0.00
    3   13    2      0.10      0.00
    5   13    2      0.04      0.00
  -16    0    3     -0.10      0.00
   12    0    3      1.41      0.00
  -16    2    3     -0.10      0.00
   12    2    3      1.30      0.00
  -15    3    3      0.31      0.00
   11    3    3     -0.75      0.00
  -16    4    3      0.01      0.00
   12    4    3      0.79      0.00
  -15    5    3      0.21      0.00
   11    5    3      0.07      0.00
  -14    6    3     -0.60      0.00
   10    6    3     -1.11      0.00
  -14    8    3     -0.72      0.00
   10    8    3     -1.07      0.00
  -13    9    3      0.66      0.00
    9    9    3      1.03      0.00
  -12   10    3     -0.41      0.00
    8   10    3     -0.53      0.00
  -11   11    3      0.30      0.00
    7   11    3      0.02      0.00
  -10   12    3     -0.39      0.00
   -8   12    3     -0.95      0.00
    4   12    3     -0.11      0.00
   -7   13    3      0.84      0.00
   -5   13    3      0.86      0.00
   -3   13    3      0.42      0.00
   -1   13    3     -0.07      0.00
    1   13    3      0.02      0.00
    3   13    3      0.26      0.00
  -16    0    4      0.07      0.00
   11    1    4     -0.61      0.00
  -16    2    4     -0.01      0.00
   11    3    4     -0.23      0.00
  -16    4    4     -0.16      0.00
   10    4    4     -0.89      0.00
  -15    5    4      0.66      0.00
   10    6    4     -1.21      0.00
  -15    7    4      0.84      0.00
    9    7    4      1.50      0.00
  -14    8    4     -1.11      0.00
    8    8    4     -1.06      0.00
  -13    9    4      0.86      0.00
    7    9    4      0.33      0.00
  -12   10    4     -0.38      0.00
    6   10    4      0.15      0.00
  -11   11    4      0.13      0.00
    5   11    4     -0.10      0.00
  -10   12    4     -0.17      0.00
   -8   12    4     -0.66      0.00
    2   12    4     -0.39      0.00
    4   12    4     -0.19      0.00
   -7   13    4      0.66      0.00
   -5   13    4      1.05      0.00
   -3   13    4      0.92      0.00
   -1   13    4      0.37      0.00
    1   13    4      0.20      0.00
  -16    0    5      0.23      0.00
   10    0    5     -0.17      0.00
  -16    2    5      0.06      0.00
   10    2    5     -0.40      0.00
    9    3    5      1.32      0.00
  -16    4    5     -0.27      0.00
   10    4    5     -0.81      0.00
  -15    5    5      0.72      0.00
    9    5    5      1.50      0.00
  -16    6    5     -0.48      0.00
    8    6    5     -1.47      0.00
  -15    7    5      0.87      0.00
  -14    8    5     -1.02      0.00
    8    8    5     -0.47      0.00
  -13    9    5      0.69      0.00
    7    9    5     -0.10      0.00
  -12   10    5     -0.19      0.00
    6   10    5      0.32      0.00
  -11   11    5     -0.09      0.00
    3   11    5      0.54      0.00
    5   11    5     -0.10      0.00
  -10   12    5      0.11      0.00
   -8   12    5     -0.19      0.00
    0   12    5     -0.62      0.00
    2   12    5     -0.52      0.00
   -7   13    5      0.22      0.00
   -5   13    5      0.86      0.00
   -3   13    5      1.09      0.00
   -1   13    5      0.62      0.00
    1   13    5      0.29      0.00
    9    1    6      0.66      0.00
    8    2    6     -1.25      0.00
    9    3    6      0.98      0.00
  -16    4    6     -0.07      0.00
    8    4    6     -1.45      0.00
  -16    6    6     -0.19      0.00
    8    6    6     -0.88      0.00
  -15    7    6      0.37      0.00
    7    7    6      0.35      0.00
  -14    8    6     -0.51      0.00
    6    8    6      0.12      0.00
  -13    9    6      0.38      0.00
    5    9    6     -0.10      0.00
  -12   10    6     -0.15      0.00
    4   10    6     -0.29      0.00
  -11   11    6      0.02      0.00
   -9   11    6      0.00      0.00
    1   11    6      0.76      0.00
    3   11    6      0.59      0.00
  -10   12    6      0.06      0.00
   -8   12    6      0.02      0.00
   -6   12    6     -0.50      0.00
   -4   12    6     -1.18      0.00
   -2   12    6     -1.10      0.00
    0   12    6     -0.65      0.00
    2   12    6     -0.52      0.00
   -7   13    6     -0.12      0.00
   -5   13    6      0.47      0.00
   -3   13    6      0.89      0.00
   -1   13    6      0.57      0.00
    8    0    7     -0.75      0.00
    7    1    7      1.02      0.00
    8    2    7     -0.87      0.00
    7    3    7      1.10      0.00
  -16    4    7      0.38      0.00
    7    5    7      0.82      0.00
  -16    6    7      0.44      0.00
    6    6    7     -0.38      0.00
  -15    7    7     -0.39      0.00
    5    7    7      0.07      0.00
  -14    8    7      0.11      0.00
    4    8    7     -0.18      0.00
  -13    9    7      0.18      0.00
    3    9    7      0.52      0.00
  -12   10    7     -0.41      0.00
    2   10    7     -0.71      0.00
  -11   11    7      0.52      0.00
   -9   11    7      0.52      0.00
   -1   11    7      0.63      0.00
    1   11    7      0.60      0.00
   -8   12    7     -0.19      0.00
   -6   12    7     -0.25      0.00
   -4   12    7     -0.69      0.00
   -2   12    7     -0.67      0.00
    0   12    7     -0.38      0.00
    6    0    8     -0.75      0.00
    7    1    8      0.75      0.00
    6    2    8     -0.63      0.00
  -16    4    8      0.71      0.00
    6    4    8     -0.47      0.00
    5    5    8      0.04      0.00
  -16    6    8      0.96      0.00
    4    6    8      0.20      0.00
  -15    7    8     -0.96      0.00
    5    7    8     -0.06      0.00
  -14    8    8      0.51      0.00
    4    8    8     -0.04      0.00
  -13    9    8      0.14      0.00
    1    9    8      0.24      0.00
    3    9    8      0.33      0.00
  -12   10    8     -0.74      0.00
  -10   10    8     -1.19      0.00
    0   10    8     -0.23      0.00
    2   10    8     -0.47      0.00
  -11   11    8      1.03      0.00
   -9   11    8      1.13      0.00
   -7   11    8      0.63      0.00
   -5   11    8      0.38      0.00
   -3   11    8      0.32      0.00
   -1   11    8      0.18      0.00
   -8   12    8     -0.54      0.00
   -6   12    8     -0.16      0.00
   -4   12    8     -0.21      0.00
    5    1    9      0.20      0.00
    4    2    9      0.61      0.00
    5    3    9     -0.13      0.00
  -16    4    9      0.63      0.00
    4    4    9      0.71      0.00
  -15    5    9     -1.07      0.00
    3    5    9     -0.92      0.00
  -16    6    9      1.01      0.00
    4    6    9      0.33      0.00
  -15    7    9     -1.02      0.00
    3    7    9     -0.27      0.00
  -14    8    9      0.56      0.00
    2    8    9      0.07      0.00
  -13    9    9      0.14      0.00
  -11    9    9      0.82      0.00
   -1    9    9     -0.38      0.00
    1    9    9      0.03      0.00
  -12   10    9     -0.81      0.00
  -10   10    9     -1.43      0.00
   -8   10    9     -1.12      0.00
   -4   10    9      0.07      0.00
   -2   10    9      0.23      0.00
    0   10    9      0.03      0.00
   -9   11    9      1.30      0.00
   -7   11    9      0.66      0.00
   -5   11    9      0.11      0.00
   -3   11    9     -0.10      0.00
    4    0   10      0.15      0.00
    3    1   10     -0.68      0.00
  -16    2   10     -0.08      0.00
    4    2   10      0.46      0.00
    3    3   10     -1.02      0.00
  -16    4   10      0.24      0.00
    2    4   10      1.12      0.00
  -15    5   10     -0.45      0.00
    3    5   10     -0.74      0.00
  -16    6   10      0.60      0.00
  -14    6   10      0.45      0.00
    2    6   10      0.61      0.00
  -15    7   10     -0.61      0.00
  -13    7   10     -0.26      0.00
    1    7   10     -0.43      0.00
  -14    8   10      0.35      0.00
  -12    8   10     -0.11      0.00
   -2    8   10      0.65      0.00
    0    8   10      0.36      0.00
  -13    9   10      0.08      0.00
  -11    9   10      0.66      0.00
   -9    9   10      0.75      0.00
   -5    9   10     -0.20      0.00
   -3    9   10     -0.51      0.00
   -1    9   10     -0.36      0.00
  -10   10   10     -1.05      0.00
   -8   10   10     -0.82      0.00
   -6   10   10     -0.16      0.00
   -4   10   10      0.29      0.00
  -16    0   11     -0.13      0.00
    2    0   11      0.33      0.00
    1    1   11     -0.18      0.00
  -16    2   11     -0.15      0.00
    2    2   11      0.56      0.00
  -15    3   11      0.26      0.00
    1    3   11     -0.43      0.00
  -16    4   11     -0.13      0.00
    0    4   11      0.18      0.00
  -15    5   11      0.21      0.00
   -1    5   11     -0.07      0.00
    1    5   11     -0.39      0.00
  -14    6   11     -0.32      0.00
   -2    6   11      0.14      0.00
    0    6   11      0.22      0.00
  -13    7   11      0.29      0.00
   -3    7   11     -0.27      0.00
   -1    7   11     -0.25      0.00
  -12    8   11     -0.19      0.00
  -10    8   11     -0.21      0.00
   -8    8   11     -0.11      0.00
   -6    8   11      0.04      0.00
   -4    8   11      0.33      0.00
   -2    8   11      0.36      0.00
  -11    9   11      0.25      0.00
   -9    9   11      0.31      0.00
   -7    9   11      0.08      0.00
   -5    9   11     -0.26      0.00
   -3    9   11     -0.40      0.00
  -16    0   12      0.19      0.00
    0    0   12     -0.36      0.00
  -15    1   12     -0.25      0.00
   -1    1   12      0.58      0.00
  -16    2   12      0.07      0.00
    0    2   12     -0.26      0.00
  -15    3   12      0.15      0.00
   -1    3   12      0.43      0.00
  -16    4   12     -0.24      0.00
  -14    4   12     -0.65      0.00
   -2    4   12     -0.44      0.00
    0    4   12     -0.15      0.00
  -15    5   12      0.53      0.00
  -13    5   12      1.06      0.00
   -3    5   12      0.41      0.00
   -1    5   12      0.28      0.00
  -14    6   12     -0.73      0.00
  -12    6   12     -0.98      0.00
   -4    6   12     -0.36      0.00
   -2    6   12     -0.19      0.00
  -13    7   12      0.57      0.00
  -11    7   12      0.47      0.00
   -9    7   12      0.23      0.00
   -7    7   12      0.30      0.00
   -5    7   12      0.20      0.00
   -3    7   12      0.00      0.00
  -10    8   12     -0.03      0.00
   -8    8   12     -0.01      0.00
   -6    8   12      0.01      0.00
  -16    0   13      0.45      0.00
  -14    0   13      0.79      0.00
   -4    0   13     -0.40      0.00
   -2    0   13     -0.43      0.00
  -15    1   13     -0.60      0.00
  -13    1   13     -0.73      0.00
   -3    1   13      0.39      0.00
  -16    2   13      0.28      0.00
  -14    2   13      0.45      0.00
   -4    2   13     -0.30      0.00
   -2    2   13     -0.36      0.00
  -15    3   13     -0.09      0.00
  -13    3   13      0.01      0.00
   -5    3   13      0.39      0.00
   -3    3   13      0.32      0.00
  -14    4   13     -0.39      0.00
  -12    4   13     -0.55      0.00
   -6    4   13     -0.61      0.00
   -4    4   13     -0.38      0.00
  -13    5   13      0.84      0.00
  -11    5   13      0.75      0.00
   -9    5   13      0.60      0.00
   -7    5   13      0.69      0.00
   -5    5   13      0.53      0.00
  -12    6   13     -0.81      0.00
  -10    6   13     -0.51      0.00
   -8    6   13     -0.48      0.00
   -6    6   13     -0.51      0.00
  -11    7   13      0.34      0.00
   -9    7   13      0.15      0.00
   -7    7   13      0.24      0.00
    0    0    0      0.00      0.00
# SQUEEZE RESULTS (Version =  21116)
# Note: Data are Listed for all Voids in the P1 Unit Cell
# i.e. Centre of Gravity, Solvent Accessible Volume,
# Recovered number of Electrons in the Void and
# Details about the Squeezed Material
loop_
  _platon_squeeze_void_nr
  _platon_squeeze_void_average_x
  _platon_squeeze_void_average_y
  _platon_squeeze_void_average_z
  _platon_squeeze_void_volume
  _platon_squeeze_void_count_electrons
  _platon_squeeze_void_content
   1  0.500  0.000  0.000        51        16 ' '
   2  0.000  0.500  0.000        51        16 ' '
# Missing Reflections Below sin(th)/lambda = 0.25
loop_
  _platon_missing_refln_index_h
  _platon_missing_refln_index_k
  _platon_missing_refln_index_l
  _platon_missing_refln_theta
    1    1    0     2.550
   -2    0    1     2.958
    0    0    1     2.133
   -1    1    1     2.602
_platon_squeeze_void_probe_radius                  1.20
_platon_squeeze_details
)
TITL dd in C2 C2/m
CELL   13.7820   11.1920   11.5470     90.00    124.21     90.00
SPGR C2/m
# Solvent Accessible Volume =        99
# Electrons Found in S.A.V. =        30
# Note: Atoms in Void as Cxxx and Qxxx all others
C101 0.993 0.496 0.109 !       6.31 eA-3
Q102 0.329 0.497 0.391 !       1.51 eA-3
Q103 0.654 0.501 0.453 !       1.37 eA-3
Q104 0.558 0.503 0.469 !       1.16 eA-3
C105 0.500 0.047-0.007 !       0.82 eA-3
Q106 0.774 0.050 0.423 !       0.81 eA-3
Q107 0.703 0.435 0.449 !       0.77 eA-3
Q108 0.355 0.501 0.187 !       0.75 eA-3
Q109 0.609 0.439 0.490 !       0.71 eA-3
Q110 0.176 0.091 0.005 !       0.70 eA-3
Q111 0.115 0.076 0.590 !       0.69 eA-3
Q112 0.778 0.494 0.547 !       0.65 eA-3
Q113 0.382 0.493 0.328 !       0.60 eA-3
Q114 0.177 0.498 0.187 !       0.60 eA-3
Q115 0.165 0.503 0.062 !       0.60 eA-3
Q116 0.206 0.503 0.281 !       0.60 eA-3
Q117 0.510 0.501 0.328 !       0.59 eA-3
Q118 0.284 0.171 0.349 !       0.59 eA-3
Q119 0.616 0.323 0.640 !       0.53 eA-3
)
;
_shelx_fab_checksum              93905
_olex2_submission_special_instructions 'No special instructions were received'
loop_
_space_group_symop_operation_xyz
'x, y, z'
'-x, y, -z'
'x+1/2, y+1/2, z'
'-x+1/2, y+1/2, -z'
'-x, -y, -z'
'x, -y, z'
'-x+1/2, -y+1/2, -z'
'x+1/2, -y+1/2, z'
loop_
_atom_site_label
_atom_site_type_symbol
_atom_site_fract_x
_atom_site_fract_y
_atom_site_fract_z
_atom_site_U_iso_or_equiv
_atom_site_adp_type
_atom_site_occupancy
_atom_site_site_symmetry_order
_atom_site_calc_flag
_atom_site_refinement_flags_posn
_atom_site_refinement_flags_adp
_atom_site_refinement_flags_occupancy
Ho1 Ho 0.65888(2) 0.500000 0.53047(3) 0.01470(13) Uani 1 2 d S T P
F1 F 0.3688(4) 0.7085(3) 0.0990(4) 0.0552(11) Uani 1 1 d . . .
F2 F 0.3561(4) 0.7125(4) -0.1360(4) 0.0557(11) Uani 1 1 d . . .
F3 F 0.3989(3) 0.1196(3) 0.2550(3) 0.0437(9) Uani 1 1 d . . .
O1 O 0.4614(4) 0.500000 0.3519(5) 0.0254(12) Uani 1 2 d S T P
O2 O 0.2684(5) 0.500000 0.2201(5) 0.0385(16) Uani 1 2 d S T P
O3 O 0.3377(4) 0.4020(4) -0.3450(4) 0.0356(10) Uani 1 1 d . . .
O4 O 0.5925(3) 0.3088(3) 0.5290(4) 0.0286(9) Uani 1 1 d . . .
O5 O 0.8292(3) 0.3725(4) 0.6437(4) 0.0341(10) Uani 1 1 d D . .
H5A H 0.813716 0.298262 0.636507 0.041 Uiso 1 1 d DR . .
H5B H 0.868216 0.388132 0.729837 0.041 Uiso 1 1 d DR . .
C1 C 0.3655(6) 0.500000 0.2343(7) 0.0250(17) Uani 1 2 d S T P
C2 C 0.3651(6) 0.500000 0.1029(7) 0.0247(18) Uani 1 2 d S T P
C3 C 0.3637(5) 0.6045(5) 0.0398(5) 0.0289(13) Uani 1 1 d . . .
C4 C 0.3578(5) 0.6048(5) -0.0837(5) 0.0282(13) Uani 1 1 d . . .
C5 C 0.3513(6) 0.500000 -0.1512(7) 0.0236(17) Uani 1 2 d S T P
C6 C 0.3411(6) 0.500000 -0.2895(7) 0.0243(18) Uani 1 2 d S T P
C7 C 0.500000 0.2621(7) 0.500000 0.0255(17) Uani 1 2 d S T P
C8 C 0.500000 0.1257(6) 0.500000 0.0217(16) Uani 1 2 d S T P
C9 C 0.4489(4) 0.0615(5) 0.3782(5) 0.0260(12) Uani 1 1 d . . .
loop_
_atom_site_aniso_label
_atom_site_aniso_U_11
_atom_site_aniso_U_22
_atom_site_aniso_U_33
_atom_site_aniso_U_23
_atom_site_aniso_U_13
_atom_site_aniso_U_12
Ho1 0.0196(2) 0.0120(2) 0.01510(19) 0.000 0.01128(15) 0.000
F1 0.105(3) 0.032(2) 0.040(2) -0.006(2) 0.048(2) 0.006(2)
F2 0.110(3) 0.030(2) 0.042(2) 0.0053(19) 0.051(2) -0.001(2)
F3 0.059(2) 0.025(2) 0.0334(18) 0.0103(17) 0.0179(17) 0.0036(18)
O1 0.024(3) 0.031(3) 0.013(2) 0.000 0.006(2) 0.000
O2 0.029(3) 0.066(5) 0.028(3) 0.000 0.021(3) 0.000
O3 0.066(3) 0.027(2) 0.028(2) -0.008(2) 0.034(2) -0.014(2)
O4 0.026(2) 0.014(2) 0.047(2) 0.0040(19) 0.0217(19) -0.0018(17)
O5 0.029(2) 0.032(2) 0.037(2) 0.007(2) 0.0160(18) 0.005(2)
C1 0.031(4) 0.028(5) 0.017(4) 0.000 0.015(3) 0.000
C2 0.024(4) 0.032(5) 0.018(4) 0.000 0.012(3) 0.000
C3 0.039(3) 0.028(3) 0.023(3) -0.003(3) 0.020(2) 0.005(3)
C4 0.037(3) 0.026(3) 0.025(3) 0.001(3) 0.020(3) 0.000(3)
C5 0.023(4) 0.031(5) 0.017(4) 0.000 0.011(3) 0.000
C6 0.017(4) 0.043(6) 0.010(3) 0.000 0.006(3) 0.000
C7 0.025(4) 0.016(4) 0.031(4) 0.000 0.014(3) 0.000
C8 0.022(4) 0.009(4) 0.037(4) 0.000 0.019(3) 0.000
C9 0.028(3) 0.016(3) 0.035(3) 0.001(3) 0.018(2) 0.004(2)
loop_
_atom_type_symbol
_atom_type_description
_atom_type_scat_dispersion_real
_atom_type_scat_dispersion_imag
_atom_type_scat_source
C C 0.0033 0.0016 'International Tables Vol C Tables 4.2.6.8 and 6.1.1.4'
H H 0.0000 0.0000 'International Tables Vol C Tables 4.2.6.8 and 6.1.1.4'
F F 0.0171 0.0103 'International Tables Vol C Tables 4.2.6.8 and 6.1.1.4'
Ho Ho -0.2175 4.6783 'International Tables Vol C Tables 4.2.6.8 and 6.1.1.4'
O O 0.0106 0.0060 'International Tables Vol C Tables 4.2.6.8 and 6.1.1.4'
loop_
_geom_angle_atom_site_label_1
_geom_angle_atom_site_label_2
_geom_angle_atom_site_label_3
_geom_angle
_geom_angle_site_symmetry_1
_geom_angle_site_symmetry_3
O1 Ho1 O1 72.38(17) . 5_666
O1 Ho1 O2 122.97(16) . 5_666
O1 Ho1 O3 79.08(14) . 2_655
O1 Ho1 O3 79.08(14) . 5_665
O1 Ho1 O4 74.46(10) . 6_565
O1 Ho1 O4 74.46(10) . .
O1 Ho1 O5 141.53(10) . 6_565
O1 Ho1 O5 141.53(11) . .
O1 Ho1 C1 97.82(19) . 5_666
O1 Ho1 C1 25.44(17) 5_666 5_666
O1 Ho1 C6 149.09(17) 5_666 5_665
O1 Ho1 C6 76.72(18) . 5_665
O2 Ho1 O1 50.59(15) 5_666 5_666
O2 Ho1 C1 25.15(18) 5_666 5_666
O2 Ho1 C6 160.31(19) 5_666 5_665
O3 Ho1 O1 140.70(12) 2_655 5_666
O3 Ho1 O1 140.70(12) 5_665 5_666
O3 Ho1 O2 146.59(12) 5_665 5_666
O3 Ho1 O2 146.59(12) 2_655 5_666
O3 Ho1 O3 53.63(19) 2_655 5_665
O3 Ho1 C1 152.85(10) 5_665 5_666
O3 Ho1 C1 152.85(10) 2_655 5_666
O3 Ho1 C6 26.83(10) 5_665 5_665
O3 Ho1 C6 26.83(10) 2_655 5_665
O4 Ho1 O1 69.46(9) . 5_666
O4 Ho1 O1 69.46(9) 6_565 5_666
O4 Ho1 O2 84.74(10) 6_565 5_666
O4 Ho1 O2 84.74(10) . 5_666
O4 Ho1 O3 77.33(13) . 2_655
O4 Ho1 O3 127.70(13) 6_565 2_655
O4 Ho1 O3 77.33(13) 6_565 5_665
O4 Ho1 O3 127.70(13) . 5_665
O4 Ho1 O4 134.12(16) 6_565 .
O4 Ho1 O5 144.01(14) . 6_565
O4 Ho1 O5 144.01(14) 6_565 .
O4 Ho1 O5 73.62(13) . .
O4 Ho1 O5 73.62(13) 6_565 6_565
O4 Ho1 C1 75.88(10) . 5_666
O4 Ho1 C1 75.88(10) 6_565 5_666
O4 Ho1 C6 102.35(10) 6_565 5_665
O4 Ho1 C6 102.35(10) . 5_665
O5 Ho1 O1 114.72(11) . 5_666
O5 Ho1 O1 114.72(11) 6_565 5_666
O5 Ho1 O2 74.54(12) . 5_666
O5 Ho1 O2 74.54(12) 6_565 5_666
O5 Ho1 O3 73.46(13) 6_565 5_665
O5 Ho1 O3 104.47(14) . 5_665
O5 Ho1 O3 104.46(14) 6_565 2_655
O5 Ho1 O3 73.46(13) . 2_655
O5 Ho1 O5 72.66(19) . 6_565
O5 Ho1 C1 94.69(14) 6_565 5_666
O5 Ho1 C1 94.69(14) . 5_666
O5 Ho1 C6 89.71(14) 6_565 5_665
O5 Ho1 C6 89.71(14) . 5_665
C6 Ho1 C1 174.53(19) 5_665 5_666
Ho1 O1 Ho1 107.62(17) . 5_666
C1 O1 Ho1 163.9(5) . .
C1 O1 Ho1 88.5(4) . 5_666
C1 O2 Ho1 98.3(4) . 5_666
C6 O3 Ho1 92.4(3) . 5_665
C7 O4 Ho1 137.2(4) . .
Ho1 O5 H5A 114.3 . .
Ho1 O5 H5B 107.4 . .
H5A O5 H5B 106.1 . .
O1 C1 Ho1 66.1(4) . 5_666
O1 C1 C2 119.6(6) . .
O2 C1 Ho1 56.5(3) . 5_666
O2 C1 O1 122.6(6) . .
O2 C1 C2 117.8(6) . .
C2 C1 Ho1 174.3(5) . 5_666
C3 C2 C1 121.5(3) 6_565 .
C3 C2 C1 121.5(3) . .
C3 C2 C3 116.9(6) . 6_565
F1 C3 C2 119.5(4) . .
F1 C3 C4 118.9(5) . .
C2 C3 C4 121.7(5) . .
F2 C4 C3 116.2(5) . .
F2 C4 C5 121.9(4) . .
C3 C4 C5 121.8(5) . .
C4 C5 C4 116.0(6) 6_565 .
C4 C5 C6 122.0(3) . .
C4 C5 C6 122.0(3) 6_565 .
O3 C6 Ho1 60.8(3) . 5_665
O3 C6 Ho1 60.8(3) 6_565 5_665
O3 C6 O3 121.4(6) 6_565 .
O3 C6 C5 119.3(3) 6_565 .
O3 C6 C5 119.3(3) . .
C5 C6 Ho1 175.6(5) . 5_665
O4 C7 O4 129.9(7) . 2_656
O4 C7 C8 115.0(4) . .
O4 C7 C8 115.0(4) 2_656 .
C9 C8 C7 121.7(3) . .
C9 C8 C7 121.7(3) 2_656 .
C9 C8 C9 116.7(7) . 2_656
F3 C9 C8 119.5(5) . .
F3 C9 C9 118.8(3) . 6
C8 C9 C9 121.7(3) . 6
loop_
_geom_bond_atom_site_label_1
_geom_bond_atom_site_label_2
_geom_bond_distance
_geom_bond_site_symmetry_2
Ho1 O1 2.313(5) .
Ho1 O1 2.669(5) 5_666
Ho1 O2 2.460(5) 5_666
Ho1 O3 2.430(3) 2_655
Ho1 O3 2.430(3) 5_665
Ho1 O4 2.323(4) 6_565
Ho1 O4 2.323(4) .
Ho1 O5 2.409(4) 6_565
Ho1 O5 2.409(4) .
Ho1 C1 2.918(7) 5_666
Ho1 C6 2.782(7) 5_665
F1 C3 1.331(6) .
F2 C4 1.342(7) .
F3 C9 1.349(6) .
O1 C1 1.254(8) .
O2 C1 1.254(8) .
O3 C6 1.257(5) .
O4 C7 1.237(5) .
O5 H5A 0.8499 .
O5 H5B 0.8416 .
C1 C2 1.515(9) .
C2 C3 1.373(6) .
C2 C3 1.373(6) 6_565
C3 C4 1.382(7) .
C4 C5 1.383(6) .
C5 C6 1.522(9) .
C7 C8 1.526(10) .
C8 C9 1.370(6) .
C8 C9 1.370(6) 2_656
C9 C9 1.377(11) 6
