#------------------------------------------------------------------------------
#$Date: 2017-05-06 01:10:37 +0300 (Sat, 06 May 2017) $
#$Revision: 196450 $
#$URL: file:///home/coder/svn-repositories/cod/cif/7/04/24/7042410.cif $
#------------------------------------------------------------------------------
#
# This file is available in the Crystallography Open Database (COD),
# http://www.crystallography.net/
#
# All data on this site have been placed in the public domain by the
# contributors.
#
data_7042410
loop_
_publ_author_name
'Han, Yongqiang'
'Yan, Pengfei'
'Sun, Jingwen'
'An, Guanghui'
'Yao, Xu'
'Li, Yuxin'
'Li, Guangming'
_publ_section_title
;
 Luminescence and white-light emitting luminescent sensor of
 tetrafluoroterephthalate-lanthanide metal-organic frameworks.
;
_journal_issue                   14
_journal_name_full
'Dalton transactions (Cambridge, England : 2003)'
_journal_page_first              4642
_journal_page_last               4653
_journal_paper_doi               10.1039/c7dt00215g
_journal_volume                  46
_journal_year                    2017
_chemical_formula_moiety         'C9.95 H4 F2 O8 Yb, 4.006(F), 1.94(C)'
_chemical_formula_sum            'C11.89 H4 F6 O8 Yb'
_chemical_formula_weight         561.98
_space_group_crystal_system      monoclinic
_space_group_IT_number           12
_space_group_name_Hall           '-C 2y'
_space_group_name_H-M_alt        'C 1 2/m 1'
_symmetry_space_group_name_Hall  '-C 2y'
_symmetry_space_group_name_H-M   'C 1 2/m 1'
_atom_sites_solution_hydrogens   difmap
_audit_creation_date             2017-03-07
_audit_creation_method
;
Olex2 1.2
(compiled 2017.03.02 svn.r3394 for OlexSys, GUI svn.r5324)
;
_audit_update_record
;
2017-03-08 deposited with the CCDC.
2017-03-09 downloaded from the CCDC.
;
_cell_angle_alpha                90
_cell_angle_beta                 120.416(5)
_cell_angle_gamma                90
_cell_formula_units_Z            4
_cell_length_a                   13.827(5)
_cell_length_b                   10.957(5)
_cell_length_c                   11.517(5)
_cell_measurement_reflns_used    1302
_cell_measurement_temperature    293(2)
_cell_measurement_theta_max      28.9150
_cell_measurement_theta_min      2.9579
_cell_volume                     1504.7(11)
_computing_data_collection
'CrysAlisPro, Agilent Technologies,Version 1.171.35.21 (release 20-01-2012 CrysAlis171 .NET)(compiled Jan 23 2012,18:06:46)'
_computing_molecular_graphics    'Olex2 (Dolomanov et al., 2009)'
_computing_publication_material  '(K. Brandenburg, Diamond 3.1, 2009)'
_computing_structure_refinement  'ShelXL (Sheldrick, 2015)'
_computing_structure_solution    'SHELXS-2016/6 (Sheldrick, 2015)'
_diffrn_ambient_temperature      293(2)
_diffrn_measured_fraction_theta_full 0.998
_diffrn_measured_fraction_theta_max 0.998
_diffrn_measurement_device_type  'multiwire proportional'
_diffrn_measurement_method       'phi and omega scans'
_diffrn_radiation_type           MoK\a
_diffrn_radiation_wavelength     0.71069
_diffrn_reflns_av_R_equivalents  0.0313
_diffrn_reflns_av_unetI/netI     0.0522
_diffrn_reflns_Laue_measured_fraction_full 0.998
_diffrn_reflns_Laue_measured_fraction_max 0.998
_diffrn_reflns_limit_h_max       16
_diffrn_reflns_limit_h_min       -15
_diffrn_reflns_limit_k_max       8
_diffrn_reflns_limit_k_min       -13
_diffrn_reflns_limit_l_max       13
_diffrn_reflns_limit_l_min       -13
_diffrn_reflns_number            2835
_diffrn_reflns_point_group_measured_fraction_full 0.998
_diffrn_reflns_point_group_measured_fraction_max 0.998
_diffrn_reflns_theta_full        24.998
_diffrn_reflns_theta_max         24.998
_diffrn_reflns_theta_min         2.964
_exptl_absorpt_coefficient_mu    6.329
_exptl_absorpt_correction_T_max  0.439
_exptl_absorpt_correction_T_min  0.359
_exptl_absorpt_correction_type   multi-scan
_exptl_absorpt_process_details
;
CrysAlisPro, Agilent Technologies,
Version 1.171.35.21 (release 20-01-2012 CrysAlis171 .NET)
(compiled Jan 23 2012,18:06:46)
Empirical absorption correction using spherical harmonics,
 implemented in SCALE3 ABSPACK scaling algorithm.
;
_exptl_crystal_colour            colorless
_exptl_crystal_density_diffrn    2.481
_exptl_crystal_description       block
_exptl_crystal_F_000             1054
_exptl_crystal_size_max          0.2
_exptl_crystal_size_mid          0.14
_exptl_crystal_size_min          0.13
_refine_diff_density_max         0.627
_refine_diff_density_min         -1.047
_refine_diff_density_rms         0.151
_refine_ls_extinction_method     none
_refine_ls_goodness_of_fit_ref   1.049
_refine_ls_hydrogen_treatment    constr
_refine_ls_matrix_type           full
_refine_ls_number_parameters     180
_refine_ls_number_reflns         1403
_refine_ls_number_restraints     113
_refine_ls_restrained_S_all      1.008
_refine_ls_R_factor_all          0.0298
_refine_ls_R_factor_gt           0.0268
_refine_ls_shift/su_max          0.000
_refine_ls_shift/su_mean         0.000
_refine_ls_structure_factor_coef Fsqd
_refine_ls_weighting_details
'w=1/[\s^2^(Fo^2^)+(0.0216P)^2^] where P=(Fo^2^+2Fc^2^)/3'
_refine_ls_weighting_scheme      calc
_refine_ls_wR_factor_gt          0.0551
_refine_ls_wR_factor_ref         0.0575
_reflns_Friedel_coverage         0.000
_reflns_number_gt                1303
_reflns_number_total             1403
_reflns_threshold_expression     'I > 2\s(I)'
_cod_data_source_file            c7dt00215g2.cif
_cod_data_source_block           13-yb_sq
_cod_depositor_comments
'Adding full bibliography for 7042409--7042422.cif.'
_cod_database_code               7042410
_shelx_shelxl_version_number     2016/6
_shelx_space_group_comment
;
The symmetry employed for this shelxl refinement is uniquely defined
by the following loop, which should always be used as a source of
symmetry information in preference to the above space-group names.
They are only intended as comments.
;
_shelx_estimated_absorpt_t_max   0.493
_shelx_estimated_absorpt_t_min   0.364
_olex2_refinement_description
;
1. Fixed Uiso
 At 1.2 times of:
  All O(H,H) groups
2. Rigid bond restraints
 C5B, C8B, F1B, F2B
 with sigma for 1-2 distances of 0.01 and sigma for 1-3 distances of 0.01
3. Uiso/Uaniso restraints and constraints
C5B \\sim C8B \\sim F1B \\sim F2B: within 3.8A with sigma of 0.04 and sigma for
terminal atoms of 0.08
4. Rigid body (RIGU) restrains
 C4, C5B, C7, C8B, F1B, F2B, C5A, C8A, F1A, F2A, C5B, C4, C5A, C4, C8B, C5B,
 F1B, C5B, C8A, C5A, F1A, C5A, C8B, C7, F2B, C8B, C8A, C7, F2A, C8A
 with sigma for 1-2 distances of 0.004 and sigma for 1-3 distances of 0.004
5.a Riding coordinates:
 O3(H3A,H3B)
;
_shelx_res_file
;
TITL 123 in C2/m
    13-yb_sq.res
    created by SHELXL-2016/6 at 20:11:08 on 07-Mar-2017
CELL 0.71069 13.827 10.957 11.517 90 120.416 90
ZERR 4 0.005 0.005 0.005 0 0.005 0
LATT 7
SYMM -X,+Y,-Z
SFAC C H F O Yb
UNIT 47.57 16 24.02 32 4
DELU C5B C8B F1B F2B
SIMU 0.04 0.08 3.8 C5B C8B F1B F2B
RIGU C4 C5B C7 C8B F1B F2B C5A C8A F1A F2A C5B C4 C5A C4 C8B C5B F1B C5B C8A =
 C5A F1A C5A C8B C7 F2B C8B C8A C7 F2A C8A

L.S. 5 0 5
PLAN  25
SIZE 0.2 0.14 0.13
CONN 8 $Yb
ABIN
fmap 2
acta
MERG 2
OMIT -3 50
REM <olex2.extras>
REM <HklSrc "%.\\13-yb_sq.hkl">
REM </olex2.extras>

WGHT    0.021600
FVAR       0.08065
C1    1    0.500000   -0.235466    0.500000    10.50000    0.02759    0.00922 =
         0.03697    0.00000    0.01745    0.00000
C2    1    0.500000   -0.371209    0.500000    10.50000    0.02416    0.01741 =
         0.03609    0.00000    0.01985    0.00000
C3    1    0.386001    0.000000    0.245283    10.50000    0.03181    0.03692 =
         0.01421    0.00000    0.00880    0.00000
C4    1    0.369492    0.000000    0.105999     0.50171    0.01967    0.02996 =
         0.01956    0.00000    0.00894    0.00000
PART -1
C5B   1    0.394361   -0.099523    0.051810     0.42143    0.02773    0.02554 =
         0.01836    0.00333    0.00489    0.00897
PART 0
C6    1    0.320999    0.000000   -0.298153    10.50000    0.02065    0.04150 =
         0.01759    0.00000    0.00791    0.00000
C7    1    0.336322    0.000000   -0.156917     0.49379    0.02145    0.02583 =
         0.01683    0.00000    0.01011    0.00000
C8B   1    0.371307   -0.099829   -0.078522     0.53066    0.03459    0.01784 =
         0.02147   -0.00347    0.00982    0.00411
C9    1    0.537103   -0.437617    0.618118    11.00000    0.02958    0.01887 =
         0.03508   -0.01117    0.01990   -0.00921
O1    4    0.589582   -0.185524    0.523758    11.00000    0.02524    0.01811 =
         0.05446    0.00816    0.01879   -0.00400
O2    4    0.483134    0.000000    0.342254    10.50000    0.02475    0.05054 =
         0.01811    0.00000   -0.00392    0.00000
O3    4    0.817571    0.130263    0.635208    11.00000    0.03041    0.02299 =
         0.03374   -0.00633    0.01287   -0.01116
AFIX   3
H3A   2    0.808241    0.207003    0.638718    11.00000   -1.20000
H3B   2    0.853881    0.105253    0.716148    11.00000   -1.20000
AFIX   0
O4    4    0.315070   -0.099512   -0.353459    11.00000    0.06554    0.03852 =
         0.02772   -0.01037    0.03126   -0.01939
O5    4    0.300639    0.000000    0.257145    10.50000    0.03022    0.04663 =
         0.02064    0.00000    0.01382    0.00000
PART -1
F1B   3    0.428093   -0.201089    0.125235     0.50363    0.08532    0.03291 =
         0.03196    0.01112    0.02806    0.01435
F2B   3    0.396176   -0.203214   -0.119854     0.49635    0.09125    0.02366 =
         0.03488   -0.00439    0.03275    0.01560
PART 0
F3    3    0.572189   -0.377807    0.734176    11.00000    0.05959    0.03144 =
         0.03907   -0.01052    0.02300   -0.00481
YB1   5    0.660732    0.000000    0.520850    10.50000    0.01885    0.01213 =
         0.01470    0.00000    0.00843    0.00000
PART -1
C5A   1    0.337366    0.102826    0.030379     0.56226    0.05438    0.01524 =
         0.02592   -0.00481    0.02508   -0.00218
C8A   1    0.316730    0.109614   -0.102253     0.43698    0.01962    0.02544 =
         0.01568    0.00496    0.00728    0.00325
F1A   3    0.310582    0.205668    0.075317     0.51143    0.08854    0.03425 =
         0.03154    0.00303    0.03202    0.02370
F2A   3    0.286993    0.213090   -0.165980     0.49164    0.07277    0.02955 =
         0.03439    0.01142    0.03500    0.01207
HKLF 4




REM  123 in C2/m
REM R1 =  0.0268 for    1303 Fo > 4sig(Fo)  and  0.0298 for all    1403 data
REM    180 parameters refined using    113 restraints

END

WGHT      0.0216      0.0000

REM Highest difference peak  0.627,  deepest hole -1.047,  1-sigma level  0.151
Q1    1   0.2823  0.0000 -0.2943  10.50000  0.05    0.63
Q2    1   0.7548  0.1501  0.4932  11.00000  0.05    0.57
Q3    1   0.8192  0.0000  0.5062  10.50000  0.05    0.57
Q4    1   0.2708 -0.0566 -0.4405  11.00000  0.05    0.50
Q5    1   0.1991  0.0000 -0.2373  10.50000  0.05    0.48
Q6    1   0.8116  0.2153  0.7455  11.00000  0.05    0.47
Q7    1   0.3412  0.2786 -0.0597  11.00000  0.05    0.47
Q8    1   0.4880  0.0000  0.0657  10.50000  0.05    0.47
Q9    1   0.5487  0.0000  0.2614  10.50000  0.05    0.46
Q10   1   0.8175  0.1284  0.5400  11.00000  0.05    0.46
Q11   1   0.2958  0.0615  0.3362  11.00000  0.05    0.46
Q12   1   0.6529 -0.1548  0.6513  11.00000  0.05    0.46
Q13   1   0.8194  0.1510  0.8154  11.00000  0.05    0.45
Q14   1   0.5000  0.0510  0.5000  10.50000  0.05    0.45
Q15   1   0.3347  0.0440  0.0716  11.00000  0.05    0.44
Q16   1   0.6277  0.0000  0.4649  10.50000  0.05    0.44
Q17   1   0.5454 -0.2464  0.3794  11.00000  0.05    0.44
Q18   1   0.6397 -0.4076  0.7408  11.00000  0.05    0.44
Q19   1   0.4288 -0.0609  0.0212  11.00000  0.05    0.44
Q20   1   0.2130  0.0000 -0.0861  10.50000  0.05    0.43
Q21   1   0.6181 -0.2663  0.6218  11.00000  0.05    0.43
Q22   1   0.6470 -0.1882  0.5054  11.00000  0.05    0.43
Q23   1   0.4098 -0.3048 -0.1625  11.00000  0.05    0.43
Q24   1   0.9120  0.1043  0.7629  11.00000  0.05    0.42
Q25   1   0.4236  0.0693  0.3780  11.00000  0.05    0.42
;
_shelx_res_checksum              36978
_shelx_fab_file
;
    0    0    2     18.76      0.00
    0    0    3      4.31      0.00
    0    0    4     -3.91      0.00
    0    0    5     -4.25      0.00
    0    0    6      0.01      0.00
    0    0    7      4.07      0.00
    0    0    8      5.15      0.00
    0    0    9      3.61      0.00
    0    0   10      1.48      0.00
    0    0   11      0.34      0.00
    0    0   12      0.31      0.00
    0    2    0     27.68      0.00
    0    2    1     23.09      0.00
    0    2    2     12.10      0.00
    0    2    3      1.04      0.00
    0    2    4     -4.70      0.00
    0    2    5     -4.02      0.00
    0    2    6      0.14      0.00
    0    2    7      3.73      0.00
    0    2    8      4.51      0.00
    0    2    9      2.95      0.00
    0    2   10      0.87      0.00
    0    2   11     -0.32      0.00
    0    2   12     -0.46      0.00
    0    4    0     13.57      0.00
    0    4    1     10.96      0.00
    0    4    2      4.85      0.00
    0    4    3     -0.92      0.00
    0    4    4     -3.26      0.00
    0    4    5     -1.79      0.00
    0    4    6      1.41      0.00
    0    4    7      3.79      0.00
    0    4    8      4.11      0.00
    0    4    9      2.82      0.00
    0    4   10      1.17      0.00
    0    4   11      0.06      0.00
    0    4   12     -0.35      0.00
    0    6    0      8.39      0.00
    0    6    1      6.88      0.00
    0    6    2      3.37      0.00
    0    6    3      0.14      0.00
    0    6    4     -1.05      0.00
    0    6    5     -0.07      0.00
    0    6    6      1.77      0.00
    0    6    7      3.05      0.00
    0    6    8      3.17      0.00
    0    6    9      2.49      0.00
    0    6   10      1.66      0.00
    0    6   11      1.05      0.00
    0    8    0      3.92      0.00
    0    8    1      2.93      0.00
    0    8    2      0.70      0.00
    0    8    3     -1.23      0.00
    0    8    4     -1.73      0.00
    0    8    5     -0.86      0.00
    0    8    6      0.39      0.00
    0    8    7      1.08      0.00
    0    8    8      0.97      0.00
    0    8    9      0.48      0.00
    0    8   10      0.11      0.00
    0    8   11      0.05      0.00
    0   10    0      2.71      0.00
    0   10    1      1.99      0.00
    0   10    2      0.37      0.00
    0   10    3     -1.01      0.00
    0   10    4     -1.36      0.00
    0   10    5     -0.74      0.00
    0   10    6      0.09      0.00
    0   10    7      0.45      0.00
    0   10    8      0.19      0.00
    0   12    0      2.84      0.00
    0   12    1      2.24      0.00
    0   12    2      0.82      0.00
    0   12    3     -0.57      0.00
    0   12    4     -1.26      0.00
    0   12    5     -1.16      0.00
    0   12    6     -0.66      0.00
    0   12    7     -0.21      0.00
    1    1   12     -0.76      0.00
    1    1   11     -0.89      0.00
    1    1   10      0.00      0.00
    1    1    9      2.20      0.00
    1    1    8      4.66      0.00
    1    1    7      5.28      0.00
    1    1    6      2.64      0.00
    1    1    5     -2.08      0.00
    1    1    4     -4.86      0.00
    1    1    3     -1.46      0.00
    1    1    2      9.00      0.00
    1    1    1     22.30      0.00
   -1    1    2     20.99      0.00
   -1    1    3      7.72      0.00
   -1    1    4     -2.22      0.00
   -1    1    5     -5.25      0.00
   -1    1    6     -2.60      0.00
   -1    1    7      1.68      0.00
   -1    1    8      4.11      0.00
   -1    1    9      3.85      0.00
   -1    1   10      2.21      0.00
   -1    1   11      0.89      0.00
   -1    1   12      0.55      0.00
    1    3   11     -0.96      0.00
    1    3   10     -0.27      0.00
    1    3    9      1.39      0.00
    1    3    8      3.32      0.00
    1    3    7      4.00      0.00
    1    3    6      2.24      0.00
    1    3    5     -1.39      0.00
    1    3    4     -4.19      0.00
    1    3    3     -3.01      0.00
    1    3    2      3.14      0.00
    1    3    1     11.64      0.00
    1    3    0     17.61      0.00
   -1    3    1     17.34      0.00
   -1    3    2     10.99      0.00
   -1    3    3      2.52      0.00
   -1    3    4     -3.35      0.00
   -1    3    5     -4.26      0.00
   -1    3    6     -1.35      0.00
   -1    3    7      2.30      0.00
   -1    3    8      4.16      0.00
   -1    3    9      3.69      0.00
   -1    3   10      2.00      0.00
   -1    3   11      0.50      0.00
   -1    3   12     -0.18      0.00
    1    5   11      0.49      0.00
    1    5   10      0.98      0.00
    1    5    9      1.88      0.00
    1    5    8      2.92      0.00
    1    5    7      3.36      0.00
    1    5    6      2.43      0.00
    1    5    5      0.30      0.00
    1    5    4     -1.63      0.00
    1    5    3     -1.46      0.00
    1    5    2      1.60      0.00
    1    5    1      6.23      0.00
    1    5    0      9.63      0.00
   -1    5    1      9.57      0.00
   -1    5    2      6.09      0.00
   -1    5    3      1.49      0.00
   -1    5    4     -1.46      0.00
   -1    5    5     -1.48      0.00
   -1    5    6      0.63      0.00
   -1    5    7      2.97      0.00
   -1    5    8      4.07      0.00
   -1    5    9      3.65      0.00
   -1    5   10      2.40      0.00
   -1    5   11      1.17      0.00
   -1    5   12      0.37      0.00
    1    7   11      0.69      0.00
    1    7   10      0.97      0.00
    1    7    9      1.48      0.00
    1    7    8      2.11      0.00
    1    7    7      2.41      0.00
    1    7    6      1.84      0.00
    1    7    5      0.41      0.00
    1    7    4     -1.02      0.00
    1    7    3     -1.16      0.00
    1    7    2      0.57      0.00
    1    7    1      3.41      0.00
    1    7    0      5.55      0.00
   -1    7    1      5.54      0.00
   -1    7    2      3.41      0.00
   -1    7    3      0.64      0.00
   -1    7    4     -1.09      0.00
   -1    7    5     -1.07      0.00
   -1    7    6      0.13      0.00
   -1    7    7      1.36      0.00
   -1    7    8      1.88      0.00
   -1    7    9      1.68      0.00
   -1    7   10      1.18      0.00
   -1    7   11      0.78      0.00
   -1    7   12      0.54      0.00
    1    9   10     -0.29      0.00
    1    9    9      0.14      0.00
    1    9    8      0.83      0.00
    1    9    7      1.32      0.00
    1    9    6      1.07      0.00
    1    9    5      0.01      0.00
    1    9    4     -1.22      0.00
    1    9    3     -1.60      0.00
    1    9    2     -0.63      0.00
    1    9    1      1.17      0.00
    1    9    0      2.54      0.00
   -1    9    1      2.47      0.00
   -1    9    2      1.02      0.00
   -1    9    3     -0.74      0.00
   -1    9    4     -1.70      0.00
   -1    9    5     -1.51      0.00
   -1    9    6     -0.72      0.00
   -1    9    7     -0.09      0.00
   -1    9    8      0.02      0.00
   -1    9    9     -0.22      0.00
    1   11    7      0.32      0.00
    1   11    6      0.05      0.00
    1   11    5     -0.56      0.00
    1   11    4     -1.06      0.00
    1   11    3     -0.81      0.00
    1   11    2      0.39      0.00
    1   11    1      2.03      0.00
    1   11    0      3.14      0.00
   -1   11    1      3.01      0.00
   -1   11    2      1.77      0.00
   -1   11    3      0.22      0.00
   -1   11    4     -0.78      0.00
   -1   11    5     -0.93      0.00
   -1   11    6     -0.55      0.00
   -1   11    7     -0.16      0.00
   -1   11    8     -0.05      0.00
    1   13    6     -1.14      0.00
    1   13    5     -1.72      0.00
    1   13    4     -1.96      0.00
    1   13    3     -1.54      0.00
    1   13    2     -0.44      0.00
    1   13    1      0.89      0.00
    1   13    0      1.77      0.00
   -1   13    1      1.75      0.00
   -1   13    2      0.92      0.00
   -1   13    3     -0.19      0.00
   -1   13    4     -1.00      0.00
   -1   13    5     -1.25      0.00
   -1   13    6     -1.06      0.00
    2    0   11     -1.46      0.00
    2    0   10     -0.88      0.00
    2    0    9      1.07      0.00
    2    0    8      3.89      0.00
    2    0    7      5.75      0.00
    2    0    6      4.71      0.00
    2    0    5      0.60      0.00
    2    0    4     -3.86      0.00
    2    0    3     -4.41      0.00
    2    0    2      1.61      0.00
    2    0    1     12.57      0.00
    2    0    0     22.92      0.00
   -2    0    1     26.71      0.00
   -2    0    2     21.77      0.00
   -2    0    3     11.10      0.00
   -2    0    4      0.62      0.00
   -2    0    5     -4.89      0.00
   -2    0    6     -4.55      0.00
   -2    0    7     -0.98      0.00
   -2    0    8      2.32      0.00
   -2    0    9      3.40      0.00
   -2    0   10      2.55      0.00
   -2    0   11      1.22      0.00
   -2    0   12      0.52      0.00
   -2    0   13      0.54      0.00
    2    2   11     -1.33      0.00
    2    2   10     -0.94      0.00
    2    2    9      0.59      0.00
    2    2    8      2.90      0.00
    2    2    7      4.54      0.00
    2    2    6      3.83      0.00
    2    2    5      0.46      0.00
    2    2    4     -3.47      0.00
    2    2    3     -4.39      0.00
    2    2    2      0.10      0.00
    2    2    1      8.87      0.00
    2    2    0     17.39      0.00
   -2    2    1     20.64      0.00
   -2    2    2     16.69      0.00
   -2    2    3      7.98      0.00
   -2    2    4     -0.49      0.00
   -2    2    5     -4.70      0.00
   -2    2    6     -3.92      0.00
   -2    2    7     -0.45      0.00
   -2    2    8      2.60      0.00
   -2    2    9      3.54      0.00
   -2    2   10      2.63      0.00
   -2    2   11      1.22      0.00
   -2    2   12      0.37      0.00
   -2    2   13      0.25      0.00
    2    4   11     -0.29      0.00
    2    4   10     -0.14      0.00
    2    4    9      0.57      0.00
    2    4    8      1.78      0.00
    2    4    7      2.78      0.00
    2    4    6      2.52      0.00
    2    4    5      0.57      0.00
    2    4    4     -2.01      0.00
    2    4    3     -3.03      0.00
    2    4    2     -0.77      0.00
    2    4    1      4.39      0.00
    2    4    0      9.70      0.00
   -2    4    1     11.92      0.00
   -2    4    2      9.61      0.00
   -2    4    3      4.28      0.00
   -2    4    4     -0.83      0.00
   -2    4    5     -3.03      0.00
   -2    4    6     -1.90      0.00
   -2    4    7      0.95      0.00
   -2    4    8      3.30      0.00
   -2    4    9      3.92      0.00
   -2    4   10      3.01      0.00
   -2    4   11      1.57      0.00
   -2    4   12      0.49      0.00
   -2    4   13      0.02      0.00
    2    6   10      0.79      0.00
    2    6    9      1.18      0.00
    2    6    8      1.79      0.00
    2    6    7      2.32      0.00
    2    6    6      2.15      0.00
    2    6    5      0.96      0.00
    2    6    4     -0.72      0.00
    2    6    3     -1.58      0.00
    2    6    2     -0.45      0.00
    2    6    1      2.53      0.00
    2    6    0      5.75      0.00
   -2    6    1      7.14      0.00
   -2    6    2      5.81      0.00
   -2    6    3      2.64      0.00
   -2    6    4     -0.34      0.00
   -2    6    5     -1.51      0.00
   -2    6    6     -0.64      0.00
   -2    6    7      1.22      0.00
   -2    6    8      2.72      0.00
   -2    6    9      3.14      0.00
   -2    6   10      2.59      0.00
   -2    6   11      1.64      0.00
   -2    6   12      0.80      0.00
   -2    6   13      0.25      0.00
    2    8    9      0.73      0.00
    2    8    8      1.49      0.00
    2    8    7      2.13      0.00
    2    8    6      2.10      0.00
    2    8    5      1.12      0.00
    2    8    4     -0.39      0.00
    2    8    3     -1.42      0.00
    2    8    2     -1.06      0.00
    2    8    1      0.65      0.00
    2    8    0      2.60      0.00
   -2    8    1      3.44      0.00
   -2    8    2      2.57      0.00
   -2    8    3      0.65      0.00
   -2    8    4     -1.07      0.00
   -2    8    5     -1.67      0.00
   -2    8    6     -1.12      0.00
   -2    8    7     -0.10      0.00
   -2    8    8      0.70      0.00
   -2    8    9      0.99      0.00
   -2    8   10      0.92      0.00
    2   10    8      0.50      0.00
    2   10    7      0.94      0.00
    2   10    6      0.93      0.00
    2   10    5      0.34      0.00
    2   10    4     -0.51      0.00
    2   10    3     -0.93      0.00
    2   10    2     -0.38      0.00
    2   10    1      1.03      0.00
    2   10    0      2.45      0.00
   -2   10    1      2.96      0.00
   -2   10    2      2.22      0.00
   -2   10    3      0.74      0.00
   -2   10    4     -0.61      0.00
   -2   10    5     -1.24      0.00
   -2   10    6     -1.14      0.00
   -2   10    7     -0.70      0.00
   -2   10    8     -0.31      0.00
   -2   10    9     -0.09      0.00
    2   12    6     -0.77      0.00
    2   12    5     -1.30      0.00
    2   12    4     -1.60      0.00
    2   12    3     -1.30      0.00
    2   12    2     -0.22      0.00
    2   12    1      1.35      0.00
    2   12    0      2.74      0.00
   -2   12    1      3.25      0.00
   -2   12    2      2.70      0.00
   -2   12    3      1.45      0.00
   -2   12    4      0.16      0.00
   -2   12    5     -0.68      0.00
   -2   12    6     -0.94      0.00
   -2   12    7     -0.78      0.00
   -2   12    8     -0.46      0.00
    3    1   11     -1.20      0.00
    3    1   10     -1.04      0.00
    3    1    9      0.16      0.00
    3    1    8      2.38      0.00
    3    1    7      4.56      0.00
    3    1    6      5.00      0.00
    3    1    5      2.63      0.00
    3    1    4     -1.61      0.00
    3    1    3     -4.77      0.00
    3    1    2     -3.76      0.00
    3    1    1      2.18      0.00
    3    1    0     10.36      0.00
   -3    1    1     16.15      0.00
   -3    1    2     16.14      0.00
   -3    1    3     10.44      0.00
   -3    1    4      2.49      0.00
   -3    1    5     -3.43      0.00
   -3    1    6     -5.01      0.00
   -3    1    7     -2.89      0.00
   -3    1    8      0.38      0.00
   -3    1    9      2.43      0.00
   -3    1   10      2.49      0.00
   -3    1   11      1.33      0.00
   -3    1   12      0.18      0.00
   -3    1   13     -0.26      0.00
    3    3   10     -0.51      0.00
    3    3    9      0.08      0.00
    3    3    8      1.37      0.00
    3    3    7      2.83      0.00
    3    3    6      3.28      0.00
    3    3    5      1.85      0.00
    3    3    4     -1.06      0.00
    3    3    3     -3.42      0.00
    3    3    2     -2.87      0.00
    3    3    1      1.41      0.00
    3    3    0      7.61      0.00
   -3    3    1     12.22      0.00
   -3    3    2     12.44      0.00
   -3    3    3      8.16      0.00
   -3    3    4      2.02      0.00
   -3    3    5     -2.57      0.00
   -3    3    6     -3.66      0.00
   -3    3    7     -1.74      0.00
   -3    3    8      1.12      0.00
   -3    3    9      2.89      0.00
   -3    3   10      2.91      0.00
   -3    3   11      1.84      0.00
   -3    3   12      0.76      0.00
   -3    3   13      0.28      0.00
    3    5   10      0.09      0.00
    3    5    9      0.21      0.00
    3    5    8      0.69      0.00
    3    5    7      1.38      0.00
    3    5    6      1.69      0.00
    3    5    5      1.00      0.00
    3    5    4     -0.65      0.00
    3    5    3     -2.14      0.00
    3    5    2     -1.91      0.00
    3    5    1      0.73      0.00
    3    5    0      4.72      0.00
   -3    5    1      7.79      0.00
   -3    5    2      7.97      0.00
   -3    5    3      5.14      0.00
   -3    5    4      1.08      0.00
   -3    5    5     -1.84      0.00
   -3    5    6     -2.24      0.00
   -3    5    7     -0.51      0.00
   -3    5    8      1.81      0.00
   -3    5    9      3.22      0.00
   -3    5   10      3.19      0.00
   -3    5   11      2.20      0.00
   -3    5   12      1.10      0.00
   -3    5   13      0.39      0.00
    3    7    9      0.35      0.00
    3    7    8      0.92      0.00
    3    7    7      1.59      0.00
    3    7    6      1.89      0.00
    3    7    5      1.36      0.00
    3    7    4      0.03      0.00
    3    7    3     -1.31      0.00
    3    7    2     -1.56      0.00
    3    7    1     -0.20      0.00
    3    7    0      2.13      0.00
   -3    7    1      3.92      0.00
   -3    7    2      3.97      0.00
   -3    7    3      2.22      0.00
   -3    7    4     -0.17      0.00
   -3    7    5     -1.73      0.00
   -3    7    6     -1.68      0.00
   -3    7    7     -0.33      0.00
   -3    7    8      1.35      0.00
   -3    7    9      2.44      0.00
   -3    7   10      2.61      0.00
   -3    7   11      2.07      0.00
    3    9    8      0.72      0.00
    3    9    7      1.37      0.00
    3    9    6      1.67      0.00
    3    9    5      1.30      0.00
    3    9    4      0.33      0.00
    3    9    3     -0.67      0.00
    3    9    2     -0.94      0.00
    3    9    1     -0.15      0.00
    3    9    0      1.27      0.00
   -3    9    1      2.36      0.00
   -3    9    2      2.36      0.00
   -3    9    3      1.26      0.00
   -3    9    4     -0.27      0.00
   -3    9    5     -1.35      0.00
   -3    9    6     -1.54      0.00
   -3    9    7     -0.96      0.00
   -3    9    8     -0.03      0.00
   -3    9    9      0.80      0.00
   -3    9   10      1.26      0.00
    3   11    7     -0.01      0.00
    3   11    6     -0.17      0.00
    3   11    5     -0.48      0.00
    3   11    4     -0.84      0.00
    3   11    3     -0.96      0.00
    3   11    2     -0.49      0.00
    3   11    1      0.63      0.00
    3   11    0      2.02      0.00
   -3   11    1      3.02      0.00
   -3   11    2      3.12      0.00
   -3   11    3      2.26      0.00
   -3   11    4      0.89      0.00
   -3   11    5     -0.40      0.00
   -3   11    6     -1.16      0.00
   -3   11    7     -1.26      0.00
   -3   11    8     -0.85      0.00
   -3   11    9     -0.24      0.00
    3   13    2     -0.82      0.00
    3   13    1      0.20      0.00
    3   13    0      1.42      0.00
   -3   13    1      2.38      0.00
   -3   13    2      2.70      0.00
   -3   13    3      2.28      0.00
   -3   13    4      1.36      0.00
   -3   13    5      0.34      0.00
    4    0   10     -0.56      0.00
    4    0    9      0.02      0.00
    4    0    8      1.51      0.00
    4    0    7      3.42      0.00
    4    0    6      4.52      0.00
    4    0    5      3.54      0.00
    4    0    4      0.32      0.00
    4    0    3     -3.54      0.00
    4    0    2     -5.37      0.00
    4    0    1     -3.26      0.00
    4    0    0      2.25      0.00
   -4    0    1      8.23      0.00
   -4    0    2     11.15      0.00
   -4    0    3      9.33      0.00
   -4    0    4      3.98      0.00
   -4    0    5     -1.69      0.00
   -4    0    6     -4.73      0.00
   -4    0    7     -4.22      0.00
   -4    0    8     -1.50      0.00
   -4    0    9      1.16      0.00
   -4    0   10      2.17      0.00
   -4    0   11      1.45      0.00
   -4    0   12      0.05      0.00
   -4    0   13     -0.92      0.00
    4    2   10     -0.35      0.00
    4    2    9      0.10      0.00
    4    2    8      1.27      0.00
    4    2    7      2.85      0.00
    4    2    6      3.85      0.00
    4    2    5      3.17      0.00
    4    2    4      0.56      0.00
    4    2    3     -2.69      0.00
    4    2    2     -4.21      0.00
    4    2    1     -2.24      0.00
    4    2    0      2.84      0.00
   -4    2    1      8.40      0.00
   -4    2    2     11.18      0.00
   -4    2    3      9.54      0.00
   -4    2    4      4.54      0.00
   -4    2    5     -0.86      0.00
   -4    2    6     -3.84      0.00
   -4    2    7     -3.49      0.00
   -4    2    8     -1.04      0.00
   -4    2    9      1.40      0.00
   -4    2   10      2.34      0.00
   -4    2   11      1.75      0.00
   -4    2   12      0.61      0.00
   -4    2   13     -0.11      0.00
    4    4   10     -0.20      0.00
    4    4    9     -0.14      0.00
    4    4    8      0.35      0.00
    4    4    7      1.24      0.00
    4    4    6      1.98      0.00
    4    4    5      1.79      0.00
    4    4    4      0.29      0.00
    4    4    3     -1.77      0.00
    4    4    2     -2.72      0.00
    4    4    1     -1.15      0.00
    4    4    0      2.79      0.00
   -4    4    1      7.13      0.00
   -4    4    2      9.27      0.00
   -4    4    3      7.88      0.00
   -4    4    4      3.79      0.00
   -4    4    5     -0.56      0.00
   -4    4    6     -2.85      0.00
   -4    4    7     -2.37      0.00
   -4    4    8     -0.18      0.00
   -4    4    9      1.88      0.00
   -4    4   10      2.63      0.00
   -4    4   11      2.10      0.00
   -4    4   12      1.17      0.00
   -4    4   13      0.60      0.00
   -4    4   14      0.52      0.00
    4    6    9     -0.48      0.00
    4    6    8     -0.23      0.00
    4    6    7      0.36      0.00
    4    6    6      0.95      0.00
    4    6    5      0.95      0.00
    4    6    4      0.04      0.00
    4    6    3     -1.36      0.00
    4    6    2     -2.12      0.00
    4    6    1     -1.25      0.00
    4    6    0      1.21      0.00
   -4    6    1      3.93      0.00
   -4    6    2      5.15      0.00
   -4    6    3      4.02      0.00
   -4    6    4      1.21      0.00
   -4    6    5     -1.51      0.00
   -4    6    6     -2.59      0.00
   -4    6    7     -1.63      0.00
   -4    6    8      0.45      0.00
   -4    6    9      2.27      0.00
   -4    6   10      2.93      0.00
   -4    6   11      2.46      0.00
   -4    6   12      1.50      0.00
    4    8    8      0.07      0.00
    4    8    7      0.70      0.00
    4    8    6      1.24      0.00
    4    8    5      1.26      0.00
    4    8    4      0.56      0.00
    4    8    3     -0.56      0.00
    4    8    2     -1.34      0.00
    4    8    1     -1.11      0.00
    4    8    0      0.16      0.00
   -4    8    1      1.67      0.00
   -4    8    2      2.36      0.00
   -4    8    3      1.70      0.00
   -4    8    4      0.08      0.00
   -4    8    5     -1.47      0.00
   -4    8    6     -2.04      0.00
   -4    8    7     -1.36      0.00
   -4    8    8      0.12      0.00
   -4    8    9      1.60      0.00
   -4    8   10      2.45      0.00
   -4    8   11      2.47      0.00
    4   10    7      0.26      0.00
    4   10    6      0.40      0.00
    4   10    5      0.36      0.00
    4   10    4      0.03      0.00
    4   10    3     -0.48      0.00
    4   10    2     -0.82      0.00
    4   10    1     -0.59      0.00
    4   10    0      0.28      0.00
   -4   10    1      1.39      0.00
   -4   10    2      2.09      0.00
   -4   10    3      1.92      0.00
   -4   10    4      0.94      0.00
   -4   10    5     -0.37      0.00
   -4   10    6     -1.35      0.00
   -4   10    7     -1.57      0.00
   -4   10    8     -1.02      0.00
   -4   10    9     -0.05      0.00
   -4   10   10      0.85      0.00
    4   12    5     -0.53      0.00
    4   12    4     -0.67      0.00
    4   12    3     -0.79      0.00
    4   12    2     -0.74      0.00
    4   12    1     -0.32      0.00
    4   12    0      0.58      0.00
   -4   12    1      1.72      0.00
   -4   12    2      2.63      0.00
   -4   12    3      2.82      0.00
   -4   12    4      2.17      0.00
   -4   12    5      0.94      0.00
   -4   12    6     -0.30      0.00
   -4   12    7     -1.02      0.00
   -4   12    8     -1.04      0.00
    5    1   10      0.11      0.00
    5    1    9      0.25      0.00
    5    1    8      0.92      0.00
    5    1    7      2.08      0.00
    5    1    6      3.13      0.00
    5    1    5      3.12      0.00
    5    1    4      1.41      0.00
    5    1    3     -1.57      0.00
    5    1    2     -4.16      0.00
    5    1    1     -4.39      0.00
    5    1    0     -1.47      0.00
   -5    1    1      3.32      0.00
   -5    1    2      7.29      0.00
   -5    1    3      8.06      0.00
   -5    1    4      5.20      0.00
   -5    1    5      0.52      0.00
   -5    1    6     -3.25      0.00
   -5    1    7     -4.25      0.00
   -5    1    8     -2.61      0.00
   -5    1    9     -0.01      0.00
   -5    1   10      1.69      0.00
   -5    1   11      1.73      0.00
   -5    1   12      0.67      0.00
   -5    1   13     -0.41      0.00
   -5    1   14     -0.82      0.00
    5    3   10     -0.25      0.00
    5    3    9     -0.18      0.00
    5    3    8      0.32      0.00
    5    3    7      1.28      0.00
    5    3    6      2.30      0.00
    5    3    5      2.57      0.00
    5    3    4      1.46      0.00
    5    3    3     -0.77      0.00
    5    3    2     -2.74      0.00
    5    3    1     -2.70      0.00
    5    3    0      0.05      0.00
   -5    3    1      4.39      0.00
   -5    3    2      7.90      0.00
   -5    3    3      8.41      0.00
   -5    3    4      5.61      0.00
   -5    3    5      1.23      0.00
   -5    3    6     -2.22      0.00
   -5    3    7     -3.12      0.00
   -5    3    8     -1.70      0.00
   -5    3    9      0.46      0.00
   -5    3   10      1.77      0.00
   -5    3   11      1.75      0.00
   -5    3   12      1.00      0.00
   -5    3   13      0.42      0.00
    5    5    9     -0.87      0.00
    5    5    8     -0.72      0.00
    5    5    7     -0.08      0.00
    5    5    6      0.78      0.00
    5    5    5      1.24      0.00
    5    5    4      0.71      0.00
    5    5    3     -0.71      0.00
    5    5    2     -2.02      0.00
    5    5    1     -1.92      0.00
    5    5    0      0.17      0.00
   -5    5    1      3.36      0.00
   -5    5    2      5.73      0.00
   -5    5    3      5.72      0.00
   -5    5    4      3.26      0.00
   -5    5    5     -0.13      0.00
   -5    5    6     -2.46      0.00
   -5    5    7     -2.63      0.00
   -5    5    8     -1.05      0.00
   -5    5    9      0.87      0.00
   -5    5   10      1.89      0.00
   -5    5   11      1.75      0.00
   -5    5   12      1.06      0.00
   -5    5   13      0.54      0.00
    5    7    8     -0.89      0.00
    5    7    7     -0.44      0.00
    5    7    6      0.19      0.00
    5    7    5      0.56      0.00
    5    7    4      0.27      0.00
    5    7    3     -0.66      0.00
    5    7    2     -1.61      0.00
    5    7    1     -1.68      0.00
    5    7    0     -0.52      0.00
   -5    7    1      1.33      0.00
   -5    7    2      2.65      0.00
   -5    7    3      2.47      0.00
   -5    7    4      0.82      0.00
   -5    7    5     -1.29      0.00
   -5    7    6     -2.57      0.00
   -5    7    7     -2.31      0.00
   -5    7    8     -0.83      0.00
   -5    7    9      0.92      0.00
   -5    7   10      2.02      0.00
   -5    7   11      2.17      0.00
   -5    7   12      1.63      0.00
    5    9    7     -0.14      0.00
    5    9    6      0.12      0.00
    5    9    5      0.29      0.00
    5    9    4      0.15      0.00
    5    9    3     -0.39      0.00
    5    9    2     -1.07      0.00
    5    9    1     -1.40      0.00
    5    9    0     -1.01      0.00
   -5    9    1     -0.02      0.00
   -5    9    2      0.95      0.00
   -5    9    3      1.25      0.00
   -5    9    4      0.64      0.00
   -5    9    5     -0.55      0.00
   -5    9    6     -1.59      0.00
   -5    9    7     -1.89      0.00
   -5    9    8     -1.28      0.00
   -5    9    9     -0.11      0.00
   -5    9   10      1.04      0.00
   -5    9   11      1.67      0.00
    5   11    5      0.02      0.00
    5   11    4      0.09      0.00
    5   11    3     -0.10      0.00
    5   11    2     -0.59      0.00
    5   11    1     -1.05      0.00
    5   11    0     -1.05      0.00
   -5   11    1     -0.37      0.00
   -5   11    2      0.71      0.00
   -5   11    3      1.59      0.00
   -5   11    4      1.71      0.00
   -5   11    5      0.98      0.00
   -5   11    6     -0.17      0.00
   -5   11    7     -1.10      0.00
   -5   11    8     -1.33      0.00
   -5   11    9     -0.87      0.00
    5   13    1     -0.38      0.00
    5   13    0     -0.37      0.00
   -5   13    1      0.27      0.00
   -5   13    2      1.32      0.00
   -5   13    3      2.22      0.00
    6    0    9      0.49      0.00
    6    0    8      0.71      0.00
    6    0    7      1.31      0.00
    6    0    6      2.06      0.00
    6    0    5      2.34      0.00
    6    0    4      1.47      0.00
    6    0    3     -0.66      0.00
    6    0    2     -3.14      0.00
    6    0    1     -4.37      0.00
    6    0    0     -3.12      0.00
   -6    0    1      0.39      0.00
   -6    0    2      4.36      0.00
   -6    0    3      6.43      0.00
   -6    0    4      5.36      0.00
   -6    0    5      1.81      0.00
   -6    0    6     -2.04      0.00
   -6    0    7     -4.06      0.00
   -6    0    8     -3.51      0.00
   -6    0    9     -1.36      0.00
   -6    0   10      0.69      0.00
   -6    0   11      1.48      0.00
   -6    0   12      1.02      0.00
   -6    0   13      0.12      0.00
   -6    0   14     -0.44      0.00
    6    2    9     -0.16      0.00
    6    2    8      0.10      0.00
    6    2    7      0.80      0.00
    6    2    6      1.70      0.00
    6    2    5      2.21      0.00
    6    2    4      1.62      0.00
    6    2    3     -0.23      0.00
    6    2    2     -2.46      0.00
    6    2    1     -3.54      0.00
    6    2    0     -2.26      0.00
   -6    2    1      1.11      0.00
   -6    2    2      4.81      0.00
   -6    2    3      6.64      0.00
   -6    2    4      5.46      0.00
   -6    2    5      2.04      0.00
   -6    2    6     -1.54      0.00
   -6    2    7     -3.30      0.00
   -6    2    8     -2.72      0.00
   -6    2    9     -0.79      0.00
   -6    2   10      0.91      0.00
   -6    2   11      1.46      0.00
   -6    2   12      1.02      0.00
   -6    2   13      0.36      0.00
   -6    2   14      0.07      0.00
    6    4    9     -1.07      0.00
    6    4    8     -0.96      0.00
    6    4    7     -0.28      0.00
    6    4    6      0.76      0.00
    6    4    5      1.58      0.00
    6    4    4      1.47      0.00
    6    4    3      0.21      0.00
    6    4    2     -1.47      0.00
    6    4    1     -2.22      0.00
    6    4    0     -1.07      0.00
   -6    4    1      1.72      0.00
   -6    4    2      4.58      0.00
   -6    4    3      5.68      0.00
   -6    4    4      4.27      0.00
   -6    4    5      1.26      0.00
   -6    4    6     -1.53      0.00
   -6    4    7     -2.60      0.00
   -6    4    8     -1.81      0.00
   -6    4    9     -0.21      0.00
   -6    4   10      0.91      0.00
   -6    4   11      1.06      0.00
   -6    4   12      0.62      0.00
   -6    4   13      0.29      0.00
    6    6    8     -1.31      0.00
    6    6    7     -0.94      0.00
    6    6    6     -0.16      0.00
    6    6    5      0.55      0.00
    6    6    4      0.62      0.00
    6    6    3     -0.13      0.00
    6    6    2     -1.21      0.00
    6    6    1     -1.65      0.00
    6    6    0     -0.79      0.00
   -6    6    1      1.12      0.00
   -6    6    2      2.91      0.00
   -6    6    3      3.33      0.00
   -6    6    4      2.01      0.00
   -6    6    5     -0.27      0.00
   -6    6    6     -2.15      0.00
   -6    6    7     -2.65      0.00
   -6    6    8     -1.79      0.00
   -6    6    9     -0.42      0.00
   -6    6   10      0.54      0.00
   -6    6   11      0.74      0.00
   -6    6   12      0.48      0.00
   -6    6   13      0.22      0.00
    6    8    6     -0.54      0.00
    6    8    5     -0.26      0.00
    6    8    4     -0.23      0.00
    6    8    3     -0.61      0.00
    6    8    2     -1.24      0.00
    6    8    1     -1.62      0.00
    6    8    0     -1.31      0.00
   -6    8    1     -0.32      0.00
   -6    8    2      0.78      0.00
   -6    8    3      1.27      0.00
   -6    8    4      0.78      0.00
   -6    8    5     -0.43      0.00
   -6    8    6     -1.65      0.00
   -6    8    7     -2.23      0.00
   -6    8    8     -1.93      0.00
   -6    8    9     -1.02      0.00
   -6    8   10     -0.01      0.00
   -6    8   11      0.68      0.00
   -6    8   12      0.89      0.00
    6   10    5     -0.16      0.00
    6   10    4      0.02      0.00
    6   10    3     -0.05      0.00
    6   10    2     -0.56      0.00
    6   10    1     -1.33      0.00
    6   10    0     -1.88      0.00
   -6   10    1     -1.77      0.00
   -6   10    2     -0.96      0.00
   -6   10    3      0.09      0.00
   -6   10    4      0.75      0.00
   -6   10    5      0.66      0.00
   -6   10    6     -0.08      0.00
   -6   10    7     -0.97      0.00
   -6   10    8     -1.44      0.00
   -6   10    9     -1.25      0.00
   -6   10   10     -0.57      0.00
   -6   10   11      0.15      0.00
    6   12    3      1.10      0.00
    6   12    2      0.62      0.00
    6   12    1     -0.37      0.00
    6   12    0     -1.28      0.00
   -6   12    1     -1.48      0.00
   -6   12    2     -0.74      0.00
   -6   12    3      0.52      0.00
   -6   12    4      1.56      0.00
   -6   12    5      1.80      0.00
   -6   12    6      1.21      0.00
   -6   12    7      0.27      0.00
    7    1    9      0.14      0.00
    7    1    8      0.21      0.00
    7    1    7      0.58      0.00
    7    1    6      1.22      0.00
    7    1    5      1.74      0.00
    7    1    4      1.49      0.00
    7    1    3      0.10      0.00
    7    1    2     -2.02      0.00
    7    1    1     -3.63      0.00
    7    1    0     -3.44      0.00
   -7    1    1     -1.12      0.00
   -7    1    2      2.24      0.00
   -7    1    3      4.72      0.00
   -7    1    4      4.84      0.00
   -7    1    5      2.57      0.00
   -7    1    6     -0.65      0.00
   -7    1    7     -2.99      0.00
   -7    1    8     -3.38      0.00
   -7    1    9     -2.15      0.00
   -7    1   10     -0.46      0.00
   -7    1   11      0.63      0.00
   -7    1   12      0.85      0.00
   -7    1   13      0.60      0.00
   -7    1   14      0.36      0.00
    7    3    9     -1.03      0.00
    7    3    8     -1.13      0.00
    7    3    7     -0.72      0.00
    7    3    6      0.16      0.00
    7    3    5      1.06      0.00
    7    3    4      1.28      0.00
    7    3    3      0.40      0.00
    7    3    2     -1.25      0.00
    7    3    1     -2.54      0.00
    7    3    0     -2.32      0.00
   -7    3    1     -0.37      0.00
   -7    3    2      2.29      0.00
   -7    3    3      4.00      0.00
   -7    3    4      3.69      0.00
   -7    3    5      1.59      0.00
   -7    3    6     -0.93      0.00
   -7    3    7     -2.39      0.00
   -7    3    8     -2.22      0.00
   -7    3    9     -1.00      0.00
   -7    3   10      0.21      0.00
   -7    3   11      0.73      0.00
   -7    3   12      0.64      0.00
   -7    3   13      0.42      0.00
   -7    3   14      0.39      0.00
    7    5    8     -1.54      0.00
    7    5    7     -1.25      0.00
    7    5    6     -0.39      0.00
    7    5    5      0.59      0.00
    7    5    4      1.04      0.00
    7    5    3      0.56      0.00
    7    5    2     -0.55      0.00
    7    5    1     -1.40      0.00
    7    5    0     -1.11      0.00
   -7    5    1      0.38      0.00
   -7    5    2      2.18      0.00
   -7    5    3      3.07      0.00
   -7    5    4      2.39      0.00
   -7    5    5      0.55      0.00
   -7    5    6     -1.31      0.00
   -7    5    7     -2.19      0.00
   -7    5    8     -1.90      0.00
   -7    5    9     -1.03      0.00
   -7    5   10     -0.34      0.00
   -7    5   11     -0.16      0.00
   -7    5   12     -0.25      0.00
   -7    5   13     -0.23      0.00
    7    7    6     -0.58      0.00
    7    7    5     -0.12      0.00
    7    7    4      0.09      0.00
    7    7    3     -0.19      0.00
    7    7    2     -0.81      0.00
    7    7    1     -1.25      0.00
    7    7    0     -1.01      0.00
   -7    7    1     -0.05      0.00
   -7    7    2      1.11      0.00
   -7    7    3      1.73      0.00
   -7    7    4      1.38      0.00
   -7    7    5      0.26      0.00
   -7    7    6     -1.03      0.00
   -7    7    7     -1.90      0.00
   -7    7    8     -2.10      0.00
   -7    7    9     -1.81      0.00
   -7    7   10     -1.33      0.00
   -7    7   11     -0.89      0.00
   -7    7   12     -0.51      0.00
   -7    7   13     -0.18      0.00
    7    9    5     -0.58      0.00
    7    9    4     -0.45      0.00
    7    9    3     -0.43      0.00
    7    9    2     -0.69      0.00
    7    9    1     -1.19      0.00
    7    9    0     -1.60      0.00
   -7    9    1     -1.61      0.00
   -7    9    2     -1.09      0.00
   -7    9    3     -0.28      0.00
   -7    9    4      0.41      0.00
   -7    9    5      0.60      0.00
   -7    9    6      0.20      0.00
   -7    9    7     -0.58      0.00
   -7    9    8     -1.32      0.00
   -7    9    9     -1.64      0.00
   -7    9   10     -1.42      0.00
   -7    9   11     -0.83      0.00
   -7    9   12     -0.19      0.00
    7   11    3      0.92      0.00
    7   11    2      0.76      0.00
    7   11    1     -0.11      0.00
    7   11    0     -1.33      0.00
   -7   11    1     -2.20      0.00
   -7   11    2     -2.16      0.00
   -7   11    3     -1.17      0.00
   -7   11    4      0.22      0.00
   -7   11    5      1.26      0.00
   -7   11    6      1.47      0.00
   -7   11    7      0.89      0.00
   -7   11    8      0.00      0.00
    8    0    7      0.48      0.00
    8    0    6      1.08      0.00
    8    0    5      1.77      0.00
    8    0    4      1.91      0.00
    8    0    3      0.94      0.00
    8    0    2     -1.05      0.00
    8    0    1     -3.09      0.00
    8    0    0     -3.86      0.00
   -8    0    1     -2.61      0.00
   -8    0    2      0.14      0.00
   -8    0    3      2.85      0.00
   -8    0    4      3.96      0.00
   -8    0    5      2.92      0.00
   -8    0    6      0.47      0.00
   -8    0    7     -1.94      0.00
   -8    0    8     -3.16      0.00
   -8    0    9     -2.95      0.00
   -8    0   10     -1.88      0.00
   -8    0   11     -0.74      0.00
   -8    0   12      0.05      0.00
   -8    0   13      0.47      0.00
   -8    0   14      0.68      0.00
    8    2    8     -0.65      0.00
    8    2    7     -0.55      0.00
    8    2    6      0.02      0.00
    8    2    5      0.81      0.00
    8    2    4      1.20      0.00
    8    2    3      0.60      0.00
    8    2    2     -0.96      0.00
    8    2    1     -2.63      0.00
    8    2    0     -3.21      0.00
   -8    2    1     -2.09      0.00
   -8    2    2      0.21      0.00
   -8    2    3      2.32      0.00
   -8    2    4      2.97      0.00
   -8    2    5      1.87      0.00
   -8    2    6     -0.18      0.00
   -8    2    7     -1.93      0.00
   -8    2    8     -2.52      0.00
   -8    2    9     -1.98      0.00
   -8    2   10     -0.94      0.00
   -8    2   11     -0.05      0.00
   -8    2   12      0.43      0.00
   -8    2   13      0.63      0.00
   -8    2   14      0.72      0.00
    8    4    8     -1.48      0.00
    8    4    7     -1.56      0.00
    8    4    6     -1.02      0.00
    8    4    5     -0.11      0.00
    8    4    4      0.56      0.00
    8    4    3      0.42      0.00
    8    4    2     -0.51      0.00
    8    4    1     -1.55      0.00
    8    4    0     -1.80      0.00
   -8    4    1     -0.87      0.00
   -8    4    2      0.67      0.00
   -8    4    3      1.81      0.00
   -8    4    4      1.76      0.00
   -8    4    5      0.59      0.00
   -8    4    6     -0.91      0.00
   -8    4    7     -1.84      0.00
   -8    4    8     -1.87      0.00
   -8    4    9     -1.26      0.00
   -8    4   10     -0.59      0.00
   -8    4   11     -0.20      0.00
   -8    4   12     -0.03      0.00
   -8    4   13      0.13      0.00
   -8    4   14      0.32      0.00
    8    6    7     -1.02      0.00
    8    6    6     -0.62      0.00
    8    6    5      0.04      0.00
    8    6    4      0.49      0.00
    8    6    3      0.36      0.00
    8    6    2     -0.27      0.00
    8    6    1     -0.89      0.00
    8    6    0     -0.94      0.00
   -8    6    1     -0.23      0.00
   -8    6    2      0.83      0.00
   -8    6    3      1.53      0.00
   -8    6    4      1.43      0.00
   -8    6    5      0.62      0.00
   -8    6    6     -0.43      0.00
   -8    6    7     -1.27      0.00
   -8    6    8     -1.71      0.00
   -8    6    9     -1.81      0.00
   -8    6   10     -1.74      0.00
   -8    6   11     -1.54      0.00
   -8    6   12     -1.16      0.00
   -8    6   13     -0.62      0.00
   -8    6   14     -0.08      0.00
    8    8    4     -0.09      0.00
    8    8    3     -0.12      0.00
    8    8    2     -0.36      0.00
    8    8    1     -0.70      0.00
    8    8    0     -0.91      0.00
   -8    8    1     -0.82      0.00
   -8    8    2     -0.44      0.00
   -8    8    3      0.10      0.00
   -8    8    4      0.61      0.00
   -8    8    5      0.88      0.00
   -8    8    6      0.74      0.00
   -8    8    7      0.18      0.00
   -8    8    8     -0.64      0.00
   -8    8    9     -1.40      0.00
   -8    8   10     -1.75      0.00
   -8    8   11     -1.58      0.00
   -8    8   12     -0.99      0.00
    8   10    3      0.24      0.00
    8   10    2      0.44      0.00
    8   10    1      0.15      0.00
    8   10    0     -0.61      0.00
   -8   10    1     -1.47      0.00
   -8   10    2     -1.89      0.00
   -8   10    3     -1.51      0.00
   -8   10    4     -0.41      0.00
   -8   10    5      0.88      0.00
   -8   10    6      1.71      0.00
   -8   10    7      1.66      0.00
   -8   10    8      0.86      0.00
   -8   10    9     -0.15      0.00
   -8   10   10     -0.80      0.00
    8   12    2      1.25      0.00
    8   12    1      0.90      0.00
    8   12    0     -0.05      0.00
   -8   12    1     -1.14      0.00
   -8   12    2     -1.71      0.00
   -8   12    3     -1.41      0.00
   -8   12    4     -0.38      0.00
   -8   12    5      0.81      0.00
    9    1    7     -0.14      0.00
    9    1    6      0.29      0.00
    9    1    5      1.13      0.00
    9    1    4      1.82      0.00
    9    1    3      1.62      0.00
    9    1    2      0.19      0.00
    9    1    1     -1.86      0.00
    9    1    0     -3.33      0.00
   -9    1    1     -3.22      0.00
   -9    1    2     -1.52      0.00
   -9    1    3      0.75      0.00
   -9    1    4      2.28      0.00
   -9    1    5      2.27      0.00
   -9    1    6      0.93      0.00
   -9    1    7     -0.86      0.00
   -9    1    8     -2.17      0.00
   -9    1    9     -2.55      0.00
   -9    1   10     -2.13      0.00
   -9    1   11     -1.31      0.00
   -9    1   12     -0.46      0.00
   -9    1   13      0.26      0.00
   -9    1   14      0.73      0.00
   -9    1   15      0.88      0.00
    9    3    7     -1.08      0.00
    9    3    6     -1.00      0.00
    9    3    5     -0.39      0.00
    9    3    4      0.29      0.00
    9    3    3      0.40      0.00
    9    3    2     -0.36      0.00
    9    3    1     -1.57      0.00
    9    3    0     -2.34      0.00
   -9    3    1     -2.03      0.00
   -9    3    2     -0.78      0.00
   -9    3    3      0.60      0.00
   -9    3    4      1.25      0.00
   -9    3    5      0.85      0.00
   -9    3    6     -0.23      0.00
   -9    3    7     -1.27      0.00
   -9    3    8     -1.74      0.00
   -9    3    9     -1.56      0.00
   -9    3   10     -0.98      0.00
   -9    3   11     -0.31      0.00
   -9    3   12      0.27      0.00
   -9    3   13      0.70      0.00
   -9    3   14      0.91      0.00
    9    5    6     -1.04      0.00
    9    5    5     -0.57      0.00
    9    5    4     -0.07      0.00
    9    5    3     -0.01      0.00
    9    5    2     -0.51      0.00
    9    5    1     -1.23      0.00
    9    5    0     -1.54      0.00
   -9    5    1     -1.12      0.00
   -9    5    2     -0.21      0.00
   -9    5    3      0.61      0.00
   -9    5    4      0.84      0.00
   -9    5    5      0.41      0.00
   -9    5    6     -0.35      0.00
   -9    5    7     -1.08      0.00
   -9    5    8     -1.54      0.00
   -9    5    9     -1.70      0.00
   -9    5   10     -1.61      0.00
   -9    5   11     -1.30      0.00
   -9    5   12     -0.78      0.00
   -9    5   13     -0.18      0.00
   -9    5   14      0.29      0.00
    9    7    4      0.41      0.00
    9    7    3      0.35      0.00
    9    7    2     -0.02      0.00
    9    7    1     -0.51      0.00
    9    7    0     -0.79      0.00
   -9    7    1     -0.73      0.00
   -9    7    2     -0.38      0.00
   -9    7    3      0.07      0.00
   -9    7    4      0.49      0.00
   -9    7    5      0.79      0.00
   -9    7    6      0.86      0.00
   -9    7    7      0.56      0.00
   -9    7    8     -0.10      0.00
   -9    7    9     -0.90      0.00
   -9    7   10     -1.48      0.00
   -9    7   11     -1.55      0.00
   -9    7   12     -1.10      0.00
   -9    7   13     -0.40      0.00
    9    9    3      0.33      0.00
    9    9    2      0.51      0.00
    9    9    1      0.50      0.00
    9    9    0      0.18      0.00
   -9    9    1     -0.38      0.00
   -9    9    2     -0.92      0.00
   -9    9    3     -1.04      0.00
   -9    9    4     -0.46      0.00
   -9    9    5      0.67      0.00
   -9    9    6      1.81      0.00
   -9    9    7      2.33      0.00
   -9    9    8      1.95      0.00
   -9    9    9      0.98      0.00
   -9    9   10      0.05      0.00
   -9    9   11     -0.38      0.00
    9   11    1      0.86      0.00
    9   11    0      0.54      0.00
   -9   11    1     -0.26      0.00
   -9   11    2     -1.11      0.00
   -9   11    3     -1.43      0.00
   -9   11    4     -0.89      0.00
   -9   11    5      0.32      0.00
   -9   11    6      1.58      0.00
   -9   11    7      2.19      0.00
   10    0    6     -0.21      0.00
   10    0    5      0.55      0.00
   10    0    4      1.60      0.00
   10    0    3      2.12      0.00
   10    0    2      1.40      0.00
   10    0    1     -0.44      0.00
   10    0    0     -2.42      0.00
  -10    0    1     -3.33      0.00
  -10    0    2     -2.65      0.00
  -10    0    3     -0.83      0.00
  -10    0    4      1.01      0.00
  -10    0    5      1.88      0.00
  -10    0    6      1.46      0.00
  -10    0    7      0.16      0.00
  -10    0    8     -1.27      0.00
  -10    0    9     -2.17      0.00
  -10    0   10     -2.32      0.00
  -10    0   11     -1.83      0.00
  -10    0   12     -1.03      0.00
  -10    0   13     -0.20      0.00
  -10    0   14      0.41      0.00
   10    2    6     -0.52      0.00
   10    2    5     -0.08      0.00
   10    2    4      0.72      0.00
   10    2    3      1.20      0.00
   10    2    2      0.75      0.00
   10    2    1     -0.58      0.00
   10    2    0     -1.99      0.00
  -10    2    1     -2.56      0.00
  -10    2    2     -1.92      0.00
  -10    2    3     -0.51      0.00
  -10    2    4      0.81      0.00
  -10    2    5      1.32      0.00
  -10    2    6      0.88      0.00
  -10    2    7     -0.11      0.00
  -10    2    8     -1.06      0.00
  -10    2    9     -1.51      0.00
  -10    2   10     -1.37      0.00
  -10    2   11     -0.78      0.00
  -10    2   12     -0.03      0.00
  -10    2   13      0.64      0.00
  -10    2   14      1.01      0.00
  -10    2   15      0.99      0.00
   10    4    6     -0.87      0.00
   10    4    5     -0.82      0.00
   10    4    4     -0.48      0.00
   10    4    3     -0.28      0.00
   10    4    2     -0.60      0.00
   10    4    1     -1.33      0.00
   10    4    0     -1.94      0.00
  -10    4    1     -1.94      0.00
  -10    4    2     -1.27      0.00
  -10    4    3     -0.32      0.00
  -10    4    4      0.36      0.00
  -10    4    5      0.48      0.00
  -10    4    6      0.06      0.00
  -10    4    7     -0.61      0.00
  -10    4    8     -1.20      0.00
  -10    4    9     -1.48      0.00
  -10    4   10     -1.33      0.00
  -10    4   11     -0.80      0.00
  -10    4   12     -0.08      0.00
  -10    4   13      0.57      0.00
  -10    4   14      0.92      0.00
   10    6    4     -0.09      0.00
   10    6    3     -0.17      0.00
   10    6    2     -0.62      0.00
   10    6    1     -1.25      0.00
   10    6    0     -1.69      0.00
  -10    6    1     -1.68      0.00
  -10    6    2     -1.26      0.00
  -10    6    3     -0.64      0.00
  -10    6    4     -0.07      0.00
  -10    6    5      0.33      0.00
  -10    6    6      0.45      0.00
  -10    6    7      0.21      0.00
  -10    6    8     -0.37      0.00
  -10    6    9     -1.05      0.00
  -10    6   10     -1.48      0.00
  -10    6   11     -1.41      0.00
  -10    6   12     -0.88      0.00
  -10    6   13     -0.19      0.00
  -10    6   14      0.31      0.00
   10    8    2      0.61      0.00
   10    8    1      0.42      0.00
   10    8    0      0.14      0.00
  -10    8    1     -0.23      0.00
  -10    8    2     -0.63      0.00
  -10    8    3     -0.84      0.00
  -10    8    4     -0.56      0.00
  -10    8    5      0.30      0.00
  -10    8    6      1.41      0.00
  -10    8    7      2.19      0.00
  -10    8    8      2.25      0.00
  -10    8    9      1.64      0.00
  -10    8   10      0.87      0.00
  -10    8   11      0.40      0.00
  -10    8   12      0.36      0.00
   10   10    0      1.05      0.00
  -10   10    1      0.67      0.00
  -10   10    2     -0.13      0.00
  -10   10    3     -0.87      0.00
  -10   10    4     -0.95      0.00
  -10   10    5     -0.11      0.00
  -10   10    6      1.29      0.00
  -10   10    7      2.47      0.00
  -10   10    8      2.82      0.00
   11    1    5     -0.53      0.00
   11    1    4      0.33      0.00
   11    1    3      1.29      0.00
   11    1    2      1.53      0.00
   11    1    1      0.65      0.00
   11    1    0     -0.93      0.00
  -11    1    1     -2.26      0.00
  -11    1    2     -2.53      0.00
  -11    1    3     -1.64      0.00
  -11    1    4     -0.16      0.00
  -11    1    5      1.05      0.00
  -11    1    6      1.40      0.00
  -11    1    7      0.84      0.00
  -11    1    8     -0.18      0.00
  -11    1    9     -1.06      0.00
  -11    1   10     -1.39      0.00
  -11    1   11     -1.13      0.00
  -11    1   12     -0.53      0.00
  -11    1   13      0.08      0.00
  -11    1   14      0.47      0.00
   11    3    5     -0.43      0.00
   11    3    4     -0.10      0.00
   11    3    3      0.37      0.00
   11    3    2      0.44      0.00
   11    3    1     -0.13      0.00
   11    3    0     -1.06      0.00
  -11    3    1     -1.75      0.00
  -11    3    2     -1.74      0.00
  -11    3    3     -1.04      0.00
  -11    3    4     -0.06      0.00
  -11    3    5      0.70      0.00
  -11    3    6      0.89      0.00
  -11    3    7      0.52      0.00
  -11    3    8     -0.12      0.00
  -11    3    9     -0.61      0.00
  -11    3   10     -0.66      0.00
  -11    3   11     -0.24      0.00
  -11    3   12      0.41      0.00
  -11    3   13      0.96      0.00
  -11    3   14      1.16      0.00
  -11    3   15      1.00      0.00
   11    5    3     -0.64      0.00
   11    5    2     -1.02      0.00
   11    5    1     -1.65      0.00
   11    5    0     -2.24      0.00
  -11    5    1     -2.44      0.00
  -11    5    2     -2.12      0.00
  -11    5    3     -1.40      0.00
  -11    5    4     -0.57      0.00
  -11    5    5      0.10      0.00
  -11    5    6      0.37      0.00
  -11    5    7      0.15      0.00
  -11    5    8     -0.45      0.00
  -11    5    9     -1.10      0.00
  -11    5   10     -1.39      0.00
  -11    5   11     -1.16      0.00
  -11    5   12     -0.54      0.00
  -11    5   13      0.10      0.00
  -11    5   14      0.45      0.00
   11    7    2     -0.26      0.00
   11    7    1     -0.72      0.00
   11    7    0     -1.12      0.00
  -11    7    1     -1.37      0.00
  -11    7    2     -1.43      0.00
  -11    7    3     -1.28      0.00
  -11    7    4     -0.85      0.00
  -11    7    5     -0.11      0.00
  -11    7    6      0.74      0.00
  -11    7    7      1.31      0.00
  -11    7    8      1.32      0.00
  -11    7    9      0.88      0.00
  -11    7   10      0.38      0.00
  -11    7   11      0.16      0.00
  -11    7   12      0.28      0.00
  -11    7   13      0.47      0.00
   11    9    0      0.94      0.00
  -11    9    1      0.78      0.00
  -11    9    2      0.22      0.00
  -11    9    3     -0.50      0.00
  -11    9    4     -0.86      0.00
  -11    9    5     -0.42      0.00
  -11    9    6      0.75      0.00
  -11    9    7      2.06      0.00
  -11    9    8      2.88      0.00
  -11    9    9      2.94      0.00
  -11    9   11      1.92      0.00
  -11   11    1      0.67      0.00
  -11   11    2      0.43      0.00
  -11   11    3     -0.17      0.00
  -11   11    4     -0.66      0.00
   12    0    4     -0.82      0.00
   12    0    3      0.17      0.00
   12    0    2      1.03      0.00
   12    0    1      1.04      0.00
   12    0    0      0.07      0.00
  -12    0    1     -1.31      0.00
  -12    0    2     -2.25      0.00
  -12    0    3     -2.16      0.00
  -12    0    4     -1.11      0.00
  -12    0    5      0.30      0.00
  -12    0    6      1.28      0.00
  -12    0    7      1.38      0.00
  -12    0    8      0.70      0.00
  -12    0    9     -0.25      0.00
  -12    0   10     -0.88      0.00
  -12    0   11     -0.96      0.00
  -12    0   12     -0.65      0.00
  -12    0   13     -0.26      0.00
  -12    0   14     -0.03      0.00
   12    2    4     -0.27      0.00
   12    2    3      0.49      0.00
   12    2    2      1.15      0.00
   12    2    1      1.14      0.00
   12    2    0      0.35      0.00
  -12    2    1     -0.79      0.00
  -12    2    2     -1.59      0.00
  -12    2    3     -1.58      0.00
  -12    2    4     -0.78      0.00
  -12    2    5      0.36      0.00
  -12    2    6      1.22      0.00
  -12    2    7      1.41      0.00
  -12    2    8      0.99      0.00
  -12    2    9      0.35      0.00
  -12    2   10     -0.03      0.00
  -12    2   11      0.03      0.00
  -12    2   12      0.36      0.00
  -12    2   13      0.65      0.00
  -12    2   14      0.70      0.00
   12    4    3     -0.02      0.00
   12    4    2     -0.02      0.00
   12    4    1     -0.33      0.00
   12    4    0     -0.94      0.00
  -12    4    1     -1.55      0.00
  -12    4    2     -1.81      0.00
  -12    4    3     -1.56      0.00
  -12    4    4     -0.85      0.00
  -12    4    5      0.03      0.00
  -12    4    6      0.68      0.00
  -12    4    7      0.83      0.00
  -12    4    8      0.48      0.00
  -12    4    9     -0.05      0.00
  -12    4   10     -0.33      0.00
  -12    4   11     -0.18      0.00
  -12    4   12      0.23      0.00
  -12    4   13      0.56      0.00
  -12    4   14      0.61      0.00
   12    6    2     -1.03      0.00
   12    6    1     -1.60      0.00
   12    6    0     -2.10      0.00
  -12    6    1     -2.34      0.00
  -12    6    2     -2.24      0.00
  -12    6    3     -1.82      0.00
  -12    6    4     -1.12      0.00
  -12    6    5     -0.30      0.00
  -12    6    6      0.40      0.00
  -12    6    7      0.69      0.00
  -12    6    8      0.47      0.00
  -12    6    9     -0.05      0.00
  -12    6   10     -0.47      0.00
  -12    6   11     -0.52      0.00
  -12    6   12     -0.27      0.00
  -12    6   13     -0.02      0.00
   12    8    0     -0.28      0.00
  -12    8    1     -0.33      0.00
  -12    8    2     -0.46      0.00
  -12    8    3     -0.68      0.00
  -12    8    4     -0.75      0.00
  -12    8    5     -0.40      0.00
  -12    8    6      0.39      0.00
  -12    8    7      1.28      0.00
  -12    8    8      1.88      0.00
  -12    8    9      2.02      0.00
  -12    8   10      1.85      0.00
  -12    8   11      1.60      0.00
  -12   10    1      0.74      0.00
  -12   10    2      0.62      0.00
  -12   10    3      0.08      0.00
  -12   10    4     -0.54      0.00
  -12   10    5     -0.74      0.00
  -12   10    6     -0.27      0.00
   13    1    4     -0.97      0.00
   13    1    3     -0.40      0.00
   13    1    2      0.52      0.00
   13    1    1      1.13      0.00
   13    1    0      0.97      0.00
  -13    1    1      0.04      0.00
  -13    1    2     -1.10      0.00
  -13    1    3     -1.73      0.00
  -13    1    4     -1.43      0.00
  -13    1    5     -0.31      0.00
  -13    1    6      0.99      0.00
  -13    1    7      1.77      0.00
  -13    1    8      1.70      0.00
  -13    1    9      1.01      0.00
  -13    1   10      0.24      0.00
  -13    1   11     -0.19      0.00
  -13    1   12     -0.25      0.00
  -13    1   13     -0.18      0.00
   13    3    2      0.96      0.00
   13    3    1      1.28      0.00
   13    3    0      1.06      0.00
  -13    3    1      0.34      0.00
  -13    3    2     -0.53      0.00
  -13    3    3     -1.07      0.00
  -13    3    4     -0.96      0.00
  -13    3    5     -0.22      0.00
  -13    3    6      0.74      0.00
  -13    3    7      1.42      0.00
  -13    3    8      1.54      0.00
  -13    3    9      1.24      0.00
  -13    3   10      0.90      0.00
  -13    3   11      0.76      0.00
  -13    3   12      0.79      0.00
  -13    3   13      0.75      0.00
   13    5    1     -0.66      0.00
   13    5    0     -1.02      0.00
  -13    5    1     -1.36      0.00
  -13    5    2     -1.55      0.00
  -13    5    3     -1.46      0.00
  -13    5    4     -1.04      0.00
  -13    5    5     -0.37      0.00
  -13    5    6      0.31      0.00
  -13    5    7      0.67      0.00
  -13    5    8      0.58      0.00
  -13    5    9      0.20      0.00
  -13    5   10     -0.11      0.00
  -13    5   11     -0.14      0.00
  -13    5   12      0.00      0.00
  -13    5   13      0.07      0.00
   13    7    0     -1.46      0.00
  -13    7    1     -1.48      0.00
  -13    7    2     -1.32      0.00
  -13    7    3     -1.06      0.00
  -13    7    4     -0.71      0.00
  -13    7    5     -0.24      0.00
  -13    7    6      0.29      0.00
  -13    7    7      0.69      0.00
  -13    7    8      0.80      0.00
  -13    7    9      0.65      0.00
  -13    7   10      0.44      0.00
  -13    7   11      0.34      0.00
  -13    9    2      0.15      0.00
  -13    9    3     -0.01      0.00
  -13    9    4     -0.31      0.00
  -13    9    5     -0.45      0.00
  -13    9    6     -0.21      0.00
  -13    9    7      0.35      0.00
   14    0    2     -0.06      0.00
   14    0    1      0.75      0.00
   14    0    0      1.13      0.00
  -14    0    1      0.73      0.00
  -14    0    2     -0.28      0.00
  -14    0    3     -1.28      0.00
  -14    0    4     -1.56      0.00
  -14    0    5     -0.84      0.00
  -14    0    6      0.54      0.00
  -14    0    7      1.78      0.00
  -14    0    8      2.19      0.00
  -14    0    9      1.67      0.00
  -14    0   10      0.67      0.00
  -14    0   11     -0.22      0.00
  -14    0   12     -0.69      0.00
  -14    0   13     -0.81      0.00
   14    2    2      0.64      0.00
   14    2    1      1.39      0.00
   14    2    0      1.75      0.00
  -14    2    1      1.41      0.00
  -14    2    2      0.48      0.00
  -14    2    3     -0.52      0.00
  -14    2    4     -0.99      0.00
  -14    2    5     -0.59      0.00
  -14    2    6      0.45      0.00
  -14    2    7      1.51      0.00
  -14    2    8      2.01      0.00
  -14    2    9      1.82      0.00
  -14    2   10      1.23      0.00
  -14    2   11      0.67      0.00
  -14    2   12      0.32      0.00
  -14    2   13      0.10      0.00
   14    4    1      0.85      0.00
   14    4    0      0.97      0.00
  -14    4    1      0.79      0.00
  -14    4    2      0.34      0.00
  -14    4    3     -0.17      0.00
  -14    4    4     -0.46      0.00
  -14    4    5     -0.32      0.00
  -14    4    6      0.18      0.00
  -14    4    7      0.72      0.00
  -14    4    8      1.00      0.00
  -14    4    9      0.98      0.00
  -14    4   10      0.84      0.00
  -14    4   11      0.76      0.00
  -14    4   12      0.70      0.00
  -14    6    1     -1.03      0.00
  -14    6    2     -0.89      0.00
  -14    6    3     -0.67      0.00
  -14    6    4     -0.42      0.00
  -14    6    5     -0.13      0.00
  -14    6    6      0.14      0.00
  -14    6    7      0.28      0.00
  -14    6    8      0.23      0.00
  -14    6    9      0.05      0.00
  -14    6   10     -0.09      0.00
  -14    6   11     -0.07      0.00
  -14    8    3     -0.35      0.00
  -14    8    4     -0.22      0.00
  -14    8    5     -0.13      0.00
  -14    8    6      0.01      0.00
  -14    8    7      0.19      0.00
  -14    8    8      0.33      0.00
   15    1    1      0.75      0.00
   15    1    0      1.38      0.00
  -15    1    1      1.48      0.00
  -15    1    2      0.85      0.00
  -15    1    3     -0.18      0.00
  -15    1    4     -0.99      0.00
  -15    1    5     -0.99      0.00
  -15    1    6     -0.13      0.00
  -15    1    7      1.08      0.00
  -15    1    8      1.88      0.00
  -15    1    9      1.85      0.00
  -15    1   10      1.12      0.00
  -15    1   11      0.19      0.00
  -15    1   12     -0.48      0.00
   15    3    0      1.60      0.00
  -15    3    1      1.82      0.00
  -15    3    2      1.52      0.00
  -15    3    3      0.81      0.00
  -15    3    4      0.07      0.00
  -15    3    5     -0.26      0.00
  -15    3    6     -0.03      0.00
  -15    3    7      0.56      0.00
  -15    3    8      1.08      0.00
  -15    3    9      1.25      0.00
  -15    3   10      1.08      0.00
  -15    3   11      0.79      0.00
  -15    3   12      0.51      0.00
  -15    5    1      0.41      0.00
  -15    5    2      0.55      0.00
  -15    5    3      0.53      0.00
  -15    5    4      0.36      0.00
  -15    5    5      0.15      0.00
  -15    5    6      0.00      0.00
  -15    5    7     -0.04      0.00
  -15    5    8     -0.03      0.00
  -15    5    9      0.01      0.00
  -15    5   10      0.11      0.00
  -15    5   11      0.27      0.00
  -15    7    4     -0.04      0.00
  -15    7    5      0.01      0.00
  -15    7    6     -0.05      0.00
  -15    7    7     -0.16      0.00
  -15    7    8     -0.27      0.00
  -16    0    3      0.25      0.00
  -16    0    4     -0.71      0.00
  -16    0    5     -1.20      0.00
  -16    0    6     -0.88      0.00
  -16    0    7      0.05      0.00
  -16    0    8      0.97      0.00
  -16    0    9      1.30      0.00
  -16    0   10      0.90      0.00
  -16    0   11      0.10      0.00
   16    2    0      1.00      0.00
  -16    2    1      1.42      0.00
  -16    2    2      1.39      0.00
  -16    2    3      0.84      0.00
  -16    2    4      0.04      0.00
  -16    2    5     -0.52      0.00
  -16    2    6     -0.51      0.00
  -16    2    7      0.01      0.00
  -16    2    8      0.64      0.00
  -16    2    9      0.93      0.00
  -16    2   10      0.74      0.00
  -16    2   11      0.25      0.00
  -16    4    2      1.22      0.00
  -16    4    3      1.24      0.00
  -16    4    4      0.92      0.00
  -16    4    5      0.43      0.00
  -16    4    6      0.01      0.00
  -16    4    7     -0.19      0.00
  -16    4    8     -0.16      0.00
  -16    4    9     -0.02      0.00
  -16    4   10      0.13      0.00
  -16    6    5      0.33      0.00
  -16    6    6     -0.04      0.00
  -16    6    7     -0.43      0.00
  -16    6    8     -0.67      0.00
  -16    6    9     -0.67      0.00
  -17    1    4     -0.11      0.00
  -17    1    5     -0.80      0.00
  -17    1    6     -1.10      0.00
  -17    1    7     -0.86      0.00
  -17    1    8     -0.29      0.00
  -17    1    9      0.19      0.00
  -17    1   10      0.28      0.00
  -17    3    2      0.72      0.00
  -17    3    3      0.85      0.00
  -17    3    6     -0.23      0.00
  -17    3    7     -0.45      0.00
  -17    3    8     -0.40      0.00
  -17    3    9     -0.21      0.00
  -17    3   10     -0.09      0.00
  -17    5    6      0.21      0.00
  -17    5    7     -0.29      0.00
  -17    5    8     -0.61      0.00
  -17    5    9     -0.63      0.00
  -18    0    6     -1.05      0.00
  -18    0    7     -1.25      0.00
  -18    0    8     -1.04      0.00
  -18    2    4      0.20      0.00
  -18    2    5     -0.13      0.00
  -18    2    7     -0.85      0.00
  -18    2    8     -0.84      0.00
  -18    4    7     -0.18      0.00
  -18    4    8     -0.44      0.00
    1    1    0     31.30      0.00
   14    6    0     -1.03      0.00
  -16    0    1      1.32      0.00
    0    0    1     32.73      0.00
   -1    1    1     30.73      0.00
   12    8    1     -0.19      0.00
   11    9    1      0.83      0.00
   10   10    1      0.93      0.00
   -7   13    1     -1.15      0.00
  -16    0    2      1.07      0.00
   13    5    2     -0.37      0.00
   -7   13    2     -1.07      0.00
  -17    1    3      0.58      0.00
   13    3    3      0.43      0.00
  -15    7    3     -0.24      0.00
   11    7    3      0.07      0.00
   10    8    3      0.68      0.00
   -7   13    3     -0.27      0.00
    3   13    3     -1.35      0.00
  -17    3    4      0.65      0.00
   11    5    4     -0.53      0.00
   -7   13    4      0.73      0.00
   -5   13    4      2.45      0.00
  -17    3    5      0.21      0.00
   10    6    5     -0.26      0.00
    9    7    5      0.16      0.00
    8    8    5     -0.22      0.00
  -11   11    5     -0.57      0.00
   -7   13    5      1.33      0.00
   -5   13    5      1.86      0.00
  -11   11    6      0.13      0.00
   -8   12    6      1.54      0.00
   -5   13    6      0.82      0.00
   -3   13    6     -0.42      0.00
    7    7    7     -0.93      0.00
    6    8    7     -0.78      0.00
  -12   10    7      0.62      0.00
  -11   11    7      1.01      0.00
   -8   12    7      1.51      0.00
    8    0    8      0.22      0.00
  -13    9    8      0.93      0.00
  -12   10    8      1.43      0.00
   -9   11    8      1.89      0.00
   -6   12    8     -0.44      0.00
  -15    7    9     -0.32      0.00
  -14    8    9      0.38      0.00
  -13    9    9      1.29      0.00
  -10   10    9      2.32      0.00
    0   10    9     -0.31      0.00
   -9   11    9      1.00      0.00
   -7   11    9     -0.63      0.00
  -11    9   10      2.48      0.00
   -1    9   10     -0.41      0.00
  -10   10   10      1.44      0.00
   -2   10   10      0.02      0.00
  -17    1   11      0.01      0.00
    3    3   11     -0.51      0.00
  -16    4   11      0.23      0.00
   -2    8   11      0.73      0.00
   -3    9   11      1.31      0.00
  -16    0   12     -0.58      0.00
    2    0   12     -1.20      0.00
  -16    2   12     -0.21      0.00
    1    3   12     -0.89      0.00
  -14    6   12      0.01      0.00
   -3    7   12      1.27      0.00
   -4    8   12      1.88      0.00
  -15    1   13     -0.75      0.00
   -1    1   13      0.77      0.00
  -15    3   13      0.26      0.00
   -1    3   13     -0.23      0.00
  -14    4   13      0.53      0.00
   -4    6   13      0.67      0.00
  -14    0   14     -0.76      0.00
   -4    0   14     -1.08      0.00
  -13    1   14     -0.17      0.00
   -3    1   14     -0.13      0.00
   -4    2   14     -0.16      0.00
  -13    3   14      0.52      0.00
   -5    3   14      0.37      0.00
   -6    4   14      0.37      0.00
   -7    5   14      0.02      0.00
  -10    0   15      0.67      0.00
   -8    0   15      0.75      0.00
    0    0    0      0.00      0.00
# SQUEEZE RESULTS (Version =  21116)
# Note: Data are Listed for all Voids in the P1 Unit Cell
# i.e. Centre of Gravity, Solvent Accessible Volume,
# Recovered number of Electrons in the Void and
# Details about the Squeezed Material
loop_
  _platon_squeeze_void_nr
  _platon_squeeze_void_average_x
  _platon_squeeze_void_average_y
  _platon_squeeze_void_average_z
  _platon_squeeze_void_volume
  _platon_squeeze_void_count_electrons
  _platon_squeeze_void_content
   1  0.000  0.000  0.000        59        17 ' '
   2  0.500  0.500  0.000        59        17 ' '
# Missing Reflections Below sin(th)/lambda = 0.25
loop_
  _platon_missing_refln_index_h
  _platon_missing_refln_index_k
  _platon_missing_refln_index_l
  _platon_missing_refln_theta
    1    1    0     2.524
    0    0    1     2.050
   -1    1    1     2.652
_platon_squeeze_void_probe_radius                  1.20
_platon_squeeze_details
)
TITL 123 in C2/m
CELL   13.8270   10.9570   11.5170     90.00    120.42     90.00
SPGR C2/m
# Solvent Accessible Volume =       115
# Electrons Found in S.A.V. =        34
# Note: Atoms in Void as Cxxx and Qxxx all others
C101 0.565 0.503 0.109 !       4.76 eA-3
C102 0.500 0.500 0.000 !       2.70 eA-3
Q103 0.568 0.424 0.078 !       1.01 eA-3
Q104 0.268 0.061 0.555 !       0.88 eA-3
Q105 0.777 0.497 0.719 !       0.84 eA-3
Q106 0.683 0.503 0.469 !       0.80 eA-3
Q107 0.883 0.498 0.141 !       0.78 eA-3
Q108 0.171 0.495 0.406 !       0.78 eA-3
Q109 0.629 0.495 0.234 !       0.73 eA-3
Q110 0.179 0.119 0.093 !       0.70 eA-3
Q111 0.994 0.504 0.062 !       0.69 eA-3
Q112 0.233 0.145 0.498 !       0.69 eA-3
Q113 0.747 0.345 0.796 !       0.68 eA-3
Q114 0.357 0.457 0.891 !       0.68 eA-3
Q115 0.235 0.500 0.531 !       0.67 eA-3
Q116 0.886 0.495 0.219 !       0.67 eA-3
Q117 0.853 0.348 0.356 !       0.65 eA-3
Q118 0.610 0.205 0.871 !       0.65 eA-3
Q119 0.938 0.090 0.053 !       0.65 eA-3
Q120 0.473 0.050 0.483 !       0.65 eA-3
Q121 0.334 0.277 0.919 !       0.63 eA-3
Q122 0.094 0.107 1.004 !       0.63 eA-3
Q123 0.965 0.169 0.014 !       0.62 eA-3
Q124 0.418 0.067-0.003 !       0.62 eA-3
Q125 0.841 0.074 0.671 !       0.62 eA-3
Q126 0.085 0.137 0.316 !       0.62 eA-3
Q127 0.638 0.459 0.000 !       0.62 eA-3
Q128 0.247 0.454 0.494 !       0.61 eA-3
Q129 0.112 0.046 0.405 !       0.61 eA-3
Q130 0.984 0.324 0.800 !       0.61 eA-3
Q131 0.343 0.498 0.187 !       0.61 eA-3
Q132 1.000 0.500 0.000 !       0.60 eA-3
Q133 0.269 0.297 0.077 !       0.60 eA-3
Q134 0.893 0.504 0.469 !       0.59 eA-3
Q135 0.645 0.217 0.189 !       0.59 eA-3
Q136 0.380 0.484 0.046 !       0.59 eA-3
Q137 0.424 0.092 0.398 !       0.58 eA-3
Q138 0.860 0.111 0.246 !       0.58 eA-3
Q139 0.233 0.253 0.686 !       0.57 eA-3
Q140 0.077 0.265 0.389 !       0.57 eA-3
Q141 0.166 0.112 0.436 !       0.56 eA-3
Q142 0.663 0.313 0.483 !       0.56 eA-3
Q143 0.895 0.244 0.406 !       0.56 eA-3
Q144 0.678 0.262 0.254 !       0.56 eA-3
Q145 0.621 0.285 0.374 !       0.55 eA-3
Q146 0.377 0.496 0.141 !       0.54 eA-3
Q147 0.349 0.184 0.497 !       0.54 eA-3
Q148 0.450 0.378 0.798 !       0.54 eA-3
Q149 0.998 0.403 0.669 !       0.54 eA-3
Q150 0.314 0.135 0.172 !       0.54 eA-3
Q151 0.663 0.471 0.187 !       0.54 eA-3
Q152 0.064 0.450 0.435 !       0.54 eA-3
Q153 0.544 0.331 0.904 !       0.54 eA-3
Q154 0.718 0.130 0.070 !       0.54 eA-3
Q155 0.016 0.106 0.265 !       0.53 eA-3
Q156 0.469 0.501 0.328 !       0.53 eA-3
Q157 0.188 0.344 0.418 !       0.53 eA-3
Q158 0.412 0.325 0.844 !       0.52 eA-3
Q159 0.921 0.048 0.235 !       0.52 eA-3
Q160 0.507 0.090 0.182 !       0.52 eA-3
Q161 0.067 0.306 0.466 !       0.52 eA-3
Q162 0.630 0.402 0.843 !       0.52 eA-3
Q163 0.299 0.058 0.863 !       0.52 eA-3
Q164 0.966 0.379 0.701 !       0.51 eA-3
Q165 0.698 0.422 0.302 !       0.51 eA-3
Q166 0.372 0.315 0.009 !       0.51 eA-3
Q167 0.326 0.045 0.063 !       0.51 eA-3
Q168 0.107 0.387 0.345 !       0.51 eA-3
Q169 0.625 0.286 0.831 !       0.50 eA-3
Q170 0.290 0.422 0.348 !       0.50 eA-3
)
;
_shelx_fab_checksum              90513
_olex2_submission_special_instructions 'No special instructions were received'
loop_
_space_group_symop_operation_xyz
'x, y, z'
'-x, y, -z'
'x+1/2, y+1/2, z'
'-x+1/2, y+1/2, -z'
'-x, -y, -z'
'x, -y, z'
'-x+1/2, -y+1/2, -z'
'x+1/2, -y+1/2, z'
loop_
_atom_site_label
_atom_site_type_symbol
_atom_site_fract_x
_atom_site_fract_y
_atom_site_fract_z
_atom_site_U_iso_or_equiv
_atom_site_adp_type
_atom_site_occupancy
_atom_site_site_symmetry_order
_atom_site_calc_flag
_atom_site_refinement_flags_posn
_atom_site_refinement_flags_adp
_atom_site_refinement_flags_occupancy
_atom_site_disorder_assembly
_atom_site_disorder_group
C1 C 0.500000 -0.2355(7) 0.500000 0.0241(18) Uani 1 2 d S T P . .
C2 C 0.500000 -0.3712(7) 0.500000 0.0238(18) Uani 1 2 d S T P . .
C3 C 0.3860(6) 0.000000 0.2453(7) 0.029(2) Uani 1 2 d S T P A .
C4 C 0.3695(6) 0.000000 0.1060(7) 0.024(2) Uani 1.00(2) 2 d S TU P . .
C5B C 0.394(5) -0.100(2) 0.0518(19) 0.027(7) Uani 0.42(9) 1 d . U . A -1
C6 C 0.3210(6) 0.000000 -0.2982(7) 0.027(2) Uani 1 2 d S T P . .
C7 C 0.3363(6) 0.000000 -0.1569(7) 0.021(2) Uani 0.99(2) 2 d S TU P . .
C8B C 0.371(5) -0.0998(18) -0.079(2) 0.027(7) Uani 0.53(9) 1 d . U . A .
C9 C 0.5371(4) -0.4376(5) 0.6181(5) 0.0262(13) Uani 1 1 d . . . . .
O1 O 0.5896(3) -0.1855(4) 0.5238(4) 0.0332(10) Uani 1 1 d . . . . .
O2 O 0.4831(4) 0.000000 0.3423(5) 0.0378(16) Uani 1 2 d S T P . .
O3 O 0.8176(3) 0.1303(4) 0.6352(4) 0.0306(10) Uani 1 1 d . . . . .
H3A H 0.808241 0.207003 0.638718 0.037 Uiso 1 1 d R . . A .
H3B H 0.853881 0.105253 0.716148 0.037 Uiso 1 1 d R . . . .
O4 O 0.3151(4) -0.0995(4) -0.3535(4) 0.0405(11) Uani 1 1 d . . . . .
O5 O 0.3006(4) 0.000000 0.2571(5) 0.0321(14) Uani 1 2 d S T P . .
F1B F 0.4281(7) -0.2011(7) 0.1252(7) 0.051(3) Uani 0.504(11) 1 d . U . A -1
F2B F 0.3962(8) -0.2032(7) -0.1199(7) 0.050(3) Uani 0.496(12) 1 d . U . A -1
F3 F 0.5722(3) -0.3778(3) 0.7342(3) 0.0443(10) Uani 1 1 d . . . . .
Yb1 Yb 0.66073(2) 0.000000 0.52085(3) 0.01526(12) Uani 1 2 d S T P A .
C5A C 0.337(5) 0.1028(13) 0.030(3) 0.030(8) Uani 0.56(9) 1 d . U . A -1
C8A C 0.317(5) 0.1096(16) -0.102(3) 0.021(6) Uani 0.44(9) 1 d . U . A -1
F1A F 0.3106(7) 0.2057(7) 0.0753(7) 0.051(3) Uani 0.511(12) 1 d . U . A -1
F2A F 0.2870(8) 0.2131(7) -0.1660(7) 0.042(3) Uani 0.492(12) 1 d . U . A -1
loop_
_atom_site_aniso_label
_atom_site_aniso_U_11
_atom_site_aniso_U_22
_atom_site_aniso_U_33
_atom_site_aniso_U_23
_atom_site_aniso_U_13
_atom_site_aniso_U_12
C1 0.028(4) 0.009(4) 0.037(5) 0.000 0.017(4) 0.000
C2 0.024(4) 0.017(5) 0.036(5) 0.000 0.020(4) 0.000
C3 0.032(4) 0.037(6) 0.014(4) 0.000 0.009(4) 0.000
C4 0.020(4) 0.030(4) 0.020(4) 0.000 0.009(3) 0.000
C5B 0.028(19) 0.026(6) 0.018(6) 0.003(4) 0.005(8) 0.009(8)
C6 0.021(4) 0.042(6) 0.018(4) 0.000 0.008(3) 0.000
C7 0.021(4) 0.026(4) 0.017(4) 0.000 0.010(3) 0.000
C8B 0.035(19) 0.018(6) 0.021(5) -0.003(4) 0.010(8) 0.004(8)
C9 0.030(3) 0.019(3) 0.035(3) -0.011(3) 0.020(3) -0.009(3)
O1 0.025(2) 0.018(3) 0.054(3) 0.0082(19) 0.0188(19) -0.0040(18)
O2 0.025(3) 0.051(4) 0.018(3) 0.000 -0.004(2) 0.000
O3 0.030(2) 0.023(2) 0.034(2) -0.0063(18) 0.0129(18) -0.0112(18)
O4 0.066(3) 0.039(3) 0.028(2) -0.010(2) 0.031(2) -0.019(2)
O5 0.030(3) 0.047(4) 0.021(3) 0.000 0.014(2) 0.000
F1B 0.085(7) 0.033(5) 0.032(4) 0.011(3) 0.028(4) 0.014(4)
F2B 0.091(8) 0.024(5) 0.035(4) -0.004(3) 0.033(5) 0.016(4)
F3 0.060(2) 0.031(2) 0.039(2) -0.0105(16) 0.0230(18) -0.0048(18)
Yb1 0.01885(19) 0.0121(2) 0.01470(18) 0.000 0.00843(14) 0.000
C5A 0.05(2) 0.015(5) 0.026(6) -0.005(4) 0.025(10) -0.002(7)
C8A 0.020(18) 0.025(6) 0.016(7) 0.005(4) 0.007(9) 0.003(7)
F1A 0.089(7) 0.034(5) 0.032(4) 0.003(3) 0.032(4) 0.024(4)
F2A 0.073(7) 0.030(5) 0.034(4) 0.011(3) 0.035(4) 0.012(4)
loop_
_atom_type_symbol
_atom_type_description
_atom_type_scat_dispersion_real
_atom_type_scat_dispersion_imag
_atom_type_scat_source
C C 0.0033 0.0016 'International Tables Vol C Tables 4.2.6.8 and 6.1.1.4'
H H 0.0000 0.0000 'International Tables Vol C Tables 4.2.6.8 and 6.1.1.4'
F F 0.0171 0.0103 'International Tables Vol C Tables 4.2.6.8 and 6.1.1.4'
O O 0.0106 0.0060 'International Tables Vol C Tables 4.2.6.8 and 6.1.1.4'
Yb Yb -0.3850 5.5486 'International Tables Vol C Tables 4.2.6.8 and 6.1.1.4'
loop_
_geom_angle_atom_site_label_1
_geom_angle_atom_site_label_2
_geom_angle_atom_site_label_3
_geom_angle
_geom_angle_site_symmetry_1
_geom_angle_site_symmetry_3
O1 C1 C2 115.9(4) 2_656 .
O1 C1 C2 115.9(4) . .
O1 C1 O1 128.1(7) 2_656 .
C9 C2 C1 121.5(4) . .
C9 C2 C1 121.5(4) 2_656 .
C9 C2 C9 116.9(7) 2_656 .
C4 C3 Yb1 162.0(5) . 5_656
O2 C3 C4 118.2(7) . .
O2 C3 O5 123.5(7) . .
O2 C3 Yb1 79.8(4) . 5_656
O5 C3 C4 118.3(6) . .
O5 C3 Yb1 43.7(3) . 5_656
C5B C4 C3 122.9(9) . .
C5A C4 C3 120.7(6) . .
C5A C4 C5B 116.2(13) . .
C8B C5B C4 121.6(15) . .
F1B C5B C4 117.4(19) . .
F1B C5B C8B 120.5(16) . .
C7 C6 Yb1 168.5(5) . 5_655
O4 C6 C7 118.8(4) . .
O4 C6 C7 118.8(4) 6 .
O4 C6 O4 122.4(7) . 6
O4 C6 Yb1 61.8(4) 6 5_655
O4 C6 Yb1 61.8(4) . 5_655
C8B C7 C6 121.6(7) . .
C8B C7 C6 121.6(7) 6 .
C8B C7 C8B 109(2) 6 .
C8B C7 C8A 27.4(7) 6 .
C8B C7 C8A 117.9(8) . .
C8A C7 C6 120.5(8) . .
C7 C8B C5B 122.7(13) . .
F2B C8B C5B 115.7(14) . .
F2B C8B C7 121.3(12) . .
C9 C9 C2 121.5(4) 6_545 .
F3 C9 C2 119.2(5) . .
F3 C9 C9 119.3(3) . 6_545
C1 O1 Yb1 141.1(4) . .
C3 O2 Yb1 179.6(6) . .
C6 O4 Yb1 90.8(4) . 5_655
C3 O5 Yb1 114.4(4) . 5_656
C3 Yb1 Yb1 54.76(14) 5_656 5_656
C6 Yb1 C3 174.2(2) 5_655 5_656
C6 Yb1 Yb1 119.41(15) 5_655 5_656
O1 Yb1 C3 72.63(12) . 5_656
O1 Yb1 C3 72.62(12) 6 5_656
O1 Yb1 C6 105.31(12) 6 5_655
O1 Yb1 C6 105.31(12) . 5_655
O1 Yb1 O1 127.56(19) 6 .
O1 Yb1 O2 74.61(10) . .
O1 Yb1 O2 74.61(10) 6 .
O1 Yb1 O3 74.50(13) 6 .
O1 Yb1 O3 144.74(13) . .
O1 Yb1 O3 74.50(13) . 6
O1 Yb1 O3 144.74(13) 6 6
O1 Yb1 O4 131.51(14) 6 2_655
O1 Yb1 O4 131.51(14) . 5_655
O1 Yb1 O4 80.86(15) . 2_655
O1 Yb1 O4 80.86(15) 6 5_655
O1 Yb1 O5 81.02(12) . 5_656
O1 Yb1 O5 81.02(12) 6 5_656
O1 Yb1 Yb1 64.01(9) . 5_656
O1 Yb1 Yb1 64.01(9) 6 5_656
O2 Yb1 C3 100.6(2) . 5_656
O2 Yb1 C6 73.6(2) . 5_655
O2 Yb1 O3 140.54(11) . 6
O2 Yb1 O3 140.54(11) . .
O2 Yb1 O4 78.30(17) . 5_655
O2 Yb1 O4 78.30(17) . 2_655
O2 Yb1 O5 122.41(19) . 5_656
O2 Yb1 Yb1 45.80(15) . 5_656
O3 Yb1 C3 93.00(14) . 5_656
O3 Yb1 C3 93.00(14) 6 5_656
O3 Yb1 C6 91.64(15) 6 5_655
O3 Yb1 C6 91.64(15) . 5_655
O3 Yb1 O3 74.32(19) . 6
O3 Yb1 O4 73.09(13) 6 2_655
O3 Yb1 O4 105.21(14) . 2_655
O3 Yb1 O4 105.21(14) 6 5_655
O3 Yb1 O4 73.09(13) . 5_655
O3 Yb1 Yb1 132.82(9) . 5_656
O3 Yb1 Yb1 132.82(9) 6 5_656
O4 Yb1 C3 152.63(11) 2_655 5_656
O4 Yb1 C3 152.63(11) 5_655 5_656
O4 Yb1 C6 27.42(10) 5_655 5_655
O4 Yb1 C6 27.42(10) 2_655 5_655
O4 Yb1 O4 54.5(2) 2_655 5_655
O4 Yb1 Yb1 118.64(11) 5_655 5_656
O4 Yb1 Yb1 118.64(11) 2_655 5_656
O5 Yb1 C3 21.84(17) 5_656 5_656
O5 Yb1 C6 164.0(2) 5_656 5_655
O5 Yb1 O3 75.69(13) 5_656 6
O5 Yb1 O3 75.69(13) 5_656 .
O5 Yb1 O4 147.08(12) 5_656 2_655
O5 Yb1 O4 147.08(12) 5_656 5_655
O5 Yb1 Yb1 76.60(12) 5_656 5_656
C4 C5A C8A 124.2(15) . .
C4 C5A F1A 120.4(10) . .
F1A C5A C8A 115.0(18) . .
C5A C8A C7 116.7(18) . .
F2A C8A C7 123.7(12) . .
F2A C8A C5A 119.5(16) . .
loop_
_geom_bond_atom_site_label_1
_geom_bond_atom_site_label_2
_geom_bond_distance
_geom_bond_site_symmetry_2
C1 C2 1.487(11) .
C1 O1 1.251(5) 2_656
C1 O1 1.251(5) .
C2 C9 1.392(7) .
C2 C9 1.392(7) 2_656
C3 C4 1.502(10) .
C3 O2 1.238(8) .
C3 O5 1.255(9) .
C3 Yb1 3.072(8) 5_656
C4 C5B 1.38(2) .
C4 C5A 1.354(17) .
C5B C8B 1.37(2) .
C5B F1B 1.33(2) .
C6 C7 1.530(10) .
C6 O4 1.244(5) 6
C6 O4 1.244(5) .
C6 Yb1 2.702(8) 5_655
C7 C8B 1.343(14) 6
C7 C8B 1.343(14) .
C7 C8A 1.44(2) .
C8B F2B 1.339(16) .
C9 C9 1.367(11) 6_545
C9 F3 1.340(6) .
O1 Yb1 2.266(4) .
O2 Yb1 2.269(5) .
O3 Yb1 2.363(3) .
O4 Yb1 2.381(4) 5_655
O5 Yb1 2.332(5) 5_656
Yb1 Yb1 4.2221(17) 5_656
C5A C8A 1.41(2) .
C5A F1A 1.37(2) .
C8A F2A 1.30(2) .
