#------------------------------------------------------------------------------
#$Date: 2017-05-06 01:10:37 +0300 (Sat, 06 May 2017) $
#$Revision: 196450 $
#$URL: file:///home/coder/svn-repositories/cod/cif/7/04/24/7042419.cif $
#------------------------------------------------------------------------------
#
# This file is available in the Crystallography Open Database (COD),
# http://www.crystallography.net/
#
# All data on this site have been placed in the public domain by the
# contributors.
#
data_7042419
loop_
_publ_author_name
'Han, Yongqiang'
'Yan, Pengfei'
'Sun, Jingwen'
'An, Guanghui'
'Yao, Xu'
'Li, Yuxin'
'Li, Guangming'
_publ_section_title
;
 Luminescence and white-light emitting luminescent sensor of
 tetrafluoroterephthalate-lanthanide metal-organic frameworks.
;
_journal_issue                   14
_journal_name_full
'Dalton transactions (Cambridge, England : 2003)'
_journal_page_first              4642
_journal_page_last               4653
_journal_paper_doi               10.1039/c7dt00215g
_journal_volume                  46
_journal_year                    2017
_chemical_formula_moiety         'C12 H4 Ce F6 O8'
_chemical_formula_sum            'C12 H4 Ce F6 O8'
_chemical_formula_weight         530.27
_space_group_crystal_system      monoclinic
_space_group_IT_number           12
_space_group_name_Hall           '-C 2y'
_space_group_name_H-M_alt        'C 1 2/m 1'
_symmetry_space_group_name_Hall  '-C 2y'
_symmetry_space_group_name_H-M   'C 1 2/m 1'
_atom_sites_solution_hydrogens   difmap
_atom_sites_solution_primary     direct
_audit_creation_date             2017-03-07
_audit_creation_method
;
Olex2 1.2
(compiled 2017.03.02 svn.r3394 for OlexSys, GUI svn.r5324)
;
_audit_update_record
;
2017-03-08 deposited with the CCDC.
2017-03-09 downloaded from the CCDC.
;
_cell_angle_alpha                90
_cell_angle_beta                 126.176(5)
_cell_angle_gamma                90
_cell_formula_units_Z            4
_cell_length_a                   14.140(5)
_cell_length_b                   11.358(5)
_cell_length_c                   11.783(5)
_cell_measurement_reflns_used    2646
_cell_measurement_temperature    293(2)
_cell_measurement_theta_max      29.6057
_cell_measurement_theta_min      3.5804
_cell_volume                     1527.5(11)
_computing_data_collection
'CrysAlisPro, Agilent Technologies,Version 1.171.35.21 (release 20-01-2012 CrysAlis171 .NET)(compiled Jan 23 2012,18:06:46)'
_computing_molecular_graphics    'Olex2 (Dolomanov et al., 2009)'
_computing_publication_material  '(K. Brandenburg, Diamond 3.1, 2009)'
_computing_structure_refinement  'ShelXL (Sheldrick, 2015)'
_computing_structure_solution    'SHELXS-2016/6 (Sheldrick, 2015)'
_diffrn_ambient_temperature      293(2)
_diffrn_measured_fraction_theta_full 0.962
_diffrn_measured_fraction_theta_max 0.962
_diffrn_measurement_device_type  'multiwire proportional'
_diffrn_measurement_method       'phi and omega scans'
_diffrn_radiation_monochromator  graphite
_diffrn_radiation_type           MoK\a
_diffrn_radiation_wavelength     0.71069
_diffrn_reflns_av_R_equivalents  0.0142
_diffrn_reflns_av_unetI/netI     0.0184
_diffrn_reflns_Laue_measured_fraction_full 0.962
_diffrn_reflns_Laue_measured_fraction_max 0.962
_diffrn_reflns_limit_h_max       9
_diffrn_reflns_limit_h_min       -16
_diffrn_reflns_limit_k_max       13
_diffrn_reflns_limit_k_min       -13
_diffrn_reflns_limit_l_max       13
_diffrn_reflns_limit_l_min       -13
_diffrn_reflns_number            3035
_diffrn_reflns_point_group_measured_fraction_full 0.962
_diffrn_reflns_point_group_measured_fraction_max 0.962
_diffrn_reflns_theta_full        24.999
_diffrn_reflns_theta_max         24.999
_diffrn_reflns_theta_min         3.587
_exptl_absorpt_coefficient_mu    3.092
_exptl_absorpt_correction_T_max  0.610
_exptl_absorpt_correction_T_min  0.463
_exptl_absorpt_correction_type   multi-scan
_exptl_absorpt_process_details
;
CrysAlisPro, Agilent Technologies,
Version 1.171.35.21 (release 20-01-2012 CrysAlis171 .NET)
(compiled Jan 23 2012,18:06:46)
Empirical absorption correction using spherical harmonics,
 implemented in SCALE3 ABSPACK scaling algorithm.
;
_exptl_crystal_colour            colorless
_exptl_crystal_density_diffrn    2.306
_exptl_crystal_description       block
_exptl_crystal_F_000             1008
_exptl_crystal_size_max          0.27
_exptl_crystal_size_mid          0.21
_exptl_crystal_size_min          0.16
_refine_diff_density_max         1.267
_refine_diff_density_min         -0.989
_refine_diff_density_rms         0.096
_refine_ls_extinction_method     none
_refine_ls_goodness_of_fit_ref   1.096
_refine_ls_hydrogen_treatment    constr
_refine_ls_matrix_type           full
_refine_ls_number_parameters     135
_refine_ls_number_reflns         1374
_refine_ls_number_restraints     0
_refine_ls_restrained_S_all      1.096
_refine_ls_R_factor_all          0.0209
_refine_ls_R_factor_gt           0.0201
_refine_ls_shift/su_max          0.001
_refine_ls_shift/su_mean         0.000
_refine_ls_structure_factor_coef Fsqd
_refine_ls_weighting_details
'w=1/[\s^2^(Fo^2^)+(0.0303P)^2^+4.0347P] where P=(Fo^2^+2Fc^2^)/3'
_refine_ls_weighting_scheme      calc
_refine_ls_wR_factor_gt          0.0518
_refine_ls_wR_factor_ref         0.0521
_reflns_Friedel_coverage         0.000
_reflns_number_gt                1334
_reflns_number_total             1428
_reflns_threshold_expression     'I > 2\s(I)'
_cod_data_source_file            c7dt00215g2.cif
_cod_data_source_block           3-ce_sq
_cod_depositor_comments
'Adding full bibliography for 7042409--7042422.cif.'
_cod_database_code               7042419
_shelx_shelxl_version_number     2016/6
_shelx_space_group_comment
;
The symmetry employed for this shelxl refinement is uniquely defined
by the following loop, which should always be used as a source of
symmetry information in preference to the above space-group names.
They are only intended as comments.
;
_olex2_refinement_description
;
1. Fixed Uiso
 At 1.5 times of:
  All O(H,H) groups
2.a Rotating group:
 O3(H3A,H3B)
;
_shelx_res_file
;
TITL 123 in C2 C2/m
    3-ce_sq.res
    created by SHELXL-2016/6 at 13:26:32 on 07-Mar-2017
CELL 0.71069 14.14 11.358 11.783 90 126.176 90
ZERR 1 0.005 0.005 0.005 0 0.005 0
LATT 7
SYMM -X,+Y,-Z
SFAC C H Ce F O
UNIT 48 16 4 24 32

L.S. 5 0 4
PLAN  20
BOND $H
ABIN
fmap 2 53 53
acta
MERG 2
OMIT -3 50
REM <olex2.extras>
REM <HklSrc "%.\\3-ce_sq.hkl">
REM </olex2.extras>

WGHT    0.030300    4.034700
FVAR       0.09019
CE1   3    0.664235    0.500000    0.536080    10.50000    0.01810    0.01206 =
         0.01330    0.00000    0.01132    0.00000
F1    4    0.368187    0.705728    0.096774    11.00000    0.09878    0.03555 =
         0.04250   -0.00528    0.04974    0.00703
F2    4    0.357240    0.709013   -0.132842    11.00000    0.10911    0.02939 =
         0.04308    0.00415    0.05500    0.00016
O1    5    0.589958    0.303428    0.526621    11.00000    0.03315    0.01403 =
         0.06796    0.00299    0.03007   -0.00287
O2    5    0.338661    0.596598   -0.338445    11.00000    0.07160    0.03550 =
         0.02996    0.00977    0.03944    0.01617
O3    5    0.839925    0.636493    0.658297    11.00000    0.03218    0.04821 =
         0.04543   -0.01554    0.02350   -0.01337
AFIX   7
H3A   2    0.845125    0.671004    0.596637    11.00000   -1.50000
H3B   2    0.903756    0.597123    0.715416    11.00000   -1.50000
AFIX   0
O5    5    0.452291    0.500000    0.345554    10.50000    0.02479    0.04134 =
         0.01441    0.00000    0.01147    0.00000
O8    5    0.260875    0.500000    0.201286    10.50000    0.02262    0.10112 =
         0.01973    0.00000    0.01460    0.00000
C1    1    0.500000    0.256164    0.500000    10.50000    0.02814    0.01379 =
         0.03766    0.00000    0.01926    0.00000
C2    1    0.358678    0.500000    0.224097    10.50000    0.02454    0.03661 =
         0.01469    0.00000    0.01222    0.00000
C3    1    0.363461    0.500000    0.099099    10.50000    0.02122    0.03852 =
         0.01297    0.00000    0.01140    0.00000
C4    1    0.363351    0.603021    0.038298    11.00000    0.03656    0.03138 =
         0.02041   -0.00301    0.01770    0.00409
C5    1    0.358014    0.603800   -0.082502    11.00000    0.03450    0.03020 =
         0.02208    0.00454    0.01919    0.00083
C6    1    0.353002    0.500000   -0.149120    10.50000    0.02379    0.03281 =
         0.01442    0.00000    0.01263    0.00000
C8    1    0.500000    0.122826    0.500000    10.50000    0.02448    0.01107 =
         0.04111    0.00000    0.02172    0.00000
C9    1    0.551094    0.060261    0.622935    11.00000    0.02690    0.01860 =
         0.03234   -0.00474    0.01957   -0.00354
F3    4    0.600467    0.118230    0.744865    11.00000    0.04883    0.02772 =
         0.03795   -0.01104    0.02227   -0.00315
C11   1    0.341672    0.500000   -0.284772    10.50000    0.02381    0.03793 =
         0.01603    0.00000    0.01508    0.00000
HKLF 4




REM  123 in C2 C2/m
REM R1 =  0.0201 for    1334 Fo > 4sig(Fo)  and  0.0209 for all    1374 data
REM    135 parameters refined using      0 restraints

END

WGHT      0.0303      4.0348

REM Highest difference peak  1.267,  deepest hole -0.989,  1-sigma level  0.096
Q1    1   0.5835  0.5000  0.4567  10.50000  0.05    1.27
Q2    1   0.7478  0.5000  0.6128  10.50000  0.05    1.00
Q3    1   0.8350  0.7219  0.6791  11.00000  0.05    0.49
Q4    1   0.2687  0.5000  0.2931  10.50000  0.05    0.47
Q5    1   0.6884  0.5000  0.4754  10.50000  0.05    0.37
Q6    1   0.6135  0.5000  0.3836  10.50000  0.05    0.33
Q7    1   0.6346  0.5000  0.6026  10.50000  0.05    0.31
Q8    1   0.5000  0.1900  0.5000  10.50000  0.05    0.29
Q9    1   1.0300  0.5000  0.9262  10.50000  0.05    0.29
Q10   1   0.5012  0.5373  0.3941  11.00000  0.05    0.28
Q11   1   0.2763  0.5623 -0.3805  11.00000  0.05    0.27
Q12   1   0.1824  0.5000  0.0945  10.50000  0.05    0.26
Q13   1   0.5590  0.0000  0.8442  10.50000  0.05    0.26
Q14   1   0.5005  0.5000  0.3424  10.50000  0.05    0.24
Q15   1   0.3894  0.5422 -0.1056  11.00000  0.05    0.24
Q16   1   0.4484  0.0951  0.4340  11.00000  0.05    0.24
Q17   1   0.9994  0.5580  0.8202  11.00000  0.05    0.23
Q18   1   0.3607  0.5000 -0.2088  10.50000  0.05    0.23
Q19   1   0.2129  0.5000 -0.4787  10.50000  0.05    0.23
Q20   1   0.5932  0.0000  0.6430  10.50000  0.05    0.23
;
_shelx_res_checksum              92290
_shelx_fab_file
;
   -4    0    2     -3.08      0.00
   -6    0    3    -13.72      0.00
   -8    0    4     -9.38      0.00
  -10    0    5     -0.88      0.00
  -12    0    6      3.00      0.00
  -14    0    7      2.52      0.00
  -16    0    8      1.05      0.00
    0    2    0     24.53      0.00
   -2    2    1     14.96      0.00
   -4    2    2     -3.13      0.00
   -6    2    3    -12.08      0.00
   -8    2    4     -8.18      0.00
  -10    2    5     -0.71      0.00
  -12    2    6      2.84      0.00
  -14    2    7      2.55      0.00
  -16    2    8      1.15      0.00
    0    4    0     15.69      0.00
   -2    4    1      9.25      0.00
   -4    4    2     -2.78      0.00
   -6    4    3     -8.49      0.00
   -8    4    4     -5.65      0.00
  -10    4    5     -0.54      0.00
  -12    4    6      2.06      0.00
  -14    4    7      2.10      0.00
  -16    4    8      1.07      0.00
    0    6    0      9.04      0.00
   -2    6    1      5.21      0.00
   -4    6    2     -1.85      0.00
   -6    6    3     -5.02      0.00
   -8    6    4     -3.29      0.00
  -10    6    5     -0.46      0.00
  -12    6    6      0.94      0.00
  -14    6    7      1.05      0.00
    0    8    0      4.77      0.00
   -2    8    1      2.71      0.00
   -4    8    2     -1.00      0.00
   -6    8    3     -2.59      0.00
   -8    8    4     -1.70      0.00
  -10    8    5     -0.38      0.00
  -12    8    6      0.26      0.00
    0   10    0      2.14      0.00
   -2   10    1      1.21      0.00
   -4   10    2     -0.48      0.00
   -6   10    3     -1.26      0.00
   -8   10    4     -1.00      0.00
  -10   10    5     -0.46      0.00
    0   12    0      1.03      0.00
   -2   12    1      0.62      0.00
   -4   12    2     -0.14      0.00
   -6   12    3     -0.58      0.00
  -15    1    7     -1.90      0.00
  -13    1    6     -2.48      0.00
  -11    1    5     -0.08      0.00
   -9    1    4      6.45      0.00
   -7    1    3     11.77      0.00
   -5    1    2      5.74      0.00
   -3    1    1    -12.49      0.00
   -3    1    2     -0.66      0.00
   -5    1    3     13.73      0.00
   -7    1    4     11.91      0.00
   -9    1    5      2.42      0.00
  -11    1    6     -3.29      0.00
  -13    1    7     -3.31      0.00
  -15    1    8     -1.49      0.00
  -15    3    7     -1.92      0.00
  -13    3    6     -2.27      0.00
  -11    3    5     -0.10      0.00
   -9    3    4      5.09      0.00
   -7    3    3      9.20      0.00
   -5    3    2      4.76      0.00
   -3    3    1     -8.82      0.00
    1    3    0    -19.39      0.00
   -1    3    1    -14.80      0.00
   -3    3    2      0.54      0.00
   -5    3    3     10.91      0.00
   -7    3    4      9.06      0.00
   -9    3    5      1.71      0.00
  -11    3    6     -2.71      0.00
  -13    3    7     -2.94      0.00
  -15    3    8     -1.59      0.00
  -15    5    7     -1.27      0.00
  -13    5    6     -1.33      0.00
  -11    5    5      0.16      0.00
   -9    5    4      3.36      0.00
   -7    5    3      5.87      0.00
   -5    5    2      3.20      0.00
   -3    5    1     -5.15      0.00
    1    5    0    -11.62      0.00
   -1    5    1     -8.56      0.00
   -3    5    2      1.03      0.00
   -5    5    3      7.15      0.00
   -7    5    4      5.63      0.00
   -9    5    5      1.04      0.00
  -11    5    6     -1.63      0.00
  -13    5    7     -1.88      0.00
  -15    5    8     -1.15      0.00
  -13    7    6     -0.36      0.00
  -11    7    5      0.37      0.00
   -9    7    4      1.87      0.00
   -7    7    3      3.15      0.00
   -5    7    2      1.76      0.00
   -3    7    1     -2.84      0.00
    1    7    0     -6.50      0.00
   -1    7    1     -4.74      0.00
   -3    7    2      0.70      0.00
   -5    7    3      4.02      0.00
   -7    7    4      3.03      0.00
   -9    7    5      0.56      0.00
  -11    7    6     -0.74      0.00
  -13    7    7     -0.86      0.00
  -11    9    5      0.41      0.00
   -9    9    4      1.05      0.00
   -7    9    3      1.54      0.00
   -5    9    2      0.85      0.00
   -3    9    1     -1.34      0.00
    1    9    0     -3.13      0.00
   -1    9    1     -2.27      0.00
   -3    9    2      0.40      0.00
   -5    9    3      2.00      0.00
   -7    9    4      1.56      0.00
   -9    9    5      0.44      0.00
  -11    9    6     -0.21      0.00
   -9   11    4      0.72      0.00
   -7   11    3      0.81      0.00
   -5   11    2      0.38      0.00
   -3   11    1     -0.61      0.00
    1   11    0     -1.39      0.00
   -1   11    1     -1.04      0.00
   -3   11    2      0.13      0.00
   -5   11    3      0.91      0.00
   -7   11    4      0.90      0.00
   -9   11    5      0.52      0.00
   -3   13    1     -0.29      0.00
    1   13    0     -0.66      0.00
   -1   13    1     -0.56      0.00
   -3   13    2     -0.08      0.00
  -16    0    7      1.33      0.00
  -14    0    6      1.92      0.00
  -12    0    5      0.45      0.00
  -10    0    4     -4.52      0.00
   -8    0    3     -9.99      0.00
   -6    0    2     -7.21      0.00
   -4    0    1      8.21      0.00
   -4    0    3    -13.13      0.00
   -6    0    4    -15.06      0.00
   -8    0    5     -4.93      0.00
  -10    0    6      3.28      0.00
  -12    0    7      4.25      0.00
  -14    0    8      1.97      0.00
  -16    0    9      0.35      0.00
  -16    2    7      1.41      0.00
  -14    2    6      2.02      0.00
  -12    2    5      0.53      0.00
  -10    2    4     -4.05      0.00
   -8    2    3     -8.87      0.00
   -6    2    2     -6.44      0.00
   -4    2    1      6.88      0.00
    2    2    0     21.08      0.00
    0    2    1     20.41      0.00
   -2    2    2      3.80      0.00
   -4    2    3    -11.90      0.00
   -6    2    4    -13.08      0.00
   -8    2    5     -4.09      0.00
  -10    2    6      3.02      0.00
  -12    2    7      3.93      0.00
  -14    2    8      2.03      0.00
  -16    2    9      0.50      0.00
  -16    4    7      1.21      0.00
  -14    4    6      1.65      0.00
  -12    4    5      0.34      0.00
  -10    4    4     -3.06      0.00
   -8    4    3     -6.36      0.00
   -6    4    2     -4.60      0.00
   -4    4    1      4.42      0.00
    2    4    0     13.77      0.00
    0    4    1     12.81      0.00
   -2    4    2      1.32      0.00
   -4    4    3     -8.88      0.00
   -6    4    4     -8.94      0.00
   -8    4    5     -2.53      0.00
  -10    4    6      2.20      0.00
  -12    4    7      2.87      0.00
  -14    4    8      1.75      0.00
  -14    6    6      0.65      0.00
  -12    6    5     -0.18      0.00
  -10    6    4     -2.00      0.00
   -8    6    3     -3.72      0.00
   -6    6    2     -2.66      0.00
   -4    6    1      2.58      0.00
    2    6    0      8.03      0.00
    0    6    1      7.30      0.00
   -2    6    2      0.36      0.00
   -4    6    3     -5.51      0.00
   -6    6    4     -5.19      0.00
   -8    6    5     -1.32      0.00
  -10    6    6      1.28      0.00
  -12    6    7      1.59      0.00
  -14    6    8      1.01      0.00
  -12    8    5     -0.41      0.00
  -10    8    4     -1.15      0.00
   -8    8    3     -1.82      0.00
   -6    8    2     -1.26      0.00
   -4    8    1      1.36      0.00
    2    8    0      4.20      0.00
    0    8    1      3.83      0.00
   -2    8    2      0.13      0.00
   -4    8    3     -2.94      0.00
   -6    8    4     -2.69      0.00
   -8    8    5     -0.66      0.00
  -10    8    6      0.64      0.00
  -12    8    7      0.81      0.00
  -10   10    4     -0.75      0.00
   -8   10    3     -0.95      0.00
   -6   10    2     -0.58      0.00
   -4   10    1      0.61      0.00
    2   10    0      1.86      0.00
    0   10    1      1.69      0.00
   -2   10    2      0.02      0.00
   -4   10    3     -1.39      0.00
   -6   10    4     -1.37      0.00
   -8   10    5     -0.56      0.00
  -10   10    6      0.06      0.00
   -6   12    2     -0.29      0.00
   -4   12    1      0.27      0.00
    2   12    0      0.86      0.00
    0   12    1      0.85      0.00
   -2   12    2      0.16      0.00
   -4   12    3     -0.52      0.00
   -6   12    4     -0.68      0.00
  -15    1    6     -1.49      0.00
  -13    1    5     -0.59      0.00
  -11    1    4      2.95      0.00
   -9    1    3      7.57      0.00
   -7    1    2      7.08      0.00
   -5    1    1     -4.00      0.00
    3    1    0    -19.66      0.00
    1    1    1    -23.67      0.00
   -1    1    2     -8.96      0.00
   -5    1    4     16.38      0.00
   -7    1    5      7.49      0.00
   -9    1    6     -2.55      0.00
  -11    1    7     -5.05      0.00
  -13    1    8     -2.67      0.00
  -15    1    9     -0.50      0.00
  -15    3    6     -1.56      0.00
  -13    3    5     -0.72      0.00
  -11    3    4      2.42      0.00
   -9    3    3      6.17      0.00
   -7    3    2      5.67      0.00
   -5    3    1     -2.94      0.00
    3    3    0    -14.65      0.00
    1    3    1    -17.07      0.00
   -1    3    2     -5.38      0.00
   -3    3    3      9.17      0.00
   -5    3    4     12.69      0.00
   -7    3    5      5.33      0.00
   -9    3    6     -2.27      0.00
  -11    3    7     -4.06      0.00
  -13    3    8     -2.38      0.00
  -15    3    9     -0.75      0.00
  -15    5    6     -0.95      0.00
  -13    5    5     -0.27      0.00
  -11    5    4      1.84      0.00
   -9    5    3      4.13      0.00
   -7    5    2      3.63      0.00
   -5    5    1     -1.87      0.00
    3    5    0     -9.11      0.00
    1    5    1    -10.21      0.00
   -1    5    2     -2.47      0.00
   -3    5    3      6.52      0.00
   -5    5    4      8.06      0.00
   -7    5    5      3.01      0.00
   -9    5    6     -1.63      0.00
  -11    5    7     -2.56      0.00
  -13    5    8     -1.60      0.00
  -15    5    9     -0.66      0.00
  -13    7    5      0.30      0.00
  -11    7    4      1.26      0.00
   -9    7    3      2.19      0.00
   -7    7    2      1.80      0.00
   -5    7    1     -1.16      0.00
    3    7    0     -5.11      0.00
    1    7    1     -5.68      0.00
   -1    7    2     -1.26      0.00
   -3    7    3      3.79      0.00
   -5    7    4      4.46      0.00
   -7    7    5      1.49      0.00
   -9    7    6     -1.04      0.00
  -11    7    7     -1.46      0.00
  -13    7    8     -0.92      0.00
  -11    9    4      0.79      0.00
   -9    9    3      1.06      0.00
   -7    9    2      0.75      0.00
   -5    9    1     -0.62      0.00
    3    9    0     -2.43      0.00
    1    9    1     -2.68      0.00
   -1    9    2     -0.53      0.00
   -3    9    3      1.93      0.00
   -5    9    4      2.23      0.00
   -7    9    5      0.79      0.00
   -9    9    6     -0.43      0.00
  -11    9    7     -0.75      0.00
   -9   11    3      0.62      0.00
   -7   11    2      0.40      0.00
   -5   11    1     -0.25      0.00
    3   11    0     -1.05      0.00
    1   11    1     -1.19      0.00
   -1   11    2     -0.28      0.00
   -3   11    3      0.82      0.00
   -5   11    4      1.09      0.00
   -7   11    5      0.63      0.00
   -9   11    6      0.13      0.00
    3   13    0     -0.41      0.00
    1   13    1     -0.59      0.00
   -1   13    2     -0.33      0.00
   -3   13    3      0.16      0.00
  -16    0    6      1.04      0.00
  -14    0    5      0.48      0.00
  -12    0    4     -2.11      0.00
  -10    0    3     -5.89      0.00
   -8    0    2     -6.53      0.00
   -6    0    1      1.40      0.00
    4    0    0     15.74      0.00
    2    0    1     23.09      0.00
    0    0    2     12.66      0.00
   -6    0    5    -10.85      0.00
   -8    0    6      1.12      0.00
  -10    0    7      5.91      0.00
  -12    0    8      3.63      0.00
  -14    0    9      0.62      0.00
  -16    0   10     -0.36      0.00
  -16    2    6      1.14      0.00
  -14    2    5      0.71      0.00
  -12    2    4     -1.79      0.00
  -10    2    3     -5.36      0.00
   -8    2    2     -5.93      0.00
   -6    2    1      1.16      0.00
    4    2    0     13.63      0.00
    2    2    1     19.65      0.00
    0    2    2     10.11      0.00
   -2    2    3     -7.34      0.00
   -4    2    4    -15.61      0.00
   -6    2    5     -9.18      0.00
   -8    2    6      1.29      0.00
  -10    2    7      5.28      0.00
  -12    2    8      3.30      0.00
  -14    2    9      0.77      0.00
  -16    2   10     -0.18      0.00
  -14    4    5      0.68      0.00
  -12    4    4     -1.36      0.00
  -10    4    3     -4.09      0.00
   -8    4    2     -4.39      0.00
   -6    4    1      0.78      0.00
    4    4    0      9.36      0.00
    2    4    1     12.96      0.00
    0    4    2      5.70      0.00
   -2    4    3     -6.32      0.00
   -4    4    4    -11.13      0.00
   -6    4    5     -5.86      0.00
   -8    4    6      1.36      0.00
  -10    4    7      3.74      0.00
  -12    4    8      2.36      0.00
  -14    4    9      0.81      0.00
  -14    6    5      0.04      0.00
  -12    6    4     -1.14      0.00
  -10    6    3     -2.53      0.00
   -8    6    2     -2.48      0.00
   -6    6    1      0.63      0.00
    4    6    0      5.63      0.00
    2    6    1      7.58      0.00
    0    6    2      3.02      0.00
   -2    6    3     -4.17      0.00
   -4    6    4     -6.67      0.00
   -6    6    5     -3.16      0.00
   -8    6    6      1.12      0.00
  -10    6    7      2.30      0.00
  -12    6    8      1.43      0.00
  -14    6    9      0.56      0.00
  -12    8    4     -0.84      0.00
  -10    8    3     -1.26      0.00
   -8    8    2     -1.01      0.00
   -6    8    1      0.54      0.00
    4    8    0      2.96      0.00
    2    8    1      3.90      0.00
    0    8    2      1.51      0.00
   -2    8    3     -2.26      0.00
   -4    8    4     -3.51      0.00
   -6    8    5     -1.56      0.00
   -8    8    6      0.72      0.00
  -10    8    7      1.36      0.00
  -12    8    8      0.95      0.00
  -10   10    3     -0.67      0.00
   -8   10    2     -0.45      0.00
   -6   10    1      0.30      0.00
    4   10    0      1.32      0.00
    2   10    1      1.69      0.00
    0   10    2      0.60      0.00
   -2   10    3     -1.11      0.00
   -4   10    4     -1.70      0.00
   -6   10    5     -0.89      0.00
   -8   10    6      0.11      0.00
  -10   10    7      0.52      0.00
    4   12    0      0.52      0.00
    2   12    1      0.78      0.00
    0   12    2      0.42      0.00
   -2   12    3     -0.32      0.00
   -4   12    4     -0.73      0.00
   -6   12    5     -0.58      0.00
  -15    1    5     -0.48      0.00
  -13    1    4      1.40      0.00
  -11    1    3      4.37      0.00
   -9    1    2      5.39      0.00
   -7    1    1      0.21      0.00
    5    1    0    -11.11      0.00
    3    1    1    -19.38      0.00
    1    1    2    -13.52      0.00
   -1    1    3      3.98      0.00
   -3    1    4     16.46      0.00
   -5    1    5     12.93      0.00
   -7    1    6      0.86      0.00
   -9    1    7     -6.03      0.00
  -11    1    8     -4.60      0.00
  -13    1    9     -0.99      0.00
  -15    1   10      0.50      0.00
  -15    3    5     -0.74      0.00
  -13    3    4      0.89      0.00
  -11    3    3      3.61      0.00
   -9    3    2      4.57      0.00
   -7    3    1      0.33      0.00
    5    3    0     -8.61      0.00
    3    3    1    -14.61      0.00
    1    3    2     -9.33      0.00
   -1    3    3      4.44      0.00
   -3    3    4     13.35      0.00
   -5    3    5      9.62      0.00
   -7    3    6      0.04      0.00
   -9    3    7     -4.86      0.00
  -11    3    8     -3.53      0.00
  -13    3    9     -0.94      0.00
  -15    3   10      0.14      0.00
  -15    5    5     -0.41      0.00
  -13    5    4      0.73      0.00
  -11    5    3      2.56      0.00
   -9    5    2      3.08      0.00
   -7    5    1      0.18      0.00
    5    5    0     -5.60      0.00
    3    5    1     -9.18      0.00
    1    5    2     -5.32      0.00
   -1    5    3      3.68      0.00
   -3    5    4      8.88      0.00
   -5    5    5      5.75      0.00
   -7    5    6     -0.53      0.00
   -9    5    7     -3.26      0.00
  -11    5    8     -2.20      0.00
  -13    5    9     -0.68      0.00
  -15    5   10     -0.06      0.00
  -13    7    4      0.75      0.00
  -11    7    3      1.48      0.00
   -9    7    2      1.45      0.00
   -7    7    1     -0.21      0.00
    5    7    0     -3.25      0.00
    3    7    1     -5.10      0.00
    1    7    2     -2.88      0.00
   -1    7    3      2.19      0.00
   -3    7    4      4.99      0.00
   -5    7    5      3.01      0.00
   -7    7    6     -0.61      0.00
   -9    7    7     -2.07      0.00
  -11    7    8     -1.43      0.00
  -13    7    9     -0.55      0.00
  -11    9    3      0.74      0.00
   -9    9    2      0.53      0.00
   -7    9    1     -0.33      0.00
    5    9    0     -1.64      0.00
    3    9    1     -2.38      0.00
    1    9    2     -1.25      0.00
   -1    9    3      1.20      0.00
   -3    9    4      2.52      0.00
   -5    9    5      1.51      0.00
   -7    9    6     -0.29      0.00
   -9    9    7     -1.09      0.00
  -11    9    8     -0.92      0.00
   -9   11    2      0.30      0.00
   -7   11    1     -0.11      0.00
    5   11    0     -0.69      0.00
    3   11    1     -1.01      0.00
    1   11    2     -0.55      0.00
   -1   11    3      0.51      0.00
   -3   11    4      1.17      0.00
   -5   11    5      0.87      0.00
   -7   11    6      0.18      0.00
    1   13    2     -0.40      0.00
   -1   13    3     -0.04      0.00
  -16    0    5      0.33      0.00
  -14    0    4     -1.07      0.00
  -12    0    3     -3.48      0.00
  -10    0    2     -4.53      0.00
   -8    0    1     -0.92      0.00
    6    0    0      8.18      0.00
    4    0    1     16.66      0.00
    2    0    2     14.27      0.00
    0    0    3     -0.65      0.00
   -2    0    4    -15.08      0.00
   -6    0    6     -3.53      0.00
   -8    0    7      5.84      0.00
  -10    0    8      5.89      0.00
  -12    0    9      1.61      0.00
  -14    0   10     -0.77      0.00
  -16    2    5      0.50      0.00
  -14    2    4     -0.68      0.00
  -12    2    3     -3.04      0.00
  -10    2    2     -4.21      0.00
   -8    2    1     -1.00      0.00
    6    2    0      7.16      0.00
    4    2    1     14.52      0.00
    2    2    2     12.01      0.00
    0    2    3     -1.40      0.00
   -2    2    4    -13.78      0.00
   -4    2    5    -13.21      0.00
   -6    2    6     -2.65      0.00
   -8    2    7      5.33      0.00
  -10    2    8      5.09      0.00
  -12    2    9      1.40      0.00
  -14    2   10     -0.53      0.00
  -14    4    4     -0.28      0.00
  -12    4    3     -2.21      0.00
  -10    4    2     -3.29      0.00
   -8    4    1     -0.94      0.00
    6    4    0      5.02      0.00
    4    4    1     10.07      0.00
    2    4    2      7.73      0.00
    0    4    3     -2.10      0.00
   -2    4    4    -10.35      0.00
   -4    4    5     -8.95      0.00
   -6    4    6     -1.10      0.00
   -8    4    7      4.06      0.00
  -10    4    8      3.39      0.00
  -12    4    9      0.91      0.00
  -14    4   10     -0.19      0.00
  -14    6    4     -0.42      0.00
  -12    6    3     -1.48      0.00
  -10    6    2     -1.92      0.00
   -8    6    1     -0.39      0.00
    6    6    0      3.14      0.00
    4    6    1      6.01      0.00
    2    6    2      4.43      0.00
    0    6    3     -1.57      0.00
   -2    6    4     -6.34      0.00
   -4    6    5     -5.08      0.00
   -6    6    6     -0.15      0.00
   -8    6    7      2.74      0.00
  -10    6    8      2.11      0.00
  -12    6    9      0.62      0.00
  -14    6   10     -0.02      0.00
  -12    8    3     -0.83      0.00
  -10    8    2     -0.76      0.00
   -8    8    1      0.18      0.00
    6    8    0      1.84      0.00
    4    8    1      3.09      0.00
    2    8    2      2.18      0.00
    0    8    3     -0.94      0.00
   -2    8    4     -3.36      0.00
   -4    8    5     -2.58      0.00
   -6    8    6      0.11      0.00
   -8    8    7      1.69      0.00
  -10    8    8      1.42      0.00
  -12    8    9      0.66      0.00
  -10   10    2     -0.31      0.00
   -8   10    1      0.19      0.00
    6   10    0      0.92      0.00
    4   10    1      1.37      0.00
    2   10    2      0.87      0.00
    0   10    3     -0.57      0.00
   -2   10    4     -1.69      0.00
   -4   10    5     -1.35      0.00
   -6   10    6     -0.14      0.00
   -8   10    7      0.64      0.00
  -10   10    8      0.69      0.00
    4   12    1      0.53      0.00
    2   12    2      0.45      0.00
    0   12    3     -0.08      0.00
   -2   12    4     -0.66      0.00
   -4   12    5     -0.72      0.00
   -6   12    6     -0.34      0.00
  -15    1    4      0.59      0.00
  -13    1    3      2.56      0.00
  -11    1    2      3.71      0.00
   -9    1    1      1.27      0.00
    7    1    0     -5.59      0.00
    5    1    1    -12.90      0.00
    3    1    2    -12.72      0.00
    1    1    3     -1.46      0.00
   -1    1    4     12.34      0.00
   -3    1    5     15.34      0.00
   -7    1    7     -4.74      0.00
   -9    1    8     -6.58      0.00
  -11    1    9     -2.40      0.00
  -13    1   10      0.78      0.00
  -15    1   11      1.03      0.00
  -15    3    4      0.10      0.00
  -13    3    3      1.79      0.00
  -11    3    2      3.10      0.00
   -9    3    1      1.35      0.00
    7    3    0     -4.21      0.00
    5    3    1    -10.03      0.00
    3    3    2     -9.51      0.00
    1    3    3     -0.20      0.00
   -1    3    4     10.46      0.00
   -3    3    5     11.94      0.00
   -5    3    6      3.77      0.00
   -7    3    7     -4.15      0.00
   -9    3    8     -4.96      0.00
  -11    3    9     -1.59      0.00
  -13    3   10      0.56      0.00
  -15    3   11      0.65      0.00
  -13    5    3      1.17      0.00
  -11    5    2      2.11      0.00
   -9    5    1      0.99      0.00
    7    5    0     -2.68      0.00
    5    5    1     -6.44      0.00
    3    5    2     -5.88      0.00
    1    5    3      0.40      0.00
   -1    5    4      7.15      0.00
   -3    5    5      7.49      0.00
   -5    5    6      1.74      0.00
   -7    5    7     -3.14      0.00
   -9    5    8     -3.14      0.00
  -11    5    9     -0.86      0.00
  -13    5   10      0.32      0.00
  -13    7    3      0.79      0.00
  -11    7    2      1.04      0.00
   -9    7    1      0.22      0.00
    7    7    0     -1.74      0.00
    5    7    1     -3.60      0.00
    3    7    2     -3.16      0.00
    1    7    3      0.34      0.00
   -1    7    4      4.02      0.00
   -3    7    5      4.02      0.00
   -5    7    6      0.61      0.00
   -7    7    7     -2.14      0.00
   -9    7    8     -2.06      0.00
  -11    7    9     -0.76      0.00
  -13    7   10     -0.02      0.00
  -11    9    2      0.37      0.00
   -9    9    1     -0.18      0.00
    7    9    0     -1.10      0.00
    5    9    1     -1.79      0.00
    3    9    2     -1.39      0.00
    1    9    3      0.36      0.00
   -1    9    4      2.12      0.00
   -3    9    5      2.06      0.00
   -5    9    6      0.32      0.00
   -7    9    7     -1.10      0.00
   -9    9    8     -1.20      0.00
  -11    9    9     -0.70      0.00
    7   11    0     -0.46      0.00
    3   11    2     -0.59      0.00
    1   11    3      0.17      0.00
   -1   11    4      1.01      0.00
   -3   11    5      1.11      0.00
   -5   11    6      0.45      0.00
   -7   11    7     -0.20      0.00
  -14    0    3     -2.02      0.00
  -12    0    2     -3.23      0.00
  -10    0    1     -1.46      0.00
    8    0    0      4.12      0.00
    6    0    1     10.56      0.00
    4    0    2     11.64      0.00
    2    0    3      3.15      0.00
    0    0    4     -9.88      0.00
   -2    0    5    -15.41      0.00
   -8    0    8      7.34      0.00
  -10    0    9      3.64      0.00
  -12    0   10     -0.64      0.00
  -14    0   11     -1.51      0.00
  -14    2    3     -1.52      0.00
  -12    2    2     -2.81      0.00
  -10    2    1     -1.49      0.00
    8    2    0      3.45      0.00
    6    2    1      9.26      0.00
    4    2    2     10.12      0.00
    2    2    3      2.34      0.00
    0    2    4     -9.22      0.00
   -2    2    5    -13.69      0.00
   -4    2    6     -6.82      0.00
   -8    2    8      6.39      0.00
  -10    2    9      2.91      0.00
  -12    2   10     -0.65      0.00
  -14    2   11     -1.23      0.00
  -14    4    3     -0.78      0.00
  -12    4    2     -1.96      0.00
  -10    4    1     -1.31      0.00
    8    4    0      2.17      0.00
    6    4    1      6.41      0.00
    4    4    2      6.92      0.00
    2    4    3      1.09      0.00
    0    4    4     -7.12      0.00
   -2    4    5     -9.67      0.00
   -4    4    6     -4.11      0.00
   -6    4    7      2.87      0.00
   -8    4    8      4.42      0.00
  -10    4    9      1.60      0.00
  -12    4   10     -0.63      0.00
  -14    4   11     -0.76      0.00
  -12    6    2     -1.13      0.00
  -10    6    1     -0.68      0.00
    8    6    0      1.37      0.00
    6    6    1      3.79      0.00
    4    6    2      3.99      0.00
    2    6    3      0.46      0.00
    0    6    4     -4.36      0.00
   -2    6    5     -5.59      0.00
   -4    6    6     -1.93      0.00
   -6    6    7      2.24      0.00
   -8    6    8      2.87      0.00
  -10    6    9      1.00      0.00
  -12    6   10     -0.30      0.00
  -12    8    2     -0.48      0.00
  -10    8    1     -0.03      0.00
    8    8    0      1.05      0.00
    6    8    1      2.07      0.00
    4    8    2      1.95      0.00
    2    8    3      0.07      0.00
    0    8    4     -2.37      0.00
   -2    8    5     -2.90      0.00
   -4    8    6     -0.86      0.00
   -6    8    7      1.41      0.00
   -8    8    8      1.81      0.00
  -10    8    9      0.91      0.00
  -12    8   10      0.19      0.00
    8   10    0      0.62      0.00
    6   10    1      1.03      0.00
    4   10    2      0.85      0.00
    2   10    3     -0.10      0.00
    0   10    4     -1.27      0.00
   -2   10    5     -1.56      0.00
   -4   10    6     -0.64      0.00
   -6   10    7      0.46      0.00
   -8   10    8      0.78      0.00
    4   12    2      0.34      0.00
    2   12    3      0.05      0.00
    0   12    4     -0.46      0.00
   -2   12    5     -0.77      0.00
   -4   12    6     -0.55      0.00
  -15    1    3      1.25      0.00
  -13    1    2      2.56      0.00
  -11    1    1      1.65      0.00
    9    1    0     -2.65      0.00
    7    1    1     -8.06      0.00
    5    1    2     -9.65      0.00
    3    1    3     -3.64      0.00
    1    1    4      7.28      0.00
   -1    1    5     13.74      0.00
   -3    1    6      9.17      0.00
   -7    1    8     -7.06      0.00
   -9    1    9     -4.51      0.00
  -11    1   10      0.20      0.00
  -13    1   11      1.79      0.00
  -15    1   12      0.94      0.00
  -15    3    3      0.58      0.00
  -13    3    2      1.74      0.00
  -11    3    1      1.42      0.00
    9    3    0     -1.76      0.00
    7    3    1     -6.12      0.00
    5    3    2     -7.42      0.00
    3    3    3     -2.48      0.00
    1    3    4      6.26      0.00
   -1    3    5     10.97      0.00
   -3    3    6      6.72      0.00
   -5    3    7     -1.71      0.00
   -7    3    8     -5.52      0.00
   -9    3    9     -2.97      0.00
  -11    3   10      0.56      0.00
  -13    3   11      1.36      0.00
  -13    5    2      0.97      0.00
  -11    5    1      0.93      0.00
    9    5    0     -0.97      0.00
    7    5    1     -3.73      0.00
    5    5    2     -4.57      0.00
    3    5    3     -1.33      0.00
    1    5    4      4.29      0.00
   -1    5    5      7.00      0.00
   -3    5    6      3.75      0.00
   -5    5    7     -1.78      0.00
   -7    5    8     -3.75      0.00
   -9    5    9     -1.64      0.00
  -11    5   10      0.58      0.00
  -13    5   11      0.87      0.00
  -11    7    1      0.31      0.00
    9    7    0     -0.76      0.00
    7    7    1     -2.12      0.00
    5    7    2     -2.38      0.00
    3    7    3     -0.56      0.00
    1    7    4      2.43      0.00
   -1    7    5      3.77      0.00
   -3    7    6      1.77      0.00
   -5    7    7     -1.41      0.00
   -7    7    8     -2.46      0.00
   -9    7    9     -1.21      0.00
  -11    7   10      0.07      0.00
    9    9    0     -0.63      0.00
    7    9    1     -1.21      0.00
    5    9    2     -1.15      0.00
    3    9    3     -0.13      0.00
    1    9    4      1.37      0.00
   -1    9    5      2.00      0.00
   -3    9    6      0.98      0.00
   -5    9    7     -0.66      0.00
   -7    9    8     -1.29      0.00
   -9    9    9     -0.84      0.00
    3   11    3     -0.06      0.00
    1   11    4      0.66      0.00
   -1   11    5      1.10      0.00
   -3   11    6      0.78      0.00
   -5   11    7      0.06      0.00
   -7   11    8     -0.35      0.00
  -14    0    2     -2.10      0.00
  -12    0    1     -1.83      0.00
   10    0    0      1.64      0.00
    8    0    1      6.55      0.00
    6    0    2      8.52      0.00
    4    0    3      4.08      0.00
    2    0    4     -5.30      0.00
    0    0    5    -12.35      0.00
   -2    0    6    -10.10      0.00
   -8    0    9      5.69      0.00
  -10    0   10      0.65      0.00
  -12    0   11     -2.02      0.00
  -14    2    2     -1.58      0.00
  -12    2    1     -1.55      0.00
   10    2    0      1.30      0.00
    8    2    1      5.62      0.00
    6    2    2      7.42      0.00
    4    2    3      3.45      0.00
    2    2    4     -4.94      0.00
    0    2    5    -11.07      0.00
   -2    2    6     -8.74      0.00
   -4    2    7     -0.11      0.00
   -8    2    9      4.64      0.00
  -10    2   10      0.17      0.00
  -12    2   11     -1.85      0.00
  -14    2   12     -1.16      0.00
  -14    4    2     -0.74      0.00
  -12    4    1     -0.98      0.00
   10    4    0      0.69      0.00
    8    4    1      3.63      0.00
    6    4    2      4.96      0.00
    4    4    3      2.16      0.00
    2    4    4     -3.81      0.00
    0    4    5     -7.91      0.00
   -2    4    6     -5.72      0.00
   -4    4    7      0.63      0.00
   -6    4    8      4.40      0.00
   -8    4    9      2.78      0.00
  -10    4   10     -0.46      0.00
  -12    4   11     -1.45      0.00
  -14    4   12     -0.72      0.00
  -12    6    1     -0.45      0.00
   10    6    0      0.44      0.00
    8    6    1      2.01      0.00
    6    6    2      2.67      0.00
    4    6    3      1.02      0.00
    2    6    4     -2.37      0.00
    0    6    5     -4.56      0.00
   -2    6    6     -2.96      0.00
   -4    6    7      0.97      0.00
   -6    6    8      3.04      0.00
   -8    6    9      1.76      0.00
  -10    6   10     -0.28      0.00
  -12    6   11     -0.83      0.00
   10    8    0      0.46      0.00
    8    8    1      1.20      0.00
    6    8    2      1.34      0.00
    4    8    3      0.36      0.00
    2    8    4     -1.35      0.00
    0    8    5     -2.39      0.00
   -2    8    6     -1.47      0.00
   -4    8    7      0.67      0.00
   -6    8    8      1.82      0.00
   -8    8    9      1.22      0.00
  -10    8   10      0.21      0.00
    8   10    1      0.66      0.00
    4   10    3      0.16      0.00
    2   10    4     -0.73      0.00
    0   10    5     -1.34      0.00
   -2   10    6     -1.00      0.00
   -4   10    7      0.00      0.00
   -6   10    8      0.66      0.00
   -8   10    9      0.57      0.00
    2   12    4     -0.25      0.00
    0   12    5     -0.62      0.00
   -2   12    6     -0.69      0.00
  -13    1    1      1.68      0.00
   11    1    0     -0.58      0.00
    9    1    1     -4.75      0.00
    7    1    2     -7.00      0.00
    5    1    3     -3.98      0.00
    3    1    4      3.54      0.00
    1    1    5     10.12      0.00
   -1    1    6      9.58      0.00
   -3    1    7      1.90      0.00
   -9    1   10     -1.40      0.00
  -11    1   11      1.91      0.00
  -13    1   12      1.76      0.00
  -13    3    1      1.03      0.00
   11    3    0     -0.40      0.00
    9    3    1     -3.46      0.00
    7    3    2     -5.23      0.00
    5    3    3     -2.91      0.00
    3    3    4      3.04      0.00
    1    3    5      8.10      0.00
   -1    3    6      7.29      0.00
   -3    3    7      0.97      0.00
   -5    3    8     -4.50      0.00
   -9    3   10     -0.34      0.00
  -11    3   11      1.83      0.00
  -13    3   12      1.27      0.00
  -13    5    1      0.42      0.00
   11    5    0     -0.23      0.00
    9    5    1     -1.92      0.00
    7    5    2     -2.95      0.00
    5    5    3     -1.50      0.00
    3    5    4      2.17      0.00
    1    5    5      5.16      0.00
   -1    5    6      4.27      0.00
   -3    5    7     -0.04      0.00
   -5    5    8     -3.34      0.00
   -7    5    9     -2.57      0.00
   -9    5   10      0.16      0.00
  -11    5   11      1.36      0.00
  -13    5   12      0.80      0.00
   11    7    0     -0.24      0.00
    9    7    1     -1.05      0.00
    7    7    2     -1.42      0.00
    5    7    3     -0.54      0.00
    3    7    4      1.35      0.00
    1    7    5      2.78      0.00
   -1    7    6      2.10      0.00
   -3    7    7     -0.41      0.00
   -5    7    8     -2.25      0.00
   -7    7    9     -1.75      0.00
   -9    7   10     -0.16      0.00
  -11    7   11      0.57      0.00
    9    9    1     -0.64      0.00
    7    9    2     -0.77      0.00
    5    9    3     -0.25      0.00
    3    9    4      0.74      0.00
    1    9    5      1.48      0.00
   -1    9    6      1.20      0.00
   -3    9    7     -0.04      0.00
   -5    9    8     -1.04      0.00
   -7    9    9     -0.94      0.00
   -9    9   10     -0.30      0.00
    3   11    4      0.31      0.00
    1   11    5      0.79      0.00
   -1   11    6      0.87      0.00
   -3   11    7      0.42      0.00
   -5   11    8     -0.13      0.00
  -14    0    1     -1.52      0.00
   12    0    0     -0.20      0.00
   10    0    1      3.43      0.00
    8    0    2      6.08      0.00
    6    0    3      4.14      0.00
    4    0    4     -2.21      0.00
    2    0    5     -8.49      0.00
    0    0    6     -9.19      0.00
   -2    0    7     -3.10      0.00
   -4    0    8      4.35      0.00
  -10    0   11     -1.51      0.00
  -12    0   12     -2.14      0.00
  -14    2    1     -1.09      0.00
   12    2    0     -0.08      0.00
   10    2    1      2.94      0.00
    8    2    2      5.23      0.00
    6    2    3      3.54      0.00
    4    2    4     -2.07      0.00
    2    2    5     -7.59      0.00
    0    2    6     -8.05      0.00
   -2    2    7     -2.50      0.00
   -4    2    8      3.97      0.00
   -8    2   10      1.68      0.00
  -10    2   11     -1.69      0.00
  -12    2   12     -1.86      0.00
   12    4    0      0.07      0.00
   10    4    1      1.85      0.00
    8    4    2      3.28      0.00
    6    4    3      2.11      0.00
    4    4    4     -1.73      0.00
    2    4    5     -5.43      0.00
    0    4    6     -5.42      0.00
   -2    4    7     -1.20      0.00
   -4    4    8      3.21      0.00
   -6    4    9      3.50      0.00
  -10    4   11     -1.68      0.00
  -12    4   12     -1.32      0.00
   12    6    0      0.11      0.00
   10    6    1      0.93      0.00
    8    6    2      1.54      0.00
    6    6    3      0.78      0.00
    4    6    4     -1.31      0.00
    2    6    5     -3.17      0.00
    0    6    6     -2.87      0.00
   -2    6    7     -0.18      0.00
   -4    6    8      2.42      0.00
   -6    6    9      2.35      0.00
   -8    6   10      0.32      0.00
  -10    6   11     -1.00      0.00
  -12    6   12     -0.79      0.00
   10    8    1      0.50      0.00
    8    8    2      0.73      0.00
    6    8    3      0.25      0.00
    4    8    4     -0.80      0.00
    2    8    5     -1.66      0.00
    0    8    6     -1.44      0.00
   -2    8    7     -0.01      0.00
   -4    8    8      1.40      0.00
   -6    8    9      1.44      0.00
   -8    8   10      0.44      0.00
  -10    8   11     -0.26      0.00
    4   10    4     -0.32      0.00
    2   10    5     -0.86      0.00
    0   10    6     -0.95      0.00
   -2   10    7     -0.40      0.00
   -4   10    8      0.31      0.00
   -6   10    9      0.50      0.00
   13    1    0      0.59      0.00
   11    1    1     -1.99      0.00
    9    1    2     -4.69      0.00
    7    1    3     -3.91      0.00
    5    1    4      1.01      0.00
    3    1    5      6.53      0.00
    1    1    6      7.90      0.00
   -1    1    7      3.49      0.00
   -3    1    8     -3.04      0.00
   -5    1    9     -5.76      0.00
   -9    1   11      1.02      0.00
  -11    1   12      2.20      0.00
  -13    1   13      1.07      0.00
   13    3    0      0.19      0.00
   11    3    1     -1.54      0.00
    9    3    2     -3.46      0.00
    7    3    3     -2.81      0.00
    5    3    4      1.00      0.00
    3    3    5      5.23      0.00
    1    3    6      6.11      0.00
   -1    3    7      2.40      0.00
   -3    3    8     -2.66      0.00
   -5    3    9     -4.27      0.00
   -9    3   11      1.49      0.00
  -11    3   12      1.85      0.00
  -13    3   13      0.61      0.00
   11    5    1     -0.86      0.00
    9    5    2     -1.79      0.00
    7    5    3     -1.26      0.00
    5    5    4      1.05      0.00
    3    5    5      3.45      0.00
    1    5    6      3.66      0.00
   -1    5    7      1.02      0.00
   -3    5    8     -2.23      0.00
   -5    5    9     -2.90      0.00
   -9    5   11      1.27      0.00
  -11    5   12      1.26      0.00
    9    7    2     -0.70      0.00
    7    7    3     -0.29      0.00
    5    7    4      0.88      0.00
    3    7    5      1.93      0.00
    1    7    6      1.81      0.00
   -1    7    7      0.25      0.00
   -3    7    8     -1.59      0.00
   -5    7    9     -1.95      0.00
   -9    7   11      0.48      0.00
    7    9    3     -0.16      0.00
    5    9    4      0.41      0.00
    3    9    5      0.94      0.00
    1    9    6      0.97      0.00
   -1    9    7      0.32      0.00
   -3    9    8     -0.58      0.00
   -5    9    9     -0.88      0.00
   -7    9   10     -0.41      0.00
    1   11    6      0.64      0.00
   -1   11    7      0.56      0.00
   12    0    1      0.92      0.00
   10    0    2      3.58      0.00
    8    0    3      3.81      0.00
    6    0    4      0.01      0.00
    4    0    5     -5.09      0.00
    2    0    6     -7.02      0.00
    0    0    7     -3.81      0.00
   -2    0    8      2.02      0.00
   -4    0    9      5.39      0.00
   -6    0   10      3.73      0.00
  -10    0   12     -2.14      0.00
   12    2    1      0.91      0.00
   10    2    2      3.13      0.00
    8    2    3      3.28      0.00
    6    2    4     -0.07      0.00
    4    2    5     -4.55      0.00
    2    2    6     -6.19      0.00
    0    2    7     -3.24      0.00
   -2    2    8      1.90      0.00
   -4    2    9      4.61      0.00
   -6    2   10      2.80      0.00
  -10    2   12     -2.09      0.00
  -12    2   13     -1.09      0.00
   12    4    1      0.70      0.00
   10    4    2      1.97      0.00
    8    4    3      1.91      0.00
    6    4    4     -0.42      0.00
    4    4    5     -3.38      0.00
    2    4    6     -4.26      0.00
    0    4    7     -1.93      0.00
   -2    4    8      1.72      0.00
   -4    4    9      3.27      0.00
   -6    4   10      1.46      0.00
  -10    4   12     -1.71      0.00
  -12    4   13     -0.61      0.00
   10    6    2      0.80      0.00
    8    6    3      0.57      0.00
    6    6    4     -0.76      0.00
    4    6    5     -2.19      0.00
    2    6    6     -2.33      0.00
    0    6    7     -0.73      0.00
   -2    6    8      1.49      0.00
   -4    6    9      2.33      0.00
   -6    6   10      1.08      0.00
  -10    6   12     -0.98      0.00
    8    8    3      0.07      0.00
    6    8    4     -0.56      0.00
    4    8    5     -1.15      0.00
    2    8    6     -1.11      0.00
    0    8    7     -0.30      0.00
   -2    8    8      0.83      0.00
   -4    8    9      1.33      0.00
   -6    8   10      0.76      0.00
   -8    8   11     -0.09      0.00
    4   10    5     -0.45      0.00
    2   10    6     -0.61      0.00
    0   10    7     -0.46      0.00
   -2   10    8     -0.03      0.00
   -4   10    9      0.31      0.00
   11    1    2     -2.28      0.00
    9    1    3     -3.22      0.00
    7    1    4     -0.78      0.00
    5    1    5      3.50      0.00
    3    1    6      5.69      0.00
    1    1    7      3.58      0.00
   -1    1    8     -1.15      0.00
   -3    1    9     -4.44      0.00
   -5    1   10     -3.63      0.00
   -7    1   11     -0.27      0.00
  -11    1   13      1.48      0.00
   11    3    2     -1.78      0.00
    9    3    3     -2.39      0.00
    7    3    4     -0.45      0.00
    5    3    5      2.86      0.00
    3    3    6      4.46      0.00
    1    3    7      2.66      0.00
   -1    3    8     -1.09      0.00
   -3    3    9     -3.41      0.00
   -5    3   10     -2.29      0.00
   -7    3   11      0.58      0.00
  -11    3   13      1.03      0.00
   11    5    2     -0.91      0.00
    9    5    3     -1.06      0.00
    7    5    4      0.24      0.00
    5    5    5      2.14      0.00
    3    5    6      2.81      0.00
    1    5    7      1.38      0.00
   -1    5    8     -1.12      0.00
   -3    5    9     -2.48      0.00
   -5    5   10     -1.48      0.00
   -7    5   11      0.56      0.00
   -9    5   12      1.34      0.00
    9    7    3     -0.14      0.00
    7    7    4      0.57      0.00
    5    7    5      1.39      0.00
    3    7    6      1.45      0.00
    1    7    7      0.49      0.00
   -1    7    8     -0.90      0.00
   -3    7    9     -1.68      0.00
   -5    7   10     -1.16      0.00
   -7    7   11      0.00      0.00
    5    9    5      0.59      0.00
    3    9    6      0.64      0.00
    1    9    7      0.32      0.00
   -1    9    8     -0.22      0.00
   -3    9    9     -0.63      0.00
   -5    9   10     -0.51      0.00
   12    0    2      1.27      0.00
   10    0    3      2.62      0.00
    8    0    4      1.33      0.00
    6    0    5     -2.27      0.00
    4    0    6     -4.74      0.00
    2    0    7     -3.48      0.00
    0    0    8      0.52      0.00
   -2    0    9      3.82      0.00
   -4    0   10      3.76      0.00
   -6    0   11      0.97      0.00
   -8    0   12     -1.43      0.00
  -10    0   13     -1.57      0.00
   10    2    3      2.33      0.00
    8    2    4      1.17      0.00
    6    2    5     -2.02      0.00
    4    2    6     -4.19      0.00
    2    2    7     -3.04      0.00
    0    2    8      0.50      0.00
   -2    2    9      3.30      0.00
   -4    2   10      2.98      0.00
   -6    2   11      0.32      0.00
  -10    2   13     -1.39      0.00
   10    4    3      1.44      0.00
    8    4    4      0.54      0.00
    6    4    5     -1.65      0.00
    4    4    6     -2.99      0.00
    2    4    7     -2.00      0.00
    0    4    8      0.58      0.00
   -2    4    9      2.43      0.00
   -4    4   10      1.89      0.00
   -6    4   11     -0.27      0.00
   -8    4   12     -1.56      0.00
  -10    4   13     -0.96      0.00
    8    6    4     -0.24      0.00
    6    6    5     -1.38      0.00
    4    6    6     -1.81      0.00
    2    6    7     -0.92      0.00
    0    6    8      0.71      0.00
   -2    6    9      1.81      0.00
   -4    6   10      1.46      0.00
   -6    6   11      0.12      0.00
   -8    6   12     -0.74      0.00
    6    8    5     -0.82      0.00
    4    8    6     -0.85      0.00
    2    8    7     -0.34      0.00
    0    8    8      0.43      0.00
   -2    8    9      0.97      0.00
   -4    8   10      0.89      0.00
   -6    8   11      0.27      0.00
   11    1    3     -1.78      0.00
    9    1    4     -1.48      0.00
    7    1    5      1.10      0.00
    5    1    6      3.53      0.00
    3    1    7      3.08      0.00
    1    1    8      0.00      0.00
   -1    1    9     -2.93      0.00
   -3    1   10     -3.28      0.00
   -5    1   11     -1.13      0.00
   -7    1   12      1.10      0.00
   -9    1   13      1.45      0.00
    9    3    4     -1.14      0.00
    7    3    5      0.88      0.00
    5    3    6      2.76      0.00
    3    3    7      2.38      0.00
    1    3    8     -0.04      0.00
   -1    3    9     -2.25      0.00
   -3    3   10     -2.26      0.00
   -5    3   11     -0.29      0.00
   -7    3   12      1.43      0.00
   -9    3   13      1.28      0.00
    9    5    4     -0.33      0.00
    7    5    5      0.93      0.00
    5    5    6      1.91      0.00
    3    5    7      1.40      0.00
    1    5    8     -0.28      0.00
   -1    5    9     -1.70      0.00
   -3    5   10     -1.62      0.00
   -5    5   11     -0.24      0.00
   -7    5   12      0.92      0.00
   -9    5   13      0.77      0.00
    7    7    5      0.87      0.00
    5    7    6      1.13      0.00
    3    7    7      0.59      0.00
    1    7    8     -0.41      0.00
   -1    7    9     -1.17      0.00
   -3    7   10     -1.20      0.00
   -5    7   11     -0.52      0.00
   10    0    4      1.38      0.00
    8    0    5     -0.31      0.00
    6    0    6     -2.61      0.00
    4    0    7     -2.82      0.00
    2    0    8     -0.43      0.00
    0    0    9      2.32      0.00
   -2    0   10      3.07      0.00
   -4    0   11      1.49      0.00
   10    2    4      1.29      0.00
    8    2    5     -0.18      0.00
    6    2    6     -2.23      0.00
    4    2    7     -2.46      0.00
    2    2    8     -0.40      0.00
    0    2    9      1.97      0.00
   -2    2   10      2.50      0.00
   -4    2   11      0.94      0.00
   -6    2   12     -0.94      0.00
   -8    2   13     -1.34      0.00
    8    4    5     -0.24      0.00
    6    4    6     -1.62      0.00
    4    4    7     -1.69      0.00
    2    4    8     -0.20      0.00
    0    4    9      1.44      0.00
   -2    4   10      1.70      0.00
   -4    4   11      0.45      0.00
   -6    4   12     -0.95      0.00
   -8    4   13     -1.05      0.00
    6    6    6     -1.19      0.00
    4    6    7     -0.92      0.00
    2    6    8      0.13      0.00
    0    6    9      1.13      0.00
   -2    6   10      1.33      0.00
   -4    6   11      0.65      0.00
   -6    6   12     -0.20      0.00
    2    8    8      0.20      0.00
    0    8    9      0.62      0.00
    9    1    5     -0.26      0.00
    7    1    6      1.57      0.00
    5    1    7      2.28      0.00
    3    1    8      0.76      0.00
    1    1    9     -1.54      0.00
   -1    1   10     -2.46      0.00
   -3    1   11     -1.39      0.00
   -5    1   12      0.38      0.00
    7    3    6      1.11      0.00
    5    3    7      1.71      0.00
    3    3    8      0.59      0.00
    1    3    9     -1.12      0.00
   -1    3   10     -1.73      0.00
   -3    3   11     -0.76      0.00
   -5    3   12      0.71      0.00
   -7    3   13      1.17      0.00
    5    5    7      1.09      0.00
    3    5    8      0.25      0.00
    1    5    9     -0.87      0.00
   -1    5   10     -1.28      0.00
   -3    5   11     -0.69      0.00
   -5    5   12      0.27      0.00
    1    7    9     -0.69      0.00
   -1    7   10     -0.93      0.00
    8    0    6     -0.88      0.00
    6    0    7     -1.86      0.00
    4    0    8     -1.01      0.00
    2    0    9      0.94      0.00
    0    0   10      2.07      0.00
   -2    0   11      1.47      0.00
    6    2    7     -1.52      0.00
    4    2    8     -0.87      0.00
    2    2    9      0.75      0.00
    0    2   10      1.67      0.00
   -2    2   11      1.07      0.00
   -4    2   12     -0.28      0.00
   -6    2   13     -1.01      0.00
    6    4    7     -0.99      0.00
    4    4    8     -0.54      0.00
    2    4    9      0.53      0.00
    0    4   10      1.13      0.00
   -2    4   11      0.71      0.00
   -4    4   12     -0.27      0.00
    2    6    9      0.53      0.00
    0    6   10      0.91      0.00
   -2    6   11      0.76      0.00
    5    1    8      1.02      0.00
    3    1    9     -0.32      0.00
    1    1   10     -1.41      0.00
   -1    1   11     -1.21      0.00
   -3    1   12     -0.12      0.00
    5    3    8      0.69      0.00
    3    3    9     -0.21      0.00
    1    3   10     -0.95      0.00
   -1    3   11     -0.77      0.00
   -3    3   12      0.11      0.00
    4    0    9     -0.11      0.00
    2    0   10      0.93      0.00
    0    0   11      1.07      0.00
   -2    0   12      0.33      0.00
    2    2   10      0.72      0.00
    0    2   11      0.80      0.00
   -2    2   12      0.14      0.00
    2    0    0     24.88      0.00
   14    0    0     -0.76      0.00
    1    1    0    -26.83      0.00
   14    2    0     -0.47      0.00
   14    4    0     -0.03      0.00
   13    5    0     -0.06      0.00
   13    7    0     -0.08      0.00
   12    8    0      0.12      0.00
   11    9    0     -0.22      0.00
   10   10    0      0.29      0.00
    9   11    0     -0.26      0.00
    6   12    0      0.28      0.00
    8   12    0      0.16      0.00
    5   13    0     -0.16      0.00
    7   13    0     -0.05      0.00
   -2    0    1     18.06      0.00
    0    0    1     24.47      0.00
   14    0    1     -0.18      0.00
  -15    1    1      0.97      0.00
   -1    1    1    -21.08      0.00
   13    1    1     -0.21      0.00
   14    2    1     -0.04      0.00
  -15    3    1      0.38      0.00
   13    3    1     -0.34      0.00
  -14    4    1     -0.38      0.00
   13    5    1     -0.26      0.00
  -14    6    1     -0.04      0.00
   12    6    1      0.33      0.00
  -13    7    1      0.11      0.00
   11    7    1     -0.38      0.00
  -12    8    1     -0.08      0.00
  -11    9    1     -0.03      0.00
   11    9    1     -0.16      0.00
  -10   10    1      0.09      0.00
   10   10    1      0.25      0.00
   -9   11    1     -0.05      0.00
    5   11    1     -0.76      0.00
    7   11    1     -0.53      0.00
    9   11    1     -0.26      0.00
   -8   12    1     -0.01      0.00
   -6   12    1      0.05      0.00
    6   12    1      0.33      0.00
    8   12    1      0.19      0.00
   -7   13    1      0.04      0.00
   -5   13    1     -0.04      0.00
    3   13    1     -0.39      0.00
    5   13    1     -0.17      0.00
  -16    0    2     -0.82      0.00
   -2    0    2      5.40      0.00
  -15    1    2      1.32      0.00
   13    1    2     -0.53      0.00
  -16    2    2     -0.50      0.00
   12    2    2      1.20      0.00
  -15    3    2      0.61      0.00
   13    3    2     -0.48      0.00
   12    4    2      0.82      0.00
  -15    5    2      0.11      0.00
  -14    6    2     -0.31      0.00
   12    6    2      0.25      0.00
  -13    7    2      0.48      0.00
   11    7    2     -0.22      0.00
   10    8    2      0.24      0.00
  -13    9    2      0.14      0.00
    9    9    2     -0.34      0.00
  -12   10    2     -0.13      0.00
    6   10    2      0.69      0.00
    8   10    2      0.41      0.00
  -11   11    2      0.15      0.00
    5   11    2     -0.51      0.00
    7   11    2     -0.37      0.00
   -8   12    2     -0.27      0.00
    6   12    2      0.23      0.00
   -7   13    2      0.18      0.00
   -5   13    2      0.13      0.00
    3   13    2     -0.26      0.00
    5   13    2     -0.11      0.00
  -16    0    3     -0.81      0.00
   -2    0    3     -7.42      0.00
   12    0    3      1.08      0.00
   -3    1    3     10.57      0.00
  -16    2    3     -0.49      0.00
   12    2    3      1.00      0.00
   11    3    3     -1.41      0.00
  -16    4    3     -0.05      0.00
  -15    5    3      0.20      0.00
   11    5    3     -0.63      0.00
  -14    6    3     -0.52      0.00
   10    6    3      0.39      0.00
  -14    8    3     -0.33      0.00
   10    8    3     -0.06      0.00
  -13    9    3      0.38      0.00
    9    9    3      0.01      0.00
  -12   10    3     -0.37      0.00
    6   10    3      0.21      0.00
    8   10    3      0.11      0.00
  -11   11    3      0.37      0.00
    5   11    3     -0.16      0.00
    7   11    3     -0.14      0.00
  -10   12    3     -0.33      0.00
   -8   12    3     -0.51      0.00
    4   12    3      0.08      0.00
    6   12    3      0.09      0.00
   -7   13    3      0.31      0.00
   -5   13    3      0.30      0.00
    1   13    3     -0.14      0.00
    3   13    3     -0.08      0.00
  -16    0    4     -0.39      0.00
   -4    0    4    -17.59      0.00
   11    1    4     -1.06      0.00
  -16    2    4     -0.13      0.00
   11    3    4     -0.87      0.00
  -16    4    4      0.12      0.00
   10    4    4      0.79      0.00
  -15    5    4      0.04      0.00
   10    6    4      0.06      0.00
  -15    7    4      0.26      0.00
    9    7    4      0.26      0.00
  -14    8    4     -0.44      0.00
    8    8    4     -0.38      0.00
  -13    9    4      0.49      0.00
    7    9    4      0.27      0.00
  -12   10    4     -0.47      0.00
    6   10    4     -0.13      0.00
  -11   11    4      0.47      0.00
    5   11    4      0.09      0.00
  -10   12    4     -0.42      0.00
   -8   12    4     -0.59      0.00
    4   12    4     -0.10      0.00
   -7   13    4      0.37      0.00
   -5   13    4      0.41      0.00
   -3   13    4      0.35      0.00
   -1   13    4      0.21      0.00
    1   13    4      0.09      0.00
    3   13    4      0.07      0.00
   -4    0    5    -15.19      0.00
   10    0    5      0.47      0.00
   10    2    5      0.52      0.00
    9    3    5     -0.31      0.00
  -16    4    5      0.52      0.00
    9    5    5      0.05      0.00
  -16    6    5      0.10      0.00
    8    6    5     -0.57      0.00
  -15    7    5      0.13      0.00
  -14    8    5     -0.30      0.00
    8    8    5     -0.48      0.00
  -13    9    5      0.34      0.00
    7    9    5      0.39      0.00
  -12   10    5     -0.34      0.00
    6   10    5     -0.23      0.00
  -11   11    5      0.38      0.00
    3   11    5      0.42      0.00
    5   11    5      0.16      0.00
  -10   12    5     -0.37      0.00
   -8   12    5     -0.48      0.00
    2   12    5     -0.37      0.00
   -7   13    5      0.34      0.00
   -5   13    5      0.42      0.00
   -3   13    5      0.45      0.00
   -1   13    5      0.36      0.00
    1   13    5      0.24      0.00
   -4    0    6     -8.15      0.00
   -5    1    6      5.73      0.00
    9    1    6      0.26      0.00
    8    2    6     -0.63      0.00
    9    3    6      0.03      0.00
  -16    4    6      0.96      0.00
    8    4    6     -0.40      0.00
    7    5    6      0.88      0.00
  -16    6    6      0.35      0.00
    8    6    6     -0.50      0.00
  -15    7    6     -0.17      0.00
    7    7    6      0.72      0.00
  -14    8    6      0.04      0.00
    6    8    6     -0.65      0.00
  -13    9    6     -0.02      0.00
    5    9    6      0.44      0.00
  -12   10    6     -0.01      0.00
    4   10    6     -0.32      0.00
  -11   11    6      0.12      0.00
    3   11    6      0.32      0.00
  -10   12    6     -0.20      0.00
   -8   12    6     -0.24      0.00
    0   12    6     -0.58      0.00
    2   12    6     -0.34      0.00
   -7   13    6      0.23      0.00
   -5   13    6      0.34      0.00
   -3   13    6      0.44      0.00
   -1   13    6      0.40      0.00
   -6    0    7      3.22      0.00
   -4    0    7     -0.52      0.00
    8    0    7     -0.78      0.00
   -5    1    7     -1.40      0.00
    7    1    7      1.21      0.00
   -6    2    7      3.19      0.00
    8    2    7     -0.52      0.00
    7    3    7      0.76      0.00
    7    5    7      0.52      0.00
  -16    6    7      0.56      0.00
    6    6    7     -0.67      0.00
  -15    7    7     -0.45      0.00
    5    7    7      0.59      0.00
  -14    8    7      0.38      0.00
    4    8    7     -0.36      0.00
  -13    9    7     -0.40      0.00
    3    9    7      0.22      0.00
  -12   10    7      0.34      0.00
    2   10    7     -0.28      0.00
  -11   11    7     -0.16      0.00
   -9   11    7     -0.22      0.00
    1   11    7      0.40      0.00
  -10   12    7      0.00      0.00
   -8   12    7      0.00      0.00
   -6   12    7     -0.10      0.00
   -4   12    7     -0.34      0.00
   -2   12    7     -0.51      0.00
    0   12    7     -0.44      0.00
   -7   13    7      0.08      0.00
   -5   13    7      0.21      0.00
   -3   13    7      0.35      0.00
   -6    0    8      6.67      0.00
    6    0    8     -0.98      0.00
   -5    1    8     -5.47      0.00
    7    1    8      0.68      0.00
   -6    2    8      5.94      0.00
    6    2    8     -0.74      0.00
    6    4    8     -0.39      0.00
    5    5    8      0.37      0.00
  -16    6    8      0.58      0.00
    4    6    8     -0.20      0.00
  -15    7    8     -0.53      0.00
    3    7    8     -0.06      0.00
  -14    8    8      0.54      0.00
    4    8    8      0.00      0.00
  -13    9    8     -0.59      0.00
    1    9    8     -0.10      0.00
    3    9    8     -0.05      0.00
  -12   10    8      0.52      0.00
    0   10    8     -0.12      0.00
    2   10    8     -0.05      0.00
  -11   11    8     -0.31      0.00
   -9   11    8     -0.38      0.00
   -3   11    8      0.17      0.00
   -1   11    8      0.30      0.00
   -8   12    8      0.15      0.00
   -6   12    8      0.06      0.00
   -4   12    8     -0.16      0.00
   -2   12    8     -0.32      0.00
   -6    0    9      6.34      0.00
   -7    1    9     -5.95      0.00
    5    1    9      0.34      0.00
   -6    2    9      5.31      0.00
    4    2    9     -0.09      0.00
   -7    3    9     -4.17      0.00
    5    3    9      0.17      0.00
  -16    4    9      0.61      0.00
    4    4    9      0.00      0.00
    3    5    9     -0.25      0.00
  -16    6    9      0.39      0.00
    4    6    9      0.13      0.00
  -15    7    9     -0.37      0.00
    3    7    9     -0.31      0.00
  -14    8    9      0.43      0.00
    2    8    9      0.36      0.00
  -13    9    9     -0.52      0.00
   -1    9    9     -0.37      0.00
    1    9    9     -0.23      0.00
  -12   10    9      0.48      0.00
  -10   10    9      0.55      0.00
   -2   10    9      0.10      0.00
    0   10    9      0.02      0.00
  -11   11    9     -0.30      0.00
   -9   11    9     -0.32      0.00
   -7   11    9     -0.29      0.00
   -5   11    9     -0.14      0.00
   -3   11    9      0.05      0.00
   -6   12    9      0.11      0.00
   -8    0   10      2.53      0.00
    4    0   10      0.04      0.00
   -7    1   10     -3.01      0.00
    3    1   10     -0.39      0.00
    4    2   10      0.03      0.00
   -7    3   10     -1.58      0.00
    3    3   10     -0.25      0.00
  -16    4   10      0.08      0.00
   -8    4   10      0.47      0.00
    2    4   10      0.48      0.00
   -7    5   10     -0.75      0.00
    1    5   10     -0.73      0.00
    3    5   10     -0.27      0.00
  -16    6   10      0.09      0.00
    2    6   10      0.48      0.00
  -15    7   10     -0.08      0.00
   -7    7   10     -0.71      0.00
    1    7   10     -0.58      0.00
  -14    8   10      0.16      0.00
   -2    8   10      0.74      0.00
    0    8   10      0.51      0.00
  -13    9   10     -0.28      0.00
  -11    9   10     -0.30      0.00
   -3    9   10     -0.44      0.00
   -1    9   10     -0.30      0.00
  -12   10   10      0.29      0.00
  -10   10   10      0.26      0.00
   -8   10   10      0.22      0.00
   -6   10   10      0.23      0.00
   -4   10   10      0.19      0.00
   -2   10   10      0.10      0.00
   -9   11   10     -0.16      0.00
   -7   11   10     -0.13      0.00
   -5   11   10     -0.08      0.00
  -16    0   11     -0.71      0.00
   -8    0   11     -0.20      0.00
    2    0   11      0.42      0.00
    1    1   11     -0.69      0.00
  -16    2   11     -0.56      0.00
   -8    2   11     -0.73      0.00
    2    2   11      0.29      0.00
    1    3   11     -0.42      0.00
  -16    4   11     -0.28      0.00
   -8    4   11     -1.16      0.00
    0    4   11      0.54      0.00
  -15    5   11      0.33      0.00
   -1    5   11     -0.68      0.00
    1    5   11     -0.40      0.00
  -16    6   11     -0.15      0.00
  -14    6   11     -0.40      0.00
   -8    6   11     -0.61      0.00
    0    6   11      0.56      0.00
  -15    7   11      0.17      0.00
  -13    7   11      0.35      0.00
   -3    7   11     -0.71      0.00
   -1    7   11     -0.60      0.00
  -14    8   11     -0.08      0.00
  -12    8   11     -0.17      0.00
   -4    8   11      0.50      0.00
   -2    8   11      0.47      0.00
  -13    9   11     -0.05      0.00
  -11    9   11      0.02      0.00
   -9    9   11      0.08      0.00
   -7    9   11     -0.05      0.00
   -5    9   11     -0.22      0.00
   -3    9   11     -0.26      0.00
  -10   10   11      0.01      0.00
   -8   10   11     -0.03      0.00
   -6   10   11      0.03      0.00
  -16    0   12     -0.63      0.00
  -14    0   12     -1.43      0.00
   -6    0   12     -0.60      0.00
   -4    0   12     -0.01      0.00
    0    0   12      0.34      0.00
   -9    1   12      1.88      0.00
   -1    1   12     -0.33      0.00
  -16    2   12     -0.53      0.00
   -8    2   12     -1.66      0.00
    0    2   12      0.21      0.00
  -15    3   12      0.64      0.00
   -9    3   12      1.91      0.00
   -1    3   12     -0.17      0.00
  -16    4   12     -0.35      0.00
   -2    4   12      0.15      0.00
  -15    5   12      0.40      0.00
   -3    5   12     -0.21      0.00
   -1    5   12     -0.33      0.00
  -14    6   12     -0.45      0.00
   -4    6   12      0.28      0.00
   -2    6   12      0.43      0.00
  -13    7   12      0.42      0.00
  -11    7   12      0.60      0.00
   -9    7   12      0.55      0.00
   -7    7   12      0.17      0.00
   -5    7   12     -0.25      0.00
   -3    7   12     -0.43      0.00
  -12    8   12     -0.28      0.00
  -10    8   12     -0.35      0.00
   -8    8   12     -0.20      0.00
   -6    8   12      0.10      0.00
   -4    8   12      0.30      0.00
   -9    9   12      0.18      0.00
   -7    9   12      0.06      0.00
  -16    0   13     -0.30      0.00
  -14    0   13     -0.84      0.00
  -12    0   13     -1.41      0.00
   -8    0   13     -1.29      0.00
   -6    0   13     -0.86      0.00
   -4    0   13     -0.43      0.00
   -2    0   13     -0.03      0.00
  -15    1   13      0.50      0.00
   -7    1   13      1.12      0.00
   -5    1   13      0.70      0.00
   -3    1   13      0.25      0.00
  -16    2   13     -0.27      0.00
  -14    2   13     -0.61      0.00
   -4    2   13     -0.53      0.00
   -2    2   13     -0.10      0.00
  -15    3   13      0.31      0.00
   -5    3   13      0.75      0.00
   -3    3   13      0.26      0.00
  -16    4   13     -0.22      0.00
  -14    4   13     -0.32      0.00
   -6    4   13     -0.77      0.00
   -4    4   13     -0.31      0.00
  -15    5   13      0.23      0.00
  -13    5   13      0.36      0.00
  -11    5   13      0.62      0.00
   -7    5   13      0.60      0.00
   -5    5   13      0.22      0.00
   -3    5   13     -0.11      0.00
  -14    6   13     -0.27      0.00
  -12    6   13     -0.40      0.00
  -10    6   13     -0.50      0.00
   -8    6   13     -0.39      0.00
   -6    6   13     -0.09      0.00
   -4    6   13      0.19      0.00
  -13    7   13      0.27      0.00
  -11    7   13      0.33      0.00
   -9    7   13      0.27      0.00
   -7    7   13      0.04      0.00
    0    0    0      0.00      0.00
# SQUEEZE RESULTS (Version =  21116)
# Note: Data are Listed for all Voids in the P1 Unit Cell
# i.e. Centre of Gravity, Solvent Accessible Volume,
# Recovered number of Electrons in the Void and
# Details about the Squeezed Material
loop_
  _platon_squeeze_void_nr
  _platon_squeeze_void_average_x
  _platon_squeeze_void_average_y
  _platon_squeeze_void_average_z
  _platon_squeeze_void_volume
  _platon_squeeze_void_count_electrons
  _platon_squeeze_void_content
   1  0.500  0.000  0.000        35        14 ' '
   2  0.000  0.500  0.000        35        14 ' '
# Missing Reflections Below sin(th)/lambda = 0.25
loop_
  _platon_missing_refln_index_h
  _platon_missing_refln_index_k
  _platon_missing_refln_index_l
  _platon_missing_refln_theta
    2    0    0     3.570
    1    1    0     2.530
   -2    0    1     2.881
    0    0    1     2.141
   -1    1    1     2.544
   -2    0    2     3.611
   -2    0    3     5.196
   -3    1    3     5.712
   -4    0    4     7.237
   -4    0    5     8.712
_platon_squeeze_void_probe_radius                  1.20
_platon_squeeze_details
)
TITL 123 in C2 C2/m
CELL   14.1400   11.3580   11.7830     90.00    126.18     90.00
SPGR C2/m
# Solvent Accessible Volume =        69
# Electrons Found in S.A.V. =        27
# Note: Atoms in Void as Cxxx and Qxxx all others
C101 0.978 0.498 0.094 !       7.50 eA-3
Q102 0.580 0.502 0.453 !       1.26 eA-3
Q103 0.259 0.501 0.391 !       1.08 eA-3
Q104 0.500 0.203 0.497 !       0.54 eA-3
Q105 0.576 0.498 0.703 !       0.53 eA-3
Q106 0.268 0.500 0.297 !       0.51 eA-3
)
;
_shelx_fab_checksum              78381
_olex2_submission_special_instructions 'No special instructions were received'
loop_
_space_group_symop_operation_xyz
'x, y, z'
'-x, y, -z'
'x+1/2, y+1/2, z'
'-x+1/2, y+1/2, -z'
'-x, -y, -z'
'x, -y, z'
'-x+1/2, -y+1/2, -z'
'x+1/2, -y+1/2, z'
loop_
_atom_site_label
_atom_site_type_symbol
_atom_site_fract_x
_atom_site_fract_y
_atom_site_fract_z
_atom_site_U_iso_or_equiv
_atom_site_adp_type
_atom_site_occupancy
_atom_site_site_symmetry_order
_atom_site_calc_flag
_atom_site_refinement_flags_posn
_atom_site_refinement_flags_adp
_atom_site_refinement_flags_occupancy
Ce1 Ce 0.66423(2) 0.500000 0.53608(2) 0.01325(10) Uani 1 2 d S T P
F1 F 0.3682(3) 0.7057(2) 0.0968(2) 0.0541(7) Uani 1 1 d . . .
F2 F 0.3572(3) 0.7090(2) -0.1328(3) 0.0544(7) Uani 1 1 d . . .
O1 O 0.5900(2) 0.3034(2) 0.5266(3) 0.0382(6) Uani 1 1 d . . .
O2 O 0.3387(3) 0.5966(2) -0.3384(3) 0.0400(7) Uani 1 1 d . . .
O3 O 0.8399(2) 0.6365(3) 0.6583(3) 0.0416(7) Uani 1 1 d . . .
H3A H 0.845125 0.671004 0.596637 0.062 Uiso 1 1 d GR . .
H3B H 0.903756 0.597123 0.715416 0.062 Uiso 1 1 d GR . .
O5 O 0.4523(3) 0.500000 0.3456(3) 0.0269(7) Uani 1 2 d S T P
O8 O 0.2609(3) 0.500000 0.2013(4) 0.0466(11) Uani 1 2 d S T P
C1 C 0.500000 0.2562(4) 0.500000 0.0266(10) Uani 1 2 d S T P
C2 C 0.3587(4) 0.500000 0.2241(5) 0.0249(10) Uani 1 2 d S T P
C3 C 0.3635(4) 0.500000 0.0991(4) 0.0235(10) Uani 1 2 d S T P
C4 C 0.3634(3) 0.6030(3) 0.0383(3) 0.0289(7) Uani 1 1 d . . .
C5 C 0.3580(3) 0.6038(3) -0.0825(3) 0.0274(7) Uani 1 1 d . . .
C6 C 0.3530(4) 0.500000 -0.1491(4) 0.0229(10) Uani 1 2 d S T P
C8 C 0.500000 0.1228(4) 0.500000 0.0241(10) Uani 1 2 d S T P
C9 C 0.5511(3) 0.0603(3) 0.6229(3) 0.0247(7) Uani 1 1 d . . .
F3 F 0.60047(19) 0.11823(18) 0.7449(2) 0.0402(5) Uani 1 1 d . . .
C11 C 0.3417(4) 0.500000 -0.2848(5) 0.0239(10) Uani 1 2 d S T P
loop_
_atom_site_aniso_label
_atom_site_aniso_U_11
_atom_site_aniso_U_22
_atom_site_aniso_U_33
_atom_site_aniso_U_23
_atom_site_aniso_U_13
_atom_site_aniso_U_12
Ce1 0.01810(15) 0.01206(14) 0.01330(14) 0.000 0.01132(11) 0.000
F1 0.099(2) 0.0356(12) 0.0425(13) -0.0053(10) 0.0497(14) 0.0070(13)
F2 0.109(2) 0.0294(12) 0.0431(13) 0.0042(10) 0.0550(15) 0.0002(13)
O1 0.0332(13) 0.0140(11) 0.0680(18) 0.0030(11) 0.0301(13) -0.0029(10)
O2 0.0716(19) 0.0355(14) 0.0300(13) 0.0098(11) 0.0394(14) 0.0162(13)
O3 0.0322(13) 0.0482(16) 0.0454(15) -0.0155(13) 0.0235(12) -0.0134(12)
O5 0.0248(16) 0.0413(19) 0.0144(14) 0.000 0.0115(13) 0.000
O8 0.0226(18) 0.101(3) 0.0197(17) 0.000 0.0146(15) 0.000
C1 0.028(2) 0.014(2) 0.038(3) 0.000 0.019(2) 0.000
C2 0.025(2) 0.037(3) 0.015(2) 0.000 0.0122(19) 0.000
C3 0.021(2) 0.039(3) 0.013(2) 0.000 0.0114(18) 0.000
C4 0.0366(18) 0.0314(18) 0.0204(16) -0.0030(14) 0.0177(14) 0.0041(15)
C5 0.0345(18) 0.0302(18) 0.0221(16) 0.0045(14) 0.0192(15) 0.0008(15)
C6 0.024(2) 0.033(3) 0.014(2) 0.000 0.0126(18) 0.000
C8 0.024(2) 0.011(2) 0.041(3) 0.000 0.022(2) 0.000
C9 0.0269(16) 0.0186(15) 0.0323(18) -0.0047(14) 0.0196(14) -0.0035(13)
F3 0.0488(13) 0.0277(11) 0.0380(11) -0.0110(9) 0.0223(10) -0.0031(10)
C11 0.024(2) 0.038(3) 0.016(2) 0.000 0.0151(19) 0.000
loop_
_atom_type_symbol
_atom_type_description
_atom_type_scat_dispersion_real
_atom_type_scat_dispersion_imag
_atom_type_scat_source
C C 0.0033 0.0016 'International Tables Vol C Tables 4.2.6.8 and 6.1.1.4'
H H 0.0000 0.0000 'International Tables Vol C Tables 4.2.6.8 and 6.1.1.4'
Ce Ce -0.2486 2.6331 'International Tables Vol C Tables 4.2.6.8 and 6.1.1.4'
F F 0.0171 0.0103 'International Tables Vol C Tables 4.2.6.8 and 6.1.1.4'
O O 0.0106 0.0060 'International Tables Vol C Tables 4.2.6.8 and 6.1.1.4'
loop_
_geom_angle_atom_site_label_1
_geom_angle_atom_site_label_2
_geom_angle_atom_site_label_3
_geom_angle
_geom_angle_site_symmetry_1
_geom_angle_site_symmetry_3
O1 Ce1 O1 132.23(12) . 6_565
O1 Ce1 O2 77.91(10) . 5_665
O1 Ce1 O2 125.21(9) 6_565 5_665
O1 Ce1 O2 125.21(9) . 2_655
O1 Ce1 O2 77.91(10) 6_565 2_655
O1 Ce1 O3 73.60(9) . 6_565
O1 Ce1 O3 146.73(9) 6_565 6_565
O1 Ce1 O3 146.73(9) . .
O1 Ce1 O3 73.60(9) 6_565 .
O1 Ce1 O5 69.41(7) 6_565 5_666
O1 Ce1 O5 72.51(7) . .
O1 Ce1 O5 69.41(7) . 5_666
O1 Ce1 O5 72.51(7) 6_565 .
O1 Ce1 O8 85.23(8) . 5_666
O1 Ce1 O8 85.23(8) 6_565 5_666
O1 Ce1 C2 76.26(8) . 5_666
O1 Ce1 C2 76.26(8) 6_565 5_666
O1 Ce1 C11 101.55(8) . 5_665
O1 Ce1 C11 101.55(8) 6_565 5_665
O2 Ce1 O2 50.91(12) 5_665 2_655
O2 Ce1 O5 141.33(8) 2_655 5_666
O2 Ce1 O5 141.33(8) 5_665 5_666
O2 Ce1 O8 149.02(7) 5_665 5_666
O2 Ce1 O8 149.02(7) 2_655 5_666
O2 Ce1 C2 153.94(6) 2_655 5_666
O2 Ce1 C2 153.94(7) 5_665 5_666
O2 Ce1 C11 25.46(6) 5_665 5_665
O2 Ce1 C11 25.46(6) 2_655 5_665
O3 Ce1 O2 105.29(10) . 5_665
O3 Ce1 O2 74.81(9) . 2_655
O3 Ce1 O2 74.81(9) 6_565 5_665
O3 Ce1 O2 105.29(10) 6_565 2_655
O3 Ce1 O3 75.41(14) 6_565 .
O3 Ce1 O5 113.36(8) 6_565 5_666
O3 Ce1 O5 113.36(8) . 5_666
O3 Ce1 O8 75.58(9) . 5_666
O3 Ce1 O8 75.58(9) 6_565 5_666
O3 Ce1 C2 94.51(10) . 5_666
O3 Ce1 C2 94.51(9) 6_565 5_666
O3 Ce1 C11 90.46(10) 6_565 5_665
O3 Ce1 C11 90.45(10) . 5_665
O5 Ce1 O2 79.22(10) . 5_665
O5 Ce1 O2 79.22(10) . 2_655
O5 Ce1 O3 140.73(7) . 6_565
O5 Ce1 O3 140.73(7) . .
O5 Ce1 O5 71.80(12) . 5_666
O5 Ce1 O8 120.22(11) . 5_666
O5 Ce1 C2 96.18(12) . 5_666
O5 Ce1 C2 24.38(11) 5_666 5_666
O5 Ce1 C11 77.54(12) . 5_665
O5 Ce1 C11 149.35(11) 5_666 5_665
O8 Ce1 O5 48.42(10) 5_666 5_666
O8 Ce1 C2 24.05(12) 5_666 5_666
O8 Ce1 C11 162.23(12) 5_666 5_665
C11 Ce1 C2 173.72(12) 5_665 5_666
C1 O1 Ce1 139.3(2) . .
C11 O2 Ce1 93.5(2) . 5_665
Ce1 O3 H3A 109.9 . .
Ce1 O3 H3B 110.4 . .
H3A O3 H3B 108.7 . .
Ce1 O5 Ce1 108.20(12) . 5_666
C2 O5 Ce1 92.0(3) . 5_666
C2 O5 Ce1 159.8(3) . .
C2 O8 Ce1 97.0(3) . 5_666
O1 C1 O1 128.6(4) 2_656 .
O1 C1 C8 115.7(2) 2_656 .
O1 C1 C8 115.7(2) . .
O5 C2 Ce1 63.6(3) . 5_666
O5 C2 C3 119.2(4) . .
O8 C2 Ce1 58.9(3) . 5_666
O8 C2 O5 122.6(5) . .
O8 C2 C3 118.2(4) . .
C3 C2 Ce1 177.1(3) . 5_666
C4 C3 C2 121.4(2) 6_565 .
C4 C3 C2 121.4(2) . .
C4 C3 C4 117.1(4) 6_565 .
F1 C4 C3 119.4(3) . .
F1 C4 C5 118.8(3) . .
C3 C4 C5 121.8(3) . .
F2 C5 C4 116.5(3) . .
F2 C5 C6 121.6(3) . .
C4 C5 C6 121.9(3) . .
C5 C6 C5 115.4(4) . 6_565
C5 C6 C11 122.3(2) 6_565 .
C5 C6 C11 122.3(2) . .
C9 C8 C1 121.1(2) 2_656 .
C9 C8 C1 121.1(2) . .
C9 C8 C9 117.7(4) . 2_656
C9 C9 C8 121.1(2) 6 .
F3 C9 C8 119.5(3) . .
F3 C9 C9 119.38(17) . 6
O2 C11 Ce1 61.0(2) 6_565 5_665
O2 C11 Ce1 61.0(2) . 5_665
O2 C11 O2 122.0(4) . 6_565
O2 C11 C6 119.0(2) 6_565 .
O2 C11 C6 119.0(2) . .
C6 C11 Ce1 176.4(3) . 5_665
loop_
_geom_bond_atom_site_label_1
_geom_bond_atom_site_label_2
_geom_bond_distance
_geom_bond_site_symmetry_2
Ce1 O1 2.442(2) .
Ce1 O1 2.442(2) 6_565
Ce1 O2 2.553(3) 5_665
Ce1 O2 2.553(3) 2_655
Ce1 O3 2.535(3) .
Ce1 O3 2.535(3) 6_565
Ce1 O5 2.465(3) .
Ce1 O5 2.715(3) 5_666
Ce1 O8 2.613(4) 5_666
Ce1 C2 3.028(5) 5_666
Ce1 C11 2.913(5) 5_665
F1 C4 1.336(4) .
F2 C5 1.331(4) .
O1 C1 1.238(3) .
O2 C11 1.254(3) .
O3 H3A 0.8660 .
O3 H3B 0.8663 .
O5 C2 1.251(5) .
O8 C2 1.243(6) .
C1 C8 1.514(6) .
C2 C3 1.514(6) .
C3 C4 1.372(4) 6_565
C3 C4 1.372(4) .
C4 C5 1.380(5) .
C5 C6 1.395(4) .
C6 C11 1.509(6) .
C8 C9 1.375(4) 2_656
C8 C9 1.375(4) .
C9 C9 1.369(7) 6
C9 F3 1.342(4) .
