#------------------------------------------------------------------------------
#$Date: 2017-05-06 01:10:37 +0300 (Sat, 06 May 2017) $
#$Revision: 196450 $
#$URL: file:///home/coder/svn-repositories/cod/cif/7/04/24/7042412.cif $
#------------------------------------------------------------------------------
#
# This file is available in the Crystallography Open Database (COD),
# http://www.crystallography.net/
#
# All data on this site have been placed in the public domain by the
# contributors.
#
data_7042412
loop_
_publ_author_name
'Han, Yongqiang'
'Yan, Pengfei'
'Sun, Jingwen'
'An, Guanghui'
'Yao, Xu'
'Li, Yuxin'
'Li, Guangming'
_publ_section_title
;
 Luminescence and white-light emitting luminescent sensor of
 tetrafluoroterephthalate-lanthanide metal-organic frameworks.
;
_journal_issue                   14
_journal_name_full
'Dalton transactions (Cambridge, England : 2003)'
_journal_page_first              4642
_journal_page_last               4653
_journal_paper_doi               10.1039/c7dt00215g
_journal_volume                  46
_journal_year                    2017
_chemical_formula_moiety         'C12 H4 F6 O8 Sm'
_chemical_formula_sum            'C12 H4 F6 O8 Sm'
_chemical_formula_weight         540.50
_space_group_crystal_system      monoclinic
_space_group_IT_number           12
_space_group_name_Hall           '-C 2y'
_space_group_name_H-M_alt        'C 1 2/m 1'
_symmetry_space_group_name_Hall  '-C 2y'
_symmetry_space_group_name_H-M   'C 1 2/m 1'
_atom_sites_solution_hydrogens   difmap
_audit_creation_date             2017-03-07
_audit_creation_method
;
Olex2 1.2
(compiled 2017.03.02 svn.r3394 for OlexSys, GUI svn.r5324)
;
_audit_update_record
;
2017-03-08 deposited with the CCDC.
2017-03-09 downloaded from the CCDC.
;
_cell_angle_alpha                90
_cell_angle_beta                 125.279(5)
_cell_angle_gamma                90
_cell_formula_units_Z            4
_cell_length_a                   13.931(5)
_cell_length_b                   11.283(5)
_cell_length_c                   11.654(5)
_cell_measurement_reflns_used    1921
_cell_measurement_temperature    293(2)
_cell_measurement_theta_max      29.5285
_cell_measurement_theta_min      3.5759
_cell_volume                     1495.4(11)
_computing_data_collection
'CrysAlisPro, Agilent Technologies,Version 1.171.35.21 (release 20-01-2012 CrysAlis171 .NET)(compiled Jan 23 2012,18:06:46)'
_computing_molecular_graphics    'Olex2 (Dolomanov et al., 2009)'
_computing_publication_material  '(K. Brandenburg, Diamond 3.1, 2009)'
_computing_structure_refinement  'ShelXL (Sheldrick, 2015)'
_computing_structure_solution    'SHELXS-2016/6 (Sheldrick, 2015)'
_diffrn_ambient_temperature      293(2)
_diffrn_measured_fraction_theta_full 0.997
_diffrn_measured_fraction_theta_max 0.997
_diffrn_measurement_device_type  'multiwire proportional'
_diffrn_measurement_method       'phi and omega scans'
_diffrn_radiation_monochromator  graphite
_diffrn_radiation_type           MoK\a
_diffrn_radiation_wavelength     0.71069
_diffrn_reflns_av_R_equivalents  0.0442
_diffrn_reflns_av_unetI/netI     0.0455
_diffrn_reflns_Laue_measured_fraction_full 0.997
_diffrn_reflns_Laue_measured_fraction_max 0.997
_diffrn_reflns_limit_h_max       16
_diffrn_reflns_limit_h_min       -13
_diffrn_reflns_limit_k_max       11
_diffrn_reflns_limit_k_min       -13
_diffrn_reflns_limit_l_max       11
_diffrn_reflns_limit_l_min       -13
_diffrn_reflns_number            2740
_diffrn_reflns_point_group_measured_fraction_full 0.997
_diffrn_reflns_point_group_measured_fraction_max 0.997
_diffrn_reflns_theta_full        24.994
_diffrn_reflns_theta_max         24.994
_diffrn_reflns_theta_min         3.583
_exptl_absorpt_coefficient_mu    4.042
_exptl_absorpt_correction_T_max  0.568
_exptl_absorpt_correction_T_min  0.465
_exptl_absorpt_correction_type   multi-scan
_exptl_absorpt_process_details
;
CrysAlisPro, Agilent Technologies,
Version 1.171.35.21 (release 20-01-2012 CrysAlis171 .NET)
(compiled Jan 23 2012,18:06:46)
Empirical absorption correction using spherical harmonics,
 implemented in SCALE3 ABSPACK scaling algorithm.
;
_exptl_crystal_colour            colorless
_exptl_crystal_density_diffrn    2.401
_exptl_crystal_description       block
_exptl_crystal_F_000             1024
_exptl_crystal_size_max          0.24
_exptl_crystal_size_mid          0.16
_exptl_crystal_size_min          0.14
_refine_diff_density_max         2.130
_refine_diff_density_min         -1.940
_refine_diff_density_rms         0.168
_refine_ls_extinction_method     none
_refine_ls_goodness_of_fit_ref   1.047
_refine_ls_hydrogen_treatment    constr
_refine_ls_matrix_type           full
_refine_ls_number_parameters     135
_refine_ls_number_reflns         1397
_refine_ls_number_restraints     0
_refine_ls_restrained_S_all      1.047
_refine_ls_R_factor_all          0.0346
_refine_ls_R_factor_gt           0.0329
_refine_ls_shift/su_max          0.000
_refine_ls_shift/su_mean         0.000
_refine_ls_structure_factor_coef Fsqd
_refine_ls_weighting_details
'w=1/[\s^2^(Fo^2^)+(0.0608P)^2^] where P=(Fo^2^+2Fc^2^)/3'
_refine_ls_weighting_scheme      calc
_refine_ls_wR_factor_gt          0.0866
_refine_ls_wR_factor_ref         0.0882
_reflns_Friedel_coverage         0.000
_reflns_number_gt                1324
_reflns_number_total             1397
_reflns_threshold_expression     'I > 2\s(I)'
_cod_data_source_file            c7dt00215g2.cif
_cod_data_source_block           6-sm_sq
_cod_depositor_comments
'Adding full bibliography for 7042409--7042422.cif.'
_cod_database_code               7042412
_shelx_shelxl_version_number     2016/6
_shelx_space_group_comment
;
The symmetry employed for this shelxl refinement is uniquely defined
by the following loop, which should always be used as a source of
symmetry information in preference to the above space-group names.
They are only intended as comments.
;
_shelx_estimated_absorpt_t_max   0.602
_shelx_estimated_absorpt_t_min   0.444
_olex2_refinement_description
;
1. Fixed Uiso
 At 1.5 times of:
  All O(H,H) groups
2.a Rotating group:
 O2(H2A,H2B)
;
_shelx_res_file
;
TITL 123 in C2/m
    6-sm_sq.res
    created by SHELXL-2016/6 at 13:30:19 on 07-Mar-2017
CELL 0.71069 13.931 11.283 11.654 90 125.279 90
ZERR 4 0.005 0.005 0.005 0.005 0.005 0.005
LATT 7
SYMM -X,+Y,-Z
SFAC C H F O Sm
UNIT 48 16 24 32 4

L.S. 5 0 4
PLAN  25
SIZE 0.24 0.16 0.14
ABIN
fmap 2
acta
MERG 2
OMIT -3 50
REM <olex2.extras>
REM <HklSrc "%.\\6-Sm.hkl">
REM </olex2.extras>

WGHT    0.060800
FVAR       0.08287
C1    1    0.000000    0.242252    0.500000    10.50000    0.02582    0.02095 =
         0.03160    0.00000    0.01879    0.00000
C2    1    0.000000    0.375877    0.500000    10.50000    0.02039    0.01589 =
         0.04296    0.00000    0.02291    0.00000
C3    1    0.051305    0.439441    0.622470    11.00000    0.02465    0.02162 =
         0.03360    0.00597    0.01950    0.00159
C4    1    0.138748    0.000000    0.771901    10.50000    0.03064    0.02739 =
         0.01701    0.00000    0.01557    0.00000
C5    1    0.135915    0.000000    0.899132    10.50000    0.02786    0.03500 =
         0.01643    0.00000    0.01512    0.00000
C6    1    0.135985    0.103890    0.961412    11.00000    0.03733    0.03056 =
         0.02558    0.00270    0.02194   -0.00569
C7    1    0.141329    0.104403    1.082937    11.00000    0.03935    0.02720 =
         0.02517   -0.00454    0.02272   -0.00075
C8    1    0.146865    0.000000    1.150472    10.50000    0.02344    0.02793 =
         0.02036    0.00000    0.01614    0.00000
C10   1    0.158010    0.000000    1.286825    10.50000    0.02352    0.03206 =
         0.02136    0.00000    0.01605    0.00000
O1    4   -0.091149    0.194400    0.472626    11.00000    0.03180    0.02326 =
         0.05308    0.00127    0.02693   -0.00163
O2    4   -0.333900   -0.132772    0.347937    11.00000    0.03058    0.04765 =
         0.03670   -0.01001    0.02000   -0.01006
AFIX   7
H2A   2   -0.388200   -0.103092    0.268347    11.00000   -1.50000
H2B   2   -0.359741   -0.140631    0.398717    11.00000   -1.50000
AFIX   0
O3    4    0.044570    0.000000    0.651041    10.50000    0.02372    0.04029 =
         0.01365    0.00000    0.01077    0.00000
O4    4    0.236748    0.000000    0.790754    10.50000    0.02334    0.09337 =
         0.02388    0.00000    0.01686    0.00000
O5    4    0.161617    0.097193    1.341770    11.00000    0.06699    0.03525 =
         0.03045   -0.00703    0.03812   -0.01558
F1    3    0.132083    0.207219    0.902243    11.00000    0.09935    0.03877 =
         0.04021    0.00365    0.04839   -0.00644
F2    3    0.142581    0.210470    1.133805    11.00000    0.10833    0.03421 =
         0.04271   -0.00444    0.05604   -0.00242
F5    3    0.101352    0.380945    0.745283    11.00000    0.04813    0.02973 =
         0.03572    0.01071    0.02003    0.00438
SM1   5   -0.161202    0.000000    0.466640    10.50000    0.01902    0.01419 =
         0.01479    0.00000    0.01265    0.00000
HKLF 4




REM  123 in C2/m
REM R1 =  0.0329 for    1324 Fo > 4sig(Fo)  and  0.0346 for all    1397 data
REM    135 parameters refined using      0 restraints

END

WGHT      0.0608      0.0000

REM Highest difference peak  2.130,  deepest hole -1.940,  1-sigma level  0.168
Q1    1  -0.1672 -0.0769  0.4614  11.00000  0.05    2.13
Q2    1  -0.2082  0.0000  0.3610  10.50000  0.05    1.53
Q3    1  -0.1279  0.0000  0.5652  10.50000  0.05    1.40
Q4    1   0.1320  0.1032  1.4227  11.00000  0.05    0.88
Q5    1  -0.1907 -0.1048  0.3593  11.00000  0.05    0.86
Q6    1  -0.3232 -0.2179  0.3265  11.00000  0.05    0.62
Q7    1   0.0000  0.0000  0.5000  10.25000  0.05    0.59
Q8    1  -0.2033  0.1683  0.4440  11.00000  0.05    0.57
Q9    1  -0.2886  0.0000  0.4755  10.50000  0.05    0.55
Q10   1  -0.2321  0.0000  0.4569  10.50000  0.05    0.54
Q11   1  -0.1110  0.1632  0.4993  11.00000  0.05    0.54
Q12   1   0.0582  0.5000  0.6252  10.50000  0.05    0.51
Q13   1   0.1667  0.1973  1.3400  11.00000  0.05    0.50
Q14   1   0.0506  0.0000  0.5930  10.50000  0.05    0.48
Q15   1  -0.0217  0.0000  0.6493  10.50000  0.05    0.43
Q16   1   0.0374  0.2075  0.9012  11.00000  0.05    0.41
Q17   1  -0.2770 -0.1385  0.4435  11.00000  0.05    0.39
Q18   1  -0.2687 -0.1226  0.5135  11.00000  0.05    0.39
Q19   1  -0.0807  0.0000  0.4831  10.50000  0.05    0.38
Q20   1  -0.1401  0.1717  0.3630  11.00000  0.05    0.37
Q21   1  -0.0623  0.2162  0.5623  11.00000  0.05    0.35
Q22   1   0.1508  0.2648  0.7625  11.00000  0.05    0.35
Q23   1   0.1761  0.3248  1.0413  11.00000  0.05    0.35
Q24   1   0.1413  0.5000  0.8520  10.50000  0.05    0.34
Q25   1  -0.0408  0.1132  0.4440  11.00000  0.05    0.34
;
_shelx_res_checksum              6742
_shelx_fab_file
;
    0    4    2      3.82      0.00
    0    4   10      1.66      0.00
    0    2   10      2.03      0.00
    0    2   11      0.88      0.00
    0    0    2     11.98      0.00
    0    0    3     -3.43      0.00
    0    0    4    -12.07      0.00
    0    0    5    -12.37      0.00
    0    0    6     -7.51      0.00
    0    0    7     -1.90      0.00
    0    0    8      1.72      0.00
    0    0    9      2.85      0.00
    0    0   10      2.29      0.00
    0    0   11      1.14      0.00
    0    2    0     24.96      0.00
    0    2    1     20.04      0.00
    0    2    2      8.27      0.00
    0    2    3     -3.68      0.00
    0    2    4    -10.29      0.00
    0    2    5    -10.32      0.00
    0    2    6     -6.26      0.00
    0    2    7     -1.56      0.00
    0    2    8      1.57      0.00
    0    2    9      2.59      0.00
    0    4    0     14.44      0.00
    0    4    1     11.30      0.00
    0    4    3     -3.64      0.00
    0    4    4     -7.53      0.00
    0    4    5     -7.10      0.00
    0    4    6     -4.02      0.00
    0    4    7     -0.57      0.00
    0    4    8      1.68      0.00
    0    4    9      2.28      0.00
    0    6    0      9.19      0.00
    0    6    1      7.18      0.00
    0    6    2      2.44      0.00
    0    6    3     -2.21      0.00
    0    6    4     -4.48      0.00
    0    6    5     -3.98      0.00
    0    6    6     -1.86      0.00
    0    6    7      0.36      0.00
    0    6    8      1.66      0.00
    0    6    9      1.82      0.00
    0    6   10      1.20      0.00
    0    8    0      3.73      0.00
    0    8    1      2.91      0.00
    0    8    2      0.96      0.00
    0    8    3     -0.97      0.00
    0    8    4     -1.97      0.00
    0    8    5     -1.89      0.00
    0    8    6     -1.07      0.00
    0    8    7     -0.05      0.00
    0    8    8      0.73      0.00
    0    8    9      0.96      0.00
    0   10    0      1.78      0.00
    0   10    1      1.37      0.00
    0   10    2      0.40      0.00
    0   10    3     -0.57      0.00
    0   10    4     -1.11      0.00
    0   10    5     -1.14      0.00
    0   10    6     -0.81      0.00
    0   10    7     -0.34      0.00
    0   12    0      1.13      0.00
    0   12    1      0.94      0.00
    0   12    2      0.55      0.00
    0   12    3      0.27      0.00
    0   12    4      0.25      0.00
    0   12    5      0.36      0.00
    1    7    9     -1.01      0.00
   -1    7    2     -1.46      0.00
    1    5    9     -1.64      0.00
    1    3   10     -1.60      0.00
    1    3    9     -2.08      0.00
    1    3    8     -1.23      0.00
   -1    3    3      6.09      0.00
    1    1   10     -1.83      0.00
    1    1    9     -2.19      0.00
    1    1    8     -1.06      0.00
    1    1    7      2.01      0.00
    1    1    6      6.43      0.00
    1    1    5      9.96      0.00
    1    1    4      9.12      0.00
    1    1    3      1.40      0.00
   -1    1    2     -8.09      0.00
   -1    1    3      6.41      0.00
   -1    1    4     14.07      0.00
   -1    1    5     13.38      0.00
   -1    1    6      7.62      0.00
   -1    1    7      1.39      0.00
   -1    1    8     -2.44      0.00
   -1    1    9     -3.41      0.00
   -1    1   10     -2.54      0.00
   -1    1   11     -1.13      0.00
    1    1    2    -11.84      0.00
    1    1    1    -24.55      0.00
    1    3    7      1.20      0.00
    1    3    6      4.57      0.00
    1    3    5      7.20      0.00
    1    3    4      6.73      0.00
    1    3    3      1.59      0.00
    1    3    2     -7.17      0.00
    1    3    1    -15.43      0.00
    1    3    0    -18.20      0.00
   -1    3    1    -13.35      0.00
   -1    3    2     -3.44      0.00
   -1    3    4     10.80      0.00
   -1    3    5      9.82      0.00
   -1    3    6      5.48      0.00
   -1    3    7      0.87      0.00
   -1    3    8     -2.02      0.00
   -1    3    9     -2.76      0.00
   -1    3   10     -1.99      0.00
   -1    3   11     -0.73      0.00
    1    5    8     -1.30      0.00
    1    5    7      0.26      0.00
    1    5    6      2.66      0.00
    1    5    5      4.74      0.00
    1    5    4      4.78      0.00
    1    5    3      1.61      0.00
    1    5    2     -4.15      0.00
    1    5    1     -9.66      0.00
    1    5    0    -11.53      0.00
   -1    5    1     -8.31      0.00
   -1    5    2     -1.77      0.00
   -1    5    3      4.41      0.00
   -1    5    4      7.24      0.00
   -1    5    5      6.25      0.00
   -1    5    6      3.05      0.00
   -1    5    7     -0.19      0.00
   -1    5    8     -2.09      0.00
   -1    5    9     -2.38      0.00
   -1    5   10     -1.59      0.00
    1    7    8     -0.88      0.00
    1    7    7     -0.06      0.00
    1    7    6      1.28      0.00
    1    7    5      2.51      0.00
    1    7    4      2.72      0.00
    1    7    3      1.20      0.00
    1    7    2     -1.81      0.00
    1    7    1     -4.87      0.00
    1    7    0     -6.12      0.00
   -1    7    1     -4.69      0.00
   -1    7    3      1.65      0.00
   -1    7    4      3.13      0.00
   -1    7    5      2.73      0.00
   -1    7    6      1.21      0.00
   -1    7    7     -0.41      0.00
   -1    7    8     -1.43      0.00
   -1    7    9     -1.59      0.00
   -1    7   10     -1.07      0.00
    1    9    7      0.23      0.00
    1    9    6      0.96      0.00
    1    9    5      1.53      0.00
    1    9    4      1.60      0.00
    1    9    3      0.95      0.00
    1    9    2     -0.30      0.00
    1    9    1     -1.57      0.00
    1    9    0     -2.15      0.00
   -1    9    1     -1.72      0.00
   -1    9    2     -0.58      0.00
   -1    9    3      0.59      0.00
   -1    9    4      1.32      0.00
   -1    9    5      1.46      0.00
   -1    9    6      1.13      0.00
   -1    9    7      0.49      0.00
   -1    9    8     -0.17      0.00
    1   11    5      0.31      0.00
    1   11    4      0.38      0.00
    1   11    3      0.04      0.00
    1   11    2     -0.67      0.00
    1   11    1     -1.36      0.00
    1   11    0     -1.53      0.00
   -1   11    1     -1.01      0.00
   -1   11    2     -0.13      0.00
   -1   11    3      0.57      0.00
   -1   11    4      0.83      0.00
   -1   11    5      0.72      0.00
   -1   11    6      0.48      0.00
    1   13    2     -0.60      0.00
    1   13    1     -0.56      0.00
    1   13    0     -0.39      0.00
   -1   13    1     -0.12      0.00
   -1   13    2      0.06      0.00
   -1   13    3     -0.01      0.00
    2   10    6     -0.52      0.00
    2   10    5     -1.00      0.00
    2   10    4     -1.13      0.00
    2   10    3     -0.66      0.00
    2   10    2      0.31      0.00
    2   10    1      1.27      0.00
    2    8    8      0.32      0.00
    2    8    7     -0.23      0.00
    2    8    6     -1.04      0.00
    2    8    0      3.13      0.00
   -2    8    1      2.48      0.00
    2    6    9      0.71      0.00
    2    6    8      0.52      0.00
    2    6    7     -0.40      0.00
    2    6    6     -1.85      0.00
   -2    6    1      5.84      0.00
   -2    6    2      0.92      0.00
    2    4    9      1.50      0.00
    2    4    8      0.97      0.00
    2    4    7     -0.76      0.00
    2    4    6     -3.11      0.00
    2    4    5     -4.76      0.00
    2    4    0     13.36      0.00
   -2    4    1      8.80      0.00
   -2    4    2      0.59      0.00
    2    2   10      1.42      0.00
    2    2    9      1.81      0.00
    2    2    8      0.89      0.00
    2    2    7     -1.51      0.00
    2    2    6     -4.69      0.00
    2    2    5     -6.91      0.00
    2    2    4     -5.82      0.00
    2    2    3      0.14      0.00
    2    2    2      9.74      0.00
    2    2    1     18.49      0.00
    2    2    0     20.91      0.00
   -2    2    1     14.60      0.00
   -2    2    2      2.51      0.00
   -2    2    5    -12.59      0.00
   -2    2    6     -6.66      0.00
   -2    2    7     -0.64      0.00
   -2    2    8      2.90      0.00
    2    0   10      1.43      0.00
    2    0    9      1.67      0.00
    2    0    8      0.60      0.00
    2    0    7     -2.11      0.00
    2    0    6     -5.82      0.00
    2    0    5     -8.58      0.00
    2    0    4     -7.42      0.00
    2    0    3     -0.19      0.00
    2    0    2     11.85      0.00
    2    0    1     23.17      0.00
    2    0    0     26.82      0.00
   -2    0    2      4.65      0.00
   -2    0    3     -9.85      0.00
   -2    0    4    -17.03      0.00
   -2    0    5    -15.28      0.00
   -2    0    6     -8.15      0.00
   -2    0    7     -0.81      0.00
   -2    0    8      3.47      0.00
   -2    0    9      4.27      0.00
   -2    0   10      2.97      0.00
   -2    0   11      1.21      0.00
   -2    0   12      0.02      0.00
   -2    2    3     -8.94      0.00
   -2    2    4    -14.33      0.00
   -2    2    9      3.57      0.00
   -2    2   10      2.42      0.00
   -2    2   11      0.82      0.00
   -2    2   12     -0.26      0.00
    2    4    4     -4.08      0.00
    2    4    3     -0.04      0.00
    2    4    2      6.39      0.00
    2    4    1     12.08      0.00
   -2    4    3     -6.89      0.00
   -2    4    4    -10.11      0.00
   -2    4    5     -8.54      0.00
   -2    4    6     -4.28      0.00
   -2    4    7     -0.07      0.00
   -2    4    8      2.35      0.00
   -2    4    9      2.71      0.00
   -2    4   10      1.72      0.00
   -2    4   11      0.46      0.00
    2    6    5     -3.11      0.00
    2    6    4     -3.03      0.00
    2    6    3     -0.78      0.00
    2    6    2      3.27      0.00
    2    6    1      7.13      0.00
    2    6    0      8.35      0.00
   -2    6    3     -3.63      0.00
   -2    6    4     -5.59      0.00
   -2    6    5     -4.63      0.00
   -2    6    6     -2.04      0.00
   -2    6    7      0.50      0.00
   -2    6    8      1.92      0.00
   -2    6    9      2.02      0.00
   -2    6   10      1.26      0.00
    2    8    5     -1.77      0.00
    2    8    4     -1.93      0.00
    2    8    3     -1.13      0.00
    2    8    2      0.55      0.00
    2    8    1      2.31      0.00
   -2    8    2      0.82      0.00
   -2    8    3     -0.82      0.00
   -2    8    4     -1.69      0.00
   -2    8    5     -1.66      0.00
   -2    8    6     -1.01      0.00
   -2    8    7     -0.12      0.00
   -2    8    8      0.65      0.00
   -2    8    9      0.98      0.00
    2   10    0      1.59      0.00
   -2   10    1      1.08      0.00
   -2   10    2      0.09      0.00
   -2   10    3     -0.81      0.00
   -2   10    4     -1.29      0.00
   -2   10    5     -1.35      0.00
   -2   10    6     -1.11      0.00
   -2   10    7     -0.66      0.00
   -2   10    8     -0.17      0.00
    2   12    3      0.32      0.00
    2   12    2      0.74      0.00
    2   12    1      1.06      0.00
    2   12    0      0.89      0.00
   -2   12    1      0.18      0.00
   -2   12    2     -0.63      0.00
   -2   12    3     -1.05      0.00
   -2   12    4     -0.94      0.00
   -2   12    5     -0.58      0.00
    3   11    4      0.64      0.00
    3   11    3      0.24      0.00
    3    9    6      0.71      0.00
    3    9    5      1.24      0.00
    3    9    4      1.42      0.00
    3    9    3      0.96      0.00
    3    9    2     -0.06      0.00
    3    9    1     -1.14      0.00
    3    9    0     -1.60      0.00
    3    7    7      0.62      0.00
    3    7    6      1.39      0.00
    3    7    5      2.08      0.00
    3    7    4      2.11      0.00
    3    7    3      0.93      0.00
    3    7    2     -1.34      0.00
    3    7    1     -3.63      0.00
    3    7    0     -4.44      0.00
   -3    7    1     -3.08      0.00
   -3    7    2     -0.27      0.00
    3    5    8     -0.26      0.00
    3    5    7      0.81      0.00
    3    5    6      2.31      0.00
    3    5    5      3.35      0.00
    3    5    4      2.76      0.00
    3    5    3     -0.19      0.00
    3    5    2     -4.87      0.00
    3    5    1     -8.97      0.00
    3    5    0     -9.75      0.00
   -3    5    1     -6.12      0.00
   -3    5    2      0.26      0.00
    3    3    9     -1.48      0.00
    3    3    8     -0.91      0.00
    3    3    7      0.84      0.00
    3    3    6      3.06      0.00
    3    3    5      4.37      0.00
    3    3    4      3.19      0.00
    3    3    3     -1.29      0.00
    3    3    2     -7.95      0.00
    3    3    1    -13.50      0.00
    3    3    0    -14.19      0.00
   -3    3    1     -8.59      0.00
   -3    3    2      0.86      0.00
   -3    3    3      9.27      0.00
    3    1    9     -1.35      0.00
    3    1    8     -0.54      0.00
    3    1    7      1.60      0.00
    3    1    6      4.38      0.00
    3    1    5      6.19      0.00
    3    1    4      4.92      0.00
    3    1    3     -0.83      0.00
    3    1    2     -9.90      0.00
    3    1    1    -17.97      0.00
    3    1    0    -19.68      0.00
   -3    1    1    -12.63      0.00
   -3    1    2      0.24      0.00
   -3    1    3     12.20      0.00
   -3    1    4     17.44      0.00
   -3    1    5     14.69      0.00
   -3    1    6      7.26      0.00
   -3    1    7     -0.05      0.00
   -3    1    8     -4.14      0.00
   -3    1    9     -4.64      0.00
   -3    1   10     -2.98      0.00
   -3    1   11     -0.95      0.00
   -3    1   12      0.33      0.00
   -3    3    4     12.65      0.00
   -3    3    5     10.40      0.00
   -3    3    6      5.00      0.00
   -3    3    7     -0.21      0.00
   -3    3    8     -3.09      0.00
   -3    3    9     -3.36      0.00
   -3    3   10     -1.98      0.00
   -3    3   11     -0.31      0.00
   -3    3   12      0.68      0.00
   -3    5    3      5.97      0.00
   -3    5    4      8.25      0.00
   -3    5    5      6.72      0.00
   -3    5    6      3.09      0.00
   -3    5    7     -0.37      0.00
   -3    5    8     -2.22      0.00
   -3    5    9     -2.28      0.00
   -3    5   10     -1.24      0.00
   -3    5   11     -0.11      0.00
   -3    7    3      2.33      0.00
   -3    7    4      3.43      0.00
   -3    7    5      2.86      0.00
   -3    7    6      1.37      0.00
   -3    7    7     -0.14      0.00
   -3    7    8     -1.09      0.00
   -3    7    9     -1.27      0.00
   -3    7   10     -0.85      0.00
   -3    9    1     -1.18      0.00
   -3    9    2     -0.22      0.00
   -3    9    3      0.69      0.00
   -3    9    4      1.20      0.00
   -3    9    5      1.31      0.00
   -3    9    6      1.08      0.00
   -3    9    7      0.56      0.00
   -3    9    8     -0.10      0.00
   -3    9    9     -0.57      0.00
    3   11    2     -0.61      0.00
    3   11    1     -1.34      0.00
    3   11    0     -1.35      0.00
   -3   11    1     -0.49      0.00
   -3   11    2      0.71      0.00
   -3   11    3      1.56      0.00
   -3   11    4      1.75      0.00
   -3   11    5      1.44      0.00
   -3   11    6      0.93      0.00
   -3   11    7      0.45      0.00
    3   13    0     -0.29      0.00
   -3   13    1      0.35      0.00
   -3   13    2      0.97      0.00
   -3   13    3      1.18      0.00
    4   10    5     -0.83      0.00
    4   10    4     -0.96      0.00
    4   10    3     -0.51      0.00
    4   10    2      0.45      0.00
    4   10    1      1.33      0.00
    4    8    6     -0.90      0.00
    4    8    5     -1.30      0.00
    4    8    4     -1.40      0.00
    4    8    3     -0.90      0.00
    4    8    2      0.18      0.00
    4    8    1      1.29      0.00
    4    8    0      1.68      0.00
   -4    8    1      0.99      0.00
   -4    8    2     -0.35      0.00
    4    6    7     -1.03      0.00
    4    6    6     -1.82      0.00
    4    6    5     -2.41      0.00
    4    6    4     -2.16      0.00
    4    6    3     -0.50      0.00
    4    6    2      2.33      0.00
    4    6    1      4.96      0.00
    4    6    0      5.58      0.00
   -4    6    1      3.34      0.00
   -4    6    2     -0.75      0.00
   -4    6    3     -4.44      0.00
    4    4    8      0.47      0.00
    4    4    7     -0.71      0.00
    4    4    6     -2.25      0.00
    4    4    5     -3.11      0.00
    4    4    4     -2.18      0.00
    4    4    3      1.09      0.00
    4    4    2      5.83      0.00
    4    4    1      9.66      0.00
    4    4    0      9.89      0.00
   -4    4    1      5.51      0.00
   -4    4    2     -1.60      0.00
   -4    4    4    -10.03      0.00
   -4    4    5     -7.94      0.00
    4    2    8      0.79      0.00
    4    2    7     -0.76      0.00
    4    2    6     -2.75      0.00
    4    2    5     -3.82      0.00
    4    2    4     -2.52      0.00
    4    2    3      1.81      0.00
    4    2    2      8.05      0.00
    4    2    1     13.02      0.00
    4    2    0     13.09      0.00
   -4    2    1      6.90      0.00
   -4    2    2     -3.07      0.00
   -4    2    3    -11.74      0.00
   -4    2    5    -11.77      0.00
   -4    2    6     -5.18      0.00
   -4    2    7      1.02      0.00
   -4    2    8      4.32      0.00
   -4    2    9      4.40      0.00
   -4    2   10      2.52      0.00
   -4    2   11      0.37      0.00
    4    0    9      0.92      0.00
    4    0    8      0.36      0.00
    4    0    7     -1.30      0.00
    4    0    6     -3.44      0.00
    4    0    5     -4.70      0.00
    4    0    4     -3.40      0.00
    4    0    3      1.43      0.00
    4    0    2      8.69      0.00
    4    0    1     14.78      0.00
    4    0    0     15.26      0.00
   -4    0    1      8.22      0.00
   -4    0    2     -3.62      0.00
   -4    0    3    -14.21      0.00
   -4    0    4    -18.24      0.00
   -4    0    5    -14.64      0.00
   -4    0    6     -6.64      0.00
   -4    0    7      1.00      0.00
   -4    0    8      5.11      0.00
   -4    0    9      5.33      0.00
   -4    0   10      3.26      0.00
   -4    0   11      0.91      0.00
   -4    0   12     -0.49      0.00
   -4    2    4    -14.88      0.00
   -4    2   12     -0.90      0.00
   -4    4    3     -7.77      0.00
   -4    4    6     -3.46      0.00
   -4    4    7      0.73      0.00
   -4    4    8      2.92      0.00
   -4    4    9      2.87      0.00
   -4    4   10      1.43      0.00
   -4    4   11     -0.16      0.00
   -4    4   12     -0.96      0.00
   -4    6    4     -5.85      0.00
   -4    6    5     -4.69      0.00
   -4    6    6     -2.15      0.00
   -4    6    7      0.24      0.00
   -4    6    8      1.51      0.00
   -4    6    9      1.52      0.00
   -4    6   10      0.77      0.00
   -4    6   11     -0.03      0.00
   -4    8    3     -1.52      0.00
   -4    8    4     -1.99      0.00
   -4    8    5     -1.76      0.00
   -4    8    6     -1.13      0.00
   -4    8    7     -0.36      0.00
   -4    8    8      0.35      0.00
   -4    8    9      0.77      0.00
   -4    8   10      0.74      0.00
    4   10    0      1.49      0.00
   -4   10    1      0.76      0.00
   -4   10    2     -0.40      0.00
   -4   10    3     -1.32      0.00
   -4   10    4     -1.66      0.00
   -4   10    5     -1.52      0.00
   -4   10    6     -1.07      0.00
   -4   10    7     -0.45      0.00
   -4   10    8      0.21      0.00
    4   12    2      0.63      0.00
    4   12    1      1.17      0.00
    4   12    0      1.02      0.00
   -4   12    1      0.08      0.00
   -4   12    2     -1.11      0.00
   -4   12    3     -1.83      0.00
   -4   12    4     -1.81      0.00
   -4   12    5     -1.28      0.00
   -4   12    6     -0.67      0.00
    5   11    3      0.10      0.00
    5    9    5      0.78      0.00
    5    9    4      0.84      0.00
    5    9    3      0.43      0.00
    5    9    2     -0.36      0.00
    5    9    1     -1.07      0.00
    5    9    0     -1.14      0.00
   -5    9    1     -0.42      0.00
    5    7    6      1.12      0.00
    5    7    5      1.37      0.00
    5    7    4      1.32      0.00
    5    7    3      0.65      0.00
    5    7    2     -0.61      0.00
    5    7    1     -1.84      0.00
    5    7    0     -2.10      0.00
   -5    7    1     -0.89      0.00
   -5    7    2      1.24      0.00
   -5    7    3      3.08      0.00
    5    5    7      0.93      0.00
    5    5    6      1.85      0.00
    5    5    5      2.43      0.00
    5    5    4      1.97      0.00
    5    5    3      0.03      0.00
    5    5    2     -3.00      0.00
    5    5    1     -5.63      0.00
    5    5    0     -5.98      0.00
   -5    5    1     -3.18      0.00
   -5    5    2      1.60      0.00
   -5    5    3      5.83      0.00
    5    3    8     -0.72      0.00
    5    3    7      0.38      0.00
    5    3    6      1.85      0.00
    5    3    5      2.61      0.00
    5    3    4      1.60      0.00
    5    3    3     -1.55      0.00
    5    3    2     -5.88      0.00
    5    3    1     -9.08      0.00
    5    3    0     -8.70      0.00
   -5    3    1     -3.93      0.00
   -5    3    2      3.29      0.00
   -5    3    3      9.29      0.00
   -5    3    4     11.11      0.00
   -5    3    5      8.35      0.00
    5    1    8     -0.47      0.00
    5    1    7      0.70      0.00
    5    1    6      2.24      0.00
    5    1    5      2.98      0.00
    5    1    4      1.69      0.00
    5    1    3     -2.14      0.00
    5    1    2     -7.42      0.00
    5    1    1    -11.33      0.00
    5    1    0    -10.70      0.00
   -5    1    1     -4.39      0.00
   -5    1    2      5.21      0.00
   -5    1    3     13.30      0.00
   -5    1    4     15.77      0.00
   -5    1    5     11.95      0.00
   -5    1    6      4.67      0.00
   -5    1    7     -2.01      0.00
   -5    1    8     -5.41      0.00
   -5    1    9     -5.23      0.00
   -5    1   10     -2.95      0.00
   -5    1   11     -0.48      0.00
   -5    1   12      0.92      0.00
   -5    1   13      1.06      0.00
   -5    3    6      3.12      0.00
   -5    3    7     -1.67      0.00
   -5    3    8     -4.08      0.00
   -5    3    9     -3.83      0.00
   -5    3   10     -1.92      0.00
   -5    3   11      0.18      0.00
   -5    3   12      1.37      0.00
   -5    5    4      7.32      0.00
   -5    5    5      5.70      0.00
   -5    5    6      2.35      0.00
   -5    5    7     -0.78      0.00
   -5    5    8     -2.37      0.00
   -5    5    9     -2.21      0.00
   -5    5   10     -1.00      0.00
   -5    5   11      0.25      0.00
   -5    5   12      0.80      0.00
   -5    7    4      3.66      0.00
   -5    7    5      2.91      0.00
   -5    7    6      1.47      0.00
   -5    7    7      0.10      0.00
   -5    7    8     -0.74      0.00
   -5    7    9     -0.93      0.00
   -5    7   10     -0.64      0.00
   -5    7   11     -0.22      0.00
   -5    9    2      0.66      0.00
   -5    9    3      1.48      0.00
   -5    9    4      1.75      0.00
   -5    9    5      1.56      0.00
   -5    9    6      1.10      0.00
   -5    9    7      0.43      0.00
   -5    9    8     -0.33      0.00
   -5    9    9     -0.90      0.00
   -5    9   10     -1.00      0.00
    5   11    2     -0.82      0.00
    5   11    1     -1.64      0.00
    5   11    0     -1.65      0.00
   -5   11    1     -0.68      0.00
   -5   11    2      0.72      0.00
   -5   11    3      1.74      0.00
   -5   11    4      1.96      0.00
   -5   11    5      1.51      0.00
   -5   11    6      0.75      0.00
   -5   11    7      0.00      0.00
    6   10    3     -0.07      0.00
    6   10    2      0.82      0.00
    6   10    1      1.57      0.00
    6    8    5     -0.56      0.00
    6    8    4     -0.49      0.00
    6    8    3     -0.11      0.00
    6    8    2      0.53      0.00
    6    8    1      1.05      0.00
    6    8    0      0.94      0.00
   -6    8    1      0.02      0.00
   -6    8    2     -1.26      0.00
    6    6    6     -1.11      0.00
    6    6    5     -1.32      0.00
    6    6    4     -1.13      0.00
    6    6    3     -0.29      0.00
    6    6    2      1.16      0.00
    6    6    1      2.53      0.00
    6    6    0      2.74      0.00
   -6    6    1      1.18      0.00
   -6    6    2     -1.55      0.00
   -6    6    3     -3.97      0.00
    6    4    7     -0.49      0.00
    6    4    6     -1.50      0.00
    6    4    5     -2.11      0.00
    6    4    4     -1.60      0.00
    6    4    3      0.33      0.00
    6    4    2      3.15      0.00
    6    4    1      5.38      0.00
    6    4    0      5.29      0.00
   -6    4    1      2.23      0.00
   -6    4    2     -2.57      0.00
   -6    4    4     -7.76      0.00
   -6    4    5     -5.65      0.00
   -6    4    6     -1.77      0.00
    6    2    7     -0.29      0.00
    6    2    6     -1.48      0.00
    6    2    5     -2.06      0.00
    6    2    4     -1.04      0.00
    6    2    3      1.82      0.00
    6    2    2      5.56      0.00
    6    2    1      8.06      0.00
    6    2    0      7.14      0.00
   -6    2    1      2.20      0.00
   -6    2    2     -4.82      0.00
   -6    2    3    -10.40      0.00
   -6    2    4    -11.65      0.00
   -6    2    5     -8.27      0.00
   -6    2    6     -2.47      0.00
   -6    2    7      2.68      0.00
   -6    2    8      5.12      0.00
   -6    2    9      4.62      0.00
   -6    2   10      2.35      0.00
   -6    2   11     -0.06      0.00
   -6    2   12     -1.42      0.00
    6    0    7     -0.58      0.00
    6    0    6     -1.66      0.00
    6    0    5     -2.07      0.00
    6    0    4     -0.79      0.00
    6    0    3      2.46      0.00
    6    0    2      6.66      0.00
    6    0    1      9.47      0.00
    6    0    0      8.35      0.00
   -6    0    1      2.53      0.00
   -6    0    2     -5.84      0.00
   -6    0    3    -12.58      0.00
   -6    0    4    -14.21      0.00
   -6    0    5    -10.24      0.00
   -6    0    6     -3.28      0.00
   -6    0    7      2.91      0.00
   -6    0    8      5.86      0.00
   -6    0    9      5.32      0.00
   -6    0   10      2.83      0.00
   -6    0   11      0.31      0.00
   -6    0   12     -1.02      0.00
   -6    0   13     -1.05      0.00
   -6    2   13     -1.48      0.00
   -6    4    3     -6.61      0.00
   -6    4    7      1.79      0.00
   -6    4    8      3.55      0.00
   -6    4    9      3.22      0.00
   -6    4   10      1.55      0.00
   -6    4   11     -0.25      0.00
   -6    4   12     -1.25      0.00
   -6    6    4     -4.73      0.00
   -6    6    5     -3.59      0.00
   -6    6    6     -1.38      0.00
   -6    6    7      0.66      0.00
   -6    6    8      1.69      0.00
   -6    6    9      1.60      0.00
   -6    6   10      0.84      0.00
   -6    6   11      0.07      0.00
   -6    6   12     -0.24      0.00
   -6    8    3     -2.21      0.00
   -6    8    4     -2.40      0.00
   -6    8    5     -1.92      0.00
   -6    8    6     -1.10      0.00
   -6    8    7     -0.23      0.00
   -6    8    8      0.51      0.00
   -6    8    9      0.95      0.00
   -6    8   10      0.96      0.00
   -6    8   11      0.65      0.00
    6   10    0      1.57      0.00
   -6   10    1      0.65      0.00
   -6   10    2     -0.67      0.00
   -6   10    3     -1.65      0.00
   -6   10    4     -1.93      0.00
   -6   10    5     -1.58      0.00
   -6   10    6     -0.88      0.00
   -6   10    7     -0.02      0.00
   -6   10    8      0.80      0.00
   -6   10    9      1.28      0.00
    6   12    0      1.41      0.00
   -6   12    1      0.62      0.00
   -6   12    2     -0.51      0.00
   -6   12    3     -1.29      0.00
   -6   12    4     -1.35      0.00
   -6   12    5     -0.87      0.00
    7    9    3     -0.14      0.00
    7    9    2     -0.83      0.00
    7    9    1     -1.35      0.00
    7    9    0     -1.19      0.00
   -7    9    1     -0.26      0.00
    7    7    5      0.22      0.00
    7    7    4      0.01      0.00
    7    7    3     -0.42      0.00
    7    7    2     -1.04      0.00
    7    7    1     -1.54      0.00
    7    7    0     -1.40      0.00
   -7    7    1     -0.37      0.00
   -7    7    2      1.20      0.00
   -7    7    3      2.45      0.00
    7    5    5      1.12      0.00
    7    5    4      0.88      0.00
    7    5    3     -0.04      0.00
    7    5    2     -1.49      0.00
    7    5    1     -2.76      0.00
    7    5    0     -2.82      0.00
   -7    5    1     -1.12      0.00
   -7    5    2      1.73      0.00
   -7    5    3      4.21      0.00
   -7    5    5      3.44      0.00
   -7    5    6      0.76      0.00
    7    3    6      1.14      0.00
    7    3    5      1.71      0.00
    7    3    4      1.20      0.00
    7    3    3     -0.61      0.00
    7    3    2     -3.07      0.00
    7    3    1     -4.75      0.00
    7    3    0     -4.16      0.00
   -7    3    1     -0.88      0.00
   -7    3    2      3.78      0.00
   -7    3    3      7.38      0.00
   -7    3    4      7.97      0.00
   -7    3    5      5.31      0.00
   -7    3    6      1.00      0.00
    7    1    6      1.28      0.00
    7    1    5      1.61      0.00
    7    1    4      0.60      0.00
    7    1    3     -1.96      0.00
    7    1    2     -5.17      0.00
    7    1    1     -7.17      0.00
    7    1    0     -6.05      0.00
   -7    1    1     -1.36      0.00
   -7    1    2      5.13      0.00
   -7    1    3     10.15      0.00
   -7    1    4     11.00      0.00
   -7    1    5      7.41      0.00
   -7    1    6      1.56      0.00
   -7    1    7     -3.46      0.00
   -7    1    8     -5.61      0.00
   -7    1    9     -4.77      0.00
   -7    1   10     -2.28      0.00
   -7    1   11      0.12      0.00
   -7    1   12      1.34      0.00
   -7    1   13      1.26      0.00
   -7    3    7     -2.77      0.00
   -7    3    8     -4.49      0.00
   -7    3    9     -3.92      0.00
   -7    3   10     -1.92      0.00
   -7    3   11      0.22      0.00
   -7    3   12      1.47      0.00
   -7    3   13      1.54      0.00
   -7    5    4      4.89      0.00
   -7    5    7     -1.70      0.00
   -7    5    8     -2.89      0.00
   -7    5    9     -2.59      0.00
   -7    5   10     -1.35      0.00
   -7    5   11     -0.07      0.00
   -7    5   12      0.60      0.00
   -7    7    4      2.72      0.00
   -7    7    5      1.95      0.00
   -7    7    6      0.63      0.00
   -7    7    7     -0.59      0.00
   -7    7    8     -1.29      0.00
   -7    7    9     -1.35      0.00
   -7    7   10     -0.97      0.00
   -7    7   11     -0.50      0.00
   -7    9    2      0.96      0.00
   -7    9    3      1.82      0.00
   -7    9    4      2.00      0.00
   -7    9    5      1.60      0.00
   -7    9    6      0.87      0.00
   -7    9    7     -0.01      0.00
   -7    9    8     -0.86      0.00
   -7    9    9     -1.41      0.00
   -7    9   10     -1.40      0.00
    7   11    0     -1.48      0.00
   -7   11    1     -0.66      0.00
   -7   11    2      0.54      0.00
   -7   11    3      1.40      0.00
   -7   11    4      1.54      0.00
   -7   11    5      1.06      0.00
   -7   11    6      0.30      0.00
   -7   11    7     -0.46      0.00
    8   10    1      1.17      0.00
    8    8    3      0.61      0.00
    8    8    2      1.16      0.00
    8    8    1      1.51      0.00
    8    8    0      1.28      0.00
   -8    8    1      0.38      0.00
   -8    8    2     -0.79      0.00
    8    6    4      0.35      0.00
    8    6    3      0.84      0.00
    8    6    2      1.45      0.00
    8    6    1      1.93      0.00
    8    6    0      1.80      0.00
   -8    6    1      0.78      0.00
   -8    6    2     -0.85      0.00
   -8    6    3     -2.24      0.00
    8    4    5     -0.94      0.00
    8    4    4     -0.69      0.00
    8    4    3      0.23      0.00
    8    4    2      1.54      0.00
    8    4    1      2.49      0.00
    8    4    0      2.18      0.00
   -8    4    1      0.27      0.00
   -8    4    2     -2.54      0.00
   -8    4    4     -5.04      0.00
   -8    4    5     -3.17      0.00
   -8    4    6     -0.15      0.00
   -8    4    7      2.49      0.00
   -8    4    8      3.66      0.00
    8    2    5     -1.40      0.00
    8    2    4     -0.87      0.00
    8    2    3      0.81      0.00
    8    2    2      2.99      0.00
    8    2    1      4.35      0.00
    8    2    0      3.54      0.00
   -8    2    1      0.25      0.00
   -8    2    2     -4.24      0.00
   -8    2    3     -7.57      0.00
   -8    2    4     -7.83      0.00
   -8    2    5     -4.85      0.00
   -8    2    6     -0.29      0.00
   -8    2    7      3.50      0.00
   -8    2    8      4.97      0.00
   -8    2    9      4.03      0.00
   -8    2   10      1.78      0.00
   -8    2   11     -0.38      0.00
   -8    2   12     -1.49      0.00
   -8    2   13     -1.43      0.00
    8    0    6     -1.16      0.00
    8    0    5     -1.41      0.00
    8    0    4     -0.57      0.00
    8    0    3      1.51      0.00
    8    0    2      4.15      0.00
    8    0    1      5.81      0.00
    8    0    0      4.92      0.00
   -8    0    1      1.03      0.00
   -8    0    2     -4.38      0.00
   -8    0    3     -8.55      0.00
   -8    0    4     -9.11      0.00
   -8    0    5     -5.78      0.00
   -8    0    6     -0.49      0.00
   -8    0    7      3.91      0.00
   -8    0    8      5.54      0.00
   -8    0    9      4.37      0.00
   -8    0   10      1.81      0.00
   -8    0   11     -0.43      0.00
   -8    0   12     -1.38      0.00
   -8    0   13     -1.12      0.00
   -8    4    3     -4.75      0.00
   -8    4    9      3.15      0.00
   -8    4   10      1.60      0.00
   -8    4   11     -0.03      0.00
   -8    4   12     -0.96      0.00
   -8    4   13     -1.02      0.00
   -8    6    4     -2.57      0.00
   -8    6    5     -1.62      0.00
   -8    6    6      0.05      0.00
   -8    6    7      1.55      0.00
   -8    6    8      2.23      0.00
   -8    6    9      1.96      0.00
   -8    6   10      1.12      0.00
   -8    6   11      0.32      0.00
   -8    6   12     -0.04      0.00
   -8    8    3     -1.62      0.00
   -8    8    4     -1.73      0.00
   -8    8    5     -1.18      0.00
   -8    8    6     -0.28      0.00
   -8    8    7      0.64      0.00
   -8    8    8      1.32      0.00
   -8    8    9      1.57      0.00
   -8    8   10      1.34      0.00
   -8    8   11      0.81      0.00
    8   10    0      1.12      0.00
   -8   10    1      0.34      0.00
   -8   10    2     -0.75      0.00
   -8   10    3     -1.50      0.00
   -8   10    4     -1.60      0.00
   -8   10    5     -1.15      0.00
   -8   10    6     -0.40      0.00
   -8   10    7      0.45      0.00
   -8   10    8      1.21      0.00
   -8   10    9      1.63      0.00
    9    9    1     -1.04      0.00
    9    9    0     -0.96      0.00
   -9    9    1     -0.27      0.00
    9    7    3     -1.02      0.00
    9    7    2     -1.43      0.00
    9    7    1     -1.65      0.00
    9    7    0     -1.41      0.00
   -9    7    1     -0.63      0.00
   -9    7    2      0.43      0.00
   -9    7    3      1.23      0.00
    9    5    4     -0.36      0.00
    9    5    3     -0.87      0.00
    9    5    2     -1.42      0.00
    9    5    1     -1.73      0.00
    9    5    0     -1.43      0.00
   -9    5    1     -0.31      0.00
   -9    5    2      1.29      0.00
   -9    5    3      2.57      0.00
   -9    5    6     -0.38      0.00
    9    3    4      0.55      0.00
    9    3    3     -0.36      0.00
    9    3    2     -1.56      0.00
    9    3    1     -2.28      0.00
    9    3    0     -1.69      0.00
   -9    3    1      0.42      0.00
   -9    3    2      3.26      0.00
   -9    3    3      5.29      0.00
   -9    3    4      5.22      0.00
   -9    3    5      2.93      0.00
   -9    3    6     -0.42      0.00
   -9    3    7     -3.13      0.00
   -9    3    8     -4.07      0.00
    9    1    5      1.18      0.00
    9    1    4      0.71      0.00
    9    1    3     -0.70      0.00
    9    1    2     -2.56      0.00
    9    1    1     -3.78      0.00
    9    1    0     -3.17      0.00
   -9    1    1     -0.35      0.00
   -9    1    2      3.62      0.00
   -9    1    3      6.65      0.00
   -9    1    4      6.87      0.00
   -9    1    5      3.99      0.00
   -9    1    6     -0.43      0.00
   -9    1    7     -4.01      0.00
   -9    1    8     -5.12      0.00
   -9    1    9     -3.77      0.00
   -9    1   10     -1.30      0.00
   -9    1   11      0.73      0.00
   -9    1   12      1.49      0.00
   -9    1   13      1.14      0.00
   -9    3    9     -3.19      0.00
   -9    3   10     -1.33      0.00
   -9    3   11      0.40      0.00
   -9    3   12      1.26      0.00
   -9    3   13      1.20      0.00
   -9    5    4      2.72      0.00
   -9    5    5      1.53      0.00
   -9    5    7     -2.02      0.00
   -9    5    8     -2.64      0.00
   -9    5    9     -2.13      0.00
   -9    5   10     -1.01      0.00
   -9    5   11      0.02      0.00
   -9    5   12      0.48      0.00
   -9    7    4      1.33      0.00
   -9    7    5      0.66      0.00
   -9    7    6     -0.41      0.00
   -9    7    7     -1.38      0.00
   -9    7    8     -1.83      0.00
   -9    7    9     -1.65      0.00
   -9    7   10     -1.05      0.00
   -9    7   11     -0.41      0.00
   -9    9    2      0.65      0.00
   -9    9    3      1.26      0.00
   -9    9    4      1.26      0.00
   -9    9    5      0.76      0.00
   -9    9    6      0.00      0.00
   -9    9    7     -0.83      0.00
   -9    9    8     -1.53      0.00
   -9    9    9     -1.86      0.00
   -9    9   10     -1.63      0.00
   -9   11    3      1.05      0.00
   -9   11    4      0.87      0.00
   -9   11    5      0.37      0.00
   -9   11    6     -0.19      0.00
   10    8    1      0.89      0.00
   10    8    0      0.77      0.00
  -10    8    1      0.20      0.00
  -10    8    2     -0.54      0.00
  -10    8    3     -1.00      0.00
   10    6    2      1.24      0.00
   10    6    1      1.25      0.00
   10    6    0      0.91      0.00
  -10    6    1      0.17      0.00
  -10    6    2     -0.75      0.00
  -10    6    3     -1.43      0.00
   10    4    3      0.75      0.00
   10    4    2      1.28      0.00
   10    4    1      1.46      0.00
   10    4    0      0.94      0.00
  -10    4    1     -0.38      0.00
  -10    4    2     -2.06      0.00
  -10    4    4     -3.07      0.00
  -10    4    5     -1.50      0.00
  -10    4    6      0.72      0.00
  -10    4    7      2.44      0.00
  -10    4    8      2.85      0.00
   10    2    4     -0.37      0.00
   10    2    3      0.43      0.00
   10    2    2      1.50      0.00
   10    2    1      2.14      0.00
   10    2    0      1.61      0.00
  -10    2    1     -0.34      0.00
  -10    2    3     -4.93      0.00
  -10    2    4     -4.80      0.00
  -10    2    5     -2.40      0.00
  -10    2    6      1.09      0.00
  -10    2    7      3.80      0.00
  -10    2    8      4.44      0.00
  -10    2    9      3.05      0.00
  -10    2   10      0.81      0.00
  -10    2   11     -0.93      0.00
  -10    2   12     -1.49      0.00
  -10    2   13     -1.10      0.00
   10    0    4     -0.55      0.00
   10    0    3      0.42      0.00
   10    0    2      1.73      0.00
   10    0    1      2.63      0.00
   10    0    0      2.26      0.00
  -10    0    1      0.22      0.00
  -10    0    2     -2.82      0.00
  -10    0    3     -5.24      0.00
  -10    0    4     -5.40      0.00
  -10    0    5     -2.88      0.00
  -10    0    6      1.05      0.00
  -10    0    7      4.19      0.00
  -10    0    8      4.96      0.00
  -10    0    9      3.36      0.00
  -10    0   10      0.81      0.00
  -10    0   11     -1.07      0.00
  -10    0   12     -1.53      0.00
  -10    0   13     -0.95      0.00
  -10    2    2     -2.99      0.00
  -10    4    3     -3.22      0.00
  -10    4    9      1.99      0.00
  -10    4   10      0.56      0.00
  -10    4   11     -0.57      0.00
  -10    4   12     -0.97      0.00
  -10    4   13     -0.74      0.00
  -10    6    4     -1.43      0.00
  -10    6    5     -0.66      0.00
  -10    6    6      0.53      0.00
  -10    6    7      1.50      0.00
  -10    6    8      1.76      0.00
  -10    6    9      1.27      0.00
  -10    6   10      0.43      0.00
  -10    6   11     -0.22      0.00
  -10    6   12     -0.40      0.00
  -10    8    4     -0.90      0.00
  -10    8    5     -0.31      0.00
  -10    8    6      0.53      0.00
  -10    8    7      1.30      0.00
  -10    8    8      1.76      0.00
  -10    8    9      1.76      0.00
  -10    8   10      1.29      0.00
  -10   10    2     -0.63      0.00
  -10   10    3     -0.87      0.00
  -10   10    4     -0.64      0.00
  -10   10    5     -0.14      0.00
  -10   10    6      0.41      0.00
  -10   10    7      0.91      0.00
  -10   10    8      1.34      0.00
   11    7    0     -0.09      0.00
  -11    7    1      0.41      0.00
  -11    7    2      0.95      0.00
  -11    7    3      1.24      0.00
   11    5    2     -0.91      0.00
   11    5    1     -0.80      0.00
   11    5    0     -0.34      0.00
  -11    5    1      0.46      0.00
  -11    5    2      1.34      0.00
  -11    5    6     -0.67      0.00
  -11    5    7     -1.62      0.00
   11    3    2     -1.24      0.00
   11    3    1     -1.44      0.00
   11    3    0     -0.92      0.00
  -11    3    1      0.41      0.00
  -11    3    2      2.08      0.00
  -11    3    4      2.88      0.00
  -11    3    5      1.03      0.00
  -11    3    6     -1.48      0.00
  -11    3    7     -3.28      0.00
  -11    3    8     -3.41      0.00
  -11    3    9     -2.00      0.00
   11    1    3     -0.43      0.00
   11    1    2     -1.16      0.00
   11    1    1     -1.58      0.00
   11    1    0     -1.20      0.00
  -11    1    1      0.24      0.00
  -11    1    2      2.32      0.00
  -11    1    3      3.93      0.00
  -11    1    4      3.87      0.00
  -11    1    5      1.73      0.00
  -11    1    6     -1.52      0.00
  -11    1    7     -4.07      0.00
  -11    1    8     -4.49      0.00
  -11    1    9     -2.79      0.00
  -11    1   10     -0.31      0.00
  -11    1   11      1.39      0.00
  -11    1   12      1.64      0.00
  -11    1   13      0.92      0.00
  -11    3    3      3.19      0.00
  -11    3   10     -0.08      0.00
  -11    3   11      1.22      0.00
  -11    3   12      1.45      0.00
  -11    3   13      0.93      0.00
  -11    5    3      1.88      0.00
  -11    5    4      1.68      0.00
  -11    5    5      0.68      0.00
  -11    5    8     -1.63      0.00
  -11    5    9     -0.81      0.00
  -11    5   10      0.25      0.00
  -11    5   11      0.89      0.00
  -11    5   12      0.85      0.00
  -11    7    4      1.03      0.00
  -11    7    5      0.36      0.00
  -11    7    6     -0.53      0.00
  -11    7    7     -1.23      0.00
  -11    7    8     -1.43      0.00
  -11    7    9     -1.09      0.00
  -11    7   10     -0.44      0.00
  -11    7   11      0.15      0.00
  -11    9    2      0.59      0.00
  -11    9    3      0.72      0.00
  -11    9    4      0.44      0.00
  -11    9    5     -0.11      0.00
  -11    9    6     -0.70      0.00
  -11    9    7     -1.21      0.00
  -11    9    8     -1.55      0.00
  -11    9    9     -1.62      0.00
  -12    8    2     -0.97      0.00
   12    6    0     -0.50      0.00
  -12    6    1     -0.96      0.00
  -12    6    2     -1.32      0.00
   12    4    1      0.84      0.00
   12    4    0      0.43      0.00
  -12    4    1     -0.35      0.00
  -12    4    2     -1.23      0.00
  -12    4    5     -0.07      0.00
  -12    4    6      1.53      0.00
  -12    4    7      2.51      0.00
  -12    4    8      2.23      0.00
   12    2    1      1.17      0.00
   12    2    0      0.73      0.00
  -12    2    1     -0.33      0.00
  -12    2    3     -2.62      0.00
  -12    2    4     -2.32      0.00
  -12    2    5     -0.54      0.00
  -12    2    6      1.97      0.00
  -12    2    7      3.78      0.00
  -12    2    8      3.77      0.00
  -12    2    9      2.00      0.00
  -12    2   10     -0.31      0.00
  -12    2   11     -1.75      0.00
  -12    2   12     -1.80      0.00
  -12    2   13     -0.97      0.00
   12    0    2      0.79      0.00
   12    0    1      0.82      0.00
   12    0    0      0.38      0.00
  -12    0    1     -0.63      0.00
  -12    0    2     -2.00      0.00
  -12    0    3     -3.07      0.00
  -12    0    4     -2.95      0.00
  -12    0    5     -1.20      0.00
  -12    0    6      1.52      0.00
  -12    0    7      3.70      0.00
  -12    0    8      3.96      0.00
  -12    0    9      2.25      0.00
  -12    0   10     -0.17      0.00
  -12    0   11     -1.71      0.00
  -12    0   12     -1.72      0.00
  -12    0   13     -0.78      0.00
  -12    2    2     -1.69      0.00
  -12    4    3     -1.71      0.00
  -12    4    4     -1.34      0.00
  -12    4    9      0.88      0.00
  -12    4   10     -0.65      0.00
  -12    4   11     -1.47      0.00
  -12    4   12     -1.32      0.00
  -12    6    3     -1.42      0.00
  -12    6    4     -1.09      0.00
  -12    6    5     -0.34      0.00
  -12    6    6      0.55      0.00
  -12    6    7      1.12      0.00
  -12    6    8      1.05      0.00
  -12    6    9      0.39      0.00
  -12    6   10     -0.39      0.00
  -12    6   11     -0.80      0.00
  -12    8    3     -1.00      0.00
  -12    8    4     -0.65      0.00
  -12    8    5     -0.03      0.00
  -12    8    6      0.65      0.00
  -12    8    7      1.15      0.00
  -12    8    8      1.33      0.00
  -12    8    9      1.16      0.00
  -13    5    1      0.63      0.00
  -13    5    7     -1.80      0.00
   13    3    0     -0.57      0.00
  -13    3    5     -0.54      0.00
  -13    3    6     -2.28      0.00
  -13    3    7     -3.35      0.00
  -13    3    8     -2.95      0.00
  -13    3    9     -1.20      0.00
  -13    3   10      0.83      0.00
   13    1    0      0.05      0.00
  -13    1    1      0.84      0.00
  -13    1    3      2.28      0.00
  -13    1    4      1.99      0.00
  -13    1    5      0.56      0.00
  -13    1    6     -1.57      0.00
  -13    1    7     -3.20      0.00
  -13    1    8     -3.23      0.00
  -13    1    9     -1.56      0.00
  -13    1   10      0.66      0.00
  -13    1   11      1.99      0.00
  -13    1   12      1.84      0.00
  -13    1   13      0.80      0.00
  -13    1    2      1.71      0.00
  -13    3    1      0.07      0.00
  -13    3    2      0.82      0.00
  -13    3    3      1.23      0.00
  -13    3    4      0.82      0.00
  -13    3   11      1.95      0.00
  -13    3   12      1.79      0.00
  -13    5    2      0.87      0.00
  -13    5    3      0.85      0.00
  -13    5    4      0.42      0.00
  -13    5    5     -0.42      0.00
  -13    5    6     -1.34      0.00
  -13    5    8     -1.41      0.00
  -13    5    9     -0.34      0.00
  -13    5   10      0.75      0.00
  -13    5   11      1.20      0.00
  -13    7    3      1.09      0.00
  -13    7    4      0.68      0.00
  -13    7    5      0.05      0.00
  -13    7    6     -0.60      0.00
  -13    7    7     -1.01      0.00
  -13    7    8     -0.99      0.00
  -13    7    9     -0.58      0.00
  -13    7   10     -0.03      0.00
  -14    4    6      2.19      0.00
  -14    4    7      2.69      0.00
  -14    4    8      2.14      0.00
  -14    2    2     -0.98      0.00
  -14    2    4     -0.84      0.00
  -14    2    5      0.32      0.00
  -14    2    6      1.89      0.00
  -14    2    7      2.97      0.00
  -14    2    8      2.70      0.00
  -14    2    9      1.07      0.00
  -14    2   10     -0.94      0.00
  -14    2   11     -2.10      0.00
  -14    0    1     -1.31      0.00
  -14    0    2     -1.82      0.00
  -14    0    3     -2.02      0.00
  -14    0    4     -1.68      0.00
  -14    0    5     -0.61      0.00
  -14    0    6      0.96      0.00
  -14    0    7      2.22      0.00
  -14    0    8      2.26      0.00
  -14    0    9      0.92      0.00
  -14    0   10     -0.91      0.00
  -14    0   11     -1.95      0.00
  -14    0   12     -1.66      0.00
  -14    2    1     -0.45      0.00
  -14    2    3     -1.22      0.00
  -14    2   12     -1.90      0.00
  -14    4    2     -0.18      0.00
  -14    4    3     -0.15      0.00
  -14    4    4      0.28      0.00
  -14    4    5      1.17      0.00
  -14    4    9      0.71      0.00
  -14    4   10     -0.81      0.00
  -14    4   11     -1.55      0.00
  -14    6    4      0.04      0.00
  -14    6    5      0.59      0.00
  -14    6    6      1.11      0.00
  -14    6    7      1.33      0.00
  -14    6    8      1.06      0.00
  -14    6    9      0.38      0.00
  -14    6   10     -0.29      0.00
  -15    3    6     -2.01      0.00
  -15    3    7     -2.62      0.00
  -15    3    8     -2.21      0.00
  -15    3    9     -0.82      0.00
  -15    3   10      0.81      0.00
  -15    1    4      0.98      0.00
  -15    1    5      0.17      0.00
  -15    1    6     -0.95      0.00
  -15    1    7     -1.80      0.00
  -15    1    8     -1.73      0.00
  -15    1    9     -0.60      0.00
  -15    1   10      0.90      0.00
  -15    1   11      1.76      0.00
  -15    1    3      1.34      0.00
  -15    3    4     -0.18      0.00
  -15    3    5     -0.99      0.00
  -15    3   11      1.71      0.00
  -15    5    5     -1.23      0.00
  -15    5    6     -1.67      0.00
  -15    5    7     -1.80      0.00
  -15    5    8     -1.37      0.00
  -15    5    9     -0.47      0.00
  -16    2    6      1.14      0.00
  -16    2    7      1.70      0.00
  -16    2    8      1.56      0.00
  -16    2    9      0.61      0.00
  -16    2   10     -0.64      0.00
  -16    0    5     -0.12      0.00
  -16    0    6      0.53      0.00
  -16    0    7      1.07      0.00
  -16    0    8      1.06      0.00
  -16    0    9      0.35      0.00
  -16    0   10     -0.63      0.00
   14    0    0     -0.64      0.00
    1    1    0    -29.29      0.00
   14    2    0      0.08      0.00
   14    4    0      0.18      0.00
   13    5    0      0.30      0.00
   13    7    0      0.77      0.00
   12    8    0     -0.34      0.00
   11    9    0     -0.17      0.00
   10   10    0      0.33      0.00
    9   11    0     -0.49      0.00
    8   12    0      0.77      0.00
    5   13    0     -0.78      0.00
    7   13    0     -0.81      0.00
   -2    0    1     19.52      0.00
    0    0    1     27.08      0.00
   14    0    1      0.02      0.00
  -15    1    1      0.98      0.00
   -1    1    1    -22.64      0.00
   13    1    1     -0.48      0.00
   14    2    1      0.42      0.00
  -15    3    1     -0.01      0.00
   13    3    1     -0.85      0.00
  -14    4    1      0.00      0.00
   13    5    1      0.03      0.00
  -14    6    1     -0.72      0.00
   12    6    1     -0.12      0.00
  -13    7    1      1.06      0.00
   11    7    1     -0.36      0.00
  -12    8    1     -0.67      0.00
  -11    9    1      0.18      0.00
   11    9    1     -0.20      0.00
  -10   10    1     -0.10      0.00
   10   10    1      0.36      0.00
   -9   11    1      0.04      0.00
    7   11    1     -1.46      0.00
    9   11    1     -0.54      0.00
   -8   12    1      0.25      0.00
    6   12    1      1.41      0.00
   -7   13    1     -0.41      0.00
   -5   13    1     -0.15      0.00
    3   13    1     -0.56      0.00
    5   13    1     -0.85      0.00
  -16    0    2     -0.99      0.00
  -15    1    2      1.31      0.00
   13    1    2     -0.66      0.00
   12    2    2      1.05      0.00
  -15    3    2      0.17      0.00
   13    3    2     -0.76      0.00
   12    4    2      0.84      0.00
  -15    5    2     -0.07      0.00
  -14    6    2     -0.66      0.00
   12    6    2      0.09      0.00
  -13    7    2      1.21      0.00
   11    7    2     -0.37      0.00
   10    8    2      0.62      0.00
    9    9    2     -0.59      0.00
  -12   10    2     -0.37      0.00
    8   10    2      0.60      0.00
  -11   11    2      0.54      0.00
   -9   11    2      0.71      0.00
    7   11    2     -0.80      0.00
   -8   12    2     -0.45      0.00
    6   12    2      0.79      0.00
   -7   13    2      0.17      0.00
   -5   13    2      0.65      0.00
    3   13    2     -0.42      0.00
    5   13    2     -0.46      0.00
  -16    0    3     -0.92      0.00
   12    0    3      0.48      0.00
  -16    2    3     -0.46      0.00
   12    2    3      0.64      0.00
  -15    3    3      0.18      0.00
   11    3    3     -0.70      0.00
  -16    4    3      0.36      0.00
  -15    5    3     -0.37      0.00
   11    5    3     -0.73      0.00
  -14    6    3     -0.40      0.00
   10    6    3      0.98      0.00
  -14    8    3     -0.54      0.00
   10    8    3      0.24      0.00
  -13    9    3      0.44      0.00
    9    9    3     -0.06      0.00
  -12   10    3     -0.28      0.00
    8   10    3     -0.03      0.00
  -11   11    3      0.48      0.00
    7   11    3     -0.10      0.00
  -10   12    3     -0.66      0.00
   -8   12    3     -0.84      0.00
    4   12    3     -0.03      0.00
    6   12    3      0.15      0.00
   -7   13    3      0.50      0.00
   -5   13    3      1.12      0.00
    1   13    3     -0.61      0.00
    3   13    3     -0.16      0.00
  -16    0    4     -0.62      0.00
   11    1    4      0.16      0.00
  -16    2    4     -0.20      0.00
   11    3    4     -0.20      0.00
  -16    4    4      0.62      0.00
   10    4    4      0.23      0.00
  -15    5    4     -0.75      0.00
   10    6    4      0.61      0.00
  -15    7    4     -0.20      0.00
    9    7    4     -0.60      0.00
  -14    8    4     -0.22      0.00
    8    8    4      0.20      0.00
  -13    9    4      0.11      0.00
    7    9    4      0.28      0.00
  -12   10    4      0.06      0.00
    6   10    4     -0.52      0.00
  -11   11    4      0.12      0.00
    5   11    4      0.54      0.00
  -10   12    4     -0.32      0.00
   -8   12    4     -0.72      0.00
    2   12    4      0.12      0.00
    4   12    4     -0.34      0.00
   -7   13    4      0.43      0.00
   -5   13    4      1.06      0.00
   -3   13    4      0.95      0.00
   -1   13    4     -0.24      0.00
    1   13    4     -0.65      0.00
    3   13    4     -0.04      0.00
   10    0    5     -0.88      0.00
  -16    2    5      0.37      0.00
   10    2    5     -0.60      0.00
    9    3    5      0.79      0.00
  -16    4    5      1.02      0.00
    9    5    5     -0.02      0.00
  -16    6    5      0.81      0.00
    8    6    5      0.03      0.00
  -15    7    5     -0.52      0.00
  -14    8    5      0.21      0.00
    8    8    5      0.02      0.00
  -13    9    5     -0.31      0.00
    7    9    5      0.33      0.00
  -12   10    5      0.45      0.00
    6   10    5     -0.49      0.00
  -11   11    5     -0.30      0.00
    3   11    5      0.52      0.00
    5   11    5      0.46      0.00
  -10   12    5      0.12      0.00
   -8   12    5     -0.26      0.00
    2   12    5      0.15      0.00
   -7   13    5      0.13      0.00
   -5   13    5      0.71      0.00
   -3   13    5      0.58      0.00
   -1   13    5     -0.41      0.00
    1   13    5     -0.64      0.00
    9    1    6      0.89      0.00
    8    2    6     -0.97      0.00
    9    3    6      0.48      0.00
  -16    4    6      1.48      0.00
    8    4    6     -0.65      0.00
    7    5    6      0.88      0.00
  -16    6    6      0.89      0.00
    8    6    6     -0.13      0.00
  -15    7    6     -0.78      0.00
    7    7    6      0.28      0.00
  -14    8    6      0.58      0.00
    6    8    6     -0.45      0.00
  -13    9    6     -0.63      0.00
    5    9    6      0.49      0.00
  -12   10    6      0.69      0.00
    4   10    6     -0.42      0.00
  -11   11    6     -0.54      0.00
    1   11    6      0.07      0.00
    3   11    6      0.19      0.00
  -10   12    6      0.39      0.00
   -8   12    6      0.23      0.00
   -6   12    6     -0.23      0.00
   -2   12    6     -0.28      0.00
    0   12    6      0.38      0.00
    2   12    6      0.23      0.00
   -7   13    6     -0.12      0.00
   -5   13    6      0.37      0.00
   -3   13    6      0.34      0.00
   -1   13    6     -0.37      0.00
    8    0    7     -0.50      0.00
    7    1    7      0.42      0.00
    8    2    7     -0.23      0.00
    7    3    7      0.21      0.00
  -16    4    7      1.72      0.00
    7    5    7      0.44      0.00
  -16    6    7      0.85      0.00
    6    6    7     -0.75      0.00
  -15    7    7     -0.87      0.00
    5    7    7      0.79      0.00
  -14    8    7      0.77      0.00
    4    8    7     -0.48      0.00
  -13    9    7     -0.78      0.00
    3    9    7      0.15      0.00
  -12   10    7      0.76      0.00
    2   10    7     -0.01      0.00
  -11   11    7     -0.62      0.00
   -9   11    7     -0.67      0.00
   -1   11    7      0.26      0.00
    1   11    7     -0.13      0.00
  -10   12    7      0.46      0.00
   -8   12    7      0.56      0.00
   -6   12    7      0.29      0.00
   -4   12    7     -0.21      0.00
   -2   12    7     -0.16      0.00
    0   12    7      0.27      0.00
   -5   13    7      0.16      0.00
    6    0    8      0.22      0.00
    7    1    8     -0.17      0.00
    6    2    8      0.56      0.00
  -16    4    8      1.39      0.00
    6    4    8      0.25      0.00
    5    5    8      0.21      0.00
  -16    6    8      0.60      0.00
    4    6    8     -0.44      0.00
  -15    7    8     -0.70      0.00
    3    7    8      0.12      0.00
  -14    8    8      0.71      0.00
    4    8    8     -0.17      0.00
  -13    9    8     -0.77      0.00
    1    9    8     -0.35      0.00
    3    9    8     -0.20      0.00
  -12   10    8      0.78      0.00
    0   10    8      0.06      0.00
    2   10    8      0.29      0.00
  -11   11    8     -0.63      0.00
   -9   11    8     -1.02      0.00
   -7   11    8     -1.04      0.00
   -5   11    8     -0.56      0.00
   -3   11    8      0.10      0.00
   -1   11    8      0.12      0.00
   -8   12    8      0.71      0.00
   -6   12    8      0.58      0.00
   -4   12    8      0.04      0.00
   -2   12    8     -0.15      0.00
    5    1    9     -0.72      0.00
    4    2    9      1.23      0.00
    5    3    9     -0.93      0.00
  -16    4    9      0.50      0.00
    4    4    9      0.82      0.00
    3    5    9     -0.59      0.00
  -16    6    9      0.16      0.00
    4    6    9     -0.16      0.00
  -15    7    9     -0.32      0.00
    3    7    9     -0.05      0.00
  -14    8    9      0.46      0.00
    2    8    9      0.46      0.00
  -13    9    9     -0.67      0.00
   -1    9    9     -0.51      0.00
    1    9    9     -0.54      0.00
  -12   10    9      0.79      0.00
  -10   10    9      1.55      0.00
   -4   10    9      0.63      0.00
   -2   10    9      0.13      0.00
    0   10    9      0.22      0.00
   -9   11    9     -1.14      0.00
   -7   11    9     -1.24      0.00
   -5   11    9     -0.78      0.00
   -3   11    9     -0.06      0.00
    4    0   10      0.57      0.00
    3    1   10     -1.02      0.00
    4    2   10      0.73      0.00
    3    3   10     -1.00      0.00
  -16    4   10     -0.48      0.00
    2    4   10      1.06      0.00
  -15    5   10      0.41      0.00
    1    5   10     -1.13      0.00
    3    5   10     -0.36      0.00
  -16    6   10     -0.22      0.00
    2    6   10      0.42      0.00
  -15    7   10      0.05      0.00
    1    7   10     -0.64      0.00
  -14    8   10      0.16      0.00
  -12    8   10      0.71      0.00
   -2    8   10      0.76      0.00
    0    8   10      0.66      0.00
  -13    9   10     -0.49      0.00
  -11    9   10     -1.32      0.00
   -3    9   10     -0.59      0.00
   -1    9   10     -0.40      0.00
  -10   10   10      1.35      0.00
   -8   10   10      1.46      0.00
   -6   10   10      1.20      0.00
   -4   10   10      0.62      0.00
   -2   10   10      0.12      0.00
   -7   11   10     -0.98      0.00
  -16    0   11     -1.18      0.00
    2    0   11      0.64      0.00
    1    1   11     -0.87      0.00
  -16    2   11     -1.37      0.00
    2    2   11      0.49      0.00
    1    3   11     -0.59      0.00
  -16    4   11     -0.95      0.00
    0    4   11      0.65      0.00
  -15    5   11      0.76      0.00
   -1    5   11     -0.59      0.00
    1    5   11     -0.43      0.00
  -14    6   11     -0.56      0.00
   -2    6   11      0.37      0.00
    0    6   11      0.46      0.00
  -15    7   11      0.19      0.00
  -13    7   11      0.33      0.00
   -3    7   11     -0.23      0.00
   -1    7   11     -0.35      0.00
  -12    8   11      0.17      0.00
  -10    8   11      0.58      0.00
   -4    8   11      0.38      0.00
   -2    8   11      0.23      0.00
  -11    9   11     -0.69      0.00
   -9    9   11     -0.95      0.00
   -7    9   11     -0.91      0.00
   -5    9   11     -0.65      0.00
   -3    9   11     -0.24      0.00
   -8   10   11      0.82      0.00
   -6   10   11      0.70      0.00
  -16    0   12     -0.92      0.00
    0    0   12      0.25      0.00
  -15    1   12      1.48      0.00
   -1    1   12     -0.10      0.00
  -16    2   12     -1.21      0.00
    0    2   12     -0.02      0.00
  -15    3   12      1.52      0.00
   -1    3   12      0.14      0.00
  -16    4   12     -0.74      0.00
  -14    4   12     -1.27      0.00
   -2    4   12     -0.27      0.00
  -15    5   12      0.48      0.00
  -13    5   12      0.90      0.00
   -3    5   12      0.42      0.00
   -1    5   12     -0.04      0.00
  -14    6   12     -0.34      0.00
  -12    6   12     -0.69      0.00
   -4    6   12     -0.36      0.00
   -2    6   12     -0.09      0.00
  -13    7   12      0.38      0.00
  -11    7   12      0.41      0.00
   -9    7   12     -0.06      0.00
   -7    7   12     -0.24      0.00
   -5    7   12      0.02      0.00
   -3    7   12      0.16      0.00
  -12    8   12     -0.25      0.00
  -10    8   12      0.00      0.00
   -8    8   12      0.33      0.00
   -6    8   12      0.31      0.00
   -4    8   12      0.02      0.00
   -9    9   12     -0.21      0.00
  -16    0   13     -0.19      0.00
  -14    0   13     -0.58      0.00
   -4    0   13     -0.75      0.00
   -2    0   13     -0.35      0.00
  -15    1   13      0.52      0.00
   -3    1   13      0.63      0.00
  -16    2   13     -0.49      0.00
  -14    2   13     -0.88      0.00
   -4    2   13     -1.04      0.00
   -2    2   13     -0.52      0.00
  -15    3   13      0.69      0.00
  -13    3   13      0.89      0.00
   -5    3   13      1.36      0.00
   -3    3   13      0.74      0.00
  -14    4   13     -0.50      0.00
  -12    4   13     -0.65      0.00
   -6    4   13     -1.19      0.00
   -4    4   13     -0.83      0.00
  -13    5   13      0.27      0.00
  -11    5   13      0.42      0.00
   -9    5   13      0.39      0.00
   -7    5   13      0.53      0.00
   -5    5   13      0.59      0.00
  -12    6   13     -0.29      0.00
  -10    6   13     -0.19      0.00
   -8    6   13      0.03      0.00
   -6    6   13     -0.09      0.00
  -11    7   13      0.32      0.00
   -9    7   13     -0.04      0.00
   -7    7   13     -0.23      0.00
    0    0    0      0.00      0.00
# SQUEEZE RESULTS (Version =  21116)
# Note: Data are Listed for all Voids in the P1 Unit Cell
# i.e. Centre of Gravity, Solvent Accessible Volume,
# Recovered number of Electrons in the Void and
# Details about the Squeezed Material
loop_
  _platon_squeeze_void_nr
  _platon_squeeze_void_average_x
  _platon_squeeze_void_average_y
  _platon_squeeze_void_average_z
  _platon_squeeze_void_volume
  _platon_squeeze_void_count_electrons
  _platon_squeeze_void_content
   1  0.500  0.000  0.000        57        15 ' '
   2  1.000  0.500  0.000        57        15 ' '
# Missing Reflections Below sin(th)/lambda = 0.25
loop_
  _platon_missing_refln_index_h
  _platon_missing_refln_index_k
  _platon_missing_refln_index_l
  _platon_missing_refln_theta
    1    1    0     2.543
   -2    0    1     2.925
    0    0    1     2.141
   -1    1    1     2.573
_platon_squeeze_void_probe_radius                  1.20
_platon_squeeze_details
)
TITL 123 in C2/m
CELL   13.9310   11.2830   11.6540     90.00    125.28     90.00
SPGR C2/m
# Solvent Accessible Volume =       111
# Electrons Found in S.A.V. =        29
# Note: Atoms in Void as Cxxx and Qxxx all others
C101 0.986 0.495 0.109 !       7.21 eA-3
Q102 0.339 0.423 0.471 !       2.26 eA-3
Q103 0.297 0.495 0.375 !       1.57 eA-3
Q104 0.624 0.498 0.437 !       1.49 eA-3
Q105 0.814 0.106 0.350 !       0.81 eA-3
Q106 0.128 0.110 0.409 !       0.79 eA-3
Q107 0.737 0.501 0.547 !       0.70 eA-3
Q108 0.685 0.505 0.797 !       0.64 eA-3
Q109 0.810 0.170 0.452 !       0.61 eA-3
Q110 0.786 0.504 0.531 !       0.57 eA-3
Q111 0.404 0.343 0.504 !       0.57 eA-3
Q112 0.500 0.500 0.500 !       0.56 eA-3
Q113 1.000 0.281 0.503 !       0.51 eA-3
Q114 0.627 0.191 0.235 !       0.50 eA-3
)
;
_shelx_fab_checksum              31148
_olex2_submission_special_instructions 'No special instructions were received'
loop_
_space_group_symop_operation_xyz
'x, y, z'
'-x, y, -z'
'x+1/2, y+1/2, z'
'-x+1/2, y+1/2, -z'
'-x, -y, -z'
'x, -y, z'
'-x+1/2, -y+1/2, -z'
'x+1/2, -y+1/2, z'
loop_
_atom_site_label
_atom_site_type_symbol
_atom_site_fract_x
_atom_site_fract_y
_atom_site_fract_z
_atom_site_U_iso_or_equiv
_atom_site_adp_type
_atom_site_occupancy
_atom_site_site_symmetry_order
_atom_site_calc_flag
_atom_site_refinement_flags_posn
_atom_site_refinement_flags_adp
_atom_site_refinement_flags_occupancy
C1 C 0.000000 0.2423(7) 0.500000 0.0248(16) Uani 1 2 d S T P
C2 C 0.000000 0.3759(6) 0.500000 0.0237(16) Uani 1 2 d S T P
C3 C 0.0513(4) 0.4394(5) 0.6225(5) 0.0251(12) Uani 1 1 d . . .
C4 C 0.1387(7) 0.000000 0.7719(7) 0.0240(17) Uani 1 2 d S T P
C5 C 0.1359(6) 0.000000 0.8991(7) 0.0251(17) Uani 1 2 d S T P
C6 C 0.1360(5) 0.1039(5) 0.9614(6) 0.0290(13) Uani 1 1 d . . .
C7 C 0.1413(5) 0.1044(5) 1.0829(6) 0.0282(13) Uani 1 1 d . . .
C8 C 0.1469(6) 0.000000 1.1505(7) 0.0219(16) Uani 1 2 d S T P
C10 C 0.1580(6) 0.000000 1.2868(8) 0.0239(17) Uani 1 2 d S T P
O1 O -0.0911(3) 0.1944(3) 0.4726(4) 0.0346(10) Uani 1 1 d . . .
O2 O -0.3339(3) -0.1328(4) 0.3479(4) 0.0380(10) Uani 1 1 d . . .
H2A H -0.388200 -0.103092 0.268347 0.057 Uiso 1 1 d GR . .
H2B H -0.359741 -0.140631 0.398717 0.057 Uiso 1 1 d GR . .
O3 O 0.0446(4) 0.000000 0.6510(5) 0.0259(12) Uani 1 2 d S T P
O4 O 0.2367(5) 0.000000 0.7908(6) 0.0450(18) Uani 1 2 d S T P
O5 O 0.1616(4) 0.0972(4) 1.3418(4) 0.0385(11) Uani 1 1 d . . .
F1 F 0.1321(4) 0.2072(4) 0.9022(4) 0.0548(11) Uani 1 1 d . . .
F2 F 0.1426(4) 0.2105(4) 1.1338(4) 0.0546(12) Uani 1 1 d . . .
F5 F 0.1014(3) 0.3809(3) 0.7453(3) 0.0403(8) Uani 1 1 d . . .
Sm1 Sm -0.16120(3) 0.000000 0.46664(3) 0.01433(17) Uani 1 2 d S T P
loop_
_atom_site_aniso_label
_atom_site_aniso_U_11
_atom_site_aniso_U_22
_atom_site_aniso_U_33
_atom_site_aniso_U_23
_atom_site_aniso_U_13
_atom_site_aniso_U_12
C1 0.026(4) 0.021(4) 0.032(4) 0.000 0.019(3) 0.000
C2 0.020(3) 0.016(4) 0.043(5) 0.000 0.023(3) 0.000
C3 0.025(3) 0.022(3) 0.034(3) 0.006(2) 0.019(2) 0.002(2)
C4 0.031(4) 0.027(4) 0.017(4) 0.000 0.016(3) 0.000
C5 0.028(4) 0.035(5) 0.016(3) 0.000 0.015(3) 0.000
C6 0.037(3) 0.031(3) 0.026(3) 0.003(2) 0.022(2) -0.006(3)
C7 0.039(3) 0.027(3) 0.025(3) -0.005(2) 0.023(3) -0.001(3)
C8 0.023(4) 0.028(4) 0.020(4) 0.000 0.016(3) 0.000
C10 0.024(4) 0.032(5) 0.021(4) 0.000 0.016(3) 0.000
O1 0.032(2) 0.023(2) 0.053(3) 0.0013(19) 0.0269(19) -0.0016(17)
O2 0.031(2) 0.048(3) 0.037(2) -0.010(2) 0.0200(18) -0.0101(19)
O3 0.024(3) 0.040(3) 0.014(2) 0.000 0.011(2) 0.000
O4 0.023(3) 0.093(6) 0.024(3) 0.000 0.017(2) 0.000
O5 0.067(3) 0.035(3) 0.030(2) -0.0070(19) 0.038(2) -0.016(2)
F1 0.099(3) 0.039(2) 0.040(2) 0.0037(18) 0.048(2) -0.006(2)
F2 0.108(3) 0.034(2) 0.043(2) -0.0044(17) 0.056(2) -0.002(2)
F5 0.048(2) 0.0297(18) 0.0357(18) 0.0107(15) 0.0200(16) 0.0044(16)
Sm1 0.0190(2) 0.0142(2) 0.0148(2) 0.000 0.01265(18) 0.000
loop_
_atom_type_symbol
_atom_type_description
_atom_type_scat_dispersion_real
_atom_type_scat_dispersion_imag
_atom_type_scat_source
C C 0.0033 0.0016 'International Tables Vol C Tables 4.2.6.8 and 6.1.1.4'
H H 0.0000 0.0000 'International Tables Vol C Tables 4.2.6.8 and 6.1.1.4'
F F 0.0171 0.0103 'International Tables Vol C Tables 4.2.6.8 and 6.1.1.4'
O O 0.0106 0.0060 'International Tables Vol C Tables 4.2.6.8 and 6.1.1.4'
Sm Sm -0.1638 3.4418 'International Tables Vol C Tables 4.2.6.8 and 6.1.1.4'
loop_
_geom_angle_atom_site_label_1
_geom_angle_atom_site_label_2
_geom_angle_atom_site_label_3
_geom_angle
_geom_angle_site_symmetry_1
_geom_angle_site_symmetry_3
O1 C1 C2 115.8(4) . .
O1 C1 C2 115.8(4) 2_556 .
O1 C1 O1 128.4(7) . 2_556
C3 C2 C1 121.5(3) . .
C3 C2 C1 121.5(3) 2_556 .
C3 C2 C3 117.0(7) 2_556 .
C3 C3 C2 121.5(3) 6_565 .
F5 C3 C2 119.2(5) . .
F5 C3 C3 119.3(3) . 6_565
C5 C4 Sm1 176.3(5) . 5_556
O3 C4 C5 120.1(7) . .
O3 C4 Sm1 63.6(4) . 5_556
O4 C4 C5 118.3(7) . .
O4 C4 O3 121.7(7) . .
O4 C4 Sm1 58.0(4) . 5_556
C6 C5 C4 121.7(3) 6 .
C6 C5 C4 121.7(3) . .
C6 C5 C6 116.5(7) . 6
C7 C6 C5 122.0(5) . .
F1 C6 C5 118.8(5) . .
F1 C6 C7 119.3(5) . .
C6 C7 C8 122.0(5) . .
F2 C7 C6 116.2(5) . .
F2 C7 C8 121.7(5) . .
C7 C8 C7 115.4(7) 6 .
C7 C8 C10 122.3(3) 6 .
C7 C8 C10 122.3(3) . .
C8 C10 Sm1 175.9(5) . 5_557
O5 C10 C8 119.2(3) 6 .
O5 C10 C8 119.2(3) . .
O5 C10 O5 121.6(7) 6 .
O5 C10 Sm1 60.9(3) . 5_557
O5 C10 Sm1 60.9(3) 6 5_557
C1 O1 Sm1 138.5(4) . .
C4 O3 Sm1 91.4(4) . 5_556
C4 O3 Sm1 160.6(5) . .
Sm1 O3 Sm1 107.96(18) . 5_556
C4 O4 Sm1 97.3(4) . 5_556
C10 O5 Sm1 93.0(4) . 5_557
C4 Sm1 Sm1 58.72(15) 5_556 5_556
C10 Sm1 C4 174.34(19) 5_557 5_556
C10 Sm1 Sm1 115.62(15) 5_557 5_556
O1 Sm1 C4 76.41(11) . 5_556
O1 Sm1 C4 76.41(11) 6 5_556
O1 Sm1 C10 101.70(11) 6 5_557
O1 Sm1 C10 101.70(11) . 5_557
O1 Sm1 O1 133.72(18) 6 .
O1 Sm1 O2 145.46(14) . .
O1 Sm1 O2 145.46(14) 6 6
O1 Sm1 O2 73.05(13) . 6
O1 Sm1 O2 73.05(13) 6 .
O1 Sm1 O3 73.50(10) . .
O1 Sm1 O3 73.49(10) 6 .
O1 Sm1 O3 69.76(10) . 5_556
O1 Sm1 O3 69.77(10) 6 5_556
O1 Sm1 O4 85.30(11) 6 5_556
O1 Sm1 O4 85.30(11) . 5_556
O1 Sm1 O5 77.39(14) . 2_557
O1 Sm1 O5 77.39(14) 6 5_557
O1 Sm1 O5 126.26(14) 6 2_557
O1 Sm1 O5 126.26(14) . 5_557
O1 Sm1 Sm1 66.97(9) . 5_556
O1 Sm1 Sm1 66.97(9) 6 5_556
O2 Sm1 C4 94.06(15) 6 5_556
O2 Sm1 C4 94.06(15) . 5_556
O2 Sm1 C10 90.44(16) . 5_557
O2 Sm1 C10 90.44(16) 6 5_557
O2 Sm1 O2 74.7(2) 6 .
O2 Sm1 O3 113.46(13) . 5_556
O2 Sm1 O3 113.46(13) 6 5_556
O2 Sm1 O4 74.55(14) 6 5_556
O2 Sm1 O4 74.55(14) . 5_556
O2 Sm1 O5 74.29(14) 6 2_557
O2 Sm1 O5 105.26(15) 6 5_557
O2 Sm1 O5 105.26(15) . 2_557
O2 Sm1 O5 74.29(14) . 5_557
O2 Sm1 Sm1 135.53(10) . 5_556
O2 Sm1 Sm1 135.53(10) 6 5_556
O3 Sm1 C4 24.94(18) 5_556 5_556
O3 Sm1 C4 96.98(19) . 5_556
O3 Sm1 C10 77.36(19) . 5_557
O3 Sm1 C10 149.40(18) 5_556 5_557
O3 Sm1 O2 141.03(11) . 6
O3 Sm1 O2 141.03(11) . .
O3 Sm1 O3 72.04(18) . 5_556
O3 Sm1 O4 121.66(17) . 5_556
O3 Sm1 O5 79.43(15) . 5_557
O3 Sm1 O5 79.43(15) . 2_557
O3 Sm1 Sm1 33.78(10) 5_556 5_556
O3 Sm1 Sm1 38.26(12) . 5_556
O4 Sm1 C4 24.69(19) 5_556 5_556
O4 Sm1 C10 161.0(2) 5_556 5_557
O4 Sm1 O3 49.62(16) 5_556 5_556
O4 Sm1 Sm1 83.40(12) 5_556 5_556
O5 Sm1 C4 153.47(11) 2_557 5_556
O5 Sm1 C4 153.47(10) 5_557 5_556
O5 Sm1 C10 26.14(10) 5_557 5_557
O5 Sm1 C10 26.14(10) 2_557 5_557
O5 Sm1 O3 141.22(13) 2_557 5_556
O5 Sm1 O3 141.22(13) 5_557 5_556
O5 Sm1 O4 147.60(12) 2_557 5_556
O5 Sm1 O4 147.60(12) 5_557 5_556
O5 Sm1 O5 52.2(2) 2_557 5_557
O5 Sm1 Sm1 113.60(11) 2_557 5_556
O5 Sm1 Sm1 113.60(11) 5_557 5_556
loop_
_geom_bond_atom_site_label_1
_geom_bond_atom_site_label_2
_geom_bond_distance
_geom_bond_site_symmetry_2
C1 C2 1.508(10) .
C1 O1 1.240(5) 2_556
C1 O1 1.240(5) .
C2 C3 1.373(7) 2_556
C2 C3 1.373(7) .
C3 C3 1.367(11) 6_565
C3 F5 1.348(6) .
C4 C5 1.506(10) .
C4 O3 1.253(9) .
C4 O4 1.251(10) .
C4 Sm1 2.972(7) 5_556
C5 C6 1.378(7) .
C5 C6 1.378(7) 6
C6 C7 1.375(8) .
C6 F1 1.340(7) .
C7 C8 1.394(7) .
C7 F2 1.331(7) .
C8 C10 1.505(10) .
C10 O5 1.256(5) 6
C10 O5 1.256(5) .
C10 Sm1 2.848(8) 5_557
O1 Sm1 2.385(4) .
O2 Sm1 2.470(4) .
O3 Sm1 2.392(5) .
O3 Sm1 2.664(5) 5_556
O4 Sm1 2.541(6) 5_556
O5 Sm1 2.491(4) 5_557
Sm1 Sm1 4.0919(17) 5_556
