#------------------------------------------------------------------------------
#$Date: 2017-05-06 01:10:37 +0300 (Sat, 06 May 2017) $
#$Revision: 196450 $
#$URL: file:///home/coder/svn-repositories/cod/cif/7/04/24/7042417.cif $
#------------------------------------------------------------------------------
#
# This file is available in the Crystallography Open Database (COD),
# http://www.crystallography.net/
#
# All data on this site have been placed in the public domain by the
# contributors.
#
data_7042417
loop_
_publ_author_name
'Han, Yongqiang'
'Yan, Pengfei'
'Sun, Jingwen'
'An, Guanghui'
'Yao, Xu'
'Li, Yuxin'
'Li, Guangming'
_publ_section_title
;
 Luminescence and white-light emitting luminescent sensor of
 tetrafluoroterephthalate-lanthanide metal-organic frameworks.
;
_journal_issue                   14
_journal_name_full
'Dalton transactions (Cambridge, England : 2003)'
_journal_page_first              4642
_journal_page_last               4653
_journal_paper_doi               10.1039/c7dt00215g
_journal_volume                  46
_journal_year                    2017
_chemical_formula_moiety         'C12 H4 F6 O8 Tb'
_chemical_formula_sum            'C12 H4 F6 O8 Tb'
_chemical_formula_weight         549.08
_space_group_crystal_system      monoclinic
_space_group_IT_number           12
_space_group_name_Hall           '-C 2y'
_space_group_name_H-M_alt        'C 1 2/m 1'
_symmetry_space_group_name_Hall  '-C 2y'
_symmetry_space_group_name_H-M   'C 1 2/m 1'
_atom_sites_solution_hydrogens   difmap
_audit_creation_date             2017-03-03
_audit_creation_method
;
Olex2 1.2
(compiled 2017.03.02 svn.r3394 for OlexSys, GUI svn.r5324)
;
_audit_update_record
;
2017-03-08 deposited with the CCDC.
2017-03-09 downloaded from the CCDC.
;
_cell_angle_alpha                90
_cell_angle_beta                 124.600(5)
_cell_angle_gamma                90
_cell_formula_units_Z            4
_cell_length_a                   13.833(5)
_cell_length_b                   11.226(5)
_cell_length_c                   11.579(5)
_cell_measurement_reflns_used    1730
_cell_measurement_temperature    293(2)
_cell_measurement_theta_max      29.4639
_cell_measurement_theta_min      3.5716
_cell_volume                     1480.1(11)
_computing_data_collection
'CrysAlisPro, Agilent Technologies,Version 1.171.35.21 (release 20-01-2012 CrysAlis171 .NET)(compiled Jan 23 2012,18:06:46)'
_computing_molecular_graphics    'Olex2 (Dolomanov et al., 2009)'
_computing_publication_material  '(K. Brandenburg, Diamond 3.1, 2009)'
_computing_structure_refinement  'ShelXL (Sheldrick, 2015)'
_computing_structure_solution    'SHELXS-2016/6 (Sheldrick, 2015)'
_diffrn_ambient_temperature      293(2)
_diffrn_measured_fraction_theta_full 0.997
_diffrn_measured_fraction_theta_max 0.997
_diffrn_measurement_device_type  'multiwire proportional'
_diffrn_measurement_method       'phi and omega scans'
_diffrn_radiation_monochromator  graphite
_diffrn_radiation_type           MoK\a
_diffrn_radiation_wavelength     0.71069
_diffrn_reflns_av_R_equivalents  0.0402
_diffrn_reflns_av_unetI/netI     0.0532
_diffrn_reflns_Laue_measured_fraction_full 0.997
_diffrn_reflns_Laue_measured_fraction_max 0.997
_diffrn_reflns_limit_h_max       15
_diffrn_reflns_limit_h_min       -16
_diffrn_reflns_limit_k_max       13
_diffrn_reflns_limit_k_min       -13
_diffrn_reflns_limit_l_max       13
_diffrn_reflns_limit_l_min       -7
_diffrn_reflns_number            2704
_diffrn_reflns_point_group_measured_fraction_full 0.997
_diffrn_reflns_point_group_measured_fraction_max 0.997
_diffrn_reflns_theta_full        24.995
_diffrn_reflns_theta_max         24.995
_diffrn_reflns_theta_min         3.578
_exptl_absorpt_coefficient_mu    4.894
_exptl_absorpt_correction_T_max  0.435
_exptl_absorpt_correction_T_min  0.354
_exptl_absorpt_correction_type   multi-scan
_exptl_absorpt_process_details
;
CrysAlisPro, Agilent Technologies,
Version 1.171.35.21 (release 20-01-2012 CrysAlis171 .NET)
(compiled Jan 23 2012,18:06:46)
Empirical absorption correction using spherical harmonics,
 implemented in SCALE3 ABSPACK scaling algorithm.
;
_exptl_crystal_colour            colorless
_exptl_crystal_density_diffrn    2.464
_exptl_crystal_description       'not measured'
_exptl_crystal_F_000             1036
_exptl_crystal_size_max          0.22
_exptl_crystal_size_mid          0.2
_exptl_crystal_size_min          0.17
_refine_diff_density_max         1.125
_refine_diff_density_min         -0.942
_refine_diff_density_rms         0.129
_refine_ls_extinction_method     none
_refine_ls_goodness_of_fit_ref   1.006
_refine_ls_hydrogen_treatment    refall
_refine_ls_matrix_type           full
_refine_ls_number_parameters     142
_refine_ls_number_reflns         1386
_refine_ls_number_restraints     37
_refine_ls_restrained_S_all      1.001
_refine_ls_R_factor_all          0.0265
_refine_ls_R_factor_gt           0.0244
_refine_ls_shift/su_max          0.000
_refine_ls_shift/su_mean         0.000
_refine_ls_structure_factor_coef Fsqd
_refine_ls_weighting_details
'w=1/[\s^2^(Fo^2^)+(0.0117P)^2^] where P=(Fo^2^+2Fc^2^)/3'
_refine_ls_weighting_scheme      calc
_refine_ls_wR_factor_gt          0.0518
_refine_ls_wR_factor_ref         0.0528
_reflns_Friedel_coverage         0.000
_reflns_number_gt                1294
_reflns_number_total             1390
_reflns_threshold_expression     'I > 2\s(I)'
_cod_data_source_file            c7dt00215g2.cif
_cod_data_source_block           9-tb_sq
_cod_depositor_comments
'Adding full bibliography for 7042409--7042422.cif.'
_cod_database_code               7042417
_shelx_shelxl_version_number     2016/6
_shelx_space_group_comment
;
The symmetry employed for this shelxl refinement is uniquely defined
by the following loop, which should always be used as a source of
symmetry information in preference to the above space-group names.
They are only intended as comments.
;
_shelx_estimated_absorpt_t_max   0.490
_shelx_estimated_absorpt_t_min   0.412
_olex2_refinement_description
;
1. Restrained distances
 H5A-O5
 0.85 with sigma of 0.02
 H5B-O5
 0.85 with sigma of 0.02
 H5B-H5A
 1.373 with sigma of 0.04
 H5B-Tb1
 2.7 with sigma of 0.04
 H5A-Tb1
 2.7 with sigma of 0.04
2. Rigid bond restraints
 Tb1, O5, H5A, H5B
 with sigma for 1-2 distances of 0.01 and sigma for 1-3 distances of 0.01
3. Uiso/Uaniso restraints and constraints
Tb1 \\sim O5 \\sim H5A \\sim H5B: within 3.8A with sigma of 0.04 and sigma for
terminal atoms of 0.08
;
_shelx_res_file
;
TITL dd in C2 C2/m
    9-tb_sq.res
    created by SHELXL-2016/6 at 17:42:16 on 03-Mar-2017
CELL 0.71069 13.833 11.226 11.579 90 124.6 90
ZERR 1 0.005 0.005 0.005 0 0.005 0
LATT 7
SYMM -X,+Y,-Z
SFAC C H F O Tb
UNIT 48 16 24 32 4
DFIX 0.85 H5a O5
DFIX 0.85 H5b O5
DANG 1.373 H5b H5a
DANG 2.7 H5b Tb1
DANG 2.7 H5a Tb1
DELU Tb1 O5 H5a H5b
SIMU 0.04 0.08 3.8 Tb1 O5 H5a H5b

L.S. 5 0 4
PLAN  20
SIZE 0.22 0.2 0.17
BOND $H
ABIN
fmap 2
acta
MERG 2
OMIT -3 50
REM <olex2.extras>
REM <HklSrc "%.\\9-Tb.hkl">
REM </olex2.extras>

WGHT    0.011700
FVAR       0.08448
TB1   5    0.340287    0.500000    0.468293    10.50000    0.01677    0.01123 =
         0.01399    0.00000    0.01002    0.00000
F1    3    0.357628    0.711512   -0.134665    11.00000    0.10964    0.02649 =
         0.04015    0.00288    0.05191   -0.00216
F2    3    0.369145    0.708031    0.098569    11.00000    0.09806    0.03144 =
         0.04103   -0.00522    0.04814    0.00455
F3    3    0.398653    0.119497    0.254962    11.00000    0.05098    0.02370 =
         0.03625    0.00956    0.01968    0.00277
O1    4    0.337866    0.597015   -0.343159    11.00000    0.05756    0.03497 =
         0.02685    0.00791    0.03167    0.01434
O2    4    0.266728    0.500000    0.215902    10.50000    0.02180    0.07609 =
         0.02342    0.00000    0.01681    0.00000
O3    4    0.458559    0.500000    0.351311    10.50000    0.02107    0.02944 =
         0.01623    0.00000    0.00935    0.00000
O4    4    0.407993    0.307922    0.471194    11.00000    0.02537    0.01328 =
         0.04728   -0.00175    0.02073    0.00138
O5    4    0.168261    0.371571    0.351319    11.00000    0.02966    0.03891 =
         0.03984   -0.01237    0.02247   -0.01017
C1    1    0.363431    0.500000    0.231499    10.50000    0.02722    0.02381 =
         0.01556    0.00000    0.01129    0.00000
C2    1    0.365496    0.500000    0.102584    10.50000    0.01509    0.03251 =
         0.01503    0.00000    0.00838    0.00000
C3    1    0.364029    0.604283    0.039034    11.00000    0.03868    0.02616 =
         0.02482   -0.00331    0.02099   -0.00038
C4    1    0.357939    0.604307   -0.084287    11.00000    0.03469    0.02609 =
         0.02217    0.00321    0.01857    0.00109
C5    1    0.352417    0.500000   -0.151759    10.50000    0.02272    0.02406 =
         0.01934    0.00000    0.01333    0.00000
C6    1    0.340629    0.500000   -0.288279    10.50000    0.01648    0.03513 =
         0.01850    0.00000    0.00967    0.00000
C7    1    0.500000    0.259445    0.500000    10.50000    0.02484    0.01488 =
         0.03121    0.00000    0.01697    0.00000
C8    1    0.500000    0.125832    0.500000    10.50000    0.01789    0.01112 =
         0.03430    0.00000    0.01603    0.00000
C9    1    0.447668    0.060664    0.378172    11.00000    0.02494    0.01698 =
         0.03202    0.00933    0.01650    0.00852
H5A   2    0.169263    0.353225    0.420717    11.00000    0.08536
H5B   2    0.186884    0.314224    0.321886    11.00000    0.08046
HKLF 4




REM  dd in C2 C2/m
REM R1 =  0.0244 for    1294 Fo > 4sig(Fo)  and  0.0265 for all    1386 data
REM    142 parameters refined using     37 restraints

END

WGHT      0.0117      0.0000

REM Highest difference peak  1.125,  deepest hole -0.942,  1-sigma level  0.129
Q1    1   0.2798  0.5000  0.4841  10.50000  0.05    1.12
Q2    1   0.3902  0.5000  0.4450  10.50000  0.05    0.98
Q3    1   0.3332  0.3939  0.4604  11.00000  0.05    0.68
Q4    1   0.4173  0.5000  0.3572  10.50000  0.05    0.60
Q5    1   0.5222  0.5000  0.4353  10.50000  0.05    0.56
Q6    1   0.3987  0.5000  0.5607  10.50000  0.05    0.53
Q7    1   0.3985  0.0000  0.4024  10.50000  0.05    0.48
Q8    1   0.2021  0.4717  0.3744  11.00000  0.05    0.46
Q9    1   0.3780  0.5935 -0.4012  11.00000  0.05    0.46
Q10   1   0.4647  0.4004  0.4939  11.00000  0.05    0.46
Q11   1   0.4383  0.6207  0.2251  11.00000  0.05    0.43
Q12   1   0.2324  0.4249  0.4999  11.00000  0.05    0.42
Q13   1   0.4731  0.5000  0.4392  10.50000  0.05    0.42
Q14   1   0.3442  0.7939 -0.0624  11.00000  0.05    0.39
Q15   1   0.4018  0.3687  0.4991  11.00000  0.05    0.38
Q16   1   0.4523  0.2785  0.5198  11.00000  0.05    0.38
Q17   1   0.4912  0.5000  0.2378  10.50000  0.05    0.37
Q18   1   0.2304  0.3185  0.2771  11.00000  0.05    0.37
Q19   1   0.4936  0.2561  0.6210  11.00000  0.05    0.36
Q20   1   0.2916  0.7667  0.1229  11.00000  0.05    0.36
;
_shelx_res_checksum              36775
_shelx_fab_file
;
    0   12    2      0.74      0.00
    0   12    3      0.08      0.00
    0   12    4     -0.37      0.00
    0   10    1      1.66      0.00
    0   10    2      0.59      0.00
    0   10    3     -0.48      0.00
    0   10    4     -1.11      0.00
    0   10    5     -1.22      0.00
    0   10    6     -1.00      0.00
    0   10    7     -0.68      0.00
    0    8    0      4.29      0.00
    0    8    1      3.31      0.00
    0    8    2      1.00      0.00
    0    8    3     -1.31      0.00
    0    8    4     -2.59      0.00
    0    8    5     -2.56      0.00
    0    8    6     -1.57      0.00
    0    8    7     -0.28      0.00
    0    8    8      0.64      0.00
    0    8    9      0.85      0.00
    0    6    0      9.28      0.00
    0    6    1      7.33      0.00
    0    6    2      2.65      0.00
    0    6    3     -2.15      0.00
    0    6    9      2.49      0.00
    0    6   10      1.48      0.00
    0    4    0     15.33      0.00
    0    4    1     12.00      0.00
    0    4   10      1.29      0.00
    0    2    0     25.96      0.00
    0    2   11      0.53      0.00
    0    0    2     10.86      0.00
    0    0    3     -4.09      0.00
    0    0    4    -11.49      0.00
    0    0    5    -10.97      0.00
    0    0    6     -6.25      0.00
    0    0    7     -1.10      0.00
    0    0    8      2.32      0.00
    0    0    9      3.37      0.00
    0    0   10      2.59      0.00
    0    0   11      1.29      0.00
    0    2    1     20.51      0.00
    0    2    2      7.86      0.00
    0    2    3     -4.21      0.00
    0    2    4    -10.21      0.00
    0    2    5     -9.75      0.00
    0    2    6     -5.72      0.00
    0    2    7     -1.20      0.00
    0    2    8      1.84      0.00
    0    2    9      2.62      0.00
    0    2   10      1.72      0.00
    0    4    2      4.20      0.00
    0    4    3     -3.48      0.00
    0    4    4     -7.58      0.00
    0    4    5     -7.48      0.00
    0    4    6     -4.53      0.00
    0    4    7     -0.77      0.00
    0    4    8      1.91      0.00
    0    4    9      2.44      0.00
    0    6    4     -4.94      0.00
    0    6    5     -5.02      0.00
    0    6    6     -2.94      0.00
    0    6    7     -0.03      0.00
    0    6    8      2.10      0.00
    0   10    0      2.11      0.00
    0   12    0      1.56      0.00
    0   12    1      1.32      0.00
    1   13    2     -0.56      0.00
    1   11    5      0.83      0.00
    1   11    4      0.46      0.00
    1   11    3     -0.18      0.00
    1   11    2     -0.95      0.00
    1   11    1     -1.57      0.00
    1   11    0     -1.69      0.00
   -1   11    3      0.67      0.00
   -1   11    4      1.07      0.00
   -1   11    5      0.95      0.00
   -1   11    6      0.58      0.00
    1    9    7      0.66      0.00
    1    9    6      1.31      0.00
    1    9    5      1.75      0.00
    1    9    4      1.57      0.00
    1    9    3      0.60      0.00
    1    9    2     -0.91      0.00
    1    9    1     -2.27      0.00
    1    9    0     -2.67      0.00
   -1    9    2     -0.20      0.00
   -1    9    3      1.19      0.00
   -1    9    4      1.75      0.00
   -1    9    5      1.52      0.00
   -1    9    6      0.91      0.00
   -1    9    7      0.32      0.00
   -1    9    8     -0.07      0.00
    1    7    9     -1.70      0.00
    1    7    8     -1.67      0.00
    1    7    7     -0.33      0.00
    1    7    6      1.75      0.00
    1    7    5      3.30      0.00
    1    7    4      3.21      0.00
    1    7    3      1.09      0.00
    1    7    2     -2.36      0.00
    1    7    1     -5.50      0.00
    1    7    0     -6.53      0.00
   -1    7    1     -4.76      0.00
   -1    7    2     -1.22      0.00
   -1    7    3      2.15      0.00
   -1    7    4      3.92      0.00
   -1    7    5      3.81      0.00
    1    5   10     -1.28      0.00
    1    5    9     -2.47      0.00
    1    5    8     -2.27      0.00
    1    5    7     -0.07      0.00
    1    5    6      3.15      0.00
    1    5    5      5.44      0.00
    1    5    4      5.14      0.00
    1    5    3      1.60      0.00
    1    5    2     -4.27      0.00
    1    5    1     -9.80      0.00
    1    5    0    -11.76      0.00
   -1    5    1     -8.72      0.00
   -1    5    2     -2.37      0.00
   -1    5    3      3.76      0.00
    1    3   10     -0.82      0.00
    1    3    9     -1.69      0.00
    1    3    8     -1.13      0.00
    1    3    1    -15.47      0.00
    1    3    0    -19.16      0.00
   -1    3    1    -14.47      0.00
   -1    3    2     -4.15      0.00
    1    1   10     -1.54      0.00
    1    1    9     -2.03      0.00
    1    1    8     -0.95      0.00
    1    1    7      2.11      0.00
    1    1    6      6.32      0.00
    1    1    5      9.79      0.00
    1    1    4      9.60      0.00
    1    1    3      2.95      0.00
    1    1    1    -23.46      0.00
   -1    1    2     -7.65      0.00
   -1    1    3      6.59      0.00
   -1    1    4     13.17      0.00
   -1    1    5     11.63      0.00
   -1    1    6      5.93      0.00
   -1    1    7      0.22      0.00
   -1    1    8     -3.27      0.00
   -1    1    9     -4.06      0.00
   -1    1   10     -2.89      0.00
   -1    1   11     -1.23      0.00
    1    1    2     -9.93      0.00
    1    3    7      1.42      0.00
    1    3    6      5.01      0.00
    1    3    5      7.77      0.00
    1    3    4      7.53      0.00
    1    3    3      2.66      0.00
    1    3    2     -6.32      0.00
   -1    3    3      5.62      0.00
   -1    3    4     10.20      0.00
   -1    3    5      9.20      0.00
   -1    3    6      5.07      0.00
   -1    3    7      0.61      0.00
   -1    3    8     -2.30      0.00
   -1    3    9     -2.86      0.00
   -1    3   10     -1.61      0.00
   -1    3   11     -0.11      0.00
   -1    5    4      6.97      0.00
   -1    5    5      6.73      0.00
   -1    5    6      4.08      0.00
   -1    5    7      0.62      0.00
   -1    5    8     -1.98      0.00
   -1    5    9     -2.60      0.00
   -1    5   10     -1.47      0.00
   -1    7    6      2.32      0.00
   -1    7    7      0.31      0.00
   -1    7    8     -1.25      0.00
   -1    7    9     -1.69      0.00
   -1    7   10     -1.09      0.00
   -1    9    1     -1.80      0.00
   -1   11    1     -1.17      0.00
   -1   11    2     -0.22      0.00
    1   13    1     -0.75      0.00
    1   13    0     -0.81      0.00
   -1   13    1     -0.63      0.00
   -1   13    2     -0.22      0.00
    2   12    3      0.34      0.00
    2   12    2      0.66      0.00
    2   12    1      0.86      0.00
    2   12    0      0.82      0.00
   -2   12    5     -1.06      0.00
    2   10    6     -1.03      0.00
    2   10    5     -1.06      0.00
    2   10    4     -0.70      0.00
    2   10    3      0.06      0.00
    2   10    2      0.98      0.00
    2   10    1      1.66      0.00
    2   10    0      1.67      0.00
   -2   10    1      0.88      0.00
   -2   10    3     -1.32      0.00
   -2   10    4     -1.53      0.00
   -2   10    5     -1.06      0.00
   -2   10    6     -0.41      0.00
   -2   10    7      0.00      0.00
    2    8    8      0.74      0.00
    2    8    7      0.14      0.00
    2    8    6     -1.02      0.00
    2    8    5     -1.99      0.00
    2    8    4     -1.94      0.00
    2    8    3     -0.56      0.00
    2    8    2      1.64      0.00
    2    8    1      3.53      0.00
    2    8    0      3.95      0.00
   -2    8    1      2.57      0.00
   -2    8    2      0.23      0.00
   -2    8    3     -1.74      0.00
   -2    8    4     -2.49      0.00
   -2    8    5     -2.12      0.00
   -2    8    6     -1.20      0.00
   -2    8    7     -0.21      0.00
   -2    8    8      0.52      0.00
    2    6    9      2.06      0.00
    2    6    8      2.28      0.00
    2    6    7      0.84      0.00
    2    6    6     -1.66      0.00
    2    6    5     -3.57      0.00
    2    6    4     -3.35      0.00
    2    6    3     -0.55      0.00
    2    6    2      3.81      0.00
    2    6    1      7.62      0.00
    2    6    0      8.62      0.00
   -2    6    1      6.01      0.00
   -2    6    2      1.19      0.00
   -2    6    3     -3.24      0.00
   -2    6    4     -5.44      0.00
   -2    6    5     -5.16      0.00
    2    4    9      1.59      0.00
    2    4    8      1.49      0.00
    2    4    7     -0.47      0.00
    2    4    6     -3.43      0.00
    2    4    5     -5.49      0.00
    2    4    4     -4.94      0.00
    2    4    3     -1.01      0.00
    2    4    2      5.43      0.00
    2    4    1     11.54      0.00
    2    4    0     13.54      0.00
   -2    4    1      9.58      0.00
   -2    4    2      1.67      0.00
   -2    4    3     -5.67      0.00
   -2    4    4     -8.99      0.00
    2    2   10      0.52      0.00
    2    2    9      1.00      0.00
    2    2    8      0.24      0.00
    2    2    7     -2.18      0.00
    2    2    6     -5.41      0.00
    2    2    5     -7.76      0.00
    2    2    4     -7.20      0.00
    2    2    3     -2.09      0.00
    2    2    2      7.26      0.00
    2    2    1     16.93      0.00
    2    2    0     20.73      0.00
   -2    2    1     15.08      0.00
   -2    2    2      2.82      0.00
   -2    2    5    -11.19      0.00
   -2    2    6     -5.35      0.00
   -2    2    7      0.21      0.00
   -2    2    8      3.41      0.00
   -2    2    9      3.86      0.00
    2    0   10      1.13      0.00
    2    0    9      1.32      0.00
    2    0    8      0.14      0.00
    2    0    7     -2.69      0.00
    2    0    6     -6.31      0.00
    2    0    5     -9.01      0.00
    2    0    4     -8.47      0.00
    2    0    3     -2.50      0.00
    2    0    2      8.80      0.00
    2    0    1     20.73      0.00
    2    0    0     25.62      0.00
   -2    0    2      3.95      0.00
   -2    0    3    -10.21      0.00
   -2    0    4    -16.21      0.00
   -2    0    5    -13.39      0.00
   -2    0    6     -6.26      0.00
   -2    0    7      0.39      0.00
   -2    0    8      4.15      0.00
   -2    0    9      4.81      0.00
   -2    0   10      3.33      0.00
   -2    0   11      1.31      0.00
   -2    0   12      0.05      0.00
   -2    2    3     -8.66      0.00
   -2    2    4    -13.49      0.00
   -2    2   10      2.37      0.00
   -2    2   11      0.48      0.00
   -2    2   12     -0.44      0.00
   -2    4    5     -7.92      0.00
   -2    4    6     -4.33      0.00
   -2    4    7     -0.40      0.00
   -2    4    8      2.26      0.00
   -2    4    9      2.77      0.00
   -2    4   10      1.42      0.00
   -2    4   11     -0.32      0.00
   -2    6    6     -3.20      0.00
   -2    6    7     -0.63      0.00
   -2    6    8      1.45      0.00
   -2    6    9      2.12      0.00
   -2    6   10      1.29      0.00
   -2    8    9      0.76      0.00
   -2   10    2     -0.35      0.00
   -2   10    8      0.07      0.00
   -2   12    1      0.42      0.00
   -2   12    2     -0.31      0.00
   -2   12    3     -1.06      0.00
   -2   12    4     -1.36      0.00
    3   13    0      0.06      0.00
    3   11    4      0.11      0.00
    3   11    3     -0.34      0.00
    3   11    2     -0.74      0.00
    3   11    1     -0.95      0.00
    3   11    0     -0.82      0.00
   -3   11    1     -0.21      0.00
   -3   11    5      1.29      0.00
   -3   11    6      0.37      0.00
    3    9    6      0.43      0.00
    3    9    5      0.86      0.00
    3    9    4      0.78      0.00
    3    9    3      0.00      0.00
    3    9    2     -1.18      0.00
    3    9    1     -2.13      0.00
    3    9    0     -2.17      0.00
   -3    9    1     -1.17      0.00
   -3    9    2      0.35      0.00
   -3    9    4      1.66      0.00
   -3    9    5      1.08      0.00
   -3    9    6      0.34      0.00
   -3    9    7     -0.13      0.00
    3    7    8     -1.58      0.00
    3    7    7     -0.96      0.00
    3    7    6      0.66      0.00
    3    7    5      2.18      0.00
    3    7    4      2.29      0.00
    3    7    3      0.51      0.00
    3    7    2     -2.43      0.00
    3    7    1     -4.92      0.00
    3    7    0     -5.42      0.00
   -3    7    1     -3.51      0.00
   -3    7    2     -0.30      0.00
   -3    7    3      2.40      0.00
   -3    7    4      3.48      0.00
   -3    7    5      3.06      0.00
   -3    7    6      1.83      0.00
   -3    7    7      0.38      0.00
   -3    7    8     -0.85      0.00
    3    5    8     -1.91      0.00
    3    5    7     -0.59      0.00
    3    5    6      1.86      0.00
    3    5    5      3.72      0.00
    3    5    4      3.34      0.00
    3    5    3      0.23      0.00
    3    5    2     -4.55      0.00
    3    5    1     -8.70      0.00
    3    5    0     -9.67      0.00
   -3    5    1     -6.45      0.00
   -3    5    2     -0.63      0.00
   -3    5    3      4.61      0.00
   -3    5    4      6.88      0.00
   -3    5    5      6.02      0.00
   -3    5    6      3.34      0.00
    3    3    9     -0.75      0.00
    3    3    8     -0.56      0.00
    3    3    7      1.13      0.00
    3    3    6      3.59      0.00
    3    3    5      5.21      0.00
    3    3    4      4.47      0.00
    3    3    3      0.61      0.00
    3    3    2     -5.72      0.00
    3    3    1    -11.86      0.00
    3    3    0    -13.81      0.00
   -3    3    1     -9.23      0.00
   -3    3    2     -0.11      0.00
   -3    3    3      8.26      0.00
   -3    3    4     11.49      0.00
    3    1    9     -0.79      0.00
    3    1    8      0.08      0.00
    3    1    7      2.32      0.00
    3    1    6      5.09      0.00
    3    1    5      6.90      0.00
    3    1    4      6.15      0.00
    3    1    3      1.55      0.00
    3    1    2     -6.70      0.00
    3    1    1    -15.29      0.00
    3    1    0    -18.44      0.00
   -3    1    1    -12.36      0.00
   -3    1    2      0.46      0.00
   -3    1    3     12.43      0.00
   -3    1    4     16.99      0.00
   -3    1    5     13.43      0.00
   -3    1    6      5.96      0.00
   -3    1    7     -0.69      0.00
   -3    1    8     -4.20      0.00
   -3    1    9     -4.53      0.00
   -3    1   10     -2.78      0.00
   -3    1   11     -0.58      0.00
   -3    1   12      0.68      0.00
   -3    3    5      9.21      0.00
   -3    3    6      4.19      0.00
   -3    3    7     -0.53      0.00
   -3    3    8     -3.21      0.00
   -3    3    9     -3.43      0.00
   -3    3   10     -1.78      0.00
   -3    3   11      0.26      0.00
   -3    3   12      1.22      0.00
   -3    5    7      0.30      0.00
   -3    5    8     -1.94      0.00
   -3    5    9     -2.54      0.00
   -3    5   10     -1.42      0.00
   -3    5   11      0.33      0.00
   -3    7    9     -1.38      0.00
   -3    7   10     -0.97      0.00
   -3    9    3      1.48      0.00
   -3    9    8     -0.27      0.00
   -3    9    9     -0.22      0.00
   -3   11    2      0.75      0.00
   -3   11    3      1.62      0.00
   -3   11    4      1.85      0.00
   -3   11    7     -0.26      0.00
   -3   13    1      0.13      0.00
   -3   13    2      0.43      0.00
    4   12    2      0.13      0.00
    4   12    1      0.08      0.00
    4   12    0      0.04      0.00
   -4   12    1     -0.13      0.00
   -4   12    2     -0.62      0.00
    4   10    5     -0.01      0.00
    4   10    4      0.10      0.00
    4   10    3      0.45      0.00
    4   10    2      0.94      0.00
    4   10    1      1.28      0.00
    4   10    0      1.20      0.00
   -4   10    1      0.54      0.00
   -4   10    2     -0.52      0.00
   -4   10    3     -1.43      0.00
   -4   10    6     -0.16      0.00
    4    8    6      0.11      0.00
    4    8    5     -0.88      0.00
    4    8    4     -1.24      0.00
    4    8    3     -0.44      0.00
    4    8    2      1.19      0.00
    4    8    1      2.62      0.00
    4    8    0      2.85      0.00
   -4    8    1      1.65      0.00
   -4    8    2     -0.24      0.00
   -4    8    3     -1.66      0.00
   -4    8    5     -1.41      0.00
   -4    8    6     -0.62      0.00
   -4    8    7      0.03      0.00
    4    6    7      0.96      0.00
    4    6    6     -0.92      0.00
    4    6    5     -2.73      0.00
    4    6    4     -2.91      0.00
    4    6    3     -0.84      0.00
    4    6    2      2.60      0.00
    4    6    1      5.53      0.00
    4    6    0      6.10      0.00
   -4    6    1      3.76      0.00
   -4    6    2     -0.18      0.00
   -4    6    3     -3.51      0.00
   -4    6    4     -4.74      0.00
   -4    6    5     -3.96      0.00
   -4    6    6     -2.14      0.00
   -4    6    7     -0.14      0.00
   -4    6    8      1.50      0.00
    4    4    8      1.12      0.00
    4    4    7      0.02      0.00
    4    4    6     -2.04      0.00
    4    4    5     -3.53      0.00
    4    4    4     -2.99      0.00
    4    4    3      0.02      0.00
    4    4    2      4.58      0.00
    4    4    1      8.58      0.00
    4    4    0      9.46      0.00
   -4    4    1      5.91      0.00
   -4    4    2     -0.59      0.00
   -4    4    3     -6.39      0.00
   -4    4    4     -8.51      0.00
   -4    4    5     -6.71      0.00
   -4    4    6     -2.91      0.00
    4    2    8      0.23      0.00
    4    2    7     -1.23      0.00
    4    2    6     -3.18      0.00
    4    2    5     -4.26      0.00
    4    2    4     -3.32      0.00
    4    2    3      0.16      0.00
    4    2    2      5.69      0.00
    4    2    1     11.05      0.00
    4    2    0     12.53      0.00
   -4    2    1      7.56      0.00
   -4    2    2     -2.17      0.00
   -4    2    3    -11.14      0.00
   -4    2    5    -10.87      0.00
   -4    2    6     -4.37      0.00
   -4    2    7      1.29      0.00
   -4    2    8      4.12      0.00
   -4    2    9      4.07      0.00
   -4    2   10      2.12      0.00
   -4    2   11     -0.16      0.00
    4    0    9      0.77      0.00
    4    0    8      0.05      0.00
    4    0    7     -1.77      0.00
    4    0    6     -3.89      0.00
    4    0    5     -4.98      0.00
    4    0    4     -3.96      0.00
    4    0    3     -0.16      0.00
    4    0    2      6.12      0.00
    4    0    1     12.43      0.00
    4    0    0     14.29      0.00
   -4    0    1      8.43      0.00
   -4    0    2     -3.29      0.00
   -4    0    3    -14.20      0.00
   -4    0    4    -18.02      0.00
   -4    0    5    -13.85      0.00
   -4    0    6     -5.84      0.00
   -4    0    7      1.09      0.00
   -4    0    8      4.50      0.00
   -4    0    9      4.52      0.00
   -4    0   10      2.50      0.00
   -4    0   11      0.11      0.00
   -4    0   12     -1.27      0.00
   -4    2    4    -14.25      0.00
   -4    2   12     -1.36      0.00
   -4    4    7      0.74      0.00
   -4    4    8      2.98      0.00
   -4    4    9      3.25      0.00
   -4    4   10      1.76      0.00
   -4    4   11     -0.30      0.00
   -4    4   12     -1.45      0.00
   -4    6    9      2.18      0.00
   -4    6   10      1.55      0.00
   -4    6   11      0.15      0.00
   -4    8    4     -1.97      0.00
   -4    8    8      0.50      0.00
   -4    8    9      0.76      0.00
   -4    8   10      0.65      0.00
   -4   10    4     -1.63      0.00
   -4   10    5     -1.05      0.00
   -4   10    7      0.43      0.00
   -4   10    8      0.47      0.00
   -4   12    3     -1.31      0.00
   -4   12    4     -1.67      0.00
   -4   12    5     -1.28      0.00
   -4   12    6     -0.36      0.00
    5   11    3     -0.37      0.00
    5   11    2     -0.45      0.00
    5   11    1     -0.53      0.00
    5   11    0     -0.57      0.00
   -5   11    1     -0.38      0.00
   -5   11    2      0.20      0.00
   -5   11    3      1.01      0.00
    5    9    5     -0.16      0.00
    5    9    4      0.20      0.00
    5    9    3      0.03      0.00
    5    9    2     -0.64      0.00
    5    9    1     -1.33      0.00
    5    9    0     -1.48      0.00
   -5    9    1     -0.86      0.00
   -5    9    2      0.22      0.00
   -5    9    3      1.12      0.00
   -5    9    4      1.32      0.00
    5    7    6      0.24      0.00
    5    7    5      1.75      0.00
    5    7    4      2.43      0.00
    5    7    3      1.49      0.00
    5    7    2     -0.65      0.00
    5    7    1     -2.62      0.00
    5    7    0     -3.06      0.00
   -5    7    1     -1.62      0.00
   -5    7    2      0.75      0.00
   -5    7    3      2.56      0.00
   -5    7    4      2.95      0.00
   -5    7    6      1.03      0.00
   -5    7    7     -0.05      0.00
    5    5    7     -0.46      0.00
    5    5    6      1.33      0.00
    5    5    5      3.03      0.00
    5    5    4      3.12      0.00
    5    5    3      1.02      0.00
    5    5    2     -2.45      0.00
    5    5    1     -5.39      0.00
    5    5    0     -5.91      0.00
   -5    5    1     -3.30      0.00
   -5    5    2      1.18      0.00
   -5    5    3      4.99      0.00
   -5    5    4      6.19      0.00
   -5    5    6      2.01      0.00
   -5    5    7     -0.66      0.00
    5    3    8     -0.62      0.00
    5    3    7      0.25      0.00
    5    3    6      1.77      0.00
    5    3    5      2.70      0.00
    5    3    4      1.92      0.00
    5    3    3     -0.81      0.00
    5    3    2     -4.73      0.00
    5    3    1     -8.14      0.00
    5    3    0     -8.70      0.00
   -5    3    1     -4.95      0.00
   -5    3    2      1.93      0.00
   -5    3    3      8.16      0.00
   -5    3    4     10.21      0.00
   -5    3    6      2.57      0.00
   -5    3    7     -1.81      0.00
    5    1    8     -0.19      0.00
    5    1    7      1.05      0.00
    5    1    6      2.50      0.00
    5    1    5      2.97      0.00
    5    1    4      1.64      0.00
    5    1    3     -1.57      0.00
    5    1    2     -6.08      0.00
    5    1    1    -10.17      0.00
    5    1    0    -10.86      0.00
   -5    1    1     -5.87      0.00
   -5    1    2      3.53      0.00
   -5    1    3     12.26      0.00
   -5    1    4     15.17      0.00
   -5    1    5     11.29      0.00
   -5    1    6      4.09      0.00
   -5    1    7     -2.03      0.00
   -5    1    8     -4.80      0.00
   -5    1    9     -4.39      0.00
   -5    1   10     -2.12      0.00
   -5    1   11      0.37      0.00
   -5    1   12      1.72      0.00
   -5    1   13      1.58      0.00
   -5    3    5      7.55      0.00
   -5    3    8     -4.02      0.00
   -5    3    9     -3.88      0.00
   -5    3   10     -2.03      0.00
   -5    3   11      0.22      0.00
   -5    3   12      1.46      0.00
   -5    5    5      4.74      0.00
   -5    5    8     -2.50      0.00
   -5    5    9     -3.01      0.00
   -5    5   10     -2.04      0.00
   -5    5   11     -0.26      0.00
   -5    5   12      1.03      0.00
   -5    7    5      2.18      0.00
   -5    7    8     -1.00      0.00
   -5    7    9     -1.61      0.00
   -5    7   10     -1.49      0.00
   -5    7   11     -0.69      0.00
   -5    9    5      0.85      0.00
   -5    9    6      0.16      0.00
   -5    9    7     -0.32      0.00
   -5    9    8     -0.50      0.00
   -5    9    9     -0.52      0.00
   -5    9   10     -0.45      0.00
   -5   11    4      1.50      0.00
   -5   11    5      1.17      0.00
   -5   11    6      0.22      0.00
   -5   11    7     -0.65      0.00
   -6   12    1      0.40      0.00
   -6   12    2      0.38      0.00
   -6   12    3     -0.13      0.00
    6   10    3      0.10      0.00
    6   10    2      0.25      0.00
    6   10    1      0.55      0.00
    6   10    0      0.79      0.00
   -6   10    1      0.70      0.00
   -6   10    2      0.18      0.00
   -6   10    3     -0.59      0.00
   -6   10    4     -1.09      0.00
    6    8    5     -0.67      0.00
    6    8    4     -1.45      0.00
    6    8    3     -1.33      0.00
    6    8    2     -0.28      0.00
    6    8    1      0.93      0.00
    6    8    0      1.35      0.00
   -6    8    1      0.66      0.00
   -6    8    2     -0.62      0.00
   -6    8    3     -1.60      0.00
   -6    8    4     -1.72      0.00
   -6    8    5     -1.16      0.00
    6    6    6     -0.96      0.00
    6    6    5     -2.61      0.00
    6    6    4     -3.31      0.00
    6    6    3     -2.18      0.00
    6    6    2      0.31      0.00
    6    6    1      2.57      0.00
    6    6    0      3.04      0.00
   -6    6    1      1.25      0.00
   -6    6    2     -1.71      0.00
   -6    6    3     -4.01      0.00
   -6    6    4     -4.44      0.00
   -6    6    5     -3.19      0.00
    6    4    7      0.13      0.00
    6    4    6     -1.25      0.00
    6    4    5     -2.49      0.00
    6    4    4     -2.32      0.00
    6    4    3     -0.33      0.00
    6    4    2      2.73      0.00
    6    4    1      5.27      0.00
    6    4    0      5.56      0.00
   -6    4    1      2.80      0.00
   -6    4    2     -1.98      0.00
   -6    4    3     -6.16      0.00
   -6    4    4     -7.38      0.00
   -6    4    5     -5.34      0.00
    6    2    7     -0.51      0.00
    6    2    6     -1.60      0.00
    6    2    5     -1.97      0.00
    6    2    4     -0.79      0.00
    6    2    3      1.90      0.00
    6    2    2      5.27      0.00
    6    2    1      7.95      0.00
    6    2    0      8.07      0.00
   -6    2    1      4.29      0.00
   -6    2    2     -2.50      0.00
   -6    2    3     -8.77      0.00
   -6    2    4    -10.79      0.00
   -6    2    5     -7.70      0.00
   -6    2    6     -2.01      0.00
   -6    2    7      2.84      0.00
   -6    2    8      4.93      0.00
   -6    2    9      4.31      0.00
   -6    2   10      2.05      0.00
   -6    2   11     -0.38      0.00
   -6    2   12     -1.66      0.00
    6    0    7     -1.07      0.00
    6    0    6     -2.17      0.00
    6    0    5     -2.22      0.00
    6    0    4     -0.53      0.00
    6    0    3      2.61      0.00
    6    0    2      6.35      0.00
    6    0    1      9.27      0.00
    6    0    0      9.31      0.00
   -6    0    1      4.85      0.00
   -6    0    2     -3.17      0.00
   -6    0    3    -10.66      0.00
   -6    0    4    -13.10      0.00
   -6    0    5     -9.40      0.00
   -6    0    6     -2.57      0.00
   -6    0    7      3.17      0.00
   -6    0    8      5.50      0.00
   -6    0    9      4.62      0.00
   -6    0   10      2.03      0.00
   -6    0   11     -0.60      0.00
   -6    0   12     -1.99      0.00
   -6    0   13     -1.83      0.00
   -6    2   13     -1.42      0.00
   -6    4    6     -1.68      0.00
   -6    4    7      1.61      0.00
   -6    4    8      3.44      0.00
   -6    4    9      3.53      0.00
   -6    4   10      2.13      0.00
   -6    4   11      0.12      0.00
   -6    4   12     -1.18      0.00
   -6    6    6     -1.32      0.00
   -6    6    7      0.40      0.00
   -6    6    8      1.69      0.00
   -6    6    9      2.32      0.00
   -6    6   10      1.97      0.00
   -6    6   11      0.78      0.00
   -6    6   12     -0.38      0.00
   -6    8    6     -0.46      0.00
   -6    8    7      0.10      0.00
   -6    8    8      0.58      0.00
   -6    8    9      1.00      0.00
   -6    8   10      1.16      0.00
   -6   10    5     -0.94      0.00
   -6   10    6     -0.25      0.00
   -6   10    7      0.47      0.00
   -6   10    8      0.77      0.00
   -6   10    9      0.64      0.00
   -6   12    4     -0.74      0.00
   -6   12    5     -0.80      0.00
    7   11    0     -0.29      0.00
   -7   11    1     -0.64      0.00
   -7   11    2     -0.63      0.00
   -7   11    3     -0.09      0.00
   -7   11    4      0.64      0.00
    7    9    3      0.96      0.00
    7    9    2      0.62      0.00
    7    9    1     -0.05      0.00
    7    9    0     -0.51      0.00
   -7    9    1     -0.44      0.00
   -7    9    2      0.11      0.00
   -7    9    3      0.76      0.00
   -7    9    4      1.11      0.00
   -7    9    5      0.98      0.00
    7    7    5      1.70      0.00
    7    7    4      2.59      0.00
    7    7    3      2.24      0.00
    7    7    2      0.69      0.00
    7    7    1     -0.98      0.00
    7    7    0     -1.49      0.00
   -7    7    1     -0.43      0.00
   -7    7    2      1.41      0.00
   -7    7    3      2.74      0.00
   -7    7    4      2.81      0.00
   -7    7    5      1.89      0.00
   -7    7    6      0.78      0.00
    7    5    6      1.08      0.00
    7    5    5      2.44      0.00
    7    5    4      2.87      0.00
    7    5    3      1.62      0.00
    7    5    2     -0.82      0.00
    7    5    1     -2.96      0.00
    7    5    0     -3.25      0.00
   -7    5    1     -1.16      0.00
   -7    5    2      2.26      0.00
   -7    5    3      5.03      0.00
   -7    5    4      5.57      0.00
   -7    5    5      3.89      0.00
   -7    5    6      1.27      0.00
    7    3    6      1.14      0.00
    7    3    5      1.84      0.00
    7    3    4      1.32      0.00
    7    3    3     -0.64      0.00
    7    3    2     -3.28      0.00
    7    3    1     -5.29      0.00
    7    3    0     -5.30      0.00
   -7    3    1     -2.57      0.00
   -7    3    2      2.13      0.00
   -7    3    3      6.37      0.00
   -7    3    4      7.61      0.00
   -7    3    5      5.25      0.00
   -7    3    6      1.01      0.00
    7    1    6      2.04      0.00
    7    1    5      2.14      0.00
    7    1    4      0.64      0.00
    7    1    3     -2.19      0.00
    7    1    2     -5.31      0.00
    7    1    1     -7.42      0.00
    7    1    0     -7.18      0.00
   -7    1    1     -3.65      0.00
   -7    1    2      2.40      0.00
   -7    1    3      8.00      0.00
   -7    1    4      9.74      0.00
   -7    1    5      6.59      0.00
   -7    1    6      0.85      0.00
   -7    1    7     -3.96      0.00
   -7    1    8     -5.75      0.00
   -7    1    9     -4.61      0.00
   -7    1   10     -1.94      0.00
   -7    1   11      0.65      0.00
   -7    1   12      1.94      0.00
   -7    1   13      1.66      0.00
   -7    3    7     -2.66      0.00
   -7    3    8     -4.29      0.00
   -7    3    9     -3.80      0.00
   -7    3   10     -1.89      0.00
   -7    3   11      0.27      0.00
   -7    3   12      1.48      0.00
   -7    3   13      1.25      0.00
   -7    5    7     -1.01      0.00
   -7    5    8     -2.33      0.00
   -7    5    9     -2.57      0.00
   -7    5   10     -1.73      0.00
   -7    5   11     -0.23      0.00
   -7    5   12      0.98      0.00
   -7    7    7     -0.08      0.00
   -7    7    8     -0.74      0.00
   -7    7    9     -1.27      0.00
   -7    7   10     -1.37      0.00
   -7    7   11     -0.86      0.00
   -7    9    6      0.53      0.00
   -7    9    7      0.02      0.00
   -7    9    8     -0.37      0.00
   -7    9    9     -0.63      0.00
   -7    9   10     -0.75      0.00
   -7   11    5      0.87      0.00
   -7   11    6      0.34      0.00
   -7   11    7     -0.49      0.00
    8   10    1     -0.47      0.00
    8   10    0     -0.03      0.00
   -8   10    1      0.32      0.00
   -8   10    2      0.31      0.00
   -8   10    3     -0.12      0.00
   -8   10    4     -0.72      0.00
   -8   10    5     -1.02      0.00
    8    8    3     -1.71      0.00
    8    8    2     -0.95      0.00
    8    8    1      0.17      0.00
    8    8    0      0.74      0.00
   -8    8    1      0.35      0.00
   -8    8    2     -0.62      0.00
   -8    8    3     -1.41      0.00
   -8    8    4     -1.56      0.00
   -8    8    5     -1.17      0.00
   -8    8    6     -0.68      0.00
    8    6    4     -2.45      0.00
    8    6    3     -1.79      0.00
    8    6    2      0.07      0.00
    8    6    1      1.89      0.00
    8    6    0      2.26      0.00
   -8    6    1      0.71      0.00
   -8    6    2     -1.79      0.00
   -8    6    3     -3.63      0.00
   -8    6    4     -3.75      0.00
   -8    6    5     -2.42      0.00
   -8    6    6     -0.72      0.00
    8    4    5     -1.69      0.00
    8    4    4     -1.79      0.00
    8    4    3     -0.55      0.00
    8    4    2      1.57      0.00
    8    4    1      3.32      0.00
    8    4    0      3.39      0.00
   -8    4    1      1.29      0.00
   -8    4    2     -2.12      0.00
   -8    4    3     -4.98      0.00
   -8    4    4     -5.58      0.00
   -8    4    5     -3.67      0.00
   -8    4    6     -0.58      0.00
    8    2    5     -1.97      0.00
    8    2    4     -1.20      0.00
    8    2    3      0.84      0.00
    8    2    2      3.27      0.00
    8    2    1      4.87      0.00
    8    2    0      4.60      0.00
   -8    2    1      2.03      0.00
   -8    2    2     -2.18      0.00
   -8    2    3     -5.96      0.00
   -8    2    4     -6.95      0.00
   -8    2    6      0.01      0.00
   -8    2    7      3.73      0.00
   -8    2    8      5.06      0.00
   -8    2    9      3.99      0.00
   -8    2   10      1.61      0.00
   -8    2   11     -0.70      0.00
   -8    2   12     -1.82      0.00
   -8    2   13     -1.46      0.00
    8    0    6     -2.35      0.00
    8    0    5     -2.63      0.00
    8    0    4     -1.32      0.00
    8    0    3      1.35      0.00
    8    0    2      4.19      0.00
    8    0    1      5.86      0.00
    8    0    0      5.37      0.00
   -8    0    1      2.31      0.00
   -8    0    2     -2.54      0.00
   -8    0    3     -6.87      0.00
   -8    0    4     -8.00      0.00
   -8    0    5     -5.01      0.00
   -8    0    6      0.21      0.00
   -8    0    7      4.54      0.00
   -8    0    8      5.96      0.00
   -8    0    9      4.53      0.00
   -8    0   10      1.67      0.00
   -8    0   11     -0.93      0.00
   -8    0   12     -2.10      0.00
   -8    0   13     -1.69      0.00
   -8    2    5     -4.43      0.00
   -8    4    7      1.98      0.00
   -8    4    8      3.08      0.00
   -8    4    9      2.69      0.00
   -8    4   10      1.25      0.00
   -8    4   11     -0.48      0.00
   -8    4   12     -1.57      0.00
   -8    4   13     -1.45      0.00
   -8    6    7      0.50      0.00
   -8    6    8      1.10      0.00
   -8    6    9      1.22      0.00
   -8    6   10      0.83      0.00
   -8    6   11     -0.03      0.00
   -8    6   12     -0.88      0.00
   -8    8    7     -0.31      0.00
   -8    8    8      0.00      0.00
   -8    8    9      0.37      0.00
   -8    8   10      0.65      0.00
   -8    8   11      0.60      0.00
   -8   10    6     -0.76      0.00
   -8   10    7     -0.14      0.00
   -8   10    8      0.37      0.00
   -9   11    3     -0.31      0.00
   -9   11    4      0.27      0.00
   -9   11    5      0.78      0.00
    9    9    1      0.39      0.00
    9    9    0     -0.14      0.00
   -9    9    1     -0.25      0.00
   -9    9    2      0.02      0.00
   -9    9    3      0.44      0.00
   -9    9    4      0.77      0.00
   -9    9    5      0.90      0.00
   -9    9    6      0.81      0.00
    9    7    3      1.31      0.00
    9    7    2      0.10      0.00
    9    7    1     -1.33      0.00
    9    7    0     -1.78      0.00
   -9    7    1     -0.82      0.00
   -9    7    2      0.86      0.00
   -9    7    3      2.06      0.00
   -9    7    4      2.07      0.00
   -9    7    5      1.21      0.00
   -9    7    6      0.32      0.00
   -9    7    7     -0.08      0.00
    9    5    4      1.50      0.00
    9    5    3      0.74      0.00
    9    5    2     -1.00      0.00
    9    5    1     -2.59      0.00
    9    5    0     -2.74      0.00
   -9    5    1     -1.02      0.00
   -9    5    2      1.67      0.00
   -9    5    3      3.67      0.00
   -9    5    4      3.78      0.00
   -9    5    5      2.14      0.00
   -9    5    6     -0.04      0.00
   -9    5    7     -1.51      0.00
    9    3    4      1.21      0.00
    9    3    3      0.04      0.00
    9    3    2     -1.75      0.00
    9    3    1     -3.06      0.00
    9    3    0     -2.90      0.00
   -9    3    1     -1.00      0.00
   -9    3    2      1.94      0.00
   -9    3    3      4.37      0.00
   -9    3    4      4.75      0.00
   -9    3    5      2.72      0.00
   -9    3    6     -0.50      0.00
   -9    3    7     -3.07      0.00
    9    1    5      2.27      0.00
    9    1    4      1.59      0.00
    9    1    3     -0.39      0.00
    9    1    2     -2.66      0.00
    9    1    1     -3.90      0.00
    9    1    0     -3.30      0.00
   -9    1    1     -0.80      0.00
   -9    1    2      2.77      0.00
   -9    1    3      5.70      0.00
   -9    1    4      6.16      0.00
   -9    1    5      3.55      0.00
   -9    1    6     -0.72      0.00
   -9    1    7     -4.21      0.00
   -9    1    8     -5.25      0.00
   -9    1    9     -3.83      0.00
   -9    1   10     -1.17      0.00
   -9    1   11      1.20      0.00
   -9    1   12      2.18      0.00
   -9    1   13      1.63      0.00
   -9    3    8     -3.87      0.00
   -9    3    9     -2.92      0.00
   -9    3   10     -0.99      0.00
   -9    3   11      0.89      0.00
   -9    3   12      1.83      0.00
   -9    3   13      1.52      0.00
   -9    5    8     -1.87      0.00
   -9    5    9     -1.36      0.00
   -9    5   10     -0.33      0.00
   -9    5   11      0.86      0.00
   -9    5   12      1.68      0.00
   -9    7    8     -0.10      0.00
   -9    7    9     -0.07      0.00
   -9    7   10     -0.02      0.00
   -9    7   11      0.25      0.00
   -9    9    7      0.57      0.00
   -9    9    8      0.28      0.00
   -9    9    9      0.00      0.00
  -10   10    2      0.25      0.00
  -10   10    3      0.17      0.00
  -10   10    4     -0.18      0.00
  -10   10    5     -0.59      0.00
  -10   10    6     -0.73      0.00
  -10   10    7     -0.51      0.00
   10    8    1      0.62      0.00
   10    8    0      1.10      0.00
  -10    8    1      0.74      0.00
  -10    8    2     -0.12      0.00
  -10    8    3     -0.77      0.00
  -10    8    4     -0.83      0.00
  -10    8    5     -0.50      0.00
  -10    8    6     -0.23      0.00
  -10    8    7     -0.23      0.00
   10    6    2      0.81      0.00
   10    6    1      2.16      0.00
   10    6    0      2.38      0.00
  -10    6    1      1.02      0.00
  -10    6    2     -1.09      0.00
  -10    6    3     -2.50      0.00
  -10    6    4     -2.32      0.00
  -10    6    5     -0.93      0.00
  -10    6    6      0.53      0.00
  -10    6    7      1.16      0.00
   10    4    3     -0.14      0.00
   10    4    2      1.18      0.00
   10    4    1      2.34      0.00
   10    4    0      2.30      0.00
  -10    4    1      0.76      0.00
  -10    4    2     -1.50      0.00
  -10    4    3     -3.10      0.00
  -10    4    4     -2.99      0.00
  -10    4    5     -1.20      0.00
  -10    4    6      1.11      0.00
  -10    4    7      2.64      0.00
   10    2    4     -1.02      0.00
   10    2    3      0.11      0.00
   10    2    2      1.69      0.00
   10    2    1      2.62      0.00
   10    2    0      2.12      0.00
  -10    2    1      0.21      0.00
  -10    2    2     -2.27      0.00
  -10    2    3     -4.06      0.00
  -10    2    4     -4.00      0.00
  -10    2    5     -1.90      0.00
  -10    2    6      1.19      0.00
  -10    2    9      2.88      0.00
  -10    2   10      0.70      0.00
  -10    2   11     -1.24      0.00
  -10    2   12     -2.05      0.00
  -10    2   13     -1.57      0.00
   10    0    4     -1.38      0.00
   10    0    3      0.24      0.00
   10    0    2      2.19      0.00
   10    0    1      3.08      0.00
   10    0    0      2.18      0.00
  -10    0    1     -0.26      0.00
  -10    0    2     -3.21      0.00
  -10    0    3     -5.25      0.00
  -10    0    4     -5.16      0.00
  -10    0    5     -2.69      0.00
  -10    0    6      1.00      0.00
  -10    0    7      3.92      0.00
  -10    0    8      4.67      0.00
  -10    0    9      3.20      0.00
  -10    0   10      0.60      0.00
  -10    0   11     -1.67      0.00
  -10    0   12     -2.53      0.00
  -10    0   13     -1.84      0.00
  -10    2    7      3.58      0.00
  -10    2    8      4.14      0.00
  -10    4    8      2.79      0.00
  -10    4    9      1.82      0.00
  -10    4   10      0.36      0.00
  -10    4   11     -0.99      0.00
  -10    4   12     -1.69      0.00
  -10    4   13     -1.50      0.00
  -10    6    8      0.92      0.00
  -10    6    9      0.31      0.00
  -10    6   10     -0.32      0.00
  -10    6   11     -0.91      0.00
  -10    6   12     -1.33      0.00
  -10    8    8     -0.35      0.00
  -10    8    9     -0.37      0.00
  -10    8   10     -0.24      0.00
  -11    9    2     -0.30      0.00
  -11    9    3     -0.13      0.00
  -11    9    4     -0.07      0.00
  -11    9    5     -0.01      0.00
  -11    9    6      0.10      0.00
  -11    9    7      0.21      0.00
   11    7    0     -1.63      0.00
  -11    7    1     -0.78      0.00
  -11    7    2      0.63      0.00
  -11    7    3      1.51      0.00
  -11    7    4      1.26      0.00
  -11    7    5      0.25      0.00
  -11    7    6     -0.63      0.00
  -11    7    7     -0.79      0.00
   11    5    2     -0.84      0.00
   11    5    1     -1.78      0.00
   11    5    0     -1.77      0.00
  -11    5    1     -0.44      0.00
  -11    5    2      1.46      0.00
  -11    5    3      2.61      0.00
  -11    5    4      2.14      0.00
  -11    5    5      0.41      0.00
  -11    5    6     -1.39      0.00
  -11    5    7     -2.23      0.00
   11    3    2     -1.16      0.00
   11    3    1     -1.90      0.00
   11    3    0     -1.61      0.00
  -11    3    1     -0.21      0.00
  -11    3    2      1.54      0.00
  -11    3    3      2.58      0.00
  -11    3    4      2.17      0.00
  -11    3    5      0.44      0.00
  -11    3    6     -1.67      0.00
  -11    3    7     -3.03      0.00
   11    1    3     -0.52      0.00
   11    1    2     -2.00      0.00
   11    1    1     -2.67      0.00
   11    1    0     -1.78      0.00
  -11    1    1      0.35      0.00
  -11    1    2      2.63      0.00
  -11    1    3      3.90      0.00
  -11    1    4      3.45      0.00
  -11    1    5      1.39      0.00
  -11    1    6     -1.33      0.00
  -11    1    7     -3.37      0.00
  -11    1    8     -3.76      0.00
  -11    1    9     -2.49      0.00
  -11    1   10     -0.32      0.00
  -11    1   11      1.62      0.00
  -11    1   12      2.41      0.00
  -11    1   13      1.84      0.00
  -11    3    8     -3.07      0.00
  -11    3    9     -1.98      0.00
  -11    3   10     -0.43      0.00
  -11    3   11      0.88      0.00
  -11    3   12      1.47      0.00
  -11    3   13      1.20      0.00
  -11    5    8     -1.92      0.00
  -11    5    9     -0.98      0.00
  -11    5   10      0.00      0.00
  -11    5   11      0.73      0.00
  -11    5   12      1.09      0.00
  -11    7    8     -0.37      0.00
  -11    7    9      0.10      0.00
  -11    7   10      0.36      0.00
  -11    7   11      0.48      0.00
  -11    9    8      0.24      0.00
  -12    8    2     -0.15      0.00
  -12    8    3     -0.51      0.00
  -12    8    4     -0.28      0.00
  -12    8    5      0.26      0.00
  -12    8    6      0.61      0.00
  -12    8    7      0.54      0.00
   12    6    0      0.99      0.00
  -12    6    1     -0.06      0.00
  -12    6    2     -1.58      0.00
  -12    6    3     -2.40      0.00
  -12    6    4     -1.82      0.00
  -12    6    5     -0.24      0.00
  -12    6    6      1.21      0.00
   12    4    1      1.08      0.00
   12    4    0      0.90      0.00
  -12    4    1     -0.21      0.00
  -12    4    2     -1.63      0.00
  -12    4    3     -2.31      0.00
  -12    4    4     -1.66      0.00
  -12    4    5     -0.02      0.00
  -12    4    6      1.61      0.00
  -12    4    7      2.37      0.00
  -12    4    8      2.08      0.00
   12    2    1      2.05      0.00
   12    2    0      1.47      0.00
  -12    2    1     -0.09      0.00
  -12    2    2     -1.70      0.00
  -12    2    3     -2.40      0.00
  -12    2    4     -1.79      0.00
  -12    2    5     -0.21      0.00
  -12    2    6      1.53      0.00
  -12    2    7      2.62      0.00
   12    0    2      2.28      0.00
   12    0    1      2.84      0.00
   12    0    0      1.84      0.00
  -12    0    1     -0.32      0.00
  -12    0    2     -2.39      0.00
  -12    0    3     -3.27      0.00
  -12    0    4     -2.58      0.00
  -12    0    5     -0.73      0.00
  -12    0    6      1.39      0.00
  -12    0    7      2.89      0.00
  -12    0    8      3.15      0.00
  -12    0    9      2.13      0.00
  -12    0   10      0.30      0.00
  -12    0   11     -1.49      0.00
  -12    0   12     -2.37      0.00
  -12    0   13     -1.99      0.00
  -12    2    8      2.65      0.00
  -12    2    9      1.73      0.00
  -12    2   10      0.31      0.00
  -12    2   11     -0.98      0.00
  -12    2   12     -1.58      0.00
  -12    2   13     -1.32      0.00
  -12    4    9      1.20      0.00
  -12    4   10      0.29      0.00
  -12    4   11     -0.33      0.00
  -12    4   12     -0.57      0.00
  -12    6    7      1.72      0.00
  -12    6    8      1.31      0.00
  -12    6    9      0.59      0.00
  -12    6   10      0.07      0.00
  -12    6   11     -0.17      0.00
  -12    8    8      0.23      0.00
  -12    8    9      0.02      0.00
  -13    7    3      1.62      0.00
  -13    7    4      1.14      0.00
  -13    7    5      0.02      0.00
  -13    7    6     -0.95      0.00
  -13    5    1      0.79      0.00
  -13    5    2      2.02      0.00
  -13    5    3      2.57      0.00
  -13    5    4      1.87      0.00
  -13    5    5      0.28      0.00
  -13    5    6     -1.20      0.00
  -13    5    7     -1.77      0.00
  -13    5    8     -1.44      0.00
  -13    5    9     -0.78      0.00
   13    3    0     -0.67      0.00
  -13    3    1      0.38      0.00
  -13    3    2      1.52      0.00
  -13    3    3      1.94      0.00
  -13    3    4      1.31      0.00
  -13    3    5      0.05      0.00
  -13    3    6     -1.09      0.00
  -13    3    7     -1.57      0.00
  -13    3    8     -1.36      0.00
  -13    3    9     -0.79      0.00
   13    1    0     -1.54      0.00
  -13    1    1      0.21      0.00
  -13    1    2      1.85      0.00
  -13    1    3      2.38      0.00
  -13    1    4      1.63      0.00
  -13    1    5      0.17      0.00
  -13    1    6     -1.23      0.00
  -13    1    7     -2.08      0.00
  -13    1    8     -2.21      0.00
  -13    1    9     -1.64      0.00
  -13    1   10     -0.52      0.00
  -13    1   11      0.75      0.00
  -13    1   12      1.58      0.00
  -13    1   13      1.54      0.00
  -13    3   10     -0.17      0.00
  -13    3   11      0.30      0.00
  -13    3   12      0.51      0.00
  -13    5   10     -0.32      0.00
  -13    5   11     -0.17      0.00
  -13    7    7     -1.23      0.00
  -13    7    8     -0.93      0.00
  -13    7    9     -0.53      0.00
  -14    6    4     -1.49      0.00
  -14    6    5     -0.22      0.00
  -14    6    6      0.96      0.00
  -14    4    2     -1.67      0.00
  -14    4    3     -2.02      0.00
  -14    4    4     -1.48      0.00
  -14    4    5     -0.36      0.00
  -14    4    6      0.58      0.00
  -14    4    7      0.86      0.00
  -14    4    8      0.57      0.00
  -14    4    9      0.17      0.00
  -14    4   10     -0.01      0.00
  -14    2    1     -0.41      0.00
  -14    2    2     -1.54      0.00
  -14    2    3     -1.88      0.00
  -14    2    4     -1.27      0.00
  -14    2    5     -0.26      0.00
  -14    2    6      0.50      0.00
  -14    2    7      0.78      0.00
  -14    2    8      0.76      0.00
  -14    2    9      0.60      0.00
  -14    2   10      0.31      0.00
  -14    0    1     -0.40      0.00
  -14    0    2     -1.88      0.00
  -14    0    3     -2.25      0.00
  -14    0    4     -1.43      0.00
  -14    0    5     -0.14      0.00
  -14    0    6      0.91      0.00
  -14    0    7      1.49      0.00
  -14    0    8      1.71      0.00
  -14    0    9      1.60      0.00
  -14    0   10      1.01      0.00
  -14    0   11     -0.01      0.00
  -14    0   12     -0.97      0.00
  -14    2   11     -0.13      0.00
  -14    2   12     -0.56      0.00
  -14    4   11      0.05      0.00
  -14    6    7      1.42      0.00
  -14    6    8      1.18      0.00
  -14    6    9      0.73      0.00
  -15    5    6     -0.67      0.00
  -15    3    4      1.17      0.00
  -15    3    5      0.52      0.00
  -15    3    6      0.10      0.00
  -15    3    7      0.11      0.00
  -15    3    8      0.30      0.00
  -15    3    9      0.34      0.00
  -15    3   10      0.19      0.00
  -15    3   11      0.03      0.00
  -15    1    3      1.88      0.00
  -15    1    4      1.22      0.00
  -15    1    5      0.27      0.00
  -15    1    6     -0.33      0.00
  -15    1    7     -0.53      0.00
  -15    1    8     -0.68      0.00
  -15    1    9     -0.91      0.00
  -15    1   10     -0.94      0.00
  -15    1   11     -0.50      0.00
  -15    5    7     -0.93      0.00
  -15    5    8     -0.65      0.00
  -15    5    9     -0.25      0.00
  -16    2    6     -0.19      0.00
  -16    2    7     -0.31      0.00
  -16    2    8     -0.36      0.00
  -16    2    9     -0.11      0.00
  -16    0    5     -0.03      0.00
  -16    0    6      0.36      0.00
  -16    0    7      0.38      0.00
  -16    0    8      0.49      0.00
  -16    0    9      0.87      0.00
  -16    0   10      1.17      0.00
   14    0    0      1.19      0.00
    1    1    0    -29.19      0.00
   14    2    0      0.71      0.00
   14    4    0     -0.07      0.00
   13    5    0     -0.14      0.00
   13    7    0     -0.40      0.00
   12    8    0      0.82      0.00
   11    9    0     -0.43      0.00
   10   10    0     -0.22      0.00
    9   11    0      0.27      0.00
    6   12    0      0.12      0.00
    8   12    0      0.00      0.00
    5   13    0      0.30      0.00
   -2    0    1     18.91      0.00
    0    0    1     26.52      0.00
   14    0    1      1.83      0.00
  -15    1    1      0.55      0.00
   -1    1    1    -22.63      0.00
   13    1    1     -2.28      0.00
   14    2    1      1.09      0.00
  -15    3    1      0.53      0.00
   13    3    1     -0.98      0.00
  -14    4    1     -0.78      0.00
   13    5    1     -0.31      0.00
  -14    6    1     -0.71      0.00
   12    6    1      0.99      0.00
  -13    7    1      0.19      0.00
   11    7    1     -1.35      0.00
  -12    8    1      0.50      0.00
  -11    9    1     -0.48      0.00
   11    9    1     -0.07      0.00
  -10   10    1      0.08      0.00
   10   10    1     -0.53      0.00
   -9   11    1     -0.15      0.00
    7   11    1      0.03      0.00
    9   11    1      0.51      0.00
   -8   12    1      0.43      0.00
    6   12    1     -0.07      0.00
   -7   13    1     -0.29      0.00
   -5   13    1      0.08      0.00
    3   13    1      0.04      0.00
    5   13    1      0.39      0.00
  -16    0    2     -1.31      0.00
  -15    1    2      1.63      0.00
   13    1    2     -1.78      0.00
   12    2    2      1.52      0.00
  -15    3    2      1.24      0.00
   13    3    2     -0.63      0.00
   12    4    2      0.56      0.00
  -15    5    2      1.16      0.00
  -14    6    2     -1.61      0.00
   12    6    2      0.35      0.00
  -13    7    2      1.14      0.00
   11    7    2     -0.41      0.00
   10    8    2     -0.29      0.00
    9    9    2      0.99      0.00
  -12   10    2      0.26      0.00
    8   10    2     -0.76      0.00
  -11   11    2     -0.14      0.00
   -9   11    2     -0.45      0.00
    7   11    2      0.14      0.00
   -8   12    2      0.75      0.00
    6   12    2     -0.05      0.00
   -7   13    2     -0.59      0.00
   -5   13    2      0.05      0.00
    3   13    2     -0.04      0.00
    5   13    2      0.26      0.00
  -16    0    3     -1.46      0.00
   12    0    3      0.94      0.00
  -16    2    3     -1.22      0.00
   12    2    3      0.57      0.00
  -15    3    3      1.53      0.00
   11    3    3     -0.16      0.00
  -16    4    3     -0.81      0.00
  -15    5    3      1.48      0.00
   11    5    3      0.08      0.00
  -14    6    3     -2.04      0.00
   10    6    3     -0.46      0.00
  -14    8    3     -0.66      0.00
   10    8    3     -0.83      0.00
  -13    9    3     -0.10      0.00
    9    9    3      1.16      0.00
  -12   10    3      0.42      0.00
    8   10    3     -0.72      0.00
  -11   11    3     -0.29      0.00
    7   11    3      0.06      0.00
  -10   12    3      0.34      0.00
   -8   12    3      0.56      0.00
    4   12    3      0.13      0.00
    6   12    3      0.07      0.00
   -7   13    3     -0.45      0.00
   -5   13    3      0.38      0.00
   -3   13    3      0.90      0.00
   -1   13    3      0.25      0.00
    1   13    3     -0.32      0.00
    3   13    3     -0.11      0.00
  -16    0    4     -0.84      0.00
   11    1    4      0.56      0.00
  -16    2    4     -0.88      0.00
   11    3    4      0.32      0.00
  -16    4    4     -0.64      0.00
   10    4    4     -0.75      0.00
  -15    5    4      1.09      0.00
   10    6    4     -0.85      0.00
  -15    7    4      0.68      0.00
    9    7    4      1.50      0.00
  -14    8    4     -0.37      0.00
    8    8    4     -1.56      0.00
  -13    9    4     -0.32      0.00
    7    9    4      0.69      0.00
  -12   10    4      0.46      0.00
    6   10    4      0.20      0.00
  -11   11    4     -0.12      0.00
    5   11    4     -0.28      0.00
  -10   12    4      0.03      0.00
   -8   12    4     -0.06      0.00
    2   12    4     -0.03      0.00
    4   12    4      0.03      0.00
   -7   13    4      0.03      0.00
   -5   13    4      0.78      0.00
   -3   13    4      1.16      0.00
   -1   13    4      0.51      0.00
    1   13    4     -0.11      0.00
   10    0    5     -1.75      0.00
  -16    2    5     -0.38      0.00
   10    2    5     -1.11      0.00
    9    3    5      1.29      0.00
  -16    4    5     -0.19      0.00
   10    4    5     -0.57      0.00
  -15    5    5      0.17      0.00
    9    5    5      1.18      0.00
  -16    6    5      0.22      0.00
    8    6    5     -1.82      0.00
  -15    7    5     -0.02      0.00
  -14    8    5      0.19      0.00
    8    8    5     -0.80      0.00
  -13    9    5     -0.51      0.00
    7    9    5      0.08      0.00
  -12   10    5      0.30      0.00
    6   10    5      0.42      0.00
  -11   11    5      0.26      0.00
    3   11    5      0.45      0.00
    5   11    5     -0.19      0.00
  -10   12    5     -0.42      0.00
   -8   12    5     -0.52      0.00
    0   12    5     -0.51      0.00
    2   12    5     -0.35      0.00
   -7   13    5      0.34      0.00
   -5   13    5      0.73      0.00
   -3   13    5      0.91      0.00
   -1   13    5      0.45      0.00
    1   13    5      0.04      0.00
    9    1    6      1.70      0.00
    8    2    6     -1.50      0.00
    9    3    6      0.67      0.00
  -16    4    6      0.14      0.00
    8    4    6     -0.80      0.00
  -16    6    6      0.75      0.00
    8    6    6     -0.79      0.00
  -15    7    6     -0.65      0.00
    7    7    6      0.53      0.00
  -14    8    6      0.58      0.00
    6    8    6      0.26      0.00
  -13    9    6     -0.50      0.00
    5    9    6     -0.61      0.00
  -12   10    6      0.05      0.00
    4   10    6      0.05      0.00
  -11   11    6      0.48      0.00
   -9   11    6      0.74      0.00
    1   11    6      0.90      0.00
    3   11    6      0.57      0.00
  -10   12    6     -0.54      0.00
   -8   12    6     -0.33      0.00
   -6   12    6     -0.14      0.00
   -2   12    6     -0.45      0.00
    0   12    6     -0.45      0.00
    2   12    6     -0.49      0.00
   -7   13    6      0.14      0.00
   -5   13    6      0.19      0.00
   -3   13    6      0.33      0.00
   -1   13    6      0.21      0.00
    8    0    7     -1.31      0.00
    7    1    7      1.07      0.00
    8    2    7     -0.63      0.00
    7    3    7      0.16      0.00
  -16    4    7      0.11      0.00
    7    5    7     -0.02      0.00
  -16    6    7      0.92      0.00
    6    6    7      0.32      0.00
  -15    7    7     -0.87      0.00
    5    7    7     -0.85      0.00
  -14    8    7      0.62      0.00
    4    8    7      0.85      0.00
  -13    9    7     -0.33      0.00
    3    9    7     -0.03      0.00
  -12   10    7     -0.06      0.00
    2   10    7     -0.74      0.00
  -11   11    7      0.32      0.00
   -9   11    7      0.17      0.00
   -1   11    7      0.27      0.00
    1   11    7      0.72      0.00
   -8   12    7      0.28      0.00
   -6   12    7      0.66      0.00
   -4   12    7      0.41      0.00
   -2   12    7      0.01      0.00
    0   12    7     -0.29      0.00
   -5   13    7     -0.38      0.00
    6    0    8     -0.06      0.00
    7    1    8      0.28      0.00
    6    2    8      0.24      0.00
  -16    4    8     -0.17      0.00
    6    4    8      0.69      0.00
    5    5    8     -1.14      0.00
  -16    6    8      0.70      0.00
    4    6    8      1.63      0.00
  -15    7    8     -0.72      0.00
    5    7    8     -0.93      0.00
  -14    8    8      0.45      0.00
    4    8    8      0.85      0.00
  -13    9    8     -0.17      0.00
    1    9    8      0.16      0.00
    3    9    8     -0.20      0.00
  -12   10    8      0.00      0.00
  -10   10    8     -0.15      0.00
    0   10    8     -0.37      0.00
    2   10    8     -0.37      0.00
  -11   11    8     -0.01      0.00
   -9   11    8     -0.34      0.00
   -7   11    8     -0.92      0.00
   -5   11    8     -0.86      0.00
   -3   11    8     -0.34      0.00
   -1   11    8      0.11      0.00
   -8   12    8      0.65      0.00
   -6   12    8      0.92      0.00
   -4   12    8      0.59      0.00
    5    1    9     -0.54      0.00
    4    2    9      0.54      0.00
    5    3    9     -0.50      0.00
  -16    4    9     -0.36      0.00
    4    4    9      0.86      0.00
    3    5    9     -1.58      0.00
  -16    6    9      0.38      0.00
    4    6    9      1.10      0.00
  -15    7    9     -0.49      0.00
    3    7    9     -1.13      0.00
  -14    8    9      0.33      0.00
    2    8    9      0.62      0.00
  -13    9    9     -0.14      0.00
  -11    9    9      0.18      0.00
   -1    9    9     -0.19      0.00
    1    9    9     -0.05      0.00
  -12   10    9      0.09      0.00
  -10   10    9      0.06      0.00
   -8   10    9      0.50      0.00
   -4   10    9      0.21      0.00
   -2   10    9     -0.01      0.00
    0   10    9     -0.12      0.00
   -9   11    9     -0.37      0.00
   -7   11    9     -0.70      0.00
   -5   11    9     -0.51      0.00
   -3   11    9     -0.13      0.00
    4    0   10      0.59      0.00
    3    1   10     -0.59      0.00
  -16    2   10      0.26      0.00
    4    2   10      0.14      0.00
    3    3   10     -0.06      0.00
  -16    4   10     -0.31      0.00
    2    4   10      0.56      0.00
  -15    5   10     -0.08      0.00
    3    5   10     -0.51      0.00
  -16    6   10      0.16      0.00
  -14    6   10      0.46      0.00
    2    6   10      0.96      0.00
  -15    7   10     -0.38      0.00
  -13    7   10     -0.33      0.00
    1    7   10     -0.94      0.00
  -14    8   10      0.33      0.00
  -12    8   10      0.00      0.00
   -2    8   10      0.50      0.00
    0    8   10      0.54      0.00
  -13    9   10     -0.20      0.00
  -11    9   10      0.06      0.00
   -9    9   10     -0.20      0.00
   -3    9   10     -0.08      0.00
   -1    9   10     -0.15      0.00
  -10   10   10      0.05      0.00
   -8   10   10      0.38      0.00
   -6   10   10      0.38      0.00
   -4   10   10     -0.02      0.00
   -7   11   10     -0.23      0.00
  -16    0   11      0.94      0.00
    2    0   11      0.54      0.00
    1    1   11     -0.68      0.00
  -16    2   11      0.37      0.00
    2    2   11     -0.04      0.00
    1    3   11      0.07      0.00
  -16    4   11     -0.11      0.00
    0    4   11      0.03      0.00
  -15    5   11     -0.15      0.00
   -1    5   11     -0.01      0.00
    1    5   11     -0.18      0.00
  -14    6   11      0.43      0.00
   -2    6   11     -0.04      0.00
    0    6   11      0.36      0.00
  -13    7   11     -0.31      0.00
   -3    7   11     -0.07      0.00
   -1    7   11     -0.25      0.00
  -12    8   11      0.06      0.00
  -10    8   11     -0.18      0.00
   -6    8   11      0.90      0.00
   -4    8   11      0.24      0.00
   -2    8   11      0.09      0.00
  -11    9   11     -0.02      0.00
   -9    9   11     -0.27      0.00
   -7    9   11     -0.69      0.00
   -5    9   11     -0.32      0.00
   -3    9   11      0.04      0.00
   -8   10   11      0.24      0.00
  -16    0   12      0.25      0.00
    0    0   12      0.47      0.00
  -15    1   12      0.19      0.00
   -1    1   12     -0.28      0.00
  -16    2   12      0.15      0.00
    0    2   12      0.07      0.00
  -15    3   12      0.00      0.00
   -1    3   12      0.41      0.00
  -16    4   12      0.04      0.00
  -14    4   12      0.17      0.00
   -2    4   12     -1.03      0.00
  -15    5   12     -0.26      0.00
  -13    5   12     -0.20      0.00
   -3    5   12      1.29      0.00
   -1    5   12      0.52      0.00
  -14    6   12      0.45      0.00
  -12    6   12     -0.26      0.00
   -4    6   12     -0.89      0.00
   -2    6   12     -0.71      0.00
  -13    7   12     -0.28      0.00
  -11    7   12      0.60      0.00
   -9    7   12      0.65      0.00
   -7    7   12     -0.09      0.00
   -5    7   12      0.16      0.00
   -3    7   12      0.54      0.00
  -12    8   12      0.03      0.00
  -10    8   12     -0.28      0.00
   -8    8   12      0.26      0.00
   -6    8   12      0.40      0.00
  -16    0   13     -0.31      0.00
  -14    0   13     -1.27      0.00
   -4    0   13     -1.27      0.00
   -2    0   13     -0.18      0.00
  -15    1   13      0.63      0.00
   -3    1   13      0.70      0.00
  -16    2   13     -0.13      0.00
  -14    2   13     -0.69      0.00
   -4    2   13     -1.12      0.00
   -2    2   13     -0.28      0.00
  -15    3   13      0.06      0.00
  -13    3   13      0.43      0.00
   -5    3   13      1.19      0.00
   -3    3   13      0.84      0.00
  -14    4   13      0.23      0.00
  -12    4   13     -0.44      0.00
   -6    4   13     -1.09      0.00
   -4    4   13     -1.17      0.00
  -13    5   13     -0.26      0.00
  -11    5   13      0.99      0.00
   -9    5   13      1.64      0.00
   -7    5   13      1.10      0.00
   -5    5   13      1.08      0.00
  -12    6   13     -0.23      0.00
  -10    6   13     -1.32      0.00
   -8    6   13     -1.10      0.00
   -6    6   13     -0.72      0.00
  -11    7   13      0.63      0.00
   -9    7   13      0.83      0.00
   -7    7   13      0.32      0.00
    0    0    0      0.00      0.00
# SQUEEZE RESULTS (Version =  21116)
# Note: Data are Listed for all Voids in the P1 Unit Cell
# i.e. Centre of Gravity, Solvent Accessible Volume,
# Recovered number of Electrons in the Void and
# Details about the Squeezed Material
loop_
  _platon_squeeze_void_nr
  _platon_squeeze_void_average_x
  _platon_squeeze_void_average_y
  _platon_squeeze_void_average_z
  _platon_squeeze_void_volume
  _platon_squeeze_void_count_electrons
  _platon_squeeze_void_content
   1  0.500  0.000  0.000        58        15 ' '
   2  0.000  0.500  0.000        58        15 ' '
# Missing Reflections Below sin(th)/lambda = 0.25
loop_
  _platon_missing_refln_index_h
  _platon_missing_refln_index_k
  _platon_missing_refln_index_l
  _platon_missing_refln_theta
    1    1    0     2.548
   -2    0    1     2.947
    0    0    1     2.137
   -1    1    1     2.592
_platon_squeeze_void_probe_radius                  1.20
_platon_squeeze_details
)
TITL dd in C2 C2/m
CELL   13.8330   11.2260   11.5790     90.00    124.60     90.00
SPGR C2/m
# Solvent Accessible Volume =       113
# Electrons Found in S.A.V. =        29
# Note: Atoms in Void as Cxxx and Qxxx all others
C101 0.990 0.495 0.109 !       6.91 eA-3
Q102 0.716 0.498 0.516 !       1.24 eA-3
Q103 0.395 0.497 0.453 !       1.03 eA-3
Q104 0.831 0.112 0.451 !       0.73 eA-3
Q105 0.450 0.080 0.830 !       0.66 eA-3
Q106 0.904 0.138 0.502 !       0.59 eA-3
Q107 0.131 0.501 0.078 !       0.58 eA-3
Q108 0.827 0.500 0.984 !       0.54 eA-3
Q109 0.663 0.494 0.812 !       0.54 eA-3
Q110 0.143 0.417 0.032 !       0.53 eA-3
Q111 0.124 0.096 0.409 !       0.53 eA-3
Q112 0.196 0.472 0.375 !       0.52 eA-3
Q113 0.032 0.092 0.501 !       0.52 eA-3
Q114 0.235 0.498 0.250 !       0.51 eA-3
Q115 0.515 0.498 0.437 !       0.51 eA-3
)
;
_shelx_fab_checksum              4909
_olex2_submission_special_instructions 'No special instructions were received'
loop_
_space_group_symop_operation_xyz
'x, y, z'
'-x, y, -z'
'x+1/2, y+1/2, z'
'-x+1/2, y+1/2, -z'
'-x, -y, -z'
'x, -y, z'
'-x+1/2, -y+1/2, -z'
'x+1/2, -y+1/2, z'
loop_
_atom_site_label
_atom_site_type_symbol
_atom_site_fract_x
_atom_site_fract_y
_atom_site_fract_z
_atom_site_U_iso_or_equiv
_atom_site_adp_type
_atom_site_occupancy
_atom_site_site_symmetry_order
_atom_site_calc_flag
_atom_site_refinement_flags_posn
_atom_site_refinement_flags_adp
_atom_site_refinement_flags_occupancy
Tb1 Tb 0.34029(2) 0.500000 0.46829(3) 0.01328(11) Uani 1 2 d DS TU P
F1 F 0.3576(3) 0.7115(3) -0.1347(3) 0.0535(10) Uani 1 1 d . . .
F2 F 0.3691(3) 0.7080(3) 0.0986(3) 0.0520(9) Uani 1 1 d . . .
F3 F 0.3987(2) 0.1195(2) 0.2550(3) 0.0398(7) Uani 1 1 d . . .
O1 O 0.3379(3) 0.5970(3) -0.3432(3) 0.0355(9) Uani 1 1 d . . .
O2 O 0.2667(4) 0.500000 0.2159(5) 0.0382(13) Uani 1 2 d S T P
O3 O 0.4586(4) 0.500000 0.3513(4) 0.0229(10) Uani 1 2 d S T P
O4 O 0.4080(3) 0.3079(3) 0.4712(3) 0.0286(8) Uani 1 1 d . . .
O5 O 0.1683(3) 0.3716(3) 0.3513(4) 0.0346(8) Uani 1 1 d D U .
C1 C 0.3634(6) 0.500000 0.2315(7) 0.0227(14) Uani 1 2 d S T P
C2 C 0.3655(5) 0.500000 0.1026(6) 0.0210(14) Uani 1 2 d S T P
C3 C 0.3640(4) 0.6043(4) 0.0390(5) 0.0282(11) Uani 1 1 d . . .
C4 C 0.3579(4) 0.6043(4) -0.0843(5) 0.0263(11) Uani 1 1 d . . .
C5 C 0.3524(5) 0.500000 -0.1518(7) 0.0213(14) Uani 1 2 d S T P
C6 C 0.3406(5) 0.500000 -0.2883(7) 0.0235(15) Uani 1 2 d S T P
C7 C 0.500000 0.2594(5) 0.500000 0.0231(15) Uani 1 2 d S T P
C8 C 0.500000 0.1258(5) 0.500000 0.0204(14) Uani 1 2 d S T P
C9 C 0.4477(4) 0.0607(4) 0.3782(5) 0.0245(10) Uani 1 1 d . . .
H5A H 0.169(4) 0.353(5) 0.421(3) 0.085(15) Uiso 1 1 d D U .
H5B H 0.187(4) 0.314(3) 0.322(6) 0.080(15) Uiso 1 1 d D U .
loop_
_atom_site_aniso_label
_atom_site_aniso_U_11
_atom_site_aniso_U_22
_atom_site_aniso_U_33
_atom_site_aniso_U_23
_atom_site_aniso_U_13
_atom_site_aniso_U_12
Tb1 0.01677(18) 0.01123(17) 0.01399(17) 0.000 0.01002(14) 0.000
F1 0.110(3) 0.0265(17) 0.0402(19) 0.0029(15) 0.052(2) -0.0022(17)
F2 0.098(3) 0.0314(17) 0.0410(19) -0.0052(16) 0.048(2) 0.0046(18)
F3 0.051(2) 0.0237(15) 0.0363(17) 0.0096(14) 0.0197(15) 0.0028(14)
O1 0.058(2) 0.035(2) 0.0268(19) 0.0079(18) 0.0317(19) 0.0143(18)
O2 0.022(3) 0.076(4) 0.023(3) 0.000 0.017(2) 0.000
O3 0.021(2) 0.029(3) 0.016(2) 0.000 0.009(2) 0.000
O4 0.0254(19) 0.0133(16) 0.047(2) -0.0018(16) 0.0207(17) 0.0014(14)
O5 0.030(2) 0.039(2) 0.040(2) -0.0124(19) 0.0225(18) -0.0102(17)
C1 0.027(4) 0.024(4) 0.016(3) 0.000 0.011(3) 0.000
C2 0.015(3) 0.033(4) 0.015(3) 0.000 0.008(3) 0.000
C3 0.039(3) 0.026(3) 0.025(3) -0.003(2) 0.021(2) 0.000(2)
C4 0.035(3) 0.026(3) 0.022(2) 0.003(2) 0.019(2) 0.001(2)
C5 0.023(4) 0.024(4) 0.019(3) 0.000 0.013(3) 0.000
C6 0.016(3) 0.035(4) 0.018(3) 0.000 0.010(3) 0.000
C7 0.025(4) 0.015(3) 0.031(4) 0.000 0.017(3) 0.000
C8 0.018(3) 0.011(3) 0.034(4) 0.000 0.016(3) 0.000
C9 0.025(3) 0.017(2) 0.032(3) 0.009(2) 0.016(2) 0.009(2)
loop_
_atom_type_symbol
_atom_type_description
_atom_type_scat_dispersion_real
_atom_type_scat_dispersion_imag
_atom_type_scat_source
C C 0.0033 0.0016 'International Tables Vol C Tables 4.2.6.8 and 6.1.1.4'
H H 0.0000 0.0000 'International Tables Vol C Tables 4.2.6.8 and 6.1.1.4'
F F 0.0171 0.0103 'International Tables Vol C Tables 4.2.6.8 and 6.1.1.4'
O O 0.0106 0.0060 'International Tables Vol C Tables 4.2.6.8 and 6.1.1.4'
Tb Tb -0.1723 4.1537 'International Tables Vol C Tables 4.2.6.8 and 6.1.1.4'
loop_
_geom_angle_atom_site_label_1
_geom_angle_atom_site_label_2
_geom_angle_atom_site_label_3
_geom_angle
_geom_angle_site_symmetry_1
_geom_angle_site_symmetry_3
O1 Tb1 O1 52.62(16) 1_556 6_566
O1 Tb1 O2 147.17(10) 6_566 .
O1 Tb1 O2 147.17(10) 1_556 .
O1 Tb1 O3 141.06(11) 6_566 .
O1 Tb1 O3 141.06(11) 1_556 .
O1 Tb1 C1 153.34(8) 6_566 .
O1 Tb1 C1 153.34(8) 1_556 .
O1 Tb1 C6 26.32(8) 6_566 1_556
O1 Tb1 C6 26.32(8) 1_556 1_556
O2 Tb1 O3 50.19(14) . .
O2 Tb1 C1 24.81(16) . .
O2 Tb1 C6 160.42(16) . 1_556
O3 Tb1 O1 79.43(12) 5_666 1_556
O3 Tb1 O1 79.43(12) 5_666 6_566
O3 Tb1 O2 122.18(14) 5_666 .
O3 Tb1 O3 71.99(16) 5_666 .
O3 Tb1 O5 141.86(9) 5_666 6_565
O3 Tb1 O5 141.86(9) 5_666 .
O3 Tb1 C1 25.38(15) . .
O3 Tb1 C1 97.37(17) 5_666 .
O3 Tb1 C6 77.40(16) 5_666 1_556
O3 Tb1 C6 149.39(16) . 1_556
O4 Tb1 O1 77.67(11) . 6_566
O4 Tb1 O1 127.02(11) . 1_556
O4 Tb1 O1 77.67(11) 6_565 1_556
O4 Tb1 O1 127.02(11) 6_565 6_566
O4 Tb1 O2 84.86(9) 6_565 .
O4 Tb1 O2 84.86(9) . .
O4 Tb1 O3 74.04(8) 6_565 5_666
O4 Tb1 O3 74.04(8) . 5_666
O4 Tb1 O3 69.50(8) 6_565 .
O4 Tb1 O3 69.50(8) . .
O4 Tb1 O4 133.88(15) 6_565 .
O4 Tb1 O5 144.10(12) . 6_565
O4 Tb1 O5 73.69(11) . .
O4 Tb1 O5 144.10(12) 6_565 .
O4 Tb1 O5 73.69(11) 6_565 6_565
O4 Tb1 C1 76.04(9) 6_565 .
O4 Tb1 C1 76.04(9) . .
O4 Tb1 C6 102.25(9) . 1_556
O4 Tb1 C6 102.25(9) 6_565 1_556
O5 Tb1 O1 74.30(12) 6_565 1_556
O5 Tb1 O1 104.77(12) 6_565 6_566
O5 Tb1 O1 104.77(12) . 1_556
O5 Tb1 O1 74.30(12) . 6_566
O5 Tb1 O2 74.21(11) . .
O5 Tb1 O2 74.21(11) 6_565 .
O5 Tb1 O3 114.08(11) . .
O5 Tb1 O3 114.08(11) 6_565 .
O5 Tb1 O5 72.71(18) . 6_565
O5 Tb1 C1 94.07(13) 6_565 .
O5 Tb1 C1 94.07(13) . .
O5 Tb1 C6 90.14(13) 6_565 1_556
O5 Tb1 C6 90.14(13) . 1_556
C6 Tb1 C1 174.77(18) 1_556 .
C6 O1 Tb1 93.1(3) . 1_554
C1 O2 Tb1 98.1(4) . .
Tb1 O3 Tb1 108.01(15) 5_666 .
C1 O3 Tb1 90.1(4) . .
C1 O3 Tb1 161.9(4) . 5_666
C7 O4 Tb1 138.3(3) . .
Tb1 O5 H5A 98(3) . .
Tb1 O5 H5B 105(3) . .
H5A O5 H5B 112(4) . .
O2 C1 Tb1 57.1(3) . .
O2 C1 O3 121.7(6) . .
O2 C1 C2 118.6(6) . .
O3 C1 Tb1 64.6(3) . .
O3 C1 C2 119.7(5) . .
C2 C1 Tb1 175.7(4) . .
C3 C2 C1 121.7(3) . .
C3 C2 C1 121.7(3) 6_565 .
C3 C2 C3 116.5(5) 6_565 .
F2 C3 C2 119.1(4) . .
F2 C3 C4 119.2(4) . .
C2 C3 C4 121.8(4) . .
F1 C4 C3 115.7(4) . .
F1 C4 C5 122.0(4) . .
C3 C4 C5 122.3(4) . .
C4 C5 C4 115.4(5) 6_565 .
C4 C5 C6 122.3(3) . .
C4 C5 C6 122.3(3) 6_565 .
O1 C6 Tb1 60.6(3) . 1_554
O1 C6 Tb1 60.6(3) 6_565 1_554
O1 C6 O1 121.1(6) 6_565 .
O1 C6 C5 119.4(3) 6_565 .
O1 C6 C5 119.4(3) . .
C5 C6 Tb1 174.9(4) . 1_554
O4 C7 O4 128.1(6) . 2_656
O4 C7 C8 116.0(3) . .
O4 C7 C8 116.0(3) 2_656 .
C9 C8 C7 122.2(3) 2_656 .
C9 C8 C7 122.2(3) . .
C9 C8 C9 115.7(6) 2_656 .
F3 C9 C8 118.6(4) . .
F3 C9 C9 119.2(2) . 6
C9 C9 C8 122.2(3) 6 .
loop_
_geom_bond_atom_site_label_1
_geom_bond_atom_site_label_2
_geom_bond_distance
_geom_bond_site_symmetry_2
Tb1 O1 2.457(3) 1_556
Tb1 O1 2.457(3) 6_566
Tb1 O2 2.490(5) .
Tb1 O3 2.651(4) .
Tb1 O3 2.346(4) 5_666
Tb1 O4 2.343(3) 6_565
Tb1 O4 2.344(3) .
Tb1 O5 2.432(3) .
Tb1 O5 2.432(3) 6_565
Tb1 C1 2.935(6) .
Tb1 C6 2.816(6) 1_556
F1 C4 1.336(5) .
F2 C3 1.335(5) .
F3 C9 1.354(5) .
O1 C6 1.251(4) .
O2 C1 1.244(7) .
O3 C1 1.258(7) .
O4 C7 1.243(4) .
O5 H5A 0.822(19) .
O5 H5B 0.835(19) .
C1 C2 1.509(8) .
C2 C3 1.377(5) 6_565
C2 C3 1.377(5) .
C3 C4 1.382(6) .
C4 C5 1.385(5) .
C5 C6 1.494(8) .
C7 C8 1.500(8) .
C8 C9 1.375(5) 2_656
C8 C9 1.375(5) .
C9 C9 1.362(9) 6
