#------------------------------------------------------------------------------
#$Date: 2017-05-06 01:10:37 +0300 (Sat, 06 May 2017) $
#$Revision: 196450 $
#$URL: file:///home/coder/svn-repositories/cod/cif/7/04/24/7042414.cif $
#------------------------------------------------------------------------------
#
# This file is available in the Crystallography Open Database (COD),
# http://www.crystallography.net/
#
# All data on this site have been placed in the public domain by the
# contributors.
#
data_7042414
loop_
_publ_author_name
'Han, Yongqiang'
'Yan, Pengfei'
'Sun, Jingwen'
'An, Guanghui'
'Yao, Xu'
'Li, Yuxin'
'Li, Guangming'
_publ_section_title
;
 Luminescence and white-light emitting luminescent sensor of
 tetrafluoroterephthalate-lanthanide metal-organic frameworks.
;
_journal_issue                   14
_journal_name_full
'Dalton transactions (Cambridge, England : 2003)'
_journal_page_first              4642
_journal_page_last               4653
_journal_paper_doi               10.1039/c7dt00215g
_journal_volume                  46
_journal_year                    2017
_chemical_formula_moiety         'C12 H4 Er F6 O8'
_chemical_formula_sum            'C12 H4 Er F6 O8'
_chemical_formula_weight         557.41
_space_group_crystal_system      monoclinic
_space_group_IT_number           12
_space_group_name_Hall           '-C 2y'
_space_group_name_H-M_alt        'C 1 2/m 1'
_symmetry_space_group_name_Hall  '-C 2y'
_symmetry_space_group_name_H-M   'C 1 2/m 1'
_atom_sites_solution_hydrogens   difmap
_audit_creation_date             2017-03-07
_audit_creation_method
;
Olex2 1.2
(compiled 2017.03.02 svn.r3394 for OlexSys, GUI svn.r5324)
;
_audit_update_record
;
2017-03-08 deposited with the CCDC.
2017-03-09 downloaded from the CCDC.
;
_cell_angle_alpha                90
_cell_angle_beta                 123.933(5)
_cell_angle_gamma                90
_cell_formula_units_Z            4
_cell_length_a                   13.754(5)
_cell_length_b                   11.149(5)
_cell_length_c                   11.518(5)
_cell_measurement_reflns_used    1493
_cell_measurement_temperature    293(2)
_cell_measurement_theta_max      28.7812
_cell_measurement_theta_min      3.5636
_cell_volume                     1465.4(11)
_computing_data_collection
'CrysAlisPro, Agilent Technologies,Version 1.171.35.21 (release 20-01-2012 CrysAlis171 .NET)(compiled Jan 23 2012,18:06:46)'
_computing_molecular_graphics    'Olex2 (Dolomanov et al., 2009)'
_computing_publication_material  '(K. Brandenburg, Diamond 3.1, 2009)'
_computing_structure_refinement  'ShelXL (Sheldrick, 2015)'
_computing_structure_solution    'SHELXS-2016/6 (Sheldrick, 2015)'
_diffrn_ambient_temperature      293(2)
_diffrn_measured_fraction_theta_full 0.997
_diffrn_measured_fraction_theta_max 0.997
_diffrn_measurement_device_type  'multiwire proportional'
_diffrn_measurement_method       'phi and omega scans'
_diffrn_radiation_monochromator  graphite
_diffrn_radiation_type           MoK\a
_diffrn_radiation_wavelength     0.71069
_diffrn_reflns_av_R_equivalents  0.0361
_diffrn_reflns_av_unetI/netI     0.0487
_diffrn_reflns_Laue_measured_fraction_full 0.997
_diffrn_reflns_Laue_measured_fraction_max 0.997
_diffrn_reflns_limit_h_max       16
_diffrn_reflns_limit_h_min       -15
_diffrn_reflns_limit_k_max       13
_diffrn_reflns_limit_k_min       -9
_diffrn_reflns_limit_l_max       13
_diffrn_reflns_limit_l_min       -12
_diffrn_reflns_number            2837
_diffrn_reflns_point_group_measured_fraction_full 0.997
_diffrn_reflns_point_group_measured_fraction_max 0.997
_diffrn_reflns_theta_full        24.972
_diffrn_reflns_theta_max         24.972
_diffrn_reflns_theta_min         3.571
_exptl_absorpt_coefficient_mu    5.844
_exptl_absorpt_correction_T_max  0.370
_exptl_absorpt_correction_T_min  0.225
_exptl_absorpt_correction_type   multi-scan
_exptl_absorpt_process_details
;
CrysAlisPro, Agilent Technologies,
Version 1.171.35.21 (release 20-01-2012 CrysAlis171 .NET)
(compiled Jan 23 2012,18:06:46)
Empirical absorption correction using spherical harmonics,
 implemented in SCALE3 ABSPACK scaling algorithm.
;
_exptl_crystal_colour            pink
_exptl_crystal_density_diffrn    2.527
_exptl_crystal_description       block
_exptl_crystal_F_000             1048.0
_exptl_crystal_size_max          0.27
_exptl_crystal_size_mid          0.24
_exptl_crystal_size_min          0.17
_refine_diff_density_max         1.394
_refine_diff_density_min         -1.399
_refine_diff_density_rms         0.160
_refine_ls_extinction_method     none
_refine_ls_goodness_of_fit_ref   1.063
_refine_ls_hydrogen_treatment    constr
_refine_ls_matrix_type           full
_refine_ls_number_parameters     134
_refine_ls_number_reflns         1373
_refine_ls_number_restraints     0
_refine_ls_restrained_S_all      1.063
_refine_ls_R_factor_all          0.0300
_refine_ls_R_factor_gt           0.0278
_refine_ls_shift/su_max          0.000
_refine_ls_shift/su_mean         0.000
_refine_ls_structure_factor_coef Fsqd
_refine_ls_weighting_details
'w=1/[\s^2^(Fo^2^)+(0.0299P)^2^+1.3512P] where P=(Fo^2^+2Fc^2^)/3'
_refine_ls_weighting_scheme      calc
_refine_ls_wR_factor_gt          0.0641
_refine_ls_wR_factor_ref         0.0656
_reflns_Friedel_coverage         0.000
_reflns_number_gt                1293
_reflns_number_total             1377
_reflns_threshold_expression     'I > 2\s(I)'
_cod_data_source_file            c7dt00215g2.cif
_cod_data_source_block           12-er_sq
_cod_depositor_comments
'Adding full bibliography for 7042409--7042422.cif.'
_cod_database_code               7042414
_shelx_shelxl_version_number     2016/6
_shelx_space_group_comment
;
The symmetry employed for this shelxl refinement is uniquely defined
by the following loop, which should always be used as a source of
symmetry information in preference to the above space-group names.
They are only intended as comments.
;
_olex2_refinement_description
;
1. Fixed Uiso
 At 1.2 times of:
  All O(H,H) groups
2.a Riding coordinates:
 O5(H5A,H5B)
;
_shelx_res_file
;
TITL DD in C2 C2/m
    12-er_sq.res
    created by SHELXL-2016/6 at 19:02:53 on 07-Mar-2017
CELL 0.71069 13.754 11.149 11.518 90 123.933 90
ZERR 1 0.005 0.005 0.005 0 0.005 0
LATT 7
SYMM -X,+Y,-Z
SFAC C H Er F O
UNIT 48 24 4 24 36

L.S. 5 0 4
PLAN  20
BOND $H
ABIN
fmap 2
acta
MERG 2
OMIT -3 50
REM <olex2.extras>
REM <HklSrc "%.\\12-er_sq.hkl">
REM </olex2.extras>

WGHT    0.029900    1.351200
FVAR       0.08082
ER1   3   -0.158618    0.500000   -0.029841    10.50000    0.02048    0.01205 =
         0.01151    0.00000    0.01069    0.00000
F1    4    0.130182    0.709269    0.400533    11.00000    0.11280    0.02802 =
         0.03956    0.00570    0.05164   -0.00624
F2    4    0.143722    0.712368    0.636089    11.00000    0.11412    0.02446 =
         0.04084   -0.00242    0.05383    0.00151
O3    5    0.163311    0.597077    0.844730    11.00000    0.06374    0.03310 =
         0.02048   -0.00798    0.03142   -0.01609
O1    5    0.037148    0.500000    0.147390    10.50000    0.02272    0.02977 =
         0.00933    0.00000    0.00327    0.00000
O4    5   -0.092698    0.309864   -0.030052    11.00000    0.02649    0.01218 =
         0.04155   -0.00320    0.02019    0.00113
O2    5    0.229051    0.500000    0.276521    10.50000    0.02695    0.06681 =
         0.01824    0.00000    0.01423    0.00000
O5    5   -0.327466    0.627124   -0.144080    11.00000    0.03267    0.03449 =
         0.03370    0.00989    0.02027    0.00959
AFIX   3
H5A   2   -0.310196    0.697354   -0.155620    11.00000   -1.20000
H5B   2   -0.348556    0.632144   -0.087520    11.00000   -1.20000
AFIX   0
C1    1    0.133876    0.500000    0.265370    10.50000    0.03512    0.02617 =
         0.01592    0.00000    0.01599    0.00000
C2    1    0.134020    0.500000    0.396586    10.50000    0.02012    0.03361 =
         0.01103    0.00000    0.00790    0.00000
C3    1    0.134952    0.604568    0.459927    11.00000    0.03547    0.02856 =
         0.02077    0.00585    0.01694    0.00099
C4    1    0.141879    0.605172    0.582922    11.00000    0.03812    0.02761 =
         0.02117   -0.00547    0.01746   -0.00519
C5    1    0.147639    0.500000    0.651574    10.50000    0.02230    0.03181 =
         0.01551    0.00000    0.01344    0.00000
C6    1    0.158975    0.500000    0.788943    10.50000    0.02176    0.03544 =
         0.01453    0.00000    0.01126    0.00000
F3    4   -0.101995    0.119723   -0.244352    11.00000    0.05478    0.02509 =
         0.03253    0.00889    0.01947    0.00259
C8    1   -0.052188    0.060873   -0.121635    11.00000    0.02585    0.01379 =
         0.03121    0.01005    0.01648    0.00744
C9    1    0.000000    0.127210    0.000000    10.50000    0.02219    0.00882 =
         0.02156    0.00000    0.01459    0.00000
C12   1    0.000000    0.262498    0.000000    10.50000    0.02865    0.01178 =
         0.02156    0.00000    0.01516    0.00000
HKLF 4 1 -1 0 0 0 1 0 0 0 -1




REM  DD in C2 C2/m
REM R1 =  0.0278 for    1293 Fo > 4sig(Fo)  and  0.0300 for all    1373 data
REM    134 parameters refined using      0 restraints

END

WGHT      0.0299      1.3511

REM Highest difference peak  1.394,  deepest hole -1.399,  1-sigma level  0.160
Q1    1  -0.1506  0.5891 -0.0221  11.00000  0.05    1.39
Q2    1  -0.1954  0.5000  0.0039  10.50000  0.05    1.08
Q3    1  -0.2032  0.5659 -0.1014  11.00000  0.05    0.97
Q4    1  -0.2575  0.5000 -0.1458  10.50000  0.05    0.73
Q5    1  -0.1136  0.5644  0.0456  11.00000  0.05    0.72
Q6    1  -0.1268  0.5000 -0.0637  10.50000  0.05    0.63
Q7    1  -0.0206  0.5000  0.1450  10.50000  0.05    0.53
Q8    1  -0.0092  0.7186  0.2410  11.00000  0.05    0.48
Q9    1  -0.4022  0.5887 -0.2409  11.00000  0.05    0.47
Q10   1   0.0757  0.6013  0.4996  11.00000  0.05    0.46
Q11   1   0.0203  0.2215  0.1200  11.00000  0.05    0.45
Q12   1  -0.2250  0.6584 -0.1260  11.00000  0.05    0.45
Q13   1  -0.1036  0.3196  0.0227  11.00000  0.05    0.44
Q14   1  -0.1094  0.0000 -0.1434  10.50000  0.05    0.42
Q15   1   0.0309  0.5000  0.0472  10.50000  0.05    0.42
Q16   1  -0.1559  0.3741 -0.1442  11.00000  0.05    0.42
Q17   1   0.0806  0.5629  0.3999  11.00000  0.05    0.42
Q18   1  -0.0593  0.3249 -0.0612  11.00000  0.05    0.41
Q19   1  -0.0506  0.2720  0.0255  11.00000  0.05    0.41
Q20   1  -0.1612  0.0000 -0.0982  10.50000  0.05    0.39
;
_shelx_res_checksum              7284
_shelx_fab_file
;
    0   12    0      1.53      0.00
    0   12    1     -1.18      0.00
    0   12    2      0.57      0.00
    0   12    3     -0.42      0.00
    0   12    4      0.72      0.00
    0   10    0      1.76      0.00
    0   10    1     -1.28      0.00
    0   10    2      0.38      0.00
    0   10    3      0.00      0.00
    0   10    4      0.27      0.00
    0   10    5     -0.62      0.00
    0   10    6      0.65      0.00
    0   10    7     -0.53      0.00
    0    8    0      4.21      0.00
    0    8    1     -3.05      0.00
    0    8    2      0.56      0.00
    0    8    3      1.35      0.00
    0    8    4     -1.80      0.00
    0    8    5      1.28      0.00
    0    8    6     -0.50      0.00
    0    8    7     -0.22      0.00
    0    8    8      0.69      0.00
    0    8    9     -0.68      0.00
    0    6    0      8.90      0.00
    0    6    1     -6.62      0.00
    0    6    2      1.57      0.00
    0    6    3      2.72      0.00
    0    6    4     -4.27      0.00
    0    6    5      3.57      0.00
    0    6    6     -1.94      0.00
    0    6    7      0.29      0.00
    0    6    8      0.82      0.00
    0    6    9     -1.01      0.00
    0    6   10      0.48      0.00
    0    4    0     13.86      0.00
    0    4    1    -10.19      0.00
    0    4    2      2.01      0.00
    0    4    3      5.05      0.00
    0    4    4     -7.64      0.00
    0    4    5      6.32      0.00
    0    4    6     -3.31      0.00
    0    4    7      0.30      0.00
    0    4    8      1.68      0.00
    0    4    9     -2.00      0.00
    0    4   10      0.93      0.00
    0    2    1    -18.89      0.00
    0    2    2      5.66      0.00
    0    2    3      6.17      0.00
    0    2    4    -10.99      0.00
    0    2    5      9.32      0.00
    0    2    6     -4.77      0.00
    0    2    7      0.32      0.00
    0    2    8      2.42      0.00
    0    2    9     -2.77      0.00
    0    2   10      1.26      0.00
    0    2   11      0.45      0.00
    0    0    2      9.12      0.00
    0    0    3      5.79      0.00
    0    0    4    -12.26      0.00
    0    0    5     10.70      0.00
    0    0    6     -5.52      0.00
    0    0    7      0.50      0.00
    0    0    8      2.48      0.00
    0    0    9     -2.86      0.00
    0    0   10      1.31      0.00
    0    0   11      0.40      0.00
    0    2    0     24.75      0.00
    1   13    1     -0.60      0.00
    1   13    0      0.92      0.00
   -1   13    1     -0.70      0.00
   -1   13    2      0.13      0.00
    1   11    5     -0.98      0.00
    1   11    4      0.89      0.00
    1   11    3     -0.50      0.00
    1   11    2      0.45      0.00
    1   11    1     -0.96      0.00
    1   11    0      1.41      0.00
   -1   11    1     -1.15      0.00
   -1   11    2      0.44      0.00
   -1   11    3     -0.08      0.00
   -1   11    4      0.32      0.00
   -1   11    5     -0.68      0.00
   -1   11    6      0.71      0.00
    1    9    7     -0.19      0.00
    1    9    6     -0.03      0.00
    1    9    5      0.26      0.00
    1    9    4     -0.56      0.00
    1    9    3      0.65      0.00
    1    9    2      0.04      0.00
    1    9    1     -1.37      0.00
    1    9    0      2.24      0.00
   -1    9    1     -1.74      0.00
   -1    9    2      0.29      0.00
   -1    9    3      0.82      0.00
   -1    9    4     -0.91      0.00
   -1    9    5      0.37      0.00
   -1    9    6      0.19      0.00
   -1    9    7     -0.57      0.00
   -1    9    8      0.81      0.00
    1    7    9     -0.81      0.00
    1    7    8      0.84      0.00
    1    7    7     -0.19      0.00
    1    7    6     -0.82      0.00
    1    7    5      1.76      0.00
    1    7    4     -2.17      0.00
    1    7    3      1.31      0.00
    1    7    2      1.32      0.00
    1    7    1     -4.71      0.00
    1    7    0      6.43      0.00
   -1    7    1     -4.85      0.00
   -1    7    2      0.98      0.00
   -1    7    3      2.46      0.00
   -1    7    4     -3.70      0.00
   -1    7    5      3.02      0.00
   -1    7    6     -1.62      0.00
   -1    7    7      0.32      0.00
   -1    7    8      0.52      0.00
   -1    7    9     -0.71      0.00
   -1    7   10      0.36      0.00
    1    5   10      0.68      0.00
    1    5    9     -1.55      0.00
    1    5    8      1.45      0.00
    1    5    7     -0.07      0.00
    1    5    6     -1.95      0.00
    1    5    5      3.73      0.00
    1    5    4     -4.33      0.00
    1    5    3      2.45      0.00
    1    5    2      2.43      0.00
    1    5    1     -8.28      0.00
    1    5    0     11.00      0.00
   -1    5    1     -8.05      0.00
   -1    5    2      1.27      0.00
   -1    5    3      4.77      0.00
   -1    5    4     -6.99      0.00
   -1    5    5      5.70      0.00
   -1    5    6     -2.98      0.00
   -1    5    7      0.49      0.00
   -1    5    8      1.05      0.00
   -1    5    9     -1.36      0.00
   -1    5   10      0.69      0.00
    1    3   10      1.07      0.00
    1    3    9     -2.39      0.00
    1    3    8      2.07      0.00
    1    3    7      0.25      0.00
    1    3    6     -3.64      0.00
    1    3    5      6.75      0.00
    1    3    4     -7.77      0.00
    1    3    3      4.49      0.00
    1    3    2      3.77      0.00
    1    3    1    -13.44      0.00
    1    3    0     17.95      0.00
   -1    3    1    -13.37      0.00
   -1    3    2      2.58      0.00
   -1    3    3      7.21      0.00
   -1    3    4    -10.92      0.00
   -1    3    5      8.78      0.00
   -1    3    6     -4.14      0.00
   -1    3    7     -0.09      0.00
   -1    3    8      2.50      0.00
   -1    3    9     -2.71      0.00
   -1    3   10      1.27      0.00
   -1    3   11      0.36      0.00
    1    1   10      1.39      0.00
    1    1    9     -2.66      0.00
    1    1    8      2.13      0.00
    1    1    7      0.67      0.00
    1    1    6     -4.90      0.00
    1    1    5      8.93      0.00
    1    1    4    -10.02      0.00
    1    1    3      4.75      0.00
    1    1    2      7.69      0.00
    1    1    1    -21.98      0.00
   -1    1    2      6.79      0.00
   -1    1    3      7.84      0.00
   -1    1    4    -14.10      0.00
   -1    1    5     11.87      0.00
   -1    1    6     -5.75      0.00
   -1    1    7      0.10      0.00
   -1    1    8      2.99      0.00
   -1    1    9     -3.17      0.00
   -1    1   10      1.35      0.00
   -1    1   11      0.66      0.00
    2   12    3     -0.56      0.00
    2   12    2      0.26      0.00
    2   12    1     -0.46      0.00
    2   12    0      0.78      0.00
   -2   12    1     -0.60      0.00
   -2   12    2     -0.04      0.00
   -2   12    3      0.51      0.00
   -2   12    4     -0.44      0.00
   -2   12    5      0.11      0.00
    2   10    6      0.01      0.00
    2   10    5     -0.25      0.00
    2   10    4      0.24      0.00
    2   10    3      0.05      0.00
    2   10    2     -0.11      0.00
    2   10    1     -0.37      0.00
    2   10    0      0.92      0.00
   -2   10    1     -0.80      0.00
   -2   10    2      0.04      0.00
   -2   10    3      0.57      0.00
   -2   10    4     -0.50      0.00
   -2   10    5      0.03      0.00
   -2   10    6      0.36      0.00
   -2   10    7     -0.55      0.00
   -2   10    8      0.66      0.00
    2    8    8      0.42      0.00
    2    8    7     -0.03      0.00
    2    8    6     -0.54      0.00
    2    8    5      0.98      0.00
    2    8    4     -1.18      0.00
    2    8    3      0.89      0.00
    2    8    2      0.31      0.00
    2    8    1     -2.17      0.00
    2    8    0      3.38      0.00
   -2    8    1     -2.67      0.00
   -2    8    2      0.37      0.00
   -2    8    3      1.80      0.00
   -2    8    4     -2.53      0.00
   -2    8    5      1.89      0.00
   -2    8    6     -0.81      0.00
   -2    8    7     -0.12      0.00
   -2    8    8      0.70      0.00
   -2    8    9     -0.84      0.00
    2    6    9     -1.03      0.00
    2    6    8      1.13      0.00
    2    6    7     -0.34      0.00
    2    6    6     -0.90      0.00
    2    6    5      1.90      0.00
    2    6    4     -2.07      0.00
    2    6    3      0.74      0.00
    2    6    2      2.48      0.00
    2    6    1     -6.48      0.00
    2    6    0      8.49      0.00
   -2    6    1     -6.38      0.00
   -2    6    2      1.12      0.00
   -2    6    3      3.87      0.00
   -2    6    4     -5.84      0.00
   -2    6    5      4.79      0.00
   -2    6    6     -2.48      0.00
   -2    6    7      0.45      0.00
   -2    6    8      0.69      0.00
   -2    6    9     -0.93      0.00
   -2    6   10      0.54      0.00
    2    4    9     -1.93      0.00
    2    4    8      1.90      0.00
    2    4    7     -0.25      0.00
    2    4    6     -2.15      0.00
    2    4    5      4.08      0.00
    2    4    4     -4.43      0.00
    2    4    3      2.07      0.00
    2    4    2      3.45      0.00
    2    4    1    -10.00      0.00
    2    4    0     13.11      0.00
   -2    4    1     -9.58      0.00
   -2    4    2      1.16      0.00
   -2    4    3      6.69      0.00
   -2    4    4     -9.60      0.00
   -2    4    5      7.49      0.00
   -2    4    6     -3.24      0.00
   -2    4    7     -0.42      0.00
   -2    4    8      2.29      0.00
   -2    4    9     -2.32      0.00
   -2    4   10      1.16      0.00
   -2    4   11      0.09      0.00
    2    2   10      1.26      0.00
    2    2    9     -2.47      0.00
    2    2    8      2.07      0.00
    2    2    7      0.37      0.00
    2    2    6     -3.83      0.00
    2    2    5      6.78      0.00
    2    2    4     -7.44      0.00
    2    2    3      3.75      0.00
    2    2    2      5.03      0.00
    2    2    1    -15.46      0.00
    2    2    0     20.58      0.00
   -2    2    1    -15.56      0.00
   -2    2    2      2.89      0.00
   -2    2    3      9.28      0.00
   -2    2    4    -14.22      0.00
   -2    2    5     11.42      0.00
   -2    2    6     -5.03      0.00
   -2    2    7     -0.65      0.00
   -2    2    8      3.54      0.00
   -2    2    9     -3.50      0.00
   -2    2   10      1.58      0.00
   -2    2   11      0.49      0.00
   -2    2   12     -1.33      0.00
    2    0   10      1.53      0.00
    2    0    9     -2.49      0.00
    2    0    8      1.85      0.00
    2    0    7      0.81      0.00
    2    0    6     -4.57      0.00
    2    0    5      7.87      0.00
    2    0    4     -8.58      0.00
    2    0    3      4.01      0.00
    2    0    2      6.77      0.00
    2    0    1    -19.56      0.00
    2    0    0     25.94      0.00
   -2    0    2      4.80      0.00
   -2    0    3     10.19      0.00
   -2    0    4    -16.72      0.00
   -2    0    5     13.92      0.00
   -2    0    6     -6.58      0.00
   -2    0    7     -0.12      0.00
   -2    0    8      3.58      0.00
   -2    0    9     -3.64      0.00
   -2    0   10      1.56      0.00
   -2    0   11      0.71      0.00
   -2    0   12     -1.64      0.00
   -3   13    1     -0.10      0.00
   -3   13    2     -0.34      0.00
    3   11    4      0.77      0.00
    3   11    3     -0.47      0.00
    3   11    2      0.08      0.00
    3   11    1     -0.07      0.00
    3   11    0      0.31      0.00
   -3   11    1     -0.22      0.00
   -3   11    2     -0.35      0.00
   -3   11    3      0.89      0.00
   -3   11    4     -0.94      0.00
   -3   11    5      0.61      0.00
   -3   11    6     -0.27      0.00
   -3   11    7      0.09      0.00
    3    9    6     -0.56      0.00
    3    9    5      0.61      0.00
    3    9    4     -0.54      0.00
    3    9    3      0.52      0.00
    3    9    2     -0.30      0.00
    3    9    1     -0.33      0.00
    3    9    0      0.96      0.00
   -3    9    1     -0.81      0.00
   -3    9    2     -0.20      0.00
   -3    9    3      1.25      0.00
   -3    9    4     -1.52      0.00
   -3    9    5      1.01      0.00
   -3    9    6     -0.29      0.00
   -3    9    7     -0.28      0.00
   -3    9    8      0.66      0.00
   -3    9    9     -0.81      0.00
    3    7    8      0.40      0.00
    3    7    7      0.12      0.00
    3    7    6     -0.91      0.00
    3    7    5      1.44      0.00
    3    7    4     -1.41      0.00
    3    7    3      0.61      0.00
    3    7    2      1.20      0.00
    3    7    1     -3.58      0.00
    3    7    0      4.98      0.00
   -3    7    1     -3.86      0.00
   -3    7    2      0.51      0.00
   -3    7    3      2.89      0.00
   -3    7    4     -4.30      0.00
   -3    7    5      3.45      0.00
   -3    7    6     -1.61      0.00
   -3    7    7      0.03      0.00
   -3    7    8      0.82      0.00
   -3    7    9     -1.01      0.00
   -3    7   10      0.76      0.00
    3    5    8      1.24      0.00
    3    5    7     -0.25      0.00
    3    5    6     -1.27      0.00
    3    5    5      2.35      0.00
    3    5    4     -2.26      0.00
    3    5    3      0.42      0.00
    3    5    2      3.34      0.00
    3    5    1     -7.76      0.00
    3    5    0      9.91      0.00
   -3    5    1     -7.35      0.00
   -3    5    2      0.94      0.00
   -3    5    3      5.33      0.00
   -3    5    4     -7.82      0.00
   -3    5    5      6.11      0.00
   -3    5    6     -2.48      0.00
   -3    5    7     -0.58      0.00
   -3    5    8      1.97      0.00
   -3    5   11     -0.18      0.00
    3    3    9     -2.05      0.00
    3    3    8      2.01      0.00
    3    3    7     -0.23      0.00
    3    3    6     -2.39      0.00
    3    3    5      4.39      0.00
    3    3    4     -4.57      0.00
    3    3    3      1.90      0.00
    3    3    2      3.94      0.00
    3    3    1    -10.83      0.00
    3    3    0     14.17      0.00
   -3    3    1    -10.34      0.00
   -3    3    2      0.75      0.00
   -3    3    3      8.60      0.00
   -3    3    4    -12.24      0.00
   -3    3    5      9.43      0.00
   -3    3    6     -3.53      0.00
   -3    3    7     -1.54      0.00
   -3    3    8      3.84      0.00
   -3    3    9     -3.45      0.00
   -3    3   10      1.56      0.00
   -3    3   11      0.27      0.00
   -3    3   12     -0.99      0.00
    3    1    9     -2.21      0.00
    3    1    8      1.76      0.00
    3    1    7      0.48      0.00
    3    1    6     -3.59      0.00
    3    1    5      6.12      0.00
    3    1    4     -6.54      0.00
    3    1    3      3.14      0.00
    3    1    2      4.76      0.00
    3    1    1    -14.31      0.00
    3    1    0     19.16      0.00
   -3    1    1    -14.30      0.00
   -3    1    2      1.48      0.00
   -3    1    3     11.40      0.00
   -3    1    4    -16.93      0.00
   -3    1    5     13.75      0.00
   -3    1    6     -6.10      0.00
   -3    1    7     -0.84      0.00
   -3    1    8      4.29      0.00
   -3    1    9     -4.15      0.00
   -3    1   10      1.90      0.00
   -3    1   11      0.47      0.00
   -3    1   12     -1.53      0.00
   -3    5    9     -1.86      0.00
   -3    5   10      1.00      0.00
    4   12    2      0.13      0.00
    4   12    1      0.02      0.00
    4   12    0      0.09      0.00
   -4   12    1     -0.02      0.00
   -4   12    2     -0.46      0.00
   -4   12    3      1.03      0.00
   -4   12    4     -1.24      0.00
   -4   12    5      1.04      0.00
    4   10    5      0.03      0.00
    4   10    4      0.24      0.00
    4   10    3     -0.24      0.00
    4   10    2      0.04      0.00
    4   10    1      0.02      0.00
    4   10    0      0.11      0.00
   -4   10    1     -0.04      0.00
   -4   10    2     -0.45      0.00
   -4   10    3      1.04      0.00
   -4   10    4     -1.24      0.00
   -4   10    5      0.98      0.00
   -4   10    6     -0.56      0.00
   -4   10    7      0.21      0.00
   -4   10    8      0.07      0.00
    4    8    6     -1.07      0.00
    4    8    5      1.32      0.00
    4    8    4     -1.13      0.00
    4    8    3      0.66      0.00
    4    8    2      0.07      0.00
    4    8    1     -1.05      0.00
    4    8    0      1.74      0.00
   -4    8    1     -1.33      0.00
   -4    8    2     -0.25      0.00
   -4    8    3      1.99      0.00
   -4    8    4     -2.66      0.00
   -4    8    5      2.03      0.00
   -4    8    6     -0.78      0.00
   -4    8    7     -0.27      0.00
   -4    8    8      0.85      0.00
   -4    8    9     -1.02      0.00
   -4    8   10      0.93      0.00
    4    6    7      0.53      0.00
    4    6    6     -1.49      0.00
    4    6    5      2.06      0.00
    4    6    4     -1.79      0.00
    4    6    3      0.44      0.00
    4    6    2      1.98      0.00
    4    6    1     -4.80      0.00
    4    6    0      6.27      0.00
   -4    6    1     -4.69      0.00
   -4    6    2      0.37      0.00
   -4    6    3      4.12      0.00
   -4    6    4     -6.03      0.00
   -4    6    5      4.74      0.00
   -4    6    6     -1.80      0.00
   -4    6    7     -0.71      0.00
   -4    6    8      1.81      0.00
   -4    6    9     -1.71      0.00
    4    4    8      1.29      0.00
    4    4    7     -0.18      0.00
    4    4    6     -1.59      0.00
    4    4    5      2.84      0.00
    4    4    4     -2.67      0.00
    4    4    3      0.56      0.00
    4    4    2      3.48      0.00
    4    4    1     -8.05      0.00
    4    4    0     10.19      0.00
   -4    4    1     -7.33      0.00
   -4    4    2      0.24      0.00
   -4    4    3      6.88      0.00
   -4    4    4     -9.75      0.00
   -4    4    5      7.41      0.00
   -4    4    6     -2.39      0.00
   -4    4    7     -1.91      0.00
   -4    4    8      3.64      0.00
   -4    4    9     -2.97      0.00
   -4    4   10      1.24      0.00
   -4    4   11      0.16      0.00
   -4    4   12     -0.58      0.00
    4    2    9     -1.76      0.00
    4    2    8      1.72      0.00
    4    2    7     -0.15      0.00
    4    2    6     -2.22      0.00
    4    2    5      4.04      0.00
    4    2    4     -4.15      0.00
    4    2    3      1.61      0.00
    4    2    2      3.81      0.00
    4    2    1    -10.20      0.00
    4    2    0     13.29      0.00
   -4    2    1     -9.45      0.00
   -4    2    2     -0.30      0.00
   -4    2    3     10.20      0.00
   -4    2    4    -14.32      0.00
   -4    2    5     11.23      0.00
   -4    2    6     -4.24      0.00
   -4    2    7     -2.04      0.00
   -4    2    8      4.91      0.00
   -4    2    9     -4.29      0.00
   -4    2   10      1.83      0.00
   -4    2   11      0.46      0.00
   -4    2   12     -1.40      0.00
    4    0    9     -1.59      0.00
    4    0    8      1.31      0.00
    4    0    7      0.38      0.00
    4    0    6     -2.79      0.00
    4    0    5      4.68      0.00
    4    0    4     -4.85      0.00
    4    0    3      2.11      0.00
    4    0    2      4.03      0.00
    4    0    1    -11.44      0.00
    4    0    0     15.14      0.00
   -4    0    1    -10.86      0.00
   -4    0    2     -0.35      0.00
   -4    0    3     11.92      0.00
   -4    0    4    -17.00      0.00
   -4    0    5     13.79      0.00
   -4    0    6     -5.92      0.00
   -4    0    7     -1.41      0.00
   -4    0    8      5.03      0.00
   -4    0    9     -4.76      0.00
   -4    0   10      2.29      0.00
   -4    0   11      0.20      0.00
   -4    0   12     -1.36      0.00
   -4    6   10      1.14      0.00
   -4    6   11     -0.66      0.00
    5   11    2      0.42      0.00
    5   11    1     -0.23      0.00
    5   11    0      0.21      0.00
   -5   11    1     -0.12      0.00
   -5   11    2     -0.30      0.00
   -5   11    3      0.88      0.00
   -5   11    4     -1.23      0.00
   -5   11    5      1.18      0.00
   -5   11    6     -0.89      0.00
   -5   11    7      0.56      0.00
    5    9    5      0.70      0.00
    5    9    4     -0.38      0.00
    5    9    3      0.01      0.00
    5    9    2      0.18      0.00
    5    9    1     -0.30      0.00
    5    9    0      0.38      0.00
   -5    9    1     -0.18      0.00
   -5    9    2     -0.46      0.00
   -5    9    3      1.19      0.00
   -5    9    4     -1.50      0.00
   -5    9    5      1.18      0.00
   -5    9    6     -0.54      0.00
   -5    9    7     -0.03      0.00
   -5    9    8      0.38      0.00
   -5    9    9     -0.55      0.00
    5    7    6     -1.68      0.00
    5    7    5      1.97      0.00
    5    7    4     -1.61      0.00
    5    7    3      0.68      0.00
    5    7    2      0.67      0.00
    5    7    1     -2.11      0.00
    5    7    0      2.86      0.00
   -5    7    1     -2.04      0.00
   -5    7    2     -0.32      0.00
   -5    7    3      2.88      0.00
   -5    7    4     -3.97      0.00
   -5    7    5      3.04      0.00
   -5    7    6     -0.99      0.00
   -5    7    7     -0.80      0.00
   -5    7    8      1.59      0.00
   -5    7    9     -1.55      0.00
   -5    7   10      1.26      0.00
    5    5    7      0.72      0.00
    5    5    6     -1.81      0.00
    5    5    5      2.49      0.00
    5    5    4     -2.15      0.00
    5    5    3      0.51      0.00
    5    5    2      2.29      0.00
    5    5    1     -5.33      0.00
    5    5    0      6.74      0.00
   -5    5    1     -4.79      0.00
   -5    5    2     -0.17      0.00
   -5    5    3      5.37      0.00
   -5    5    4     -7.61      0.00
   -5    5    5      5.87      0.00
   -5    5    6     -1.85      0.00
   -5    5    7     -1.71      0.00
   -5    5    8      3.11      0.00
   -5    5    9     -2.47      0.00
    5    3    8      1.24      0.00
    5    3    7     -0.29      0.00
    5    3    6     -1.35      0.00
    5    3    5      2.63      0.00
    5    3    4     -2.58      0.00
    5    3    3      0.60      0.00
    5    3    2      3.22      0.00
    5    3    1     -7.50      0.00
    5    3    0      9.38      0.00
   -5    3    1     -6.44      0.00
   -5    3    2     -0.70      0.00
   -5    3    3      8.01      0.00
   -5    3    4    -11.07      0.00
   -5    3    5      8.49      0.00
   -5    3    6     -2.63      0.00
   -5    3    7     -2.66      0.00
   -5    3    8      4.82      0.00
   -5    3    9     -3.75      0.00
   -5    3   10      1.16      0.00
   -5    3   11      0.90      0.00
   -5    3   12     -1.47      0.00
    5    1    8      0.96      0.00
    5    1    7      0.04      0.00
    5    1    6     -1.67      0.00
    5    1    5      2.96      0.00
    5    1    4     -2.94      0.00
    5    1    3      0.79      0.00
    5    1    2      3.68      0.00
    5    1    1     -8.90      0.00
    5    1    0     11.30      0.00
   -5    1    1     -7.76      0.00
   -5    1    2     -1.04      0.00
   -5    1    3     10.17      0.00
   -5    1    4    -14.16      0.00
   -5    1    5     11.22      0.00
   -5    1    6     -4.12      0.00
   -5    1    7     -2.58      0.00
   -5    1    8      5.74      0.00
   -5    1    9     -5.03      0.00
   -5    1   10      2.25      0.00
   -5    1   11      0.30      0.00
   -5    1   12     -1.35      0.00
   -5    1   13      1.09      0.00
   -5    5   10      1.09      0.00
   -5    5   11     -0.18      0.00
   -5    5   12      0.06      0.00
   -5    7   11     -1.05      0.00
   -6   12    1     -0.32      0.00
   -6   12    2      0.02      0.00
   -6   12    3      0.51      0.00
   -6   12    4     -0.91      0.00
   -6   12    5      0.93      0.00
    6   10    3     -0.48      0.00
    6   10    2      0.52      0.00
    6   10    1     -0.42      0.00
    6   10    0      0.32      0.00
   -6   10    1     -0.17      0.00
   -6   10    2     -0.18      0.00
   -6   10    3      0.66      0.00
   -6   10    4     -1.00      0.00
   -6   10    5      0.98      0.00
   -6   10    6     -0.66      0.00
   -6   10    7      0.27      0.00
   -6   10    8      0.01      0.00
    6    8    5      1.25      0.00
    6    8    4     -0.87      0.00
    6    8    3      0.18      0.00
    6    8    2      0.51      0.00
    6    8    1     -1.01      0.00
    6    8    0      1.14      0.00
   -6    8    1     -0.67      0.00
   -6    8    2     -0.41      0.00
   -6    8    3      1.55      0.00
   -6    8    4     -2.01      0.00
   -6    8    5      1.48      0.00
   -6    8    6     -0.36      0.00
   -6    8    7     -0.62      0.00
   -6    8    8      1.04      0.00
   -6    8    9     -1.00      0.00
   -6    8   10      0.89      0.00
    6    6    6     -1.93      0.00
    6    6    5      2.19      0.00
    6    6    4     -1.73      0.00
    6    6    3      0.49      0.00
    6    6    2      1.32      0.00
    6    6    1     -3.15      0.00
    6    6    0      3.94      0.00
   -6    6    1     -2.71      0.00
   -6    6    2     -0.38      0.00
   -6    6    3      3.69      0.00
   -6    6    4     -5.18      0.00
   -6    6    5      4.01      0.00
   -6    6    6     -1.17      0.00
   -6    6    7     -1.43      0.00
   -6    6    8      2.47      0.00
   -6    6    9     -1.99      0.00
   -6    6   10      1.05      0.00
    6    4    7      0.34      0.00
    6    4    6     -1.35      0.00
    6    4    5      2.12      0.00
    6    4    4     -1.98      0.00
    6    4    3      0.50      0.00
    6    4    2      2.22      0.00
    6    4    1     -5.17      0.00
    6    4    0      6.40      0.00
   -6    4    1     -4.28      0.00
   -6    4    2     -0.80      0.00
   -6    4    3      6.11      0.00
   -6    4    4     -8.44      0.00
   -6    4    5      6.54      0.00
   -6    4    6     -1.94      0.00
   -6    4    7     -2.36      0.00
   -6    4    8      4.06      0.00
   -6    4    9     -2.90      0.00
   -6    4   10      0.52      0.00
   -6    4   11      1.14      0.00
   -6    4   12     -1.30      0.00
    6    2    7     -0.20      0.00
    6    2    6     -0.83      0.00
    6    2    5      1.77      0.00
    6    2    4     -1.80      0.00
    6    2    3      0.23      0.00
    6    2    2      3.00      0.00
    6    2    1     -6.65      0.00
    6    2    0      8.16      0.00
   -6    2    1     -5.39      0.00
   -6    2    2     -1.12      0.00
   -6    2    3      7.84      0.00
   -6    2    4    -10.73      0.00
   -6    2    5      8.27      0.00
   -6    2    6     -2.39      0.00
   -6    2    7     -3.24      0.00
   -6    2    8      5.71      0.00
   -6    2    9     -4.49      0.00
   -6    2   10      1.37      0.00
   -6    2   11      1.18      0.00
   -6    2   12     -1.92      0.00
   -6    2   13      1.32      0.00
    6    0    7      0.23      0.00
    6    0    6     -1.02      0.00
    6    0    5      1.72      0.00
    6    0    4     -1.60      0.00
    6    0    3     -0.07      0.00
    6    0    2      3.53      0.00
    6    0    1     -7.51      0.00
    6    0    0      9.20      0.00
   -6    0    1     -6.16      0.00
   -6    0    2     -1.02      0.00
   -6    0    3      8.47      0.00
   -6    0    4    -11.73      0.00
   -6    0    5      9.15      0.00
   -6    0    6     -2.76      0.00
   -6    0    7     -3.49      0.00
   -6    0    8      6.47      0.00
   -6    0    9     -5.54      0.00
   -6    0   10      2.48      0.00
   -6    0   11      0.22      0.00
   -6    0   12     -1.21      0.00
   -6    0   13      0.92      0.00
   -6    6   11     -0.60      0.00
   -6    6   12      0.69      0.00
    7   11    0      0.33      0.00
   -7   11    1     -0.35      0.00
   -7   11    2      0.13      0.00
   -7   11    3      0.34      0.00
   -7   11    4     -0.78      0.00
   -7   11    5      0.89      0.00
   -7   11    6     -0.61      0.00
   -7   11    7      0.15      0.00
    7    9    3     -0.17      0.00
    7    9    2      0.51      0.00
    7    9    1     -0.62      0.00
    7    9    0      0.55      0.00
   -7    9    1     -0.28      0.00
   -7    9    2     -0.18      0.00
   -7    9    3      0.69      0.00
   -7    9    4     -0.96      0.00
   -7    9    5      0.79      0.00
   -7    9    6     -0.26      0.00
   -7    9    7     -0.28      0.00
   -7    9    8      0.54      0.00
   -7    9    9     -0.51      0.00
   -7    9   10      0.43      0.00
    7    7    5      1.33      0.00
    7    7    4     -0.85      0.00
    7    7    3     -0.08      0.00
    7    7    2      1.19      0.00
    7    7    1     -2.14      0.00
    7    7    0      2.42      0.00
   -7    7    1     -1.64      0.00
   -7    7    2     -0.06      0.00
   -7    7    3      1.84      0.00
   -7    7    4     -2.63      0.00
   -7    7    5      1.97      0.00
   -7    7    6     -0.35      0.00
   -7    7    7     -1.14      0.00
   -7    7    8      1.66      0.00
   -7    7    9     -1.25      0.00
   -7    7   10      0.67      0.00
   -7    7   11     -0.53      0.00
    7    5    6     -1.41      0.00
    7    5    5      1.64      0.00
    7    5    4     -1.30      0.00
    7    5    3      0.16      0.00
    7    5    2      1.71      0.00
    7    5    1     -3.69      0.00
    7    5    0      4.49      0.00
   -7    5    1     -3.05      0.00
   -7    5    2     -0.37      0.00
   -7    5    3      3.99      0.00
   -7    5    4     -5.68      0.00
   -7    5    5      4.47      0.00
   -7    5    6     -1.28      0.00
   -7    5    7     -1.84      0.00
   -7    5    8      3.07      0.00
   -7    5    9     -2.12      0.00
   -7    5   10      0.26      0.00
   -7    5   11      0.87      0.00
    7    3    6     -0.57      0.00
    7    3    5      1.21      0.00
    7    3    4     -1.35      0.00
    7    3    3      0.39      0.00
    7    3    2      1.84      0.00
    7    3    1     -4.43      0.00
    7    3    0      5.50      0.00
   -7    3    1     -3.50      0.00
   -7    3    2     -1.14      0.00
   -7    3    3      5.92      0.00
   -7    3    4     -7.98      0.00
   -7    3    5      6.13      0.00
   -7    3    6     -1.59      0.00
   -7    3    7     -2.91      0.00
   -7    3    8      4.81      0.00
   -7    3    9     -3.42      0.00
   -7    3   10      0.30      0.00
   -7    3   11      2.10      0.00
   -7    3   12     -2.50      0.00
   -7    3   13      1.51      0.00
    7    1    6     -0.46      0.00
    7    1    5      0.84      0.00
    7    1    4     -0.87      0.00
    7    1    3     -0.16      0.00
    7    1    2      2.64      0.00
    7    1    1     -5.60      0.00
    7    1    0      6.80      0.00
   -7    1    1     -4.39      0.00
   -7    1    2     -1.10      0.00
   -7    1    3      6.69      0.00
   -7    1    4     -9.03      0.00
   -7    1    5      6.83      0.00
   -7    1    6     -1.49      0.00
   -7    1    7     -3.89      0.00
   -7    1    8      6.42      0.00
   -7    1    9     -5.22      0.00
   -7    1   10      1.88      0.00
   -7    1   11      0.95      0.00
   -7    1   12     -1.75      0.00
   -7    1   13      1.09      0.00
   -7    5   12     -0.73      0.00
    8   10    1     -0.08      0.00
    8   10    0      0.12      0.00
   -8   10    1     -0.14      0.00
   -8   10    2     -0.01      0.00
   -8   10    3      0.36      0.00
   -8   10    4     -0.70      0.00
   -8   10    5      0.76      0.00
   -8   10    6     -0.42      0.00
   -8   10    7     -0.14      0.00
   -8   10    8      0.53      0.00
    8    8    3     -0.22      0.00
    8    8    2      0.82      0.00
    8    8    1     -1.26      0.00
    8    8    0      1.35      0.00
   -8    8    1     -0.94      0.00
   -8    8    2      0.10      0.00
   -8    8    3      0.77      0.00
   -8    8    4     -1.17      0.00
   -8    8    5      0.87      0.00
   -8    8    6     -0.07      0.00
   -8    8    7     -0.71      0.00
   -8    8    8      0.95      0.00
   -8    8    9     -0.62      0.00
   -8    8   10      0.19      0.00
    8    6    4     -0.35      0.00
    8    6    3     -0.56      0.00
    8    6    2      1.82      0.00
    8    6    1     -3.06      0.00
    8    6    0      3.53      0.00
   -8    6    1     -2.58      0.00
   -8    6    2      0.42      0.00
   -8    6    3      1.85      0.00
   -8    6    4     -2.93      0.00
   -8    6    5      2.29      0.00
   -8    6    6     -0.43      0.00
   -8    6    7     -1.40      0.00
   -8    6    8      2.05      0.00
   -8    6    9     -1.30      0.00
   -8    6   10      0.03      0.00
   -8    6   11      0.60      0.00
   -8    6   12     -0.31      0.00
    8    4    5      0.76      0.00
    8    4    4     -0.75      0.00
    8    4    3      0.14      0.00
    8    4    2      1.33      0.00
    8    4    1     -3.15      0.00
    8    4    0      3.97      0.00
   -8    4    1     -2.66      0.00
   -8    4    2     -0.50      0.00
   -8    4    3      3.77      0.00
   -8    4    4     -5.22      0.00
   -8    4    5      4.02      0.00
   -8    4    6     -0.92      0.00
   -8    4    7     -2.27      0.00
   -8    4    8      3.61      0.00
   -8    4    9     -2.41      0.00
   -8    4   10     -0.21      0.00
   -8    4   11      2.16      0.00
   -8    4   12     -2.31      0.00
   -8    4   13      1.25      0.00
    8    2    6     -0.09      0.00
    8    2    5      0.35      0.00
    8    2    4     -0.62      0.00
    8    2    3      0.28      0.00
    8    2    2      1.23      0.00
    8    2    1     -3.34      0.00
    8    2    0      4.29      0.00
   -8    2    1     -2.59      0.00
   -8    2    2     -1.35      0.00
   -8    2    3      5.29      0.00
   -8    2    4     -6.83      0.00
   -8    2    5      5.06      0.00
   -8    2    6     -0.92      0.00
   -8    2    7     -3.38      0.00
   -8    2    8      5.43      0.00
   -8    2    9     -4.15      0.00
   -8    2   10      0.77      0.00
   -8    2   11      2.07      0.00
   -8    2   12     -2.68      0.00
   -8    2   13      1.57      0.00
    8    0    6     -0.18      0.00
    8    0    5      0.13      0.00
    8    0    4     -0.22      0.00
    8    0    3     -0.21      0.00
    8    0    2      1.82      0.00
    8    0    1     -4.07      0.00
    8    0    0      5.03      0.00
   -8    0    1     -3.08      0.00
   -8    0    2     -1.34      0.00
   -8    0    3      5.72      0.00
   -8    0    4     -7.42      0.00
   -8    0    5      5.46      0.00
   -8    0    6     -0.88      0.00
   -8    0    7     -3.92      0.00
   -8    0    8      6.36      0.00
   -8    0    9     -5.27      0.00
   -8    0   10      1.87      0.00
   -8    0   11      1.09      0.00
   -8    0   12     -1.82      0.00
   -8    0   13      0.88      0.00
   -9   11    4     -0.53      0.00
   -9   11    5      0.74      0.00
    9    9    1     -0.12      0.00
    9    9    0      0.25      0.00
   -9    9    1     -0.24      0.00
   -9    9    2     -0.03      0.00
   -9    9    3      0.46      0.00
   -9    9    4     -0.80      0.00
   -9    9    5      0.76      0.00
   -9    9    6     -0.29      0.00
   -9    9    7     -0.35      0.00
   -9    9    8      0.72      0.00
   -9    9    9     -0.59      0.00
    9    7    3     -0.58      0.00
    9    7    2      1.30      0.00
    9    7    1     -2.02      0.00
    9    7    0      2.33      0.00
   -9    7    1     -1.80      0.00
   -9    7    2      0.52      0.00
   -9    7    3      0.85      0.00
   -9    7    4     -1.52      0.00
   -9    7    5      1.19      0.00
   -9    7    6     -0.16      0.00
   -9    7    7     -0.85      0.00
   -9    7    8      1.16      0.00
   -9    7    9     -0.62      0.00
   -9    7   10     -0.21      0.00
   -9    7   11      0.56      0.00
    9    5    4      0.02      0.00
    9    5    3     -0.54      0.00
    9    5    2      1.51      0.00
    9    5    1     -2.73      0.00
    9    5    0      3.35      0.00
   -9    5    1     -2.54      0.00
   -9    5    2      0.43      0.00
   -9    5    3      1.75      0.00
   -9    5    4     -2.73      0.00
   -9    5    5      2.05      0.00
   -9    5    6     -0.22      0.00
   -9    5    7     -1.66      0.00
   -9    5    8      2.42      0.00
   -9    5    9     -1.56      0.00
   -9    5   10     -0.23      0.00
   -9    5   11      1.52      0.00
   -9    5   12     -1.50      0.00
    9    3    4     -0.31      0.00
    9    3    3      0.34      0.00
    9    3    2      0.43      0.00
    9    3    1     -1.85      0.00
    9    3    0      2.68      0.00
   -9    3    1     -1.69      0.00
   -9    3    2     -0.90      0.00
   -9    3    3      3.47      0.00
   -9    3    4     -4.39      0.00
   -9    3    5      3.12      0.00
   -9    3    6     -0.31      0.00
   -9    3    7     -2.65      0.00
   -9    3    8      4.08      0.00
   -9    3    9     -2.99      0.00
   -9    3   10      0.10      0.00
   -9    3   11      2.43      0.00
   -9    3   12     -2.92      0.00
   -9    3   13      1.72      0.00
    9    1    5     -0.33      0.00
    9    1    4      0.15      0.00
    9    1    3     -0.02      0.00
    9    1    2      0.77      0.00
    9    1    1     -2.29      0.00
    9    1    0      3.08      0.00
   -9    1    1     -1.67      0.00
   -9    1    2     -1.66      0.00
   -9    1    3      4.88      0.00
   -9    1    4     -5.99      0.00
   -9    1    5      4.34      0.00
   -9    1    6     -0.70      0.00
   -9    1    7     -3.23      0.00
   -9    1    8      5.39      0.00
   -9    1    9     -4.46      0.00
   -9    1   10      1.21      0.00
   -9    1   11      1.78      0.00
   -9    1   12     -2.47      0.00
   -9    1   13      1.19      0.00
  -10   10    2      0.12      0.00
  -10   10    3      0.09      0.00
  -10   10    4     -0.49      0.00
  -10   10    5      0.70      0.00
  -10   10    6     -0.46      0.00
  -10   10    7     -0.14      0.00
   10    8    1     -0.47      0.00
   10    8    0      0.75      0.00
  -10    8    1     -0.67      0.00
  -10    8    2      0.09      0.00
  -10    8    3      0.72      0.00
  -10    8    4     -1.23      0.00
  -10    8    5      1.11      0.00
  -10    8    6     -0.43      0.00
  -10    8    7     -0.37      0.00
  -10    8    8      0.78      0.00
  -10    8    9     -0.54      0.00
  -10    8   10     -0.05      0.00
   10    6    2      1.16      0.00
   10    6    1     -1.91      0.00
   10    6    0      2.37      0.00
  -10    6    1     -1.89      0.00
  -10    6    2      0.46      0.00
  -10    6    3      1.09      0.00
  -10    6    4     -1.80      0.00
  -10    6    5      1.37      0.00
  -10    6    6     -0.23      0.00
  -10    6    7     -0.92      0.00
  -10    6    8      1.40      0.00
  -10    6    9     -0.94      0.00
  -10    6   10     -0.07      0.00
  -10    6   11      0.76      0.00
  -10    6   12     -0.67      0.00
   10    4    3     -0.03      0.00
   10    4    2      0.41      0.00
   10    4    1     -1.32      0.00
   10    4    0      2.01      0.00
  -10    4    1     -1.52      0.00
  -10    4    2     -0.10      0.00
  -10    4    3      1.72      0.00
  -10    4    4     -2.21      0.00
  -10    4    5      1.36      0.00
  -10    4    6      0.28      0.00
  -10    4    7     -1.94      0.00
  -10    4    8      2.74      0.00
  -10    4    9     -2.03      0.00
  -10    4   10      0.11      0.00
  -10    4   11      1.64      0.00
  -10    4   12     -2.01      0.00
   10    2    4      0.29      0.00
   10    2    3      0.11      0.00
   10    2    2      0.03      0.00
   10    2    1     -0.93      0.00
   10    2    0      1.63      0.00
  -10    2    1     -0.86      0.00
  -10    2    2     -1.29      0.00
  -10    2    3      3.35      0.00
  -10    2    4     -3.88      0.00
  -10    2    5      2.60      0.00
  -10    2    6     -0.13      0.00
  -10    2    7     -2.52      0.00
  -10    2    8      4.05      0.00
  -10    2    9     -3.31      0.00
  -10    2   10      0.59      0.00
  -10    2   11      2.12      0.00
  -10    2   12     -2.83      0.00
  -10    2   13      1.56      0.00
   10    0    4      0.81      0.00
   10    0    3     -0.47      0.00
   10    0    2      0.60      0.00
   10    0    1     -1.50      0.00
   10    0    0      2.08      0.00
  -10    0    1     -0.95      0.00
  -10    0    2     -1.77      0.00
  -10    0    3      4.38      0.00
  -10    0    4     -5.18      0.00
  -10    0    5      3.76      0.00
  -10    0    6     -0.79      0.00
  -10    0    7     -2.54      0.00
  -10    0    8      4.60      0.00
  -10    0    9     -4.03      0.00
  -10    0   10      1.12      0.00
  -10    0   11      1.84      0.00
  -10    0   12     -2.60      0.00
  -10    0   13      1.18      0.00
  -11    9    2      0.12      0.00
  -11    9    3      0.27      0.00
  -11    9    4     -0.75      0.00
  -11    9    5      0.90      0.00
  -11    9    6     -0.53      0.00
  -11    9    7     -0.17      0.00
  -11    9    8      0.72      0.00
   11    7    0      0.93      0.00
  -11    7    1     -0.78      0.00
  -11    7    2     -0.10      0.00
  -11    7    3      1.26      0.00
  -11    7    4     -1.90      0.00
  -11    7    5      1.63      0.00
  -11    7    6     -0.69      0.00
  -11    7    7     -0.34      0.00
  -11    7    8      0.95      0.00
  -11    7    9     -0.87      0.00
  -11    7   10      0.31      0.00
  -11    7   11      0.16      0.00
   11    5    2      0.37      0.00
   11    5    1     -0.88      0.00
   11    5    0      1.36      0.00
  -11    5    1     -1.10      0.00
  -11    5    2     -0.06      0.00
  -11    5    3      1.28      0.00
  -11    5    4     -1.64      0.00
  -11    5    5      1.01      0.00
  -11    5    6      0.09      0.00
  -11    5    7     -1.10      0.00
  -11    5    8      1.62      0.00
  -11    5    9     -1.39      0.00
  -11    5   10      0.52      0.00
  -11    5   11      0.34      0.00
  -11    5   12     -0.52      0.00
   11    3    2     -0.24      0.00
   11    3    1     -0.25      0.00
   11    3    0      0.84      0.00
  -11    3    1     -0.61      0.00
  -11    3    2     -0.56      0.00
  -11    3    3      1.65      0.00
  -11    3    4     -1.71      0.00
  -11    3    5      0.74      0.00
  -11    3    6      0.64      0.00
  -11    3    7     -1.93      0.00
  -11    3    8      2.65      0.00
  -11    3    9     -2.18      0.00
  -11    3   10      0.44      0.00
  -11    3   11      1.47      0.00
  -11    3   12     -2.08      0.00
  -11    3   13      1.21      0.00
   11    1    3     -0.59      0.00
   11    1    2      0.39      0.00
   11    1    1     -0.81      0.00
   11    1    0      1.25      0.00
  -11    1    1     -0.56      0.00
  -11    1    2     -1.34      0.00
  -11    1    3      3.13      0.00
  -11    1    4     -3.53      0.00
  -11    1    5      2.37      0.00
  -11    1    6     -0.29      0.00
  -11    1    7     -1.98      0.00
  -11    1    8      3.49      0.00
  -11    1    9     -3.14      0.00
  -11    1   10      0.81      0.00
  -11    1   11      1.85      0.00
  -11    1   12     -2.73      0.00
  -11    1   13      1.46      0.00
  -12    8    3      0.78      0.00
  -12    8    4     -1.41      0.00
  -12    8    5      1.40      0.00
  -12    8    6     -0.74      0.00
  -12    8    7     -0.21      0.00
  -12    8    8      0.91      0.00
  -12    8    9     -1.03      0.00
   12    6    0      0.59      0.00
  -12    6    1     -0.45      0.00
  -12    6    2     -0.43      0.00
  -12    6    3      1.57      0.00
  -12    6    4     -2.07      0.00
  -12    6    5      1.59      0.00
  -12    6    6     -0.54      0.00
  -12    6    7     -0.50      0.00
  -12    6    8      1.18      0.00
  -12    6    9     -1.35      0.00
  -12    6   10      1.09      0.00
  -12    6   11     -0.70      0.00
   12    4    1      0.01      0.00
   12    4    0      0.42      0.00
  -12    4    1     -0.39      0.00
  -12    4    2     -0.30      0.00
  -12    4    3      0.99      0.00
  -12    4    4     -0.91      0.00
  -12    4    5      0.13      0.00
  -12    4    6      0.71      0.00
  -12    4    7     -1.24      0.00
  -12    4    8      1.48      0.00
  -12    4    9     -1.35      0.00
  -12    4   10      0.69      0.00
  -12    4   11      0.15      0.00
  -12    4   12     -0.50      0.00
   12    2    1     -0.16      0.00
   12    2    0      0.53      0.00
  -12    2    1     -0.32      0.00
  -12    2    2     -0.65      0.00
  -12    2    3      1.53      0.00
  -12    2    4     -1.44      0.00
  -12    2    5      0.48      0.00
  -12    2    6      0.67      0.00
  -12    2    7     -1.64      0.00
  -12    2    8      2.24      0.00
  -12    2    9     -1.99      0.00
  -12    2   10      0.53      0.00
  -12    2   11      1.35      0.00
  -12    2   12     -2.14      0.00
  -12    2   13      1.33      0.00
   12    0    2      0.65      0.00
   12    0    1     -0.77      0.00
   12    0    0      0.97      0.00
  -12    0    1     -0.41      0.00
  -12    0    2     -1.08      0.00
  -12    0    3      2.48      0.00
  -12    0    4     -2.69      0.00
  -12    0    5      1.66      0.00
  -12    0    6     -0.05      0.00
  -12    0    7     -1.59      0.00
  -12    0    8      2.78      0.00
  -12    0    9     -2.69      0.00
  -12    0   10      0.90      0.00
  -12    0   11      1.49      0.00
  -12    0   12     -2.53      0.00
  -12    0   13      1.53      0.00
  -13    7    3      1.15      0.00
  -13    7    4     -1.79      0.00
  -13    7    5      1.59      0.00
  -13    7    6     -0.65      0.00
  -13    7    7     -0.45      0.00
  -13    7    8      1.24      0.00
  -13    7    9     -1.52      0.00
  -13    5    1     -0.25      0.00
  -13    5    2     -0.33      0.00
  -13    5    3      1.07      0.00
  -13    5    4     -1.22      0.00
  -13    5    5      0.61      0.00
  -13    5    6      0.23      0.00
  -13    5    7     -0.80      0.00
  -13    5    8      1.08      0.00
  -13    5    9     -1.23      0.00
  -13    5   10      1.21      0.00
  -13    5   11     -1.02      0.00
   13    3    0      0.12      0.00
  -13    3    1     -0.19      0.00
  -13    3    2     -0.20      0.00
  -13    3    3      0.52      0.00
  -13    3    4     -0.18      0.00
  -13    3    5     -0.62      0.00
  -13    3    6      1.18      0.00
  -13    3    7     -1.23      0.00
  -13    3    8      1.07      0.00
  -13    3    9     -0.86      0.00
  -13    3   10      0.33      0.00
  -13    3   11      0.47      0.00
  -13    3   12     -0.90      0.00
   13    1    0      0.46      0.00
  -13    1    1     -0.16      0.00
  -13    1    2     -0.73      0.00
  -13    1    3      1.48      0.00
  -13    1    4     -1.32      0.00
  -13    1    5      0.36      0.00
  -13    1    6      0.68      0.00
  -13    1    7     -1.43      0.00
  -13    1    8      1.92      0.00
  -13    1    9     -1.86      0.00
  -13    1   10      0.77      0.00
  -13    1   11      0.93      0.00
  -13    1   12     -1.90      0.00
  -14    6    4     -1.24      0.00
  -14    6    5      0.89      0.00
  -14    6    6      0.00      0.00
  -14    6    7     -0.84      0.00
  -14    6    8      1.32      0.00
  -14    6    9     -1.50      0.00
  -14    4    2      0.06      0.00
  -14    4    3      0.21      0.00
  -14    4    4     -0.02      0.00
  -14    4    5     -0.61      0.00
  -14    4    6      1.06      0.00
  -14    4    7     -0.96      0.00
  -14    4    8      0.60      0.00
  -14    4    9     -0.42      0.00
  -14    4   10      0.42      0.00
  -14    4   11     -0.36      0.00
  -14    2    1     -0.05      0.00
  -14    2    2     -0.29      0.00
  -14    2    3      0.50      0.00
  -14    2    4     -0.08      0.00
  -14    2    5     -0.76      0.00
  -14    2    6      1.28      0.00
  -14    2    7     -1.18      0.00
  -14    2    8      0.88      0.00
  -14    2    9     -0.65      0.00
  -14    2   10      0.25      0.00
  -14    2   11      0.48      0.00
  -14    2   12     -1.02      0.00
  -14    0    1      0.11      0.00
  -14    0    2     -0.80      0.00
  -14    0    3      1.32      0.00
  -14    0    4     -1.00      0.00
  -14    0    5      0.01      0.00
  -14    0    6      0.91      0.00
  -14    0    7     -1.38      0.00
  -14    0    8      1.61      0.00
  -14    0    9     -1.63      0.00
  -14    0   10      1.02      0.00
  -14    0   11      0.21      0.00
  -14    0   12     -1.16      0.00
  -15    5    6      0.76      0.00
  -15    5    7     -1.01      0.00
  -15    5    8      0.87      0.00
  -15    3    4      0.47      0.00
  -15    3    5     -1.09      0.00
  -15    3    6      1.36      0.00
  -15    3    7     -0.93      0.00
  -15    3    8      0.21      0.00
  -15    3    9      0.20      0.00
  -15    3   10     -0.25      0.00
  -15    1    3      0.75      0.00
  -15    1    4     -0.35      0.00
  -15    1    5     -0.53      0.00
  -15    1    6      1.17      0.00
  -15    1    7     -1.20      0.00
  -15    1    8      0.97      0.00
  -15    1    9     -0.84      0.00
  -15    1   10      0.66      0.00
  -15    1   11     -0.13      0.00
  -16    2    6      1.16      0.00
  -16    2    7     -0.86      0.00
  -16    2    8      0.24      0.00
  -16    2    9      0.12      0.00
  -16    0    6      1.04      0.00
  -16    0    7     -1.09      0.00
  -16    0    8      0.84      0.00
  -16    0    9     -0.73      0.00
   14    0    0      0.20      0.00
    1    1    0     28.71      0.00
   14    2    0      0.09      0.00
   14    4    0      0.15      0.00
   13    5    0      0.25      0.00
   13    7    0      0.21      0.00
   12    8    0      0.08      0.00
   11    9    0     -0.12      0.00
   10   10    0     -0.27      0.00
    9   11    0     -0.10      0.00
    6   12    0      0.29      0.00
    8   12    0      0.18      0.00
    3   13    0      0.15      0.00
    5   13    0     -0.01      0.00
   -2    0    1    -20.06      0.00
    0    0    1    -25.51      0.00
   14    0    1     -0.21      0.00
  -15    1    1      0.12      0.00
   -1    1    1    -22.33      0.00
   13    1    1     -0.34      0.00
   14    2    1      0.03      0.00
  -15    3    1     -0.19      0.00
   13    3    1      0.16      0.00
  -14    4    1     -0.27      0.00
   13    5    1     -0.01      0.00
  -14    6    1     -0.36      0.00
   12    6    1     -0.28      0.00
  -13    7    1     -0.26      0.00
   11    7    1     -0.58      0.00
  -12    8    1     -0.25      0.00
  -11    9    1     -0.14      0.00
   11    9    1      0.31      0.00
  -10   10    1      0.00      0.00
   10   10    1      0.40      0.00
   -9   11    1     -0.13      0.00
    7   11    1     -0.27      0.00
    9   11    1      0.23      0.00
   -8   12    1     -0.35      0.00
    6   12    1     -0.18      0.00
   -7   13    1     -0.25      0.00
   -5   13    1     -0.05      0.00
    3   13    1      0.07      0.00
    5   13    1      0.15      0.00
  -16    0    2     -0.38      0.00
  -15    1    2     -0.52      0.00
   13    1    2      0.35      0.00
   12    2    2      0.01      0.00
  -15    3    2      0.13      0.00
   13    3    2     -0.20      0.00
   12    4    2     -0.22      0.00
  -15    5    2      0.25      0.00
  -14    6    2     -0.05      0.00
   12    6    2      0.10      0.00
  -13    7    2     -0.23      0.00
   11    7    2      0.26      0.00
  -12    8    2     -0.06      0.00
   10    8    2      0.18      0.00
    9    9    2     -0.02      0.00
  -12   10    2      0.41      0.00
    8   10    2      0.06      0.00
   -9   11    2      0.18      0.00
    7   11    2      0.30      0.00
   -8   12    2      0.26      0.00
    6   12    2      0.25      0.00
   -7   13    2      0.12      0.00
   -5   13    2     -0.20      0.00
    1   13    2      0.23      0.00
    3   13    2     -0.08      0.00
    5   13    2     -0.05      0.00
  -16    0    3      0.62      0.00
   12    0    3     -0.90      0.00
  -16    2    3      0.09      0.00
   12    2    3     -0.28      0.00
  -15    3    3     -0.11      0.00
   11    3    3      0.12      0.00
  -16    4    3     -0.20      0.00
   12    4    3      0.05      0.00
  -15    5    3      0.11      0.00
   11    5    3     -0.22      0.00
  -14    6    3      0.81      0.00
   10    6    3     -0.62      0.00
  -14    8    3      0.23      0.00
   10    8    3      0.00      0.00
  -13    9    3     -0.09      0.00
    9    9    3      0.14      0.00
  -12   10    3     -0.37      0.00
    8   10    3     -0.01      0.00
  -11   11    3     -0.30      0.00
   -9   11    3      0.10      0.00
    5   11    3     -0.66      0.00
    7   11    3     -0.32      0.00
   -8   12    3      0.12      0.00
    4   12    3     -0.55      0.00
   -7   13    3      0.20      0.00
   -5   13    3      0.59      0.00
   -3   13    3      0.76      0.00
   -1   13    3      0.17      0.00
    1   13    3     -0.29      0.00
    3   13    3     -0.30      0.00
  -16    0    4     -0.32      0.00
   11    1    4      0.92      0.00
  -16    2    4      0.24      0.00
   11    3    4      0.22      0.00
  -16    4    4      0.33      0.00
   10    4    4      0.07      0.00
  -15    5    4     -0.22      0.00
   10    6    4      0.27      0.00
  -15    7    4     -0.68      0.00
    9    7    4      0.03      0.00
  -14    8    4     -0.76      0.00
    8    8    4     -0.32      0.00
  -13    9    4     -0.35      0.00
    7    9    4     -0.27      0.00
  -12   10    4      0.01      0.00
    6   10    4      0.20      0.00
  -11   11    4     -0.06      0.00
    5   11    4      0.65      0.00
  -10   12    4     -0.28      0.00
   -8   12    4     -0.54      0.00
    2   12    4      0.98      0.00
    4   12    4      0.82      0.00
   -7   13    4     -0.47      0.00
   -5   13    4     -0.79      0.00
   -3   13    4     -0.80      0.00
   -1   13    4     -0.02      0.00
    1   13    4      0.61      0.00
  -16    0    5     -0.44      0.00
   10    0    5     -0.77      0.00
  -16    2    5     -0.84      0.00
   10    2    5     -0.44      0.00
    9    3    5      0.06      0.00
  -16    4    5     -0.72      0.00
   10    4    5     -0.07      0.00
  -15    5    5     -0.18      0.00
    9    5    5      0.27      0.00
    8    6    5      0.85      0.00
  -15    7    5      0.60      0.00
  -14    8    5      0.83      0.00
    8    8    5      0.58      0.00
  -13    9    5      0.59      0.00
    7    9    5      0.51      0.00
  -12   10    5      0.34      0.00
    6   10    5      0.10      0.00
  -11   11    5      0.42      0.00
    3   11    5     -0.60      0.00
    5   11    5     -0.36      0.00
  -10   12    5      0.55      0.00
   -8   12    5      0.68      0.00
    0   12    5     -0.89      0.00
    2   12    5     -0.93      0.00
   -7   13    5      0.49      0.00
   -5   13    5      0.69      0.00
   -3   13    5      0.56      0.00
   -1   13    5     -0.18      0.00
    1   13    5     -0.65      0.00
    9    1    6      0.10      0.00
    9    3    6      0.01      0.00
  -16    4    6      1.02      0.00
    8    4    6     -0.54      0.00
  -16    6    6      0.44      0.00
    8    6    6     -0.94      0.00
  -15    7    6      0.04      0.00
    7    7    6     -1.25      0.00
  -14    8    6     -0.33      0.00
    6    8    6     -1.06      0.00
  -13    9    6     -0.38      0.00
    5    9    6     -0.63      0.00
  -12   10    6     -0.36      0.00
    4   10    6     -0.24      0.00
  -11   11    6     -0.44      0.00
   -9   11    6     -0.49      0.00
    1   11    6      0.60      0.00
    3   11    6      0.15      0.00
  -10   12    6     -0.46      0.00
   -8   12    6     -0.41      0.00
   -6   12    6     -0.64      0.00
   -4   12    6     -0.72      0.00
   -2   12    6      0.05      0.00
    0   12    6      0.62      0.00
    2   12    6      0.44      0.00
   -7   13    6     -0.26      0.00
   -5   13    6     -0.43      0.00
   -3   13    6     -0.35      0.00
   -1   13    6      0.11      0.00
    8    0    7      0.42      0.00
    7    1    7      0.19      0.00
    8    2    7      0.03      0.00
    7    3    7     -0.05      0.00
  -16    4    7     -0.83      0.00
    7    5    7      0.89      0.00
  -16    6    7     -0.92      0.00
    6    6    7      1.27      0.00
  -15    7    7     -0.78      0.00
    5    7    7      0.98      0.00
  -14    8    7     -0.41      0.00
    4    8    7      0.48      0.00
  -13    9    7     -0.13      0.00
    3    9    7      0.28      0.00
  -12   10    7      0.01      0.00
    2   10    7      0.13      0.00
  -11   11    7      0.08      0.00
   -9   11    7     -0.10      0.00
   -1   11    7     -0.51      0.00
    1   11    7     -0.15      0.00
   -8   12    7     -0.06      0.00
   -6   12    7      0.29      0.00
   -4   12    7      0.48      0.00
   -2   12    7     -0.01      0.00
    0   12    7     -0.20      0.00
    6    0    8      0.17      0.00
    7    1    8     -0.14      0.00
    6    2    8      0.70      0.00
  -16    4    8      0.26      0.00
    6    4    8      0.29      0.00
    5    5    8      0.04      0.00
  -16    6    8      0.99      0.00
    4    6    8      0.13      0.00
  -15    7    8      1.19      0.00
    5    7    8     -0.37      0.00
  -14    8    8      0.95      0.00
    4    8    8      0.00      0.00
  -13    9    8      0.59      0.00
    1    9    8      0.35      0.00
    3    9    8      0.02      0.00
  -12   10    8      0.41      0.00
  -10   10    8      0.68      0.00
    0   10    8      0.45      0.00
    2   10    8     -0.11      0.00
  -11   11    8      0.37      0.00
   -9   11    8      0.60      0.00
   -7   11    8      0.20      0.00
   -5   11    8     -0.30      0.00
   -3   11    8      0.05      0.00
   -1   11    8      0.37      0.00
   -8   12    8      0.42      0.00
   -6   12    8     -0.04      0.00
   -4   12    8     -0.29      0.00
    5    1    9     -0.94      0.00
    5    3    9     -1.11      0.00
  -16    4    9      0.20      0.00
    4    4    9     -1.19      0.00
  -15    5    9     -0.69      0.00
    3    5    9     -1.13      0.00
  -16    6    9     -0.78      0.00
    4    6    9     -0.21      0.00
  -15    7    9     -1.22      0.00
    3    7    9     -0.37      0.00
  -14    8    9     -1.08      0.00
    2    8    9     -0.35      0.00
  -13    9    9     -0.70      0.00
  -11    9    9     -0.74      0.00
   -1    9    9     -0.78      0.00
    1    9    9     -0.27      0.00
  -12   10    9     -0.53      0.00
  -10   10    9     -0.76      0.00
   -8   10    9     -0.58      0.00
   -6   10    9     -0.17      0.00
   -4   10    9     -0.29      0.00
   -2   10    9     -0.69      0.00
    0   10    9     -0.33      0.00
   -9   11    9     -0.71      0.00
   -7   11    9     -0.32      0.00
   -5   11    9      0.09      0.00
   -3   11    9     -0.21      0.00
  -16    0   10      0.75      0.00
    4    0   10      0.93      0.00
    3    1   10      1.32      0.00
  -16    2   10     -0.12      0.00
    4    2   10      0.84      0.00
    3    3   10      0.89      0.00
  -16    4   10     -0.27      0.00
    2    4   10      0.78      0.00
  -15    5   10      0.68      0.00
    3    5   10      0.40      0.00
  -14    6   10      1.50      0.00
    2    6   10      0.43      0.00
  -15    7   10      1.02      0.00
  -13    7   10      1.34      0.00
    1    7   10      0.34      0.00
  -14    8   10      0.84      0.00
  -12    8   10      0.62      0.00
   -2    8   10      0.56      0.00
    0    8   10      0.28      0.00
  -11    9   10      0.29      0.00
   -9    9   10      0.21      0.00
   -5    9   10      0.61      0.00
   -3    9   10      0.67      0.00
   -1    9   10      0.44      0.00
  -10   10   10      0.44      0.00
   -8   10   10      0.43      0.00
   -6   10   10      0.26      0.00
   -4   10   10      0.36      0.00
  -16    0   11     -0.56      0.00
    2    0   11     -0.43      0.00
    1    1   11      0.04      0.00
  -16    2   11      0.10      0.00
    2    2   11      0.01      0.00
  -15    3   11      0.26      0.00
    1    3   11      0.34      0.00
  -16    4   11      0.14      0.00
    0    4   11      0.27      0.00
  -15    5   11     -0.70      0.00
   -1    5   11      0.10      0.00
    1    5   11      0.09      0.00
  -14    6   11     -1.32      0.00
   -2    6   11     -0.03      0.00
    0    6   11      0.03      0.00
  -13    7   11     -0.94      0.00
   -3    7   11     -0.35      0.00
   -1    7   11      0.07      0.00
  -12    8   11     -0.09      0.00
  -10    8   11      0.43      0.00
   -8    8   11     -0.12      0.00
   -6    8   11     -0.88      0.00
   -4    8   11     -0.64      0.00
   -2    8   11     -0.09      0.00
  -11    9   11      0.19      0.00
   -9    9   11      0.01      0.00
   -7    9   11     -0.45      0.00
   -5    9   11     -0.52      0.00
   -3    9   11     -0.29      0.00
  -16    0   12      0.15      0.00
    0    0   12     -0.90      0.00
  -15    1   12     -0.46      0.00
   -1    1   12     -1.37      0.00
  -16    2   12     -0.21      0.00
    0    2   12     -0.96      0.00
  -15    3   12     -0.35      0.00
   -1    3   12     -0.93      0.00
  -16    4   12     -0.08      0.00
  -14    4   12      0.24      0.00
   -2    4   12     -0.55      0.00
    0    4   12     -0.56      0.00
  -15    5   12      0.58      0.00
  -13    5   12      0.82      0.00
   -3    5   12     -0.13      0.00
   -1    5   12     -0.30      0.00
  -14    6   12      1.02      0.00
  -12    6   12      0.53      0.00
   -4    6   12      0.42      0.00
   -2    6   12     -0.18      0.00
  -13    7   12      0.59      0.00
  -11    7   12     -0.18      0.00
   -9    7   12     -0.28      0.00
   -7    7   12      0.74      0.00
   -5    7   12      0.86      0.00
   -3    7   12      0.00      0.00
  -10    8   12     -0.34      0.00
   -8    8   12      0.32      0.00
   -6    8   12      0.79      0.00
  -16    0   13      0.14      0.00
  -14    0   13      1.03      0.00
   -4    0   13      1.14      0.00
   -2    0   13      1.14      0.00
  -15    1   13      0.56      0.00
  -13    1   13      1.36      0.00
   -3    1   13      1.16      0.00
  -14    2   13      0.83      0.00
   -4    2   13      1.05      0.00
   -2    2   13      0.86      0.00
  -15    3   13      0.32      0.00
  -13    3   13      0.55      0.00
   -5    3   13      0.96      0.00
   -3    3   13      0.64      0.00
  -14    4   13     -0.23      0.00
  -12    4   13      0.14      0.00
  -10    4   13      1.14      0.00
   -6    4   13      0.61      0.00
   -4    4   13      0.30      0.00
  -13    5   13     -0.76      0.00
  -11    5   13      0.12      0.00
   -9    5   13      0.69      0.00
   -7    5   13      0.06      0.00
   -5    5   13     -0.25      0.00
  -12    6   13     -0.57      0.00
  -10    6   13      0.18      0.00
   -8    6   13     -0.21      0.00
   -6    6   13     -0.77      0.00
   -9    7   13     -0.09      0.00
   -7    7   13     -0.76      0.00
    0    0    0      0.00      0.00
# SQUEEZE RESULTS (Version =  21116)
# Note: Data are Listed for all Voids in the P1 Unit Cell
# i.e. Centre of Gravity, Solvent Accessible Volume,
# Recovered number of Electrons in the Void and
# Details about the Squeezed Material
loop_
  _platon_squeeze_void_nr
  _platon_squeeze_void_average_x
  _platon_squeeze_void_average_y
  _platon_squeeze_void_average_z
  _platon_squeeze_void_volume
  _platon_squeeze_void_count_electrons
  _platon_squeeze_void_content
   1  0.000  0.000  0.500        60        15 ' '
   2  0.500  0.500  0.500        60        15 ' '
# Missing Reflections Below sin(th)/lambda = 0.25
loop_
  _platon_missing_refln_index_h
  _platon_missing_refln_index_k
  _platon_missing_refln_index_l
  _platon_missing_refln_theta
    1    1    0     2.554
   -2    0    1     2.965
    0    0    1     2.131
   -1    1    1     2.611
_platon_squeeze_void_probe_radius                  1.20
_platon_squeeze_details
)
TITL DD in C2 C2/m
CELL   13.7540   11.1490   11.5180     90.00    123.93     90.00
SPGR C2/m
# Solvent Accessible Volume =       118
# Electrons Found in S.A.V. =        29
# Note: Atoms in Void as Cxxx and Qxxx all others
C101 0.507 0.504 0.391 !       6.30 eA-3
Q102 0.841 0.408 0.974 !       1.43 eA-3
Q103 0.193 0.500 0.984 !       1.12 eA-3
Q104 0.702 0.063 0.095 !       0.98 eA-3
Q105 0.719 0.500 0.828 !       0.78 eA-3
Q106 0.389 0.507 0.531 !       0.75 eA-3
Q107 0.125 0.502 0.062 !       0.62 eA-3
C108 0.500 0.500 0.500 !       0.60 eA-3
Q109 0.885 0.420 0.100 !       0.60 eA-3
Q110 0.500 0.297-0.005 !       0.59 eA-3
Q111 0.801 0.500 0.703 !       0.57 eA-3
Q112 0.011 0.159 0.424 !       0.55 eA-3
Q113 0.328 0.083 0.485 !       0.55 eA-3
Q114 0.081 0.321 0.175 !       0.54 eA-3
Q115 0.237 0.393 0.327 !       0.52 eA-3
Q116 0.658 0.123 0.141 !       0.51 eA-3
Q117 0.594 0.412 0.753 !       0.51 eA-3
Q118 0.670 0.500 0.109 !       0.51 eA-3
)
;
_shelx_fab_checksum              60094
_olex2_submission_special_instructions 'No special instructions were received'
loop_
_space_group_symop_operation_xyz
'x, y, z'
'-x, y, -z'
'x+1/2, y+1/2, z'
'-x+1/2, y+1/2, -z'
'-x, -y, -z'
'x, -y, z'
'-x+1/2, -y+1/2, -z'
'x+1/2, -y+1/2, z'
loop_
_atom_site_label
_atom_site_type_symbol
_atom_site_fract_x
_atom_site_fract_y
_atom_site_fract_z
_atom_site_U_iso_or_equiv
_atom_site_adp_type
_atom_site_occupancy
_atom_site_site_symmetry_order
_atom_site_calc_flag
_atom_site_refinement_flags_posn
_atom_site_refinement_flags_adp
_atom_site_refinement_flags_occupancy
Er1 Er -0.15862(3) 0.500000 -0.02984(3) 0.01373(13) Uani 1 2 d S T P
F1 F 0.1302(4) 0.7093(3) 0.4005(4) 0.0552(12) Uani 1 1 d . . .
F2 F 0.1437(4) 0.7124(3) 0.6361(4) 0.0541(12) Uani 1 1 d . . .
O3 O 0.1633(4) 0.5971(4) 0.8447(4) 0.0348(10) Uani 1 1 d . . .
O1 O 0.0371(4) 0.500000 0.1474(5) 0.0237(12) Uani 1 2 d S T P
O4 O -0.0927(3) 0.3099(3) -0.0301(4) 0.0261(9) Uani 1 1 d . . .
O2 O 0.2291(5) 0.500000 0.2765(5) 0.0365(15) Uani 1 2 d S T P
O5 O -0.3275(3) 0.6271(4) -0.1441(4) 0.0327(9) Uani 1 1 d . . .
H5A H -0.310196 0.697354 -0.155620 0.039 Uiso 1 1 d R . .
H5B H -0.348556 0.632144 -0.087520 0.039 Uiso 1 1 d R . .
C1 C 0.1339(7) 0.500000 0.2654(7) 0.0248(18) Uani 1 2 d S T P
C2 C 0.1340(6) 0.500000 0.3966(7) 0.0220(17) Uani 1 2 d S T P
C3 C 0.1350(5) 0.6046(5) 0.4599(6) 0.0276(13) Uani 1 1 d . . .
C4 C 0.1419(5) 0.6052(5) 0.5829(6) 0.0285(13) Uani 1 1 d . . .
C5 C 0.1476(6) 0.500000 0.6516(7) 0.0216(17) Uani 1 2 d S T P
C6 C 0.1590(7) 0.500000 0.7889(7) 0.0233(18) Uani 1 2 d S T P
F3 F -0.1020(3) 0.1197(3) -0.2444(3) 0.0401(9) Uani 1 1 d . . .
C8 C -0.0522(4) 0.0609(5) -0.1216(5) 0.0233(12) Uani 1 1 d . . .
C9 C 0.000000 0.1272(6) 0.000000 0.0162(15) Uani 1 2 d S T P
C12 C 0.000000 0.2625(6) 0.000000 0.0200(16) Uani 1 2 d S T P
loop_
_atom_site_aniso_label
_atom_site_aniso_U_11
_atom_site_aniso_U_22
_atom_site_aniso_U_33
_atom_site_aniso_U_23
_atom_site_aniso_U_13
_atom_site_aniso_U_12
Er1 0.0205(2) 0.01205(19) 0.01151(19) 0.000 0.01069(15) 0.000
F1 0.113(4) 0.0280(19) 0.040(2) 0.0057(18) 0.052(2) -0.006(2)
F2 0.114(4) 0.0245(19) 0.041(2) -0.0024(18) 0.054(2) 0.002(2)
O3 0.064(3) 0.033(2) 0.020(2) -0.0080(19) 0.031(2) -0.016(2)
O1 0.023(3) 0.030(3) 0.009(2) 0.000 0.003(2) 0.000
O4 0.026(2) 0.0122(18) 0.042(2) -0.0032(18) 0.0202(19) 0.0011(18)
O2 0.027(3) 0.067(4) 0.018(3) 0.000 0.014(2) 0.000
O5 0.033(2) 0.034(2) 0.034(2) 0.010(2) 0.0203(19) 0.010(2)
C1 0.035(5) 0.026(4) 0.016(4) 0.000 0.016(4) 0.000
C2 0.020(4) 0.034(4) 0.011(3) 0.000 0.008(3) 0.000
C3 0.035(3) 0.029(3) 0.021(3) 0.006(3) 0.017(3) 0.001(3)
C4 0.038(3) 0.028(3) 0.021(3) -0.005(3) 0.017(3) -0.005(3)
C5 0.022(4) 0.032(4) 0.016(3) 0.000 0.013(3) 0.000
C6 0.022(4) 0.035(5) 0.015(4) 0.000 0.011(3) 0.000
F3 0.055(2) 0.0251(18) 0.0325(18) 0.0089(16) 0.0195(17) 0.0026(19)
C8 0.026(3) 0.014(3) 0.031(3) 0.010(3) 0.016(2) 0.007(3)
C9 0.022(4) 0.009(3) 0.022(4) 0.000 0.015(3) 0.000
C12 0.029(4) 0.012(4) 0.022(4) 0.000 0.015(3) 0.000
loop_
_atom_type_symbol
_atom_type_description
_atom_type_scat_dispersion_real
_atom_type_scat_dispersion_imag
_atom_type_scat_source
C C 0.0033 0.0016 'International Tables Vol C Tables 4.2.6.8 and 6.1.1.4'
H H 0.0000 0.0000 'International Tables Vol C Tables 4.2.6.8 and 6.1.1.4'
Er Er -0.2586 4.9576 'International Tables Vol C Tables 4.2.6.8 and 6.1.1.4'
F F 0.0171 0.0103 'International Tables Vol C Tables 4.2.6.8 and 6.1.1.4'
O O 0.0106 0.0060 'International Tables Vol C Tables 4.2.6.8 and 6.1.1.4'
loop_
_geom_angle_atom_site_label_1
_geom_angle_atom_site_label_2
_geom_angle_atom_site_label_3
_geom_angle
_geom_angle_site_symmetry_1
_geom_angle_site_symmetry_3
O3 Er1 O3 53.04(19) 2_556 5_566
O3 Er1 O1 140.93(13) 2_556 5_565
O3 Er1 O1 140.93(13) 5_566 5_565
O3 Er1 O2 146.84(12) 2_556 5_565
O3 Er1 O2 146.84(12) 5_566 5_565
O3 Er1 C1 153.18(10) 5_566 5_565
O3 Er1 C1 153.18(10) 2_556 5_565
O3 Er1 C6 26.55(9) 5_566 5_566
O3 Er1 C6 26.55(9) 2_556 5_566
O1 Er1 O3 79.16(15) . 5_566
O1 Er1 O3 79.16(15) . 2_556
O1 Er1 O1 72.32(17) . 5_565
O1 Er1 O4 74.61(10) . 6_565
O1 Er1 O4 74.61(10) . .
O1 Er1 O2 122.81(18) . 5_565
O1 Er1 O5 141.72(10) . 6_565
O1 Er1 O5 141.72(10) . .
O1 Er1 C1 98.0(2) . 5_565
O1 Er1 C1 25.67(19) 5_565 5_565
O1 Er1 C6 148.86(19) 5_565 5_566
O1 Er1 C6 76.5(2) . 5_566
O4 Er1 O3 78.11(13) . 5_566
O4 Er1 O3 127.95(13) 6_565 5_566
O4 Er1 O3 127.94(13) . 2_556
O4 Er1 O3 78.11(13) 6_565 2_556
O4 Er1 O1 69.04(9) . 5_565
O4 Er1 O1 69.04(9) 6_565 5_565
O4 Er1 O4 133.62(17) . 6_565
O4 Er1 O2 84.23(10) . 5_565
O4 Er1 O2 84.23(10) 6_565 5_565
O4 Er1 O5 143.67(14) 6_565 6_565
O4 Er1 O5 73.52(13) 6_565 .
O4 Er1 O5 143.67(14) . .
O4 Er1 O5 73.52(13) . 6_565
O4 Er1 C1 75.46(10) . 5_565
O4 Er1 C1 75.46(10) 6_565 5_565
O4 Er1 C6 102.77(10) . 5_566
O4 Er1 C6 102.77(10) 6_565 5_566
O2 Er1 O1 50.48(16) 5_565 5_565
O2 Er1 C1 24.8(2) 5_565 5_565
O2 Er1 C6 160.7(2) 5_565 5_566
O5 Er1 O3 74.03(13) 6_565 5_566
O5 Er1 O3 74.03(13) . 2_556
O5 Er1 O3 104.72(14) 6_565 2_556
O5 Er1 O3 104.72(14) . 5_566
O5 Er1 O1 114.24(12) . 5_565
O5 Er1 O1 114.24(12) 6_565 5_565
O5 Er1 O2 74.14(13) 6_565 5_565
O5 Er1 O2 74.14(13) . 5_565
O5 Er1 O5 72.7(2) 6_565 .
O5 Er1 C1 94.01(15) . 5_565
O5 Er1 C1 94.01(15) 6_565 5_565
O5 Er1 C6 90.40(16) . 5_566
O5 Er1 C6 90.40(16) 6_565 5_566
C6 Er1 C1 174.5(2) 5_566 5_565
C6 O3 Er1 92.8(4) . 5_566
Er1 O1 Er1 107.68(17) . 5_565
C1 O1 Er1 87.9(4) . 5_565
C1 O1 Er1 164.4(5) . .
C12 O4 Er1 137.4(4) . .
C1 O2 Er1 99.8(4) . 5_565
Er1 O5 H5A 111.2 . .
Er1 O5 H5B 105.0 . .
H5A O5 H5B 107.7 . .
O1 C1 Er1 66.4(4) . 5_565
O1 C1 C2 119.2(7) . .
O2 C1 Er1 55.4(4) . 5_565
O2 C1 O1 121.8(6) . .
O2 C1 C2 118.9(7) . .
C2 C1 Er1 174.4(5) . 5_565
C3 C2 C1 121.8(3) . .
C3 C2 C1 121.8(3) 6_565 .
C3 C2 C3 116.4(6) 6_565 .
F1 C3 C2 119.2(5) . .
F1 C3 C4 118.8(5) . .
C4 C3 C2 122.0(5) . .
F2 C4 C3 116.9(5) . .
F2 C4 C5 120.8(5) . .
C3 C4 C5 122.3(5) . .
C4 C5 C4 114.8(6) . 6_565
C4 C5 C6 122.6(3) 6_565 .
C4 C5 C6 122.6(3) . .
O3 C6 Er1 60.7(3) . 5_566
O3 C6 Er1 60.7(3) 6_565 5_566
O3 C6 O3 121.1(6) 6_565 .
O3 C6 C5 119.5(3) 6_565 .
O3 C6 C5 119.5(3) . .
C5 C6 Er1 175.0(5) . 5_566
F3 C8 C8 119.1(3) . 6
F3 C8 C9 118.4(5) . .
C8 C8 C9 122.4(3) 6 .
C8 C9 C8 115.1(6) 2 .
C8 C9 C12 122.4(3) 2 .
C8 C9 C12 122.4(3) . .
O4 C12 O4 129.5(7) 2 .
O4 C12 C9 115.3(3) . .
O4 C12 C9 115.3(3) 2 .
loop_
_geom_bond_atom_site_label_1
_geom_bond_atom_site_label_2
_geom_bond_distance
_geom_bond_site_symmetry_2
Er1 O3 2.424(3) 2_556
Er1 O3 2.424(3) 5_566
Er1 O1 2.674(5) 5_565
Er1 O1 2.298(5) .
Er1 O4 2.306(3) .
Er1 O4 2.306(3) 6_565
Er1 O2 2.437(5) 5_565
Er1 O5 2.392(4) .
Er1 O5 2.392(4) 6_565
Er1 C1 2.917(7) 5_565
Er1 C6 2.777(7) 5_566
F1 C3 1.336(6) .
F2 C4 1.337(6) .
O3 C6 1.243(5) .
O1 C1 1.264(9) .
O4 C12 1.238(4) .
O2 C1 1.242(9) .
O5 H5A 0.8500 .
O5 H5B 0.8501 .
C1 C2 1.510(9) .
C2 C3 1.372(7) 6_565
C2 C3 1.372(7) .
C3 C4 1.366(8) .
C4 C5 1.392(7) .
C5 C6 1.501(9) .
F3 C8 1.348(6) .
C8 C8 1.357(10) 6
C8 C9 1.379(6) .
C9 C12 1.508(9) .
