#------------------------------------------------------------------------------
#$Date: 2017-05-06 01:10:37 +0300 (Sat, 06 May 2017) $
#$Revision: 196450 $
#$URL: file:///home/coder/svn-repositories/cod/cif/7/04/24/7042421.cif $
#------------------------------------------------------------------------------
#
# This file is available in the Crystallography Open Database (COD),
# http://www.crystallography.net/
#
# All data on this site have been placed in the public domain by the
# contributors.
#
data_7042421
loop_
_publ_author_name
'Han, Yongqiang'
'Yan, Pengfei'
'Sun, Jingwen'
'An, Guanghui'
'Yao, Xu'
'Li, Yuxin'
'Li, Guangming'
_publ_section_title
;
 Luminescence and white-light emitting luminescent sensor of
 tetrafluoroterephthalate-lanthanide metal-organic frameworks.
;
_journal_issue                   14
_journal_name_full
'Dalton transactions (Cambridge, England : 2003)'
_journal_page_first              4642
_journal_page_last               4653
_journal_paper_doi               10.1039/c7dt00215g
_journal_volume                  46
_journal_year                    2017
_chemical_formula_moiety         'C12 H4 Dy F6 O8'
_chemical_formula_sum            'C12 H4 Dy F6 O8'
_chemical_formula_weight         552.65
_space_group_crystal_system      monoclinic
_space_group_IT_number           12
_space_group_name_Hall           '-C 2y'
_space_group_name_H-M_alt        'C 1 2/m 1'
_symmetry_space_group_name_Hall  '-C 2y'
_symmetry_space_group_name_H-M   'C 1 2/m 1'
_atom_sites_solution_hydrogens   difmap
_audit_creation_date             2017-03-03
_audit_creation_method
;
Olex2 1.2
(compiled 2017.03.02 svn.r3394 for OlexSys, GUI svn.r5324)
;
_audit_update_record
;
2017-03-08 deposited with the CCDC.
2017-03-09 downloaded from the CCDC.
;
_cell_angle_alpha                90
_cell_angle_beta                 124.377(5)
_cell_angle_gamma                90
_cell_formula_units_Z            4
_cell_length_a                   13.804(5)
_cell_length_b                   11.198(5)
_cell_length_c                   11.558(5)
_cell_measurement_reflns_used    1583
_cell_measurement_temperature    293(2)
_cell_measurement_theta_max      29.4063
_cell_measurement_theta_min      3.5695
_cell_volume                     1474.6(11)
_computing_data_collection
'CrysAlisPro, Agilent Technologies,Version 1.171.35.21 (release 20-01-2012 CrysAlis171 .NET)(compiled Jan 23 2012,18:06:46)'
_computing_molecular_graphics    'Olex2 (Dolomanov et al., 2009)'
_computing_publication_material  '(K. Brandenburg, Diamond 3.1, 2009)'
_computing_structure_refinement  'ShelXL (Sheldrick, 2015)'
_computing_structure_solution    'SHELXS-2016/6 (Sheldrick, 2015)'
_diffrn_ambient_temperature      293(2)
_diffrn_measured_fraction_theta_full 0.997
_diffrn_measured_fraction_theta_max 0.997
_diffrn_measurement_device_type  'multiwire proportional'
_diffrn_measurement_method       'phi and omega scans'
_diffrn_radiation_monochromator  graphite
_diffrn_radiation_type           MoK\a
_diffrn_radiation_wavelength     0.71069
_diffrn_reflns_av_R_equivalents  0.0298
_diffrn_reflns_av_unetI/netI     0.0410
_diffrn_reflns_Laue_measured_fraction_full 0.997
_diffrn_reflns_Laue_measured_fraction_max 0.997
_diffrn_reflns_limit_h_max       16
_diffrn_reflns_limit_h_min       -15
_diffrn_reflns_limit_k_max       10
_diffrn_reflns_limit_k_min       -13
_diffrn_reflns_limit_l_max       13
_diffrn_reflns_limit_l_min       -13
_diffrn_reflns_number            2611
_diffrn_reflns_point_group_measured_fraction_full 0.997
_diffrn_reflns_point_group_measured_fraction_max 0.997
_diffrn_reflns_theta_full        24.999
_diffrn_reflns_theta_max         24.999
_diffrn_reflns_theta_min         3.576
_exptl_absorpt_coefficient_mu    5.184
_exptl_absorpt_correction_T_max  0.436
_exptl_absorpt_correction_T_min  0.244
_exptl_absorpt_correction_type   multi-scan
_exptl_absorpt_process_details
;
CrysAlisPro, Agilent Technologies,
Version 1.171.35.21 (release 20-01-2012 CrysAlis171 .NET)
(compiled Jan 23 2012,18:06:46)
Empirical absorption correction using spherical harmonics,
 implemented in SCALE3 ABSPACK scaling algorithm.
;
_exptl_crystal_colour            colorless
_exptl_crystal_density_diffrn    2.489
_exptl_crystal_description       block
_exptl_crystal_F_000             1040
_exptl_crystal_size_max          0.28
_exptl_crystal_size_mid          0.24
_exptl_crystal_size_min          0.16
_refine_diff_density_max         0.585
_refine_diff_density_min         -0.946
_refine_diff_density_rms         0.138
_refine_ls_extinction_method     none
_refine_ls_goodness_of_fit_ref   1.099
_refine_ls_hydrogen_treatment    constr
_refine_ls_matrix_type           full
_refine_ls_number_parameters     134
_refine_ls_number_reflns         1378
_refine_ls_number_restraints     0
_refine_ls_restrained_S_all      1.099
_refine_ls_R_factor_all          0.0274
_refine_ls_R_factor_gt           0.0253
_refine_ls_shift/su_max          0.000
_refine_ls_shift/su_mean         0.000
_refine_ls_structure_factor_coef Fsqd
_refine_ls_weighting_details
'w=1/[\s^2^(Fo^2^)+(0.0291P)^2^] where P=(Fo^2^+2Fc^2^)/3'
_refine_ls_weighting_scheme      calc
_refine_ls_wR_factor_gt          0.0595
_refine_ls_wR_factor_ref         0.0615
_reflns_Friedel_coverage         0.000
_reflns_number_gt                1302
_reflns_number_total             1382
_reflns_threshold_expression     'I > 2\s(I)'
_cod_data_source_file            c7dt00215g2.cif
_cod_data_source_block           10-dy_sq
_cod_depositor_comments
'Adding full bibliography for 7042409--7042422.cif.'
_cod_database_code               7042421
_shelx_shelxl_version_number     2016/6
_shelx_space_group_comment
;
The symmetry employed for this shelxl refinement is uniquely defined
by the following loop, which should always be used as a source of
symmetry information in preference to the above space-group names.
They are only intended as comments.
;
_shelx_estimated_absorpt_t_max   0.491
_shelx_estimated_absorpt_t_min   0.325
_olex2_refinement_description
;
1. Fixed Uiso
 At 1.2 times of:
  All O(H,H) groups
2.a Riding coordinates:
 O2(H2A,H2B)
;
_shelx_res_file
;
TITL 123 in C2 C2/m
    10-dy_sq.res
    created by SHELXL-2016/6 at 17:50:38 on 03-Mar-2017
CELL 0.71069 13.804 11.198 11.558 90 124.377 90
ZERR 1 0.005 0.005 0.005 0 0.005 0
LATT 7
SYMM -X,+Y,-Z
SFAC C H Dy F O
UNIT 48 16 4 24 32

L.S. 5 0 4
PLAN  20
SIZE 0.28 0.24 0.16
BOND $H
ABIN
fmap 2
acta
MERG 2
OMIT -3 50
REM <olex2.extras>
REM <HklSrc "%.\\10-Dy.hkl">
REM </olex2.extras>

WGHT    0.029100
FVAR       0.08428
C1    1    0.052362    0.061149    0.622960    11.00000    0.02246    0.01872 =
         0.03153   -0.00489    0.01614   -0.00456
C2    1    0.000000    0.125243    0.500000    10.50000    0.02199    0.00630 =
         0.03646    0.00000    0.01966    0.00000
C3    1    0.000000    0.260928    0.500000    10.50000    0.02482    0.00972 =
         0.03309    0.00000    0.01896    0.00000
C4    1    0.157951    0.500000    0.287992    10.50000    0.01598    0.04980 =
         0.01312    0.00000    0.00858    0.00000
C5    1    0.147319    0.500000    0.150707    10.50000    0.02818    0.03325 =
         0.01680    0.00000    0.01464    0.00000
C6    1    0.141849    0.395398    0.083800    11.00000    0.03044    0.02585 =
         0.01972    0.00288    0.01382   -0.00408
C7    1    0.135479    0.395770   -0.040006    11.00000    0.03397    0.03279 =
         0.01654   -0.00355    0.01353    0.00227
C8    1    0.134251    0.500000   -0.103581    10.50000    0.02008    0.03750 =
         0.01082    0.00000    0.00838    0.00000
C9    1    0.135528    0.500000   -0.233080    10.50000    0.02809    0.03232 =
         0.01318    0.00000    0.01018    0.00000
DY1   3    0.159274    0.500000    0.531133    10.50000    0.01732    0.01336 =
         0.01365    0.00000    0.01060    0.00000
F1    4    0.101091    0.119423    0.744499    11.00000    0.05052    0.02418 =
         0.03276   -0.00840    0.01767   -0.00317
F2    4    0.143396    0.288398    0.135232    11.00000    0.10089    0.03053 =
         0.03986    0.00243    0.04990   -0.00044
F3    4    0.130875    0.291549   -0.099094    11.00000    0.10541    0.03247 =
         0.03902   -0.00656    0.05008    0.00264
O1    5    0.092755    0.308745    0.529325    11.00000    0.02635    0.01405 =
         0.04452    0.00398    0.02171    0.00060
O2    5    0.328766    0.629093    0.645583    11.00000    0.02373    0.03337 =
         0.04214   -0.00846    0.01738   -0.00783
AFIX   3
H2A   2    0.337106    0.704413    0.654853    11.00000   -1.20000
H2B   2    0.396846    0.598083    0.690023    11.00000   -1.20000
AFIX   0
O3    5    0.162783    0.596800    0.344220    11.00000    0.05926    0.03555 =
         0.02672   -0.01112    0.03190   -0.01714
O4    5    0.232328    0.500000   -0.218139    10.50000    0.01971    0.07629 =
         0.01979    0.00000    0.01354    0.00000
O5    5    0.040493    0.500000   -0.351188    10.50000    0.02311    0.03549 =
         0.01119    0.00000    0.00652    0.00000
HKLF 4 1 -1 0 0 0 1 0 0 0 -1




REM  123 in C2 C2/m
REM R1 =  0.0253 for    1302 Fo > 4sig(Fo)  and  0.0274 for all    1378 data
REM    134 parameters refined using      0 restraints

END

WGHT      0.0291      0.0000

REM Highest difference peak  0.585,  deepest hole -0.946,  1-sigma level  0.138
Q1    1   0.0000  0.1997  0.5000  10.50000  0.05    0.58
Q2    1   0.0471  0.3699  0.4259  11.00000  0.05    0.58
Q3    1   0.0112  0.2337  0.6421  11.00000  0.05    0.51
Q4    1   0.0992  0.5000 -0.3750  10.50000  0.05    0.49
Q5    1   0.2513  0.5000  0.4764  10.50000  0.05    0.48
Q6    1   0.1313  0.4189  0.4761  11.00000  0.05    0.47
Q7    1   0.3129  0.6718  0.5544  11.00000  0.05    0.45
Q8    1   0.3372  0.5810  0.7637  11.00000  0.05    0.43
Q9    1   0.1233  0.6852  0.2589  11.00000  0.05    0.43
Q10   1   0.2457  0.6389  0.6040  11.00000  0.05    0.42
Q11   1  -0.0081  0.5000 -0.3214  10.50000  0.05    0.42
Q12   1   0.0289  0.3692 -0.2172  11.00000  0.05    0.42
Q13   1   0.2845  0.5613  0.5552  11.00000  0.05    0.41
Q14   1   0.2935  0.7569  0.7175  11.00000  0.05    0.40
Q15   1   0.1893  0.1779  0.6020  11.00000  0.05    0.38
Q16   1   0.0825  0.0000  0.5181  10.50000  0.05    0.38
Q17   1   0.1871  0.0000  0.6634  10.50000  0.05    0.37
Q18   1   0.2507  0.2019  0.2436  11.00000  0.05    0.37
Q19   1   0.2397  0.5726  0.6435  11.00000  0.05    0.37
Q20   1   0.2002  0.5000 -0.3368  10.50000  0.05    0.37
;
_shelx_res_checksum              50730
_shelx_fab_file
;
    0    6    4     -4.50      0.00
    0    4    3     -3.76      0.00
    0    4    4     -7.77      0.00
    0    4    5     -7.18      0.00
    0    4    6     -3.83      0.00
    0    4    7     -0.32      0.00
    0    2    2      7.87      0.00
    0    2    3     -4.48      0.00
    0    2    5    -10.24      0.00
    0    2    6     -5.40      0.00
    0    2    7     -0.62      0.00
    0    2    8      1.66      0.00
    0    2    9      1.47      0.00
    0    2   10      0.20      0.00
    0    0    2     10.82      0.00
    0    0    3     -4.28      0.00
    0    0    4    -12.34      0.00
    0    0    5    -11.74      0.00
    0    0    6     -6.14      0.00
    0    0    7     -0.60      0.00
    0    0    8      1.97      0.00
    0    0    9      1.69      0.00
    0    0   10      0.29      0.00
    0    0   11     -0.69      0.00
    0    2    0     25.29      0.00
    0    2    1     20.15      0.00
    0    2    4    -10.95      0.00
    0    2   11     -0.82      0.00
    0    4    0     14.90      0.00
    0    4    1     11.67      0.00
    0    4    2      3.97      0.00
    0    4    8      1.66      0.00
    0    4    9      1.87      0.00
    0    4   10      1.00      0.00
    0    6    0      8.70      0.00
    0    6    1      6.81      0.00
    0    6    2      2.30      0.00
    0    6    3     -2.21      0.00
    0    6    5     -4.05      0.00
    0    6    6     -1.90      0.00
    0    6    7      0.42      0.00
    0    6    8      1.87      0.00
    0    6    9      2.17      0.00
    0    6   10      1.61      0.00
    0    8    0      3.94      0.00
    0    8    1      2.89      0.00
    0    8    2      0.51      0.00
    0    8    3     -1.60      0.00
    0    8    4     -2.24      0.00
    0    8    5     -1.40      0.00
    0    8    6      0.01      0.00
    0    8    7      1.06      0.00
    0    8    8      1.37      0.00
    0    8    9      1.11      0.00
    0   10    0      1.30      0.00
    0   10    1      0.65      0.00
    0   10    2     -0.73      0.00
    0   10    3     -1.66      0.00
    0   10    4     -1.43      0.00
    0   10    5     -0.33      0.00
    0   10    6      0.74      0.00
    0   10    7      1.10      0.00
    0   12    0      0.68      0.00
    0   12    1      0.22      0.00
    0   12    2     -0.72      0.00
    0   12    3     -1.30      0.00
    0   12    4     -1.02      0.00
    1    5    5     -4.99      0.00
    1    5    3     -1.85      0.00
   -1    5    4     -7.09      0.00
   -1    5    5     -6.19      0.00
   -1    5    6     -3.07      0.00
    1    3    9      1.62      0.00
    1    3    8      1.49      0.00
    1    3    7     -0.52      0.00
    1    3    0     18.93      0.00
   -1    3    1     14.20      0.00
   -1    3    2      3.92      0.00
   -1    3    3     -6.16      0.00
   -1    3    4    -11.05      0.00
   -1    3    5     -9.71      0.00
   -1    3    6     -4.82      0.00
   -1    3    7     -0.18      0.00
   -1    3    8      2.02      0.00
   -1    3    9      1.84      0.00
    1    1   10      0.50      0.00
    1    1    9      1.63      0.00
    1    1    8      1.69      0.00
    1    1    7     -0.58      0.00
    1    1    5     -9.69      0.00
    1    1    4     -9.97      0.00
    1    1    3     -2.93      0.00
    1    1    2     10.19      0.00
   -1    1    2      7.93      0.00
   -1    1    3     -6.52      0.00
   -1    1    4    -13.96      0.00
   -1    1    5    -12.69      0.00
   -1    1    6     -6.35      0.00
   -1    1    7     -0.26      0.00
   -1    1    8      2.46      0.00
   -1    1    9      2.02      0.00
   -1    1   10      0.38      0.00
   -1    1   11     -0.75      0.00
    1    1    6     -5.17      0.00
    1    1    1     23.21      0.00
    1    3   10      0.66      0.00
    1    3    6     -4.14      0.00
    1    3    5     -7.51      0.00
    1    3    4     -7.69      0.00
    1    3    3     -2.64      0.00
    1    3    2      6.60      0.00
    1    3    1     15.58      0.00
   -1    3   10      0.61      0.00
   -1    3   11     -0.47      0.00
    1    5   10      1.38      0.00
    1    5    9      2.11      0.00
    1    5    8      1.77      0.00
    1    5    7      0.01      0.00
    1    5    6     -2.70      0.00
    1    5    4     -5.06      0.00
    1    5    2      3.85      0.00
    1    5    1      9.25      0.00
    1    5    0     11.14      0.00
   -1    5    1      8.15      0.00
   -1    5    2      1.86      0.00
   -1    5    3     -4.20      0.00
   -1    5    7      0.07      0.00
   -1    5    8      1.87      0.00
   -1    5    9      2.19      0.00
   -1    5   10      1.57      0.00
    1    7    9      1.75      0.00
    1    7    8      1.75      0.00
    1    7    7      0.83      0.00
    1    7    6     -0.81      0.00
    1    7    5     -2.41      0.00
    1    7    4     -2.86      0.00
    1    7    3     -1.38      0.00
    1    7    2      1.73      0.00
    1    7    1      4.86      0.00
    1    7    0      6.06      0.00
   -1    7    1      4.43      0.00
   -1    7    2      0.93      0.00
   -1    7    3     -2.35      0.00
   -1    7    4     -3.73      0.00
   -1    7    5     -2.97      0.00
   -1    7    6     -1.11      0.00
   -1    7    7      0.56      0.00
   -1    7    8      1.40      0.00
   -1    7    9      1.43      0.00
   -1    7   10      1.04      0.00
    1    9    7      1.25      0.00
    1    9    6      0.67      0.00
    1    9    5     -0.44      0.00
    1    9    4     -1.39      0.00
    1    9    3     -1.35      0.00
    1    9    2     -0.12      0.00
    1    9    1      1.53      0.00
    1    9    0      2.30      0.00
   -1    9    1      1.51      0.00
   -1    9    2     -0.30      0.00
   -1    9    3     -1.79      0.00
   -1    9    4     -1.96      0.00
   -1    9    5     -0.94      0.00
   -1    9    6      0.32      0.00
   -1    9    7      0.95      0.00
   -1    9    8      0.81      0.00
    1   11    5      0.00      0.00
    1   11    4     -0.98      0.00
    1   11    3     -1.38      0.00
    1   11    2     -0.80      0.00
    1   11    1      0.29      0.00
    1   11    0      0.93      0.00
   -1   11    1      0.49      0.00
   -1   11    2     -0.68      0.00
   -1   11    3     -1.58      0.00
   -1   11    4     -1.47      0.00
   -1   11    5     -0.53      0.00
   -1   11    6      0.45      0.00
    1   13    1      0.01      0.00
    1   13    0      0.39      0.00
   -1   13    1      0.18      0.00
   -1   13    2     -0.45      0.00
   -2    6    1      5.47      0.00
   -2    6    2      0.69      0.00
   -2    6    3     -3.82      0.00
   -2    6    4     -5.79      0.00
   -2    6    5     -4.81      0.00
   -2    6    6     -2.18      0.00
    2    4    7     -0.25      0.00
   -2    4    2      1.10      0.00
   -2    4    3     -6.52      0.00
   -2    4    4     -9.88      0.00
   -2    4    5     -8.19      0.00
   -2    4    6     -3.70      0.00
   -2    4    7      0.46      0.00
   -2    4    8      2.48      0.00
    2    2   10      0.92      0.00
    2    2    9      1.82      0.00
    2    2    8      1.68      0.00
   -2    2    3     -8.56      0.00
   -2    2    4    -14.14      0.00
   -2    2    5    -12.02      0.00
   -2    2    6     -5.51      0.00
   -2    2    7      0.53      0.00
   -2    2    8      3.17      0.00
   -2    2    9      2.64      0.00
   -2    2   10      0.90      0.00
   -2    2   11     -0.36      0.00
    2    0   10      0.90      0.00
    2    0    9      1.88      0.00
    2    0    8      1.84      0.00
    2    0    7     -0.25      0.00
    2    0    6     -4.29      0.00
    2    0    5     -8.20      0.00
    2    0    4     -8.41      0.00
    2    0    3     -2.20      0.00
    2    0    2      9.45      0.00
    2    0    1     21.06      0.00
    2    0    0     25.56      0.00
   -2    0    2      5.14      0.00
   -2    0    3     -9.09      0.00
   -2    0    4    -16.17      0.00
   -2    0    5    -14.12      0.00
   -2    0    6     -6.68      0.00
   -2    0    7      0.37      0.00
   -2    0    8      3.52      0.00
   -2    0    9      2.94      0.00
   -2    0   10      0.97      0.00
   -2    0   11     -0.37      0.00
   -2    0   12     -0.54      0.00
    2    2    7     -0.30      0.00
    2    2    6     -3.85      0.00
    2    2    5     -7.11      0.00
    2    2    4     -7.11      0.00
    2    2    3     -1.71      0.00
    2    2    2      8.09      0.00
    2    2    1     17.61      0.00
    2    2    0     20.98      0.00
   -2    2    1     15.32      0.00
   -2    2    2      3.27      0.00
   -2    2   12     -0.64      0.00
    2    4    9      1.86      0.00
    2    4    8      1.56      0.00
    2    4    6     -3.06      0.00
    2    4    5     -5.33      0.00
    2    4    4     -5.09      0.00
    2    4    3     -1.17      0.00
    2    4    2      5.44      0.00
    2    4    1     11.52      0.00
    2    4    0     13.31      0.00
   -2    4    1      9.18      0.00
   -2    4    9      2.43      0.00
   -2    4   10      1.41      0.00
   -2    4   11      0.42      0.00
    2    6    9      1.70      0.00
    2    6    8      1.54      0.00
    2    6    7      0.20      0.00
    2    6    6     -1.90      0.00
    2    6    5     -3.66      0.00
    2    6    4     -3.73      0.00
    2    6    3     -1.38      0.00
    2    6    2      2.74      0.00
    2    6    1      6.60      0.00
    2    6    0      7.84      0.00
   -2    6    7      0.29      0.00
   -2    6    8      1.59      0.00
   -2    6    9      1.75      0.00
   -2    6   10      1.31      0.00
    2    8    8      1.30      0.00
    2    8    7      0.91      0.00
    2    8    6     -0.15      0.00
    2    8    5     -1.40      0.00
    2    8    4     -2.02      0.00
    2    8    3     -1.32      0.00
    2    8    2      0.66      0.00
    2    8    1      2.85      0.00
    2    8    0      3.78      0.00
   -2    8    1      2.68      0.00
   -2    8    2      0.19      0.00
   -2    8    3     -2.09      0.00
   -2    8    4     -2.83      0.00
   -2    8    5     -1.93      0.00
   -2    8    6     -0.39      0.00
   -2    8    7      0.67      0.00
   -2    8    8      0.84      0.00
   -2    8    9      0.46      0.00
    2   10    6      0.75      0.00
    2   10    5      0.00      0.00
    2   10    4     -0.83      0.00
    2   10    3     -1.05      0.00
    2   10    2     -0.33      0.00
    2   10    1      0.89      0.00
    2   10    0      1.60      0.00
   -2   10    1      1.11      0.00
   -2   10    2     -0.27      0.00
   -2   10    3     -1.49      0.00
   -2   10    4     -1.65      0.00
   -2   10    5     -0.77      0.00
   -2   10    6      0.32      0.00
   -2   10    7      0.83      0.00
   -2   10    8      0.61      0.00
    2   12    3     -1.00      0.00
    2   12    2     -0.73      0.00
    2   12    1      0.01      0.00
    2   12    0      0.56      0.00
   -2   12    1      0.37      0.00
   -2   12    2     -0.44      0.00
   -2   12    3     -1.19      0.00
   -2   12    4     -1.26      0.00
   -2   12    5     -0.64      0.00
   -3    7    1      3.56      0.00
   -3    7    2      0.32      0.00
   -3    7    3     -2.80      0.00
   -3    7    4     -4.06      0.00
   -3    7    5     -3.13      0.00
   -3    7    6     -1.10      0.00
   -3    7    7      0.59      0.00
   -3    5    3     -5.46      0.00
   -3    5    4     -7.77      0.00
   -3    5    5     -6.23      0.00
   -3    5    6     -2.54      0.00
   -3    5    7      0.82      0.00
   -3    5    8      2.42      0.00
   -3    5    9      2.35      0.00
   -3    3    4    -12.36      0.00
   -3    3    5     -9.86      0.00
   -3    3    6     -3.90      0.00
   -3    3    7      1.48      0.00
   -3    3    8      3.81      0.00
   -3    3    9      3.28      0.00
   -3    3   10      1.63      0.00
    3    1    9      1.93      0.00
    3    1    6     -3.09      0.00
    3    1    5     -6.05      0.00
    3    1    4     -6.12      0.00
    3    1    3     -1.32      0.00
    3    1    2      7.54      0.00
    3    1    1     16.21      0.00
    3    1    0     19.12      0.00
   -3    1    1     13.29      0.00
   -3    1    3    -10.92      0.00
   -3    1    4    -16.42      0.00
   -3    1    5    -13.62      0.00
   -3    1    6     -5.89      0.00
   -3    1    7      1.29      0.00
   -3    1    8      4.46      0.00
   -3    1    9      3.76      0.00
   -3    1   10      1.57      0.00
   -3    1   11      0.02      0.00
   -3    1   12     -0.31      0.00
    3    1    8      1.84      0.00
    3    1    7      0.10      0.00
   -3    1    2      1.10      0.00
    3    3    9      1.84      0.00
    3    3    8      1.57      0.00
    3    3    7     -0.14      0.00
    3    3    6     -2.82      0.00
    3    3    5     -4.98      0.00
    3    3    4     -4.61      0.00
    3    3    3     -0.50      0.00
    3    3    2      6.40      0.00
    3    3    1     12.71      0.00
    3    3    0     14.37      0.00
   -3    3    1      9.50      0.00
   -3    3    2      0.15      0.00
   -3    3    3     -8.66      0.00
   -3    3   11      0.37      0.00
   -3    3   12     -0.09      0.00
    3    5    8      1.19      0.00
    3    5    7     -0.26      0.00
    3    5    6     -2.48      0.00
    3    5    5     -4.22      0.00
    3    5    4     -4.01      0.00
    3    5    3     -1.11      0.00
    3    5    2      3.66      0.00
    3    5    1      7.95      0.00
    3    5    0      9.12      0.00
   -3    5    1      6.02      0.00
   -3    5    2      0.09      0.00
   -3    5   10      1.53      0.00
   -3    5   11      0.73      0.00
    3    7    8      0.96      0.00
    3    7    7      0.18      0.00
    3    7    6     -1.32      0.00
    3    7    5     -2.78      0.00
    3    7    4     -3.15      0.00
    3    7    3     -1.77      0.00
    3    7    2      1.04      0.00
    3    7    1      3.88      0.00
    3    7    0      5.00      0.00
   -3    7    8      1.19      0.00
   -3    7    9      0.90      0.00
   -3    7   10      0.36      0.00
    3    9    6      0.14      0.00
    3    9    5     -0.70      0.00
    3    9    4     -1.28      0.00
    3    9    3     -1.02      0.00
    3    9    2      0.19      0.00
    3    9    1      1.74      0.00
    3    9    0      2.56      0.00
   -3    9    1      1.97      0.00
   -3    9    2      0.28      0.00
   -3    9    3     -1.34      0.00
   -3    9    4     -1.81      0.00
   -3    9    5     -1.01      0.00
   -3    9    6      0.24      0.00
   -3    9    7      0.96      0.00
   -3    9    8      0.81      0.00
   -3    9    9      0.19      0.00
    3   11    4     -0.48      0.00
    3   11    3     -0.69      0.00
    3   11    2     -0.28      0.00
    3   11    1      0.55      0.00
    3   11    0      1.14      0.00
   -3   11    1      0.92      0.00
   -3   11    2     -0.04      0.00
   -3   11    3     -1.03      0.00
   -3   11    4     -1.31      0.00
   -3   11    5     -0.75      0.00
   -3   11    6      0.10      0.00
   -3   11    7      0.58      0.00
   -3   13    1     -0.01      0.00
   -3   13    2     -0.41      0.00
   -4    8    2      0.50      0.00
   -4    8    3     -1.55      0.00
   -4    8    4     -2.33      0.00
   -4    8    5     -1.54      0.00
   -4    8    6      0.02      0.00
   -4    8    7      1.16      0.00
   -4    6    3     -3.72      0.00
   -4    6    4     -5.30      0.00
   -4    6    5     -4.12      0.00
   -4    6    6     -1.39      0.00
   -4    6    7      1.04      0.00
   -4    6    8      2.02      0.00
   -4    6    9      1.66      0.00
   -4    6   10      0.79      0.00
   -4    4    5     -7.21      0.00
   -4    4    6     -2.39      0.00
   -4    4    7      1.93      0.00
   -4    4    8      3.77      0.00
   -4    4    9      3.24      0.00
   -4    4   10      1.77      0.00
   -4    4   11      0.62      0.00
    4    2    4     -3.87      0.00
    4    2    3     -0.13      0.00
    4    2    2      6.22      0.00
    4    2    1     12.04      0.00
    4    2    0     13.41      0.00
   -4    2    4    -14.19      0.00
   -4    2    5    -11.13      0.00
   -4    2    6     -4.08      0.00
   -4    2    7      2.33      0.00
   -4    2    8      5.06      0.00
   -4    2    9      4.21      0.00
   -4    2   10      1.95      0.00
   -4    2   11      0.31      0.00
   -4    2   12     -0.12      0.00
    4    0    9      1.61      0.00
    4    0    8      1.69      0.00
    4    0    7      0.39      0.00
    4    0    6     -2.11      0.00
    4    0    5     -4.45      0.00
    4    0    4     -4.50      0.00
    4    0    3     -0.70      0.00
    4    0    2      6.29      0.00
    4    0    1     13.03      0.00
    4    0    0     14.92      0.00
   -4    0    1      9.45      0.00
   -4    0    2     -1.45      0.00
   -4    0    3    -12.07      0.00
   -4    0    4    -16.67      0.00
   -4    0    5    -13.42      0.00
   -4    0    6     -5.41      0.00
   -4    0    7      2.05      0.00
   -4    0    8      5.35      0.00
   -4    0    9      4.49      0.00
   -4    0   10      1.95      0.00
   -4    0   11      0.11      0.00
   -4    0   12     -0.31      0.00
    4    2    8      1.51      0.00
    4    2    7      0.12      0.00
    4    2    6     -2.22      0.00
    4    2    5     -4.17      0.00
   -4    2    1      8.32      0.00
   -4    2    2     -1.31      0.00
   -4    2    3    -10.45      0.00
    4    4    8      1.03      0.00
    4    4    7     -0.29      0.00
    4    4    6     -2.33      0.00
    4    4    5     -3.88      0.00
    4    4    4     -3.49      0.00
    4    4    3     -0.43      0.00
    4    4    2      4.47      0.00
    4    4    1      8.78      0.00
    4    4    0      9.72      0.00
   -4    4    1      6.05      0.00
   -4    4    2     -0.70      0.00
   -4    4    3     -6.96      0.00
   -4    4    4     -9.40      0.00
   -4    4   12      0.16      0.00
    4    6    7     -0.26      0.00
    4    6    6     -1.87      0.00
    4    6    5     -3.37      0.00
    4    6    4     -3.60      0.00
    4    6    3     -1.86      0.00
    4    6    2      1.39      0.00
    4    6    1      4.56      0.00
    4    6    0      5.72      0.00
   -4    6    1      3.94      0.00
   -4    6    2      0.05      0.00
   -4    6   11      0.12      0.00
    4    8    6     -0.71      0.00
    4    8    5     -1.75      0.00
    4    8    4     -2.23      0.00
    4    8    3     -1.56      0.00
    4    8    2      0.21      0.00
    4    8    1      2.22      0.00
    4    8    0      3.23      0.00
   -4    8    1      2.53      0.00
   -4    8    8      1.28      0.00
   -4    8    9      0.61      0.00
   -4    8   10     -0.15      0.00
    4   10    5     -0.34      0.00
    4   10    4     -0.65      0.00
    4   10    3     -0.50      0.00
    4   10    2      0.25      0.00
    4   10    1      1.27      0.00
    4   10    0      1.88      0.00
   -4   10    1      1.56      0.00
   -4   10    2      0.43      0.00
   -4   10    3     -0.75      0.00
   -4   10    4     -1.16      0.00
   -4   10    5     -0.61      0.00
   -4   10    6      0.36      0.00
   -4   10    7      0.99      0.00
   -4   10    8      0.91      0.00
    4   12    2     -0.22      0.00
    4   12    1      0.18      0.00
    4   12    0      0.50      0.00
   -4   12    1      0.40      0.00
   -4   12    2     -0.14      0.00
   -4   12    3     -0.74      0.00
   -4   12    4     -0.96      0.00
   -4   12    5     -0.66      0.00
   -5    9    5     -0.80      0.00
   -5    9    6      0.44      0.00
   -5    9    7      1.37      0.00
   -5    9    8      1.46      0.00
   -5    7    4     -3.12      0.00
   -5    7    5     -2.26      0.00
   -5    7    6     -0.30      0.00
   -5    7    7      1.38      0.00
   -5    7    8      1.87      0.00
   -5    7    9      1.25      0.00
   -5    7   10      0.24      0.00
   -5    7   11     -0.46      0.00
   -5    5    6     -1.30      0.00
   -5    5    7      1.84      0.00
   -5    5    8      3.09      0.00
   -5    5    9      2.49      0.00
   -5    5   10      1.12      0.00
   -5    5   11      0.08      0.00
   -5    5   12     -0.29      0.00
   -5    3    5     -8.01      0.00
   -5    3    6     -2.31      0.00
   -5    3    7      2.81      0.00
   -5    3    8      4.89      0.00
   -5    3    9      3.95      0.00
   -5    3   10      1.79      0.00
   -5    3   11      0.21      0.00
   -5    3   12     -0.21      0.00
    5    1    7      0.33      0.00
    5    1    6     -1.45      0.00
    5    1    5     -3.06      0.00
    5    1    4     -2.87      0.00
    5    1    3      0.20      0.00
    5    1    2      5.48      0.00
    5    1    1     10.28      0.00
    5    1    0     11.17      0.00
   -5    1    1      6.35      0.00
   -5    1    2     -2.56      0.00
   -5    1    3    -11.02      0.00
   -5    1    4    -14.39      0.00
   -5    1    5    -11.15      0.00
   -5    1    6     -3.85      0.00
   -5    1    7      2.88      0.00
   -5    1    8      5.74      0.00
   -5    1    9      4.64      0.00
   -5    1   10      1.89      0.00
   -5    1   11     -0.13      0.00
   -5    1   12     -0.60      0.00
   -5    1   13     -0.19      0.00
    5    1    8      1.20      0.00
    5    3    8      0.83      0.00
    5    3    7     -0.22      0.00
    5    3    6     -1.91      0.00
    5    3    5     -3.21      0.00
    5    3    4     -2.75      0.00
    5    3    3      0.17      0.00
    5    3    2      4.77      0.00
    5    3    1      8.73      0.00
    5    3    0      9.35      0.00
   -5    3    1      5.39      0.00
   -5    3    2     -1.69      0.00
   -5    3    3     -8.23      0.00
   -5    3    4    -10.68      0.00
    5    5    7     -0.24      0.00
    5    5    6     -1.63      0.00
    5    5    5     -2.91      0.00
    5    5    4     -2.97      0.00
    5    5    3     -1.15      0.00
    5    5    2      2.09      0.00
    5    5    1      5.13      0.00
    5    5    0      6.02      0.00
   -5    5    1      3.82      0.00
   -5    5    2     -0.55      0.00
   -5    5    3     -4.71      0.00
   -5    5    4     -6.36      0.00
   -5    5    5     -4.78      0.00
    5    7    6     -0.89      0.00
    5    7    5     -2.02      0.00
    5    7    4     -2.54      0.00
    5    7    3     -1.78      0.00
    5    7    2      0.17      0.00
    5    7    1      2.34      0.00
    5    7    0      3.40      0.00
   -5    7    1      2.58      0.00
   -5    7    2      0.27      0.00
   -5    7    3     -2.12      0.00
    5    9    5     -0.89      0.00
    5    9    4     -1.17      0.00
    5    9    3     -0.78      0.00
    5    9    2      0.31      0.00
    5    9    1      1.56      0.00
    5    9    0      2.21      0.00
   -5    9    1      1.77      0.00
   -5    9    2      0.44      0.00
   -5    9    3     -0.92      0.00
   -5    9    4     -1.43      0.00
   -5    9    9      0.82      0.00
    5   11    3     -0.18      0.00
    5   11    2      0.23      0.00
    5   11    1      0.75      0.00
    5   11    0      1.02      0.00
   -5   11    1      0.78      0.00
   -5   11    2      0.09      0.00
   -5   11    3     -0.64      0.00
   -5   11    4     -0.92      0.00
   -5   11    5     -0.58      0.00
   -5   11    6      0.10      0.00
   -5   11    7      0.61      0.00
   -6   10    7      0.95      0.00
   -6   10    8      1.17      0.00
   -6    8    4     -2.11      0.00
   -6    8    5     -1.44      0.00
   -6    8    6      0.04      0.00
   -6    8    7      1.35      0.00
   -6    8    8      1.76      0.00
   -6    8    9      1.22      0.00
   -6    8   10      0.30      0.00
   -6    6    7      1.62      0.00
   -6    6    8      2.41      0.00
   -6    6    9      1.76      0.00
   -6    6   10      0.50      0.00
   -6    6   11     -0.47      0.00
   -6    6   12     -0.76      0.00
   -6    4    6     -1.19      0.00
   -6    4    7      2.54      0.00
   -6    4    8      3.97      0.00
   -6    4    9      3.03      0.00
   -6    4   10      1.07      0.00
   -6    4   11     -0.37      0.00
   -6    4   12     -0.71      0.00
    6    2    4     -2.15      0.00
    6    2    3      0.36      0.00
    6    2    2      4.42      0.00
    6    2    1      7.89      0.00
    6    2    0      8.28      0.00
   -6    2    1      4.41      0.00
   -6    2    2     -2.38      0.00
   -6    2    3     -8.65      0.00
   -6    2    5     -8.12      0.00
   -6    2    6     -2.14      0.00
   -6    2    7      3.31      0.00
   -6    2    8      5.48      0.00
   -6    2    9      4.19      0.00
   -6    2   10      1.43      0.00
   -6    2   11     -0.58      0.00
   -6    2   12     -1.01      0.00
   -6    2   13     -0.46      0.00
    6    0    7      0.40      0.00
    6    0    6     -0.85      0.00
    6    0    5     -2.12      0.00
    6    0    4     -1.99      0.00
    6    0    3      0.46      0.00
    6    0    2      4.69      0.00
    6    0    1      8.45      0.00
    6    0    0      8.96      0.00
   -6    0    1      4.76      0.00
   -6    0    2     -2.77      0.00
   -6    0    3     -9.83      0.00
   -6    0    4    -12.52      0.00
   -6    0    5     -9.44      0.00
   -6    0    6     -2.74      0.00
   -6    0    7      3.44      0.00
   -6    0    8      5.96      0.00
   -6    0    9      4.57      0.00
   -6    0   10      1.48      0.00
   -6    0   11     -0.81      0.00
   -6    0   12     -1.32      0.00
   -6    0   13     -0.71      0.00
    6    2    7     -0.10      0.00
    6    2    6     -1.38      0.00
    6    2    5     -2.48      0.00
   -6    2    4    -10.95      0.00
    6    4    7     -0.25      0.00
    6    4    6     -1.32      0.00
    6    4    5     -2.29      0.00
    6    4    4     -2.16      0.00
    6    4    3     -0.32      0.00
    6    4    2      2.74      0.00
    6    4    1      5.44      0.00
    6    4    0      5.92      0.00
   -6    4    1      3.33      0.00
   -6    4    2     -1.37      0.00
   -6    4    3     -5.72      0.00
   -6    4    4     -7.30      0.00
   -6    4    5     -5.32      0.00
    6    6    6     -0.37      0.00
    6    6    5     -1.31      0.00
    6    6    4     -1.78      0.00
    6    6    3     -1.13      0.00
    6    6    2      0.62      0.00
    6    6    1      2.52      0.00
    6    6    0      3.30      0.00
   -6    6    1      2.21      0.00
   -6    6    2     -0.32      0.00
   -6    6    3     -2.85      0.00
   -6    6    4     -3.88      0.00
   -6    6    5     -2.85      0.00
   -6    6    6     -0.51      0.00
    6    8    5     -0.83      0.00
    6    8    4     -1.23      0.00
    6    8    3     -0.91      0.00
    6    8    2      0.18      0.00
    6    8    1      1.45      0.00
    6    8    0      2.06      0.00
   -6    8    1      1.50      0.00
   -6    8    2      0.01      0.00
   -6    8    3     -1.51      0.00
    6   10    3     -0.31      0.00
    6   10    2      0.32      0.00
    6   10    1      0.94      0.00
    6   10    0      1.14      0.00
   -6   10    1      0.68      0.00
   -6   10    2     -0.23      0.00
   -6   10    3     -1.07      0.00
   -6   10    4     -1.32      0.00
   -6   10    5     -0.81      0.00
   -6   10    6      0.14      0.00
   -6   10    9      0.81      0.00
   -6   12    1      0.13      0.00
   -6   12    2     -0.21      0.00
   -6   12    3     -0.48      0.00
   -6   12    4     -0.52      0.00
   -6   12    5     -0.27      0.00
   -7    9    6     -0.38      0.00
   -7    9    7      0.72      0.00
   -7    9    8      1.23      0.00
   -7    9    9      1.03      0.00
   -7    9   10      0.44      0.00
   -7    7    7      1.11      0.00
   -7    7    8      1.73      0.00
   -7    7    9      1.33      0.00
   -7    7   10      0.39      0.00
   -7    7   11     -0.39      0.00
   -7    5    7      1.98      0.00
   -7    5    8      2.88      0.00
   -7    5    9      2.06      0.00
   -7    5   10      0.43      0.00
   -7    5   11     -0.82      0.00
   -7    5   12     -1.12      0.00
   -7    3    6     -1.02      0.00
   -7    3    7      3.05      0.00
   -7    3    8      4.57      0.00
   -7    3    9      3.30      0.00
   -7    3   10      0.78      0.00
   -7    3   11     -1.11      0.00
   -7    3   12     -1.49      0.00
   -7    3   13     -0.83      0.00
    7    1    6     -0.71      0.00
    7    1    5     -1.78      0.00
    7    1    4     -1.79      0.00
    7    1    3      0.12      0.00
    7    1    2      3.50      0.00
    7    1    1      6.50      0.00
    7    1    0      6.85      0.00
   -7    1    1      3.48      0.00
   -7    1    2     -2.43      0.00
   -7    1    3     -7.87      0.00
   -7    1    4     -9.76      0.00
   -7    1    5     -7.03      0.00
   -7    1    6     -1.39      0.00
   -7    1    7      3.77      0.00
   -7    1    8      5.73      0.00
   -7    1    9      4.16      0.00
   -7    1   10      1.00      0.00
   -7    1   11     -1.38      0.00
   -7    1   12     -1.88      0.00
   -7    1   13     -1.10      0.00
    7    3    6     -1.14      0.00
    7    3    5     -1.95      0.00
    7    3    4     -1.81      0.00
    7    3    3     -0.08      0.00
    7    3    2      2.79      0.00
    7    3    1      5.25      0.00
    7    3    0      5.50      0.00
   -7    3    1      2.74      0.00
   -7    3    2     -2.01      0.00
   -7    3    3     -6.30      0.00
   -7    3    4     -7.74      0.00
   -7    3    5     -5.51      0.00
    7    5    6     -0.09      0.00
    7    5    5     -0.70      0.00
    7    5    4     -0.96      0.00
    7    5    3     -0.28      0.00
    7    5    2      1.28      0.00
    7    5    1      2.81      0.00
    7    5    0      3.15      0.00
   -7    5    1      1.67      0.00
   -7    5    2     -1.08      0.00
   -7    5    3     -3.64      0.00
   -7    5    4     -4.52      0.00
   -7    5    5     -3.19      0.00
   -7    5    6     -0.48      0.00
    7    7    5     -0.06      0.00
    7    7    4     -0.52      0.00
    7    7    3     -0.42      0.00
    7    7    2      0.38      0.00
    7    7    1      1.36      0.00
    7    7    0      1.73      0.00
   -7    7    1      1.01      0.00
   -7    7    2     -0.54      0.00
   -7    7    3     -2.06      0.00
   -7    7    4     -2.65      0.00
   -7    7    5     -1.94      0.00
   -7    7    6     -0.38      0.00
    7    9    3     -0.41      0.00
    7    9    2      0.22      0.00
    7    9    1      0.86      0.00
    7    9    0      0.96      0.00
   -7    9    1      0.31      0.00
   -7    9    2     -0.83      0.00
   -7    9    3     -1.83      0.00
   -7    9    4     -2.13      0.00
   -7    9    5     -1.53      0.00
    7   11    0      0.20      0.00
   -7   11    1     -0.20      0.00
   -7   11    2     -0.72      0.00
   -7   11    3     -1.05      0.00
   -7   11    4     -0.99      0.00
   -7   11    5     -0.54      0.00
   -7   11    6      0.09      0.00
   -7   11    7      0.59      0.00
   -8    8    7      0.19      0.00
   -8    8    8      0.83      0.00
   -8    8    9      0.83      0.00
   -8    8   10      0.41      0.00
   -8    6    7      1.22      0.00
   -8    6    8      1.80      0.00
   -8    6    9      1.30      0.00
   -8    6   10      0.23      0.00
   -8    6   11     -0.65      0.00
   -8    6   12     -0.87      0.00
   -8    4    6     -0.22      0.00
   -8    4    7      2.51      0.00
   -8    4    8      3.47      0.00
   -8    4    9      2.39      0.00
   -8    4   10      0.32      0.00
   -8    4   11     -1.31      0.00
   -8    4   12     -1.69      0.00
   -8    4   13     -1.08      0.00
    8    2    4     -1.72      0.00
    8    2    3     -0.41      0.00
    8    2    2      2.10      0.00
    8    2    1      4.38      0.00
    8    2    0      4.65      0.00
   -8    2    1      2.12      0.00
   -8    2    2     -2.23      0.00
   -8    2    3     -6.10      0.00
   -8    2    4     -7.25      0.00
   -8    2    5     -4.93      0.00
   -8    2    6     -0.47      0.00
   -8    2    7      3.57      0.00
   -8    2    8      5.02      0.00
   -8    2    9      3.53      0.00
   -8    2   10      0.61      0.00
   -8    2   11     -1.65      0.00
   -8    2   12     -2.16      0.00
   -8    2   13     -1.32      0.00
    8    0    6     -0.22      0.00
    8    0    5     -1.31      0.00
    8    0    4     -1.73      0.00
    8    0    3     -0.51      0.00
    8    0    2      2.13      0.00
    8    0    1      4.65      0.00
    8    0    0      5.05      0.00
   -8    0    1      2.39      0.00
   -8    0    2     -2.34      0.00
   -8    0    3     -6.60      0.00
   -8    0    4     -7.89      0.00
   -8    0    5     -5.33      0.00
   -8    0    6     -0.38      0.00
   -8    0    7      4.08      0.00
   -8    0    8      5.66      0.00
   -8    0    9      3.97      0.00
   -8    0   10      0.72      0.00
   -8    0   11     -1.79      0.00
   -8    0   12     -2.34      0.00
   -8    0   13     -1.42      0.00
    8    2    5     -1.55      0.00
    8    4    5     -0.73      0.00
    8    4    4     -0.81      0.00
    8    4    3      0.00      0.00
    8    4    2      1.58      0.00
    8    4    1      2.99      0.00
    8    4    0      3.06      0.00
   -8    4    1      1.27      0.00
   -8    4    2     -1.68      0.00
   -8    4    3     -4.24      0.00
   -8    4    4     -4.92      0.00
   -8    4    5     -3.28      0.00
    8    6    4      0.15      0.00
    8    6    3      0.20      0.00
    8    6    2      0.76      0.00
    8    6    1      1.40      0.00
    8    6    0      1.45      0.00
   -8    6    1      0.53      0.00
   -8    6    2     -1.03      0.00
   -8    6    3     -2.39      0.00
   -8    6    4     -2.75      0.00
   -8    6    5     -1.89      0.00
   -8    6    6     -0.26      0.00
    8    8    3     -0.20      0.00
    8    8    2      0.26      0.00
    8    8    1      0.77      0.00
    8    8    0      0.78      0.00
   -8    8    1      0.03      0.00
   -8    8    2     -1.17      0.00
   -8    8    3     -2.20      0.00
   -8    8    4     -2.52      0.00
   -8    8    5     -1.99      0.00
   -8    8    6     -0.91      0.00
    8   10    1      0.22      0.00
    8   10    0      0.07      0.00
   -8   10    1     -0.54      0.00
   -8   10    2     -1.31      0.00
   -8   10    3     -1.82      0.00
   -8   10    4     -1.78      0.00
   -8   10    5     -1.24      0.00
   -8   10    6     -0.43      0.00
   -8   10    7      0.29      0.00
   -8   10    8      0.67      0.00
   -9    9    8      0.14      0.00
   -9    9    9      0.31      0.00
   -9    7    8      0.61      0.00
   -9    7    9      0.56      0.00
   -9    7   10      0.19      0.00
   -9    7   11     -0.17      0.00
   -9    5    7      1.84      0.00
   -9    5    8      2.32      0.00
   -9    5    9      1.60      0.00
   -9    5   10      0.21      0.00
   -9    5   11     -0.94      0.00
   -9    5   12     -1.26      0.00
    9    3    1      2.78      0.00
    9    3    0      2.85      0.00
   -9    3    1      1.02      0.00
   -9    3    2     -1.93      0.00
   -9    3    6      0.21      0.00
   -9    3    7      3.09      0.00
   -9    3    8      4.09      0.00
   -9    3    9      2.89      0.00
   -9    3   10      0.51      0.00
   -9    3   11     -1.48      0.00
   -9    3   12     -2.06      0.00
   -9    3   13     -1.37      0.00
    9    1    5     -0.96      0.00
    9    1    4     -1.56      0.00
    9    1    3     -0.90      0.00
    9    1    2      1.01      0.00
    9    1    1      2.95      0.00
    9    1    0      3.29      0.00
   -9    1    1      1.25      0.00
   -9    1    2     -2.34      0.00
   -9    1    3     -5.44      0.00
   -9    1    4     -6.11      0.00
   -9    1    5     -3.79      0.00
   -9    1    6      0.32      0.00
   -9    1    7      3.94      0.00
   -9    1    8      5.16      0.00
   -9    1    9      3.61      0.00
   -9    1   10      0.64      0.00
   -9    1   11     -1.75      0.00
   -9    1   12     -2.35      0.00
   -9    1   13     -1.44      0.00
    9    3    4     -0.95      0.00
    9    3    3     -0.22      0.00
    9    3    2      1.35      0.00
   -9    3    3     -4.40      0.00
   -9    3    4     -4.90      0.00
   -9    3    5     -3.05      0.00
    9    5    4      0.19      0.00
    9    5    3      0.40      0.00
    9    5    2      1.01      0.00
    9    5    1      1.57      0.00
    9    5    0      1.42      0.00
   -9    5    1      0.29      0.00
   -9    5    2     -1.35      0.00
   -9    5    3     -2.60      0.00
   -9    5    4     -2.69      0.00
   -9    5    5     -1.53      0.00
   -9    5    6      0.30      0.00
    9    7    3      0.04      0.00
    9    7    2      0.33      0.00
    9    7    1      0.67      0.00
    9    7    0      0.58      0.00
   -9    7    1     -0.14      0.00
   -9    7    2     -1.18      0.00
   -9    7    3     -1.99      0.00
   -9    7    4     -2.12      0.00
   -9    7    5     -1.56      0.00
   -9    7    6     -0.65      0.00
   -9    7    7      0.18      0.00
    9    9    1      0.31      0.00
    9    9    0      0.22      0.00
   -9    9    1     -0.44      0.00
   -9    9    2     -1.36      0.00
   -9    9    3     -2.03      0.00
   -9    9    4     -2.13      0.00
   -9    9    5     -1.70      0.00
   -9    9    6     -1.01      0.00
   -9    9    7     -0.33      0.00
   -9   11    3     -0.97      0.00
   -9   11    4     -0.68      0.00
   -9   11    5     -0.22      0.00
  -10    8    8     -0.23      0.00
  -10    8    9     -0.05      0.00
  -10    8   10      0.04      0.00
  -10    6    8      1.06      0.00
  -10    6    9      0.75      0.00
  -10    6   10      0.18      0.00
  -10    6   11     -0.31      0.00
  -10    6   12     -0.45      0.00
  -10    4    7      2.49      0.00
  -10    4    8      3.05      0.00
  -10    4    9      2.24      0.00
  -10    4   10      0.62      0.00
  -10    4   11     -0.85      0.00
  -10    4   12     -1.43      0.00
  -10    4   13     -1.06      0.00
   10    2    4     -0.84      0.00
   10    2    3     -0.45      0.00
   10    2    2      0.81      0.00
   10    2    1      2.10      0.00
   10    2    0      2.22      0.00
  -10    2    1      0.62      0.00
  -10    2    2     -2.02      0.00
  -10    2    3     -4.13      0.00
  -10    2    4     -4.36      0.00
  -10    2    5     -2.42      0.00
  -10    2    6      0.73      0.00
  -10    2    7      3.44      0.00
  -10    2    8      4.36      0.00
  -10    2    9      3.17      0.00
  -10    2   10      0.77      0.00
  -10    2   11     -1.31      0.00
  -10    2   12     -2.00      0.00
  -10    2   13     -1.33      0.00
   10    0    4     -1.11      0.00
   10    0    3     -0.94      0.00
   10    0    2      0.31      0.00
   10    0    1      1.75      0.00
   10    0    0      2.00      0.00
  -10    0    1      0.38      0.00
  -10    0    2     -2.38      0.00
  -10    0    3     -4.61      0.00
  -10    0    4     -4.77      0.00
  -10    0    5     -2.54      0.00
  -10    0    6      0.97      0.00
  -10    0    7      3.92      0.00
  -10    0    8      4.81      0.00
  -10    0    9      3.35      0.00
  -10    0   10      0.65      0.00
  -10    0   11     -1.58      0.00
  -10    0   12     -2.17      0.00
  -10    0   13     -1.29      0.00
   10    4    3      0.34      0.00
   10    4    2      1.11      0.00
   10    4    1      1.78      0.00
   10    4    0      1.62      0.00
  -10    4    1      0.36      0.00
  -10    4    2     -1.43      0.00
  -10    4    3     -2.73      0.00
  -10    4    4     -2.71      0.00
  -10    4    5     -1.32      0.00
  -10    4    6      0.76      0.00
   10    6    2      0.38      0.00
   10    6    1      0.64      0.00
   10    6    0      0.48      0.00
  -10    6    1     -0.21      0.00
  -10    6    2     -1.12      0.00
  -10    6    3     -1.64      0.00
  -10    6    4     -1.46      0.00
  -10    6    5     -0.69      0.00
  -10    6    6      0.24      0.00
  -10    6    7      0.90      0.00
   10    8    1      0.26      0.00
   10    8    0      0.32      0.00
  -10    8    1     -0.19      0.00
  -10    8    2     -0.97      0.00
  -10    8    3     -1.54      0.00
  -10    8    4     -1.62      0.00
  -10    8    5     -1.29      0.00
  -10    8    6     -0.84      0.00
  -10    8    7     -0.48      0.00
  -10   10    2     -0.77      0.00
  -10   10    3     -1.03      0.00
  -10   10    4     -0.90      0.00
  -10   10    5     -0.55      0.00
  -10   10    6     -0.22      0.00
  -10   10    7     -0.04      0.00
  -11    7    8      0.08      0.00
  -11    7    9      0.04      0.00
  -11    7   10      0.06      0.00
  -11    7   11      0.09      0.00
  -11    5    7      1.65      0.00
  -11    5    8      1.82      0.00
  -11    5    9      1.42      0.00
  -11    5   10      0.64      0.00
  -11    5   11     -0.12      0.00
  -11    5   12     -0.51      0.00
   11    3    0      1.65      0.00
  -11    3    1      0.43      0.00
  -11    3    2     -1.36      0.00
  -11    3    3     -2.65      0.00
  -11    3    6      0.96      0.00
  -11    3    7      2.72      0.00
  -11    3    8      3.35      0.00
  -11    3    9      2.63      0.00
  -11    3   10      1.03      0.00
  -11    3   11     -0.54      0.00
  -11    3   12     -1.28      0.00
  -11    3   13     -1.02      0.00
   11    1    3     -0.32      0.00
   11    1    2      0.49      0.00
   11    1    1      1.42      0.00
   11    1    0      1.46      0.00
  -11    1    1      0.13      0.00
  -11    1    2     -1.97      0.00
  -11    1    3     -3.49      0.00
  -11    1    4     -3.32      0.00
  -11    1    5     -1.39      0.00
  -11    1    6      1.34      0.00
  -11    1    7      3.50      0.00
  -11    1    8      4.06      0.00
  -11    1    9      2.85      0.00
  -11    1   10      0.67      0.00
  -11    1   11     -1.21      0.00
  -11    1   12     -1.83      0.00
  -11    1   13     -1.17      0.00
   11    3    2      1.04      0.00
   11    3    1      1.75      0.00
  -11    3    4     -2.59      0.00
  -11    3    5     -1.15      0.00
   11    5    2      0.59      0.00
   11    5    1      0.86      0.00
   11    5    0      0.69      0.00
  -11    5    1     -0.06      0.00
  -11    5    2     -1.01      0.00
  -11    5    3     -1.51      0.00
  -11    5    4     -1.21      0.00
  -11    5    5     -0.24      0.00
  -11    5    6      0.87      0.00
   11    7    0      0.18      0.00
  -11    7    1     -0.14      0.00
  -11    7    2     -0.67      0.00
  -11    7    3     -0.96      0.00
  -11    7    4     -0.80      0.00
  -11    7    5     -0.37      0.00
  -11    7    6      0.00      0.00
  -11    7    7      0.12      0.00
  -11    9    2     -0.27      0.00
  -11    9    3     -0.61      0.00
  -11    9    4     -0.62      0.00
  -11    9    5     -0.42      0.00
  -11    9    6     -0.28      0.00
  -11    9    7     -0.29      0.00
  -11    9    8     -0.33      0.00
  -12    8    8     -0.21      0.00
  -12    8    9     -0.22      0.00
  -12    6    8      0.76      0.00
  -12    6    9      0.62      0.00
  -12    6   10      0.47      0.00
  -12    6   11      0.30      0.00
  -12    4    7      1.82      0.00
  -12    4    8      2.17      0.00
  -12    4    9      1.90      0.00
  -12    4   10      1.14      0.00
  -12    4   11      0.24      0.00
  -12    4   12     -0.37      0.00
   12    2    1      1.46      0.00
   12    2    0      1.35      0.00
  -12    2    1      0.29      0.00
  -12    2    2     -1.22      0.00
  -12    2    3     -2.22      0.00
  -12    2    4     -1.97      0.00
  -12    2    5     -0.55      0.00
  -12    2    6      1.31      0.00
  -12    2    7      2.70      0.00
  -12    2    8      3.04      0.00
  -12    2    9      2.27      0.00
  -12    2   10      0.82      0.00
  -12    2   11     -0.58      0.00
  -12    2   12     -1.25      0.00
  -12    2   13     -0.99      0.00
   12    0    2      0.66      0.00
   12    0    1      1.23      0.00
   12    0    0      1.11      0.00
  -12    0    1     -0.01      0.00
  -12    0    2     -1.60      0.00
  -12    0    3     -2.53      0.00
  -12    0    4     -2.04      0.00
  -12    0    5     -0.26      0.00
  -12    0    6      1.87      0.00
  -12    0    7      3.29      0.00
  -12    0    8      3.35      0.00
  -12    0    9      2.12      0.00
  -12    0   10      0.28      0.00
  -12    0   11     -1.26      0.00
  -12    0   12     -1.78      0.00
  -12    0   13     -1.20      0.00
   12    4    1      1.12      0.00
   12    4    0      0.98      0.00
  -12    4    1      0.21      0.00
  -12    4    2     -0.81      0.00
  -12    4    3     -1.44      0.00
  -12    4    4     -1.23      0.00
  -12    4    5     -0.29      0.00
  -12    4    6      0.90      0.00
   12    6    0      0.16      0.00
  -12    6    1     -0.13      0.00
  -12    6    2     -0.55      0.00
  -12    6    3     -0.70      0.00
  -12    6    4     -0.40      0.00
  -12    6    5      0.18      0.00
  -12    6    6      0.66      0.00
  -12    6    7      0.83      0.00
  -12    8    2      0.01      0.00
  -12    8    3     -0.21      0.00
  -12    8    4     -0.16      0.00
  -12    8    5      0.04      0.00
  -12    8    6      0.12      0.00
  -12    8    7     -0.02      0.00
  -13    7    8      0.25      0.00
  -13    7    9      0.19      0.00
  -13    5    7      1.02      0.00
  -13    5    8      1.15      0.00
  -13    5    9      1.14      0.00
  -13    5   10      0.98      0.00
  -13    5   11      0.66      0.00
  -13    3    2     -0.60      0.00
  -13    3    6      0.92      0.00
  -13    3    7      1.67      0.00
  -13    3    8      1.91      0.00
  -13    3    9      1.65      0.00
  -13    3   10      0.99      0.00
  -13    3   11      0.18      0.00
  -13    3   12     -0.43      0.00
   13    1    0      1.03      0.00
  -13    1    1      0.14      0.00
  -13    1    2     -1.00      0.00
  -13    1    3     -1.55      0.00
  -13    1    4     -0.99      0.00
  -13    1    5      0.44      0.00
  -13    1    6      1.91      0.00
  -13    1    7      2.67      0.00
  -13    1    8      2.42      0.00
  -13    1    9      1.39      0.00
  -13    1   10      0.03      0.00
  -13    1   11     -1.09      0.00
  -13    1   12     -1.54      0.00
  -13    1   13     -1.21      0.00
   13    3    0      0.96      0.00
  -13    3    1      0.30      0.00
  -13    3    3     -1.16      0.00
  -13    3    4     -0.96      0.00
  -13    3    5     -0.11      0.00
  -13    5    1      0.06      0.00
  -13    5    2     -0.37      0.00
  -13    5    3     -0.58      0.00
  -13    5    4     -0.37      0.00
  -13    5    5      0.16      0.00
  -13    5    6      0.69      0.00
  -13    7    3     -0.07      0.00
  -13    7    4      0.07      0.00
  -13    7    5      0.34      0.00
  -13    7    6      0.50      0.00
  -13    7    7      0.42      0.00
  -14    6    8      0.59      0.00
  -14    6    9      0.64      0.00
  -14    4    7      0.84      0.00
  -14    4    8      1.01      0.00
  -14    4    9      1.09      0.00
  -14    4   10      1.01      0.00
  -14    4   11      0.68      0.00
  -14    2    1      0.19      0.00
  -14    2    2     -0.47      0.00
  -14    2    3     -0.75      0.00
  -14    2    5      0.54      0.00
  -14    2    6      1.35      0.00
  -14    2    7      1.66      0.00
  -14    2    8      1.42      0.00
  -14    2    9      0.84      0.00
  -14    2   10      0.13      0.00
  -14    2   11     -0.51      0.00
  -14    2   12     -0.91      0.00
  -14    0    1      0.12      0.00
  -14    0    2     -0.70      0.00
  -14    0    3     -0.94      0.00
  -14    0    4     -0.24      0.00
  -14    0    5      1.06      0.00
  -14    0    6      2.16      0.00
  -14    0    7      2.40      0.00
  -14    0    8      1.73      0.00
  -14    0    9      0.55      0.00
  -14    0   10     -0.64      0.00
  -14    0   11     -1.47      0.00
  -14    0   12     -1.73      0.00
  -14    2    4     -0.34      0.00
  -14    4    2     -0.14      0.00
  -14    4    3     -0.34      0.00
  -14    4    4     -0.21      0.00
  -14    4    5      0.16      0.00
  -14    4    6      0.56      0.00
  -14    6    4      0.12      0.00
  -14    6    5      0.34      0.00
  -14    6    6      0.52      0.00
  -14    6    7      0.58      0.00
  -15    5    7      0.44      0.00
  -15    5    8      0.54      0.00
  -15    3    5      0.50      0.00
  -15    3    6      0.75      0.00
  -15    3    7      0.76      0.00
  -15    3    8      0.64      0.00
  -15    3    9      0.51      0.00
  -15    3   10      0.37      0.00
  -15    1    3     -0.48      0.00
  -15    1    4      0.07      0.00
  -15    1    5      1.01      0.00
  -15    1    6      1.70      0.00
  -15    1    7      1.69      0.00
  -15    1    8      1.01      0.00
  -15    1    9      0.08      0.00
  -15    1   10     -0.72      0.00
  -15    1   11     -1.19      0.00
  -15    3    4      0.15      0.00
  -15    5    6      0.39      0.00
  -16    2    6      0.98      0.00
  -16    2    7      0.83      0.00
  -16    2    8      0.38      0.00
  -16    2    9     -0.08      0.00
  -16    0    6      1.43      0.00
  -16    0    7      1.34      0.00
  -16    0    8      0.64      0.00
  -16    0    9     -0.27      0.00
  -16    0   10     -0.94      0.00
   14    0    0      0.82      0.00
    1    1    0     28.47      0.00
   14    2    0      0.70      0.00
   14    4    0      0.42      0.00
   13    5    0      0.36      0.00
   13    7    0      0.07      0.00
   12    8    0      0.28      0.00
   11    9    0      0.40      0.00
   10   10    0      0.09      0.00
    9   11    0     -0.25      0.00
    6   12    0      0.35      0.00
    8   12    0     -0.12      0.00
    3   13    0      0.04      0.00
    5   13    0      0.15      0.00
   -2    0    1     19.29      0.00
    0    0    1     25.75      0.00
   14    0    1      0.98      0.00
  -15    1    1      0.12      0.00
   -1    1    1     22.27      0.00
   13    1    1      1.19      0.00
   14    2    1      0.76      0.00
  -15    3    1      0.14      0.00
   13    3    1      1.05      0.00
  -14    4    1      0.19      0.00
   13    5    1      0.39      0.00
  -14    6    1      0.13      0.00
   12    6    1      0.12      0.00
  -13    7    1      0.13      0.00
   11    7    1      0.07      0.00
  -12    8    1      0.28      0.00
  -11    9    1      0.20      0.00
   11    9    1      0.18      0.00
  -10   10    1     -0.28      0.00
   10   10    1      0.11      0.00
   -9   11    1     -0.59      0.00
    7   11    1      0.29      0.00
    9   11    1     -0.10      0.00
   -8   12    1     -0.35      0.00
    6   12    1      0.35      0.00
   -7   13    1      0.03      0.00
   -5   13    1      0.04      0.00
    3   13    1     -0.24      0.00
    5   13    1      0.11      0.00
  -16    0    2     -0.23      0.00
  -15    1    2     -0.38      0.00
   13    1    2      0.83      0.00
   12    2    2      0.90      0.00
  -15    3    2     -0.03      0.00
   13    3    2      0.74      0.00
   12    4    2      0.80      0.00
  -15    5    2      0.20      0.00
  -14    6    2      0.05      0.00
   12    6    2     -0.08      0.00
  -13    7    2      0.01      0.00
   11    7    2     -0.27      0.00
   10    8    2     -0.15      0.00
    9    9    2     -0.04      0.00
  -12   10    2      0.12      0.00
    8   10    2     -0.03      0.00
   -9   11    2     -0.92      0.00
    7   11    2      0.09      0.00
   -8   12    2     -0.52      0.00
    6   12    2      0.19      0.00
   -7   13    2     -0.11      0.00
   -5   13    2     -0.20      0.00
    1   13    2     -0.59      0.00
    3   13    2     -0.55      0.00
    5   13    2      0.03      0.00
  -16    0    3     -0.34      0.00
   12    0    3      0.13      0.00
  -16    2    3     -0.01      0.00
   12    2    3      0.32      0.00
  -15    3    3     -0.06      0.00
   11    3    3      0.29      0.00
  -16    4    3      0.38      0.00
  -15    5    3      0.21      0.00
   11    5    3      0.27      0.00
  -14    6    3      0.01      0.00
   10    6    3      0.13      0.00
  -14    8    3      0.14      0.00
   10    8    3     -0.46      0.00
  -13    9    3      0.14      0.00
    9    9    3     -0.37      0.00
  -12   10    3      0.01      0.00
    8   10    3     -0.33      0.00
  -11   11    3     -0.19      0.00
    7   11    3     -0.17      0.00
  -10   12    3     -0.22      0.00
   -8   12    3     -0.48      0.00
    4   12    3     -0.39      0.00
   -7   13    3     -0.13      0.00
   -5   13    3     -0.42      0.00
   -3   13    3     -0.82      0.00
   -1   13    3     -0.90      0.00
    1   13    3     -0.83      0.00
    3   13    3     -0.57      0.00
  -16    0    4      0.09      0.00
   11    1    4     -0.41      0.00
  -16    2    4      0.30      0.00
   11    3    4     -0.02      0.00
  -16    4    4      0.49      0.00
   10    4    4     -0.02      0.00
  -15    5    4      0.27      0.00
   10    6    4      0.12      0.00
  -15    7    4      0.17      0.00
    9    7    4      0.08      0.00
  -14    8    4      0.14      0.00
    8    8    4     -0.25      0.00
  -13    9    4      0.14      0.00
    7    9    4     -0.62      0.00
  -12   10    4      0.09      0.00
    6   10    4     -0.58      0.00
  -11   11    4      0.05      0.00
    5   11    4     -0.33      0.00
  -10   12    4      0.09      0.00
   -8   12    4     -0.22      0.00
    2   12    4     -0.61      0.00
    4   12    4     -0.28      0.00
   -7   13    4     -0.02      0.00
   -5   13    4     -0.46      0.00
   -3   13    4     -0.86      0.00
   -1   13    4     -0.77      0.00
    1   13    4     -0.50      0.00
  -16    0    5      0.86      0.00
   10    0    5     -0.39      0.00
  -16    2    5      0.74      0.00
   10    2    5     -0.42      0.00
    9    3    5     -0.77      0.00
  -16    4    5      0.51      0.00
   10    4    5      0.03      0.00
  -15    5    5      0.34      0.00
    9    5    5      0.30      0.00
  -16    6    5      0.24      0.00
    8    6    5      0.46      0.00
  -15    7    5      0.22      0.00
  -14    8    5      0.24      0.00
    8    8    5      0.04      0.00
  -13    9    5      0.25      0.00
    7    9    5     -0.40      0.00
  -12   10    5      0.26      0.00
    6   10    5     -0.48      0.00
  -11   11    5      0.31      0.00
    3   11    5      0.03      0.00
    5   11    5     -0.25      0.00
  -10   12    5      0.38      0.00
   -8   12    5      0.13      0.00
    0   12    5     -0.17      0.00
    2   12    5      0.04      0.00
   -7   13    5      0.16      0.00
   -5   13    5     -0.28      0.00
   -3   13    5     -0.49      0.00
   -1   13    5     -0.20      0.00
    1   13    5      0.06      0.00
    9    1    6     -0.01      0.00
    8    2    6     -0.67      0.00
    9    3    6     -0.25      0.00
  -16    4    6      0.41      0.00
    8    4    6     -0.27      0.00
  -16    6    6      0.20      0.00
    8    6    6      0.68      0.00
  -15    7    6      0.28      0.00
    7    7    6      0.43      0.00
  -14    8    6      0.30      0.00
    6    8    6     -0.19      0.00
  -13    9    6      0.28      0.00
    5    9    6     -0.33      0.00
  -12   10    6      0.28      0.00
    4   10    6      0.06      0.00
  -11   11    6      0.39      0.00
   -9   11    6      0.19      0.00
    1   11    6      0.77      0.00
    3   11    6      0.39      0.00
  -10   12    6      0.50      0.00
   -8   12    6      0.43      0.00
   -6   12    6      0.10      0.00
   -4   12    6     -0.13      0.00
   -2   12    6      0.11      0.00
    0   12    6      0.54      0.00
    2   12    6      0.44      0.00
   -7   13    6      0.30      0.00
   -5   13    6     -0.02      0.00
   -3   13    6     -0.05      0.00
   -1   13    6      0.30      0.00
    8    0    7      0.48      0.00
    7    1    7      0.22      0.00
    8    2    7      0.01      0.00
    7    3    7     -0.30      0.00
  -16    4    7      0.28      0.00
    7    5    7      0.26      0.00
  -16    6    7      0.21      0.00
    6    6    7      0.26      0.00
  -15    7    7      0.30      0.00
    5    7    7      0.03      0.00
  -14    8    7      0.24      0.00
    4    8    7      0.16      0.00
  -13    9    7      0.11      0.00
    3    9    7      0.69      0.00
  -12   10    7      0.09      0.00
    2   10    7      0.99      0.00
  -11   11    7      0.26      0.00
   -9   11    7      0.43      0.00
   -1   11    7      0.81      0.00
    1   11    7      0.90      0.00
   -8   12    7      0.58      0.00
   -6   12    7      0.37      0.00
   -4   12    7      0.23      0.00
   -2   12    7      0.46      0.00
    0   12    7      0.69      0.00
    6    0    8      0.81      0.00
    7    1    8      0.42      0.00
    6    2    8      0.53      0.00
  -16    4    8      0.24      0.00
    6    4    8      0.29      0.00
    5    5    8      0.48      0.00
  -16    6    8      0.30      0.00
    4    6    8      0.61      0.00
  -15    7    8      0.30      0.00
    5    7    8      0.31      0.00
  -14    8    8      0.10      0.00
    4    8    8      0.48      0.00
  -13    9    8     -0.11      0.00
    1    9    8      1.17      0.00
    3    9    8      0.75      0.00
  -12   10    8     -0.14      0.00
  -10   10    8      0.03      0.00
    0   10    8      0.80      0.00
    2   10    8      0.75      0.00
  -11   11    8      0.06      0.00
   -9   11    8      0.48      0.00
   -7   11    8      0.76      0.00
   -5   11    8      0.67      0.00
   -3   11    8      0.50      0.00
   -1   11    8      0.56      0.00
   -8   12    8      0.56      0.00
   -6   12    8      0.39      0.00
   -4   12    8      0.23      0.00
    5    1    9      1.05      0.00
    4    2    9      1.64      0.00
    5    3    9      0.98      0.00
  -16    4    9      0.35      0.00
    4    4    9      1.28      0.00
  -15    5    9      0.71      0.00
    3    5    9      1.42      0.00
  -16    6    9      0.44      0.00
    4    6    9      0.60      0.00
  -15    7    9      0.34      0.00
    3    7    9      0.89      0.00
  -14    8    9      0.06      0.00
    2    8    9      1.05      0.00
  -13    9    9     -0.18      0.00
  -11    9    9     -0.26      0.00
   -1    9    9      0.33      0.00
    1    9    9      0.73      0.00
  -12   10    9     -0.23      0.00
  -10   10    9      0.04      0.00
   -8   10    9      0.64      0.00
   -4   10    9      0.38      0.00
   -2   10    9      0.10      0.00
    0   10    9      0.29      0.00
   -9   11    9      0.36      0.00
   -7   11    9      0.56      0.00
   -5   11    9      0.37      0.00
   -3   11    9      0.16      0.00
    4    0   10      0.81      0.00
    3    1   10      1.08      0.00
  -16    2   10     -0.38      0.00
    4    2   10      1.01      0.00
    3    3   10      1.16      0.00
  -16    4   10      0.48      0.00
    2    4   10      1.10      0.00
  -15    5   10      0.83      0.00
    3    5   10      0.81      0.00
  -16    6   10      0.53      0.00
  -14    6   10      0.69      0.00
    2    6   10      1.02      0.00
  -15    7   10      0.39      0.00
  -13    7   10      0.27      0.00
    1    7   10      1.12      0.00
  -14    8   10      0.14      0.00
  -12    8   10     -0.04      0.00
   -2    8   10      0.07      0.00
    0    8   10      0.62      0.00
  -13    9   10     -0.04      0.00
  -11    9   10     -0.10      0.00
   -9    9   10      0.23      0.00
   -5    9   10      0.04      0.00
   -3    9   10     -0.30      0.00
   -1    9   10     -0.04      0.00
  -10   10   10      0.00      0.00
   -8   10   10      0.31      0.00
   -6   10   10      0.24      0.00
   -4   10   10     -0.09      0.00
  -16    0   11     -1.20      0.00
    2    0   11     -0.02      0.00
    1    1   11     -0.45      0.00
  -16    2   11     -0.51      0.00
    2    2   11     -0.03      0.00
  -15    3   11      0.14      0.00
    1    3   11     -0.36      0.00
  -16    4   11      0.44      0.00
    0    4   11     -0.04      0.00
  -15    5   11      0.72      0.00
   -1    5   11      0.69      0.00
    1    5   11      0.36      0.00
  -14    6   11      0.61      0.00
   -2    6   11      0.74      0.00
    0    6   11      0.76      0.00
  -13    7   11      0.35      0.00
   -3    7   11      0.00      0.00
   -1    7   11      0.56      0.00
  -12    8   11      0.16      0.00
  -10    8   11      0.07      0.00
   -8    8   11     -0.04      0.00
   -6    8   11     -0.37      0.00
   -4    8   11     -0.51      0.00
   -2    8   11     -0.10      0.00
  -11    9   11      0.03      0.00
   -9    9   11      0.05      0.00
   -7    9   11     -0.08      0.00
   -5    9   11     -0.38      0.00
   -3    9   11     -0.37      0.00
   -8   10   11     -0.03      0.00
  -16    0   12     -1.13      0.00
    0    0   12     -0.78      0.00
  -15    1   12     -1.32      0.00
   -1    1   12     -0.86      0.00
  -16    2   12     -0.57      0.00
    0    2   12     -1.05      0.00
  -15    3   12     -0.18      0.00
   -1    3   12     -0.86      0.00
  -16    4   12      0.18      0.00
  -14    4   12      0.22      0.00
   -2    4   12     -0.12      0.00
  -15    5   12      0.38      0.00
  -13    5   12      0.26      0.00
   -3    5   12      0.25      0.00
   -1    5   12      0.06      0.00
  -14    6   12      0.36      0.00
  -12    6   12      0.14      0.00
   -4    6   12     -0.17      0.00
   -2    6   12      0.31      0.00
  -13    7   12      0.29      0.00
  -11    7   12      0.11      0.00
   -9    7   12     -0.26      0.00
   -7    7   12     -0.62      0.00
   -5    7   12     -0.63      0.00
   -3    7   12     -0.10      0.00
  -12    8   12      0.22      0.00
  -10    8   12      0.10      0.00
   -8    8   12     -0.20      0.00
   -6    8   12     -0.54      0.00
  -16    0   13     -0.87      0.00
  -14    0   13     -1.40      0.00
   -4    0   13      0.03      0.00
   -2    0   13     -0.08      0.00
  -15    1   13     -1.13      0.00
   -3    1   13      0.03      0.00
  -16    2   13     -0.56      0.00
  -14    2   13     -0.90      0.00
   -4    2   13      0.10      0.00
   -2    2   13     -0.33      0.00
  -15    3   13     -0.40      0.00
  -13    3   13     -0.56      0.00
   -5    3   13      0.02      0.00
   -3    3   13     -0.05      0.00
  -14    4   13     -0.12      0.00
  -12    4   13     -0.46      0.00
   -6    4   13     -0.38      0.00
   -4    4   13      0.08      0.00
  -13    5   13      0.00      0.00
  -11    5   13     -0.42      0.00
   -9    5   13     -0.84      0.00
   -7    5   13     -0.73      0.00
   -5    5   13     -0.25      0.00
  -12    6   13      0.05      0.00
  -10    6   13     -0.24      0.00
   -8    6   13     -0.55      0.00
   -6    6   13     -0.58      0.00
  -11    7   13      0.14      0.00
   -9    7   13     -0.07      0.00
   -7    7   13     -0.43      0.00
    0    0    0      0.00      0.00
# SQUEEZE RESULTS (Version =  21116)
# Note: Data are Listed for all Voids in the P1 Unit Cell
# i.e. Centre of Gravity, Solvent Accessible Volume,
# Recovered number of Electrons in the Void and
# Details about the Squeezed Material
loop_
  _platon_squeeze_void_nr
  _platon_squeeze_void_average_x
  _platon_squeeze_void_average_y
  _platon_squeeze_void_average_z
  _platon_squeeze_void_volume
  _platon_squeeze_void_count_electrons
  _platon_squeeze_void_content
   1  0.000  0.000  0.000        54        15 ' '
   2  0.500  0.500  0.000        54        15 ' '
# Missing Reflections Below sin(th)/lambda = 0.25
loop_
  _platon_missing_refln_index_h
  _platon_missing_refln_index_k
  _platon_missing_refln_index_l
  _platon_missing_refln_theta
    1    1    0     2.550
   -2    0    1     2.953
    0    0    1     2.135
   -1    1    1     2.598
_platon_squeeze_void_probe_radius                  1.20
_platon_squeeze_details
)
TITL 123 in C2 C2/m
CELL   13.8040   11.1980   11.5580     90.00    124.38     90.00
SPGR C2/m
# Solvent Accessible Volume =       104
# Electrons Found in S.A.V. =        28
# Note: Atoms in Void as Cxxx and Qxxx all others
C101 0.489 0.498 0.109 !       6.61 eA-3
Q102 1.000 0.203 0.501 !       0.77 eA-3
Q103 0.553 0.120 0.425 !       0.63 eA-3
C104 0.500 0.500 0.000 !       0.58 eA-3
Q105 0.893 0.500 0.359 !       0.56 eA-3
Q106 0.185 0.176 0.438 !       0.53 eA-3
Q107 0.279 0.503 0.766 !       0.51 eA-3
)
;
_shelx_fab_checksum              76410
_olex2_submission_special_instructions 'No special instructions were received'
loop_
_space_group_symop_operation_xyz
'x, y, z'
'-x, y, -z'
'x+1/2, y+1/2, z'
'-x+1/2, y+1/2, -z'
'-x, -y, -z'
'x, -y, z'
'-x+1/2, -y+1/2, -z'
'x+1/2, -y+1/2, z'
loop_
_atom_site_label
_atom_site_type_symbol
_atom_site_fract_x
_atom_site_fract_y
_atom_site_fract_z
_atom_site_U_iso_or_equiv
_atom_site_adp_type
_atom_site_occupancy
_atom_site_site_symmetry_order
_atom_site_calc_flag
_atom_site_refinement_flags_posn
_atom_site_refinement_flags_adp
_atom_site_refinement_flags_occupancy
C1 C 0.0524(4) 0.0611(4) 0.6230(5) 0.0237(11) Uani 1 1 d . . .
C2 C 0.000000 0.1252(5) 0.500000 0.0198(14) Uani 1 2 d S T P
C3 C 0.000000 0.2609(6) 0.500000 0.0211(14) Uani 1 2 d S T P
C4 C 0.1580(6) 0.500000 0.2880(7) 0.0261(17) Uani 1 2 d S T P
C5 C 0.1473(6) 0.500000 0.1507(7) 0.0250(16) Uani 1 2 d S T P
C6 C 0.1418(4) 0.3954(5) 0.0838(5) 0.0255(11) Uani 1 1 d . . .
C7 C 0.1355(5) 0.3958(5) -0.0400(5) 0.0282(12) Uani 1 1 d . . .
C8 C 0.1343(6) 0.500000 -0.1036(6) 0.0230(15) Uani 1 2 d S T P
C9 C 0.1355(6) 0.500000 -0.2331(7) 0.0253(16) Uani 1 2 d S T P
Dy1 Dy 0.15927(2) 0.500000 0.53113(3) 0.01375(12) Uani 1 2 d S T P
F1 F 0.1011(3) 0.1194(3) 0.7445(3) 0.0391(8) Uani 1 1 d . . .
F2 F 0.1434(4) 0.2884(3) 0.1352(3) 0.0515(10) Uani 1 1 d . . .
F3 F 0.1309(4) 0.2915(3) -0.0991(3) 0.0538(10) Uani 1 1 d . . .
O1 O 0.0928(3) 0.3087(3) 0.5293(4) 0.0274(8) Uani 1 1 d . . .
O2 O 0.3288(3) 0.6291(3) 0.6456(4) 0.0338(9) Uani 1 1 d . . .
H2A H 0.337106 0.704413 0.654853 0.041 Uiso 1 1 d R . .
H2B H 0.396846 0.598083 0.690023 0.041 Uiso 1 1 d R . .
O3 O 0.1628(4) 0.5968(3) 0.3442(4) 0.0363(9) Uani 1 1 d . . .
O4 O 0.2323(4) 0.500000 -0.2181(5) 0.0373(14) Uani 1 2 d S T P
O5 O 0.0405(4) 0.500000 -0.3512(4) 0.0250(11) Uani 1 2 d S T P
loop_
_atom_site_aniso_label
_atom_site_aniso_U_11
_atom_site_aniso_U_22
_atom_site_aniso_U_33
_atom_site_aniso_U_23
_atom_site_aniso_U_13
_atom_site_aniso_U_12
C1 0.022(2) 0.019(2) 0.032(3) -0.005(2) 0.016(2) -0.005(2)
C2 0.022(3) 0.006(3) 0.036(4) 0.000 0.020(3) 0.000
C3 0.025(4) 0.010(3) 0.033(4) 0.000 0.019(3) 0.000
C4 0.016(3) 0.050(5) 0.013(3) 0.000 0.009(3) 0.000
C5 0.028(4) 0.033(4) 0.017(3) 0.000 0.015(3) 0.000
C6 0.030(3) 0.026(3) 0.020(2) 0.003(2) 0.014(2) -0.004(2)
C7 0.034(3) 0.033(3) 0.017(2) -0.004(2) 0.014(2) 0.002(3)
C8 0.020(3) 0.038(4) 0.011(3) 0.000 0.008(3) 0.000
C9 0.028(4) 0.032(4) 0.013(3) 0.000 0.010(3) 0.000
Dy1 0.01732(19) 0.01336(19) 0.01365(18) 0.000 0.01060(15) 0.000
F1 0.051(2) 0.0242(16) 0.0328(16) -0.0084(14) 0.0177(16) -0.0032(16)
F2 0.101(3) 0.0305(19) 0.0399(19) 0.0024(15) 0.050(2) 0.000(2)
F3 0.105(3) 0.0325(19) 0.0390(18) -0.0066(16) 0.050(2) 0.003(2)
O1 0.0264(19) 0.0141(17) 0.045(2) 0.0040(16) 0.0217(18) 0.0006(16)
O2 0.0237(19) 0.033(2) 0.042(2) -0.0085(18) 0.0174(18) -0.0078(17)
O3 0.059(3) 0.036(2) 0.0267(19) -0.0111(17) 0.032(2) -0.017(2)
O4 0.020(3) 0.076(4) 0.020(3) 0.000 0.014(2) 0.000
O5 0.023(2) 0.035(3) 0.011(2) 0.000 0.007(2) 0.000
loop_
_atom_type_symbol
_atom_type_description
_atom_type_scat_dispersion_real
_atom_type_scat_dispersion_imag
_atom_type_scat_source
C C 0.0033 0.0016 'International Tables Vol C Tables 4.2.6.8 and 6.1.1.4'
H H 0.0000 0.0000 'International Tables Vol C Tables 4.2.6.8 and 6.1.1.4'
Dy Dy -0.1892 4.4098 'International Tables Vol C Tables 4.2.6.8 and 6.1.1.4'
F F 0.0171 0.0103 'International Tables Vol C Tables 4.2.6.8 and 6.1.1.4'
O O 0.0106 0.0060 'International Tables Vol C Tables 4.2.6.8 and 6.1.1.4'
loop_
_geom_angle_atom_site_label_1
_geom_angle_atom_site_label_2
_geom_angle_atom_site_label_3
_geom_angle
_geom_angle_site_symmetry_1
_geom_angle_site_symmetry_3
C1 C1 C2 121.4(3) 6 .
F1 C1 C1 119.2(2) . 6
F1 C1 C2 119.3(4) . .
C1 C2 C1 117.2(6) . 2_556
C1 C2 C3 121.4(3) . .
C1 C2 C3 121.4(3) 2_556 .
O1 C3 C2 115.5(3) 2_556 .
O1 C3 C2 115.5(3) . .
O1 C3 O1 129.1(6) 2_556 .
C5 C4 Dy1 175.7(5) . .
O3 C4 C5 119.6(3) 6_565 .
O3 C4 C5 119.6(3) . .
O3 C4 Dy1 60.6(3) . .
O3 C4 Dy1 60.6(3) 6_565 .
O3 C4 O3 120.9(6) . 6_565
C6 C5 C4 122.0(3) . .
C6 C5 C4 122.0(3) 6_565 .
C6 C5 C6 115.9(6) 6_565 .
C5 C6 C7 121.9(5) . .
F2 C6 C5 122.0(4) . .
F2 C6 C7 116.1(4) . .
C8 C7 C6 122.0(5) . .
F3 C7 C6 118.9(4) . .
F3 C7 C8 119.1(4) . .
C7 C8 C7 116.3(6) . 6_565
C7 C8 C9 121.8(3) . .
C7 C8 C9 121.8(3) 6_565 .
C8 C9 Dy1 175.2(5) . 1_554
O4 C9 C8 118.4(6) . .
O4 C9 Dy1 56.9(3) . 1_554
O4 C9 O5 122.2(6) . .
O5 C9 C8 119.4(6) . .
O5 C9 Dy1 65.3(3) . 1_554
C4 Dy1 C9 174.38(19) . 1_556
O1 Dy1 C4 102.25(9) . .
O1 Dy1 C4 102.25(9) 6_565 .
O1 Dy1 C9 75.93(9) 6_565 1_556
O1 Dy1 C9 75.93(9) . 1_556
O1 Dy1 O1 134.11(16) . 6_565
O1 Dy1 O2 73.07(12) 6_565 .
O1 Dy1 O2 73.07(12) . 6_565
O1 Dy1 O2 144.35(13) 6_565 6_565
O1 Dy1 O2 144.35(12) . .
O1 Dy1 O3 77.77(12) 6_565 .
O1 Dy1 O3 127.29(12) 6_565 6_565
O1 Dy1 O3 77.77(12) . 6_565
O1 Dy1 O3 127.29(12) . .
O1 Dy1 O4 84.73(9) . 1_556
O1 Dy1 O4 84.73(9) 6_565 1_556
O1 Dy1 O5 74.35(9) . 5_565
O1 Dy1 O5 74.35(9) 6_565 5_565
O1 Dy1 O5 69.51(8) 6_565 1_556
O1 Dy1 O5 69.51(8) . 1_556
O2 Dy1 C4 90.29(14) 6_565 .
O2 Dy1 C4 90.29(14) . .
O2 Dy1 C9 94.21(14) 6_565 1_556
O2 Dy1 C9 94.21(14) . 1_556
O2 Dy1 O2 73.64(18) . 6_565
O2 Dy1 O3 73.83(12) . .
O2 Dy1 O3 104.69(13) 6_565 .
O2 Dy1 O3 73.83(12) 6_565 6_565
O2 Dy1 O3 104.69(13) . 6_565
O2 Dy1 O4 74.33(12) 6_565 1_556
O2 Dy1 O4 74.33(12) . 1_556
O2 Dy1 O5 114.03(11) 6_565 1_556
O2 Dy1 O5 114.03(11) . 1_556
O3 Dy1 C4 26.39(9) 6_565 .
O3 Dy1 C4 26.39(9) . .
O3 Dy1 C9 153.33(9) 6_565 1_556
O3 Dy1 C9 153.33(9) . 1_556
O3 Dy1 O3 52.71(17) 6_565 .
O3 Dy1 O4 146.94(11) . 1_556
O3 Dy1 O4 146.94(11) 6_565 1_556
O3 Dy1 O5 141.20(12) . 1_556
O3 Dy1 O5 141.20(12) 6_565 1_556
O4 Dy1 C4 160.64(18) 1_556 .
O4 Dy1 C9 24.98(18) 1_556 1_556
O4 Dy1 O5 50.29(14) 1_556 1_556
O5 Dy1 C4 149.07(17) 1_556 .
O5 Dy1 C4 76.75(17) 5_565 .
O5 Dy1 C9 97.63(18) 5_565 1_556
O5 Dy1 C9 25.31(17) 1_556 1_556
O5 Dy1 O2 141.29(10) 5_565 .
O5 Dy1 O2 141.30(10) 5_565 6_565
O5 Dy1 O3 79.36(13) 5_565 6_565
O5 Dy1 O3 79.36(13) 5_565 .
O5 Dy1 O4 122.61(15) 5_565 1_556
O5 Dy1 O5 72.31(16) 5_565 1_556
C3 O1 Dy1 137.6(3) . .
Dy1 O2 H2A 133.2 . .
Dy1 O2 H2B 119.1 . .
H2A O2 H2B 107.7 . .
C4 O3 Dy1 93.1(3) . .
C9 O4 Dy1 98.1(4) . 1_554
C9 O5 Dy1 89.3(4) . 1_554
C9 O5 Dy1 163.0(4) . 5_565
Dy1 O5 Dy1 107.69(15) 5_565 1_554
loop_
_geom_bond_atom_site_label_1
_geom_bond_atom_site_label_2
_geom_bond_distance
_geom_bond_site_symmetry_2
C1 C1 1.369(10) 6
C1 C2 1.377(6) .
C1 F1 1.336(5) .
C2 C3 1.519(9) .
C3 O1 1.245(4) .
C3 O1 1.245(4) 2_556
C4 C5 1.509(9) .
C4 Dy1 2.800(6) .
C4 O3 1.246(5) 6_565
C4 O3 1.246(5) .
C5 C6 1.382(6) 6_565
C5 C6 1.382(6) .
C6 C7 1.383(7) .
C6 F2 1.332(6) .
C7 C8 1.374(6) .
C7 F3 1.335(6) .
C8 C9 1.507(9) .
C9 Dy1 2.923(6) 1_554
C9 O4 1.247(9) .
C9 O5 1.250(8) .
Dy1 O1 2.326(3) 6_565
Dy1 O1 2.326(3) .
Dy1 O2 2.412(3) .
Dy1 O2 2.412(3) 6_565
Dy1 O3 2.442(3) .
Dy1 O3 2.442(3) 6_565
Dy1 O4 2.473(5) 1_556
Dy1 O5 2.656(4) 1_556
Dy1 O5 2.335(5) 5_565
O2 H2A 0.8498 .
O2 H2B 0.8500 .
