#------------------------------------------------------------------------------
#$Date: 2017-07-11 14:26:40 +0300 (Tue, 11 Jul 2017) $
#$Revision: 198632 $
#$URL: file:///home/coder/svn-repositories/cod/cif/7/04/24/7042416.cif $
#------------------------------------------------------------------------------
#
# This file is available in the Crystallography Open Database (COD),
# http://www.crystallography.net/
#
# All data on this site have been placed in the public domain by the
# contributors.
#
data_7042416
loop_
_publ_author_name
'Han, Yongqiang'
'Yan, Pengfei'
'Sun, Jingwen'
'An, Guanghui'
'Yao, Xu'
'Li, Yuxin'
'Li, Guangming'
_publ_section_title
;
 Luminescence and white-light emitting luminescent sensor of
 tetrafluoroterephthalate-lanthanide metal-organic frameworks.
;
_journal_issue                   14
_journal_name_full
'Dalton transactions (Cambridge, England : 2003)'
_journal_page_first              4642
_journal_page_last               4653
_journal_paper_doi               10.1039/c7dt00215g
_journal_volume                  46
_journal_year                    2017
_chemical_formula_moiety         'C12 H4 Eu F6 O8'
_chemical_formula_sum            'C12 H4 Eu F6 O8'
_chemical_formula_weight         542.12
_space_group_crystal_system      monoclinic
_space_group_IT_number           12
_space_group_name_Hall           '-C 2y'
_space_group_name_H-M_alt        'C 1 2/m 1'
_symmetry_space_group_name_Hall  '-C 2y'
_symmetry_space_group_name_H-M   'C 1 2/m 1'
_atom_sites_solution_hydrogens   difmap
_audit_creation_date             2017-03-03
_audit_creation_method
;
Olex2 1.2
(compiled 2017.03.02 svn.r3394 for OlexSys, GUI svn.r5324)
;
_audit_update_record
;
2017-03-08 deposited with the CCDC.
2017-03-09 downloaded from the CCDC.
;
_cell_angle_alpha                90
_cell_angle_beta                 125.141(5)
_cell_angle_gamma                90
_cell_formula_units_Z            4
_cell_length_a                   13.896(5)
_cell_length_b                   11.257(5)
_cell_length_c                   11.628(5)
_cell_measurement_reflns_used    1762
_cell_measurement_temperature    293(2)
_cell_measurement_theta_max      29.1219
_cell_measurement_theta_min      3.5788
_cell_volume                     1487.4(11)
_computing_data_collection
'CrysAlisPro, Agilent Technologies,Version 1.171.35.21 (release 20-01-2012 CrysAlis171 .NET)(compiled Jan 23 2012,18:06:46)'
_computing_molecular_graphics    'Olex2 (Dolomanov et al., 2009)'
_computing_publication_material  '(K. Brandenburg, Diamond 3.1, 2009)'
_computing_structure_refinement  'ShelXL (Sheldrick, 2015)'
_computing_structure_solution    'SHELXS-2016/6 (Sheldrick, 2015)'
_diffrn_ambient_temperature      293(2)
_diffrn_measured_fraction_theta_full 0.997
_diffrn_measured_fraction_theta_max 0.997
_diffrn_measurement_device_type  'multiwire proportional'
_diffrn_measurement_method       'phi and omega scans'
_diffrn_radiation_monochromator  graphite
_diffrn_radiation_type           MoK\a
_diffrn_radiation_wavelength     0.71069
_diffrn_reflns_av_R_equivalents  0.0334
_diffrn_reflns_av_unetI/netI     0.0455
_diffrn_reflns_Laue_measured_fraction_full 0.997
_diffrn_reflns_Laue_measured_fraction_max 0.997
_diffrn_reflns_limit_h_max       16
_diffrn_reflns_limit_h_min       -16
_diffrn_reflns_limit_k_max       13
_diffrn_reflns_limit_k_min       -9
_diffrn_reflns_limit_l_max       12
_diffrn_reflns_limit_l_min       -13
_diffrn_reflns_number            2750
_diffrn_reflns_point_group_measured_fraction_full 0.997
_diffrn_reflns_point_group_measured_fraction_max 0.997
_diffrn_reflns_theta_full        24.999
_diffrn_reflns_theta_max         24.999
_diffrn_reflns_theta_min         3.586
_exptl_absorpt_coefficient_mu    4.332
_exptl_absorpt_correction_T_max  0.569
_exptl_absorpt_correction_T_min  0.488
_exptl_absorpt_correction_type   multi-scan
_exptl_absorpt_process_details
;
CrysAlisPro, Agilent Technologies,
Version 1.171.35.21 (release 20-01-2012 CrysAlis171 .NET)
(compiled Jan 23 2012,18:06:46)
Empirical absorption correction using spherical harmonics,
 implemented in SCALE3 ABSPACK scaling algorithm.
;
_exptl_crystal_colour            colorless
_exptl_crystal_density_diffrn    2.421
_exptl_crystal_description       block
_exptl_crystal_F_000             1028
_exptl_crystal_size_max          0.18
_exptl_crystal_size_mid          0.14
_exptl_crystal_size_min          0.13
_refine_diff_density_max         0.786
_refine_diff_density_min         -1.204
_refine_diff_density_rms         0.165
_refine_ls_extinction_method     none
_refine_ls_goodness_of_fit_ref   1.111
_refine_ls_hydrogen_treatment    constr
_refine_ls_matrix_type           full
_refine_ls_number_parameters     134
_refine_ls_number_reflns         1387
_refine_ls_number_restraints     0
_refine_ls_restrained_S_all      1.111
_refine_ls_R_factor_all          0.0291
_refine_ls_R_factor_gt           0.0275
_refine_ls_shift/su_max          0.000
_refine_ls_shift/su_mean         0.000
_refine_ls_structure_factor_coef Fsqd
_refine_ls_weighting_details
'w=1/[\s^2^(Fo^2^)+(0.0352P)^2^+0.3872P] where P=(Fo^2^+2Fc^2^)/3'
_refine_ls_weighting_scheme      calc
_refine_ls_wR_factor_gt          0.0690
_refine_ls_wR_factor_ref         0.0702
_reflns_Friedel_coverage         0.000
_reflns_number_gt                1314
_reflns_number_total             1391
_reflns_threshold_expression     'I > 2\s(I)'
_cod_data_source_file            c7dt00215g2.cif
_cod_data_source_block           7-eu_sq
_cod_depositor_comments
;Adding full bibliography for 7042409--7042422.cif.

The following automatic conversions were performed:

'_exptl_absorpt_correction_type' value 'multi-scan'' was replaced
with the value 'multi-scan' as specified in the replacement file
'src/cod-tools/trunk/data/replacement-values/replacement_values.lst'.

Automatic conversion script
Id: cif_fix_values 5376 2017-05-30 11:51:03Z andrius 
;
_cod_database_code               7042416
#BEGIN Tags that were not found in dictionaries:
_shelx_shelxl_version_number     2016/6
_shelx_space_group_comment
;
The symmetry employed for this shelxl refinement is uniquely defined
by the following loop, which should always be used as a source of
symmetry information in preference to the above space-group names.
They are only intended as comments.
;
_shelx_estimated_absorpt_t_max   0.603
_shelx_estimated_absorpt_t_min   0.509
_olex2_refinement_description
;
1. Fixed Uiso
 At 1.2 times of:
  All O(H,H) groups
2.a Riding coordinates:
 O4(H4A,H4B)
;
_shelx_res_file
;
TITL 123 in C2 C2/m
    7-eu_sq.res
    created by SHELXL-2016/6 at 17:25:04 on 03-Mar-2017
CELL 0.71069 13.896 11.257 11.628 90 125.141 90
ZERR 1 0.005 0.005 0.005 0 0.005 0
LATT 7
SYMM -X,+Y,-Z
SFAC C H Eu F O
UNIT 48 16 4 24 32

L.S. 5 0 4
PLAN  20
SIZE 0.18 0.14 0.13
BOND $H
ABIN
fmap 2
acta
MERG 2
OMIT -3 50
REM <olex2.extras>
REM <HklSrc "%.\\7-Eu.hkl">
REM </olex2.extras>

WGHT    0.035200    0.387200
FVAR       0.09161
C1    1    0.000000    0.259122    0.000000    10.50000    0.02381    0.01128 =
         0.02455    0.00000    0.01344    0.00000
C2    1    0.000000    0.125118    0.000000    10.50000    0.01838    0.01035 =
         0.03375    0.00000    0.01689    0.00000
C3    1    0.051769    0.061271    0.123206    11.00000    0.02258    0.01616 =
         0.02897   -0.00272    0.01457   -0.00553
C4    1    0.138510    0.500000    0.270166    10.50000    0.02394    0.02733 =
         0.01396    0.00000    0.00975    0.00000
C5    1    0.135958    0.500000    0.398921    10.50000    0.01426    0.03744 =
         0.01264    0.00000    0.00759    0.00000
C6    1    0.135883    0.604140    0.461068    11.00000    0.03288    0.02475 =
         0.02074    0.00501    0.01727   -0.00049
C7    1    0.141118    0.605331    0.582574    11.00000    0.03348    0.02296 =
         0.02192   -0.00815    0.01898   -0.00358
C8    1    0.146770    0.500000    0.650327    10.50000    0.02176    0.02987 =
         0.00964    0.00000    0.00915    0.00000
EU1   3    0.160761    0.500000    0.032981    10.50000    0.01354    0.00973 =
         0.01042    0.00000    0.00799    0.00000
F1    4    0.100901    0.119256    0.245250    11.00000    0.04404    0.02379 =
         0.03545   -0.00978    0.01736   -0.00276
F2    4    0.131150    0.707082    0.401351    11.00000    0.09248    0.03185 =
         0.03775    0.00537    0.04418   -0.00700
F3    4    0.142921    0.710912    0.634545    11.00000    0.09834    0.02699 =
         0.03950   -0.00540    0.04803   -0.00299
O1    5   -0.043227    0.500000   -0.150141    10.50000    0.01656    0.03067 =
         0.01146    0.00000    0.00481    0.00000
O2    5    0.236267    0.500000    0.288777    10.50000    0.01628    0.08388 =
         0.01895    0.00000    0.01135    0.00000
O3    5    0.091731    0.306348    0.028913    11.00000    0.02405    0.01152 =
         0.04813    0.00365    0.02156   -0.00169
O4    5    0.333393    0.629568    0.150414    11.00000    0.02900    0.03847 =
         0.03441   -0.01174    0.02030   -0.01438
AFIX   3
H4A   2    0.351393    0.672228    0.104164    11.00000   -1.20000
H4B   2    0.345563    0.673278    0.218054    11.00000   -1.20000
AFIX   0
O5    5    0.161818    0.596977   -0.157599    11.00000    0.06233    0.03092 =
         0.02491   -0.00989    0.03414   -0.01595
C9    1    0.158400    0.500000   -0.212880    10.50000    0.01345    0.03597 =
         0.01333    0.00000    0.00846    0.00000
HKLF 4




REM  123 in C2 C2/m
REM R1 =  0.0275 for    1314 Fo > 4sig(Fo)  and  0.0291 for all    1387 data
REM    134 parameters refined using      0 restraints

END

WGHT      0.0352      0.3872

REM Highest difference peak  0.786,  deepest hole -1.204,  1-sigma level  0.165
Q1    1   0.0213  0.5000 -0.1205  10.50000  0.05    0.79
Q2    1   0.1284  0.4385 -0.0386  11.00000  0.05    0.53
Q3    1   0.0166  0.5000  0.4680  10.50000  0.05    0.52
Q4    1   0.2687  0.7650  0.1844  11.00000  0.05    0.51
Q5    1   0.0400  0.2815  0.1388  11.00000  0.05    0.48
Q6    1   0.0886  0.6152 -0.1052  11.00000  0.05    0.48
Q7    1  -0.0507  0.5587 -0.1995  11.00000  0.05    0.46
Q8    1   0.1030  0.3655  0.0197  11.00000  0.05    0.46
Q9    1   0.2670  0.5800 -0.1415  11.00000  0.05    0.46
Q10   1   0.2703  0.5000  0.5024  10.50000  0.05    0.45
Q11   1   0.2224  0.6416  0.3579  11.00000  0.05    0.43
Q12   1   0.0355  0.4057  0.2836  11.00000  0.05    0.43
Q13   1   0.4224  0.6140  0.2434  11.00000  0.05    0.42
Q14   1   0.2672  0.5000 -0.1919  10.50000  0.05    0.40
Q15   1   0.1980  0.5000 -0.0572  10.50000  0.05    0.40
Q16   1   0.2682  0.5000  0.0214  10.50000  0.05    0.40
Q17   1   0.2216  0.6180  0.1604  11.00000  0.05    0.39
Q18   1   0.0087  0.5000 -0.2145  10.50000  0.05    0.38
Q19   1   0.0000  0.2064  0.0000  10.50000  0.05    0.38
Q20   1   0.1731  0.2368  0.1314  11.00000  0.05    0.38
;
_shelx_res_checksum              18510
_shelx_fab_file
;
    0   12    0      0.66      0.00
    0   12    1     -0.44      0.00
    0   12    2     -0.06      0.00
    0   12    3      0.48      0.00
    0   12    4     -0.55      0.00
    0   12    5      0.33      0.00
    0   10    0      1.78      0.00
    0   10    1     -1.39      0.00
    0   10    2      0.37      0.00
    0   10    3      0.87      0.00
    0   10    4     -1.77      0.00
    0   10    5      1.97      0.00
    0   10    6     -1.56      0.00
    0   10    7      0.95      0.00
    0    8    0      4.25      0.00
    0    8    1     -3.30      0.00
    0    8    2      0.92      0.00
    0    8    3      1.70      0.00
    0    8    4     -3.20      0.00
    0    8    5      2.90      0.00
    0    8    6     -1.30      0.00
    0    8    7     -0.33      0.00
    0    8    8      1.02      0.00
    0    8    9     -0.77      0.00
    0    6    0     10.03      0.00
    0    6    1     -8.05      0.00
    0    6    2      3.18      0.00
    0    6    3      2.01      0.00
    0    6    4     -5.00      0.00
    0    6    5      4.78      0.00
    0    6   10      0.48      0.00
    0    4    0     14.50      0.00
    0    4    1    -11.66      0.00
    0    4    2      4.78      0.00
    0    4    3      2.43      0.00
    0    4    7      1.62      0.00
    0    4    8      0.21      0.00
    0    4    9     -0.80      0.00
    0    4   10      0.75      0.00
    0    2    0     23.27      0.00
    0    2    1    -18.87      0.00
    0    2    2      8.26      0.00
    0    2    3      2.69      0.00
    0    2    4     -9.04      0.00
    0    2    5      9.52      0.00
    0    2    6     -6.18      0.00
    0    2    7      2.11      0.00
    0    2    8      0.67      0.00
    0    2    9     -1.68      0.00
    0    2   10      1.45      0.00
    0    2   11     -0.77      0.00
    0    0    2     11.60      0.00
    0    0    3      2.46      0.00
    0    0    4    -10.69      0.00
    0    0    5     11.44      0.00
    0    0    6     -7.31      0.00
    0    0    7      2.18      0.00
    0    0    8      1.28      0.00
    0    0    9     -2.38      0.00
    0    0   10      1.78      0.00
    0    0   11     -0.64      0.00
    0    4    4     -6.65      0.00
    0    4    5      6.90      0.00
    0    4    6     -4.48      0.00
    0    6    6     -2.36      0.00
    0    6    7     -0.18      0.00
    0    6    8      1.37      0.00
    0    6    9     -1.16      0.00
    1   13    2     -0.35      0.00
    1   13    1      0.09      0.00
    1   13    0      0.06      0.00
   -1   13    1      0.06      0.00
   -1   13    2     -0.28      0.00
   -1   13    3      0.29      0.00
    1   11    5      1.28      0.00
    1   11    4     -1.04      0.00
    1   11    3      0.36      0.00
    1   11    2      0.52      0.00
    1   11    1     -1.18      0.00
    1   11    0      1.29      0.00
   -1   11    1     -0.81      0.00
   -1   11    2     -0.01      0.00
   -1   11    3      0.77      0.00
   -1   11    4     -1.13      0.00
   -1   11    5      0.99      0.00
   -1   11    6     -0.55      0.00
    1    9    7      0.77      0.00
    1    9    6     -1.71      0.00
    1    9    5      2.50      0.00
    1    9    4     -2.39      0.00
    1    9    3      1.16      0.00
    1    9    2      0.64      0.00
    1    9    1     -2.08      0.00
    1    9    0      2.49      0.00
   -1    9    1     -1.75      0.00
   -1    9    2      0.23      0.00
   -1    9    3      1.41      0.00
   -1    9    4     -2.37      0.00
   -1    9    5      2.22      0.00
   -1    9    6     -1.18      0.00
   -1    9    7      0.03      0.00
   -1    9    8      0.56      0.00
    1    7    7     -0.41      0.00
    1    7    6     -1.51      0.00
    1    7    5      3.47      0.00
    1    7    4     -3.77      0.00
    1    7    3      1.59      0.00
    1    7    2      2.23      0.00
    1    7    1     -5.66      0.00
    1    7    0      6.86      0.00
   -1    7    1     -5.16      0.00
   -1    7    2      1.41      0.00
   -1    7    3      2.46      0.00
   -1    7    4     -4.53      0.00
   -1    7    5      3.98      0.00
   -1    7    6     -1.59      0.00
   -1    7    7     -0.85      0.00
    1    5    9     -0.55      0.00
    1    5    8      0.48      0.00
    1    5    3      0.98      0.00
    1    5    2      4.91      0.00
    1    5    1    -10.23      0.00
    1    5    0     12.01      0.00
   -1    5    1     -9.07      0.00
   -1    5    2      2.85      0.00
   -1    5    3      3.49      0.00
   -1    5    4     -7.05      0.00
   -1    5    5      6.83      0.00
   -1    5   10      0.67      0.00
    1    3   10      0.87      0.00
    1    3    9     -0.84      0.00
    1    3    8      0.07      0.00
    1    3    7      1.88      0.00
    1    3    6     -4.68      0.00
    1    3    2      6.93      0.00
    1    3    1    -14.55      0.00
    1    3    0     17.25      0.00
   -1    3    1    -13.15      0.00
   -1    3    2      4.34      0.00
   -1    3    3      4.50      0.00
   -1    3    4     -9.34      0.00
   -1    3    6     -5.78      0.00
   -1    3    7      1.94      0.00
   -1    3    9     -1.47      0.00
   -1    3   10      1.33      0.00
   -1    3   11     -0.85      0.00
    1    1   10      1.25      0.00
    1    1    9     -1.53      0.00
    1    1    8      0.48      0.00
    1    1    7      2.40      0.00
    1    1    6     -6.47      0.00
    1    1    5      9.53      0.00
    1    1    4     -8.40      0.00
    1    1    3      0.99      0.00
    1    1    2     11.21      0.00
    1    1    1    -22.71      0.00
   -1    1    2      7.88      0.00
   -1    1    3      5.29      0.00
   -1    1    4    -12.53      0.00
   -1    1    5     12.31      0.00
   -1    1    6     -7.36      0.00
   -1    1    7      1.70      0.00
   -1    1    8      1.98      0.00
   -1    1    9     -3.07      0.00
   -1    1   10      2.36      0.00
   -1    1   11     -1.02      0.00
    1    3    5      6.85      0.00
    1    3    4     -6.17      0.00
    1    3    3      1.22      0.00
   -1    3    5      9.16      0.00
   -1    3    8      0.58      0.00
    1    5    7      0.69      0.00
    1    5    6     -2.93      0.00
    1    5    5      4.89      0.00
    1    5    4     -4.59      0.00
   -1    5    6     -4.05      0.00
   -1    5    7      0.95      0.00
   -1    5    8      0.82      0.00
   -1    5    9     -1.08      0.00
    1    7    9     -0.72      0.00
    1    7    8      1.12      0.00
   -1    7    8      1.92      0.00
   -1    7    9     -1.53      0.00
   -1    7   10      0.62      0.00
    2   12    3      0.22      0.00
    2   12    2      0.18      0.00
    2   12    1     -0.51      0.00
    2   12    0      0.50      0.00
   -2   12    1     -0.11      0.00
   -2   12    2     -0.39      0.00
   -2   12    3      0.63      0.00
   -2   12    4     -0.43      0.00
   -2   12    5     -0.11      0.00
    2   10    6     -1.49      0.00
    2   10    5      1.70      0.00
    2   10    4     -1.32      0.00
    2   10    3      0.28      0.00
    2   10    2      0.98      0.00
    2   10    1     -1.80      0.00
    2   10    0      1.77      0.00
   -2   10    1     -0.99      0.00
   -2   10    2     -0.16      0.00
   -2   10    3      1.19      0.00
   -2   10    4     -1.69      0.00
   -2   10    5      1.47      0.00
   -2   10    6     -0.72      0.00
   -2   10    7     -0.06      0.00
   -2   10    8      0.44      0.00
    2    8    8      0.32      0.00
    2    8    7      0.18      0.00
    2    8    6     -1.49      0.00
    2    8    5      2.86      0.00
    2    8    4     -3.08      0.00
    2    8    3      1.58      0.00
    2    8    2      1.00      0.00
    2    8    1     -3.21      0.00
    2    8    0      3.87      0.00
   -2    8    1     -2.67      0.00
   -2    8    2      0.27      0.00
   -2    8    3      2.14      0.00
   -2    8    4     -3.36      0.00
   -2    8    5      2.81      0.00
   -2    8    6     -0.96      0.00
   -2    8    7     -0.93      0.00
   -2    8    8      1.74      0.00
   -2    8    9     -1.33      0.00
    2    6    9     -0.21      0.00
    2    6    8      0.51      0.00
    2    6    4     -3.68      0.00
    2    6    3      0.86      0.00
    2    6    2      3.80      0.00
    2    6    1     -7.87      0.00
    2    6    0      8.98      0.00
   -2    6    1     -6.35      0.00
   -2    6    2      1.20      0.00
   -2    6    3      3.91      0.00
   -2    6    4     -6.59      0.00
   -2    6    5      5.95      0.00
   -2    6    6     -2.99      0.00
    2    4    9     -0.23      0.00
    2    4    8     -0.10      0.00
    2    4    7      1.30      0.00
    2    4    6     -3.24      0.00
    2    4    2      6.06      0.00
    2    4    1    -11.44      0.00
    2    4    0     12.86      0.00
   -2    4    1     -9.05      0.00
   -2    4    2      1.74      0.00
   -2    4    3      5.38      0.00
   -2    4    4     -9.09      0.00
   -2    4    5      8.50      0.00
   -2    4    6     -5.14      0.00
   -2    4    8      0.74      0.00
   -2    4   10      0.98      0.00
   -2    4   11     -0.57      0.00
    2    2   10      0.91      0.00
    2    2    9     -0.96      0.00
    2    2    8      0.12      0.00
    2    2    7      2.01      0.00
    2    2    6     -4.93      0.00
    2    2    5      7.02      0.00
    2    2    4     -5.99      0.00
    2    2    2      8.52      0.00
    2    2    1    -16.67      0.00
    2    2    0     19.11      0.00
   -2    2    1    -13.69      0.00
   -2    2    2      2.92      0.00
   -2    2    3      7.52      0.00
   -2    2    4    -12.76      0.00
   -2    2    6     -6.63      0.00
   -2    2    7      1.28      0.00
   -2    2    8      2.08      0.00
   -2    2    9     -3.03      0.00
   -2    2   10      2.39      0.00
   -2    2   11     -1.21      0.00
   -2    2   12      0.26      0.00
    2    0   10      1.02      0.00
    2    0    9     -1.26      0.00
    2    0    8      0.26      0.00
    2    0    7      2.41      0.00
    2    0    6     -6.08      0.00
    2    0    5      8.67      0.00
    2    0    4     -7.32      0.00
    2    0    3      0.27      0.00
    2    0    2     11.02      0.00
    2    0    1    -21.35      0.00
    2    0    0     24.52      0.00
   -2    0    2      4.14      0.00
   -2    0    3      9.13      0.00
   -2    0    4    -15.81      0.00
   -2    0    5     14.40      0.00
   -2    0    6     -7.97      0.00
   -2    0    7      1.07      0.00
   -2    0    8      3.25      0.00
   -2    0    9     -4.38      0.00
   -2    0   10      3.30      0.00
   -2    0   11     -1.49      0.00
   -2    0   12      0.12      0.00
    2    2    3      0.41      0.00
   -2    2    5     11.64      0.00
    2    4    5      4.73      0.00
    2    4    4     -4.01      0.00
    2    4    3      0.07      0.00
   -2    4    7      1.49      0.00
   -2    4    9     -1.31      0.00
    2    6    7      0.17      0.00
    2    6    6     -1.97      0.00
    2    6    5      3.74      0.00
   -2    6    7     -0.13      0.00
   -2    6    8      1.70      0.00
   -2    6    9     -1.51      0.00
   -2    6   10      0.56      0.00
    3   13    0     -0.25      0.00
   -3   13    1      0.37      0.00
   -3   13    2     -0.49      0.00
   -3   13    3      0.39      0.00
    3   11    4     -0.33      0.00
    3   11    3     -0.31      0.00
    3   11    2      1.02      0.00
    3   11    1     -1.37      0.00
    3   11    0      1.08      0.00
   -3   11    1     -0.28      0.00
   -3   11    2     -0.62      0.00
   -3   11    3      1.18      0.00
   -3   11    4     -1.17      0.00
   -3   11    5      0.64      0.00
   -3   11    6      0.09      0.00
   -3   11    7     -0.61      0.00
    3    9    6     -1.21      0.00
    3    9    5      1.92      0.00
    3    9    4     -1.90      0.00
    3    9    3      0.81      0.00
    3    9    2      0.86      0.00
    3    9    1     -2.14      0.00
    3    9    0      2.30      0.00
   -3    9    1     -1.33      0.00
   -3    9    2     -0.22      0.00
   -3    9    3      1.64      0.00
   -3    9    4     -2.28      0.00
   -3    9    5      1.85      0.00
   -3    9    6     -0.60      0.00
   -3    9    7     -0.67      0.00
   -3    9    8      1.21      0.00
    3    7    7      0.12      0.00
    3    7    6     -1.58      0.00
    3    7    5      3.19      0.00
    3    7    4     -3.47      0.00
    3    7    3      1.59      0.00
    3    7    2      1.75      0.00
    3    7    1     -4.69      0.00
    3    7    0      5.47      0.00
   -3    7    1     -3.61      0.00
   -3    7    2      0.04      0.00
   -3    7    3      3.43      0.00
   -3    7    4     -5.10      0.00
   -3    7    5      4.29      0.00
   -3    7    6     -1.70      0.00
   -3    7    7     -0.94      0.00
   -3    7    8      2.10      0.00
    3    5    8     -0.24      0.00
    3    5    7      0.90      0.00
    3    5    6     -2.36      0.00
    3    5    3     -0.09      0.00
    3    5    2      4.95      0.00
    3    5    1     -8.99      0.00
    3    5    0      9.72      0.00
   -3    5    1     -6.32      0.00
   -3    5    2      0.27      0.00
   -3    5    3      5.47      0.00
   -3    5    4     -8.29      0.00
   -3    5    5      7.38      0.00
   -3    5    6     -4.01      0.00
   -3    5    7      0.47      0.00
   -3    5    9     -1.48      0.00
    3    3    9     -0.37      0.00
    3    3    8     -0.11      0.00
    3    3    7      1.44      0.00
    3    3    6     -3.36      0.00
    3    3    5      4.68      0.00
    3    3    4     -3.74      0.00
    3    3    2      6.57      0.00
    3    3    1    -11.90      0.00
    3    3    0     12.95      0.00
   -3    3    1     -8.36      0.00
   -3    3    2      0.12      0.00
   -3    3    3      7.58      0.00
   -3    3    4    -11.09      0.00
   -3    3    5      9.62      0.00
   -3    3    6     -5.16      0.00
   -3    3    7      0.64      0.00
   -3    3    8      2.02      0.00
   -3    3    9     -2.59      0.00
   -3    3   10      1.89      0.00
   -3    3   11     -0.93      0.00
   -3    3   12      0.26      0.00
    3    1    9     -1.05      0.00
    3    1    8      0.30      0.00
    3    1    7      1.81      0.00
    3    1    6     -4.70      0.00
    3    1    5      6.66      0.00
    3    1    4     -5.47      0.00
    3    1    3     -0.12      0.00
    3    1    2      8.81      0.00
    3    1    1    -16.43      0.00
    3    1    0     18.07      0.00
   -3    1    1    -11.57      0.00
   -3    1    2     -0.31      0.00
   -3    1    3     11.43      0.00
   -3    1    4    -16.40      0.00
   -3    1    5     14.02      0.00
   -3    1    6     -7.23      0.00
   -3    1    7      0.36      0.00
   -3    1    8      3.77      0.00
   -3    1    9     -4.69      0.00
   -3    1   10      3.47      0.00
   -3    1   11     -1.61      0.00
   -3    1   12      0.22      0.00
    3    3    3     -0.35      0.00
    3    5    5      3.61      0.00
    3    5    4     -3.08      0.00
   -3    5    8      1.45      0.00
   -3    5   10      0.59      0.00
   -3    5   11      0.09      0.00
   -3    7    9     -1.53      0.00
   -3    7   10      0.22      0.00
   -3    9    9     -0.88      0.00
    4   12    2      0.30      0.00
    4   12    1     -0.33      0.00
    4   12    0      0.05      0.00
   -4   12    1      0.47      0.00
   -4   12    2     -0.94      0.00
   -4   12    3      1.04      0.00
   -4   12    4     -0.64      0.00
   -4   12    5     -0.05      0.00
   -4   12    6      0.68      0.00
    4   10    5      0.73      0.00
    4   10    4     -0.52      0.00
    4   10    3     -0.24      0.00
    4   10    2      1.22      0.00
    4   10    1     -1.78      0.00
    4   10    0      1.50      0.00
   -4   10    1     -0.49      0.00
   -4   10    2     -0.71      0.00
   -4   10    3      1.56      0.00
   -4   10    4     -1.75      0.00
   -4   10    5      1.23      0.00
   -4   10    6     -0.26      0.00
   -4   10    7     -0.62      0.00
   -4   10    8      0.94      0.00
    4    8    6     -1.09      0.00
    4    8    5      2.31      0.00
    4    8    4     -2.69      0.00
    4    8    3      1.57      0.00
    4    8    2      0.60      0.00
    4    8    1     -2.52      0.00
    4    8    0      3.02      0.00
   -4    8    1     -1.84      0.00
   -4    8    2     -0.33      0.00
   -4    8    3      2.37      0.00
   -4    8    4     -3.27      0.00
   -4    8    5      2.60      0.00
   -4    8    6     -0.78      0.00
   -4    8    7     -1.06      0.00
   -4    8    8      1.79      0.00
   -4    8    9     -1.13      0.00
    4    6    7      0.57      0.00
    4    6    6     -1.82      0.00
    4    6    5      3.12      0.00
    4    6    4     -3.08      0.00
    4    6    3      0.85      0.00
    4    6    2      2.83      0.00
    4    6    1     -5.92      0.00
    4    6    0      6.42      0.00
   -4    6    1     -3.80      0.00
   -4    6    2     -0.73      0.00
   -4    6    3      4.94      0.00
   -4    6    4     -6.84      0.00
   -4    6    5      5.73      0.00
   -4    6    6     -2.60      0.00
   -4    6    7     -0.58      0.00
   -4    6    8      2.08      0.00
    4    4    8     -0.40      0.00
    4    4    7      1.12      0.00
    4    4    6     -2.39      0.00
    4    4    5      3.28      0.00
    4    4    4     -2.46      0.00
    4    4    2      5.36      0.00
    4    4    1     -9.04      0.00
    4    4    0      9.34      0.00
   -4    4    1     -5.47      0.00
   -4    4    2     -0.91      0.00
   -4    4    3      6.66      0.00
   -4    4    4     -9.07      0.00
   -4    4    5      7.52      0.00
   -4    4    6     -3.58      0.00
   -4    4    7     -0.28      0.00
   -4    4    9     -2.32      0.00
   -4    4   10      1.25      0.00
   -4    4   12     -0.17      0.00
    4    2    8      0.28      0.00
    4    2    7      1.12      0.00
    4    2    6     -3.12      0.00
    4    2    5      4.40      0.00
    4    2    4     -3.37      0.00
    4    2    3     -0.74      0.00
    4    2    2      6.82      0.00
    4    2    1    -11.81      0.00
    4    2    0     12.29      0.00
   -4    2    1     -6.91      0.00
   -4    2    2     -2.16      0.00
   -4    2    3     10.28      0.00
   -4    2    4    -13.43      0.00
   -4    2    5     10.82      0.00
   -4    2    6     -4.92      0.00
   -4    2    7     -0.73      0.00
   -4    2    8      3.83      0.00
   -4    2    9     -4.17      0.00
   -4    2   10      2.84      0.00
   -4    2   11     -1.16      0.00
   -4    2   12      0.02      0.00
    4    0    9     -1.03      0.00
    4    0    8      0.57      0.00
    4    0    7      1.18      0.00
    4    0    6     -3.66      0.00
    4    0    5      5.26      0.00
    4    0    4     -4.07      0.00
    4    0    3     -0.83      0.00
    4    0    2      8.11      0.00
    4    0    1    -14.11      0.00
    4    0    0     14.62      0.00
   -4    0    1     -7.89      0.00
   -4    0    2     -3.45      0.00
   -4    0    3     13.63      0.00
   -4    0    4    -17.60      0.00
   -4    0    5     14.28      0.00
   -4    0    6     -6.72      0.00
   -4    0    7     -0.59      0.00
   -4    0    8      4.74      0.00
   -4    0    9     -5.34      0.00
   -4    0   10      3.67      0.00
   -4    0   11     -1.44      0.00
   -4    0   12     -0.10      0.00
    4    4    3     -0.74      0.00
   -4    4    8      2.31      0.00
   -4    4   11     -0.23      0.00
   -4    6    9     -1.56      0.00
   -4    6   10      0.05      0.00
   -4    6   11      1.02      0.00
   -4    8   10     -0.15      0.00
    5   11    3     -0.40      0.00
    5   11    2      0.80      0.00
    5   11    1     -0.89      0.00
    5   11    0      0.43      0.00
   -5   11    1      0.44      0.00
   -5   11    2     -1.28      0.00
   -5   11    3      1.66      0.00
   -5   11    4     -1.41      0.00
   -5   11    5      0.68      0.00
   -5   11    6      0.19      0.00
   -5   11    7     -0.81      0.00
    5    9    5      1.15      0.00
    5    9    4     -1.33      0.00
    5    9    3      0.64      0.00
    5    9    2      0.66      0.00
    5    9    1     -1.73      0.00
    5    9    0      1.82      0.00
   -5    9    1     -0.87      0.00
   -5    9    2     -0.55      0.00
   -5    9    3      1.72      0.00
   -5    9    4     -2.12      0.00
   -5    9    5      1.57      0.00
   -5    9    6     -0.33      0.00
   -5    9    7     -0.91      0.00
   -5    9    8      1.40      0.00
   -5    9    9     -0.90      0.00
   -5    9   10     -0.09      0.00
    5    7    6     -1.19      0.00
    5    7    5      2.42      0.00
    5    7    4     -2.79      0.00
    5    7    3      1.50      0.00
    5    7    2      1.00      0.00
    5    7    1     -3.21      0.00
    5    7    0      3.68      0.00
   -5    7    1     -2.00      0.00
   -5    7    2     -0.93      0.00
   -5    7    3      3.59      0.00
   -5    7    4     -4.68      0.00
   -5    7    5      3.72      0.00
   -5    7    6     -1.32      0.00
   -5    7    7     -1.08      0.00
   -5    7    8      2.07      0.00
   -5    7    9     -1.25      0.00
    5    5    7      0.78      0.00
    5    5    6     -1.72      0.00
    5    5    5      2.56      0.00
    5    5    4     -2.12      0.00
    5    5    3     -0.23      0.00
    5    5    2      3.73      0.00
    5    5    1     -6.41      0.00
    5    5    0      6.40      0.00
   -5    5    1     -3.22      0.00
   -5    5    2     -1.72      0.00
   -5    5    3      6.00      0.00
   -5    5    4     -7.60      0.00
   -5    5    5      6.00      0.00
   -5    5    6     -2.44      0.00
   -5    5    7     -0.98      0.00
   -5    5    8      2.59      0.00
   -5    5    9     -2.09      0.00
   -5    5   10      0.50      0.00
    5    3    8      0.01      0.00
    5    3    7      0.80      0.00
    5    3    6     -2.09      0.00
    5    3    5      2.90      0.00
    5    3    4     -2.01      0.00
    5    3    3     -1.10      0.00
    5    3    2      5.43      0.00
    5    3    1     -8.73      0.00
    5    3    0      8.64      0.00
   -5    3    1     -4.44      0.00
   -5    3    2     -2.13      0.00
   -5    3    3      7.75      0.00
   -5    3    4     -9.60      0.00
   -5    3    5      7.21      0.00
   -5    3    6     -2.49      0.00
   -5    3    7     -1.79      0.00
   -5    3    8      3.81      0.00
   -5    3    9     -3.50      0.00
   -5    3   10      1.94      0.00
   -5    3   11     -0.41      0.00
   -5    3   12     -0.41      0.00
    5    1    8      0.60      0.00
    5    1    7      0.62      0.00
    5    1    6     -2.47      0.00
    5    1    5      3.61      0.00
    5    1    4     -2.50      0.00
    5    1    3     -1.43      0.00
    5    1    2      6.96      0.00
    5    1    1    -11.17      0.00
    5    1    0     10.93      0.00
   -5    1    1     -5.09      0.00
   -5    1    2     -4.13      0.00
   -5    1    3     12.08      0.00
   -5    1    4    -14.69      0.00
   -5    1    5     11.20      0.00
   -5    1    6     -4.36      0.00
   -5    1    7     -1.91      0.00
   -5    1    8      5.08      0.00
   -5    1    9     -4.97      0.00
   -5    1   10      2.96      0.00
   -5    1   11     -0.69      0.00
   -5    1   12     -0.71      0.00
   -5    1   13      0.93      0.00
   -5    5   11      0.78      0.00
   -5    5   12     -1.05      0.00
   -5    7   10     -0.46      0.00
   -5    7   11      1.68      0.00
   -6   12    1      0.85      0.00
   -6   12    2     -1.20      0.00
   -6   12    3      1.18      0.00
   -6   12    4     -0.74      0.00
   -6   12    5      0.07      0.00
    6   10    3      0.05      0.00
    6   10    2      0.60      0.00
    6   10    1     -1.02      0.00
    6   10    0      0.76      0.00
   -6   10    1      0.13      0.00
   -6   10    2     -1.17      0.00
   -6   10    3      1.81      0.00
   -6   10    4     -1.76      0.00
   -6   10    5      1.08      0.00
   -6   10    6     -0.03      0.00
   -6   10    7     -0.91      0.00
   -6   10    8      1.30      0.00
   -6   10    9     -0.98      0.00
    6    8    5      1.50      0.00
    6    8    4     -1.88      0.00
    6    8    3      1.19      0.00
    6    8    2      0.38      0.00
    6    8    1     -1.84      0.00
    6    8    0      2.18      0.00
   -6    8    1     -1.14      0.00
   -6    8    2     -0.63      0.00
   -6    8    3      2.17      0.00
   -6    8    4     -2.71      0.00
   -6    8    5      2.03      0.00
   -6    8    6     -0.47      0.00
   -6    8    7     -1.11      0.00
   -6    8    8      1.74      0.00
   -6    8    9     -1.05      0.00
   -6    8   10     -0.36      0.00
    6    6    6     -1.03      0.00
    6    6    5      1.86      0.00
    6    6    4     -1.87      0.00
    6    6    3      0.42      0.00
    6    6    2      2.02      0.00
    6    6    1     -3.94      0.00
    6    6    0      3.89      0.00
   -6    6    1     -1.56      0.00
   -6    6    2     -1.97      0.00
   -6    6    3      4.91      0.00
   -6    6    4     -5.84      0.00
   -6    6    5      4.42      0.00
   -6    6    6     -1.52      0.00
   -6    6    7     -1.23      0.00
   -6    6    8      2.40      0.00
   -6    6    9     -1.60      0.00
   -6    6   10     -0.23      0.00
   -6    6   11      1.67      0.00
    6    4    7      0.55      0.00
    6    4    6     -1.38      0.00
    6    4    5      1.99      0.00
    6    4    4     -1.37      0.00
    6    4    3     -0.92      0.00
    6    4    2      4.08      0.00
    6    4    1     -6.32      0.00
    6    4    0      5.93      0.00
   -6    4    1     -2.55      0.00
   -6    4    2     -2.38      0.00
   -6    4    3      6.36      0.00
   -6    4    4     -7.41      0.00
   -6    4    5      5.24      0.00
   -6    4    6     -1.32      0.00
   -6    4    7     -2.12      0.00
   -6    4    8      3.54      0.00
   -6    4    9     -2.82      0.00
   -6    4   10      1.02      0.00
   -6    4   11      0.50      0.00
    6    2    7      0.42      0.00
    6    2    6     -1.75      0.00
    6    2    5      2.57      0.00
    6    2    4     -1.67      0.00
    6    2    3     -1.34      0.00
    6    2    2      5.43      0.00
    6    2    1     -8.35      0.00
    6    2    0      7.92      0.00
   -6    2    1     -3.49      0.00
   -6    2    2     -3.17      0.00
   -6    2    3      8.67      0.00
   -6    2    4    -10.08      0.00
   -6    2    5      6.97      0.00
   -6    2    6     -1.53      0.00
   -6    2    7     -3.11      0.00
   -6    2    8      5.01      0.00
   -6    2    9     -4.18      0.00
   -6    2   10      1.97      0.00
   -6    2   12     -1.21      0.00
   -6    2   13      1.23      0.00
    6    0    7      0.33      0.00
    6    0    6     -1.88      0.00
    6    0    5      2.80      0.00
    6    0    4     -1.72      0.00
    6    0    3     -1.75      0.00
    6    0    2      6.41      0.00
    6    0    1     -9.69      0.00
    6    0    0      9.02      0.00
   -6    0    1     -3.58      0.00
   -6    0    2     -4.57      0.00
   -6    0    3     11.34      0.00
   -6    0    4    -13.15      0.00
   -6    0    5      9.38      0.00
   -6    0    6     -2.68      0.00
   -6    0    7     -3.17      0.00
   -6    0    8      5.72      0.00
   -6    0    9     -4.94      0.00
   -6    0   10      2.38      0.00
   -6    0   11      0.17      0.00
   -6    0   12     -1.60      0.00
   -6    0   13      1.67      0.00
   -6    2   11      0.12      0.00
   -6    4   12     -1.03      0.00
   -6    6   12     -1.87      0.00
    7   11    0     -0.20      0.00
   -7   11    1      0.83      0.00
   -7   11    2     -1.45      0.00
   -7   11    3      1.66      0.00
   -7   11    4     -1.31      0.00
   -7   11    5      0.56      0.00
   -7   11    6      0.30      0.00
   -7   11    7     -0.94      0.00
    7    9    3      0.60      0.00
    7    9    2      0.30      0.00
    7    9    1     -1.11      0.00
    7    9    0      1.18      0.00
   -7    9    1     -0.36      0.00
   -7    9    2     -0.84      0.00
   -7    9    3      1.73      0.00
   -7    9    4     -1.88      0.00
   -7    9    5      1.25      0.00
   -7    9    6     -0.12      0.00
   -7    9    7     -1.01      0.00
   -7    9    8      1.55      0.00
   -7    9    9     -1.20      0.00
   -7    9   10      0.29      0.00
    7    7    4     -1.40      0.00
    7    7    3      0.59      0.00
    7    7    2      1.00      0.00
    7    7    1     -2.37      0.00
    7    7    0      2.42      0.00
   -7    7    1     -0.93      0.00
   -7    7    2     -1.34      0.00
   -7    7    3      3.15      0.00
   -7    7    4     -3.64      0.00
   -7    7    5      2.63      0.00
   -7    7    6     -0.68      0.00
   -7    7    7     -1.17      0.00
   -7    7    8      1.90      0.00
   -7    7    9     -1.15      0.00
   -7    7   10     -0.44      0.00
   -7    7   11      1.70      0.00
    7    5    5      1.16      0.00
    7    5    4     -0.86      0.00
    7    5    3     -0.64      0.00
    7    5    2      2.83      0.00
    7    5    1     -4.31      0.00
    7    5    0      3.77      0.00
   -7    5    1     -1.04      0.00
   -7    5    2     -2.69      0.00
   -7    5    3      5.53      0.00
   -7    5    4     -6.06      0.00
   -7    5    5      4.15      0.00
   -7    5    6     -0.92      0.00
   -7    5    7     -1.87      0.00
   -7    5    8      2.92      0.00
   -7    5    9     -2.04      0.00
   -7    5   10      0.18      0.00
   -7    5   11      1.31      0.00
    7    3    6     -1.21      0.00
    7    3    5      1.86      0.00
    7    3    4     -1.27      0.00
    7    3    3     -0.92      0.00
    7    3    2      3.89      0.00
    7    3    1     -5.93      0.00
    7    3    0      5.45      0.00
   -7    3    1     -2.11      0.00
   -7    3    2     -2.66      0.00
   -7    3    3      6.37      0.00
   -7    3    4     -7.01      0.00
   -7    3    5      4.36      0.00
   -7    3    6     -0.12      0.00
   -7    3    7     -3.31      0.00
   -7    3    8      4.40      0.00
   -7    3    9     -3.21      0.00
   -7    3   10      1.01      0.00
   -7    3   11      0.82      0.00
   -7    3   12     -1.53      0.00
   -7    3   13      1.26      0.00
    7    1    6     -1.55      0.00
    7    1    5      2.38      0.00
    7    1    4     -1.57      0.00
    7    1    3     -1.20      0.00
    7    1    2      4.87      0.00
    7    1    1     -7.36      0.00
    7    1    0      6.70      0.00
   -7    1    1     -2.41      0.00
   -7    1    2     -3.83      0.00
   -7    1    3      8.81      0.00
   -7    1    4     -9.74      0.00
   -7    1    5      6.22      0.00
   -7    1    6     -0.50      0.00
   -7    1    7     -4.18      0.00
   -7    1    8      5.78      0.00
   -7    1    9     -4.40      0.00
   -7    1   10      1.63      0.00
   -7    1   11      0.84      0.00
   -7    1   12     -2.04      0.00
   -7    1   13      1.94      0.00
   -7    5   12     -1.64      0.00
    8   10    1     -0.43      0.00
    8   10    0      0.28      0.00
   -8   10    1      0.41      0.00
   -8   10    2     -1.27      0.00
   -8   10    3      1.76      0.00
   -8   10    4     -1.61      0.00
   -8   10    5      0.91      0.00
   -8   10    6      0.04      0.00
   -8   10    7     -0.90      0.00
   -8   10    8      1.35      0.00
   -8   10    9     -1.21      0.00
    8    8    3      0.44      0.00
    8    8    2      0.56      0.00
    8    8    1     -1.48      0.00
    8    8    0      1.55      0.00
   -8    8    1     -0.56      0.00
   -8    8    2     -0.90      0.00
   -8    8    3      2.00      0.00
   -8    8    4     -2.20      0.00
   -8    8    5      1.49      0.00
   -8    8    6     -0.26      0.00
   -8    8    7     -0.90      0.00
   -8    8    8      1.42      0.00
   -8    8    9     -1.00      0.00
   -8    8   10     -0.03      0.00
   -8    8   11      0.91      0.00
    8    6    4     -0.48      0.00
    8    6    3     -0.42      0.00
    8    6    2      1.86      0.00
    8    6    1     -2.86      0.00
    8    6    0      2.43      0.00
   -8    6    1     -0.46      0.00
   -8    6    2     -2.15      0.00
   -8    6    3      4.02      0.00
   -8    6    4     -4.20      0.00
   -8    6    5      2.72      0.00
   -8    6    6     -0.42      0.00
   -8    6    7     -1.53      0.00
   -8    6    8      2.18      0.00
   -8    6    9     -1.36      0.00
   -8    6   10     -0.24      0.00
   -8    6   11      1.50      0.00
   -8    6   12     -1.69      0.00
    8    4    5      1.01      0.00
    8    4    4     -0.66      0.00
    8    4    3     -0.81      0.00
    8    4    2      2.87      0.00
    8    4    1     -4.20      0.00
    8    4    0      3.61      0.00
   -8    4    1     -0.91      0.00
   -8    4    2     -2.68      0.00
   -8    4    3      5.30      0.00
   -8    4    4     -5.50      0.00
   -8    4    5      3.24      0.00
   -8    4    6      0.15      0.00
   -8    4    7     -2.80      0.00
   -8    4    8      3.50      0.00
   -8    4    9     -2.29      0.00
   -8    4   10      0.26      0.00
   -8    4   11      1.30      0.00
   -8    4   12     -1.70      0.00
    8    2    5      1.93      0.00
    8    2    4     -1.49      0.00
    8    2    3     -0.50      0.00
    8    2    2      3.25      0.00
    8    2    1     -5.12      0.00
    8    2    0      4.62      0.00
   -8    2    1     -1.45      0.00
   -8    2    2     -3.04      0.00
   -8    2    3      6.46      0.00
   -8    2    4     -6.79      0.00
   -8    2    5      3.80      0.00
   -8    2    6      0.72      0.00
   -8    2    7     -4.21      0.00
   -8    2    8      5.05      0.00
   -8    2    9     -3.43      0.00
   -8    2   10      0.80      0.00
   -8    2   11      1.28      0.00
   -8    2   12     -2.07      0.00
   -8    2   13      1.73      0.00
    8    0    6     -1.31      0.00
    8    0    5      2.16      0.00
    8    0    4     -1.63      0.00
    8    0    3     -0.61      0.00
    8    0    2      3.61      0.00
    8    0    1     -5.57      0.00
    8    0    0      4.87      0.00
   -8    0    1     -1.18      0.00
   -8    0    2     -4.00      0.00
   -8    0    3      7.96      0.00
   -8    0    4     -8.33      0.00
   -8    0    5      4.79      0.00
   -8    0    6      0.60      0.00
   -8    0    7     -4.85      0.00
   -8    0    8      6.02      0.00
   -8    0    9     -4.30      0.00
   -8    0   10      1.32      0.00
   -8    0   11      1.15      0.00
   -8    0   12     -2.24      0.00
   -8    0   13      2.00      0.00
   -8    4   13      1.16      0.00
   -9   11    3      1.14      0.00
   -9   11    4     -0.92      0.00
   -9   11    5      0.38      0.00
   -9   11    6      0.22      0.00
    9    9    1     -0.86      0.00
    9    9    0      0.82      0.00
   -9    9    1     -0.05      0.00
   -9    9    2     -1.03      0.00
   -9    9    3      1.77      0.00
   -9    9    4     -1.78      0.00
   -9    9    5      1.15      0.00
   -9    9    6     -0.23      0.00
   -9    9    7     -0.59      0.00
   -9    9    8      1.02      0.00
   -9    9    9     -0.89      0.00
   -9    9   10      0.33      0.00
    9    7    3     -0.17      0.00
    9    7    2      1.09      0.00
    9    7    1     -1.81      0.00
    9    7    0      1.61      0.00
   -9    7    1     -0.33      0.00
   -9    7    2     -1.38      0.00
   -9    7    3      2.52      0.00
   -9    7    4     -2.52      0.00
   -9    7    5      1.49      0.00
   -9    7    6     -0.06      0.00
   -9    7    7     -1.08      0.00
   -9    7    8      1.41      0.00
   -9    7    9     -0.85      0.00
   -9    7   10     -0.21      0.00
   -9    7   11      1.04      0.00
    9    5    4     -0.13      0.00
    9    5    3     -0.78      0.00
    9    5    2      2.11      0.00
    9    5    1     -2.94      0.00
    9    5    0      2.37      0.00
   -9    5    1     -0.29      0.00
   -9    5    2     -2.35      0.00
   -9    5    3      4.12      0.00
   -9    5    4     -4.01      0.00
   -9    5    5      2.15      0.00
   -9    5    6      0.41      0.00
   -9    5    7     -2.32      0.00
   -9    5    8      2.72      0.00
   -9    5    9     -1.66      0.00
   -9    5   10     -0.01      0.00
   -9    5   11      1.24      0.00
   -9    5   12     -1.45      0.00
    9    3    4     -0.90      0.00
    9    3    3     -0.44      0.00
    9    3    2      2.40      0.00
    9    3    1     -3.74      0.00
    9    3    0      3.29      0.00
   -9    3    1     -0.85      0.00
   -9    3    2     -2.51      0.00
   -9    3    3      4.94      0.00
   -9    3    4     -4.99      0.00
   -9    3    5      2.55      0.00
   -9    3    6      0.96      0.00
   -9    3    7     -3.55      0.00
   -9    3    8      3.97      0.00
   -9    3    9     -2.40      0.00
   -9    3   10      0.11      0.00
   -9    3   11      1.53      0.00
   -9    3   12     -1.93      0.00
   -9    3   13      1.36      0.00
    9    1    4     -1.35      0.00
    9    1    3     -0.25      0.00
    9    1    2      2.51      0.00
    9    1    1     -3.98      0.00
    9    1    0      3.37      0.00
   -9    1    1     -0.47      0.00
   -9    1    2     -3.51      0.00
   -9    1    3      6.43      0.00
   -9    1    4     -6.44      0.00
   -9    1    5      3.33      0.00
   -9    1    6      1.23      0.00
   -9    1    7     -4.68      0.00
   -9    1    8      5.39      0.00
   -9    1    9     -3.57      0.00
   -9    1   10      0.78      0.00
   -9    1   11      1.34      0.00
   -9    1   12     -2.06      0.00
   -9    1   13      1.62      0.00
    9    1    5      1.58      0.00
  -10   10    2     -0.87      0.00
  -10   10    3      1.36      0.00
  -10   10    4     -1.29      0.00
  -10   10    5      0.76      0.00
  -10   10    6     -0.10      0.00
  -10   10    7     -0.42      0.00
   10    8    1     -1.08      0.00
   10    8    0      1.00      0.00
  -10    8    1     -0.14      0.00
  -10    8    2     -1.06      0.00
  -10    8    3      1.84      0.00
  -10    8    4     -1.78      0.00
  -10    8    5      1.03      0.00
  -10    8    6     -0.11      0.00
  -10    8    7     -0.54      0.00
  -10    8    8      0.72      0.00
  -10    8    9     -0.44      0.00
  -10    8   10     -0.11      0.00
   10    6    2      1.24      0.00
   10    6    1     -1.78      0.00
   10    6    0      1.42      0.00
  -10    6    1     -0.02      0.00
  -10    6    2     -1.75      0.00
  -10    6    3      2.80      0.00
  -10    6    4     -2.50      0.00
  -10    6    5      1.06      0.00
  -10    6    6      0.68      0.00
  -10    6    7     -1.82      0.00
  -10    6    8      1.94      0.00
  -10    6    9     -1.16      0.00
  -10    6   10      0.04      0.00
  -10    6   11      0.74      0.00
  -10    6   12     -0.83      0.00
   10    4    3     -0.58      0.00
   10    4    2      1.86      0.00
   10    4    1     -2.74      0.00
   10    4    0      2.32      0.00
  -10    4    1     -0.42      0.00
  -10    4    2     -2.11      0.00
  -10    4    3      3.83      0.00
  -10    4    4     -3.66      0.00
  -10    4    5      1.64      0.00
  -10    4    6      1.09      0.00
  -10    4    7     -2.99      0.00
  -10    4    8      3.16      0.00
  -10    4    9     -1.82      0.00
  -10    4   10     -0.01      0.00
  -10    4   11      1.25      0.00
  -10    4   12     -1.42      0.00
  -10    4   13      0.83      0.00
   10    2    4     -0.68      0.00
   10    2    3     -0.42      0.00
   10    2    2      2.09      0.00
   10    2    1     -3.21      0.00
   10    2    0      2.74      0.00
  -10    2    1     -0.49      0.00
  -10    2    2     -2.58      0.00
  -10    2    3      4.79      0.00
  -10    2    4     -4.73      0.00
  -10    2    5      2.25      0.00
  -10    2    6      1.30      0.00
  -10    2    7     -3.89      0.00
  -10    2    8      4.20      0.00
  -10    2    9     -2.45      0.00
  -10    2   10      0.03      0.00
  -10    2   11      1.63      0.00
  -10    2   12     -1.95      0.00
  -10    2   13      1.28      0.00
   10    0    4     -0.67      0.00
   10    0    3     -0.49      0.00
   10    0    2      2.18      0.00
   10    0    1     -3.20      0.00
   10    0    0      2.50      0.00
  -10    0    1      0.02      0.00
  -10    0    2     -3.33      0.00
  -10    0    3      5.64      0.00
  -10    0    4     -5.46      0.00
  -10    0    5      2.59      0.00
  -10    0    6      1.50      0.00
  -10    0    7     -4.54      0.00
  -10    0    8      5.04      0.00
  -10    0    9     -3.19      0.00
  -10    0   10      0.52      0.00
  -10    0   11      1.38      0.00
  -10    0   12     -1.87      0.00
  -10    0   13      1.27      0.00
  -11    9    2     -0.81      0.00
  -11    9    3      1.39      0.00
  -11    9    4     -1.32      0.00
  -11    9    5      0.74      0.00
  -11    9    6     -0.08      0.00
  -11    9    7     -0.32      0.00
  -11    9    8      0.39      0.00
   11    7    0      0.76      0.00
  -11    7    1      0.09      0.00
  -11    7    2     -1.24      0.00
  -11    7    3      1.89      0.00
  -11    7    4     -1.58      0.00
  -11    7    5      0.53      0.00
  -11    7    6      0.58      0.00
  -11    7    7     -1.16      0.00
  -11    7    8      1.09      0.00
  -11    7    9     -0.60      0.00
  -11    7   10      0.02      0.00
  -11    7   11      0.36      0.00
   11    5    2      1.04      0.00
   11    5    1     -1.55      0.00
   11    5    0      1.25      0.00
  -11    5    1      0.08      0.00
  -11    5    2     -1.83      0.00
  -11    5    3      2.90      0.00
  -11    5    4     -2.52      0.00
  -11    5    5      0.83      0.00
  -11    5    6      1.20      0.00
  -11    5    7     -2.49      0.00
  -11    5    8      2.50      0.00
  -11    5    9     -1.52      0.00
  -11    5   10      0.28      0.00
  -11    5   11      0.50      0.00
  -11    5   12     -0.57      0.00
   11    3    2      1.71      0.00
   11    3    1     -2.54      0.00
   11    3    0      2.19      0.00
  -11    3    1     -0.45      0.00
  -11    3    2     -1.94      0.00
  -11    3    3      3.64      0.00
  -11    3    4     -3.54      0.00
  -11    3    5      1.56      0.00
  -11    3    6      1.20      0.00
  -11    3    7     -3.13      0.00
  -11    3    8      3.20      0.00
  -11    3    9     -1.67      0.00
  -11    3   10     -0.31      0.00
  -11    3   11      1.54      0.00
  -11    3   12     -1.60      0.00
  -11    3   13      0.90      0.00
   11    1    3     -0.87      0.00
   11    1    2      2.15      0.00
   11    1    1     -2.90      0.00
   11    1    0      2.30      0.00
  -11    1    1     -0.26      0.00
  -11    1    2     -2.39      0.00
  -11    1    3      4.22      0.00
  -11    1    4     -4.04      0.00
  -11    1    5      1.72      0.00
  -11    1    6      1.55      0.00
  -11    1    7     -3.90      0.00
  -11    1    8      4.05      0.00
  -11    1    9     -2.22      0.00
  -11    1   10     -0.20      0.00
  -11    1   11      1.76      0.00
  -11    1   12     -1.94      0.00
  -11    1   13      1.17      0.00
  -12    8    2     -0.76      0.00
  -12    8    3      1.23      0.00
  -12    8    4     -1.01      0.00
  -12    8    5      0.26      0.00
  -12    8    6      0.47      0.00
  -12    8    7     -0.76      0.00
  -12    8    8      0.60      0.00
  -12    8    9     -0.25      0.00
   12    6    0      0.46      0.00
  -12    6    1      0.31      0.00
  -12    6    2     -1.40      0.00
  -12    6    3      2.02      0.00
  -12    6    4     -1.60      0.00
  -12    6    5      0.32      0.00
  -12    6    6      1.07      0.00
  -12    6    7     -1.80      0.00
  -12    6    8      1.69      0.00
  -12    6    9     -1.06      0.00
  -12    6   10      0.42      0.00
  -12    6   11     -0.08      0.00
   12    4    1     -1.41      0.00
   12    4    0      1.16      0.00
  -12    4    1      0.09      0.00
  -12    4    2     -1.83      0.00
  -12    4    3      3.03      0.00
  -12    4    4     -2.80      0.00
  -12    4    5      1.14      0.00
  -12    4    6      1.03      0.00
  -12    4    7     -2.48      0.00
  -12    4    8      2.50      0.00
  -12    4    9     -1.35      0.00
  -12    4   10     -0.05      0.00
  -12    4   11      0.85      0.00
  -12    4   12     -0.82      0.00
   12    2    1     -2.33      0.00
   12    2    0      1.92      0.00
  -12    2    1     -0.35      0.00
  -12    2    2     -1.74      0.00
  -12    2    3      3.19      0.00
  -12    2    4     -3.06      0.00
  -12    2    5      1.23      0.00
  -12    2    6      1.32      0.00
  -12    2    7     -3.07      0.00
  -12    2    8      3.00      0.00
  -12    2    9     -1.32      0.00
  -12    2   10     -0.76      0.00
  -12    2   11      1.99      0.00
  -12    2   12     -1.95      0.00
  -12    2   13      1.11      0.00
   12    0    1     -2.58      0.00
   12    0    0      2.02      0.00
  -12    0    1     -0.33      0.00
  -12    0    2     -1.75      0.00
  -12    0    3      3.10      0.00
  -12    0    4     -2.81      0.00
  -12    0    5      0.83      0.00
  -12    0    6      1.85      0.00
  -12    0    7     -3.66      0.00
  -12    0    8      3.52      0.00
  -12    0    9     -1.63      0.00
  -12    0   10     -0.70      0.00
  -12    0   11      2.12      0.00
  -12    0   12     -2.16      0.00
  -12    0   13      1.31      0.00
  -13    7    3      1.10      0.00
  -13    7    4     -0.82      0.00
  -13    7    5     -0.04      0.00
  -13    7    6      0.90      0.00
  -13    7    7     -1.23      0.00
  -13    7    8      1.01      0.00
  -13    7    9     -0.60      0.00
  -13    5    1      0.40      0.00
  -13    5    2     -1.52      0.00
  -13    5    3      2.28      0.00
  -13    5    4     -2.02      0.00
  -13    5    5      0.75      0.00
  -13    5    6      0.82      0.00
  -13    5    7     -1.78      0.00
  -13    5    8      1.76      0.00
  -13    5    9     -1.04      0.00
  -13    5   10      0.26      0.00
  -13    5   11      0.12      0.00
   13    3    0      0.99      0.00
  -13    3    1      0.15      0.00
  -13    3    2     -1.74      0.00
  -13    3    3      2.86      0.00
  -13    3    4     -2.71      0.00
  -13    3    5      1.21      0.00
  -13    3    6      0.85      0.00
  -13    3    7     -2.24      0.00
  -13    3    8      2.18      0.00
  -13    3    9     -0.87      0.00
  -13    3   10     -0.72      0.00
  -13    3   11      1.60      0.00
  -13    3   12     -1.47      0.00
   13    1    0      1.42      0.00
  -13    1    1     -0.17      0.00
  -13    1    2     -1.38      0.00
  -13    1    3      2.33      0.00
  -13    1    4     -1.99      0.00
  -13    1    5      0.35      0.00
  -13    1    6      1.77      0.00
  -13    1    7     -3.10      0.00
  -13    1    8      2.77      0.00
  -13    1    9     -1.00      0.00
  -13    1   10     -1.10      0.00
  -13    1   11      2.32      0.00
  -13    1   12     -2.25      0.00
  -13    1   13      1.39      0.00
  -14    6    4     -1.02      0.00
  -14    6    5      0.23      0.00
  -14    6    6      0.70      0.00
  -14    6    7     -1.17      0.00
  -14    6    8      1.04      0.00
  -14    6    9     -0.62      0.00
  -14    4    2     -1.49      0.00
  -14    4    3      2.30      0.00
  -14    4    4     -2.19      0.00
  -14    4    5      1.06      0.00
  -14    4    6      0.48      0.00
  -14    4    7     -1.51      0.00
  -14    4    8      1.50      0.00
  -14    4    9     -0.63      0.00
  -14    4   10     -0.38      0.00
  -14    4   11      0.90      0.00
  -14    2    1      0.32      0.00
  -14    2    2     -1.48      0.00
  -14    2    3      2.19      0.00
  -14    2    4     -1.88      0.00
  -14    2    5      0.53      0.00
  -14    2    6      1.20      0.00
  -14    2    7     -2.29      0.00
  -14    2    8      2.04      0.00
  -14    2    9     -0.60      0.00
  -14    2   10     -1.08      0.00
  -14    2   11      2.03      0.00
  -14    2   12     -1.90      0.00
  -14    0    1      0.21      0.00
  -14    0    2     -1.22      0.00
  -14    0    3      1.70      0.00
  -14    0    4     -1.18      0.00
  -14    0    5     -0.26      0.00
  -14    0    6      1.94      0.00
  -14    0    7     -2.89      0.00
  -14    0    8      2.44      0.00
  -14    0    9     -0.77      0.00
  -14    0   10     -1.15      0.00
  -14    0   11      2.25      0.00
  -14    0   12     -2.17      0.00
  -15    5    6      0.37      0.00
  -15    5    7     -0.94      0.00
  -15    5    8      0.87      0.00
  -15    5    9     -0.35      0.00
  -15    3    4     -1.61      0.00
  -15    3    5      0.62      0.00
  -15    3    6      0.69      0.00
  -15    3    7     -1.55      0.00
  -15    3    8      1.42      0.00
  -15    3    9     -0.42      0.00
  -15    3   10     -0.77      0.00
  -15    3   11      1.43      0.00
  -15    1    3      1.49      0.00
  -15    1    4     -1.01      0.00
  -15    1    5     -0.15      0.00
  -15    1    6      1.48      0.00
  -15    1    7     -2.22      0.00
  -15    1    8      1.88      0.00
  -15    1    9     -0.58      0.00
  -15    1   10     -0.94      0.00
  -15    1   11      1.81      0.00
  -16    2    6      0.93      0.00
  -16    2    7     -1.51      0.00
  -16    2    8      1.32      0.00
  -16    2    9     -0.43      0.00
  -16    0    5     -0.22      0.00
  -16    0    6      1.13      0.00
  -16    0    7     -1.65      0.00
  -16    0    8      1.42      0.00
  -16    0    9     -0.49      0.00
  -16    0   10     -0.62      0.00
   14    0    0      0.67      0.00
    1    1    0     26.94      0.00
   14    2    0      0.57      0.00
   14    4    0      0.29      0.00
   13    5    0      0.34      0.00
   13    7    0      0.23      0.00
   12    8    0      0.44      0.00
   11    9    0      0.60      0.00
   10   10    0      0.41      0.00
    9   11    0     -0.06      0.00
    6   12    0     -0.41      0.00
    8   12    0     -0.39      0.00
    5   13    0     -0.46      0.00
   -2    0    1    -17.74      0.00
    0    0    1    -25.15      0.00
   14    0    1     -0.91      0.00
  -15    1    1      0.52      0.00
   -1    1    1    -20.97      0.00
   13    1    1     -1.80      0.00
  -15    3    1      0.40      0.00
   13    3    1     -1.25      0.00
  -14    4    1      0.41      0.00
   13    5    1     -0.46      0.00
  -14    6    1      0.10      0.00
   12    6    1     -0.58      0.00
  -13    7    1      0.10      0.00
   11    7    1     -0.89      0.00
  -12    8    1      0.02      0.00
  -11    9    1     -0.04      0.00
   11    9    1     -0.62      0.00
  -10   10    1      0.12      0.00
   10   10    1     -0.48      0.00
   -9   11    1      0.45      0.00
    7   11    1     -0.12      0.00
    9   11    1     -0.07      0.00
   -8   12    1      0.60      0.00
    6   12    1      0.12      0.00
   -7   13    1      0.40      0.00
   -5   13    1      0.59      0.00
    3   13    1      0.29      0.00
    5   13    1      0.37      0.00
  -16    0    2     -0.93      0.00
   12    0    2      2.05      0.00
  -15    1    2     -1.21      0.00
   13    1    2      1.35      0.00
   12    2    2      1.71      0.00
  -15    3    2     -1.22      0.00
   13    3    2      0.83      0.00
   12    4    2      0.92      0.00
  -15    5    2     -0.63      0.00
  -14    6    2     -0.69      0.00
   12    6    2      0.31      0.00
  -13    7    2     -0.71      0.00
   11    7    2      0.51      0.00
   10    8    2      0.58      0.00
    9    9    2      0.36      0.00
  -12   10    2     -0.36      0.00
    8   10    2      0.12      0.00
  -11   11    2     -0.26      0.00
   -9   11    2     -0.93      0.00
    7   11    2      0.07      0.00
   -8   12    2     -0.79      0.00
    6   12    2     -0.03      0.00
   -7   13    2     -0.41      0.00
   -5   13    2     -0.66      0.00
    3   13    2     -0.37      0.00
    5   13    2     -0.29      0.00
  -16    0    3      1.04      0.00
   12    0    3     -1.07      0.00
  -16    2    3      1.07      0.00
   12    2    3     -0.77      0.00
  -15    3    3      1.78      0.00
   11    3    3     -0.56      0.00
  -16    4    3      0.82      0.00
  -15    5    3      1.16      0.00
   11    5    3     -0.36      0.00
  -14    6    3      1.16      0.00
   10    6    3     -0.45      0.00
  -14    8    3      0.41      0.00
   10    8    3     -0.05      0.00
  -13    9    3      0.62      0.00
    9    9    3      0.18      0.00
  -12   10    3      0.69      0.00
    8   10    3      0.26      0.00
  -11   11    3      0.49      0.00
    7   11    3      0.11      0.00
  -10   12    3      0.21      0.00
   -8   12    3      0.76      0.00
    4   12    3     -0.13      0.00
    6   12    3      0.03      0.00
   -7   13    3      0.28      0.00
   -5   13    3      0.52      0.00
    1   13    3      0.42      0.00
    3   13    3      0.34      0.00
  -16    0    4     -0.62      0.00
   11    1    4      0.01      0.00
  -16    2    4     -0.80      0.00
   11    3    4     -0.15      0.00
  -16    4    4     -0.81      0.00
   10    4    4     -0.25      0.00
  -15    5    4     -1.17      0.00
   10    6    4     -0.02      0.00
  -15    7    4     -0.27      0.00
    9    7    4     -0.33      0.00
  -14    8    4     -0.25      0.00
    8    8    4     -0.89      0.00
  -13    9    4     -0.48      0.00
    7    9    4     -0.99      0.00
  -12   10    4     -0.63      0.00
    6   10    4     -0.43      0.00
  -11   11    4     -0.45      0.00
    5   11    4      0.05      0.00
  -10   12    4     -0.12      0.00
   -8   12    4     -0.44      0.00
    2   12    4     -0.43      0.00
    4   12    4     -0.02      0.00
   -7   13    4     -0.01      0.00
   -5   13    4     -0.12      0.00
   -3   13    4      0.04      0.00
   -1   13    4      0.03      0.00
    1   13    4     -0.21      0.00
    3   13    4     -0.18      0.00
   10    0    5      0.77      0.00
  -16    2    5      0.01      0.00
   10    2    5      0.78      0.00
    9    3    5      1.13      0.00
  -16    4    5      0.28      0.00
  -15    5    5      0.53      0.00
    9    5    5      0.34      0.00
  -16    6    5      0.12      0.00
    8    6    5      0.58      0.00
  -15    7    5     -0.13      0.00
    7    7    5      1.20      0.00
  -14    8    5     -0.28      0.00
    8    8    5      0.73      0.00
  -13    9    5     -0.04      0.00
    7    9    5      0.79      0.00
  -12   10    5      0.24      0.00
    6   10    5      0.41      0.00
  -11   11    5      0.18      0.00
    3   11    5      0.65      0.00
    5   11    5      0.10      0.00
  -10   12    5     -0.06      0.00
   -8   12    5     -0.04      0.00
    2   12    5      0.45      0.00
   -7   13    5     -0.30      0.00
   -5   13    5     -0.36      0.00
   -3   13    5     -0.58      0.00
   -1   13    5     -0.51      0.00
    1   13    5     -0.09      0.00
    9    1    6     -0.81      0.00
    8    2    6     -1.17      0.00
    9    3    6     -0.61      0.00
  -16    4    6      0.49      0.00
    8    4    6     -0.60      0.00
    7    5    6     -0.69      0.00
  -16    6    6      0.26      0.00
    8    6    6     -0.28      0.00
  -15    7    6      0.58      0.00
    7    7    6     -0.55      0.00
  -14    8    6      0.79      0.00
    6    8    6     -0.64      0.00
  -13    9    6      0.54      0.00
    5    9    6     -0.51      0.00
  -12   10    6      0.17      0.00
    4   10    6     -0.54      0.00
  -11   11    6      0.11      0.00
    1   11    6     -1.15      0.00
    3   11    6     -0.67      0.00
  -10   12    6      0.22      0.00
   -8   12    6      0.46      0.00
   -6   12    6      0.53      0.00
   -2   12    6      0.62      0.00
    0   12    6     -0.04      0.00
    2   12    6     -0.39      0.00
   -7   13    6      0.48      0.00
   -5   13    6      0.66      0.00
   -3   13    6      0.93      0.00
   -1   13    6      0.78      0.00
    8    0    7      0.19      0.00
    7    1    7      0.28      0.00
    8    2    7      0.21      0.00
    7    3    7      0.31      0.00
  -16    4    7     -0.99      0.00
    7    5    7      0.21      0.00
  -16    6    7     -0.45      0.00
    6    6    7      0.31      0.00
  -15    7    7     -0.72      0.00
    5    7    7      0.18      0.00
  -14    8    7     -0.91      0.00
    4    8    7      0.06      0.00
  -13    9    7     -0.68      0.00
    3    9    7      0.47      0.00
  -12   10    7     -0.36      0.00
    2   10    7      1.06      0.00
  -11   11    7     -0.29      0.00
   -9   11    7     -0.69      0.00
   -1   11    7      0.15      0.00
    1   11    7      0.89      0.00
  -10   12    7     -0.30      0.00
   -8   12    7     -0.67      0.00
   -6   12    7     -0.80      0.00
   -4   12    7     -0.92      0.00
   -2   12    7     -0.80      0.00
    0   12    7     -0.09      0.00
   -5   13    7     -0.63      0.00
    6    0    8      0.59      0.00
    7    1    8      0.38      0.00
    6    2    8      0.36      0.00
  -16    4    8      0.88      0.00
    6    4    8     -0.14      0.00
    5    5    8     -0.40      0.00
  -16    6    8      0.31      0.00
    4    6    8     -0.16      0.00
  -15    7    8      0.52      0.00
    3    7    8      0.33      0.00
  -14    8    8      0.66      0.00
    4    8    8      0.28      0.00
  -13    9    8      0.50      0.00
    1    9    8     -0.26      0.00
    3    9    8     -0.11      0.00
  -12   10    8      0.33      0.00
  -10   10    8      0.67      0.00
    0   10    8     -0.50      0.00
    2   10    8     -0.69      0.00
  -11   11    8      0.34      0.00
   -9   11    8      0.88      0.00
   -7   11    8      1.13      0.00
   -5   11    8      0.91      0.00
   -3   11    8      0.69      0.00
   -1   11    8      0.04      0.00
   -8   12    8      0.62      0.00
   -6   12    8      0.67      0.00
   -4   12    8      0.72      0.00
   -2   12    8      0.64      0.00
    5    1    9     -0.75      0.00
    4    2    9     -0.68      0.00
    5    3    9     -0.15      0.00
  -16    4    9     -0.26      0.00
    4    4    9      0.26      0.00
    3    5    9      0.29      0.00
  -16    6    9     -0.04      0.00
    4    6    9      0.34      0.00
  -15    7    9     -0.24      0.00
    3    7    9     -0.04      0.00
  -14    8    9     -0.35      0.00
    2    8    9     -0.13      0.00
  -13    9    9     -0.22      0.00
  -11    9    9     -0.21      0.00
   -1    9    9     -0.52      0.00
    1    9    9      0.15      0.00
  -12   10    9     -0.18      0.00
  -10   10    9     -0.60      0.00
   -4   10    9     -0.63      0.00
   -2   10    9     -0.40      0.00
    0   10    9      0.24      0.00
   -9   11    9     -0.76      0.00
   -7   11    9     -0.87      0.00
   -5   11    9     -0.54      0.00
   -3   11    9     -0.42      0.00
    4    0   10      0.62      0.00
    3    1   10      0.83      0.00
  -16    2   10     -0.65      0.00
    4    2   10      0.45      0.00
    3    3   10      0.35      0.00
  -16    4   10     -0.44      0.00
    2    4   10      0.20      0.00
  -15    5   10     -0.16      0.00
    1    5   10      0.25      0.00
    3    5   10     -0.44      0.00
  -16    6   10     -0.12      0.00
  -14    6   10      0.29      0.00
    2    6   10     -0.25      0.00
  -15    7   10      0.15      0.00
  -13    7   10      0.31      0.00
    1    7   10      0.08      0.00
  -14    8   10      0.20      0.00
  -12    8   10     -0.06      0.00
   -2    8   10      0.49      0.00
    0    8   10      0.26      0.00
  -13    9   10      0.02      0.00
  -11    9   10     -0.10      0.00
   -3    9   10      0.23      0.00
   -1    9   10      0.29      0.00
  -10   10   10      0.28      0.00
   -8   10   10      0.66      0.00
   -6   10   10      0.29      0.00
   -4   10   10      0.09      0.00
   -7   11   10      0.38      0.00
  -16    0   11      1.26      0.00
    2    0   11     -0.43      0.00
    1    1   11     -0.53      0.00
  -16    2   11      1.26      0.00
    2    2   11     -0.55      0.00
    1    3   11     -0.66      0.00
  -16    4   11      0.82      0.00
    0    4   11     -0.63      0.00
  -15    5   11      0.37      0.00
   -1    5   11     -0.41      0.00
    1    5   11     -0.16      0.00
  -14    6   11     -0.22      0.00
   -2    6   11      0.03      0.00
    0    6   11     -0.15      0.00
  -13    7   11     -0.23      0.00
   -3    7   11      0.61      0.00
   -1    7   11     -0.11      0.00
  -12    8   11      0.24      0.00
  -10    8   11      0.58      0.00
   -6    8   11      1.42      0.00
   -4    8   11      0.97      0.00
   -2    8   11      0.00      0.00
  -11    9   11      0.39      0.00
   -9    9   11      0.21      0.00
   -7    9   11      0.48      0.00
   -5    9   11      0.75      0.00
   -3    9   11      0.13      0.00
   -8   10   11     -0.14      0.00
   -6   10   11      0.22      0.00
  -16    0   12     -1.15      0.00
    0    0   12     -0.16      0.00
  -15    1   12     -1.71      0.00
   -1    1   12     -0.01      0.00
  -16    2   12     -1.16      0.00
    0    2   12      0.19      0.00
  -15    3   12     -1.32      0.00
   -1    3   12      0.41      0.00
  -16    4   12     -0.77      0.00
  -14    4   12     -0.80      0.00
   -2    4   12      0.38      0.00
  -15    5   12     -0.31      0.00
  -13    5   12     -0.07      0.00
   -3    5   12     -0.14      0.00
   -1    5   12      0.45      0.00
  -14    6   12      0.26      0.00
  -12    6   12      0.07      0.00
   -4    6   12     -1.05      0.00
   -2    6   12      0.04      0.00
  -13    7   12      0.23      0.00
  -11    7   12     -0.38      0.00
   -9    7   12     -1.13      0.00
   -7    7   12     -1.84      0.00
   -5    7   12     -1.73      0.00
   -3    7   12     -0.56      0.00
  -12    8   12     -0.28      0.00
  -10    8   12     -0.64      0.00
   -8    8   12     -1.04      0.00
   -6    8   12     -1.49      0.00
   -9    9   12     -0.36      0.00
  -16    0   13      0.57      0.00
  -14    0   13      1.37      0.00
   -4    0   13      0.47      0.00
   -2    0   13      0.32      0.00
  -15    1   13      1.00      0.00
   -3    1   13      0.23      0.00
  -16    2   13      0.60      0.00
  -14    2   13      1.12      0.00
   -4    2   13      0.32      0.00
   -2    2   13      0.17      0.00
  -15    3   13      0.75      0.00
  -13    3   13      0.77      0.00
   -5    3   13      0.48      0.00
   -3    3   13      0.02      0.00
  -14    4   13      0.38      0.00
  -12    4   13      0.32      0.00
   -6    4   13      0.74      0.00
   -4    4   13      0.11      0.00
  -13    5   13     -0.14      0.00
  -11    5   13      0.18      0.00
   -9    5   13      0.84      0.00
   -7    5   13      1.02      0.00
   -5    5   13      0.58      0.00
  -12    6   13     -0.21      0.00
  -10    6   13      0.36      0.00
   -8    6   13      0.97      0.00
   -6    6   13      1.11      0.00
  -11    7   13      0.13      0.00
   -9    7   13      0.56      0.00
   -7    7   13      1.08      0.00
    0    0    0      0.00      0.00
# SQUEEZE RESULTS (Version =  21116)
# Note: Data are Listed for all Voids in the P1 Unit Cell
# i.e. Centre of Gravity, Solvent Accessible Volume,
# Recovered number of Electrons in the Void and
# Details about the Squeezed Material
loop_
  _platon_squeeze_void_nr
  _platon_squeeze_void_average_x
  _platon_squeeze_void_average_y
  _platon_squeeze_void_average_z
  _platon_squeeze_void_volume
  _platon_squeeze_void_count_electrons
  _platon_squeeze_void_content
   1  0.000  0.000  0.500        58        14 ' '
   2  0.500  0.500  0.500        58        14 ' '
# Missing Reflections Below sin(th)/lambda = 0.25
loop_
  _platon_missing_refln_index_h
  _platon_missing_refln_index_k
  _platon_missing_refln_index_l
  _platon_missing_refln_theta
    1    1    0     2.547
   -2    0    1     2.933
    0    0    1     2.142
   -1    1    1     2.580
_platon_squeeze_void_probe_radius                  1.20
_platon_squeeze_details
)
TITL 123 in C2 C2/m
CELL   13.8960   11.2570   11.6280     90.00    125.14     90.00
SPGR C2/m
# Solvent Accessible Volume =       113
# Electrons Found in S.A.V. =        26
# Note: Atoms in Void as Cxxx and Qxxx all others
C101 0.513 0.504 0.391 !       7.35 eA-3
Q102 0.970 0.508 0.109 !       0.71 eA-3
Q103 0.099 0.356 0.020 !       0.63 eA-3
Q104 0.500 0.297-0.003 !       0.61 eA-3
Q105 0.025 0.505 0.469 !       0.57 eA-3
Q106 0.774 0.267 0.202 !       0.55 eA-3
Q107 0.235 0.080 0.143 !       0.52 eA-3
Q108 0.860 0.441 0.034 !       0.52 eA-3
Q109 0.734 0.502 0.188 !       0.51 eA-3
Q110 0.917 0.394 0.106 !       0.51 eA-3
Q111 0.533 0.222 0.127 !       0.50 eA-3
)
;
_shelx_fab_checksum              25833
_olex2_submission_special_instructions 'No special instructions were received'
#END Tags that were not found in dictionaries
loop_
_space_group_symop_operation_xyz
'x, y, z'
'-x, y, -z'
'x+1/2, y+1/2, z'
'-x+1/2, y+1/2, -z'
'-x, -y, -z'
'x, -y, z'
'-x+1/2, -y+1/2, -z'
'x+1/2, -y+1/2, z'
loop_
_atom_site_label
_atom_site_type_symbol
_atom_site_fract_x
_atom_site_fract_y
_atom_site_fract_z
_atom_site_U_iso_or_equiv
_atom_site_adp_type
_atom_site_occupancy
_atom_site_site_symmetry_order
_atom_site_calc_flag
_atom_site_refinement_flags_posn
_atom_site_refinement_flags_adp
_atom_site_refinement_flags_occupancy
C1 C 0.000000 0.2591(6) 0.000000 0.0202(15) Uani 1 2 d S T P
C2 C 0.000000 0.1251(6) 0.000000 0.0197(15) Uani 1 2 d S T P
C3 C 0.0518(4) 0.0613(4) 0.1232(5) 0.0227(11) Uani 1 1 d . . .
C4 C 0.1385(6) 0.500000 0.2702(7) 0.0224(16) Uani 1 2 d S T P
C5 C 0.1360(6) 0.500000 0.3989(7) 0.0215(16) Uani 1 2 d S T P
C6 C 0.1359(4) 0.6041(5) 0.4611(5) 0.0251(12) Uani 1 1 d . . .
C7 C 0.1411(4) 0.6053(5) 0.5826(5) 0.0244(12) Uani 1 1 d . . .
C8 C 0.1468(6) 0.500000 0.6503(7) 0.0204(16) Uani 1 2 d S T P
Eu1 Eu 0.16076(2) 0.500000 0.03298(3) 0.01060(14) Uani 1 2 d S T P
F1 F 0.1009(3) 0.1193(3) 0.2453(3) 0.0376(8) Uani 1 1 d . . .
F2 F 0.1312(4) 0.7071(3) 0.4014(4) 0.0502(10) Uani 1 1 d . . .
F3 F 0.1429(4) 0.7109(3) 0.6345(4) 0.0501(10) Uani 1 1 d . . .
O1 O -0.0432(4) 0.500000 -0.1501(5) 0.0214(11) Uani 1 2 d S T P
O2 O 0.2363(4) 0.500000 0.2888(5) 0.0390(15) Uani 1 2 d S T P
O3 O 0.0917(3) 0.3063(3) 0.0289(4) 0.0275(9) Uani 1 1 d . . .
O4 O 0.3334(3) 0.6296(3) 0.1504(4) 0.0328(9) Uani 1 1 d . . .
H4A H 0.351393 0.672228 0.104164 0.039 Uiso 1 1 d R . .
H4B H 0.345563 0.673278 0.218054 0.039 Uiso 1 1 d R . .
O5 O 0.1618(4) 0.5970(3) -0.1576(4) 0.0342(10) Uani 1 1 d . . .
C9 C 0.1584(6) 0.500000 -0.2129(7) 0.0205(16) Uani 1 2 d S T P
loop_
_atom_site_aniso_label
_atom_site_aniso_U_11
_atom_site_aniso_U_22
_atom_site_aniso_U_33
_atom_site_aniso_U_23
_atom_site_aniso_U_13
_atom_site_aniso_U_12
C1 0.024(4) 0.011(3) 0.025(4) 0.000 0.013(3) 0.000
C2 0.018(3) 0.010(3) 0.034(4) 0.000 0.017(3) 0.000
C3 0.023(2) 0.016(3) 0.029(3) -0.003(2) 0.015(2) -0.006(2)
C4 0.024(4) 0.027(4) 0.014(4) 0.000 0.010(3) 0.000
C5 0.014(3) 0.037(4) 0.013(3) 0.000 0.008(3) 0.000
C6 0.033(3) 0.025(3) 0.021(3) 0.005(2) 0.017(2) 0.000(3)
C7 0.033(3) 0.023(3) 0.022(3) -0.008(2) 0.019(2) -0.004(3)
C8 0.022(3) 0.030(4) 0.010(3) 0.000 0.009(3) 0.000
Eu1 0.0135(2) 0.0097(2) 0.0104(2) 0.000 0.00799(15) 0.000
F1 0.0440(19) 0.0238(17) 0.0355(18) -0.0098(15) 0.0174(15) -0.0028(16)
F2 0.092(3) 0.0319(19) 0.038(2) 0.0054(17) 0.044(2) -0.007(2)
F3 0.098(3) 0.0270(19) 0.040(2) -0.0054(16) 0.048(2) -0.003(2)
O1 0.017(2) 0.031(3) 0.011(2) 0.000 0.005(2) 0.000
O2 0.016(2) 0.084(5) 0.019(3) 0.000 0.011(2) 0.000
O3 0.0241(19) 0.0115(18) 0.048(2) 0.0037(17) 0.0216(18) -0.0017(16)
O4 0.0290(19) 0.038(2) 0.034(2) -0.0117(18) 0.0203(17) -0.0144(19)
O5 0.062(3) 0.031(2) 0.025(2) -0.0099(18) 0.034(2) -0.016(2)
C9 0.013(3) 0.036(5) 0.013(3) 0.000 0.008(3) 0.000
loop_
_atom_type_symbol
_atom_type_description
_atom_type_scat_dispersion_real
_atom_type_scat_dispersion_imag
_atom_type_scat_source
C C 0.0033 0.0016 'International Tables Vol C Tables 4.2.6.8 and 6.1.1.4'
H H 0.0000 0.0000 'International Tables Vol C Tables 4.2.6.8 and 6.1.1.4'
Eu Eu -0.1578 3.6682 'International Tables Vol C Tables 4.2.6.8 and 6.1.1.4'
F F 0.0171 0.0103 'International Tables Vol C Tables 4.2.6.8 and 6.1.1.4'
O O 0.0106 0.0060 'International Tables Vol C Tables 4.2.6.8 and 6.1.1.4'
loop_
_geom_angle_atom_site_label_1
_geom_angle_atom_site_label_2
_geom_angle_atom_site_label_3
_geom_angle
_geom_angle_site_symmetry_1
_geom_angle_site_symmetry_3
O3 C1 C2 115.5(3) 2 .
O3 C1 C2 115.5(3) . .
O3 C1 O3 129.0(6) 2 .
C3 C2 C1 121.4(3) . .
C3 C2 C1 121.4(3) 2 .
C3 C2 C3 117.1(6) 2 .
C2 C3 C3 121.4(3) . 6
F1 C3 C2 119.4(5) . .
F1 C3 C3 119.2(3) . 6
C5 C4 Eu1 176.2(5) . .
O1 C4 C5 119.2(6) 5_565 .
O1 C4 Eu1 64.6(4) 5_565 .
O2 C4 C5 118.1(6) . .
O2 C4 Eu1 58.1(4) . .
O2 C4 O1 122.7(6) . 5_565
C6 C5 C4 121.7(3) 6_565 .
C6 C5 C4 121.7(3) . .
C6 C5 C6 116.7(6) 6_565 .
C7 C6 C5 122.2(5) . .
F2 C6 C5 118.8(4) . .
F2 C6 C7 119.0(4) . .
C6 C7 C8 121.6(5) . .
F3 C7 C6 117.0(4) . .
F3 C7 C8 121.5(4) . .
C7 C8 C7 115.7(6) 6_565 .
C7 C8 C9 122.2(3) . 1_556
C7 C8 C9 122.2(3) 6_565 1_556
C4 Eu1 Eu1 58.79(14) . 5_565
O1 Eu1 C4 25.20(17) 5_565 .
O1 Eu1 C4 97.20(18) . .
O1 Eu1 Eu1 33.60(9) 5_565 5_565
O1 Eu1 Eu1 38.41(11) . 5_565
O1 Eu1 O1 72.00(17) . 5_565
O1 Eu1 O2 122.02(15) . .
O1 Eu1 O3 73.81(9) . 6_565
O1 Eu1 O3 73.81(9) . .
O1 Eu1 O4 141.56(10) . .
O1 Eu1 O4 141.56(10) . 6_565
O1 Eu1 O5 79.41(14) . 6_565
O1 Eu1 O5 79.41(14) . .
O1 Eu1 C9 149.34(16) 5_565 .
O1 Eu1 C9 77.34(17) . .
O2 Eu1 C4 24.82(17) . .
O2 Eu1 Eu1 83.61(11) . 5_565
O2 Eu1 O1 50.01(14) . 5_565
O2 Eu1 C9 160.64(17) . .
O3 Eu1 C4 76.08(10) 6_565 .
O3 Eu1 C4 76.08(10) . .
O3 Eu1 Eu1 66.99(8) . 5_565
O3 Eu1 Eu1 66.99(8) 6_565 5_565
O3 Eu1 O1 69.50(9) . 5_565
O3 Eu1 O1 69.50(9) 6_565 5_565
O3 Eu1 O2 84.97(10) . .
O3 Eu1 O2 84.97(10) 6_565 .
O3 Eu1 O3 133.67(16) . 6_565
O3 Eu1 O4 144.62(13) . .
O3 Eu1 O4 144.62(13) 6_565 6_565
O3 Eu1 O4 73.64(12) . 6_565
O3 Eu1 O4 73.64(12) 6_565 .
O3 Eu1 O5 126.71(12) . .
O3 Eu1 O5 126.71(12) 6_565 6_565
O3 Eu1 O5 77.74(13) 6_565 .
O3 Eu1 O5 77.74(12) . 6_565
O3 Eu1 C9 102.11(10) 6_565 .
O3 Eu1 C9 102.11(10) . .
O4 Eu1 C4 94.30(14) 6_565 .
O4 Eu1 C4 94.31(14) . .
O4 Eu1 Eu1 136.24(9) . 5_565
O4 Eu1 Eu1 136.24(9) 6_565 5_565
O4 Eu1 O1 114.08(11) . 5_565
O4 Eu1 O1 114.08(11) 6_565 5_565
O4 Eu1 O2 74.50(12) 6_565 .
O4 Eu1 O2 74.50(12) . .
O4 Eu1 O4 73.26(18) 6_565 .
O4 Eu1 O5 74.20(12) 6_565 6_565
O4 Eu1 O5 104.68(13) . 6_565
O4 Eu1 O5 74.20(12) . .
O4 Eu1 O5 104.68(13) 6_565 .
O4 Eu1 C9 90.08(13) . .
O4 Eu1 C9 90.08(13) 6_565 .
O5 Eu1 C4 153.49(9) . .
O5 Eu1 C4 153.49(9) 6_565 .
O5 Eu1 Eu1 113.70(10) 6_565 5_565
O5 Eu1 Eu1 113.70(10) . 5_565
O5 Eu1 O1 141.17(12) . 5_565
O5 Eu1 O1 141.17(12) 6_565 5_565
O5 Eu1 O2 147.40(11) 6_565 .
O5 Eu1 O2 147.40(11) . .
O5 Eu1 O5 52.28(17) 6_565 .
O5 Eu1 C9 26.15(9) . .
O5 Eu1 C9 26.15(9) 6_565 .
C9 Eu1 C4 174.54(18) . .
C9 Eu1 Eu1 115.75(13) . 5_565
C4 O1 Eu1 90.2(4) 5_565 5_565
C4 O1 Eu1 161.8(5) 5_565 .
Eu1 O1 Eu1 108.00(17) . 5_565
C4 O2 Eu1 97.1(4) . .
C1 O3 Eu1 138.0(4) . .
Eu1 O4 H4A 122.0 . .
Eu1 O4 H4B 117.8 . .
H4A O4 H4B 106.2 . .
C9 O5 Eu1 93.3(3) . .
C8 C9 Eu1 175.5(5) 1_554 .
O5 C9 C8 119.5(3) 6_565 1_554
O5 C9 C8 119.5(3) . 1_554
O5 C9 Eu1 60.6(3) 6_565 .
O5 C9 Eu1 60.6(3) . .
O5 C9 O5 121.1(6) 6_565 .
loop_
_geom_bond_atom_site_label_1
_geom_bond_atom_site_label_2
_geom_bond_distance
_geom_bond_site_symmetry_2
C1 C2 1.508(9) .
C1 O3 1.236(4) 2
C1 O3 1.236(4) .
C2 C3 1.378(6) 2
C2 C3 1.378(6) .
C3 C3 1.379(10) 6
C3 F1 1.338(6) .
C4 C5 1.518(9) .
C4 Eu1 2.947(7) .
C4 O1 1.254(8) 5_565
C4 O2 1.246(8) .
C5 C6 1.377(6) 6_565
C5 C6 1.377(6) .
C6 C7 1.372(7) .
C6 F2 1.333(6) .
C7 C8 1.401(6) .
C7 F3 1.327(6) .
C8 C9 1.503(9) 1_556
Eu1 Eu1 4.0749(17) 5_565
Eu1 O1 2.371(4) .
Eu1 O1 2.662(5) 5_565
Eu1 O2 2.521(5) .
Eu1 O3 2.371(3) .
Eu1 O3 2.371(3) 6_565
Eu1 O4 2.445(3) .
Eu1 O4 2.445(3) 6_565
Eu1 O5 2.478(3) 6_565
Eu1 O5 2.478(3) .
Eu1 C9 2.840(7) .
O4 H4A 0.8586 .
O4 H4B 0.8580 .
O5 C9 1.254(5) .
