#------------------------------------------------------------------------------
#$Date: 2017-05-06 01:10:37 +0300 (Sat, 06 May 2017) $
#$Revision: 196450 $
#$URL: file:///home/coder/svn-repositories/cod/cif/7/04/24/7042409.cif $
#------------------------------------------------------------------------------
#
# This file is available in the Crystallography Open Database (COD),
# http://www.crystallography.net/
#
# All data on this site have been placed in the public domain by the
# contributors.
#
data_7042409
loop_
_publ_author_name
'Han, Yongqiang'
'Yan, Pengfei'
'Sun, Jingwen'
'An, Guanghui'
'Yao, Xu'
'Li, Yuxin'
'Li, Guangming'
_publ_section_title
;
 Luminescence and white-light emitting luminescent sensor of
 tetrafluoroterephthalate-lanthanide metal-organic frameworks.
;
_journal_issue                   14
_journal_name_full
'Dalton transactions (Cambridge, England : 2003)'
_journal_page_first              4642
_journal_page_last               4653
_journal_paper_doi               10.1039/c7dt00215g
_journal_volume                  46
_journal_year                    2017
_chemical_formula_moiety         'C12 H4 F6 Lu O8'
_chemical_formula_sum            'C12 H4 F6 Lu O8'
_chemical_formula_weight         565.12
_space_group_crystal_system      monoclinic
_space_group_IT_number           12
_space_group_name_Hall           '-C 2y'
_space_group_name_H-M_alt        'C 1 2/m 1'
_symmetry_space_group_name_Hall  '-C 2y'
_symmetry_space_group_name_H-M   'C 1 2/m 1'
_atom_sites_solution_hydrogens   difmap
_audit_creation_date             2017-03-07
_audit_creation_method
;
Olex2 1.2
(compiled 2017.03.02 svn.r3394 for OlexSys, GUI svn.r5324)
;
_audit_update_record
;
2017-03-08 deposited with the CCDC.
2017-03-09 downloaded from the CCDC.
;
_cell_angle_alpha                90
_cell_angle_beta                 120.340(5)
_cell_angle_gamma                90
_cell_formula_units_Z            4
_cell_length_a                   13.848(5)
_cell_length_b                   10.927(5)
_cell_length_c                   11.517(5)
_cell_measurement_reflns_used    1595
_cell_measurement_temperature    293(2)
_cell_measurement_theta_max      29.0121
_cell_measurement_theta_min      3.2546
_cell_volume                     1504.0(11)
_computing_data_collection
'CrysAlisPro, Agilent Technologies,Version 1.171.35.21 (release 20-01-2012 CrysAlis171 .NET)(compiled Jan 23 2012,18:06:46)'
_computing_molecular_graphics    'Olex2 (Dolomanov et al., 2009)'
_computing_publication_material  '(K. Brandenburg, Diamond 3.1, 2009)'
_computing_structure_refinement  'ShelXL (Sheldrick, 2015)'
_computing_structure_solution    'SHELXS-2016/6 (Sheldrick, 2015)'
_diffrn_ambient_temperature      293(2)
_diffrn_measured_fraction_theta_full 0.997
_diffrn_measured_fraction_theta_max 0.997
_diffrn_measurement_device_type  'multiwire proportional'
_diffrn_measurement_method       'phi and omega scans'
_diffrn_radiation_type           MoK\a
_diffrn_radiation_wavelength     0.71069
_diffrn_reflns_av_R_equivalents  0.0234
_diffrn_reflns_av_unetI/netI     0.0395
_diffrn_reflns_Laue_measured_fraction_full 0.997
_diffrn_reflns_Laue_measured_fraction_max 0.997
_diffrn_reflns_limit_h_max       16
_diffrn_reflns_limit_h_min       -15
_diffrn_reflns_limit_k_max       12
_diffrn_reflns_limit_k_min       -12
_diffrn_reflns_limit_l_max       13
_diffrn_reflns_limit_l_min       -12
_diffrn_reflns_number            2794
_diffrn_reflns_point_group_measured_fraction_full 0.997
_diffrn_reflns_point_group_measured_fraction_max 0.997
_diffrn_reflns_theta_full        24.994
_diffrn_reflns_theta_max         24.994
_diffrn_reflns_theta_min         3.409
_exptl_absorpt_coefficient_mu    6.678
_exptl_absorpt_correction_T_max  0.301
_exptl_absorpt_correction_T_min  0.205
_exptl_absorpt_correction_type   multi-scan
_exptl_absorpt_process_details
;
CrysAlisPro, Agilent Technologies,
Version 1.171.35.21 (release 20-01-2012 CrysAlis171 .NET)
(compiled Jan 23 2012,18:06:46)
Empirical absorption correction using spherical harmonics,
 implemented in SCALE3 ABSPACK scaling algorithm.
;
_exptl_crystal_colour            colorless
_exptl_crystal_density_diffrn    2.496
_exptl_crystal_description       block
_exptl_crystal_F_000             1060
_exptl_crystal_size_max          0.25
_exptl_crystal_size_mid          0.22
_exptl_crystal_size_min          0.18
_refine_diff_density_max         0.619
_refine_diff_density_min         -0.746
_refine_diff_density_rms         0.108
_refine_ls_extinction_method     none
_refine_ls_goodness_of_fit_ref   1.028
_refine_ls_hydrogen_treatment    constr
_refine_ls_matrix_type           full
_refine_ls_number_parameters     170
_refine_ls_number_reflns         1404
_refine_ls_number_restraints     87
_refine_ls_restrained_S_all      0.997
_refine_ls_R_factor_all          0.0216
_refine_ls_R_factor_gt           0.0202
_refine_ls_shift/su_max          0.001
_refine_ls_shift/su_mean         0.000
_refine_ls_structure_factor_coef Fsqd
_refine_ls_weighting_details
'w=1/[\s^2^(Fo^2^)+(0.0120P)^2^] where P=(Fo^2^+2Fc^2^)/3'
_refine_ls_weighting_scheme      calc
_refine_ls_wR_factor_gt          0.0373
_refine_ls_wR_factor_ref         0.0383
_reflns_Friedel_coverage         0.000
_reflns_number_gt                1337
_reflns_number_total             1404
_reflns_threshold_expression     'I > 2\s(I)'
_cod_data_source_file            c7dt00215g2.cif
_cod_data_source_block           14-lu_sq
_cod_depositor_comments
'Adding full bibliography for 7042409--7042422.cif.'
_cod_database_code               7042409
_shelx_shelxl_version_number     2016/6
_shelx_space_group_comment
;
The symmetry employed for this shelxl refinement is uniquely defined
by the following loop, which should always be used as a source of
symmetry information in preference to the above space-group names.
They are only intended as comments.
;
_shelx_estimated_absorpt_t_max   0.379
_shelx_estimated_absorpt_t_min   0.286
_olex2_refinement_description
;
1. Fixed Uiso
 At 1.2 times of:
  All O(H,H) groups
2. Rigid bond restraints
 C1, O4, O5
 with sigma for 1-2 distances of 0.01 and sigma for 1-3 distances of 0.01
3. Uiso/Uaniso restraints and constraints
C1 \\sim O4 \\sim O5: within 3.8A with sigma of 0.04 and sigma for terminal
atoms of 0.08
4. Rigid body (RIGU) restrains
 C2, F2B, F3A, C3A, C4A, C3B, C4B, F2A, F3B, C0AA, C3A, C2, C3B, C2, F2B, C3A,
 C4A, C3A, C4B, C3B, F2A, C3B, F3A, C4A, C4A, C0AA, F3B, C4B, C4B, C0AA
 with sigma for 1-2 distances of 0.004 and sigma for 1-3 distances of 0.004
5. Others
 Fixed Sof: F2B(0.5) F3A(0.5) C3A(0.5) C4A(0.5) C3B(0.5) C4B(0.5) F2A(0.5)
 F3B(0.5)
6.a Riding coordinates:
 O2(H2A,H2B)
;
_shelx_res_file
;
TITL 123 in C2/m
    14-lu_sq.res
    created by SHELXL-2016/6 at 19:47:19 on 07-Mar-2017
CELL 0.71069 13.848 10.927 11.517 90 120.34 90
ZERR 4 0.005 0.005 0.005 0 0.005 0
LATT 7
SYMM -X,+Y,-Z
SFAC C H F Lu O
UNIT 48 16 24 4 32
DELU C1 O4 O5
SIMU 0.04 0.08 3.8 C1 O4 O5
RIGU C2 F2B F3A C3A C4A C3B C4B F2A F3B C0AA C3A C2 C3B C2 F2B C3A C4A C3A =
 C4B C3B F2A C3B F3A C4A C4A C0AA F3B C4B C4B C0AA

L.S. 4 0 5
PLAN  25
SIZE 0.25 0.22 0.18
CONN 8 $Lu
ABIN
fmap 2
acta
MERG 2
OMIT -3 50
REM <olex2.extras>
REM <HklSrc "%.\\14-lu_sq.hkl">
REM </olex2.extras>

WGHT    0.012000
FVAR       0.22722
C1    1    0.388250    0.000000    0.247339    10.50000    0.02987    0.02626 =
         0.01715    0.00000    0.00944    0.00000
C2    1    0.368582    0.000000    0.105076    10.50000    0.02160    0.03451 =
         0.01444    0.00000    0.01020    0.00000
C5    1    0.318222    0.000000   -0.298839    10.50000    0.01930    0.05024 =
         0.02629    0.00000    0.01244    0.00000
C7    1    0.500000    0.233852    0.500000    10.50000    0.03375    0.01767 =
         0.03291    0.00000    0.01500    0.00000
C8    1    0.500000    0.371018    0.500000    10.50000    0.02151    0.02065 =
         0.04379    0.00000    0.02040    0.00000
C9    1    0.463621    0.437788    0.382491    11.00000    0.02843    0.02327 =
         0.03271   -0.00615    0.01627   -0.00322
O1    5    0.313029   -0.099974   -0.354783    11.00000    0.05833    0.04112 =
         0.02855   -0.01212    0.02880   -0.01785
O2    5    0.184538   -0.129231    0.363186    11.00000    0.02198    0.03083 =
         0.04473   -0.01225    0.01588   -0.00782
AFIX   3
H2A   2    0.194818   -0.199561    0.339716    11.00000   -1.20000
H2B   2    0.115558   -0.123081    0.338206    11.00000   -1.20000
AFIX   0
O3    5    0.410446    0.184954    0.476361    11.00000    0.02753    0.02361 =
         0.05266    0.00722    0.01953   -0.00417
O4    5    0.303582    0.000000    0.259953    10.50000    0.03448    0.05439 =
         0.02283    0.00000    0.01718    0.00000
O5    5    0.486255    0.000000    0.340683    10.50000    0.02815    0.04410 =
         0.02058    0.00000   -0.00095    0.00000
LU1   4    0.338795    0.000000    0.479344    10.50000    0.01971    0.01582 =
         0.01589    0.00000    0.00992    0.00000
F1    3    0.430242    0.378004    0.266625    11.00000    0.05844    0.03507 =
         0.03946   -0.01248    0.02378   -0.00390
PART 2
F2B   3    0.430318    0.201979    0.124077    10.50000    0.08025    0.03410 =
         0.03033   -0.01079    0.02448   -0.01586
F3A   3    0.396926    0.200830   -0.121049    10.50000    0.08148    0.03567 =
         0.03498    0.00160    0.03046   -0.01772
C3A   1    0.390782    0.099688    0.050442    10.50000    0.03076    0.02481 =
         0.02273   -0.00478    0.01282    0.00033
C4A   1    0.373124    0.098300   -0.078487    10.50000    0.03119    0.02861 =
         0.02363    0.00738    0.01646   -0.00031
PART 0
PART -1
C3B   1    0.331764   -0.104962    0.025879    10.50000    0.02738    0.02672 =
         0.02698    0.00189    0.01803    0.00272
C4B   1    0.316419   -0.107969   -0.100560    10.50000    0.02381    0.02534 =
         0.02883   -0.00645    0.01712   -0.00213
F2A   3    0.308493   -0.205153    0.074376    10.50000    0.08256    0.03964 =
         0.03613   -0.00245    0.03598   -0.02251
F3B   3    0.283070   -0.214691   -0.167296    10.50000    0.07089    0.03118 =
         0.03262   -0.01144    0.03036   -0.01784
PART 0
C0AA  1    0.335446    0.000000   -0.158667    10.50000    0.02178    0.02998 =
         0.01747    0.00000    0.00988    0.00000
HKLF 4




REM  123 in C2/m
REM R1 =  0.0202 for    1337 Fo > 4sig(Fo)  and  0.0216 for all    1404 data
REM    170 parameters refined using     87 restraints

END

WGHT      0.0120      0.0000

REM Highest difference peak  0.619,  deepest hole -0.746,  1-sigma level  0.108
Q1    1   0.4115  0.5000  0.3847  10.50000  0.05    0.42
Q2    1   0.3080  0.0000 -0.2348  10.50000  0.05    0.42
Q3    1   0.5051  0.0000  0.0870  10.50000  0.05    0.42
Q4    1   0.2256  0.0000 -0.0302  10.50000  0.05    0.41
Q5    1   0.3034  0.0000  0.3571  10.50000  0.05    0.41
Q6    1   0.2956 -0.1351 -0.2380  11.00000  0.05    0.41
Q7    1   0.3687  0.0000  0.5835  10.50000  0.05    0.39
Q8    1   0.5637  0.5000  0.3953  10.50000  0.05    0.39
Q9    1   0.0981  0.0000  0.3174  10.50000  0.05    0.39
Q10   1   0.3992  0.2203  0.5376  11.00000  0.05    0.37
Q11   1   0.1815  0.0000  0.4928  10.50000  0.05    0.37
Q12   1   0.1966 -0.1339  0.4814  11.00000  0.05    0.36
Q13   1   0.3321 -0.3306 -0.1814  11.00000  0.05    0.36
Q14   1   0.2991 -0.0902 -0.4589  11.00000  0.05    0.36
Q15   1   0.2300 -0.0780  0.3394  11.00000  0.05    0.36
Q16   1   0.3333  0.2650  0.3968  11.00000  0.05    0.35
Q17   1   0.3766  0.3482  0.1698  11.00000  0.05    0.35
Q18   1   0.1294 -0.0897  0.2606  11.00000  0.05    0.34
Q19   1   0.1797 -0.2037  0.4053  11.00000  0.05    0.34
Q20   1   0.4182  0.2245 -0.0157  11.00000  0.05    0.34
Q21   1   0.1491 -0.1378  0.2564  11.00000  0.05    0.33
Q22   1   0.3941  0.0000 -0.1261  10.50000  0.05    0.33
Q23   1   0.4033  0.2187  0.2141  11.00000  0.05    0.31
Q24   1   0.2495 -0.1920 -0.3085  11.00000  0.05    0.31
Q25   1   0.4620  0.1187  0.4387  11.00000  0.05    0.31
;
_shelx_res_checksum              44217
_shelx_fab_file
;
    0    0    2     16.05      0.00
    0    0    3      2.57      0.00
    0    0    4     -3.70      0.00
    0    0    5     -2.80      0.00
    0    0    6      1.07      0.00
    0    0    7      4.12      0.00
    0    0    8      5.13      0.00
    0    0    9      4.58      0.00
    0    0   10      3.22      0.00
    0    0   11      1.68      0.00
    0    2    0     28.80      0.00
    0    2    1     23.75      0.00
    0    2    2     12.04      0.00
    0    2    3      0.99      0.00
    0    2    4     -4.12      0.00
    0    2    5     -3.15      0.00
    0    2    6      0.52      0.00
    0    2    7      3.62      0.00
    0    2    8      4.83      0.00
    0    2    9      4.39      0.00
    0    2   10      2.99      0.00
    0    2   11      1.40      0.00
    0    4    0     16.03      0.00
    0    4    1     13.08      0.00
    0    4    2      6.15      0.00
    0    4    3     -0.50      0.00
    0    4    4     -3.57      0.00
    0    4    5     -2.66      0.00
    0    4    6      0.32      0.00
    0    4    7      3.07      0.00
    0    4    8      4.31      0.00
    0    4    9      3.94      0.00
    0    4   10      2.58      0.00
    0    4   11      1.08      0.00
    0    6    0      8.55      0.00
    0    6    1      6.95      0.00
    0    6    2      3.17      0.00
    0    6    3     -0.49      0.00
    0    6    4     -2.12      0.00
    0    6    5     -1.35      0.00
    0    6    6      0.69      0.00
    0    6    7      2.48      0.00
    0    6    8      3.12      0.00
    0    6    9      2.66      0.00
    0    6   10      1.69      0.00
    0    8    0      4.30      0.00
    0    8    1      3.35      0.00
    0    8    2      1.16      0.00
    0    8    3     -0.85      0.00
    0    8    4     -1.53      0.00
    0    8    5     -0.85      0.00
    0    8    6      0.33      0.00
    0    8    7      1.09      0.00
    0    8    8      1.13      0.00
    0    8    9      0.76      0.00
    0   10    0      2.16      0.00
    0   10    1      1.65      0.00
    0   10    2      0.53      0.00
    0   10    3     -0.39      0.00
    0   10    4     -0.60      0.00
    0   10    5     -0.27      0.00
    0   10    6      0.10      0.00
    0   10    7      0.17      0.00
    0   12    0      1.06      0.00
    0   12    1      0.85      0.00
    0   12    2      0.42      0.00
    0   12    3      0.16      0.00
    0   12    4      0.19      0.00
   -1    1   12      0.80      0.00
   -1    1   11      2.14      0.00
   -1    1   10      3.62      0.00
   -1    1    9      4.50      0.00
   -1    1    8      4.13      0.00
   -1    1    7      2.02      0.00
   -1    1    6     -1.57      0.00
   -1    1    5     -4.43      0.00
   -1    1    4     -2.68      0.00
   -1    1    3      6.15      0.00
   -1    1    2     19.51      0.00
    1    1    1     21.00      0.00
    1    1    2      7.54      0.00
    1    1    3     -1.85      0.00
    1    1    4     -3.87      0.00
    1    1    5     -0.81      0.00
    1    1    6      3.04      0.00
    1    1    7      5.08      0.00
    1    1    8      5.07      0.00
    1    1    9      3.82      0.00
    1    1   10      2.15      0.00
    1    1   11      0.73      0.00
   -1    3   11      1.98      0.00
   -1    3   10      3.43      0.00
   -1    3    9      4.16      0.00
   -1    3    8      3.51      0.00
   -1    3    7      1.28      0.00
   -1    3    6     -1.90      0.00
   -1    3    5     -4.16      0.00
   -1    3    4     -2.87      0.00
   -1    3    3      3.35      0.00
   -1    3    2     12.50      0.00
   -1    3    1     19.52      0.00
    1    3    0     19.83      0.00
    1    3    1     13.13      0.00
    1    3    2      3.78      0.00
    1    3    3     -2.77      0.00
    1    3    4     -4.01      0.00
    1    3    5     -1.27      0.00
    1    3    6      2.37      0.00
    1    3    7      4.63      0.00
    1    3    8      4.87      0.00
    1    3    9      3.63      0.00
    1    3   10      1.83      0.00
    1    3   11      0.37      0.00
   -1    5   11      1.70      0.00
   -1    5   10      2.88      0.00
   -1    5    9      3.48      0.00
   -1    5    8      2.94      0.00
   -1    5    7      1.14      0.00
   -1    5    6     -1.25      0.00
   -1    5    5     -2.79      0.00
   -1    5    4     -1.97      0.00
   -1    5    3      1.70      0.00
   -1    5    2      6.82      0.00
   -1    5    1     10.59      0.00
    1    5    0     10.63      0.00
    1    5    1      6.87      0.00
    1    5    2      1.60      0.00
    1    5    3     -2.15      0.00
    1    5    4     -2.72      0.00
    1    5    5     -0.65      0.00
    1    5    6      2.16      0.00
    1    5    7      3.96      0.00
    1    5    8      4.08      0.00
    1    5    9      2.97      0.00
    1    5   10      1.51      0.00
   -1    7   10      1.52      0.00
   -1    7    9      1.97      0.00
   -1    7    8      1.86      0.00
   -1    7    7      0.93      0.00
   -1    7    6     -0.57      0.00
   -1    7    5     -1.72      0.00
   -1    7    4     -1.44      0.00
   -1    7    3      0.62      0.00
   -1    7    2      3.58      0.00
   -1    7    1      5.75      0.00
    1    7    0      5.77      0.00
    1    7    1      3.63      0.00
    1    7    2      0.68      0.00
    1    7    3     -1.33      0.00
    1    7    4     -1.45      0.00
    1    7    5     -0.10      0.00
    1    7    6      1.49      0.00
    1    7    7      2.27      0.00
    1    7    8      2.05      0.00
    1    7    9      1.35      0.00
   -1    9    8      0.73      0.00
   -1    9    7      0.45      0.00
   -1    9    6     -0.29      0.00
   -1    9    5     -1.07      0.00
   -1    9    4     -1.20      0.00
   -1    9    3     -0.25      0.00
   -1    9    2      1.40      0.00
   -1    9    1      2.73      0.00
    1    9    0      2.87      0.00
    1    9    1      1.78      0.00
    1    9    2      0.26      0.00
    1    9    3     -0.69      0.00
    1    9    4     -0.69      0.00
    1    9    5     -0.15      0.00
    1    9    6      0.27      0.00
    1    9    7      0.26      0.00
    1    9    8      0.01      0.00
   -1   11    6     -0.03      0.00
   -1   11    5     -0.35      0.00
   -1   11    4     -0.54      0.00
   -1   11    3     -0.28      0.00
   -1   11    2      0.45      0.00
   -1   11    1      1.24      0.00
    1   11    0      1.57      0.00
    1   11    1      1.32      0.00
    1   11    2      0.83      0.00
    1   11    3      0.48      0.00
    1   11    4      0.35      0.00
    1   11    5      0.22      0.00
   -2    0   12      0.83      0.00
   -2    0   11      2.28      0.00
   -2    0   10      3.57      0.00
   -2    0    9      3.93      0.00
   -2    0    8      2.79      0.00
   -2    0    7     -0.01      0.00
   -2    0    6     -3.45      0.00
   -2    0    5     -4.69      0.00
   -2    0    4     -0.46      0.00
   -2    0    3      9.68      0.00
   -2    0    2     21.17      0.00
    2    0    0     22.63      0.00
    2    0    1     11.44      0.00
    2    0    2      0.57      0.00
    2    0    3     -4.30      0.00
    2    0    4     -2.87      0.00
    2    0    5      1.16      0.00
    2    0    6      4.21      0.00
    2    0    7      5.03      0.00
    2    0    8      4.17      0.00
    2    0    9      2.57      0.00
    2    0   10      0.96      0.00
   -2    2   12      0.94      0.00
   -2    2   11      2.40      0.00
   -2    2   10      3.60      0.00
   -2    2    9      3.72      0.00
   -2    2    8      2.32      0.00
   -2    2    7     -0.46      0.00
   -2    2    6     -3.48      0.00
   -2    2    5     -4.36      0.00
   -2    2    4     -0.62      0.00
   -2    2    3      7.87      0.00
   -2    2    2     17.28      0.00
   -2    2    1     21.81      0.00
    2    2    0     18.27      0.00
    2    2    1      8.96      0.00
    2    2    2     -0.15      0.00
    2    2    3     -4.28      0.00
    2    2    4     -2.99      0.00
    2    2    5      0.81      0.00
    2    2    6      3.94      0.00
    2    2    7      5.02      0.00
    2    2    8      4.28      0.00
    2    2    9      2.57      0.00
    2    2   10      0.84      0.00
   -2    4   11      2.60      0.00
   -2    4   10      3.57      0.00
   -2    4    9      3.35      0.00
   -2    4    8      1.71      0.00
   -2    4    7     -0.83      0.00
   -2    4    6     -3.07      0.00
   -2    4    5     -3.41      0.00
   -2    4    4     -0.64      0.00
   -2    4    3      4.81      0.00
   -2    4    2     10.47      0.00
   -2    4    1     13.03      0.00
    2    4    0     10.77      0.00
    2    4    1      5.03      0.00
    2    4    2     -0.74      0.00
    2    4    3     -3.48      0.00
    2    4    4     -2.53      0.00
    2    4    5      0.54      0.00
    2    4    6      3.45      0.00
    2    4    7      4.71      0.00
    2    4    8      4.12      0.00
    2    4    9      2.47      0.00
    2    4   10      0.81      0.00
   -2    6   11      2.11      0.00
   -2    6   10      2.79      0.00
   -2    6    9      2.62      0.00
   -2    6    8      1.40      0.00
   -2    6    7     -0.50      0.00
   -2    6    6     -2.14      0.00
   -2    6    5     -2.38      0.00
   -2    6    4     -0.59      0.00
   -2    6    3      2.72      0.00
   -2    6    2      5.97      0.00
   -2    6    1      7.36      0.00
    2    6    0      6.07      0.00
    2    6    1      2.86      0.00
    2    6    2     -0.39      0.00
    2    6    3     -1.93      0.00
    2    6    4     -1.24      0.00
    2    6    5      0.82      0.00
    2    6    6      2.72      0.00
    2    6    7      3.42      0.00
    2    6    8      2.86      0.00
    2    6    9      1.75      0.00
   -2    8   10      1.36      0.00
   -2    8    9      1.39      0.00
   -2    8    8      0.86      0.00
   -2    8    7     -0.20      0.00
   -2    8    6     -1.31      0.00
   -2    8    5     -1.69      0.00
   -2    8    4     -0.78      0.00
   -2    8    3      1.18      0.00
   -2    8    2      3.17      0.00
   -2    8    1      4.06      0.00
    2    8    0      3.37      0.00
    2    8    1      1.63      0.00
    2    8    2     -0.03      0.00
    2    8    3     -0.71      0.00
    2    8    4     -0.30      0.00
    2    8    5      0.59      0.00
    2    8    6      1.18      0.00
    2    8    7      1.15      0.00
    2    8    8      0.74      0.00
   -2   10    8      0.25      0.00
   -2   10    7     -0.23      0.00
   -2   10    6     -0.80      0.00
   -2   10    5     -1.11      0.00
   -2   10    4     -0.82      0.00
   -2   10    3      0.10      0.00
   -2   10    2      1.18      0.00
   -2   10    1      1.86      0.00
    2   10    0      1.81      0.00
    2   10    1      1.26      0.00
    2   10    2      0.66      0.00
    2   10    3      0.33      0.00
    2   10    4      0.20      0.00
    2   10    5      0.05      0.00
    2   10    6     -0.20      0.00
   -2   12    5     -0.65      0.00
   -2   12    4     -0.75      0.00
   -2   12    3     -0.58      0.00
   -2   12    2     -0.10      0.00
   -2   12    1      0.48      0.00
    2   12    0      0.91      0.00
    2   12    1      1.08      0.00
    2   12    2      1.08      0.00
    2   12    3      0.94      0.00
   -3    1   12      0.82      0.00
   -3    1   11      2.25      0.00
   -3    1   10      3.19      0.00
   -3    1    9      2.83      0.00
   -3    1    8      0.90      0.00
   -3    1    7     -2.04      0.00
   -3    1    6     -4.27      0.00
   -3    1    5     -3.35      0.00
   -3    1    4      2.22      0.00
   -3    1    3     10.76      0.00
   -3    1    2     17.45      0.00
   -3    1    1     17.69      0.00
    3    1    0     11.06      0.00
    3    1    1      1.94      0.00
    3    1    2     -4.10      0.00
    3    1    3     -4.67      0.00
    3    1    4     -1.50      0.00
    3    1    5      2.11      0.00
    3    1    6      4.06      0.00
    3    1    7      4.09      0.00
    3    1    8      2.89      0.00
    3    1    9      1.28      0.00
    3    1   10     -0.02      0.00
   -3    3   12      1.42      0.00
   -3    3   11      2.81      0.00
   -3    3   10      3.42      0.00
   -3    3    9      2.57      0.00
   -3    3    8      0.37      0.00
   -3    3    7     -2.24      0.00
   -3    3    6     -3.76      0.00
   -3    3    5     -2.59      0.00
   -3    3    4      1.81      0.00
   -3    3    3      7.95      0.00
   -3    3    2     12.55      0.00
   -3    3    1     12.65      0.00
    3    3    0      8.03      0.00
    3    3    1      1.55      0.00
    3    3    2     -3.03      0.00
    3    3    3     -3.76      0.00
    3    3    4     -1.40      0.00
    3    3    5      1.82      0.00
    3    3    6      4.00      0.00
    3    3    7      4.37      0.00
    3    3    8      3.21      0.00
    3    3    9      1.44      0.00
    3    3   10      0.03      0.00
   -3    5   11      3.06      0.00
   -3    5   10      3.38      0.00
   -3    5    9      2.33      0.00
   -3    5    8      0.18      0.00
   -3    5    7     -2.07      0.00
   -3    5    6     -3.15      0.00
   -3    5    5     -2.16      0.00
   -3    5    4      0.83      0.00
   -3    5    3      4.61      0.00
   -3    5    2      7.27      0.00
   -3    5    1      7.36      0.00
    3    5    0      4.81      0.00
    3    5    1      1.11      0.00
    3    5    2     -1.72      0.00
    3    5    3     -2.34      0.00
    3    5    4     -0.81      0.00
    3    5    5      1.64      0.00
    3    5    6      3.49      0.00
    3    5    7      3.86      0.00
    3    5    8      2.90      0.00
    3    5    9      1.46      0.00
   -3    7   10      2.36      0.00
   -3    7    9      1.69      0.00
   -3    7    8      0.23      0.00
   -3    7    7     -1.43      0.00
   -3    7    6     -2.33      0.00
   -3    7    5     -1.78      0.00
   -3    7    4      0.16      0.00
   -3    7    3      2.56      0.00
   -3    7    2      4.17      0.00
   -3    7    1      4.20      0.00
    3    7    0      2.77      0.00
    3    7    1      0.81      0.00
    3    7    2     -0.58      0.00
    3    7    3     -0.73      0.00
    3    7    4      0.22      0.00
    3    7    5      1.50      0.00
    3    7    6      2.28      0.00
    3    7    7      2.22      0.00
    3    7    8      1.57      0.00
   -3    9    9      0.52      0.00
   -3    9    8     -0.26      0.00
   -3    9    7     -1.19      0.00
   -3    9    6     -1.73      0.00
   -3    9    5     -1.41      0.00
   -3    9    4     -0.24      0.00
   -3    9    3      1.18      0.00
   -3    9    2      2.10      0.00
   -3    9    1      2.14      0.00
    3    9    0      1.50      0.00
    3    9    1      0.73      0.00
    3    9    2      0.29      0.00
    3    9    3      0.28      0.00
    3    9    4      0.46      0.00
    3    9    5      0.56      0.00
    3    9    6      0.46      0.00
   -3   11    7     -1.12      0.00
   -3   11    6     -1.31      0.00
   -3   11    5     -1.14      0.00
   -3   11    4     -0.69      0.00
   -3   11    3     -0.13      0.00
   -3   11    2      0.35      0.00
   -3   11    1      0.65      0.00
    3   11    0      0.81      0.00
    3   11    1      0.88      0.00
    3   11    2      0.83      0.00
    3   11    3      0.60      0.00
    3   11    4      0.18      0.00
   -4    0   13     -0.32      0.00
   -4    0   12      0.71      0.00
   -4    0   11      2.01      0.00
   -4    0   10      2.53      0.00
   -4    0    9      1.52      0.00
   -4    0    8     -0.90      0.00
   -4    0    7     -3.49      0.00
   -4    0    6     -4.20      0.00
   -4    0    5     -1.31      0.00
   -4    0    4      4.90      0.00
   -4    0    3     11.36      0.00
   -4    0    2     13.86      0.00
   -4    0    1     10.41      0.00
    4    0    0      3.16      0.00
    4    0    1     -3.25      0.00
    4    0    2     -5.45      0.00
    4    0    3     -3.56      0.00
    4    0    4     -0.16      0.00
    4    0    5      2.39      0.00
    4    0    6      3.28      0.00
    4    0    7      2.86      0.00
    4    0    8      1.70      0.00
    4    0    9      0.43      0.00
   -4    2   13      0.01      0.00
   -4    2   12      1.15      0.00
   -4    2   11      2.39      0.00
   -4    2   10      2.68      0.00
   -4    2    9      1.44      0.00
   -4    2    8     -0.97      0.00
   -4    2    7     -3.23      0.00
   -4    2    6     -3.61      0.00
   -4    2    5     -0.88      0.00
   -4    2    4      4.47      0.00
   -4    2    3      9.83      0.00
   -4    2    2     11.86      0.00
   -4    2    1      9.05      0.00
    4    2    0      3.09      0.00
    4    2    1     -2.34      0.00
    4    2    2     -4.45      0.00
    4    2    3     -3.11      0.00
    4    2    4     -0.19      0.00
    4    2    5      2.34      0.00
    4    2    6      3.47      0.00
    4    2    7      3.18      0.00
    4    2    8      1.93      0.00
    4    2    9      0.50      0.00
   -4    4   12      1.98      0.00
   -4    4   11      3.04      0.00
   -4    4   10      2.97      0.00
   -4    4    9      1.42      0.00
   -4    4    8     -0.94      0.00
   -4    4    7     -2.81      0.00
   -4    4    6     -2.93      0.00
   -4    4    5     -0.82      0.00
   -4    4    4      2.79      0.00
   -4    4    3      6.15      0.00
   -4    4    2      7.43      0.00
   -4    4    1      5.89      0.00
    4    4    0      2.44      0.00
    4    4    1     -0.97      0.00
    4    4    2     -2.67      0.00
    4    4    3     -2.15      0.00
    4    4    4     -0.10      0.00
    4    4    5      2.18      0.00
    4    4    6      3.54      0.00
    4    4    7      3.44      0.00
    4    4    8      2.22      0.00
    4    4    9      0.79      0.00
   -4    6   11      2.89      0.00
   -4    6   10      2.73      0.00
   -4    6    9      1.40      0.00
   -4    6    8     -0.58      0.00
   -4    6    7     -2.21      0.00
   -4    6    6     -2.50      0.00
   -4    6    5     -1.17      0.00
   -4    6    4      1.12      0.00
   -4    6    3      3.14      0.00
   -4    6    2      3.88      0.00
   -4    6    1      3.07      0.00
    4    6    0      1.32      0.00
    4    6    1     -0.40      0.00
    4    6    2     -1.22      0.00
    4    6    3     -0.81      0.00
    4    6    4      0.54      0.00
    4    6    5      2.05      0.00
    4    6    6      2.89      0.00
    4    6    7      2.71      0.00
    4    6    8      1.83      0.00
   -4    8   10      1.36      0.00
   -4    8    9      0.55      0.00
   -4    8    8     -0.74      0.00
   -4    8    7     -1.82      0.00
   -4    8    6     -1.99      0.00
   -4    8    5     -0.99      0.00
   -4    8    4      0.61      0.00
   -4    8    3      1.86      0.00
   -4    8    2      2.10      0.00
   -4    8    1      1.42      0.00
    4    8    0      0.46      0.00
    4    8    1     -0.13      0.00
    4    8    2     -0.13      0.00
    4    8    3      0.33      0.00
    4    8    4      0.92      0.00
    4    8    5      1.34      0.00
    4    8    6      1.41      0.00
    4    8    7      1.16      0.00
   -4   10    8     -1.50      0.00
   -4   10    7     -1.99      0.00
   -4   10    6     -1.80      0.00
   -4   10    5     -0.96      0.00
   -4   10    4      0.06      0.00
   -4   10    3      0.67      0.00
   -4   10    2      0.68      0.00
   -4   10    1      0.36      0.00
    4   10    0      0.15      0.00
    4   10    1      0.20      0.00
    4   10    2      0.33      0.00
    4   10    3      0.32      0.00
    4   10    4      0.12      0.00
    4   10    5     -0.08      0.00
   -4   12    5     -0.56      0.00
   -4   12    4     -0.30      0.00
   -4   12    3     -0.23      0.00
   -4   12    2     -0.21      0.00
   -4   12    1     -0.05      0.00
    4   12    0      0.23      0.00
    4   12    1      0.44      0.00
   -5    1   13     -0.11      0.00
   -5    1   12      0.94      0.00
   -5    1   11      1.94      0.00
   -5    1   10      1.80      0.00
   -5    1    9      0.04      0.00
   -5    1    8     -2.55      0.00
   -5    1    7     -4.18      0.00
   -5    1    6     -3.10      0.00
   -5    1    5      1.03      0.00
   -5    1    4      6.41      0.00
   -5    1    3      9.83      0.00
   -5    1    2      8.94      0.00
   -5    1    1      4.22      0.00
    5    1    0     -1.27      0.00
    5    1    1     -4.35      0.00
    5    1    2     -4.03      0.00
    5    1    3     -1.66      0.00
    5    1    4      0.80      0.00
    5    1    5      2.27      0.00
    5    1    6      2.63      0.00
    5    1    7      2.14      0.00
    5    1    8      1.14      0.00
    5    1    9      0.16      0.00
   -5    3   13      0.39      0.00
   -5    3   12      1.49      0.00
   -5    3   11      2.33      0.00
   -5    3   10      1.97      0.00
   -5    3    9      0.25      0.00
   -5    3    8     -1.95      0.00
   -5    3    7     -3.13      0.00
   -5    3    6     -2.15      0.00
   -5    3    5      0.93      0.00
   -5    3    4      4.66      0.00
   -5    3    3      6.89      0.00
   -5    3    2      6.26      0.00
   -5    3    1      3.16      0.00
    5    3    0     -0.53      0.00
    5    3    1     -2.86      0.00
    5    3    2     -3.04      0.00
    5    3    3     -1.57      0.00
    5    3    4      0.48      0.00
    5    3    5      2.16      0.00
    5    3    6      2.87      0.00
    5    3    7      2.45      0.00
    5    3    8      1.31      0.00
   -5    5   12      1.96      0.00
   -5    5   11      2.58      0.00
   -5    5   10      2.15      0.00
   -5    5    9      0.66      0.00
   -5    5    8     -1.15      0.00
   -5    5    7     -2.18      0.00
   -5    5    6     -1.71      0.00
   -5    5    5      0.08      0.00
   -5    5    4      2.17      0.00
   -5    5    3      3.36      0.00
   -5    5    2      3.04      0.00
   -5    5    1      1.54      0.00
    5    5    0     -0.25      0.00
    5    5    1     -1.46      0.00
    5    5    2     -1.64      0.00
    5    5    3     -0.79      0.00
    5    5    4      0.70      0.00
    5    5    5      2.14      0.00
    5    5    6      2.84      0.00
    5    5    7      2.50      0.00
    5    5    8      1.52      0.00
   -5    7   11      1.91      0.00
   -5    7   10      1.62      0.00
   -5    7    9      0.59      0.00
   -5    7    8     -0.74      0.00
   -5    7    7     -1.60      0.00
   -5    7    6     -1.37      0.00
   -5    7    5     -0.17      0.00
   -5    7    4      1.17      0.00
   -5    7    3      1.74      0.00
   -5    7    2      1.23      0.00
   -5    7    1      0.18      0.00
    5    7    0     -0.67      0.00
    5    7    1     -0.87      0.00
    5    7    2     -0.46      0.00
    5    7    3      0.28      0.00
    5    7    4      1.09      0.00
    5    7    5      1.72      0.00
    5    7    6      1.92      0.00
    5    7    7      1.63      0.00
   -5    9    9     -0.65      0.00
   -5    9    8     -1.47      0.00
   -5    9    7     -1.79      0.00
   -5    9    6     -1.20      0.00
   -5    9    5      0.02      0.00
   -5    9    4      1.05      0.00
   -5    9    3      1.18      0.00
   -5    9    2      0.46      0.00
   -5    9    1     -0.41      0.00
    5    9    0     -0.75      0.00
    5    9    1     -0.47      0.00
    5    9    2      0.04      0.00
    5    9    3      0.36      0.00
    5    9    4      0.44      0.00
    5    9    5      0.47      0.00
   -5   11    7     -1.63      0.00
   -5   11    6     -0.89      0.00
   -5   11    5      0.04      0.00
   -5   11    4      0.56      0.00
   -5   11    3      0.46      0.00
   -5   11    2      0.03      0.00
   -5   11    1     -0.23      0.00
    5   11    0     -0.16      0.00
    5   11    1      0.04      0.00
    5   11    2      0.00      0.00
    5   11    3     -0.31      0.00
   -6    0   13      0.06      0.00
   -6    0   12      1.09      0.00
   -6    0   11      1.79      0.00
   -6    0   10      1.05      0.00
   -6    0    9     -1.24      0.00
   -6    0    8     -3.77      0.00
   -6    0    7     -4.47      0.00
   -6    0    6     -2.09      0.00
   -6    0    5      2.56      0.00
   -6    0    4      6.79      0.00
   -6    0    3      7.84      0.00
   -6    0    2      5.01      0.00
   -6    0    1      0.31      0.00
    6    0    0     -3.20      0.00
    6    0    1     -3.84      0.00
    6    0    2     -2.17      0.00
    6    0    3      0.04      0.00
    6    0    4      1.56      0.00
    6    0    5      2.19      0.00
    6    0    6      2.20      0.00
    6    0    7      1.72      0.00
    6    0    8      0.93      0.00
   -6    2   13      0.16      0.00
   -6    2   12      1.13      0.00
   -6    2   11      1.72      0.00
   -6    2   10      1.03      0.00
   -6    2    9     -0.97      0.00
   -6    2    8     -3.06      0.00
   -6    2    7     -3.54      0.00
   -6    2    6     -1.49      0.00
   -6    2    5      2.30      0.00
   -6    2    4      5.59      0.00
   -6    2    3      6.25      0.00
   -6    2    2      3.85      0.00
   -6    2    1      0.00      0.00
    6    2    0     -2.92      0.00
    6    2    1     -3.59      0.00
    6    2    2     -2.38      0.00
    6    2    3     -0.53      0.00
    6    2    4      1.04      0.00
    6    2    5      1.95      0.00
    6    2    6      2.15      0.00
    6    2    7      1.66      0.00
    6    2    8      0.77      0.00
   -6    4   12      1.24      0.00
   -6    4   11      1.65      0.00
   -6    4   10      1.11      0.00
   -6    4    9     -0.28      0.00
   -6    4    8     -1.66      0.00
   -6    4    7     -1.97      0.00
   -6    4    6     -0.76      0.00
   -6    4    5      1.36      0.00
   -6    4    4      3.06      0.00
   -6    4    3      3.22      0.00
   -6    4    2      1.76      0.00
   -6    4    1     -0.37      0.00
    6    4    0     -1.99      0.00
    6    4    1     -2.48      0.00
    6    4    2     -1.93      0.00
    6    4    3     -0.72      0.00
    6    4    4      0.69      0.00
    6    4    5      1.82      0.00
    6    4    6      2.22      0.00
    6    4    7      1.77      0.00
   -6    6   12      1.19      0.00
   -6    6   11      1.48      0.00
   -6    6   10      1.20      0.00
   -6    6    9      0.36      0.00
   -6    6    8     -0.59      0.00
   -6    6    7     -0.99      0.00
   -6    6    6     -0.45      0.00
   -6    6    5      0.68      0.00
   -6    6    4      1.52      0.00
   -6    6    3      1.39      0.00
   -6    6    2      0.37      0.00
   -6    6    1     -0.80      0.00
    6    6    0     -1.40      0.00
    6    6    1     -1.28      0.00
    6    6    2     -0.67      0.00
    6    6    3      0.14      0.00
    6    6    4      0.98      0.00
    6    6    5      1.64      0.00
    6    6    6      1.87      0.00
    6    6    7      1.57      0.00
   -6    8   10      0.55      0.00
   -6    8    9     -0.02      0.00
   -6    8    8     -0.64      0.00
   -6    8    7     -0.75      0.00
   -6    8    6     -0.06      0.00
   -6    8    5      1.02      0.00
   -6    8    4      1.60      0.00
   -6    8    3      1.10      0.00
   -6    8    2     -0.14      0.00
   -6    8    1     -1.18      0.00
    6    8    0     -1.35      0.00
    6    8    1     -0.75      0.00
    6    8    2     -0.02      0.00
    6    8    3      0.41      0.00
    6    8    4      0.58      0.00
    6    8    5      0.68      0.00
   -6   10    8     -1.22      0.00
   -6   10    7     -0.83      0.00
   -6   10    6      0.23      0.00
   -6   10    5      1.33      0.00
   -6   10    4      1.71      0.00
   -6   10    3      1.14      0.00
   -6   10    2      0.14      0.00
   -6   10    1     -0.50      0.00
    6   10    0     -0.48      0.00
    6   10    1     -0.14      0.00
    6   10    2      0.01      0.00
    6   10    3     -0.16      0.00
   -6   12    3      0.61      0.00
   -6   12    2      0.29      0.00
   -7    1   13      0.27      0.00
   -7    1   12      1.23      0.00
   -7    1   11      1.59      0.00
   -7    1   10      0.48      0.00
   -7    1    9     -1.81      0.00
   -7    1    8     -3.71      0.00
   -7    1    7     -3.46      0.00
   -7    1    6     -0.69      0.00
   -7    1    5      3.02      0.00
   -7    1    4      5.17      0.00
   -7    1    3      4.24      0.00
   -7    1    2      0.97      0.00
   -7    1    1     -2.29      0.00
    7    1    0     -3.57      0.00
    7    1    1     -2.63      0.00
    7    1    2     -0.73      0.00
    7    1    3      0.84      0.00
    7    1    4      1.64      0.00
    7    1    5      1.87      0.00
    7    1    6      1.75      0.00
    7    1    7      1.30      0.00
   -7    3   13      0.13      0.00
   -7    3   12      0.79      0.00
   -7    3   11      1.03      0.00
   -7    3   10      0.31      0.00
   -7    3    9     -1.13      0.00
   -7    3    8     -2.26      0.00
   -7    3    7     -1.98      0.00
   -7    3    6     -0.14      0.00
   -7    3    5      2.15      0.00
   -7    3    4      3.24      0.00
   -7    3    3      2.27      0.00
   -7    3    2     -0.15      0.00
   -7    3    1     -2.45      0.00
    7    3    0     -3.42      0.00
    7    3    1     -2.91      0.00
    7    3    2     -1.61      0.00
    7    3    3     -0.24      0.00
    7    3    4      0.84      0.00
    7    3    5      1.47      0.00
    7    3    6      1.51      0.00
    7    3    7      1.02      0.00
   -7    5   12      0.45      0.00
   -7    5   11      0.63      0.00
   -7    5   10      0.41      0.00
   -7    5    9     -0.19      0.00
   -7    5    8     -0.74      0.00
   -7    5    7     -0.67      0.00
   -7    5    6      0.18      0.00
   -7    5    5      1.27      0.00
   -7    5    4      1.68      0.00
   -7    5    3      0.93      0.00
   -7    5    2     -0.57      0.00
   -7    5    1     -1.84      0.00
    7    5    0     -2.23      0.00
    7    5    1     -1.78      0.00
    7    5    2     -0.94      0.00
    7    5    3     -0.04      0.00
    7    5    4      0.75      0.00
    7    5    5      1.28      0.00
    7    5    6      1.38      0.00
   -7    7   11      0.55      0.00
   -7    7   10      0.56      0.00
   -7    7    9      0.29      0.00
   -7    7    8     -0.07      0.00
   -7    7    7     -0.06      0.00
   -7    7    6      0.56      0.00
   -7    7    5      1.38      0.00
   -7    7    4      1.56      0.00
   -7    7    3      0.70      0.00
   -7    7    2     -0.70      0.00
   -7    7    1     -1.62      0.00
    7    7    0     -1.51      0.00
    7    7    1     -0.73      0.00
    7    7    2      0.02      0.00
    7    7    3      0.37      0.00
    7    7    4      0.48      0.00
    7    7    5      0.59      0.00
   -7    9    9      0.01      0.00
   -7    9    8     -0.09      0.00
   -7    9    7      0.35      0.00
   -7    9    6      1.34      0.00
   -7    9    5      2.23      0.00
   -7    9    4      2.24      0.00
   -7    9    3      1.20      0.00
   -7    9    2     -0.17      0.00
   -7    9    1     -0.90      0.00
    7    9    0     -0.71      0.00
    7    9    1     -0.10      0.00
    7    9    2      0.20      0.00
    7    9    3      0.04      0.00
   -7   11    6      1.50      0.00
   -7   11    5      2.12      0.00
   -7   11    4      2.02      0.00
   -7   11    3      1.37      0.00
   -7   11    2      0.73      0.00
   -7   11    1      0.48      0.00
    7   11    0      0.51      0.00
   -8    0   13      0.46      0.00
   -8    0   12      1.37      0.00
   -8    0   11      1.49      0.00
   -8    0   10      0.17      0.00
   -8    0    9     -1.93      0.00
   -8    0    8     -3.18      0.00
   -8    0    7     -2.28      0.00
   -8    0    6      0.43      0.00
   -8    0    5      3.03      0.00
   -8    0    4      3.52      0.00
   -8    0    3      1.51      0.00
   -8    0    2     -1.45      0.00
   -8    0    1     -3.24      0.00
    8    0    0     -2.89      0.00
    8    0    1     -1.13      0.00
    8    0    2      0.61      0.00
    8    0    3      1.48      0.00
    8    0    4      1.59      0.00
    8    0    5      1.42      0.00
    8    0    6      1.21      0.00
   -8    2   13      0.22      0.00
   -8    2   12      0.90      0.00
   -8    2   11      0.98      0.00
   -8    2   10     -0.02      0.00
   -8    2    9     -1.59      0.00
   -8    2    8     -2.46      0.00
   -8    2    7     -1.66      0.00
   -8    2    6      0.50      0.00
   -8    2    5      2.47      0.00
   -8    2    4      2.64      0.00
   -8    2    3      0.77      0.00
   -8    2    2     -1.86      0.00
   -8    2    1     -3.49      0.00
    8    2    0     -3.32      0.00
    8    2    1     -1.89      0.00
    8    2    2     -0.30      0.00
    8    2    3      0.74      0.00
    8    2    4      1.17      0.00
    8    2    5      1.22      0.00
    8    2    6      1.02      0.00
   -8    4   13     -0.13      0.00
   -8    4   12      0.13      0.00
   -8    4   11      0.21      0.00
   -8    4   10     -0.12      0.00
   -8    4    9     -0.74      0.00
   -8    4    8     -1.10      0.00
   -8    4    7     -0.66      0.00
   -8    4    6      0.50      0.00
   -8    4    5      1.53      0.00
   -8    4    4      1.45      0.00
   -8    4    3      0.06      0.00
   -8    4    2     -1.80      0.00
   -8    4    1     -2.98      0.00
    8    4    0     -2.95      0.00
    8    4    1     -2.01      0.00
    8    4    2     -0.83      0.00
    8    4    3      0.12      0.00
    8    4    4      0.71      0.00
    8    4    5      0.93      0.00
    8    4    6      0.78      0.00
   -8    6   12     -0.09      0.00
   -8    6   11      0.09      0.00
   -8    6   10      0.20      0.00
   -8    6    9      0.06      0.00
   -8    6    8     -0.19      0.00
   -8    6    7     -0.11      0.00
   -8    6    6      0.53      0.00
   -8    6    5      1.23      0.00
   -8    6    4      1.19      0.00
   -8    6    3      0.11      0.00
   -8    6    2     -1.33      0.00
   -8    6    1     -2.09      0.00
    8    6    0     -1.76      0.00
    8    6    1     -0.83      0.00
    8    6    2     -0.04      0.00
    8    6    3      0.31      0.00
    8    6    4      0.38      0.00
    8    6    5      0.41      0.00
   -8    8   10      0.55      0.00
   -8    8    9      0.46      0.00
   -8    8    8      0.32      0.00
   -8    8    7      0.59      0.00
   -8    8    6      1.34      0.00
   -8    8    5      2.00      0.00
   -8    8    4      1.75      0.00
   -8    8    3      0.49      0.00
   -8    8    2     -0.93      0.00
   -8    8    1     -1.46      0.00
    8    8    0     -0.91      0.00
    8    8    1     -0.02      0.00
    8    8    2      0.37      0.00
    8    8    3      0.14      0.00
   -8   10    8      0.68      0.00
   -8   10    7      1.32      0.00
   -8   10    6      2.18      0.00
   -8   10    5      2.65      0.00
   -8   10    4      2.29      0.00
   -8   10    3      1.28      0.00
   -8   10    2      0.37      0.00
   -8   10    1      0.10      0.00
    8   10    0      0.36      0.00
    8   10    1      0.59      0.00
   -9    1   13      0.37      0.00
   -9    1   12      0.98      0.00
   -9    1   11      0.84      0.00
   -9    1   10     -0.24      0.00
   -9    1    9     -1.52      0.00
   -9    1    8     -1.79      0.00
   -9    1    7     -0.55      0.00
   -9    1    6      1.38      0.00
   -9    1    5      2.40      0.00
   -9    1    4      1.56      0.00
   -9    1    3     -0.60      0.00
   -9    1    2     -2.53      0.00
   -9    1    1     -2.96      0.00
    9    1    0     -1.86      0.00
    9    1    1     -0.25      0.00
    9    1    2      0.86      0.00
    9    1    3      1.13      0.00
    9    1    4      0.91      0.00
    9    1    5      0.64      0.00
    9    1    6      0.49      0.00
   -9    3   13      0.03      0.00
   -9    3   12      0.30      0.00
   -9    3   11      0.22      0.00
   -9    3   10     -0.36      0.00
   -9    3    9     -1.07      0.00
   -9    3    8     -1.19      0.00
   -9    3    7     -0.37      0.00
   -9    3    6      0.92      0.00
   -9    3    5      1.61      0.00
   -9    3    4      0.94      0.00
   -9    3    3     -0.80      0.00
   -9    3    2     -2.48      0.00
   -9    3    1     -3.07      0.00
    9    3    0     -2.41      0.00
    9    3    1     -1.11      0.00
    9    3    2      0.05      0.00
    9    3    3      0.69      0.00
    9    3    4      0.83      0.00
    9    3    5      0.67      0.00
   -9    5   12     -0.11      0.00
   -9    5   11      0.01      0.00
   -9    5   10     -0.02      0.00
   -9    5    9     -0.31      0.00
   -9    5    8     -0.57      0.00
   -9    5    7     -0.34      0.00
   -9    5    6      0.39      0.00
   -9    5    5      0.99      0.00
   -9    5    4      0.67      0.00
   -9    5    3     -0.60      0.00
   -9    5    2     -1.99      0.00
   -9    5    1     -2.52      0.00
    9    5    0     -1.96      0.00
    9    5    1     -0.86      0.00
    9    5    2      0.05      0.00
    9    5    3      0.47      0.00
    9    5    4      0.48      0.00
    9    5    5      0.32      0.00
   -9    7   11      0.32      0.00
   -9    7   10      0.50      0.00
   -9    7    9      0.31      0.00
   -9    7    8     -0.04      0.00
   -9    7    7      0.03      0.00
   -9    7    6      0.65      0.00
   -9    7    5      1.19      0.00
   -9    7    4      0.82      0.00
   -9    7    3     -0.50      0.00
   -9    7    2     -1.79      0.00
   -9    7    1     -2.03      0.00
    9    7    0     -1.15      0.00
    9    7    1     -0.06      0.00
    9    7    2      0.43      0.00
    9    7    3      0.23      0.00
   -9    9    9      0.69      0.00
   -9    9    8      0.68      0.00
   -9    9    7      1.07      0.00
   -9    9    6      1.72      0.00
   -9    9    5      1.99      0.00
   -9    9    4      1.36      0.00
   -9    9    3      0.08      0.00
   -9    9    2     -0.91      0.00
   -9    9    1     -0.90      0.00
    9    9    0     -0.14      0.00
    9    9    1      0.53      0.00
  -10    0   13      0.18      0.00
  -10    0   12      0.44      0.00
  -10    0   11      0.10      0.00
  -10    0   10     -0.68      0.00
  -10    0    9     -1.12      0.00
  -10    0    8     -0.56      0.00
  -10    0    7      0.81      0.00
  -10    0    6      1.90      0.00
  -10    0    5      1.74      0.00
  -10    0    4      0.32      0.00
  -10    0    3     -1.36      0.00
  -10    0    2     -2.15      0.00
  -10    0    1     -1.68      0.00
   10    0    0     -0.51      0.00
   10    0    1      0.50      0.00
   10    0    2      0.82      0.00
   10    0    3      0.56      0.00
   10    0    4      0.14      0.00
   10    0    5     -0.04      0.00
  -10    2   13      0.11      0.00
  -10    2   12      0.25      0.00
  -10    2   11     -0.05      0.00
  -10    2   10     -0.69      0.00
  -10    2    9     -1.06      0.00
  -10    2    8     -0.63      0.00
  -10    2    7      0.48      0.00
  -10    2    6      1.45      0.00
  -10    2    5      1.41      0.00
  -10    2    4      0.27      0.00
  -10    2    3     -1.22      0.00
  -10    2    2     -2.07      0.00
  -10    2    1     -1.85      0.00
   10    2    0     -0.89      0.00
   10    2    1      0.13      0.00
   10    2    2      0.70      0.00
   10    2    3      0.75      0.00
   10    2    4      0.50      0.00
   10    2    5      0.25      0.00
  -10    4   12      0.15      0.00
  -10    4   11      0.07      0.00
  -10    4   10     -0.23      0.00
  -10    4    9     -0.61      0.00
  -10    4    8     -0.69      0.00
  -10    4    7     -0.21      0.00
  -10    4    6      0.51      0.00
  -10    4    5      0.79      0.00
  -10    4    4      0.20      0.00
  -10    4    3     -0.97      0.00
  -10    4    2     -1.92      0.00
  -10    4    1     -2.04      0.00
   10    4    0     -1.33      0.00
   10    4    1     -0.29      0.00
   10    4    2      0.51      0.00
   10    4    3      0.80      0.00
   10    4    4      0.67      0.00
  -10    6   11      0.55      0.00
  -10    6   10      0.55      0.00
  -10    6    9      0.10      0.00
  -10    6    8     -0.40      0.00
  -10    6    7     -0.38      0.00
  -10    6    6      0.20      0.00
  -10    6    5      0.61      0.00
  -10    6    4      0.12      0.00
  -10    6    3     -1.12      0.00
  -10    6    2     -2.14      0.00
  -10    6    1     -2.13      0.00
   10    6    0     -1.18      0.00
   10    6    1     -0.08      0.00
   10    6    2      0.46      0.00
   10    6    3      0.41      0.00
  -10    8   10      0.83      0.00
  -10    8    9      0.56      0.00
  -10    8    8      0.27      0.00
  -10    8    7      0.42      0.00
  -10    8    6      0.92      0.00
  -10    8    5      1.02      0.00
  -10    8    4      0.18      0.00
  -10    8    3     -1.22      0.00
  -10    8    2     -2.07      0.00
  -10    8    1     -1.71      0.00
   10    8    0     -0.56      0.00
   10    8    1      0.38      0.00
  -10   10    6      1.19      0.00
  -10   10    5      1.00      0.00
  -10   10    4      0.26      0.00
  -10   10    3     -0.61      0.00
  -10   10    2     -0.97      0.00
  -11    1   13     -0.22      0.00
  -11    1   12     -0.41      0.00
  -11    1   11     -0.83      0.00
  -11    1   10     -1.06      0.00
  -11    1    9     -0.62      0.00
  -11    1    8      0.42      0.00
  -11    1    7      1.36      0.00
  -11    1    6      1.42      0.00
  -11    1    5      0.50      0.00
  -11    1    4     -0.72      0.00
  -11    1    3     -1.40      0.00
  -11    1    2     -1.26      0.00
  -11    1    1     -0.61      0.00
   11    1    0      0.01      0.00
   11    1    1      0.32      0.00
   11    1    2      0.29      0.00
   11    1    3      0.08      0.00
   11    1    4     -0.11      0.00
  -11    3   12     -0.04      0.00
  -11    3   11     -0.36      0.00
  -11    3   10     -0.66      0.00
  -11    3    9     -0.66      0.00
  -11    3    8     -0.24      0.00
  -11    3    7      0.34      0.00
  -11    3    6      0.63      0.00
  -11    3    5      0.35      0.00
  -11    3    4     -0.30      0.00
  -11    3    3     -0.89      0.00
  -11    3    2     -1.08      0.00
  -11    3    1     -0.83      0.00
   11    3    0     -0.31      0.00
   11    3    1      0.24      0.00
   11    3    2      0.63      0.00
   11    3    3      0.71      0.00
  -11    5   12      0.58      0.00
  -11    5   11      0.65      0.00
  -11    5   10      0.40      0.00
  -11    5    9     -0.11      0.00
  -11    5    8     -0.47      0.00
  -11    5    7     -0.36      0.00
  -11    5    6      0.08      0.00
  -11    5    5      0.27      0.00
  -11    5    4     -0.16      0.00
  -11    5    3     -0.96      0.00
  -11    5    2     -1.51      0.00
  -11    5    1     -1.38      0.00
   11    5    0     -0.70      0.00
   11    5    1      0.08      0.00
   11    5    2      0.57      0.00
  -11    7   10      1.09      0.00
  -11    7    9      0.61      0.00
  -11    7    8      0.15      0.00
  -11    7    7      0.21      0.00
  -11    7    6      0.61      0.00
  -11    7    5      0.58      0.00
  -11    7    4     -0.29      0.00
  -11    7    3     -1.51      0.00
  -11    7    2     -2.11      0.00
  -11    7    1     -1.64      0.00
   11    7    0     -0.60      0.00
   11    7    1      0.22      0.00
  -11    9    7      0.71      0.00
  -11    9    6      0.87      0.00
  -11    9    5      0.48      0.00
  -11    9    4     -0.55      0.00
  -11    9    3     -1.59      0.00
  -11    9    2     -1.84      0.00
  -12    0   13     -0.66      0.00
  -12    0   12     -1.15      0.00
  -12    0   11     -1.43      0.00
  -12    0   10     -0.98      0.00
  -12    0    9      0.19      0.00
  -12    0    8      1.33      0.00
  -12    0    7      1.47      0.00
  -12    0    6      0.40      0.00
  -12    0    5     -1.03      0.00
  -12    0    4     -1.75      0.00
  -12    0    3     -1.43      0.00
  -12    0    2     -0.65      0.00
  -12    0    1     -0.16      0.00
   12    0    0     -0.14      0.00
   12    0    1     -0.29      0.00
   12    0    2     -0.34      0.00
   12    0    3     -0.26      0.00
  -12    2   12     -0.74      0.00
  -12    2   11     -1.05      0.00
  -12    2   10     -0.85      0.00
  -12    2    9     -0.09      0.00
  -12    2    8      0.71      0.00
  -12    2    7      0.85      0.00
  -12    2    6      0.16      0.00
  -12    2    5     -0.76      0.00
  -12    2    4     -1.17      0.00
  -12    2    3     -0.90      0.00
  -12    2    2     -0.40      0.00
  -12    2    1     -0.13      0.00
   12    2    0     -0.11      0.00
   12    2    1     -0.09      0.00
   12    2    2      0.05      0.00
  -12    4   12      0.27      0.00
  -12    4   11      0.12      0.00
  -12    4   10     -0.07      0.00
  -12    4    9     -0.17      0.00
  -12    4    8     -0.17      0.00
  -12    4    7     -0.12      0.00
  -12    4    6     -0.15      0.00
  -12    4    5     -0.26      0.00
  -12    4    4     -0.36      0.00
  -12    4    3     -0.40      0.00
  -12    4    2     -0.41      0.00
  -12    4    1     -0.39      0.00
   12    4    0     -0.24      0.00
   12    4    1      0.08      0.00
   12    4    2      0.43      0.00
  -12    6   11      1.21      0.00
  -12    6   10      1.04      0.00
  -12    6    9      0.54      0.00
  -12    6    8      0.15      0.00
  -12    6    7      0.19      0.00
  -12    6    6      0.44      0.00
  -12    6    5      0.40      0.00
  -12    6    4     -0.10      0.00
  -12    6    3     -0.75      0.00
  -12    6    2     -1.05      0.00
  -12    6    1     -0.83      0.00
   12    6    0     -0.35      0.00
  -12    8    8      0.76      0.00
  -12    8    7      0.95      0.00
  -12    8    6      1.04      0.00
  -12    8    5      0.57      0.00
  -12    8    4     -0.43      0.00
  -12    8    3     -1.31      0.00
  -12    8    2     -1.46      0.00
  -13    1   12     -1.28      0.00
  -13    1   11     -1.25      0.00
  -13    1   10     -0.31      0.00
  -13    1    9      1.02      0.00
  -13    1    8      1.59      0.00
  -13    1    7      0.74      0.00
  -13    1    6     -0.97      0.00
  -13    1    5     -2.14      0.00
  -13    1    4     -1.97      0.00
  -13    1    3     -0.95      0.00
  -13    1    2     -0.18      0.00
  -13    1    1     -0.21      0.00
   13    1    0     -0.61      0.00
   13    1    1     -0.72      0.00
  -13    3   12     -0.44      0.00
  -13    3   11     -0.53      0.00
  -13    3   10     -0.17      0.00
  -13    3    9      0.38      0.00
  -13    3    8      0.56      0.00
  -13    3    7      0.03      0.00
  -13    3    6     -0.81      0.00
  -13    3    5     -1.21      0.00
  -13    3    4     -0.83      0.00
  -13    3    3     -0.14      0.00
  -13    3    2      0.15      0.00
  -13    3    1     -0.11      0.00
   13    3    0     -0.43      0.00
   13    3    1     -0.36      0.00
  -13    5   11      0.62      0.00
  -13    5   10      0.52      0.00
  -13    5    9      0.33      0.00
  -13    5    8      0.13      0.00
  -13    5    7     -0.02      0.00
  -13    5    6     -0.09      0.00
  -13    5    5     -0.03      0.00
  -13    5    4      0.12      0.00
  -13    5    3      0.21      0.00
  -13    5    2      0.11      0.00
  -13    5    1     -0.12      0.00
   13    5    0     -0.24      0.00
  -13    7    8      0.78      0.00
  -13    7    7      0.92      0.00
  -13    7    6      0.98      0.00
  -13    7    5      0.72      0.00
  -13    7    4      0.21      0.00
  -13    7    3     -0.21      0.00
  -13    7    2     -0.33      0.00
  -14    0   12     -1.20      0.00
  -14    0   11     -0.73      0.00
  -14    0   10      0.64      0.00
  -14    0    9      1.92      0.00
  -14    0    8      1.80      0.00
  -14    0    7      0.08      0.00
  -14    0    6     -1.93      0.00
  -14    0    5     -2.64      0.00
  -14    0    4     -1.74      0.00
  -14    0    3     -0.41      0.00
  -14    0    2      0.08      0.00
  -14    0    1     -0.39      0.00
   14    0    0     -0.93      0.00
  -14    2   11     -0.56      0.00
  -14    2   10      0.45      0.00
  -14    2    9      1.39      0.00
  -14    2    8      1.23      0.00
  -14    2    7     -0.15      0.00
  -14    2    6     -1.65      0.00
  -14    2    5     -2.02      0.00
  -14    2    4     -1.13      0.00
  -14    2    3     -0.05      0.00
  -14    2    2      0.18      0.00
  -14    2    1     -0.38      0.00
   14    2    0     -0.86      0.00
  -14    4   10      0.31      0.00
  -14    4    9      0.56      0.00
  -14    4    8      0.34      0.00
  -14    4    7     -0.33      0.00
  -14    4    6     -0.86      0.00
  -14    4    5     -0.69      0.00
  -14    4    4      0.03      0.00
  -14    4    3      0.60      0.00
  -14    4    2      0.47      0.00
  -14    4    1     -0.11      0.00
  -14    6    8      0.40      0.00
  -14    6    7      0.32      0.00
  -14    6    6      0.31      0.00
  -14    6    5      0.43      0.00
  -14    6    4      0.62      0.00
  -14    6    3      0.69      0.00
  -15    1   11     -0.11      0.00
  -15    1   10      1.19      0.00
  -15    1    9      1.97      0.00
  -15    1    8      1.27      0.00
  -15    1    7     -0.54      0.00
  -15    1    6     -1.95      0.00
  -15    1    5     -1.81      0.00
  -15    1    4     -0.55      0.00
  -15    1    3      0.45      0.00
  -15    1    2      0.32      0.00
  -15    3   10      0.67      0.00
  -15    3    9      1.12      0.00
  -15    3    8      0.58      0.00
  -15    3    7     -0.62      0.00
  -15    3    6     -1.40      0.00
  -15    3    5     -1.05      0.00
  -15    3    4     -0.03      0.00
  -15    3    3      0.58      0.00
  -15    5    8      0.13      0.00
  -15    5    7     -0.31      0.00
  -15    5    6     -0.46      0.00
  -15    5    5     -0.05      0.00
  -16    0    9      1.65      0.00
  -16    0    8      0.71      0.00
  -16    0    7     -0.76      0.00
  -16    0    6     -1.42      0.00
  -16    0    5     -0.72      0.00
  -16    0    4      0.49      0.00
  -16    2    8      0.46      0.00
  -16    2    7     -0.79      0.00
  -16    2    6     -1.29      0.00
  -16    2    5     -0.65      0.00
    1    1    0     30.64      0.00
   15    1    0     -0.86      0.00
   15    3    0     -0.71      0.00
   14    4    0     -0.48      0.00
   14    6    0     -0.15      0.00
   13    7    0     -0.14      0.00
   12    8    0     -0.20      0.00
   11    9    0     -0.20      0.00
   10   10    0      0.10      0.00
    9   11    0      0.57      0.00
    6   12    0      0.31      0.00
    8   12    0      0.70      0.00
  -16    0    1     -0.34      0.00
   -2    0    1     26.82      0.00
    0    0    1     30.36      0.00
   14    0    1     -0.84      0.00
  -15    1    1     -0.45      0.00
   -1    1    1     29.98      0.00
  -16    2    1     -0.48      0.00
   14    2    1     -0.71      0.00
  -15    3    1     -0.44      0.00
   14    4    1     -0.33      0.00
  -15    5    1     -0.01      0.00
   13    5    1     -0.09      0.00
  -14    6    1      0.12      0.00
   12    6    1      0.08      0.00
  -13    7    1     -0.24      0.00
  -12    8    1     -0.89      0.00
   12    8    1      0.14      0.00
  -11    9    1     -1.17      0.00
   11    9    1      0.35      0.00
  -10   10    1     -0.59      0.00
   10   10    1      0.49      0.00
   -9   11    1      0.38      0.00
    7   11    1      0.44      0.00
    9   11    1      0.58      0.00
   -8   12    1      0.76      0.00
   -6   12    1      0.24      0.00
    6   12    1      0.20      0.00
  -16    0    2      0.45      0.00
   14    0    2     -0.26      0.00
   13    1    2     -0.40      0.00
  -16    2    2      0.17      0.00
   14    2    2     -0.17      0.00
  -15    3    2      0.27      0.00
   13    3    2      0.01      0.00
  -16    4    2      0.11      0.00
  -15    5    2      0.53      0.00
   13    5    2      0.17      0.00
  -14    6    2      0.49      0.00
   12    6    2      0.28      0.00
   11    7    2      0.40      0.00
   10    8    2      0.51      0.00
  -13    9    2     -0.58      0.00
    9    9    2      0.52      0.00
  -12   10    2     -1.12      0.00
    8   10    2      0.40      0.00
   -9   11    2      0.32      0.00
    7   11    2      0.11      0.00
   -8   12    2      0.76      0.00
    4   12    2      0.38      0.00
    6   12    2     -0.17      0.00
  -16    0    3      0.99      0.00
   13    1    3      0.01      0.00
  -16    2    3      0.70      0.00
   12    2    3      0.18      0.00
   13    3    3      0.26      0.00
  -16    4    3      0.53      0.00
   12    4    3      0.56      0.00
  -15    5    3      0.86      0.00
   11    5    3      0.62      0.00
   12    6    3      0.27      0.00
  -15    7    3      0.61      0.00
   11    7    3      0.18      0.00
  -14    8    3      0.18      0.00
   10    8    3      0.11      0.00
  -13    9    3     -0.68      0.00
    9    9    3      0.05      0.00
  -12   10    3     -1.25      0.00
    8   10    3     -0.04      0.00
  -11   11    3     -0.90      0.00
   -9   11    3      0.63      0.00
    7   11    3     -0.29      0.00
   -8   12    3      0.90      0.00
    4   12    3      0.03      0.00
    6   12    3     -0.57      0.00
   12    0    4     -0.14      0.00
  -16    2    4      0.37      0.00
   12    2    4      0.17      0.00
   11    3    4      0.51      0.00
  -16    4    4      0.41      0.00
  -15    5    4      0.59      0.00
   11    5    4      0.39      0.00
   10    6    4      0.11      0.00
  -15    7    4      0.53      0.00
    9    7    4     -0.13      0.00
  -14    8    4      0.29      0.00
    8    8    4     -0.22      0.00
  -13    9    4     -0.35      0.00
    7    9    4     -0.20      0.00
  -12   10    4     -0.84      0.00
    6   10    4     -0.33      0.00
  -11   11    4     -0.58      0.00
   -9   11    4      1.19      0.00
    5   11    4     -0.59      0.00
   -8   12    4      1.20      0.00
   -6   12    4      0.97      0.00
    2   12    4      0.64      0.00
    4   12    4     -0.38      0.00
   11    1    5     -0.12      0.00
   11    3    5      0.24      0.00
  -16    4    5     -0.26      0.00
   10    4    5      0.34      0.00
  -16    6    5      0.04      0.00
   10    6    5     -0.09      0.00
  -15    7    5      0.32      0.00
    9    7    5     -0.24      0.00
  -14    8    5      0.53      0.00
    8    8    5     -0.25      0.00
  -13    9    5      0.26      0.00
    7    9    5     -0.16      0.00
  -12   10    5     -0.17      0.00
    6   10    5     -0.23      0.00
  -11   11    5     -0.12      0.00
   -9   11    5      1.62      0.00
    3   11    5     -0.27      0.00
    5   11    5     -0.56      0.00
   -8   12    5      1.44      0.00
   -6   12    5      0.96      0.00
    0   12    5      0.26      0.00
    2   12    5      0.19      0.00
   10    0    6      0.05      0.00
   10    2    6      0.14      0.00
    9    3    6      0.39      0.00
  -16    4    6     -0.80      0.00
    9    5    6      0.14      0.00
  -16    6    6     -0.29      0.00
    8    6    6      0.43      0.00
  -15    7    6      0.20      0.00
    7    7    6      0.70      0.00
  -14    8    6      0.76      0.00
    6    8    6      0.77      0.00
  -13    9    6      0.76      0.00
    5    9    6      0.50      0.00
  -12   10    6      0.33      0.00
    4   10    6     -0.12      0.00
  -11   11    6      0.19      0.00
   -9   11    6      1.61      0.00
    1   11    6     -0.05      0.00
    3   11    6     -0.50      0.00
   -8   12    6      1.34      0.00
   -6   12    6      0.41      0.00
   -4   12    6     -0.95      0.00
   -2   12    6     -0.45      0.00
    0   12    6      0.17      0.00
    2   12    6     -0.20      0.00
    8    0    7      0.90      0.00
    9    1    7      0.38      0.00
    8    2    7      0.63      0.00
    9    3    7      0.13      0.00
  -16    4    7     -0.62      0.00
    8    4    7      0.39      0.00
    7    5    7      1.03      0.00
  -16    6    7     -0.29      0.00
  -15    7    7      0.20      0.00
    7    7    7      0.67      0.00
  -14    8    7      0.82      0.00
    6    8    7      0.71      0.00
  -13    9    7      0.88      0.00
    3    9    7      0.25      0.00
    5    9    7      0.47      0.00
  -12   10    7      0.45      0.00
  -10   10    7      0.92      0.00
    2   10    7     -0.43      0.00
    4   10    7     -0.05      0.00
  -11   11    7      0.26      0.00
   -9   11    7      1.22      0.00
   -7   11    7      0.54      0.00
   -1   11    7      0.16      0.00
    1   11    7     -0.32      0.00
   -8   12    7      0.89      0.00
   -6   12    7     -0.36      0.00
   -4   12    7     -1.19      0.00
   -2   12    7     -0.27      0.00
    0   12    7     -0.03      0.00
    8    0    8      0.47      0.00
    7    1    8      0.65      0.00
    8    2    8      0.19      0.00
    7    3    8      0.33      0.00
  -16    4    8      0.07      0.00
    6    4    8      0.87      0.00
    7    5    8      0.52      0.00
  -16    6    8     -0.06      0.00
    6    6    8      0.98      0.00
  -15    7    8      0.23      0.00
    5    7    8      1.06      0.00
  -14    8    8      0.69      0.00
    4    8    8      0.75      0.00
  -13    9    8      0.71      0.00
  -11    9    8      0.50      0.00
    3    9    8      0.08      0.00
  -12   10    8      0.33      0.00
  -10   10    8      0.62      0.00
    0   10    8      0.03      0.00
    2   10    8     -0.47      0.00
   -9   11    8      0.78      0.00
   -7   11    8     -0.16      0.00
   -5   11    8     -1.74      0.00
   -3   11    8     -0.68      0.00
   -1   11    8      0.20      0.00
   -6   12    8     -0.83      0.00
   -4   12    8     -1.07      0.00
    6    0    9      0.21      0.00
    7    1    9      0.10      0.00
  -16    2    9      1.26      0.00
    6    2    9      0.02      0.00
    5    3    9      0.21      0.00
  -16    4    9      0.55      0.00
    6    4    9      0.16      0.00
  -15    5    9      0.38      0.00
    5    5    9      0.58      0.00
  -16    6    9      0.11      0.00
  -14    6    9      0.48      0.00
    4    6    9      0.89      0.00
  -15    7    9      0.20      0.00
  -13    7    9      0.84      0.00
    3    7    9      0.89      0.00
  -14    8    9      0.52      0.00
  -12    8    9      0.83      0.00
    2    8    9      0.39      0.00
  -13    9    9      0.53      0.00
  -11    9    9      0.54      0.00
   -1    9    9      0.63      0.00
    1    9    9     -0.16      0.00
  -10   10    9      0.53      0.00
   -8   10    9      0.48      0.00
   -6   10    9     -0.94      0.00
   -4   10    9     -0.73      0.00
   -2   10    9      0.47      0.00
    0   10    9     -0.10      0.00
   -7   11    9     -0.31      0.00
   -5   11    9     -1.28      0.00
   -3   11    9     -0.22      0.00
  -16    0   10      1.30      0.00
    4    0   10     -0.36      0.00
    5    1   10     -0.28      0.00
  -16    2   10      0.97      0.00
    4    2   10     -0.37      0.00
    5    3   10     -0.27      0.00
  -16    4   10      0.41      0.00
    4    4   10     -0.07      0.00
  -15    5   10      0.28      0.00
    3    5   10      0.39      0.00
  -14    6   10      0.55      0.00
    2    6   10      0.80      0.00
  -13    7   10      1.03      0.00
    1    7   10      0.72      0.00
  -12    8   10      1.02      0.00
    0    8   10      0.39      0.00
  -11    9   10      0.65      0.00
   -9    9   10      0.76      0.00
   -7    9   10      0.26      0.00
   -5    9   10      0.10      0.00
   -3    9   10      0.85      0.00
   -1    9   10      0.40      0.00
  -10   10   10      0.53      0.00
   -8   10   10      0.53      0.00
   -6   10   10     -0.43      0.00
   -4   10   10     -0.13      0.00
   -2   10   10      0.45      0.00
  -16    0   11      0.23      0.00
    2    0   11     -0.04      0.00
    3    1   11     -0.51      0.00
  -16    2   11      0.07      0.00
    2    2   11     -0.22      0.00
  -15    3   11     -0.13      0.00
    3    3   11     -0.50      0.00
  -16    4   11     -0.08      0.00
  -14    4   11     -0.02      0.00
    2    4   11     -0.15      0.00
  -15    5   11      0.04      0.00
    1    5   11      0.41      0.00
  -14    6   11      0.55      0.00
    0    6   11      0.77      0.00
  -13    7   11      1.05      0.00
  -11    7   11      1.09      0.00
   -3    7   11      2.13      0.00
   -1    7   11      0.88      0.00
  -12    8   11      0.94      0.00
  -10    8   11      0.71      0.00
   -8    8   11      0.41      0.00
   -6    8   11      0.76      0.00
   -4    8   11      1.48      0.00
   -2    8   11      0.96      0.00
   -9    9   11      0.63      0.00
   -7    9   11      0.34      0.00
   -5    9   11      0.42      0.00
   -3    9   11      0.75      0.00
  -16    0   12     -0.52      0.00
    0    0   12      0.59      0.00
    2    0   12     -0.23      0.00
  -15    1   12     -0.79      0.00
    1    1   12      0.04      0.00
  -16    2   12     -0.52      0.00
  -14    2   12     -0.86      0.00
    0    2   12      0.30      0.00
  -15    3   12     -0.50      0.00
   -1    3   12      0.64      0.00
    1    3   12     -0.28      0.00
  -14    4   12     -0.11      0.00
   -2    4   12      1.23      0.00
    0    4   12      0.10      0.00
  -13    5   12      0.57      0.00
   -3    5   12      1.89      0.00
   -1    5   12      0.61      0.00
  -14    6   12      0.43      0.00
  -12    6   12      0.94      0.00
  -10    6   12      0.29      0.00
   -4    6   12      2.09      0.00
   -2    6   12      1.11      0.00
  -11    7   12      0.68      0.00
   -9    7   12      0.04      0.00
   -7    7   12      0.38      0.00
   -5    7   12      1.51      0.00
   -3    7   12      1.36      0.00
  -10    8   12      0.34      0.00
   -8    8   12      0.20      0.00
   -6    8   12      0.62      0.00
   -4    8   12      1.05      0.00
  -14    0   13     -0.80      0.00
   -2    0   13     -0.05      0.00
  -15    1   13     -0.59      0.00
  -13    1   13     -0.75      0.00
   -3    1   13     -0.20      0.00
   -1    1   13      0.12      0.00
  -14    2   13     -0.51      0.00
  -12    2   13     -0.33      0.00
   -2    2   13      0.01      0.00
  -15    3   13     -0.33      0.00
  -13    3   13     -0.13      0.00
  -11    3   13      0.10      0.00
   -3    3   13      0.25      0.00
   -1    3   13     -0.02      0.00
  -14    4   13     -0.02      0.00
  -12    4   13      0.33      0.00
  -10    4   13      0.11      0.00
   -6    4   13      0.45      0.00
   -4    4   13      0.72      0.00
   -2    4   13      0.25      0.00
  -13    5   13      0.38      0.00
  -11    5   13      0.42      0.00
   -9    5   13     -0.14      0.00
   -7    5   13      0.11      0.00
   -5    5   13      0.92      0.00
   -3    5   13      0.71      0.00
  -12    6   13      0.51      0.00
  -10    6   13      0.14      0.00
   -8    6   13     -0.13      0.00
   -6    6   13      0.62      0.00
   -4    6   13      0.99      0.00
   -9    7   13     -0.03      0.00
   -7    7   13      0.19      0.00
    0    0    0      0.00      0.00
# SQUEEZE RESULTS (Version =  21116)
# Note: Data are Listed for all Voids in the P1 Unit Cell
# i.e. Centre of Gravity, Solvent Accessible Volume,
# Recovered number of Electrons in the Void and
# Details about the Squeezed Material
loop_
  _platon_squeeze_void_nr
  _platon_squeeze_void_average_x
  _platon_squeeze_void_average_y
  _platon_squeeze_void_average_z
  _platon_squeeze_void_volume
  _platon_squeeze_void_count_electrons
  _platon_squeeze_void_content
   1  0.000  0.000  0.000        68        17 ' '
   2  0.500  0.500  0.000        69        17 ' '
# Missing Reflections Below sin(th)/lambda = 0.25
loop_
  _platon_missing_refln_index_h
  _platon_missing_refln_index_k
  _platon_missing_refln_index_l
  _platon_missing_refln_theta
    1    1    0     2.525
   -2    0    1     2.960
    0    0    1     2.049
   -1    1    1     2.655
_platon_squeeze_void_probe_radius                  1.20
_platon_squeeze_details
)
TITL 123 in C2/m
CELL   13.8480   10.9270   11.5170     90.00    120.34     90.00
SPGR C2/m
# Solvent Accessible Volume =       135
# Electrons Found in S.A.V. =        32
# Note: Atoms in Void as Cxxx and Qxxx all others
C101 0.562 0.502 0.109 !       4.46 eA-3
C102 0.500 0.500 0.000 !       3.18 eA-3
Q103 0.702 0.111 0.109 !       1.18 eA-3
Q104 0.603 0.114 0.059 !       0.97 eA-3
Q105 0.473 0.495 0.172 !       0.79 eA-3
C106 0.021 0.070 0.061 !       0.76 eA-3
Q107 0.319 0.077 0.016 !       0.75 eA-3
Q108 0.124 0.501 0.859 !       0.64 eA-3
Q109 0.405 0.126 0.045 !       0.61 eA-3
Q110 0.598 0.214 0.465 !       0.56 eA-3
Q111 0.011 0.497 0.094 !       0.53 eA-3
)
;
_shelx_fab_checksum              25022
_olex2_submission_special_instructions 'No special instructions were received'
loop_
_space_group_symop_operation_xyz
'x, y, z'
'-x, y, -z'
'x+1/2, y+1/2, z'
'-x+1/2, y+1/2, -z'
'-x, -y, -z'
'x, -y, z'
'-x+1/2, -y+1/2, -z'
'x+1/2, -y+1/2, z'
loop_
_atom_site_label
_atom_site_type_symbol
_atom_site_fract_x
_atom_site_fract_y
_atom_site_fract_z
_atom_site_U_iso_or_equiv
_atom_site_adp_type
_atom_site_occupancy
_atom_site_site_symmetry_order
_atom_site_calc_flag
_atom_site_refinement_flags_posn
_atom_site_refinement_flags_adp
_atom_site_refinement_flags_occupancy
_atom_site_disorder_assembly
_atom_site_disorder_group
C1 C 0.3882(5) 0.000000 0.2473(5) 0.0255(13) Uani 1 2 d S TU P . .
C2 C 0.3686(4) 0.000000 0.1051(5) 0.0230(12) Uani 1 2 d S TU P . .
C5 C 0.3182(5) 0.000000 -0.2988(5) 0.0315(15) Uani 1 2 d S T P . .
C7 C 0.500000 0.2339(5) 0.500000 0.0289(14) Uani 1 2 d S T P . .
C8 C 0.500000 0.3710(5) 0.500000 0.0269(14) Uani 1 2 d S T P . .
C9 C 0.4636(3) 0.4378(4) 0.3825(4) 0.0278(10) Uani 1 1 d . . . . .
O1 O 0.3130(2) -0.1000(3) -0.3548(3) 0.0396(8) Uani 1 1 d . . . . .
O2 O 0.1845(2) -0.1292(2) 0.3632(2) 0.0329(7) Uani 1 1 d . . . . .
H2A H 0.194818 -0.199561 0.339716 0.040 Uiso 1 1 d R . . . .
H2B H 0.115558 -0.123081 0.338206 0.040 Uiso 1 1 d R . . . .
O3 O 0.4104(2) 0.1850(3) 0.4764(3) 0.0349(7) Uani 1 1 d . . . . .
O4 O 0.3036(3) 0.000000 0.2600(3) 0.0360(11) Uani 1 2 d S TU P . .
O5 O 0.4863(3) 0.000000 0.3407(3) 0.0369(11) Uani 1 2 d S TU P . .
Lu1 Lu 0.33880(2) 0.000000 0.47934(2) 0.01672(9) Uani 1 2 d S T P . .
F1 F 0.4302(2) 0.3780(2) 0.2666(2) 0.0448(7) Uani 1 1 d . . . . .
F2B F 0.4303(5) 0.2020(5) 0.1241(4) 0.0498(15) Uani 0.5 1 d . U . A 2
F3A F 0.3969(5) 0.2008(5) -0.1210(5) 0.0502(15) Uani 0.5 1 d . U . A 2
C3A C 0.3908(8) 0.0997(10) 0.0504(10) 0.026(2) Uani 0.5 1 d . U . A 2
C4A C 0.3731(8) 0.0983(11) -0.0785(10) 0.027(2) Uani 0.5 1 d . U . A 2
C3B C 0.3318(7) -0.1050(10) 0.0259(10) 0.025(2) Uani 0.5 1 d . U . A -1
C4B C 0.3164(7) -0.1080(11) -0.1006(10) 0.024(2) Uani 0.5 1 d . U . A -1
F2A F 0.3085(5) -0.2052(5) 0.0744(5) 0.0501(15) Uani 0.5 1 d . U . A -1
F3B F 0.2831(5) -0.2147(5) -0.1673(4) 0.0430(13) Uani 0.5 1 d . U . A -1
C0AA C 0.3354(4) 0.000000 -0.1587(5) 0.0231(12) Uani 1 2 d S TU P . .
loop_
_atom_site_aniso_label
_atom_site_aniso_U_11
_atom_site_aniso_U_22
_atom_site_aniso_U_33
_atom_site_aniso_U_23
_atom_site_aniso_U_13
_atom_site_aniso_U_12
C1 0.030(3) 0.026(3) 0.017(3) 0.000 0.009(2) 0.000
C2 0.022(3) 0.035(3) 0.014(2) 0.000 0.010(2) 0.000
C5 0.019(3) 0.050(4) 0.026(3) 0.000 0.012(3) 0.000
C7 0.034(4) 0.018(3) 0.033(3) 0.000 0.015(3) 0.000
C8 0.022(3) 0.021(3) 0.044(3) 0.000 0.020(3) 0.000
C9 0.028(2) 0.023(2) 0.033(2) -0.006(2) 0.0163(18) -0.003(2)
O1 0.058(2) 0.0411(18) 0.0286(15) -0.0121(15) 0.0288(15) -0.0178(18)
O2 0.0220(16) 0.0308(16) 0.0447(16) -0.0123(14) 0.0159(13) -0.0078(14)
O3 0.0275(17) 0.0236(16) 0.0527(18) 0.0072(15) 0.0195(15) -0.0042(15)
O4 0.034(2) 0.054(3) 0.0228(19) 0.000 0.0172(18) 0.000
O5 0.028(2) 0.044(3) 0.0206(18) 0.000 -0.0010(17) 0.000
Lu1 0.01971(14) 0.01582(13) 0.01589(12) 0.000 0.00992(10) 0.000
F1 0.0584(18) 0.0351(15) 0.0395(13) -0.0125(13) 0.0238(13) -0.0039(15)
F2B 0.080(4) 0.034(3) 0.030(2) -0.011(2) 0.024(3) -0.016(3)
F3A 0.081(4) 0.036(3) 0.035(3) 0.002(3) 0.030(3) -0.018(3)
C3A 0.031(6) 0.025(4) 0.023(4) -0.005(3) 0.013(5) 0.000(5)
C4A 0.031(6) 0.029(5) 0.024(4) 0.007(4) 0.016(5) 0.000(5)
C3B 0.027(6) 0.027(4) 0.027(4) 0.002(4) 0.018(5) 0.003(5)
C4B 0.024(5) 0.025(4) 0.029(4) -0.006(4) 0.017(5) -0.002(5)
F2A 0.083(5) 0.040(3) 0.036(3) -0.002(3) 0.036(3) -0.023(3)
F3B 0.071(4) 0.031(3) 0.033(3) -0.011(2) 0.030(3) -0.018(3)
C0AA 0.022(3) 0.030(3) 0.017(2) 0.000 0.010(2) 0.000
loop_
_atom_type_symbol
_atom_type_description
_atom_type_scat_dispersion_real
_atom_type_scat_dispersion_imag
_atom_type_scat_source
C C 0.0033 0.0016 'International Tables Vol C Tables 4.2.6.8 and 6.1.1.4'
H H 0.0000 0.0000 'International Tables Vol C Tables 4.2.6.8 and 6.1.1.4'
F F 0.0171 0.0103 'International Tables Vol C Tables 4.2.6.8 and 6.1.1.4'
Lu Lu -0.4720 5.8584 'International Tables Vol C Tables 4.2.6.8 and 6.1.1.4'
O O 0.0106 0.0060 'International Tables Vol C Tables 4.2.6.8 and 6.1.1.4'
loop_
_geom_angle_atom_site_label_1
_geom_angle_atom_site_label_2
_geom_angle_atom_site_label_3
_geom_angle
_geom_angle_site_symmetry_1
_geom_angle_site_symmetry_3
O4 C1 C2 117.2(5) . .
O5 C1 C2 117.3(5) . .
O5 C1 O4 125.5(5) . .
C3A C2 C1 122.4(5) 6 .
C3A C2 C1 122.4(5) . .
C3B C2 C1 120.9(5) . .
O1 C5 O1 121.6(5) . 6
O1 C5 Lu1 61.4(3) 6 1_554
O1 C5 Lu1 61.4(3) . 1_554
O1 C5 C0AA 119.2(3) . .
O1 C5 C0AA 119.2(3) 6 .
C0AA C5 Lu1 166.9(4) . 1_554
O3 C7 C8 115.4(3) 2_656 .
O3 C7 C8 115.4(3) . .
O3 C7 O3 129.3(5) . 2_656
C9 C8 C7 121.7(3) 2_656 .
C9 C8 C7 121.7(3) . .
C9 C8 C9 116.6(5) . 2_656
C9 C9 C8 121.7(3) 6_565 .
F1 C9 C8 119.1(4) . .
F1 C9 C9 119.2(2) . 6_565
C5 O1 Lu1 91.1(3) . 1_554
C7 O3 Lu1 140.9(3) . .
C1 O4 Lu1 115.6(3) . .
C1 O5 Lu1 176.3(4) . 5_656
O1 Lu1 C5 27.51(7) 6_556 1_556
O1 Lu1 C5 27.51(7) 1_556 1_556
O1 Lu1 O1 54.68(14) 6_556 1_556
O2 Lu1 C5 92.22(11) 6 1_556
O2 Lu1 C5 92.22(11) . 1_556
O2 Lu1 O1 73.60(9) . 1_556
O2 Lu1 O1 105.83(10) 6 1_556
O2 Lu1 O1 105.83(10) . 6_556
O2 Lu1 O1 73.60(9) 6 6_556
O2 Lu1 O2 74.36(14) 6 .
O3 Lu1 C5 105.69(8) . 1_556
O3 Lu1 C5 105.69(8) 6 1_556
O3 Lu1 O1 81.17(10) . 6_556
O3 Lu1 O1 131.93(10) . 1_556
O3 Lu1 O1 81.17(10) 6 1_556
O3 Lu1 O1 131.93(10) 6 6_556
O3 Lu1 O2 74.47(10) . 6
O3 Lu1 O2 144.43(9) . .
O3 Lu1 O2 74.47(10) 6 .
O3 Lu1 O2 144.43(9) 6 6
O3 Lu1 O3 126.89(14) 6 .
O3 Lu1 O4 80.54(8) . .
O3 Lu1 O4 80.54(8) 6 .
O4 Lu1 C5 164.34(15) . 1_556
O4 Lu1 O1 147.22(9) . 1_556
O4 Lu1 O1 147.22(9) . 6_556
O4 Lu1 O2 75.40(10) . .
O4 Lu1 O2 75.40(10) . 6
O5 Lu1 C5 73.11(16) 5_656 1_556
O5 Lu1 O1 77.84(11) 5_656 1_556
O5 Lu1 O1 77.84(11) 5_656 6_556
O5 Lu1 O2 140.60(7) 5_656 6
O5 Lu1 O2 140.60(7) 5_656 .
O5 Lu1 O3 74.81(8) 5_656 6
O5 Lu1 O3 74.81(8) 5_656 .
O5 Lu1 O4 122.55(14) 5_656 .
C2 C3A C4A 121.9(9) . .
F2B C3A C2 119.2(7) . .
F2B C3A C4A 119.0(9) . .
F3A C4A C3A 116.5(9) . .
F3A C4A C0AA 120.3(8) . .
C0AA C4A C3A 123.2(9) . .
C4B C3B C2 121.9(9) . .
F2A C3B C2 119.1(7) . .
F2A C3B C4B 119.0(9) . .
C3B C4B C0AA 120.6(9) . .
F3B C4B C3B 117.1(9) . .
F3B C4B C0AA 122.3(8) . .
C4A C0AA C5 122.3(5) . .
C4A C0AA C5 122.3(5) 6 .
C4A C0AA C4A 106.7(9) 6 .
C4B C0AA C5 121.9(5) . .
loop_
_geom_bond_atom_site_label_1
_geom_bond_atom_site_label_2
_geom_bond_distance
_geom_bond_site_symmetry_2
C1 C2 1.519(6) .
C1 O4 1.252(6) .
C1 O5 1.234(6) .
C2 C3A 1.368(11) 6
C2 C3A 1.368(11) .
C2 C3B 1.392(11) .
C5 O1 1.252(3) 6
C5 O1 1.252(3) .
C5 Lu1 2.710(6) 1_554
C5 C0AA 1.508(7) .
C7 C8 1.499(7) .
C7 O3 1.248(3) 2_656
C7 O3 1.248(3) .
C8 C9 1.389(5) .
C8 C9 1.389(5) 2_656
C9 C9 1.360(8) 6_565
C9 F1 1.341(4) .
O1 Lu1 2.379(3) 1_554
O2 Lu1 2.337(3) .
O3 Lu1 2.259(3) .
O4 Lu1 2.319(4) .
O5 Lu1 2.257(4) 5_656
F2B C3A 1.341(11) .
F3A C4A 1.329(12) .
C3A C4A 1.378(13) .
C4A C0AA 1.339(11) .
C3B C4B 1.362(13) .
C3B F2A 1.340(12) .
C4B F3B 1.344(12) .
C4B C0AA 1.445(11) .
