#------------------------------------------------------------------------------
#$Date: 2017-08-01 05:30:52 +0300 (Tue, 01 Aug 2017) $
#$Revision: 199421 $
#$URL: file:///home/coder/svn-repositories/cod/cif/7/04/38/7043856.cif $
#------------------------------------------------------------------------------
#
# This file is available in the Crystallography Open Database (COD),
# http://www.crystallography.net/
#
# All data on this site have been placed in the public domain by the
# contributors.
#
data_7043856
loop_
_publ_author_name
'Xu, Yuangang'
'Liu, wei'
'li, dongxue'
'Chen, Houhe'
'Lu, Ming'
_publ_section_title
;
 In situ synthesized 3D metal-organic frameworks (MOFs) constructed from
 transition metal cations and tetrazole derivatives : a family of
 insensitive energetic materials
;
_journal_name_full               'Dalton Trans.'
_journal_paper_doi               10.1039/C7DT02582C
_journal_year                    2017
_chemical_absolute_configuration syn
_chemical_formula_moiety         'C4 H2 N18 O2 Pb3, H2 O'
_chemical_formula_sum            'C4 H4 N18 O3 Pb3'
_chemical_formula_weight         973.82
_space_group_crystal_system      monoclinic
_space_group_IT_number           9
_space_group_name_Hall           'C -2yc'
_space_group_name_H-M_alt        'C 1 c 1'
_symmetry_space_group_name_Hall  'C -2yc'
_symmetry_space_group_name_H-M   'C 1 c 1'
_atom_sites_solution_hydrogens   mixed
_atom_sites_solution_primary     dual
_audit_creation_date             2017-01-10
_audit_creation_method
;
Olex2 1.2-alpha
(compiled 2017.01.04 svn.r3372 for OlexSys, GUI svn.r5289)
;
_audit_update_record
;
2017-02-24 deposited with the CCDC.
2017-07-31 downloaded from the CCDC.
;
_cell_angle_alpha                90
_cell_angle_beta                 99.523(5)
_cell_angle_gamma                90
_cell_formula_units_Z            4
_cell_length_a                   10.106(3)
_cell_length_b                   10.342(3)
_cell_length_c                   15.143(5)
_cell_measurement_reflns_used    1441
_cell_measurement_temperature    296.15
_cell_measurement_theta_max      27.428
_cell_measurement_theta_min      2.73
_cell_volume                     1560.9(8)
_computing_cell_refinement       'SAINT v7.68A (Bruker, 2009)'
_computing_data_reduction        'SAINT v7.68A (Bruker, 2009)'
_computing_molecular_graphics    'Olex2 (Dolomanov et al., 2009)'
_computing_publication_material  'Olex2 (Dolomanov et al., 2009)'
_computing_structure_refinement  'ShelXL (Sheldrick, 2015)'
_computing_structure_solution    'ShelXT (Sheldrick, 2015)'
_diffrn_ambient_temperature      296.15
_diffrn_measured_fraction_theta_full 1.000
_diffrn_measured_fraction_theta_max 0.997
_diffrn_measurement_device_type  'Bruker APEX-II CCD'
_diffrn_measurement_method       '\f and \w scans'
_diffrn_radiation_monochromator  graphite
_diffrn_radiation_type           MoK\a
_diffrn_radiation_wavelength     0.71073
_diffrn_reflns_av_R_equivalents  0.0537
_diffrn_reflns_av_unetI/netI     0.0696
_diffrn_reflns_Laue_measured_fraction_full 1.000
_diffrn_reflns_Laue_measured_fraction_max 0.997
_diffrn_reflns_limit_h_max       13
_diffrn_reflns_limit_h_min       -13
_diffrn_reflns_limit_k_max       13
_diffrn_reflns_limit_k_min       -13
_diffrn_reflns_limit_l_max       19
_diffrn_reflns_limit_l_min       -19
_diffrn_reflns_number            9022
_diffrn_reflns_point_group_measured_fraction_full 0.975
_diffrn_reflns_point_group_measured_fraction_max 0.961
_diffrn_reflns_theta_full        26.000
_diffrn_reflns_theta_max         27.488
_diffrn_reflns_theta_min         2.728
_diffrn_standards_number         0
_exptl_absorpt_coefficient_mu    32.340
_exptl_absorpt_correction_T_max  0.7456
_exptl_absorpt_correction_T_min  0.2268
_exptl_absorpt_correction_type   multi-scan
_exptl_absorpt_process_details
'SADABS-2008/1 (Bruker,2008) was used for absorption correction. wR2(int) was 0.1430 before and 0.0681 after correction. The Ratio of minimum to maximum transmission is 0.3042. The \l/2 correction factor is 0.0015.'
_exptl_crystal_colour            colourless
_exptl_crystal_colour_primary    colourless
_exptl_crystal_density_diffrn    4.144
_exptl_crystal_description       block
_exptl_crystal_F_000             1696
_exptl_crystal_size_max          0.25
_exptl_crystal_size_mid          0.12
_exptl_crystal_size_min          0.11
_refine_diff_density_max         2.548
_refine_diff_density_min         -3.050
_refine_diff_density_rms         0.493
_refine_ls_abs_structure_details
;
 Flack x determined using 1434 quotients [(I+)-(I-)]/[(I+)+(I-)]
 (Parsons, Flack and Wagner, Acta Cryst. B69 (2013) 249-259).
;
_refine_ls_abs_structure_Flack   0.02(2)
_refine_ls_extinction_method     none
_refine_ls_goodness_of_fit_ref   1.080
_refine_ls_hydrogen_treatment    constr
_refine_ls_matrix_type           full
_refine_ls_number_parameters     256
_refine_ls_number_reflns         3458
_refine_ls_number_restraints     246
_refine_ls_restrained_S_all      1.047
_refine_ls_R_factor_all          0.0500
_refine_ls_R_factor_gt           0.0483
_refine_ls_shift/su_max          0.000
_refine_ls_shift/su_mean         0.000
_refine_ls_structure_factor_coef Fsqd
_refine_ls_weighting_details
'w=1/[\s^2^(Fo^2^)+(0.0670P)^2^+13.7430P] where P=(Fo^2^+2Fc^2^)/3'
_refine_ls_weighting_scheme      calc
_refine_ls_wR_factor_gt          0.1153
_refine_ls_wR_factor_ref         0.1167
_reflns_Friedel_coverage         0.924
_reflns_Friedel_fraction_full    0.950
_reflns_Friedel_fraction_max     0.925
_reflns_number_gt                3306
_reflns_number_total             3458
_reflns_threshold_expression     'I > 2\s(I)'
_iucr_refine_instructions_details
;

    mo_2017020_0m.res created by SHELXL-2014/7

TITL mo_2017020_0m_a.res in Cc
REM Old TITL mo_2017020_0m_a.res in Cc
REM SHELXT solution in Cc
REM R1 0.102, Rweak 0.032, Alpha 0.004, Orientation as input
REM Flack x = 0.122 ( 0.030 ) from Parsons' quotients
REM Formula found by SHELXT: C13 N2AA O6 Pb3
CELL 0.71073 10.1064 10.3417 15.1431 90 99.523 90
ZERR 4 0.0033 0.0034 0.005 0 0.005 0
LATT -7
SYMM +X,-Y,0.5+Z
SFAC C H N O Pb
UNIT 16 16 72 12 12
DFIX 1.46 H3a H3b
RIGU
ISOR 0.005 0.01 O3
 
L.S. 40
PLAN  20 0 0
TEMP 23
BOND $H
list 4
MORE -1
CONF
fmap 2
acta 52
REM <olex2.extras>
REM <HklSrc "%.\\mo_2017020_0m.hkl">
REM </olex2.extras>
 
WGHT    0.067000   13.743000
FVAR       0.04361
PB1   5    0.313011    0.185737    0.303944    11.00000    0.02403    0.02040 =
         0.01886   -0.00042   -0.00150   -0.00065
PB3   5    0.503539    0.517672    0.431615    11.00000    0.02341    0.01553 =
         0.02307    0.00209   -0.00032    0.00027
PB2   5    0.389069    0.174611    0.552759    11.00000    0.02806    0.02015 =
         0.01832    0.00127   -0.00016    0.00079
N12   3    1.071509    0.275865    0.309049    11.00000    0.02486    0.01273 =
         0.01818   -0.00070   -0.00150    0.00566
N8    3    1.031116    0.385436    0.265866    11.00000    0.02179    0.02075 =
         0.03403    0.00991    0.00623    0.00569
O1    4    0.344424    0.310570    0.432662    11.00000    0.02394    0.01981 =
         0.02434    0.00096    0.00056    0.00132
N11   3    0.965228    0.218170    0.338140    11.00000    0.02376    0.01331 =
         0.02194    0.00302   -0.00404    0.00368
N1    3    0.520810    0.547728    0.728882    11.00000    0.02747    0.01970 =
         0.02595   -0.00931    0.00291   -0.00301
N13   3    0.893800    0.400997    0.264335    11.00000    0.02314    0.02068 =
         0.03066    0.00761    0.00739    0.00906
N7    3   -0.013867    0.366378    0.615097    11.00000    0.03258    0.03680 =
         0.04265   -0.01706    0.00504   -0.00671
N4    3   -0.054651    0.261592    0.565572    11.00000    0.02610    0.04023 =
         0.04495   -0.01875   -0.00068   -0.00228
O2    4    0.252298    0.060948    0.424401    11.00000    0.01769    0.01531 =
         0.02713   -0.00189    0.00256   -0.00145
N3    3    0.393486    0.559649    0.738658    11.00000    0.02681    0.01642 =
         0.03377   -0.00776    0.00671   -0.00402
N0AA  3    0.412209    0.401615    0.641700    11.00000    0.02916    0.01389 =
         0.02641   -0.00555    0.00058   -0.00244
N2    3    0.538110    0.451855    0.672439    11.00000    0.02469    0.02077 =
         0.02839   -0.01092    0.00088   -0.00167
C7    1    0.861938    0.299415    0.309214    11.00000    0.02272    0.02518 =
         0.04027    0.01458    0.00365    0.00365
AFIX   6
O3    4    0.652679    0.303204    0.556619    11.00000    0.04248    0.05139 =
         0.05091   -0.02024    0.00330   -0.00095
H3A   2    0.706022    0.271715    0.600668    11.00000   -1.50000
H3B   2    0.640101    0.248416    0.514228    11.00000   -1.50000
AFIX   0
 
C3    1    0.116718    0.359918    0.625871    11.00000    0.02960    0.01663 =
         0.02191   -0.00597    0.00309   -0.00605
N5    3    0.561373    0.061559    0.434488    11.00000    0.01999    0.03128 =
         0.03372    0.01276    0.00894    0.00536
N2AA  3    0.158734    0.262199    0.580610    11.00000    0.02887    0.02188 =
         0.02951   -0.00760    0.00080   -0.00248
N3AA  3    0.557735    0.166039    0.377205    11.00000    0.02158    0.02612 =
         0.02327    0.00536    0.00265   -0.00066
C6    1    0.685102    0.182551    0.368127    11.00000    0.02231    0.01669 =
         0.01809   -0.00001    0.00094    0.00095
N6    3    0.046971    0.201481    0.545247    11.00000    0.02881    0.02023 =
         0.01667    0.00071    0.00083   -0.00460
N9    3    0.678911    0.023692    0.460996    11.00000    0.02407    0.03524 =
         0.02623    0.01314    0.00803    0.00317
N10   3    0.767117    0.095433    0.417948    11.00000    0.01975    0.01626 =
         0.02254    0.00451    0.00374    0.00269
N14   3    0.730869    0.280198    0.319326    11.00000    0.02206    0.02319 =
         0.02785    0.00804    0.00037    0.00448
AFIX  43
H14   2    0.672323    0.333819    0.292876    11.00000   -1.20000
AFIX   0
N1AA  3    0.192570    0.454040    0.673182    11.00000    0.02739    0.01616 =
         0.03932   -0.01752    0.00573   -0.00274
AFIX  43
H1AA  2    0.149182    0.509804    0.699366    11.00000   -1.20000
AFIX   0
C2    1    0.327976    0.471065    0.684284    11.00000    0.02753    0.01289 =
         0.02865   -0.00212    0.00328   -0.00370
HKLF 4
 
REM  mo_2017020_0m_a.res in Cc
REM R1 =  0.0483 for    3306 Fo > 4sig(Fo)  and  0.0500 for all    3458 data
REM    256 parameters refined using    246 restraints
 
END  
     
WGHT      0.0642     13.8088 

REM Highest difference peak  2.548,  deepest hole -3.050,  1-sigma level  0.493
Q1    1   0.3010  0.1763  0.5565  11.00000  0.05    2.55
Q2    1   0.3506  0.1868  0.3667  11.00000  0.05    2.43
Q3    1   0.5562  0.5236  0.5000  11.00000  0.05    2.31
Q4    1   0.3372  0.1759  0.4864  11.00000  0.05    2.29
Q5    1   0.2759  0.1837  0.2414  11.00000  0.05    2.23
Q6    1   0.4028  0.1827  0.3009  11.00000  0.05    2.13
Q7    1   0.5941  0.5123  0.4295  11.00000  0.05    2.05
Q8    1   0.4183  0.5090  0.4364  11.00000  0.05    1.97
Q9    1   0.4562  0.5137  0.3662  11.00000  0.05    1.94
Q10   1   0.4350  0.1739  0.6191  11.00000  0.05    1.90
Q11   1   0.0805  0.0725  0.5179  11.00000  0.05    1.83
Q12   1   0.2223  0.1908  0.3036  11.00000  0.05    1.70
Q13   1   0.4405  0.3250  0.4214  11.00000  0.05    1.62
Q14   1   0.6071  0.4683  0.5270  11.00000  0.05    1.53
Q15   1   0.2355  0.2240  0.2201  11.00000  0.05    1.46
Q16   1   0.2581  0.3204  0.4364  11.00000  0.05    1.43
Q17   1   0.4783  0.1820  0.5493  11.00000  0.05    1.42
Q18   1   0.9170  0.0769  0.3405  11.00000  0.05    1.38
Q19   1   0.1776 -0.0143  0.4251  11.00000  0.05    1.33
Q20   1   0.8419 -0.0256  0.4367  11.00000  0.05    1.33

  REM The information below was added by Olex2.
  REM
  REM R1 = 0.0483 for 3306 Fo > 4sig(Fo) and 0.0500 for all 19459 data
  REM n/a parameters refined using n/a restraints
  REM Highest difference peak 2.55, deepest hole -3.05
  REM Mean Shift 0, Max Shift 0.000.

  REM +++ Tabular Listing of Refinement Information +++
  REM R1_all = 0.0500
  REM R1_gt = 0.0483
  REM wR_ref = 0.1167
  REM GOOF = 1.080
  REM Shift_max = 0.000
  REM Shift_mean = 0
  REM Reflections_all = 19459
  REM Reflections_gt = 3306
  REM Parameters = n/a
  REM Hole = -3.05
  REM Peak = 2.55
  REM Flack = 0.02(2)

  
;
_cod_data_source_file            c7dt02582c2.cif
_cod_data_source_block           mo_2017020_0m
_cod_original_cell_volume        1560.9(9)
_cod_database_code               7043856
_shelx_shelxl_version_number     2014/7
_shelx_space_group_comment
;
The symmetry employed for this shelxl refinement is uniquely defined
by the following loop, which should always be used as a source of
symmetry information in preference to the above space-group names.
They are only intended as comments.
;
_olex2_refinement_description
;
1. Fixed Uiso
 At 1.2 times of:
  All N(H) groups
 At 1.5 times of:
  All O(H,H) groups
2. Restrained distances
 H3A-H3B
 1.46 with sigma of 0.02
3. Uiso/Uaniso restraints and constraints
Uanis(O3) \\sim Ueq: with sigma of 0.005 and sigma for terminal atoms of 0.01
4. Rigid body (RIGU) restrains
 All non-hydrogen atoms
 with sigma for 1-2 distances of 0.004 and sigma for 1-3 distances of 0.004
5.a Free rotating group:
 O3(H3A,H3B)
5.b Aromatic/amide H refined with riding coordinates:
 N14(H14), N1AA(H1AA)
;
_olex2_submission_special_instructions 'No special instructions were received'
loop_
_space_group_symop_operation_xyz
'x, y, z'
'x, -y, z+1/2'
'x+1/2, y+1/2, z'
'x+1/2, -y+1/2, z+1/2'
loop_
_atom_site_label
_atom_site_type_symbol
_atom_site_fract_x
_atom_site_fract_y
_atom_site_fract_z
_atom_site_U_iso_or_equiv
_atom_site_adp_type
_atom_site_occupancy
_atom_site_site_symmetry_order
_atom_site_calc_flag
_atom_site_refinement_flags_posn
_atom_site_refinement_flags_adp
Pb1 Pb 0.31301(8) 0.18574(9) 0.30394(6) 0.0217(2) Uani 1 1 d . U
Pb3 Pb 0.50354(10) 0.51767(8) 0.43161(7) 0.0211(2) Uani 1 1 d . U
Pb2 Pb 0.38907(7) 0.17461(9) 0.55276(5) 0.0226(2) Uani 1 1 d . U
N12 N 1.072(2) 0.276(2) 0.3090(14) 0.019(4) Uani 1 1 d . U
N8 N 1.031(2) 0.385(2) 0.2659(16) 0.025(4) Uani 1 1 d . U
O1 O 0.344(2) 0.3106(16) 0.4327(15) 0.023(3) Uani 1 1 d . U
N11 N 0.965(2) 0.218(2) 0.3381(14) 0.021(4) Uani 1 1 d . U
N1 N 0.521(2) 0.548(2) 0.7289(15) 0.025(4) Uani 1 1 d . U
N13 N 0.894(2) 0.401(2) 0.2643(15) 0.024(4) Uani 1 1 d . U
N7 N -0.014(3) 0.366(3) 0.6151(18) 0.037(6) Uani 1 1 d . U
N4 N -0.055(3) 0.262(3) 0.566(2) 0.038(6) Uani 1 1 d . U
O2 O 0.2523(16) 0.0609(17) 0.4244(12) 0.020(3) Uani 1 1 d . U
N3 N 0.393(2) 0.560(2) 0.7387(16) 0.025(4) Uani 1 1 d . U
N0AA N 0.412(2) 0.402(2) 0.6417(15) 0.024(4) Uani 1 1 d . U
N2 N 0.538(2) 0.452(2) 0.6724(16) 0.025(4) Uani 1 1 d . U
C7 C 0.862(3) 0.299(3) 0.309(2) 0.030(6) Uani 1 1 d . U
O3 O 0.653(3) 0.303(3) 0.557(2) 0.049(6) Uani 1 1 d . U
H3A H 0.7060 0.2717 0.6007 0.073 Uiso 1 1 d DG .
H3B H 0.6401 0.2484 0.5142 0.073 Uiso 1 1 d DG .
C3 C 0.117(3) 0.360(2) 0.6259(17) 0.023(4) Uani 1 1 d . U
N5 N 0.561(2) 0.062(2) 0.4345(16) 0.028(5) Uani 1 1 d . U
N2AA N 0.159(2) 0.262(2) 0.5806(16) 0.027(4) Uani 1 1 d . U
N3AA N 0.558(2) 0.166(2) 0.3772(15) 0.024(4) Uani 1 1 d . U
C6 C 0.685(3) 0.183(2) 0.3681(17) 0.019(4) Uani 1 1 d . U
N6 N 0.047(2) 0.201(2) 0.5452(15) 0.022(4) Uani 1 1 d . U
N9 N 0.679(2) 0.024(2) 0.4610(16) 0.028(5) Uani 1 1 d . U
N10 N 0.767(2) 0.095(2) 0.4179(14) 0.019(4) Uani 1 1 d . U
N14 N 0.731(2) 0.280(2) 0.3193(16) 0.025(4) Uani 1 1 d . U
H14 H 0.6723 0.3338 0.2929 0.030 Uiso 1 1 calc R .
N1AA N 0.193(2) 0.454(2) 0.6732(17) 0.028(5) Uani 1 1 d . U
H1AA H 0.1492 0.5098 0.6994 0.033 Uiso 1 1 calc R .
C2 C 0.328(3) 0.471(2) 0.6843(19) 0.023(4) Uani 1 1 d . U
loop_
_atom_site_aniso_label
_atom_site_aniso_U_11
_atom_site_aniso_U_22
_atom_site_aniso_U_33
_atom_site_aniso_U_23
_atom_site_aniso_U_13
_atom_site_aniso_U_12
Pb1 0.0240(5) 0.0204(4) 0.0189(5) -0.0004(3) -0.0015(3) -0.0006(3)
Pb3 0.0234(4) 0.0155(4) 0.0231(4) 0.0021(4) -0.0003(3) 0.0003(4)
Pb2 0.0281(5) 0.0201(5) 0.0183(5) 0.0013(3) -0.0002(4) 0.0008(3)
N12 0.025(7) 0.013(8) 0.018(9) -0.001(7) -0.002(6) 0.006(5)
N8 0.022(7) 0.021(8) 0.034(11) 0.010(8) 0.006(6) 0.006(6)
O1 0.024(7) 0.020(6) 0.024(7) 0.001(5) 0.001(5) 0.001(5)
N11 0.024(7) 0.013(7) 0.022(9) 0.003(7) -0.004(6) 0.004(5)
N1 0.027(7) 0.020(8) 0.026(9) -0.009(8) 0.003(6) -0.003(6)
N13 0.023(7) 0.021(8) 0.031(10) 0.008(7) 0.007(6) 0.009(6)
N7 0.033(7) 0.037(10) 0.043(13) -0.017(10) 0.005(7) -0.007(6)
N4 0.026(7) 0.040(11) 0.045(13) -0.019(10) -0.001(7) -0.002(6)
O2 0.018(7) 0.015(7) 0.027(7) -0.002(6) 0.003(6) -0.001(6)
N3 0.027(7) 0.016(8) 0.034(9) -0.008(7) 0.007(6) -0.004(6)
N0AA 0.029(7) 0.014(7) 0.026(8) -0.006(6) 0.001(5) -0.002(5)
N2 0.025(7) 0.021(8) 0.028(9) -0.011(8) 0.001(6) -0.002(6)
C7 0.023(7) 0.025(9) 0.040(14) 0.015(9) 0.004(6) 0.004(6)
O3 0.042(10) 0.051(11) 0.051(11) -0.020(9) 0.003(9) -0.001(9)
C3 0.030(7) 0.017(7) 0.022(9) -0.006(7) 0.003(6) -0.006(5)
N5 0.020(7) 0.031(9) 0.034(10) 0.013(8) 0.009(6) 0.005(6)
N2AA 0.029(7) 0.022(8) 0.030(9) -0.008(7) 0.001(5) -0.002(5)
N3AA 0.022(6) 0.026(8) 0.023(9) 0.005(7) 0.003(5) -0.001(5)
C6 0.022(7) 0.017(8) 0.018(9) 0.000(6) 0.001(6) 0.001(5)
N6 0.029(7) 0.020(7) 0.017(8) 0.001(6) 0.001(6) -0.005(6)
N9 0.024(7) 0.035(10) 0.026(9) 0.013(8) 0.008(6) 0.003(6)
N10 0.020(7) 0.016(8) 0.023(8) 0.005(7) 0.004(5) 0.003(5)
N14 0.022(7) 0.023(8) 0.028(10) 0.008(7) 0.000(6) 0.004(5)
N1AA 0.027(7) 0.016(8) 0.039(11) -0.018(8) 0.006(6) -0.003(6)
C2 0.028(7) 0.013(8) 0.029(10) -0.002(8) 0.003(6) -0.004(5)
loop_
_atom_type_symbol
_atom_type_description
_atom_type_scat_dispersion_real
_atom_type_scat_dispersion_imag
_atom_type_scat_source
C C 0.0033 0.0016 'International Tables Vol C Tables 4.2.6.8 and 6.1.1.4'
H H 0.0000 0.0000 'International Tables Vol C Tables 4.2.6.8 and 6.1.1.4'
N N 0.0061 0.0033 'International Tables Vol C Tables 4.2.6.8 and 6.1.1.4'
O O 0.0106 0.0060 'International Tables Vol C Tables 4.2.6.8 and 6.1.1.4'
Pb Pb -3.3944 10.1111 'International Tables Vol C Tables 4.2.6.8 and 6.1.1.4'
loop_
_geom_angle_atom_site_label_1
_geom_angle_atom_site_label_2
_geom_angle_atom_site_label_3
_geom_angle
_geom_angle_site_symmetry_1
_geom_angle_site_symmetry_3
O1 Pb1 N12 77.1(7) . 1_455
O1 Pb1 O2 71.1(6) . .
O1 Pb1 N3AA 71.9(7) . .
O2 Pb1 N12 79.2(6) . 1_455
O2 Pb1 N3AA 88.7(6) . .
N3AA Pb1 N12 148.9(7) . 1_455
N11 Pb3 O1 128.9(6) 3_455 .
N11 Pb3 O2 83.8(6) 3_455 3
N11 Pb3 N6 76.0(7) 3_455 3
O2 Pb3 O1 136.9(6) 3 .
N6 Pb3 O1 128.9(7) 3 .
N6 Pb3 O2 80.7(7) 3 3
N10 Pb3 O1 72.0(7) 3_455 .
N10 Pb3 N11 68.3(7) 3_455 3_455
N10 Pb3 O2 150.3(6) 3_455 3
N10 Pb3 N6 82.6(7) 3_455 3
O1 Pb2 O2 70.0(7) . .
O1 Pb2 N0AA 81.4(7) . .
O1 Pb2 N2AA 81.4(8) . .
O2 Pb2 N0AA 142.5(6) . .
O2 Pb2 N2AA 83.9(6) . .
N2AA Pb2 N0AA 67.7(7) . .
N8 N12 Pb1 119.8(16) . 1_655
N8 N12 N11 109.6(19) . .
N11 N12 Pb1 129.8(14) . 1_655
N12 N8 N13 109(2) . .
Pb1 O1 Pb3 116.1(9) . .
Pb2 O1 Pb1 108.0(7) . .
Pb2 O1 Pb3 117.2(9) . .
N12 N11 Pb3 119.2(14) . 3_545
C7 N11 Pb3 137.3(18) . 3_545
C7 N11 N12 103(2) . .
N3 N1 N2 112(2) . .
C7 N13 N8 103(2) . .
C3 N7 N4 104(2) . .
N6 N4 N7 110(2) . .
Pb1 O2 Pb3 120.1(7) . 3_445
Pb1 O2 Pb2 99.3(6) . .
Pb2 O2 Pb3 118.0(7) . 3_445
N1 N3 C2 105(2) . .
N2 N0AA Pb2 119.6(15) . .
C2 N0AA Pb2 133.6(16) . .
C2 N0AA N2 105(2) . .
N1 N2 N0AA 106(2) . .
N11 C7 N14 125(3) . .
N13 C7 N11 115(2) . .
N13 C7 N14 120(2) . .
H3A O3 H3B 109.5 . .
N7 C3 N2AA 112(2) . .
N7 C3 N1AA 120(2) . .
N2AA C3 N1AA 128(2) . .
N9 N5 N3AA 112(2) . .
C3 N2AA Pb2 136.1(17) . .
N6 N2AA Pb2 119.7(17) . .
N6 N2AA C3 104(2) . .
N5 N3AA Pb1 105.0(14) . .
C6 N3AA Pb1 146.4(18) . .
C6 N3AA N5 103.9(19) . .
N3AA C6 N10 112(2) . .
N3AA C6 N14 125(2) . .
N10 C6 N14 124(2) . .
N4 N6 Pb3 117.9(17) . 3_445
N4 N6 N2AA 110(2) . .
N2AA N6 Pb3 131.7(18) . 3_445
N5 N9 N10 109(2) . .
C6 N10 Pb3 138.1(17) . 3_545
C6 N10 N9 103.4(19) . .
N9 N10 Pb3 117.7(15) . 3_545
C7 N14 C6 126(2) . .
C7 N14 H14 117.2 . .
C6 N14 H14 117.2 . .
C3 N1AA H1AA 115.8 . .
C2 N1AA C3 128(2) . .
C2 N1AA H1AA 115.8 . .
N3 C2 N0AA 112(2) . .
N3 C2 N1AA 123(2) . .
N0AA C2 N1AA 125(2) . .
loop_
_geom_bond_atom_site_label_1
_geom_bond_atom_site_label_2
_geom_bond_distance
_geom_bond_site_symmetry_2
Pb1 N12 2.63(2) 1_455
Pb1 O1 2.32(2) .
Pb1 O2 2.396(18) .
Pb1 N3AA 2.55(2) .
Pb3 O1 2.680(18) .
Pb3 N11 2.50(2) 3_455
Pb3 O2 2.574(17) 3
Pb3 N6 2.55(2) 3
Pb3 N10 2.50(2) 3_455
Pb2 O1 2.28(2) .
Pb2 O2 2.486(17) .
Pb2 N0AA 2.70(2) .
Pb2 N2AA 2.60(2) .
N12 Pb1 2.63(2) 1_655
N12 N8 1.34(3) .
N12 N11 1.36(3) .
N8 N13 1.39(3) .
N11 Pb3 2.50(2) 3_545
N11 C7 1.36(3) .
N1 N3 1.33(3) .
N1 N2 1.34(3) .
N13 C7 1.32(4) .
N7 N4 1.34(4) .
N7 C3 1.30(3) .
N4 N6 1.28(4) .
O2 Pb3 2.574(17) 3_445
N3 C2 1.33(3) .
N0AA N2 1.38(3) .
N0AA C2 1.36(3) .
C7 N14 1.37(4) .
O3 H3A 0.8501 .
O3 H3B 0.8499 .
C3 N2AA 1.33(3) .
C3 N1AA 1.37(3) .
N5 N3AA 1.38(3) .
N5 N9 1.25(3) .
N2AA N6 1.33(3) .
N3AA C6 1.33(3) .
C6 N10 1.36(3) .
C6 N14 1.38(3) .
N6 Pb3 2.55(2) 3_445
N9 N10 1.40(3) .
N10 Pb3 2.50(2) 3_545
N14 H14 0.8600 .
N1AA H1AA 0.8600 .
N1AA C2 1.36(3) .
loop_
_geom_torsion_atom_site_label_1
_geom_torsion_atom_site_label_2
_geom_torsion_atom_site_label_3
_geom_torsion_atom_site_label_4
_geom_torsion
_geom_torsion_site_symmetry_1
_geom_torsion_site_symmetry_4
Pb1 N12 N8 N13 169.2(15) 1_655 .
Pb1 N12 N11 Pb3 15(3) 1_655 3_545
Pb1 N12 N11 C7 -169(2) 1_655 .
Pb1 N3AA C6 N10 -150(2) . .
Pb1 N3AA C6 N14 34(5) . .
Pb3 N11 C7 N13 175.6(19) 3_545 .
Pb3 N11 C7 N14 -8(5) 3_545 .
Pb2 N0AA N2 N1 -167.3(16) . .
Pb2 N0AA C2 N3 163.3(18) . .
Pb2 N0AA C2 N1AA -17(4) . .
Pb2 N2AA N6 Pb3 -9(3) . 3_445
Pb2 N2AA N6 N4 -179(2) . .
N12 N8 N13 C7 1(3) . .
N12 N11 C7 N13 1(3) . .
N12 N11 C7 N14 177(3) . .
N8 N12 N11 Pb3 -175.8(16) . 3_545
N8 N12 N11 C7 0(3) . .
N8 N13 C7 N11 -1(3) . .
N8 N13 C7 N14 -178(3) . .
N11 N12 N8 N13 -1(3) . .
N11 C7 N14 C6 7(5) . .
N1 N3 C2 N0AA 1(3) . .
N1 N3 C2 N1AA -178(3) . .
N13 C7 N14 C6 -176(3) . .
N7 N4 N6 Pb3 -171(2) . 3_445
N7 N4 N6 N2AA 1(4) . .
N7 C3 N2AA Pb2 177(2) . .
N7 C3 N2AA N6 -4(3) . .
N7 C3 N1AA C2 -173(3) . .
N4 N7 C3 N2AA 4(4) . .
N4 N7 C3 N1AA 179(3) . .
N3 N1 N2 N0AA 2(3) . .
N2 N1 N3 C2 -2(3) . .
N2 N0AA C2 N3 0(3) . .
N2 N0AA C2 N1AA 180(3) . .
C3 N7 N4 N6 -3(4) . .
C3 N2AA N6 Pb3 171.8(18) . 3_445
C3 N2AA N6 N4 2(3) . .
C3 N1AA C2 N3 -174(3) . .
C3 N1AA C2 N0AA 7(5) . .
N5 N3AA C6 N10 -1(3) . .
N5 N3AA C6 N14 -177(2) . .
N5 N9 N10 Pb3 -168.2(18) . 3_545
N5 N9 N10 C6 3(3) . .
N2AA C3 N1AA C2 1(5) . .
N3AA N5 N9 N10 -4(3) . .
N3AA C6 N10 Pb3 167.5(18) . 3_545
N3AA C6 N10 N9 -1(3) . .
N3AA C6 N14 C7 180(3) . .
N9 N5 N3AA Pb1 166(2) . .
N9 N5 N3AA C6 3(3) . .
N10 C6 N14 C7 4(4) . .
N14 C6 N10 Pb3 -16(4) . 3_545
N14 C6 N10 N9 175(2) . .
N1AA C3 N2AA Pb2 3(5) . .
N1AA C3 N2AA N6 -178(3) . .
C2 N0AA N2 N1 -1(3) . .
