#------------------------------------------------------------------------------
#$Date: 2017-09-19 06:41:43 +0300 (Tue, 19 Sep 2017) $
#$Revision: 201012 $
#$URL: file:///home/coder/svn-repositories/cod/cif/7/04/42/7044258.cif $
#------------------------------------------------------------------------------
#
# This file is available in the Crystallography Open Database (COD),
# http://www.crystallography.net/
#
# All data on this site have been placed in the public domain by the
# contributors.
#
data_7044258
loop_
_publ_author_name
'Liu, Zhi-Qiang'
'Zhao, Yue'
'Zhang, Xiu-Du'
'Kang, Yan-Shang'
'Lu, Qingyi'
'Azam, Mohammad'
'Al-Resayes, Saud I'
'Sun, Wei-Yin'
_publ_section_title
;
 Metal-organic frameworks with 1,4-di(1H-imidazol-4-yl)benzene and varied
 carboxylate ligands for selectively sensing Fe(III) Ion and ketone
 molecules
;
_journal_name_full               'Dalton Trans.'
_journal_paper_doi               10.1039/C7DT02981K
_journal_year                    2017
_chemical_formula_sum            'C27 H20 Co N4 O6'
_chemical_formula_weight         555.40
_space_group_crystal_system      monoclinic
_space_group_IT_number           14
_space_group_name_Hall           '-P 2ybc'
_space_group_name_H-M_alt        'P 1 21/c 1'
_symmetry_space_group_name_Hall  '-P 2ybc'
_symmetry_space_group_name_H-M   'P 1 21/c 1'
_atom_sites_solution_hydrogens   mixed
_audit_creation_method           SHELXL-2014/7
_audit_update_record
;
2017-09-13 deposited with the CCDC.
2017-09-18 downloaded from the CCDC.
;
_cell_angle_alpha                90
_cell_angle_beta                 99.7010(10)
_cell_angle_gamma                90
_cell_formula_units_Z            4
_cell_length_a                   11.4041(9)
_cell_length_b                   21.3552(16)
_cell_length_c                   10.8848(8)
_cell_measurement_reflns_used    6089
_cell_measurement_temperature    293(2)
_cell_measurement_theta_max      27.5013
_cell_measurement_theta_min      2.6913
_cell_volume                     2612.9(3)
_computing_cell_refinement       'Bruker SMART'
_computing_data_collection       'Bruker SMART'
_computing_data_reduction        'Bruker SAINT'
_computing_molecular_graphics    'Bruker SHELXTL'
_computing_publication_material  'Bruker SHELXTL'
_computing_structure_refinement  'SHELXL-2014/7 (Sheldrick, 2014)'
_computing_structure_solution    'SHELXS-2014/7 (Sheldrick, 2014)'
_diffrn_ambient_temperature      293(2)
_diffrn_measured_fraction_theta_full 0.999
_diffrn_measured_fraction_theta_max 0.998
_diffrn_measurement_device_type  'Bruker APEX-II CCD'
_diffrn_measurement_method       '\f and \w scans'
_diffrn_radiation_type           MoK\a
_diffrn_radiation_wavelength     0.71073
_diffrn_reflns_av_R_equivalents  0.0268
_diffrn_reflns_av_unetI/netI     0.0314
_diffrn_reflns_Laue_measured_fraction_full 0.999
_diffrn_reflns_Laue_measured_fraction_max 0.998
_diffrn_reflns_limit_h_max       14
_diffrn_reflns_limit_h_min       -11
_diffrn_reflns_limit_k_max       27
_diffrn_reflns_limit_k_min       -26
_diffrn_reflns_limit_l_max       13
_diffrn_reflns_limit_l_min       -14
_diffrn_reflns_number            17672
_diffrn_reflns_point_group_measured_fraction_full 0.999
_diffrn_reflns_point_group_measured_fraction_max 0.998
_diffrn_reflns_theta_full        25.242
_diffrn_reflns_theta_max         27.531
_diffrn_reflns_theta_min         1.812
_diffrn_source                   'fine-focus sealed tube'
_exptl_absorpt_coefficient_mu    0.705
_exptl_absorpt_correction_T_max  0.7456
_exptl_absorpt_correction_T_min  0.6140
_exptl_absorpt_correction_type   multi-scan
_exptl_absorpt_process_details   SADABS
_exptl_crystal_colour            pink
_exptl_crystal_density_diffrn    1.412
_exptl_crystal_description       block
_exptl_crystal_F_000             1140
_exptl_crystal_size_max          0.260
_exptl_crystal_size_mid          0.220
_exptl_crystal_size_min          0.160
_refine_diff_density_max         0.436
_refine_diff_density_min         -0.276
_refine_diff_density_rms         0.057
_refine_ls_extinction_method     none
_refine_ls_goodness_of_fit_ref   1.028
_refine_ls_hydrogen_treatment    constr
_refine_ls_matrix_type           full
_refine_ls_number_parameters     343
_refine_ls_number_reflns         6012
_refine_ls_number_restraints     2
_refine_ls_restrained_S_all      1.028
_refine_ls_R_factor_all          0.0516
_refine_ls_R_factor_gt           0.0361
_refine_ls_shift/su_max          0.001
_refine_ls_shift/su_mean         0.000
_refine_ls_structure_factor_coef Fsqd
_refine_ls_weighting_details
'w=1/[\s^2^(Fo^2^)+(0.0508P)^2^+0.9824P] where P=(Fo^2^+2Fc^2^)/3'
_refine_ls_weighting_scheme      calc
_refine_ls_wR_factor_gt          0.0932
_refine_ls_wR_factor_ref         0.1018
_reflns_Friedel_coverage         0.000
_reflns_number_gt                4756
_reflns_number_total             6012
_reflns_threshold_expression     'I > 2\s(I)'
_cod_data_source_file            c7dt02981k2.cif
_cod_data_source_block           2
_cod_database_code               7044258
_shelx_shelxl_version_number     2014/7
_shelx_space_group_comment
;
The symmetry employed for this shelxl refinement is uniquely defined
by the following loop, which should always be used as a source of
symmetry information in preference to the above space-group names.
They are only intended as comments.
;
_shelx_estimated_absorpt_t_min   0.838
_shelx_estimated_absorpt_t_max   0.896
_shelx_res_file
;

    3.res created by SHELXL-2014/7

TITL 3.res in P2(1)            New: P21/c
CELL  0.71073   11.4041   21.3552   10.8848    90.000    99.701    90.000
ZERR  4           0.0009    0.0016    0.0008     0.000     0.001     0.000
LATT 1
SYMM             - X ,    0.50000 + Y ,    0.50000 - Z
SFAC C  H  Co N  O
UNIT 108 80 4 16 24
L.S. 10
ACTA
BOND $H
FMAP 2
PLAN -20
HTAB O1W O1
HTAB O1W O4_$3
EQIV $3 x+1, y, z+1
HTAB N4 O2_$2
EQIV $2 -x, -y+1, -z+1
HTAB N2 O3_$1
EQIV $1 -x, -y+1, -z
HTAB
SIZE  0.26 0.22 0.16
CONF
dfix 0.85 .01 o1w h1wa o1w h1wb
HTAB N2 O3_$1
HTAB N4 O2_$2
HTAB O1W O4_$3
HTAB O1W O1
HTAB N2 O3_$1
HTAB N4 O2_$2
HTAB O1W O4_$3
HTAB O1W O1
temp 20
WGHT    0.050800    0.982400
FVAR       0.32885
CO1   3    0.267662    0.385328    0.511254    11.00000    0.02734    0.02013 =
         0.02232    0.00036    0.01082    0.00101
N1    4    0.324815    0.447131    0.388131    11.00000    0.03307    0.02748 =
         0.02368    0.00169    0.01147   -0.00279
N2    4    0.420451    0.526649    0.322818    11.00000    0.04090    0.02749 =
         0.02770   -0.00075    0.01343   -0.01053
AFIX  43
H2A   2    0.453896    0.562709    0.322065    11.00000   -1.20000
AFIX   0
N3    4    0.197313    0.443112    0.629054    11.00000    0.03205    0.03001 =
         0.02151   -0.00057    0.00968    0.00510
N4    4    0.078782    0.517128    0.675390    11.00000    0.03725    0.03028 =
         0.02588    0.00013    0.00977    0.01215
AFIX  43
H4    2    0.034380    0.549923    0.667545    11.00000   -1.20000
AFIX   0
O1    5    0.212126    0.311661    0.390628    11.00000    0.02842    0.02970 =
         0.05894   -0.00505   -0.00632    0.00294
O2    5    0.079069    0.384598    0.388034    11.00000    0.03281    0.03574 =
         0.03533   -0.00908    0.00225    0.00687
O3    5   -0.562108    0.368638   -0.391011    11.00000    0.02785    0.03093 =
         0.03195    0.00410    0.00353   -0.00327
O4    5   -0.695354    0.305514   -0.338398    11.00000    0.02369    0.04039 =
         0.07407    0.01069    0.00702   -0.00389
O5    5   -0.220002    0.132309    0.003548    11.00000    0.06299    0.03184 =
         0.06059   -0.00135   -0.01454   -0.00102
O1W   5    0.257648    0.183427    0.522357    11.00000    0.17874    0.04352 =
         0.17447   -0.00367   -0.04133    0.01196
AFIX   3
H1WA  2    0.249679    0.214552    0.568884    11.00000   -1.20000
H1WB  2    0.286260    0.201963    0.464653    11.00000   -1.20000
AFIX   0
C1    1    0.368047    0.503835    0.414710    11.00000    0.03855    0.03226 =
         0.02313   -0.00111    0.01165   -0.00561
AFIX  43
H1    2    0.362781    0.525240    0.487988    11.00000   -1.20000
AFIX   0
C2    1    0.351503    0.433653    0.271482    11.00000    0.04116    0.02797 =
         0.02507   -0.00119    0.01419   -0.00567
AFIX  43
H2    2    0.331416    0.396689    0.227806    11.00000   -1.20000
AFIX   0
C3    1    0.411444    0.482348    0.229877    11.00000    0.03525    0.02890 =
         0.02289    0.00020    0.01165   -0.00381
C4    1    0.458955    0.442916    0.030597    11.00000    0.10958    0.03283 =
         0.04933   -0.00697    0.05018   -0.02539
AFIX  43
H4A   2    0.431503    0.403743    0.050039    11.00000   -1.20000
AFIX   0
C5    1    0.457518    0.491632    0.113205    11.00000    0.04305    0.03134 =
         0.02680    0.00003    0.01729   -0.00638
C6    1    0.499530    0.548967    0.080948    11.00000    0.10995    0.03707 =
         0.04607   -0.01274    0.04850   -0.02575
AFIX  43
H6    2    0.499972    0.582717    0.135021    11.00000   -1.20000
AFIX   0
C7    1    0.137706    0.494255    0.589227    11.00000    0.03429    0.03335 =
         0.02045    0.00138    0.00943    0.00651
AFIX  43
H7    2    0.136878    0.512067    0.511119    11.00000   -1.20000
AFIX   0
C8    1    0.175725    0.433636    0.749088    11.00000    0.03840    0.03399 =
         0.02211    0.00314    0.01137    0.01059
AFIX  43
H8    2    0.207201    0.401146    0.801339    11.00000   -1.20000
AFIX   0
C9    1    0.101377    0.479074    0.779312    11.00000    0.03348    0.03389 =
         0.02259    0.00020    0.00947    0.00731
C10   1    0.049577    0.490156    0.891588    11.00000    0.04059    0.04063 =
         0.02333   -0.00073    0.01382    0.01314
C11   1   -0.050235    0.527185    0.889513    11.00000    0.06113    0.08603 =
         0.02652    0.01498    0.01750    0.04319
AFIX  43
H11   2   -0.085211    0.545948    0.815219    11.00000   -1.20000
AFIX   0
C12   1    0.098958    0.463218    1.003746    11.00000    0.06049    0.08185 =
         0.03271    0.01471    0.02225    0.04694
AFIX  43
H12   2    0.166189    0.438162    1.007682    11.00000   -1.20000
AFIX   0
C13   1    0.109430    0.332737    0.350031    11.00000    0.02709    0.02801 =
         0.02823    0.00276    0.00481   -0.00007
C14   1    0.024341    0.295464    0.257737    11.00000    0.02666    0.03221 =
         0.02956   -0.00187    0.00245    0.00170
C15   1    0.054204    0.236299    0.221488    11.00000    0.02863    0.03757 =
         0.04890   -0.00703   -0.00083    0.01086
AFIX  43
H15   2    0.127900    0.219315    0.254430    11.00000   -1.20000
AFIX   0
C16   1   -0.024840    0.202146    0.136477    11.00000    0.03931    0.03276 =
         0.04485   -0.00988    0.00176    0.00843
AFIX  43
H16   2   -0.004777    0.162066    0.113798    11.00000   -1.20000
AFIX   0
C17   1   -0.134113    0.227811    0.085120    11.00000    0.03463    0.03234 =
         0.03009   -0.00066    0.00009    0.00183
C18   1   -0.163781    0.287192    0.121904    11.00000    0.03552    0.03756 =
         0.04704   -0.00470   -0.01020    0.00991
AFIX  43
H18   2   -0.236857    0.304576    0.087993    11.00000   -1.20000
AFIX   0
C19   1   -0.085862    0.320592    0.208241    11.00000    0.03673    0.03056 =
         0.04900   -0.00901   -0.00558    0.00998
AFIX  43
H19   2   -0.107111    0.360017    0.233395    11.00000   -1.20000
AFIX   0
C20   1   -0.222120    0.189143   -0.001463    11.00000    0.03909    0.03265 =
         0.03314   -0.00180   -0.00027    0.00049
C21   1   -0.314849    0.223041   -0.090381    11.00000    0.03603    0.03165 =
         0.02857   -0.00120    0.00145   -0.00346
C22   1   -0.431649    0.201361   -0.107853    11.00000    0.04276    0.03412 =
         0.04202    0.01103    0.00325   -0.00976
AFIX  43
H22   2   -0.449956    0.165064   -0.067822    11.00000   -1.20000
AFIX   0
C23   1   -0.520320    0.233537   -0.184345    11.00000    0.02919    0.03645 =
         0.04994    0.00872    0.00612   -0.00952
AFIX  43
H23   2   -0.598689    0.219834   -0.192990    11.00000   -1.20000
AFIX   0
C24   1   -0.492949    0.286236   -0.248359    11.00000    0.02738    0.02902 =
         0.02831   -0.00106    0.00457   -0.00317
C25   1   -0.375494    0.306477   -0.235129    11.00000    0.02905    0.03417 =
         0.03792    0.00764    0.00507   -0.00696
AFIX  43
H25   2   -0.356087    0.340730   -0.280510    11.00000   -1.20000
AFIX   0
C26   1   -0.288041    0.275751   -0.154800    11.00000    0.02896    0.04182 =
         0.03968    0.00439    0.00060   -0.00901
AFIX  43
H26   2   -0.210224    0.290481   -0.143618    11.00000   -1.20000
AFIX   0
C27   1   -0.590142    0.321607   -0.329795    11.00000    0.02718    0.02608 =
         0.03155   -0.00657    0.00646   -0.00093
HKLF 4

REM  A_c.res in P2(1)            New: P21/c
REM R1 =  0.0361 for    4756 Fo > 4sig(Fo)  and  0.0516 for all    6012 data
REM    343 parameters refined using      2 restraints

END

WGHT      0.0511      0.9665

REM Instructions for potential hydrogen bonds
HTAB N2 O3_$1
HTAB N4 O2_$2
HTAB O1W O4_$3
HTAB O1W O1

REM Highest difference peak  0.436,  deepest hole -0.276,  1-sigma level  0.057
Q1    1   0.2019  0.3884  0.4669  11.00000  0.05    0.44
Q2    1   0.0662  0.3107  0.3001  11.00000  0.05    0.37
Q3    1  -0.5334  0.3031 -0.2847  11.00000  0.05    0.36
Q4    1   0.2570  0.4255  0.5031  11.00000  0.05    0.33
Q5    1  -0.2766  0.2079 -0.0374  11.00000  0.05    0.33
Q6    1   0.2822  0.3474  0.5175  11.00000  0.05    0.32
Q7    1   0.4356  0.4882  0.1772  11.00000  0.05    0.31
Q8    1   0.0836  0.4829  0.8341  11.00000  0.05    0.30
Q9    1  -0.0892  0.2087  0.1324  11.00000  0.05    0.29
Q10   1  -0.3709  0.2166 -0.0970  11.00000  0.05    0.29
Q11   1  -0.4417  0.3003 -0.2305  11.00000  0.05    0.29
Q12   1   0.0238  0.2281  0.1520  11.00000  0.05    0.29
Q13   1   0.0089  0.5441  0.9232  11.00000  0.05    0.29
Q14   1   0.2196  0.4250  0.5851  11.00000  0.05    0.28
Q15   1   0.0977  0.4990  0.7426  11.00000  0.05    0.28
Q16   1   0.1143  0.4520  0.7668  11.00000  0.05    0.28
Q17   1  -0.1725  0.2101  0.0463  11.00000  0.05    0.28
Q18   1   0.1673  0.4654  0.7819  11.00000  0.05    0.28
Q19   1  -0.1258  0.3003  0.1757  11.00000  0.05    0.27
Q20   1   0.3998  0.4546  0.2410  11.00000  0.05    0.27
;
_shelx_res_checksum              6168
loop_
_space_group_symop_operation_xyz
'x, y, z'
'-x, y+1/2, -z+1/2'
'-x, -y, -z'
'x, -y-1/2, z-1/2'
loop_
_atom_site_label
_atom_site_type_symbol
_atom_site_fract_x
_atom_site_fract_y
_atom_site_fract_z
_atom_site_U_iso_or_equiv
_atom_site_adp_type
_atom_site_occupancy
_atom_site_site_symmetry_order
_atom_site_calc_flag
_atom_site_refinement_flags_posn
_atom_site_refinement_flags_adp
Co1 Co 0.26766(2) 0.38533(2) 0.51125(2) 0.02250(9) Uani 1 1 d . .
N1 N 0.32481(14) 0.44713(7) 0.38813(14) 0.0273(3) Uani 1 1 d . .
N2 N 0.42045(15) 0.52665(7) 0.32282(15) 0.0311(4) Uani 1 1 d . .
H2A H 0.4539 0.5627 0.3221 0.037 Uiso 1 1 calc R U
N3 N 0.19731(14) 0.44311(7) 0.62905(14) 0.0273(3) Uani 1 1 d . .
N4 N 0.07878(15) 0.51713(7) 0.67539(15) 0.0306(4) Uani 1 1 d . .
H4 H 0.0344 0.5499 0.6675 0.037 Uiso 1 1 calc R U
O1 O 0.21213(12) 0.31166(6) 0.39063(15) 0.0406(4) Uani 1 1 d . .
O2 O 0.07907(12) 0.38460(6) 0.38803(13) 0.0350(3) Uani 1 1 d . .
O3 O -0.56211(12) 0.36864(6) -0.39101(13) 0.0304(3) Uani 1 1 d . .
O4 O -0.69535(13) 0.30551(7) -0.33840(17) 0.0462(4) Uani 1 1 d . .
O5 O -0.22000(16) 0.13231(8) 0.00355(16) 0.0547(5) Uani 1 1 d . .
O1W O 0.2576(3) 0.18343(12) 0.5224(3) 0.1405(15) Uani 1 1 d D .
H1WA H 0.2497 0.2146 0.5689 0.169 Uiso 1 1 d DR U
H1WB H 0.2863 0.2020 0.4647 0.169 Uiso 1 1 d DR U
C1 C 0.36805(18) 0.50384(9) 0.41471(18) 0.0306(4) Uani 1 1 d . .
H1 H 0.3628 0.5252 0.4880 0.037 Uiso 1 1 calc R U
C2 C 0.35150(18) 0.43365(9) 0.27148(18) 0.0304(4) Uani 1 1 d . .
H2 H 0.3314 0.3967 0.2278 0.036 Uiso 1 1 calc R U
C3 C 0.41144(17) 0.48235(9) 0.22988(17) 0.0282(4) Uani 1 1 d . .
C4 C 0.4590(3) 0.44292(11) 0.0306(2) 0.0597(8) Uani 1 1 d . .
H4A H 0.4315 0.4037 0.0500 0.072 Uiso 1 1 calc R U
C5 C 0.45752(19) 0.49163(9) 0.11320(18) 0.0324(4) Uani 1 1 d . .
C6 C 0.4995(3) 0.54897(11) 0.0809(2) 0.0603(8) Uani 1 1 d . .
H6 H 0.5000 0.5827 0.1350 0.072 Uiso 1 1 calc R U
C7 C 0.13771(17) 0.49425(9) 0.58923(17) 0.0288(4) Uani 1 1 d . .
H7 H 0.1369 0.5121 0.5111 0.035 Uiso 1 1 calc R U
C8 C 0.17573(18) 0.43364(9) 0.74909(18) 0.0308(4) Uani 1 1 d . .
H8 H 0.2072 0.4011 0.8013 0.037 Uiso 1 1 calc R U
C9 C 0.10138(17) 0.47907(9) 0.77931(17) 0.0294(4) Uani 1 1 d . .
C10 C 0.04958(19) 0.49016(10) 0.89159(18) 0.0339(5) Uani 1 1 d . .
C11 C -0.0502(2) 0.52718(13) 0.8895(2) 0.0567(8) Uani 1 1 d . .
H11 H -0.0852 0.5459 0.8152 0.068 Uiso 1 1 calc R U
C12 C 0.0990(2) 0.46322(13) 1.0037(2) 0.0567(8) Uani 1 1 d . .
H12 H 0.1662 0.4382 1.0077 0.068 Uiso 1 1 calc R U
C13 C 0.10943(17) 0.33274(9) 0.35003(18) 0.0278(4) Uani 1 1 d . .
C14 C 0.02434(17) 0.29546(9) 0.25774(18) 0.0297(4) Uani 1 1 d . .
C15 C 0.05420(19) 0.23630(10) 0.2215(2) 0.0392(5) Uani 1 1 d . .
H15 H 0.1279 0.2193 0.2544 0.047 Uiso 1 1 calc R U
C16 C -0.02484(19) 0.20215(10) 0.1365(2) 0.0396(5) Uani 1 1 d . .
H16 H -0.0048 0.1621 0.1138 0.048 Uiso 1 1 calc R U
C17 C -0.13411(18) 0.22781(9) 0.08512(19) 0.0330(4) Uani 1 1 d . .
C18 C -0.1638(2) 0.28719(10) 0.1219(2) 0.0420(5) Uani 1 1 d . .
H18 H -0.2369 0.3046 0.0880 0.050 Uiso 1 1 calc R U
C19 C -0.08586(19) 0.32059(10) 0.2082(2) 0.0402(5) Uani 1 1 d . .
H19 H -0.1071 0.3600 0.2334 0.048 Uiso 1 1 calc R U
C20 C -0.22212(19) 0.18914(10) -0.00146(19) 0.0357(5) Uani 1 1 d . .
C21 C -0.31485(18) 0.22304(9) -0.09038(19) 0.0325(4) Uani 1 1 d . .
C22 C -0.4316(2) 0.20136(10) -0.1079(2) 0.0401(5) Uani 1 1 d . .
H22 H -0.4500 0.1651 -0.0678 0.048 Uiso 1 1 calc R U
C23 C -0.52032(19) 0.23354(10) -0.1843(2) 0.0386(5) Uani 1 1 d . .
H23 H -0.5987 0.2198 -0.1930 0.046 Uiso 1 1 calc R U
C24 C -0.49295(17) 0.28624(9) -0.24836(18) 0.0283(4) Uani 1 1 d . .
C25 C -0.37549(17) 0.30648(9) -0.2351(2) 0.0338(5) Uani 1 1 d . .
H25 H -0.3561 0.3407 -0.2805 0.041 Uiso 1 1 calc R U
C26 C -0.28804(18) 0.27575(10) -0.1548(2) 0.0374(5) Uani 1 1 d . .
H26 H -0.2102 0.2905 -0.1436 0.045 Uiso 1 1 calc R U
C27 C -0.59014(17) 0.32161(9) -0.32979(18) 0.0281(4) Uani 1 1 d . .
loop_
_atom_site_aniso_label
_atom_site_aniso_U_11
_atom_site_aniso_U_22
_atom_site_aniso_U_33
_atom_site_aniso_U_23
_atom_site_aniso_U_13
_atom_site_aniso_U_12
Co1 0.02734(14) 0.02013(13) 0.02232(14) 0.00036(10) 0.01082(10) 0.00101(9)
N1 0.0331(8) 0.0275(8) 0.0237(8) 0.0017(6) 0.0115(7) -0.0028(7)
N2 0.0409(9) 0.0275(8) 0.0277(8) -0.0008(7) 0.0134(7) -0.0105(7)
N3 0.0320(9) 0.0300(8) 0.0215(8) -0.0006(6) 0.0097(6) 0.0051(7)
N4 0.0372(9) 0.0303(8) 0.0259(8) 0.0001(7) 0.0098(7) 0.0122(7)
O1 0.0284(8) 0.0297(7) 0.0589(10) -0.0050(7) -0.0063(7) 0.0029(6)
O2 0.0328(8) 0.0357(8) 0.0353(8) -0.0091(6) 0.0023(6) 0.0069(6)
O3 0.0278(7) 0.0309(7) 0.0319(7) 0.0041(6) 0.0035(6) -0.0033(5)
O4 0.0237(7) 0.0404(8) 0.0741(12) 0.0107(8) 0.0070(7) -0.0039(6)
O5 0.0630(11) 0.0318(8) 0.0606(12) -0.0013(7) -0.0145(9) -0.0010(8)
O1W 0.179(3) 0.0435(13) 0.174(3) -0.0037(15) -0.041(3) 0.0120(15)
C1 0.0385(11) 0.0323(10) 0.0231(9) -0.0011(8) 0.0116(8) -0.0056(8)
C2 0.0412(11) 0.0280(9) 0.0251(10) -0.0012(8) 0.0142(8) -0.0057(8)
C3 0.0352(10) 0.0289(9) 0.0229(9) 0.0002(8) 0.0117(8) -0.0038(8)
C4 0.110(2) 0.0328(12) 0.0493(15) -0.0070(11) 0.0502(15) -0.0254(13)
C5 0.0431(11) 0.0313(10) 0.0268(10) 0.0000(8) 0.0173(9) -0.0064(9)
C6 0.110(2) 0.0371(12) 0.0461(14) -0.0127(11) 0.0485(15) -0.0257(14)
C7 0.0343(10) 0.0334(10) 0.0205(9) 0.0014(8) 0.0094(8) 0.0065(8)
C8 0.0384(11) 0.0340(10) 0.0221(9) 0.0031(8) 0.0114(8) 0.0106(8)
C9 0.0335(10) 0.0339(10) 0.0226(9) 0.0002(8) 0.0095(8) 0.0073(8)
C10 0.0406(11) 0.0406(11) 0.0233(9) -0.0007(8) 0.0138(8) 0.0131(9)
C11 0.0611(16) 0.0860(19) 0.0265(11) 0.0150(12) 0.0175(11) 0.0432(15)
C12 0.0605(16) 0.0819(18) 0.0327(12) 0.0147(12) 0.0222(11) 0.0469(14)
C13 0.0271(10) 0.0280(9) 0.0282(10) 0.0028(8) 0.0048(8) -0.0001(7)
C14 0.0267(10) 0.0322(10) 0.0296(10) -0.0019(8) 0.0024(8) 0.0017(8)
C15 0.0286(10) 0.0376(11) 0.0489(13) -0.0070(10) -0.0008(9) 0.0109(9)
C16 0.0393(12) 0.0328(11) 0.0448(13) -0.0099(9) 0.0018(10) 0.0084(9)
C17 0.0346(11) 0.0323(10) 0.0301(10) -0.0007(8) 0.0001(8) 0.0018(8)
C18 0.0355(12) 0.0376(11) 0.0470(13) -0.0047(10) -0.0102(10) 0.0099(9)
C19 0.0367(12) 0.0306(10) 0.0490(13) -0.0090(10) -0.0056(10) 0.0100(9)
C20 0.0391(11) 0.0326(11) 0.0331(11) -0.0018(8) -0.0003(9) 0.0005(9)
C21 0.0360(11) 0.0317(10) 0.0286(10) -0.0012(8) 0.0015(8) -0.0035(8)
C22 0.0428(12) 0.0341(11) 0.0420(12) 0.0110(9) 0.0032(10) -0.0098(9)
C23 0.0292(11) 0.0365(11) 0.0499(13) 0.0087(10) 0.0061(9) -0.0095(9)
C24 0.0274(10) 0.0290(10) 0.0283(10) -0.0011(8) 0.0046(8) -0.0032(8)
C25 0.0290(10) 0.0342(10) 0.0379(11) 0.0076(9) 0.0051(8) -0.0070(8)
C26 0.0290(11) 0.0418(11) 0.0397(12) 0.0044(10) 0.0006(9) -0.0090(9)
C27 0.0272(10) 0.0261(9) 0.0316(10) -0.0066(8) 0.0065(8) -0.0009(7)
loop_
_atom_type_symbol
_atom_type_description
_atom_type_scat_dispersion_real
_atom_type_scat_dispersion_imag
_atom_type_scat_source
C C 0.0033 0.0016 'International Tables Vol C Tables 4.2.6.8 and 6.1.1.4'
H H 0.0000 0.0000 'International Tables Vol C Tables 4.2.6.8 and 6.1.1.4'
Co Co 0.3494 0.9721 'International Tables Vol C Tables 4.2.6.8 and 6.1.1.4'
N N 0.0061 0.0033 'International Tables Vol C Tables 4.2.6.8 and 6.1.1.4'
O O 0.0106 0.0060 'International Tables Vol C Tables 4.2.6.8 and 6.1.1.4'
loop_
_geom_angle_atom_site_label_1
_geom_angle_atom_site_label_2
_geom_angle_atom_site_label_3
_geom_angle
_geom_angle_site_symmetry_1
_geom_angle_site_symmetry_3
N3 Co1 N1 102.84(7) . .
N3 Co1 O1 138.17(6) . .
N1 Co1 O1 99.78(6) . .
N3 Co1 O3 102.37(6) . 1_656
N1 Co1 O3 94.13(6) . 1_656
O1 Co1 O3 110.61(5) . 1_656
N3 Co1 O2 86.75(6) . .
N1 Co1 O2 89.56(6) . .
O1 Co1 O2 58.60(5) . .
O3 Co1 O2 169.10(5) 1_656 .
N3 Co1 O4 92.55(6) . 1_656
N1 Co1 O4 151.23(6) . 1_656
O1 Co1 O4 83.73(6) . 1_656
O3 Co1 O4 58.51(5) 1_656 1_656
O2 Co1 O4 115.77(5) . 1_656
C1 N1 C2 105.05(16) . .
C1 N1 Co1 126.24(13) . .
C2 N1 Co1 127.22(13) . .
C1 N2 C3 108.14(16) . .
C1 N2 H2A 125.9 . .
C3 N2 H2A 125.9 . .
C7 N3 C8 105.49(15) . .
C7 N3 Co1 121.97(13) . .
C8 N3 Co1 131.02(13) . .
C7 N4 C9 108.27(15) . .
C7 N4 H4 125.9 . .
C9 N4 H4 125.9 . .
C13 O1 Co1 96.73(12) . .
C13 O2 Co1 85.20(11) . .
C27 O3 Co1 96.18(11) . 1_454
C27 O4 Co1 84.79(12) . 1_454
H1WA O1W H1WB 99.7 . .
N1 C1 N2 111.51(17) . .
N1 C1 H1 124.2 . .
N2 C1 H1 124.2 . .
C3 C2 N1 110.25(17) . .
C3 C2 H2 124.9 . .
N1 C2 H2 124.9 . .
C2 C3 N2 105.05(16) . .
C2 C3 C5 131.56(18) . .
N2 C3 C5 123.37(17) . .
C5 C4 C6 121.4(2) . 3_665
C5 C4 H4A 119.3 . .
C6 C4 H4A 119.3 3_665 .
C4 C5 C6 117.44(19) . .
C4 C5 C3 120.56(18) . .
C6 C5 C3 121.99(19) . .
C5 C6 C4 121.2(2) . 3_665
C5 C6 H6 119.4 . .
C4 C6 H6 119.4 3_665 .
N3 C7 N4 111.36(17) . .
N3 C7 H7 124.3 . .
N4 C7 H7 124.3 . .
C9 C8 N3 109.88(16) . .
C9 C8 H8 125.1 . .
N3 C8 H8 125.1 . .
C8 C9 N4 104.99(16) . .
C8 C9 C10 132.13(18) . .
N4 C9 C10 122.88(17) . .
C12 C10 C11 117.68(19) . .
C12 C10 C9 120.60(18) . .
C11 C10 C9 121.72(18) . .
C10 C11 C12 121.1(2) . 3_567
C10 C11 H11 119.5 . .
C12 C11 H11 119.5 3_567 .
C10 C12 C11 121.2(2) . 3_567
C10 C12 H12 119.4 . .
C11 C12 H12 119.4 3_567 .
O2 C13 O1 119.45(17) . .
O2 C13 C14 120.44(17) . .
O1 C13 C14 120.11(17) . .
C15 C14 C19 119.50(18) . .
C15 C14 C13 120.83(17) . .
C19 C14 C13 119.67(17) . .
C14 C15 C16 120.50(19) . .
C14 C15 H15 119.7 . .
C16 C15 H15 119.7 . .
C15 C16 C17 119.96(19) . .
C15 C16 H16 120.0 . .
C17 C16 H16 120.0 . .
C18 C17 C16 119.32(19) . .
C18 C17 C20 120.87(19) . .
C16 C17 C20 119.63(19) . .
C19 C18 C17 120.58(19) . .
C19 C18 H18 119.7 . .
C17 C18 H18 119.7 . .
C18 C19 C14 120.11(19) . .
C18 C19 H19 119.9 . .
C14 C19 H19 119.9 . .
O5 C20 C21 121.29(19) . .
O5 C20 C17 120.97(19) . .
C21 C20 C17 117.70(18) . .
C26 C21 C22 119.20(19) . .
C26 C21 C20 121.88(19) . .
C22 C21 C20 118.91(19) . .
C23 C22 C21 120.24(19) . .
C23 C22 H22 119.9 . .
C21 C22 H22 119.9 . .
C22 C23 C24 120.21(19) . .
C22 C23 H23 119.9 . .
C24 C23 H23 119.9 . .
C23 C24 C25 119.62(18) . .
C23 C24 C27 119.92(17) . .
C25 C24 C27 120.45(17) . .
C26 C25 C24 119.95(19) . .
C26 C25 H25 120.0 . .
C24 C25 H25 120.0 . .
C25 C26 C21 120.66(19) . .
C25 C26 H26 119.7 . .
C21 C26 H26 119.7 . .
O4 C27 O3 120.32(18) . .
O4 C27 C24 121.02(18) . .
O3 C27 C24 118.66(17) . .
loop_
_geom_bond_atom_site_label_1
_geom_bond_atom_site_label_2
_geom_bond_distance
_geom_bond_site_symmetry_2
Co1 N3 2.0389(15) .
Co1 N1 2.0633(15) .
Co1 O1 2.0784(14) .
Co1 O3 2.0812(13) 1_656
Co1 O2 2.3351(14) .
Co1 O4 2.3513(16) 1_656
N1 C1 1.321(2) .
N1 C2 1.385(2) .
N2 C1 1.340(2) .
N2 C3 1.376(2) .
N2 H2A 0.8600 .
N3 C7 1.320(2) .
N3 C8 1.385(2) .
N4 C7 1.335(2) .
N4 C9 1.381(2) .
N4 H4 0.8600 .
O1 C13 1.263(2) .
O2 C13 1.251(2) .
O3 C27 1.275(2) .
O3 Co1 2.0812(13) 1_454
O4 C27 1.236(2) .
O4 Co1 2.3513(16) 1_454
O5 C20 1.215(3) .
O1W H1WA 0.8497 .
O1W H1WB 0.8525 .
C1 H1 0.9300 .
C2 C3 1.363(3) .
C2 H2 0.9300 .
C3 C5 1.467(3) .
C4 C5 1.377(3) .
C4 C6 1.386(3) 3_665
C4 H4A 0.9300 .
C5 C6 1.382(3) .
C6 C4 1.386(3) 3_665
C6 H6 0.9300 .
C7 H7 0.9300 .
C8 C9 1.365(3) .
C8 H8 0.9300 .
C9 C10 1.463(3) .
C10 C12 1.381(3) .
C10 C11 1.383(3) .
C11 C12 1.385(3) 3_567
C11 H11 0.9300 .
C12 C11 1.385(3) 3_567
C12 H12 0.9300 .
C13 C14 1.502(3) .
C14 C15 1.383(3) .
C14 C19 1.389(3) .
C15 C16 1.386(3) .
C15 H15 0.9300 .
C16 C17 1.390(3) .
C16 H16 0.9300 .
C17 C18 1.389(3) .
C17 C20 1.503(3) .
C18 C19 1.378(3) .
C18 H18 0.9300 .
C19 H19 0.9300 .
C20 C21 1.495(3) .
C21 C26 1.387(3) .
C21 C22 1.393(3) .
C22 C23 1.380(3) .
C22 H22 0.9300 .
C23 C24 1.387(3) .
C23 H23 0.9300 .
C24 C25 1.392(3) .
C24 C27 1.501(3) .
C25 C26 1.377(3) .
C25 H25 0.9300 .
C26 H26 0.9300 .
loop_
_geom_hbond_atom_site_label_D
_geom_hbond_atom_site_label_H
_geom_hbond_atom_site_label_A
_geom_hbond_distance_DH
_geom_hbond_distance_HA
_geom_hbond_distance_DA
_geom_hbond_angle_DHA
_geom_hbond_site_symmetry_A
O1W H1WB O1 0.85 2.57 3.094(3) 120.5 .
O1W H1WA O4 0.85 2.23 3.018(3) 154.3 1_656
N4 H4 O2 0.86 1.93 2.775(2) 166.6 3_566
N2 H2A O3 0.86 1.98 2.785(2) 155.3 3_565
N2 H2A O3 0.86 1.98 2.785(2) 155.3 3_565
N4 H4 O2 0.86 1.93 2.775(2) 166.6 3_566
O1W H1WA O4 0.85 2.23 3.018(3) 154.3 1_656
O1W H1WB O1 0.85 2.57 3.094(3) 120.5 .
N2 H2A O3 0.86 1.98 2.785(2) 155.3 3_565
N4 H4 O2 0.86 1.93 2.775(2) 166.6 3_566
O1W H1WA O4 0.85 2.23 3.018(3) 154.3 1_656
O1W H1WB O1 0.85 2.57 3.094(3) 120.5 .
loop_
_geom_torsion_atom_site_label_1
_geom_torsion_atom_site_label_2
_geom_torsion_atom_site_label_3
_geom_torsion_atom_site_label_4
_geom_torsion
_geom_torsion_site_symmetry_1
_geom_torsion_site_symmetry_4
C2 N1 C1 N2 -0.3(2) . .
Co1 N1 C1 N2 166.57(13) . .
C3 N2 C1 N1 -0.1(2) . .
C1 N1 C2 C3 0.5(2) . .
Co1 N1 C2 C3 -166.17(14) . .
N1 C2 C3 N2 -0.5(2) . .
N1 C2 C3 C5 -179.0(2) . .
C1 N2 C3 C2 0.4(2) . .
C1 N2 C3 C5 178.99(19) . .
C6 C4 C5 C6 -0.3(5) 3_665 .
C6 C4 C5 C3 179.0(3) 3_665 .
C2 C3 C5 C4 -9.8(4) . .
N2 C3 C5 C4 172.0(2) . .
C2 C3 C5 C6 169.4(3) . .
N2 C3 C5 C6 -8.8(3) . .
C4 C5 C6 C4 0.3(5) . 3_665
C3 C5 C6 C4 -179.0(3) . 3_665
C8 N3 C7 N4 -0.8(2) . .
Co1 N3 C7 N4 166.55(13) . .
C9 N4 C7 N3 0.5(2) . .
C7 N3 C8 C9 0.9(2) . .
Co1 N3 C8 C9 -164.89(14) . .
N3 C8 C9 N4 -0.6(2) . .
N3 C8 C9 C10 178.7(2) . .
C7 N4 C9 C8 0.1(2) . .
C7 N4 C9 C10 -179.32(19) . .
C8 C9 C10 C12 19.4(4) . .
N4 C9 C10 C12 -161.3(2) . .
C8 C9 C10 C11 -160.0(3) . .
N4 C9 C10 C11 19.2(3) . .
C12 C10 C11 C12 -0.1(5) . 3_567
C9 C10 C11 C12 179.4(3) . 3_567
C11 C10 C12 C11 0.1(5) . 3_567
C9 C10 C12 C11 -179.4(3) . 3_567
Co1 O2 C13 O1 -1.19(18) . .
Co1 O2 C13 C14 178.28(17) . .
Co1 O1 C13 O2 1.3(2) . .
Co1 O1 C13 C14 -178.13(15) . .
O2 C13 C14 C15 -175.7(2) . .
O1 C13 C14 C15 3.8(3) . .
O2 C13 C14 C19 4.2(3) . .
O1 C13 C14 C19 -176.3(2) . .
C19 C14 C15 C16 0.0(3) . .
C13 C14 C15 C16 179.9(2) . .
C14 C15 C16 C17 1.3(4) . .
C15 C16 C17 C18 -1.3(4) . .
C15 C16 C17 C20 -176.6(2) . .
C16 C17 C18 C19 0.1(4) . .
C20 C17 C18 C19 175.3(2) . .
C17 C18 C19 C14 1.1(4) . .
C15 C14 C19 C18 -1.2(4) . .
C13 C14 C19 C18 178.9(2) . .
C18 C17 C20 O5 -150.3(2) . .
C16 C17 C20 O5 24.9(3) . .
C18 C17 C20 C21 27.5(3) . .
C16 C17 C20 C21 -157.4(2) . .
O5 C20 C21 C26 -139.8(2) . .
C17 C20 C21 C26 42.4(3) . .
O5 C20 C21 C22 40.9(3) . .
C17 C20 C21 C22 -136.9(2) . .
C26 C21 C22 C23 -2.7(3) . .
C20 C21 C22 C23 176.6(2) . .
C21 C22 C23 C24 2.7(4) . .
C22 C23 C24 C25 0.1(3) . .
C22 C23 C24 C27 -179.0(2) . .
C23 C24 C25 C26 -2.7(3) . .
C27 C24 C25 C26 176.35(19) . .
C24 C25 C26 C21 2.7(3) . .
C22 C21 C26 C25 0.0(3) . .
C20 C21 C26 C25 -179.3(2) . .
Co1 O4 C27 O3 4.30(18) 1_454 .
Co1 O4 C27 C24 -175.26(17) 1_454 .
Co1 O3 C27 O4 -4.9(2) 1_454 .
Co1 O3 C27 C24 174.70(14) 1_454 .
C23 C24 C27 O4 2.0(3) . .
C25 C24 C27 O4 -177.1(2) . .
C23 C24 C27 O3 -177.61(18) . .
C25 C24 C27 O3 3.3(3) . .
