#------------------------------------------------------------------------------
#$Date: 2019-11-17 13:07:58 +0200 (Sun, 17 Nov 2019) $
#$Revision: 230053 $
#$URL: file:///home/coder/svn-repositories/cod/cif/7/04/56/7045603.cif $
#------------------------------------------------------------------------------
#
# This file is available in the Crystallography Open Database (COD),
# http://www.crystallography.net/
#
# All data on this site have been placed in the public domain by the
# contributors.
#
data_7045603
loop_
_publ_author_name
'Yu, Hao'
'Wang, Jing'
'Guo, Xiangyang'
'Zhang, Rong'
'He, Cheng'
'Duan, Chunying'
_publ_section_title
;
 Diversity of metal-organic macrocycles assembled from carbazole based
 ligands with different lengths.
;
_journal_issue                   12
_journal_name_full
'Dalton transactions (Cambridge, England : 2003)'
_journal_page_first              4040
_journal_page_last               4044
_journal_paper_doi               10.1039/c8dt00252e
_journal_volume                  47
_journal_year                    2018
_chemical_formula_moiety         C31H25N7
_chemical_formula_sum            'C150 H155 Cl8 N37 Ni4 O38'
_chemical_formula_weight         3602.54
_chemical_name_systematic        Ni-LA2[44]
_space_group_crystal_system      triclinic
_space_group_IT_number           2
_space_group_name_Hall           '-P 1'
_space_group_name_H-M_alt        'P -1'
_symmetry_space_group_name_Hall  '-P 1'
_symmetry_space_group_name_H-M   'P -1'
_atom_sites_solution_hydrogens   mixed
_audit_creation_method           SHELXL-2014
_audit_update_record
;
2018-02-05 deposited with the CCDC.
2018-02-06 downloaded from the CCDC.
;
_cell_angle_alpha                98.467(2)
_cell_angle_beta                 100.413(2)
_cell_angle_gamma                109.069(2)
_cell_formula_units_Z            1
_cell_length_a                   12.1353(10)
_cell_length_b                   17.5582(14)
_cell_length_c                   22.1641(18)
_cell_measurement_reflns_used    9858
_cell_measurement_temperature    150(2)
_cell_measurement_theta_max      27.60
_cell_measurement_theta_min      2.30
_cell_volume                     4280.5(6)
_computing_cell_refinement       'Bruker SAINT'
_computing_data_collection       'Bruker APEX2'
_computing_data_reduction        'Bruker SAINT'
_computing_molecular_graphics    'Bruker SHELXTL'
_computing_publication_material  'Bruker SHELXTL'
_computing_structure_refinement  'SHELXL-2014 (Sheldrick, 2014)'
_computing_structure_solution    'SHELXS-97 (Sheldrick 2008)'
_diffrn_ambient_temperature      150(2)
_diffrn_measured_fraction_theta_full 0.967
_diffrn_measured_fraction_theta_max 0.994
_diffrn_measurement_device_type  'Bruker APEX-II CCD'
_diffrn_measurement_method       '\f and \w scans'
_diffrn_radiation_type           MoK\a
_diffrn_radiation_wavelength     0.71073
_diffrn_reflns_av_R_equivalents  0.1564
_diffrn_reflns_av_unetI/netI     0.3695
_diffrn_reflns_Laue_measured_fraction_full 0.967
_diffrn_reflns_Laue_measured_fraction_max 0.994
_diffrn_reflns_limit_h_max       14
_diffrn_reflns_limit_h_min       -14
_diffrn_reflns_limit_k_max       20
_diffrn_reflns_limit_k_min       -20
_diffrn_reflns_limit_l_max       26
_diffrn_reflns_limit_l_min       -26
_diffrn_reflns_number            96890
_diffrn_reflns_point_group_measured_fraction_full 0.967
_diffrn_reflns_point_group_measured_fraction_max 0.994
_diffrn_reflns_theta_full        25.242
_diffrn_reflns_theta_max         25.000
_diffrn_reflns_theta_min         2.123
_exptl_absorpt_coefficient_mu    0.642
_exptl_absorpt_correction_type   none
_exptl_crystal_colour            yellow
_exptl_crystal_density_diffrn    1.398
_exptl_crystal_description       needle-like
_exptl_crystal_F_000             1866
_exptl_crystal_recrystallization_method
'Re-crystallisation from solvent: CH3CN/CH3OH'
_exptl_crystal_size_max          0.220
_exptl_crystal_size_mid          0.150
_exptl_crystal_size_min          0.100
_refine_diff_density_max         0.699
_refine_diff_density_min         -0.660
_refine_diff_density_rms         0.082
_refine_ls_extinction_method     none
_refine_ls_goodness_of_fit_ref   0.988
_refine_ls_hydrogen_treatment    constr
_refine_ls_matrix_type           full
_refine_ls_number_parameters     1043
_refine_ls_number_reflns         14988
_refine_ls_number_restraints     166
_refine_ls_restrained_S_all      0.999
_refine_ls_R_factor_all          0.2513
_refine_ls_R_factor_gt           0.0898
_refine_ls_shift/su_max          0.001
_refine_ls_shift/su_mean         0.000
_refine_ls_structure_factor_coef Fsqd
_refine_ls_weighting_details
'w=exp[1.0000(sin\q/\l)^2^)]/[\s^2^(Fo^2^)+(0.0100P)^2^] where P=(Fo^2^+2Fc^2^)/3'
_refine_ls_weighting_scheme      calc
_refine_ls_wR_factor_gt          0.1674
_refine_ls_wR_factor_ref         0.2011
_reflns_Friedel_coverage         0.000
_reflns_number_gt                4715
_reflns_number_total             14988
_reflns_threshold_expression     'I > 2\s(I)'
_cod_data_source_file            c8dt00252e2.cif
_cod_data_source_block           NILA244
_cod_depositor_comments
'Adding full bibliography for 7045601--7045603.cif.'
_cod_database_code               7045603
_shelx_space_group_comment
;
The symmetry employed for this shelxl refinement is uniquely defined
by the following loop, which should always be used as a source of
symmetry information in preference to the above space-group names.
They are only intended as comments.
;
_shelx_estimated_absorpt_t_min   0.872
_shelx_estimated_absorpt_t_max   0.939
_shelxl_version_number           2014-3
_shelx_res_file
;
TITL 1 in P-1
CELL 0.71073  12.13530  17.55820  22.16410  98.4673 100.4127 109.0685
ZERR   1.00   0.00100   0.00140   0.00180   0.0021   0.0022   0.0021
LATT  1
SFAC C H N O CL NI
UNIT 150 155 37 38 8 4
TEMP -123.160
SIZE 0.10 0.15 0.22

L.S. 300
BOND
FMAP 2
PLAN 40
OMIT 0 50
ACTA

damp 1000

OMIT     1  -2   1
OMIT     1  -3   2
OMIT     2   2   5
OMIT    -3   5   1
OMIT    -2   3   3
OMIT    -1  -3   3
OMIT     2   3   0
OMIT    -2  -2   2
OMIT     0  -3   1
OMIT     0  -1   5
OMIT    -1   3   5
OMIT     1   0   6
OMIT    -2  -3   4
OMIT     0  -2   2
OMIT    -1   2   3
OMIT     0  -1   2
OMIT     2   1   6
OMIT    -1  -4   6
OMIT     0  -5   1
OMIT     1   0   2
OMIT    -1   3   4
OMIT     0   1   2
OMIT     1  -3   5
OMIT     2   1   3
OMIT     2   7   3
OMIT    -3   0   4
OMIT     3  -2   4
OMIT    -3   4   3
OMIT    -1  -5   1
OMIT    -5  -1   5
OMIT    -2  -3   1
OMIT    -2  -4   5
OMIT    -2   4   3
OMIT     2  -3   2
OMIT    -1  -3   8
OMIT     0   2   1
OMIT   2  -2   2
OMIT    -3   2   2
OMIT     0  -5   6
OMIT     0  -7   1
OMIT     0   3   9
OMIT     0  -2   6
OMIT     3  -5   4
OMIT     1   6   1
OMIT    -3   4   9
OMIT    -1   4   4
OMIT     1  -3   1
OMIT     2  -3   4
OMIT     3  -7   3
OMIT    -3  -2   3
OMIT    -3  -6   1
OMIT    -1   5   1

SIMU 0.02 0.04 2.80 O31 > O33'

sadi 0.02 c66 c65 c66' c65

simu 0.02 0.04 2.80 c66 c66' c65 n16

EXYZ N17 O2
EADP N17 O2

DFIX 1.45 0.02 C110 C111
DFIX 1.10 0.02 C111 N110
DFIX 2.55 0.03 C110 N110

DFIX 2.20 0.03 O200 C203 C201 C202 C210 O210 C211 C212

DFIX 1.50 0.02 C202 C203 O200 C201 O200 C202 C201 C200

DFIX 1.10 0.02 N100 C101

DFIX 1.40 0.02 CL3 O31 CL3 O32 CL3 O33 CL3 O34
DFIX 2.20 0.03 O31 O32 O31 O33 O31 O34 O32 O33 O32 O34 O33 O34

isor 0.02 C101
DELU 0.01  C10 C19 C29 C30 NI1 O1 c7 c12 n12 n13
delu 0.01  c41 c50 c59 c60 c60 c61 c26 c31 n3 c14
DELU 0.01 N7 C20  n12 c50 n16 c65 c29 c30
DELU 0.005 n16 c65

WGHT    0.010000    0.000000    1.000000
FVAR       0.28093
NI1   6    0.631890    1.018162   -0.814552    11.00000    0.03850    0.04215 =
         0.02833   -0.00243    0.00549    0.00812
NI2   6    0.214656    0.625468   -0.692229    11.00000    0.04724    0.03923 =
         0.05944    0.00466    0.02507    0.01211
N1    3    0.276426    0.652758   -0.987413    11.00000    0.03873    0.02698 =
         0.04093   -0.00978    0.00542    0.00641
N2    3    0.090642    0.673413   -0.736667    11.00000    0.04842    0.04304 =
         0.04547   -0.00346    0.02247    0.01082
N3    3    0.023151    0.687179   -0.695599    11.00000    0.03229    0.06707 =
         0.04016    0.00156    0.01785    0.01684
AFIX  43
H3A   2   -0.046567    0.692050   -0.708874    11.00000   -1.20000
AFIX   0
N4    3    0.165976    0.674448   -0.617574    11.00000    0.02982    0.05909 =
         0.05793    0.01686    0.03180    0.01597
N5    3    0.725354    0.936582   -0.802541    11.00000    0.02954    0.04422 =
         0.03748   -0.00583    0.00462    0.00499
N6    3    0.837861    0.980957   -0.762310    11.00000    0.01600    0.04915 =
         0.06345   -0.01029    0.00678    0.01334
AFIX  43
H6A   2    0.897717    0.962850   -0.760500    11.00000   -1.20000
AFIX   0
N7    3    0.763762    1.084087   -0.735363    11.00000    0.02456    0.05212 =
         0.02032    0.00530    0.00429    0.00846
N8    3    0.776153    1.042602   -0.486673    11.00000    0.02132    0.03288 =
         0.03100   -0.00381    0.00356    0.01216
N9    3    0.482898    0.974439   -0.773400    11.00000    0.01923    0.05866 =
         0.03312    0.00720    0.00973    0.00738
N10   3    0.379998    0.947878   -0.822190    11.00000    0.03308    0.08665 =
         0.02362   -0.00524    0.00063    0.02463
AFIX  43
H10A  2    0.309951    0.943397   -0.814236    11.00000   -1.20000
AFIX   0
N11   3    0.497244    0.950421   -0.892417    11.00000    0.03575    0.04937 =
         0.02198   -0.00269    0.00220    0.01935
N12   3    0.613295    1.281261   -0.315862    11.00000    0.03340    0.04404 =
         0.04040   -0.00884    0.01380    0.00621
N13   3    0.550737    1.319118   -0.283316    11.00000    0.03250    0.04238 =
         0.05478   -0.02522    0.02102    0.00513
AFIX  43
H13A  2    0.471607    1.299405   -0.293037    11.00000   -1.20000
AFIX   0
N14   3    0.730530    1.421917   -0.233442    11.00000    0.05260    0.02954 =
         0.04846   -0.01326    0.01745    0.01039
N16   3    0.579178    1.115908   -0.820738    11.00000    0.05620    0.04421 =
         0.04594    0.00517    0.00369    0.01792
N18   3    0.066316    0.520416   -0.704189    11.00000    0.06844    0.02672 =
         0.10451    0.01886    0.04607    0.01036
C1    1    0.203325    0.650334   -0.946265    11.00000    0.04335    0.03155 =
         0.04621   -0.00438    0.02258    0.01158
C2    1    0.082846    0.613510   -0.955827    11.00000    0.04301    0.04457 =
         0.03038   -0.01452    0.00355    0.00125
AFIX  43
H2A   2    0.034065    0.583088   -0.996354    11.00000   -1.20000
AFIX   0
C3    1    0.032815    0.621220   -0.905442    11.00000    0.03191    0.03971 =
         0.05157   -0.00630    0.00851   -0.00074
AFIX  43
H3B   2   -0.051519    0.594856   -0.911438    11.00000   -1.20000
AFIX   0
C4    1    0.102598    0.666808   -0.845564    11.00000    0.05149    0.04797 =
         0.03832   -0.00212    0.01901    0.02080
C5    1    0.223969    0.705982   -0.836615    11.00000    0.03048    0.03615 =
         0.03472   -0.01100    0.00288    0.01165
AFIX  43
H5A   2    0.272308    0.736918   -0.796124    11.00000   -1.20000
AFIX   0
C6    1    0.275600    0.700141   -0.887001    11.00000    0.03476    0.01661 =
         0.03649   -0.00743    0.01173    0.00522
C7    1    0.393639    0.700261   -0.956191    11.00000    0.04369    0.03966 =
         0.03942   -0.00401    0.01676    0.01504
C8    1    0.497169    0.717294   -0.977503    11.00000    0.05654    0.03608 =
         0.04999   -0.00738    0.02019    0.02204
AFIX  43
H8A   2    0.495317    0.692393   -1.018927    11.00000   -1.20000
AFIX   0
C9    1    0.603871    0.771671   -0.936887    11.00000    0.03347    0.04467 =
         0.05491   -0.00393    0.02305    0.00933
AFIX  43
H9A   2    0.676135    0.784180   -0.950723    11.00000   -1.20000
AFIX   0
C10   1    0.607125    0.807816   -0.877014    11.00000    0.02545    0.03128 =
         0.03533   -0.00280    0.01313    0.00630
C11   1    0.506557    0.788893   -0.855020    11.00000    0.04387    0.03176 =
         0.02375   -0.00696    0.00741    0.00831
AFIX  43
H11A  2    0.510243    0.813300   -0.813142    11.00000   -1.20000
AFIX   0
C12   1    0.397481    0.733354   -0.894196    11.00000    0.04292    0.02752 =
         0.01925   -0.00282    0.01079    0.01012
C13   1    0.046469    0.673401   -0.794307    11.00000    0.02513    0.04426 =
         0.05339   -0.01439    0.00600    0.00022
AFIX  43
H13B  2   -0.030214    0.678198   -0.803592    11.00000   -1.20000
AFIX   0
C14   1    0.068708    0.692965   -0.633486    11.00000    0.05445    0.04173 =
         0.05442    0.00749    0.03015    0.01371
C15   1    0.013028    0.720132   -0.587573    11.00000    0.06715    0.10737 =
         0.06614    0.02870    0.04420    0.04724
AFIX  43
H15A  2   -0.057361    0.732440   -0.599572    11.00000   -1.20000
AFIX   0
C16   1    0.063473    0.727679   -0.526953    11.00000    0.07793    0.10860 =
         0.05218    0.01927    0.04298    0.03101
AFIX  43
H16A  2    0.026178    0.743854   -0.495768    11.00000   -1.20000
AFIX   0
C17   1    0.168007    0.712696   -0.508323    11.00000    0.04621    0.11830 =
         0.05859    0.00129    0.02017    0.01643
AFIX  43
H17A  2    0.205107    0.721131   -0.465064    11.00000   -1.20000
AFIX   0
C18   1    0.216636    0.684994   -0.554899    11.00000    0.05149    0.06971 =
         0.06449    0.02297    0.03211    0.02782
AFIX  43
H18A  2    0.287279    0.672887   -0.543165    11.00000   -1.20000
AFIX   0
C19   1    0.718238    0.867880   -0.836294    11.00000    0.03935    0.05693 =
         0.05349    0.01076    0.01960    0.01840
AFIX  43
H19A  2    0.789681    0.856097   -0.834317    11.00000   -1.20000
AFIX   0
C20   1    0.850232    1.054749   -0.725517    11.00000    0.02712    0.06079 =
         0.02009   -0.00487   -0.00305    0.00042
C21   1    0.956352    1.094333   -0.676413    11.00000    0.02149    0.09455 =
         0.04407    0.00739    0.00802    0.01093
AFIX  43
H21A  2    1.017905    1.071941   -0.670079    11.00000   -1.20000
AFIX   0
C22   1    0.965754    1.166134   -0.638711    11.00000    0.06154    0.08323 =
         0.02752   -0.02145    0.00578   -0.01223
AFIX  43
H22A  2    1.035507    1.195469   -0.605473    11.00000   -1.20000
AFIX   0
C23   1    0.870561    1.196950   -0.649379    11.00000    0.06407    0.06855 =
         0.04216   -0.00223    0.01027    0.00982
AFIX  43
H23A  2    0.875144    1.246595   -0.623446    11.00000   -1.20000
AFIX   0
C24   1    0.774777    1.153938   -0.696911    11.00000    0.05230    0.05038 =
         0.02652   -0.00957    0.00610    0.01278
AFIX  43
H24A  2    0.710796    1.174019   -0.703856    11.00000   -1.20000
AFIX   0
C25   1    0.239137    0.616292   -1.054157    11.00000    0.05518    0.04905 =
         0.03015   -0.01909    0.00246    0.01824
AFIX  23
H25A  2    0.277226    0.658475   -1.076682    11.00000   -1.20000
H25B  2    0.150975    0.600721   -1.068316    11.00000   -1.20000
AFIX   0
C26   1    0.270368    0.540793   -1.072532    11.00000    0.03732    0.03089 =
         0.04735   -0.00267    0.01346    0.00856
C27   1    0.254329    0.507820   -1.136432    11.00000    0.04780    0.05554 =
         0.03896   -0.01171    0.00693    0.01344
AFIX  43
H27A  2    0.226435    0.534100   -1.167156    11.00000   -1.20000
AFIX   0
C28   1    0.278123    0.438736   -1.155096    11.00000    0.06678    0.05412 =
         0.04469   -0.02092    0.01503    0.01811
AFIX  43
H28A  2    0.269465    0.418228   -1.198490    11.00000   -1.20000
AFIX   0
C29   1    0.313126    0.400264   -1.113116    11.00000    0.06863    0.04728 =
         0.07669   -0.01185    0.02766    0.02081
AFIX  43
H29A  2    0.326544    0.350988   -1.127102    11.00000   -1.20000
AFIX   0
C30   1    0.330876    0.429099   -1.049716    11.00000    0.04906    0.05739 =
         0.09896   -0.01022    0.01275    0.02435
AFIX  43
H30A  2    0.357771    0.400900   -1.020231    11.00000   -1.20000
AFIX   0
C31   1    0.308552    0.501004   -1.029268    11.00000    0.06959    0.04173 =
         0.04910   -0.00832    0.01709    0.01904
AFIX  43
H31A  2    0.319905    0.521882   -0.985649    11.00000   -1.20000
AFIX   0
C32   1    0.708703    1.026923   -0.547910    11.00000    0.01792    0.03795 =
         0.01958    0.00640    0.00721    0.00322
C33   1    0.723541    0.982347   -0.602145    11.00000    0.03713    0.03261 =
         0.02835    0.00427    0.01321    0.01446
AFIX  43
H33A  2    0.785538    0.960297   -0.600831    11.00000   -1.20000
AFIX   0
C34   1    0.640287    0.972787   -0.658282    11.00000    0.04756    0.03923 =
         0.01711   -0.00139    0.01755    0.01332
AFIX  43
H34A  2    0.645298    0.942246   -0.696138    11.00000   -1.20000
AFIX   0
C35   1    0.551439    1.005999   -0.660659    11.00000    0.01788    0.02955 =
         0.02407   -0.00186    0.00608    0.00599
C36   1    0.540857    1.046936   -0.605759    11.00000    0.02087    0.01366 =
         0.03816    0.00038    0.00823    0.00405
AFIX  43
H36A  2    0.478443    1.068597   -0.607155    11.00000   -1.20000
AFIX   0
C37   1    0.616858    1.057702   -0.549098    11.00000    0.00897    0.02747 =
         0.03116    0.00427    0.00789    0.00478
C38   1    0.727909    1.083916   -0.447639    11.00000    0.01253    0.03701 =
         0.02522    0.00137    0.00025    0.01304
C39   1    0.763790    1.113119   -0.383413    11.00000    0.03525    0.03880 =
         0.03342   -0.00443    0.00519    0.01406
AFIX  43
H39A  2    0.829076    1.104478   -0.358405    11.00000   -1.20000
AFIX   0
C40   1    0.701058    1.154908   -0.357648    11.00000    0.03762    0.03414 =
         0.02387   -0.00681    0.00337    0.00939
AFIX  43
H40A  2    0.725498    1.176498   -0.313475    11.00000   -1.20000
AFIX   0
C41   1    0.603468    1.168255   -0.391524    11.00000    0.03400    0.03214 =
         0.03036   -0.00296    0.01137    0.01149
C42   1    0.563501    1.135718   -0.456449    11.00000    0.03137    0.03785 =
         0.03273    0.00191    0.01395    0.00774
AFIX  43
H42A  2    0.494676    1.141428   -0.480567    11.00000   -1.20000
AFIX   0
C43   1    0.628702    1.094430   -0.484556    11.00000    0.02631    0.02004 =
         0.02726    0.00268    0.01611    0.00835
C44   1    0.464098    0.991082   -0.719536    11.00000    0.03807    0.05405 =
         0.02695    0.00449    0.01627    0.02230
AFIX  43
H44A  2    0.388036    0.994013   -0.717453    11.00000   -1.20000
AFIX   0
C45   1    0.388877    0.928962   -0.882174    11.00000    0.02916    0.04351 =
         0.04038    0.00059    0.00052    0.01418
C46   1    0.284706    0.886324   -0.929487    11.00000    0.03260    0.07191 =
         0.03737   -0.00478    0.00620    0.01325
AFIX  43
H46A  2    0.207914    0.872035   -0.920367    11.00000   -1.20000
AFIX   0
C47   1    0.295214    0.865604   -0.988937    11.00000    0.05033    0.05213 =
         0.05252   -0.00152    0.00423    0.01820
AFIX  43
H47A  2    0.225725    0.837470   -1.022550    11.00000   -1.20000
AFIX   0
C48   1    0.407774    0.885929   -0.999730    11.00000    0.07273    0.04632 =
         0.02656   -0.00273    0.00975    0.02395
AFIX  43
H48A  2    0.417222    0.869921   -1.040757    11.00000   -1.20000
AFIX   0
C49   1    0.506743    0.929464   -0.951088    11.00000    0.05154    0.04378 =
         0.03353    0.00773    0.00788    0.01646
AFIX  43
H49A  2    0.584260    0.945157   -0.959372    11.00000   -1.20000
AFIX   0
C50   1    0.548254    1.217698   -0.360319    11.00000    0.04849    0.05653 =
         0.02967    0.00542    0.01332    0.02574
AFIX  43
H50A  2    0.463635    1.203603   -0.372419    11.00000   -1.20000
AFIX   0
C51   1    0.613500    1.387102   -0.236197    11.00000    0.03433    0.03658 =
         0.05463   -0.01175    0.01450    0.01047
C52   1    0.556409    1.417593   -0.195879    11.00000    0.03073    0.06014 =
         0.06325   -0.01272    0.02360    0.01492
AFIX  43
H52A  2    0.472413    1.391992   -0.200256    11.00000   -1.20000
AFIX   0
C53   1    0.626742    1.488207   -0.147760    11.00000    0.07608    0.04955 =
         0.07528   -0.02582    0.02400    0.03045
AFIX  43
H53A  2    0.592071    1.510799   -0.117976    11.00000   -1.20000
AFIX   0
C54   1    0.751402    1.524438   -0.145362    11.00000    0.06281    0.05144 =
         0.08639   -0.01592    0.00893    0.01587
AFIX  43
H54A  2    0.801470    1.572013   -0.113630    11.00000   -1.20000
AFIX   0
C55   1    0.798265    1.490975   -0.188331    11.00000    0.04682    0.03884 =
         0.07547   -0.01634    0.01875    0.01636
AFIX  43
H55A  2    0.881093    1.516557   -0.186915    11.00000   -1.20000
AFIX   0
C56   1    0.865487    1.009272   -0.466532    11.00000    0.02570    0.04537 =
         0.03041   -0.00593    0.00133    0.00923
AFIX  23
H56A  2    0.920171    1.044636   -0.426128    11.00000   -1.20000
H56B  2    0.913813    1.009014   -0.498030    11.00000   -1.20000
AFIX   0
C57   1    0.808637    0.922542   -0.458334    11.00000    0.03221    0.04832 =
         0.02532   -0.00590   -0.01031    0.02095
C58   1    0.804259    0.854481   -0.502947    11.00000    0.08338    0.05927 =
         0.04531    0.01598    0.01117    0.03743
AFIX  43
H58A  2    0.842713    0.864612   -0.536232    11.00000   -1.20000
AFIX   0
C59   1    0.746515    0.774606   -0.499742    11.00000    0.10652    0.03554 =
         0.06785    0.00746    0.01866    0.01184
AFIX  43
H59A  2    0.741339    0.729639   -0.531176    11.00000   -1.20000
AFIX   0
C60   1    0.696750    0.761499   -0.450220    11.00000    0.11250    0.04769 =
         0.11450    0.02482    0.03369    0.00505
AFIX  43
H60A  2    0.656536    0.706555   -0.446755    11.00000   -1.20000
AFIX   0
C61   1    0.704235    0.829835   -0.402974    11.00000    0.07298    0.09545 =
         0.06435    0.02877    0.02681    0.04157
AFIX  43
H61A  2    0.669128    0.820274   -0.368493    11.00000   -1.20000
AFIX   0
C62   1    0.761159    0.906952   -0.408143    11.00000    0.04539    0.05842 =
         0.04485    0.01112    0.01334    0.02377
AFIX  43
H62A  2    0.768755    0.952019   -0.376089    11.00000   -1.20000
AFIX   0
C65   1    0.563470    1.172828   -0.825629    11.00000    0.10972    0.07270 =
         0.08623    0.02330    0.02271    0.03782
C68   1   -0.006774    0.465383   -0.701258    11.00000    0.09279    0.04131 =
         0.14650    0.01158    0.05825    0.00440
PART   1
C66   1    0.550432    1.261364   -0.828779    10.87500    0.12705
AFIX   3
H66A  2    0.629958    1.303387   -0.823824    10.87500   -1.50000
H66B  2    0.514973    1.277206   -0.794885    10.87500   -1.50000
H66C  2    0.498380    1.256924   -0.869491    10.87500   -1.50000
AFIX   0
C67   1   -0.114480    0.393788   -0.701415    10.85000    0.12242
AFIX   3
H67A  2   -0.186080    0.397292   -0.727687    10.85000   -1.50000
H67B  2   -0.123685    0.394738   -0.658315    10.85000   -1.50000
H67C  2   -0.104728    0.342226   -0.718342    10.85000   -1.50000
AFIX   0
O2    4    0.316480    0.575237   -0.633090    10.50000    0.08464
AFIX   3
H2B   2    0.374200    0.571167   -0.648411    10.50000   -1.50000
H2D   2    0.271630    0.527627   -0.630831    10.50000   -1.50000
AFIX   0
PART   2
C66'  1    0.451491    1.206066   -0.839266    10.12500    0.08021
AFIX   3
H66D  2    0.375130    1.159151   -0.849015    10.12500   -1.50000
H66E  2    0.455812    1.232854   -0.875014    10.12500   -1.50000
H66F  2    0.456606    1.245875   -0.801917    10.12500   -1.50000
AFIX   0
C67'  1   -0.050269    0.370244   -0.672685    10.15000    0.08940
AFIX   3
H67D  2    0.020588    0.366295   -0.646040    10.15000   -1.50000
H67E  2   -0.085194    0.322840   -0.708672    10.15000   -1.50000
H67F  2   -0.109881    0.370332   -0.648194    10.15000   -1.50000
AFIX   0
C69   1    0.450457    0.532395   -0.557279    10.50000    0.13430
AFIX   3
H69A  2    0.496987    0.577325   -0.520439    10.50000   -1.50000
H69B  2    0.401617    0.484615   -0.543659    10.50000   -1.50000
H69C  2    0.505467    0.516705   -0.579389    10.50000   -1.50000
AFIX   0
N17   3    0.316480    0.575237   -0.633090    10.50000    0.08464
C70   1    0.377433    0.563067   -0.597253    10.50000    0.04212
PART   0
O1    4    0.753299    1.065630   -0.868578    11.00000    0.07112    0.07182 =
         0.02502   -0.00543   -0.00405   -0.00850
AFIX   3
H1B   2    0.729699    1.034299   -0.905128    11.00000   -1.20000
H1A   2    0.822919    1.067860   -0.850938    11.00000   -1.50000
AFIX   0
CL1   5    1.221890   -0.780821   -0.309473    11.00000    0.04524    0.05636 =
         0.03922   -0.00724    0.00496    0.02289
O11   4    1.318593   -0.797155   -0.277012    11.00000    0.05088    0.07670 =
         0.06787    0.00588    0.00373    0.03082
O12   4    1.127663   -0.854504   -0.341189    11.00000    0.03792    0.06621 =
         0.08812   -0.02781    0.00716   -0.00513
O13   4    1.263444   -0.736251   -0.353249    11.00000    0.09272    0.11369 =
         0.07554    0.04433    0.00768    0.01868
O14   4    1.183817   -0.733490   -0.268426    11.00000    0.08336    0.12129 =
         0.07505   -0.05208   -0.00157    0.05945
CL2   5   -0.076258    0.099844   -0.204846    11.00000    0.05481    0.13097 =
         0.07166    0.03640    0.02712    0.05616
O21   4   -0.166703    0.131294   -0.220565    11.00000    0.03881    0.06260 =
         0.09385   -0.01791   -0.00323    0.02649
O22   4   -0.053320    0.059152   -0.255074    11.00000    0.13642    0.17536 =
         0.07261   -0.02479   -0.00041    0.12240
O23   4   -0.086693    0.061196   -0.156907    11.00000    0.32700    0.15221 =
         0.11068    0.08712    0.08508    0.12774
O24   4    0.036162    0.173813   -0.176115    11.00000    0.06971    0.20655 =
         0.22912   -0.02586   -0.01438    0.03895
CL4   5    1.069972    0.720107   -1.152412    11.00000    0.18285    0.07614 =
         0.08698    0.01264   -0.03859   -0.02099
O41   4    1.195258    0.756714   -1.141837    11.00000    0.14738    0.11151 =
         0.10921    0.00954    0.01180   -0.01045
O42   4    1.032239    0.701541   -1.102592    11.00000    0.11858    0.27879 =
         0.12552    0.03212    0.03753    0.06898
PART   1
O43   4    0.978848    0.680246   -1.203266    10.50000    0.14422
O44   4    1.019241    0.799541   -1.134403    10.50000    0.17758
PART   2
O43'  4    1.036481    0.749572   -1.202390    10.50000    0.15558
O44'  4    1.068893    0.633038   -1.177526    10.50000    0.09536
PART   0
O31   4   -0.303397   -1.690075    0.357906    11.00000    0.18562    0.23976 =
         0.23961    0.04213    0.09410    0.06207
O34   4   -0.491553   -1.772455    0.319891    11.00000    0.20645    0.25296 =
         0.23866    0.04466    0.09120    0.03052
PART   1
CL3   5   -0.423440   -1.695697    0.346957    10.33333    0.16935
O33   4   -0.427447   -1.649926    0.301849    10.33333    0.24841
O32   4   -0.414254   -1.645988    0.406143    10.33333    0.13399
PART   2
CL3'  5   -0.408840   -1.697585    0.381566    10.66667    0.18564
O32'  4   -0.420943   -1.738671    0.435519    10.66667    0.21782
O33'  4   -0.490383   -1.655137    0.365312    10.66667    0.23585
PART   0
N100  3    0.719277   -0.291199    0.933737    11.00000    0.20608    0.09583 =
         0.18942    0.02445    0.11896    0.07571
C100  1    0.930901   -0.222713    1.012728    11.00000    0.11572    0.19580 =
         0.11489    0.00115    0.01885    0.05679
AFIX  33
H10B  2    0.988919   -0.246100    1.000667    11.00000   -1.50000
H10C  2    0.960129   -0.163363    1.013806    11.00000   -1.50000
H10D  2    0.921398   -0.231346    1.054464    11.00000   -1.50000
AFIX   0
C101  1    0.817314   -0.262643    0.967795    11.00000    0.16412    0.12579 =
         0.13979    0.01703    0.08454    0.04649
PART   1
C120  1    0.729675    0.913218   -1.060258    10.50000    0.09342
AFIX  33
H12A  2    0.781882    0.967243   -1.033391    10.50000   -1.50000
H12B  2    0.648177    0.913054   -1.074087    10.50000   -1.50000
H12C  2    0.727614    0.870139   -1.036477    10.50000   -1.50000
AFIX   0
C121  1    0.768042    0.900025   -1.105313    10.50000    0.10648
N120  3    0.794153    0.873874   -1.157012    10.50000    0.20970
C212  1    0.879410    0.523754   -0.506264    10.50000    0.17002
AFIX  23
H21B  2    0.873851    0.555323   -0.539470    10.50000   -1.20000
H21C  2    0.806333    0.473092   -0.517081    10.50000   -1.20000
AFIX   0
C210  1    0.819749    0.625417   -0.371306    10.50000    0.15308
AFIX  33
H21D  2    0.749876    0.639170   -0.365275    10.50000   -1.50000
H21E  2    0.828486    0.584754   -0.346745    10.50000   -1.50000
H21F  2    0.892314    0.675520   -0.357218    10.50000   -1.50000
AFIX   0
C211  1    0.800944    0.587263   -0.444810    10.50000    0.23695
AFIX  23
H21G  2    0.728802    0.535974   -0.460151    10.50000   -1.20000
H21K  2    0.793141    0.627467   -0.470708    10.50000   -1.20000
AFIX   0
C213  1    1.000000    0.500000   -0.500000    10.50000    0.41341
AFIX   3
H21H  2    0.994110    0.465590   -0.540370    10.50000   -1.50000
H21I  2    1.072120    0.550210   -0.489990    10.50000   -1.50000
H21J  2    1.005140    0.469070   -0.466890    10.50000   -1.50000
AFIX   0
O210  4    0.890936    0.573333   -0.445786    10.50000    0.23402
PART   2
O1W   4    0.862974    0.949390   -1.047513    10.50000    0.26470
AFIX   3
H1WA  2    0.929794    0.988190   -1.043174    10.50000   -1.50000
H1WB  2    0.874044    0.903880   -1.048664    10.50000   -1.50000
AFIX   0
O200  4    0.710579    0.541947   -0.667684    10.50000    0.22140
C203  1    0.610259    0.441973   -0.744105    10.50000    0.20525
AFIX  33
H20A  2    0.535343    0.402276   -0.772626    10.50000   -1.50000
H20B  2    0.659596    0.474760   -0.768337    10.50000   -1.50000
H20C  2    0.654522    0.412142   -0.722329    10.50000   -1.50000
AFIX   0
C202  1    0.580664    0.500170   -0.695042    10.50000    0.28930
AFIX  23
H20D  2    0.541427    0.535653   -0.713466    10.50000   -1.20000
H20E  2    0.536249    0.471740   -0.666507    10.50000   -1.20000
AFIX   0
C201  1    0.698110    0.549468   -0.600317    10.50000    0.42343
AFIX  23
H20F  2    0.618908    0.505829   -0.605108    10.50000   -1.20000
H20J  2    0.683848    0.602006   -0.592162    10.50000   -1.20000
AFIX   0
C200  1    0.767746    0.549271   -0.534847    10.50000    0.44277
AFIX  33
H20G  2    0.721655    0.556437   -0.503841    10.50000   -1.50000
H20H  2    0.779786    0.496570   -0.536158    10.50000   -1.50000
H20I  2    0.846032    0.594681   -0.522951    10.50000   -1.50000
AFIX   0
C110  1    0.358628    0.378637   -0.746862    10.50000    0.33033
AFIX  33
H11C  2    0.337029    0.348115   -0.790636    10.50000   -1.50000
H11D  2    0.379124    0.437750   -0.745631    10.50000   -1.50000
H11E  2    0.427983    0.369644   -0.723177    10.50000   -1.50000
AFIX   0
N110  3    0.225386    0.357966   -0.674074    10.50000    0.18205
C111  1    0.255921    0.349147   -0.718482    10.50000    0.18554
PART   0

HKLF 4

REM  1 in P-1
REM R1 =  0.0898 for    4715 Fo > 4sig(Fo)  and  0.2513 for all   14988 data
REM   1043 parameters refined using    166 restraints

END

WGHT      0.0599      0.0000

REM Highest difference peak  0.699,  deepest hole -0.660,  1-sigma level  0.082
Q1    1   0.7271  1.0234 -0.8209  11.00000  0.05    0.70
Q2    1   0.4735  0.4593 -0.6978  11.00000  0.05    0.54
Q3    1  -0.1602  0.0162 -0.2267  11.00000  0.05    0.54
Q4    1   0.2414  0.2727 -0.7522  11.00000  0.05    0.54
Q5    1  -0.5263 -1.8328  0.2548  11.00000  0.05    0.54
Q6    1   0.8204  0.5479 -0.4875  11.00000  0.05    0.50
Q7    1   0.8048  0.9448 -1.0091  11.00000  0.05    0.50
Q8    1   0.8969  0.8812 -1.1594  11.00000  0.05    0.50
Q9    1  -0.5456 -1.6968  0.3237  11.00000  0.05    0.48
Q10   1   0.8462  1.0564 -0.8924  11.00000  0.05    0.46
Q11   1   0.7827  0.5265 -0.6946  11.00000  0.05    0.45
Q12   1   0.8025  0.9816 -0.9696  11.00000  0.05    0.45
Q13   1   0.7651  0.8798 -1.1418  11.00000  0.05    0.44
Q14   1   0.6050  0.5405 -0.6477  11.00000  0.05    0.43
Q15   1  -0.4077 -1.6477  0.4503  11.00000  0.05    0.41
Q16   1   0.3122  0.6366 -0.6881  11.00000  0.05    0.40
Q17   1   0.8146  0.8432 -1.1782  11.00000  0.05    0.40
Q18   1   1.0447  0.4621 -0.5314  11.00000  0.05    0.38
Q19   1   0.7459  0.8603 -1.2038  11.00000  0.05    0.37
Q20   1  -0.2820 -1.6254  0.4007  11.00000  0.05    0.36
Q21   1   1.0034  0.8941 -1.1241  11.00000  0.05    0.35
Q22   1   0.5201  0.5637 -0.5918  11.00000  0.05    0.34
Q23   1   0.8569  0.5058 -0.5469  11.00000  0.05    0.34
Q24   1   0.8519  0.6120 -0.4148  11.00000  0.05    0.34
Q25   1   0.2217  0.6089 -0.7395  11.00000  0.05    0.33
Q26   1   0.6944  0.9095 -1.1001  11.00000  0.05    0.33
Q27   1   0.1170  0.6224 -0.6879  11.00000  0.05    0.31
Q28   1   0.6565  0.5059 -0.6829  11.00000  0.05    0.31
Q29   1   0.2177  0.5914 -0.6504  11.00000  0.05    0.31
Q30   1   0.2457  0.5407 -0.6790  11.00000  0.05    0.30
Q31   1  -0.0146  0.0958 -0.1641  11.00000  0.05    0.30
Q32   1   0.7927  0.9174 -1.0755  11.00000  0.05    0.30
Q33   1   0.4751  0.6489 -0.5407  11.00000  0.05    0.30
Q34   1   0.5216  0.9971 -0.8088  11.00000  0.05    0.30
Q35   1   1.0018  0.7962 -1.1096  11.00000  0.05    0.30
Q36   1   0.7240  1.0523 -0.8837  11.00000  0.05    0.29
Q37   1   0.2640  0.3751 -0.7128  11.00000  0.05    0.29
Q38   1   1.1411  0.6585 -1.1996  11.00000  0.05    0.29
Q39   1   1.0044  0.6421 -1.1727  11.00000  0.05    0.28
Q40   1   0.7189  0.5721 -0.4782  11.00000  0.05    0.28
;
_shelx_res_checksum              20982
loop_
_space_group_symop_operation_xyz
'x, y, z'
'-x, -y, -z'
loop_
_atom_site_label
_atom_site_type_symbol
_atom_site_fract_x
_atom_site_fract_y
_atom_site_fract_z
_atom_site_U_iso_or_equiv
_atom_site_adp_type
_atom_site_occupancy
_atom_site_site_symmetry_order
_atom_site_calc_flag
_atom_site_refinement_flags_posn
_atom_site_refinement_flags_adp
_atom_site_refinement_flags_occupancy
_atom_site_disorder_assembly
_atom_site_disorder_group
Ni1 Ni 0.63189(6) 1.01816(4) -0.81455(3) 0.0395(2) Uani 1 1 d . U . . .
Ni2 Ni 0.21466(6) 0.62547(4) -0.69223(3) 0.0486(2) Uani 1 1 d . . . . .
N1 N 0.2764(3) 0.6528(2) -0.98741(18) 0.0395(14) Uani 1 1 d . . . . .
N2 N 0.0906(4) 0.6734(2) -0.73667(18) 0.0471(15) Uani 1 1 d . . . . .
N3 N 0.0232(3) 0.6872(2) -0.69560(17) 0.0467(15) Uani 1 1 d . U . . .
H3A H -0.0466 0.6920 -0.7089 0.056 Uiso 1 1 calc R U . . .
N4 N 0.1660(3) 0.6744(2) -0.61757(19) 0.0457(14) Uani 1 1 d . . . . .
N5 N 0.7254(3) 0.9366(2) -0.80254(18) 0.0414(14) Uani 1 1 d . . . . .
N6 N 0.8379(3) 0.9810(2) -0.76231(18) 0.0454(14) Uani 1 1 d . . . . .
H6A H 0.8977 0.9629 -0.7605 0.054 Uiso 1 1 calc R U . . .
N7 N 0.7638(3) 1.0841(2) -0.73536(16) 0.0342(13) Uani 1 1 d . U . . .
N8 N 0.7762(3) 1.0426(2) -0.48667(17) 0.0294(12) Uani 1 1 d . . . . .
N9 N 0.4829(3) 0.9744(2) -0.77340(17) 0.0386(14) Uani 1 1 d . . . . .
N10 N 0.3800(3) 0.9479(3) -0.82219(17) 0.0498(15) Uani 1 1 d . . . . .
H10A H 0.3100 0.9434 -0.8142 0.060 Uiso 1 1 calc R U . . .
N11 N 0.4972(3) 0.9504(2) -0.89242(17) 0.0365(13) Uani 1 1 d . . . . .
N12 N 0.6133(3) 1.2813(2) -0.31586(18) 0.0427(14) Uani 1 1 d . U . . .
N13 N 0.5507(3) 1.3191(2) -0.28332(18) 0.0480(14) Uani 1 1 d . U . . .
H13A H 0.4716 1.2994 -0.2930 0.058 Uiso 1 1 calc R U . . .
N14 N 0.7305(4) 1.4219(2) -0.23344(18) 0.0464(15) Uani 1 1 d . . . . .
N16 N 0.5792(4) 1.1159(3) -0.82074(19) 0.0506(15) Uani 1 1 d . U . . .
N18 N 0.0663(4) 0.5204(3) -0.7042(2) 0.0644(17) Uani 1 1 d . . . . .
C1 C 0.2033(4) 0.6503(3) -0.9463(2) 0.0407(17) Uani 1 1 d . . . . .
C2 C 0.0828(4) 0.6135(3) -0.9558(2) 0.0464(19) Uani 1 1 d . . . . .
H2A H 0.0341 0.5831 -0.9964 0.056 Uiso 1 1 calc R U . . .
C3 C 0.0328(5) 0.6212(3) -0.9054(2) 0.0467(19) Uani 1 1 d . . . . .
H3B H -0.0515 0.5949 -0.9114 0.056 Uiso 1 1 calc R U . . .
C4 C 0.1026(5) 0.6668(3) -0.8456(2) 0.0454(18) Uani 1 1 d . . . . .
C5 C 0.2240(4) 0.7060(3) -0.8366(2) 0.0367(17) Uani 1 1 d . . . . .
H5A H 0.2723 0.7369 -0.7961 0.044 Uiso 1 1 calc R U . . .
C6 C 0.2756(4) 0.7001(3) -0.8870(2) 0.0314(16) Uani 1 1 d . . . . .
C7 C 0.3936(4) 0.7003(3) -0.9562(2) 0.0415(17) Uani 1 1 d . U . . .
C8 C 0.4972(4) 0.7173(3) -0.9775(2) 0.0471(18) Uani 1 1 d . . . . .
H8A H 0.4953 0.6924 -1.0189 0.057 Uiso 1 1 calc R U . . .
C9 C 0.6039(4) 0.7717(3) -0.9369(2) 0.0456(18) Uani 1 1 d . . . . .
H9A H 0.6761 0.7842 -0.9507 0.055 Uiso 1 1 calc R U . . .
C10 C 0.6071(4) 0.8078(3) -0.8770(2) 0.0321(16) Uani 1 1 d . U . . .
C11 C 0.5066(4) 0.7889(3) -0.8550(2) 0.0361(17) Uani 1 1 d . . . . .
H11A H 0.5102 0.8133 -0.8131 0.043 Uiso 1 1 calc R U . . .
C12 C 0.3975(4) 0.7334(3) -0.8942(2) 0.0310(15) Uani 1 1 d . U . . .
C13 C 0.0465(4) 0.6734(3) -0.7943(2) 0.0474(19) Uani 1 1 d . . . . .
H13B H -0.0302 0.6782 -0.8036 0.057 Uiso 1 1 calc R U . . .
C14 C 0.0687(5) 0.6930(3) -0.6335(2) 0.0492(18) Uani 1 1 d . U . . .
C15 C 0.0130(5) 0.7201(4) -0.5876(2) 0.071(2) Uani 1 1 d . . . . .
H15A H -0.0574 0.7324 -0.5996 0.086 Uiso 1 1 calc R U . . .
C16 C 0.0635(5) 0.7277(4) -0.5270(3) 0.076(2) Uani 1 1 d . . . . .
H16A H 0.0262 0.7439 -0.4958 0.092 Uiso 1 1 calc R U . . .
C17 C 0.1680(5) 0.7127(4) -0.5083(3) 0.079(3) Uani 1 1 d . . . . .
H17A H 0.2051 0.7211 -0.4651 0.095 Uiso 1 1 calc R U . . .
C18 C 0.2166(5) 0.6850(3) -0.5549(2) 0.057(2) Uani 1 1 d . . . . .
H18A H 0.2873 0.6729 -0.5432 0.068 Uiso 1 1 calc R U . . .
C19 C 0.7182(5) 0.8679(3) -0.8363(2) 0.0487(19) Uani 1 1 d . U . . .
H19A H 0.7897 0.8561 -0.8343 0.058 Uiso 1 1 calc R U . . .
C20 C 0.8502(4) 1.0547(3) -0.7255(2) 0.0428(18) Uani 1 1 d . U . . .
C21 C 0.9564(4) 1.0943(4) -0.6764(2) 0.057(2) Uani 1 1 d . . . . .
H21A H 1.0179 1.0719 -0.6701 0.068 Uiso 1 1 calc R U . . .
C22 C 0.9658(5) 1.1661(4) -0.6387(2) 0.072(2) Uani 1 1 d . . . . .
H22A H 1.0355 1.1955 -0.6055 0.086 Uiso 1 1 calc R U . . .
C23 C 0.8706(5) 1.1969(4) -0.6494(2) 0.064(2) Uani 1 1 d . . . . .
H23A H 0.8751 1.2466 -0.6234 0.077 Uiso 1 1 calc R U . . .
C24 C 0.7748(5) 1.1539(3) -0.6969(2) 0.0471(19) Uani 1 1 d . . . . .
H24A H 0.7108 1.1740 -0.7039 0.056 Uiso 1 1 calc R U . . .
C25 C 0.2391(5) 0.6163(3) -1.0542(2) 0.0492(19) Uani 1 1 d . . . . .
H25A H 0.2772 0.6585 -1.0767 0.059 Uiso 1 1 calc R U . . .
H25B H 0.1510 0.6007 -1.0683 0.059 Uiso 1 1 calc R U . . .
C26 C 0.2704(4) 0.5408(3) -1.0725(2) 0.0403(17) Uani 1 1 d . U . . .
C27 C 0.2543(4) 0.5078(3) -1.1364(2) 0.0518(19) Uani 1 1 d . . . . .
H27A H 0.2264 0.5341 -1.1672 0.062 Uiso 1 1 calc R U . . .
C28 C 0.2781(5) 0.4387(3) -1.1551(3) 0.060(2) Uani 1 1 d . . . . .
H28A H 0.2695 0.4182 -1.1985 0.071 Uiso 1 1 calc R U . . .
C29 C 0.3131(5) 0.4003(3) -1.1131(3) 0.066(2) Uani 1 1 d . U . . .
H29A H 0.3265 0.3510 -1.1271 0.079 Uiso 1 1 calc R U . . .
C30 C 0.3309(5) 0.4291(3) -1.0497(3) 0.071(2) Uani 1 1 d . U . . .
H30A H 0.3578 0.4009 -1.0202 0.085 Uiso 1 1 calc R U . . .
C31 C 0.3086(5) 0.5010(3) -1.0293(3) 0.0555(19) Uani 1 1 d . U . . .
H31A H 0.3199 0.5219 -0.9856 0.067 Uiso 1 1 calc R U . . .
C32 C 0.7087(4) 1.0269(3) -0.5479(2) 0.0266(15) Uani 1 1 d . . . . .
C33 C 0.7235(4) 0.9823(3) -0.6021(2) 0.0318(15) Uani 1 1 d . . . . .
H33A H 0.7855 0.9603 -0.6008 0.038 Uiso 1 1 calc R U . . .
C34 C 0.6403(4) 0.9728(3) -0.6583(2) 0.0348(16) Uani 1 1 d . . . . .
H34A H 0.6453 0.9422 -0.6961 0.042 Uiso 1 1 calc R U . . .
C35 C 0.5514(4) 1.0060(3) -0.6607(2) 0.0252(15) Uani 1 1 d . . . . .
C36 C 0.5409(4) 1.0469(3) -0.6058(2) 0.0253(15) Uani 1 1 d . . . . .
H36A H 0.4784 1.0686 -0.6072 0.030 Uiso 1 1 calc R U . . .
C37 C 0.6169(4) 1.0577(3) -0.5491(2) 0.0228(14) Uani 1 1 d . . . . .
C38 C 0.7279(4) 1.0839(3) -0.4476(2) 0.0251(15) Uani 1 1 d . . . . .
C39 C 0.7638(4) 1.1131(3) -0.3834(2) 0.0375(17) Uani 1 1 d . . . . .
H39A H 0.8291 1.1045 -0.3584 0.045 Uiso 1 1 calc R U . . .
C40 C 0.7011(4) 1.1549(3) -0.3576(2) 0.0349(16) Uani 1 1 d . . . . .
H40A H 0.7255 1.1765 -0.3135 0.042 Uiso 1 1 calc R U . . .
C41 C 0.6035(4) 1.1683(3) -0.3915(2) 0.0329(16) Uani 1 1 d . U . . .
C42 C 0.5635(4) 1.1357(3) -0.4564(2) 0.0350(16) Uani 1 1 d . . . . .
H42A H 0.4947 1.1414 -0.4806 0.042 Uiso 1 1 calc R U . . .
C43 C 0.6287(4) 1.0944(3) -0.4846(2) 0.0235(14) Uani 1 1 d . . . . .
C44 C 0.4641(4) 0.9911(3) -0.7195(2) 0.0376(16) Uani 1 1 d . . . . .
H44A H 0.3880 0.9940 -0.7175 0.045 Uiso 1 1 calc R U . . .
C45 C 0.3889(4) 0.9290(3) -0.8822(2) 0.0395(17) Uani 1 1 d . . . . .
C46 C 0.2847(5) 0.8863(3) -0.9295(2) 0.0510(19) Uani 1 1 d . . . . .
H46A H 0.2079 0.8720 -0.9204 0.061 Uiso 1 1 calc R U . . .
C47 C 0.2952(5) 0.8656(3) -0.9889(2) 0.054(2) Uani 1 1 d . . . . .
H47A H 0.2257 0.8375 -1.0225 0.065 Uiso 1 1 calc R U . . .
C48 C 0.4078(5) 0.8859(3) -0.9997(2) 0.0495(19) Uani 1 1 d . . . . .
H48A H 0.4172 0.8699 -1.0408 0.059 Uiso 1 1 calc R U . . .
C49 C 0.5067(5) 0.9295(3) -0.9511(2) 0.0436(18) Uani 1 1 d . . . . .
H49A H 0.5843 0.9452 -0.9594 0.052 Uiso 1 1 calc R U . . .
C50 C 0.5483(5) 1.2177(3) -0.3603(2) 0.0431(17) Uani 1 1 d . U . . .
H50A H 0.4636 1.2036 -0.3724 0.052 Uiso 1 1 calc R U . . .
C51 C 0.6135(4) 1.3871(3) -0.2362(2) 0.0444(18) Uani 1 1 d . . . . .
C52 C 0.5564(4) 1.4176(3) -0.1959(2) 0.0531(19) Uani 1 1 d . . . . .
H52A H 0.4724 1.3920 -0.2003 0.064 Uiso 1 1 calc R U . . .
C53 C 0.6267(5) 1.4882(3) -0.1478(3) 0.069(2) Uani 1 1 d . . . . .
H53A H 0.5921 1.5108 -0.1180 0.082 Uiso 1 1 calc R U . . .
C54 C 0.7514(5) 1.5244(4) -0.1454(3) 0.073(2) Uani 1 1 d . . . . .
H54A H 0.8015 1.5720 -0.1136 0.087 Uiso 1 1 calc R U . . .
C55 C 0.7983(5) 1.4910(3) -0.1883(2) 0.056(2) Uani 1 1 d . . . . .
H55A H 0.8811 1.5166 -0.1869 0.067 Uiso 1 1 calc R U . . .
C56 C 0.8655(4) 1.0093(3) -0.4665(2) 0.0371(17) Uani 1 1 d . . . . .
H56A H 0.9202 1.0446 -0.4261 0.045 Uiso 1 1 calc R U . . .
H56B H 0.9138 1.0090 -0.4980 0.045 Uiso 1 1 calc R U . . .
C57 C 0.8086(4) 0.9225(3) -0.4583(2) 0.0376(17) Uani 1 1 d . . . . .
C58 C 0.8043(5) 0.8545(3) -0.5029(3) 0.060(2) Uani 1 1 d . . . . .
H58A H 0.8427 0.8646 -0.5362 0.072 Uiso 1 1 calc R U . . .
C59 C 0.7465(6) 0.7746(3) -0.4997(3) 0.074(2) Uani 1 1 d . U . . .
H59A H 0.7413 0.7296 -0.5312 0.089 Uiso 1 1 calc R U . . .
C60 C 0.6968(6) 0.7615(4) -0.4502(3) 0.096(3) Uani 1 1 d . U . . .
H60A H 0.6565 0.7066 -0.4468 0.115 Uiso 1 1 calc R U . . .
C61 C 0.7042(5) 0.8298(4) -0.4030(3) 0.072(2) Uani 1 1 d . U . . .
H61A H 0.6691 0.8203 -0.3685 0.087 Uiso 1 1 calc R U . . .
C62 C 0.7612(4) 0.9070(3) -0.4081(2) 0.0480(18) Uani 1 1 d . . . . .
H62A H 0.7688 0.9520 -0.3761 0.058 Uiso 1 1 calc R U . . .
C65 C 0.5635(6) 1.1728(4) -0.8256(3) 0.088(2) Uani 1 1 d D U . . .
C68 C -0.0068(6) 0.4654(4) -0.7013(3) 0.096(3) Uani 1 1 d . . . . .
C66 C 0.5504(7) 1.2614(4) -0.8288(4) 0.127(3) Uiso 0.875 1 d D U P A 1
H66A H 0.6300 1.3034 -0.8238 0.191 Uiso 0.875 1 d R U P A 1
H66B H 0.5150 1.2772 -0.7949 0.191 Uiso 0.875 1 d R U P A 1
H66C H 0.4984 1.2569 -0.8695 0.191 Uiso 0.875 1 d R U P A 1
C67 C -0.1145(8) 0.3938(5) -0.7014(4) 0.122(4) Uiso 0.85 1 d . . P B 1
H67A H -0.1861 0.3973 -0.7277 0.184 Uiso 0.85 1 d R U P B 1
H67B H -0.1237 0.3947 -0.6583 0.184 Uiso 0.85 1 d R U P B 1
H67C H -0.1047 0.3422 -0.7183 0.184 Uiso 0.85 1 d R U P B 1
O2 O 0.3165(4) 0.5752(3) -0.6331(2) 0.0846(16) Uiso 0.5 1 d . . P C 1
H2B H 0.3742 0.5712 -0.6484 0.127 Uiso 0.5 1 d R U P C 1
H2D H 0.2716 0.5276 -0.6308 0.127 Uiso 0.5 1 d R U P C 1
C66' C 0.4515(14) 1.2061(13) -0.839(2) 0.080(9) Uiso 0.125 1 d D U P A 2
H66D H 0.3751 1.1592 -0.8490 0.120 Uiso 0.125 1 d R U P A 2
H66E H 0.4558 1.2329 -0.8750 0.120 Uiso 0.125 1 d R U P A 2
H66F H 0.4566 1.2459 -0.8019 0.120 Uiso 0.125 1 d R U P A 2
C67' C -0.050(4) 0.370(2) -0.6727(19) 0.089(16) Uiso 0.15 1 d . . P B 2
H67D H 0.0206 0.3663 -0.6460 0.134 Uiso 0.15 1 d R U P B 2
H67E H -0.0852 0.3228 -0.7087 0.134 Uiso 0.15 1 d R U P B 2
H67F H -0.1099 0.3703 -0.6482 0.134 Uiso 0.15 1 d R U P B 2
C69 C 0.4505(13) 0.5324(9) -0.5573(7) 0.134(7) Uiso 0.5 1 d . . P C 2
H69A H 0.4970 0.5773 -0.5204 0.201 Uiso 0.5 1 d R U P C 2
H69B H 0.4016 0.4846 -0.5437 0.201 Uiso 0.5 1 d R U P C 2
H69C H 0.5055 0.5167 -0.5794 0.201 Uiso 0.5 1 d R U P C 2
N17 N 0.3165(4) 0.5752(3) -0.6331(2) 0.0846(16) Uiso 0.5 1 d . . P C 2
C70 C 0.3774(9) 0.5631(6) -0.5973(5) 0.042(3) Uiso 0.5 1 d . . P C 2
O1 O 0.7533(3) 1.0656(2) -0.86858(14) 0.0688(15) Uani 1 1 d . U . . .
H1B H 0.7297 1.0343 -0.9051 0.083 Uiso 1 1 d R U . . .
H1A H 0.8229 1.0679 -0.8509 0.103 Uiso 1 1 d R U . . .
Cl1 Cl 1.22189(12) -0.78082(9) -0.30947(6) 0.0485(5) Uani 1 1 d . . . . .
O11 O 1.3186(3) -0.7972(2) -0.27701(17) 0.0658(14) Uani 1 1 d . . . . .
O12 O 1.1277(3) -0.8545(2) -0.34119(18) 0.0764(15) Uani 1 1 d . . . . .
O13 O 1.2634(4) -0.7363(3) -0.35325(19) 0.0980(18) Uani 1 1 d . . . . .
O14 O 1.1838(3) -0.7335(3) -0.26843(18) 0.0986(16) Uani 1 1 d . . . . .
Cl2 Cl -0.07626(13) 0.09984(11) -0.20485(8) 0.0769(6) Uani 1 1 d . . . . .
O21 O -0.1667(3) 0.1313(2) -0.22057(18) 0.0696(14) Uani 1 1 d . . . . .
O22 O -0.0533(4) 0.0592(3) -0.2551(2) 0.1205(18) Uani 1 1 d . . . . .
O23 O -0.0867(6) 0.0612(3) -0.1569(2) 0.175(3) Uani 1 1 d . . . . .
O24 O 0.0362(5) 0.1738(4) -0.1761(3) 0.187(3) Uani 1 1 d . . . . .
Cl4 Cl 1.0700(2) 0.72011(13) -1.15241(10) 0.1433(12) Uani 1 1 d . . . . .
O41 O 1.1953(5) 0.7567(3) -1.1418(2) 0.142(3) Uani 1 1 d . . . . .
O42 O 1.0322(5) 0.7015(5) -1.1026(3) 0.175(3) Uani 1 1 d . . . . .
O43 O 0.9788(10) 0.6802(7) -1.2033(5) 0.144(4) Uiso 0.5 1 d . . P D 1
O44 O 1.0192(11) 0.7995(8) -1.1344(6) 0.178(5) Uiso 0.5 1 d . . P D 1
O43' O 1.0365(11) 0.7496(7) -1.2024(6) 0.156(5) Uiso 0.5 1 d . . P D 2
O44' O 1.0689(8) 0.6330(5) -1.1775(4) 0.095(3) Uiso 0.5 1 d . . P D 2
O31 O -0.3034(5) -1.6901(5) 0.3579(3) 0.221(3) Uani 1 1 d D U . . .
O34 O -0.4916(6) -1.7725(5) 0.3199(3) 0.242(3) Uani 1 1 d D U . . .
Cl3 Cl -0.4234(7) -1.6957(5) 0.3470(3) 0.169(3) Uiso 0.3333 1 d D U P E 1
O33 O -0.4274(17) -1.6499(8) 0.3018(6) 0.248(7) Uiso 0.3333 1 d D U P E 1
O32 O -0.4143(12) -1.6460(8) 0.4061(5) 0.134(5) Uiso 0.3333 1 d D U P E 1
Cl3' Cl -0.4088(4) -1.6976(3) 0.3816(2) 0.1856(18) Uiso 0.6667 1 d . U P E 2
O32' O -0.4209(10) -1.7387(7) 0.4355(5) 0.218(4) Uiso 0.6667 1 d . U P E 2
O33' O -0.4904(11) -1.6551(8) 0.3653(6) 0.236(5) Uiso 0.6667 1 d . U P E 2
N100 N 0.7193(6) -0.2912(4) 0.9337(3) 0.150(3) Uani 1 1 d D . . . .
C100 C 0.9309(7) -0.2227(5) 1.0127(4) 0.147(4) Uani 1 1 d . . . . .
H10B H 0.9889 -0.2461 1.0007 0.221 Uiso 1 1 calc R U . . .
H10C H 0.9601 -0.1634 1.0138 0.221 Uiso 1 1 calc R U . . .
H10D H 0.9214 -0.2313 1.0545 0.221 Uiso 1 1 calc R U . . .
C101 C 0.8173(7) -0.2626(5) 0.9678(4) 0.140(4) Uani 1 1 d D U . . .
C120 C 0.7297(11) 0.9132(8) -1.0603(6) 0.093(5) Uiso 0.5 1 d . . P F 1
H12A H 0.7819 0.9672 -1.0334 0.140 Uiso 0.5 1 calc R U P F 1
H12B H 0.6482 0.9131 -1.0741 0.140 Uiso 0.5 1 calc R U P F 1
H12C H 0.7276 0.8701 -1.0365 0.140 Uiso 0.5 1 calc R U P F 1
C121 C 0.7680(13) 0.9000(9) -1.1053(7) 0.106(5) Uiso 0.5 1 d . . P F 1
N120 N 0.7942(16) 0.8739(11) -1.1570(8) 0.210(8) Uiso 0.5 1 d . . P F 1
C212 C 0.8794(14) 0.5238(11) -0.5063(8) 0.170(8) Uiso 0.5 1 d D . P G 1
H21B H 0.8739 0.5553 -0.5395 0.204 Uiso 0.5 1 calc R U P G 1
H21C H 0.8063 0.4731 -0.5171 0.204 Uiso 0.5 1 calc R U P G 1
C210 C 0.8197(14) 0.6254(10) -0.3713(7) 0.153(7) Uiso 0.5 1 d D . P G 1
H21D H 0.7499 0.6392 -0.3653 0.230 Uiso 0.5 1 calc R U P G 1
H21E H 0.8285 0.5848 -0.3467 0.230 Uiso 0.5 1 calc R U P G 1
H21F H 0.8923 0.6755 -0.3572 0.230 Uiso 0.5 1 calc R U P G 1
C211 C 0.8009(17) 0.5873(13) -0.4448(9) 0.237(12) Uiso 0.5 1 d D . P G 1
H21G H 0.7288 0.5360 -0.4602 0.284 Uiso 0.5 1 calc R U P G 1
H21K H 0.7931 0.6275 -0.4707 0.284 Uiso 0.5 1 calc R U P G 1
C213 C 1.0000 0.5000 -0.5000 0.413(16) Uiso 1 2 d S . P G 1
H21H H 0.9941 0.4656 -0.5404 0.620 Uiso 0.5 1 d R U P G 1
H21I H 1.0721 0.5502 -0.4900 0.620 Uiso 0.5 1 d R U P G 1
H21J H 1.0051 0.4691 -0.4669 0.620 Uiso 0.5 1 d R U P G 1
O210 O 0.8909(13) 0.5733(10) -0.4458(7) 0.234(7) Uiso 0.5 1 d D . P G 1
O1W O 0.8630(15) 0.9494(11) -1.0475(8) 0.265(8) Uiso 0.5 1 d . . P H 2
H1WA H 0.9298 0.9882 -1.0432 0.397 Uiso 0.5 1 d R U P H 2
H1WB H 0.8740 0.9039 -1.0487 0.397 Uiso 0.5 1 d R U P H 2
O200 O 0.7106(10) 0.5419(9) -0.6677(5) 0.221(7) Uiso 0.5 1 d D . P I 2
C203 C 0.6103(14) 0.4420(9) -0.7441(7) 0.205(10) Uiso 0.5 1 d D . P I 2
H20A H 0.5353 0.4023 -0.7726 0.308 Uiso 0.5 1 calc R U P I 2
H20B H 0.6596 0.4748 -0.7683 0.308 Uiso 0.5 1 calc R U P I 2
H20C H 0.6545 0.4121 -0.7223 0.308 Uiso 0.5 1 calc R U P I 2
C202 C 0.5807(11) 0.5002(12) -0.6950(7) 0.289(14) Uiso 0.5 1 d D . P I 2
H20D H 0.5414 0.5357 -0.7135 0.347 Uiso 0.5 1 calc R U P I 2
H20E H 0.5362 0.4717 -0.6665 0.347 Uiso 0.5 1 calc R U P I 2
C201 C 0.698(2) 0.5495(19) -0.6003(5) 0.42(2) Uiso 0.5 1 d D . P I 2
H20F H 0.6189 0.5058 -0.6051 0.508 Uiso 0.5 1 calc R U P I 2
H20J H 0.6838 0.6020 -0.5922 0.508 Uiso 0.5 1 calc R U P I 2
C200 C 0.768(3) 0.5493(19) -0.5348(8) 0.44(3) Uiso 0.5 1 d D . P I 2
H20G H 0.7217 0.5564 -0.5038 0.664 Uiso 0.5 1 calc R U P I 2
H20H H 0.7798 0.4966 -0.5362 0.664 Uiso 0.5 1 calc R U P I 2
H20I H 0.8460 0.5947 -0.5230 0.664 Uiso 0.5 1 calc R U P I 2
C110 C 0.3586(13) 0.3786(17) -0.7469(8) 0.330(17) Uiso 0.5 1 d D . P J 2
H11C H 0.3370 0.3481 -0.7906 0.495 Uiso 0.5 1 calc R U P J 2
H11D H 0.3791 0.4377 -0.7456 0.495 Uiso 0.5 1 calc R U P J 2
H11E H 0.4280 0.3696 -0.7232 0.495 Uiso 0.5 1 calc R U P J 2
N110 N 0.2254(12) 0.3580(10) -0.6741(5) 0.182(7) Uiso 0.5 1 d D . P J 2
C111 C 0.2559(12) 0.3491(12) -0.7185(6) 0.186(9) Uiso 0.5 1 d D . P J 2
loop_
_atom_site_aniso_label
_atom_site_aniso_U_11
_atom_site_aniso_U_22
_atom_site_aniso_U_33
_atom_site_aniso_U_23
_atom_site_aniso_U_13
_atom_site_aniso_U_12
Ni1 0.0385(4) 0.0422(4) 0.0283(4) -0.0024(3) 0.0055(3) 0.0081(3)
Ni2 0.0472(4) 0.0392(4) 0.0594(5) 0.0047(4) 0.0251(4) 0.0121(3)
N1 0.039(3) 0.027(2) 0.041(3) -0.010(2) 0.005(2) 0.0064(19)
N2 0.048(3) 0.043(3) 0.045(3) -0.003(2) 0.022(2) 0.011(2)
N3 0.032(2) 0.067(3) 0.040(2) 0.002(2) 0.018(2) 0.017(2)
N4 0.030(2) 0.059(3) 0.058(3) 0.017(2) 0.032(2) 0.016(2)
N5 0.030(2) 0.044(3) 0.037(3) -0.006(2) 0.005(2) 0.005(2)
N6 0.016(2) 0.049(3) 0.063(3) -0.010(2) 0.007(2) 0.0133(19)
N7 0.025(2) 0.052(3) 0.020(2) 0.005(2) 0.0043(19) 0.0085(19)
N8 0.021(2) 0.033(2) 0.031(2) -0.0038(19) 0.0036(19) 0.0122(17)
N9 0.019(2) 0.059(3) 0.033(2) 0.007(2) 0.0097(19) 0.007(2)
N10 0.033(2) 0.087(3) 0.024(2) -0.005(2) 0.001(2) 0.025(2)
N11 0.036(2) 0.049(3) 0.022(2) -0.003(2) 0.0022(19) 0.0194(19)
N12 0.033(2) 0.044(3) 0.040(2) -0.009(2) 0.014(2) 0.0062(19)
N13 0.033(2) 0.042(3) 0.055(3) -0.025(2) 0.021(2) 0.0051(19)
N14 0.053(3) 0.030(3) 0.048(3) -0.013(2) 0.017(2) 0.010(2)
N16 0.056(3) 0.044(2) 0.046(3) 0.005(2) 0.004(2) 0.018(2)
N18 0.068(3) 0.027(3) 0.105(4) 0.019(3) 0.046(3) 0.010(2)
C1 0.043(3) 0.032(3) 0.046(3) -0.004(3) 0.023(3) 0.012(2)
C2 0.043(3) 0.045(3) 0.030(3) -0.015(3) 0.004(3) 0.001(3)
C3 0.032(3) 0.040(3) 0.052(3) -0.006(3) 0.009(3) -0.001(3)
C4 0.051(3) 0.048(3) 0.038(3) -0.002(3) 0.019(3) 0.021(3)
C5 0.030(3) 0.036(3) 0.035(3) -0.011(3) 0.003(2) 0.012(2)
C6 0.035(3) 0.017(3) 0.036(3) -0.007(2) 0.012(2) 0.005(2)
C7 0.044(3) 0.040(3) 0.039(3) -0.004(3) 0.017(3) 0.015(2)
C8 0.057(3) 0.036(3) 0.050(3) -0.007(3) 0.020(3) 0.022(2)
C9 0.033(3) 0.045(3) 0.055(3) -0.004(3) 0.023(3) 0.009(3)
C10 0.025(3) 0.031(3) 0.035(3) -0.003(2) 0.013(2) 0.006(2)
C11 0.044(3) 0.032(3) 0.024(3) -0.007(2) 0.007(2) 0.008(2)
C12 0.043(3) 0.028(3) 0.019(2) -0.003(2) 0.011(2) 0.010(2)
C13 0.025(3) 0.044(3) 0.053(4) -0.014(3) 0.006(3) 0.000(3)
C14 0.054(3) 0.042(3) 0.054(3) 0.007(3) 0.030(3) 0.014(3)
C15 0.067(4) 0.107(5) 0.066(4) 0.029(4) 0.044(3) 0.047(3)
C16 0.078(4) 0.109(5) 0.052(4) 0.019(4) 0.043(3) 0.031(4)
C17 0.046(4) 0.118(5) 0.059(4) 0.001(4) 0.020(3) 0.016(4)
C18 0.051(3) 0.070(4) 0.064(4) 0.023(3) 0.032(3) 0.028(3)
C19 0.039(3) 0.057(4) 0.053(3) 0.011(3) 0.020(3) 0.018(3)
C20 0.027(3) 0.061(4) 0.020(3) -0.005(3) -0.003(2) 0.000(3)
C21 0.021(3) 0.095(5) 0.044(3) 0.007(3) 0.008(3) 0.011(3)
C22 0.062(4) 0.083(5) 0.028(3) -0.021(3) 0.006(3) -0.012(4)
C23 0.064(4) 0.069(4) 0.042(4) -0.002(3) 0.010(3) 0.010(3)
C24 0.052(4) 0.050(4) 0.027(3) -0.010(3) 0.006(3) 0.013(3)
C25 0.055(4) 0.049(3) 0.030(3) -0.019(3) 0.002(3) 0.018(3)
C26 0.037(3) 0.031(3) 0.047(3) -0.003(3) 0.013(3) 0.009(2)
C27 0.048(3) 0.056(4) 0.039(3) -0.012(3) 0.007(3) 0.013(3)
C28 0.067(4) 0.054(4) 0.045(3) -0.021(3) 0.015(3) 0.018(3)
C29 0.069(4) 0.047(4) 0.077(4) -0.012(3) 0.028(3) 0.021(3)
C30 0.049(4) 0.057(4) 0.099(4) -0.010(4) 0.013(3) 0.024(3)
C31 0.070(4) 0.042(3) 0.049(3) -0.008(3) 0.017(3) 0.019(3)
C32 0.018(3) 0.038(3) 0.020(3) 0.006(2) 0.007(2) 0.003(2)
C33 0.037(3) 0.033(3) 0.028(3) 0.004(2) 0.013(2) 0.014(2)
C34 0.048(3) 0.039(3) 0.017(3) -0.001(2) 0.018(2) 0.013(2)
C35 0.018(3) 0.030(3) 0.024(3) -0.002(2) 0.006(2) 0.006(2)
C36 0.021(3) 0.014(3) 0.038(3) 0.000(2) 0.008(2) 0.004(2)
C37 0.009(2) 0.027(3) 0.031(3) 0.004(2) 0.008(2) 0.005(2)
C38 0.013(2) 0.037(3) 0.025(3) 0.001(2) 0.000(2) 0.013(2)
C39 0.035(3) 0.039(3) 0.033(3) -0.004(3) 0.005(2) 0.014(2)
C40 0.038(3) 0.034(3) 0.024(3) -0.007(2) 0.003(2) 0.009(2)
C41 0.034(3) 0.032(3) 0.030(3) -0.003(2) 0.011(2) 0.011(2)
C42 0.031(3) 0.038(3) 0.033(3) 0.002(3) 0.014(2) 0.008(2)
C43 0.026(3) 0.020(3) 0.027(3) 0.003(2) 0.016(2) 0.008(2)
C44 0.038(3) 0.054(3) 0.027(3) 0.004(3) 0.016(2) 0.022(2)
C45 0.029(3) 0.044(3) 0.040(3) 0.001(3) 0.001(3) 0.014(2)
C46 0.033(3) 0.072(4) 0.037(3) -0.005(3) 0.006(3) 0.013(3)
C47 0.050(4) 0.052(4) 0.053(4) -0.002(3) 0.004(3) 0.018(3)
C48 0.073(4) 0.046(3) 0.027(3) -0.003(3) 0.010(3) 0.024(3)
C49 0.052(3) 0.044(3) 0.034(3) 0.008(3) 0.008(3) 0.016(3)
C50 0.048(3) 0.057(3) 0.030(3) 0.005(3) 0.013(2) 0.026(2)
C51 0.034(3) 0.037(3) 0.055(3) -0.012(3) 0.014(3) 0.010(2)
C52 0.031(3) 0.060(4) 0.063(4) -0.013(3) 0.024(3) 0.015(3)
C53 0.076(4) 0.050(4) 0.075(4) -0.026(3) 0.024(3) 0.030(3)
C54 0.063(4) 0.051(4) 0.086(5) -0.016(4) 0.009(4) 0.016(3)
C55 0.047(3) 0.039(3) 0.075(4) -0.016(3) 0.019(3) 0.016(3)
C56 0.026(3) 0.045(3) 0.030(3) -0.006(3) 0.001(2) 0.009(2)
C57 0.032(3) 0.048(3) 0.025(3) -0.006(3) -0.010(2) 0.021(2)
C58 0.083(4) 0.059(4) 0.045(3) 0.016(3) 0.011(3) 0.037(3)
C59 0.107(5) 0.036(4) 0.068(4) 0.007(3) 0.019(3) 0.012(3)
C60 0.112(6) 0.048(4) 0.115(5) 0.025(4) 0.034(4) 0.005(4)
C61 0.073(4) 0.095(4) 0.064(4) 0.029(3) 0.027(3) 0.042(3)
C62 0.045(3) 0.058(4) 0.045(3) 0.011(3) 0.013(3) 0.024(3)
C65 0.110(5) 0.073(3) 0.086(4) 0.023(4) 0.023(4) 0.038(3)
C68 0.093(5) 0.041(4) 0.146(6) 0.012(4) 0.058(4) 0.004(4)
O1 0.071(3) 0.072(3) 0.025(2) -0.005(2) -0.0040(19) -0.008(2)
Cl1 0.0452(8) 0.0564(9) 0.0392(8) -0.0072(7) 0.0050(7) 0.0229(7)
O11 0.051(2) 0.077(3) 0.068(3) 0.006(2) 0.004(2) 0.0308(19)
O12 0.038(2) 0.066(3) 0.088(3) -0.028(2) 0.007(2) -0.005(2)
O13 0.093(3) 0.114(3) 0.076(3) 0.044(3) 0.008(3) 0.019(3)
O14 0.083(3) 0.121(3) 0.075(3) -0.052(2) -0.002(2) 0.059(2)
Cl2 0.0548(9) 0.1310(13) 0.0717(10) 0.0364(10) 0.0271(8) 0.0562(8)
O21 0.039(2) 0.063(2) 0.094(3) -0.018(2) -0.003(2) 0.0265(18)
O22 0.136(3) 0.175(4) 0.073(3) -0.025(3) 0.000(3) 0.122(2)
O23 0.327(7) 0.152(4) 0.111(4) 0.087(3) 0.085(4) 0.128(4)
O24 0.070(4) 0.207(6) 0.229(7) -0.026(5) -0.014(4) 0.039(4)
Cl4 0.183(2) 0.0761(15) 0.0870(15) 0.0126(13) -0.0386(16) -0.0210(16)
O41 0.147(5) 0.112(4) 0.109(4) 0.010(3) 0.012(4) -0.010(4)
O42 0.119(4) 0.279(7) 0.126(4) 0.032(5) 0.038(4) 0.069(4)
O31 0.186(5) 0.240(5) 0.240(5) 0.042(5) 0.094(4) 0.062(4)
O34 0.206(5) 0.253(5) 0.239(5) 0.045(5) 0.091(4) 0.031(5)
N100 0.206(6) 0.096(4) 0.189(6) 0.024(4) 0.119(4) 0.076(4)
C100 0.116(6) 0.196(9) 0.115(7) 0.001(6) 0.019(5) 0.057(6)
C101 0.164(6) 0.126(6) 0.140(6) 0.017(5) 0.085(5) 0.046(5)
loop_
_atom_type_symbol
_atom_type_description
_atom_type_scat_dispersion_real
_atom_type_scat_dispersion_imag
_atom_type_scat_source
C C 0.0033 0.0016 'International Tables Vol C Tables 4.2.6.8 and 6.1.1.4'
H H 0.0000 0.0000 'International Tables Vol C Tables 4.2.6.8 and 6.1.1.4'
N N 0.0061 0.0033 'International Tables Vol C Tables 4.2.6.8 and 6.1.1.4'
O O 0.0106 0.0060 'International Tables Vol C Tables 4.2.6.8 and 6.1.1.4'
Cl Cl 0.1484 0.1585 'International Tables Vol C Tables 4.2.6.8 and 6.1.1.4'
Ni Ni 0.3393 1.1124 'International Tables Vol C Tables 4.2.6.8 and 6.1.1.4'
loop_
_geom_angle_atom_site_label_1
_geom_angle_atom_site_label_2
_geom_angle_atom_site_label_3
_geom_angle
_geom_angle_site_symmetry_1
_geom_angle_site_symmetry_3
N16 Ni1 N7 91.53(16) . .
N16 Ni1 N11 88.89(16) . .
N7 Ni1 N11 178.48(16) . .
N16 Ni1 O1 87.08(17) . .
N7 Ni1 O1 88.72(14) . .
N11 Ni1 O1 92.76(14) . .
N16 Ni1 N5 167.33(15) . .
N7 Ni1 N5 78.87(16) . .
N11 Ni1 N5 100.92(15) . .
O1 Ni1 N5 84.48(16) . .
N16 Ni1 N9 84.96(18) . .
N7 Ni1 N9 99.80(14) . .
N11 Ni1 N9 78.78(15) . .
O1 Ni1 N9 168.47(15) . .
N5 Ni1 N9 104.67(17) . .
N4 Ni2 N14 178.21(15) . 2_674
N4 Ni2 N18 87.50(17) . .
N14 Ni2 N18 94.06(17) 2_674 .
N4 Ni2 N2 78.78(17) . .
N14 Ni2 N2 102.20(17) 2_674 .
N18 Ni2 N2 85.01(18) . .
N4 Ni2 O2 90.24(18) . .
N14 Ni2 O2 88.93(18) 2_674 .
N18 Ni2 O2 88.84(18) . .
N2 Ni2 O2 167.61(18) . .
N4 Ni2 N12 100.95(15) . 2_674
N14 Ni2 N12 77.39(15) 2_674 2_674
N18 Ni2 N12 168.85(19) . 2_674
N2 Ni2 N12 103.65(16) . 2_674
O2 Ni2 N12 83.90(17) . 2_674
C7 N1 C1 109.6(4) . .
C7 N1 C25 123.4(4) . .
C1 N1 C25 126.9(4) . .
C13 N2 N3 114.5(5) . .
C13 N2 Ni2 134.8(4) . .
N3 N2 Ni2 108.2(3) . .
C14 N3 N2 117.3(4) . .
C14 N4 C18 118.6(5) . .
C14 N4 Ni2 113.5(3) . .
C18 N4 Ni2 127.8(4) . .
C19 N5 N6 113.8(4) . .
C19 N5 Ni1 133.7(3) . .
N6 N5 Ni1 108.5(3) . .
C20 N6 N5 116.0(4) . .
C20 N7 C24 118.8(4) . .
C20 N7 Ni1 112.9(3) . .
C24 N7 Ni1 128.2(4) . .
C38 N8 C32 108.0(4) . .
C38 N8 C56 125.4(4) . .
C32 N8 C56 125.8(4) . .
C44 N9 N10 113.6(4) . .
C44 N9 Ni1 135.0(3) . .
N10 N9 Ni1 106.3(3) . .
C45 N10 N9 119.1(4) . .
C45 N11 C49 118.0(4) . .
C45 N11 Ni1 114.0(3) . .
C49 N11 Ni1 127.9(3) . .
C50 N12 N13 115.7(4) . .
C50 N12 Ni2 130.7(4) . 2_674
N13 N12 Ni2 106.6(3) . 2_674
C51 N13 N12 119.0(4) . .
C51 N14 C55 118.9(4) . .
C51 N14 Ni2 115.1(3) . 2_674
C55 N14 Ni2 125.3(4) . 2_674
C65 N16 Ni1 171.6(5) . .
C68 N18 Ni2 169.4(6) . .
C2 C1 N1 130.7(4) . .
C2 C1 C6 121.1(5) . .
N1 C1 C6 108.1(4) . .
C1 C2 C3 118.3(4) . .
C2 C3 C4 121.8(5) . .
C5 C4 C3 119.5(5) . .
C5 C4 C13 120.5(4) . .
C3 C4 C13 120.0(5) . .
C4 C5 C6 119.4(4) . .
C5 C6 C1 119.5(4) . .
C5 C6 C12 133.7(4) . .
C1 C6 C12 106.7(4) . .
N1 C7 C8 130.0(4) . .
N1 C7 C12 109.2(4) . .
C8 C7 C12 120.8(4) . .
C7 C8 C9 118.2(5) . .
C10 C9 C8 121.2(5) . .
C11 C10 C9 120.9(4) . .
C11 C10 C19 118.7(4) . .
C9 C10 C19 120.5(4) . .
C10 C11 C12 119.7(4) . .
C11 C12 C7 119.1(5) . .
C11 C12 C6 134.5(4) . .
C7 C12 C6 106.4(4) . .
N2 C13 C4 126.0(5) . .
N4 C14 N3 118.3(5) . .
N4 C14 C15 121.9(5) . .
N3 C14 C15 119.8(5) . .
C16 C15 C14 117.7(6) . .
C15 C16 C17 122.1(6) . .
C18 C17 C16 117.6(6) . .
N4 C18 C17 122.0(6) . .
N5 C19 C10 123.5(5) . .
N7 C20 N6 119.7(4) . .
N7 C20 C21 123.0(5) . .
N6 C20 C21 117.3(5) . .
C22 C21 C20 116.8(6) . .
C21 C22 C23 119.8(5) . .
C24 C23 C22 118.0(6) . .
C23 C24 N7 123.7(6) . .
N1 C25 C26 114.4(4) . .
C31 C26 C27 118.4(5) . .
C31 C26 C25 122.5(5) . .
C27 C26 C25 119.0(5) . .
C28 C27 C26 121.0(6) . .
C29 C28 C27 120.1(5) . .
C28 C29 C30 122.1(6) . .
C29 C30 C31 118.8(6) . .
C26 C31 C30 119.6(5) . .
C37 C32 N8 110.5(4) . .
C37 C32 C33 122.8(4) . .
N8 C32 C33 126.7(5) . .
C34 C33 C32 115.3(5) . .
C35 C34 C33 122.6(4) . .
C36 C35 C34 118.7(4) . .
C36 C35 C44 120.7(5) . .
C34 C35 C44 120.4(4) . .
C37 C36 C35 122.3(5) . .
C36 C37 C32 118.2(4) . .
C36 C37 C43 136.2(5) . .
C32 C37 C43 105.6(4) . .
C39 C38 N8 129.7(4) . .
C39 C38 C43 121.8(5) . .
N8 C38 C43 108.6(4) . .
C40 C39 C38 116.5(5) . .
C39 C40 C41 124.4(4) . .
C40 C41 C42 119.2(5) . .
C40 C41 C50 119.9(4) . .
C42 C41 C50 120.8(5) . .
C41 C42 C43 117.5(5) . .
C42 C43 C38 120.4(4) . .
C42 C43 C37 132.2(4) . .
C38 C43 C37 107.4(4) . .
N9 C44 C35 124.2(5) . .
N11 C45 N10 117.8(4) . .
N11 C45 C46 123.1(5) . .
N10 C45 C46 119.1(5) . .
C47 C46 C45 118.4(5) . .
C46 C47 C48 118.8(5) . .
C49 C48 C47 119.7(5) . .
N11 C49 C48 121.8(5) . .
N12 C50 C41 120.0(5) . .
N14 C51 N13 115.7(5) . .
N14 C51 C52 123.7(4) . .
N13 C51 C52 120.6(4) . .
C51 C52 C53 117.8(5) . .
C52 C53 C54 117.8(5) . .
C55 C54 C53 119.8(5) . .
C54 C55 N14 121.9(5) . .
N8 C56 C57 110.9(4) . .
C62 C57 C58 118.1(5) . .
C62 C57 C56 121.8(5) . .
C58 C57 C56 120.1(5) . .
C59 C58 C57 122.2(6) . .
C60 C59 C58 118.0(6) . .
C59 C60 C61 120.8(6) . .
C62 C61 C60 119.2(6) . .
C61 C62 C57 121.6(5) . .
N16 C65 C66 175.4(7) . .
N16 C65 C66' 139.8(10) . .
N18 C68 C67 174.1(9) . .
N18 C68 C67' 147.4(15) . .
O14 Cl1 O12 110.7(3) . .
O14 Cl1 O11 110.3(2) . .
O12 Cl1 O11 110.5(3) . .
O14 Cl1 O13 109.2(3) . .
O12 Cl1 O13 109.2(3) . .
O11 Cl1 O13 106.9(3) . .
O23 Cl2 O22 115.3(4) . .
O23 Cl2 O21 113.4(4) . .
O22 Cl2 O21 114.0(3) . .
O23 Cl2 O24 101.7(4) . .
O22 Cl2 O24 105.3(3) . .
O21 Cl2 O24 105.4(3) . .
O42 Cl4 O43 108.1(6) . .
O42 Cl4 O43' 138.4(7) . .
O42 Cl4 O41 114.6(4) . .
O43 Cl4 O41 135.0(6) . .
O43' Cl4 O41 99.4(6) . .
O42 Cl4 O44' 94.6(5) . .
O43' Cl4 O44' 107.4(6) . .
O41 Cl4 O44' 93.0(5) . .
O42 Cl4 O44 80.9(6) . .
O43 Cl4 O44 93.9(7) . .
O41 Cl4 O44 106.3(5) . .
O34 Cl3 O33 107.1(8) . .
O34 Cl3 O31 107.9(8) . .
O33 Cl3 O31 100.9(10) . .
O34 Cl3 O32 130.9(9) . .
O33 Cl3 O32 108.6(10) . .
O31 Cl3 O32 97.3(7) . .
O31 Cl3' O33' 124.8(7) . .
O31 Cl3' O32' 116.9(7) . .
O33' Cl3' O32' 117.2(8) . .
O31 Cl3' O34 90.0(5) . .
O33' Cl3' O34 87.7(6) . .
O32' Cl3' O34 103.5(6) . .
N100 C101 C100 174.0(10) . .
C120 C121 N120 170.3(16) . .
O210 C212 C213 106.3(12) . .
O210 C211 C210 102.9(16) . .
C212 C213 C212 180.0 . 2_764
C211 O210 C212 110.4(15) . .
C202 O200 C201 93.9(11) . .
O200 C202 C203 88.1(10) . .
O200 C201 C200 140(2) . .
N110 C111 C110 143.4(16) . .
loop_
_geom_bond_atom_site_label_1
_geom_bond_atom_site_label_2
_geom_bond_distance
_geom_bond_site_symmetry_2
Ni1 N16 2.032(5) .
Ni1 N7 2.039(3) .
Ni1 N11 2.042(3) .
Ni1 O1 2.104(4) .
Ni1 N5 2.115(5) .
Ni1 N9 2.141(4) .
Ni2 N4 2.023(4) .
Ni2 N14 2.050(4) 2_674
Ni2 N18 2.056(4) .
Ni2 N2 2.117(5) .
Ni2 O2 2.119(5) .
Ni2 N12 2.149(4) 2_674
N1 C7 1.377(5) .
N1 C1 1.378(6) .
N1 C25 1.447(5) .
N2 C13 1.293(6) .
N2 N3 1.375(6) .
N3 C14 1.363(6) .
N4 C14 1.326(7) .
N4 C18 1.372(6) .
N5 C19 1.290(6) .
N5 N6 1.388(5) .
N6 C20 1.373(6) .
N7 C20 1.311(7) .
N7 C24 1.339(6) .
N8 C38 1.376(6) .
N8 C32 1.389(5) .
N8 C56 1.426(6) .
N9 C44 1.266(6) .
N9 N10 1.389(5) .
N10 C45 1.354(6) .
N11 C45 1.316(6) .
N11 C49 1.334(6) .
N12 C50 1.288(5) .
N12 N13 1.387(5) .
N12 Ni2 2.149(4) 2_674
N13 C51 1.359(5) .
N14 C51 1.336(6) .
N14 C55 1.357(5) .
N14 Ni2 2.050(4) 2_674
N16 C65 1.094(8) .
N18 C68 1.097(7) .
C1 C2 1.353(6) .
C1 C6 1.415(6) .
C2 C3 1.374(7) .
C3 C4 1.399(6) .
C4 C5 1.369(6) .
C4 C13 1.435(7) .
C5 C6 1.383(7) .
C6 C12 1.450(6) .
C7 C8 1.379(7) .
C7 C12 1.397(6) .
C8 C9 1.384(6) .
C9 C10 1.372(6) .
C10 C11 1.355(6) .
C10 C19 1.448(6) .
C11 C12 1.396(6) .
C14 C15 1.427(7) .
C15 C16 1.340(7) .
C16 C17 1.382(9) .
C17 C18 1.382(8) .
C20 C21 1.418(6) .
C21 C22 1.365(8) .
C22 C23 1.425(9) .
C23 C24 1.334(6) .
C25 C26 1.514(7) .
C26 C31 1.368(7) .
C26 C27 1.401(7) .
C27 C28 1.360(8) .
C28 C29 1.316(8) .
C29 C30 1.374(8) .
C30 C31 1.404(8) .
C32 C37 1.386(6) .
C32 C33 1.408(6) .
C33 C34 1.404(6) .
C34 C35 1.380(7) .
C35 C36 1.369(6) .
C35 C44 1.454(6) .
C36 C37 1.364(6) .
C37 C43 1.441(6) .
C38 C39 1.376(6) .
C38 C43 1.409(6) .
C39 C40 1.357(7) .
C40 C41 1.390(7) .
C41 C42 1.399(6) .
C41 C50 1.432(7) .
C42 C43 1.400(6) .
C45 C46 1.389(6) .
C46 C47 1.355(7) .
C47 C48 1.369(7) .
C48 C49 1.371(6) .
C51 C52 1.375(7) .
C52 C53 1.412(6) .
C53 C54 1.424(7) .
C54 C55 1.351(8) .
C56 C57 1.506(7) .
C57 C62 1.365(7) .
C57 C58 1.414(7) .
C58 C59 1.367(7) .
C59 C60 1.359(9) .
C60 C61 1.438(8) .
C61 C62 1.337(7) .
C65 C66 1.623(10) .
C65 C66' 1.643(18) .
C68 C67 1.487(10) .
C68 C67' 1.82(4) .
C69 C70 1.424(18) .
Cl1 O14 1.383(4) .
Cl1 O12 1.397(3) .
Cl1 O11 1.397(4) .
Cl1 O13 1.397(4) .
Cl2 O23 1.345(5) .
Cl2 O22 1.355(4) .
Cl2 O21 1.395(4) .
Cl2 O24 1.496(5) .
Cl4 O42 1.314(6) .
Cl4 O43 1.340(10) .
Cl4 O43' 1.343(13) .
Cl4 O41 1.403(6) .
Cl4 O44' 1.543(9) .
Cl4 O44 1.723(15) .
O31 Cl3 1.401(9) .
O31 Cl3' 1.443(8) .
O34 Cl3 1.309(8) .
O34 Cl3' 1.648(7) .
Cl3 O33 1.376(12) .
Cl3 O32 1.429(11) .
Cl3' O33' 1.448(14) .
Cl3' O32' 1.490(12) .
N100 C101 1.188(9) .
C100 C101 1.432(9) .
C120 C121 1.199(19) .
C121 N120 1.30(2) .
C212 O210 1.44(2) .
C212 C213 1.636(17) .
C210 C211 1.61(2) .
C211 O210 1.20(2) .
C213 C212 1.636(17) 2_764
O200 C202 1.469(13) .
O200 C201 1.519(14) .
C203 C202 1.552(16) .
C201 C200 1.543(17) .
C110 C111 1.475(15) .
N110 C111 1.120(14) .
