#------------------------------------------------------------------------------
#$Date: 2019-11-17 10:58:06 +0200 (Sun, 17 Nov 2019) $
#$Revision: 229463 $
#$URL: file:///home/coder/svn-repositories/cod/cif/7/04/51/7045116.cif $
#------------------------------------------------------------------------------
#
# This file is available in the Crystallography Open Database (COD),
# http://www.crystallography.net/
#
# All data on this site have been placed in the public domain by the
# contributors.
#
data_7045116
loop_
_publ_author_name
'Gupta, Anoop K.'
'De, Dinesh'
'Tomar, Kapil'
'Bharadwaj, Parimal K.'
_publ_section_title
;
 A Cu(ii) metal-organic framework with significant H<sub>2</sub> and
 CO<sub>2</sub> storage capacity and heterogeneous catalysis for the
 aerobic oxidative amination of C(sp<sup>3</sup>)-H bonds and Biginelli
 reactions.
;
_journal_issue                   5
_journal_name_full
'Dalton transactions (Cambridge, England : 2003)'
_journal_page_first              1624
_journal_page_last               1634
_journal_paper_doi               10.1039/c7dt04006g
_journal_volume                  47
_journal_year                    2018
_chemical_formula_moiety         'C23 H8 Cu2 F3 N O10'
_chemical_formula_sum            'C23 H8 Cu2 F3 N O10'
_chemical_formula_weight         642.40
_space_group_crystal_system      hexagonal
_space_group_IT_number           194
_space_group_name_Hall           '-P 6c 2c'
_space_group_name_H-M_alt        'P 63/m m c'
_symmetry_space_group_name_Hall  '-P 6c 2c'
_symmetry_space_group_name_H-M   'P 63/m m c'
_atom_sites_solution_hydrogens   geom
_audit_creation_date             2017-10-10
_audit_creation_method
;
Olex2 1.2
(compiled 2017.08.10 svn.r3458 for OlexSys, GUI svn.r5381)
;
_audit_update_record
;
2017-10-11 deposited with the CCDC.
2017-12-20 downloaded from the CCDC.
;
_cell_angle_alpha                90
_cell_angle_beta                 90
_cell_angle_gamma                120
_cell_formula_units_Z            6
_cell_length_a                   18.5000(13)
_cell_length_b                   18.5000(13)
_cell_length_c                   23.582(2)
_cell_measurement_reflns_used    678
_cell_measurement_temperature    100(2)
_cell_measurement_theta_max      25.103
_cell_measurement_theta_min      2.145
_cell_volume                     6989.6(9)
_computing_molecular_graphics    'Olex2 (Dolomanov et al., 2009)'
_computing_publication_material  'Olex2 (Dolomanov et al., 2009)'
_computing_structure_refinement  'XL (Sheldrick, 2008)'
_diffrn_ambient_temperature      100(2)
_diffrn_measured_fraction_theta_full 0.997
_diffrn_measured_fraction_theta_max 0.997
_diffrn_measurement_device_type  'Bruker SMART APEX'
_diffrn_measurement_method       /w-scans
_diffrn_radiation_type           MoK\a
_diffrn_radiation_wavelength     0.71073
_diffrn_reflns_av_R_equivalents  0.2225
_diffrn_reflns_av_unetI/netI     0.0743
_diffrn_reflns_Laue_measured_fraction_full 0.997
_diffrn_reflns_Laue_measured_fraction_max 0.997
_diffrn_reflns_limit_h_max       22
_diffrn_reflns_limit_h_min       -22
_diffrn_reflns_limit_k_max       22
_diffrn_reflns_limit_k_min       -22
_diffrn_reflns_limit_l_max       28
_diffrn_reflns_limit_l_min       -28
_diffrn_reflns_number            54657
_diffrn_reflns_point_group_measured_fraction_full 0.997
_diffrn_reflns_point_group_measured_fraction_max 0.997
_diffrn_reflns_theta_full        25.103
_diffrn_reflns_theta_max         25.103
_diffrn_reflns_theta_min         2.145
_exptl_absorpt_coefficient_mu    0.955
_exptl_absorpt_correction_type   empirical
_exptl_absorpt_process_details   'SADABAS 2.10 (Bruker 2003)'
_exptl_crystal_colour            Blue
_exptl_crystal_density_diffrn    0.916
_exptl_crystal_description       Block
_exptl_crystal_F_000             1908.0
_exptl_crystal_size_max          0.26
_exptl_crystal_size_mid          0.21
_exptl_crystal_size_min          0.17
_exptl_transmission_factor_max   0.850
_exptl_transmission_factor_min   0.786
_refine_diff_density_max         0.400
_refine_diff_density_min         -0.799
_refine_diff_density_rms         0.133
_refine_ls_extinction_method     none
_refine_ls_goodness_of_fit_ref   1.094
_refine_ls_hydrogen_treatment    constr
_refine_ls_matrix_type           full
_refine_ls_number_parameters     117
_refine_ls_number_reflns         2349
_refine_ls_number_restraints     41
_refine_ls_restrained_S_all      1.093
_refine_ls_R_factor_all          0.1194
_refine_ls_R_factor_gt           0.0801
_refine_ls_shift/su_max          0.000
_refine_ls_shift/su_mean         0.000
_refine_ls_structure_factor_coef Fsqd
_refine_ls_weighting_details
'w=1/[\s^2^(Fo^2^)+(0.1601P)^2^] where P=(Fo^2^+2Fc^2^)/3'
_refine_ls_weighting_scheme      calc
_refine_ls_wR_factor_gt          0.2460
_refine_ls_wR_factor_ref         0.2696
_reflns_Friedel_coverage         0.000
_reflns_number_gt                1355
_reflns_number_total             2354
_reflns_threshold_expression     'I > 2\s(I)'
_cod_data_source_file            c7dt04006g2.cif
_cod_data_source_block           1
_cod_depositor_comments          'Adding full bibliography for 7045116.cif.'
_cod_original_cell_volume        6989.8(12)
_cod_database_code               7045116
_shelx_shelxl_version_number     2016/4
_shelx_space_group_comment
;
The symmetry employed for this shelxl refinement is uniquely defined
by the following loop, which should always be used as a source of
symmetry information in preference to the above space-group names.
They are only intended as comments.
;
_olex2_refinement_description
;
1. Fixed Uiso
 At 1.2 times of:
  All C(H) groups
2. Rigid bond restraints
 All non-hydrogen atoms
 with sigma for 1-2 distances of 0.01 and sigma for 1-3 distances of 0.01
3. Uiso/Uaniso restraints and constraints
Uanis(C22) \\sim Ueq: with sigma of 0.1 and sigma for terminal atoms of 0.2
4. Others
 Fixed Sof: N6(0.25) C9(0.5) H9(0.5) C10(0.25) C22(0.25)
5.a Ternary CH refined with riding coordinates:
 C9(H9)
5.b Aromatic/amide H refined with riding coordinates:
 C5(H5), C7(H7)
;
_shelx_res_file
;
TITL 15octb in P63/mmc #194
 15octb_sq.res created by SHELXL-2016/4 at 16:29:56 on 10-Oct-2017
REM reset to P63/mmc #194
CELL 0.71073 18.50005 18.50005 23.5824 90 90 120
ZERR 8 0.00127 0.00127 0.0023 0 0 0
LATT 1
SYMM -Y+X,+X,0.5+Z
SYMM -Y,+X-Y,+Z
SYMM -X,-Y,0.5+Z
SYMM +Y-X,-X,+Z
SYMM +Y,-X+Y,0.5+Z
SYMM -Y+X,-Y,-Z
SYMM -X,-X+Y,-Z
SYMM +Y,+X,-Z
SYMM -Y,-X,0.5-Z
SYMM +Y-X,+Y,0.5-Z
SYMM +X,+X-Y,0.5-Z
SFAC C H N O Cu F
UNIT 272 272 64 64 8 1
DELU
ISOR C22

L.S. 40 0 87
PLAN  4
TEMP 0
BOND
ABIN
fmap 2
acta
REM <olex2.extras>
REM <HklSrc "%.\\15octb_sq.hkl">
REM </olex2.extras>

WGHT    0.160100
FVAR       0.05580
CU1   5    0.523642    0.047283    0.546269    10.50000    0.05168    0.02568 =
         0.05043   -0.00149   -0.00074    0.01284
C1    1    0.641429    0.089315    0.458351    11.00000    0.05466    0.04226 =
         0.05411    0.00372   -0.01250    0.01823
O2    4    0.628181    0.109308    0.507022    11.00000    0.05658    0.03154 =
         0.06356   -0.00376   -0.00008    0.00441
C5    1    0.778548    0.221452    0.456704    10.50000    0.04145    0.04145 =
         0.05137    0.00391   -0.00391    0.01923
AFIX  43
H5    2    0.764025    0.235974    0.490849    10.50000   -1.20000
AFIX   0
O6    4    0.559525   -0.030158    0.571309    11.00000    0.06922    0.04231 =
         0.05948   -0.00346   -0.00483    0.02943
C7    1    0.748720    0.124414    0.381335    11.00000    0.06315    0.03221 =
         0.05678   -0.00007   -0.01030    0.01538
AFIX  43
H7    2    0.712429    0.073912    0.363928    11.00000   -1.20000
AFIX   0
C8    1    0.724692    0.145912    0.431213    11.00000    0.04567    0.04097 =
         0.05104   -0.00374   -0.01046    0.01451
C11   1    0.824358    0.175642    0.357226    10.50000    0.03936    0.03936 =
         0.06538    0.00379   -0.00379    0.00703
O13   4    0.558333    0.116666    0.622332    10.50000    0.09194    0.10998 =
         0.10245   -0.05976   -0.02988    0.05499
C0AA  1    0.826143    0.173857    0.250000    10.25000    0.03877    0.03877 =
         0.05193    0.00000    0.00000    0.00892
C2    1    0.846854    0.153146    0.299051    10.50000    0.06933    0.06933 =
         0.08140   -0.00233    0.00233    0.04337
N6    3    0.757331    0.186949    0.250000    10.25000    0.03914    0.06250 =
         0.04106    0.00000    0.00000    0.01374
C9    1    0.928756    0.156954    0.301053    10.50000    0.05046    0.06413 =
         0.05405    0.00190   -0.00543    0.01887
AFIX  13
H9    2    0.963679    0.176462    0.335132    10.50000   -1.20000
AFIX   0
F1    6    1.058943    0.117886    0.291189    10.50000    0.11475    0.27672 =
         0.15145    0.04965    0.02482    0.13836
F3    6    1.112062    0.224124    0.250000    10.25000    0.07771    0.11091 =
         0.49102    0.00000    0.00000    0.05546
C10   1    0.961429    0.152238    0.250000    10.25000    0.07638    0.05815 =
         0.05538    0.00000    0.00000    0.03647
C22   1    1.041251    0.154071    0.250000    10.25000    0.07369    0.11045 =
         0.09544    0.00000    0.00000    0.04603
HKLF 4




REM  15octb in P63/mmc #194
REM R1 =  0.0801 for    1355 Fo > 4sig(Fo)  and  0.1194 for all    2349 data
REM    117 parameters refined using     41 restraints

END

WGHT      0.1666      0.0000

REM Highest difference peak  0.400,  deepest hole -0.799,  1-sigma level  0.133
Q1    1   0.8522  0.1478  0.3901  10.50000  0.05    0.40
Q2    1   0.7324  0.1581  0.2500  10.50000  0.05    0.39
Q3    1   1.0000  0.0000  0.4771  10.16667  0.05    0.37
Q4    1   0.8453  0.1547  0.4552  10.50000  0.05    0.33
;
_shelx_res_checksum              97583
_shelx_fab_file
;
0 0 4 45.8235 4.6186
0 0 6 -11.5470 0.2535
0 0 8 -46.4649 -2.5736
0 0 10 33.3258 -1.8753
0 0 12 -0.2246 -1.3083
0 0 14 -5.1269 -1.1463
0 0 16 2.0983 -0.4107
0 0 18 -1.1176 0.8842
0 0 20 -11.4057 1.4124
0 0 22 -5.0698 0.9812
0 0 24 11.2485 0.2500
0 0 26 8.8674 -0.3116
0 0 28 -5.3479 0.2042
1 0 2 278.6206 -1.3130
1 0 3 -28.1537 1.4689
1 0 4 78.8811 -0.9429
1 0 5 20.6830 1.2323
1 0 6 -24.3934 0.5155
1 0 7 -1.6631 2.0215
1 0 8 -25.0185 0.2954
1 0 9 2.7028 0.9688
1 0 10 -8.7472 0.4518
1 0 11 -8.9396 -0.6806
1 0 12 5.6584 0.7648
1 0 13 -4.9468 -1.0084
1 0 14 -1.3461 0.2874
1 0 15 -10.7779 -1.3303
1 0 16 -4.3254 0.0082
1 0 17 3.9964 -1.5857
1 0 18 2.1063 -0.1716
1 0 19 4.6780 -0.8378
1 0 20 2.8350 -0.3913
1 0 21 1.0952 -0.0670
1 0 22 0.4686 -0.2181
1 0 23 7.7589 0.3990
1 0 24 12.0505 -0.1275
1 0 25 0.5849 0.7881
1 0 26 7.5584 -0.0822
1 0 27 10.1020 0.9512
1 0 28 -10.9444 0.0106
1 1 0 129.2271 2.1840
1 1 2 10.0992 0.6559
1 1 4 10.9917 -0.3409
1 1 6 41.3331 -0.2899
1 1 8 -20.0092 -0.2635
1 1 10 -3.3787 -0.4735
1 1 12 9.4279 -0.7486
1 1 14 -1.2268 -0.4322
1 1 16 -3.2282 0.0787
1 1 18 -0.9180 0.1048
1 1 20 -3.5643 0.1319
1 1 22 13.0107 0.2879
1 1 24 0.2370 0.2774
1 1 26 -7.1170 0.0526
2 0 0 15.0421 -5.8023
2 0 1 -123.2205 0.2109
2 0 2 -29.0992 1.2785
2 0 3 -108.9644 1.0028
2 0 4 166.0173 0.6534
2 0 5 31.2104 1.5450
2 0 6 -26.8829 -0.4636
2 0 7 15.9393 1.3808
2 0 8 -3.9495 0.3166
2 0 9 5.7434 0.7048
2 0 10 6.8337 1.1766
2 0 11 1.6294 0.0523
2 0 12 -6.6645 1.2562
2 0 13 4.4155 -0.6019
2 0 14 -6.5569 0.3527
2 0 15 2.7087 -0.9811
2 0 16 6.6010 -0.1305
2 0 17 -1.3962 -0.8459
2 0 18 4.4641 -0.1655
2 0 19 1.1960 -0.6707
2 0 20 2.7938 -0.5523
2 0 21 -11.4814 -0.3838
2 0 22 3.1991 -0.6057
2 0 23 3.8037 0.2343
2 0 24 9.2213 -0.2918
2 0 25 -0.7801 0.3264
2 0 26 3.1736 -0.0260
2 0 27 -21.2052 0.1311
2 1 0 -34.0977 0.6887
2 1 1 -0.2327 -1.7472
2 1 2 -3.4851 0.4060
2 1 3 -15.0744 -1.2346
2 1 4 -33.4486 0.0440
2 1 5 -49.2408 -2.3877
2 1 6 27.0389 -0.7118
2 1 7 14.8569 -2.7172
2 1 8 14.8441 -1.7493
2 1 9 19.7795 -1.2051
2 1 10 2.6461 -2.0923
2 1 11 -4.3988 0.4426
2 1 12 -3.0923 -1.9025
2 1 13 -11.8100 1.3014
2 1 14 -2.2959 -1.0810
2 1 15 1.0252 1.7903
2 1 16 3.7696 -0.0052
2 1 17 -2.4836 1.8719
2 1 18 4.6246 0.8087
2 1 19 0.3980 1.2354
2 1 20 1.9557 1.1151
2 1 21 3.9504 0.1723
2 1 22 -1.5184 1.0019
2 1 23 -0.0088 -0.4802
2 1 24 8.9688 0.5129
2 1 25 -0.3507 -0.6078
2 1 26 1.8873 -0.0111
2 1 27 1.4272 -0.6888
2 2 0 187.4675 -4.0606
2 2 2 -11.8704 0.4821
2 2 4 -88.5947 -1.4048
2 2 6 -64.1269 -0.4950
2 2 8 -0.5321 1.8287
2 2 10 8.1422 2.9001
2 2 12 11.7967 2.6515
2 2 14 -5.2527 1.2551
2 2 16 3.3491 0.0061
2 2 18 -1.6919 -0.7650
2 2 20 6.5219 -1.4399
2 2 22 3.3622 -1.4020
2 2 24 1.6508 -0.7522
2 2 26 -5.0157 -0.2261
3 0 0 -45.8239 2.8226
3 0 1 92.1577 0.9620
3 0 2 6.8700 -2.7251
3 0 3 -62.1204 1.5090
3 0 4 -55.8354 -0.9253
3 0 5 -73.5507 2.2289
3 0 6 9.9894 1.2813
3 0 7 5.7585 2.3272
3 0 8 -4.7686 0.5699
3 0 9 10.6990 1.0470
3 0 10 -7.8850 0.5332
3 0 11 4.2713 -0.4357
3 0 12 8.5643 0.9959
3 0 13 6.6690 -0.8893
3 0 14 -6.9031 0.4347
3 0 15 -10.8130 -1.2401
3 0 16 2.7861 0.0243
3 0 17 8.2980 -1.4267
3 0 18 9.8970 -0.3387
3 0 19 2.4283 -0.7813
3 0 20 -2.6719 -0.6529
3 0 21 -1.7091 0.0369
3 0 22 14.5410 -0.3603
3 0 23 -4.5102 0.5405
3 0 24 0.3590 -0.1889
3 0 25 -10.2473 0.7520
3 0 26 -3.0891 -0.1060
3 0 27 -3.6714 0.8384
3 1 0 -38.4903 0.9718
3 1 1 -8.0810 0.6757
3 1 2 -6.8983 -0.1029
3 1 3 25.3579 0.1793
3 1 4 0.2433 -0.1981
3 1 5 5.2882 -0.1054
3 1 6 -4.2540 -0.6860
3 1 7 -8.8735 0.0100
3 1 8 -14.1866 -1.1095
3 1 9 -10.6142 -0.2416
3 1 10 6.6201 -2.0051
3 1 11 -3.2938 -0.0433
3 1 12 0.7397 -2.1795
3 1 13 7.3610 0.4325
3 1 14 8.3660 -1.1040
3 1 15 -0.4047 0.3018
3 1 16 1.2166 -0.0865
3 1 17 -6.7918 0.0817
3 1 18 6.8523 0.4615
3 1 19 2.9700 0.0932
3 1 20 5.1873 0.9102
3 1 21 3.2391 0.0564
3 1 22 0.1435 1.0250
3 1 23 -6.4931 0.1367
3 1 24 3.1413 0.6388
3 1 25 -1.7690 -0.1048
3 1 26 8.3009 0.1083
3 1 27 -7.2554 -0.0860
3 2 0 -62.2171 2.2103
3 2 1 -2.6097 -0.3157
3 2 2 22.9765 -1.2822
3 2 3 -20.5341 2.5802
3 2 4 40.4884 -0.3981
3 2 5 50.3423 4.3533
3 2 6 -17.2320 0.7169
3 2 7 15.5487 3.6378
3 2 8 -10.7990 -0.2614
3 2 9 -5.0743 1.3799
3 2 10 -0.8647 -0.7738
3 2 11 -5.0328 -0.4571
3 2 12 -0.5321 -0.5481
3 2 13 -7.3069 -1.7371
3 2 14 6.7549 -0.4869
3 2 15 -2.4023 -2.5926
3 2 16 1.4527 -0.3284
3 2 17 1.6090 -2.5655
3 2 18 -2.5897 -0.2236
3 2 19 -6.6167 -1.7214
3 2 20 2.9926 0.0422
3 2 21 -6.4535 -0.4151
3 2 22 1.4327 0.2090
3 2 23 9.5768 0.4410
3 2 24 2.5402 0.4355
3 2 25 -4.3096 1.0016
3 2 26 0.8531 0.7666
3 2 27 8.6956 1.3279
3 3 0 33.8436 -0.9983
3 3 2 20.0961 -0.6325
3 3 4 -12.1945 -1.1964
3 3 6 -3.9123 0.0617
3 3 8 25.1016 1.3144
3 3 10 0.7231 1.3979
3 3 12 -11.8653 1.2001
3 3 14 3.9101 1.0006
3 3 16 -0.5513 0.2899
3 3 18 -0.0020 -0.5036
3 3 20 -0.5284 -0.7364
3 3 22 2.6910 -0.6488
3 3 24 3.6014 -0.4246
3 3 26 -11.9807 -0.2097
4 0 0 -76.0175 -4.7180
4 0 1 0.4598 1.5367
4 0 2 -9.8382 -1.0597
4 0 3 100.6906 0.8852
4 0 4 55.0521 -0.0991
4 0 5 27.3626 1.7527
4 0 6 9.0200 0.0619
4 0 7 -10.8079 1.5067
4 0 8 11.4405 1.0137
4 0 9 -3.0500 0.7912
4 0 10 -5.1746 2.0181
4 0 11 -6.3980 0.0704
4 0 12 -3.3806 1.6397
4 0 13 -7.1735 -0.7493
4 0 14 1.7806 0.4792
4 0 15 5.7073 -0.7332
4 0 16 4.9952 -0.1149
4 0 17 0.0385 -0.8458
4 0 18 -1.9028 -0.4095
4 0 19 -1.6185 -0.8639
4 0 20 0.2800 -0.8859
4 0 21 -8.5151 -0.2368
4 0 22 9.4810 -0.9305
4 0 23 4.1543 0.2060
4 0 24 1.9237 -0.6590
4 0 25 14.1940 0.3409
4 0 26 -11.2153 -0.2088
4 0 27 -3.7926 0.0607
4 1 0 73.5537 0.6737
4 1 1 -13.5973 0.9156
4 1 2 20.0479 -0.2769
4 1 3 9.6091 -1.2744
4 1 4 -5.5063 0.4386
4 1 5 14.7983 -1.3615
4 1 6 -1.8021 0.8005
4 1 7 23.6063 -1.3395
4 1 8 9.5187 0.6116
4 1 9 0.1384 -0.4907
4 1 10 -6.8022 0.7810
4 1 11 -12.1899 0.4744
4 1 12 -3.8885 0.8321
4 1 13 -4.7365 0.6200
4 1 14 1.4653 0.5026
4 1 15 4.0539 0.6145
4 1 16 -0.5198 0.1260
4 1 17 1.9793 0.8191
4 1 18 1.7881 -0.0796
4 1 19 -1.2529 0.7353
4 1 20 3.0395 -0.1879
4 1 21 4.6771 0.1402
4 1 22 7.4150 -0.3183
4 1 23 -2.7904 -0.3444
4 1 24 -8.3282 -0.2342
4 1 25 -4.6407 -0.4750
4 1 26 -4.5863 -0.2135
4 1 27 6.7912 -0.8142
4 2 0 3.7319 -3.0141
4 2 1 -10.9444 -1.1529
4 2 2 -28.8651 -0.9514
4 2 3 -8.0412 -0.9886
4 2 4 -2.7844 -1.2084
4 2 5 -7.7763 -0.8486
4 2 6 27.9786 0.0687
4 2 7 -10.3027 -0.8779
4 2 8 6.2485 1.7195
4 2 9 15.4437 -0.2645
4 2 10 0.1267 2.2520
4 2 11 -1.9644 0.0522
4 2 12 0.0323 2.0956
4 2 13 0.4407 0.0374
4 2 14 -1.8058 1.1845
4 2 15 -4.7661 0.5268
4 2 16 5.3782 0.0361
4 2 17 -5.4388 0.6730
4 2 18 2.1263 -0.6478
4 2 19 7.3981 0.4141
4 2 20 1.3690 -1.0728
4 2 21 -0.1831 0.3827
4 2 22 -0.5733 -1.1272
4 2 23 1.9279 0.1779
4 2 24 -3.8710 -0.6757
4 2 25 7.9299 0.1969
4 2 26 13.1460 0.0193
4 2 27 -9.8847 0.1012
4 3 0 -15.0958 2.0398
4 3 1 2.2463 -1.0729
4 3 2 -0.2943 2.9645
4 3 3 19.6296 -2.6833
4 3 4 -2.3541 2.2018
4 3 5 -3.9633 -4.6610
4 3 6 6.8320 -0.8069
4 3 7 11.4274 -4.4965
4 3 8 6.3408 -3.6746
4 3 9 -5.8281 -2.2864
4 3 10 5.1879 -4.4212
4 3 11 3.7000 0.4606
4 3 12 -6.0928 -3.6876
4 3 13 -8.9586 2.6458
4 3 14 0.6462 -2.3128
4 3 15 -4.0256 3.7295
4 3 16 2.6857 -0.2737
4 3 17 -0.6317 3.4525
4 3 18 0.8484 1.5128
4 3 19 -1.7925 1.9311
4 3 20 -1.8060 2.0209
4 3 21 -4.8863 0.0694
4 3 22 -1.7052 1.9570
4 3 23 1.4834 -1.0856
4 3 24 -5.1225 1.3362
4 3 25 -6.5734 -1.5316
4 3 26 -0.5205 0.3123
4 4 0 9.4858 -0.8616
4 4 2 15.4120 -1.2505
4 4 4 3.8550 -1.0800
4 4 6 -2.6400 0.4470
4 4 8 -5.4603 1.5630
4 4 10 0.3580 2.0707
4 4 12 3.3668 2.0777
4 4 14 -1.0741 1.1249
4 4 16 -1.7578 -0.0136
4 4 18 3.6066 -0.6521
4 4 20 0.3985 -1.2558
4 4 22 -6.9083 -1.3475
4 4 24 -10.1932 -0.7380
4 4 26 4.8836 -0.1136
5 0 0 47.8779 3.7712
5 0 1 29.2450 -0.0620
5 0 2 -21.4052 0.9382
5 0 3 -31.1944 2.6294
5 0 4 -23.9560 0.6830
5 0 5 31.4640 4.9736
5 0 6 24.8496 -0.1940
5 0 7 9.2690 4.5813
5 0 8 21.5440 -1.5921
5 0 9 -8.1874 2.0110
5 0 10 13.8770 -2.0015
5 0 11 -0.7437 -0.3369
5 0 12 -6.4057 -1.6373
5 0 13 -0.2859 -2.3536
5 0 14 -0.1625 -1.0010
5 0 15 -2.7476 -3.5105
5 0 16 3.8205 -0.0038
5 0 17 1.7229 -3.2576
5 0 18 2.3864 0.7422
5 0 19 -1.5808 -1.8582
5 0 20 0.8625 0.9965
5 0 21 10.5456 -0.1870
5 0 22 1.6205 1.0267
5 0 23 2.4066 0.9789
5 0 24 13.9099 0.7524
5 0 25 -10.2515 1.6490
5 0 26 3.6040 0.3285
5 0 27 -0.8049 1.7841
5 1 0 -21.4366 -0.8129
5 1 1 -11.5263 0.8437
5 1 2 3.0289 1.4376
5 1 3 7.1691 -0.6206
5 1 4 7.4163 0.9915
5 1 5 7.5111 -1.3412
5 1 6 -0.8937 0.5663
5 1 7 1.0329 -1.0700
5 1 8 -0.1646 0.3405
5 1 9 5.0613 -0.5960
5 1 10 0.3469 0.2582
5 1 11 1.0350 0.1067
5 1 12 2.3731 0.4199
5 1 13 -12.9765 0.5875
5 1 14 -5.0334 0.4441
5 1 15 0.4762 0.5596
5 1 16 -3.5668 0.2410
5 1 17 -1.3818 0.5746
5 1 18 -8.6225 -0.0079
5 1 19 -0.4101 0.3685
5 1 20 3.2178 -0.2389
5 1 21 -9.0994 -0.3126
5 1 22 5.3550 -0.2274
5 1 23 -5.6860 -0.5079
5 1 24 5.4713 -0.3757
5 1 25 2.9434 -0.4198
5 1 26 -4.2153 -0.3565
5 2 0 37.2988 2.3427
5 2 1 17.5659 -2.0238
5 2 2 18.5020 -0.1345
5 2 3 2.1793 -0.4011
5 2 4 -9.9824 0.4070
5 2 5 -6.6978 0.1573
5 2 6 -20.8298 -0.1196
5 2 7 -9.8595 -0.6575
5 2 8 1.7387 -1.1134
5 2 9 -2.0522 -1.2389
5 2 10 5.6438 -1.2830
5 2 11 9.3756 -0.2504
5 2 12 -4.0255 -1.1561
5 2 13 -4.6424 0.6898
5 2 14 0.6262 -0.3740
5 2 15 -6.5056 0.7745
5 2 16 3.2472 0.3051
5 2 17 1.7979 0.7473
5 2 18 -2.8749 0.5167
5 2 19 -1.8648 0.6826
5 2 20 -0.4883 0.7214
5 2 21 1.7039 0.2773
5 2 22 -4.0921 0.5343
5 2 23 -1.7425 -0.2640
5 2 24 -0.9025 0.0853
5 2 25 -4.6375 0.5052
5 2 26 -15.7547 -0.6833
5 3 0 13.7336 -2.4008
5 3 1 -4.3388 0.8373
5 3 2 -9.0506 -0.7276
5 3 3 -2.8910 -0.0659
5 3 4 2.9992 -1.0044
5 3 5 -8.7750 0.1393
5 3 6 6.6387 -0.1866
5 3 7 2.4524 0.8371
5 3 8 -2.2122 1.3568
5 3 9 -5.7111 0.6471
5 3 10 -1.9037 1.8238
5 3 11 -7.9628 0.0552
5 3 12 4.9452 1.4840
5 3 13 8.4810 -0.5653
5 3 14 -0.7584 0.8487
5 3 15 -3.2334 -1.0660
5 3 16 6.2681 -0.0568
5 3 17 -2.9929 -0.7281
5 3 18 1.2200 -0.8105
5 3 19 0.2267 -0.1012
5 3 20 -0.6838 -1.0315
5 3 21 4.5828 -0.0016
5 3 22 -0.0263 -0.8135
5 3 23 2.8488 0.2926
5 3 24 -7.3414 -0.5014
5 3 25 -0.7648 0.3784
5 3 26 -1.2050 -0.0399
5 4 0 -10.2846 1.7922
5 4 1 7.1663 -0.2730
5 4 2 -6.7764 -0.3435
5 4 3 4.0822 3.1403
5 4 4 1.8774 -0.5707
5 4 5 -0.0402 4.7782
5 4 6 3.3605 0.1699
5 4 7 4.1734 3.6100
5 4 8 2.4131 0.6824
5 4 9 -3.8602 1.5123
5 4 10 -3.4836 0.5778
5 4 11 -0.5128 -0.1989
5 4 12 0.9803 0.3657
5 4 13 -2.2385 -1.9097
5 4 14 3.3997 0.3781
5 4 15 -0.6235 -3.1022
5 4 16 2.4047 -0.1458
5 4 17 4.8338 -3.0649
5 4 18 -3.2414 -0.4352
5 4 19 2.0851 -1.9219
5 4 20 -1.5506 0.0002
5 4 21 -2.7854 -0.5631
5 4 22 0.1576 0.0433
5 4 23 -7.1602 0.6024
5 4 24 11.2648 0.0865
5 4 25 -3.3268 1.4430
5 5 0 21.9392 -3.8144
5 5 2 -1.1699 -1.8230
5 5 4 -6.8285 -2.4179
5 5 6 -10.2305 0.4773
5 5 8 1.3188 3.7140
5 5 10 2.6788 4.6507
5 5 12 -3.3395 4.1049
5 5 14 -0.1152 2.3330
5 5 16 4.1549 0.1047
5 5 18 2.8197 -1.6002
5 5 20 -2.5964 -2.4311
5 5 22 -1.3450 -2.3180
5 5 24 1.0183 -1.5484
6 0 0 4.8504 -2.6804
6 0 1 10.5049 1.3670
6 0 2 19.4980 -0.8369
6 0 3 -15.4303 2.5076
6 0 4 -4.3654 -0.2177
6 0 5 -29.2036 2.6760
6 0 6 -4.8660 -0.1349
6 0 7 -4.8182 2.3187
6 0 8 -10.9633 0.6933
6 0 9 -0.6003 1.6795
6 0 10 9.8608 1.1672
6 0 11 -0.7524 -0.0059
6 0 12 -2.4541 0.6941
6 0 13 -2.5245 -1.3456
6 0 14 -2.4654 0.0942
6 0 15 -7.8048 -1.5944
6 0 16 -6.2096 -0.2895
6 0 17 3.2817 -1.6637
6 0 18 -2.9064 -0.3672
6 0 19 2.3570 -1.3198
6 0 20 3.2927 -0.4768
6 0 21 -0.7174 -0.3081
6 0 22 8.2822 -0.4775
6 0 23 -15.7196 0.5131
6 0 24 4.2053 -0.2268
6 0 25 -4.3129 0.4043
6 0 26 3.1021 0.1139
6 1 0 -1.7833 0.0346
6 1 1 -7.2866 1.4414
6 1 2 -7.1894 -1.3981
6 1 3 -13.0110 -0.8291
6 1 4 -15.0655 -0.9456
6 1 5 -10.8105 -0.6691
6 1 6 3.0125 -0.0594
6 1 7 -10.5084 -0.1876
6 1 8 5.7807 0.3441
6 1 9 -1.9007 0.0445
6 1 10 -9.3492 0.8667
6 1 11 2.6046 0.3761
6 1 12 9.8304 0.9005
6 1 13 3.4509 0.1541
6 1 14 1.4741 0.2382
6 1 15 -2.3039 -0.1885
6 1 16 0.7132 -0.1274
6 1 17 3.4465 -0.0226
6 1 18 4.9340 -0.4367
6 1 19 0.4092 -0.0136
6 1 20 -0.3145 -0.5798
6 1 21 -6.1867 -0.3512
6 1 22 4.1707 -0.2337
6 1 23 4.6323 -0.3898
6 1 24 3.2937 0.1090
6 1 25 1.5989 -0.7731
6 1 26 -0.6657 0.0598
6 2 0 -11.5830 -0.2864
6 2 1 -4.4256 -0.2976
6 2 2 10.3953 0.6687
6 2 3 1.0580 0.0945
6 2 4 4.9436 -0.0530
6 2 5 12.5708 0.0031
6 2 6 -4.8207 -0.3206
6 2 7 10.4596 0.0193
6 2 8 -1.8896 -0.4601
6 2 9 -2.1199 0.3037
6 2 10 -3.9417 -1.1641
6 2 11 -1.0017 -0.0996
6 2 12 -3.7730 -1.1271
6 2 13 0.0951 -0.1142
6 2 14 5.4037 -0.5713
6 2 15 -0.2550 0.1922
6 2 16 -0.0930 -0.1490
6 2 17 2.1134 0.0046
6 2 18 -0.3453 0.4593
6 2 19 3.5286 -0.1128
6 2 20 -1.6985 0.8499
6 2 21 1.2278 0.2581
6 2 22 -0.2070 0.5996
6 2 23 -12.8670 0.4068
6 2 24 -11.3061 0.1015
6 2 25 3.9841 0.1214
6 2 26 -4.1762 0.2364
6 3 0 -1.6130 0.7769
6 3 1 4.9997 1.8640
6 3 2 4.4408 -0.5420
6 3 3 4.3364 1.7704
6 3 4 -11.3998 0.4604
6 3 5 6.9096 1.6533
6 3 6 8.2057 1.0667
6 3 7 -5.1290 1.3703
6 3 8 -0.1111 0.2509
6 3 9 3.8172 1.1480
6 3 10 -0.3778 0.2247
6 3 11 -0.8367 0.2640
6 3 12 -0.1580 0.1172
6 3 13 -1.1342 -0.8201
6 3 14 1.0579 -0.3059
6 3 15 1.7224 -1.1275
6 3 16 -3.4828 0.1475
6 3 17 3.1471 -1.0037
6 3 18 7.5678 0.2935
6 3 19 5.9071 -0.8119
6 3 20 3.8978 -0.1614
6 3 21 -6.9012 -0.2904
6 3 22 -2.5835 -0.1833
6 3 23 2.7646 0.2251
6 3 24 -5.1550 0.3031
6 3 25 6.4098 -0.3066
6 4 0 3.6162 0.7235
6 4 1 -3.1922 1.5103
6 4 2 -10.9122 -0.6969
6 4 3 -9.6100 -0.9377
6 4 4 3.6852 -0.5062
6 4 5 -1.1140 -1.3847
6 4 6 8.5850 0.6847
6 4 7 0.8393 -0.4063
6 4 8 6.8813 0.7481
6 4 9 -0.9324 -0.3810
6 4 10 -0.9955 0.6105
6 4 11 2.6476 -0.1066
6 4 12 -1.8170 0.8466
6 4 13 1.1508 0.8880
6 4 14 4.8598 0.6539
6 4 15 4.4668 1.0681
6 4 16 2.2373 0.1209
6 4 17 1.5587 0.7292
6 4 18 -1.1250 -0.1737
6 4 19 1.7750 0.7127
6 4 20 7.8458 -0.4171
6 4 21 1.9687 0.3946
6 4 22 -0.9199 -0.3974
6 4 23 3.6825 -0.2773
6 4 24 0.5306 -0.1359
6 4 25 -1.4478 -0.4023
6 5 0 -4.0075 1.0382
6 5 1 7.6836 -1.0395
6 5 2 6.4688 1.4654
6 5 3 -1.5612 -0.7806
6 5 4 -2.9481 1.2563
6 5 5 -5.0738 -1.8626
6 5 6 6.9463 -0.3817
6 5 7 -1.0461 -2.0572
6 5 8 6.1469 -1.6933
6 5 9 17.1320 -0.6828
6 5 10 -1.4255 -1.4379
6 5 11 -5.0120 0.0995
6 5 12 1.6375 -0.9985
6 5 13 -0.4523 0.4242
6 5 14 -0.9263 -0.5929
6 5 15 2.0574 1.0037
6 5 16 1.6723 0.3086
6 5 17 1.1124 1.0668
6 5 18 8.0620 0.6540
6 5 19 4.0172 0.5060
6 5 20 -1.6323 0.6168
6 5 21 7.4255 -0.1119
6 5 22 -1.9681 0.8277
6 5 23 -2.7442 -0.4822
6 5 24 -3.7834 0.1652
6 6 0 14.2743 1.5010
6 6 2 0.7821 -0.2487
6 6 4 -6.1881 0.5056
6 6 6 -9.4129 0.1412
6 6 8 -4.0265 -0.9889
6 6 10 5.7845 -1.3330
6 6 12 -6.5304 -1.0553
6 6 14 6.7688 -0.6375
6 6 16 -1.3236 -0.1329
6 6 18 -4.7060 0.3302
6 6 20 5.3079 0.6640
6 6 22 -6.0868 0.8205
7 0 0 -19.7751 3.7185
7 0 1 3.4136 0.0074
7 0 2 -18.0122 2.0732
7 0 3 13.7339 2.4142
7 0 4 11.0919 0.8156
7 0 5 9.0632 3.5576
7 0 6 5.5117 -0.6043
7 0 7 -5.6471 3.0074
7 0 8 -7.9312 -1.3422
7 0 9 -4.8434 1.0947
7 0 10 -0.0782 -1.6369
7 0 11 -3.1307 -0.3868
7 0 12 -4.5173 -1.7576
7 0 13 -0.3523 -1.5622
7 0 14 2.4221 -1.0071
7 0 15 -0.9636 -2.4313
7 0 16 0.1209 -0.0473
7 0 17 2.8163 -2.2772
7 0 18 -5.8513 0.7213
7 0 19 -2.7356 -1.1946
7 0 20 5.7568 1.0241
7 0 21 -0.0776 -0.0717
7 0 22 5.3416 0.9937
7 0 23 -8.2829 0.8326
7 0 24 -2.6637 0.9145
7 0 25 9.0752 1.5278
7 0 26 0.7803 0.1886
7 1 0 5.7687 -2.3703
7 1 1 2.3446 -0.0822
7 1 2 0.4859 -0.1651
7 1 3 11.6146 -0.3831
7 1 4 6.6446 0.1180
7 1 5 -1.9453 -0.5453
7 1 6 -0.6439 -0.3896
7 1 7 7.5499 -0.3724
7 1 8 -0.6137 0.6992
7 1 9 5.6838 -0.0812
7 1 10 -2.7390 1.4206
7 1 11 0.3490 0.0083
7 1 12 -1.0291 1.0404
7 1 13 -0.5698 0.2001
7 1 14 1.9670 0.4342
7 1 15 1.8751 0.2648
7 1 16 -2.5966 -0.1699
7 1 17 0.9668 0.2439
7 1 18 4.0822 -0.7502
7 1 19 3.6016 0.1511
7 1 20 -1.5706 -0.7548
7 1 21 -3.3563 0.0532
7 1 22 -2.6056 -0.4839
7 1 23 13.3116 -0.0130
7 1 24 -0.6769 -0.1155
7 1 25 5.5716 -0.3788
7 2 0 8.7768 2.2472
7 2 1 -7.8982 -1.4186
7 2 2 -0.0046 -0.9216
7 2 3 -10.4793 -1.4029
7 2 4 0.9439 -0.2898
7 2 5 1.4231 -1.6205
7 2 6 10.7798 0.6764
7 2 7 0.6637 -1.6422
7 2 8 3.7839 0.7957
7 2 9 -1.3753 -1.4379
7 2 10 -4.5539 0.8633
7 2 11 -0.6559 0.0165
7 2 12 -3.9944 0.8382
7 2 13 -0.9595 1.2704
7 2 14 2.4332 0.8721
7 2 15 -0.3176 1.3675
7 2 16 5.1860 0.3772
7 2 17 0.7287 1.4452
7 2 18 -0.2244 -0.3633
7 2 19 1.8168 1.1321
7 2 20 0.1031 -0.5655
7 2 21 3.1504 0.0388
7 2 22 4.7813 -0.6728
7 2 23 3.8562 -0.4649
7 2 24 -1.8783 -0.6816
7 2 25 -3.2791 0.2894
7 3 0 -18.4332 -3.3515
7 3 1 11.7450 -1.0537
7 3 2 -5.5598 1.8249
7 3 3 4.4439 -0.6880
7 3 4 13.0319 0.8451
7 3 5 -0.9985 0.2083
7 3 6 -7.7396 -1.7026
7 3 7 5.7246 0.3897
7 3 8 4.9236 -2.1836
7 3 9 3.6702 0.1152
7 3 10 1.9388 -2.2929
7 3 11 -6.6405 -0.2754
7 3 12 1.9213 -2.4016
7 3 13 -2.7060 -0.3147
7 3 14 -2.9340 -1.5973
7 3 15 -4.1581 -0.1015
7 3 16 1.1698 -0.3863
7 3 17 5.9754 0.0998
7 3 18 4.1174 0.7292
7 3 19 9.9719 0.1375
7 3 20 -2.6808 1.5428
7 3 21 1.5673 0.2935
7 3 22 1.8120 1.2646
7 3 23 -16.8637 0.2021
7 3 24 -1.2889 0.3786
7 4 0 4.8040 1.9225
7 4 1 -9.3523 -0.6372
7 4 2 4.0072 -0.4912
7 4 3 5.8405 -0.3750
7 4 4 -11.1542 -0.1878
7 4 5 2.6104 -0.8468
7 4 6 3.3948 0.2870
7 4 7 0.0384 -1.4606
7 4 8 -1.1022 -0.2731
7 4 9 0.3851 -0.8624
7 4 10 -0.7939 -0.8977
7 4 11 4.3552 0.2869
7 4 12 4.4499 -0.5163
7 4 13 -0.1862 0.6125
7 4 14 0.7772 -0.0622
7 4 15 0.5394 0.6506
7 4 16 -4.4084 -0.0524
7 4 17 -1.0301 0.7420
7 4 18 1.0232 0.1424
7 4 19 6.0180 0.3278
7 4 20 -5.8634 0.3132
7 4 21 -7.1512 -0.2053
7 4 22 -2.8705 0.4358
7 4 23 15.2890 0.2999
7 4 24 -10.3412 0.2011
7 5 0 -5.9978 -4.4219
7 5 1 -10.5055 -0.8915
7 5 2 -1.8819 0.9224
7 5 3 -9.4150 0.7219
7 5 4 1.8441 0.1409
7 5 5 1.0127 0.7621
7 5 6 -2.3391 -0.5792
7 5 7 -3.7833 0.2661
7 5 8 2.9345 0.3821
7 5 9 -10.9275 -0.1352
7 5 10 3.9973 0.6541
7 5 11 -2.1391 -0.3608
7 5 12 0.6093 0.4541
7 5 13 11.1972 -0.1876
7 5 14 -1.5684 0.0798
7 5 15 -4.1918 0.0167
7 5 16 1.5811 -0.1361
7 5 17 3.5868 -0.2302
7 5 18 1.7400 0.0592
7 5 19 -5.5253 -0.4895
7 5 20 4.6677 -0.2212
7 5 21 6.6390 -0.1622
7 5 22 -8.7199 -0.9704
7 5 23 -1.9520 0.2832
7 6 0 -4.5746 1.2810
7 6 1 -1.5642 -1.0185
7 6 2 -3.2224 0.2573
7 6 3 3.3189 0.8559
7 6 4 -0.1661 0.8007
7 6 5 1.1378 1.2812
7 6 6 3.8564 0.6778
7 6 7 -3.9751 0.7895
7 6 8 2.5115 -0.8306
7 6 9 2.1121 0.6032
7 6 10 -1.9181 -1.7619
7 6 11 6.3632 0.1430
7 6 12 -0.1484 -1.6406
7 6 13 -6.2573 -0.5457
7 6 14 -2.8528 -0.9198
7 6 15 2.8746 -0.5448
7 6 16 1.4422 -0.0341
7 6 17 3.8884 -0.2903
7 6 18 2.5909 0.6431
7 6 19 3.1790 0.0336
7 6 20 -4.4001 0.8137
7 6 21 -2.0947 0.5609
7 6 22 4.6287 0.7922
7 7 0 10.5502 -4.3153
7 7 2 0.5535 -2.0054
7 7 4 4.4113 -2.7467
7 7 6 8.7011 -0.0570
7 7 8 -1.0399 3.2297
7 7 10 -3.7737 4.6014
7 7 12 -4.4916 3.9902
7 7 14 6.8433 2.0926
7 7 16 -2.1455 0.0198
7 7 18 -1.6592 -1.6450
7 7 20 -6.6243 -2.5479
8 0 0 15.6620 0.1367
8 0 1 -6.4205 1.4866
8 0 2 1.8738 1.7193
8 0 3 -6.1109 1.6396
8 0 4 -6.3733 0.9278
8 0 5 0.2651 1.4418
8 0 6 1.1840 -0.7263
8 0 7 3.3851 1.1131
8 0 8 6.1298 -1.1089
8 0 9 3.4473 0.7229
8 0 10 -3.6824 -1.3670
8 0 11 -2.1622 0.0047
8 0 12 0.4244 -1.4835
8 0 13 -4.6890 -0.5831
8 0 14 1.3584 -0.8552
8 0 15 -2.9411 -0.6615
8 0 16 1.1009 -0.1448
8 0 17 -1.4754 -0.7192
8 0 18 1.4777 0.3796
8 0 19 -5.9987 -0.7533
8 0 20 -1.0072 0.7826
8 0 21 3.1345 -0.3211
8 0 22 6.5859 0.8022
8 0 23 3.5639 -0.0973
8 0 24 8.9302 0.4550
8 0 25 -0.5302 -0.4771
8 1 0 -4.7334 -0.8435
8 1 1 8.8205 -0.2387
8 1 2 4.9027 -0.2452
8 1 3 5.4276 -0.9939
8 1 4 -2.0448 -0.1515
8 1 5 -4.2110 -0.2357
8 1 6 -4.8869 0.5415
8 1 7 -1.7832 -0.0971
8 1 8 2.7480 0.4292
8 1 9 1.5574 -0.1896
8 1 10 3.2579 0.0652
8 1 11 -1.3302 0.0345
8 1 12 -2.2048 0.1523
8 1 13 -6.7913 0.0221
8 1 14 -0.4962 0.1740
8 1 15 -3.0390 0.1882
8 1 16 0.6674 0.2583
8 1 17 -2.0536 0.3491
8 1 18 -8.7517 0.2149
8 1 19 -1.3698 0.1079
8 1 20 -1.1881 0.1857
8 1 21 -8.1014 0.1546
8 1 22 -3.4590 0.0304
8 1 23 0.0415 0.2025
8 1 24 12.1701 -0.2155
8 1 25 5.2613 0.1393
8 2 0 8.2089 1.2781
8 2 1 4.7030 0.0764
8 2 2 0.0826 -0.0901
8 2 3 6.2097 0.5410
8 2 4 -6.6448 -0.1115
8 2 5 0.0868 0.5554
8 2 6 -2.9680 0.2888
8 2 7 0.1321 0.7445
8 2 8 -3.3845 -0.2777
8 2 9 2.5199 0.4119
8 2 10 5.1959 -1.0465
8 2 11 -1.3728 -0.3677
8 2 12 4.2170 -0.7610
8 2 13 -5.1488 -0.6593
8 2 14 1.1507 -0.2459
8 2 15 0.9965 -0.6478
8 2 16 -5.4194 0.0180
8 2 17 3.1119 -0.9278
8 2 18 -0.1928 0.1742
8 2 19 -4.6557 -0.6401
8 2 20 7.2995 0.1161
8 2 21 7.6698 -0.1685
8 2 22 -5.0255 0.0669
8 2 23 2.9461 -0.0828
8 2 24 2.1568 0.2894
8 3 0 -5.3135 0.3828
8 3 1 1.8082 0.2444
8 3 2 0.9381 -0.5116
8 3 3 1.8082 0.3517
8 3 4 6.9536 -0.2370
8 3 5 -3.9957 0.7863
8 3 6 1.7804 0.0148
8 3 7 -2.7372 0.7147
8 3 8 -3.1140 0.5150
8 3 9 -5.2940 0.5155
8 3 10 6.8512 1.3276
8 3 11 -0.6334 -0.0804
8 3 12 2.0489 1.2321
8 3 13 -1.8438 -0.8471
8 3 14 -3.6111 0.4946
8 3 15 -1.5281 -1.0785
8 3 16 4.6921 -0.1618
8 3 17 1.1544 -0.8059
8 3 18 -0.4978 -0.5358
8 3 19 5.0344 -0.3310
8 3 20 2.8684 -0.9454
8 3 21 0.4803 0.2068
8 3 22 -6.4993 -0.5972
8 3 23 -11.2868 0.0545
8 3 24 7.9903 -0.1519
8 4 0 -4.9003 1.4301
8 4 1 3.0685 1.8185
8 4 2 -4.6700 -0.9122
8 4 3 6.9521 -0.0562
8 4 4 1.4055 -0.4658
8 4 5 -0.6548 -0.7542
8 4 6 -1.8269 1.0011
8 4 7 -4.0245 -0.0220
8 4 8 -1.5776 1.3172
8 4 9 -1.9508 0.0945
8 4 10 -0.3661 1.0552
8 4 11 -1.8403 0.1882
8 4 12 0.4248 1.2000
8 4 13 -9.1177 0.8439
8 4 14 -0.1378 1.0960
8 4 15 1.6690 0.5721
8 4 16 1.0127 0.2219
8 4 17 -0.0531 0.1383
8 4 18 -5.5640 -0.7060
8 4 19 -3.0548 0.0996
8 4 20 -2.3236 -0.6509
8 4 21 3.4478 -0.2056
8 4 22 3.6474 -0.0436
8 4 23 -9.9307 -0.6487
8 5 0 5.5704 0.8881
8 5 1 0.2943 0.2183
8 5 2 2.5624 -0.7873
8 5 3 -7.9420 0.1479
8 5 4 -5.5613 -0.8448
8 5 5 1.4593 0.2553
8 5 6 -2.5821 -0.6404
8 5 7 1.7184 0.2428
8 5 8 -5.8773 0.0920
8 5 9 -5.2249 0.4401
8 5 10 -4.8675 1.0486
8 5 11 -3.7855 0.2604
8 5 12 -3.3928 0.7882
8 5 13 0.8388 -0.1362
8 5 14 7.2649 0.2560
8 5 15 3.5303 -0.2676
8 5 16 9.3797 -0.2353
8 5 17 -4.6424 0.1174
8 5 18 -2.5935 -0.7223
8 5 19 0.2968 0.2459
8 5 20 -7.7724 -0.3847
8 5 21 -7.5439 -0.2225
8 5 22 -5.8803 0.0142
8 6 0 -1.3015 1.9636
8 6 1 -2.1855 2.0042
8 6 2 -1.0460 -0.9610
8 6 3 -4.2057 -0.6140
8 6 4 1.8950 -0.6316
8 6 5 -3.1467 -1.0883
8 6 6 0.8696 0.5279
8 6 7 6.4160 -0.6061
8 6 8 6.6927 0.9299
8 6 9 -0.7793 -0.4453
8 6 10 -0.1012 0.9189
8 6 11 -0.7975 0.0655
8 6 12 -1.7571 0.9108
8 6 13 -9.7522 0.6268
8 6 14 -0.8476 0.9151
8 6 15 0.7395 0.5901
8 6 16 5.6050 0.3153
8 6 17 10.4389 0.3428
8 6 18 1.1385 -0.2708
8 6 19 -3.5207 0.0840
8 6 20 1.9479 0.2086
8 6 21 -0.5879 -0.5284
8 7 0 -1.4851 1.1617
8 7 1 1.8033 -0.9203
8 7 2 1.3927 0.4691
8 7 3 3.2480 0.5163
8 7 4 -2.6385 0.1849
8 7 5 -2.2984 1.1219
8 7 6 0.5266 0.1441
8 7 7 0.0319 0.6551
8 7 8 4.6196 0.0408
8 7 9 3.6386 0.2516
8 7 10 -5.1669 -0.3672
8 7 11 -1.6755 0.0076
8 7 12 1.8200 -0.7422
8 7 13 -2.9400 -0.3054
8 7 14 -10.9425 -0.5079
8 7 15 -3.5597 -0.4181
8 7 16 -2.9393 -0.1866
8 7 17 -1.1826 -0.2035
8 7 18 8.4237 0.0990
8 7 19 4.5811 -0.3938
8 7 20 4.1070 0.6833
8 8 0 3.0517 1.4557
8 8 2 2.0137 -0.1671
8 8 4 -9.9619 0.3019
8 8 6 -3.4091 0.1372
8 8 8 -4.5259 -0.5830
8 8 10 2.8856 -0.8130
8 8 12 3.1187 -0.6553
8 8 14 1.2012 -0.3575
8 8 16 -4.2863 0.0118
8 8 18 0.8196 0.2936
9 0 0 -0.2080 3.3345
9 0 1 -1.2283 -0.1813
9 0 2 -2.5942 2.9230
9 0 3 -0.7758 1.1183
9 0 4 3.6142 1.2315
9 0 5 1.3631 1.4885
9 0 6 3.3218 -0.5667
9 0 7 6.3146 1.2143
9 0 8 -1.1455 -2.1233
9 0 9 5.2678 0.4247
9 0 10 3.3134 -2.8639
9 0 11 -0.9831 -0.1762
9 0 12 1.2229 -2.5472
9 0 13 2.8575 -0.5679
9 0 14 -0.5394 -1.3757
9 0 15 -0.0515 -1.1024
9 0 16 -7.6657 0.0097
9 0 17 -5.1091 -0.9873
9 0 18 -13.8964 1.1494
9 0 19 -3.3660 -0.4640
9 0 20 8.6588 1.5480
9 0 21 -9.0271 -0.0018
9 0 22 7.0064 1.3035
9 0 23 2.4263 0.8154
9 0 24 -1.0336 0.9839
9 1 0 2.0516 -3.1741
9 1 1 -3.7663 0.5369
9 1 2 2.3481 -0.2667
9 1 3 -6.8950 0.3892
9 1 4 5.7152 -0.3111
9 1 5 0.1015 0.0575
9 1 6 4.6569 -0.2795
9 1 7 -4.2943 0.0918
9 1 8 3.5467 1.3359
9 1 9 1.7736 0.0571
9 1 10 -0.0938 2.2540
9 1 11 1.8670 0.0564
9 1 12 1.9691 1.4541
9 1 13 -0.7735 0.2804
9 1 14 3.5889 0.5858
9 1 15 1.1046 0.1890
9 1 16 -3.6198 -0.0434
9 1 17 -2.9473 -0.1967
9 1 18 3.2540 -0.5971
9 1 19 0.7381 -0.0765
9 1 20 1.2309 -0.8020
9 1 21 -3.1318 0.0385
9 1 22 4.5726 -0.7839
9 1 23 -6.4616 -0.2254
9 1 24 -2.8768 -0.5922
9 2 0 -2.7347 2.0197
9 2 1 -4.2814 1.3102
9 2 2 0.0357 -1.7236
9 2 3 -1.8208 -0.1104
9 2 4 -1.2765 -1.3733
9 2 5 3.5006 -1.1903
9 2 6 -1.2458 -0.0033
9 2 7 0.7771 -1.0617
9 2 8 1.8795 0.7791
9 2 9 -1.7446 -0.3979
9 2 10 2.7583 1.2777
9 2 11 0.0977 0.6483
9 2 12 1.2340 1.5970
9 2 13 2.1982 0.9282
9 2 14 0.8558 1.2045
9 2 15 -0.5855 0.6651
9 2 16 6.4700 0.0337
9 2 17 2.3736 0.6643
9 2 18 2.7730 -1.0260
9 2 19 -3.7520 0.1171
9 2 20 3.1795 -0.9969
9 2 21 8.0258 -0.6312
9 2 22 4.2163 -0.2669
9 2 23 -1.5128 -0.1318
9 3 0 7.6751 -3.3075
9 3 1 0.4311 -0.6281
9 3 2 -4.2851 3.1931
9 3 3 2.7635 0.1774
9 3 4 -1.8409 2.0313
9 3 5 2.8592 0.4678
9 3 6 2.8886 -0.5809
9 3 7 0.5041 -0.0534
9 3 8 1.6582 -1.0332
9 3 9 -0.2593 -0.2729
9 3 10 -5.1457 -1.2367
9 3 11 1.1893 -0.1584
9 3 12 -0.8691 -1.6162
9 3 13 -1.1841 0.1182
9 3 14 3.8598 -1.1516
9 3 15 -5.2353 0.3220
9 3 16 -9.9142 0.2437
9 3 17 -5.4923 0.2111
9 3 18 4.1785 1.5574
9 3 19 3.7999 0.2426
9 3 20 -5.7326 1.5358
9 3 21 -3.0058 0.3077
9 3 22 3.5880 0.1555
9 3 23 7.6482 -0.0460
9 4 0 -3.1088 1.4402
9 4 1 -2.3722 -0.2611
9 4 2 -0.5861 -1.1138
9 4 3 -2.7280 0.2003
9 4 4 -3.2014 -0.5485
9 4 5 -1.2560 0.6150
9 4 6 -4.4822 0.4480
9 4 7 -0.2923 0.5428
9 4 8 4.6261 0.1786
9 4 9 -0.3026 0.5076
9 4 10 -2.4495 -0.0409
9 4 11 0.8409 0.1951
9 4 12 1.4649 0.1765
9 4 13 -4.2640 -0.6336
9 4 14 2.3464 -0.0352
9 4 15 -1.1932 -0.7232
9 4 16 1.6271 -0.2491
9 4 17 -3.3854 -0.5178
9 4 18 0.3929 -0.3435
9 4 19 -0.1721 -0.5621
9 4 20 -3.5886 0.1364
9 4 21 -0.5316 0.1522
9 4 22 7.0642 0.4516
9 5 0 -2.1083 -3.7601
9 5 1 -1.7575 -1.2388
9 5 2 -7.8899 2.4877
9 5 3 -2.9744 -0.6830
9 5 4 2.0549 1.4844
9 5 5 0.5178 -0.1618
9 5 6 -1.1976 -0.7635
9 5 7 -0.1472 -0.0767
9 5 8 -5.5123 -1.2892
9 5 9 6.3213 -0.2983
9 5 10 2.5054 -1.6411
9 5 11 -5.2833 -0.2794
9 5 12 5.8034 -1.7791
9 5 13 11.6756 -0.2558
9 5 14 1.6099 -1.1902
9 5 15 -4.2028 -0.1582
9 5 16 -5.1505 0.0677
9 5 17 5.6592 -0.1337
9 5 18 -0.0259 1.1218
9 5 19 -3.4240 0.1559
9 5 20 5.4442 0.0526
9 5 21 -9.3961 0.2442
9 6 0 0.3293 0.8188
9 6 1 -0.1094 -0.1219
9 6 2 -3.2107 -0.6862
9 6 3 -2.9214 0.2584
9 6 4 -6.0791 0.0147
9 6 5 0.9518 0.1645
9 6 6 5.4780 0.2574
9 6 7 0.8093 0.0381
9 6 8 -3.1378 -0.3472
9 6 9 -1.6756 0.0141
9 6 10 -0.0477 -0.2688
9 6 11 -4.1872 -0.2014
9 6 12 -4.2658 0.0959
9 6 13 -1.1195 -0.3608
9 6 14 8.8594 0.0866
9 6 15 3.4899 -0.1228
9 6 16 4.0581 0.0269
9 6 17 -15.9209 -0.0298
9 6 18 -7.9604 0.1265
9 6 19 2.0532 0.2222
9 6 20 -6.3061 0.3482
9 7 0 5.0430 -3.2789
9 7 1 -0.1951 -0.6533
9 7 2 -2.8304 0.3703
9 7 3 -3.1433 0.2100
9 7 4 1.7989 -0.0395
9 7 5 -0.1011 0.5327
9 7 6 -2.6011 -0.3245
9 7 7 10.7001 0.6576
9 7 8 -1.3607 0.6807
9 7 9 3.3486 0.4740
9 7 10 -0.8870 0.9977
9 7 11 -3.4957 0.2074
9 7 12 -5.9863 0.5739
9 7 13 -10.3904 0.0223
9 7 14 0.5731 0.1782
9 7 15 -1.3384 -0.3222
9 7 16 2.0010 -0.1167
9 7 17 8.4813 -0.2698
9 7 18 2.9098 -0.6525
9 7 19 -9.1940 0.3342
9 8 0 -4.8318 0.7611
9 8 1 -0.3494 -0.3193
9 8 2 2.5685 0.8105
9 8 3 -4.9380 -0.5822
9 8 4 3.9523 0.7297
9 8 5 4.6391 -1.6811
9 8 6 -5.0191 -0.5199
9 8 7 2.4731 -1.7480
9 8 8 -1.2828 -1.4687
9 8 9 -3.9546 -0.7590
9 8 10 3.0401 -1.1117
9 8 11 -3.3067 -0.2204
9 8 12 -6.0881 -0.3727
9 8 13 -4.2880 0.5106
9 8 14 -3.0393 -0.0176
9 8 15 -0.0968 1.1698
9 8 16 5.9348 0.0889
9 8 17 1.5882 0.9489
9 9 0 -4.3863 -2.1408
9 9 2 -4.5273 -0.3846
9 9 4 -3.0932 -1.0141
9 9 6 -2.2174 0.0790
9 9 8 1.0030 1.7423
9 9 10 2.0259 2.2071
9 9 12 7.5447 1.7167
9 9 14 -6.0702 0.9968
9 9 16 -7.3026 0.1961
10 0 0 -4.2329 2.3167
10 0 1 6.7932 0.4824
10 0 2 -1.1050 2.5642
10 0 3 7.8027 -0.1190
10 0 4 3.6677 1.2490
10 0 5 0.0681 -0.0864
10 0 6 4.0416 -0.5954
10 0 7 -4.5723 -0.2060
10 0 8 -2.4616 -1.8873
10 0 9 -2.6158 -0.1354
10 0 10 2.4872 -2.3649
10 0 11 4.7558 -0.0594
10 0 12 6.4779 -2.4671
10 0 13 1.9646 0.0221
10 0 14 -2.4109 -1.4313
10 0 15 6.4449 0.1994
10 0 16 3.2478 -0.0190
10 0 17 -3.4549 0.2444
10 0 18 -2.0068 0.7709
10 0 19 -10.0095 0.2821
10 0 20 -11.0952 1.2900
10 0 21 7.2464 0.2492
10 0 22 11.6940 1.2968
10 0 23 4.5371 -0.4051
10 1 0 -1.0534 -0.8914
10 1 1 -5.2951 -0.7826
10 1 2 3.9130 0.8125
10 1 3 -2.4411 -0.1035
10 1 4 0.6533 0.5116
10 1 5 7.0379 0.2608
10 1 6 -3.4482 0.2114
10 1 7 8.5389 0.2380
10 1 8 -0.5428 -0.3924
10 1 9 -1.3785 0.1296
10 1 10 1.4840 -1.0124
10 1 11 0.3507 0.0849
10 1 12 0.1463 -0.6989
10 1 13 8.2062 0.0760
10 1 14 -0.0848 -0.3534
10 1 15 -1.0410 0.2707
10 1 16 -2.1801 -0.0734
10 1 17 0.7456 0.4303
10 1 18 -1.8792 0.4320
10 1 19 -2.0672 0.3204
10 1 20 3.3204 0.5433
10 1 21 3.2582 0.1678
10 1 22 0.1850 0.0355
10 1 23 12.4488 0.1088
10 2 0 -5.9408 1.9240
10 2 1 4.5686 -1.2521
10 2 2 -6.3806 -1.7402
10 2 3 -2.4332 -0.0812
10 2 4 -0.9727 -0.9881
10 2 5 -6.6027 0.5696
10 2 6 11.9604 0.4362
10 2 7 2.2035 0.7800
10 2 8 7.6141 0.0621
10 2 9 5.1954 0.5160
10 2 10 -2.5184 -0.4691
10 2 11 -1.8978 -0.4125
10 2 12 -4.6353 -0.3201
10 2 13 0.8249 -0.6746
10 2 14 -2.9484 -0.0805
10 2 15 4.0061 -0.7076
10 2 16 7.4018 0.0127
10 2 17 0.4885 -0.8199
10 2 18 -3.7389 -0.1905
10 2 19 -3.8392 -0.0380
10 2 20 -3.3884 -0.0489
10 2 21 -8.9912 0.4202
10 2 22 -6.5988 0.5518
10 3 0 -2.3872 0.2097
10 3 1 1.6603 0.0946
10 3 2 -1.0822 0.1182
10 3 3 3.9189 -0.4102
10 3 4 -0.3174 0.1243
10 3 5 1.2149 -0.6765
10 3 6 2.8423 -0.3195
10 3 7 5.8680 -0.7095
10 3 8 -0.1276 -0.6095
10 3 9 -1.4139 -0.7126
10 3 10 8.5818 -0.4785
10 3 11 2.4085 -0.1517
10 3 12 -1.6965 -0.5162
10 3 13 0.2694 0.2585
10 3 14 -8.7324 -0.4466
10 3 15 -4.0513 0.4402
10 3 16 -1.8679 -0.1244
10 3 17 -4.1614 0.6164
10 3 18 -5.2987 0.1147
10 3 19 9.9139 0.4897
10 3 20 3.0407 0.0839
10 3 21 -2.4490 -0.2391
10 3 22 5.3671 0.1263
10 4 0 9.8646 1.7346
10 4 1 -0.3970 -0.0072
10 4 2 2.0173 -1.2391
10 4 3 -4.3001 -0.0721
10 4 4 -6.2630 -0.9233
10 4 5 1.6669 -0.0305
10 4 6 -0.1121 0.3948
10 4 7 -2.5050 0.2582
10 4 8 2.8807 0.5363
10 4 9 1.0643 0.0547
10 4 10 -3.0681 0.1914
10 4 11 5.9235 -0.2151
10 4 12 0.0464 0.3774
10 4 13 2.6282 -0.0493
10 4 14 1.3090 0.5784
10 4 15 -3.6371 -0.2982
10 4 16 0.5234 -0.1123
10 4 17 -1.7789 -0.2840
10 4 18 -5.7439 -0.7205
10 4 19 -7.9537 0.0478
10 4 20 0.2906 -0.0070
10 4 21 11.0928 0.0034
10 5 0 -5.2153 0.7201
10 5 1 0.2526 0.3691
10 5 2 1.4061 -0.3821
10 5 3 2.2043 -0.1024
10 5 4 -2.4086 -0.3203
10 5 5 -2.6359 -0.1901
10 5 6 -2.2938 0.0080
10 5 7 -2.0907 -0.2209
10 5 8 4.2377 0.3457
10 5 9 -1.3467 -0.3772
10 5 10 -3.7497 0.3799
10 5 11 0.7574 0.1873
10 5 12 6.1558 0.2611
10 5 13 6.0900 0.6213
10 5 14 1.2040 0.1545
10 5 15 6.0126 0.5186
10 5 16 -5.4096 0.1978
10 5 17 -10.0353 0.4529
10 5 18 -5.1703 0.1027
10 5 19 -6.0807 -0.1489
10 5 20 -2.4823 0.2913
10 6 0 0.1809 1.6217
10 6 1 5.1020 0.8529
10 6 2 -3.4452 -0.2853
10 6 3 7.4926 -0.1582
10 6 4 -0.9710 -0.2854
10 6 5 0.5926 -0.4407
10 6 6 2.9765 -0.0239
10 6 7 -2.5160 -0.2159
10 6 8 -2.6795 -0.4887
10 6 9 0.2910 -0.0764
10 6 10 -2.5449 -0.9294
10 6 11 -2.7458 0.0664
10 6 12 -4.6266 -0.4655
10 6 13 -5.0948 0.1957
10 6 14 1.6241 -0.2775
10 6 15 2.4306 0.3858
10 6 16 -3.7425 -0.3770
10 6 17 5.1382 0.4245
10 6 18 0.8075 0.2176
10 6 19 -9.7960 0.3479
10 7 0 -0.5131 1.0086
10 7 1 -3.1892 0.0451
10 7 2 -1.4163 0.0626
10 7 3 -2.7357 0.0455
10 7 4 -7.6638 0.1987
10 7 5 3.5035 0.1071
10 7 6 5.9348 0.5216
10 7 7 2.1099 -0.3005
10 7 8 7.5998 0.3221
10 7 9 -6.8895 -0.3413
10 7 10 0.7266 -0.3407
10 7 11 -4.0535 0.0728
10 7 12 2.5598 -0.5596
10 7 13 -0.4064 0.0709
10 7 14 3.0781 -0.0169
10 7 15 -1.5426 -0.2095
10 7 16 0.7643 0.2711
10 7 17 -3.7758 -0.9077
10 8 0 -2.7957 0.7358
10 8 1 5.9300 0.8250
10 8 2 -2.8081 -0.5598
10 8 3 -5.9374 -0.5798
10 8 4 7.3027 -0.3992
10 8 5 -1.7617 -0.6457
10 8 6 5.4149 0.2493
10 8 7 4.1162 -0.1973
10 8 8 2.3602 0.1874
10 8 9 6.9876 0.1062
10 8 10 -1.1912 0.0477
10 8 11 -10.5344 -0.0168
10 8 12 5.5658 0.3564
10 8 13 -5.5399 0.3688
10 8 14 -6.4292 0.4584
10 8 15 1.7232 0.9452
10 8 16 0.0859 0.0566
10 9 0 -2.4473 0.7210
10 9 1 -8.8650 -0.1890
10 9 2 2.1691 -0.2869
10 9 3 2.6839 1.1742
10 9 4 -0.5653 -0.3128
10 9 5 2.0252 2.3227
10 9 6 8.2826 0.2142
10 9 7 -2.5510 1.7425
10 9 8 1.6044 0.3929
10 9 9 -0.9707 0.6030
10 9 10 -2.1248 -0.0703
10 9 11 -3.1195 0.0304
10 9 12 -5.0812 0.2008
10 9 13 -2.1333 -0.9433
10 9 14 2.9415 0.3850
10 10 0 7.2579 0.1422
10 10 2 13.7065 -0.1803
10 10 4 -3.8852 -0.1778
10 10 6 -10.9888 0.1995
10 10 8 5.4672 0.0698
10 10 10 11.5609 -0.0014
11 0 0 3.0545 1.7484
11 0 1 7.7451 -0.4945
11 0 2 -3.3854 2.3556
11 0 3 -1.7868 -0.0183
11 0 4 -9.1038 1.0759
11 0 5 -5.4528 -0.0616
11 0 6 7.6892 -0.3826
11 0 7 -0.9648 0.1114
11 0 8 3.6611 -1.4943
11 0 9 2.7711 0.1211
11 0 10 -5.9182 -2.2416
11 0 11 -0.7013 0.0696
11 0 12 -3.0618 -1.9423
11 0 13 1.4431 -0.1524
11 0 14 0.7998 -0.9454
11 0 15 -6.8148 -0.3819
11 0 16 4.0937 0.0932
11 0 17 -3.8184 -0.2001
11 0 18 9.5136 0.8986
11 0 19 6.0899 -0.0251
11 0 20 -17.9594 1.1181
11 0 21 0.6874 0.2440
11 0 22 -3.1681 0.9767
11 0 23 -15.8999 0.5835
11 1 0 -2.2322 -2.9488
11 1 1 -4.1979 0.1508
11 1 2 -0.2976 -0.4361
11 1 3 3.5385 -0.2643
11 1 4 4.5213 -0.3371
11 1 5 -2.9121 -0.2675
11 1 6 -3.8323 -0.2414
11 1 7 -6.4760 -0.1595
11 1 8 -0.4026 1.5424
11 1 9 -1.6550 -0.0576
11 1 10 -0.3451 2.4234
11 1 11 0.0524 -0.1802
11 1 12 0.4999 1.5265
11 1 13 -4.5822 -0.1916
11 1 14 5.4615 0.6915
11 1 15 -0.5302 -0.1892
11 1 16 4.6761 0.1014
11 1 17 -3.8207 -0.3106
11 1 18 -0.6632 -0.5375
11 1 19 4.1066 -0.2389
11 1 20 -0.7682 -1.2506
11 1 21 -4.4803 0.1027
11 1 22 -5.4234 -1.3905
11 2 0 1.5064 1.1170
11 2 1 -2.0917 0.6214
11 2 2 2.5335 -0.5931
11 2 3 -0.7884 0.0577
11 2 4 -0.7915 -0.6152
11 2 5 3.5158 0.0989
11 2 6 -0.7478 0.0375
11 2 7 -5.3831 0.2912
11 2 8 -2.1539 0.3000
11 2 9 0.4840 0.1942
11 2 10 2.0113 0.4019
11 2 11 -0.8099 0.2119
11 2 12 4.8757 0.5488
11 2 13 1.8822 -0.0757
11 2 14 2.4664 0.3962
11 2 15 -1.2907 -0.0737
11 2 16 -12.0088 -0.2748
11 2 17 -3.6745 0.2192
11 2 18 -10.3248 -0.6011
11 2 19 -0.8916 -0.3200
11 2 20 -2.9018 -0.0783
11 2 21 1.6825 -0.0914
11 3 0 -3.7958 -2.5361
11 3 1 4.9771 0.4528
11 3 2 1.7050 1.9670
11 3 3 -4.6730 0.2004
11 3 4 -1.8898 1.3021
11 3 5 -0.7608 -0.1480
11 3 6 -2.6788 -0.3678
11 3 7 -4.5939 -0.3499
11 3 8 3.8777 -0.4321
11 3 9 -2.4585 -0.1839
11 3 10 6.0591 -0.2517
11 3 11 6.5805 0.2403
11 3 12 -4.5082 -0.4593
11 3 13 9.2107 0.6695
11 3 14 -0.1994 -0.2277
11 3 15 -6.6847 0.8138
11 3 16 -7.1706 0.4842
11 3 17 7.1679 0.4490
11 3 18 -0.7958 0.5782
11 3 19 -7.2787 0.0878
11 3 20 -10.8442 -0.5455
11 4 0 -1.0712 0.3889
11 4 1 -2.0969 -0.3023
11 4 2 1.8804 -0.4196
11 4 3 7.4192 -0.0136
11 4 4 7.0072 -0.0350
11 4 5 -3.6198 0.4882
11 4 6 1.2862 0.6749
11 4 7 2.8413 0.5126
11 4 8 -3.0323 0.5765
11 4 9 0.0182 0.2998
11 4 10 -3.0159 0.6688
11 4 11 -5.0305 -0.0603
11 4 12 -1.4199 0.7803
11 4 13 -1.2701 -0.4990
11 4 14 -0.7543 0.3515
11 4 15 8.3478 -0.6386
11 4 16 -3.2839 0.0605
11 4 17 -5.2826 -0.4219
11 4 18 -1.8786 0.1704
11 4 19 -2.6343 0.0886
11 5 0 1.4427 -2.6634
11 5 1 7.8827 0.0747
11 5 2 2.3884 1.2662
11 5 3 3.1713 0.4412
11 5 4 -0.8816 0.7414
11 5 5 4.7193 0.5815
11 5 6 1.1260 -0.6465
11 5 7 0.4589 0.2377
11 5 8 -2.5788 -0.1070
11 5 9 -11.6874 -0.0579
11 5 10 -0.7589 0.4910
11 5 11 -0.1724 -0.0366
11 5 12 2.8681 0.3822
11 5 13 -1.2939 0.2702
11 5 14 -1.4278 0.2685
11 5 15 -13.8283 0.0073
11 5 16 -4.1974 0.0194
11 5 17 -2.0829 -0.2049
11 5 18 1.3186 -0.5600
11 6 0 1.7485 0.2068
11 6 1 -6.7141 -0.0760
11 6 2 3.1815 -0.2773
11 6 3 3.8286 -0.0170
11 6 4 0.8011 0.0550
11 6 5 -1.8213 -0.3827
11 6 6 -0.5110 0.1727
11 6 7 -6.9858 -0.4038
11 6 8 5.4758 0.1394
11 6 9 1.2718 -0.1136
11 6 10 8.2921 0.6335
11 6 11 -4.0781 -0.0433
11 6 12 1.4941 0.6708
11 6 13 0.2243 0.1112
11 6 14 -4.6431 0.0957
11 6 15 5.8125 0.2732
11 6 16 -1.1405 -0.2058
11 6 17 -1.0850 0.9492
11 7 0 2.3177 -2.0675
11 7 1 -4.8367 -0.6157
11 7 2 -2.5799 0.5833
11 7 3 0.1185 -0.1175
11 7 4 6.5535 0.1131
11 7 5 -4.2686 0.3305
11 7 6 4.7059 -0.6093
11 7 7 0.5888 0.5158
11 7 8 2.4561 -0.1639
11 7 9 -10.7411 0.1412
11 7 10 -0.2758 0.4042
11 7 11 -8.0323 -0.3056
11 7 12 -0.2272 0.2166
11 7 13 2.8140 -0.5444
11 7 14 5.0281 -0.0861
11 7 15 -1.2437 -0.9238
11 7 16 -11.3218 -0.2190
11 8 0 10.2296 0.3215
11 8 1 2.0093 0.7999
11 8 2 3.0386 -0.4442
11 8 3 4.5826 0.8192
11 8 4 4.8184 -0.2448
11 8 5 0.7941 0.2189
11 8 6 -5.8906 -0.0253
11 8 7 -4.1597 -0.0774
11 8 8 -1.5764 0.0065
11 8 9 -1.3559 0.2775
11 8 10 5.2840 0.1207
11 8 11 -1.2493 0.2119
11 8 12 9.9202 -0.0205
11 8 13 -5.1049 0.9293
11 8 14 -3.0525 -0.7598
11 9 0 0.5252 -1.2226
11 9 1 10.4797 -0.2145
11 9 2 -1.3673 -0.1727
11 9 3 14.8624 -0.1256
11 9 4 6.1221 0.0114
11 9 5 -0.7050 -0.0304
11 9 6 0.5412 -0.0724
11 9 7 3.7348 0.1712
11 9 8 -0.3545 0.5649
11 9 9 -0.9539 -0.0773
11 9 10 8.3011 0.2304
11 9 11 -0.1162 -0.4909
11 10 0 1.2209 0.2410
11 10 1 -0.6895 -0.6718
11 10 2 -10.0936 0.2754
11 10 3 -4.3741 -1.5296
11 10 4 7.8621 0.3512
11 10 5 3.1050 -2.0911
11 10 6 10.9729 0.1327
11 10 7 3.7082 -1.6198
11 10 8 -3.9267 -0.1468
11 11 0 -5.2061 -0.0409
11 11 2 14.6447 -0.2146
12 0 0 1.4553 2.9868
12 0 1 -1.3590 0.3775
12 0 2 2.9483 2.4157
12 0 3 -0.7088 -0.9985
12 0 4 2.3913 1.2067
12 0 5 -2.3024 -1.5192
12 0 6 -9.3853 -0.6083
12 0 7 3.1206 -1.5506
12 0 8 2.9579 -2.0360
12 0 9 -2.9823 -0.6917
12 0 10 4.3910 -2.5295
12 0 11 -5.0798 0.1300
12 0 12 -2.2494 -2.2669
12 0 13 0.5371 0.9232
12 0 14 0.5058 -1.2206
12 0 15 -10.2258 1.3089
12 0 16 1.6593 0.0830
12 0 17 2.6876 1.1336
12 0 18 -2.6292 1.0783
12 0 19 4.7615 0.7357
12 0 20 9.1329 1.4695
12 0 21 4.1198 -0.0105
12 1 0 -3.7022 -0.8821
12 1 1 4.3604 0.0971
12 1 2 -7.0642 0.5248
12 1 3 -4.2703 1.3918
12 1 4 -4.0245 0.3658
12 1 5 -6.2992 1.0948
12 1 6 -1.9046 0.1883
12 1 7 -1.5712 0.3260
12 1 8 -2.6042 -0.1966
12 1 9 1.1109 -0.0077
12 1 10 6.3097 -0.4716
12 1 11 7.1424 -0.2219
12 1 12 4.9753 -0.1753
12 1 13 -5.2932 -0.3784
12 1 14 1.2376 -0.0232
12 1 15 7.8294 -0.4964
12 1 16 1.7905 0.1499
12 1 17 1.2146 -0.4757
12 1 18 -8.4165 0.4803
12 1 19 -9.3314 -0.7324
12 1 20 -0.2526 -0.0456
12 1 21 -1.6820 -0.2905
12 2 0 -1.6654 1.8171
12 2 1 -0.9797 0.2501
12 2 2 -1.0007 -1.3106
12 2 3 6.5403 0.3773
12 2 4 -2.4028 -0.3363
12 2 5 -4.2013 0.0510
12 2 6 -0.5992 0.7382
12 2 7 -3.0935 0.0890
12 2 8 6.3451 0.5303
12 2 9 0.1312 0.3619
12 2 10 -4.1144 0.2193
12 2 11 3.2342 -0.0163
12 2 12 3.4417 0.4031
12 2 13 2.0424 -0.0995
12 2 14 11.3344 0.4502
12 2 15 -1.0265 -0.1380
12 2 16 -5.2500 0.0664
12 2 17 3.3325 -0.0533
12 2 18 -2.8780 0.0110
12 2 19 0.2122 0.3124
12 2 20 -2.5306 0.4862
12 3 0 -2.0284 0.3974
12 3 1 -0.4107 -0.3955
12 3 2 -0.4956 0.0265
12 3 3 -1.3708 -0.7666
12 3 4 3.9991 -0.2152
12 3 5 1.3596 -0.6434
12 3 6 8.4304 -0.1597
12 3 7 1.3332 -0.7260
12 3 8 -5.4105 -0.1424
12 3 9 0.6050 -0.5539
12 3 10 0.5544 -0.0769
12 3 11 -7.7883 0.3353
12 3 12 6.7589 -0.0442
12 3 13 -3.1073 0.6543
12 3 14 -13.5679 -0.1542
12 3 15 5.3992 0.4766
12 3 16 9.3837 -0.0412
12 3 17 -15.6810 0.0140
12 3 18 -0.0436 0.0189
12 3 19 13.6777 -0.1156
12 4 0 0.7017 1.3593
12 4 1 -1.7001 -0.2090
12 4 2 2.3539 -0.8379
12 4 3 -0.3039 0.3707
12 4 4 9.8968 -0.4765
12 4 5 -4.1015 0.4962
12 4 6 2.3309 0.0342
12 4 7 -2.7176 0.3843
12 4 8 -0.6928 -0.2809
12 4 9 1.3210 0.4070
12 4 10 -2.1570 -0.6045
12 4 11 0.7126 -0.2120
12 4 12 0.1781 -0.4316
12 4 13 -3.5730 -0.6965
12 4 14 1.2399 -0.1838
12 4 15 1.7689 -0.6863
12 4 16 -7.3307 -0.5570
12 4 17 -2.2868 -0.0578
12 4 18 -4.7111 -0.0320
12 5 0 6.3324 0.9178
12 5 1 -7.8390 0.2089
12 5 2 3.2662 -0.7469
12 5 3 2.7953 -0.3680
12 5 4 -2.9611 -0.5683
12 5 5 6.2633 -0.0091
12 5 6 1.7502 0.0054
12 5 7 1.0097 0.0955
12 5 8 -1.3677 0.1945
12 5 9 -6.7906 0.0185
12 5 10 -11.7628 0.1420
12 5 11 -5.2387 0.4376
12 5 12 -3.7291 -0.1555
12 5 13 4.0128 0.0873
12 5 14 5.5049 0.0365
12 5 15 0.2253 -0.6913
12 5 16 0.9025 0.0732
12 5 17 -3.0787 -0.9728
12 6 0 4.1570 1.0118
12 6 1 7.9581 -0.0070
12 6 2 -7.0229 -0.0963
12 6 3 -8.3481 -0.2144
12 6 4 -2.9800 -0.0333
12 6 5 0.3177 -0.3588
12 6 6 2.4074 0.5168
12 6 7 -6.0295 0.0293
12 6 8 5.4302 -0.0581
12 6 9 0.0474 0.0752
12 6 10 -3.0543 -0.6883
12 6 11 -7.2888 -0.0016
12 6 12 -4.2558 -0.5138
12 6 13 0.0064 0.1703
12 6 14 2.9128 -0.3259
12 6 15 -0.1084 0.3322
12 7 0 -6.4274 0.9562
12 7 1 3.5571 -0.8131
12 7 2 4.4273 -0.2000
12 7 3 -4.0476 -0.4468
12 7 4 -11.8884 -0.0920
12 7 5 -0.8888 0.2007
12 7 6 8.6237 0.0043
12 7 7 1.7823 0.4155
12 7 8 2.7566 -0.2700
12 7 9 -3.8715 0.1578
12 7 10 0.1931 -0.4651
12 7 11 0.0329 0.0840
12 7 12 6.1994 -0.4049
12 7 13 -3.1175 -0.9787
12 8 0 -5.0903 0.0490
12 8 1 0.6319 0.1703
12 8 2 2.5323 0.1169
12 8 3 5.9198 -0.2322
12 8 4 2.8977 0.0186
12 8 5 -0.2097 -0.5812
12 8 6 -5.1829 0.3226
12 8 7 5.3285 -0.4013
12 8 8 1.9194 0.3712
12 8 9 9.6100 -0.1774
12 8 10 3.3920 0.0269
12 8 11 -1.0887 -0.1030
12 9 0 5.4475 1.0504
12 9 1 1.2318 -0.4285
12 9 2 9.1858 0.7639
12 9 3 3.2813 0.0314
12 9 4 -17.7571 0.4089
12 9 5 5.6169 0.2590
12 9 6 3.5248 -0.5803
12 9 7 1.1240 0.5333
12 9 8 3.5755 -1.1471
12 10 0 -6.2220 -0.8548
12 10 1 5.6022 -0.3250
13 0 0 3.7698 0.6894
13 0 1 1.4603 -1.1617
13 0 2 2.2590 1.7881
13 0 3 9.0860 -1.5062
13 0 4 -3.5726 0.8512
13 0 5 9.5181 -1.4039
13 0 6 2.9761 -0.2357
13 0 7 0.3615 -0.8511
13 0 8 1.1745 -0.7102
13 0 9 -8.4019 -0.4467
13 0 10 4.7659 -0.9190
13 0 11 -8.5726 -0.0980
13 0 12 10.2992 -0.8384
13 0 13 -3.9509 0.3220
13 0 14 -4.2978 -0.4882
13 0 15 6.7384 0.6919
13 0 16 9.0995 -0.1788
13 0 17 5.1090 0.5842
13 0 18 12.3444 0.2815
13 0 19 2.9221 0.5138
13 0 20 -9.3185 0.4524
13 1 0 0.5319 -1.8216
13 1 1 0.8215 -0.2027
13 1 2 -0.3058 -0.5132
13 1 3 1.2450 0.0124
13 1 4 -0.7045 -0.7994
13 1 5 1.8313 -0.0390
13 1 6 -1.6433 -0.7869
13 1 7 3.6995 0.2998
13 1 8 -0.9010 0.6146
13 1 9 -0.0062 0.3631
13 1 10 0.6693 1.3020
13 1 11 -2.7476 0.1316
13 1 12 3.9374 0.7035
13 1 13 3.4777 -0.1490
13 1 14 3.0926 0.2422
13 1 15 -6.0136 -0.0606
13 1 16 -5.9574 -0.1643
13 1 17 -0.5610 -0.0313
13 1 18 3.9115 -0.8708
13 1 19 6.9182 -0.3228
13 2 0 -4.1169 0.1593
13 2 1 -1.7299 0.1532
13 2 2 -2.6635 0.0661
13 2 3 -4.8824 -0.2451
13 2 4 4.4860 -0.2398
13 2 5 -5.9340 -0.0375
13 2 6 -2.9255 -0.2016
13 2 7 -4.2933 0.2880
13 2 8 1.7298 -0.5610
13 2 9 7.1390 0.2769
13 2 10 6.3456 -0.9299
13 2 11 4.8461 -0.1120
13 2 12 -2.0244 -0.7966
13 2 13 9.5982 -0.5073
13 2 14 -5.8210 -0.5285
13 2 15 -0.3123 -0.1509
13 2 16 -3.9256 -0.3385
13 2 17 0.2584 0.1547
13 2 18 -3.0432 0.3723
13 3 0 -0.7861 -1.5673
13 3 1 2.2089 -0.0261
13 3 2 0.0014 0.9192
13 3 3 -6.4472 -0.0706
13 3 4 6.4407 0.2415
13 3 5 8.9081 -0.3331
13 3 6 -1.0151 -0.6828
13 3 7 13.6584 -0.3845
13 3 8 3.7553 -0.3036
13 3 9 -5.1426 -0.2753
13 3 10 -1.8873 -0.0098
13 3 11 -5.5670 -0.1528
13 3 12 -5.0567 -0.1132
13 3 13 -1.0344 0.1221
13 3 14 1.9569 -0.1978
13 3 15 2.6151 -0.0149
13 3 16 1.1083 0.0367
13 3 17 2.6724 -0.7145
13 4 0 -3.5619 -0.4709
13 4 1 3.2500 -0.3002
13 4 2 -6.9538 0.4432
13 4 3 1.0958 0.0786
13 4 4 -2.0356 0.3105
13 4 5 1.6599 0.1797
13 4 6 3.3721 0.2532
13 4 7 7.2837 -0.0566
13 4 8 5.3003 -0.0515
13 4 9 -0.3438 0.0186
13 4 10 1.5947 -0.3481
13 4 11 1.9132 -0.0018
13 4 12 -8.8410 -0.2394
13 4 13 -5.0550 -0.1984
13 4 14 -1.5433 -0.0745
13 4 15 -9.1987 0.5754
13 4 16 10.1497 0.1964
13 5 0 -1.9238 -1.4621
13 5 1 5.0870 0.4148
13 5 2 -0.5368 0.6170
13 5 3 -8.4554 0.0556
13 5 4 -9.3315 0.1884
13 5 5 -5.6424 -0.2392
13 5 6 3.4171 -0.3812
13 5 7 -4.8745 -0.2268
13 5 8 4.9645 -0.0258
13 5 9 1.7609 -0.2877
13 5 10 5.2367 0.2931
13 5 11 5.9980 0.0251
13 5 12 4.7844 0.1743
13 5 13 6.7516 0.0377
13 5 14 2.5844 0.1504
13 5 15 -0.3801 0.3037
13 6 0 -5.2270 -0.3603
13 6 1 -5.0047 0.1699
13 6 2 -5.4114 0.3716
13 6 3 4.6560 0.5877
13 6 4 2.6219 0.1595
13 6 5 -2.4546 0.3039
13 6 6 -2.1063 -0.0385
13 6 7 1.2885 -0.3757
13 6 8 -2.8039 0.1104
13 6 9 -1.6684 -0.3734
13 6 10 -5.6670 0.2824
13 6 11 -3.0317 -0.0076
13 6 12 -2.8919 0.5837
13 6 13 0.7510 0.7465
13 7 0 1.1775 -0.8390
13 7 1 2.5415 -0.1062
13 7 2 -9.0651 0.4197
13 7 3 5.0582 0.0527
13 7 4 0.4088 0.3908
13 7 5 -1.9515 0.0662
13 7 6 -0.3055 -0.1702
13 7 7 -0.5461 -0.0700
13 7 8 -6.5440 -0.2082
13 7 9 -2.5197 -0.0340
13 7 10 1.8661 -0.1374
13 7 11 7.6283 0.1224
13 8 0 -10.5504 -0.3538
13 8 1 9.2102 0.5082
13 8 2 -8.0094 -0.2244
13 8 3 -0.3763 0.3359
13 8 4 -3.5720 -0.2757
13 8 5 -1.0263 -0.0186
13 8 6 -9.2726 0.0950
13 8 7 -2.7800 -0.6292
14 0 0 -2.4876 2.2533
14 0 1 4.6685 0.3047
14 0 2 3.8803 1.2096
14 0 3 -6.7310 -1.7790
14 0 4 -2.4963 0.4282
14 0 5 -4.4536 -2.2878
14 0 6 -13.2286 -0.3227
14 0 7 -0.8312 -1.8962
14 0 8 -1.6763 -1.0886
14 0 9 5.9139 -1.1043
14 0 10 3.5805 -1.4287
14 0 11 -2.4162 0.1557
14 0 12 2.9249 -1.1166
14 0 13 -3.9498 1.1096
14 0 14 1.2705 -0.5744
14 0 15 0.6365 1.7564
14 0 16 -9.8858 0.2644
14 0 17 -2.2990 1.6914
14 0 18 -3.2878 0.4763
14 0 19 3.6927 0.9789
14 1 0 2.4970 -0.2008
14 1 1 -4.3823 -0.1780
14 1 2 -2.6897 0.0908
14 1 3 0.4869 1.3052
14 1 4 -5.0057 0.2713
14 1 5 0.5342 1.0349
14 1 6 4.5236 0.3918
14 1 7 -1.0495 0.7500
14 1 8 0.2588 0.1656
14 1 9 1.5361 0.3313
14 1 10 4.7391 0.0696
14 1 11 1.0319 -0.0445
14 1 12 -3.0154 0.1433
14 1 13 -0.3713 -0.2877
14 1 14 1.2091 -0.0014
14 1 15 -1.4601 -0.7981
14 1 16 3.5990 0.1324
14 1 17 -0.7288 -1.1327
14 1 18 -15.5112 0.2880
14 2 0 3.6533 1.1636
14 2 1 -0.3076 0.7515
14 2 2 2.2988 -0.6168
14 2 3 -1.3322 0.5836
14 2 4 -10.0900 0.2661
14 2 5 3.6354 0.3849
14 2 6 2.3266 0.9163
14 2 7 5.4076 0.1796
14 2 8 0.9131 0.6397
14 2 9 -0.5189 0.1136
14 2 10 -0.5369 0.5970
14 2 11 0.1450 -0.2243
14 2 12 -1.0787 0.6714
14 2 13 -3.1214 -0.1779
14 2 14 -2.1066 0.5154
14 2 15 2.8222 0.7248
14 2 16 -5.6522 0.4336
14 2 17 -0.2415 0.8865
14 3 0 1.1470 0.9190
14 3 1 -3.3528 -0.6411
14 3 2 -2.8412 -0.3237
14 3 3 -0.5790 -0.9367
14 3 4 -1.7968 -0.0237
14 3 5 -10.1664 -0.6852
14 3 6 5.4068 0.4000
14 3 7 0.2598 -0.2963
14 3 8 0.5098 0.4159
14 3 9 3.6552 -0.0673
14 3 10 2.2854 0.2972
14 3 11 -3.8223 0.1903
14 3 12 6.0574 0.3480
14 3 13 -0.9025 0.0355
14 3 14 1.6913 0.2205
14 3 15 1.8463 -0.4887
14 3 16 -6.7052 0.0603
14 4 0 -1.8348 0.8767
14 4 1 -0.4556 0.2067
14 4 2 -5.1441 -0.4026
14 4 3 4.0245 0.4410
14 4 4 -7.0920 -0.1502
14 4 5 3.6253 0.5788
14 4 6 6.1485 0.1598
14 4 7 1.2019 0.2697
14 4 8 4.8008 0.2155
14 4 9 11.7801 0.0162
14 4 10 0.1355 0.0907
14 4 11 -10.3084 0.1900
14 4 12 0.3517 0.1462
14 4 13 -6.0975 0.4945
14 4 14 10.4978 0.1638
14 5 0 3.1943 1.0333
14 5 1 -5.6582 -0.1954
14 5 2 -2.5244 -0.9880
14 5 3 -0.4785 -0.1435
14 5 4 -1.1689 -0.2107
14 5 5 3.8308 0.1949
14 5 6 -4.6763 0.2096
14 5 7 3.3926 0.6011
14 5 8 12.4539 -0.1623
14 5 9 -3.7519 0.3991
14 5 10 -1.2184 -0.4902
14 5 11 5.5720 -0.1313
14 5 12 4.5810 -0.6028
14 6 0 -7.2733 0.1156
14 6 1 5.2386 0.0364
14 6 2 -3.3873 0.0041
14 6 3 4.3284 -0.5036
14 6 4 -1.4995 -0.3608
14 6 5 -3.1087 -0.2119
14 6 6 -5.3205 0.0575
14 6 7 -11.1012 -0.3546
14 6 8 2.9596 0.3574
14 6 9 -3.2430 -0.0685
14 6 10 10.4899 0.0543
14 7 0 1.6413 1.3442
14 7 1 2.5855 -0.1471
14 7 2 -5.3443 0.0871
14 7 3 5.2511 0.3812
14 7 4 -7.5004 -0.1652
14 7 5 0.7159 0.9116
14 7 6 16.7763 0.0325
14 7 7 -4.7467 0.8433
15 0 0 -10.4075 -0.7412
15 0 1 -1.9706 -0.9836
15 0 2 -4.2675 0.1500
15 0 3 0.8727 -1.8794
15 0 4 -0.8812 -0.0211
15 0 5 0.2567 -2.3251
15 0 6 -7.8478 -0.1102
15 0 7 5.4384 -1.8591
15 0 8 -6.9529 -0.0035
15 0 9 6.8912 -1.0063
15 0 10 -0.1488 -0.0173
15 0 11 -1.2336 -0.0624
15 0 12 8.8622 0.1397
15 0 13 -7.3574 1.0028
15 0 14 -7.4429 0.0463
15 0 15 3.0371 1.0780
15 0 16 -1.9230 0.0249
15 0 17 -6.3586 1.0062
15 1 0 -8.6636 -0.5501
15 1 1 4.9812 -0.3168
15 1 2 0.1654 0.1508
15 1 3 0.6227 0.4095
15 1 4 1.8701 0.0926
15 1 5 -6.2738 0.7090
15 1 6 -6.6053 -0.2253
15 1 7 -4.3095 0.6302
15 1 8 2.5325 0.1921
15 1 9 -4.8757 0.2330
15 1 10 7.8753 0.5258
15 1 11 -0.6211 -0.1179
15 1 12 -2.5825 -0.1565
15 1 13 8.0653 -0.1291
15 1 14 -7.4720 -0.4428
15 1 15 -1.5989 -0.4773
15 1 16 -3.1547 -0.3317
15 2 0 0.2821 -0.9580
15 2 1 -12.7978 0.5843
15 2 2 -2.6122 0.4251
15 2 3 -10.6775 0.3517
15 2 4 1.0510 -0.2660
15 2 5 -0.6371 0.1476
15 2 6 -3.3336 -0.4972
15 2 7 -5.4164 0.3134
15 2 8 8.0029 -0.6042
15 2 9 -4.1693 0.5108
15 2 10 -2.1350 -0.7609
15 2 11 -6.2186 -0.0012
15 2 12 3.1705 -0.1034
15 2 13 -2.5235 0.1020
15 2 14 -3.8242 0.1103
15 2 15 0.5156 0.3898
15 3 0 -5.5004 -0.7204
15 3 1 0.7701 -0.1067
15 3 2 -2.5909 0.0278
15 3 3 -3.6886 -0.3387
15 3 4 4.0520 0.0107
15 3 5 -1.7049 -0.5251
15 3 6 6.1925 -0.3498
15 3 7 6.7520 -0.3468
15 3 8 1.3445 -0.0849
15 3 9 1.0309 -0.1974
15 3 10 4.1234 -0.1612
15 3 11 -8.9652 -0.2617
15 3 12 -3.7216 -0.3770
15 3 13 -4.2303 -0.2609
15 4 0 3.9173 -1.1284
15 4 1 10.3403 0.0569
15 4 2 8.4058 0.6536
15 4 3 -1.5183 0.2960
15 4 4 -1.4772 0.2953
15 4 5 4.6552 0.1785
15 4 6 7.0630 -0.1145
15 4 7 8.0548 -0.1198
15 4 8 3.8622 0.0286
15 4 9 -7.4700 -0.3971
15 4 10 10.6311 0.2642
15 4 11 3.2920 0.2805
15 5 0 0.5230 -0.1263
15 5 1 -12.3318 0.3384
15 5 2 5.7460 0.1033
15 5 3 5.6503 0.0571
15 5 4 3.4476 0.3894
15 5 5 1.1807 -0.2650
15 5 6 7.4130 -0.0180
15 5 7 9.7042 -0.3711
15 5 8 -2.2579 0.0851
15 5 9 5.6349 0.1026
15 6 0 0.8244 -1.1452
15 6 1 4.2812 -0.1111
15 6 2 0.2208 -0.0989
15 6 3 -0.6641 -0.7995
15 6 4 6.8839 -0.2689
15 6 5 0.8041 -0.4976
16 0 0 4.9126 1.1995
16 0 1 5.4517 -0.2339
16 0 2 -13.0890 0.0812
16 0 3 -0.7083 -1.8832
16 0 4 -10.5855 -0.0360
16 0 5 -1.7276 -2.1495
16 0 6 8.4686 -0.2164
16 0 7 4.4765 -1.7644
16 0 8 6.2682 -0.5644
16 0 9 -8.1128 -0.9725
16 0 10 -0.8549 -0.5872
16 0 11 4.1697 0.2094
16 0 12 -0.6988 -0.4956
16 0 13 -4.2640 1.3134
16 0 14 -6.6986 -0.1574
16 0 15 4.0482 1.7332
16 1 0 3.6352 0.4721
16 1 1 1.9538 0.1558
16 1 2 -0.5960 -0.0066
16 1 3 4.1108 0.8353
16 1 4 -5.1768 -0.1014
16 1 5 1.2779 0.1466
16 1 6 -3.5327 -0.1342
16 1 7 1.5796 -0.0043
16 1 8 0.8836 -0.3140
16 1 9 -3.2304 0.1390
16 1 10 6.9113 -0.2723
16 1 11 -3.8708 -0.1417
16 1 12 -11.1319 -0.2408
16 1 13 -1.2080 -0.6700
16 1 14 -6.0227 0.0867
16 2 0 -6.0820 0.7561
16 2 1 11.2364 0.1386
16 2 2 5.0611 -0.3176
16 2 3 -2.3200 0.0267
16 2 4 9.8937 -0.0777
16 2 5 -5.7237 0.1385
16 2 6 8.9185 0.2002
16 2 7 -2.1077 -0.0719
16 2 8 6.8539 0.1138
16 2 9 -3.7321 0.0274
16 2 10 2.2176 0.3756
16 2 11 1.2348 0.1708
16 2 12 0.2440 -0.0960
16 3 0 2.9848 1.2821
16 3 1 -13.1700 -0.3163
16 3 2 4.3073 -0.2249
16 3 3 6.5082 -0.1681
16 3 4 6.0430 -0.4117
16 3 5 5.6706 0.0403
16 3 6 11.0129 0.1601
16 3 7 0.1071 0.4191
16 3 8 7.0263 -0.2113
16 3 9 8.2736 0.0990
16 3 10 -13.1235 -0.4270
16 4 0 21.8611 -0.1702
16 4 1 6.8064 -0.3113
16 4 2 -0.8898 0.1724
16 4 3 -8.7696 -0.7596
16 4 4 7.3117 -0.1046
16 4 5 9.1100 -0.1946
16 4 6 -5.0702 -0.4151
16 4 7 5.5035 -0.3508
16 4 8 1.0849 -0.3957
16 5 0 -7.8895 1.4384
16 5 1 -0.3940 0.3879
16 5 2 4.7522 0.2325
16 5 3 -0.8217 0.9456
17 0 0 -0.1357 -1.9683
17 0 1 -3.1658 -0.7077
17 0 2 8.1610 -0.7417
17 0 3 13.5207 -1.4225
17 0 4 -0.4861 -0.3214
17 0 5 5.5177 -1.6500
17 0 6 -9.3541 0.3059
17 0 7 -10.0912 -1.3311
17 0 8 10.9803 1.1327
17 0 9 6.3482 -0.7564
17 0 10 -8.5488 1.4809
17 0 11 -2.7849 0.0057
17 0 12 -2.3981 1.4438
17 1 0 3.2739 0.4786
17 1 1 0.3687 -0.2604
17 1 2 -1.0692 0.1421
17 1 3 -13.0551 0.2932
17 1 4 -2.1971 0.3231
17 1 5 -1.5876 0.6300
17 1 6 1.1200 0.2940
17 1 7 -0.3779 0.3462
17 1 8 -1.1026 -0.3084
17 1 9 6.9923 0.0187
17 1 10 -3.7317 -0.6882
17 1 11 -0.0563 -0.4414
17 2 0 8.7979 -1.8739
17 2 1 -5.4724 0.3079
17 2 2 -3.8699 0.1863
17 2 3 10.3947 0.1621
17 2 4 4.0352 0.1085
17 2 5 3.2983 0.2858
17 2 6 9.6581 0.3562
17 2 7 6.0588 0.4236
17 2 8 -6.5390 0.9059
17 2 9 5.7643 0.4128
17 3 0 -2.6467 0.5871
17 3 1 6.1163 0.0886
17 3 2 10.4266 0.4064
17 3 3 5.9032 0.1726
17 3 4 1.1785 0.2111
17 3 5 3.6820 -0.3535
17 3 6 0.1075 0.0066
18 0 0 0.7418 0.4260
18 0 1 -14.3670 -0.4724
18 0 2 -6.4622 -0.8372
18 0 3 -9.7613 -1.5323
18 0 4 -10.9055 -0.7095
18 0 5 -0.3556 -1.3742
18 0 6 -1.0532 0.0137
18 0 7 12.2552 -0.9518
18 0 8 -20.9121 0.0688
18 0 9 6.8185 -0.5151
18 1 0 3.0455 0.9713
18 1 1 1.7322 0.4060
18 1 2 0.8073 0.3300
18 1 3 -0.9895 0.9758
18 1 4 -5.1777 0.1414
18 1 5 -1.7459 0.4460
18 1 6 -6.5644 -0.1354
18 1 7 14.9685 0.3439
18 2 0 8.9085 0.0151
18 2 1 9.5964 -0.3220
18 2 2 4.5108 -0.1918
19 0 0 -6.7597 -2.3752
19 0 1 3.3688 -0.4122
19 0 2 -3.4379 -1.4854
19 0 3 -20.5056 -0.4841
0 0 0 0.0 0.0
;
_shelx_fab_checksum              82298
_olex2_submission_special_instructions 'No special instructions were received'
loop_
_space_group_symop_operation_xyz
'x, y, z'
'x-y, x, z+1/2'
'-y, x-y, z'
'-x, -y, z+1/2'
'-x+y, -x, z'
'y, -x+y, z+1/2'
'x-y, -y, -z'
'-x, -x+y, -z'
'y, x, -z'
'-y, -x, -z+1/2'
'-x+y, y, -z+1/2'
'x, x-y, -z+1/2'
'-x, -y, -z'
'-x+y, -x, -z-1/2'
'y, -x+y, -z'
'x, y, -z-1/2'
'x-y, x, -z'
'-y, x-y, -z-1/2'
'-x+y, y, z'
'x, x-y, z'
'-y, -x, z'
'y, x, z-1/2'
'x-y, -y, z-1/2'
'-x, -x+y, z-1/2'
loop_
_atom_site_label
_atom_site_type_symbol
_atom_site_fract_x
_atom_site_fract_y
_atom_site_fract_z
_atom_site_U_iso_or_equiv
_atom_site_adp_type
_atom_site_occupancy
_atom_site_site_symmetry_order
_atom_site_calc_flag
_atom_site_refinement_flags_posn
_atom_site_refinement_flags_adp
_atom_site_refinement_flags_occupancy
Cu1 Cu 0.52364(3) 0.04728(6) 0.54627(5) 0.0455(5) Uani 1 2 d S TU P
C1 C 0.6414(4) 0.0893(4) 0.4584(3) 0.0530(17) Uani 1 1 d . U .
O2 O 0.6282(3) 0.1093(2) 0.5070(2) 0.0584(13) Uani 1 1 d . U .
C5 C 0.7785(3) 0.2215(3) 0.4567(4) 0.045(2) Uani 1 2 d S TU P
H5 H 0.764025 0.235974 0.490849 0.055 Uiso 1 2 calc RS T P
O6 O 0.5595(3) -0.0302(3) 0.57131(19) 0.0563(13) Uani 1 1 d . U .
C7 C 0.7487(4) 0.1244(4) 0.3813(3) 0.0545(17) Uani 1 1 d . U .
H7 H 0.712429 0.073912 0.363928 0.065 Uiso 1 1 calc R . .
C8 C 0.7247(4) 0.1459(4) 0.4312(3) 0.0491(16) Uani 1 1 d . U .
C11 C 0.8244(3) 0.1756(3) 0.3572(4) 0.054(2) Uani 1 2 d S TU P
O13 O 0.5583(3) 0.1167(6) 0.6223(3) 0.099(3) Uani 1 2 d S TU P
C0AA C 0.8261(4) 0.1739(4) 0.250000 0.048(3) Uani 1 4 d S TU P
C2 C 0.8469(3) 0.1531(3) 0.2991(5) 0.069(3) Uani 1 2 d S TU P
N6 N 0.7573(8) 0.1869(8) 0.250000 0.053(4) Uani 0.5 2 d S TU P
C9 C 0.9288(8) 0.1570(8) 0.3011(6) 0.061(3) Uani 0.5 1 d . U .
H9 H 0.963679 0.176462 0.335132 0.073 Uiso 0.5 1 calc R . .
F1 F 1.0589(4) 0.1179(8) 0.2912(4) 0.163(4) Uani 1 2 d S TU P
F3 F 1.1121(5) 0.2241(9) 0.250000 0.223(9) Uani 1 4 d S TU P
C10 C 0.9614(13) 0.1522(13) 0.250000 0.062(4) Uani 0.5 2 d S TU P
C22 C 1.0413(16) 0.1541(18) 0.250000 0.093(6) Uani 0.5 2 d S TU P
loop_
_atom_site_aniso_label
_atom_site_aniso_U_11
_atom_site_aniso_U_22
_atom_site_aniso_U_33
_atom_site_aniso_U_23
_atom_site_aniso_U_13
_atom_site_aniso_U_12
Cu1 0.0517(7) 0.0257(7) 0.0504(8) -0.0015(5) -0.0007(3) 0.0128(3)
C1 0.055(4) 0.042(4) 0.054(4) 0.004(4) -0.013(3) 0.018(3)
O2 0.057(3) 0.032(2) 0.064(3) -0.004(2) 0.000(2) 0.004(2)
C5 0.041(3) 0.041(3) 0.051(5) 0.004(2) -0.004(2) 0.019(4)
O6 0.069(3) 0.042(3) 0.059(3) -0.003(2) -0.005(3) 0.029(2)
C7 0.063(4) 0.032(4) 0.057(4) 0.000(3) -0.010(3) 0.015(3)
C8 0.046(4) 0.041(4) 0.051(4) -0.004(3) -0.010(3) 0.015(3)
C11 0.039(4) 0.039(4) 0.065(5) 0.004(2) -0.004(2) 0.007(4)
O13 0.092(4) 0.110(7) 0.102(6) -0.060(5) -0.030(3) 0.055(3)
C0AA 0.039(5) 0.039(5) 0.052(6) 0.000 0.000 0.009(6)
C2 0.069(5) 0.069(5) 0.081(6) -0.002(2) 0.002(2) 0.043(6)
N6 0.039(8) 0.063(10) 0.041(8) 0.000 0.000 0.014(8)
C9 0.050(7) 0.064(9) 0.054(8) 0.002(7) -0.005(6) 0.019(7)
F1 0.115(4) 0.277(12) 0.151(8) 0.050(8) 0.025(4) 0.138(6)
F3 0.078(6) 0.111(10) 0.49(3) 0.000 0.000 0.055(5)
C10 0.076(9) 0.058(12) 0.055(10) 0.000 0.000 0.036(10)
C22 0.074(10) 0.110(18) 0.095(17) 0.000 0.000 0.046(9)
loop_
_atom_type_symbol
_atom_type_description
_atom_type_scat_dispersion_real
_atom_type_scat_dispersion_imag
_atom_type_scat_source
C C 0.0033 0.0016 'International Tables Vol C Tables 4.2.6.8 and 6.1.1.4'
H H 0.0000 0.0000 'International Tables Vol C Tables 4.2.6.8 and 6.1.1.4'
N N 0.0061 0.0033 'International Tables Vol C Tables 4.2.6.8 and 6.1.1.4'
O O 0.0106 0.0060 'International Tables Vol C Tables 4.2.6.8 and 6.1.1.4'
Cu Cu 0.3201 1.2651 'International Tables Vol C Tables 4.2.6.8 and 6.1.1.4'
F F 0.0171 0.0103 'International Tables Vol C Tables 4.2.6.8 and 6.1.1.4'
loop_
_geom_angle_atom_site_label_1
_geom_angle_atom_site_label_2
_geom_angle_atom_site_label_3
_geom_angle
_geom_angle_site_symmetry_1
_geom_angle_site_symmetry_3
O2 Cu1 Cu1 84.22(14) 19_655 13_656
O2 Cu1 Cu1 84.22(14) . 13_656
O2 Cu1 O2 90.1(3) . 19_655
O2 Cu1 O6 88.5(2) . .
O2 Cu1 O6 88.5(2) 19_655 19_655
O2 Cu1 O6 167.66(19) 19_655 .
O2 Cu1 O6 167.66(19) . 19_655
O2 Cu1 O13 97.9(2) . .
O2 Cu1 O13 97.9(2) 19_655 .
O6 Cu1 Cu1 83.44(14) 19_655 13_656
O6 Cu1 Cu1 83.44(14) . 13_656
O6 Cu1 O6 90.3(3) . 19_655
O6 Cu1 O13 94.5(2) . .
O6 Cu1 O13 94.5(2) 19_655 .
O13 Cu1 Cu1 177.0(3) . 13_656
O2 C1 C8 117.5(6) . .
O6 C1 O2 126.1(7) 7_556 .
O6 C1 C8 116.2(6) 7_556 .
C1 O2 Cu1 123.1(4) . .
C8 C5 C8 119.8(9) 21_665 .
C1 O6 Cu1 123.2(5) 7_556 .
C11 C7 C8 121.4(7) . .
C5 C8 C1 119.2(6) . .
C5 C8 C7 119.1(7) . .
C7 C8 C1 121.7(6) . .
C7 C11 C7 119.1(9) . 21_665
C7 C11 C2 120.2(5) 21_665 .
C7 C11 C2 120.2(5) . .
C2 C0AA C2 120.3(14) . 16_556
C2 C0AA N6 117.6(6) 16_556 .
C2 C0AA N6 117.6(6) 16_556 21_665
C2 C0AA N6 117.6(6) . 21_665
C2 C0AA N6 117.6(6) . .
N6 C0AA N6 42.9(11) . 21_665
C0AA C2 C11 122.4(10) . .
C0AA C2 C9 116.6(10) . .
C0AA C2 C9 116.6(10) . 21_665
C9 C2 C11 111.4(9) 21_665 .
C9 C2 C11 111.4(9) . .
C9 C2 C9 64.7(11) . 21_665
N6 N6 C0AA 68.6(6) 21_665 .
C2 C9 C9 57.7(6) . 21_665
C10 C9 C2 116.3(14) . .
C10 C9 C9 100.9(11) . 21_665
C22 F1 C22 61(2) . 19_755
C22 F3 C22 61(3) 19_755 .
C9 C10 C9 123(2) . 16_556
C9 C10 C22 118.2(10) 16_556 .
C9 C10 C22 118.2(10) . .
F1 C22 F1 96(2) . 16_556
F1 C22 C10 119.7(14) 16_556 .
F1 C22 C10 119.7(14) . .
F1 C22 C22 59.7(11) . 19_755
F1 C22 C22 59.7(11) 16_556 19_755
F3 C22 F1 97.1(16) . .
F3 C22 F1 97.1(16) . 16_556
F3 C22 C10 122(2) . .
F3 C22 C22 59.5(13) . 19_755
C22 C22 C10 178.8(14) 19_755 .
loop_
_geom_bond_atom_site_label_1
_geom_bond_atom_site_label_2
_geom_bond_distance
_geom_bond_site_symmetry_2
Cu1 Cu1 2.657(2) 13_656
Cu1 O2 1.922(4) .
Cu1 O2 1.922(4) 19_655
Cu1 O6 1.948(5) .
Cu1 O6 1.948(5) 19_655
Cu1 O13 2.110(7) .
C1 O2 1.267(8) .
C1 O6 1.247(8) 7_556
C1 C8 1.505(9) .
C5 C8 1.384(7) 21_665
C5 C8 1.384(7) .
O6 C1 1.247(8) 7_556
C7 C8 1.384(9) .
C7 C11 1.361(8) .
C11 C7 1.361(8) 21_665
C11 C2 1.550(14) .
C0AA C2 1.334(13) 16_556
C0AA C2 1.334(13) .
C0AA N6 1.410(19) .
C0AA N6 1.410(19) 21_665
C2 C9 1.482(15) .
C2 C9 1.482(15) 21_665
N6 N6 1.03(3) 21_665
C9 C9 1.59(3) 21_665
C9 C10 1.369(16) .
F1 C22 1.311(19) 19_755
F1 C22 1.311(19) .
F3 C22 1.30(3) 19_755
F3 C22 1.30(3) .
C10 C9 1.369(16) 16_556
C10 C22 1.46(3) .
C22 F1 1.311(19) 16_556
C22 C22 1.32(5) 19_755
loop_
_smtbx_masks_void_nr
_smtbx_masks_void_average_x
_smtbx_masks_void_average_y
_smtbx_masks_void_average_z
_smtbx_masks_void_volume
_smtbx_masks_void_count_electrons
1 -0.769 -0.725 -0.831 4193.5 1491.6
