#------------------------------------------------------------------------------
#$Date: 2019-11-17 10:03:21 +0200 (Sun, 17 Nov 2019) $
#$Revision: 229246 $
#$URL: file:///home/coder/svn-repositories/cod/cif/7/04/52/7045281.cif $
#------------------------------------------------------------------------------
#
# This file is available in the Crystallography Open Database (COD),
# http://www.crystallography.net/
#
# All data on this site have been placed in the public domain by the
# contributors.
#
data_7045281
loop_
_publ_author_name
'Cheplakova, Anastasia M.'
'Kovalenko, Konstantin A.'
'Samsonenko, Denis G.'
'Lazarenko, Vladimir A.'
'Khrustalev, Victor N.'
'Vinogradov, Andrey S.'
'Karpov, Victor M.'
'Platonov, Vyacheslav E.'
'Fedin, Vladimir P.'
_publ_section_title
;
 Metal-organic frameworks based on octafluorobiphenyl-4,4'-dicarboxylate:
 synthesis, crystal structure, and surface functionality.
;
_journal_issue                   10
_journal_name_full
'Dalton transactions (Cambridge, England : 2003)'
_journal_page_first              3283
_journal_page_last               3297
_journal_paper_doi               10.1039/c7dt04566b
_journal_volume                  47
_journal_year                    2018
_chemical_absolute_configuration ad
_chemical_formula_sum            'C44 H35 F16 O13.5 Zn2'
_chemical_formula_weight         1214.46
_space_group_crystal_system      monoclinic
_space_group_IT_number           9
_space_group_name_Hall           'C -2yc'
_space_group_name_H-M_alt        'C 1 c 1'
_symmetry_space_group_name_Hall  'C -2yc'
_symmetry_space_group_name_H-M   'C 1 c 1'
_atom_sites_solution_hydrogens   geom
_atom_sites_solution_primary     direct
_atom_sites_solution_secondary   difmap
_audit_creation_method           SHELXL-2014/7
_audit_update_record
;
2017-11-24 deposited with the CCDC.
2018-01-15 downloaded from the CCDC.
;
_cell_angle_alpha                90
_cell_angle_beta                 99.357(3)
_cell_angle_gamma                90
_cell_formula_units_Z            4
_cell_length_a                   15.6866(5)
_cell_length_b                   21.3744(7)
_cell_length_c                   16.2434(5)
_cell_measurement_reflns_used    7668
_cell_measurement_temperature    140(2)
_cell_measurement_theta_max      28.87
_cell_measurement_theta_min      3.94
_cell_volume                     5373.8(3)
_computing_cell_refinement       'CrysAlisPro 1.171.38.41 (Rigaku OD, 2015)'
_computing_data_collection       'CrysAlisPro 1.171.38.41 (Rigaku OD, 2015)'
_computing_data_reduction        'CrysAlisPro 1.171.38.41 (Rigaku OD, 2015)'
_computing_molecular_graphics    'ShelXle (H\"ubschle, 2011)'
_computing_publication_material  'CIFTAB-2014 (Sheldrick, 2015)'
_computing_structure_refinement  'SHELXL-2014 (Sheldrick, 2015)'
_computing_structure_solution    'SHELXT-2014 (Sheldrick, 2015)'
_diffrn_ambient_temperature      140(2)
_diffrn_detector                 'CCD plate'
_diffrn_detector_area_resol_mean 10.6168
_diffrn_detector_type            AtlasS2
_diffrn_measured_fraction_theta_full 0.997
_diffrn_measured_fraction_theta_max 0.997
_diffrn_measurement_device       'four-circle diffractometer'
_diffrn_measurement_device_type  'New Xcalibur, AtlasS2'
_diffrn_measurement_method       '\w scans'
_diffrn_radiation_monochromator  graphite
_diffrn_radiation_probe          x-ray
_diffrn_radiation_source         'fine-focus sealed tube'
_diffrn_radiation_type           MoK\a
_diffrn_radiation_wavelength     0.71073
_diffrn_reflns_av_R_equivalents  0.0502
_diffrn_reflns_av_unetI/netI     0.0603
_diffrn_reflns_Laue_measured_fraction_full 0.997
_diffrn_reflns_Laue_measured_fraction_max 0.997
_diffrn_reflns_limit_h_max       15
_diffrn_reflns_limit_h_min       -18
_diffrn_reflns_limit_k_max       25
_diffrn_reflns_limit_k_min       -20
_diffrn_reflns_limit_l_max       19
_diffrn_reflns_limit_l_min       -19
_diffrn_reflns_number            12896
_diffrn_reflns_point_group_measured_fraction_full 0.797
_diffrn_reflns_point_group_measured_fraction_max 0.794
_diffrn_reflns_theta_full        25.242
_diffrn_reflns_theta_max         25.350
_diffrn_reflns_theta_min         3.314
_diffrn_source                   'sealed X-ray tube'
_exptl_absorpt_coefficient_mu    1.006
_exptl_absorpt_correction_T_max  1.00000
_exptl_absorpt_correction_T_min  0.84203
_exptl_absorpt_correction_type   multi-scan
_exptl_absorpt_process_details
;
CrysAlisPro 1.171.38.41 (Rigaku Oxford Diffraction, 2015)
Empirical absorption correction using spherical harmonics,
implemented in SCALE3 ABSPACK scaling algorithm.
;
_exptl_crystal_colour            colorless
_exptl_crystal_density_diffrn    1.501
_exptl_crystal_description       block
_exptl_crystal_F_000             2444
_exptl_crystal_size_max          0.27
_exptl_crystal_size_mid          0.15
_exptl_crystal_size_min          0.12
_refine_diff_density_max         1.012
_refine_diff_density_min         -0.709
_refine_diff_density_rms         0.142
_refine_ls_abs_structure_details
;
 Flack x determined using 2473 quotients [(I+)-(I-)]/[(I+)+(I-)]
 (Parsons, Flack and Wagner, Acta Cryst. B69 (2013) 249-259).
;
_refine_ls_abs_structure_Flack   -0.012(18)
_refine_ls_extinction_method     none
_refine_ls_goodness_of_fit_ref   1.183
_refine_ls_hydrogen_treatment    constr
_refine_ls_matrix_type           full
_refine_ls_number_parameters     775
_refine_ls_number_reflns         7800
_refine_ls_number_restraints     893
_refine_ls_restrained_S_all      1.127
_refine_ls_R_factor_all          0.0697
_refine_ls_R_factor_gt           0.0626
_refine_ls_shift/su_max          0.000
_refine_ls_shift/su_mean         0.000
_refine_ls_structure_factor_coef Fsqd
_refine_ls_weighting_details
'w=1/[\s^2^(Fo^2^)+(0.0001P)^2^+135.6800P] where P=(Fo^2^+2Fc^2^)/3'
_refine_ls_weighting_scheme      calc
_refine_ls_wR_factor_gt          0.1776
_refine_ls_wR_factor_ref         0.1802
_reflns_Friedel_coverage         0.592
_reflns_Friedel_fraction_full    0.596
_reflns_Friedel_fraction_max     0.592
_reflns_number_gt                7321
_reflns_number_total             7800
_reflns_threshold_expression     >2\s(I)
_cod_data_source_file            c7dt04566b2.cif
_cod_data_source_block           sn619
_cod_depositor_comments
'Adding full bibliography for 7045279--7045284.cif.'
_cod_original_formula_sum        'C44 H35 F16 O13.50 Zn2'
_cod_database_code               7045281
_shelx_shelxl_version_number     2014/7
_shelx_space_group_comment
;
The symmetry employed for this shelxl refinement is uniquely defined
by the following loop, which should always be used as a source of
symmetry information in preference to the above space-group names.
They are only intended as comments.
;
_shelx_estimated_absorpt_t_min   0.773
_shelx_estimated_absorpt_t_max   0.889
_shelx_res_file
;
 
    sn619.res created by SHELXL-2014/7
 
 
TITL sn619 in Cc; 140K; Xcalibur
CELL  0.71073  15.6866  21.3744  16.2434   90.000   99.357   90.000
ZERR    4.000   0.0005   0.0007   0.0005    0.000    0.003    0.000
LATT -7
SYMM X, -Y, 1/2+Z
SFAC C   H   O  F  ZN
UNIT 176 140 54 64 8
 
TEMP -133
LIST 4
 
L.S. 6
BOND $H
FMAP 2
PLAN 5
 
SIMU 0.01 0.02 C21 C22 C23 C24
SIMU 0.01 0.02 C11 C12 C12' C13 C14
SIMU 0.01 0.02 O3 > C34
 
ISOR 0.01 0.01 O12
 
EXYZ C11 C11'
EADP C11 C11'
EXYZ C13 C13'
EADP C13 C13'
 
RIGU
 
DFIX 1.44 0.02 O2M C21M, O2M C24M
DFIX 1.48 0.02 C21M C22M, C22M C23M, C23M, C24M
DFIX 1.44 0.02 O4 C41, O4 C44
DFIX 1.48 0.02 C41 C42, C42 C43, C43, C44
DFIX 1.44 0.02 O5 C51, O5 C54
DFIX 1.48 0.02 C51 C52, C52 C53, C53, C54
 
SIMU 0.01 0.02 O2M C21M C22M C23M C24M
SIMU 0.01 0.02 O4 C41 C42 C43 C44
SIMU 0.01 0.02 O5 C51 C52 C53 C54
 
OMIT  10  20  -8
OMIT   3  13 -16
OMIT   8  18  -6
OMIT   0   6 -18
OMIT   1   9 -17
OMIT   9  19  -7
OMIT   2  10 -18
OMIT   2  12 -16
OMIT  10  16  -1
OMIT  12  16   0
OMIT  12  18  -1
OMIT   0   8 -15
OMIT   1  11 -13
OMIT  -2   2 -17
OMIT  11  19  -5
OMIT  10  18  -4
OMIT   2  12 -15
OMIT  12   0   8
OMIT   9   7   8
OMIT   1  11 -12
OMIT  11  19  -4
 
ACTA
SIZE 0.27 0.15 0.12
 
WGHT    0.000100  135.680023
FVAR       0.51004
ZN1   5    0.735067    0.476021    0.412745    11.00000    0.02243    0.01022 =
         0.01168    0.00018   -0.00218    0.00152
ZN2   5    0.634380    0.493286    0.591666    11.00000    0.02082    0.01200 =
         0.01225   -0.00205   -0.00186   -0.00380
O1M   3    0.700662    0.409196    0.319804    11.00000    0.02791    0.01801 =
         0.01609   -0.00641   -0.00091   -0.00025
O2M   3    0.524254    0.547350    0.562651    11.00000    0.03349    0.03760 =
         0.04292    0.00325   -0.00580    0.01241
PART   1
C21M  1    0.437695    0.531133    0.547427    10.50000    0.03972    0.05431 =
         0.05717    0.00809   -0.00617    0.00922
AFIX  23
H21C  2    0.413319    0.531509    0.599946    10.50000   -1.20000
H21D  2    0.430259    0.488736    0.522764    10.50000   -1.20000
AFIX   0
C22M  1    0.394214    0.577957    0.488789    10.50000    0.04909    0.06833 =
         0.06904    0.01735   -0.00904    0.01093
AFIX  23
H22C  2    0.342759    0.559268    0.454142    10.50000   -1.20000
H22D  2    0.375121    0.613781    0.519871    10.50000   -1.20000
AFIX   0
C23M  1    0.455261    0.599081    0.435919    10.50000    0.04978    0.06876 =
         0.06504    0.02051   -0.00977    0.01367
AFIX  23
H23C  2    0.442457    0.641973    0.414411    10.50000   -1.20000
H23D  2    0.458395    0.570098    0.388964    10.50000   -1.20000
AFIX   0
C24M  1    0.534479    0.596573    0.500539    10.50000    0.04509    0.05247 =
         0.05885    0.01705   -0.00726    0.01378
AFIX  23
H24C  2    0.585419    0.587170    0.473817    10.50000   -1.20000
H24D  2    0.543880    0.637636    0.528750    10.50000   -1.20000
AFIX   0
PART   0
O11   3    0.787834    0.545643    0.496672    11.00000    0.03026    0.01364 =
         0.01428   -0.00080   -0.00057   -0.00630
O12   3    0.706253    0.570414    0.593229    11.00000    0.02840    0.00797 =
         0.02793   -0.00898    0.00748   -0.01063
O13   3    1.171863    0.952498    0.842459    11.00000    0.03010    0.01054 =
         0.01334   -0.00056   -0.00263   -0.00642
O14   3    1.138224    0.994580    0.716364    11.00000    0.02497    0.01933 =
         0.01080   -0.00267   -0.00327   -0.00778
C101  1    0.769263    0.576677    0.554911    11.00000    0.02385    0.01273 =
         0.01826    0.00412   -0.00092   -0.00607
C102  1    0.828835    0.629287    0.585225    11.00000    0.01935    0.01495 =
         0.02118    0.00178    0.00323   -0.00033
C103  1    0.875311    0.631517    0.666156    11.00000    0.02487    0.01584 =
         0.02118    0.00403    0.00237   -0.00689
C104  1    0.926006    0.679746    0.695741    11.00000    0.02349    0.02018 =
         0.02104    0.00121   -0.00014   -0.00540
C105  1    0.933381    0.732804    0.648523    11.00000    0.01910    0.01907 =
         0.02250   -0.00158    0.00179   -0.00394
C106  1    0.888047    0.731591    0.567816    11.00000    0.02157    0.01909 =
         0.02274    0.00530   -0.00221   -0.00838
C107  1    0.838816    0.681963    0.536653    11.00000    0.02212    0.01793 =
         0.02254    0.00366   -0.00273   -0.00645
C108  1    1.135933    0.952442    0.767518    11.00000    0.01955    0.01625 =
         0.01190   -0.00633    0.00202   -0.00249
C109  1    1.082799    0.893875    0.740963    11.00000    0.02291    0.01713 =
         0.01078   -0.00524   -0.00027   -0.00423
C110  1    1.117982    0.836584    0.744460    11.00000    0.02316    0.01994 =
         0.01977   -0.00348   -0.00168   -0.00326
C111  1    1.070770    0.783530    0.716286    11.00000    0.02627    0.01498 =
         0.02275   -0.00282    0.00143   -0.00339
C112  1    0.984374    0.787632    0.682314    11.00000    0.02389    0.01897 =
         0.01907   -0.00262    0.00198   -0.00580
C113  1    0.948846    0.846262    0.682595    11.00000    0.02264    0.02086 =
         0.02590   -0.00062    0.00014   -0.00331
C114  1    0.995780    0.897854    0.709526    11.00000    0.02377    0.01731 =
         0.02331   -0.00126   -0.00034   -0.00258
F11   4    0.869286    0.581708    0.716332    11.00000    0.04221    0.02592 =
         0.02424    0.00923   -0.00865   -0.01610
F12   4    0.969495    0.676836    0.774787    11.00000    0.03939    0.03036 =
         0.01883    0.00378   -0.00601   -0.01495
F13   4    0.891927    0.781193    0.517533    11.00000    0.04077    0.01822 =
         0.02514    0.00569   -0.00103   -0.01066
F14   4    0.797264    0.683681    0.458302    11.00000    0.03995    0.02958 =
         0.02114    0.00606   -0.00855   -0.01361
F15   4    1.202923    0.828273    0.775331    11.00000    0.02471    0.02322 =
         0.03620   -0.00109   -0.00618   -0.00110
F16   4    1.112003    0.727888    0.718875    11.00000    0.02809    0.01849 =
         0.03915   -0.00566   -0.00498   -0.00120
F17   4    0.863495    0.853317    0.652537    11.00000    0.02084    0.02447 =
         0.04871   -0.00471   -0.00278   -0.00230
F18   4    0.955512    0.953977    0.704092    11.00000    0.02974    0.01787 =
         0.04883   -0.00881   -0.00500    0.00160
O21   3    0.787483    0.406247    0.493013    11.00000    0.02483    0.01767 =
         0.01359    0.00179   -0.00566    0.00352
O22   3    0.742067    0.434082    0.613285    11.00000    0.02966    0.01816 =
         0.01520    0.00467   -0.00318    0.00893
O23   3    1.057529    0.088582    1.049358    11.00000    0.02788    0.02531 =
         0.01953   -0.00184   -0.00046    0.00578
O24   3    1.118905    0.035964    0.959779    11.00000    0.01700    0.01091 =
         0.02783    0.00192    0.00181   -0.00328
C201  1    0.784563    0.402865    0.569286    11.00000    0.02203    0.01522 =
         0.01661    0.00075   -0.00498    0.00054
C202  1    0.837664    0.351023    0.618286    11.00000    0.02407    0.02112 =
         0.01670    0.00066   -0.00085    0.00538
C203  1    0.798585    0.296440    0.637639    11.00000    0.02164    0.01885 =
         0.01793    0.00048   -0.00589    0.00265
C204  1    0.842042    0.252374    0.689829    11.00000    0.02478    0.01974 =
         0.02374    0.00117   -0.00168    0.00465
C205  1    0.927812    0.261056    0.726049    11.00000    0.02307    0.01742 =
         0.01418   -0.00241    0.00017    0.00684
C206  1    0.967201    0.314524    0.702992    11.00000    0.02190    0.02384 =
         0.02453    0.00705   -0.00401    0.00331
C207  1    0.923550    0.358479    0.649418    11.00000    0.02489    0.02127 =
         0.02071    0.00881   -0.00149    0.00142
C208  1    1.074045    0.082345    0.977811    11.00000    0.01980    0.01938 =
         0.01705    0.00054   -0.00633    0.00441
C209  1    1.040631    0.128590    0.911635    11.00000    0.01860    0.01479 =
         0.01403    0.00498    0.00154    0.00668
C210  1    1.038024    0.191564    0.928517    11.00000    0.02114    0.01457 =
         0.01958    0.00008   -0.00218    0.00650
C211  1    1.003433    0.234610    0.867984    11.00000    0.02154    0.01010 =
         0.01728    0.00215   -0.00005    0.00230
C212  1    0.970072    0.216036    0.786885    11.00000    0.01817    0.01836 =
         0.02042    0.00232    0.00094    0.00357
C213  1    0.972587    0.152949    0.770741    11.00000    0.02545    0.01773 =
         0.01486    0.00025   -0.00329    0.00742
C214  1    1.006727    0.109480    0.830696    11.00000    0.02498    0.01638 =
         0.01787    0.00448    0.00084    0.00609
F21   4    0.715116    0.287561    0.606166    11.00000    0.02533    0.03651 =
         0.03574    0.00897   -0.01118   -0.00217
F22   4    0.798002    0.202632    0.710932    11.00000    0.03369    0.02348 =
         0.04391    0.01157   -0.00936   -0.00644
F23   4    1.050709    0.323245    0.733138    11.00000    0.02337    0.03848 =
         0.04595    0.01542   -0.00635    0.00024
F24   4    0.965577    0.409807    0.632274    11.00000    0.03379    0.03345 =
         0.05281    0.02419   -0.00875   -0.00832
F25   4    1.069228    0.214049    1.003823    11.00000    0.03669    0.02264 =
         0.01952   -0.00219   -0.00782    0.00469
F26   4    1.001133    0.294677    0.889107    11.00000    0.05157    0.01012 =
         0.02401   -0.00010   -0.00622    0.00637
F27   4    0.941330    0.131917    0.694563    11.00000    0.05659    0.02824 =
         0.01526   -0.00410   -0.01235    0.01235
F28   4    1.005749    0.049754    0.810862    11.00000    0.04943    0.01598 =
         0.01959    0.00008   -0.01145    0.01189
O1    3    0.853460    0.487202    0.367835    11.00000    0.02874    0.01761 =
         0.02559    0.00231    0.00626    0.00029
PART   1
C11   1    0.871908    0.544807    0.327610    10.50000    0.03337    0.03251 =
         0.04807    0.01366    0.00752   -0.00303
AFIX  23
H11A  2    0.836279    0.579667    0.343413    10.50000   -1.20000
H11B  2    0.861508    0.540308    0.266132    10.50000   -1.20000
AFIX   0
C12   1    0.968261    0.555486    0.360947    10.50000    0.03431    0.04051 =
         0.05366    0.01376    0.00706   -0.00424
AFIX  23
H12A  2    0.976454    0.577999    0.414922    10.50000   -1.20000
H12B  2    0.996456    0.579355    0.320582    10.50000   -1.20000
AFIX   0
C13   1    1.003847    0.487851    0.371535    10.50000    0.03553    0.04779 =
         0.06179    0.01655    0.00899    0.00120
AFIX  23
H13A  2    1.007460    0.467487    0.317470    10.50000   -1.20000
H13B  2    1.060501    0.485655    0.408573    10.50000   -1.20000
AFIX   0
PART   2
C11'  1    0.871908    0.544807    0.327610    10.50000    0.03337    0.03251 =
         0.04807    0.01366    0.00752   -0.00303
AFIX  23
H11C  2    0.856648    0.581364    0.359698    10.50000   -1.20000
H11D  2    0.838636    0.547012    0.270414    10.50000   -1.20000
AFIX   0
C12'  1    0.967989    0.543875    0.325162    10.50000    0.03478    0.04247 =
         0.05578    0.01574    0.00941   -0.00287
AFIX  23
H12C  2    0.978453    0.541950    0.266732    10.50000   -1.20000
H12D  2    0.995675    0.582164    0.351422    10.50000   -1.20000
AFIX   0
C13'  1    1.003847    0.487851    0.371535    10.50000    0.03553    0.04779 =
         0.06179    0.01655    0.00899    0.00120
AFIX  23
H13C  2    1.053974    0.499161    0.414215    10.50000   -1.20000
H13D  2    1.022632    0.456657    0.333141    10.50000   -1.20000
AFIX   0
PART   0
C14   1    0.931662    0.462229    0.411937    11.00000    0.03202    0.04635 =
         0.06395    0.02092    0.00931    0.00498
AFIX  23
H14A  2    0.930844    0.415969    0.408893    11.00000   -1.20000
H14B  2    0.939273    0.474797    0.471344    11.00000   -1.20000
AFIX   0
O2    3    0.789868    0.299941    0.311851    11.00000    0.04151    0.02644 =
         0.03983   -0.00444    0.00337    0.00778
C21   1    0.731927    0.253698    0.276302    11.00000    0.05564    0.03492 =
         0.05778   -0.00464   -0.00692    0.00117
AFIX  23
H21A  2    0.744918    0.241094    0.221015    11.00000   -1.20000
H21B  2    0.671805    0.269402    0.269259    11.00000   -1.20000
AFIX   0
C22   1    0.743676    0.198557    0.336463    11.00000    0.06626    0.04530 =
         0.06857    0.00765   -0.01311   -0.00474
AFIX  23
H22A  2    0.687902    0.177498    0.338764    11.00000   -1.20000
H22B  2    0.784923    0.167675    0.320166    11.00000   -1.20000
AFIX   0
C23   1    0.778423    0.228220    0.417482    11.00000    0.06659    0.05416 =
         0.06017    0.00787   -0.00351   -0.00220
AFIX  23
H23A  2    0.811737    0.198053    0.456345    11.00000   -1.20000
H23B  2    0.731814    0.246665    0.444121    11.00000   -1.20000
AFIX   0
C24   1    0.835727    0.277761    0.390415    11.00000    0.05774    0.04065 =
         0.04415   -0.00097   -0.00128    0.00684
AFIX  23
H24A  2    0.845122    0.312122    0.431766    11.00000   -1.20000
H24B  2    0.892445    0.260021    0.383545    11.00000   -1.20000
AFIX   0
PART   2
O3    3    0.518178    0.663856    0.507303    10.50000    0.05346    0.03255 =
         0.02675    0.01011    0.01952    0.01160
C31   1    0.556111    0.672065    0.435032    10.50000    0.04580    0.03902 =
         0.02395    0.00996    0.01327    0.01099
AFIX  23
H31A  2    0.512165    0.668355    0.384117    10.50000   -1.20000
H31B  2    0.601842    0.640513    0.432621    10.50000   -1.20000
AFIX   0
C32   1    0.596461    0.741674    0.443413    10.50000    0.04354    0.04315 =
         0.02336    0.01039    0.01197    0.00922
AFIX  23
H32A  2    0.652751    0.743357    0.423394    10.50000   -1.20000
H32B  2    0.556621    0.772512    0.412119    10.50000   -1.20000
AFIX   0
C33   1    0.606610    0.752545    0.533298    10.50000    0.06167    0.04731 =
         0.02516    0.00744    0.01362    0.00016
AFIX  23
H33A  2    0.667204    0.745275    0.559824    10.50000   -1.20000
H33B  2    0.590533    0.796059    0.544961    10.50000   -1.20000
AFIX   0
C34   1    0.551319    0.710026    0.563643    10.50000    0.06684    0.04352 =
         0.03166    0.00476    0.02114    0.00363
AFIX  23
H34A  2    0.583182    0.689681    0.614210    10.50000   -1.20000
H34B  2    0.502546    0.733501    0.580490    10.50000   -1.20000
AFIX   0
O4    3    0.396600    0.489382    0.451977    10.50000    0.03745    0.05884 =
         0.04748    0.00562   -0.01013    0.00799
C41   1    0.362365    0.533408    0.389887    10.50000    0.04919    0.06580 =
         0.05477    0.00821   -0.01149    0.00961
AFIX  23
H41A  2    0.405130    0.543395    0.353226    10.50000   -1.20000
H41B  2    0.345717    0.572573    0.415681    10.50000   -1.20000
AFIX   0
C42   1    0.285734    0.502178    0.342248    10.50000    0.05784    0.07799 =
         0.06550    0.00691   -0.01520    0.00425
AFIX  23
H42A  2    0.233078    0.526698    0.346471    10.50000   -1.20000
H42B  2    0.291775    0.499273    0.282642    10.50000   -1.20000
AFIX   0
C43   1    0.278487    0.439412    0.376628    10.50000    0.05170    0.07377 =
         0.06516    0.00221   -0.01103    0.00399
AFIX  23
H43A  2    0.299807    0.407359    0.340951    10.50000   -1.20000
H43B  2    0.217776    0.429789    0.381508    10.50000   -1.20000
AFIX   0
C44   1    0.333318    0.441639    0.460041    10.50000    0.04140    0.06278 =
         0.05824    0.00418   -0.00637    0.00689
AFIX  23
H44A  2    0.298686    0.452976    0.503626    10.50000   -1.20000
H44B  2    0.361548    0.400761    0.474352    10.50000   -1.20000
AFIX   0
PART   0
O5    3    1.172095    0.535250    0.534979    10.50000    0.12516    0.08980 =
         0.08307   -0.00102    0.02030    0.03764
C51   1    1.164878    0.601527    0.528340    10.50000    0.12514    0.08743 =
         0.07867   -0.00066    0.01810    0.03327
AFIX  23
H51A  2    1.152112    0.615276    0.469420    10.50000   -1.20000
H51B  2    1.217821    0.622709    0.556472    10.50000   -1.20000
AFIX   0
C52   1    1.091708    0.612391    0.571920    10.50000    0.12686    0.08315 =
         0.07761   -0.00287    0.01886    0.03589
AFIX  23
H52A  2    1.098187    0.653586    0.600104    10.50000   -1.20000
H52B  2    1.037434    0.612938    0.531156    10.50000   -1.20000
AFIX   0
C53   1    1.087335    0.563501    0.633216    10.50000    0.12829    0.08464 =
         0.08165    0.00000    0.02235    0.03628
AFIX  23
H53A  2    1.027307    0.548426    0.630819    10.50000   -1.20000
H53B  2    1.109113    0.578747    0.690316    10.50000   -1.20000
AFIX   0
C54   1    1.143211    0.513688    0.609086    10.50000    0.12749    0.08691 =
         0.08286    0.00060    0.02078    0.03775
AFIX  23
H54A  2    1.192977    0.506353    0.653951    10.50000   -1.20000
H54B  2    1.110457    0.474146    0.598185    10.50000   -1.20000
 
AFIX   0
HKLF 4
 
REM  sn619 in Cc; 140K; Xcalibur
REM R1 =  0.0626 for    7321 Fo > 4sig(Fo)  and  0.0697 for all    7800 data
REM    775 parameters refined using    893 restraints
 
END
 
WGHT      0.0001    135.6751
 
REM Highest difference peak  1.012,  deepest hole -0.709,  1-sigma level  0.142
Q1    1   0.6830  0.4474  0.4341  11.00000  0.05    1.01
Q2    1   0.7869  0.4514  0.3902  11.00000  0.05    0.91
Q3    1   0.6806  0.4639  0.5680  11.00000  0.05    0.87
Q4    1   0.7955  0.5071  0.3890  11.00000  0.05    0.86
Q5    1   0.5805  0.4651  0.6070  11.00000  0.05    0.81
;
_shelx_res_checksum              55720
loop_
_space_group_symop_operation_xyz
'x, y, z'
'x, -y, z+1/2'
'x+1/2, y+1/2, z'
'x+1/2, -y+1/2, z+1/2'
loop_
_atom_site_label
_atom_site_type_symbol
_atom_site_fract_x
_atom_site_fract_y
_atom_site_fract_z
_atom_site_U_iso_or_equiv
_atom_site_adp_type
_atom_site_occupancy
_atom_site_site_symmetry_order
_atom_site_calc_flag
_atom_site_refinement_flags_posn
_atom_site_refinement_flags_adp
_atom_site_refinement_flags_occupancy
_atom_site_disorder_assembly
_atom_site_disorder_group
Zn1 Zn 0.73507(9) 0.47602(7) 0.41274(9) 0.0153(3) Uani 1 1 d . U . . .
Zn2 Zn 0.63438(10) 0.49329(7) 0.59167(9) 0.0155(3) Uani 1 1 d . U . . .
O1M O 0.7007(6) 0.4092(4) 0.3198(6) 0.021(2) Uani 1 1 d . U . . .
O2M O 0.5243(7) 0.5473(5) 0.5627(7) 0.039(3) Uani 1 1 d D U . . .
C21M C 0.4377(15) 0.5311(17) 0.547(2) 0.052(5) Uani 0.5 1 d D U P A 1
H21C H 0.4133 0.5315 0.5999 0.062 Uiso 0.5 1 calc R U P A 1
H21D H 0.4303 0.4887 0.5228 0.062 Uiso 0.5 1 calc R U P A 1
C22M C 0.394(2) 0.578(2) 0.489(3) 0.064(6) Uani 0.5 1 d D U P A 1
H22C H 0.3428 0.5593 0.4541 0.077 Uiso 0.5 1 calc R U P A 1
H22D H 0.3751 0.6138 0.5199 0.077 Uiso 0.5 1 calc R U P A 1
C23M C 0.455(2) 0.599(2) 0.436(2) 0.063(6) Uani 0.5 1 d D U P A 1
H23C H 0.4425 0.6420 0.4144 0.076 Uiso 0.5 1 calc R U P A 1
H23D H 0.4584 0.5701 0.3890 0.076 Uiso 0.5 1 calc R U P A 1
C24M C 0.534(2) 0.5966(17) 0.501(2) 0.054(5) Uani 0.5 1 d D U P A 1
H24C H 0.5854 0.5872 0.4738 0.065 Uiso 0.5 1 calc R U P A 1
H24D H 0.5439 0.6376 0.5287 0.065 Uiso 0.5 1 calc R U P A 1
O11 O 0.7878(6) 0.5456(4) 0.4967(6) 0.020(2) Uani 1 1 d . U . . .
O12 O 0.7063(6) 0.5704(4) 0.5932(6) 0.021(2) Uani 1 1 d . U . . .
O13 O 1.1719(6) 0.9525(4) 0.8425(5) 0.019(2) Uani 1 1 d . U . . .
O14 O 1.1382(6) 0.9946(4) 0.7164(5) 0.019(2) Uani 1 1 d . U . . .
C101 C 0.7693(9) 0.5767(6) 0.5549(8) 0.019(3) Uani 1 1 d . U . . .
C102 C 0.8288(9) 0.6293(6) 0.5852(8) 0.019(3) Uani 1 1 d . U . . .
C103 C 0.8753(9) 0.6315(6) 0.6662(9) 0.021(3) Uani 1 1 d . U . . .
C104 C 0.9260(9) 0.6797(7) 0.6957(8) 0.022(3) Uani 1 1 d . U . . .
C105 C 0.9334(9) 0.7328(7) 0.6485(8) 0.020(3) Uani 1 1 d . U . . .
C106 C 0.8880(9) 0.7316(6) 0.5678(8) 0.022(3) Uani 1 1 d . U . . .
C107 C 0.8388(9) 0.6820(7) 0.5367(9) 0.022(3) Uani 1 1 d . U . . .
C108 C 1.1359(8) 0.9524(6) 0.7675(8) 0.016(2) Uani 1 1 d . U . . .
C109 C 1.0828(9) 0.8939(6) 0.7410(7) 0.017(2) Uani 1 1 d . U . . .
C110 C 1.1180(9) 0.8366(6) 0.7445(8) 0.022(3) Uani 1 1 d . U . . .
C111 C 1.0708(9) 0.7835(6) 0.7163(9) 0.022(3) Uani 1 1 d . U . . .
C112 C 0.9844(9) 0.7876(6) 0.6823(8) 0.021(3) Uani 1 1 d . U . . .
C113 C 0.9488(9) 0.8463(7) 0.6826(9) 0.024(3) Uani 1 1 d . U . . .
C114 C 0.9958(9) 0.8979(7) 0.7095(9) 0.022(3) Uani 1 1 d . U . . .
F11 F 0.8693(6) 0.5817(4) 0.7163(5) 0.032(2) Uani 1 1 d . U . . .
F12 F 0.9695(6) 0.6768(4) 0.7748(5) 0.031(2) Uani 1 1 d . U . . .
F13 F 0.8919(6) 0.7812(4) 0.5175(5) 0.0288(19) Uani 1 1 d . U . . .
F14 F 0.7973(6) 0.6837(4) 0.4583(5) 0.032(2) Uani 1 1 d . U . . .
F15 F 1.2029(5) 0.8283(4) 0.7753(5) 0.0293(19) Uani 1 1 d . U . . .
F16 F 1.1120(5) 0.7279(4) 0.7189(5) 0.0297(19) Uani 1 1 d . U . . .
F17 F 0.8635(5) 0.8533(4) 0.6525(6) 0.032(2) Uani 1 1 d . U . . .
F18 F 0.9555(6) 0.9540(4) 0.7041(6) 0.033(2) Uani 1 1 d . U . . .
O21 O 0.7875(6) 0.4062(5) 0.4930(6) 0.020(2) Uani 1 1 d . U . . .
O22 O 0.7421(6) 0.4341(4) 0.6133(5) 0.022(2) Uani 1 1 d . U . . .
O23 O 1.0575(6) 0.0886(5) 1.0494(6) 0.025(2) Uani 1 1 d . U . . .
O24 O 1.1189(6) 0.0360(4) 0.9598(6) 0.019(2) Uani 1 1 d . U . . .
C201 C 0.7846(9) 0.4029(6) 0.5693(8) 0.019(2) Uani 1 1 d . U . . .
C202 C 0.8377(9) 0.3510(7) 0.6183(8) 0.021(3) Uani 1 1 d . U . . .
C203 C 0.7986(9) 0.2964(6) 0.6376(8) 0.020(3) Uani 1 1 d . U . . .
C204 C 0.8420(9) 0.2524(7) 0.6898(9) 0.023(3) Uani 1 1 d . U . . .
C205 C 0.9278(9) 0.2611(6) 0.7260(8) 0.019(2) Uani 1 1 d . U . . .
C206 C 0.9672(9) 0.3145(7) 0.7030(9) 0.024(3) Uani 1 1 d . U . . .
C207 C 0.9236(9) 0.3585(7) 0.6494(8) 0.023(3) Uani 1 1 d . U . . .
C208 C 1.0740(9) 0.0823(7) 0.9778(8) 0.020(3) Uani 1 1 d . U . . .
C209 C 1.0406(8) 0.1286(6) 0.9116(8) 0.016(2) Uani 1 1 d . U . . .
C210 C 1.0380(9) 0.1916(6) 0.9285(8) 0.019(3) Uani 1 1 d . U . . .
C211 C 1.0034(9) 0.2346(6) 0.8680(8) 0.017(3) Uani 1 1 d . U . . .
C212 C 0.9701(9) 0.2160(6) 0.7869(9) 0.019(3) Uani 1 1 d . U . . .
C213 C 0.9726(9) 0.1529(7) 0.7707(8) 0.020(3) Uani 1 1 d . U . . .
C214 C 1.0067(9) 0.1095(7) 0.8307(8) 0.020(3) Uani 1 1 d . U . . .
F21 F 0.7151(5) 0.2876(4) 0.6062(5) 0.034(2) Uani 1 1 d . U . . .
F22 F 0.7980(5) 0.2026(4) 0.7109(6) 0.035(2) Uani 1 1 d . U . . .
F23 F 1.0507(5) 0.3232(4) 0.7331(6) 0.037(2) Uani 1 1 d . U . . .
F24 F 0.9656(6) 0.4098(4) 0.6323(6) 0.042(2) Uani 1 1 d . U . . .
F25 F 1.0692(5) 0.2140(4) 1.0038(5) 0.0277(19) Uani 1 1 d . U . . .
F26 F 1.0011(6) 0.2947(4) 0.8891(5) 0.030(2) Uani 1 1 d . U . . .
F27 F 0.9413(6) 0.1319(4) 0.6946(5) 0.035(2) Uani 1 1 d . U . . .
F28 F 1.0057(6) 0.0498(4) 0.8109(5) 0.030(2) Uani 1 1 d . U . . .
O1 O 0.8535(6) 0.4872(4) 0.3678(6) 0.024(2) Uani 1 1 d . U . . .
C11 C 0.8719(11) 0.5448(8) 0.3276(11) 0.038(3) Uani 0.5 1 d . U P B 1
H11A H 0.8363 0.5797 0.3434 0.045 Uiso 0.5 1 calc R U P B 1
H11B H 0.8615 0.5403 0.2661 0.045 Uiso 0.5 1 calc R U P B 1
C12 C 0.968(3) 0.5555(19) 0.361(3) 0.043(5) Uani 0.5 1 d . U P B 1
H12A H 0.9765 0.5780 0.4149 0.051 Uiso 0.5 1 calc R U P B 1
H12B H 0.9965 0.5794 0.3206 0.051 Uiso 0.5 1 calc R U P B 1
C13 C 1.0038(12) 0.4879(9) 0.3715(13) 0.048(3) Uani 0.5 1 d . U P B 1
H13A H 1.0075 0.4675 0.3175 0.058 Uiso 0.5 1 calc R U P B 1
H13B H 1.0605 0.4857 0.4086 0.058 Uiso 0.5 1 calc R U P B 1
C11' C 0.8719(11) 0.5448(8) 0.3276(11) 0.038(3) Uani 0.5 1 d . U P B 2
H11C H 0.8566 0.5814 0.3597 0.045 Uiso 0.5 1 calc R U P B 2
H11D H 0.8386 0.5470 0.2704 0.045 Uiso 0.5 1 calc R U P B 2
C12' C 0.968(3) 0.5439(19) 0.325(3) 0.044(5) Uani 0.5 1 d . U P B 2
H12C H 0.9785 0.5419 0.2667 0.053 Uiso 0.5 1 calc R U P B 2
H12D H 0.9957 0.5822 0.3514 0.053 Uiso 0.5 1 calc R U P B 2
C13' C 1.0038(12) 0.4879(9) 0.3715(13) 0.048(3) Uani 0.5 1 d . U P B 2
H13C H 1.0540 0.4992 0.4142 0.058 Uiso 0.5 1 calc R U P B 2
H13D H 1.0226 0.4567 0.3331 0.058 Uiso 0.5 1 calc R U P B 2
C14 C 0.9317(11) 0.4622(9) 0.4119(13) 0.047(4) Uani 1 1 d . U . . .
H14A H 0.9308 0.4160 0.4089 0.057 Uiso 1 1 calc R U . B 1
H14B H 0.9393 0.4748 0.4713 0.057 Uiso 1 1 calc R U . B 1
O2 O 0.7899(7) 0.2999(5) 0.3119(7) 0.036(3) Uani 1 1 d . U . . .
C21 C 0.7319(13) 0.2537(9) 0.2763(13) 0.051(4) Uani 1 1 d . U . . .
H21A H 0.7449 0.2411 0.2210 0.061 Uiso 1 1 calc R U . . .
H21B H 0.6718 0.2694 0.2693 0.061 Uiso 1 1 calc R U . . .
C22 C 0.7437(15) 0.1986(10) 0.3365(13) 0.063(4) Uani 1 1 d . U . . .
H22A H 0.6879 0.1775 0.3388 0.075 Uiso 1 1 calc R U . . .
H22B H 0.7849 0.1677 0.3202 0.075 Uiso 1 1 calc R U . . .
C23 C 0.7784(14) 0.2282(10) 0.4175(13) 0.062(4) Uani 1 1 d . U . . .
H23A H 0.8117 0.1981 0.4563 0.074 Uiso 1 1 calc R U . . .
H23B H 0.7318 0.2467 0.4441 0.074 Uiso 1 1 calc R U . . .
C24 C 0.8357(13) 0.2778(9) 0.3904(12) 0.049(4) Uani 1 1 d . U . . .
H24A H 0.8451 0.3121 0.4318 0.058 Uiso 1 1 calc R U . . .
H24B H 0.8924 0.2600 0.3835 0.058 Uiso 1 1 calc R U . . .
O3 O 0.5182(15) 0.6639(10) 0.5073(13) 0.036(4) Uani 0.5 1 d . U P C 2
C31 C 0.556(2) 0.6721(16) 0.435(2) 0.035(5) Uani 0.5 1 d . U P C 2
H31A H 0.5122 0.6684 0.3841 0.042 Uiso 0.5 1 calc R U P C 2
H31B H 0.6018 0.6405 0.4326 0.042 Uiso 0.5 1 calc R U P C 2
C32 C 0.596(2) 0.7417(16) 0.4434(18) 0.036(5) Uani 0.5 1 d . U P C 2
H32A H 0.6528 0.7434 0.4234 0.043 Uiso 0.5 1 calc R U P C 2
H32B H 0.5566 0.7725 0.4121 0.043 Uiso 0.5 1 calc R U P C 2
C33 C 0.607(3) 0.7525(18) 0.533(2) 0.044(5) Uani 0.5 1 d . U P C 2
H33A H 0.6672 0.7453 0.5598 0.053 Uiso 0.5 1 calc R U P C 2
H33B H 0.5905 0.7961 0.5450 0.053 Uiso 0.5 1 calc R U P C 2
C34 C 0.551(3) 0.7100(18) 0.564(2) 0.046(5) Uani 0.5 1 d . U P C 2
H34A H 0.5832 0.6897 0.6142 0.055 Uiso 0.5 1 calc R U P C 2
H34B H 0.5025 0.7335 0.5805 0.055 Uiso 0.5 1 calc R U P C 2
O4 O 0.3966(15) 0.4894(12) 0.4520(15) 0.050(5) Uani 0.5 1 d D U P D 2
C41 C 0.362(2) 0.5334(17) 0.390(2) 0.059(6) Uani 0.5 1 d D U P D 2
H41A H 0.4051 0.5434 0.3532 0.071 Uiso 0.5 1 calc R U P D 2
H41B H 0.3457 0.5726 0.4157 0.071 Uiso 0.5 1 calc R U P D 2
C42 C 0.286(3) 0.5022(19) 0.342(3) 0.070(7) Uani 0.5 1 d D U P D 2
H42A H 0.2331 0.5267 0.3465 0.084 Uiso 0.5 1 calc R U P D 2
H42B H 0.2918 0.4993 0.2826 0.084 Uiso 0.5 1 calc R U P D 2
C43 C 0.278(3) 0.4394(19) 0.377(2) 0.066(6) Uani 0.5 1 d D U P D 2
H43A H 0.2998 0.4074 0.3410 0.079 Uiso 0.5 1 calc R U P D 2
H43B H 0.2178 0.4298 0.3815 0.079 Uiso 0.5 1 calc R U P D 2
C44 C 0.333(2) 0.4416(17) 0.460(2) 0.056(6) Uani 0.5 1 d D U P D 2
H44A H 0.2987 0.4530 0.5036 0.067 Uiso 0.5 1 calc R U P D 2
H44B H 0.3615 0.4008 0.4744 0.067 Uiso 0.5 1 calc R U P D 2
O5 O 1.172(3) 0.5352(17) 0.535(2) 0.099(8) Uani 0.5 1 d D U P . .
C51 C 1.165(4) 0.6015(19) 0.528(3) 0.097(9) Uani 0.5 1 d D U P . .
H51A H 1.1521 0.6153 0.4694 0.116 Uiso 0.5 1 calc R U P . .
H51B H 1.2178 0.6227 0.5565 0.116 Uiso 0.5 1 calc R U P . .
C52 C 1.092(4) 0.612(2) 0.572(3) 0.096(9) Uani 0.5 1 d D U P . .
H52A H 1.0982 0.6536 0.6001 0.115 Uiso 0.5 1 calc R U P . .
H52B H 1.0374 0.6129 0.5312 0.115 Uiso 0.5 1 calc R U P . .
C53 C 1.087(4) 0.564(2) 0.633(3) 0.098(9) Uani 0.5 1 d D U P . .
H53A H 1.0273 0.5484 0.6308 0.117 Uiso 0.5 1 calc R U P . .
H53B H 1.1091 0.5787 0.6903 0.117 Uiso 0.5 1 calc R U P . .
C54 C 1.143(4) 0.514(2) 0.609(3) 0.099(9) Uani 0.5 1 d D U P . .
H54A H 1.1930 0.5064 0.6540 0.118 Uiso 0.5 1 calc R U P . .
H54B H 1.1105 0.4741 0.5982 0.118 Uiso 0.5 1 calc R U P . .
loop_
_atom_site_aniso_label
_atom_site_aniso_U_11
_atom_site_aniso_U_22
_atom_site_aniso_U_33
_atom_site_aniso_U_23
_atom_site_aniso_U_13
_atom_site_aniso_U_12
Zn1 0.0224(8) 0.0102(7) 0.0117(7) 0.0002(6) -0.0022(6) 0.0015(6)
Zn2 0.0208(8) 0.0120(7) 0.0123(7) -0.0021(7) -0.0019(6) -0.0038(7)
O1M 0.028(5) 0.018(5) 0.016(4) -0.006(4) -0.001(4) 0.000(4)
O2M 0.033(5) 0.038(6) 0.043(6) 0.003(5) -0.006(4) 0.012(4)
C21M 0.040(7) 0.054(10) 0.057(10) 0.008(9) -0.006(7) 0.009(7)
C22M 0.049(9) 0.068(12) 0.069(11) 0.017(10) -0.009(8) 0.011(8)
C23M 0.050(10) 0.069(12) 0.065(10) 0.021(9) -0.010(8) 0.014(9)
C24M 0.045(9) 0.052(9) 0.059(10) 0.017(8) -0.007(8) 0.014(8)
O11 0.030(5) 0.014(4) 0.014(4) -0.001(3) -0.001(4) -0.006(4)
O12 0.028(4) 0.008(4) 0.028(4) -0.009(4) 0.007(4) -0.011(3)
O13 0.030(5) 0.011(5) 0.013(4) -0.001(3) -0.003(3) -0.006(4)
O14 0.025(5) 0.019(4) 0.011(4) -0.003(3) -0.003(4) -0.008(4)
C101 0.024(5) 0.013(5) 0.018(5) 0.004(4) -0.001(4) -0.006(4)
C102 0.019(6) 0.015(5) 0.021(5) 0.002(4) 0.003(4) 0.000(4)
C103 0.025(6) 0.016(5) 0.021(5) 0.004(4) 0.002(4) -0.007(4)
C104 0.023(6) 0.020(5) 0.021(5) 0.001(4) 0.000(4) -0.005(4)
C105 0.019(6) 0.019(5) 0.023(5) -0.002(4) 0.002(4) -0.004(4)
C106 0.022(6) 0.019(5) 0.023(5) 0.005(4) -0.002(4) -0.008(5)
C107 0.022(6) 0.018(5) 0.023(5) 0.004(4) -0.003(4) -0.006(4)
C108 0.020(6) 0.016(5) 0.012(4) -0.006(4) 0.002(4) -0.002(4)
C109 0.023(5) 0.017(5) 0.011(5) -0.005(4) 0.000(4) -0.004(3)
C110 0.023(5) 0.020(5) 0.020(6) -0.003(4) -0.002(4) -0.003(4)
C111 0.026(5) 0.015(5) 0.023(6) -0.003(4) 0.001(4) -0.003(4)
C112 0.024(5) 0.019(5) 0.019(6) -0.003(4) 0.002(4) -0.006(4)
C113 0.023(5) 0.021(5) 0.026(7) -0.001(4) 0.000(4) -0.003(4)
C114 0.024(5) 0.017(5) 0.023(7) -0.001(4) 0.000(4) -0.003(4)
F11 0.042(5) 0.026(4) 0.024(4) 0.009(4) -0.009(4) -0.016(4)
F12 0.039(5) 0.030(5) 0.019(4) 0.004(3) -0.006(3) -0.015(4)
F13 0.041(5) 0.018(4) 0.025(4) 0.006(3) -0.001(4) -0.011(3)
F14 0.040(5) 0.030(5) 0.021(4) 0.006(4) -0.009(3) -0.014(4)
F15 0.025(4) 0.023(4) 0.036(5) -0.001(4) -0.006(3) -0.001(3)
F16 0.028(5) 0.018(4) 0.039(5) -0.006(4) -0.005(4) -0.001(3)
F17 0.021(4) 0.024(4) 0.049(5) -0.005(4) -0.003(3) -0.002(3)
F18 0.030(5) 0.018(4) 0.049(5) -0.009(4) -0.005(4) 0.002(3)
O21 0.025(5) 0.018(5) 0.014(4) 0.002(3) -0.006(3) 0.004(4)
O22 0.030(5) 0.018(4) 0.015(4) 0.005(4) -0.003(4) 0.009(4)
O23 0.028(5) 0.025(5) 0.020(4) -0.002(4) 0.000(4) 0.006(4)
O24 0.017(5) 0.011(4) 0.028(5) 0.002(4) 0.002(4) -0.003(3)
C201 0.022(6) 0.015(5) 0.017(4) 0.001(4) -0.005(4) 0.001(4)
C202 0.024(5) 0.021(5) 0.017(6) 0.001(4) -0.001(4) 0.005(4)
C203 0.022(5) 0.019(5) 0.018(6) 0.000(4) -0.006(4) 0.003(4)
C204 0.025(5) 0.020(5) 0.024(6) 0.001(5) -0.002(4) 0.005(4)
C205 0.023(5) 0.017(5) 0.014(5) -0.002(4) 0.000(4) 0.007(4)
C206 0.022(5) 0.024(5) 0.025(6) 0.007(5) -0.004(4) 0.003(4)
C207 0.025(5) 0.021(5) 0.021(6) 0.009(5) -0.001(4) 0.001(4)
C208 0.020(6) 0.019(5) 0.017(5) 0.001(4) -0.006(4) 0.004(5)
C209 0.019(6) 0.015(4) 0.014(4) 0.005(3) 0.002(4) 0.007(4)
C210 0.021(7) 0.015(5) 0.020(5) 0.000(4) -0.002(4) 0.006(4)
C211 0.022(7) 0.010(4) 0.017(5) 0.002(4) 0.000(4) 0.002(4)
C212 0.018(6) 0.018(5) 0.020(5) 0.002(4) 0.001(4) 0.004(4)
C213 0.025(7) 0.018(5) 0.015(5) 0.000(4) -0.003(4) 0.007(4)
C214 0.025(7) 0.016(5) 0.018(5) 0.004(4) 0.001(4) 0.006(4)
F21 0.025(4) 0.037(5) 0.036(5) 0.009(4) -0.011(3) -0.002(3)
F22 0.034(5) 0.023(4) 0.044(5) 0.012(4) -0.009(4) -0.006(3)
F23 0.023(4) 0.038(5) 0.046(5) 0.015(4) -0.006(4) 0.000(4)
F24 0.034(5) 0.033(5) 0.053(6) 0.024(4) -0.009(4) -0.008(4)
F25 0.037(5) 0.023(4) 0.020(4) -0.002(3) -0.008(3) 0.005(3)
F26 0.052(6) 0.010(3) 0.024(4) 0.000(3) -0.006(4) 0.006(3)
F27 0.057(6) 0.028(5) 0.015(4) -0.004(3) -0.012(4) 0.012(4)
F28 0.049(6) 0.016(4) 0.020(4) 0.000(3) -0.011(4) 0.012(3)
O1 0.029(4) 0.018(4) 0.026(5) 0.002(4) 0.006(3) 0.000(3)
C11 0.033(6) 0.033(6) 0.048(8) 0.014(6) 0.008(5) -0.003(5)
C12 0.034(7) 0.041(8) 0.054(10) 0.014(7) 0.007(7) -0.004(6)
C13 0.036(6) 0.048(7) 0.062(8) 0.017(7) 0.009(5) 0.001(5)
C11' 0.033(6) 0.033(6) 0.048(8) 0.014(6) 0.008(5) -0.003(5)
C12' 0.035(7) 0.042(8) 0.056(10) 0.016(8) 0.009(7) -0.003(6)
C13' 0.036(6) 0.048(7) 0.062(8) 0.017(7) 0.009(5) 0.001(5)
C14 0.032(6) 0.046(7) 0.064(8) 0.021(7) 0.009(5) 0.005(5)
O2 0.042(6) 0.026(5) 0.040(6) -0.004(5) 0.003(5) 0.008(4)
C21 0.056(9) 0.035(7) 0.058(8) -0.005(6) -0.007(7) 0.001(6)
C22 0.066(9) 0.045(7) 0.069(8) 0.008(6) -0.013(7) -0.005(6)
C23 0.067(9) 0.054(8) 0.060(7) 0.008(6) -0.004(7) -0.002(7)
C24 0.058(9) 0.041(8) 0.044(7) -0.001(6) -0.001(6) 0.007(6)
O3 0.053(10) 0.033(9) 0.027(8) 0.010(7) 0.020(7) 0.012(8)
C31 0.046(11) 0.039(10) 0.024(8) 0.010(8) 0.013(8) 0.011(9)
C32 0.044(12) 0.043(10) 0.023(9) 0.010(8) 0.012(8) 0.009(9)
C33 0.062(12) 0.047(10) 0.025(9) 0.007(8) 0.014(8) 0.000(9)
C34 0.067(12) 0.044(10) 0.032(9) 0.005(8) 0.021(8) 0.004(9)
O4 0.037(10) 0.059(12) 0.047(10) 0.006(9) -0.010(8) 0.008(8)
C41 0.049(12) 0.066(13) 0.055(12) 0.008(10) -0.011(10) 0.010(10)
C42 0.058(12) 0.078(14) 0.066(12) 0.007(11) -0.015(10) 0.004(10)
C43 0.052(12) 0.074(13) 0.065(12) 0.002(11) -0.011(10) 0.004(10)
C44 0.041(11) 0.063(13) 0.058(12) 0.004(10) -0.006(9) 0.007(10)
O5 0.13(2) 0.090(18) 0.083(16) -0.001(14) 0.020(14) 0.038(16)
C51 0.13(2) 0.087(19) 0.079(17) -0.001(14) 0.018(15) 0.033(16)
C52 0.13(2) 0.083(19) 0.078(17) -0.003(14) 0.019(15) 0.036(16)
C53 0.13(2) 0.085(19) 0.082(17) 0.000(14) 0.022(15) 0.036(16)
C54 0.13(2) 0.087(19) 0.083(17) 0.001(14) 0.021(15) 0.038(16)
loop_
_atom_type_symbol
_atom_type_description
_atom_type_scat_dispersion_real
_atom_type_scat_dispersion_imag
_atom_type_scat_source
C C 0.0033 0.0016 'International Tables Vol C Tables 4.2.6.8 and 6.1.1.4'
H H 0.0000 0.0000 'International Tables Vol C Tables 4.2.6.8 and 6.1.1.4'
O O 0.0106 0.0060 'International Tables Vol C Tables 4.2.6.8 and 6.1.1.4'
F F 0.0171 0.0103 'International Tables Vol C Tables 4.2.6.8 and 6.1.1.4'
Zn Zn 0.2839 1.4301 'International Tables Vol C Tables 4.2.6.8 and 6.1.1.4'
loop_
_geom_angle_atom_site_label_1
_geom_angle_atom_site_label_2
_geom_angle_atom_site_label_3
_geom_angle
_geom_angle_site_symmetry_1
_geom_angle_site_symmetry_3
_geom_angle_publ_flag
O1M Zn1 O11 170.4(4) . . yes
O1M Zn1 O24 92.4(4) . 4_454 yes
O1M Zn1 O1 88.1(4) . . yes
O11 Zn1 O24 97.1(4) . 4_454 yes
O11 Zn1 O1 82.4(4) . . yes
O13 Zn1 O1M 93.6(4) 4_464 . yes
O13 Zn1 O11 86.4(3) 4_464 . yes
O13 Zn1 O24 85.7(4) 4_464 4_454 yes
O13 Zn1 O1 95.5(4) 4_464 . yes
O21 Zn1 O1M 89.5(4) . . yes
O21 Zn1 O11 91.6(4) . . yes
O21 Zn1 O13 172.9(4) . 4_464 yes
O21 Zn1 O24 87.8(4) . 4_454 yes
O21 Zn1 O1 91.0(4) . . yes
O24 Zn1 O1 178.7(4) 4_454 . yes
O2M Zn2 O22 175.6(4) . . yes
O2M Zn2 O23 88.7(4) . 4_454 yes
O2M Zn2 O24 88.9(4) . 4_454 yes
O2M Zn2 C208 89.5(5) . 4_454 ?
O12 Zn2 O2M 89.5(5) . . yes
O12 Zn2 O14 92.9(4) . 3_445 yes
O12 Zn2 O22 93.3(4) . . yes
O12 Zn2 O23 162.4(4) . 4_454 yes
O12 Zn2 O24 102.7(4) . 4_454 yes
O12 Zn2 C208 133.1(4) . 4_454 ?
O14 Zn2 O2M 96.2(4) 3_445 . yes
O14 Zn2 O22 87.0(4) 3_445 . yes
O14 Zn2 O23 104.7(4) 3_445 4_454 yes
O14 Zn2 O24 163.6(4) 3_445 4_454 yes
O14 Zn2 C208 133.8(4) 3_445 4_454 ?
O22 Zn2 O23 87.6(4) . 4_454 yes
O22 Zn2 O24 87.1(3) . 4_454 yes
O22 Zn2 C208 86.1(4) . 4_454 ?
O23 Zn2 O24 59.8(4) 4_454 4_454 yes
O23 Zn2 C208 29.4(4) 4_454 4_454 ?
O24 Zn2 C208 30.4(4) 4_454 4_454 ?
C21M O2M Zn2 131.3(16) . . ?
C21M O2M C24M 106(2) . . ?
C24M O2M Zn2 111.9(16) . . ?
O2M C21M H21C 110.4 . . ?
O2M C21M H21D 110.4 . . ?
O2M C21M C22M 106(3) . . ?
H21C C21M H21D 108.6 . . ?
C22M C21M H21C 110.4 . . ?
C22M C21M H21D 110.4 . . ?
C21M C22M H22C 110.1 . . ?
C21M C22M H22D 110.1 . . ?
H22C C22M H22D 108.4 . . ?
C23M C22M C21M 108(3) . . ?
C23M C22M H22C 110.1 . . ?
C23M C22M H22D 110.1 . . ?
C22M C23M H23C 112.3 . . ?
C22M C23M H23D 112.3 . . ?
C22M C23M C24M 97(3) . . ?
H23C C23M H23D 109.9 . . ?
C24M C23M H23C 112.3 . . ?
C24M C23M H23D 112.3 . . ?
O2M C24M C23M 110(2) . . ?
O2M C24M H24C 109.8 . . ?
O2M C24M H24D 109.8 . . ?
C23M C24M H24C 109.8 . . ?
C23M C24M H24D 109.8 . . ?
H24C C24M H24D 108.2 . . ?
C101 O11 Zn1 140.0(9) . . ?
C101 O12 Zn2 124.7(8) . . ?
C108 O13 Zn1 129.6(9) . 4_565 ?
C108 O14 Zn2 132.0(8) . 3 ?
O11 C101 O12 128.9(12) . . ?
O11 C101 C102 116.5(12) . . ?
O12 C101 C102 114.6(12) . . ?
C103 C102 C101 122.6(12) . . ?
C103 C102 C107 114.5(12) . . ?
C107 C102 C101 122.8(12) . . ?
C104 C103 C102 123.5(13) . . ?
C104 C103 F11 118.9(12) . . ?
F11 C103 C102 117.6(12) . . ?
C103 C104 C105 121.9(13) . . ?
C103 C104 F12 118.8(12) . . ?
F12 C104 C105 119.2(12) . . ?
C104 C105 C106 115.6(12) . . ?
C104 C105 C112 122.3(12) . . ?
C106 C105 C112 122.1(12) . . ?
C107 C106 C105 122.6(13) . . ?
F13 C106 C105 119.5(12) . . ?
F13 C106 C107 117.9(12) . . ?
C106 C107 C102 121.8(13) . . ?
F14 C107 C102 118.6(12) . . ?
F14 C107 C106 119.6(12) . . ?
O13 C108 C109 114.4(11) . . ?
O14 C108 O13 126.6(12) . . ?
O14 C108 C109 119.0(11) . . ?
C110 C109 C108 122.3(12) . . ?
C110 C109 C114 116.6(12) . . ?
C114 C109 C108 121.0(12) . . ?
C109 C110 C111 122.5(13) . . ?
C109 C110 F15 120.5(12) . . ?
F15 C110 C111 117.0(12) . . ?
C112 C111 C110 121.0(13) . . ?
F16 C111 C110 118.7(12) . . ?
F16 C111 C112 120.1(12) . . ?
C111 C112 C105 122.4(13) . . ?
C113 C112 C105 122.1(13) . . ?
C113 C112 C111 115.4(12) . . ?
C114 C113 C112 122.9(13) . . ?
F17 C113 C112 118.6(12) . . ?
F17 C113 C114 118.5(13) . . ?
C113 C114 C109 121.4(13) . . ?
F18 C114 C109 120.2(12) . . ?
F18 C114 C113 118.4(12) . . ?
C201 O21 Zn1 126.4(9) . . ?
C201 O22 Zn2 136.0(8) . . ?
C208 O23 Zn2 91.2(8) . 4 ?
Zn1 O24 Zn2 110.7(4) 4 4 ?
C208 O24 Zn1 136.1(9) . 4 ?
C208 O24 Zn2 88.6(8) . 4 ?
O21 C201 C202 117.0(12) . . ?
O22 C201 O21 130.3(12) . . ?
O22 C201 C202 112.7(11) . . ?
C203 C202 C201 120.5(12) . . ?
C207 C202 C201 121.9(13) . . ?
C207 C202 C203 117.5(13) . . ?
C204 C203 C202 121.8(13) . . ?
F21 C203 C202 118.5(12) . . ?
F21 C203 C204 119.7(13) . . ?
C203 C204 C205 121.3(14) . . ?
F22 C204 C203 118.5(12) . . ?
F22 C204 C205 120.0(12) . . ?
C204 C205 C212 120.0(13) . . ?
C206 C205 C204 116.2(12) . . ?
C206 C205 C212 123.8(12) . . ?
C205 C206 C207 122.4(13) . . ?
F23 C206 C205 118.2(12) . . ?
F23 C206 C207 119.4(13) . . ?
C202 C207 C206 120.6(13) . . ?
F24 C207 C202 120.6(12) . . ?
F24 C207 C206 118.6(12) . . ?
O23 C208 Zn2 59.4(7) . 4 ?
O23 C208 O24 120.4(13) . . ?
O23 C208 C209 120.2(12) . . ?
O24 C208 Zn2 61.0(7) . 4 ?
O24 C208 C209 119.4(12) . . ?
C209 C208 Zn2 178.1(10) . 4 ?
C210 C209 C208 121.5(12) . . ?
C210 C209 C214 117.0(12) . . ?
C214 C209 C208 121.3(12) . . ?
C209 C210 C211 121.8(12) . . ?
F25 C210 C209 121.2(12) . . ?
F25 C210 C211 117.0(11) . . ?
C210 C211 C212 121.5(12) . . ?
F26 C211 C210 118.7(11) . . ?
F26 C211 C212 119.8(11) . . ?
C211 C212 C205 120.8(12) . . ?
C213 C212 C205 122.8(12) . . ?
C213 C212 C211 116.2(12) . . ?
C212 C213 C214 122.8(13) . . ?
F27 C213 C212 119.3(12) . . ?
F27 C213 C214 117.8(12) . . ?
C213 C214 C209 120.6(13) . . ?
F28 C214 C209 120.1(12) . . ?
F28 C214 C213 119.3(12) . . ?
C11 O1 Zn1 120.2(9) . . ?
C11' O1 Zn1 120.2(9) . . ?
C14 O1 Zn1 121.2(9) . . ?
C14 O1 C11 109.2(12) . . ?
C14 O1 C11' 109.2(12) . . ?
O1 C11 H11A 111.2 . . ?
O1 C11 H11B 111.2 . . ?
O1 C11 C12 103.0(18) . . ?
H11A C11 H11B 109.1 . . ?
C12 C11 H11A 111.2 . . ?
C12 C11 H11B 111.2 . . ?
C11 C12 H12A 111.3 . . ?
C11 C12 H12B 111.3 . . ?
C11 C12 C13 102(3) . . ?
H12A C12 H12B 109.2 . . ?
C13 C12 H12A 111.3 . . ?
C13 C12 H12B 111.3 . . ?
C12 C13 H13A 112.5 . . ?
C12 C13 H13B 112.5 . . ?
H13A C13 H13B 110.1 . . ?
C14 C13 C12 96.0(19) . . ?
C14 C13 H13A 112.5 . . ?
C14 C13 H13B 112.5 . . ?
O1 C11' H11C 110.6 . . ?
O1 C11' H11D 110.6 . . ?
O1 C11' C12' 105.9(19) . . ?
H11C C11' H11D 108.7 . . ?
C12' C11' H11C 110.6 . . ?
C12' C11' H11D 110.6 . . ?
C11' C12' H12C 110.3 . . ?
C11' C12' H12D 110.3 . . ?
H12C C12' H12D 108.5 . . ?
C13' C12' C11' 107(3) . . ?
C13' C12' H12C 110.3 . . ?
C13' C12' H12D 110.3 . . ?
C12' C13' H13C 110.6 . . ?
C12' C13' H13D 110.6 . . ?
C12' C13' C14 105(2) . . ?
H13C C13' H13D 108.8 . . ?
C14 C13' H13C 110.6 . . ?
C14 C13' H13D 110.6 . . ?
O1 C14 C13 107.1(14) . . ?
O1 C14 C13' 107.1(14) . . ?
O1 C14 H14A 110.3 . . ?
O1 C14 H14B 110.3 . . ?
C13 C14 H14A 110.3 . . ?
C13 C14 H14B 110.3 . . ?
H14A C14 H14B 108.6 . . ?
C21 O2 C24 109.3(14) . . ?
O2 C21 H21A 110.5 . . ?
O2 C21 H21B 110.5 . . ?
O2 C21 C22 106.2(15) . . ?
H21A C21 H21B 108.7 . . ?
C22 C21 H21A 110.5 . . ?
C22 C21 H21B 110.5 . . ?
C21 C22 H22A 111.1 . . ?
C21 C22 H22B 111.1 . . ?
H22A C22 H22B 109.1 . . ?
C23 C22 C21 103.1(17) . . ?
C23 C22 H22A 111.1 . . ?
C23 C22 H22B 111.1 . . ?
C22 C23 H23A 111.5 . . ?
C22 C23 H23B 111.5 . . ?
C22 C23 C24 101.1(17) . . ?
H23A C23 H23B 109.4 . . ?
C24 C23 H23A 111.5 . . ?
C24 C23 H23B 111.5 . . ?
O2 C24 C23 104.8(16) . . ?
O2 C24 H24A 110.8 . . ?
O2 C24 H24B 110.8 . . ?
C23 C24 H24A 110.8 . . ?
C23 C24 H24B 110.8 . . ?
H24A C24 H24B 108.9 . . ?
C34 O3 C31 107(3) . . ?
O3 C31 H31A 110.8 . . ?
O3 C31 H31B 110.8 . . ?
O3 C31 C32 105(2) . . ?
H31A C31 H31B 108.8 . . ?
C32 C31 H31A 110.8 . . ?
C32 C31 H31B 110.8 . . ?
C31 C32 H32A 111.4 . . ?
C31 C32 H32B 111.4 . . ?
H32A C32 H32B 109.2 . . ?
C33 C32 C31 102(3) . . ?
C33 C32 H32A 111.4 . . ?
C33 C32 H32B 111.4 . . ?
C32 C33 H33A 110.5 . . ?
C32 C33 H33B 110.5 . . ?
H33A C33 H33B 108.7 . . ?
C34 C33 C32 106(3) . . ?
C34 C33 H33A 110.5 . . ?
C34 C33 H33B 110.5 . . ?
O3 C34 C33 115(3) . . ?
O3 C34 H34A 108.6 . . ?
O3 C34 H34B 108.6 . . ?
C33 C34 H34A 108.6 . . ?
C33 C34 H34B 108.6 . . ?
H34A C34 H34B 107.6 . . ?
C41 O4 C44 110(2) . . ?
O4 C41 H41A 110.8 . . ?
O4 C41 H41B 110.8 . . ?
O4 C41 C42 105(3) . . ?
H41A C41 H41B 108.9 . . ?
C42 C41 H41A 110.8 . . ?
C42 C41 H41B 110.8 . . ?
C41 C42 H42A 109.9 . . ?
C41 C42 H42B 109.9 . . ?
H42A C42 H42B 108.3 . . ?
C43 C42 C41 109(3) . . ?
C43 C42 H42A 109.9 . . ?
C43 C42 H42B 109.9 . . ?
C42 C43 H43A 110.9 . . ?
C42 C43 H43B 110.9 . . ?
C42 C43 C44 104(3) . . ?
H43A C43 H43B 108.9 . . ?
C44 C43 H43A 110.9 . . ?
C44 C43 H43B 110.9 . . ?
O4 C44 C43 104(3) . . ?
O4 C44 H44A 110.9 . . ?
O4 C44 H44B 110.9 . . ?
C43 C44 H44A 110.9 . . ?
C43 C44 H44B 110.9 . . ?
H44A C44 H44B 108.9 . . ?
C51 O5 C54 111(4) . . ?
O5 C51 H51A 111.7 . . ?
O5 C51 H51B 111.7 . . ?
O5 C51 C52 100(4) . . ?
H51A C51 H51B 109.5 . . ?
C52 C51 H51A 111.7 . . ?
C52 C51 H51B 111.7 . . ?
C51 C52 H52A 109.6 . . ?
C51 C52 H52B 109.6 . . ?
H52A C52 H52B 108.1 . . ?
C53 C52 C51 110(4) . . ?
C53 C52 H52A 109.6 . . ?
C53 C52 H52B 109.6 . . ?
C52 C53 H53A 111.0 . . ?
C52 C53 H53B 111.0 . . ?
C52 C53 C54 104(4) . . ?
H53A C53 H53B 109.0 . . ?
C54 C53 H53A 111.0 . . ?
C54 C53 H53B 111.0 . . ?
O5 C54 C53 106(4) . . ?
O5 C54 H54A 110.5 . . ?
O5 C54 H54B 110.5 . . ?
C53 C54 H54A 110.5 . . ?
C53 C54 H54B 110.5 . . ?
H54A C54 H54B 108.7 . . ?
loop_
_geom_bond_atom_site_label_1
_geom_bond_atom_site_label_2
_geom_bond_distance
_geom_bond_site_symmetry_2
_geom_bond_publ_flag
Zn1 O1M 2.085(9) . yes
Zn1 O11 2.096(9) . yes
Zn1 O13 2.062(9) 4_464 yes
Zn1 O21 2.062(9) . yes
Zn1 O24 2.103(9) 4_454 yes
Zn1 O1 2.116(10) . yes
Zn2 O2M 2.068(11) . yes
Zn2 O12 1.995(9) . yes
Zn2 O14 2.017(8) 3_445 yes
Zn2 O22 2.094(9) . yes
Zn2 O23 2.172(10) 4_454 yes
Zn2 O24 2.207(10) 4_454 yes
Zn2 C208 2.522(13) 4_454 ?
O2M C21M 1.38(2) . ?
O2M C24M 1.48(2) . ?
C21M H21C 0.9900 . ?
C21M H21D 0.9900 . ?
C21M C22M 1.47(2) . ?
C22M H22C 0.9900 . ?
C22M H22D 0.9900 . ?
C22M C23M 1.46(2) . ?
C23M H23C 0.9900 . ?
C23M H23D 0.9900 . ?
C23M C24M 1.49(2) . ?
C24M H24C 0.9900 . ?
C24M H24D 0.9900 . ?
O11 C101 1.229(17) . ?
O12 C101 1.258(16) . ?
O13 Zn1 2.062(9) 4_565 ?
O13 C108 1.256(15) . ?
O14 Zn2 2.017(8) 3 ?
O14 C108 1.230(15) . ?
C101 C102 1.494(19) . ?
C102 C103 1.397(19) . ?
C102 C107 1.398(19) . ?
C103 C104 1.342(19) . ?
C103 F11 1.353(16) . ?
C104 C105 1.384(19) . ?
C104 F12 1.354(15) . ?
C105 C106 1.386(19) . ?
C105 C112 1.474(18) . ?
C106 C107 1.360(19) . ?
C106 F13 1.346(15) . ?
C107 F14 1.333(16) . ?
C108 C109 1.527(17) . ?
C109 C110 1.341(19) . ?
C109 C114 1.380(19) . ?
C110 C111 1.391(19) . ?
C110 F15 1.357(16) . ?
C111 C112 1.38(2) . ?
C111 F16 1.351(16) . ?
C112 C113 1.37(2) . ?
C113 C114 1.36(2) . ?
C113 F17 1.357(16) . ?
C114 F18 1.352(16) . ?
O21 C201 1.249(16) . ?
O22 C201 1.247(16) . ?
O23 Zn2 2.172(10) 4 ?
O23 C208 1.238(17) . ?
O24 Zn1 2.103(9) 4 ?
O24 Zn2 2.207(10) 4 ?
O24 C208 1.277(16) . ?
C201 C202 1.530(18) . ?
C202 C203 1.38(2) . ?
C202 C207 1.369(19) . ?
C203 C204 1.372(19) . ?
C203 F21 1.339(16) . ?
C204 C205 1.390(19) . ?
C204 F22 1.342(16) . ?
C205 C206 1.38(2) . ?
C205 C212 1.459(18) . ?
C206 C207 1.384(19) . ?
C206 F23 1.335(16) . ?
C207 F24 1.332(16) . ?
C208 Zn2 2.522(13) 4 ?
C208 C209 1.491(18) . ?
C209 C210 1.376(18) . ?
C209 C214 1.397(18) . ?
C210 C211 1.391(18) . ?
C210 F25 1.331(15) . ?
C211 C212 1.394(18) . ?
C211 F26 1.331(15) . ?
C212 C213 1.375(19) . ?
C213 C214 1.389(19) . ?
C213 F27 1.333(15) . ?
C214 F28 1.316(16) . ?
O1 C11 1.445(18) . ?
O1 C11' 1.445(18) . ?
O1 C14 1.420(19) . ?
C11 H11A 0.9900 . ?
C11 H11B 0.9900 . ?
C11 C12 1.54(4) . ?
C12 H12A 0.9900 . ?
C12 H12B 0.9900 . ?
C12 C13 1.55(4) . ?
C13 H13A 0.9900 . ?
C13 H13B 0.9900 . ?
C13 C14 1.50(2) . ?
C11' H11C 0.9900 . ?
C11' H11D 0.9900 . ?
C11' C12' 1.51(4) . ?
C12' H12C 0.9900 . ?
C12' H12D 0.9900 . ?
C12' C13' 1.48(4) . ?
C13' H13C 0.9900 . ?
C13' H13D 0.9900 . ?
C13' C14 1.50(2) . ?
C14 H14A 0.9900 . ?
C14 H14B 0.9900 . ?
O2 C21 1.40(2) . ?
O2 C24 1.44(2) . ?
C21 H21A 0.9900 . ?
C21 H21B 0.9900 . ?
C21 C22 1.52(3) . ?
C22 H22A 0.9900 . ?
C22 H22B 0.9900 . ?
C22 C23 1.48(3) . ?
C23 H23A 0.9900 . ?
C23 H23B 0.9900 . ?
C23 C24 1.50(3) . ?
C24 H24A 0.9900 . ?
C24 H24B 0.9900 . ?
O3 C31 1.41(4) . ?
O3 C34 1.39(4) . ?
C31 H31A 0.9900 . ?
C31 H31B 0.9900 . ?
C31 C32 1.61(5) . ?
C32 H32A 0.9900 . ?
C32 H32B 0.9900 . ?
C32 C33 1.46(4) . ?
C33 H33A 0.9900 . ?
C33 H33B 0.9900 . ?
C33 C34 1.40(5) . ?
C34 H34A 0.9900 . ?
C34 H34B 0.9900 . ?
O4 C41 1.42(2) . ?
O4 C44 1.44(2) . ?
C41 H41A 0.9900 . ?
C41 H41B 0.9900 . ?
C41 C42 1.48(2) . ?
C42 H42A 0.9900 . ?
C42 H42B 0.9900 . ?
C42 C43 1.46(3) . ?
C43 H43A 0.9900 . ?
C43 H43B 0.9900 . ?
C43 C44 1.48(2) . ?
C44 H44A 0.9900 . ?
C44 H44B 0.9900 . ?
O5 C51 1.42(3) . ?
O5 C54 1.43(3) . ?
C51 H51A 0.9900 . ?
C51 H51B 0.9900 . ?
C51 C52 1.46(3) . ?
C52 H52A 0.9900 . ?
C52 H52B 0.9900 . ?
C52 C53 1.45(3) . ?
C53 H53A 0.9900 . ?
C53 H53B 0.9900 . ?
C53 C54 1.47(3) . ?
C54 H54A 0.9900 . ?
C54 H54B 0.9900 . ?
