#------------------------------------------------------------------------------
#$Date: 2019-11-17 10:03:21 +0200 (Sun, 17 Nov 2019) $
#$Revision: 229246 $
#$URL: file:///home/coder/svn-repositories/cod/cif/7/04/52/7045283.cif $
#------------------------------------------------------------------------------
#
# This file is available in the Crystallography Open Database (COD),
# http://www.crystallography.net/
#
# All data on this site have been placed in the public domain by the
# contributors.
#
data_7045283
loop_
_publ_author_name
'Cheplakova, Anastasia M.'
'Kovalenko, Konstantin A.'
'Samsonenko, Denis G.'
'Lazarenko, Vladimir A.'
'Khrustalev, Victor N.'
'Vinogradov, Andrey S.'
'Karpov, Victor M.'
'Platonov, Vyacheslav E.'
'Fedin, Vladimir P.'
_publ_section_title
;
 Metal-organic frameworks based on octafluorobiphenyl-4,4'-dicarboxylate:
 synthesis, crystal structure, and surface functionality.
;
_journal_issue                   10
_journal_name_full
'Dalton transactions (Cambridge, England : 2003)'
_journal_page_first              3283
_journal_page_last               3297
_journal_paper_doi               10.1039/c7dt04566b
_journal_volume                  47
_journal_year                    2018
_chemical_formula_sum            'C23 H24 F8 N4 O7 Zn'
_chemical_formula_weight         685.83
_space_group_crystal_system      monoclinic
_space_group_IT_number           14
_space_group_name_Hall           '-P 2ybc'
_space_group_name_H-M_alt        'P 1 21/c 1'
_symmetry_space_group_name_Hall  '-P 2ybc'
_symmetry_space_group_name_H-M   'P 1 21/c 1'
_atom_sites_solution_hydrogens   mixed
_atom_sites_solution_primary     direct
_atom_sites_solution_secondary   difmap
_audit_creation_method           SHELXL-2014/7
_audit_update_record
;
2017-11-24 deposited with the CCDC.
2018-01-15 downloaded from the CCDC.
;
_cell_angle_alpha                90
_cell_angle_beta                 117.835(3)
_cell_angle_gamma                90
_cell_formula_units_Z            4
_cell_length_a                   15.2883(3)
_cell_length_b                   12.75359(18)
_cell_length_c                   15.0763(3)
_cell_measurement_reflns_used    11747
_cell_measurement_temperature    110(2)
_cell_measurement_theta_max      30.11
_cell_measurement_theta_min      3.97
_cell_volume                     2599.47(11)
_computing_cell_refinement       'CrysAlisPro 1.171.38.41 (Rigaku OD, 2015)'
_computing_data_collection       'CrysAlisPro 1.171.38.41 (Rigaku OD, 2015)'
_computing_data_reduction        'CrysAlisPro 1.171.38.41 (Rigaku OD, 2015)'
_computing_molecular_graphics    'ShelXle (H\"ubschle, 2011)'
_computing_publication_material  'CIFTAB-2014 (Sheldrick, 2014)'
_computing_structure_refinement  'SHELXL-2014 (Sheldrick, 2014)'
_computing_structure_solution    'SHELXS-2014 (Sheldrick, 2014)'
_diffrn_ambient_temperature      110(2)
_diffrn_detector                 'CCD plate'
_diffrn_detector_area_resol_mean 10.6168
_diffrn_detector_type            AtlasS2
_diffrn_measured_fraction_theta_full 0.997
_diffrn_measured_fraction_theta_max 0.876
_diffrn_measurement_device       'four-circle diffractometer'
_diffrn_measurement_device_type  'New Xcalibur, AtlasS2'
_diffrn_measurement_method       '\w scans'
_diffrn_radiation_monochromator  graphite
_diffrn_radiation_probe          x-ray
_diffrn_radiation_source         'fine-focus sealed tube'
_diffrn_radiation_type           MoK\a
_diffrn_radiation_wavelength     0.71073
_diffrn_reflns_av_R_equivalents  0.0217
_diffrn_reflns_av_unetI/netI     0.0234
_diffrn_reflns_Laue_measured_fraction_full 0.997
_diffrn_reflns_Laue_measured_fraction_max 0.876
_diffrn_reflns_limit_h_max       17
_diffrn_reflns_limit_h_min       -21
_diffrn_reflns_limit_k_max       17
_diffrn_reflns_limit_k_min       -18
_diffrn_reflns_limit_l_max       21
_diffrn_reflns_limit_l_min       -19
_diffrn_reflns_number            24699
_diffrn_reflns_point_group_measured_fraction_full 0.997
_diffrn_reflns_point_group_measured_fraction_max 0.876
_diffrn_reflns_theta_full        25.500
_diffrn_reflns_theta_max         30.540
_diffrn_reflns_theta_min         3.411
_diffrn_source                   'sealed X-ray tube'
_exptl_absorpt_coefficient_mu    1.055
_exptl_absorpt_correction_T_max  1.00000
_exptl_absorpt_correction_T_min  0.97002
_exptl_absorpt_correction_type   multi-scan
_exptl_absorpt_process_details
;
CrysAlisPro 1.171.38.41 (Rigaku Oxford Diffraction, 2015)
Empirical absorption correction using spherical harmonics,
implemented in SCALE3 ABSPACK scaling algorithm.
;
_exptl_crystal_colour            colorless
_exptl_crystal_density_diffrn    1.752
_exptl_crystal_description       plate
_exptl_crystal_F_000             1392
_exptl_crystal_size_max          0.28
_exptl_crystal_size_mid          0.25
_exptl_crystal_size_min          0.07
_refine_diff_density_max         0.476
_refine_diff_density_min         -0.445
_refine_diff_density_rms         0.059
_refine_ls_extinction_method     none
_refine_ls_goodness_of_fit_ref   1.019
_refine_ls_hydrogen_treatment    mixed
_refine_ls_matrix_type           full
_refine_ls_number_parameters     400
_refine_ls_number_reflns         6986
_refine_ls_number_restraints     3
_refine_ls_restrained_S_all      1.020
_refine_ls_R_factor_all          0.0344
_refine_ls_R_factor_gt           0.0275
_refine_ls_shift/su_max          0.002
_refine_ls_shift/su_mean         0.000
_refine_ls_structure_factor_coef Fsqd
_refine_ls_weighting_details
'w=1/[\s^2^(Fo^2^)+(0.0338P)^2^+1.5267P] where P=(Fo^2^+2Fc^2^)/3'
_refine_ls_weighting_scheme      calc
_refine_ls_wR_factor_gt          0.0684
_refine_ls_wR_factor_ref         0.0716
_reflns_Friedel_coverage         0.000
_reflns_number_gt                6118
_reflns_number_total             6986
_reflns_threshold_expression     >2\s(I)
_cod_data_source_file            c7dt04566b2.cif
_cod_data_source_block           sn565
_cod_depositor_comments
'Adding full bibliography for 7045279--7045284.cif.'
_cod_original_cell_volume        2599.46(10)
_cod_database_code               7045283
_shelx_shelxl_version_number     2014/7
_shelx_space_group_comment
;
The symmetry employed for this shelxl refinement is uniquely defined
by the following loop, which should always be used as a source of
symmetry information in preference to the above space-group names.
They are only intended as comments.
;
_shelx_estimated_absorpt_t_min   0.757
_shelx_estimated_absorpt_t_max   0.930
_shelx_res_file
;
 
    sn565.res created by SHELXL-2014/7
 
 
TITL sn565 in P2(1)/c; 110K; Xcalibur
CELL 0.71073  15.2883  12.75359  15.0763  90.0000 117.835  90.0000
ZERR    4.00   0.0003   0.00018   0.0003   0.0000   0.003   0.0000
LATT  1
SYMM -X, 1/2+Y, 1/2-Z
SFAC C  H  N  O  F ZN
UNIT 92 96 16 28 32 4
 
LIST 4 ! automatically inserted. Change 6 to 4 for CHECKCIF!!
TEMP -163
 
L.S. 6
BOND $H
FMAP 2
PLAN 5
 
ACTA 51
SIZE 0.28 0.25 0.07
 
DFIX 0.90 0.02 O1 H1, O2 H2, O3 H3
 
WGHT    0.033800    1.526700
FVAR       1.96512
ZN1   6    0.817419    0.592180    0.596810    11.00000    0.00877    0.01518 =
         0.00778   -0.00027    0.00116    0.00114
O1    4    0.852201    0.719952    0.529032    11.00000    0.01391    0.02420 =
         0.00958   -0.00088    0.00362   -0.00571
H1    2    0.831922    0.710925    0.466209    11.00000   -1.20000
C1    1    0.945678    0.771262    0.570305    11.00000    0.01887    0.03400 =
         0.02599    0.00236    0.00397   -0.01244
AFIX 137
H1A   2    0.960229    0.801935    0.635349    11.00000   -1.50000
H1B   2    0.943966    0.826847    0.524640    11.00000   -1.50000
H1C   2    0.997175    0.720321    0.579335    11.00000   -1.50000
AFIX   0
O2    4    0.876670    0.495826    0.520819    11.00000    0.01363    0.03274 =
         0.01531   -0.00869    0.00198    0.00414
H2    2    0.937129    0.486729    0.563542    11.00000   -1.20000
C2    1    0.839966    0.401671    0.464389    11.00000    0.02378    0.03136 =
         0.01828   -0.00898    0.00658    0.00247
AFIX 137
H2A   2    0.865842    0.341058    0.509166    11.00000   -1.50000
H2B   2    0.861302    0.397856    0.412451    11.00000   -1.50000
H2C   2    0.767540    0.401413    0.432781    11.00000   -1.50000
AFIX   0
O3    4    0.780343    0.454393    0.652631    11.00000    0.01486    0.01623 =
         0.01308    0.00197    0.00012    0.00159
H3    2    0.727331    0.433013    0.605202    11.00000   -1.20000
C3    1    0.844041    0.368765    0.703725    11.00000    0.02707    0.01970 =
         0.02499    0.00858    0.01066    0.00896
AFIX 137
H3A   2    0.871976    0.339945    0.662147    11.00000   -1.50000
H3B   2    0.806220    0.314200    0.716549    11.00000   -1.50000
H3C   2    0.897700    0.393309    0.767589    11.00000   -1.50000
AFIX   0
N1    3    0.752987    0.689582    0.670633    11.00000    0.01021    0.01220 =
         0.01001    0.00050    0.00246    0.00108
N2    3    0.772952    0.774154    0.825971    11.00000    0.01270    0.01603 =
         0.01144   -0.00154    0.00551    0.00015
N3    3    0.672444    0.858340    0.663894    11.00000    0.02006    0.01729 =
         0.01479    0.00238    0.00836    0.00556
N4    3    0.613225    0.699851    0.709069    11.00000    0.01404    0.01975 =
         0.01943   -0.00513    0.00871   -0.00283
C11   1    0.820688    0.710382    0.778951    11.00000    0.01214    0.01750 =
         0.01092   -0.00039    0.00403    0.00249
AFIX  23
H11A  2    0.842206    0.642768    0.814988    11.00000   -1.20000
H11B  2    0.880284    0.747434    0.785406    11.00000   -1.20000
AFIX   0
C12   1    0.721111    0.794003    0.619816    11.00000    0.02043    0.01523 =
         0.01459    0.00390    0.00911    0.00512
AFIX  23
H12A  2    0.779749    0.831864    0.624748    11.00000   -1.20000
H12B  2    0.675127    0.782878    0.547813    11.00000   -1.20000
AFIX   0
C13   1    0.662166    0.636741    0.664790    11.00000    0.01395    0.01754 =
         0.01759   -0.00370    0.00821   -0.00244
AFIX  23
H13A  2    0.615083    0.622771    0.593612    11.00000   -1.20000
H13B  2    0.681355    0.568490    0.700001    11.00000   -1.20000
AFIX   0
C14   1    0.741585    0.874884    0.770578    11.00000    0.01891    0.01289 =
         0.01850   -0.00166    0.01066   -0.00073
AFIX  23
H14A  2    0.709424    0.918961    0.801067    11.00000   -1.20000
H14B  2    0.800613    0.912858    0.776659    11.00000   -1.20000
AFIX   0
C15   1    0.683007    0.719032    0.814196    11.00000    0.01837    0.01665 =
         0.01757   -0.00113    0.01138   -0.00183
AFIX  23
H15A  2    0.702198    0.651229    0.850229    11.00000   -1.20000
H15B  2    0.650247    0.761652    0.845044    11.00000   -1.20000
AFIX   0
C16   1    0.585668    0.800657    0.656153    11.00000    0.01298    0.02632 =
         0.01755   -0.00253    0.00507    0.00666
AFIX  23
H16A  2    0.551215    0.844009    0.684702    11.00000   -1.20000
H16B  2    0.539149    0.788102    0.584537    11.00000   -1.20000
AFIX   0
O11   4    0.682155    0.586966    0.467598    11.00000    0.01054    0.01674 =
         0.01007    0.00040    0.00117   -0.00216
O12   4    0.614459    0.437303    0.486396    11.00000    0.02303    0.02570 =
         0.01517    0.00735   -0.00032   -0.00834
C101  1    0.616084    0.516597    0.439805    11.00000    0.01239    0.01768 =
         0.00917   -0.00009    0.00294   -0.00024
C102  1    0.529984    0.532245    0.335391    11.00000    0.00881    0.01561 =
         0.00966    0.00087    0.00157   -0.00415
C103  1    0.518535    0.466688    0.257527    11.00000    0.00915    0.01460 =
         0.01365    0.00154    0.00269    0.00026
C104  1    0.441858    0.479949    0.162067    11.00000    0.01235    0.01569 =
         0.01083   -0.00289    0.00395   -0.00355
C105  1    0.370554    0.557426    0.140453    11.00000    0.00847    0.01671 =
         0.01000    0.00117    0.00179   -0.00309
C106  1    0.381804    0.622776    0.218841    11.00000    0.00971    0.01436 =
         0.01389    0.00157    0.00443   -0.00073
C107  1    0.460706    0.611563    0.313850    11.00000    0.01432    0.01521 =
         0.01028   -0.00228    0.00490   -0.00407
F11   5    0.583879    0.389470    0.274278    11.00000    0.01445    0.02152 =
         0.01776   -0.00115    0.00217    0.00602
F12   5    0.433818    0.413807    0.089254    11.00000    0.01737    0.02271 =
         0.01280   -0.00696    0.00324    0.00004
F13   5    0.314857    0.698690    0.201760    11.00000    0.01407    0.01804 =
         0.01848    0.00027    0.00401    0.00413
F14   5    0.469053    0.678125    0.386272    11.00000    0.02129    0.02133 =
         0.01278   -0.00555    0.00502    0.00030
C108  1    0.034711    0.555252   -0.261589    11.00000    0.00997    0.02122 =
         0.01073   -0.00027    0.00178    0.00123
C109  1    0.120928    0.567903   -0.156984    11.00000    0.01060    0.01431 =
         0.00966   -0.00116    0.00155    0.00134
C110  1    0.109013    0.554152   -0.071766    11.00000    0.00781    0.01763 =
         0.01363    0.00102    0.00290    0.00038
C111  1    0.188809    0.553043    0.022900    11.00000    0.01246    0.01833 =
         0.01048    0.00202    0.00489   -0.00051
C112  1    0.285440    0.566290    0.038566    11.00000    0.00954    0.01482 =
         0.00989    0.00077    0.00113   -0.00113
C113  1    0.297247    0.583628   -0.046146    11.00000    0.00910    0.01787 =
         0.01310   -0.00011    0.00357   -0.00194
C114  1    0.217078    0.584763   -0.141264    11.00000    0.01343    0.01555 =
         0.00929    0.00029    0.00415   -0.00004
F15   5    0.234326    0.604896   -0.219005    11.00000    0.01667    0.02660 =
         0.01056    0.00122    0.00613   -0.00082
F16   5    0.387783    0.600226   -0.036168    11.00000    0.00936    0.03339 =
         0.01507    0.00017    0.00402   -0.00526
F17   5    0.172707    0.534442    0.102125    11.00000    0.01399    0.03312 =
         0.01035    0.00372    0.00510   -0.00221
F18   5    0.018653    0.537038   -0.080287    11.00000    0.00788    0.03517 =
         0.01451    0.00274    0.00329   -0.00061
O13   4   -0.044016    0.602590   -0.278876    11.00000    0.01057    0.02219 =
         0.01041   -0.00144    0.00140    0.00422
O14   4    0.049429    0.497438   -0.319369    11.00000    0.01395    0.05093 =
         0.02133   -0.01861    0.00019    0.00977
HKLF 4
 
REM  sn565 in P2(1)/c; 110K; Xcalibur
REM R1 =  0.0275 for    6118 Fo > 4sig(Fo)  and  0.0344 for all    6986 data
REM    400 parameters refined using      3 restraints
 
END
 
WGHT      0.0338      1.5267
 
REM Highest difference peak  0.476,  deepest hole -0.445,  1-sigma level  0.059
Q1    1   0.2959  0.5662 -0.0004  11.00000  0.05    0.48
Q2    1   0.5679  0.5247  0.3849  11.00000  0.05    0.47
Q3    1   0.2389  0.5692  0.0326  11.00000  0.05    0.47
Q4    1   0.1679  0.5616 -0.1481  11.00000  0.05    0.43
Q5    1   0.0811  0.5649 -0.2073  11.00000  0.05    0.42
;
_shelx_res_checksum              9699
loop_
_space_group_symop_operation_xyz
'x, y, z'
'-x, y+1/2, -z+1/2'
'-x, -y, -z'
'x, -y-1/2, z-1/2'
loop_
_atom_site_label
_atom_site_type_symbol
_atom_site_fract_x
_atom_site_fract_y
_atom_site_fract_z
_atom_site_U_iso_or_equiv
_atom_site_adp_type
_atom_site_occupancy
_atom_site_site_symmetry_order
_atom_site_calc_flag
_atom_site_refinement_flags_posn
_atom_site_refinement_flags_adp
Zn1 Zn 0.81742(2) 0.59218(2) 0.59681(2) 0.01165(5) Uani 1 1 d . .
O1 O 0.85220(8) 0.71995(8) 0.52903(8) 0.0166(2) Uani 1 1 d D .
H1 H 0.8319(14) 0.7109(15) 0.4662(11) 0.020 Uiso 1 1 d D U
C1 C 0.94568(12) 0.77126(15) 0.57031(13) 0.0289(4) Uani 1 1 d . .
H1A H 0.9602 0.8019 0.6353 0.043 Uiso 1 1 calc R U
H1B H 0.9440 0.8268 0.5246 0.043 Uiso 1 1 calc R U
H1C H 0.9972 0.7203 0.5793 0.043 Uiso 1 1 calc R U
O2 O 0.87667(8) 0.49583(9) 0.52082(8) 0.0225(2) Uani 1 1 d D .
H2 H 0.9371(11) 0.4867(16) 0.5635(13) 0.027 Uiso 1 1 d D U
C2 C 0.83997(13) 0.40167(14) 0.46439(13) 0.0258(4) Uani 1 1 d . .
H2A H 0.8658 0.3411 0.5092 0.039 Uiso 1 1 calc R U
H2B H 0.8613 0.3979 0.4125 0.039 Uiso 1 1 calc R U
H2C H 0.7675 0.4014 0.4328 0.039 Uiso 1 1 calc R U
O3 O 0.78034(8) 0.45439(8) 0.65263(8) 0.0173(2) Uani 1 1 d D .
H3 H 0.7273(12) 0.4330(15) 0.6052(13) 0.021 Uiso 1 1 d D U
C3 C 0.84404(13) 0.36877(13) 0.70372(13) 0.0245(3) Uani 1 1 d . .
H3A H 0.8720 0.3399 0.6621 0.037 Uiso 1 1 calc R U
H3B H 0.8062 0.3142 0.7165 0.037 Uiso 1 1 calc R U
H3C H 0.8977 0.3933 0.7676 0.037 Uiso 1 1 calc R U
N1 N 0.75299(8) 0.68958(9) 0.67063(9) 0.0117(2) Uani 1 1 d . .
N2 N 0.77295(9) 0.77415(9) 0.82597(9) 0.0134(2) Uani 1 1 d . .
N3 N 0.67244(10) 0.85834(10) 0.66389(9) 0.0173(3) Uani 1 1 d . .
N4 N 0.61323(9) 0.69985(10) 0.70907(10) 0.0174(3) Uani 1 1 d . .
C11 C 0.82069(10) 0.71038(11) 0.77895(10) 0.0141(3) Uani 1 1 d . .
H11A H 0.8422 0.6428 0.8150 0.017 Uiso 1 1 calc R U
H11B H 0.8803 0.7474 0.7854 0.017 Uiso 1 1 calc R U
C12 C 0.72111(11) 0.79400(11) 0.61982(11) 0.0164(3) Uani 1 1 d . .
H12A H 0.7797 0.8319 0.6247 0.020 Uiso 1 1 calc R U
H12B H 0.6751 0.7829 0.5478 0.020 Uiso 1 1 calc R U
C13 C 0.66217(11) 0.63674(11) 0.66479(11) 0.0160(3) Uani 1 1 d . .
H13A H 0.6151 0.6228 0.5936 0.019 Uiso 1 1 calc R U
H13B H 0.6814 0.5685 0.7000 0.019 Uiso 1 1 calc R U
C14 C 0.74159(11) 0.87488(11) 0.77058(11) 0.0160(3) Uani 1 1 d . .
H14A H 0.7094 0.9190 0.8011 0.019 Uiso 1 1 calc R U
H14B H 0.8006 0.9129 0.7767 0.019 Uiso 1 1 calc R U
C15 C 0.68301(11) 0.71903(11) 0.81420(11) 0.0163(3) Uani 1 1 d . .
H15A H 0.7022 0.6512 0.8502 0.020 Uiso 1 1 calc R U
H15B H 0.6502 0.7617 0.8450 0.020 Uiso 1 1 calc R U
C16 C 0.58567(11) 0.80066(13) 0.65615(12) 0.0198(3) Uani 1 1 d . .
H16A H 0.5512 0.8440 0.6847 0.024 Uiso 1 1 calc R U
H16B H 0.5391 0.7881 0.5845 0.024 Uiso 1 1 calc R U
O11 O 0.68216(7) 0.58697(8) 0.46760(7) 0.0139(2) Uani 1 1 d . .
O12 O 0.61446(9) 0.43730(9) 0.48640(8) 0.0250(3) Uani 1 1 d . .
C101 C 0.61608(10) 0.51660(11) 0.43981(10) 0.0139(3) Uani 1 1 d . .
C102 C 0.52998(10) 0.53224(11) 0.33539(10) 0.0124(3) Uani 1 1 d . .
C103 C 0.51853(10) 0.46669(11) 0.25753(11) 0.0135(3) Uani 1 1 d . .
C104 C 0.44186(10) 0.47995(11) 0.16207(10) 0.0135(3) Uani 1 1 d . .
C105 C 0.37055(10) 0.55743(11) 0.14045(10) 0.0127(3) Uani 1 1 d . .
C106 C 0.38180(10) 0.62278(11) 0.21884(11) 0.0131(3) Uani 1 1 d . .
C107 C 0.46071(10) 0.61156(11) 0.31385(10) 0.0136(3) Uani 1 1 d . .
F11 F 0.58388(6) 0.38947(7) 0.27428(7) 0.02004(19) Uani 1 1 d . .
F12 F 0.43382(7) 0.41381(7) 0.08925(7) 0.01914(18) Uani 1 1 d . .
F13 F 0.31486(6) 0.69869(7) 0.20176(6) 0.01829(18) Uani 1 1 d . .
F14 F 0.46905(7) 0.67813(7) 0.38627(6) 0.01964(18) Uani 1 1 d . .
C108 C 0.03471(10) 0.55525(12) -0.26159(11) 0.0152(3) Uani 1 1 d . .
C109 C 0.12093(10) 0.56790(11) -0.15698(10) 0.0128(3) Uani 1 1 d . .
C110 C 0.10901(10) 0.55415(11) -0.07177(11) 0.0139(3) Uani 1 1 d . .
C111 C 0.18881(10) 0.55304(11) 0.02290(10) 0.0139(3) Uani 1 1 d . .
C112 C 0.28544(10) 0.56629(11) 0.03857(10) 0.0128(3) Uani 1 1 d . .
C113 C 0.29725(10) 0.58363(11) -0.04615(11) 0.0140(3) Uani 1 1 d . .
C114 C 0.21708(11) 0.58476(11) -0.14126(10) 0.0132(3) Uani 1 1 d . .
F15 F 0.23433(6) 0.60490(7) -0.21900(6) 0.01804(18) Uani 1 1 d . .
F16 F 0.38778(6) 0.60023(7) -0.03617(7) 0.01994(19) Uani 1 1 d . .
F17 F 0.17271(6) 0.53444(7) 0.10213(6) 0.01939(19) Uani 1 1 d . .
F18 F 0.01865(6) 0.53704(8) -0.08029(6) 0.01996(19) Uani 1 1 d . .
O13 O -0.04402(7) 0.60259(8) -0.27888(7) 0.0158(2) Uani 1 1 d . .
O14 O 0.04943(8) 0.49744(11) -0.31937(9) 0.0319(3) Uani 1 1 d . .
loop_
_atom_site_aniso_label
_atom_site_aniso_U_11
_atom_site_aniso_U_22
_atom_site_aniso_U_33
_atom_site_aniso_U_23
_atom_site_aniso_U_13
_atom_site_aniso_U_12
Zn1 0.00877(8) 0.01518(8) 0.00778(8) -0.00027(6) 0.00116(6) 0.00114(6)
O1 0.0139(5) 0.0242(5) 0.0096(5) -0.0009(4) 0.0036(4) -0.0057(4)
C1 0.0189(8) 0.0340(9) 0.0260(9) 0.0024(7) 0.0040(7) -0.0124(7)
O2 0.0136(5) 0.0327(6) 0.0153(5) -0.0087(5) 0.0020(5) 0.0041(4)
C2 0.0238(8) 0.0314(9) 0.0183(8) -0.0090(6) 0.0066(7) 0.0025(7)
O3 0.0149(5) 0.0162(5) 0.0131(5) 0.0020(4) 0.0001(4) 0.0016(4)
C3 0.0271(8) 0.0197(7) 0.0250(8) 0.0086(6) 0.0107(7) 0.0090(6)
N1 0.0102(5) 0.0122(5) 0.0100(5) 0.0005(4) 0.0025(5) 0.0011(4)
N2 0.0127(5) 0.0160(6) 0.0114(5) -0.0015(4) 0.0055(5) 0.0001(4)
N3 0.0201(6) 0.0173(6) 0.0148(6) 0.0024(5) 0.0084(5) 0.0056(5)
N4 0.0140(6) 0.0197(6) 0.0194(6) -0.0051(5) 0.0087(5) -0.0028(5)
C11 0.0121(6) 0.0175(7) 0.0109(6) -0.0004(5) 0.0040(5) 0.0025(5)
C12 0.0204(7) 0.0152(7) 0.0146(7) 0.0039(5) 0.0091(6) 0.0051(5)
C13 0.0139(7) 0.0175(7) 0.0176(7) -0.0037(5) 0.0082(6) -0.0024(5)
C14 0.0189(7) 0.0129(6) 0.0185(7) -0.0017(5) 0.0107(6) -0.0007(5)
C15 0.0184(7) 0.0167(7) 0.0176(7) -0.0011(5) 0.0114(6) -0.0018(5)
C16 0.0130(7) 0.0263(8) 0.0176(7) -0.0025(6) 0.0051(6) 0.0067(6)
O11 0.0105(5) 0.0167(5) 0.0101(5) 0.0004(4) 0.0012(4) -0.0022(4)
O12 0.0230(6) 0.0257(6) 0.0152(5) 0.0073(4) -0.0003(5) -0.0083(5)
C101 0.0124(6) 0.0177(7) 0.0092(6) -0.0001(5) 0.0029(5) -0.0002(5)
C102 0.0088(6) 0.0156(6) 0.0097(6) 0.0009(5) 0.0016(5) -0.0042(5)
C103 0.0092(6) 0.0146(6) 0.0137(6) 0.0015(5) 0.0027(5) 0.0003(5)
C104 0.0123(6) 0.0157(6) 0.0108(6) -0.0029(5) 0.0040(6) -0.0035(5)
C105 0.0085(6) 0.0167(6) 0.0100(6) 0.0012(5) 0.0018(5) -0.0031(5)
C106 0.0097(6) 0.0144(6) 0.0139(6) 0.0016(5) 0.0044(6) -0.0007(5)
C107 0.0143(6) 0.0152(6) 0.0103(6) -0.0023(5) 0.0049(6) -0.0041(5)
F11 0.0145(4) 0.0215(4) 0.0178(4) -0.0012(3) 0.0022(4) 0.0060(3)
F12 0.0174(4) 0.0227(4) 0.0128(4) -0.0070(3) 0.0032(4) 0.0000(3)
F13 0.0141(4) 0.0180(4) 0.0185(4) 0.0003(3) 0.0040(4) 0.0041(3)
F14 0.0213(4) 0.0213(4) 0.0128(4) -0.0055(3) 0.0050(4) 0.0003(3)
C108 0.0100(6) 0.0212(7) 0.0107(6) -0.0003(5) 0.0018(5) 0.0012(5)
C109 0.0106(6) 0.0143(6) 0.0097(6) -0.0012(5) 0.0016(5) 0.0013(5)
C110 0.0078(6) 0.0176(7) 0.0136(6) 0.0010(5) 0.0029(5) 0.0004(5)
C111 0.0125(6) 0.0183(7) 0.0105(6) 0.0020(5) 0.0049(6) -0.0005(5)
C112 0.0095(6) 0.0148(6) 0.0099(6) 0.0008(5) 0.0011(5) -0.0011(5)
C113 0.0091(6) 0.0179(7) 0.0131(6) -0.0001(5) 0.0036(6) -0.0019(5)
C114 0.0134(6) 0.0156(6) 0.0093(6) 0.0003(5) 0.0042(5) 0.0000(5)
F15 0.0167(4) 0.0266(5) 0.0106(4) 0.0012(3) 0.0061(4) -0.0008(3)
F16 0.0094(4) 0.0334(5) 0.0151(4) 0.0002(4) 0.0040(4) -0.0053(3)
F17 0.0140(4) 0.0331(5) 0.0104(4) 0.0037(3) 0.0051(4) -0.0022(4)
F18 0.0079(4) 0.0352(5) 0.0145(4) 0.0027(4) 0.0033(3) -0.0006(3)
O13 0.0106(5) 0.0222(5) 0.0104(5) -0.0014(4) 0.0014(4) 0.0042(4)
O14 0.0139(5) 0.0509(8) 0.0213(6) -0.0186(6) 0.0002(5) 0.0098(5)
loop_
_atom_type_symbol
_atom_type_description
_atom_type_scat_dispersion_real
_atom_type_scat_dispersion_imag
_atom_type_scat_source
C C 0.0033 0.0016 'International Tables Vol C Tables 4.2.6.8 and 6.1.1.4'
H H 0.0000 0.0000 'International Tables Vol C Tables 4.2.6.8 and 6.1.1.4'
N N 0.0061 0.0033 'International Tables Vol C Tables 4.2.6.8 and 6.1.1.4'
O O 0.0106 0.0060 'International Tables Vol C Tables 4.2.6.8 and 6.1.1.4'
F F 0.0171 0.0103 'International Tables Vol C Tables 4.2.6.8 and 6.1.1.4'
Zn Zn 0.2839 1.4301 'International Tables Vol C Tables 4.2.6.8 and 6.1.1.4'
loop_
_geom_angle_atom_site_label_1
_geom_angle_atom_site_label_2
_geom_angle_atom_site_label_3
_geom_angle
_geom_angle_site_symmetry_1
_geom_angle_site_symmetry_3
_geom_angle_publ_flag
O1 Zn1 O2 85.38(5) . . yes
O1 Zn1 O3 174.36(4) . . yes
O1 Zn1 N1 94.75(4) . . yes
O2 Zn1 N1 178.40(4) . . yes
O3 Zn1 O2 89.72(4) . . yes
O3 Zn1 N1 90.08(4) . . yes
O11 Zn1 O1 86.36(4) . . yes
O11 Zn1 O2 87.97(4) . . yes
O11 Zn1 O3 90.69(4) . . yes
O11 Zn1 N1 90.44(4) . . yes
O13 Zn1 O1 90.35(4) 1_656 . ye
O13 Zn1 O2 90.65(4) 1_656 . yes
O13 Zn1 O3 92.50(4) 1_656 . yes
O13 Zn1 N1 90.94(4) 1_656 . yes
O13 Zn1 O11 176.52(4) 1_656 . yes
Zn1 O1 H1 112.8(13) . . ?
C1 O1 Zn1 124.71(10) . . ?
C1 O1 H1 108.5(13) . . ?
O1 C1 H1A 109.5 . . ?
O1 C1 H1B 109.5 . . ?
O1 C1 H1C 109.5 . . ?
H1A C1 H1B 109.5 . . ?
H1A C1 H1C 109.5 . . ?
H1B C1 H1C 109.5 . . ?
Zn1 O2 H2 104.7(14) . . ?
C2 O2 Zn1 130.80(10) . . ?
C2 O2 H2 108.8(14) . . ?
O2 C2 H2A 109.5 . . ?
O2 C2 H2B 109.5 . . ?
O2 C2 H2C 109.5 . . ?
H2A C2 H2B 109.5 . . ?
H2A C2 H2C 109.5 . . ?
H2B C2 H2C 109.5 . . ?
Zn1 O3 H3 105.1(13) . . ?
C3 O3 Zn1 127.07(10) . . ?
C3 O3 H3 110.9(13) . . ?
O3 C3 H3A 109.5 . . ?
O3 C3 H3B 109.5 . . ?
O3 C3 H3C 109.5 . . ?
H3A C3 H3B 109.5 . . ?
H3A C3 H3C 109.5 . . ?
H3B C3 H3C 109.5 . . ?
C11 N1 Zn1 114.26(8) . . ?
C11 N1 C12 107.15(11) . . ?
C11 N1 C13 107.00(11) . . ?
C12 N1 Zn1 111.15(8) . . ?
C12 N1 C13 107.23(11) . . ?
C13 N1 Zn1 109.74(8) . . ?
C11 N2 C14 107.99(11) . . ?
C11 N2 C15 108.71(11) . . ?
C15 N2 C14 107.80(11) . . ?
C12 N3 C14 108.65(12) . . ?
C12 N3 C16 108.35(12) . . ?
C14 N3 C16 108.62(12) . . ?
C13 N4 C15 108.60(12) . . ?
C13 N4 C16 108.28(12) . . ?
C15 N4 C16 108.80(12) . . ?
N1 C11 H11A 109.2 . . ?
N1 C11 H11B 109.2 . . ?
N2 C11 N1 112.17(11) . . ?
N2 C11 H11A 109.2 . . ?
N2 C11 H11B 109.2 . . ?
H11A C11 H11B 107.9 . . ?
N1 C12 H12A 109.1 . . ?
N1 C12 H12B 109.1 . . ?
N3 C12 N1 112.32(11) . . ?
N3 C12 H12A 109.1 . . ?
N3 C12 H12B 109.1 . . ?
H12A C12 H12B 107.9 . . ?
N1 C13 H13A 109.1 . . ?
N1 C13 H13B 109.1 . . ?
N4 C13 N1 112.48(11) . . ?
N4 C13 H13A 109.1 . . ?
N4 C13 H13B 109.1 . . ?
H13A C13 H13B 107.8 . . ?
N2 C14 H14A 109.3 . . ?
N2 C14 H14B 109.3 . . ?
N3 C14 N2 111.70(11) . . ?
N3 C14 H14A 109.3 . . ?
N3 C14 H14B 109.3 . . ?
H14A C14 H14B 107.9 . . ?
N2 C15 H15A 109.2 . . ?
N2 C15 H15B 109.2 . . ?
N4 C15 N2 112.15(11) . . ?
N4 C15 H15A 109.2 . . ?
N4 C15 H15B 109.2 . . ?
H15A C15 H15B 107.9 . . ?
N3 C16 H16A 109.2 . . ?
N3 C16 H16B 109.2 . . ?
N4 C16 N3 112.03(12) . . ?
N4 C16 H16A 109.2 . . ?
N4 C16 H16B 109.2 . . ?
H16A C16 H16B 107.9 . . ?
C101 O11 Zn1 128.58(9) . . ?
O11 C101 C102 114.84(12) . . ?
O12 C101 O11 127.94(13) . . ?
O12 C101 C102 117.21(12) . . ?
C103 C102 C101 120.26(12) . . ?
C103 C102 C107 117.45(12) . . ?
C107 C102 C101 122.29(12) . . ?
C104 C103 C102 121.38(13) . . ?
F11 C103 C102 119.74(12) . . ?
F11 C103 C104 118.87(13) . . ?
C103 C104 C105 121.52(13) . . ?
F12 C104 C103 119.01(13) . . ?
F12 C104 C105 119.42(12) . . ?
C104 C105 C112 120.59(12) . . ?
C106 C105 C104 117.00(12) . . ?
C106 C105 C112 122.38(13) . . ?
C107 C106 C105 121.36(13) . . ?
F13 C106 C105 119.24(12) . . ?
F13 C106 C107 119.40(12) . . ?
C106 C107 C102 121.23(13) . . ?
F14 C107 C102 119.89(12) . . ?
F14 C107 C106 118.88(13) . . ?
O13 C108 C109 116.46(12) . . ?
O14 C108 C109 116.00(13) . . ?
O14 C108 O13 127.51(13) . . ?
C110 C109 C108 121.41(13) . . ?
C110 C109 C114 116.47(13) . . ?
C114 C109 C108 121.89(13) . . ?
C111 C110 C109 121.58(13) . . ?
F18 C110 C109 120.29(12) . . ?
F18 C110 C111 118.07(12) . . ?
C110 C111 C112 122.01(13) . . ?
F17 C111 C110 118.66(12) . . ?
F17 C111 C112 119.27(12) . . ?
C111 C112 C105 120.97(13) . . ?
C113 C112 C105 122.47(13) . . ?
C113 C112 C111 116.51(13) . . ?
C114 C113 C112 121.46(13) . . ?
F16 C113 C112 119.60(12) . . ?
F16 C113 C114 118.94(13) . . ?
C113 C114 C109 121.89(13) . . ?
F15 C114 C109 120.25(12) . . ?
F15 C114 C113 117.84(12) . . ?
C108 O13 Zn1 129.01(9) . 1_454 ?
loop_
_geom_bond_atom_site_label_1
_geom_bond_atom_site_label_2
_geom_bond_distance
_geom_bond_site_symmetry_2
_geom_bond_publ_flag
Zn1 O1 2.1189(10) . yes
Zn1 O2 2.1476(11) . yes
Zn1 O3 2.1361(11) . yes
Zn1 N1 2.1854(12) . yes
Zn1 O11 2.0770(10) . yes
Zn1 O13 2.0761(10) 1_656 yes
O1 H1 0.856(14) . ?
O1 C1 1.4238(18) . ?
C1 H1A 0.9800 . ?
C1 H1B 0.9800 . ?
C1 H1C 0.9800 . ?
O2 H2 0.852(15) . ?
O2 C2 1.4265(19) . ?
C2 H2A 0.9800 . ?
C2 H2B 0.9800 . ?
C2 H2C 0.9800 . ?
O3 H3 0.837(15) . ?
O3 C3 1.4261(18) . ?
C3 H3A 0.9800 . ?
C3 H3B 0.9800 . ?
C3 H3C 0.9800 . ?
N1 C11 1.4933(17) . ?
N1 C12 1.4998(17) . ?
N1 C13 1.5085(18) . ?
N2 C11 1.4764(18) . ?
N2 C14 1.4845(18) . ?
N2 C15 1.4794(18) . ?
N3 C12 1.4595(19) . ?
N3 C14 1.4701(19) . ?
N3 C16 1.473(2) . ?
N4 C13 1.4559(19) . ?
N4 C15 1.4598(19) . ?
N4 C16 1.467(2) . ?
C11 H11A 0.9900 . ?
C11 H11B 0.9900 . ?
C12 H12A 0.9900 . ?
C12 H12B 0.9900 . ?
C13 H13A 0.9900 . ?
C13 H13B 0.9900 . ?
C14 H14A 0.9900 . ?
C14 H14B 0.9900 . ?
C15 H15A 0.9900 . ?
C15 H15B 0.9900 . ?
C16 H16A 0.9900 . ?
C16 H16B 0.9900 . ?
O11 C101 1.2673(17) . ?
O12 C101 1.2381(18) . ?
C101 C102 1.5217(19) . ?
C102 C103 1.384(2) . ?
C102 C107 1.389(2) . ?
C103 C104 1.3779(19) . ?
C103 F11 1.3402(16) . ?
C104 C105 1.393(2) . ?
C104 F12 1.3438(16) . ?
C105 C106 1.390(2) . ?
C105 C112 1.4829(19) . ?
C106 C107 1.3834(19) . ?
C106 F13 1.3435(16) . ?
C107 F14 1.3412(16) . ?
C108 C109 1.5197(19) . ?
C108 O13 1.2602(17) . ?
C108 O14 1.2394(18) . ?
C109 C110 1.390(2) . ?
C109 C114 1.392(2) . ?
C110 C111 1.3782(19) . ?
C110 F18 1.3442(16) . ?
C111 C112 1.3932(19) . ?
C111 F17 1.3484(16) . ?
C112 C113 1.388(2) . ?
C113 C114 1.3847(19) . ?
C113 F16 1.3375(16) . ?
C114 F15 1.3408(16) . ?
O13 Zn1 2.0761(10) 1_454 ?
