#------------------------------------------------------------------------------
#$Date: 2019-11-17 10:57:06 +0200 (Sun, 17 Nov 2019) $
#$Revision: 229459 $
#$URL: file:///home/coder/svn-repositories/cod/cif/7/04/51/7045152.cif $
#------------------------------------------------------------------------------
#
# This file is available in the Crystallography Open Database (COD),
# http://www.crystallography.net/
#
# All data on this site have been placed in the public domain by the
# contributors.
#
data_7045152
loop_
_publ_author_name
'Liu, Fu-Ling'
'Li, Dong'
'Su, Li-Jie'
'Tao, Jun'
_publ_section_title
;
 Reversible three equal-step spin crossover in an iron(ii) Hofmann-type
 metal-organic framework.
;
_journal_issue                   5
_journal_name_full
'Dalton transactions (Cambridge, England : 2003)'
_journal_page_first              1407
_journal_page_last               1411
_journal_paper_doi               10.1039/c7dt04205a
_journal_volume                  47
_journal_year                    2018
_chemical_formula_sum            'C22.5 H10.25 Fe N11.5 O2.5 Pt'
_chemical_formula_weight         732.61
_space_group_crystal_system      orthorhombic
_space_group_IT_number           55
_space_group_name_Hall           '-P 2 2ab'
_space_group_name_H-M_alt        'P b a m'
_symmetry_space_group_name_Hall  '-P 2 2ab'
_symmetry_space_group_name_H-M   'P b a m'
_atom_sites_solution_hydrogens   mixed
_audit_creation_method           SHELXL-2014/7
_audit_update_record
;
2017-10-21 deposited with the CCDC.
2017-12-22 downloaded from the CCDC.
;
_cell_angle_alpha                90
_cell_angle_beta                 90
_cell_angle_gamma                90
_cell_formula_units_Z            8
_cell_length_a                   27.3734(7)
_cell_length_b                   28.6387(9)
_cell_length_c                   7.1961(2)
_cell_measurement_reflns_used    5824
_cell_measurement_temperature    100(2)
_cell_measurement_theta_max      65.7750
_cell_measurement_theta_min      3.5540
_cell_volume                     5641.3(3)
_computing_structure_refinement  'SHELXL-2014/7 (Sheldrick, 2014)'
_diffrn_ambient_temperature      100(2)
_diffrn_measured_fraction_theta_full 0.979
_diffrn_measured_fraction_theta_max 0.979
_diffrn_measurement_device_type  'SuperNova, Dual, Cu at zero, Atlas'
_diffrn_radiation_type           CuK\a
_diffrn_radiation_wavelength     1.54184
_diffrn_reflns_av_R_equivalents  0.0350
_diffrn_reflns_av_unetI/netI     0.0294
_diffrn_reflns_Laue_measured_fraction_full 0.979
_diffrn_reflns_Laue_measured_fraction_max 0.979
_diffrn_reflns_limit_h_max       32
_diffrn_reflns_limit_h_min       -25
_diffrn_reflns_limit_k_max       33
_diffrn_reflns_limit_k_min       -33
_diffrn_reflns_limit_l_max       3
_diffrn_reflns_limit_l_min       -8
_diffrn_reflns_number            16680
_diffrn_reflns_point_group_measured_fraction_full 0.979
_diffrn_reflns_point_group_measured_fraction_max 0.979
_diffrn_reflns_theta_full        65.610
_diffrn_reflns_theta_max         65.610
_diffrn_reflns_theta_min         3.483
_exptl_absorpt_coefficient_mu    13.639
_exptl_absorpt_correction_T_max  1.00000
_exptl_absorpt_correction_T_min  0.61279
_exptl_absorpt_correction_type   multi-scan
_exptl_crystal_colour            red
_exptl_crystal_density_diffrn    1.725
_exptl_crystal_description       rodlike
_exptl_crystal_F_000             2798
_exptl_crystal_size_max          0.100
_exptl_crystal_size_mid          0.050
_exptl_crystal_size_min          0.050
_refine_diff_density_max         3.522
_refine_diff_density_min         -2.262
_refine_diff_density_rms         0.220
_refine_ls_extinction_method     none
_refine_ls_goodness_of_fit_ref   1.081
_refine_ls_hydrogen_treatment    constr
_refine_ls_matrix_type           full
_refine_ls_number_parameters     519
_refine_ls_number_reflns         5197
_refine_ls_number_restraints     486
_refine_ls_restrained_S_all      1.061
_refine_ls_R_factor_all          0.0616
_refine_ls_R_factor_gt           0.0532
_refine_ls_shift/su_max          0.047
_refine_ls_shift/su_mean         0.001
_refine_ls_structure_factor_coef Fsqd
_refine_ls_weighting_details
'w=1/[\s^2^(Fo^2^)+(0.0750P)^2^+76.2650P] where P=(Fo^2^+2Fc^2^)/3'
_refine_ls_weighting_scheme      calc
_refine_ls_wR_factor_gt          0.1446
_refine_ls_wR_factor_ref         0.1524
_reflns_Friedel_coverage         0.000
_reflns_number_gt                4312
_reflns_number_total             5197
_reflns_threshold_expression     'I > 2\s(I)'
_cod_data_source_file            c7dt04205a2.cif
_cod_data_source_block           p-100K
_cod_depositor_comments
'Adding full bibliography for 7045151--7045154.cif.'
_cod_original_formula_sum        'C22.50 H10.25 Fe N11.50 O2.50 Pt'
_cod_database_code               7045152
_shelx_shelxl_version_number     2014/7
_shelx_space_group_comment
;
The symmetry employed for this shelxl refinement is uniquely defined
by the following loop, which should always be used as a source of
symmetry information in preference to the above space-group names.
They are only intended as comments.
;
_shelx_estimated_absorpt_t_min   0.342
_shelx_estimated_absorpt_t_max   0.549
_shelx_res_file
;

    p.res created by SHELXL-2014/7

TITL exp_4318_a.res in Pbam
REM Old TITL exp_4318_a.res in Pbam
REM SHELXT solution in Pbam
REM R1 0.110, Rweak 0.001, Alpha 0.032, Orientation as input
REM Formula found by SHELXT: C50 Fe2 N13 O13 Pt2
CELL 1.54184 27.3734 28.6387 7.1961 90 90 90
ZERR 8 0.0007 0.0009 0.0002 0 0 0
LATT 1
SYMM -X,-Y,+Z
SYMM 0.5-X,0.5+Y,-Z
SYMM 0.5+X,0.5-Y,-Z
SFAC C H Fe N O Pt
UNIT 180 82 8 92 20 8
SIMU 0.004 0.08 1.7 $c $n
ISOR 0.01 0.2 C49 O4 O3 O5

L.S. 4
PLAN  20
SIZE 0.1 0.05 0.05
temp -173
bond $h
list 4
fmap 2
acta
OMIT 2 0 1
OMIT 4 3 0
OMIT 5 3 0
OMIT 7 1 0
OMIT 8 1 6
OMIT 2 5 0
OMIT 3 5 0
OMIT 6 1 1
OMIT 0 0 5
OMIT 2 7 0
OMIT 6 3 0
OMIT 25 4 5
OMIT 7 2 1
OMIT 8 1 8
OMIT 8 3 0
OMIT 7 1 1
OMIT 0 0 1
OMIT 2 0 2
OMIT 1 5 0
OMIT 9 3 1
OMIT 24 0 5
OMIT 25 6 5
OMIT 1 1 1
OMIT 3 3 0
OMIT 0 8 1
OMIT 2 1 0
OMIT 0 2 1
OMIT 6 14 0
OMIT 24 2 5
OMIT 24 10 5
OMIT 25 2 5
OMIT 6 6 0
OMIT 2 4 0
OMIT 4 1 0
OMIT 8 1 2
REM <olex2.extras>
REM <HklSrc "%.\\exp_4318.hkl">
REM </olex2.extras>

WGHT    0.075000   76.264961
FVAR       0.08461
PT2   6    0.374130    0.464966    1.000000    10.50000    0.00522    0.01243 =
         0.00414    0.00000    0.00000   -0.00276
PT1   6    0.126093    0.467972    0.000000    10.50000    0.00359    0.01152 =
         0.00370    0.00000    0.00000    0.00200
FE1   3    0.000000    0.500000   -0.500000    10.25000    0.00209    0.00529 =
         0.00418    0.00000    0.00000    0.00158
FE3   3    0.500000    0.500000    1.500000    10.25000    0.00496    0.00468 =
         0.00473    0.00000    0.00000   -0.00218
FE2   3    0.252549    0.437973    0.500000    10.50000    0.00304    0.00420 =
         0.00279    0.00000    0.00000   -0.00014
N6    4    0.047815    0.487689   -0.309534    11.00000    0.01117    0.01019 =
         0.00681    0.00078    0.00227    0.00100
N8    4    0.301744    0.430418    0.691771    11.00000    0.00791    0.00855 =
         0.00793    0.00156    0.00225    0.00112
N13   4    0.230497    0.007173    0.500000    10.50000    0.00293    0.00892 =
         0.01485    0.00000    0.00000    0.00056
N1    4    0.019230    0.566152   -0.500000    10.50000    0.00395    0.00994 =
         0.01744    0.00000    0.00000    0.00064
N5    4    0.017583    0.926043   -0.500000    10.50000    0.00639    0.01212 =
         0.02378    0.00000    0.00000   -0.00008
N14   4    0.444859    0.509999    1.290777    11.00000    0.01197    0.01533 =
         0.01074    0.00184   -0.00318   -0.00098
N9    4    0.235167    0.370287    0.500000    10.50000    0.00948    0.00548 =
         0.01288    0.00000    0.00000   -0.00109
N7    4    0.204521    0.449298    0.309984    11.00000    0.00750    0.00713 =
         0.00924    0.00179    0.00139    0.00055
N12   4    0.223740    0.189200    0.500000    10.50000    0.00946    0.00701 =
         0.03470    0.00000    0.00000    0.00149
C13   1    0.175583    0.455856    0.195995    11.00000    0.01005    0.00826 =
         0.01205   -0.00090    0.00561    0.00074
C3    1    0.209051    0.275687    0.500000    10.50000    0.01052    0.00755 =
         0.02185    0.00000    0.00000   -0.00087
C24   1   -0.016166    0.892481   -0.500000    10.50000    0.00567    0.01559 =
         0.02786    0.00000    0.00000   -0.00096
AFIX  43
H24   2   -0.049614    0.901327   -0.500000    10.50000   -1.20000
AFIX   0
C17   1    0.045124    0.660746   -0.500000    10.50000    0.00980    0.01176 =
         0.02929    0.00000    0.00000   -0.00062
C12   1    0.171431    0.068136    0.500000    10.50000    0.00817    0.00875 =
         0.01964    0.00000    0.00000    0.00041
AFIX  43
H12   2    0.137926    0.076782    0.500000    10.50000   -1.20000
AFIX   0
C11   1    0.183979    0.021566    0.500000    10.50000    0.00433    0.00820 =
         0.01538    0.00000    0.00000   -0.00100
AFIX  43
H11   2    0.158701   -0.001164    0.500000    10.50000   -1.20000
AFIX   0
C28   1    0.417410    0.493911    1.187558    11.00000    0.01246    0.01389 =
         0.01078    0.00360    0.00182    0.00065
C10   1    0.265918    0.040415    0.500000    10.50000    0.00549    0.01002 =
         0.01591    0.00000    0.00000   -0.00027
AFIX  43
H10   2    0.299156    0.030870    0.500000    10.50000   -1.20000
AFIX   0
C8    1    0.206781    0.102331    0.500000    10.50000    0.00880    0.00953 =
         0.02352    0.00000    0.00000    0.00056
C26   1    0.078877    0.867068   -0.500000    10.50000    0.00871    0.01195 =
         0.02689    0.00000    0.00000    0.00036
AFIX  43
H26   2    0.112580    0.859156   -0.500000    10.50000   -1.20000
AFIX   0
C27   1    0.330056    0.439172    0.805549    11.00000    0.00932    0.01042 =
         0.01322    0.00206    0.00581    0.00067
C6    1    0.194665    0.225706    0.500000    10.50000    0.01214    0.00798 =
         0.03699    0.00000    0.00000    0.00034
C15   1    0.066157    0.579742   -0.500000    10.50000    0.00573    0.01164 =
         0.02011    0.00000    0.00000    0.00088
AFIX  43
H15   2    0.090802    0.556387   -0.500000    10.50000   -1.20000
AFIX   0
C19   1   -0.014995    0.600458   -0.500000    10.50000    0.00364    0.01027 =
         0.01744    0.00000    0.00000   -0.00047
AFIX  43
H19   2   -0.048493    0.591784   -0.500000    10.50000   -1.20000
AFIX   0
C5    1    0.188471    0.356919    0.500000    10.50000    0.00868    0.00729 =
         0.01517    0.00000    0.00000    0.00156
AFIX  43
H5    2    0.163900    0.380346    0.500000    10.50000   -1.20000
AFIX   0
C14   1    0.076496    0.480225   -0.195781    11.00000    0.01175    0.01059 =
         0.00980   -0.00006    0.00382    0.00188
N4    4    0.029139    0.745838   -0.500000    10.50000    0.00978    0.01041 =
         0.04318    0.00000    0.00000   -0.00091
C7    1    0.192759    0.151671    0.500000    10.50000    0.01075    0.00948 =
         0.04034    0.00000    0.00000    0.00038
C9    1    0.255435    0.087233    0.500000    10.50000    0.00691    0.01166 =
         0.01908    0.00000    0.00000    0.00080
AFIX  43
H9    2    0.281207    0.109450    0.500000    10.50000   -1.20000
AFIX   0
C23   1   -0.004906    0.845607   -0.500000    10.50000    0.00715    0.01465 =
         0.03118    0.00000    0.00000   -0.00037
AFIX  43
H23   2   -0.030198    0.822893   -0.500000    10.50000   -1.20000
AFIX   0
C22   1    0.043703    0.831847   -0.500000    10.50000    0.00968    0.01202 =
         0.03216    0.00000    0.00000    0.00080
C16   1    0.080261    0.625649   -0.500000    10.50000    0.00753    0.01176 =
         0.02424    0.00000    0.00000    0.00154
AFIX  43
H16   2    0.113980    0.633498   -0.500000    10.50000   -1.20000
AFIX   0
C2    1    0.257963    0.289294    0.500000    10.50000    0.00987    0.00932 =
         0.01732    0.00000    0.00000    0.00058
AFIX  43
H2    2    0.283244    0.266568    0.500000    10.50000   -1.20000
AFIX   0
C4    1    0.174062    0.310513    0.500000    10.50000    0.00942    0.00729 =
         0.01792    0.00000    0.00000   -0.00100
AFIX  43
H4    2    0.140338    0.302681    0.500000    10.50000   -1.20000
AFIX   0
C25   1    0.065080    0.912844   -0.500000    10.50000    0.00723    0.01096 =
         0.02319    0.00000    0.00000   -0.00095
AFIX  43
H25   2    0.089651    0.936271   -0.500000    10.50000   -1.20000
AFIX   0
C18   1   -0.003477    0.646944   -0.500000    10.50000    0.00683    0.01060 =
         0.02221    0.00000    0.00000   -0.00094
AFIX  43
H18   2   -0.028698    0.669732   -0.500000    10.50000   -1.20000
AFIX   0
C21   1    0.059113    0.783307   -0.500000    10.50000    0.01118    0.01126 =
         0.04287    0.00000    0.00000    0.00042
C1    1    0.268985    0.335999    0.500000    10.50000    0.00858    0.00787 =
         0.01327    0.00000    0.00000    0.00124
AFIX  43
H1    2    0.302460    0.344752    0.500000    10.50000   -1.20000
AFIX   0
C20   1    0.058842    0.709934   -0.500000    10.50000    0.01224    0.01092 =
         0.04374    0.00000    0.00000   -0.00117
N3    4    0.105449    0.772508   -0.500000    10.50000    0.01774    0.01338 =
         0.05960    0.00000    0.00000   -0.00175
N2    4    0.104245    0.724836   -0.500000    10.50000    0.01690    0.01307 =
         0.06096    0.00000    0.00000   -0.00071
AFIX  43
H2A   2    0.130182    0.706681   -0.500000    10.50000   -1.20000
AFIX   0
N10   4    0.148562    0.211820    0.500000    10.50000    0.01853    0.01329 =
         0.06172    0.00000    0.00000    0.00224
AFIX  43
H10A  2    0.123011    0.230468    0.500000    10.50000   -1.20000
AFIX   0
N11   4    0.146638    0.164344    0.500000    10.50000    0.01843    0.01449 =
         0.06581    0.00000    0.00000   -0.00073

O2    5    0.068619    0.261546    0.359484    10.50000    0.00969    0.01301 =
         0.03044    0.00279   -0.00107   -0.00307
AFIX   3
H2B   2    0.046449    0.245646    0.306244    10.50000   -1.20000
H2C   2    0.074729    0.287386    0.306244    10.50000   -1.20000
AFIX   0

O4    5    0.232206    0.102495    0.000000    10.50000    0.08612    0.05688 =
         0.06947    0.00000    0.00000   -0.00708
C40   1    0.254709    0.331503    0.000000    10.50000    0.04573    0.03385 =
         0.01754    0.00000    0.00000   -0.00034
C36   1    0.179530    0.290204    0.000000    10.25000    0.04596    0.02594 =
         0.01149    0.00000    0.00000   -0.00098
C41   1    0.205480    0.330790    0.000000    10.50000    0.04461    0.02842 =
         0.01420    0.00000    0.00000   -0.00130
C39   1    0.280060    0.289663    0.000000    10.25000    0.04497    0.03483 =
         0.02064    0.00000    0.00000    0.00520
C38   1    0.249402    0.248004    0.000000    10.50000    0.05846    0.04125 =
         0.02350    0.00000    0.00000    0.00808
C42   1    0.331356    0.275246    0.000000    10.25000    0.03906    0.02786 =
         0.02892    0.00000    0.00000    0.00127
N20   4    0.403485    0.243413    0.000000    10.25000    0.03369    0.02468 =
         0.03752    0.00000    0.00000   -0.00144
N19   4    0.352782    0.236540    0.000000    10.25000    0.03730    0.02706 =
         0.03769    0.00000    0.00000   -0.00057
AFIX  43
H19A  2    0.338177    0.209167    0.000000    10.25000   -1.20000
AFIX   0
N21   4    0.364712    0.309396    0.000000    10.25000    0.03585    0.02334 =
         0.02724    0.00000    0.00000   -0.00253
C43   1    0.398356    0.292881    0.000000    10.25000    0.03127    0.02076 =
         0.02958    0.00000    0.00000   -0.00266
C37   1    0.205315    0.248918    0.000000    10.50000    0.05775    0.03775 =
         0.02181    0.00000    0.00000   -0.00014
N22   4    0.539996    0.361426    0.000000    10.25000    0.02552    0.02372 =
         0.02510    0.00000    0.00000   -0.00093
C47   1    0.498689    0.384748    0.000000    10.25000    0.02537    0.02295 =
         0.02392    0.00000    0.00000    0.00024
C46   1    0.538360    0.315885    0.000000    10.25000    0.02552    0.02064 =
         0.02324    0.00000    0.00000   -0.00130
C48   1    0.454084    0.363745    0.000000    10.25000    0.02662    0.01977 =
         0.02331    0.00000    0.00000   -0.00051
C44   1    0.455603    0.315520    0.000000    10.25000    0.02751    0.01883 =
         0.02384    0.00000    0.00000   -0.00093
C34   1    0.066836    0.296467    0.000000    10.25000    0.04767    0.01669 =
         0.00510    0.00000    0.00000    0.00658
N17   4    0.106614    0.239018    0.000000    10.25000    0.04792    0.02352 =
         0.01223    0.00000    0.00000    0.00484
C35   1    0.129214    0.280216    0.000000    10.25000    0.04685    0.02385 =
         0.01001    0.00000    0.00000    0.00447
C31   1    0.003665    0.322137    0.000000    10.25000    0.05875    0.04370 =
         0.01054    0.00000    0.00000    0.00009
C32   1    0.008253    0.370410    0.000000    10.25000    0.05986    0.04459 =
         0.01193    0.00000    0.00000    0.00216
AFIX  43
H32   2    0.038782    0.386187    0.000000    10.25000   -1.20000
AFIX   0
N16   4    0.058242    0.249172    0.000000    10.25000    0.04846    0.02097 =
         0.01068    0.00000    0.00000    0.00523
N18   4    0.092468    0.312038    0.000000    10.25000    0.04751    0.02193 =
         0.00599    0.00000    0.00000    0.01095
N15   4   -0.081538    0.370169    0.000000    10.25000    0.05895    0.04755 =
         0.01444    0.00000    0.00000    0.00256
C30   1   -0.037634    0.300229    0.000000    10.25000    0.05850    0.04508 =
         0.01225    0.00000    0.00000    0.00021
AFIX  43
H30   2   -0.038157    0.267061    0.000000    10.25000   -1.20000
AFIX   0
C33   1   -0.037110    0.393476    0.000000    10.25000    0.06045    0.04610 =
         0.01352    0.00000    0.00000    0.00217
AFIX  43
H33   2   -0.037337    0.426648    0.000000    10.25000   -1.20000
AFIX   0
C29   1   -0.080960    0.324870    0.000000    10.25000    0.05844    0.04665 =
         0.01338    0.00000    0.00000    0.00163
AFIX  43
H29   2   -0.111024    0.308298    0.000000    10.25000   -1.20000
AFIX   0

O3    5    0.316460    0.141114    0.000000    10.50000    0.10750    0.05659 =
         0.27021    0.00000    0.00000   -0.01551
C49   1    0.230316    0.052640    0.000000    10.50000    0.14388    0.04037 =
         0.04004    0.00000    0.00000   -0.02277
O5    5    0.140519    0.136816    0.000000    10.50000    0.07013    0.06388 =
         0.26796    0.00000    0.00000    0.00848
C45   1    0.496625    0.293119    0.000000    10.12500    0.02452    0.01872 =
         0.02208    0.00000    0.00000   -0.00126
C45A  1    0.490207    0.319224    0.000000    10.12500    0.02504    0.01862 =
         0.02235    0.00000    0.00000   -0.00124
O1    5    0.183255    0.680228   -0.344371    10.50000    0.01135    0.02225 =
         0.02865    0.00060    0.00242    0.00002
AFIX   3
H1A   2    0.204455    0.697178   -0.290521    10.50000   -1.20000
H1B   2    0.177855    0.654318   -0.290521    10.50000   -1.20000
AFIX   0
HKLF 4

REM  exp_4318_a.res in Pbam
REM R1 =  0.0532 for    4312 Fo > 4sig(Fo)  and  0.0616 for all    5197 data
REM    519 parameters refined using    486 restraints

END

WGHT      0.0761     85.7868

REM Highest difference peak  3.522,  deepest hole -2.262,  1-sigma level  0.220
Q1    1   0.2739  0.2695  0.0000  10.50000  0.05    2.53
Q2    1   0.0797  0.2907  0.0000  10.50000  0.05    2.38
Q3    1   0.5329  0.4109  0.0000  10.50000  0.05    2.24
Q4    1   0.2835  0.3023  0.0000  10.50000  0.05    2.00
Q5    1   0.4137  0.2868  0.0000  10.50000  0.05    1.78
Q6    1   0.0548  0.2992  0.0000  10.50000  0.05    1.73
Q7    1  -0.0206  0.4249  0.0000  10.50000  0.05    1.72
Q8    1   0.1517  0.2125  0.5952  11.00000  0.05    1.71
Q9    1   0.1478  0.1644  0.5961  11.00000  0.05    1.55
Q10   1   0.3561  0.1097  0.0000  10.50000  0.05    1.51
Q11   1   0.0613  0.3461  0.0000  10.50000  0.05    1.51
Q12   1   0.3900  0.2995 -0.0795  11.00000  0.05    1.36
Q13   1   0.1085  0.3242  0.0000  10.50000  0.05    1.22
Q14   1   0.1021  0.7242 -0.5941  11.00000  0.05    1.20
Q15   1   0.0196  0.3224  0.0000  10.50000  0.05    1.16
Q16   1   0.2904  0.1405  0.0000  10.50000  0.05    1.14
Q17   1   0.3257  0.2858  0.0000  10.50000  0.05    1.07
Q18   1   0.1999  0.1134  0.0000  10.50000  0.05    1.07
Q19   1   0.4457  0.3057  0.0000  10.50000  0.05    1.00
Q20   1   0.1033  0.5082  0.0000  10.50000  0.05    0.92
;
_shelx_res_checksum              52107
loop_
_space_group_symop_operation_xyz
'x, y, z'
'-x, -y, z'
'-x+1/2, y+1/2, -z'
'x+1/2, -y+1/2, -z'
'-x, -y, -z'
'x, y, -z'
'x-1/2, -y-1/2, z'
'-x-1/2, y-1/2, z'
loop_
_atom_site_label
_atom_site_type_symbol
_atom_site_fract_x
_atom_site_fract_y
_atom_site_fract_z
_atom_site_U_iso_or_equiv
_atom_site_adp_type
_atom_site_occupancy
_atom_site_site_symmetry_order
_atom_site_calc_flag
_atom_site_refinement_flags_posn
_atom_site_refinement_flags_adp
_atom_site_refinement_flags_occupancy
Pt2 Pt 0.37413(2) 0.46497(2) 1.0000 0.00726(16) Uani 1 2 d S T P
Pt1 Pt 0.12609(2) 0.46797(2) 0.0000 0.00627(16) Uani 1 2 d S T P
Fe1 Fe 0.0000 0.5000 -0.5000 0.0039(4) Uani 1 4 d S T P
Fe3 Fe 0.5000 0.5000 1.5000 0.0048(4) Uani 1 4 d S T P
Fe2 Fe 0.25255(5) 0.43797(5) 0.5000 0.0033(3) Uani 1 2 d S T P
N6 N 0.0478(2) 0.48769(18) -0.3095(8) 0.0094(11) Uani 1 1 d . U .
N8 N 0.3017(2) 0.43042(18) 0.6918(8) 0.0081(11) Uani 1 1 d . U .
N13 N 0.2305(3) 0.0072(3) 0.5000 0.0089(13) Uani 1 2 d S TU P
N1 N 0.0192(3) 0.5662(3) -0.5000 0.0104(13) Uani 1 2 d S TU P
N5 N 0.0176(3) 0.9260(3) -0.5000 0.0141(14) Uani 1 2 d S TU P
N14 N 0.4449(2) 0.5100(2) 1.2908(9) 0.0127(11) Uani 1 1 d . U .
N9 N 0.2352(3) 0.3703(3) 0.5000 0.0093(13) Uani 1 2 d S TU P
N7 N 0.2045(2) 0.44930(18) 0.3100(8) 0.0080(11) Uani 1 1 d . U .
N12 N 0.2237(3) 0.1892(3) 0.5000 0.0171(14) Uani 1 2 d S TU P
C13 C 0.1756(2) 0.4559(2) 0.1960(10) 0.0101(12) Uani 1 1 d . U .
C3 C 0.2091(4) 0.2757(3) 0.5000 0.0133(13) Uani 1 2 d S TU P
C24 C -0.0162(4) 0.8925(4) -0.5000 0.0164(15) Uani 1 2 d S TU P
H24 H -0.0496 0.9013 -0.5000 0.020 Uiso 1 2 calc R U P
C17 C 0.0451(4) 0.6607(4) -0.5000 0.0170(14) Uani 1 2 d S TU P
C12 C 0.1714(4) 0.0681(3) 0.5000 0.0122(15) Uani 1 2 d S TU P
H12 H 0.1379 0.0768 0.5000 0.015 Uiso 1 2 calc R U P
C11 C 0.1840(3) 0.0216(3) 0.5000 0.0093(14) Uani 1 2 d S TU P
H11 H 0.1587 -0.0012 0.5000 0.011 Uiso 1 2 calc R U P
C28 C 0.4174(3) 0.4939(2) 1.1876(10) 0.0124(13) Uani 1 1 d . U .
C10 C 0.2659(4) 0.0404(3) 0.5000 0.0105(14) Uani 1 2 d S TU P
H10 H 0.2992 0.0309 0.5000 0.013 Uiso 1 2 calc R U P
C8 C 0.2068(4) 0.1023(3) 0.5000 0.0140(13) Uani 1 2 d S TU P
C26 C 0.0789(4) 0.8671(4) -0.5000 0.0159(15) Uani 1 2 d S TU P
H26 H 0.1126 0.8592 -0.5000 0.019 Uiso 1 2 calc R U P
C27 C 0.3301(2) 0.4392(2) 0.8055(10) 0.0110(12) Uani 1 1 d . U .
C6 C 0.1947(4) 0.2257(4) 0.5000 0.0190(14) Uani 1 2 d S TU P
C15 C 0.0662(4) 0.5797(3) -0.5000 0.0125(15) Uani 1 2 d S TU P
H15 H 0.0908 0.5564 -0.5000 0.015 Uiso 1 2 calc R U P
C19 C -0.0150(3) 0.6005(3) -0.5000 0.0104(14) Uani 1 2 d S TU P
H19 H -0.0485 0.5918 -0.5000 0.013 Uiso 1 2 calc R U P
C5 C 0.1885(4) 0.3569(3) 0.5000 0.0104(14) Uani 1 2 d S TU P
H5 H 0.1639 0.3803 0.5000 0.012 Uiso 1 2 calc R U P
C14 C 0.0765(2) 0.4802(2) -0.1958(10) 0.0107(13) Uani 1 1 d . U .
N4 N 0.0291(3) 0.7458(3) -0.5000 0.0211(15) Uani 1 2 d S TU P
C7 C 0.1928(4) 0.1517(4) 0.5000 0.0202(14) Uani 1 2 d S TU P
C9 C 0.2554(4) 0.0872(4) 0.5000 0.0125(15) Uani 1 2 d S TU P
H9 H 0.2812 0.1094 0.5000 0.015 Uiso 1 2 calc R U P
C23 C -0.0049(4) 0.8456(4) -0.5000 0.0177(15) Uani 1 2 d S TU P
H23 H -0.0302 0.8229 -0.5000 0.021 Uiso 1 2 calc R U P
C22 C 0.0437(4) 0.8318(4) -0.5000 0.0180(14) Uani 1 2 d S TU P
C16 C 0.0803(4) 0.6256(3) -0.5000 0.0145(15) Uani 1 2 d S TU P
H16 H 0.1140 0.6335 -0.5000 0.017 Uiso 1 2 calc R U P
C2 C 0.2580(4) 0.2893(4) 0.5000 0.0122(15) Uani 1 2 d S TU P
H2 H 0.2832 0.2666 0.5000 0.015 Uiso 1 2 calc R U P
C4 C 0.1741(4) 0.3105(3) 0.5000 0.0115(15) Uani 1 2 d S TU P
H4 H 0.1403 0.3027 0.5000 0.014 Uiso 1 2 calc R U P
C25 C 0.0651(4) 0.9128(3) -0.5000 0.0138(15) Uani 1 2 d S TU P
H25 H 0.0897 0.9363 -0.5000 0.017 Uiso 1 2 calc R U P
C18 C -0.0035(4) 0.6469(3) -0.5000 0.0132(15) Uani 1 2 d S TU P
H18 H -0.0287 0.6697 -0.5000 0.016 Uiso 1 2 calc R U P
C21 C 0.0591(4) 0.7833(4) -0.5000 0.0218(14) Uani 1 2 d S TU P
C1 C 0.2690(4) 0.3360(3) 0.5000 0.0099(14) Uani 1 2 d S TU P
H1 H 0.3025 0.3448 0.5000 0.012 Uiso 1 2 calc R U P
C20 C 0.0588(4) 0.7099(4) -0.5000 0.0223(14) Uani 1 2 d S TU P
N3 N 0.1054(4) 0.7725(3) -0.5000 0.0302(16) Uani 1 2 d S TU P
N2 N 0.1042(4) 0.7248(3) -0.5000 0.0303(16) Uani 1 2 d S TU P
H2A H 0.1302 0.7067 -0.5000 0.036 Uiso 1 2 calc R U P
N10 N 0.1486(4) 0.2118(3) 0.5000 0.0312(16) Uani 1 2 d S TU P
H10A H 0.1230 0.2305 0.5000 0.037 Uiso 1 2 calc R U P
N11 N 0.1466(4) 0.1643(3) 0.5000 0.0329(16) Uani 1 2 d S TU P
O2 O 0.0686(3) 0.2615(3) 0.3595(16) 0.018(2) Uani 0.5 1 d . . P
H2B H 0.0464 0.2456 0.3062 0.021 Uiso 0.5 1 d R U P
H2C H 0.0747 0.2874 0.3062 0.021 Uiso 0.5 1 d R U P
O4 O 0.2322(6) 0.1025(5) 0.0000 0.071(4) Uani 1 2 d S TU P
C40 C 0.2547(5) 0.3315(5) 0.0000 0.0324(19) Uani 1 2 d S TU P
C36 C 0.1795(11) 0.2902(8) 0.0000 0.0278(19) Uani 0.5 2 d S TU P
C41 C 0.2055(5) 0.3308(4) 0.0000 0.0291(18) Uani 1 2 d S TU P
C39 C 0.2801(11) 0.2897(9) 0.0000 0.0335(19) Uani 0.5 2 d S TU P
C38 C 0.2494(6) 0.2480(6) 0.0000 0.041(2) Uani 1 2 d S TU P
C42 C 0.3314(10) 0.2752(9) 0.0000 0.032(2) Uani 0.5 2 d S TU P
N20 N 0.4035(8) 0.2434(7) 0.0000 0.032(2) Uani 0.5 2 d S TU P
N19 N 0.3528(9) 0.2365(8) 0.0000 0.034(2) Uani 0.5 2 d S TU P
H19A H 0.3382 0.2092 0.0000 0.041 Uiso 0.5 2 calc R U P
N21 N 0.3647(8) 0.3094(7) 0.0000 0.029(2) Uani 0.5 2 d S TU P
C43 C 0.3984(10) 0.2929(8) 0.0000 0.027(2) Uani 0.5 2 d S TU P
C37 C 0.2053(6) 0.2489(5) 0.0000 0.039(2) Uani 1 2 d S TU P
N22 N 0.5400(7) 0.3614(7) 0.0000 0.025(2) Uani 0.5 2 d S TU P
C47 C 0.4987(9) 0.3847(8) 0.0000 0.024(2) Uani 0.5 2 d S TU P
C46 C 0.5384(9) 0.3159(8) 0.0000 0.023(2) Uani 0.5 2 d S TU P
C48 C 0.4541(9) 0.3637(8) 0.0000 0.023(2) Uani 0.5 2 d S TU P
C44 C 0.4556(9) 0.3155(8) 0.0000 0.023(2) Uani 0.5 2 d S TU P
C34 C 0.0668(11) 0.2965(8) 0.0000 0.023(2) Uani 0.5 2 d S TU P
N17 N 0.1066(9) 0.2390(7) 0.0000 0.028(2) Uani 0.5 2 d S TU P
C35 C 0.1292(10) 0.2802(8) 0.0000 0.027(2) Uani 0.5 2 d S TU P
C31 C 0.0037(12) 0.3221(10) 0.0000 0.038(3) Uani 0.5 2 d S TU P
C32 C 0.0083(12) 0.3704(10) 0.0000 0.039(3) Uani 0.5 2 d S TU P
H32 H 0.0388 0.3862 0.0000 0.047 Uiso 0.5 2 calc R U P
N16 N 0.0582(8) 0.2492(7) 0.0000 0.027(2) Uani 0.5 2 d S TU P
N18 N 0.0925(9) 0.3120(7) 0.0000 0.025(2) Uani 0.5 2 d S TU P
N15 N -0.0815(10) 0.3702(9) 0.0000 0.040(3) Uani 0.5 2 d S TU P
C30 C -0.0376(12) 0.3002(11) 0.0000 0.039(3) Uani 0.5 2 d S TU P
H30 H -0.0382 0.2671 0.0000 0.046 Uiso 0.5 2 calc R U P
C33 C -0.0371(12) 0.3935(11) 0.0000 0.040(3) Uani 0.5 2 d S TU P
H33 H -0.0373 0.4266 0.0000 0.048 Uiso 0.5 2 calc R U P
C29 C -0.0810(12) 0.3249(11) 0.0000 0.039(3) Uani 0.5 2 d S TU P
H29 H -0.1110 0.3083 0.0000 0.047 Uiso 0.5 2 calc R U P
O3 O 0.3165(7) 0.1411(6) 0.0000 0.145(9) Uani 1 2 d S TU P
C49 C 0.2303(10) 0.0526(7) 0.0000 0.075(6) Uani 1 2 d S TU P
O5 O 0.1405(6) 0.1368(6) 0.0000 0.134(9) Uani 1 2 d S TU P
C45 C 0.4966(18) 0.2931(18) 0.0000 0.022(2) Uani 0.25 2 d S TU P
C45A C 0.4902(18) 0.3192(18) 0.0000 0.022(2) Uani 0.25 2 d S TU P
O1 O 0.1833(4) 0.6802(4) -0.3444(16) 0.021(2) Uani 0.5 1 d . . P
H1A H 0.2045 0.6972 -0.2905 0.025 Uiso 0.5 1 d R U P
H1B H 0.1779 0.6543 -0.2905 0.025 Uiso 0.5 1 d R U P
loop_
_atom_site_aniso_label
_atom_site_aniso_U_11
_atom_site_aniso_U_22
_atom_site_aniso_U_33
_atom_site_aniso_U_23
_atom_site_aniso_U_13
_atom_site_aniso_U_12
Pt2 0.0052(3) 0.0124(3) 0.0041(3) 0.000 0.000 -0.00276(14)
Pt1 0.0036(2) 0.0115(3) 0.0037(3) 0.000 0.000 0.00200(14)
Fe1 0.0021(10) 0.0053(10) 0.0042(10) 0.000 0.000 0.0016(8)
Fe3 0.0050(10) 0.0047(10) 0.0047(10) 0.000 0.000 -0.0022(8)
Fe2 0.0030(7) 0.0042(7) 0.0028(7) 0.000 0.000 -0.0001(5)
N6 0.011(3) 0.010(2) 0.007(3) 0.001(2) 0.002(2) 0.001(2)
N8 0.008(2) 0.009(2) 0.008(3) 0.002(2) 0.002(2) 0.0011(19)
N13 0.003(3) 0.009(3) 0.015(3) 0.000 0.000 0.001(2)
N1 0.004(3) 0.010(3) 0.017(3) 0.000 0.000 0.001(2)
N5 0.006(3) 0.012(3) 0.024(3) 0.000 0.000 0.000(2)
N14 0.012(2) 0.015(3) 0.011(3) 0.002(2) -0.003(2) -0.001(2)
N9 0.009(3) 0.005(3) 0.013(3) 0.000 0.000 -0.001(2)
N7 0.008(2) 0.007(2) 0.009(3) 0.002(2) 0.001(2) 0.001(2)
N12 0.009(3) 0.007(3) 0.035(3) 0.000 0.000 0.001(2)
C13 0.010(3) 0.008(3) 0.012(3) -0.001(2) 0.006(2) 0.001(2)
C3 0.011(3) 0.008(3) 0.022(3) 0.000 0.000 -0.001(2)
C24 0.006(3) 0.016(3) 0.028(3) 0.000 0.000 -0.001(3)
C17 0.010(3) 0.012(3) 0.029(3) 0.000 0.000 -0.001(2)
C12 0.008(3) 0.009(3) 0.020(3) 0.000 0.000 0.000(3)
C11 0.004(3) 0.008(3) 0.015(3) 0.000 0.000 -0.001(3)
C28 0.012(3) 0.014(3) 0.011(3) 0.004(2) 0.002(2) 0.001(2)
C10 0.005(3) 0.010(3) 0.016(3) 0.000 0.000 0.000(3)
C8 0.009(3) 0.010(3) 0.024(3) 0.000 0.000 0.001(2)
C26 0.009(3) 0.012(3) 0.027(3) 0.000 0.000 0.000(3)
C27 0.009(3) 0.010(3) 0.013(3) 0.002(2) 0.006(2) 0.001(2)
C6 0.012(3) 0.008(3) 0.037(3) 0.000 0.000 0.000(2)
C15 0.006(3) 0.012(3) 0.020(3) 0.000 0.000 0.001(3)
C19 0.004(3) 0.010(3) 0.017(3) 0.000 0.000 0.000(3)
C5 0.009(3) 0.007(3) 0.015(3) 0.000 0.000 0.002(3)
C14 0.012(3) 0.011(3) 0.010(3) 0.000(2) 0.004(2) 0.002(2)
N4 0.010(3) 0.010(3) 0.043(3) 0.000 0.000 -0.001(2)
C7 0.011(3) 0.009(3) 0.040(3) 0.000 0.000 0.000(2)
C9 0.007(3) 0.012(3) 0.019(3) 0.000 0.000 0.001(3)
C23 0.007(3) 0.015(3) 0.031(3) 0.000 0.000 0.000(3)
C22 0.010(3) 0.012(3) 0.032(3) 0.000 0.000 0.001(2)
C16 0.008(3) 0.012(3) 0.024(3) 0.000 0.000 0.002(3)
C2 0.010(3) 0.009(3) 0.017(3) 0.000 0.000 0.001(3)
C4 0.009(3) 0.007(3) 0.018(3) 0.000 0.000 -0.001(3)
C25 0.007(3) 0.011(3) 0.023(3) 0.000 0.000 -0.001(3)
C18 0.007(3) 0.011(3) 0.022(3) 0.000 0.000 -0.001(3)
C21 0.011(3) 0.011(3) 0.043(3) 0.000 0.000 0.000(2)
C1 0.009(3) 0.008(3) 0.013(3) 0.000 0.000 0.001(3)
C20 0.012(3) 0.011(3) 0.044(3) 0.000 0.000 -0.001(2)
N3 0.018(3) 0.013(3) 0.060(4) 0.000 0.000 -0.002(3)
N2 0.017(3) 0.013(3) 0.061(4) 0.000 0.000 -0.001(3)
N10 0.019(3) 0.013(3) 0.062(4) 0.000 0.000 0.002(3)
N11 0.018(3) 0.014(3) 0.066(4) 0.000 0.000 -0.001(3)
O2 0.010(5) 0.013(5) 0.030(6) 0.003(5) -0.001(5) -0.003(4)
O4 0.086(9) 0.057(8) 0.069(9) 0.000 0.000 -0.007(7)
C40 0.046(4) 0.034(4) 0.018(4) 0.000 0.000 0.000(3)
C36 0.046(4) 0.026(4) 0.011(4) 0.000 0.000 -0.001(3)
C41 0.045(4) 0.028(4) 0.014(4) 0.000 0.000 -0.001(3)
C39 0.045(4) 0.035(4) 0.021(4) 0.000 0.000 0.005(3)
C38 0.058(4) 0.041(4) 0.024(4) 0.000 0.000 0.008(4)
C42 0.039(4) 0.028(4) 0.029(4) 0.000 0.000 0.001(4)
N20 0.034(5) 0.025(4) 0.038(5) 0.000 0.000 -0.001(4)
N19 0.037(5) 0.027(4) 0.038(5) 0.000 0.000 -0.001(4)
N21 0.036(5) 0.023(4) 0.027(5) 0.000 0.000 -0.003(4)
C43 0.031(4) 0.021(4) 0.030(4) 0.000 0.000 -0.003(4)
C37 0.058(4) 0.038(4) 0.022(4) 0.000 0.000 0.000(4)
N22 0.026(5) 0.024(5) 0.025(5) 0.000 0.000 -0.001(4)
C47 0.025(5) 0.023(5) 0.024(5) 0.000 0.000 0.000(4)
C46 0.026(5) 0.021(4) 0.023(5) 0.000 0.000 -0.001(4)
C48 0.027(5) 0.020(4) 0.023(5) 0.000 0.000 -0.001(4)
C44 0.028(4) 0.019(4) 0.024(4) 0.000 0.000 -0.001(4)
C34 0.048(6) 0.017(5) 0.005(5) 0.000 0.000 0.007(5)
N17 0.048(5) 0.024(4) 0.012(4) 0.000 0.000 0.005(4)
C35 0.047(5) 0.024(4) 0.010(4) 0.000 0.000 0.004(4)
C31 0.059(8) 0.044(7) 0.011(6) 0.000 0.000 0.000(6)
C32 0.060(8) 0.045(7) 0.012(6) 0.000 0.000 0.002(6)
N16 0.048(6) 0.021(5) 0.011(5) 0.000 0.000 0.005(5)
N18 0.048(6) 0.022(5) 0.006(4) 0.000 0.000 0.011(4)
N15 0.059(8) 0.048(7) 0.014(6) 0.000 0.000 0.003(6)
C30 0.059(8) 0.045(7) 0.012(6) 0.000 0.000 0.000(6)
C33 0.060(8) 0.046(7) 0.014(6) 0.000 0.000 0.002(6)
C29 0.058(8) 0.047(7) 0.013(6) 0.000 0.000 0.002(6)
O3 0.107(14) 0.057(9) 0.27(3) 0.000 0.000 -0.016(10)
C49 0.14(2) 0.040(10) 0.040(10) 0.000 0.000 -0.023(12)
O5 0.070(10) 0.064(10) 0.27(3) 0.000 0.000 0.008(8)
C45 0.025(5) 0.019(5) 0.022(5) 0.000 0.000 -0.001(4)
C45A 0.025(5) 0.019(4) 0.022(5) 0.000 0.000 -0.001(4)
O1 0.011(5) 0.022(5) 0.029(6) 0.001(5) 0.002(5) 0.000(4)
loop_
_atom_type_symbol
_atom_type_description
_atom_type_scat_dispersion_real
_atom_type_scat_dispersion_imag
_atom_type_scat_source
C C 0.0181 0.0091 'International Tables Vol C Tables 4.2.6.8 and 6.1.1.4'
H H 0.0000 0.0000 'International Tables Vol C Tables 4.2.6.8 and 6.1.1.4'
Fe Fe -1.1336 3.1974 'International Tables Vol C Tables 4.2.6.8 and 6.1.1.4'
N N 0.0311 0.0180 'International Tables Vol C Tables 4.2.6.8 and 6.1.1.4'
O O 0.0492 0.0322 'International Tables Vol C Tables 4.2.6.8 and 6.1.1.4'
Pt Pt -4.5932 6.9264 'International Tables Vol C Tables 4.2.6.8 and 6.1.1.4'
loop_
_geom_angle_atom_site_label_1
_geom_angle_atom_site_label_2
_geom_angle_atom_site_label_3
_geom_angle
_geom_angle_site_symmetry_1
_geom_angle_site_symmetry_3
C28 Pt2 C28 86.1(4) . 6_557
C28 Pt2 C27 177.0(3) . .
C28 Pt2 C27 92.2(3) 6_557 .
C28 Pt2 C27 92.2(3) . 6_557
C28 Pt2 C27 177.0(3) 6_557 6_557
C27 Pt2 C27 89.4(4) . 6_557
C13 Pt1 C13 90.5(4) . 6
C13 Pt1 C14 179.9(3) . .
C13 Pt1 C14 89.6(3) 6 .
C13 Pt1 C14 89.6(3) . 6
C13 Pt1 C14 179.9(3) 6 6
C14 Pt1 C14 90.3(4) . 6
N6 Fe1 N6 180.0 . 5_564
N6 Fe1 N6 90.6(3) . 6_554
N6 Fe1 N6 89.4(3) 5_564 6_554
N6 Fe1 N6 89.4(3) . 2_565
N6 Fe1 N6 90.6(3) 5_564 2_565
N6 Fe1 N6 180.0(4) 6_554 2_565
N6 Fe1 N1 90.3(2) . 5_564
N6 Fe1 N1 89.7(2) 5_564 5_564
N6 Fe1 N1 90.3(2) 6_554 5_564
N6 Fe1 N1 89.7(2) 2_565 5_564
N6 Fe1 N1 89.7(2) . .
N6 Fe1 N1 90.3(2) 5_564 .
N6 Fe1 N1 89.7(2) 6_554 .
N6 Fe1 N1 90.3(2) 2_565 .
N1 Fe1 N1 180.0 5_564 .
N14 Fe3 N14 91.2(3) 5_668 6_558
N14 Fe3 N14 88.8(3) 5_668 2_665
N14 Fe3 N14 180.0 6_558 2_665
N14 Fe3 N14 180.0 5_668 .
N14 Fe3 N14 88.8(3) 6_558 .
N14 Fe3 N14 91.2(3) 2_665 .
N14 Fe3 N5 91.5(2) 5_668 3_546
N14 Fe3 N5 88.5(2) 6_558 3_546
N14 Fe3 N5 91.5(2) 2_665 3_546
N14 Fe3 N5 88.5(2) . 3_546
N14 Fe3 N5 88.5(2) 5_668 7_677
N14 Fe3 N5 91.5(2) 6_558 7_677
N14 Fe3 N5 88.5(2) 2_665 7_677
N14 Fe3 N5 91.5(2) . 7_677
N5 Fe3 N5 180.0 3_546 7_677
N7 Fe2 N7 90.6(3) 6_556 .
N7 Fe2 N8 89.3(2) 6_556 .
N7 Fe2 N8 176.7(2) . .
N7 Fe2 N8 176.7(2) 6_556 6_556
N7 Fe2 N8 89.3(2) . 6_556
N8 Fe2 N8 90.7(3) . 6_556
N7 Fe2 N9 90.0(2) 6_556 .
N7 Fe2 N9 90.0(2) . .
N8 Fe2 N9 93.3(2) . .
N8 Fe2 N9 93.3(2) 6_556 .
N7 Fe2 N13 89.5(2) 6_556 3_556
N7 Fe2 N13 89.5(2) . 3_556
N8 Fe2 N13 87.2(2) . 3_556
N8 Fe2 N13 87.2(2) 6_556 3_556
N9 Fe2 N13 179.4(3) . 3_556
C14 N6 Fe1 179.8(7) . .
C27 N8 Fe2 161.0(5) . .
C11 N13 C10 117.6(8) . .
C11 N13 Fe2 121.1(6) . 3_546
C10 N13 Fe2 121.3(7) . 3_546
C15 N1 C19 116.8(8) . .
C15 N1 Fe1 122.4(7) . .
C19 N1 Fe1 120.8(6) . .
C24 N5 C25 117.7(9) . .
C24 N5 Fe3 123.3(7) . 3_556
C25 N5 Fe3 119.0(6) . 3_556
C28 N14 Fe3 148.8(5) . .
C5 N9 C1 116.6(8) . .
C5 N9 Fe2 120.5(7) . .
C1 N9 Fe2 122.9(7) . .
C13 N7 Fe2 179.6(6) . .
C6 N12 C7 104.4(9) . .
N7 C13 Pt1 179.3(6) . .
C4 C3 C2 117.6(9) . .
C4 C3 C6 120.8(9) . .
C2 C3 C6 121.6(9) . .
N5 C24 C23 123.2(10) . .
N5 C24 H24 118.4 . .
C23 C24 H24 118.4 . .
C18 C17 C16 117.2(9) . .
C18 C17 C20 121.5(9) . .
C16 C17 C20 121.3(9) . .
C8 C12 C11 120.9(9) . .
C8 C12 H12 119.5 . .
C11 C12 H12 119.5 . .
N13 C11 C12 122.4(9) . .
N13 C11 H11 118.8 . .
C12 C11 H11 118.8 . .
N14 C28 Pt2 176.1(6) . .
N13 C10 C9 122.4(10) . .
N13 C10 H10 118.8 . .
C9 C10 H10 118.8 . .
C12 C8 C9 116.7(9) . .
C12 C8 C7 120.1(9) . .
C9 C8 C7 123.2(9) . .
C25 C26 C22 120.3(10) . .
C25 C26 H26 119.9 . .
C22 C26 H26 119.9 . .
N8 C27 Pt2 170.4(6) . .
N12 C6 N10 109.8(9) . .
N12 C6 C3 127.3(10) . .
N10 C6 C3 122.9(9) . .
N1 C15 C16 123.2(9) . .
N1 C15 H15 118.4 . .
C16 C15 H15 118.4 . .
N1 C19 C18 123.0(9) . .
N1 C19 H19 118.5 . .
C18 C19 H19 118.5 . .
N9 C5 C4 123.2(9) . .
N9 C5 H5 118.4 . .
C4 C5 H5 118.4 . .
N6 C14 Pt1 179.5(6) . .
C20 N4 C21 104.3(9) . .
N11 C7 N12 112.2(9) . .
N11 C7 C8 121.2(9) . .
N12 C7 C8 126.5(9) . .
C10 C9 C8 120.1(10) . .
C10 C9 H9 120.0 . .
C8 C9 H9 120.0 . .
C24 C23 C22 119.4(10) . .
C24 C23 H23 120.3 . .
C22 C23 H23 120.3 . .
C23 C22 C26 117.2(10) . .
C23 C22 C21 123.4(10) . .
C26 C22 C21 119.5(9) . .
C15 C16 C17 119.9(9) . .
C15 C16 H16 120.1 . .
C17 C16 H16 120.1 . .
C1 C2 C3 118.9(9) . .
C1 C2 H2 120.5 . .
C3 C2 H2 120.5 . .
C3 C4 C5 119.6(9) . .
C3 C4 H4 120.2 . .
C5 C4 H4 120.2 . .
N5 C25 C26 122.3(9) . .
N5 C25 H25 118.9 . .
C26 C25 H25 118.9 . .
C19 C18 C17 119.9(10) . .
C19 C18 H18 120.1 . .
C17 C18 H18 120.1 . .
N3 C21 N4 113.7(9) . .
N3 C21 C22 120.6(10) . .
N4 C21 C22 125.7(10) . .
N9 C1 C2 124.0(10) . .
N9 C1 H1 118.0 . .
C2 C1 H1 118.0 . .
N4 C20 N2 109.4(9) . .
N4 C20 C17 126.7(10) . .
N2 C20 C17 123.9(10) . .
C21 N3 N2 102.3(9) . .
C20 N2 N3 110.3(10) . .
C20 N2 H2A 124.8 . .
N3 N2 H2A 124.8 . .
C6 N10 N11 109.7(9) . .
C6 N10 H10A 125.1 . .
N11 N10 H10A 125.1 . .
C7 N11 N10 103.8(9) . .
H2B O2 H2C 113.8 . .
C41 C40 C39 119.2(17) . .
C41 C36 C37 118(2) . .
C41 C36 C35 133(2) . .
C37 C36 C35 109(2) . .
C40 C41 C36 122.3(17) . .
C40 C39 C38 115(2) . .
C40 C39 C42 136(2) . .
C38 C39 C42 109(2) . .
C37 C38 C39 123.9(18) . .
N19 C42 N21 109(2) . .
N19 C42 C39 134(3) . .
N21 C42 C39 117(2) . .
N19 C42 C43 77.5(19) . .
N21 C42 C43 31.6(13) . .
C39 C42 C43 148(2) . .
N19 N20 C43 92.4(19) . .
C42 N19 N20 110(2) . .
C42 N19 H19A 125.1 . .
N20 N19 H19A 125.1 . .
C43 N21 C42 106(2) . .
N21 C43 N20 123(3) . .
N21 C43 C44 130(2) . .
N20 C43 C44 107(2) . .
N21 C43 C42 42.6(17) . .
N20 C43 C42 80.3(17) . .
C44 C43 C42 172.9(19) . .
C38 C37 C36 122.1(19) . .
C46 N22 C47 119(2) . .
C46 N22 C45A 46(2) . .
C47 N22 C45A 72(2) . .
N22 C47 C48 123(2) . .
N22 C47 C45A 66(2) . .
C48 C47 C45A 57(2) . .
N22 C46 C45 122(3) . .
N22 C46 C45A 88(3) . .
C45 C46 C45A 34(2) . .
N22 C46 N16 162(2) . 7_665
C45 C46 N16 77(3) . 7_665
C45A C46 N16 110(3) . 7_665
C47 C48 C44 115(2) . .
C47 C48 C45A 78(2) . .
C44 C48 C45A 36(2) . .
C45A C44 C45 36(3) . .
C45A C44 C48 85(4) . .
C45 C44 C48 121(3) . .
C45A C44 C43 164(4) . .
C45 C44 C43 128(3) . .
C48 C44 C43 111(2) . .
N18 C34 N16 132(3) . .
N18 C34 C35 48(2) . .
N16 C34 C35 84.6(18) . .
N18 C34 C31 125(3) . .
N16 C34 C31 103(2) . .
C35 C34 C31 172(2) . .
C35 N17 N16 105(2) . .
N17 C35 N18 105(2) . .
N17 C35 C36 129(2) . .
N18 C35 C36 126(2) . .
N17 C35 C34 77.6(18) . .
N18 C35 C34 26.9(12) . .
C36 C35 C34 153(2) . .
C30 C31 C32 124(3) . .
C30 C31 C34 128(3) . .
C32 C31 C34 108(3) . .
C31 C32 C33 113(3) . .
C31 C32 H32 123.6 . .
C33 C32 H32 123.6 . .
N17 N16 C34 93(2) . .
N17 N16 C46 93.9(16) . 7_565
C34 N16 C46 174(2) . 7_565
C34 N18 C35 105(3) . .
C29 N15 C33 118(3) . .
C31 C30 C29 120(3) . .
C31 C30 H30 119.9 . .
C29 C30 H30 119.9 . .
N15 C33 C32 123(3) . .
N15 C33 H33 118.4 . .
C32 C33 H33 118.4 . .
N15 C29 C30 121(3) . .
N15 C29 H29 119.3 . .
C30 C29 H29 119.3 . .
C45A C45 C44 47(5) . .
C45A C45 C46 74(6) . .
C44 C45 C46 121(4) . .
C45 C45A C44 97(7) . .
C45 C45A C46 73(6) . .
C44 C45A C46 169(6) . .
C45 C45A C48 155(7) . .
C44 C45A C48 59(3) . .
C46 C45A C48 132(4) . .
C45 C45A N22 118(6) . .
C44 C45A N22 145(5) . .
C46 C45A N22 46(2) . .
C48 C45A N22 86(3) . .
C45 C45A C47 160(7) . .
C44 C45A C47 103(4) . .
C46 C45A C47 87(3) . .
C48 C45A C47 44.8(18) . .
N22 C45A C47 41.4(15) . .
H1A O1 H1B 114.2 . .
loop_
_geom_bond_atom_site_label_1
_geom_bond_atom_site_label_2
_geom_bond_distance
_geom_bond_site_symmetry_2
Pt2 C28 1.978(7) .
Pt2 C28 1.978(7) 6_557
Pt2 C27 1.990(7) .
Pt2 C27 1.990(7) 6_557
Pt1 C13 1.986(7) .
Pt1 C13 1.986(7) 6
Pt1 C14 1.988(7) .
Pt1 C14 1.988(7) 6
Fe1 N6 1.928(6) .
Fe1 N6 1.928(6) 5_564
Fe1 N6 1.928(6) 6_554
Fe1 N6 1.928(6) 2_565
Fe1 N1 1.966(8) 5_564
Fe1 N1 1.966(8) .
Fe3 N14 2.151(6) 5_668
Fe3 N14 2.151(6) 6_558
Fe3 N14 2.151(6) 2_665
Fe3 N14 2.151(6) .
Fe3 N5 2.172(8) 3_546
Fe3 N5 2.172(8) 7_677
Fe2 N7 1.924(6) 6_556
Fe2 N7 1.924(6) .
Fe2 N8 1.940(6) .
Fe2 N8 1.940(6) 6_556
Fe2 N9 1.996(8) .
Fe2 N13 2.035(8) 3_556
N6 C14 1.154(9) .
N8 C27 1.155(9) .
N13 C11 1.338(12) .
N13 C10 1.359(13) .
N13 Fe2 2.035(8) 3_546
N1 C15 1.342(13) .
N1 C19 1.358(12) .
N5 C24 1.333(13) .
N5 C25 1.354(13) .
N5 Fe3 2.172(8) 3_556
N14 C28 1.153(9) .
N9 C5 1.334(13) .
N9 C1 1.350(13) .
N7 C13 1.156(9) .
N12 C6 1.314(14) .
N12 C7 1.369(13) .
C3 C4 1.383(14) .
C3 C2 1.394(14) .
C3 C6 1.485(14) .
C24 C23 1.377(15) .
C24 H24 0.9500 .
C17 C18 1.388(14) .
C17 C16 1.391(14) .
C17 C20 1.458(14) .
C12 C8 1.377(14) .
C12 C11 1.377(13) .
C12 H12 0.9500 .
C11 H11 0.9500 .
C10 C9 1.371(15) .
C10 H10 0.9500 .
C8 C9 1.400(14) .
C8 C7 1.464(14) .
C26 C25 1.364(14) .
C26 C22 1.394(15) .
C26 H26 0.9500 .
C6 N10 1.323(15) .
C15 C16 1.370(14) .
C15 H15 0.9500 .
C19 C18 1.368(14) .
C19 H19 0.9500 .
C5 C4 1.386(13) .
C5 H5 0.9500 .
N4 C20 1.311(14) .
N4 C21 1.351(14) .
C7 N11 1.314(15) .
C9 H9 0.9500 .
C23 C22 1.388(15) .
C23 H23 0.9500 .
C22 C21 1.453(14) .
C16 H16 0.9500 .
C2 C1 1.371(14) .
C2 H2 0.9500 .
C4 H4 0.9500 .
C25 H25 0.9500 .
C18 H18 0.9500 .
C21 N3 1.306(15) .
C1 H1 0.9500 .
C20 N2 1.314(15) .
N3 N2 1.366(13) .
N2 H2A 0.8800 .
N10 N11 1.361(14) .
N10 H10A 0.8800 .
O2 H2B 0.8500 .
O2 H2C 0.8499 .
O4 C49 1.43(2) .
C40 C41 1.348(19) .
C40 C39 1.38(3) .
C36 C41 1.36(3) .
C36 C37 1.38(3) .
C36 C35 1.41(4) .
C39 C38 1.46(3) .
C39 C42 1.46(4) .
C38 C37 1.21(2) .
C42 N19 1.25(3) .
C42 N21 1.34(3) .
C42 C43 1.90(4) .
N20 N19 1.40(3) .
N20 C43 1.42(3) .
N19 H19A 0.8800 .
N21 C43 1.04(3) .
C43 C44 1.70(4) .
N22 C46 1.31(3) .
N22 C47 1.31(3) .
N22 C45A 1.82(5) .
C47 C48 1.36(3) .
C47 C45A 1.89(6) .
C46 C45 1.32(6) .
C46 C45A 1.32(6) .
C46 N16 1.94(3) 7_665
C48 C44 1.38(3) .
C48 C45A 1.61(6) .
C44 C45A 0.95(5) .
C44 C45 1.29(6) .
C34 N18 0.83(3) .
C34 N16 1.37(3) .
C34 C35 1.77(4) .
C34 C31 1.88(4) .
N17 C35 1.33(3) .
N17 N16 1.36(3) .
C35 N18 1.36(3) .
C31 C30 1.29(4) .
C31 C32 1.39(4) .
C32 C33 1.41(4) .
C32 H32 0.9500 .
N16 C46 1.94(3) 7_565
N15 C29 1.30(4) .
N15 C33 1.39(4) .
C30 C29 1.38(4) .
C30 H30 0.9500 .
C33 H33 0.9500 .
C29 H29 0.9500 .
C45 C45A 0.77(5) .
O1 H1A 0.8500 .
O1 H1B 0.8501 .
