#------------------------------------------------------------------------------
#$Date: 2019-11-17 12:20:11 +0200 (Sun, 17 Nov 2019) $
#$Revision: 229835 $
#$URL: file:///home/coder/svn-repositories/cod/cif/7/04/63/7046344.cif $
#------------------------------------------------------------------------------
#
# This file is available in the Crystallography Open Database (COD),
# http://www.crystallography.net/
#
# All data on this site have been placed in the public domain by the
# contributors.
#
data_7046344
loop_
_publ_author_name
'Navarro-S\'anchez, Jos\'e'
'Mullor-Ru\'iz, Ismael'
'Popescu, Catalin'
'Santamar\'ia-P\'erez, David'
'Segura, Alfredo'
'Errandonea, Daniel'
'Gonz\'alez-Platas, Javier'
'Mart\'i-Gastaldo, Carlos'
_publ_section_title
;
 Peptide metal-organic frameworks under pressure: flexible linkers for
 cooperative compression.
;
_journal_issue                   31
_journal_name_full
'Dalton transactions (Cambridge, England : 2003)'
_journal_page_first              10654
_journal_page_last               10659
_journal_paper_doi               10.1039/c8dt01765d
_journal_volume                  47
_journal_year                    2018
_chemical_formula_moiety         'C22 H26 N4 O8 Zn'
_chemical_formula_sum            'C22 H26 N4 O8 Zn'
_chemical_formula_weight         539.84
_space_group_crystal_system      monoclinic
_space_group_IT_number           5
_space_group_name_Hall           'I 2y'
_space_group_name_H-M_alt        'I 1 2 1'
_symmetry_space_group_name_Hall  'I 2y'
_symmetry_space_group_name_H-M   'I 1 2 1'
_atom_sites_solution_hydrogens   geom
_atom_sites_solution_primary     dual
_audit_creation_date             2017-08-02
_audit_creation_method
;
Olex2 1.2
(compiled 2017.07.20 svn.r3457 for OlexSys, GUI svn.r5370)
;
_audit_update_record
;
2017-11-29 deposited with the CCDC.
2018-05-11 downloaded from the CCDC.
;
_cell_angle_alpha                90
_cell_angle_beta                 98.306(18)
_cell_angle_gamma                90
_cell_formula_units_Z            2
_cell_length_a                   7.4106(6)
_cell_length_b                   5.3751(4)
_cell_length_c                   26.411(17)
_cell_measurement_reflns_used    445
_cell_measurement_temperature    298(1)
_cell_measurement_theta_max      10.9030
_cell_measurement_theta_min      2.1060
_cell_volume                     1041.0(7)
_computing_cell_refinement       'CrysAlisPro 1.171.38.46 (Rigaku OD, 2015)'
_computing_data_collection       'CrysAlisPro 1.171.38.46 (Rigaku OD, 2015)'
_computing_data_reduction        'CrysAlisPro 1.171.38.46 (Rigaku OD, 2015)'
_computing_molecular_graphics    'Olex2 (Dolomanov et al., 2009)'
_computing_publication_material  'Olex2 (Dolomanov et al., 2009)'
_computing_structure_refinement  'ShelXL (Sheldrick, 2015)'
_computing_structure_solution    'ShelXT (Sheldrick, 2015)'
_diffrn_ambient_pressure         900000(40000)
_diffrn_ambient_temperature      298(1)
_diffrn_detector                 'CCD plate'
_diffrn_measured_fraction_theta_full 0.374
_diffrn_measured_fraction_theta_max 0.374
_diffrn_measurement_details
;
List of Runs (angles in degrees, time in seconds):

  # Type    Start    End  Width  t~exp~   \w     \q     \k     \f   Frames
#--------------------------------------------------------------------------
  1  \f    -23.20  14.00   0.20    0.50   0.00   0.00   0.00    --   186
;
_diffrn_measurement_device       'abstract diffractometer'
_diffrn_measurement_device_type
'esperanto-CrysAlisPro-abstract goniometer imported esperanto images'
_diffrn_measurement_method       '\f scans'
_diffrn_orient_matrix_type
'CrysAlisPro convention (1999,Acta A55,543-557)'
_diffrn_orient_matrix_UB_11      0.0059027249
_diffrn_orient_matrix_UB_12      -0.0001949228
_diffrn_orient_matrix_UB_13      0.0121755089
_diffrn_orient_matrix_UB_21      0.0370552103
_diffrn_orient_matrix_UB_22      -0.0301571479
_diffrn_orient_matrix_UB_23      0.0000692232
_diffrn_orient_matrix_UB_31      0.0219121036
_diffrn_orient_matrix_UB_32      0.0510345415
_diffrn_orient_matrix_UB_33      0.0000709535
_diffrn_radiation_monochromator  synchrotron
_diffrn_radiation_probe          x-ray
_diffrn_radiation_type           synchrotron
_diffrn_radiation_wavelength     0.3185
_diffrn_reflns_av_R_equivalents  0.0239
_diffrn_reflns_av_unetI/netI     0.0455
_diffrn_reflns_Laue_measured_fraction_full 0.374
_diffrn_reflns_Laue_measured_fraction_max 0.374
_diffrn_reflns_limit_h_max       8
_diffrn_reflns_limit_h_min       -8
_diffrn_reflns_limit_k_max       6
_diffrn_reflns_limit_k_min       -6
_diffrn_reflns_limit_l_max       15
_diffrn_reflns_limit_l_min       -5
_diffrn_reflns_number            651
_diffrn_reflns_point_group_measured_fraction_full 0.310
_diffrn_reflns_point_group_measured_fraction_max 0.310
_diffrn_reflns_theta_full        10.912
_diffrn_reflns_theta_max         10.912
_diffrn_reflns_theta_min         2.105
_diffrn_source                   synchrotron
_exptl_absorpt_coefficient_mu    0.661
_exptl_absorpt_correction_T_max  1.00000
_exptl_absorpt_correction_T_min  0.29432
_exptl_absorpt_correction_type   multi-scan
_exptl_absorpt_process_details
;
CrysAlisPro 1.171.38.46 (Rigaku Oxford Diffraction, 2015)
Empirical absorption correction using spherical harmonics,
 implemented in SCALE3 ABSPACK scaling algorithm.
;
_exptl_crystal_colour            colourless
_exptl_crystal_colour_primary    colourless
_exptl_crystal_density_diffrn    1.722
_exptl_crystal_description       plate
_exptl_crystal_F_000             560
_exptl_crystal_size_max          0.082
_exptl_crystal_size_mid          0.071
_exptl_crystal_size_min          0.021
_refine_diff_density_max         0.291
_refine_diff_density_min         -0.325
_refine_diff_density_rms         0.070
_refine_ls_abs_structure_details
;
 Flack x determined using 133 quotients [(I+)-(I-)]/[(I+)+(I-)]
 (Parsons, Flack and Wagner, Acta Cryst. B69 (2013) 249-259).
;
_refine_ls_abs_structure_Flack   0.50(4)
_refine_ls_extinction_method     none
_refine_ls_goodness_of_fit_ref   1.068
_refine_ls_hydrogen_treatment    constr
_refine_ls_matrix_type           full
_refine_ls_number_parameters     61
_refine_ls_number_reflns         570
_refine_ls_number_restraints     7
_refine_ls_restrained_S_all      1.085
_refine_ls_R_factor_all          0.0708
_refine_ls_R_factor_gt           0.0626
_refine_ls_shift/su_max          0.000
_refine_ls_shift/su_mean         0.000
_refine_ls_structure_factor_coef Fsqd
_refine_ls_weighting_details
'w=1/[\s^2^(Fo^2^)+(0.0883P)^2^+6.2114P] where P=(Fo^2^+2Fc^2^)/3'
_refine_ls_weighting_scheme      calc
_refine_ls_wR_factor_gt          0.1547
_refine_ls_wR_factor_ref         0.1618
_reflns_Friedel_coverage         0.488
_reflns_Friedel_fraction_full    0.230
_reflns_Friedel_fraction_max     0.230
_reflns_number_gt                514
_reflns_number_total             570
_reflns_threshold_expression     'I > 2\s(I)'
_cod_data_source_file            c8dt01765d2.cif
_cod_data_source_block           GlyTyr_090GPa
_cod_depositor_comments
'Adding full bibliography for 7046340--7046346.cif.'
_cod_database_code               7046344
_shelx_shelxl_version_number     2014/7
_shelx_space_group_comment
;
The symmetry employed for this shelxl refinement is uniquely defined
by the following loop, which should always be used as a source of
symmetry information in preference to the above space-group names.
They are only intended as comments.
;
_shelx_estimated_absorpt_t_max   0.986
_shelx_estimated_absorpt_t_min   0.948
_reflns_odcompleteness_completeness 37.35
_reflns_odcompleteness_iscentric 1
_reflns_odcompleteness_theta     10.93
_olex2_refinement_description
;
1. Fixed Uiso
 At 1.2 times of:
  All C(H) groups, All C(H,H) groups, All N(H) groups, All N(H,H) groups
 At 1.5 times of:
  All O(H) groups
2. Uiso/Uaniso restraints and constraints
Uanis(Zn1) \\sim Ueq: with sigma of 0.01 and sigma for terminal atoms of 0.02
Uiso(C7) = Uiso(C8) = Uiso(C9) = Uiso(C4) = Uiso(C5) = Uiso(C6) = Uiso(C3) =
Uiso(C1) = Uiso(C2) = Uiso(C10) = Uiso(C11)
Uiso(O4) = Uiso(O3) = Uiso(O1) = Uiso(O2)
Uiso(N1) = Uiso(N2)
3.a Ternary CH refined with riding coordinates:
 C1(H1A)
3.b Secondary CH2 refined with riding coordinates:
 N2(H2A,H2B), C11(H11A,H11B), C3(H3A,H3B)
3.c Aromatic/amide H refined with riding coordinates:
 N1(H1), C9(H9), C8(H8), C6(H6), C5(H5)
3.d Idealised tetrahedral OH refined as rotating group:
 O4(H4)
;
_olex2_submission_special_instructions 'No special instructions were received'
_oxdiff_exptl_absorpt_empirical_details
;
Empirical correction (ABSPACK) includes:
- Absorption correction using spherical harmonics
- Frame scaling
- Detector area scaling
;
_oxdiff_exptl_absorpt_empirical_full_max 1.948
_oxdiff_exptl_absorpt_empirical_full_min 0.381
loop_
_space_group_symop_operation_xyz
'x, y, z'
'-x, y, -z'
'x+1/2, y+1/2, z+1/2'
'-x+1/2, y+1/2, -z+1/2'
loop_
_atom_site_label
_atom_site_type_symbol
_atom_site_fract_x
_atom_site_fract_y
_atom_site_fract_z
_atom_site_U_iso_or_equiv
_atom_site_adp_type
_atom_site_occupancy
_atom_site_site_symmetry_order
_atom_site_calc_flag
_atom_site_refinement_flags_posn
_atom_site_refinement_flags_adp
_atom_site_refinement_flags_occupancy
Zn1 Zn 0.0000 0.1691(2) 0.5000 0.045(2) Uani 1 2 d S TU P
O1 O 0.1741(14) 0.422(2) 0.5346(14) 0.0404(17) Uiso 1 1 d . . .
O2 O 0.2896(19) 0.064(2) 0.5700(16) 0.0404(17) Uiso 1 1 d . . .
O3 O 0.7930(15) 0.492(2) 0.5979(15) 0.0404(17) Uiso 1 1 d . . .
O4 O 0.6723(15) 0.5954(19) 0.8493(15) 0.0404(17) Uiso 1 1 d . . .
H4 H 0.7502 0.7049 0.8521 0.061 Uiso 1 1 calc GR . .
N2 N 0.9146(15) 0.924(2) 0.5524(14) 0.030(2) Uiso 1 1 d . . .
H2A H 0.9754 0.7819 0.5508 0.035 Uiso 1 1 calc R . .
H2B H 0.9476 0.9864 0.5836 0.035 Uiso 1 1 calc R . .
N1 N 0.4998(13) 0.642(3) 0.5836(12) 0.030(2) Uiso 1 1 d . . .
H1 H 0.4317 0.7629 0.5711 0.035 Uiso 1 1 calc R . .
C2 C 0.282(3) 0.295(3) 0.563(2) 0.0351(13) Uiso 1 1 d . . .
C10 C 0.6756(16) 0.652(4) 0.5791(16) 0.0351(13) Uiso 1 1 d . . .
C4 C 0.407(2) 0.545(3) 0.7002(19) 0.0351(13) Uiso 1 1 d . . .
C11 C 0.724(2) 0.866(3) 0.5472(19) 0.0351(13) Uiso 1 1 d . . .
H11A H 0.6818 0.8283 0.5116 0.042 Uiso 1 1 calc R . .
H11B H 0.6593 1.0122 0.5561 0.042 Uiso 1 1 calc R . .
C1 C 0.412(2) 0.437(3) 0.609(2) 0.0351(13) Uiso 1 1 d . . .
H1A H 0.5064 0.3216 0.6246 0.042 Uiso 1 1 calc R . .
C7 C 0.584(2) 0.589(3) 0.799(2) 0.0351(13) Uiso 1 1 d . . .
C9 C 0.401(2) 0.364(3) 0.738(2) 0.0351(13) Uiso 1 1 d . . .
H9 H 0.3299 0.2234 0.7295 0.042 Uiso 1 1 calc R . .
C3 C 0.302(2) 0.518(3) 0.647(2) 0.0351(13) Uiso 1 1 d . . .
H3A H 0.2045 0.3981 0.6485 0.042 Uiso 1 1 calc R . .
H3B H 0.2460 0.6761 0.6368 0.042 Uiso 1 1 calc R . .
C8 C 0.489(2) 0.377(3) 0.7849(19) 0.0351(13) Uiso 1 1 d . . .
H8 H 0.4865 0.2450 0.8076 0.042 Uiso 1 1 calc R . .
C6 C 0.603(2) 0.773(3) 0.766(2) 0.0351(13) Uiso 1 1 d . . .
H6 H 0.6751 0.9107 0.7760 0.042 Uiso 1 1 calc R . .
C5 C 0.513(2) 0.756(3) 0.714(2) 0.0351(13) Uiso 1 1 d . . .
H5 H 0.5249 0.8804 0.6898 0.042 Uiso 1 1 calc R . .
loop_
_atom_site_aniso_label
_atom_site_aniso_U_11
_atom_site_aniso_U_22
_atom_site_aniso_U_33
_atom_site_aniso_U_23
_atom_site_aniso_U_13
_atom_site_aniso_U_12
Zn1 0.0268(10) 0.0256(10) 0.087(8) 0.000 0.0175(15) 0.000
loop_
_atom_type_symbol
_atom_type_description
_atom_type_scat_dispersion_real
_atom_type_scat_dispersion_imag
_atom_type_scat_source
C C 0.0015 0.0009 'International Tables Vol C Tables 4.2.6.8 and 6.1.1.4'
H H 0.0000 0.0000 'International Tables Vol C Tables 4.2.6.8 and 6.1.1.4'
N N 0.0030 0.0019 'International Tables Vol C Tables 4.2.6.8 and 6.1.1.4'
O O 0.0056 0.0036 'International Tables Vol C Tables 4.2.6.8 and 6.1.1.4'
Zn Zn 0.3242 0.9375 'International Tables Vol C Tables 4.2.6.8 and 6.1.1.4'
loop_
_geom_angle_atom_site_label_1
_geom_angle_atom_site_label_2
_geom_angle_atom_site_label_3
_geom_angle
_geom_angle_site_symmetry_1
_geom_angle_site_symmetry_3
O1 Zn1 O1 94.4(10) . 2_556
O1 Zn1 N2 119.8(7) 2_556 1_445
O1 Zn1 N2 111.4(12) . 1_445
O1 Zn1 N2 111.4(12) 2_556 2_646
O1 Zn1 N2 119.8(7) . 2_646
O1 Zn1 C2 121.9(6) 2_556 .
O1 Zn1 C2 121.9(6) . 2_556
O1 Zn1 C2 27.8(8) 2_556 2_556
O1 Zn1 C2 27.8(8) . .
N2 Zn1 N2 101.1(13) 2_646 1_445
N2 Zn1 C2 107.6(10) 1_445 2_556
N2 Zn1 C2 91.8(12) 1_445 .
N2 Zn1 C2 107.6(10) 2_646 .
N2 Zn1 C2 91.8(12) 2_646 2_556
C2 Zn1 C2 149.6(9) . 2_556
C2 O1 Zn1 102.7(14) . .
C7 O4 H4 109.5 . .
Zn1 N2 H2A 107.9 1_665 .
Zn1 N2 H2B 107.9 1_665 .
H2A N2 H2B 107.2 . .
C11 N2 Zn1 118(2) . 1_665
C11 N2 H2A 107.9 . .
C11 N2 H2B 107.9 . .
C10 N1 H1 117.6 . .
C10 N1 C1 124.8(18) . .
C1 N1 H1 117.6 . .
O1 C2 Zn1 49.5(15) . .
O1 C2 O2 131(4) . .
O1 C2 C1 117.2(19) . .
O2 C2 Zn1 81(3) . .
O2 C2 C1 111(4) . .
C1 C2 Zn1 161.2(17) . .
O3 C10 N1 124(3) . .
O3 C10 C11 122.1(16) . .
N1 C10 C11 114(2) . .
C9 C4 C3 122.0(19) . .
C5 C4 C9 117(4) . .
C5 C4 C3 121(3) . .
N2 C11 C10 115(2) . .
N2 C11 H11A 108.5 . .
N2 C11 H11B 108.5 . .
C10 C11 H11A 108.5 . .
C10 C11 H11B 108.5 . .
H11A C11 H11B 107.5 . .
N1 C1 C2 106(3) . .
N1 C1 H1A 109.2 . .
C2 C1 H1A 109.2 . .
C3 C1 N1 114.6(17) . .
C3 C1 C2 109.0(18) . .
C3 C1 H1A 109.2 . .
C8 C7 O4 116(3) . .
C6 C7 O4 122(3) . .
C6 C7 C8 122(5) . .
C4 C9 H9 117.5 . .
C8 C9 C4 125(2) . .
C8 C9 H9 117.5 . .
C4 C3 H3A 108.7 . .
C4 C3 H3B 108.7 . .
C1 C3 C4 114.2(18) . .
C1 C3 H3A 108.7 . .
C1 C3 H3B 108.7 . .
H3A C3 H3B 107.6 . .
C7 C8 H8 120.9 . .
C9 C8 C7 118(4) . .
C9 C8 H8 120.9 . .
C7 C6 H6 119.9 . .
C7 C6 C5 120(3) . .
C5 C6 H6 119.9 . .
C4 C5 C6 117(3) . .
C4 C5 H5 121.4 . .
C6 C5 H5 121.4 . .
loop_
_geom_bond_atom_site_label_1
_geom_bond_atom_site_label_2
_geom_bond_distance
_geom_bond_site_symmetry_2
Zn1 O1 2.003(17) .
Zn1 O1 2.003(17) 2_556
Zn1 N2 2.08(3) 2_646
Zn1 N2 2.08(3) 1_445
Zn1 C2 2.57(4) .
Zn1 C2 2.57(4) 2_556
O1 C2 1.23(5) .
O2 C2 1.25(2) .
O3 C10 1.27(3) .
O4 H4 0.8200 .
O4 C7 1.39(7) .
N2 Zn1 2.08(3) 1_665
N2 H2A 0.8900 .
N2 H2B 0.8900 .
N2 C11 1.431(17) .
N1 H1 0.8600 .
N1 C10 1.327(19) .
N1 C1 1.48(3) .
C2 C1 1.62(6) .
C10 C11 1.50(4) .
C4 C9 1.40(6) .
C4 C3 1.51(7) .
C4 C5 1.39(2) .
C11 H11A 0.9700 .
C11 H11B 0.9700 .
C1 H1A 0.9800 .
C1 C3 1.46(6) .
C7 C8 1.37(3) .
C7 C6 1.35(6) .
C9 H9 0.9300 .
C9 C8 1.31(7) .
C3 H3A 0.9700 .
C3 H3B 0.9700 .
C8 H8 0.9300 .
C6 H6 0.9300 .
C6 C5 1.44(8) .
C5 H5 0.9300 .
