#------------------------------------------------------------------------------
#$Date: 2019-11-17 10:06:36 +0200 (Sun, 17 Nov 2019) $
#$Revision: 229256 $
#$URL: file:///home/coder/svn-repositories/cod/cif/7/04/61/7046159.cif $
#------------------------------------------------------------------------------
#
# This file is available in the Crystallography Open Database (COD),
# http://www.crystallography.net/
#
# All data on this site have been placed in the public domain by the
# contributors.
#
data_7046159
loop_
_publ_author_name
'Gu, Jin-Zhong'
'Cai, Yan'
'Qian, Zi-Yue'
'Wen, Min'
'Shi, Zi-Fa'
'Lv, Dong-Yu'
'Kirillov, Alexander M.'
_publ_section_title
;
 A new series of Co, Ni, Zn, and Cd metal-organic architectures driven by
 an unsymmetrical biphenyl-tricarboxylic acid: hydrothermal assembly,
 structural features and properties.
;
_journal_issue                   22
_journal_name_full
'Dalton transactions (Cambridge, England : 2003)'
_journal_page_first              7431
_journal_page_last               7444
_journal_paper_doi               10.1039/c8dt01299g
_journal_volume                  47
_journal_year                    2018
_chemical_formula_sum            'C39 H37 N5 Ni O15'
_chemical_formula_weight         874.44
_space_group_crystal_system      monoclinic
_space_group_IT_number           14
_space_group_name_Hall           '-P 2yn'
_space_group_name_H-M_alt        'P 1 21/n 1'
_symmetry_space_group_name_Hall  '-P 2yn'
_symmetry_space_group_name_H-M   'P 1 21/n 1'
_atom_sites_solution_hydrogens   mixed
_audit_creation_method           SHELXL-2014/7
_audit_update_record
;
2017-12-06 deposited with the CCDC.
2018-04-30 downloaded from the CCDC.
;
_cell_angle_alpha                90
_cell_angle_beta                 103.230(6)
_cell_angle_gamma                90
_cell_formula_units_Z            4
_cell_length_a                   13.4082(8)
_cell_length_b                   14.3932(7)
_cell_length_c                   20.3585(12)
_cell_measurement_reflns_used    14678
_cell_measurement_temperature    293(2)
_cell_measurement_theta_max      25.049
_cell_measurement_theta_min      3.229
_cell_volume                     3824.6(4)
_computing_cell_refinement       'Bruker SAINT'
_computing_data_collection       'Bruker APEX2'
_computing_data_reduction        'Bruker SAINT'
_computing_molecular_graphics    'Bruker SHELXTL'
_computing_publication_material  'Bruker SHELXTL'
_computing_structure_refinement  'SHELXL-2014/7 (Sheldrick, 2014)'
_computing_structure_solution    'SHELXL-2014/7 (Sheldrick, 2014)'
_diffrn_ambient_temperature      293(2)
_diffrn_measured_fraction_theta_full 0.998
_diffrn_measured_fraction_theta_max 0.998
_diffrn_measurement_device_type  'Bruker APE-II CCD'
_diffrn_measurement_method       '\f and \w scans'
_diffrn_radiation_type           MoK\a
_diffrn_radiation_wavelength     0.71073
_diffrn_reflns_av_R_equivalents  0.0806
_diffrn_reflns_av_unetI/netI     0.1298
_diffrn_reflns_Laue_measured_fraction_full 0.998
_diffrn_reflns_Laue_measured_fraction_max 0.998
_diffrn_reflns_limit_h_max       13
_diffrn_reflns_limit_h_min       -15
_diffrn_reflns_limit_k_max       16
_diffrn_reflns_limit_k_min       -17
_diffrn_reflns_limit_l_max       22
_diffrn_reflns_limit_l_min       -24
_diffrn_reflns_number            14678
_diffrn_reflns_point_group_measured_fraction_full 0.998
_diffrn_reflns_point_group_measured_fraction_max 0.998
_diffrn_reflns_theta_full        25.049
_diffrn_reflns_theta_max         25.049
_diffrn_reflns_theta_min         3.229
_diffrn_source                   'fine-focus sealed tube'
_exptl_absorpt_coefficient_mu    0.589
_exptl_absorpt_correction_T_max  0.881
_exptl_absorpt_correction_T_min  0.867
_exptl_absorpt_correction_type   multi-scan
_exptl_absorpt_process_details   SADABS
_exptl_crystal_colour            green
_exptl_crystal_density_diffrn    1.519
_exptl_crystal_description       block
_exptl_crystal_F_000             1816
_exptl_crystal_size_max          0.250
_exptl_crystal_size_mid          0.230
_exptl_crystal_size_min          0.220
_exptl_transmission_factor_max   0.878
_exptl_transmission_factor_min   0.863
_refine_diff_density_max         0.411
_refine_diff_density_min         -0.365
_refine_diff_density_rms         0.067
_refine_ls_extinction_method     none
_refine_ls_goodness_of_fit_ref   1.016
_refine_ls_hydrogen_treatment    constr
_refine_ls_matrix_type           full
_refine_ls_number_parameters     545
_refine_ls_number_reflns         6767
_refine_ls_number_restraints     0
_refine_ls_restrained_S_all      1.016
_refine_ls_R_factor_all          0.1497
_refine_ls_R_factor_gt           0.0700
_refine_ls_shift/su_max          0.000
_refine_ls_shift/su_mean         0.000
_refine_ls_structure_factor_coef Fsqd
_refine_ls_weighting_details
'w=1/[\s^2^(Fo^2^)+(0.0298P)^2^+1.8194P] where P=(Fo^2^+2Fc^2^)/3'
_refine_ls_weighting_scheme      calc
_refine_ls_wR_factor_gt          0.1187
_refine_ls_wR_factor_ref         0.1601
_reflns_Friedel_coverage         0.000
_reflns_number_gt                3373
_reflns_number_total             6767
_reflns_threshold_expression     'I > 2\s(I)'
_cod_data_source_file            c8dt01299g2.cif
_cod_data_source_block           334-9Ni
_cod_depositor_comments
'Adding full bibliography for 7046153--7046164.cif.'
_cod_original_cell_volume        3824.7(4)
_cod_database_code               7046159
_shelx_shelxl_version_number     2014/7
_shelx_space_group_comment
;
The symmetry employed for this shelxl refinement is uniquely defined
by the following loop, which should always be used as a source of
symmetry information in preference to the above space-group names.
They are only intended as comments.
;
_shelx_estimated_absorpt_t_min   0.867
_shelx_estimated_absorpt_t_max   0.881
_shelx_res_file
;

    334-9Ni.res created by SHELXL-2014/7

TITL
CELL 0.71 13.408221 14.39318 20.35851 90 103.2297 90
ZERR 4 0.00076 0.000745 0.001178 0 0.0057 0
LATT 1
SYMM 0.5-X,0.5+Y,0.5-Z
SFAC C  H  N  O  Ni
UNIT 156  148  20  60  4
OMIT -3 50.1
L.S. 22
ACTA
Bond lengths and angles
FMAP 2
PLAN 2
SIZE 0.25 0.23 0.22
WGHT    0.029800    1.819400
FVAR       1.70705
NI1   5    0.473074    0.784337    0.669886    11.00000    0.04589    0.04023 =
         0.04391    0.00170    0.01707    0.00197
N1    3    0.595887    0.938020    0.976582    11.00000    0.05847    0.10268 =
         0.05591    0.01603    0.01040    0.01274
N2    3    0.329078    0.801128    0.606352    11.00000    0.05592    0.04477 =
         0.04642    0.00226    0.01522    0.00517
N3    3    0.381464    0.784826    0.740727    11.00000    0.05278    0.03234 =
         0.04709   -0.00147    0.02529    0.00294
N4    3    0.604211    0.752658    0.741739    11.00000    0.04695    0.04495 =
         0.04761   -0.00131    0.02093   -0.00224
N5    3    0.470067    0.640162    0.662569    11.00000    0.04548    0.03728 =
         0.03943    0.00119    0.01394    0.00163
O1    4    0.513817    0.923175    0.677943    11.00000    0.05113    0.03485 =
         0.05230    0.00080    0.01997    0.00591
O2    4    0.480418    1.042560    0.607560    11.00000    0.07729    0.05916 =
         0.06503    0.02298    0.04307    0.01807
O3    4    0.079556    1.045234    0.556847    11.00000    0.05402    0.15353 =
         0.03931    0.00614   -0.00030    0.00310
O4    4    0.011044    1.036516    0.645728    11.00000    0.04674    0.12718 =
         0.06842   -0.01233    0.01702    0.00647
AFIX 147
H1    2   -0.040467    1.021435    0.617519    11.00000   -1.50000
AFIX   0
O5    4    0.820482    0.941432    0.949206    11.00000    0.07419    0.15583 =
         0.09709   -0.02759   -0.01258    0.03694
O6    4    0.821270    1.092700    0.965785    11.00000    0.09146    0.15034 =
         0.11988   -0.02399   -0.03236   -0.03326
O7    4    0.660127    0.962858    1.025015    11.00000    0.09171    0.17481 =
         0.04801    0.00299   -0.00453    0.00617
O8    4    0.532345    0.879272    0.979264    11.00000    0.10435    0.13499 =
         0.08389    0.05164   -0.00109   -0.01352
O9    4    0.550375    0.783526    0.592406    11.00000    0.10176    0.04785 =
         0.06047   -0.00698    0.04951   -0.00649
AFIX   3
H2W   2    0.541412    0.835383    0.571357    11.00000   -1.20000
H1W   2    0.526742    0.739691    0.564853    11.00000   -1.20000
AFIX   0
O10   4    0.451891    0.233206    0.608417    11.00000    0.22341    0.05663 =
         0.17185    0.01552    0.14980    0.01746
AFIX   3
H3W   2    0.466498    0.254777    0.575425    11.00000   -1.20000
H4W   2    0.459980    0.174667    0.607806    11.00000   -1.20000
AFIX   0
O11   4    0.150356    0.025733    0.439742    11.00000    0.07934    0.16304 =
         0.07490   -0.01876    0.01066   -0.00266
AFIX   3
H6W   2    0.137327    0.058599    0.458992    11.00000   -1.20000
H5W   2    0.209362    0.063818    0.437191    11.00000   -1.20000
AFIX   0
O12   4    0.618438    0.962194    0.538976    11.00000    0.12353    0.24549 =
         0.08095   -0.03163    0.01317    0.06593
AFIX   3
H7W   2    0.576408    0.985431    0.559969    11.00000   -1.20000
H8W   2    0.634142    1.021833    0.531471    11.00000   -1.20000
AFIX   0
O14   4    0.992247    0.842714    0.989992    11.00000    0.05130    0.06209 =
         0.06768    0.01008    0.01807   -0.00169
AFIX   3
H11W  2    0.936514    0.872808    0.974992    11.00000   -1.20000
H12W  2    1.049257    0.871156    0.996231    11.00000   -1.20000
AFIX   0
C1    1    0.463675    0.994510    0.654829    11.00000    0.04326    0.03847 =
         0.04191   -0.00539    0.01298   -0.00223
C2    1    0.374016    1.020942    0.684895    11.00000    0.04160    0.03017 =
         0.03822    0.00620    0.01573    0.00624
C3    1    0.278559    1.028259    0.641653    11.00000    0.04499    0.04793 =
         0.03295    0.00278    0.01041    0.00785
AFIX  43
H3    2    0.273254    1.026304    0.595320    11.00000   -1.20000
AFIX   0
C4    1    0.190335    1.038470    0.665808    11.00000    0.04005    0.03638 =
         0.04758    0.00029    0.01116    0.00342
C5    1    0.089330    1.040860    0.617187    11.00000    0.04589    0.05349 =
         0.06212   -0.00171    0.01166    0.00809
C6    1    0.199929    1.044967    0.735091    11.00000    0.04260    0.05983 =
         0.04199    0.00353    0.02400    0.01284
AFIX  43
H6    2    0.141567    1.050703    0.752184    11.00000   -1.20000
AFIX   0
C7    1    0.294206    1.043010    0.778276    11.00000    0.04797    0.04848 =
         0.04189   -0.00100    0.01573    0.00357
AFIX  43
H7    2    0.299329    1.050151    0.824331    11.00000   -1.20000
AFIX   0
C8    1    0.382790    1.030522    0.754642    11.00000    0.04322    0.03419 =
         0.03099    0.00472    0.01118    0.00154
C9    1    0.483857    1.030186    0.804005    11.00000    0.04984    0.04102 =
         0.03906   -0.00230    0.00919    0.00579
C10   1    0.569870    1.075478    0.791423    11.00000    0.04878    0.05748 =
         0.04585   -0.00095    0.02041   -0.00500
AFIX  43
H10   2    0.564067    1.107388    0.751001    11.00000   -1.20000
AFIX   0
C11   1    0.662939    1.074076    0.837310    11.00000    0.04250    0.08220 =
         0.05350   -0.01682    0.01599   -0.01360
AFIX  43
H11   2    0.718526    1.105269    0.827512    11.00000   -1.20000
AFIX   0
C12   1    0.674765    1.026933    0.897692    11.00000    0.04493    0.07378 =
         0.04786   -0.01627    0.00768    0.00440
C13   1    0.783443    1.020762    0.942866    11.00000    0.05580    0.12899 =
         0.05435   -0.01098    0.00913    0.01205
C14   1    0.589349    0.984770    0.910835    11.00000    0.04906    0.05947 =
         0.03871   -0.00363    0.00525    0.00994
C15   1    0.495910    0.985755    0.865664    11.00000    0.04277    0.04712 =
         0.04257   -0.00195    0.01648    0.00670
AFIX  43
H15   2    0.440161    0.956267    0.876616    11.00000   -1.20000
AFIX   0
C16   1    0.303723    0.810362    0.540085    11.00000    0.09149    0.07182 =
         0.05847    0.00334    0.00961    0.01234
AFIX  43
H16   2    0.355730    0.812896    0.516751    11.00000   -1.20000
AFIX   0
C17   1    0.202257    0.816491    0.503505    11.00000    0.08882    0.09243 =
         0.06896   -0.00448   -0.02492    0.01480
AFIX  43
H17   2    0.187850    0.824169    0.456926    11.00000   -1.20000
AFIX   6
O13   4    0.772935    0.803729    0.616399    11.00000    0.24018    0.19772 =
         0.29580   -0.04219    0.05666    0.01065
AFIX   3
H10W  2    0.761660    0.776464    0.651017    11.00000   -1.20000
H9W   2    0.745197    0.773189    0.581210    11.00000   -1.20000
AFIX   0
O15   4    0.287281    0.764641    1.004205    11.00000    0.47175    0.23616 =
         0.20394    0.00371    0.17752    0.05264
AFIX   3
H13W  2    0.270879    0.709667    0.980671    11.00000   -1.20000
H14W  2    0.335823    0.823874    1.004834    11.00000   -1.20000
AFIX   0
C18   1    0.124215    0.811189    0.536263    11.00000    0.06222    0.08214 =
         0.10715   -0.01380   -0.01927    0.01598
AFIX  43
H18   2    0.056360    0.814680    0.512320    11.00000   -1.20000
AFIX   0
C19   1    0.148084    0.800376    0.606701    11.00000    0.05240    0.05794 =
         0.09074   -0.00967   -0.00257    0.00475
C20   1    0.251517    0.796829    0.639264    11.00000    0.04563    0.03634 =
         0.07070   -0.00073    0.01197   -0.00192
C21   1    0.072383    0.793179    0.645702    11.00000    0.04075    0.07814 =
         0.14347   -0.02178    0.01383    0.00079
AFIX  43
H21   2    0.003392    0.792692    0.623892    11.00000   -1.20000
AFIX   0
C22   1    0.098953    0.787117    0.713134    11.00000    0.05723    0.06465 =
         0.14600   -0.02639    0.04330   -0.00592
AFIX  43
H22   2    0.048191    0.784749    0.737496    11.00000   -1.20000
AFIX   0
C23   1    0.203560    0.784260    0.747886    11.00000    0.04700    0.04069 =
         0.11062   -0.00991    0.04172   -0.00289
C24   1    0.279464    0.788021    0.711038    11.00000    0.05073    0.03052 =
         0.06890   -0.00012    0.02615   -0.00050
C25   1    0.236507    0.779006    0.818374    11.00000    0.08933    0.05154 =
         0.10083   -0.00061    0.06295   -0.00294
AFIX  43
H25   2    0.188536    0.778022    0.844914    11.00000   -1.20000
AFIX   0
C26   1    0.337571    0.775366    0.847910    11.00000    0.07962    0.05926 =
         0.06339    0.00382    0.04155    0.00262
AFIX  43
H26   2    0.359486    0.771023    0.894571    11.00000   -1.20000
AFIX   0
C27   1    0.409302    0.778249    0.806943    11.00000    0.06916    0.04967 =
         0.05043    0.00410    0.01941    0.00184
AFIX  43
H27   2    0.478752    0.775403    0.827418    11.00000   -1.20000
AFIX   0
C28   1    0.668264    0.808568    0.782615    11.00000    0.04809    0.05515 =
         0.06820   -0.00750    0.01921   -0.00623
AFIX  43
H28   2    0.655223    0.872076    0.779686    11.00000   -1.20000
AFIX   0
C29   1    0.753479    0.777870    0.829428    11.00000    0.04828    0.07670 =
         0.07014   -0.00393    0.01193   -0.01488
AFIX  43
H29   2    0.796866    0.820021    0.856583    11.00000   -1.20000
AFIX   0
C30   1    0.773121    0.684348    0.835251    11.00000    0.03903    0.08531 =
         0.06808    0.01116    0.00625    0.00582
AFIX  43
H30   2    0.830784    0.662468    0.865869    11.00000   -1.20000
AFIX   0
C31   1    0.705861    0.622262    0.794848    11.00000    0.04460    0.05765 =
         0.04883    0.00711    0.01620    0.00754
C32   1    0.622233    0.659774    0.748002    11.00000    0.03700    0.04605 =
         0.04406    0.00611    0.01848    0.00412
C33   1    0.719175    0.523391    0.797846    11.00000    0.06518    0.06492 =
         0.05718    0.01958    0.02155    0.02472
AFIX  43
H33   2    0.775149    0.497902    0.828058    11.00000   -1.20000
AFIX   0
C34   1    0.652438    0.467584    0.757933    11.00000    0.07323    0.04521 =
         0.07523    0.00161    0.03388    0.01033
AFIX  43
H34   2    0.662391    0.403660    0.761333    11.00000   -1.20000
AFIX   0
C35   1    0.566051    0.503204    0.710080    11.00000    0.06596    0.05299 =
         0.04345    0.00183    0.02874    0.00918
C36   1    0.550026    0.599259    0.705833    11.00000    0.03861    0.03802 =
         0.04813   -0.00047    0.02231    0.00081
C37   1    0.493215    0.448167    0.665688    11.00000    0.08474    0.03613 =
         0.05848   -0.00443    0.03280    0.00730
AFIX  43
H37   2    0.500085    0.383855    0.666585    11.00000   -1.20000
AFIX   0
C38   1    0.413427    0.488099    0.621801    11.00000    0.07675    0.05093 =
         0.05522   -0.00906    0.03089   -0.01292
AFIX  43
H38   2    0.365650    0.452004    0.592300    11.00000   -1.20000
AFIX   0
C39   1    0.404661    0.584939    0.621943    11.00000    0.05865    0.04975 =
         0.03911    0.00234    0.02359   -0.00178
AFIX  43
H39   2    0.349752    0.612083    0.591776    11.00000   -1.20000
AFIX   0
HKLF 4

REM
REM R1 =  0.0700 for    3373 Fo > 4sig(Fo)  and  0.1497 for all    6767 data
REM    545 parameters refined using      0 restraints

END

WGHT      0.0405      0.5961

REM Highest difference peak  0.411,  deepest hole -0.365,  1-sigma level  0.067
Q1    1   0.5864  0.7829  0.9858  11.00000  0.05    0.41
Q2    1   0.5980  0.9389  0.5460  11.00000  0.05    0.33
;
_shelx_res_checksum              17682
loop_
_space_group_symop_operation_xyz
'x, y, z'
'-x+1/2, y+1/2, -z+1/2'
'-x, -y, -z'
'x-1/2, -y-1/2, z-1/2'
loop_
_atom_site_label
_atom_site_type_symbol
_atom_site_fract_x
_atom_site_fract_y
_atom_site_fract_z
_atom_site_U_iso_or_equiv
_atom_site_adp_type
_atom_site_occupancy
_atom_site_site_symmetry_order
_atom_site_calc_flag
_atom_site_refinement_flags_posn
_atom_site_refinement_flags_adp
Ni1 Ni 0.47307(5) 0.78434(5) 0.66989(4) 0.0422(2) Uani 1 1 d . .
N1 N 0.5959(5) 0.9380(5) 0.9766(3) 0.0728(17) Uani 1 1 d . .
N2 N 0.3291(4) 0.8011(3) 0.6064(2) 0.0485(12) Uani 1 1 d . .
N3 N 0.3815(4) 0.7848(3) 0.7407(2) 0.0418(11) Uani 1 1 d . .
N4 N 0.6042(3) 0.7527(3) 0.7417(2) 0.0449(12) Uani 1 1 d . .
N5 N 0.4701(3) 0.6402(3) 0.6626(2) 0.0401(11) Uani 1 1 d . .
O1 O 0.5138(3) 0.9232(2) 0.67794(18) 0.0448(10) Uani 1 1 d . .
O2 O 0.4804(3) 1.0426(3) 0.6076(2) 0.0628(12) Uani 1 1 d . .
O3 O 0.0796(3) 1.0452(4) 0.5568(2) 0.0841(16) Uani 1 1 d . .
O4 O 0.0110(3) 1.0365(4) 0.6457(2) 0.0802(14) Uani 1 1 d . .
H1 H -0.0405 1.0214 0.6175 0.120 Uiso 1 1 calc R U
O5 O 0.8205(4) 0.9414(5) 0.9492(3) 0.114(2) Uani 1 1 d . .
O6 O 0.8213(4) 1.0927(5) 0.9658(3) 0.130(3) Uani 1 1 d . .
O7 O 0.6601(4) 0.9629(4) 1.0250(2) 0.108(2) Uani 1 1 d . .
O8 O 0.5323(5) 0.8793(4) 0.9793(3) 0.111(2) Uani 1 1 d . .
O9 O 0.5504(3) 0.7835(2) 0.59241(19) 0.0650(12) Uani 1 1 d . .
H2W H 0.5414 0.8354 0.5714 0.078 Uiso 1 1 d R U
H1W H 0.5267 0.7397 0.5649 0.078 Uiso 1 1 d R U
O10 O 0.4519(4) 0.2332(3) 0.6084(3) 0.134(2) Uani 1 1 d . .
H3W H 0.4665 0.2548 0.5754 0.161 Uiso 1 1 d R U
H4W H 0.4600 0.1747 0.6078 0.161 Uiso 1 1 d R U
O11 O 0.1504(4) 0.0257(4) 0.4397(2) 0.1069(18) Uani 1 1 d . .
H6W H 0.1373 0.0586 0.4590 0.128 Uiso 1 1 d R U
H5W H 0.2094 0.0638 0.4372 0.128 Uiso 1 1 d R U
O12 O 0.6184(4) 0.9622(5) 0.5390(3) 0.152(3) Uani 1 1 d . .
H7W H 0.5764 0.9854 0.5600 0.182 Uiso 1 1 d R U
H8W H 0.6341 1.0218 0.5315 0.182 Uiso 1 1 d R U
O14 O 0.9922(3) 0.8427(2) 0.98999(19) 0.0596(11) Uani 1 1 d . .
H11W H 0.9365 0.8728 0.9750 0.072 Uiso 1 1 d R U
H12W H 1.0493 0.8712 0.9962 0.072 Uiso 1 1 d R U
C1 C 0.4637(4) 0.9945(4) 0.6548(3) 0.0407(14) Uani 1 1 d . .
C2 C 0.3740(4) 1.0209(3) 0.6849(3) 0.0356(13) Uani 1 1 d . .
C3 C 0.2786(4) 1.0283(3) 0.6417(3) 0.0417(14) Uani 1 1 d . .
H3 H 0.2733 1.0263 0.5953 0.050 Uiso 1 1 calc R U
C4 C 0.1903(4) 1.0385(3) 0.6658(3) 0.0412(14) Uani 1 1 d . .
C5 C 0.0893(5) 1.0409(4) 0.6172(3) 0.0539(16) Uani 1 1 d . .
C6 C 0.1999(4) 1.0450(4) 0.7351(3) 0.0458(15) Uani 1 1 d . .
H6 H 0.1416 1.0507 0.7522 0.055 Uiso 1 1 calc R U
C7 C 0.2942(4) 1.0430(3) 0.7783(3) 0.0452(15) Uani 1 1 d . .
H7 H 0.2993 1.0502 0.8243 0.054 Uiso 1 1 calc R U
C8 C 0.3828(4) 1.0305(3) 0.7546(3) 0.0357(13) Uani 1 1 d . .
C9 C 0.4839(4) 1.0302(4) 0.8040(3) 0.0435(14) Uani 1 1 d . .
C10 C 0.5699(4) 1.0755(4) 0.7914(3) 0.0492(15) Uani 1 1 d . .
H10 H 0.5641 1.1074 0.7510 0.059 Uiso 1 1 calc R U
C11 C 0.6629(5) 1.0741(4) 0.8373(3) 0.0586(17) Uani 1 1 d . .
H11 H 0.7185 1.1053 0.8275 0.070 Uiso 1 1 calc R U
C12 C 0.6748(5) 1.0269(4) 0.8977(3) 0.0560(17) Uani 1 1 d . .
C13 C 0.7834(6) 1.0208(7) 0.9429(4) 0.080(2) Uani 1 1 d . .
C14 C 0.5893(5) 0.9848(4) 0.9108(3) 0.0499(15) Uani 1 1 d . .
C15 C 0.4959(4) 0.9858(4) 0.8657(3) 0.0431(14) Uani 1 1 d . .
H15 H 0.4402 0.9563 0.8766 0.052 Uiso 1 1 calc R U
C16 C 0.3037(6) 0.8104(4) 0.5401(3) 0.075(2) Uani 1 1 d . .
H16 H 0.3557 0.8129 0.5168 0.090 Uiso 1 1 calc R U
C17 C 0.2023(7) 0.8165(5) 0.5035(4) 0.090(3) Uani 1 1 d . .
H17 H 0.1878 0.8242 0.4569 0.108 Uiso 1 1 calc R U
O13 O 0.7729(6) 0.8037(5) 0.6164(5) 0.245(4) Uani 1 1 d G .
H10W H 0.7617 0.7765 0.6510 0.294 Uiso 1 1 d R U
H9W H 0.7452 0.7732 0.5812 0.294 Uiso 1 1 d R U
O15 O 0.2873(9) 0.7646(7) 1.0042(5) 0.288(5) Uani 1 1 d . .
H13W H 0.2709 0.7097 0.9807 0.345 Uiso 1 1 d R U
H14W H 0.3358 0.8239 1.0048 0.345 Uiso 1 1 d R U
C18 C 0.1242(6) 0.8112(5) 0.5363(5) 0.090(3) Uani 1 1 d . .
H18 H 0.0564 0.8147 0.5123 0.108 Uiso 1 1 calc R U
C19 C 0.1481(6) 0.8004(4) 0.6067(4) 0.070(2) Uani 1 1 d . .
C20 C 0.2515(5) 0.7968(4) 0.6393(3) 0.0511(16) Uani 1 1 d . .
C21 C 0.0724(6) 0.7932(5) 0.6457(5) 0.089(3) Uani 1 1 d . .
H21 H 0.0034 0.7927 0.6239 0.106 Uiso 1 1 calc R U
C22 C 0.0990(6) 0.7871(5) 0.7131(5) 0.086(3) Uani 1 1 d . .
H22 H 0.0482 0.7847 0.7375 0.103 Uiso 1 1 calc R U
C23 C 0.2036(5) 0.7843(4) 0.7479(4) 0.0623(19) Uani 1 1 d . .
C24 C 0.2795(5) 0.7880(3) 0.7110(3) 0.0480(15) Uani 1 1 d . .
C25 C 0.2365(6) 0.7790(4) 0.8184(4) 0.074(2) Uani 1 1 d . .
H25 H 0.1885 0.7780 0.8449 0.089 Uiso 1 1 calc R U
C26 C 0.3376(6) 0.7754(4) 0.8479(4) 0.0634(18) Uani 1 1 d . .
H26 H 0.3595 0.7710 0.8946 0.076 Uiso 1 1 calc R U
C27 C 0.4093(5) 0.7782(4) 0.8069(3) 0.0555(16) Uani 1 1 d . .
H27 H 0.4788 0.7754 0.8274 0.067 Uiso 1 1 calc R U
C28 C 0.6683(5) 0.8086(4) 0.7826(3) 0.0562(17) Uani 1 1 d . .
H28 H 0.6552 0.8721 0.7797 0.067 Uiso 1 1 calc R U
C29 C 0.7535(5) 0.7779(5) 0.8294(3) 0.0653(19) Uani 1 1 d . .
H29 H 0.7969 0.8200 0.8566 0.078 Uiso 1 1 calc R U
C30 C 0.7731(5) 0.6843(5) 0.8353(3) 0.0651(19) Uani 1 1 d . .
H30 H 0.8308 0.6625 0.8659 0.078 Uiso 1 1 calc R U
C31 C 0.7059(4) 0.6223(4) 0.7948(3) 0.0495(15) Uani 1 1 d . .
C32 C 0.6222(4) 0.6598(4) 0.7480(3) 0.0409(14) Uani 1 1 d . .
C33 C 0.7192(5) 0.5234(5) 0.7978(3) 0.0612(18) Uani 1 1 d . .
H33 H 0.7751 0.4979 0.8281 0.073 Uiso 1 1 calc R U
C34 C 0.6524(5) 0.4676(4) 0.7579(3) 0.0618(18) Uani 1 1 d . .
H34 H 0.6624 0.4037 0.7613 0.074 Uiso 1 1 calc R U
C35 C 0.5661(5) 0.5032(4) 0.7101(3) 0.0515(16) Uani 1 1 d . .
C36 C 0.5500(4) 0.5993(4) 0.7058(3) 0.0396(14) Uani 1 1 d . .
C37 C 0.4932(5) 0.4482(4) 0.6657(3) 0.0571(17) Uani 1 1 d . .
H37 H 0.5001 0.3839 0.6666 0.069 Uiso 1 1 calc R U
C38 C 0.4134(5) 0.4881(4) 0.6218(3) 0.0584(17) Uani 1 1 d . .
H38 H 0.3656 0.4520 0.5923 0.070 Uiso 1 1 calc R U
C39 C 0.4047(4) 0.5849(4) 0.6219(3) 0.0472(15) Uani 1 1 d . .
H39 H 0.3498 0.6121 0.5918 0.057 Uiso 1 1 calc R U
loop_
_atom_site_aniso_label
_atom_site_aniso_U_11
_atom_site_aniso_U_22
_atom_site_aniso_U_33
_atom_site_aniso_U_23
_atom_site_aniso_U_13
_atom_site_aniso_U_12
Ni1 0.0459(5) 0.0402(4) 0.0439(5) 0.0017(4) 0.0171(3) 0.0020(4)
N1 0.058(4) 0.103(5) 0.056(4) 0.016(4) 0.010(3) 0.013(4)
N2 0.056(3) 0.045(3) 0.046(3) 0.002(2) 0.015(3) 0.005(2)
N3 0.053(3) 0.032(3) 0.047(3) -0.001(2) 0.025(2) 0.003(2)
N4 0.047(3) 0.045(3) 0.048(3) -0.001(2) 0.021(2) -0.002(2)
N5 0.045(3) 0.037(3) 0.039(3) 0.001(2) 0.014(2) 0.002(2)
O1 0.051(2) 0.035(2) 0.052(3) 0.0008(18) 0.0200(19) 0.0059(18)
O2 0.077(3) 0.059(3) 0.065(3) 0.023(2) 0.043(2) 0.018(2)
O3 0.054(3) 0.154(5) 0.039(3) 0.006(3) 0.000(2) 0.003(3)
O4 0.047(3) 0.127(4) 0.068(3) -0.012(3) 0.017(2) 0.006(3)
O5 0.074(4) 0.156(6) 0.097(5) -0.028(4) -0.013(3) 0.037(4)
O6 0.091(5) 0.150(6) 0.120(5) -0.024(4) -0.032(4) -0.033(4)
O7 0.092(4) 0.175(6) 0.048(3) 0.003(3) -0.005(3) 0.006(4)
O8 0.104(5) 0.135(5) 0.084(4) 0.052(4) -0.001(3) -0.014(4)
O9 0.102(4) 0.048(2) 0.060(3) -0.007(2) 0.050(2) -0.006(2)
O10 0.223(7) 0.057(3) 0.172(6) 0.016(3) 0.150(5) 0.017(3)
O11 0.079(4) 0.163(5) 0.075(4) -0.019(3) 0.011(3) -0.003(3)
O12 0.124(5) 0.245(7) 0.081(4) -0.032(4) 0.013(4) 0.066(5)
O14 0.051(3) 0.062(3) 0.068(3) 0.010(2) 0.018(2) -0.002(2)
C1 0.043(4) 0.038(3) 0.042(4) -0.005(3) 0.013(3) -0.002(3)
C2 0.042(4) 0.030(3) 0.038(3) 0.006(2) 0.016(3) 0.006(3)
C3 0.045(4) 0.048(3) 0.033(3) 0.003(3) 0.010(3) 0.008(3)
C4 0.040(4) 0.036(3) 0.048(4) 0.000(3) 0.011(3) 0.003(3)
C5 0.046(4) 0.053(4) 0.062(5) -0.002(3) 0.012(4) 0.008(3)
C6 0.043(4) 0.060(4) 0.042(4) 0.004(3) 0.024(3) 0.013(3)
C7 0.048(4) 0.048(4) 0.042(4) -0.001(3) 0.016(3) 0.004(3)
C8 0.043(4) 0.034(3) 0.031(3) 0.005(2) 0.011(3) 0.002(3)
C9 0.050(4) 0.041(3) 0.039(3) -0.002(3) 0.009(3) 0.006(3)
C10 0.049(4) 0.057(4) 0.046(4) -0.001(3) 0.020(3) -0.005(3)
C11 0.043(4) 0.082(5) 0.054(4) -0.017(4) 0.016(3) -0.014(3)
C12 0.045(4) 0.074(5) 0.048(4) -0.016(3) 0.008(3) 0.004(3)
C13 0.056(6) 0.129(8) 0.054(5) -0.011(5) 0.009(4) 0.012(5)
C14 0.049(4) 0.059(4) 0.039(4) -0.004(3) 0.005(3) 0.010(3)
C15 0.043(4) 0.047(3) 0.043(4) -0.002(3) 0.016(3) 0.007(3)
C16 0.091(6) 0.072(5) 0.058(5) 0.003(4) 0.010(4) 0.012(4)
C17 0.089(7) 0.092(6) 0.069(6) -0.004(4) -0.025(5) 0.015(5)
O13 0.240(10) 0.198(9) 0.296(12) -0.042(8) 0.057(8) 0.011(7)
O15 0.472(17) 0.236(10) 0.204(10) 0.004(8) 0.178(10) 0.053(10)
C18 0.062(6) 0.082(6) 0.107(8) -0.014(5) -0.019(5) 0.016(4)
C19 0.052(5) 0.058(5) 0.091(6) -0.010(4) -0.003(4) 0.005(4)
C20 0.046(4) 0.036(3) 0.071(5) -0.001(3) 0.012(3) -0.002(3)
C21 0.041(5) 0.078(6) 0.143(9) -0.022(6) 0.014(5) 0.001(4)
C22 0.057(6) 0.065(5) 0.146(8) -0.026(6) 0.043(5) -0.006(4)
C23 0.047(4) 0.041(4) 0.111(6) -0.010(4) 0.042(4) -0.003(3)
C24 0.051(4) 0.031(3) 0.069(5) 0.000(3) 0.026(3) 0.000(3)
C25 0.089(6) 0.052(4) 0.101(7) -0.001(4) 0.063(5) -0.003(4)
C26 0.080(5) 0.059(4) 0.063(5) 0.004(3) 0.042(4) 0.003(4)
C27 0.069(5) 0.050(4) 0.050(4) 0.004(3) 0.019(3) 0.002(3)
C28 0.048(4) 0.055(4) 0.068(5) -0.008(3) 0.019(3) -0.006(3)
C29 0.048(4) 0.077(5) 0.070(5) -0.004(4) 0.012(4) -0.015(4)
C30 0.039(4) 0.085(5) 0.068(5) 0.011(4) 0.006(3) 0.006(4)
C31 0.045(4) 0.058(4) 0.049(4) 0.007(3) 0.016(3) 0.008(3)
C32 0.037(3) 0.046(4) 0.044(4) 0.006(3) 0.018(3) 0.004(3)
C33 0.065(5) 0.065(5) 0.057(4) 0.020(4) 0.022(4) 0.025(4)
C34 0.073(5) 0.045(4) 0.075(5) 0.002(4) 0.034(4) 0.010(4)
C35 0.066(5) 0.053(4) 0.043(4) 0.002(3) 0.029(3) 0.009(3)
C36 0.039(3) 0.038(3) 0.048(4) 0.000(3) 0.022(3) 0.001(3)
C37 0.085(5) 0.036(3) 0.058(4) -0.004(3) 0.033(4) 0.007(4)
C38 0.077(5) 0.051(4) 0.055(4) -0.009(3) 0.031(4) -0.013(4)
C39 0.059(4) 0.050(4) 0.039(4) 0.002(3) 0.024(3) -0.002(3)
loop_
_atom_type_symbol
_atom_type_description
_atom_type_scat_dispersion_real
_atom_type_scat_dispersion_imag
_atom_type_scat_source
C C 0.0033 0.0016 'International Tables Vol C Tables 4.2.6.8 and 6.1.1.4'
H H 0.0000 0.0000 'International Tables Vol C Tables 4.2.6.8 and 6.1.1.4'
N N 0.0061 0.0033 'International Tables Vol C Tables 4.2.6.8 and 6.1.1.4'
O O 0.0106 0.0060 'International Tables Vol C Tables 4.2.6.8 and 6.1.1.4'
Ni Ni 0.3393 1.1124 'International Tables Vol C Tables 4.2.6.8 and 6.1.1.4'
loop_
_geom_angle_atom_site_label_1
_geom_angle_atom_site_label_2
_geom_angle_atom_site_label_3
_geom_angle
N4 Ni1 O1 89.46(16)
N4 Ni1 N5 80.20(18)
O1 Ni1 N5 165.92(16)
N4 Ni1 N2 170.51(18)
O1 Ni1 N2 97.35(16)
N5 Ni1 N2 94.10(17)
N4 Ni1 O9 92.57(17)
O1 Ni1 O9 84.09(14)
N5 Ni1 O9 86.84(15)
N2 Ni1 O9 94.71(18)
N4 Ni1 N3 92.94(18)
O1 Ni1 N3 97.34(15)
N5 Ni1 N3 92.74(16)
N2 Ni1 N3 79.67(19)
O9 Ni1 N3 174.32(18)
O7 N1 O8 123.3(7)
O7 N1 C14 119.2(7)
O8 N1 C14 117.4(6)
C16 N2 C20 117.4(6)
C16 N2 Ni1 129.3(5)
C20 N2 Ni1 113.2(4)
C27 N3 C24 118.5(5)
C27 N3 Ni1 129.1(4)
C24 N3 Ni1 112.4(4)
C28 N4 C32 117.6(5)
C28 N4 Ni1 129.5(4)
C32 N4 Ni1 112.8(4)
C39 N5 C36 117.2(5)
C39 N5 Ni1 130.0(4)
C36 N5 Ni1 112.8(3)
C1 O1 Ni1 130.5(3)
O2 C1 O1 124.5(5)
O2 C1 C2 118.1(5)
O1 C1 C2 117.3(5)
C3 C2 C8 119.2(5)
C3 C2 C1 117.8(5)
C8 C2 C1 122.8(5)
C2 C3 C4 121.5(5)
C3 C4 C6 118.5(5)
C3 C4 C5 119.2(5)
C6 C4 C5 122.3(5)
O3 C5 O4 122.8(6)
O3 C5 C4 123.4(6)
O4 C5 C4 113.8(6)
C7 C6 C4 120.6(5)
C6 C7 C8 121.2(5)
C7 C8 C2 118.8(5)
C7 C8 C9 118.9(5)
C2 C8 C9 122.3(5)
C15 C9 C10 116.8(5)
C15 C9 C8 120.8(5)
C10 C9 C8 122.4(5)
C11 C10 C9 121.7(6)
C12 C11 C10 120.8(6)
C11 C12 C14 117.3(6)
C11 C12 C13 117.4(6)
C14 C12 C13 125.1(6)
O6 C13 O5 129.1(8)
O6 C13 C12 116.2(8)
O5 C13 C12 114.7(8)
C15 C14 C12 122.5(6)
C15 C14 N1 117.7(6)
C12 C14 N1 119.7(6)
C14 C15 C9 120.7(5)
N2 C16 C17 122.9(7)
C18 C17 C16 119.9(8)
C17 C18 C19 118.9(8)
C20 C19 C18 117.3(8)
C20 C19 C21 119.3(7)
C18 C19 C21 123.4(8)
N2 C20 C19 123.6(7)
N2 C20 C24 117.2(6)
C19 C20 C24 119.3(7)
C22 C21 C19 121.2(8)
C21 C22 C23 120.9(8)
C25 C23 C24 117.0(7)
C25 C23 C22 123.7(7)
C24 C23 C22 119.3(7)
N3 C24 C23 122.7(6)
N3 C24 C20 117.3(5)
C23 C24 C20 120.0(7)
C26 C25 C23 120.4(7)
C25 C26 C27 119.1(7)
N3 C27 C26 122.4(6)
N4 C28 C29 123.7(6)
C30 C29 C28 119.0(6)
C29 C30 C31 119.5(6)
C30 C31 C32 117.5(6)
C30 C31 C33 123.6(6)
C32 C31 C33 118.9(6)
N4 C32 C31 122.6(5)
N4 C32 C36 117.4(5)
C31 C32 C36 119.9(5)
C34 C33 C31 120.9(6)
C33 C34 C35 121.8(6)
C36 C35 C37 116.2(5)
C36 C35 C34 119.1(6)
C37 C35 C34 124.7(6)
N5 C36 C35 123.8(5)
N5 C36 C32 116.8(5)
C35 C36 C32 119.4(5)
C38 C37 C35 120.7(6)
C37 C38 C39 118.4(6)
N5 C39 C38 123.7(5)
loop_
_geom_bond_atom_site_label_1
_geom_bond_atom_site_label_2
_geom_bond_distance
Ni1 N4 2.064(4)
Ni1 O1 2.068(3)
Ni1 N5 2.080(4)
Ni1 N2 2.078(5)
Ni1 O9 2.076(4)
Ni1 N3 2.098(4)
N1 O7 1.206(6)
N1 O8 1.210(6)
N1 C14 1.483(8)
N2 C16 1.320(7)
N2 C20 1.361(7)
N3 C27 1.317(7)
N3 C24 1.364(6)
N4 C28 1.323(6)
N4 C32 1.359(6)
N5 C39 1.324(6)
N5 C36 1.356(6)
O1 C1 1.258(6)
O2 C1 1.246(6)
O3 C5 1.207(7)
O4 C5 1.312(7)
O5 C13 1.240(9)
O6 C13 1.199(9)
C1 C2 1.517(7)
C2 C3 1.381(7)
C2 C8 1.404(7)
C3 C4 1.389(7)
C4 C6 1.390(7)
C4 C5 1.484(7)
C6 C7 1.365(7)
C7 C8 1.391(7)
C8 C9 1.491(7)
C9 C15 1.385(7)
C9 C10 1.399(7)
C10 C11 1.377(7)
C11 C12 1.381(8)
C12 C14 1.375(8)
C12 C13 1.537(9)
C14 C15 1.374(7)
C16 C17 1.396(9)
C17 C18 1.366(10)
C18 C19 1.405(10)
C19 C20 1.394(8)
C19 C21 1.428(10)
C20 C24 1.429(8)
C21 C22 1.340(10)
C22 C23 1.420(9)
C23 C25 1.404(9)
C23 C24 1.397(8)
C25 C26 1.352(8)
C26 C27 1.410(8)
C28 C29 1.382(8)
C29 C30 1.372(8)
C30 C31 1.396(8)
C31 C32 1.403(7)
C31 C33 1.434(7)
C32 C36 1.433(7)
C33 C34 1.332(8)
C34 C35 1.427(8)
C35 C36 1.399(7)
C35 C37 1.412(8)
C37 C38 1.355(7)
C38 C39 1.399(7)
