#------------------------------------------------------------------------------
#$Date: 2019-11-17 10:06:36 +0200 (Sun, 17 Nov 2019) $
#$Revision: 229256 $
#$URL: file:///home/coder/svn-repositories/cod/cif/7/04/61/7046162.cif $
#------------------------------------------------------------------------------
#
# This file is available in the Crystallography Open Database (COD),
# http://www.crystallography.net/
#
# All data on this site have been placed in the public domain by the
# contributors.
#
data_7046162
loop_
_publ_author_name
'Gu, Jin-Zhong'
'Cai, Yan'
'Qian, Zi-Yue'
'Wen, Min'
'Shi, Zi-Fa'
'Lv, Dong-Yu'
'Kirillov, Alexander M.'
_publ_section_title
;
 A new series of Co, Ni, Zn, and Cd metal-organic architectures driven by
 an unsymmetrical biphenyl-tricarboxylic acid: hydrothermal assembly,
 structural features and properties.
;
_journal_issue                   22
_journal_name_full
'Dalton transactions (Cambridge, England : 2003)'
_journal_page_first              7431
_journal_page_last               7444
_journal_paper_doi               10.1039/c8dt01299g
_journal_volume                  47
_journal_year                    2018
_chemical_formula_sum            'C35 H25 N5 O10 Zn2'
_chemical_formula_weight         806.34
_space_group_crystal_system      monoclinic
_space_group_IT_number           13
_space_group_name_Hall           '-P 2yc'
_space_group_name_H-M_alt        'P 1 2/c 1'
_symmetry_space_group_name_Hall  '-P 2yc'
_symmetry_space_group_name_H-M   'P 1 2/c 1'
_atom_sites_solution_hydrogens   mixed
_audit_creation_method           SHELXL-2014/7
_audit_update_record
;
2017-12-06 deposited with the CCDC.
2018-04-30 downloaded from the CCDC.
;
_cell_angle_alpha                90
_cell_angle_beta                 108.194(8)
_cell_angle_gamma                90
_cell_formula_units_Z            4
_cell_length_a                   13.6373(9)
_cell_length_b                   15.8049(11)
_cell_length_c                   16.0311(13)
_cell_measurement_reflns_used    11673
_cell_measurement_temperature    293(2)
_cell_measurement_theta_max      25.050
_cell_measurement_theta_min      3.395
_cell_volume                     3282.5(4)
_computing_cell_refinement       'Bruker SAINT'
_computing_data_collection       'Bruker APEX2'
_computing_data_reduction        'Bruker SAINT'
_computing_molecular_graphics    'Bruker SHELXTL'
_computing_publication_material  'Bruker SHELXTL'
_computing_structure_refinement  'SHELXL-2014/7 (Sheldrick, 2014)'
_computing_structure_solution    'SHELXL-2014/7 (Sheldrick, 2014)'
_diffrn_ambient_temperature      293(2)
_diffrn_measured_fraction_theta_full 0.997
_diffrn_measured_fraction_theta_max 0.997
_diffrn_measurement_device_type  'Bruker APE-II CCD'
_diffrn_measurement_method       '\f and \w scans'
_diffrn_radiation_type           MoK\a
_diffrn_radiation_wavelength     0.71073
_diffrn_reflns_av_R_equivalents  0.0788
_diffrn_reflns_av_unetI/netI     0.1339
_diffrn_reflns_Laue_measured_fraction_full 0.997
_diffrn_reflns_Laue_measured_fraction_max 0.997
_diffrn_reflns_limit_h_max       16
_diffrn_reflns_limit_h_min       -16
_diffrn_reflns_limit_k_max       9
_diffrn_reflns_limit_k_min       -18
_diffrn_reflns_limit_l_max       19
_diffrn_reflns_limit_l_min       -18
_diffrn_reflns_number            11673
_diffrn_reflns_point_group_measured_fraction_full 0.997
_diffrn_reflns_point_group_measured_fraction_max 0.997
_diffrn_reflns_theta_full        25.050
_diffrn_reflns_theta_max         25.050
_diffrn_reflns_theta_min         3.395
_diffrn_source                   'fine-focus sealed tube'
_exptl_absorpt_coefficient_mu    1.531
_exptl_absorpt_correction_T_max  0.781
_exptl_absorpt_correction_T_min  0.701
_exptl_absorpt_correction_type   multi-scan
_exptl_absorpt_process_details   SADABS
_exptl_crystal_colour            colourless
_exptl_crystal_density_diffrn    1.632
_exptl_crystal_description       needle
_exptl_crystal_F_000             1640
_exptl_crystal_size_max          0.250
_exptl_crystal_size_mid          0.200
_exptl_crystal_size_min          0.170
_exptl_transmission_factor_max   0.771
_exptl_transmission_factor_min   0.727
_refine_diff_density_max         2.535
_refine_diff_density_min         -0.847
_refine_diff_density_rms         0.134
_refine_ls_extinction_method     none
_refine_ls_goodness_of_fit_ref   1.062
_refine_ls_hydrogen_treatment    constr
_refine_ls_matrix_type           full
_refine_ls_number_parameters     469
_refine_ls_number_reflns         5824
_refine_ls_number_restraints     0
_refine_ls_restrained_S_all      1.062
_refine_ls_R_factor_all          0.1285
_refine_ls_R_factor_gt           0.0751
_refine_ls_shift/su_max          0.000
_refine_ls_shift/su_mean         0.000
_refine_ls_structure_factor_coef Fsqd
_refine_ls_weighting_details
'w=1/[\s^2^(Fo^2^)+(0.0660P)^2^+1.9294P] where P=(Fo^2^+2Fc^2^)/3'
_refine_ls_weighting_scheme      calc
_refine_ls_wR_factor_gt          0.1551
_refine_ls_wR_factor_ref         0.2019
_reflns_Friedel_coverage         0.000
_reflns_number_gt                3510
_reflns_number_total             5824
_reflns_threshold_expression     'I > 2\s(I)'
_cod_data_source_file            c8dt01299g2.cif
_cod_data_source_block           323-4Zn
_cod_depositor_comments
'Adding full bibliography for 7046153--7046164.cif.'
_cod_database_code               7046162
_shelx_shelxl_version_number     2014/7
_shelx_space_group_comment
;
The symmetry employed for this shelxl refinement is uniquely defined
by the following loop, which should always be used as a source of
symmetry information in preference to the above space-group names.
They are only intended as comments.
;
_shelx_estimated_absorpt_t_min   0.701
_shelx_estimated_absorpt_t_max   0.781
_shelx_res_file
;

    323-4Zn.res created by SHELXL-2014/7

TITL 323-4Zn in P21/c
CELL 0.71 13.637312 15.804936 16.031088 90 108.194 90
ZERR 4 0.000894 0.001123 0.001268 0 0.0077 0
LATT 1
SYMM -X,+Y,0.5-Z
SFAC C  H  N  O  Zn
UNIT 140  100  20  40  8
OMIT -3 50.1
L.S. 44
ACTA
BOND $H
FMAP 2
PLAN 2
SIZE 0.25 0.20 0.17
HTAB
CONF
WGHT    0.066000    1.929400
FVAR       1.96973
ZN1   5    0.950886    0.298881    0.327586    11.00000    0.02274    0.02660 =
         0.02747   -0.00060    0.01170    0.00090
ZN2   5    0.830037    0.213539    0.099675    11.00000    0.02405    0.01790 =
         0.03150   -0.00044    0.01207   -0.00006
N1    3    1.151895    0.945191    0.470266    11.00000    0.04381    0.04092 =
         0.04961   -0.00095    0.01305   -0.01384
N2    3    0.809285    0.273020    0.346978    11.00000    0.02887    0.02816 =
         0.03289   -0.00450    0.01500   -0.00279
N3    3    0.318716    0.219576    0.400130    11.00000    0.02747    0.03125 =
         0.03525    0.00518    0.00802   -0.00250
N4    3    0.474369    0.507233    0.125068    11.00000    0.06768    0.05379 =
         0.27368   -0.03631    0.03099    0.01242
N5    3    0.484407    0.954294    0.125708    11.00000    0.08566    0.06643 =
         0.14723    0.04044    0.00043   -0.00602
O1    4    0.927928    0.429161    0.322236    11.00000    0.04592    0.02016 =
         0.03217    0.00060    0.01581    0.00038
O2    4    0.822535    0.446578    0.186497    11.00000    0.04511    0.02071 =
         0.04011   -0.00763   -0.00256    0.00663
O3    4    0.839354    0.753317    0.484898    11.00000    0.03301    0.02521 =
         0.02777   -0.00674    0.00985    0.00637
O4    4    0.989048    0.684465    0.534789    11.00000    0.03404    0.03631 =
         0.03029   -0.00049    0.00673    0.00842
O5    4    1.129740    1.095666    0.380635    11.00000    0.03872    0.02611 =
         0.04898   -0.00626    0.01928   -0.01062
O6    4    0.968865    1.148945    0.347391    11.00000    0.04248    0.03398 =
         0.06904   -0.01248    0.03559   -0.00888
O7    4    1.160715    0.993903    0.529992    11.00000    0.06601    0.07387 =
         0.04322   -0.02797    0.01547   -0.02632
O8    4    1.223004    0.906304    0.458212    11.00000    0.02985    0.07987 =
         0.10883   -0.02848   -0.01222    0.01150
O9    4    0.905582    0.292717    0.188191    11.00000    0.02480    0.01454 =
         0.02784   -0.00454    0.01101    0.00167
AFIX   3
H1    2    0.879303    0.341583    0.187457    11.00000   -1.20000
AFIX   0
O10   4    0.862695    0.492624    0.531071    11.00000    0.11037    0.14699 =
         0.06730    0.02606    0.03197   -0.01642
AFIX   3
H1W   2    0.850493    0.509979    0.577042    11.00000   -1.20000
H2W   2    0.893730    0.539361    0.531653    11.00000   -1.20000
AFIX   0
C1    1    0.874045    0.475441    0.259280    11.00000    0.02013    0.02452 =
         0.03023   -0.00077    0.01172   -0.00114
C2    1    0.871671    0.567822    0.278065    11.00000    0.02806    0.01798 =
         0.02860   -0.00284    0.00739   -0.00628
C3    1    0.893668    0.595596    0.363362    11.00000    0.03495    0.01547 =
         0.03370   -0.00044    0.01438   -0.00053
AFIX  43
H3    2    0.905733    0.556346    0.408673    11.00000   -1.20000
AFIX   0
C4    1    0.898104    0.682125    0.382749    11.00000    0.02070    0.01848 =
         0.02136   -0.00803    0.00914    0.00294
C5    1    0.910964    0.708715    0.475626    11.00000    0.03440    0.01023 =
         0.02834   -0.00155    0.01788   -0.00214
C6    1    0.888899    0.741303    0.315223    11.00000    0.02920    0.01868 =
         0.02175   -0.00628    0.00774   -0.00039
C7    1    0.863999    0.712307    0.230240    11.00000    0.04342    0.01801 =
         0.02756    0.00323    0.00878   -0.00557
AFIX  43
H7    2    0.853308    0.751145    0.184685    11.00000   -1.20000
AFIX   0
C8    1    0.854432    0.626519    0.210783    11.00000    0.03906    0.02107 =
         0.02851   -0.00327    0.00934    0.00131
AFIX  43
H8A   2    0.836496    0.608478    0.152737    11.00000   -1.20000
AFIX   0
C9    1    0.919683    0.830577    0.335474    11.00000    0.03620    0.01596 =
         0.03341   -0.00574    0.01940   -0.00903
C10   1    1.012881    0.849844    0.395195    11.00000    0.03895    0.01632 =
         0.03803   -0.00415    0.01413   -0.00403
AFIX  43
H10   2    1.052908    0.806895    0.428765    11.00000   -1.20000
AFIX   0
C11   1    1.048630    0.932279    0.406497    11.00000    0.02426    0.02610 =
         0.02428   -0.00688    0.00372   -0.00760
C12   1    0.991017    0.999992    0.358172    11.00000    0.04407    0.01936 =
         0.03194   -0.00572    0.02236   -0.00925
C13   1    1.032178    1.088513    0.363441    11.00000    0.02728    0.02584 =
         0.03722   -0.00978    0.02114   -0.00404
C14   1    0.895698    0.979547    0.298867    11.00000    0.03711    0.03209 =
         0.03021    0.00005    0.01913    0.00697
AFIX  43
H14   2    0.854460    1.022312    0.266070    11.00000   -1.20000
AFIX   0
C15   1    0.860865    0.897067    0.287573    11.00000    0.03263    0.02092 =
         0.02995   -0.00526    0.00583   -0.00461
AFIX  43
H15   2    0.796732    0.885455    0.247128    11.00000   -1.20000
AFIX   0
C16   1    0.755204    0.202232    0.323714    11.00000    0.04038    0.03188 =
         0.04154   -0.00375    0.02123   -0.00050
AFIX  43
H16   2    0.782931    0.160163    0.297270    11.00000   -1.20000
AFIX   0
C17   1    0.661797    0.186371    0.335636    11.00000    0.04432    0.04150 =
         0.05106   -0.00002    0.01887   -0.00597
AFIX  43
H17   2    0.628644    0.134951    0.318015    11.00000   -1.20000
AFIX   0
C18   1    0.616891    0.247434    0.374148    11.00000    0.02422    0.03999 =
         0.05129    0.00790    0.01968    0.00153
C19   1    0.675244    0.319240    0.401744    11.00000    0.04051    0.04474 =
         0.08735   -0.01518    0.03802   -0.00042
AFIX  43
H19   2    0.649961    0.361469    0.429879    11.00000   -1.20000
AFIX   0
C20   1    0.770687    0.330796    0.388995    11.00000    0.04824    0.02974 =
         0.08291   -0.01758    0.03700   -0.00992
AFIX  43
H20   2    0.808320    0.379620    0.410099    11.00000   -1.20000
AFIX   0
C21   1    0.514948    0.235497    0.385205    11.00000    0.02868    0.04171 =
         0.04627    0.00305    0.01751   -0.00324
C22   1    0.475795    0.158245    0.398630    11.00000    0.02846    0.02243 =
         0.05999    0.00932    0.02264    0.00510
AFIX  43
H22   2    0.515407    0.109575    0.402968    11.00000   -1.20000
AFIX   0
C23   1    0.378539    0.153169    0.405582    11.00000    0.03601    0.02151 =
         0.06116    0.00913    0.02077    0.00753
AFIX  43
H23   2    0.353547    0.100336    0.414576    11.00000   -1.20000
AFIX   0
C24   1    0.355190    0.296216    0.387722    11.00000    0.03661    0.01527 =
         0.06871    0.00276    0.02075    0.00758
AFIX  43
H24   2    0.313637    0.343590    0.384188    11.00000   -1.20000
AFIX   0
C25   1    0.452609    0.306281    0.380114    11.00000    0.03317    0.02107 =
         0.08325    0.01157    0.02748    0.00292
AFIX  43
H25   2    0.476321    0.359772    0.371679    11.00000   -1.20000
AFIX   0
C26   1    0.567329    0.637015    0.148324    11.00000    0.05855    0.04511 =
         0.20390    0.00218    0.03049    0.00425
AFIX  43
H26   2    0.631418    0.663323    0.162154    11.00000   -1.20000
AFIX   0
C27   1    0.560837    0.549774    0.146916    11.00000    0.05807    0.06030 =
         0.25830   -0.01506    0.01871    0.02922
AFIX  43
H27   2    0.622193    0.519238    0.162587    11.00000   -1.20000
AFIX   0
C28   1    0.390378    0.554034    0.105616    11.00000    0.06520    0.04358 =
         0.21220   -0.00686    0.02732   -0.01357
AFIX  43
H28   2    0.327113    0.526243    0.089641    11.00000   -1.20000
AFIX   0
C29   1    0.389389    0.640092    0.107182    11.00000    0.05015    0.05919 =
         0.12781   -0.00016    0.00838    0.00516
AFIX  43
H29   2    0.327125    0.669269    0.093109    11.00000   -1.20000
AFIX   0
C30   1    0.481382    0.683538    0.129784    11.00000    0.04828    0.04731 =
         0.07670   -0.00312    0.00063    0.00240
C31   1    0.482981    0.777717    0.130392    11.00000    0.03405    0.07425 =
         0.04604    0.01348    0.00418   -0.00075
C32   1    0.400565    0.825639    0.134067    11.00000    0.05870    0.06538 =
         0.07004    0.00037    0.00816    0.00019
AFIX  43
H32   2    0.341227    0.798670    0.137250    11.00000   -1.20000
AFIX   0
C33   1    0.403503    0.910788    0.133178    11.00000    0.07410    0.06808 =
         0.09582    0.00150    0.00402    0.02946
AFIX  43
H33   2    0.346743    0.940645    0.137973    11.00000   -1.20000
AFIX   0
C34   1    0.563021    0.908176    0.120839    11.00000    0.06647    0.09875 =
         0.13827    0.05078   -0.00449   -0.01853
AFIX  43
H34   2    0.620900    0.936507    0.116276    11.00000   -1.20000
AFIX   0
C35   1    0.565531    0.821755    0.122018    11.00000    0.06742    0.08902 =
         0.07167    0.02928    0.00148    0.01422
AFIX  43
H35   2    0.623073    0.793123    0.117149    11.00000   -1.20000
AFIX   0
HKLF 4

REM  323-4Zn in P21/c
REM R1 =  0.0751 for    3510 Fo > 4sig(Fo)  and  0.1285 for all    5824 data
REM    469 parameters refined using      0 restraints

END

WGHT      0.0698      1.1416

REM Instructions for potential hydrogen bonds
HTAB O9 O1
HTAB O9 O2
EQIV $1 x, -y+1, z+1/2
HTAB O10 O2_$1
HTAB O10 O4
EQIV $2 x, y-1, z
HTAB C16 O6_$2
HTAB C20 O1
HTAB C20 O10
EQIV $3 -x+1, y-1, -z+1/2
HTAB C22 N5_$3
EQIV $4 -x+1, y, -z+1/2
HTAB C24 O2_$4
HTAB C25 N4_$4
HTAB C29 O3_$4

REM Highest difference peak  2.535,  deepest hole -0.847,  1-sigma level  0.134
Q1    1   0.9546  1.2040  0.3294  11.00000  0.05    2.53
Q2    1   0.8332  0.2897  0.1034  11.00000  0.05    2.47
;
_shelx_res_checksum              11673
loop_
_space_group_symop_operation_xyz
'x, y, z'
'-x, y, -z+1/2'
'-x, -y, -z'
'x, -y, z-1/2'
loop_
_atom_site_label
_atom_site_type_symbol
_atom_site_fract_x
_atom_site_fract_y
_atom_site_fract_z
_atom_site_U_iso_or_equiv
_atom_site_adp_type
_atom_site_occupancy
_atom_site_site_symmetry_order
_atom_site_calc_flag
_atom_site_refinement_flags_posn
_atom_site_refinement_flags_adp
Zn1 Zn 0.95089(6) 0.29888(6) 0.32759(5) 0.0247(3) Uani 1 1 d . .
Zn2 Zn 0.83004(6) 0.21354(5) 0.09967(5) 0.0237(3) Uani 1 1 d . .
N1 N 1.1519(6) 0.9452(5) 0.4703(5) 0.0451(19) Uani 1 1 d . .
N2 N 0.8093(5) 0.2730(4) 0.3470(4) 0.0287(15) Uani 1 1 d . .
N3 N 0.3187(5) 0.2196(4) 0.4001(4) 0.0317(16) Uani 1 1 d . .
N4 N 0.4744(9) 0.5072(7) 0.1251(10) 0.137(5) Uani 1 1 d . .
N5 N 0.4844(10) 0.9543(7) 0.1257(8) 0.108(4) Uani 1 1 d . .
O1 O 0.9279(4) 0.4292(3) 0.3222(3) 0.0319(13) Uani 1 1 d . .
O2 O 0.8225(4) 0.4466(3) 0.1865(3) 0.0390(14) Uani 1 1 d . .
O3 O 0.8394(4) 0.7533(3) 0.4849(3) 0.0286(12) Uani 1 1 d . .
O4 O 0.9890(4) 0.6845(3) 0.5348(3) 0.0343(13) Uani 1 1 d . .
O5 O 1.1297(4) 1.0957(3) 0.3806(3) 0.0366(14) Uani 1 1 d . .
O6 O 0.9689(4) 1.1489(4) 0.3474(4) 0.0443(16) Uani 1 1 d . .
O7 O 1.1607(5) 0.9939(5) 0.5300(4) 0.061(2) Uani 1 1 d . .
O8 O 1.2230(5) 0.9063(5) 0.4582(5) 0.081(2) Uani 1 1 d . .
O9 O 0.9056(3) 0.2927(3) 0.1882(3) 0.0218(11) Uani 1 1 d . .
H1 H 0.8793 0.3416 0.1875 0.026 Uiso 1 1 d R U
O10 O 0.8627(6) 0.4926(6) 0.5311(5) 0.107(3) Uani 1 1 d . .
H1W H 0.8505 0.5100 0.5770 0.129 Uiso 1 1 d R U
H2W H 0.8937 0.5394 0.5317 0.129 Uiso 1 1 d R U
C1 C 0.8740(5) 0.4754(5) 0.2593(5) 0.0241(17) Uani 1 1 d . .
C2 C 0.8717(5) 0.5678(5) 0.2781(5) 0.0252(17) Uani 1 1 d . .
C3 C 0.8937(5) 0.5956(5) 0.3634(5) 0.0272(18) Uani 1 1 d . .
H3 H 0.9057 0.5563 0.4087 0.033 Uiso 1 1 calc R U
C4 C 0.8981(5) 0.6821(5) 0.3827(4) 0.0196(16) Uani 1 1 d . .
C5 C 0.9110(6) 0.7087(4) 0.4756(5) 0.0225(16) Uani 1 1 d . .
C6 C 0.8889(5) 0.7413(5) 0.3152(5) 0.0233(17) Uani 1 1 d . .
C7 C 0.8640(6) 0.7123(5) 0.2302(5) 0.0302(18) Uani 1 1 d . .
H7 H 0.8533 0.7511 0.1847 0.036 Uiso 1 1 calc R U
C8 C 0.8544(6) 0.6265(5) 0.2108(5) 0.0298(18) Uani 1 1 d . .
H8A H 0.8365 0.6085 0.1527 0.036 Uiso 1 1 calc R U
C9 C 0.9197(6) 0.8306(5) 0.3355(5) 0.0266(18) Uani 1 1 d . .
C10 C 1.0129(6) 0.8498(5) 0.3952(5) 0.0306(18) Uani 1 1 d . .
H10 H 1.0529 0.8069 0.4288 0.037 Uiso 1 1 calc R U
C11 C 1.0486(5) 0.9323(5) 0.4065(5) 0.0258(17) Uani 1 1 d . .
C12 C 0.9910(6) 1.0000(5) 0.3582(5) 0.0294(18) Uani 1 1 d . .
C13 C 1.0322(6) 1.0885(5) 0.3634(5) 0.0276(18) Uani 1 1 d . .
C14 C 0.8957(6) 0.9795(5) 0.2989(5) 0.0311(19) Uani 1 1 d . .
H14 H 0.8545 1.0223 0.2661 0.037 Uiso 1 1 calc R U
C15 C 0.8609(6) 0.8971(5) 0.2876(5) 0.0287(18) Uani 1 1 d . .
H15 H 0.7967 0.8855 0.2471 0.034 Uiso 1 1 calc R U
C16 C 0.7552(6) 0.2022(5) 0.3237(5) 0.036(2) Uani 1 1 d . .
H16 H 0.7829 0.1602 0.2973 0.043 Uiso 1 1 calc R U
C17 C 0.6618(7) 0.1864(6) 0.3356(6) 0.045(2) Uani 1 1 d . .
H17 H 0.6286 0.1350 0.3180 0.054 Uiso 1 1 calc R U
C18 C 0.6169(6) 0.2474(6) 0.3741(6) 0.037(2) Uani 1 1 d . .
C19 C 0.6752(6) 0.3192(6) 0.4017(6) 0.053(3) Uani 1 1 d . .
H19 H 0.6500 0.3615 0.4299 0.064 Uiso 1 1 calc R U
C20 C 0.7707(7) 0.3308(6) 0.3890(6) 0.050(3) Uani 1 1 d . .
H20 H 0.8083 0.3796 0.4101 0.060 Uiso 1 1 calc R U
C21 C 0.5149(6) 0.2355(6) 0.3852(5) 0.038(2) Uani 1 1 d . .
C22 C 0.4758(6) 0.1582(5) 0.3986(5) 0.035(2) Uani 1 1 d . .
H22 H 0.5154 0.1096 0.4030 0.042 Uiso 1 1 calc R U
C23 C 0.3785(6) 0.1532(5) 0.4056(6) 0.038(2) Uani 1 1 d . .
H23 H 0.3535 0.1003 0.4146 0.046 Uiso 1 1 calc R U
C24 C 0.3552(6) 0.2962(5) 0.3877(6) 0.039(2) Uani 1 1 d . .
H24 H 0.3136 0.3436 0.3842 0.047 Uiso 1 1 calc R U
C25 C 0.4526(6) 0.3063(5) 0.3801(6) 0.044(2) Uani 1 1 d . .
H25 H 0.4763 0.3598 0.3717 0.052 Uiso 1 1 calc R U
C26 C 0.5673(10) 0.6370(8) 0.1483(10) 0.105(5) Uani 1 1 d . .
H26 H 0.6314 0.6633 0.1622 0.126 Uiso 1 1 calc R U
C27 C 0.5608(11) 0.5498(10) 0.1469(12) 0.133(6) Uani 1 1 d . .
H27 H 0.6222 0.5192 0.1626 0.159 Uiso 1 1 calc R U
C28 C 0.3904(10) 0.5540(8) 0.1056(10) 0.111(5) Uani 1 1 d . .
H28 H 0.3271 0.5262 0.0896 0.133 Uiso 1 1 calc R U
C29 C 0.3894(9) 0.6401(8) 0.1072(8) 0.084(4) Uani 1 1 d . .
H29 H 0.3271 0.6693 0.0931 0.100 Uiso 1 1 calc R U
C30 C 0.4814(8) 0.6835(7) 0.1298(7) 0.062(3) Uani 1 1 d . .
C31 C 0.4830(7) 0.7777(7) 0.1304(6) 0.053(3) Uani 1 1 d . .
C32 C 0.4006(8) 0.8256(8) 0.1341(7) 0.067(3) Uani 1 1 d . .
H32 H 0.3412 0.7987 0.1373 0.081 Uiso 1 1 calc R U
C33 C 0.4035(10) 0.9108(9) 0.1332(8) 0.085(4) Uani 1 1 d . .
H33 H 0.3467 0.9406 0.1380 0.101 Uiso 1 1 calc R U
C34 C 0.5630(11) 0.9082(11) 0.1208(10) 0.110(5) Uani 1 1 d . .
H34 H 0.6209 0.9365 0.1163 0.131 Uiso 1 1 calc R U
C35 C 0.5655(9) 0.8218(9) 0.1220(7) 0.081(4) Uani 1 1 d . .
H35 H 0.6231 0.7931 0.1171 0.097 Uiso 1 1 calc R U
loop_
_atom_site_aniso_label
_atom_site_aniso_U_11
_atom_site_aniso_U_22
_atom_site_aniso_U_33
_atom_site_aniso_U_23
_atom_site_aniso_U_13
_atom_site_aniso_U_12
Zn1 0.0227(5) 0.0266(5) 0.0275(5) -0.0006(4) 0.0117(4) 0.0009(4)
Zn2 0.0241(5) 0.0179(5) 0.0315(5) -0.0004(4) 0.0121(4) -0.0001(4)
N1 0.044(5) 0.041(5) 0.050(5) -0.001(4) 0.013(4) -0.014(4)
N2 0.029(4) 0.028(4) 0.033(4) -0.005(3) 0.015(3) -0.003(3)
N3 0.027(4) 0.031(4) 0.035(4) 0.005(3) 0.008(3) -0.002(3)
N4 0.068(8) 0.054(8) 0.274(18) -0.036(9) 0.031(9) 0.012(7)
N5 0.086(9) 0.066(9) 0.147(11) 0.040(7) 0.000(8) -0.006(7)
O1 0.046(3) 0.020(3) 0.032(3) 0.001(2) 0.016(3) 0.000(3)
O2 0.045(3) 0.021(3) 0.040(4) -0.008(3) -0.003(3) 0.007(3)
O3 0.033(3) 0.025(3) 0.028(3) -0.007(2) 0.010(2) 0.006(2)
O4 0.034(3) 0.036(4) 0.030(3) 0.000(3) 0.007(3) 0.008(3)
O5 0.039(3) 0.026(3) 0.049(4) -0.006(3) 0.019(3) -0.011(3)
O6 0.042(3) 0.034(4) 0.069(4) -0.012(3) 0.036(3) -0.009(3)
O7 0.066(4) 0.074(5) 0.043(4) -0.028(4) 0.015(3) -0.026(4)
O8 0.030(4) 0.080(6) 0.109(6) -0.028(5) -0.012(4) 0.011(4)
O9 0.025(3) 0.015(3) 0.028(3) -0.005(2) 0.011(2) 0.002(2)
O10 0.110(7) 0.147(9) 0.067(6) 0.026(5) 0.032(5) -0.016(6)
C1 0.020(4) 0.025(4) 0.030(5) -0.001(4) 0.012(3) -0.001(3)
C2 0.028(4) 0.018(4) 0.029(4) -0.003(3) 0.007(3) -0.006(3)
C3 0.035(4) 0.015(4) 0.034(5) 0.000(3) 0.014(4) -0.001(4)
C4 0.021(4) 0.018(4) 0.021(4) -0.008(3) 0.009(3) 0.003(3)
C5 0.034(4) 0.010(4) 0.028(4) -0.002(3) 0.018(4) -0.002(3)
C6 0.029(4) 0.019(4) 0.022(4) -0.006(3) 0.008(3) 0.000(3)
C7 0.043(5) 0.018(4) 0.028(4) 0.003(3) 0.009(4) -0.006(4)
C8 0.039(5) 0.021(4) 0.029(4) -0.003(3) 0.009(3) 0.001(4)
C9 0.036(4) 0.016(4) 0.033(5) -0.006(3) 0.019(4) -0.009(4)
C10 0.039(5) 0.016(4) 0.038(5) -0.004(3) 0.014(4) -0.004(4)
C11 0.024(4) 0.026(5) 0.024(4) -0.007(3) 0.004(3) -0.008(4)
C12 0.044(5) 0.019(4) 0.032(5) -0.006(3) 0.022(4) -0.009(4)
C13 0.027(4) 0.026(5) 0.037(5) -0.010(4) 0.021(4) -0.004(4)
C14 0.037(5) 0.032(5) 0.030(5) 0.000(4) 0.019(4) 0.007(4)
C15 0.033(4) 0.021(4) 0.030(4) -0.005(3) 0.006(3) -0.005(4)
C16 0.040(5) 0.032(5) 0.042(5) -0.004(4) 0.021(4) -0.001(4)
C17 0.044(5) 0.041(6) 0.051(6) 0.000(4) 0.019(4) -0.006(5)
C18 0.024(4) 0.040(6) 0.051(6) 0.008(4) 0.020(4) 0.002(4)
C19 0.041(5) 0.045(7) 0.087(8) -0.015(5) 0.038(5) 0.000(5)
C20 0.048(6) 0.030(5) 0.083(8) -0.018(5) 0.037(5) -0.010(5)
C21 0.029(5) 0.042(6) 0.046(5) 0.003(4) 0.018(4) -0.003(4)
C22 0.028(4) 0.022(5) 0.060(6) 0.009(4) 0.023(4) 0.005(4)
C23 0.036(5) 0.022(5) 0.061(6) 0.009(4) 0.021(4) 0.008(4)
C24 0.037(5) 0.015(5) 0.069(6) 0.003(4) 0.021(4) 0.008(4)
C25 0.033(5) 0.021(5) 0.083(7) 0.012(4) 0.027(5) 0.003(4)
C26 0.059(8) 0.045(8) 0.204(16) 0.002(9) 0.030(9) 0.004(7)
C27 0.058(9) 0.060(11) 0.26(2) -0.015(11) 0.019(11) 0.029(8)
C28 0.065(9) 0.044(9) 0.212(17) -0.007(9) 0.027(10) -0.014(7)
C29 0.050(7) 0.059(9) 0.128(11) 0.000(7) 0.008(7) 0.005(7)
C30 0.048(6) 0.047(7) 0.077(8) -0.003(6) 0.001(5) 0.002(6)
C31 0.034(5) 0.074(8) 0.046(6) 0.013(5) 0.004(4) -0.001(6)
C32 0.059(7) 0.065(9) 0.070(8) 0.000(6) 0.008(6) 0.000(6)
C33 0.074(9) 0.068(10) 0.096(10) 0.001(7) 0.004(7) 0.029(8)
C34 0.066(9) 0.099(14) 0.138(14) 0.051(10) -0.004(9) -0.019(9)
C35 0.067(8) 0.089(11) 0.072(8) 0.029(7) 0.001(6) 0.014(8)
loop_
_atom_type_symbol
_atom_type_description
_atom_type_scat_dispersion_real
_atom_type_scat_dispersion_imag
_atom_type_scat_source
C C 0.0033 0.0016 'International Tables Vol C Tables 4.2.6.8 and 6.1.1.4'
H H 0.0000 0.0000 'International Tables Vol C Tables 4.2.6.8 and 6.1.1.4'
N N 0.0061 0.0033 'International Tables Vol C Tables 4.2.6.8 and 6.1.1.4'
O O 0.0106 0.0060 'International Tables Vol C Tables 4.2.6.8 and 6.1.1.4'
Zn Zn 0.2839 1.4301 'International Tables Vol C Tables 4.2.6.8 and 6.1.1.4'
loop_
_geom_angle_atom_site_label_1
_geom_angle_atom_site_label_2
_geom_angle_atom_site_label_3
_geom_angle
_geom_angle_site_symmetry_1
_geom_angle_site_symmetry_3
O9 Zn1 O1 100.31(19) 2_755 .
O9 Zn1 N2 165.9(2) 2_755 .
O1 Zn1 N2 93.8(2) . .
O9 Zn1 O4 93.48(18) 2_755 3_766
O1 Zn1 O4 85.7(2) . 3_766
N2 Zn1 O4 86.8(2) . 3_766
O9 Zn1 O9 81.01(19) 2_755 .
O1 Zn1 O9 90.65(18) . .
N2 Zn1 O9 99.7(2) . .
O4 Zn1 O9 172.74(19) 3_766 .
O9 Zn1 O6 84.67(17) 2_755 1_545
O1 Zn1 O6 173.36(18) . 1_545
N2 Zn1 O6 81.2(2) . 1_545
O4 Zn1 O6 89.7(2) 3_766 1_545
O9 Zn1 O6 94.48(19) . 1_545
O9 Zn1 Zn2 36.38(12) 2_755 2_755
O1 Zn1 Zn2 123.50(15) . 2_755
N2 Zn1 Zn2 132.42(18) . 2_755
O4 Zn1 Zn2 69.75(14) 3_766 2_755
O9 Zn1 Zn2 107.46(12) . 2_755
O6 Zn1 Zn2 58.74(13) 1_545 2_755
O9 Zn2 O5 116.4(2) . 2_745
O9 Zn2 O3 110.0(2) . 4_565
O5 Zn2 O3 108.2(2) 2_745 4_565
O9 Zn2 N3 105.8(2) . 2_655
O5 Zn2 N3 106.1(2) 2_745 2_655
O3 Zn2 N3 110.3(2) 4_565 2_655
O9 Zn2 Zn1 39.10(13) . 2_755
O5 Zn2 Zn1 99.42(16) 2_745 2_755
O3 Zn2 Zn1 84.31(15) 4_565 2_755
N3 Zn2 Zn1 144.20(19) 2_655 2_755
O7 N1 O8 124.3(8) . .
O7 N1 C11 118.5(8) . .
O8 N1 C11 117.2(7) . .
C16 N2 C20 116.5(6) . .
C16 N2 Zn1 125.5(5) . .
C20 N2 Zn1 118.0(5) . .
C23 N3 C24 118.5(7) . .
C23 N3 Zn2 124.1(5) . 2_655
C24 N3 Zn2 117.2(5) . 2_655
C27 N4 C28 114.8(12) . .
C34 N5 C33 115.5(12) . .
C1 O1 Zn1 129.9(5) . .
C5 O3 Zn2 123.1(5) . 4_566
C5 O4 Zn1 135.8(5) . 3_766
C13 O5 Zn2 110.1(5) . 2_765
C13 O6 Zn1 144.4(5) . 1_565
Zn2 O9 Zn1 104.52(19) . 2_755
Zn2 O9 Zn1 135.7(2) . .
Zn1 O9 Zn1 98.74(19) 2_755 .
Zn2 O9 H1 116.9 . .
Zn1 O9 H1 111.7 2_755 .
Zn1 O9 H1 87.5 . .
H1W O10 H2W 86.7 . .
O2 C1 O1 123.2(7) . .
O2 C1 C2 120.4(7) . .
O1 C1 C2 116.4(7) . .
C3 C2 C8 119.4(7) . .
C3 C2 C1 120.0(7) . .
C8 C2 C1 120.4(7) . .
C2 C3 C4 120.9(7) . .
C2 C3 H3 119.6 . .
C4 C3 H3 119.6 . .
C3 C4 C6 119.5(6) . .
C3 C4 C5 118.5(6) . .
C6 C4 C5 122.1(6) . .
O4 C5 O3 126.7(7) . .
O4 C5 C4 118.4(6) . .
O3 C5 C4 114.9(6) . .
C7 C6 C4 118.4(7) . .
C7 C6 C9 120.0(6) . .
C4 C6 C9 121.0(6) . .
C6 C7 C8 121.6(7) . .
C6 C7 H7 119.2 . .
C8 C7 H7 119.2 . .
C2 C8 C7 119.8(7) . .
C2 C8 H8A 120.1 . .
C7 C8 H8A 120.1 . .
C10 C9 C15 117.8(7) . .
C10 C9 C6 120.3(7) . .
C15 C9 C6 121.5(7) . .
C9 C10 C11 121.0(7) . .
C9 C10 H10 119.5 . .
C11 C10 H10 119.5 . .
C10 C11 C12 122.0(7) . .
C10 C11 N1 116.3(7) . .
C12 C11 N1 121.6(7) . .
C14 C12 C11 116.2(7) . .
C14 C12 C13 120.6(8) . .
C11 C12 C13 122.9(7) . .
O6 C13 O5 125.4(7) . .
O6 C13 C12 118.4(7) . .
O5 C13 C12 116.2(7) . .
C15 C14 C12 121.3(8) . .
C15 C14 H14 119.3 . .
C12 C14 H14 119.3 . .
C14 C15 C9 121.6(7) . .
C14 C15 H15 119.2 . .
C9 C15 H15 119.2 . .
N2 C16 C17 125.1(8) . .
N2 C16 H16 117.5 . .
C17 C16 H16 117.5 . .
C16 C17 C18 119.6(9) . .
C16 C17 H17 120.2 . .
C18 C17 H17 120.2 . .
C19 C18 C17 115.2(7) . .
C19 C18 C21 122.8(8) . .
C17 C18 C21 122.1(8) . .
C18 C19 C20 122.3(8) . .
C18 C19 H19 118.9 . .
C20 C19 H19 118.9 . .
N2 C20 C19 121.2(8) . .
N2 C20 H20 119.4 . .
C19 C20 H20 119.4 . .
C22 C21 C25 117.6(7) . .
C22 C21 C18 124.2(8) . .
C25 C21 C18 118.3(8) . .
C23 C22 C21 119.9(8) . .
C23 C22 H22 120.1 . .
C21 C22 H22 120.1 . .
N3 C23 C22 123.0(8) . .
N3 C23 H23 118.5 . .
C22 C23 H23 118.5 . .
N3 C24 C25 121.8(8) . .
N3 C24 H24 119.1 . .
C25 C24 H24 119.1 . .
C24 C25 C21 119.3(8) . .
C24 C25 H25 120.4 . .
C21 C25 H25 120.4 . .
C30 C26 C27 119.9(12) . .
C30 C26 H26 120.1 . .
C27 C26 H26 120.1 . .
N4 C27 C26 124.5(12) . .
N4 C27 H27 117.8 . .
C26 C27 H27 117.8 . .
N4 C28 C29 124.8(12) . .
N4 C28 H28 117.6 . .
C29 C28 H28 117.6 . .
C28 C29 C30 119.4(11) . .
C28 C29 H29 120.3 . .
C30 C29 H29 120.3 . .
C26 C30 C29 116.6(11) . .
C26 C30 C31 122.6(10) . .
C29 C30 C31 120.7(10) . .
C35 C31 C32 115.8(11) . .
C35 C31 C30 121.3(10) . .
C32 C31 C30 122.8(10) . .
C33 C32 C31 121.6(11) . .
C33 C32 H32 119.2 . .
C31 C32 H32 119.2 . .
N5 C33 C32 122.9(12) . .
N5 C33 H33 118.6 . .
C32 C33 H33 118.6 . .
N5 C34 C35 124.7(13) . .
N5 C34 H34 117.7 . .
C35 C34 H34 117.7 . .
C34 C35 C31 119.5(12) . .
C34 C35 H35 120.2 . .
C31 C35 H35 120.2 . .
loop_
_geom_bond_atom_site_label_1
_geom_bond_atom_site_label_2
_geom_bond_distance
_geom_bond_site_symmetry_2
Zn1 O9 2.053(4) 2_755
Zn1 O1 2.080(5) .
Zn1 N2 2.090(6) .
Zn1 O4 2.116(5) 3_766
Zn1 O9 2.127(4) .
Zn1 O6 2.393(6) 1_545
Zn1 Zn2 3.1511(12) 2_755
Zn2 O9 1.931(5) .
Zn2 O5 1.940(5) 2_745
Zn2 O3 1.955(5) 4_565
Zn2 N3 2.032(6) 2_655
Zn2 Zn1 3.1511(12) 2_755
N1 O7 1.205(9) .
N1 O8 1.213(9) .
N1 C11 1.473(10) .
N2 C16 1.328(9) .
N2 C20 1.336(9) .
N3 C23 1.315(9) .
N3 C24 1.348(10) .
N3 Zn2 2.032(6) 2_655
N4 C27 1.307(16) .
N4 C28 1.317(15) .
N5 C34 1.319(17) .
N5 C33 1.337(15) .
O1 C1 1.277(9) .
O2 C1 1.245(8) .
O3 C5 1.250(8) .
O3 Zn2 1.955(5) 4_566
O4 C5 1.245(9) .
O4 Zn1 2.116(5) 3_766
O5 C13 1.277(8) .
O5 Zn2 1.940(5) 2_765
O6 C13 1.259(9) .
O6 Zn1 2.393(6) 1_565
O9 Zn1 2.053(4) 2_755
O9 H1 0.8500 .
O10 H1W 0.8501 .
O10 H2W 0.8499 .
C1 C2 1.493(10) .
C2 C3 1.377(9) .
C2 C8 1.386(10) .
C3 C4 1.400(9) .
C3 H3 0.9300 .
C4 C6 1.406(10) .
C4 C5 1.504(9) .
C6 C7 1.376(10) .
C6 C9 1.479(9) .
C7 C8 1.388(10) .
C7 H7 0.9300 .
C8 H8A 0.9300 .
C9 C10 1.366(10) .
C9 C15 1.397(10) .
C10 C11 1.383(10) .
C10 H10 0.9300 .
C11 C12 1.408(10) .
C12 C14 1.388(11) .
C12 C13 1.500(10) .
C14 C15 1.380(10) .
C14 H14 0.9300 .
C15 H15 0.9300 .
C16 C17 1.369(10) .
C16 H16 0.9300 .
C17 C18 1.387(11) .
C17 H17 0.9300 .
C18 C19 1.377(12) .
C18 C21 1.468(10) .
C19 C20 1.391(10) .
C19 H19 0.9300 .
C20 H20 0.9300 .
C21 C22 1.376(11) .
C21 C25 1.392(11) .
C22 C23 1.368(10) .
C22 H22 0.9300 .
C23 H23 0.9300 .
C24 C25 1.381(10) .
C24 H24 0.9300 .
C25 H25 0.9300 .
C26 C30 1.336(14) .
C26 C27 1.381(17) .
C26 H26 0.9300 .
C27 H27 0.9300 .
C28 C29 1.361(15) .
C28 H28 0.9300 .
C29 C30 1.376(14) .
C29 H29 0.9300 .
C30 C31 1.489(14) .
C31 C35 1.365(14) .
C31 C32 1.372(14) .
C32 C33 1.347(15) .
C32 H32 0.9300 .
C33 H33 0.9300 .
C34 C35 1.366(18) .
C34 H34 0.9300 .
C35 H35 0.9300 .
loop_
_geom_torsion_atom_site_label_1
_geom_torsion_atom_site_label_2
_geom_torsion_atom_site_label_3
_geom_torsion_atom_site_label_4
_geom_torsion
_geom_torsion_site_symmetry_1
Zn1 O1 C1 O2 0.8(10) .
Zn1 O1 C1 C2 178.4(4) .
O2 C1 C2 C3 155.2(7) .
O1 C1 C2 C3 -22.3(9) .
O2 C1 C2 C8 -29.2(10) .
O1 C1 C2 C8 153.2(7) .
C8 C2 C3 C4 0.4(11) .
C1 C2 C3 C4 176.0(6) .
C2 C3 C4 C6 -5.6(10) .
C2 C3 C4 C5 173.4(6) .
Zn1 O4 C5 O3 -1.5(12) 3_766
Zn1 O4 C5 C4 179.3(5) 3_766
Zn2 O3 C5 O4 -5.8(10) 4_566
Zn2 O3 C5 C4 173.5(4) 4_566
C3 C4 C5 O4 59.6(9) .
C6 C4 C5 O4 -121.4(8) .
C3 C4 C5 O3 -119.7(7) .
C6 C4 C5 O3 59.3(9) .
C3 C4 C6 C7 7.3(10) .
C5 C4 C6 C7 -171.7(6) .
C3 C4 C6 C9 -164.0(7) .
C5 C4 C6 C9 17.0(10) .
C4 C6 C7 C8 -4.1(11) .
C9 C6 C7 C8 167.2(7) .
C3 C2 C8 C7 2.9(11) .
C1 C2 C8 C7 -172.7(7) .
C6 C7 C8 C2 -1.0(12) .
C7 C6 C9 C10 -122.7(8) .
C4 C6 C9 C10 48.4(10) .
C7 C6 C9 C15 49.8(10) .
C4 C6 C9 C15 -139.1(7) .
C15 C9 C10 C11 -1.3(10) .
C6 C9 C10 C11 171.5(6) .
C9 C10 C11 C12 0.6(11) .
C9 C10 C11 N1 -177.7(7) .
O7 N1 C11 C10 -123.8(8) .
O8 N1 C11 C10 57.0(10) .
O7 N1 C11 C12 57.8(11) .
O8 N1 C11 C12 -121.3(9) .
C10 C11 C12 C14 0.5(10) .
N1 C11 C12 C14 178.7(7) .
C10 C11 C12 C13 -174.3(6) .
N1 C11 C12 C13 3.9(10) .
Zn1 O6 C13 O5 3.4(13) 1_565
Zn1 O6 C13 C12 -173.5(5) 1_565
Zn2 O5 C13 O6 10.7(9) 2_765
Zn2 O5 C13 C12 -172.3(5) 2_765
C14 C12 C13 O6 32.1(10) .
C11 C12 C13 O6 -153.3(7) .
C14 C12 C13 O5 -145.2(7) .
C11 C12 C13 O5 29.5(10) .
C11 C12 C14 C15 -0.9(10) .
C13 C12 C14 C15 174.1(6) .
C12 C14 C15 C9 0.2(11) .
C10 C9 C15 C14 0.9(10) .
C6 C9 C15 C14 -171.8(6) .
C20 N2 C16 C17 3.4(13) .
Zn1 N2 C16 C17 -179.1(6) .
N2 C16 C17 C18 0.5(14) .
C16 C17 C18 C19 -3.2(13) .
C16 C17 C18 C21 177.3(8) .
C17 C18 C19 C20 2.2(14) .
C21 C18 C19 C20 -178.4(9) .
C16 N2 C20 C19 -4.4(13) .
Zn1 N2 C20 C19 177.9(7) .
C18 C19 C20 N2 1.7(15) .
C19 C18 C21 C22 -148.0(9) .
C17 C18 C21 C22 31.3(13) .
C19 C18 C21 C25 33.3(13) .
C17 C18 C21 C25 -147.3(9) .
C25 C21 C22 C23 0.6(13) .
C18 C21 C22 C23 -178.0(8) .
C24 N3 C23 C22 -0.5(12) .
Zn2 N3 C23 C22 174.9(6) 2_655
C21 C22 C23 N3 -0.1(13) .
C23 N3 C24 C25 0.4(12) .
Zn2 N3 C24 C25 -175.2(7) 2_655
N3 C24 C25 C21 0.1(13) .
C22 C21 C25 C24 -0.6(13) .
C18 C21 C25 C24 178.1(8) .
C28 N4 C27 C26 -2(3) .
C30 C26 C27 N4 3(3) .
C27 N4 C28 C29 0(3) .
N4 C28 C29 C30 1(2) .
C27 C26 C30 C29 -2(2) .
C27 C26 C30 C31 179.8(13) .
C28 C29 C30 C26 0.6(19) .
C28 C29 C30 C31 178.8(12) .
C26 C30 C31 C35 21.3(16) .
C29 C30 C31 C35 -156.8(11) .
C26 C30 C31 C32 -162.7(12) .
C29 C30 C31 C32 19.3(15) .
C35 C31 C32 C33 -2.7(15) .
C30 C31 C32 C33 -179.0(10) .
C34 N5 C33 C32 -1.2(19) .
C31 C32 C33 N5 2.3(19) .
C33 N5 C34 C35 1(2) .
N5 C34 C35 C31 -1(2) .
C32 C31 C35 C34 2.2(16) .
C30 C31 C35 C34 178.5(10) .
