#------------------------------------------------------------------------------
#$Date: 2019-11-17 12:35:26 +0200 (Sun, 17 Nov 2019) $
#$Revision: 229905 $
#$URL: file:///home/coder/svn-repositories/cod/cif/7/04/62/7046249.cif $
#------------------------------------------------------------------------------
#
# This file is available in the Crystallography Open Database (COD),
# http://www.crystallography.net/
#
# All data on this site have been placed in the public domain by the
# contributors.
#
data_7046249
loop_
_publ_author_name
'Wang, Yao'
'He, Minghui'
'Gao, Xiaoxia'
'Li, Saidan'
'He, Yabing'
_publ_section_title
;
 A metal-organic framework based on a custom-designed diisophthalate
 ligand exhibiting excellent hydrostability and highly selective
 adsorption of C<sub>2</sub>H<sub>2</sub> and CO<sub>2</sub> over
 CH<sub>4</sub>.
;
_journal_issue                   21
_journal_name_full
'Dalton transactions (Cambridge, England : 2003)'
_journal_page_first              7213
_journal_page_last               7221
_journal_paper_doi               10.1039/c8dt00863a
_journal_volume                  47
_journal_year                    2018
_chemical_formula_sum            'C102 H69 Cu6 N3 O30'
_chemical_formula_weight         2197.84
_space_group_crystal_system      tetragonal
_space_group_IT_number           87
_space_group_name_Hall           '-I 4'
_space_group_name_H-M_alt        'I 4/m'
_symmetry_space_group_name_Hall  '-I 4'
_symmetry_space_group_name_H-M   'I 4/m'
_atom_sites_solution_hydrogens   geom
_audit_creation_method           SHELXL-2014/7
_audit_update_record
;
2018-04-02 deposited with the CCDC.
2018-04-30 downloaded from the CCDC.
;
_cell_angle_alpha                90
_cell_angle_beta                 90
_cell_angle_gamma                90
_cell_formula_units_Z            8
_cell_length_a                   30.9140(7)
_cell_length_b                   30.9140(7)
_cell_length_c                   30.914
_cell_measurement_reflns_used    64382
_cell_measurement_temperature    296(2)
_cell_measurement_theta_max      27.3
_cell_measurement_theta_min      0.99
_cell_volume                     29543.7(9)
_computing_cell_refinement       'Bruker SMART'
_computing_data_collection       'Bruker SMART'
_computing_data_reduction        'Bruker SAINT'
_computing_molecular_graphics    'Bruker SHELXTL'
_computing_publication_material  'Bruker SHELXTL'
_computing_structure_refinement  'SHELXL-2014/7 (Sheldrick, 2014)'
_computing_structure_solution    'SHELXL-2014/7 (Sheldrick, 2014)'
_diffrn_ambient_temperature      296(2)
_diffrn_measured_fraction_theta_full 0.999
_diffrn_measured_fraction_theta_max 0.991
_diffrn_measurement_device_type  'Bruker SMART APEX II CCD area detector'
_diffrn_measurement_method       'omega scans'
_diffrn_radiation_type           MoK\a
_diffrn_radiation_wavelength     0.71073
_diffrn_reflns_av_R_equivalents  0.0835
_diffrn_reflns_av_unetI/netI     0.0910
_diffrn_reflns_Laue_measured_fraction_full 0.999
_diffrn_reflns_Laue_measured_fraction_max 0.991
_diffrn_reflns_limit_h_max       39
_diffrn_reflns_limit_h_min       -24
_diffrn_reflns_limit_k_max       39
_diffrn_reflns_limit_k_min       -35
_diffrn_reflns_limit_l_max       39
_diffrn_reflns_limit_l_min       -39
_diffrn_reflns_number            64382
_diffrn_reflns_point_group_measured_fraction_full 0.999
_diffrn_reflns_point_group_measured_fraction_max 0.991
_diffrn_reflns_theta_full        25.242
_diffrn_reflns_theta_max         27.282
_diffrn_reflns_theta_min         2.083
_exptl_absorpt_coefficient_mu    0.903
_exptl_absorpt_correction_T_max  0.9232
_exptl_absorpt_correction_T_min  0.8765
_exptl_absorpt_correction_type   empirical
_exptl_crystal_colour            blue
_exptl_crystal_density_diffrn    0.988
_exptl_crystal_description       block
_exptl_crystal_F_000             8928
_exptl_crystal_size_max          0.150
_exptl_crystal_size_mid          0.120
_exptl_crystal_size_min          0.090
_platon_squeeze_details          ' ?'
_refine_diff_density_max         1.978
_refine_diff_density_min         -1.318
_refine_diff_density_rms         0.194
_refine_ls_extinction_method     none
_refine_ls_goodness_of_fit_ref   1.096
_refine_ls_hydrogen_treatment    constr
_refine_ls_matrix_type           full
_refine_ls_number_parameters     732
_refine_ls_number_reflns         16780
_refine_ls_number_restraints     781
_refine_ls_restrained_S_all      1.077
_refine_ls_R_factor_all          0.1658
_refine_ls_R_factor_gt           0.1355
_refine_ls_shift/su_max          0.002
_refine_ls_shift/su_mean         0.000
_refine_ls_structure_factor_coef Fsqd
_refine_ls_weighting_details
'w=1/[\s^2^(Fo^2^)+(0.2500P)^2^] where P=(Fo^2^+2Fc^2^)/3'
_refine_ls_weighting_scheme      calc
_refine_ls_wR_factor_gt          0.3432
_refine_ls_wR_factor_ref         0.3786
_reflns_Friedel_coverage         0.000
_reflns_number_gt                9862
_reflns_number_total             16780
_reflns_threshold_expression     'I > 2\s(I)'
_cod_data_source_file            c8dt00863a2.cif
_cod_data_source_block           ZJNU-51
_cod_depositor_comments          'Adding full bibliography for 7046249.cif.'
_cod_original_cell_volume        29543.7(13)
_cod_database_code               7046249
_shelx_shelxl_version_number     2014/7
_shelx_space_group_comment
;
The symmetry employed for this shelxl refinement is uniquely defined
by the following loop, which should always be used as a source of
symmetry information in preference to the above space-group names.
They are only intended as comments.
;
_shelx_estimated_absorpt_t_min   0.877
_shelx_estimated_absorpt_t_max   0.923
_shelx_res_file
;

    dp.res created by SHELXL-2014/7

TITL Cm        C m          R = 0.34  New: I4/m
CELL  0.71073   30.9140   30.9140   30.9140    90.000    90.000    90.000
ZERR   8    0.0007    0.0007    0.0000     0.000     0.000     0.000
LATT   2
SYMM             - Y ,              X ,              Z
SYMM             - X ,            - Y ,              Z
SYMM               Y ,            - X ,              Z
SFAC Cu O C N H
UNIT  48 240 816 24 552
TEMP    23
L.S. 10
FMAP 2
rem simu
rem delu
PLAN 20
TWIN  0 -1 0 -1 0 0 0 0 -1
ACTA
BOND $H
CONF
size 0.15 0.12 0.09
WGHT    0.250000
BASF   0.21811
FVAR       0.20592   0.54540   0.42877   0.42449   0.56398
CU1   1    0.247679    0.492093    0.500000    10.50000    0.02564    0.04808 =
         0.03670    0.00000    0.00000    0.00016
O1    2    0.092934    0.482271    0.500000    10.50000    0.03162    0.06779 =
         0.10101    0.00000    0.00000    0.00782
CU2   1    0.162419    0.489395    0.500000    10.50000    0.02439    0.04671 =
         0.04057    0.00000    0.00000   -0.00049
O2    2    0.316780    0.495520    0.500000    10.50000    0.02237    0.07956 =
         0.26148    0.00000    0.00000   -0.00712
CU3   1    0.334872    0.323253    0.253907    11.00000    0.03279    0.03222 =
         0.05524    0.00108   -0.01055   -0.00191
O3    2    0.409046    0.406699    0.361951    11.00000    0.21827    0.23599 =
         0.06383   -0.00793   -0.00988   -0.19422
CU4   1    0.376906    0.368467    0.313363    11.00000    0.03054    0.02896 =
         0.05923   -0.00469   -0.01075    0.00151
O4    2    0.300085    0.288583    0.204000    11.00000    0.08649    0.08027 =
         0.10707    0.01870   -0.04526   -0.05031
RESI 2
RESI 3 LIG
O1    2    0.243175    0.446179    0.455564    11.00000    0.03768    0.05710 =
         0.05495   -0.01739   -0.00769   -0.00467
N1    4    0.000968    0.327095    0.277745    11.00000    0.03721    0.08905 =
         0.06787   -0.03631    0.00507    0.00756
O2    2    0.171244    0.445601    0.455930    11.00000    0.04643    0.06733 =
         0.07410   -0.02199   -0.00246    0.00119
O7    2   -0.164997    0.465522    0.456522    11.00000    0.02903    0.06036 =
         0.05015   -0.01614   -0.00300    0.00345
O6    2   -0.313119    0.386639    0.340432    11.00000    0.03759    0.05105 =
         0.06893   -0.01398   -0.00853   -0.00011
O5    2   -0.274731    0.349400    0.291268    11.00000    0.03714    0.06205 =
         0.05166   -0.01411   -0.00324    0.00530
O4    2    0.283343    0.336862    0.289510    11.00000    0.03393    0.04826 =
         0.07482   -0.01282   -0.00233   -0.00508
O3    2    0.320281    0.372419    0.340549    11.00000    0.03127    0.06080 =
         0.07275   -0.01387   -0.00522    0.00201
C8    3    0.287066    0.358417    0.323963    11.00000    0.04195    0.03550 =
         0.07023   -0.00099    0.00988   -0.00054
O8    2   -0.238644    0.463701    0.455646    11.00000    0.03018    0.07534 =
         0.04010   -0.01423    0.00010    0.00125
C1    3    0.206557    0.434010    0.441718    11.00000    0.02819    0.06421 =
         0.05406   -0.01451   -0.00063   -0.00099
AFIX  66
C2    3    0.207143    0.402491    0.404516    11.00000    0.03870    0.05738 =
         0.06802   -0.02187   -0.01933    0.00362
C3    3    0.245778    0.391439    0.384346    11.00000    0.03730    0.05935 =
         0.06324   -0.01294   -0.01455   -0.00486
AFIX  43
H3    5    0.271982    0.400400    0.396097    11.00000   -1.20000
AFIX  65
C4    3    0.245250    0.366995    0.346612    11.00000    0.02952    0.05057 =
         0.06937   -0.01325   -0.00808    0.00267
C5    3    0.206085    0.353602    0.329047    11.00000    0.04148    0.06265 =
         0.08313   -0.02034   -0.02305    0.00631
AFIX  43
H5    5    0.205732    0.337247    0.303801    11.00000   -1.20000
AFIX  65
C6    3    0.167450    0.364654    0.349218    11.00000    0.03861    0.05477 =
         0.08882   -0.02553   -0.01845    0.00260
C7    3    0.167978    0.389098    0.386952    11.00000    0.02683    0.07766 =
         0.10533   -0.03042   -0.01192    0.00254
AFIX  43
H7    5    0.142128    0.396492    0.400447    11.00000   -1.20000
AFIX  66

SAME C9 C10a c11a C12 C13a C14a
simu 0.01 3.5 C9 > C14a
delu 0.01 0.02 C9 > C14a
C9    3    0.123408    0.352717    0.331209    11.00000    0.03023    0.08507 =
         0.06543   -0.02766   -0.00995   -0.00386
part 1 21.000
C10   3    0.115781    0.314366    0.309010    21.00000    0.02668    0.07997 =
         0.05718   -0.02196   -0.00267    0.00527
AFIX  43
H10   5    0.137864    0.294188    0.305817    21.00000   -1.20000
AFIX  65
C11   3    0.075149    0.306174    0.291586    21.00000    0.03080    0.08152 =
         0.05940   -0.01889   -0.00899    0.00216
AFIX  43
H11   5    0.070046    0.280515    0.276734    21.00000   -1.20000
AFIX  65
part 0
C12   3    0.042143    0.336333    0.296359    11.00000    0.03527    0.08667 =
         0.06196   -0.02091   -0.00751    0.00504
part 1 21.000
C13   3    0.049770    0.374683    0.318557    21.00000    0.04526    0.08883 =
         0.07103   -0.03027   -0.00775    0.00257
AFIX  43
H13   5    0.027686    0.394861    0.321750    21.00000   -1.20000
AFIX  65
C14   3    0.090401    0.382876    0.335982    21.00000    0.04152    0.08589 =
         0.07088   -0.03128   -0.00881    0.00469
AFIX  43
H14   5    0.095504    0.408535    0.350834    21.00000   -1.20000
AFIX   0
part 0
part 2 -21.000
C10A  3    0.117879    0.347434    0.289031   -21.00000    0.02776    0.08213 =
         0.05880   -0.02189   -0.00481    0.00624
AFIX  43
H10A  5    0.142211    0.348223    0.271357   -21.00000   -1.20000
AFIX   0
C11A  3    0.078036    0.340813    0.269732   -21.00000    0.02718    0.08409 =
         0.06065   -0.01386   -0.00820    0.00914
AFIX  43
H11A  5    0.075377    0.339406    0.239800   -21.00000   -1.20000
AFIX   0
C13A  3    0.048604    0.332812    0.341335   -21.00000    0.03772    0.08799 =
         0.06214   -0.02585   -0.00813    0.00126
AFIX  43
H13A  5    0.024962    0.327330    0.359112   -21.00000   -1.20000
AFIX   0
C14A  3    0.089725    0.337346    0.360082   -21.00000    0.03493    0.08394 =
         0.06325   -0.02658   -0.00779   -0.00302
AFIX  43
H14A  5    0.095014    0.330943    0.388996   -21.00000   -1.20000
AFIX  66
part 0
SAME C15 C16a > C20a
simu 0.01 3.5 C15 > C20a
delu 0.01 0.02 C15 > C20a
C15   3   -0.002006    0.307459    0.237818    11.00000    0.05331    0.11063 =
         0.04404   -0.01685   -0.01213    0.00395
part 1 31.000
C16   3    0.019628    0.268974    0.229299    31.00000    0.06200    0.10982 =
         0.04869   -0.01596   -0.00901    0.00641
AFIX  43
H16   5    0.037480    0.256803    0.250231    31.00000   -1.20000
AFIX  65
C17   3    0.014580    0.248682    0.189494    31.00000    0.06577    0.11186 =
         0.04968   -0.01824   -0.00617    0.00784
AFIX  43
H17   5    0.029055    0.222933    0.183795    31.00000   -1.20000
AFIX  65
C18   3   -0.012102    0.266874    0.158208    31.00000    0.06859    0.11653 =
         0.05202   -0.02118   -0.00864    0.00819
AFIX  43
H18   5   -0.015479    0.253296    0.131576    31.00000   -1.20000
AFIX  65
C19   3   -0.033736    0.305359    0.166727    31.00000    0.07222    0.11611 =
         0.05231   -0.01696   -0.01038    0.00841
AFIX  43
H19   5   -0.051588    0.317530    0.145794    31.00000   -1.20000
AFIX  65
C20   3   -0.028688    0.325652    0.206531    31.00000    0.07141    0.11516 =
         0.05128   -0.01496   -0.00968    0.01132
AFIX  43
H20   5   -0.043163    0.351401    0.212231    31.00000   -1.20000
AFIX   0
part 0
part 2 -31.000
C16A  3   -0.012589    0.264049    0.233633   -31.00000    0.06547    0.11146 =
         0.04813   -0.01264   -0.00950    0.00461
AFIX  43
H16A  5   -0.013764    0.246642    0.258141   -31.00000   -1.20000
AFIX   0
C17A  3   -0.021489    0.246150    0.193206   -31.00000    0.06771    0.11223 =
         0.05310   -0.01996   -0.01118    0.00691
AFIX  43
H17A  5   -0.037642    0.220987    0.189900   -31.00000   -1.20000
AFIX   0
C18A  3   -0.004381    0.268755    0.158039   -31.00000    0.07232    0.11674 =
         0.05299   -0.02180   -0.00793    0.00820
AFIX  43
H18A  5    0.004463    0.253868    0.133439   -31.00000   -1.20000
AFIX   0
C19A  3   -0.000546    0.313925    0.159842   -31.00000    0.07098    0.11622 =
         0.05179   -0.01555   -0.00681    0.00840
AFIX  43
H19A  5   -0.003159    0.331408    0.135500   -31.00000   -1.20000
AFIX   0
C20A  3    0.007361    0.330300    0.200323   -31.00000    0.07044    0.11160 =
         0.05301   -0.01721   -0.00297    0.00630
AFIX  43
H20A  5    0.019454    0.357741    0.202729   -31.00000   -1.20000
AFIX  66
part 0
SAME C21 C22a C23a C24 C25a C26a
simu 0.01 3.5 C21 > C26a
delu 0.01 0.02 C21 > C26a
C21   3   -0.038615    0.338929    0.297986    11.00000    0.03141    0.10155 =
         0.05772   -0.02643   -0.00784    0.01142
part 1 41.000
C22   3   -0.040525    0.376153    0.323134    41.00000    0.03016    0.09765 =
         0.06052   -0.02700   -0.00552    0.00495
AFIX  43
H22   5   -0.015602    0.392261    0.328077    41.00000   -1.20000
AFIX  65
C23   3   -0.079683    0.389302    0.340893    41.00000    0.03143    0.09483 =
         0.05992   -0.02559   -0.00398    0.00935
AFIX  43
H23   5   -0.080961    0.414207    0.357719    41.00000   -1.20000
AFIX  65
part 0
C24   3   -0.116932    0.365227    0.333505    11.00000    0.03435    0.08572 =
         0.05688   -0.02302   -0.00367    0.00752
part 1 41.000
C25   3   -0.115023    0.328003    0.308357    41.00000    0.03042    0.08945 =
         0.05727   -0.01919   -0.00555    0.01121
AFIX  43
H25   5   -0.139946    0.311895    0.303414    41.00000   -1.20000
AFIX  65
C26   3   -0.075865    0.314853    0.290597    41.00000    0.02770    0.09186 =
         0.05578   -0.01844   -0.00934    0.01306
AFIX  43
H26   5   -0.074588    0.289948    0.273772    41.00000   -1.20000
AFIX  66
part 0

C27   3   -0.159223    0.381108    0.353532    11.00000    0.02906    0.05941 =
         0.05631   -0.01184   -0.00646    0.00622
C28   3   -0.160816    0.406600    0.390537    11.00000    0.03261    0.06013 =
         0.04529   -0.01207   -0.00076   -0.00050
AFIX  43
H28   5   -0.135348    0.414521    0.404453    11.00000   -1.20000
AFIX  65
C29   3   -0.200473    0.420252    0.406742    11.00000    0.04195    0.05919 =
         0.04098   -0.00191   -0.00171    0.00306
C30   3   -0.238538    0.408413    0.385943    11.00000    0.03830    0.03787 =
         0.04874   -0.00504   -0.00038   -0.00074
AFIX  43
H30   5   -0.265071    0.417548    0.396785    11.00000   -1.20000
AFIX  65
C31   3   -0.236946    0.382921    0.348938    11.00000    0.03460    0.04389 =
         0.04976   -0.00438    0.00041   -0.00114
C32   3   -0.197289    0.369268    0.332733    11.00000    0.04008    0.04636 =
         0.05161   -0.00702   -0.00796    0.00396
AFIX  43
H32   5   -0.196224    0.352213    0.307974    11.00000   -1.20000
AFIX   0
C33   3   -0.278347    0.372260    0.324156    11.00000    0.02993    0.03503 =
         0.05457   -0.00403    0.00396    0.00048
C34   3   -0.201437    0.453047    0.443290    11.00000    0.04578    0.04465 =
         0.02960    0.00724   -0.00516    0.00418
part 2 -41.000
C22A  3   -0.040683    0.348174    0.342005   -41.00000    0.02505    0.10309 =
         0.05502   -0.02695   -0.00733    0.01136
AFIX  43
H22A  5   -0.016863    0.344347    0.359978   -41.00000   -1.20000
AFIX   0
C23A  3   -0.079589    0.363260    0.357823   -41.00000    0.02587    0.09980 =
         0.05488   -0.02557   -0.00227    0.00885
AFIX  43
H23A  5   -0.080690    0.372597    0.386399   -41.00000   -1.20000
AFIX   0
C25A  3   -0.111393    0.365955    0.287999   -41.00000    0.03074    0.09070 =
         0.05637   -0.01608   -0.01046    0.01504
AFIX  43
H25A  5   -0.133772    0.375015    0.270051   -41.00000   -1.20000
AFIX   0
C26A  3   -0.073092    0.353282    0.271040   -41.00000    0.03389    0.09529 =
         0.05508   -0.01490   -0.00814    0.01453
AFIX  43
H26A  5   -0.069211    0.353960    0.241215   -41.00000   -1.20000
AFIX   0
part 0
RESI 0
REM #####
RESI 4 LIG
O1    2    0.426328    0.358321    0.275761    11.00000    0.03211    0.06798 =
         0.06659   -0.00186   -0.00399    0.00013
N1    4    0.510644    0.207358    0.000000    10.50000    0.10217    0.06459 =
         0.05375    0.00000    0.00000    0.01043
O2    2    0.391984    0.316936    0.226948    11.00000    0.02894    0.06507 =
         0.06336    0.00087   -0.00171    0.00187
O3    2    0.581585    0.362044    0.278555    11.00000    0.03855    0.05842 =
         0.07680   -0.02157   -0.02209   -0.00256
O4    2    0.620587    0.328612    0.225150    11.00000    0.02803    0.07816 =
         0.08096   -0.02278   -0.01303   -0.00248
C1    3    0.424353    0.335064    0.241252    11.00000    0.03676    0.07442 =
         0.04450   -0.00462   -0.01342    0.00811
AFIX  66
C2    3    0.466593    0.328224    0.218735    11.00000    0.04635    0.07081 =
         0.07202    0.00910   -0.01638    0.00233
C3    3    0.505075    0.340467    0.238507    11.00000    0.03254    0.05971 =
         0.07404   -0.00201    0.00170   -0.00191
AFIX  43
H3    5    0.504498    0.354952    0.264867    11.00000   -1.20000
AFIX  65
C4    3    0.544420    0.331062    0.218879    11.00000    0.01903    0.08793 =
         0.08776   -0.01872   -0.00370   -0.01252
C5    3    0.545283    0.309414    0.179480    11.00000    0.03590    0.05800 =
         0.08176   -0.00339   -0.00437    0.00064
AFIX  43
H5    5    0.571607    0.303121    0.166348    11.00000   -1.20000
AFIX  65
C6    3    0.506801    0.297170    0.159708    11.00000    0.02886    0.06182 =
         0.04912    0.00286   -0.00145    0.00412
C7    3    0.467456    0.306575    0.179335    11.00000    0.03619    0.07574 =
         0.04381    0.00615   -0.00534    0.00913
AFIX  43
H7    5    0.441709    0.298383    0.166106    11.00000   -1.20000
AFIX   0
C8    3    0.586666    0.341829    0.243337    11.00000    0.02455    0.05653 =
         0.10064   -0.00612   -0.01793   -0.01161
SAME C9 C10a c11a C12 C13a C14a
simu 0.01 3.5 C9 > C14a
delu 0.01 0.02 C9 > C14a
AFIX  66
C9    3    0.508133    0.274079    0.118117    11.00000    0.04458    0.08537 =
         0.06061    0.00284   -0.00708    0.00083
part 1 51.000
C10   3    0.539357    0.242361    0.111736    51.00000    0.05178    0.08285 =
         0.06325   -0.00217   -0.00484    0.00222
AFIX  43
H10   5    0.559145    0.236135    0.133523    51.00000   -1.20000
AFIX  65
C11   3    0.541007    0.219950    0.072791    51.00000    0.06275    0.07717 =
         0.06451    0.00037   -0.00381   -0.00159
AFIX  43
H11   5    0.561898    0.198729    0.068522    51.00000   -1.20000
AFIX  65
part 0
C12   3    0.511432    0.229256    0.040227    11.00000    0.06660    0.07121 =
         0.06598    0.00075   -0.00632    0.00523
part 1 51.00
C13   3    0.480207    0.260973    0.046608    51.00000    0.06194    0.07664 =
         0.06118    0.00355   -0.01074    0.00498
AFIX  43
H13   5    0.460419    0.267199    0.024820    51.00000   -1.20000
AFIX  65
C14   3    0.478557    0.283385    0.085552    51.00000    0.05534    0.08270 =
         0.06291   -0.00083   -0.00956    0.00423
AFIX  43
H14   5    0.457665    0.304606    0.089822    51.00000   -1.20000
AFIX  66
part 0
part -1 10.5
C15   3    0.528375    0.162603   -0.008909    10.50000    0.10253    0.09339 =
         0.05862   -0.00182    0.00870    0.05097
C16   3    0.508327    0.135479   -0.038643    10.50000    0.10126    0.09383 =
         0.05913   -0.00489    0.01443    0.04261
AFIX  43
H16   5    0.485127    0.145550   -0.054933    10.50000   -1.20000
AFIX  65
C17   3    0.522953    0.093304   -0.044028    10.50000    0.11002    0.09845 =
         0.06558   -0.00871    0.02017    0.04198
AFIX  43
H17   5    0.509539    0.075156   -0.063922    10.50000   -1.20000
AFIX  65
C18   3    0.557627    0.078251   -0.019680    10.50000    0.11867    0.10364 =
         0.07112    0.00370    0.01169    0.04495
AFIX  43
H18   5    0.567412    0.050033   -0.023283    10.50000   -1.20000
AFIX  65
C19   3    0.577675    0.105375    0.010054    10.50000    0.12040    0.10577 =
         0.06017    0.00857    0.01082    0.04850
AFIX  43
H19   5    0.600875    0.095304    0.026344    10.50000   -1.20000
AFIX  65
C20   3    0.563050    0.147550    0.015439    10.50000    0.11394    0.10605 =
         0.05756    0.00248    0.00829    0.05502
AFIX  43
H20   5    0.576464    0.165698    0.035333    10.50000   -1.20000
AFIX   0
part 0
part 2  -51.000
C10A  3    0.534757    0.288192    0.083400   -51.00000    0.05521    0.08385 =
         0.05898    0.00041   -0.00776    0.00258
AFIX  43
H10A  5    0.552185    0.312437    0.087070   -51.00000   -1.20000
AFIX   0
C11A  3    0.535226    0.266534    0.044258   -51.00000    0.06507    0.07948 =
         0.06241    0.00156   -0.00720    0.00004
AFIX  43
H11A  5    0.551344    0.277018    0.021121   -51.00000   -1.20000
AFIX   0
C13A  3    0.483217    0.214863    0.071049   -51.00000    0.06618    0.07609 =
         0.06408    0.00346   -0.00783    0.00216
AFIX  43
H13A  5    0.465216    0.191193    0.066501   -51.00000   -1.20000
AFIX   0
C14A  3    0.483183    0.237560    0.109046   -51.00000    0.05362    0.07994 =
         0.05908    0.00290   -0.00656    0.00128
AFIX  43
H14A  5    0.464869    0.227763    0.130809   -51.00000   -1.20000
RESI 0
REM #####
AFIX   0
HKLF 4 1  0.000  0.0000  1.0000 -1.0000  0.0000 -1.0000  0.0000 -1.0000  0.000

REM  Cm        C m          R = 0.34  New: I4/m
REM R1 =  0.1355 for    9862 Fo > 4sig(Fo)  and  0.1658 for all   16780 data
REM    732 parameters refined using    781 restraints

END

WGHT      0.2000      0.0000

REM Highest difference peak  1.978,  deepest hole -1.318,  1-sigma level  0.194
Q1    1   0.1685  0.5117  0.5000  10.50000  0.05    1.98
Q2    1   0.3718  0.3857  0.3122  11.00000  0.05    1.85
Q3    1   0.3282  0.3479  0.2528  11.00000  0.05    1.74
Q4    1   0.2518  0.5201  0.5000  10.50000  0.05    1.66
Q5    1   0.3137  0.3235  0.2537  11.00000  0.05    1.19
Q6    1   0.5099  0.2483  0.0000  10.50000  0.05    1.15
Q7    1   0.0356  0.3829  0.3113  11.00000  0.05    1.14
Q8    1  -0.0152  0.3308  0.2512  11.00000  0.05    1.08
Q9    1  -0.0274  0.3627  0.3123  11.00000  0.05    1.07
Q10   1   0.2778  0.3130  0.1811  11.00000  0.05    1.03
Q11   1   0.1126  0.3794  0.3168  11.00000  0.05    0.95
Q12   1   0.2913  0.2805  0.2094  11.00000  0.05    0.92
Q13   1   0.3106  0.2717  0.1743  11.00000  0.05    0.88
Q14   1   0.1997  0.3178  0.5000  10.50000  0.05    0.86
Q15   1   0.3818  0.4407  0.3596  11.00000  0.05    0.86
Q16   1  -0.0729  0.3200  0.2548  11.00000  0.05    0.85
Q17   1   0.1890  0.4596  0.4459  11.00000  0.05    0.84
Q18   1   0.5898  0.1667  0.0000  10.50000  0.05    0.81
Q19   1   0.5925  0.1421  0.0312  11.00000  0.05    0.79
Q20   1   0.0685  0.3328  0.2566  11.00000  0.05    0.78
;
_shelx_res_checksum              12543
loop_
_space_group_symop_operation_xyz
'x, y, z'
'-y, x, z'
'-x, -y, z'
'y, -x, z'
'x+1/2, y+1/2, z+1/2'
'-y+1/2, x+1/2, z+1/2'
'-x+1/2, -y+1/2, z+1/2'
'y+1/2, -x+1/2, z+1/2'
'-x, -y, -z'
'y, -x, -z'
'x, y, -z'
'-y, x, -z'
'-x+1/2, -y+1/2, -z+1/2'
'y+1/2, -x+1/2, -z+1/2'
'x+1/2, y+1/2, -z+1/2'
'-y+1/2, x+1/2, -z+1/2'
loop_
_atom_site_label
_atom_site_type_symbol
_atom_site_fract_x
_atom_site_fract_y
_atom_site_fract_z
_atom_site_U_iso_or_equiv
_atom_site_adp_type
_atom_site_occupancy
_atom_site_site_symmetry_order
_atom_site_calc_flag
_atom_site_refinement_flags_posn
_atom_site_refinement_flags_adp
_atom_site_refinement_flags_occupancy
_atom_site_disorder_assembly
_atom_site_disorder_group
Cu1 Cu 0.24768(4) 0.49209(5) 0.5000 0.0368(4) Uani 1 2 d S T P . .
O1 O 0.0929(3) 0.4823(4) 0.5000 0.067(3) Uani 1 2 d S T P . .
Cu2 Cu 0.16242(4) 0.48939(5) 0.5000 0.0372(4) Uani 1 2 d S T P . .
O2 O 0.3168(3) 0.4955(5) 0.5000 0.121(6) Uani 1 2 d S T P . .
Cu3 Cu 0.33487(3) 0.32325(3) 0.25391(4) 0.0401(3) Uani 1 1 d . . . . .
O3 O 0.4090(5) 0.4067(5) 0.3620(3) 0.173(8) Uani 1 1 d . . . . .
Cu4 Cu 0.37691(3) 0.36847(3) 0.31336(4) 0.0396(3) Uani 1 1 d . . . . .
O4 O 0.3001(3) 0.2886(3) 0.2040(3) 0.091(3) Uani 1 1 d . . . . .
O1_3 O 0.2432(2) 0.4462(2) 0.4556(2) 0.0499(17) Uani 1 1 d . . . . .
N1_3 N 0.0010(3) 0.3271(3) 0.2777(3) 0.065(3) Uani 1 1 d . . . . .
O2_3 O 0.1712(2) 0.4456(3) 0.4559(3) 0.063(2) Uani 1 1 d . . . . .
O7_3 O -0.16500(19) 0.4655(2) 0.4565(2) 0.0465(16) Uani 1 1 d . . . . .
O6_3 O -0.3131(2) 0.3866(2) 0.3404(2) 0.0525(17) Uani 1 1 d . . . . .
O5_3 O -0.2747(2) 0.3494(2) 0.2913(2) 0.0503(17) Uani 1 1 d . . . . .
O4_3 O 0.2833(2) 0.3369(2) 0.2895(3) 0.0523(17) Uani 1 1 d . . . . .
O3_3 O 0.3203(2) 0.3724(2) 0.3405(3) 0.0549(18) Uani 1 1 d . . . . .
C8_3 C 0.2871(3) 0.3584(3) 0.3240(4) 0.049(2) Uani 1 1 d . . . . .
O8_3 O -0.2386(2) 0.4637(2) 0.4556(2) 0.0485(16) Uani 1 1 d . . . . .
C1_3 C 0.2066(3) 0.4340(3) 0.4417(3) 0.049(2) Uani 1 1 d . . . . .
C2_3 C 0.20714(19) 0.4025(2) 0.4045(2) 0.055(3) Uani 1 1 d G . . . .
C3_3 C 0.24578(15) 0.3914(2) 0.3843(2) 0.053(3) Uani 1 1 d G . . . .
H3_3 H 0.2720 0.4004 0.3961 0.064 Uiso 1 1 calc R U . . .
C4_3 C 0.24525(16) 0.3670(2) 0.3466(2) 0.050(2) Uani 1 1 d G . . . .
C5_3 C 0.2061(2) 0.3536(2) 0.3290(2) 0.062(3) Uani 1 1 d G . . . .
H5_3 H 0.2057 0.3372 0.3038 0.075 Uiso 1 1 calc R U . . .
C6_3 C 0.16745(15) 0.3647(2) 0.3492(3) 0.061(3) Uani 1 1 d G . . . .
C7_3 C 0.16798(15) 0.3891(3) 0.3870(2) 0.070(4) Uani 1 1 d G . . . .
H7_3 H 0.1421 0.3965 0.4004 0.084 Uiso 1 1 calc R U . . .
C9_3 C 0.1234(2) 0.3527(3) 0.3312(3) 0.060(2) Uani 1 1 d DG U . . .
C10_3 C 0.1158(2) 0.3144(3) 0.3090(4) 0.055(3) Uani 0.545(9) 1 d DG U P A 1
H10_3 H 0.1379 0.2942 0.3058 0.066 Uiso 0.545(9) 1 calc R U P A 1
C11_3 C 0.0751(3) 0.3062(3) 0.2916(4) 0.057(3) Uani 0.545(9) 1 d DG U P A 1
H11_3 H 0.0700 0.2805 0.2767 0.069 Uiso 0.545(9) 1 calc R U P A 1
C12_3 C 0.04214(19) 0.3363(3) 0.2964(3) 0.061(2) Uani 1 1 d DG U . A .
C13_3 C 0.0498(3) 0.3747(3) 0.3186(4) 0.068(3) Uani 0.545(9) 1 d DG U P A 1
H13_3 H 0.0277 0.3949 0.3218 0.082 Uiso 0.545(9) 1 calc R U P A 1
C14_3 C 0.0904(3) 0.3829(3) 0.3360(4) 0.066(3) Uani 0.545(9) 1 d DG U P A 1
H14_3 H 0.0955 0.4085 0.3508 0.079 Uiso 0.545(9) 1 calc R U P A 1
C10A_3 C 0.1179(5) 0.3474(9) 0.2890(5) 0.056(3) Uani 0.455(9) 1 d D U P A 2
H10A_3 H 0.1422 0.3482 0.2714 0.067 Uiso 0.455(9) 1 calc R U P A 2
C11A_3 C 0.0780(5) 0.3408(9) 0.2697(6) 0.057(3) Uani 0.455(9) 1 d D U P A 2
H11A_3 H 0.0754 0.3394 0.2398 0.069 Uiso 0.455(9) 1 calc R U P A 2
C13A_3 C 0.0486(6) 0.3328(9) 0.3413(5) 0.063(3) Uani 0.455(9) 1 d D U P A 2
H13A_3 H 0.0250 0.3273 0.3591 0.075 Uiso 0.455(9) 1 calc R U P A 2
C14A_3 C 0.0897(5) 0.3373(8) 0.3601(6) 0.061(3) Uani 0.455(9) 1 d D U P A 2
H14A_3 H 0.0950 0.3309 0.3890 0.073 Uiso 0.455(9) 1 calc R U P A 2
C15_3 C -0.0020(4) 0.3075(4) 0.2378(3) 0.069(2) Uani 1 1 d DG U . . .
C16_3 C 0.0196(5) 0.2690(5) 0.2293(4) 0.074(3) Uani 0.429(11) 1 d DG U P B 1
H16_3 H 0.0375 0.2568 0.2502 0.088 Uiso 0.429(11) 1 calc R U P B 1
C17_3 C 0.0146(7) 0.2487(5) 0.1895(6) 0.076(3) Uani 0.429(11) 1 d DG U P B 1
H17_3 H 0.0291 0.2229 0.1838 0.091 Uiso 0.429(11) 1 calc R U P B 1
C18_3 C -0.0121(7) 0.2669(7) 0.1582(4) 0.079(3) Uani 0.429(11) 1 d DG U P B 1
H18_3 H -0.0155 0.2533 0.1316 0.095 Uiso 0.429(11) 1 calc R U P B 1
C19_3 C -0.0337(7) 0.3054(7) 0.1667(4) 0.080(3) Uani 0.429(11) 1 d DG U P B 1
H19_3 H -0.0516 0.3175 0.1458 0.096 Uiso 0.429(11) 1 calc R U P B 1
C20_3 C -0.0287(5) 0.3257(5) 0.2065(4) 0.079(3) Uani 0.429(11) 1 d DG U P B 1
H20_3 H -0.0432 0.3514 0.2122 0.095 Uiso 0.429(11) 1 calc R U P B 1
C16A_3 C -0.0126(7) 0.2640(6) 0.2336(5) 0.075(3) Uani 0.571(11) 1 d D U P B 2
H16A_3 H -0.0138 0.2466 0.2581 0.090 Uiso 0.571(11) 1 calc R U P B 2
C17A_3 C -0.0215(7) 0.2461(7) 0.1932(5) 0.078(3) Uani 0.571(11) 1 d D U P B 2
H17A_3 H -0.0376 0.2210 0.1899 0.093 Uiso 0.571(11) 1 calc R U P B 2
C18A_3 C -0.0044(9) 0.2688(7) 0.1580(6) 0.081(3) Uani 0.571(11) 1 d D U P B 2
H18A_3 H 0.0045 0.2539 0.1334 0.097 Uiso 0.571(11) 1 calc R U P B 2
C19A_3 C -0.0005(8) 0.3139(7) 0.1598(5) 0.080(3) Uani 0.571(11) 1 d D U P B 2
H19A_3 H -0.0032 0.3314 0.1355 0.096 Uiso 0.571(11) 1 calc R U P B 2
C20A_3 C 0.0074(7) 0.3303(6) 0.2003(5) 0.078(3) Uani 0.571(11) 1 d D U P B 2
H20A_3 H 0.0195 0.3577 0.2027 0.094 Uiso 0.571(11) 1 calc R U P B 2
C21_3 C -0.0386(2) 0.3389(4) 0.2980(3) 0.064(2) Uani 1 1 d DG U . . .
C22_3 C -0.0405(2) 0.3762(4) 0.3231(5) 0.063(3) Uani 0.424(10) 1 d DG U P C 1
H22_3 H -0.0156 0.3923 0.3281 0.075 Uiso 0.424(10) 1 calc R U P C 1
C23_3 C -0.0797(3) 0.3893(4) 0.3409(5) 0.062(3) Uani 0.424(10) 1 d DG U P C 1
H23_3 H -0.0810 0.4142 0.3577 0.074 Uiso 0.424(10) 1 calc R U P C 1
C24_3 C -0.1169(2) 0.3652(4) 0.3335(3) 0.059(2) Uani 1 1 d DG U . C .
C25_3 C -0.1150(2) 0.3280(4) 0.3084(4) 0.059(3) Uani 0.424(10) 1 d DG U P C 1
H25_3 H -0.1399 0.3119 0.3034 0.071 Uiso 0.424(10) 1 calc R U P C 1
C26_3 C -0.0759(3) 0.3149(4) 0.2906(4) 0.058(3) Uani 0.424(10) 1 d DG U P C 1
H26_3 H -0.0746 0.2899 0.2738 0.070 Uiso 0.424(10) 1 calc R U P C 1
C27_3 C -0.15922(14) 0.3811(2) 0.3535(2) 0.0483(18) Uani 1 1 d G U . . .
C28_3 C -0.16082(14) 0.4066(2) 0.39054(19) 0.0460(19) Uani 1 1 d G U . C .
H28_3 H -0.1353 0.4145 0.4045 0.055 Uiso 1 1 calc R U . . .
C29_3 C -0.20047(18) 0.4203(2) 0.40674(17) 0.0474(18) Uani 1 1 d G U . C .
C30_3 C -0.23854(14) 0.4084(2) 0.38594(19) 0.0416(18) Uani 1 1 d G U . C .
H30_3 H -0.2651 0.4175 0.3968 0.050 Uiso 1 1 calc R U . . .
C31_3 C -0.23695(14) 0.3829(2) 0.34894(19) 0.0427(17) Uani 1 1 d G U . C .
C32_3 C -0.19729(17) 0.3693(2) 0.33273(17) 0.0460(19) Uani 1 1 d G U . C .
H32_3 H -0.1962 0.3522 0.3080 0.055 Uiso 1 1 calc R U . . .
C33_3 C -0.2783(3) 0.3723(3) 0.3242(3) 0.0398(19) Uani 1 1 d . U . . .
C34_3 C -0.2014(3) 0.4530(3) 0.4433(3) 0.0400(18) Uani 1 1 d . U . . .
C22A_3 C -0.0407(4) 0.3482(8) 0.3420(5) 0.061(3) Uani 0.576(10) 1 d D U P C 2
H22A_3 H -0.0169 0.3443 0.3600 0.073 Uiso 0.576(10) 1 calc R U P C 2
C23A_3 C -0.0796(4) 0.3633(7) 0.3578(5) 0.060(3) Uani 0.576(10) 1 d D U P C 2
H23A_3 H -0.0807 0.3726 0.3864 0.072 Uiso 0.576(10) 1 calc R U P C 2
C25A_3 C -0.1114(5) 0.3660(7) 0.2880(4) 0.059(3) Uani 0.576(10) 1 d D U P C 2
H25A_3 H -0.1338 0.3750 0.2701 0.071 Uiso 0.576(10) 1 calc R U P C 2
C26A_3 C -0.0731(4) 0.3533(7) 0.2710(5) 0.061(3) Uani 0.576(10) 1 d D U P C 2
H26A_3 H -0.0692 0.3540 0.2412 0.074 Uiso 0.576(10) 1 calc R U P C 2
O1_4 O 0.4263(2) 0.3583(3) 0.2758(3) 0.0556(18) Uani 1 1 d . . . . .
N1_4 N 0.5106(6) 0.2074(5) 0.0000 0.073(4) Uani 1 2 d S T P . .
O2_4 O 0.3920(2) 0.3169(2) 0.2269(2) 0.0525(17) Uani 1 1 d . . . . .
O3_4 O 0.5816(2) 0.3620(2) 0.2786(3) 0.058(2) Uani 1 1 d . . . . .
O4_4 O 0.6206(2) 0.3286(3) 0.2251(3) 0.062(2) Uani 1 1 d . . . . .
C1_4 C 0.4244(3) 0.3351(4) 0.2413(3) 0.052(3) Uani 1 1 d . . . . .
C2_4 C 0.46659(15) 0.3282(3) 0.2187(2) 0.063(3) Uani 1 1 d G . . . .
C3_4 C 0.5051(2) 0.3405(2) 0.23851(19) 0.055(2) Uani 1 1 d G . . . .
H3_4 H 0.5045 0.3550 0.2649 0.067 Uiso 1 1 calc R U . . .
C4_4 C 0.54442(16) 0.3311(3) 0.2189(2) 0.065(3) Uani 1 1 d G . . . .
C5_4 C 0.54528(15) 0.3094(3) 0.1795(2) 0.059(3) Uani 1 1 d G . . . .
H5_4 H 0.5716 0.3031 0.1663 0.070 Uiso 1 1 calc R U . . .
C6_4 C 0.50680(19) 0.2972(2) 0.15971(17) 0.047(2) Uani 1 1 d G . . . .
C7_4 C 0.46746(15) 0.3066(2) 0.1793(2) 0.052(3) Uani 1 1 d G . . . .
H7_4 H 0.4417 0.2984 0.1661 0.062 Uiso 1 1 calc R U . . .
C8_4 C 0.5867(3) 0.3418(4) 0.2433(4) 0.061(3) Uani 1 1 d . . . . .
C9_4 C 0.5081(3) 0.2741(3) 0.1181(2) 0.064(2) Uani 1 1 d DG U . . .
C10_4 C 0.5394(3) 0.2424(4) 0.1117(3) 0.066(3) Uani 0.564(10) 1 d DG U P D 1
H10_4 H 0.5591 0.2361 0.1335 0.079 Uiso 0.564(10) 1 calc R U P D 1
C11_4 C 0.5410(3) 0.2200(3) 0.0728(3) 0.068(3) Uani 0.564(10) 1 d DG U P D 1
H11_4 H 0.5619 0.1987 0.0685 0.082 Uiso 0.564(10) 1 calc R U P D 1
C12_4 C 0.5114(3) 0.2293(3) 0.0402(2) 0.068(2) Uani 1 1 d DG U . D .
C13_4 C 0.4802(3) 0.2610(4) 0.0466(3) 0.067(3) Uani 0.564(10) 1 d DG U P D 1
H13_4 H 0.4604 0.2672 0.0248 0.080 Uiso 0.564(10) 1 calc R U P D 1
C14_4 C 0.4786(3) 0.2834(4) 0.0856(3) 0.067(3) Uani 0.564(10) 1 d DG U P D 1
H14_4 H 0.4577 0.3046 0.0898 0.080 Uiso 0.564(10) 1 calc R U P D 1
C15_4 C 0.5284(6) 0.1626(4) -0.0089(5) 0.085(5) Uani 0.5 1 d G U P E -1
C16_4 C 0.5083(5) 0.1355(6) -0.0386(5) 0.085(5) Uani 0.5 1 d G U P E -1
H16_4 H 0.4851 0.1455 -0.0549 0.102 Uiso 0.5 1 calc R U P E -1
C17_4 C 0.5230(6) 0.0933(5) -0.0440(5) 0.091(5) Uani 0.5 1 d G U P E -1
H17_4 H 0.5095 0.0752 -0.0639 0.110 Uiso 0.5 1 calc R U P E -1
C18_4 C 0.5576(7) 0.0783(5) -0.0197(6) 0.098(5) Uani 0.5 1 d G U P E -1
H18_4 H 0.5674 0.0500 -0.0233 0.117 Uiso 0.5 1 calc R U P E -1
C19_4 C 0.5777(6) 0.1054(7) 0.0101(5) 0.095(5) Uani 0.5 1 d G U P E -1
H19_4 H 0.6009 0.0953 0.0263 0.115 Uiso 0.5 1 calc R U P E -1
C20_4 C 0.5631(6) 0.1476(6) 0.0154(5) 0.093(5) Uani 0.5 1 d G U P E -1
H20_4 H 0.5765 0.1657 0.0353 0.111 Uiso 0.5 1 calc R U P E -1
C10A_4 C 0.5348(7) 0.2882(8) 0.0834(6) 0.066(3) Uani 0.436(10) 1 d D U P D 2
H10A_4 H 0.5522 0.3124 0.0871 0.079 Uiso 0.436(10) 1 calc R U P D 2
C11A_4 C 0.5352(8) 0.2665(7) 0.0443(7) 0.069(3) Uani 0.436(10) 1 d D U P D 2
H11A_4 H 0.5513 0.2770 0.0211 0.083 Uiso 0.436(10) 1 calc R U P D 2
C13A_4 C 0.4832(7) 0.2149(7) 0.0710(6) 0.069(3) Uani 0.436(10) 1 d D U P D 2
H13A_4 H 0.4652 0.1912 0.0665 0.083 Uiso 0.436(10) 1 calc R U P D 2
C14A_4 C 0.4832(7) 0.2376(7) 0.1090(7) 0.064(3) Uani 0.436(10) 1 d D U P D 2
H14A_4 H 0.4649 0.2278 0.1308 0.077 Uiso 0.436(10) 1 calc R U P D 2
loop_
_atom_site_aniso_label
_atom_site_aniso_U_11
_atom_site_aniso_U_22
_atom_site_aniso_U_33
_atom_site_aniso_U_23
_atom_site_aniso_U_13
_atom_site_aniso_U_12
Cu1 0.0256(7) 0.0481(9) 0.0367(7) 0.000 0.000 0.0002(6)
O1 0.032(5) 0.068(7) 0.101(9) 0.000 0.000 0.008(5)
Cu2 0.0244(7) 0.0467(9) 0.0406(7) 0.000 0.000 -0.0005(6)
O2 0.022(5) 0.080(9) 0.26(2) 0.000 0.000 -0.007(6)
Cu3 0.0328(6) 0.0322(5) 0.0552(7) 0.0011(5) -0.0106(5) -0.0019(4)
O3 0.218(15) 0.236(16) 0.064(6) -0.008(9) -0.010(8) -0.194(13)
Cu4 0.0305(5) 0.0290(5) 0.0592(7) -0.0047(5) -0.0107(5) 0.0015(4)
O4 0.086(6) 0.080(6) 0.107(7) 0.019(5) -0.045(6) -0.050(5)
O1_3 0.038(3) 0.057(4) 0.055(4) -0.017(3) -0.008(3) -0.005(3)
N1_3 0.037(4) 0.089(7) 0.068(6) -0.036(5) 0.005(4) 0.008(5)
O2_3 0.046(4) 0.067(5) 0.074(5) -0.022(4) -0.002(4) 0.001(4)
O7_3 0.029(3) 0.060(4) 0.050(4) -0.016(3) -0.003(3) 0.003(3)
O6_3 0.038(4) 0.051(4) 0.069(5) -0.014(3) -0.009(3) 0.000(3)
O5_3 0.037(3) 0.062(4) 0.052(4) -0.014(3) -0.003(3) 0.005(3)
O4_3 0.034(3) 0.048(4) 0.075(5) -0.013(4) -0.002(3) -0.005(3)
O3_3 0.031(3) 0.061(4) 0.073(5) -0.014(4) -0.005(3) 0.002(3)
C8_3 0.042(5) 0.035(5) 0.070(7) -0.001(5) 0.010(5) -0.001(4)
O8_3 0.030(3) 0.075(5) 0.040(3) -0.014(3) 0.000(3) 0.001(3)
C1_3 0.028(4) 0.064(6) 0.054(6) -0.015(5) -0.001(4) -0.001(4)
C2_3 0.039(5) 0.057(6) 0.068(7) -0.022(5) -0.019(5) 0.004(5)
C3_3 0.037(5) 0.059(6) 0.063(7) -0.013(5) -0.015(5) -0.005(4)
C4_3 0.030(4) 0.051(6) 0.069(7) -0.013(5) -0.008(4) 0.003(4)
C5_3 0.041(6) 0.063(7) 0.083(8) -0.020(6) -0.023(6) 0.006(5)
C6_3 0.039(5) 0.055(6) 0.089(8) -0.026(6) -0.018(5) 0.003(5)
C7_3 0.027(5) 0.078(8) 0.105(10) -0.030(7) -0.012(5) 0.003(5)
C9_3 0.030(4) 0.085(5) 0.065(5) -0.028(4) -0.010(4) -0.004(4)
C10_3 0.027(4) 0.080(6) 0.057(5) -0.022(5) -0.003(4) 0.005(5)
C11_3 0.031(4) 0.082(6) 0.059(5) -0.019(5) -0.009(4) 0.002(4)
C12_3 0.035(4) 0.087(5) 0.062(5) -0.021(4) -0.008(4) 0.005(4)
C13_3 0.045(5) 0.089(7) 0.071(6) -0.030(6) -0.008(5) 0.003(6)
C14_3 0.042(5) 0.086(7) 0.071(6) -0.031(6) -0.009(5) 0.005(5)
C10A_3 0.028(5) 0.082(6) 0.059(6) -0.022(5) -0.005(5) 0.006(5)
C11A_3 0.027(5) 0.084(6) 0.061(6) -0.014(6) -0.008(5) 0.009(5)
C13A_3 0.038(5) 0.088(6) 0.062(6) -0.026(6) -0.008(5) 0.001(5)
C14A_3 0.035(5) 0.084(6) 0.063(6) -0.027(5) -0.008(5) -0.003(5)
C15_3 0.053(5) 0.111(6) 0.044(4) -0.017(4) -0.012(4) 0.004(5)
C16_3 0.062(6) 0.110(7) 0.049(5) -0.016(6) -0.009(6) 0.006(6)
C17_3 0.066(6) 0.112(7) 0.050(5) -0.018(5) -0.006(5) 0.008(6)
C18_3 0.069(6) 0.117(7) 0.052(5) -0.021(5) -0.009(5) 0.008(6)
C19_3 0.072(6) 0.116(7) 0.052(5) -0.017(6) -0.010(5) 0.008(6)
C20_3 0.071(6) 0.115(7) 0.051(5) -0.015(6) -0.010(6) 0.011(6)
C16A_3 0.065(6) 0.111(7) 0.048(5) -0.013(6) -0.010(6) 0.005(6)
C17A_3 0.068(6) 0.112(7) 0.053(5) -0.020(5) -0.011(5) 0.007(6)
C18A_3 0.072(6) 0.117(7) 0.053(5) -0.022(5) -0.008(5) 0.008(6)
C19A_3 0.071(6) 0.116(7) 0.052(5) -0.016(5) -0.007(5) 0.008(6)
C20A_3 0.070(6) 0.112(7) 0.053(5) -0.017(5) -0.003(6) 0.006(6)
C21_3 0.031(4) 0.102(6) 0.058(4) -0.026(4) -0.008(4) 0.011(4)
C22_3 0.030(5) 0.098(7) 0.061(6) -0.027(6) -0.006(5) 0.005(6)
C23_3 0.031(5) 0.095(7) 0.060(6) -0.026(6) -0.004(5) 0.009(5)
C24_3 0.034(3) 0.086(5) 0.057(4) -0.023(4) -0.004(3) 0.008(4)
C25_3 0.030(5) 0.089(6) 0.057(6) -0.019(5) -0.006(5) 0.011(5)
C26_3 0.028(5) 0.092(7) 0.056(6) -0.018(6) -0.009(5) 0.013(5)
C27_3 0.029(3) 0.059(4) 0.056(4) -0.012(4) -0.006(3) 0.006(3)
C28_3 0.033(4) 0.060(5) 0.045(4) -0.012(4) -0.001(3) -0.001(4)
C29_3 0.042(4) 0.059(4) 0.041(4) -0.002(3) -0.002(3) 0.003(4)
C30_3 0.038(4) 0.038(4) 0.049(4) -0.005(3) 0.000(3) -0.001(3)
C31_3 0.035(3) 0.044(4) 0.050(4) -0.004(3) 0.000(3) -0.001(3)
C32_3 0.040(4) 0.046(4) 0.052(4) -0.007(4) -0.008(3) 0.004(4)
C33_3 0.030(4) 0.035(4) 0.055(5) -0.004(4) 0.004(3) 0.000(3)
C34_3 0.046(5) 0.045(4) 0.030(4) 0.007(3) -0.005(4) 0.004(4)
C22A_3 0.025(4) 0.103(7) 0.055(5) -0.027(5) -0.007(5) 0.011(5)
C23A_3 0.026(4) 0.100(7) 0.055(6) -0.026(5) -0.002(4) 0.009(5)
C25A_3 0.031(5) 0.091(6) 0.056(5) -0.016(5) -0.010(4) 0.015(5)
C26A_3 0.034(5) 0.095(7) 0.055(5) -0.015(5) -0.008(4) 0.015(5)
O1_4 0.032(3) 0.068(5) 0.067(5) -0.002(4) -0.004(3) 0.000(3)
N1_4 0.102(12) 0.065(9) 0.054(8) 0.000 0.000 0.010(8)
O2_4 0.029(3) 0.065(5) 0.063(4) 0.001(4) -0.002(3) 0.002(3)
O3_4 0.039(4) 0.058(4) 0.077(5) -0.022(4) -0.022(4) -0.003(3)
O4_4 0.028(3) 0.078(5) 0.081(5) -0.023(4) -0.013(3) -0.002(3)
C1_4 0.037(5) 0.074(7) 0.044(5) -0.005(5) -0.013(4) 0.008(5)
C2_4 0.046(6) 0.071(8) 0.072(8) 0.009(6) -0.016(5) 0.002(5)
C3_4 0.033(5) 0.060(6) 0.074(6) -0.002(5) 0.002(5) -0.002(5)
C4_4 0.019(4) 0.088(9) 0.088(8) -0.019(7) -0.004(5) -0.013(5)
C5_4 0.036(5) 0.058(6) 0.082(8) -0.003(6) -0.004(5) 0.001(5)
C6_4 0.029(4) 0.062(6) 0.049(5) 0.003(4) -0.001(4) 0.004(4)
C7_4 0.036(5) 0.076(7) 0.044(5) 0.006(5) -0.005(4) 0.009(5)
C8_4 0.025(5) 0.057(6) 0.101(10) -0.006(6) -0.018(5) -0.012(4)
C9_4 0.045(4) 0.085(6) 0.061(5) 0.003(4) -0.007(4) 0.001(4)
C10_4 0.052(5) 0.083(6) 0.063(5) -0.002(5) -0.005(5) 0.002(5)
C11_4 0.063(6) 0.077(6) 0.065(6) 0.000(5) -0.004(5) -0.002(5)
C12_4 0.067(5) 0.071(5) 0.066(5) 0.001(4) -0.006(4) 0.005(4)
C13_4 0.062(6) 0.077(6) 0.061(5) 0.004(5) -0.011(5) 0.005(5)
C14_4 0.055(5) 0.083(6) 0.063(5) -0.001(5) -0.010(5) 0.004(5)
C15_4 0.103(11) 0.093(10) 0.059(10) -0.002(7) 0.009(7) 0.051(9)
C16_4 0.101(11) 0.094(10) 0.059(9) -0.005(7) 0.014(8) 0.043(9)
C17_4 0.110(12) 0.098(10) 0.066(9) -0.009(8) 0.020(8) 0.042(9)
C18_4 0.119(12) 0.104(11) 0.071(10) 0.004(8) 0.012(8) 0.045(9)
C19_4 0.120(12) 0.106(11) 0.060(10) 0.009(8) 0.011(8) 0.048(9)
C20_4 0.114(11) 0.106(11) 0.058(10) 0.002(7) 0.008(7) 0.055(9)
C10A_4 0.055(6) 0.084(6) 0.059(6) 0.000(5) -0.008(5) 0.003(5)
C11A_4 0.065(6) 0.079(6) 0.062(6) 0.002(5) -0.007(5) 0.000(5)
C13A_4 0.066(6) 0.076(6) 0.064(6) 0.003(5) -0.008(5) 0.002(6)
C14A_4 0.054(6) 0.080(6) 0.059(6) 0.003(5) -0.007(5) 0.001(5)
loop_
_atom_type_symbol
_atom_type_description
_atom_type_scat_dispersion_real
_atom_type_scat_dispersion_imag
_atom_type_scat_source
Cu Cu 0.3201 1.2651 'International Tables Vol C Tables 4.2.6.8 and 6.1.1.4'
O O 0.0106 0.0060 'International Tables Vol C Tables 4.2.6.8 and 6.1.1.4'
C C 0.0033 0.0016 'International Tables Vol C Tables 4.2.6.8 and 6.1.1.4'
N N 0.0061 0.0033 'International Tables Vol C Tables 4.2.6.8 and 6.1.1.4'
H H 0.0000 0.0000 'International Tables Vol C Tables 4.2.6.8 and 6.1.1.4'
loop_
_geom_angle_atom_site_label_1
_geom_angle_atom_site_label_2
_geom_angle_atom_site_label_3
_geom_angle
_geom_angle_site_symmetry_1
_geom_angle_site_symmetry_3
O8_3 Cu1 O8_3 89.0(4) 9_566 3_565
O8_3 Cu1 O1_3 90.2(3) 9_566 11_556
O8_3 Cu1 O1_3 167.7(3) 3_565 11_556
O8_3 Cu1 O1_3 167.7(3) 9_566 .
O8_3 Cu1 O1_3 90.3(3) 3_565 .
O1_3 Cu1 O1_3 87.9(4) 11_556 .
O8_3 Cu1 O2 96.2(3) 9_566 .
O8_3 Cu1 O2 96.2(3) 3_565 .
O1_3 Cu1 O2 96.1(3) 11_556 .
O1_3 Cu1 O2 96.1(3) . .
O8_3 Cu1 Cu2 83.08(19) 9_566 .
O8_3 Cu1 Cu2 83.08(19) 3_565 .
O1_3 Cu1 Cu2 84.67(19) 11_556 .
O1_3 Cu1 Cu2 84.67(19) . .
O2 Cu1 Cu2 179.0(4) . .
O7_3 Cu2 O7_3 87.8(4) 9_566 3_565
O7_3 Cu2 O2_3 90.5(3) 9_566 11_556
O7_3 Cu2 O2_3 169.5(3) 3_565 11_556
O7_3 Cu2 O2_3 169.5(3) 9_566 .
O7_3 Cu2 O2_3 90.5(3) 3_565 .
O2_3 Cu2 O2_3 89.2(5) 11_556 .
O7_3 Cu2 O1 96.6(3) 9_566 .
O7_3 Cu2 O1 96.6(3) 3_565 .
O2_3 Cu2 O1 93.9(3) 11_556 .
O2_3 Cu2 O1 93.9(3) . .
O7_3 Cu2 Cu1 86.34(18) 9_566 .
O7_3 Cu2 Cu1 86.34(18) 3_565 .
O2_3 Cu2 Cu1 83.2(2) 11_556 .
O2_3 Cu2 Cu1 83.2(2) . .
O1 Cu2 Cu1 176.0(3) . .
O5_3 Cu3 O4_4 167.1(3) 4 4_565
O5_3 Cu3 O2_4 88.1(3) 4 .
O4_4 Cu3 O2_4 89.1(3) 4_565 .
O5_3 Cu3 O4_3 91.1(3) 4 .
O4_4 Cu3 O4_3 89.1(3) 4_565 .
O2_4 Cu3 O4_3 168.7(3) . .
O5_3 Cu3 O4 99.0(3) 4 .
O4_4 Cu3 O4 93.8(3) 4_565 .
O2_4 Cu3 O4 95.5(4) . .
O4_3 Cu3 O4 95.8(4) . .
O5_3 Cu3 Cu4 83.2(2) 4 .
O4_4 Cu3 Cu4 84.0(2) 4_565 .
O2_4 Cu3 Cu4 84.6(2) . .
O4_3 Cu3 Cu4 84.1(2) . .
O4 Cu3 Cu4 177.8(3) . .
O6_3 Cu4 O3_4 170.2(3) 4 4_565
O6_3 Cu4 O1_4 89.6(3) 4 .
O3_4 Cu4 O1_4 89.0(3) 4_565 .
O6_3 Cu4 O3_3 90.5(3) 4 .
O3_4 Cu4 O3_3 88.7(3) 4_565 .
O1_4 Cu4 O3_3 167.1(3) . .
O6_3 Cu4 O3 96.4(5) 4 .
O3_4 Cu4 O3 93.4(5) 4_565 .
O1_4 Cu4 O3 98.2(5) . .
O3_3 Cu4 O3 94.5(5) . .
O6_3 Cu4 Cu3 84.8(2) 4 .
O3_4 Cu4 Cu3 85.3(2) 4_565 .
O1_4 Cu4 Cu3 83.4(2) . .
O3_3 Cu4 Cu3 83.8(2) . .
O3 Cu4 Cu3 177.9(6) . .
C1_3 O1_3 Cu1 120.7(6) . .
C15_3 N1_3 C21_3 116.7(9) . .
C15_3 N1_3 C12_3 120.6(8) . .
C21_3 N1_3 C12_3 122.6(7) . .
C1_3 O2_3 Cu2 125.4(7) . .
C34_3 O7_3 Cu2 118.8(6) . 9_566
C33_3 O6_3 Cu4 121.7(6) . 2
C33_3 O5_3 Cu3 123.2(6) . 2
C8_3 O4_3 Cu3 120.5(6) . .
C8_3 O3_3 Cu4 123.4(7) . .
O3_3 C8_3 O4_3 128.0(9) . .
O3_3 C8_3 C4_3 117.8(9) . .
O4_3 C8_3 C4_3 114.2(8) . .
C34_3 O8_3 Cu1 121.8(6) . 9_566
O2_3 C1_3 O1_3 125.8(9) . .
O2_3 C1_3 C2_3 118.1(8) . .
O1_3 C1_3 C2_3 116.0(8) . .
C3_3 C2_3 C7_3 120.0 . .
C3_3 C2_3 C1_3 120.8(5) . .
C7_3 C2_3 C1_3 118.7(5) . .
C4_3 C3_3 C2_3 120.0 . .
C4_3 C3_3 H3_3 120.0 . .
C2_3 C3_3 H3_3 120.0 . .
C3_3 C4_3 C5_3 120.0 . .
C3_3 C4_3 C8_3 118.7(6) . .
C5_3 C4_3 C8_3 121.2(6) . .
C4_3 C5_3 C6_3 120.0 . .
C4_3 C5_3 H5_3 120.0 . .
C6_3 C5_3 H5_3 120.0 . .
C5_3 C6_3 C7_3 120.0 . .
C5_3 C6_3 C9_3 123.2(5) . .
C7_3 C6_3 C9_3 116.8(5) . .
C6_3 C7_3 C2_3 120.0 . .
C6_3 C7_3 H7_3 120.0 . .
C2_3 C7_3 H7_3 120.0 . .
C10_3 C9_3 C14_3 120.0 . .
C10A_3 C9_3 C14A_3 118.2(11) . .
C10A_3 C9_3 C6_3 120.5(10) . .
C10_3 C9_3 C6_3 122.8(6) . .
C14_3 C9_3 C6_3 117.2(6) . .
C14A_3 C9_3 C6_3 119.9(9) . .
C9_3 C10_3 C11_3 120.0 . .
C9_3 C10_3 H10_3 120.0 . .
C11_3 C10_3 H10_3 120.0 . .
C10_3 C11_3 C12_3 120.0 . .
C10_3 C11_3 H11_3 120.0 . .
C12_3 C11_3 H11_3 120.0 . .
C13_3 C12_3 C11_3 120.0 . .
C11A_3 C12_3 C13A_3 118.7(10) . .
C11A_3 C12_3 N1_3 119.6(10) . .
C13_3 C12_3 N1_3 121.4(7) . .
C11_3 C12_3 N1_3 118.6(7) . .
C13A_3 C12_3 N1_3 120.6(10) . .
C12_3 C13_3 C14_3 120.0 . .
C12_3 C13_3 H13_3 120.0 . .
C14_3 C13_3 H13_3 120.0 . .
C13_3 C14_3 C9_3 120.0 . .
C13_3 C14_3 H14_3 120.0 . .
C9_3 C14_3 H14_3 120.0 . .
C9_3 C10A_3 C11A_3 123.9(15) . .
C9_3 C10A_3 H10A_3 118.1 . .
C11A_3 C10A_3 H10A_3 118.1 . .
C10A_3 C11A_3 C12_3 118.1(14) . .
C10A_3 C11A_3 H11A_3 121.0 . .
C12_3 C11A_3 H11A_3 121.0 . .
C14A_3 C13A_3 C12_3 121.9(15) . .
C14A_3 C13A_3 H13A_3 119.1 . .
C12_3 C13A_3 H13A_3 119.1 . .
C13A_3 C14A_3 C9_3 115.4(15) . .
C13A_3 C14A_3 H14A_3 122.3 . .
C9_3 C14A_3 H14A_3 122.3 . .
N1_3 C15_3 C16A_3 121.7(11) . .
N1_3 C15_3 C20A_3 120.7(12) . .
C16A_3 C15_3 C20A_3 117.6(12) . .
N1_3 C15_3 C16_3 121.0(9) . .
N1_3 C15_3 C20_3 119.0(9) . .
C16_3 C15_3 C20_3 120.0 . .
C17_3 C16_3 C15_3 120.0 . .
C17_3 C16_3 H16_3 120.0 . .
C15_3 C16_3 H16_3 120.0 . .
C16_3 C17_3 C18_3 120.0 . .
C16_3 C17_3 H17_3 120.0 . .
C18_3 C17_3 H17_3 120.0 . .
C19_3 C18_3 C17_3 120.0 . .
C19_3 C18_3 H18_3 120.0 . .
C17_3 C18_3 H18_3 120.0 . .
C18_3 C19_3 C20_3 120.0 . .
C18_3 C19_3 H19_3 120.0 . .
C20_3 C19_3 H19_3 120.0 . .
C19_3 C20_3 C15_3 120.0 . .
C19_3 C20_3 H20_3 120.0 . .
C15_3 C20_3 H20_3 120.0 . .
C15_3 C16A_3 C17A_3 120.9(15) . .
C15_3 C16A_3 H16A_3 119.5 . .
C17A_3 C16A_3 H16A_3 119.5 . .
C16A_3 C17A_3 C18A_3 115.1(16) . .
C16A_3 C17A_3 H17A_3 122.4 . .
C18A_3 C17A_3 H17A_3 122.4 . .
C17A_3 C18A_3 C19A_3 120.0(17) . .
C17A_3 C18A_3 H18A_3 120.0 . .
C19A_3 C18A_3 H18A_3 120.0 . .
C20A_3 C19A_3 C18A_3 114.8(16) . .
C20A_3 C19A_3 H19A_3 122.6 . .
C18A_3 C19A_3 H19A_3 122.6 . .
C19A_3 C20A_3 C15_3 122.5(16) . .
C19A_3 C20A_3 H20A_3 118.8 . .
C15_3 C20A_3 H20A_3 118.8 . .
C22_3 C21_3 C26_3 120.0 . .
C22A_3 C21_3 N1_3 121.5(8) . .
C22_3 C21_3 N1_3 119.7(8) . .
C26_3 C21_3 N1_3 120.2(7) . .
C22A_3 C21_3 C26A_3 118.3(9) . .
N1_3 C21_3 C26A_3 117.8(9) . .
C23_3 C22_3 C21_3 120.0 . .
C23_3 C22_3 H22_3 120.0 . .
C21_3 C22_3 H22_3 120.0 . .
C24_3 C23_3 C22_3 120.0 . .
C24_3 C23_3 H23_3 120.0 . .
C22_3 C23_3 H23_3 120.0 . .
C23_3 C24_3 C25_3 120.0 . .
C23A_3 C24_3 C25A_3 116.1(9) . .
C23A_3 C24_3 C27_3 120.6(8) . .
C23_3 C24_3 C27_3 118.1(6) . .
C25_3 C24_3 C27_3 121.9(6) . .
C25A_3 C24_3 C27_3 120.0(8) . .
C26_3 C25_3 C24_3 120.0 . .
C26_3 C25_3 H25_3 120.0 . .
C24_3 C25_3 H25_3 120.0 . .
C25_3 C26_3 C21_3 120.0 . .
C25_3 C26_3 H26_3 120.0 . .
C21_3 C26_3 H26_3 120.0 . .
C28_3 C27_3 C32_3 120.0 . .
C28_3 C27_3 C24_3 123.1(5) . .
C32_3 C27_3 C24_3 116.9(5) . .
C27_3 C28_3 C29_3 120.0 . .
C27_3 C28_3 H28_3 120.0 . .
C29_3 C28_3 H28_3 120.0 . .
C30_3 C29_3 C28_3 120.0 . .
C30_3 C29_3 C34_3 120.2(5) . .
C28_3 C29_3 C34_3 119.2(5) . .
C29_3 C30_3 C31_3 120.0 . .
C29_3 C30_3 H30_3 120.0 . .
C31_3 C30_3 H30_3 120.0 . .
C32_3 C31_3 C30_3 120.0 . .
C32_3 C31_3 C33_3 119.5(5) . .
C30_3 C31_3 C33_3 120.4(5) . .
C31_3 C32_3 C27_3 120.0 . .
C31_3 C32_3 H32_3 120.0 . .
C27_3 C32_3 H32_3 120.0 . .
O5_3 C33_3 O6_3 126.9(8) . .
O5_3 C33_3 C31_3 117.2(7) . .
O6_3 C33_3 C31_3 115.8(7) . .
O8_3 C34_3 O7_3 129.8(9) . .
O8_3 C34_3 C29_3 114.8(7) . .
O7_3 C34_3 C29_3 115.4(7) . .
C23A_3 C22A_3 C21_3 117.1(12) . .
C23A_3 C22A_3 H22A_3 121.4 . .
C21_3 C22A_3 H22A_3 121.4 . .
C24_3 C23A_3 C22A_3 123.5(13) . .
C24_3 C23A_3 H23A_3 118.3 . .
C22A_3 C23A_3 H23A_3 118.3 . .
C26A_3 C25A_3 C24_3 119.1(12) . .
C26A_3 C25A_3 H25A_3 120.5 . .
C24_3 C25A_3 H25A_3 120.5 . .
C25A_3 C26A_3 C21_3 121.2(13) . .
C25A_3 C26A_3 H26A_3 119.4 . .
C21_3 C26A_3 H26A_3 119.4 . .
C1_4 O1_4 Cu4 123.2(6) . .
C12_4 N1_4 C12_4 122.8(16) . 11
C12_4 N1_4 C15_4 126.2(10) . .
C12_4 N1_4 C15_4 105.7(12) 11 .
C1_4 O2_4 Cu3 122.3(7) . .
C8_4 O3_4 Cu4 119.7(6) . 2_655
C8_4 O4_4 Cu3 120.2(7) . 2_655
O2_4 C1_4 O1_4 126.2(10) . .
O2_4 C1_4 C2_4 118.6(9) . .
O1_4 C1_4 C2_4 115.0(8) . .
C3_4 C2_4 C7_4 120.0 . .
C3_4 C2_4 C1_4 120.3(5) . .
C7_4 C2_4 C1_4 119.5(6) . .
C4_4 C3_4 C2_4 120.0 . .
C4_4 C3_4 H3_4 120.0 . .
C2_4 C3_4 H3_4 120.0 . .
C3_4 C4_4 C5_4 120.0 . .
C3_4 C4_4 C8_4 118.7(6) . .
C5_4 C4_4 C8_4 121.1(6) . .
C6_4 C5_4 C4_4 120.0 . .
C6_4 C5_4 H5_4 120.0 . .
C4_4 C5_4 H5_4 120.0 . .
C5_4 C6_4 C7_4 120.0 . .
C5_4 C6_4 C9_4 119.5(5) . .
C7_4 C6_4 C9_4 120.5(5) . .
C6_4 C7_4 C2_4 120.0 . .
C6_4 C7_4 H7_4 120.0 . .
C2_4 C7_4 H7_4 120.0 . .
O4_4 C8_4 O3_4 130.4(9) . .
O4_4 C8_4 C4_4 114.6(10) . .
O3_4 C8_4 C4_4 115.0(9) . .
C10_4 C9_4 C14_4 120.0 . .
C14A_4 C9_4 C10A_4 114.6(11) . .
C10_4 C9_4 C6_4 119.1(6) . .
C14_4 C9_4 C6_4 120.9(6) . .
C14A_4 C9_4 C6_4 123.5(11) . .
C10A_4 C9_4 C6_4 121.8(10) . .
C11_4 C10_4 C9_4 120.0 . .
C11_4 C10_4 H10_4 120.0 . .
C9_4 C10_4 H10_4 120.0 . .
C10_4 C11_4 C12_4 120.0 . .
C10_4 C11_4 H11_4 120.0 . .
C12_4 C11_4 H11_4 120.0 . .
C13A_4 C12_4 C11A_4 123.5(12) . .
C11_4 C12_4 C13_4 120.0 . .
C13A_4 C12_4 N1_4 116.5(12) . .
C11A_4 C12_4 N1_4 119.4(12) . .
C11_4 C12_4 N1_4 123.3(9) . .
C13_4 C12_4 N1_4 116.7(9) . .
C14_4 C13_4 C12_4 120.0 . .
C14_4 C13_4 H13_4 120.0 . .
C12_4 C13_4 H13_4 120.0 . .
C13_4 C14_4 C9_4 120.0 . .
C13_4 C14_4 H14_4 120.0 . .
C9_4 C14_4 H14_4 120.0 . .
C16_4 C15_4 C20_4 120.0 . .
C16_4 C15_4 N1_4 120.7(12) . .
C20_4 C15_4 N1_4 119.1(12) . .
C15_4 C16_4 C17_4 120.0 . .
C15_4 C16_4 H16_4 120.0 . .
C17_4 C16_4 H16_4 120.0 . .
C18_4 C17_4 C16_4 120.0 . .
C18_4 C17_4 H17_4 120.0 . .
C16_4 C17_4 H17_4 120.0 . .
C17_4 C18_4 C19_4 120.0 . .
C17_4 C18_4 H18_4 120.0 . .
C19_4 C18_4 H18_4 120.0 . .
C20_4 C19_4 C18_4 120.0 . .
C20_4 C19_4 H19_4 120.0 . .
C18_4 C19_4 H19_4 120.0 . .
C19_4 C20_4 C15_4 120.0 . .
C19_4 C20_4 H20_4 120.0 . .
C15_4 C20_4 H20_4 120.0 . .
C11A_4 C10A_4 C9_4 121.2(16) . .
C11A_4 C10A_4 H10A_4 119.4 . .
C9_4 C10A_4 H10A_4 119.4 . .
C12_4 C11A_4 C10A_4 118.7(17) . .
C12_4 C11A_4 H11A_4 120.7 . .
C10A_4 C11A_4 H11A_4 120.7 . .
C12_4 C13A_4 C14A_4 115.6(16) . .
C12_4 C13A_4 H13A_4 122.2 . .
C14A_4 C13A_4 H13A_4 122.2 . .
C13A_4 C14A_4 C9_4 125.9(17) . .
C13A_4 C14A_4 H14A_4 117.0 . .
C9_4 C14A_4 H14A_4 117.0 . .
loop_
_geom_bond_atom_site_label_1
_geom_bond_atom_site_label_2
_geom_bond_distance
_geom_bond_site_symmetry_2
Cu1 O8_3 1.956(6) 9_566
Cu1 O8_3 1.956(6) 3_565
Cu1 O1_3 1.980(6) 11_556
Cu1 O1_3 1.980(6) .
Cu1 O2 2.139(11) .
Cu1 Cu2 2.6370(19) .
O1 Cu2 2.159(10) .
Cu2 O7_3 1.938(6) 9_566
Cu2 O7_3 1.938(6) 3_565
Cu2 O2_3 1.940(7) 11_556
Cu2 O2_3 1.940(7) .
Cu3 O5_3 1.946(7) 4
Cu3 O4_4 1.960(6) 4_565
Cu3 O2_4 1.962(7) .
Cu3 O4_3 1.981(7) .
Cu3 O4 2.165(8) .
Cu3 Cu4 2.6496(14) .
O3 Cu4 2.154(9) .
Cu4 O6_3 1.928(7) 4
Cu4 O3_4 1.937(6) 4_565
Cu4 O1_4 1.945(7) .
Cu4 O3_3 1.946(7) .
O1_3 C1_3 1.267(11) .
N1_3 C15_3 1.379(11) .
N1_3 C21_3 1.422(10) .
N1_3 C12_3 1.426(10) .
O2_3 C1_3 1.230(12) .
O7_3 C34_3 1.259(11) .
O7_3 Cu2 1.938(6) 9_566
O6_3 C33_3 1.267(11) .
O6_3 Cu4 1.928(7) 2
O5_3 C33_3 1.243(11) .
O5_3 Cu3 1.946(7) 2
O4_3 C8_3 1.262(13) .
O3_3 C8_3 1.227(12) .
C8_3 C4_3 1.494(11) .
O8_3 C34_3 1.256(11) .
O8_3 Cu1 1.956(6) 9_566
C1_3 C2_3 1.507(11) .
C2_3 C3_3 1.3900 .
C2_3 C7_3 1.3900 .
C3_3 C4_3 1.3900 .
C3_3 H3_3 0.9300 .
C4_3 C5_3 1.3900 .
C5_3 C6_3 1.3900 .
C5_3 H5_3 0.9300 .
C6_3 C7_3 1.3900 .
C6_3 C9_3 1.517(7) .
C7_3 H7_3 0.9300 .
C9_3 C10A_3 1.325(15) .
C9_3 C10_3 1.3900 .
C9_3 C14_3 1.3900 .
C9_3 C14A_3 1.451(15) .
C10_3 C11_3 1.3900 .
C10_3 H10_3 0.9300 .
C11_3 C12_3 1.3900 .
C11_3 H11_3 0.9300 .
C12_3 C11A_3 1.388(15) .
C12_3 C13_3 1.3900 .
C12_3 C13A_3 1.409(15) .
C13_3 C14_3 1.3900 .
C13_3 H13_3 0.9300 .
C14_3 H14_3 0.9300 .
C10A_3 C11A_3 1.384(16) .
C10A_3 H10A_3 0.9300 .
C11A_3 H11A_3 0.9300 .
C13A_3 C14A_3 1.404(16) .
C13A_3 H13A_3 0.9300 .
C14A_3 H14A_3 0.9300 .
C15_3 C16A_3 1.387(16) .
C15_3 C20A_3 1.388(15) .
C15_3 C16_3 1.3900 .
C15_3 C20_3 1.3900 .
C16_3 C17_3 1.3900 .
C16_3 H16_3 0.9300 .
C17_3 C18_3 1.3900 .
C17_3 H17_3 0.9300 .
C18_3 C19_3 1.3900 .
C18_3 H18_3 0.9300 .
C19_3 C20_3 1.3900 .
C19_3 H19_3 0.9300 .
C20_3 H20_3 0.9300 .
C16A_3 C17A_3 1.394(16) .
C16A_3 H16A_3 0.9300 .
C17A_3 C18A_3 1.396(17) .
C17A_3 H17A_3 0.9300 .
C18A_3 C19A_3 1.403(17) .
C18A_3 H18A_3 0.9300 .
C19A_3 C20A_3 1.372(16) .
C19A_3 H19A_3 0.9300 .
C20A_3 H20A_3 0.9300 .
C21_3 C22A_3 1.392(14) .
C21_3 C22_3 1.3900 .
C21_3 C26_3 1.3900 .
C21_3 C26A_3 1.424(14) .
C22_3 C23_3 1.3900 .
C22_3 H22_3 0.9300 .
C23_3 C24_3 1.3900 .
C23_3 H23_3 0.9300 .
C24_3 C23A_3 1.379(13) .
C24_3 C25_3 1.3900 .
C24_3 C25A_3 1.417(14) .
C24_3 C27_3 1.528(7) .
C25_3 C26_3 1.3900 .
C25_3 H25_3 0.9300 .
C26_3 H26_3 0.9300 .
C27_3 C28_3 1.3900 .
C27_3 C32_3 1.3900 .
C28_3 C29_3 1.3900 .
C28_3 H28_3 0.9300 .
C29_3 C30_3 1.3900 .
C29_3 C34_3 1.518(10) .
C30_3 C31_3 1.3900 .
C30_3 H30_3 0.9300 .
C31_3 C32_3 1.3900 .
C31_3 C33_3 1.528(9) .
C32_3 H32_3 0.9300 .
C22A_3 C23A_3 1.380(14) .
C22A_3 H22A_3 0.9300 .
C23A_3 H23A_3 0.9300 .
C25A_3 C26A_3 1.353(15) .
C25A_3 H25A_3 0.9300 .
C26A_3 H26A_3 0.9300 .
O1_4 C1_4 1.288(13) .
N1_4 C12_4 1.416(10) .
N1_4 C12_4 1.416(11) 11
N1_4 C15_4 1.513(18) .
O2_4 C1_4 1.229(12) .
O3_4 C8_4 1.265(14) .
O3_4 Cu4 1.937(6) 2_655
O4_4 C8_4 1.258(14) .
O4_4 Cu3 1.960(6) 2_655
C1_4 C2_4 1.495(11) .
C2_4 C3_4 1.3900 .
C2_4 C7_4 1.3900 .
C3_4 C4_4 1.3900 .
C3_4 H3_4 0.9300 .
C4_4 C5_4 1.3900 .
C4_4 C8_4 1.545(10) .
C5_4 C6_4 1.3900 .
C5_4 H5_4 0.9300 .
C6_4 C7_4 1.3900 .
C6_4 C9_4 1.471(8) .
C7_4 H7_4 0.9300 .
C9_4 C10_4 1.3900 .
C9_4 C14_4 1.3900 .
C9_4 C14A_4 1.396(16) .
C9_4 C10A_4 1.421(16) .
C10_4 C11_4 1.3900 .
C10_4 H10_4 0.9300 .
C11_4 C12_4 1.3900 .
C11_4 H11_4 0.9300 .
C12_4 C13A_4 1.366(16) .
C12_4 C11A_4 1.373(16) .
C12_4 C13_4 1.3900 .
C13_4 C14_4 1.3900 .
C13_4 H13_4 0.9300 .
C14_4 H14_4 0.9300 .
C15_4 C16_4 1.3900 .
C15_4 C20_4 1.3900 .
C16_4 C17_4 1.3900 .
C16_4 H16_4 0.9300 .
C17_4 C18_4 1.3900 .
C17_4 H17_4 0.9300 .
C18_4 C19_4 1.3900 .
C18_4 H18_4 0.9300 .
C19_4 C20_4 1.3900 .
C19_4 H19_4 0.9300 .
C20_4 H20_4 0.9300 .
C10A_4 C11A_4 1.383(17) .
C10A_4 H10A_4 0.9300 .
C11A_4 H11A_4 0.9300 .
C13A_4 C14A_4 1.368(17) .
C13A_4 H13A_4 0.9300 .
C14A_4 H14A_4 0.9300 .
loop_
_geom_torsion_atom_site_label_1
_geom_torsion_atom_site_label_2
_geom_torsion_atom_site_label_3
_geom_torsion_atom_site_label_4
_geom_torsion
_geom_torsion_site_symmetry_1
Cu4 O3_3 C8_3 O4_3 5.7(16) .
Cu4 O3_3 C8_3 C4_3 -174.8(6) .
Cu3 O4_3 C8_3 O3_3 -2.0(15) .
Cu3 O4_3 C8_3 C4_3 178.5(6) .
Cu2 O2_3 C1_3 O1_3 5.7(17) .
Cu2 O2_3 C1_3 C2_3 -174.4(6) .
Cu1 O1_3 C1_3 O2_3 -6.6(16) .
Cu1 O1_3 C1_3 C2_3 173.5(6) .
O2_3 C1_3 C2_3 C3_3 173.7(8) .
O1_3 C1_3 C2_3 C3_3 -6.3(12) .
O2_3 C1_3 C2_3 C7_3 2.2(13) .
O1_3 C1_3 C2_3 C7_3 -177.8(7) .
C7_3 C2_3 C3_3 C4_3 0.0 .
C1_3 C2_3 C3_3 C4_3 -171.4(8) .
C2_3 C3_3 C4_3 C5_3 0.0 .
C2_3 C3_3 C4_3 C8_3 175.6(8) .
O3_3 C8_3 C4_3 C3_3 2.1(12) .
O4_3 C8_3 C4_3 C3_3 -178.4(7) .
O3_3 C8_3 C4_3 C5_3 177.6(7) .
O4_3 C8_3 C4_3 C5_3 -2.9(11) .
C3_3 C4_3 C5_3 C6_3 0.0 .
C8_3 C4_3 C5_3 C6_3 -175.4(8) .
C4_3 C5_3 C6_3 C7_3 0.0 .
C4_3 C5_3 C6_3 C9_3 177.7(8) .
C5_3 C6_3 C7_3 C2_3 0.0 .
C9_3 C6_3 C7_3 C2_3 -177.8(8) .
C3_3 C2_3 C7_3 C6_3 0.0 .
C1_3 C2_3 C7_3 C6_3 171.6(8) .
C5_3 C6_3 C9_3 C10A_3 -27.8(17) .
C7_3 C6_3 C9_3 C10A_3 149.9(14) .
C5_3 C6_3 C9_3 C10_3 34.3(11) .
C7_3 C6_3 C9_3 C10_3 -147.9(7) .
C5_3 C6_3 C9_3 C14_3 -142.8(7) .
C7_3 C6_3 C9_3 C14_3 34.9(9) .
C5_3 C6_3 C9_3 C14A_3 138.0(13) .
C7_3 C6_3 C9_3 C14A_3 -44.3(15) .
C14_3 C9_3 C10_3 C11_3 0.0 .
C6_3 C9_3 C10_3 C11_3 -177.1(9) .
C9_3 C10_3 C11_3 C12_3 0.0 .
C10_3 C11_3 C12_3 C13_3 0.0 .
C10_3 C11_3 C12_3 N1_3 179.4(9) .
C15_3 N1_3 C12_3 C11A_3 23.7(19) .
C21_3 N1_3 C12_3 C11A_3 -153.7(16) .
C15_3 N1_3 C12_3 C13_3 140.1(10) .
C21_3 N1_3 C12_3 C13_3 -37.3(15) .
C15_3 N1_3 C12_3 C11_3 -39.3(14) .
C21_3 N1_3 C12_3 C11_3 143.3(10) .
C15_3 N1_3 C12_3 C13A_3 -144.1(16) .
C21_3 N1_3 C12_3 C13A_3 38.5(19) .
C11_3 C12_3 C13_3 C14_3 0.0 .
N1_3 C12_3 C13_3 C14_3 -179.4(10) .
C12_3 C13_3 C14_3 C9_3 0.0 .
C10_3 C9_3 C14_3 C13_3 0.0 .
C6_3 C9_3 C14_3 C13_3 177.3(8) .
C14A_3 C9_3 C10A_3 C11A_3 21(3) .
C6_3 C9_3 C10A_3 C11A_3 -173(2) .
C9_3 C10A_3 C11A_3 C12_3 -5(4) .
C13A_3 C12_3 C11A_3 C10A_3 -9(3) .
N1_3 C12_3 C11A_3 C10A_3 -176.6(19) .
C11A_3 C12_3 C13A_3 C14A_3 5(3) .
N1_3 C12_3 C13A_3 C14A_3 173.3(19) .
C12_3 C13A_3 C14A_3 C9_3 10(3) .
C10A_3 C9_3 C14A_3 C13A_3 -22(3) .
C6_3 C9_3 C14A_3 C13A_3 171.7(17) .
C21_3 N1_3 C15_3 C16A_3 -78.7(17) .
C12_3 N1_3 C15_3 C16A_3 103.8(16) .
C21_3 N1_3 C15_3 C20A_3 104.1(17) .
C12_3 N1_3 C15_3 C20A_3 -73.5(18) .
C21_3 N1_3 C15_3 C16_3 -129.4(13) .
C12_3 N1_3 C15_3 C16_3 53.1(16) .
C21_3 N1_3 C15_3 C20_3 47.6(16) .
C12_3 N1_3 C15_3 C20_3 -129.9(12) .
N1_3 C15_3 C16_3 C17_3 177.0(12) .
C20_3 C15_3 C16_3 C17_3 0.0 .
C15_3 C16_3 C17_3 C18_3 0.0 .
C16_3 C17_3 C18_3 C19_3 0.0 .
C17_3 C18_3 C19_3 C20_3 0.0 .
C18_3 C19_3 C20_3 C15_3 0.0 .
N1_3 C15_3 C20_3 C19_3 -177.1(12) .
C16_3 C15_3 C20_3 C19_3 0.0 .
N1_3 C15_3 C16A_3 C17A_3 170.8(17) .
C20A_3 C15_3 C16A_3 C17A_3 -12(3) .
C15_3 C16A_3 C17A_3 C18A_3 22(3) .
C16A_3 C17A_3 C18A_3 C19A_3 -33(4) .
C17A_3 C18A_3 C19A_3 C20A_3 32(4) .
C18A_3 C19A_3 C20A_3 C15_3 -21(3) .
N1_3 C15_3 C20A_3 C19A_3 -171.3(18) .
C16A_3 C15_3 C20A_3 C19A_3 11(3) .
C15_3 N1_3 C21_3 C22A_3 162.8(15) .
C12_3 N1_3 C21_3 C22A_3 -20(2) .
C15_3 N1_3 C21_3 C22_3 -145.5(10) .
C12_3 N1_3 C21_3 C22_3 32.0(15) .
C15_3 N1_3 C21_3 C26_3 30.6(15) .
C12_3 N1_3 C21_3 C26_3 -151.9(11) .
C15_3 N1_3 C21_3 C26A_3 -35.0(18) .
C12_3 N1_3 C21_3 C26A_3 142.4(15) .
C26_3 C21_3 C22_3 C23_3 0.0 .
N1_3 C21_3 C22_3 C23_3 176.2(10) .
C21_3 C22_3 C23_3 C24_3 0.0 .
C22_3 C23_3 C24_3 C25_3 0.0 .
C22_3 C23_3 C24_3 C27_3 -179.7(8) .
C23_3 C24_3 C25_3 C26_3 0.0 .
C27_3 C24_3 C25_3 C26_3 179.7(9) .
C24_3 C25_3 C26_3 C21_3 0.0 .
C22_3 C21_3 C26_3 C25_3 0.0 .
N1_3 C21_3 C26_3 C25_3 -176.2(10) .
C23A_3 C24_3 C27_3 C28_3 21.1(16) .
C23_3 C24_3 C27_3 C28_3 -25.7(10) .
C25_3 C24_3 C27_3 C28_3 154.6(8) .
C25A_3 C24_3 C27_3 C28_3 -138.0(12) .
C23A_3 C24_3 C27_3 C32_3 -159.5(13) .
C23_3 C24_3 C27_3 C32_3 153.7(8) .
C25_3 C24_3 C27_3 C32_3 -26.0(11) .
C25A_3 C24_3 C27_3 C32_3 41.4(15) .
C32_3 C27_3 C28_3 C29_3 0.0 .
C24_3 C27_3 C28_3 C29_3 179.4(8) .
C27_3 C28_3 C29_3 C30_3 0.0 .
C27_3 C28_3 C29_3 C34_3 -171.5(6) .
C28_3 C29_3 C30_3 C31_3 0.0 .
C34_3 C29_3 C30_3 C31_3 171.5(6) .
C29_3 C30_3 C31_3 C32_3 0.0 .
C29_3 C30_3 C31_3 C33_3 -175.9(7) .
C30_3 C31_3 C32_3 C27_3 0.0 .
C33_3 C31_3 C32_3 C27_3 175.9(7) .
C28_3 C27_3 C32_3 C31_3 0.0 .
C24_3 C27_3 C32_3 C31_3 -179.4(7) .
Cu3 O5_3 C33_3 O6_3 5.9(15) 2
Cu3 O5_3 C33_3 C31_3 -176.8(5) 2
Cu4 O6_3 C33_3 O5_3 -3.2(15) 2
Cu4 O6_3 C33_3 C31_3 179.4(5) 2
C32_3 C31_3 C33_3 O5_3 3.9(11) .
C30_3 C31_3 C33_3 O5_3 179.8(7) .
C32_3 C31_3 C33_3 O6_3 -178.4(7) .
C30_3 C31_3 C33_3 O6_3 -2.5(11) .
Cu1 O8_3 C34_3 O7_3 3.3(14) 9_566
Cu1 O8_3 C34_3 C29_3 -176.4(5) 9_566
Cu2 O7_3 C34_3 O8_3 -4.4(14) 9_566
Cu2 O7_3 C34_3 C29_3 175.3(5) 9_566
C30_3 C29_3 C34_3 O8_3 8.0(10) .
C28_3 C29_3 C34_3 O8_3 179.5(6) .
C30_3 C29_3 C34_3 O7_3 -171.8(6) .
C28_3 C29_3 C34_3 O7_3 -0.3(10) .
N1_3 C21_3 C22A_3 C23A_3 174.1(17) .
C26A_3 C21_3 C22A_3 C23A_3 12(3) .
C25A_3 C24_3 C23A_3 C22A_3 -22(3) .
C27_3 C24_3 C23A_3 C22A_3 178.2(18) .
C21_3 C22A_3 C23A_3 C24_3 7(3) .
C23A_3 C24_3 C25A_3 C26A_3 18(3) .
C27_3 C24_3 C25A_3 C26A_3 177.5(17) .
C24_3 C25A_3 C26A_3 C21_3 1(3) .
C22A_3 C21_3 C26A_3 C25A_3 -16(3) .
N1_3 C21_3 C26A_3 C25A_3 -178.6(18) .
Cu3 O2_4 C1_4 O1_4 3.4(16) .
Cu3 O2_4 C1_4 C2_4 179.7(6) .
Cu4 O1_4 C1_4 O2_4 1.2(16) .
Cu4 O1_4 C1_4 C2_4 -175.2(6) .
O2_4 C1_4 C2_4 C3_4 -166.6(8) .
O1_4 C1_4 C2_4 C3_4 10.1(12) .
O2_4 C1_4 C2_4 C7_4 8.5(13) .
O1_4 C1_4 C2_4 C7_4 -174.8(7) .
C7_4 C2_4 C3_4 C4_4 0.0 .
C1_4 C2_4 C3_4 C4_4 175.1(8) .
C2_4 C3_4 C4_4 C5_4 0.0 .
C2_4 C3_4 C4_4 C8_4 -175.2(8) .
C3_4 C4_4 C5_4 C6_4 0.0 .
C8_4 C4_4 C5_4 C6_4 175.1(8) .
C4_4 C5_4 C6_4 C7_4 0.0 .
C4_4 C5_4 C6_4 C9_4 -179.7(7) .
C5_4 C6_4 C7_4 C2_4 0.0 .
C9_4 C6_4 C7_4 C2_4 179.7(7) .
C3_4 C2_4 C7_4 C6_4 0.0 .
C1_4 C2_4 C7_4 C6_4 -175.2(8) .
Cu3 O4_4 C8_4 O3_4 4.5(18) 2_655
Cu3 O4_4 C8_4 C4_4 -174.7(6) 2_655
Cu4 O3_4 C8_4 O4_4 -0.2(18) 2_655
Cu4 O3_4 C8_4 C4_4 178.9(6) 2_655
C3_4 C4_4 C8_4 O4_4 173.6(8) .
C5_4 C4_4 C8_4 O4_4 -1.5(13) .
C3_4 C4_4 C8_4 O3_4 -5.7(13) .
C5_4 C4_4 C8_4 O3_4 179.2(8) .
C5_4 C6_4 C9_4 C10_4 40.4(9) .
C7_4 C6_4 C9_4 C10_4 -139.3(7) .
C5_4 C6_4 C9_4 C14_4 -140.0(7) .
C7_4 C6_4 C9_4 C14_4 40.3(9) .
C5_4 C6_4 C9_4 C14A_4 134.6(14) .
C7_4 C6_4 C9_4 C14A_4 -45.1(16) .
C5_4 C6_4 C9_4 C10A_4 -46.7(16) .
C7_4 C6_4 C9_4 C10A_4 133.6(14) .
C14_4 C9_4 C10_4 C11_4 0.0 .
C6_4 C9_4 C10_4 C11_4 179.6(8) .
C9_4 C10_4 C11_4 C12_4 0.0 .
C10_4 C11_4 C12_4 C13_4 0.0 .
C10_4 C11_4 C12_4 N1_4 -179.0(11) .
C12_4 N1_4 C12_4 C13A_4 136(2) 11
C12_4 N1_4 C12_4 C11A_4 -35(3) 11
C12_4 N1_4 C12_4 C11_4 -127.4(14) 11
C15_4 N1_4 C12_4 C11_4 23(2) .
C12_4 N1_4 C12_4 C13_4 54(2) 11
C15_4 N1_4 C12_4 C13_4 -155.6(15) .
C11_4 C12_4 C13_4 C14_4 0.0 .
N1_4 C12_4 C13_4 C14_4 179.0(11) .
C12_4 C13_4 C14_4 C9_4 0.0 .
C10_4 C9_4 C14_4 C13_4 0.0 .
C6_4 C9_4 C14_4 C13_4 -179.6(8) .
C12_4 N1_4 C15_4 C16_4 146.0(14) .
C12_4 N1_4 C15_4 C16_4 -59.3(19) 11
C12_4 N1_4 C15_4 C20_4 -29(2) .
C12_4 N1_4 C15_4 C20_4 125.7(15) 11
C20_4 C15_4 C16_4 C17_4 0.0 .
N1_4 C15_4 C16_4 C17_4 -175.0(16) .
C15_4 C16_4 C17_4 C18_4 0.0 .
C16_4 C17_4 C18_4 C19_4 0.0 .
C17_4 C18_4 C19_4 C20_4 0.0 .
C18_4 C19_4 C20_4 C15_4 0.0 .
C16_4 C15_4 C20_4 C19_4 0.0 .
N1_4 C15_4 C20_4 C19_4 175.1(16) .
C14A_4 C9_4 C10A_4 C11A_4 0(3) .
C6_4 C9_4 C10A_4 C11A_4 -179.1(19) .
C13A_4 C12_4 C11A_4 C10A_4 8(4) .
N1_4 C12_4 C11A_4 C10A_4 178(2) .
C9_4 C10A_4 C11A_4 C12_4 -4(4) .
C11A_4 C12_4 C13A_4 C14A_4 -7(3) .
N1_4 C12_4 C13A_4 C14A_4 -177.4(19) .
C12_4 C13A_4 C14A_4 C9_4 2(4) .
C10A_4 C9_4 C14A_4 C13A_4 1(3) .
C6_4 C9_4 C14A_4 C13A_4 -180(2) .
loop_
_platon_squeeze_void_nr
_platon_squeeze_void_average_x
_platon_squeeze_void_average_y
_platon_squeeze_void_average_z
_platon_squeeze_void_volume
_platon_squeeze_void_count_electrons
1 -0.007 -0.021 -0.009 12845.8 1212.6
2 0.500 0.000 0.000 12.6 1.0
3 0.500 0.000 0.500 12.6 1.0
4 0.282 0.213 0.260 12.0 0.5
5 0.282 0.213 0.740 12.6 1.9
6 0.713 0.218 0.240 12.6 0.8
7 0.713 0.218 0.760 11.9 -0.1
8 0.787 0.282 0.260 12.1 0.7
9 0.787 0.282 0.740 12.7 1.5
10 0.218 0.287 0.240 12.7 0.7
11 0.218 0.287 0.760 12.1 0.2
12 0.000 0.500 0.000 12.5 1.0
13 0.000 0.500 0.500 12.5 1.0
14 0.782 0.713 0.240 12.6 1.9
15 0.782 0.713 0.760 12.0 0.5
16 0.213 0.718 0.260 11.9 -0.1
17 0.213 0.718 0.740 12.6 0.8
18 0.287 0.782 0.240 12.7 1.5
19 0.287 0.782 0.760 12.1 0.7
20 0.718 0.787 0.260 12.1 0.2
21 0.718 0.787 0.740 12.7 0.7
