#------------------------------------------------------------------------------
#$Date: 2019-11-17 10:18:19 +0200 (Sun, 17 Nov 2019) $
#$Revision: 229307 $
#$URL: file:///home/coder/svn-repositories/cod/cif/7/04/73/7047326.cif $
#------------------------------------------------------------------------------
#
# This file is available in the Crystallography Open Database (COD),
# http://www.crystallography.net/
#
# All data on this site have been placed in the public domain by the
# contributors.
#
data_7047326
loop_
_publ_author_name
'Gong, Ya-Ru'
'Chen, Wei-Chao'
'Zhao, Liang'
'Shao, Kui-Zhan'
'Wang, Xin-Long'
'Su, Zhong-Min'
_publ_section_title
;
 Functionalized polyoxometalate-based metal-organic cuboctahedra for
 selective adsorption toward cationic dyes in aqueous solution.
;
_journal_issue                   37
_journal_name_full
'Dalton transactions (Cambridge, England : 2003)'
_journal_page_first              12979
_journal_page_last               12983
_journal_paper_doi               10.1039/c8dt02580k
_journal_volume                  47
_journal_year                    2018
_chemical_formula_moiety         'C132 H156 N12 O100 S4 V24'
_chemical_formula_sum            'C156 H252 N20 O108 S4 V24'
_chemical_formula_weight         5486.56
_space_group_crystal_system      cubic
_space_group_IT_number           217
_space_group_name_Hall           'I -4 2 3'
_space_group_name_H-M_alt        'I -4 3 m'
_symmetry_space_group_name_Hall  'I -4 2 3'
_symmetry_space_group_name_H-M   'I -4 3 m'
_atom_sites_solution_hydrogens   geom
_atom_sites_solution_primary     dual
_audit_creation_date             2018-04-12
_audit_creation_method
;
Olex2 1.2
(compiled 2018.04.03 svn.r3497 for OlexSys, GUI svn.r5486)
;
_audit_update_record
;
2018-06-15 deposited with the CCDC.
2018-08-20 downloaded from the CCDC.
;
_cell_angle_alpha                90
_cell_angle_beta                 90
_cell_angle_gamma                90
_cell_formula_units_Z            2
_cell_length_a                   27.216(2)
_cell_length_b                   27.216(2)
_cell_length_c                   27.216(2)
_cell_measurement_reflns_used    2476
_cell_measurement_temperature    173(2)
_cell_measurement_theta_max      50.000
_cell_measurement_theta_min      1.953
_cell_volume                     20159(3)
_computing_cell_refinement       'SAINT+ Ver. 2016.5-0 (Bruker-AXS, 2016)'
_computing_data_collection       'APEX3 Ver. 2016.5-0 (Bruker-AXS, 2016)'
_computing_data_reduction        'SAINT+ Ver. 2016.5-0 (Bruker-AXS, 2016)'
_computing_molecular_graphics    'Olex2 (Dolomanov et al., 2009)'
_computing_publication_material  'Olex2 (Dolomanov et al., 2009)'
_computing_structure_refinement  'ShelXL (Sheldrick, 2015)'
_computing_structure_solution    'ShelXT (Sheldrick, 2015)'
_diffrn_ambient_temperature      173.05
_diffrn_detector_area_resol_mean 7.9
_diffrn_detector_type            'Bruker APEX II'
_diffrn_measured_fraction_theta_full 0.997
_diffrn_measured_fraction_theta_max 0.996
_diffrn_measurement_device       'three-circle diffractometer'
_diffrn_measurement_device_type  'Bruker APEX II Quazar'
_diffrn_measurement_method       '0.5\% \w and 0.5\% \f scans'
_diffrn_radiation_type           MoK\a
_diffrn_radiation_wavelength     0.71073
_diffrn_reflns_av_R_equivalents  0.1882
_diffrn_reflns_av_unetI/netI     0.1452
_diffrn_reflns_Laue_measured_fraction_full 0.997
_diffrn_reflns_Laue_measured_fraction_max 0.996
_diffrn_reflns_limit_h_max       25
_diffrn_reflns_limit_h_min       -32
_diffrn_reflns_limit_k_max       32
_diffrn_reflns_limit_k_min       -23
_diffrn_reflns_limit_l_max       29
_diffrn_reflns_limit_l_min       -21
_diffrn_reflns_number            20608
_diffrn_reflns_point_group_measured_fraction_full 0.998
_diffrn_reflns_point_group_measured_fraction_max 0.997
_diffrn_reflns_theta_full        25.030
_diffrn_reflns_theta_max         25.030
_diffrn_reflns_theta_min         2.592
_exptl_absorpt_coefficient_mu    0.603
_exptl_absorpt_correction_T_max  0.86
_exptl_absorpt_correction_T_min  0.84
_exptl_absorpt_correction_type   multi-scan
_exptl_absorpt_process_details
;
SADABS-2016/2 (Krause et al., 2015) was used for absorption correction.
;
_exptl_crystal_colour            colorless
_exptl_crystal_density_diffrn    0.904
_exptl_crystal_density_method    'not measured'
_exptl_crystal_description       block
_exptl_crystal_F_000             5616
_exptl_crystal_size_max          0.24
_exptl_crystal_size_mid          0.22
_exptl_crystal_size_min          0.2
_refine_diff_density_max         0.530
_refine_diff_density_min         -0.538
_refine_diff_density_rms         0.068
_refine_ls_abs_structure_details
;
 Refined as an inversion twin.
;
_refine_ls_abs_structure_Flack   0.24(13)
_refine_ls_extinction_method     none
_refine_ls_goodness_of_fit_ref   0.943
_refine_ls_hydrogen_treatment    constr
_refine_ls_matrix_type           full
_refine_ls_number_parameters     128
_refine_ls_number_reflns         3270
_refine_ls_number_restraints     360
_refine_ls_restrained_S_all      0.973
_refine_ls_R_factor_all          0.2099
_refine_ls_R_factor_gt           0.1055
_refine_ls_shift/su_max          0.000
_refine_ls_shift/su_mean         0.000
_refine_ls_structure_factor_coef Fsqd
_refine_ls_weighting_details
'w=1/[\s^2^(Fo^2^)+(0.1877P)^2^] where P=(Fo^2^+2Fc^2^)/3'
_refine_ls_weighting_scheme      calc
_refine_ls_wR_factor_gt          0.2581
_refine_ls_wR_factor_ref         0.3285
_reflns_Friedel_coverage         0.874
_reflns_Friedel_fraction_full    0.999
_reflns_Friedel_fraction_max     0.999
_reflns_number_gt                1273
_reflns_number_total             3270
_reflns_threshold_expression     'I > 2\s(I)'
_cod_data_source_file            c8dt02580k2.cif
_cod_data_source_block           VMOP_19
_cod_depositor_comments
'Adding full bibliography for 7047325--7047326.cif.'
_cod_original_cell_volume        20160(4)
_cod_database_code               7047326
_shelx_shelxl_version_number     2018/1
_shelx_space_group_comment
;
The symmetry employed for this shelxl refinement is uniquely defined
by the following loop, which should always be used as a source of
symmetry information in preference to the above space-group names.
They are only intended as comments.
;
_olex2_refinement_description
;
1. Twinned data refinement
 Scales: 0.76(13)
 0.24(13)
2. Fixed Uiso
 At 1.2 times of:
  All C(H) groups
 At 1.5 times of:
  All C(H,H,H) groups
3. Restrained distances
 O2-C10
 1.4 with sigma of 0.02
 C6-C5 = C5-C4 = C4-C3 = C3-C2 = N1-C2
 1.38 with sigma of 0.01
4. Uiso/Uaniso restraints and constraints
C2 \\sim C3 \\sim C4 \\sim C5 \\sim C6 \\sim C7 \\sim C8 \\sim C9 \\sim C10
\\sim O1 \\sim O2 \\sim O3 \\sim O4 \\sim O5 \\sim O6 \\sim O7 \\sim S1 \\sim
V1: within 3.8A with sigma of 0.01 and sigma for terminal atoms of 0.03
5. Others
 Fixed Sof: H8A(0.5) H8B(0.5) H8C(0.5) H9A(0.5) H9B(0.5) H9C(0.5) H10A(0.5)
 H10B(0.5) H10C(0.5)
6.a Aromatic/amide H refined with riding coordinates:
 C4(H4), C5(H5)
6.b Idealised Me refined as rotating group:
 C8(H8A,H8B,H8C), C9(H9A,H9B,H9C), C10(H10A,H10B,H10C)
;
_shelx_res_file
;
TITL SIR97 run in space group I -4 3 m
    1_sq.res
    created by SHELXL-2018/1 at 08:43:54 on 12-Apr-2018
CELL 0.71073 27.2164 27.2164 27.2164 90 90 90
ZERR 2 0.002 0.002 0.002 0 0 0
LATT -2
SYMM -X,-Y,+Z
SYMM +X,-Y,-Z
SYMM -X,+Y,-Z
SYMM +Z,+X,+Y
SYMM +Y,+Z,+X
SYMM -Z,-X,+Y
SYMM -Y,+Z,-X
SYMM +Z,-X,-Y
SYMM -Y,-Z,+X
SYMM -Z,+X,-Y
SYMM +Y,-Z,-X
SYMM +Y,+X,+Z
SYMM -Y,-X,+Z
SYMM -Y,+X,-Z
SYMM +Y,-X,-Z
SYMM +X,+Z,+Y
SYMM +Z,+Y,+X
SYMM -X,-Z,+Y
SYMM +Z,-Y,-X
SYMM -X,+Z,-Y
SYMM -Z,-Y,+X
SYMM +X,-Z,-Y
SYMM -Z,+Y,-X
SFAC C H N O S V
UNIT 312 504 40 216 8 48
DFIX 1.4 O2 C10
DFIX 1.38 0.01 C6 C5 C5 C4 C4 C3 C3 C2 N1 C2
SIMU 0.01 0.03 3.8 $C $O $S V1

L.S. 99 0 60
PLAN  5
TEMP -100.1
CONF
MORE -1
ABIN
fmap 2
acta
MERG 2
TWIN -1 0 0 0 -1 0 0 0 -1 2
OMIT 0 2 4
OMIT -1 2 5
OMIT 1 2 5
REM <olex2.extras>
REM <HklSrc "%.\\1_sq.hkl">
REM </olex2.extras>

WGHT    0.187700
BASF   0.24413
FVAR       0.04342
V1    6    0.679338    0.232959    0.151850    11.00000    0.12227    0.17115 =
         0.18843   -0.03535    0.04278    0.07293
S1    5    0.792256    0.207744    0.207744    10.16667    0.14286    0.14286 =
         0.14286   -0.05121    0.05121    0.05121
O1    4    0.715047    0.226580    0.087649    11.00000    0.11809    0.13408 =
         0.16960   -0.02793    0.02105    0.07064
O2    4    0.697076    0.302924    0.160501    10.50000    0.14380    0.14380 =
         0.18561   -0.02957    0.02957    0.06710
O3    4    0.626894    0.237226    0.133084    11.00000    0.12616    0.19382 =
         0.21586   -0.04607    0.05352    0.05382
O4    4    0.665649    0.219769    0.219769    10.50000    0.13906    0.17102 =
         0.17102   -0.03495    0.04903    0.04903
O5    4    0.760148    0.239852    0.177114    10.50000    0.13409    0.13409 =
         0.16524   -0.03874    0.03874    0.06622
O6    4    0.687841    0.161979    0.161979    10.50000    0.11525    0.16538 =
         0.16538   -0.03631    0.04861    0.04861
O7    4    0.821090    0.178910    0.178910    10.16667    0.11932    0.11932 =
         0.11932   -0.03647    0.03647    0.03647
N1    3    0.878255    0.182957   -0.121745    10.50000    0.12266    0.11537 =
         0.12266    0.02866   -0.01325    0.02866
C2    1    0.838116    0.161884   -0.100700    10.50000    0.10440    0.10440 =
         0.14066   -0.00616    0.00616    0.04007
C3    1    0.818349    0.181651   -0.058952    10.50000    0.10292    0.10292 =
         0.13367   -0.00454    0.00454    0.04574
C4    1    0.834747    0.223878   -0.038017    11.00000    0.10920    0.10916 =
         0.14374   -0.00009    0.00867    0.05010
AFIX  43
H4    2    0.861610    0.240116   -0.053284    11.00000   -1.20000
AFIX   0
C5    1    0.815639    0.244540    0.003003    11.00000    0.11145    0.11425 =
         0.14431   -0.01194    0.00549    0.05422
AFIX  43
H5    2    0.830715    0.272753    0.016972    11.00000   -1.20000
AFIX   0
C6    1    0.775013    0.224987    0.024144    10.50000    0.11000    0.11000 =
         0.14871   -0.01192    0.01192    0.05792
C7    1    0.753425    0.246575    0.068835    10.50000    0.12624    0.12624 =
         0.16356   -0.02037    0.02037    0.06191
C8    1    0.707991    0.126639    0.126639    10.50000    0.13689    0.15940 =
         0.15940   -0.03411    0.03830    0.03830
PART -1
AFIX 137
H8A   2    0.684936    0.122546    0.099285    10.50000   -1.50000
H8B   2    0.713039    0.094926    0.142929    10.50000   -1.50000
H8C   2    0.739462    0.138831    0.114089    10.50000   -1.50000
AFIX   0
PART 0
C9    1    0.636507    0.253873    0.253873    10.50000    0.18644    0.17346 =
         0.17346   -0.04801    0.03677    0.03677
PART -1
AFIX 137
H9A   2    0.658833    0.268794    0.277862    10.50000   -1.50000
H9B   2    0.611280    0.234863    0.271159    10.50000   -1.50000
H9C   2    0.620785    0.279754    0.234390    10.50000   -1.50000
AFIX   0
PART 0
C10   1    0.658462    0.341538    0.173835    10.50000    0.18493    0.18493 =
         0.21635   -0.01017    0.01017    0.08783
PART -1
AFIX 137
H10A  2    0.631926    0.340877    0.149504    10.50000   -1.50000
H10B  2    0.673701    0.374161    0.174091    10.50000   -1.50000
H10C  2    0.645024    0.334311    0.206450    10.50000   -1.50000
AFIX   0
HKLF 4




REM  SIR97 run in space group I -4 3 m
REM R1 =  0.1055 for    1273 Fo > 4sig(Fo)  and  0.2099 for all    3270 data
REM    128 parameters refined using    360 restraints

END

WGHT      0.1866      0.0000

REM Highest difference peak  0.530,  deepest hole -0.538,  1-sigma level  0.068
Q1    1   0.7080  0.2688  0.1327  11.00000  0.05    0.42
Q2    1   0.6998  0.2059  0.1229  11.00000  0.05    0.39
Q3    1   0.6705  0.2761  0.1342  11.00000  0.05    0.38
Q4    1   0.6929  0.1952  0.1952  10.50000  0.05    0.37
Q5    1   0.7226  0.2774  0.1356  10.50000  0.05    0.36
;
_shelx_res_checksum              56362
_shelx_fab_file
;
    2    2    2   -412.68    195.11
    1    2    3    -31.90    103.93
    2    3    3   -161.61     52.24
    0    3    3    276.86     -2.86
    0    0    4     88.29      3.29
    1    1    4    -33.02    -43.65
    2    2    4    -29.53     -0.91
    0    2    4   -119.19      5.47
    3    3    4    -70.47    -22.72
    1    3    4     69.09    -19.62
    4    4    4    113.97   -194.30
    2    4    4    181.77   -111.64
    0    4    4    113.62      6.27
    0    1    5    -25.83      4.89
    1    2    5     47.52    -21.23
    2    3    5   -155.30    -68.83
    0    3    5    106.10      0.02
    3    4    5    -66.82    -27.84
    1    4    5    125.97    -47.70
    4    5    5     35.40     63.37
    2    5    5     15.49     46.55
    0    5    5    248.33     -8.09
    0    0    6    247.35     -4.74
    1    1    6     29.56    -67.68
    2    2    6    -51.54    -35.10
    0    2    6      4.04      1.45
    3    3    6     32.21    -52.61
    1    3    6     27.09    -36.61
    4    4    6    -16.05     -8.44
    2    4    6     24.44     -0.23
    0    4    6     26.23      4.48
    5    5    6     26.57     46.85
    3    5    6      8.83      7.70
    1    5    6    -17.19     21.18
    6    6    6    -23.03    -57.89
    4    6    6    -26.29     15.66
    2    6    6    -10.61     34.88
    0    6    6    -13.96    -14.23
    0    1    7    -89.12      0.58
    1    2    7      0.36    -53.93
    2    3    7    -82.79    -69.08
    0    3    7    -34.02      0.77
    3    4    7     18.73    -28.57
    1    4    7     48.98    -58.05
    4    5    7     55.35     20.46
    2    5    7     26.89     42.79
    0    5    7     76.04     -5.33
    5    6    7      1.68     34.00
    3    6    7     39.44     12.78
    1    6    7    -10.34     -4.80
    6    7    7    -68.84     16.57
    4    7    7     -7.50    -25.21
    2    7    7     37.07     10.41
    0    7    7     21.06      3.60
    0    0    8    168.96     -0.56
    1    1    8     78.75    -35.30
    2    2    8    -44.75     23.68
    0    2    8     -0.81      0.11
    3    3    8    -24.49     -6.55
    1    3    8    -35.95      6.25
    4    4    8     30.30    -33.12
    2    4    8     26.68     21.07
    0    4    8      3.40     -8.46
    5    5    8     37.11      2.36
    3    5    8      9.69     -3.26
    1    5    8     -1.93     34.89
    6    6    8     -7.70    -26.49
    4    6    8     12.44     -0.78
    2    6    8      9.42     16.61
    0    6    8     -0.52    -26.73
    7    7    8    -44.47    -14.49
    5    7    8     -1.02     16.17
    3    7    8      7.82     -2.95
    1    7    8     37.93    -11.62
    8    8    8    -17.76     -8.47
    6    8    8    -21.32     -5.55
    4    8    8     23.81     25.63
    2    8    8     14.86      3.05
    0    8    8     26.41    -20.09
    0    1    9    -30.49     -0.20
    1    2    9     -9.89      2.44
    2    3    9      4.89    -13.02
    0    3    9     16.27      0.54
    3    4    9     50.40     24.94
    1    4    9     -3.56      3.21
    4    5    9     21.95     20.73
    2    5    9     -8.48      5.89
    0    5    9      5.37     -1.68
    5    6    9      0.87    -11.22
    3    6    9     44.27    -11.66
    1    6    9    -21.47     -5.53
    6    7    9    -18.37      9.85
    4    7    9    -10.43     -0.26
    2    7    9      2.86    -21.71
    0    7    9    -10.63      3.76
    7    8    9    -13.43     -3.04
    5    8    9    -15.47      0.29
    3    8    9     14.27    -15.75
    1    8    9     12.85    -10.45
    8    9    9     18.01    -10.78
    6    9    9      5.00     16.11
    4    9    9     10.79     18.96
    2    9    9     13.88    -36.42
    0    9    9      4.19      1.66
    0    0   10     46.57     -1.09
    1    1   10     43.62    -18.68
    2    2   10    -49.67     25.75
    0    2   10    -32.82      0.71
    3    3   10      8.09      8.21
    1    3   10     14.41     12.22
    4    4   10     -4.56    -33.05
    2    4   10     20.54      9.23
    0    4   10     13.36     -1.58
    5    5   10     37.10    -17.37
    3    5   10     -6.32    -16.72
    1    5   10     28.49     14.87
    6    6   10     -9.90      8.21
    4    6   10    -17.56      1.30
    2    6   10     -1.94      1.48
    0    6   10     -2.14     -8.07
    7    7   10    -19.10    -14.28
    5    7   10      4.90      7.07
    3    7   10    -35.34     -8.90
    1    7   10     25.60    -19.02
    8    8   10      9.75     -6.98
    6    8   10    -14.71      0.23
    4    8   10      2.81      2.39
    2    8   10      3.34    -19.27
    0    8   10     20.85     -9.01
    9    9   10     26.07     -8.49
    7    9   10     -7.05      4.72
    5    9   10     -8.48     19.64
    3    9   10     -6.87      5.72
    1    9   10    -10.96    -11.55
   10   10   10     10.87    -10.81
    8   10   10     19.56    -10.78
    6   10   10     -8.85     10.63
    4   10   10      2.78      4.20
    2   10   10      1.67     -0.56
    0   10   10     16.31     -3.25
    0    1   11     -9.39     -1.65
    1    2   11      8.82      6.20
    2    3   11      5.56      5.06
    0    3   11     -6.72     -1.69
    3    4   11     28.30     30.46
    1    4   11      9.92     -3.76
    4    5   11     24.95     23.26
    2    5   11      8.07      6.51
    0    5   11     16.08     -1.97
    5    6   11     -0.56    -15.80
    3    6   11      3.00     -0.84
    1    6   11    -13.14     -2.91
    6    7   11      5.29     -5.03
    4    7   11     12.11     -5.95
    2    7   11     11.35     -3.62
    0    7   11      7.58     -0.61
    7    8   11     16.55     11.20
    5    8   11      3.41     -7.29
    3    8   11      2.00    -15.46
    1    8   11      7.63      5.19
    8    9   11     24.05      0.17
    6    9   11     -1.26     -0.94
    4    9   11     11.76      5.32
    2    9   11     11.01    -14.47
    0    9   11     12.74     -1.25
    9   10   11     10.10     -9.48
    7   10   11     -8.88    -13.05
    5   10   11     10.09      7.12
    3   10   11     12.78      0.62
    1   10   11     -4.36     -6.02
   10   11   11     -9.25      5.22
    8   11   11    -13.06     -5.58
    6   11   11    -35.39    -15.29
    4   11   11     -1.99     -3.68
    2   11   11     -6.66     -7.89
    0   11   11      7.80     -2.46
    0    0   12     19.67     -1.17
    1    1   12      4.04    -16.64
    2    2   12      6.52     -8.13
    0    2   12      2.31     -0.26
    3    3   12     30.15      6.24
    1    3   12     16.96      3.73
    4    4   12      2.62     14.52
    2    4   12     33.01      3.17
    0    4   12     22.65      0.74
    5    5   12      9.90      6.00
    3    5   12     -5.10     -2.34
    1    5   12      2.75     15.57
    6    6   12      2.02     10.40
    4    6   12     -7.27     20.31
    2    6   12      1.92     -7.00
    0    6   12     -7.39      0.77
    7    7   12     19.57      6.93
    5    7   12      7.19      8.21
    3    7   12    -19.99     -5.03
    1    7   12      1.27     -5.25
    8    8   12      6.24     -2.18
    6    8   12      0.70     -4.63
    4    8   12      3.91      2.57
    2    8   12    -10.63    -22.66
    0    8   12     -1.78     -1.15
    9    9   12     -0.23     -2.61
    7    9   12      7.17      6.35
    5    9   12     -2.89     -8.26
    3    9   12      5.35     -0.54
    1    9   12     -0.59      0.98
   10   10   12    -15.35     10.02
    8   10   12     -4.20     -4.50
    6   10   12      3.56      0.88
    4   10   12     16.57      1.30
    2   10   12      5.36     -3.00
    0   10   12      6.52      0.13
   11   11   12     -4.83     22.97
    9   11   12     -5.34      1.20
    7   11   12     -6.56     -7.07
    5   11   12      0.95     -3.40
    3   11   12      9.32      3.08
    1   11   12      0.37      0.15
   12   12   12     -6.30      9.48
   10   12   12     -7.69     16.65
    8   12   12    -23.46     -1.27
    6   12   12    -11.20     -4.07
    4   12   12     24.44    -11.86
    2   12   12     33.37    -32.38
    0   12   12     24.60      0.01
    0    1   13     21.78     -1.54
    1    2   13     -4.92      3.68
    2    3   13    -14.19     -9.32
    0    3   13     -4.92     -0.73
    3    4   13      7.10     18.31
    1    4   13      2.21     -9.80
    4    5   13     -5.04     20.12
    2    5   13    -12.75     -8.91
    0    5   13      9.73     -1.05
    5    6   13    -18.06     -3.33
    3    6   13     -3.68      9.81
    1    6   13      2.34      1.26
    6    7   13    -13.72      1.67
    4    7   13     -8.04     -0.55
    2    7   13     -2.28      6.33
    0    7   13      4.04      1.31
    7    8   13     -5.28     13.06
    5    8   13      7.55     -7.30
    3    8   13      1.44     -2.74
    1    8   13      2.07     11.98
    8    9   13     11.78     14.32
    6    9   13     11.35      3.79
    4    9   13      3.80      5.98
    2    9   13      1.25     -0.06
    0    9   13      4.38     -0.54
    9   10   13     -8.31     13.74
    7   10   13    -25.01    -16.41
    5   10   13     21.67     -4.93
    3   10   13     14.41      4.26
    1   10   13      3.43      0.49
   10   11   13     -6.15      9.45
    8   11   13     -6.05      3.63
    6   11   13     -3.15      1.06
    4   11   13      1.55      9.38
    2   11   13    -11.38     10.50
    0   11   13      1.85     -1.73
   11   12   13      7.36      7.84
    9   12   13     12.32      6.35
    7   12   13     -5.76     -5.49
    5   12   13      5.77      5.03
    3   12   13     -0.30     10.45
    1   12   13      3.10      2.00
   12   13   13      3.12     -1.58
   10   13   13      6.08     -1.70
    8   13   13      2.25      0.57
    6   13   13     -4.27      2.27
    4   13   13     -3.32     -1.01
    2   13   13     14.70      6.02
    0   13   13     32.84      0.34
    0    0   14    -12.57      1.54
    1    1   14     -0.33    -17.64
    2    2   14    -10.31     -1.77
    0    2   14    -11.70      0.98
    3    3   14      0.55      1.02
    1    3   14    -10.58     -4.07
    4    4   14     -6.78     -4.72
    2    4   14      4.70      1.47
    0    4   14    -13.90     -0.78
    5    5   14      5.51      7.56
    3    5   14      1.32     -3.33
    1    5   14     -9.93      2.52
    6    6   14    -12.86     16.68
    4    6   14     -1.74      7.96
    2    6   14      9.18     -7.18
    0    6   14    -18.22     -2.14
    7    7   14      8.65    -16.42
    5    7   14      7.68     -2.90
    3    7   14     -2.02     -8.61
    1    7   14     -3.76    -11.47
    8    8   14     10.97     -3.71
    6    8   14      5.24      0.02
    4    8   14     16.18     -2.73
    2    8   14      0.78     -9.87
    0    8   14     -6.98     -0.30
    9    9   14     -1.14      7.67
    7    9   14      2.35     -7.78
    5    9   14      5.46    -16.84
    3    9   14      5.64     -1.16
    1    9   14      2.60     -1.20
   10   10   14    -25.20    -13.36
    8   10   14     -8.23     -9.51
    6   10   14     -3.00    -11.56
    4   10   14      3.12    -17.14
    2   10   14     -6.63      2.54
    0   10   14    -12.34     -0.17
   11   11   14     -5.51      4.23
    9   11   14      0.55      7.91
    7   11   14     -3.74     -1.22
    5   11   14     -3.21      0.86
    3   11   14      0.38      5.36
    1   11   14      4.82     -1.27
   12   12   14     -7.16     -3.69
   10   12   14      3.28     -6.68
    8   12   14     -1.58      4.09
    6   12   14     -7.90      5.66
    4   12   14     -1.52     -6.81
    2   12   14     -3.19    -11.24
    0   12   14     -9.03     -0.84
   13   13   14      0.43    -19.27
   11   13   14      2.23    -11.75
    9   13   14     11.33     -8.12
    7   13   14     -4.95     -7.84
    5   13   14     -8.87      8.11
    3   13   14     -6.99      2.04
    1   13   14      6.49     -4.64
   14   14   14     11.38     -7.02
   12   14   14     -7.74      2.04
   10   14   14      5.84    -15.54
    8   14   14     -2.96     -4.28
    6   14   14      7.10      8.73
    4   14   14      7.33      1.83
    2   14   14     -3.82      8.81
    0   14   14      7.48     -0.44
    0    1   15      1.36      1.86
    1    2   15      0.85     15.58
    2    3   15      1.59     -6.72
    0    3   15     -4.73      0.85
    3    4   15      5.96      6.98
    1    4   15     -3.85     -7.41
    4    5   15     -0.85     13.18
    2    5   15     -4.84     -4.81
    0    5   15      9.98      0.34
    5    6   15     -1.00     -5.98
    3    6   15      6.15      4.23
    1    6   15      4.11     -6.36
    6    7   15      2.06     -8.78
    4    7   15     -1.96      1.91
    2    7   15     -3.93      8.27
    0    7   15    -13.37      1.78
    7    8   15     -3.31      0.80
    5    8   15      9.10     -5.20
    3    8   15      6.14      2.61
    1    8   15     -6.16      5.60
    8    9   15     -0.69     -2.12
    6    9   15     11.38     -3.72
    4    9   15      2.42      4.03
    2    9   15      3.88    -12.06
    0    9   15     -8.57      1.11
    9   10   15     -7.08     -3.02
    7   10   15     -6.35     -3.54
    5   10   15     18.62      1.57
    3   10   15      2.20      1.79
    1   10   15     -5.62      2.96
   10   11   15     -1.67     -6.77
    8   11   15      0.09      4.13
    6   11   15      7.71     -1.42
    4   11   15      1.66      2.35
    2   11   15     -8.06     -8.84
    0   11   15     -2.96      0.52
   11   12   15     -3.33     -2.22
    9   12   15     -0.15     -4.36
    7   12   15      5.24      1.47
    5   12   15      5.07     -5.23
    3   12   15     -2.56    -11.49
    1   12   15     13.40      0.70
   12   13   15      3.26     -0.15
   10   13   15      4.13     -4.03
    8   13   15      2.63      5.38
    6   13   15    -10.04     -2.43
    4   13   15    -18.66      0.61
    2   13   15      3.38     -2.96
    0   13   15     16.57     -0.20
   13   14   15      6.62     -3.83
   11   14   15     -2.55      6.54
    9   14   15     -5.26     -2.79
    7   14   15      2.49     -2.72
    5   14   15     -1.91     -2.81
    3   14   15     -1.29    -12.94
    1   14   15      3.34     -5.85
   14   15   15     -6.84      2.34
   12   15   15     -8.64     12.37
   10   15   15     -9.69      8.32
    8   15   15     -1.87     -2.12
    6   15   15     -5.26    -15.70
    4   15   15    -11.59     -0.27
    2   15   15      1.89     -7.78
    0   15   15      9.09     -1.68
    0    0   16     38.89     -1.92
    1    1   16     26.84    -15.51
    2    2   16    -17.99      7.45
    0    2   16     18.07     -0.59
    3    3   16      2.35    -27.63
    1    3   16      9.26    -11.64
    4    4   16     -8.80    -20.19
    2    4   16     -4.89      6.89
    0    4   16      6.59     -0.46
    5    5   16      1.38      4.20
    3    5   16      5.53     -8.41
    1    5   16     -5.62      3.44
    6    6   16     -9.91      5.62
    4    6   16     -2.51     -7.97
    2    6   16      8.25     -0.82
    0    6   16     -1.45     -1.75
    7    7   16    -13.01    -10.76
    5    7   16      1.62      5.65
    3    7   16      6.27     11.81
    1    7   16      0.09      2.30
    8    8   16     13.64     -0.71
    6    8   16      6.42      8.51
    4    8   16      3.91     12.95
    2    8   16     -5.30     13.99
    0    8   16      1.30      0.79
    9    9   16     -3.67      1.13
    7    9   16    -19.27    -12.14
    5    9   16     -3.00    -14.67
    3    9   16      4.64      4.37
    1    9   16     -5.48      1.38
   10   10   16     -7.27      0.58
    8   10   16      6.98      1.24
    6   10   16      3.15      0.66
    4   10   16     -4.57     -3.51
    2   10   16      0.35      5.93
    0   10   16      3.72      0.39
   11   11   16      2.79      5.35
    9   11   16      7.05      6.21
    7   11   16    -12.57      5.66
    5   11   16     -8.02      6.17
    3   11   16     -7.60      6.05
    1   11   16    -12.62      3.49
   12   12   16      2.63     10.22
   10   12   16      2.83      4.67
    8   12   16      7.73      2.86
    6   12   16     -2.67      2.38
    4   12   16    -13.21     -5.15
    2   12   16      0.95    -13.68
    0   12   16      2.44     -1.06
   13   13   16      8.64     -1.32
   11   13   16     -0.64      1.39
    9   13   16     -2.34     -5.85
    7   13   16    -13.19    -16.12
    5   13   16     -1.45    -11.17
    3   13   16     -2.21    -11.60
    1   13   16     16.07      0.15
   14   14   16     17.51     -5.95
   12   14   16      5.33     10.34
   10   14   16      3.03     -4.67
    8   14   16     -2.79    -15.28
    6   14   16     13.28     -7.02
    4   14   16     -2.97     -1.12
    2   14   16     -4.94      1.08
    0   14   16      3.94      0.04
   15   15   16     11.62      5.69
   13   15   16     10.71      2.34
   11   15   16     -3.10      7.97
    9   15   16    -11.85      7.02
    7   15   16     -6.58     -5.04
    5   15   16      3.03     -7.63
    3   15   16     -3.98      8.52
    1   15   16     -2.05     11.12
   16   16   16     14.97      6.99
   14   16   16      3.42     -2.16
   12   16   16     -8.80      9.43
   10   16   16     -1.22    -10.08
    8   16   16    -10.99    -20.31
    6   16   16     15.87     -9.49
    4   16   16     -3.50     -1.24
    2   16   16      3.14     -7.35
    0   16   16      0.34     -1.57
    0    1   17     -4.84      2.74
    1    2   17      7.13     11.27
    2    3   17      1.75    -12.47
    0    3   17    -11.47      0.60
    3    4   17      0.12      1.61
    1    4   17      5.18     -5.64
    4    5   17     -0.53      6.95
    2    5   17     -7.19     -8.05
    0    5   17      1.95      0.01
    5    6   17     -2.47      1.79
    3    6   17     -5.23      7.19
    1    6   17      2.02     -9.36
    6    7   17      0.43      1.51
    4    7   17     -0.52      0.76
    2    7   17     10.10      3.44
    0    7   17      1.92      1.54
    7    8   17     -2.30      5.32
    5    8   17     -6.54      0.16
    3    8   17     -1.66      5.66
    1    8   17     -0.64      1.48
    8    9   17      1.34      0.50
    6    9   17     -2.77     11.59
    4    9   17     -5.47      3.09
    2    9   17      9.28    -11.93
    0    9   17     -0.90      0.60
    9   10   17      0.69     -5.32
    7   10   17     -4.20     -0.36
    5   10   17     -0.15      6.78
    3   10   17     -2.72      1.10
    1   10   17      3.21      1.95
   10   11   17      0.73     -3.59
    8   11   17     -4.32      7.18
    6   11   17     -2.81     10.57
    4   11   17      4.96     -4.12
    2   11   17     -2.29    -12.35
    0   11   17      3.51      0.23
   11   12   17      1.46      3.88
    9   12   17      0.08     -1.25
    7   12   17      4.89     -5.11
    5   12   17      1.93      6.16
    3   12   17     -4.08      2.73
    1   12   17      0.37      2.20
   12   13   17      5.65     -1.94
   10   13   17      2.62     -9.37
    8   13   17     -1.16     -1.58
    6   13   17     -1.66     -3.19
    4   13   17      1.37     -5.02
    2   13   17     -2.46      5.19
    0   13   17      2.41     -0.56
   13   14   17      5.54     -2.40
   11   14   17      0.84      7.01
    9   14   17     -4.29     -0.99
    7   14   17     -1.26    -10.23
    5   14   17      2.94      5.82
    3   14   17      1.51      8.32
    1   14   17     -7.83      0.24
   14   15   17     -9.20      9.26
   12   15   17     -1.78      6.23
   10   15   17     -2.21     -1.50
    8   15   17     -3.00     -2.08
    6   15   17      1.66     -1.76
    4   15   17      7.94      0.31
    2   15   17      2.12      1.61
    0   15   17      3.85     -0.49
   15   16   17      2.74      4.79
   13   16   17      5.87    -10.84
   11   16   17      4.12     -1.28
    9   16   17      6.72      7.36
    7   16   17      2.50    -12.39
    5   16   17      7.74    -13.66
    3   16   17      0.06     11.49
    1   16   17      1.47      8.69
   16   17   17     -9.71      9.52
   14   17   17     -2.54      9.26
   12   17   17     16.12      3.80
   10   17   17      0.09     -1.76
    8   17   17    -15.51     17.22
    6   17   17     -7.48     21.86
    4   17   17      0.51     -1.49
    2   17   17     -0.84    -11.06
    0   17   17      6.82      3.20
    0    0   18     12.30     -2.66
    1    1   18     -1.43    -12.76
    2    2   18    -16.13      1.29
    0    2   18      7.96      0.72
    3    3   18     -7.71     -6.67
    1    3   18     -0.50     -7.81
    4    4   18     -4.17     -8.74
    2    4   18     -6.28      7.50
    0    4   18     -3.05      2.03
    5    5   18      0.01     -1.36
    3    5   18      2.43      1.55
    1    5   18     -5.70      5.25
    6    6   18      1.56     10.61
    4    6   18     -2.60     -3.13
    2    6   18      1.66      1.84
    0    6   18     -6.96      0.19
    7    7   18     -0.87      3.01
    5    7   18     -2.07     -0.51
    3    7   18     -3.55     10.41
    1    7   18     -2.10      5.56
    8    8   18      7.18     -1.12
    6    8   18      6.13     -5.08
    4    8   18     -8.42     -0.59
    2    8   18     -5.42      7.79
    0    8   18     15.89      0.51
    9    9   18     -8.63     -2.46
    7    9   18     -7.22     -0.30
    5    9   18     -2.62    -12.02
    3    9   18      1.56      5.32
    1    9   18     -1.29      3.42
   10   10   18      2.14     -1.20
    8   10   18      5.97      2.95
    6   10   18      3.80    -11.70
    4   10   18     -5.23     -2.97
    2   10   18      6.37      4.18
    0   10   18     17.51     -0.24
   11   11   18     -9.60     -3.60
    9   11   18     -3.35    -10.95
    7   11   18      0.64      5.84
    5   11   18      5.07      3.85
    3   11   18      0.20     -3.49
    1   11   18     -6.61      0.34
   12   12   18      9.82      6.62
   10   12   18      2.09      3.35
    8   12   18      2.25      1.93
    6   12   18      0.22     -7.08
    4   12   18      6.29      4.75
    2   12   18     10.36     -5.73
    0   12   18      2.84     -0.58
   13   13   18      7.71     -0.61
   11   13   18     -4.81     -3.17
    9   13   18     -2.34     -9.19
    7   13   18     10.50     -2.27
    5   13   18     17.77      0.32
    3   13   18     -1.99     -8.88
    1   13   18     -1.39      2.52
   14   14   18      0.28      0.64
   12   14   18      8.44      3.03
   10   14   18      2.16      0.43
    8   14   18     -5.35     -6.64
    6   14   18      9.81    -16.12
    4   14   18     12.38      6.62
    2   14   18      1.39      4.05
    0   14   18     -4.23     -0.42
   15   15   18     -8.99      6.75
   13   15   18     -2.30      8.33
   11   15   18      0.59     -5.42
    9   15   18      4.86      4.78
    7   15   18     14.97      2.90
    5   15   18      7.48     -9.27
    3   15   18     -7.60      4.51
    1   15   18    -16.12      5.87
   16   16   18     -6.63      3.04
   14   16   18    -13.07      3.91
   12   16   18     -8.49      2.46
   10   16   18      8.46     -4.27
    8   16   18     -7.89      3.54
    6   16   18      4.09     -0.44
    4   16   18     -0.90      7.39
    2   16   18      2.26     -5.96
    0   16   18      1.25     -1.80
   17   17   18    -10.94     12.86
   15   17   18     -5.76     -0.21
   13   17   18     -8.04      2.00
   11   17   18     -0.71     -6.20
    9   17   18     17.15      4.67
    7   17   18     21.69     -1.66
    5   17   18      6.65    -11.24
    3   17   18     10.52      7.16
    1   17   18     19.05      1.11
   18   18   18    -15.32    -28.29
   16   18   18    -10.64     -2.69
   14   18   18     -0.92      9.46
   12   18   18    -12.41      5.31
   10   18   18      7.25     -5.34
    8   18   18      5.04      8.78
    6   18   18      2.56      0.38
    4   18   18     -4.93      3.38
    2   18   18     -5.33    -12.08
    0   18   18     10.38      0.04
    0    1   19     10.45     -0.89
    1    2   19     -4.35      2.28
    2    3   19     -6.93    -13.80
    0    3   19     -5.18      1.05
    3    4   19      0.81     -1.48
    1    4   19     -6.31     -3.18
    4    5   19      5.34     -1.53
    2    5   19    -10.08    -10.72
    0    5   19      4.94      0.32
    5    6   19      6.98      5.79
    3    6   19      8.61      8.99
    1    6   19      0.71     -6.74
    6    7   19      0.12      2.22
    4    7   19      2.14     -0.81
    2    7   19      4.04      5.69
    0    7   19      2.51      0.24
    7    8   19     -6.33      0.88
    5    8   19     -8.61     -3.44
    3    8   19     -0.15     -1.52
    1    8   19      0.34     -0.68
    8    9   19      8.89    -10.24
    6    9   19     -0.75     -2.94
    4    9   19     -9.90     -2.45
    2    9   19     -0.20      4.69
    0    9   19      0.76      0.64
    9   10   19      5.68      0.68
    7   10   19     -4.06     -1.00
    5   10   19     -3.14      0.35
    3   10   19    -11.92     -6.59
    1   10   19      1.82      1.60
   10   11   19     14.53      6.27
    8   11   19     10.60     -0.63
    6   11   19     -0.31      5.55
    4   11   19     -1.37      5.53
    2   11   19     -7.65     10.25
    0   11   19      1.15      0.78
   11   12   19      8.62      0.18
    9   12   19      1.74     -3.62
    7   12   19     -5.50     -9.80
    5   12   19      3.60      1.76
    3   12   19     -6.92     -1.98
    1   12   19      0.99      0.04
   12   13   19     -3.05      1.39
   10   13   19      8.77      0.36
    8   13   19      0.16    -14.05
    6   13   19     -8.41     -9.63
    4   13   19      3.13     -0.55
    2   13   19     -1.69     15.55
    0   13   19     -3.98      0.38
   13   14   19     -5.38     -0.62
   11   14   19     -1.08     -1.55
    9   14   19      3.50     -5.89
    7   14   19    -13.40     -6.72
    5   14   19      5.71      2.34
    3   14   19     -4.51     -6.97
    1   14   19     -3.69     -3.94
   14   15   19     -0.70     14.30
   12   15   19      0.40     12.77
   10   15   19      4.75      0.75
    8   15   19     -3.49    -13.60
    6   15   19    -19.38      7.47
    4   15   19     -6.12     17.13
    2   15   19      1.75     12.22
    0   15   19     -1.65     -1.37
   15   16   19     15.27     16.62
   13   16   19      3.29      0.10
   11   16   19     -8.66     -0.23
    9   16   19      3.45      6.11
    7   16   19     -8.16      1.05
    5   16   19      7.51     -4.81
    3   16   19     -6.06     -7.45
    1   16   19     19.75     -1.14
   16   17   19     -9.29      1.82
   14   17   19     -8.51     -0.15
   12   17   19     12.42      9.12
   10   17   19     -2.69     -8.05
    8   17   19     -3.80    -10.91
    6   17   19      4.66      9.33
    4   17   19     -3.70      6.90
    2   17   19     -5.40     -6.96
    0   17   19     -4.03      0.34
   17   18   19      3.79     11.67
   15   18   19     23.68      8.58
   13   18   19     -2.33      9.22
   11   18   19    -14.62     -5.07
    9   18   19      1.40      0.08
    7   18   19      7.83      6.76
    5   18   19      1.50      6.19
    3   18   19    -15.86     14.97
    1   18   19     -0.99      3.70
   18   19   19     15.11     27.83
   16   19   19      8.48     14.94
   14   19   19    -18.73      0.03
   12   19   19    -11.88     14.03
   10   19   19    -31.18     -0.18
    8   19   19    -15.74    -18.87
    6   19   19     21.13     -8.11
    4   19   19      4.50      2.59
    2   19   19     -0.94      0.66
    0   19   19     10.64      1.10
    0    0   20      3.82     -2.14
    1    1   20     -5.84     -3.92
    2    2   20    -11.96     -4.54
    0    2   20     -0.28     -1.31
    3    3   20    -11.73      2.62
    1    3   20     -1.05     -4.14
    4    4   20     15.83    -13.48
    2    4   20      6.84      0.93
    0    4   20     -0.23      0.71
    5    5   20     -6.83      0.74
    3    5   20      1.46     -2.99
    1    5   20      6.06     -0.46
    6    6   20    -15.31      0.65
    4    6   20      3.41    -12.82
    2    6   20      4.47     -3.21
    0    6   20    -13.08      0.57
    7    7   20     -5.65      7.56
    5    7   20     -8.39      1.93
    3    7   20     -3.21     -2.63
    1    7   20      0.26     -3.14
    8    8   20      2.43     14.23
    6    8   20     -3.53     -4.00
    4    8   20     -3.51     -7.02
    2    8   20     -3.71      5.23
    0    8   20      7.16     -0.32
    9    9   20     -6.05      9.91
    7    9   20      1.22      6.55
    5    9   20      0.59     -8.69
    3    9   20     -0.18      0.69
    1    9   20    -11.49     -4.59
   10   10   20      3.53     -6.84
    8   10   20      6.12     10.03
    6   10   20     -0.27    -10.01
    4   10   20    -10.75    -12.88
    2   10   20     -6.99      6.66
    0   10   20      1.58     -1.97
   11   11   20    -13.54     -8.26
    9   11   20     -4.64     -6.02
    7   11   20      5.31      5.56
    5   11   20      5.66     -0.66
    3   11   20      0.24     -2.44
    1   11   20    -11.02     -3.14
   12   12   20     -0.05      0.63
   10   12   20      1.28     -6.08
    8   12   20      9.37      3.99
    6   12   20      4.45      1.45
    4   12   20      7.36      0.41
    2   12   20      1.62      3.07
    0   12   20     -9.91      0.03
   13   13   20      8.33      3.04
   11   13   20     -6.56     -2.17
    9   13   20     -5.97      5.89
    7   13   20      2.93      5.90
    5   13   20      7.70     -1.61
    3   13   20     -6.18     -9.97
    1   13   20     -9.74     -0.35
   14   14   20     -4.23     -0.12
   12   14   20     -1.57      2.05
   10   14   20     -5.11      3.83
    8   14   20     -5.46      8.42
    6   14   20     -0.09      2.65
    4   14   20      8.43      9.81
    2   14   20      7.39      4.68
    0   14   20     -0.90      5.01
   15   15   20    -21.78    -11.93
   13   15   20     -0.09      0.38
   11   15   20      2.19    -11.86
    9   15   20     -6.47      7.98
    7   15   20     -5.67      7.70
    5   15   20     -5.78     -4.86
    3   15   20    -14.23     -6.90
    1   15   20    -16.05     -4.56
   16   16   20     -1.84    -10.07
   14   16   20     -3.61      3.38
   12   16   20     -4.86      3.75
   10   16   20      9.96     -7.19
    8   16   20     -1.36      1.90
    6   16   20     -5.46      1.88
    4   16   20     -0.99      4.73
    2   16   20      3.87    -10.86
    0   16   20      0.85     -0.82
   17   17   20    -24.52    -10.16
   15   17   20    -20.08    -13.75
   13   17   20      3.73      5.20
   11   17   20     -0.58      4.75
    9   17   20     -4.60      3.01
    7   17   20     -2.92     -1.13
    5   17   20     -4.16      8.84
    3   17   20      0.07      5.59
    1   17   20      9.45     -1.40
   18   18   20     -2.30    -19.96
   16   18   20      6.16     -3.98
   14   18   20     27.76     15.98
   12   18   20      2.98     13.61
   10   18   20      1.73    -12.56
    8   18   20      4.68      1.06
    6   18   20     -8.59      5.70
    4   18   20     -1.02     19.10
    2   18   20      3.42     -0.36
    0   18   20      8.35     -1.42
   17   19   20    -10.20    -16.34
   15   19   20      1.38    -21.22
   13   19   20     14.79     -9.61
   11   19   20      1.15      4.82
    9   19   20     -4.24      9.81
    7   19   20      1.00     -2.66
    5   19   20      0.64     -0.45
    3   19   20    -18.94     -2.79
    1   19   20    -16.58     -0.59
   14   20   20     20.48     14.26
   12   20   20    -11.26     19.59
   10   20   20    -25.90     -7.35
    8   20   20    -12.10     13.90
    6   20   20    -24.24      2.14
    4   20   20    -18.27     18.15
    2   20   20     -1.42      2.32
    0   20   20     -4.32     -0.75
    0    1   21      1.12     -1.36
    1    2   21      1.15      3.70
    2    3   21     -7.52      6.97
    0    3   21    -12.57      2.99
    3    4   21     -0.02      1.80
    1    4   21      7.64      0.81
    4    5   21     -1.32      0.73
    2    5   21     -8.65      3.41
    0    5   21      1.48     -1.22
    5    6   21      5.93      3.30
    3    6   21      2.77      0.12
    1    6   21      8.08     -9.15
    6    7   21     -1.21     10.27
    4    7   21     -0.36     15.34
    2    7   21     -3.45      8.07
    0    7   21     -7.36     -0.40
    7    8   21    -11.10      0.84
    5    8   21     -7.59     -0.46
    3    8   21     -9.79     -9.90
    1    8   21      4.48     -5.35
    8    9   21      8.46    -16.23
    6    9   21      5.21     -8.72
    4    9   21    -10.03      3.94
    2    9   21     -4.58      0.34
    0    9   21      0.25      0.89
    9   10   21      0.45      3.47
    7   10   21      6.65     10.10
    5   10   21      6.58     10.66
    3   10   21    -12.17      5.16
    1   10   21     13.67     12.42
   10   11   21     -2.48      6.04
    8   11   21      4.29      6.01
    6   11   21     10.53     -2.03
    4   11   21     -2.66      8.35
    2   11   21     -8.76     10.01
    0   11   21      5.11      1.18
   11   12   21      5.30     -2.06
    9   12   21      1.90      4.79
    7   12   21      2.05      5.19
    5   12   21      4.18      3.62
    3   12   21     -1.32      4.66
    1   12   21     15.06     10.29
   12   13   21     -9.06     -8.67
   10   13   21      5.15      8.45
    8   13   21     -4.92      9.28
    6   13   21     -5.45     -3.06
    4   13   21      1.18      0.34
    2   13   21     -9.27      8.96
    0   13   21      4.98      1.35
   13   14   21    -10.08     -2.90
   11   14   21     -2.22      2.11
    9   14   21      4.05    -10.03
    7   14   21     -9.02     -6.45
    5   14   21     -0.95      0.58
    3   14   21     -1.81    -11.60
    1   14   21     -1.42     -3.44
   14   15   21      1.94      1.55
   12   15   21     -5.37     -5.48
   10   15   21     11.50      4.62
    8   15   21     10.01     -1.22
    6   15   21    -12.86      0.59
    4   15   21     -5.68      6.79
    2   15   21    -10.23      0.41
    0   15   21      4.74     -3.57
   15   16   21      7.41     -3.87
   13   16   21     -5.67     -1.78
   11   16   21     -9.72      4.44
    9   16   21     -0.16      0.40
    7   16   21     -4.16     10.34
    5   16   21     -1.59     16.62
    3   16   21     -9.34     -1.52
    1   16   21      4.81     -3.01
   16   17   21    -21.47    -10.54
   14   17   21    -16.80     -0.43
   12   17   21      4.67     -4.15
   10   17   21      5.58     -7.46
    8   17   21     14.18     -9.35
    6   17   21     24.28     -8.47
    4   17   21     22.39      3.36
    2   17   21      1.65     -7.23
    0   17   21      9.77     -8.14
   15   18   21      8.80     -3.16
   13   18   21    -15.67     12.08
   11   18   21     -1.65     -2.33
    9   18   21     -3.07    -13.35
    7   18   21     -3.65     -1.36
    5   18   21     -0.80      1.42
    3   18   21     -6.48     15.54
    1   18   21     -2.15      2.91
   14   19   21    -22.15     -3.13
   12   19   21    -11.04     -5.14
   10   19   21     -9.44      8.10
    8   19   21     -7.14      4.66
    6   19   21      9.67     -7.98
    4   19   21      7.77      6.54
    2   19   21    -14.56      5.38
    0   19   21      9.76     -2.93
   13   20   21      2.97    -14.46
   11   20   21     17.31    -10.72
    9   20   21      2.35     -4.70
    7   20   21     -2.67     -5.05
    5   20   21      8.68    -17.63
    3   20   21     13.03     -8.20
    1   20   21     20.93     -4.39
   12   21   21    -15.66    -19.56
   10   21   21      7.57      5.40
    8   21   21     23.70     11.88
    6   21   21     22.37     -2.77
    4   21   21     20.11     19.49
    2   21   21    -27.75     15.20
    0   21   21      9.90     -3.44
    0    0   22      0.32     -3.78
    1    1   22      8.04     -3.21
    2    2   22    -14.98      7.36
    0    2   22     -8.40     -1.87
    3    3   22     -9.28     -1.84
    1    3   22      2.13     -8.57
    4    4   22     21.87     -9.37
    2    4   22      5.26      7.27
    0    4   22      4.06      0.25
    5    5   22      3.86      1.25
    3    5   22      2.24     -7.42
    1    5   22      8.60     -5.44
    6    6   22     -9.88      5.60
    4    6   22     10.06     -4.87
    2    6   22     -4.56      6.33
    0    6   22    -13.39      0.22
    7    7   22     -0.26     11.84
    5    7   22      2.90      8.50
    3    7   22      0.63      0.12
    1    7   22     -1.99     -0.24
    8    8   22      7.05      5.01
    6    8   22      0.34      8.96
    4    8   22      8.42      7.04
    2    8   22     -5.52      6.69
    0    8   22     -5.81     -1.14
    9    9   22     -0.06     -2.56
    7    9   22     -1.02      0.23
    5    9   22      4.58    -13.12
    3    9   22      6.34     -4.64
    1    9   22     -9.01     -4.84
   10   10   22      2.00     -3.06
    8   10   22      4.02      4.38
    6   10   22     -7.85      4.75
    4   10   22     -3.54    -10.57
    2   10   22     -3.84     -1.34
    0   10   22     -5.41      0.36
   11   11   22      7.93      2.24
    9   11   22     13.30     -4.22
    7   11   22      7.60     -0.39
    5   11   22      5.72     -9.61
    3   11   22      5.44      2.28
    1   11   22     -4.24      4.55
   12   12   22     16.06      1.65
   10   12   22     -3.46     -3.70
    8   12   22     -2.26     -2.72
    6   12   22     -5.67     -1.07
    4   12   22      2.35    -11.84
    2   12   22      8.53     -5.98
    0   12   22      4.20      5.53
   13   13   22     27.33     11.94
   11   13   22      7.86      7.00
    9   13   22      1.52     10.01
    7   13   22     -6.72      0.11
    5   13   22     -1.97     -6.29
    3   13   22      0.33     -1.80
    1   13   22     16.24      9.82
   14   14   22     -0.33      2.34
   12   14   22     14.51      9.06
   10   14   22     -6.19     14.73
    8   14   22     -5.72     11.49
    6   14   22      4.26      6.61
    4   14   22     -4.54      6.37
    2   14   22      2.60      3.41
    0   14   22      6.07     12.25
   15   15   22      2.48     -6.47
   13   15   22      8.96     -3.11
   11   15   22     -4.33     -7.37
    9   15   22     -8.20      2.27
    7   15   22     -7.00     -2.43
    5   15   22      5.95      8.75
    3   15   22     -2.68      1.46
    1   15   22      5.56      3.79
   16   16   22     10.32     -6.72
   14   16   22     -0.31     -3.52
   12   16   22      3.59      0.23
   10   16   22      1.53      2.17
    8   16   22     -0.60      1.54
    6   16   22      5.34      2.55
    4   16   22      1.89      0.04
    2   16   22     -2.89     -2.91
    0   16   22     -1.41      4.23
   15   17   22      4.48     -6.28
   13   17   22     13.34     -7.54
   11   17   22     -2.78      6.31
    9   17   22      5.72     -3.24
    7   17   22      4.70    -17.52
    5   17   22     14.67     24.21
    3   17   22      8.80      4.01
    1   17   22     12.15      1.25
   14   18   22     17.30      3.99
   12   18   22     11.64     -0.75
   10   18   22     -1.80    -19.93
    8   18   22     -0.73     -7.70
    6   18   22     -4.79     10.52
    4   18   22     13.26      9.08
    2   18   22      9.60     -1.16
    0   18   22      0.20      2.35
   13   19   22     18.70     -5.62
   11   19   22      3.15     16.35
    9   19   22      2.94     18.95
    7   19   22     -6.43     -9.85
    5   19   22     -0.04     16.49
    3   19   22    -15.76     -0.44
    1   19   22    -13.08      4.70
   12   20   22      0.48      2.95
   10   20   22     -9.23    -18.35
    8   20   22      0.23      2.44
    6   20   22      1.93      0.75
    4   20   22      2.40     -5.02
    2   20   22     18.33    -18.50
    0   20   22      9.60      3.74
   11   21   22     -5.54     -1.21
    9   21   22     -9.70      9.21
    7   21   22    -10.78     -5.86
    5   21   22      3.54     -1.94
    3   21   22     -6.25      6.36
    1   21   22     -1.81      8.39
    8   22   22     16.61      5.82
    6   22   22     33.85     11.11
    4   22   22     12.79      0.58
    2   22   22     25.94    -18.41
    0   22   22     19.68     24.04
    0    1   23    -18.21     -2.17
    1    2   23      9.17     -6.10
    2    3   23      2.74     -2.65
    0    3   23    -12.41      1.81
    3    4   23     -8.45     -0.22
    1    4   23      9.11     -0.15
    4    5   23    -13.34    -10.20
    2    5   23      2.22     -3.36
    0    5   23     10.18     -5.82
    5    6   23      6.49    -13.22
    3    6   23    -15.34     -7.59
    1    6   23     -5.18    -12.16
    6    7   23     -2.95      3.67
    4    7   23    -10.63      5.10
    2    7   23     -3.03     -1.21
    0    7   23     -2.62      0.40
    7    8   23    -13.56    -13.90
    5    8   23      0.81     -9.45
    3    8   23     -9.21     -9.32
    1    8   23     -1.90     -6.54
    8    9   23      1.80    -20.52
    6    9   23     -1.63     -7.77
    4    9   23     -8.78     -5.12
    2    9   23     -0.57     -8.69
    0    9   23     -5.89      3.57
    9   10   23      8.29     -2.10
    7   10   23      5.69     -6.89
    5   10   23      7.60     -6.32
    3   10   23     -6.19      8.49
    1   10   23      9.38     19.04
   10   11   23      8.58     -6.24
    8   11   23     -7.65      4.27
    6   11   23     12.67     -6.24
    4   11   23      3.86     -1.25
    2   11   23      1.36      0.28
    0   11   23     -3.24     -1.20
   11   12   23     10.42     -5.45
    9   12   23     -1.76     22.04
    7   12   23      0.60     12.51
    5   12   23      2.03     -6.55
    3   12   23      2.32      7.59
    1   12   23     15.82     18.78
   12   13   23     -7.16    -11.64
   10   13   23     15.47      3.28
    8   13   23     -9.33     18.58
    6   13   23      3.18      8.71
    4   13   23      6.64      1.12
    2   13   23     -0.60     -0.96
    0   13   23      5.61      0.54
   13   14   23      5.39     14.13
   11   14   23     11.99     12.03
    9   14   23     -1.02      9.22
    7   14   23     -2.25      4.33
    5   14   23     -0.87      1.89
    3   14   23     -3.57      0.89
    1   14   23     -2.60      3.95
   14   15   23     17.69      5.51
   12   15   23     -8.35     -9.80
   10   15   23      9.81     -2.32
    8   15   23      2.89     -2.12
    6   15   23     -9.80     -4.11
    4   15   23     -0.24      0.07
    2   15   23     -1.51     -5.33
    0   15   23      1.96     -6.44
   15   16   23      8.58     -1.60
   13   16   23      1.46      5.96
   11   16   23      1.85      2.28
    9   16   23     -0.61      3.03
    7   16   23      8.43      4.81
    5   16   23      3.25      0.98
    3   16   23    -12.11     -4.20
    1   16   23     -1.94     -5.59
   14   17   23     24.74      3.10
   12   17   23     28.40      5.74
   10   17   23     15.31     10.06
    8   17   23     -0.98     14.77
    6   17   23      1.05     -4.47
    4   17   23     12.21     -1.94
    2   17   23      5.46    -10.89
    0   17   23     -8.24     -9.51
   13   18   23     -9.30     11.07
   11   18   23      8.58      0.42
    9   18   23     -2.41     -1.89
    7   18   23     -6.61      0.56
    5   18   23      0.87    -12.95
    3   18   23     -7.01      7.93
    1   18   23      4.42     -6.73
   12   19   23     23.87      0.78
   10   19   23     18.68      8.70
    8   19   23    -10.96     18.81
    6   19   23    -19.97     -0.12
    4   19   23     -3.70      8.94
    2   19   23     -6.82     -2.40
    0   19   23     -3.70     -5.52
   11   20   23     21.32    -10.71
    9   20   23     12.08    -10.13
    7   20   23     -7.63     -0.93
    5   20   23    -10.33    -12.41
    3   20   23     -8.27     -3.41
    1   20   23      7.26    -12.88
    8   21   23      8.66     -2.20
    6   21   23     -3.02     -8.06
    4   21   23      8.21     14.07
    2   21   23    -14.12      1.94
    0   21   23     10.18    -13.95
    5   22   23     -4.96    -13.54
    3   22   23    -17.03     -2.45
    1   22   23     -8.47     -3.28
    0    0   24     15.36    -16.95
    1    1   24     -0.50      4.83
    2    2   24     -8.66    -23.68
    0    2   24     -0.74    -12.86
    3    3   24      2.64     -5.06
    1    3   24      2.03     -3.82
    4    4   24     -6.63     -0.21
    2    4   24     -8.03    -11.65
    0    4   24      2.14     -4.54
    5    5   24      1.72      5.05
    3    5   24      3.00     -5.80
    1    5   24      9.07     -4.08
    6    6   24     -2.29    -14.47
    4    6   24     -4.31     -5.55
    2    6   24     -9.07      4.39
    0    6   24      0.92      3.60
    7    7   24     -2.91      5.58
    5    7   24     -2.02      1.66
    3    7   24     -5.17      1.48
    1    7   24      0.96      9.35
    8    8   24    -14.42    -16.24
    6    8   24     -5.02    -10.80
    4    8   24     -3.87     -9.16
    2    8   24     -7.19      2.82
    0    8   24     -2.99     -2.74
    9    9   24     -0.83    -20.38
    7    9   24     -9.06     -8.01
    5    9   24      0.51    -11.58
    3    9   24      1.32     -6.52
    1    9   24    -10.26      2.96
   10   10   24    -15.93     13.14
    8   10   24    -13.70      0.70
    6   10   24    -15.87      9.12
    4   10   24     -1.19     -1.64
    2   10   24     -5.27      8.02
    0   10   24     -9.90      0.71
   11   11   24      5.40     24.36
    9   11   24     16.57      1.90
    7   11   24      3.14      6.44
    5   11   24     -1.25      9.72
    3   11   24     -5.20      6.46
    1   11   24    -12.29      9.00
   12   12   24     16.89     -8.43
   10   12   24    -18.13     12.26
    8   12   24     -3.12      4.42
    6   12   24      7.22     -3.06
    4   12   24      4.19     -6.38
    2   12   24     -7.04      3.32
    0   12   24     -1.72      2.90
   13   13   24    -14.56     11.84
   11   13   24     -8.18      0.61
    9   13   24     -2.49     -4.10
    7   13   24     -8.93     -0.09
    5   13   24    -11.26      9.92
    3   13   24     -9.81      0.22
    1   13   24     19.52      7.04
   14   14   24     -2.17    -18.97
   12   14   24     17.22    -18.80
   10   14   24    -20.03      9.74
    8   14   24     -3.23      2.73
    6   14   24     19.83    -11.54
    4   14   24     -3.61     -1.58
    2   14   24     -8.63     11.79
    0   14   24     10.97      6.51
   15   15   24    -13.09     11.27
   13   15   24    -18.55     12.68
   11   15   24     -6.49     -2.37
    9   15   24     -2.13      1.19
    7   15   24     -5.38      3.92
    5   15   24     -5.98     19.78
    3   15   24    -19.00     -7.65
    1   15   24     -6.79     -0.91
   14   16   24     -7.00    -15.72
   12   16   24      3.34    -19.18
   10   16   24    -10.88     23.45
    8   16   24     -0.03     14.76
    6   16   24      6.12     -5.94
    4   16   24      9.32     -5.50
    2   16   24      0.85     18.11
    0   16   24     23.66      1.64
   13   17   24     -6.71     -3.74
   11   17   24     -2.65     -1.48
    9   17   24     17.16     -1.91
    7   17   24      9.35    -12.83
    5   17   24      2.31     17.98
    3   17   24     -2.21    -22.98
    1   17   24      4.00    -10.34
   12   18   24      0.48    -10.85
   10   18   24    -13.14     14.45
    8   18   24     -8.11     14.98
    6   18   24    -21.41      7.52
    4   18   24      6.24     -7.42
    2   18   24    -11.13      3.69
    0   18   24     -5.63      2.30
    9   19   24     18.64      8.82
    7   19   24     14.28    -10.01
    5   19   24     10.31     13.83
    3   19   24     -2.79    -17.61
    1   19   24     -0.71     -4.18
    8   20   24     -7.57      2.34
    6   20   24    -12.93      1.37
    4   20   24     -7.12     -5.10
    2   20   24    -17.32    -12.16
    0   20   24    -15.11     -1.80
    5   21   24     30.67     18.39
    3   21   24     21.01     20.14
    1   21   24     15.78     15.33
    0    1   25     11.95    -10.43
    1    2   25     19.82    -21.05
    2    3   25      3.11    -15.85
    0    3   25    -10.15     -4.41
    3    4   25      3.12     17.13
    1    4   25      5.17     -0.26
    4    5   25     -1.58     -8.91
    2    5   25      5.79    -17.20
    0    5   25     -4.95    -20.06
    5    6   25     14.11     -3.97
    3    6   25     -1.15     11.99
    1    6   25     -8.03     -8.99
    6    7   25     -1.85     17.73
    4    7   25     -6.20      1.37
    2    7   25     -3.74     -1.35
    0    7   25    -18.10     -2.73
    7    8   25    -19.97     10.41
    5    8   25     -2.29      8.97
    3    8   25      1.54     12.51
    1    8   25     -5.85     -1.29
    8    9   25     -5.63      8.70
    6    9   25     -1.15      7.29
    4    9   25      1.21     -7.05
    2    9   25      3.94      4.98
    0    9   25    -17.48      8.87
    9   10   25     20.33    -10.76
    7   10   25     -5.29    -15.29
    5   10   25     -8.80     -3.64
    3   10   25     -8.25      7.92
    1   10   25      1.26     12.84
   10   11   25     20.67     -9.37
    8   11   25    -11.29     13.43
    6   11   25     17.27     -9.47
    4   11   25      1.39    -10.41
    2   11   25      7.02     -1.71
    0   11   25     -5.43     -1.48
   11   12   25      3.73    -13.85
    9   12   25      2.39     -3.68
    7   12   25    -13.02     -9.01
    5   12   25    -11.63     -3.64
    3   12   25     -0.09     -5.47
    1   12   25     11.53     11.01
   12   13   25    -19.27    -10.36
   10   13   25      7.34      0.25
    8   13   25    -10.26     18.16
    6   13   25      8.95      5.01
    4   13   25    -14.76     -6.84
    2   13   25     -6.61     -3.86
    0   13   25      1.47      1.42
   13   14   25     -3.02     16.18
   11   14   25     -2.68      9.94
    9   14   25     -6.14     -0.98
    7   14   25     -8.29      3.28
    5   14   25     -0.42     20.10
    3   14   25      9.26      2.53
    1   14   25      4.77      2.95
   14   15   25    -14.49     11.81
   12   15   25    -37.16      3.25
   10   15   25    -19.76     -3.29
    8   15   25    -15.03      0.33
    6   15   25     -4.48     -2.02
    4   15   25    -12.63     -4.70
    2   15   25      3.61      7.21
    0   15   25      5.37      0.37
   13   16   25     18.02      0.24
   11   16   25      2.89     -7.00
    9   16   25     -6.30    -11.18
    7   16   25     -5.99     -4.27
    5   16   25     -5.19      2.18
    3   16   25     -2.09     -8.97
    1   16   25      4.02     -9.48
   10   17   25     -6.96      4.91
    8   17   25    -14.74     13.88
    6   17   25      3.39     -7.88
    4   17   25     -4.71    -21.09
    2   17   25      7.67    -10.36
    0   17   25     -9.09      1.60
    9   18   25     -4.86     13.47
    7   18   25      4.42     15.08
    5   18   25     17.30     12.39
    3   18   25      6.81     21.99
    1   18   25      6.07     -1.83
    8   19   25    -13.57     16.27
    6   19   25     -4.52      0.37
    4   19   25     -3.44     -4.68
    2   19   25      0.86    -11.54
    0   19   25     -9.35      2.04
    5   20   25     -1.08      6.74
    3   20   25     -2.77      6.07
    1   20   25     -3.26    -11.79
    0    0   26      4.80     -1.46
    1    1   26     -1.07     10.78
    2    2   26      2.54    -14.59
    0    2   26     -3.93     -2.51
    3    3   26     12.16     -6.69
    1    3   26     -4.36      3.19
    4    4   26    -16.32     28.85
    2    4   26    -13.26     -4.01
    0    4   26    -18.56      1.46
    5    5   26     -8.69     -5.10
    3    5   26      6.53    -15.63
    1    5   26     -3.64     -9.12
    6    6   26      0.53    -10.81
    4    6   26     -5.65      7.79
    2    6   26      0.00     12.72
    0    6   26      0.47      5.51
    7    7   26     13.71     13.49
    5    7   26     -5.28     -8.95
    3    7   26      0.30     -5.22
    1    7   26      3.91      3.96
    8    8   26     -4.10    -20.00
    6    8   26      2.01    -10.01
    4    8   26     -3.81    -13.79
    2    8   26      2.72      8.34
    0    8   26      3.84     -8.56
    9    9   26    -23.93    -27.26
    7    9   26     -5.73      2.57
    5    9   26     -0.06     -1.80
    3    9   26     -5.22     -5.25
    1    9   26    -11.94     -2.55
   10   10   26     26.72     -1.18
    8   10   26      9.37    -13.26
    6   10   26     -4.07     18.79
    4   10   26      7.38     12.73
    2   10   26      4.74     15.71
    0   10   26      5.91     -0.56
   11   11   26     14.65     11.23
    9   11   26      1.39    -10.36
    7   11   26      5.79     13.96
    5   11   26     10.93     21.34
    3   11   26     -0.97      1.38
    1   11   26     -1.12     -3.26
   12   12   26    -26.84     -2.35
   10   12   26    -11.33      9.08
    8   12   26      4.63     -6.34
    6   12   26     12.34      4.60
    4   12   26      6.28     11.93
    2   12   26     -6.81     13.46
    0   12   26      7.57      1.66
   13   13   26      6.58     -4.15
   11   13   26     14.31    -11.63
    9   13   26      3.02    -14.69
    7   13   26     14.46      0.82
    5   13   26     28.49     -3.24
    3   13   26     11.54    -12.02
    1   13   26     25.39     -4.06
   12   14   26    -13.32     -5.33
   10   14   26    -14.77     14.00
    8   14   26     -1.88     -2.62
    6   14   26      9.91    -13.52
    4   14   26    -14.22      1.77
    2   14   26    -15.98     12.44
    0   14   26      3.77      1.93
   11   15   26     11.77    -10.25
    9   15   26     -5.06      2.76
    7   15   26      0.11      7.89
    5   15   26     22.83     -5.22
    3   15   26      8.24    -20.04
    1   15   26      6.17     -8.11
   10   16   26     11.09     22.49
    8   16   26     13.31      1.60
    6   16   26     -1.71    -19.38
    4   16   26     -0.86     -1.33
    2   16   26      0.95     27.35
    0   16   26     25.73      0.88
    9   17   26     -7.83     16.45
    7   17   26    -20.65      9.88
    5   17   26    -15.02      8.10
    3   17   26     -5.22    -19.25
    1   17   26      9.22    -13.92
    6   18   26    -15.21    -13.02
    4   18   26      6.88     -8.43
    2   18   26      1.43     11.62
    0   18   26     18.31      0.94
    3   19   26    -19.15    -17.13
    1   19   26     -9.91     -9.94
    0    1   27     -0.73     -0.41
    1    2   27    -18.97     -4.23
    2    3   27    -19.08      1.94
    0    3   27    -11.01     21.05
    3    4   27     -6.65     23.73
    1    4   27    -23.18     12.83
    4    5   27     -9.60     -2.33
    2    5   27     13.25    -10.24
    0    5   27     16.03     -9.48
    5    6   27     12.32    -11.20
    3    6   27     21.01     -7.10
    1    6   27     -7.75     -4.72
    6    7   27      8.97     -2.42
    4    7   27     -9.26      7.06
    2    7   27      9.82      7.06
    0    7   27      9.43     -2.84
    7    8   27     -3.66      0.42
    5    8   27     -4.78     13.00
    3    8   27      9.22     -4.22
    1    8   27    -13.51     -5.70
    8    9   27     -2.88     -0.36
    6    9   27     15.01    -22.42
    4    9   27     -1.49    -10.60
    2    9   27      8.52     20.75
    0    9   27      3.76      5.46
    9   10   27     24.02    -13.95
    7   10   27     17.23     -8.87
    5   10   27      4.89     24.82
    3   10   27      7.71      1.59
    1   10   27      8.33      2.79
   10   11   27     14.39      4.45
    8   11   27    -17.40     18.38
    6   11   27     11.43    -12.85
    4   11   27    -14.72      3.27
    2   11   27     10.86     15.83
    0   11   27     12.66     -7.93
   11   12   27     15.77     -7.57
    9   12   27     16.60    -18.18
    7   12   27     -2.55    -18.12
    5   12   27     -6.74     15.17
    3   12   27      0.43    -22.24
    1   12   27     -6.96     -1.91
   12   13   27      3.14    -17.34
   10   13   27     12.66     -2.18
    8   13   27     18.02      4.65
    6   13   27     20.70    -12.60
    4   13   27    -20.16     -6.82
    2   13   27     -1.35     11.91
    0   13   27      4.93     -2.07
   11   14   27     -3.94     10.77
    9   14   27    -10.42      1.43
    7   14   27    -20.02      8.24
    5   14   27     -6.88     31.13
    3   14   27      7.60    -11.52
    1   14   27    -12.96      0.30
    8   15   27     20.33     -3.37
    6   15   27     15.30    -14.01
    4   15   27     -9.33    -18.06
    2   15   27      6.24     14.15
    0   15   27      4.66      0.26
    7   16   27    -22.64     -7.27
    5   16   27    -14.27     -1.76
    3   16   27     -4.34    -24.88
    1   16   27     -8.52    -10.64
    4   17   27     -6.26    -19.11
    2   17   27     10.12      4.35
    0   17   27      5.18      2.71
    0    0   28    -32.94     12.90
    1    1   28      7.26     17.06
    2    2   28     -0.30    -10.21
    0    2   28    -22.95     -1.52
    3    3   28     -4.46     33.73
    1    3   28     -5.98     21.81
    4    4   28     18.33     16.01
    2    4   28      9.53    -12.24
    0    4   28     -7.24     -3.34
    5    5   28    -38.48     -5.48
    3    5   28    -13.03      2.22
    1    5   28    -11.44    -11.44
    6    6   28    -11.75     11.92
    4    6   28      2.10     11.02
    2    6   28     -0.14     12.74
    0    6   28    -15.85      7.97
    7    7   28     21.19     10.40
    5    7   28    -10.24    -11.11
    3    7   28     13.26     12.54
    1    7   28     23.50     -8.74
    8    8   28    -27.53     37.35
    6    8   28    -13.82     22.74
    4    8   28    -11.75    -12.22
    2    8   28     -9.91      2.80
    0    8   28    -20.69     -4.76
    9    9   28     -5.27     18.72
    7    9   28      9.91     12.14
    5    9   28      6.33      0.93
    3    9   28      3.98      8.98
    1    9   28      6.82    -14.82
   10   10   28     12.89    -12.84
    8   10   28    -13.81      9.60
    6   10   28    -11.57     19.87
    4   10   28      2.01    -21.26
    2   10   28      1.44    -22.99
    0   10   28      5.01     -2.84
   11   11   28      3.18     24.19
    9   11   28     -3.52     13.14
    7   11   28    -12.98     10.20
    5   11   28     -6.11     14.96
    3   11   28    -14.49     11.46
    1   11   28    -11.41     -9.47
   10   12   28      1.96     -4.72
    8   12   28     -6.94     11.96
    6   12   28      3.23     25.02
    4   12   28      1.35     -0.14
    2   12   28     -3.73     -5.24
    0   12   28     13.59      3.23
    9   13   28     -1.87     -7.88
    7   13   28    -13.05     -9.38
    5   13   28      8.30     -9.52
    3   13   28     -2.70     11.61
    1   13   28     -5.96      3.27
    8   14   28     -6.18     16.52
    6   14   28      6.18     23.62
    4   14   28    -17.00     11.25
    2   14   28    -14.08      0.93
    0   14   28      1.36      1.86
    5   15   28     21.42    -16.72
    3   15   28      4.35     -1.03
    1   15   28    -16.88      1.97
    2   16   28     -6.84      7.32
    0   16   28     13.63     -0.70
    0    1   29     -7.10     -8.58
    1    2   29      7.74     -6.53
    2    3   29    -12.06    -18.09
    0    3   29    -17.26      1.49
    3    4   29    -14.05      5.07
    1    4   29     10.65     16.93
    4    5   29    -25.91     -9.00
    2    5   29     10.19    -26.48
    0    5   29      4.75    -16.52
    5    6   29    -17.60    -10.76
    3    6   29      1.31    -19.20
    1    6   29      7.92      2.45
    6    7   29     -0.32      8.78
    4    7   29     -6.91     17.68
    2    7   29     15.92    -12.70
    0    7   29     10.18     -8.13
    7    8   29     -0.28    -16.43
    5    8   29    -22.47    -15.32
    3    8   29    -17.58    -23.99
    1    8   29     -8.06     -1.80
    8    9   29    -18.30     -9.67
    6    9   29     -6.50    -16.94
    4    9   29    -24.65    -10.57
    2    9   29    -22.93     -5.06
    0    9   29    -28.04      6.80
    9   10   29      5.39     13.25
    7   10   29     24.11     14.92
    5   10   29     -1.36     21.80
    3   10   29     -0.63     11.86
    1   10   29     21.59     16.63
    8   11   29    -25.93      9.52
    6   11   29      1.29      8.14
    4   11   29    -13.28     18.34
    2   11   29     -4.78      1.08
    0   11   29    -14.09     -1.15
    7   12   29      4.59      1.58
    5   12   29    -11.84     17.33
    3   12   29     -8.10      4.76
    1   12   29    -13.48     18.51
    6   13   29      5.88      6.04
    4   13   29     -9.35     15.70
    2   13   29     -5.28      4.15
    0   13   29    -16.78      0.82
    3   14   29      5.57      5.83
    1   14   29    -11.58     18.29
    0    0   30     27.33     29.86
    1    1   30    -27.70     11.45
    2    2   30    -13.45     -5.41
    0    2   30      3.98      1.69
    3    3   30     22.90      7.81
    1    3   30    -11.02     18.39
    4    4   30    -24.04     23.88
    2    4   30    -16.95     -7.99
    0    4   30      7.22    -21.95
    5    5   30     -7.94    -25.90
    3    5   30     19.89    -19.32
    1    5   30    -13.23     -5.41
    6    6   30     13.14    -23.79
    4    6   30     -7.91     16.71
    2    6   30     -2.24     17.80
    0    6   30     13.39     -4.66
    7    7   30    -35.45     11.35
    5    7   30    -30.08    -14.60
    3    7   30      8.42      1.08
    1    7   30    -18.28     -2.15
    8    8   30     -2.86      4.89
    6    8   30     11.15    -11.58
    4    8   30    -10.03      9.20
    2    8   30      2.83     11.07
    0    8   30     14.69    -15.48
    7    9   30     -6.62      1.65
    5    9   30     -0.15    -16.92
    3    9   30     13.75    -14.12
    1    9   30     -7.19    -13.26
    6   10   30      6.19     -3.89
    4   10   30     -7.60     -5.68
    2   10   30     -9.48    -16.68
    0   10   30      1.66    -22.23
    5   11   30     -0.75    -13.17
    3   11   30     -2.90    -20.37
    1   11   30    -15.92    -11.17
    2   12   30    -16.23     -1.75
    0   12   30    -10.98    -11.02
    0    1   31    -14.02      0.28
    1    2   31     -9.26    -12.61
    2    3   31     -1.47     -2.67
    0    3   31      5.83      6.74
    3    4   31     -4.49     20.41
    1    4   31      6.82      3.70
    4    5   31    -28.55     13.55
    2    5   31    -10.18      1.64
    0    5   31    -13.56     -2.99
    5    6   31    -13.66     22.09
    3    6   31      5.63      8.66
    1    6   31     11.72     -2.46
    6    7   31     -0.32     32.32
    4    7   31      8.25     30.44
    2    7   31     29.29      2.61
    0    7   31     22.93     -1.26
    3    8   31    -21.81     -9.26
    1    8   31     -7.61    -12.01
    5    8   31    -10.42      1.30
    2    9   31     13.32      0.89
    0    9   31     11.67     12.65
    0    0   32    -19.37     -3.57
    1    1   32     10.70     15.45
    2    2   32    -14.79     -2.93
    0    2   32    -17.91    -10.74
    3    3   32    -27.78      3.59
    1    3   32    -20.67      9.64
    2    4   32     -0.50     -5.61
    0    4   32     -4.24    -20.70
    1    5   32     -7.71     -1.67
    0    1    1     28.90     -3.90
    0    0    2    838.06     -3.49
    1    1    2     35.40     79.98
    0    2    2   -182.00      1.77
    0    1    3     83.59      0.27
   16   20   20      6.81      1.80
   17   18   21     -4.37     -4.48
   16   19   21     -3.89     -1.36
   15   20   21     -1.51    -15.95
   17   17   22     -0.36     -6.49
   16   18   22      6.10      3.76
    7   22   23      0.14     -6.55
    0   23   23      8.18    -10.94
    2   23   23    -10.61     -1.55
   11   19   24      2.60      7.23
    7   21   24     12.92     -2.33
    0   22   24     -5.32      9.64
    2   22   24     -8.97    -10.79
   12   17   25     -4.09      8.25
    0   21   25      1.08     -4.45
    8   18   26      7.38     -3.85
    5   19   26    -13.16      0.87
   10   15   27      2.00     -0.32
    9   16   27    -11.21    -11.69
    6   17   27     11.35    -11.48
    1   18   27     -7.80     -2.89
    3   18   27     -3.84      2.54
    7   15   28     -4.26     -4.07
    4   16   28    -11.52      5.90
   10   11   29     -3.95     16.22
    9   12   29      5.91      0.23
    5   14   29     -2.76     14.29
    0   15   29    -10.88      0.00
    9    9   30      0.43      8.30
    8   10   30     -4.44      5.97
    4   12   30     -5.70     -2.64
    4    9   31     -1.16     -7.81
    1   10   31     16.55     -2.56
    4    4   32      5.73     -2.97
    3    5   32     -7.86     -5.74
    0    6   32     -3.56     -4.97
    2    6   32      0.87     10.23
    0    0    0      0.00      0.00
# SQUEEZE RESULTS (Version = 120716)
# Note: Data are Listed for all Voids in the P1 Unit Cell
# i.e. Centre of Gravity, Solvent Accessible Volume,
# Recovered number of Electrons in the Void and
# Details about the Squeezed Material
loop_
  _platon_squeeze_void_nr
  _platon_squeeze_void_average_x
  _platon_squeeze_void_average_y
  _platon_squeeze_void_average_z
  _platon_squeeze_void_volume
  _platon_squeeze_void_count_electrons
  _platon_squeeze_void_content
   1 -0.010 -0.036 -0.015     12832      2546 ' '
# Missing Reflections Below sin(th)/lambda = 0.25
loop_
  _platon_missing_refln_index_h
  _platon_missing_refln_index_k
  _platon_missing_refln_index_l
  _platon_missing_refln_theta
    0    1    1     1.058
    0    0    2     1.496
    1    1    2     1.833
    0    2    2     2.116
    0    1    3     2.366
_platon_squeeze_void_probe_radius                  1.20
_platon_squeeze_details
)
TITL 1         I -4 3 m     R = 0.24
CELL   27.2160   27.2160   27.2160     90.00     90.00     90.00
SPGR I-43m
# Solvent Accessible Volume =     12792
# Electrons Found in S.A.V. =      2441
# Note: Atoms in Void as Cxxx and Qxxx all others
C101 0.391 0.383 0.394 !       3.58 eA-3
C102 1.000 0.227 0.000 !       3.13 eA-3
C103 0.487 0.487 0.487 !       2.86 eA-3
C104 0.816 0.999 0.000 !       2.74 eA-3
C105 0.829 0.477 0.173 !       2.57 eA-3
C106 0.916 0.133 0.144 !       2.45 eA-3
C107 0.054 0.079 0.079 !       2.40 eA-3
C108 0.023 0.742 0.022 !       2.40 eA-3
C109 0.515 0.486 0.486 !       2.35 eA-3
C110 0.132 0.475 0.134 !       2.26 eA-3
C111 0.439 0.558 0.182 !       2.14 eA-3
C112 0.759 0.487 0.487 !       2.13 eA-3
C113 0.370 0.919 0.080 !       2.11 eA-3
C114 0.791 0.978 0.024 !       1.95 eA-3
C115 0.506 0.836 0.164 !       1.88 eA-3
C116 0.618 1.001 0.195 !       1.88 eA-3
C117 0.616 0.984 0.162 !       1.87 eA-3
C118 0.487 0.319 0.094 !       1.83 eA-3
C119 0.641 0.325 0.010 !       1.75 eA-3
C120 0.141 0.825 0.510 !       1.75 eA-3
C121 0.005 0.329 0.643 !       1.75 eA-3
C122 0.049 0.053 0.053 !       1.75 eA-3
C123 0.522 0.287 0.524 !       1.74 eA-3
C124 0.022 0.787 0.024 !       1.74 eA-3
Q125 0.111 0.853 0.138 !       1.69 eA-3
Q126 0.611 0.353 0.638 !       1.69 eA-3
C127 0.256 0.501 0.456 !       1.68 eA-3
C128 0.147 0.530 0.442 !       1.67 eA-3
C129 0.076 0.249 0.490 !       1.66 eA-3
C130 0.531 0.329 0.465 !       1.65 eA-3
C131 0.655 0.045 0.348 !       1.61 eA-3
C132 0.484 0.530 0.704 !       1.60 eA-3
C133 0.007 0.615 0.117 !       1.59 eA-3
C134 0.071 0.813 0.071 !       1.57 eA-3
C135 0.029 0.311 0.028 !       1.51 eA-3
C136 0.738 0.534 0.447 !       1.50 eA-3
C137 0.924 0.077 0.077 !       1.49 eA-3
Q138 0.420 0.420 0.170 !       1.48 eA-3
C139 0.380 0.382 0.435 !       1.48 eA-3
C140 0.070 0.689 0.000 !       1.47 eA-3
C141 0.149 0.452 0.402 !       1.46 eA-3
C142 0.833 0.990 0.427 !       1.45 eA-3
C143 0.048 0.665 0.048 !       1.45 eA-3
C144 0.774 0.979 0.407 !       1.42 eA-3
C145 0.983 0.632 0.304 !       1.42 eA-3
C146 0.458 0.102 0.376 !       1.41 eA-3
C147 0.633 0.974 0.127 !       1.39 eA-3
C148 1.000 0.086 0.000 !       1.39 eA-3
C149 0.570 0.151 0.434 !       1.38 eA-3
C150 0.410 0.025 0.196 !       1.38 eA-3
C151 0.944 0.050 0.205 !       1.37 eA-3
C152 0.764 0.500 0.000 !       1.36 eA-3
C153 0.665 0.974 0.083 !       1.36 eA-3
C154 0.791 0.009 0.429 !       1.35 eA-3
C155 0.658 0.473 0.485 !       1.35 eA-3
Q156 0.370 0.370 0.370 !       1.34 eA-3
C157 0.088 0.960 0.388 !       1.34 eA-3
C158 0.500 0.548 0.326 !       1.34 eA-3
C159 0.720 0.008 0.959 !       1.33 eA-3
C160 0.220 0.508 0.459 !       1.33 eA-3
C161 0.602 0.132 0.477 !       1.32 eA-3
C162 0.837 0.373 0.040 !       1.29 eA-3
C163 0.496 0.208 0.474 !       1.27 eA-3
C164 0.838 0.472 0.899 !       1.27 eA-3
C165 0.338 0.972 0.399 !       1.27 eA-3
C166 0.296 0.873 0.459 !       1.26 eA-3
C167 0.967 0.636 0.344 !       1.25 eA-3
C168 0.507 0.111 0.111 !       1.25 eA-3
C169 0.540 0.359 0.464 !       1.25 eA-3
Q170 0.407 0.565 0.162 !       1.25 eA-3
C171 0.412 0.411 0.389 !       1.25 eA-3
C172 0.665 0.609 0.972 !       1.24 eA-3
C173 0.938 0.506 0.148 !       1.24 eA-3
C174 0.893 0.107 0.170 !       1.23 eA-3
C175 0.439 0.506 0.367 !       1.23 eA-3
Q176 0.147 0.951 0.641 !       1.22 eA-3
Q177 0.647 0.451 0.141 !       1.22 eA-3
C178 0.042 0.580 0.318 !       1.22 eA-3
Q179 0.147 0.641 0.950 !       1.21 eA-3
C180 0.013 0.620 0.297 !       1.20 eA-3
C181 0.165 0.513 0.901 !       1.20 eA-3
C182 0.962 0.491 0.273 !       1.15 eA-3
C183 0.539 0.610 0.564 !       1.14 eA-3
C184 0.039 0.110 0.064 !       1.14 eA-3
C185 0.639 0.988 0.264 !       1.14 eA-3
C186 0.539 0.565 0.609 !       1.14 eA-3
C187 0.479 0.138 0.769 !       1.14 eA-3
C188 0.676 0.677 0.059 !       1.14 eA-3
C189 0.987 0.771 0.367 !       1.13 eA-3
C190 0.047 0.633 0.046 !       1.13 eA-3
C191 0.945 0.117 0.373 !       1.12 eA-3
C192 0.555 0.771 0.023 !       1.12 eA-3
C193 0.045 0.616 0.305 !       1.11 eA-3
Q194 0.414 0.351 0.317 !       1.11 eA-3
Q195 0.861 0.412 0.412 !       1.10 eA-3
Q196 0.913 0.360 0.112 !       1.10 eA-3
C197 0.843 0.351 0.969 !       1.09 eA-3
C198 0.453 0.061 0.241 !       1.09 eA-3
C199 0.977 0.025 0.359 !       1.08 eA-3
)
;
_shelx_fab_checksum              61189
_platon_squeeze_void_probe_radius 1.20
_olex2_submission_special_instructions 'No special instructions were received'
loop_
_space_group_symop_operation_xyz
'x, y, z'
'-x, -y, z'
'x, -y, -z'
'-x, y, -z'
'z, x, y'
'y, z, x'
'-z, -x, y'
'-y, z, -x'
'z, -x, -y'
'-y, -z, x'
'-z, x, -y'
'y, -z, -x'
'y, x, z'
'-y, -x, z'
'-y, x, -z'
'y, -x, -z'
'x, z, y'
'z, y, x'
'-x, -z, y'
'z, -y, -x'
'-x, z, -y'
'-z, -y, x'
'x, -z, -y'
'-z, y, -x'
'x+1/2, y+1/2, z+1/2'
'-x+1/2, -y+1/2, z+1/2'
'x+1/2, -y+1/2, -z+1/2'
'-x+1/2, y+1/2, -z+1/2'
'z+1/2, x+1/2, y+1/2'
'y+1/2, z+1/2, x+1/2'
'-z+1/2, -x+1/2, y+1/2'
'-y+1/2, z+1/2, -x+1/2'
'z+1/2, -x+1/2, -y+1/2'
'-y+1/2, -z+1/2, x+1/2'
'-z+1/2, x+1/2, -y+1/2'
'y+1/2, -z+1/2, -x+1/2'
'y+1/2, x+1/2, z+1/2'
'-y+1/2, -x+1/2, z+1/2'
'-y+1/2, x+1/2, -z+1/2'
'y+1/2, -x+1/2, -z+1/2'
'x+1/2, z+1/2, y+1/2'
'z+1/2, y+1/2, x+1/2'
'-x+1/2, -z+1/2, y+1/2'
'z+1/2, -y+1/2, -x+1/2'
'-x+1/2, z+1/2, -y+1/2'
'-z+1/2, -y+1/2, x+1/2'
'x+1/2, -z+1/2, -y+1/2'
'-z+1/2, y+1/2, -x+1/2'
loop_
_atom_site_label
_atom_site_type_symbol
_atom_site_fract_x
_atom_site_fract_y
_atom_site_fract_z
_atom_site_U_iso_or_equiv
_atom_site_adp_type
_atom_site_occupancy
_atom_site_site_symmetry_order
_atom_site_calc_flag
_atom_site_refinement_flags_posn
_atom_site_refinement_flags_adp
_atom_site_refinement_flags_occupancy
_atom_site_disorder_assembly
_atom_site_disorder_group
V1 V 0.67934(12) 0.23296(13) 0.15185(15) 0.1606(18) Uani 1 1 d . U . . .
S1 S 0.79226(19) 0.20774(19) 0.20774(19) 0.143(3) Uani 1 6 d S TU P . .
O1 O 0.7150(4) 0.2266(4) 0.0876(4) 0.141(3) Uani 1 1 d . U . . .
O2 O 0.6971(3) 0.3029(3) 0.1605(7) 0.158(3) Uani 1 2 d DS TU P . .
O3 O 0.6269(5) 0.2372(5) 0.1331(5) 0.179(5) Uani 1 1 d . U . . .
O4 O 0.6656(6) 0.2198(5) 0.2198(5) 0.160(3) Uani 1 2 d S TU P . .
O5 O 0.7601(3) 0.2399(3) 0.1771(6) 0.144(3) Uani 1 2 d S TU P . .
O6 O 0.6878(5) 0.1620(4) 0.1620(4) 0.149(3) Uani 1 2 d S TU P . .
O7 O 0.8211(4) 0.1789(4) 0.1789(4) 0.119(6) Uani 1 6 d S TU P . .
N1 N 0.8783(4) 0.1830(6) -0.1217(4) 0.120(6) Uani 1 2 d DS T P . .
C2 C 0.8381(5) 0.1619(5) -0.1007(7) 0.116(4) Uani 1 2 d DS TU P . .
C3 C 0.8183(5) 0.1817(5) -0.0590(7) 0.113(4) Uani 1 2 d DS TU P . .
C4 C 0.8347(5) 0.2239(5) -0.0380(5) 0.121(4) Uani 1 1 d D U . . .
H4 H 0.861610 0.240116 -0.053284 0.145 Uiso 1 1 calc R . . . .
C5 C 0.8156(5) 0.2445(5) 0.0030(5) 0.123(3) Uani 1 1 d D U . . .
H5 H 0.830715 0.272753 0.016972 0.148 Uiso 1 1 calc R . . . .
C6 C 0.7750(5) 0.2250(5) 0.0241(8) 0.123(4) Uani 1 2 d DS TU P . .
C7 C 0.7534(6) 0.2466(6) 0.0688(10) 0.139(3) Uani 1 2 d S TU P . .
C8 C 0.7080(9) 0.1266(7) 0.1266(7) 0.152(7) Uani 1 2 d S TU P . .
H8A H 0.684936 0.122546 0.099285 0.228 Uiso 0.5 1 calc GR . . A -1
H8B H 0.713039 0.094926 0.142929 0.228 Uiso 0.5 1 calc GR . . A -1
H8C H 0.739462 0.138831 0.114089 0.228 Uiso 0.5 1 calc GR . . A -1
C9 C 0.6365(12) 0.2539(7) 0.2539(7) 0.178(8) Uani 1 2 d S TU P . .
H9A H 0.658833 0.268794 0.277862 0.267 Uiso 0.5 1 calc GR . . B -1
H9B H 0.611280 0.234863 0.271159 0.267 Uiso 0.5 1 calc GR . . B -1
H9C H 0.620785 0.279754 0.234390 0.267 Uiso 0.5 1 calc GR . . B -1
C10 C 0.6585(5) 0.3415(5) 0.1738(12) 0.195(9) Uani 1 2 d DS TU P . .
H10A H 0.631926 0.340877 0.149504 0.293 Uiso 0.5 1 calc GR . . C -1
H10B H 0.673701 0.374161 0.174091 0.293 Uiso 0.5 1 calc GR . . C -1
H10C H 0.645024 0.334311 0.206450 0.293 Uiso 0.5 1 calc GR . . C -1
loop_
_atom_site_aniso_label
_atom_site_aniso_U_11
_atom_site_aniso_U_22
_atom_site_aniso_U_33
_atom_site_aniso_U_23
_atom_site_aniso_U_13
_atom_site_aniso_U_12
V1 0.122(3) 0.171(3) 0.188(3) -0.035(2) 0.043(2) 0.073(2)
S1 0.143(3) 0.143(3) 0.143(3) -0.051(3) 0.051(3) 0.051(3)
O1 0.118(5) 0.134(5) 0.170(6) -0.028(4) 0.021(4) 0.071(4)
O2 0.144(4) 0.144(4) 0.186(6) -0.030(4) 0.030(4) 0.067(5)
O3 0.126(8) 0.194(10) 0.216(10) -0.046(8) 0.054(7) 0.054(8)
O4 0.139(6) 0.171(4) 0.171(4) -0.035(6) 0.049(4) 0.049(4)
O5 0.134(4) 0.134(4) 0.165(6) -0.039(3) 0.039(3) 0.066(5)
O6 0.115(6) 0.165(4) 0.165(4) -0.036(6) 0.049(4) 0.049(4)
O7 0.119(6) 0.119(6) 0.119(6) -0.036(6) 0.036(6) 0.036(6)
N1 0.123(8) 0.115(13) 0.123(8) 0.029(7) -0.013(11) 0.029(7)
C2 0.104(6) 0.104(6) 0.141(9) -0.006(5) 0.006(5) 0.040(8)
C3 0.103(5) 0.103(5) 0.134(9) -0.005(5) 0.005(5) 0.046(7)
C4 0.109(6) 0.109(6) 0.144(7) 0.000(6) 0.009(6) 0.050(6)
C5 0.111(6) 0.114(6) 0.144(7) -0.012(5) 0.005(5) 0.054(6)
C6 0.110(5) 0.110(5) 0.149(8) -0.012(4) 0.012(4) 0.058(7)
C7 0.126(4) 0.126(4) 0.164(6) -0.020(4) 0.020(4) 0.062(6)
C8 0.137(13) 0.159(9) 0.159(9) -0.034(12) 0.038(8) 0.038(8)
C9 0.186(16) 0.173(11) 0.173(11) -0.048(14) 0.037(10) 0.037(10)
C10 0.185(11) 0.185(11) 0.216(17) -0.010(10) 0.010(10) 0.088(14)
loop_
_atom_type_symbol
_atom_type_description
_atom_type_scat_dispersion_real
_atom_type_scat_dispersion_imag
_atom_type_scat_source
C C 0.0033 0.0016 'International Tables Vol C Tables 4.2.6.8 and 6.1.1.4'
H H 0.0000 0.0000 'International Tables Vol C Tables 4.2.6.8 and 6.1.1.4'
N N 0.0061 0.0033 'International Tables Vol C Tables 4.2.6.8 and 6.1.1.4'
O O 0.0106 0.0060 'International Tables Vol C Tables 4.2.6.8 and 6.1.1.4'
S S 0.1246 0.1234 'International Tables Vol C Tables 4.2.6.8 and 6.1.1.4'
V V 0.3005 0.5294 'International Tables Vol C Tables 4.2.6.8 and 6.1.1.4'
loop_
_geom_angle_atom_site_label_1
_geom_angle_atom_site_label_2
_geom_angle_atom_site_label_3
_geom_angle
_geom_angle_site_symmetry_1
_geom_angle_site_symmetry_3
O1 V1 O5 78.8(5) . .
O2 V1 O1 93.9(6) . .
O2 V1 O5 69.8(5) . .
O3 V1 O1 99.7(6) . .
O3 V1 O2 101.3(7) . .
O3 V1 O4 99.0(7) . .
O3 V1 O5 170.7(7) . .
O3 V1 O6 103.5(8) . .
O4 V1 O1 156.4(5) . .
O4 V1 O2 96.5(7) . .
O4 V1 O5 85.0(7) . .
O4 V1 O6 72.8(5) . .
O6 V1 O1 88.9(5) . .
O6 V1 O2 154.3(6) . .
O6 V1 O5 85.8(6) . .
O5 S1 O5 108.2(7) 8_656 .
O5 S1 O5 108.2(7) 7_665 .
O5 S1 O5 108.2(7) 7_665 8_656
O7 S1 O5 110.7(6) . .
O7 S1 O5 110.7(6) . 8_656
O7 S1 O5 110.7(6) . 7_665
C7 O1 V1 134.8(15) . .
V1 O2 V1 117.1(6) 14_665 .
C10 O2 V1 121.4(3) . .
C10 O2 V1 121.4(3) . 14_665
V1 O4 V1 108.8(8) . 17
C9 O4 V1 124.7(4) . .
C9 O4 V1 124.7(4) . 17
V1 O5 V1 93.8(6) . 14_665
S1 O5 V1 132.6(4) . .
S1 O5 V1 132.6(4) . 14_665
V1 O6 V1 105.2(7) . 17
C8 O6 V1 126.6(3) . .
C8 O6 V1 126.6(3) . 17
C2 N1 C2 120(2) 9_665 .
N1 C2 N1 120(2) 10_654 .
N1 C2 C3 120.0(11) 10_654 .
N1 C2 C3 120.0(11) . .
C4 C3 C2 123.5(10) 14_665 .
C4 C3 C2 123.5(10) . .
C4 C3 C4 112.3(19) 14_665 .
C5 C4 C3 124.8(17) . .
C4 C5 C6 120.0(18) . .
C5 C6 C5 117(2) . 14_665
C5 C6 C7 121.3(11) . .
C5 C6 C7 121.3(11) 14_665 .
O1 C7 O1 122(2) 14_665 .
O1 C7 C6 119.0(12) . .
O1 C7 C6 119.0(12) 14_665 .
loop_
_geom_bond_atom_site_label_1
_geom_bond_atom_site_label_2
_geom_bond_distance
_geom_bond_site_symmetry_2
V1 O1 2.007(11) .
V1 O2 1.978(7) .
V1 O3 1.520(13) .
V1 O4 1.920(9) .
V1 O5 2.312(12) .
V1 O6 1.965(10) .
S1 O5 1.491(16) .
S1 O5 1.491(16) 7_665
S1 O5 1.491(16) 8_656
S1 O7 1.36(2) .
O1 C7 1.284(14) .
O2 C10 1.53(2) .
O4 C9 1.53(3) .
O6 C8 1.47(3) .
N1 C2 1.360(9) 9_665
N1 C2 1.360(9) .
C2 C3 1.367(13) .
C3 C4 1.358(11) 14_665
C3 C4 1.358(11) .
C4 C5 1.354(12) .
C5 C6 1.355(11) .
C6 C7 1.47(3) .
loop_
_geom_torsion_atom_site_label_1
_geom_torsion_atom_site_label_2
_geom_torsion_atom_site_label_3
_geom_torsion_atom_site_label_4
_geom_torsion
_geom_torsion_site_symmetry_1
_geom_torsion_site_symmetry_4
V1 O1 C7 O1 -13(4) . 14_665
V1 O1 C7 C6 167.1(13) . .
O5 S1 O5 V1 -140.9(3) 7_665 .
O5 S1 O5 V1 -23.9(17) 8_656 .
O5 S1 O5 V1 23.9(17) 7_665 14_665
O5 S1 O5 V1 140.9(3) 8_656 14_665
O7 S1 O5 V1 97.6(10) . .
O7 S1 O5 V1 -97.6(10) . 14_665
N1 C2 C3 C4 4(3) . .
N1 C2 C3 C4 174.5(18) . 14_665
N1 C2 C3 C4 -174.5(18) 10_654 .
N1 C2 C3 C4 -4(3) 10_654 14_665
C2 N1 C2 N1 -5(4) 9_665 10_654
C2 N1 C2 C3 176.8(12) 9_665 .
C2 C3 C4 C5 179.4(17) . .
C3 C4 C5 C6 -5(2) . .
C4 C3 C4 C5 8(3) 14_665 .
C4 C5 C6 C5 1(3) . 14_665
C4 C5 C6 C7 179.9(17) . .
C5 C6 C7 O1 -179.7(18) . .
C5 C6 C7 O1 1(3) . 14_665
C5 C6 C7 O1 179.7(18) 14_665 14_665
C5 C6 C7 O1 -1(3) 14_665 .
loop_
_platon_squeeze_void_nr
_platon_squeeze_void_average_x
_platon_squeeze_void_average_y
_platon_squeeze_void_average_z
_platon_squeeze_void_volume
_platon_squeeze_void_count_electrons
_platon_squeeze_void_content
1 -0.010 -0.036 -0.015 12832 2546 ' '
loop_
_twin_individual_id
_twin_individual_mass_fraction_refined
1 0.76(13)
2 0.24(13)
