#------------------------------------------------------------------------------
#$Date: 2019-11-17 12:47:14 +0200 (Sun, 17 Nov 2019) $
#$Revision: 229956 $
#$URL: file:///home/coder/svn-repositories/cod/cif/7/04/79/7047935.cif $
#------------------------------------------------------------------------------
#
# This file is available in the Crystallography Open Database (COD),
# http://www.crystallography.net/
#
# All data on this site have been placed in the public domain by the
# contributors.
#
data_7047935
loop_
_publ_author_name
'Kang, Da-Wei'
'Han, Xue'
'Ma, Xin-Jun'
'Liu, Ying-Ying'
'Ma, Jian-Fang'
_publ_section_title
;
 Two cyclotriveratrylene metal-organic frameworks as effective catalysts
 for Knoevenagel condensation and CO<sub>2</sub> cycloaddition with
 epoxides.
;
_journal_issue                   45
_journal_name_full
'Dalton transactions (Cambridge, England : 2003)'
_journal_page_first              16197
_journal_page_last               16204
_journal_paper_doi               10.1039/c8dt03215g
_journal_volume                  47
_journal_year                    2018
_chemical_formula_moiety         'C84 H95 N15 O28 Zn3'
_chemical_formula_sum            'C84 H95 N15 O28 Zn3'
_chemical_formula_weight         1958.85
_space_group_crystal_system      hexagonal
_space_group_IT_number           190
_space_group_name_Hall           'P -6c -2c'
_space_group_name_H-M_alt        'P -6 2 c'
_symmetry_space_group_name_Hall  'P -6c -2c'
_symmetry_space_group_name_H-M   'P -6 2 c'
_atom_sites_solution_hydrogens   mixed
_audit_creation_method           SHELXL-2014/7
_audit_update_record
;
2018-01-22 deposited with the CCDC.
2018-10-16 downloaded from the CCDC.
;
_cell_angle_alpha                90
_cell_angle_beta                 90
_cell_angle_gamma                120
_cell_formula_units_Z            4
_cell_length_a                   19.4560(11)
_cell_length_b                   19.4560(11)
_cell_length_c                   37.381(3)
_cell_measurement_reflns_used    6131
_cell_measurement_temperature    293(2)
_cell_measurement_theta_max      29.1980
_cell_measurement_theta_min      3.01666
_cell_volume                     12254.3(14)
_computing_cell_refinement       CrysAlis
_computing_data_collection       'CrysAlis (Oxford Diffraction, 2006)'
_computing_data_reduction        CrysAlis
_computing_structure_refinement  'SHELXL-2014/7 (Sheldrick, 2014)'
_computing_structure_solution    'SHELXL-2014/7 (Sheldrick, 2014)'
_diffrn_ambient_temperature      293(2)
_diffrn_detector_area_resol_mean 10.2375
_diffrn_measured_fraction_theta_full 0.995
_diffrn_measured_fraction_theta_max 0.995
_diffrn_measurement_device_type  'Oxford Diffraction Gemini R Ultra'
_diffrn_measurement_method       '\w scan'
_diffrn_radiation_type           MoK\a
_diffrn_radiation_wavelength     0.71073
_diffrn_reflns_av_R_equivalents  0.0757
_diffrn_reflns_av_unetI/netI     0.0550
_diffrn_reflns_Laue_measured_fraction_full 0.995
_diffrn_reflns_Laue_measured_fraction_max 0.995
_diffrn_reflns_limit_h_max       20
_diffrn_reflns_limit_h_min       -23
_diffrn_reflns_limit_k_max       21
_diffrn_reflns_limit_k_min       -20
_diffrn_reflns_limit_l_max       44
_diffrn_reflns_limit_l_min       -28
_diffrn_reflns_number            43882
_diffrn_reflns_point_group_measured_fraction_full 0.997
_diffrn_reflns_point_group_measured_fraction_max 0.997
_diffrn_reflns_theta_full        25.000
_diffrn_reflns_theta_max         25.027
_diffrn_reflns_theta_min         3.023
_exptl_absorpt_coefficient_mu    0.647
_exptl_absorpt_correction_T_max  1.00000
_exptl_absorpt_correction_T_min  0.81339
_exptl_absorpt_correction_type   multi-scan
_exptl_crystal_colour            colorless
_exptl_crystal_density_diffrn    1.062
_exptl_crystal_description       block
_exptl_crystal_F_000             4072
_exptl_crystal_size_max          0.26
_exptl_crystal_size_mid          0.24
_exptl_crystal_size_min          0.23
_platon_squeeze_details
;
;
_refine_diff_density_max         0.264
_refine_diff_density_min         -0.322
_refine_diff_density_rms         0.051
_refine_ls_abs_structure_details
;
 Refined as an inversion twin.
;
_refine_ls_abs_structure_Flack   -0.04(4)
_refine_ls_extinction_method     none
_refine_ls_goodness_of_fit_ref   0.957
_refine_ls_hydrogen_treatment    mixed
_refine_ls_matrix_type           full
_refine_ls_number_parameters     361
_refine_ls_number_reflns         7335
_refine_ls_number_restraints     3
_refine_ls_restrained_S_all      0.958
_refine_ls_R_factor_all          0.1137
_refine_ls_R_factor_gt           0.0763
_refine_ls_shift/su_max          0.000
_refine_ls_shift/su_mean         0.000
_refine_ls_structure_factor_coef Fsqd
_refine_ls_weighting_details
'w=1/[\s^2^(Fo^2^)+(0.1448P)^2^] where P=(Fo^2^+2Fc^2^)/3'
_refine_ls_weighting_scheme      calc
_refine_ls_wR_factor_gt          0.2162
_refine_ls_wR_factor_ref         0.2403
_reflns_Friedel_coverage         0.828
_reflns_Friedel_fraction_full    0.999
_reflns_Friedel_fraction_max     0.999
_reflns_number_gt                4208
_reflns_number_total             7335
_reflns_threshold_expression     'I > 2\s(I)'
_cod_data_source_file            c8dt03215g2.cif
_cod_data_source_block           2
_cod_depositor_comments
'Adding full bibliography for 7047934--7047936.cif.'
_cod_original_cell_volume        12254.3(16)
_cod_database_code               7047935
_shelx_shelxl_version_number     2014/7
_shelx_space_group_comment
;
The symmetry employed for this shelxl refinement is uniquely defined
by the following loop, which should always be used as a source of
symmetry information in preference to the above space-group names.
They are only intended as comments.
;
_shelx_res_file
;

    shelx.res created by SHELXL-2014/7

TITL shelx     P -6         R =  New: P-62c
CELL  0.71073  19.4560  19.4560  37.3810   90.000   90.000  120.000
ZERR     4.00   0.0011   0.0011   0.0025    0.000    0.000    0.000
LATT  -1
SYMM  - X + Y, - X, 1/2 - Z
SYMM  - Y,   X - Y,   Z
SYMM    X,   Y, 1/2 - Z
SYMM  - X + Y, - X,   Z
SYMM  - Y,   X - Y, 1/2 - Z
SYMM    Y,   X, 1/2 + Z
SYMM    X - Y, - Y, - Z
SYMM  - X, - X + Y, 1/2 + Z
SYMM    Y,   X, - Z
SYMM    X - Y, - Y, 1/2 + Z
SYMM  - X, - X + Y, - Z
SFAC  C    H    N    O    ZN
UNIT  336 380 60 112 12
MERG   2
TWIN
shel 9999 0.84
DELU 0.01 C15 C16
DELU 0.01 C20 C21
EQIV $1 -y+1, x-y-1, z
HTAB C4 O3_$1
EQIV $2 -x+y+2, -x+2, z
HTAB C13 O8_$2
dfix 0.80 0.02 O8 H8O
FMAP   2
PLAN   30
ACTA    50.00
BOND   $H
CONF
L.S.  10
TEMP    20.00
WGHT    0.144800
BASF  -0.03649
FVAR       1.71620   0.55448
ZN1   5    1.143684    0.289522    0.113059    11.00000    0.19661    0.27295 =
         0.05099   -0.00644    0.00054    0.18970
C1    1    0.968733    0.190499    0.120429    11.00000    0.16462    0.16504 =
         0.08519   -0.02963   -0.00925    0.12225
AFIX  43
H1    2    0.969724    0.223831    0.138503    11.00000   -1.20000
AFIX   0
C2    1    1.003752    0.138900    0.081366    11.00000    0.24076    0.30222 =
         0.13421   -0.09946   -0.06534    0.22356
AFIX  43
H2    2    1.035475    0.126660    0.067204    11.00000   -1.20000
AFIX   0
C3    1    0.929322    0.099841    0.080624    11.00000    0.28693    0.20985 =
         0.12363   -0.05929   -0.05073    0.19767
AFIX  43
H3    2    0.897844    0.059172    0.064836    11.00000   -1.20000
AFIX   0
C4    1    0.823099    0.110636    0.118378    11.00000    0.19492    0.07475 =
         0.13924    0.01313   -0.00365    0.07590
AFIX  23
H4A   2    0.823623    0.133500    0.141506    11.00000   -1.20000
H4B   2    0.790415    0.053436    0.120400    11.00000   -1.20000
AFIX   0
C5    1    0.785982    0.141243    0.090198    11.00000    0.11161    0.08613 =
         0.12388    0.02124    0.00627    0.03853
AFIX  23
H5A   2    0.787926    0.121889    0.066520    11.00000   -1.20000
H5B   2    0.731156    0.123953    0.096103    11.00000   -1.20000
AFIX   0
C6    1    0.813594    0.266630    0.069101    11.00000    0.08576    0.06759 =
         0.07597    0.00864    0.00329    0.04563
C7    1    0.858808    0.350553    0.071405    11.00000    0.05195    0.06964 =
         0.08552    0.00035    0.00741    0.02358
C8    1    0.840622    0.395189    0.048438    11.00000    0.06311    0.06312 =
         0.10280    0.01969    0.01430    0.03188
AFIX  43
H8    2    0.872102    0.450156    0.049316    11.00000   -1.20000
AFIX   0
C9    1    0.779118    0.363113    0.024577    11.00000    0.05360    0.07246 =
         0.07448    0.00518    0.01315    0.02851
C10   1    0.729413    0.277996    0.023698    11.00000    0.06481    0.05884 =
         0.08633    0.00611    0.01356    0.03538
C11   1    0.750829    0.234226    0.045185    11.00000    0.09484    0.05582 =
         0.09238    0.01438    0.02023    0.04140
AFIX  43
H11   2    0.721132    0.179214    0.043514    11.00000   -1.20000
AFIX   0
C12   1    0.761863    0.417015    0.001506    11.00000    0.06170    0.06138 =
         0.09453    0.00561    0.00740    0.02999
AFIX  23
H12A  2    0.811017    0.459466   -0.008287    11.00000   -1.20000
H12B  2    0.727684    0.386974   -0.018257    11.00000   -1.20000
AFIX   0
C13   1    0.960499    0.463639    0.099613    11.00000    0.08628    0.07398 =
         0.10705   -0.01200   -0.02008    0.03553
AFIX  23
H13A  2    0.925604    0.483241    0.106968    11.00000   -1.20000
H13B  2    0.984353    0.487705    0.076858    11.00000   -1.20000
AFIX   0
C14   1    1.025703    0.484039    0.128197    11.00000    0.14173    0.11611 =
         0.12040   -0.04264   -0.03630    0.07710
AFIX  23
H14A  2    1.053535    0.540732    0.132699    11.00000   -1.20000
H14B  2    1.001056    0.457197    0.150396    11.00000   -1.20000
AFIX   0
C15   1    1.138959    0.500928    0.092675    11.00000    0.14414    0.19528 =
         0.15669    0.04386    0.00699    0.10357
AFIX  43
H15   2    1.153769    0.548988    0.081421    11.00000   -1.20000
AFIX   0
C16   1    1.171340    0.452846    0.088579    11.00000    0.21392    0.32197 =
         0.14444    0.08164    0.08668    0.19140
AFIX  43
H16   2    1.210624    0.461740    0.072022    11.00000   -1.20000
AFIX   0
C17   1    1.082521    0.400650    0.126575    11.00000    0.18308    0.18783 =
         0.07248   -0.00266   -0.01381    0.13761
AFIX  43
H17   2    1.046978    0.364550    0.143046    11.00000   -1.20000
AFIX   0
C18   1    1.154730    0.270904    0.183946    11.00000    0.15827    0.21261 =
         0.03813   -0.00278    0.01819    0.12798
C19   1    1.187491    0.263985    0.218891    11.00000    0.18157    0.23191 =
         0.06121    0.00696   -0.00110    0.17240
C20   1    1.249521    0.248190    0.217563    11.00000    0.28574    0.45203 =
         0.08051    0.03062    0.03427    0.31943
AFIX  43
H20   2    1.266290    0.238031    0.195914    11.00000   -1.20000
AFIX   0
C21   1    1.286391    0.247992    0.250000    10.50000    0.20270    0.48568 =
         0.07342    0.00000    0.00000    0.27969
C22   1    1.157243    0.274426    0.250000    10.50000    0.13045    0.23798 =
         0.04879    0.00000    0.00000    0.13863
AFIX  43
H22   2    1.117741    0.288060    0.250000    10.50000   -1.20000
AFIX   0
PART    1
C23   1    1.282060    0.360845    0.062618    21.00000    0.13444    0.19211 =
         0.07204   -0.00568    0.00244    0.12835
O7    4    1.319018    0.420954    0.081109   -21.00000    0.12424    0.16393 =
         0.08066   -0.07832   -0.01691    0.07892
PART    2
C23'  1    1.216246    0.271709    0.050531   -21.00000    0.07837
O7'   4    1.156208    0.209293    0.040276    21.00000    0.20646    0.19107 =
         0.15216   -0.00404    0.10970    0.08217
PART    0
C24   1    1.321626    0.361750    0.031167    11.00000    0.19610    0.23214 =
         0.08474    0.08559    0.06035    0.18734
C25   1    1.398028    0.419385    0.015941    11.00000    0.11213    0.10231 =
         0.08135   -0.01336   -0.02823    0.08382
C26   1    1.277963    0.294890    0.011609    11.00000    0.11671    0.13563 =
         0.41072    0.13401    0.04390    0.09539
N1    3    1.079691    0.461455    0.117241    11.00000    0.10900    0.12040 =
         0.08689   -0.01261   -0.01893    0.06602
N2    3    1.139036    0.390934    0.111606    11.00000    0.16170    0.28674 =
         0.06675   -0.02041   -0.01322    0.17654
N3    3    0.902234    0.130514    0.109119    11.00000    0.21654    0.14185 =
         0.10127   -0.01065   -0.02683    0.13009
N4    3    1.034211    0.201488    0.105025    11.00000    0.14768    0.22278 =
         0.08356   -0.02282   -0.03053    0.14186
O1    4    0.917898    0.380814    0.096514    11.00000    0.08377    0.07072 =
         0.09197    0.00262   -0.00733    0.03728
O2    4    0.832784    0.224930    0.091636    11.00000    0.10336    0.05925 =
         0.10329    0.01045   -0.00076    0.03932
O3    4    1.193576    0.274569    0.154512    11.00000    0.21295    0.32289 =
         0.04515   -0.01718   -0.00072    0.22158
O4    4    1.101280    0.285883    0.182502    11.00000    0.19473    0.32554 =
         0.05841   -0.00553   -0.00238    0.20636
O5    4    1.351693    0.241181    0.250000    10.50000    0.37315    0.89569 =
         0.10331    0.00000    0.00000    0.52536
AFIX  83
H5    2    1.368703    0.246247    0.270475    10.50000   -1.50000
AFIX   0
O6    4    1.213537    0.300071    0.073932    11.00000    0.09739    0.14080 =
         0.08240   -0.00747    0.00904    0.06062
O8    4    1.463448    0.498288    0.024275    10.50000    0.11797    0.07656 =
         0.12568   -0.01262   -0.02591    0.05153
H8O   2    1.511210    0.536027    0.024774    11.00000   -1.50000
HKLF    4  1.0  1.00  1.00  0.00  0.00 -1.00  0.00  0.00  0.00 -1.00

REM  shelx     P -6         R =  New: P-62c
REM R1 =  0.0763 for    4208 Fo > 4sig(Fo)  and  0.1137 for all    7335 data
REM    361 parameters refined using      3 restraints

END

WGHT      0.1448      0.0000

REM Highest difference peak  0.264,  deepest hole -0.322,  1-sigma level  0.051
Q1    1   1.6968  0.6968  0.0000  10.50000  0.05    0.26
Q2    1   1.0827  0.0827  0.0000  10.50000  0.05    0.24
Q3    1   1.1704  0.3212  0.1123  11.00000  0.05    0.24
Q4    1   1.5394  0.5707  0.0191  11.00000  0.05    0.23
Q5    1   1.0347  0.2778  0.1321  11.00000  0.05    0.20
Q6    1   1.2349  0.3817  0.1303  11.00000  0.05    0.19
Q7    1   1.1372  0.3348  0.2500  10.50000  0.05    0.19
Q8    1   1.2468  0.4292  0.1110  11.00000  0.05    0.18
Q9    1   1.2249  0.3527  0.2500  10.50000  0.05    0.18
Q10   1   1.0075  0.0525  0.0796  11.00000  0.05    0.18
Q11   1   1.1501  0.3795  0.1556  11.00000  0.05    0.18
Q12   1   1.1146  0.3754  0.1309  11.00000  0.05    0.18
Q13   1   1.1421  0.3526  0.0721  11.00000  0.05    0.17
Q14   1   1.0714  0.1509  0.1114  11.00000  0.05    0.17
Q15   1   1.2001  0.4220  0.0602  11.00000  0.05    0.17
Q16   1   1.0914  0.1011  0.0948  11.00000  0.05    0.16
Q17   1   1.0890  0.2828  0.1313  11.00000  0.05    0.16
Q18   1   1.2279  0.4421  0.1161  11.00000  0.05    0.16
Q19   1   1.3033  0.5038  0.0890  11.00000  0.05    0.15
Q20   1   1.0981  0.3643  0.0949  11.00000  0.05    0.15
Q21   1   0.7716  0.2067  0.0282  11.00000  0.05    0.15
Q22   1   1.0498  0.2990  0.1002  11.00000  0.05    0.15
Q23   1   0.7739  0.2792  0.0466  11.00000  0.05    0.15
Q24   1   0.6636  0.2244  0.0588  11.00000  0.05    0.15
Q25   1   0.9158  0.0490  0.1012  11.00000  0.05    0.15
Q26   1   1.1869  0.4201  0.1118  11.00000  0.05    0.15
Q27   1   0.8762  0.1812  0.1102  11.00000  0.05    0.15
Q28   1   0.9899  0.1748  0.1005  11.00000  0.05    0.14
Q29   1   0.8456  0.2538  0.0475  11.00000  0.05    0.14
Q30   1   1.1037  0.3074  0.0721  11.00000  0.05    0.14
;
_shelx_res_checksum              32445
loop_
_space_group_symop_operation_xyz
'x, y, z'
'-x+y, -x, -z+1/2'
'-y, x-y, z'
'x, y, -z+1/2'
'-x+y, -x, z'
'-y, x-y, -z+1/2'
'y, x, z+1/2'
'x-y, -y, -z'
'-x, -x+y, z+1/2'
'y, x, -z'
'x-y, -y, z+1/2'
'-x, -x+y, -z'
loop_
_atom_site_label
_atom_site_type_symbol
_atom_site_fract_x
_atom_site_fract_y
_atom_site_fract_z
_atom_site_U_iso_or_equiv
_atom_site_adp_type
_atom_site_occupancy
_atom_site_site_symmetry_order
_atom_site_calc_flag
_atom_site_refinement_flags_posn
_atom_site_refinement_flags_adp
_atom_site_refinement_flags_occupancy
_atom_site_disorder_assembly
_atom_site_disorder_group
Zn1 Zn 1.14368(11) 0.28952(11) 0.11306(2) 0.1414(7) Uani 1 1 d . . . . .
C1 C 0.9687(9) 0.1905(9) 0.1204(3) 0.121(4) Uani 1 1 d . . . . .
H1 H 0.9697 0.2238 0.1385 0.145 Uiso 1 1 calc R U . . .
C2 C 1.0038(12) 0.1389(13) 0.0814(5) 0.187(8) Uani 1 1 d . . . . .
H2 H 1.0355 0.1267 0.0672 0.224 Uiso 1 1 calc R U . . .
C3 C 0.9293(14) 0.0998(11) 0.0806(4) 0.174(7) Uani 1 1 d . . . . .
H3 H 0.8978 0.0592 0.0648 0.209 Uiso 1 1 calc R U . . .
C4 C 0.8231(9) 0.1106(6) 0.1184(3) 0.133(4) Uani 1 1 d . . . . .
H4A H 0.8236 0.1335 0.1415 0.159 Uiso 1 1 calc R U . . .
H4B H 0.7904 0.0534 0.1204 0.159 Uiso 1 1 calc R U . . .
C5 C 0.7860(6) 0.1412(5) 0.0902(3) 0.112(3) Uani 1 1 d . . . . .
H5A H 0.7879 0.1219 0.0665 0.134 Uiso 1 1 calc R U . . .
H5B H 0.7312 0.1240 0.0961 0.134 Uiso 1 1 calc R U . . .
C6 C 0.8136(4) 0.2666(4) 0.0691(2) 0.0732(18) Uani 1 1 d . . . . .
C7 C 0.8588(4) 0.3506(4) 0.0714(2) 0.0721(18) Uani 1 1 d . . . . .
C8 C 0.8406(4) 0.3952(4) 0.0484(2) 0.076(2) Uani 1 1 d . . . . .
H8 H 0.8721 0.4502 0.0493 0.091 Uiso 1 1 calc R U . . .
C9 C 0.7791(4) 0.3631(4) 0.0246(2) 0.0682(17) Uani 1 1 d . . . . .
C10 C 0.7294(4) 0.2780(4) 0.02370(19) 0.0680(16) Uani 1 1 d . . . . .
C11 C 0.7508(5) 0.2342(4) 0.0452(2) 0.0794(19) Uani 1 1 d . . . . .
H11 H 0.7211 0.1792 0.0435 0.095 Uiso 1 1 calc R U . . .
C12 C 0.7619(4) 0.4170(4) 0.0015(2) 0.0729(18) Uani 1 1 d . . . . .
H12A H 0.8110 0.4595 -0.0083 0.087 Uiso 1 1 calc R U . . .
H12B H 0.7277 0.3870 -0.0183 0.087 Uiso 1 1 calc R U . . .
C13 C 0.9605(5) 0.4636(4) 0.0996(3) 0.091(2) Uani 1 1 d . . . . .
H13A H 0.9256 0.4832 0.1070 0.109 Uiso 1 1 calc R U . . .
H13B H 0.9844 0.4877 0.0769 0.109 Uiso 1 1 calc R U . . .
C14 C 1.0257(7) 0.4840(6) 0.1282(3) 0.120(3) Uani 1 1 d . . . . .
H14A H 1.0535 0.5407 0.1327 0.145 Uiso 1 1 calc R U . . .
H14B H 1.0011 0.4572 0.1504 0.145 Uiso 1 1 calc R U . . .
C15 C 1.1390(9) 0.5009(10) 0.0927(4) 0.157(5) Uani 1 1 d . U . . .
H15 H 1.1538 0.5490 0.0814 0.188 Uiso 1 1 calc R U . . .
C16 C 1.1713(10) 0.4528(14) 0.0886(5) 0.201(8) Uani 1 1 d . U . . .
H16 H 1.2106 0.4617 0.0720 0.242 Uiso 1 1 calc R U . . .
C17 C 1.0825(8) 0.4007(9) 0.1266(3) 0.128(4) Uani 1 1 d . . . . .
H17 H 1.0470 0.3645 0.1430 0.153 Uiso 1 1 calc R U . . .
C18 C 1.1547(7) 0.2709(8) 0.1839(2) 0.121(4) Uani 1 1 d . . . . .
C19 C 1.1875(7) 0.2640(8) 0.2189(2) 0.128(4) Uani 1 1 d . . . . .
C20 C 1.2495(11) 0.2482(13) 0.2176(3) 0.213(9) Uani 1 1 d . U . . .
H20 H 1.2663 0.2380 0.1959 0.255 Uiso 1 1 calc R U . . .
C21 C 1.2864(13) 0.248(2) 0.2500 0.206(12) Uani 1 2 d S TU P . .
C22 C 1.1572(8) 0.2744(10) 0.2500 0.118(5) Uani 1 2 d S T P . .
H22 H 1.1177 0.2881 0.2500 0.142 Uiso 1 2 calc R U P . .
C23 C 1.2821(13) 0.3608(15) 0.0626(5) 0.112(8) Uani 0.55(2) 1 d . . P A 1
O7 O 1.3190(9) 0.4210(10) 0.0811(4) 0.120(7) Uani 0.45(2) 1 d . . P A 1
C23' C 1.2162(11) 0.2717(12) 0.0505(6) 0.078(6) Uiso 0.45(2) 1 d . . P A 2
O7' O 1.1562(12) 0.2093(12) 0.0403(5) 0.191(10) Uani 0.55(2) 1 d . . P A 2
C24 C 1.3216(9) 0.3617(10) 0.0312(3) 0.135(5) Uani 1 1 d . . . . .
C25 C 1.3980(5) 0.4194(5) 0.0159(2) 0.085(2) Uani 1 1 d . . . . .
C26 C 1.2780(9) 0.2949(8) 0.0116(10) 0.207(17) Uani 1 1 d . . . . .
N1 N 1.0797(5) 0.4615(5) 0.1172(2) 0.102(2) Uani 1 1 d . . . . .
N2 N 1.1390(7) 0.3909(9) 0.1116(2) 0.143(4) Uani 1 1 d . . . . .
N3 N 0.9022(10) 0.1305(7) 0.1091(3) 0.135(4) Uani 1 1 d . . . . .
N4 N 1.0342(6) 0.2015(7) 0.1050(2) 0.129(3) Uani 1 1 d . . . . .
O1 O 0.9179(3) 0.3808(3) 0.09651(15) 0.0827(14) Uani 1 1 d . . . . .
O2 O 0.8328(3) 0.2249(3) 0.09164(15) 0.0892(15) Uani 1 1 d . . . . .
O3 O 1.1936(5) 0.2746(6) 0.15451(15) 0.155(3) Uani 1 1 d . . . . .
O4 O 1.1013(5) 0.2859(7) 0.18250(16) 0.159(4) Uani 1 1 d . . . . .
O5 O 1.3517(14) 0.241(2) 0.2500 0.365(19) Uani 1 2 d S T P . .
H5 H 1.3687 0.2462 0.2705 0.547 Uiso 0.5 1 calc R U P . .
O6 O 1.2135(4) 0.3001(4) 0.07393(18) 0.1064(18) Uani 1 1 d . . . . .
O8 O 1.4634(7) 0.4983(6) 0.0243(4) 0.105(4) Uani 0.5 1 d D . P . .
H8O H 1.511(3) 0.536(5) 0.025(3) 0.158 Uiso 1 1 d D U . . .
loop_
_atom_site_aniso_label
_atom_site_aniso_U_11
_atom_site_aniso_U_22
_atom_site_aniso_U_33
_atom_site_aniso_U_23
_atom_site_aniso_U_13
_atom_site_aniso_U_12
Zn1 0.1966(15) 0.2730(19) 0.0510(6) -0.0064(7) 0.0005(7) 0.1897(16)
C1 0.165(10) 0.165(10) 0.085(7) -0.030(7) -0.009(7) 0.122(9)
C2 0.241(18) 0.30(2) 0.134(12) -0.099(13) -0.065(13) 0.224(18)
C3 0.29(2) 0.210(15) 0.124(10) -0.059(11) -0.051(14) 0.198(17)
C4 0.195(13) 0.075(5) 0.139(10) 0.013(5) -0.004(9) 0.076(7)
C5 0.112(6) 0.086(6) 0.124(9) 0.021(5) 0.006(6) 0.039(5)
C6 0.086(5) 0.068(4) 0.076(5) 0.009(4) 0.003(4) 0.046(4)
C7 0.052(4) 0.070(4) 0.086(5) 0.000(4) 0.007(3) 0.024(3)
C8 0.063(4) 0.063(4) 0.103(6) 0.020(4) 0.014(4) 0.032(3)
C9 0.054(4) 0.072(4) 0.074(5) 0.005(3) 0.013(3) 0.029(3)
C10 0.065(4) 0.059(4) 0.086(4) 0.006(4) 0.014(4) 0.035(3)
C11 0.095(5) 0.056(3) 0.092(5) 0.014(4) 0.020(4) 0.041(4)
C12 0.062(4) 0.061(4) 0.095(5) 0.006(3) 0.007(4) 0.030(3)
C13 0.086(5) 0.074(5) 0.107(6) -0.012(4) -0.020(4) 0.036(4)
C14 0.142(8) 0.116(6) 0.120(8) -0.043(6) -0.036(7) 0.077(6)
C15 0.144(11) 0.195(13) 0.157(13) 0.044(11) 0.007(9) 0.104(10)
C16 0.214(16) 0.32(2) 0.144(14) 0.082(15) 0.087(13) 0.191(18)
C17 0.183(11) 0.188(11) 0.072(6) -0.003(7) -0.014(7) 0.138(9)
C18 0.158(9) 0.213(12) 0.038(4) -0.003(5) 0.018(4) 0.128(9)
C19 0.182(10) 0.232(12) 0.061(5) 0.007(6) -0.001(6) 0.172(10)
C20 0.286(17) 0.45(3) 0.081(7) 0.031(11) 0.034(9) 0.32(2)
C21 0.203(17) 0.49(4) 0.073(9) 0.000 0.000 0.28(2)
C22 0.130(10) 0.238(17) 0.049(6) 0.000 0.000 0.139(12)
C23 0.134(16) 0.19(2) 0.072(11) -0.006(13) 0.002(11) 0.128(17)
O7 0.124(11) 0.164(14) 0.081(10) -0.078(10) -0.017(8) 0.079(10)
O7' 0.206(18) 0.191(17) 0.152(16) -0.004(12) 0.110(14) 0.082(15)
C24 0.196(13) 0.232(14) 0.085(7) 0.086(8) 0.060(7) 0.187(12)
C25 0.112(6) 0.102(5) 0.081(5) -0.013(4) -0.028(4) 0.084(5)
C26 0.117(9) 0.136(9) 0.41(5) 0.13(2) 0.044(14) 0.095(8)
N1 0.109(6) 0.120(6) 0.087(5) -0.013(4) -0.019(4) 0.066(5)
N2 0.162(8) 0.287(14) 0.067(5) -0.020(7) -0.013(5) 0.177(10)
N3 0.217(13) 0.142(9) 0.101(7) -0.011(6) -0.027(8) 0.130(10)
N4 0.148(7) 0.223(11) 0.084(5) -0.023(6) -0.031(5) 0.142(8)
O1 0.084(3) 0.071(3) 0.092(4) 0.003(3) -0.007(3) 0.037(3)
O2 0.103(4) 0.059(3) 0.103(4) 0.010(3) -0.001(3) 0.039(3)
O3 0.213(7) 0.323(11) 0.045(3) -0.017(5) -0.001(4) 0.222(8)
O4 0.195(7) 0.326(12) 0.058(4) -0.006(5) -0.002(4) 0.206(9)
O5 0.37(3) 0.90(6) 0.103(10) 0.000 0.000 0.53(4)
O6 0.097(4) 0.141(5) 0.082(4) -0.007(4) 0.009(3) 0.061(4)
O8 0.118(8) 0.077(7) 0.126(10) -0.013(6) -0.026(7) 0.052(7)
loop_
_atom_type_symbol
_atom_type_description
_atom_type_scat_dispersion_real
_atom_type_scat_dispersion_imag
_atom_type_scat_source
C C 0.0033 0.0016 'International Tables Vol C Tables 4.2.6.8 and 6.1.1.4'
H H 0.0000 0.0000 'International Tables Vol C Tables 4.2.6.8 and 6.1.1.4'
N N 0.0061 0.0033 'International Tables Vol C Tables 4.2.6.8 and 6.1.1.4'
O O 0.0106 0.0060 'International Tables Vol C Tables 4.2.6.8 and 6.1.1.4'
Zn Zn 0.2839 1.4301 'International Tables Vol C Tables 4.2.6.8 and 6.1.1.4'
loop_
_geom_angle_atom_site_label_1
_geom_angle_atom_site_label_2
_geom_angle_atom_site_label_3
_geom_angle
_geom_angle_site_symmetry_1
_geom_angle_site_symmetry_3
O3 Zn1 O6 104.1(3) . .
O3 Zn1 N4 113.4(4) . .
O6 Zn1 N4 111.8(3) . .
O3 Zn1 N2 116.2(4) . .
O6 Zn1 N2 104.4(4) . .
N4 Zn1 N2 106.7(4) . .
N3 C1 N4 116.8(11) . .
N3 C1 H1 121.6 . .
N4 C1 H1 121.6 . .
C3 C2 N4 114.0(13) . .
C3 C2 H2 123.0 . .
N4 C2 H2 123.0 . .
C2 C3 N3 106.4(15) . .
C2 C3 H3 126.8 . .
N3 C3 H3 126.8 . .
N3 C4 C5 112.1(10) . .
N3 C4 H4A 109.2 . .
C5 C4 H4A 109.2 . .
N3 C4 H4B 109.2 . .
C5 C4 H4B 109.2 . .
H4A C4 H4B 107.9 . .
O2 C5 C4 105.1(8) . .
O2 C5 H5A 110.7 . .
C4 C5 H5A 110.7 . .
O2 C5 H5B 110.7 . .
C4 C5 H5B 110.7 . .
H5A C5 H5B 108.8 . .
O2 C6 C11 125.2(6) . .
O2 C6 C7 117.2(7) . .
C11 C6 C7 117.5(6) . .
O1 C7 C8 125.3(6) . .
O1 C7 C6 116.2(6) . .
C8 C7 C6 118.5(7) . .
C9 C8 C7 123.8(6) . .
C9 C8 H8 118.1 . .
C7 C8 H8 118.1 . .
C8 C9 C10 118.1(6) . .
C8 C9 C12 120.0(6) . .
C10 C9 C12 121.8(6) . .
C11 C10 C9 117.4(6) . .
C11 C10 C12 120.9(6) . 5_665
C9 C10 C12 121.7(6) . 5_665
C10 C11 C6 124.4(7) . .
C10 C11 H11 117.8 . .
C6 C11 H11 117.8 . .
C10 C12 C9 109.6(6) 3_655 .
C10 C12 H12A 109.7 3_655 .
C9 C12 H12A 109.7 . .
C10 C12 H12B 109.7 3_655 .
C9 C12 H12B 109.7 . .
H12A C12 H12B 108.2 . .
O1 C13 C14 106.8(7) . .
O1 C13 H13A 110.4 . .
C14 C13 H13A 110.4 . .
O1 C13 H13B 110.4 . .
C14 C13 H13B 110.4 . .
H13A C13 H13B 108.6 . .
N1 C14 C13 111.6(8) . .
N1 C14 H14A 109.3 . .
C13 C14 H14A 109.3 . .
N1 C14 H14B 109.3 . .
C13 C14 H14B 109.3 . .
H14A C14 H14B 108.0 . .
N1 C15 C16 103.7(13) . .
N1 C15 H15 128.1 . .
C16 C15 H15 128.1 . .
N2 C16 C15 111.6(12) . .
N2 C16 H16 124.2 . .
C15 C16 H16 124.2 . .
N1 C17 N2 116.4(12) . .
N1 C17 H17 121.8 . .
N2 C17 H17 121.8 . .
O4 C18 O3 119.2(8) . .
O4 C18 C19 121.2(7) . .
O3 C18 C19 118.6(9) . .
C22 C19 C20 123.5(8) . .
C22 C19 C18 119.9(7) . .
C20 C19 C18 116.6(8) . .
C19 C20 C21 118.0(10) . .
C19 C20 H20 121.0 . .
C21 C20 H20 121.0 . .
O5 C21 C20 120.6(6) . .
O5 C21 C20 120.6(6) . 4
C20 C21 C20 118.6(13) . 4
C19 C22 C19 117.0(10) . 4
C19 C22 H22 121.5 . .
C19 C22 H22 121.5 4 .
O7 C23 O6 120.9(16) . .
O7 C23 C24 114(2) . .
O6 C23 C24 125.2(19) . .
O6 C23' O7' 120(2) . .
O6 C23' C26 138.3(18) . .
O7' C23' C26 100.3(18) . .
C26 C24 C23 111.3(19) . .
C26 C24 C25 115.8(12) . .
C23 C24 C25 132.9(18) . .
C25 C25 O8 105.3(7) 10_645 .
C25 C25 C24 116.5(7) 10_645 .
O8 C25 C24 138.2(11) . .
C26 C26 C24 127.5(9) 10_645 .
C26 C26 C23' 151.2(9) 10_645 .
C24 C26 C23' 79.8(18) . .
C17 N1 C15 107.0(10) . .
C17 N1 C14 127.6(11) . .
C15 N1 C14 125.3(11) . .
C17 N2 C16 101.0(11) . .
C17 N2 Zn1 124.9(11) . .
C16 N2 Zn1 131.2(9) . .
C1 N3 C4 128.0(10) . .
C1 N3 C3 101.8(14) . .
C4 N3 C3 129.3(15) . .
C1 N4 C2 100.6(12) . .
C1 N4 Zn1 127.6(9) . .
C2 N4 Zn1 131.6(11) . .
C7 O1 C13 116.0(6) . .
C6 O2 C5 117.2(7) . .
C18 O3 Zn1 111.2(6) . .
C21 O5 H5 109.5 . .
C23' O6 Zn1 142.3(13) . .
C23 O6 Zn1 132.2(10) . .
C25 O8 H8O 157(8) . .
loop_
_geom_bond_atom_site_label_1
_geom_bond_atom_site_label_2
_geom_bond_distance
_geom_bond_site_symmetry_2
Zn1 O3 1.926(6) .
Zn1 O6 1.936(7) .
Zn1 N4 1.978(11) .
Zn1 N2 2.021(13) .
C1 N3 1.306(18) .
C1 N4 1.314(15) .
C1 H1 0.9300 .
C2 C3 1.25(2) .
C2 N4 1.376(18) .
C2 H2 0.9300 .
C3 N3 1.443(17) .
C3 H3 0.9300 .
C4 N3 1.430(18) .
C4 C5 1.554(15) .
C4 H4A 0.9700 .
C4 H4B 0.9700 .
C5 O2 1.414(10) .
C5 H5A 0.9700 .
C5 H5B 0.9700 .
C6 O2 1.345(9) .
C6 C11 1.385(11) .
C6 C7 1.418(10) .
C7 O1 1.368(9) .
C7 C8 1.387(10) .
C8 C9 1.368(10) .
C8 H8 0.9300 .
C9 C10 1.441(10) .
C9 C12 1.519(9) .
C10 C11 1.378(9) .
C10 C12 1.502(10) 5_665
C11 H11 0.9300 .
C12 C10 1.502(10) 3_655
C12 H12A 0.9700 .
C12 H12B 0.9700 .
C13 O1 1.401(9) .
C13 C14 1.551(12) .
C13 H13A 0.9700 .
C13 H13B 0.9700 .
C14 N1 1.388(12) .
C14 H14A 0.9700 .
C14 H14B 0.9700 .
C15 N1 1.370(16) .
C15 C16 1.37(2) .
C15 H15 0.9300 .
C16 N2 1.35(2) .
C16 H16 0.9300 .
C17 N1 1.261(13) .
C17 N2 1.329(13) .
C17 H17 0.9300 .
C18 O4 1.213(10) .
C18 O3 1.316(10) .
C18 C19 1.489(12) .
C19 C22 1.364(10) .
C19 C20 1.387(13) .
C20 C21 1.410(15) .
C20 H20 0.9300 .
C21 O5 1.342(19) .
C21 C20 1.410(15) 4
C22 C19 1.364(10) 4
C22 H22 0.9300 .
C23 O7 1.23(2) .
C23 O6 1.33(2) .
C23 C24 1.40(2) .
C23' O6 1.05(2) .
C23' O7' 1.25(2) .
C23' C26 1.79(3) .
C24 C26 1.36(3) .
C24 C25 1.457(15) .
C25 C25 1.392(17) 10_645
C25 O8 1.456(14) .
C26 C26 1.04(6) 10_645
O5 H5 0.8200 .
O8 H8O 0.85(3) .
loop_
_geom_hbond_atom_site_label_D
_geom_hbond_atom_site_label_H
_geom_hbond_atom_site_label_A
_geom_hbond_distance_DH
_geom_hbond_distance_HA
_geom_hbond_distance_DA
_geom_hbond_angle_DHA
_geom_hbond_site_symmetry_A
C4 H4B O3 0.97 2.60 3.500(11) 154.5 3_645
C13 H13B O8 0.97 2.19 3.160(16) 177.3 5_775
loop_
_geom_torsion_atom_site_label_1
_geom_torsion_atom_site_label_2
_geom_torsion_atom_site_label_3
_geom_torsion_atom_site_label_4
_geom_torsion
_geom_torsion_site_symmetry_1
_geom_torsion_site_symmetry_4
N4 C2 C3 N3 -7(2) . .
N3 C4 C5 O2 -64.4(12) . .
O2 C6 C7 O1 0.1(9) . .
C11 C6 C7 O1 176.8(6) . .
O2 C6 C7 C8 179.8(6) . .
C11 C6 C7 C8 -3.4(10) . .
O1 C7 C8 C9 -177.3(7) . .
C6 C7 C8 C9 3.0(11) . .
C7 C8 C9 C10 1.2(10) . .
C7 C8 C9 C12 177.6(6) . .
C8 C9 C10 C11 -4.7(9) . .
C12 C9 C10 C11 178.9(6) . .
C8 C9 C10 C12 172.8(6) . 5_665
C12 C9 C10 C12 -3.6(9) . 5_665
C9 C10 C11 C6 4.3(10) . .
C12 C10 C11 C6 -173.2(7) 5_665 .
O2 C6 C11 C10 176.3(7) . .
C7 C6 C11 C10 -0.2(11) . .
C8 C9 C12 C10 -75.6(8) . 3_655
C10 C9 C12 C10 100.7(7) . 3_655
O1 C13 C14 N1 64.1(12) . .
N1 C15 C16 N2 -5(2) . .
O4 C18 C19 C22 0(2) . .
O3 C18 C19 C22 168.2(14) . .
O4 C18 C19 C20 -178.8(16) . .
O3 C18 C19 C20 -11(2) . .
C22 C19 C20 C21 -4(3) . .
C18 C19 C20 C21 175(2) . .
C19 C20 C21 O5 -173(3) . .
C19 C20 C21 C20 12(4) . 4
C20 C19 C22 C19 -4(3) . 4
C18 C19 C22 C19 177.3(10) . 4
O7 C23 C24 C26 -179.1(16) . .
O6 C23 C24 C26 5(2) . .
O7 C23 C24 C25 0(2) . .
O6 C23 C24 C25 -175.2(10) . .
C26 C24 C25 C25 -3.0(16) . 10_645
C23 C24 C25 C25 177.6(12) . 10_645
C26 C24 C25 O8 176.6(13) . .
C23 C24 C25 O8 -2.9(18) . .
C23 C24 C26 C26 -174(4) . 10_645
C25 C24 C26 C26 6(5) . 10_645
C25 C24 C26 C23' 175.9(9) . .
O6 C23' C26 C26 171(6) . 10_645
O7' C23' C26 C26 -25(7) . 10_645
O6 C23' C26 C24 8(3) . .
O7' C23' C26 C24 171.9(18) . .
N2 C17 N1 C15 0.7(14) . .
N2 C17 N1 C14 178.4(9) . .
C16 C15 N1 C17 2.8(16) . .
C16 C15 N1 C14 -175.0(12) . .
C13 C14 N1 C17 -101.0(13) . .
C13 C14 N1 C15 76.3(14) . .
N1 C17 N2 C16 -3.8(16) . .
N1 C17 N2 Zn1 -166.3(8) . .
C15 C16 N2 C17 5.5(19) . .
C15 C16 N2 Zn1 166.3(11) . .
N4 C1 N3 C4 -172.6(10) . .
N4 C1 N3 C3 -2.8(14) . .
C5 C4 N3 C1 96.9(14) . .
C5 C4 N3 C3 -70.1(14) . .
C2 C3 N3 C1 5.7(17) . .
C2 C3 N3 C4 175.3(14) . .
N3 C1 N4 C2 -1.0(15) . .
N3 C1 N4 Zn1 175.6(8) . .
C3 C2 N4 C1 5(2) . .
C3 C2 N4 Zn1 -171.2(12) . .
C8 C7 O1 C13 2.6(10) . .
C6 C7 O1 C13 -177.7(7) . .
C14 C13 O1 C7 -177.7(7) . .
C11 C6 O2 C5 1.4(11) . .
C7 C6 O2 C5 177.9(7) . .
C4 C5 O2 C6 179.1(8) . .
O4 C18 O3 Zn1 -8.3(16) . .
C19 C18 O3 Zn1 -176.6(9) . .
O7' C23' O6 Zn1 3(3) . .
C26 C23' O6 Zn1 165.7(14) . .
O7 C23 O6 Zn1 12(2) . .
C24 C23 O6 Zn1 -172.6(8) . .
loop_
_platon_squeeze_void_nr
_platon_squeeze_void_average_x
_platon_squeeze_void_average_y
_platon_squeeze_void_average_z
_platon_squeeze_void_volume
_platon_squeeze_void_count_electrons
_platon_squeeze_void_content
1 0.000 0.000 0.000 475 94 ' '
2 -0.020 0.003 0.250 2391 411 ' '
3 0.000 0.000 0.500 475 94 ' '
4 -0.029 -0.021 0.750 2391 411 ' '
