#------------------------------------------------------------------------------
#$Date: 2019-11-17 10:45:22 +0200 (Sun, 17 Nov 2019) $
#$Revision: 229414 $
#$URL: file:///home/coder/svn-repositories/cod/cif/7/04/72/7047217.cif $
#------------------------------------------------------------------------------
#
# This file is available in the Crystallography Open Database (COD),
# http://www.crystallography.net/
#
# All data on this site have been placed in the public domain by the
# contributors.
#
data_7047217
loop_
_publ_author_name
'Fernandes, Tamires S.'
'Melo, Wanessa D. C.'
'Kalinke, Lucas H. G.'
'Rabelo, Renato'
'Valdo, Ana K.'
'da Silva, Cameron C.'
'Martins, Felipe T.'
'Amor\'os, Pedro'
'Lloret, Francesc'
'Julve, Miguel'
'Cangussu, Danielle'
_publ_section_title
;
 2D and 3D mixed M<sup>II</sup>/Cu<sup>II</sup> metal-organic frameworks
 (M = Ca and Sr) with N,N'-2,6-pyridinebis(oxamate) and oxalate:
 preparation and magneto-structural study.
;
_journal_issue                   33
_journal_name_full
'Dalton transactions (Cambridge, England : 2003)'
_journal_page_first              11539
_journal_page_last               11553
_journal_paper_doi               10.1039/c8dt01686k
_journal_volume                  47
_journal_year                    2018
_chemical_formula_sum            'C38 H69 Cu4 N12 O56.5 Sr4.5'
_chemical_formula_weight         2246.54
_space_group_crystal_system      triclinic
_space_group_IT_number           2
_space_group_name_Hall           '-P 1'
_space_group_name_H-M_alt        'P -1'
_symmetry_space_group_name_Hall  '-P 1'
_symmetry_space_group_name_H-M   'P -1'
_atom_sites_solution_hydrogens   mixed
_audit_creation_method           SHELXL-2014/7
_audit_update_record
;
2018-06-28 deposited with the CCDC.
2018-07-23 downloaded from the CCDC.
;
_cell_angle_alpha                79.244(2)
_cell_angle_beta                 87.2880(10)
_cell_angle_gamma                77.0270(10)
_cell_formula_units_Z            1
_cell_length_a                   6.26030(10)
_cell_length_b                   13.1593(3)
_cell_length_c                   24.1169(6)
_cell_measurement_reflns_used    9895
_cell_measurement_temperature    296(2)
_cell_measurement_theta_max      25.35
_cell_measurement_theta_min      2.56
_cell_volume                     1902.02(7)
_computing_cell_refinement       'SAINT (Bruker, 2002)'
_computing_data_collection       'Collect (Bruker AXS BV, 1997-2004)'
_computing_molecular_graphics
;
ORTEPIII (Farrugia, 2012), Mercury (Macrae, 2008)
;
_computing_publication_material
;
SHELXL-2014/7 (Sheldrick, 2015), WinGX (Farrugia, 2012)
;
_computing_structure_refinement  'SHELXL-2014/7 (Sheldrick, 2014)'
_computing_structure_solution    'SHELXL-2014 (Sheldrick, 2014)'
_diffrn_ambient_temperature      296(2)
_diffrn_measured_fraction_theta_full 0.994
_diffrn_measured_fraction_theta_max 0.992
_diffrn_measurement_device_type  'Bruker APEX-II CCD'
_diffrn_radiation_type           MoK\a
_diffrn_radiation_wavelength     0.71073
_diffrn_reflns_av_R_equivalents  0.0248
_diffrn_reflns_av_unetI/netI     0.0261
_diffrn_reflns_Laue_measured_fraction_full 0.994
_diffrn_reflns_Laue_measured_fraction_max 0.992
_diffrn_reflns_limit_h_max       7
_diffrn_reflns_limit_h_min       -7
_diffrn_reflns_limit_k_max       15
_diffrn_reflns_limit_k_min       -14
_diffrn_reflns_limit_l_max       28
_diffrn_reflns_limit_l_min       -29
_diffrn_reflns_number            29169
_diffrn_reflns_point_group_measured_fraction_full 0.994
_diffrn_reflns_point_group_measured_fraction_max 0.992
_diffrn_reflns_theta_full        25.000
_diffrn_reflns_theta_max         25.367
_diffrn_reflns_theta_min         1.615
_exptl_absorpt_coefficient_mu    4.347
_exptl_absorpt_correction_T_max  0.667
_exptl_absorpt_correction_T_min  0.523
_exptl_absorpt_correction_type   multi-scan
_exptl_absorpt_process_details
'Blessing, R. H. (1995) Acta Cryst., A51, 33-38'
_exptl_crystal_colour            green
_exptl_crystal_density_diffrn    1.961
_exptl_crystal_description       prism
_exptl_crystal_F_000             1120
_exptl_crystal_size_max          0.20
_exptl_crystal_size_mid          0.10
_exptl_crystal_size_min          0.10
_refine_diff_density_max         2.944
_refine_diff_density_min         -1.028
_refine_diff_density_rms         0.110
_refine_ls_extinction_method     none
_refine_ls_goodness_of_fit_ref   1.094
_refine_ls_hydrogen_treatment    constr
_refine_ls_matrix_type           full
_refine_ls_number_parameters     529
_refine_ls_number_reflns         6935
_refine_ls_number_restraints     0
_refine_ls_restrained_S_all      1.094
_refine_ls_R_factor_all          0.0509
_refine_ls_R_factor_gt           0.0423
_refine_ls_shift/su_max          0.002
_refine_ls_shift/su_mean         0.000
_refine_ls_structure_factor_coef Fsqd
_refine_ls_weighting_details
'w=1/[\s^2^(Fo^2^)+(0.0607P)^2^+5.0635P] where P=(Fo^2^+2Fc^2^)/3'
_refine_ls_weighting_scheme      calc
_refine_ls_wR_factor_gt          0.1169
_refine_ls_wR_factor_ref         0.1216
_reflns_Friedel_coverage         0.000
_reflns_number_gt                5928
_reflns_number_total             6935
_reflns_threshold_expression     'I > 2\s(I)'
_cod_data_source_file            c8dt01686k2.cif
_cod_data_source_block           Cu2L2Srox
_cod_depositor_comments
'Adding full bibliography for 7047216--7047218.cif.'
_cod_original_formula_sum        'C38 H69 Cu4 N12 O56.50 Sr4.50'
_cod_database_code               7047217
_shelx_shelxl_version_number     2014/7
_shelx_space_group_comment
;
The symmetry employed for this shelxl refinement is uniquely defined
by the following loop, which should always be used as a source of
symmetry information in preference to the above space-group names.
They are only intended as comments.
;
_shelx_res_file
;

    shelx.res created by SHELXL-2014/7

TITL NEW2 in P-1
CELL  0.71073   6.2603  13.1593  24.1169   79.244   87.288   77.027
ZERR     2.00   0.0001   0.0003   0.0006    0.002    0.001    0.001
LATT   1
SFAC  C    N    O    CU   SR   NA   CL   K    H    CA
UNIT  38 12 60 4 5 0 0 0 0 0
MERG   2
OMIT     0  -1   1
OMIT     0   2   3
OMIT     0  -3   2
OMIT    -1   2   3
OMIT     0   2   4
OMIT     0  -2   2
OMIT     1   4   8
OMIT    -1   1   7
OMIT    -1   2   5
OMIT    -1   2   7
OMIT     2   0   0
OMIT     1   4   4
OMIT     0   1   1
OMIT     0   1   2
OMIT     0   0   6
OMIT     1   0   8
OMIT     0   1   6
FREE  SR1 C6
FREE  SR1 C7
FREE  SR1 C1X
EQIV  $1 -x, -y, -z
FREE   Sr1_$1 C1X
FREE  SR2 C15
FREE  SR2 C16
EXYZ  SR3 O16W
EADP  SR3 O16W
FMAP   2
PLAN   20
ACTA    50.00
BOND   $H
CONF
L.S.  10
TEMP    23.00
WGHT    0.060700    5.063500
FVAR       0.10079
CU1   4    0.162686    0.903141    0.277135    11.00000    0.03805    0.03077 =
         0.02223   -0.00498   -0.00353    0.00329
CU2   4    0.393638    0.399243    0.234932    11.00000    0.05274    0.02617 =
         0.02694    0.00018   -0.00084   -0.00895
O3    3   -0.099794    1.005681    0.244748    11.00000    0.04756    0.05587 =
         0.02771   -0.00759   -0.00528    0.01657
O12   3    0.366888    0.278576    0.294797    11.00000    0.08505    0.03723 =
         0.03136    0.00145   -0.01015   -0.02986
O11   3    0.466140    0.209820    0.383782    11.00000    0.08254    0.03560 =
         0.03132    0.00429   -0.00816   -0.02646
O8    3    0.161634    0.909185    0.440038    11.00000    0.05623    0.04189 =
         0.02786   -0.00908   -0.00546    0.00965
O9    3    0.068347    0.947529    0.349789    11.00000    0.04985    0.04149 =
         0.02598   -0.00946   -0.00494    0.01278
O2    3   -0.276184    1.064899    0.163729    11.00000    0.03303    0.06111 =
         0.03003   -0.00412   -0.00030    0.00620
N1    2    0.290252    0.693466    0.184043    11.00000    0.03472    0.03001 =
         0.02506    0.00167    0.00176   -0.00712
N3    2    0.360257    0.518458    0.170493    11.00000    0.04401    0.02337 =
         0.02975   -0.00097    0.00350   -0.00388
O4    3    0.197580    0.569215    0.082696    11.00000    0.08080    0.03352 =
         0.03769    0.00591   -0.00885   -0.01257
O1    3    0.019409    0.922255    0.115530    11.00000    0.05137    0.03443 =
         0.02429   -0.00552   -0.00470    0.00133
C6    1    0.041633    0.925106    0.166573    11.00000    0.03623    0.03041 =
         0.02238   -0.00128    0.00071   -0.00736
C7    1   -0.126865    1.006123    0.193256    11.00000    0.03254    0.03939 =
         0.02362   -0.00258    0.00068   -0.00150
N2    2    0.192163    0.865501    0.201485    11.00000    0.03737    0.02909 =
         0.02466   -0.00422   -0.00070   -0.00472
C1    1    0.347150    0.785893    0.179365    11.00000    0.03492    0.02909 =
         0.01722   -0.00106   -0.00127   -0.00360
C5    1    0.431035    0.615717    0.164242    11.00000    0.03729    0.02748 =
         0.02295    0.00068    0.00242   -0.00340
C18   1    0.457292    0.278411    0.340664    11.00000    0.05681    0.03226 =
         0.02924   -0.00380   -0.00229   -0.01477
C17   1    0.558390    0.373978    0.342428    11.00000    0.03777    0.02537 =
         0.03382   -0.00724    0.00533   -0.00502
O10   3    0.648613    0.377240    0.386701    11.00000    0.05154    0.03726 =
         0.02840   -0.00425   -0.00266   -0.01536
N6    2    0.533588    0.443153    0.294736    11.00000    0.04202    0.02311 =
         0.02745   -0.00233    0.00267   -0.00587
C14   1    0.611749    0.537309    0.292893    11.00000    0.03489    0.02683 =
         0.02208   -0.00285    0.00002   -0.00459
C13   1    0.821095    0.543588    0.274622    11.00000    0.03525    0.03825 =
         0.03880   -0.00923    0.00890   -0.00006
AFIX  43
H13   9    0.916413    0.485616    0.263606    11.00000   -1.20000
AFIX   0
C12   1    0.886522    0.637163    0.272973    11.00000    0.03172    0.04571 =
         0.04639   -0.00472    0.01087   -0.01158
AFIX  43
H12   9    1.026726    0.643601    0.260676    11.00000   -1.20000
AFIX   0
C11   1    0.740461    0.721527    0.289897    11.00000    0.03574    0.03501 =
         0.03666   -0.00450    0.00424   -0.01446
AFIX  43
H11   9    0.780457    0.785696    0.289152    11.00000   -1.20000
AFIX   0
C10   1    0.534197    0.708517    0.307908    11.00000    0.03059    0.02864 =
         0.01937   -0.00113   -0.00347   -0.00316
N4    2    0.469103    0.617883    0.309821    11.00000    0.02776    0.02486 =
         0.02300   -0.00221   -0.00011   -0.00466
N5    2    0.374887    0.793166    0.324115    11.00000    0.03411    0.02210 =
         0.02606   -0.00253   -0.00248   -0.00093
C15   1    0.363201    0.799961    0.378122    11.00000    0.03370    0.02814 =
         0.02374   -0.00281   -0.00110   -0.00776
O7    3    0.475922    0.741145    0.417714    11.00000    0.03987    0.03479 =
         0.02739   -0.00478   -0.00615    0.00420
O6    3    0.209585    0.345780    0.188301    11.00000    0.07848    0.03106 =
         0.03543    0.00082   -0.00374   -0.01961
C9    1    0.158885    0.405045    0.141024    11.00000    0.06679    0.03230 =
         0.03066   -0.01008   -0.00106   -0.01138
O5    3    0.045965    0.387563    0.105247    11.00000    0.12514    0.04294 =
         0.05151   -0.00229   -0.02740   -0.03268
C8    1    0.244368    0.507550    0.128819    11.00000    0.04852    0.02270 =
         0.03409   -0.00188    0.00270   -0.00106
C4    1    0.629419    0.628070    0.139557    11.00000    0.04216    0.03702 =
         0.05011   -0.00939    0.01257   -0.00155
AFIX  43
H4    9    0.724340    0.572199    0.126524    11.00000   -1.20000
AFIX   0
C3    1    0.683036    0.725483    0.134748    11.00000    0.03663    0.04689 =
         0.05967   -0.00572    0.01614   -0.01162
AFIX  43
H3    9    0.814493    0.736605    0.117846    11.00000   -1.20000
AFIX   0
C2    1    0.540940    0.805653    0.155086    11.00000    0.04426    0.03887 =
         0.04016   -0.00493    0.00463   -0.01627
AFIX  43
H2    9    0.574349    0.871754    0.152580    11.00000   -1.20000
AFIX   0
O4W   3    0.374923    1.035635    0.260462    11.00000    0.07833    0.06106 =
         0.09238   -0.01903    0.00921   -0.02065
AFIX   3
H4A   9    0.291674    1.097122    0.252664    11.00000   -1.50000
H4B   9    0.487895    1.035107    0.239542    11.00000   -1.50000
AFIX   0
O2X   3   -0.537941    1.087524    0.047292    11.00000    0.02363    0.07022 =
         0.06085   -0.04321    0.00486   -0.00741
O1X   3    0.214937    1.028328    0.006592    11.00000    0.01980    0.04100 =
         0.03648   -0.01457    0.00012   -0.00379
O9W   3    0.111340    0.669099    0.491156    11.00000    0.08664    0.12313 =
         0.05197   -0.02792    0.01011   -0.06995
AFIX   3
H9A   9    0.192105    0.592563    0.497996    11.00000   -1.50000
H9B   9    0.087999    0.682618    0.455839    11.00000   -1.50000
AFIX   0
SR2   5    0.376019    0.764006    0.522003    11.00000    0.03608    0.03327 =
         0.02495   -0.00307   -0.00407   -0.00611
C16   1    0.184879    0.892690    0.391270    11.00000    0.04119    0.03020 =
         0.02427   -0.00637   -0.00186   -0.00114
SR1   5   -0.149483    1.101577    0.056842    11.00000    0.02433    0.03230 =
         0.02334   -0.00707   -0.00138   -0.00168
O1W   3    0.132592    1.155131    0.118582    11.00000    0.04802    0.05802 =
         0.07370   -0.03702    0.01710   -0.01416
AFIX   3
H1A   9    0.118914    1.221536    0.115749    11.00000   -1.50000
H1B   9    0.245333    1.132254    0.099529    11.00000   -1.50000
AFIX   0
O2W   3   -0.179935    1.215758   -0.041907    11.00000    0.11808    0.02899 =
         0.02945   -0.00012    0.00539    0.00272
AFIX   3
H2A   9   -0.252394    1.291377   -0.052342    11.00000   -1.50000
H2B   9   -0.196095    1.189075   -0.077043    11.00000   -1.50000
AFIX   0
O8W   3    0.713502    0.609904    0.524778    11.00000    0.04759    0.07540 =
         0.05193    0.01755    0.00377    0.00124
AFIX   3
H8A   9    0.672091    0.560633    0.547672    11.00000   -1.50000
H8B   9    0.843545    0.629109    0.540850    11.00000   -1.50000
AFIX   0
O6W   3    0.030670    0.870748    0.565807    11.00000    0.07070    0.05204 =
         0.06014   -0.01445    0.01188    0.00038
AFIX   3
H6A   9   -0.095204    0.835725    0.567704    11.00000   -1.50000
H6B   9   -0.010089    0.937910    0.558587    11.00000   -1.50000
AFIX   0
O7W   3    0.636379    0.891112    0.491433    11.00000    0.08032    0.09066 =
         0.06528   -0.00436   -0.00719   -0.04884
AFIX   3
H7A   9    0.582801    0.953762    0.462035    11.00000   -1.50000
H7B   9    0.786602    0.879359    0.474035    11.00000   -1.50000
AFIX   0
O3W   3   -0.361548    1.282285    0.081067    11.00000    0.10503    0.07422 =
         0.10056   -0.04532   -0.00380    0.02571
AFIX   3
H3A   9   -0.510032    1.291610    0.064046    11.00000   -1.50000
H3B   9   -0.371113    1.271960    0.116775    11.00000   -1.50000
AFIX   0
C1X   1   -0.593961    1.033651    0.015628    11.00000    0.02266    0.03290 =
         0.02560   -0.00579    0.00119   -0.00298
O11W  3    0.824290    0.429646    0.602992    11.00000    0.03741    0.06783 =
         0.03424   -0.00461    0.00222   -0.01636
AFIX   3
H11A  9    0.981977    0.429777    0.603216    11.00000   -1.50000
H11B  9    0.751777    0.456477    0.636914    11.00000   -1.50000
AFIX   0
O12W  3    0.600170    0.996155    0.369873    11.00000    0.05635    0.04856 =
         0.10460   -0.02139    0.00758   -0.01530
AFIX   3
H12A  9    0.556804    1.060564    0.373814    11.00000   -1.50000
H12B  9    0.757523    0.971369    0.379783    11.00000   -1.50000
AFIX   0
O5W   3    0.717575    0.281961    0.202954    11.00000    0.07895    0.06193 =
         0.08484   -0.02167    0.01527   -0.00269
AFIX   3
H5A   9    0.794309    0.247515    0.238988    11.00000   -1.50000
H5B   9    0.809223    0.315218    0.185279    11.00000   -1.50000
AFIX   0
O13W  3    0.024800    0.808090    0.690084    11.00000    0.07319    0.06400 =
         0.09129   -0.02562   -0.00104   -0.00421
AFIX   3
H13A  9   -0.058495    0.815135    0.662156    11.00000   -1.50000
H13B  9    0.034826    0.869695    0.694036    11.00000   -1.50000
AFIX   0
O15W  3    0.240735    0.452490    0.578990    11.00000    0.03577    0.03667 =
         0.03500   -0.00761   -0.00408   -0.00491
AFIX   3
H15A  9    0.307350    0.476617    0.607540    11.00000   -1.50000
H15B  9    0.321508    0.377519    0.577376    11.00000   -1.50000
AFIX   0
PART    1
SR3   5    0.000000    0.500000    0.000000    10.25000    0.09211    0.04721 =
         0.03201   -0.00577   -0.01601   -0.00664
O10W  3    0.210728    0.308636   -0.003579    10.50000    0.17877    0.05807 =
         0.03797   -0.00486   -0.02643    0.05007
AFIX   3
H10A  9    0.303863    0.311886   -0.038052    10.50000   -1.50000
H10B  9    0.095638    0.277632   -0.014388    10.50000   -1.50000
AFIX   0
O14W  3    0.400642    0.500133   -0.018444    10.50000    0.27035    0.17278 =
         0.09598   -0.09255    0.09354   -0.14040
AFIX   3
H14A  9    0.388350    0.560950   -0.053467    10.50000   -1.50000
H14B  9    0.472282    0.442274   -0.026776    10.50000   -1.50000
AFIX   0
PART    2
O16W  3    0.000000    0.500000    0.000000    10.25000    0.09211    0.04721 =
         0.03201   -0.00577   -0.01601   -0.00664
AFIX   3
H16A  9    0.039580    0.532664    0.031133    10.25000   -1.50000
H16B  9    0.050180    0.536264   -0.036467    10.25000   -1.50000
AFIX   0
HKLF    4

REM  NEW2 in P-1
REM R1 =  0.0423 for    5928 Fo > 4sig(Fo)  and  0.0509 for all    6935 data
REM    529 parameters refined using      0 restraints

END

WGHT      0.0725      4.8122

REM Highest difference peak  2.944,  deepest hole -1.028,  1-sigma level  0.110
Q1    1   0.4491  1.1769  0.1928  11.00000  0.05    2.94
Q2    1   0.1032  1.1952  0.2349  11.00000  0.05    2.12
Q3    1   0.1932  0.5381 -0.0191  11.00000  0.05    1.28
Q4    1   0.3525  0.3616  0.0004  11.00000  0.05    0.78
Q5    1   0.1786  0.3110 -0.0212  11.00000  0.05    0.59
Q6    1   0.0785  0.2878  0.0182  11.00000  0.05    0.58
Q7    1   0.7590  0.6638  0.5421  11.00000  0.05    0.56
Q8    1   0.4553  0.4626  0.0063  11.00000  0.05    0.55
Q9    1   0.4011  0.5298 -0.0392  11.00000  0.05    0.52
Q10   1   0.4768  0.7137  0.5207  11.00000  0.05    0.47
Q11   1   0.4272  0.8026  0.5388  11.00000  0.05    0.40
Q12   1   0.7662  0.3989  0.6313  11.00000  0.05    0.39
Q13   1   0.4605  1.0599  0.2846  11.00000  0.05    0.39
Q14   1   0.2735  0.5142  0.5825  11.00000  0.05    0.38
Q15   1   0.0331  0.7941  0.5671  11.00000  0.05    0.37
Q16   1   0.4925  1.0077  0.3007  11.00000  0.05    0.37
Q17   1  -0.2424  1.3248  0.0510  11.00000  0.05    0.36
Q18   1  -0.0252  0.6602  0.5041  11.00000  0.05    0.36
Q19   1   0.7439  0.5684  0.4837  11.00000  0.05    0.35
Q20   1   0.8519  0.4670  0.6090  11.00000  0.05    0.34
;
_shelx_res_checksum              68252
loop_
_space_group_symop_operation_xyz
'x, y, z'
'-x, -y, -z'
loop_
_atom_site_label
_atom_site_type_symbol
_atom_site_fract_x
_atom_site_fract_y
_atom_site_fract_z
_atom_site_U_iso_or_equiv
_atom_site_adp_type
_atom_site_occupancy
_atom_site_site_symmetry_order
_atom_site_calc_flag
_atom_site_refinement_flags_posn
_atom_site_refinement_flags_adp
_atom_site_refinement_flags_occupancy
_atom_site_disorder_assembly
_atom_site_disorder_group
Cu1 Cu 0.16269(9) 0.90314(5) 0.27713(2) 0.03195(16) Uani 1 1 d . . . . .
Cu2 Cu 0.39364(11) 0.39924(5) 0.23493(3) 0.03588(16) Uani 1 1 d . . . . .
O3 O -0.0998(6) 1.0057(3) 0.24475(15) 0.0480(10) Uani 1 1 d . . . . .
O12 O 0.3669(7) 0.2786(3) 0.29480(15) 0.0493(10) Uani 1 1 d . . . . .
O11 O 0.4661(7) 0.2098(3) 0.38378(15) 0.0488(10) Uani 1 1 d . . . . .
O8 O 0.1616(6) 0.9092(3) 0.44004(15) 0.0447(9) Uani 1 1 d . . . . .
O9 O 0.0683(6) 0.9475(3) 0.34979(14) 0.0422(9) Uani 1 1 d . . . . .
O2 O -0.2762(6) 1.0649(3) 0.16373(15) 0.0446(9) Uani 1 1 d . . . . .
N1 N 0.2903(6) 0.6935(3) 0.18404(16) 0.0309(9) Uani 1 1 d . . . . .
N3 N 0.3603(7) 0.5185(3) 0.17049(17) 0.0336(9) Uani 1 1 d . . . . .
O4 O 0.1976(7) 0.5692(3) 0.08270(16) 0.0520(10) Uani 1 1 d . . . . .
O1 O 0.0194(6) 0.9223(3) 0.11553(14) 0.0382(8) Uani 1 1 d . . . . .
C6 C 0.0416(8) 0.9251(4) 0.16657(19) 0.0302(10) Uani 1 1 d . . . . .
C7 C -0.1269(8) 1.0061(4) 0.1933(2) 0.0333(11) Uani 1 1 d . . . . .
N2 N 0.1922(6) 0.8655(3) 0.20148(16) 0.0309(9) Uani 1 1 d . . . . .
C1 C 0.3472(7) 0.7859(4) 0.17936(18) 0.0280(10) Uani 1 1 d . . . . .
C5 C 0.4310(8) 0.6157(4) 0.16424(19) 0.0306(10) Uani 1 1 d . . . . .
C18 C 0.4573(9) 0.2784(4) 0.3407(2) 0.0388(12) Uani 1 1 d . . . . .
C17 C 0.5584(8) 0.3740(4) 0.3424(2) 0.0326(11) Uani 1 1 d . . . . .
O10 O 0.6486(6) 0.3772(3) 0.38670(14) 0.0383(8) Uani 1 1 d . . . . .
N6 N 0.5336(7) 0.4432(3) 0.29474(16) 0.0315(9) Uani 1 1 d . . . . .
C14 C 0.6117(7) 0.5373(4) 0.29289(19) 0.0285(10) Uani 1 1 d . . . . .
C13 C 0.8211(8) 0.5436(4) 0.2746(2) 0.0387(12) Uani 1 1 d . . . . .
H13 H 0.9164 0.4856 0.2636 0.046 Uiso 1 1 calc R U . . .
C12 C 0.8865(8) 0.6372(4) 0.2730(2) 0.0416(13) Uani 1 1 d . . . . .
H12 H 1.0267 0.6436 0.2607 0.050 Uiso 1 1 calc R U . . .
C11 C 0.7405(8) 0.7215(4) 0.2899(2) 0.0351(11) Uani 1 1 d . . . . .
H11 H 0.7805 0.7857 0.2892 0.042 Uiso 1 1 calc R U . . .
C10 C 0.5342(7) 0.7085(4) 0.30791(18) 0.0271(10) Uani 1 1 d . . . . .
N4 N 0.4691(6) 0.6179(3) 0.30982(15) 0.0257(8) Uani 1 1 d . . . . .
N5 N 0.3749(6) 0.7932(3) 0.32411(16) 0.0284(8) Uani 1 1 d . . . . .
C15 C 0.3632(7) 0.8000(4) 0.37812(19) 0.0286(10) Uani 1 1 d . . . . .
O7 O 0.4759(5) 0.7411(3) 0.41771(14) 0.0359(8) Uani 1 1 d . . . . .
O6 O 0.2096(7) 0.3458(3) 0.18830(16) 0.0479(10) Uani 1 1 d . . . . .
C9 C 0.1589(10) 0.4050(4) 0.1410(2) 0.0426(13) Uani 1 1 d . . . . .
O5 O 0.0460(10) 0.3876(4) 0.1052(2) 0.0709(14) Uani 1 1 d . . . . .
C8 C 0.2444(9) 0.5075(4) 0.1288(2) 0.0367(11) Uani 1 1 d . . . . .
C4 C 0.6294(9) 0.6281(4) 0.1396(2) 0.0445(13) Uani 1 1 d . . . . .
H4 H 0.7243 0.5722 0.1265 0.053 Uiso 1 1 calc R U . . .
C3 C 0.6830(9) 0.7255(5) 0.1347(3) 0.0484(14) Uani 1 1 d . . . . .
H3 H 0.8145 0.7366 0.1178 0.058 Uiso 1 1 calc R U . . .
C2 C 0.5409(9) 0.8057(4) 0.1551(2) 0.0404(12) Uani 1 1 d . . . . .
H2 H 0.5743 0.8718 0.1526 0.048 Uiso 1 1 calc R U . . .
O4W O 0.3749(9) 1.0356(4) 0.2605(2) 0.0760(14) Uani 1 1 d . . . . .
H4A H 0.2917 1.0971 0.2527 0.114 Uiso 1 1 d R U . . .
H4B H 0.4879 1.0351 0.2395 0.114 Uiso 1 1 d R U . . .
O2X O -0.5379(5) 1.0875(3) 0.04729(17) 0.0481(10) Uani 1 1 d . . . . .
O1X O 0.2149(5) 1.0283(3) 0.00659(14) 0.0319(7) Uani 1 1 d . . . . .
O9W O 0.1113(8) 0.6691(5) 0.4912(2) 0.0785(16) Uani 1 1 d . . . . .
H9A H 0.1921 0.5926 0.4980 0.118 Uiso 1 1 d R U . . .
H9B H 0.0880 0.6826 0.4558 0.118 Uiso 1 1 d R U . . .
Sr2 Sr 0.37602(7) 0.76401(4) 0.52200(2) 0.03183(13) Uani 1 1 d . . . . .
C16 C 0.1849(8) 0.8927(4) 0.3913(2) 0.0327(11) Uani 1 1 d . . . . .
Sr1 Sr -0.14948(6) 1.10158(3) 0.05684(2) 0.02707(13) Uani 1 1 d . . . . .
O1W O 0.1326(6) 1.1551(3) 0.11858(19) 0.0568(11) Uani 1 1 d . . . . .
H1A H 0.1189 1.2215 0.1157 0.085 Uiso 1 1 d R U . . .
H1B H 0.2453 1.1323 0.0995 0.085 Uiso 1 1 d R U . . .
O2W O -0.1799(9) 1.2158(3) -0.04191(16) 0.0627(13) Uani 1 1 d . . . . .
H2A H -0.2524 1.2914 -0.0523 0.094 Uiso 1 1 d R U . . .
H2B H -0.1961 1.1891 -0.0770 0.094 Uiso 1 1 d R U . . .
O8W O 0.7135(7) 0.6099(4) 0.52478(18) 0.0646(13) Uani 1 1 d . . . . .
H8A H 0.6721 0.5606 0.5477 0.097 Uiso 1 1 d R U . . .
H8B H 0.8435 0.6291 0.5409 0.097 Uiso 1 1 d R U . . .
O6W O 0.0307(8) 0.8707(4) 0.56581(19) 0.0630(12) Uani 1 1 d . . . . .
H6A H -0.0952 0.8357 0.5677 0.095 Uiso 1 1 d R U . . .
H6B H -0.0101 0.9379 0.5586 0.095 Uiso 1 1 d R U . . .
O7W O 0.6364(8) 0.8911(4) 0.4914(2) 0.0750(14) Uani 1 1 d . . . . .
H7A H 0.5828 0.9538 0.4620 0.112 Uiso 1 1 d R U . . .
H7B H 0.7866 0.8794 0.4740 0.112 Uiso 1 1 d R U . . .
O3W O -0.3615(10) 1.2823(4) 0.0811(3) 0.0965(19) Uani 1 1 d . . . . .
H3A H -0.5100 1.2916 0.0640 0.145 Uiso 1 1 d R U . . .
H3B H -0.3711 1.2720 0.1168 0.145 Uiso 1 1 d R U . . .
C1X C -0.5940(7) 1.0337(4) 0.01563(19) 0.0275(10) Uani 1 1 d . . . . .
O11W O 0.8243(6) 0.4296(3) 0.60299(15) 0.0464(9) Uani 1 1 d . . . . .
H11A H 0.9820 0.4298 0.6032 0.070 Uiso 1 1 d R U . . .
H11B H 0.7518 0.4565 0.6369 0.070 Uiso 1 1 d R U . . .
O12W O 0.6002(7) 0.9962(4) 0.3699(2) 0.0685(13) Uani 1 1 d . . . . .
H12A H 0.5568 1.0606 0.3738 0.103 Uiso 1 1 d R U . . .
H12B H 0.7575 0.9714 0.3798 0.103 Uiso 1 1 d R U . . .
O5W O 0.7176(9) 0.2820(4) 0.2030(2) 0.0767(14) Uani 1 1 d . . . . .
H5A H 0.7943 0.2475 0.2390 0.115 Uiso 1 1 d R U . . .
H5B H 0.8092 0.3152 0.1853 0.115 Uiso 1 1 d R U . . .
O13W O 0.0248(8) 0.8081(4) 0.6901(2) 0.0764(14) Uani 1 1 d . . . . .
H13A H -0.0585 0.8151 0.6622 0.115 Uiso 1 1 d R U . . .
H13B H 0.0348 0.8697 0.6940 0.115 Uiso 1 1 d R U . . .
O15W O 0.2407(5) 0.4525(3) 0.57899(14) 0.0360(8) Uani 1 1 d . . . . .
H15A H 0.3073 0.4766 0.6075 0.054 Uiso 1 1 d R U . . .
H15B H 0.3215 0.3775 0.5774 0.054 Uiso 1 1 d R U . . .
Sr3 Sr 0.0000 0.5000 0.0000 0.0582(4) Uani 0.5 2 d S . P A 1
O10W O 0.211(2) 0.3086(8) -0.0036(4) 0.103(5) Uani 0.5 1 d . . P A 1
H10A H 0.3039 0.3119 -0.0381 0.155 Uiso 0.5 1 d R U P A 1
H10B H 0.0956 0.2776 -0.0144 0.155 Uiso 0.5 1 d R U P A 1
O14W O 0.401(3) 0.5001(15) -0.0184(6) 0.159(9) Uani 0.5 1 d . . P A 1
H14A H 0.3884 0.5610 -0.0535 0.239 Uiso 0.5 1 d R U P A 1
H14B H 0.4723 0.4423 -0.0268 0.239 Uiso 0.5 1 d R U P A 1
O16W O 0.0000 0.5000 0.0000 0.0582(4) Uani 0.5 2 d S . P B 2
H16A H 0.0396 0.5327 0.0311 0.087 Uiso 0.25 1 d R U P B 2
H16B H 0.0502 0.5363 -0.0365 0.087 Uiso 0.25 1 d R U P B 2
loop_
_atom_site_aniso_label
_atom_site_aniso_U_11
_atom_site_aniso_U_22
_atom_site_aniso_U_33
_atom_site_aniso_U_23
_atom_site_aniso_U_13
_atom_site_aniso_U_12
Cu1 0.0381(3) 0.0308(3) 0.0222(3) -0.0050(2) -0.0035(2) 0.0033(2)
Cu2 0.0527(4) 0.0262(3) 0.0269(3) 0.0002(2) -0.0008(3) -0.0090(3)
O3 0.048(2) 0.056(2) 0.028(2) -0.0076(17) -0.0053(16) 0.0166(18)
O12 0.085(3) 0.037(2) 0.031(2) 0.0014(17) -0.0101(19) -0.030(2)
O11 0.083(3) 0.036(2) 0.031(2) 0.0043(17) -0.0082(19) -0.026(2)
O8 0.056(2) 0.042(2) 0.028(2) -0.0091(17) -0.0055(17) 0.0097(18)
O9 0.050(2) 0.041(2) 0.0260(19) -0.0095(16) -0.0049(16) 0.0128(17)
O2 0.0330(18) 0.061(3) 0.0300(19) -0.0041(18) -0.0003(15) 0.0062(17)
N1 0.035(2) 0.030(2) 0.025(2) 0.0017(17) 0.0018(16) -0.0071(17)
N3 0.044(2) 0.023(2) 0.030(2) -0.0010(17) 0.0035(18) -0.0039(17)
O4 0.081(3) 0.034(2) 0.038(2) 0.0059(18) -0.009(2) -0.013(2)
O1 0.051(2) 0.034(2) 0.0243(18) -0.0055(15) -0.0047(15) 0.0013(16)
C6 0.036(2) 0.030(3) 0.022(2) -0.001(2) 0.0007(19) -0.007(2)
C7 0.033(2) 0.039(3) 0.024(3) -0.003(2) 0.0007(19) -0.002(2)
N2 0.037(2) 0.029(2) 0.025(2) -0.0042(17) -0.0007(16) -0.0047(17)
C1 0.035(2) 0.029(3) 0.017(2) -0.0011(19) -0.0013(18) -0.0036(19)
C5 0.037(2) 0.027(3) 0.023(2) 0.0007(19) 0.0024(19) -0.003(2)
C18 0.057(3) 0.032(3) 0.029(3) -0.004(2) -0.002(2) -0.015(2)
C17 0.038(2) 0.025(3) 0.034(3) -0.007(2) 0.005(2) -0.005(2)
O10 0.052(2) 0.037(2) 0.0284(19) -0.0042(15) -0.0027(16) -0.0154(17)
N6 0.042(2) 0.023(2) 0.027(2) -0.0023(17) 0.0027(17) -0.0059(17)
C14 0.035(2) 0.027(2) 0.022(2) -0.0029(19) 0.0000(18) -0.0046(19)
C13 0.035(3) 0.038(3) 0.039(3) -0.009(2) 0.009(2) 0.000(2)
C12 0.032(2) 0.046(3) 0.046(3) -0.005(3) 0.011(2) -0.012(2)
C11 0.036(2) 0.035(3) 0.037(3) -0.005(2) 0.004(2) -0.014(2)
C10 0.031(2) 0.029(2) 0.019(2) -0.0011(19) -0.0035(18) -0.0032(19)
N4 0.0278(18) 0.025(2) 0.023(2) -0.0022(16) -0.0001(15) -0.0047(15)
N5 0.034(2) 0.022(2) 0.026(2) -0.0025(16) -0.0025(16) -0.0009(16)
C15 0.034(2) 0.028(2) 0.024(2) -0.003(2) -0.0011(19) -0.008(2)
O7 0.0399(18) 0.0348(19) 0.0274(18) -0.0048(15) -0.0062(14) 0.0042(15)
O6 0.078(3) 0.031(2) 0.035(2) 0.0008(17) -0.0037(19) -0.0196(19)
C9 0.067(4) 0.032(3) 0.031(3) -0.010(2) -0.001(3) -0.011(3)
O5 0.125(4) 0.043(3) 0.052(3) -0.002(2) -0.027(3) -0.033(3)
C8 0.049(3) 0.023(3) 0.034(3) -0.002(2) 0.003(2) -0.001(2)
C4 0.042(3) 0.037(3) 0.050(3) -0.009(3) 0.013(2) -0.002(2)
C3 0.037(3) 0.047(3) 0.060(4) -0.006(3) 0.016(3) -0.012(2)
C2 0.044(3) 0.039(3) 0.040(3) -0.005(2) 0.005(2) -0.016(2)
O4W 0.078(3) 0.061(3) 0.092(4) -0.019(3) 0.009(3) -0.021(3)
O2X 0.0236(16) 0.070(3) 0.061(3) -0.043(2) 0.0049(16) -0.0074(17)
O1X 0.0198(14) 0.041(2) 0.0365(19) -0.0146(15) 0.0001(13) -0.0038(13)
O9W 0.087(3) 0.123(5) 0.052(3) -0.028(3) 0.010(2) -0.070(3)
Sr2 0.0361(2) 0.0333(3) 0.0249(2) -0.00307(19) -0.00407(18) -0.00611(19)
C16 0.041(3) 0.030(3) 0.024(3) -0.006(2) -0.002(2) -0.001(2)
Sr1 0.0243(2) 0.0323(3) 0.0233(2) -0.00707(18) -0.00138(16) -0.00168(17)
O1W 0.048(2) 0.058(3) 0.074(3) -0.037(2) 0.017(2) -0.014(2)
O2W 0.118(4) 0.029(2) 0.029(2) -0.0001(17) 0.005(2) 0.003(2)
O8W 0.048(2) 0.075(3) 0.052(3) 0.018(2) 0.0038(19) 0.001(2)
O6W 0.071(3) 0.052(3) 0.060(3) -0.014(2) 0.012(2) 0.000(2)
O7W 0.080(3) 0.091(4) 0.065(3) -0.004(3) -0.007(3) -0.049(3)
O3W 0.105(4) 0.074(4) 0.101(4) -0.045(3) -0.004(3) 0.026(3)
C1X 0.023(2) 0.033(3) 0.026(2) -0.006(2) 0.0012(18) -0.0030(19)
O11W 0.0374(19) 0.068(3) 0.034(2) -0.0046(19) 0.0022(15) -0.0164(18)
O12W 0.056(3) 0.049(3) 0.105(4) -0.021(3) 0.008(3) -0.015(2)
O5W 0.079(3) 0.062(3) 0.085(4) -0.022(3) 0.015(3) -0.003(3)
O13W 0.073(3) 0.064(3) 0.091(4) -0.026(3) -0.001(3) -0.004(3)
O15W 0.0358(17) 0.037(2) 0.0350(19) -0.0076(16) -0.0041(14) -0.0049(15)
Sr3 0.0921(11) 0.0472(9) 0.0320(7) -0.0058(6) -0.0160(7) -0.0066(8)
O10W 0.179(12) 0.058(6) 0.038(5) -0.005(5) -0.026(6) 0.050(7)
O14W 0.27(2) 0.173(15) 0.096(11) -0.093(11) 0.094(13) -0.140(16)
O16W 0.0921(11) 0.0472(9) 0.0320(7) -0.0058(6) -0.0160(7) -0.0066(8)
loop_
_atom_type_symbol
_atom_type_description
_atom_type_scat_dispersion_real
_atom_type_scat_dispersion_imag
_atom_type_scat_source
C C 0.0033 0.0016 'International Tables Vol C Tables 4.2.6.8 and 6.1.1.4'
N N 0.0061 0.0033 'International Tables Vol C Tables 4.2.6.8 and 6.1.1.4'
O O 0.0106 0.0060 'International Tables Vol C Tables 4.2.6.8 and 6.1.1.4'
Cu Cu 0.3201 1.2651 'International Tables Vol C Tables 4.2.6.8 and 6.1.1.4'
Sr Sr -1.5307 3.2498 'International Tables Vol C Tables 4.2.6.8 and 6.1.1.4'
Na Na 0.0362 0.0249 'International Tables Vol C Tables 4.2.6.8 and 6.1.1.4'
Cl Cl 0.1484 0.1585 'International Tables Vol C Tables 4.2.6.8 and 6.1.1.4'
K K 0.2009 0.2494 'International Tables Vol C Tables 4.2.6.8 and 6.1.1.4'
H H 0.0000 0.0000 'International Tables Vol C Tables 4.2.6.8 and 6.1.1.4'
loop_
_geom_angle_atom_site_label_1
_geom_angle_atom_site_label_2
_geom_angle_atom_site_label_3
_geom_angle
_geom_angle_site_symmetry_1
_geom_angle_site_symmetry_3
N5 Cu1 O3 166.16(16) . .
N5 Cu1 N2 105.55(16) . .
O3 Cu1 N2 83.47(16) . .
N5 Cu1 O9 83.28(15) . .
O3 Cu1 O9 86.49(15) . .
N2 Cu1 O9 168.27(16) . .
N5 Cu1 O4W 97.43(17) . .
O3 Cu1 O4W 91.59(18) . .
N2 Cu1 O4W 97.77(18) . .
O9 Cu1 O4W 88.54(18) . .
N6 Cu2 O12 83.14(15) . .
N6 Cu2 O6 167.41(16) . .
O12 Cu2 O6 87.08(15) . .
N6 Cu2 N3 105.92(17) . .
O12 Cu2 N3 168.27(17) . .
O6 Cu2 N3 82.86(16) . .
C7 O3 Cu1 113.6(3) . .
C18 O12 Cu2 113.8(3) . .
C18 O11 Sr2 120.4(3) . 2_666
C16 O8 Sr2 118.6(3) . .
C16 O9 Cu1 113.4(3) . .
C7 O2 Sr1 110.8(3) . .
C1 N1 C5 117.4(4) . .
C8 N3 C5 116.2(4) . .
C8 N3 Cu2 113.9(3) . .
C5 N3 Cu2 129.7(3) . .
C8 O4 Sr3 118.3(3) . .
C6 O1 Sr1 113.6(3) . .
O1 C6 N2 127.9(5) . .
O1 C6 C7 118.0(4) . .
N2 C6 C7 114.1(4) . .
O2 C7 O3 125.4(5) . .
O2 C7 C6 118.6(4) . .
O3 C7 C6 116.0(4) . .
C6 N2 C1 116.2(4) . .
C6 N2 Cu1 112.8(3) . .
C1 N2 Cu1 131.0(3) . .
N1 C1 C2 123.6(5) . .
N1 C1 N2 115.1(4) . .
C2 C1 N2 121.3(4) . .
N1 C5 C4 123.0(5) . .
N1 C5 N3 114.7(4) . .
C4 C5 N3 122.3(4) . .
O11 C18 O12 125.6(5) . .
O11 C18 C17 118.2(4) . .
O12 C18 C17 116.1(4) . .
O10 C17 N6 128.9(5) . .
O10 C17 C18 118.3(4) . .
N6 C17 C18 112.8(4) . .
C17 O10 Sr2 120.3(3) . 2_666
C17 N6 C14 117.3(4) . .
C17 N6 Cu2 113.9(3) . .
C14 N6 Cu2 128.8(3) . .
N4 C14 C13 123.0(4) . .
N4 C14 N6 115.6(4) . .
C13 C14 N6 121.4(4) . .
C14 C13 C12 118.8(5) . .
C14 C13 H13 120.6 . .
C12 C13 H13 120.6 . .
C13 C12 C11 118.9(4) . .
C13 C12 H12 120.5 . .
C11 C12 H12 120.5 . .
C10 C11 C12 118.6(5) . .
C10 C11 H11 120.7 . .
C12 C11 H11 120.7 . .
N4 C10 C11 122.9(4) . .
N4 C10 N5 115.8(4) . .
C11 C10 N5 121.2(4) . .
C14 N4 C10 117.7(4) . .
C15 N5 C10 117.3(4) . .
C15 N5 Cu1 113.9(3) . .
C10 N5 Cu1 128.8(3) . .
O7 C15 N5 128.3(4) . .
O7 C15 C16 118.6(4) . .
N5 C15 C16 113.2(4) . .
C15 O7 Sr2 120.0(3) . .
C9 O6 Cu2 114.0(3) . .
O5 C9 O6 125.3(5) . .
O5 C9 C8 118.4(5) . .
O6 C9 C8 116.3(5) . .
C9 O5 Sr3 123.2(4) . .
O4 C8 N3 128.3(5) . .
O4 C8 C9 118.8(5) . .
N3 C8 C9 112.9(4) . .
C5 C4 C3 118.2(5) . .
C5 C4 H4 120.9 . .
C3 C4 H4 120.9 . .
C2 C3 C4 119.4(5) . .
C2 C3 H3 120.3 . .
C4 C3 H3 120.3 . .
C3 C2 C1 118.3(5) . .
C3 C2 H2 120.8 . .
C1 C2 H2 120.8 . .
Cu1 O4W H4A 110.4 . .
Cu1 O4W H4B 126.2 . .
H4A O4W H4B 107.7 . .
C1X O2X Sr1 123.3(3) . .
C1X O1X Sr1 119.3(3) 1_655 2_575
C1X O1X Sr1 129.7(3) 1_655 .
Sr1 O1X Sr1 109.82(10) 2_575 .
Sr2 O9W H9A 103.8 . .
Sr2 O9W H9B 114.3 . .
H9A O9W H9B 103.3 . .
O9W Sr2 O8W 95.97(19) . .
O9W Sr2 O7W 146.57(16) . .
O8W Sr2 O7W 87.54(17) . .
O9W Sr2 O6W 84.00(17) . .
O8W Sr2 O6W 153.54(14) . .
O7W Sr2 O6W 107.01(17) . .
O9W Sr2 O7 72.67(13) . .
O8W Sr2 O7 72.42(12) . .
O7W Sr2 O7 76.85(14) . .
O6W Sr2 O7 131.67(13) . .
O9W Sr2 O10 79.02(14) . 2_666
O8W Sr2 O10 71.51(12) . 2_666
O7W Sr2 O10 132.84(13) . 2_666
O6W Sr2 O10 82.58(13) . 2_666
O7 Sr2 O10 130.81(11) . 2_666
O9W Sr2 O11 138.88(14) . 2_666
O8W Sr2 O11 84.66(15) . 2_666
O7W Sr2 O11 74.51(14) . 2_666
O6W Sr2 O11 78.40(14) . 2_666
O7 Sr2 O11 143.83(12) . 2_666
O10 Sr2 O11 62.15(11) 2_666 2_666
O9W Sr2 O8 78.07(16) . .
O8W Sr2 O8 134.11(12) . .
O7W Sr2 O8 75.84(15) . .
O6W Sr2 O8 71.91(13) . .
O7 Sr2 O8 62.30(10) . .
O10 Sr2 O8 147.15(12) 2_666 .
O11 Sr2 O8 128.99(12) 2_666 .
O9W Sr2 H9A 19.6 . .
O8W Sr2 H9A 77.0 . .
O7W Sr2 H9A 147.9 . .
O6W Sr2 H9A 98.8 . .
O7 Sr2 H9A 71.7 . .
O10 Sr2 H9A 68.4 2_666 .
O11 Sr2 H9A 130.5 2_666 .
O8 Sr2 H9A 94.9 . .
O9W Sr2 H9B 15.2 . .
O8W Sr2 H9B 97.6 . .
O7W Sr2 H9B 131.4 . .
O6W Sr2 H9B 89.2 . .
O7 Sr2 H9B 59.4 . .
O10 Sr2 H9B 93.8 2_666 .
O11 Sr2 H9B 154.0 2_666 .
O8 Sr2 H9B 66.1 . .
H9A Sr2 H9B 28.8 . .
O9W Sr2 H8A 86.8 . .
O8W Sr2 H8A 16.8 . .
O7W Sr2 H8A 102.9 . .
O6W Sr2 H8A 138.3 . .
O7 Sr2 H8A 82.9 . .
O10 Sr2 H8A 55.7 2_666 .
O11 Sr2 H8A 82.4 2_666 .
O8 Sr2 H8A 144.8 . .
H9A Sr2 H8A 67.2 . .
H9B Sr2 H8A 92.3 . .
O8 C16 O9 124.6(5) . .
O8 C16 C15 119.4(4) . .
O9 C16 C15 116.1(4) . .
O2X Sr1 O1 102.13(13) . .
O2X Sr1 O2W 88.07(16) . .
O1 Sr1 O2W 145.29(12) . .
O2X Sr1 O1X 63.38(10) . 2_575
O1 Sr1 O1X 78.10(11) . 2_575
O2W Sr1 O1X 77.18(12) . 2_575
O2X Sr1 O1X 133.13(11) . .
O1 Sr1 O1X 73.29(11) . .
O2W Sr1 O1X 75.61(13) . .
O1X Sr1 O1X 70.18(11) 2_575 .
O2X Sr1 O3W 79.08(17) . .
O1 Sr1 O3W 134.10(16) . .
O2W Sr1 O3W 80.18(17) . .
O1X Sr1 O3W 136.31(16) 2_575 .
O1X Sr1 O3W 137.79(17) . .
O2X Sr1 O2 78.13(12) . .
O1 Sr1 O2 62.91(11) . .
O2W Sr1 O2 151.49(13) . .
O1X Sr1 O2 116.90(12) 2_575 .
O1X Sr1 O2 131.50(11) . .
O3W Sr1 O2 72.82(17) . .
O2X Sr1 O1W 145.88(12) . .
O1 Sr1 O1W 79.17(13) . .
O2W Sr1 O1W 110.42(15) . .
O1X Sr1 O1W 146.86(11) 2_575 .
O1X Sr1 O1W 80.37(11) . .
O3W Sr1 O1W 76.38(17) . .
O2 Sr1 O1W 72.22(12) . .
O2X Sr1 C1X 44.78(11) . 2_475
O1 Sr1 C1X 86.28(11) . 2_475
O2W Sr1 C1X 77.85(13) . 2_475
O1X Sr1 C1X 18.67(10) 2_575 2_475
O1X Sr1 C1X 88.54(10) . 2_475
O3W Sr1 C1X 119.50(16) . 2_475
O2 Sr1 C1X 107.55(12) . 2_475
O1W Sr1 C1X 163.72(12) . 2_475
O2X Sr1 Sr1 98.29(8) . 2_575
O1 Sr1 Sr1 72.44(8) . 2_575
O2W Sr1 Sr1 73.29(9) . 2_575
O1X Sr1 Sr1 35.10(6) 2_575 2_575
O1X Sr1 Sr1 35.08(7) . 2_575
O3W Sr1 Sr1 153.43(14) . 2_575
O2 Sr1 Sr1 132.95(9) . 2_575
O1W Sr1 Sr1 114.16(9) . 2_575
C1X Sr1 Sr1 53.53(7) 2_475 2_575
O2X Sr1 H1B 162.9 . .
O1 Sr1 H1B 75.9 . .
O2W Sr1 H1B 103.3 . .
O1X Sr1 H1B 131.2 2_575 .
O1X Sr1 H1B 63.1 . .
O3W Sr1 H1B 90.1 . .
O2 Sr1 H1B 86.0 . .
O1W Sr1 H1B 17.3 . .
C1X Sr1 H1B 149.7 2_475 .
Sr1 Sr1 H1B 97.3 2_575 .
O2X Sr1 H3B 80.9 . .
O1 Sr1 H3B 118.0 . .
O2W Sr1 H3B 96.3 . .
O1X Sr1 H3B 143.7 2_575 .
O1X Sr1 H3B 143.4 . .
O3W Sr1 H3B 16.1 . .
O2 Sr1 H3B 57.2 . .
O1W Sr1 H3B 69.1 . .
C1X Sr1 H3B 125.1 2_475 .
Sr1 Sr1 H3B 169.6 2_575 .
H1B Sr1 H3B 85.1 . .
Sr1 O1W H1A 114.1 . .
Sr1 O1W H1B 95.3 . .
H1A O1W H1B 107.7 . .
Sr1 O2W H2A 127.2 . .
Sr1 O2W H2B 124.2 . .
H2A O2W H2B 101.7 . .
Sr2 O8W H8A 101.9 . .
Sr2 O8W H8B 109.7 . .
H8A O8W H8B 110.2 . .
Sr2 O6W H6A 111.8 . .
Sr2 O6W H6B 124.0 . .
H6A O6W H6B 112.0 . .
Sr2 O7W H7A 116.9 . .
Sr2 O7W H7B 131.3 . .
H7A O7W H7B 91.7 . .
Sr1 O3W H3A 102.9 . .
Sr1 O3W H3B 105.2 . .
H3A O3W H3B 110.2 . .
O2X C1X O1X 126.3(4) . 1_455
O2X C1X C1X 116.6(5) . 2_475
O1X C1X C1X 117.1(5) 1_455 2_475
O2X C1X Sr1 167.9(3) . 2_475
C1X C1X Sr1 75.2(3) 2_475 2_475
H11A O11W H11B 109.3 . .
H12A O12W H12B 109.4 . .
H5A O5W H5B 102.6 . .
H13A O13W H13B 107.7 . .
H15A O15W H15B 108.0 . .
O14W Sr3 O14W 180.0 2_565 .
O14W Sr3 O10W 71.3(5) 2_565 2_565
O14W Sr3 O10W 108.7(5) . 2_565
O14W Sr3 O10W 108.7(5) 2_565 .
O14W Sr3 O10W 71.3(5) . .
O10W Sr3 O10W 180.0 2_565 .
O14W Sr3 O5 83.0(4) 2_565 .
O14W Sr3 O5 97.0(4) . .
O10W Sr3 O5 109.2(2) 2_565 .
O10W Sr3 O5 70.8(2) . .
O14W Sr3 O5 97.0(4) 2_565 2_565
O14W Sr3 O5 83.0(4) . 2_565
O10W Sr3 O5 70.8(2) 2_565 2_565
O10W Sr3 O5 109.2(2) . 2_565
O5 Sr3 O5 180.0 . 2_565
O14W Sr3 O4 114.0(3) 2_565 .
O14W Sr3 O4 66.0(3) . .
O10W Sr3 O4 73.1(3) 2_565 .
O10W Sr3 O4 106.9(3) . .
O5 Sr3 O4 59.63(12) . .
O5 Sr3 O4 120.37(12) 2_565 .
O14W Sr3 O4 66.0(3) 2_565 2_565
O14W Sr3 O4 114.0(3) . 2_565
O10W Sr3 O4 106.9(3) 2_565 2_565
O10W Sr3 O4 73.1(3) . 2_565
O5 Sr3 O4 120.37(12) . 2_565
O5 Sr3 O4 59.63(12) 2_565 2_565
O4 Sr3 O4 180.0 . 2_565
O14W Sr3 H10B 91.5 2_565 .
O14W Sr3 H10B 88.5 . .
O10W Sr3 H10B 161.1 2_565 .
O10W Sr3 H10B 18.9 . .
O5 Sr3 H10B 75.2 . .
O5 Sr3 H10B 104.8 2_565 .
O4 Sr3 H10B 122.7 . .
O4 Sr3 H10B 57.3 2_565 .
O14W Sr3 H14A 159.3 2_565 .
O14W Sr3 H14A 20.7 . .
O10W Sr3 H14A 95.1 2_565 .
O10W Sr3 H14A 84.9 . .
O5 Sr3 H14A 116.8 . .
O5 Sr3 H14A 63.2 2_565 .
O4 Sr3 H14A 74.8 . .
O4 Sr3 H14A 105.2 2_565 .
H10B Sr3 H14A 99.2 . .
O14W Sr3 H14B 164.6 2_565 .
O14W Sr3 H14B 15.4 . .
O10W Sr3 H14B 123.7 2_565 .
O10W Sr3 H14B 56.3 . .
O5 Sr3 H14B 93.8 . .
O5 Sr3 H14B 86.2 2_565 .
O4 Sr3 H14B 76.5 . .
O4 Sr3 H14B 103.5 2_565 .
H10B Sr3 H14B 73.2 . .
H14A Sr3 H14B 30.8 . .
Sr3 O10W H10A 107.1 . .
Sr3 O10W H10B 101.5 . .
H10A O10W H10B 101.9 . .
O14W O14W Sr3 135.2(12) 2_665 .
O14W O14W H14A 109.6 2_665 .
Sr3 O14W H14A 100.3 . .
O14W O14W H14B 87.8 2_665 .
Sr3 O14W H14B 112.4 . .
H14A O14W H14B 110.4 . .
H16A O16W H16B 109.1 . .
loop_
_geom_bond_atom_site_label_1
_geom_bond_atom_site_label_2
_geom_bond_distance
_geom_bond_site_symmetry_2
Cu1 N5 1.952(4) .
Cu1 O3 1.966(4) .
Cu1 N2 1.968(4) .
Cu1 O9 1.972(3) .
Cu1 O4W 2.386(5) .
Cu2 N6 1.959(4) .
Cu2 O12 1.968(4) .
Cu2 O6 1.967(4) .
Cu2 N3 1.973(4) .
O3 C7 1.260(6) .
O12 C18 1.266(6) .
O11 C18 1.238(6) .
O11 Sr2 2.630(4) 2_666
O8 C16 1.231(6) .
O8 Sr2 2.655(4) .
O9 C16 1.272(6) .
O2 C7 1.230(6) .
O2 Sr1 2.650(4) .
N1 C1 1.326(6) .
N1 C5 1.338(6) .
N3 C8 1.314(7) .
N3 C5 1.426(6) .
O4 C8 1.253(6) .
O4 Sr3 2.785(4) .
O1 C6 1.254(6) .
O1 Sr1 2.543(3) .
C6 N2 1.307(6) .
C6 C7 1.533(7) .
N2 C1 1.424(6) .
C1 C2 1.378(7) .
C5 C4 1.381(7) .
C18 C17 1.537(7) .
C17 O10 1.243(6) .
C17 N6 1.318(6) .
O10 Sr2 2.626(3) 2_666
N6 C14 1.423(6) .
C14 N4 1.338(6) .
C14 C13 1.378(7) .
C13 C12 1.376(8) .
C13 H13 0.9300 .
C12 C11 1.383(8) .
C12 H12 0.9300 .
C11 C10 1.380(6) .
C11 H11 0.9300 .
C10 N4 1.337(6) .
C10 N5 1.420(6) .
N5 C15 1.320(6) .
C15 O7 1.246(5) .
C15 C16 1.528(7) .
O7 Sr2 2.619(3) .
O6 C9 1.265(6) .
C9 O5 1.226(7) .
C9 C8 1.534(7) .
O5 Sr3 2.682(4) .
C4 C3 1.380(8) .
C4 H4 0.9300 .
C3 C2 1.369(8) .
C3 H3 0.9300 .
C2 H2 0.9300 .
O4W H4A 0.8514 .
O4W H4B 0.8486 .
O2X C1X 1.244(6) .
O2X Sr1 2.504(3) .
O1X C1X 1.246(5) 1_655
O1X Sr1 2.604(3) 2_575
O1X Sr1 2.606(3) .
O9W Sr2 2.500(4) .
O9W H9A 1.0072 .
O9W H9B 0.8497 .
Sr2 O8W 2.573(4) .
Sr2 O7W 2.578(5) .
Sr2 O6W 2.596(4) .
Sr2 O10 2.626(3) 2_666
Sr2 O11 2.630(4) 2_666
Sr2 H9A 2.9099 .
Sr2 H9B 2.9532 .
Sr2 H8A 2.8712 .
Sr1 O2W 2.558(4) .
Sr1 O1X 2.604(3) 2_575
Sr1 O3W 2.605(5) .
Sr1 O1W 2.652(4) .
Sr1 C1X 3.393(5) 2_475
Sr1 H1B 2.8593 .
Sr1 H3B 2.9436 .
O1W H1A 0.8487 .
O1W H1B 0.8517 .
O2W H2A 0.9869 .
O2W H2B 0.9933 .
O8W H8A 0.8490 .
O8W H8B 1.0177 .
O6W H6A 0.9936 .
O6W H6B 0.8497 .
O7W H7A 0.9874 .
O7W H7B 1.0030 .
O3W H3A 1.0068 .
O3W H3B 0.8478 .
C1X O1X 1.246(5) 1_455
C1X C1X 1.560(9) 2_475
C1X Sr1 3.393(5) 2_475
O11W H11A 0.9878 .
O11W H11B 1.0004 .
O12W H12A 0.8517 .
O12W H12B 0.9914 .
O5W H5A 0.9931 .
O5W H5B 0.8499 .
O13W H13A 0.8499 .
O13W H13B 0.8500 .
O15W H15A 0.9576 .
O15W H15B 1.0095 .
Sr3 O14W 2.527(18) 2_565
Sr3 O14W 2.527(18) .
Sr3 O10W 2.582(9) 2_565
Sr3 O10W 2.582(9) .
Sr3 O5 2.682(4) 2_565
Sr3 O4 2.785(4) 2_565
Sr3 H10B 2.9350 .
Sr3 H14A 2.8999 .
Sr3 H14B 2.9546 .
O10W H10A 0.9925 .
O10W H10B 0.9711 .
O14W O14W 1.56(4) 2_665
O14W H14A 1.0421 .
O14W H14B 0.8465 .
O16W H16A 0.9979 .
O16W H16B 0.9922 .
loop_
_geom_torsion_atom_site_label_1
_geom_torsion_atom_site_label_2
_geom_torsion_atom_site_label_3
_geom_torsion_atom_site_label_4
_geom_torsion
_geom_torsion_site_symmetry_1
_geom_torsion_site_symmetry_4
Sr1 O1 C6 N2 -149.2(4) . .
Sr1 O1 C6 C7 31.8(5) . .
Sr1 O2 C7 O3 151.0(4) . .
Sr1 O2 C7 C6 -29.6(5) . .
Cu1 O3 C7 O2 -178.3(4) . .
Cu1 O3 C7 C6 2.3(6) . .
O1 C6 C7 O2 -0.1(7) . .
N2 C6 C7 O2 -179.2(4) . .
O1 C6 C7 O3 179.3(5) . .
N2 C6 C7 O3 0.2(6) . .
O1 C6 N2 C1 -1.6(7) . .
C7 C6 N2 C1 177.4(4) . .
O1 C6 N2 Cu1 178.4(4) . .
C7 C6 N2 Cu1 -2.6(5) . .
C5 N1 C1 C2 0.4(7) . .
C5 N1 C1 N2 -179.5(4) . .
C6 N2 C1 N1 -89.1(5) . .
Cu1 N2 C1 N1 91.0(5) . .
C6 N2 C1 C2 90.9(6) . .
Cu1 N2 C1 C2 -89.0(5) . .
C1 N1 C5 C4 -0.1(7) . .
C1 N1 C5 N3 -180.0(4) . .
C8 N3 C5 N1 89.2(5) . .
Cu2 N3 C5 N1 -86.5(5) . .
C8 N3 C5 C4 -90.7(6) . .
Cu2 N3 C5 C4 93.6(6) . .
Sr2 O11 C18 O12 -173.2(4) 2_666 .
Sr2 O11 C18 C17 5.1(7) 2_666 .
Cu2 O12 C18 O11 -178.4(5) . .
Cu2 O12 C18 C17 3.3(6) . .
O11 C18 C17 O10 1.4(8) . .
O12 C18 C17 O10 179.9(5) . .
O11 C18 C17 N6 -178.1(5) . .
O12 C18 C17 N6 0.3(7) . .
N6 C17 O10 Sr2 172.3(4) . 2_666
C18 C17 O10 Sr2 -7.2(6) . 2_666
O10 C17 N6 C14 -2.6(8) . .
C18 C17 N6 C14 176.9(4) . .
O10 C17 N6 Cu2 176.7(4) . .
C18 C17 N6 Cu2 -3.7(5) . .
C17 N6 C14 N4 -88.1(5) . .
Cu2 N6 C14 N4 92.7(5) . .
C17 N6 C14 C13 92.1(6) . .
Cu2 N6 C14 C13 -87.2(5) . .
N4 C14 C13 C12 -0.8(8) . .
N6 C14 C13 C12 179.1(5) . .
C14 C13 C12 C11 0.3(8) . .
C13 C12 C11 C10 0.1(8) . .
C12 C11 C10 N4 0.1(7) . .
C12 C11 C10 N5 -178.0(4) . .
C13 C14 N4 C10 1.0(7) . .
N6 C14 N4 C10 -178.9(4) . .
C11 C10 N4 C14 -0.6(7) . .
N5 C10 N4 C14 177.6(4) . .
N4 C10 N5 C15 88.7(5) . .
C11 C10 N5 C15 -93.1(5) . .
N4 C10 N5 Cu1 -90.6(5) . .
C11 C10 N5 Cu1 87.7(5) . .
C10 N5 C15 O7 0.3(7) . .
Cu1 N5 C15 O7 179.7(4) . .
C10 N5 C15 C16 -179.2(4) . .
Cu1 N5 C15 C16 0.1(5) . .
N5 C15 O7 Sr2 -172.4(4) . .
C16 C15 O7 Sr2 7.1(5) . .
Cu2 O6 C9 O5 180.0(5) . .
Cu2 O6 C9 C8 -1.1(6) . .
O6 C9 O5 Sr3 -169.7(4) . .
C8 C9 O5 Sr3 11.3(8) . .
Sr3 O4 C8 N3 171.0(4) . .
Sr3 O4 C8 C9 -9.5(6) . .
C5 N3 C8 O4 4.3(8) . .
Cu2 N3 C8 O4 -179.3(5) . .
C5 N3 C8 C9 -175.2(4) . .
Cu2 N3 C8 C9 1.1(5) . .
O5 C9 C8 O4 -0.6(8) . .
O6 C9 C8 O4 -179.6(5) . .
O5 C9 C8 N3 179.0(5) . .
O6 C9 C8 N3 0.0(7) . .
N1 C5 C4 C3 -0.6(8) . .
N3 C5 C4 C3 179.3(5) . .
C5 C4 C3 C2 0.9(9) . .
C4 C3 C2 C1 -0.6(9) . .
N1 C1 C2 C3 -0.1(8) . .
N2 C1 C2 C3 179.9(5) . .
Sr2 O8 C16 O9 169.1(4) . .
Sr2 O8 C16 C15 -10.3(6) . .
Cu1 O9 C16 O8 176.8(4) . .
Cu1 O9 C16 C15 -3.8(5) . .
O7 C15 C16 O8 2.4(7) . .
N5 C15 C16 O8 -178.0(5) . .
O7 C15 C16 O9 -177.1(4) . .
N5 C15 C16 O9 2.5(6) . .
Sr1 O2X C1X O1X -175.6(4) . 1_455
Sr1 O2X C1X C1X 4.5(7) . 2_475
Sr1 O2X C1X Sr1 171.2(14) . 2_475
