#------------------------------------------------------------------------------
#$Date: 2019-11-07 23:55:32 +0200 (Thu, 07 Nov 2019) $
#$Revision: 224140 $
#$URL: file:///home/coder/svn-repositories/cod/cif/7/04/81/7048187.cif $
#------------------------------------------------------------------------------
#
# This file is available in the Crystallography Open Database (COD),
# http://www.crystallography.net/
#
# All data on this site have been placed in the public domain by the
# contributors.
#
data_7048187
loop_
_publ_author_name
'Gupta, Vijay'
'Mandal, Sanjay K.'
_publ_section_title
;
 A robust and water-stable two-fold interpenetrated metal-organic
 framework containing both rigid tetrapodal carboxylate and rigid
 bifunctional nitrogen linkers exhibiting selective CO<sub>2</sub>
 capture.
;
_journal_issue                   2
_journal_name_full
'Dalton transactions (Cambridge, England : 2003)'
_journal_page_first              415
_journal_page_last               425
_journal_paper_doi               10.1039/c8dt03844a
_journal_volume                  48
_journal_year                    2019
_chemical_formula_moiety
'C38 H24 Co2 N2 O8 Si, 0.5 (C3 H7 N O), (H2 O)'
_chemical_formula_sum            'C39.5 H29.5 Co2 N2.5 O9.5 Si'
_chemical_formula_weight         836.53
_space_group_crystal_system      tetragonal
_space_group_IT_number           132
_space_group_name_Hall           '-P 4c 2c'
_space_group_name_H-M_alt        'P 42/m c m'
_symmetry_space_group_name_Hall  '-P 4c 2c'
_symmetry_space_group_name_H-M   'P 42/m c m'
_atom_sites_solution_hydrogens   geom
_atom_sites_solution_primary     dual
_audit_creation_date             2018-11-08
_audit_creation_method
;
Olex2 1.2
(compiled 2018.05.29 svn.r3508 for OlexSys, GUI svn.r5506)
;
_audit_update_record
;
2018-11-09 deposited with the CCDC.
2018-11-21 downloaded from the CCDC.
;
_cell_angle_alpha                90
_cell_angle_beta                 90
_cell_angle_gamma                90
_cell_formula_units_Z            2
_cell_length_a                   9.6299(5)
_cell_length_b                   9.6299(5)
_cell_length_c                   21.8959(12)
_cell_measurement_reflns_used    9976
_cell_measurement_temperature    100(2)
_cell_measurement_theta_max      24.84
_cell_measurement_theta_min      2.82
_cell_volume                     2030.52(19)
_computing_cell_refinement       'SAINT v8.34A (Bruker, 2013)'
_computing_data_collection       'APEX3 Ver. 2016.5-0 (Bruker-AXS, 2016)'
_computing_data_reduction        'SAINT v8.34A (Bruker, 2013)'
_computing_molecular_graphics    'Olex2 (Dolomanov et al., 2009)'
_computing_publication_material  'Olex2 (Dolomanov et al., 2009)'
_computing_structure_refinement  'ShelXL (Sheldrick, 2015)'
_computing_structure_solution    'ShelXT (Sheldrick, 2015)'
_diffrn_ambient_temperature      100(2)
_diffrn_detector                 'CCD area detector'
_diffrn_detector_area_resol_mean 7.9
_diffrn_detector_type            'Bruker SMART CCD 1K area detector'
_diffrn_measured_fraction_theta_full 0.998
_diffrn_measured_fraction_theta_max 0.998
_diffrn_measurement_device       'three-circle diffractometer'
_diffrn_measurement_device_type  'Bruker D8 Venture PHOTON 100 CMOS'
_diffrn_measurement_method       'phi and omega scan'
_diffrn_radiation_monochromator  graphite
_diffrn_radiation_probe          x-ray
_diffrn_radiation_type           MoK\a
_diffrn_radiation_wavelength     0.71073
_diffrn_reflns_av_R_equivalents  0.0957
_diffrn_reflns_av_unetI/netI     0.0251
_diffrn_reflns_Laue_measured_fraction_full 0.998
_diffrn_reflns_Laue_measured_fraction_max 0.998
_diffrn_reflns_limit_h_max       11
_diffrn_reflns_limit_h_min       -11
_diffrn_reflns_limit_k_max       11
_diffrn_reflns_limit_k_min       -11
_diffrn_reflns_limit_l_max       26
_diffrn_reflns_limit_l_min       -26
_diffrn_reflns_number            34835
_diffrn_reflns_point_group_measured_fraction_full 0.998
_diffrn_reflns_point_group_measured_fraction_max 0.998
_diffrn_reflns_theta_full        25.082
_diffrn_reflns_theta_max         25.082
_diffrn_reflns_theta_min         2.817
_diffrn_source                   'sealed X-ray tube'
_diffrn_source_target            Mo
_diffrn_standards_number         0
_exptl_absorpt_coefficient_mu    0.894
_exptl_absorpt_correction_T_max  0.7452
_exptl_absorpt_correction_T_min  0.6028
_exptl_absorpt_correction_type   multi-scan
_exptl_absorpt_process_details
'SADABS-2014/5 (Bruker,2014/5) was used for absorption correction.'
_exptl_crystal_colour            'clear dark violet'
_exptl_crystal_colour_lustre     clear
_exptl_crystal_colour_modifier   dark
_exptl_crystal_colour_primary    violet
_exptl_crystal_density_diffrn    1.368
_exptl_crystal_description       plate
_exptl_crystal_F_000             856
_exptl_crystal_size_max          0.15
_exptl_crystal_size_mid          0.15
_exptl_crystal_size_min          0.1
_refine_diff_density_max         0.448
_refine_diff_density_min         -0.411
_refine_diff_density_rms         0.090
_refine_ls_extinction_method     none
_refine_ls_goodness_of_fit_ref   1.141
_refine_ls_hydrogen_treatment    constr
_refine_ls_matrix_type           full
_refine_ls_number_parameters     91
_refine_ls_number_reflns         1025
_refine_ls_number_restraints     30
_refine_ls_restrained_S_all      1.127
_refine_ls_R_factor_all          0.0766
_refine_ls_R_factor_gt           0.0669
_refine_ls_shift/su_max          0.004
_refine_ls_shift/su_mean         0.001
_refine_ls_structure_factor_coef Fsqd
_refine_ls_weighting_details
'w=1/[\s^2^(Fo^2^)+(0.0701P)^2^+6.0604P] where P=(Fo^2^+2Fc^2^)/3'
_refine_ls_weighting_scheme      calc
_refine_ls_wR_factor_gt          0.1589
_refine_ls_wR_factor_ref         0.1641
_reflns_Friedel_coverage         0.000
_reflns_number_gt                896
_reflns_number_total             1025
_reflns_threshold_expression     'I > 2\s(I)'
_cod_data_source_file            c8dt03844a2.cif
_cod_data_source_block           1
_cod_depositor_comments          'Adding full bibliography for 7048187.cif.'
_cod_original_cell_volume        2030.5(2)
_cod_database_code               7048187
_shelx_shelxl_version_number     2014/7
_shelx_space_group_comment
;
The symmetry employed for this shelxl refinement is uniquely defined
by the following loop, which should always be used as a source of
symmetry information in preference to the above space-group names.
They are only intended as comments.
;
_shelx_estimated_absorpt_t_max   0.916
_shelx_estimated_absorpt_t_min   0.878
_olex2_refinement_description
;
1. Fixed Uiso
 At 1.2 times of:
  All C(H) groups
2. Rigid body (RIGU) restrains
 N1, C6, C7, C8
 with sigma for 1-2 distances of 0.004 and sigma for 1-3 distances of 0.004
 N1, C6A, C7A, C8
 with sigma for 1-2 distances of 0.004 and sigma for 1-3 distances of 0.004
3. Others
 Sof(C6A)=Sof(H6A)=Sof(C7A)=Sof(H7A)=0.5*(1-FVAR(2))
 Sof(C6)=Sof(H6)=Sof(C7)=Sof(H7)=0.5*FVAR(2)
4.a Aromatic/amide H refined with riding coordinates:
 C3(H3), C4(H4), C6(H6), C6A(H6A), C7(H7), C7A(H7A)
;
_smtbx_masks_special_details
;
A solvent void volume is present in which no satatisfactory solvent
molecule be constructed. A solvent mask was calculated and 62 electrons were
found in a volume of 458\A^3 in the void. This is consistent with the 
presence of 0.5[C3H7NO], 1[H2O] per formula unit,
which account for 60 electrons.
;
_shelx_res_file
;
    cmn_sm_vg_co_bpy_si4_0m.res created by SHELXL-2014/7

TITL cmn_sm_vg_co_bpy_si4_0m_a.res in P4(2)/mcm
REM Old TITL CMN_SM_VG_Co_bpy_Si4_0m in P-4c2
REM SHELXT solution in P4(2)/mcm
REM R1 0.240, Rweak 0.039, Alpha 0.059, Orientation as input
REM Formula found by SHELXT: C30 N8 O2 Si Co2
CELL 0.71073 9.6299 9.6299 21.8959 90 90 90
ZERR 2 0.0005 0.0005 0.0012 0 0 0
LATT 1
SYMM -X,-Y,+Z
SYMM -Y,+X,0.5+Z
SYMM +Y,-X,0.5+Z
SYMM -X,+Y,0.5-Z
SYMM +X,-Y,0.5-Z
SYMM +Y,+X,-Z
SYMM -Y,-X,-Z
SFAC C H Co N O Si
UNIT 76 48 4 4 16 2
EQIV $1 +X,+Y,1-Z
EQIV $2 1-Y,1-X,+Z
RIGU N1 C6 C7 C8
RIGU N1 C6A C7A C8

L.S. 4 0 0
PLAN  20
SIZE 0.1 0.15 0.15
TEMP -173(2)
FREE C7A C7A_$1
FREE C7A C7A_$2
FREE C6A C7A_$2
FREE C6A C6A_$1
FREE C6A C6A_$2
list 4
ABIN
fmap 2 53
acta
REM <olex2.extras>
REM <HklSrc "%.\\CMN_SM_VG_Co_bpy_Si4_0m.hkl">
REM </olex2.extras>

WGHT    0.070100    6.060400
FVAR       0.38829   0.49067
CO1   3    0.594297    0.405703    0.500000    10.25000    0.03214    0.03214 =
         0.03141    0.00000    0.00000    0.01113
SI1   6    0.000000    0.000000    0.250000    10.12500    0.03211    0.03211 =
         0.04536    0.00000    0.00000    0.00000
O1    5    0.474937    0.314561    0.436309    11.00000    0.04615    0.05106 =
         0.07453   -0.02437   -0.03005    0.02488
N1    4    0.743040    0.256960    0.500000    10.25000    0.03276    0.03276 =
         0.02475    0.00000    0.00000    0.00761
C1    1    0.361808    0.361808    0.420024    10.50000    0.03837    0.03837 =
         0.03126   -0.00059   -0.00059    0.00449
C2    1    0.275546    0.275546    0.377689    10.50000    0.03713    0.03713 =
         0.03463    0.00213    0.00213    0.00732
C3    1    0.317340    0.149677    0.358198    11.00000    0.07636    0.05507 =
         0.13746   -0.05023   -0.06765    0.04099
AFIX  43
H3    2    0.404972    0.115181    0.371115    11.00000   -1.20000
AFIX   0
C4    1    0.237458    0.070368    0.320457    11.00000    0.08665    0.05045 =
         0.14797   -0.04944   -0.06784    0.03727
AFIX  43
H4    2    0.271611   -0.017596    0.307802    11.00000   -1.20000
AFIX   0
C5    1    0.111976    0.111976    0.300432    10.50000    0.03462    0.03462 =
         0.04083    0.00093    0.00093   -0.00252
PART 1
C6    1    0.709593    0.121131    0.500000    20.50000    0.03081    0.03311 =
         0.15928    0.00000    0.00000    0.00227
AFIX  43
H6    2    0.614420    0.095169    0.500000    20.50000   -1.20000
AFIX   0
PART 0
PART 2
C6A   1    0.752007    0.164076    0.458120   -20.50000    0.04052    0.06483 =
         0.04857   -0.02862   -0.02401    0.02916
AFIX  43
H6A   2    0.683857    0.165150    0.426754   -20.50000   -1.20000
AFIX   0
PART 0
PART 1
C7    1    0.806228    0.022281    0.500000    20.50000    0.03206    0.02878 =
         0.16424    0.00000    0.00000    0.00101
AFIX  43
H7    2    0.778288   -0.072331    0.500000    20.50000   -1.20000
AFIX   0
PART 0
PART 2
C7A   1    0.855076    0.060896    0.455181   -20.50000    0.05385    0.06812 =
         0.04357   -0.03609   -0.02300    0.03754
AFIX  43
H7A   2    0.858986   -0.002029    0.421811   -20.50000   -1.20000
AFIX   0
PART 0
C8    1    0.946088    0.053912    0.500000    10.25000    0.03035    0.03035 =
         0.02581    0.00000    0.00000    0.00580
HKLF 4

REM  cmn_sm_vg_co_bpy_si4_0m_a.res in P4(2)/mcm
REM R1 =  0.0669 for     896 Fo > 4sig(Fo)  and  0.0766 for all    1025 data
REM     91 parameters refined using     30 restraints

END

WGHT      0.0711      5.7283

REM Highest difference peak  0.448,  deepest hole -0.411,  1-sigma level  0.090
Q1    1   0.5362  0.3559  0.4585  11.00000  0.05    0.45
Q2    1   0.2742  0.0753  0.3015  11.00000  0.05    0.44
Q3    1   0.0582  0.0582  0.2779  10.50000  0.05    0.44
Q4    1   0.5209  0.3940  0.4633  11.00000  0.05    0.40
Q5    1   0.9778 -0.0222  0.5000  10.25000  0.05    0.40
Q6    1   0.5198  0.4802  0.5178  10.50000  0.05    0.39
Q7    1   0.2213  0.0195  0.3389  11.00000  0.05    0.39
Q8    1   0.8990  0.0253  0.5000  10.50000  0.05    0.38
Q9    1   0.2984  0.1350  0.3806  11.00000  0.05    0.34
Q10   1   0.3028  0.1169  0.3172  11.00000  0.05    0.34
Q11   1   0.2805  0.1560  0.3802  11.00000  0.05    0.32
Q12   1   0.3701  0.1574  0.3475  11.00000  0.05    0.31
Q13   1   0.2594  0.0834  0.3593  11.00000  0.05    0.29
Q14   1   0.2160  0.2525  0.3950  11.00000  0.05    0.28
Q15   1   0.3444  0.1883  0.3425  11.00000  0.05    0.28
Q16   1   0.1820  0.0836  0.2984  11.00000  0.05    0.27
Q17   1   1.0000  0.0000  0.4393  10.25000  0.05    0.27
Q18   1   0.6797  0.3203  0.4837  10.50000  0.05    0.26
Q19   1   0.7645  0.2355  0.4636  10.50000  0.05    0.24
Q20   1   0.3976  0.2986  0.4414  11.00000  0.05    0.23
;
_shelx_res_checksum              32563
_shelx_fab_file
;
0 0 4 33.2723 0.4206
0 0 6 -16.7158 0.2023
0 0 8 1.9654 -0.2290
0 0 10 4.2643 -0.1064
0 0 12 -2.1187 0.0948
0 0 14 -1.7889 0.1296
0 0 16 2.4224 -0.0674
0 0 18 -1.1864 -0.1374
0 0 20 1.5468 0.0951
0 0 22 -3.2052 0.0458
0 0 24 3.4082 0.0582
0 0 26 -1.7241 -0.2923
1 0 2 35.2628 0.0549
1 0 4 -28.3334 -0.1315
1 0 6 18.1277 -0.1034
1 0 8 -7.9440 0.1135
1 0 10 1.6835 0.1085
1 0 12 -0.4298 -0.1292
1 0 14 1.3206 -0.0653
1 0 16 -1.1296 0.0947
1 0 18 0.0369 0.0637
1 0 20 -0.1881 -0.0695
1 0 22 1.6369 -0.0974
1 0 24 -2.2324 0.0965
1 0 26 1.1490 0.1272
1 1 0 32.6425 -0.3703
1 1 1 -5.6933 0.4823
1 1 2 -30.7609 -0.1040
1 1 3 14.7373 -0.1303
1 1 4 25.4021 0.1711
1 1 5 -17.6837 -0.1124
1 1 6 -17.6491 0.1079
1 1 7 13.7383 -0.0259
1 1 8 9.6384 -0.1851
1 1 9 -6.1351 0.1272
1 1 10 -3.8671 -0.0093
1 1 11 -0.0108 0.0368
1 1 12 1.4202 0.0705
1 1 13 2.0385 -0.1389
1 1 14 -1.0212 0.0794
1 1 15 -1.4172 0.0160
1 1 16 0.6136 -0.1143
1 1 17 0.7023 0.0612
1 1 18 0.2776 -0.0298
1 1 19 -0.2915 0.0155
1 1 20 -0.6497 0.0561
1 1 21 -0.6606 -0.0323
1 1 22 0.1604 0.1081
1 1 23 1.7478 -0.0586
1 1 24 0.2410 -0.1776
1 1 25 -1.7410 0.0761
2 0 0 1.1480 -0.2296
2 0 2 -3.2196 0.2790
2 0 4 7.9032 -0.1172
2 0 6 -11.7657 -0.0319
2 0 8 12.1694 0.0473
2 0 10 -9.3245 -0.0464
2 0 12 5.5818 0.0516
2 0 14 -2.6616 0.0342
2 0 16 0.3423 -0.1218
2 0 18 1.8020 0.0537
2 0 20 -2.8141 0.0508
2 0 22 1.8398 0.0049
2 0 24 -0.0449 -0.1111
2 1 0 -7.0988 0.5103
2 1 1 5.0599 -0.9271
2 1 2 7.8010 0.1086
2 1 3 -12.6766 0.2527
2 1 4 -9.0629 -0.2413
2 1 5 14.6284 0.1925
2 1 6 9.3878 -0.0748
2 1 7 -11.3547 -0.0555
2 1 8 -8.2237 0.1531
2 1 9 5.7018 -0.0860
2 1 10 6.1477 0.0644
2 1 11 -0.9165 -0.0501
2 1 12 -4.0227 -0.0850
2 1 13 -1.1497 0.1087
2 1 14 2.3315 -0.1136
2 1 15 1.1667 0.0144
2 1 16 -0.9496 0.1306
2 1 17 -1.0979 -0.0362
2 1 18 -0.5231 0.0639
2 1 19 1.3833 -0.0516
2 1 20 1.9518 -0.1404
2 1 21 -0.6888 0.0130
2 1 22 -2.5351 -0.0080
2 1 23 -1.2212 0.1369
2 1 24 1.8908 0.1835
2 1 25 2.4687 -0.2184
2 2 0 3.9457 -0.3986
2 2 1 -4.1460 0.8451
2 2 2 -3.7535 0.0522
2 2 3 9.8586 -0.3656
2 2 4 2.9792 0.0245
2 2 5 -10.4011 -0.1101
2 2 6 -1.8671 0.2180
2 2 7 7.4379 0.0815
2 2 8 1.5687 -0.2692
2 2 9 -3.8429 0.1016
2 2 10 -2.5408 0.0345
2 2 11 1.1935 -0.0479
2 2 12 3.5841 0.0531
2 2 13 0.0934 -0.0631
2 2 14 -3.5440 0.1015
2 2 15 -0.4415 -0.0029
2 2 16 2.7603 -0.1461
2 2 17 0.8644 0.0875
2 2 18 -1.8664 0.0041
2 2 19 -1.5162 -0.0206
2 2 20 0.6090 0.0485
2 2 21 1.1850 -0.0488
2 2 22 0.9867 0.0490
2 2 23 0.5202 -0.0440
2 2 24 -1.7467 -0.1010
2 2 25 -1.8708 0.1855
3 0 0 4.8954 -0.1021
3 0 2 -2.3102 -0.0660
3 0 4 -3.0965 0.0451
3 0 6 7.1567 0.0888
3 0 8 -8.1382 -0.1116
3 0 10 6.9260 0.0719
3 0 12 -4.8817 -0.0938
3 0 14 2.9448 0.0924
3 0 16 -1.4902 0.0002
3 0 18 0.2051 -0.0504
3 0 20 1.0274 -0.0209
3 0 22 -1.4108 0.0953
3 0 24 0.5526 -0.0845
3 1 0 2.1384 0.3174
3 1 1 -1.2888 0.8152
3 1 2 -3.0036 -0.2820
3 1 3 3.1874 -0.2806
3 1 4 4.3777 -0.0178
3 1 5 -3.8362 -0.1730
3 1 6 -4.4798 0.1775
3 1 7 3.6798 0.1973
3 1 8 3.4112 0.0165
3 1 9 -3.0173 0.0249
3 1 10 -2.4120 -0.1666
3 1 11 1.9061 -0.1347
3 1 12 1.9460 0.0386
3 1 13 -0.9064 0.0481
3 1 14 -1.7205 0.0612
3 1 15 0.4879 0.0469
3 1 16 1.5134 0.0143
3 1 17 -0.0581 -0.0195
3 1 18 -1.0840 -0.0409
3 1 19 -0.9476 -0.0293
3 1 20 0.2332 0.0102
3 1 21 1.5775 -0.0296
3 1 22 0.5805 -0.0980
3 1 23 -0.6729 0.1076
3 1 24 -0.6825 0.1717
3 1 25 -0.9167 -0.0422
3 2 0 -5.0626 -0.2686
3 2 1 0.6168 -1.9595
3 2 2 4.2146 0.5284
3 2 3 -1.3657 0.7771
3 2 4 -2.1666 -0.1406
3 2 5 1.2749 0.3513
3 2 6 0.0711 -0.2911
3 2 7 -0.9890 -0.3020
3 2 8 0.9278 0.1447
3 2 9 1.1453 -0.1985
3 2 10 -0.3825 0.1410
3 2 11 -1.4663 0.1898
3 2 12 -0.9768 -0.0563
3 2 13 1.3588 0.0997
3 2 14 1.8511 -0.0877
3 2 15 -0.9135 -0.1011
3 2 16 -1.9221 -0.0087
3 2 17 0.5406 -0.0717
3 2 18 2.0800 0.0718
3 2 19 -0.1333 0.0327
3 2 20 -2.6688 0.0283
3 2 21 -0.4866 0.2092
3 2 22 2.7126 -0.0470
3 2 23 0.8605 -0.3569
3 2 24 -1.6125 -0.0273
3 3 0 3.9107 0.0354
3 3 1 0.7864 0.9639
3 3 2 -2.9740 -0.1950
3 3 3 -1.6477 -0.4553
3 3 4 1.2441 0.1034
3 3 5 1.4587 -0.2498
3 3 6 -0.2093 0.0763
3 3 7 -1.0326 0.2868
3 3 8 -0.1039 -0.0858
3 3 9 0.5239 0.0721
3 3 10 0.0915 0.0022
3 3 11 0.3615 -0.1170
3 3 12 0.2696 -0.0095
3 3 13 -1.0376 -0.0813
3 3 14 -0.5043 0.0598
3 3 15 0.9356 0.0696
3 3 16 0.1820 -0.0497
3 3 17 -0.7484 0.0780
3 3 18 -0.4624 0.0343
3 3 19 1.0384 -0.0401
3 3 20 2.4365 -0.0645
3 3 21 -0.9657 -0.1195
3 3 22 -4.3624 0.0705
3 3 23 -0.0325 0.1709
3 3 24 3.6530 -0.0237
4 0 0 -1.8240 0.2483
4 0 2 0.7712 -0.1788
4 0 4 1.3004 0.0050
4 0 6 -2.7328 0.0701
4 0 8 3.2953 -0.0566
4 0 10 -3.4794 0.0489
4 0 12 3.1603 -0.0371
4 0 14 -2.1761 -0.0056
4 0 16 1.0575 0.0148
4 0 18 -0.1828 0.0449
4 0 20 -0.6772 -0.0835
4 0 22 1.3382 0.0258
4 0 24 -1.0710 0.0640
4 1 0 -1.0036 -0.7418
4 1 1 0.1277 -0.4744
4 1 2 1.1009 -0.0198
4 1 3 -0.5871 0.1825
4 1 4 -1.0629 0.3629
4 1 5 1.1284 0.1954
4 1 6 0.5082 -0.0960
4 1 7 -1.2054 -0.3012
4 1 8 0.1804 -0.1443
4 1 9 0.8981 0.0023
4 1 10 -0.2602 -0.0075
4 1 11 -0.6932 0.2356
4 1 12 -0.2761 0.1712
4 1 13 0.6114 -0.0590
4 1 14 0.6616 -0.0338
4 1 15 -0.4753 -0.1511
4 1 16 -0.4345 -0.1126
4 1 17 0.3534 0.0123
4 1 18 -0.0950 -0.0106
4 1 19 -0.1213 0.1636
4 1 20 0.5026 0.1526
4 1 21 -0.4535 -0.0297
4 1 22 -0.6955 -0.0290
4 1 23 0.9136 -0.1658
4 1 24 0.6561 -0.1856
4 2 0 2.0883 0.5011
4 2 1 -0.3123 1.3585
4 2 2 -1.3470 -0.2359
4 2 3 0.9622 -0.4373
4 2 4 -0.0234 -0.1411
4 2 5 -1.2070 -0.3371
4 2 6 0.8762 0.1829
4 2 7 0.6251 0.2156
4 2 8 -1.2479 0.0341
4 2 9 0.0272 0.1717
4 2 10 1.4058 -0.0828
4 2 11 0.0238 -0.1441
4 2 12 -1.1156 -0.0379
4 2 13 -0.1720 -0.0891
4 2 14 0.6687 0.0188
4 2 15 -0.1002 0.1225
4 2 16 -0.8357 0.0936
4 2 17 -0.0234 0.0035
4 2 18 1.2988 -0.0615
4 2 19 0.7816 -0.0693
4 2 20 -0.9702 -0.0225
4 2 21 -0.7741 -0.0237
4 2 22 0.0137 -0.0222
4 2 23 -0.5035 0.2265
4 2 24 0.3508 0.0863
4 3 0 0.9348 0.2112
4 3 1 -0.3065 -1.3311
4 3 2 -1.1191 0.3245
4 3 3 0.4940 0.3831
4 3 4 1.1141 -0.2241
4 3 5 -0.2440 0.3611
4 3 6 -0.4665 -0.1441
4 3 7 0.3718 -0.1618
4 3 8 0.0282 0.1346
4 3 9 -0.8335 -0.1806
4 3 10 -0.6308 0.0639
4 3 11 0.7510 0.0663
4 3 12 1.6607 -0.0373
4 3 13 -0.1065 0.0884
4 3 14 -2.1559 -0.0811
4 3 15 -0.2335 -0.0136
4 3 16 2.2066 0.0595
4 3 17 0.1315 -0.0165
4 3 18 -2.1561 0.0179
4 3 19 -0.2291 -0.0480
4 3 20 1.6447 -0.0761
4 3 21 0.5225 0.0365
4 3 22 -0.5884 0.1374
4 3 23 -0.4320 -0.0486
4 4 0 -4.1100 -0.6574
4 4 1 0.8896 0.4670
4 4 2 3.4557 0.2272
4 4 3 -2.1309 -0.1485
4 4 4 -2.2729 0.0548
4 4 5 2.2188 -0.1567
4 4 6 1.6111 0.0249
4 4 7 -1.6797 0.0926
4 4 8 -1.5089 -0.1265
4 4 9 1.5221 0.0987
4 4 10 1.8045 0.0649
4 4 11 -1.5081 -0.0990
4 4 12 -2.4724 -0.0069
4 4 13 0.4671 0.0059
4 4 14 2.7686 0.0402
4 4 15 1.1555 -0.0003
4 4 16 -1.9840 -0.0633
4 4 17 -1.2942 0.0288
4 4 18 0.9569 0.0263
4 4 19 -0.3135 -0.0343
4 4 20 -0.8947 0.0380
4 4 21 1.2843 0.0740
4 4 22 1.3091 -0.1045
5 0 0 1.5454 -0.3576
5 0 2 -0.8715 0.2367
5 0 4 -0.8810 0.0446
5 0 6 2.6812 -0.1637
5 0 8 -3.2709 0.0786
5 0 10 2.6085 0.0000
5 0 12 -1.6769 -0.0052
5 0 14 0.8045 0.0370
5 0 16 0.3228 -0.0742
5 0 18 -1.2797 0.0033
5 0 20 1.2946 0.1346
5 0 22 -0.6573 -0.2025
5 1 0 -0.8793 0.9593
5 1 1 0.0119 0.1797
5 1 2 0.5293 -0.1084
5 1 3 0.1677 -0.0773
5 1 4 0.2833 -0.1542
5 1 5 -0.3762 -0.0949
5 1 6 -0.8333 -0.1279
5 1 7 0.1178 0.1266
5 1 8 0.5701 0.1885
5 1 9 0.1606 0.0655
5 1 10 -0.0744 0.0144
5 1 11 0.2624 -0.1682
5 1 12 0.2433 -0.0461
5 1 13 -0.8980 0.0105
5 1 14 -0.6379 -0.0682
5 1 15 0.8028 0.0926
5 1 16 0.1880 0.0740
5 1 17 -0.1495 0.0419
5 1 18 0.7706 0.0104
5 1 19 -0.3370 -0.1283
5 1 20 -0.9853 -0.1232
5 1 21 0.6199 0.0146
5 1 22 0.4241 0.2690
5 1 23 -0.8590 0.0645
5 2 0 -1.8421 -0.6404
5 2 1 0.5909 -0.2164
5 2 2 1.5772 0.0967
5 2 3 -1.4559 0.0867
5 2 4 -1.0042 0.1478
5 2 5 1.3989 0.0528
5 2 6 0.4242 -0.0017
5 2 7 -0.3777 -0.0738
5 2 8 0.1405 -0.0879
5 2 9 -0.6230 0.0244
5 2 10 -0.6045 0.0424
5 2 11 0.6256 0.0072
5 2 12 0.6140 -0.0536
5 2 13 0.0033 -0.0114
5 2 14 -0.1564 0.0573
5 2 15 -0.2142 0.0053
5 2 16 -0.1025 0.0270
5 2 17 -0.0966 0.0105
5 2 18 -0.3331 -0.0460
5 2 19 0.2628 -0.0206
5 2 20 1.0129 -0.0165
5 2 21 -0.2168 0.0155
5 2 22 -1.1761 -0.0233
5 2 23 0.3765 -0.0297
5 3 0 1.0872 -0.2776
5 3 1 -0.2742 0.3427
5 3 2 -0.7354 -0.0543
5 3 3 0.3665 -0.0793
5 3 4 -0.0542 0.0549
5 3 5 0.0647 -0.0431
5 3 6 0.5772 0.1080
5 3 7 -0.2405 -0.0355
5 3 8 -0.5322 -0.0664
5 3 9 0.0173 -0.0083
5 3 10 0.7526 -0.0737
5 3 11 0.2366 0.1138
5 3 12 -1.7624 0.0646
5 3 13 -0.6051 -0.0207
5 3 14 2.2591 0.0309
5 3 15 1.0533 -0.1027
5 3 16 -1.1055 -0.0742
5 3 17 -0.9056 0.0085
5 3 18 -0.1902 0.0756
5 3 19 0.0481 0.1099
5 3 20 -0.3985 -0.0444
5 3 21 0.5787 -0.0417
5 3 22 1.9392 -0.0173
5 4 0 0.8696 0.9254
5 4 1 -0.6907 -0.2494
5 4 2 -0.7618 -0.1053
5 4 3 2.0112 -0.0351
5 4 4 1.0472 -0.1950
5 4 5 -2.5078 0.0788
5 4 6 -1.9322 -0.0342
5 4 7 1.4582 0.1057
5 4 8 2.2299 0.0796
5 4 9 0.0614 -0.0637
5 4 10 -1.6990 0.0684
5 4 11 -0.6158 -0.1204
5 4 12 1.6230 -0.0412
5 4 13 0.7986 0.0659
5 4 14 -1.9140 -0.0450
5 4 15 -1.6702 0.0904
5 4 16 0.9305 0.0191
5 4 17 2.1863 -0.0565
5 4 18 0.9939 -0.0748
5 4 19 -0.9500 -0.0061
5 4 20 -1.4478 0.2250
5 4 21 -0.9065 -0.0775
5 5 0 -1.0320 -1.2685
5 5 1 0.6685 0.0154
5 5 2 0.7783 0.6287
5 5 3 -1.5178 0.0866
5 5 4 -0.6403 -0.0051
5 5 5 1.3090 -0.0692
5 5 6 1.1078 -0.0793
5 5 7 -0.2767 -0.0335
5 5 8 -1.2452 -0.0520
5 5 9 -0.7862 0.0375
5 5 10 0.3393 0.0506
5 5 11 1.1688 0.0406
5 5 12 0.5413 -0.0069
5 5 13 -0.9984 -0.0588
5 5 14 -0.2769 0.0359
5 5 15 1.1310 0.0237
5 5 16 -0.2959 -0.0832
5 5 17 -1.7528 -0.0062
5 5 18 -0.1494 0.1415
5 5 19 1.7921 -0.0180
5 5 20 1.0942 -0.2125
6 0 0 1.0943 0.2398
6 0 2 -0.9159 -0.0856
6 0 4 0.7784 -0.1470
6 0 6 -0.9479 0.2073
6 0 8 0.9037 -0.1080
6 0 10 -0.4992 0.0263
6 0 12 0.3384 -0.0063
6 0 14 -0.4592 -0.0193
6 0 16 0.2376 0.0345
6 0 18 0.2145 0.0195
6 0 20 -0.2054 -0.1113
6 0 22 -0.1205 0.1749
6 1 0 0.4703 -0.8183
6 1 1 -0.5163 0.2191
6 1 2 -0.3360 0.1192
6 1 3 1.4215 -0.0495
6 1 4 0.0929 0.1267
6 1 5 -1.7984 -0.1005
6 1 6 -0.0876 0.0530
6 1 7 1.2998 0.1300
6 1 8 0.4008 -0.0912
6 1 9 -0.1305 -0.0459
6 1 10 -0.5537 -0.0154
6 1 11 -1.1318 -0.0503
6 1 12 0.1284 0.0151
6 1 13 1.9692 0.0666
6 1 14 0.4467 0.0006
6 1 15 -1.9051 -0.0220
6 1 16 -0.4348 0.0463
6 1 17 0.7401 0.0023
6 1 18 -0.0365 -0.0288
6 1 19 0.8082 -0.0320
6 1 20 0.1965 0.0236
6 1 21 -1.4993 0.0636
6 1 22 0.1028 -0.1765
6 2 0 1.5895 0.4868
6 2 1 0.2331 -0.5598
6 2 2 -1.6848 -0.0554
6 2 3 -0.6544 0.2043
6 2 4 1.4394 -0.1011
6 2 5 0.7429 0.1135
6 2 6 -0.4548 0.0103
6 2 7 -0.4181 -0.0868
6 2 8 -0.4389 -0.0096
6 2 9 0.2351 -0.0502
6 2 10 0.4566 0.0240
6 2 11 -0.2662 0.0730
6 2 12 0.0143 0.0386
6 2 13 -0.2784 -0.0265
6 2 14 -0.3511 0.0086
6 2 15 1.1990 -0.0323
6 2 16 0.5237 -0.1133
6 2 17 -0.9651 0.0683
6 2 18 -0.5704 0.0225
6 2 19 -0.5826 0.0024
6 2 20 0.4135 0.1145
6 2 21 1.4623 -0.1240
6 3 0 -1.5604 0.3186
6 3 1 0.0370 0.7043
6 3 2 1.2918 -0.0585
6 3 3 0.1566 -0.2763
6 3 4 -0.3667 -0.0770
6 3 5 -0.3127 -0.1919
6 3 6 -0.8016 -0.0068
6 3 7 -0.2685 0.1960
6 3 8 1.1042 0.0929
6 3 9 0.8525 0.0463
6 3 10 -0.4427 -0.0364
6 3 11 -0.4317 -0.1245
6 3 12 0.0002 -0.0315
6 3 13 -0.1473 0.0256
6 3 14 -0.0993 0.0015
6 3 15 -0.2911 0.0699
6 3 16 -0.2596 0.0121
6 3 17 0.9111 -0.0949
6 3 18 1.1946 0.0535
6 3 19 -0.4487 0.0429
6 3 20 -1.4479 -0.0528
6 3 21 -0.4098 0.0524
6 4 0 -0.0089 -0.8492
6 4 1 -0.1563 -0.5644
6 4 2 0.3881 0.0853
6 4 3 0.1495 0.2971
6 4 4 -1.1935 0.2369
6 4 5 0.0501 0.1422
6 4 6 1.7217 -0.0540
6 4 7 0.4178 -0.2575
6 4 8 -1.5114 -0.0198
6 4 9 -1.3767 -0.0028
6 4 10 0.7877 -0.0806
6 4 11 1.4467 0.1594
6 4 12 -0.2771 0.0531
6 4 13 -0.2572 -0.0145
6 4 14 0.3095 0.0049
6 4 15 -0.6656 -0.0960
6 4 16 -0.2766 0.0899
6 4 17 0.1713 0.0085
6 4 18 -0.4134 -0.1256
6 4 19 0.7276 0.0322
6 4 20 1.1615 -0.0599
6 5 0 2.0211 1.0747
6 5 1 0.3593 0.1386
6 5 2 -1.9952 -0.1999
6 5 3 -1.2853 -0.2375
6 5 4 1.5262 -0.2065
6 5 5 1.9692 0.0867
6 5 6 -0.4627 0.0161
6 5 7 -1.6149 0.1224
6 5 8 -0.3802 0.0802
6 5 9 0.9422 -0.0504
6 5 10 0.5328 0.0280
6 5 11 -0.8868 -0.0843
6 5 12 -0.4401 -0.0016
6 5 13 0.6644 -0.0123
6 5 14 0.2220 -0.0880
6 5 15 0.3618 0.0929
6 5 16 0.4321 0.0260
6 5 17 -0.8460 0.0517
6 5 18 -1.0351 0.0387
6 5 19 -0.1064 -0.1232
6 6 0 -3.8651 -0.9237
6 6 1 -0.4259 0.1092
6 6 2 3.3802 0.4510
6 6 3 1.7804 0.0085
6 6 4 -1.9939 0.0226
6 6 5 -2.9157 -0.0659
6 6 6 0.2761 -0.0931
6 6 7 2.0014 0.0032
6 6 8 0.7166 -0.0266
6 6 9 -0.0473 0.0170
6 6 10 -0.5988 0.0671
6 6 11 -0.2896 0.0187
6 6 12 0.1672 -0.0592
6 6 13 -0.6586 0.0063
6 6 14 -0.1430 0.0866
6 6 15 0.4348 -0.0445
6 6 16 0.1945 -0.1130
6 6 17 0.9090 -0.0046
7 0 0 -3.4856 -0.1362
7 0 2 2.8557 0.0828
7 0 4 -1.3265 0.0255
7 0 6 -0.0649 -0.0582
7 0 8 0.2764 0.0075
7 0 10 0.6306 0.0475
7 0 12 -1.6302 -0.0596
7 0 14 2.0986 0.0415
7 0 16 -2.2100 -0.0302
7 0 18 2.0277 0.0472
7 0 20 -1.3271 -0.0679
7 1 0 -0.1663 0.4530
7 1 1 -0.0938 -0.5177
7 1 2 0.2972 -0.0176
7 1 3 -0.3731 0.1829
7 1 4 -0.6898 -0.1065
7 1 5 1.5089 0.1338
7 1 6 0.9937 -0.0713
7 1 7 -1.8346 -0.1362
7 1 8 -0.6221 0.1406
7 1 9 0.7867 -0.0904
7 1 10 -0.2136 -0.0096
7 1 11 0.6249 0.1611
7 1 12 0.5936 -0.0734
7 1 13 -1.4231 0.0016
7 1 14 -0.3115 0.0110
7 1 15 1.4050 -0.0805
7 1 16 0.0251 0.0707
7 1 17 -0.7445 -0.0074
7 1 18 0.0522 -0.0972
7 1 19 0.0067 -0.0060
7 1 20 -0.2855 0.0950
7 2 0 0.5854 -0.1974
7 2 1 0.0776 1.1600
7 2 2 -0.2950 -0.0022
7 2 3 0.0649 -0.4208
7 2 4 -0.0750 0.0681
7 2 5 -0.4433 -0.2640
7 2 6 0.0346 -0.0058
7 2 7 0.4136 0.1962
7 2 8 -0.0139 -0.0338
7 2 9 0.0140 0.1335
7 2 10 0.2655 0.0312
7 2 11 -0.3934 -0.1309
7 2 12 -0.0779 -0.0067
7 2 13 0.7818 -0.0511
7 2 14 -0.9743 -0.0433
7 2 15 -1.2141 0.0953
7 2 16 2.0944 0.0315
7 2 17 1.1129 -0.0715
7 2 18 -2.3319 0.0924
7 2 19 -0.3457 0.1147
7 2 20 1.6922 -0.1699
7 3 0 -0.6855 -0.2239
7 3 1 -0.0673 -1.2224
7 3 2 0.3875 -0.0423
7 3 3 0.3088 0.3662
7 3 4 0.1514 0.1208
7 3 5 -0.7233 0.3873
7 3 6 -0.3606 0.0546
7 3 7 1.0726 -0.2413
7 3 8 0.3563 -0.1513
7 3 9 -1.0026 -0.1553
7 3 10 -0.8225 0.0022
7 3 11 0.4968 0.1342
7 3 12 1.6288 0.0855
7 3 13 -0.0624 0.0462
7 3 14 -1.5156 0.0709
7 3 15 0.1852 -0.0519
7 3 16 0.0549 -0.1365
7 3 17 -0.6271 0.0295
7 3 18 1.2130 -0.0872
7 3 19 0.7077 -0.0928
7 4 0 0.7096 0.5036
7 4 1 0.2955 0.9105
7 4 2 -1.0091 -0.0625
7 4 3 -0.9134 -0.2513
7 4 4 1.0529 -0.1405
7 4 5 1.3237 -0.3342
7 4 6 -0.1845 -0.0060
7 4 7 -1.1979 0.2084
7 4 8 -0.5802 0.0887
7 4 9 0.7460 0.1645
7 4 10 0.7515 0.0558
7 4 11 -0.3057 -0.1514
7 4 12 -1.2406 -0.1124
7 4 13 -0.1813 -0.0883
7 4 14 1.9112 -0.0479
7 4 15 0.5794 0.0974
7 4 16 -1.4132 0.1073
7 4 17 -0.3595 0.0870
7 4 18 0.0523 0.0740
7 5 0 -0.3537 -0.5784
7 5 1 -0.4654 -0.2814
7 5 2 0.9802 0.0366
7 5 3 1.2967 0.1662
7 5 4 -1.4124 0.1551
7 5 5 -1.5351 0.0744
7 5 6 0.1661 0.0318
7 5 7 0.8450 -0.1447
7 5 8 1.2771 -0.1087
7 5 9 -0.0298 -0.0447
7 5 10 -1.0529 -0.0223
7 5 11 0.1111 0.1476
7 5 12 0.0071 0.0751
7 5 13 -0.6793 0.0197
7 5 14 0.2490 0.0155
7 5 15 0.6154 -0.1212
7 5 16 -0.0763 -0.0638
7 5 17 -0.0242 -0.0645
7 6 0 1.0518 0.4640
7 6 1 0.2025 -0.3974
7 6 2 -1.0571 0.1029
7 6 3 -0.6730 0.0485
7 6 4 1.0426 -0.2059
7 6 5 0.9397 0.1492
7 6 6 -0.7728 -0.0579
7 6 7 -0.5292 -0.0007
7 6 8 0.1058 0.1316
7 6 9 -0.1220 -0.0763
7 6 10 0.3946 0.0275
7 6 11 -0.0495 -0.0530
7 6 12 -0.1433 -0.1130
7 6 13 0.9937 0.0838
7 6 14 -0.3304 0.0622
7 6 15 -1.3361 0.0142
7 7 0 -0.5768 -0.1171
7 7 1 0.3509 0.4041
7 7 2 0.0795 -0.0596
7 7 3 -0.6430 -0.1849
7 7 4 0.2326 0.0454
7 7 5 0.3128 -0.1192
7 7 6 0.5297 0.0611
7 7 7 0.0025 0.1303
7 7 8 -0.7144 -0.0822
7 7 9 0.0901 0.0463
7 7 10 -0.7094 0.0590
7 7 11 -0.1380 -0.1153
7 7 12 1.8931 -0.0608
7 7 13 -0.2593 0.0749
8 0 0 1.5547 -0.0636
8 0 2 -1.8282 0.0523
8 0 4 1.9345 -0.0448
8 0 6 -1.2149 0.0468
8 0 8 0.5351 -0.0243
8 0 10 -0.8805 -0.0240
8 0 12 1.8626 0.0243
8 0 14 -2.5812 0.0512
8 0 16 2.6901 -0.1025
8 0 18 -2.1755 0.0488
8 1 0 1.2402 0.0147
8 1 1 0.6717 0.5558
8 1 2 -0.9703 0.0269
8 1 3 -1.1946 -0.1885
8 1 4 0.4782 -0.0013
8 1 5 0.3130 -0.1412
8 1 6 -0.1353 -0.0141
8 1 7 0.8904 0.1286
8 1 8 -0.1489 -0.0230
8 1 9 -1.2524 0.0781
8 1 10 0.4093 0.0037
8 1 11 0.8709 -0.0914
8 1 12 -0.4102 0.0805
8 1 13 -0.5617 -0.0703
8 1 14 0.2240 -0.0846
8 1 15 0.6066 0.0379
8 1 16 -0.1780 -0.0064
8 1 17 -0.5388 0.1920
8 1 18 0.1911 0.0599
8 2 0 -0.8571 -0.0633
8 2 1 -0.4679 -1.3204
8 2 2 0.7773 -0.0100
8 2 3 1.0604 0.4219
8 2 4 -0.4008 -0.0193
8 2 5 -0.8377 0.3714
8 2 6 -0.2662 0.0563
8 2 7 0.0931 -0.2186
8 2 8 0.6743 0.0178
8 2 9 0.2196 -0.2140
8 2 10 -0.2498 -0.0918
8 2 11 0.1787 0.1092
8 2 12 -0.8953 0.0459
8 2 13 -0.3524 0.2052
8 2 14 2.0329 0.0250
8 2 15 -0.2638 -0.0898
8 2 16 -2.4555 -0.0117
8 2 17 0.7949 -0.2434
8 2 18 2.0166 -0.0313
8 3 0 -0.1969 0.0655
8 3 1 -0.0983 1.2823
8 3 2 0.2197 0.0268
8 3 3 -0.3239 -0.3779
8 3 4 -0.5172 -0.0231
8 3 5 1.2814 -0.4160
8 3 6 1.1194 -0.0773
8 3 7 -1.4347 0.2401
8 3 8 -1.4585 0.0905
8 3 9 0.7556 0.2127
8 3 10 1.2887 0.0464
8 3 11 -0.3739 -0.1590
8 3 12 -0.9584 -0.1187
8 3 13 0.3209 -0.0812
8 3 14 0.5237 -0.0124
8 3 15 0.1614 -0.0186
8 3 16 0.1860 0.1426
8 3 17 -0.7964 0.2547
8 4 0 0.8490 -0.1222
8 4 1 0.3903 -0.8618
8 4 2 -0.3084 0.0662
8 4 3 -0.3311 0.2683
8 4 4 -0.3864 0.0558
8 4 5 -0.8206 0.2394
8 4 6 0.1587 -0.0531
8 4 7 1.4115 -0.1414
8 4 8 0.4382 -0.0734
8 4 9 -0.4906 -0.1276
8 4 10 -0.6260 0.0767
8 4 11 -0.8189 0.0898
8 4 12 0.8563 0.0520
8 4 13 1.1211 0.0883
8 4 14 -1.5113 -0.0529
8 4 15 -0.5769 -0.0855
8 4 16 1.8281 -0.0802
8 5 0 -1.9423 0.0167
8 5 1 -0.2769 0.2759
8 5 2 0.9365 -0.0616
8 5 3 0.8891 -0.0667
8 5 4 0.6595 -0.0375
8 5 5 -1.1996 -0.1115
8 5 6 -0.8459 0.1080
8 5 7 0.8128 0.0755
8 5 8 0.0168 0.0201
8 5 9 -0.4029 0.0729
8 5 10 0.1570 -0.1591
8 5 11 0.6109 -0.1221
8 5 12 0.4021 0.0826
8 5 13 -0.7048 0.0096
8 5 14 -0.4538 0.0662
8 6 0 2.5395 0.0993
8 6 1 -0.3201 0.5254
8 6 2 -1.7375 -0.0460
8 6 3 0.1586 -0.1930
8 6 4 0.0195 -0.0069
8 6 5 0.7930 -0.1140
8 6 6 1.1916 -0.0396
8 6 7 -0.8412 0.0577
8 6 8 -1.1963 0.1019
8 6 9 -0.2602 0.0690
8 6 10 0.7321 -0.0741
8 6 11 1.0122 0.0197
8 6 12 -0.7960 0.0468
8 7 0 -2.0386 -0.2062
8 7 1 0.1453 -0.9027
8 7 2 1.9534 0.1458
8 7 3 -0.3571 0.2675
8 7 4 -1.2593 0.0450
8 7 5 0.4050 0.2880
8 7 6 -0.0977 -0.1084
8 7 7 -0.3805 -0.1197
8 7 8 0.8289 -0.0112
8 7 9 0.4338 -0.2850
8 8 0 2.0927 0.1665
8 8 1 0.0345 0.3716
8 8 2 -2.2905 -0.1559
8 8 3 0.3196 -0.0467
8 8 4 2.1742 0.0605
9 0 0 -0.1005 0.1233
9 0 2 0.2443 -0.0876
9 0 4 -0.5107 -0.0190
9 0 6 0.6895 0.0722
9 0 8 -0.8369 -0.0589
9 0 10 1.0970 0.0329
9 0 12 -1.4451 0.0122
9 0 14 1.6784 -0.0883
9 0 16 -1.5251 0.1299
9 1 0 -0.5086 -0.3630
9 1 1 -0.6881 -0.4415
9 1 2 0.5789 -0.0172
9 1 3 1.6791 0.1320
9 1 4 -0.4402 0.0823
9 1 5 -1.6672 0.1028
9 1 6 -0.1638 0.0592
9 1 7 0.6779 -0.0676
9 1 8 0.6379 -0.0273
9 1 9 0.4478 -0.0678
9 1 10 -0.4518 -0.0610
9 1 11 -0.8911 0.0387
9 1 12 0.0841 -0.0602
9 1 13 0.6605 0.1242
9 1 14 -0.1978 0.2134
9 1 15 -0.2290 -0.1819
9 1 16 0.5417 -0.1424
9 2 0 -0.7920 0.2987
9 2 1 0.2395 0.8908
9 2 2 0.4847 -0.0289
9 2 3 -0.7340 -0.3219
9 2 4 -0.3369 -0.0428
9 2 5 0.9256 -0.2099
9 2 6 1.0148 -0.0338
9 2 7 -0.4718 0.1501
9 2 8 -1.4229 0.0018
9 2 9 -0.1046 0.1280
9 2 10 0.4420 0.0572
9 2 11 0.1131 -0.0757
9 2 12 1.0614 0.0047
9 2 13 0.1637 -0.1624
9 2 14 -1.5029 -0.0480
9 2 15 -0.1404 0.1570
9 3 0 0.9458 0.0484
9 3 1 0.5312 -0.8526
9 3 2 -0.8665 0.0600
9 3 3 -0.8468 0.3271
9 3 4 0.8748 -0.0409
9 3 5 0.1639 0.2158
9 3 6 -1.2853 -0.0592
9 3 7 0.3092 -0.1918
9 3 8 1.7996 0.0844
9 3 9 -0.1279 -0.1265
9 3 10 -1.6441 -0.0273
9 3 11 0.0453 0.2199
9 3 12 0.5970 0.0220
9 3 13 -0.2876 -0.1083
9 3 14 0.4720 -0.0827
9 4 0 -0.8043 -0.3012
9 4 1 -0.4718 0.4463
9 4 2 0.6651 -0.0322
9 4 3 0.6504 -0.1813
9 4 4 -0.0552 0.0681
9 4 5 0.3126 -0.0729
9 4 6 -0.8001 0.1007
9 4 7 -1.0710 0.0943
9 4 8 0.9515 -0.0769
9 4 9 0.5587 0.0064
9 4 10 -0.2603 -0.0593
9 4 11 0.5059 -0.0661
9 4 12 -0.2234 -0.0090
9 4 13 -0.8181 0.0665
9 5 0 0.3984 0.5123
9 5 1 0.3014 0.0740
9 5 2 -0.3605 -0.0057
9 5 3 -1.0668 -0.0835
9 5 4 0.0990 -0.1279
9 5 5 1.6652 -0.0176
9 5 6 0.4105 -0.0444
9 5 7 -1.4272 0.0894
9 5 8 -0.7535 -0.0036
9 5 9 0.8217 -0.0500
9 5 10 0.6292 0.2221
9 5 11 -0.7682 0.0002
9 6 0 0.0734 -0.4244
9 6 1 0.2270 -0.4339
9 6 2 -0.2248 -0.1147
9 6 3 0.3237 0.1796
9 6 4 0.3211 0.2053
9 6 5 -1.9402 0.1751
9 6 6 -0.0905 0.1178
9 6 7 2.4200 -0.2593
9 6 8 0.0047 -0.2472
9 7 0 0.5141 0.2726
9 7 1 -0.4772 0.4742
9 7 2 -0.2958 0.0522
9 7 3 0.7578 -0.0776
10 0 0 -0.0446 -0.2166
10 0 2 0.3197 0.1116
10 0 4 -0.6749 0.0679
10 0 6 0.4273 -0.1568
10 0 8 0.3137 0.0930
10 0 10 -0.8603 0.0539
10 0 12 0.8537 -0.1721
10 1 0 -0.7101 0.5879
10 1 1 1.0971 0.2656
10 1 2 0.1069 -0.1495
10 1 3 -2.4894 -0.0691
10 1 4 0.8087 -0.0725
10 1 5 2.0770 -0.0543
10 1 6 -0.8311 0.0445
10 1 7 -0.3429 0.0158
10 1 8 0.2752 -0.0303
10 1 9 -1.1064 0.0161
10 1 10 -0.1465 -0.0243
10 1 11 1.2055 0.0381
10 1 12 0.4394 0.2221
10 2 0 1.7241 -0.3910
10 2 1 -0.9551 -0.3211
10 2 2 -1.0323 0.0964
10 2 3 1.8823 0.1453
10 2 4 -0.0508 0.0713
10 2 5 -1.0839 0.0509
10 2 6 0.2652 -0.0280
10 2 7 -0.2822 -0.1163
10 2 8 -0.1170 -0.0362
10 2 9 0.9767 0.0708
10 2 10 0.6645 0.1028
10 2 11 -1.0012 -0.0403
10 2 12 -1.4664 -0.1906
10 3 0 0.2325 -0.1283
10 3 1 -0.0064 0.2363
10 3 2 -0.1879 -0.0461
10 3 3 0.4550 -0.1058
10 3 4 0.0347 0.0552
10 3 5 -1.2912 -0.0206
10 3 6 0.2800 0.0664
10 3 7 1.5142 0.0471
10 3 8 -0.6493 -0.0883
10 3 9 -0.9973 0.0437
10 3 10 0.6619 -0.0457
10 4 0 -0.5775 0.4466
10 4 1 -0.4343 -0.0478
10 4 2 0.3026 0.0059
10 4 3 1.1020 -0.0209
10 4 4 -0.2066 -0.1525
10 4 5 -1.2639 0.0358
10 4 6 0.8776 -0.0473
10 4 7 0.8950 -0.0225
10 4 8 -1.3304 0.1526
10 4 9 -0.3087 -0.0160
10 5 0 -0.4340 -0.4972
10 5 1 0.8542 -0.1340
10 5 2 0.7349 0.0507
10 5 3 -2.1525 0.0804
10 5 4 -0.9376 0.1536
10 5 5 2.3291 0.0011
10 5 6 0.2530 -0.0732
11 0 0 0.2132 0.1576
11 0 2 0.0337 -0.0541
11 0 4 -0.4539 -0.1389
11 0 6 0.5030 0.2606
11 1 0 0.4120 -0.4793
11 1 1 -0.8407 -0.0238
11 1 2 -0.1843 0.1711
11 1 3 1.9168 -0.0556
11 1 4 -0.3862 0.1254
11 1 5 -1.5939 0.0408
11 1 6 0.9477 -0.2529
11 1 7 0.2344 0.0736
11 2 0 -1.8378 0.2568
11 2 1 1.4197 -0.1428
11 2 2 1.0518 -0.0782
11 2 3 -2.9112 0.1181
11 2 4 0.6381 -0.0977
11 2 5 2.0731 -0.0428
11 2 6 -1.8683 0.1450
11 3 0 0.5514 0.0331
11 3 1 -0.5851 0.2019
11 3 2 -0.1526 0.0568
11 3 3 0.7379 -0.0899
0 0 0 0.0 0.0
;
_shelx_fab_checksum              84224
_olex2_submission_special_instructions 'No special instructions were received'
loop_
_space_group_symop_operation_xyz
'x, y, z'
'-x, -y, z'
'-y, x, z+1/2'
'y, -x, z+1/2'
'-x, y, -z+1/2'
'x, -y, -z+1/2'
'y, x, -z'
'-y, -x, -z'
'-x, -y, -z'
'x, y, -z'
'y, -x, -z-1/2'
'-y, x, -z-1/2'
'x, -y, z-1/2'
'-x, y, z-1/2'
'-y, -x, z'
'y, x, z'
loop_
_atom_site_label
_atom_site_type_symbol
_atom_site_fract_x
_atom_site_fract_y
_atom_site_fract_z
_atom_site_U_iso_or_equiv
_atom_site_adp_type
_atom_site_occupancy
_atom_site_site_symmetry_order
_atom_site_calc_flag
_atom_site_refinement_flags_posn
_atom_site_refinement_flags_adp
_atom_site_refinement_flags_occupancy
_atom_site_disorder_assembly
_atom_site_disorder_group
Co1 Co 0.59430(8) 0.40570(8) 0.5000 0.0319(4) Uani 1 4 d S T P A .
Si1 Si 0.0000 0.0000 0.2500 0.0365(8) Uani 1 8 d S T P . .
O1 O 0.4749(3) 0.3146(3) 0.43631(16) 0.0572(10) Uani 1 1 d . . . . .
N1 N 0.7430(5) 0.2570(5) 0.5000 0.0301(15) Uani 1 4 d S TU P . .
C1 C 0.3618(5) 0.3618(5) 0.4200(3) 0.0360(14) Uani 1 2 d S T P . .
C2 C 0.2755(5) 0.2755(5) 0.3777(3) 0.0363(14) Uani 1 2 d S T P . .
C3 C 0.3173(7) 0.1497(6) 0.3582(3) 0.090(3) Uani 1 1 d . . . . .
H3 H 0.4050 0.1152 0.3711 0.108 Uiso 1 1 calc R . . . .
C4 C 0.2375(7) 0.0704(6) 0.3205(3) 0.095(3) Uani 1 1 d . . . . .
H4 H 0.2716 -0.0176 0.3078 0.114 Uiso 1 1 calc R . . . .
C5 C 0.1120(4) 0.1120(4) 0.3004(3) 0.0367(14) Uani 1 2 d S T P . .
C6 C 0.7096(17) 0.1211(16) 0.5000 0.074(12) Uani 0.49(3) 2 d S TU P A 1
H6 H 0.6144 0.0952 0.5000 0.089 Uiso 0.49(3) 2 calc RS T P A 1
C6A C 0.752(3) 0.164(3) 0.4581(11) 0.051(8) Uani 0.255(17) 1 d . U . A 2
H6A H 0.6839 0.1651 0.4268 0.062 Uiso 0.255(17) 1 calc R . . A 2
C7 C 0.8062(16) 0.0223(16) 0.5000 0.075(12) Uani 0.49(3) 2 d S TU P A 1
H7 H 0.7783 -0.0723 0.5000 0.090 Uiso 0.49(3) 2 calc RS T P A 1
C7A C 0.855(3) 0.061(3) 0.4552(11) 0.055(10) Uani 0.255(17) 1 d . U . A 2
H7A H 0.8590 -0.0020 0.4218 0.066 Uiso 0.255(17) 1 calc R . . A 2
C8 C 0.9461(6) 0.0539(6) 0.5000 0.0288(16) Uani 1 4 d S TU P . .
loop_
_atom_site_aniso_label
_atom_site_aniso_U_11
_atom_site_aniso_U_22
_atom_site_aniso_U_33
_atom_site_aniso_U_23
_atom_site_aniso_U_13
_atom_site_aniso_U_12
Co1 0.0321(5) 0.0321(5) 0.0314(6) 0.000 0.000 0.0111(5)
Si1 0.0321(11) 0.0321(11) 0.045(2) 0.000 0.000 0.000
O1 0.046(2) 0.051(2) 0.075(2) -0.0244(18) -0.0301(18) 0.0249(17)
N1 0.033(2) 0.033(2) 0.025(3) 0.000 0.000 0.008(3)
C1 0.038(2) 0.038(2) 0.031(3) -0.0006(19) -0.0006(19) 0.004(3)
C2 0.037(2) 0.037(2) 0.035(3) 0.002(2) 0.002(2) 0.007(3)
C3 0.076(4) 0.055(3) 0.137(6) -0.050(4) -0.068(4) 0.041(3)
C4 0.087(5) 0.050(3) 0.148(7) -0.049(4) -0.068(5) 0.037(3)
C5 0.035(2) 0.035(2) 0.041(3) 0.0009(19) 0.0009(19) -0.003(3)
C6 0.031(6) 0.033(5) 0.16(4) 0.000 0.000 0.002(4)
C6A 0.041(11) 0.065(11) 0.049(9) -0.029(9) -0.024(8) 0.029(10)
C7 0.032(5) 0.029(6) 0.16(4) 0.000 0.000 0.001(4)
C7A 0.054(12) 0.068(14) 0.044(9) -0.036(9) -0.023(9) 0.038(12)
C8 0.030(2) 0.030(2) 0.026(4) 0.000 0.000 0.006(3)
loop_
_atom_type_symbol
_atom_type_description
_atom_type_scat_dispersion_real
_atom_type_scat_dispersion_imag
_atom_type_scat_source
C C 0.0033 0.0016 'International Tables Vol C Tables 4.2.6.8 and 6.1.1.4'
H H 0.0000 0.0000 'International Tables Vol C Tables 4.2.6.8 and 6.1.1.4'
Co Co 0.3494 0.9721 'International Tables Vol C Tables 4.2.6.8 and 6.1.1.4'
N N 0.0061 0.0033 'International Tables Vol C Tables 4.2.6.8 and 6.1.1.4'
O O 0.0106 0.0060 'International Tables Vol C Tables 4.2.6.8 and 6.1.1.4'
Si Si 0.0817 0.0704 'International Tables Vol C Tables 4.2.6.8 and 6.1.1.4'
loop_
_geom_angle_atom_site_label_1
_geom_angle_atom_site_label_2
_geom_angle_atom_site_label_3
_geom_angle
_geom_angle_site_symmetry_1
_geom_angle_site_symmetry_3
O1 Co1 Co1 84.51(9) . 9_666
O1 Co1 Co1 84.51(9) 15_665 9_666
O1 Co1 Co1 84.51(9) 8_666 9_666
O1 Co1 Co1 84.51(9) 10_556 9_666
O1 Co1 O1 91.0(2) 8_666 10_556
O1 Co1 O1 169.02(17) 15_665 10_556
O1 Co1 O1 87.9(2) . 10_556
O1 Co1 O1 87.9(2) 8_666 15_665
O1 Co1 O1 169.02(17) . 8_666
O1 Co1 O1 91.0(2) . 15_665
O1 Co1 N1 95.49(9) . .
O1 Co1 N1 95.49(9) 15_665 .
O1 Co1 N1 95.49(9) 10_556 .
O1 Co1 N1 95.49(9) 8_666 .
N1 Co1 Co1 180.0 . 9_666
C5 Si1 C5 108.2(4) 2 .
C5 Si1 C5 110.12(19) 12_556 .
C5 Si1 C5 110.12(19) 12_556 2
C5 Si1 C5 110.12(19) 11_556 2
C5 Si1 C5 110.12(19) 11_556 .
C5 Si1 C5 108.2(4) 12_556 11_556
C1 O1 Co1 123.0(3) . .
C6 N1 Co1 121.2(7) 15_665 .
C6 N1 Co1 121.2(7) . .
C6 N1 C6 117.7(15) 15_665 .
C6A N1 Co1 122.7(8) 8_666 .
C6A N1 Co1 122.7(8) . .
C6A N1 Co1 122.7(8) 10_556 .
C6A N1 Co1 122.7(8) 15_665 .
C6A N1 C6A 91(3) 8_666 15_665
C6A N1 C6A 91(3) . 10_556
C6A N1 C6A 114.6(16) 8_666 .
C6A N1 C6A 114.6(16) 15_665 10_556
O1 C1 O1 124.6(6) 16 .
O1 C1 C2 117.7(3) . .
O1 C1 C2 117.7(3) 16 .
C3 C2 C1 122.0(3) 16 .
C3 C2 C1 122.0(3) . .
C3 C2 C3 116.0(7) 16 .
C2 C3 C4 121.9(5) . .
C5 C4 C3 122.5(5) . .
C4 C5 Si1 122.3(3) 16 .
C4 C5 Si1 122.3(3) . .
C4 C5 C4 115.3(6) . 16
C7 C6 N1 121.8(14) . .
N1 C6A C7A 124.9(15) . .
C6 C7 C8 121.6(14) . .
C8 C7A C6A 95(2) . 15_665
C8 C7A C6A 118.1(14) . .
C7 C8 C7 115.5(14) . 15_665
C7 C8 C8 122.3(7) . 9_756
C7 C8 C8 122.3(7) 15_665 9_756
C7A C8 C7A 119.1(16) 10_556 15_665
C7A C8 C7A 119.1(16) 8_666 .
C7A C8 C7A 96(3) 8_666 15_665
C7A C8 C7A 96(3) . 10_556
C7A C8 C8 120.4(8) 10_556 9_756
C7A C8 C8 120.4(8) 15_665 9_756
C7A C8 C8 120.4(8) 8_666 9_756
C7A C8 C8 120.4(8) . 9_756
loop_
_geom_bond_atom_site_label_1
_geom_bond_atom_site_label_2
_geom_bond_distance
_geom_bond_site_symmetry_2
Co1 Co1 2.568(2) 9_666
Co1 O1 2.009(3) .
Co1 O1 2.009(3) 8_666
Co1 O1 2.009(3) 10_556
Co1 O1 2.009(3) 15_665
Co1 N1 2.026(7) .
Si1 C5 1.883(6) 11_556
Si1 C5 1.883(6) .
Si1 C5 1.883(6) 2
Si1 C5 1.883(6) 12_556
O1 C1 1.233(4) .
N1 C6 1.347(16) 15_665
N1 C6 1.347(16) .
N1 C6A 1.284(17) 15_665
N1 C6A 1.284(17) .
N1 C6A 1.284(17) 10_556
N1 C6A 1.284(17) 8_666
C1 O1 1.233(4) 16
C1 C2 1.496(9) .
C2 C3 1.347(6) .
C2 C3 1.347(6) 16
C3 C4 1.363(8) .
C4 C5 1.346(6) .
C5 C4 1.347(6) 16
C6 C7 1.33(2) .
C6A C7A 1.41(2) .
C7 C8 1.381(16) .
C7A C8 1.317(17) .
C8 C7 1.381(16) 15_665
C8 C7A 1.317(18) 8_666
C8 C7A 1.317(17) 15_665
C8 C7A 1.317(17) 10_556
C8 C8 1.468(16) 9_756
loop_
_smtbx_masks_void_nr
_smtbx_masks_void_average_x
_smtbx_masks_void_average_y
_smtbx_masks_void_average_z
_smtbx_masks_void_volume
_smtbx_masks_void_count_electrons
_smtbx_masks_void_content
1 -0.156 -0.277 0.250 229.2 31.4 '0.5(C3 H7 N O) (H2 O)'
2 -0.912 -0.915 0.750 229.2 31.4 '0.5(C3 H7 N O) (H2 O)'
