#------------------------------------------------------------------------------
#$Date: 2019-11-07 23:14:47 +0200 (Thu, 07 Nov 2019) $
#$Revision: 223967 $
#$URL: file:///home/coder/svn-repositories/cod/cif/7/04/87/7048728.cif $
#------------------------------------------------------------------------------
#
# This file is available in the Crystallography Open Database (COD),
# http://www.crystallography.net/
#
# All data on this site have been placed in the public domain by the
# contributors.
#
data_7048728
loop_
_publ_author_name
'Wang, Yutong'
'Wang, Xia'
'Zhang, Kailiang'
'Wang, Xiaokang'
'Xin, Xuelian'
'Fan, Weidong'
'Dai, Fangna'
'Han, Yinfeng'
'Sun, Daofeng'
_publ_section_title
;
 Solvent-induced terbium metal-organic frameworks for highly selective
 detection of manganese(ii) ions.
;
_journal_issue                   8
_journal_name_full
'Dalton transactions (Cambridge, England : 2003)'
_journal_page_first              2569
_journal_page_last               2573
_journal_paper_doi               10.1039/c9dt00006b
_journal_volume                  48
_journal_year                    2019
_chemical_formula_moiety         'C33 H27 N O17 S6 Tb2, H2 O'
_chemical_formula_sum            'C33 H29 N O18 S6 Tb2'
_chemical_formula_weight         1237.77
_space_group_crystal_system      triclinic
_space_group_IT_number           2
_space_group_name_Hall           '-P 1'
_space_group_name_H-M_alt        'P -1'
_symmetry_space_group_name_Hall  '-P 1'
_symmetry_space_group_name_H-M   'P -1'
_atom_sites_solution_hydrogens   mixed
_atom_sites_solution_primary     iterative
_audit_creation_date             2019-01-21
_audit_creation_method
;
Olex2 1.2
(compiled 2018.05.29 svn.r3508 for OlexSys, GUI svn.r5506)
;
_audit_update_record
;
2019-01-21 deposited with the CCDC.
2019-01-24 downloaded from the CCDC.
;
_cell_angle_alpha                69.310(4)
_cell_angle_beta                 83.274(4)
_cell_angle_gamma                83.634(4)
_cell_formula_units_Z            2
_cell_length_a                   9.9253(5)
_cell_length_b                   13.7830(6)
_cell_length_c                   16.2197(8)
_cell_measurement_reflns_used    10259
_cell_measurement_temperature    150.03(10)
_cell_measurement_theta_max      70.4400
_cell_measurement_theta_min      4.4830
_cell_volume                     2055.70(18)
_computing_cell_refinement       'CrysAlisPro 1.171.39.46 (Rigaku OD, 2018)'
_computing_data_collection       'CrysAlisPro 1.171.39.46 (Rigaku OD, 2018)'
_computing_data_reduction        'CrysAlisPro 1.171.39.46 (Rigaku OD, 2018)'
_computing_molecular_graphics    'Olex2 (Dolomanov et al., 2009)'
_computing_publication_material  'Olex2 (Dolomanov et al., 2009)'
_computing_structure_refinement  'ShelXL (Sheldrick, 2015)'
_computing_structure_solution
;
Superflip (Palatinus & Chapuis, 2007;Palatinus & van der Lee, 2008;
Palatinus et al., 2012)
;
_diffrn_ambient_environment      N~2~
_diffrn_ambient_temperature      150.03(10)
_diffrn_detector                 'CCD plate'
_diffrn_detector_area_resol_mean 16.0450
_diffrn_detector_type            Eos
_diffrn_measured_fraction_theta_full 0.850
_diffrn_measured_fraction_theta_max 0.877
_diffrn_measurement_details
;
List of Runs (angles in degrees, time in seconds):

  # Type    Start    End  Width  t~exp~   \w     \q     \k     \f   Frames
#--------------------------------------------------------------------------
  1  \w    -69.00  22.00   1.00    1.13    --    0.00 -57.00 -90.00   91
  2  \w    -42.00  24.00   1.00    1.13    --    0.00  96.00 114.00   66
  3  \w    -22.00  69.00   1.00    1.13    --    0.00  57.00  60.00   91
  4  \w     22.00 125.00   1.00    4.50    --   54.00  77.00 -30.00  103
  5  \w     22.00 125.00   1.00    4.50    --   54.00  77.00   0.00  103
  6  \w     32.00 123.00   1.00    4.50    --   54.00  57.00  60.00   91
  7  \w    -15.00  76.00   1.00    4.50    --   54.00 -57.00 150.00   91
  8  \w     22.00 125.00   1.00    4.50    --   54.00  77.00 -90.00  103
  9  \w     23.00 112.00   1.00    4.50    --   54.00-125.00 120.00   89
 10  \w     32.00 123.00   1.00    4.50    --   54.00  57.00-180.00   91
 11  \w      1.00  98.00   1.00    4.50    --   54.00 -99.00 150.00   97
 12  \w    100.00 178.00   1.00    4.50    --  108.00 111.00 -30.00   78
 13  \w     35.00 135.00   1.00    4.50    --  108.00 -38.00-150.00  100
 14  \w     85.00 178.00   1.00    4.50    --  108.00  50.00  30.00   93
 15  \w     84.00 175.00   1.00    4.50    --  108.00  63.00-150.00   91
 16  \w    100.00 178.00   1.00    4.50    --  108.00 111.00  60.00   78
 17  \w     57.00 151.00   1.00    4.50    --  108.00 178.00  90.00   94
 18  \w     35.00 112.00   1.00    4.50    --  108.00-111.00-180.00   77
 19  \w     37.00 140.00   1.00    4.50    --  108.00 -77.00  60.00  103
 20  \w     35.00 112.00   1.00    4.50    --  108.00-111.00 -90.00   77
 21  \w     37.00 131.00   1.00    4.50    --  108.00 -50.00 -30.00   94
 22  \w     34.00 178.00   1.00    4.50    --  108.00   0.00-180.00  144
 23  \w     35.00 112.00   1.00    4.50    --  108.00-111.00 -60.00   77
 24  \w     35.00 135.00   1.00    4.50    --  108.00 -38.00  60.00  100
 25  \w     35.00 112.00   1.00    4.50    --  108.00-111.00  60.00   77
 26  \w    -27.00  73.00   1.00    1.13    --    0.00  38.00 -30.00  100
 27  \w    -32.00  71.00   1.00    1.13    --    0.00  77.00 -30.00  103
 28  \w    -74.00  49.00   1.00    1.13    --    0.00 -19.00  30.00  123
 29  \w     22.00 125.00   1.00    4.50    --   54.00  77.00-150.00  103
 30  \w    -15.00  76.00   1.00    4.50    --   54.00 -57.00 -90.00   91
;
_diffrn_measurement_device       'four-circle diffractometer'
_diffrn_measurement_device_type  'SuperNova, Dual, Cu at home/near, Eos'
_diffrn_measurement_method       '\w scans'
_diffrn_orient_matrix_type
'CrysAlisPro convention (1999,Acta A55,543-557)'
_diffrn_orient_matrix_UB_11      0.0530937000
_diffrn_orient_matrix_UB_12      -0.1132267000
_diffrn_orient_matrix_UB_13      0.0478758000
_diffrn_orient_matrix_UB_21      -0.0960967000
_diffrn_orient_matrix_UB_22      -0.0024237000
_diffrn_orient_matrix_UB_23      0.0823832000
_diffrn_orient_matrix_UB_31      -0.1118513000
_diffrn_orient_matrix_UB_32      -0.0391064000
_diffrn_orient_matrix_UB_33      -0.0360840000
_diffrn_radiation_monochromator  mirror
_diffrn_radiation_probe          x-ray
_diffrn_radiation_type           CuK\a
_diffrn_radiation_wavelength     1.54184
_diffrn_reflns_av_R_equivalents  0.0677
_diffrn_reflns_av_unetI/netI     0.0695
_diffrn_reflns_Laue_measured_fraction_full 0.850
_diffrn_reflns_Laue_measured_fraction_max 0.877
_diffrn_reflns_limit_h_max       9
_diffrn_reflns_limit_h_min       -12
_diffrn_reflns_limit_k_max       16
_diffrn_reflns_limit_k_min       -16
_diffrn_reflns_limit_l_max       17
_diffrn_reflns_limit_l_min       -19
_diffrn_reflns_number            19458
_diffrn_reflns_point_group_measured_fraction_full 0.850
_diffrn_reflns_point_group_measured_fraction_max 0.877
_diffrn_reflns_theta_full        25.500
_diffrn_reflns_theta_max         70.764
_diffrn_reflns_theta_min         3.665
_diffrn_source                   'micro-focus sealed X-ray tube'
_diffrn_source_type              'SuperNova (Cu) X-ray Source'
_exptl_absorpt_coefficient_mu    20.222
_exptl_absorpt_correction_T_max  1.00000
_exptl_absorpt_correction_T_min  0.41793
_exptl_absorpt_correction_type   multi-scan
_exptl_absorpt_process_details
;
CrysAlisPro 1.171.39.46 (Rigaku Oxford Diffraction, 2018)
Empirical absorption correction using spherical harmonics,
 implemented in SCALE3 ABSPACK scaling algorithm.
;
_exptl_crystal_colour            yellow
_exptl_crystal_density_diffrn    2.000
_exptl_crystal_description       block
_exptl_crystal_F_000             1208
_refine_diff_density_max         2.387
_refine_diff_density_min         -1.322
_refine_diff_density_rms         0.186
_refine_ls_extinction_method     none
_refine_ls_goodness_of_fit_ref   1.027
_refine_ls_hydrogen_treatment    constr
_refine_ls_matrix_type           full
_refine_ls_number_parameters     545
_refine_ls_number_reflns         6928
_refine_ls_number_restraints     0
_refine_ls_restrained_S_all      1.027
_refine_ls_R_factor_all          0.0724
_refine_ls_R_factor_gt           0.0622
_refine_ls_shift/su_max          0.001
_refine_ls_shift/su_mean         0.000
_refine_ls_structure_factor_coef Fsqd
_refine_ls_weighting_details
'w=1/[\s^2^(Fo^2^)+(0.0743P)^2^+16.1214P] where P=(Fo^2^+2Fc^2^)/3'
_refine_ls_weighting_scheme      calc
_refine_ls_wR_factor_gt          0.1462
_refine_ls_wR_factor_ref         0.1546
_reflns_Friedel_coverage         0.000
_reflns_number_gt                5921
_reflns_number_total             6928
_reflns_threshold_expression     'I > 2\s(I)'
_cod_data_source_file            c9dt00006b2.cif
_cod_data_source_block           UPC-36
_cod_depositor_comments
'Adding full bibliography for 7048728--7048729.cif.'
_cod_database_code               7048728
_shelx_shelxl_version_number     2014/7
_chemical_oxdiff_formula         'C H O N S Tb'
_shelx_space_group_comment
;
The symmetry employed for this shelxl refinement is uniquely defined
by the following loop, which should always be used as a source of
symmetry information in preference to the above space-group names.
They are only intended as comments.
;
_reflns_odcompleteness_completeness 99.97
_reflns_odcompleteness_iscentric 1
_reflns_odcompleteness_theta     66.97
_olex2_refinement_description
;
1. Fixed Uiso
 At 1.2 times of:
  All C(H) groups
 At 1.5 times of:
  All C(H,H,H) groups, All O(H,H) groups
2.a Free rotating group:
 O17(H17A,H17B)
2.b Rotating group:
 O6(H6A,H6B), O6AA(H6AA,H6AB), O10(H10A,H10B), O9(H9A,H9B)
2.c Aromatic/amide H refined with riding coordinates:
 C3(H3), C10(H10), C12(H12), C22(H22), C25(H25), C26(H26), C33(H33), C41(H41),
 C42(H42), C43(H43), C45(H45), C46(H46), C9(H9)
2.d Idealised Me refined as rotating group:
 C14(H14A,H14B,H14C), C21(H21A,H21B,H21C)
;
_shelx_res_file
;
    wyt-s-2.res created by SHELXL-2014/7

TITL CF solution in P-1
CELL 1.54184 9.925336 13.782992 16.2197 69.3097 83.274 83.6343
ZERR 2 0.000465 0.000606 0.000807 0.0043 0.004 0.0038
LATT 1
SFAC C H N O S Tb
UNIT 66 58 2 36 12 4

L.S. 20
PLAN  25
fmap 2
acta 51
OMIT -2 2 4
OMIT 1 2 3
OMIT -3 11 1
OMIT -1 10 2
OMIT -3 13 1
OMIT -5 11 0
OMIT -2 5 4
OMIT -2 7 4
OMIT -2 8 4
OMIT 4 11 9
OMIT 2 -2 1
OMIT -3 10 1
OMIT -4 5 3
OMIT -5 1 12
OMIT 1 -3 3
OMIT 2 7 6
OMIT 6 9 10
OMIT -1 9 2
OMIT 6 10 10
OMIT 6 12 10
OMIT 8 9 11
OMIT 7 2 8
OMIT 4 10 9
OMIT 7 0 8
OMIT 7 -2 8
OMIT -1 -1 14
OMIT 0 4 5
OMIT 0 8 5
OMIT -3 12 1
OMIT -7 -1 11
OMIT -6 4 9
OMIT 3 1 4
OMIT -3 8 1
OMIT 3 14 11
OMIT -4 2 3
OMIT 7 -6 1
OMIT -6 7 9
OMIT -1 13 2
OMIT 4 5 9
OMIT 0 1 5
OMIT 4 -4 2
OMIT -3 14 1
OMIT 1 7 3
OMIT -1 5 2
OMIT -1 -6 14
OMIT -4 10 3
OMIT -5 6 0
OMIT -1 0 14
OMIT 4 8 9
OMIT 3 -2 4
OMIT 1 -9 3
OMIT -1 7 2
OMIT 5 1 7
OMIT 2 1 6
OMIT -6 6 2
OMIT 6 7 10
OMIT -2 4 4
OMIT 0 6 5
OMIT 5 -2 7
OMIT 2 -1 1
OMIT 0 3 0
OMIT -1 -5 2
OMIT 0 2 0
OMIT 4 9 9
OMIT -5 -2 12
OMIT 0 7 5
OMIT 7 -4 1
OMIT 7 0 13
OMIT 4 11 14
OMIT -3 8 6
OMIT -5 12 0
OMIT -5 0 12
OMIT 6 6 10
OMIT 4 12 9
OMIT 2 6 8
OMIT -5 9 0
OMIT 0 1 0
OMIT -1 12 2
OMIT 0 3 5
OMIT 2 1 1
OMIT 2 10 1
OMIT 4 -1 2
OMIT -3 -2 13
OMIT -2 4 9
OMIT 3 -4 4
OMIT 8 6 6
OMIT -4 3 3
OMIT 2 7 1
OMIT -2 -4 4
OMIT -6 3 2
OMIT -5 8 0
OMIT -4 11 15
OMIT 5 -1 7
OMIT -3 -2 1
OMIT 9 -1 4
OMIT -2 9 16
OMIT 4 -7 2
OMIT 5 -1 5
OMIT -1 8 2
OMIT 4 2 2
OMIT 9 1 9
OMIT -7 -1 9
OMIT 2 8 1
OMIT -1 15 2
OMIT -7 1 11
OMIT 4 13 9
OMIT 8 3 11
OMIT 8 11 11
OMIT -5 3 0
OMIT 0 7 17
OMIT -3 -5 13
OMIT 6 11 10
OMIT -3 -6 13
OMIT 8 8 11
OMIT -4 8 15
OMIT -8 3 8
OMIT 1 -4 3
OMIT 1 10 3
OMIT -4 1 3
OMIT 6 12 15
OMIT 1 2 17
OMIT 8 3 6
OMIT -5 5 0
OMIT 3 -7 4
OMIT 2 4 1
OMIT -1 -2 2
OMIT 4 5 2
OMIT 5 1 12
OMIT -3 11 6
OMIT 0 11 5
OMIT -3 5 1
OMIT -3 1 13
OMIT -7 -4 11
OMIT 1 -6 3
OMIT -4 10 15
OMIT 0 10 5
OMIT 1 9 3
OMIT -7 -2 9
OMIT 6 9 15
OMIT 1 -1 3
OMIT 1 4 15
OMIT -1 5 16
OMIT 5 0 5
OMIT 6 -5 3
OMIT 1 12 3
OMIT -9 -8 3
OMIT 9 -1 9
OMIT -3 15 1
OMIT 4 5 4
OMIT 6 10 15
OMIT 2 -13 1
OMIT 11 3 10
OMIT 2 -3 1
OMIT 2 -4 1
OMIT 0 9 5
OMIT 2 10 6
OMIT -8 2 8
OMIT -7 -6 4
OMIT -4 4 3
OMIT -4 8 10
OMIT -7 2 11
OMIT -8 -3 1
OMIT -4 7 15
OMIT -2 9 4
OMIT -5 4 12
OMIT 2 5 1
OMIT 6 9 5
OMIT -1 2 16
OMIT -7 -3 4
OMIT 9 2 14
OMIT 7 -3 8
OMIT -8 5 8
OMIT 7 1 8
OMIT 2 13 8
OMIT -4 5 15
OMIT 3 3 18
OMIT 10 5 12
OMIT -1 15 7
OMIT -3 -4 1
OMIT -6 1 9
OMIT -3 -7 13
OMIT 0 7 10
OMIT 3 -10 4
OMIT -8 -6 1
OMIT -3 -4 13
OMIT -6 9 14
OMIT 7 -1 8
OMIT 4 7 9
OMIT 8 0 6
OMIT -4 13 3
OMIT -1 3 14
OMIT 2 2 13
OMIT 4 5 14
OMIT -2 -7 11
OMIT -1 -9 9
OMIT 2 13 6
OMIT 4 13 14
OMIT 2 -2 6
OMIT 6 -2 3
OMIT -6 8 2
OMIT 7 1 13
OMIT 8 6 11
OMIT 7 -7 1
OMIT 7 -4 6
OMIT 3 -3 4
OMIT 4 8 2
OMIT -7 0 9
OMIT -3 1 1
OMIT 4 14 14
OMIT -10 3 7
OMIT -7 -10 4
OMIT 5 4 0
OMIT -6 -2 7
OMIT 6 7 5
OMIT -3 0 1
OMIT -3 3 15
OMIT 5 12 7
OMIT -1 1 7
OMIT 4 -11 2
OMIT 2 7 8
OMIT 4 8 14
OMIT -5 -3 12
OMIT -1 1 2
OMIT 2 14 13
OMIT -6 1 7
OMIT 11 1 5
OMIT -5 13 0
OMIT 1 -8 10
OMIT 1 -1 8
OMIT 6 15 10
OMIT 4 -5 2
OMIT 9 -4 9
OMIT -3 -3 13
OMIT 7 -3 1
OMIT -2 12 16
OMIT -3 5 6
OMIT -4 -11 3
OMIT -4 9 15
OMIT 2 8 6
OMIT 4 2 9
OMIT -5 10 0
OMIT -7 -2 11
OMIT 1 2 8
OMIT 3 11 11
OMIT 4 -10 2
OMIT 5 -2 12
OMIT 3 -11 4
OMIT -1 -10 2
OMIT 2 10 8
OMIT -5 -10 5
OMIT -8 -3 6
OMIT -3 0 13
OMIT 6 2 5
OMIT 6 0 3
OMIT 0 11 0
OMIT -9 -9 3
OMIT 5 0 7
OMIT 5 -7 5
OMIT 10 8 11
OMIT 4 6 9
OMIT 2 7 13
OMIT -3 -1 1
OMIT -8 9 1
OMIT 8 10 11
OMIT -10 2 7
OMIT -5 -4 7
OMIT -8 -9 1
OMIT 2 4 6
OMIT -7 -9 4
OMIT 2 11 13
OMIT -2 10 4
OMIT 4 -2 2
OMIT 10 3 0
OMIT -5 5 5
OMIT -4 -8 3
OMIT 9 -4 4
OMIT 1 1 10
OMIT 3 4 6
OMIT -2 6 16
OMIT -1 6 14
OMIT 5 11 7
OMIT -1 12 7
OMIT -1 16 2
OMIT 2 -10 1
OMIT -1 4 9
OMIT -1 10 7
OMIT -1 2 2
OMIT -3 3 13
OMIT -4 -1 5
OMIT -9 -1 8
OMIT 11 0 5
OMIT 1 2 10
OMIT 3 -9 4
OMIT -1 -3 14
OMIT 2 7 18
OMIT -3 -3 8
OMIT 4 10 14
OMIT 6 14 10
OMIT 6 4 10
OMIT 0 7 0
OMIT -1 -8 2
OMIT 1 1 15
OMIT 3 2 11
OMIT 3 4 11
OMIT 6 1 5
OMIT -8 3 11
OMIT 8 1 6
OMIT -9 -5 3
OMIT 3 -8 4
OMIT -1 1 14
OMIT 0 10 17
OMIT -9 2 8
OMIT 5 2 0
OMIT 1 0 15
OMIT -3 1 15
OMIT 3 14 6
OMIT 0 6 0
OMIT 1 -12 3
OMIT -7 -2 4
OMIT -5 -2 10
OMIT 1 4 3
OMIT -1 -5 14
OMIT 9 8 0
OMIT 1 1 3
OMIT -7 0 11
OMIT -1 4 2
OMIT -2 12 4
OMIT 8 4 6
OMIT 0 9 12
OMIT 2 -8 1
OMIT 0 -7 12
OMIT 5 -9 5
OMIT 4 5 12
OMIT -7 -3 11
OMIT 9 -5 9
OMIT 5 3 12
OMIT 0 12 12
OMIT -3 -4 8
OMIT 4 4 2
OMIT -5 -1 5
OMIT -8 1 1
OMIT 4 8 4
OMIT -5 -2 7
OMIT 5 2 7
OMIT 1 8 3
OMIT 6 1 3
OMIT 7 -10 1
OMIT -1 -1 7
OMIT 8 7 6
OMIT 1 6 3
OMIT 5 -10 5
OMIT 6 2 3
OMIT 2 -6 1
OMIT -5 -5 12
OMIT -6 0 2
OMIT 5 15 7
OMIT -4 4 10
OMIT 2 4 8
OMIT 0 7 14
OMIT -6 1 2
OMIT -1 -4 14
OMIT 1 -2 3
OMIT 7 -9 1
OMIT 2 13 1
OMIT 6 7 15
OMIT -5 -6 7
OMIT -3 3 18
OMIT 3 -1 16
OMIT 2 8 8
OMIT 5 9 12
OMIT -5 -7 7
OMIT -6 5 14
OMIT -6 8 14
OMIT 8 1 4
OMIT -5 8 5
OMIT -2 1 4
OMIT -1 0 2
OMIT 2 0 1
OMIT -3 -5 1
OMIT 0 4 0
OMIT -2 3 4
OMIT 3 -5 4
OMIT 0 5 5
OMIT 3 0 4
OMIT 5 -4 7
OMIT -2 -1 4
OMIT -10 -1 5
OMIT -2 5 11
OMIT -2 10 9
OMIT 10 -1 2
OMIT -3 2 18
OMIT 10 -2 2
OMIT 4 7 2
OMIT -2 8 16
OMIT -4 -9 10
OMIT 9 -6 4
OMIT 0 8 0
OMIT 0 4 17
OMIT 0 5 0
OMIT -6 7 14
OMIT 6 3 5
OMIT 2 -1 6
OMIT 0 6 10
OMIT -5 1 15
OMIT -5 7 0
OMIT 5 -3 5
OMIT 8 2 4
OMIT 10 0 7
OMIT 5 4 12
OMIT 1 5 17
OMIT -1 3 16
OMIT -6 4 14
OMIT -5 -8 10
OMIT 10 4 7
OMIT -3 7 1
OMIT -5 3 12
OMIT 4 1 2
OMIT 6 8 10
OMIT 5 -8 5
OMIT 1 4 17
OMIT 5 13 12
OMIT 1 -1 15
OMIT 5 13 7
OMIT -3 2 16
OMIT -2 4 18
OMIT -11 -5 3
OMIT -3 2 13
OMIT 9 3 14
OMIT -5 -3 7
OMIT 3 9 11
OMIT -5 -8 7
OMIT -5 -5 7
OMIT -5 13 5
OMIT 2 2 1
OMIT -1 14 2
OMIT -10 1 5
OMIT -4 5 8
OMIT -1 -3 9
OMIT -4 -6 3
OMIT -8 4 8
OMIT 7 10 13
OMIT 10 -2 5
OMIT 9 -3 4
OMIT 9 -1 7
OMIT 9 -2 4
OMIT 5 -6 5
OMIT 5 15 12
OMIT -7 -7 4
OMIT 10 1 7
OMIT -1 11 2
OMIT -6 -9 7
OMIT 9 -7 4
OMIT -1 -1 9
OMIT 1 -5 3
OMIT -4 5 10
OMIT -3 5 13
OMIT 6 -3 3
OMIT -8 3 6
OMIT -10 1 7
OMIT -8 -1 8
OMIT -5 -12 5
OMIT 6 11 15
OMIT 4 -8 2
OMIT -2 -2 11
OMIT -6 11 2
OMIT -1 -13 2
OMIT 2 5 8
OMIT 11 -2 5
OMIT 6 -6 10
OMIT 5 -3 7
OMIT -5 6 5
OMIT -7 12 4
OMIT 7 -5 8
OMIT 3 2 18
OMIT -8 -8 2
OMIT 3 4 9
OMIT 3 0 18
OMIT -8 6 11
OMIT 6 12 5
OMIT -5 0 15
OMIT 7 -1 6
OMIT 0 0 7
OMIT 1 -2 10
OMIT 8 -1 4
OMIT -7 -7 9
OMIT 8 8 6
OMIT -3 -1 13
OMIT -4 0 3
OMIT 10 7 7
OMIT 1 0 17
OMIT 3 12 6
OMIT 1 9 10
OMIT 9 4 9
OMIT 2 -1 13
OMIT 10 5 7
OMIT -8 0 11
OMIT -9 -3 3
OMIT -1 0 7
OMIT 8 0 1
OMIT -9 -5 8
OMIT -3 13 6
OMIT -6 2 9
OMIT -2 7 16
OMIT 7 3 8
OMIT -5 -6 12
OMIT -4 6 10
OMIT -7 -11 4
OMIT -4 6 15
OMIT -2 14 4
OMIT 6 3 8
OMIT -5 -5 5
OMIT -6 5 2
OMIT 2 3 8
OMIT -6 6 14
OMIT -5 11 5
OMIT 0 5 17
OMIT 1 -5 10
OMIT -4 -10 3
OMIT -8 -4 6
OMIT 6 5 10
OMIT 9 5 9
OMIT 4 15 9
OMIT -7 -4 4
OMIT -2 3 18
OMIT -2 3 11
OMIT 6 -1 5
OMIT -6 5 9
OMIT -1 -11 2
OMIT 6 6 3
OMIT 2 -7 1
OMIT -3 9 1
OMIT -2 5 16
OMIT 3 8 11
OMIT -8 6 1
OMIT -6 4 7
OMIT 9 -2 2
OMIT 10 2 7
OMIT 7 -3 6
OMIT 0 6 7
OMIT -5 -1 15
OMIT 3 -2 16
OMIT -8 1 6
OMIT 3 15 6
OMIT -2 0 11
OMIT 3 7 11
OMIT -5 2 0
OMIT 10 6 7
OMIT 3 1 6
OMIT 1 3 17
OMIT 1 13 3
OMIT 7 2 13
OMIT -9 -6 3
OMIT -2 7 9
OMIT -4 -2 10
OMIT 7 5 13
OMIT 8 5 6
OMIT -3 -5 8
OMIT -7 -4 9
OMIT 5 11 12
OMIT -7 -1 6
OMIT -4 -14 3
OMIT -2 -8 11
OMIT -9 -4 3
OMIT -2 -11 4
OMIT 4 14 9
OMIT 1 -7 3
OMIT 4 11 2
OMIT -4 10 8
OMIT -4 -7 3
OMIT -8 0 1
OMIT -1 -6 2
OMIT 12 2 1
OMIT -2 -4 11
OMIT -5 4 0
OMIT 6 3 3
OMIT 4 -8 7
OMIT 6 3 10
OMIT 6 -6 2
OMIT 2 -9 1
OMIT 3 4 4
OMIT 10 4 0
OMIT 4 2 7
OMIT 4 4 9
OMIT 9 1 7
OMIT 5 -11 5
OMIT 7 6 13
OMIT 0 6 17
OMIT -6 10 9
OMIT 1 16 10
OMIT -4 5 17
OMIT 8 3 9
OMIT -8 10 1
OMIT 1 -8 3
OMIT 2 2 6
OMIT 6 4 3
OMIT 9 2 9
OMIT -2 6 4
OMIT -4 8 3
OMIT -3 0 16
OMIT -2 0 9
OMIT 3 -12 4
OMIT 0 15 0
OMIT 0 9 0
OMIT 10 -1 7
OMIT 2 -5 1
OMIT -4 -1 10
OMIT 6 5 5
OMIT 8 1 11
OMIT 8 2 11
OMIT 8 9 6
OMIT -3 3 8
OMIT 2 11 8
OMIT -8 0 8
OMIT 6 -4 5
OMIT -5 -9 5
OMIT 3 -1 4
OMIT 8 4 9
OMIT -2 2 6
OMIT -5 1 10
OMIT 1 15 10
OMIT -9 -8 1
OMIT -9 -2 5
OMIT -1 0 16
OMIT 8 2 9
OMIT 7 -8 8
OMIT -9 -1 10
OMIT 9 4 7
OMIT -9 -1 5
OMIT 10 7 12
OMIT 7 -11 1
OMIT 0 9 10
OMIT 3 -8 11
OMIT -1 -2 14
OMIT -8 1 11
OMIT 9 -9 2
OMIT -10 -6 4
OMIT -6 -2 4
OMIT -10 -6 2
OMIT 1 -3 5
OMIT -4 14 3
OMIT 3 12 11
OMIT 1 11 3
OMIT -4 2 10
OMIT 4 12 14
OMIT 8 4 4
OMIT 0 8 10
OMIT 4 6 2
OMIT 8 12 6
OMIT -1 2 14
OMIT 9 0 9
OMIT -4 7 17
OMIT 1 16 3
OMIT -5 -8 5
OMIT -1 -7 2
OMIT 1 -4 10
OMIT 4 -1 4
OMIT -8 0 6
OMIT -8 -2 6
OMIT -4 1 10
OMIT -8 4 6
OMIT 5 -4 5
OMIT -8 0 3
OMIT -1 6 16
OMIT -2 11 16
OMIT 5 1 5
OMIT 7 -5 7
OMIT 2 6 1
OMIT 9 3 4
OMIT -10 4 7
OMIT 10 6 0
OMIT 10 6 12
OMIT 3 -1 6
OMIT 0 -1 12
OMIT 8 2 1
OMIT -10 -6 1
OMIT 10 3 7
OMIT 1 7 8
OMIT -3 4 15
OMIT -6 2 2
OMIT -8 4 1
OMIT 8 -1 1
OMIT -6 -4 2
OMIT -2 -3 11
OMIT -3 4 18
OMIT -3 3 6
OMIT -1 3 17
OMIT -8 -12 1
OMIT 9 4 14
OMIT -9 -4 8
OMIT -6 2 14
OMIT 3 -3 16
OMIT -4 4 15
OMIT 2 -2 13
OMIT 9 -2 7
OMIT -6 6 7
OMIT 7 2 16
OMIT -2 11 4
OMIT 8 -1 6
OMIT -8 -1 6
OMIT -7 10 4
OMIT -1 -3 2
OMIT 4 -3 2
OMIT -3 1 16
OMIT 1 2 15
OMIT 10 2 0
OMIT 1 -5 15
OMIT -1 3 19
OMIT 8 2 6
OMIT -5 9 5
OMIT -1 -8 9
OMIT 5 -2 5
OMIT -7 -6 6
OMIT 2 12 13
OMIT -3 -7 6
OMIT -4 7 3
OMIT 7 3 13
OMIT 10 2 12
OMIT -7 2 13
OMIT 8 8 0
OMIT 0 5 12
OMIT 1 -7 10
OMIT 3 10 7
OMIT -8 5 13
OMIT 6 2 10
OMIT 8 7 11
OMIT -3 2 6
OMIT 6 -5 7
OMIT -2 10 16
OMIT -8 6 8
OMIT 1 -2 15
OMIT -3 -8 8
OMIT -4 13 8
OMIT 4 6 14
OMIT -10 0 2
OMIT 5 0 0
OMIT -3 -6 8
OMIT -5 1 14
OMIT 9 -3 9
OMIT 9 5 14
OMIT 4 1 7
OMIT 6 9 8
OMIT 2 2 8
OMIT -9 -7 3
OMIT 2 15 1
OMIT 3 1 18
OMIT -6 1 14
OMIT -4 2 15
OMIT 3 1 11
OMIT -7 -3 9
OMIT 6 10 5
OMIT -7 -8 2
OMIT 0 2 12
OMIT 0 -8 12
OMIT 1 7 15
OMIT 6 -7 8
OMIT 8 5 11
OMIT -5 -1 12
OMIT -3 6 1
OMIT -8 7 11
OMIT 1 14 3
OMIT -2 3 16
OMIT 6 -2 5
OMIT 8 -4 4
OMIT -1 7 7
OMIT 5 -4 10
OMIT -9 -6 4
OMIT -7 -6 9
OMIT -7 -7 6
OMIT 8 8 9
OMIT 8 7 13
OMIT 8 11 6
OMIT 9 2 4
OMIT -5 -2 5
OMIT 7 13 1
OMIT 3 12 4
OMIT 1 12 10
OMIT 12 3 1
OMIT -9 -2 10
OMIT -6 5 12
OMIT 8 12 11
OMIT -4 -3 3
OMIT -3 -1 16
OMIT 1 -11 3
OMIT -6 3 12
OMIT -3 2 15
OMIT -1 5 19
OMIT 2 9 8
OMIT -3 4 13
OMIT -5 -9 7
OMIT 7 -5 6
OMIT 0 10 0
OMIT -1 2 7
OMIT 5 2 12
OMIT 9 -3 7
OMIT 2 -10 6
OMIT -8 8 8
OMIT 7 0 3
OMIT -10 -7 4
OMIT 6 -6 3
OMIT -8 -4 1
OMIT 2 3 1
OMIT 5 12 12
OMIT -7 1 9
OMIT 7 -7 8
OMIT -4 -6 10
OMIT 8 1 9
OMIT 11 8 4
OMIT -11 -6 2
OMIT 4 3 9
OMIT 4 7 14
OMIT 7 1 6
OMIT 7 -9 6
OMIT 10 6 9
OMIT 10 -4 2
OMIT -8 -3 3
OMIT -11 3 5
OMIT -8 2 13
OMIT 3 -3 6
OMIT 1 -6 10
OMIT -3 -1 6
OMIT 6 -4 3
OMIT 10 1 2
OMIT 3 15 4
OMIT 2 -5 13
OMIT 2 9 18
OMIT -8 7 0
OMIT -3 7 6
OMIT 6 -10 3
OMIT -7 -6 10
OMIT 3 16 11
OMIT 1 -1 17
OMIT 11 4 10
OMIT 8 4 11
OMIT -6 1 12
REM <olex2.extras>
REM <HklSrc "%.\\wyt-s-2.hkl">
REM </olex2.extras>

WGHT    0.074300   16.121401
FVAR       2.84671
TB1   6    0.320683    0.988018    0.310965    11.00000    0.02133    0.00699 =
         0.02140   -0.00072   -0.00441   -0.00220
TB2   6    0.816945    1.030070    0.316293    11.00000    0.02301    0.00727 =
         0.02020   -0.00246   -0.00591   -0.00098
S1    5    0.168547    0.644583    0.306513    11.00000    0.02663    0.00872 =
         0.03251   -0.00603   -0.00954   -0.00179
S2    5    0.750269    0.325823    0.497607    11.00000    0.03270    0.00709 =
         0.02062   -0.00233   -0.00428   -0.00187
S3    5    0.608565    1.374311    0.098735    11.00000    0.03004    0.01370 =
         0.03525    0.00304   -0.01120   -0.00448
S4    5    0.573786    0.641835    0.389599    11.00000    0.02598    0.00767 =
         0.03267   -0.00535   -0.00824   -0.00136
S5    5   -0.023545    0.377754    0.305762    11.00000    0.02538    0.00844 =
         0.03531   -0.00592   -0.00432   -0.00205
S6    5    0.987662    1.340163    0.094862    11.00000    0.03765    0.02146 =
         0.02537   -0.00037   -0.00564   -0.00431
O11   4    0.204581    0.853976    0.304075    11.00000    0.03552    0.00944 =
         0.02538   -0.00288   -0.00866   -0.00538
O2    4    0.668793    1.169144    0.235756    11.00000    0.03356    0.01670 =
         0.03159   -0.00322   -0.01495   -0.00181
O13   4   -0.070035    0.162732    0.331080    11.00000    0.02989    0.00770 =
         0.04205   -0.00644   -0.00414   -0.00672
O6    4    0.919942    0.938652    0.458580    11.00000    0.02642    0.01655 =
         0.02819   -0.00667   -0.01362    0.00311
AFIX   7
H6A   2    0.902373    0.973902    0.501049    11.00000   -1.50000
H6B   2    1.017862    0.933942    0.453709    11.00000   -1.50000
AFIX   0
O6AA  4    0.730516    0.965395    0.210677    11.00000    0.02681    0.01988 =
         0.03120   -0.00977   -0.00276   -0.00454
AFIX   7
H6AA  2    0.642276    0.971758    0.214742    11.00000   -1.50000
H6AB  2    0.749784    0.898816    0.224954    11.00000   -1.50000
AFIX   0
O7    4    0.674782    0.902211    0.400203    11.00000    0.02564    0.00934 =
         0.02911   -0.00540   -0.00460    0.00080
O10   4    0.212856    1.066674    0.172324    11.00000    0.03179    0.02663 =
         0.02526   -0.00178   -0.00729   -0.00757
AFIX   7
H10A  2    0.122445    1.084890    0.180904    11.00000   -1.50000
H10B  2    0.211112    1.020546    0.143821    11.00000   -1.50000
AFIX   0
O15   4    0.683735    0.092374    0.425394    11.00000    0.02324    0.01189 =
         0.02457   -0.00288   -0.00697   -0.00363
O16   4    0.783979    0.096174    0.539560    11.00000    0.01665    0.01062 =
         0.02652   -0.00371   -0.00379   -0.00205
O1    4    0.476438    1.102806    0.235975    11.00000    0.04509    0.01897 =
         0.03229    0.00444    0.00006   -0.01490
O5    4    0.988087    0.914232    0.295382    11.00000    0.02808    0.01359 =
         0.03483   -0.00822    0.00126   -0.00082
O8    4    0.482705    0.857194    0.371582    11.00000    0.02459    0.01369 =
         0.03118   -0.00639   -0.00562   -0.00151
O3    4    0.934707    1.119381    0.173702    11.00000    0.03254    0.02408 =
         0.02521    0.00002   -0.00150   -0.00874
O14   4    0.145139    0.100834    0.331572    11.00000    0.02816    0.01159 =
         0.04082   -0.00551   -0.01246    0.00221
O4    4    0.839300    1.107250    0.062525    11.00000    0.08982    0.03441 =
         0.02904   -0.00904   -0.00351   -0.02363
C2    1    0.897876    1.157084    0.096091    11.00000    0.03345    0.02562 =
         0.03068   -0.00574    0.00123   -0.00461
C3    1    0.226481    0.410308    0.304056    11.00000    0.02267    0.01940 =
         0.03945   -0.01125   -0.00899   -0.00092
AFIX  43
H3    2    0.304638    0.443053    0.301623    11.00000   -1.20000
AFIX   0
C5    1    0.678294    0.440379    0.427185    11.00000    0.02757    0.00520 =
         0.02876   -0.00374   -0.00161   -0.00063
C6    1    0.097704    0.460854    0.296864    11.00000    0.02914    0.01019 =
         0.02019   -0.00142   -0.00276   -0.00895
C7    1    0.505872    1.273401    0.144366    11.00000    0.03323    0.00874 =
         0.02266    0.00299    0.00337   -0.00478
C8    1    0.058263    0.569257    0.286668    11.00000    0.03286    0.01131 =
         0.01833   -0.00067    0.00019   -0.00745
C10   1   -0.070257    0.726906    0.265274    11.00000    0.02032    0.01749 =
         0.02726   -0.00516    0.00261   -0.00184
AFIX  43
H10   2   -0.146476    0.773759    0.253088    11.00000   -1.20000
AFIX   0
C12   1    0.381149    1.298373    0.109665    11.00000    0.03740    0.03192 =
         0.03139   -0.00442   -0.01494    0.00681
AFIX  43
H12   2    0.310940    1.254044    0.127449    11.00000   -1.20000
AFIX   0
C16   1    0.083317    0.846653    0.296283    11.00000    0.02532    0.00628 =
         0.02527   -0.00310   -0.00450   -0.00608
C17   1    0.054395    0.172850    0.326041    11.00000    0.02249    0.00814 =
         0.01675   -0.00260   -0.00077   -0.00405
C18   1    0.691186    0.539781    0.435507    11.00000    0.02445    0.01300 =
         0.02635   -0.00401   -0.00708    0.00746
C19   1    0.486995    1.448820    0.030923    11.00000    0.03220    0.01386 =
         0.02730    0.00061   -0.00713    0.00475
N21   3    0.504586    0.818191    0.115364    11.00000    0.08293    0.06596 =
         0.06430   -0.04381    0.02462   -0.02051
C22   1   -0.065299    0.624591    0.264723    11.00000    0.03116    0.01299 =
         0.03467   -0.01007   -0.00694   -0.01218
AFIX  43
H22   2   -0.137575    0.597078    0.251030    11.00000   -1.20000
AFIX   0
C23   1    0.553925    1.174396    0.211037    11.00000    0.02781    0.01406 =
         0.01338    0.00200   -0.00360   -0.00369
C24   1    0.692394    0.254235    0.441917    11.00000    0.02901    0.01029 =
         0.02459   -0.00420   -0.00533   -0.00411
C25   1    0.227026    0.305119    0.315340    11.00000    0.02345    0.01126 =
         0.03223   -0.00632   -0.00723   -0.00396
AFIX  43
H25   2    0.304862    0.259745    0.321336    11.00000   -1.20000
AFIX   0
C26   1    0.371280    1.396758    0.045299    11.00000    0.02627    0.02608 =
         0.03159    0.00072   -0.00169   -0.00784
AFIX  43
H26   2    0.294125    1.424576    0.014996    11.00000   -1.20000
AFIX   0
C27   1    0.049039    0.749541    0.285647    11.00000    0.02202    0.00888 =
         0.02236   -0.00083   -0.00104   -0.00715
C28   1    0.601930    0.836326    0.395474    11.00000    0.02111    0.00881 =
         0.01652   -0.00171   -0.00930    0.00287
C32   1    0.096711    0.276712    0.316490    11.00000    0.01885    0.00978 =
         0.02358    0.00006   -0.00674    0.00136
C33   1    0.786941    0.570834    0.475120    11.00000    0.02999    0.01148 =
         0.02914   -0.00082   -0.01009   -0.00063
AFIX  43
H33   2    0.856656    0.526474    0.505180    11.00000   -1.20000
AFIX   0
C35   1    0.981327    1.450689   -0.000597    11.00000    0.03209    0.02358 =
         0.02569   -0.00163    0.00634   -0.00193
C36   1    0.721985    0.140783    0.470264    11.00000    0.01384    0.01254 =
         0.01572   -0.00263    0.00134   -0.00272
C38   1    0.656045    0.725560    0.421276    11.00000    0.01570    0.01314 =
         0.02657   -0.00611   -0.00046   -0.00858
C39   1    0.930214    1.263991    0.044138    11.00000    0.04768    0.01758 =
         0.02748   -0.00616   -0.00279   -0.00719
C41   1    0.902345    1.321629   -0.041426    11.00000    0.06156    0.02151 =
         0.02737   -0.00456   -0.01018   -0.00084
AFIX  43
H41   2    0.867043    1.294727   -0.078792    11.00000   -1.20000
AFIX   0
C42   1    0.616407    0.422565    0.362766    11.00000    0.04235    0.00857 =
         0.03923   -0.00691   -0.01330    0.00447
AFIX  43
H42   2    0.573499    0.475236    0.318125    11.00000   -1.20000
AFIX   0
C43   1    0.624243    0.317164    0.370884    11.00000    0.03498    0.00735 =
         0.03094   -0.00510   -0.01074    0.00531
AFIX  43
H43   2    0.587366    0.292796    0.332416    11.00000   -1.20000
AFIX   0
C45   1    0.766532    0.677041    0.464622    11.00000    0.03161    0.00802 =
         0.02491   -0.00219   -0.00837    0.00054
AFIX  43
H45   2    0.823590    0.710702    0.485503    11.00000   -1.20000
AFIX   0
C46   1    0.933568    1.426773   -0.066202    11.00000    0.07391    0.02903 =
         0.02421   -0.00527    0.00076   -0.00940
AFIX  43
H46   2    0.922446    1.475247   -0.122337    11.00000   -1.20000
AFIX   0
O12   4    0.452399    0.931634    0.190047    11.00000    0.04060    0.02940 =
         0.03373   -0.00936   -0.00235   -0.00978
C9    1    0.438925    0.850985    0.176190    11.00000    0.05841    0.05009 =
         0.05138   -0.03000    0.02305   -0.02373
AFIX  43
H9    2    0.374213    0.808457    0.213575    11.00000   -1.20000
AFIX   0
C14   1    0.612952    0.875824    0.053385    11.00000    0.13669    0.14188 =
         0.06415   -0.04978    0.05866   -0.06060
AFIX 137
H14A  2    0.624404    0.937371    0.065864    11.00000   -1.50000
H14B  2    0.588450    0.895024   -0.006143    11.00000   -1.50000
H14C  2    0.696619    0.832633    0.060047    11.00000   -1.50000
AFIX   0
C21   1    0.478031    0.721547    0.103261    11.00000    0.20688    0.12529 =
         0.14752   -0.10860    0.08435   -0.08119
AFIX 137
H21A  2    0.426163    0.679501    0.154741    11.00000   -1.50000
H21B  2    0.562855    0.684049    0.094762    11.00000   -1.50000
H21C  2    0.427717    0.737921    0.052370    11.00000   -1.50000
AFIX   0
O9    4    0.405106    1.065389    0.410763    11.00000    0.02110    0.01360 =
         0.02769   -0.00551    0.00074   -0.00281
AFIX   7
H9A   2    0.347347    1.058345    0.459161    11.00000   -1.50000
H9B   2    0.406613    1.134905    0.385813    11.00000   -1.50000
AFIX   6

O17   4    0.131307    0.946151    0.087373    11.00000    0.07363
H17A  2    0.046361    0.944529    0.085419    11.00000   -1.50000
H17B  2    0.167762    0.898440    0.068330    11.00000   -1.50000
AFIX   0
HKLF 4

REM  CF solution in P-1
REM R1 =  0.0622 for    5921 Fo > 4sig(Fo)  and  0.0724 for all    6928 data
REM    545 parameters refined using      0 restraints

END

WGHT      0.0743     16.1214

REM Highest difference peak  2.387,  deepest hole -1.322,  1-sigma level  0.186
Q1    1   0.3679  0.9806  0.2642  11.00000  0.05    2.39
Q2    1   0.8626  1.0222  0.2656  11.00000  0.05    2.33
Q3    1   0.8241  0.9458  0.3444  11.00000  0.05    1.74
Q4    1   0.3139  1.0784  0.2803  11.00000  0.05    1.67
Q5    1   0.4800  1.0146  0.0998  11.00000  0.05    1.56
Q6    1  -0.0091  0.9590  0.1068  11.00000  0.05    1.44
Q7    1   0.8066  1.1187  0.2894  11.00000  0.05    1.30
Q8    1   0.3275  0.9086  0.3336  11.00000  0.05    1.27
Q9    1   0.7942  1.0328  0.3760  11.00000  0.05    1.24
Q10   1   0.2979  0.9938  0.3623  11.00000  0.05    1.16
Q11   1   0.4408  1.3480  0.0824  11.00000  0.05    1.15
Q12   1   0.4425  1.0414  0.2823  11.00000  0.05    0.99
Q13   1   0.8197  0.9536  0.2460  11.00000  0.05    0.93
Q14   1   0.7039  0.9805  0.3367  11.00000  0.05    0.92
Q15   1  -0.0086  0.3819  0.2551  11.00000  0.05    0.90
Q16   1   0.2551  0.1635  0.2542  11.00000  0.05    0.87
Q17   1   0.7997  1.0615  0.2342  11.00000  0.05    0.82
Q18   1  -0.1562  0.6621  0.3280  11.00000  0.05    0.74
Q19   1   0.4368  0.6729  0.0796  11.00000  0.05    0.74
Q20   1   1.1032  0.9637  0.2847  11.00000  0.05    0.73
Q21   1   0.7543  0.9161  0.3806  11.00000  0.05    0.73
Q22   1  -0.0733  0.1043  0.2769  11.00000  0.05    0.73
Q23   1   0.1992  0.0981  0.2749  11.00000  0.05    0.73
Q24   1   0.6042  1.4610  0.0857  11.00000  0.05    0.71
Q25   1   0.7675  0.1079  0.6255  11.00000  0.05    0.70
;
_shelx_res_checksum              50714
_olex2_submission_special_instructions 'No special instructions were received'
_oxdiff_exptl_absorpt_empirical_details
;
Empirical correction (ABSPACK) includes:
- Absorption correction using spherical harmonics
- Frame scaling
;
_oxdiff_exptl_absorpt_empirical_full_max 1.951
_oxdiff_exptl_absorpt_empirical_full_min 0.591
loop_
_space_group_symop_operation_xyz
'x, y, z'
'-x, -y, -z'
loop_
_atom_site_label
_atom_site_type_symbol
_atom_site_fract_x
_atom_site_fract_y
_atom_site_fract_z
_atom_site_U_iso_or_equiv
_atom_site_adp_type
_atom_site_occupancy
_atom_site_site_symmetry_order
_atom_site_calc_flag
_atom_site_refinement_flags_posn
Tb1 Tb 0.32068(5) 0.98802(3) 0.31097(3) 0.01739(15) Uani 1 1 d .
Tb2 Tb 0.81695(5) 1.03007(3) 0.31629(3) 0.01711(15) Uani 1 1 d .
S1 S 0.1685(2) 0.64458(14) 0.30651(14) 0.0223(4) Uani 1 1 d .
S2 S 0.7503(2) 0.32582(13) 0.49761(13) 0.0206(4) Uani 1 1 d .
S3 S 0.6086(2) 1.37431(15) 0.09874(15) 0.0285(5) Uani 1 1 d .
S4 S 0.5738(2) 0.64184(14) 0.38960(14) 0.0220(4) Uani 1 1 d .
S5 S -0.0235(2) 0.37775(14) 0.30576(14) 0.0233(4) Uani 1 1 d .
S6 S 0.9877(3) 1.34016(16) 0.09486(15) 0.0298(5) Uani 1 1 d .
O11 O 0.2046(6) 0.8540(4) 0.3041(4) 0.0235(13) Uani 1 1 d .
O2 O 0.6688(7) 1.1691(4) 0.2358(4) 0.0276(14) Uani 1 1 d .
O13 O -0.0700(6) 0.1627(4) 0.3311(4) 0.0266(14) Uani 1 1 d .
O6 O 0.9199(6) 0.9387(4) 0.4586(4) 0.0234(13) Uani 1 1 d .
H6A H 0.9024 0.9739 0.5010 0.035 Uiso 1 1 d GR
H6B H 1.0179 0.9339 0.4537 0.035 Uiso 1 1 d GR
O6AA O 0.7305(6) 0.9654(4) 0.2107(4) 0.0255(13) Uani 1 1 d .
H6AA H 0.6423 0.9718 0.2147 0.038 Uiso 1 1 d GR
H6AB H 0.7498 0.8988 0.2250 0.038 Uiso 1 1 d GR
O7 O 0.6748(6) 0.9022(4) 0.4002(4) 0.0217(12) Uani 1 1 d .
O10 O 0.2129(7) 1.0667(5) 0.1723(4) 0.0290(14) Uani 1 1 d .
H10A H 0.1224 1.0849 0.1809 0.043 Uiso 1 1 d GR
H10B H 0.2111 1.0205 0.1438 0.043 Uiso 1 1 d GR
O15 O 0.6837(6) 0.0924(4) 0.4254(4) 0.0202(12) Uani 1 1 d .
O16 O 0.7840(6) 0.0962(4) 0.5396(4) 0.0184(12) Uani 1 1 d .
O1 O 0.4764(7) 1.1028(5) 0.2360(4) 0.0350(16) Uani 1 1 d .
O5 O 0.9881(6) 0.9142(4) 0.2954(4) 0.0259(13) Uani 1 1 d .
O8 O 0.4827(6) 0.8572(4) 0.3716(4) 0.0232(13) Uani 1 1 d .
O3 O 0.9347(7) 1.1194(5) 0.1737(4) 0.0291(14) Uani 1 1 d .
O14 O 0.1451(6) 0.1008(4) 0.3316(4) 0.0273(14) Uani 1 1 d .
O4 O 0.8393(10) 1.1072(6) 0.0625(5) 0.050(2) Uani 1 1 d .
C2 C 0.8979(10) 1.1571(7) 0.0961(6) 0.031(2) Uani 1 1 d .
C3 C 0.2265(9) 0.4103(6) 0.3041(6) 0.0264(19) Uani 1 1 d .
H3 H 0.3046 0.4431 0.3016 0.032 Uiso 1 1 calc R
C5 C 0.6783(9) 0.4404(6) 0.4272(6) 0.0212(17) Uani 1 1 d .
C6 C 0.0977(9) 0.4609(6) 0.2969(5) 0.0202(17) Uani 1 1 d .
C7 C 0.5059(10) 1.2734(6) 0.1444(6) 0.0240(19) Uani 1 1 d .
C8 C 0.0583(9) 0.5693(6) 0.2867(5) 0.0218(18) Uani 1 1 d .
C10 C -0.0703(9) 0.7269(6) 0.2653(6) 0.0227(18) Uani 1 1 d .
H10 H -0.1465 0.7738 0.2531 0.027 Uiso 1 1 calc R
C12 C 0.3811(11) 1.2984(8) 0.1097(6) 0.035(2) Uani 1 1 d .
H12 H 0.3109 1.2540 0.1274 0.042 Uiso 1 1 calc R
C16 C 0.0833(9) 0.8467(6) 0.2963(5) 0.0190(17) Uani 1 1 d .
C17 C 0.0544(8) 0.1728(5) 0.3260(5) 0.0161(16) Uani 1 1 d .
C18 C 0.6912(9) 0.5398(6) 0.4355(6) 0.0223(18) Uani 1 1 d .
C19 C 0.4870(10) 1.4488(6) 0.0309(6) 0.0267(19) Uani 1 1 d .
N21 N 0.5046(13) 0.8182(9) 0.1154(8) 0.067(3) Uani 1 1 d .
C22 C -0.0653(9) 0.6246(6) 0.2647(6) 0.0246(19) Uani 1 1 d .
H22 H -0.1376 0.5971 0.2510 0.029 Uiso 1 1 calc R
C23 C 0.5539(9) 1.1744(6) 0.2110(5) 0.0199(17) Uani 1 1 d .
C24 C 0.6924(9) 0.2542(6) 0.4419(6) 0.0213(18) Uani 1 1 d .
C25 C 0.2270(9) 0.3051(6) 0.3153(6) 0.0220(18) Uani 1 1 d .
H25 H 0.3049 0.2597 0.3213 0.026 Uiso 1 1 calc R
C26 C 0.3713(10) 1.3968(7) 0.0453(6) 0.030(2) Uani 1 1 d .
H26 H 0.2941 1.4246 0.0150 0.037 Uiso 1 1 calc R
C27 C 0.0490(9) 0.7495(6) 0.2856(5) 0.0186(16) Uani 1 1 d .
C28 C 0.6019(8) 0.8363(5) 0.3955(5) 0.0159(16) Uani 1 1 d .
C32 C 0.0967(8) 0.2767(6) 0.3165(5) 0.0188(16) Uani 1 1 d .
C33 C 0.7869(10) 0.5708(6) 0.4751(6) 0.0246(19) Uani 1 1 d .
H33 H 0.8567 0.5265 0.5052 0.030 Uiso 1 1 calc R
C35 C 0.9813(10) 1.4507(7) -0.0006(6) 0.030(2) Uani 1 1 d .
C36 C 0.7220(8) 0.1408(6) 0.4703(5) 0.0147(15) Uani 1 1 d .
C38 C 0.6560(8) 0.7256(6) 0.4213(5) 0.0182(16) Uani 1 1 d .
C39 C 0.9302(11) 1.2640(7) 0.0441(6) 0.031(2) Uani 1 1 d .
C41 C 0.9023(12) 1.3216(7) -0.0414(6) 0.037(2) Uani 1 1 d .
H41 H 0.8670 1.2947 -0.0788 0.045 Uiso 1 1 calc R
C42 C 0.6164(10) 0.4226(6) 0.3628(6) 0.030(2) Uani 1 1 d .
H42 H 0.5735 0.4752 0.3181 0.036 Uiso 1 1 calc R
C43 C 0.6242(10) 0.3172(6) 0.3709(6) 0.0247(19) Uani 1 1 d .
H43 H 0.5874 0.2928 0.3324 0.030 Uiso 1 1 calc R
C45 C 0.7665(9) 0.6770(6) 0.4646(5) 0.0221(18) Uani 1 1 d .
H45 H 0.8236 0.7107 0.4855 0.027 Uiso 1 1 calc R
C46 C 0.9336(13) 1.4268(8) -0.0662(7) 0.043(3) Uani 1 1 d .
H46 H 0.9224 1.4752 -0.1223 0.052 Uiso 1 1 calc R
O12 O 0.4524(7) 0.9316(5) 0.1900(4) 0.0345(16) Uani 1 1 d .
C9 C 0.4389(13) 0.8510(9) 0.1762(8) 0.051(3) Uani 1 1 d .
H9 H 0.3742 0.8085 0.2136 0.061 Uiso 1 1 calc R
C14 C 0.613(2) 0.8758(17) 0.0534(11) 0.112(8) Uani 1 1 d .
H14A H 0.6244 0.9374 0.0659 0.168 Uiso 1 1 calc GR
H14B H 0.5885 0.8950 -0.0061 0.168 Uiso 1 1 calc GR
H14C H 0.6966 0.8326 0.0600 0.168 Uiso 1 1 calc GR
C21 C 0.478(3) 0.7215(17) 0.1033(16) 0.146(11) Uani 1 1 d .
H21A H 0.4262 0.6795 0.1547 0.219 Uiso 1 1 calc GR
H21B H 0.5629 0.6840 0.0948 0.219 Uiso 1 1 calc GR
H21C H 0.4277 0.7379 0.0524 0.219 Uiso 1 1 calc GR
O9 O 0.4051(6) 1.0654(4) 0.4108(4) 0.0213(12) Uani 1 1 d .
H9A H 0.3473 1.0583 0.4592 0.032 Uiso 1 1 d GR
H9B H 0.4066 1.1349 0.3858 0.032 Uiso 1 1 d GR
O17 O 0.1313(12) 0.9462(9) 0.0874(8) 0.074(3) Uiso 1 1 d .
H17A H 0.0464 0.9445 0.0854 0.110 Uiso 1 1 d G
H17B H 0.1678 0.8984 0.0683 0.110 Uiso 1 1 d G
loop_
_atom_site_aniso_label
_atom_site_aniso_U_11
_atom_site_aniso_U_22
_atom_site_aniso_U_33
_atom_site_aniso_U_23
_atom_site_aniso_U_13
_atom_site_aniso_U_12
Tb1 0.0213(3) 0.0070(2) 0.0214(3) -0.00072(17) -0.00441(19) -0.00220(17)
Tb2 0.0230(3) 0.0073(2) 0.0202(3) -0.00246(17) -0.0059(2) -0.00098(18)
S1 0.0266(11) 0.0087(8) 0.0325(11) -0.0060(7) -0.0095(9) -0.0018(7)
S2 0.0327(12) 0.0071(8) 0.0206(9) -0.0023(7) -0.0043(8) -0.0019(7)
S3 0.0300(12) 0.0137(9) 0.0353(12) 0.0030(8) -0.0112(10) -0.0045(8)
S4 0.0260(11) 0.0077(8) 0.0327(11) -0.0054(7) -0.0082(9) -0.0014(7)
S5 0.0254(11) 0.0084(8) 0.0353(11) -0.0059(7) -0.0043(9) -0.0021(7)
S6 0.0376(13) 0.0215(10) 0.0254(11) -0.0004(8) -0.0056(10) -0.0043(9)
O11 0.036(4) 0.009(2) 0.025(3) -0.003(2) -0.009(3) -0.005(2)
O2 0.034(4) 0.017(3) 0.032(3) -0.003(2) -0.015(3) -0.002(3)
O13 0.030(4) 0.008(2) 0.042(4) -0.006(2) -0.004(3) -0.007(2)
O6 0.026(3) 0.017(3) 0.028(3) -0.007(2) -0.014(3) 0.003(2)
O6AA 0.027(3) 0.020(3) 0.031(3) -0.010(2) -0.003(3) -0.005(2)
O7 0.026(3) 0.009(2) 0.029(3) -0.005(2) -0.005(3) 0.001(2)
O10 0.032(4) 0.027(3) 0.025(3) -0.002(2) -0.007(3) -0.008(3)
O15 0.023(3) 0.012(2) 0.025(3) -0.003(2) -0.007(2) -0.004(2)
O16 0.017(3) 0.011(2) 0.027(3) -0.004(2) -0.004(2) -0.002(2)
O1 0.045(4) 0.019(3) 0.032(4) 0.004(3) 0.000(3) -0.015(3)
O5 0.028(3) 0.014(3) 0.035(3) -0.008(2) 0.001(3) -0.001(2)
O8 0.025(3) 0.014(3) 0.031(3) -0.006(2) -0.006(3) -0.002(2)
O3 0.033(4) 0.024(3) 0.025(3) 0.000(2) -0.002(3) -0.009(3)
O14 0.028(3) 0.012(3) 0.041(4) -0.006(2) -0.012(3) 0.002(2)
O4 0.090(7) 0.034(4) 0.029(4) -0.009(3) -0.004(4) -0.024(4)
C2 0.033(5) 0.026(5) 0.031(5) -0.006(4) 0.001(4) -0.005(4)
C3 0.023(5) 0.019(4) 0.039(5) -0.011(4) -0.009(4) -0.001(3)
C5 0.028(5) 0.005(3) 0.029(4) -0.004(3) -0.002(4) -0.001(3)
C6 0.029(5) 0.010(4) 0.020(4) -0.001(3) -0.003(3) -0.009(3)
C7 0.033(5) 0.009(3) 0.023(4) 0.003(3) 0.003(4) -0.005(3)
C8 0.033(5) 0.011(4) 0.018(4) -0.001(3) 0.000(4) -0.007(3)
C10 0.020(4) 0.017(4) 0.027(4) -0.005(3) 0.003(4) -0.002(3)
C12 0.037(6) 0.032(5) 0.031(5) -0.004(4) -0.015(4) 0.007(4)
C16 0.025(5) 0.006(3) 0.025(4) -0.003(3) -0.004(3) -0.006(3)
C17 0.022(4) 0.008(3) 0.017(4) -0.003(3) -0.001(3) -0.004(3)
C18 0.024(5) 0.013(4) 0.026(4) -0.004(3) -0.007(4) 0.007(3)
C19 0.032(5) 0.014(4) 0.027(5) 0.001(3) -0.007(4) 0.005(4)
N21 0.083(9) 0.066(7) 0.064(7) -0.044(6) 0.025(6) -0.021(7)
C22 0.031(5) 0.013(4) 0.035(5) -0.010(3) -0.007(4) -0.012(3)
C23 0.028(5) 0.014(4) 0.013(4) 0.002(3) -0.004(3) -0.004(3)
C24 0.029(5) 0.010(4) 0.025(4) -0.004(3) -0.005(4) -0.004(3)
C25 0.023(5) 0.011(4) 0.032(5) -0.006(3) -0.007(4) -0.004(3)
C26 0.026(5) 0.026(4) 0.032(5) 0.001(4) -0.002(4) -0.008(4)
C27 0.022(4) 0.009(3) 0.022(4) -0.001(3) -0.001(3) -0.007(3)
C28 0.021(4) 0.009(3) 0.017(4) -0.002(3) -0.009(3) 0.003(3)
C32 0.019(4) 0.010(3) 0.024(4) 0.000(3) -0.007(3) 0.001(3)
C33 0.030(5) 0.011(4) 0.029(5) -0.001(3) -0.010(4) -0.001(3)
C35 0.032(5) 0.024(4) 0.026(5) -0.002(3) 0.006(4) -0.002(4)
C36 0.014(4) 0.013(3) 0.016(4) -0.003(3) 0.001(3) -0.003(3)
C38 0.016(4) 0.013(4) 0.027(4) -0.006(3) 0.000(3) -0.009(3)
C39 0.048(6) 0.018(4) 0.027(5) -0.006(4) -0.003(4) -0.007(4)
C41 0.062(7) 0.022(4) 0.027(5) -0.005(4) -0.010(5) -0.001(5)
C42 0.042(6) 0.009(4) 0.039(5) -0.007(3) -0.013(4) 0.004(4)
C43 0.035(5) 0.007(3) 0.031(5) -0.005(3) -0.011(4) 0.005(3)
C45 0.032(5) 0.008(3) 0.025(4) -0.002(3) -0.008(4) 0.001(3)
C46 0.074(9) 0.029(5) 0.024(5) -0.005(4) 0.001(5) -0.009(5)
O12 0.041(4) 0.029(3) 0.034(4) -0.009(3) -0.002(3) -0.010(3)
C9 0.058(8) 0.050(7) 0.051(7) -0.030(6) 0.023(6) -0.024(6)
C14 0.137(18) 0.142(18) 0.064(11) -0.050(11) 0.059(12) -0.061(15)
C21 0.21(3) 0.125(18) 0.15(2) -0.109(17) 0.084(19) -0.081(18)
O9 0.021(3) 0.014(3) 0.028(3) -0.006(2) 0.001(2) -0.003(2)
loop_
_atom_type_symbol
_atom_type_description
_atom_type_scat_dispersion_real
_atom_type_scat_dispersion_imag
_atom_type_scat_source
C C 0.0181 0.0091 'International Tables Vol C Tables 4.2.6.8 and 6.1.1.4'
H H 0.0000 0.0000 'International Tables Vol C Tables 4.2.6.8 and 6.1.1.4'
N N 0.0311 0.0180 'International Tables Vol C Tables 4.2.6.8 and 6.1.1.4'
O O 0.0492 0.0322 'International Tables Vol C Tables 4.2.6.8 and 6.1.1.4'
S S 0.3331 0.5567 'International Tables Vol C Tables 4.2.6.8 and 6.1.1.4'
Tb Tb -9.1472 9.1891 'International Tables Vol C Tables 4.2.6.8 and 6.1.1.4'
loop_
_geom_angle_atom_site_label_1
_geom_angle_atom_site_label_2
_geom_angle_atom_site_label_3
_geom_angle
_geom_angle_site_symmetry_1
_geom_angle_site_symmetry_3
O11 Tb1 O10 76.7(2) . .
O11 Tb1 O16 73.87(19) . 2_666
O11 Tb1 O12 74.8(2) . .
O11 Tb1 O9 145.24(19) . .
O10 Tb1 O16 129.0(2) . 2_666
O10 Tb1 O12 69.3(2) . .
O10 Tb1 O9 131.89(19) . .
O16 Tb1 O12 137.12(19) 2_666 .
O16 Tb1 O9 72.06(18) 2_666 .
O1 Tb1 O11 143.3(2) . .
O1 Tb1 O10 81.5(2) . .
O1 Tb1 O16 141.5(2) . 2_666
O1 Tb1 O8 93.5(2) . .
O1 Tb1 O14 99.5(2) . 1_565
O1 Tb1 O12 69.9(2) . .
O1 Tb1 O9 69.6(2) . .
O8 Tb1 O11 84.1(2) . .
O8 Tb1 O10 138.7(2) . .
O8 Tb1 O16 77.7(2) . 2_666
O8 Tb1 O12 70.6(2) . .
O8 Tb1 O9 82.17(19) . .
O14 Tb1 O11 101.4(2) 1_565 .
O14 Tb1 O10 72.1(2) 1_565 .
O14 Tb1 O16 74.2(2) 1_565 2_666
O14 Tb1 O8 148.4(2) 1_565 .
O14 Tb1 O12 141.0(2) 1_565 .
O14 Tb1 O9 75.8(2) 1_565 .
O9 Tb1 O12 128.9(2) . .
O2 Tb2 O6 146.8(2) . .
O2 Tb2 O6AA 75.8(2) . .
O2 Tb2 O15 74.3(2) . 1_565
O2 Tb2 O3 71.8(2) . .
O13 Tb2 O2 83.9(2) 1_665 .
O13 Tb2 O6 78.5(2) 1_665 .
O13 Tb2 O6AA 144.9(2) 1_665 .
O13 Tb2 O15 72.0(2) 1_665 1_565
O13 Tb2 O3 72.2(2) 1_665 .
O6AA Tb2 O6 131.98(19) . .
O7 Tb2 O2 104.6(2) . .
O7 Tb2 O13 139.4(2) . 1_665
O7 Tb2 O6 73.3(2) . .
O7 Tb2 O6AA 74.3(2) . .
O7 Tb2 O15 72.46(19) . 1_565
O7 Tb2 O3 148.3(2) . .
O15 Tb2 O6 73.6(2) 1_565 .
O15 Tb2 O6AA 127.1(2) 1_565 .
O15 Tb2 O3 132.47(19) 1_565 .
O5 Tb2 O2 140.9(2) . .
O5 Tb2 O13 104.1(2) . 1_665
O5 Tb2 O6 71.3(2) . .
O5 Tb2 O6AA 76.6(2) . .
O5 Tb2 O7 93.9(2) . .
O5 Tb2 O15 144.7(2) . 1_565
O5 Tb2 O3 74.5(2) . .
O3 Tb2 O6 127.1(2) . .
O3 Tb2 O6AA 74.4(2) . .
C8 S1 C27 91.7(4) . .
C5 S2 C24 91.8(4) . .
C7 S3 C19 92.1(4) . .
C38 S4 C18 91.5(4) . .
C32 S5 C6 91.4(4) . .
C39 S6 C35 92.6(5) . .
C16 O11 Tb1 132.9(5) . .
C23 O2 Tb2 133.7(5) . .
C17 O13 Tb2 129.8(5) . 1_445
C28 O7 Tb2 143.0(5) . .
C36 O15 Tb2 128.5(5) . 1_545
C36 O16 Tb1 126.4(5) . 2_666
C23 O1 Tb1 165.0(6) . .
C16 O5 Tb2 171.3(6) 1_655 .
C28 O8 Tb1 145.2(5) . .
C2 O3 Tb2 133.1(6) . .
C17 O14 Tb1 168.0(6) . 1_545
O3 C2 C39 117.2(8) . .
O4 C2 O3 123.0(9) . .
O4 C2 C39 119.8(9) . .
C6 C3 C25 113.0(8) . .
C18 C5 S2 122.2(7) . .
C42 C5 S2 110.8(6) . .
C42 C5 C18 127.0(7) . .
C3 C6 S5 111.6(6) . .
C3 C6 C8 128.2(8) . .
C8 C6 S5 120.2(7) . .
C12 C7 S3 111.0(6) . .
C12 C7 C23 127.7(8) . .
C23 C7 S3 121.3(7) . .
C6 C8 S1 120.7(7) . .
C22 C8 S1 110.9(6) . .
C22 C8 C6 128.3(8) . .
C27 C10 C22 112.5(8) . .
C7 C12 C26 112.9(9) . .
O11 C16 O5 125.7(7) . 1_455
O11 C16 C27 117.1(7) . .
O5 C16 C27 117.1(8) 1_455 .
O13 C17 O14 124.4(7) . .
O13 C17 C32 117.5(7) . .
O14 C17 C32 118.0(7) . .
C5 C18 S4 118.7(6) . .
C33 C18 S4 110.9(6) . .
C33 C18 C5 130.5(8) . .
C19 C19 S3 121.0(10) 2_685 .
C26 C19 S3 110.7(6) . .
C26 C19 C19 128.3(11) . 2_685
C9 N21 C14 122.1(12) . .
C9 N21 C21 123.3(13) . .
C21 N21 C14 114.6(14) . .
C8 C22 C10 113.0(7) . .
O2 C23 O1 125.5(7) . .
O2 C23 C7 117.5(7) . .
O1 C23 C7 117.0(8) . .
C36 C24 S2 120.8(6) . .
C43 C24 S2 111.4(6) . .
C43 C24 C36 127.8(7) . .
C32 C25 C3 111.5(8) . .
C19 C26 C12 113.3(9) . .
C10 C27 S1 111.9(6) . .
C10 C27 C16 129.1(8) . .
C16 C27 S1 118.9(6) . .
O7 C28 O8 124.0(7) . .
O7 C28 C38 119.0(7) . .
O8 C28 C38 117.0(7) . .
C17 C32 S5 119.4(6) . .
C25 C32 S5 112.5(6) . .
C25 C32 C17 128.1(7) . .
C18 C33 C45 112.3(8) . .
C35 C35 S6 119.9(10) 2_785 .
C46 C35 S6 109.5(7) . .
C46 C35 C35 130.5(11) . 2_785
O15 C36 O16 123.0(7) . .
O15 C36 C24 118.7(7) . .
O16 C36 C24 118.2(7) . .
C28 C38 S4 118.1(6) . .
C45 C38 S4 111.7(6) . .
C45 C38 C28 130.2(7) . .
C2 C39 S6 119.9(7) . .
C41 C39 S6 111.1(7) . .
C41 C39 C2 128.3(9) . .
C39 C41 C46 112.4(9) . .
C5 C42 C43 113.6(8) . .
C24 C43 C42 112.5(8) . .
C38 C45 C33 113.6(8) . .
C35 C46 C41 114.3(9) . .
C9 O12 Tb1 125.4(7) . .
O12 C9 N21 127.8(11) . .
loop_
_geom_bond_atom_site_label_1
_geom_bond_atom_site_label_2
_geom_bond_distance
_geom_bond_site_symmetry_2
Tb1 O11 2.324(5) .
Tb1 O10 2.442(6) .
Tb1 O16 2.448(6) 2_666
Tb1 O1 2.262(6) .
Tb1 O8 2.298(6) .
Tb1 O14 2.279(6) 1_565
Tb1 O12 2.532(7) .
Tb1 O9 2.489(6) .
Tb2 O2 2.366(6) .
Tb2 O13 2.342(5) 1_665
Tb2 O6 2.484(6) .
Tb2 O6AA 2.461(6) .
Tb2 O7 2.314(6) .
Tb2 O15 2.427(6) 1_565
Tb2 O5 2.279(6) .
Tb2 O3 2.430(6) .
S1 C8 1.718(8) .
S1 C27 1.727(8) .
S2 C5 1.725(8) .
S2 C24 1.731(8) .
S3 C7 1.712(8) .
S3 C19 1.720(9) .
S4 C18 1.729(8) .
S4 C38 1.729(8) .
S5 C6 1.711(8) .
S5 C32 1.704(8) .
S6 C35 1.748(9) .
S6 C39 1.720(9) .
O11 C16 1.244(10) .
O2 C23 1.239(11) .
O13 Tb2 2.342(5) 1_445
O13 C17 1.248(10) .
O7 C28 1.249(10) .
O15 Tb2 2.427(6) 1_545
O15 C36 1.258(10) .
O16 Tb1 2.448(6) 2_666
O16 C36 1.269(9) .
O1 C23 1.242(10) .
O5 C16 1.249(10) 1_655
O8 C28 1.260(10) .
O3 C2 1.262(11) .
O14 Tb1 2.279(6) 1_545
O14 C17 1.250(10) .
O4 C2 1.238(12) .
C2 C39 1.466(12) .
C3 C6 1.383(12) .
C3 C25 1.395(11) .
C5 C18 1.444(11) .
C5 C42 1.376(12) .
C6 C8 1.457(11) .
C7 C12 1.378(13) .
C7 C23 1.481(10) .
C8 C22 1.384(13) .
C10 C22 1.409(11) .
C10 C27 1.362(12) .
C12 C26 1.390(12) .
C16 O5 1.249(10) 1_455
C16 C27 1.488(10) .
C17 C32 1.487(10) .
C18 C33 1.388(12) .
C19 C19 1.443(16) 2_685
C19 C26 1.375(13) .
N21 C9 1.304(15) .
N21 C14 1.473(19) .
N21 C21 1.469(19) .
C24 C36 1.471(10) .
C24 C43 1.372(11) .
C25 C32 1.389(12) .
C28 C38 1.488(10) .
C33 C45 1.407(11) .
C35 C35 1.455(19) 2_785
C35 C46 1.366(14) .
C38 C45 1.353(12) .
C39 C41 1.377(13) .
C41 C46 1.420(13) .
C42 C43 1.406(11) .
O12 C9 1.233(13) .
