#------------------------------------------------------------------------------
#$Date: 2019-11-07 23:15:15 +0200 (Thu, 07 Nov 2019) $
#$Revision: 223970 $
#$URL: file:///home/coder/svn-repositories/cod/cif/7/04/86/7048684.cif $
#------------------------------------------------------------------------------
#
# This file is available in the Crystallography Open Database (COD),
# http://www.crystallography.net/
#
# All data on this site have been placed in the public domain by the
# contributors.
#
data_7048684
loop_
_publ_author_name
'Xu, Ning'
'Zhang, Qinghua'
'Zhang, Guoan'
_publ_section_title
;
 A carbazole-functionalized metal-organic framework for efficient
 detection of antibiotics, pesticides and nitroaromatic compounds.
;
_journal_issue                   8
_journal_name_full
'Dalton transactions (Cambridge, England : 2003)'
_journal_page_first              2683
_journal_page_last               2691
_journal_paper_doi               10.1039/c8dt04558e
_journal_volume                  48
_journal_year                    2019
_chemical_formula_sum            'C94 H84 Cd3 N6 O18'
_chemical_formula_weight         1922.87
_space_group_crystal_system      triclinic
_space_group_IT_number           2
_space_group_name_Hall           '-P 1'
_space_group_name_H-M_alt        'P -1'
_symmetry_space_group_name_Hall  '-P 1'
_symmetry_space_group_name_H-M   'P -1'
_atom_sites_solution_hydrogens   mixed
_audit_creation_method           SHELXL-2014/7
_audit_update_record
;
2018-09-07 deposited with the CCDC.
2019-01-21 downloaded from the CCDC.
;
_cell_angle_alpha                88.1000(10)
_cell_angle_beta                 82.4580(10)
_cell_angle_gamma                84.0750(10)
_cell_formula_units_Z            1
_cell_length_a                   13.3640(2)
_cell_length_b                   14.8268(3)
_cell_length_c                   17.2128(3)
_cell_measurement_reflns_used    8227
_cell_measurement_temperature    100(2)
_cell_measurement_theta_max      57.06
_cell_measurement_theta_min      2.59
_cell_volume                     3362.40(10)
_computing_cell_refinement       'Bruker SAINT'
_computing_data_collection       'Bruker APEX2'
_computing_data_reduction        'Bruker SAINT'
_computing_molecular_graphics    'Bruker SHELXTL'
_computing_publication_material  'Bruker SHELXTL'
_computing_structure_refinement  'SHELXL-2014/7 (Sheldrick, 2014)'
_computing_structure_solution    'SHELXS-97 (Sheldrick, 2008)'
_diffrn_ambient_temperature      100(2)
_diffrn_measured_fraction_theta_full 0.957
_diffrn_measured_fraction_theta_max 0.957
_diffrn_measurement_device_type  'Bruker APEX-II CCD'
_diffrn_measurement_method       '\f and \w scans'
_diffrn_radiation_type           CuK\a
_diffrn_radiation_wavelength     1.54178
_diffrn_reflns_av_unetI/netI     0.0461
_diffrn_reflns_Laue_measured_fraction_full 0.957
_diffrn_reflns_Laue_measured_fraction_max 0.957
_diffrn_reflns_number            9041
_diffrn_reflns_point_group_measured_fraction_full 0.957
_diffrn_reflns_point_group_measured_fraction_max 0.957
_diffrn_reflns_theta_full        58.209
_diffrn_reflns_theta_max         58.209
_diffrn_reflns_theta_min         2.590
_exptl_absorpt_coefficient_mu    4.149
_exptl_absorpt_correction_type   none
_exptl_crystal_colour            colorless
_exptl_crystal_density_diffrn    0.950
_exptl_crystal_description       block
_exptl_crystal_F_000             978
_exptl_crystal_size_max          0.120
_exptl_crystal_size_mid          0.100
_exptl_crystal_size_min          0.100
_refine_diff_density_max         1.183
_refine_diff_density_min         -0.607
_refine_diff_density_rms         0.064
_refine_ls_extinction_method     none
_refine_ls_goodness_of_fit_ref   0.960
_refine_ls_hydrogen_treatment    constr
_refine_ls_matrix_type           full
_refine_ls_number_parameters     553
_refine_ls_number_reflns         9041
_refine_ls_number_restraints     18
_refine_ls_restrained_S_all      0.973
_refine_ls_R_factor_all          0.0460
_refine_ls_R_factor_gt           0.0382
_refine_ls_shift/su_max          0.002
_refine_ls_shift/su_mean         0.000
_refine_ls_structure_factor_coef Fsqd
_refine_ls_weighting_details
'w=1/[\s^2^(Fo^2^)+(0.0662P)^2^] where P=(Fo^2^+2Fc^2^)/3'
_refine_ls_weighting_scheme      calc
_refine_ls_wR_factor_gt          0.0983
_refine_ls_wR_factor_ref         0.1019
_reflns_Friedel_coverage         0.000
_reflns_number_gt                7033
_reflns_number_total             9041
_reflns_threshold_expression     'I > 2\s(I)'
_cod_data_source_file            c8dt04558e2.cif
_cod_data_source_block           cu_171001A_0m
_cod_depositor_comments          'Adding full bibliography for 7048684.cif.'
_cod_database_code               7048684
_shelx_shelxl_version_number     2014/7
_shelx_space_group_comment
; 
The symmetry employed for this shelxl refinement is uniquely defined 
by the following loop, which should always be used as a source of 
symmetry information in preference to the above space-group names. 
They are only intended as comments. 
;
_shelx_estimated_absorpt_t_min   0.636
_shelx_estimated_absorpt_t_max   0.682
_shelx_res_file
; 
  
    cu_171001A_0m.res created by SHELXL-2014/7 
  
TITL cu_171001A_0m in P-1 
CELL 1.54178  13.3640  14.8268  17.2128  88.100  82.458  84.075 
ZERR   1.00   0.0002   0.0003   0.0003   0.001   0.001   0.001 
LATT 1 
SFAC C  H  N  O  Cd 
UNIT 94  84  6  18  3 
L.S. 4 
ACTA 
BOND $H 
FMAP 2 
PLAN 50 
SIZE 0.12 0.10 0.10 
CONF 
HTAB 
FREE C13  Cd2 
ISOR 0.01 0.02 C40 C46 C47 
TEMP -173.000 
WGHT    0.066200 
FVAR      10.21799 
CD1   5    1.000000    0.500000    0.500000    10.50000    0.03763    0.05869 = 
         0.03257   -0.01365   -0.01544    0.00669 
CD2   5    0.823005    0.590786    0.659829    11.00000    0.04080    0.05438 = 
         0.04027   -0.01714   -0.01760    0.00885 
C1    1    0.711153    0.475328    0.472018    11.00000    0.04440    0.06448 = 
         0.03492   -0.01268   -0.01509   -0.00178 
C2    1    0.764224    0.404422    0.429439    11.00000    0.04563    0.06314 = 
         0.04600   -0.00824   -0.01769    0.00095 
AFIX  43 
H2    2    0.826026    0.376773    0.444974    11.00000   -1.20000 
AFIX   0 
C3    1    0.728785    0.373281    0.364808    11.00000    0.04552    0.05819 = 
         0.04630   -0.01596   -0.01892    0.00420 
AFIX  43 
H3    2    0.766434    0.324402    0.336311    11.00000   -1.20000 
AFIX   0 
C4    1    0.638615    0.412385    0.340643    11.00000    0.04017    0.06259 = 
         0.04438   -0.01281   -0.01575   -0.00193 
C5    1    0.583630    0.482002    0.384968    11.00000    0.03948    0.07030 = 
         0.04654   -0.02113   -0.02005    0.00304 
AFIX  43 
H5    2    0.520666    0.508240    0.370491    11.00000   -1.20000 
AFIX   0 
C6    1    0.619483    0.513652    0.450039    11.00000    0.03818    0.07123 = 
         0.04908   -0.01785   -0.01720    0.00444 
AFIX  43 
H6    2    0.581350    0.561512    0.479545    11.00000   -1.20000 
AFIX   0 
C7    1    0.604213    0.382251    0.267608    11.00000    0.04574    0.05482 = 
         0.04167   -0.01469   -0.02333   -0.00004 
C8    1    0.675033    0.353581    0.205593    11.00000    0.04603    0.06020 = 
         0.03808   -0.00942   -0.01883    0.00040 
AFIX  43 
H8    2    0.745093    0.354324    0.209876    11.00000   -1.20000 
AFIX   0 
C9    1    0.646423    0.323681    0.137100    11.00000    0.04386    0.05555 = 
         0.04211   -0.00868   -0.01360    0.00246 
AFIX  43 
H9    2    0.696265    0.305136    0.094580    11.00000   -1.20000 
AFIX   0 
C10   1    0.544035    0.321130    0.131312    11.00000    0.05194    0.04728 = 
         0.03909   -0.01167   -0.02261    0.00469 
C11   1    0.470621    0.351264    0.192563    11.00000    0.04916    0.06161 = 
         0.04117   -0.01542   -0.01665    0.00520 
AFIX  43 
H11   2    0.400556    0.350527    0.188294    11.00000   -1.20000 
AFIX   0 
C12   1    0.501465    0.382312    0.259781    11.00000    0.04801    0.06974 = 
         0.04159   -0.02036   -0.01744    0.00503 
AFIX  43 
H12   2    0.451799    0.404054    0.301332    11.00000   -1.20000 
AFIX   0 
C13   1    0.752018    0.513328    0.539123    11.00000    0.03992    0.06492 = 
         0.04121   -0.00631   -0.01324   -0.00464 
C14   1    0.554713    0.203709    0.028686    11.00000    0.05123    0.05021 = 
         0.04609   -0.01341   -0.01910    0.00802 
C15   1    0.626353    0.136923    0.053642    11.00000    0.05567    0.05421 = 
         0.05362   -0.01642   -0.02951    0.00840 
AFIX  43 
H15   2    0.654490    0.142616    0.100930    11.00000   -1.20000 
AFIX   0 
C16   1    0.654109    0.063020    0.006913    11.00000    0.05143    0.04803 = 
         0.05717   -0.01252   -0.02014    0.01132 
AFIX  43 
H16   2    0.701455    0.016612    0.023724    11.00000   -1.20000 
AFIX   0 
C17   1    0.617158    0.052060   -0.063371    11.00000    0.05494    0.04786 = 
         0.04792   -0.01472   -0.01697    0.00793 
C18   1    0.543424    0.117929   -0.086930    11.00000    0.05114    0.05349 = 
         0.04676   -0.01627   -0.01650    0.00346 
AFIX  43 
H18   2    0.514756    0.111210   -0.133820    11.00000   -1.20000 
AFIX   0 
C19   1    0.513086    0.193269   -0.040328    11.00000    0.04279    0.05545 = 
         0.04301   -0.01510   -0.01662    0.00410 
C20   1    0.441933    0.272169   -0.048427    11.00000    0.04333    0.04963 = 
         0.03666   -0.01136   -0.01649    0.00469 
C21   1    0.446916    0.328626    0.014943    11.00000    0.04363    0.05322 = 
         0.04244   -0.01249   -0.02148    0.00654 
C22   1    0.392625    0.414152    0.020751    11.00000    0.05292    0.05585 = 
         0.04278   -0.01664   -0.02181    0.00764 
AFIX  43 
H22   2    0.397576    0.453062    0.062540    11.00000   -1.20000 
AFIX   0 
C23   1    0.331834    0.440136   -0.035964    11.00000    0.05036    0.05270 = 
         0.04997   -0.01348   -0.02477    0.01137 
AFIX  43 
H23   2    0.294543    0.498309   -0.032824    11.00000   -1.20000 
AFIX   0 
C24   1    0.322312    0.384468   -0.098499    11.00000    0.04300    0.05557 = 
         0.03676   -0.00994   -0.01791    0.00787 
C25   1    0.378875    0.300451   -0.104403    11.00000    0.05443    0.05451 = 
         0.03764   -0.01412   -0.02053    0.00386 
AFIX  43 
H25   2    0.374429    0.262259   -0.146801    11.00000   -1.20000 
AFIX   0 
C26   1    0.652821   -0.028057   -0.113253    11.00000    0.05515    0.05132 = 
         0.05251   -0.01390   -0.01814    0.00705 
C27   1    0.677807   -0.111797   -0.080908    11.00000    0.05770    0.05208 = 
         0.05501   -0.01565   -0.01409    0.00355 
AFIX  43 
H27   2    0.670535   -0.119017   -0.025470    11.00000   -1.20000 
AFIX   0 
C28   1    0.713372   -0.186152   -0.126917    11.00000    0.06022    0.05130 = 
         0.05975   -0.01067   -0.01191    0.00352 
AFIX  43 
H28   2    0.731041   -0.243114   -0.102812    11.00000   -1.20000 
AFIX   0 
C29   1    0.723152   -0.177982   -0.206691    11.00000    0.05408    0.05092 = 
         0.05879   -0.02043   -0.01313    0.00603 
C30   1    0.698221   -0.093483   -0.241134    11.00000    0.08884    0.06650 = 
         0.05462   -0.01808   -0.01693    0.01233 
AFIX  43 
H30   2    0.705990   -0.086408   -0.296588    11.00000   -1.20000 
AFIX   0 
C31   1    0.662194   -0.020098   -0.194362    11.00000    0.09352    0.05668 = 
         0.05573   -0.01198   -0.01686    0.01529 
AFIX  43 
H31   2    0.643525    0.036793   -0.218194    11.00000   -1.20000 
AFIX   0 
C32   1    0.253720    0.413788   -0.158167    11.00000    0.04496    0.04986 = 
         0.04161   -0.00850   -0.01599    0.00532 
C33   1    0.270646    0.380250   -0.233459    11.00000    0.04290    0.06190 = 
         0.04903   -0.01122   -0.01509    0.00819 
AFIX  43 
H33   2    0.329054    0.339327   -0.248241    11.00000   -1.20000 
AFIX   0 
C34   1    0.204577    0.404969   -0.287399    11.00000    0.04839    0.06153 = 
         0.03646   -0.00884   -0.01766    0.01047 
AFIX  43 
H34   2    0.217349    0.379714   -0.338173    11.00000   -1.20000 
AFIX   0 
C35   1    0.120028    0.465964   -0.268663    11.00000    0.03745    0.05954 = 
         0.04114   -0.00598   -0.01694   -0.00085 
C36   1    0.104050    0.503224   -0.194812    11.00000    0.04513    0.06379 = 
         0.04275   -0.01388   -0.01917    0.01121 
AFIX  43 
H36   2    0.047974    0.547138   -0.181427    11.00000   -1.20000 
AFIX   0 
C37   1    0.169616    0.476650   -0.140358    11.00000    0.04941    0.06415 = 
         0.04110   -0.01383   -0.02037    0.00538 
AFIX  43 
H37   2    0.156840    0.501969   -0.089609    11.00000   -1.20000 
AFIX   0 
C38   1    0.762142   -0.259440   -0.256927    11.00000    0.04556    0.06692 = 
         0.05486   -0.02638   -0.01589    0.00327 
C39   1    0.047351    0.492823   -0.327217    11.00000    0.04284    0.05455 = 
         0.04745   -0.00546   -0.01229    0.00283 
C40   1    0.602223    0.375680    0.789190    11.00000    0.13079    0.18898 = 
         0.10467    0.03328   -0.07508   -0.09351 
AFIX 137 
H40A  2    0.538540    0.400905    0.819039    11.00000   -1.50000 
H40B  2    0.600629    0.310354    0.783256    11.00000   -1.50000 
H40C  2    0.610567    0.405278    0.737312    11.00000   -1.50000 
AFIX   0 
C41   1    0.691166    0.346759    0.909721    11.00000    0.09137    0.09159 = 
         0.06482    0.01250   -0.01000   -0.02417 
AFIX 137 
H41A  2    0.753380    0.357579    0.930869    11.00000   -1.50000 
H41B  2    0.688926    0.281405    0.904499    11.00000   -1.50000 
H41C  2    0.632068    0.371307    0.945336    11.00000   -1.50000 
AFIX   0 
C42   1    0.754310    0.445701    0.798991    11.00000    0.07320    0.07382 = 
         0.08137   -0.01890    0.00158   -0.00248 
C43   1    0.836070    0.466867    0.846777    11.00000    0.05429    0.09591 = 
         0.06346   -0.00216   -0.02621   -0.01115 
AFIX 137 
H43A  2    0.882501    0.505002    0.815414    11.00000   -1.50000 
H43B  2    0.873897    0.410211    0.861809    11.00000   -1.50000 
H43C  2    0.804729    0.499089    0.894036    11.00000   -1.50000 
AFIX   0 
C44   1   -0.055304    0.655105    0.975376    11.00000    0.09587    0.12227 = 
         0.15809   -0.03391   -0.00148   -0.02142 
AFIX 137 
H44A  2   -0.087642    0.675939    0.929195    11.00000   -1.50000 
H44B  2   -0.104424    0.664470    1.022635    11.00000   -1.50000 
H44C  2   -0.031790    0.590446    0.970781    11.00000   -1.50000 
AFIX   0 
C45   1    0.033765    0.708074    0.980783    11.00000    0.09148    0.08557 = 
         0.13906   -0.00200   -0.02272    0.01345 
C46   1    0.098151    0.852898    0.999261    11.00000    0.14219    0.18827 = 
         0.38656   -0.03025   -0.07808   -0.06770 
AFIX 137 
H46A  2    0.158751    0.814047    1.010278    11.00000   -1.50000 
H46B  2    0.077195    0.895489    1.042072    11.00000   -1.50000 
H46C  2    0.113486    0.886803    0.950024    11.00000   -1.50000 
AFIX   0 
C47   1   -0.089989    0.847737    1.007450    11.00000    0.14916    0.24349 = 
         0.40668   -0.06547   -0.08160    0.07020 
AFIX 137 
H47A  2   -0.107078    0.878442    0.958927    11.00000   -1.50000 
H47B  2   -0.089895    0.892855    1.047772    11.00000   -1.50000 
H47C  2   -0.140366    0.805517    1.025434    11.00000   -1.50000 
AFIX   0 
N1    3    0.514692    0.285265    0.062302    11.00000    0.04944    0.04960 = 
         0.04305   -0.01572   -0.02382    0.01031 
N2    3    0.689848    0.391843    0.832231    11.00000    0.10785    0.09918 = 
         0.08076    0.00110   -0.01174   -0.02590 
N3    3    0.014504    0.795622    0.992276    11.00000    0.09451    0.14349 = 
         0.24696   -0.01949   -0.06614    0.00458 
O1    4    0.838719    0.479130    0.556874    11.00000    0.04116    0.07518 = 
         0.03804   -0.01623   -0.01909   -0.00008 
O2    4    0.702316    0.577203    0.577379    11.00000    0.04815    0.06666 = 
         0.05140   -0.02421   -0.02124    0.00714 
O3    4    0.782821   -0.332959   -0.223084    11.00000    0.08099    0.05634 = 
         0.06339   -0.02279   -0.01915    0.01719 
O4    4    0.769292   -0.251783   -0.329746    11.00000    0.08637    0.06234 = 
         0.06342   -0.03247   -0.01857    0.01905 
O5    4    0.063091    0.453777   -0.391633    11.00000    0.04819    0.06746 = 
         0.03916   -0.01511   -0.01990    0.00664 
O6    4   -0.024293    0.551893   -0.305853    11.00000    0.04610    0.07931 = 
         0.05001   -0.01525   -0.02059    0.01645 
O7    4    0.745404    0.477708    0.732113    11.00000    0.08622    0.08733 = 
         0.04372    0.00009   -0.01648   -0.02231 
O8    4    0.944401    0.646963    0.545695    11.00000    0.06380    0.05509 = 
         0.05753   -0.01099   -0.01516    0.00814 
AFIX   3 
H8A   2    0.909505    0.685998    0.507401    11.00000   -1.50000 
H8B   2    0.999370    0.678717    0.562779    11.00000   -1.50000 
AFIX   0 
O9    4    0.119194    0.673176    0.975791    11.00000    0.07617    0.12690 = 
         0.12240   -0.02477   -0.01978    0.01630 
HKLF 4 
  
REM  cu_171001A_0m in P-1 
REM R1 =  0.0382 for    7033 Fo > 4sig(Fo)  and  0.0460 for all    9041 data 
REM    553 parameters refined using     18 restraints 
  
END 
  
WGHT      0.0662      0.0000 
  
REM Instructions for potential hydrogen bonds 
EQIV $1 -x+1, -y+1, -z+1 
HTAB C9 O9_$1 
EQIV $2 -x+1, -y, -z 
HTAB C11 O3_$2 
EQIV $3 -x+1, -y+1, -z+2 
HTAB C41 O9_$3 
EQIV $4 x+1, y, z+1 
HTAB C43 O6_$4 
  
REM Highest difference peak  1.183,  deepest hole -0.607,  1-sigma level  0.064 
Q1    1   0.7841  0.5416  0.6960  11.00000  0.05    1.18 
Q2    1   0.9347  0.7245  0.5315  11.00000  0.05    0.96 
Q3    1   0.8789  0.6238  0.6050  11.00000  0.05    0.67 
Q4    1   0.9973  0.5797  0.4958  11.00000  0.05    0.67 
Q5    1   1.0400  0.5566  0.4647  11.00000  0.05    0.67 
Q6    1   1.0537  0.5398  0.4550  11.00000  0.05    0.65 
Q7    1   0.7556  0.4055  0.8538  11.00000  0.05    0.45 
Q8    1   0.8072  0.6611  0.6655  11.00000  0.05    0.44 
Q9    1   0.9993  0.6719  0.5053  11.00000  0.05    0.42 
Q10   1   0.6871  0.4335  0.7771  11.00000  0.05    0.42 
Q11   1   0.8629  0.5380  0.6202  11.00000  0.05    0.39 
Q12   1   0.0363  0.7585  0.9115  11.00000  0.05    0.37 
Q13   1   0.1140  0.7922  0.9179  11.00000  0.05    0.34 
Q14   1  -0.0839  0.8559  1.0998  11.00000  0.05    0.29 
Q15   1   0.3650  0.3199  0.1908  11.00000  0.05    0.28 
Q16   1  -0.0456  0.7346  1.0045  11.00000  0.05    0.27 
Q17   1   0.0940  0.8507  0.9771  11.00000  0.05    0.27 
Q18   1   0.6985  0.5286  0.5860  11.00000  0.05    0.27 
Q19   1   0.7704 -0.1959 -0.3064  11.00000  0.05    0.27 
Q20   1   0.5946  0.4020  0.8110  11.00000  0.05    0.27 
Q21   1  -0.0595  0.8598  0.9232  11.00000  0.05    0.26 
Q22   1   0.7119 -0.3170 -0.2431  11.00000  0.05    0.26 
Q23   1   0.7172 -0.3814 -0.1912  11.00000  0.05    0.25 
Q24   1   0.7150  0.5364  0.7736  11.00000  0.05    0.25 
Q25   1   0.6835  0.6409  0.5736  11.00000  0.05    0.25 
Q26   1   0.8566  0.4383  0.4301  11.00000  0.05    0.24 
Q27   1  -0.0606  0.5098 -0.2622  11.00000  0.05    0.23 
Q28   1   0.5481  0.2271  0.0509  11.00000  0.05    0.23 
Q29   1   0.3939  0.3965  0.1627  11.00000  0.05    0.23 
Q30   1   0.7172  0.5821  0.5464  11.00000  0.05    0.22 
Q31   1   0.1134  0.8760  0.9052  11.00000  0.05    0.21 
Q32   1   0.4806  0.1807 -0.0380  11.00000  0.05    0.21 
Q33   1   0.5773  0.2954  0.0061  11.00000  0.05    0.21 
Q34   1   0.7838 -0.4211 -0.1750  11.00000  0.05    0.20 
Q35   1   0.6410  0.3279  0.2575  11.00000  0.05    0.20 
Q36   1   0.0359  0.5795 -0.3716  11.00000  0.05    0.20 
Q37   1   0.6584 -0.1403 -0.2117  11.00000  0.05    0.20 
Q38   1   0.8761 -0.3251 -0.2319  11.00000  0.05    0.19 
Q39   1   0.8460 -0.2788 -0.4052  11.00000  0.05    0.19 
Q40   1   0.3375  0.3811  0.2229  11.00000  0.05    0.19 
Q41   1   0.1131  0.8711  1.1002  11.00000  0.05    0.19 
Q42   1   0.5326  0.0538 -0.0472  11.00000  0.05    0.19 
Q43   1   0.8757  0.4632  0.7435  11.00000  0.05    0.19 
Q44   1   0.5894 -0.0975 -0.1520  11.00000  0.05    0.19 
Q45   1   0.6576  0.3220  0.7876  11.00000  0.05    0.19 
Q46   1   0.7236 -0.0328 -0.1264  11.00000  0.05    0.19 
Q47   1   0.6369  0.0023 -0.0813  11.00000  0.05    0.19 
Q48   1   0.6955  0.0600 -0.2290  11.00000  0.05    0.19 
Q49   1   0.7349  0.3464  0.7936  11.00000  0.05    0.18 
Q50   1  -0.0007  0.8908  1.0873  11.00000  0.05    0.18 
;
_shelx_res_checksum              93477
loop_
_space_group_symop_operation_xyz
'x, y, z'
'-x, -y, -z'
loop_
_atom_site_label
_atom_site_type_symbol
_atom_site_fract_x
_atom_site_fract_y
_atom_site_fract_z
_atom_site_U_iso_or_equiv
_atom_site_adp_type
_atom_site_occupancy
_atom_site_site_symmetry_order
_atom_site_calc_flag
_atom_site_refinement_flags_posn
_atom_site_refinement_flags_adp
_atom_site_refinement_flags_occupancy
Cd1 Cd 1.0000 0.5000 0.5000 0.04251(11) Uani 1 2 d S . P
Cd2 Cd 0.82301(2) 0.59079(2) 0.65983(2) 0.04463(10) Uani 1 1 d . . .
C1 C 0.7112(3) 0.4753(2) 0.47202(19) 0.0470(9) Uani 1 1 d . . .
C2 C 0.7642(3) 0.4044(3) 0.4294(2) 0.0508(9) Uani 1 1 d . . .
H2 H 0.8260 0.3768 0.4450 0.061 Uiso 1 1 calc R U .
C3 C 0.7288(3) 0.3733(2) 0.3648(2) 0.0492(9) Uani 1 1 d . . .
H3 H 0.7664 0.3244 0.3363 0.059 Uiso 1 1 calc R U .
C4 C 0.6386(3) 0.4124(2) 0.3406(2) 0.0481(9) Uani 1 1 d . . .
C5 C 0.5836(3) 0.4820(3) 0.3850(2) 0.0510(9) Uani 1 1 d . . .
H5 H 0.5207 0.5082 0.3705 0.061 Uiso 1 1 calc R U .
C6 C 0.6195(3) 0.5137(3) 0.4500(2) 0.0521(9) Uani 1 1 d . . .
H6 H 0.5813 0.5615 0.4795 0.063 Uiso 1 1 calc R U .
C7 C 0.6042(3) 0.3823(2) 0.2676(2) 0.0459(8) Uani 1 1 d . . .
C8 C 0.6750(3) 0.3536(2) 0.20559(19) 0.0471(9) Uani 1 1 d . . .
H8 H 0.7451 0.3543 0.2099 0.057 Uiso 1 1 calc R U .
C9 C 0.6464(3) 0.3237(2) 0.1371(2) 0.0468(9) Uani 1 1 d . . .
H9 H 0.6963 0.3051 0.0946 0.056 Uiso 1 1 calc R U .
C10 C 0.5440(3) 0.3211(2) 0.13131(19) 0.0450(8) Uani 1 1 d . . .
C11 C 0.4706(3) 0.3513(2) 0.1926(2) 0.0501(9) Uani 1 1 d . . .
H11 H 0.4006 0.3505 0.1883 0.060 Uiso 1 1 calc R U .
C12 C 0.5015(3) 0.3823(3) 0.2598(2) 0.0524(9) Uani 1 1 d . . .
H12 H 0.4518 0.4041 0.3013 0.063 Uiso 1 1 calc R U .
C13 C 0.7520(3) 0.5133(3) 0.5391(2) 0.0479(9) Uani 1 1 d . . .
C14 C 0.5547(3) 0.2037(2) 0.0287(2) 0.0487(9) Uani 1 1 d . . .
C15 C 0.6264(3) 0.1369(2) 0.0536(2) 0.0531(9) Uani 1 1 d . . .
H15 H 0.6545 0.1426 0.1009 0.064 Uiso 1 1 calc R U .
C16 C 0.6541(3) 0.0630(2) 0.0069(2) 0.0519(9) Uani 1 1 d . . .
H16 H 0.7015 0.0166 0.0237 0.062 Uiso 1 1 calc R U .
C17 C 0.6172(3) 0.0521(2) -0.0634(2) 0.0499(9) Uani 1 1 d . . .
C18 C 0.5434(3) 0.1179(2) -0.0869(2) 0.0498(9) Uani 1 1 d . . .
H18 H 0.5148 0.1112 -0.1338 0.060 Uiso 1 1 calc R U .
C19 C 0.5131(3) 0.1933(2) -0.0403(2) 0.0464(9) Uani 1 1 d . . .
C20 C 0.4419(3) 0.2722(2) -0.04843(19) 0.0426(8) Uani 1 1 d . . .
C21 C 0.4469(3) 0.3286(2) 0.0149(2) 0.0455(8) Uani 1 1 d . . .
C22 C 0.3926(3) 0.4142(2) 0.0208(2) 0.0497(9) Uani 1 1 d . . .
H22 H 0.3976 0.4531 0.0625 0.060 Uiso 1 1 calc R U .
C23 C 0.3318(3) 0.4401(2) -0.0360(2) 0.0502(9) Uani 1 1 d . . .
H23 H 0.2945 0.4983 -0.0328 0.060 Uiso 1 1 calc R U .
C24 C 0.3223(3) 0.3845(2) -0.09850(19) 0.0447(8) Uani 1 1 d . . .
C25 C 0.3789(3) 0.3005(2) -0.1044(2) 0.0479(9) Uani 1 1 d . . .
H25 H 0.3744 0.2623 -0.1468 0.057 Uiso 1 1 calc R U .
C26 C 0.6528(3) -0.0281(2) -0.1133(2) 0.0526(9) Uani 1 1 d . . .
C27 C 0.6778(3) -0.1118(2) -0.0809(2) 0.0546(10) Uani 1 1 d . . .
H27 H 0.6705 -0.1190 -0.0255 0.066 Uiso 1 1 calc R U .
C28 C 0.7134(3) -0.1862(3) -0.1269(2) 0.0571(10) Uani 1 1 d . . .
H28 H 0.7310 -0.2431 -0.1028 0.069 Uiso 1 1 calc R U .
C29 C 0.7232(3) -0.1780(2) -0.2067(2) 0.0544(9) Uani 1 1 d . . .
C30 C 0.6982(4) -0.0935(3) -0.2411(2) 0.0703(12) Uani 1 1 d . . .
H30 H 0.7060 -0.0864 -0.2966 0.084 Uiso 1 1 calc R U .
C31 C 0.6622(4) -0.0201(3) -0.1944(2) 0.0693(12) Uani 1 1 d . . .
H31 H 0.6435 0.0368 -0.2182 0.083 Uiso 1 1 calc R U .
C32 C 0.2537(3) 0.4138(2) -0.15817(19) 0.0451(8) Uani 1 1 d . . .
C33 C 0.2706(3) 0.3803(3) -0.2335(2) 0.0512(9) Uani 1 1 d . . .
H33 H 0.3291 0.3393 -0.2482 0.061 Uiso 1 1 calc R U .
C34 C 0.2046(3) 0.4050(2) -0.2874(2) 0.0486(9) Uani 1 1 d . . .
H34 H 0.2173 0.3797 -0.3382 0.058 Uiso 1 1 calc R U .
C35 C 0.1200(3) 0.4660(2) -0.2687(2) 0.0451(8) Uani 1 1 d . . .
C36 C 0.1040(3) 0.5032(3) -0.1948(2) 0.0502(9) Uani 1 1 d . . .
H36 H 0.0480 0.5471 -0.1814 0.060 Uiso 1 1 calc R U .
C37 C 0.1696(3) 0.4766(2) -0.1404(2) 0.0507(9) Uani 1 1 d . . .
H37 H 0.1568 0.5020 -0.0896 0.061 Uiso 1 1 calc R U .
C38 C 0.7621(3) -0.2594(3) -0.2569(2) 0.0550(10) Uani 1 1 d . . .
C39 C 0.0474(3) 0.4928(2) -0.3272(2) 0.0481(9) Uani 1 1 d . . .
C40 C 0.6022(5) 0.3757(5) 0.7892(4) 0.131(3) Uani 1 1 d . U .
H40A H 0.5385 0.4009 0.8190 0.197 Uiso 1 1 calc R U .
H40B H 0.6006 0.3104 0.7833 0.197 Uiso 1 1 calc R U .
H40C H 0.6106 0.4053 0.7373 0.197 Uiso 1 1 calc R U .
C41 C 0.6912(4) 0.3468(3) 0.9097(3) 0.0819(14) Uani 1 1 d . . .
H41A H 0.7534 0.3576 0.9309 0.123 Uiso 1 1 calc R U .
H41B H 0.6889 0.2814 0.9045 0.123 Uiso 1 1 calc R U .
H41C H 0.6321 0.3713 0.9453 0.123 Uiso 1 1 calc R U .
C42 C 0.7543(4) 0.4457(3) 0.7990(3) 0.0771(13) Uani 1 1 d . . .
C43 C 0.8361(3) 0.4669(3) 0.8468(3) 0.0693(12) Uani 1 1 d . . .
H43A H 0.8825 0.5050 0.8154 0.104 Uiso 1 1 calc R U .
H43B H 0.8739 0.4102 0.8618 0.104 Uiso 1 1 calc R U .
H43C H 0.8047 0.4991 0.8940 0.104 Uiso 1 1 calc R U .
C44 C -0.0553(5) 0.6551(4) 0.9754(4) 0.125(2) Uani 1 1 d . . .
H44A H -0.0876 0.6759 0.9292 0.188 Uiso 1 1 calc R U .
H44B H -0.1044 0.6645 1.0226 0.188 Uiso 1 1 calc R U .
H44C H -0.0318 0.5904 0.9708 0.188 Uiso 1 1 calc R U .
C45 C 0.0338(5) 0.7081(4) 0.9808(4) 0.1062(19) Uani 1 1 d . . .
C46 C 0.0982(7) 0.8529(6) 0.9993(8) 0.231(5) Uani 1 1 d . U .
H46A H 0.1588 0.8140 1.0103 0.346 Uiso 1 1 calc R U .
H46B H 0.0772 0.8955 1.0421 0.346 Uiso 1 1 calc R U .
H46C H 0.1135 0.8868 0.9500 0.346 Uiso 1 1 calc R U .
C47 C -0.0900(8) 0.8477(8) 1.0074(9) 0.267(6) Uani 1 1 d . U .
H47A H -0.1071 0.8784 0.9589 0.401 Uiso 1 1 calc R U .
H47B H -0.0899 0.8929 1.0478 0.401 Uiso 1 1 calc R U .
H47C H -0.1404 0.8055 1.0254 0.401 Uiso 1 1 calc R U .
N1 N 0.5147(2) 0.28527(18) 0.06230(16) 0.0465(7) Uani 1 1 d . . .
N2 N 0.6898(4) 0.3918(3) 0.8322(2) 0.0949(13) Uani 1 1 d . . .
N3 N 0.0145(5) 0.7956(5) 0.9923(5) 0.159(3) Uani 1 1 d . . .
O1 O 0.83872(18) 0.47913(17) 0.55687(13) 0.0503(6) Uani 1 1 d . . .
O2 O 0.70232(19) 0.57720(17) 0.57738(14) 0.0545(6) Uani 1 1 d . . .
O3 O 0.7828(2) -0.33296(19) -0.22308(16) 0.0672(8) Uani 1 1 d . . .
O4 O 0.7693(2) -0.25178(18) -0.32975(17) 0.0711(8) Uani 1 1 d . . .
O5 O 0.06309(18) 0.45378(17) -0.39163(13) 0.0509(6) Uani 1 1 d . . .
O6 O -0.02429(19) 0.55189(19) -0.30585(14) 0.0585(7) Uani 1 1 d . . .
O7 O 0.7454(2) 0.4777(2) 0.73211(16) 0.0708(8) Uani 1 1 d . . .
O8 O 0.9444(2) 0.64696(17) 0.54570(15) 0.0589(7) Uani 1 1 d . . .
H8A H 0.9095 0.6860 0.5074 0.088 Uiso 1 1 d R U .
H8B H 0.9994 0.6787 0.5628 0.088 Uiso 1 1 d R U .
O9 O 0.1192(3) 0.6732(3) 0.9758(2) 0.1092(12) Uani 1 1 d . . .
loop_
_atom_site_aniso_label
_atom_site_aniso_U_11
_atom_site_aniso_U_22
_atom_site_aniso_U_33
_atom_site_aniso_U_23
_atom_site_aniso_U_13
_atom_site_aniso_U_12
Cd1 0.0376(2) 0.0587(2) 0.03257(18) -0.01365(15) -0.01544(15) 0.00669(15)
Cd2 0.04080(16) 0.05438(17) 0.04027(15) -0.01714(11) -0.01760(11) 0.00885(11)
C1 0.044(2) 0.064(2) 0.0349(18) -0.0127(16) -0.0151(17) -0.0018(18)
C2 0.046(2) 0.063(2) 0.046(2) -0.0082(18) -0.0177(18) 0.0010(18)
C3 0.046(2) 0.058(2) 0.046(2) -0.0160(17) -0.0189(18) 0.0042(17)
C4 0.040(2) 0.063(2) 0.044(2) -0.0128(17) -0.0158(17) -0.0019(17)
C5 0.039(2) 0.070(2) 0.047(2) -0.0211(18) -0.0201(18) 0.0030(18)
C6 0.038(2) 0.071(2) 0.049(2) -0.0179(18) -0.0172(18) 0.0044(18)
C7 0.046(2) 0.055(2) 0.042(2) -0.0147(16) -0.0233(18) 0.0000(16)
C8 0.046(2) 0.060(2) 0.038(2) -0.0094(16) -0.0188(18) 0.0004(17)
C9 0.044(2) 0.056(2) 0.042(2) -0.0087(16) -0.0136(17) 0.0025(17)
C10 0.052(2) 0.047(2) 0.0391(19) -0.0117(15) -0.0226(18) 0.0047(16)
C11 0.049(2) 0.062(2) 0.041(2) -0.0154(17) -0.0167(18) 0.0052(18)
C12 0.048(2) 0.070(2) 0.042(2) -0.0204(17) -0.0174(18) 0.0050(18)
C13 0.040(2) 0.065(2) 0.041(2) -0.0063(18) -0.0132(18) -0.0046(18)
C14 0.051(2) 0.050(2) 0.046(2) -0.0134(16) -0.0191(19) 0.0080(17)
C15 0.056(2) 0.054(2) 0.054(2) -0.0164(18) -0.030(2) 0.0084(18)
C16 0.051(2) 0.048(2) 0.057(2) -0.0125(17) -0.020(2) 0.0113(17)
C17 0.055(2) 0.048(2) 0.048(2) -0.0147(16) -0.0170(19) 0.0079(17)
C18 0.051(2) 0.053(2) 0.047(2) -0.0163(17) -0.0165(18) 0.0035(18)
C19 0.043(2) 0.055(2) 0.043(2) -0.0151(16) -0.0166(17) 0.0041(17)
C20 0.043(2) 0.050(2) 0.0367(18) -0.0114(15) -0.0165(16) 0.0047(16)
C21 0.044(2) 0.053(2) 0.0424(19) -0.0125(16) -0.0215(17) 0.0065(17)
C22 0.053(2) 0.056(2) 0.043(2) -0.0166(16) -0.0218(18) 0.0076(18)
C23 0.050(2) 0.053(2) 0.050(2) -0.0135(17) -0.0248(19) 0.0114(17)
C24 0.043(2) 0.056(2) 0.0368(18) -0.0099(16) -0.0179(16) 0.0079(17)
C25 0.054(2) 0.055(2) 0.0376(19) -0.0141(16) -0.0205(18) 0.0039(18)
C26 0.055(2) 0.051(2) 0.053(2) -0.0139(17) -0.0181(19) 0.0070(18)
C27 0.058(2) 0.052(2) 0.055(2) -0.0156(18) -0.014(2) 0.0036(19)
C28 0.060(3) 0.051(2) 0.060(2) -0.0107(18) -0.012(2) 0.0035(19)
C29 0.054(2) 0.051(2) 0.059(2) -0.0204(18) -0.013(2) 0.0060(18)
C30 0.089(3) 0.066(3) 0.055(2) -0.018(2) -0.017(2) 0.012(2)
C31 0.094(3) 0.057(2) 0.056(2) -0.0120(19) -0.017(2) 0.015(2)
C32 0.045(2) 0.050(2) 0.0416(19) -0.0085(16) -0.0160(17) 0.0053(17)
C33 0.043(2) 0.062(2) 0.049(2) -0.0112(17) -0.0151(18) 0.0082(17)
C34 0.048(2) 0.062(2) 0.0365(18) -0.0088(16) -0.0177(17) 0.0105(18)
C35 0.037(2) 0.060(2) 0.0411(19) -0.0060(16) -0.0169(16) -0.0009(17)
C36 0.045(2) 0.064(2) 0.043(2) -0.0139(17) -0.0192(18) 0.0112(18)
C37 0.049(2) 0.064(2) 0.0411(19) -0.0138(17) -0.0204(18) 0.0054(18)
C38 0.046(2) 0.067(3) 0.055(3) -0.026(2) -0.016(2) 0.0033(19)
C39 0.043(2) 0.055(2) 0.047(2) -0.0055(18) -0.0123(18) 0.0028(18)
C40 0.131(5) 0.189(6) 0.105(4) 0.033(4) -0.075(4) -0.094(5)
C41 0.091(4) 0.092(3) 0.065(3) 0.012(2) -0.010(3) -0.024(3)
C42 0.073(3) 0.074(3) 0.081(3) -0.019(3) 0.002(3) -0.002(3)
C43 0.054(3) 0.096(3) 0.063(3) -0.002(2) -0.026(2) -0.011(2)
C44 0.096(5) 0.122(5) 0.158(6) -0.034(4) -0.001(4) -0.021(4)
C45 0.091(5) 0.086(4) 0.139(5) -0.002(4) -0.023(4) 0.013(4)
C46 0.142(7) 0.188(8) 0.387(14) -0.030(9) -0.078(9) -0.068(7)
C47 0.149(8) 0.243(11) 0.407(15) -0.065(11) -0.082(10) 0.070(8)
N1 0.0494(18) 0.0496(17) 0.0430(16) -0.0157(13) -0.0238(15) 0.0103(14)
N2 0.108(4) 0.099(3) 0.081(3) 0.001(2) -0.012(3) -0.026(3)
N3 0.095(4) 0.143(5) 0.247(8) -0.019(5) -0.066(5) 0.005(4)
O1 0.0412(14) 0.0752(16) 0.0380(13) -0.0162(11) -0.0191(11) -0.0001(12)
O2 0.0482(15) 0.0667(16) 0.0514(14) -0.0242(13) -0.0212(13) 0.0071(13)
O3 0.081(2) 0.0563(17) 0.0634(17) -0.0228(14) -0.0192(15) 0.0172(15)
O4 0.086(2) 0.0623(17) 0.0634(19) -0.0325(14) -0.0186(17) 0.0190(15)
O5 0.0482(15) 0.0675(16) 0.0392(13) -0.0151(12) -0.0199(12) 0.0066(12)
O6 0.0461(15) 0.0793(18) 0.0500(14) -0.0152(13) -0.0206(13) 0.0165(14)
O7 0.086(2) 0.087(2) 0.0437(15) 0.0001(14) -0.0165(15) -0.0223(17)
O8 0.0638(17) 0.0551(15) 0.0575(15) -0.0110(12) -0.0152(14) 0.0081(13)
O9 0.076(3) 0.127(3) 0.122(3) -0.025(2) -0.020(2) 0.016(2)
loop_
_atom_type_symbol
_atom_type_description
_atom_type_scat_dispersion_real
_atom_type_scat_dispersion_imag
_atom_type_scat_source
C C 0.0181 0.0091 'International Tables Vol C Tables 4.2.6.8 and 6.1.1.4'
H H 0.0000 0.0000 'International Tables Vol C Tables 4.2.6.8 and 6.1.1.4'
N N 0.0311 0.0180 'International Tables Vol C Tables 4.2.6.8 and 6.1.1.4'
O O 0.0492 0.0322 'International Tables Vol C Tables 4.2.6.8 and 6.1.1.4'
Cd Cd 0.1185 4.6533 'International Tables Vol C Tables 4.2.6.8 and 6.1.1.4'
loop_
_geom_angle_atom_site_label_1
_geom_angle_atom_site_label_2
_geom_angle_atom_site_label_3
_geom_angle
_geom_angle_site_symmetry_1
_geom_angle_site_symmetry_3
O5 Cd1 O5 180.0 2_665 1_656
O5 Cd1 O1 91.29(9) 2_665 2_766
O5 Cd1 O1 88.71(9) 1_656 2_766
O5 Cd1 O1 88.71(9) 2_665 .
O5 Cd1 O1 91.29(9) 1_656 .
O1 Cd1 O1 180.0 2_766 .
O5 Cd1 O8 85.71(9) 2_665 .
O5 Cd1 O8 94.29(9) 1_656 .
O1 Cd1 O8 100.46(9) 2_766 .
O1 Cd1 O8 79.54(9) . .
O5 Cd1 O8 94.29(9) 2_665 2_766
O5 Cd1 O8 85.71(9) 1_656 2_766
O1 Cd1 O8 79.54(9) 2_766 2_766
O1 Cd1 O8 100.46(9) . 2_766
O8 Cd1 O8 180.0 . 2_766
O6 Cd2 O7 95.74(11) 1_656 .
O6 Cd2 O2 150.28(9) 1_656 .
O7 Cd2 O2 84.12(10) . .
O6 Cd2 O3 87.83(10) 1_656 1_566
O7 Cd2 O3 82.33(11) . 1_566
O2 Cd2 O3 121.42(10) . 1_566
O6 Cd2 O4 113.97(11) 1_656 1_566
O7 Cd2 O4 124.81(11) . 1_566
O2 Cd2 O4 89.54(10) . 1_566
O3 Cd2 O4 55.31(10) 1_566 1_566
O6 Cd2 O1 95.12(9) 1_656 .
O7 Cd2 O1 81.83(9) . .
O2 Cd2 O1 55.34(8) . .
O3 Cd2 O1 164.09(10) 1_566 .
O4 Cd2 O1 135.52(9) 1_566 .
O6 Cd2 O8 75.63(9) 1_656 .
O7 Cd2 O8 152.40(9) . .
O2 Cd2 O8 90.79(9) . .
O3 Cd2 O8 122.70(10) 1_566 .
O4 Cd2 O8 82.11(9) 1_566 .
O1 Cd2 O8 73.09(8) . .
O6 Cd2 C38 102.08(11) 1_656 1_566
O7 Cd2 C38 104.15(12) . 1_566
O2 Cd2 C38 106.78(10) . 1_566
O3 Cd2 C38 27.58(11) 1_566 1_566
O4 Cd2 C38 27.73(11) 1_566 1_566
O1 Cd2 C38 161.01(10) . 1_566
O8 Cd2 C38 103.29(11) . 1_566
C2 C1 C6 119.1(3) . .
C2 C1 C13 121.3(3) . .
C6 C1 C13 119.6(3) . .
C3 C2 C1 120.9(3) . .
C3 C2 H2 119.6 . .
C1 C2 H2 119.6 . .
C2 C3 C4 120.9(3) . .
C2 C3 H3 119.6 . .
C4 C3 H3 119.6 . .
C3 C4 C5 118.2(3) . .
C3 C4 C7 120.5(3) . .
C5 C4 C7 121.3(3) . .
C6 C5 C4 120.9(3) . .
C6 C5 H5 119.5 . .
C4 C5 H5 119.5 . .
C5 C6 C1 120.0(3) . .
C5 C6 H6 120.0 . .
C1 C6 H6 120.0 . .
C8 C7 C12 118.5(3) . .
C8 C7 C4 119.6(3) . .
C12 C7 C4 121.9(3) . .
C7 C8 C9 121.5(3) . .
C7 C8 H8 119.2 . .
C9 C8 H8 119.2 . .
C8 C9 C10 119.3(3) . .
C8 C9 H9 120.4 . .
C10 C9 H9 120.4 . .
C9 C10 C11 120.5(3) . .
C9 C10 N1 119.3(3) . .
C11 C10 N1 120.3(3) . .
C12 C11 C10 118.9(3) . .
C12 C11 H11 120.5 . .
C10 C11 H11 120.5 . .
C11 C12 C7 121.3(3) . .
C11 C12 H12 119.4 . .
C7 C12 H12 119.4 . .
O2 C13 O1 121.0(3) . .
O2 C13 C1 120.3(3) . .
O1 C13 C1 118.8(3) . .
N1 C14 C19 109.6(3) . .
N1 C14 C15 130.0(3) . .
C19 C14 C15 120.5(3) . .
C16 C15 C14 117.2(3) . .
C16 C15 H15 121.4 . .
C14 C15 H15 121.4 . .
C15 C16 C17 123.9(3) . .
C15 C16 H16 118.1 . .
C17 C16 H16 118.1 . .
C16 C17 C18 118.6(3) . .
C16 C17 C26 121.6(3) . .
C18 C17 C26 119.8(3) . .
C19 C18 C17 118.8(3) . .
C19 C18 H18 120.6 . .
C17 C18 H18 120.6 . .
C18 C19 C14 121.0(3) . .
C18 C19 C20 132.4(3) . .
C14 C19 C20 106.6(3) . .
C25 C20 C21 119.6(3) . .
C25 C20 C19 133.5(3) . .
C21 C20 C19 106.9(3) . .
N1 C21 C22 130.4(3) . .
N1 C21 C20 108.5(3) . .
C22 C21 C20 121.1(3) . .
C23 C22 C21 117.7(3) . .
C23 C22 H22 121.2 . .
C21 C22 H22 121.2 . .
C22 C23 C24 122.8(3) . .
C22 C23 H23 118.6 . .
C24 C23 H23 118.6 . .
C25 C24 C23 118.7(3) . .
C25 C24 C32 119.8(3) . .
C23 C24 C32 121.6(3) . .
C24 C25 C20 120.1(3) . .
C24 C25 H25 120.0 . .
C20 C25 H25 120.0 . .
C27 C26 C31 117.8(3) . .
C27 C26 C17 121.4(3) . .
C31 C26 C17 120.8(3) . .
C26 C27 C28 121.8(4) . .
C26 C27 H27 119.1 . .
C28 C27 H27 119.1 . .
C29 C28 C27 120.3(4) . .
C29 C28 H28 119.8 . .
C27 C28 H28 119.8 . .
C28 C29 C30 119.1(3) . .
C28 C29 C38 120.2(4) . .
C30 C29 C38 120.7(4) . .
C31 C30 C29 119.9(4) . .
C31 C30 H30 120.1 . .
C29 C30 H30 120.1 . .
C30 C31 C26 121.2(4) . .
C30 C31 H31 119.4 . .
C26 C31 H31 119.4 . .
C33 C32 C37 117.1(3) . .
C33 C32 C24 121.8(3) . .
C37 C32 C24 121.0(3) . .
C34 C33 C32 121.5(3) . .
C34 C33 H33 119.3 . .
C32 C33 H33 119.3 . .
C33 C34 C35 121.0(3) . .
C33 C34 H34 119.5 . .
C35 C34 H34 119.5 . .
C34 C35 C36 118.5(3) . .
C34 C35 C39 121.2(3) . .
C36 C35 C39 120.3(3) . .
C35 C36 C37 120.2(3) . .
C35 C36 H36 119.9 . .
C37 C36 H36 119.9 . .
C36 C37 C32 121.7(3) . .
C36 C37 H37 119.2 . .
C32 C37 H37 119.2 . .
O3 C38 O4 122.2(4) . .
O3 C38 C29 117.9(4) . .
O4 C38 C29 119.9(4) . .
O3 C38 Cd2 59.77(19) . 1_544
O4 C38 Cd2 62.5(2) . 1_544
C29 C38 Cd2 176.5(3) . 1_544
O5 C39 O6 126.3(3) . .
O5 C39 C35 117.4(3) . .
O6 C39 C35 116.3(3) . .
N2 C40 H40A 109.5 . .
N2 C40 H40B 109.5 . .
H40A C40 H40B 109.5 . .
N2 C40 H40C 109.5 . .
H40A C40 H40C 109.5 . .
H40B C40 H40C 109.5 . .
N2 C41 H41A 109.5 . .
N2 C41 H41B 109.5 . .
H41A C41 H41B 109.5 . .
N2 C41 H41C 109.5 . .
H41A C41 H41C 109.5 . .
H41B C41 H41C 109.5 . .
O7 C42 N2 119.9(5) . .
O7 C42 C43 124.0(5) . .
N2 C42 C43 116.1(5) . .
C42 C43 H43A 109.5 . .
C42 C43 H43B 109.5 . .
H43A C43 H43B 109.5 . .
C42 C43 H43C 109.5 . .
H43A C43 H43C 109.5 . .
H43B C43 H43C 109.5 . .
C45 C44 H44A 109.5 . .
C45 C44 H44B 109.5 . .
H44A C44 H44B 109.5 . .
C45 C44 H44C 109.5 . .
H44A C44 H44C 109.5 . .
H44B C44 H44C 109.5 . .
O9 C45 N3 120.2(7) . .
O9 C45 C44 122.5(6) . .
N3 C45 C44 117.3(6) . .
N3 C46 H46A 109.5 . .
N3 C46 H46B 109.5 . .
H46A C46 H46B 109.5 . .
N3 C46 H46C 109.5 . .
H46A C46 H46C 109.5 . .
H46B C46 H46C 109.5 . .
N3 C47 H47A 109.5 . .
N3 C47 H47B 109.5 . .
H47A C47 H47B 109.5 . .
N3 C47 H47C 109.5 . .
H47A C47 H47C 109.5 . .
H47B C47 H47C 109.5 . .
C14 N1 C21 108.5(3) . .
C14 N1 C10 125.2(3) . .
C21 N1 C10 126.2(3) . .
C42 N2 C41 126.6(5) . .
C42 N2 C40 117.5(4) . .
C41 N2 C40 115.9(4) . .
C45 N3 C46 120.8(7) . .
C45 N3 C47 126.2(8) . .
C46 N3 C47 112.8(8) . .
C13 O1 Cd1 130.7(2) . .
C13 O1 Cd2 88.5(2) . .
Cd1 O1 Cd2 98.43(9) . .
C13 O2 Cd2 95.2(2) . .
C38 O3 Cd2 92.6(2) . 1_544
C38 O4 Cd2 89.8(2) . 1_544
C39 O5 Cd1 126.5(2) . 1_454
C39 O6 Cd2 135.1(2) . 1_454
C42 O7 Cd2 131.8(3) . .
Cd1 O8 Cd2 93.77(9) . .
Cd1 O8 H8A 113.3 . .
Cd2 O8 H8A 113.3 . .
Cd1 O8 H8B 113.2 . .
Cd2 O8 H8B 113.2 . .
H8A O8 H8B 109.5 . .
loop_
_geom_bond_atom_site_label_1
_geom_bond_atom_site_label_2
_geom_bond_distance
_geom_bond_site_symmetry_2
Cd1 O5 2.207(2) 2_665
Cd1 O5 2.207(2) 1_656
Cd1 O1 2.294(2) 2_766
Cd1 O1 2.294(2) .
Cd1 O8 2.355(2) .
Cd1 O8 2.355(2) 2_766
Cd2 O6 2.213(2) 1_656
Cd2 O7 2.306(3) .
Cd2 O2 2.311(2) .
Cd2 O3 2.317(3) 1_566
Cd2 O4 2.376(3) 1_566
Cd2 O1 2.439(2) .
Cd2 O8 2.553(3) .
Cd2 C38 2.679(4) 1_566
C1 C2 1.381(5) .
C1 C6 1.389(5) .
C1 C13 1.491(5) .
C2 C3 1.376(5) .
C2 H2 0.9500 .
C3 C4 1.390(5) .
C3 H3 0.9500 .
C4 C5 1.391(5) .
C4 C7 1.491(5) .
C5 C6 1.388(5) .
C5 H5 0.9500 .
C6 H6 0.9500 .
C7 C8 1.378(5) .
C7 C12 1.397(5) .
C8 C9 1.386(5) .
C8 H8 0.9500 .
C9 C10 1.389(5) .
C9 H9 0.9500 .
C10 C11 1.394(5) .
C10 N1 1.433(4) .
C11 C12 1.386(5) .
C11 H11 0.9500 .
C12 H12 0.9500 .
C13 O2 1.252(4) .
C13 O1 1.286(4) .
C14 N1 1.384(4) .
C14 C19 1.396(5) .
C14 C15 1.402(5) .
C15 C16 1.372(5) .
C15 H15 0.9500 .
C16 C17 1.386(5) .
C16 H16 0.9500 .
C17 C18 1.403(5) .
C17 C26 1.490(5) .
C18 C19 1.391(5) .
C18 H18 0.9500 .
C19 C20 1.444(5) .
C20 C25 1.388(5) .
C20 C21 1.409(5) .
C21 N1 1.392(4) .
C21 C22 1.394(5) .
C22 C23 1.371(5) .
C22 H22 0.9500 .
C23 C24 1.405(5) .
C23 H23 0.9500 .
C24 C25 1.388(5) .
C24 C32 1.490(5) .
C25 H25 0.9500 .
C26 C27 1.371(5) .
C26 C31 1.387(5) .
C27 C28 1.385(5) .
C27 H27 0.9500 .
C28 C29 1.365(5) .
C28 H28 0.9500 .
C29 C30 1.396(6) .
C29 C38 1.516(5) .
C30 C31 1.383(6) .
C30 H30 0.9500 .
C31 H31 0.9500 .
C32 C33 1.386(5) .
C32 C37 1.392(5) .
C33 C34 1.379(5) .
C33 H33 0.9500 .
C34 C35 1.383(5) .
C34 H34 0.9500 .
C35 C36 1.385(5) .
C35 C39 1.506(5) .
C36 C37 1.386(5) .
C36 H36 0.9500 .
C37 H37 0.9500 .
C38 O3 1.242(5) .
C38 O4 1.247(5) .
C38 Cd2 2.679(4) 1_544
C39 O5 1.251(4) .
C39 O6 1.255(4) .
C40 N2 1.508(7) .
C40 H40A 0.9800 .
C40 H40B 0.9800 .
C40 H40C 0.9800 .
C41 N2 1.473(6) .
C41 H41A 0.9800 .
C41 H41B 0.9800 .
C41 H41C 0.9800 .
C42 O7 1.246(6) .
C42 N2 1.300(6) .
C42 C43 1.514(6) .
C43 H43A 0.9800 .
C43 H43B 0.9800 .
C43 H43C 0.9800 .
C44 C45 1.506(9) .
C44 H44A 0.9800 .
C44 H44B 0.9800 .
C44 H44C 0.9800 .
C45 O9 1.197(7) .
C45 N3 1.313(8) .
C46 N3 1.491(9) .
C46 H46A 0.9800 .
C46 H46B 0.9800 .
C46 H46C 0.9800 .
C47 N3 1.520(10) .
C47 H47A 0.9800 .
C47 H47B 0.9800 .
C47 H47C 0.9800 .
O3 Cd2 2.317(3) 1_544
O4 Cd2 2.376(3) 1_544
O5 Cd1 2.207(2) 1_454
O6 Cd2 2.213(2) 1_454
O8 H8A 0.9933 .
O8 H8B 0.9925 .
loop_
_geom_torsion_atom_site_label_1
_geom_torsion_atom_site_label_2
_geom_torsion_atom_site_label_3
_geom_torsion_atom_site_label_4
_geom_torsion
_geom_torsion_site_symmetry_4
C6 C1 C2 C3 1.7(6) .
C13 C1 C2 C3 -176.2(3) .
C1 C2 C3 C4 0.0(6) .
C2 C3 C4 C5 -1.9(6) .
C2 C3 C4 C7 176.0(3) .
C3 C4 C5 C6 2.1(6) .
C7 C4 C5 C6 -175.8(3) .
C4 C5 C6 C1 -0.4(6) .
C2 C1 C6 C5 -1.5(6) .
C13 C1 C6 C5 176.4(3) .
C3 C4 C7 C8 -32.4(5) .
C5 C4 C7 C8 145.5(4) .
C3 C4 C7 C12 147.8(4) .
C5 C4 C7 C12 -34.4(6) .
C12 C7 C8 C9 -1.2(5) .
C4 C7 C8 C9 179.0(3) .
C7 C8 C9 C10 -1.1(5) .
C8 C9 C10 C11 2.2(5) .
C8 C9 C10 N1 -176.4(3) .
C9 C10 C11 C12 -1.1(5) .
N1 C10 C11 C12 177.5(3) .
C10 C11 C12 C7 -1.2(6) .
C8 C7 C12 C11 2.3(6) .
C4 C7 C12 C11 -177.8(3) .
C2 C1 C13 O2 -179.4(3) .
C6 C1 C13 O2 2.7(5) .
C2 C1 C13 O1 0.4(5) .
C6 C1 C13 O1 -177.5(3) .
N1 C14 C15 C16 -178.4(4) .
C19 C14 C15 C16 1.1(6) .
C14 C15 C16 C17 1.4(6) .
C15 C16 C17 C18 -3.1(6) .
C15 C16 C17 C26 177.7(4) .
C16 C17 C18 C19 2.4(6) .
C26 C17 C18 C19 -178.5(3) .
C17 C18 C19 C14 0.0(6) .
C17 C18 C19 C20 178.8(4) .
N1 C14 C19 C18 177.8(3) .
C15 C14 C19 C18 -1.7(6) .
N1 C14 C19 C20 -1.2(4) .
C15 C14 C19 C20 179.2(4) .
C18 C19 C20 C25 0.5(7) .
C14 C19 C20 C25 179.4(4) .
C18 C19 C20 C21 -176.7(4) .
C14 C19 C20 C21 2.3(4) .
C25 C20 C21 N1 179.9(3) .
C19 C20 C21 N1 -2.5(4) .
C25 C20 C21 C22 -2.6(6) .
C19 C20 C21 C22 175.0(3) .
N1 C21 C22 C23 178.8(4) .
C20 C21 C22 C23 2.0(6) .
C21 C22 C23 C24 0.2(6) .
C22 C23 C24 C25 -1.8(6) .
C22 C23 C24 C32 178.5(4) .
C23 C24 C25 C20 1.1(5) .
C32 C24 C25 C20 -179.1(3) .
C21 C20 C25 C24 1.0(5) .
C19 C20 C25 C24 -175.9(4) .
C16 C17 C26 C27 34.4(6) .
C18 C17 C26 C27 -144.8(4) .
C16 C17 C26 C31 -145.4(4) .
C18 C17 C26 C31 35.5(6) .
C31 C26 C27 C28 1.4(6) .
C17 C26 C27 C28 -178.4(4) .
C26 C27 C28 C29 -1.0(6) .
C27 C28 C29 C30 0.9(6) .
C27 C28 C29 C38 180.0(4) .
C28 C29 C30 C31 -1.3(7) .
C38 C29 C30 C31 179.6(4) .
C29 C30 C31 C26 1.8(7) .
C27 C26 C31 C30 -1.8(7) .
C17 C26 C31 C30 178.0(4) .
C25 C24 C32 C33 -25.4(5) .
C23 C24 C32 C33 154.3(4) .
C25 C24 C32 C37 154.8(4) .
C23 C24 C32 C37 -25.5(5) .
C37 C32 C33 C34 -2.8(6) .
C24 C32 C33 C34 177.4(4) .
C32 C33 C34 C35 1.5(6) .
C33 C34 C35 C36 1.2(6) .
C33 C34 C35 C39 -179.7(3) .
C34 C35 C36 C37 -2.6(6) .
C39 C35 C36 C37 178.3(3) .
C35 C36 C37 C32 1.2(6) .
C33 C32 C37 C36 1.4(6) .
C24 C32 C37 C36 -178.7(4) .
C28 C29 C38 O3 1.2(6) .
C30 C29 C38 O3 -179.8(4) .
C28 C29 C38 O4 178.8(4) .
C30 C29 C38 O4 -2.1(6) .
C34 C35 C39 O5 4.2(5) .
C36 C35 C39 O5 -176.7(3) .
C34 C35 C39 O6 -176.7(3) .
C36 C35 C39 O6 2.4(5) .
C19 C14 N1 C21 -0.3(4) .
C15 C14 N1 C21 179.2(4) .
C19 C14 N1 C10 -176.3(3) .
C15 C14 N1 C10 3.2(6) .
C22 C21 N1 C14 -175.4(4) .
C20 C21 N1 C14 1.7(4) .
C22 C21 N1 C10 0.6(6) .
C20 C21 N1 C10 177.7(3) .
C9 C10 N1 C14 48.9(5) .
C11 C10 N1 C14 -129.7(4) .
C9 C10 N1 C21 -126.4(4) .
C11 C10 N1 C21 55.0(5) .
O7 C42 N2 C41 178.4(5) .
C43 C42 N2 C41 -2.8(7) .
O7 C42 N2 C40 -3.9(8) .
C43 C42 N2 C40 174.9(5) .
O9 C45 N3 C46 0.0(13) .
C44 C45 N3 C46 179.3(8) .
O9 C45 N3 C47 -173.8(9) .
C44 C45 N3 C47 5.4(14) .
O2 C13 O1 Cd1 -101.8(4) .
C1 C13 O1 Cd1 78.4(4) .
O2 C13 O1 Cd2 -2.0(3) .
C1 C13 O1 Cd2 178.2(3) .
O1 C13 O2 Cd2 2.1(4) .
C1 C13 O2 Cd2 -178.1(3) .
O4 C38 O3 Cd2 -0.5(4) 1_544
C29 C38 O3 Cd2 177.0(3) 1_544
O3 C38 O4 Cd2 0.5(4) 1_544
C29 C38 O4 Cd2 -177.0(3) 1_544
O6 C39 O5 Cd1 18.6(5) 1_454
C35 C39 O5 Cd1 -162.4(2) 1_454
O5 C39 O6 Cd2 22.3(6) 1_454
C35 C39 O6 Cd2 -156.8(2) 1_454
N2 C42 O7 Cd2 168.7(3) .
C43 C42 O7 Cd2 -10.0(7) .
