#------------------------------------------------------------------------------
#$Date: 2019-11-08 01:48:59 +0200 (Fri, 08 Nov 2019) $
#$Revision: 224582 $
#$URL: file:///home/coder/svn-repositories/cod/cif/7/04/82/7048237.cif $
#------------------------------------------------------------------------------
#
# This file is available in the Crystallography Open Database (COD),
# http://www.crystallography.net/
#
# All data on this site have been placed in the public domain by the
# contributors.
#
data_7048237
loop_
_publ_author_name
'Kaur, Harpreet'
'Kumar, Rakesh'
'Kumar, Ajay'
'Krishnan, Venkata'
'Koner, Rik Rani'
_publ_section_title
;
 Trifunctional metal-organic platform for environmental remediation:
 structural features with peripheral hydroxyl groups facilitate
 adsorption, degradation and reduction processes.
;
_journal_issue                   3
_journal_name_full
'Dalton transactions (Cambridge, England : 2003)'
_journal_page_first              915
_journal_page_last               927
_journal_paper_doi               10.1039/c8dt04180f
_journal_volume                  48
_journal_year                    2019
_chemical_formula_moiety         'C43 H30 Cd N4 O6'
_chemical_formula_sum            'C43 H30 Cd N4 O6'
_chemical_formula_weight         811.11
_space_group_crystal_system      monoclinic
_space_group_IT_number           14
_space_group_name_Hall           '-P 2ybc'
_space_group_name_H-M_alt        'P 1 21/c 1'
_symmetry_space_group_name_Hall  '-P 2ybc'
_symmetry_space_group_name_H-M   'P 1 21/c 1'
_atom_sites_solution_hydrogens   geom
_atom_sites_solution_primary     direct
_atom_sites_solution_secondary   difmap
_audit_creation_date             2018-07-11
_audit_creation_method
;
Olex2 1.2-ac21
(compiled 2015.09.16 svn.r134, GUI svn.r4998)
;
_audit_update_record
;
2018-07-15 deposited with the CCDC.
2018-11-22 downloaded from the CCDC.
;
_cell_angle_alpha                90.00
_cell_angle_beta                 107.141(3)
_cell_angle_gamma                90.00
_cell_formula_units_Z            4
_cell_length_a                   13.6269(3)
_cell_length_b                   16.8816(4)
_cell_length_c                   19.4131(5)
_cell_measurement_reflns_used    6844
_cell_measurement_temperature    293(2)
_cell_measurement_theta_max      66.8830
_cell_measurement_theta_min      2.6310
_cell_volume                     4267.50(19)
_computing_cell_refinement       'CrysAlisPro 1.171.38.46 (Rigaku OD, 2015)'
_computing_data_collection       'CrysAlisPro 1.171.38.46 (Rigaku OD, 2015)'
_computing_data_reduction        'CrysAlisPro 1.171.38.46 (Rigaku OD, 2015)'
_computing_molecular_graphics    'Olex2 (Dolomanov et al., 2009)'
_computing_publication_material  'Olex2 (Dolomanov et al., 2009)'
_computing_structure_refinement  'ShelXL (Sheldrick, 2008)'
_computing_structure_solution    'ShelXT (Sheldrick, 2015)'
_diffrn_ambient_temperature      293(2)
_diffrn_detector                 'CCD plate'
_diffrn_detector_area_resol_mean 15.9974
_diffrn_detector_type            Eos
_diffrn_measured_fraction_theta_full 0.985
_diffrn_measured_fraction_theta_max 0.985
_diffrn_measurement_details
;
List of Runs (angles in degrees, time in seconds):

  # Type    Start    End  Width  t~exp~   \w     \q     \k     \f   Frames
#--------------------------------------------------------------------------
  1  \w    -50.00  62.00   1.00    1.00    --   25.57 -57.00   0.00  112
  2  \w      1.00  99.00   1.00    4.50    --   66.78 -94.00 -90.00   98
  3  \w     62.00 112.00   1.00   25.00    --  108.00-104.00-150.00   50
  4  \w     74.00 121.00   1.00   25.00    --  108.00 -21.00-120.00   47
  5  \w    127.00 177.00   1.00   25.00    --  108.00 -21.00-120.00   50
  6  \w    104.00 178.00   1.00   25.00    --  108.00  32.00 -30.00   74
  7  \w    118.00 169.00   1.00   25.00    --  108.00  43.00  60.00   51
  8  \w    146.00 178.00   1.00   25.00    --  108.00 104.00 150.00   32
  9  \w    100.00 137.00   1.00    4.50    --   66.78 111.00 -30.00   37
 10  \w     97.00 136.00   1.00    4.50    --   66.78 178.00-120.00   39
 11  \w     63.00 131.00   1.00    4.50    --   66.78  61.00  60.00   68
 12  \w     66.00  92.00   1.00   25.00    --  108.00  43.00  60.00   26
 13  \w     43.00  91.00   1.00   25.00    --  108.00  32.00 -30.00   48
 14  \w     26.00  53.00   1.00   25.00    --  108.00 -21.00-120.00   27
 15  \w     38.00 143.00   1.00   25.00    --  108.00 -65.00-180.00  105
 16  \w     52.00  89.00   1.00   25.00    --  108.00-104.00-180.00   37
 17  \w     30.00  61.00   1.00   25.00    --  108.00-104.00-150.00   31
 18  \w     23.00  50.00   1.00   25.00    --  108.00-104.00-180.00   27
 19  \w    -13.00 106.00   1.00    4.50    --   66.78 -45.00 -90.00  119
 20  \w    103.00 146.00   1.00   25.00    --  108.00 -54.00  30.00   43
 21  \w     31.00  87.00   1.00   25.00    --  108.00 -54.00  30.00   56
 22  \w    -49.00  57.00   1.00    1.00    --   25.57 -57.00  90.00  106
;
_diffrn_measurement_device       'four-circle diffractometer'
_diffrn_measurement_device_type  'SuperNova, Dual, Cu at zero, Eos'
_diffrn_measurement_method       '\w scans'
_diffrn_orient_matrix_type
'CrysAlisPro convention (1999,Acta A55,543-557)'
_diffrn_orient_matrix_UB_11      -0.0506937000
_diffrn_orient_matrix_UB_12      0.0264252000
_diffrn_orient_matrix_UB_13      -0.0784019000
_diffrn_orient_matrix_UB_21      0.1054185000
_diffrn_orient_matrix_UB_22      -0.0021634000
_diffrn_orient_matrix_UB_23      -0.0142256000
_diffrn_orient_matrix_UB_31      -0.0179511000
_diffrn_orient_matrix_UB_32      -0.0872870000
_diffrn_orient_matrix_UB_33      -0.0233919000
_diffrn_radiation_monochromator  mirror
_diffrn_radiation_probe          x-ray
_diffrn_radiation_type           CuK\a
_diffrn_radiation_wavelength     1.54184
_diffrn_reflns_av_R_equivalents  0.0279
_diffrn_reflns_av_unetI/netI     0.0350
_diffrn_reflns_limit_h_max       15
_diffrn_reflns_limit_h_min       -16
_diffrn_reflns_limit_k_max       13
_diffrn_reflns_limit_k_min       -19
_diffrn_reflns_limit_l_max       22
_diffrn_reflns_limit_l_min       -23
_diffrn_reflns_number            15192
_diffrn_reflns_theta_full        66.93
_diffrn_reflns_theta_max         66.93
_diffrn_reflns_theta_min         3.54
_diffrn_source                   'micro-focus sealed X-ray tube'
_diffrn_source_type              'SuperNova (Cu) X-ray Source'
_exptl_absorpt_coefficient_mu    4.490
_exptl_absorpt_correction_T_max  1.000
_exptl_absorpt_correction_T_min  0.426
_exptl_absorpt_correction_type   gaussian
_exptl_absorpt_process_details
;
CrysAlisPro 1.171.38.46 (Rigaku Oxford Diffraction, 2015)
Numerical absorption correction based on gaussian integration over
            a multifaceted crystal model
Empirical absorption correction using spherical harmonics,
 implemented in SCALE3 ABSPACK scaling algorithm.
;
_exptl_crystal_density_diffrn    1.262
_exptl_crystal_density_method    'not measured'
_exptl_crystal_description       monoclinic
_exptl_crystal_F_000             1648
_exptl_crystal_size_max          0.247
_exptl_crystal_size_mid          0.147
_exptl_crystal_size_min          0.111
_refine_diff_density_max         0.800
_refine_diff_density_min         -0.491
_refine_diff_density_rms         0.053
_refine_ls_extinction_method     none
_refine_ls_goodness_of_fit_ref   1.078
_refine_ls_hydrogen_treatment    constr
_refine_ls_matrix_type           full
_refine_ls_number_parameters     489
_refine_ls_number_reflns         7484
_refine_ls_number_restraints     0
_refine_ls_restrained_S_all      1.078
_refine_ls_R_factor_all          0.0384
_refine_ls_R_factor_gt           0.0331
_refine_ls_shift/su_max          0.002
_refine_ls_shift/su_mean         0.000
_refine_ls_structure_factor_coef Fsqd
_refine_ls_weighting_details
'calc w=1/[\s^2^(Fo^2^)+(0.0541P)^2^+0.4932P] where P=(Fo^2^+2Fc^2^)/3'
_refine_ls_weighting_scheme      calc
_refine_ls_wR_factor_gt          0.0889
_refine_ls_wR_factor_ref         0.0945
_reflns_number_gt                6552
_reflns_number_total             7484
_reflns_threshold_expression     >2sigma(I)
_iucr_refine_instructions_details
;
TITL cd_112_rt_cu_a.res in P2(1)/c
REM Old TITL CD_112_RT_CU in P21/c #14
REM SHELXT solution in P2(1)/c
REM R1 0.151, Rweak 0.002, Alpha 0.036, Orientation as input
REM Formula found by SHELXT: C44 N4 O6 Cd
CELL 1.54184 13.626921 16.88158 19.41314 90 107.1406 90
ZERR 4 0.000339 0.000415 0.000537 0 0.0028 0
LATT 1
SYMM -X,0.5+Y,0.5-Z
SFAC C H Cd N O
UNIT 172 120 4 16 24
 
L.S. 4
PLAN  17
BOND $H
LIST 6
MORE -1
CONF
fmap 2
ACTA
REM <olex2.extras>
REM <HklSrc "%.\\CD_112_RT_CU-mask.hkl">
REM </olex2.extras>
 
WGHT    0.054100    0.493200
FVAR       2.90139
CD1   3    0.260720    0.329494    0.337215    11.00000    0.03221    0.06186 =
         0.05365   -0.00375    0.00444    0.00008
O30   5    0.930717    0.319218    0.733615    11.00000    0.04988    0.07865 =
         0.05719   -0.00326   -0.00316    0.00552
AFIX 147
H30   2    0.984711    0.306020    0.763244    11.00000   -1.50000
AFIX   0
O25   5    0.389084    0.358495    0.442307    11.00000    0.04909    0.07531 =
         0.06062    0.00957   -0.00042    0.00310
O24   5    0.300011    0.254826    0.456976    11.00000    0.04072    0.08097 =
         0.06730   -0.00767    0.00483   -0.00171
O26   5    0.565498    0.386242    0.522353    11.00000    0.04728    0.06710 =
         0.07225    0.01927   -0.00395   -0.00081
AFIX 147
H26   2    0.515240    0.389637    0.486677    11.00000   -1.50000
AFIX   0
O29   5    1.109489    0.260621    0.782130    11.00000    0.05015    0.08547 =
         0.06383    0.00216   -0.00857    0.00399
O28   5    1.169915    0.180680    0.715338    11.00000    0.05068    0.09516 =
         0.07975    0.00675   -0.00079    0.01913
N31   4    0.130617    0.397658    0.367629    11.00000    0.03852    0.06922 =
         0.07219   -0.00183    0.01259    0.00362
N43   4    0.676502   -0.053712    0.207675    11.00000    0.04620    0.06351 =
         0.06284    0.00048    0.01306    0.00674
N49   4    0.379565    0.237703    0.315427    11.00000    0.05859    0.06531 =
         0.06550   -0.00058    0.02011    0.00816
C13   1    0.648103    0.292495    0.609991    11.00000    0.04222    0.06197 =
         0.05126    0.00317    0.00346    0.00258
C46   1    0.572185    0.067681    0.254911    11.00000    0.04592    0.05790 =
         0.06216    0.00003    0.01727   -0.00139
C2    1    0.836759    0.297151    0.611645    11.00000    0.04090    0.05575 =
         0.05483    0.00971   -0.00039   -0.00457
C11   1    0.925712    0.287201    0.668505    11.00000    0.04394    0.05561 =
         0.05338    0.00749    0.00036   -0.00387
C23   1    0.377883    0.296396    0.476816    11.00000    0.04196    0.07015 =
         0.04945   -0.01097    0.00795    0.00391
C52   1    0.510055    0.128799    0.278116    11.00000    0.05009    0.05555 =
         0.06254   -0.00148    0.01612   -0.00084
C3    1    0.834266    0.266673    0.542547    11.00000    0.04732    0.06281 =
         0.05362    0.01000    0.00141   -0.00912
C22   1    0.642544    0.222396    0.649399    11.00000    0.04932    0.06614 =
         0.04916    0.00574    0.00844    0.00289
C17   1    0.551453    0.176115    0.630432    11.00000    0.05478    0.06552 =
         0.05240    0.00517    0.01227    0.00047
C47   1    0.549452    0.048089    0.182486    11.00000    0.05565    0.06772 =
         0.06016    0.00647    0.01408    0.01022
AFIX  43
H47   2    0.498342    0.075343    0.148292    11.00000   -1.20000
AFIX   0
N37   4   -0.301841    0.590973    0.424077    11.00000    0.06835    0.08973 =
         0.11119   -0.00987    0.03445    0.01576
C15   1    0.468756    0.271735    0.538717    11.00000    0.03899    0.06368 =
         0.04662   -0.00222    0.00629    0.00315
C16   1    0.466242    0.202195    0.574200    11.00000    0.04631    0.06845 =
         0.05720   -0.00262    0.01263   -0.00369
AFIX  43
H16   2    0.407029    0.171415    0.560956    11.00000   -1.20000
AFIX   0
C40   1   -0.129494    0.513450    0.403930    11.00000    0.04805    0.05885 =
         0.06956   -0.00527    0.01618   -0.00082
C34   1   -0.038969    0.473222    0.391627    11.00000    0.04220    0.05785 =
         0.06459   -0.00530    0.01146   -0.00275
C9    1    1.006760    0.213041    0.593678    11.00000    0.05184    0.06595 =
         0.07034    0.00445    0.00939    0.00579
AFIX  43
H9    2    1.062492    0.184463    0.588478    11.00000   -1.20000
AFIX   0
C10   1    1.010261    0.242978    0.659611    11.00000    0.04315    0.05892 =
         0.05816    0.00831    0.00004   -0.00186
C44   1    0.700633   -0.033401    0.277200    11.00000    0.04811    0.07168 =
         0.06185   -0.00206    0.00494    0.00965
AFIX  43
H44   2    0.752877   -0.061041    0.310125    11.00000   -1.20000
AFIX   0
C48   1    0.602506   -0.011469    0.161573    11.00000    0.05846    0.06853 =
         0.05556    0.00018    0.01065    0.01391
AFIX  43
H48   2    0.586326   -0.023268    0.112708    11.00000   -1.20000
AFIX   0
C14   1    0.561032    0.317629    0.557254    11.00000    0.04438    0.05842 =
         0.05224    0.00495    0.00432    0.00248
C12   1    0.746085    0.340394    0.624458    11.00000    0.04125    0.06163 =
         0.05934    0.00489   -0.00247   -0.00076
AFIX  23
H12A  2    0.765445    0.358183    0.674165    11.00000   -1.20000
H12B  2    0.732019    0.387139    0.594067    11.00000   -1.20000
AFIX   0
C27   1    1.102378    0.227884    0.722969    11.00000    0.04154    0.06881 =
         0.06552    0.01001   -0.00082    0.00026
C45   1    0.651599    0.026798    0.302548    11.00000    0.05778    0.07121 =
         0.05982   -0.00694    0.00941    0.00778
AFIX  43
H45   2    0.671913    0.039675    0.351291    11.00000   -1.20000
AFIX   0
C8    1    0.920052    0.224608    0.533082    11.00000    0.05711    0.06833 =
         0.06044    0.00206    0.00875   -0.00337
C4    1    0.748513    0.276871    0.480190    11.00000    0.05339    0.08396 =
         0.05472    0.01419   -0.00018   -0.00791
AFIX  43
H4    2    0.690999    0.304025    0.484075    11.00000   -1.20000
AFIX   0
C21   1    0.724565    0.197068    0.709567    11.00000    0.05575    0.08839 =
         0.05553    0.01671    0.00238    0.00286
AFIX  43
H21   2    0.784859    0.226546    0.723515    11.00000   -1.20000
AFIX   0
C35   1   -0.003734    0.401441    0.422281    11.00000    0.07365    0.07520 =
         0.10124    0.02426    0.04670    0.01632
AFIX  43
H35   2   -0.036326    0.376335    0.452149    11.00000   -1.20000
AFIX   0
C53   1    0.468540    0.191697    0.235167    11.00000    0.09644    0.07663 =
         0.08358    0.01942    0.05259    0.02527
AFIX  43
H53   2    0.483406    0.199050    0.191825    11.00000   -1.20000
AFIX   0
C41   1   -0.195848    0.476482    0.434037    11.00000    0.06630    0.07022 =
         0.09304    0.00701    0.03716    0.00485
AFIX  43
H41   2   -0.184939    0.423880    0.448501    11.00000   -1.20000
AFIX   0
C54   1    0.405248    0.244061    0.255241    11.00000    0.09771    0.07350 =
         0.07961    0.01743    0.04192    0.02850
AFIX  43
H54   2    0.378930    0.286425    0.224775    11.00000   -1.20000
AFIX   0
C51   1    0.487476    0.122965    0.342852    11.00000    0.11028    0.08014 =
         0.06541    0.01029    0.03382    0.03670
AFIX  43
H51   2    0.516524    0.082962    0.375417    11.00000   -1.20000
AFIX   0
C32   1    0.097539    0.467650    0.337950    11.00000    0.06695    0.07237 =
         0.11487    0.01379    0.04690    0.00590
AFIX  43
H32   2    0.132654    0.491538    0.309039    11.00000   -1.20000
AFIX   0
C42   1   -0.279607    0.517223    0.443125    11.00000    0.06532    0.09601 =
         0.10401    0.00446    0.04087    0.00715
AFIX  43
H42   2   -0.322910    0.490268    0.464197    11.00000   -1.20000
AFIX   0
C18   1    0.546347    0.106780    0.670014    11.00000    0.07500    0.07998 =
         0.08215    0.01943    0.02174   -0.00793
AFIX  43
H18   2    0.487352    0.075759    0.656669    11.00000   -1.20000
AFIX   0
C36   1    0.080684    0.366533    0.408505    11.00000    0.07115    0.07541 =
         0.09469    0.02652    0.03549    0.02307
AFIX  43
H36   2    0.102905    0.317847    0.429846    11.00000   -1.20000
AFIX   0
C7    1    0.916779    0.194939    0.464472    11.00000    0.08356    0.09628 =
         0.06919   -0.00793    0.01707    0.00179
AFIX  43
H7    2    0.972729    0.166883    0.458979    11.00000   -1.20000
AFIX   0
C50   1    0.421377    0.177141    0.358615    11.00000    0.11316    0.08299 =
         0.07088    0.00760    0.04616    0.02997
AFIX  43
H50   2    0.404994    0.171256    0.401572    11.00000   -1.20000
AFIX   0
C5    1    0.749160    0.247406    0.414535    11.00000    0.07398    0.10998 =
         0.05359    0.00788   -0.00203   -0.02092
AFIX  43
H5    2    0.692017    0.254905    0.374726    11.00000   -1.20000
AFIX   0
C20   1    0.716412    0.130863    0.746852    11.00000    0.07434    0.10192 =
         0.07124    0.03438    0.00288    0.00346
AFIX  43
H20   2    0.771136    0.115643    0.785965    11.00000   -1.20000
AFIX   0
C33   1    0.013933    0.506177    0.348082    11.00000    0.07152    0.06528 =
         0.11258    0.01671    0.04504    0.01162
AFIX  43
H33   2   -0.006963    0.554513    0.325544    11.00000   -1.20000
AFIX   0
C19   1    0.626351    0.084682    0.727332    11.00000    0.09094    0.09430 =
         0.08581    0.04146    0.01310   -0.00570
AFIX  43
H19   2    0.621602    0.039395    0.753441    11.00000   -1.20000
AFIX   0
C6    1    0.833505    0.206549    0.406270    11.00000    0.09256    0.11448 =
         0.05529   -0.00812    0.01185   -0.00966
AFIX  43
H6    2    0.832969    0.187305    0.361273    11.00000   -1.20000
AFIX   0
C39   1   -0.150974    0.591946    0.385614    11.00000    0.08088    0.07459 =
         0.17463    0.02664    0.06605    0.01699
AFIX  43
H39   2   -0.108213    0.620808    0.365437    11.00000   -1.20000
AFIX   0
C38   1   -0.236172    0.627733    0.397272    11.00000    0.09598    0.07487 =
         0.19597    0.02079    0.06957    0.02694
AFIX  43
H38   2   -0.247656    0.681004    0.385427    11.00000   -1.20000
HKLF 4
 
REM  cd_112_rt_cu_a.res in P2(1)/c
REM R1 =  0.0331 for   6552 Fo > 4sig(Fo)  and  0.0384 for all   7484 data
REM    489 parameters refined using      0 restraints
 
END  
     
WGHT      0.0541      0.4922 
REM Highest difference peak  0.800,  deepest hole -0.491,  1-sigma level  0.053
Q1    1   0.2552  0.3305  0.2871  11.00000  0.05    0.80
Q2    1   0.2627  0.3349  0.3855  11.00000  0.05    0.74
Q3    1   0.2197  0.2829  0.3347  11.00000  0.05    0.36
Q4    1   0.3138  0.3756  0.3548  11.00000  0.05    0.35
Q5    1   0.2152  0.3740  0.3197  11.00000  0.05    0.32
Q6    1   0.3074  0.2826  0.3449  11.00000  0.05    0.26
Q7    1   1.1807  0.1759  0.7673  11.00000  0.05    0.25
Q8    1   0.7019 -0.1012  0.1727  11.00000  0.05    0.24
Q9    1   0.6511  0.2437  0.6307  11.00000  0.05    0.24
Q10   1   0.3332  0.3242  0.4071  11.00000  0.05    0.23
Q11   1   0.2878  0.2424  0.4830  11.00000  0.05    0.23
Q12   1  -0.1752  0.5612  0.3475  11.00000  0.05    0.23
Q13   1   0.5616  0.0634  0.2204  11.00000  0.05    0.23
Q14   1   0.8457  0.2930  0.5663  11.00000  0.05    0.22
Q15   1   0.0337  0.5087  0.3986  11.00000  0.05    0.22
Q16   1   0.1373  0.4565  0.3814  11.00000  0.05    0.20
Q17   1   0.5228  0.1467  0.3203  11.00000  0.05    0.20

REM The information below was added by Olex2.
REM
REM R1 = 0.0331 for 6552 Fo > 4sig(Fo) and 0.0384 for all 7484 data
REM n/a parameters refined using n/a restraints
REM Highest difference peak 0.80, deepest hole -0.49
REM Mean Shift 0, Max Shift -0.002.

REM +++ Tabular Listing of Refinement Information +++
REM R1_all = 0.0384
REM R1_gt = 0.0331
REM wR_ref = 0.0945
REM GOOF = 1.078
REM Shift_max = -0.002
REM Shift_mean = 0
REM Reflections_all = 7484
REM Reflections_gt = 6552
REM Parameters = n/a
REM Hole = -0.49
REM Peak = 0.80
REM Flack = n/a

;
_cod_data_source_file            c8dt04180f2.cif
_cod_data_source_block           cd_112_rt_cu
_cod_depositor_comments          'Adding full bibliography for 7048237.cif.'
_cod_original_cell_volume        4267.52(19)
_cod_database_code               7048237
_chemical_oxdiff_formula         'C172 H120 Cd4 N16 O24'
_reflns_odcompleteness_completeness 98.09
_reflns_odcompleteness_iscentric 1
_reflns_odcompleteness_theta     66.97
_olex2_refinement_description
;
1. Fixed Uiso
 At 1.2 times of:
  All C(H) groups, All C(H,H) groups
 At 1.5 times of:
  All O(H) groups
2.a Secondary CH2 refined with riding coordinates:
 C12(H12A,H12B)
2.b Aromatic/amide H refined with riding coordinates:
 C47(H47), C16(H16), C9(H9), C44(H44), C48(H48), C45(H45), C4(H4), C21(H21),
 C35(H35), C53(H53), C41(H41), C54(H54), C51(H51), C32(H32), C42(H42), C18(H18),
  C36(H36), C7(H7), C50(H50), C5(H5), C20(H20), C33(H33), C19(H19), C6(H6),
 C39(H39), C38(H38)
2.c Idealised tetrahedral OH refined as rotating group:
 O30(H30), O26(H26)
;
_olex2_date_sample_data_collection 2017-12-20
_olex2_submission_special_instructions 'No special instructions were received'
_oxdiff_exptl_absorpt_empirical_details
;
Empirical correction (ABSPACK) includes:
- Absorption correction using spherical harmonics
- Frame scaling
;
_oxdiff_exptl_absorpt_empirical_full_max 1.635
_oxdiff_exptl_absorpt_empirical_full_min 0.775
loop_
_space_group_symop_id
_space_group_symop_operation_xyz
1 'x, y, z'
2 '-x, y+1/2, -z+1/2'
3 '-x, -y, -z'
4 'x, -y-1/2, z-1/2'
loop_
_atom_site_label
_atom_site_type_symbol
_atom_site_fract_x
_atom_site_fract_y
_atom_site_fract_z
_atom_site_U_iso_or_equiv
_atom_site_adp_type
_atom_site_occupancy
_atom_site_calc_flag
_atom_site_refinement_flags_posn
Cd1 Cd 0.260720(10) 0.329494(10) 0.337215(9) 0.05100(8) Uani 1 d .
O30 O 0.93072(15) 0.31922(13) 0.73362(11) 0.0660(5) Uani 1 d .
H30 H 0.9847 0.3060 0.7632 0.099 Uiso 1 calc GR
O25 O 0.38908(14) 0.35849(13) 0.44231(10) 0.0652(5) Uani 1 d .
O24 O 0.30001(13) 0.25483(13) 0.45698(11) 0.0654(5) Uani 1 d .
O26 O 0.56550(14) 0.38624(12) 0.52235(11) 0.0668(5) Uani 1 d .
H26 H 0.5152 0.3896 0.4867 0.100 Uiso 1 calc GR
O29 O 1.10949(15) 0.26062(14) 0.78213(11) 0.0719(5) Uani 1 d .
O28 O 1.16991(17) 0.18068(15) 0.71534(13) 0.0795(6) Uani 1 d .
N31 N 0.13062(15) 0.39766(14) 0.36763(13) 0.0608(5) Uani 1 d .
N43 N 0.67650(16) -0.05371(14) 0.20767(12) 0.0582(5) Uani 1 d .
N49 N 0.37957(18) 0.23770(14) 0.31543(13) 0.0627(5) Uani 1 d .
C13 C 0.64810(18) 0.29249(16) 0.60999(13) 0.0540(5) Uani 1 d .
C46 C 0.57218(18) 0.06768(15) 0.25491(14) 0.0550(5) Uani 1 d .
C2 C 0.83676(18) 0.29715(15) 0.61164(13) 0.0536(5) Uani 1 d .
C11 C 0.92571(18) 0.28720(15) 0.66850(13) 0.0540(5) Uani 1 d .
C23 C 0.37788(18) 0.29640(17) 0.47682(13) 0.0550(5) Uani 1 d .
C52 C 0.51005(19) 0.12880(15) 0.27812(14) 0.0562(5) Uani 1 d .
C3 C 0.83427(19) 0.26667(16) 0.54255(13) 0.0575(6) Uani 1 d .
C22 C 0.64254(19) 0.22240(17) 0.64940(13) 0.0562(5) Uani 1 d .
C17 C 0.5515(2) 0.17612(16) 0.63043(14) 0.0583(6) Uani 1 d .
C47 C 0.5495(2) 0.04809(17) 0.18249(15) 0.0618(6) Uani 1 d .
H47 H 0.4983 0.0753 0.1483 0.074 Uiso 1 calc R
N37 N -0.3018(2) 0.5910(2) 0.4241(2) 0.0880(8) Uani 1 d .
C15 C 0.46876(17) 0.27174(15) 0.53872(12) 0.0511(5) Uani 1 d .
C16 C 0.46624(19) 0.20219(17) 0.57420(14) 0.0579(6) Uani 1 d .
H16 H 0.4070 0.1714 0.5610 0.069 Uiso 1 calc R
C40 C -0.12949(19) 0.51345(16) 0.40393(15) 0.0591(6) Uani 1 d .
C34 C -0.03897(18) 0.47322(15) 0.39163(14) 0.0558(5) Uani 1 d .
C9 C 1.0068(2) 0.21304(18) 0.59368(16) 0.0646(6) Uani 1 d .
H9 H 1.0625 0.1845 0.5885 0.077 Uiso 1 calc R
C10 C 1.01026(18) 0.24298(15) 0.65961(14) 0.0566(6) Uani 1 d .
C44 C 0.7006(2) -0.03340(18) 0.27720(15) 0.0630(6) Uani 1 d .
H44 H 0.7529 -0.0610 0.3101 0.076 Uiso 1 calc R
C48 C 0.6025(2) -0.01147(18) 0.16157(15) 0.0622(6) Uani 1 d .
H48 H 0.5863 -0.0233 0.1127 0.075 Uiso 1 calc R
C14 C 0.5610(2) 0.31763(15) 0.55725(14) 0.0538(5) Uani 1 d .
C12 C 0.74609(19) 0.34039(16) 0.62446(15) 0.0578(6) Uani 1 d .
H12A H 0.7654 0.3582 0.6742 0.069 Uiso 1 calc R
H12B H 0.7320 0.3871 0.5941 0.069 Uiso 1 calc R
C27 C 1.10238(19) 0.22788(17) 0.72297(15) 0.0622(6) Uani 1 d .
C45 C 0.6516(2) 0.02680(18) 0.30255(15) 0.0646(6) Uani 1 d .
H45 H 0.6719 0.0397 0.3513 0.078 Uiso 1 calc R
C8 C 0.9201(2) 0.22461(18) 0.53308(15) 0.0638(6) Uani 1 d .
C4 C 0.7485(2) 0.2769(2) 0.48019(15) 0.0675(7) Uani 1 d .
H4 H 0.6910 0.3040 0.4841 0.081 Uiso 1 calc R
C21 C 0.7246(2) 0.1971(2) 0.70957(15) 0.0696(7) Uani 1 d .
H21 H 0.7849 0.2265 0.7235 0.083 Uiso 1 calc R
C35 C -0.0037(3) 0.4014(2) 0.4223(2) 0.0789(9) Uani 1 d .
H35 H -0.0363 0.3763 0.4521 0.095 Uiso 1 calc R
C53 C 0.4685(3) 0.1917(2) 0.2352(2) 0.0799(9) Uani 1 d .
H53 H 0.4834 0.1991 0.1918 0.096 Uiso 1 calc R
C41 C -0.1958(2) 0.4765(2) 0.43404(19) 0.0736(8) Uani 1 d .
H41 H -0.1849 0.4239 0.4485 0.088 Uiso 1 calc R
C54 C 0.4052(3) 0.2441(2) 0.25524(19) 0.0802(9) Uani 1 d .
H54 H 0.3789 0.2864 0.2248 0.096 Uiso 1 calc R
C51 C 0.4875(3) 0.1230(2) 0.34285(18) 0.0836(10) Uani 1 d .
H51 H 0.5165 0.0830 0.3754 0.100 Uiso 1 calc R
C32 C 0.0975(3) 0.4676(2) 0.3380(2) 0.0804(9) Uani 1 d .
H32 H 0.1327 0.4915 0.3090 0.096 Uiso 1 calc R
C42 C -0.2796(3) 0.5172(2) 0.4431(2) 0.0850(9) Uani 1 d .
H42 H -0.3229 0.4903 0.4642 0.102 Uiso 1 calc R
C18 C 0.5463(3) 0.1068(2) 0.67001(19) 0.0793(8) Uani 1 d .
H18 H 0.4874 0.0758 0.6567 0.095 Uiso 1 calc R
C36 C 0.0807(3) 0.3665(2) 0.4085(2) 0.0780(9) Uani 1 d .
H36 H 0.1029 0.3178 0.4298 0.094 Uiso 1 calc R
C7 C 0.9168(3) 0.1949(3) 0.46447(19) 0.0842(9) Uani 1 d .
H7 H 0.9727 0.1669 0.4590 0.101 Uiso 1 calc R
C50 C 0.4214(4) 0.1771(2) 0.3586(2) 0.0849(10) Uani 1 d .
H50 H 0.4050 0.1713 0.4016 0.102 Uiso 1 calc R
C5 C 0.7492(3) 0.2474(2) 0.41453(16) 0.0837(10) Uani 1 d .
H5 H 0.6920 0.2549 0.3747 0.100 Uiso 1 calc R
C20 C 0.7164(3) 0.1309(2) 0.74685(19) 0.0865(10) Uani 1 d .
H20 H 0.7711 0.1156 0.7860 0.104 Uiso 1 calc R
C33 C 0.0139(3) 0.5062(2) 0.3481(2) 0.0793(9) Uani 1 d .
H33 H -0.0070 0.5545 0.3255 0.095 Uiso 1 calc R
C19 C 0.6264(3) 0.0847(2) 0.7273(2) 0.0931(11) Uani 1 d .
H19 H 0.6216 0.0394 0.7534 0.112 Uiso 1 calc R
C6 C 0.8335(3) 0.2065(3) 0.40627(18) 0.0896(10) Uani 1 d .
H6 H 0.8330 0.1873 0.3613 0.107 Uiso 1 calc R
C39 C -0.1510(3) 0.5919(2) 0.3856(3) 0.1039(14) Uani 1 d .
H39 H -0.1082 0.6208 0.3654 0.125 Uiso 1 calc R
C38 C -0.2362(4) 0.6277(3) 0.3973(4) 0.1166(17) Uani 1 d .
H38 H -0.2477 0.6810 0.3854 0.140 Uiso 1 calc R
loop_
_atom_site_aniso_label
_atom_site_aniso_U_11
_atom_site_aniso_U_22
_atom_site_aniso_U_33
_atom_site_aniso_U_23
_atom_site_aniso_U_13
_atom_site_aniso_U_12
Cd1 0.03221(10) 0.06186(12) 0.05365(11) -0.00375(6) 0.00444(7) 0.00008(6)
O30 0.0499(10) 0.0787(12) 0.0572(10) -0.0033(9) -0.0032(8) 0.0055(8)
O25 0.0491(9) 0.0753(12) 0.0606(10) 0.0096(9) -0.0004(8) 0.0031(8)
O24 0.0407(8) 0.0810(12) 0.0673(10) -0.0077(9) 0.0048(7) -0.0017(8)
O26 0.0473(9) 0.0671(11) 0.0722(11) 0.0193(9) -0.0039(8) -0.0008(8)
O29 0.0502(9) 0.0855(13) 0.0638(11) 0.0022(10) -0.0086(8) 0.0040(9)
O28 0.0507(11) 0.0952(15) 0.0797(14) 0.0067(11) -0.0008(10) 0.0191(10)
N31 0.0385(9) 0.0692(13) 0.0722(13) -0.0018(10) 0.0126(9) 0.0036(9)
N43 0.0462(10) 0.0635(12) 0.0628(12) 0.0005(10) 0.0131(9) 0.0067(9)
N49 0.0586(12) 0.0653(13) 0.0655(12) -0.0006(10) 0.0201(10) 0.0082(10)
C13 0.0422(11) 0.0620(13) 0.0513(12) 0.0032(10) 0.0035(9) 0.0026(10)
C46 0.0459(11) 0.0579(13) 0.0622(13) 0.0000(11) 0.0173(10) -0.0014(10)
C2 0.0409(11) 0.0558(12) 0.0548(12) 0.0097(10) -0.0004(9) -0.0046(9)
C11 0.0439(11) 0.0556(12) 0.0534(12) 0.0075(10) 0.0004(9) -0.0039(10)
C23 0.0420(12) 0.0702(15) 0.0495(12) -0.0110(11) 0.0079(10) 0.0039(11)
C52 0.0501(12) 0.0556(13) 0.0625(13) -0.0015(11) 0.0161(10) -0.0008(10)
C3 0.0473(12) 0.0628(14) 0.0536(12) 0.0100(11) 0.0014(10) -0.0091(10)
C22 0.0493(12) 0.0661(14) 0.0492(11) 0.0057(10) 0.0084(10) 0.0029(11)
C17 0.0548(14) 0.0655(15) 0.0524(13) 0.0052(10) 0.0123(11) 0.0005(11)
C47 0.0556(13) 0.0677(15) 0.0602(13) 0.0065(12) 0.0141(11) 0.0102(12)
N37 0.0684(15) 0.0897(19) 0.111(2) -0.0099(17) 0.0345(15) 0.0158(14)
C15 0.0390(10) 0.0637(13) 0.0466(11) -0.0022(10) 0.0063(9) 0.0031(10)
C16 0.0463(12) 0.0684(15) 0.0572(13) -0.0026(11) 0.0126(10) -0.0037(11)
C40 0.0481(12) 0.0588(13) 0.0696(14) -0.0053(11) 0.0162(11) -0.0008(10)
C34 0.0422(11) 0.0578(13) 0.0646(14) -0.0053(11) 0.0115(10) -0.0028(10)
C9 0.0518(13) 0.0659(15) 0.0703(16) 0.0044(13) 0.0094(12) 0.0058(12)
C10 0.0432(11) 0.0589(13) 0.0582(13) 0.0083(11) 0.0000(10) -0.0019(10)
C44 0.0481(12) 0.0717(16) 0.0618(14) -0.0021(12) 0.0049(11) 0.0097(11)
C48 0.0585(14) 0.0685(15) 0.0556(13) 0.0002(11) 0.0107(11) 0.0139(12)
C14 0.0444(12) 0.0584(13) 0.0522(12) 0.0049(10) 0.0043(10) 0.0025(10)
C12 0.0412(12) 0.0616(14) 0.0593(13) 0.0049(11) -0.0025(10) -0.0008(10)
C27 0.0415(12) 0.0688(15) 0.0655(15) 0.0100(12) -0.0008(11) 0.0003(11)
C45 0.0578(14) 0.0712(16) 0.0598(14) -0.0069(12) 0.0094(11) 0.0078(12)
C8 0.0571(14) 0.0683(15) 0.0604(14) 0.0021(12) 0.0087(11) -0.0034(12)
C4 0.0534(13) 0.0840(18) 0.0547(13) 0.0142(13) -0.0002(11) -0.0079(13)
C21 0.0558(14) 0.0884(19) 0.0555(14) 0.0167(14) 0.0024(12) 0.0029(14)
C35 0.0737(18) 0.0752(18) 0.101(2) 0.0243(17) 0.0467(17) 0.0163(15)
C53 0.096(2) 0.0766(18) 0.084(2) 0.0194(16) 0.0526(19) 0.0253(17)
C41 0.0663(16) 0.0702(17) 0.093(2) 0.0070(15) 0.0372(16) 0.0049(14)
C54 0.098(2) 0.0735(18) 0.0796(19) 0.0174(15) 0.0419(18) 0.0285(17)
C51 0.110(3) 0.080(2) 0.0654(16) 0.0103(15) 0.0338(17) 0.0367(19)
C32 0.0669(17) 0.0724(18) 0.115(3) 0.0138(18) 0.0469(18) 0.0059(14)
C42 0.0653(17) 0.096(2) 0.104(2) 0.004(2) 0.0409(17) 0.0072(17)
C18 0.0750(18) 0.0800(19) 0.0821(19) 0.0194(16) 0.0217(16) -0.0079(15)
C36 0.0712(18) 0.0754(18) 0.095(2) 0.0265(17) 0.0355(16) 0.0231(15)
C7 0.084(2) 0.096(2) 0.0692(18) -0.0079(17) 0.0171(16) 0.0018(19)
C50 0.113(3) 0.083(2) 0.0709(19) 0.0076(15) 0.046(2) 0.0300(19)
C5 0.074(2) 0.110(3) 0.0536(15) 0.0079(16) -0.0020(14) -0.0209(19)
C20 0.0743(19) 0.102(3) 0.0712(18) 0.0344(18) 0.0029(15) 0.0035(18)
C33 0.0715(18) 0.0653(16) 0.113(2) 0.0167(17) 0.0450(18) 0.0116(14)
C19 0.091(2) 0.094(2) 0.086(2) 0.0415(19) 0.0131(18) -0.0057(19)
C6 0.093(2) 0.114(3) 0.0553(16) -0.0081(17) 0.0118(16) -0.010(2)
C39 0.081(2) 0.075(2) 0.175(4) 0.027(2) 0.066(3) 0.0170(18)
C38 0.096(3) 0.075(2) 0.196(5) 0.021(3) 0.070(3) 0.027(2)
loop_
_atom_type_symbol
_atom_type_description
_atom_type_scat_dispersion_real
_atom_type_scat_dispersion_imag
_atom_type_scat_source
C C 0.0181 0.0091 'International Tables Vol C Tables 4.2.6.8 and 6.1.1.4'
H H 0.0000 0.0000 'International Tables Vol C Tables 4.2.6.8 and 6.1.1.4'
Cd Cd 0.1185 4.6533 'International Tables Vol C Tables 4.2.6.8 and 6.1.1.4'
N N 0.0311 0.0180 'International Tables Vol C Tables 4.2.6.8 and 6.1.1.4'
O O 0.0492 0.0322 'International Tables Vol C Tables 4.2.6.8 and 6.1.1.4'
loop_
_exptl_crystal_face_index_h
_exptl_crystal_face_index_k
_exptl_crystal_face_index_l
_exptl_crystal_face_perp_dist
0 10 3 0.0837
-4 -4 12 0.0695
8 4 -4 0.1205
-7 -5 8 0.0990
7 -5 -8 0.0756
1 10 4 0.0860
1 -1 -12 0.0586
8 3 2 0.1298
-3 -3 -9 0.0659
-4 9 -3 0.0656
0 -8 -8 0.0535
6 -8 -2 0.0777
-4 10 2 0.0682
-8 -2 -1 0.1230
5 -4 -11 0.0664
-2 3 -10 0.0558
2 -9 6 0.0607
2 -3 10 0.0623
-1 -11 -3 0.0623
0 -7 9 0.0638
-6 6 8 0.0869
-1 1 12 0.0524
0 7 -9 0.0638
loop_
_geom_angle_atom_site_label_1
_geom_angle_atom_site_label_2
_geom_angle_atom_site_label_3
_geom_angle
_geom_angle_site_symmetry_1
_geom_angle_site_symmetry_3
O25 Cd1 O24 53.27(7) . .
O25 Cd1 O29 144.02(7) . 4_465
O25 Cd1 O28 161.34(8) . 4_465
O25 Cd1 N31 96.08(8) . .
O25 Cd1 N43 83.64(7) . 2_655
O25 Cd1 N49 85.23(8) . .
O29 Cd1 O24 90.81(6) 4_465 .
O28 Cd1 O24 142.41(7) 4_465 .
O28 Cd1 O29 53.43(8) 4_465 4_465
O28 Cd1 N31 94.45(9) 4_465 .
O28 Cd1 N43 80.34(8) 4_465 2_655
O28 Cd1 N49 87.53(9) 4_465 .
N31 Cd1 O24 89.09(7) . .
N31 Cd1 O29 79.53(8) . 4_465
N31 Cd1 N43 93.74(8) . 2_655
N31 Cd1 N49 168.43(9) . .
N43 Cd1 O24 136.84(7) 2_655 .
N43 Cd1 O29 132.07(7) 2_655 4_465
N49 Cd1 O24 82.47(7) . .
N49 Cd1 O29 92.62(8) . 4_465
N49 Cd1 N43 97.84(8) . 2_655
C11 O30 H30 109.5 . .
C23 O25 Cd1 96.47(15) . .
C23 O24 Cd1 86.21(17) . .
C14 O26 H26 109.5 . .
C27 O29 Cd1 87.45(16) . 4_666
C27 O28 Cd1 96.60(19) . 4_666
C32 N31 Cd1 120.9(2) . .
C36 N31 Cd1 122.0(2) . .
C36 N31 C32 116.8(3) . .
C44 N43 Cd1 124.52(17) . 2_645
C44 N43 C48 116.8(2) . .
C48 N43 Cd1 118.10(18) . 2_645
C54 N49 Cd1 118.6(2) . .
C54 N49 C50 116.2(3) . .
C50 N49 Cd1 125.1(2) . .
C22 C13 C12 121.9(2) . .
C14 C13 C22 118.8(2) . .
C14 C13 C12 119.3(2) . .
C47 C46 C52 119.7(2) . .
C45 C46 C52 123.2(2) . .
C45 C46 C47 117.1(2) . .
C11 C2 C3 118.5(2) . .
C11 C2 C12 119.4(2) . .
C3 C2 C12 122.2(2) . .
O30 C11 C2 119.0(2) . .
O30 C11 C10 120.0(2) . .
C2 C11 C10 121.0(2) . .
O25 C23 C15 116.6(2) . .
O24 C23 O25 121.8(2) . .
O24 C23 C15 121.3(3) . .
C53 C52 C46 121.7(3) . .
C53 C52 C51 116.6(3) . .
C51 C52 C46 121.7(2) . .
C8 C3 C2 120.5(2) . .
C4 C3 C2 122.8(3) . .
C4 C3 C8 116.7(3) . .
C13 C22 C21 122.5(3) . .
C17 C22 C13 119.9(2) . .
C17 C22 C21 117.5(3) . .
C16 C17 C22 119.1(2) . .
C16 C17 C18 121.2(3) . .
C18 C17 C22 119.6(3) . .
C46 C47 H47 120.1 . .
C48 C47 C46 119.7(2) . .
C48 C47 H47 120.1 . .
C42 N37 C38 115.6(3) . .
C16 C15 C23 120.1(2) . .
C16 C15 C14 119.3(2) . .
C14 C15 C23 120.4(2) . .
C17 C16 H16 119.3 . .
C15 C16 C17 121.4(2) . .
C15 C16 H16 119.3 . .
C41 C40 C34 123.1(3) . .
C41 C40 C39 115.6(3) . .
C39 C40 C34 121.3(3) . .
C35 C34 C40 122.3(3) . .
C35 C34 C33 116.3(3) . .
C33 C34 C40 121.5(3) . .
C10 C9 H9 119.4 . .
C10 C9 C8 121.3(3) . .
C8 C9 H9 119.4 . .
C11 C10 C27 120.1(2) . .
C9 C10 C11 120.1(2) . .
C9 C10 C27 119.8(3) . .
N43 C44 H44 118.4 . .
N43 C44 C45 123.1(2) . .
C45 C44 H44 118.4 . .
N43 C48 C47 123.5(3) . .
N43 C48 H48 118.2 . .
C47 C48 H48 118.2 . .
O26 C14 C13 118.5(2) . .
O26 C14 C15 120.3(2) . .
C13 C14 C15 121.2(2) . .
C13 C12 C2 115.4(2) . .
C13 C12 H12A 108.4 . .
C13 C12 H12B 108.4 . .
C2 C12 H12A 108.4 . .
C2 C12 H12B 108.4 . .
H12A C12 H12B 107.5 . .
O29 C27 O28 121.7(2) . .
O29 C27 C10 119.8(3) . .
O28 C27 C10 118.4(3) . .
C46 C45 C44 119.6(3) . .
C46 C45 H45 120.2 . .
C44 C45 H45 120.2 . .
C9 C8 C3 118.5(3) . .
C7 C8 C3 120.0(3) . .
C7 C8 C9 121.5(3) . .
C3 C4 H4 119.4 . .
C5 C4 C3 121.2(3) . .
C5 C4 H4 119.4 . .
C22 C21 H21 119.4 . .
C20 C21 C22 121.2(3) . .
C20 C21 H21 119.4 . .
C34 C35 H35 120.1 . .
C34 C35 C36 119.7(3) . .
C36 C35 H35 120.1 . .
C52 C53 H53 119.7 . .
C52 C53 C54 120.7(3) . .
C54 C53 H53 119.7 . .
C40 C41 H41 119.9 . .
C40 C41 C42 120.1(3) . .
C42 C41 H41 119.9 . .
N49 C54 C53 123.6(3) . .
N49 C54 H54 118.2 . .
C53 C54 H54 118.2 . .
C52 C51 H51 120.4 . .
C50 C51 C52 119.3(3) . .
C50 C51 H51 120.4 . .
N31 C32 H32 118.5 . .
N31 C32 C33 123.1(3) . .
C33 C32 H32 118.5 . .
N37 C42 C41 124.5(3) . .
N37 C42 H42 117.8 . .
C41 C42 H42 117.8 . .
C17 C18 H18 119.5 . .
C19 C18 C17 121.1(3) . .
C19 C18 H18 119.5 . .
N31 C36 C35 124.0(3) . .
N31 C36 H36 118.0 . .
C35 C36 H36 118.0 . .
C8 C7 H7 119.3 . .
C6 C7 C8 121.3(4) . .
C6 C7 H7 119.3 . .
N49 C50 C51 123.5(3) . .
N49 C50 H50 118.2 . .
C51 C50 H50 118.2 . .
C4 C5 H5 119.3 . .
C4 C5 C6 121.3(3) . .
C6 C5 H5 119.3 . .
C21 C20 H20 119.5 . .
C21 C20 C19 121.0(3) . .
C19 C20 H20 119.5 . .
C34 C33 H33 120.0 . .
C32 C33 C34 120.1(3) . .
C32 C33 H33 120.0 . .
C18 C19 C20 119.5(3) . .
C18 C19 H19 120.2 . .
C20 C19 H19 120.2 . .
C7 C6 C5 119.5(3) . .
C7 C6 H6 120.3 . .
C5 C6 H6 120.3 . .
C40 C39 H39 120.0 . .
C40 C39 C38 120.0(4) . .
C38 C39 H39 120.0 . .
N37 C38 C39 124.0(4) . .
N37 C38 H38 118.0 . .
C39 C38 H38 118.0 . .
loop_
_geom_bond_atom_site_label_1
_geom_bond_atom_site_label_2
_geom_bond_distance
_geom_bond_site_symmetry_2
Cd1 O25 2.3148(18) .
Cd1 O24 2.559(2) .
Cd1 O29 2.5310(19) 4_465
Cd1 O28 2.331(2) 4_465
Cd1 N31 2.331(2) .
Cd1 N43 2.412(2) 2_655
Cd1 N49 2.368(2) .
O30 H30 0.8200 .
O30 C11 1.358(3) .
O25 C23 1.277(4) .
O24 C23 1.235(3) .
O26 H26 0.8200 .
O26 C14 1.352(3) .
O29 Cd1 2.5310(19) 4_666
O29 C27 1.252(4) .
O28 Cd1 2.331(2) 4_666
O28 C27 1.259(4) .
N31 C32 1.333(4) .
N31 C36 1.299(4) .
N43 Cd1 2.412(2) 2_645
N43 C44 1.336(4) .
N43 C48 1.340(3) .
N49 C54 1.319(4) .
N49 C50 1.338(4) .
C13 C22 1.423(4) .
C13 C14 1.386(3) .
C13 C12 1.515(3) .
C46 C52 1.486(4) .
C46 C47 1.388(4) .
C46 C45 1.383(4) .
C2 C11 1.388(3) .
C2 C3 1.428(4) .
C2 C12 1.517(4) .
C11 C10 1.425(4) .
C23 C15 1.508(3) .
C52 C53 1.366(4) .
C52 C51 1.383(4) .
C3 C8 1.425(4) .
C3 C4 1.424(3) .
C22 C17 1.420(4) .
C22 C21 1.424(4) .
C17 C16 1.409(4) .
C17 C18 1.413(4) .
C47 H47 0.9300 .
C47 C48 1.368(4) .
N37 C42 1.309(5) .
N37 C38 1.316(6) .
C15 C16 1.367(4) .
C15 C14 1.430(4) .
C16 H16 0.9300 .
C40 C34 1.488(4) .
C40 C41 1.364(4) .
C40 C39 1.381(5) .
C34 C35 1.373(4) .
C34 C33 1.379(4) .
C9 H9 0.9300 .
C9 C10 1.364(4) .
C9 C8 1.414(4) .
C10 C27 1.498(3) .
C44 H44 0.9300 .
C44 C45 1.384(4) .
C48 H48 0.9300 .
C12 H12A 0.9700 .
C12 H12B 0.9700 .
C45 H45 0.9300 .
C8 C7 1.411(5) .
C4 H4 0.9300 .
C4 C5 1.371(5) .
C21 H21 0.9300 .
C21 C20 1.354(5) .
C35 H35 0.9300 .
C35 C36 1.387(4) .
C53 H53 0.9300 .
C53 C54 1.369(4) .
C41 H41 0.9300 .
C41 C42 1.388(5) .
C54 H54 0.9300 .
C51 H51 0.9300 .
C51 C50 1.380(5) .
C32 H32 0.9300 .
C32 C33 1.375(4) .
C42 H42 0.9300 .
C18 H18 0.9300 .
C18 C19 1.360(5) .
C36 H36 0.9300 .
C7 H7 0.9300 .
C7 C6 1.359(5) .
C50 H50 0.9300 .
C5 H5 0.9300 .
C5 C6 1.390(6) .
C20 H20 0.9300 .
C20 C19 1.408(5) .
C33 H33 0.9300 .
C19 H19 0.9300 .
C6 H6 0.9300 .
C39 H39 0.9300 .
C39 C38 1.385(5) .
C38 H38 0.9300 .
loop_
_geom_torsion_atom_site_label_1
_geom_torsion_atom_site_label_2
_geom_torsion_atom_site_label_3
_geom_torsion_atom_site_label_4
_geom_torsion
_geom_torsion_site_symmetry_1
Cd1 O25 C23 O24 -16.2(3) .
Cd1 O25 C23 C15 157.92(18) .
Cd1 O24 C23 O25 14.5(2) .
Cd1 O24 C23 C15 -159.3(2) .
Cd1 O29 C27 O28 -8.7(3) 4_666
Cd1 O29 C27 C10 169.6(2) 4_666
Cd1 O28 C27 O29 9.5(3) 4_666
Cd1 O28 C27 C10 -168.8(2) 4_666
Cd1 N31 C32 C33 172.8(3) .
Cd1 N31 C36 C35 -173.4(3) .
Cd1 N43 C44 C45 -169.7(2) 2_645
Cd1 N43 C48 C47 169.3(2) 2_645
Cd1 N49 C54 C53 -176.1(3) .
Cd1 N49 C50 C51 177.4(3) .
O30 C11 C10 C9 -177.8(2) .
O30 C11 C10 C27 3.4(4) .
O25 Cd1 O24 C23 -8.45(15) .
O25 Cd1 N31 C32 104.3(3) .
O25 Cd1 N31 C36 -82.3(3) .
O25 Cd1 N49 C54 -122.8(3) .
O25 Cd1 N49 C50 59.4(3) .
O25 C23 C15 C16 -174.1(2) .
O25 C23 C15 C14 1.1(4) .
O24 Cd1 O25 C23 8.20(14) .
O24 Cd1 N31 C32 157.2(3) .
O24 Cd1 N31 C36 -29.4(3) .
O24 Cd1 N49 C54 -176.4(3) .
O24 Cd1 N49 C50 5.9(3) .
O24 C23 C15 C16 0.0(4) .
O24 C23 C15 C14 175.2(2) .
O29 Cd1 O25 C23 11.9(2) 4_465
O29 Cd1 O24 C23 173.75(16) 4_465
O29 Cd1 N31 C32 -111.8(3) 4_465
O29 Cd1 N31 C36 61.6(3) 4_465
O29 Cd1 N49 C54 93.2(3) 4_465
O29 Cd1 N49 C50 -84.6(3) 4_465
O28 Cd1 O25 C23 -143.5(2) 4_465
O28 Cd1 O24 C23 157.15(16) 4_465
O28 Cd1 N31 C32 -60.3(3) 4_465
O28 Cd1 N31 C36 113.1(3) 4_465
O28 Cd1 N49 C54 39.9(3) 4_465
O28 Cd1 N49 C50 -137.8(3) 4_465
N31 Cd1 O25 C23 92.50(16) .
N31 Cd1 O24 C23 -106.73(16) .
N31 Cd1 N49 C54 140.1(4) .
N31 Cd1 N49 C50 -37.6(6) .
N31 C32 C33 C34 1.1(6) .
N43 Cd1 O25 C23 -174.40(16) 2_655
N43 Cd1 O24 C23 -12.23(19) 2_655
N43 Cd1 N31 C32 20.3(3) 2_655
N43 Cd1 N31 C36 -166.3(3) 2_655
N43 Cd1 N49 C54 -39.9(3) 2_655
N43 Cd1 N49 C50 142.3(3) 2_655
N43 C44 C45 C46 1.4(5) .
N49 Cd1 O25 C23 -75.95(16) .
N49 Cd1 O24 C23 81.21(16) .
N49 Cd1 N31 C32 -159.8(4) .
N49 Cd1 N31 C36 13.7(5) .
C13 C22 C17 C16 -2.3(4) .
C13 C22 C17 C18 -179.7(3) .
C13 C22 C21 C20 178.8(3) .
C46 C52 C53 C54 175.1(3) .
C46 C52 C51 C50 -173.8(3) .
C46 C47 C48 N43 0.5(5) .
C2 C11 C10 C9 3.3(4) .
C2 C11 C10 C27 -175.5(2) .
C2 C3 C8 C9 0.7(4) .
C2 C3 C8 C7 -179.8(3) .
C2 C3 C4 C5 179.4(3) .
C11 C2 C3 C8 2.2(4) .
C11 C2 C3 C4 -177.2(2) .
C11 C2 C12 C13 -119.5(3) .
C11 C10 C27 O29 -7.0(4) .
C11 C10 C27 O28 171.4(3) .
C23 C15 C16 C17 177.5(2) .
C23 C15 C14 O26 4.1(4) .
C23 C15 C14 C13 -174.6(2) .
C52 C46 C47 C48 -176.1(3) .
C52 C46 C45 C44 175.1(3) .
C52 C53 C54 N49 -0.6(7) .
C52 C51 C50 N49 -2.3(7) .
C3 C2 C11 O30 176.9(2) .
C3 C2 C11 C10 -4.2(4) .
C3 C2 C12 C13 61.0(3) .
C3 C8 C7 C6 1.0(6) .
C3 C4 C5 C6 -0.1(5) .
C22 C13 C14 O26 177.0(2) .
C22 C13 C14 C15 -4.3(4) .
C22 C13 C12 C2 61.7(3) .
C22 C17 C16 C15 -1.4(4) .
C22 C17 C18 C19 1.8(5) .
C22 C21 C20 C19 0.0(6) .
C17 C22 C21 C20 0.7(5) .
C17 C18 C19 C20 -1.1(7) .
C47 C46 C52 C53 -32.7(4) .
C47 C46 C52 C51 144.4(3) .
C47 C46 C45 C44 -3.2(4) .
C16 C17 C18 C19 -175.6(4) .
C16 C15 C14 O26 179.4(2) .
C16 C15 C14 C13 0.6(4) .
C40 C34 C35 C36 179.6(3) .
C40 C34 C33 C32 179.8(3) .
C40 C41 C42 N37 0.5(6) .
C40 C39 C38 N37 -1.5(9) .
C34 C40 C41 C42 -179.2(3) .
C34 C40 C39 C38 179.6(5) .
C34 C35 C36 N31 0.1(6) .
C9 C10 C27 O29 174.2(3) .
C9 C10 C27 O28 -7.4(4) .
C9 C8 C7 C6 -179.6(4) .
C10 C9 C8 C3 -1.7(4) .
C10 C9 C8 C7 178.9(3) .
C44 N43 C48 C47 -2.4(4) .
C48 N43 C44 C45 1.5(4) .
C14 C13 C22 C17 5.1(4) .
C14 C13 C22 C21 -173.0(3) .
C14 C13 C12 C2 -118.6(3) .
C14 C15 C16 C17 2.3(4) .
C12 C13 C22 C17 -175.3(3) .
C12 C13 C22 C21 6.6(4) .
C12 C13 C14 O26 -2.7(4) .
C12 C13 C14 C15 176.1(2) .
C12 C2 C11 O30 -2.6(4) .
C12 C2 C11 C10 176.3(2) .
C12 C2 C3 C8 -178.4(2) .
C12 C2 C3 C4 2.3(4) .
C45 C46 C52 C53 149.0(3) .
C45 C46 C52 C51 -34.0(4) .
C45 C46 C47 C48 2.3(4) .
C8 C3 C4 C5 0.0(4) .
C8 C9 C10 C11 -0.3(4) .
C8 C9 C10 C27 178.5(3) .
C8 C7 C6 C5 -1.0(6) .
C4 C3 C8 C9 -179.9(3) .
C4 C3 C8 C7 -0.5(4) .
C4 C5 C6 C7 0.5(6) .
C21 C22 C17 C16 175.9(3) .
C21 C22 C17 C18 -1.5(4) .
C21 C20 C19 C18 0.2(7) .
C35 C34 C33 C32 -0.6(5) .
C53 C52 C51 C50 3.4(6) .
C41 C40 C34 C35 -13.3(4) .
C41 C40 C34 C33 166.3(3) .
C41 C40 C39 C38 -0.8(7) .
C54 N49 C50 C51 -0.3(6) .
C51 C52 C53 C54 -2.1(6) .
C32 N31 C36 C35 0.3(6) .
C42 N37 C38 C39 3.2(8) .
C18 C17 C16 C15 175.9(3) .
C36 N31 C32 C33 -1.0(6) .
C50 N49 C54 C53 1.8(6) .
C33 C34 C35 C36 0.0(5) .
C39 C40 C34 C35 166.3(4) .
C39 C40 C34 C33 -14.2(5) .
C39 C40 C41 C42 1.3(5) .
C38 N37 C42 C41 -2.7(7) .
loop_
_exptl_oxdiff_crystal_face_indexfrac_h
_exptl_oxdiff_crystal_face_indexfrac_k
_exptl_oxdiff_crystal_face_indexfrac_l
_exptl_oxdiff_crystal_face_x
_exptl_oxdiff_crystal_face_y
_exptl_oxdiff_crystal_face_z
-0.0059 9.9897 3.0288 0.0268 -0.0653 -0.9427
-3.9632 -4.0417 11.9961 -0.8464 -0.5797 0.1433
7.9924 4.0163 -4.0081 0.0152 0.8909 -0.4003
-6.9776 -5.0293 8.0017 -0.4065 -0.8385 0.3771
6.9926 -4.9705 -8.0312 0.1438 0.8621 0.4962
0.9984 9.9867 4.0260 -0.1024 0.0264 -0.9838
0.9668 -0.9593 -12.0030 0.8667 0.2747 0.3472
8.0119 2.9961 1.9876 -0.4828 0.8098 -0.4518
-3.0264 -2.9708 -8.9991 0.7805 -0.1846 0.5241
-4.0277 9.0084 -2.9625 0.6745 -0.4019 -0.6447
-0.0120 -7.9730 -8.0218 0.4189 0.1301 0.8838
6.0138 -7.9909 -2.0387 -0.3562 0.6803 0.6372
-4.0141 9.9916 2.0394 0.3076 -0.4738 -0.8478
-8.0104 -1.9995 -0.9849 0.4305 -0.8261 0.3414
4.9795 -3.9611 -11.0224 0.5071 0.6903 0.5142
-2.0371 3.0328 -9.9839 0.9662 -0.0793 0.0054
2.0341 -9.0192 5.9670 -0.8093 0.1491 0.6112
2.0371 -3.0328 9.9839 -0.9662 0.0793 -0.0054
-0.9939 -10.9901 -3.0291 -0.0025 -0.0379 1.0480
0.0375 -7.0301 8.9775 -0.8915 -0.1086 0.4030
-5.9928 5.9708 8.0315 -0.1681 -0.7589 -0.6015
-0.9668 0.9593 12.0030 -0.8667 -0.2747 -0.3472
-0.0375 7.0301 -8.9775 0.8915 0.1086 -0.4030
loop_
_smtbx_masks_void_nr
_smtbx_masks_void_average_x
_smtbx_masks_void_average_y
_smtbx_masks_void_average_z
_smtbx_masks_void_volume
_smtbx_masks_void_count_electrons
1 0.179 0.000 0.500 493.3 68.8
2 -0.676 0.500 1.000 493.3 68.8
3 0.434 0.636 0.631 15.4 0.0
4 0.434 0.864 0.131 15.4 0.0
5 0.566 0.136 0.869 15.4 0.0
6 0.566 0.364 0.369 15.4 0.0
