#------------------------------------------------------------------------------
#$Date: 2019-11-08 01:14:20 +0200 (Fri, 08 Nov 2019) $
#$Revision: 224448 $
#$URL: file:///home/coder/svn-repositories/cod/cif/7/04/94/7049428.cif $
#------------------------------------------------------------------------------
#
# This file is available in the Crystallography Open Database (COD),
# http://www.crystallography.net/
#
# All data on this site have been placed in the public domain by the
# contributors.
#
data_7049428
loop_
_publ_author_name
'Zhu, Jiaxing'
'Chen, Junye'
'Qiu, Tianze'
'Deng, Mingli'
'Zheng, Qingshu'
'Chen, Zhenxia'
'Ling, Yun'
'Zhou, Yaming'
_publ_section_title
;
 Cobalt substitution in a flexible metal-organic framework: modulating a
 soft paddle-wheel unit for tunable gate-opening adsorption.
;
_journal_issue                   21
_journal_name_full
'Dalton transactions (Cambridge, England : 2003)'
_journal_page_first              7100
_journal_page_last               7104
_journal_paper_doi               10.1039/c9dt00115h
_journal_volume                  48
_journal_year                    2019
_chemical_formula_moiety         'C18 H11 Co N5 O8.5 Zn, C2 H8 N, H2 O'
_chemical_formula_sum            'C20 H21 Co N6 O9.5 Zn'
_chemical_formula_weight         621.73
_space_group_crystal_system      monoclinic
_space_group_IT_number           7
_space_group_name_Hall           'P -2yc'
_space_group_name_H-M_alt        'P 1 c 1'
_symmetry_space_group_name_Hall  'P -2yc'
_symmetry_space_group_name_H-M   'P 1 c 1'
_atom_sites_solution_hydrogens   mixed
_audit_creation_method           SHELXL-2016/6
_audit_update_record
;
2019-03-02 deposited with the CCDC.    2019-03-08 downloaded from the CCDC.
;
_cell_angle_alpha                90
_cell_angle_beta                 105.008(2)
_cell_angle_gamma                90
_cell_formula_units_Z            4
_cell_length_a                   8.1101(13)
_cell_length_b                   21.350(3)
_cell_length_c                   14.109(2)
_cell_measurement_reflns_used    6412
_cell_measurement_temperature    296(2)
_cell_measurement_theta_max      27.48
_cell_measurement_theta_min      2.42
_cell_volume                     2359.7(6)
_computing_cell_refinement       'Bruker SAINT'
_computing_data_collection       'Bruker APEX2'
_computing_data_reduction        'Bruker SAINT'
_computing_molecular_graphics    'Bruker SHELXTL'
_computing_publication_material  'Bruker SHELXTL'
_computing_structure_refinement  'SHELXL-2016/6 (Sheldrick, 2016)'
_computing_structure_solution    'SHELXS-97 (Sheldrick, 2008)'
_diffrn_ambient_temperature      296(2)
_diffrn_measured_fraction_theta_full 0.990
_diffrn_measured_fraction_theta_max 0.990
_diffrn_measurement_device_type  'Bruker APEX-II CCD'
_diffrn_measurement_method       '\f and \w scans'
_diffrn_radiation_type           MoK\a
_diffrn_radiation_wavelength     0.71073
_diffrn_reflns_av_R_equivalents  0.0335
_diffrn_reflns_av_unetI/netI     0.0456
_diffrn_reflns_Laue_measured_fraction_full 0.990
_diffrn_reflns_Laue_measured_fraction_max 0.990
_diffrn_reflns_limit_h_max       9
_diffrn_reflns_limit_h_min       -7
_diffrn_reflns_limit_k_max       24
_diffrn_reflns_limit_k_min       -25
_diffrn_reflns_limit_l_max       15
_diffrn_reflns_limit_l_min       -16
_diffrn_reflns_number            13566
_diffrn_reflns_point_group_measured_fraction_full 0.990
_diffrn_reflns_point_group_measured_fraction_max 0.990
_diffrn_reflns_theta_full        25.150
_diffrn_reflns_theta_max         25.150
_diffrn_reflns_theta_min         0.954
_diffrn_source                   'fine focus fiber'
_exptl_absorpt_coefficient_mu    1.786
_exptl_absorpt_correction_T_max  0.836
_exptl_absorpt_correction_T_min  0.646
_exptl_absorpt_correction_type   multi-scan
_exptl_absorpt_process_details   SADABS
_exptl_crystal_colour            violet
_exptl_crystal_density_diffrn    1.745
_exptl_crystal_description       block
_exptl_crystal_F_000             1256
_exptl_crystal_size_max          0.250
_exptl_crystal_size_mid          0.250
_exptl_crystal_size_min          0.100
_refine_diff_density_max         1.451
_refine_diff_density_min         -0.707
_refine_diff_density_rms         0.153
_refine_ls_abs_structure_details
;
 Refined as a perfect inversion twin.
;
_refine_ls_abs_structure_Flack   0.5
_refine_ls_extinction_method     none
_refine_ls_goodness_of_fit_ref   1.072
_refine_ls_hydrogen_treatment    constr
_refine_ls_matrix_type           full
_refine_ls_number_parameters     680
_refine_ls_number_reflns         6543
_refine_ls_number_restraints     725
_refine_ls_restrained_S_all      1.018
_refine_ls_R_factor_all          0.0496
_refine_ls_R_factor_gt           0.0439
_refine_ls_shift/su_max          0.001
_refine_ls_shift/su_mean         0.000
_refine_ls_structure_factor_coef Fsqd
_refine_ls_weighting_details
'w=1/[\s^2^(Fo^2^)+(0.0695P)^2^+8.3523P] where P=(Fo^2^+2Fc^2^)/3'
_refine_ls_weighting_scheme      calc
_refine_ls_wR_factor_gt          0.1225
_refine_ls_wR_factor_ref         0.1305
_reflns_Friedel_coverage         0.994
_reflns_Friedel_fraction_full    0.990
_reflns_Friedel_fraction_max     0.990
_reflns_number_gt                6071
_reflns_number_total             6543
_reflns_threshold_expression     'I > 2\s(I)'
_cod_data_source_file            c9dt00115h2.cif
_cod_data_source_block           MAC-6'-Zn1Co1
_cod_depositor_comments
'Adding full bibliography for 7049426--7049429.cif.'
_cod_original_formula_sum        'C20 H21 Co N6 O9.50 Zn'
_cod_database_code               7049428
_shelx_shelxl_version_number     2016/6
_shelx_space_group_comment
;
The symmetry employed for this shelxl refinement is uniquely defined
by the following loop, which should always be used as a source of
symmetry information in preference to the above space-group names.
They are only intended as comments.
;
_shelx_estimated_absorpt_t_min   0.664
_shelx_estimated_absorpt_t_max   0.842
_shelx_res_file
;
TITL mo_30515c_0m in Pc
    mo_30515c_0m.res
    created by SHELXL-2016/6 at 10:08:03 on 17-Feb-2019
CELL 0.71073   8.1101  21.3503  14.1093  90.000 105.008  90.000
ZERR   4   0.0013   0.0032   0.0022   0.000   0.002   0.000
LATT -1
SYMM X, -Y, 0.5+Z
SFAC C  H  N  O  Co Zn
UNIT 80  84  24  38  4  4
OMIT -3 50.3
L.S. 10
BOND $H
FMAP 2
PLAN 5
TWIN
ACTA
EXYZ Co1 Zn1
EADP Co1 Zn1
EXYZ Co2 Zn2
EADP Co2 Zn2
EXYZ Co3 Zn3
EADP Co3 Zn3
EXYZ Co4 Zn4
EADP Co4 Zn4
RIGU
SIZE 0.10 0.25 0.25
ISOR 0.01 N1 > N10
ISOR 0.01 C4
TEMP 23.000
WGHT    0.069500    8.352304
FVAR       0.08279
MOLE 1
CO1   5   -0.305992    0.669194    0.386329    10.50000    0.01917    0.01320 =
         0.00367    0.00030   -0.00379    0.00137
ZN1   6   -0.305992    0.669194    0.386329    10.50000    0.01917    0.01320 =
         0.00367    0.00030   -0.00379    0.00137
CO2   5   -0.233940    0.833906    0.360691    10.50000    0.01837    0.01303 =
         0.00250   -0.00004   -0.00500    0.00094
ZN2   6   -0.233940    0.833906    0.360691    10.50000    0.01837    0.01303 =
         0.00250   -0.00004   -0.00500    0.00094
CO3   5   -0.017045    0.777798    0.798675    10.50000    0.02125    0.01818 =
         0.01054    0.00166   -0.00346   -0.00155
ZN3   6   -0.017045    0.777798    0.798675    10.50000    0.02125    0.01818 =
         0.01054    0.00166   -0.00346   -0.00155
CO4   5   -0.571367    0.728775   -0.039151    10.50000    0.01939    0.01968 =
         0.00718   -0.00053   -0.00316   -0.00282
ZN4   6   -0.571367    0.728775   -0.039151    10.50000    0.01939    0.01968 =
         0.00718   -0.00053   -0.00316   -0.00282
N1    3   -0.211685    0.728599    0.495994    11.00000    0.02226    0.01491 =
         0.00706   -0.00383   -0.00586    0.00111
N2    3   -0.213346    0.793961    0.487546    11.00000    0.02272    0.01329 =
         0.01244   -0.00366    0.00068   -0.00398
N3    3   -0.114665    0.768831    0.646223    11.00000    0.01575    0.02012 =
         0.00840   -0.00044   -0.00556   -0.00342
N4    3   -0.138614    0.658818    0.629870    11.00000    0.06332    0.02073 =
         0.00796   -0.00426   -0.00528    0.00120
AFIX  93
H4A   2   -0.100917    0.653031    0.692054    11.00000   -1.20000
H4B   2   -0.166478    0.627230    0.591210    11.00000   -1.20000
AFIX   0
N5    3   -0.137954    0.876548    0.600608    11.00000    0.03600    0.01880 =
         0.00479   -0.00126   -0.00447   -0.00267
AFIX  93
H5A   2   -0.165627    0.903946    0.554533    11.00000   -1.20000
H5B   2   -0.099588    0.888410    0.660533    11.00000   -1.20000
AFIX   0
N6    3   -0.329834    0.709951    0.259169    11.00000    0.02102    0.01796 =
         0.00889    0.00133   -0.00292    0.00165
N7    3   -0.352211    0.775965    0.253365    11.00000    0.02242    0.01592 =
         0.00925    0.00446   -0.00763   -0.00023
N8    3   -0.444729    0.735286    0.103441    11.00000    0.01654    0.01459 =
         0.00635   -0.00020   -0.00294    0.00331
N9    3   -0.386030    0.628983    0.140806    11.00000    0.04835    0.01533 =
         0.00741    0.00061   -0.00743    0.00377
AFIX  93
H9A   2   -0.348806    0.600623    0.184380    11.00000   -1.20000
H9B   2   -0.423715    0.618670    0.080115    11.00000   -1.20000
AFIX   0
N10   3   -0.468989    0.845336    0.122242    11.00000    0.05294    0.01582 =
         0.00732    0.00333   -0.00971    0.01025
AFIX  93
H10A  2   -0.457628    0.877336    0.160412    11.00000   -1.20000
H10B  2   -0.511958    0.849762    0.060158    11.00000   -1.20000
AFIX   0
N11   3    0.107027    0.789714    0.139208    11.00000    0.02404    0.03340 =
         0.01987   -0.00260    0.00341   -0.00333
AFIX   3
H11B  2    0.160367    0.796044    0.093630    11.00000   -1.20000
H11A  2    0.104571    0.827173    0.164420    11.00000   -1.20000
AFIX   0
N12   3    0.389369    0.707939    0.570245    11.00000    0.03444    0.03576 =
         0.02269   -0.00258    0.00771    0.00505
AFIX   3
H12B  2    0.413636    0.678474    0.619354    11.00000   -1.20000
H12A  2    0.446113    0.686059    0.531957    11.00000   -1.20000
AFIX   0
O1    4   -0.157021    0.599813    0.429464    11.00000    0.04532    0.02216 =
         0.01443   -0.00071   -0.00753    0.01100
O2    4   -0.216459    0.542599    0.293086    11.00000    0.04405    0.02992 =
         0.01090   -0.00294   -0.01365    0.01326
O3    4    0.017734    0.316166    0.332945    11.00000    0.02328    0.01369 =
         0.01151   -0.00208   -0.00845    0.00604
O4    4    0.201036    0.294263    0.474877    11.00000    0.01365    0.02169 =
         0.01183    0.00066    0.00098    0.00461
O5    4    0.466128    0.351758    0.905702    11.00000    0.01190    0.02969 =
         0.02097    0.00477    0.00328    0.00745
O6    4    0.438533    0.421000    1.017736    11.00000    0.06343    0.03785 =
         0.00771    0.00170    0.00177    0.00618
O7    4    0.503284    0.648542    0.920698    11.00000    0.02903    0.02915 =
         0.00735   -0.00706   -0.00330    0.00550
O8    4    0.505875    0.667651    0.766894    11.00000    0.04415    0.02602 =
         0.01224   -0.00172   -0.00336   -0.01231
O9    4   -0.006215    0.839548    0.332659    11.00000    0.02635    0.02014 =
         0.01930    0.00049    0.00437   -0.00134
O10   4    0.083801    0.900698    0.229375    11.00000    0.05169    0.02928 =
         0.01884   -0.00198    0.01655   -0.00681
O11   4   -0.047356    1.128488    0.305605    11.00000    0.02956    0.02537 =
         0.00934    0.00776   -0.00221   -0.00229
O12   4    0.088124    1.162658    0.450610    11.00000    0.04156    0.01907 =
         0.01874   -0.00099   -0.00069    0.00155
O13   4    0.637091    1.091403    0.814948    11.00000    0.04276    0.01575 =
         0.01573    0.00462   -0.01314   -0.01112
O14   4    0.696437    1.033645    0.950216    11.00000    0.04457    0.02359 =
         0.01470    0.00238   -0.01169   -0.00812
O15   4    0.474733    0.810153    0.910012    11.00000    0.01723    0.02097 =
         0.01100    0.00745   -0.00036   -0.00200
O16   4    0.242062    0.790426    0.792046    11.00000    0.01458    0.02221 =
         0.01568   -0.00175    0.00272   -0.00434
O17   4   -0.250752    0.762423    0.833099    11.00000    0.02801    0.03273 =
         0.03609   -0.01458    0.01377   -0.01371
AFIX   3
H17A  2   -0.309563    0.797237    0.843016    11.00000   -1.20000
H17B  2   -0.330785    0.732024    0.816472    11.00000   -1.20000
AFIX   0
C1    1   -0.142545    0.550696    0.379792    11.00000    0.02268    0.01868 =
         0.01673   -0.00140   -0.00665    0.00173
C2    1   -0.026085    0.500839    0.435226    11.00000    0.02589    0.01810 =
         0.00991    0.00042   -0.00083   -0.00100
C3    1   -0.017886    0.441406    0.397310    11.00000    0.01539    0.02260 =
         0.01281   -0.00149   -0.00825    0.00237
AFIX  43
H3    2   -0.083771    0.431497    0.334761    11.00000   -1.20000
AFIX   0
C4    1    0.088985    0.396689    0.452979    11.00000    0.02519    0.01828 =
         0.01313   -0.00129   -0.00776    0.00003
C5    1    0.104996    0.332117    0.418002    11.00000    0.01454    0.02188 =
         0.00971   -0.00177    0.00289    0.00133
C6    1    0.191019    0.412598    0.547256    11.00000    0.02378    0.02057 =
         0.01396   -0.00056   -0.00792    0.00599
AFIX  43
H6    2    0.266058    0.383252    0.583665    11.00000   -1.20000
AFIX   0
C7    1    0.073695    0.515011    0.530323    11.00000    0.03146    0.01813 =
         0.00997   -0.00276   -0.00032   -0.00003
AFIX  43
H7    2    0.066806    0.554837    0.555720    11.00000   -1.20000
AFIX   0
C8    1    0.179655    0.472109    0.585914    11.00000    0.02133    0.02098 =
         0.00621   -0.00105   -0.00044   -0.00157
C9    1    0.284390    0.488234    0.686447    11.00000    0.02478    0.02284 =
         0.00855    0.00090   -0.00361    0.00428
C10   1    0.342204    0.549202    0.711475    11.00000    0.01417    0.02217 =
         0.01212   -0.00033    0.00428    0.00529
AFIX  43
H10   2    0.324387    0.579827    0.663005    11.00000   -1.20000
AFIX   0
C11   1    0.324313    0.442285    0.760662    11.00000    0.01610    0.02066 =
         0.01310   -0.00188   -0.00692    0.00142
AFIX  43
H11   2    0.294547    0.400739    0.745310    11.00000   -1.20000
AFIX   0
C12   1    0.408430    0.458578    0.857377    11.00000    0.02911    0.02551 =
         0.00707   -0.00213    0.00183    0.00748
C13   1    0.442501    0.408037    0.933743    11.00000    0.02487    0.02602 =
         0.01493    0.00041   -0.00337    0.00122
C14   1    0.452118    0.519680    0.880484    11.00000    0.02073    0.02462 =
         0.00637   -0.00521   -0.00124    0.00280
AFIX  43
H14   2    0.499560    0.530752    0.945599    11.00000   -1.20000
AFIX   0
C15   1    0.426776    0.565069    0.808559    11.00000    0.01267    0.02337 =
         0.01155   -0.00224    0.00250    0.00148
C16   1    0.483568    0.631394    0.831383    11.00000    0.01689    0.02411 =
         0.01359   -0.00179    0.00088    0.00009
C17   1    0.049719    0.891940    0.308795    11.00000    0.01931    0.02192 =
         0.01049    0.00201   -0.00102    0.00037
C18   1    0.083904    0.943106    0.384739    11.00000    0.01779    0.02272 =
         0.01411    0.00053   -0.00616   -0.00025
C19   1    0.044856    1.004633    0.355800    11.00000    0.01280    0.02711 =
         0.01039    0.00389   -0.00310   -0.00012
AFIX  43
H19   2   -0.003341    1.014065    0.290103    11.00000   -1.20000
AFIX   0
C20   1    0.078162    1.051955    0.425464    11.00000    0.00999    0.02419 =
         0.01440    0.00543    0.00205    0.00117
C21   1    0.038115    1.117654    0.393773    11.00000    0.02167    0.02264 =
         0.01342    0.00356    0.00086   -0.00275
C22   1    0.159866    1.037977    0.522550    11.00000    0.01041    0.02129 =
         0.01056    0.00121    0.00301   -0.00359
AFIX  43
H22   2    0.188439    1.070255    0.568124    11.00000   -1.20000
AFIX   0
C23   1    0.159257    0.929386    0.483131    11.00000    0.01174    0.02292 =
         0.01279    0.00268    0.00096   -0.00144
AFIX  43
H23   2    0.182963    0.888021    0.502579    11.00000   -1.20000
AFIX   0
C24   1    0.199129    0.977150    0.552284    11.00000    0.01260    0.02099 =
         0.01322    0.00303   -0.00092   -0.00296
C25   1    0.293856    0.961940    0.655029    11.00000    0.01949    0.02048 =
         0.00945   -0.00258   -0.00347   -0.00144
C26   1    0.279400    0.904550    0.698314    11.00000    0.00716    0.01891 =
         0.01131   -0.00276   -0.00159    0.00206
AFIX  43
H26   2    0.202194    0.875133    0.663893    11.00000   -1.20000
AFIX   0
C27   1    0.406212    1.005684    0.711916    11.00000    0.02239    0.01287 =
         0.01439    0.00241   -0.00079   -0.00259
AFIX  43
H27   2    0.413892    1.045288    0.685949    11.00000   -1.20000
AFIX   0
C28   1    0.505538    0.992364    0.804598    11.00000    0.01718    0.02061 =
         0.01023   -0.00093   -0.00127   -0.00512
C29   1    0.621917    1.041162    0.863538    11.00000    0.02731    0.01469 =
         0.01232    0.00106   -0.00506   -0.00158
C30   1    0.490957    0.933842    0.846974    11.00000    0.02185    0.02023 =
         0.00875    0.00196   -0.00203    0.00030
AFIX  43
H30   2    0.555161    0.924494    0.910139    11.00000   -1.20000
AFIX   0
C31   1    0.377949    0.889997    0.792191    11.00000    0.00671    0.02271 =
         0.00545    0.00031   -0.00303    0.00131
C32   1    0.361062    0.826347    0.832355    11.00000    0.02016    0.01642 =
         0.01021   -0.00083   -0.00297   -0.00044
C33   1   -0.153638    0.715929    0.593925    11.00000    0.01723    0.02349 =
         0.00653    0.00070   -0.00227    0.00054
C34   1   -0.154426    0.816064    0.579268    11.00000    0.00853    0.01967 =
         0.00781    0.00087   -0.00237    0.00064
C35   1   -0.385315    0.688874    0.167315    11.00000    0.01317    0.02062 =
         0.00776   -0.00006   -0.00118   -0.00032
C36   1   -0.418834    0.787535    0.160191    11.00000    0.02365    0.01683 =
         0.00726    0.00009   -0.00341    0.00142
C37   1   -0.061515    0.763220    0.101641    11.00000    0.00883    0.09942 =
         0.03051   -0.01662    0.01472   -0.01947
AFIX 137
H37A  2   -0.053694    0.725966    0.064954    11.00000   -1.50000
H37B  2   -0.133709    0.793125    0.059669    11.00000   -1.50000
H37C  2   -0.108951    0.752993    0.155377    11.00000   -1.50000
AFIX   0
C38   1    0.217883    0.749420    0.216790    11.00000    0.04073    0.07115 =
         0.03691    0.01305   -0.00169    0.01669
AFIX 137
H38A  2    0.162175    0.742194    0.268108    11.00000   -1.50000
H38B  2    0.324970    0.770108    0.243433    11.00000   -1.50000
H38C  2    0.237657    0.710093    0.188626    11.00000   -1.50000
AFIX   0
C39   1    0.445000    0.772594    0.587259    11.00000    0.03356    0.03874 =
         0.03810   -0.00316    0.00094   -0.00028
AFIX 137
H39A  2    0.417871    0.794881    0.526078    11.00000   -1.50000
H39B  2    0.566099    0.773733    0.615585    11.00000   -1.50000
H39C  2    0.387792    0.791891    0.631355    11.00000   -1.50000
AFIX   0
C40   1    0.202235    0.702499    0.534315    11.00000    0.04190    0.06185 =
         0.05458   -0.00638    0.00479   -0.01269
AFIX 137
H40A  2    0.148889    0.731166    0.569625    11.00000   -1.50000
H40B  2    0.168091    0.660485    0.544336    11.00000   -1.50000
H40C  2    0.167921    0.712307    0.465597    11.00000   -1.50000
AFIX   0
O20   4    0.743692    0.525784    0.621177    11.00000    0.05301    0.05619 =
         0.03479    0.01056    0.00501   -0.00799
O21   4    0.767406    0.941747    0.093109    11.00000    0.07067    0.14864 =
         0.12836    0.10760   -0.00667   -0.02601
HKLF 4




REM  mo_30515c_0m in Pc
REM R1 =  0.0439 for    6071 Fo > 4sig(Fo)  and  0.0496 for all    6543 data
REM    680 parameters refined using    725 restraints

END

WGHT      0.0626      7.3884

REM Highest difference peak  1.451,  deepest hole -0.707,  1-sigma level  0.153
Q1    1  -0.2111  0.6678  0.3639  11.00000  0.05    1.45
Q2    1  -0.5707  0.7727 -0.0408  11.00000  0.05    1.44
Q3    1  -0.3335  0.8329  0.3824  11.00000  0.05    1.38
Q4    1  -0.0179  0.7284  0.7991  11.00000  0.05    1.13
Q5    1  -0.2399  0.7933  0.3663  11.00000  0.05    1.09
;
_shelx_res_checksum              74277
loop_
_space_group_symop_operation_xyz
'x, y, z'
'x, -y, z+1/2'
loop_
_atom_site_label
_atom_site_type_symbol
_atom_site_fract_x
_atom_site_fract_y
_atom_site_fract_z
_atom_site_U_iso_or_equiv
_atom_site_adp_type
_atom_site_occupancy
_atom_site_site_symmetry_order
_atom_site_calc_flag
_atom_site_refinement_flags_posn
_atom_site_refinement_flags_adp
_atom_site_refinement_flags_occupancy
Co1 Co -0.30599(14) 0.66919(5) 0.38633(8) 0.0133(3) Uani 0.5 1 d . . P
Zn1 Zn -0.30599(14) 0.66919(5) 0.38633(8) 0.0133(3) Uani 0.5 1 d . . P
Co2 Co -0.23394(14) 0.83391(5) 0.36069(7) 0.0127(3) Uani 0.5 1 d . . P
Zn2 Zn -0.23394(14) 0.83391(5) 0.36069(7) 0.0127(3) Uani 0.5 1 d . . P
Co3 Co -0.01705(16) 0.77780(5) 0.79867(8) 0.0181(3) Uani 0.5 1 d . . P
Zn3 Zn -0.01705(16) 0.77780(5) 0.79867(8) 0.0181(3) Uani 0.5 1 d . . P
Co4 Co -0.57137(16) 0.72877(5) -0.03915(8) 0.0166(3) Uani 0.5 1 d . . P
Zn4 Zn -0.57137(16) 0.72877(5) -0.03915(8) 0.0166(3) Uani 0.5 1 d . . P
N1 N -0.2117(12) 0.7286(4) 0.4960(6) 0.0165(18) Uani 1 1 d . U .
N2 N -0.2133(12) 0.7940(4) 0.4875(6) 0.0169(17) Uani 1 1 d . U .
N3 N -0.1147(11) 0.7688(4) 0.6462(6) 0.0164(17) Uani 1 1 d . U .
N4 N -0.1386(16) 0.6588(4) 0.6299(7) 0.033(3) Uani 1 1 d . U .
H4A H -0.100917 0.653031 0.692054 0.040 Uiso 1 1 calc R U .
H4B H -0.166478 0.627230 0.591210 0.040 Uiso 1 1 calc R U .
N5 N -0.1380(13) 0.8765(4) 0.6006(6) 0.022(2) Uani 1 1 d . U .
H5A H -0.165627 0.903946 0.554533 0.026 Uiso 1 1 calc R U .
H5B H -0.099588 0.888410 0.660533 0.026 Uiso 1 1 calc R U .
N6 N -0.3298(12) 0.7100(4) 0.2592(6) 0.0172(18) Uani 1 1 d . U .
N7 N -0.3522(12) 0.7760(4) 0.2534(6) 0.0180(18) Uani 1 1 d . U .
N8 N -0.4447(11) 0.7353(4) 0.1034(6) 0.0136(16) Uani 1 1 d . U .
N9 N -0.3860(14) 0.6290(4) 0.1408(7) 0.026(2) Uani 1 1 d . U .
H9A H -0.348806 0.600623 0.184380 0.032 Uiso 1 1 calc R U .
H9B H -0.423715 0.618670 0.080115 0.032 Uiso 1 1 calc R U .
N10 N -0.4690(14) 0.8453(4) 0.1222(7) 0.029(2) Uani 1 1 d . U .
H10A H -0.457628 0.877336 0.160412 0.034 Uiso 1 1 calc R U .
H10B H -0.511958 0.849762 0.060158 0.034 Uiso 1 1 calc R U .
N11 N 0.1070(13) 0.7897(4) 0.1392(7) 0.0262(19) Uani 1 1 d . . .
H11B H 0.160367 0.796044 0.093630 0.031 Uiso 1 1 d R U .
H11A H 0.104571 0.827173 0.164420 0.031 Uiso 1 1 d R U .
N12 N 0.3894(14) 0.7079(4) 0.5702(7) 0.031(2) Uani 1 1 d . . .
H12B H 0.413636 0.678474 0.619354 0.037 Uiso 1 1 d R U .
H12A H 0.446113 0.686059 0.531957 0.037 Uiso 1 1 d R U .
O1 O -0.1570(12) 0.5998(3) 0.4295(6) 0.0301(19) Uani 1 1 d . . .
O2 O -0.2165(12) 0.5426(4) 0.2931(6) 0.032(2) Uani 1 1 d . . .
O3 O 0.0177(10) 0.3162(3) 0.3329(5) 0.0186(15) Uani 1 1 d . . .
O4 O 0.2010(10) 0.2943(3) 0.4749(5) 0.0162(14) Uani 1 1 d . . .
O5 O 0.4661(9) 0.3518(3) 0.9057(5) 0.0210(16) Uani 1 1 d . . .
O6 O 0.4385(13) 0.4210(4) 1.0177(5) 0.038(2) Uani 1 1 d . . .
O7 O 0.5033(10) 0.6485(3) 0.9207(5) 0.0233(17) Uani 1 1 d . . .
O8 O 0.5059(11) 0.6677(3) 0.7669(5) 0.0294(18) Uani 1 1 d . . .
O9 O -0.0062(11) 0.8395(3) 0.3327(6) 0.0222(16) Uani 1 1 d . . .
O10 O 0.0838(12) 0.9007(3) 0.2294(5) 0.0319(19) Uani 1 1 d . . .
O11 O -0.0474(10) 1.1285(3) 0.3056(5) 0.0228(17) Uani 1 1 d . . .
O12 O 0.0881(11) 1.1627(3) 0.4506(5) 0.0280(18) Uani 1 1 d . . .
O13 O 0.6371(12) 1.0914(3) 0.8149(6) 0.0286(19) Uani 1 1 d . . .
O14 O 0.6964(12) 1.0336(3) 0.9502(6) 0.031(2) Uani 1 1 d . . .
O15 O 0.4747(9) 0.8102(3) 0.9100(5) 0.0171(14) Uani 1 1 d . . .
O16 O 0.2421(10) 0.7904(3) 0.7920(5) 0.0177(15) Uani 1 1 d . . .
O17 O -0.2508(11) 0.7624(3) 0.8331(6) 0.0313(18) Uani 1 1 d . . .
H17A H -0.309563 0.797237 0.843016 0.038 Uiso 1 1 d R U .
H17B H -0.330785 0.732024 0.816472 0.038 Uiso 1 1 d R U .
C1 C -0.1425(15) 0.5507(5) 0.3798(8) 0.022(2) Uani 1 1 d . . .
C2 C -0.0261(15) 0.5008(4) 0.4352(7) 0.019(2) Uani 1 1 d . . .
C3 C -0.0179(14) 0.4414(5) 0.3973(8) 0.019(2) Uani 1 1 d . . .
H3 H -0.083771 0.431497 0.334761 0.023 Uiso 1 1 calc R U .
C4 C 0.0890(15) 0.3967(5) 0.4530(8) 0.021(2) Uani 1 1 d . U .
C5 C 0.1050(14) 0.3321(4) 0.4180(8) 0.015(2) Uani 1 1 d . . .
C6 C 0.1910(15) 0.4126(5) 0.5473(8) 0.022(2) Uani 1 1 d . . .
H6 H 0.266058 0.383252 0.583665 0.026 Uiso 1 1 calc R U .
C7 C 0.0737(15) 0.5150(5) 0.5303(7) 0.021(2) Uani 1 1 d . . .
H7 H 0.066806 0.554837 0.555720 0.025 Uiso 1 1 calc R U .
C8 C 0.1797(14) 0.4721(4) 0.5859(7) 0.017(2) Uani 1 1 d . . .
C9 C 0.2844(15) 0.4882(5) 0.6864(7) 0.020(2) Uani 1 1 d . . .
C10 C 0.3422(13) 0.5492(4) 0.7115(7) 0.0160(19) Uani 1 1 d . . .
H10 H 0.324387 0.579827 0.663005 0.019 Uiso 1 1 calc R U .
C11 C 0.3243(14) 0.4423(5) 0.7607(7) 0.019(2) Uani 1 1 d . . .
H11 H 0.294547 0.400739 0.745310 0.022 Uiso 1 1 calc R U .
C12 C 0.4084(15) 0.4586(5) 0.8574(7) 0.021(2) Uani 1 1 d . . .
C13 C 0.4425(15) 0.4080(5) 0.9337(8) 0.024(2) Uani 1 1 d . . .
C14 C 0.4521(14) 0.5197(4) 0.8805(7) 0.018(2) Uani 1 1 d . . .
H14 H 0.499560 0.530752 0.945599 0.022 Uiso 1 1 calc R U .
C15 C 0.4268(13) 0.5651(4) 0.8086(7) 0.0160(18) Uani 1 1 d . . .
C16 C 0.4836(14) 0.6314(4) 0.8314(7) 0.0188(19) Uani 1 1 d . . .
C17 C 0.0497(14) 0.8919(4) 0.3088(7) 0.0181(19) Uani 1 1 d . . .
C18 C 0.0839(14) 0.9431(5) 0.3847(7) 0.020(2) Uani 1 1 d . . .
C19 C 0.0449(13) 1.0046(4) 0.3558(7) 0.0179(19) Uani 1 1 d . . .
H19 H -0.003341 1.014065 0.290103 0.021 Uiso 1 1 calc R U .
C20 C 0.0782(13) 1.0520(4) 0.4255(7) 0.0164(19) Uani 1 1 d . . .
C21 C 0.0381(14) 1.1177(4) 0.3938(7) 0.020(2) Uani 1 1 d . . .
C22 C 0.1599(13) 1.0380(4) 0.5226(7) 0.0140(18) Uani 1 1 d . . .
H22 H 0.188439 1.070255 0.568124 0.017 Uiso 1 1 calc R U .
C23 C 0.1593(13) 0.9294(5) 0.4831(7) 0.0162(19) Uani 1 1 d . . .
H23 H 0.182963 0.888021 0.502579 0.019 Uiso 1 1 calc R U .
C24 C 0.1991(13) 0.9772(4) 0.5523(7) 0.0164(19) Uani 1 1 d . . .
C25 C 0.2939(14) 0.9619(4) 0.6550(7) 0.018(2) Uani 1 1 d . . .
C26 C 0.2794(13) 0.9045(4) 0.6983(7) 0.0132(18) Uani 1 1 d . . .
H26 H 0.202194 0.875133 0.663893 0.016 Uiso 1 1 calc R U .
C27 C 0.4062(15) 1.0057(4) 0.7119(8) 0.018(2) Uani 1 1 d . . .
H27 H 0.413892 1.045288 0.685949 0.021 Uiso 1 1 calc R U .
C28 C 0.5055(14) 0.9924(4) 0.8046(7) 0.017(2) Uani 1 1 d . . .
C29 C 0.6219(15) 1.0412(4) 0.8635(7) 0.020(2) Uani 1 1 d . . .
C30 C 0.4910(15) 0.9338(4) 0.8470(8) 0.018(2) Uani 1 1 d . . .
H30 H 0.555161 0.924494 0.910139 0.022 Uiso 1 1 calc R U .
C31 C 0.3779(13) 0.8900(4) 0.7922(7) 0.0125(18) Uani 1 1 d . . .
C32 C 0.3611(15) 0.8263(4) 0.8324(8) 0.017(2) Uani 1 1 d . . .
C33 C -0.1536(15) 0.7159(5) 0.5939(8) 0.017(2) Uani 1 1 d . . .
C34 C -0.1544(13) 0.8161(5) 0.5793(7) 0.0128(18) Uani 1 1 d . . .
C35 C -0.3853(13) 0.6889(5) 0.1673(7) 0.0146(19) Uani 1 1 d . . .
C36 C -0.4188(15) 0.7875(5) 0.1602(8) 0.017(2) Uani 1 1 d . . .
C37 C -0.0615(15) 0.7632(7) 0.1016(9) 0.044(3) Uani 1 1 d . . .
H37A H -0.053694 0.725966 0.064954 0.067 Uiso 1 1 calc R U .
H37B H -0.133709 0.793125 0.059669 0.067 Uiso 1 1 calc R U .
H37C H -0.108951 0.752993 0.155377 0.067 Uiso 1 1 calc R U .
C38 C 0.218(2) 0.7494(7) 0.2168(10) 0.052(4) Uani 1 1 d . . .
H38A H 0.162175 0.742194 0.268108 0.078 Uiso 1 1 calc R U .
H38B H 0.324970 0.770108 0.243433 0.078 Uiso 1 1 calc R U .
H38C H 0.237657 0.710093 0.188626 0.078 Uiso 1 1 calc R U .
C39 C 0.4450(18) 0.7726(5) 0.5873(10) 0.038(3) Uani 1 1 d . . .
H39A H 0.417871 0.794881 0.526078 0.058 Uiso 1 1 calc R U .
H39B H 0.566099 0.773733 0.615585 0.058 Uiso 1 1 calc R U .
H39C H 0.387792 0.791891 0.631355 0.058 Uiso 1 1 calc R U .
C40 C 0.202(2) 0.7025(8) 0.5343(12) 0.054(4) Uani 1 1 d . . .
H40A H 0.148889 0.731166 0.569625 0.081 Uiso 1 1 calc R U .
H40B H 0.168091 0.660485 0.544336 0.081 Uiso 1 1 calc R U .
H40C H 0.167921 0.712307 0.465597 0.081 Uiso 1 1 calc R U .
O20 O 0.7437(13) 0.5258(4) 0.6212(6) 0.049(3) Uani 1 1 d . . .
O21 O 0.767(2) 0.9417(8) 0.0931(12) 0.122(7) Uani 1 1 d . . .
loop_
_atom_site_aniso_label
_atom_site_aniso_U_11
_atom_site_aniso_U_22
_atom_site_aniso_U_33
_atom_site_aniso_U_23
_atom_site_aniso_U_13
_atom_site_aniso_U_12
Co1 0.0192(7) 0.0132(5) 0.0037(5) 0.0003(4) -0.0038(5) 0.0014(5)
Zn1 0.0192(7) 0.0132(5) 0.0037(5) 0.0003(4) -0.0038(5) 0.0014(5)
Co2 0.0184(6) 0.0130(5) 0.0025(6) 0.0000(4) -0.0050(5) 0.0009(5)
Zn2 0.0184(6) 0.0130(5) 0.0025(6) 0.0000(4) -0.0050(5) 0.0009(5)
Co3 0.0212(7) 0.0182(6) 0.0105(6) 0.0017(5) -0.0035(5) -0.0015(5)
Zn3 0.0212(7) 0.0182(6) 0.0105(6) 0.0017(5) -0.0035(5) -0.0015(5)
Co4 0.0194(7) 0.0197(6) 0.0072(6) -0.0005(5) -0.0032(5) -0.0028(5)
Zn4 0.0194(7) 0.0197(6) 0.0072(6) -0.0005(5) -0.0032(5) -0.0028(5)
N1 0.022(5) 0.015(3) 0.007(3) -0.004(3) -0.006(3) 0.001(3)
N2 0.023(5) 0.013(3) 0.012(3) -0.004(3) 0.001(3) -0.004(3)
N3 0.016(4) 0.020(3) 0.008(3) 0.000(3) -0.006(3) -0.003(3)
N4 0.063(8) 0.021(4) 0.008(4) -0.004(3) -0.005(5) 0.001(4)
N5 0.036(6) 0.019(4) 0.005(4) -0.001(3) -0.004(4) -0.003(4)
N6 0.021(5) 0.018(3) 0.009(3) 0.001(3) -0.003(3) 0.002(3)
N7 0.022(5) 0.016(3) 0.009(3) 0.004(3) -0.008(3) 0.000(3)
N8 0.017(4) 0.015(3) 0.006(3) 0.000(3) -0.003(3) 0.003(3)
N9 0.048(7) 0.015(4) 0.007(4) 0.001(3) -0.007(4) 0.004(4)
N10 0.053(7) 0.016(4) 0.007(4) 0.003(3) -0.010(4) 0.010(4)
N11 0.024(5) 0.033(5) 0.020(5) -0.003(4) 0.003(4) -0.003(4)
N12 0.034(6) 0.036(4) 0.023(5) -0.003(4) 0.008(4) 0.005(4)
O1 0.045(5) 0.022(3) 0.014(4) -0.001(3) -0.008(4) 0.011(3)
O2 0.044(6) 0.030(4) 0.011(3) -0.003(3) -0.014(3) 0.013(4)
O3 0.023(4) 0.014(3) 0.012(3) -0.002(2) -0.008(3) 0.006(3)
O4 0.014(4) 0.022(3) 0.012(3) 0.001(3) 0.001(3) 0.005(3)
O5 0.012(4) 0.030(3) 0.021(4) 0.005(3) 0.003(3) 0.007(3)
O6 0.063(7) 0.038(4) 0.008(3) 0.002(3) 0.002(4) 0.006(4)
O7 0.029(5) 0.029(4) 0.007(3) -0.007(3) -0.003(3) 0.005(3)
O8 0.044(5) 0.026(3) 0.012(3) -0.002(3) -0.003(3) -0.012(3)
O9 0.026(4) 0.020(3) 0.019(4) 0.000(3) 0.004(3) -0.001(3)
O10 0.052(6) 0.029(4) 0.019(4) -0.002(3) 0.017(4) -0.007(4)
O11 0.030(5) 0.025(3) 0.009(3) 0.008(3) -0.002(3) -0.002(3)
O12 0.042(5) 0.019(3) 0.019(4) -0.001(3) -0.001(3) 0.002(3)
O13 0.043(5) 0.016(3) 0.016(4) 0.005(3) -0.013(4) -0.011(3)
O14 0.045(5) 0.024(4) 0.015(3) 0.002(3) -0.012(4) -0.008(4)
O15 0.017(4) 0.021(3) 0.011(3) 0.007(3) 0.000(3) -0.002(3)
O16 0.015(3) 0.022(3) 0.016(3) -0.002(3) 0.003(3) -0.004(3)
O17 0.028(4) 0.033(4) 0.036(4) -0.015(3) 0.014(4) -0.014(3)
C1 0.023(6) 0.019(4) 0.017(4) -0.001(3) -0.007(4) 0.002(4)
C2 0.026(6) 0.018(4) 0.010(4) 0.000(3) -0.001(4) -0.001(4)
C3 0.015(5) 0.023(4) 0.013(5) -0.001(3) -0.008(4) 0.002(4)
C4 0.025(5) 0.018(4) 0.013(4) -0.001(3) -0.008(4) 0.000(4)
C5 0.015(5) 0.022(4) 0.010(4) -0.002(3) 0.003(4) 0.001(3)
C6 0.024(6) 0.021(4) 0.014(5) -0.001(3) -0.008(4) 0.006(4)
C7 0.031(6) 0.018(4) 0.010(4) -0.003(3) 0.000(4) 0.000(4)
C8 0.021(5) 0.021(4) 0.006(4) -0.001(3) 0.000(4) -0.002(4)
C9 0.025(6) 0.023(4) 0.009(4) 0.001(3) -0.004(4) 0.004(4)
C10 0.014(5) 0.022(4) 0.012(4) 0.000(3) 0.004(4) 0.005(4)
C11 0.016(5) 0.021(4) 0.013(4) -0.002(3) -0.007(4) 0.001(4)
C12 0.029(6) 0.026(4) 0.007(4) -0.002(3) 0.002(4) 0.007(4)
C13 0.025(6) 0.026(4) 0.015(4) 0.000(3) -0.003(4) 0.001(4)
C14 0.021(6) 0.025(4) 0.006(4) -0.005(3) -0.001(4) 0.003(4)
C15 0.013(5) 0.023(4) 0.012(4) -0.002(3) 0.002(4) 0.001(4)
C16 0.017(5) 0.024(4) 0.014(4) -0.002(3) 0.001(4) 0.000(4)
C17 0.019(5) 0.022(4) 0.010(4) 0.002(3) -0.001(4) 0.000(4)
C18 0.018(5) 0.023(4) 0.014(4) 0.001(3) -0.006(4) 0.000(4)
C19 0.013(5) 0.027(4) 0.010(4) 0.004(3) -0.003(4) 0.000(4)
C20 0.010(5) 0.024(4) 0.014(4) 0.005(3) 0.002(4) 0.001(4)
C21 0.022(6) 0.023(4) 0.013(4) 0.004(3) 0.001(4) -0.003(4)
C22 0.010(5) 0.021(4) 0.011(4) 0.001(3) 0.003(4) -0.004(4)
C23 0.012(5) 0.023(4) 0.013(4) 0.003(3) 0.001(4) -0.001(4)
C24 0.013(5) 0.021(4) 0.013(4) 0.003(3) -0.001(4) -0.003(4)
C25 0.019(5) 0.020(4) 0.009(4) -0.003(3) -0.003(4) -0.001(4)
C26 0.007(5) 0.019(4) 0.011(4) -0.003(3) -0.002(4) 0.002(3)
C27 0.022(5) 0.013(4) 0.014(4) 0.002(3) -0.001(4) -0.003(4)
C28 0.017(5) 0.021(4) 0.010(4) -0.001(3) -0.001(4) -0.005(4)
C29 0.027(6) 0.015(4) 0.012(4) 0.001(3) -0.005(4) -0.002(4)
C30 0.022(6) 0.020(4) 0.009(4) 0.002(3) -0.002(4) 0.000(4)
C31 0.007(5) 0.023(4) 0.005(4) 0.000(3) -0.003(3) 0.001(3)
C32 0.020(5) 0.016(4) 0.010(4) -0.001(3) -0.003(4) 0.000(3)
C33 0.017(5) 0.023(4) 0.007(4) 0.001(3) -0.002(4) 0.001(4)
C34 0.009(5) 0.020(4) 0.008(4) 0.001(3) -0.002(4) 0.001(4)
C35 0.013(5) 0.021(4) 0.008(4) 0.000(3) -0.001(4) 0.000(4)
C36 0.024(6) 0.017(4) 0.007(4) 0.000(3) -0.003(4) 0.001(4)
C37 0.009(5) 0.099(10) 0.031(7) -0.017(6) 0.015(5) -0.019(6)
C38 0.041(8) 0.071(10) 0.037(7) 0.013(7) -0.002(6) 0.017(7)
C39 0.034(7) 0.039(6) 0.038(7) -0.003(5) 0.001(6) 0.000(5)
C40 0.042(7) 0.062(9) 0.055(9) -0.006(7) 0.005(7) -0.013(7)
O20 0.053(7) 0.056(6) 0.035(5) 0.011(4) 0.005(5) -0.008(5)
O21 0.071(10) 0.149(14) 0.128(13) 0.108(12) -0.007(9) -0.026(9)
loop_
_atom_type_symbol
_atom_type_description
_atom_type_scat_dispersion_real
_atom_type_scat_dispersion_imag
_atom_type_scat_source
C C 0.0033 0.0016 'International Tables Vol C Tables 4.2.6.8 and 6.1.1.4'
H H 0.0000 0.0000 'International Tables Vol C Tables 4.2.6.8 and 6.1.1.4'
N N 0.0061 0.0033 'International Tables Vol C Tables 4.2.6.8 and 6.1.1.4'
O O 0.0106 0.0060 'International Tables Vol C Tables 4.2.6.8 and 6.1.1.4'
Co Co 0.3494 0.9721 'International Tables Vol C Tables 4.2.6.8 and 6.1.1.4'
Zn Zn 0.2839 1.4301 'International Tables Vol C Tables 4.2.6.8 and 6.1.1.4'
loop_
_geom_angle_atom_site_label_1
_geom_angle_atom_site_label_2
_geom_angle_atom_site_label_3
_geom_angle
_geom_angle_site_symmetry_1
_geom_angle_site_symmetry_3
O1 Co1 N6 122.8(4) . .
O1 Co1 O5 108.4(4) . 2_464
N6 Co1 O5 110.6(4) . 2_464
O1 Co1 N1 99.3(3) . .
N6 Co1 N1 110.8(4) . .
O5 Co1 N1 102.7(3) 2_464 .
O13 Co2 N2 125.5(3) 2_474 .
O13 Co2 O9 109.6(3) 2_474 .
N2 Co2 O9 110.2(4) . .
O13 Co2 N7 98.4(3) 2_474 .
N2 Co2 N7 109.6(3) . .
O9 Co2 N7 100.1(3) . .
O11 Co3 O3 163.9(3) 2_575 2_565
O11 Co3 N3 97.0(3) 2_575 .
O3 Co3 N3 98.3(3) 2_565 .
O11 Co3 O17 90.9(3) 2_575 .
O3 Co3 O17 82.6(3) 2_565 .
N3 Co3 O17 95.7(3) . .
O11 Co3 O16 90.6(3) 2_575 .
O3 Co3 O16 93.2(3) 2_565 .
N3 Co3 O16 94.6(3) . .
O17 Co3 O16 169.3(3) . .
O7 Co4 O15 124.9(3) 1_454 1_454
O7 Co4 O4 100.3(3) 1_454 2_464
O15 Co4 O4 122.2(3) 1_454 2_464
O7 Co4 N8 103.6(3) 1_454 .
O15 Co4 N8 102.1(3) 1_454 .
O4 Co4 N8 99.5(3) 2_464 .
C33 N1 N2 106.1(8) . .
C33 N1 Co1 128.4(7) . .
N2 N1 Co1 125.1(6) . .
C34 N2 N1 106.0(8) . .
C34 N2 Co2 130.9(7) . .
N1 N2 Co2 120.7(6) . .
C33 N3 C34 105.2(9) . .
C33 N3 Co3 127.8(7) . .
C34 N3 Co3 127.0(7) . .
C33 N4 H4A 120.0 . .
C33 N4 H4B 120.0 . .
H4A N4 H4B 120.0 . .
C34 N5 H5A 120.0 . .
C34 N5 H5B 120.0 . .
H5A N5 H5B 120.0 . .
C35 N6 N7 105.8(8) . .
C35 N6 Co1 131.9(7) . .
N7 N6 Co1 118.3(6) . .
C36 N7 N6 105.0(8) . .
C36 N7 Co2 129.5(7) . .
N6 N7 Co2 122.8(6) . .
C35 N8 C36 103.7(9) . .
C35 N8 Co4 128.4(7) . .
C36 N8 Co4 127.4(7) . .
C35 N9 H9A 120.0 . .
C35 N9 H9B 120.0 . .
H9A N9 H9B 120.0 . .
C36 N10 H10A 120.0 . .
C36 N10 H10B 120.0 . .
H10A N10 H10B 120.0 . .
C37 N11 C38 112.0(11) . .
C37 N11 H11B 113.1 . .
C38 N11 H11B 108.0 . .
C37 N11 H11A 112.7 . .
C38 N11 H11A 107.5 . .
H11B N11 H11A 103.0 . .
C39 N12 C40 112.3(11) . .
C39 N12 H12B 122.0 . .
C40 N12 H12B 101.9 . .
C39 N12 H12A 113.4 . .
C40 N12 H12A 112.6 . .
H12B N12 H12A 93.0 . .
C1 O1 Co1 126.9(7) . .
C5 O3 Co3 119.3(6) . 2_564
C5 O4 Co4 122.6(6) . 2_665
C13 O5 Co1 117.9(7) . 2_665
C16 O7 Co4 124.6(6) . 1_656
C17 O9 Co2 120.9(7) . .
C21 O11 Co3 100.6(6) . 2_574
C29 O13 Co2 128.8(7) . 2_675
C32 O15 Co4 112.9(6) . 1_656
C32 O16 Co3 135.1(7) . .
Co3 O17 H17A 116.5 . .
Co3 O17 H17B 133.0 . .
H17A O17 H17B 104.8 . .
O2 C1 O1 124.7(10) . .
O2 C1 C2 119.9(9) . .
O1 C1 C2 115.4(9) . .
C3 C2 C7 119.4(9) . .
C3 C2 C1 122.3(9) . .
C7 C2 C1 118.2(9) . .
C2 C3 C4 119.8(10) . .
C2 C3 H3 120.1 . .
C4 C3 H3 120.1 . .
C3 C4 C6 119.6(9) . .
C3 C4 C5 123.2(10) . .
C6 C4 C5 117.2(9) . .
O4 C5 O3 122.1(9) . .
O4 C5 C4 118.6(9) . .
O3 C5 C4 119.2(9) . .
C8 C6 C4 120.3(10) . .
C8 C6 H6 119.8 . .
C4 C6 H6 119.8 . .
C8 C7 C2 121.8(9) . .
C8 C7 H7 119.1 . .
C2 C7 H7 119.1 . .
C7 C8 C6 119.0(9) . .
C7 C8 C9 120.8(9) . .
C6 C8 C9 120.2(9) . .
C10 C9 C11 117.6(9) . .
C10 C9 C8 121.7(9) . .
C11 C9 C8 120.7(9) . .
C9 C10 C15 121.2(9) . .
C9 C10 H10 119.4 . .
C15 C10 H10 119.4 . .
C12 C11 C9 120.7(9) . .
C12 C11 H11 119.7 . .
C9 C11 H11 119.7 . .
C14 C12 C11 119.9(9) . .
C14 C12 C13 121.8(9) . .
C11 C12 C13 118.3(9) . .
O6 C13 O5 123.2(9) . .
O6 C13 C12 119.1(9) . .
O5 C13 C12 117.6(9) . .
C12 C14 C15 120.9(9) . .
C12 C14 H14 119.5 . .
C15 C14 H14 119.5 . .
C14 C15 C10 119.3(9) . .
C14 C15 C16 121.8(9) . .
C10 C15 C16 118.9(8) . .
O8 C16 O7 122.5(9) . .
O8 C16 C15 121.8(8) . .
O7 C16 C15 115.7(8) . .
O10 C17 O9 123.1(9) . .
O10 C17 C18 119.5(9) . .
O9 C17 C18 117.3(9) . .
C19 C18 C23 120.0(9) . .
C19 C18 C17 119.5(9) . .
C23 C18 C17 120.6(9) . .
C20 C19 C18 119.6(9) . .
C20 C19 H19 120.2 . .
C18 C19 H19 120.2 . .
C19 C20 C22 119.8(9) . .
C19 C20 C21 119.2(9) . .
C22 C20 C21 120.8(9) . .
O12 C21 O11 119.3(9) . .
O12 C21 C20 121.6(9) . .
O11 C21 C20 119.1(9) . .
C24 C22 C20 121.1(9) . .
C24 C22 H22 119.5 . .
C20 C22 H22 119.5 . .
C24 C23 C18 120.4(9) . .
C24 C23 H23 119.8 . .
C18 C23 H23 119.8 . .
C22 C24 C23 119.0(9) . .
C22 C24 C25 121.5(9) . .
C23 C24 C25 119.4(9) . .
C26 C25 C27 116.9(9) . .
C26 C25 C24 122.7(9) . .
C27 C25 C24 120.4(9) . .
C25 C26 C31 121.5(9) . .
C25 C26 H26 119.3 . .
C31 C26 H26 119.3 . .
C28 C27 C25 122.7(9) . .
C28 C27 H27 118.7 . .
C25 C27 H27 118.7 . .
C27 C28 C30 119.7(9) . .
C27 C28 C29 120.8(9) . .
C30 C28 C29 119.4(9) . .
O14 C29 O13 123.1(10) . .
O14 C29 C28 122.5(9) . .
O13 C29 C28 114.4(9) . .
C31 C30 C28 118.5(9) . .
C31 C30 H30 120.8 . .
C28 C30 H30 120.8 . .
C26 C31 C30 120.6(9) . .
C26 C31 C32 118.5(9) . .
C30 C31 C32 120.8(9) . .
O16 C32 O15 121.5(9) . .
O16 C32 C31 121.5(10) . .
O15 C32 C31 117.0(9) . .
N4 C33 N3 125.7(10) . .
N4 C33 N1 123.2(10) . .
N3 C33 N1 111.1(9) . .
N5 C34 N2 123.4(9) . .
N5 C34 N3 124.9(9) . .
N2 C34 N3 111.7(9) . .
N9 C35 N6 124.9(9) . .
N9 C35 N8 123.1(9) . .
N6 C35 N8 112.0(9) . .
N7 C36 N8 113.4(9) . .
N7 C36 N10 124.6(9) . .
N8 C36 N10 121.8(9) . .
N11 C37 H37A 109.5 . .
N11 C37 H37B 109.5 . .
H37A C37 H37B 109.5 . .
N11 C37 H37C 109.5 . .
H37A C37 H37C 109.5 . .
H37B C37 H37C 109.5 . .
N11 C38 H38A 109.5 . .
N11 C38 H38B 109.5 . .
H38A C38 H38B 109.5 . .
N11 C38 H38C 109.5 . .
H38A C38 H38C 109.5 . .
H38B C38 H38C 109.5 . .
N12 C39 H39A 109.5 . .
N12 C39 H39B 109.5 . .
H39A C39 H39B 109.5 . .
N12 C39 H39C 109.5 . .
H39A C39 H39C 109.5 . .
H39B C39 H39C 109.5 . .
N12 C40 H40A 109.5 . .
N12 C40 H40B 109.5 . .
H40A C40 H40B 109.5 . .
N12 C40 H40C 109.5 . .
H40A C40 H40C 109.5 . .
H40B C40 H40C 109.5 . .
loop_
_geom_bond_atom_site_label_1
_geom_bond_atom_site_label_2
_geom_bond_distance
_geom_bond_site_symmetry_2
Co1 O1 1.909(8) .
Co1 N6 1.958(8) .
Co1 O5 1.988(7) 2_464
Co1 N1 1.994(8) .
Co2 O13 1.925(7) 2_474
Co2 N2 1.950(8) .
Co2 O9 1.990(8) .
Co2 N7 1.998(9) .
Co3 O11 2.021(7) 2_575
Co3 O3 2.066(6) 2_565
Co3 N3 2.100(8) .
Co3 O17 2.101(8) .
Co3 O16 2.145(7) .
Co4 O7 1.949(7) 1_454
Co4 O15 1.952(7) 1_454
Co4 O4 1.969(7) 2_464
Co4 N8 2.013(9) .
N1 C33 1.366(14) .
N1 N2 1.400(11) .
N2 C34 1.344(13) .
N3 C33 1.341(14) .
N3 C34 1.362(13) .
N4 C33 1.314(14) .
N4 H4A 0.8600 .
N4 H4B 0.8600 .
N5 C34 1.325(13) .
N5 H5A 0.8600 .
N5 H5B 0.8600 .
N6 C35 1.335(13) .
N6 N7 1.421(12) .
N7 C36 1.309(14) .
N8 C35 1.342(13) .
N8 C36 1.357(13) .
N9 C35 1.332(13) .
N9 H9A 0.8600 .
N9 H9B 0.8600 .
N10 C36 1.365(13) .
N10 H10A 0.8600 .
N10 H10B 0.8600 .
N11 C37 1.447(15) .
N11 C38 1.496(16) .
N11 H11B 0.8735 .
N11 H11A 0.8776 .
N12 C39 1.453(15) .
N12 C40 1.475(19) .
N12 H12B 0.9187 .
N12 H12A 0.9223 .
O1 C1 1.283(13) .
O2 C1 1.227(13) .
O3 C5 1.272(13) .
O4 C5 1.257(13) .
O5 C13 1.295(13) .
O6 C13 1.225(13) .
O7 C16 1.282(11) .
O8 C16 1.243(12) .
O9 C17 1.284(12) .
O10 C17 1.236(12) .
O11 C21 1.279(12) .
O12 C21 1.250(12) .
O13 C29 1.296(12) .
O14 C29 1.226(13) .
O15 C32 1.283(13) .
O16 C32 1.249(13) .
O17 H17A 0.9133 .
O17 H17B 0.9048 .
C1 C2 1.501(14) .
C2 C3 1.385(14) .
C2 C7 1.409(14) .
C3 C4 1.388(15) .
C3 H3 0.9300 .
C4 C6 1.414(15) .
C4 C5 1.481(13) .
C6 C8 1.395(14) .
C6 H6 0.9300 .
C7 C8 1.358(15) .
C7 H7 0.9300 .
C8 C9 1.493(14) .
C9 C10 1.398(14) .
C9 C11 1.410(14) .
C10 C15 1.405(14) .
C10 H10 0.9300 .
C11 C12 1.402(14) .
C11 H11 0.9300 .
C12 C14 1.369(14) .
C12 C13 1.499(14) .
C14 C15 1.380(14) .
C14 H14 0.9300 .
C15 C16 1.498(13) .
C17 C18 1.505(13) .
C18 C19 1.388(14) .
C18 C23 1.395(14) .
C19 C20 1.386(14) .
C19 H19 0.9300 .
C20 C22 1.391(13) .
C20 C21 1.482(13) .
C22 C24 1.377(13) .
C22 H22 0.9300 .
C23 C24 1.390(14) .
C23 H23 0.9300 .
C24 C25 1.490(14) .
C25 C26 1.388(14) .
C25 C27 1.403(15) .
C26 C31 1.393(14) .
C26 H26 0.9300 .
C27 C28 1.376(15) .
C27 H27 0.9300 .
C28 C30 1.403(14) .
C28 C29 1.504(14) .
C30 C31 1.395(14) .
C30 H30 0.9300 .
C31 C32 1.492(13) .
C37 H37A 0.9600 .
C37 H37B 0.9600 .
C37 H37C 0.9600 .
C38 H38A 0.9600 .
C38 H38B 0.9600 .
C38 H38C 0.9600 .
C39 H39A 0.9600 .
C39 H39B 0.9600 .
C39 H39C 0.9600 .
C40 H40A 0.9600 .
C40 H40B 0.9600 .
C40 H40C 0.9600 .
