#------------------------------------------------------------------------------
#$Date: 2019-10-25 05:26:34 +0300 (Fri, 25 Oct 2019) $
#$Revision: 219506 $
#$URL: file:///home/coder/svn-repositories/cod/cif/7/05/89/7058909.cif $
#------------------------------------------------------------------------------
#
# This file is available in the Crystallography Open Database (COD),
# http://www.crystallography.net/
#
# All data on this site have been placed in the public domain by the
# contributors.
#
data_7058909
loop_
_publ_author_name
'Esrafili, Leili'
'gharib, maniya'
'Morsali, Ali'
_publ_section_title
;
 Selective Detection and Removal of Mercury Ion by Dual-Functionalized
 Metal-Organic Frameworks: Design-for-Purpose
;
_journal_name_full               'New Journal of Chemistry'
_journal_paper_doi               10.1039/C9NJ03951A
_journal_year                    2019
_chemical_formula_moiety
'C46 H30 Cu2 N4 O12, 2(C3 H7 N O), 0.65(C3 H7 N O), 0.60(C3 H7 N O)'
_chemical_formula_sum            'C56.15 H53.15 Cu2 N7.25 O15.65'
_chemical_formula_weight         1206.99
_space_group_crystal_system      monoclinic
_space_group_IT_number           14
_space_group_name_Hall           '-P 2yn'
_space_group_name_H-M_alt        'P 1 21/n 1'
_symmetry_space_group_name_Hall  '-P 2yn'
_symmetry_space_group_name_H-M   'P 1 21/n 1'
_atom_sites_solution_hydrogens   mixed
_atom_sites_solution_primary     direct
_atom_sites_solution_secondary   difmap
_audit_creation_method           SHELXL-2014/7
_audit_update_record
;
2018-06-17 deposited with the CCDC.    2019-10-16 downloaded from the CCDC.
;
_cell_angle_alpha                90
_cell_angle_beta                 91.623(5)
_cell_angle_gamma                90
_cell_formula_units_Z            4
_cell_length_a                   16.1139(12)
_cell_length_b                   15.7868(11)
_cell_length_c                   24.2833(18)
_cell_measurement_reflns_used    2389
_cell_measurement_temperature    190(2)
_cell_measurement_theta_max      25.4
_cell_measurement_theta_min      3.0
_cell_volume                     6174.9(8)
_computing_cell_refinement
;
CrystalClear-SM Expert 2.1 b45 (Rigaku, 2015)
;
_computing_data_collection
;
CrystalClear-SM Expert 2.1 b45 (Rigaku, 2015)
;
_computing_data_reduction
;
CrystalClear-SM Expert 2.1 b45 (Rigaku, 2015)
;
_computing_structure_refinement  'SHELXL-2014/7 (Sheldrick, 2015)'
_computing_structure_solution    'SHELXT (Sheldrick, 2015)'
_diffrn_ambient_temperature      190(2)
_diffrn_detector                 PILT
_diffrn_detector_area_resol_mean 5.8140
_diffrn_measured_fraction_theta_full 0.993
_diffrn_measured_fraction_theta_max 0.963
_diffrn_measurement_device
;
AFC12 (Right): Kappa 3 circle
;
_diffrn_measurement_device_type
;
Rigaku Pilatus 200K
;
_diffrn_measurement_method       'profile data from \w-scans'
_diffrn_measurement_specimen_support Fiber
_diffrn_radiation_monochromator  Confocal
_diffrn_radiation_type           MoK\a
_diffrn_radiation_wavelength     0.71075
_diffrn_reflns_av_R_equivalents  0.1802
_diffrn_reflns_av_unetI/netI     0.1405
_diffrn_reflns_Laue_measured_fraction_full 0.993
_diffrn_reflns_Laue_measured_fraction_max 0.963
_diffrn_reflns_limit_h_max       18
_diffrn_reflns_limit_h_min       -19
_diffrn_reflns_limit_k_max       18
_diffrn_reflns_limit_k_min       -19
_diffrn_reflns_limit_l_max       28
_diffrn_reflns_limit_l_min       -29
_diffrn_reflns_number            51683
_diffrn_reflns_point_group_measured_fraction_full 0.993
_diffrn_reflns_point_group_measured_fraction_max 0.963
_diffrn_reflns_theta_full        25.242
_diffrn_reflns_theta_max         25.327
_diffrn_reflns_theta_min         3.310
_diffrn_source                   MicroMax003_Mo
_exptl_absorpt_coefficient_mu    0.757
_exptl_absorpt_correction_T_max  0.96
_exptl_absorpt_correction_T_min  0.53
_exptl_absorpt_correction_type   multi-scan
_exptl_absorpt_process_details   'Reqab (Rigaku, 1998)'
_exptl_crystal_colour            green
_exptl_crystal_density_diffrn    1.298
_exptl_crystal_description       platelet
_exptl_crystal_F_000             2496
_exptl_crystal_size_max          0.250
_exptl_crystal_size_mid          0.150
_exptl_crystal_size_min          0.050
_refine_diff_density_max         2.228
_refine_diff_density_min         -0.923
_refine_diff_density_rms         0.149
_refine_ls_extinction_method     none
_refine_ls_goodness_of_fit_ref   1.268
_refine_ls_hydrogen_treatment    mixed
_refine_ls_matrix_type           full
_refine_ls_number_parameters     770
_refine_ls_number_reflns         10946
_refine_ls_number_restraints     671
_refine_ls_restrained_S_all      1.237
_refine_ls_R_factor_all          0.2111
_refine_ls_R_factor_gt           0.1381
_refine_ls_shift/su_max          0.001
_refine_ls_shift/su_mean         0.000
_refine_ls_structure_factor_coef Fsqd
_refine_ls_weighting_details
'w=1/[\s^2^(Fo^2^)+(0.2000P)^2^] where P=(Fo^2^+2Fc^2^)/3'
_refine_ls_weighting_scheme      calc
_refine_ls_wR_factor_gt          0.3461
_refine_ls_wR_factor_ref         0.3977
_reflns_Friedel_coverage         0.000
_reflns_number_gt                6030
_reflns_number_total             10959
_reflns_threshold_expression     'I > 2\s(I)'
_cod_data_source_file            c9nj03951a2.cif
_cod_data_source_block           ml20_twinned
_cod_depositor_comments
;
The following automatic conversions were performed:

'_exptl_absorpt_correction_type' value 'Multi-scan' changed to
'multi-scan' according to
/home/data/users/saulius/crontab/automatic-downloads/rss-feeds/RSC/lib/dictionaries/cif_core.dic
dictionary named 'cif_core.dic' version 2.4.2 from 2011-04-26.

Automatic conversion script
Id: cif_fix_values 4973 2017-02-22 13:04:09Z antanas 
;
_cod_database_code               7058909
_shelx_shelxl_version_number     2014/7
_shelx_space_group_comment
;
The symmetry employed for this shelxl refinement is uniquely defined
by the following loop, which should always be used as a source of
symmetry information in preference to the above space-group names.
They are only intended as comments.
;
_shelx_res_file
;

    p21n.res created by SHELXL-2014/7


TITL p21n_a.res in P2(1)/n
REM Old TITL p21n in P21 #4
REM SHELXT solution in P2(1)/n
REM R1 0.342, Rweak 0.116, Alpha 0.223, Orientation as input
REM Formula found by SHELXT: C50 Cu2 N22 O18
CELL 0.71075 16.1139 15.7868 24.2833 90 91.623 90
ZERR 4 0.0012 0.0011 0.0018 0 0.005 0
LATT 1
SYMM 0.5-X,0.5+Y,0.5-Z
SFAC C Cu N O H
UNIT 224.6 8 29 62.6 212.6
OMIT       2   1   4
OMIT    -2   3   2
OMIT    -1   1   3
OMIT    1   1   3
OMIT    2   1   2
OMIT     0   0   4
OMIT    1   2   1
OMIT     2   0   2
OMIT    0   2   2
OMIT       0   3   1
OMIT    1   2   2
OMIT    -2   3   1
OMIT    -2   1   2
L.S. 10
PLAN  20
TWIN -1 0 0 0  -1 0 0.085 0 1.0
BOND $H
LIST 4
TEMP -83
fmap 2
acta
MORE -1
CONF
REM <olex2.extras>
REM <HklSrc "%./p21n.hkl">
REM </olex2.extras>

RIGU CU1 > C18
WGHT    0.200000
BASF   0.24259
FVAR       0.27156
CU1   2    0.815659    0.815447    0.169460    11.00000    0.03845    0.02404 =
         0.05510    0.00101    0.00216   -0.00574
CU2   2    0.707941    0.689852    0.162868    11.00000    0.03715    0.02316 =
         0.05824   -0.00075    0.00382   -0.00524
O1    4    0.479638    0.312497    0.107301    11.00000    0.06219    0.05116 =
         0.12854   -0.02145    0.01560   -0.01502
O2    4    0.075679    0.163187    0.245306    11.00000    0.05797    0.03535 =
         0.10618   -0.01447    0.01625   -0.01527
O1A   4    0.874699    0.740387    0.220698    11.00000    0.04813    0.03044 =
         0.08373    0.00849   -0.00912   -0.00289

O1B   4    0.739599    0.852825    0.228212    11.00000    0.04374    0.03788 =
         0.06210   -0.00413    0.01364   -0.00596
O2A   4    0.779371    0.636325    0.220998    11.00000    0.04828    0.03568 =
         0.06774    0.01056   -0.00658   -0.00593
O2B   4    0.646660    0.747297    0.220445    11.00000    0.04216    0.03217 =
         0.08408   -0.00877    0.01929   -0.00436
O3A   4    1.041132    0.505165    0.402565    11.00000    0.10868    0.02953 =
         0.08077   -0.00186   -0.03365    0.00073
O3B   4    0.488342    0.967169    0.407102    11.00000    0.15140    0.03443 =
         0.11499    0.00606    0.08033    0.01126
O4A   4    1.245509    0.624768    0.614361    11.00000    0.05301    0.03680 =
         0.06132   -0.00680   -0.00862    0.00149
O4B   4    0.369764    0.741025    0.606983    11.00000    0.04816    0.03338 =
         0.08747    0.01067    0.01903    0.01136
O5A   4    1.157396    0.734142    0.605622    11.00000    0.05488    0.03859 =
         0.08516   -0.01442   -0.01960    0.00443
O5B   4    0.281142    0.852104    0.606797    11.00000    0.05495    0.02977 =
         0.07810    0.01413    0.02166    0.01465
N1    3    0.620831    0.586332    0.150496    11.00000    0.03806    0.02608 =
         0.08336    0.00111   -0.00032   -0.00453
DFIX 0.89 N2 H2N N3 H3N
N2    3    0.381506    0.382995    0.154712    11.00000    0.06423    0.04862 =
         0.13528   -0.01937    0.03102   -0.02649

H2N   5    0.366577    0.416629    0.182067    11.00000   -1.20000
N3    3    0.142534    0.124323    0.168283    11.00000    0.05964    0.05284 =
         0.10850   -0.01643    0.01941   -0.02742
H3N   5    0.151763    0.078398    0.147818    11.00000   -1.20000
N4    3   -0.093402   -0.085656    0.183519    11.00000    0.04328    0.02778 =
         0.05739    0.00700    0.00436   -0.00959
C1    1    0.543673    0.596394    0.161254    11.00000    0.03974    0.02811 =
         0.09103   -0.00716    0.00859   -0.00759
AFIX  43
H1    5    0.525666    0.650671    0.172861    11.00000   -1.20000
AFIX   0
C2    1    0.484667    0.530711    0.156626    11.00000    0.04223    0.03757 =
         0.11027   -0.00672    0.00834   -0.01292
AFIX  43
H2    5    0.428524    0.540007    0.165921    11.00000   -1.20000
AFIX   0
C1A   1    0.846885    0.669587    0.237029    11.00000    0.04681    0.02997 =
         0.05884    0.00583   -0.00111   -0.00454
C1B   1    0.673123    0.817960    0.241202    11.00000    0.05295    0.03497 =
         0.06365   -0.00676    0.01572   -0.00731
C3    1    0.510736    0.451675    0.138053    11.00000    0.04234    0.03720 =
         0.08510   -0.00201    0.00715   -0.01296
C2A   1    0.899991    0.627163    0.280944    11.00000    0.04405    0.03321 =
         0.05873    0.00426   -0.00132   -0.00104
C2B   1    0.625311    0.854804    0.285447    11.00000    0.06451    0.02569 =
         0.06173    0.00162    0.01993    0.00344
C4    1    0.593548    0.443027    0.127486    11.00000    0.04504    0.02605 =
         0.13676   -0.01321    0.01426   -0.01175
AFIX  43
H4    5    0.614663    0.389761    0.116256    11.00000   -1.20000
AFIX   0
C3A   1    0.874270    0.549718    0.304569    11.00000    0.05650    0.04306 =
         0.07088    0.01297   -0.00846   -0.01069
AFIX  43
H3A   5    0.824204    0.523966    0.291490    11.00000   -1.20000
AFIX   0
C3B   1    0.650377    0.928785    0.308863    11.00000    0.07745    0.03005 =
         0.06459    0.00001    0.02641   -0.00529
AFIX  43
H3B   5    0.699155    0.955882    0.296615    11.00000   -1.20000
AFIX   0
C5    1    0.646225    0.511757    0.133171    11.00000    0.04182    0.03308 =
         0.14571   -0.01816    0.01542   -0.01276
AFIX  43
H5    5    0.702874    0.505039    0.124263    11.00000   -1.20000
AFIX   0

C4A   1    0.919435    0.511695    0.345313    11.00000    0.07104    0.03725 =
         0.06678    0.00944   -0.01338   -0.00793
AFIX  43
H4A   5    0.899616    0.461259    0.361750    11.00000   -1.20000
AFIX   0
C4B   1    0.604739    0.965761    0.351156    11.00000    0.10543    0.03606 =
         0.07372   -0.00745    0.04341   -0.00635
AFIX  43
H4B   5    0.623734    1.016295    0.368614    11.00000   -1.20000
AFIX   0
C6    1    0.454463    0.375729    0.132710    11.00000    0.05119    0.04126 =
         0.10015   -0.00571    0.01050   -0.01864

C5A   1    0.994207    0.545995    0.363046    11.00000    0.06618    0.04416 =
         0.07062    0.00642   -0.01353   -0.00647
C5B   1    0.533657    0.928616    0.366645    11.00000    0.09474    0.02952 =
         0.08811    0.00188    0.04437    0.00418
C7    1    0.326163    0.312450    0.160010    11.00000    0.04526    0.04502 =
         0.11873   -0.01100    0.01854   -0.01408
C6A   1    1.023443    0.620990    0.340428    11.00000    0.06363    0.04821 =
         0.09392    0.01480   -0.02493   -0.01134
AFIX  43
H6A   5    1.074831    0.644834    0.352722    11.00000   -1.20000
AFIX   0
C6B   1    0.507879    0.852621    0.343809    11.00000    0.09555    0.03306 =
         0.10752    0.00063    0.05491   -0.00599
AFIX  43
H6B   5    0.459449    0.825173    0.356321    11.00000   -1.20000
AFIX   0
C8    1    0.286943    0.295476    0.207629    11.00000    0.11209    0.09851 =
         0.12397   -0.03809    0.04187   -0.07363
AFIX  43
H8    5    0.300114    0.329461    0.238957    11.00000   -1.20000
AFIX   0
C7A   1    0.974817    0.660296    0.298970    11.00000    0.05542    0.04718 =
         0.07702    0.01337   -0.01429   -0.01124
AFIX  43
H7A   5    0.994141    0.711229    0.282907    11.00000   -1.20000
AFIX   0
C7B   1    0.553755    0.817122    0.302407    11.00000    0.07788    0.03703 =
         0.09287   -0.00895    0.03971   -0.00725
AFIX  43
H7B   5    0.535427    0.765921    0.285488    11.00000   -1.20000
AFIX   0
C9    1    0.229417    0.232073    0.213056    11.00000    0.08163    0.08620 =
         0.10176   -0.02062    0.02247   -0.04969
AFIX  43
H9    5    0.207048    0.218933    0.247812    11.00000   -1.20000
AFIX   0
C8A   1    1.074158    0.547154    0.448711    11.00000    0.06210    0.02614 =
         0.06916    0.00101   -0.00804   -0.00520
C8B   1    0.451339    0.923101    0.448516    11.00000    0.10873    0.03275 =
         0.09772    0.00423    0.05383    0.00884
C10   1    0.205878    0.189192    0.167259    11.00000    0.06006    0.04843 =
         0.10161   -0.01056    0.01589   -0.02635
C9A   1    1.043200    0.622738    0.465887    11.00000    0.07393    0.03759 =
         0.08269   -0.00705   -0.02194    0.01080
AFIX  43
H9A   5    0.997090    0.648325    0.447179    11.00000   -1.20000
AFIX   0
C9B   1    0.487792    0.855493    0.472900    11.00000    0.10853    0.03897 =
         0.12529    0.01793    0.06474    0.01198
AFIX  43
H9B   5    0.537083    0.832289    0.458531    11.00000   -1.20000
AFIX   0
C11   1    0.238443    0.201595    0.117086    11.00000    0.05470    0.05805 =
         0.09767   -0.00678    0.01085   -0.02568
AFIX  43
H11   5    0.220287    0.168033    0.086589    11.00000   -1.20000
AFIX   0
C10A  1    1.081672    0.662039    0.512376    11.00000    0.06510    0.04274 =
         0.08681   -0.01434   -0.01994    0.01277
AFIX  43
H10A  5    1.063271    0.716210    0.523914    11.00000   -1.20000
AFIX   0
C10B  1    0.452500    0.819474    0.519714    11.00000    0.07890    0.05409 =
         0.12394    0.03159    0.05584    0.02306
AFIX  43
H10B  5    0.480146    0.773695    0.537798    11.00000   -1.20000
AFIX   0
C12   1    0.299639    0.264766    0.110274    11.00000    0.05308    0.04725 =
         0.11363   -0.00730    0.01938   -0.01863
AFIX  43
H12   5    0.322527    0.275932    0.075387    11.00000   -1.20000
AFIX   0
C11A  1    1.145621    0.622274    0.541010    11.00000    0.04690    0.02855 =
         0.05837    0.00241   -0.00018   -0.00640
C11B  1    0.380907    0.847961    0.539532    11.00000    0.05600    0.03060 =
         0.07203    0.00288    0.01993    0.00351
C13   1    0.084171    0.117525    0.206295    11.00000    0.05509    0.03623 =
         0.10594   -0.01251    0.01400   -0.01882
C12A  1    1.175110    0.543871    0.522192    11.00000    0.06432    0.03653 =
         0.06427   -0.00343   -0.01064    0.00610
AFIX  43
H12A  5    1.218973    0.515502    0.541560    11.00000   -1.20000
AFIX   0
C12B  1    0.347668    0.922788    0.514884    11.00000    0.09776    0.05805 =
         0.08758    0.02713    0.04678    0.03875
AFIX  43
H12B  5    0.299062    0.947687    0.529103    11.00000   -1.20000
AFIX   0
C14   1    0.021184    0.044904    0.195580    11.00000    0.04243    0.03267 =
         0.08533   -0.00233    0.00921   -0.01554
C13A  1    1.139796    0.509187    0.475730    11.00000    0.07774    0.04293 =
         0.07468   -0.01249   -0.01690    0.01146
AFIX  43
H13A  5    1.161241    0.457606    0.461863    11.00000   -1.20000
AFIX   0
C13B  1    0.384972    0.959199    0.470956    11.00000    0.13439    0.06469 =
         0.10821    0.03867    0.07004    0.04156
AFIX  43
H13B  5    0.363640    1.010721    0.456121    11.00000   -1.20000
AFIX   0
C15   1   -0.058833    0.058902    0.205374    11.00000    0.04682    0.03256 =
         0.08309    0.00366    0.00753   -0.01148
AFIX  43
H15   5   -0.077006    0.112968    0.217271    11.00000   -1.20000
AFIX   0
C14A  1    1.185766    0.664179    0.591043    11.00000    0.04267    0.03458 =
         0.05635    0.00031   -0.00165   -0.00354
C14B  1    0.342345    0.814103    0.588119    11.00000    0.03924    0.02979 =
         0.06120    0.00031    0.00644    0.00321
C16   1   -0.116222   -0.008725    0.197637    11.00000    0.04257    0.03151 =
         0.06473    0.00493    0.01436   -0.00961
AFIX  43
H16   5   -0.173468    0.002019    0.202871    11.00000   -1.20000
AFIX   0
C17   1   -0.012045   -0.098621    0.177014    11.00000    0.03816    0.03594 =
         0.07526   -0.00342    0.00781   -0.00802
AFIX  43
H17   5    0.005752   -0.154432    0.168707    11.00000   -1.20000
AFIX   0
C18   1    0.046832   -0.036639    0.181580    11.00000    0.03585    0.04024 =
         0.09581   -0.00557    0.00731   -0.01185
AFIX  43
H18   5    0.103594   -0.048615    0.175416    11.00000   -1.20000
AFIX   0
REM SOLVENT
RIGU O101 > C105
O101  4    0.124961    0.043660    0.066197    11.00000    0.17740    0.10755 =
         0.11204   -0.02587    0.04655   -0.05612
C102  1    0.128513   -0.023811    0.042776    11.00000    0.10008    0.10456 =
         0.10435   -0.01020    0.02141   -0.03512
AFIX  43
H102  5    0.144479   -0.071565    0.064396    11.00000   -1.20000
AFIX   0
N103  3    0.112327   -0.037021   -0.009750    11.00000    0.07141    0.11096 =
         0.09935   -0.01057    0.02532   -0.01399
C104  1    0.105962   -0.118375   -0.033000    11.00000    0.26595    0.12198 =
         0.13203   -0.02234   -0.01528   -0.00911
AFIX 137
H10D  5    0.145783   -0.123879   -0.062553    11.00000   -1.50000
H10E  5    0.049549   -0.126979   -0.048101    11.00000   -1.50000
H10F  5    0.118116   -0.160990   -0.004556    11.00000   -1.50000
AFIX   0
C105  1    0.091765    0.040232   -0.043655    11.00000    0.07246    0.14597 =
         0.15566    0.02765    0.02141   -0.02560
AFIX 137
H10G  5    0.045587    0.027368   -0.069433    11.00000   -1.50000
H10H  5    0.140450    0.057064   -0.064328    11.00000   -1.50000
H10I  5    0.075852    0.086629   -0.019307    11.00000   -1.50000
AFIX   0
REM DMF 2
SAME O101 > C105
RIGU O201 > C205
O201  4    0.290261    0.347338    0.357791    11.00000    0.20475    0.25597 =
         0.23161   -0.03849    0.04361   -0.11050
C202  1    0.222879    0.316666    0.365994    11.00000    0.19149    0.17996 =
         0.26576   -0.03670    0.04990   -0.08250
AFIX  43
H202  5    0.223156    0.270787    0.391315    11.00000   -1.20000
AFIX   0
N203  3    0.149990    0.336980    0.345386    10.60000    0.18161    0.12773 =
         0.14455   -0.11462    0.07368   -0.06760
C204  1    0.074603    0.300299    0.359937    10.60000    0.19174    0.17899 =
         0.17568   -0.09269    0.07013   -0.08892
AFIX 137
H20A  5    0.084136    0.261850    0.391163    10.60000   -1.50000
H20B  5    0.051180    0.268482    0.328521    10.60000   -1.50000
H20C  5    0.035724    0.344888    0.370311    10.60000   -1.50000
AFIX   0
C205  1    0.150508    0.408471    0.304704    10.60000    0.17171    0.20528 =
         0.24782   -0.02825    0.11066   -0.03344
AFIX 137
H20D  5    0.106916    0.399257    0.276377    10.60000   -1.50000
H20E  5    0.204647    0.410854    0.287373    10.60000   -1.50000
H20F  5    0.140301    0.462008    0.323786    10.60000   -1.50000
AFIX   0
REM DMF 3
SAME O101 > C105
RIGU O301 > C305
O301  4    0.288784    0.517434    0.200843    10.65000    0.09192    0.09484 =
         0.31670   -0.12700    0.08520   -0.04432
C302  1    0.250507    0.564596    0.169518    10.65000    0.11949    0.10019 =
         0.34164   -0.12530    0.06036   -0.04420
AFIX  43
H302  5    0.281453    0.587088    0.140178    10.65000   -1.20000
AFIX   0
N303  3    0.173099    0.588541    0.170581    10.65000    0.11855    0.12401 =
         0.31938   -0.14004    0.05532   -0.03814
C304  1    0.133906    0.647539    0.135292    10.65000    0.15724    0.13739 =
         0.30854   -0.14561    0.05202   -0.01561
AFIX  33
H30A  5    0.075669    0.653665    0.145180    10.65000   -1.50000
H30B  5    0.161964    0.702415    0.138915    10.65000   -1.50000
H30C  5    0.136720    0.627733    0.097143    10.65000   -1.50000
AFIX   0
C305  1    0.127743    0.559768    0.220728    10.65000    0.09450    0.22030 =
         0.33637   -0.08857    0.04943   -0.01393
AFIX  33
H30D  5    0.070320    0.580198    0.218431    10.65000   -1.50000
H30E  5    0.127953    0.497745    0.222404    10.65000   -1.50000
H30F  5    0.155479    0.582661    0.253940    10.65000   -1.50000
AFIX   0
REM #####
SAME O101 > C105
RIGU O401 > C405
O401  4    0.786870    0.344287    0.015778    11.00000    0.21049    0.26202 =
         0.19594    0.03819    0.01027   -0.12281
C402  1    0.780990    0.309647    0.059844    11.00000    0.13866    0.10567 =
         0.16079   -0.03348    0.04087   -0.04148
AFIX  43
H402  5    0.822278    0.321230    0.087522    11.00000   -1.20000
AFIX   0
N403  3    0.721849    0.257638    0.071735    11.00000    0.12536    0.07629 =
         0.16133   -0.04610    0.05321   -0.02715

C404  1    0.706084    0.229967    0.125407    11.00000    0.22681    0.13978 =
         0.17179   -0.03010    0.05631   -0.06036
AFIX 137
H40A  5    0.651583    0.202466    0.125836    11.00000   -1.50000
H40B  5    0.706645    0.278649    0.150457    11.00000   -1.50000
H40C  5    0.749024    0.189480    0.137378    11.00000   -1.50000
AFIX   0
C405  1    0.666670    0.232069    0.023430    11.00000    0.23708    0.19835 =
         0.19847   -0.02432    0.00364   -0.11409
AFIX 137
H40D  5    0.647410    0.173807    0.028621    11.00000   -1.50000
H40E  5    0.697969    0.235557   -0.010515    11.00000   -1.50000
H40F  5    0.618742    0.270212    0.020766    11.00000   -1.50000
AFIX   0
HKLF 4

REM  p21n_a.res in P2(1)/n
REM R1 =  0.1381 for    6030 Fo > 4sig(Fo)  and  0.2111 for all   10946 data
REM    770 parameters refined using    671 restraints

END

WGHT      0.2000      0.0000

REM Highest difference peak  2.228,  deepest hole -0.923,  1-sigma level  0.149
Q1    1   0.7620  0.8165  0.1652  11.00000  0.05    2.23
Q2    1   0.6542  0.6890  0.1616  11.00000  0.05    1.93
Q3    1   0.7608  0.6887  0.1690  11.00000  0.05    1.78
Q4    1   0.8768  0.8151  0.1721  11.00000  0.05    1.74
Q5    1   0.4605  0.4811  0.0030  11.00000  0.05    0.96
Q6    1   1.1246  0.6818  0.6646  11.00000  0.05    0.82
Q7    1   1.0349  0.9153  0.5091  11.00000  0.05    0.74
Q8    1   0.0432  0.3217  0.3299  11.00000  0.05    0.71
Q9    1   0.5209  0.3807 -0.0208  11.00000  0.05    0.71
Q10   1   0.7075  0.6927  0.2056  11.00000  0.05    0.63
Q11   1   0.2035 -0.1847 -0.0179  11.00000  0.05    0.62
Q12   1   0.2193  0.8198  0.6129  11.00000  0.05    0.62
Q13   1   0.6894  0.3154  0.0079  11.00000  0.05    0.62
Q14   1   0.3347  0.8598  0.6138  11.00000  0.05    0.62
Q15   1   1.1061  0.7382  0.6073  11.00000  0.05    0.60
Q16   1   0.9330  0.7422  0.2241  11.00000  0.05    0.60
Q17   1   0.1230  1.0144  0.4846  11.00000  0.05    0.59
Q18   1   0.8244  0.8205  0.1246  11.00000  0.05    0.58
Q19   1   0.8176  0.6471  0.2273  11.00000  0.05    0.58
Q20   1   0.8142  0.8258  0.2169  11.00000  0.05    0.55
;
_shelx_res_checksum              67456
loop_
_space_group_symop_operation_xyz
'x, y, z'
'-x+1/2, y+1/2, -z+1/2'
'-x, -y, -z'
'x-1/2, -y-1/2, z-1/2'
loop_
_atom_site_label
_atom_site_type_symbol
_atom_site_fract_x
_atom_site_fract_y
_atom_site_fract_z
_atom_site_U_iso_or_equiv
_atom_site_adp_type
_atom_site_occupancy
_atom_site_site_symmetry_order
_atom_site_calc_flag
_atom_site_refinement_flags_posn
_atom_site_refinement_flags_adp
_atom_site_refinement_flags_occupancy
Cu1 Cu 0.81566(9) 0.81545(9) 0.16946(6) 0.0392(4) Uani 1 1 d . U .
Cu2 Cu 0.70794(9) 0.68985(9) 0.16287(6) 0.0395(5) Uani 1 1 d . U .
O1 O 0.4796(7) 0.3125(7) 0.1073(6) 0.080(4) Uani 1 1 d . U .
O2 O 0.0757(6) 0.1632(6) 0.2453(5) 0.066(3) Uani 1 1 d . U .
O1A O 0.8747(6) 0.7404(6) 0.2207(5) 0.054(2) Uani 1 1 d . U .
O1B O 0.7396(6) 0.8528(6) 0.2282(4) 0.048(2) Uani 1 1 d . U .
O2A O 0.7794(6) 0.6363(6) 0.2210(4) 0.051(2) Uani 1 1 d . U .
O2B O 0.6467(6) 0.7473(6) 0.2204(5) 0.052(2) Uani 1 1 d . U .
O3A O 1.0411(8) 0.5052(6) 0.4026(5) 0.074(3) Uani 1 1 d . U .
O3B O 0.4883(10) 0.9672(7) 0.4071(6) 0.099(5) Uani 1 1 d . U .
O4A O 1.2455(6) 0.6248(6) 0.6144(4) 0.051(2) Uani 1 1 d . U .
O4B O 0.3698(6) 0.7410(6) 0.6070(5) 0.056(3) Uani 1 1 d . U .
O5A O 1.1574(6) 0.7341(6) 0.6056(5) 0.060(3) Uani 1 1 d . U .
O5B O 0.2811(6) 0.8521(6) 0.6068(4) 0.054(2) Uani 1 1 d . U .
N1 N 0.6208(6) 0.5863(7) 0.1505(5) 0.049(3) Uani 1 1 d . U .
N2 N 0.3815(9) 0.3830(9) 0.1547(8) 0.082(4) Uani 1 1 d D U .
H2N H 0.367(13) 0.417(11) 0.182(6) 0.099 Uiso 1 1 d D U .
N3 N 0.1425(9) 0.1243(9) 0.1683(7) 0.073(4) Uani 1 1 d D U .
H3N H 0.152(12) 0.078(7) 0.148(7) 0.088 Uiso 1 1 d D U .
N4 N -0.0934(7) -0.0857(7) 0.1835(5) 0.043(2) Uani 1 1 d . U .
C1 C 0.5437(8) 0.5964(9) 0.1613(7) 0.053(4) Uani 1 1 d . U .
H1 H 0.5257 0.6507 0.1729 0.063 Uiso 1 1 calc R U .
C2 C 0.4847(9) 0.5307(9) 0.1566(8) 0.063(4) Uani 1 1 d . U .
H2 H 0.4285 0.5400 0.1659 0.076 Uiso 1 1 calc R U .
C1A C 0.8469(8) 0.6696(8) 0.2370(6) 0.045(3) Uani 1 1 d . U .
C1B C 0.6731(9) 0.8180(9) 0.2412(6) 0.050(3) Uani 1 1 d . U .
C3 C 0.5107(9) 0.4517(9) 0.1381(7) 0.055(3) Uani 1 1 d . U .
C2A C 0.9000(8) 0.6272(8) 0.2809(6) 0.045(3) Uani 1 1 d . U .
C2B C 0.6253(9) 0.8548(8) 0.2854(6) 0.050(3) Uani 1 1 d . U .
C4 C 0.5935(9) 0.4430(9) 0.1275(9) 0.069(5) Uani 1 1 d . U .
H4 H 0.6147 0.3898 0.1163 0.083 Uiso 1 1 calc R U .
C3A C 0.8743(10) 0.5497(10) 0.3046(7) 0.057(4) Uani 1 1 d . U .
H3A H 0.8242 0.5240 0.2915 0.068 Uiso 1 1 calc R U .
C3B C 0.6504(11) 0.9288(9) 0.3089(6) 0.057(4) Uani 1 1 d . U .
H3B H 0.6992 0.9559 0.2966 0.068 Uiso 1 1 calc R U .
C5 C 0.6462(9) 0.5118(10) 0.1332(9) 0.073(5) Uani 1 1 d . U .
H5 H 0.7029 0.5050 0.1243 0.088 Uiso 1 1 calc R U .
C4A C 0.9194(10) 0.5117(10) 0.3453(7) 0.059(4) Uani 1 1 d . U .
H4A H 0.8996 0.4613 0.3618 0.070 Uiso 1 1 calc R U .
C4B C 0.6047(12) 0.9658(10) 0.3512(7) 0.071(4) Uani 1 1 d . U .
H4B H 0.6237 1.0163 0.3686 0.085 Uiso 1 1 calc R U .
C6 C 0.4545(10) 0.3757(10) 0.1327(8) 0.064(4) Uani 1 1 d . U .
C5A C 0.9942(10) 0.5460(10) 0.3630(7) 0.061(4) Uani 1 1 d . U .
C5B C 0.5337(12) 0.9286(9) 0.3666(8) 0.070(4) Uani 1 1 d . U .
C7 C 0.3262(9) 0.3125(10) 0.1600(8) 0.069(4) Uani 1 1 d . U .
C6A C 1.0234(11) 0.6210(10) 0.3404(8) 0.069(4) Uani 1 1 d . U .
H6A H 1.0748 0.6448 0.3527 0.083 Uiso 1 1 calc R U .
C6B C 0.5079(13) 0.8526(10) 0.3438(8) 0.078(5) Uani 1 1 d . U .
H6B H 0.4594 0.8252 0.3563 0.093 Uiso 1 1 calc R U .
C8 C 0.2869(15) 0.2955(15) 0.2076(10) 0.111(8) Uani 1 1 d . U .
H8 H 0.3001 0.3295 0.2390 0.133 Uiso 1 1 calc R U .
C7A C 0.9748(10) 0.6603(10) 0.2990(7) 0.060(4) Uani 1 1 d . U .
H7A H 0.9941 0.7112 0.2829 0.072 Uiso 1 1 calc R U .
C7B C 0.5538(11) 0.8171(10) 0.3024(8) 0.069(4) Uani 1 1 d . U .
H7B H 0.5354 0.7659 0.2855 0.082 Uiso 1 1 calc R U .
C9 C 0.2294(12) 0.2321(13) 0.2131(9) 0.089(6) Uani 1 1 d . U .
H9 H 0.2070 0.2189 0.2478 0.107 Uiso 1 1 calc R U .
C8A C 1.0742(10) 0.5472(8) 0.4487(6) 0.053(3) Uani 1 1 d . U .
C8B C 0.4513(13) 0.9231(10) 0.4485(8) 0.079(5) Uani 1 1 d . U .
C10 C 0.2059(10) 0.1892(10) 0.1673(8) 0.070(4) Uani 1 1 d . U .
C9A C 1.0432(11) 0.6227(10) 0.4659(7) 0.065(4) Uani 1 1 d . U .
H9A H 0.9971 0.6483 0.4472 0.078 Uiso 1 1 calc R U .
C9B C 0.4878(14) 0.8555(11) 0.4729(9) 0.090(6) Uani 1 1 d . U .
H9B H 0.5371 0.8323 0.4585 0.108 Uiso 1 1 calc R U .
C11 C 0.2384(10) 0.2016(11) 0.1171(8) 0.070(4) Uani 1 1 d . U .
H11 H 0.2203 0.1680 0.0866 0.084 Uiso 1 1 calc R U .
C10A C 1.0817(10) 0.6620(10) 0.5124(7) 0.065(4) Uani 1 1 d . U .
H10A H 1.0633 0.7162 0.5239 0.078 Uiso 1 1 calc R U .
C10B C 0.4525(11) 0.8195(12) 0.5197(9) 0.085(6) Uani 1 1 d . U .
H10B H 0.4801 0.7737 0.5378 0.102 Uiso 1 1 calc R U .
C12 C 0.2996(10) 0.2648(10) 0.1103(9) 0.071(4) Uani 1 1 d . U .
H12 H 0.3225 0.2759 0.0754 0.085 Uiso 1 1 calc R U .
C11A C 1.1456(9) 0.6223(8) 0.5410(6) 0.045(3) Uani 1 1 d . U .
C11B C 0.3809(9) 0.8480(9) 0.5395(7) 0.053(3) Uani 1 1 d . U .
C13 C 0.0842(10) 0.1175(10) 0.2063(8) 0.066(4) Uani 1 1 d . U .
C12A C 1.1751(10) 0.5439(9) 0.5222(6) 0.055(3) Uani 1 1 d . U .
H12A H 1.2190 0.5155 0.5416 0.066 Uiso 1 1 calc R U .
C12B C 0.3477(13) 0.9228(11) 0.5149(8) 0.080(6) Uani 1 1 d . U .
H12B H 0.2991 0.9477 0.5291 0.096 Uiso 1 1 calc R U .
C14 C 0.0212(8) 0.0449(9) 0.1956(7) 0.053(3) Uani 1 1 d . U .
C13A C 1.1398(11) 0.5092(10) 0.4757(7) 0.065(4) Uani 1 1 d . U .
H13A H 1.1612 0.4576 0.4619 0.079 Uiso 1 1 calc R U .
C13B C 0.3850(15) 0.9592(13) 0.4710(9) 0.101(8) Uani 1 1 d . U .
H13B H 0.3636 1.0107 0.4561 0.121 Uiso 1 1 calc R U .
C15 C -0.0588(9) 0.0589(9) 0.2054(7) 0.054(3) Uani 1 1 d . U .
H15 H -0.0770 0.1130 0.2173 0.065 Uiso 1 1 calc R U .
C14A C 1.1858(8) 0.6642(8) 0.5910(6) 0.045(3) Uani 1 1 d . U .
C14B C 0.3423(8) 0.8141(8) 0.5881(6) 0.043(3) Uani 1 1 d . U .
C16 C -0.1162(8) -0.0087(8) 0.1976(6) 0.046(3) Uani 1 1 d . U .
H16 H -0.1735 0.0020 0.2029 0.055 Uiso 1 1 calc R U .
C17 C -0.0120(8) -0.0986(9) 0.1770(6) 0.050(3) Uani 1 1 d . U .
H17 H 0.0058 -0.1544 0.1687 0.060 Uiso 1 1 calc R U .
C18 C 0.0468(8) -0.0366(9) 0.1816(7) 0.057(4) Uani 1 1 d . U .
H18 H 0.1036 -0.0486 0.1754 0.069 Uiso 1 1 calc R U .
O101 O 0.1250(13) 0.0437(12) 0.0662(7) 0.132(6) Uani 1 1 d D U .
C102 C 0.1285(14) -0.0238(15) 0.0428(9) 0.103(6) Uani 1 1 d D U .
H102 H 0.1445 -0.0716 0.0644 0.123 Uiso 1 1 calc R U .
N103 N 0.1123(10) -0.0370(12) -0.0098(7) 0.093(4) Uani 1 1 d D U .
C104 C 0.106(3) -0.1184(18) -0.0330(13) 0.174(15) Uani 1 1 d D U .
H10D H 0.1458 -0.1239 -0.0626 0.261 Uiso 1 1 calc R U .
H10E H 0.0495 -0.1270 -0.0481 0.261 Uiso 1 1 calc R U .
H10F H 0.1181 -0.1610 -0.0046 0.261 Uiso 1 1 calc R U .
C105 C 0.0918(14) 0.0402(17) -0.0437(12) 0.124(7) Uani 1 1 d D U .
H10G H 0.0456 0.0274 -0.0694 0.187 Uiso 1 1 calc R U .
H10H H 0.1405 0.0571 -0.0643 0.187 Uiso 1 1 calc R U .
H10I H 0.0759 0.0866 -0.0193 0.187 Uiso 1 1 calc R U .
O201 O 0.2903(19) 0.347(2) 0.3578(14) 0.230(13) Uani 1 1 d D U .
C202 C 0.223(2) 0.317(3) 0.366(2) 0.212(16) Uani 1 1 d D U .
H202 H 0.2232 0.2708 0.3913 0.254 Uiso 1 1 calc R U .
N203 N 0.150(2) 0.337(2) 0.3454(13) 0.150(11) Uani 0.6 1 d D U P
C204 C 0.075(3) 0.300(4) 0.360(2) 0.181(16) Uani 0.6 1 d D U P
H20A H 0.0841 0.2618 0.3912 0.271 Uiso 0.6 1 calc R U P
H20B H 0.0512 0.2685 0.3285 0.271 Uiso 0.6 1 calc R U P
H20C H 0.0357 0.3449 0.3703 0.271 Uiso 0.6 1 calc R U P
C205 C 0.151(3) 0.408(4) 0.305(3) 0.21(2) Uani 0.6 1 d D U P
H20D H 0.1069 0.3993 0.2764 0.309 Uiso 0.6 1 calc R U P
H20E H 0.2046 0.4109 0.2874 0.309 Uiso 0.6 1 calc R U P
H20F H 0.1403 0.4620 0.3238 0.309 Uiso 0.6 1 calc R U P
O301 O 0.2888(15) 0.5174(18) 0.2008(16) 0.166(15) Uani 0.65 1 d D U P
C302 C 0.251(2) 0.565(3) 0.1695(19) 0.186(16) Uani 0.65 1 d D U P
H302 H 0.2815 0.5871 0.1402 0.223 Uiso 0.65 1 calc R U P
N303 N 0.173(2) 0.589(2) 0.1706(17) 0.186(15) Uani 0.65 1 d D U P
C304 C 0.134(3) 0.648(3) 0.135(2) 0.200(18) Uani 0.65 1 d D U P
H30A H 0.0757 0.6537 0.1452 0.300 Uiso 0.65 1 calc R U P
H30B H 0.1620 0.7024 0.1389 0.300 Uiso 0.65 1 calc R U P
H30C H 0.1367 0.6277 0.0971 0.300 Uiso 0.65 1 calc R U P
C305 C 0.128(3) 0.560(4) 0.221(2) 0.22(2) Uani 0.65 1 d D U P
H30D H 0.0703 0.5802 0.2184 0.324 Uiso 0.65 1 calc R U P
H30E H 0.1280 0.4977 0.2224 0.324 Uiso 0.65 1 calc R U P
H30F H 0.1555 0.5827 0.2539 0.324 Uiso 0.65 1 calc R U P
O401 O 0.787(2) 0.344(2) 0.0158(12) 0.223(14) Uani 1 1 d D U .
C402 C 0.7810(17) 0.3096(17) 0.0598(12) 0.134(8) Uani 1 1 d D U .
H402 H 0.8223 0.3212 0.0875 0.161 Uiso 1 1 calc R U .
N403 N 0.7218(13) 0.2576(12) 0.0717(9) 0.120(6) Uani 1 1 d D U .
C404 C 0.706(3) 0.230(2) 0.1254(12) 0.179(13) Uani 1 1 d D U .
H40A H 0.6516 0.2025 0.1258 0.268 Uiso 1 1 calc R U .
H40B H 0.7066 0.2786 0.1505 0.268 Uiso 1 1 calc R U .
H40C H 0.7490 0.1895 0.1374 0.268 Uiso 1 1 calc R U .
C405 C 0.667(3) 0.232(3) 0.0234(14) 0.211(18) Uani 1 1 d D U .
H40D H 0.6474 0.1738 0.0286 0.317 Uiso 1 1 calc R U .
H40E H 0.6980 0.2356 -0.0105 0.317 Uiso 1 1 calc R U .
H40F H 0.6187 0.2702 0.0208 0.317 Uiso 1 1 calc R U .
loop_
_atom_site_aniso_label
_atom_site_aniso_U_11
_atom_site_aniso_U_22
_atom_site_aniso_U_33
_atom_site_aniso_U_23
_atom_site_aniso_U_13
_atom_site_aniso_U_12
Cu1 0.0385(8) 0.0240(7) 0.0551(9) 0.0010(7) 0.0022(7) -0.0057(6)
Cu2 0.0371(8) 0.0232(8) 0.0582(9) -0.0008(7) 0.0038(7) -0.0052(6)
O1 0.062(6) 0.051(5) 0.129(9) -0.021(6) 0.016(6) -0.015(5)
O2 0.058(6) 0.035(5) 0.106(7) -0.014(5) 0.016(5) -0.015(4)
O1A 0.048(4) 0.030(4) 0.084(6) 0.008(4) -0.009(4) -0.003(3)
O1B 0.044(4) 0.038(4) 0.062(5) -0.004(4) 0.014(4) -0.006(3)
O2A 0.048(4) 0.036(4) 0.068(5) 0.011(4) -0.007(4) -0.006(3)
O2B 0.042(4) 0.032(4) 0.084(6) -0.009(4) 0.019(4) -0.004(3)
O3A 0.109(7) 0.030(5) 0.081(5) -0.002(4) -0.034(5) 0.001(5)
O3B 0.151(10) 0.034(5) 0.115(7) 0.006(5) 0.080(8) 0.011(5)
O4A 0.053(5) 0.037(5) 0.061(5) -0.007(4) -0.009(4) 0.001(4)
O4B 0.048(5) 0.033(4) 0.087(7) 0.011(4) 0.019(5) 0.011(4)
O5A 0.055(5) 0.039(5) 0.085(7) -0.014(4) -0.020(5) 0.004(4)
O5B 0.055(5) 0.030(4) 0.078(6) 0.014(4) 0.022(5) 0.015(4)
N1 0.038(4) 0.026(4) 0.083(8) 0.001(4) 0.000(4) -0.005(3)
N2 0.064(6) 0.049(6) 0.135(12) -0.019(6) 0.031(7) -0.026(5)
N3 0.060(6) 0.053(7) 0.108(8) -0.016(6) 0.019(6) -0.027(6)
N4 0.043(4) 0.028(4) 0.057(6) 0.007(4) 0.004(4) -0.010(3)
C1 0.040(5) 0.028(5) 0.091(10) -0.007(6) 0.009(5) -0.008(4)
C2 0.042(6) 0.038(5) 0.110(12) -0.007(6) 0.008(6) -0.013(4)
C1A 0.047(5) 0.030(5) 0.059(6) 0.006(4) -0.001(4) -0.005(4)
C1B 0.053(5) 0.035(5) 0.064(6) -0.007(5) 0.016(5) -0.007(4)
C3 0.042(5) 0.037(5) 0.085(10) -0.002(5) 0.007(5) -0.013(4)
C2A 0.044(5) 0.033(5) 0.059(6) 0.004(4) -0.001(4) -0.001(4)
C2B 0.065(6) 0.026(5) 0.062(6) 0.002(4) 0.020(5) 0.003(4)
C4 0.045(5) 0.026(5) 0.137(14) -0.013(6) 0.014(6) -0.012(4)
C3A 0.057(7) 0.043(6) 0.071(7) 0.013(5) -0.008(6) -0.011(5)
C3B 0.077(8) 0.030(5) 0.065(7) 0.000(5) 0.026(6) -0.005(5)
C5 0.042(6) 0.033(5) 0.146(15) -0.018(6) 0.015(7) -0.013(4)
C4A 0.071(6) 0.037(6) 0.067(8) 0.009(5) -0.013(6) -0.008(5)
C4B 0.105(8) 0.036(6) 0.074(8) -0.007(6) 0.043(7) -0.006(6)
C6 0.051(5) 0.041(6) 0.100(10) -0.006(6) 0.011(6) -0.019(4)
C5A 0.066(6) 0.044(6) 0.071(7) 0.006(5) -0.014(5) -0.006(5)
C5B 0.095(8) 0.030(6) 0.088(8) 0.002(5) 0.044(7) 0.004(5)
C7 0.045(6) 0.045(7) 0.119(8) -0.011(6) 0.019(6) -0.014(6)
C6A 0.064(7) 0.048(6) 0.094(9) 0.015(6) -0.025(7) -0.011(6)
C6B 0.096(9) 0.033(6) 0.108(10) 0.001(6) 0.055(8) -0.006(6)
C8 0.112(14) 0.099(12) 0.124(9) -0.038(8) 0.042(8) -0.074(13)
C7A 0.055(6) 0.047(7) 0.077(8) 0.013(6) -0.014(6) -0.011(5)
C7B 0.078(7) 0.037(6) 0.093(9) -0.009(6) 0.040(7) -0.007(6)
C9 0.082(11) 0.086(11) 0.102(8) -0.021(7) 0.022(7) -0.050(10)
C8A 0.062(7) 0.026(5) 0.069(6) 0.001(4) -0.008(5) -0.005(4)
C8B 0.109(10) 0.033(6) 0.098(8) 0.004(6) 0.054(8) 0.009(6)
C10 0.060(7) 0.048(7) 0.102(7) -0.011(6) 0.016(6) -0.026(7)
C9A 0.074(8) 0.038(6) 0.083(8) -0.007(5) -0.022(7) 0.011(6)
C9B 0.109(10) 0.039(7) 0.125(10) 0.018(7) 0.065(9) 0.012(7)
C11 0.055(7) 0.058(8) 0.098(8) -0.007(6) 0.011(6) -0.026(7)
C10A 0.065(7) 0.043(7) 0.087(8) -0.014(6) -0.020(6) 0.013(6)
C10B 0.079(8) 0.054(8) 0.124(11) 0.032(8) 0.056(8) 0.023(7)
C12 0.053(7) 0.047(7) 0.114(8) -0.007(6) 0.019(6) -0.019(6)
C11A 0.047(6) 0.029(5) 0.058(5) 0.002(4) 0.000(4) -0.006(4)
C11B 0.056(6) 0.031(5) 0.072(6) 0.003(5) 0.020(5) 0.004(5)
C13 0.055(6) 0.036(6) 0.106(8) -0.013(6) 0.014(6) -0.019(5)
C12A 0.064(7) 0.037(5) 0.064(6) -0.003(5) -0.011(6) 0.006(5)
C12B 0.098(10) 0.058(8) 0.088(9) 0.027(7) 0.047(8) 0.039(8)
C14 0.042(5) 0.033(5) 0.085(9) -0.002(5) 0.009(5) -0.016(4)
C13A 0.078(8) 0.043(7) 0.075(7) -0.012(5) -0.017(6) 0.011(6)
C13B 0.134(12) 0.065(9) 0.108(11) 0.039(9) 0.070(11) 0.042(9)
C15 0.047(5) 0.033(5) 0.083(10) 0.004(5) 0.008(5) -0.011(4)
C14A 0.043(5) 0.035(5) 0.056(6) 0.000(4) -0.002(5) -0.004(4)
C14B 0.039(5) 0.030(5) 0.061(6) 0.000(4) 0.006(5) 0.003(4)
C16 0.043(5) 0.032(5) 0.065(8) 0.005(5) 0.014(5) -0.010(4)
C17 0.038(5) 0.036(5) 0.075(9) -0.003(5) 0.008(5) -0.008(4)
C18 0.036(5) 0.040(5) 0.096(11) -0.006(5) 0.007(6) -0.012(4)
O101 0.177(17) 0.108(11) 0.112(10) -0.026(8) 0.047(11) -0.056(11)
C102 0.100(13) 0.105(11) 0.104(9) -0.010(7) 0.021(9) -0.035(10)
N103 0.071(9) 0.111(10) 0.099(9) -0.011(7) 0.025(8) -0.014(8)
C104 0.27(4) 0.122(12) 0.132(17) -0.022(10) -0.02(2) -0.009(13)
C105 0.072(12) 0.146(13) 0.156(15) 0.028(11) 0.021(12) -0.026(11)
O201 0.20(2) 0.26(3) 0.23(3) -0.04(2) 0.044(19) -0.111(18)
C202 0.19(2) 0.18(3) 0.27(3) -0.04(2) 0.050(19) -0.082(18)
N203 0.18(2) 0.13(2) 0.14(2) -0.115(16) 0.074(17) -0.068(17)
C204 0.19(2) 0.18(4) 0.18(3) -0.09(2) 0.07(2) -0.09(2)
C205 0.17(3) 0.21(4) 0.25(4) -0.03(3) 0.11(3) -0.03(2)
O301 0.092(16) 0.095(19) 0.32(4) -0.13(2) 0.09(2) -0.044(13)
C302 0.119(18) 0.10(2) 0.34(4) -0.13(2) 0.06(2) -0.044(15)
N303 0.119(17) 0.12(2) 0.32(4) -0.14(2) 0.06(2) -0.038(15)
C304 0.16(3) 0.14(3) 0.31(4) -0.15(3) 0.05(2) -0.02(2)
C305 0.09(2) 0.22(5) 0.34(4) -0.09(3) 0.05(3) -0.01(3)
O401 0.21(2) 0.26(3) 0.196(17) 0.038(18) 0.010(17) -0.12(2)
C402 0.139(15) 0.106(16) 0.161(16) -0.033(12) 0.041(13) -0.041(14)
N403 0.125(13) 0.076(11) 0.161(13) -0.046(10) 0.053(11) -0.027(10)
C404 0.23(3) 0.14(2) 0.172(15) -0.030(13) 0.056(14) -0.06(2)
C405 0.24(3) 0.20(4) 0.198(18) -0.024(18) 0.004(18) -0.11(3)
loop_
_atom_type_symbol
_atom_type_description
_atom_type_scat_dispersion_real
_atom_type_scat_dispersion_imag
_atom_type_scat_source
C C 0.0033 0.0016 'International Tables Vol C Tables 4.2.6.8 and 6.1.1.4'
Cu Cu 0.3201 1.2651 'International Tables Vol C Tables 4.2.6.8 and 6.1.1.4'
N N 0.0061 0.0033 'International Tables Vol C Tables 4.2.6.8 and 6.1.1.4'
O O 0.0106 0.0060 'International Tables Vol C Tables 4.2.6.8 and 6.1.1.4'
H H 0.0000 0.0000 'International Tables Vol C Tables 4.2.6.8 and 6.1.1.4'
loop_
_geom_angle_atom_site_label_1
_geom_angle_atom_site_label_2
_geom_angle_atom_site_label_3
_geom_angle
_geom_angle_site_symmetry_1
_geom_angle_site_symmetry_3
O1A Cu1 O4A 170.8(4) . 4_575
O1A Cu1 O4B 89.9(5) . 4_675
O4A Cu1 O4B 87.2(4) 4_575 4_675
O1A Cu1 O1B 91.3(4) . .
O4A Cu1 O1B 89.5(4) 4_575 .
O4B Cu1 O1B 166.4(4) 4_675 .
O1A Cu1 N4 91.3(4) . 1_665
O4A Cu1 N4 97.7(4) 4_575 1_665
O4B Cu1 N4 97.7(4) 4_675 1_665
O1B Cu1 N4 95.8(4) . 1_665
O1A Cu1 Cu2 83.7(3) . .
O4A Cu1 Cu2 87.4(3) 4_575 .
O4B Cu1 Cu2 85.3(3) 4_675 .
O1B Cu1 Cu2 81.3(3) . .
N4 Cu1 Cu2 174.1(3) 1_665 .
O5B Cu2 O2B 170.8(4) 4_675 .
O5B Cu2 O2A 90.1(4) 4_675 .
O2B Cu2 O2A 89.0(4) . .
O5B Cu2 O5A 87.7(5) 4_675 4_575
O2B Cu2 O5A 90.8(5) . 4_575
O2A Cu2 O5A 165.9(4) . 4_575
O5B Cu2 N1 92.8(4) 4_675 .
O2B Cu2 N1 96.3(4) . .
O2A Cu2 N1 97.9(4) . .
O5A Cu2 N1 96.1(4) 4_575 .
O5B Cu2 Cu1 83.5(3) 4_675 .
O2B Cu2 Cu1 87.3(3) . .
O2A Cu2 Cu1 84.8(3) . .
O5A Cu2 Cu1 81.1(3) 4_575 .
N1 Cu2 Cu1 175.5(4) . .
C1A O1A Cu1 124.3(9) . .
C1B O1B Cu1 126.6(9) . .
C1A O2A Cu2 121.4(8) . .
C1B O2B Cu2 120.8(8) . .
C5A O3A C8A 122.1(12) . .
C8B O3B C5B 123.1(12) . .
C14A O4A Cu1 118.9(9) . 4_676
C14B O4B Cu1 120.7(8) . 4_576
C14A O5A Cu2 125.7(9) . 4_676
C14B O5B Cu2 126.3(8) . 4_576
C1 N1 C5 119.0(12) . .
C1 N1 Cu2 120.2(9) . .
C5 N1 Cu2 120.7(9) . .
C6 N2 C7 122.4(14) . .
C6 N2 H2N 128(10) . .
C7 N2 H2N 102(10) . .
C13 N3 C10 125.3(15) . .
C13 N3 H3N 117(10) . .
C10 N3 H3N 116(10) . .
C16 N4 C17 116.9(11) . .
C16 N4 Cu1 120.9(9) . 1_445
C17 N4 Cu1 122.1(9) . 1_445
N1 C1 C2 123.1(13) . .
N1 C1 H1 118.4 . .
C2 C1 H1 118.4 . .
C3 C2 C1 118.4(13) . .
C3 C2 H2 120.8 . .
C1 C2 H2 120.8 . .
O2A C1A O1A 125.4(13) . .
O2A C1A C2A 120.1(11) . .
O1A C1A C2A 114.4(12) . .
O1B C1B O2B 123.8(12) . .
O1B C1B C2B 118.9(12) . .
O2B C1B C2B 117.1(12) . .
C4 C3 C2 116.9(13) . .
C4 C3 C6 119.4(14) . .
C2 C3 C6 123.6(13) . .
C7A C2A C3A 117.6(13) . .
C7A C2A C1A 122.2(12) . .
C3A C2A C1A 120.2(12) . .
C3B C2B C7B 119.4(14) . .
C3B C2B C1B 119.6(13) . .
C7B C2B C1B 120.9(13) . .
C3 C4 C5 120.0(14) . .
C3 C4 H4 120.0 . .
C5 C4 H4 120.0 . .
C4A C3A C2A 121.4(14) . .
C4A C3A H3A 119.3 . .
C2A C3A H3A 119.3 . .
C2B C3B C4B 120.5(14) . .
C2B C3B H3B 119.7 . .
C4B C3B H3B 119.7 . .
N1 C5 C4 122.5(14) . .
N1 C5 H5 118.7 . .
C4 C5 H5 118.7 . .
C3A C4A C5A 120.1(14) . .
C3A C4A H4A 119.9 . .
C5A C4A H4A 119.9 . .
C5B C4B C3B 119.2(15) . .
C5B C4B H4B 120.4 . .
C3B C4B H4B 120.4 . .
O1 C6 N2 125.4(14) . .
O1 C6 C3 118.4(14) . .
N2 C6 C3 116.1(14) . .
O3A C5A C4A 119.7(14) . .
O3A C5A C6A 119.4(14) . .
C4A C5A C6A 120.9(15) . .
C4B C5B C6B 120.9(15) . .
C4B C5B O3B 118.5(15) . .
C6B C5B O3B 120.6(15) . .
C8 C7 N2 122.3(17) . .
C8 C7 C12 117.7(14) . .
N2 C7 C12 119.3(17) . .
C5A C6A C7A 118.1(15) . .
C5A C6A H6A 121.0 . .
C7A C6A H6A 121.0 . .
C5B C6B C7B 118.9(15) . .
C5B C6B H6B 120.6 . .
C7B C6B H6B 120.6 . .
C7 C8 C9 124(2) . .
C7 C8 H8 118.1 . .
C9 C8 H8 118.1 . .
C2A C7A C6A 121.8(14) . .
C2A C7A H7A 119.1 . .
C6A C7A H7A 119.1 . .
C2B C7B C6B 120.9(15) . .
C2B C7B H7B 119.5 . .
C6B C7B H7B 119.5 . .
C10 C9 C8 118(2) . .
C10 C9 H9 121.2 . .
C8 C9 H9 121.2 . .
C9A C8A C13A 121.4(14) . .
C9A C8A O3A 121.8(14) . .
C13A C8A O3A 116.7(13) . .
C13B C8B C9B 120.1(17) . .
C13B C8B O3B 116.8(15) . .
C9B C8B O3B 122.0(16) . .
C9 C10 C11 124.2(15) . .
C9 C10 N3 121.6(16) . .
C11 C10 N3 114.2(15) . .
C8A C9A C10A 118.2(14) . .
C8A C9A H9A 120.9 . .
C10A C9A H9A 120.9 . .
C8B C9B C10B 119.6(17) . .
C8B C9B H9B 120.2 . .
C10B C9B H9B 120.2 . .
C10 C11 C12 119.7(18) . .
C10 C11 H11 120.1 . .
C12 C11 H11 120.1 . .
C11A C10A C9A 120.5(14) . .
C11A C10A H10A 119.8 . .
C9A C10A H10A 119.8 . .
C11B C10B C9B 121.8(17) . .
C11B C10B H10B 119.1 . .
C9B C10B H10B 119.1 . .
C11 C12 C7 116.8(17) . .
C11 C12 H12 121.6 . .
C7 C12 H12 121.6 . .
C10A C11A C12A 119.4(13) . .
C10A C11A C14A 120.2(12) . .
C12A C11A C14A 120.3(12) . .
C10B C11B C12B 116.4(14) . .
C10B C11B C14B 124.1(14) . .
C12B C11B C14B 118.9(12) . .
O2 C13 N3 126.4(14) . .
O2 C13 C14 119.2(14) . .
N3 C13 C14 114.4(14) . .
C13A C12A C11A 119.0(14) . .
C13A C12A H12A 120.5 . .
C11A C12A H12A 120.5 . .
C13B C12B C11B 120.6(15) . .
C13B C12B H12B 119.7 . .
C11B C12B H12B 119.7 . .
C15 C14 C18 119.3(12) . .
C15 C14 C13 118.6(13) . .
C18 C14 C13 121.7(12) . .
C12A C13A C8A 121.3(15) . .
C12A C13A H13A 119.3 . .
C8A C13A H13A 119.3 . .
C8B C13B C12B 120.8(17) . .
C8B C13B H13B 119.6 . .
C12B C13B H13B 119.6 . .
C14 C15 C16 118.7(13) . .
C14 C15 H15 120.7 . .
C16 C15 H15 120.7 . .
O5A C14A O4A 125.9(13) . .
O5A C14A C11A 117.5(12) . .
O4A C14A C11A 116.5(11) . .
O5B C14B O4B 123.8(12) . .
O5B C14B C11B 118.6(12) . .
O4B C14B C11B 117.4(11) . .
N4 C16 C15 122.8(12) . .
N4 C16 H16 118.6 . .
C15 C16 H16 118.6 . .
N4 C17 C18 124.1(13) . .
N4 C17 H17 117.9 . .
C18 C17 H17 117.9 . .
C17 C18 C14 118.1(13) . .
C17 C18 H18 121.0 . .
C14 C18 H18 121.0 . .
O101 C102 N103 126(2) . .
O101 C102 H102 117.0 . .
N103 C102 H102 117.0 . .
C102 N103 C104 123(2) . .
C102 N103 C105 116.0(19) . .
C104 N103 C105 121(2) . .
N103 C104 H10D 109.5 . .
N103 C104 H10E 109.5 . .
H10D C104 H10E 109.5 . .
N103 C104 H10F 109.5 . .
H10D C104 H10F 109.5 . .
H10E C104 H10F 109.5 . .
N103 C105 H10G 109.5 . .
N103 C105 H10H 109.5 . .
H10G C105 H10H 109.5 . .
N103 C105 H10I 109.5 . .
H10G C105 H10I 109.5 . .
H10H C105 H10I 109.5 . .
O201 C202 N203 130(3) . .
O201 C202 H202 115.1 . .
N203 C202 H202 115.1 . .
C202 N203 C204 125(3) . .
C202 N203 C205 115(2) . .
C204 N203 C205 120(3) . .
N203 C204 H20A 109.5 . .
N203 C204 H20B 109.5 . .
H20A C204 H20B 109.5 . .
N203 C204 H20C 109.5 . .
H20A C204 H20C 109.5 . .
H20B C204 H20C 109.5 . .
N203 C205 H20D 109.5 . .
N203 C205 H20E 109.5 . .
H20D C205 H20E 109.5 . .
N203 C205 H20F 109.5 . .
H20D C205 H20F 109.5 . .
H20E C205 H20F 109.5 . .
O301 C302 N303 129(3) . .
O301 C302 H302 115.4 . .
N303 C302 H302 115.4 . .
C302 N303 C304 126(3) . .
C302 N303 C305 114(2) . .
C304 N303 C305 118(2) . .
N303 C304 H30A 109.5 . .
N303 C304 H30B 109.5 . .
H30A C304 H30B 109.5 . .
N303 C304 H30C 109.5 . .
H30A C304 H30C 109.5 . .
H30B C304 H30C 109.5 . .
N303 C305 H30D 109.5 . .
N303 C305 H30E 109.5 . .
H30D C305 H30E 109.5 . .
N303 C305 H30F 109.5 . .
H30D C305 H30F 109.5 . .
H30E C305 H30F 109.5 . .
O401 C402 N403 124(3) . .
O401 C402 H402 118.0 . .
N403 C402 H402 118.0 . .
C402 N403 C404 124(2) . .
C402 N403 C405 115(2) . .
C404 N403 C405 121(2) . .
N403 C404 H40A 109.5 . .
N403 C404 H40B 109.5 . .
H40A C404 H40B 109.5 . .
N403 C404 H40C 109.5 . .
H40A C404 H40C 109.5 . .
H40B C404 H40C 109.5 . .
N403 C405 H40D 109.5 . .
N403 C405 H40E 109.5 . .
H40D C405 H40E 109.5 . .
N403 C405 H40F 109.5 . .
H40D C405 H40F 109.5 . .
H40E C405 H40F 109.5 . .
loop_
_geom_bond_atom_site_label_1
_geom_bond_atom_site_label_2
_geom_bond_distance
_geom_bond_site_symmetry_2
Cu1 O1A 1.947(10) .
Cu1 O4A 1.968(9) 4_575
Cu1 O4B 1.983(10) 4_675
Cu1 O1B 1.996(9) .
Cu1 N4 2.162(10) 1_665
Cu1 Cu2 2.6370(19) .
Cu2 O5B 1.943(9) 4_675
Cu2 O2B 1.957(9) .
Cu2 O2A 1.985(10) .
Cu2 O5A 1.993(10) 4_575
Cu2 N1 2.170(10) .
O1 C6 1.25(2) .
O2 C13 1.20(2) .
O1A C1A 1.272(16) .
O1B C1B 1.253(16) .
O2A C1A 1.260(16) .
O2B C1B 1.292(16) .
O3A C5A 1.366(19) .
O3A C8A 1.394(18) .
O3B C8B 1.37(2) .
O3B C5B 1.382(19) .
O4A C14A 1.266(16) .
O4A Cu1 1.968(9) 4_676
O4B C14B 1.313(16) .
O4B Cu1 1.983(10) 4_576
O5A C14A 1.250(16) .
O5A Cu2 1.993(10) 4_676
O5B C14B 1.250(15) .
O5B Cu2 1.943(9) 4_576
N1 C1 1.288(17) .
N1 C5 1.319(19) .
N2 C6 1.31(2) .
N2 C7 1.43(2) .
N2 H2N 0.89(2) .
N3 C13 1.34(2) .
N3 C10 1.447(19) .
N3 H3N 0.89(2) .
N4 C16 1.317(17) .
N4 C17 1.341(17) .
N4 Cu1 2.162(10) 1_445
C1 C2 1.409(19) .
C1 H1 0.9500 .
C2 C3 1.40(2) .
C2 H2 0.9500 .
C1A C2A 1.505(19) .
C1B C2B 1.461(19) .
C3 C4 1.37(2) .
C3 C6 1.507(19) .
C2A C7A 1.37(2) .
C2A C3A 1.42(2) .
C2B C3B 1.36(2) .
C2B C7B 1.37(2) .
C4 C5 1.38(2) .
C4 H4 0.9500 .
C3A C4A 1.35(2) .
C3A H3A 0.9500 .
C3B C4B 1.41(2) .
C3B H3B 0.9500 .
C5 H5 0.9500 .
C4A C5A 1.38(2) .
C4A H4A 0.9500 .
C4B C5B 1.35(2) .
C4B H4B 0.9500 .
C5A C6A 1.39(2) .
C5B C6B 1.38(2) .
C7 C8 1.36(3) .
C7 C12 1.48(3) .
C6A C7A 1.40(2) .
C6A H6A 0.9500 .
C6B C7B 1.38(2) .
C6B H6B 0.9500 .
C8 C9 1.37(2) .
C8 H8 0.9500 .
C7A H7A 0.9500 .
C7B H7B 0.9500 .
C9 C10 1.35(3) .
C9 H9 0.9500 .
C8A C9A 1.36(2) .
C8A C13A 1.37(2) .
C8B C13B 1.34(3) .
C8B C9B 1.35(3) .
C10 C11 1.35(2) .
C9A C10A 1.42(2) .
C9A H9A 0.9500 .
C9B C10B 1.41(2) .
C9B H9B 0.9500 .
C11 C12 1.42(2) .
C11 H11 0.9500 .
C10A C11A 1.38(2) .
C10A H10A 0.9500 .
C10B C11B 1.34(2) .
C10B H10B 0.9500 .
C12 H12 0.9500 .
C11A C12A 1.407(19) .
C11A C14A 1.51(2) .
C11B C12B 1.42(2) .
C11B C14B 1.451(19) .
C13 C14 1.548(19) .
C12A C13A 1.36(2) .
C12A H12A 0.9500 .
C12B C13B 1.37(2) .
C12B H12B 0.9500 .
C14 C15 1.34(2) .
C14 C18 1.40(2) .
C13A H13A 0.9500 .
C13B H13B 0.9500 .
C15 C16 1.421(18) .
C15 H15 0.9500 .
C16 H16 0.9500 .
C17 C18 1.365(19) .
C17 H17 0.9500 .
C18 H18 0.9500 .
O101 C102 1.21(2) .
C102 N103 1.31(2) .
C102 H102 0.9500 .
N103 C104 1.41(3) .
N103 C105 1.50(3) .
C104 H10D 0.9800 .
C104 H10E 0.9800 .
C104 H10F 0.9800 .
C105 H10G 0.9800 .
C105 H10H 0.9800 .
C105 H10I 0.9800 .
O201 C202 1.21(2) .
C202 N203 1.30(2) .
C202 H202 0.9500 .
N203 C204 1.40(3) .
N203 C205 1.50(3) .
C204 H20A 0.9800 .
C204 H20B 0.9800 .
C204 H20C 0.9800 .
C205 H20D 0.9800 .
C205 H20E 0.9800 .
C205 H20F 0.9800 .
O301 C302 1.22(3) .
C302 N303 1.30(2) .
C302 H302 0.9500 .
N303 C304 1.40(3) .
N303 C305 1.51(3) .
C304 H30A 0.9800 .
C304 H30B 0.9800 .
C304 H30C 0.9800 .
C305 H30D 0.9800 .
C305 H30E 0.9800 .
C305 H30F 0.9800 .
O401 C402 1.21(2) .
C402 N403 1.30(2) .
C402 H402 0.9500 .
N403 C404 1.40(3) .
N403 C405 1.51(3) .
C404 H40A 0.9800 .
C404 H40B 0.9800 .
C404 H40C 0.9800 .
C405 H40D 0.9800 .
C405 H40E 0.9800 .
C405 H40F 0.9800 .
loop_
_geom_torsion_atom_site_label_1
_geom_torsion_atom_site_label_2
_geom_torsion_atom_site_label_3
_geom_torsion_atom_site_label_4
_geom_torsion
_geom_torsion_site_symmetry_1
C5 N1 C1 C2 1(3) .
Cu2 N1 C1 C2 -176.9(13) .
N1 C1 C2 C3 -2(3) .
Cu2 O2A C1A O1A 3(2) .
Cu2 O2A C1A C2A -179.6(9) .
Cu1 O1A C1A O2A 3(2) .
Cu1 O1A C1A C2A -174.1(9) .
Cu1 O1B C1B O2B 5(2) .
Cu1 O1B C1B C2B -179.8(10) .
Cu2 O2B C1B O1B -3(2) .
Cu2 O2B C1B C2B -177.7(10) .
C1 C2 C3 C4 2(3) .
C1 C2 C3 C6 178.3(17) .
O2A C1A C2A C7A 178.8(15) .
O1A C1A C2A C7A -4(2) .
O2A C1A C2A C3A 0(2) .
O1A C1A C2A C3A 177.2(14) .
O1B C1B C2B C3B 5(2) .
O2B C1B C2B C3B 179.8(15) .
O1B C1B C2B C7B -177.6(15) .
O2B C1B C2B C7B -2(2) .
C2 C3 C4 C5 -3(3) .
C6 C3 C4 C5 -178.8(19) .
C7A C2A C3A C4A 3(2) .
C1A C2A C3A C4A -177.8(15) .
C7B C2B C3B C4B 2(3) .
C1B C2B C3B C4B 179.4(16) .
C1 N1 C5 C4 -2(3) .
Cu2 N1 C5 C4 176.6(16) .
C3 C4 C5 N1 2(3) .
C2A C3A C4A C5A -3(3) .
C2B C3B C4B C5B -3(3) .
C7 N2 C6 O1 11(3) .
C7 N2 C6 C3 -170.7(18) .
C4 C3 C6 O1 -16(3) .
C2 C3 C6 O1 168.2(18) .
C4 C3 C6 N2 165.4(19) .
C2 C3 C6 N2 -10(3) .
C8A O3A C5A C4A -131.2(17) .
C8A O3A C5A C6A 50(2) .
C3A C4A C5A O3A -177.2(16) .
C3A C4A C5A C6A 2(3) .
C3B C4B C5B C6B 4(3) .
C3B C4B C5B O3B -178.1(17) .
C8B O3B C5B C4B -139(2) .
C8B O3B C5B C6B 39(3) .
C6 N2 C7 C8 133(2) .
C6 N2 C7 C12 -57(3) .
O3A C5A C6A C7A 178.4(16) .
C4A C5A C6A C7A 0(3) .
C4B C5B C6B C7B -4(3) .
O3B C5B C6B C7B 178.3(18) .
N2 C7 C8 C9 175(2) .
C12 C7 C8 C9 6(4) .
C3A C2A C7A C6A -2(3) .
C1A C2A C7A C6A 179.1(15) .
C5A C6A C7A C2A 1(3) .
C3B C2B C7B C6B -1(3) .
C1B C2B C7B C6B -179.1(17) .
C5B C6B C7B C2B 2(3) .
C7 C8 C9 C10 -6(4) .
C5A O3A C8A C9A 20(2) .
C5A O3A C8A C13A -159.8(16) .
C5B O3B C8B C13B -154(2) .
C5B O3B C8B C9B 38(3) .
C8 C9 C10 C11 4(3) .
C8 C9 C10 N3 -177(2) .
C13 N3 C10 C9 22(3) .
C13 N3 C10 C11 -158.2(19) .
C13A C8A C9A C10A 1(3) .
O3A C8A C9A C10A -178.5(15) .
C13B C8B C9B C10B 4(4) .
O3B C8B C9B C10B 172(2) .
C9 C10 C11 C12 -2(3) .
N3 C10 C11 C12 178.5(16) .
C8A C9A C10A C11A -4(3) .
C8B C9B C10B C11B 3(4) .
C10 C11 C12 C7 2(3) .
C8 C7 C12 C11 -3(3) .
N2 C7 C12 C11 -173.6(16) .
C9A C10A C11A C12A 3(2) .
C9A C10A C11A C14A -179.3(15) .
C9B C10B C11B C12B -7(3) .
C9B C10B C11B C14B -179.0(19) .
C10 N3 C13 O2 -1(3) .
C10 N3 C13 C14 176.8(17) .
C10A C11A C12A C13A 0(2) .
C14A C11A C12A C13A -177.5(14) .
C10B C11B C12B C13B 4(3) .
C14B C11B C12B C13B 176(2) .
O2 C13 C14 C15 38(3) .
N3 C13 C14 C15 -139.8(17) .
O2 C13 C14 C18 -135.5(19) .
N3 C13 C14 C18 47(2) .
C11A C12A C13A C8A -3(3) .
C9A C8A C13A C12A 2(3) .
O3A C8A C13A C12A -178.2(15) .
C9B C8B C13B C12B -8(4) .
O3B C8B C13B C12B -175(2) .
C11B C12B C13B C8B 3(4) .
C18 C14 C15 C16 -4(3) .
C13 C14 C15 C16 -177.5(15) .
Cu2 O5A C14A O4A 9(2) 4_676
Cu2 O5A C14A C11A -170.9(9) 4_676
Cu1 O4A C14A O5A -12.5(19) 4_676
Cu1 O4A C14A C11A 167.4(9) 4_676
C10A C11A C14A O5A 2(2) .
C12A C11A C14A O5A 179.4(13) .
C10A C11A C14A O4A -178.3(14) .
C12A C11A C14A O4A -0.5(19) .
Cu2 O5B C14B O4B -5(2) 4_576
Cu2 O5B C14B C11B 168.9(10) 4_576
Cu1 O4B C14B O5B -1.2(19) 4_576
Cu1 O4B C14B C11B -175.1(10) 4_576
C10B C11B C14B O5B 171.3(17) .
C12B C11B C14B O5B 0(2) .
C10B C11B C14B O4B -14(2) .
C12B C11B C14B O4B 174.1(16) .
C17 N4 C16 C15 1(2) .
Cu1 N4 C16 C15 -177.7(11) 1_445
C14 C15 C16 N4 3(2) .
C16 N4 C17 C18 -3(2) .
Cu1 N4 C17 C18 175.1(13) 1_445
N4 C17 C18 C14 2(3) .
C15 C14 C18 C17 2(3) .
C13 C14 C18 C17 175.0(16) .
O101 C102 N103 C104 -171(3) .
O101 C102 N103 C105 3(3) .
O201 C202 N203 C204 -176(5) .
O201 C202 N203 C205 1(8) .
O301 C302 N303 C304 176(4) .
O301 C302 N303 C305 6(7) .
O401 C402 N403 C404 -168(4) .
O401 C402 N403 C405 9(5) .
