#------------------------------------------------------------------------------
#$Date: 2016-02-16 03:10:39 +0200 (Tue, 16 Feb 2016) $
#$Revision: 176453 $
#$URL: svn://www.crystallography.net/cod/cif/7/10/85/7108596.cif $
#------------------------------------------------------------------------------
#
# This file is available in the Crystallography Open Database (COD),
# http://www.crystallography.net/
#
# All data on this site have been placed in the public domain by the
# contributors.
#
data_7108596
loop_
_publ_author_name
'Jie-Peng Zhang'
'Ai-Xin Zhu'
'Xiao-Ming Chen'
_publ_section_title
;
 Single-crystal X-ray diffraction and Raman spectroscopy studies of
 isobaric N2 adsorption in SOD-type metal-organic zeolites
;
_journal_name_full               Chem.Commun.
_journal_page_first              11395
_journal_paper_doi               10.1039/c2cc35544b
_journal_volume                  48
_journal_year                    2012
_chemical_formula_sum            'C6 H8 N6.4 Zn'
_chemical_formula_weight         235.16
_chemical_name_systematic
;
?
;
_space_group_IT_number           217
_symmetry_cell_setting           cubic
_symmetry_space_group_name_Hall  'I -4 2 3'
_symmetry_space_group_name_H-M   'I -4 3 m'
_atom_sites_solution_hydrogens   geom
_atom_sites_solution_primary     direct
_atom_sites_solution_secondary   difmap
_audit_creation_method           SHELXL-97
_cell_angle_alpha                90.00
_cell_angle_beta                 90.00
_cell_angle_gamma                90.00
_cell_formula_units_Z            12
_cell_length_a                   17.019(3)
_cell_length_b                   17.019(3)
_cell_length_c                   17.019(3)
_cell_measurement_temperature    293(2)
_cell_volume                     4929.5(15)
_computing_structure_refinement  'SHELXL-97 (Sheldrick, 1997)'
_computing_structure_solution    'SHELXS-97 (Sheldrick, 1990)'
_diffrn_ambient_temperature      293(2)
_diffrn_measured_fraction_theta_full 0.992
_diffrn_measured_fraction_theta_max 0.992
_diffrn_measurement_device_type  CCD
_diffrn_measurement_method       '/w scan'
_diffrn_radiation_monochromator  graphite
_diffrn_radiation_source         'fine-focus sealed tube'
_diffrn_radiation_type           MoK\a
_diffrn_radiation_wavelength     0.71073
_diffrn_reflns_av_R_equivalents  0.0431
_diffrn_reflns_av_sigmaI/netI    0.0242
_diffrn_reflns_limit_h_max       20
_diffrn_reflns_limit_h_min       -20
_diffrn_reflns_limit_k_max       18
_diffrn_reflns_limit_k_min       -20
_diffrn_reflns_limit_l_max       20
_diffrn_reflns_limit_l_min       -18
_diffrn_reflns_number            9424
_diffrn_reflns_theta_full        25.98
_diffrn_reflns_theta_max         25.98
_diffrn_reflns_theta_min         2.39
_exptl_absorpt_coefficient_mu    1.475
_exptl_absorpt_correction_T_max  0.7470
_exptl_absorpt_correction_T_min  0.6577
_exptl_absorpt_correction_type   multi-scan
_exptl_absorpt_process_details   SADABS
_exptl_crystal_colour            colorless
_exptl_crystal_density_diffrn    0.951
_exptl_crystal_density_method    'not measured'
_exptl_crystal_description       block
_exptl_crystal_F_000             1426
_exptl_crystal_size_max          0.31
_exptl_crystal_size_mid          0.24
_exptl_crystal_size_min          0.21
_refine_diff_density_max         0.192
_refine_diff_density_min         -0.542
_refine_diff_density_rms         0.057
_refine_ls_abs_structure_details 'Flack H D (1983), Acta Cryst. A39, 876-881'
_refine_ls_abs_structure_Flack   0.02(3)
_refine_ls_extinction_method     none
_refine_ls_goodness_of_fit_ref   1.034
_refine_ls_hydrogen_treatment    constr
_refine_ls_matrix_type           full
_refine_ls_number_parameters     37
_refine_ls_number_reflns         920
_refine_ls_number_restraints     0
_refine_ls_restrained_S_all      1.034
_refine_ls_R_factor_all          0.0470
_refine_ls_R_factor_gt           0.0369
_refine_ls_shift/su_max          0.000
_refine_ls_shift/su_mean         0.000
_refine_ls_structure_factor_coef Fsqd
_refine_ls_weighting_details
'calc w=1/[\s^2^(Fo^2^)+(0.0413P)^2^+1.5320P] where P=(Fo^2^+2Fc^2^)/3'
_refine_ls_weighting_scheme      calc
_refine_ls_wR_factor_gt          0.0753
_refine_ls_wR_factor_ref         0.0798
_reflns_number_gt                792
_reflns_number_total             920
_reflns_threshold_expression     >2sigma(I)
_cod_data_source_file            c2cc35544b.txt
_cod_data_source_block           MAF-7_293K
_cod_original_cell_volume        4929.2(13)
_cod_original_sg_symbol_H-M      I-43m
_cod_original_formula_sum        'C6 H8 N6.40 Zn'
_cod_database_code               7108596
loop_
_symmetry_equiv_pos_as_xyz
'x, y, z'
'-x, -y, z'
'-x, y, -z'
'x, -y, -z'
'z, x, y'
'z, -x, -y'
'-z, -x, y'
'-z, x, -y'
'y, z, x'
'-y, z, -x'
'y, -z, -x'
'-y, -z, x'
'y, x, z'
'-y, -x, z'
'y, -x, -z'
'-y, x, -z'
'x, z, y'
'-x, z, -y'
'-x, -z, y'
'x, -z, -y'
'z, y, x'
'z, -y, -x'
'-z, y, -x'
'-z, -y, x'
'x+1/2, y+1/2, z+1/2'
'-x+1/2, -y+1/2, z+1/2'
'-x+1/2, y+1/2, -z+1/2'
'x+1/2, -y+1/2, -z+1/2'
'z+1/2, x+1/2, y+1/2'
'z+1/2, -x+1/2, -y+1/2'
'-z+1/2, -x+1/2, y+1/2'
'-z+1/2, x+1/2, -y+1/2'
'y+1/2, z+1/2, x+1/2'
'-y+1/2, z+1/2, -x+1/2'
'y+1/2, -z+1/2, -x+1/2'
'-y+1/2, -z+1/2, x+1/2'
'y+1/2, x+1/2, z+1/2'
'-y+1/2, -x+1/2, z+1/2'
'y+1/2, -x+1/2, -z+1/2'
'-y+1/2, x+1/2, -z+1/2'
'x+1/2, z+1/2, y+1/2'
'-x+1/2, z+1/2, -y+1/2'
'-x+1/2, -z+1/2, y+1/2'
'x+1/2, -z+1/2, -y+1/2'
'z+1/2, y+1/2, x+1/2'
'z+1/2, -y+1/2, -x+1/2'
'-z+1/2, y+1/2, -x+1/2'
'-z+1/2, -y+1/2, x+1/2'
loop_
_atom_site_label
_atom_site_type_symbol
_atom_site_fract_x
_atom_site_fract_y
_atom_site_fract_z
_atom_site_U_iso_or_equiv
_atom_site_adp_type
_atom_site_occupancy
_atom_site_symmetry_multiplicity
_atom_site_calc_flag
_atom_site_refinement_flags
_atom_site_disorder_assembly
_atom_site_disorder_group
Zn1 Zn 0.0000 0.2500 0.5000 0.0677(2) Uani 1 4 d S . .
C1 C 0.12383(15) 0.12383(15) 0.5118(3) 0.0694(13) Uani 1 2 d S A .
N1 N 0.09052(15) 0.18223(14) 0.47247(13) 0.0712(7) Uani 1 1 d . . .
C2 C 0.1300(2) 0.1849(2) 0.40233(19) 0.0966(10) Uani 0.50 1 d P A 1
H2A H 0.1198 0.2197 0.3614 0.116 Uiso 0.50 1 calc PR A 1
N2 N 0.1300(2) 0.1849(2) 0.40233(19) 0.0966(10) Uani 0.50 1 d P A 2
C3 C 0.0987(3) 0.0987(3) 0.5930(3) 0.116(2) Uani 1 2 d S . .
H3A H 0.1284 0.1271 0.6315 0.174 Uiso 1 2 calc SR A .
H3B H 0.1079 0.0434 0.5992 0.174 Uiso 0.50 1 calc PR . .
H3C H 0.0437 0.1095 0.5998 0.174 Uiso 0.50 1 calc PR . .
N41 N 0.0000 0.0000 0.7495(12) 0.098(7) Uiso 0.24 4 d SP . .
N31 N 0.248(2) 0.248(2) 0.248(2) 0.096(8) Uiso 0.24 6 d SP . .
loop_
_atom_site_aniso_label
_atom_site_aniso_U_11
_atom_site_aniso_U_22
_atom_site_aniso_U_33
_atom_site_aniso_U_23
_atom_site_aniso_U_13
_atom_site_aniso_U_12
Zn1 0.0713(3) 0.0606(3) 0.0713(3) 0.000 0.000 0.000
C1 0.0715(13) 0.0715(13) 0.065(4) 0.0007(15) 0.0007(15) 0.0024(18)
N1 0.0769(15) 0.0671(13) 0.0696(18) 0.0024(11) 0.0039(11) 0.0066(12)
C2 0.109(2) 0.100(2) 0.081(2) 0.0239(17) 0.0202(18) 0.0216(18)
N2 0.109(2) 0.100(2) 0.081(2) 0.0239(17) 0.0202(18) 0.0216(18)
C3 0.130(3) 0.130(3) 0.087(3) 0.034(3) 0.034(3) 0.044(4)
loop_
_atom_type_symbol
_atom_type_description
_atom_type_scat_dispersion_real
_atom_type_scat_dispersion_imag
_atom_type_scat_source
C C 0.0033 0.0016 'International Tables Vol C Tables 4.2.6.8 and 6.1.1.4'
H H 0.0000 0.0000 'International Tables Vol C Tables 4.2.6.8 and 6.1.1.4'
N N 0.0061 0.0033 'International Tables Vol C Tables 4.2.6.8 and 6.1.1.4'
Zn Zn 0.2839 1.4301 'International Tables Vol C Tables 4.2.6.8 and 6.1.1.4'
loop_
_geom_angle_atom_site_label_1
_geom_angle_atom_site_label_2
_geom_angle_atom_site_label_3
_geom_angle
_geom_angle_site_symmetry_1
_geom_angle_site_symmetry_3
N1 Zn1 N1 109.82(7) 3_556 48
N1 Zn1 N1 108.78(15) 3_556 .
N1 Zn1 N1 109.82(8) 48 .
N1 Zn1 N1 109.82(7) 3_556 46_455
N1 Zn1 N1 108.78(15) 48 46_455
N1 Zn1 N1 109.82(7) . 46_455
N1 C1 N1 112.7(4) . 13
N1 C1 C3 123.6(2) . .
N1 C1 C3 123.6(2) 13 .
C1 N1 C2 104.8(3) . .
C1 N1 Zn1 130.5(2) . .
C2 N1 Zn1 124.6(2) . .
C2 C2 N1 108.82(17) 13 .
loop_
_geom_bond_atom_site_label_1
_geom_bond_atom_site_label_2
_geom_bond_distance
_geom_bond_site_symmetry_2
Zn1 N1 1.981(2) 3_556
Zn1 N1 1.981(2) 48
Zn1 N1 1.981(2) .
Zn1 N1 1.981(2) 46_455
C1 N1 1.326(3) .
C1 N1 1.326(3) 13
C1 C3 1.508(7) .
N1 C2 1.370(4) .
C2 C2 1.323(6) 13
