#------------------------------------------------------------------------------
#$Date: 2016-03-26 14:23:56 +0200 (Sat, 26 Mar 2016) $
#$Revision: 180260 $
#$URL: svn://www.crystallography.net/cod/cif/7/11/46/7114651.cif $
#------------------------------------------------------------------------------
#
# This file is available in the Crystallography Open Database (COD),
# http://www.crystallography.net/
#
# All data on this site have been placed in the public domain by the
# contributors.
#
data_7114651
loop_
_publ_author_name
'Qing-Yuan Yang'
'Kai Wu'
'Ji-Jun Jiang'
'Chien-Wei Hsu'
'Mei Pan'
'Jean-Marie Lehn'
'Cheng-Yong Su'
_publ_section_title
;
 Pure white-light and yellow-to-blue emission tuning in single crystals of
 Dy(III) metal-organic frameworks
;
_journal_name_full               Chem.Commun.
_journal_page_first              7702
_journal_paper_doi               10.1039/C4CC01763C
_journal_volume                  50
_journal_year                    2014
_chemical_formula_moiety         'C30 H33 Dy N6 O12'
_chemical_formula_sum            'C30 H33 Dy N6 O12'
_chemical_formula_weight         832.12
_chemical_name_systematic
;
 ?
;
_space_group_crystal_system      orthorhombic
_space_group_IT_number           33
_space_group_name_Hall           'P 2c -2n'
_space_group_name_H-M_alt        'P n a 21'
_symmetry_space_group_name_Hall  'P 2c -2n'
_symmetry_space_group_name_H-M   'P n a 21'
_atom_sites_solution_hydrogens   geom
_atom_sites_solution_primary     direct
_atom_sites_solution_secondary   difmap
_audit_creation_method           SHELXL-2013
_cell_angle_alpha                90
_cell_angle_beta                 90
_cell_angle_gamma                90
_cell_formula_units_Z            4
_cell_length_a                   15.081(5)
_cell_length_b                   16.728(5)
_cell_length_c                   13.061(5)
_cell_measurement_reflns_used    4013
_cell_measurement_temperature    173(2)
_cell_measurement_theta_max      25.36
_cell_measurement_theta_min      2.70
_cell_volume                     3295.0(19)
_computing_cell_refinement       'Bruker SAINT'
_computing_data_collection       'Bruker APEX2'
_computing_data_reduction        'Bruker SAINT'
_computing_molecular_graphics    'Bruker SHELXTL'
_computing_publication_material  'Bruker SHELXTL'
_computing_structure_refinement  'SHELXL-2013 (Sheldrick, 2013)'
_computing_structure_solution    'SHELXS-2013 (Sheldrick, 2013)'
_diffrn_ambient_temperature      173(2)
_diffrn_measured_fraction_theta_full 0.999
_diffrn_measured_fraction_theta_max 0.997
_diffrn_measurement_device_type  'Bruker APEX-II CCD'
_diffrn_measurement_method       '\f and \w scans'
_diffrn_radiation_type           MoK\a
_diffrn_radiation_wavelength     0.71073
_diffrn_reflns_av_R_equivalents  0.0593
_diffrn_reflns_av_unetI/netI     0.0836
_diffrn_reflns_Laue_measured_fraction_full 0.999
_diffrn_reflns_Laue_measured_fraction_max 0.997
_diffrn_reflns_limit_h_max       20
_diffrn_reflns_limit_h_min       -19
_diffrn_reflns_limit_k_max       22
_diffrn_reflns_limit_k_min       -22
_diffrn_reflns_limit_l_max       17
_diffrn_reflns_limit_l_min       -17
_diffrn_reflns_number            26634
_diffrn_reflns_point_group_measured_fraction_full 0.998
_diffrn_reflns_point_group_measured_fraction_max 0.995
_diffrn_reflns_theta_full        25.242
_diffrn_reflns_theta_max         29.027
_diffrn_reflns_theta_min         1.818
_diffrn_source                   'fine-focus sealed tube'
_exptl_absorpt_coefficient_mu    2.340
_exptl_absorpt_correction_T_max  0.7458
_exptl_absorpt_correction_T_min  0.6274
_exptl_absorpt_correction_type   multi-scan
_exptl_absorpt_process_details   sadabs
_exptl_crystal_colour            colourless
_exptl_crystal_density_diffrn    1.677
_exptl_crystal_description       block
_exptl_crystal_F_000             1668
_exptl_crystal_size_max          0.20
_exptl_crystal_size_mid          0.15
_exptl_crystal_size_min          0.12
_platon_squeeze_details
;
 The residual electron density was assigned to a molecule of the water
 solvent [40/4 = 10 e per asymmetric unit; one molecule of H2O
 would give 10e].
;
_refine_diff_density_max         1.318
_refine_diff_density_min         -1.161
_refine_diff_density_rms         0.119
_refine_ls_abs_structure_details
;
 Flack x determined using 2426 quotients [(I+)-(I-)]/[(I+)+(I-)]
 (Parsons and Flack (2004), Acta Cryst. A60, s61).
;
_refine_ls_abs_structure_Flack   0.019(10)
_refine_ls_extinction_method     none
_refine_ls_goodness_of_fit_ref   0.998
_refine_ls_hydrogen_treatment    constr
_refine_ls_matrix_type           full
_refine_ls_number_parameters     439
_refine_ls_number_reflns         8746
_refine_ls_number_restraints     1
_refine_ls_restrained_S_all      0.998
_refine_ls_R_factor_all          0.0810
_refine_ls_R_factor_gt           0.0481
_refine_ls_shift/su_max          0.002
_refine_ls_shift/su_mean         0.000
_refine_ls_structure_factor_coef Fsqd
_refine_ls_weighting_details
'w=1/[\s^2^(Fo^2^)+(0.0395P)^2^] where P=(Fo^2^+2Fc^2^)/3'
_refine_ls_weighting_scheme      calc
_refine_ls_wR_factor_gt          0.0894
_refine_ls_wR_factor_ref         0.0981
_reflns_Friedel_coverage         0.915
_reflns_Friedel_fraction_full    0.997
_reflns_Friedel_fraction_max     0.992
_reflns_number_gt                6286
_reflns_number_total             8746
_reflns_threshold_expression     'I > 2\s(I)'
_cod_data_source_file            c4cc01763c2.cif
_cod_data_source_block           jmlqy140211
_cod_database_code               7114651
#BEGIN Tags that were not found in dictionaries:
_shelx_space_group_comment
;
The symmetry employed for this shelxl refinement is uniquely defined
by the following loop, which should always be used as a source of
symmetry information in preference to the above space-group names.
They are only intended as comments.
;
_shelxl_version_number           2013-4
_shelx_res_file
;
TITL jmlqy140211 in Pna2(1)
CELL  0.71073  15.0810  16.7280  13.0610   90.000   90.000   90.000
ZERR     4.00   0.0050   0.0050   0.0050    0.000    0.000    0.000
LATT  -1
SYMM  - X, - Y, 1/2 + Z
SYMM  1/2 - X, 1/2 + Y, 1/2 + Z
SYMM  1/2 + X, 1/2 - Y,   Z
SFAC  C    H    N    O    DY
UNIT  120  132  24   48   4
MERG   2
EADP C2 C3
FMAP   2
PLAN   10
ACTA
BOND   $H
CONF
L.S.  12
TEMP  -100.00
WGHT    0.039500
FVAR       0.68536
C1    1    1.445112    0.419026    0.326632    11.00000    0.01849    0.01448 =
         0.01763    0.00740   -0.00150    0.00529
C2    1    1.426337    0.361028    0.251395    11.00000    0.01992    0.01422 =
         0.01057    0.00221   -0.00207    0.00184
C3    1    1.495489    0.332725    0.189955    11.00000    0.01992    0.01422 =
         0.01057    0.00221   -0.00207    0.00184
C4    1    1.582402    0.363431    0.199991    11.00000    0.02065    0.01263 =
         0.01353    0.00900    0.00147    0.00138
C5    1    1.598458    0.425265    0.268951    11.00000    0.01880    0.00845 =
         0.02558    0.00855   -0.00614    0.00021
C6    1    1.530262    0.453487    0.333702    11.00000    0.02128    0.01333 =
         0.02811    0.00686   -0.01158    0.00307
C7    1    1.550735    0.516159    0.412966    11.00000    0.02153    0.01506 =
         0.03981   -0.00718   -0.00699    0.00215
AFIX  23
H7A   2    1.499407    0.552742    0.419093    11.00000   -1.20000
H7B   2    1.602265    0.548039    0.389771    11.00000   -1.20000
AFIX   0
C8    1    1.571163    0.480764    0.517813    11.00000    0.04219    0.04561 =
         0.03257   -0.01414   -0.01032    0.00066
AFIX 137
H8A   2    1.519914    0.450068    0.541950    11.00000   -1.50000
H8B   2    1.583887    0.523997    0.566272    11.00000   -1.50000
H8C   2    1.622828    0.445460    0.512666    11.00000   -1.50000
AFIX   0
C9    1    1.373450    0.446867    0.398336    11.00000    0.02396    0.02543 =
         0.02100    0.00005   -0.00560    0.00666
AFIX  23
H9A   2    1.340108    0.399825    0.423497    11.00000   -1.20000
H9B   2    1.401209    0.473143    0.458215    11.00000   -1.20000
AFIX   0
C10   1    1.337860    0.563117    0.285910    11.00000    0.01896    0.01785 =
         0.02293   -0.00722    0.00070   -0.00486
AFIX  43
H10   2    1.398966    0.565951    0.268615    11.00000   -1.20000
AFIX   0
C11   1    1.281532    0.618257    0.246552    11.00000    0.02167    0.01486 =
         0.02153   -0.00197   -0.00260   -0.00106
AFIX  43
H11   2    1.303700    0.658643    0.202281    11.00000   -1.20000
AFIX   0
C12   1    1.190019    0.616361    0.270663    11.00000    0.02546    0.01829 =
         0.02569   -0.00557   -0.00504   -0.00014
C13   1    1.163529    0.555887    0.337942    11.00000    0.01351    0.02749 =
         0.02019   -0.00534   -0.00216   -0.00053
AFIX  43
H13   2    1.103251    0.552725    0.358677    11.00000   -1.20000
AFIX   0
C14   1    1.223831    0.500602    0.374739    11.00000    0.02183    0.01914 =
         0.02531   -0.00300    0.00240   -0.00586
AFIX  43
H14   2    1.203933    0.459307    0.419072    11.00000   -1.20000
AFIX   0
C15   1    1.333267    0.328842    0.238526    11.00000    0.02058    0.02258 =
         0.02605   -0.00408    0.00442   -0.00452
AFIX  23
H15A  2    1.302301    0.331515    0.305273    11.00000   -1.20000
H15B  2    1.336692    0.271916    0.218178    11.00000   -1.20000
AFIX   0
C16   1    1.277822    0.375129    0.157380    11.00000    0.02098    0.02701 =
         0.03369   -0.01341   -0.00747   -0.00041
AFIX 137
H16A  2    1.277447    0.432188    0.174385    11.00000   -1.50000
H16B  2    1.216879    0.354795    0.157145    11.00000   -1.50000
H16C  2    1.304226    0.367551    0.089511    11.00000   -1.50000
AFIX   0
C17   1    1.475814    0.271118    0.108201    11.00000    0.02370    0.01675 =
         0.01609    0.00135    0.00029    0.00096
AFIX  23
H17A  2    1.419144    0.285070    0.074373    11.00000   -1.20000
H17B  2    1.523099    0.273200    0.055690    11.00000   -1.20000
AFIX   0
C18   1    1.433151    0.131616    0.088823    11.00000    0.03080    0.02589 =
         0.01703   -0.00648   -0.00205   -0.00334
AFIX  43
H18   2    1.408594    0.146742    0.024704    11.00000   -1.20000
AFIX   0
C19   1    1.430441    0.053368    0.117540    11.00000    0.03602    0.01670 =
         0.02665   -0.00210   -0.00757   -0.00378
AFIX  43
H19   2    1.402744    0.015537    0.073720    11.00000   -1.20000
AFIX   0
C20   1    1.467643    0.027154    0.210500    11.00000    0.02653    0.01523 =
         0.02015   -0.00536    0.00607   -0.00056
C21   1    1.505075    0.088678    0.273410    11.00000    0.02898    0.01830 =
         0.02375    0.00068   -0.00567    0.00200
AFIX  43
H21   2    1.529787    0.075741    0.338231    11.00000   -1.20000
AFIX   0
C22   1    1.505088    0.165615    0.239983    11.00000    0.02674    0.02094 =
         0.02142   -0.00260   -0.00307   -0.00279
AFIX  43
H22   2    1.531007    0.205525    0.282198    11.00000   -1.20000
AFIX   0
C23   1    1.657946    0.328105    0.138645    11.00000    0.02188    0.02355 =
         0.02368    0.00316    0.00469    0.00384
AFIX  23
H23A  2    1.645769    0.270800    0.125955    11.00000   -1.20000
H23B  2    1.713275    0.331804    0.179162    11.00000   -1.20000
AFIX   0
C24   1    1.671440    0.370565    0.035965    11.00000    0.03824    0.03455 =
         0.03207    0.01065    0.00738    0.00120
AFIX 137
H24A  2    1.617760    0.365060   -0.005729    11.00000   -1.50000
H24B  2    1.721735    0.346449   -0.000136    11.00000   -1.50000
H24C  2    1.683460    0.427361    0.048042    11.00000   -1.50000
AFIX   0
C25   1    1.687073    0.467095    0.267560    11.00000    0.01824    0.02010 =
         0.03966    0.00983   -0.01109   -0.00340
AFIX  23
H25A  2    1.718417    0.452350    0.203695    11.00000   -1.20000
H25B  2    1.676657    0.525510    0.265703    11.00000   -1.20000
AFIX   0
C26   1    1.754611    0.375099    0.391715    11.00000    0.02027    0.02183 =
         0.03377    0.00826   -0.00647   -0.00559
AFIX  43
H26   2    1.714953    0.334587    0.369322    11.00000   -1.20000
AFIX   0
C27   1    1.818289    0.356263    0.459248    11.00000    0.04036    0.01704 =
         0.03078    0.00774   -0.00963   -0.00428
AFIX  43
H27   2    1.821946    0.303160    0.484683    11.00000   -1.20000
AFIX   0
C28   1    1.880404    0.414364    0.493432    11.00000    0.02411    0.03012 =
         0.02841    0.00576   -0.00236   -0.00293
C29   1    1.863294    0.492092    0.460859    11.00000    0.02911    0.02290 =
         0.04274   -0.00193   -0.01147   -0.00295
AFIX  43
H29   2    1.897914    0.534944    0.486942    11.00000   -1.20000
AFIX   0
C30   1    1.798616    0.507283    0.393174    11.00000    0.02392    0.01229 =
         0.04039    0.00659   -0.00430   -0.00268
AFIX  43
H30   2    1.789699    0.560770    0.371001    11.00000   -1.20000
AFIX   0
N1    3    1.309873    0.504161    0.349040    11.00000    0.01547    0.01664 =
         0.02016   -0.00609   -0.00415    0.00104
N2    3    1.469573    0.187844    0.148689    11.00000    0.02079    0.01286 =
         0.02119   -0.00176    0.00042    0.00006
N3    3    1.745391    0.448871    0.355194    11.00000    0.01606    0.01807 =
         0.02853    0.00257   -0.00632    0.00039
N4    3    0.899668    0.692295    0.370377    11.00000    0.02009    0.01945 =
         0.01607   -0.00419    0.00289   -0.00095
N5    3    1.065035    0.832914    0.150969    11.00000    0.04657    0.02273 =
         0.03294    0.00221   -0.00755   -0.00589
N6    3    0.855244    0.689751    0.016958    11.00000    0.03683    0.01640 =
         0.04906   -0.01113   -0.01804    0.00732
O1    4    1.135705    0.666970    0.234083    11.00000    0.01695    0.02635 =
         0.04785    0.00582   -0.00609    0.00465
O2    4    1.468865   -0.045504    0.238969    11.00000    0.03171    0.01659 =
         0.02324   -0.00165    0.00008    0.00166
O3    4    1.947456    0.397200    0.546642    11.00000    0.03353    0.03087 =
         0.04994    0.01688   -0.02265   -0.00898
O4    4    0.858337    0.693975    0.285887    11.00000    0.02924    0.02393 =
         0.03738   -0.00147    0.00224    0.00419
O5    4    0.981295    0.687082    0.367369    11.00000    0.03236    0.03805 =
         0.02027   -0.00581   -0.00276    0.00069
O6    4    0.858352    0.694355    0.449551    11.00000    0.04274    0.05313 =
         0.03435   -0.01782    0.01099   -0.00743
O7    4    1.014453    0.813968    0.226060    11.00000    0.04600    0.02208 =
         0.03592   -0.00513    0.00495   -0.00110
O8    4    1.075674    0.782091    0.082767    11.00000    0.04157    0.02335 =
         0.03701    0.00247    0.00446   -0.00377
O9    4    1.100383    0.898188    0.147702    11.00000    0.10559    0.03249 =
         0.04055    0.00492   -0.01253   -0.03627
O10   4    0.894339    0.747953    0.054648    11.00000    0.05356    0.02901 =
         0.05567    0.00400   -0.03108    0.00011
O11   4    0.862336    0.626273    0.066381    11.00000    0.04635    0.02781 =
         0.03824   -0.00220   -0.01586    0.00468
O12   4    0.810183    0.694488   -0.059092    11.00000    0.08295    0.03210 =
         0.06124   -0.00453   -0.04946    0.00628
DY1   5    0.991969    0.673118    0.176053    11.00000    0.02044    0.01568 =
         0.02293   -0.00188   -0.00095    0.00197
HKLF    4

REM  jmlqy140211 in Pna2(1)
REM R1 =  0.0481 for    6286 Fo > 4sig(Fo)  and  0.0810 for all    8746 data
REM    439 parameters refined using      1 restraints

END

WGHT      0.0395      0.0000

REM Highest difference peak  1.318,  deepest hole -1.161,  1-sigma level  0.119
Q1    1   0.9348  0.6721  0.1774  11.00000  0.05    1.32
Q2    1   1.0412  0.6712  0.1763  11.00000  0.05    1.25
Q3    1   0.9942  0.6979  0.2393  11.00000  0.05    1.08
Q4    1   0.9931  0.6497  0.2387  11.00000  0.05    1.04
Q5    1   0.9901  0.6446  0.1151  11.00000  0.05    1.03
Q6    1   0.9908  0.7059  0.1218  11.00000  0.05    0.95
Q7    1   0.9854  0.6327  0.2194  11.00000  0.05    0.93
Q8    1   0.9999  0.7260  0.1761  11.00000  0.05    0.88
Q9    1   0.9913  0.6193  0.1691  11.00000  0.05    0.77
Q10   1   1.5185  0.3570  0.1787  11.00000  0.05    0.55
;
_shelx_res_checksum              17140
#END Tags that were not found in dictionaries
loop_
_space_group_symop_operation_xyz
'x, y, z'
'-x, -y, z+1/2'
'-x+1/2, y+1/2, z+1/2'
'x+1/2, -y+1/2, z'
loop_
_atom_site_label
_atom_site_type_symbol
_atom_site_fract_x
_atom_site_fract_y
_atom_site_fract_z
_atom_site_U_iso_or_equiv
_atom_site_adp_type
_atom_site_occupancy
_atom_site_site_symmetry_order
_atom_site_calc_flag
_atom_site_refinement_flags_posn
_atom_site_refinement_flags_adp
C1 C 1.4451(5) 0.4190(5) 0.3266(7) 0.0169(18) Uani 1 1 d . .
C2 C 1.4263(5) 0.3610(5) 0.2514(6) 0.0149(13) Uani 1 1 d . .
C3 C 1.4955(4) 0.3327(4) 0.1900(7) 0.0149(13) Uani 1 1 d . .
C4 C 1.5824(5) 0.3634(5) 0.2000(6) 0.016(2) Uani 1 1 d . .
C5 C 1.5985(5) 0.4253(5) 0.2690(8) 0.0176(18) Uani 1 1 d . .
C6 C 1.5303(5) 0.4535(5) 0.3337(7) 0.021(2) Uani 1 1 d . .
C7 C 1.5507(6) 0.5162(5) 0.4130(8) 0.025(2) Uani 1 1 d . .
H7A H 1.4994 0.5527 0.4191 0.031 Uiso 1 1 calc R U
H7B H 1.6023 0.5480 0.3898 0.031 Uiso 1 1 calc R U
C8 C 1.5712(7) 0.4808(7) 0.5178(8) 0.040(3) Uani 1 1 d . .
H8A H 1.5199 0.4501 0.5420 0.060 Uiso 1 1 calc R U
H8B H 1.5839 0.5240 0.5663 0.060 Uiso 1 1 calc R U
H8C H 1.6228 0.4455 0.5127 0.060 Uiso 1 1 calc R U
C9 C 1.3734(6) 0.4469(6) 0.3983(7) 0.023(2) Uani 1 1 d . .
H9A H 1.3401 0.3998 0.4235 0.028 Uiso 1 1 calc R U
H9B H 1.4012 0.4731 0.4582 0.028 Uiso 1 1 calc R U
C10 C 1.3379(5) 0.5631(5) 0.2859(7) 0.0199(19) Uani 1 1 d . .
H10 H 1.3990 0.5660 0.2686 0.024 Uiso 1 1 calc R U
C11 C 1.2815(5) 0.6183(5) 0.2466(7) 0.0194(19) Uani 1 1 d . .
H11 H 1.3037 0.6586 0.2023 0.023 Uiso 1 1 calc R U
C12 C 1.1900(6) 0.6164(6) 0.2707(8) 0.023(2) Uani 1 1 d . .
C13 C 1.1635(5) 0.5559(6) 0.3379(7) 0.020(2) Uani 1 1 d . .
H13 H 1.1033 0.5527 0.3587 0.024 Uiso 1 1 calc R U
C14 C 1.2238(5) 0.5006(5) 0.3747(8) 0.022(2) Uani 1 1 d . .
H14 H 1.2039 0.4593 0.4191 0.027 Uiso 1 1 calc R U
C15 C 1.3333(5) 0.3288(6) 0.2385(7) 0.023(2) Uani 1 1 d . .
H15A H 1.3023 0.3315 0.3053 0.028 Uiso 1 1 calc R U
H15B H 1.3367 0.2719 0.2182 0.028 Uiso 1 1 calc R U
C16 C 1.2778(5) 0.3751(5) 0.1574(9) 0.027(3) Uani 1 1 d . .
H16A H 1.2774 0.4322 0.1744 0.041 Uiso 1 1 calc R U
H16B H 1.2169 0.3548 0.1571 0.041 Uiso 1 1 calc R U
H16C H 1.3042 0.3676 0.0895 0.041 Uiso 1 1 calc R U
C17 C 1.4758(6) 0.2711(5) 0.1082(7) 0.0189(18) Uani 1 1 d . .
H17A H 1.4191 0.2851 0.0744 0.023 Uiso 1 1 calc R U
H17B H 1.5231 0.2732 0.0557 0.023 Uiso 1 1 calc R U
C18 C 1.4332(6) 0.1316(6) 0.0888(7) 0.025(2) Uani 1 1 d . .
H18 H 1.4086 0.1467 0.0247 0.029 Uiso 1 1 calc R U
C19 C 1.4304(6) 0.0534(6) 0.1175(8) 0.026(2) Uani 1 1 d . .
H19 H 1.4027 0.0155 0.0737 0.032 Uiso 1 1 calc R U
C20 C 1.4676(6) 0.0272(6) 0.2105(7) 0.021(2) Uani 1 1 d . .
C21 C 1.5051(6) 0.0887(5) 0.2734(7) 0.0237(18) Uani 1 1 d . .
H21 H 1.5298 0.0757 0.3382 0.028 Uiso 1 1 calc R U
C22 C 1.5051(6) 0.1656(5) 0.2400(8) 0.0230(18) Uani 1 1 d . .
H22 H 1.5310 0.2055 0.2822 0.028 Uiso 1 1 calc R U
C23 C 1.6579(5) 0.3281(6) 0.1386(7) 0.023(2) Uani 1 1 d . .
H23A H 1.6458 0.2708 0.1260 0.028 Uiso 1 1 calc R U
H23B H 1.7133 0.3318 0.1792 0.028 Uiso 1 1 calc R U
C24 C 1.6714(7) 0.3706(7) 0.0360(8) 0.035(3) Uani 1 1 d . .
H24A H 1.6178 0.3651 -0.0057 0.052 Uiso 1 1 calc R U
H24B H 1.7217 0.3464 -0.0001 0.052 Uiso 1 1 calc R U
H24C H 1.6835 0.4274 0.0480 0.052 Uiso 1 1 calc R U
C25 C 1.6871(5) 0.4671(5) 0.2676(8) 0.026(2) Uani 1 1 d . .
H25A H 1.7184 0.4524 0.2037 0.031 Uiso 1 1 calc R U
H25B H 1.6767 0.5255 0.2657 0.031 Uiso 1 1 calc R U
C26 C 1.7546(6) 0.3751(6) 0.3917(8) 0.025(2) Uani 1 1 d . .
H26 H 1.7150 0.3346 0.3693 0.030 Uiso 1 1 calc R U
C27 C 1.8183(6) 0.3563(6) 0.4592(8) 0.029(2) Uani 1 1 d . .
H27 H 1.8219 0.3032 0.4847 0.035 Uiso 1 1 calc R U
C28 C 1.8804(6) 0.4144(6) 0.4934(8) 0.028(2) Uani 1 1 d . .
C29 C 1.8633(6) 0.4921(6) 0.4609(8) 0.032(2) Uani 1 1 d . .
H29 H 1.8979 0.5349 0.4869 0.038 Uiso 1 1 calc R U
C30 C 1.7986(6) 0.5073(6) 0.3932(8) 0.026(2) Uani 1 1 d . .
H30 H 1.7897 0.5608 0.3710 0.031 Uiso 1 1 calc R U
N1 N 1.3099(4) 0.5042(4) 0.3490(6) 0.0174(15) Uani 1 1 d . .
N2 N 1.4696(5) 0.1878(4) 0.1487(5) 0.0183(19) Uani 1 1 d . .
N3 N 1.7454(4) 0.4489(4) 0.3552(6) 0.0209(17) Uani 1 1 d . .
N4 N 0.8997(5) 0.6923(4) 0.3704(6) 0.0185(17) Uani 1 1 d . .
N5 N 1.0650(6) 0.8329(5) 0.1510(6) 0.034(2) Uani 1 1 d . .
N6 N 0.8552(7) 0.6898(6) 0.0170(9) 0.034(3) Uani 1 1 d . .
O1 O 1.1357(4) 0.6670(4) 0.2341(6) 0.0304(16) Uani 1 1 d . .
O2 O 1.4689(4) -0.0455(4) 0.2390(5) 0.0238(14) Uani 1 1 d . .
O3 O 1.9475(5) 0.3972(4) 0.5466(6) 0.0381(19) Uani 1 1 d . .
O4 O 0.8583(5) 0.6940(5) 0.2859(6) 0.0302(19) Uani 1 1 d . .
O5 O 0.9813(4) 0.6871(4) 0.3674(5) 0.0302(16) Uani 1 1 d . .
O6 O 0.8584(5) 0.6944(5) 0.4496(6) 0.043(2) Uani 1 1 d . .
O7 O 1.0145(5) 0.8140(4) 0.2261(6) 0.0347(17) Uani 1 1 d . .
O8 O 1.0757(5) 0.7821(4) 0.0828(6) 0.0340(17) Uani 1 1 d . .
O9 O 1.1004(6) 0.8982(5) 0.1477(6) 0.060(3) Uani 1 1 d . .
O10 O 0.8943(5) 0.7480(5) 0.0546(7) 0.046(2) Uani 1 1 d . .
O11 O 0.8623(5) 0.6263(4) 0.0664(6) 0.0375(19) Uani 1 1 d . .
O12 O 0.8102(7) 0.6945(5) -0.0591(8) 0.059(3) Uani 1 1 d . .
Dy1 Dy 0.99197(2) 0.67312(2) 0.17605(6) 0.01968(10) Uani 1 1 d . .
loop_
_atom_site_aniso_label
_atom_site_aniso_U_11
_atom_site_aniso_U_22
_atom_site_aniso_U_33
_atom_site_aniso_U_23
_atom_site_aniso_U_13
_atom_site_aniso_U_12
C1 0.018(4) 0.014(4) 0.018(5) 0.007(4) -0.002(3) 0.005(3)
C2 0.020(2) 0.014(2) 0.011(4) 0.002(3) -0.002(2) 0.002(2)
C3 0.020(2) 0.014(2) 0.011(4) 0.002(3) -0.002(2) 0.002(2)
C4 0.021(3) 0.013(4) 0.014(6) 0.009(3) 0.001(3) 0.001(3)
C5 0.019(4) 0.008(4) 0.026(5) 0.009(4) -0.006(4) 0.000(3)
C6 0.021(4) 0.013(4) 0.028(5) 0.007(4) -0.012(4) 0.003(3)
C7 0.022(4) 0.015(5) 0.040(7) -0.007(5) -0.007(4) 0.002(3)
C8 0.042(6) 0.046(7) 0.033(7) -0.014(6) -0.010(5) 0.001(5)
C9 0.024(4) 0.025(5) 0.021(5) 0.000(4) -0.006(4) 0.007(4)
C10 0.019(4) 0.018(5) 0.023(5) -0.007(4) 0.001(4) -0.005(3)
C11 0.022(4) 0.015(4) 0.022(5) -0.002(4) -0.003(3) -0.001(3)
C12 0.025(4) 0.018(5) 0.026(5) -0.006(4) -0.005(4) 0.000(4)
C13 0.014(4) 0.027(5) 0.020(5) -0.005(4) -0.002(3) -0.001(4)
C14 0.022(4) 0.019(5) 0.025(5) -0.003(4) 0.002(4) -0.006(3)
C15 0.021(4) 0.023(5) 0.026(5) -0.004(5) 0.004(3) -0.005(4)
C16 0.021(3) 0.027(5) 0.034(9) -0.013(5) -0.007(4) 0.000(3)
C17 0.024(4) 0.017(4) 0.016(4) 0.001(4) 0.000(3) 0.001(3)
C18 0.031(5) 0.026(5) 0.017(5) -0.006(4) -0.002(4) -0.003(4)
C19 0.036(5) 0.017(5) 0.027(6) -0.002(4) -0.008(4) -0.004(4)
C20 0.027(4) 0.015(5) 0.020(5) -0.005(4) 0.006(3) -0.001(3)
C21 0.029(5) 0.018(4) 0.024(5) 0.001(4) -0.006(4) 0.002(4)
C22 0.027(5) 0.021(5) 0.021(5) -0.003(4) -0.003(4) -0.003(4)
C23 0.022(4) 0.024(5) 0.024(5) 0.003(4) 0.005(3) 0.004(4)
C24 0.038(5) 0.035(6) 0.032(6) 0.011(5) 0.007(5) 0.001(5)
C25 0.018(4) 0.020(5) 0.040(6) 0.010(5) -0.011(4) -0.003(3)
C26 0.020(4) 0.022(5) 0.034(6) 0.008(5) -0.006(4) -0.006(4)
C27 0.040(5) 0.017(5) 0.031(6) 0.008(5) -0.010(5) -0.004(4)
C28 0.024(5) 0.030(6) 0.028(6) 0.006(5) -0.002(4) -0.003(4)
C29 0.029(5) 0.023(5) 0.043(7) -0.002(5) -0.011(5) -0.003(4)
C30 0.024(4) 0.012(5) 0.040(7) 0.007(5) -0.004(4) -0.003(3)
N1 0.015(3) 0.017(4) 0.020(4) -0.006(3) -0.004(3) 0.001(3)
N2 0.021(3) 0.013(4) 0.021(6) -0.002(3) 0.000(3) 0.000(2)
N3 0.016(3) 0.018(4) 0.029(5) 0.003(4) -0.006(3) 0.000(3)
N4 0.020(4) 0.019(4) 0.016(4) -0.004(3) 0.003(3) -0.001(3)
N5 0.047(5) 0.023(4) 0.033(7) 0.002(4) -0.008(4) -0.006(4)
N6 0.037(5) 0.016(5) 0.049(7) -0.011(5) -0.018(5) 0.007(4)
O1 0.017(3) 0.026(4) 0.048(4) 0.006(4) -0.006(3) 0.005(3)
O2 0.032(3) 0.017(3) 0.023(4) -0.002(3) 0.000(3) 0.002(3)
O3 0.034(4) 0.031(4) 0.050(5) 0.017(4) -0.023(3) -0.009(3)
O4 0.029(4) 0.024(4) 0.037(5) -0.001(4) 0.002(4) 0.004(3)
O5 0.032(3) 0.038(4) 0.020(3) -0.006(3) -0.003(3) 0.001(3)
O6 0.043(4) 0.053(5) 0.034(5) -0.018(4) 0.011(4) -0.007(4)
O7 0.046(4) 0.022(4) 0.036(4) -0.005(3) 0.005(3) -0.001(3)
O8 0.042(4) 0.023(4) 0.037(5) 0.002(4) 0.004(3) -0.004(3)
O9 0.106(7) 0.032(5) 0.041(7) 0.005(4) -0.013(4) -0.036(4)
O10 0.054(5) 0.029(4) 0.056(6) 0.004(4) -0.031(4) 0.000(4)
O11 0.046(4) 0.028(4) 0.038(5) -0.002(4) -0.016(4) 0.005(3)
O12 0.083(7) 0.032(5) 0.061(7) -0.005(5) -0.049(6) 0.006(5)
Dy1 0.02044(14) 0.01568(14) 0.02293(16) -0.0019(4) -0.0010(4) 0.00197(14)
loop_
_atom_type_symbol
_atom_type_description
_atom_type_scat_dispersion_real
_atom_type_scat_dispersion_imag
_atom_type_scat_source
C C 0.0033 0.0016 'International Tables Vol C Tables 4.2.6.8 and 6.1.1.4'
H H 0.0000 0.0000 'International Tables Vol C Tables 4.2.6.8 and 6.1.1.4'
N N 0.0061 0.0033 'International Tables Vol C Tables 4.2.6.8 and 6.1.1.4'
O O 0.0106 0.0060 'International Tables Vol C Tables 4.2.6.8 and 6.1.1.4'
Dy Dy -0.1892 4.4098 'International Tables Vol C Tables 4.2.6.8 and 6.1.1.4'
loop_
_geom_angle_atom_site_label_1
_geom_angle_atom_site_label_2
_geom_angle_atom_site_label_3
_geom_angle
_geom_angle_site_symmetry_1
_geom_angle_site_symmetry_3
C2 C1 C6 120.6(8) . .
C2 C1 C9 120.2(7) . .
C6 C1 C9 119.1(8) . .
C3 C2 C1 118.9(7) . .
C3 C2 C15 120.5(8) . .
C1 C2 C15 120.6(8) . .
C2 C3 C4 121.0(7) . .
C2 C3 C17 119.3(6) . .
C4 C3 C17 119.6(7) . .
C5 C4 C3 119.4(7) . .
C5 C4 C23 120.1(7) . .
C3 C4 C23 120.5(7) . .
C4 C5 C6 120.6(7) . .
C4 C5 C25 119.4(8) . .
C6 C5 C25 119.8(8) . .
C1 C6 C5 119.1(8) . .
C1 C6 C7 121.1(8) . .
C5 C6 C7 119.7(7) . .
C6 C7 C8 112.9(8) . .
C6 C7 H7A 109.0 . .
C8 C7 H7A 109.0 . .
C6 C7 H7B 109.0 . .
C8 C7 H7B 109.0 . .
H7A C7 H7B 107.8 . .
C7 C8 H8A 109.5 . .
C7 C8 H8B 109.5 . .
H8A C8 H8B 109.5 . .
C7 C8 H8C 109.5 . .
H8A C8 H8C 109.5 . .
H8B C8 H8C 109.5 . .
N1 C9 C1 112.9(7) . .
N1 C9 H9A 109.0 . .
C1 C9 H9A 109.0 . .
N1 C9 H9B 109.0 . .
C1 C9 H9B 109.0 . .
H9A C9 H9B 107.8 . .
N1 C10 C11 122.1(8) . .
N1 C10 H10 118.9 . .
C11 C10 H10 118.9 . .
C10 C11 C12 120.8(9) . .
C10 C11 H11 119.6 . .
C12 C11 H11 119.6 . .
O1 C12 C13 122.3(8) . .
O1 C12 C11 122.0(9) . .
C13 C12 C11 115.8(8) . .
C14 C13 C12 120.9(8) . .
C14 C13 H13 119.5 . .
C12 C13 H13 119.5 . .
N1 C14 C13 121.3(9) . .
N1 C14 H14 119.4 . .
C13 C14 H14 119.4 . .
C2 C15 C16 113.4(7) . .
C2 C15 H15A 108.9 . .
C16 C15 H15A 108.9 . .
C2 C15 H15B 108.9 . .
C16 C15 H15B 108.9 . .
H15A C15 H15B 107.7 . .
C15 C16 H16A 109.5 . .
C15 C16 H16B 109.5 . .
H16A C16 H16B 109.5 . .
C15 C16 H16C 109.5 . .
H16A C16 H16C 109.5 . .
H16B C16 H16C 109.5 . .
N2 C17 C3 113.4(7) . .
N2 C17 H17A 108.9 . .
C3 C17 H17A 108.9 . .
N2 C17 H17B 108.9 . .
C3 C17 H17B 108.9 . .
H17A C17 H17B 107.7 . .
N2 C18 C19 121.7(9) . .
N2 C18 H18 119.1 . .
C19 C18 H18 119.1 . .
C18 C19 C20 121.7(9) . .
C18 C19 H19 119.2 . .
C20 C19 H19 119.2 . .
O2 C20 C19 123.8(8) . .
O2 C20 C21 120.9(8) . .
C19 C20 C21 115.3(9) . .
C22 C21 C20 119.7(9) . .
C22 C21 H21 120.1 . .
C20 C21 H21 120.1 . .
N2 C22 C21 122.7(9) . .
N2 C22 H22 118.6 . .
C21 C22 H22 118.6 . .
C4 C23 C24 112.5(7) . .
C4 C23 H23A 109.1 . .
C24 C23 H23A 109.1 . .
C4 C23 H23B 109.1 . .
C24 C23 H23B 109.1 . .
H23A C23 H23B 107.8 . .
C23 C24 H24A 109.5 . .
C23 C24 H24B 109.5 . .
H24A C24 H24B 109.5 . .
C23 C24 H24C 109.5 . .
H24A C24 H24C 109.5 . .
H24B C24 H24C 109.5 . .
N3 C25 C5 115.0(8) . .
N3 C25 H25A 108.5 . .
C5 C25 H25A 108.5 . .
N3 C25 H25B 108.5 . .
C5 C25 H25B 108.5 . .
H25A C25 H25B 107.5 . .
N3 C26 C27 121.9(9) . .
N3 C26 H26 119.0 . .
C27 C26 H26 119.0 . .
C26 C27 C28 121.2(9) . .
C26 C27 H27 119.4 . .
C28 C27 H27 119.4 . .
O3 C28 C29 122.0(9) . .
O3 C28 C27 123.1(9) . .
C29 C28 C27 114.9(9) . .
C30 C29 C28 120.9(9) . .
C30 C29 H29 119.6 . .
C28 C29 H29 119.6 . .
C29 C30 N3 122.3(9) . .
C29 C30 H30 118.8 . .
N3 C30 H30 118.8 . .
C14 N1 C10 119.1(7) . .
C14 N1 C9 118.8(8) . .
C10 N1 C9 121.8(7) . .
C18 N2 C22 118.8(8) . .
C18 N2 C17 118.3(8) . .
C22 N2 C17 122.8(7) . .
C26 N3 C30 118.3(8) . .
C26 N3 C25 122.2(8) . .
C30 N3 C25 119.1(7) . .
O6 N4 O5 122.9(9) . .
O6 N4 O4 119.4(8) . .
O5 N4 O4 117.7(8) . .
O6 N4 Dy1 174.8(7) . .
O5 N4 Dy1 59.2(4) . .
O4 N4 Dy1 58.6(4) . .
O9 N5 O8 122.2(9) . .
O9 N5 O7 120.6(9) . .
O8 N5 O7 117.1(8) . .
O9 N5 Dy1 174.3(7) . .
O8 N5 Dy1 60.1(5) . .
O7 N5 Dy1 57.4(4) . .
O12 N6 O10 122.9(10) . .
O12 N6 O11 122.0(10) . .
O10 N6 O11 115.0(9) . .
O12 N6 Dy1 169.5(10) . .
O10 N6 Dy1 57.3(5) . .
O11 N6 Dy1 59.6(5) . .
C12 O1 Dy1 139.6(6) . .
C20 O2 Dy1 141.3(6) . 4
C28 O3 Dy1 149.1(7) . 2_865
N4 O4 Dy1 95.7(5) . .
N4 O5 Dy1 95.9(5) . .
N5 O7 Dy1 96.6(5) . .
N5 O8 Dy1 94.8(6) . .
N6 O10 Dy1 98.0(6) . .
N6 O11 Dy1 95.4(6) . .
O3 Dy1 O1 80.9(3) 2_864 .
O3 Dy1 O2 81.1(2) 2_864 4_455
O1 Dy1 O2 89.1(2) . 4_455
O3 Dy1 O7 129.9(2) 2_864 .
O1 Dy1 O7 80.0(2) . .
O2 Dy1 O7 143.8(3) 4_455 .
O3 Dy1 O4 146.2(3) 2_864 .
O1 Dy1 O4 125.3(3) . .
O2 Dy1 O4 78.7(2) 4_455 .
O7 Dy1 O4 80.0(3) . .
O3 Dy1 O10 91.4(3) 2_864 .
O1 Dy1 O10 141.9(3) . .
O2 Dy1 O10 126.8(2) 4_455 .
O7 Dy1 O10 76.7(3) . .
O4 Dy1 O10 79.6(3) . .
O3 Dy1 O5 145.1(3) 2_864 .
O1 Dy1 O5 74.7(2) . .
O2 Dy1 O5 73.9(2) 4_455 .
O7 Dy1 O5 70.0(2) . .
O4 Dy1 O5 50.6(2) . .
O10 Dy1 O5 123.1(3) . .
O3 Dy1 O8 79.2(3) 2_864 .
O1 Dy1 O8 73.8(2) . .
O2 Dy1 O8 155.6(2) 4_455 .
O7 Dy1 O8 51.0(2) . .
O4 Dy1 O8 125.3(2) . .
O10 Dy1 O8 68.1(3) . .
O5 Dy1 O8 116.3(2) . .
O3 Dy1 O11 74.3(3) 2_864 .
O1 Dy1 O11 153.6(3) . .
O2 Dy1 O11 78.5(2) 4_455 .
O7 Dy1 O11 123.2(2) . .
O4 Dy1 O11 75.3(3) . .
O10 Dy1 O11 49.1(2) . .
O5 Dy1 O11 122.6(2) . .
O8 Dy1 O11 109.5(3) . .
O3 Dy1 N5 104.0(2) 2_864 .
O1 Dy1 N5 73.8(2) . .
O2 Dy1 N5 160.8(2) 4_455 .
O7 Dy1 N5 26.0(2) . .
O4 Dy1 N5 104.0(3) . .
O10 Dy1 N5 72.0(2) . .
O5 Dy1 N5 92.9(2) . .
O8 Dy1 N5 25.2(2) . .
O11 Dy1 N5 120.7(2) . .
O3 Dy1 N4 154.8(2) 2_864 .
O1 Dy1 N4 99.7(2) . .
O2 Dy1 N4 73.7(2) 4_455 .
O7 Dy1 N4 74.3(2) . .
O4 Dy1 N4 25.7(2) . .
O10 Dy1 N4 102.5(3) . .
O5 Dy1 N4 24.9(2) . .
O8 Dy1 N4 125.4(2) . .
O11 Dy1 N4 99.0(2) . .
N5 Dy1 N4 100.2(2) . .
O3 Dy1 N6 78.7(3) 2_864 .
O1 Dy1 N6 154.0(3) . .
O2 Dy1 N6 103.5(3) 4_455 .
O7 Dy1 N6 101.1(3) . .
O4 Dy1 N6 80.0(3) . .
O10 Dy1 N6 24.7(2) . .
O5 Dy1 N6 130.4(3) . .
O8 Dy1 N6 86.6(3) . .
O11 Dy1 N6 25.0(2) . .
N5 Dy1 N6 95.7(3) . .
N4 Dy1 N6 105.7(3) . .
loop_
_geom_bond_atom_site_label_1
_geom_bond_atom_site_label_2
_geom_bond_distance
_geom_bond_site_symmetry_2
C1 C2 1.410(12) .
C1 C6 1.411(11) .
C1 C9 1.504(12) .
C2 C3 1.398(11) .
C2 C15 1.513(11) .
C3 C4 1.414(9) .
C3 C17 1.513(12) .
C4 C5 1.393(12) .
C4 C23 1.513(11) .
C5 C6 1.413(13) .
C5 C25 1.509(11) .
C6 C7 1.505(13) .
C7 C8 1.523(14) .
C7 H7A 0.9900 .
C7 H7B 0.9900 .
C8 H8A 0.9800 .
C8 H8B 0.9800 .
C8 H8C 0.9800 .
C9 N1 1.501(11) .
C9 H9A 0.9900 .
C9 H9B 0.9900 .
C10 N1 1.353(11) .
C10 C11 1.355(12) .
C10 H10 0.9500 .
C11 C12 1.416(11) .
C11 H11 0.9500 .
C12 O1 1.271(11) .
C12 C13 1.398(13) .
C13 C14 1.383(12) .
C13 H13 0.9500 .
C14 N1 1.342(10) .
C14 H14 0.9500 .
C15 C16 1.556(13) .
C15 H15A 0.9900 .
C15 H15B 0.9900 .
C16 H16A 0.9800 .
C16 H16B 0.9800 .
C16 H16C 0.9800 .
C17 N2 1.493(11) .
C17 H17A 0.9900 .
C17 H17B 0.9900 .
C18 N2 1.341(11) .
C18 C19 1.362(13) .
C18 H18 0.9500 .
C19 C20 1.408(13) .
C19 H19 0.9500 .
C20 O2 1.271(11) .
C20 C21 1.433(12) .
C21 C22 1.359(12) .
C21 H21 0.9500 .
C22 N2 1.359(12) .
C22 H22 0.9500 .
C23 C24 1.531(13) .
C23 H23A 0.9900 .
C23 H23B 0.9900 .
C24 H24A 0.9800 .
C24 H24B 0.9800 .
C24 H24C 0.9800 .
C25 N3 1.475(11) .
C25 H25A 0.9900 .
C25 H25B 0.9900 .
C26 N3 1.330(11) .
C26 C27 1.341(13) .
C26 H26 0.9500 .
C27 C28 1.422(13) .
C27 H27 0.9500 .
C28 O3 1.260(11) .
C28 C29 1.392(14) .
C29 C30 1.341(12) .
C29 H29 0.9500 .
C30 N3 1.358(11) .
C30 H30 0.9500 .
N4 O6 1.208(10) .
N4 O5 1.235(9) .
N4 O4 1.268(11) .
N4 Dy1 2.912(8) .
N5 O9 1.216(10) .
N5 O8 1.242(11) .
N5 O7 1.282(10) .
N5 Dy1 2.910(9) .
N6 O12 1.206(12) .
N6 O10 1.240(11) .
N6 O11 1.247(12) .
N6 Dy1 2.941(10) .
O1 Dy1 2.299(6) .
O2 Dy1 2.314(6) 4
O3 Dy1 2.253(7) 2_865
O4 Dy1 2.498(8) .
O5 Dy1 2.515(7) .
O7 Dy1 2.468(7) .
O8 Dy1 2.530(7) .
O10 Dy1 2.500(7) .
O11 Dy1 2.547(7) .
Dy1 O3 2.253(7) 2_864
Dy1 O2 2.314(6) 4_455
loop_
_geom_torsion_atom_site_label_1
_geom_torsion_atom_site_label_2
_geom_torsion_atom_site_label_3
_geom_torsion_atom_site_label_4
_geom_torsion
_geom_torsion_site_symmetry_4
C6 C1 C2 C3 5.9(12) .
C9 C1 C2 C3 -176.1(8) .
C6 C1 C2 C15 -175.2(8) .
C9 C1 C2 C15 2.8(12) .
C1 C2 C3 C4 -2.3(12) .
C15 C2 C3 C4 178.8(8) .
C1 C2 C3 C17 -179.3(8) .
C15 C2 C3 C17 1.7(12) .
C2 C3 C4 C5 -2.9(12) .
C17 C3 C4 C5 174.2(8) .
C2 C3 C4 C23 175.5(8) .
C17 C3 C4 C23 -7.5(11) .
C3 C4 C5 C6 4.5(12) .
C23 C4 C5 C6 -173.9(8) .
C3 C4 C5 C25 -170.1(7) .
C23 C4 C5 C25 11.6(12) .
C2 C1 C6 C5 -4.3(13) .
C9 C1 C6 C5 177.7(8) .
C2 C1 C6 C7 179.3(8) .
C9 C1 C6 C7 1.2(12) .
C4 C5 C6 C1 -0.9(13) .
C25 C5 C6 C1 173.6(8) .
C4 C5 C6 C7 175.5(8) .
C25 C5 C6 C7 -10.0(12) .
C1 C6 C7 C8 81.5(10) .
C5 C6 C7 C8 -94.9(10) .
C2 C1 C9 N1 -76.6(10) .
C6 C1 C9 N1 101.4(9) .
N1 C10 C11 C12 0.2(14) .
C10 C11 C12 O1 -179.4(9) .
C10 C11 C12 C13 1.2(13) .
O1 C12 C13 C14 178.6(9) .
C11 C12 C13 C14 -2.1(13) .
C12 C13 C14 N1 1.5(14) .
C3 C2 C15 C16 -88.3(10) .
C1 C2 C15 C16 92.8(10) .
C2 C3 C17 N2 -80.7(9) .
C4 C3 C17 N2 102.2(8) .
N2 C18 C19 C20 -1.5(14) .
C18 C19 C20 O2 -177.9(9) .
C18 C19 C20 C21 2.2(13) .
O2 C20 C21 C22 178.2(8) .
C19 C20 C21 C22 -1.9(13) .
C20 C21 C22 N2 1.0(14) .
C5 C4 C23 C24 -90.5(10) .
C3 C4 C23 C24 91.2(10) .
C4 C5 C25 N3 -108.0(10) .
C6 C5 C25 N3 77.4(11) .
N3 C26 C27 C28 -1.3(16) .
C26 C27 C28 O3 -171.0(10) .
C26 C27 C28 C29 7.0(16) .
O3 C28 C29 C30 170.9(10) .
C27 C28 C29 C30 -7.1(16) .
C28 C29 C30 N3 1.8(16) .
C13 C14 N1 C10 0.0(13) .
C13 C14 N1 C9 174.8(8) .
C11 C10 N1 C14 -0.9(13) .
C11 C10 N1 C9 -175.5(8) .
C1 C9 N1 C14 143.6(8) .
C1 C9 N1 C10 -41.8(11) .
C19 C18 N2 C22 0.4(13) .
C19 C18 N2 C17 175.6(8) .
C21 C22 N2 C18 -0.2(13) .
C21 C22 N2 C17 -175.1(8) .
C3 C17 N2 C18 165.2(7) .
C3 C17 N2 C22 -19.9(11) .
C27 C26 N3 C30 -4.5(15) .
C27 C26 N3 C25 168.4(10) .
C29 C30 N3 C26 4.3(15) .
C29 C30 N3 C25 -168.8(9) .
C5 C25 N3 C26 42.3(13) .
C5 C25 N3 C30 -144.8(9) .
C13 C12 O1 Dy1 -37.2(16) .
C11 C12 O1 Dy1 143.4(8) .
C19 C20 O2 Dy1 40.9(14) 4
C21 C20 O2 Dy1 -139.2(8) 4
C29 C28 O3 Dy1 140.8(11) 2_865
C27 C28 O3 Dy1 -41(2) 2_865
O6 N4 O4 Dy1 -174.4(7) .
O5 N4 O4 Dy1 4.3(8) .
O6 N4 O5 Dy1 174.4(8) .
O4 N4 O5 Dy1 -4.3(8) .
O9 N5 O7 Dy1 -173.7(8) .
O8 N5 O7 Dy1 6.5(9) .
O9 N5 O8 Dy1 173.8(9) .
O7 N5 O8 Dy1 -6.3(8) .
O12 N6 O10 Dy1 -167.5(12) .
O11 N6 O10 Dy1 15.8(11) .
O12 N6 O11 Dy1 167.9(11) .
O10 N6 O11 Dy1 -15.5(11) .
loop_
_platon_squeeze_void_nr
_platon_squeeze_void_average_x
_platon_squeeze_void_average_y
_platon_squeeze_void_average_z
_platon_squeeze_void_volume
_platon_squeeze_void_count_electrons
1 0.166 0.796 0.384 23.0 10.2
2 0.666 0.704 0.384 23.0 9.5
3 0.334 0.296 0.884 22.9 10.2
4 0.834 0.204 0.884 23.0 9.6
