#------------------------------------------------------------------------------
#$Date: 2016-03-26 14:41:37 +0200 (Sat, 26 Mar 2016) $
#$Revision: 180273 $
#$URL: svn://www.crystallography.net/cod/cif/7/11/59/7115907.cif $
#------------------------------------------------------------------------------
#
# This file is available in the Crystallography Open Database (COD),
# http://www.crystallography.net/
#
# All data on this site have been placed in the public domain by the
# contributors.
#
data_7115907
loop_
_publ_author_name
'Ivan Burneo'
'Kyriakos C. Stylianou'
'Inhar Imaz'
'Daniel Maspoch'
_publ_section_title
;
 The influence of the enantiomeric ratio of an organic ligand on the
 structure and chirality of metal-organic frameworks
;
_journal_name_full               Chem.Commun.
_journal_page_first              13829
_journal_paper_doi               10.1039/C4cc06190J
_journal_volume                  50
_journal_year                    2014
_chemical_formula_moiety         '(C21 H15 Cu3 N3 O19), O7.5'
_chemical_formula_sum            'C21 H15 Cu3 N3 O26.5'
_chemical_formula_weight         924.01
_chemical_name_systematic
;
 ?
;
_space_group_crystal_system      orthorhombic
_space_group_IT_number           52
_space_group_name_Hall           '-P 2ab 2c'
_space_group_name_H-M_alt        'P c n n'
_symmetry_space_group_name_Hall  '-P 2ab 2c'
_symmetry_space_group_name_H-M   'P c n n'
_atom_sites_solution_hydrogens   difmap
_audit_creation_method           SHELXL-2013
_cell_angle_alpha                90
_cell_angle_beta                 90
_cell_angle_gamma                90
_cell_formula_units_Z            8
_cell_length_a                   17.530(3)
_cell_length_b                   20.037(3)
_cell_length_c                   21.050(3)
_cell_measurement_temperature    293(2)
_cell_volume                     7394(2)
_computing_structure_refinement  'SHELXL-2013 (Sheldrick, 2013)'
_diffrn_ambient_temperature      293(2)
_diffrn_measured_fraction_theta_full 0.982
_diffrn_measured_fraction_theta_max 0.980
_diffrn_radiation_type           MoK\a
_diffrn_radiation_wavelength     0.71073
_diffrn_reflns_av_R_equivalents  0.0241
_diffrn_reflns_av_unetI/netI     0.0272
_diffrn_reflns_Laue_measured_fraction_full 0.982
_diffrn_reflns_Laue_measured_fraction_max 0.980
_diffrn_reflns_limit_h_max       21
_diffrn_reflns_limit_h_min       -17
_diffrn_reflns_limit_k_max       23
_diffrn_reflns_limit_k_min       -24
_diffrn_reflns_limit_l_max       24
_diffrn_reflns_limit_l_min       -26
_diffrn_reflns_number            19582
_diffrn_reflns_point_group_measured_fraction_full 0.982
_diffrn_reflns_point_group_measured_fraction_max 0.980
_diffrn_reflns_theta_full        25.242
_diffrn_reflns_theta_max         26.370
_diffrn_reflns_theta_min         2.475
_exptl_absorpt_coefficient_mu    1.808
_exptl_absorpt_correction_T_max  0.97
_exptl_absorpt_correction_T_min  0.65
_exptl_absorpt_correction_type   empirical
_exptl_absorpt_process_details   SADABS
_exptl_crystal_colour            blue
_exptl_crystal_density_diffrn    1.660
_exptl_crystal_description       prism
_exptl_crystal_F_000             3374
_exptl_crystal_size_max          0.56
_exptl_crystal_size_mid          0.34
_exptl_crystal_size_min          0.22
_refine_diff_density_max         1.681
_refine_diff_density_min         -0.795
_refine_diff_density_rms         0.143
_refine_ls_extinction_method     none
_refine_ls_goodness_of_fit_ref   1.048
_refine_ls_hydrogen_treatment    noref
_refine_ls_matrix_type           full
_refine_ls_number_parameters     473
_refine_ls_number_reflns         7428
_refine_ls_number_restraints     0
_refine_ls_restrained_S_all      1.048
_refine_ls_R_factor_all          0.0716
_refine_ls_R_factor_gt           0.0659
_refine_ls_shift/su_max          0.001
_refine_ls_shift/su_mean         0.000
_refine_ls_structure_factor_coef Fsqd
_refine_ls_weighting_details
;
 w=1/[\s^2^(Fo^2^)+(0.1388P)^2^+19.1879P]
 where P=(Fo^2^+2Fc^2^)/3
;
_refine_ls_weighting_scheme      calc
_refine_ls_wR_factor_gt          0.2013
_refine_ls_wR_factor_ref         0.2084
_reflns_Friedel_coverage         0.000
_reflns_number_gt                6540
_reflns_number_total             7428
_reflns_threshold_expression     'I > 2\s(I)'
_cod_data_source_file            c4cc06190j2.cif
_cod_data_source_block           shelxl_b
_cod_original_cell_volume        7393.8
_cod_database_code               7115907
#BEGIN Tags that were not found in dictionaries:
_shelx_space_group_comment
;
The symmetry employed for this shelxl refinement is uniquely defined
by the following loop, which should always be used as a source of
symmetry information in preference to the above space-group names.
They are only intended as comments.
;
_shelxl_version_number           2013-2
_shelx_res_file
;
TITL shelx
CELL  0.71073  17.5300  20.0370  21.0500   90.000   90.000   90.000
ZERR     7.00   0.0000   0.0000   0.0000    0.000    0.000    0.000
LATT   1
SYMM  1/2 - X, 1/2 - Y,   Z
SYMM    X, - Y, 1/2 - Z
SYMM  1/2 - X, 1/2 + Y, 1/2 - Z
SFAC  C    CU   N    O    H
UNIT  416  8    24   56   30
MERG   2
SHEL 0.8 10
DFIX  0.9 0.02 O13 H63A
DFIX  0.9 0.02 O13 H63B
DFIX 0.9 0.02 O8w H8wB
DFIX 1.4 0.02 H8wA H8wB
DFIX 1.4 0.02 H63A H63B
FMAP   2
PLAN  200
ACTA
L.S.  10
WGHT    0.138800   19.187901
FVAR       3.15401
CU1   2    0.133703    0.588330    0.049095    11.00000    0.02660    0.02917 =
         0.01939   -0.00242    0.00383    0.00265
CU2   2   -0.022986    0.665963    0.069684    11.00000    0.03580    0.02773 =
         0.02206    0.00297    0.01042    0.01163
O9    4    0.112558    0.434255   -0.108697    11.00000    0.02863    0.04749 =
         0.02912   -0.00353    0.00457    0.00682
O2    4    0.306393    0.820260   -0.022801    11.00000    0.03161    0.03549 =
         0.03205   -0.00133   -0.00970   -0.00070
O1    4    0.433443    0.698370   -0.145011    11.00000    0.04184    0.18801 =
         0.03514   -0.04028    0.01556   -0.06444
O7    4    0.070292    0.564580   -0.024924    11.00000    0.02681    0.03064 =
         0.02067   -0.00318    0.00295    0.00337
O1W   4   -0.032655    0.705399    0.157018    11.00000    0.06151    0.03358 =
         0.02879    0.00140    0.01429    0.01343
O8    4   -0.034523    0.629292   -0.015109    11.00000    0.03835    0.04510 =
         0.02613    0.00033    0.00401    0.01830
O11   4    0.371087    0.691822   -0.374808    11.00000    0.11256    0.12999 =
         0.03499   -0.02508    0.02845   -0.09844
O3    4    0.398567    0.816034    0.048089    11.00000    0.03573    0.02858 =
         0.02458   -0.00020   -0.01194   -0.00074
O6    4    0.057971    0.613162   -0.246208    11.00000    0.03550    0.06050 =
         0.01959    0.00443   -0.00210   -0.02014
O10   4   -0.012504    0.418655   -0.106943    11.00000    0.02863    0.02710 =
         0.02458    0.00358    0.00880    0.00286
N3    3    0.285143    0.614364   -0.402973    11.00000    0.03467    0.04641 =
         0.02108   -0.00639    0.00900   -0.01603
O13   4    0.177338    0.499568   -0.552528    11.00000    0.03330    0.03826 =
         0.03331   -0.00261   -0.00800   -0.00771
O15   4    0.401347    0.563326   -0.535921    11.00000    0.03289    0.08623 =
         0.02787   -0.00843    0.00417    0.00036
O5    4    0.432363    0.566608    0.070779    11.00000    0.04322    0.05247 =
         0.04095    0.00730    0.00527    0.02221
O17   4    0.412186    0.541480   -0.431758    11.00000    0.03058    0.06113 =
         0.02681   -0.00577    0.00079   -0.00402
O4    4    0.446436    0.593767   -0.031136    11.00000    0.03899    0.04299 =
         0.03811    0.00036    0.00411    0.00875
C1    1    0.310186    0.669498   -0.182732    11.00000    0.03677    0.07105 =
         0.02396   -0.01679    0.00724   -0.03052
O3W   4    0.191304    0.611265    0.127801    11.00000    0.05224    0.06213 =
         0.03083   -0.00909   -0.00996    0.01000
C14   1   -0.021715    0.567296   -0.108543    11.00000    0.02639    0.03162 =
         0.02621    0.00188    0.00061   -0.00019
O12   4    0.241116    0.484017   -0.462663    11.00000    0.06521    0.04881 =
         0.06964    0.00921   -0.03522   -0.01249
N2    3    0.103263    0.557018   -0.159976    11.00000    0.02171    0.04195 =
         0.02485   -0.00261    0.00277   -0.00667
C2    1    0.237485    0.645004   -0.169378    11.00000    0.03732    0.07151 =
         0.01860   -0.01329    0.00906   -0.03034
C4    1    0.213134    0.632618   -0.281934    11.00000    0.03685    0.05041 =
         0.02110   -0.00822    0.00569   -0.02478
C11   1    0.359403    0.789815    0.002555    11.00000    0.03170    0.02922 =
         0.02456    0.00249   -0.00262   -0.00552
N1    3    0.338423    0.697589   -0.074095    11.00000    0.02201    0.03649 =
         0.02272   -0.00518   -0.00274   -0.00878
C18   1    0.316040    0.654899   -0.361375    11.00000    0.04709    0.07385 =
         0.02814   -0.01364    0.01294   -0.03999
C7    1    0.365947    0.690898   -0.131801    11.00000    0.03716    0.07302 =
         0.02722   -0.01754    0.00549   -0.02855
C21   1    0.221115    0.519123   -0.507929    11.00000    0.02520    0.04183 =
         0.03681   -0.00081   -0.00314   -0.00086
C16   1    0.047146    0.454396   -0.117741    11.00000    0.03425    0.02993 =
         0.01500   -0.00314    0.00755    0.00085
C3    1    0.189306    0.627403   -0.219107    11.00000    0.03250    0.04991 =
         0.02193   -0.00946    0.00861   -0.02085
C17   1    0.287382    0.652840   -0.294842    11.00000    0.04196    0.06041 =
         0.02275   -0.01419    0.01046   -0.03078
C6    1    0.334973    0.673168   -0.245375    11.00000    0.03940    0.07894 =
         0.02765   -0.02110    0.01419   -0.03904
C22   1    0.380098    0.567467   -0.478530    11.00000    0.02670    0.05492 =
         0.02837   -0.00983    0.00483   -0.01650
C12   1    0.110844    0.599505   -0.208836    11.00000    0.02840    0.04336 =
         0.01746   -0.00354    0.00315   -0.01296
C13   1    0.031838    0.523461   -0.147013    11.00000    0.02579    0.03446 =
         0.01890   -0.00020    0.00057   -0.00666
C19   1    0.308872    0.612273   -0.469320    11.00000    0.03502    0.05124 =
         0.02100   -0.00593    0.00226   -0.01438
C10   1    0.423451    0.603964    0.023591    11.00000    0.02513    0.04179 =
         0.03002   -0.00447    0.00030   -0.00087
C8    1    0.383795    0.719205   -0.019738    11.00000    0.02455    0.04033 =
         0.02263   -0.00256   -0.00273   -0.00507
C15   1    0.007932    0.588470   -0.043877    11.00000    0.02879    0.02834 =
         0.02090    0.00311    0.00413    0.00361
C20   1    0.243995    0.592473   -0.512875    11.00000    0.04025    0.04355 =
         0.02759   -0.00292   -0.00103   -0.00898
C9    1    0.378433    0.669393    0.035213    11.00000    0.03275    0.03387 =
         0.02865    0.00076    0.00128    0.00057
CU3   2    0.494237    0.514782   -0.560869    11.00000    0.02776    0.04616 =
         0.02986   -0.00194    0.00137   -0.00941
O18   4    0.490659    0.556686   -0.656485    11.00000    0.07327    0.11399 =
         0.03035    0.00777   -0.00091    0.00646
O2W   4   -0.058531    0.751382    0.034491    11.00000    0.07632    0.05054 =
         0.04051    0.01322    0.02137    0.03580
O7W   4   -0.075427    0.783346   -0.086911    11.00000    0.08085    0.13687 =
         0.05906    0.01643   -0.01240    0.01723
O4W   4    0.319096    0.550602    0.162173    11.00000    0.07095    0.20017 =
         0.06798    0.03543    0.01069    0.03930
O6W   4    0.250000    0.750000    0.147070    10.50000    0.12471    0.10841 =
         0.06937    0.00000    0.00000    0.03639
O5W   4    0.207889    0.422557    0.169518    11.00000    0.09141    0.18243 =
         0.06960    0.01769    0.01402    0.01532
O8W   4    0.178819    0.282709    0.168166    11.00000    0.11903    0.25640 =
         0.15375   -0.01070   -0.01661    0.04207
O9W   4    0.102709    0.598103    0.240817    11.00000    0.06594    0.40452 =
         0.04794    0.01379    0.00298    0.00765
O10W  4    0.118385    0.765269    0.219635    11.00000    0.22253
O11W  4    0.349122    0.416583    0.211755    11.00000    0.18722
H14A  5    9.930900   10.543303    9.897500    11.00000   10.03400
H14B  5    9.967100   10.607000    9.867002    11.00000   10.03400
H2    5   10.221400   10.640400    9.872396    11.00000   10.05100
H4    5   10.178500   10.623708    9.684700    11.00000   10.04400
H1N   5   10.290900   10.688807    9.931993    11.00000   10.03200
H6    5   10.383400   10.689200    9.745500    11.00000   10.05500
H19   5   10.323400   10.657804    9.518806    11.00000   10.04300
H20A  5   10.258500   10.601808    9.443995    11.00000   10.04300
H20B  5   10.199903   10.619802    9.497396    11.00000   10.04300
H9A   5   10.325400   10.658208   10.042200    11.00000   10.03900
H9B   5   10.397800   10.690308   10.073400    11.00000   10.03900
H8    5   10.438900   10.723001    9.968307    11.00000   10.05100
H2N   5   10.146300   10.544491    9.867208    11.00000   10.05300
H3N   5   10.258801   10.585400    9.609600    11.00000   10.02400
H13   5   10.012200   10.512900    9.813807    11.00000   10.05000
HKLF    4

REM  shelx
REM R1 =  0.0659 for    6540 Fo > 4sig(Fo)  and  0.0716 for all    7428 data
REM    473 parameters refined using      0 restraints

END

WGHT      0.1368     19.6641

REM Highest difference peak  1.681,  deepest hole -0.795,  1-sigma level  0.143
Q1    1   0.5666  0.5329 -0.7615  11.00000  0.05    1.68
Q2    1   0.5805  0.5000 -0.7500  10.50000  0.05    1.67
Q3    1   0.4976  0.6533 -0.3227  11.00000  0.05    1.62
Q4    1   0.3271  0.4837 -0.3301  11.00000  0.05    1.54
Q5    1  -0.1536  0.7463 -0.0728  11.00000  0.05    1.37
Q6    1   0.3241  0.7316 -0.3891  11.00000  0.05    1.32
Q7    1   0.4143  0.7423 -0.1558  11.00000  0.05    1.29
Q8    1   0.1335  0.7134  0.1948  11.00000  0.05    1.23
Q9    1  -0.0633  0.8196 -0.1614  11.00000  0.05    0.94
Q10   1   0.2632  0.4873 -0.3551  11.00000  0.05    0.89
Q11   1   0.3367  0.6104  0.1715  11.00000  0.05    0.84
Q12   1   0.3617  0.3913  0.2190  11.00000  0.05    0.84
Q13   1   0.0855  0.6041 -0.1494  11.00000  0.05    0.71
Q14   1   0.4948  0.5019 -0.5198  11.00000  0.05    0.63
Q15   1  -0.1046  0.7291  0.0299  11.00000  0.05    0.62
Q16   1   0.2057  0.2768  0.1183  11.00000  0.05    0.58
Q17   1   0.2965  0.6949 -0.2004  11.00000  0.05    0.56
Q18   1   0.4016  0.3916  0.2481  11.00000  0.05    0.54
Q19   1  -0.0431  0.6803  0.1871  11.00000  0.05    0.54
Q20   1   0.0757  0.2420  0.1883  11.00000  0.05    0.53
Q21   1   0.2620  0.6802 -0.3017  11.00000  0.05    0.52
Q22   1   0.1588  0.5119 -0.5188  11.00000  0.05    0.50
Q23   1   0.3083  0.7023 -0.2588  11.00000  0.05    0.48
Q24   1   0.1032  0.5579  0.0550  11.00000  0.05    0.47
Q25   1   0.0768  0.4553 -0.1312  11.00000  0.05    0.46
Q26   1   0.3462  0.7147 -0.1473  11.00000  0.05    0.46
Q27   1   0.3455  0.4551  0.2113  11.00000  0.05    0.45
Q28   1   0.2247  0.5870  0.1381  11.00000  0.05    0.45
Q29   1   0.2253  0.3342  0.1685  11.00000  0.05    0.45
Q30   1   0.2952  0.7501  0.1777  11.00000  0.05    0.44
Q31   1  -0.0572  0.7640  0.0454  11.00000  0.05    0.43
Q32   1   0.4634  0.5136 -0.6594  11.00000  0.05    0.43
Q33   1   0.2775  0.4779 -0.4935  11.00000  0.05    0.42
Q34   1  -0.0132  0.4249 -0.0926  11.00000  0.05    0.42
Q35   1  -0.0152  0.5745 -0.0804  11.00000  0.05    0.42
Q36   1   0.2851  0.8092  0.0025  11.00000  0.05    0.42
Q37   1  -0.0814  0.7761  0.0611  11.00000  0.05    0.41
Q38   1  -0.0701  0.7353  0.1584  11.00000  0.05    0.40
Q39   1   0.1940  0.2016  0.1623  11.00000  0.05    0.40
Q40   1   0.4478  0.5848 -0.0685  11.00000  0.05    0.40
Q41   1   0.1798  0.5706  0.1316  11.00000  0.05    0.39
Q42   1   0.1004  0.6269  0.2453  11.00000  0.05    0.39
Q43   1   0.2281  0.6686 -0.1810  11.00000  0.05    0.38
Q44   1   0.3012  0.6705 -0.6304  11.00000  0.05    0.38
Q45   1   0.0139  0.5949 -0.1242  11.00000  0.05    0.38
Q46   1   0.3595  0.5685  0.1318  11.00000  0.05    0.38
Q47   1  -0.0225  0.5282 -0.1443  11.00000  0.05    0.37
Q48   1   0.2799  0.6573 -0.1759  11.00000  0.05    0.37
Q49   1   0.3336  0.6776 -0.1623  11.00000  0.05    0.37
Q50   1   0.2012  0.6186 -0.2428  11.00000  0.05    0.36
Q51   1   0.2821  0.6832 -0.3730  11.00000  0.05    0.36
Q52   1   0.4027  0.6786 -0.0335  11.00000  0.05    0.36
Q53   1   0.2033  0.3526  0.1787  11.00000  0.05    0.35
Q54   1   0.0676  0.5802 -0.0354  11.00000  0.05    0.35
Q55   1   0.4777  0.5095 -0.5990  11.00000  0.05    0.35
Q56   1   0.2538  0.6513 -0.4184  11.00000  0.05    0.35
Q57   1   0.1342  0.5136  0.2275  11.00000  0.05    0.35
Q58   1   0.1172  0.8305  0.2121  11.00000  0.05    0.34
Q59   1   0.2348  0.5735 -0.6059  11.00000  0.05    0.34
Q60   1   0.4522  0.5313 -0.5319  11.00000  0.05    0.34
Q61   1   0.3960  0.6409  0.0304  11.00000  0.05    0.34
Q62   1   0.1852  0.5104  0.2111  11.00000  0.05    0.33
Q63   1   0.1004  0.6098  0.0414  11.00000  0.05    0.33
Q64   1   0.4171  0.8084  0.0314  11.00000  0.05    0.32
Q65   1   0.2400  0.3766  0.1908  11.00000  0.05    0.32
Q66   1  -0.0765  0.7481 -0.0012  11.00000  0.05    0.31
Q67   1   0.0888  0.6320 -0.2096  11.00000  0.05    0.31
Q68   1   0.0385  0.4823 -0.1265  11.00000  0.05    0.30
Q69   1   0.1974  0.4191 -0.4868  11.00000  0.05    0.29
Q70   1   0.2315  0.6306 -0.1874  11.00000  0.05    0.28
Q71   1   0.4575  0.5831  0.0555  11.00000  0.05    0.28
Q72   1   0.2819  0.5862 -0.4763  11.00000  0.05    0.27
Q73   1   0.0389  0.5952  0.2251  11.00000  0.05    0.27
Q74   1  -0.0185  0.7882 -0.1121  11.00000  0.05    0.27
Q75   1   0.2247  0.5758 -0.2558  11.00000  0.05    0.27
Q76   1   0.3749  0.7007  0.0194  11.00000  0.05    0.27
Q77   1   0.1948  0.4507  0.1231  11.00000  0.05    0.27
Q78   1   0.3593  0.7072 -0.0507  11.00000  0.05    0.26
Q79   1   0.2557  0.4078  0.1968  11.00000  0.05    0.26
Q80   1   0.3411  0.6786 -0.0783  11.00000  0.05    0.26
Q81   1   0.1014  0.5011 -0.5498  11.00000  0.05    0.26
Q82   1   0.3596  0.7125  0.0293  11.00000  0.05    0.26
Q83   1   0.3996  0.8180  0.0676  11.00000  0.05    0.25
Q84   1   0.3045  0.6665 -0.2783  11.00000  0.05    0.25
Q85   1   0.5162  0.5135 -0.6632  11.00000  0.05    0.25
Q86   1   0.0252  0.5224 -0.0106  11.00000  0.05    0.25
Q87   1  -0.0677  0.4759 -0.0779  11.00000  0.05    0.24
Q88   1   0.1666  0.4640  0.1933  11.00000  0.05    0.24
Q89   1   0.4031  0.5906 -0.4444  11.00000  0.05    0.24
Q90   1   0.4789  0.6314 -0.3738  11.00000  0.05    0.24
Q91   1   0.3586  0.6863 -0.1072  11.00000  0.05    0.24
Q92   1   0.1623  0.8131  0.2373  11.00000  0.05    0.24
Q93   1   0.1743  0.6399 -0.2205  11.00000  0.05    0.24
Q94   1   0.1600  0.6319 -0.2140  11.00000  0.05    0.24
Q95   1   0.3743  0.5795 -0.5442  11.00000  0.05    0.24
Q96   1   0.3455  0.3569  0.1814  11.00000  0.05    0.24
Q97   1   0.0203  0.4661 -0.1377  11.00000  0.05    0.23
Q98   1   0.1430  0.6055 -0.2107  11.00000  0.05    0.23
Q99   1   0.4587  0.5800 -0.0344  11.00000  0.05    0.23
Q100  1   0.4400  0.5611 -0.6755  11.00000  0.05    0.23
Q101  1   0.2523  0.6350 -0.2875  11.00000  0.05    0.23
Q102  1   0.4228  0.6213 -0.0147  11.00000  0.05    0.23
Q103  1   0.3452  0.6660  0.0677  11.00000  0.05    0.23
Q104  1   0.4042  0.5999  0.0197  11.00000  0.05    0.22
Q105  1   0.2610  0.6518 -0.5118  11.00000  0.05    0.22
Q106  1   0.1664  0.2363  0.2080  11.00000  0.05    0.22
Q107  1   0.2954  0.6164 -0.4318  11.00000  0.05    0.22
Q108  1   0.1245  0.6024  0.1962  11.00000  0.05    0.21
Q109  1  -0.0673  0.7355 -0.0991  11.00000  0.05    0.21
Q110  1   0.0687  0.7962  0.2013  11.00000  0.05    0.21
Q111  1   0.4766  0.6232 -0.7298  11.00000  0.05    0.21
Q112  1   0.1453  0.6149  0.1591  11.00000  0.05    0.21
Q113  1   0.0082  0.8158  0.2286  11.00000  0.05    0.21
Q114  1   0.0264  0.7768  0.2358  11.00000  0.05    0.21
Q115  1   0.1829  0.7804  0.2673  11.00000  0.05    0.21
Q116  1   0.0440  0.5450  0.0432  11.00000  0.05    0.21
Q117  1   0.0075  0.6651  0.0094  11.00000  0.05    0.21
Q118  1   0.4362  0.6910  0.0540  11.00000  0.05    0.21
Q119  1   0.0127  0.7162  0.1917  11.00000  0.05    0.20
Q120  1   0.3124  0.6311 -0.3690  11.00000  0.05    0.20
Q121  1   0.4374  0.5189 -0.3699  11.00000  0.05    0.20
Q122  1   0.2569  0.4668 -0.4129  11.00000  0.05    0.20
Q123  1   0.4380  0.5364 -0.4223  11.00000  0.05    0.20
Q124  1   0.1606  0.4335  0.2034  11.00000  0.05    0.20
Q125  1   0.1414  0.3803  0.1737  11.00000  0.05    0.20
Q126  1   0.2225  0.4364 -0.4492  11.00000  0.05    0.20
Q127  1   0.2084  0.6620  0.1442  11.00000  0.05    0.20
Q128  1  -0.0601  0.5365 -0.0797  11.00000  0.05    0.19
Q129  1   0.2563  0.5597  0.0835  11.00000  0.05    0.19
Q130  1   0.4467  0.8523  0.0224  11.00000  0.05    0.19
Q131  1   0.3193  0.8537 -0.0652  11.00000  0.05    0.19
Q132  1   0.0991  0.5895  0.2934  11.00000  0.05    0.19
Q133  1   0.3013  0.7463 -0.4814  11.00000  0.05    0.19
Q134  1   0.0890  0.5630  0.2410  11.00000  0.05    0.19
Q135  1   0.1349  0.5819 -0.1280  11.00000  0.05    0.19
Q136  1   0.5223  0.5741 -0.7118  11.00000  0.05    0.18
Q137  1  -0.0018  0.5778 -0.2999  11.00000  0.05    0.18
Q138  1   0.1944  0.6302 -0.5293  11.00000  0.05    0.18
Q139  1   0.3164  0.5738  0.2119  11.00000  0.05    0.18
Q140  1   0.2990  0.6780 -0.5061  11.00000  0.05    0.18
Q141  1   0.1219  0.5193 -0.0564  11.00000  0.05    0.18
Q142  1  -0.1253  0.6770  0.0348  11.00000  0.05    0.18
Q143  1   0.1612  0.4696 -0.5215  11.00000  0.05    0.18
Q144  1   0.3624  0.6045 -0.4857  11.00000  0.05    0.18
Q145  1   0.1877  0.4538 -0.5382  11.00000  0.05    0.18
Q146  1   0.4986  0.6210 -0.0032  11.00000  0.05    0.18
Q147  1   0.3572  0.7803  0.0934  11.00000  0.05    0.18
Q148  1   0.2633  0.3069  0.2201  11.00000  0.05    0.18
Q149  1   0.5190  0.6173 -0.6508  11.00000  0.05    0.18
Q150  1   0.1965  0.4009  0.2232  11.00000  0.05    0.18
Q151  1   0.2793  0.7461 -0.3513  11.00000  0.05    0.18
Q152  1   0.1400  0.5263 -0.4745  11.00000  0.05    0.17
Q153  1  -0.1080  0.5565 -0.1711  11.00000  0.05    0.17
Q154  1   0.1409  0.5371  0.2668  11.00000  0.05    0.17
Q155  1   0.3037  0.4528  0.2520  11.00000  0.05    0.17
Q156  1   0.1810  0.4153  0.1190  11.00000  0.05    0.17
Q157  1   0.1848  0.6155 -0.5250  11.00000  0.05    0.17
Q158  1  -0.0469  0.6038 -0.0618  11.00000  0.05    0.17
Q159  1   0.2640  0.6318 -0.5881  11.00000  0.05    0.17
Q160  1   0.2345  0.5562 -0.5099  11.00000  0.05    0.17
Q161  1   0.2488  0.5146 -0.5629  11.00000  0.05    0.17
Q162  1   0.1339  0.4325  0.1473  11.00000  0.05    0.17
Q163  1  -0.0441  0.6377 -0.1218  11.00000  0.05    0.17
Q164  1   0.2437  0.4872 -0.4020  11.00000  0.05    0.16
Q165  1   0.2846  0.6676  0.0795  11.00000  0.05    0.16
Q166  1   0.0386  0.6198 -0.1757  11.00000  0.05    0.16
Q167  1   0.3810  0.6469 -0.3898  11.00000  0.05    0.16
Q168  1   0.2607  0.5319 -0.4645  11.00000  0.05    0.16
Q169  1   0.2798  0.4768 -0.5441  11.00000  0.05    0.16
Q170  1   0.1407  0.5466 -0.5471  11.00000  0.05    0.16
Q171  1   0.2876  0.7161 -0.0689  11.00000  0.05    0.16
Q172  1   0.1398  0.5640 -0.0714  11.00000  0.05    0.16
Q173  1   0.3932  0.4679 -0.4090  11.00000  0.05    0.15
Q174  1   0.4554  0.6933  0.0033  11.00000  0.05    0.15
Q175  1   0.2500  0.7500 -0.3169  10.50000  0.05    0.15
Q176  1   0.3635  0.8810 -0.0495  11.00000  0.05    0.15
Q177  1   0.4021  0.5199 -0.5149  11.00000  0.05    0.15
Q178  1   0.2435  0.7179 -0.3471  11.00000  0.05    0.15
Q179  1  -0.0596  0.3930 -0.0709  11.00000  0.05    0.15
Q180  1   0.2041  0.5349 -0.4492  11.00000  0.05    0.15
Q181  1   0.4045  0.5112 -0.4142  11.00000  0.05    0.15
Q182  1   0.3757  0.6204  0.1327  11.00000  0.05    0.15
Q183  1   0.3609  0.5675  0.0823  11.00000  0.05    0.15
Q184  1   0.2817  0.6442  0.0493  11.00000  0.05    0.14
Q185  1   0.2740  0.7294 -0.2914  11.00000  0.05    0.14
Q186  1   0.1600  0.5815 -0.2517  11.00000  0.05    0.14
Q187  1   0.2039  0.6777 -0.1306  11.00000  0.05    0.14
Q188  1   0.5621  0.5631 -0.6696  11.00000  0.05    0.14
Q189  1   0.0171  0.5987 -0.2197  11.00000  0.05    0.14
Q190  1   0.2018  0.5744 -0.4078  11.00000  0.05    0.14
Q191  1  -0.0599  0.8211  0.0424  11.00000  0.05    0.14
Q192  1   0.3835  0.5426 -0.5202  11.00000  0.05    0.14
Q193  1   0.1803  0.6323 -0.5901  11.00000  0.05    0.14
Q194  1  -0.0816  0.6903  0.1064  11.00000  0.05    0.14
Q195  1   0.2569  0.5394 -0.3816  11.00000  0.05    0.14
Q196  1   0.1763  0.6492 -0.4182  11.00000  0.05    0.14
Q197  1   0.0043  0.6927 -0.2437  11.00000  0.05    0.14
Q198  1   0.2774  0.5000  0.2500  10.50000  0.05    0.14
Q199  1   0.1582  0.5207  0.1684  11.00000  0.05    0.14
Q200  1   0.0168  0.7021  0.1068  11.00000  0.05    0.14
;
_shelx_res_checksum              26745
#END Tags that were not found in dictionaries
loop_
_space_group_symop_operation_xyz
'x, y, z'
'-x+1/2, -y+1/2, z'
'x, -y, -z+1/2'
'-x+1/2, y+1/2, -z+1/2'
'-x, -y, -z'
'x-1/2, y-1/2, -z'
'-x, y, z-1/2'
'x-1/2, -y-1/2, z-1/2'
loop_
_atom_site_label
_atom_site_type_symbol
_atom_site_fract_x
_atom_site_fract_y
_atom_site_fract_z
_atom_site_U_iso_or_equiv
_atom_site_adp_type
_atom_site_occupancy
_atom_site_site_symmetry_order
_atom_site_calc_flag
_atom_site_refinement_flags_posn
_atom_site_refinement_flags_adp
_atom_site_refinement_flags_occupancy
Cu1 Cu 0.13370(3) 0.58833(3) 0.04910(2) 0.02505(18) Uani 1 1 d . . .
Cu2 Cu -0.02299(3) 0.66596(3) 0.06968(2) 0.02853(19) Uani 1 1 d . . .
O9 O 0.11256(19) 0.43425(18) -0.10870(16) 0.0351(7) Uani 1 1 d . . .
O2 O 0.30639(19) 0.82026(17) -0.02280(16) 0.0330(7) Uani 1 1 d . . .
O1 O 0.4334(3) 0.6984(4) -0.1450(2) 0.088(2) Uani 1 1 d . . .
O7 O 0.07029(18) 0.56458(15) -0.02492(14) 0.0260(6) Uani 1 1 d . . .
O1W O -0.0327(2) 0.70540(17) 0.15702(16) 0.0413(9) Uani 1 1 d . . .
O8 O -0.0345(2) 0.62929(18) -0.01511(15) 0.0365(8) Uani 1 1 d . . .
O11 O 0.3711(4) 0.6918(3) -0.3748(2) 0.093(2) Uani 1 1 d . . .
O3 O 0.3986(2) 0.81603(16) 0.04809(14) 0.0296(7) Uani 1 1 d . . .
O6 O 0.0580(2) 0.61316(19) -0.24621(15) 0.0385(8) Uani 1 1 d . . .
O10 O -0.01250(18) 0.41866(15) -0.10694(15) 0.0268(7) Uani 1 1 d . . .
N3 N 0.2851(2) 0.6144(2) -0.40297(18) 0.0341(9) Uani 1 1 d . . .
O13 O 0.1773(2) 0.49957(18) -0.55253(16) 0.0350(8) Uani 1 1 d . . .
O15 O 0.4013(2) 0.5633(2) -0.53592(18) 0.0490(10) Uani 1 1 d . . .
O5 O 0.4324(2) 0.5666(2) 0.07078(18) 0.0456(9) Uani 1 1 d . . .
O17 O 0.4122(2) 0.5415(2) -0.43176(16) 0.0395(8) Uani 1 1 d . . .
O4 O 0.4464(2) 0.59377(18) -0.03114(18) 0.0400(8) Uani 1 1 d . . .
C1 C 0.3102(3) 0.6695(3) -0.1827(2) 0.0439(14) Uani 1 1 d . . .
O3W O 0.1913(2) 0.6113(2) 0.12780(17) 0.0484(10) Uani 1 1 d . . .
C14 C -0.0217(3) 0.5673(2) -0.1085(2) 0.0281(9) Uani 1 1 d . . .
O12 O 0.2411(3) 0.4840(2) -0.4627(2) 0.0612(13) Uani 1 1 d . . .
N2 N 0.1033(2) 0.5570(2) -0.15998(18) 0.0295(8) Uani 1 1 d . . .
C2 C 0.2375(3) 0.6450(3) -0.1694(2) 0.0425(13) Uani 1 1 d . . .
C4 C 0.2131(3) 0.6326(3) -0.2819(2) 0.0361(11) Uani 1 1 d . . .
C11 C 0.3594(3) 0.7898(2) 0.0026(2) 0.0285(9) Uani 1 1 d . . .
N1 N 0.3384(2) 0.6976(2) -0.07409(17) 0.0271(8) Uani 1 1 d . . .
C18 C 0.3160(3) 0.6549(3) -0.3614(2) 0.0497(16) Uani 1 1 d . . .
C7 C 0.3659(3) 0.6909(3) -0.1318(2) 0.0458(14) Uani 1 1 d . . .
C21 C 0.2211(3) 0.5191(3) -0.5079(2) 0.0346(10) Uani 1 1 d . . .
C16 C 0.0471(3) 0.4544(2) -0.11774(18) 0.0264(9) Uani 1 1 d . . .
C3 C 0.1893(3) 0.6274(3) -0.2191(2) 0.0348(11) Uani 1 1 d . . .
C17 C 0.2874(3) 0.6528(3) -0.2948(2) 0.0417(13) Uani 1 1 d . . .
C6 C 0.3350(3) 0.6732(3) -0.2454(2) 0.0487(16) Uani 1 1 d . . .
C22 C 0.3801(3) 0.5675(3) -0.4785(2) 0.0367(11) Uani 1 1 d . . .
C12 C 0.1108(3) 0.5995(2) -0.2088(2) 0.0297(9) Uani 1 1 d . . .
C13 C 0.0318(3) 0.5235(2) -0.1470(2) 0.0264(9) Uani 1 1 d . . .
C19 C 0.3089(3) 0.6123(3) -0.4693(2) 0.0358(11) Uani 1 1 d . . .
C10 C 0.4235(3) 0.6040(3) 0.0236(2) 0.0323(10) Uani 1 1 d . . .
C8 C 0.3838(3) 0.7192(2) -0.0197(2) 0.0292(9) Uani 1 1 d . . .
C15 C 0.0079(3) 0.5885(2) -0.0439(2) 0.0260(9) Uani 1 1 d . . .
C20 C 0.2440(3) 0.5925(3) -0.5129(2) 0.0371(11) Uani 1 1 d . . .
C9 C 0.3784(3) 0.6694(2) 0.0352(2) 0.0318(10) Uani 1 1 d . . .
Cu3 Cu 0.49424(4) 0.51478(3) -0.56087(3) 0.0346(2) Uani 1 1 d . . .
O18 O 0.4907(3) 0.5567(3) -0.6565(2) 0.0725(15) Uani 1 1 d . . .
O2W O -0.0585(3) 0.7514(2) 0.03449(19) 0.0558(12) Uani 1 1 d . . .
O7W O -0.0754(4) 0.7833(4) -0.0869(3) 0.0923(19) Uani 1 1 d . . .
O4W O 0.3191(4) 0.5506(5) 0.1622(3) 0.113(3) Uani 1 1 d . . .
O6W O 0.2500 0.7500 0.1471(4) 0.101(3) Uani 1 2 d S T P
O5W O 0.2079(4) 0.4226(5) 0.1695(3) 0.114(3) Uani 1 1 d . . .
O8W O 0.1788(6) 0.2827(7) 0.1682(6) 0.176(5) Uani 1 1 d . . .
O9W O 0.1027(4) 0.5981(7) 0.2408(3) 0.173(5) Uani 1 1 d . . .
O10W O 0.1184(8) 0.7653(8) 0.2196(8) 0.223(6) Uiso 1 1 d . . .
O11W O 0.3491(8) 0.4166(7) 0.2118(7) 0.187(5) Uiso 1 1 d . . .
H14A H -0.0691 0.5433 -0.1025 0.034 Uiso 1 1 d . U .
H14B H -0.0329 0.6070 -0.1330 0.034 Uiso 1 1 d . U .
H2 H 0.2214 0.6404 -0.1276 0.051 Uiso 1 1 d . U .
H4 H 0.1785 0.6237 -0.3153 0.044 Uiso 1 1 d . U .
H1N H 0.2909 0.6888 -0.0680 0.032 Uiso 1 1 d . U .
H6 H 0.3834 0.6892 -0.2545 0.055 Uiso 1 1 d . U .
H19 H 0.3234 0.6578 -0.4812 0.043 Uiso 1 1 d . U .
H20A H 0.2585 0.6018 -0.5560 0.043 Uiso 1 1 d . U .
H20B H 0.1999 0.6198 -0.5026 0.043 Uiso 1 1 d . U .
H9A H 0.3254 0.6582 0.0422 0.039 Uiso 1 1 d . U .
H9B H 0.3978 0.6903 0.0734 0.039 Uiso 1 1 d . U .
H8 H 0.4389 0.7230 -0.0317 0.051 Uiso 1 1 d . U .
H2N H 0.1463 0.5445 -0.1328 0.053 Uiso 1 1 d . U .
H3N H 0.2588 0.5854 -0.3904 0.024 Uiso 1 1 d . U .
H13 H 0.0122 0.5129 -0.1862 0.050 Uiso 1 1 d . U .
loop_
_atom_site_aniso_label
_atom_site_aniso_U_11
_atom_site_aniso_U_22
_atom_site_aniso_U_33
_atom_site_aniso_U_23
_atom_site_aniso_U_13
_atom_site_aniso_U_12
Cu1 0.0266(3) 0.0292(3) 0.0194(3) -0.00242(19) 0.00383(19) 0.0026(2)
Cu2 0.0358(3) 0.0277(3) 0.0221(3) 0.00297(19) 0.0104(2) 0.0116(2)
O9 0.0286(17) 0.047(2) 0.0291(16) -0.0035(14) 0.0046(14) 0.0068(15)
O2 0.0316(17) 0.0355(17) 0.0320(16) -0.0013(13) -0.0097(14) -0.0007(14)
O1 0.042(2) 0.188(6) 0.035(2) -0.040(3) 0.0156(18) -0.064(3)
O7 0.0268(15) 0.0306(15) 0.0207(14) -0.0032(12) 0.0030(12) 0.0034(12)
O1W 0.062(2) 0.0336(18) 0.0288(17) 0.0014(14) 0.0143(16) 0.0134(17)
O8 0.0383(18) 0.045(2) 0.0261(16) 0.0003(14) 0.0040(14) 0.0183(16)
O11 0.113(4) 0.130(5) 0.035(2) -0.025(3) 0.028(3) -0.098(4)
O3 0.0357(18) 0.0286(16) 0.0246(15) -0.0002(12) -0.0119(13) -0.0007(13)
O6 0.0355(18) 0.061(2) 0.0196(14) 0.0044(15) -0.0021(13) -0.0201(17)
O10 0.0286(16) 0.0271(15) 0.0246(15) 0.0036(12) 0.0088(12) 0.0029(12)
N3 0.035(2) 0.046(2) 0.0211(17) -0.0064(16) 0.0090(16) -0.0160(18)
O13 0.0333(18) 0.0383(18) 0.0333(17) -0.0026(14) -0.0080(14) -0.0077(15)
O15 0.033(2) 0.086(3) 0.0279(17) -0.0084(18) 0.0042(15) 0.000(2)
O5 0.043(2) 0.052(2) 0.041(2) 0.0073(17) 0.0053(17) 0.0222(18)
O17 0.0306(18) 0.061(2) 0.0268(17) -0.0058(15) 0.0008(13) -0.0040(17)
O4 0.039(2) 0.043(2) 0.0381(19) 0.0004(15) 0.0041(16) 0.0087(16)
C1 0.037(3) 0.071(4) 0.024(2) -0.017(2) 0.007(2) -0.031(3)
O3W 0.052(2) 0.062(2) 0.0308(18) -0.0091(17) -0.0100(17) 0.010(2)
C14 0.026(2) 0.032(2) 0.026(2) 0.0019(17) 0.0006(17) -0.0002(17)
O12 0.065(3) 0.049(2) 0.070(3) 0.009(2) -0.035(3) -0.012(2)
N2 0.0217(17) 0.042(2) 0.0248(17) -0.0026(15) 0.0028(14) -0.0067(16)
C2 0.037(3) 0.072(3) 0.019(2) -0.013(2) 0.0091(19) -0.030(3)
C4 0.037(3) 0.050(3) 0.021(2) -0.0082(19) 0.0057(18) -0.025(2)
C11 0.032(2) 0.029(2) 0.025(2) 0.0025(17) -0.0026(17) -0.0055(18)
N1 0.0220(18) 0.036(2) 0.0227(17) -0.0052(15) -0.0027(14) -0.0088(15)
C18 0.047(3) 0.074(4) 0.028(2) -0.014(2) 0.013(2) -0.040(3)
C7 0.037(3) 0.073(4) 0.027(2) -0.018(2) 0.005(2) -0.029(3)
C21 0.025(2) 0.042(3) 0.037(2) -0.001(2) -0.0031(19) -0.0009(19)
C16 0.034(2) 0.030(2) 0.0150(17) -0.0031(15) 0.0075(16) 0.0008(18)
C3 0.033(2) 0.050(3) 0.022(2) -0.0095(19) 0.0086(18) -0.021(2)
C17 0.042(3) 0.060(3) 0.023(2) -0.014(2) 0.010(2) -0.031(3)
C6 0.039(3) 0.079(4) 0.028(2) -0.021(2) 0.014(2) -0.039(3)
C22 0.027(2) 0.055(3) 0.028(2) -0.010(2) 0.0048(19) -0.017(2)
C12 0.028(2) 0.043(3) 0.0175(19) -0.0035(17) 0.0031(17) -0.0130(19)
C13 0.026(2) 0.034(2) 0.0189(18) -0.0002(16) 0.0006(16) -0.0067(18)
C19 0.035(3) 0.051(3) 0.021(2) -0.0059(19) 0.0023(19) -0.014(2)
C10 0.025(2) 0.042(3) 0.030(2) -0.0045(19) 0.0003(18) -0.0009(19)
C8 0.025(2) 0.040(2) 0.023(2) -0.0026(18) -0.0027(17) -0.0051(18)
C15 0.029(2) 0.028(2) 0.021(2) 0.0031(16) 0.0041(17) 0.0036(17)
C20 0.040(3) 0.044(3) 0.028(2) -0.0029(19) -0.001(2) -0.009(2)
C9 0.033(2) 0.034(2) 0.029(2) 0.0008(18) 0.0013(18) 0.0006(19)
Cu3 0.0278(3) 0.0462(4) 0.0299(3) -0.0019(2) 0.0014(2) -0.0094(3)
O18 0.073(3) 0.114(4) 0.030(2) 0.008(2) -0.001(2) 0.006(3)
O2W 0.076(3) 0.051(2) 0.041(2) 0.0132(18) 0.021(2) 0.036(2)
O7W 0.081(4) 0.137(5) 0.059(3) 0.016(3) -0.012(3) 0.017(4)
O4W 0.071(4) 0.200(8) 0.068(4) 0.035(5) 0.011(3) 0.039(5)
O6W 0.125(8) 0.108(7) 0.069(5) 0.000 0.000 0.036(6)
O5W 0.091(5) 0.182(8) 0.070(4) 0.018(4) 0.014(4) 0.015(5)
O8W 0.119(7) 0.256(14) 0.154(9) -0.011(9) -0.017(7) 0.042(8)
O9W 0.066(4) 0.405(18) 0.048(3) 0.014(6) 0.003(3) 0.008(7)
loop_
_atom_type_symbol
_atom_type_description
_atom_type_scat_dispersion_real
_atom_type_scat_dispersion_imag
_atom_type_scat_source
C C 0.0033 0.0016 'International Tables Vol C Tables 4.2.6.8 and 6.1.1.4'
Cu Cu 0.3201 1.2651 'International Tables Vol C Tables 4.2.6.8 and 6.1.1.4'
N N 0.0061 0.0033 'International Tables Vol C Tables 4.2.6.8 and 6.1.1.4'
O O 0.0106 0.0060 'International Tables Vol C Tables 4.2.6.8 and 6.1.1.4'
H H 0.0000 0.0000 'International Tables Vol C Tables 4.2.6.8 and 6.1.1.4'
loop_
_geom_angle_atom_site_label_1
_geom_angle_atom_site_label_2
_geom_angle_atom_site_label_3
_geom_angle
_geom_angle_site_symmetry_1
_geom_angle_site_symmetry_3
O13 Cu1 O7 91.89(14) 3_564 .
O13 Cu1 O3W 88.76(16) 3_564 .
O7 Cu1 O3W 175.92(16) . .
O13 Cu1 O3 172.81(15) 3_564 2_565
O7 Cu1 O3 93.64(13) . 2_565
O3W Cu1 O3 86.05(16) . 2_565
O8 Cu2 O2W 87.14(17) . .
O8 Cu2 O10 94.20(14) . 5_565
O2W Cu2 O10 178.65(15) . 5_565
O8 Cu2 O1W 169.14(16) . .
O2W Cu2 O1W 88.60(16) . .
O10 Cu2 O1W 90.05(13) 5_565 .
O8 Cu2 O3 88.62(14) . 2_565
O2W Cu2 O3 95.24(17) . 2_565
O10 Cu2 O3 84.98(12) 5_565 2_565
O1W Cu2 O3 101.72(14) . 2_565
C15 O7 Cu1 130.4(3) . .
C15 O8 Cu2 128.7(3) . .
C11 O3 Cu1 104.3(3) . 2_565
C11 O3 Cu2 136.8(3) . 2_565
Cu1 O3 Cu2 96.79(13) 2_565 2_565
C16 O10 Cu2 107.0(3) . 5_565
C18 N3 C19 122.7(4) . .
C21 O13 Cu1 119.6(3) . 3_564
C22 O15 Cu3 122.0(4) . .
C10 O5 Cu3 118.6(3) . 3_564
C22 O17 Cu3 123.0(3) . 5_664
C10 O4 Cu3 126.4(3) . 7_656
C6 C1 C2 119.7(4) . .
C6 C1 C7 117.1(4) . .
C2 C1 C7 123.2(4) . .
C15 C14 C13 115.3(4) . .
C12 N2 C13 121.7(4) . .
C3 C2 C1 119.5(4) . .
C17 C4 C3 119.3(4) . .
O2 C11 O3 121.4(4) . .
O2 C11 C8 121.9(4) . .
O3 C11 C8 116.7(4) . .
C7 N1 C8 123.7(4) . .
O11 C18 N3 122.3(5) . .
O11 C18 C17 119.4(5) . .
N3 C18 C17 118.1(4) . .
O1 C7 N1 123.5(5) . .
O1 C7 C1 119.9(5) . .
N1 C7 C1 116.5(4) . .
O12 C21 O13 124.3(5) . .
O12 C21 C20 121.7(5) . .
O13 C21 C20 113.8(4) . .
O9 C16 O10 123.2(4) . .
O9 C16 C13 121.3(4) . .
O10 C16 C13 115.4(4) . .
C2 C3 C4 121.0(4) . .
C2 C3 C12 122.9(4) . .
C4 C3 C12 116.1(4) . .
C4 C17 C6 119.9(4) . .
C4 C17 C18 120.5(4) . .
C6 C17 C18 119.5(4) . .
C1 C6 C17 120.4(4) . .
O17 C22 O15 126.3(5) . .
O17 C22 C19 120.4(4) . .
O15 C22 C19 113.2(5) . .
O6 C12 N2 123.3(4) . .
O6 C12 C3 120.6(4) . .
N2 C12 C3 116.0(4) . .
N2 C13 C14 111.5(4) . .
N2 C13 C16 110.0(4) . .
C14 C13 C16 114.5(3) . .
N3 C19 C20 111.9(4) . .
N3 C19 C22 111.5(4) . .
C20 C19 C22 112.2(4) . .
O4 C10 O5 126.8(5) . .
O4 C10 C9 116.9(4) . .
O5 C10 C9 116.3(4) . .
N1 C8 C9 111.4(4) . .
N1 C8 C11 111.0(4) . .
C9 C8 C11 110.4(4) . .
O7 C15 O8 127.4(4) . .
O7 C15 C14 118.4(4) . .
O8 C15 C14 114.2(4) . .
C19 C20 C21 114.1(4) . .
C8 C9 C10 113.6(4) . .
O15 Cu3 O5 88.96(19) . 3_564
O15 Cu3 O4 87.45(18) . 7_655
O5 Cu3 O4 167.79(16) 3_564 7_655
O15 Cu3 O17 168.42(16) . 5_664
O5 Cu3 O17 88.67(18) 3_564 5_664
O4 Cu3 O17 92.52(16) 7_655 5_664
O15 Cu3 O18 91.84(19) . .
O5 Cu3 O18 101.8(2) 3_564 .
O4 Cu3 O18 89.9(2) 7_655 .
O17 Cu3 O18 99.74(18) 5_664 .
O15 Cu3 Cu3 85.13(12) . 5_664
O5 Cu3 Cu3 87.65(11) 3_564 5_664
O4 Cu3 Cu3 80.41(11) 7_655 5_664
O17 Cu3 Cu3 83.44(10) 5_664 5_664
O18 Cu3 Cu3 170.00(17) . 5_664
loop_
_geom_bond_atom_site_label_1
_geom_bond_atom_site_label_2
_geom_bond_distance
_geom_bond_site_symmetry_2
Cu1 O13 1.922(4) 3_564
Cu1 O7 1.972(3) .
Cu1 O3W 1.994(4) .
Cu1 O3 1.998(3) 2_565
Cu2 O8 1.941(3) .
Cu2 O2W 1.966(4) .
Cu2 O10 1.969(3) 5_565
Cu2 O1W 2.008(3) .
Cu2 O3 2.257(3) 2_565
O9 C16 1.230(6) .
O2 C11 1.233(6) .
O1 C7 1.225(7) .
O7 C15 1.258(6) .
O8 C15 1.261(6) .
O11 C18 1.248(6) .
O3 C11 1.291(5) .
O3 Cu1 1.998(3) 2_565
O3 Cu2 2.257(3) 2_565
O6 C12 1.246(6) .
O10 C16 1.288(5) .
O10 Cu2 1.969(3) 5_565
N3 C18 1.311(6) .
N3 C19 1.458(6) .
O13 C21 1.274(6) .
O13 Cu1 1.922(4) 3_564
O15 C22 1.267(6) .
O15 Cu3 1.968(4) .
O5 C10 1.254(6) .
O5 Cu3 1.970(4) 3_564
O17 C22 1.248(7) .
O17 Cu3 1.996(4) 5_664
O4 C10 1.237(6) .
O4 Cu3 1.994(4) 7_656
C1 C6 1.390(7) .
C1 C2 1.394(7) .
C1 C7 1.513(7) .
C14 C15 1.518(6) .
C14 C13 1.519(6) .
O12 C21 1.235(7) .
N2 C12 1.342(6) .
N2 C13 1.447(5) .
C2 C3 1.390(7) .
C4 C17 1.390(6) .
C4 C3 1.391(6) .
C11 C8 1.551(7) .
N1 C7 1.314(6) .
N1 C8 1.459(5) .
C18 C17 1.488(6) .
C21 C20 1.527(7) .
C16 C13 1.538(6) .
C3 C12 1.500(6) .
C17 C6 1.395(7) .
C22 C19 1.550(8) .
C19 C20 1.514(7) .
C10 C9 1.550(7) .
C8 C9 1.531(7) .
Cu3 O5 1.970(4) 3_564
Cu3 O4 1.994(4) 7_655
Cu3 O17 1.996(4) 5_664
Cu3 O18 2.182(5) .
Cu3 Cu3 2.6378(12) 5_664
