#------------------------------------------------------------------------------
#$Date: 2016-03-26 14:56:23 +0200 (Sat, 26 Mar 2016) $
#$Revision: 180281 $
#$URL: svn://www.crystallography.net/cod/cif/7/11/67/7116746.cif $
#------------------------------------------------------------------------------
#
# This file is available in the Crystallography Open Database (COD),
# http://www.crystallography.net/
#
# All data on this site have been placed in the public domain by the
# contributors.
#
data_7116746
loop_
_publ_author_name
'Valentina Brega'
'Matthias Zeller'
'Yufan He'
'H. Peter Lu'
'Jeremy K. Klosterman'
_publ_section_title
;
 Multi-responsive metal-organic lantern cages in solution
;
_journal_name_full               Chem.Commun.
_journal_page_first              5077
_journal_paper_doi               10.1039/C5cc00698H
_journal_volume                  51
_journal_year                    2015
_chemical_formula_moiety
'C137.18 H142.36 Cu4 N4 O24, 1.82(C4 H9 N O), 6.07(C H4 O), 2.14(H2 O)'
_chemical_formula_sum            'C150.55 H187.34 Cu4 N5.82 O34.04'
_chemical_formula_weight         2877.26
_chemical_name_common            Decyloxycage
_chemical_name_systematic        'Cage 2'
_chemical_properties_physical    Efflorescent
_space_group_crystal_system      monoclinic
_space_group_IT_number           14
_space_group_name_Hall           '-P 2ybc'
_space_group_name_H-M_alt        'P 1 21/c 1'
_symmetry_space_group_name_Hall  '-P 2ybc'
_symmetry_space_group_name_H-M   'P 1 21/c 1'
_atom_sites_solution_hydrogens   mixed
_atom_sites_solution_primary     direct
_atom_sites_solution_secondary   difmap
_audit_creation_method           SHELXL-2013
_audit_update_record
;
2014-12-09 deposited with the CCDC.
2015-02-13 downloaded from the CCDC.
;
_cell_angle_alpha                90
_cell_angle_beta                 110.078(2)
_cell_angle_gamma                90
_cell_formula_units_Z            2
_cell_length_a                   18.2648(11)
_cell_length_b                   27.0741(17)
_cell_length_c                   16.6959(9)
_cell_measurement_reflns_used    9439
_cell_measurement_temperature    100(2)
_cell_measurement_theta_max      66.9402
_cell_measurement_theta_min      5.5409
_cell_volume                     7754.4(8)
_computing_cell_refinement       'SAINT V8.34A (Bruker, 2014)'
_computing_data_collection       'Apex2 v2014.1-0 (Bruker, 2014)'
_computing_data_reduction        'SAINT V8.34A (Bruker, 2014)'
_computing_structure_refinement
;  
SHELXL-2013 (Sheldrick, 2013), 
SHELXLE Rev645 (H\"ubschle et al., 2011)
;
_computing_structure_solution    'SHELXS-97 (Sheldrick, 2008)'
_diffrn_ambient_temperature      100(2)
_diffrn_measured_fraction_theta_full 0.948
_diffrn_measured_fraction_theta_max 0.965
_diffrn_measurement_device_type  'Bruker AXS Prospector CCD diffractometer'
_diffrn_measurement_method       'omega and phi scans'
_diffrn_radiation_monochromator  'laterally graded multilayer (Goebel) mirror'
_diffrn_radiation_type           CuK\a
_diffrn_radiation_wavelength     1.54178
_diffrn_reflns_av_R_equivalents  0.0215
_diffrn_reflns_av_unetI/netI     0.0240
_diffrn_reflns_Laue_measured_fraction_full 0.948
_diffrn_reflns_Laue_measured_fraction_max 0.965
_diffrn_reflns_limit_h_max       20
_diffrn_reflns_limit_h_min       -21
_diffrn_reflns_limit_k_max       22
_diffrn_reflns_limit_k_min       -32
_diffrn_reflns_limit_l_max       19
_diffrn_reflns_limit_l_min       -19
_diffrn_reflns_number            34555
_diffrn_reflns_point_group_measured_fraction_full 0.948
_diffrn_reflns_point_group_measured_fraction_max 0.965
_diffrn_reflns_theta_full        67.679
_diffrn_reflns_theta_max         66.882
_diffrn_reflns_theta_min         5.156
_diffrn_source                   'I-mu-S microsource X-ray tube'
_exptl_absorpt_coefficient_mu    1.209
_exptl_absorpt_correction_T_max  0.7529
_exptl_absorpt_correction_T_min  0.6379
_exptl_absorpt_correction_type   multi-scan
_exptl_absorpt_process_details   'Apex2 v2014.1-0 (Bruker, 2014)'
_exptl_crystal_colour            green
_exptl_crystal_density_diffrn    1.232
_exptl_crystal_description       block
_exptl_crystal_F_000             3039.3
_exptl_crystal_recrystallization_method
'Re-crystallisation from solvent: DMA/MeOH'
_exptl_crystal_size_max          0.210
_exptl_crystal_size_mid          0.190
_exptl_crystal_size_min          0.150
_refine_diff_density_max         0.704
_refine_diff_density_min         -0.461
_refine_diff_density_rms         0.063
_refine_ls_extinction_method     none
_refine_ls_goodness_of_fit_ref   1.046
_refine_ls_hydrogen_treatment    mixed
_refine_ls_matrix_type           full
_refine_ls_number_parameters     1267
_refine_ls_number_reflns         13282
_refine_ls_number_restraints     971
_refine_ls_restrained_S_all      1.040
_refine_ls_R_factor_all          0.0587
_refine_ls_R_factor_gt           0.0511
_refine_ls_shift/su_max          0.003
_refine_ls_shift/su_mean         0.000
_refine_ls_structure_factor_coef Fsqd
_refine_ls_weighting_details
'w=1/[\s^2^(Fo^2^)+(0.0744P)^2^+9.3369P] where P=(Fo^2^+2Fc^2^)/3'
_refine_ls_weighting_scheme      calc
_refine_ls_wR_factor_gt          0.1373
_refine_ls_wR_factor_ref         0.1459
_reflns_Friedel_coverage         0.000
_reflns_number_gt                11546
_reflns_number_total             13282
_reflns_threshold_expression     'I > 2\s(I)'
_cod_data_source_file            c5cc00698h2-6.cif
_cod_data_source_block           Prosp14mz029_0m
_cod_database_code               7116746
#BEGIN Tags that were not found in dictionaries:
_shelx_space_group_comment
;
The symmetry employed for this shelxl refinement is uniquely defined
by the following loop, which should always be used as a source of
symmetry information in preference to the above space-group names.
They are only intended as comments.
;
_shelx_estimated_absorpt_t_min   0.785
_shelx_estimated_absorpt_t_max   0.839
_shelxl_version_number           2013-4
_shelx_res_file
;
TITL Prosp14mz029_0m1 in P2(1)/c
CELL 1.54178  18.2648  27.0741  16.6959  90.000 110.078  90.000
ZERR    2.00   0.0011   0.0017   0.0009   0.000   0.002   0.000
LATT  1
SYMM -X, 0.5+Y, 0.5-Z
SFAC C H N O CU
UNIT 301 374.3 11.64 67.92 8
LIST 4 ! automatically inserted. Change 6 to 4 for CHECKCIF!!
TEMP -173.140
SIZE 0.15 0.19 0.21

L.S. 44
BOND $H
ACTA
CONF
FMAP 2
PLAN 20
SIMU C11 C12 C13 C25 > C34 C11B C12B C13B C25B > C34B
SIMU C59 > C67 C59B > C67B
RIGU C11 C12 C13 C25 > C34 C11B C12B C13B C25B > C34B
RIGU C59 > C67 C59B > C67B
EADP O8 O8B
ISOR 0.001 C83
DFIX 0.84 O11 H11O O16 H16A O16 H16B O21 H21A O21 H21B O12 H12C O12 H12D
DFIX 0.84 O15B H15A O15B H15B
DFIX 1.36 H16A H16B H21A H21B H15A H15B H12C H12D
RIGU O18 C76 C77 C78 C79 N4
EADP O22 C80
DFIX 2.1 H15 O12
DFIX 1.835 H22 O23
BUMP -0.02
REM FREE Cu2 O12
SUMP 1.0 0 1.0 3 1.0 9
SUMP 1.0 0 1.0 8 1.0 9 1.0 10
DFIX -2.6 Cu2 H12C Cu2 H12D

REM DAMP 200
WGHT    0.074400    9.336900
FVAR       0.20069   0.63383   0.63668   0.68267   0.22924   0.39481   0.51841
FVAR       0.41009   0.36332   0.22659   0.35928
C1    1    0.144935    0.530199    0.426757    11.00000    0.02395    0.03172 =
         0.02369    0.00069    0.00680    0.00303
C2    1    0.100866    0.482451    0.407319    11.00000    0.02440    0.03059 =
         0.03018   -0.00028    0.00817    0.00040
C3    1    0.024249    0.480845    0.406383    11.00000    0.02902    0.03273 =
         0.06669   -0.01009    0.02016    0.00065
AFIX  43
H3    2   -0.000487    0.510207    0.415109    11.00000   -1.20000
AFIX   0
C4    1   -0.015559    0.436620    0.392787    11.00000    0.03340    0.04011 =
         0.12795   -0.02050    0.03956   -0.00623
AFIX  43
H4    2   -0.067057    0.435314    0.394263    11.00000   -1.20000
AFIX   0
C5    1    0.019419    0.394037    0.376959    11.00000    0.03326    0.03186 =
         0.12039   -0.01709    0.03325   -0.00686
AFIX  43
H5    2   -0.008705    0.363810    0.366268    11.00000   -1.20000
AFIX   0
C6    1    0.095929    0.395343    0.376647    11.00000    0.03032    0.03159 =
         0.05871   -0.00523    0.01720    0.00139
C7    1    0.136608    0.439812    0.393475    11.00000    0.02414    0.03134 =
         0.03576   -0.00094    0.01209    0.00200
AFIX  43
H7    2    0.189193    0.440906    0.395469    11.00000   -1.20000
AFIX   0
C8    1    0.132757    0.350782    0.363673    11.00000    0.02961    0.03233 =
         0.07095   -0.00732    0.02108   -0.00263
C9    1    0.161532    0.312289    0.355127    11.00000    0.03192    0.03402 =
         0.07078   -0.00698    0.02273   -0.00350
C10   1    0.197385    0.266022    0.350081    11.00000    0.03068    0.03179 =
         0.06422   -0.00900    0.01947    0.00056
C14   1    0.312279    0.218198    0.362453    11.00000    0.02435    0.03297 =
         0.05498   -0.01114    0.01526   -0.00341
C15   1    0.277714    0.264398    0.363096    11.00000    0.03106    0.03077 =
         0.05784   -0.00736    0.01863   -0.00235
C16   1    0.394799    0.215640    0.379289    11.00000    0.02891    0.02838 =
         0.05400   -0.00942    0.01514   -0.00417
C17   1    0.463679    0.216172    0.396387    11.00000    0.02865    0.02833 =
         0.05459   -0.00809    0.01524   -0.00432
C18   1    0.546846    0.216808    0.416295    11.00000    0.02430    0.03139 =
         0.04552   -0.00468    0.01190   -0.00209
C19   1    0.586010    0.175300    0.401739    11.00000    0.03042    0.02890 =
         0.05519   -0.00781    0.01312   -0.00452
AFIX  43
H19   2    0.557709    0.145984    0.379615    11.00000   -1.20000
AFIX   0
C20   1    0.665963    0.176630    0.419393    11.00000    0.03087    0.03025 =
         0.05493   -0.00499    0.01577    0.00322
AFIX  43
H20   2    0.691937    0.148443    0.408262    11.00000   -1.20000
AFIX   0
C21   1    0.708021    0.218765    0.453099    11.00000    0.02238    0.03465 =
         0.04444   -0.00087    0.01318    0.00211
AFIX  43
H21   2    0.762817    0.219413    0.465514    11.00000   -1.20000
AFIX   0
C22   1    0.669815    0.260417    0.468890    11.00000    0.02405    0.03188 =
         0.04009   -0.00480    0.01248   -0.00244
C23   1    0.589646    0.259199    0.450467    11.00000    0.02364    0.03015 =
         0.04425   -0.00500    0.01335   -0.00077
AFIX  43
H23   2    0.563710    0.287503    0.461240    11.00000   -1.20000
AFIX   0
C24   1    0.714481    0.307103    0.502208    11.00000    0.02207    0.03589 =
         0.04214   -0.00325    0.01234   -0.00097
PART 1
C11   1    0.151607    0.225186    0.329157    21.00000    0.02406    0.02656 =
         0.05331   -0.00137    0.01376    0.00270
AFIX  43
H11   2    0.096822    0.227718    0.315805    21.00000   -1.20000
AFIX   0
C12   1    0.185768    0.180084    0.327588    21.00000    0.02520    0.02732 =
         0.04649   -0.00779    0.01091   -0.00345
C13   1    0.265834    0.177541    0.342283    21.00000    0.02460    0.02320 =
         0.04331   -0.00396    0.01112    0.00492
AFIX  43
H13   2    0.288424    0.146480    0.338042    21.00000   -1.20000
AFIX   0
O3    4    0.147178    0.135401    0.312099    21.00000    0.02237    0.02705 =
         0.07379   -0.01294    0.01678   -0.00413
C25   1    0.066744    0.135955    0.306983    21.00000    0.02537    0.03220 =
         0.07927   -0.01324    0.01985   -0.00393
AFIX  23
H25A  2    0.034699    0.154900    0.256374    21.00000   -1.20000
H25B  2    0.061828    0.151501    0.358569    21.00000   -1.20000
AFIX   0
C26   1    0.039998    0.082717    0.300092    21.00000    0.02551    0.03920 =
         0.05957   -0.00908    0.01407   -0.00651
AFIX  23
H26A  2    0.054676    0.066038    0.255037    21.00000   -1.20000
H26B  2   -0.017533    0.081842    0.282935    21.00000   -1.20000
AFIX   0
C27   1    0.075171    0.054831    0.383103    21.00000    0.03145    0.04390 =
         0.06625   -0.00452    0.01165   -0.00147
AFIX  23
H27A  2    0.058549    0.070878    0.427330    21.00000   -1.20000
H27B  2    0.132663    0.057312    0.401486    21.00000   -1.20000
AFIX   0
C28   1    0.052520    0.000460    0.377711    21.00000    0.03686    0.04635 =
         0.06707    0.00516    0.01301    0.00079
AFIX  23
H28A  2    0.068612   -0.015325    0.332887    21.00000   -1.20000
H28B  2    0.082199   -0.015536    0.432598    21.00000   -1.20000
AFIX   0
C29   1   -0.032632   -0.009472    0.358584    21.00000    0.04057    0.04813 =
         0.05077    0.00606    0.00274   -0.00026
AFIX  23
H29A  2   -0.061563    0.000717    0.299145    21.00000   -1.20000
H29B  2   -0.051229    0.011203    0.396621    21.00000   -1.20000
AFIX   0
C30   1   -0.051861   -0.063622    0.369557    21.00000    0.04079    0.05123 =
         0.05196    0.00422    0.01202   -0.00226
AFIX  23
H30A  2   -0.031332   -0.084001    0.332782    21.00000   -1.20000
H30B  2   -0.023085   -0.073234    0.429343    21.00000   -1.20000
AFIX   0
C31   1   -0.136917   -0.077036    0.349599    21.00000    0.04895    0.05100 =
         0.05133   -0.00379    0.01651   -0.00131
AFIX  23
H31A  2   -0.165323   -0.071162    0.288202    21.00000   -1.20000
H31B  2   -0.159457   -0.054887    0.382241    21.00000   -1.20000
AFIX   0
C32   1   -0.149844   -0.130511    0.370536    21.00000    0.04545    0.04524 =
         0.07527   -0.00690    0.02556   -0.00344
AFIX  23
H32A  2   -0.130612   -0.152571    0.334796    21.00000   -1.20000
H32B  2   -0.118193   -0.137010    0.430872    21.00000   -1.20000
AFIX   0
C33   1   -0.234514   -0.143676    0.356774    21.00000    0.05345    0.04708 =
         0.08706   -0.02244    0.02618   -0.01077
AFIX  23
H33A  2   -0.238716   -0.179960    0.361140    21.00000   -1.20000
H33B  2   -0.267100   -0.133884    0.298245    21.00000   -1.20000
AFIX   0
C34   1   -0.267197   -0.119093    0.420270    21.00000    0.06692    0.04911 =
         0.10338   -0.02416    0.05176   -0.01642
AFIX 137
H34A  2   -0.267064   -0.083144    0.413460    21.00000   -1.50000
H34B  2   -0.234707   -0.127945    0.478568    21.00000   -1.50000
H34C  2   -0.320681   -0.130500    0.409308    21.00000   -1.50000
AFIX   0
PART 2
SAME C11 > C34
C11B  1    0.155942    0.217310    0.347837   -21.00000    0.02146    0.02533 =
         0.06570    0.00286    0.01635   -0.00254
AFIX  43
H11B  2    0.102967    0.217576    0.344515   -21.00000   -1.20000
AFIX   0
C12B  1    0.192554    0.172919    0.350452   -21.00000    0.02360    0.01796 =
         0.06034    0.00108    0.01171    0.00022
C13B  1    0.271948    0.170556    0.361894   -21.00000    0.02081    0.02126 =
         0.05441    0.00176    0.00945   -0.00230
AFIX  43
H13B  2    0.298800    0.139924    0.368972   -21.00000   -1.20000
AFIX   0
O3B   4    0.156462    0.127867    0.344558   -21.00000    0.02298    0.02261 =
         0.08462    0.00018    0.01732   -0.00230
C25B  1    0.086495    0.127621    0.366194   -21.00000    0.02984    0.03239 =
         0.05302    0.00586    0.01491    0.00073
AFIX  23
H25C  2    0.042565    0.141780    0.318849   -21.00000   -1.20000
H25D  2    0.094179    0.147806    0.417888   -21.00000   -1.20000
AFIX   0
C26B  1    0.068571    0.074423    0.382307   -21.00000    0.02597    0.02821 =
         0.05065    0.00508    0.01079   -0.00282
AFIX  23
H26C  2    0.024842    0.074457    0.404578   -21.00000   -1.20000
H26D  2    0.114629    0.060519    0.427319   -21.00000   -1.20000
AFIX   0
C27B  1    0.047412    0.040452    0.305081   -21.00000    0.02740    0.02923 =
         0.04673    0.00480    0.01411    0.00223
AFIX  23
H27C  2    0.091746    0.039227    0.283823   -21.00000   -1.20000
H27D  2    0.002191    0.054588    0.259259   -21.00000   -1.20000
AFIX   0
C28B  1    0.027490   -0.012006    0.323563   -21.00000    0.03506    0.02830 =
         0.04023    0.00259    0.00469   -0.00256
AFIX  23
H28C  2    0.025038   -0.033458    0.274689   -21.00000   -1.20000
H28D  2    0.069586   -0.024634    0.374384   -21.00000   -1.20000
AFIX   0
C29B  1   -0.048569   -0.015099    0.338980   -21.00000    0.03024    0.04977 =
         0.04692    0.00814    0.00936   -0.00101
AFIX  23
H29C  2   -0.089936   -0.000423    0.289635   -21.00000   -1.20000
H29D  2   -0.044828    0.004870    0.389909   -21.00000   -1.20000
AFIX   0
C30B  1   -0.072490   -0.067982    0.352499   -21.00000    0.04372    0.05597 =
         0.04761    0.01323   -0.00248   -0.00951
AFIX  23
H30C  2   -0.077609   -0.088045    0.301283   -21.00000   -1.20000
H30D  2   -0.031322   -0.083031    0.401594   -21.00000   -1.20000
AFIX   0
C31B  1   -0.149078   -0.068543    0.368955   -21.00000    0.04277    0.08330 =
         0.08808    0.01191    0.01249   -0.01048
AFIX  23
H31C  2   -0.142823   -0.048840    0.420841   -21.00000   -1.20000
H31D  2   -0.189086   -0.052018    0.320641   -21.00000   -1.20000
AFIX   0
C32B  1   -0.178846   -0.119336    0.380454   -21.00000    0.07671    0.09718 =
         0.13639    0.01355    0.03131   -0.02266
AFIX  23
H32C  2   -0.140537   -0.134989    0.431206   -21.00000   -1.20000
H32D  2   -0.181753   -0.139795    0.330307   -21.00000   -1.20000
AFIX   0
C33B  1   -0.258170   -0.119816    0.391141   -21.00000    0.08402    0.14491 =
         0.19516    0.02722    0.05469   -0.02955
AFIX  23
H33C  2   -0.258052   -0.094007    0.433190   -21.00000   -1.20000
H33D  2   -0.297603   -0.110097    0.336008   -21.00000   -1.20000
AFIX   0
C34B  1   -0.284022   -0.166333    0.418449   -21.00000    0.15010    0.18461 =
         0.22596    0.04683    0.06402   -0.06020
AFIX 137
H34D  2   -0.337727   -0.162664    0.417386   -21.00000   -1.50000
H34E  2   -0.249889   -0.174356    0.476502   -21.00000   -1.50000
H34F  2   -0.281670   -0.192963    0.379650   -21.00000   -1.50000
AFIX   0
PART 0
C35   1    0.190378    0.618719    0.300784    11.00000    0.02481    0.02773 =
         0.04376   -0.00308    0.01582   -0.00459
C36   1    0.170425    0.616667    0.206067    11.00000    0.02516    0.03010 =
         0.03964   -0.00082    0.01610   -0.00550
C37   1    0.111223    0.645894    0.151955    11.00000    0.03111    0.03073 =
         0.04520    0.00002    0.01685   -0.00018
AFIX  43
H37   2    0.083697    0.668188    0.175246    11.00000   -1.20000
AFIX   0
C38   1    0.092262    0.642611    0.064246    11.00000    0.03392    0.03994 =
         0.04342    0.00528    0.01047    0.00097
AFIX  43
H38   2    0.052374    0.663036    0.027796    11.00000   -1.20000
AFIX   0
C39   1    0.131255    0.609654    0.029506    11.00000    0.03534    0.04383 =
         0.03477    0.00061    0.01349   -0.00517
AFIX  43
H39   2    0.117833    0.607431   -0.030620    11.00000   -1.20000
AFIX   0
C40   1    0.190617    0.579535    0.083163    11.00000    0.03018    0.03584 =
         0.03958   -0.00242    0.01867   -0.00645
C41   1    0.210116    0.583717    0.170974    11.00000    0.02747    0.03040 =
         0.03997    0.00142    0.01751   -0.00428
AFIX  43
H41   2    0.250900    0.563957    0.207620    11.00000   -1.20000
AFIX   0
C42   1    0.232005    0.546043    0.047363    11.00000    0.03523    0.04291 =
         0.03377   -0.00184    0.01401   -0.00495
C43   1    0.267470    0.519862    0.015405    11.00000    0.03542    0.04380 =
         0.03471   -0.00149    0.01435   -0.00396
C44   1    0.313212    0.491098   -0.021840    11.00000    0.03280    0.03542 =
         0.03613   -0.00150    0.01505   -0.00249
C45   1    0.285857    0.481672   -0.109515    11.00000    0.02772    0.03340 =
         0.03556    0.00112    0.01034   -0.00120
AFIX  43
H45   2    0.235427    0.492670   -0.143773    11.00000   -1.20000
AFIX   0
C46   1    0.331702    0.456486   -0.146553    11.00000    0.03187    0.03243 =
         0.03130   -0.00230    0.00886   -0.00365
C47   1    0.405211    0.439474   -0.095299    11.00000    0.03041    0.03135 =
         0.03668   -0.00202    0.01069    0.00061
AFIX  43
H47   2    0.436428    0.421568   -0.120530    11.00000   -1.20000
AFIX   0
C48   1    0.433180    0.448383   -0.008130    11.00000    0.03075    0.03423 =
         0.03375    0.00159    0.00836   -0.00101
C49   1    0.387842    0.474947    0.030543    11.00000    0.03551    0.03963 =
         0.03109    0.00113    0.01102   -0.00209
C50   1    0.508873    0.431823    0.044014    11.00000    0.03636    0.03822 =
         0.03296    0.00069    0.00790    0.00019
C51   1    0.572455    0.420027    0.090945    11.00000    0.03877    0.03800 =
         0.03376    0.00254    0.00939    0.00148
C52   1    0.649251    0.407397    0.146942    11.00000    0.03347    0.03029 =
         0.03569    0.00239    0.00814    0.00250
C53   1    0.706541    0.393045    0.113489    11.00000    0.05080    0.04409 =
         0.03206    0.00417    0.01606    0.01030
AFIX  43
H53   2    0.694244    0.390800    0.053510    11.00000   -1.20000
AFIX   0
C54   1    0.781059    0.382131    0.167723    11.00000    0.04464    0.06020 =
         0.04382    0.00877    0.02352    0.01844
AFIX  43
H54   2    0.820084    0.373246    0.144667    11.00000   -1.20000
AFIX   0
C55   1    0.799253    0.384030    0.255080    11.00000    0.03043    0.04488 =
         0.04196    0.00245    0.01266    0.00847
AFIX  43
H55   2    0.850399    0.375979    0.291766    11.00000   -1.20000
AFIX   0
C56   1    0.742419    0.397808    0.289674    11.00000    0.02477    0.02563 =
         0.03740   -0.00234    0.01043   -0.00161
C57   1    0.668001    0.409867    0.234782    11.00000    0.02657    0.02988 =
         0.03556   -0.00334    0.00997   -0.00157
AFIX  43
H57   2    0.629474    0.419938    0.257780    11.00000   -1.20000
AFIX   0
C58   1    0.760406    0.397674    0.383546    11.00000    0.02217    0.02743 =
         0.03943   -0.00740    0.00904   -0.00349
PART 1
SAME O3 > C34
O8    4    0.311709    0.442701   -0.230576    31.00000    0.03278    0.03596 =
         0.02862   -0.00218    0.00529    0.00380
C59   1    0.232605    0.453154   -0.283848    31.00000    0.02899    0.04295 =
         0.02377    0.00854    0.00742    0.00296
AFIX  23
H59A  2    0.223240    0.489223   -0.285854    31.00000   -1.20000
H59B  2    0.195895    0.437101   -0.260009    31.00000   -1.20000
AFIX   0
C60   1    0.219237    0.433868   -0.372746    31.00000    0.04207    0.07281 =
         0.02950   -0.00099    0.00988   -0.00747
AFIX  23
H60A  2    0.255244    0.451198   -0.396070    31.00000   -1.20000
H60B  2    0.165401    0.442330   -0.409333    31.00000   -1.20000
AFIX   0
C61   1    0.230741    0.378053   -0.378693    31.00000    0.04174    0.07336 =
         0.04373   -0.01746    0.02032   -0.03198
AFIX  23
H61A  2    0.212993    0.361560   -0.335677    31.00000   -1.20000
H61B  2    0.196336    0.366730   -0.435537    31.00000   -1.20000
AFIX   0
C62   1    0.311064    0.361006   -0.366093    31.00000    0.05563    0.08567 =
         0.05891   -0.02359    0.02080   -0.01342
AFIX  23
H62A  2    0.345419    0.369933   -0.307799    31.00000   -1.20000
H62B  2    0.330502    0.378387   -0.406987    31.00000   -1.20000
AFIX   0
C63   1    0.315852    0.306076   -0.378150    31.00000    0.07547    0.08274 =
         0.05397   -0.02121    0.02512   -0.01112
AFIX  23
H63A  2    0.282538    0.297732   -0.437151    31.00000   -1.20000
H63B  2    0.293727    0.289121   -0.339096    31.00000   -1.20000
AFIX   0
C64   1    0.398086    0.285201   -0.362653    31.00000    0.09302    0.08656 =
         0.07413   -0.00615    0.03684   -0.00238
AFIX  23
H64A  2    0.423036    0.304677   -0.396425    31.00000   -1.20000
H64B  2    0.429752    0.289446   -0.301669    31.00000   -1.20000
AFIX   0
C65   1    0.398908    0.231362   -0.385787    31.00000    0.12422    0.07342 =
         0.08074   -0.01315    0.03402   -0.00327
AFIX  23
H65A  2    0.365755    0.226941   -0.446241    31.00000   -1.20000
H65B  2    0.375573    0.211774   -0.350594    31.00000   -1.20000
AFIX   0
C66   1    0.481783    0.210615   -0.373002    31.00000    0.13439    0.11984 =
         0.08189   -0.00101    0.05372    0.02096
AFIX  23
H66A  2    0.474854    0.177683   -0.400371    31.00000   -1.20000
H66B  2    0.505398    0.232207   -0.405380    31.00000   -1.20000
AFIX   0
C67   1    0.539932    0.205079   -0.285554    31.00000    0.16167    0.09988 =
         0.09947   -0.00008    0.04832    0.04875
AFIX 137
H67A  2    0.585664    0.225547   -0.280030    31.00000   -1.50000
H67B  2    0.555791    0.170395   -0.275535    31.00000   -1.50000
H67C  2    0.516609    0.215651   -0.243547    31.00000   -1.50000
AFIX   0
PART 1
O15   4    0.513889    0.614249    0.601589    81.00000    0.03208    0.10426 =
         0.21243    0.00498   -0.01452   -0.00327
AFIX 147
H15   2    0.489452    0.588532    0.579697    81.00000   -1.50000
AFIX   0
C85   1    0.509884    0.621053    0.684684    81.00000    0.07421    0.19293 =
         0.09684   -0.03900    0.02891   -0.03764
AFIX 137
H85A  2    0.532417    0.592248    0.720119    81.00000   -1.50000
H85B  2    0.455311    0.624853    0.680413    81.00000   -1.50000
H85C  2    0.539173    0.650733    0.710625    81.00000   -1.50000
AFIX   0
PART 2
SAME O3 > C34
O8B   4    0.310706    0.453594   -0.235069    91.00000    0.03278    0.03596 =
         0.02862   -0.00218    0.00529    0.00380
C59B  1    0.230273    0.457799   -0.290054    91.00000    0.03681    0.04843 =
         0.05365   -0.00299   -0.00861   -0.00708
AFIX  23
H59C  2    0.212142    0.492348   -0.291362    91.00000   -1.20000
H59D  2    0.196700    0.436365   -0.269225    91.00000   -1.20000
AFIX   0
C60B  1    0.226758    0.441742   -0.378041    91.00000    0.04763    0.08614 =
         0.05039   -0.01907   -0.00682    0.00331
AFIX  23
H60C  2    0.171445    0.440432   -0.415594    91.00000   -1.20000
H60D  2    0.252999    0.467050   -0.401426    91.00000   -1.20000
AFIX   0
C61B  1    0.263838    0.392189   -0.380872    91.00000    0.09108    0.11585 =
         0.11884   -0.06464   -0.03207    0.03338
AFIX  23
H61C  2    0.315579    0.400633   -0.383851    91.00000   -1.20000
H61D  2    0.274361    0.378440   -0.323050    91.00000   -1.20000
AFIX   0
C62B  1    0.240092    0.351426   -0.434521    91.00000    0.13330    0.09431 =
         0.10789   -0.03098    0.00919    0.00666
AFIX  23
H62C  2    0.236684    0.362898   -0.491994    91.00000   -1.20000
H62D  2    0.186048    0.344147   -0.437696    91.00000   -1.20000
AFIX   0
C63B  1    0.281308    0.302893   -0.421631    91.00000    0.16164    0.10067 =
         0.07788   -0.01557    0.04299    0.02550
AFIX  23
H63C  2    0.264483    0.285065   -0.476749    91.00000   -1.20000
H63D  2    0.264417    0.283104   -0.381229    91.00000   -1.20000
AFIX   0
C64B  1    0.370452    0.305427   -0.387950    91.00000    0.16976    0.12910 =
         0.15136   -0.00594    0.04144    0.03889
AFIX  23
H64C  2    0.386181    0.323177   -0.332785    91.00000   -1.20000
H64D  2    0.386158    0.326381   -0.427888    91.00000   -1.20000
AFIX   0
C65B  1    0.419508    0.257697   -0.373768    91.00000    0.19981    0.12094 =
         0.16222   -0.03624    0.04055    0.05163
AFIX  23
H65C  2    0.398547    0.234988   -0.340457    91.00000   -1.20000
H65D  2    0.408643    0.242324   -0.430478    91.00000   -1.20000
AFIX   0
C66B  1    0.507466    0.258264   -0.330624    91.00000    0.20368    0.18384 =
         0.17699   -0.08031    0.03286    0.06575
AFIX  23
H66C  2    0.523750    0.291071   -0.344653    91.00000   -1.20000
H66D  2    0.515679    0.259312   -0.268872    91.00000   -1.20000
AFIX   0
C67B  1    0.568156    0.223778   -0.337812    91.00000    0.26596    0.12212 =
         0.17024    0.05923    0.15397    0.06904
AFIX 137
H67D  2    0.554568    0.189915   -0.327586    91.00000   -1.50000
H67E  2    0.618691    0.232559   -0.295455    91.00000   -1.50000
H67F  2    0.571252    0.226108   -0.395139    91.00000   -1.50000
AFIX   0
O15B  4    0.495913    0.660900    0.733811   111.00000    0.15158    0.14041 =
         0.09867   -0.01275    0.05114   -0.07676
AFIX   3
H15A  2    0.472199    0.651076    0.683345   111.00000   -1.50000
H15B  2    0.516515    0.635247    0.762072   111.00000   -1.50000
AFIX   0
PART 0
C68   1   -0.033003    0.641779    0.397005    11.00000    0.02425    0.05908 =
         0.19390   -0.03140    0.02451   -0.00270
AFIX 137
H68A  2   -0.026144    0.612115    0.366693    11.00000   -1.50000
H68B  2   -0.074060    0.662479    0.358369    11.00000   -1.50000
H68C  2   -0.047792    0.632150    0.445954    11.00000   -1.50000
AFIX   0
C69   1   -0.088202    0.748784    0.471675    11.00000    0.08824    0.05623 =
         0.19627   -0.00105    0.09094    0.01541
AFIX 137
H69A  2   -0.111171    0.719315    0.487639    11.00000   -1.50000
H69B  2   -0.108307    0.752571    0.409527    11.00000   -1.50000
H69C  2   -0.101962    0.777971    0.498215    11.00000   -1.50000
AFIX   0
PART 1
O14   4    0.033139    0.730096    0.668204    41.00000    0.06223    0.05873 =
         0.09118   -0.03329    0.04314   -0.02117
C70   1    0.093676    0.732021    0.741889    41.00000    0.07623    0.02801 =
         0.06973   -0.00956    0.04220   -0.00328
C71   1    0.077167    0.732233    0.822601    41.00000    0.09251    0.04367 =
         0.06688    0.00375    0.04714    0.00559
AFIX 137
H71A  2    0.113445    0.709932    0.863578    41.00000   -1.50000
H71B  2    0.023552    0.721116    0.811719    41.00000   -1.50000
H71C  2    0.083561    0.765790    0.846004    41.00000   -1.50000
AFIX   0
N3    3    0.163986    0.735317    0.738267    41.00000    0.06345    0.03801 =
         0.06150   -0.00545    0.01904    0.00891
C72   1    0.175518    0.732190    0.658572    41.00000    0.07576    0.03283 =
         0.06695   -0.00042    0.04656    0.00891
AFIX 137
H72A  2    0.142412    0.706005    0.624110    41.00000   -1.50000
H72B  2    0.230321    0.724607    0.668041    41.00000   -1.50000
H72C  2    0.161784    0.763799    0.628536    41.00000   -1.50000
AFIX   0
C73   1    0.230838    0.744176    0.815638    41.00000    0.07588    0.06420 =
         0.05104   -0.00814    0.01473    0.01036
AFIX 137
H73A  2    0.212983    0.747131    0.864482    41.00000   -1.50000
H73B  2    0.256914    0.774811    0.809320    41.00000   -1.50000
H73C  2    0.267462    0.716528    0.825015    41.00000   -1.50000
AFIX   0
PART 2
O16   4    0.101995    0.730743    0.674276   -41.00000    0.38994    0.03775 =
         0.11948    0.02184    0.12644    0.03369
AFIX   3
H16A  2    0.135310    0.736002    0.649939   -41.00000   -1.50000
H16B  2    0.084796    0.701953    0.660253   -41.00000   -1.50000
AFIX   0
O17   4    0.043809    0.755473    0.789596   -41.00000    0.06807    0.06803 =
         0.06525   -0.01969    0.01132    0.01157
AFIX 147
H17   2    0.072758    0.748692    0.761409   -41.00000   -1.50000
AFIX   0
C74   1    0.034122    0.713888    0.832898   -41.00000    0.09158    0.07706 =
         0.10173   -0.02556    0.04499   -0.01179
AFIX 137
H74A  2    0.080740    0.708854    0.883334   -41.00000   -1.50000
H74B  2    0.026089    0.685035    0.795412   -41.00000   -1.50000
H74C  2   -0.011335    0.718282    0.850656   -41.00000   -1.50000
AFIX   0
PART 1
SAME O14 > C73
O18   4    0.581389    0.535308    0.474771    51.00000    0.04629    0.04306 =
         0.06353    0.00593    0.02002    0.00917
C76   1    0.549841    0.543522    0.392047    51.00000    0.04513    0.05057 =
         0.06069    0.00031    0.01379   -0.00442
C77   1    0.565177    0.509215    0.329147    51.00000    0.09190    0.03901 =
         0.04200    0.02255    0.01932    0.01842
AFIX 137
H77A  2    0.574866    0.528513    0.284136    51.00000   -1.50000
H77B  2    0.519756    0.487855    0.303865    51.00000   -1.50000
H77C  2    0.610935    0.488843    0.358311    51.00000   -1.50000
AFIX   0
N4    3    0.511867    0.584401    0.363886    51.00000    0.06372    0.05030 =
         0.08826    0.00740    0.00513    0.00507
C78   1    0.502695    0.618294    0.427588    51.00000    0.10810    0.08587 =
         0.12430   -0.01091    0.02000    0.02841
AFIX 137
H78A  2    0.463971    0.605049    0.450474    51.00000   -1.50000
H78B  2    0.485181    0.650502    0.401168    51.00000   -1.50000
H78C  2    0.552765    0.622124    0.473962    51.00000   -1.50000
AFIX   0
C79   1    0.483294    0.589352    0.271009    51.00000    0.06718    0.09814 =
         0.08093    0.00934    0.00128   -0.02634
AFIX 137
H79A  2    0.462038    0.557659    0.244943    51.00000   -1.50000
H79B  2    0.526365    0.599158    0.252057    51.00000   -1.50000
H79C  2    0.442332    0.614558    0.253797    51.00000   -1.50000
AFIX   0
PART 3
C75   1    0.462948    0.582731    0.518462    91.00000    0.01922    0.05309 =
         0.09853   -0.01603    0.01332    0.00437
AFIX 137
H75A  2    0.457599    0.607576    0.558785    91.00000   -1.50000
H75B  2    0.473398    0.599201    0.471232    91.00000   -1.50000
H75C  2    0.506227    0.560497    0.547675    91.00000   -1.50000
AFIX   0
C82   1    0.342309    0.428650    0.366928    71.00000    0.07597    0.08717 =
         0.13731   -0.02366    0.04685   -0.00386
AFIX 137
H82A  2    0.374993    0.406783    0.346642    71.00000   -1.50000
H82B  2    0.294212    0.411382    0.363662    71.00000   -1.50000
H82C  2    0.370643    0.438099    0.426180    71.00000   -1.50000
AFIX   0
O20   4    0.324093    0.470503    0.316596    71.00000    0.06583    0.06782 =
         0.08717   -0.01333    0.02395   -0.01102
AFIX 147
H20A  2    0.314815    0.462633    0.265388    71.00000   -1.50000
AFIX   0
PART 2
O21   4    0.387334    0.504294    0.343999    61.00000    0.03509    0.06987 =
         0.08388   -0.03652    0.02652   -0.01007
AFIX   3
H21A  2    0.385298    0.486078    0.387482    61.00000   -1.50000
H21B  2    0.377180    0.482176    0.304718    61.00000   -1.50000
AFIX   0
O22   4    0.557533    0.531412    0.274778    61.00000    0.07160    0.14043 =
         0.10927    0.02627    0.04320    0.00922
AFIX 147
H22   2    0.523203    0.552874    0.270597    61.00000   -1.50000
AFIX   0
C80   1    0.578085    0.508794    0.354211    61.00000    0.07160    0.14043 =
         0.10927    0.02627    0.04320    0.00922
AFIX 137
H80A  2    0.624219    0.488086    0.363124    61.00000   -1.50000
H80B  2    0.534763    0.488236    0.356718    61.00000   -1.50000
H80C  2    0.589761    0.534118    0.398784    61.00000   -1.50000
AFIX   0
O23   4    0.422998    0.576209    0.248976    61.00000    0.06363    0.05824 =
         0.12165    0.01365    0.00644   -0.01254
AFIX 147
H23O  2    0.407816    0.550451    0.266581    61.00000    0.07509
AFIX   0
C81   1    0.415758    0.619834    0.302714    61.00000    0.19353    0.15337 =
         0.06903    0.01872    0.00145   -0.13067
AFIX 137
H81A  2    0.460508    0.620353    0.355997    61.00000   -1.50000
H81B  2    0.367535    0.616812    0.315689    61.00000   -1.50000
H81C  2    0.414553    0.650534    0.271190    61.00000   -1.50000
AFIX   0
PART 4
C83   1    0.406188    0.508258    0.554244   101.00000    0.03549    0.03528 =
         0.03910   -0.00031    0.01145    0.00579
AFIX 137
H83A  2    0.448985    0.516403    0.606885   101.00000   -1.50000
H83B  2    0.419389    0.478372    0.528991   101.00000   -1.50000
H83C  2    0.358471    0.502529    0.567230   101.00000   -1.50000
AFIX   0
PART 0
N1    3    0.321566    0.306954    0.377843    11.00000    0.03378    0.02987 =
         0.09830   -0.01089    0.02904   -0.00591
AFIX  93
H1A   2    0.371921    0.305386    0.387018    11.00000   -1.20000
H1B   2    0.299251    0.335732    0.378096    11.00000   -1.20000
AFIX   0
N2    3    0.416044    0.485117    0.116760    11.00000    0.04422    0.07102 =
         0.03194   -0.00563    0.00995    0.00594
AFIX  93
H2A   2    0.462858    0.474988    0.148294    11.00000   -1.20000
H2B   2    0.387216    0.501732    0.140209    11.00000   -1.20000
AFIX   0
O1    4    0.104504    0.568674    0.419290    11.00000    0.02295    0.02748 =
         0.04113   -0.00478    0.00590    0.00161
O2    4    0.218252    0.528068    0.448365    11.00000    0.02141    0.02946 =
         0.04030   -0.00237    0.00945    0.00053
O4    4    0.676214    0.343639    0.512890    11.00000    0.02158    0.03323 =
         0.05862   -0.01360    0.01550   -0.00291
O5    4    0.787046    0.306186    0.515534    11.00000    0.02040    0.03408 =
         0.05227   -0.01002    0.01559   -0.00351
O6    4    0.144970    0.642204    0.329157    11.00000    0.02982    0.04068 =
         0.03659   -0.00194    0.01596    0.00510
O7    4    0.251249    0.595819    0.345272    11.00000    0.02704    0.03901 =
         0.03491   -0.00158    0.01437    0.00179
O9    4    0.707360    0.412588    0.410140    11.00000    0.02419    0.05008 =
         0.02997   -0.00628    0.00605    0.00796
O10   4    0.826489    0.381616    0.429539    11.00000    0.01785    0.04184 =
         0.03252   -0.00427    0.00445    0.00108
O11   4    0.037643    0.668595    0.425846    11.00000    0.01900    0.04324 =
         0.05406   -0.00809    0.01108    0.00265
H11O  2    0.042166    0.690485    0.461769    11.00000   -1.50000
O12   4    0.392156    0.554812    0.485822    11.00000    0.03037    0.07554 =
         0.07462   -0.01042    0.01792    0.01919
PART 3
AFIX   3
H12A  2    0.382561    0.541348    0.526461    91.00000   -1.50000
AFIX   3
PART 4
H12B  2    0.399102    0.544945    0.441266   101.00000   -1.50000
AFIX   0
PART 1
H12C  2    0.385426    0.532604    0.445104    81.00000   -1.50000
H12D  2    0.404537    0.534841    0.529277    81.00000   -1.50000
PART 0
O13   4   -0.004398    0.743617    0.500643    11.00000    0.08886    0.05363 =
         0.10655   -0.01892    0.05321   -0.00632
AFIX 147
H13A  2    0.012951    0.741108    0.554030    11.00000   -1.50000
AFIX   0
CU1   5    0.149255    0.634250    0.448728    11.00000    0.01483    0.02804 =
         0.03399   -0.00493    0.00719    0.00135
CU2   5    0.280654    0.588908    0.468880    11.00000    0.01547    0.02982 =
         0.03449   -0.00595    0.00789    0.00141
HKLF 4

REM  Prosp14mz029_0m1 in P2(1)/c
REM R1 =  0.0511 for   11546 Fo > 4sig(Fo)  and  0.0587 for all   13282 data
REM   1267 parameters refined using    971 restraints

END

WGHT      0.0744      9.3422

REM Highest difference peak  0.704,  deepest hole -0.461,  1-sigma level  0.063
Q1    1   0.0566  0.7392  0.5475  11.00000  0.05    0.61
Q2    1   0.4027  0.5468  0.3073  11.00000  0.05    0.59
Q3    1   0.7145  0.4106  0.4696  11.00000  0.05    0.54
Q4    1   0.3951  0.6821  0.3240  11.00000  0.05    0.53
Q5    1   0.1640  0.6309  0.5110  11.00000  0.05    0.48
Q6    1   0.4379  0.5851  0.4365  11.00000  0.05    0.45
Q7    1   0.2250  0.7488  0.7399  11.00000  0.05    0.44
Q8    1   0.5166  0.6182  0.4874  11.00000  0.05    0.44
Q9    1  -0.0277  0.7487  0.5499  11.00000  0.05    0.43
Q10   1   0.1580  0.6386  0.3871  11.00000  0.05    0.37
Q11   1   0.4581  0.5713  0.2119  11.00000  0.05    0.37
Q12   1   0.2378  0.3497 -0.3712  11.00000  0.05    0.36
Q13   1   0.2761  0.4100 -0.4009  11.00000  0.05    0.35
Q14   1   0.3610  0.6446  0.2920  11.00000  0.05    0.34
Q15   1   0.2693  0.5995  0.4000  11.00000  0.05    0.34
Q16   1   0.2742  0.4878  0.3158  11.00000  0.05    0.32
Q17   1   0.3617  0.4656  0.2783  11.00000  0.05    0.31
Q18   1  -0.0229  0.4384  0.3379  11.00000  0.05    0.31
Q19   1   0.0037  0.7424  0.5991  11.00000  0.05    0.30
Q20   1   0.4095  0.5183  0.5955  11.00000  0.05    0.30
;
_shelx_res_checksum              29941
#END Tags that were not found in dictionaries
loop_
_space_group_symop_operation_xyz
'x, y, z'
'-x, y+1/2, -z+1/2'
'-x, -y, -z'
'x, -y-1/2, z-1/2'
loop_
_atom_site_label
_atom_site_type_symbol
_atom_site_fract_x
_atom_site_fract_y
_atom_site_fract_z
_atom_site_U_iso_or_equiv
_atom_site_adp_type
_atom_site_occupancy
_atom_site_site_symmetry_order
_atom_site_calc_flag
_atom_site_refinement_flags_posn
_atom_site_refinement_flags_adp
_atom_site_refinement_flags_occupancy
_atom_site_disorder_assembly
_atom_site_disorder_group
C1 C 0.14494(14) 0.53020(9) 0.42676(15) 0.0268(5) Uani 1 1 d . . . . .
C2 C 0.10087(14) 0.48245(9) 0.40732(16) 0.0287(5) Uani 1 1 d . . . . .
C3 C 0.02425(16) 0.48084(11) 0.4064(2) 0.0418(7) Uani 1 1 d . . . . .
H3 H -0.0005 0.5102 0.4151 0.050 Uiso 1 1 calc R U . . .
C4 C -0.01556(19) 0.43662(12) 0.3928(3) 0.0641(11) Uani 1 1 d . . . . .
H4 H -0.0671 0.4353 0.3943 0.077 Uiso 1 1 calc R U . . .
C5 C 0.01942(18) 0.39404(12) 0.3770(3) 0.0601(10) Uani 1 1 d . . . . .
H5 H -0.0087 0.3638 0.3663 0.072 Uiso 1 1 calc R U . . .
C6 C 0.09593(16) 0.39534(10) 0.3766(2) 0.0397(7) Uani 1 1 d . . . . .
C7 C 0.13661(15) 0.43981(9) 0.39347(17) 0.0299(5) Uani 1 1 d . . . . .
H7 H 0.1892 0.4409 0.3955 0.036 Uiso 1 1 calc R U . . .
C8 C 0.13276(16) 0.35078(11) 0.3637(2) 0.0433(7) Uani 1 1 d . . . . .
C9 C 0.16153(17) 0.31229(11) 0.3551(2) 0.0442(7) Uani 1 1 d . . . . .
C10 C 0.19738(17) 0.26602(10) 0.3501(2) 0.0414(7) Uani 1 1 d . . . . .
C14 C 0.31228(15) 0.21820(10) 0.3625(2) 0.0370(6) Uani 1 1 d . . . . .
C15 C 0.27771(16) 0.26440(10) 0.3631(2) 0.0390(6) Uani 1 1 d . . . . .
C16 C 0.39480(16) 0.21564(10) 0.3793(2) 0.0369(6) Uani 1 1 d . . . . .
C17 C 0.46368(16) 0.21617(10) 0.3964(2) 0.0369(6) Uani 1 1 d . . . . .
C18 C 0.54685(15) 0.21681(10) 0.41629(19) 0.0338(6) Uani 1 1 d . . . . .
C19 C 0.58601(16) 0.17530(10) 0.4017(2) 0.0386(6) Uani 1 1 d . . . . .
H19 H 0.5577 0.1460 0.3796 0.046 Uiso 1 1 calc R U . . .
C20 C 0.66596(16) 0.17663(10) 0.4194(2) 0.0384(6) Uani 1 1 d . . . . .
H20 H 0.6919 0.1484 0.4083 0.046 Uiso 1 1 calc R U . . .
C21 C 0.70802(15) 0.21876(10) 0.45310(18) 0.0334(6) Uani 1 1 d . . . . .
H21 H 0.7628 0.2194 0.4655 0.040 Uiso 1 1 calc R U . . .
C22 C 0.66982(15) 0.26042(10) 0.46889(18) 0.0316(6) Uani 1 1 d . . . . .
C23 C 0.58965(15) 0.25920(10) 0.45047(18) 0.0322(6) Uani 1 1 d . . . . .
H23 H 0.5637 0.2875 0.4612 0.039 Uiso 1 1 calc R U . . .
C24 C 0.71448(14) 0.30710(10) 0.50221(18) 0.0330(6) Uani 1 1 d . . . . .
C11 C 0.1516(10) 0.2252(4) 0.3292(11) 0.035(3) Uani 0.634(5) 1 d D U P A 1
H11 H 0.0968 0.2277 0.3158 0.041 Uiso 0.634(5) 1 calc R U P A 1
C12 C 0.1858(6) 0.1801(4) 0.3276(8) 0.033(2) Uani 0.634(5) 1 d D U P A 1
C13 C 0.2658(6) 0.1775(5) 0.3423(10) 0.031(3) Uani 0.634(5) 1 d D U P A 1
H13 H 0.2884 0.1465 0.3380 0.037 Uiso 0.634(5) 1 calc R U P A 1
O3 O 0.1472(4) 0.1354(3) 0.3121(5) 0.0410(16) Uani 0.634(5) 1 d D . P A 1
C25 C 0.0667(3) 0.13595(17) 0.3070(4) 0.0451(14) Uani 0.634(5) 1 d D U P A 1
H25A H 0.0347 0.1549 0.2564 0.054 Uiso 0.634(5) 1 calc R U P A 1
H25B H 0.0618 0.1515 0.3586 0.054 Uiso 0.634(5) 1 calc R U P A 1
C26 C 0.0400(3) 0.08272(16) 0.3001(3) 0.0416(12) Uani 0.634(5) 1 d D U P A 1
H26A H 0.0547 0.0660 0.2550 0.050 Uiso 0.634(5) 1 calc R U P A 1
H26B H -0.0175 0.0818 0.2829 0.050 Uiso 0.634(5) 1 calc R U P A 1
C27 C 0.0752(4) 0.0548(2) 0.3831(5) 0.0485(17) Uani 0.634(5) 1 d D U P A 1
H27A H 0.0585 0.0709 0.4273 0.058 Uiso 0.634(5) 1 calc R U P A 1
H27B H 0.1327 0.0573 0.4015 0.058 Uiso 0.634(5) 1 calc R U P A 1
C28 C 0.0525(3) 0.0005(2) 0.3777(5) 0.0513(14) Uani 0.634(5) 1 d D U P A 1
H28A H 0.0686 -0.0153 0.3329 0.062 Uiso 0.634(5) 1 calc R U P A 1
H28B H 0.0822 -0.0155 0.4326 0.062 Uiso 0.634(5) 1 calc R U P A 1
C29 C -0.0326(5) -0.0095(4) 0.3586(8) 0.050(2) Uani 0.634(5) 1 d D U P A 1
H29A H -0.0616 0.0007 0.2991 0.060 Uiso 0.634(5) 1 calc R U P A 1
H29B H -0.0512 0.0112 0.3966 0.060 Uiso 0.634(5) 1 calc R U P A 1
C30 C -0.0519(5) -0.0636(4) 0.3696(8) 0.049(2) Uani 0.634(5) 1 d D U P A 1
H30A H -0.0313 -0.0840 0.3328 0.059 Uiso 0.634(5) 1 calc R U P A 1
H30B H -0.0231 -0.0732 0.4293 0.059 Uiso 0.634(5) 1 calc R U P A 1
C31 C -0.1369(6) -0.0770(3) 0.3496(6) 0.0506(18) Uani 0.634(5) 1 d D U P A 1
H31A H -0.1653 -0.0712 0.2882 0.061 Uiso 0.634(5) 1 calc R U P A 1
H31B H -0.1595 -0.0549 0.3822 0.061 Uiso 0.634(5) 1 calc R U P A 1
C32 C -0.1498(4) -0.1305(2) 0.3705(5) 0.0541(15) Uani 0.634(5) 1 d D U P A 1
H32A H -0.1306 -0.1526 0.3348 0.065 Uiso 0.634(5) 1 calc R U P A 1
H32B H -0.1182 -0.1370 0.4309 0.065 Uiso 0.634(5) 1 calc R U P A 1
C33 C -0.2345(4) -0.1437(2) 0.3568(5) 0.0620(17) Uani 0.634(5) 1 d D U P A 1
H33A H -0.2387 -0.1800 0.3611 0.074 Uiso 0.634(5) 1 calc R U P A 1
H33B H -0.2671 -0.1339 0.2982 0.074 Uiso 0.634(5) 1 calc R U P A 1
C34 C -0.2672(5) -0.1191(3) 0.4203(6) 0.067(2) Uani 0.634(5) 1 d D U P A 1
H34A H -0.2671 -0.0831 0.4135 0.101 Uiso 0.634(5) 1 calc R U P A 1
H34B H -0.2347 -0.1279 0.4786 0.101 Uiso 0.634(5) 1 calc R U P A 1
H34C H -0.3207 -0.1305 0.4093 0.101 Uiso 0.634(5) 1 calc R U P A 1
C11B C 0.1559(17) 0.2173(7) 0.348(2) 0.037(5) Uani 0.366(5) 1 d D U P A 2
H11B H 0.1030 0.2176 0.3445 0.045 Uiso 0.366(5) 1 calc R U P A 2
C12B C 0.1926(10) 0.1729(6) 0.3505(15) 0.035(4) Uani 0.366(5) 1 d D U P A 2
C13B C 0.2719(11) 0.1706(10) 0.3619(19) 0.033(5) Uani 0.366(5) 1 d D U P A 2
H13B H 0.2988 0.1399 0.3690 0.040 Uiso 0.366(5) 1 calc R U P A 2
O3B O 0.1565(6) 0.1279(5) 0.3446(9) 0.044(3) Uani 0.366(5) 1 d D . P A 2
C25B C 0.0865(5) 0.1276(3) 0.3662(7) 0.0382(19) Uani 0.366(5) 1 d D U P A 2
H25C H 0.0426 0.1418 0.3188 0.046 Uiso 0.366(5) 1 calc R U P A 2
H25D H 0.0942 0.1478 0.4179 0.046 Uiso 0.366(5) 1 calc R U P A 2
C26B C 0.0686(7) 0.0744(3) 0.3823(7) 0.036(2) Uani 0.366(5) 1 d D U P A 2
H26C H 0.0248 0.0745 0.4046 0.043 Uiso 0.366(5) 1 calc R U P A 2
H26D H 0.1146 0.0605 0.4273 0.043 Uiso 0.366(5) 1 calc R U P A 2
C27B C 0.0474(4) 0.0405(2) 0.3051(5) 0.0341(18) Uani 0.366(5) 1 d D U P A 2
H27C H 0.0917 0.0392 0.2838 0.041 Uiso 0.366(5) 1 calc R U P A 2
H27D H 0.0022 0.0546 0.2593 0.041 Uiso 0.366(5) 1 calc R U P A 2
C28B C 0.0275(5) -0.0120(3) 0.3236(6) 0.0367(18) Uani 0.366(5) 1 d D U P A 2
H28C H 0.0250 -0.0335 0.2747 0.044 Uiso 0.366(5) 1 calc R U P A 2
H28D H 0.0696 -0.0246 0.3744 0.044 Uiso 0.366(5) 1 calc R U P A 2
C29B C -0.0486(8) -0.0151(7) 0.3390(13) 0.043(4) Uani 0.366(5) 1 d D U P A 2
H29C H -0.0899 -0.0004 0.2896 0.052 Uiso 0.366(5) 1 calc R U P A 2
H29D H -0.0448 0.0049 0.3899 0.052 Uiso 0.366(5) 1 calc R U P A 2
C30B C -0.0725(9) -0.0680(7) 0.3525(14) 0.054(4) Uani 0.366(5) 1 d D U P A 2
H30C H -0.0776 -0.0880 0.3013 0.065 Uiso 0.366(5) 1 calc R U P A 2
H30D H -0.0313 -0.0830 0.4016 0.065 Uiso 0.366(5) 1 calc R U P A 2
C31B C -0.1491(10) -0.0685(6) 0.3690(15) 0.074(5) Uani 0.366(5) 1 d D U P A 2
H31C H -0.1428 -0.0488 0.4208 0.089 Uiso 0.366(5) 1 calc R U P A 2
H31D H -0.1891 -0.0520 0.3206 0.089 Uiso 0.366(5) 1 calc R U P A 2
C32B C -0.1788(10) -0.1193(6) 0.3805(15) 0.105(5) Uani 0.366(5) 1 d D U P A 2
H32C H -0.1405 -0.1350 0.4312 0.126 Uiso 0.366(5) 1 calc R U P A 2
H32D H -0.1818 -0.1398 0.3303 0.126 Uiso 0.366(5) 1 calc R U P A 2
C33B C -0.2582(13) -0.1198(9) 0.391(2) 0.140(8) Uani 0.366(5) 1 d D U P A 2
H33C H -0.2581 -0.0940 0.4332 0.168 Uiso 0.366(5) 1 calc R U P A 2
H33D H -0.2976 -0.1101 0.3360 0.168 Uiso 0.366(5) 1 calc R U P A 2
C34B C -0.2840(14) -0.1663(9) 0.4184(18) 0.187(10) Uani 0.366(5) 1 d D U P A 2
H34D H -0.3377 -0.1627 0.4174 0.281 Uiso 0.366(5) 1 calc R U P A 2
H34E H -0.2499 -0.1744 0.4765 0.281 Uiso 0.366(5) 1 calc R U P A 2
H34F H -0.2817 -0.1930 0.3796 0.281 Uiso 0.366(5) 1 calc R U P A 2
C35 C 0.19038(15) 0.61872(9) 0.30078(18) 0.0311(6) Uani 1 1 d . . . . .
C36 C 0.17043(14) 0.61667(9) 0.20607(17) 0.0303(5) Uani 1 1 d . . . . .
C37 C 0.11122(16) 0.64589(10) 0.15196(19) 0.0347(6) Uani 1 1 d . . . . .
H37 H 0.0837 0.6682 0.1752 0.042 Uiso 1 1 calc R U . . .
C38 C 0.09226(17) 0.64261(11) 0.06425(19) 0.0398(6) Uani 1 1 d . . . . .
H38 H 0.0524 0.6630 0.0278 0.048 Uiso 1 1 calc R U . . .
C39 C 0.13125(16) 0.60965(11) 0.02951(18) 0.0376(6) Uani 1 1 d . . . . .
H39 H 0.1178 0.6074 -0.0306 0.045 Uiso 1 1 calc R U . . .
C40 C 0.19062(16) 0.57954(10) 0.08316(18) 0.0335(6) Uani 1 1 d . . . . .
C41 C 0.21012(15) 0.58372(9) 0.17097(18) 0.0311(6) Uani 1 1 d . . . . .
H41 H 0.2509 0.5640 0.2076 0.037 Uiso 1 1 calc R U . . .
C42 C 0.23201(16) 0.54604(11) 0.04736(18) 0.0367(6) Uani 1 1 d . . . . .
C43 C 0.26747(16) 0.51986(11) 0.01540(18) 0.0374(6) Uani 1 1 d . . . . .
C44 C 0.31321(16) 0.49110(10) -0.02184(18) 0.0340(6) Uani 1 1 d . . . . .
C45 C 0.28586(15) 0.48167(10) -0.10952(17) 0.0324(6) Uani 1 1 d . . . . .
H45 H 0.2354 0.4927 -0.1438 0.039 Uiso 1 1 calc R U . . .
C46 C 0.33170(15) 0.45649(10) -0.14655(17) 0.0324(6) Uani 1 1 d . . . . .
C47 C 0.40521(15) 0.43947(10) -0.09530(18) 0.0330(6) Uani 1 1 d . . . . .
H47 H 0.4364 0.4216 -0.1205 0.040 Uiso 1 1 calc R U . . .
C48 C 0.43318(16) 0.44838(10) -0.00813(18) 0.0336(6) Uani 1 1 d . . . . .
C49 C 0.38784(16) 0.47495(10) 0.03054(18) 0.0355(6) Uani 1 1 d . . . . .
C50 C 0.50887(17) 0.43182(10) 0.04401(18) 0.0369(6) Uani 1 1 d . . . . .
C51 C 0.57245(17) 0.42003(10) 0.09094(18) 0.0376(6) Uani 1 1 d . . . . .
C52 C 0.64925(16) 0.40740(10) 0.14694(18) 0.0341(6) Uani 1 1 d . . . . .
C53 C 0.70654(18) 0.39305(11) 0.11349(19) 0.0418(7) Uani 1 1 d . . . . .
H53 H 0.6942 0.3908 0.0535 0.050 Uiso 1 1 calc R U . . .
C54 C 0.78106(19) 0.38213(13) 0.1677(2) 0.0474(8) Uani 1 1 d . . . . .
H54 H 0.8201 0.3732 0.1447 0.057 Uiso 1 1 calc R U . . .
C55 C 0.79925(17) 0.38403(11) 0.25508(19) 0.0390(6) Uani 1 1 d . . . . .
H55 H 0.8504 0.3760 0.2918 0.047 Uiso 1 1 calc R U . . .
C56 C 0.74242(14) 0.39781(9) 0.28967(17) 0.0293(5) Uani 1 1 d . . . . .
C57 C 0.66800(15) 0.40987(9) 0.23478(17) 0.0309(5) Uani 1 1 d . . . . .
H57 H 0.6295 0.4199 0.2578 0.037 Uiso 1 1 calc R U . . .
C58 C 0.76041(14) 0.39767(9) 0.38355(17) 0.0301(5) Uani 1 1 d . . . . .
O8 O 0.3117(9) 0.4427(4) -0.2306(10) 0.0338(19) Uani 0.637(2) 1 d D . P B 1
C59 C 0.2326(8) 0.4532(6) -0.2838(8) 0.032(2) Uani 0.637(2) 1 d D U P B 1
H59A H 0.2232 0.4892 -0.2859 0.039 Uiso 0.637(2) 1 calc R U P B 1
H59B H 0.1959 0.4371 -0.2600 0.039 Uiso 0.637(2) 1 calc R U P B 1
C60 C 0.2192(9) 0.4339(3) -0.3727(7) 0.049(2) Uani 0.637(2) 1 d D U P B 1
H60A H 0.2552 0.4512 -0.3961 0.058 Uiso 0.637(2) 1 calc R U P B 1
H60B H 0.1654 0.4423 -0.4093 0.058 Uiso 0.637(2) 1 calc R U P B 1
C61 C 0.2307(3) 0.3781(2) -0.3787(4) 0.0515(14) Uani 0.637(2) 1 d D U P B 1
H61A H 0.2130 0.3616 -0.3357 0.062 Uiso 0.637(2) 1 calc R U P B 1
H61B H 0.1963 0.3667 -0.4355 0.062 Uiso 0.637(2) 1 calc R U P B 1
C62 C 0.3111(3) 0.3610(2) -0.3661(4) 0.0664(15) Uani 0.637(2) 1 d D U P B 1
H62A H 0.3454 0.3699 -0.3078 0.080 Uiso 0.637(2) 1 calc R U P B 1
H62B H 0.3305 0.3784 -0.4070 0.080 Uiso 0.637(2) 1 calc R U P B 1
C63 C 0.3159(4) 0.3061(3) -0.3782(5) 0.0700(17) Uani 0.637(2) 1 d D U P B 1
H63A H 0.2825 0.2977 -0.4372 0.084 Uiso 0.637(2) 1 calc R U P B 1
H63B H 0.2937 0.2891 -0.3391 0.084 Uiso 0.637(2) 1 calc R U P B 1
C64 C 0.3981(5) 0.2852(3) -0.3627(6) 0.082(2) Uani 0.637(2) 1 d D U P B 1
H64A H 0.4230 0.3047 -0.3964 0.099 Uiso 0.637(2) 1 calc R U P B 1
H64B H 0.4298 0.2894 -0.3017 0.099 Uiso 0.637(2) 1 calc R U P B 1
C65 C 0.3989(5) 0.2314(3) -0.3858(6) 0.093(2) Uani 0.637(2) 1 d D U P B 1
H65A H 0.3658 0.2269 -0.4462 0.112 Uiso 0.637(2) 1 calc R U P B 1
H65B H 0.3756 0.2118 -0.3506 0.112 Uiso 0.637(2) 1 calc R U P B 1
C66 C 0.4818(6) 0.2106(4) -0.3730(5) 0.108(3) Uani 0.637(2) 1 d D U P B 1
H66A H 0.4749 0.1777 -0.4004 0.129 Uiso 0.637(2) 1 calc R U P B 1
H66B H 0.5054 0.2322 -0.4054 0.129 Uiso 0.637(2) 1 calc R U P B 1
C67 C 0.5399(6) 0.2051(4) -0.2856(6) 0.119(3) Uani 0.637(2) 1 d D U P B 1
H67A H 0.5857 0.2255 -0.2800 0.179 Uiso 0.637(2) 1 calc R U P B 1
H67B H 0.5558 0.1704 -0.2755 0.179 Uiso 0.637(2) 1 calc R U P B 1
H67C H 0.5166 0.2157 -0.2435 0.179 Uiso 0.637(2) 1 calc R U P B 1
O15 O 0.5139(4) 0.6142(4) 0.6016(9) 0.131(5) Uani 0.410(3) 1 d . . P C 1
H15 H 0.4895 0.5885 0.5797 0.196 Uiso 0.410(3) 1 calc DR U P C 1
C85 C 0.5099(8) 0.6211(7) 0.6847(10) 0.121(6) Uani 0.410(3) 1 d . . P C 1
H85A H 0.5324 0.5922 0.7201 0.182 Uiso 0.410(3) 1 calc R U P C 1
H85B H 0.4553 0.6249 0.6804 0.182 Uiso 0.410(3) 1 calc R U P C 1
H85C H 0.5392 0.6507 0.7106 0.182 Uiso 0.410(3) 1 calc R U P C 1
O8B O 0.3107(17) 0.4536(9) -0.2351(19) 0.0338(19) Uani 0.363(2) 1 d D . P B 2
C59B C 0.2303(15) 0.4578(12) -0.2901(16) 0.053(6) Uani 0.363(2) 1 d D U P B 2
H59C H 0.2121 0.4923 -0.2914 0.063 Uiso 0.363(2) 1 calc R U P B 2
H59D H 0.1967 0.4364 -0.2692 0.063 Uiso 0.363(2) 1 calc R U P B 2
C60B C 0.2268(18) 0.4417(7) -0.3780(15) 0.068(6) Uani 0.363(2) 1 d D U P B 2
H60C H 0.1714 0.4404 -0.4156 0.081 Uiso 0.363(2) 1 calc R U P B 2
H60D H 0.2530 0.4670 -0.4014 0.081 Uiso 0.363(2) 1 calc R U P B 2
C61B C 0.2638(11) 0.3922(6) -0.3809(13) 0.126(6) Uani 0.363(2) 1 d D U P B 2
H61C H 0.3156 0.4006 -0.3839 0.152 Uiso 0.363(2) 1 calc R U P B 2
H61D H 0.2744 0.3784 -0.3230 0.152 Uiso 0.363(2) 1 calc R U P B 2
C62B C 0.2401(10) 0.3514(5) -0.4345(9) 0.120(5) Uani 0.363(2) 1 d D U P B 2
H62C H 0.2367 0.3629 -0.4920 0.144 Uiso 0.363(2) 1 calc R U P B 2
H62D H 0.1860 0.3441 -0.4377 0.144 Uiso 0.363(2) 1 calc R U P B 2
C63B C 0.2813(11) 0.3029(6) -0.4216(11) 0.113(5) Uani 0.363(2) 1 d D U P B 2
H63C H 0.2645 0.2851 -0.4767 0.135 Uiso 0.363(2) 1 calc R U P B 2
H63D H 0.2644 0.2831 -0.3812 0.135 Uiso 0.363(2) 1 calc R U P B 2
C64B C 0.3705(12) 0.3054(8) -0.3879(19) 0.154(7) Uani 0.363(2) 1 d D U P B 2
H64C H 0.3862 0.3232 -0.3328 0.184 Uiso 0.363(2) 1 calc R U P B 2
H64D H 0.3862 0.3264 -0.4279 0.184 Uiso 0.363(2) 1 calc R U P B 2
C65B C 0.4195(12) 0.2577(9) -0.3738(18) 0.167(8) Uani 0.363(2) 1 d D U P B 2
H65C H 0.3985 0.2350 -0.3405 0.200 Uiso 0.363(2) 1 calc R U P B 2
H65D H 0.4086 0.2423 -0.4305 0.200 Uiso 0.363(2) 1 calc R U P B 2
C66B C 0.5075(12) 0.2583(9) -0.3306(17) 0.197(9) Uani 0.363(2) 1 d D U P B 2
H66C H 0.5238 0.2911 -0.3447 0.236 Uiso 0.363(2) 1 calc R U P B 2
H66D H 0.5157 0.2593 -0.2689 0.236 Uiso 0.363(2) 1 calc R U P B 2
C67B C 0.5682(14) 0.2238(8) -0.3378(15) 0.166(8) Uani 0.363(2) 1 d D U P B 2
H67D H 0.5546 0.1899 -0.3276 0.248 Uiso 0.363(2) 1 calc R U P B 2
H67E H 0.6187 0.2326 -0.2955 0.248 Uiso 0.363(2) 1 calc R U P B 2
H67F H 0.5713 0.2261 -0.3951 0.248 Uiso 0.363(2) 1 calc R U P B 2
O15B O 0.4959(8) 0.6609(5) 0.7338(8) 0.128(7) Uani 0.359(12) 1 d D . P D 2
H15A H 0.4722 0.6511 0.6833 0.192 Uiso 0.359(12) 1 d DR U P D 2
H15B H 0.5165 0.6352 0.7621 0.192 Uiso 0.359(12) 1 d DR U P D 2
C68 C -0.0330(2) 0.64178(16) 0.3970(4) 0.0958(19) Uani 1 1 d . . . . .
H68A H -0.0261 0.6121 0.3667 0.144 Uiso 1 1 calc R U . . .
H68B H -0.0741 0.6625 0.3584 0.144 Uiso 1 1 calc R U . . .
H68C H -0.0478 0.6322 0.4460 0.144 Uiso 1 1 calc R U . . .
C69 C -0.0882(3) 0.74878(17) 0.4717(4) 0.103(2) Uani 1 1 d . . . . .
H69A H -0.1112 0.7193 0.4876 0.154 Uiso 1 1 calc R U . . .
H69B H -0.1083 0.7526 0.4095 0.154 Uiso 1 1 calc R U . . .
H69C H -0.1020 0.7780 0.4982 0.154 Uiso 1 1 calc R U . . .
O14 O 0.0331(2) 0.73010(16) 0.6682(3) 0.0664(13) Uani 0.683(6) 1 d D . P E 1
C70 C 0.0937(3) 0.73202(16) 0.7419(4) 0.0535(14) Uani 0.683(6) 1 d D . P E 1
C71 C 0.0772(5) 0.7322(2) 0.8226(4) 0.0626(16) Uani 0.683(6) 1 d D . P E 1
H71A H 0.1134 0.7099 0.8636 0.094 Uiso 0.683(6) 1 calc R U P E 1
H71B H 0.0236 0.7211 0.8117 0.094 Uiso 0.683(6) 1 calc R U P E 1
H71C H 0.0836 0.7658 0.8460 0.094 Uiso 0.683(6) 1 calc R U P E 1
N3 N 0.1640(3) 0.73532(15) 0.7383(3) 0.0549(12) Uani 0.683(6) 1 d D . P E 1
C72 C 0.1755(3) 0.73219(17) 0.6586(4) 0.0528(14) Uani 0.683(6) 1 d D . P E 1
H72A H 0.1424 0.7060 0.6241 0.079 Uiso 0.683(6) 1 calc R U P E 1
H72B H 0.2303 0.7246 0.6680 0.079 Uiso 0.683(6) 1 calc R U P E 1
H72C H 0.1618 0.7638 0.6285 0.079 Uiso 0.683(6) 1 calc R U P E 1
C73 C 0.2308(4) 0.7442(2) 0.8156(4) 0.0655(16) Uani 0.683(6) 1 d D . P E 1
H73A H 0.2130 0.7471 0.8645 0.098 Uiso 0.683(6) 1 calc R U P E 1
H73B H 0.2569 0.7748 0.8093 0.098 Uiso 0.683(6) 1 calc R U P E 1
H73C H 0.2675 0.7165 0.8250 0.098 Uiso 0.683(6) 1 calc R U P E 1
O16 O 0.1020(16) 0.7307(4) 0.6743(10) 0.172(12) Uani 0.317(6) 1 d D . P E 2
H16A H 0.1353 0.7360 0.6499 0.258 Uiso 0.317(6) 1 d DR U P E 2
H16B H 0.0848 0.7020 0.6603 0.258 Uiso 0.317(6) 1 d DR U P E 2
O17 O 0.0438(6) 0.7555(4) 0.7896(6) 0.070(3) Uani 0.317(6) 1 d . . P E 2
H17 H 0.0728 0.7487 0.7614 0.105 Uiso 0.317(6) 1 calc R U P E 2
C74 C 0.0341(11) 0.7139(6) 0.8329(11) 0.087(5) Uani 0.317(6) 1 d . . P E 2
H74A H 0.0807 0.7089 0.8833 0.131 Uiso 0.317(6) 1 calc R U P E 2
H74B H 0.0261 0.6850 0.7954 0.131 Uiso 0.317(6) 1 calc R U P E 2
H74C H -0.0113 0.7183 0.8507 0.131 Uiso 0.317(6) 1 calc R U P E 2
O18 O 0.5814(6) 0.5353(3) 0.4748(6) 0.051(3) Uani 0.229(5) 1 d D U P F 1
C76 C 0.5498(8) 0.5435(5) 0.3920(8) 0.053(3) Uani 0.229(5) 1 d D U P F 1
C77 C 0.5652(14) 0.5092(7) 0.3291(10) 0.059(5) Uani 0.229(5) 1 d D U P F 1
H77A H 0.5749 0.5285 0.2841 0.088 Uiso 0.229(5) 1 calc R U P F 1
H77B H 0.5198 0.4879 0.3039 0.088 Uiso 0.229(5) 1 calc R U P F 1
H77C H 0.6109 0.4888 0.3583 0.088 Uiso 0.229(5) 1 calc R U P F 1
N4 N 0.5119(9) 0.5844(5) 0.3639(9) 0.073(4) Uani 0.229(5) 1 d D U P F 1
C78 C 0.5027(14) 0.6183(8) 0.4276(13) 0.111(8) Uani 0.229(5) 1 d D U P F 1
H78A H 0.4640 0.6050 0.4505 0.167 Uiso 0.229(5) 1 calc R U P F 1
H78B H 0.4852 0.6505 0.4012 0.167 Uiso 0.229(5) 1 calc R U P F 1
H78C H 0.5528 0.6221 0.4740 0.167 Uiso 0.229(5) 1 calc R U P F 1
C79 C 0.4833(12) 0.5894(8) 0.2710(11) 0.088(6) Uani 0.229(5) 1 d D U P F 1
H79A H 0.4620 0.5577 0.2449 0.133 Uiso 0.229(5) 1 calc R U P F 1
H79B H 0.5264 0.5992 0.2521 0.133 Uiso 0.229(5) 1 calc R U P F 1
H79C H 0.4423 0.6146 0.2538 0.133 Uiso 0.229(5) 1 calc R U P F 1
C75 C 0.4629(5) 0.5827(4) 0.5185(8) 0.059(3) Uani 0.363(2) 1 d . . P B 3
H75A H 0.4576 0.6076 0.5588 0.088 Uiso 0.363(2) 1 calc R U P B 3
H75B H 0.4734 0.5992 0.4712 0.088 Uiso 0.363(2) 1 calc R U P B 3
H75C H 0.5062 0.5605 0.5477 0.088 Uiso 0.363(2) 1 calc R U P B 3
C82 C 0.3423(6) 0.4286(4) 0.3669(8) 0.097(4) Uani 0.518(7) 1 d . . P G 3
H82A H 0.3750 0.4068 0.3466 0.146 Uiso 0.518(7) 1 calc R U P G 3
H82B H 0.2942 0.4114 0.3637 0.146 Uiso 0.518(7) 1 calc R U P G 3
H82C H 0.3706 0.4381 0.4262 0.146 Uiso 0.518(7) 1 calc R U P G 3
O20 O 0.3241(3) 0.4705(2) 0.3166(4) 0.074(2) Uani 0.518(7) 1 d . . P G 3
H20A H 0.3148 0.4626 0.2654 0.111 Uiso 0.518(7) 1 calc R U P G 3
O21 O 0.3873(3) 0.5043(2) 0.3440(4) 0.061(2) Uani 0.395(5) 1 d D . P H 2
H21A H 0.3853 0.4861 0.3875 0.092 Uiso 0.395(5) 1 d DR U P H 2
H21B H 0.3772 0.4822 0.3047 0.092 Uiso 0.395(5) 1 d DR U P H 2
O22 O 0.5575(5) 0.5314(4) 0.2748(7) 0.104(3) Uani 0.395(5) 1 d . . P H 2
H22 H 0.5232 0.5529 0.2706 0.156 Uiso 0.395(5) 1 calc DR U P H 2
C80 C 0.5781(12) 0.5088(9) 0.3542(13) 0.104(3) Uani 0.395(5) 1 d . . P H 2
H80A H 0.6242 0.4881 0.3631 0.156 Uiso 0.395(5) 1 calc R U P H 2
H80B H 0.5348 0.4882 0.3567 0.156 Uiso 0.395(5) 1 calc R U P H 2
H80C H 0.5898 0.5341 0.3988 0.156 Uiso 0.395(5) 1 calc R U P H 2
O23 O 0.4230(5) 0.5762(3) 0.2490(6) 0.088(3) Uani 0.395(5) 1 d D . P H 2
H23O H 0.4078 0.5505 0.2666 0.08(3) Uiso 0.395(5) 1 calc R . P H 2
C81 C 0.4158(12) 0.6198(7) 0.3027(9) 0.150(10) Uani 0.395(5) 1 d . . P H 2
H81A H 0.4605 0.6204 0.3560 0.225 Uiso 0.395(5) 1 calc R U P H 2
H81B H 0.3675 0.6168 0.3157 0.225 Uiso 0.395(5) 1 calc R U P H 2
H81C H 0.4146 0.6505 0.2712 0.225 Uiso 0.395(5) 1 calc R U P H 2
C83 C 0.4062(7) 0.5083(5) 0.5542(8) 0.037(3) Uani 0.227(3) 1 d . U P B 4
H83A H 0.4490 0.5164 0.6069 0.055 Uiso 0.227(3) 1 calc R U P B 4
H83B H 0.4194 0.4784 0.5290 0.055 Uiso 0.227(3) 1 calc R U P B 4
H83C H 0.3585 0.5025 0.5672 0.055 Uiso 0.227(3) 1 calc R U P B 4
N1 N 0.32157(15) 0.30695(9) 0.3778(2) 0.0523(7) Uani 1 1 d . . . . .
H1A H 0.3719 0.3054 0.3870 0.063 Uiso 1 1 calc R U . . .
H1B H 0.2993 0.3357 0.3781 0.063 Uiso 1 1 calc R U . . .
N2 N 0.41604(16) 0.48512(11) 0.11676(16) 0.0499(7) Uani 1 1 d . . . . .
H2A H 0.4629 0.4750 0.1483 0.060 Uiso 1 1 calc R U . . .
H2B H 0.3872 0.5017 0.1402 0.060 Uiso 1 1 calc R U . . .
O1 O 0.10450(10) 0.56867(6) 0.41929(12) 0.0318(4) Uani 1 1 d . . . . .
O2 O 0.21825(10) 0.52807(6) 0.44836(12) 0.0307(4) Uani 1 1 d . . . . .
O4 O 0.67621(10) 0.34364(7) 0.51289(13) 0.0374(4) Uani 1 1 d . . . . .
O5 O 0.78705(10) 0.30619(7) 0.51553(13) 0.0348(4) Uani 1 1 d . . . . .
O6 O 0.14497(10) 0.64220(7) 0.32916(12) 0.0345(4) Uani 1 1 d . . . . .
O7 O 0.25125(10) 0.59582(7) 0.34527(12) 0.0327(4) Uani 1 1 d . . . . .
O9 O 0.70736(10) 0.41259(7) 0.41014(12) 0.0356(4) Uani 1 1 d . . . . .
O10 O 0.82649(9) 0.38162(7) 0.42954(11) 0.0318(4) Uani 1 1 d . . . . .
O11 O 0.03764(10) 0.66859(7) 0.42585(14) 0.0391(5) Uani 1 1 d D . . . .
H11O H 0.042(2) 0.6905(11) 0.462(2) 0.059 Uiso 1 1 d D U . . .
O12 O 0.39216(12) 0.55481(10) 0.48582(17) 0.0602(7) Uani 1 1 d D . . . .
H12A H 0.3826 0.5413 0.5265 0.090 Uiso 0.363(2) 1 d R U P B 3
H12B H 0.3991 0.5449 0.4413 0.090 Uiso 0.227(3) 1 d R U P B 4
H12C H 0.385(2) 0.5326(17) 0.445(2) 0.090 Uiso 0.410(3) 1 d D U P C 1
H12D H 0.4045(12) 0.5348(8) 0.5293(16) 0.090 Uiso 0.410(3) 1 d D U P C 1
O13 O -0.00440(18) 0.74362(10) 0.5006(2) 0.0779(8) Uani 1 1 d . . . . .
H13A H 0.0130 0.7411 0.5540 0.117 Uiso 1 1 calc R U . . .
Cu1 Cu 0.14925(2) 0.63425(2) 0.44873(2) 0.02593(11) Uani 1 1 d . . . . .
Cu2 Cu 0.28065(2) 0.58891(2) 0.46888(2) 0.02677(11) Uani 1 1 d D . . . .
loop_
_atom_site_aniso_label
_atom_site_aniso_U_11
_atom_site_aniso_U_22
_atom_site_aniso_U_33
_atom_site_aniso_U_23
_atom_site_aniso_U_13
_atom_site_aniso_U_12
C1 0.0239(12) 0.0317(13) 0.0237(12) 0.0007(10) 0.0068(10) 0.0030(10)
C2 0.0244(12) 0.0306(13) 0.0302(13) -0.0003(10) 0.0082(10) 0.0004(10)
C3 0.0290(14) 0.0327(14) 0.067(2) -0.0101(13) 0.0202(14) 0.0006(11)
C4 0.0334(17) 0.0401(17) 0.128(4) -0.0205(19) 0.040(2) -0.0062(13)
C5 0.0333(16) 0.0319(15) 0.120(3) -0.0171(18) 0.0333(19) -0.0069(13)
C6 0.0303(14) 0.0316(14) 0.0587(19) -0.0052(13) 0.0172(13) 0.0014(11)
C7 0.0241(12) 0.0313(13) 0.0358(14) -0.0009(11) 0.0121(11) 0.0020(10)
C8 0.0296(14) 0.0323(15) 0.071(2) -0.0073(14) 0.0211(14) -0.0026(12)
C9 0.0319(15) 0.0340(15) 0.071(2) -0.0070(14) 0.0227(15) -0.0035(12)
C10 0.0307(14) 0.0318(14) 0.064(2) -0.0090(13) 0.0195(14) 0.0006(11)
C14 0.0243(13) 0.0330(14) 0.0550(18) -0.0111(12) 0.0153(12) -0.0034(11)
C15 0.0311(14) 0.0308(14) 0.0578(19) -0.0074(12) 0.0186(13) -0.0024(11)
C16 0.0289(15) 0.0284(13) 0.0540(18) -0.0094(12) 0.0151(13) -0.0042(11)
C17 0.0287(15) 0.0283(13) 0.0546(18) -0.0081(12) 0.0152(13) -0.0043(11)
C18 0.0243(13) 0.0314(13) 0.0455(16) -0.0047(11) 0.0119(12) -0.0021(10)
C19 0.0304(14) 0.0289(13) 0.0552(18) -0.0078(12) 0.0131(13) -0.0045(11)
C20 0.0309(14) 0.0302(14) 0.0549(18) -0.0050(12) 0.0158(13) 0.0032(11)
C21 0.0224(12) 0.0347(14) 0.0444(16) -0.0009(11) 0.0132(11) 0.0021(10)
C22 0.0240(12) 0.0319(13) 0.0401(15) -0.0048(11) 0.0125(11) -0.0024(10)
C23 0.0236(13) 0.0302(13) 0.0442(15) -0.0050(11) 0.0133(11) -0.0008(10)
C24 0.0221(13) 0.0359(14) 0.0421(15) -0.0032(11) 0.0123(11) -0.0010(10)
C11 0.024(3) 0.027(4) 0.053(6) -0.001(4) 0.014(4) 0.003(3)
C12 0.025(3) 0.027(4) 0.046(6) -0.008(3) 0.011(3) -0.003(3)
C13 0.025(3) 0.023(5) 0.043(6) -0.004(4) 0.011(3) 0.005(2)
O3 0.022(2) 0.027(3) 0.074(5) -0.013(3) 0.017(3) -0.0041(18)
C25 0.025(2) 0.032(2) 0.079(4) -0.013(2) 0.020(3) -0.0039(18)
C26 0.026(2) 0.039(3) 0.060(3) -0.009(2) 0.014(2) -0.0065(17)
C27 0.031(3) 0.044(3) 0.066(4) -0.005(3) 0.012(2) -0.001(3)
C28 0.037(3) 0.046(3) 0.067(4) 0.005(3) 0.013(3) 0.001(2)
C29 0.041(4) 0.048(4) 0.051(6) 0.006(3) 0.003(4) 0.000(3)
C30 0.041(4) 0.051(4) 0.052(5) 0.004(3) 0.012(4) -0.002(3)
C31 0.049(4) 0.051(3) 0.051(4) -0.004(3) 0.017(3) -0.001(3)
C32 0.045(3) 0.045(3) 0.075(4) -0.007(3) 0.026(3) -0.003(2)
C33 0.053(3) 0.047(3) 0.087(4) -0.022(3) 0.026(3) -0.011(3)
C34 0.067(4) 0.049(4) 0.103(6) -0.024(4) 0.052(4) -0.016(3)
C11B 0.021(6) 0.025(6) 0.066(13) 0.003(6) 0.016(7) -0.003(4)
C12B 0.024(5) 0.018(5) 0.060(12) 0.001(5) 0.012(6) 0.000(3)
C13B 0.021(5) 0.021(6) 0.054(13) 0.002(7) 0.009(6) -0.002(4)
O3B 0.023(4) 0.023(4) 0.085(9) 0.000(5) 0.017(5) -0.002(3)
C25B 0.030(4) 0.032(4) 0.053(5) 0.006(3) 0.015(4) 0.001(3)
C26B 0.026(4) 0.028(4) 0.051(5) 0.005(4) 0.011(4) -0.003(4)
C27B 0.027(3) 0.029(4) 0.047(4) 0.005(3) 0.014(3) 0.002(3)
C28B 0.035(4) 0.028(3) 0.040(5) 0.003(3) 0.005(3) -0.003(3)
C29B 0.030(5) 0.050(6) 0.047(9) 0.008(5) 0.009(6) -0.001(4)
C30B 0.044(7) 0.056(6) 0.048(8) 0.013(5) -0.002(6) -0.010(5)
C31B 0.043(6) 0.083(8) 0.088(11) 0.012(7) 0.012(6) -0.010(5)
C32B 0.077(8) 0.097(9) 0.136(12) 0.014(8) 0.031(8) -0.023(7)
C33B 0.084(10) 0.145(14) 0.20(2) 0.027(13) 0.055(11) -0.030(9)
C34B 0.150(16) 0.185(17) 0.23(2) 0.047(16) 0.064(16) -0.060(13)
C35 0.0248(13) 0.0277(12) 0.0438(15) -0.0031(11) 0.0158(12) -0.0046(10)
C36 0.0252(12) 0.0301(13) 0.0396(15) -0.0008(11) 0.0161(11) -0.0055(10)
C37 0.0311(14) 0.0307(13) 0.0452(16) 0.0000(11) 0.0168(12) -0.0002(11)
C38 0.0339(15) 0.0399(15) 0.0434(16) 0.0053(12) 0.0105(13) 0.0010(12)
C39 0.0353(15) 0.0438(16) 0.0348(15) 0.0006(12) 0.0135(12) -0.0052(12)
C40 0.0302(13) 0.0358(14) 0.0396(15) -0.0024(11) 0.0187(12) -0.0065(11)
C41 0.0275(13) 0.0304(13) 0.0400(15) 0.0014(11) 0.0175(11) -0.0043(10)
C42 0.0352(15) 0.0429(15) 0.0338(14) -0.0018(12) 0.0140(12) -0.0050(12)
C43 0.0354(15) 0.0438(15) 0.0347(15) -0.0015(12) 0.0144(12) -0.0040(12)
C44 0.0328(14) 0.0354(14) 0.0361(14) -0.0015(11) 0.0150(12) -0.0025(11)
C45 0.0277(13) 0.0334(13) 0.0356(14) 0.0011(11) 0.0103(11) -0.0012(10)
C46 0.0319(14) 0.0324(13) 0.0313(14) -0.0023(11) 0.0089(11) -0.0037(11)
C47 0.0304(14) 0.0314(13) 0.0367(14) -0.0020(11) 0.0107(11) 0.0006(11)
C48 0.0307(14) 0.0342(14) 0.0338(14) 0.0016(11) 0.0084(11) -0.0010(11)
C49 0.0355(14) 0.0396(15) 0.0311(14) 0.0011(11) 0.0110(12) -0.0021(11)
C50 0.0364(16) 0.0382(15) 0.0330(14) 0.0007(11) 0.0079(12) 0.0002(12)
C51 0.0388(16) 0.0380(15) 0.0338(15) 0.0025(12) 0.0094(13) 0.0015(12)
C52 0.0335(14) 0.0303(13) 0.0357(15) 0.0024(11) 0.0081(12) 0.0025(11)
C53 0.0508(18) 0.0441(16) 0.0321(15) 0.0042(12) 0.0161(13) 0.0103(13)
C54 0.0446(17) 0.0602(19) 0.0438(17) 0.0088(14) 0.0235(14) 0.0184(15)
C55 0.0304(14) 0.0449(16) 0.0420(16) 0.0025(12) 0.0127(12) 0.0085(12)
C56 0.0248(12) 0.0256(12) 0.0374(14) -0.0023(10) 0.0104(11) -0.0016(10)
C57 0.0266(13) 0.0299(13) 0.0356(14) -0.0033(10) 0.0100(11) -0.0016(10)
C58 0.0222(12) 0.0274(12) 0.0394(15) -0.0074(11) 0.0090(11) -0.0035(10)
O8 0.0328(11) 0.036(6) 0.0286(19) -0.002(3) 0.0053(12) 0.004(3)
C59 0.029(5) 0.043(4) 0.024(3) 0.009(3) 0.007(3) 0.003(3)
C60 0.042(4) 0.073(4) 0.030(3) -0.001(3) 0.010(3) -0.007(3)
C61 0.042(3) 0.073(3) 0.044(3) -0.017(2) 0.020(2) -0.032(2)
C62 0.056(3) 0.086(4) 0.059(3) -0.024(3) 0.021(3) -0.013(3)
C63 0.075(4) 0.083(4) 0.054(4) -0.021(3) 0.025(3) -0.011(3)
C64 0.093(5) 0.087(5) 0.074(5) -0.006(4) 0.037(4) -0.002(4)
C65 0.124(6) 0.073(5) 0.081(5) -0.013(4) 0.034(4) -0.003(4)
C66 0.134(6) 0.120(7) 0.082(5) -0.001(4) 0.054(5) 0.021(5)
C67 0.162(8) 0.100(7) 0.099(6) 0.000(5) 0.048(5) 0.049(6)
O15 0.032(4) 0.104(7) 0.212(13) 0.005(8) -0.015(5) -0.003(4)
C85 0.074(9) 0.193(18) 0.097(11) -0.039(12) 0.029(8) -0.038(10)
O8B 0.0328(11) 0.036(6) 0.0286(19) -0.002(3) 0.0053(12) 0.004(3)
C59B 0.037(10) 0.048(10) 0.054(9) -0.003(7) -0.009(7) -0.007(7)
C60B 0.048(9) 0.086(8) 0.050(9) -0.019(6) -0.007(7) 0.003(8)
C61B 0.091(10) 0.116(8) 0.119(10) -0.065(8) -0.032(8) 0.033(8)
C62B 0.133(10) 0.094(7) 0.108(9) -0.031(7) 0.009(8) 0.007(7)
C63B 0.162(11) 0.101(8) 0.078(10) -0.016(7) 0.043(8) 0.026(7)
C64B 0.170(10) 0.129(12) 0.151(14) -0.006(10) 0.041(9) 0.039(8)
C65B 0.200(11) 0.121(12) 0.162(15) -0.036(11) 0.041(10) 0.052(10)
C66B 0.204(12) 0.184(15) 0.177(17) -0.080(14) 0.033(11) 0.066(11)
C67B 0.266(17) 0.122(14) 0.170(17) 0.059(12) 0.154(15) 0.069(13)
O15B 0.152(12) 0.140(12) 0.099(9) -0.013(7) 0.051(8) -0.077(9)
C68 0.0242(17) 0.059(2) 0.194(6) -0.031(3) 0.025(2) -0.0027(16)
C69 0.088(3) 0.056(2) 0.196(6) -0.001(3) 0.091(4) 0.015(2)
O14 0.062(3) 0.059(2) 0.091(3) -0.033(2) 0.043(2) -0.0212(19)
C70 0.076(4) 0.028(2) 0.070(4) -0.010(2) 0.042(3) -0.003(2)
C71 0.093(5) 0.044(3) 0.067(4) 0.004(3) 0.047(4) 0.006(3)
N3 0.063(3) 0.038(2) 0.061(3) -0.005(2) 0.019(2) 0.0089(19)
C72 0.076(4) 0.033(2) 0.067(3) 0.000(2) 0.047(3) 0.009(2)
C73 0.076(4) 0.064(3) 0.051(3) -0.008(3) 0.015(3) 0.010(3)
O16 0.39(4) 0.038(6) 0.119(13) 0.022(7) 0.13(2) 0.034(12)
O17 0.068(6) 0.068(6) 0.065(6) -0.020(5) 0.011(5) 0.012(5)
C74 0.092(11) 0.077(10) 0.102(13) -0.026(9) 0.045(10) -0.012(9)
O18 0.046(5) 0.043(5) 0.064(5) 0.006(4) 0.020(4) 0.009(4)
C76 0.045(7) 0.051(6) 0.061(6) 0.000(4) 0.014(5) -0.004(5)
C77 0.092(15) 0.039(6) 0.042(7) 0.023(6) 0.019(8) 0.018(7)
N4 0.064(8) 0.050(6) 0.088(7) 0.007(5) 0.005(6) 0.005(5)
C78 0.108(18) 0.086(12) 0.124(12) -0.011(9) 0.020(11) 0.028(12)
C79 0.067(12) 0.098(13) 0.081(8) 0.009(7) 0.001(7) -0.026(10)
C75 0.019(4) 0.053(5) 0.099(8) -0.016(5) 0.013(4) 0.004(3)
C82 0.076(6) 0.087(7) 0.137(10) -0.024(7) 0.047(6) -0.004(5)
O20 0.066(4) 0.068(4) 0.087(4) -0.013(3) 0.024(3) -0.011(3)
O21 0.035(3) 0.070(4) 0.084(5) -0.037(3) 0.027(3) -0.010(3)
O22 0.072(5) 0.140(8) 0.109(7) 0.026(6) 0.043(5) 0.009(5)
C80 0.072(5) 0.140(8) 0.109(7) 0.026(6) 0.043(5) 0.009(5)
O23 0.064(5) 0.058(5) 0.122(7) 0.014(4) 0.006(5) -0.013(4)
C81 0.194(19) 0.153(15) 0.069(8) 0.019(9) 0.001(10) -0.131(15)
C83 0.035(3) 0.035(3) 0.039(3) -0.0003(19) 0.011(2) 0.0058(19)
N1 0.0338(13) 0.0299(12) 0.098(2) -0.0109(13) 0.0290(14) -0.0059(10)
N2 0.0442(15) 0.0710(18) 0.0319(13) -0.0056(12) 0.0100(11) 0.0059(13)
O1 0.0230(9) 0.0275(9) 0.0411(10) -0.0048(7) 0.0059(8) 0.0016(7)
O2 0.0214(9) 0.0295(9) 0.0403(10) -0.0024(7) 0.0095(7) 0.0005(7)
O4 0.0216(9) 0.0332(10) 0.0586(13) -0.0136(9) 0.0155(9) -0.0029(7)
O5 0.0204(9) 0.0341(9) 0.0523(12) -0.0100(8) 0.0156(8) -0.0035(7)
O6 0.0298(9) 0.0407(10) 0.0366(10) -0.0019(8) 0.0160(8) 0.0051(8)
O7 0.0270(9) 0.0390(10) 0.0349(10) -0.0016(8) 0.0144(8) 0.0018(8)
O9 0.0242(9) 0.0501(11) 0.0300(10) -0.0063(8) 0.0060(8) 0.0080(8)
O10 0.0178(8) 0.0418(10) 0.0325(10) -0.0043(8) 0.0044(7) 0.0011(7)
O11 0.0190(9) 0.0432(11) 0.0541(13) -0.0081(9) 0.0111(9) 0.0027(8)
O12 0.0304(11) 0.0755(16) 0.0746(17) -0.0104(13) 0.0179(11) 0.0192(11)
O13 0.089(2) 0.0536(15) 0.107(2) -0.0189(16) 0.0532(19) -0.0063(14)
Cu1 0.01483(18) 0.0280(2) 0.0340(2) -0.00493(14) 0.00719(15) 0.00135(13)
Cu2 0.01547(18) 0.0298(2) 0.0345(2) -0.00595(14) 0.00789(15) 0.00141(13)
loop_
_atom_type_symbol
_atom_type_description
_atom_type_scat_dispersion_real
_atom_type_scat_dispersion_imag
_atom_type_scat_source
C C 0.0181 0.0091 'International Tables Vol C Tables 4.2.6.8 and 6.1.1.4'
H H 0.0000 0.0000 'International Tables Vol C Tables 4.2.6.8 and 6.1.1.4'
N N 0.0311 0.0180 'International Tables Vol C Tables 4.2.6.8 and 6.1.1.4'
O O 0.0492 0.0322 'International Tables Vol C Tables 4.2.6.8 and 6.1.1.4'
Cu Cu -1.9646 0.5888 'International Tables Vol C Tables 4.2.6.8 and 6.1.1.4'
loop_
_geom_angle_atom_site_label_1
_geom_angle_atom_site_label_2
_geom_angle_atom_site_label_3
_geom_angle
_geom_angle_site_symmetry_1
_geom_angle_site_symmetry_3
O1 C1 O2 126.5(2) . .
O1 C1 C2 116.1(2) . .
O2 C1 C2 117.4(2) . .
C7 C2 C3 120.1(2) . .
C7 C2 C1 120.4(2) . .
C3 C2 C1 119.4(2) . .
C4 C3 C2 120.0(3) . .
C4 C3 H3 120.0 . .
C2 C3 H3 120.0 . .
C3 C4 C5 120.1(3) . .
C3 C4 H4 119.9 . .
C5 C4 H4 119.9 . .
C4 C5 C6 120.4(3) . .
C4 C5 H5 119.8 . .
C6 C5 H5 119.8 . .
C7 C6 C5 119.1(3) . .
C7 C6 C8 120.9(2) . .
C5 C6 C8 120.0(3) . .
C2 C7 C6 120.4(2) . .
C2 C7 H7 119.8 . .
C6 C7 H7 119.8 . .
C9 C8 C6 176.6(3) . .
C8 C9 C10 176.7(4) . .
C11 C10 C15 122.1(6) . .
C11 C10 C9 118.3(6) . .
C15 C10 C9 119.5(3) . .
C15 C10 C11B 117.5(10) . .
C9 C10 C11B 122.0(10) . .
C13 C14 C15 118.7(6) . .
C13 C14 C16 122.2(6) . .
C15 C14 C16 119.1(2) . .
C15 C14 C13B 123.5(10) . .
C16 C14 C13B 116.4(9) . .
N1 C15 C14 120.8(2) . .
N1 C15 C10 120.9(3) . .
C14 C15 C10 118.3(2) . .
C17 C16 C14 175.8(3) . .
C16 C17 C18 179.5(3) . .
C23 C18 C19 119.0(2) . .
C23 C18 C17 120.2(2) . .
C19 C18 C17 120.9(2) . .
C20 C19 C18 120.4(2) . .
C20 C19 H19 119.8 . .
C18 C19 H19 119.8 . .
C21 C20 C19 120.3(2) . .
C21 C20 H20 119.8 . .
C19 C20 H20 119.8 . .
C20 C21 C22 119.9(2) . .
C20 C21 H21 120.0 . .
C22 C21 H21 120.0 . .
C23 C22 C21 119.7(2) . .
C23 C22 C24 119.9(2) . .
C21 C22 C24 120.3(2) . .
C22 C23 C18 120.7(2) . .
C22 C23 H23 119.7 . .
C18 C23 H23 119.7 . .
O4 C24 O5 126.1(2) . .
O4 C24 C22 117.1(2) . .
O5 C24 C22 116.8(2) . .
C10 C11 C12 119.0(12) . .
C10 C11 H11 120.5 . .
C12 C11 H11 120.5 . .
C11 C12 O3 125.2(9) . .
C11 C12 C13 119.6(9) . .
O3 C12 C13 115.2(8) . .
C14 C13 C12 122.0(10) . .
C14 C13 H13 119.0 . .
C12 C13 H13 119.0 . .
C12 O3 C25 116.5(7) . .
O3 C25 C26 106.9(4) . .
O3 C25 H25A 110.3 . .
C26 C25 H25A 110.3 . .
O3 C25 H25B 110.3 . .
C26 C25 H25B 110.3 . .
H25A C25 H25B 108.6 . .
C25 C26 C27 112.4(5) . .
C25 C26 H26A 109.1 . .
C27 C26 H26A 109.1 . .
C25 C26 H26B 109.1 . .
C27 C26 H26B 109.1 . .
H26A C26 H26B 107.9 . .
C26 C27 C28 114.0(5) . .
C26 C27 H27A 108.8 . .
C28 C27 H27A 108.8 . .
C26 C27 H27B 108.8 . .
C28 C27 H27B 108.8 . .
H27A C27 H27B 107.7 . .
C29 C28 C27 115.2(6) . .
C29 C28 H28A 108.5 . .
C27 C28 H28A 108.5 . .
C29 C28 H28B 108.5 . .
C27 C28 H28B 108.5 . .
H28A C28 H28B 107.5 . .
C28 C29 C30 114.1(7) . .
C28 C29 H29A 108.7 . .
C30 C29 H29A 108.7 . .
C28 C29 H29B 108.7 . .
C30 C29 H29B 108.7 . .
H29A C29 H29B 107.6 . .
C31 C30 C29 117.5(7) . .
C31 C30 H30A 107.9 . .
C29 C30 H30A 107.9 . .
C31 C30 H30B 107.9 . .
C29 C30 H30B 107.9 . .
H30A C30 H30B 107.2 . .
C30 C31 C32 113.8(7) . .
C30 C31 H31A 108.8 . .
C32 C31 H31A 108.8 . .
C30 C31 H31B 108.8 . .
C32 C31 H31B 108.8 . .
H31A C31 H31B 107.7 . .
C33 C32 C31 114.6(6) . .
C33 C32 H32A 108.6 . .
C31 C32 H32A 108.6 . .
C33 C32 H32B 108.6 . .
C31 C32 H32B 108.6 . .
H32A C32 H32B 107.6 . .
C32 C33 C34 114.1(6) . .
C32 C33 H33A 108.7 . .
C34 C33 H33A 108.7 . .
C32 C33 H33B 108.7 . .
C34 C33 H33B 108.7 . .
H33A C33 H33B 107.6 . .
C33 C34 H34A 109.5 . .
C33 C34 H34B 109.5 . .
H34A C34 H34B 109.5 . .
C33 C34 H34C 109.5 . .
H34A C34 H34C 109.5 . .
H34B C34 H34C 109.5 . .
C12B C11B C10 122.0(19) . .
C12B C11B H11B 119.0 . .
C10 C11B H11B 119.0 . .
C11B C12B O3B 124.1(15) . .
C11B C12B C13B 121.1(15) . .
O3B C12B C13B 114.8(14) . .
C12B C13B C14 116.8(17) . .
C12B C13B H13B 121.6 . .
C14 C13B H13B 121.6 . .
C12B O3B C25B 115.5(13) . .
O3B C25B C26B 108.2(8) . .
O3B C25B H25C 110.1 . .
C26B C25B H25C 110.1 . .
O3B C25B H25D 110.1 . .
C26B C25B H25D 110.1 . .
H25C C25B H25D 108.4 . .
C25B C26B C27B 115.5(8) . .
C25B C26B H26C 108.4 . .
C27B C26B H26C 108.4 . .
C25B C26B H26D 108.4 . .
C27B C26B H26D 108.4 . .
H26C C26B H26D 107.5 . .
C26B C27B C28B 113.6(7) . .
C26B C27B H27C 108.8 . .
C28B C27B H27C 108.8 . .
C26B C27B H27D 108.8 . .
C28B C27B H27D 108.8 . .
H27C C27B H27D 107.7 . .
C29B C28B C27B 112.7(8) . .
C29B C28B H28C 109.0 . .
C27B C28B H28C 109.0 . .
C29B C28B H28D 109.0 . .
C27B C28B H28D 109.0 . .
H28C C28B H28D 107.8 . .
C28B C29B C30B 113.8(12) . .
C28B C29B H29C 108.8 . .
C30B C29B H29C 108.8 . .
C28B C29B H29D 108.8 . .
C30B C29B H29D 108.8 . .
H29C C29B H29D 107.7 . .
C31B C30B C29B 111.3(13) . .
C31B C30B H30C 109.4 . .
C29B C30B H30C 109.4 . .
C31B C30B H30D 109.4 . .
C29B C30B H30D 109.4 . .
H30C C30B H30D 108.0 . .
C32B C31B C30B 115.2(13) . .
C32B C31B H31C 108.5 . .
C30B C31B H31C 108.5 . .
C32B C31B H31D 108.5 . .
C30B C31B H31D 108.5 . .
H31C C31B H31D 107.5 . .
C31B C32B C33B 114.9(14) . .
C31B C32B H32C 108.5 . .
C33B C32B H32C 108.5 . .
C31B C32B H32D 108.5 . .
C33B C32B H32D 108.5 . .
H32C C32B H32D 107.5 . .
C34B C33B C32B 117.7(19) . .
C34B C33B H33C 107.9 . .
C32B C33B H33C 107.9 . .
C34B C33B H33D 107.9 . .
C32B C33B H33D 107.9 . .
H33C C33B H33D 107.2 . .
C33B C34B H34D 109.5 . .
C33B C34B H34E 109.5 . .
H34D C34B H34E 109.5 . .
C33B C34B H34F 109.5 . .
H34D C34B H34F 109.5 . .
H34E C34B H34F 109.5 . .
O6 C35 O7 125.8(3) . .
O6 C35 C36 117.6(2) . .
O7 C35 C36 116.6(2) . .
C37 C36 C41 119.3(3) . .
C37 C36 C35 121.1(2) . .
C41 C36 C35 119.5(2) . .
C38 C37 C36 120.3(3) . .
C38 C37 H37 119.8 . .
C36 C37 H37 119.8 . .
C39 C38 C37 120.3(3) . .
C39 C38 H38 119.8 . .
C37 C38 H38 119.8 . .
C38 C39 C40 120.1(3) . .
C38 C39 H39 120.0 . .
C40 C39 H39 120.0 . .
C41 C40 C39 119.2(2) . .
C41 C40 C42 120.7(3) . .
C39 C40 C42 120.1(3) . .
C40 C41 C36 120.8(3) . .
C40 C41 H41 119.6 . .
C36 C41 H41 119.6 . .
C43 C42 C40 176.9(3) . .
C42 C43 C44 176.4(3) . .
C45 C44 C49 120.9(2) . .
C45 C44 C43 120.1(3) . .
C49 C44 C43 118.9(3) . .
C46 C45 C44 120.4(2) . .
C46 C45 H45 119.8 . .
C44 C45 H45 119.8 . .
O8 C46 C45 127.0(7) . .
C45 C46 O8B 120.9(13) . .
O8 C46 C47 113.4(7) . .
C45 C46 C47 119.4(3) . .
O8B C46 C47 119.1(13) . .
C48 C47 C46 121.0(2) . .
C48 C47 H47 119.5 . .
C46 C47 H47 119.5 . .
C47 C48 C49 120.4(2) . .
C47 C48 C50 121.0(3) . .
C49 C48 C50 118.6(3) . .
N2 C49 C48 120.8(3) . .
N2 C49 C44 121.3(3) . .
C48 C49 C44 117.9(3) . .
C51 C50 C48 176.3(3) . .
C50 C51 C52 178.3(3) . .
C57 C52 C53 119.2(3) . .
C57 C52 C51 120.6(3) . .
C53 C52 C51 120.2(3) . .
C54 C53 C52 120.0(3) . .
C54 C53 H53 120.0 . .
C52 C53 H53 120.0 . .
C55 C54 C53 120.6(3) . .
C55 C54 H54 119.7 . .
C53 C54 H54 119.7 . .
C54 C55 C56 120.1(3) . .
C54 C55 H55 119.9 . .
C56 C55 H55 119.9 . .
C57 C56 C55 119.0(3) . .
C57 C56 C58 120.5(2) . .
C55 C56 C58 120.5(2) . .
C52 C57 C56 121.0(2) . .
C52 C57 H57 119.5 . .
C56 C57 H57 119.5 . .
O9 C58 O10 125.7(3) . .
O9 C58 C56 116.8(2) . .
O10 C58 C56 117.4(2) . .
C46 O8 C59 115.8(13) . .
O8 C59 C60 109.1(8) . .
O8 C59 H59A 109.9 . .
C60 C59 H59A 109.9 . .
O8 C59 H59B 109.9 . .
C60 C59 H59B 109.9 . .
H59A C59 H59B 108.3 . .
C59 C60 C61 115.1(8) . .
C59 C60 H60A 108.5 . .
C61 C60 H60A 108.5 . .
C59 C60 H60B 108.5 . .
C61 C60 H60B 108.5 . .
H60A C60 H60B 107.5 . .
C62 C61 C60 116.6(7) . .
C62 C61 H61A 108.1 . .
C60 C61 H61A 108.1 . .
C62 C61 H61B 108.1 . .
C60 C61 H61B 108.1 . .
H61A C61 H61B 107.3 . .
C61 C62 C63 112.8(5) . .
C61 C62 H62A 109.0 . .
C63 C62 H62A 109.0 . .
C61 C62 H62B 109.0 . .
C63 C62 H62B 109.0 . .
H62A C62 H62B 107.8 . .
C62 C63 C64 115.9(6) . .
C62 C63 H63A 108.3 . .
C64 C63 H63A 108.3 . .
C62 C63 H63B 108.3 . .
C64 C63 H63B 108.3 . .
H63A C63 H63B 107.4 . .
C65 C64 C63 113.9(7) . .
C65 C64 H64A 108.8 . .
C63 C64 H64A 108.8 . .
C65 C64 H64B 108.8 . .
C63 C64 H64B 108.8 . .
H64A C64 H64B 107.7 . .
C64 C65 C66 114.0(8) . .
C64 C65 H65A 108.7 . .
C66 C65 H65A 108.7 . .
C64 C65 H65B 108.7 . .
C66 C65 H65B 108.7 . .
H65A C65 H65B 107.6 . .
C67 C66 C65 120.2(8) . .
C67 C66 H66A 107.3 . .
C65 C66 H66A 107.3 . .
C67 C66 H66B 107.3 . .
C65 C66 H66B 107.3 . .
H66A C66 H66B 106.9 . .
C66 C67 H67A 109.5 . .
C66 C67 H67B 109.5 . .
H67A C67 H67B 109.5 . .
C66 C67 H67C 109.5 . .
H67A C67 H67C 109.5 . .
H67B C67 H67C 109.5 . .
C85 O15 H15 109.5 . .
O15 C85 H85A 109.5 . .
O15 C85 H85B 109.5 . .
H85A C85 H85B 109.5 . .
O15 C85 H85C 109.5 . .
H85A C85 H85C 109.5 . .
H85B C85 H85C 109.5 . .
C46 O8B C59B 121(3) . .
O8B C59B C60B 106.8(17) . .
O8B C59B H59C 110.4 . .
C60B C59B H59C 110.4 . .
O8B C59B H59D 110.4 . .
C60B C59B H59D 110.4 . .
H59C C59B H59D 108.6 . .
C61B C60B C59B 114.6(16) . .
C61B C60B H60C 108.6 . .
C59B C60B H60C 108.6 . .
C61B C60B H60D 108.6 . .
C59B C60B H60D 108.6 . .
H60C C60B H60D 107.6 . .
C62B C61B C60B 132.8(15) . .
C62B C61B H61C 104.0 . .
C60B C61B H61C 104.0 . .
C62B C61B H61D 104.0 . .
C60B C61B H61D 104.0 . .
H61C C61B H61D 105.5 . .
C61B C62B C63B 125.0(12) . .
C61B C62B H62C 106.1 . .
C63B C62B H62C 106.1 . .
C61B C62B H62D 106.1 . .
C63B C62B H62D 106.1 . .
H62C C62B H62D 106.3 . .
C62B C63B C64B 115.7(14) . .
C62B C63B H63C 108.4 . .
C64B C63B H63C 108.4 . .
C62B C63B H63D 108.4 . .
C64B C63B H63D 108.4 . .
H63C C63B H63D 107.4 . .
C63B C64B C65B 120.5(16) . .
C63B C64B H64C 107.2 . .
C65B C64B H64C 107.2 . .
C63B C64B H64D 107.2 . .
C65B C64B H64D 107.2 . .
H64C C64B H64D 106.8 . .
C66B C65B C64B 121.9(18) . .
C66B C65B H65C 106.9 . .
C64B C65B H65C 106.9 . .
C66B C65B H65D 106.9 . .
C64B C65B H65D 106.9 . .
H65C C65B H65D 106.7 . .
C67B C66B C65B 130.7(19) . .
C67B C66B H66C 104.6 . .
C65B C66B H66C 104.6 . .
C67B C66B H66D 104.6 . .
C65B C66B H66D 104.6 . .
H66C C66B H66D 105.7 . .
C66B C67B H67D 109.5 . .
C66B C67B H67E 109.5 . .
H67D C67B H67E 109.5 . .
C66B C67B H67F 109.5 . .
H67D C67B H67F 109.5 . .
H67E C67B H67F 109.5 . .
H15A O15B H15B 105.8 . .
O11 C68 H68A 109.5 . .
O11 C68 H68B 109.5 . .
H68A C68 H68B 109.5 . .
O11 C68 H68C 109.5 . .
H68A C68 H68C 109.5 . .
H68B C68 H68C 109.5 . .
O13 C69 H69A 109.5 . .
O13 C69 H69B 109.5 . .
H69A C69 H69B 109.5 . .
O13 C69 H69C 109.5 . .
H69A C69 H69C 109.5 . .
H69B C69 H69C 109.5 . .
N3 C70 O14 118.2(5) . .
N3 C70 C71 123.5(6) . .
O14 C70 C71 118.3(5) . .
C70 C71 H71A 109.5 . .
C70 C71 H71B 109.5 . .
H71A C71 H71B 109.5 . .
C70 C71 H71C 109.5 . .
H71A C71 H71C 109.5 . .
H71B C71 H71C 109.5 . .
C70 N3 C72 120.2(5) . .
C70 N3 C73 120.4(5) . .
C72 N3 C73 119.4(5) . .
N3 C72 H72A 109.5 . .
N3 C72 H72B 109.5 . .
H72A C72 H72B 109.5 . .
N3 C72 H72C 109.5 . .
H72A C72 H72C 109.5 . .
H72B C72 H72C 109.5 . .
N3 C73 H73A 109.5 . .
N3 C73 H73B 109.5 . .
H73A C73 H73B 109.5 . .
N3 C73 H73C 109.5 . .
H73A C73 H73C 109.5 . .
H73B C73 H73C 109.5 . .
H16A O16 H16B 106.3 . .
C74 O17 H17 109.5 . .
O17 C74 H74A 109.5 . .
O17 C74 H74B 109.5 . .
H74A C74 H74B 109.5 . .
O17 C74 H74C 109.5 . .
H74A C74 H74C 109.5 . .
H74B C74 H74C 109.5 . .
N4 C76 O18 120.5(12) . .
N4 C76 C77 118.5(12) . .
O18 C76 C77 120.6(12) . .
C76 C77 H77A 109.5 . .
C76 C77 H77B 109.5 . .
H77A C77 H77B 109.5 . .
C76 C77 H77C 109.5 . .
H77A C77 H77C 109.5 . .
H77B C77 H77C 109.5 . .
C76 N4 C78 116.8(14) . .
C76 N4 C79 114.3(13) . .
C78 N4 C79 128.9(14) . .
N4 C78 H78A 109.5 . .
N4 C78 H78B 109.5 . .
H78A C78 H78B 109.5 . .
N4 C78 H78C 109.5 . .
H78A C78 H78C 109.5 . .
H78B C78 H78C 109.5 . .
N4 C79 H79A 109.5 . .
N4 C79 H79B 109.5 . .
H79A C79 H79B 109.5 . .
N4 C79 H79C 109.5 . .
H79A C79 H79C 109.5 . .
H79B C79 H79C 109.5 . .
O12 C75 H75A 109.5 . .
O12 C75 H75B 109.5 . .
H75A C75 H75B 109.5 . .
O12 C75 H75C 109.5 . .
H75A C75 H75C 109.5 . .
H75B C75 H75C 109.5 . .
O20 C82 H82A 109.5 . .
O20 C82 H82B 109.5 . .
H82A C82 H82B 109.5 . .
O20 C82 H82C 109.5 . .
H82A C82 H82C 109.5 . .
H82B C82 H82C 109.5 . .
C82 O20 H20A 109.5 . .
H21A O21 H21B 100.3 . .
C80 O22 H22 109.5 . .
O22 C80 H80A 109.5 . .
O22 C80 H80B 109.5 . .
H80A C80 H80B 109.5 . .
O22 C80 H80C 109.5 . .
H80A C80 H80C 109.5 . .
H80B C80 H80C 109.5 . .
C81 O23 H23O 109.5 . .
O23 C81 H81A 109.5 . .
O23 C81 H81B 109.5 . .
H81A C81 H81B 109.5 . .
O23 C81 H81C 109.5 . .
H81A C81 H81C 109.5 . .
H81B C81 H81C 109.5 . .
O12 C83 H83A 109.5 . .
O12 C83 H83B 109.5 . .
H83A C83 H83B 109.5 . .
O12 C83 H83C 109.5 . .
H83A C83 H83C 109.5 . .
H83B C83 H83C 109.5 . .
C15 N1 H1A 120.0 . .
C15 N1 H1B 120.0 . .
H1A N1 H1B 120.0 . .
C49 N2 H2A 120.0 . .
C49 N2 H2B 120.0 . .
H2A N2 H2B 120.0 . .
C1 O1 Cu1 123.31(16) . .
C1 O2 Cu2 120.41(16) . .
C24 O4 Cu2 122.56(16) . 3_666
C24 O5 Cu1 120.92(17) . 3_666
C35 O6 Cu1 121.36(18) . .
C35 O7 Cu2 122.24(17) . .
C58 O9 Cu2 121.95(17) . 3_666
C58 O10 Cu1 122.03(17) . 3_666
C68 O11 Cu1 122.5(2) . .
C68 O11 H11O 118(3) . .
Cu1 O11 H11O 109(3) . .
C75 O12 Cu2 120.7(4) . .
C83 O12 Cu2 109.2(4) . .
C75 O12 H12A 109.4 . .
Cu2 O12 H12A 81.0 . .
C83 O12 H12B 109.5 . .
Cu2 O12 H12B 116.2 . .
Cu2 O12 H12C 108.3(19) . .
Cu2 O12 H12D 109.7(17) . .
H12C O12 H12D 98(3) . .
C69 O13 H13A 109.5 . .
O1 Cu1 O5 169.31(7) . 3_666
O1 Cu1 O10 89.30(8) . 3_666
O5 Cu1 O10 88.03(8) 3_666 3_666
O1 Cu1 O6 88.67(8) . .
O5 Cu1 O6 91.80(8) 3_666 .
O10 Cu1 O6 168.00(7) 3_666 .
O1 Cu1 O11 93.40(7) . .
O5 Cu1 O11 97.22(7) 3_666 .
O10 Cu1 O11 98.10(8) 3_666 .
O6 Cu1 O11 93.83(8) . .
O1 Cu1 Cu2 83.77(5) . .
O5 Cu1 Cu2 85.66(5) 3_666 .
O10 Cu1 Cu2 83.89(5) 3_666 .
O6 Cu1 Cu2 84.13(5) . .
O11 Cu1 Cu2 176.53(6) . .
O7 Cu2 O9 170.05(7) . 3_666
O7 Cu2 O2 87.91(8) . .
O9 Cu2 O2 90.87(8) 3_666 .
O7 Cu2 O4 91.42(8) . 3_666
O9 Cu2 O4 87.86(9) 3_666 3_666
O2 Cu2 O4 168.78(7) . 3_666
O7 Cu2 O12 94.82(9) . .
O9 Cu2 O12 95.13(9) 3_666 .
O2 Cu2 O12 97.39(9) . .
O4 Cu2 O12 93.83(9) 3_666 .
O7 Cu2 Cu1 84.94(5) . .
O9 Cu2 Cu1 85.12(5) 3_666 .
O2 Cu2 Cu1 85.37(5) . .
O4 Cu2 Cu1 83.41(5) 3_666 .
O12 Cu2 Cu1 177.22(7) . .
loop_
_geom_bond_atom_site_label_1
_geom_bond_atom_site_label_2
_geom_bond_distance
_geom_bond_site_symmetry_2
C1 O1 1.258(3) .
C1 O2 1.263(3) .
C1 C2 1.498(4) .
C2 C7 1.384(4) .
C2 C3 1.395(4) .
C3 C4 1.379(4) .
C3 H3 0.9500 .
C4 C5 1.387(4) .
C4 H4 0.9500 .
C5 C6 1.400(4) .
C5 H5 0.9500 .
C6 C7 1.392(4) .
C6 C8 1.434(4) .
C7 H7 0.9500 .
C8 C9 1.198(4) .
C9 C10 1.429(4) .
C10 C11 1.358(16) .
C10 C15 1.408(4) .
C10 C11B 1.51(3) .
C14 C13 1.360(14) .
C14 C15 1.403(4) .
C14 C16 1.437(4) .
C14 C13B 1.48(2) .
C15 N1 1.376(4) .
C16 C17 1.191(4) .
C17 C18 1.439(4) .
C18 C23 1.396(4) .
C18 C19 1.397(4) .
C19 C20 1.388(4) .
C19 H19 0.9500 .
C20 C21 1.382(4) .
C20 H20 0.9500 .
C21 C22 1.398(4) .
C21 H21 0.9500 .
C22 C23 1.389(4) .
C22 C24 1.504(4) .
C23 H23 0.9500 .
C24 O4 1.259(3) .
C24 O5 1.267(3) .
C11 C12 1.376(8) .
C11 H11 0.9500 .
C12 O3 1.379(8) .
C12 C13 1.399(8) .
C13 H13 0.9500 .
O3 C25 1.442(7) .
C25 C26 1.514(6) .
C25 H25A 0.9900 .
C25 H25B 0.9900 .
C26 C27 1.514(8) .
C26 H26A 0.9900 .
C26 H26B 0.9900 .
C27 C28 1.523(8) .
C27 H27A 0.9900 .
C27 H27B 0.9900 .
C28 C29 1.501(8) .
C28 H28A 0.9900 .
C28 H28B 0.9900 .
C29 C30 1.533(9) .
C29 H29A 0.9900 .
C29 H29B 0.9900 .
C30 C31 1.517(9) .
C30 H30A 0.9900 .
C30 H30B 0.9900 .
C31 C32 1.527(8) .
C31 H31A 0.9900 .
C31 H31B 0.9900 .
C32 C33 1.526(8) .
C32 H32A 0.9900 .
C32 H32B 0.9900 .
C33 C34 1.535(9) .
C33 H33A 0.9900 .
C33 H33B 0.9900 .
C34 H34A 0.9800 .
C34 H34B 0.9800 .
C34 H34C 0.9800 .
C11B C12B 1.369(13) .
C11B H11B 0.9500 .
C12B O3B 1.374(12) .
C12B C13B 1.398(12) .
C13B H13B 0.9500 .
O3B C25B 1.442(11) .
C25B C26B 1.521(10) .
C25B H25C 0.9900 .
C25B H25D 0.9900 .
C26B C27B 1.522(10) .
C26B H26C 0.9900 .
C26B H26D 0.9900 .
C27B C28B 1.524(9) .
C27B H27C 0.9900 .
C27B H27D 0.9900 .
C28B C29B 1.500(13) .
C28B H28C 0.9900 .
C28B H28D 0.9900 .
C29B C30B 1.536(13) .
C29B H29C 0.9900 .
C29B H29D 0.9900 .
C30B C31B 1.515(14) .
C30B H30C 0.9900 .
C30B H30D 0.9900 .
C31B C32B 1.515(14) .
C31B H31C 0.9900 .
C31B H31D 0.9900 .
C32B C33B 1.519(16) .
C32B H32C 0.9900 .
C32B H32D 0.9900 .
C33B C34B 1.471(18) .
C33B H33C 0.9900 .
C33B H33D 0.9900 .
C34B H34D 0.9800 .
C34B H34E 0.9800 .
C34B H34F 0.9800 .
C35 O6 1.259(3) .
C35 O7 1.267(3) .
C35 C36 1.497(4) .
C36 C37 1.393(4) .
C36 C41 1.399(4) .
C37 C38 1.387(4) .
C37 H37 0.9500 .
C38 C39 1.387(4) .
C38 H38 0.9500 .
C39 C40 1.406(4) .
C39 H39 0.9500 .
C40 C41 1.389(4) .
C40 C42 1.436(4) .
C41 H41 0.9500 .
C42 C43 1.202(4) .
C43 C44 1.431(4) .
C44 C45 1.398(4) .
C44 C49 1.413(4) .
C45 C46 1.380(4) .
C45 H45 0.9500 .
C46 O8 1.374(17) .
C46 O8B 1.40(3) .
C46 C47 1.399(4) .
C47 C48 1.388(4) .
C47 H47 0.9500 .
C48 C49 1.410(4) .
C48 C50 1.430(4) .
C49 N2 1.380(4) .
C50 C51 1.200(4) .
C51 C52 1.435(4) .
C52 C57 1.388(4) .
C52 C53 1.400(4) .
C53 C54 1.383(4) .
C53 H53 0.9500 .
C54 C55 1.381(4) .
C54 H54 0.9500 .
C55 C56 1.401(4) .
C55 H55 0.9500 .
C56 C57 1.392(4) .
C56 C58 1.487(4) .
C57 H57 0.9500 .
C58 O9 1.263(3) .
C58 O10 1.265(3) .
O8 C59 1.441(8) .
C59 C60 1.512(8) .
C59 H59A 0.9900 .
C59 H59B 0.9900 .
C60 C61 1.534(9) .
C60 H60A 0.9900 .
C60 H60B 0.9900 .
C61 C62 1.482(8) .
C61 H61A 0.9900 .
C61 H61B 0.9900 .
C62 C63 1.507(8) .
C62 H62A 0.9900 .
C62 H62B 0.9900 .
C63 C64 1.541(10) .
C63 H63A 0.9900 .
C63 H63B 0.9900 .
C64 C65 1.509(10) .
C64 H64A 0.9900 .
C64 H64B 0.9900 .
C65 C66 1.559(11) .
C65 H65A 0.9900 .
C65 H65B 0.9900 .
C66 C67 1.489(11) .
C66 H66A 0.9900 .
C66 H66B 0.9900 .
C67 H67A 0.9800 .
C67 H67B 0.9800 .
C67 H67C 0.9800 .
O15 C85 1.426(17) .
O15 H15 0.8400 .
C85 H85A 0.9800 .
C85 H85B 0.9800 .
C85 H85C 0.9800 .
O8B C59B 1.445(14) .
C59B C60B 1.512(14) .
C59B H59C 0.9900 .
C59B H59D 0.9900 .
C60B C61B 1.511(11) .
C60B H60C 0.9900 .
C60B H60D 0.9900 .
C61B C62B 1.393(12) .
C61B H61C 0.9900 .
C61B H61D 0.9900 .
C62B C63B 1.493(13) .
C62B H62C 0.9900 .
C62B H62D 0.9900 .
C63B C64B 1.531(15) .
C63B H63C 0.9900 .
C63B H63D 0.9900 .
C64B C65B 1.544(15) .
C64B H64C 0.9900 .
C64B H64D 0.9900 .
C65B C66B 1.518(15) .
C65B H65C 0.9900 .
C65B H65D 0.9900 .
C66B C67B 1.485(15) .
C66B H66C 0.9900 .
C66B H66D 0.9900 .
C67B H67D 0.9800 .
C67B H67E 0.9800 .
C67B H67F 0.9800 .
O15B H15A 0.8472 .
O15B H15B 0.8513 .
C68 O11 1.413(4) .
C68 H68A 0.9800 .
C68 H68B 0.9800 .
C68 H68C 0.9800 .
C69 O13 1.445(6) .
C69 H69A 0.9800 .
C69 H69B 0.9800 .
C69 H69C 0.9800 .
O14 C70 1.343(8) .
C70 N3 1.309(7) .
C70 C71 1.478(7) .
C71 H71A 0.9800 .
C71 H71B 0.9800 .
C71 H71C 0.9800 .
N3 C72 1.419(7) .
N3 C73 1.461(7) .
C72 H72A 0.9800 .
C72 H72B 0.9800 .
C72 H72C 0.9800 .
C73 H73A 0.9800 .
C73 H73B 0.9800 .
C73 H73C 0.9800 .
O16 H16A 0.8517 .
O16 H16B 0.8429 .
O17 C74 1.382(19) .
O17 H17 0.8400 .
C74 H74A 0.9800 .
C74 H74B 0.9800 .
C74 H74C 0.9800 .
O18 C76 1.320(14) .
C76 N4 1.305(14) .
C76 C77 1.499(16) .
C77 H77A 0.9800 .
C77 H77B 0.9800 .
C77 H77C 0.9800 .
N4 C78 1.457(16) .
N4 C79 1.463(16) .
C78 H78A 0.9800 .
C78 H78B 0.9800 .
C78 H78C 0.9800 .
C79 H79A 0.9800 .
C79 H79B 0.9800 .
C79 H79C 0.9800 .
C75 O12 1.434(9) .
C75 H75A 0.9800 .
C75 H75B 0.9800 .
C75 H75C 0.9800 .
C82 O20 1.382(12) .
C82 H82A 0.9800 .
C82 H82B 0.9800 .
C82 H82C 0.9800 .
O20 H20A 0.8400 .
O21 H21A 0.8889 .
O21 H21B 0.8600 .
O22 C80 1.390(19) .
O22 H22 0.8400 .
C80 H80A 0.9800 .
C80 H80B 0.9800 .
C80 H80C 0.9800 .
O23 C81 1.52(2) .
O23 H23O 0.8400 .
C81 H81A 0.9800 .
C81 H81B 0.9800 .
C81 H81C 0.9800 .
C83 O12 1.661(13) .
C83 H83A 0.9800 .
C83 H83B 0.9800 .
C83 H83C 0.9800 .
N1 H1A 0.8800 .
N1 H1B 0.8800 .
N2 H2A 0.8800 .
N2 H2B 0.8800 .
O1 Cu1 1.9457(17) .
O2 Cu2 1.9651(17) .
O4 Cu2 1.9708(18) 3_666
O5 Cu1 1.9580(18) 3_666
O6 Cu1 1.9826(19) .
O7 Cu2 1.9549(19) .
O9 Cu2 1.9560(19) 3_666
O10 Cu1 1.9731(19) 3_666
O11 Cu1 2.1521(18) .
O11 H11O 0.827(19) .
O12 Cu2 2.164(2) .
O12 H12A 0.8400 .
O12 H12B 0.8400 .
O12 H12C 0.88(2) .
O12 H12D 0.870(17) .
O13 H13A 0.8400 .
Cu1 O5 1.9580(18) 3_666
Cu1 O10 1.9731(19) 3_666
Cu1 Cu2 2.6126(5) .
Cu2 O9 1.9559(19) 3_666
Cu2 O4 1.9706(18) 3_666
loop_
_geom_torsion_atom_site_label_1
_geom_torsion_atom_site_label_2
_geom_torsion_atom_site_label_3
_geom_torsion_atom_site_label_4
_geom_torsion
_geom_torsion_site_symmetry_4
O1 C1 C2 C7 164.4(2) .
O2 C1 C2 C7 -15.2(4) .
O1 C1 C2 C3 -18.0(4) .
O2 C1 C2 C3 162.4(3) .
C7 C2 C3 C4 0.9(5) .
C1 C2 C3 C4 -176.8(3) .
C2 C3 C4 C5 -2.3(6) .
C3 C4 C5 C6 1.5(7) .
C4 C5 C6 C7 0.8(6) .
C4 C5 C6 C8 177.5(4) .
C3 C2 C7 C6 1.5(4) .
C1 C2 C7 C6 179.1(3) .
C5 C6 C7 C2 -2.3(5) .
C8 C6 C7 C2 -178.9(3) .
C13 C14 C15 N1 -175.9(8) .
C16 C14 C15 N1 1.3(5) .
C13B C14 C15 N1 169.1(14) .
C13 C14 C15 C10 5.4(9) .
C16 C14 C15 C10 -177.3(3) .
C13B C14 C15 C10 -9.6(14) .
C11 C10 C15 N1 175.0(8) .
C9 C10 C15 N1 -2.1(5) .
C11B C10 C15 N1 -170.8(13) .
C11 C10 C15 C14 -6.3(9) .
C9 C10 C15 C14 176.5(3) .
C11B C10 C15 C14 7.9(14) .
C23 C18 C19 C20 -1.3(5) .
C17 C18 C19 C20 178.6(3) .
C18 C19 C20 C21 1.2(5) .
C19 C20 C21 C22 -0.5(5) .
C20 C21 C22 C23 -0.1(4) .
C20 C21 C22 C24 -177.5(3) .
C21 C22 C23 C18 0.0(4) .
C24 C22 C23 C18 177.4(3) .
C19 C18 C23 C22 0.7(4) .
C17 C18 C23 C22 -179.2(3) .
C23 C22 C24 O4 0.7(4) .
C21 C22 C24 O4 178.2(3) .
C23 C22 C24 O5 -178.1(3) .
C21 C22 C24 O5 -0.7(4) .
C15 C10 C11 C12 5.6(16) .
C9 C10 C11 C12 -177.3(9) .
C11B C10 C11 C12 -68(7) .
C10 C11 C12 O3 176.3(12) .
C10 C11 C12 C13 -3.9(18) .
C15 C14 C13 C12 -4.1(16) .
C16 C14 C13 C12 178.7(9) .
C13B C14 C13 C12 110(7) .
C11 C12 C13 C14 3.4(19) .
O3 C12 C13 C14 -176.8(11) .
C11 C12 O3 C25 -7.5(15) .
C13 C12 O3 C25 172.7(9) .
C12 O3 C25 C26 -173.6(7) .
O3 C25 C26 C27 72.0(7) .
C25 C26 C27 C28 -177.4(5) .
C26 C27 C28 C29 -64.0(9) .
C27 C28 C29 C30 -169.4(8) .
C28 C29 C30 C31 -178.7(10) .
C29 C30 C31 C32 -174.4(8) .
C30 C31 C32 C33 175.9(8) .
C31 C32 C33 C34 -69.1(9) .
C11 C10 C11B C12B 108(8) .
C15 C10 C11B C12B -6(3) .
C9 C10 C11B C12B -174.2(16) .
C10 C11B C12B O3B -177(2) .
C10 C11B C12B C13B 5(3) .
C11B C12B C13B C14 -6(3) .
O3B C12B C13B C14 175.8(19) .
C13 C14 C13B C12B -65(6) .
C15 C14 C13B C12B 8(3) .
C16 C14 C13B C12B 176.4(16) .
C11B C12B O3B C25B -22(3) .
C13B C12B O3B C25B 156.6(17) .
C12B O3B C25B C26B -163.2(13) .
O3B C25B C26B C27B -65.6(12) .
C25B C26B C27B C28B -178.2(7) .
C26B C27B C28B C29B 70.2(13) .
C27B C28B C29B C30B 176.6(12) .
C28B C29B C30B C31B 179.2(17) .
C29B C30B C31B C32B 178.2(17) .
C30B C31B C32B C33B -176(2) .
C31B C32B C33B C34B -169(2) .
O6 C35 C36 C37 10.0(4) .
O7 C35 C36 C37 -171.1(2) .
O6 C35 C36 C41 -168.0(2) .
O7 C35 C36 C41 11.0(3) .
C41 C36 C37 C38 -0.5(4) .
C35 C36 C37 C38 -178.4(2) .
C36 C37 C38 C39 1.0(4) .
C37 C38 C39 C40 -0.3(4) .
C38 C39 C40 C41 -0.8(4) .
C38 C39 C40 C42 -178.9(3) .
C39 C40 C41 C36 1.3(4) .
C42 C40 C41 C36 179.4(2) .
C37 C36 C41 C40 -0.7(4) .
C35 C36 C41 C40 177.3(2) .
C49 C44 C45 C46 -0.3(4) .
C43 C44 C45 C46 176.1(3) .
C44 C45 C46 O8 177.0(7) .
C44 C45 C46 O8B -169.8(14) .
C44 C45 C46 C47 1.4(4) .
O8 C46 C47 C48 -177.4(7) .
C45 C46 C47 C48 -1.2(4) .
O8B C46 C47 C48 170.1(13) .
C46 C47 C48 C49 -0.1(4) .
C46 C47 C48 C50 -178.8(3) .
C47 C48 C49 N2 -178.2(3) .
C50 C48 C49 N2 0.5(4) .
C47 C48 C49 C44 1.2(4) .
C50 C48 C49 C44 179.9(2) .
C45 C44 C49 N2 178.4(3) .
C43 C44 C49 N2 2.0(4) .
C45 C44 C49 C48 -1.0(4) .
C43 C44 C49 C48 -177.5(2) .
C57 C52 C53 C54 -0.8(4) .
C51 C52 C53 C54 178.3(3) .
C52 C53 C54 C55 1.6(5) .
C53 C54 C55 C56 -1.0(5) .
C54 C55 C56 C57 -0.5(4) .
C54 C55 C56 C58 177.1(3) .
C53 C52 C57 C56 -0.7(4) .
C51 C52 C57 C56 -179.8(2) .
C55 C56 C57 C52 1.4(4) .
C58 C56 C57 C52 -176.3(2) .
C57 C56 C58 O9 -5.4(3) .
C55 C56 C58 O9 177.0(2) .
C57 C56 C58 O10 173.0(2) .
C55 C56 C58 O10 -4.6(4) .
C45 C46 O8 C59 -4.2(15) .
O8B C46 O8 C59 -69(9) .
C47 C46 O8 C59 171.6(9) .
C46 O8 C59 C60 -177.6(10) .
O8 C59 C60 C61 60.3(15) .
C59 C60 C61 C62 -87.1(11) .
C60 C61 C62 C63 -176.6(7) .
C61 C62 C63 C64 -177.7(6) .
C62 C63 C64 C65 -172.9(7) .
C63 C64 C65 C66 178.1(7) .
C64 C65 C66 C67 68.3(12) .
O8 C46 O8B C59B 97(10) .
C45 C46 O8B C59B -26(3) .
C47 C46 O8B C59B 163(2) .
C46 O8B C59B C60B -167.5(19) .
O8B C59B C60B C61B 52(3) .
C59B C60B C61B C62B 135(3) .
C60B C61B C62B C63B -173(3) .
C61B C62B C63B C64B -38(3) .
C62B C63B C64B C65B -179(2) .
C63B C64B C65B C66B -173(3) .
C64B C65B C66B C67B -154(3) .
O14 C70 N3 C72 -5.8(6) .
C71 C70 N3 C72 176.6(5) .
O14 C70 N3 C73 171.8(5) .
C71 C70 N3 C73 -5.8(7) .
O18 C76 N4 C78 -3(2) .
C77 C76 N4 C78 -176.0(19) .
O18 C76 N4 C79 177.3(15) .
C77 C76 N4 C79 5(2) .
O2 C1 O1 Cu1 -4.8(4) .
C2 C1 O1 Cu1 175.58(16) .
O1 C1 O2 Cu2 -3.0(3) .
C2 C1 O2 Cu2 176.57(16) .
O5 C24 O4 Cu2 12.6(4) 3_666
C22 C24 O4 Cu2 -166.07(18) 3_666
O4 C24 O5 Cu1 -3.0(4) 3_666
C22 C24 O5 Cu1 175.70(18) 3_666
O7 C35 O6 Cu1 -14.2(4) .
C36 C35 O6 Cu1 164.65(16) .
O6 C35 O7 Cu2 5.0(4) .
C36 C35 O7 Cu2 -173.78(15) .
O10 C58 O9 Cu2 -1.9(4) 3_666
C56 C58 O9 Cu2 176.34(16) 3_666
O9 C58 O10 Cu1 11.5(4) 3_666
C56 C58 O10 Cu1 -166.68(16) 3_666
