#------------------------------------------------------------------------------
#$Date: 2016-03-26 14:58:14 +0200 (Sat, 26 Mar 2016) $
#$Revision: 180282 $
#$URL: svn://www.crystallography.net/cod/cif/7/11/68/7116865.cif $
#------------------------------------------------------------------------------
#
# This file is available in the Crystallography Open Database (COD),
# http://www.crystallography.net/
#
# All data on this site have been placed in the public domain by the
# contributors.
#
data_7116865
loop_
_publ_author_name
'Min Chen'
'Hui Zhao'
'Chun-Sen Liu'
'Xi Wang'
'Heng-Zhen Shi'
'Miao Du'
_publ_section_title
;
 Template-directed construction of conformational supramolecular isomers
 for bilayer porous metal-organic frameworks with distinct gas sorption
 behaviors
;
_journal_name_full               Chem.Commun.
_journal_page_first              6014
_journal_paper_doi               10.1039/C5cc00018A
_journal_volume                  51
_journal_year                    2015
_chemical_formula_sum            'C18 H11.33 Co O6.67'
_chemical_formula_weight         393.20
_chemical_name_systematic
; 
 ? 
;
_space_group_IT_number           163
_symmetry_cell_setting           trigonal
_symmetry_space_group_name_Hall  '-P 3 2c'
_symmetry_space_group_name_H-M   'P -3 1 c'
_atom_sites_solution_hydrogens   geom
_atom_sites_solution_primary     direct
_atom_sites_solution_secondary   difmap
_audit_creation_method           SHELXL-97
_audit_update_record
;
2014-10-26 deposited with the CCDC.
2015-02-25 downloaded from the CCDC.
;
_cell_angle_alpha                90.00
_cell_angle_beta                 90.00
_cell_angle_gamma                120.00
_cell_formula_units_Z            6
_cell_length_a                   16.7335(4)
_cell_length_b                   16.7335(4)
_cell_length_c                   14.9637(12)
_cell_measurement_reflns_used    2233
_cell_measurement_temperature    195.0(1)
_cell_measurement_theta_max      28.1680
_cell_measurement_theta_min      3.9040
_cell_volume                     3628.6(3)
_computing_cell_refinement
;
CrysAlisPro, Agilent Technologies,
Version 1.171.36.32 (release 02-08-2013 CrysAlis171 .NET)
(compiled Aug  2 2013,16:46:58)
;
_computing_data_collection
;
CrysAlisPro, Agilent Technologies,
Version 1.171.36.32 (release 02-08-2013 CrysAlis171 .NET)
(compiled Aug  2 2013,16:46:58)
;
_computing_data_reduction
;
CrysAlisPro, Agilent Technologies,
Version 1.171.36.32 (release 02-08-2013 CrysAlis171 .NET)
(compiled Aug  2 2013,16:46:58)
;
_computing_molecular_graphics    'SHELXTL (Sheldrick, 2008)'
_computing_publication_material  'SHELXTL and PLATON (Spek, 2009)'
_computing_structure_refinement  'SHELXL97 (Sheldrick, 2008)'
_computing_structure_solution    'SHELXS97 (Sheldrick, 2008)'
_diffrn_ambient_temperature      195.0(1)
_diffrn_measured_fraction_theta_full 0.997
_diffrn_measured_fraction_theta_max 0.997
_diffrn_measurement_device_type  'Xcalibur, Eos, Gemini'
_diffrn_measurement_method       '\w scans'
_diffrn_radiation_monochromator  graphite
_diffrn_radiation_source         'Enhance (Mo) X-ray Source'
_diffrn_radiation_type           MoK\a
_diffrn_radiation_wavelength     0.71073
_diffrn_reflns_av_R_equivalents  0.0255
_diffrn_reflns_av_sigmaI/netI    0.0286
_diffrn_reflns_limit_h_max       13
_diffrn_reflns_limit_h_min       -20
_diffrn_reflns_limit_k_max       20
_diffrn_reflns_limit_k_min       -15
_diffrn_reflns_limit_l_max       18
_diffrn_reflns_limit_l_min       -10
_diffrn_reflns_number            8312
_diffrn_reflns_theta_full        26.37
_diffrn_reflns_theta_max         26.37
_diffrn_reflns_theta_min         3.06
_diffrn_standards_decay_%        0
_diffrn_standards_interval_count 0
_diffrn_standards_interval_time  0
_diffrn_standards_number         0
_exptl_absorpt_coefficient_mu    0.734
_exptl_absorpt_correction_T_max  0.8916
_exptl_absorpt_correction_T_min  0.8551
_exptl_absorpt_correction_type   multi-scan
_exptl_absorpt_process_details
;
CrysAlisPro, Agilent Technologies,
Version 1.171.36.32 (release 02-08-2013 CrysAlis171 .NET)
(compiled Aug  2 2013,16:46:58)
Empirical absorption correction using spherical harmonics,
 implemented in SCALE3 ABSPACK scaling algorithm.
;
_exptl_crystal_colour            Blue
_exptl_crystal_density_diffrn    1.080
_exptl_crystal_density_method    'not measured'
_exptl_crystal_description       Block
_exptl_crystal_F_000             1198
_exptl_crystal_size_max          0.22
_exptl_crystal_size_mid          0.16
_exptl_crystal_size_min          0.16
_refine_diff_density_max         0.942
_refine_diff_density_min         -0.418
_refine_diff_density_rms         0.082
_refine_ls_extinction_method     none
_refine_ls_goodness_of_fit_ref   1.051
_refine_ls_hydrogen_treatment    constr
_refine_ls_matrix_type           full
_refine_ls_number_parameters     117
_refine_ls_number_reflns         2480
_refine_ls_number_restraints     0
_refine_ls_restrained_S_all      1.051
_refine_ls_R_factor_all          0.0826
_refine_ls_R_factor_gt           0.0571
_refine_ls_shift/su_max          0.010
_refine_ls_shift/su_mean         0.003
_refine_ls_structure_factor_coef Fsqd
_refine_ls_weighting_details
'calc w=1/[\s^2^(Fo^2^)+(0.1229P)^2^+0.0000P] where P=(Fo^2^+2Fc^2^)/3'
_refine_ls_weighting_scheme      calc
_refine_ls_wR_factor_gt          0.1731
_refine_ls_wR_factor_ref         0.1921
_reflns_number_gt                1660
_reflns_number_total             2480
_reflns_threshold_expression     >2sigma(I)
_cod_data_source_file            c5cc00018a2.cif
_cod_data_source_block           470-MOF_195K
_cod_original_sg_symbol_H-M      P-31c
_cod_database_code               7116865
loop_
_symmetry_equiv_pos_as_xyz
'x, y, z'
'-y, x-y, z'
'-x+y, -x, z'
'-y, -x, -z+1/2'
'-x+y, y, -z+1/2'
'x, x-y, -z+1/2'
'-x, -y, -z'
'y, -x+y, -z'
'x-y, x, -z'
'y, x, z-1/2'
'x-y, -y, z-1/2'
'-x, -x+y, z-1/2'
loop_
_atom_site_label
_atom_site_type_symbol
_atom_site_fract_x
_atom_site_fract_y
_atom_site_fract_z
_atom_site_U_iso_or_equiv
_atom_site_adp_type
_atom_site_occupancy
_atom_site_symmetry_multiplicity
_atom_site_calc_flag
_atom_site_refinement_flags
_atom_site_disorder_assembly
_atom_site_disorder_group
Co1 Co 0.3333 0.6667 0.7500 0.0505(3) Uani 1 6 d S . .
Co2 Co 0.3333 0.6667 0.50880(6) 0.0640(3) Uani 1 3 d S . .
C1 C 0.4888(2) 0.7014(2) 0.6120(3) 0.0701(11) Uani 1 1 d . . .
C2 C 0.5900(2) 0.7313(2) 0.6188(3) 0.0580(8) Uani 1 1 d . . .
C3 C 0.6487(2) 0.7729(2) 0.5462(3) 0.0661(9) Uani 1 1 d . . .
H3 H 0.6250 0.7814 0.4931 0.079 Uiso 1 1 calc R . .
C4 C 0.7402(2) 0.8011(2) 0.5523(2) 0.0639(9) Uani 1 1 d . . .
H4 H 0.7788 0.8277 0.5034 0.077 Uiso 1 1 calc R . .
C5 C 0.7749(2) 0.78990(19) 0.6316(2) 0.0533(8) Uani 1 1 d . . .
C6 C 0.7186(2) 0.7476(2) 0.7040(2) 0.0596(8) Uani 1 1 d . . .
H6 H 0.7427 0.7391 0.7568 0.072 Uiso 1 1 calc R . .
C7 C 0.6256(2) 0.7178(2) 0.6965(3) 0.0635(9) Uani 1 1 d . . .
H7 H 0.5865 0.6883 0.7445 0.076 Uiso 1 1 calc R . .
C8 C 0.9313(2) 0.90944(19) 0.63475(19) 0.0446(7) Uani 1 1 d . . .
C9 C 0.9076(2) 0.9775(2) 0.63460(19) 0.0449(7) Uani 1 1 d . . .
H9 H 0.8460 0.9626 0.6344 0.054 Uiso 1 1 calc R . .
O1 O 0.43914(17) 0.66563(16) 0.6781(2) 0.0849(9) Uani 1 1 d . . .
O2 O 0.46296(16) 0.71495(18) 0.5368(2) 0.0851(9) Uani 1 1 d . . .
O3 O 0.86797(13) 0.81659(13) 0.63985(16) 0.0592(6) Uani 1 1 d . . .
O4 O 0.3333 0.6667 0.36446(18) 0.0517(10) Uani 1 3 d S . .
H4A H 0.2786 0.6463 0.3455 0.078 Uiso 0.11 1 d PR A 3
H4B H 0.3677 0.7214 0.3455 0.078 Uiso 0.11 1 d PR A 3
H4A' H 0.3677 0.7214 0.3455 0.078 Uiso 0.11 1 d PR . .
H4B' H 0.3537 0.6324 0.3455 0.078 Uiso 0.11 1 d PR . .
H4A" H 0.3537 0.6324 0.3455 0.078 Uiso 0.11 1 d PR A 1
H4B" H 0.2786 0.6463 0.3455 0.078 Uiso 0.11 1 d PR A 1
loop_
_atom_site_aniso_label
_atom_site_aniso_U_11
_atom_site_aniso_U_22
_atom_site_aniso_U_33
_atom_site_aniso_U_23
_atom_site_aniso_U_13
_atom_site_aniso_U_12
Co1 0.0268(3) 0.0268(3) 0.0981(8) 0.000 0.000 0.01339(17)
Co2 0.0422(3) 0.0422(3) 0.1075(7) 0.000 0.000 0.02111(17)
C1 0.0414(17) 0.0384(16) 0.135(3) 0.017(2) 0.019(2) 0.0231(14)
C2 0.0366(15) 0.0346(15) 0.099(2) 0.0054(15) 0.0164(16) 0.0151(13)
C3 0.0368(15) 0.062(2) 0.091(2) 0.0137(18) 0.0030(16) 0.0180(15)
C4 0.0348(15) 0.064(2) 0.084(2) 0.0130(18) 0.0131(16) 0.0189(15)
C5 0.0357(15) 0.0309(14) 0.087(2) 0.0044(14) 0.0076(15) 0.0124(12)
C6 0.0522(19) 0.0402(16) 0.080(2) 0.0032(15) 0.0088(16) 0.0182(14)
C7 0.0562(19) 0.0429(18) 0.088(2) 0.0083(16) 0.0217(18) 0.0221(15)
C8 0.0396(14) 0.0358(14) 0.0555(16) 0.0014(12) -0.0010(12) 0.0167(12)
C9 0.0357(14) 0.0412(15) 0.0570(17) 0.0035(13) 0.0040(12) 0.0187(12)
O1 0.0477(13) 0.0561(15) 0.155(3) 0.0292(15) 0.0425(15) 0.0293(12)
O2 0.0363(12) 0.0654(17) 0.149(3) 0.0219(17) 0.0092(15) 0.0217(12)
O3 0.0381(11) 0.0338(10) 0.1015(17) 0.0071(10) -0.0004(10) 0.0147(9)
O4 0.0618(15) 0.0618(15) 0.0316(17) 0.000 0.000 0.0309(8)
loop_
_atom_type_symbol
_atom_type_description
_atom_type_scat_dispersion_real
_atom_type_scat_dispersion_imag
_atom_type_scat_source
C C 0.0033 0.0016 'International Tables Vol C Tables 4.2.6.8 and 6.1.1.4'
H H 0.0000 0.0000 'International Tables Vol C Tables 4.2.6.8 and 6.1.1.4'
O O 0.0106 0.0060 'International Tables Vol C Tables 4.2.6.8 and 6.1.1.4'
Co Co 0.3494 0.9721 'International Tables Vol C Tables 4.2.6.8 and 6.1.1.4'
loop_
_geom_angle_atom_site_label_1
_geom_angle_atom_site_label_2
_geom_angle_atom_site_label_3
_geom_angle
_geom_angle_site_symmetry_1
_geom_angle_site_symmetry_3
O1 Co1 O1 84.97(16) 2_665 5_556
O1 Co1 O1 83.73(14) 2_665 6_566
O1 Co1 O1 95.65(12) 5_556 6_566
O1 Co1 O1 95.65(12) 2_665 3_565
O1 Co1 O1 83.73(14) 5_556 3_565
O1 Co1 O1 179.17(12) 6_566 3_565
O1 Co1 O1 179.17(12) 2_665 4_666
O1 Co1 O1 95.65(12) 5_556 4_666
O1 Co1 O1 95.65(12) 6_566 4_666
O1 Co1 O1 84.97(16) 3_565 4_666
O1 Co1 O1 95.65(12) 2_665 .
O1 Co1 O1 179.17(12) 5_556 .
O1 Co1 O1 84.97(17) 6_566 .
O1 Co1 O1 95.65(12) 3_565 .
O1 Co1 O1 83.73(14) 4_666 .
O2 Co2 O2 115.48(7) 2_665 3_565
O2 Co2 O2 115.48(7) 2_665 .
O2 Co2 O2 115.48(7) 3_565 .
O2 Co2 O4 102.45(10) 2_665 .
O2 Co2 O4 102.45(10) 3_565 .
O2 Co2 O4 102.45(10) . .
O1 C1 O2 126.2(3) . .
O1 C1 C2 118.5(4) . .
O2 C1 C2 115.3(3) . .
C7 C2 C3 119.1(3) . .
C7 C2 C1 120.6(3) . .
C3 C2 C1 120.4(3) . .
C4 C3 C2 120.7(3) . .
C4 C3 H3 119.7 . .
C2 C3 H3 119.7 . .
C3 C4 C5 119.3(3) . .
C3 C4 H4 120.4 . .
C5 C4 H4 120.4 . .
C4 C5 C6 121.5(3) . .
C4 C5 O3 120.8(3) . .
C6 C5 O3 117.6(3) . .
C5 C6 C7 118.7(3) . .
C5 C6 H6 120.7 . .
C7 C6 H6 120.7 . .
C2 C7 C6 120.8(3) . .
C2 C7 H7 119.6 . .
C6 C7 H7 119.6 . .
O3 C8 C9 123.7(3) . .
O3 C8 C9 114.2(3) . 2_765
C9 C8 C9 122.0(3) . 2_765
C8 C9 C8 118.0(3) . 3_675
C8 C9 H9 121.0 . .
C8 C9 H9 121.0 3_675 .
C1 O1 Co1 141.1(2) . .
C1 O2 Co2 121.8(2) . .
C8 O3 C5 117.5(2) . .
Co2 O4 H4A 109.5 . .
Co2 O4 H4B 109.5 . .
H4A O4 H4B 109.5 . .
Co2 O4 H4A' 109.5 . .
H4A O4 H4A' 109.5 . .
Co2 O4 H4B' 109.5 . .
H4A O4 H4B' 109.5 . .
H4B O4 H4B' 109.5 . .
H4A' O4 H4B' 109.5 . .
Co2 O4 H4A" 109.5 . .
H4A O4 H4A" 109.5 . .
H4B O4 H4A" 109.5 . .
H4A' O4 H4A" 109.5 . .
Co2 O4 H4B" 109.5 . .
H4B O4 H4B" 109.5 . .
H4A' O4 H4B" 109.5 . .
H4B' O4 H4B" 109.5 . .
H4A" O4 H4B" 109.5 . .
loop_
_geom_bond_atom_site_label_1
_geom_bond_atom_site_label_2
_geom_bond_distance
_geom_bond_site_symmetry_2
Co1 O1 2.079(2) 2_665
Co1 O1 2.079(2) 5_556
Co1 O1 2.079(2) 6_566
Co1 O1 2.079(2) 3_565
Co1 O1 2.079(2) 4_666
Co1 O1 2.079(2) .
Co2 O2 1.944(2) 2_665
Co2 O2 1.944(2) 3_565
Co2 O2 1.944(2) .
Co2 O4 2.160(3) .
C1 O1 1.237(5) .
C1 O2 1.266(5) .
C1 C2 1.510(4) .
C2 C7 1.374(5) .
C2 C3 1.394(5) .
C3 C4 1.362(4) .
C3 H3 0.9300 .
C4 C5 1.375(5) .
C4 H4 0.9300 .
C5 C6 1.376(4) .
C5 O3 1.394(3) .
C6 C7 1.382(5) .
C6 H6 0.9300 .
C7 H7 0.9300 .
C8 O3 1.377(3) .
C8 C9 1.381(4) .
C8 C9 1.387(4) 2_765
C9 C8 1.387(4) 3_675
C9 H9 0.9300 .
O4 H4A 0.8500 .
O4 H4B 0.8500 .
O4 H4A' 0.8500 .
O4 H4B' 0.8500 .
O4 H4A" 0.8500 .
O4 H4B" 0.8500 .
loop_
_geom_torsion_atom_site_label_1
_geom_torsion_atom_site_label_2
_geom_torsion_atom_site_label_3
_geom_torsion_atom_site_label_4
_geom_torsion
_geom_torsion_site_symmetry_1
_geom_torsion_site_symmetry_4
O1 C1 C2 C7 0.9(5) . .
O2 C1 C2 C7 -178.2(3) . .
O1 C1 C2 C3 -179.3(3) . .
O2 C1 C2 C3 1.6(5) . .
C7 C2 C3 C4 -1.0(5) . .
C1 C2 C3 C4 179.1(3) . .
C2 C3 C4 C5 -1.2(5) . .
C3 C4 C5 C6 2.5(5) . .
C3 C4 C5 O3 178.9(3) . .
C4 C5 C6 C7 -1.5(5) . .
O3 C5 C6 C7 -178.0(3) . .
C3 C2 C7 C6 2.1(5) . .
C1 C2 C7 C6 -178.1(3) . .
C5 C6 C7 C2 -0.9(5) . .
O3 C8 C9 C8 176.09(16) . 3_675
C9 C8 C9 C8 -0.3(6) 2_765 3_675
O2 C1 O1 Co1 -43.1(7) . .
C2 C1 O1 Co1 137.9(3) . .
O1 Co1 O1 C1 -5.8(5) 2_665 .
O1 Co1 O1 C1 -88.9(4) 6_566 .
O1 Co1 O1 C1 90.5(4) 3_565 .
O1 Co1 O1 C1 174.8(5) 4_666 .
O1 C1 O2 Co2 -7.5(5) . .
C2 C1 O2 Co2 171.6(2) . .
O2 Co2 O2 C1 90.4(3) 2_665 .
O2 Co2 O2 C1 -48.6(4) 3_565 .
O4 Co2 O2 C1 -159.1(3) . .
C9 C8 O3 C5 9.4(4) . .
C9 C8 O3 C5 -173.9(3) 2_765 .
C6 C5 O3 C8 -116.7(3) . .
C4 C5 O3 C8 66.8(4) . .
