#------------------------------------------------------------------------------
#$Date: 2016-03-26 14:58:14 +0200 (Sat, 26 Mar 2016) $
#$Revision: 180282 $
#$URL: svn://www.crystallography.net/cod/cif/7/11/68/7116866.cif $
#------------------------------------------------------------------------------
#
# This file is available in the Crystallography Open Database (COD),
# http://www.crystallography.net/
#
# All data on this site have been placed in the public domain by the
# contributors.
#
data_7116866
loop_
_publ_author_name
'Min Chen'
'Hui Zhao'
'Chun-Sen Liu'
'Xi Wang'
'Heng-Zhen Shi'
'Miao Du'
_publ_section_title
;
 Template-directed construction of conformational supramolecular isomers
 for bilayer porous metal-organic frameworks with distinct gas sorption
 behaviors
;
_journal_name_full               Chem.Commun.
_journal_page_first              6014
_journal_paper_doi               10.1039/C5cc00018A
_journal_volume                  51
_journal_year                    2015
_chemical_formula_sum            'C18 H11.33 Co O6.67'
_chemical_formula_weight         393.20
_chemical_name_systematic
; 
 ? 
;
_space_group_IT_number           167
_symmetry_cell_setting           trigonal
_symmetry_space_group_name_Hall  '-R 3 2"c'
_symmetry_space_group_name_H-M   'R -3 c :H'
_atom_sites_solution_hydrogens   geom
_atom_sites_solution_primary     direct
_atom_sites_solution_secondary   difmap
_audit_creation_method           SHELXL-97
_audit_update_record
;
2014-10-26 deposited with the CCDC.
2015-02-25 downloaded from the CCDC.
;
_cell_angle_alpha                90.00
_cell_angle_beta                 90.00
_cell_angle_gamma                120.00
_cell_formula_units_Z            18
_cell_length_a                   17.2813(4)
_cell_length_b                   17.2813(4)
_cell_length_c                   47.354(2)
_cell_measurement_reflns_used    7048
_cell_measurement_temperature    120.0(1)
_cell_measurement_theta_max      28.9120
_cell_measurement_theta_min      3.9840
_cell_volume                     12247.3(7)
_computing_cell_refinement
;
CrysAlisPro, Agilent Technologies,
Version 1.171.36.32 (release 02-08-2013 CrysAlis171 .NET)
(compiled Aug  2 2013,16:46:58)
;
_computing_data_collection
;
CrysAlisPro, Agilent Technologies,
Version 1.171.36.32 (release 02-08-2013 CrysAlis171 .NET)
(compiled Aug  2 2013,16:46:58)
;
_computing_data_reduction
;
CrysAlisPro, Agilent Technologies,
Version 1.171.36.32 (release 02-08-2013 CrysAlis171 .NET)
(compiled Aug  2 2013,16:46:58)
;
_computing_molecular_graphics    'SHELXTL (Sheldrick, 2008)'
_computing_publication_material  'SHELXTL and PLATON (Spek, 2009)'
_computing_structure_refinement  'SHELXL97 (Sheldrick, 2008)'
_computing_structure_solution    'SHELXS97 (Sheldrick, 2008)'
_diffrn_ambient_temperature      120.0(1)
_diffrn_measured_fraction_theta_full 0.998
_diffrn_measured_fraction_theta_max 0.998
_diffrn_measurement_device_type  'Xcalibur, Eos, Gemini'
_diffrn_measurement_method       '\w scans'
_diffrn_radiation_monochromator  graphite
_diffrn_radiation_source         'Enhance (Mo) X-ray Source'
_diffrn_radiation_type           MoK\a
_diffrn_radiation_wavelength     0.71073
_diffrn_reflns_av_R_equivalents  0.0199
_diffrn_reflns_av_sigmaI/netI    0.0129
_diffrn_reflns_limit_h_max       13
_diffrn_reflns_limit_h_min       -20
_diffrn_reflns_limit_k_max       20
_diffrn_reflns_limit_k_min       -18
_diffrn_reflns_limit_l_max       56
_diffrn_reflns_limit_l_min       -56
_diffrn_reflns_number            14826
_diffrn_reflns_theta_full        25.00
_diffrn_reflns_theta_max         25.00
_diffrn_reflns_theta_min         3.22
_diffrn_standards_decay_%        0
_diffrn_standards_interval_count 0
_diffrn_standards_interval_time  0
_diffrn_standards_number         0
_exptl_absorpt_coefficient_mu    0.653
_exptl_absorpt_correction_T_max  0.8805
_exptl_absorpt_correction_T_min  0.8384
_exptl_absorpt_correction_type   multi-scan
_exptl_absorpt_process_details
;
CrysAlisPro, Agilent Technologies,
Version 1.171.36.32 (release 02-08-2013 CrysAlis171 .NET)
(compiled Aug  2 2013,16:46:58)
Empirical absorption correction using spherical harmonics,
 implemented in SCALE3 ABSPACK scaling algorithm.
;
_exptl_crystal_colour            Purple
_exptl_crystal_density_diffrn    0.960
_exptl_crystal_density_method    'not measured'
_exptl_crystal_description       Prism
_exptl_crystal_F_000             3594
_exptl_crystal_size_max          0.28
_exptl_crystal_size_mid          0.21
_exptl_crystal_size_min          0.20
_refine_diff_density_max         0.860
_refine_diff_density_min         -1.232
_refine_diff_density_rms         0.106
_refine_ls_extinction_method     none
_refine_ls_goodness_of_fit_ref   1.107
_refine_ls_hydrogen_treatment    constr
_refine_ls_matrix_type           full
_refine_ls_number_parameters     117
_refine_ls_number_reflns         2402
_refine_ls_number_restraints     0
_refine_ls_restrained_S_all      1.107
_refine_ls_R_factor_all          0.0696
_refine_ls_R_factor_gt           0.0626
_refine_ls_shift/su_max          0.000
_refine_ls_shift/su_mean         0.000
_refine_ls_structure_factor_coef Fsqd
_refine_ls_weighting_details
'calc w=1/[\s^2^(Fo^2^)+(0.1284P)^2^+65.8636P] where P=(Fo^2^+2Fc^2^)/3'
_refine_ls_weighting_scheme      calc
_refine_ls_wR_factor_gt          0.2089
_refine_ls_wR_factor_ref         0.2174
_reflns_number_gt                2018
_reflns_number_total             2402
_reflns_threshold_expression     >2sigma(I)
_cod_data_source_file            c5cc00018a2.cif
_cod_data_source_block           471-MOF_120K
_cod_original_cell_volume        12247.4(7)
_cod_original_sg_symbol_H-M      R-3c
_cod_database_code               7116866
loop_
_symmetry_equiv_pos_as_xyz
'x, y, z'
'-y, x-y, z'
'-x+y, -x, z'
'y, x, -z+1/2'
'x-y, -y, -z+1/2'
'-x, -x+y, -z+1/2'
'x+2/3, y+1/3, z+1/3'
'-y+2/3, x-y+1/3, z+1/3'
'-x+y+2/3, -x+1/3, z+1/3'
'y+2/3, x+1/3, -z+5/6'
'x-y+2/3, -y+1/3, -z+5/6'
'-x+2/3, -x+y+1/3, -z+5/6'
'x+1/3, y+2/3, z+2/3'
'-y+1/3, x-y+2/3, z+2/3'
'-x+y+1/3, -x+2/3, z+2/3'
'y+1/3, x+2/3, -z+7/6'
'x-y+1/3, -y+2/3, -z+7/6'
'-x+1/3, -x+y+2/3, -z+7/6'
'-x, -y, -z'
'y, -x+y, -z'
'x-y, x, -z'
'-y, -x, z-1/2'
'-x+y, y, z-1/2'
'x, x-y, z-1/2'
'-x+2/3, -y+1/3, -z+1/3'
'y+2/3, -x+y+1/3, -z+1/3'
'x-y+2/3, x+1/3, -z+1/3'
'-y+2/3, -x+1/3, z-1/6'
'-x+y+2/3, y+1/3, z-1/6'
'x+2/3, x-y+1/3, z-1/6'
'-x+1/3, -y+2/3, -z+2/3'
'y+1/3, -x+y+2/3, -z+2/3'
'x-y+1/3, x+2/3, -z+2/3'
'-y+1/3, -x+2/3, z+1/6'
'-x+y+1/3, y+2/3, z+1/6'
'x+1/3, x-y+2/3, z+1/6'
loop_
_atom_site_label
_atom_site_type_symbol
_atom_site_fract_x
_atom_site_fract_y
_atom_site_fract_z
_atom_site_U_iso_or_equiv
_atom_site_adp_type
_atom_site_occupancy
_atom_site_symmetry_multiplicity
_atom_site_calc_flag
_atom_site_refinement_flags
_atom_site_disorder_assembly
_atom_site_disorder_group
Co1 Co 0.6667 0.3333 0.0833 0.0155(4) Uani 1 6 d S . .
Co2 Co 0.6667 0.3333 0.007904(16) 0.0181(3) Uani 1 3 d S . .
C1 C 0.7526(2) 0.2585(2) 0.03886(9) 0.0312(9) Uani 1 1 d . . .
C2 C 0.8194(2) 0.2281(2) 0.03989(7) 0.0244(8) Uani 1 1 d . . .
C3 C 0.8483(3) 0.2065(3) 0.01551(8) 0.0341(9) Uani 1 1 d . . .
H3 H 0.8226 0.2069 -0.0017 0.041 Uiso 1 1 calc R . .
C4 C 0.9143(3) 0.1846(3) 0.01630(9) 0.0384(10) Uani 1 1 d . . .
H4 H 0.9335 0.1703 -0.0002 0.046 Uiso 1 1 calc R . .
C5 C 0.9517(2) 0.1840(2) 0.04197(8) 0.0311(9) Uani 1 1 d . . .
C6 C 0.9234(3) 0.2034(3) 0.06651(8) 0.0363(9) Uani 1 1 d . . .
H6 H 0.9488 0.2020 0.0837 0.044 Uiso 1 1 calc R . .
C7 C 0.8565(3) 0.2250(3) 0.06547(8) 0.0325(9) Uani 1 1 d . . .
H7 H 0.8362 0.2376 0.0821 0.039 Uiso 1 1 calc R . .
C8 C 1.0087(2) 0.0831(2) 0.04159(7) 0.0253(8) Uani 1 1 d . . .
C9 C 1.0849(2) 0.0762(2) 0.04160(7) 0.0257(8) Uani 1 1 d . . .
H9 H 1.1414 0.1269 0.0416 0.031 Uiso 1 1 calc R . .
O1 O 0.7262(2) 0.2742(2) 0.06125(8) 0.0621(11) Uani 1 1 d . . .
O2 O 0.72797(18) 0.26679(18) 0.01412(7) 0.0417(8) Uani 1 1 d . . .
O3 O 1.02475(17) 0.16967(17) 0.04262(7) 0.0448(8) Uani 1 1 d . . .
O4 O 0.6667 0.3333 -0.03134(19) 0.143(5) Uani 1 3 d S . .
H4A H 0.6410 0.3612 -0.0373 0.215 Uiso 0.11 1 d PR A 3
H4B H 0.7202 0.3590 -0.0373 0.215 Uiso 0.11 1 d PR A 3
H4A' H 0.7202 0.3590 -0.0373 0.215 Uiso 0.11 1 d PR . .
H4B' H 0.6388 0.2798 -0.0373 0.215 Uiso 0.11 1 d PR . .
H4A" H 0.6388 0.2798 -0.0373 0.215 Uiso 0.11 1 d PR A 1
H4B" H 0.6410 0.3612 -0.0373 0.215 Uiso 0.11 1 d PR A 1
loop_
_atom_site_aniso_label
_atom_site_aniso_U_11
_atom_site_aniso_U_22
_atom_site_aniso_U_33
_atom_site_aniso_U_23
_atom_site_aniso_U_13
_atom_site_aniso_U_12
Co1 0.0146(4) 0.0146(4) 0.0171(6) 0.000 0.000 0.0073(2)
Co2 0.0176(4) 0.0176(4) 0.0192(5) 0.000 0.000 0.00880(19)
C1 0.0248(18) 0.0194(17) 0.051(2) 0.0000(16) 0.0022(16) 0.0124(16)
C2 0.0247(17) 0.0166(16) 0.0331(18) -0.0024(14) 0.0069(14) 0.0111(14)
C3 0.040(2) 0.051(2) 0.0237(18) -0.0065(16) -0.0068(16) 0.0322(19)
C4 0.045(2) 0.046(2) 0.040(2) -0.0130(18) -0.0027(18) 0.035(2)
C5 0.0246(18) 0.0176(17) 0.053(2) 0.0027(15) -0.0037(16) 0.0117(15)
C6 0.033(2) 0.037(2) 0.034(2) 0.0049(16) -0.0093(16) 0.0138(18)
C7 0.040(2) 0.037(2) 0.0205(17) 0.0012(15) 0.0059(15) 0.0195(18)
C8 0.0272(19) 0.0199(17) 0.0313(19) -0.0004(14) -0.0043(14) 0.0136(15)
C9 0.0201(17) 0.0211(17) 0.0326(19) 0.0036(14) -0.0003(14) 0.0079(15)
O1 0.070(2) 0.065(2) 0.074(3) -0.0085(17) 0.0279(18) 0.051(2)
O2 0.0355(15) 0.0339(15) 0.066(2) -0.0068(13) -0.0108(13) 0.0253(14)
O3 0.0240(14) 0.0196(13) 0.093(2) -0.0001(13) -0.0132(14) 0.0126(11)
O4 0.197(8) 0.197(8) 0.035(4) 0.000 0.000 0.099(4)
loop_
_atom_type_symbol
_atom_type_description
_atom_type_scat_dispersion_real
_atom_type_scat_dispersion_imag
_atom_type_scat_source
C C 0.0033 0.0016 'International Tables Vol C Tables 4.2.6.8 and 6.1.1.4'
H H 0.0000 0.0000 'International Tables Vol C Tables 4.2.6.8 and 6.1.1.4'
O O 0.0106 0.0060 'International Tables Vol C Tables 4.2.6.8 and 6.1.1.4'
Co Co 0.3494 0.9721 'International Tables Vol C Tables 4.2.6.8 and 6.1.1.4'
loop_
_geom_angle_atom_site_label_1
_geom_angle_atom_site_label_2
_geom_angle_atom_site_label_3
_geom_angle
_geom_angle_site_symmetry_1
_geom_angle_site_symmetry_3
O1 Co1 O1 96.52(16) . 3_665
O1 Co1 O1 96.52(16) . 2_655
O1 Co1 O1 96.52(16) 3_665 2_655
O1 Co1 O1 83.6(2) . 18_654
O1 Co1 O1 83.4(2) 3_665 18_654
O1 Co1 O1 179.8(2) 2_655 18_654
O1 Co1 O1 83.3(2) . 17_554
O1 Co1 O1 179.83(19) 3_665 17_554
O1 Co1 O1 83.6(2) 2_655 17_554
O1 Co1 O1 96.53(16) 18_654 17_554
O1 Co1 O1 179.8(2) . 16_544
O1 Co1 O1 83.6(2) 3_665 16_544
O1 Co1 O1 83.3(2) 2_655 16_544
O1 Co1 O1 96.53(16) 18_654 16_544
O1 Co1 O1 96.53(16) 17_554 16_544
O4 Co2 O2 98.75(10) . .
O4 Co2 O2 98.75(10) . 2_655
O2 Co2 O2 117.73(5) . 2_655
O4 Co2 O2 98.75(10) . 3_665
O2 Co2 O2 117.73(5) . 3_665
O2 Co2 O2 117.73(5) 2_655 3_665
O1 C1 O2 125.5(4) . .
O1 C1 C2 119.1(4) . .
O2 C1 C2 115.5(3) . .
C3 C2 C7 119.0(3) . .
C3 C2 C1 121.1(3) . .
C7 C2 C1 119.9(3) . .
C4 C3 C2 121.0(3) . .
C4 C3 H3 119.5 . .
C2 C3 H3 119.5 . .
C3 C4 C5 119.0(4) . .
C3 C4 H4 120.5 . .
C5 C4 H4 120.5 . .
C6 C5 C4 121.4(3) . .
C6 C5 O3 119.2(4) . .
C4 C5 O3 119.2(4) . .
C5 C6 C7 119.1(3) . .
C5 C6 H6 120.4 . .
C7 C6 H6 120.4 . .
C2 C7 C6 120.5(3) . .
C2 C7 H7 119.8 . .
C6 C7 H7 119.8 . .
O3 C8 C9 114.2(3) . .
O3 C8 C9 123.5(3) . 2_645
C9 C8 C9 122.3(3) . 2_645
C8 C9 C8 117.7(3) . 3_765
C8 C9 H9 121.1 . .
C8 C9 H9 121.1 3_765 .
C1 O1 Co1 151.0(4) . .
C1 O2 Co2 121.2(3) . .
C8 O3 C5 118.7(3) . .
Co2 O4 H4A 109.5 . .
Co2 O4 H4B 109.5 . .
H4A O4 H4B 109.5 . .
Co2 O4 H4A' 109.5 . .
H4A O4 H4A' 109.5 . .
Co2 O4 H4B' 109.5 . .
H4A O4 H4B' 109.5 . .
H4B O4 H4B' 109.5 . .
H4A' O4 H4B' 109.5 . .
Co2 O4 H4A" 109.5 . .
H4A O4 H4A" 109.5 . .
H4B O4 H4A" 109.5 . .
H4A' O4 H4A" 109.5 . .
Co2 O4 H4B" 109.5 . .
H4B O4 H4B" 109.5 . .
H4A' O4 H4B" 109.5 . .
H4B' O4 H4B" 109.5 . .
H4A" O4 H4B" 109.5 . .
loop_
_geom_bond_atom_site_label_1
_geom_bond_atom_site_label_2
_geom_bond_distance
_geom_bond_site_symmetry_2
Co1 O1 2.061(3) .
Co1 O1 2.061(3) 3_665
Co1 O1 2.061(3) 2_655
Co1 O1 2.061(3) 18_654
Co1 O1 2.061(3) 17_554
Co1 O1 2.060(3) 16_544
Co2 O4 1.858(9) .
Co2 O2 1.936(3) .
Co2 O2 1.936(3) 2_655
Co2 O2 1.936(3) 3_665
C1 O1 1.237(5) .
C1 O2 1.279(5) .
C1 C2 1.489(5) .
C2 C3 1.381(5) .
C2 C7 1.384(5) .
C3 C4 1.370(5) .
C3 H3 0.9300 .
C4 C5 1.380(6) .
C4 H4 0.9300 .
C5 C6 1.366(6) .
C5 O3 1.402(4) .
C6 C7 1.384(6) .
C6 H6 0.9300 .
C7 H7 0.9300 .
C8 O3 1.379(4) .
C8 C9 1.381(5) .
C8 C9 1.386(5) 2_645
C9 C8 1.386(5) 3_765
C9 H9 0.9300 .
O4 H4A 0.8500 .
O4 H4B 0.8500 .
O4 H4A' 0.8500 .
O4 H4B' 0.8500 .
O4 H4A" 0.8500 .
O4 H4B" 0.8500 .
loop_
_geom_torsion_atom_site_label_1
_geom_torsion_atom_site_label_2
_geom_torsion_atom_site_label_3
_geom_torsion_atom_site_label_4
_geom_torsion
_geom_torsion_site_symmetry_1
_geom_torsion_site_symmetry_4
O1 C1 C2 C3 177.5(4) . .
O2 C1 C2 C3 -3.0(5) . .
O1 C1 C2 C7 -5.5(5) . .
O2 C1 C2 C7 174.0(3) . .
C7 C2 C3 C4 -1.7(6) . .
C1 C2 C3 C4 175.4(4) . .
C2 C3 C4 C5 0.2(6) . .
C3 C4 C5 C6 1.1(6) . .
C3 C4 C5 O3 -174.1(4) . .
C4 C5 C6 C7 -0.7(6) . .
O3 C5 C6 C7 174.5(3) . .
C3 C2 C7 C6 2.0(6) . .
C1 C2 C7 C6 -175.1(3) . .
C5 C6 C7 C2 -0.8(6) . .
O3 C8 C9 C8 177.8(2) . 3_765
C9 C8 C9 C8 0.0(7) 2_645 3_765
O2 C1 O1 Co1 -18.6(8) . .
C2 C1 O1 Co1 160.8(5) . .
O1 Co1 O1 C1 57.5(5) 3_665 .
O1 Co1 O1 C1 -39.8(6) 2_655 .
O1 Co1 O1 C1 140.1(7) 18_654 .
O1 Co1 O1 C1 -122.6(7) 17_554 .
O1 C1 O2 Co2 15.4(5) . .
C2 C1 O2 Co2 -164.1(2) . .
O4 Co2 O2 C1 172.0(2) . .
O2 Co2 O2 C1 67.2(3) 2_655 .
O2 Co2 O2 C1 -83.3(3) 3_665 .
C9 C8 O3 C5 178.4(3) . .
C9 C8 O3 C5 -3.9(5) 2_645 .
C6 C5 O3 C8 102.0(4) . .
C4 C5 O3 C8 -82.7(5) . .
