#------------------------------------------------------------------------------
#$Date: 2015-08-06 13:45:30 +0300 (Thu, 06 Aug 2015) $
#$Revision: 152993 $
#$URL: svn://www.crystallography.net/cod/cif/7/11/76/7117615.cif $
#------------------------------------------------------------------------------
#
# This file is available in the Crystallography Open Database (COD),
# http://www.crystallography.net/
#
# All data on this site have been placed in the public domain by the
# contributors.
#
data_7117615
loop_
_publ_author_name
'Zhou, Dong-Dong'
'Liu, Zhi-Juan'
'He, Chun-Ting'
'Liao, Pei-Qin'
'Zhou, Hao-Long'
'Zhong, Zhen-Song'
'Lin, Rui-Biao'
'Zhang, Wei-Xiong'
'Zhang, Jie-Peng'
'Chen, Xiao-Ming'
_publ_section_title
;
 Controlling the flexibility and single-crystal to single-crystal
 interpenetration reconstitution of metal-organic frameworks.
;
_journal_issue                   63
_journal_name_full
'Chemical communications (Cambridge, England)'
_journal_page_first              12665
_journal_page_last               12668
_journal_paper_doi               10.1039/c5cc05036g
_journal_volume                  51
_journal_year                    2015
_chemical_formula_sum            'C12 H29 Ag6 Cl N12 O7'
_chemical_formula_weight         1136.14
_chemical_name_systematic
;
 ?
;
_space_group_crystal_system      tetragonal
_space_group_IT_number           141
_space_group_name_Hall           '-I 4bd 2'
_space_group_name_H-M_alt        'I 41/a m d'
_symmetry_space_group_name_Hall  '-I 4bd 2'
_symmetry_space_group_name_H-M   'I 41/a m d :2'
_atom_sites_solution_hydrogens   mixed
_audit_creation_method           SHELXL-2013
_audit_update_record
;
2015-06-02 deposited with the CCDC.
2015-06-30 downloaded from the CCDC.
;
_cell_angle_alpha                90
_cell_angle_beta                 90
_cell_angle_gamma                90
_cell_formula_units_Z            4
_cell_length_a                   29.415(3)
_cell_length_b                   29.415(3)
_cell_length_c                   3.5250(4)
_cell_measurement_temperature    293(2)
_cell_volume                     3050.0(6)
_computing_structure_refinement  'SHELXL-2013 (Sheldrick, 2013)'
_diffrn_ambient_temperature      293(2)
_diffrn_measured_fraction_theta_full 0.996
_diffrn_measured_fraction_theta_max 0.997
_diffrn_measurement_device_type  CCD
_diffrn_radiation_type           MoK\a
_diffrn_radiation_wavelength     0.71073
_diffrn_reflns_av_R_equivalents  0.0234
_diffrn_reflns_av_unetI/netI     0.0143
_diffrn_reflns_laue_measured_fraction_full 0.996
_diffrn_reflns_laue_measured_fraction_max 0.997
_diffrn_reflns_limit_h_max       35
_diffrn_reflns_limit_h_min       -36
_diffrn_reflns_limit_k_max       32
_diffrn_reflns_limit_k_min       -36
_diffrn_reflns_limit_l_max       4
_diffrn_reflns_limit_l_min       -1
_diffrn_reflns_number            5474
_diffrn_reflns_point_group_measured_fraction_full 0.996
_diffrn_reflns_point_group_measured_fraction_max 0.997
_diffrn_reflns_theta_full        25.242
_diffrn_reflns_theta_max         25.995
_diffrn_reflns_theta_min         1.958
_exptl_absorpt_coefficient_mu    3.916
_exptl_crystal_colour            colorless
_exptl_crystal_density_diffrn    2.474
_exptl_crystal_description       needle-like
_exptl_crystal_F_000             2160
_exptl_crystal_size_max          0.190
_exptl_crystal_size_mid          0.100
_exptl_crystal_size_min          0.100
_refine_diff_density_max         0.509
_refine_diff_density_min         -0.762
_refine_diff_density_rms         0.082
_refine_ls_extinction_method     none
_refine_ls_goodness_of_fit_ref   1.059
_refine_ls_hydrogen_treatment    constr
_refine_ls_matrix_type           full
_refine_ls_number_parameters     66
_refine_ls_number_reflns         796
_refine_ls_number_restraints     0
_refine_ls_restrained_S_all      1.059
_refine_ls_R_factor_all          0.0408
_refine_ls_R_factor_gt           0.0341
_refine_ls_shift/su_max          0.000
_refine_ls_shift/su_mean         0.000
_refine_ls_structure_factor_coef Fsqd
_refine_ls_weighting_details
;
 w=1/[\s^2^(Fo^2^)+(0.0486P)^2^+10.7724P]
 where P=(Fo^2^+2Fc^2^)/3
;
_refine_ls_weighting_scheme      calc
_refine_ls_wR_factor_gt          0.0914
_refine_ls_wR_factor_ref         0.0969
_reflns_Friedel_coverage         0.000
_reflns_number_gt                680
_reflns_number_total             796
_reflns_threshold_expression     'I > 2\s(I)'
_cod_data_source_file            c5cc05036g2.cif
_cod_data_source_block           2
_cod_original_cell_volume        3050.0(7)
_cod_database_code               7117615
_shelx_space_group_comment
;
The symmetry employed for this shelxl refinement is uniquely defined
by the following loop, which should always be used as a source of
symmetry information in preference to the above space-group names.
They are only intended as comments.
;
_shelx_estimated_absorpt_t_min   0.523
_shelx_estimated_absorpt_t_max   0.695
_shelxl_version_number           2013-2
_shelx_res_file
;
TITL 2 in I4(1)/amd
CELL 0.71073 29.4151 29.4151 3.525 90 90 90
ZERR 4 0.0029 0.0029 0.0004 0 0 0
LATT 2
SYMM 0.5-X,-Y,0.5+Z
SYMM 0.25-Y,0.75+X,0.25+Z
SYMM 0.25+Y,0.25-X,0.75+Z
SYMM 0.5-X,+Y,0.5-Z
SYMM +X,-Y,-Z
SYMM 0.25+Y,0.75+X,0.25-Z
SYMM 0.25-Y,0.25-X,0.75-Z

SFAC C H N O Cl Ag
UNIT 48 116 48 28 4 24

L.S. 100
PLAN  50
SIZE 0.1 0.1 0.19
TEMP 20
BOND $H
fmap 2
acta
OMIT -3 52
OMIT 0 2 0

WGHT    0.048600   10.772388
FVAR       0.13077
AG1   6    0.440886    0.309114    0.125000    10.50000    0.07337    0.07337 =
         0.07711    0.01047    0.01047   -0.01565
AG2   6    0.250000    0.250000    0.750000    10.25000    0.03631    0.27887 =
         0.06384    0.00000    0.01071    0.00000
CL1   5    0.500000    0.250000    0.625000    10.12500    0.05184    0.05184 =
         0.03789    0.00000    0.00000    0.00000
N1    3    0.382475    0.272882    0.316867    11.00000    0.04311    0.07648 =
         0.04881   -0.00054    0.00464    0.00130
N2    3    0.316177    0.250000    0.526678    10.50000    0.03753    0.14597 =
         0.05209    0.00000    0.00825    0.00000
C1    1    0.341976    0.285383    0.443549    11.00000    0.04606    0.09643 =
         0.05339   -0.00121    0.00202    0.01670
AFIX  43
PART   1
H1    2    0.332800    0.315462    0.470728    10.50000   -1.20000
AFIX   0
PART   2
C2    1    0.325156    0.331262    0.486501    10.50000    0.08248    0.11357 =
         0.09849   -0.01095    0.01127    0.03327
AFIX 137
H2A   2    0.293162    0.330465    0.539873    10.50000   -1.50000
H2B   2    0.330322    0.347903    0.256225    10.50000   -1.50000
H2C   2    0.340810    0.345890    0.691935    10.50000   -1.50000
AFIX   0
PART  0
PART   1
O1    4    0.250000    0.365090    0.750000    10.25000    0.21141
AFIX   3
H1WA  2    0.267430    0.382210    0.878730    10.37500   -1.50000
AFIX   0
PART   2
O2    4    0.210824    0.390698    1.022447    10.15000    0.24802
AFIX   3
H2WA  2    0.212054    0.376098    1.233817    10.15000   -1.50000
H2WB  2    0.183204    0.392138    0.952657    10.15000   -1.50000
AFIX   0
PART   3
O3    4    0.250000    0.420458    1.250000    10.05000    0.30615
AFIX   3
H3WA  2    0.271960    0.401698    1.242490    10.05000   -1.50000
H3WB  2    0.260940    0.447148    1.235440    10.05000   -1.50000
AFIX   0
PART   4
O4    4    0.250000    0.429232    0.750000    10.06250    0.26212
AFIX   3
H4WA  2    0.267480    0.412271    0.879810    10.06250   -1.50000
H4WB  2    0.252560    0.452501    0.891370    10.06250   -1.50000
AFIX   0
PART   5
O5    4    0.181168    0.431168    0.375000    10.06250    0.25894
AFIX   3
H5WA  2    0.164518    0.421760    0.364270    10.06250   -1.50000
H5WB  2    0.201608    0.465010    0.375000    10.06250   -1.50000
AFIX   0
PART   6
O6    4    0.232156    0.452634    1.008950    10.15000    0.38586
AFIX   3
H6WA  2    0.257855    0.446644    1.107291    10.15000   -1.50000
H6WB  2    0.208146    0.463084    1.110870    10.15000   -1.50000
AFIX   0
PART   7
O7    4    0.179793    0.432679    0.992863    10.15000    0.32545
AFIX   3
H7WA  2    0.213563    0.414799    0.861520    10.15000   -1.50000
H7WB  2    0.174663    0.437089    0.732281    10.15000   -1.50000
PART   0

AFIX   0
HKLF 4

REM  2 in I4(1)/amd
REM R1 =  0.0341 for     680 Fo > 4sig(Fo)  and  0.0408 for all     796 data
REM     66 parameters refined using      0 restraints

END

WGHT      0.0480     10.7000

REM Highest difference peak  0.509,  deepest hole -0.762,  1-sigma level  0.082
Q1    1   0.2500  0.2679  0.7500  10.50000  0.05    0.51
Q2    1   0.4411  0.3323  0.0312  11.00000  0.05    0.43
Q3    1   0.2532  0.3548  1.0937  11.00000  0.05    0.39
Q4    1   0.2045  0.4545  0.3750  10.50000  0.05    0.25
Q5    1   0.4387  0.2882  0.0070  11.00000  0.05    0.25
Q6    1   0.2826  0.2500  0.6208  10.50000  0.05    0.24
Q7    1   0.3197  0.3269  0.3723  11.00000  0.05    0.21
Q8    1   0.5000  0.2234  0.3792  10.50000  0.05    0.17
Q9    1   0.1594  0.4076  0.9883  11.00000  0.05    0.17
Q10   1   0.3747  0.3738  0.7276  11.00000  0.05    0.17
Q11   1   0.3683  0.2500  0.7391  10.50000  0.05    0.17
Q12   1   0.3304  0.3604  0.3832  11.00000  0.05    0.17
Q13   1   0.2694  0.2922  0.5251  11.00000  0.05    0.16
Q14   1   0.4804  0.3178  0.5294  11.00000  0.05    0.16
Q15   1   0.1895  0.3911  1.2880  11.00000  0.05    0.16
Q16   1   0.3542  0.2881  0.2540  11.00000  0.05    0.16
Q17   1   0.3559  0.3535  0.4208  11.00000  0.05    0.15
Q18   1   0.3496  0.2994  0.5106  11.00000  0.05    0.15
Q19   1   0.2816  0.2989  0.6936  11.00000  0.05    0.15
Q20   1   0.3117  0.3270  0.5983  11.00000  0.05    0.15
Q21   1   0.4259  0.2500  0.2420  10.50000  0.05    0.14
Q22   1   0.5000  0.2500  0.1250  10.12500  0.05    0.14
Q23   1   0.4376  0.3104  0.5182  11.00000  0.05    0.14
Q24   1   0.3847  0.2778  0.4001  11.00000  0.05    0.14
Q25   1   0.2835  0.4158  0.9019  11.00000  0.05    0.14
Q26   1   0.1933  0.3658  1.4002  11.00000  0.05    0.13
Q27   1   0.3899  0.2861  0.3554  11.00000  0.05    0.13
Q28   1   0.3776  0.2864  0.2617  11.00000  0.05    0.12
Q29   1   0.2616  0.4737  1.2464  11.00000  0.05    0.12
Q30   1   0.2546  0.4120  1.0468  11.00000  0.05    0.12
Q31   1   0.5445  0.2500  0.9467  10.50000  0.05    0.12
Q32   1   0.3107  0.2500  0.8571  10.50000  0.05    0.11
Q33   1   0.3201  0.3195  0.7015  11.00000  0.05    0.11
Q34   1   0.4200  0.3601  0.2794  11.00000  0.05    0.11
Q35   1   0.2511  0.4804  1.1690  11.00000  0.05    0.11
Q36   1   0.3097  0.3106  0.0380  11.00000  0.05    0.10
Q37   1   0.2315  0.4381  1.1016  11.00000  0.05    0.09
Q38   1   0.3300  0.2272  0.7179  11.00000  0.05    0.09
Q39   1   0.3513  0.3426  0.6005  11.00000  0.05    0.09
Q40   1   0.2610  0.3191  0.8464  11.00000  0.05    0.09
Q41   1   0.2811  0.3304  0.2895  11.00000  0.05    0.08
Q42   1   0.3616  0.2500  0.0423  10.50000  0.05    0.08
Q43   1   0.4126  0.2500 -0.0457  10.50000  0.05    0.08
Q44   1   0.3911  0.2908 -0.0261  11.00000  0.05    0.07
Q45   1   0.3835  0.2700  0.0610  11.00000  0.05    0.07
Q46   1   0.4539  0.3495  0.3738  11.00000  0.05    0.06
Q47   1   0.5221  0.2279  0.6250  10.50000  0.05    0.06
Q48   1   0.3816  0.3586  0.9896  11.00000  0.05    0.06
Q49   1   0.3327  0.3535  0.8921  11.00000  0.05    0.06
Q50   1   0.3057  0.2500  0.1252  10.50000  0.05    0.06
;
_shelx_res_checksum              74801
loop_
_space_group_symop_operation_xyz
'x, y, z'
'-x+1/2, -y, z+1/2'
'-y+1/4, x+3/4, z+1/4'
'y+1/4, -x+1/4, z+3/4'
'-x+1/2, y, -z+1/2'
'x, -y, -z'
'y+1/4, x+3/4, -z+1/4'
'-y+1/4, -x+1/4, -z+3/4'
'x+1/2, y+1/2, z+1/2'
'-x+1, -y+1/2, z+1'
'-y+3/4, x+5/4, z+3/4'
'y+3/4, -x+3/4, z+5/4'
'-x+1, y+1/2, -z+1'
'x+1/2, -y+1/2, -z+1/2'
'y+3/4, x+5/4, -z+3/4'
'-y+3/4, -x+3/4, -z+5/4'
'-x, -y, -z'
'x-1/2, y, -z-1/2'
'y-1/4, -x-3/4, -z-1/4'
'-y-1/4, x-1/4, -z-3/4'
'x-1/2, -y, z-1/2'
'-x, y, z'
'-y-1/4, -x-3/4, z-1/4'
'y-1/4, x-1/4, z-3/4'
'-x+1/2, -y+1/2, -z+1/2'
'x, y+1/2, -z'
'y+1/4, -x-1/4, -z+1/4'
'-y+1/4, x+1/4, -z-1/4'
'x, -y+1/2, z'
'-x+1/2, y+1/2, z+1/2'
'-y+1/4, -x-1/4, z+1/4'
'y+1/4, x+1/4, z-1/4'
loop_
_atom_site_label
_atom_site_type_symbol
_atom_site_fract_x
_atom_site_fract_y
_atom_site_fract_z
_atom_site_U_iso_or_equiv
_atom_site_adp_type
_atom_site_occupancy
_atom_site_site_symmetry_order
_atom_site_calc_flag
_atom_site_refinement_flags_posn
_atom_site_refinement_flags_adp
_atom_site_refinement_flags_occupancy
_atom_site_disorder_assembly
_atom_site_disorder_group
Ag1 Ag 0.44089(2) 0.30911(2) 0.1250 0.0746(3) Uani 1 2 d S T P . .
Ag2 Ag 0.2500 0.2500 0.7500 0.1263(6) Uani 1 4 d S T P . .
Cl1 Cl 0.5000 0.2500 0.6250 0.0472(7) Uani 1 8 d S T P . .
N1 N 0.38248(12) 0.27288(13) 0.3169(11) 0.0561(9) Uani 1 1 d . . . . .
N2 N 0.31618(19) 0.2500 0.5267(19) 0.079(2) Uani 1 2 d S T P B .
C1 C 0.34198(15) 0.2854(2) 0.4435(15) 0.0653(13) Uani 1 1 d . . . . .
H1 H 0.3328 0.3155 0.4707 0.078 Uiso 0.5 1 calc R U P A 1
C2 C 0.3252(5) 0.3313(5) 0.487(5) 0.098(4) Uani 0.5 1 d . . P B 2
H2A H 0.2932 0.3305 0.5399 0.147 Uiso 0.5 1 calc R U P B 2
H2B H 0.3303 0.3479 0.2562 0.147 Uiso 0.5 1 calc R U P B 2
H2C H 0.3408 0.3459 0.6919 0.147 Uiso 0.5 1 calc R U P B 2
O1 O 0.2500 0.3651(10) 0.7500 0.211(11) Uiso 0.5 2 d S . P C 1
H1WA H 0.2674 0.3822 0.8787 0.317 Uiso 0.375 1 d R U P C 1
O2 O 0.211(3) 0.391(3) 1.02(3) 0.25(3) Uiso 0.15 1 d . . P D 2
H2WA H 0.2121 0.3761 1.2338 0.372 Uiso 0.15 1 d R U P D 2
H2WB H 0.1832 0.3921 0.9527 0.372 Uiso 0.15 1 d R U P D 2
O3 O 0.2500 0.420(9) 1.2500 0.31(11) Uiso 0.1 2 d S . P E 3
H3WA H 0.2720 0.4017 1.2425 0.459 Uiso 0.05 1 d R U P E 3
H3WB H 0.2609 0.4471 1.2354 0.459 Uiso 0.05 1 d R U P E 3
O4 O 0.2500 0.429(6) 0.7500 0.26(7) Uiso 0.125 2 d S . P F 4
H4WA H 0.2675 0.4123 0.8798 0.393 Uiso 0.0625 1 d R U P F 4
H4WB H 0.2526 0.4525 0.8914 0.393 Uiso 0.0625 1 d R U P F 4
O5 O 0.181(4) 0.431(4) 0.3750 0.26(7) Uiso 0.125 2 d S . P G 5
H5WA H 0.1645 0.4218 0.3643 0.388 Uiso 0.0625 1 d R U P G 5
H5WB H 0.2016 0.4650 0.3750 0.388 Uiso 0.0625 1 d R U P G 5
O6 O 0.232(6) 0.453(3) 1.01(5) 0.39(9) Uiso 0.15 1 d . . P H 6
H6WA H 0.2579 0.4466 1.1073 0.579 Uiso 0.15 1 d R U P H 6
H6WB H 0.2081 0.4631 1.1109 0.579 Uiso 0.15 1 d R U P H 6
O7 O 0.180(6) 0.433(6) 0.99(5) 0.33(6) Uiso 0.15 1 d . . P I 7
H7WA H 0.2136 0.4148 0.8615 0.488 Uiso 0.15 1 d R U P I 7
H7WB H 0.1747 0.4371 0.7323 0.488 Uiso 0.15 1 d R U P I 7
loop_
_atom_site_aniso_label
_atom_site_aniso_U_11
_atom_site_aniso_U_22
_atom_site_aniso_U_33
_atom_site_aniso_U_23
_atom_site_aniso_U_13
_atom_site_aniso_U_12
Ag1 0.0734(3) 0.0734(3) 0.0771(5) 0.0105(2) 0.0105(2) -0.0156(3)
Ag2 0.0363(4) 0.2789(19) 0.0638(6) 0.000 0.0107(4) 0.000
Cl1 0.0518(9) 0.0518(9) 0.0379(14) 0.000 0.000 0.000
N1 0.0431(18) 0.076(2) 0.049(2) -0.0005(19) 0.0046(17) 0.0013(17)
N2 0.038(3) 0.146(7) 0.052(3) 0.000 0.008(3) 0.000
C1 0.046(3) 0.096(4) 0.053(3) -0.001(3) 0.002(2) 0.017(3)
C2 0.082(8) 0.114(11) 0.098(11) -0.011(9) 0.011(8) 0.033(8)
loop_
_atom_type_symbol
_atom_type_description
_atom_type_scat_dispersion_real
_atom_type_scat_dispersion_imag
_atom_type_scat_source
C C 0.0033 0.0016 'International Tables Vol C Tables 4.2.6.8 and 6.1.1.4'
H H 0.0000 0.0000 'International Tables Vol C Tables 4.2.6.8 and 6.1.1.4'
N N 0.0061 0.0033 'International Tables Vol C Tables 4.2.6.8 and 6.1.1.4'
O O 0.0106 0.0060 'International Tables Vol C Tables 4.2.6.8 and 6.1.1.4'
Cl Cl 0.1484 0.1585 'International Tables Vol C Tables 4.2.6.8 and 6.1.1.4'
Ag Ag -0.8971 1.1015 'International Tables Vol C Tables 4.2.6.8 and 6.1.1.4'
loop_
_geom_angle_atom_site_label_1
_geom_angle_atom_site_label_2
_geom_angle_atom_site_label_3
_geom_angle
_geom_angle_site_symmetry_1
_geom_angle_site_symmetry_3
N1 Ag1 N1 155.0(2) . 16_554
N2 Ag2 N2 180.00(11) . 25_556
C1 N1 N1 106.1(3) . 29
C1 N1 Ag1 133.9(4) . .
N1 N1 Ag1 120.00(10) 29 .
C1 N2 C1 104.0(6) 29 .
C1 N2 Ag2 128.0(3) 29 .
C1 N2 Ag2 128.0(3) . .
N2 C1 N1 111.9(5) . .
N2 C1 C2 121.0(7) . .
N1 C1 C2 127.1(8) . .
N2 C1 H1 124.1 . .
N1 C1 H1 124.1 . .
C1 C2 H2A 109.5 . .
C1 C2 H2B 109.5 . .
H2A C2 H2B 109.5 . .
C1 C2 H2C 109.5 . .
H2A C2 H2C 109.5 . .
H2B C2 H2C 109.5 . .
H2WA O2 H2WB 108.4 . .
H3WA O3 H3WB 108.1 . .
H4WA O4 H4WB 95.9 . .
H5WA O5 H5WB 150.4 . .
O6 O6 H6WA 149.7 15_446 .
O6 O6 H6WB 65.7 15_446 .
H6WA O6 H6WB 129.9 . .
O7 O7 H7WA 59.8 15_446 .
O7 O7 H7WB 20.4 15_446 .
H7WA O7 H7WB 79.6 . .
loop_
_geom_bond_atom_site_label_1
_geom_bond_atom_site_label_2
_geom_bond_distance
_geom_bond_site_symmetry_2
Ag1 N1 2.132(4) .
Ag1 N1 2.132(4) 16_554
Ag2 N2 2.100(6) .
Ag2 N2 2.100(6) 25_556
N1 C1 1.324(6) .
N1 N1 1.346(8) 29
N2 C1 1.321(6) 29
N2 C1 1.321(6) .
C1 C2 1.445(15) .
C1 H1 0.9300 .
C2 H2A 0.9600 .
C2 H2B 0.9600 .
C2 H2C 0.9600 .
O1 H1WA 0.8499 .
O2 H2WA 0.8607 .
O2 H2WB 0.8499 .
O3 H3WA 0.8500 .
O3 H3WB 0.8500 .
O4 H4WA 0.8501 .
O4 H4WB 0.8500 .
O5 H5WA 0.5638 .
O5 H5WB 1.1630 .
O6 O6 1.5(3) 15_446
O6 H6WA 0.8501 .
O6 H6WB 0.8499 .
O7 O7 0.8(3) 15_446
O7 H7WA 1.2156 .
O7 H7WB 0.9399 .
