#------------------------------------------------------------------------------
#$Date: 2015-08-06 13:45:30 +0300 (Thu, 06 Aug 2015) $
#$Revision: 152993 $
#$URL: svn://www.crystallography.net/cod/cif/7/11/76/7117616.cif $
#------------------------------------------------------------------------------
#
# This file is available in the Crystallography Open Database (COD),
# http://www.crystallography.net/
#
# All data on this site have been placed in the public domain by the
# contributors.
#
data_7117616
loop_
_publ_author_name
'Zhou, Dong-Dong'
'Liu, Zhi-Juan'
'He, Chun-Ting'
'Liao, Pei-Qin'
'Zhou, Hao-Long'
'Zhong, Zhen-Song'
'Lin, Rui-Biao'
'Zhang, Wei-Xiong'
'Zhang, Jie-Peng'
'Chen, Xiao-Ming'
_publ_section_title
;
 Controlling the flexibility and single-crystal to single-crystal
 interpenetration reconstitution of metal-organic frameworks.
;
_journal_issue                   63
_journal_name_full
'Chemical communications (Cambridge, England)'
_journal_page_first              12665
_journal_page_last               12668
_journal_paper_doi               10.1039/c5cc05036g
_journal_volume                  51
_journal_year                    2015
_chemical_formula_sum            'C12 H17 Ag6 Cl N12 O'
_chemical_formula_weight         1028.05
_chemical_name_systematic
;
 ?
;
_space_group_crystal_system      tetragonal
_space_group_IT_number           122
_space_group_name_Hall           'I -4 2bw'
_space_group_name_H-M_alt        'I -4 2 d'
_symmetry_space_group_name_Hall  'I -4 2bw'
_symmetry_space_group_name_H-M   'I -4 2 d'
_atom_sites_solution_hydrogens   mixed
_audit_creation_method           SHELXL-2013
_audit_update_record
;
2015-06-02 deposited with the CCDC.
2015-06-30 downloaded from the CCDC.
;
_cell_angle_alpha                90
_cell_angle_beta                 90
_cell_angle_gamma                90
_cell_formula_units_Z            4
_cell_length_a                   28.708(3)
_cell_length_b                   28.708(3)
_cell_length_c                   3.5249(3)
_cell_measurement_temperature    293(2)
_cell_volume                     2905.0(5)
_computing_structure_refinement  'SHELXL-2013 (Sheldrick, 2013)'
_diffrn_ambient_temperature      293(2)
_diffrn_measured_fraction_theta_full 0.991
_diffrn_measured_fraction_theta_max 0.993
_diffrn_measurement_device_type  CCD
_diffrn_radiation_type           MoK\a
_diffrn_radiation_wavelength     0.71073
_diffrn_reflns_av_R_equivalents  0.0232
_diffrn_reflns_av_unetI/netI     0.0218
_diffrn_reflns_laue_measured_fraction_full 0.991
_diffrn_reflns_laue_measured_fraction_max 0.993
_diffrn_reflns_limit_h_max       34
_diffrn_reflns_limit_h_min       -35
_diffrn_reflns_limit_k_max       34
_diffrn_reflns_limit_k_min       -34
_diffrn_reflns_limit_l_max       1
_diffrn_reflns_limit_l_min       -4
_diffrn_reflns_number            5542
_diffrn_reflns_point_group_measured_fraction_full 0.992
_diffrn_reflns_point_group_measured_fraction_max 0.990
_diffrn_reflns_theta_full        25.242
_diffrn_reflns_theta_max         25.998
_diffrn_reflns_theta_min         2.243
_exptl_absorpt_coefficient_mu    4.083
_exptl_crystal_colour            colorless
_exptl_crystal_density_diffrn    2.350
_exptl_crystal_description       needle-like
_exptl_crystal_F_000             1920
_exptl_crystal_size_max          0.300
_exptl_crystal_size_mid          0.080
_exptl_crystal_size_min          0.080
_refine_diff_density_max         1.213
_refine_diff_density_min         -1.223
_refine_diff_density_rms         0.192
_refine_ls_abs_structure_details
;
 Flack x determined using 421 quotients [(I+)-(I-)]/[(I+)+(I-)]
 (Parsons and Flack (2004), Acta Cryst. A60, s61).
;
_refine_ls_abs_structure_Flack   0.48(4)
_refine_ls_extinction_method     none
_refine_ls_goodness_of_fit_ref   1.096
_refine_ls_hydrogen_treatment    constr
_refine_ls_matrix_type           full
_refine_ls_number_parameters     86
_refine_ls_number_reflns         1423
_refine_ls_number_restraints     3
_refine_ls_restrained_S_all      1.096
_refine_ls_R_factor_all          0.0619
_refine_ls_R_factor_gt           0.0545
_refine_ls_shift/su_max          0.000
_refine_ls_shift/su_mean         0.000
_refine_ls_structure_factor_coef Fsqd
_refine_ls_weighting_details
;
 w=1/[\s^2^(Fo^2^)+(0.0957P)^2^+18.6474P]
 where P=(Fo^2^+2Fc^2^)/3
;
_refine_ls_weighting_scheme      calc
_refine_ls_wR_factor_gt          0.1605
_refine_ls_wR_factor_ref         0.1659
_reflns_Friedel_coverage         0.643
_reflns_friedel_fraction_full    0.992
_reflns_friedel_fraction_max     0.984
_reflns_number_gt                1251
_reflns_number_total             1423
_reflns_threshold_expression     'I > 2\s(I)'
_cod_data_source_file            c5cc05036g2.cif
_cod_data_source_block           2'
_cod_original_cell_volume        2905.1(6)
_cod_database_code               7117616
_shelx_space_group_comment
;
The symmetry employed for this shelxl refinement is uniquely defined
by the following loop, which should always be used as a source of
symmetry information in preference to the above space-group names.
They are only intended as comments.
;
_shelx_estimated_absorpt_t_min   0.374
_shelx_estimated_absorpt_t_max   0.736
_shelxl_version_number           2013-2
_shelx_res_file
;
TITL 2' in I-42d
CELL 0.71073  28.7084  28.7084   3.5249  90.000  90.000  90.000
ZERR    4.00   0.0026   0.0026   0.0003   0.000   0.000   0.000
LATT -2
SYMM -X, -Y, Z
SYMM Y, -X, -Z
SYMM -Y, X, -Z
SYMM 0.5-X, Y, 0.75-Z
SYMM 0.5+X, -Y, 0.75-Z
SYMM 0.5-Y, -X, 0.75+Z
SYMM 0.5+Y, X, 0.75+Z
SFAC C H N O CL AG
UNIT 48 68 48 4 4 24
TEMP 20
OMIT 2 2 0
OMIT 0 2 0
OMIT 0 4 0
OMIT -3 52
ACTA
SIZE 0.08 0.08 0.30
L.S. 20
BOND
FMAP 2
PLAN 20
DFIX 1.49 0.01 C1 C2 C3 C4
DFIX 2.05 0.01 C1 C3
WGHT    0.095700   18.647402
FVAR       0.18893
AG1   6    0.043157    0.574175    0.244953    11.00000    0.05880    0.08963 =
         0.07896    0.00461   -0.01975    0.01496
AG2   6    0.250000    0.566526    0.875000    10.50000    0.04075    0.17739 =
         0.08301    0.00000   -0.01827    0.00000
CL1   5    0.000000    0.500000    0.750000    10.25000    0.05384    0.05384 =
         0.03195    0.00000    0.00000    0.00000
N1    3    0.110527    0.554241    0.438271    11.00000    0.04273    0.07501 =
         0.04432    0.00107   -0.00647   -0.00097
N2    3    0.122896    0.508948    0.433804    11.00000    0.04517    0.06918 =
         0.04323   -0.00891   -0.00119   -0.00404
N3    3    0.182506    0.548799    0.641455    11.00000    0.04204    0.09298 =
         0.05121    0.00072   -0.00636   -0.01239
C1    1    0.147811    0.576818    0.556337    11.00000    0.05130    0.06028 =
         0.05095   -0.00079   -0.00594   -0.01211
AFIX  43
PART   1
H1A   2    0.149397    0.609073    0.577154    10.50000   -1.20000
AFIX   0
PART   2
C2    1    0.144924    0.628543    0.564434    10.50000    0.08796    0.05923 =
         0.19112    0.04033   -0.03988   -0.01703
AFIX 137
H2A   2    0.116707    0.637839    0.689453    10.50000   -1.50000
H2B   2    0.144984    0.640314    0.309518    10.50000   -1.50000
H2C   2    0.171217    0.640858    0.699558    10.50000   -1.50000
AFIX   0
PART   0
C3    1    0.166019    0.507967    0.565793    11.00000    0.05603    0.07016 =
         0.04611   -0.00936   -0.00280    0.00502
AFIX  43
PART   1
H3A   2    0.182807    0.480595    0.600671    10.50000   -1.20000
AFIX   0
PART   2
C4    1    0.189656    0.463178    0.626598    10.50000    0.07774    0.08893 =
         0.10906    0.02789   -0.00768    0.04315
AFIX 137
H4A   2    0.172706    0.445257    0.810485    10.50000   -1.50000
H4B   2    0.220695    0.468678    0.717478    10.50000   -1.50000
H4C   2    0.191006    0.446340    0.391551    10.50000   -1.50000
AFIX   0
PART   0
O1    4    0.250000    0.649815    0.375000    10.12500    0.04600
AFIX   3
H1W   2    0.250000    0.657265    0.608390    10.12500   -1.50000
AFIX   0
O2    4    0.151019    0.750000    0.125000    10.12500    0.11195
AFIX   3
H2W   2    0.177799    0.755970    0.034500    10.12500   -1.50000
AFIX   0
HKLF 4

REM  2' in I-42d
REM R1 =  0.0545 for    1251 Fo > 4sig(Fo)  and  0.0619 for all    1423 data
REM     86 parameters refined using      3 restraints

END

WGHT      0.0961     12.3592

REM Highest difference peak  1.213,  deepest hole -1.223,  1-sigma level  0.192
Q1    1   0.2500  0.5287  0.8750  10.50000  0.05    1.21
Q2    1   0.1711  0.7500 -0.3750  10.50000  0.05    0.83
Q3    1   0.2500  0.6610  0.8750  10.50000  0.05    0.77
Q4    1   0.0596  0.5978  0.2505  11.00000  0.05    0.76
Q5    1   0.2500  0.6995  0.8750  10.50000  0.05    0.75
Q6    1   0.0585  0.5518  0.2100  11.00000  0.05    0.73
Q7    1   0.1439  0.7500 -0.3750  10.50000  0.05    0.71
Q8    1   0.0737  0.5699  0.2913  11.00000  0.05    0.60
Q9    1   0.1883  0.7582 -0.0015  11.00000  0.05    0.51
Q10   1   0.2377  0.5779  0.9834  11.00000  0.05    0.47
Q11   1   0.0327  0.5710  0.2575  11.00000  0.05    0.42
Q12   1   0.2500  0.7069  0.3750  10.50000  0.05    0.40
Q13   1   0.1997  0.4538  0.1326  11.00000  0.05    0.39
Q14   1   0.2597  0.4319  0.6965  11.00000  0.05    0.36
Q15   1   0.1261  0.4963  0.6351  11.00000  0.05    0.36
Q16   1   0.1192  0.7114 -0.0952  11.00000  0.05    0.34
Q17   1   0.2114  0.3987  0.8112  11.00000  0.05    0.31
Q18   1   0.2104  0.7232  0.0037  11.00000  0.05    0.30
Q19   1   0.1636  0.4315  0.2877  11.00000  0.05    0.29
Q20   1   0.1901  0.4043  0.1625  11.00000  0.05    0.28
;
_shelx_res_checksum              12403
loop_
_space_group_symop_operation_xyz
'x, y, z'
'-x, -y, z'
'y, -x, -z'
'-y, x, -z'
'-x+1/2, y, -z+3/4'
'x+1/2, -y, -z+3/4'
'-y+1/2, -x, z+3/4'
'y+1/2, x, z+3/4'
'x+1/2, y+1/2, z+1/2'
'-x+1/2, -y+1/2, z+1/2'
'y+1/2, -x+1/2, -z+1/2'
'-y+1/2, x+1/2, -z+1/2'
'-x+1, y+1/2, -z+5/4'
'x+1, -y+1/2, -z+5/4'
'-y+1, -x+1/2, z+5/4'
'y+1, x+1/2, z+5/4'
loop_
_atom_site_label
_atom_site_type_symbol
_atom_site_fract_x
_atom_site_fract_y
_atom_site_fract_z
_atom_site_U_iso_or_equiv
_atom_site_adp_type
_atom_site_occupancy
_atom_site_site_symmetry_order
_atom_site_calc_flag
_atom_site_refinement_flags_posn
_atom_site_refinement_flags_adp
_atom_site_refinement_flags_occupancy
_atom_site_disorder_assembly
_atom_site_disorder_group
Ag1 Ag 0.04316(4) 0.57418(5) 0.2450(4) 0.0758(5) Uani 1 1 d . . . . .
Ag2 Ag 0.2500 0.56653(12) 0.8750 0.1004(9) Uani 1 2 d S T P . .
Cl1 Cl 0.0000 0.5000 0.7500 0.0465(13) Uani 1 4 d S T P . .
N1 N 0.1105(4) 0.5542(4) 0.438(3) 0.054(3) Uani 1 1 d . . . . .
N2 N 0.1229(4) 0.5089(4) 0.434(4) 0.053(3) Uani 1 1 d . . . . .
N3 N 0.1825(4) 0.5488(5) 0.641(4) 0.062(3) Uani 1 1 d . . . . .
C1 C 0.1478(4) 0.5768(4) 0.556(5) 0.054(3) Uani 1 1 d D . . . .
H1A H 0.1494 0.6091 0.5772 0.065 Uiso 0.5 1 calc R U P A 1
C2 C 0.1449(15) 0.6285(6) 0.56(2) 0.11(2) Uani 0.5 1 d D . P B 2
H2A H 0.1167 0.6378 0.6895 0.169 Uiso 0.5 1 calc R U P B 2
H2B H 0.1450 0.6403 0.3095 0.169 Uiso 0.5 1 calc R U P B 2
H2C H 0.1712 0.6409 0.6996 0.169 Uiso 0.5 1 calc R U P B 2
C3 C 0.1660(5) 0.5080(4) 0.566(5) 0.057(4) Uani 1 1 d D . . . .
H3A H 0.1828 0.4806 0.6007 0.069 Uiso 0.5 1 calc R U P C 1
C4 C 0.1897(13) 0.4632(10) 0.627(15) 0.092(13) Uani 0.5 1 d D . P D 2
H4A H 0.1727 0.4453 0.8105 0.138 Uiso 0.5 1 calc R U P D 2
H4B H 0.2207 0.4687 0.7175 0.138 Uiso 0.5 1 calc R U P D 2
H4C H 0.1910 0.4463 0.3916 0.138 Uiso 0.5 1 calc R U P D 2
O1 O 0.2500 0.6498(16) 0.3750 0.046(11) Uiso 0.25 2 d S . P . .
H1W H 0.2500 0.6573 0.6084 0.069 Uiso 0.125 1 d R U P . .
O2 O 0.151(3) 0.7500 0.1250 0.11(3) Uiso 0.25 2 d S . P . .
H2W H 0.1778 0.7560 0.0345 0.168 Uiso 0.125 1 d R U P . .
loop_
_atom_site_aniso_label
_atom_site_aniso_U_11
_atom_site_aniso_U_22
_atom_site_aniso_U_33
_atom_site_aniso_U_23
_atom_site_aniso_U_13
_atom_site_aniso_U_12
Ag1 0.0588(7) 0.0896(9) 0.0790(10) 0.0046(8) -0.0197(6) 0.0150(6)
Ag2 0.0407(9) 0.177(3) 0.0830(15) 0.000 -0.0183(9) 0.000
Cl1 0.054(2) 0.054(2) 0.032(3) 0.000 0.000 0.000
N1 0.043(6) 0.075(8) 0.044(7) 0.001(6) -0.006(5) -0.001(5)
N2 0.045(6) 0.069(7) 0.043(7) -0.009(5) -0.001(5) -0.004(5)
N3 0.042(6) 0.093(9) 0.051(7) 0.001(7) -0.006(5) -0.012(6)
C1 0.051(7) 0.060(8) 0.051(8) -0.001(6) -0.006(6) -0.012(6)
C2 0.09(3) 0.06(2) 0.19(6) 0.04(3) -0.04(3) -0.017(18)
C3 0.056(8) 0.070(9) 0.046(9) -0.009(7) -0.003(7) 0.005(7)
C4 0.08(2) 0.09(2) 0.11(3) 0.03(3) -0.01(2) 0.04(2)
loop_
_atom_type_symbol
_atom_type_description
_atom_type_scat_dispersion_real
_atom_type_scat_dispersion_imag
_atom_type_scat_source
C C 0.0033 0.0016 'International Tables Vol C Tables 4.2.6.8 and 6.1.1.4'
H H 0.0000 0.0000 'International Tables Vol C Tables 4.2.6.8 and 6.1.1.4'
N N 0.0061 0.0033 'International Tables Vol C Tables 4.2.6.8 and 6.1.1.4'
O O 0.0106 0.0060 'International Tables Vol C Tables 4.2.6.8 and 6.1.1.4'
Cl Cl 0.1484 0.1585 'International Tables Vol C Tables 4.2.6.8 and 6.1.1.4'
Ag Ag -0.8971 1.1015 'International Tables Vol C Tables 4.2.6.8 and 6.1.1.4'
loop_
_geom_angle_atom_site_label_1
_geom_angle_atom_site_label_2
_geom_angle_atom_site_label_3
_geom_angle
_geom_angle_site_symmetry_3
N1 Ag1 N2 154.7(4) 12
N3 Ag2 N3 152.8(8) 5_556
C1 N1 N2 105.3(10) .
C1 N1 Ag1 134.9(10) .
N2 N1 Ag1 119.7(8) .
C3 N2 N1 105.2(10) .
C3 N2 Ag1 134.4(10) 11_455
N1 N2 Ag1 120.3(8) 11_455
C3 N3 C1 103.3(10) .
C3 N3 Ag2 128.3(11) .
C1 N3 Ag2 128.4(10) .
N3 C1 N1 112.7(12) .
N3 C1 C2 130(2) .
N1 C1 C2 117(2) .
N2 C3 N3 113.3(11) .
N2 C3 C4 120(2) .
N3 C3 C4 126(2) .
loop_
_geom_bond_atom_site_label_1
_geom_bond_atom_site_label_2
_geom_bond_distance
_geom_bond_site_symmetry_2
Ag1 N1 2.129(11) .
Ag1 N2 2.143(11) 12
Ag2 N3 2.166(12) .
Ag2 N3 2.166(12) 5_556
N1 C1 1.319(17) .
N1 N2 1.348(17) .
N2 C3 1.323(19) .
N2 Ag1 2.143(11) 11_455
N3 C3 1.292(19) .
N3 C1 1.315(17) .
C1 C2 1.488(13) .
C3 C4 1.470(13) .
