#------------------------------------------------------------------------------
#$Date: 2015-08-06 13:45:30 +0300 (Thu, 06 Aug 2015) $
#$Revision: 152993 $
#$URL: svn://www.crystallography.net/cod/cif/7/11/76/7117617.cif $
#------------------------------------------------------------------------------
#
# This file is available in the Crystallography Open Database (COD),
# http://www.crystallography.net/
#
# All data on this site have been placed in the public domain by the
# contributors.
#
data_7117617
loop_
_publ_author_name
'Zhou, Dong-Dong'
'Liu, Zhi-Juan'
'He, Chun-Ting'
'Liao, Pei-Qin'
'Zhou, Hao-Long'
'Zhong, Zhen-Song'
'Lin, Rui-Biao'
'Zhang, Wei-Xiong'
'Zhang, Jie-Peng'
'Chen, Xiao-Ming'
_publ_section_title
;
 Controlling the flexibility and single-crystal to single-crystal
 interpenetration reconstitution of metal-organic frameworks.
;
_journal_issue                   63
_journal_name_full
'Chemical communications (Cambridge, England)'
_journal_page_first              12665
_journal_page_last               12668
_journal_paper_doi               10.1039/c5cc05036g
_journal_volume                  51
_journal_year                    2015
_chemical_formula_sum            'C8 H25 Ag6 Br N16 O7'
_chemical_formula_weight         1184.57
_chemical_name_systematic
;
 ?
;
_space_group_crystal_system      tetragonal
_space_group_IT_number           141
_space_group_name_Hall           '-I 4bd 2'
_space_group_name_H-M_alt        'I 41/a m d'
_symmetry_space_group_name_Hall  '-I 4bd 2'
_symmetry_space_group_name_H-M   'I 41/a m d :2'
_atom_sites_solution_hydrogens   mixed
_audit_creation_method           SHELXL-2013
_audit_update_record
;
2015-06-02 deposited with the CCDC.
2015-06-30 downloaded from the CCDC.
;
_cell_angle_alpha                90
_cell_angle_beta                 90
_cell_angle_gamma                90
_cell_formula_units_Z            4
_cell_length_a                   29.6337(16)
_cell_length_b                   29.6337(16)
_cell_length_c                   3.4913(2)
_cell_measurement_temperature    293(2)
_cell_volume                     3065.9(3)
_computing_structure_refinement  'SHELXL-2013 (Sheldrick, 2013)'
_diffrn_ambient_temperature      293(2)
_diffrn_measured_fraction_theta_full 0.997
_diffrn_measured_fraction_theta_max 0.999
_diffrn_measurement_device_type  CCD
_diffrn_radiation_type           MoK\a
_diffrn_radiation_wavelength     0.71073
_diffrn_reflns_av_R_equivalents  0.0173
_diffrn_reflns_av_unetI/netI     0.0074
_diffrn_reflns_laue_measured_fraction_full 0.997
_diffrn_reflns_laue_measured_fraction_max 0.999
_diffrn_reflns_limit_h_max       36
_diffrn_reflns_limit_h_min       -36
_diffrn_reflns_limit_k_max       36
_diffrn_reflns_limit_k_min       -36
_diffrn_reflns_limit_l_max       4
_diffrn_reflns_limit_l_min       -4
_diffrn_reflns_number            10671
_diffrn_reflns_point_group_measured_fraction_full 0.997
_diffrn_reflns_point_group_measured_fraction_max 0.999
_diffrn_reflns_theta_full        25.242
_diffrn_reflns_theta_max         25.970
_diffrn_reflns_theta_min         1.944
_exptl_absorpt_coefficient_mu    5.115
_exptl_crystal_colour            colorless
_exptl_crystal_density_diffrn    2.566
_exptl_crystal_description       needle-like
_exptl_crystal_F_000             2232
_exptl_crystal_size_max          0.300
_exptl_crystal_size_mid          0.040
_exptl_crystal_size_min          0.040
_refine_diff_density_max         0.643
_refine_diff_density_min         -1.510
_refine_diff_density_rms         0.128
_refine_ls_extinction_method     none
_refine_ls_goodness_of_fit_ref   1.058
_refine_ls_hydrogen_treatment    constr
_refine_ls_matrix_type           full
_refine_ls_number_parameters     60
_refine_ls_number_reflns         798
_refine_ls_number_restraints     0
_refine_ls_restrained_S_all      1.058
_refine_ls_R_factor_all          0.0335
_refine_ls_R_factor_gt           0.0318
_refine_ls_shift/su_max          0.001
_refine_ls_shift/su_mean         0.000
_refine_ls_structure_factor_coef Fsqd
_refine_ls_weighting_details
;
 w=1/[\s^2^(Fo^2^)+(0.0495P)^2^+20.6549P]
 where P=(Fo^2^+2Fc^2^)/3
;
_refine_ls_weighting_scheme      calc
_refine_ls_wR_factor_gt          0.0926
_refine_ls_wR_factor_ref         0.0941
_reflns_Friedel_coverage         0.000
_reflns_number_gt                745
_reflns_number_total             798
_reflns_threshold_expression     'I > 2\s(I)'
_cod_data_source_file            c5cc05036g2.cif
_cod_data_source_block           3
_cod_original_cell_volume        3065.9(4)
_cod_database_code               7117617
_shelx_space_group_comment
;
The symmetry employed for this shelxl refinement is uniquely defined
by the following loop, which should always be used as a source of
symmetry information in preference to the above space-group names.
They are only intended as comments.
;
_shelx_estimated_absorpt_t_min   0.309
_shelx_estimated_absorpt_t_max   0.822
_shelxl_version_number           2013-2
_shelx_res_file
;
TITL 3 in I4(1)/amd
CELL 0.71073 29.6337 29.6337 3.4913 90 90 90
ZERR 4 0.0016 0.0016 0.0002 0 0 0
LATT 2
SYMM 0.5-X,-Y,0.5+Z
SYMM 0.25-Y,0.75+X,0.25+Z
SYMM 0.25+Y,0.25-X,0.75+Z
SYMM 0.5-X,+Y,0.5-Z
SYMM +X,-Y,-Z
SYMM 0.25+Y,0.75+X,0.25-Z
SYMM 0.25-Y,0.25-X,0.75-Z

SFAC C H N O Br Ag
UNIT 32 100 64 28 4 24

L.S. 50
PLAN  50
SIZE 0.3 0.04 0.04
TEMP 20
BOND
fmap 2
acta
OMIT -3 52
OMIT 0 2 0

WGHT    0.049500   20.654900
FVAR       0.11083
AG1   6    0.438681    0.311319    0.125000    10.50000    0.05562    0.05562 =
         0.06938    0.00791    0.00791   -0.00960
AG2   6    0.250000    0.250000    0.750000    10.25000    0.03517    0.12626 =
         0.06238    0.00000    0.01063    0.00000
BR1   5    0.500000    0.250000    0.625000    10.12500    0.05156    0.05156 =
         0.16878    0.00000    0.00000    0.00000
N1    3    0.381989    0.273183    0.311941    11.00000    0.03939    0.05453 =
         0.05364   -0.00022    0.00698    0.00242
N2    3    0.315776    0.250000    0.526204    10.50000    0.03466    0.08754 =
         0.05146    0.00000    0.00691    0.00000
PART   2
N3    3    0.329386    0.330575    0.468783    10.50000    0.07049    0.07883 =
         0.11479    0.00707    0.02572    0.02855
AFIX  93
H3A   2    0.348098    0.351316    0.402018    10.50000   -1.20000
H3B   2    0.303078    0.337768    0.552959    10.50000   -1.20000
AFIX   0
PART   0
C1    1    0.341734    0.285166    0.440479    11.00000    0.04478    0.06906 =
         0.05272   -0.00153    0.00563    0.00992
AFIX  43
PART   1
H1    2    0.332575    0.315008    0.467932    10.50000   -1.20000
AFIX   0
O1    4    0.342979    0.407021    0.125000    10.12500    0.26559
AFIX   3
H1WA  2    0.318889    0.430826    0.125000    10.12500   -1.50000
AFIX   0
PART   2
O2    4    0.334224    0.400494   -0.213898    10.10000    0.19290
AFIX   3
H2WA  2    0.358894    0.414994   -0.198948    10.10000   -1.50000
H2WB  2    0.310844    0.416254   -0.168968    10.10000   -1.50000
AFIX   0
PART   3
O3    4    0.256403    0.350489    1.102515    10.30000    0.18726
AFIX   3
H3WA  2    0.250463    0.358969    1.329545    10.30000   -1.50000
H3WB  2    0.281303    0.351189    0.981695    10.30000   -1.50000
AFIX   0
PART   4
O4    4    0.250000    0.351523    0.750000    10.25000    0.27700
AFIX   3
H4WA  2    0.260040    0.326813    0.660430    10.25000   -1.50000
H4WB  2    0.267370    0.354933    0.941560    10.25000   -1.50000
AFIX   0
PART   5
O5    4    0.250000    0.448931    0.750000    10.05000    0.21932
AFIX   3
H5WA  2    0.258800    0.469891    0.898500    10.05000   -1.50000
H5WB  2    0.242220    0.430031    0.920860    10.05000   -1.50000
PART   6
O6    4    0.276440    0.452201    0.948840    10.05000    0.15259
H6WA  2    0.303380    0.462041    0.945630    10.05000   -1.50000
H6WB  2    0.259400    0.449121    1.142930    10.05000   -1.50000
PART   0

AFIX   0
HKLF 4

REM  3 in I4(1)/amd
REM R1 =  0.0318 for     745 Fo > 4sig(Fo)  and  0.0335 for all     798 data
REM     60 parameters refined using      0 restraints

END

WGHT      0.0587      9.0114

REM Highest difference peak  0.643,  deepest hole -1.510,  1-sigma level  0.128
Q1    1   0.2500  0.3738  0.7500  10.50000  0.05    0.64
Q2    1   0.2979  0.2500  0.4661  10.50000  0.05    0.39
Q3    1   0.3760  0.2500  0.7013  10.50000  0.05    0.38
Q4    1   0.3067  0.2500  0.6333  10.50000  0.05    0.34
Q5    1   0.3609  0.2814  0.3822  11.00000  0.05    0.29
Q6    1   0.3121  0.3096  0.1062  11.00000  0.05    0.26
Q7    1   0.3958  0.2813  0.3870  11.00000  0.05    0.23
Q8    1   0.5000  0.2093  0.6199  10.50000  0.05    0.16
Q9    1   0.4373  0.3127 -0.3750  10.50000  0.05    0.15
Q10   1   0.3378  0.3430  0.4736  11.00000  0.05    0.15
Q11   1   0.3014  0.2500  0.9007  10.50000  0.05    0.14
Q12   1   0.3160  0.3915 -0.1847  11.00000  0.05    0.13
Q13   1   0.5000  0.2804  0.8634  10.50000  0.05    0.12
Q14   1   0.4323  0.2500  0.0030  10.50000  0.05    0.11
Q15   1   0.4238  0.2500  0.2378  10.50000  0.05    0.11
Q16   1   0.3576  0.4127 -0.0502  11.00000  0.05    0.11
Q17   1   0.4653  0.2266  0.4383  11.00000  0.05    0.10
Q18   1   0.4373  0.2602  0.2702  11.00000  0.05    0.10
Q19   1   0.3010  0.3924  0.0805  11.00000  0.05    0.09
Q20   1   0.3707  0.3748  0.4952  11.00000  0.05    0.09
Q21   1   0.3844  0.2500  0.1599  10.50000  0.05    0.08
Q22   1   0.3776  0.2500 -0.0014  10.50000  0.05    0.08
Q23   1   0.3421  0.3405  0.1335  11.00000  0.05    0.07
Q24   1   0.2998  0.4184 -0.1481  11.00000  0.05    0.07
Q25   1   0.3212  0.3352  0.6184  11.00000  0.05    0.07
Q26   1   0.2635  0.4818  0.9796  11.00000  0.05    0.07
Q27   1   0.3129  0.4389 -0.2332  11.00000  0.05    0.07
Q28   1   0.3037  0.4361 -0.3657  11.00000  0.05    0.07
Q29   1   0.4098  0.3179 -0.1401  11.00000  0.05    0.06
Q30   1   0.3891  0.3377  0.3832  11.00000  0.05    0.06
Q31   1   0.3172  0.4669  0.9424  11.00000  0.05    0.06
Q32   1   0.3869  0.3155  0.0316  11.00000  0.05    0.06
Q33   1   0.3496  0.3315  0.1399  11.00000  0.05    0.05
Q34   1   0.3900  0.2913  0.6962  11.00000  0.05    0.04
Q35   1   0.3991  0.3195  0.5650  11.00000  0.05    0.04
Q36   1   0.3420  0.3217  0.8406  11.00000  0.05    0.04
Q37   1   0.2735  0.3941  1.2409  11.00000  0.05    0.04
Q38   1   0.4145  0.2500  0.6801  10.50000  0.05    0.03
Q39   1   0.3480  0.2992  0.9347  11.00000  0.05    0.03
Q40   1   0.3657  0.3092  0.7918  11.00000  0.05    0.02
Q41   1   0.3357  0.3702 -0.0233  11.00000  0.05    0.02
Q42   1   0.2500  0.4473  1.2500  10.50000  0.05    0.02
Q43   1   0.3959  0.3491  0.2999  11.00000  0.05    0.01
;
_shelx_res_checksum              4378
loop_
_space_group_symop_operation_xyz
'x, y, z'
'-x+1/2, -y, z+1/2'
'-y+1/4, x+3/4, z+1/4'
'y+1/4, -x+1/4, z+3/4'
'-x+1/2, y, -z+1/2'
'x, -y, -z'
'y+1/4, x+3/4, -z+1/4'
'-y+1/4, -x+1/4, -z+3/4'
'x+1/2, y+1/2, z+1/2'
'-x+1, -y+1/2, z+1'
'-y+3/4, x+5/4, z+3/4'
'y+3/4, -x+3/4, z+5/4'
'-x+1, y+1/2, -z+1'
'x+1/2, -y+1/2, -z+1/2'
'y+3/4, x+5/4, -z+3/4'
'-y+3/4, -x+3/4, -z+5/4'
'-x, -y, -z'
'x-1/2, y, -z-1/2'
'y-1/4, -x-3/4, -z-1/4'
'-y-1/4, x-1/4, -z-3/4'
'x-1/2, -y, z-1/2'
'-x, y, z'
'-y-1/4, -x-3/4, z-1/4'
'y-1/4, x-1/4, z-3/4'
'-x+1/2, -y+1/2, -z+1/2'
'x, y+1/2, -z'
'y+1/4, -x-1/4, -z+1/4'
'-y+1/4, x+1/4, -z-1/4'
'x, -y+1/2, z'
'-x+1/2, y+1/2, z+1/2'
'-y+1/4, -x-1/4, z+1/4'
'y+1/4, x+1/4, z-1/4'
loop_
_atom_site_label
_atom_site_type_symbol
_atom_site_fract_x
_atom_site_fract_y
_atom_site_fract_z
_atom_site_U_iso_or_equiv
_atom_site_adp_type
_atom_site_occupancy
_atom_site_site_symmetry_order
_atom_site_calc_flag
_atom_site_refinement_flags_posn
_atom_site_refinement_flags_adp
_atom_site_refinement_flags_occupancy
_atom_site_disorder_assembly
_atom_site_disorder_group
Ag1 Ag 0.43868(2) 0.31132(2) 0.1250 0.0602(3) Uani 1 2 d S T P . .
Ag2 Ag 0.2500 0.2500 0.7500 0.0746(3) Uani 1 4 d S T P . .
Br1 Br 0.5000 0.2500 0.6250 0.0906(8) Uani 1 8 d S T P . .
N1 N 0.38199(13) 0.27318(14) 0.3119(12) 0.0492(9) Uani 1 1 d . . . . .
N2 N 0.31578(19) 0.2500 0.5262(18) 0.0579(15) Uani 1 2 d S T P A .
N3 N 0.3294(4) 0.3306(4) 0.469(4) 0.088(4) Uani 0.5 1 d . . P A 2
H3A H 0.3481 0.3513 0.4020 0.106 Uiso 0.5 1 calc R U P A 2
H3B H 0.3031 0.3378 0.5530 0.106 Uiso 0.5 1 calc R U P A 2
C1 C 0.34173(16) 0.2852(2) 0.4405(15) 0.0555(12) Uani 1 1 d . . . . .
H1 H 0.3326 0.3150 0.4679 0.067 Uiso 0.5 1 calc R U P A 1
O1 O 0.343(3) 0.407(3) 0.1250 0.27(4) Uiso 0.25 2 d S . P B 1
H1WA H 0.3189 0.4308 0.1250 0.398 Uiso 0.25 2 d R U P B 1
O2 O 0.334(4) 0.400(4) -0.21(3) 0.19(4) Uiso 0.1 1 d . . P C 2
H2WA H 0.3589 0.4150 -0.1989 0.289 Uiso 0.1 1 d R U P C 2
H2WB H 0.3108 0.4163 -0.1690 0.289 Uiso 0.1 1 d R U P C 2
O3 O 0.2564(15) 0.3505(11) 1.103(10) 0.187(14) Uiso 0.3 1 d . . P D 3
H3WA H 0.2505 0.3590 1.3295 0.281 Uiso 0.3 1 d R U P D 3
H3WB H 0.2813 0.3512 0.9817 0.281 Uiso 0.3 1 d R U P D 3
O4 O 0.2500 0.3515(17) 0.7500 0.28(2) Uiso 0.5 2 d S . P E 4
H4WA H 0.2600 0.3268 0.6604 0.415 Uiso 0.25 1 d R U P E 4
H4WB H 0.2674 0.3549 0.9416 0.415 Uiso 0.25 1 d R U P E 4
O5 O 0.2500 0.449(3) 0.7500 0.22(7) Uiso 0.1 2 d S . P F 5
H5WA H 0.2588 0.4699 0.8985 0.329 Uiso 0.05 1 d R U P F 5
H5WB H 0.2422 0.4300 0.9209 0.329 Uiso 0.05 1 d R U P F 5
O6 O 0.2764 0.452(3) 0.9488 0.15(6) Uiso 0.05 1 d R . P F 6
H6WA H 0.3034 0.4620 0.9456 0.229 Uiso 0.05 1 d R U P F 6
H6WB H 0.2594 0.4491 1.1429 0.229 Uiso 0.05 1 d R U P F 6
loop_
_atom_site_aniso_label
_atom_site_aniso_U_11
_atom_site_aniso_U_22
_atom_site_aniso_U_33
_atom_site_aniso_U_23
_atom_site_aniso_U_13
_atom_site_aniso_U_12
Ag1 0.0556(3) 0.0556(3) 0.0694(4) 0.00791(18) 0.00791(18) -0.0096(2)
Ag2 0.0352(4) 0.1263(9) 0.0624(6) 0.000 0.0106(4) 0.000
Br1 0.0516(6) 0.0516(6) 0.169(2) 0.000 0.000 0.000
N1 0.0394(19) 0.055(2) 0.054(2) -0.0002(19) 0.0070(17) 0.0024(17)
N2 0.035(3) 0.088(4) 0.051(3) 0.000 0.007(3) 0.000
N3 0.070(6) 0.079(7) 0.115(10) 0.007(7) 0.026(7) 0.029(6)
C1 0.045(2) 0.069(3) 0.053(3) -0.002(2) 0.006(2) 0.010(2)
loop_
_atom_type_symbol
_atom_type_description
_atom_type_scat_dispersion_real
_atom_type_scat_dispersion_imag
_atom_type_scat_source
C C 0.0033 0.0016 'International Tables Vol C Tables 4.2.6.8 and 6.1.1.4'
H H 0.0000 0.0000 'International Tables Vol C Tables 4.2.6.8 and 6.1.1.4'
N N 0.0061 0.0033 'International Tables Vol C Tables 4.2.6.8 and 6.1.1.4'
O O 0.0106 0.0060 'International Tables Vol C Tables 4.2.6.8 and 6.1.1.4'
Br Br -0.2901 2.4595 'International Tables Vol C Tables 4.2.6.8 and 6.1.1.4'
Ag Ag -0.8971 1.1015 'International Tables Vol C Tables 4.2.6.8 and 6.1.1.4'
loop_
_geom_angle_atom_site_label_1
_geom_angle_atom_site_label_2
_geom_angle_atom_site_label_3
_geom_angle
_geom_angle_site_symmetry_1
_geom_angle_site_symmetry_3
N1 Ag1 N1 158.9(2) 16_554 .
N2 Ag2 N2 180.0 25_556 .
C1 N1 N1 105.6(3) . 29
C1 N1 Ag1 132.3(4) . .
N1 N1 Ag1 122.09(11) 29 .
C1 N2 C1 103.2(6) 29 .
C1 N2 Ag2 128.4(3) 29 .
C1 N2 Ag2 128.4(3) . .
N1 C1 N2 112.8(5) . .
N1 C1 N3 121.2(7) . .
N2 C1 N3 126.0(6) . .
loop_
_geom_bond_atom_site_label_1
_geom_bond_atom_site_label_2
_geom_bond_distance
_geom_bond_site_symmetry_2
Ag1 N1 2.127(4) 16_554
Ag1 N1 2.127(4) .
Ag2 N2 2.100(6) 25_556
Ag2 N2 2.100(6) .
N1 C1 1.323(6) .
N1 N1 1.374(8) 29
N2 C1 1.329(6) 29
N2 C1 1.329(6) .
N3 C1 1.398(12) .
O2 O2 1.3(2) 16_553
O3 O3 1.10(7) 5_557
O6 O6 1.52(7) 16_556
