#------------------------------------------------------------------------------
#$Date: 2017-02-15 13:16:23 +0200 (Wed, 15 Feb 2017) $
#$Revision: 192149 $
#$URL: file:///home/coder/svn-repositories/cod/cif/7/11/89/7118968.cif $
#------------------------------------------------------------------------------
#
# This file is available in the Crystallography Open Database (COD),
# http://www.crystallography.net/
#
# All data on this site have been placed in the public domain by the
# contributors.
#
data_7118968
loop_
_publ_author_name
'Javier Arinez-Soriano'
'Jorge Albalad'
'Christian Vila-Parrondo'
'Javier Perez-Carvajal'
'Sabina Rodriguez-Hermida'
'Aurelio Cabeza'
'Jordi Juanhuix'
'Inhar Imaz'
'Daniel Maspoch'
_publ_section_title
;
 Single-crystal and humidity-controlled powder diffraction study of the
 breathing effect in a metal-organic framework upon water
 adsorption/desorption
;
_journal_name_full               Chem.Commun.
_journal_page_first              7229
_journal_paper_doi               10.1039/C6CC02908F
_journal_volume                  52
_journal_year                    2016
_chemical_formula_moiety         'C20 H37 Gd Mn2 N8 O44 P4, 21(O)'
_chemical_formula_sum            'C20 H37 Gd Mn2 N8 O44 P4'
_chemical_formula_weight         1484.58
_chemical_name_common            1-op
_chemical_name_systematic        '[Mn2(Gd-H-DOTA-4AmP)(H2O)7].21H2O '
_space_group_crystal_system      monoclinic
_space_group_IT_number           14
_space_group_name_Hall           '-P 2ybc'
_space_group_name_H-M_alt        'P 1 21/c 1'
_symmetry_space_group_name_Hall  '-P 2ybc'
_symmetry_space_group_name_H-M   'P 1 21/c 1'
_atom_sites_solution_hydrogens   geom
_audit_creation_method           SHELXL-2013
_audit_update_record
;
2016-03-29 deposited with the CCDC.
2016-05-04 downloaded from the CCDC.
;
_cell_angle_alpha                90
_cell_angle_beta                 95.30(8)
_cell_angle_gamma                90
_cell_formula_units_Z            4
_cell_length_a                   12.300(5)
_cell_length_b                   19.750(5)
_cell_length_c                   24.630(5)
_cell_measurement_reflns_used    2638
_cell_measurement_temperature    100(2)
_cell_measurement_theta_max      50
_cell_measurement_theta_min      1
_cell_volume                     5958(3)
_computing_structure_refinement  'SHELXL-2013 (Sheldrick, 2013)'
_diffrn_ambient_temperature      100(2)
_diffrn_measured_fraction_theta_full 0.960
_diffrn_measured_fraction_theta_max 0.789
_diffrn_measurement_device_type  synchrotron
_diffrn_radiation_type           synchrotron
_diffrn_radiation_wavelength     0.88557
_diffrn_reflns_av_R_equivalents  0.0697
_diffrn_reflns_av_unetI/netI     0.0689
_diffrn_reflns_Laue_measured_fraction_full 0.960
_diffrn_reflns_Laue_measured_fraction_max 0.789
_diffrn_reflns_limit_h_max       12
_diffrn_reflns_limit_h_min       -12
_diffrn_reflns_limit_k_max       21
_diffrn_reflns_limit_k_min       -21
_diffrn_reflns_limit_l_max       28
_diffrn_reflns_limit_l_min       -27
_diffrn_reflns_number            31272
_diffrn_reflns_point_group_measured_fraction_full 0.960
_diffrn_reflns_point_group_measured_fraction_max 0.789
_diffrn_reflns_theta_full        25.000
_diffrn_reflns_theta_max         32.487
_diffrn_reflns_theta_min         1.650
_exptl_absorpt_coefficient_mu    3.111
_exptl_absorpt_correction_type   none
_exptl_crystal_colour            colourless
_exptl_crystal_density_diffrn    1.655
_exptl_crystal_description       prism
_exptl_crystal_F_000             2956
_exptl_crystal_size_max          0.09
_exptl_crystal_size_mid          0.08
_exptl_crystal_size_min          0.07
_refine_diff_density_max         4.682
_refine_diff_density_min         -1.056
_refine_diff_density_rms         0.253
_refine_ls_extinction_coef       .
_refine_ls_extinction_method     none
_refine_ls_goodness_of_fit_ref   1.080
_refine_ls_hydrogen_treatment    constr
_refine_ls_matrix_type           full
_refine_ls_number_parameters     712
_refine_ls_number_reflns         8782
_refine_ls_number_restraints     0
_refine_ls_restrained_S_all      1.080
_refine_ls_R_factor_all          0.0909
_refine_ls_R_factor_gt           0.0876
_refine_ls_shift/su_max          0.000
_refine_ls_shift/su_mean         0.000
_refine_ls_structure_factor_coef Fsqd
_refine_ls_weighting_details
'w=1/[\s^2^(Fo^2^)+(0.1429P)^2^+55.6841P] where P=(Fo^2^+2Fc^2^)/3'
_refine_ls_weighting_scheme      calc
_refine_ls_wR_factor_gt          0.2453
_refine_ls_wR_factor_ref         0.2481
_reflns_Friedel_coverage         0.000
_reflns_Friedel_fraction_full    .
_reflns_Friedel_fraction_max     .
_reflns_number_gt                8049
_reflns_number_total             8782
_reflns_threshold_expression     'I > 2\s(I)'
_cod_data_source_file            c6cc02908f2.cif
_cod_data_source_block           shelx
_cod_original_cell_volume        5957.7(15)
_cod_database_code               7118968
_shelx_space_group_comment
;
The symmetry employed for this shelxl refinement is uniquely defined
by the following loop, which should always be used as a source of
symmetry information in preference to the above space-group names.
They are only intended as comments.
;
_shelxl_version_number           2013-3
_shelx_res_file
;
TITL import01
CELL  0.88557  12.3000  19.7500  24.6300   90.000   95.300   90.000
ZERR     4.00   0.0000   0.0000   0.0000    0.000    0.000    0.000
LATT   1
SYMM  - X, 1/2 + Y, 1/2 - Z
SFAC  C    H    N    O    P    GD   MN
UNIT  80   148  32   176  16   4    8
MERG   2
EQIV $1 x-1, y, z
HTAB O14 O9_$1
EQIV $2 x, -y+3/2, z+1/2
HTAB N5 O12_$2
EQIV $3 x+1, y, z
HTAB N6 O16_$3
EQIV $4 x, -y+3/2, z-1/2
HTAB N7 O5_$4
HTAB N8 O10_$1
HTAB C6 O8
EQIV $5 -x+1, -y+2, -z
HTAB C7 O23W_$5
HTAB C8 O5_$4
HTAB C11 O11
HTAB C12 O23W_$5
HTAB C13 O14
HTAB C17 O24W_$5
FMAP   2
PLAN   10
ACTA    50.00
HTAB    2.00000
L.S.  10
TEMP  -173.00
WGHT    0.142900   55.684101
FVAR       0.53402
GD1   6    0.275253    0.795916    0.045084    11.00000    0.03009    0.04627 =
         0.02205   -0.00016    0.00219   -0.00015
MN2   7   -0.211230    0.852575    0.270125    11.00000    0.04361    0.05301 =
         0.02704    0.00461    0.00242    0.00003
MN1   7    0.784974    0.796818   -0.168252    11.00000    0.04444    0.05186 =
         0.02655   -0.00272   -0.00118    0.00420
P1    5    0.548019    0.774687    0.277170    11.00000    0.04434    0.06676 =
         0.03299    0.00606    0.00411   -0.00418
P2    5    0.722324    0.751369   -0.039984    11.00000    0.04191    0.05795 =
         0.02720   -0.00560    0.00309    0.00074
P3    5    0.028216    0.706144   -0.177952    11.00000    0.04044    0.05690 =
         0.02821   -0.00151    0.00144    0.00271
P4    5   -0.159755    0.758489    0.152750    11.00000    0.04659    0.06188 =
         0.02474    0.00280    0.00520   -0.00551
O1    4    0.398278    0.781037    0.121790    11.00000    0.03804    0.06610 =
         0.03143    0.00323   -0.00199   -0.00504
O2    4    0.417720    0.751243   -0.001040    11.00000    0.03769    0.05472 =
         0.03394   -0.00091    0.00402    0.00364
O3    4    0.163285    0.739549   -0.022911    11.00000    0.03132    0.05440 =
         0.02988   -0.00099   -0.00341    0.00188
O4    4    0.139857    0.771230    0.104803    11.00000    0.04158    0.05475 =
         0.02280   -0.00228    0.00146    0.00045
O5    4    0.492589    0.725017    0.313463    11.00000    0.05567    0.08343 =
         0.03924    0.00427    0.00787   -0.01400
O6    4    0.495607    0.843409    0.274201    11.00000    0.05518    0.07571 =
         0.07415    0.00731    0.01632    0.00278
O7    4   -0.327366    0.777506    0.291217    11.00000    0.04897    0.06349 =
         0.02265    0.01060   -0.00044   -0.00227
O8    4    0.688193    0.823796   -0.032737    11.00000    0.04902    0.06034 =
         0.03554   -0.00707    0.01088    0.00036
O9    4    0.794802    0.722433    0.007870    11.00000    0.05553    0.07176 =
         0.03244   -0.00421    0.00035    0.00560
O10   4    0.776111    0.741794   -0.092727    11.00000    0.03922    0.05517 =
         0.02753   -0.00049    0.00029    0.00314
O11   4    0.090897    0.771559   -0.177614    11.00000    0.04782    0.06735 =
         0.03891   -0.00330    0.00106   -0.00491
O12   4    0.070994    0.652174   -0.213792    11.00000    0.04928    0.06245 =
         0.02983   -0.00822    0.00391    0.00143
O13   4   -0.096513    0.718487   -0.191526    11.00000    0.04819    0.04986 =
         0.03055   -0.00566    0.00081    0.00075
O14   4   -0.161492    0.788512    0.094706    11.00000    0.06086    0.06898 =
         0.02413    0.00218    0.00773   -0.01001
AFIX  83
H14   2   -0.135674    0.760162    0.073953    11.00000   -1.50000
AFIX   0
O15   4   -0.225106    0.695135    0.155653    11.00000    0.06261    0.07728 =
         0.03782    0.00440   -0.00185   -0.01744
O16   4   -0.193544    0.815802    0.187988    11.00000    0.05047    0.07068 =
         0.02909    0.00707    0.00398    0.00333
N1    3    0.242803    0.895287    0.113026    11.00000    0.04730    0.05256 =
         0.02965   -0.00448    0.00866   -0.00514
N2    3    0.440251    0.885394    0.053940    11.00000    0.03565    0.05685 =
         0.03131    0.00059    0.00295   -0.00264
N3    3    0.298090    0.855034   -0.048840    11.00000    0.04018    0.04729 =
         0.02515   -0.00129    0.00668   -0.00242
N4    3    0.099166    0.864953    0.011178    11.00000    0.04109    0.04638 =
         0.02847   -0.00257    0.00003    0.00132
N5    3    0.053868    0.791173    0.180425    11.00000    0.05048    0.05268 =
         0.03095   -0.00119    0.00580   -0.00059
AFIX  43
H5    2    0.049654    0.818135    0.208599    11.00000   -1.20000
AFIX   0
N6    3    0.563274    0.784917    0.167947    11.00000    0.04459    0.10199 =
         0.03004    0.00993   -0.00702   -0.02035
AFIX  43
H6    2    0.629997    0.801417    0.170199    11.00000   -1.20000
AFIX   0
N7    3    0.507043    0.736035   -0.075540    11.00000    0.04351    0.06224 =
         0.03857   -0.00918    0.00215    0.00223
AFIX  43
H7    2    0.506209    0.740871   -0.111094    11.00000   -1.20000
AFIX   0
N8    3    0.000141    0.722504   -0.072193    11.00000    0.03258    0.05928 =
         0.02581   -0.00485   -0.00098   -0.00050
AFIX  43
H8    2   -0.070347    0.731141   -0.075234    11.00000   -1.20000
AFIX   0
C1    1    0.345809    0.933408    0.128957    11.00000    0.05307    0.05314 =
         0.03869   -0.00894    0.00714   -0.00610
AFIX  23
H1A   2    0.327523    0.976954    0.145825    11.00000   -1.20000
H1B   2    0.391472    0.906954    0.156560    11.00000   -1.20000
AFIX   0
C2    1    0.409625    0.947105    0.081468    11.00000    0.05123    0.05638 =
         0.03808    0.00115    0.00820   -0.00902
AFIX  23
H2B   2    0.365625    0.976089    0.055010    11.00000   -1.20000
H2A   2    0.476641    0.972411    0.094223    11.00000   -1.20000
AFIX   0
C3    1    0.533318    0.849560    0.084903    11.00000    0.03223    0.07680 =
         0.02690   -0.00010   -0.00077   -0.00378
AFIX  23
H3A   2    0.584188    0.883166    0.103049    11.00000   -1.20000
H3B   2    0.573764    0.822774    0.059387    11.00000   -1.20000
AFIX   0
C4    1    0.491412    0.802808    0.127514    11.00000    0.03268    0.07277 =
         0.02391    0.00046    0.00325   -0.00088
C5    1    0.530973    0.737242    0.209155    11.00000    0.05150    0.07994 =
         0.03844    0.00866   -0.00352   -0.00922
AFIX  23
H5B   2    0.576057    0.695773    0.208526    11.00000   -1.20000
H5A   2    0.453635    0.724187    0.200378    11.00000   -1.20000
AFIX   0
C6    1    0.470225    0.902323   -0.000850    11.00000    0.04146    0.04882 =
         0.03383   -0.00068    0.00584   -0.00757
AFIX  23
H6B   2    0.514094    0.864822   -0.014173    11.00000   -1.20000
H6A   2    0.516471    0.943435    0.001484    11.00000   -1.20000
AFIX   0
C7    1    0.373258    0.914481   -0.041184    11.00000    0.04472    0.05442 =
         0.03888    0.00343    0.00210   -0.00369
AFIX  23
H7A   2    0.331801    0.953669   -0.028841    11.00000   -1.20000
H7B   2    0.399316    0.926437   -0.076803    11.00000   -1.20000
AFIX   0
C8    1    0.343061    0.803624   -0.083400    11.00000    0.03755    0.06071 =
         0.02781   -0.00068    0.01056   -0.00598
AFIX  23
H8A   2    0.376485    0.826030   -0.113742    11.00000   -1.20000
H8B   2    0.283492    0.773954   -0.099269    11.00000   -1.20000
AFIX   0
C9    1    0.428547    0.761136   -0.050519    11.00000    0.04239    0.05055 =
         0.02560   -0.00404    0.01069   -0.00657
C10   1    0.597081    0.699779   -0.045725    11.00000    0.04281    0.06425 =
         0.03770   -0.00112    0.01269    0.00195
AFIX  23
H10B  2    0.610627    0.656952   -0.064872    11.00000   -1.20000
H10A  2    0.577075    0.688338   -0.008799    11.00000   -1.20000
AFIX   0
C11   1    0.189738    0.878793   -0.075016    11.00000    0.04016    0.05433 =
         0.02426    0.00988   -0.00068   -0.00027
AFIX  23
H11A  2    0.202040    0.912492   -0.103569    11.00000   -1.20000
H11B  2    0.150317    0.839886   -0.092898    11.00000   -1.20000
AFIX   0
C12   1    0.120817    0.909733   -0.035076    11.00000    0.03987    0.05041 =
         0.03482    0.00591   -0.00057    0.00056
AFIX  23
H12A  2    0.157186    0.951398   -0.020269    11.00000   -1.20000
H12B  2    0.050088    0.923199   -0.054527    11.00000   -1.20000
AFIX   0
C13   1    0.015820    0.813301   -0.005411    11.00000    0.04118    0.05750 =
         0.02729   -0.00128    0.00039    0.00018
AFIX  23
H13B  2   -0.043417    0.834155   -0.029785    11.00000   -1.20000
H13A  2   -0.016329    0.795937    0.027256    11.00000   -1.20000
AFIX   0
C14   1    0.064727    0.756125   -0.034210    11.00000    0.02980    0.04809 =
         0.03538    0.00818    0.00335   -0.00054
C15   1    0.041636    0.672414   -0.108540    11.00000    0.04712    0.05530 =
         0.02658   -0.00355    0.00065    0.00631
AFIX  23
H15A  2   -0.000380    0.629800   -0.107089    11.00000   -1.20000
H15B  2    0.119256    0.662515   -0.097027    11.00000   -1.20000
AFIX   0
C16   1    0.061957    0.907239    0.055917    11.00000    0.04740    0.05275 =
         0.03375   -0.00143    0.00636    0.00059
AFIX  23
H16B  2    0.025001    0.878245    0.081367    11.00000   -1.20000
H16A  2    0.008764    0.941332    0.040478    11.00000   -1.20000
AFIX   0
C17   1    0.160758    0.943680    0.087419    11.00000    0.05272    0.05429 =
         0.04291   -0.00788    0.00373    0.00083
AFIX  23
H17B  2    0.196303    0.973336    0.061898    11.00000   -1.20000
H4B   2    0.133934    0.972712    0.116111    11.00000   -1.20000
AFIX   0
C18   1    0.203433    0.862981    0.161680    11.00000    0.04252    0.06280 =
         0.03844   -0.00533    0.01280   -0.00416
AFIX  23
H18A  2    0.164322    0.896998    0.182087    11.00000   -1.20000
H18B  2    0.266790    0.846670    0.185864    11.00000   -1.20000
AFIX   0
C19   1    0.128947    0.804996    0.146803    11.00000    0.03366    0.05889 =
         0.03129    0.00455    0.00758    0.00763
C20   1   -0.021099    0.735439    0.174259    11.00000    0.05031    0.05962 =
         0.02927    0.00365    0.01477   -0.00471
AFIX  23
H20A  2   -0.019829    0.711320    0.209548    11.00000   -1.20000
H20B  2    0.004695    0.703425    0.147304    11.00000   -1.20000
AFIX   0
O1W   4    0.283706    0.676116    0.066598    11.00000    0.05740    0.05649 =
         0.03772   -0.00487    0.00261    0.00037
O2W   4   -0.341904    0.916801    0.236790    11.00000    0.05515    0.06167 =
         0.09146    0.01918    0.00674    0.00816
O3W   4   -0.231062    0.888304    0.357745    11.00000    0.06938    0.06784 =
         0.03885   -0.00100    0.00870    0.00083
O4W   4   -0.095949    0.934432    0.266085    11.00000    0.06070    0.06171 =
         0.04705    0.01125    0.01486   -0.00277
O5W   4    0.934740    0.853602   -0.142371    11.00000    0.04618    0.06617 =
         0.04379    0.00173   -0.00413   -0.00486
O6W   4    0.698993    0.879695   -0.131549    11.00000    0.06530    0.05589 =
         0.04914   -0.00502    0.01360    0.00938
O7W   4    0.763157    0.854984   -0.242730    11.00000    0.06624    0.06031 =
         0.03772    0.00078    0.00569    0.00243
O10W  4    0.270867    0.634363    0.174606    11.00000    0.11302    0.07779 =
         0.05527    0.01666    0.00474   -0.00203
O11W  4    0.505274    0.590612    0.307451    11.00000    0.07204    0.08151 =
         0.09363   -0.00106   -0.00727   -0.00565
O12W  4    0.471480    0.564685    0.189435    11.00000    0.13332    0.08875 =
         0.14996   -0.01126    0.02274    0.00117
O13W  4    0.916417    0.609887    0.015988    11.00000    0.17205    0.11274 =
         0.10980    0.02051    0.05293    0.05121
O14W  4   -0.121926    0.570916    0.126338    11.00000    0.22287    0.11182 =
         0.17926   -0.03470    0.04601   -0.02908
O15W  4    0.137320    0.585758    0.014556    11.00000    0.19294    0.08965 =
         0.32641    0.01980   -0.12743   -0.03048
O16W  4    0.453843    0.591166    0.041937    11.00000    0.19127    0.13463 =
         0.36077   -0.00545    0.08976    0.05226
O17W  4    0.248196    0.534271   -0.088002    11.00000    0.48755    0.24468 =
         0.41841   -0.12397   -0.29864    0.13407
O18W  4    0.855966    0.523287   -0.062856    11.00000    0.72305    0.19945 =
         0.12015   -0.02694   -0.09438    0.10635
O19W  4    0.622783    0.614211    0.109573    11.00000    0.41678    0.27509 =
         0.23745   -0.06996   -0.09955   -0.16638
O20W  4    0.542313    0.468082    0.057158    11.00000    0.49484    0.59629 =
         0.35862   -0.28579    0.30759   -0.22688
O21W  4    0.286738    0.606156   -0.197109    11.00000    0.08552    0.08711 =
         0.10148    0.01393   -0.00537    0.00682
O22W  4    0.272087    0.775472   -0.237504    11.00000    0.05141    0.23161 =
         0.07053    0.06303    0.00273   -0.01568
O23W  4    0.766277    0.938678    0.018066    11.00000    0.07728    0.05736 =
         0.05979   -0.00330   -0.00798   -0.00590
O24W  4    0.987171    0.981811   -0.179186    11.00000    0.10576    0.08510 =
         0.12269    0.03654    0.04842    0.01574
O25W  4    0.557937    0.937023    0.355949    11.00000    0.09749    0.11382 =
         0.12306    0.01414    0.02244    0.01582
O26W  4   -0.170589    0.944570    0.133300    11.00000    0.11824    0.07057 =
         0.06518    0.01691    0.02843    0.00234
O27W  4   -0.089931    1.047836    0.326772    11.00000    0.13999    0.12587 =
         0.31056   -0.11408   -0.07635    0.04897
O28W  4   -0.305546    1.035511    0.187988    11.00000    0.10957    0.09360 =
         0.08767    0.02983    0.04222    0.01312
O29W  4   -0.126466    1.105267    0.229976    11.00000    0.23788    0.26699 =
         0.23018    0.10741   -0.00119   -0.03871
O30W  4    0.806982    0.992454   -0.256913    11.00000    0.22177    0.13633 =
         0.30621   -0.04957   -0.10309   -0.00632
HKLF    4

REM  import01
REM R1 =  0.0876 for    8049 Fo > 4sig(Fo)  and  0.0909 for all    8782 data
REM    712 parameters refined using      0 restraints

END

WGHT      0.1433     55.3228

REM Instructions for potential hydrogen bonds
HTAB O14 O9_$1
HTAB N5 O12_$2
HTAB N6 O16_$3
HTAB N7 O5_$4
HTAB N8 O10_$1
HTAB C6 O8
HTAB C7 O23W_$5
HTAB C8 O5_$4
HTAB C11 O11
HTAB C12 O23W_$5
HTAB C13 O14
HTAB C17 O24W_$5

REM Highest difference peak  4.682,  deepest hole -1.056,  1-sigma level  0.253
Q1    1   0.2734  0.7481  0.0498  11.00000  0.05    4.68
Q2    1   0.2643  0.8407  0.0513  11.00000  0.05    2.76
Q3    1   0.2717  0.6578  0.0524  11.00000  0.05    1.46
Q4    1   0.6294  0.9756 -0.2618  11.00000  0.05    1.27
Q5    1  -0.2274  0.7986  0.2706  11.00000  0.05    1.23
Q6    1  -0.3474  0.9821  0.1610  11.00000  0.05    1.15
Q7    1   0.5588  0.7184  0.2789  11.00000  0.05    1.06
Q8    1   0.3457  0.5597  0.0121  11.00000  0.05    1.02
Q9    1  -0.2293  0.9071  0.2731  11.00000  0.05    0.96
Q10   1   0.7052  0.6988 -0.0337  11.00000  0.05    0.95
;
_shelx_res_checksum              78096
loop_
_space_group_symop_operation_xyz
'x, y, z'
'-x, y+1/2, -z+1/2'
'-x, -y, -z'
'x, -y-1/2, z-1/2'
loop_
_atom_site_label
_atom_site_type_symbol
_atom_site_fract_x
_atom_site_fract_y
_atom_site_fract_z
_atom_site_U_iso_or_equiv
_atom_site_adp_type
_atom_site_occupancy
_atom_site_site_symmetry_order
_atom_site_calc_flag
_atom_site_refinement_flags_posn
_atom_site_refinement_flags_adp
_atom_site_refinement_flags_occupancy
_atom_site_disorder_assembly
_atom_site_disorder_group
Gd1 Gd 0.27525(4) 0.79592(2) 0.04508(2) 0.0328(2) Uani 1 1 d . . . . .
Mn2 Mn -0.21123(13) 0.85258(8) 0.27012(6) 0.0413(4) Uani 1 1 d . . . . .
Mn1 Mn 0.78497(14) 0.79682(8) -0.16825(6) 0.0412(4) Uani 1 1 d . . . . .
P1 P 0.5480(3) 0.77469(17) 0.27717(11) 0.0480(7) Uani 1 1 d . . . . .
P2 P 0.7223(2) 0.75137(15) -0.03998(10) 0.0424(7) Uani 1 1 d . . . . .
P3 P 0.0282(2) 0.70614(14) -0.17795(11) 0.0420(7) Uani 1 1 d . . . . .
P4 P -0.1598(2) 0.75849(15) 0.15275(10) 0.0443(7) Uani 1 1 d . . . . .
O1 O 0.3983(6) 0.7810(4) 0.1218(3) 0.0455(18) Uani 1 1 d . . . . .
O2 O 0.4177(6) 0.7512(4) -0.0010(3) 0.0421(16) Uani 1 1 d . . . . .
O3 O 0.1633(5) 0.7395(4) -0.0229(3) 0.0389(15) Uani 1 1 d . . . . .
O4 O 0.1399(6) 0.7712(4) 0.1048(3) 0.0398(16) Uani 1 1 d . . . . .
O5 O 0.4926(7) 0.7250(5) 0.3135(3) 0.059(2) Uani 1 1 d . . . . .
O6 O 0.4956(8) 0.8434(5) 0.2742(4) 0.068(2) Uani 1 1 d . . . . .
O7 O -0.3274(6) 0.7775(4) 0.2912(3) 0.0453(17) Uani 1 1 d . . . . .
O8 O 0.6882(6) 0.8238(4) -0.0327(3) 0.0479(18) Uani 1 1 d . . . . .
O9 O 0.7948(7) 0.7224(4) 0.0079(3) 0.0535(19) Uani 1 1 d . . . . .
O10 O 0.7761(6) 0.7418(4) -0.0927(3) 0.0408(16) Uani 1 1 d . . . . .
O11 O 0.0909(7) 0.7716(4) -0.1776(3) 0.0515(19) Uani 1 1 d . . . . .
O12 O 0.0710(6) 0.6522(4) -0.2138(3) 0.0472(18) Uani 1 1 d . . . . .
O13 O -0.0965(6) 0.7185(4) -0.1915(3) 0.0430(17) Uani 1 1 d . . . . .
O14 O -0.1615(7) 0.7885(4) 0.0947(3) 0.051(2) Uani 1 1 d . . . . .
H14 H -0.1357 0.7602 0.0740 0.077 Uiso 1 1 calc R U . . .
O15 O -0.2251(8) 0.6951(4) 0.1557(3) 0.060(2) Uani 1 1 d . . . . .
O16 O -0.1935(7) 0.8158(4) 0.1880(3) 0.0501(18) Uani 1 1 d . . . . .
N1 N 0.2428(8) 0.8953(4) 0.1130(3) 0.043(2) Uani 1 1 d . . . . .
N2 N 0.4403(7) 0.8854(5) 0.0539(3) 0.0413(19) Uani 1 1 d . . . . .
N3 N 0.2981(7) 0.8550(4) -0.0488(3) 0.0373(18) Uani 1 1 d . . . . .
N4 N 0.0992(7) 0.8650(4) 0.0112(3) 0.0388(19) Uani 1 1 d . . . . .
N5 N 0.0539(8) 0.7912(4) 0.1804(4) 0.045(2) Uani 1 1 d . . . . .
H5 H 0.0497 0.8181 0.2086 0.053 Uiso 1 1 calc R U . . .
N6 N 0.5633(9) 0.7849(6) 0.1679(4) 0.060(3) Uani 1 1 d . . . . .
H6 H 0.6300 0.8014 0.1702 0.071 Uiso 1 1 calc R U . . .
N7 N 0.5070(8) 0.7360(5) -0.0755(4) 0.048(2) Uani 1 1 d . . . . .
H7 H 0.5062 0.7409 -0.1111 0.058 Uiso 1 1 calc R U . . .
N8 N 0.0001(7) 0.7225(5) -0.0722(3) 0.0395(19) Uani 1 1 d . . . . .
H8 H -0.0703 0.7311 -0.0752 0.047 Uiso 1 1 calc R U . . .
C1 C 0.3458(10) 0.9334(6) 0.1290(4) 0.048(3) Uani 1 1 d . . . . .
H1A H 0.3275 0.9770 0.1458 0.058 Uiso 1 1 calc R U . . .
H1B H 0.3915 0.9070 0.1566 0.058 Uiso 1 1 calc R U . . .
C2 C 0.4096(10) 0.9471(6) 0.0815(4) 0.048(3) Uani 1 1 d . . . . .
H2B H 0.3656 0.9761 0.0550 0.058 Uiso 1 1 calc R U . . .
H2A H 0.4766 0.9724 0.0942 0.058 Uiso 1 1 calc R U . . .
C3 C 0.5333(9) 0.8496(6) 0.0849(4) 0.046(3) Uani 1 1 d . . . . .
H3A H 0.5842 0.8832 0.1030 0.055 Uiso 1 1 calc R U . . .
H3B H 0.5738 0.8228 0.0594 0.055 Uiso 1 1 calc R U . . .
C4 C 0.4914(9) 0.8028(6) 0.1275(4) 0.043(3) Uani 1 1 d . . . . .
C5 C 0.5310(11) 0.7372(7) 0.2092(5) 0.057(3) Uani 1 1 d . . . . .
H5B H 0.5761 0.6958 0.2085 0.069 Uiso 1 1 calc R U . . .
H5A H 0.4536 0.7242 0.2004 0.069 Uiso 1 1 calc R U . . .
C6 C 0.4702(9) 0.9023(5) -0.0008(4) 0.041(2) Uani 1 1 d . . . . .
H6B H 0.5141 0.8648 -0.0142 0.049 Uiso 1 1 calc R U . . .
H6A H 0.5165 0.9434 0.0015 0.049 Uiso 1 1 calc R U . . .
C7 C 0.3733(9) 0.9145(6) -0.0412(4) 0.046(2) Uani 1 1 d . . . . .
H7A H 0.3318 0.9537 -0.0288 0.055 Uiso 1 1 calc R U . . .
H7B H 0.3993 0.9264 -0.0768 0.055 Uiso 1 1 calc R U . . .
C8 C 0.3431(9) 0.8036(5) -0.0834(4) 0.042(2) Uani 1 1 d . . . . .
H8A H 0.3765 0.8260 -0.1137 0.050 Uiso 1 1 calc R U . . .
H8B H 0.2835 0.7740 -0.0993 0.050 Uiso 1 1 calc R U . . .
C9 C 0.4285(9) 0.7611(5) -0.0505(4) 0.039(2) Uani 1 1 d . . . . .
C10 C 0.5971(10) 0.6998(6) -0.0457(5) 0.048(3) Uani 1 1 d . . . . .
H10B H 0.6106 0.6570 -0.0649 0.057 Uiso 1 1 calc R U . . .
H10A H 0.5771 0.6883 -0.0088 0.057 Uiso 1 1 calc R U . . .
C11 C 0.1897(8) 0.8788(5) -0.0750(4) 0.040(2) Uani 1 1 d . . . . .
H11A H 0.2020 0.9125 -0.1036 0.048 Uiso 1 1 calc R U . . .
H11B H 0.1503 0.8399 -0.0929 0.048 Uiso 1 1 calc R U . . .
C12 C 0.1208(9) 0.9097(5) -0.0351(4) 0.042(2) Uani 1 1 d . . . . .
H12A H 0.1572 0.9514 -0.0203 0.050 Uiso 1 1 calc R U . . .
H12B H 0.0501 0.9232 -0.0545 0.050 Uiso 1 1 calc R U . . .
C13 C 0.0158(9) 0.8133(6) -0.0054(4) 0.042(2) Uani 1 1 d . . . . .
H13B H -0.0434 0.8342 -0.0298 0.051 Uiso 1 1 calc R U . . .
H13A H -0.0163 0.7959 0.0273 0.051 Uiso 1 1 calc R U . . .
C14 C 0.0647(8) 0.7561(5) -0.0342(4) 0.038(2) Uani 1 1 d . . . . .
C15 C 0.0416(9) 0.6724(6) -0.1085(4) 0.043(2) Uani 1 1 d . . . . .
H15A H -0.0004 0.6298 -0.1071 0.052 Uiso 1 1 calc R U . . .
H15B H 0.1193 0.6625 -0.0970 0.052 Uiso 1 1 calc R U . . .
C16 C 0.0620(9) 0.9072(6) 0.0559(4) 0.044(2) Uani 1 1 d . . . . .
H16B H 0.0250 0.8782 0.0814 0.053 Uiso 1 1 calc R U . . .
H16A H 0.0088 0.9413 0.0405 0.053 Uiso 1 1 calc R U . . .
C17 C 0.1608(10) 0.9437(6) 0.0874(5) 0.050(3) Uani 1 1 d . . . . .
H17B H 0.1963 0.9733 0.0619 0.060 Uiso 1 1 calc R U . . .
H4B H 0.1339 0.9727 0.1161 0.060 Uiso 1 1 calc R U . . .
C18 C 0.2034(9) 0.8630(6) 0.1617(4) 0.047(3) Uani 1 1 d . . . . .
H18A H 0.1643 0.8970 0.1821 0.057 Uiso 1 1 calc R U . . .
H18B H 0.2668 0.8467 0.1859 0.057 Uiso 1 1 calc R U . . .
C19 C 0.1289(9) 0.8050(5) 0.1468(4) 0.041(2) Uani 1 1 d . . . . .
C20 C -0.0211(9) 0.7354(6) 0.1743(4) 0.046(3) Uani 1 1 d . . . . .
H20A H -0.0198 0.7113 0.2095 0.055 Uiso 1 1 calc R U . . .
H20B H 0.0047 0.7034 0.1473 0.055 Uiso 1 1 calc R U . . .
O1W O 0.2837(7) 0.6761(4) 0.0666(3) 0.0506(18) Uani 1 1 d . . . . .
O2W O -0.3419(7) 0.9168(4) 0.2368(4) 0.069(2) Uani 1 1 d . . . . .
O3W O -0.2311(7) 0.8883(4) 0.3577(3) 0.058(2) Uani 1 1 d . . . . .
O4W O -0.0959(7) 0.9344(4) 0.2661(3) 0.056(2) Uani 1 1 d . . . . .
O5W O 0.9347(6) 0.8536(4) -0.1424(3) 0.0526(19) Uani 1 1 d . . . . .
O6W O 0.6990(7) 0.8797(4) -0.1315(3) 0.056(2) Uani 1 1 d . . . . .
O7W O 0.7632(7) 0.8550(4) -0.2427(3) 0.055(2) Uani 1 1 d . . . . .
O10W O 0.2709(10) 0.6344(5) 0.1746(4) 0.082(3) Uani 1 1 d . . . . .
O11W O 0.5053(9) 0.5906(5) 0.3075(5) 0.083(3) Uani 1 1 d . . . . .
O12W O 0.4715(13) 0.5647(7) 0.1894(7) 0.123(5) Uani 1 1 d . . . . .
O13W O 0.9164(14) 0.6099(7) 0.0160(6) 0.129(5) Uani 1 1 d . . . . .
O14W O -0.1219(19) 0.5709(9) 0.1263(9) 0.170(8) Uani 1 1 d . . . . .
O15W O 0.1373(18) 0.5858(8) 0.0146(11) 0.212(13) Uani 1 1 d . . . . .
O16W O 0.454(2) 0.5912(11) 0.0419(13) 0.225(12) Uani 1 1 d . . . . .
O17W O 0.248(4) 0.5343(18) -0.0880(19) 0.40(3) Uani 1 1 d . . . . .
O18W O 0.856(4) 0.5233(15) -0.0629(10) 0.36(3) Uani 1 1 d . . . . .
O19W O 0.623(3) 0.6142(17) 0.1096(13) 0.32(2) Uani 1 1 d . . . . .
O20W O 0.542(4) 0.468(3) 0.0572(18) 0.47(4) Uani 1 1 d . . . . .
O21W O 0.2867(10) 0.6062(6) -0.1971(5) 0.092(3) Uani 1 1 d . . . . .
O22W O 0.2721(10) 0.7755(9) -0.2375(5) 0.118(5) Uani 1 1 d . . . . .
O23W O 0.7663(8) 0.9387(4) 0.0181(4) 0.066(2) Uani 1 1 d . . . . .
O24W O 0.9872(11) 0.9818(6) -0.1792(6) 0.102(4) Uani 1 1 d . . . . .
O25W O 0.5579(11) 0.9370(7) 0.3559(6) 0.111(4) Uani 1 1 d . . . . .
O26W O -0.1706(10) 0.9446(5) 0.1333(4) 0.083(3) Uani 1 1 d . . . . .
O27W O -0.0899(15) 1.0478(9) 0.3268(11) 0.198(12) Uani 1 1 d . . . . .
O28W O -0.3055(11) 1.0355(6) 0.1880(5) 0.095(4) Uani 1 1 d . . . . .
O29W O -0.126(2) 1.1053(16) 0.2300(12) 0.246(14) Uani 1 1 d . . . . .
O30W O 0.807(2) 0.9925(11) -0.2569(13) 0.229(14) Uani 1 1 d . . . . .
loop_
_atom_site_aniso_label
_atom_site_aniso_U_11
_atom_site_aniso_U_22
_atom_site_aniso_U_33
_atom_site_aniso_U_23
_atom_site_aniso_U_13
_atom_site_aniso_U_12
Gd1 0.0301(4) 0.0463(4) 0.0221(3) -0.00016(17) 0.0022(2) -0.00015(17)
Mn2 0.0436(10) 0.0530(9) 0.0270(8) 0.0046(6) 0.0024(6) 0.0000(7)
Mn1 0.0444(11) 0.0519(10) 0.0265(8) -0.0027(6) -0.0012(7) 0.0042(6)
P1 0.0443(19) 0.0668(18) 0.0330(15) 0.0061(13) 0.0041(12) -0.0042(13)
P2 0.0419(18) 0.0580(17) 0.0272(13) -0.0056(11) 0.0031(11) 0.0007(11)
P3 0.0404(18) 0.0569(17) 0.0282(14) -0.0015(10) 0.0014(11) 0.0027(11)
P4 0.0466(18) 0.0619(17) 0.0247(13) 0.0028(11) 0.0052(11) -0.0055(12)
O1 0.038(5) 0.066(5) 0.031(4) 0.003(3) -0.002(3) -0.005(3)
O2 0.038(4) 0.055(4) 0.034(4) -0.001(3) 0.004(3) 0.004(3)
O3 0.031(4) 0.054(4) 0.030(3) -0.001(3) -0.003(3) 0.002(3)
O4 0.042(4) 0.055(4) 0.023(3) -0.002(3) 0.001(3) 0.000(3)
O5 0.056(6) 0.083(6) 0.039(4) 0.004(4) 0.008(4) -0.014(4)
O6 0.055(6) 0.076(6) 0.074(6) 0.007(5) 0.016(4) 0.003(4)
O7 0.049(5) 0.063(4) 0.023(3) 0.011(3) 0.000(3) -0.002(3)
O8 0.049(5) 0.060(5) 0.036(4) -0.007(3) 0.011(3) 0.000(4)
O9 0.056(5) 0.072(5) 0.032(4) -0.004(4) 0.000(3) 0.006(4)
O10 0.039(4) 0.055(4) 0.028(3) 0.000(3) 0.000(3) 0.003(3)
O11 0.048(5) 0.067(5) 0.039(4) -0.003(4) 0.001(3) -0.005(4)
O12 0.049(5) 0.062(5) 0.030(4) -0.008(3) 0.004(3) 0.001(3)
O13 0.048(5) 0.050(4) 0.031(4) -0.006(3) 0.001(3) 0.001(3)
O14 0.061(6) 0.069(5) 0.024(4) 0.002(3) 0.008(3) -0.010(4)
O15 0.063(6) 0.077(6) 0.038(4) 0.004(4) -0.002(4) -0.017(4)
O16 0.050(5) 0.071(5) 0.029(4) 0.007(3) 0.004(3) 0.003(4)
N1 0.047(6) 0.053(5) 0.030(4) -0.004(4) 0.009(4) -0.005(4)
N2 0.036(5) 0.057(5) 0.031(4) 0.001(4) 0.003(3) -0.003(4)
N3 0.040(5) 0.047(5) 0.025(4) -0.001(3) 0.007(3) -0.002(3)
N4 0.041(5) 0.046(5) 0.028(4) -0.003(3) 0.000(3) 0.001(4)
N5 0.050(6) 0.053(5) 0.031(5) -0.001(3) 0.006(4) -0.001(4)
N6 0.045(7) 0.102(8) 0.030(5) 0.010(5) -0.007(4) -0.020(5)
N7 0.044(6) 0.062(6) 0.039(5) -0.009(4) 0.002(4) 0.002(4)
N8 0.033(5) 0.059(5) 0.026(4) -0.005(4) -0.001(3) 0.000(4)
C1 0.053(7) 0.053(6) 0.039(6) -0.009(5) 0.007(5) -0.006(5)
C2 0.051(7) 0.056(7) 0.038(6) 0.001(5) 0.008(5) -0.009(5)
C3 0.032(6) 0.077(8) 0.027(5) 0.000(5) -0.001(4) -0.004(5)
C4 0.033(7) 0.073(7) 0.024(5) 0.000(4) 0.003(4) -0.001(5)
C5 0.052(8) 0.080(8) 0.038(6) 0.009(6) -0.004(5) -0.009(6)
C6 0.041(6) 0.049(6) 0.034(5) -0.001(4) 0.006(4) -0.008(4)
C7 0.045(7) 0.054(6) 0.039(6) 0.003(5) 0.002(5) -0.004(5)
C8 0.038(7) 0.061(7) 0.028(5) -0.001(4) 0.011(4) -0.006(4)
C9 0.042(7) 0.051(6) 0.026(5) -0.004(4) 0.011(4) -0.007(4)
C10 0.043(7) 0.064(7) 0.038(6) -0.001(5) 0.013(5) 0.002(5)
C11 0.040(6) 0.054(6) 0.024(5) 0.010(4) -0.001(4) 0.000(4)
C12 0.040(6) 0.050(6) 0.035(5) 0.006(4) -0.001(4) 0.001(4)
C13 0.041(7) 0.057(6) 0.027(5) -0.001(4) 0.000(4) 0.000(5)
C14 0.030(6) 0.048(6) 0.035(5) 0.008(4) 0.003(4) -0.001(4)
C15 0.047(7) 0.055(6) 0.027(5) -0.004(4) 0.001(4) 0.006(5)
C16 0.047(7) 0.053(6) 0.034(5) -0.001(4) 0.006(4) 0.001(5)
C17 0.053(7) 0.054(7) 0.043(6) -0.008(5) 0.004(5) 0.001(5)
C18 0.043(7) 0.063(7) 0.038(6) -0.005(5) 0.013(5) -0.004(5)
C19 0.034(6) 0.059(6) 0.031(6) 0.005(4) 0.008(4) 0.008(4)
C20 0.050(7) 0.060(7) 0.029(5) 0.004(5) 0.015(5) -0.005(5)
O1W 0.057(5) 0.056(5) 0.038(4) -0.005(3) 0.003(3) 0.000(4)
O2W 0.055(6) 0.062(5) 0.091(7) 0.019(5) 0.007(5) 0.008(4)
O3W 0.069(6) 0.068(5) 0.039(4) -0.001(4) 0.009(4) 0.001(4)
O4W 0.061(5) 0.062(5) 0.047(4) 0.011(4) 0.015(4) -0.003(4)
O5W 0.046(5) 0.066(5) 0.044(4) 0.002(4) -0.004(3) -0.005(4)
O6W 0.065(6) 0.056(5) 0.049(5) -0.005(4) 0.014(4) 0.009(4)
O7W 0.066(6) 0.060(5) 0.038(4) 0.001(3) 0.006(4) 0.002(4)
O10W 0.113(9) 0.078(6) 0.055(6) 0.017(5) 0.005(5) -0.002(6)
O11W 0.072(7) 0.082(7) 0.094(8) -0.001(6) -0.007(6) -0.006(5)
O12W 0.133(12) 0.089(9) 0.150(13) -0.011(8) 0.023(10) 0.001(8)
O13W 0.172(15) 0.113(10) 0.110(10) 0.021(8) 0.053(10) 0.051(10)
O14W 0.22(2) 0.112(12) 0.179(18) -0.035(12) 0.046(15) -0.029(13)
O15W 0.193(19) 0.090(10) 0.33(3) 0.020(14) -0.13(2) -0.030(11)
O16W 0.19(2) 0.135(16) 0.36(4) -0.005(19) 0.09(2) 0.052(15)
O17W 0.49(6) 0.24(3) 0.42(5) -0.12(4) -0.30(5) 0.13(4)
O18W 0.72(8) 0.20(3) 0.120(18) -0.027(17) -0.09(3) 0.11(4)
O19W 0.42(5) 0.28(3) 0.24(3) -0.07(3) -0.10(3) -0.17(3)
O20W 0.49(7) 0.60(9) 0.36(5) -0.29(6) 0.31(5) -0.23(6)
O21W 0.086(8) 0.087(7) 0.101(8) 0.014(6) -0.005(6) 0.007(6)
O22W 0.051(7) 0.232(16) 0.071(7) 0.063(9) 0.003(6) -0.016(8)
O23W 0.077(6) 0.057(5) 0.060(5) -0.003(4) -0.008(4) -0.006(4)
O24W 0.106(10) 0.085(8) 0.123(10) 0.037(7) 0.048(8) 0.016(6)
O25W 0.097(10) 0.114(10) 0.123(11) 0.014(8) 0.022(8) 0.016(7)
O26W 0.118(9) 0.071(6) 0.065(6) 0.017(5) 0.028(6) 0.002(6)
O27W 0.140(15) 0.126(13) 0.31(3) -0.114(16) -0.076(17) 0.049(11)
O28W 0.110(10) 0.094(8) 0.088(8) 0.030(6) 0.042(7) 0.013(6)
O29W 0.24(3) 0.27(3) 0.23(3) 0.11(2) 0.00(2) -0.04(2)
O30W 0.22(2) 0.136(16) 0.31(3) -0.050(18) -0.10(2) -0.006(16)
loop_
_atom_type_symbol
_atom_type_description
_atom_type_scat_dispersion_real
_atom_type_scat_dispersion_imag
_atom_type_scat_source
C C 0.0033 0.0016 'International Tables Vol C Tables 4.2.6.8 and 6.1.1.4'
H H 0.0000 0.0000 'International Tables Vol C Tables 4.2.6.8 and 6.1.1.4'
N N 0.0061 0.0033 'International Tables Vol C Tables 4.2.6.8 and 6.1.1.4'
O O 0.0106 0.0060 'International Tables Vol C Tables 4.2.6.8 and 6.1.1.4'
P P 0.1023 0.0942 'International Tables Vol C Tables 4.2.6.8 and 6.1.1.4'
Gd Gd -0.1653 3.9035 'International Tables Vol C Tables 4.2.6.8 and 6.1.1.4'
Mn Mn 0.3368 0.7283 'International Tables Vol C Tables 4.2.6.8 and 6.1.1.4'
loop_
_geom_angle_atom_site_label_1
_geom_angle_atom_site_label_2
_geom_angle_atom_site_label_3
_geom_angle
_geom_angle_site_symmetry_1
_geom_angle_site_symmetry_3
O1 Gd1 O2 83.5(3) . .
O1 Gd1 O3 144.4(2) . .
O2 Gd1 O3 83.8(2) . .
O1 Gd1 O4 84.9(3) . .
O2 Gd1 O4 145.2(2) . .
O3 Gd1 O4 86.9(2) . .
O1 Gd1 O1W 71.8(3) . .
O2 Gd1 O1W 73.7(3) . .
O3 Gd1 O1W 72.8(2) . .
O4 Gd1 O1W 71.5(3) . .
O1 Gd1 N4 141.1(3) . .
O2 Gd1 N4 132.2(2) . .
O3 Gd1 N4 66.9(2) . .
O4 Gd1 N4 72.5(3) . .
O1W Gd1 N4 126.4(3) . .
O1 Gd1 N3 131.0(3) . .
O2 Gd1 N3 66.2(2) . .
O3 Gd1 N3 71.7(2) . .
O4 Gd1 N3 140.8(3) . .
O1W Gd1 N3 128.3(2) . .
N4 Gd1 N3 69.0(3) . .
O1 Gd1 N1 72.8(3) . .
O2 Gd1 N1 138.7(3) . .
O3 Gd1 N1 133.9(3) . .
O4 Gd1 N1 66.6(3) . .
O1W Gd1 N1 126.5(3) . .
N4 Gd1 N1 69.3(3) . .
N3 Gd1 N1 105.2(3) . .
O1 Gd1 N2 65.6(3) . .
O2 Gd1 N2 72.2(3) . .
O3 Gd1 N2 139.4(2) . .
O4 Gd1 N2 130.8(2) . .
O1W Gd1 N2 127.4(3) . .
N4 Gd1 N2 106.2(3) . .
N3 Gd1 N2 68.8(3) . .
N1 Gd1 N2 67.4(3) . .
O13 Mn2 O2W 172.6(3) 4_576 .
O13 Mn2 O7 82.4(3) 4_576 .
O2W Mn2 O7 90.5(3) . .
O13 Mn2 O4W 95.9(3) 4_576 .
O2W Mn2 O4W 90.7(3) . .
O7 Mn2 O4W 168.2(3) . .
O13 Mn2 O16 94.2(3) 4_576 .
O2W Mn2 O16 88.7(4) . .
O7 Mn2 O16 96.9(3) . .
O4W Mn2 O16 94.8(3) . .
O13 Mn2 O3W 84.9(3) 4_576 .
O2W Mn2 O3W 92.1(4) . .
O7 Mn2 O3W 81.7(3) . .
O4W Mn2 O3W 86.6(3) . .
O16 Mn2 O3W 178.3(3) . .
O7W Mn1 O10 169.8(3) . .
O7W Mn1 O6W 85.8(3) . .
O10 Mn1 O6W 87.5(3) . .
O7W Mn1 O7 86.9(3) . 4_675
O10 Mn1 O7 88.6(3) . 4_675
O6W Mn1 O7 112.4(3) . 4_675
O7W Mn1 O5W 90.6(3) . .
O10 Mn1 O5W 96.6(3) . .
O6W Mn1 O5W 85.6(3) . .
O7 Mn1 O5W 161.6(3) 4_675 .
O7W Mn1 O13 100.5(3) . 1_655
O10 Mn1 O13 87.6(3) . 1_655
O6W Mn1 O13 167.0(3) . 1_655
O7 Mn1 O13 79.5(3) 4_675 1_655
O5W Mn1 O13 83.0(3) . 1_655
O6 P1 O5 113.3(6) . .
O6 P1 O7 113.1(5) . 1_655
O5 P1 O7 112.3(5) . 1_655
O6 P1 C5 108.0(6) . .
O5 P1 C5 104.9(5) . .
O7 P1 C5 104.4(5) 1_655 .
O8 P2 O9 114.5(4) . .
O8 P2 O10 111.5(4) . .
O9 P2 O10 110.1(4) . .
O8 P2 C10 107.1(5) . .
O9 P2 C10 106.1(5) . .
O10 P2 C10 107.0(5) . .
O11 P3 O12 113.8(5) . .
O11 P3 O13 111.1(4) . .
O12 P3 O13 112.0(4) . .
O11 P3 C15 107.8(5) . .
O12 P3 C15 106.5(5) . .
O13 P3 C15 105.0(5) . .
O15 P4 O16 115.1(5) . .
O15 P4 O14 113.8(5) . .
O16 P4 O14 105.3(4) . .
O15 P4 C20 105.9(5) . .
O16 P4 C20 109.0(5) . .
O14 P4 C20 107.5(5) . .
C4 O1 Gd1 125.6(7) . .
C9 O2 Gd1 124.3(7) . .
C14 O3 Gd1 121.5(6) . .
C19 O4 Gd1 122.6(7) . .
P1 O7 Mn2 129.7(4) 1_455 .
P1 O7 Mn1 130.6(4) 1_455 4_476
Mn2 O7 Mn1 99.6(3) . 4_476
P2 O10 Mn1 136.9(4) . .
P3 O13 Mn2 125.9(4) . 4_575
P3 O13 Mn1 134.8(4) . 1_455
Mn2 O13 Mn1 98.5(3) 4_575 1_455
P4 O16 Mn2 147.2(5) . .
C18 N1 C17 111.2(9) . .
C18 N1 C1 109.7(8) . .
C17 N1 C1 108.2(8) . .
C18 N1 Gd1 105.9(6) . .
C17 N1 Gd1 110.3(6) . .
C1 N1 Gd1 111.6(6) . .
C2 N2 C6 109.5(8) . .
C2 N2 C3 112.1(8) . .
C6 N2 C3 109.3(8) . .
C2 N2 Gd1 111.2(7) . .
C6 N2 Gd1 109.1(6) . .
C3 N2 Gd1 105.5(6) . .
C8 N3 C7 110.8(8) . .
C8 N3 C11 109.6(8) . .
C7 N3 C11 108.8(8) . .
C8 N3 Gd1 106.3(6) . .
C7 N3 Gd1 110.7(6) . .
C11 N3 Gd1 110.7(5) . .
C13 N4 C12 111.6(8) . .
C13 N4 C16 109.8(8) . .
C12 N4 C16 108.8(8) . .
C13 N4 Gd1 105.1(6) . .
C12 N4 Gd1 110.6(6) . .
C16 N4 Gd1 110.9(6) . .
C19 N5 C20 124.8(9) . .
C4 N6 C5 119.3(10) . .
C9 N7 C10 121.0(9) . .
C14 N8 C15 123.0(9) . .
C2 C1 N1 112.3(9) . .
N2 C2 C1 112.9(9) . .
N2 C3 C4 110.3(9) . .
O1 C4 N6 123.4(10) . .
O1 C4 C3 120.5(9) . .
N6 C4 C3 115.9(10) . .
N6 C5 P1 111.1(9) . .
N2 C6 C7 113.1(9) . .
N3 C7 C6 113.7(9) . .
N3 C8 C9 110.7(8) . .
O2 C9 N7 123.7(10) . .
O2 C9 C8 118.3(9) . .
N7 C9 C8 118.0(9) . .
N7 C10 P2 111.0(8) . .
C12 C11 N3 112.5(8) . .
N4 C12 C11 114.6(8) . .
N4 C13 C14 110.8(9) . .
O3 C14 N8 121.3(9) . .
O3 C14 C13 120.9(9) . .
N8 C14 C13 117.8(9) . .
N8 C15 P3 108.7(7) . .
N4 C16 C17 110.4(9) . .
N1 C17 C16 112.5(9) . .
N1 C18 C19 111.9(9) . .
O4 C19 N5 122.9(10) . .
O4 C19 C18 120.2(10) . .
N5 C19 C18 116.9(9) . .
N5 C20 P4 114.8(8) . .
loop_
_geom_bond_atom_site_label_1
_geom_bond_atom_site_label_2
_geom_bond_distance
_geom_bond_site_symmetry_2
Gd1 O1 2.328(7) .
Gd1 O2 2.347(7) .
Gd1 O3 2.348(6) .
Gd1 O4 2.372(7) .
Gd1 O1W 2.425(8) .
Gd1 N4 2.629(8) .
Gd1 N3 2.629(8) .
Gd1 N1 2.633(8) .
Gd1 N2 2.685(9) .
Mn2 O13 2.146(7) 4_576
Mn2 O2W 2.150(9) .
Mn2 O7 2.155(8) .
Mn2 O4W 2.159(8) .
Mn2 O16 2.179(8) .
Mn2 O3W 2.305(8) .
Mn1 O7W 2.160(8) .
Mn1 O10 2.166(7) .
Mn1 O6W 2.189(8) .
Mn1 O7 2.192(8) 4_675
Mn1 O5W 2.200(8) .
Mn1 O13 2.236(8) 1_655
P1 O6 1.501(10) .
P1 O5 1.529(9) .
P1 O7 1.541(8) 1_655
P1 C5 1.825(12) .
P2 O8 1.506(9) .
P2 O9 1.522(8) .
P2 O10 1.523(7) .
P2 C10 1.841(12) .
P3 O11 1.504(9) .
P3 O12 1.509(8) .
P3 O13 1.559(8) .
P3 C15 1.828(10) .
P4 O15 1.492(9) .
P4 O16 1.508(9) .
P4 O14 1.546(8) .
P4 C20 1.797(12) .
O1 C4 1.220(13) .
O2 C9 1.253(12) .
O3 C14 1.262(12) .
O4 C19 1.248(13) .
O7 P1 1.541(8) 1_455
O7 Mn1 2.192(8) 4_476
O13 Mn2 2.146(7) 4_575
O13 Mn1 2.236(8) 1_455
N1 C18 1.478(13) .
N1 C17 1.487(15) .
N1 C1 1.495(14) .
N2 C2 1.461(14) .
N2 C6 1.470(13) .
N2 C3 1.494(13) .
N3 C8 1.466(13) .
N3 C7 1.496(13) .
N3 C11 1.501(13) .
N4 C13 1.477(14) .
N4 C12 1.486(13) .
N4 C16 1.488(13) .
N5 C19 1.325(14) .
N5 C20 1.435(14) .
N6 C4 1.317(15) .
N6 C5 1.466(16) .
N7 C9 1.291(14) .
N7 C10 1.459(15) .
N8 C14 1.345(13) .
N8 C15 1.458(13) .
C1 C2 1.492(15) .
C3 C4 1.523(15) .
C6 C7 1.499(15) .
C8 C9 1.519(16) .
C11 C12 1.488(15) .
C13 C14 1.490(15) .
C16 C17 1.556(15) .
C18 C19 1.491(16) .
loop_
_geom_hbond_atom_site_label_D
_geom_hbond_atom_site_label_H
_geom_hbond_atom_site_label_A
_geom_hbond_distance_DH
_geom_hbond_distance_HA
_geom_hbond_distance_DA
_geom_hbond_angle_DHA
_geom_hbond_site_symmetry_A
O14 H14 O9 0.84 1.92 2.521(11) 127.7 1_455
N5 H5 O12 0.88 1.99 2.825(11) 157.2 4_576
N6 H6 O16 0.88 2.19 3.048(13) 163.9 1_655
N7 H7 O5 0.88 1.97 2.830(13) 165.5 4_575
N8 H8 O10 0.88 1.91 2.781(11) 170.6 1_455
C6 H6B O8 0.99 2.37 3.256(13) 148.0 .
C7 H7A O23W 0.99 2.47 3.444(15) 167.5 3_675
C8 H8A O5 0.99 2.60 3.319(13) 129.9 4_575
C11 H11B O11 0.99 2.54 3.432(13) 150.6 .
C12 H12A O23W 0.99 2.36 3.311(14) 159.5 3_675
C13 H13A O14 0.99 2.55 3.474(13) 154.8 .
C17 H4B O24W 0.99 2.42 3.368(17) 159.7 3_675
