#------------------------------------------------------------------------------
#$Date: 2016-01-27 05:33:21 +0200 (Wed, 27 Jan 2016) $
#$Revision: 175134 $
#$URL: svn://www.crystallography.net/cod/cif/7/11/86/7118652.cif $
#------------------------------------------------------------------------------
#
# This file is available in the Crystallography Open Database (COD),
# http://www.crystallography.net/
#
# All data on this site have been placed in the public domain by the
# contributors.
#
data_7118652
loop_
_publ_author_name
'Wang, Hao'
'Lashkari, Elham'
'Lim, Hyuna'
'Zheng, Chong'
'Emge, Thomas J.'
'Gong, Qihan'
'Yam, Kit'
'Li, Jing'
_publ_section_title
;
 The moisture-triggered controlled release of a natural food preservative
 from a microporous metal-organic framework.
;
_journal_issue                   10
_journal_name_full
'Chemical communications (Cambridge, England)'
_journal_page_first              2129
_journal_page_last               2132
_journal_paper_doi               10.1039/c5cc09634k
_journal_volume                  52
_journal_year                    2016
_chemical_formula_moiety         'C52 H55 N4 O12 Zn3, 3.08(C3 H7 N O)'
_chemical_formula_sum            'C63.4 H56.57 N7.08 O15.08 Zn3'
_chemical_formula_weight         1355.06
_chemical_name_common            RPM6-Zn
_chemical_name_systematic        Zn3(bpdc)3(apy)
_space_group_crystal_system      monoclinic
_space_group_IT_number           14
_space_group_name_Hall           '-P 2ybc'
_space_group_name_H-M_alt        'P 1 21/c 1'
_symmetry_space_group_name_Hall  '-P 2ybc'
_symmetry_space_group_name_H-M   'P 1 21/c 1'
_atom_sites_solution_hydrogens   geom
_audit_creation_method           SHELXL-2014/6
_audit_update_record
;
2015-10-03 deposited with the CCDC.
2015-12-09 downloaded from the CCDC.
;
_cell_angle_alpha                90
_cell_angle_beta                 96.242(2)
_cell_angle_gamma                90
_cell_formula_units_Z            4
_cell_length_a                   19.6891(18)
_cell_length_b                   13.7933(13)
_cell_length_c                   26.276(2)
_cell_measurement_reflns_used    6561
_cell_measurement_temperature    100(2)
_cell_measurement_theta_max      27.69
_cell_measurement_theta_min      2.31
_cell_volume                     7093.7(11)
_computing_cell_refinement       'Bruker SAINT'
_computing_data_collection       'Bruker APEX2'
_computing_data_reduction        'Bruker SAINT'
_computing_molecular_graphics    'Bruker SHELXTL'
_computing_publication_material  'Bruker SHELXTL'
_computing_structure_refinement  'SHELXL-2014/6 (Sheldrick, 2014)'
_computing_structure_solution    'SHELXS-97 (Sheldrick 2008)'
_diffrn_ambient_temperature      100(2)
_diffrn_measured_fraction_theta_full 0.999
_diffrn_measured_fraction_theta_max 0.999
_diffrn_measurement_device_type  'Bruker APEX-II CCD'
_diffrn_measurement_method       '\f and \w scans'
_diffrn_radiation_type           MoK\a
_diffrn_radiation_wavelength     0.71073
_diffrn_reflns_av_R_equivalents  0.0870
_diffrn_reflns_av_unetI/netI     0.0826
_diffrn_reflns_laue_measured_fraction_full 0.999
_diffrn_reflns_laue_measured_fraction_max 0.999
_diffrn_reflns_limit_h_max       26
_diffrn_reflns_limit_h_min       -26
_diffrn_reflns_limit_k_max       18
_diffrn_reflns_limit_k_min       -18
_diffrn_reflns_limit_l_max       35
_diffrn_reflns_limit_l_min       -35
_diffrn_reflns_number            71733
_diffrn_reflns_point_group_measured_fraction_full 0.999
_diffrn_reflns_point_group_measured_fraction_max 0.999
_diffrn_reflns_theta_full        25.242
_diffrn_reflns_theta_max         28.283
_diffrn_reflns_theta_min         1.806
_exptl_absorpt_coefficient_mu    1.070
_exptl_absorpt_correction_T_max  1.0000
_exptl_absorpt_correction_T_min  0.5688
_exptl_absorpt_correction_type   numerical
_exptl_absorpt_process_details   'Bruker SAINT'
_exptl_crystal_colour            colourless
_exptl_crystal_density_diffrn    1.269
_exptl_crystal_description       plate
_exptl_crystal_F_000             2789
_exptl_crystal_size_max          0.41
_exptl_crystal_size_mid          0.20
_exptl_crystal_size_min          0.014
_refine_diff_density_max         0.738
_refine_diff_density_min         -0.647
_refine_diff_density_rms         0.097
_refine_ls_extinction_method     none
_refine_ls_goodness_of_fit_ref   1.023
_refine_ls_hydrogen_treatment    constr
_refine_ls_matrix_type           full
_refine_ls_number_parameters     932
_refine_ls_number_reflns         17595
_refine_ls_number_restraints     1904
_refine_ls_restrained_S_all      1.036
_refine_ls_R_factor_all          0.1473
_refine_ls_R_factor_gt           0.0763
_refine_ls_shift/su_max          0.001
_refine_ls_shift/su_mean         0.000
_refine_ls_structure_factor_coef Fsqd
_refine_ls_weighting_details
'w=1/[\s^2^(Fo^2^)+(0.0800P)^2^+11.0000P] where P=(Fo^2^+2Fc^2^)/3'
_refine_ls_weighting_scheme      calc
_refine_ls_wR_factor_gt          0.1719
_refine_ls_wR_factor_ref         0.2049
_reflns_Friedel_coverage         0.000
_reflns_number_gt                9538
_reflns_number_total             17595
_reflns_threshold_expression     'I > 2\s(I)'
_cod_data_source_file            c5cc09634k2.cif
_cod_data_source_block           hl2-14d_P21c
_cod_original_cell_volume        7093.8(11)
_cod_original_formula_sum        'C63.40 H56.57 N7.08 O15.08 Zn3'
_cod_database_code               7118652
_shelx_space_group_comment
; 
The symmetry employed for this shelxl refinement is uniquely defined 
by the following loop, which should always be used as a source of 
symmetry information in preference to the above space-group names. 
They are only intended as comments. 
;
_exptl_absorpt_special_details
;
 Crystal faces:

     H       K       L      d(mm)

   1.000   0.000   0.000   0.10000
  -1.000   0.000   0.000   0.10000
   0.000   1.000   0.000   0.20500
   0.000  -1.000   0.000   0.20500
   0.000   0.000   1.000   0.00700
   0.000   0.000  -1.000   0.00700
   1.000   1.000   0.000   0.17000
   1.000  -1.000   0.000   0.18000


;
_shelxl_version_number           2014/6
_shelx_res_file
; 
TITL hl2-14d_P21c in P2(1)/c 
CELL 0.71073  19.6891  13.7933  26.2763  90.000  96.242  90.000 
ZERR    4.00   0.0018   0.0013   0.0024   0.000   0.002   0.000 
LATT 1 
SYMM -X, 0.5+Y, 0.5-Z 
SFAC C  H  N  O  Zn 
UNIT 253.61 226.27 28.32 60.32 12 
rem  3.08 DMF 
L.S. 9 
omit    -9   6  31 
omit    20  11   1 
acta 
conf 
ISOR .015 
DELU .015 
SIMU .015 
isor .005 c23 c24 
BOND $H 
FMAP 2 
PLAN 50 
WGHT    0.080000   11.000000 
FVAR       0.03903   0.63234   0.70229   0.81747   0.56283 
MOLE 1 
ZN1   5    0.076794    0.512811    0.135495    11.00000    0.02614    0.03654 = 
         0.02739   -0.00168    0.00493   -0.00408 
ZN2   5    0.246260    0.502102    0.146398    11.00000    0.02850    0.03120 = 
         0.02408   -0.00136    0.00506   -0.00546 
ZN3   5    0.420197    0.486121    0.157559    11.00000    0.02703    0.03595 = 
         0.03017   -0.00149    0.00637   -0.00467 
O1    4    0.076147    0.667420    0.163104    11.00000    0.05258    0.04280 = 
         0.18723   -0.01658    0.03899   -0.01043 
O2    4    0.161096    0.601926    0.132760    11.00000    0.04452    0.02989 = 
         0.04839   -0.00076    0.00575   -0.00275 
O3    4    0.425370    1.333571    0.161468    11.00000    0.04406    0.04173 = 
         0.14718    0.00285    0.01181   -0.00951 
O4    4    0.327287    1.400163    0.158102    11.00000    0.04570    0.03178 = 
         0.07437    0.00235    0.00210   -0.00255 
O5    4    0.084481    0.435345    0.074312    11.00000    0.04128    0.07456 = 
         0.03683   -0.02565    0.00864   -0.00730 
O6    4    0.195939    0.410519    0.093738    11.00000    0.04500    0.05359 = 
         0.03880   -0.01936   -0.00560    0.00121 
O7    4    0.205359    0.058703   -0.291887    11.00000    0.04536    0.08168 = 
         0.03869   -0.02644    0.01301    0.00223 
O8    4    0.092030    0.056809   -0.300506    11.00000    0.04956    0.08206 = 
         0.03746   -0.02257    0.00697    0.00256 
O9    4    0.297760    0.593232    0.199049    11.00000    0.05724    0.04990 = 
         0.04298   -0.02160   -0.00623    0.00070 
O10   4    0.407516    0.559283    0.218963    11.00000    0.04714    0.08009 = 
         0.04066   -0.03052    0.00760   -0.00630 
O11   4    0.401788    0.950138    0.591687    11.00000    0.04173    0.08639 = 
         0.04069   -0.02702    0.00808   -0.00002 
O12   4    0.288686    0.933927    0.586452    11.00000    0.04591    0.06582 = 
         0.03580   -0.01732    0.01497   -0.00075 
C1    1    0.171706    0.768283    0.157482    11.00000    0.04144    0.02997 = 
         0.07224   -0.00151    0.01372    0.00031 
C2    1    0.232312    0.781194    0.137961    11.00000    0.05027    0.02904 = 
         0.08394   -0.00191    0.02068    0.00183 
AFIX  43 
H2    2    0.251870    0.729716    0.121941    11.00000   -1.20000 
AFIX   0 
C3    1    0.265229    0.870077    0.141660    11.00000    0.04876    0.03602 = 
         0.10427    0.00322    0.02594   -0.00180 
AFIX  43 
H3    2    0.307173    0.877106    0.128861    11.00000   -1.20000 
AFIX   0 
C4    1    0.236607    0.948121    0.164053    11.00000    0.04855    0.03006 = 
         0.09056   -0.00255    0.01433   -0.00647 
C5    1    0.176549    0.933804    0.184176    11.00000    0.07677    0.03568 = 
         0.12751   -0.02085    0.04409   -0.01010 
AFIX  43 
H5    2    0.156875    0.985148    0.200222    11.00000   -1.20000 
AFIX   0 
C6    1    0.144243    0.845213    0.181353    11.00000    0.06502    0.04438 = 
         0.12807   -0.01785    0.04509   -0.01336 
AFIX  43 
H6    2    0.103469    0.837369    0.195731    11.00000   -1.20000 
AFIX   0 
C7    1    0.134339    0.674844    0.151068    11.00000    0.04133    0.03368 = 
         0.07918   -0.00040    0.00666   -0.00212 
C8    1    0.329743    1.228352    0.162311    11.00000    0.04095    0.03283 = 
         0.08826   -0.00166    0.00429   -0.00494 
C9    1    0.369293    1.145858    0.162390    11.00000    0.04554    0.04450 = 
         0.14582    0.00164    0.00582   -0.00732 
AFIX  43 
H9    2    0.416299    1.150978    0.161806    11.00000   -1.20000 
AFIX   0 
C10   1    0.338989    1.055367    0.163338    11.00000    0.05920    0.03531 = 
         0.13835    0.00068    0.00966    0.00402 
AFIX  43 
H10   2    0.366138    1.000216    0.163179    11.00000   -1.20000 
AFIX   0 
C11   1    0.269848    1.045153    0.164509    11.00000    0.04977    0.03274 = 
         0.09131   -0.00086    0.00541   -0.00359 
C12   1    0.232278    1.129201    0.166221    11.00000    0.04851    0.03853 = 
         0.11777   -0.00843    0.01907   -0.00202 
AFIX  43 
H12   2    0.185487    1.124828    0.168127    11.00000   -1.20000 
AFIX   0 
C13   1    0.261988    1.219379    0.165192    11.00000    0.04696    0.03085 = 
         0.11254   -0.00238    0.01736   -0.00099 
AFIX  43 
H13   2    0.235159    1.274629    0.166493    11.00000   -1.20000 
AFIX   0 
C14   1    0.362063    1.325646    0.160266    11.00000    0.03854    0.03339 = 
         0.06571   -0.00100   -0.00146   -0.00485 
C15   1    0.142570    0.344889    0.017177    11.00000    0.04434    0.06277 = 
         0.03388   -0.01886    0.00511   -0.00655 
C16   1    0.203430    0.322544   -0.001656    11.00000    0.04315    0.08902 = 
         0.04927   -0.03032    0.00051   -0.00337 
AFIX  43 
H16   2    0.244405    0.338901    0.017413    11.00000   -1.20000 
AFIX   0 
C17   1    0.204822    0.277276   -0.047339    11.00000    0.05087    0.10015 = 
         0.05225   -0.03569    0.00859    0.00713 
AFIX  43 
H17   2    0.246792    0.264248   -0.059039    11.00000   -1.20000 
AFIX   0 
C18   1    0.145543    0.249906   -0.077055    11.00000    0.05065    0.07560 = 
         0.03940   -0.02376    0.00683    0.00236 
C19   1    0.084007    0.271612   -0.057984    11.00000    0.04462    0.09322 = 
         0.04493   -0.03801    0.00087   -0.00744 
AFIX  43 
H19   2    0.043014    0.254371   -0.076764    11.00000   -1.20000 
AFIX   0 
C20   1    0.083005    0.317817   -0.012137    11.00000    0.04603    0.09475 = 
         0.05451   -0.03746    0.01569   -0.00739 
AFIX  43 
H20   2    0.041199    0.331434   -0.000316    11.00000   -1.20000 
AFIX   0 
C21   1    0.141419    0.400542    0.065831    11.00000    0.04577    0.04404 = 
         0.03035   -0.00736    0.00689   -0.00781 
C22   1    0.148252    0.119161   -0.224953    11.00000    0.04759    0.06217 = 
         0.03714   -0.01686    0.00597    0.00211 
C23   1    0.206768    0.138740   -0.194993    11.00000    0.07239    0.12305 = 
         0.07428   -0.04090    0.01662    0.00810 
AFIX  43 
H23   2    0.248554    0.124200   -0.206609    11.00000   -1.20000 
AFIX   0 
C24   1    0.205206    0.180496   -0.146860    11.00000    0.07482    0.12610 = 
         0.07344   -0.04042    0.00537    0.00855 
AFIX  43 
H24   2    0.246429    0.193800   -0.127344    11.00000   -1.20000 
AFIX   0 
C25   1    0.146518    0.202479   -0.127318    11.00000    0.04447    0.08414 = 
         0.03996   -0.02704    0.00520    0.00398 
C26   1    0.088372    0.186000   -0.158911    11.00000    0.05542    0.13632 = 
         0.06749   -0.05249    0.00953    0.00352 
AFIX  43 
H26   2    0.046644    0.202911   -0.147896    11.00000   -1.20000 
AFIX   0 
C27   1    0.089021    0.144819   -0.207046    11.00000    0.05457    0.13534 = 
         0.05672   -0.05278    0.00726    0.00083 
AFIX  43 
H27   2    0.047931    0.134694   -0.227354    11.00000   -1.20000 
AFIX   0 
C28   1    0.149686    0.075052   -0.276426    11.00000    0.04621    0.04652 = 
         0.03195   -0.00756    0.00548    0.00209 
C29   1    0.350171    0.644180    0.278675    11.00000    0.04078    0.06675 = 
         0.03721   -0.02206    0.00671   -0.00355 
C30   1    0.409400    0.656863    0.311037    11.00000    0.04828    0.12376 = 
         0.05718   -0.04348    0.00882    0.00886 
AFIX  43 
H30   2    0.450663    0.634735    0.301242    11.00000   -1.20000 
AFIX   0 
C31   1    0.408265    0.701830    0.357637    11.00000    0.04887    0.13078 = 
         0.05594   -0.04294    0.00185    0.00501 
AFIX  43 
H31   2    0.449191    0.712075    0.378130    11.00000   -1.20000 
AFIX   0 
C32   1    0.348625    0.731808    0.374585    11.00000    0.04000    0.09701 = 
         0.04543   -0.03144    0.00778   -0.00175 
C33   1    0.290404    0.724609    0.340276    11.00000    0.05404    0.13402 = 
         0.06842   -0.05095    0.00579    0.00927 
AFIX  43 
H33   2    0.249399    0.749594    0.349090    11.00000   -1.20000 
AFIX   0 
C34   1    0.292133    0.680779    0.292965    11.00000    0.05398    0.12527 = 
         0.06246   -0.04658   -0.00281    0.00120 
AFIX  43 
H34   2    0.252174    0.676691    0.270678    11.00000   -1.20000 
AFIX   0 
C35   1    0.351703    0.594722    0.228468    11.00000    0.04163    0.04397 = 
         0.03696   -0.01315    0.00686   -0.01134 
C36   1    0.346114    0.871769    0.519912    11.00000    0.04669    0.07290 = 
         0.03519   -0.02023    0.01304    0.00146 
C37   1    0.405064    0.865027    0.496915    11.00000    0.05302    0.15456 = 
         0.06595   -0.06260    0.01990   -0.01806 
AFIX  43 
H37   2    0.445343    0.890942    0.513137    11.00000   -1.20000 
AFIX   0 
C38   1    0.405527    0.820383    0.450080    11.00000    0.05854    0.15724 = 
         0.06461   -0.05714    0.02695   -0.01705 
AFIX  43 
H38   2    0.446038    0.817975    0.434928    11.00000   -1.20000 
AFIX   0 
C39   1    0.347342    0.779136    0.425086    11.00000    0.04524    0.08944 = 
         0.04682   -0.03033    0.00794   -0.00185 
C40   1    0.288670    0.787671    0.448543    11.00000    0.04588    0.08272 = 
         0.05145   -0.02382    0.00448   -0.00489 
AFIX  43 
H40   2    0.248376    0.761496    0.432489    11.00000   -1.20000 
AFIX   0 
C41   1    0.287226    0.833240    0.494659    11.00000    0.04267    0.08384 = 
         0.04101   -0.02121    0.01596    0.00004 
AFIX  43 
H41   2    0.246258    0.838251    0.509057    11.00000   -1.20000 
AFIX   0 
C42   1    0.344457    0.923710    0.570185    11.00000    0.04488    0.05575 = 
         0.03439   -0.00848    0.01125    0.00293 
N1    3   -0.027679    0.513873    0.129421    11.00000    0.02776    0.06543 = 
         0.04254   -0.00352    0.00624    0.00257 
N2    3   -0.240019    0.505874    0.125811    11.00000    0.04043    0.10973 = 
         0.08768   -0.00929    0.01716   -0.01096 
N3    3   -0.260762    0.506153    0.167004    11.00000    0.03536    0.12651 = 
         0.08841   -0.00764    0.00902   -0.00577 
C43   1   -0.056747    0.544584    0.169990    11.00000    0.03339    0.09044 = 
         0.05500   -0.01559    0.00531    0.00253 
AFIX  43 
H43   2   -0.028849    0.568064    0.198126    11.00000   -1.20000 
AFIX   0 
C44   1   -0.126611    0.543025    0.172032    11.00000    0.03630    0.10199 = 
         0.06520   -0.02093    0.02324   -0.00129 
AFIX  43 
H44   2   -0.145658    0.564359    0.200910    11.00000   -1.20000 
AFIX   0 
C45   1   -0.167383    0.508415    0.129355    11.00000    0.03092    0.08876 = 
         0.07416   -0.00748    0.00487   -0.00323 
C46   1   -0.137342    0.479144    0.087646    11.00000    0.03449    0.10011 = 
         0.06041   -0.01485   -0.00397   -0.00722 
AFIX  43 
H46   2   -0.164082    0.458379    0.058317    11.00000   -1.20000 
AFIX   0 
C47   1   -0.067414    0.480408    0.089059    11.00000    0.03302    0.08669 = 
         0.05497   -0.01304    0.00142   -0.00122 
AFIX  43 
H47   2   -0.047292    0.457233    0.061033    11.00000   -1.20000 
AFIX  66 
EADP C50A C50B 
EADP N4A N4B 
SAME .01 C48B > N4B 
PART 1 
C48A  1   -0.435029    0.448333    0.199367    21.00000    0.03712    0.06939 = 
         0.06330   -0.00247    0.00706   -0.00231 
AFIX  43 
H48A  2   -0.455173    0.413443    0.224034    21.00000   -1.20000 
AFIX  65 
C49A  1   -0.364283    0.451838    0.200883    21.00000    0.04115    0.08090 = 
         0.07566   -0.00283    0.00594    0.00184 
AFIX  43 
H49A  2   -0.337094    0.419292    0.226564    21.00000   -1.20000 
AFIX  65 
C50A  1   -0.334175    0.503986    0.164016    21.00000    0.03286    0.09373 = 
         0.07692   -0.00261    0.00979   -0.00350 
C51A  1   -0.374813    0.552630    0.125634    21.00000    0.03880    0.08855 = 
         0.07972    0.00808    0.01656   -0.01144 
AFIX  43 
H51A  2   -0.354669    0.587520    0.100967    21.00000   -1.20000 
AFIX  65 
C52A  1   -0.445559    0.549126    0.124117    21.00000    0.03500    0.07496 = 
         0.06924    0.00515    0.00455   -0.00747 
AFIX  43 
H52A  2   -0.472748    0.581673    0.098437    21.00000   -1.20000 
AFIX  65 
N4A   3   -0.475668    0.496979    0.160984    21.00000    0.03132    0.05756 = 
         0.05720   -0.00121    0.00745   -0.00428 
AFIX  66 
PART 2 
C48B  1   -0.434068    0.499948    0.206051   -21.00000    0.04233    0.07928 = 
         0.06530    0.00134    0.00286   -0.00580 
AFIX  43 
H48B  2   -0.453307    0.498648    0.236839   -21.00000   -1.20000 
AFIX  65 
C49B  1   -0.363501    0.503774    0.206190   -21.00000    0.04161    0.09027 = 
         0.07457   -0.00455    0.00465   -0.00167 
AFIX  43 
H49B  2   -0.335527    0.505033    0.237071   -21.00000   -1.20000 
AFIX  65 
C50B  1   -0.334746    0.505716    0.160175   -21.00000    0.03286    0.09373 = 
         0.07692   -0.00261    0.00979   -0.00350 
C51B  1   -0.376557    0.503832    0.114020   -21.00000    0.03372    0.07808 = 
         0.07033   -0.00507    0.01758   -0.00424 
AFIX  43 
H51B  2   -0.357317    0.505132    0.083233   -21.00000   -1.20000 
AFIX  65 
C52B  1   -0.447123    0.500007    0.113880   -21.00000    0.03531    0.06692 = 
         0.06443   -0.00118    0.00402   -0.00808 
AFIX  43 
H52B  2   -0.475097    0.498747    0.082999   -21.00000   -1.20000 
AFIX  65 
N4B   3   -0.475879    0.498065    0.159895   -21.00000    0.03132    0.05756 = 
         0.05720   -0.00121    0.00745   -0.00428 
AFIX   0 
PART 0 
  
MOLE 2 
FLAT .01 O101 > C103 
DFIX 1.23 .01 O101 C101 
DFIX 1.32 .01 O101 C101 
DFIX 1.44 .01 N101 C102 N101 C103 
DFIX 2.40 .01 C101 C102 
DFIX 2.46 .01 C102 C103 
DFIX 2.76 .01 O101 C102 
DFIX 3.56 .01 O101 C103 
O101  4    0.114658    0.767561   -0.028435    31.00000    0.31208    0.37496 = 
         0.38969   -0.02355    0.01268    0.06232 
C101  1    0.105335    0.829438    0.006417    31.00000    0.34056    0.35317 = 
         0.34752    0.01073    0.01451    0.01572 
AFIX  43 
H101  2    0.088283    0.808379    0.036158    31.00000   -1.20000 
AFIX   0 
N101  3    0.118793    0.919307    0.001497    31.00000    0.35130    0.35618 = 
         0.34260    0.01437    0.01298    0.01909 
C102  1    0.145434    0.957927   -0.043667    31.00000    0.41713    0.40000 = 
         0.41436    0.03742    0.07564   -0.00605 
AFIX  33 
H10A  2    0.152036    1.026605   -0.039826    31.00000   -1.50000 
H10B  2    0.188316    0.927454   -0.047832    31.00000   -1.50000 
H10C  2    0.113588    0.945291   -0.073245    31.00000   -1.50000 
AFIX   0 
C103  1    0.108219    0.989193    0.040684    31.00000    0.37465    0.38361 = 
         0.29788    0.00539   -0.08283    0.05650 
AFIX  33 
H10D  2    0.121247    1.052413    0.029943    31.00000   -1.50000 
H10E  2    0.060855    0.989735    0.046314    31.00000   -1.50000 
H10F  2    0.135514    0.971957    0.071883    31.00000   -1.50000 
AFIX   0 
MOLE 3 
FLAT .01 O201 > C203 
DFIX 1.23 .01 O201 C201 
DFIX 1.32 .01 O201 C201 
DFIX 1.44 .01 N201 C202 N201 C203 
DFIX 2.40 .01 C201 C202 
DFIX 2.46 .01 C202 C203 
DFIX 2.76 .01 O201 C202 
DFIX 3.56 .01 O201 C203 
FLAT .01 O211 > C213 
DFIX 1.23 .01 O211 C211 
DFIX 1.32 .01 O211 C211 
DFIX 1.44 .01 N211 C212 N211 C213 
DFIX 2.40 .01 C211 C212 
DFIX 2.46 .01 C212 C213 
DFIX 2.76 .01 O211 C212 
DFIX 3.56 .01 O211 C213 
PART 1 
O201  4   -0.061487    0.609799    0.289535    10.50000    0.15738    0.14766 = 
         0.14489    0.00720    0.04039   -0.06311 
C201  1   -0.031991    0.680387    0.314041    10.50000    0.17212    0.17532 = 
         0.19530   -0.03460    0.01862   -0.02393 
AFIX  43 
H201  2   -0.058568    0.728686    0.326640    10.50000   -1.20000 
AFIX   0 
N201  3    0.033147    0.686945    0.321880    10.50000    0.16151    0.16648 = 
         0.19352   -0.04680    0.01624   -0.02724 
C202  1    0.079618    0.617113    0.304379    10.50000    0.18456    0.21285 = 
         0.22548   -0.06063    0.02573   -0.00386 
AFIX  33 
H20A  2    0.125775    0.637085    0.314684    10.50000   -1.50000 
H20B  2    0.071696    0.554927    0.319042    10.50000   -1.50000 
H20C  2    0.072406    0.612710    0.267728    10.50000   -1.50000 
AFIX   0 
C203  1    0.064828    0.768587    0.349891    10.50000    0.21063    0.20329 = 
         0.24333   -0.07363    0.01981   -0.04430 
AFIX  33 
H20D  2    0.113617    0.762133    0.352257    10.50000   -1.50000 
H20E  2    0.051292    0.827650    0.332300    10.50000   -1.50000 
H20F  2    0.050566    0.770074    0.383677    10.50000   -1.50000 
AFIX   0 
PART 2 
O211  4   -0.042858    0.558261    0.306132    10.50000    0.19625    0.20456 = 
         0.22878   -0.02981    0.03099   -0.04772 
C211  1    0.008602    0.611591    0.300380    10.50000    0.16686    0.17834 = 
         0.19343   -0.03923    0.02474   -0.02098 
AFIX  43 
H211  2    0.035927    0.595034    0.274986    10.50000   -1.20000 
AFIX   0 
N211  3    0.024549    0.685867    0.327347    10.50000    0.16264    0.17184 = 
         0.19295   -0.04407    0.01780   -0.02207 
C212  1   -0.014510    0.718171    0.367854    10.50000    0.18326    0.19907 = 
         0.20501   -0.04464    0.03252   -0.01762 
AFIX  33 
H21A  2    0.006107    0.775481    0.383460    10.50000   -1.50000 
H21B  2   -0.060479    0.732398    0.353785    10.50000   -1.50000 
H21C  2   -0.015027    0.668031    0.393147    10.50000   -1.50000 
AFIX   0 
C213  1    0.083914    0.741872    0.317827    10.50000    0.18923    0.21617 = 
         0.21023   -0.06052    0.04172   -0.04588 
AFIX  33 
H21D  2    0.089158    0.795466    0.341233    10.50000   -1.50000 
H21E  2    0.123823    0.701516    0.322599    10.50000   -1.50000 
H21F  2    0.078191    0.765832    0.283325    10.50000   -1.50000 
AFIX   0 
PART 0 
MOLE 4 
FLAT .01 O301 > C303 
DFIX 1.23 .01 O301 C301 
DFIX 1.32 .01 O301 C301 
DFIX 1.44 .01 N301 C302 N301 C303 
DFIX 2.40 .01 C301 C302 
DFIX 2.46 .01 C302 C303 
DFIX 2.76 .01 O301 C302 
DFIX 3.56 .01 O301 C303 
FLAT .01 O311 > C313 
DFIX 1.23 .01 O311 C311 
DFIX 1.32 .01 O311 C311 
DFIX 1.44 .01 N311 C312 N311 C313 
DFIX 2.40 .01 C311 C312 
DFIX 2.46 .01 C312 C313 
DFIX 2.76 .01 O311 C312 
DFIX 3.56 .01 O311 C313 
PART 1 
O301  4    0.488221    0.964470    0.141692    51.00000    0.27583    0.23596 = 
         0.37306   -0.01655    0.01264    0.01647 
C301  1    0.531477    0.913928    0.170292    51.00000    0.26346    0.25110 = 
         0.27133   -0.00468    0.03680   -0.00910 
AFIX  43 
H301  2    0.569688    0.944435    0.187047    51.00000   -1.20000 
AFIX   0 
N301  3    0.523734    0.821544    0.176657    51.00000    0.25706    0.24296 = 
         0.25443    0.00386    0.04257   -0.01626 
C302  1    0.465252    0.769697    0.151633    51.00000    0.26898    0.25898 = 
         0.28201    0.01485    0.02746   -0.02243 
AFIX  33 
H30A  2    0.468491    0.702428    0.160956    51.00000   -1.50000 
H30B  2    0.424029    0.796509    0.162198    51.00000   -1.50000 
H30C  2    0.464541    0.775846    0.115187    51.00000   -1.50000 
AFIX   0 
C303  1    0.572395    0.766134    0.208526    51.00000    0.27043    0.26052 = 
         0.26540   -0.00973    0.02547   -0.01801 
AFIX  33 
H30D  2    0.558051    0.699613    0.208494    51.00000   -1.50000 
H30E  2    0.616155    0.770394    0.195740    51.00000   -1.50000 
H30F  2    0.575775    0.791050    0.242822    51.00000   -1.50000 
AFIX   0 
PART 2 
O311  1    0.619106    0.806074    0.203373   -51.00000    0.27413    0.27452 = 
         0.26107    0.01729    0.03786   -0.01412 
C311  1    0.575572    0.836023    0.167652   -51.00000    0.26695    0.25390 = 
         0.26453    0.00633    0.03311   -0.00608 
AFIX  43 
H311  2    0.591484    0.867707    0.140042   -51.00000   -1.20000 
AFIX   0 
N311  1    0.511871    0.825198    0.167512   -51.00000    0.26573    0.24740 = 
         0.26439    0.00020    0.03865   -0.01469 
C312  1    0.480945    0.777402    0.207980   -51.00000    0.27574    0.26720 = 
         0.26610   -0.01736    0.04118   -0.02987 
AFIX  33 
H31A  2    0.432184    0.777319    0.200056   -51.00000   -1.50000 
H31B  2    0.497166    0.711821    0.211221   -51.00000   -1.50000 
H31C  2    0.492884    0.811226    0.239619   -51.00000   -1.50000 
AFIX   0 
C313  1    0.465125    0.861640    0.125043   -51.00000    0.26628    0.25638 = 
         0.29569   -0.00573    0.02919   -0.00543 
AFIX  33 
H31D  2    0.418958    0.847361    0.131083   -51.00000   -1.50000 
H31E  2    0.470658    0.930511    0.122208   -51.00000   -1.50000 
H31F  2    0.474949    0.831066    0.093849   -51.00000   -1.50000 
AFIX   0 
PART 0 
MOLE 5 
FLAT .01 O401 > C403 
DFIX 1.23 .01 O401 C401 
DFIX 1.32 .01 O401 C401 
DFIX 1.44 .01 N401 C402 N401 C403 
DFIX 2.40 .01 C401 C402 
DFIX 2.46 .01 C402 C403 
DFIX 2.76 .01 O401 C402 
DFIX 3.56 .01 O401 C403 
O401  4    0.381129    0.034773    0.982158    41.00000    0.62056    0.61364 = 
         0.66655   -0.02489    0.12898    0.00893 
C401  1    0.391871    0.117599    1.003189    41.00000    0.60282    0.61676 = 
         0.62364   -0.01411    0.07893    0.00717 
AFIX  43 
H401  2    0.397506    0.121946    1.038717    41.00000   -1.20000 
AFIX   0 
N401  3    0.395129    0.196301    0.976005    41.00000    0.58614    0.60517 = 
         0.62082   -0.03188    0.06954    0.00681 
C402  1    0.387232    0.198018    0.921309    41.00000    0.48699    0.56059 = 
         0.59864   -0.04042    0.08859    0.05566 
AFIX  33 
H40A  2    0.391549    0.263450    0.909631    41.00000   -1.50000 
H40B  2    0.421883    0.158458    0.908725    41.00000   -1.50000 
H40C  2    0.342958    0.173298    0.908822    41.00000   -1.50000 
AFIX   0 
C403  1    0.407297    0.287932    1.002008    41.00000    0.60762    0.63070 = 
         0.63759   -0.05855    0.04207   -0.00176 
AFIX  33 
H40D  2    0.408352    0.338832    0.977190    41.00000   -1.50000 
H40E  2    0.371339    0.300299    1.023064    41.00000   -1.50000 
H40F  2    0.450287    0.285568    1.023056    41.00000   -1.50000 
  
AFIX   0 
HKLF 4 
  
REM  hl2-14d_P21c in P2(1)/c 
REM R1 =  0.0763 for    9538 Fo > 4sig(Fo)  and  0.1473 for all   17595 data 
REM    932 parameters refined using   1904 restraints 
  
END 
  
WGHT      0.0846     10.6582 
  
REM Highest difference peak  0.738,  deepest hole -0.647,  1-sigma level  0.097 
Q1    1   0.5376  0.8212  0.1862  11.00000  0.05    0.74 
Q2    1   0.4029  0.5164  0.1292  11.00000  0.05    0.72 
Q3    1   0.1033  0.4928  0.1623  11.00000  0.05    0.66 
Q4    1   0.0424  0.4906  0.1520  11.00000  0.05    0.65 
Q5    1   0.2047  0.1869 -0.2063  11.00000  0.05    0.62 
Q6    1   0.1974  0.1272 -0.1353  11.00000  0.05    0.59 
Q7    1   0.3726  0.2284  0.9293  11.00000  0.05    0.59 
Q8    1   0.0697  0.4831  0.1078  11.00000  0.05    0.58 
Q9    1   0.2024  0.2365 -0.1580  11.00000  0.05    0.57 
Q10   1   0.0782  0.4990  0.1021  11.00000  0.05    0.55 
Q11   1   0.1161  0.5408  0.1281  11.00000  0.05    0.53 
Q12   1   0.2119  0.4746  0.1317  11.00000  0.05    0.52 
Q13   1  -0.3620  0.5698  0.1993  11.00000  0.05    0.51 
Q14   1   0.1137  0.4836  0.1341  11.00000  0.05    0.51 
Q15   1   0.4450  0.5198  0.1827  11.00000  0.05    0.51 
Q16   1   0.1085  0.6413  0.0200  11.00000  0.05    0.50 
Q17   1   0.4234  0.5136  0.1894  11.00000  0.05    0.49 
Q18   1   0.2499  0.5076  0.1129  11.00000  0.05    0.49 
Q19   1   0.2467  0.4977  0.1805  11.00000  0.05    0.49 
Q20   1   0.2220  0.5547  0.1401  11.00000  0.05    0.48 
Q21   1   0.2104  0.4768  0.1563  11.00000  0.05    0.48 
Q22   1   0.1033  0.0972 -0.1933  11.00000  0.05    0.48 
Q23   1   0.4683  0.5125  0.1640  11.00000  0.05    0.47 
Q24   1   0.2772  0.4580  0.1578  11.00000  0.05    0.47 
Q25   1   0.2600  0.5314  0.1188  11.00000  0.05    0.46 
Q26   1   0.2014  0.0885 -0.1823  11.00000  0.05    0.46 
Q27   1   0.4036  0.8173  0.5119  11.00000  0.05    0.46 
Q28   1   0.2775  0.5270  0.1713  11.00000  0.05    0.45 
Q29   1   0.1005  0.1381 -0.1454  11.00000  0.05    0.45 
Q30   1  -0.4515  0.5029  0.1370  11.00000  0.05    0.45 
Q31   1   0.2106  0.5420  0.1472  11.00000  0.05    0.45 
Q32   1   0.4262  0.4190  0.1628  11.00000  0.05    0.44 
Q33   1   0.1980  1.0053  0.0186  11.00000  0.05    0.44 
Q34   1   0.4098  0.5395  0.1819  11.00000  0.05    0.43 
Q35   1   0.4492  0.4426  0.1785  11.00000  0.05    0.43 
Q36   1   0.2954  0.6472  0.3566  11.00000  0.05    0.42 
Q37   1  -0.2567  0.5633  0.1560  11.00000  0.05    0.41 
Q38   1   0.4213  0.9603  0.0556  11.00000  0.05    0.41 
Q39   1   0.1505  1.0399  0.0298  11.00000  0.05    0.40 
Q40   1   0.3968  0.4412  0.1410  11.00000  0.05    0.40 
Q41   1   0.2934  0.6151  0.3121  11.00000  0.05    0.40 
Q42   1   0.1426  0.9657  0.0171  11.00000  0.05    0.40 
Q43   1  -0.4617  0.5144  0.1723  11.00000  0.05    0.39 
Q44   1   0.1615  0.9819  0.0032  11.00000  0.05    0.39 
Q45   1  -0.3491  0.4915  0.1393  11.00000  0.05    0.38 
Q46   1   0.0812  0.9242  0.0498  11.00000  0.05    0.38 
Q47   1  -0.4350  0.5452  0.1581  11.00000  0.05    0.38 
Q48   1   0.1036  0.0039 -0.2942  11.00000  0.05    0.37 
Q49   1  -0.4379  0.5591  0.1983  11.00000  0.05    0.37 
Q50   1  -0.4455  0.4641  0.1720  11.00000  0.05    0.37 
;
_shelx_res_checksum              1212
loop_
_space_group_symop_operation_xyz
'x, y, z'
'-x, y+1/2, -z+1/2'
'-x, -y, -z'
'x, -y-1/2, z-1/2'
loop_
_atom_site_label
_atom_site_type_symbol
_atom_site_fract_x
_atom_site_fract_y
_atom_site_fract_z
_atom_site_U_iso_or_equiv
_atom_site_adp_type
_atom_site_occupancy
_atom_site_site_symmetry_order
_atom_site_calc_flag
_atom_site_refinement_flags_posn
_atom_site_refinement_flags_adp
_atom_site_refinement_flags_occupancy
_atom_site_disorder_assembly
_atom_site_disorder_group
Zn1 Zn 0.07679(3) 0.51281(4) 0.13549(2) 0.02987(14) Uani 1 1 d . U . . .
Zn2 Zn 0.24626(3) 0.50210(4) 0.14640(2) 0.02776(13) Uani 1 1 d . U . . .
Zn3 Zn 0.42020(3) 0.48612(4) 0.15756(2) 0.03081(15) Uani 1 1 d . U . . .
O1 O 0.0761(2) 0.6674(3) 0.1631(2) 0.0923(17) Uani 1 1 d . U . . .
O2 O 0.16110(17) 0.6019(2) 0.13276(13) 0.0409(8) Uani 1 1 d . U . . .
O3 O 0.4254(2) 1.3336(3) 0.1615(2) 0.0776(14) Uani 1 1 d . U . . .
O4 O 0.32729(18) 1.4002(2) 0.15810(15) 0.0509(10) Uani 1 1 d . U . . .
O5 O 0.08448(18) 0.4353(3) 0.07431(13) 0.0506(10) Uani 1 1 d . U . . .
O6 O 0.19594(18) 0.4105(3) 0.09374(13) 0.0465(9) Uani 1 1 d . U . . .
O7 O 0.20536(19) 0.0587(3) -0.29189(14) 0.0546(10) Uani 1 1 d . U . . .
O8 O 0.0920(2) 0.0568(3) -0.30051(14) 0.0562(10) Uani 1 1 d . U . . .
O9 O 0.2978(2) 0.5932(3) 0.19905(14) 0.0509(10) Uani 1 1 d . U . . .
O10 O 0.40752(19) 0.5593(3) 0.21896(14) 0.0558(10) Uani 1 1 d . U . . .
O11 O 0.40179(19) 0.9501(3) 0.59169(14) 0.0560(11) Uani 1 1 d . U . . .
O12 O 0.28869(18) 0.9339(3) 0.58645(13) 0.0484(9) Uani 1 1 d . U . . .
C1 C 0.1717(3) 0.7683(4) 0.1575(2) 0.0473(13) Uani 1 1 d . U . . .
C2 C 0.2323(3) 0.7812(4) 0.1380(2) 0.0534(14) Uani 1 1 d . U . . .
H2 H 0.2519 0.7297 0.1219 0.064 Uiso 1 1 calc R U . . .
C3 C 0.2652(3) 0.8701(4) 0.1417(3) 0.0617(16) Uani 1 1 d . U . . .
H3 H 0.3072 0.8771 0.1289 0.074 Uiso 1 1 calc R U . . .
C4 C 0.2366(3) 0.9481(4) 0.1641(3) 0.0559(15) Uani 1 1 d . U . . .
C5 C 0.1765(4) 0.9338(4) 0.1842(3) 0.078(2) Uani 1 1 d . U . . .
H5 H 0.1569 0.9851 0.2002 0.093 Uiso 1 1 calc R U . . .
C6 C 0.1442(3) 0.8452(4) 0.1814(3) 0.077(2) Uani 1 1 d . U . . .
H6 H 0.1035 0.8374 0.1957 0.092 Uiso 1 1 calc R U . . .
C7 C 0.1343(3) 0.6748(4) 0.1511(2) 0.0514(14) Uani 1 1 d . U . . .
C8 C 0.3297(3) 1.2284(4) 0.1623(3) 0.0542(14) Uani 1 1 d . U . . .
C9 C 0.3693(3) 1.1459(4) 0.1624(3) 0.079(2) Uani 1 1 d . U . . .
H9 H 0.4163 1.1510 0.1618 0.095 Uiso 1 1 calc R U . . .
C10 C 0.3390(3) 1.0554(4) 0.1633(3) 0.078(2) Uani 1 1 d . U . . .
H10 H 0.3661 1.0002 0.1632 0.093 Uiso 1 1 calc R U . . .
C11 C 0.2698(3) 1.0452(4) 0.1645(3) 0.0581(15) Uani 1 1 d . U . . .
C12 C 0.2323(3) 1.1292(4) 0.1662(3) 0.0675(18) Uani 1 1 d . U . . .
H12 H 0.1855 1.1248 0.1681 0.081 Uiso 1 1 calc R U . . .
C13 C 0.2620(3) 1.2194(4) 0.1652(3) 0.0628(17) Uani 1 1 d . U . . .
H13 H 0.2352 1.2746 0.1665 0.075 Uiso 1 1 calc R U . . .
C14 C 0.3621(3) 1.3256(4) 0.1603(2) 0.0464(13) Uani 1 1 d . U . . .
C15 C 0.1426(3) 0.3449(4) 0.0172(2) 0.0469(13) Uani 1 1 d . U . . .
C16 C 0.2034(3) 0.3225(5) -0.0017(2) 0.0608(16) Uani 1 1 d . U . . .
H16 H 0.2444 0.3389 0.0174 0.073 Uiso 1 1 calc R U . . .
C17 C 0.2048(3) 0.2773(5) -0.0473(2) 0.0675(18) Uani 1 1 d . U . . .
H17 H 0.2468 0.2642 -0.0590 0.081 Uiso 1 1 calc R U . . .
C18 C 0.1455(3) 0.2499(5) -0.0771(2) 0.0551(15) Uani 1 1 d . U . . .
C19 C 0.0840(3) 0.2716(5) -0.0580(2) 0.0612(17) Uani 1 1 d . U . . .
H19 H 0.0430 0.2544 -0.0768 0.073 Uiso 1 1 calc R U . . .
C20 C 0.0830(3) 0.3178(5) -0.0121(2) 0.0643(17) Uani 1 1 d . U . . .
H20 H 0.0412 0.3314 -0.0003 0.077 Uiso 1 1 calc R U . . .
C21 C 0.1414(3) 0.4005(4) 0.06583(19) 0.0399(11) Uani 1 1 d . U . . .
C22 C 0.1483(3) 0.1192(4) -0.2250(2) 0.0489(13) Uani 1 1 d . U . . .
C23 C 0.2068(4) 0.1387(6) -0.1950(3) 0.089(2) Uani 1 1 d . U . . .
H23 H 0.2486 0.1242 -0.2066 0.107 Uiso 1 1 calc R U . . .
C24 C 0.2052(4) 0.1805(6) -0.1469(3) 0.092(2) Uani 1 1 d . U . . .
H24 H 0.2464 0.1938 -0.1273 0.110 Uiso 1 1 calc R U . . .
C25 C 0.1465(3) 0.2025(5) -0.1273(2) 0.0561(15) Uani 1 1 d . U . . .
C26 C 0.0884(4) 0.1860(6) -0.1589(3) 0.086(2) Uani 1 1 d . U . . .
H26 H 0.0466 0.2029 -0.1479 0.103 Uiso 1 1 calc R U . . .
C27 C 0.0890(3) 0.1448(6) -0.2070(3) 0.082(2) Uani 1 1 d . U . . .
H27 H 0.0479 0.1347 -0.2274 0.099 Uiso 1 1 calc R U . . .
C28 C 0.1497(3) 0.0751(4) -0.27643(19) 0.0415(12) Uani 1 1 d . U . . .
C29 C 0.3502(3) 0.6442(4) 0.2787(2) 0.0481(13) Uani 1 1 d . U . . .
C30 C 0.4094(3) 0.6569(6) 0.3110(2) 0.076(2) Uani 1 1 d . U . . .
H30 H 0.4507 0.6347 0.3012 0.091 Uiso 1 1 calc R U . . .
C31 C 0.4083(3) 0.7018(6) 0.3576(3) 0.079(2) Uani 1 1 d . U . . .
H31 H 0.4492 0.7121 0.3781 0.095 Uiso 1 1 calc R U . . .
C32 C 0.3486(3) 0.7318(5) 0.3746(2) 0.0606(16) Uani 1 1 d . U . . .
C33 C 0.2904(4) 0.7246(6) 0.3403(3) 0.086(2) Uani 1 1 d . U . . .
H33 H 0.2494 0.7496 0.3491 0.103 Uiso 1 1 calc R U . . .
C34 C 0.2921(3) 0.6808(6) 0.2930(3) 0.081(2) Uani 1 1 d . U . . .
H34 H 0.2522 0.6767 0.2707 0.097 Uiso 1 1 calc R U . . .
C35 C 0.3517(3) 0.5947(4) 0.2285(2) 0.0407(12) Uani 1 1 d . U . . .
C36 C 0.3461(3) 0.8718(4) 0.5199(2) 0.0510(14) Uani 1 1 d . U . . .
C37 C 0.4051(3) 0.8650(7) 0.4969(3) 0.090(2) Uani 1 1 d . U . . .
H37 H 0.4453 0.8909 0.5131 0.108 Uiso 1 1 calc R U . . .
C38 C 0.4055(4) 0.8204(6) 0.4501(3) 0.092(2) Uani 1 1 d . U . . .
H38 H 0.4460 0.8180 0.4349 0.110 Uiso 1 1 calc R U . . .
C39 C 0.3473(3) 0.7791(5) 0.4251(2) 0.0603(16) Uani 1 1 d . U . . .
C40 C 0.2887(3) 0.7877(5) 0.4485(2) 0.0601(16) Uani 1 1 d . U . . .
H40 H 0.2484 0.7615 0.4325 0.072 Uiso 1 1 calc R U . . .
C41 C 0.2872(3) 0.8332(5) 0.4947(2) 0.0550(15) Uani 1 1 d . U . . .
H41 H 0.2463 0.8383 0.5091 0.066 Uiso 1 1 calc R U . . .
C42 C 0.3445(3) 0.9237(4) 0.5702(2) 0.0445(12) Uani 1 1 d . U . . .
N1 N -0.0277(2) 0.5139(3) 0.12942(17) 0.0451(10) Uani 1 1 d . U . . .
N2 N -0.2400(3) 0.5059(4) 0.1258(3) 0.0785(17) Uani 1 1 d . U . . .
N3 N -0.2608(3) 0.5062(5) 0.1670(3) 0.0833(17) Uani 1 1 d . U . . .
C43 C -0.0567(3) 0.5446(5) 0.1700(2) 0.0596(16) Uani 1 1 d . U . . .
H43 H -0.0288 0.5681 0.1981 0.071 Uiso 1 1 calc R U . . .
C44 C -0.1266(3) 0.5430(5) 0.1720(3) 0.0665(17) Uani 1 1 d . U . . .
H44 H -0.1457 0.5644 0.2009 0.080 Uiso 1 1 calc R U . . .
C45 C -0.1674(3) 0.5084(5) 0.1294(3) 0.0647(16) Uani 1 1 d . U . . .
C46 C -0.1373(3) 0.4791(5) 0.0876(3) 0.0657(17) Uani 1 1 d . U . . .
H46 H -0.1641 0.4584 0.0583 0.079 Uiso 1 1 calc R U . . .
C47 C -0.0674(3) 0.4804(5) 0.0891(2) 0.0585(15) Uani 1 1 d . U . . .
H47 H -0.0473 0.4572 0.0610 0.070 Uiso 1 1 calc R U . . .
C48A C -0.4350(4) 0.4483(6) 0.1994(3) 0.056(2) Uani 0.632(12) 1 d DG U P A 1
H48A H -0.4552 0.4134 0.2240 0.068 Uiso 0.632(12) 1 calc R U P A 1
C49A C -0.3643(4) 0.4518(7) 0.2009(3) 0.066(2) Uani 0.632(12) 1 d DG U P A 1
H49A H -0.3371 0.4193 0.2266 0.079 Uiso 0.632(12) 1 calc R U P A 1
C50A C -0.3342(3) 0.5040(6) 0.1640(3) 0.0676(15) Uani 0.632(12) 1 d DG U P A 1
C51A C -0.3748(4) 0.5526(7) 0.1256(3) 0.068(3) Uani 0.632(12) 1 d DG U P A 1
H51A H -0.3547 0.5875 0.1010 0.082 Uiso 0.632(12) 1 calc R U P A 1
C52A C -0.4456(4) 0.5491(6) 0.1241(3) 0.060(2) Uani 0.632(12) 1 d DG U P A 1
H52A H -0.4727 0.5817 0.0984 0.072 Uiso 0.632(12) 1 calc R U P A 1
N4A N -0.4757(3) 0.4970(5) 0.1610(3) 0.0485(11) Uani 0.632(12) 1 d DG U P A 1
C48B C -0.4341(7) 0.4999(13) 0.2061(4) 0.063(3) Uani 0.368(12) 1 d DG U P A 2
H48B H -0.4533 0.4986 0.2368 0.075 Uiso 0.368(12) 1 calc R U P A 2
C49B C -0.3635(6) 0.5038(13) 0.2062(5) 0.069(3) Uani 0.368(12) 1 d DG U P A 2
H49B H -0.3355 0.5050 0.2371 0.083 Uiso 0.368(12) 1 calc R U P A 2
C50B C -0.3347(5) 0.5057(10) 0.1602(6) 0.0676(15) Uani 0.368(12) 1 d DG U P A 2
C51B C -0.3766(7) 0.5038(12) 0.1140(5) 0.060(3) Uani 0.368(12) 1 d DG U P A 2
H51B H -0.3573 0.5051 0.0832 0.072 Uiso 0.368(12) 1 calc R U P A 2
C52B C -0.4471(6) 0.5000(12) 0.1139(4) 0.056(3) Uani 0.368(12) 1 d DG U P A 2
H52B H -0.4751 0.4987 0.0830 0.067 Uiso 0.368(12) 1 calc R U P A 2
N4B N -0.4759(5) 0.4981(9) 0.1599(5) 0.0485(11) Uani 0.368(12) 1 d DG U P A 2
O101 O 0.1147(9) 0.7676(13) -0.0284(8) 0.361(12) Uani 0.702(13) 1 d D U P . .
C101 C 0.1053(8) 0.8294(16) 0.0064(7) 0.349(13) Uani 0.702(13) 1 d D U P . .
H101 H 0.0883 0.8084 0.0362 0.419 Uiso 0.702(13) 1 calc R U P . .
N101 N 0.1188(7) 0.9193(16) 0.0015(6) 0.352(13) Uani 0.702(13) 1 d D U P . .
C102 C 0.1454(17) 0.9579(16) -0.0437(9) 0.408(16) Uani 0.702(13) 1 d D U P . .
H10A H 0.1520 1.0266 -0.0398 0.612 Uiso 0.702(13) 1 calc R U P . .
H10B H 0.1883 0.9275 -0.0478 0.612 Uiso 0.702(13) 1 calc R U P . .
H10C H 0.1136 0.9453 -0.0732 0.612 Uiso 0.702(13) 1 calc R U P . .
C103 C 0.1082(13) 0.9892(18) 0.0407(8) 0.361(15) Uani 0.702(13) 1 d D U P . .
H10D H 0.1212 1.0524 0.0299 0.541 Uiso 0.702(13) 1 calc R U P . .
H10E H 0.0609 0.9897 0.0463 0.541 Uiso 0.702(13) 1 calc R U P . .
H10F H 0.1355 0.9720 0.0719 0.541 Uiso 0.702(13) 1 calc R U P . .
O201 O -0.0615(7) 0.6098(12) 0.2895(6) 0.148(6) Uani 0.5 1 d D U P B 1
C201 C -0.0320(8) 0.6804(12) 0.3140(6) 0.181(5) Uani 0.5 1 d D U P B 1
H201 H -0.0586 0.7287 0.3266 0.217 Uiso 0.5 1 calc R U P B 1
N201 N 0.0331(9) 0.6869(12) 0.3219(6) 0.174(4) Uani 0.5 1 d D U P B 1
C202 C 0.0796(7) 0.6171(17) 0.3044(11) 0.207(7) Uani 0.5 1 d D U P B 1
H20A H 0.1258 0.6371 0.3147 0.311 Uiso 0.5 1 calc R U P B 1
H20B H 0.0717 0.5549 0.3190 0.311 Uiso 0.5 1 calc R U P B 1
H20C H 0.0724 0.6127 0.2677 0.311 Uiso 0.5 1 calc R U P B 1
C203 C 0.0648(12) 0.7686(16) 0.3499(10) 0.219(8) Uani 0.5 1 d D U P B 1
H20D H 0.1136 0.7621 0.3523 0.329 Uiso 0.5 1 calc R U P B 1
H20E H 0.0513 0.8276 0.3323 0.329 Uiso 0.5 1 calc R U P B 1
H20F H 0.0506 0.7701 0.3837 0.329 Uiso 0.5 1 calc R U P B 1
O211 O -0.0429(10) 0.5583(12) 0.3061(8) 0.209(8) Uani 0.5 1 d D U P C 2
C211 C 0.0086(9) 0.6116(12) 0.3004(7) 0.179(5) Uani 0.5 1 d D U P C 2
H211 H 0.0359 0.5950 0.2750 0.215 Uiso 0.5 1 calc R U P C 2
N211 N 0.0245(8) 0.6859(13) 0.3273(6) 0.176(5) Uani 0.5 1 d D U P C 2
C212 C -0.0145(11) 0.7182(16) 0.3679(8) 0.195(7) Uani 0.5 1 d D U P C 2
H21A H 0.0061 0.7755 0.3835 0.292 Uiso 0.5 1 calc R U P C 2
H21B H -0.0605 0.7324 0.3538 0.292 Uiso 0.5 1 calc R U P C 2
H21C H -0.0150 0.6680 0.3931 0.292 Uiso 0.5 1 calc R U P C 2
C213 C 0.0839(11) 0.7419(18) 0.3178(10) 0.204(7) Uani 0.5 1 d D U P C 2
H21D H 0.0892 0.7955 0.3412 0.306 Uiso 0.5 1 calc R U P C 2
H21E H 0.1238 0.7015 0.3226 0.306 Uiso 0.5 1 calc R U P C 2
H21F H 0.0782 0.7658 0.2833 0.306 Uiso 0.5 1 calc R U P C 2
O301 O 0.4882(12) 0.9645(13) 0.1417(9) 0.297(9) Uani 0.563(11) 1 d D U P D 1
C301 C 0.5315(9) 0.9139(14) 0.1703(8) 0.261(7) Uani 0.563(11) 1 d D U P D 1
H301 H 0.5697 0.9444 0.1870 0.314 Uiso 0.563(11) 1 calc R U P D 1
N301 N 0.5237(9) 0.8215(15) 0.1767(6) 0.250(7) Uani 0.563(11) 1 d D U P D 1
C302 C 0.4653(13) 0.7697(14) 0.1516(13) 0.270(9) Uani 0.563(11) 1 d D U P D 1
H30A H 0.4685 0.7024 0.1610 0.405 Uiso 0.563(11) 1 calc R U P D 1
H30B H 0.4240 0.7965 0.1622 0.405 Uiso 0.563(11) 1 calc R U P D 1
H30C H 0.4645 0.7758 0.1152 0.405 Uiso 0.563(11) 1 calc R U P D 1
C303 C 0.5724(14) 0.7661(19) 0.2085(10) 0.266(9) Uani 0.563(11) 1 d D U P D 1
H30D H 0.5581 0.6996 0.2085 0.399 Uiso 0.563(11) 1 calc R U P D 1
H30E H 0.6162 0.7704 0.1957 0.399 Uiso 0.563(11) 1 calc R U P D 1
H30F H 0.5758 0.7911 0.2428 0.399 Uiso 0.563(11) 1 calc R U P D 1
O311 C 0.6191(13) 0.806(3) 0.2034(15) 0.269(10) Uani 0.437(11) 1 d D U P D 2
C311 C 0.5756(14) 0.8360(19) 0.1677(13) 0.261(7) Uani 0.437(11) 1 d D U P D 2
H311 H 0.5915 0.8677 0.1400 0.314 Uiso 0.437(11) 1 calc R U P D 2
N311 C 0.5119(15) 0.8252(15) 0.1675(10) 0.258(7) Uani 0.437(11) 1 d D U P D 2
C312 C 0.4809(15) 0.777(3) 0.2080(13) 0.269(9) Uani 0.437(11) 1 d D U P D 2
H31A H 0.4322 0.7773 0.2001 0.403 Uiso 0.437(11) 1 calc R U P D 2
H31B H 0.4972 0.7118 0.2112 0.403 Uiso 0.437(11) 1 calc R U P D 2
H31C H 0.4929 0.8112 0.2396 0.403 Uiso 0.437(11) 1 calc R U P D 2
C313 C 0.4651(18) 0.862(3) 0.1250(12) 0.273(9) Uani 0.437(11) 1 d D U P D 2
H31D H 0.4190 0.8474 0.1311 0.409 Uiso 0.437(11) 1 calc R U P D 2
H31E H 0.4707 0.9305 0.1222 0.409 Uiso 0.437(11) 1 calc R U P D 2
H31F H 0.4749 0.8311 0.0938 0.409 Uiso 0.437(11) 1 calc R U P D 2
O401 O 0.3811(14) 0.0348(19) 0.9822(12) 0.63(2) Uani 0.817(16) 1 d D U P . .
C401 C 0.3919(10) 0.118(2) 1.0032(8) 0.61(2) Uani 0.817(16) 1 d D U P . .
H401 H 0.3975 0.1219 1.0387 0.736 Uiso 0.817(16) 1 calc R U P . .
N401 N 0.3951(7) 0.1963(19) 0.9760(8) 0.60(2) Uani 0.817(16) 1 d D U P . .
C402 C 0.3872(19) 0.198(2) 0.9213(8) 0.55(2) Uani 0.817(16) 1 d D U P . .
H40A H 0.3915 0.2634 0.9096 0.820 Uiso 0.817(16) 1 calc R U P . .
H40B H 0.4219 0.1585 0.9087 0.820 Uiso 0.817(16) 1 calc R U P . .
H40C H 0.3430 0.1733 0.9088 0.820 Uiso 0.817(16) 1 calc R U P . .
C403 C 0.4073(17) 0.288(2) 1.0020(13) 0.63(2) Uani 0.817(16) 1 d D U P . .
H40D H 0.4084 0.3388 0.9772 0.941 Uiso 0.817(16) 1 calc R U P . .
H40E H 0.3713 0.3003 1.0231 0.941 Uiso 0.817(16) 1 calc R U P . .
H40F H 0.4503 0.2856 1.0231 0.941 Uiso 0.817(16) 1 calc R U P . .
loop_
_atom_site_aniso_label
_atom_site_aniso_U_11
_atom_site_aniso_U_22
_atom_site_aniso_U_33
_atom_site_aniso_U_23
_atom_site_aniso_U_13
_atom_site_aniso_U_12
Zn1 0.0261(3) 0.0365(3) 0.0274(3) -0.0017(2) 0.0049(2) -0.0041(2)
Zn2 0.0285(3) 0.0312(3) 0.0241(3) -0.00136(19) 0.00506(19) -0.0055(2)
Zn3 0.0270(3) 0.0360(3) 0.0302(3) -0.0015(2) 0.0064(2) -0.0047(2)
O1 0.053(3) 0.043(2) 0.187(5) -0.017(3) 0.039(3) -0.010(2)
O2 0.045(2) 0.0299(17) 0.048(2) -0.0008(15) 0.0057(17) -0.0027(15)
O3 0.044(2) 0.042(2) 0.147(4) 0.003(3) 0.012(3) -0.0095(18)
O4 0.046(2) 0.0318(19) 0.074(3) 0.0024(18) 0.002(2) -0.0026(16)
O5 0.041(2) 0.075(3) 0.037(2) -0.0257(18) 0.0086(17) -0.0073(18)
O6 0.045(2) 0.054(2) 0.039(2) -0.0194(17) -0.0056(17) 0.0012(17)
O7 0.045(2) 0.082(3) 0.039(2) -0.0264(19) 0.0130(18) 0.002(2)
O8 0.050(2) 0.082(3) 0.037(2) -0.023(2) 0.0070(18) 0.003(2)
O9 0.057(2) 0.050(2) 0.043(2) -0.0216(17) -0.0062(18) 0.0007(18)
O10 0.047(2) 0.080(3) 0.041(2) -0.0305(19) 0.0076(18) -0.006(2)
O11 0.042(2) 0.086(3) 0.041(2) -0.027(2) 0.0081(17) 0.000(2)
O12 0.046(2) 0.066(2) 0.036(2) -0.0173(18) 0.0150(17) -0.0007(18)
C1 0.041(3) 0.030(2) 0.072(4) -0.002(2) 0.014(3) 0.000(2)
C2 0.050(3) 0.029(3) 0.084(4) -0.002(3) 0.021(3) 0.002(2)
C3 0.049(3) 0.036(3) 0.104(5) 0.003(3) 0.026(3) -0.002(2)
C4 0.049(3) 0.030(2) 0.091(4) -0.003(3) 0.014(3) -0.006(2)
C5 0.077(4) 0.036(3) 0.128(5) -0.021(3) 0.044(4) -0.010(3)
C6 0.065(4) 0.044(3) 0.128(5) -0.018(3) 0.045(4) -0.013(3)
C7 0.041(3) 0.034(3) 0.079(4) 0.000(3) 0.007(3) -0.002(2)
C8 0.041(3) 0.033(3) 0.088(4) -0.002(3) 0.004(3) -0.005(2)
C9 0.046(3) 0.045(3) 0.146(6) 0.002(4) 0.006(4) -0.007(3)
C10 0.059(4) 0.035(3) 0.138(6) 0.001(3) 0.010(4) 0.004(3)
C11 0.050(3) 0.033(3) 0.091(4) -0.001(3) 0.005(3) -0.004(2)
C12 0.049(3) 0.039(3) 0.118(5) -0.008(3) 0.019(3) -0.002(2)
C13 0.047(3) 0.031(3) 0.113(5) -0.002(3) 0.017(3) -0.001(2)
C14 0.039(3) 0.033(3) 0.066(3) -0.001(2) -0.001(3) -0.005(2)
C15 0.044(3) 0.063(3) 0.034(3) -0.019(2) 0.005(2) -0.007(3)
C16 0.043(3) 0.089(4) 0.049(3) -0.030(3) 0.001(3) -0.003(3)
C17 0.051(3) 0.100(4) 0.052(4) -0.036(3) 0.009(3) 0.007(3)
C18 0.051(3) 0.076(4) 0.039(3) -0.024(3) 0.007(3) 0.002(3)
C19 0.045(3) 0.093(4) 0.045(3) -0.038(3) 0.001(3) -0.007(3)
C20 0.046(3) 0.095(4) 0.055(3) -0.037(3) 0.016(3) -0.007(3)
C21 0.046(3) 0.044(3) 0.030(3) -0.007(2) 0.007(2) -0.008(2)
C22 0.048(3) 0.062(3) 0.037(3) -0.017(2) 0.006(2) 0.002(3)
C23 0.072(3) 0.123(4) 0.074(3) -0.041(3) 0.017(3) 0.008(3)
C24 0.075(4) 0.126(4) 0.073(4) -0.040(3) 0.005(3) 0.009(3)
C25 0.044(3) 0.084(4) 0.040(3) -0.027(3) 0.005(2) 0.004(3)
C26 0.055(4) 0.136(6) 0.067(4) -0.052(4) 0.010(3) 0.004(4)
C27 0.055(4) 0.135(5) 0.057(4) -0.053(4) 0.007(3) 0.001(4)
C28 0.046(3) 0.047(3) 0.032(3) -0.008(2) 0.005(2) 0.002(2)
C29 0.041(3) 0.067(3) 0.037(3) -0.022(2) 0.007(2) -0.004(3)
C30 0.048(3) 0.124(5) 0.057(4) -0.043(4) 0.009(3) 0.009(3)
C31 0.049(3) 0.131(5) 0.056(4) -0.043(4) 0.002(3) 0.005(4)
C32 0.040(3) 0.097(4) 0.045(3) -0.031(3) 0.008(3) -0.002(3)
C33 0.054(4) 0.134(5) 0.068(4) -0.051(4) 0.006(3) 0.009(4)
C34 0.054(4) 0.125(5) 0.062(4) -0.047(4) -0.003(3) 0.001(4)
C35 0.042(3) 0.044(3) 0.037(3) -0.013(2) 0.007(2) -0.011(2)
C36 0.047(3) 0.073(4) 0.035(3) -0.020(3) 0.013(2) 0.001(3)
C37 0.053(4) 0.155(6) 0.066(4) -0.063(4) 0.020(3) -0.018(4)
C38 0.059(4) 0.157(6) 0.065(4) -0.057(4) 0.027(3) -0.017(4)
C39 0.045(3) 0.089(4) 0.047(3) -0.030(3) 0.008(3) -0.002(3)
C40 0.046(3) 0.083(4) 0.051(3) -0.024(3) 0.004(3) -0.005(3)
C41 0.043(3) 0.084(4) 0.041(3) -0.021(3) 0.016(3) 0.000(3)
C42 0.045(3) 0.056(3) 0.034(3) -0.008(2) 0.011(2) 0.003(2)
N1 0.028(2) 0.065(3) 0.043(2) -0.004(2) 0.0062(18) 0.0026(19)
N2 0.040(3) 0.110(4) 0.088(4) -0.009(3) 0.017(3) -0.011(3)
N3 0.035(3) 0.127(5) 0.088(4) -0.008(4) 0.009(3) -0.006(3)
C43 0.033(3) 0.090(4) 0.055(3) -0.016(3) 0.005(3) 0.003(3)
C44 0.036(3) 0.102(5) 0.065(4) -0.021(3) 0.023(3) -0.001(3)
C45 0.031(3) 0.089(4) 0.074(4) -0.007(3) 0.005(3) -0.003(3)
C46 0.034(3) 0.100(4) 0.060(4) -0.015(3) -0.004(3) -0.007(3)
C47 0.033(3) 0.087(4) 0.055(3) -0.013(3) 0.001(2) -0.001(3)
C48A 0.037(4) 0.069(5) 0.063(5) -0.002(4) 0.007(4) -0.002(4)
C49A 0.041(4) 0.081(6) 0.076(5) -0.003(5) 0.006(4) 0.002(4)
C50A 0.033(2) 0.094(4) 0.077(3) -0.003(3) 0.010(2) -0.004(3)
C51A 0.039(4) 0.089(6) 0.080(5) 0.008(5) 0.017(4) -0.011(4)
C52A 0.035(4) 0.075(5) 0.069(5) 0.005(4) 0.005(4) -0.007(4)
N4A 0.031(2) 0.058(3) 0.057(3) -0.001(2) 0.0074(19) -0.0043(19)
C48B 0.042(5) 0.079(6) 0.065(5) 0.001(6) 0.003(5) -0.006(6)
C49B 0.042(5) 0.090(7) 0.075(5) -0.005(6) 0.005(5) -0.002(6)
C50B 0.033(2) 0.094(4) 0.077(3) -0.003(3) 0.010(2) -0.004(3)
C51B 0.034(5) 0.078(6) 0.070(5) -0.005(6) 0.018(4) -0.004(6)
C52B 0.035(5) 0.067(6) 0.064(5) -0.001(5) 0.004(5) -0.008(5)
N4B 0.031(2) 0.058(3) 0.057(3) -0.001(2) 0.0074(19) -0.0043(19)
O101 0.312(18) 0.375(18) 0.39(2) -0.024(15) 0.013(16) 0.062(16)
C101 0.341(15) 0.353(16) 0.348(16) 0.011(10) 0.015(11) 0.016(11)
N101 0.351(15) 0.356(15) 0.343(16) 0.014(10) 0.013(10) 0.019(11)
C102 0.42(2) 0.40(2) 0.41(2) 0.037(17) 0.076(18) -0.006(19)
C103 0.37(2) 0.38(2) 0.30(2) 0.005(15) -0.083(17) 0.057(19)
O201 0.157(10) 0.148(11) 0.145(11) 0.007(9) 0.040(9) -0.063(9)
C201 0.172(8) 0.175(8) 0.195(8) -0.035(7) 0.019(8) -0.024(7)
N201 0.162(8) 0.166(8) 0.194(8) -0.047(7) 0.016(7) -0.027(7)
C202 0.185(12) 0.213(13) 0.225(13) -0.061(12) 0.026(12) -0.004(11)
C203 0.211(13) 0.203(12) 0.243(14) -0.074(11) 0.020(12) -0.044(11)
O211 0.196(13) 0.205(14) 0.229(14) -0.030(12) 0.031(11) -0.048(11)
C211 0.167(8) 0.178(8) 0.193(8) -0.039(7) 0.025(8) -0.021(7)
N211 0.163(8) 0.172(8) 0.193(8) -0.044(7) 0.018(7) -0.022(7)
C212 0.183(13) 0.199(13) 0.205(13) -0.045(11) 0.033(10) -0.018(12)
C213 0.189(12) 0.216(13) 0.210(14) -0.061(12) 0.042(11) -0.046(10)
O301 0.276(16) 0.236(14) 0.373(17) -0.017(13) 0.013(14) 0.016(13)
C301 0.263(10) 0.251(10) 0.271(10) -0.005(8) 0.037(8) -0.009(8)
N301 0.257(10) 0.243(9) 0.254(9) 0.004(8) 0.043(8) -0.016(8)
C302 0.269(14) 0.259(14) 0.282(15) 0.015(14) 0.027(12) -0.022(12)
C303 0.270(14) 0.261(13) 0.265(14) -0.010(12) 0.025(12) -0.018(12)
O311 0.274(15) 0.275(17) 0.261(16) 0.017(15) 0.038(13) -0.014(15)
C311 0.267(10) 0.254(10) 0.265(10) 0.006(8) 0.033(8) -0.006(9)
N311 0.266(10) 0.247(10) 0.264(10) 0.000(8) 0.039(8) -0.015(8)
C312 0.276(15) 0.267(15) 0.266(14) -0.017(13) 0.041(12) -0.030(13)
C313 0.266(13) 0.256(14) 0.296(13) -0.006(12) 0.029(11) -0.005(13)
O401 0.62(3) 0.61(2) 0.67(3) -0.025(17) 0.13(2) 0.01(2)
C401 0.60(2) 0.62(2) 0.62(2) -0.014(11) 0.079(12) 0.007(12)
N401 0.59(2) 0.61(2) 0.62(2) -0.032(11) 0.070(11) 0.007(11)
C402 0.49(3) 0.56(3) 0.60(2) -0.040(15) 0.09(2) 0.06(2)
C403 0.61(3) 0.63(2) 0.64(3) -0.059(17) 0.04(2) 0.00(2)
loop_
_atom_type_symbol
_atom_type_description
_atom_type_scat_dispersion_real
_atom_type_scat_dispersion_imag
_atom_type_scat_source
C C 0.0033 0.0016 'International Tables Vol C Tables 4.2.6.8 and 6.1.1.4'
H H 0.0000 0.0000 'International Tables Vol C Tables 4.2.6.8 and 6.1.1.4'
N N 0.0061 0.0033 'International Tables Vol C Tables 4.2.6.8 and 6.1.1.4'
O O 0.0106 0.0060 'International Tables Vol C Tables 4.2.6.8 and 6.1.1.4'
Zn Zn 0.2839 1.4301 'International Tables Vol C Tables 4.2.6.8 and 6.1.1.4'
loop_
_geom_angle_atom_site_label_1
_geom_angle_atom_site_label_2
_geom_angle_atom_site_label_3
_geom_angle
_geom_angle_site_symmetry_1
_geom_angle_site_symmetry_3
O8 Zn1 O5 115.26(18) 4_566 .
O8 Zn1 N1 97.54(17) 4_566 .
O5 Zn1 N1 96.15(16) . .
O8 Zn1 O2 106.01(15) 4_566 .
O5 Zn1 O2 99.33(15) . .
N1 Zn1 O2 142.67(16) . .
O8 Zn1 O1 101.3(2) 4_566 .
O5 Zn1 O1 142.0(2) . .
N1 Zn1 O1 88.71(17) . .
O2 Zn1 O1 58.83(14) . .
O8 Zn1 C7 105.97(19) 4_566 .
O5 Zn1 C7 123.11(19) . .
N1 Zn1 C7 115.91(18) . .
O2 Zn1 C7 29.75(16) . .
O1 Zn1 C7 29.08(16) . .
O6 Zn2 O9 179.35(15) . .
O6 Zn2 O12 87.37(15) . 4_575
O9 Zn2 O12 92.37(16) . 4_575
O6 Zn2 O7 94.52(16) . 4_566
O9 Zn2 O7 85.74(16) . 4_566
O12 Zn2 O7 178.11(16) 4_575 4_566
O6 Zn2 O4 89.43(14) . 1_545
O9 Zn2 O4 89.98(14) . 1_545
O12 Zn2 O4 91.93(15) 4_575 1_545
O7 Zn2 O4 88.18(15) 4_566 1_545
O6 Zn2 O2 88.36(13) . .
O9 Zn2 O2 92.23(14) . .
O12 Zn2 O2 88.41(14) 4_575 .
O7 Zn2 O2 91.55(14) 4_566 .
O4 Zn2 O2 177.75(14) 1_545 .
O11 Zn3 O10 118.51(19) 4_575 .
O11 Zn3 N4B 95(4) 4_575 1_655
O10 Zn3 N4B 99(4) . 1_655
O11 Zn3 N4A 95(2) 4_575 1_655
O10 Zn3 N4A 98(2) . 1_655
O11 Zn3 O3 119.9(2) 4_575 1_545
O10 Zn3 O3 119.2(2) . 1_545
N4B Zn3 O3 92(4) 1_655 1_545
N4A Zn3 O3 92(2) 1_655 1_545
O11 Zn3 O4 100.18(15) 4_575 1_545
O10 Zn3 O4 95.36(16) . 1_545
N4B Zn3 O4 152(4) 1_655 1_545
N4A Zn3 O4 151(2) 1_655 1_545
O3 Zn3 O4 59.56(14) 1_545 1_545
O11 Zn3 C14 112.67(18) 4_575 1_545
O10 Zn3 C14 109.65(19) . 1_545
N4B Zn3 C14 122(4) 1_655 1_545
N4A Zn3 C14 122(2) 1_655 1_545
O3 Zn3 C14 29.97(16) 1_545 1_545
O4 Zn3 C14 29.59(15) 1_545 1_545
C7 O1 Zn1 87.6(3) . .
C7 O2 Zn1 95.2(3) . .
C7 O2 Zn2 142.6(4) . .
Zn1 O2 Zn2 103.03(14) . .
C14 O3 Zn3 92.5(3) . 1_565
C14 O4 Zn2 164.4(4) . 1_565
C14 O4 Zn3 89.5(3) . 1_565
Zn2 O4 Zn3 104.86(15) 1_565 1_565
C21 O5 Zn1 120.3(3) . .
C21 O6 Zn2 142.4(3) . .
C28 O7 Zn2 140.4(4) . 4_565
C28 O8 Zn1 125.5(3) . 4_565
C35 O9 Zn2 139.0(3) . .
C35 O10 Zn3 124.3(3) . .
C42 O11 Zn3 127.1(3) . 4_576
C42 O12 Zn2 140.1(4) . 4_576
C2 C1 C6 118.4(5) . .
C2 C1 C7 121.0(5) . .
C6 C1 C7 120.5(5) . .
C1 C2 C3 120.8(5) . .
C1 C2 H2 119.6 . .
C3 C2 H2 119.6 . .
C4 C3 C2 120.8(6) . .
C4 C3 H3 119.6 . .
C2 C3 H3 119.6 . .
C5 C4 C3 117.8(5) . .
C5 C4 C11 121.8(5) . .
C3 C4 C11 120.4(6) . .
C4 C5 C6 121.6(6) . .
C4 C5 H5 119.2 . .
C6 C5 H5 119.2 . .
C1 C6 C5 120.5(6) . .
C1 C6 H6 119.7 . .
C5 C6 H6 119.7 . .
O1 C7 O2 118.4(5) . .
O1 C7 C1 120.6(5) . .
O2 C7 C1 121.0(5) . .
O1 C7 Zn1 63.3(3) . .
O2 C7 Zn1 55.0(3) . .
C1 C7 Zn1 175.8(5) . .
C13 C8 C9 119.1(5) . .
C13 C8 C14 120.9(5) . .
C9 C8 C14 120.0(5) . .
C8 C9 C10 120.0(6) . .
C8 C9 H9 120.0 . .
C10 C9 H9 120.0 . .
C11 C10 C9 121.6(6) . .
C11 C10 H10 119.2 . .
C9 C10 H10 119.2 . .
C10 C11 C12 116.8(5) . .
C10 C11 C4 121.9(5) . .
C12 C11 C4 121.3(6) . .
C13 C12 C11 121.9(6) . .
C13 C12 H12 119.0 . .
C11 C12 H12 119.0 . .
C8 C13 C12 120.6(6) . .
C8 C13 H13 119.7 . .
C12 C13 H13 119.7 . .
O4 C14 O3 118.4(5) . .
O4 C14 C8 121.0(5) . .
O3 C14 C8 120.5(5) . .
O4 C14 Zn3 60.9(3) . 1_565
O3 C14 Zn3 57.5(3) . 1_565
C8 C14 Zn3 178.0(4) . 1_565
C16 C15 C20 117.2(5) . .
C16 C15 C21 121.1(5) . .
C20 C15 C21 121.7(5) . .
C17 C16 C15 121.5(6) . .
C17 C16 H16 119.3 . .
C15 C16 H16 119.3 . .
C16 C17 C18 121.9(6) . .
C16 C17 H17 119.1 . .
C18 C17 H17 119.1 . .
C17 C18 C19 116.8(5) . .
C17 C18 C25 122.2(5) . .
C19 C18 C25 120.9(5) . .
C20 C19 C18 121.0(5) . .
C20 C19 H19 119.5 . .
C18 C19 H19 119.5 . .
C19 C20 C15 121.7(6) . .
C19 C20 H20 119.2 . .
C15 C20 H20 119.2 . .
O6 C21 O5 125.6(5) . .
O6 C21 C15 118.1(5) . .
O5 C21 C15 116.3(5) . .
C23 C22 C27 117.3(6) . .
C23 C22 C28 120.9(6) . .
C27 C22 C28 121.8(5) . .
C22 C23 C24 120.7(7) . .
C22 C23 H23 119.7 . .
C24 C23 H23 119.7 . .
C25 C24 C23 122.9(7) . .
C25 C24 H24 118.6 . .
C23 C24 H24 118.6 . .
C24 C25 C26 115.4(6) . .
C24 C25 C18 122.4(6) . .
C26 C25 C18 121.9(6) . .
C25 C26 C27 122.3(6) . .
C25 C26 H26 118.8 . .
C27 C26 H26 118.8 . .
C22 C27 C26 121.2(6) . .
C22 C27 H27 119.4 . .
C26 C27 H27 119.4 . .
O7 C28 O8 125.6(5) . .
O7 C28 C22 118.8(5) . .
O8 C28 C22 115.6(5) . .
C34 C29 C30 118.0(5) . .
C34 C29 C35 121.4(5) . .
C30 C29 C35 120.5(5) . .
C31 C30 C29 120.8(6) . .
C31 C30 H30 119.6 . .
C29 C30 H30 119.6 . .
C32 C31 C30 121.7(6) . .
C32 C31 H31 119.2 . .
C30 C31 H31 119.2 . .
C31 C32 C33 116.6(6) . .
C31 C32 C39 121.7(6) . .
C33 C32 C39 121.5(6) . .
C32 C33 C34 121.1(6) . .
C32 C33 H33 119.4 . .
C34 C33 H33 119.4 . .
C29 C34 C33 121.4(6) . .
C29 C34 H34 119.3 . .
C33 C34 H34 119.3 . .
O9 C35 O10 125.3(5) . .
O9 C35 C29 117.4(5) . .
O10 C35 C29 117.3(5) . .
C37 C36 C41 118.1(5) . .
C37 C36 C42 121.3(5) . .
C41 C36 C42 120.6(5) . .
C36 C37 C38 120.9(6) . .
C36 C37 H37 119.6 . .
C38 C37 H37 119.6 . .
C37 C38 C39 121.6(6) . .
C37 C38 H38 119.2 . .
C39 C38 H38 119.2 . .
C40 C39 C38 116.5(5) . .
C40 C39 C32 122.5(5) . .
C38 C39 C32 120.9(6) . .
C41 C40 C39 122.5(6) . .
C41 C40 H40 118.8 . .
C39 C40 H40 118.8 . .
C40 C41 C36 120.4(5) . .
C40 C41 H41 119.8 . .
C36 C41 H41 119.8 . .
O12 C42 O11 127.0(5) . .
O12 C42 C36 117.7(5) . .
O11 C42 C36 115.3(5) . .
C47 N1 C43 118.8(5) . .
C47 N1 Zn1 124.0(4) . .
C43 N1 Zn1 117.1(4) . .
N3 N2 C45 112.3(6) . .
N2 N3 C50A 112.9(7) . .
N2 N3 C50B 109.0(8) . .
N1 C43 C44 122.8(6) . .
N1 C43 H43 118.6 . .
C44 C43 H43 118.6 . .
C43 C44 C45 117.6(6) . .
C43 C44 H44 121.2 . .
C45 C44 H44 121.2 . .
C46 C45 C44 119.2(5) . .
C46 C45 N2 117.5(6) . .
C44 C45 N2 123.3(6) . .
C45 C46 C47 119.8(6) . .
C45 C46 H46 120.1 . .
C47 C46 H46 120.1 . .
N1 C47 C46 121.8(6) . .
N1 C47 H47 119.1 . .
C46 C47 H47 119.1 . .
C49A C48A N4A 120.0 . .
C49A C48A H48A 120.0 . .
N4A C48A H48A 120.0 . .
C50A C49A C48A 120.0 . .
C50A C49A H49A 120.0 . .
C48A C49A H49A 120.0 . .
C49A C50A C51A 120.0 . .
C49A C50A N3 118.3(6) . .
C51A C50A N3 121.7(6) . .
C50A C51A C52A 120.0 . .
C50A C51A H51A 120.0 . .
C52A C51A H51A 120.0 . .
N4A C52A C51A 120.0 . .
N4A C52A H52A 120.0 . .
C51A C52A H52A 120.0 . .
C52A N4A C48A 120.0 . .
C52A N4A Zn3 120.5(4) . 1_455
C48A N4A Zn3 119.4(4) . 1_455
C49B C48B N4B 120.0 . .
C49B C48B H48B 120.0 . .
N4B C48B H48B 120.0 . .
C48B C49B C50B 120.0 . .
C48B C49B H49B 120.0 . .
C50B C49B H49B 120.0 . .
C51B C50B C49B 120.0 . .
C51B C50B N3 126.9(10) . .
C49B C50B N3 113.1(10) . .
C50B C51B C52B 120.0 . .
C50B C51B H51B 120.0 . .
C52B C51B H51B 120.0 . .
N4B C52B C51B 120.0 . .
N4B C52B H52B 120.0 . .
C51B C52B H52B 120.0 . .
C52B N4B C48B 120.0 . .
C52B N4B Zn3 118.4(7) . 1_455
C48B N4B Zn3 121.5(7) . 1_455
N101 C101 O101 121.8(10) . .
N101 C101 H101 119.1 . .
O101 C101 H101 119.1 . .
C101 N101 C103 121.9(11) . .
C101 N101 C102 122.5(10) . .
C103 N101 C102 115.6(11) . .
N101 C102 H10A 109.5 . .
N101 C102 H10B 109.5 . .
H10A C102 H10B 109.5 . .
N101 C102 H10C 109.5 . .
H10A C102 H10C 109.5 . .
H10B C102 H10C 109.5 . .
N101 C103 H10D 109.5 . .
N101 C103 H10E 109.5 . .
H10D C103 H10E 109.5 . .
N101 C103 H10F 109.5 . .
H10D C103 H10F 109.5 . .
H10E C103 H10F 109.5 . .
O201 C201 N201 122.0(10) . .
O201 C201 H201 119.0 . .
N201 C201 H201 119.0 . .
C201 N201 C202 124.2(9) . .
C201 N201 C203 120.3(10) . .
C202 N201 C203 115.4(11) . .
N201 C202 H20A 109.5 . .
N201 C202 H20B 109.5 . .
H20A C202 H20B 109.5 . .
N201 C202 H20C 109.5 . .
H20A C202 H20C 109.5 . .
H20B C202 H20C 109.5 . .
N201 C203 H20D 109.5 . .
N201 C203 H20E 109.5 . .
H20D C203 H20E 109.5 . .
N201 C203 H20F 109.5 . .
H20D C203 H20F 109.5 . .
H20E C203 H20F 109.5 . .
N211 C211 O211 123.6(10) . .
N211 C211 H211 118.2 . .
O211 C211 H211 118.2 . .
C211 N211 C213 119.5(10) . .
C211 N211 C212 122.7(10) . .
C213 N211 C212 117.8(11) . .
N211 C212 H21A 109.5 . .
N211 C212 H21B 109.5 . .
H21A C212 H21B 109.5 . .
N211 C212 H21C 109.5 . .
H21A C212 H21C 109.5 . .
H21B C212 H21C 109.5 . .
N211 C213 H21D 109.5 . .
N211 C213 H21E 109.5 . .
H21D C213 H21E 109.5 . .
N211 C213 H21F 109.5 . .
H21D C213 H21F 109.5 . .
H21E C213 H21F 109.5 . .
O301 C301 N301 122.1(10) . .
O301 C301 H301 119.0 . .
N301 C301 H301 119.0 . .
C301 N301 C303 121.5(10) . .
C301 N301 C302 121.6(10) . .
C303 N301 C302 116.9(11) . .
N301 C302 H30A 109.5 . .
N301 C302 H30B 109.5 . .
H30A C302 H30B 109.5 . .
N301 C302 H30C 109.5 . .
H30A C302 H30C 109.5 . .
H30B C302 H30C 109.5 . .
N301 C303 H30D 109.5 . .
N301 C303 H30E 109.5 . .
H30D C303 H30E 109.5 . .
N301 C303 H30F 109.5 . .
H30D C303 H30F 109.5 . .
H30E C303 H30F 109.5 . .
N311 C311 O311 123.7(10) . .
N311 C311 H311 118.2 . .
O311 C311 H311 118.2 . .
C311 N311 C312 123.4(10) . .
C311 N311 C313 120.4(11) . .
C312 N311 C313 116.1(12) . .
N311 C312 H31A 109.5 . .
N311 C312 H31B 109.5 . .
H31A C312 H31B 109.5 . .
N311 C312 H31C 109.5 . .
H31A C312 H31C 109.5 . .
H31B C312 H31C 109.5 . .
N311 C313 H31D 109.5 . .
N311 C313 H31E 109.5 . .
H31D C313 H31E 109.5 . .
N311 C313 H31F 109.5 . .
H31D C313 H31F 109.5 . .
H31E C313 H31F 109.5 . .
O401 C401 N401 121.5(10) . .
O401 C401 H401 119.2 . .
N401 C401 H401 119.2 . .
C401 N401 C402 123.9(10) . .
C401 N401 C403 119.0(10) . .
C402 N401 C403 117.1(12) . .
N401 C402 H40A 109.5 . .
N401 C402 H40B 109.5 . .
H40A C402 H40B 109.5 . .
N401 C402 H40C 109.5 . .
H40A C402 H40C 109.5 . .
H40B C402 H40C 109.5 . .
N401 C403 H40D 109.5 . .
N401 C403 H40E 109.5 . .
H40D C403 H40E 109.5 . .
N401 C403 H40F 109.5 . .
H40D C403 H40F 109.5 . .
H40E C403 H40F 109.5 . .
loop_
_geom_bond_atom_site_label_1
_geom_bond_atom_site_label_2
_geom_bond_distance
_geom_bond_site_symmetry_2
Zn1 O8 1.931(4) 4_566
Zn1 O5 1.950(3) .
Zn1 N1 2.046(4) .
Zn1 O2 2.073(3) .
Zn1 O1 2.253(4) .
Zn1 C7 2.519(5) .
Zn2 O6 2.048(3) .
Zn2 O9 2.054(3) .
Zn2 O12 2.060(3) 4_575
Zn2 O7 2.065(3) 4_566
Zn2 O4 2.124(4) 1_545
Zn2 O2 2.169(3) .
Zn3 O11 1.940(3) 4_575
Zn3 O10 1.942(3) .
Zn3 N4B 2.047(16) 1_655
Zn3 N4A 2.048(10) 1_655
Zn3 O3 2.109(4) 1_545
Zn3 O4 2.181(4) 1_545
Zn3 C14 2.496(5) 1_545
O1 C7 1.226(7) .
O2 C7 1.255(6) .
O3 C14 1.248(6) .
O3 Zn3 2.109(4) 1_565
O4 C14 1.233(6) .
O4 Zn2 2.124(4) 1_565
O4 Zn3 2.181(4) 1_565
O5 C21 1.261(6) .
O6 C21 1.240(6) .
O7 C28 1.231(6) .
O7 Zn2 2.065(3) 4_565
O8 C28 1.263(6) .
O8 Zn1 1.931(4) 4_565
O9 C35 1.244(6) .
O10 C35 1.252(6) .
O11 C42 1.260(6) .
O11 Zn3 1.940(3) 4_576
O12 C42 1.229(6) .
O12 Zn2 2.060(3) 4_576
C1 C2 1.361(7) .
C1 C6 1.373(8) .
C1 C7 1.485(7) .
C2 C3 1.385(7) .
C2 H2 0.9300 .
C3 C4 1.376(8) .
C3 H3 0.9300 .
C4 C5 1.361(8) .
C4 C11 1.489(7) .
C5 C6 1.376(8) .
C5 H5 0.9300 .
C6 H6 0.9300 .
C8 C13 1.350(8) .
C8 C9 1.379(8) .
C8 C14 1.489(7) .
C9 C10 1.385(8) .
C9 H9 0.9300 .
C10 C11 1.372(8) .
C10 H10 0.9300 .
C11 C12 1.379(8) .
C12 C13 1.376(8) .
C12 H12 0.9300 .
C13 H13 0.9300 .
C14 Zn3 2.496(5) 1_565
C15 C16 1.380(7) .
C15 C20 1.383(8) .
C15 C21 1.493(7) .
C16 C17 1.356(7) .
C16 H16 0.9300 .
C17 C18 1.384(8) .
C17 H17 0.9300 .
C18 C19 1.393(8) .
C18 C25 1.476(7) .
C19 C20 1.365(7) .
C19 H19 0.9300 .
C20 H20 0.9300 .
C22 C23 1.350(9) .
C22 C27 1.351(8) .
C22 C28 1.486(7) .
C23 C24 1.393(9) .
C23 H23 0.9300 .
C24 C25 1.349(9) .
C24 H24 0.9300 .
C25 C26 1.358(8) .
C26 C27 1.388(8) .
C26 H26 0.9300 .
C27 H27 0.9300 .
C29 C34 1.340(8) .
C29 C30 1.378(8) .
C29 C35 1.488(7) .
C30 C31 1.375(8) .
C30 H30 0.9300 .
C31 C32 1.365(8) .
C31 H31 0.9300 .
C32 C33 1.383(8) .
C32 C39 1.482(8) .
C33 C34 1.386(8) .
C33 H33 0.9300 .
C34 H34 0.9300 .
C36 C37 1.369(8) .
C36 C41 1.378(7) .
C36 C42 1.506(7) .
C37 C38 1.377(8) .
C37 H37 0.9300 .
C38 C39 1.380(8) .
C38 H38 0.9300 .
C39 C40 1.372(8) .
C40 C41 1.368(7) .
C40 H40 0.9300 .
C41 H41 0.9300 .
N1 C47 1.330(7) .
N1 C43 1.333(7) .
N2 N3 1.198(8) .
N2 C45 1.423(7) .
N3 C50A 1.439(8) .
N3 C50B 1.448(11) .
C43 C44 1.383(7) .
C43 H43 0.9300 .
C44 C45 1.391(9) .
C44 H44 0.9300 .
C45 C46 1.362(9) .
C46 C47 1.373(8) .
C46 H46 0.9300 .
C47 H47 0.9300 .
C48A C49A 1.3900 .
C48A N4A 1.3900 .
C48A H48A 0.9300 .
C49A C50A 1.3900 .
C49A H49A 0.9300 .
C50A C51A 1.3900 .
C51A C52A 1.3900 .
C51A H51A 0.9300 .
C52A N4A 1.3900 .
C52A H52A 0.9300 .
N4A Zn3 2.048(5) 1_455
C48B C49B 1.3900 .
C48B N4B 1.3900 .
C48B H48B 0.9300 .
C49B C50B 1.3900 .
C49B H49B 0.9300 .
C50B C51B 1.3900 .
C51B C52B 1.3900 .
C51B H51B 0.9300 .
C52B N4B 1.3900 .
C52B H52B 0.9300 .
N4B Zn3 2.047(10) 1_455
O101 C101 1.280(7) .
C101 N101 1.277(17) .
C101 H101 0.9300 .
N101 C103 1.442(10) .
N101 C102 1.450(10) .
C102 H10A 0.9600 .
C102 H10B 0.9600 .
C102 H10C 0.9600 .
C103 H10D 0.9600 .
C103 H10E 0.9600 .
C103 H10F 0.9600 .
O201 C201 1.272(7) .
C201 N201 1.280(16) .
C201 H201 0.9300 .
N201 C202 1.438(10) .
N201 C203 1.449(10) .
C202 H20A 0.9600 .
C202 H20B 0.9600 .
C202 H20C 0.9600 .
C203 H20D 0.9600 .
C203 H20E 0.9600 .
C203 H20F 0.9600 .
O211 C211 1.274(7) .
C211 N211 1.266(16) .
C211 H211 0.9300 .
N211 C213 1.445(10) .
N211 C212 1.449(10) .
C212 H21A 0.9600 .
C212 H21B 0.9600 .
C212 H21C 0.9600 .
C213 H21D 0.9600 .
C213 H21E 0.9600 .
C213 H21F 0.9600 .
O301 C301 1.279(7) .
C301 N301 1.296(17) .
C301 H301 0.9300 .
N301 C303 1.424(10) .
N301 C302 1.451(10) .
C302 H30A 0.9600 .
C302 H30B 0.9600 .
C302 H30C 0.9600 .
C303 H30D 0.9600 .
C303 H30E 0.9600 .
C303 H30F 0.9600 .
O311 C311 1.269(7) .
C311 N311 1.263(18) .
C311 H311 0.9300 .
N311 C312 1.441(10) .
N311 C313 1.457(10) .
C312 H31A 0.9600 .
C312 H31B 0.9600 .
C312 H31C 0.9600 .
C313 H31D 0.9600 .
C313 H31E 0.9600 .
C313 H31F 0.9600 .
O401 C401 1.277(7) .
C401 N401 1.305(18) .
C401 H401 0.9300 .
N401 C402 1.429(10) .
N401 C403 1.444(10) .
C402 H40A 0.9600 .
C402 H40B 0.9600 .
C402 H40C 0.9600 .
C403 H40D 0.9600 .
C403 H40E 0.9600 .
C403 H40F 0.9600 .
loop_
_geom_torsion_atom_site_label_1
_geom_torsion_atom_site_label_2
_geom_torsion_atom_site_label_3
_geom_torsion_atom_site_label_4
_geom_torsion
_geom_torsion_site_symmetry_1
_geom_torsion_site_symmetry_4
C6 C1 C2 C3 -0.6(10) . .
C7 C1 C2 C3 176.6(6) . .
C1 C2 C3 C4 -1.6(10) . .
C2 C3 C4 C5 2.6(11) . .
C2 C3 C4 C11 -175.6(6) . .
C3 C4 C5 C6 -1.5(12) . .
C11 C4 C5 C6 176.6(7) . .
C2 C1 C6 C5 1.7(11) . .
C7 C1 C6 C5 -175.5(7) . .
C4 C5 C6 C1 -0.6(13) . .
Zn1 O1 C7 O2 -0.9(6) . .
Zn1 O1 C7 C1 178.3(5) . .
Zn1 O2 C7 O1 1.0(7) . .
Zn2 O2 C7 O1 -118.4(6) . .
Zn1 O2 C7 C1 -178.2(5) . .
Zn2 O2 C7 C1 62.3(9) . .
Zn2 O2 C7 Zn1 -119.5(6) . .
C2 C1 C7 O1 -171.0(7) . .
C6 C1 C7 O1 6.1(10) . .
C2 C1 C7 O2 8.3(9) . .
C6 C1 C7 O2 -174.7(6) . .
C13 C8 C9 C10 2.6(12) . .
C14 C8 C9 C10 -178.8(7) . .
C8 C9 C10 C11 -0.4(13) . .
C9 C10 C11 C12 -1.9(12) . .
C9 C10 C11 C4 178.2(7) . .
C5 C4 C11 C10 154.4(8) . .
C3 C4 C11 C10 -27.4(11) . .
C5 C4 C11 C12 -25.4(11) . .
C3 C4 C11 C12 152.7(7) . .
C10 C11 C12 C13 2.0(11) . .
C4 C11 C12 C13 -178.1(7) . .
C9 C8 C13 C12 -2.5(11) . .
C14 C8 C13 C12 178.9(7) . .
C11 C12 C13 C8 0.2(12) . .
Zn2 O4 C14 O3 158.4(12) 1_565 .
Zn3 O4 C14 O3 0.6(6) 1_565 .
Zn2 O4 C14 C8 -22.7(19) 1_565 .
Zn3 O4 C14 C8 179.6(5) 1_565 .
Zn2 O4 C14 Zn3 157.8(16) 1_565 1_565
Zn3 O3 C14 O4 -0.6(6) 1_565 .
Zn3 O3 C14 C8 -179.6(5) 1_565 .
C13 C8 C14 O4 -4.3(10) . .
C9 C8 C14 O4 177.1(7) . .
C13 C8 C14 O3 174.6(7) . .
C9 C8 C14 O3 -4.0(10) . .
C20 C15 C16 C17 1.0(10) . .
C21 C15 C16 C17 -175.9(6) . .
C15 C16 C17 C18 -1.0(11) . .
C16 C17 C18 C19 0.4(11) . .
C16 C17 C18 C25 178.7(7) . .
C17 C18 C19 C20 0.1(11) . .
C25 C18 C19 C20 -178.2(7) . .
C18 C19 C20 C15 0.0(11) . .
C16 C15 C20 C19 -0.5(11) . .
C21 C15 C20 C19 176.4(6) . .
Zn2 O6 C21 O5 -27.3(9) . .
Zn2 O6 C21 C15 151.1(4) . .
Zn1 O5 C21 O6 0.2(8) . .
Zn1 O5 C21 C15 -178.1(4) . .
C16 C15 C21 O6 -13.2(8) . .
C20 C15 C21 O6 170.0(6) . .
C16 C15 C21 O5 165.3(6) . .
C20 C15 C21 O5 -11.5(8) . .
C27 C22 C23 C24 2.3(12) . .
C28 C22 C23 C24 179.7(7) . .
C22 C23 C24 C25 0.8(14) . .
C23 C24 C25 C26 -3.4(13) . .
C23 C24 C25 C18 -177.8(8) . .
C17 C18 C25 C24 1.8(11) . .
C19 C18 C25 C24 180.0(7) . .
C17 C18 C25 C26 -172.2(8) . .
C19 C18 C25 C26 6.0(11) . .
C24 C25 C26 C27 3.1(13) . .
C18 C25 C26 C27 177.5(7) . .
C23 C22 C27 C26 -2.6(12) . .
C28 C22 C27 C26 -180.0(7) . .
C25 C26 C27 C22 -0.2(14) . .
Zn2 O7 C28 O8 -2.5(10) 4_565 .
Zn2 O7 C28 C22 176.9(4) 4_565 .
Zn1 O8 C28 O7 6.5(8) 4_565 .
Zn1 O8 C28 C22 -172.9(4) 4_565 .
C23 C22 C28 O7 -1.7(9) . .
C27 C22 C28 O7 175.6(7) . .
C23 C22 C28 O8 177.7(6) . .
C27 C22 C28 O8 -5.0(9) . .
C34 C29 C30 C31 2.9(12) . .
C35 C29 C30 C31 -179.5(7) . .
C29 C30 C31 C32 2.8(13) . .
C30 C31 C32 C33 -7.0(12) . .
C30 C31 C32 C39 179.2(7) . .
C31 C32 C33 C34 5.8(12) . .
C39 C32 C33 C34 179.6(7) . .
C30 C29 C34 C33 -4.2(12) . .
C35 C29 C34 C33 178.3(7) . .
C32 C33 C34 C29 -0.3(13) . .
Zn2 O9 C35 O10 36.7(9) . .
Zn2 O9 C35 C29 -144.5(5) . .
Zn3 O10 C35 O9 -4.4(8) . .
Zn3 O10 C35 C29 176.8(4) . .
C34 C29 C35 O9 3.8(9) . .
C30 C29 C35 O9 -173.7(6) . .
C34 C29 C35 O10 -177.3(6) . .
C30 C29 C35 O10 5.2(9) . .
C41 C36 C37 C38 -0.5(12) . .
C42 C36 C37 C38 -177.7(7) . .
C36 C37 C38 C39 -1.4(14) . .
C37 C38 C39 C40 2.0(13) . .
C37 C38 C39 C32 179.7(8) . .
C31 C32 C39 C40 -163.1(7) . .
C33 C32 C39 C40 23.4(12) . .
C31 C32 C39 C38 19.4(12) . .
C33 C32 C39 C38 -154.1(8) . .
C38 C39 C40 C41 -0.9(11) . .
C32 C39 C40 C41 -178.5(7) . .
C39 C40 C41 C36 -0.9(11) . .
C37 C36 C41 C40 1.6(10) . .
C42 C36 C41 C40 178.8(6) . .
Zn2 O12 C42 O11 5.4(10) 4_576 .
Zn2 O12 C42 C36 -176.4(4) 4_576 .
Zn3 O11 C42 O12 0.8(9) 4_576 .
Zn3 O11 C42 C36 -177.4(4) 4_576 .
C37 C36 C42 O12 174.1(7) . .
C41 C36 C42 O12 -3.1(9) . .
C37 C36 C42 O11 -7.6(9) . .
C41 C36 C42 O11 175.3(6) . .
C45 N2 N3 C50A 179.8(6) . .
C45 N2 N3 C50B 178.7(8) . .
C47 N1 C43 C44 0.1(10) . .
Zn1 N1 C43 C44 -175.8(5) . .
N1 C43 C44 C45 -0.6(11) . .
C43 C44 C45 C46 -0.9(11) . .
C43 C44 C45 N2 -177.9(7) . .
N3 N2 C45 C46 160.5(7) . .
N3 N2 C45 C44 -22.5(10) . .
C44 C45 C46 C47 2.7(11) . .
N2 C45 C46 C47 179.9(6) . .
C43 N1 C47 C46 1.8(9) . .
Zn1 N1 C47 C46 177.3(5) . .
C45 C46 C47 N1 -3.2(11) . .
N4A C48A C49A C50A 0.0 . .
C48A C49A C50A C51A 0.0 . .
C48A C49A C50A N3 179.8(7) . .
N2 N3 C50A C49A 144.1(7) . .
N2 N3 C50A C51A -36.2(9) . .
C49A C50A C51A C52A 0.0 . .
N3 C50A C51A C52A -179.8(7) . .
C50A C51A C52A N4A 0.0 . .
C51A C52A N4A C48A 0.0 . .
C51A C52A N4A Zn3 -177.3(5) . 1_455
C49A C48A N4A C52A 0.0 . .
C49A C48A N4A Zn3 177.4(5) . 1_455
N4B C48B C49B C50B 0.0 . .
C48B C49B C50B C51B 0.0 . .
C48B C49B C50B N3 -177.9(11) . .
N2 N3 C50B C51B 0.9(14) . .
N2 N3 C50B C49B 178.6(9) . .
C49B C50B C51B C52B 0.0 . .
N3 C50B C51B C52B 177.6(13) . .
C50B C51B C52B N4B 0.0 . .
C51B C52B N4B C48B 0.0 . .
C51B C52B N4B Zn3 -177.2(9) . 1_455
C49B C48B N4B C52B 0.0 . .
C49B C48B N4B Zn3 177.1(9) . 1_455
O101 C101 N101 C103 179.9(3) . .
O101 C101 N101 C102 0.1(3) . .
O201 C201 N201 C202 0.0(4) . .
O201 C201 N201 C203 179.9(3) . .
O211 C211 N211 C213 -179.9(3) . .
O211 C211 N211 C212 -0.1(4) . .
O301 C301 N301 C303 179.9(3) . .
O301 C301 N301 C302 0.0(3) . .
O311 C311 N311 C312 0.0(4) . .
O311 C311 N311 C313 -180.0(4) . .
O401 C401 N401 C402 0.0(4) . .
O401 C401 N401 C403 179.9(3) . .
