#------------------------------------------------------------------------------
#$Date: 2022-05-09 03:44:03 +0300 (Mon, 09 May 2022) $
#$Revision: 275240 $
#$URL: file:///home/coder/svn-repositories/cod/cif/7/11/91/7119157.cif $
#------------------------------------------------------------------------------
#
# This file is available in the Crystallography Open Database (COD),
# http://www.crystallography.net/
#
# All data on this site have been placed in the public domain by the
# contributors.
#
data_7119157
loop_
_publ_author_name
'Wood, Peter A.'
'Sarjeant, Amy A.'
'Yakovenko, Andrey A.'
'Ward, Suzanna C.'
'Groom, Colin R.'
_publ_section_title
;
 Capturing neon -- the first experimental structure of neon
 trapped within a metal-organic environment
;
_journal_coden_ASTM              CHCOFS
_journal_issue                   65
_journal_name_full
'Chemical Communications (Cambridge, United Kingdom)'
_journal_page_first              10048
_journal_page_last               10051
_journal_paper_doi               10.1039/c6cc04808k
_journal_volume                  52
_journal_year                    2016
_chemical_absolute_configuration .
_chemical_formula_moiety         '[Cu2(C17H14N10O4) 0.632(Ne)]n'
_chemical_formula_sum            'C8.5 H7 Cu N5 Ne0.316 O2'
_chemical_formula_weight         281.1
_space_group_IT_number           15
_symmetry_cell_setting           monoclinic
_symmetry_Int_Tables_number      15
_symmetry_space_group_name_Hall  '-C 2yc'
_symmetry_space_group_name_H-M   'C 1 2/c 1'
_cell_angle_alpha                90
_cell_angle_beta                 116.369(3)
_cell_angle_gamma                90
_cell_formula_units_Z            8
_cell_length_a                   28.6841(11)
_cell_length_b                   9.2655(5)
_cell_length_c                   9.3005(4)
_cell_measurement_temperature    200
_cell_volume                     2214.63(18)
_computing_cell_refinement       'Jana 2006 (Petricek, 2006)'
_computing_data_reduction        'GSASII(Toby & Von Dreele, 2013)'
_computing_molecular_graphics    'Mercury (version, 2015)'
_computing_publication_material  'Jana 2006 (Petricek, 2006)'
_computing_structure_refinement  'Jana 2006 (Petricek, 2006)'
_diffrn_ambient_temperature      200
_diffrn_detector                 'Flat Panel Detector'
_diffrn_detector_type            'Perkin-Elmer amorphous-Si'
_diffrn_measurement_device       '17-BM-B beamline'
_diffrn_radiation_monochromator  'PSL DCM Si(111)'
_diffrn_radiation_probe          x-ray
_diffrn_radiation_type           synchrotron
_diffrn_radiation_wavelength     0.72768
_diffrn_source                   synchrotron
_diffrn_source_type              synchrotron
_exptl_absorpt_coefficient_mu    2.116
_exptl_crystal_density_diffrn    1.6862
_exptl_crystal_F_000             1129
_pd_char_colour                  blue
_pd_char_particle_morphology     'small crystalline powder'
_pd_instr_location
; 
17-BM-B line diffractometer, APS, Argonne National Lab (USA)
;
_pd_meas_2theta_range_inc        0.008
_pd_meas_2theta_range_max        21.992
_pd_meas_2theta_range_min        1.000
_pd_meas_number_of_points        2500
_pd_prep_cool_rate               0.0
_pd_prep_pressure                10000
_pd_prep_temperature             200(2)
_pd_proc_2theta_range_inc        0.008
_pd_proc_2theta_range_max        21.798
_pd_proc_2theta_range_min        2.008
_pd_proc_ls_background_function  '10 Chebyshev polynoms'
_pd_proc_ls_pref_orient_corr     none
_pd_proc_ls_profile_function     Pseudo-Voigt
_pd_proc_ls_prof_R_factor        0.0333
_pd_proc_ls_prof_wR_expected     0.0101
_pd_proc_ls_prof_wR_factor       0.0428
_pd_proc_wavelength              0.72768
_pd_spec_mounting                'capton capillary with Ne exchange gas'
_pd_spec_mount_mode              transmission
_pd_spec_shape                   cylinder
_pd_spec_size_axial              10.0
_pd_spec_size_equat              0.9
_pd_spec_size_thick              0.9
_refine_diff_density_max         0.14
_refine_diff_density_min         -0.17
_refine_ls_goodness_of_fit_all   4.23
_refine_ls_hydrogen_treatment    constr
_refine_ls_number_constraints    43
_refine_ls_number_parameters     73
_refine_ls_number_restraints     31
_refine_ls_R_factor_all          0.0315
_refine_ls_R_factor_gt           0.0300
_refine_ls_shift/su_max          0.0033
_refine_ls_shift/su_mean         0.0007
_refine_ls_weighting_scheme      sigma
_refine_ls_wR_factor_all         0.0461
_refine_ls_wR_factor_gt          0.0455
_cod_data_source_file            c6cc04808k2-4.cif
_cod_data_source_block           200K100bar
_cod_depositor_comments
;
The following automatic conversions were performed:

'_diffrn_radiation_probe' value 'X-ray' changed to 'x-ray' according
to the built-in table from CIF Core dictionary named 'cif_core.dic'
version 2.4.1 from 2010-06-29.

Automatic conversion script
Id: cif_fix_values 4624 2016-04-14 12:54:50Z antanas 
;
_cod_original_cell_volume        2214.65(18)
_cod_original_sg_symbol_H-M      'C 2/c'
_cod_original_formula_sum        'C8.5 H7 Cu1 N5 Ne0.316 O2'
_cod_database_code               7119157
loop_
_space_group_symop_id
_space_group_symop_operation_xyz
1 x,y,z
2 -x,y,-z+1/2
3 -x,-y,-z
4 x,-y,z+1/2
5 x+1/2,y+1/2,z
6 -x+1/2,y+1/2,-z+1/2
7 -x+1/2,-y+1/2,-z
8 x+1/2,-y+1/2,z+1/2
loop_
_atom_site_label
_atom_site_type_symbol
_atom_site_fract_x
_atom_site_fract_y
_atom_site_fract_z
_atom_site_adp_type
_atom_site_U_iso_or_equiv
_atom_site_site_symmetry_multiplicity
_atom_site_occupancy
_atom_site_calc_flag
_atom_site_refinement_flags
_atom_site_disorder_assembly
_atom_site_disorder_group
Cu1 Cu 0.18800(16) 0.8292(5) 0.3140(6) Uiso 0.054(2) 8 1 d . . .
O1 O 0.1284(5) 1.0703(15) 0.3384(17) Uiso 0.057(3) 8 1 d . . .
O2 O 0.1379(5) 1.1780(17) 0.5668(15) Uiso 0.057(3) 8 1 d . . .
N1 N 0.2204(4) 1.0125(15) 0.7372(12) Uiso 0.057(3) 8 1 d . . .
N2 N 0.2571(3) 0.9096(16) 0.7932(12) Uiso 0.057(3) 8 1 d . . .
N3 N 0.2513(4) 0.8265(12) 0.6706(16) Uiso 0.057(3) 8 1 d . . .
N4 N 0.2117(4) 0.8745(13) 0.5379(13) Uiso 0.057(3) 8 1 d . . .
N11 N 0.1432(3) 0.6607(7) 0.3229(10) Uiso 0.057(3) 8 1 d . . .
C1 C 0.1491(2) 1.0869(11) 0.4848(16) Uiso 0.057(3) 8 1 d . . .
C2 C 0.1933(2) 0.9885(9) 0.5813(11) Uiso 0.057(3) 8 1 d . . .
C11 C 0.1121(4) 0.7200(7) 0.3808(11) Uiso 0.057(3) 8 1 d . . .
C12 C 0.0746(4) 0.6450(9) 0.4069(10) Uiso 0.057(3) 8 1 d . . .
C13 C 0.06924(16) 0.4987(8) 0.3699(4) Uiso 0.057(3) 8 1 d . . .
C14 C 0.1007(2) 0.4339(7) 0.3100(11) Uiso 0.057(3) 8 1 d . . .
C15 C 0.1371(3) 0.5187(7) 0.2883(13) Uiso 0.057(3) 8 1 d . . .
C16 C 0.02929(12) 0.4100(11) 0.39526(13) Uiso 0.057(3) 8 1 d . . .
C17 C 0 0.3159(11) 0.25 Uiso 0.057(3) 4 1 d . . .
H1c11 H 0.116168 0.821138 0.40582 Uiso 0.0686 8 1 d . . .
H1c12 H 0.053368 0.692109 0.448515 Uiso 0.0686 8 1 d . . .
H1c14 H 0.097401 0.332918 0.284216 Uiso 0.0686 8 1 d . . .
H1c15 H 0.158784 0.474054 0.246854 Uiso 0.0686 8 1 d . . .
H1c16 H 0.046475 0.350312 0.488505 Uiso 0.0686 8 1 d . . .
H2c16 H 0.005313 0.473252 0.410377 Uiso 0.0686 8 1 d . . .
H1c17 H 0.02417(6) 0.2560(11) 0.2317(3) Uiso 0.0686 8 1 d . . .
Ne1 Ne 0 0.008(5) 0.25 Uiso 0.172 4 0.391(9) d . . .
Ne2 Ne 0 0 0 Uiso 0.172 4 0.242(6) d . . .
loop_
_atom_type_symbol
_atom_type_scat_dispersion_real
_atom_type_scat_dispersion_imag
_atom_type_scat_source
C 0.0037 0.0018 'International Tables Vol C tables 4.2.6.8 and 6.1.1.1'
H 0.0000 0.0000 'International Tables Vol C tables 4.2.6.8 and 6.1.1.1'
Cu 0.3158 1.3275 'International Tables Vol C tables 4.2.6.8 and 6.1.1.1'
N 0.0071 0.0036 'International Tables Vol C tables 4.2.6.8 and 6.1.1.1'
Ne 0.0277 0.0178 'International Tables Vol C tables 4.2.6.8 and 6.1.1.1'
O 0.0121 0.0066 'International Tables Vol C tables 4.2.6.8 and 6.1.1.1'
loop_
_geom_angle_atom_site_label_1
_geom_angle_atom_site_label_2
_geom_angle_atom_site_label_3
_geom_angle_site_symmetry_1
_geom_angle_site_symmetry_2
_geom_angle_site_symmetry_3
_geom_angle
N1 Cu1 N4 4_574 . . 103.1(5)
N1 Cu1 N11 4_574 . . 163.7(4)
N4 Cu1 N11 . . . 92.8(5)
Cu1 N1 N2 4_575 . . 141.3(9)
Cu1 N1 C2 4_575 . . 111.7(8)
N2 N1 C2 . . . 106.5(11)
N1 N2 N3 . . . 107.6(9)
N2 N3 N4 . . . 109.5(11)
Cu1 N4 N3 . . . 132.5(11)
Cu1 N4 C2 . . . 120.5(7)
N3 N4 C2 . . . 106.1(10)
Cu1 N11 C11 . . . 104.1(5)
Cu1 N11 C15 . . . 138.9(8)
C11 N11 C15 . . . 117.0(9)
O1 C1 O2 . . . 128.4(11)
O1 C1 C2 . . . 117.0(12)
O2 C1 C2 . . . 114.7(11)
N1 C2 N4 . . . 110.4(8)
N1 C2 C1 . . . 119.0(10)
N4 C2 C1 . . . 130.6(9)
N11 C11 C12 . . . 124.6(7)
N11 C11 H1c11 . . . 117.72
C12 C11 H1c11 . . . 117.72
C11 C12 C13 . . . 117.0(9)
C11 C12 H1c12 . . . 121.5
C13 C12 H1c12 . . . 121.5
C12 C13 C14 . . . 120.0(7)
C12 C13 C16 . . . 120.0(7)
C14 C13 C16 . . . 120.0(7)
C13 C14 C15 . . . 118.4(7)
C13 C14 H1c14 . . . 120.78
C15 C14 H1c14 . . . 120.77
N11 C15 C14 . . . 123.0(10)
N11 C15 H1c15 . . . 118.5
C14 C15 H1c15 . . . 118.5
C13 C16 C17 . . . 109.5(3)
C13 C16 H1c16 . . . 109.47
C13 C16 H2c16 . . . 109.47
C17 C16 H1c16 . . . 109.47
C17 C16 H2c16 . . . 109.47
H1c16 C16 H2c16 . . . 109.47
C16 C17 C16 . . 2_555 109.5(8)
C16 C17 H1c17 . . . 109.5(4)
C16 C17 H1c17 . . 2_555 109.5(4)
C16 C17 H1c17 2_555 . . 109.5(4)
C16 C17 H1c17 2_555 . 2_555 109.5(4)
H1c17 C17 H1c17 . . 2_555 109.5(13)
Ne2 Ne1 Ne2 . . 2_555 177(2)
Ne1 Ne2 Ne1 . . 3_555 180.0(5)
loop_
_geom_bond_atom_site_label_1
_geom_bond_atom_site_label_2
_geom_bond_site_symmetry_1
_geom_bond_site_symmetry_2
_geom_bond_distance
Cu1 N1 . 4_574 2.027(15)
Cu1 N4 . . 1.929(12)
Cu1 N11 . . 2.047(10)
O1 C1 . . 1.229(19)
O2 C1 . . 1.27(2)
N1 N2 . . 1.342(17)
N1 C2 . . 1.325(13)
N2 N3 . . 1.324(19)
N3 N4 . . 1.329(14)
N4 C2 . . 1.321(16)
N11 C11 . . 1.347(16)
N11 C15 . . 1.347(9)
C1 C2 . . 1.494(11)
C11 C12 . . 1.390(17)
C11 H1c11 . . 0.96
C12 C13 . . 1.390(11)
C12 H1c12 . . 0.96
C13 C14 . . 1.390(11)
C13 C16 . . 1.511(9)
C14 C15 . . 1.390(12)
C14 H1c14 . . 0.96
C15 H1c15 . . 0.96
C16 C17 . . 1.511(9)
C16 H1c16 . . 0.96
C16 H2c16 . . 0.96
C17 H1c17 . . 0.960(9)
C17 H1c17 . 2_555 0.960(9)
Ne1 Ne2 . . 2.3262(14)
Ne1 Ne2 . 2_555 2.3262(14)
loop_
_pd_proc_point_id
_pd_proc_2theta_corrected
_pd_proc_intensity_net
_pd_calc_intensity_net
_pd_proc_ls_weight
1 2.0172 7833.82 7166.29 88.51
2 2.0256 7900.92 7225.59 88.89
3 2.0340 7894.94 7283.75 88.85
4 2.0424 7841.99 7340.81 88.56
5 2.0508 7932.72 7396.78 89.07
6 2.0592 7869.53 7451.65 88.71
7 2.0676 7897.88 7505.46 88.87
8 2.0760 7903.72 7558.21 88.90
9 2.0844 7867.49 7609.91 88.70
10 2.0928 7929.94 7660.57 89.05
11 2.1012 7924.05 7710.20 89.02
12 2.1096 7876.31 7758.83 88.75
13 2.1180 7948.72 7806.45 89.16
14 2.1264 7924.32 7853.08 89.02
15 2.1348 7879.20 7898.74 88.76
16 2.1432 7969.51 7943.43 89.27
17 2.1516 7870.50 7987.16 88.72
18 2.1600 7920.10 8029.95 89.00
19 2.1684 7965.15 8071.80 89.25
20 2.1768 7891.57 8112.73 88.83
21 2.1852 7961.95 8152.75 89.23
22 2.1936 7913.12 8191.87 88.96
23 2.2020 7937.19 8230.10 89.09
24 2.2104 7998.57 8267.45 89.43
25 2.2188 7978.24 8303.93 89.32
26 2.2272 7963.61 8339.55 89.24
27 2.2356 8020.52 8374.33 89.56
28 2.2440 7956.45 8408.26 89.20
29 2.2524 7985.27 8441.37 89.36
30 2.2608 8040.31 8473.67 89.67
31 2.2692 7975.83 8505.15 89.31
32 2.2776 8051.89 8535.84 89.73
33 2.2860 8039.80 8565.73 89.67
34 2.2944 8030.42 8594.86 89.61
35 2.3028 8078.74 8623.21 89.88
36 2.3112 8047.63 8650.81 89.71
37 2.3196 8079.65 8677.66 89.89
38 2.3280 8139.10 8703.76 90.22
39 2.3364 8069.73 8729.14 89.83
40 2.3448 8154.14 8753.80 90.30
41 2.3532 8135.34 8777.75 90.20
42 2.3616 8122.66 8800.99 90.13
43 2.3700 8200.56 8823.54 90.56
44 2.3784 8183.36 8845.41 90.46
45 2.3868 8210.67 8866.61 90.61
46 2.3952 8298.52 8887.13 91.10
47 2.4036 8214.85 8907.01 90.64
48 2.4120 8295.93 8926.23 91.08
49 2.4204 8333.03 8944.81 91.29
50 2.4288 8298.00 8962.76 91.09
51 2.4372 8418.52 8980.09 91.75
52 2.4456 8408.85 8996.81 91.70
53 2.4540 8429.73 9012.92 91.81
54 2.4624 8510.36 9028.43 92.25
55 2.4708 8522.09 9043.36 92.32
56 2.4792 8570.14 9057.70 92.58
57 2.4876 8666.89 9071.47 93.10
58 2.4960 8643.59 9084.67 92.97
59 2.5044 8731.48 9097.32 93.44
60 2.5128 8786.80 9109.42 93.74
61 2.5212 8776.61 9120.98 93.68
62 2.5296 8884.78 9132.00 94.26
63 2.5380 8921.51 9142.50 94.45
64 2.5464 8982.61 9152.48 94.78
65 2.5548 9078.75 9161.95 95.28
66 2.5632 9103.55 9170.92 95.41
67 2.5716 9199.20 9179.39 95.91
68 2.5800 9292.36 9187.38 96.40
69 2.5884 9325.78 9194.88 96.57
70 2.5968 9419.44 9201.91 97.05
71 2.6052 9469.94 9208.47 97.31
72 2.6136 9509.61 9214.57 97.52
73 2.6220 9619.32 9220.22 98.08
74 2.6304 9637.21 9225.43 98.17
75 2.6388 9720.14 9230.19 98.59
76 2.6472 9822.78 9234.53 99.11
77 2.6556 9836.85 9238.44 99.18
78 2.6640 9931.20 9241.93 99.66
79 2.6724 9991.09 9245.01 99.96
80 2.6808 10018.60 9247.68 100.09
81 2.6892 10097.20 9249.96 100.49
82 2.6976 10134.00 9251.84 100.67
83 2.7060 10182.70 9253.34 100.91
84 2.7144 10228.20 9254.46 101.14
85 2.7228 10247.50 9255.21 101.23
86 2.7312 10297.90 9468.45 101.48
87 2.7396 10323.90 9475.57 101.61
88 2.7480 10298.60 9482.70 101.48
89 2.7564 10338.70 9489.87 101.68
90 2.7648 10343.50 9497.11 101.70
91 2.7732 10327.90 9504.46 101.63
92 2.7816 10362.80 9511.94 101.80
93 2.7900 10333.50 9519.62 101.65
94 2.7984 10320.20 9527.52 101.59
95 2.8068 10324.10 9535.71 101.61
96 2.8152 10255.10 9544.21 101.27
97 2.8236 10285.40 9553.11 101.42
98 2.8320 10300.40 9562.45 101.49
99 2.8404 10202.60 9572.31 101.01
100 2.8488 10260.60 9582.75 101.29
101 2.8572 10219.10 9593.86 101.09
102 2.8656 10256.40 9605.73 101.27
103 2.8740 10287.50 9618.46 101.43
104 2.8824 10287.00 9632.15 101.43
105 2.8908 10365.00 9646.93 101.81
106 2.8992 10501.30 9662.93 102.48
107 2.9076 10512.90 9680.30 102.53
108 2.9160 10673.30 9699.22 103.31
109 2.9244 10758.70 9719.88 103.72
110 2.9328 10818.50 9742.49 104.01
111 2.9412 10874.10 9767.30 104.28
112 2.9496 10852.90 9794.58 104.18
113 2.9580 10834.70 9824.67 104.09
114 2.9664 10804.00 9857.91 103.94
115 2.9748 10707.40 9894.74 103.48
116 2.9832 10697.30 9935.64 103.43
117 2.9916 10689.30 9981.17 103.39
118 3.0000 10627.70 10032.00 103.09
119 3.0084 10667.90 10088.90 103.29
120 3.0168 10639.70 10152.80 103.15
121 3.0252 10691.30 10224.70 103.40
122 3.0336 10764.80 10306.00 103.75
123 3.0420 10830.30 10398.30 104.07
124 3.0504 10876.30 10503.20 104.29
125 3.0588 11003.10 10623.30 104.90
126 3.0672 11128.30 10761.20 105.49
127 3.0756 11264.90 10920.40 106.14
128 3.0840 11488.10 11105.30 107.18
129 3.0924 11687.00 11321.20 108.11
130 3.1008 12011.10 11575.10 109.60
131 3.1092 12391.00 11876.30 111.32
132 3.1176 12887.40 12237.70 113.52
133 3.1260 13483.60 12679.00 116.12
134 3.1344 14365.40 13235.50 119.86
135 3.1428 15511.00 13976.60 124.54
136 3.1512 17075.10 15046.90 130.67
137 3.1596 19845.90 16739.90 140.88
138 3.1680 23401.50 19604.70 152.98
139 3.1764 29394.30 24559.80 171.45
140 3.1848 38995.60 32923.90 197.47
141 3.1932 49803.50 46243.50 223.17
142 3.2016 68066.30 65803.40 260.89
143 3.2100 90347.70 91862.50 300.58
144 3.2184 117235.00 122823.00 342.40
145 3.2268 150226.00 154636.00 387.59
146 3.2352 182712.00 180668.00 427.45
147 3.2436 202061.00 193019.00 449.51
148 3.2520 196117.00 186885.00 442.85
149 3.2604 169441.00 164743.00 411.63
150 3.2688 133133.00 134053.00 364.87
151 3.2772 99537.00 102174.00 315.49
152 3.2856 73276.90 74079.90 270.70
153 3.2940 50636.20 52177.10 225.02
154 3.3024 38444.80 36765.50 196.07
155 3.3108 27398.20 26822.70 165.52
156 3.3192 20715.00 20820.80 143.93
157 3.3276 16935.90 17327.20 130.14
158 3.3360 14343.90 15279.80 119.77
159 3.3444 12857.90 14011.70 113.39
160 3.3528 11895.20 13153.50 109.07
161 3.3612 11123.30 12519.10 105.47
162 3.3696 10671.00 12018.70 103.30
163 3.3780 10311.40 11608.30 101.54
164 3.3864 10011.20 11263.90 100.06
165 3.3948 9808.37 10970.90 99.04
166 3.4032 9652.18 10719.00 98.25
167 3.4116 9450.35 10500.50 97.21
168 3.4200 9369.27 10309.50 96.79
169 3.4284 9265.20 10141.40 96.26
170 3.4368 9167.33 9992.39 95.75
171 3.4452 9138.78 9859.48 95.60
172 3.4536 9050.09 9740.26 95.13
173 3.4620 8999.32 9632.72 94.86
174 3.4704 8980.65 9535.21 94.77
175 3.4788 8870.51 9446.37 94.18
176 3.4872 8843.30 9365.04 94.04
177 3.4956 8750.05 9290.29 93.54
178 3.5040 8646.99 9221.27 92.99
179 3.5124 8606.82 9157.31 92.77
180 3.5208 8481.20 9097.82 92.09
181 3.5292 8415.76 9042.29 91.74
182 3.5376 8394.37 8990.29 91.62
183 3.5460 8282.21 8941.43 91.01
184 3.5544 8222.80 8895.39 90.68
185 3.5628 8195.72 8851.89 90.53
186 3.5712 8119.99 8810.67 90.11
187 3.5796 8097.77 8771.52 89.99
188 3.5880 8065.73 8734.23 89.81
189 3.5964 8010.94 8698.65 89.50
190 3.6048 8025.39 8664.62 89.58
191 3.6132 7929.27 8632.01 89.05
192 3.6216 7948.35 8600.69 89.15
193 3.6300 7943.17 8570.57 89.12
194 3.6384 7870.40 8541.54 88.72
195 3.6468 7891.40 8513.52 88.83
196 3.6552 7876.83 8486.43 88.75
197 3.6636 7833.97 8460.21 88.51
198 3.6720 7844.81 8434.79 88.57
199 3.6804 7817.15 8410.12 88.41
200 3.6888 7811.31 8386.14 88.38
201 3.6972 7822.90 8362.81 88.45
202 3.7056 7779.92 8340.09 88.20
203 3.7140 7780.16 8317.94 88.21
204 3.7224 7835.87 8296.33 88.52
205 3.7308 7720.83 8275.21 87.87
206 3.7392 7769.57 8254.57 88.15
207 3.7476 7733.13 8234.38 87.94
208 3.7560 7694.02 8214.61 87.72
209 3.7644 7720.67 7986.83 87.87
210 3.7728 7676.09 7974.40 87.61
211 3.7812 7684.25 7962.03 87.66
212 3.7896 7711.72 7949.72 87.82
213 3.7980 7639.12 7937.46 87.40
214 3.8064 7669.35 7925.27 87.57
215 3.8148 7647.76 7913.15 87.45
216 3.8232 7642.09 7901.08 87.42
217 3.8316 7649.25 7889.09 87.46
218 3.8400 7640.37 7877.16 87.41
219 3.8484 7613.01 7865.29 87.25
220 3.8568 7641.79 7853.50 87.42
221 3.8652 7613.47 7841.77 87.26
222 3.8736 7624.27 7830.11 87.32
223 3.8820 7644.41 7818.53 87.43
224 3.8904 7616.63 7807.02 87.27
225 3.8988 7648.81 7795.58 87.46
226 3.9072 7666.43 7784.22 87.56
227 3.9156 7665.03 7772.94 87.55
228 3.9240 7716.73 7761.73 87.84
229 3.9324 7702.64 7750.60 87.76
230 3.9408 7697.08 7739.54 87.73
231 3.9492 7725.71 7728.57 87.90
232 3.9576 7676.52 7717.67 87.62
233 3.9660 7660.72 7706.86 87.53
234 3.9744 7645.73 7696.13 87.44
235 3.9828 7593.42 7685.48 87.14
236 3.9912 7599.05 7674.92 87.17
237 3.9996 7576.14 7664.44 87.04
238 4.0080 7547.52 7654.04 86.88
239 4.0164 7558.24 7643.73 86.94
240 4.0248 7512.32 7633.51 86.67
241 4.0332 7533.24 7623.37 86.79
242 4.0416 7526.26 7613.32 86.75
243 4.0500 7496.70 7603.36 86.58
244 4.0584 7526.99 7593.49 86.76
245 4.0668 7494.94 7583.71 86.57
246 4.0752 7480.75 7574.02 86.49
247 4.0836 7521.57 7564.42 86.73
248 4.0920 7463.47 7554.91 86.39
249 4.1004 7492.27 7545.49 86.56
250 4.1088 7518.35 7536.16 86.71
251 4.1172 7447.92 7526.93 86.30
252 4.1256 7478.38 7517.79 86.48
253 4.1340 7486.20 7508.75 86.52
254 4.1424 7469.70 7499.80 86.43
255 4.1508 7505.96 7490.94 86.64
256 4.1592 7464.32 7482.18 86.40
257 4.1676 7459.47 7473.52 86.37
258 4.1760 7493.90 7464.95 86.57
259 4.1844 7443.11 7456.48 86.27
260 4.1928 7452.63 7448.11 86.33
261 4.2012 7471.68 7439.83 86.44
262 4.2096 7431.16 7431.65 86.20
263 4.2180 7474.79 7423.57 86.46
264 4.2264 7455.11 7415.58 86.34
265 4.2348 7429.22 7407.70 86.19
266 4.2432 7471.22 7405.38 86.44
267 4.2516 7427.84 7397.87 86.18
268 4.2600 7444.05 7390.46 86.28
269 4.2684 7451.29 7383.16 86.32
270 4.2768 7427.90 7375.97 86.19
271 4.2852 7439.82 7368.89 86.25
272 4.2936 7423.16 7361.92 86.16
273 4.3020 7404.31 7355.07 86.05
274 4.3104 7452.56 7348.32 86.33
275 4.3188 7402.62 7341.69 86.04
276 4.3272 7400.86 7335.18 86.03
277 4.3356 7433.75 7328.78 86.22
278 4.3440 7414.90 7322.50 86.11
279 4.3524 7411.63 7316.34 86.09
280 4.3608 7431.22 7310.30 86.20
281 4.3692 7395.55 7304.38 86.00
282 4.3776 7419.09 7298.59 86.13
283 4.3860 7453.41 7292.92 86.33
284 4.3944 7405.11 7287.38 86.05
285 4.4028 7425.10 7281.97 86.17
286 4.4112 7400.61 7276.69 86.03
287 4.4196 7400.94 7271.55 86.03
288 4.4280 7421.97 7266.54 86.15
289 4.4364 7384.04 7261.68 85.93
290 4.4448 7410.89 7256.97 86.09
291 4.4532 7406.88 7252.41 86.06
292 4.4616 7387.28 7248.00 85.95
293 4.4700 7429.12 7243.75 86.19
294 4.4784 7406.80 7239.68 86.06
295 4.4868 7402.42 7235.78 86.04
296 4.4952 7437.59 7232.06 86.24
297 4.5036 7409.16 7228.54 86.08
298 4.5120 7412.81 7225.22 86.10
299 4.5204 7417.04 7222.12 86.12
300 4.5288 7399.40 7219.26 86.02
301 4.5372 7426.22 7216.65 86.18
302 4.5456 7404.01 7214.31 86.05
303 4.5540 7406.14 7212.26 86.06
304 4.5624 7426.64 7210.54 86.18
305 4.5708 7404.54 7209.18 86.05
306 4.5792 7405.88 7208.22 86.06
307 4.5876 7432.56 7207.70 86.21
308 4.5960 7405.43 7207.70 86.05
309 4.6044 7422.89 7208.29 86.16
310 4.6128 7403.09 7209.55 86.04
311 4.6212 7403.17 7211.59 86.04
312 4.6296 7425.30 7214.57 86.17
313 4.6380 7413.66 7218.67 86.10
314 4.6464 7426.42 7224.11 86.18
315 4.6548 7444.67 7231.26 86.28
316 4.6632 7411.98 7240.64 86.09
317 4.6716 7435.35 7253.16 86.23
318 4.6800 7442.69 7270.59 86.27
319 4.6884 7452.74 7296.38 86.33
320 4.6968 7492.88 7337.10 86.56
321 4.7052 7518.93 7404.40 86.71
322 4.7136 7594.51 7516.84 87.15
323 4.7220 7708.63 7700.08 87.80
324 4.7304 7843.02 7983.66 88.56
325 4.7388 8075.52 8392.32 89.86
326 4.7472 8383.47 8933.12 91.56
327 4.7556 8734.69 9580.85 93.46
328 4.7640 9196.46 10265.70 95.90
329 4.7724 9646.68 10866.10 98.22
330 4.7808 9944.96 11222.20 99.72
331 4.7892 10083.30 11206.30 100.42
332 4.7976 9778.38 10824.10 98.89
333 4.8060 9333.45 10209.50 96.61
334 4.8144 8910.11 9521.26 94.39
335 4.8228 8425.64 8876.96 91.79
336 4.8312 8150.92 8342.84 90.28
337 4.8396 7875.14 7941.26 88.74
338 4.8480 7714.60 7663.38 87.83
339 4.8564 7621.37 7483.65 87.30
340 4.8648 7526.52 7372.65 86.76
341 4.8732 7495.98 7305.14 86.58
342 4.8816 7487.17 7263.13 86.53
343 4.8900 7441.70 7235.41 86.27
344 4.8984 7453.87 7215.71 86.34
345 4.9068 7449.71 7200.72 86.31
346 4.9152 7425.65 7188.79 86.17
347 4.9236 7451.31 7179.02 86.32
348 4.9320 7433.99 7170.91 86.22
349 4.9404 7441.04 7164.12 86.26
350 4.9488 7449.69 7158.42 86.31
351 4.9572 7428.19 7153.62 86.19
352 4.9656 7438.20 7149.59 86.25
353 4.9740 7460.60 7146.21 86.37
354 4.9824 7415.07 7143.39 86.11
355 4.9908 7448.92 7141.06 86.31
356 4.9992 7437.53 7139.15 86.24
357 5.0076 7433.89 7137.63 86.22
358 5.0160 7470.46 7136.44 86.43
359 5.0244 7427.43 7135.56 86.18
360 5.0328 7445.87 7134.95 86.29
361 5.0412 7462.37 7134.59 86.39
362 5.0496 7427.29 7134.46 86.18
363 5.0580 7462.05 7134.54 86.38
364 5.0664 7457.10 7134.81 86.35
365 5.0748 7455.93 7135.26 86.35
366 5.0832 7483.00 7135.88 86.50
367 5.0916 7482.23 7136.66 86.50
368 5.1000 7466.67 7137.59 86.41
369 5.1084 7505.51 7138.66 86.63
370 5.1168 7480.91 7139.87 86.49
371 5.1252 7498.33 7141.21 86.59
372 5.1336 7508.50 7142.66 86.65
373 5.1420 7499.60 7144.24 86.60
374 5.1504 7522.02 7145.93 86.73
375 5.1588 7504.15 7147.73 86.63
376 5.1672 7523.63 7149.63 86.74
377 5.1756 7552.14 7151.64 86.90
378 5.1840 7525.20 7153.74 86.75
379 5.1924 7548.08 7155.94 86.88
380 5.2008 7574.73 7158.24 87.03
381 5.2092 7547.61 7160.62 86.88
382 5.2176 7556.06 7163.10 86.93
383 5.2260 7548.78 7165.66 86.88
384 5.2344 7553.04 7168.30 86.91
385 5.2428 7579.07 7171.03 87.06
386 5.2512 7544.78 7173.84 86.86
387 5.2596 7561.71 7176.73 86.96
388 5.2680 7568.51 7179.70 87.00
389 5.2764 7533.20 7182.74 86.79
390 5.2848 7552.44 7185.86 86.90
391 5.2932 7564.45 7189.05 86.97
392 5.3016 7537.89 7192.31 86.82
393 5.3100 7566.91 7195.65 86.99
394 5.3184 7539.96 7199.05 86.83
395 5.3268 7550.06 7202.52 86.89
396 5.3352 7561.83 7200.77 86.96
397 5.3436 7528.87 7204.54 86.77
398 5.3520 7540.16 7208.36 86.83
399 5.3604 7548.18 7212.24 86.88
400 5.3688 7520.31 7216.18 86.72
401 5.3772 7552.69 7220.18 86.91
402 5.3856 7530.93 7224.23 86.78
403 5.3940 7534.34 7228.34 86.80
404 5.4024 7533.70 7232.51 86.80
405 5.4108 7529.64 7236.72 86.77
406 5.4192 7542.20 7241.00 86.85
407 5.4276 7559.27 7245.32 86.94
408 5.4360 7517.39 7249.70 86.70
409 5.4444 7533.90 7254.13 86.80
410 5.4528 7537.88 7258.61 86.82
411 5.4612 7526.68 7263.14 86.76
412 5.4696 7539.03 7267.73 86.83
413 5.4780 7519.46 7272.36 86.71
414 5.4864 7535.69 7277.04 86.81
415 5.4948 7528.31 7281.77 86.77
416 5.5032 7496.66 7286.55 86.58
417 5.5116 7523.79 7291.37 86.74
418 5.5200 7521.53 7296.24 86.73
419 5.5284 7500.56 7301.16 86.61
420 5.5368 7523.48 7306.12 86.74
421 5.5452 7491.58 7311.13 86.55
422 5.5536 7507.94 7316.18 86.65
423 5.5620 7512.95 7321.28 86.68
424 5.5704 7477.49 7326.41 86.47
425 5.5788 7496.33 7331.59 86.58
426 5.5872 7493.79 7336.81 86.57
427 5.5956 7490.20 7342.08 86.55
428 5.6040 7499.53 7347.38 86.60
429 5.6124 7486.99 7352.72 86.53
430 5.6208 7473.04 7358.10 86.45
431 5.6292 7505.98 7363.53 86.64
432 5.6376 7485.70 7368.98 86.52
433 5.6460 7486.91 7374.48 86.53
434 5.6544 7514.85 7380.01 86.69
435 5.6628 7478.76 7385.58 86.48
436 5.6712 7505.32 7391.19 86.63
437 5.6796 7492.13 7396.83 86.56
438 5.6880 7500.34 7402.50 86.60
439 5.6964 7514.89 7408.21 86.69
440 5.7048 7488.98 7413.95 86.54
441 5.7132 7501.55 7419.72 86.61
442 5.7216 7515.80 7425.53 86.69
443 5.7300 7474.84 7431.36 86.46
444 5.7384 7508.93 7437.23 86.65
445 5.7468 7493.95 7443.13 86.57
446 5.7552 7497.92 7449.06 86.59
447 5.7636 7523.07 7455.01 86.74
448 5.7720 7510.09 7461.00 86.66
449 5.7804 7510.82 7467.01 86.67
450 5.7888 7534.00 7473.05 86.80
451 5.7972 7490.53 7479.11 86.55
452 5.8056 7520.79 7485.20 86.72
453 5.8140 7536.03 7549.50 86.81
454 5.8224 7503.87 7557.39 86.62
455 5.8308 7536.95 7565.39 86.82
456 5.8392 7516.68 7573.49 86.70
457 5.8476 7531.65 7581.71 86.79
458 5.8560 7543.71 7590.04 86.85
459 5.8644 7535.22 7598.50 86.81
460 5.8728 7555.78 7607.09 86.92
461 5.8812 7562.04 7615.81 86.96
462 5.8896 7528.03 7624.68 86.76
463 5.8980 7565.94 7633.71 86.98
464 5.9064 7551.76 7642.89 86.90
465 5.9148 7572.18 7652.24 87.02
466 5.9232 7583.01 7667.55 87.08
467 5.9316 7574.57 7677.45 87.03
468 5.9400 7580.91 7687.57 87.07
469 5.9484 7607.90 7697.91 87.22
470 5.9568 7578.70 7708.49 87.06
471 5.9652 7600.26 7719.34 87.18
472 5.9736 7595.27 7730.47 87.15
473 5.9820 7600.60 7741.90 87.18
474 5.9904 7611.29 7753.65 87.24
475 5.9988 7599.95 7765.76 87.18
476 6.0072 7617.83 7778.25 87.28
477 6.0156 7648.12 7791.16 87.45
478 6.0240 7610.28 7804.51 87.24
479 6.0324 7647.84 7818.36 87.45
480 6.0408 7665.10 7832.75 87.55
481 6.0492 7657.02 7847.73 87.50
482 6.0576 7702.24 7959.12 87.76
483 6.0660 7677.85 7978.32 87.62
484 6.0744 7712.13 7998.43 87.82
485 6.0828 7722.60 8019.56 87.88
486 6.0912 7722.13 8041.81 87.88
487 6.0996 7744.74 8065.29 88.00
488 6.1080 7777.93 8090.16 88.19
489 6.1164 7776.63 8116.56 88.19
490 6.1248 7808.45 8144.68 88.37
491 6.1332 7818.99 8174.74 88.43
492 6.1416 7845.07 8206.98 88.57
493 6.1500 7882.73 8241.69 88.78
494 6.1584 7889.32 8279.21 88.82
495 6.1668 7928.14 8319.95 89.04
496 6.1752 7967.66 8364.38 89.26
497 6.1836 7983.07 8413.07 89.35
498 6.1920 8063.42 8466.73 89.80
499 6.2004 8098.06 8526.18 89.99
500 6.2088 8159.34 8592.46 90.33
501 6.2172 8249.29 8666.82 90.83
502 6.2256 8317.64 8750.86 91.20
503 6.2340 8438.05 8846.61 91.86
504 6.2424 8544.78 8956.77 92.44
505 6.2508 8671.25 9085.19 93.12
506 6.2592 8853.60 9237.83 94.09
507 6.2676 9057.52 9424.96 95.17
508 6.2760 9336.43 9665.32 96.63
509 6.2844 9747.49 9993.71 98.73
510 6.2928 10364.20 10472.30 101.81
511 6.3012 11290.00 11205.10 106.25
512 6.3096 12569.80 12502.90 112.11
513 6.3180 14579.60 14271.50 120.75
514 6.3264 17308.20 16893.30 131.56
515 6.3348 21062.20 20564.30 145.13
516 6.3432 25993.80 25351.30 161.23
517 6.3516 32016.40 31086.90 178.93
518 6.3600 38673.60 37274.10 196.66
519 6.3684 44732.50 43005.50 211.50
520 6.3768 49149.80 46990.20 221.70
521 6.3852 50143.90 47983.40 223.93
522 6.3936 46829.50 45642.70 216.40
523 6.4020 40614.40 40835.90 201.53
524 6.4104 33841.10 34932.30 183.96
525 6.4188 28027.40 29084.70 167.41
526 6.4272 23357.90 24026.10 152.83
527 6.4356 19988.40 20115.20 141.38
528 6.4440 17686.10 17419.60 132.99
529 6.4524 16167.90 15809.20 127.15
530 6.4608 15485.30 15047.30 124.44
531 6.4692 15271.00 14861.60 123.58
532 6.4776 15320.00 14981.60 123.77
533 6.4860 15564.50 15154.70 124.76
534 6.4944 15628.00 15180.70 125.01
535 6.5028 15441.80 14981.90 124.26
536 6.5112 15094.10 14625.00 122.86
537 6.5196 14733.80 14249.70 121.38
538 6.5280 14620.90 14000.10 120.92
539 6.5364 14693.30 14015.30 121.22
540 6.5448 15361.50 14452.80 123.94
541 6.5532 16483.40 15517.30 128.39
542 6.5616 18560.30 17481.80 136.24
543 6.5700 21684.90 20678.30 147.26
544 6.5784 25698.90 25441.00 160.31
545 6.5868 31909.50 31991.40 178.63
546 6.5952 39525.30 40286.20 198.81
547 6.6036 48036.10 49854.60 219.17
548 6.6120 58147.30 59653.30 241.14
549 6.6204 67226.10 67967.30 259.28
550 6.6288 73297.40 72631.90 270.73
551 6.6372 73267.10 72051.60 270.68
552 6.6456 67235.90 66453.40 259.30
553 6.6540 56868.80 57684.10 238.47
554 6.6624 46042.10 47864.40 214.57
555 6.6708 37143.50 38557.90 192.73
556 6.6792 28928.90 30665.20 170.09
557 6.6876 23219.90 24540.10 152.38
558 6.6960 19290.90 20141.30 138.89
559 6.7044 16087.80 17191.70 126.84
560 6.7128 14350.00 15329.10 119.79
561 6.7212 13173.90 14213.20 114.78
562 6.7296 12479.90 13580.20 111.71
563 6.7380 12148.60 13252.70 110.22
564 6.7464 11999.40 13125.90 109.54
565 6.7548 12059.50 13147.50 109.82
566 6.7632 12290.40 13302.00 110.86
567 6.7716 12706.70 13605.20 112.72
568 6.7800 13379.50 14109.70 115.67
569 6.7884 14458.10 14923.40 120.24
570 6.7968 16019.80 16238.30 126.57
571 6.8052 18294.20 18361.10 135.26
572 6.8136 22000.20 21728.30 148.32
573 6.8220 26913.70 26875.80 164.05
574 6.8304 33914.70 34341.60 184.16
575 6.8388 43870.70 44488.10 209.45
576 6.8472 56135.80 57269.70 236.93
577 6.8556 71539.90 71996.00 267.47
578 6.8640 87538.80 87110.10 295.87
579 6.8724 101946.00 100029.00 319.29
580 6.8808 111615.00 107451.00 334.09
581 6.8892 111320.00 106861.00 333.65
582 6.8976 100316.00 98467.00 316.73
583 6.9060 84431.70 85013.60 290.57
584 6.9144 67306.40 69762.70 259.43
585 6.9228 52764.90 55159.10 229.71
586 6.9312 40688.80 42633.20 201.71
587 6.9396 32007.50 32774.70 178.91
588 6.9480 24981.50 25560.10 158.05
589 6.9564 20510.10 20532.40 143.21
590 6.9648 17403.80 17260.00 131.92
591 6.9732 15160.70 15154.20 123.13
592 6.9816 13640.70 13793.00 116.79
593 6.9900 12590.30 12882.50 112.21
594 6.9984 11768.20 12238.40 108.48
595 7.0068 11264.30 11754.40 106.13
596 7.0152 10791.20 11371.70 103.88
597 7.0236 10475.00 11058.10 102.35
598 7.0320 10233.40 10795.10 101.16
599 7.0404 9963.09 10571.40 99.82
600 7.0488 9824.90 10379.30 99.12
601 7.0572 9655.03 10213.00 98.26
602 7.0656 9513.35 10068.10 97.54
603 7.0740 9432.46 9935.72 97.12
604 7.0824 9307.16 9824.23 96.47
605 7.0908 9236.79 9725.65 96.11
606 7.0992 9173.40 9638.14 95.78
607 7.1076 9091.94 9560.14 95.35
608 7.1160 9067.12 9490.38 95.22
609 7.1244 9009.41 9427.77 94.92
610 7.1328 8940.63 9371.42 94.55
611 7.1412 8940.31 9320.55 94.55
612 7.1496 8883.90 9274.53 94.25
613 7.1580 8865.32 9232.78 94.16
614 7.1664 8851.91 9194.83 94.08
615 7.1748 8808.51 9160.27 93.85
616 7.1832 8803.42 9128.75 93.83
617 7.1916 8798.14 9099.94 93.80
618 7.2000 8745.90 9073.59 93.52
619 7.2084 8771.85 9049.46 93.66
620 7.2168 8750.91 8934.88 93.55
621 7.2252 8738.47 8917.18 93.48
622 7.2336 8740.31 8901.06 93.49
623 7.2420 8714.77 8886.37 93.35
624 7.2504 8731.99 8873.01 93.45
625 7.2588 8737.83 8860.88 93.48
626 7.2672 8708.19 8849.91 93.32
627 7.2756 8738.79 8840.02 93.48
628 7.2840 8717.88 8831.19 93.37
629 7.2924 8718.19 8823.37 93.37
630 7.3008 8738.54 8816.59 93.48
631 7.3092 8722.87 8810.91 93.40
632 7.3176 8750.30 8806.49 93.54
633 7.3260 8738.49 8803.69 93.48
634 7.3344 8730.28 8803.16 93.44
635 7.3428 8742.75 8806.02 93.50
636 7.3512 8740.04 8814.00 93.49
637 7.3596 8695.64 8829.45 93.25
638 7.3680 8712.94 8855.17 93.34
639 7.3764 8659.42 8893.79 93.06
640 7.3848 8656.79 8946.88 93.04
641 7.3932 8634.06 9013.72 92.92
642 7.4016 8603.04 9090.21 92.75
643 7.4100 8618.46 9167.63 92.84
644 7.4184 8576.70 9231.96 92.61
645 7.4268 8547.58 9265.88 92.45
646 7.4352 8567.79 9257.10 92.56
647 7.4436 8547.31 9207.89 92.45
648 7.4520 8541.10 9133.09 92.42
649 7.4604 8554.17 9049.59 92.49
650 7.4688 8534.29 8820.98 92.38
651 7.4772 8569.95 8756.54 92.57
652 7.4856 8560.79 8706.01 92.52
653 7.4940 8549.53 8669.30 92.46
654 7.5024 8589.99 8644.42 92.68
655 7.5108 8575.82 8628.59 92.61
656 7.5192 8595.73 8619.04 92.71
657 7.5276 8636.48 8613.57 92.93
658 7.5360 8632.72 8610.58 92.91
659 7.5444 8673.26 8609.07 93.13
660 7.5528 8699.79 8608.44 93.27
661 7.5612 8714.10 8608.34 93.35
662 7.5696 8750.30 8608.60 93.54
663 7.5780 8753.37 8609.11 93.56
664 7.5864 8758.16 8609.79 93.59
665 7.5948 8753.64 8610.61 93.56
666 7.6032 8727.51 8611.53 93.42
667 7.6116 8736.65 8612.52 93.47
668 7.6200 8726.59 8613.57 93.42
669 7.6284 8687.71 8614.67 93.21
670 7.6368 8723.88 8615.79 93.40
671 7.6452 8684.84 8616.93 93.19
672 7.6536 8695.56 8618.08 93.25
673 7.6620 8696.13 8619.23 93.25
674 7.6704 8670.20 8620.38 93.11
675 7.6788 8700.22 8621.52 93.28
676 7.6872 8699.70 8622.65 93.27
677 7.6956 8679.57 8623.75 93.16
678 7.7040 8723.00 8624.84 93.40
679 7.7124 8709.65 8625.91 93.33
680 7.7208 8704.26 8626.95 93.30
681 7.7292 8732.45 8627.96 93.45
682 7.7376 8705.31 8628.94 93.30
683 7.7460 8730.73 8629.89 93.44
684 7.7544 8732.35 8630.81 93.45
685 7.7628 8707.77 8631.70 93.32
686 7.7712 8747.37 8632.55 93.53
687 7.7796 8730.62 8633.37 93.44
688 7.7880 8733.61 8634.15 93.45
689 7.7964 8756.24 8634.90 93.57
690 7.8048 8735.64 8635.61 93.46
691 7.8132 8783.04 8636.28 93.72
692 7.8216 8770.20 8636.91 93.65
693 7.8300 8758.07 8637.50 93.58
694 7.8384 8800.84 8638.06 93.81
695 7.8468 8766.24 8638.57 93.63
696 7.8552 8772.19 8639.05 93.66
697 7.8636 8773.79 8639.48 93.67
698 7.8720 8754.01 8639.88 93.56
699 7.8804 8762.75 8640.23 93.61
700 7.8888 8762.97 8640.55 93.61
701 7.8972 8728.39 8640.82 93.43
702 7.9056 8762.70 8641.05 93.61
703 7.9140 8745.75 8641.24 93.52
704 7.9224 8749.60 8641.39 93.54
705 7.9308 8754.06 8641.50 93.56
706 7.9392 8726.62 8641.57 93.42
707 7.9476 8749.52 8641.60 93.54
708 7.9560 8752.11 8641.58 93.55
709 7.9644 8730.46 8641.53 93.44
710 7.9728 8782.81 8641.43 93.72
711 7.9812 8751.15 8641.29 93.55
712 7.9896 8766.05 8641.11 93.63
713 7.9980 8771.52 8640.89 93.66
714 8.0064 8758.64 8640.62 93.59
715 8.0148 8781.31 8640.32 93.71
716 8.0232 8786.44 8639.13 93.74
717 8.0316 8764.70 8638.77 93.62
718 8.0400 8783.34 8638.36 93.72
719 8.0484 8776.77 8637.91 93.68
720 8.0568 8790.55 8660.76 93.76
721 8.0652 8801.02 8660.87 93.81
722 8.0736 8779.05 8660.97 93.70
723 8.0820 8810.51 8661.06 93.86
724 8.0904 8803.55 8661.14 93.83
725 8.0988 8812.81 8661.21 93.88
726 8.1072 8814.09 8661.27 93.88
727 8.1156 8824.39 8661.33 93.94
728 8.1240 8821.99 8661.38 93.93
729 8.1324 8844.76 8661.43 94.05
730 8.1408 8836.13 8661.49 94.00
731 8.1492 8855.44 8661.55 94.10
732 8.1576 8855.54 8661.62 94.10
733 8.1660 8854.90 8661.70 94.10
734 8.1744 8892.88 8661.80 94.30
735 8.1828 8882.82 8661.92 94.25
736 8.1912 8902.93 8662.06 94.36
737 8.1996 8925.34 8662.23 94.47
738 8.2080 8915.20 8662.43 94.42
739 8.2164 8935.14 8662.68 94.53
740 8.2248 8957.47 8662.97 94.64
741 8.2332 8922.32 8663.31 94.46
742 8.2416 8963.23 8663.72 94.67
743 8.2500 8929.75 8664.19 94.50
744 8.2584 8954.95 8664.73 94.63
745 8.2668 8959.26 8665.37 94.65
746 8.2752 8950.64 8666.10 94.61
747 8.2836 8960.99 8666.94 94.66
748 8.2920 8966.54 8667.90 94.69
749 8.3004 8942.84 8669.00 94.57
750 8.3088 8962.49 8670.26 94.67
751 8.3172 8965.22 8671.68 94.68
752 8.3256 8958.90 8673.30 94.65
753 8.3340 8982.24 8675.14 94.77
754 8.3424 8957.45 8677.21 94.64
755 8.3508 8976.33 8679.56 94.74
756 8.3592 8978.68 8682.21 94.76
757 8.3676 8965.85 8685.21 94.69
758 8.3760 8997.26 8688.58 94.85
759 8.3844 9004.75 8692.92 94.89
760 8.3928 8992.99 8697.24 94.83
761 8.4012 9032.09 8702.11 95.04
762 8.4096 9023.37 8707.61 94.99
763 8.4180 9046.67 8713.83 95.11
764 8.4264 9058.76 8720.87 95.18
765 8.4348 9054.47 8737.95 95.15
766 8.4432 9103.36 8747.25 95.41
767 8.4516 9098.57 8757.82 95.39
768 8.4600 9120.36 8769.84 95.50
769 8.4684 9154.35 8783.54 95.68
770 8.4768 9167.11 8799.23 95.75
771 8.4852 9206.34 8817.25 95.95
772 8.4936 9239.71 8838.01 96.12
773 8.5020 9271.71 8862.06 96.29
774 8.5104 9338.66 8890.07 96.64
775 8.5188 9393.22 8922.90 96.92
776 8.5272 9448.85 8961.78 97.21
777 8.5356 9537.24 9008.49 97.66
778 8.5440 9622.75 9065.94 98.10
779 8.5524 9718.33 9139.05 98.58
780 8.5608 9885.82 9236.37 99.43
781 8.5692 10032.80 9372.56 100.16
782 8.5776 10244.50 9573.78 101.21
783 8.5860 10560.20 9871.61 102.76
784 8.5944 10928.80 10318.10 104.54
785 8.6028 11465.00 10974.00 107.07
786 8.6112 12271.70 11901.10 110.78
787 8.6196 13213.80 13147.00 114.95
788 8.6280 14513.80 14721.50 120.47
789 8.6364 15986.10 16573.50 126.44
790 8.6448 17802.80 18564.50 133.43
791 8.6532 19501.10 20444.00 139.65
792 8.6616 20935.50 21895.40 144.69
793 8.6700 21482.30 22436.60 146.57
794 8.6784 20947.70 21933.70 144.73
795 8.6868 19560.70 20555.20 139.86
796 8.6952 17594.00 18684.40 132.64
797 8.7036 15547.40 16689.80 124.69
798 8.7120 13895.00 14826.80 117.88
799 8.7204 12567.60 13237.70 112.11
800 8.7288 11515.80 11976.80 107.31
801 8.7372 10818.10 11035.90 104.01
802 8.7456 10296.20 10369.10 101.47
803 8.7540 9950.46 9914.13 99.75
804 8.7624 9727.61 9610.34 98.63
805 8.7708 9536.98 9407.45 97.66
806 8.7792 9446.63 9268.76 97.19
807 8.7876 9359.76 9170.06 96.75
808 8.7960 9305.74 9096.46 96.47
809 8.8044 9270.18 9039.23 96.28
810 8.8128 9216.85 8993.42 96.00
811 8.8212 9201.99 8956.15 95.93
812 8.8296 9188.03 8925.66 95.85
813 8.8380 9139.69 8900.83 95.60
814 8.8464 9155.06 8880.88 95.68
815 8.8548 9139.03 8865.27 95.60
816 8.8632 9113.34 8853.62 95.46
817 8.8716 9132.39 8845.71 95.56
818 8.8800 9113.48 8841.45 95.46
819 8.8884 9130.27 8840.89 95.55
820 8.8968 9144.17 8869.20 95.63
821 8.9052 9151.36 8877.70 95.66
822 8.9136 9191.81 8891.53 95.87
823 8.9220 9224.07 8912.14 96.04
824 8.9304 9270.26 8941.76 96.28
825 8.9388 9346.62 8983.85 96.68
826 8.9472 9428.73 9045.60 97.10
827 8.9556 9561.67 9130.53 97.78
828 8.9640 9703.22 9251.22 98.50
829 8.9724 9880.57 9421.76 99.40
830 8.9808 10133.20 9659.41 100.66
831 8.9892 10440.60 9982.26 102.18
832 8.9976 10788.40 10405.00 103.87
833 9.0060 11232.00 10933.50 105.98
834 9.0144 11680.10 11561.00 108.07
835 9.0228 12236.60 12263.50 110.62
836 9.0312 12681.90 12989.60 112.61
837 9.0396 13084.30 13646.50 114.39
838 9.0480 13319.40 14100.00 115.41
839 9.0564 13256.80 14218.70 115.14
840 9.0648 13028.30 13959.90 114.14
841 9.0732 12577.70 13406.50 112.15
842 9.0816 12036.80 12704.10 109.71
843 9.0900 11567.10 11983.70 107.55
844 9.0984 11182.00 11333.10 105.75
845 9.1068 10849.10 10805.20 104.16
846 9.1152 10659.40 10411.60 103.25
847 9.1236 10523.50 10155.80 102.58
848 9.1320 10490.90 10026.50 102.43
849 9.1404 10540.60 10008.90 102.67
850 9.1488 10660.60 10089.60 103.25
851 9.1572 10872.30 10259.30 104.27
852 9.1656 11163.90 10513.30 105.66
853 9.1740 11508.00 10851.80 107.28
854 9.1824 11976.00 11280.50 109.43
855 9.1908 12564.80 11813.20 112.09
856 9.1992 13263.50 12477.70 115.17
857 9.2076 14108.50 13329.80 118.78
858 9.2160 15286.70 14470.90 123.64
859 9.2244 16634.80 16040.50 128.98
860 9.2328 18652.20 18172.10 136.57
861 9.2412 21044.30 20936.90 145.07
862 9.2496 24002.30 24291.20 154.93
863 9.2580 27597.50 28034.40 166.12
864 9.2664 31178.90 31759.20 176.57
865 9.2748 34566.50 34825.80 185.92
866 9.2832 36706.60 36466.00 191.59
867 9.2916 36934.50 36122.00 192.18
868 9.3000 34866.40 33928.30 186.73
869 9.3084 31125.20 30496.80 176.42
870 9.3168 26954.70 26579.40 164.18
871 9.3252 22595.20 22751.20 150.32
872 9.3336 19230.20 19363.30 138.67
873 9.3420 16349.70 16583.40 127.87
874 9.3504 14229.00 14442.70 119.29
875 9.3588 12612.90 12883.30 112.31
876 9.3672 11615.50 11799.40 107.78
877 9.3756 10831.30 11093.30 104.07
878 9.3840 10381.40 10619.60 101.89
879 9.3924 10077.50 10316.60 100.39
880 9.4008 9905.95 10128.10 99.53
881 9.4092 9833.22 10023.00 99.16
882 9.4176 9833.70 9983.18 99.17
883 9.4260 9909.57 10011.20 99.55
884 9.4344 10104.20 10122.00 100.52
885 9.4428 10332.10 10345.40 101.65
886 9.4512 10767.40 10725.00 103.77
887 9.4596 11330.20 11315.40 106.44
888 9.4680 12096.90 12174.30 109.99
889 9.4764 13085.30 13349.60 114.39
890 9.4848 14346.40 14853.70 119.78
891 9.4932 15866.80 16653.30 125.96
892 9.5016 17577.40 18637.80 132.58
893 9.5100 19380.40 20598.60 139.21
894 9.5184 20930.10 22213.20 144.67
895 9.5268 21956.60 23102.20 148.18
896 9.5352 22166.40 23014.20 148.88
897 9.5436 21458.40 22008.20 146.49
898 9.5520 20065.30 20401.10 141.65
899 9.5604 18282.50 18549.20 135.21
900 9.5688 16413.20 16710.00 128.11
901 9.5772 14686.80 15027.30 121.19
902 9.5856 13330.30 13568.30 115.46
903 9.5940 12076.00 12360.30 109.89
904 9.6024 11196.60 11402.80 105.81
905 9.6108 10529.10 10672.30 102.61
906 9.6192 9974.85 10130.90 99.87
907 9.6276 9645.50 9737.84 98.21
908 9.6360 9358.45 9457.42 96.74
909 9.6444 9181.48 9263.78 95.82
910 9.6528 9056.78 9138.14 95.17
911 9.6612 8965.45 9072.46 94.69
912 9.6696 8929.01 9058.60 94.49
913 9.6780 8932.69 9099.71 94.51
914 9.6864 8943.29 9190.29 94.57
915 9.6948 9026.22 9350.54 95.01
916 9.7032 9136.05 9569.12 95.58
917 9.7116 9257.70 9835.20 96.22
918 9.7200 9440.23 10125.50 97.16
919 9.7284 9577.68 10399.90 97.87
920 9.7368 9739.66 10601.60 98.69
921 9.7452 9810.72 10670.80 99.05
922 9.7536 9759.76 10578.40 98.79
923 9.7620 9650.31 10347.90 98.24
924 9.7704 9428.39 10036.90 97.10
925 9.7788 9192.43 9705.88 95.88
926 9.7872 8983.42 9390.04 94.78
927 9.7956 8757.81 9116.26 93.58
928 9.8040 8628.29 8894.97 92.89
929 9.8124 8511.71 8726.82 92.26
930 9.8208 8419.92 8606.32 91.76
931 9.8292 8369.35 8524.90 91.48
932 9.8376 8340.77 8471.24 91.33
933 9.8460 8337.79 8442.14 91.31
934 9.8544 8343.38 8429.45 91.34
935 9.8628 8355.38 8429.41 91.41
936 9.8712 8398.83 8440.11 91.65
937 9.8796 8450.39 8461.23 91.93
938 9.8880 8524.17 8493.96 92.33
939 9.8964 8626.04 8541.42 92.88
940 9.9048 8772.00 8609.51 93.66
941 9.9132 8947.72 8708.35 94.59
942 9.9216 9191.63 8807.25 95.87
943 9.9300 9492.51 9026.12 97.43
944 9.9384 9905.23 9350.51 99.53
945 9.9468 10409.20 9822.70 102.03
946 9.9552 11087.80 10488.40 105.30
947 9.9636 11846.90 11387.80 108.84
948 9.9720 12866.40 12542.70 113.43
949 9.9804 13920.80 13940.70 117.99
950 9.9888 15106.70 15518.40 122.91
951 9.9972 16311.20 17142.80 127.71
952 10.0056 17328.50 18593.80 131.64
953 10.0140 18082.60 19582.30 134.47
954 10.0224 18463.00 19856.90 135.88
955 10.0308 18328.50 19363.20 135.38
956 10.0392 17815.40 18278.10 133.47
957 10.0476 17004.10 16872.20 130.40
958 10.0560 15983.10 15378.70 126.42
959 10.0644 14873.10 13961.20 121.96
960 10.0728 13892.40 12726.40 117.87
961 10.0812 12946.60 11729.40 113.78
962 10.0896 12238.50 10976.70 110.63
963 10.0980 11635.30 10438.00 107.87
964 10.1064 11098.40 10058.90 105.35
965 10.1148 10705.80 9775.90 103.47
966 10.1232 10308.60 9533.89 101.53
967 10.1316 9960.59 9301.95 99.80
968 10.1400 9595.43 9074.72 97.96
969 10.1484 9297.42 8859.57 96.42
970 10.1568 9023.97 8664.95 94.99
971 10.1652 8811.26 8496.42 93.87
972 10.1736 8592.27 8332.23 92.69
973 10.1820 8468.67 8220.69 92.03
974 10.1904 8333.67 8134.92 91.29
975 10.1988 8251.18 8071.86 90.84
976 10.2072 8200.02 8028.56 90.55
977 10.2156 8124.71 8003.14 90.14
978 10.2240 8107.99 7993.40 90.04
979 10.2324 8091.36 8004.67 89.95
980 10.2408 8095.80 8037.81 89.98
981 10.2492 8121.42 8096.20 90.12
982 10.2576 8161.43 8182.47 90.34
983 10.2660 8221.64 8296.91 90.67
984 10.2744 8305.20 8438.43 91.13
985 10.2828 8389.33 8592.21 91.59
986 10.2912 8484.45 8743.41 92.11
987 10.2996 8561.79 8865.82 92.53
988 10.3080 8588.86 8929.23 92.68
989 10.3164 8596.80 8914.05 92.72
990 10.3248 8546.63 8825.93 92.45
991 10.3332 8484.74 8692.74 92.11
992 10.3416 8420.50 8548.05 91.76
993 10.3500 8366.84 8420.06 91.47
994 10.3584 8360.82 8329.23 91.44
995 10.3668 8395.51 8289.42 91.63
996 10.3752 8466.04 8308.62 92.01
997 10.3836 8590.01 8388.94 92.68
998 10.3920 8766.62 8522.05 93.63
999 10.4004 8963.07 8704.19 94.67
1000 10.4088 9184.17 8910.40 95.83
1001 10.4172 9360.24 9108.70 96.75
1002 10.4256 9504.84 9256.41 97.49
1003 10.4340 9513.63 9310.05 97.54
1004 10.4424 9438.70 9247.22 97.15
1005 10.4508 9235.03 9080.95 96.10
1006 10.4592 8962.99 8851.00 94.67
1007 10.4676 8700.47 8599.20 93.28
1008 10.4760 8458.65 8356.92 91.97
1009 10.4844 8199.56 8141.44 90.55
1010 10.4928 8037.47 7962.01 89.65
1011 10.5012 7880.17 7820.03 88.77
1012 10.5096 7757.21 7712.24 88.07
1013 10.5180 7677.40 7632.74 87.62
1014 10.5264 7597.90 7574.88 87.17
1015 10.5348 7539.59 7532.57 86.83
1016 10.5432 7504.47 7500.87 86.63
1017 10.5516 7459.30 7476.17 86.37
1018 10.5600 7435.12 7456.04 86.23
1019 10.5684 7399.67 7438.96 86.02
1020 10.5768 7379.71 7423.96 85.91
1021 10.5852 7373.25 7410.49 85.87
1022 10.5936 7340.16 7398.21 85.67
1023 10.6020 7333.86 7386.92 85.64
1024 10.6104 7309.47 7376.47 85.50
1025 10.6188 7297.20 7366.79 85.42
1026 10.6272 7293.08 7357.82 85.40
1027 10.6356 7290.16 7349.55 85.38
1028 10.6440 7277.48 7341.92 85.31
1029 10.6524 7267.67 7334.91 85.25
1030 10.6608 7268.27 7328.44 85.25
1031 10.6692 7267.71 7302.50 85.25
1032 10.6776 7267.68 7297.22 85.25
1033 10.6860 7251.74 7291.94 85.16
1034 10.6944 7244.44 7286.40 85.11
1035 10.7028 7224.63 7278.75 85.00
1036 10.7112 7217.40 7272.51 84.96
1037 10.7196 7208.57 7266.15 84.90
1038 10.7280 7175.29 7259.93 84.71
1039 10.7364 7165.20 7254.06 84.65
1040 10.7448 7143.43 7248.69 84.52
1041 10.7532 7135.32 7243.90 84.47
1042 10.7616 7118.01 7239.77 84.37
1043 10.7700 7106.93 7236.33 84.30
1044 10.7784 7090.51 7232.09 84.21
1045 10.7868 7085.75 7231.28 84.18
1046 10.7952 7068.65 7230.46 84.08
1047 10.8036 7073.21 7230.86 84.10
1048 10.8120 7057.64 7232.89 84.01
1049 10.8204 7073.16 7237.26 84.10
1050 10.8288 7065.97 7245.15 84.06
1051 10.8372 7060.54 7258.39 84.03
1052 10.8456 7075.96 7279.70 84.12
1053 10.8540 7100.74 7312.78 84.27
1054 10.8624 7124.07 7362.22 84.40
1055 10.8708 7172.31 7433.07 84.69
1056 10.8792 7251.31 7529.87 85.15
1057 10.8876 7344.49 7655.35 85.70
1058 10.8960 7460.39 7808.91 86.37
1059 10.9044 7590.33 7984.74 87.12
1060 10.9128 7757.42 8169.99 88.08
1061 10.9212 7901.55 8342.52 88.89
1062 10.9296 8013.19 8470.98 89.52
1063 10.9380 8086.82 8522.60 89.93
1064 10.9464 8068.99 8480.59 89.83
1065 10.9548 7991.14 8356.36 89.39
1066 10.9632 7873.14 8180.99 88.73
1067 10.9716 7714.41 7985.11 87.83
1068 10.9800 7589.63 7797.29 87.12
1069 10.9884 7458.01 7630.02 86.36
1070 10.9968 7356.11 7490.57 85.77
1071 11.0052 7285.82 7380.71 85.36
1072 11.0136 7197.83 7298.61 84.84
1073 11.0220 7158.64 7240.53 84.61
1074 11.0304 7131.05 7202.19 84.45
1075 11.0388 7103.87 7179.83 84.28
1076 11.0472 7098.19 7170.73 84.25
1077 11.0556 7103.89 7173.25 84.28
1078 11.0640 7132.63 7186.59 84.45
1079 11.0724 7168.00 7210.26 84.66
1080 11.0808 7196.82 7243.53 84.83
1081 11.0892 7263.10 7284.48 85.22
1082 11.0976 7318.94 7327.09 85.55
1083 11.1060 7368.24 7371.88 85.84
1084 11.1144 7439.30 7409.53 86.25
1085 11.1228 7475.45 7434.59 86.46
1086 11.1312 7507.11 7442.95 86.64
1087 11.1396 7504.31 7431.18 86.63
1088 11.1480 7452.66 7438.87 86.33
1089 11.1564 7402.42 7388.38 86.04
1090 11.1648 7280.01 7327.23 85.32
1091 11.1732 7184.84 7263.62 84.76
1092 11.1816 7070.97 7203.61 84.09
1093 11.1900 6983.21 7150.72 83.57
1094 11.1984 6916.61 7106.42 83.17
1095 11.2068 6871.90 7070.77 82.90
1096 11.2152 6828.02 7042.96 82.63
1097 11.2236 6799.74 7021.69 82.46
1098 11.2320 6778.95 7005.55 82.33
1099 11.2404 6759.27 6993.21 82.21
1100 11.2488 6755.67 6983.59 82.19
1101 11.2572 6733.86 6975.89 82.06
1102 11.2656 6737.04 6969.54 82.08
1103 11.2740 6717.90 6964.19 81.96
1104 11.2824 6721.72 6959.60 81.99
1105 11.2908 6729.30 6955.66 82.03
1106 11.2992 6714.24 6952.31 81.94
1107 11.3076 6725.93 6949.54 82.01
1108 11.3160 6716.30 6947.36 81.95
1109 11.3244 6718.35 6945.85 81.97
1110 11.3328 6717.97 6945.12 81.96
1111 11.3412 6726.23 6945.41 82.01
1112 11.3496 6726.72 6947.08 82.02
1113 11.3580 6742.86 6950.73 82.11
1114 11.3664 6743.24 6957.20 82.12
1115 11.3748 6771.90 6967.74 82.29
1116 11.3832 6809.63 6983.88 82.52
1117 11.3916 6806.18 7007.36 82.50
1118 11.4000 6842.95 7039.88 82.72
1119 11.4084 6884.34 7082.67 82.97
1120 11.4168 6922.85 7136.00 83.20
1121 11.4252 6987.55 7198.61 83.59
1122 11.4336 7039.76 7267.05 83.90
1123 11.4420 7109.63 7334.92 84.32
1124 11.4504 7161.15 7392.41 84.62
1125 11.4588 7198.32 7429.60 84.84
1126 11.4672 7216.91 7433.14 84.95
1127 11.4756 7202.66 7404.40 84.87
1128 11.4840 7185.80 7351.91 84.77
1129 11.4924 7145.46 7287.70 84.53
1130 11.5008 7093.28 7222.09 84.22
1131 11.5092 7061.93 7164.41 84.04
1132 11.5176 7024.99 7113.75 83.82
1133 11.5260 6999.78 7074.09 83.66
1134 11.5344 6988.93 7045.42 83.60
1135 11.5428 6980.26 7027.02 83.55
1136 11.5512 6980.49 7016.73 83.55
1137 11.5596 6980.29 7013.23 83.55
1138 11.5680 6992.92 7015.12 83.62
1139 11.5764 7009.59 7021.29 83.72
1140 11.5848 7030.10 7031.05 83.85
1141 11.5932 7048.46 7044.00 83.96
1142 11.6016 7077.99 7060.02 84.13
1143 11.6100 7105.73 7076.60 84.30
1144 11.6184 7152.60 7099.19 84.57
1145 11.6268 7203.27 7125.53 84.87
1146 11.6352 7251.63 7156.10 85.16
1147 11.6436 7319.98 7191.52 85.56
1148 11.6520 7400.37 7232.61 86.03
1149 11.6604 7476.44 7280.37 86.47
1150 11.6688 7591.10 7336.14 87.13
1151 11.6772 7693.70 7401.79 87.71
1152 11.6856 7870.60 7479.98 88.72
1153 11.6940 8027.13 7574.84 89.59
1154 11.7024 8264.85 7693.21 90.91
1155 11.7108 8556.31 7845.08 92.50
1156 11.7192 8872.99 8047.53 94.20
1157 11.7276 9315.86 8326.22 96.52
1158 11.7360 9857.75 8718.37 99.29
1159 11.7444 10542.90 9274.32 102.68
1160 11.7528 11349.60 10056.20 106.53
1161 11.7612 12520.60 11132.00 111.89
1162 11.7696 13700.40 12565.50 117.05
1163 11.7780 15499.60 14398.70 124.50
1164 11.7864 17158.20 16633.00 130.99
1165 11.7948 19237.50 19206.10 138.70
1166 11.8032 21353.80 21967.70 146.13
1167 11.8116 23295.50 24649.10 152.63
1168 11.8200 24965.10 26847.50 158.00
1169 11.8284 25956.00 28093.00 161.11
1170 11.8368 26044.40 28046.10 161.38
1171 11.8452 25237.20 26719.10 158.86
1172 11.8536 23771.80 24468.10 154.18
1173 11.8620 21806.70 21763.80 147.67
1174 11.8704 19405.50 19055.00 139.30
1175 11.8788 17333.30 16494.40 131.66
1176 11.8872 15194.60 14279.10 123.27
1177 11.8956 13504.90 12466.70 116.21
1178 11.9040 12156.60 11052.40 110.26
1179 11.9124 10967.80 9992.30 104.73
1180 11.9208 10142.50 9222.27 100.71
1181 11.9292 9429.33 8674.10 97.10
1182 11.9376 8903.18 8286.44 94.36
1183 11.9460 8500.07 8009.85 92.20
1184 11.9544 8180.21 7807.86 90.44
1185 11.9628 7942.79 7655.48 89.12
1186 11.9712 7752.89 7536.44 88.05
1187 11.9796 7590.79 7440.56 87.13
1188 11.9880 7483.52 7361.58 86.51
1189 11.9964 7378.59 7295.60 85.90
1190 12.0048 7294.79 7240.18 85.41
1191 12.0132 7244.00 7193.75 85.11
1192 12.0216 7190.69 7155.35 84.80
1193 12.0300 7157.32 7124.57 84.60
1194 12.0384 7137.86 7101.49 84.49
1195 12.0468 7119.36 7086.80 84.38
1196 12.0552 7119.96 7081.93 84.38
1197 12.0636 7142.44 7089.06 84.51
1198 12.0720 7152.55 7111.15 84.57
1199 12.0804 7188.20 7151.71 84.78
1200 12.0888 7241.00 7214.44 85.09
1201 12.0972 7305.73 7302.56 85.47
1202 12.1056 7404.37 7418.08 86.05
1203 12.1140 7515.78 7560.87 86.69
1204 12.1224 7657.16 7727.42 87.51
1205 12.1308 7829.70 7909.21 88.49
1206 12.1392 7985.72 8091.41 89.36
1207 12.1476 8164.94 8253.39 90.36
1208 12.1560 8302.86 8380.72 91.12
1209 12.1644 8450.92 8468.83 91.93
1210 12.1728 8544.33 8526.93 92.44
1211 12.1812 8626.69 8568.43 92.88
1212 12.1896 8657.87 8586.74 93.05
1213 12.1980 8657.10 8571.89 93.04
1214 12.2064 8594.08 8506.90 92.70
1215 12.2148 8480.00 8385.61 92.09
1216 12.2232 8341.12 8219.30 91.33
1217 12.2316 8160.01 8028.69 90.33
1218 12.2400 7975.91 7832.91 89.31
1219 12.2484 7815.12 7645.87 88.40
1220 12.2568 7647.20 7477.33 87.45
1221 12.2652 7493.25 7333.56 86.56
1222 12.2736 7377.19 7217.20 85.89
1223 12.2820 7265.73 7127.88 85.24
1224 12.2904 7178.26 7063.20 84.72
1225 12.2988 7125.45 7019.70 84.41
1226 12.3072 7064.95 6993.94 84.05
1227 12.3156 7039.18 6982.87 83.90
1228 12.3240 7034.61 6984.14 83.87
1229 12.3324 7017.64 6996.13 83.77
1230 12.3408 7016.49 7017.82 83.76
1231 12.3492 7029.52 7048.59 83.84
1232 12.3576 7035.90 7088.01 83.88
1233 12.3660 7071.74 7135.56 84.09
1234 12.3744 7090.90 7190.44 84.21
1235 12.3828 7132.40 7251.31 84.45
1236 12.3912 7165.57 7316.28 84.65
1237 12.3996 7218.31 7383.51 84.96
1238 12.4080 7288.37 7452.74 85.37
1239 12.4164 7349.77 7526.69 85.73
1240 12.4248 7454.21 7611.13 86.34
1241 12.4332 7563.93 7714.08 86.97
1242 12.4416 7713.11 7845.80 87.82
1243 12.4500 7889.53 8020.25 88.82
1244 12.4584 8139.04 8257.81 90.22
1245 12.4668 8435.54 8588.38 91.85
1246 12.4752 8898.12 9054.63 94.33
1247 12.4836 9461.08 9714.37 97.27
1248 12.4920 10252.80 10639.50 101.26
1249 12.5004 11414.40 11911.70 106.84
1250 12.5088 12695.20 13610.20 112.67
1251 12.5172 14685.90 15795.30 121.19
1252 12.5256 17060.40 18447.80 130.62
1253 12.5340 20148.10 21602.90 141.94
1254 12.5424 23563.10 25080.30 153.50
1255 12.5508 27441.70 28614.00 165.65
1256 12.5592 30939.30 31779.40 175.90
1257 12.5676 33708.30 34011.40 183.60
1258 12.5760 34960.40 34780.10 186.98
1259 12.5844 34371.90 33870.80 185.40
1260 12.5928 32213.80 31533.20 179.48
1261 12.6012 28645.50 28311.80 169.25
1262 12.6096 24536.00 24763.50 156.64
1263 12.6180 21058.80 21296.10 145.12
1264 12.6264 17677.60 18166.70 132.96
1265 12.6348 15087.80 15505.70 122.83
1266 12.6432 12985.60 13351.50 113.96
1267 12.6516 11414.20 11679.70 106.84
1268 12.6600 10209.10 10427.40 101.04
1269 12.6684 9365.16 9513.50 96.77
1270 12.6768 8725.20 8857.05 93.41
1271 12.6852 8271.95 8386.46 90.95
1272 12.6936 7956.66 8045.09 89.20
1273 12.7020 7685.97 7791.40 87.67
1274 12.7104 7509.51 7596.72 86.66
1275 12.7188 7346.39 7442.36 85.71
1276 12.7272 7232.23 7316.50 85.04
1277 12.7356 7126.83 7211.67 84.42
1278 12.7440 7048.00 7123.28 83.95
1279 12.7524 6996.01 7048.42 83.64
1280 12.7608 6944.11 6985.32 83.33
1281 12.7692 6892.04 6933.09 83.02
1282 12.7776 6860.26 6891.63 82.83
1283 12.7860 6834.67 6861.72 82.67
1284 12.7944 6819.23 6845.07 82.58
1285 12.8028 6814.96 6844.42 82.55
1286 12.8112 6827.69 6863.36 82.63
1287 12.8196 6844.22 6905.99 82.73
1288 12.8280 6893.59 6976.25 83.03
1289 12.8364 6964.88 7076.87 83.46
1290 12.8448 7063.74 7208.20 84.05
1291 12.8532 7184.00 7364.81 84.76
1292 12.8616 7322.10 7541.89 85.57
1293 12.8700 7469.09 7721.29 86.42
1294 12.8784 7578.07 7877.93 87.05
1295 12.8868 7643.07 7979.78 87.42
1296 12.8952 7654.28 7998.60 87.49
1297 12.9036 7586.57 7923.43 87.10
1298 12.9120 7469.80 7768.38 86.43
1299 12.9204 7312.51 7569.17 85.51
1300 12.9288 7153.69 7354.08 84.58
1301 12.9372 6997.38 7145.56 83.65
1302 12.9456 6873.35 6957.23 82.91
1303 12.9540 6748.80 6796.69 82.15
1304 12.9624 6658.64 6665.58 81.60
1305 12.9708 6590.53 6562.40 81.18
1306 12.9792 6535.05 6483.45 80.84
1307 12.9876 6484.02 6428.52 80.52
1308 12.9960 6451.90 6383.65 80.32
1309 13.0044 6423.46 6348.90 80.15
1310 13.0128 6392.39 6320.85 79.95
1311 13.0212 6375.31 6297.20 79.85
1312 13.0296 6348.63 6276.62 79.68
1313 13.0380 6335.70 6258.42 79.60
1314 13.0464 6330.85 6242.21 79.57
1315 13.0548 6304.56 6240.14 79.40
1316 13.0632 6304.03 6227.56 79.40
1317 13.0716 6302.29 6216.46 79.39
1318 13.0800 6300.59 6206.70 79.38
1319 13.0884 6302.21 6198.19 79.39
1320 13.0968 6309.24 6190.82 79.43
1321 13.1052 6324.87 6184.53 79.53
1322 13.1136 6333.20 6178.98 79.58
1323 13.1220 6341.96 6174.73 79.64
1324 13.1304 6366.11 6171.53 79.79
1325 13.1388 6369.22 6169.47 79.81
1326 13.1472 6398.94 6168.74 79.99
1327 13.1556 6420.74 6169.63 80.13
1328 13.1640 6454.18 6172.63 80.34
1329 13.1724 6487.92 6178.50 80.55
1330 13.1808 6522.88 6188.31 80.76
1331 13.1892 6568.07 6203.61 81.04
1332 13.1976 6639.10 6226.42 81.48
1333 13.2060 6717.65 6274.53 81.96
1334 13.2144 6816.25 6320.46 82.56
1335 13.2228 6942.41 6382.06 83.32
1336 13.2312 7104.73 6461.91 84.29
1337 13.2396 7325.85 6561.76 85.59
1338 13.2480 7524.77 6681.84 86.75
1339 13.2564 7793.09 6819.92 88.28
1340 13.2648 8039.88 6970.06 89.67
1341 13.2732 8289.94 7121.56 91.05
1342 13.2816 8449.86 7260.21 91.92
1343 13.2900 8511.74 7319.98 92.26
1344 13.2984 8451.95 7403.23 91.93
1345 13.3068 8290.12 7456.83 91.05
1346 13.3152 8047.74 7481.74 89.71
1347 13.3236 7768.45 7472.41 88.14
1348 13.3320 7494.23 7418.96 86.57
1349 13.3404 7260.50 7316.69 85.21
1350 13.3488 7029.93 7173.60 83.84
1351 13.3572 6837.95 7007.59 82.69
1352 13.3656 6682.51 6837.63 81.75
1353 13.3740 6535.65 6677.76 80.84
1354 13.3824 6443.03 6536.26 80.27
1355 13.3908 6341.88 6416.81 79.64
1356 13.3992 6279.11 6319.94 79.24
1357 13.4076 6235.50 6244.13 78.97
1358 13.4160 6204.15 6186.68 78.77
1359 13.4244 6192.28 6144.32 78.69
1360 13.4328 6180.27 6114.11 78.61
1361 13.4412 6176.39 6092.55 78.59
1362 13.4496 6190.47 6077.58 78.68
1363 13.4580 6197.65 6067.42 78.73
1364 13.4664 6222.11 6060.82 78.88
1365 13.4748 6240.54 6056.92 79.00
1366 13.4832 6239.60 6055.21 78.99
1367 13.4916 6248.99 6055.40 79.05
1368 13.5000 6244.70 6057.44 79.02
1369 13.5084 6222.72 6061.49 78.88
1370 13.5168 6214.16 6067.88 78.83
1371 13.5252 6192.30 6080.87 78.69
1372 13.5336 6190.35 6093.71 78.68
1373 13.5420 6188.77 6111.31 78.67
1374 13.5504 6188.15 6133.84 78.66
1375 13.5588 6203.34 6162.97 78.76
1376 13.5672 6228.18 6199.17 78.92
1377 13.5756 6265.07 6243.47 79.15
1378 13.5840 6307.36 6298.91 79.42
1379 13.5924 6356.74 6360.63 79.73
1380 13.6008 6422.06 6430.71 80.14
1381 13.6092 6496.70 6508.20 80.60
1382 13.6176 6555.04 6588.64 80.96
1383 13.6260 6621.10 6677.77 81.37
1384 13.6344 6692.91 6787.42 81.81
1385 13.6428 6773.19 6900.93 82.30
1386 13.6512 6873.00 7041.76 82.90
1387 13.6596 6997.04 7221.69 83.65
1388 13.6680 7147.92 7449.80 84.55
1389 13.6764 7325.28 7730.83 85.59
1390 13.6848 7559.82 8063.86 86.95
1391 13.6932 7837.43 8440.78 88.53
1392 13.7016 8139.51 8844.53 90.22
1393 13.7100 8512.06 9249.55 92.26
1394 13.7184 8933.74 9630.67 94.52
1395 13.7268 9407.37 9980.44 96.99
1396 13.7352 9961.02 10319.20 99.80
1397 13.7436 10627.80 10684.50 103.09
1398 13.7520 11362.40 11106.00 106.60
1399 13.7604 12214.50 11586.60 110.52
1400 13.7688 13008.30 12093.00 114.05
1401 13.7772 13725.20 12551.10 117.15
1402 13.7856 14161.00 12854.90 119.00
1403 13.7940 14171.70 12900.90 119.04
1404 13.8024 13811.30 12643.70 117.52
1405 13.8108 13106.70 12125.80 114.49
1406 13.8192 12159.80 11450.40 110.27
1407 13.8276 11228.50 10728.90 105.96
1408 13.8360 10365.60 10050.40 101.81
1409 13.8444 9675.16 9477.58 98.36
1410 13.8528 9124.26 9052.28 95.52
1411 13.8612 8797.93 8801.69 93.80
1412 13.8696 8642.65 8742.32 92.97
1413 13.8780 8663.95 8881.59 93.08
1414 13.8864 8882.09 9218.15 94.24
1415 13.8948 9271.85 9740.28 96.29
1416 13.9032 9856.49 10423.10 99.28
1417 13.9116 10661.70 11223.40 103.26
1418 13.9200 11539.50 12072.40 107.42
1419 13.9284 12591.10 12868.30 112.21
1420 13.9368 13506.70 13476.60 116.22
1421 13.9452 14167.60 13758.40 119.03
1422 13.9536 14419.20 13631.90 120.08
1423 13.9620 14117.60 13120.60 118.82
1424 13.9704 13279.50 12337.00 115.24
1425 13.9788 12177.40 11419.10 110.35
1426 13.9872 10979.70 10482.10 104.78
1427 13.9956 9866.51 9603.29 99.33
1428 14.0040 8906.62 8850.25 94.37
1429 14.0124 8171.24 8198.69 90.39
1430 14.0208 7558.49 7671.10 86.94
1431 14.0292 7137.62 7261.30 84.48
1432 14.0376 6785.88 6951.42 82.38
1433 14.0460 6551.88 6722.23 80.94
1434 14.0544 6381.45 6555.13 79.88
1435 14.0628 6248.00 6431.98 79.04
1436 14.0712 6165.86 6344.18 78.52
1437 14.0796 6089.33 6280.36 78.03
1438 14.0880 6029.61 6234.17 77.65
1439 14.0964 5995.03 6201.58 77.43
1440 14.1048 5955.07 6180.13 77.17
1441 14.1132 5939.62 6168.42 77.07
1442 14.1216 5935.51 6166.04 77.04
1443 14.1300 5919.06 6171.74 76.94
1444 14.1384 5928.20 6185.54 76.99
1445 14.1468 5948.25 6207.10 77.12
1446 14.1552 5970.28 6236.04 77.27
1447 14.1636 6006.86 6272.08 77.50
1448 14.1720 6052.74 6315.60 77.80
1449 14.1804 6115.98 6368.80 78.20
1450 14.1888 6211.28 6436.69 78.81
1451 14.1972 6306.21 6526.72 79.41
1452 14.2056 6448.42 6647.13 80.30
1453 14.2140 6611.20 6806.01 81.31
1454 14.2224 6814.49 7005.94 82.55
1455 14.2308 7037.76 7248.84 83.89
1456 14.2392 7283.39 7530.57 85.34
1457 14.2476 7573.86 7840.35 87.03
1458 14.2560 7848.82 8158.73 88.59
1459 14.2644 8125.56 8460.83 90.14
1460 14.2728 8405.95 8716.37 91.68
1461 14.2812 8629.25 8915.81 92.89
1462 14.2896 8859.54 9072.18 94.13
1463 14.2980 9108.86 9217.12 95.44
1464 14.3064 9356.14 9385.35 96.73
1465 14.3148 9628.00 9602.10 98.12
1466 14.3232 9941.17 9883.81 99.71
1467 14.3316 10296.30 10219.50 101.47
1468 14.3400 10708.30 10609.10 103.48
1469 14.3484 11153.70 11045.20 105.61
1470 14.3568 11616.00 11509.70 107.78
1471 14.3652 12029.30 11959.00 109.68
1472 14.3736 12336.30 12315.40 111.07
1473 14.3820 12476.20 12480.90 111.70
1474 14.3904 12402.30 12373.70 111.37
1475 14.3988 12051.30 11978.50 109.78
1476 14.4072 11524.80 11356.00 107.35
1477 14.4156 10867.80 10606.10 104.25
1478 14.4240 10143.70 9823.02 100.72
1479 14.4324 9435.05 9075.32 97.13
1480 14.4408 8786.59 8404.21 93.74
1481 14.4492 8192.24 7830.27 90.51
1482 14.4576 7713.53 7359.39 87.83
1483 14.4660 7308.63 6982.22 85.49
1484 14.4744 6967.83 6696.45 83.47
1485 14.4828 6706.90 6482.72 81.90
1486 14.4912 6490.08 6325.52 80.56
1487 14.4996 6314.88 6210.64 79.47
1488 14.5080 6182.12 6126.15 78.63
1489 14.5164 6074.70 6063.08 77.94
1490 14.5248 5991.27 6015.32 77.40
1491 14.5332 5932.99 5978.96 77.03
1492 14.5416 5888.52 5939.58 76.74
1493 14.5500 5853.23 5920.63 76.51
1494 14.5584 5818.98 5908.17 76.28
1495 14.5668 5818.96 5902.19 76.28
1496 14.5752 5815.69 5909.46 76.26
1497 14.5836 5819.66 5916.46 76.29
1498 14.5920 5834.87 5930.32 76.39
1499 14.6004 5859.78 5951.74 76.55
1500 14.6088 5893.46 5981.96 76.77
1501 14.6172 5944.50 6023.02 77.10
1502 14.6256 6006.39 6078.13 77.50
1503 14.6340 6087.28 6152.38 78.02
1504 14.6424 6193.44 6253.38 78.70
1505 14.6508 6334.42 6392.20 79.59
1506 14.6592 6514.25 6585.12 80.71
1507 14.6676 6743.83 6849.35 82.12
1508 14.6760 7042.39 7209.53 83.92
1509 14.6844 7470.15 7691.12 86.43
1510 14.6928 7981.41 8318.41 89.34
1511 14.7012 8712.64 9095.28 93.34
1512 14.7096 9623.62 10059.10 98.10
1513 14.7180 10754.40 11183.50 103.70
1514 14.7264 12188.30 12431.70 110.40
1515 14.7348 13737.60 13731.40 117.21
1516 14.7432 15413.50 14964.40 124.15
1517 14.7516 16939.20 15963.40 130.15
1518 14.7600 18007.10 16542.30 134.19
1519 14.7684 18456.00 16567.30 135.85
1520 14.7768 18106.90 16031.80 134.56
1521 14.7852 16984.60 15061.20 130.32
1522 14.7936 15364.50 13840.60 123.95
1523 14.8020 13617.70 12541.10 116.69
1524 14.8104 11908.00 11286.10 109.12
1525 14.8188 10486.10 10152.10 102.40
1526 14.8272 9317.67 9179.87 96.53
1527 14.8356 8388.20 8382.41 91.59
1528 14.8440 7738.37 7753.93 87.97
1529 14.8524 7223.71 7276.61 84.99
1530 14.8608 6862.15 6925.52 82.84
1531 14.8692 6605.13 6673.76 81.27
1532 14.8776 6421.65 6495.86 80.14
1533 14.8860 6302.65 6369.86 79.39
1534 14.8944 6197.65 6279.02 78.73
1535 14.9028 6135.36 6213.30 78.33
1536 14.9112 6097.46 6168.44 78.09
1537 14.9196 6068.01 6143.83 77.90
1538 14.9280 6058.30 6140.02 77.84
1539 14.9364 6079.14 6158.44 77.97
1540 14.9448 6091.45 6198.79 78.05
1541 14.9532 6130.13 6259.61 78.30
1542 14.9616 6171.25 6337.43 78.56
1543 14.9700 6231.42 6426.94 78.94
1544 14.9784 6294.16 6522.82 79.34
1545 14.9868 6355.24 6622.96 79.72
1546 14.9952 6439.83 6730.04 80.25
1547 15.0036 6546.36 6849.32 80.91
1548 15.0120 6662.76 6986.81 81.63
1549 15.0204 6834.17 7134.45 82.67
1550 15.0288 7004.41 7284.26 83.69
1551 15.0372 7199.06 7436.94 84.85
1552 15.0456 7409.71 7587.72 86.08
1553 15.0540 7602.33 7741.36 87.19
1554 15.0624 7803.65 7898.29 88.34
1555 15.0708 7954.58 8049.86 89.19
1556 15.0792 8060.15 8172.19 89.78
1557 15.0876 8085.32 8228.81 89.92
1558 15.0960 8033.00 8182.67 89.63
1559 15.1044 7893.97 8025.07 88.85
1560 15.1128 7667.37 7770.21 87.56
1561 15.1212 7407.18 7454.90 86.07
1562 15.1296 7108.11 7118.38 84.31
1563 15.1380 6813.89 6790.83 82.55
1564 15.1464 6563.06 6481.86 81.01
1565 15.1548 6323.00 6222.19 79.52
1566 15.1632 6135.98 6005.65 78.33
1567 15.1716 5980.02 5831.95 77.33
1568 15.1800 5846.55 5697.71 76.46
1569 15.1884 5755.65 5598.00 75.87
1570 15.1968 5673.98 5527.48 75.33
1571 15.2052 5616.80 5481.32 74.95
1572 15.2136 5580.48 5455.89 74.70
1573 15.2220 5566.36 5449.26 74.61
1574 15.2304 5559.34 5461.40 74.56
1575 15.2388 5572.62 5494.26 74.65
1576 15.2472 5601.45 5551.66 74.84
1577 15.2556 5652.42 5639.07 75.18
1578 15.2640 5728.98 5762.96 75.69
1579 15.2724 5851.49 5929.96 76.50
1580 15.2808 5991.30 6145.64 77.40
1581 15.2892 6199.05 6412.77 78.73
1582 15.2976 6448.08 6729.69 80.30
1583 15.3060 6742.83 7087.95 82.11
1584 15.3144 7069.75 7470.49 84.08
1585 15.3228 7398.27 7853.75 86.01
1586 15.3312 7700.72 8188.95 87.75
1587 15.3396 7915.64 8431.26 88.97
1588 15.3480 8006.80 8534.19 89.48
1589 15.3564 7934.48 8475.31 89.08
1590 15.3648 7737.70 8270.40 87.96
1591 15.3732 7459.96 7965.90 86.37
1592 15.3816 7145.41 7616.15 84.53
1593 15.3900 6867.18 7265.96 82.87
1594 15.3984 6638.85 6945.19 81.48
1595 15.4068 6474.20 6669.44 80.46
1596 15.4152 6347.29 6442.93 79.67
1597 15.4236 6266.81 6260.81 79.16
1598 15.4320 6196.07 6114.35 78.72
1599 15.4404 6126.44 5983.15 78.27
1600 15.4488 6035.65 5858.51 77.69
1601 15.4572 5931.14 5735.25 77.01
1602 15.4656 5812.12 5619.04 76.24
1603 15.4740 5666.08 5504.39 75.27
1604 15.4824 5538.36 5398.39 74.42
1605 15.4908 5417.53 5303.55 73.60
1606 15.4992 5297.36 5223.35 72.78
1607 15.5076 5214.26 5152.86 72.21
1608 15.5160 5119.84 5093.91 71.55
1609 15.5244 5062.20 5045.42 71.15
1610 15.5328 5004.23 4983.88 70.74
1611 15.5412 4953.64 4952.61 70.38
1612 15.5496 4916.17 4927.30 70.12
1613 15.5580 4879.33 4907.19 69.85
1614 15.5664 4850.51 4891.05 69.65
1615 15.5748 4835.18 4878.11 69.54
1616 15.5832 4810.95 4867.85 69.36
1617 15.5916 4794.42 4859.94 69.24
1618 15.6000 4783.55 4854.16 69.16
1619 15.6084 4766.81 4850.42 69.04
1620 15.6168 4761.39 4848.63 69.00
1621 15.6252 4749.29 4848.74 68.92
1622 15.6336 4759.84 4850.68 68.99
1623 15.6420 4757.59 4854.35 68.98
1624 15.6504 4754.62 4859.59 68.95
1625 15.6588 4770.83 4866.31 69.07
1626 15.6672 4778.96 4874.25 69.13
1627 15.6756 4803.41 4894.24 69.31
1628 15.6840 4813.24 4908.75 69.38
1629 15.6924 4832.10 4930.97 69.51
1630 15.7008 4879.85 4960.85 69.86
1631 15.7092 4905.99 5003.38 70.04
1632 15.7176 4976.80 5065.19 70.55
1633 15.7260 5032.42 5143.59 70.94
1634 15.7344 5113.00 5244.28 71.51
1635 15.7428 5212.68 5368.78 72.20
1636 15.7512 5320.04 5516.63 72.94
1637 15.7596 5449.28 5683.70 73.82
1638 15.7680 5572.11 5864.89 74.65
1639 15.7764 5705.09 6046.82 75.53
1640 15.7848 5824.27 6211.83 76.32
1641 15.7932 5901.79 6338.13 76.82
1642 15.8016 5956.95 6408.86 77.18
1643 15.8100 5970.48 6416.99 77.27
1644 15.8184 5954.17 6374.90 77.16
1645 15.8268 5920.60 6295.60 76.95
1646 15.8352 5857.81 6192.60 76.54
1647 15.8436 5805.17 6075.70 76.19
1648 15.8520 5745.87 5953.61 75.80
1649 15.8604 5697.66 5837.04 75.48
1650 15.8688 5672.23 5736.74 75.31
1651 15.8772 5684.30 5657.43 75.39
1652 15.8856 5703.15 5615.35 75.52
1653 15.8940 5762.51 5606.66 75.91
1654 15.9024 5839.34 5628.74 76.42
1655 15.9108 5946.73 5675.01 77.12
1656 15.9192 6044.83 5734.71 77.75
1657 15.9276 6138.40 5792.79 78.35
1658 15.9360 6191.68 5831.41 78.69
1659 15.9444 6198.01 5834.65 78.73
1660 15.9528 6164.23 5795.14 78.51
1661 15.9612 6074.42 5717.51 77.94
1662 15.9696 5951.32 5614.94 77.14
1663 15.9780 5803.75 5504.35 76.18
1664 15.9864 5660.48 5395.41 75.24
1665 15.9948 5535.97 5299.09 74.40
1666 16.0032 5419.22 5226.64 73.62
1667 16.0116 5336.04 5173.41 73.05
1668 16.0200 5275.63 5147.44 72.63
1669 16.0284 5249.65 5151.54 72.45
1670 16.0368 5249.87 5188.17 72.46
1671 16.0452 5272.91 5259.47 72.61
1672 16.0536 5333.56 5367.05 73.03
1673 16.0620 5406.80 5511.35 73.53
1674 16.0704 5518.04 5691.05 74.28
1675 16.0788 5651.62 5902.03 75.18
1676 16.0872 5812.40 6135.99 76.24
1677 16.0956 5987.05 6379.11 77.38
1678 16.1040 6164.70 6613.02 78.52
1679 16.1124 6334.17 6804.44 79.59
1680 16.1208 6486.11 6928.43 80.54
1681 16.1292 6592.45 6967.63 81.19
1682 16.1376 6667.47 6920.63 81.65
1683 16.1460 6699.67 6827.68 81.85
1684 16.1544 6718.85 6718.48 81.97
1685 16.1628 6760.65 6627.96 82.22
1686 16.1712 6787.13 6583.64 82.38
1687 16.1796 6901.75 6604.97 83.08
1688 16.1880 7052.65 6703.75 83.98
1689 16.1964 7264.07 6884.33 85.23
1690 16.2048 7550.61 7142.89 86.89
1691 16.2132 7858.15 7466.02 88.65
1692 16.2216 8181.78 7829.92 90.45
1693 16.2300 8484.04 8200.26 92.11
1694 16.2384 8750.48 8541.59 93.54
1695 16.2468 8944.60 8817.64 94.58
1696 16.2552 9017.48 9000.03 94.96
1697 16.2636 9040.73 9068.81 95.08
1698 16.2720 8943.80 9016.79 94.57
1699 16.2804 8774.59 8853.78 93.67
1700 16.2888 8561.20 8602.09 92.53
1701 16.2972 8245.49 8286.08 90.80
1702 16.3056 7952.81 7926.13 89.18
1703 16.3140 7602.24 7541.42 87.19
1704 16.3224 7262.01 7153.96 85.22
1705 16.3308 6970.76 6786.47 83.49
1706 16.3392 6673.16 6457.96 81.69
1707 16.3476 6463.79 6181.36 80.40
1708 16.3560 6299.37 5963.75 79.37
1709 16.3644 6200.91 5808.72 78.75
1710 16.3728 6153.73 5718.54 78.45
1711 16.3812 6155.86 5695.49 78.46
1712 16.3896 6207.77 5742.90 78.79
1713 16.3980 6320.49 5865.32 79.50
1714 16.4064 6492.52 6067.92 80.58
1715 16.4148 6722.88 6355.56 81.99
1716 16.4232 6982.06 6731.08 83.56
1717 16.4316 7332.33 7192.90 85.63
1718 16.4400 7726.06 7732.64 87.90
1719 16.4484 8134.84 8331.48 90.19
1720 16.4568 8595.88 8955.37 92.71
1721 16.4652 8982.79 9552.36 94.78
1722 16.4736 9377.15 10060.70 96.84
1723 16.4820 9635.63 10401.60 98.16
1724 16.4904 9814.06 10537.40 99.07
1725 16.4988 9860.33 10465.30 99.30
1726 16.5072 9717.44 10214.90 98.58
1727 16.5156 9477.14 9827.70 97.35
1728 16.5240 9084.95 9342.60 95.32
1729 16.5324 8629.23 8795.67 92.89
1730 16.5408 8134.73 8221.87 90.19
1731 16.5492 7607.42 7657.16 87.22
1732 16.5576 7129.08 7131.69 84.43
1733 16.5660 6702.55 6665.17 81.87
1734 16.5744 6335.10 6266.42 79.59
1735 16.5828 6033.47 5935.68 77.68
1736 16.5912 5760.17 5667.25 75.90
1737 16.5996 5576.83 5452.36 74.68
1738 16.6080 5404.69 5283.13 73.52
1739 16.6164 5278.43 5151.50 72.65
1740 16.6248 5192.81 5051.00 72.06
1741 16.6332 5112.15 4976.07 71.50
1742 16.6416 5065.70 4920.62 71.17
1743 16.6500 5029.35 4882.13 70.92
1744 16.6584 4990.42 4855.16 70.64
1745 16.6668 4985.08 4835.95 70.61
1746 16.6752 4956.78 4822.03 70.40
1747 16.6836 4952.28 4813.14 70.37
1748 16.6920 4942.30 4811.62 70.30
1749 16.7004 4948.41 4821.82 70.34
1750 16.7088 4985.54 4849.19 70.61
1751 16.7172 5016.37 4899.57 70.83
1752 16.7256 5082.66 4982.06 71.29
1753 16.7340 5168.11 5095.53 71.89
1754 16.7424 5282.03 5247.44 72.68
1755 16.7508 5433.89 5438.12 73.71
1756 16.7592 5618.06 5671.25 74.95
1757 16.7676 5832.81 5939.86 76.37
1758 16.7760 6067.25 6233.15 77.89
1759 16.7844 6305.15 6533.31 79.40
1760 16.7928 6546.92 6815.02 80.91
1761 16.8012 6743.47 7047.41 82.12
1762 16.8096 6871.67 7199.61 82.90
1763 16.8180 6924.75 7248.16 83.22
1764 16.8264 6898.68 7186.43 83.06
1765 16.8348 6807.77 7029.73 82.51
1766 16.8432 6642.27 6812.85 81.50
1767 16.8516 6466.66 6569.97 80.42
1768 16.8600 6306.27 6335.86 79.41
1769 16.8684 6148.35 6133.51 78.41
1770 16.8768 6057.99 5974.96 77.83
1771 16.8852 6008.92 5864.12 77.52
1772 16.8936 6012.44 5796.84 77.54
1773 16.9020 6060.81 5761.79 77.85
1774 16.9104 6136.67 5741.20 78.34
1775 16.9188 6207.88 5713.66 78.79
1776 16.9272 6237.63 5659.85 78.98
1777 16.9356 6224.58 5565.48 78.90
1778 16.9440 6109.01 5441.43 78.16
1779 16.9524 5939.44 5294.55 77.07
1780 16.9608 5708.26 5138.37 75.55
1781 16.9692 5467.06 4984.18 73.94
1782 16.9776 5239.22 4839.81 72.38
1783 16.9860 5036.28 4710.09 70.97
1784 16.9944 4859.39 4597.44 69.71
1785 17.0028 4735.37 4502.44 68.81
1786 17.0112 4629.86 4424.40 68.04
1787 17.0196 4546.57 4361.65 67.43
1788 17.0280 4485.26 4312.06 66.97
1789 17.0364 4443.34 4273.39 66.66
1790 17.0448 4402.70 4240.43 66.35
1791 17.0532 4369.58 4217.39 66.10
1792 17.0616 4356.17 4199.66 66.00
1793 17.0700 4333.45 4186.05 65.83
1794 17.0784 4322.05 4171.01 65.74
1795 17.0868 4307.08 4162.94 65.63
1796 17.0952 4298.45 4157.60 65.56
1797 17.1036 4303.85 4154.31 65.60
1798 17.1120 4293.26 4152.96 65.52
1799 17.1204 4290.92 4151.13 65.51
1800 17.1288 4288.25 4153.85 65.48
1801 17.1372 4293.86 4158.92 65.53
1802 17.1456 4308.42 4166.74 65.64
1803 17.1540 4309.95 4177.99 65.65
1804 17.1624 4322.62 4193.68 65.75
1805 17.1708 4347.64 4215.67 65.94
1806 17.1792 4355.89 4245.17 66.00
1807 17.1876 4403.68 4285.26 66.36
1808 17.1960 4433.25 4339.30 66.58
1809 17.2044 4488.05 4411.81 66.99
1810 17.2128 4548.67 4506.20 67.44
1811 17.2212 4613.46 4627.99 67.92
1812 17.2296 4725.34 4779.59 68.74
1813 17.2380 4853.01 4964.09 69.66
1814 17.2464 5025.76 5181.54 70.89
1815 17.2548 5238.09 5428.76 72.37
1816 17.2632 5477.59 5698.03 74.01
1817 17.2716 5772.87 5975.23 75.98
1818 17.2800 6073.92 6238.68 77.94
1819 17.2884 6378.31 6458.41 79.86
1820 17.2968 6622.61 6601.91 81.38
1821 17.3052 6751.19 6638.08 82.17
1822 17.3136 6760.52 6576.63 82.22
1823 17.3220 6606.04 6428.34 81.28
1824 17.3304 6361.10 6229.33 79.76
1825 17.3388 6060.89 6011.55 77.85
1826 17.3472 5765.96 5798.56 75.93
1827 17.3556 5509.55 5614.26 74.23
1828 17.3640 5302.13 5465.89 72.82
1829 17.3724 5159.45 5358.25 71.83
1830 17.3808 5064.63 5292.28 71.17
1831 17.3892 5021.77 5265.86 70.86
1832 17.3976 5010.52 5273.79 70.79
1833 17.4060 5003.21 5307.21 70.73
1834 17.4144 5022.26 5353.24 70.87
1835 17.4228 5027.12 5395.27 70.90
1836 17.4312 5020.70 5416.72 70.86
1837 17.4396 4999.08 5407.85 70.70
1838 17.4480 4949.75 5360.90 70.35
1839 17.4564 4907.91 5287.48 70.06
1840 17.4648 4852.67 5202.87 69.66
1841 17.4732 4813.21 5123.05 69.38
1842 17.4816 4790.69 5061.19 69.21
1843 17.4900 4779.36 5026.59 69.13
1844 17.4984 4810.41 5024.57 69.36
1845 17.5068 4852.30 5058.87 69.66
1846 17.5152 4924.65 5126.14 70.18
1847 17.5236 5015.36 5222.28 70.82
1848 17.5320 5126.29 5338.19 71.60
1849 17.5404 5249.58 5459.90 72.45
1850 17.5488 5347.80 5568.75 73.13
1851 17.5572 5433.54 5643.78 73.71
1852 17.5656 5460.64 5667.66 73.90
1853 17.5740 5454.02 5634.21 73.85
1854 17.5824 5399.95 5551.47 73.48
1855 17.5908 5287.58 5437.67 72.72
1856 17.5992 5182.49 5313.61 71.99
1857 17.6076 5067.10 5197.26 71.18
1858 17.6160 4974.65 5101.37 70.53
1859 17.6244 4917.64 5031.91 70.13
1860 17.6328 4873.89 4995.75 69.81
1861 17.6412 4873.85 4990.79 69.81
1862 17.6496 4895.24 5008.35 69.97
1863 17.6580 4941.23 5049.88 70.29
1864 17.6664 4978.59 5099.32 70.56
1865 17.6748 4996.63 5142.12 70.69
1866 17.6832 5017.12 5162.85 70.83
1867 17.6916 4978.50 5149.55 70.56
1868 17.7000 4929.89 5098.09 70.21
1869 17.7084 4855.65 5012.92 69.68
1870 17.7168 4745.93 4904.08 68.89
1871 17.7252 4649.10 4782.64 68.18
1872 17.7336 4549.32 4658.76 67.45
1873 17.7420 4445.40 4540.05 66.67
1874 17.7504 4372.75 4431.63 66.13
1875 17.7588 4309.40 4334.08 65.65
1876 17.7672 4242.89 4252.99 65.14
1877 17.7756 4198.26 4185.86 64.79
1878 17.7840 4165.73 4133.09 64.54
1879 17.7924 4131.29 4090.16 64.28
1880 17.8008 4104.68 4056.68 64.07
1881 17.8092 4091.11 4030.95 63.96
1882 17.8176 4072.12 4011.33 63.81
1883 17.8260 4060.19 3996.44 63.72
1884 17.8344 4053.13 3985.20 63.66
1885 17.8428 4046.18 3976.78 63.61
1886 17.8512 4046.08 3970.59 63.61
1887 17.8596 4033.20 3966.49 63.51
1888 17.8680 4036.92 3963.71 63.54
1889 17.8764 4038.90 3962.36 63.55
1890 17.8848 4046.97 3962.44 63.62
1891 17.8932 4059.27 3966.78 63.71
1892 17.9016 4059.21 3970.14 63.71
1893 17.9100 4072.18 3975.43 63.81
1894 17.9184 4085.23 3983.08 63.92
1895 17.9268 4095.55 3994.90 64.00
1896 17.9352 4119.53 4009.07 64.18
1897 17.9436 4138.22 4027.61 64.33
1898 17.9520 4171.53 4051.39 64.59
1899 17.9604 4196.38 4081.29 64.78
1900 17.9688 4238.90 4118.17 65.11
1901 17.9772 4283.78 4162.69 65.45
1902 17.9856 4315.73 4215.14 65.69
1903 17.9940 4384.12 4275.24 66.21
1904 18.0024 4420.08 4344.48 66.48
1905 18.0108 4474.47 4415.65 66.89
1906 18.0192 4530.24 4488.34 67.31
1907 18.0276 4567.16 4559.31 67.58
1908 18.0360 4621.59 4625.64 67.98
1909 18.0444 4659.95 4684.83 68.26
1910 18.0528 4704.41 4734.69 68.59
1911 18.0612 4737.55 4774.78 68.83
1912 18.0696 4772.59 4802.35 69.08
1913 18.0780 4801.90 4821.07 69.30
1914 18.0864 4831.39 4836.22 69.51
1915 18.0948 4874.44 4854.69 69.82
1916 18.1032 4908.75 4883.06 70.06
1917 18.1116 4954.11 4925.71 70.39
1918 18.1200 5003.30 4983.79 70.73
1919 18.1284 5041.67 5055.10 71.00
1920 18.1368 5095.32 5133.48 71.38
1921 18.1452 5122.43 5204.23 71.57
1922 18.1536 5145.40 5265.40 71.73
1923 18.1620 5140.99 5298.34 71.70
1924 18.1704 5108.72 5293.73 71.48
1925 18.1788 5081.35 5252.18 71.28
1926 18.1872 5013.77 5180.16 70.81
1927 18.1956 4957.38 5093.38 70.41
1928 18.2040 4907.83 5006.94 70.06
1929 18.2124 4858.58 4933.10 69.70
1930 18.2208 4832.01 4881.53 69.51
1931 18.2292 4829.75 4857.93 69.50
1932 18.2376 4853.01 4866.71 69.66
1933 18.2460 4904.35 4905.90 70.03
1934 18.2544 4970.32 4974.64 70.50
1935 18.2628 5070.28 5067.97 71.21
1936 18.2712 5181.45 5177.64 71.98
1937 18.2796 5309.65 5289.10 72.87
1938 18.2880 5445.76 5391.52 73.80
1939 18.2964 5555.32 5465.48 74.53
1940 18.3048 5635.15 5497.65 75.07
1941 18.3132 5651.25 5483.94 75.17
1942 18.3216 5631.92 5430.64 75.05
1943 18.3300 5551.55 5363.99 74.51
1944 18.3384 5434.73 5269.94 73.72
1945 18.3468 5298.58 5170.70 72.79
1946 18.3552 5149.59 5070.64 71.76
1947 18.3636 5016.93 4970.66 70.83
1948 18.3720 4891.38 4870.72 69.94
1949 18.3804 4771.32 4772.01 69.07
1950 18.3888 4669.69 4677.52 68.34
1951 18.3972 4579.01 4590.84 67.67
1952 18.4056 4505.69 4514.88 67.12
1953 18.4140 4444.88 4448.67 66.67
1954 18.4224 4398.74 4397.31 66.32
1955 18.4308 4364.63 4358.68 66.07
1956 18.4392 4332.63 4330.93 65.82
1957 18.4476 4319.38 4312.22 65.72
1958 18.4560 4309.05 4300.25 65.64
1959 18.4644 4308.36 4292.47 65.64
1960 18.4728 4313.67 4286.36 65.68
1961 18.4812 4316.25 4279.99 65.70
1962 18.4896 4319.51 4272.56 65.72
1963 18.4980 4328.06 4264.48 65.79
1964 18.5064 4327.73 4256.97 65.79
1965 18.5148 4330.32 4251.83 65.81
1966 18.5232 4331.15 4250.59 65.81
1967 18.5316 4340.66 4256.20 65.88
1968 18.5400 4348.04 4264.85 65.94
1969 18.5484 4392.49 4283.95 66.28
1970 18.5568 4400.79 4310.66 66.34
1971 18.5652 4445.81 4346.04 66.68
1972 18.5736 4503.80 4391.11 67.11
1973 18.5820 4559.56 4445.33 67.52
1974 18.5904 4644.05 4508.70 68.15
1975 18.5988 4726.74 4580.90 68.75
1976 18.6072 4828.44 4661.19 69.49
1977 18.6156 4926.05 4747.91 70.19
1978 18.6240 5025.11 4838.00 70.89
1979 18.6324 5131.89 4927.25 71.64
1980 18.6408 5204.72 5009.53 72.14
1981 18.6492 5288.11 5079.29 72.72
1982 18.6576 5342.72 5132.44 73.09
1983 18.6660 5376.97 5169.02 73.33
1984 18.6744 5423.64 5193.94 73.65
1985 18.6828 5437.22 5216.71 73.74
1986 18.6912 5498.72 5247.83 74.15
1987 18.6996 5535.05 5296.03 74.40
1988 18.7080 5614.64 5366.73 74.93
1989 18.7164 5705.38 5461.55 75.53
1990 18.7248 5786.24 5578.16 76.07
1991 18.7332 5915.13 5710.24 76.91
1992 18.7416 5999.14 5847.55 77.45
1993 18.7500 6087.84 5976.52 78.02
1994 18.7584 6151.27 6081.91 78.43
1995 18.7668 6173.65 6150.88 78.57
1996 18.7752 6195.17 6177.43 78.71
1997 18.7836 6159.88 6163.98 78.48
1998 18.7920 6130.52 6118.96 78.30
1999 18.8004 6062.54 6053.02 77.86
2000 18.8088 6005.44 5977.81 77.49
2001 18.8172 5940.74 5906.14 77.08
2002 18.8256 5872.01 5847.75 76.63
2003 18.8340 5834.00 5812.08 76.38
2004 18.8424 5784.85 5803.33 76.06
2005 18.8508 5752.22 5820.46 75.84
2006 18.8592 5731.91 5857.10 75.71
2007 18.8676 5682.54 5904.09 75.38
2008 18.8760 5670.97 5941.21 75.31
2009 18.8844 5605.03 5957.39 74.87
2010 18.8928 5567.03 5946.14 74.61
2011 18.9012 5518.72 5908.30 74.29
2012 18.9096 5442.77 5850.61 73.78
2013 18.9180 5400.97 5780.51 73.49
2014 18.9264 5342.25 5703.86 73.09
2015 18.9348 5306.72 5620.75 72.85
2016 18.9432 5259.51 5532.52 72.52
2017 18.9516 5216.42 5439.87 72.22
2018 18.9600 5173.61 5347.19 71.93
2019 18.9684 5133.58 5261.01 71.65
2020 18.9768 5126.66 5187.79 71.60
2021 18.9852 5098.91 5132.38 71.41
2022 18.9936 5098.99 5097.63 71.41
2023 19.0020 5114.27 5084.45 71.51
2024 19.0104 5135.99 5092.98 71.67
2025 19.0188 5181.74 5122.07 71.98
2026 19.0272 5219.42 5169.91 72.25
2027 19.0356 5277.04 5231.15 72.64
2028 19.0440 5341.57 5306.33 73.09
2029 19.0524 5399.65 5390.00 73.48
2030 19.0608 5478.47 5472.21 74.02
2031 19.0692 5528.03 5552.92 74.35
2032 19.0776 5609.87 5635.06 74.90
2033 19.0860 5677.98 5722.42 75.35
2034 19.0944 5774.96 5824.38 75.99
2035 19.1028 5878.48 5947.16 76.67
2036 19.1112 6017.14 6097.41 77.57
2037 19.1196 6219.75 6280.88 78.87
2038 19.1280 6448.57 6504.52 80.30
2039 19.1364 6780.15 6777.56 82.34
2040 19.1448 7191.94 7109.83 84.81
2041 19.1532 7718.44 7509.60 87.85
2042 19.1616 8358.65 7974.11 91.43
2043 19.1700 9094.74 8492.65 95.37
2044 19.1784 9915.34 9048.05 99.58
2045 19.1868 10700.10 9599.61 103.44
2046 19.1952 11363.40 10092.10 106.60
2047 19.2036 11886.10 10461.00 109.02
2048 19.2120 12019.20 10633.30 109.63
2049 19.2204 11949.30 10573.70 109.31
2050 19.2288 11471.40 10287.70 107.10
2051 19.2372 10815.10 9821.54 104.00
2052 19.2456 10006.30 9243.75 100.03
2053 19.2540 9125.28 8617.96 95.53
2054 19.2624 8310.46 7994.89 91.16
2055 19.2708 7579.11 7409.72 87.06
2056 19.2792 6947.36 6881.87 83.35
2057 19.2876 6441.44 6423.44 80.26
2058 19.2960 6017.86 6038.05 77.57
2059 19.3044 5698.27 5724.19 75.49
2060 19.3128 5452.95 5477.08 73.84
2061 19.3212 5278.83 5289.83 72.66
2062 19.3296 5148.96 5154.92 71.76
2063 19.3380 5068.85 5065.10 71.20
2064 19.3464 5027.35 5013.75 70.90
2065 19.3548 5004.87 4995.67 70.75
2066 19.3632 5029.90 5006.00 70.92
2067 19.3716 5059.92 5041.12 71.13
2068 19.3800 5116.12 5097.00 71.53
2069 19.3884 5188.48 5170.31 72.03
2070 19.3968 5248.67 5254.00 72.45
2071 19.4052 5317.48 5341.02 72.92
2072 19.4136 5369.70 5422.21 73.28
2073 19.4220 5398.20 5486.25 73.47
2074 19.4304 5392.06 5522.35 73.43
2075 19.4388 5352.43 5523.39 73.16
2076 19.4472 5287.76 5488.67 72.72
2077 19.4556 5187.02 5423.81 72.02
2078 19.4640 5088.79 5338.17 71.34
2079 19.4724 4962.68 5242.29 70.45
2080 19.4808 4856.45 5144.83 69.69
2081 19.4892 4751.01 5052.30 68.93
2082 19.4976 4650.32 4968.85 68.19
2083 19.5060 4576.62 4896.32 67.65
2084 19.5144 4503.60 4834.43 67.11
2085 19.5228 4452.96 4782.40 66.73
2086 19.5312 4409.37 4740.25 66.40
2087 19.5396 4361.40 4700.16 66.04
2088 19.5480 4338.24 4665.90 65.87
2089 19.5564 4311.67 4635.05 65.66
2090 19.5648 4295.31 4607.12 65.54
2091 19.5732 4274.21 4582.05 65.38
2092 19.5816 4272.10 4560.32 65.36
2093 19.5900 4262.94 4542.71 65.29
2094 19.5984 4266.08 4530.21 65.32
2095 19.6068 4271.71 4523.81 65.36
2096 19.6152 4282.25 4524.24 65.44
2097 19.6236 4301.49 4533.08 65.59
2098 19.6320 4330.86 4551.13 65.81
2099 19.6404 4367.78 4579.67 66.09
2100 19.6488 4418.30 4617.10 66.47
2101 19.6572 4479.02 4670.23 66.93
2102 19.6656 4558.05 4741.04 67.51
2103 19.6740 4642.05 4823.48 68.13
2104 19.6824 4739.36 4920.11 68.84
2105 19.6908 4856.62 5031.46 69.69
2106 19.6992 4977.07 5155.11 70.55
2107 19.7076 5111.45 5287.52 71.49
2108 19.7160 5238.14 5424.13 72.38
2109 19.7244 5404.45 5560.24 73.51
2110 19.7328 5565.18 5690.29 74.60
2111 19.7412 5735.29 5809.09 75.73
2112 19.7496 5909.84 5909.12 76.88
2113 19.7580 6049.43 5979.99 77.78
2114 19.7664 6146.14 6010.38 78.40
2115 19.7748 6189.61 5989.92 78.67
2116 19.7832 6094.72 5923.62 78.07
2117 19.7916 5964.01 5817.59 77.23
2118 19.8000 5775.14 5685.73 75.99
2119 19.8084 5575.95 5545.47 74.67
2120 19.8168 5374.91 5403.27 73.31
2121 19.8252 5207.09 5270.96 72.16
2122 19.8336 5070.92 5153.88 71.21
2123 19.8420 4962.96 5059.09 70.45
2124 19.8504 4894.32 4988.25 69.96
2125 19.8588 4858.81 4943.26 69.71
2126 19.8672 4857.46 4925.27 69.70
2127 19.8756 4881.49 4934.89 69.87
2128 19.8840 4926.47 4972.38 70.19
2129 19.8924 5001.16 5037.62 70.72
2130 19.9008 5092.18 5129.85 71.36
2131 19.9092 5206.61 5247.92 72.16
2132 19.9176 5322.78 5389.21 72.96
2133 19.9260 5482.44 5549.40 74.04
2134 19.9344 5617.46 5721.81 74.95
2135 19.9428 5774.23 5896.73 75.99
2136 19.9512 5913.14 6061.35 76.90
2137 19.9596 6031.16 6201.95 77.66
2138 19.9680 6153.62 6306.85 78.44
2139 19.9764 6222.74 6369.36 78.88
2140 19.9848 6275.21 6391.90 79.22
2141 19.9932 6291.22 6383.99 79.32
2142 20.0016 6287.43 6355.04 79.29
2143 20.0100 6288.46 6319.11 79.30
2144 20.0184 6285.16 6287.72 79.28
2145 20.0268 6321.04 6272.39 79.50
2146 20.0352 6375.70 6276.88 79.85
2147 20.0436 6470.23 6304.10 80.44
2148 20.0520 6603.54 6351.38 81.26
2149 20.0604 6732.29 6412.71 82.05
2150 20.0688 6873.53 6480.98 82.91
2151 20.0772 6989.45 6549.62 83.60
2152 20.0856 7048.55 6612.43 83.96
2153 20.0940 7066.43 6661.32 84.06
2154 20.1024 7024.14 6685.08 83.81
2155 20.1108 6961.58 6658.01 83.44
2156 20.1192 6827.81 6598.38 82.63
2157 20.1276 6689.43 6493.02 81.79
2158 20.1360 6516.59 6351.83 80.73
2159 20.1444 6316.78 6189.59 79.48
2160 20.1528 6129.65 6020.62 78.29
2161 20.1612 5932.37 5855.33 77.02
2162 20.1696 5762.34 5699.22 75.91
2163 20.1780 5587.60 5557.79 74.75
2164 20.1864 5436.74 5423.76 73.73
2165 20.1948 5309.28 5301.00 72.86
2166 20.2032 5180.73 5196.07 71.98
2167 20.2116 5089.37 5100.93 71.34
2168 20.2200 5002.37 5023.09 70.73
2169 20.2284 4962.10 4963.44 70.44
2170 20.2368 4918.99 4922.61 70.14
2171 20.2452 4896.31 4900.06 69.97
2172 20.2536 4901.51 4894.53 70.01
2173 20.2620 4896.70 4904.11 69.98
2174 20.2704 4932.51 4926.17 70.23
2175 20.2788 4953.56 4957.08 70.38
2176 20.2872 4977.98 4992.03 70.55
2177 20.2956 4991.63 5024.97 70.65
2178 20.3040 4989.88 5049.31 70.64
2179 20.3124 4991.31 5059.26 70.65
2180 20.3208 4961.81 5052.17 70.44
2181 20.3292 4934.39 5029.58 70.25
2182 20.3376 4897.85 4995.19 69.98
2183 20.3460 4870.57 4958.15 69.79
2184 20.3544 4842.28 4925.42 69.59
2185 20.3628 4828.75 4901.94 69.49
2186 20.3712 4832.76 4891.89 69.52
2187 20.3796 4848.29 4898.45 69.63
2188 20.3880 4901.85 4923.08 70.01
2189 20.3964 4963.46 4966.07 70.45
2190 20.4048 5047.05 5026.36 71.04
2191 20.4132 5160.57 5101.36 71.84
2192 20.4216 5278.46 5186.65 72.65
2193 20.4300 5410.30 5275.75 73.55
2194 20.4384 5554.06 5360.12 74.53
2195 20.4468 5682.10 5429.80 75.38
2196 20.4552 5772.59 5476.12 75.98
2197 20.4636 5819.54 5494.92 76.29
2198 20.4720 5832.94 5488.78 76.37
2199 20.4804 5791.63 5467.12 76.10
2200 20.4888 5719.95 5442.20 75.63
2201 20.4972 5645.98 5426.46 75.14
2202 20.5056 5579.38 5430.32 74.70
2203 20.5140 5551.66 5461.48 74.51
2204 20.5224 5556.45 5524.88 74.54
2205 20.5308 5595.91 5622.66 74.81
2206 20.5392 5687.75 5753.67 75.42
2207 20.5476 5813.97 5913.72 76.25
2208 20.5560 5955.02 6094.40 77.17
2209 20.5644 6116.64 6282.70 78.21
2210 20.5728 6267.02 6460.78 79.16
2211 20.5812 6403.15 6607.15 80.02
2212 20.5896 6515.27 6700.94 80.72
2213 20.5980 6582.44 6727.65 81.13
2214 20.6064 6590.16 6685.26 81.18
2215 20.6148 6559.46 6581.16 80.99
2216 20.6232 6470.30 6433.83 80.44
2217 20.6316 6350.71 6263.00 79.69
2218 20.6400 6219.15 6088.91 78.86
2219 20.6484 6069.43 5925.56 77.91
2220 20.6568 5944.72 5783.64 77.10
2221 20.6652 5842.91 5670.52 76.44
2222 20.6736 5774.55 5590.55 75.99
2223 20.6820 5740.82 5543.31 75.77
2224 20.6904 5746.49 5534.11 75.81
2225 20.6988 5786.65 5556.01 76.07
2226 20.7072 5861.54 5602.97 76.56
2227 20.7156 5941.23 5665.44 77.08
2228 20.7240 6010.23 5730.93 77.53
2229 20.7324 6051.94 5784.91 77.79
2230 20.7408 6045.83 5810.66 77.75
2231 20.7492 5993.30 5798.44 77.42
2232 20.7576 5897.95 5745.73 76.80
2233 20.7660 5773.99 5658.96 75.99
2234 20.7744 5630.66 5550.41 75.04
2235 20.7828 5489.34 5433.91 74.09
2236 20.7912 5378.94 5321.83 73.34
2237 20.7996 5278.28 5223.76 72.65
2238 20.8080 5221.17 5146.67 72.26
2239 20.8164 5198.71 5098.84 72.10
2240 20.8248 5194.14 5076.46 72.07
2241 20.8332 5237.91 5084.46 72.37
2242 20.8416 5295.84 5122.93 72.77
2243 20.8500 5385.69 5190.52 73.39
2244 20.8584 5490.42 5284.22 74.10
2245 20.8668 5599.94 5399.11 74.83
2246 20.8752 5720.72 5528.03 75.64
2247 20.8836 5809.02 5659.40 76.22
2248 20.8920 5902.31 5788.10 76.83
2249 20.9004 5958.54 5902.45 77.19
2250 20.9088 5996.43 5994.92 77.44
2251 20.9172 6009.79 6064.03 77.52
2252 20.9256 5996.12 6106.86 77.43
2253 20.9340 5965.63 6121.63 77.24
2254 20.9424 5905.84 6108.32 76.85
2255 20.9508 5833.31 6065.99 76.38
2256 20.9592 5749.69 5995.64 75.83
2257 20.9676 5660.20 5900.35 75.23
2258 20.9760 5577.43 5786.06 74.68
2259 20.9844 5470.71 5660.03 73.96
2260 20.9928 5392.29 5536.03 73.43
2261 21.0012 5317.08 5423.65 72.92
2262 21.0096 5259.85 5332.92 72.52
2263 21.0180 5216.92 5272.22 72.23
2264 21.0264 5207.78 5248.34 72.16
2265 21.0348 5221.06 5266.70 72.26
2266 21.0432 5280.73 5327.96 72.67
2267 21.0516 5351.77 5442.34 73.16
2268 21.0600 5479.47 5607.63 74.02
2269 21.0684 5649.38 5823.35 75.16
2270 21.0768 5880.65 6086.38 76.69
2271 21.0852 6162.42 6389.87 78.50
2272 21.0936 6492.68 6722.39 80.58
2273 21.1020 6872.24 7066.69 82.90
2274 21.1104 7278.70 7397.52 85.32
2275 21.1188 7662.05 7686.96 87.53
2276 21.1272 7970.92 7902.68 89.28
2277 21.1356 8178.11 8017.19 90.43
2278 21.1440 8225.91 8013.74 90.70
2279 21.1524 8130.14 7890.59 90.17
2280 21.1608 7873.83 7661.78 88.73
2281 21.1692 7512.64 7353.62 86.68
2282 21.1776 7079.14 6997.29 84.14
2283 21.1860 6638.32 6622.32 81.48
2284 21.1944 6207.11 6252.18 78.79
2285 21.2028 5819.90 5903.55 76.29
2286 21.2112 5474.59 5586.76 73.99
2287 21.2196 5198.26 5307.31 72.10
2288 21.2280 4967.56 5067.50 70.48
2289 21.2364 4777.69 4864.67 69.12
2290 21.2448 4631.73 4695.37 68.06
2291 21.2532 4509.02 4559.44 67.15
2292 21.2616 4410.11 4448.93 66.41
2293 21.2700 4330.36 4360.76 65.81
2294 21.2784 4258.55 4291.04 65.26
2295 21.2868 4225.56 4236.43 65.00
2296 21.2952 4168.84 4194.15 64.57
2297 21.3036 4137.62 4161.92 64.32
2298 21.3120 4113.34 4138.33 64.14
2299 21.3204 4088.37 4121.25 63.94
2300 21.3288 4077.22 4109.93 63.85
2301 21.3372 4073.36 4103.39 63.82
2302 21.3456 4059.76 4100.82 63.72
2303 21.3540 4055.82 4101.04 63.69
2304 21.3624 4055.75 4103.02 63.68
2305 21.3708 4047.53 4105.39 63.62
2306 21.3792 4042.35 4106.70 63.58
2307 21.3876 4040.58 4105.65 63.57
2308 21.3960 4036.54 4099.33 63.53
2309 21.4044 4035.31 4093.42 63.52
2310 21.4128 4025.76 4084.57 63.45
2311 21.4212 4026.74 4075.29 63.46
2312 21.4296 4023.54 4067.73 63.43
2313 21.4380 4033.75 4061.96 63.51
2314 21.4464 4031.88 4059.61 63.50
2315 21.4548 4043.53 4061.38 63.59
2316 21.4632 4052.31 4067.72 63.66
2317 21.4716 4072.48 4078.83 63.82
2318 21.4800 4090.43 4094.74 63.96
2319 21.4884 4121.20 4115.43 64.20
2320 21.4968 4147.96 4140.95 64.40
2321 21.5052 4191.27 4171.37 64.74
2322 21.5136 4227.40 4206.59 65.02
2323 21.5220 4274.45 4246.30 65.38
2324 21.5304 4338.14 4286.98 65.86
2325 21.5388 4388.30 4331.66 66.24
2326 21.5472 4433.22 4374.90 66.58
2327 21.5556 4485.87 4414.44 66.98
2328 21.5640 4515.72 4446.05 67.20
2329 21.5724 4540.81 4467.69 67.39
2330 21.5808 4564.74 4479.72 67.56
2331 21.5892 4559.88 4485.00 67.53
2332 21.5976 4545.94 4487.74 67.42
2333 21.6060 4543.64 4493.18 67.41
2334 21.6144 4539.48 4505.73 67.38
2335 21.6228 4537.40 4527.08 67.36
2336 21.6312 4559.36 4558.28 67.52
2337 21.6396 4577.61 4599.95 67.66
2338 21.6480 4630.53 4651.17 68.05
2339 21.6564 4674.61 4710.21 68.37
2340 21.6648 4744.31 4774.76 68.88
2341 21.6732 4829.76 4842.15 69.50
2342 21.6816 4908.25 4910.15 70.06
2343 21.6900 4999.01 4972.31 70.70
2344 21.6984 5084.19 5034.15 71.30
2345 21.7068 5174.68 5094.40 71.94
2346 21.7152 5243.52 5156.34 72.41
2347 21.7236 5324.34 5223.74 72.97
2348 21.7320 5397.54 5300.98 73.47
2349 21.7404 5456.71 5383.52 73.87
2350 21.7488 5511.66 5469.07 74.24
2351 21.7572 5556.13 5549.30 74.54
2352 21.7656 5579.84 5612.39 74.70
2353 21.7740 5567.87 5645.11 74.62
2354 21.7824 5542.10 5639.80 74.45
2355 21.7908 5475.38 5586.86 74.00
2356 21.7992 5388.55 5492.27 73.41
2357 21.8076 5274.62 5368.56 72.63
loop_
_pd_proc_info_excluded_regions
'from 0.999 to 2.000'
'from 21.8 to 22.014'
loop_
_restr_angle_atom_site_label_1
_restr_angle_site_symmetry_1
_restr_angle_atom_site_label_2
_restr_angle_site_symmetry_2
_restr_angle_atom_site_label_3
_restr_angle_site_symmetry_3
_restr_angle_target
_restr_angle_target_weight_param
N1 . C2 . N4 . 110.38 0.01
C2 . N1 . N2 . 106.4 0.01
N1 . N2 . N3 . 107.54 0.01
N2 . N3 . N4 . 109.49 0.01
N1 . C2 . C1 . 118.96 0.01
O1 . C1 . O2 . 128.38 0.01
C11 . N11 . C15 . 117 0.01
C12 . C13 . C14 . 120 0.01
N11 . C15 . C14 . 123 0.01
C13 . C16 . C17 . 109.47 0.01
C16 . C17 . C16 2_555 109.47 0.01
C12 . C13 . C16 . 120 0.01
H1c17 . C17 . H1c17 2_555 109.47 0.01
H1c17 . C17 . C16 . 109.47 0.01
loop_
_restr_distance_atom_site_label_1
_restr_distance_site_symmetry_1
_restr_distance_atom_site_label_2
_restr_distance_site_symmetry_2
_restr_distance_target
_restr_distance_target_weight_param
C2 . N1 . 1.317 0.001
N1 . N2 . 1.33 0.001
N2 . N3 . 1.324 0.001
N3 . N4 . 1.342 0.001
N4 . C2 . 1.329 0.001
C1 . C2 . 1.494 0.001
O1 . C1 . 1.229 0.001
C1 . O2 . 1.271 0.001
N11 . C11 . 1.347 0.001
N11 . C15 . 1.347 0.001
C11 . C12 . 1.39 0.001
C12 . C13 . 1.39 0.001
C13 . C14 . 1.39 0.001
C14 . C15 . 1.39 0.001
C13 . C16 . 1.51 0.001
C16 . C17 . 1.51 0.001
C17 . H1c17 . 0.96 0.001
loop_
_cod_changelog_entry_id
_cod_changelog_entry_author
_cod_changelog_entry_date
_cod_changelog_entry_text
1 'Vaitkus, Antanas' 2022-05-09T03:40:00+03:00
'Updated bibliographic information.'
