#------------------------------------------------------------------------------
#$Date: 2022-05-09 03:44:03 +0300 (Mon, 09 May 2022) $
#$Revision: 275240 $
#$URL: file:///home/coder/svn-repositories/cod/cif/7/11/91/7119155.cif $
#------------------------------------------------------------------------------
#
# This file is available in the Crystallography Open Database (COD),
# http://www.crystallography.net/
#
# All data on this site have been placed in the public domain by the
# contributors.
#
data_7119155
loop_
_publ_author_name
'Wood, Peter A.'
'Sarjeant, Amy A.'
'Yakovenko, Andrey A.'
'Ward, Suzanna C.'
'Groom, Colin R.'
_publ_section_title
;
 Capturing neon -- the first experimental structure of neon
 trapped within a metal-organic environment
;
_journal_coden_ASTM              CHCOFS
_journal_issue                   65
_journal_name_full
'Chemical Communications (Cambridge, United Kingdom)'
_journal_page_first              10048
_journal_page_last               10051
_journal_paper_doi               10.1039/c6cc04808k
_journal_volume                  52
_journal_year                    2016
_chemical_absolute_configuration .
_chemical_formula_moiety         '[Ni(C4HO3) 1.045(Ne)]n'
_chemical_formula_sum            'C4 H Ne1.045 Ni O3'
_chemical_formula_weight         176.8
_space_group_IT_number           148
_symmetry_cell_setting           trigonal
_symmetry_Int_Tables_number      148
_symmetry_space_group_name_Hall  '-R 3'
_symmetry_space_group_name_H-M   'R -3 :H'
_cell_angle_alpha                90
_cell_angle_beta                 90
_cell_angle_gamma                120
_cell_formula_units_Z            18
_cell_length_a                   25.7611(4)
_cell_length_b                   25.7611(4)
_cell_length_c                   6.7565(3)
_cell_measurement_temperature    100
_cell_volume                     3883.12(19)
_computing_cell_refinement       'Jana 2006 (Petricek, 2006)'
_computing_data_reduction        'GSASII(Toby & Von Dreele, 2013)'
_computing_molecular_graphics    'Mercury (version, 2015)'
_computing_publication_material  'Jana 2006 (Petricek, 2006)'
_computing_structure_refinement  'Jana 2006 (Petricek, 2006)'
_diffrn_ambient_temperature      100
_diffrn_detector                 'Flat Panel Detector'
_diffrn_detector_type            'Perkin-Elmer amorphous-Si'
_diffrn_measurement_device       '17-BM-B beamline'
_diffrn_radiation_monochromator  'PSL DCM Si(111)'
_diffrn_radiation_probe          x-ray
_diffrn_radiation_type           synchrotron
_diffrn_radiation_wavelength     0.72768
_diffrn_source                   synchrotron
_diffrn_source_type              synchrotron
_exptl_absorpt_coefficient_mu    2.388
_exptl_crystal_density_diffrn    1.3609
_exptl_crystal_F_000             1574
_pd_char_colour                  brown
_pd_char_particle_morphology     'small crystalline powder'
_pd_instr_location
; 
17-BM-B line diffractometer, APS, Argonne National Lab (USA)
;
_pd_meas_2theta_range_inc        0.008
_pd_meas_2theta_range_max        21.992
_pd_meas_2theta_range_min        1.000
_pd_meas_number_of_points        2500
_pd_prep_cool_rate               0.0
_pd_prep_pressure                10000
_pd_prep_temperature             100(2)
_pd_proc_2theta_range_inc        0.008
_pd_proc_2theta_range_max        21.798
_pd_proc_2theta_range_min        2.008
_pd_proc_ls_background_function  '8 Chebyshev polynoms'
_pd_proc_ls_pref_orient_corr     none
_pd_proc_ls_profile_function     Pseudo-Voigt
_pd_proc_ls_prof_R_factor        0.0420
_pd_proc_ls_prof_wR_expected     0.0170
_pd_proc_ls_prof_wR_factor       0.0554
_pd_proc_wavelength              0.72768
_pd_spec_mounting                'capton capillary with Ne exchange gas'
_pd_spec_mount_mode              transmission
_pd_spec_shape                   cylinder
_pd_spec_size_axial              10.0
_pd_spec_size_equat              0.9
_pd_spec_size_thick              0.9
_refine_diff_density_max         0.15
_refine_diff_density_min         -0.19
_refine_ls_goodness_of_fit_all   3.26
_refine_ls_hydrogen_treatment    constr
_refine_ls_number_constraints    22
_refine_ls_number_parameters     28
_refine_ls_number_restraints     0
_refine_ls_R_factor_all          0.0424
_refine_ls_R_factor_gt           0.0424
_refine_ls_shift/su_max          0.0135
_refine_ls_shift/su_mean         0.0022
_refine_ls_weighting_scheme      sigma
_refine_ls_wR_factor_all         0.0558
_refine_ls_wR_factor_gt          0.0558
_cod_data_source_file            c6cc04808k2-2.cif
_cod_data_source_block           100K100bar
_cod_depositor_comments
;
The following automatic conversions were performed:

'_diffrn_radiation_probe' value 'X-ray' changed to 'x-ray' according
to the built-in table from CIF Core dictionary named 'cif_core.dic'
version 2.4.1 from 2010-06-29.

Automatic conversion script
Id: cif_fix_values 4624 2016-04-14 12:54:50Z antanas 
;
_cod_original_cell_volume        3883.1(2)
_cod_original_sg_symbol_H-M      'R -3'
_cod_original_formula_sum        'C4 H1 Ne1.045 Ni1 O3'
_cod_database_code               7119155
loop_
_space_group_symop_id
_space_group_symop_operation_xyz
1 x,y,z
2 -y,x-y,z
3 -x+y,-x,z
4 -x,-y,-z
5 y,-x+y,-z
6 x-y,x,-z
7 x+2/3,y+1/3,z+1/3
8 -y+2/3,x-y+1/3,z+1/3
9 -x+y+2/3,-x+1/3,z+1/3
10 -x+2/3,-y+1/3,-z+1/3
11 y+2/3,-x+y+1/3,-z+1/3
12 x-y+2/3,x+1/3,-z+1/3
13 x+1/3,y+2/3,z+2/3
14 -y+1/3,x-y+2/3,z+2/3
15 -x+y+1/3,-x+2/3,z+2/3
16 -x+1/3,-y+2/3,-z+2/3
17 y+1/3,-x+y+2/3,-z+2/3
18 x-y+1/3,x+2/3,-z+2/3
loop_
_atom_site_label
_atom_site_type_symbol
_atom_site_fract_x
_atom_site_fract_y
_atom_site_fract_z
_atom_site_adp_type
_atom_site_U_iso_or_equiv
_atom_site_site_symmetry_multiplicity
_atom_site_occupancy
_atom_site_calc_flag
_atom_site_refinement_flags
_atom_site_disorder_assembly
_atom_site_disorder_group
Ni1 Ni 0.61749(10) 0.64832(10) 0.3537(4) Uiso 0.0337(5) 18 1 d . . .
O1 O 0.436919 0.407457 0.430968 Uiso 0.0337(5) 18 1 d . . .
O2 O 0.367878 0.365292 0.211973 Uiso 0.0337(5) 18 1 d . . .
O3 O 0.611372 0.585523 0.155521 Uiso 0.0337(5) 18 1 d . . .
C1 C 0.416609 0.407372 0.249678 Uiso 0.0337(5) 18 1 d . . .
C2 C 0.460763 0.454094 0.114119 Uiso 0.0337(5) 18 1 d . . .
C3 C 0.55692 0.550362 0.076891 Uiso 0.0337(5) 18 1 d . . .
C4 C 0.515753 0.49831 0.190871 Uiso 0.0337(5) 18 1 d . . .
H1c4 H 0.526496 0.49396 0.32337 Uiso 0.0405 18 1 d . . .
Ne1 Ne 0.1560(3) 0.5027(3) 0.1730(11) Uiso 0.1 18 0.953(6) d . . .
Ne2 Ne 0 0 0.5 Uiso 0.1 3 0.547(12) d . . .
loop_
_atom_type_symbol
_atom_type_scat_dispersion_real
_atom_type_scat_dispersion_imag
_atom_type_scat_source
C 0.0037 0.0018 'International Tables Vol C tables 4.2.6.8 and 6.1.1.1'
H 0.0000 0.0000 'International Tables Vol C tables 4.2.6.8 and 6.1.1.1'
Ne 0.0277 0.0178 'International Tables Vol C tables 4.2.6.8 and 6.1.1.1'
Ni 0.3409 1.1694 'International Tables Vol C tables 4.2.6.8 and 6.1.1.1'
O 0.0121 0.0066 'International Tables Vol C tables 4.2.6.8 and 6.1.1.1'
loop_
_geom_angle_atom_site_label_1
_geom_angle_atom_site_label_2
_geom_angle_atom_site_label_3
_geom_angle_site_symmetry_1
_geom_angle_site_symmetry_2
_geom_angle_site_symmetry_3
_geom_angle
O1 Ni1 O2 4_666 . 17_555 100.21
O1 Ni1 O2 4_666 . 12_555 176.37
O1 Ni1 O3 4_666 . . 99
O1 Ni1 O3 4_666 . 9_565 97.07
O2 Ni1 O2 17_555 . 12_555 82.17
O2 Ni1 O3 17_555 . . 92.44
O2 Ni1 O3 17_555 . 9_565 81.95
O2 Ni1 O3 12_555 . . 78.09
O2 Ni1 O3 12_555 . 9_565 85.96
O3 Ni1 O3 . . 9_565 163.7
Ni1 O1 C1 4_666 . . 121.72
Ni1 O2 Ni1 11_455 . 18_545 92.23
Ni1 O2 C1 11_455 . . 123.71
Ni1 O2 C1 18_545 . . 143.73
Ni1 O3 Ni1 . . 14_654 96.82
Ni1 O3 C3 . . . 115.75
Ni1 O3 C3 14_654 . . 128.08
O1 C1 O2 . . . 115.29
O1 C1 C2 . . . 115.1
O2 C1 C2 . . . 128.93
C1 C2 C3 . . 4_665 115.44
C1 C2 C4 . . . 118.92
C3 C2 C4 4_665 . . 125.64
O3 C3 C2 . . 4_665 128.94
O3 C3 C4 . . . 116.7
C2 C3 C4 4_665 . . 111.66
C2 C4 C3 . . . 122.11
C2 C4 H1c4 . . . 118.95
C3 C4 H1c4 . . . 118.95
loop_
_geom_bond_atom_site_label_1
_geom_bond_atom_site_label_2
_geom_bond_site_symmetry_1
_geom_bond_site_symmetry_2
_geom_bond_distance
Ni1 O1 . 4_666 2.0328
Ni1 O2 . 17_555 2.0374
Ni1 O2 . 12_555 2.0693
Ni1 O3 . . 2.0443
Ni1 O3 . 9_565 1.9116
Ni1 Ne1 . 2_665 3.390(10)
O1 C1 . . 1.3315
O2 C1 . . 1.2063
O3 C3 . . 1.3416
C1 C2 . . 1.4874
C2 C3 . 4_665 1.3542
C2 C4 . . 1.3998
C3 C4 . . 1.447
C4 H1c4 . . 0.96
loop_
_pd_proc_point_id
_pd_proc_2theta_corrected
_pd_proc_intensity_net
_pd_calc_intensity_net
_pd_proc_ls_weight
1 2.6025 3452.20 2994.80 58.76
2 2.6109 3469.01 2986.53 58.90
3 2.6193 3460.75 3317.50 58.83
4 2.6277 3459.31 3318.74 58.82
5 2.6361 3499.06 3320.43 59.15
6 2.6445 3468.50 3322.59 58.89
7 2.6529 3505.63 3325.24 59.21
8 2.6613 3512.47 3328.40 59.27
9 2.6697 3483.65 3332.11 59.02
10 2.6781 3519.44 3336.39 59.32
11 2.6865 3514.09 3341.27 59.28
12 2.6949 3536.00 3346.80 59.46
13 2.7033 3542.66 3353.00 59.52
14 2.7117 3538.00 3359.92 59.48
15 2.7201 3555.47 3367.60 59.63
16 2.7285 3574.61 3376.09 59.79
17 2.7369 3551.15 3385.43 59.59
18 2.7453 3597.12 3395.68 59.98
19 2.7537 3592.61 3406.91 59.94
20 2.7621 3589.73 3419.17 59.91
21 2.7705 3629.23 3432.54 60.24
22 2.7789 3608.94 3447.10 60.07
23 2.7873 3632.84 3462.92 60.27
24 2.7957 3644.32 3480.11 60.37
25 2.8041 3648.56 3498.76 60.40
26 2.8125 3678.75 3519.00 60.65
27 2.8209 3696.91 3540.92 60.80
28 2.8293 3665.92 3564.69 60.55
29 2.8377 3737.80 3590.43 61.14
30 2.8461 3725.05 3618.33 61.03
31 2.8545 3748.08 3648.56 61.22
32 2.8629 3793.67 3681.33 61.59
33 2.8713 3795.16 3716.86 61.60
34 2.8797 3841.37 3755.41 61.98
35 2.8881 3879.20 3797.26 62.28
36 2.8965 3892.91 3842.73 62.39
37 2.9049 3937.43 3892.18 62.75
38 2.9133 3977.70 3946.00 63.07
39 2.9217 4008.21 4004.67 63.31
40 2.9301 4078.26 4068.70 63.86
41 2.9385 4119.44 4138.67 64.18
42 2.9469 4187.12 4215.26 64.71
43 2.9553 4253.74 4299.23 65.22
44 2.9637 4322.43 4391.49 65.75
45 2.9721 4410.11 4493.04 66.41
46 2.9805 4517.13 4605.08 67.21
47 2.9889 4593.36 4728.99 67.77
48 2.9973 4727.14 4866.38 68.75
49 3.0057 4836.33 5019.15 69.54
50 3.0141 4975.47 5189.55 70.54
51 3.0225 5182.54 5380.22 71.99
52 3.0309 5339.46 5594.35 73.07
53 3.0393 5538.30 5835.76 74.42
54 3.0477 5797.52 6109.04 76.14
55 3.0561 6092.35 6419.86 78.05
56 3.0645 6395.09 6775.10 79.97
57 3.0729 6827.20 7183.40 82.63
58 3.0813 7224.55 7655.75 85.00
59 3.0897 7817.55 8206.66 88.42
60 3.0981 8455.32 8856.17 91.95
61 3.1065 9320.46 9634.03 96.54
62 3.1149 10273.70 10587.00 101.36
63 3.1233 11572.40 11792.40 107.57
64 3.1317 13262.20 13379.10 115.16
65 3.1401 15356.40 15556.90 123.92
66 3.1485 18580.10 18651.30 136.31
67 3.1569 22897.10 23129.60 151.32
68 3.1653 28929.10 29600.60 170.09
69 3.1737 37887.10 38760.10 194.65
70 3.1821 50175.20 51268.20 224.00
71 3.1905 66164.60 67551.20 257.23
72 3.1989 87389.10 87550.80 295.62
73 3.2073 112876.00 110415.00 335.97
74 3.2157 135209.00 134105.00 367.71
75 3.2241 158835.00 154973.00 398.54
76 3.2325 168555.00 168010.00 410.55
77 3.2409 167174.00 168965.00 408.87
78 3.2493 152195.00 157488.00 390.12
79 3.2577 133454.00 137433.00 365.31
80 3.2661 110172.00 113885.00 331.92
81 3.2745 88818.40 90732.70 298.02
82 3.2829 67572.60 70230.20 259.95
83 3.2913 55114.40 53374.50 234.76
84 3.2997 41945.80 40321.20 204.81
85 3.3081 32958.80 30697.90 181.54
86 3.3165 26778.00 23866.20 163.64
87 3.3249 21653.70 19125.40 147.15
88 3.3333 17872.00 15849.80 133.69
89 3.3417 15180.70 13549.80 123.21
90 3.3501 12739.90 11880.90 112.87
91 3.3585 11117.70 10618.20 105.44
92 3.3669 9713.67 9622.95 98.56
93 3.3753 8690.88 8811.93 93.22
94 3.3837 7796.25 8134.78 88.30
95 3.3921 7178.69 7559.94 84.73
96 3.4005 6507.59 7066.18 80.67
97 3.4089 6063.04 6638.39 77.87
98 3.4173 5656.36 6265.12 75.21
99 3.4257 5322.98 5937.47 72.96
100 3.4341 5047.08 5648.27 71.04
101 3.4425 4804.87 5391.74 69.32
102 3.4509 4599.72 5163.14 67.82
103 3.4593 4403.92 4958.52 66.36
104 3.4677 4231.84 4774.63 65.05
105 3.4761 4096.53 4608.73 64.00
106 3.4845 3955.54 4458.54 62.89
107 3.4929 3825.48 4322.08 61.85
108 3.5013 3746.05 4197.73 61.21
109 3.5097 3632.46 4084.06 60.27
110 3.5181 3537.20 3979.86 59.47
111 3.5265 3474.51 3884.08 58.94
112 3.5349 3371.32 3795.81 58.06
113 3.5433 3321.67 3714.26 57.63
114 3.5517 3259.50 3638.76 57.09
115 3.5601 3193.34 3568.69 56.51
116 3.5685 3146.79 3503.52 56.10
117 3.5769 3096.29 3442.80 55.64
118 3.5853 3030.92 3386.10 55.05
119 3.5937 3013.07 3333.07 54.89
120 3.6021 2948.26 3283.38 54.30
121 3.6105 2923.47 3236.73 54.07
122 3.6189 2897.55 3192.88 53.83
123 3.6273 2843.93 3151.59 53.33
124 3.6357 2835.32 3112.64 53.25
125 3.6441 2791.98 3075.87 52.84
126 3.6525 2765.00 3041.08 52.58
127 3.6609 2756.82 3008.15 52.51
128 3.6693 2716.59 2976.91 52.12
129 3.6777 2704.00 2947.26 52.00
130 3.6861 2689.10 2919.07 51.86
131 3.6945 2659.32 2892.25 51.57
132 3.7029 2649.77 2866.69 51.48
133 3.7113 2650.29 2842.31 51.48
134 3.7197 2586.65 2819.04 50.86
135 3.7281 2584.58 2796.80 50.84
136 3.7365 2571.69 2775.52 50.71
137 3.7449 2554.51 2755.14 50.54
138 3.7533 2550.10 2735.61 50.50
139 3.7617 2515.70 2716.88 50.16
140 3.7701 2502.64 2698.89 50.03
141 3.7785 2506.94 2681.60 50.07
142 3.7869 2470.61 2664.98 49.71
143 3.7953 2479.49 2648.98 49.79
144 3.8037 2454.99 2633.57 49.55
145 3.8121 2441.26 2618.71 49.41
146 3.8205 2434.87 2604.38 49.34
147 3.8289 2417.37 2590.55 49.17
148 3.8373 2406.78 2577.19 49.06
149 3.8457 2421.00 2564.28 49.20
150 3.8541 2378.31 2551.79 48.77
151 3.8625 2402.02 2203.59 49.01
152 3.8709 2379.66 2200.67 48.78
153 3.8793 2372.43 2197.78 48.71
154 3.8877 2366.14 2194.91 48.64
155 3.8961 2354.69 2192.07 48.53
156 3.9045 2338.36 2189.25 48.36
157 3.9129 2350.19 2186.45 48.48
158 3.9213 2323.00 2183.67 48.20
159 3.9297 2327.05 2180.92 48.24
160 3.9381 2312.32 2178.19 48.09
161 3.9465 2296.89 2175.48 47.93
162 3.9549 2301.18 2172.80 47.97
163 3.9633 2299.02 2170.13 47.95
164 3.9717 2279.84 2167.49 47.75
165 3.9801 2285.40 2164.87 47.81
166 3.9885 2282.20 2162.28 47.77
167 3.9969 2277.80 2159.70 47.73
168 4.0053 2280.88 2157.15 47.76
169 4.0137 2261.17 2154.61 47.55
170 4.0221 2254.44 2152.10 47.48
171 4.0305 2253.49 2149.61 47.47
172 4.0389 2236.19 2147.14 47.29
173 4.0473 2240.69 2144.70 47.34
174 4.0557 2229.06 2142.27 47.21
175 4.0641 2222.34 2139.86 47.14
176 4.0725 2246.18 2137.48 47.39
177 4.0809 2218.69 2135.11 47.10
178 4.0893 2223.14 2132.76 47.15
179 4.0977 2233.29 2130.44 47.26
180 4.1061 2204.11 2128.14 46.95
181 4.1145 2212.29 2125.85 47.03
182 4.1229 2211.93 2123.59 47.03
183 4.1313 2195.06 2121.34 46.85
184 4.1397 2211.85 2119.12 47.03
185 4.1481 2201.48 2116.91 46.92
186 4.1565 2190.39 2114.72 46.80
187 4.1649 2199.70 2112.56 46.90
188 4.1733 2185.73 2110.41 46.75
189 4.1817 2188.97 2108.28 46.79
190 4.1901 2185.85 2106.17 46.75
191 4.1985 2165.73 2104.08 46.54
192 4.2069 2183.43 2102.01 46.73
193 4.2153 2179.26 2099.95 46.68
194 4.2237 2167.31 2097.92 46.55
195 4.2321 2178.81 2095.90 46.68
196 4.2405 2157.14 2093.90 46.44
197 4.2489 2160.01 2091.92 46.48
198 4.2573 2168.33 2089.96 46.57
199 4.2657 2154.22 2088.01 46.41
200 4.2741 2162.09 2086.09 46.50
201 4.2825 2158.62 2084.18 46.46
202 4.2909 2150.54 2082.29 46.37
203 4.2993 2158.97 2080.41 46.46
204 4.3077 2141.60 2078.56 46.28
205 4.3161 2141.68 2076.72 46.28
206 4.3245 2160.26 2074.90 46.48
207 4.3329 2134.84 2073.09 46.20
208 4.3413 2139.76 2071.30 46.26
209 4.3497 2140.82 2069.53 46.27
210 4.3581 2133.91 2067.78 46.19
211 4.3665 2133.81 2066.04 46.19
212 4.3749 2132.10 2064.32 46.17
213 4.3833 2129.38 2062.62 46.15
214 4.3917 2137.10 2060.93 46.23
215 4.4001 2119.54 2059.26 46.04
216 4.4085 2129.10 2057.60 46.14
217 4.4169 2135.50 2055.96 46.21
218 4.4253 2123.28 2054.34 46.08
219 4.4337 2127.40 2052.73 46.12
220 4.4421 2118.66 2051.14 46.03
221 4.4505 2112.39 2049.56 45.96
222 4.4589 2114.19 2048.00 45.98
223 4.4673 2120.56 2046.46 46.05
224 4.4757 2120.04 2044.93 46.04
225 4.4841 2127.66 2043.41 46.13
226 4.4925 2108.46 2041.91 45.92
227 4.5009 2109.91 2040.43 45.93
228 4.5093 2110.38 2038.96 45.94
229 4.5177 2104.66 2037.50 45.88
230 4.5261 2112.67 2036.06 45.96
231 4.5345 2111.02 2034.64 45.95
232 4.5429 2107.91 2033.23 45.91
233 4.5513 2127.28 2031.83 46.12
234 4.5597 2111.90 2030.45 45.96
235 4.5681 2110.23 2029.08 45.94
236 4.5765 2115.22 2027.73 45.99
237 4.5849 2099.36 2026.39 45.82
238 4.5933 2114.04 2025.06 45.98
239 4.6017 2103.32 2023.75 45.86
240 4.6101 2096.64 2022.46 45.79
241 4.6185 2103.59 2021.17 45.86
242 4.6269 2100.79 2019.90 45.83
243 4.6353 2103.84 2018.65 45.87
244 4.6437 2106.61 2017.40 45.90
245 4.6521 2101.79 2016.17 45.85
246 4.6605 2098.96 2014.96 45.81
247 4.6689 2100.14 2013.75 45.83
248 4.6773 2099.09 2012.56 45.82
249 4.6857 2094.47 2011.39 45.77
250 4.6941 2088.83 2010.22 45.70
251 4.7025 2092.46 2009.07 45.74
252 4.7109 2104.03 2007.93 45.87
253 4.7193 2090.60 2006.80 45.72
254 4.7277 2102.69 2005.69 45.86
255 4.7361 2105.17 2004.59 45.88
256 4.7445 2094.26 2003.50 45.76
257 4.7529 2107.36 2002.43 45.91
258 4.7613 2097.57 2001.36 45.80
259 4.7697 2096.49 2000.31 45.79
260 4.7781 2109.97 1999.27 45.93
261 4.7865 2100.98 1998.24 45.84
262 4.7949 2098.85 1997.23 45.81
263 4.8033 2111.44 1996.22 45.95
264 4.8117 2106.33 1995.23 45.89
265 4.8201 2122.33 1994.25 46.07
266 4.8285 2106.08 2088.20 45.89
267 4.8369 2106.87 2089.32 45.90
268 4.8453 2120.20 2090.52 46.05
269 4.8537 2108.84 2091.80 45.92
270 4.8621 2113.42 2093.17 45.97
271 4.8705 2116.74 2094.63 46.01
272 4.8789 2114.00 2096.18 45.98
273 4.8873 2123.71 2097.83 46.08
274 4.8957 2126.91 2099.58 46.12
275 4.9041 2127.25 2101.44 46.12
276 4.9125 2129.06 2103.40 46.14
277 4.9209 2118.48 2105.48 46.03
278 4.9293 2133.94 2107.68 46.19
279 4.9377 2142.87 2110.00 46.29
280 4.9461 2136.07 2112.46 46.22
281 4.9545 2144.66 2115.05 46.31
282 4.9629 2137.80 2117.78 46.24
283 4.9713 2135.96 2120.66 46.22
284 4.9797 2141.11 2123.70 46.27
285 4.9881 2144.21 2126.90 46.31
286 4.9965 2152.13 2130.28 46.39
287 5.0049 2154.37 2133.84 46.42
288 5.0133 2158.58 2137.59 46.46
289 5.0217 2173.13 2141.54 46.62
290 5.0301 2164.37 2145.71 46.52
291 5.0385 2162.55 2150.10 46.50
292 5.0469 2174.02 2154.73 46.63
293 5.0553 2177.15 2159.61 46.66
294 5.0637 2182.70 2164.76 46.72
295 5.0721 2194.56 2170.19 46.85
296 5.0805 2185.28 2175.91 46.75
297 5.0889 2199.57 2181.96 46.90
298 5.0973 2206.95 2188.35 46.98
299 5.1057 2212.24 2195.09 47.03
300 5.1141 2212.64 2202.22 47.04
301 5.1225 2229.06 2209.76 47.21
302 5.1309 2227.54 2217.73 47.20
303 5.1393 2256.66 2226.18 47.50
304 5.1477 2244.20 2235.12 47.37
305 5.1561 2257.60 2244.60 47.51
306 5.1645 2272.47 2254.65 47.67
307 5.1729 2269.97 2265.32 47.64
308 5.1813 2290.98 2276.67 47.86
309 5.1897 2305.70 2288.72 48.02
310 5.1981 2311.37 2301.56 48.08
311 5.2065 2326.75 2315.23 48.24
312 5.2149 2347.87 2329.82 48.45
313 5.2233 2368.67 2345.38 48.67
314 5.2317 2381.05 2362.02 48.80
315 5.2401 2393.46 2379.83 48.92
316 5.2485 2414.51 2398.91 49.14
317 5.2569 2422.69 2419.39 49.22
318 5.2653 2441.17 2441.38 49.41
319 5.2737 2475.51 2465.05 49.75
320 5.2821 2495.02 2490.56 49.95
321 5.2905 2521.76 2518.10 50.22
322 5.2989 2556.85 2547.88 50.57
323 5.3073 2579.49 2580.15 50.79
324 5.3157 2623.12 2615.17 51.22
325 5.3241 2666.92 2653.27 51.64
326 5.3325 2694.84 2694.80 51.91
327 5.3409 2747.35 2740.18 52.42
328 5.3493 2807.38 2789.89 52.98
329 5.3577 2853.24 2844.47 53.42
330 5.3661 2933.46 2904.57 54.16
331 5.3745 2993.61 2970.94 54.71
332 5.3829 3064.57 3044.47 55.36
333 5.3913 3186.74 3126.19 56.45
334 5.3997 3272.36 3217.37 57.20
335 5.4081 3377.69 3319.50 58.12
336 5.4165 3515.88 3434.47 59.29
337 5.4249 3657.76 3564.65 60.48
338 5.4333 3834.43 3713.22 61.92
339 5.4417 4055.74 3884.49 63.68
340 5.4501 4295.68 4084.74 65.54
341 5.4585 4580.25 4323.22 67.68
342 5.4669 4936.91 4613.88 70.26
343 5.4753 5350.36 4977.55 73.15
344 5.4837 5839.93 5444.89 76.42
345 5.4921 6500.22 6059.46 80.62
346 5.5005 7318.39 6880.25 85.55
347 5.5089 8356.79 7983.01 91.42
348 5.5173 9752.53 9458.23 98.75
349 5.5257 11314.30 11405.20 106.37
350 5.5341 13811.20 13920.00 117.52
351 5.5425 16708.10 17079.90 129.26
352 5.5509 20335.10 20921.10 142.60
353 5.5593 25519.00 25416.20 159.75
354 5.5677 30694.60 30444.50 175.20
355 5.5761 36261.30 35758.60 190.42
356 5.5845 42587.40 40943.10 206.37
357 5.5929 47103.60 45390.50 217.03
358 5.6013 49817.90 48369.80 223.20
359 5.6097 49911.90 49253.90 223.41
360 5.6181 47856.10 47832.60 218.76
361 5.6265 43679.40 44443.40 209.00
362 5.6349 38122.60 39758.30 195.25
363 5.6433 32846.80 34497.00 181.24
364 5.6517 27481.30 29221.50 165.77
365 5.6601 23012.10 24304.10 151.70
366 5.6685 19088.10 19958.10 138.16
367 5.6769 16149.80 16279.30 127.08
368 5.6853 13488.60 13277.60 116.14
369 5.6937 11549.70 10905.30 107.47
370 5.7021 9961.40 9079.07 99.81
371 5.7105 8671.63 7700.49 93.12
372 5.7189 7660.16 6671.86 87.52
373 5.7273 6788.17 5905.73 82.39
374 5.7357 6102.98 5330.33 78.12
375 5.7441 5542.79 4890.46 74.45
376 5.7525 5094.10 4545.97 71.37
377 5.7609 4674.92 4268.78 68.37
378 5.7693 4360.40 4039.94 66.03
379 5.7777 4086.08 3846.78 63.92
380 5.7861 3833.59 3680.92 61.92
381 5.7945 3647.55 3536.61 60.40
382 5.8029 3478.98 3409.85 58.98
383 5.8113 3324.19 3297.69 57.66
384 5.8197 3212.32 3197.91 56.68
385 5.8281 3096.08 3108.70 55.64
386 5.8365 2988.93 3028.64 54.67
387 5.8449 2923.37 2956.53 54.07
388 5.8533 2827.73 2891.37 53.18
389 5.8617 2760.12 2832.30 52.54
390 5.8701 2715.64 2778.60 52.11
391 5.8785 2632.52 2729.66 51.31
392 5.8869 2597.17 2684.93 50.96
393 5.8953 2545.22 2643.97 50.45
394 5.9037 2511.53 2606.36 50.12
395 5.9121 2479.67 2571.77 49.80
396 5.9205 2436.69 2539.88 49.36
397 5.9289 2403.18 2510.43 49.02
398 5.9373 2397.06 2483.19 48.96
399 5.9457 2349.52 2457.96 48.47
400 5.9541 2340.90 2434.54 48.38
401 5.9625 2314.10 2412.77 48.11
402 5.9709 2299.74 2392.52 47.96
403 5.9793 2275.56 2373.65 47.70
404 5.9877 2255.56 2356.06 47.49
405 5.9961 2247.63 2339.64 47.41
406 6.0045 2222.26 2324.29 47.14
407 6.0129 2209.35 2309.94 47.00
408 6.0213 2203.64 2296.52 46.94
409 6.0297 2189.31 2283.95 46.79
410 6.0381 2172.69 2272.18 46.61
411 6.0465 2179.92 2261.16 46.69
412 6.0549 2157.36 2250.84 46.45
413 6.0633 2149.54 2241.18 46.36
414 6.0717 2148.71 2232.13 46.35
415 6.0801 2128.21 2223.67 46.13
416 6.0885 2128.81 2215.76 46.14
417 6.0969 2124.21 2208.38 46.09
418 6.1053 2108.63 2201.51 45.92
419 6.1137 2116.48 2195.12 46.01
420 6.1221 2109.32 2189.20 45.93
421 6.1305 2105.29 2183.74 45.88
422 6.1389 2114.23 2178.72 45.98
423 6.1473 2104.89 2174.14 45.88
424 6.1557 2107.63 2169.99 45.91
425 6.1641 2113.75 2166.28 45.98
426 6.1725 2102.96 2163.00 45.86
427 6.1809 2105.83 2160.16 45.89
428 6.1893 2115.19 2157.77 45.99
429 6.1977 2113.79 2155.85 45.98
430 6.2061 2125.68 2154.42 46.11
431 6.2145 2114.73 2153.51 45.99
432 6.2229 2133.33 2153.14 46.19
433 6.2313 2139.28 2153.37 46.25
434 6.2397 2127.19 2154.25 46.12
435 6.2481 2138.67 2155.84 46.25
436 6.2565 2133.94 2158.24 46.19
437 6.2649 2136.21 2161.57 46.22
438 6.2733 2148.55 2165.99 46.35
439 6.2817 2140.86 2171.73 46.27
440 6.2901 2146.88 2179.13 46.33
441 6.2985 2158.18 2188.68 46.46
442 6.3069 2159.50 2201.12 46.47
443 6.3153 2178.17 2217.49 46.67
444 6.3237 2195.25 2239.30 46.85
445 6.3321 2205.92 2268.58 46.97
446 6.3405 2253.83 2307.96 47.47
447 6.3489 2271.33 2360.71 47.66
448 6.3573 2309.63 2431.96 48.06
449 6.3657 2358.80 2523.00 48.57
450 6.3741 2430.37 2638.93 49.30
451 6.3825 2533.89 2782.69 50.34
452 6.3909 2674.67 2955.61 51.72
453 6.3993 2892.40 3062.43 53.78
454 6.4077 3164.26 3288.71 56.25
455 6.4161 3517.04 3528.91 59.30
456 6.4245 3901.49 3767.27 62.46
457 6.4329 4254.69 3980.72 65.23
458 6.4413 4498.21 4140.68 67.07
459 6.4497 4630.19 4220.05 68.05
460 6.4581 4579.31 4204.17 67.67
461 6.4665 4422.65 4097.83 66.50
462 6.4749 4184.80 3921.90 64.69
463 6.4833 3919.65 3703.43 62.61
464 6.4917 3644.64 3467.44 60.37
465 6.5001 3380.03 3233.50 58.14
466 6.5085 3131.61 3015.17 55.96
467 6.5169 2923.87 2820.70 54.07
468 6.5253 2742.19 2653.98 52.37
469 6.5337 2579.20 2515.67 50.79
470 6.5421 2479.93 2404.08 49.80
471 6.5505 2379.04 2316.12 48.78
472 6.5589 2302.69 2248.05 47.99
473 6.5673 2243.15 2195.98 47.36
474 6.5757 2195.83 2156.36 46.86
475 6.5841 2151.08 2126.12 46.38
476 6.5925 2123.87 2102.80 46.09
477 6.6009 2089.53 2084.51 45.71
478 6.6093 2077.98 2069.86 45.58
479 6.6177 2056.38 2057.86 45.35
480 6.6261 2037.45 2047.84 45.14
481 6.6345 2036.09 2039.31 45.12
482 6.6429 2019.63 2031.95 44.94
483 6.6513 1992.65 2025.53 44.64
484 6.6597 1995.90 2019.88 44.68
485 6.6681 1977.28 2014.87 44.47
486 6.6765 1986.04 2010.42 44.56
487 6.6849 1972.19 2006.45 44.41
488 6.6933 1960.16 2002.89 44.27
489 6.7017 1965.30 1999.69 44.33
490 6.7101 1954.26 1996.82 44.21
491 6.7185 1952.54 1994.23 44.19
492 6.7269 1954.19 1991.90 44.21
493 6.7353 1938.10 1989.79 44.02
494 6.7437 1945.74 1987.89 44.11
495 6.7521 1945.63 1986.16 44.11
496 6.7605 1930.88 1984.61 43.94
497 6.7689 1944.73 1983.20 44.10
498 6.7773 1929.98 1981.93 43.93
499 6.7857 1925.01 1980.79 43.87
500 6.7941 1936.99 1979.77 44.01
501 6.8025 1932.43 1978.85 43.96
502 6.8109 1929.44 1978.03 43.93
503 6.8193 1932.60 1977.30 43.96
504 6.8277 1917.47 1976.66 43.79
505 6.8361 1928.00 1976.11 43.91
506 6.8445 1923.86 1975.63 43.86
507 6.8529 1926.25 1975.23 43.89
508 6.8613 1925.56 1974.91 43.88
509 6.8697 1923.25 1974.65 43.85
510 6.8781 1924.88 1974.47 43.87
511 6.8865 1921.33 1974.35 43.83
512 6.8949 1926.07 1974.30 43.89
513 6.9033 1917.51 1974.33 43.79
514 6.9117 1924.57 1974.42 43.87
515 6.9201 1911.21 1974.59 43.72
516 6.9285 1919.39 1974.84 43.81
517 6.9369 1912.83 1975.16 43.74
518 6.9453 1919.78 1975.57 43.82
519 6.9537 1919.82 1976.07 43.82
520 6.9621 1911.78 1976.66 43.72
521 6.9705 1921.36 1977.36 43.83
522 6.9789 1929.43 1978.18 43.93
523 6.9873 1912.00 1979.12 43.73
524 6.9957 1923.57 1980.20 43.86
525 7.0041 1915.29 1981.45 43.76
526 7.0125 1923.29 1982.87 43.86
527 7.0209 1922.68 1993.47 43.85
528 7.0293 1921.30 1995.53 43.83
529 7.0377 1937.53 1997.89 44.02
530 7.0461 1931.19 2000.64 43.95
531 7.0545 1929.48 2003.87 43.93
532 7.0629 1932.13 2007.73 43.96
533 7.0713 1935.24 2012.45 43.99
534 7.0797 1945.45 2018.34 44.11
535 7.0881 1957.62 2025.81 44.25
536 7.0965 1956.91 2035.43 44.24
537 7.1049 1975.49 2047.90 44.45
538 7.1133 1987.98 2064.10 44.59
539 7.1217 1993.52 2084.99 44.65
540 7.1301 2030.37 2111.57 45.06
541 7.1385 2059.80 2144.79 45.38
542 7.1469 2111.90 2185.38 45.96
543 7.1553 2188.34 2233.65 46.78
544 7.1637 2272.88 2289.33 47.67
545 7.1721 2402.13 2351.32 49.01
546 7.1805 2560.52 2417.38 50.60
547 7.1889 2718.24 2483.76 52.14
548 7.1973 2884.54 2544.90 53.71
549 7.2057 3001.25 2593.59 54.78
550 7.2141 3041.06 2622.30 55.15
551 7.2225 3015.99 2625.70 54.92
552 7.2309 2897.23 2603.19 53.83
553 7.2393 2744.17 2559.18 52.38
554 7.2477 2596.70 2500.96 50.96
555 7.2561 2445.93 2435.96 49.46
556 7.2645 2327.53 2370.18 48.24
557 7.2729 2223.74 2307.75 47.16
558 7.2813 2157.94 2251.21 46.45
559 7.2897 2107.11 2197.62 45.90
560 7.2981 2062.61 2156.10 45.42
561 7.3065 2031.17 2122.07 45.07
562 7.3149 2016.49 2094.51 44.91
563 7.3233 2000.10 2073.24 44.72
564 7.3317 1987.84 2056.91 44.59
565 7.3401 1977.51 2044.52 44.47
566 7.3485 1972.66 2035.19 44.41
567 7.3569 1971.53 2028.18 44.40
568 7.3653 1959.21 2022.88 44.26
569 7.3737 1961.18 2018.84 44.29
570 7.3821 1957.95 2015.75 44.25
571 7.3905 1949.87 2013.35 44.16
572 7.3989 1951.62 2011.49 44.18
573 7.4073 1954.76 2010.06 44.21
574 7.4157 1942.08 2008.97 44.07
575 7.4241 1960.69 2008.18 44.28
576 7.4325 1949.60 2007.65 44.15
577 7.4409 1954.99 2007.34 44.22
578 7.4493 1952.10 2007.25 44.18
579 7.4577 1945.80 2007.34 44.11
580 7.4661 1958.58 2007.61 44.26
581 7.4745 1962.13 2008.05 44.30
582 7.4829 1946.76 2008.66 44.12
583 7.4913 1956.07 2009.43 44.23
584 7.4997 1954.65 2010.35 44.21
585 7.5081 1959.92 2011.44 44.27
586 7.5165 1969.74 2012.69 44.38
587 7.5249 1961.32 2014.10 44.29
588 7.5333 1964.80 2015.68 44.33
589 7.5417 1966.08 2017.43 44.34
590 7.5501 1958.88 2019.37 44.26
591 7.5585 1976.87 2021.50 44.46
592 7.5669 1969.20 2023.84 44.38
593 7.5753 1973.92 2026.39 44.43
594 7.5837 1984.30 2029.19 44.55
595 7.5921 1976.83 2032.24 44.46
596 7.6005 1989.03 2035.57 44.60
597 7.6089 1986.47 2039.21 44.57
598 7.6173 1982.39 2043.18 44.52
599 7.6257 1997.18 2047.51 44.69
600 7.6341 1995.37 2052.26 44.67
601 7.6425 2007.97 2057.46 44.81
602 7.6509 2013.90 2077.16 44.88
603 7.6593 2001.79 2083.69 44.74
604 7.6677 2021.15 2090.86 44.96
605 7.6761 2014.37 2098.76 44.88
606 7.6845 2016.83 2107.49 44.91
607 7.6929 2032.88 2117.16 45.09
608 7.7013 2039.68 2127.92 45.16
609 7.7097 2053.97 2139.96 45.32
610 7.7181 2062.56 2153.53 45.42
611 7.7265 2074.30 2168.95 45.54
612 7.7349 2089.44 2186.66 45.71
613 7.7433 2101.93 2207.32 45.85
614 7.7517 2114.42 2231.83 45.98
615 7.7601 2154.76 2261.45 46.42
616 7.7685 2161.56 2297.98 46.49
617 7.7769 2194.64 2343.85 46.85
618 7.7853 2225.46 2402.23 47.17
619 7.7937 2271.51 2477.16 47.66
620 7.8021 2334.99 2573.53 48.32
621 7.8105 2394.16 2696.87 48.93
622 7.8189 2493.90 2853.09 49.94
623 7.8273 2632.96 3047.88 51.31
624 7.8357 2811.39 3285.97 53.02
625 7.8441 3077.21 3570.26 55.47
626 7.8525 3432.56 3900.67 58.59
627 7.8609 3981.34 4273.06 63.10
628 7.8693 4648.21 4677.53 68.18
629 7.8777 5458.77 5096.74 73.88
630 7.8861 6383.16 5503.55 79.89
631 7.8945 7243.24 5860.23 85.11
632 7.9029 7871.83 6121.82 88.72
633 7.9113 8038.21 6246.54 89.66
634 7.9197 7794.10 6211.58 88.28
635 7.9281 7221.50 6023.73 84.98
636 7.9365 6358.20 5716.10 79.74
637 7.9449 5607.99 5333.55 74.89
638 7.9533 4758.95 4918.81 68.99
639 7.9617 4152.72 4504.85 64.44
640 7.9701 3657.00 4114.30 60.47
641 7.9785 3264.42 3761.00 57.14
642 7.9869 2986.42 3452.05 54.65
643 7.9953 2765.09 3189.71 52.58
644 8.0037 2605.04 2972.57 51.04
645 8.0121 2502.87 2796.84 50.03
646 8.0205 2413.01 2657.27 49.12
647 8.0289 2341.01 2547.99 48.38
648 8.0373 2284.63 2463.23 47.80
649 8.0457 2238.27 2397.70 47.31
650 8.0541 2221.83 2346.89 47.14
651 8.0625 2181.20 2307.16 46.70
652 8.0709 2170.50 2275.65 46.59
653 8.0793 2147.21 2250.26 46.34
654 8.0877 2127.84 2228.09 46.13
655 8.0961 2122.94 2210.78 46.08
656 8.1045 2112.94 2196.19 45.97
657 8.1129 2108.92 2183.76 45.92
658 8.1213 2107.12 2173.12 45.90
659 8.1297 2090.16 2163.99 45.72
660 8.1381 2097.36 2156.17 45.80
661 8.1465 2091.42 2149.48 45.73
662 8.1549 2085.09 2143.81 45.66
663 8.1633 2085.72 2139.07 45.67
664 8.1717 2080.26 2135.17 45.61
665 8.1801 2074.46 2132.05 45.55
666 8.1885 2083.69 2129.65 45.65
667 8.1969 2075.32 2127.94 45.56
668 8.2053 2076.17 2127.30 45.56
669 8.2137 2086.62 2126.89 45.68
670 8.2221 2077.93 2127.10 45.58
671 8.2305 2094.13 2127.92 45.76
672 8.2389 2087.18 2129.35 45.69
673 8.2473 2097.46 2131.41 45.80
674 8.2557 2099.72 2134.11 45.82
675 8.2641 2106.62 2137.47 45.90
676 8.2725 2111.32 2141.52 45.95
677 8.2809 2123.67 2146.30 46.08
678 8.2893 2119.61 2151.86 46.04
679 8.2977 2133.40 2158.25 46.19
680 8.3061 2140.40 2165.56 46.26
681 8.3145 2154.42 2173.86 46.42
682 8.3229 2168.98 2183.27 46.57
683 8.3313 2167.39 2193.89 46.56
684 8.3397 2197.57 2205.88 46.88
685 8.3481 2212.72 2219.42 47.04
686 8.3565 2233.15 2234.73 47.26
687 8.3649 2266.98 2252.10 47.61
688 8.3733 2281.59 2271.91 47.77
689 8.3817 2316.50 2294.67 48.13
690 8.3901 2353.16 2321.07 48.51
691 8.3985 2391.99 2352.09 48.91
692 8.4069 2451.68 2389.13 49.51
693 8.4153 2511.08 2434.07 50.11
694 8.4237 2573.70 2489.57 50.73
695 8.4321 2670.97 2559.16 51.68
696 8.4405 2766.39 2647.42 52.60
697 8.4489 2889.13 2760.11 53.75
698 8.4573 3036.73 2904.09 55.11
699 8.4657 3223.08 3087.17 56.77
700 8.4741 3455.57 3317.61 58.78
701 8.4825 3691.85 3603.40 60.76
702 8.4909 4052.01 3951.43 63.66
703 8.4993 4421.43 4366.09 66.49
704 8.5077 4949.54 4847.99 70.35
705 8.5161 5464.91 5392.51 73.93
706 8.5245 6142.97 5987.47 78.38
707 8.5329 6793.44 6611.06 82.42
708 8.5413 7509.05 7228.44 86.65
709 8.5497 8155.61 7789.97 90.31
710 8.5581 8633.99 8233.53 92.92
711 8.5665 8944.72 8495.75 94.58
712 8.5749 8948.77 8532.20 94.60
713 8.5833 8739.49 8336.22 93.49
714 8.5917 8316.51 7942.02 91.19
715 8.6001 7713.23 7409.51 87.82
716 8.6085 7105.06 6802.77 84.29
717 8.6169 6479.24 6175.96 80.49
718 8.6253 5901.99 5568.24 76.82
719 8.6337 5341.99 5005.28 73.09
720 8.6421 4905.69 4501.98 70.04
721 8.6505 4498.92 4065.04 67.07
722 8.6589 4175.30 3695.36 64.62
723 8.6673 3866.64 3389.56 62.18
724 8.6757 3637.42 3141.40 60.31
725 8.6841 3433.99 2943.15 58.60
726 8.6925 3244.45 2786.51 56.96
727 8.7009 3107.01 2663.49 55.74
728 8.7093 2973.36 2566.92 54.53
729 8.7177 2866.44 2490.67 53.54
730 8.7261 2780.62 2429.78 52.73
731 8.7345 2685.36 2380.42 51.82
732 8.7429 2619.85 2339.99 51.18
733 8.7513 2556.68 2305.74 50.56
734 8.7597 2499.77 2276.81 50.00
735 8.7681 2451.54 2251.41 49.51
736 8.7765 2415.52 2229.10 49.15
737 8.7849 2374.71 2209.32 48.73
738 8.7933 2352.11 2191.64 48.50
739 8.8017 2313.70 2175.76 48.10
740 8.8101 2287.96 2161.41 47.83
741 8.8185 2267.55 2139.50 47.62
742 8.8269 2233.94 2127.85 47.26
743 8.8353 2227.47 2117.24 47.20
744 8.8437 2211.92 2107.54 47.03
745 8.8521 2188.47 2098.68 46.78
746 8.8605 2180.71 2090.55 46.70
747 8.8689 2159.34 2083.09 46.47
748 8.8773 2162.24 2076.23 46.50
749 8.8857 2150.45 2069.92 46.37
750 8.8941 2126.35 2064.11 46.11
751 8.9025 2126.75 2058.76 46.12
752 8.9109 2116.20 2053.83 46.00
753 8.9193 2108.27 2049.30 45.92
754 8.9277 2098.76 2045.13 45.81
755 8.9361 2095.06 2041.31 45.77
756 8.9445 2089.50 2037.83 45.71
757 8.9529 2085.57 2034.68 45.67
758 8.9613 2073.64 2031.85 45.54
759 8.9697 2076.70 2029.36 45.57
760 8.9781 2078.66 2027.23 45.59
761 8.9865 2072.94 2025.50 45.53
762 8.9949 2073.90 2024.22 45.54
763 9.0033 2063.71 2023.48 45.43
764 9.0117 2075.51 2023.40 45.56
765 9.0201 2077.92 2024.12 45.58
766 9.0285 2070.34 2025.81 45.50
767 9.0369 2086.74 2028.67 45.68
768 9.0453 2083.37 2032.93 45.64
769 9.0537 2101.42 2038.78 45.84
770 9.0621 2114.19 2046.42 45.98
771 9.0705 2128.34 2055.98 46.13
772 9.0789 2159.00 2067.50 46.47
773 9.0873 2190.77 2080.87 46.81
774 9.0957 2220.07 2095.83 47.12
775 9.1041 2285.63 2111.86 47.81
776 9.1125 2314.93 2128.11 48.11
777 9.1209 2370.78 2143.34 48.69
778 9.1293 2395.83 2155.94 48.95
779 9.1377 2408.09 2164.12 49.07
780 9.1461 2415.00 2166.40 49.14
781 9.1545 2392.80 2162.16 48.92
782 9.1629 2351.84 2151.90 48.50
783 9.1713 2313.67 2137.04 48.10
784 9.1797 2261.59 2119.35 47.56
785 9.1881 2229.64 2100.49 47.22
786 9.1965 2183.80 2081.71 46.73
787 9.2049 2140.47 2063.89 46.27
788 9.2133 2116.91 2047.59 46.01
789 9.2217 2087.11 2033.08 45.68
790 9.2301 2058.72 2020.47 45.37
791 9.2385 2044.36 2009.74 45.21
792 9.2469 2028.80 2000.75 45.04
793 9.2553 2013.63 2002.26 44.87
794 9.2637 2014.52 1996.31 44.88
795 9.2721 1996.31 1991.48 44.68
796 9.2805 2001.00 1987.55 44.73
797 9.2889 1984.88 1984.34 44.55
798 9.2973 1984.01 1981.68 44.54
799 9.3057 1979.97 1979.46 44.50
800 9.3141 1968.64 1977.57 44.37
801 9.3225 1966.07 1975.94 44.34
802 9.3309 1962.36 1974.51 44.30
803 9.3393 1954.37 1973.25 44.21
804 9.3477 1961.27 1972.12 44.29
805 9.3561 1958.37 1971.11 44.25
806 9.3645 1953.48 1970.21 44.20
807 9.3729 1952.29 1969.39 44.18
808 9.3813 1946.37 1968.66 44.12
809 9.3897 1945.17 1968.01 44.10
810 9.3981 1952.66 1967.43 44.19
811 9.4065 1940.86 1966.93 44.06
812 9.4149 1940.73 1966.49 44.05
813 9.4233 1940.26 1966.13 44.05
814 9.4317 1939.63 1965.84 44.04
815 9.4401 1941.36 1965.62 44.06
816 9.4485 1935.54 1965.48 43.99
817 9.4569 1935.22 1965.41 43.99
818 9.4653 1946.54 1965.43 44.12
819 9.4737 1930.63 1965.53 43.94
820 9.4821 1939.23 1965.73 44.04
821 9.4905 1934.66 1966.04 43.98
822 9.4989 1941.57 1952.32 44.06
823 9.5073 1942.82 1953.12 44.08
824 9.5157 1938.81 1954.08 44.03
825 9.5241 1943.09 1955.21 44.08
826 9.5325 1947.90 1956.56 44.13
827 9.5409 1949.28 1958.20 44.15
828 9.5493 1951.12 1960.18 44.17
829 9.5577 1947.04 1962.63 44.13
830 9.5661 1964.09 1965.68 44.32
831 9.5745 1971.53 1969.50 44.40
832 9.5829 1972.15 1974.31 44.41
833 9.5913 1979.60 1980.36 44.49
834 9.5997 1996.78 1987.94 44.69
835 9.6081 2007.00 1997.37 44.80
836 9.6165 2019.20 2008.95 44.94
837 9.6249 2044.84 2022.96 45.22
838 9.6333 2073.83 2039.61 45.54
839 9.6417 2115.17 2058.99 45.99
840 9.6501 2147.77 2081.03 46.34
841 9.6585 2208.89 2105.40 47.00
842 9.6669 2276.18 2131.46 47.71
843 9.6753 2342.78 2158.15 48.40
844 9.6837 2421.52 2183.90 49.21
845 9.6921 2482.28 2206.67 49.82
846 9.7005 2522.77 2224.15 50.23
847 9.7089 2533.76 2234.26 50.34
848 9.7173 2511.67 2235.68 50.12
849 9.7257 2478.08 2228.27 49.78
850 9.7341 2416.35 2213.14 49.16
851 9.7425 2346.64 2192.28 48.44
852 9.7509 2286.51 2168.02 47.82
853 9.7593 2218.40 2142.47 47.10
854 9.7677 2164.43 2117.33 46.52
855 9.7761 2125.38 2093.74 46.10
856 9.7845 2078.60 2072.44 45.59
857 9.7929 2048.71 2053.80 45.26
858 9.8013 2018.00 2037.96 44.92
859 9.8097 2003.25 2024.85 44.76
860 9.8181 1980.72 2014.30 44.51
861 9.8265 1976.33 2006.05 44.46
862 9.8349 1956.19 1999.81 44.23
863 9.8433 1950.14 1995.27 44.16
864 9.8517 1933.56 1992.15 43.97
865 9.8601 1936.24 1990.20 44.00
866 9.8685 1931.86 1989.22 43.95
867 9.8769 1915.46 1989.03 43.77
868 9.8853 1924.08 1989.51 43.86
869 9.8937 1915.79 1990.58 43.77
870 9.9021 1920.00 1992.16 43.82
871 9.9105 1913.79 1994.23 43.75
872 9.9189 1906.71 1996.77 43.67
873 9.9273 1914.78 1999.78 43.76
874 9.9357 1910.16 2003.26 43.71
875 9.9441 1917.16 2007.24 43.79
876 9.9525 1921.96 2011.76 43.84
877 9.9609 1928.45 2016.86 43.91
878 9.9693 1930.28 2022.58 43.93
879 9.9777 1926.64 2028.99 43.89
880 9.9861 1931.14 2036.18 43.94
881 9.9945 1945.56 2044.23 44.11
882 10.0029 1950.01 2053.26 44.16
883 10.0113 1949.89 2063.43 44.16
884 10.0197 1966.68 2074.91 44.35
885 10.0281 1972.07 2087.96 44.41
886 10.0365 1993.65 2102.88 44.65
887 10.0449 1996.17 2120.13 44.68
888 10.0533 2014.32 2140.31 44.88
889 10.0617 2030.56 2164.24 45.06
890 10.0701 2057.68 2193.03 45.36
891 10.0785 2083.70 2228.17 45.65
892 10.0869 2118.08 2271.58 46.02
893 10.0953 2152.26 2325.28 46.39
894 10.1037 2206.02 2393.09 46.97
895 10.1121 2271.93 2478.08 47.66
896 10.1205 2332.30 2584.16 48.29
897 10.1289 2438.02 2715.46 49.38
898 10.1373 2555.80 2876.00 50.55
899 10.1457 2719.74 3069.34 52.15
900 10.1541 2908.39 3298.00 53.93
901 10.1625 3219.37 3562.88 56.74
902 10.1709 3527.06 3862.68 59.39
903 10.1793 3979.66 4192.80 63.08
904 10.1877 4470.59 4544.35 66.86
905 10.1961 5070.47 4902.78 71.21
906 10.2045 5668.16 5246.29 75.29
907 10.2129 6230.19 5548.81 78.93
908 10.2213 6678.52 5778.15 81.72
909 10.2297 6860.32 5891.20 82.83
910 10.2381 6826.40 5877.42 82.62
911 10.2465 6560.18 5739.04 81.00
912 10.2549 6140.52 5497.68 78.36
913 10.2633 5651.50 5185.65 75.18
914 10.2717 5067.18 4836.20 71.18
915 10.2801 4605.56 4476.91 67.86
916 10.2885 4146.95 4127.97 64.40
917 10.2969 3763.40 3802.66 61.35
918 10.3053 3453.82 3508.84 58.77
919 10.3137 3174.80 3250.35 56.35
920 10.3221 2963.86 3028.04 54.44
921 10.3305 2792.46 2840.59 52.84
922 10.3389 2637.39 2685.23 51.36
923 10.3473 2520.21 2558.31 50.20
924 10.3557 2428.98 2455.73 49.28
925 10.3641 2339.99 2373.41 48.37
926 10.3725 2286.78 2307.52 47.82
927 10.3809 2213.86 2254.65 47.05
928 10.3893 2175.98 2211.95 46.65
929 10.3977 2140.16 2177.07 46.26
930 10.4061 2083.12 2148.20 45.64
931 10.4145 2066.61 2123.94 45.46
932 10.4229 2045.73 2103.23 45.23
933 10.4313 2021.12 2085.30 44.96
934 10.4397 1999.84 2069.58 44.72
935 10.4481 1975.78 2055.67 44.45
936 10.4565 1966.53 2043.24 44.35
937 10.4649 1958.20 2032.07 44.25
938 10.4733 1942.47 2021.98 44.07
939 10.4817 1933.02 2012.82 43.97
940 10.4901 1923.41 2004.48 43.86
941 10.4985 1910.04 1996.87 43.70
942 10.5069 1905.80 1989.89 43.66
943 10.5153 1893.88 1983.50 43.52
944 10.5237 1883.09 1977.62 43.39
945 10.5321 1884.30 1972.20 43.41
946 10.5405 1877.53 1967.21 43.33
947 10.5489 1876.16 1962.60 43.31
948 10.5573 1871.66 1958.34 43.26
949 10.5657 1872.70 1954.39 43.27
950 10.5741 1866.45 1950.74 43.20
951 10.5825 1864.67 1947.36 43.18
952 10.5909 1853.12 1944.23 43.05
953 10.5993 1856.18 1941.33 43.08
954 10.6077 1851.72 1938.64 43.03
955 10.6161 1854.13 1936.16 43.06
956 10.6245 1848.15 1933.86 42.99
957 10.6329 1843.36 1931.75 42.93
958 10.6413 1849.56 1929.80 43.01
959 10.6497 1842.21 1928.01 42.92
960 10.6581 1839.36 1929.62 42.89
961 10.6665 1838.00 1928.19 42.87
962 10.6749 1833.32 1929.07 42.82
963 10.6833 1830.42 1927.97 42.78
964 10.6917 1836.80 1926.66 42.86
965 10.7001 1832.47 1925.84 42.81
966 10.7085 1832.79 1925.15 42.81
967 10.7169 1828.91 1924.59 42.77
968 10.7253 1837.93 1924.16 42.87
969 10.7337 1836.49 1923.86 42.85
970 10.7421 1836.22 1923.70 42.85
971 10.7505 1832.97 1923.67 42.81
972 10.7589 1835.77 1923.78 42.85
973 10.7673 1836.02 1924.02 42.85
974 10.7757 1831.84 1924.42 42.80
975 10.7841 1842.50 1924.96 42.92
976 10.7925 1841.73 1925.65 42.92
977 10.8009 1840.77 1926.51 42.90
978 10.8093 1849.62 1927.54 43.01
979 10.8177 1845.82 1928.75 42.96
980 10.8261 1849.64 1930.14 43.01
981 10.8345 1850.19 1931.74 43.01
982 10.8429 1856.39 1933.55 43.09
983 10.8513 1851.44 1935.59 43.03
984 10.8597 1858.28 1937.87 43.11
985 10.8681 1859.02 1940.41 43.12
986 10.8765 1871.61 1943.24 43.26
987 10.8849 1876.86 1946.37 43.32
988 10.8933 1872.45 1949.84 43.27
989 10.9017 1883.53 1953.66 43.40
990 10.9101 1888.70 1957.89 43.46
991 10.9185 1892.23 1962.55 43.50
992 10.9269 1900.43 1967.69 43.59
993 10.9353 1910.37 1973.35 43.71
994 10.9437 1919.65 1979.60 43.81
995 10.9521 1926.57 1986.50 43.89
996 10.9605 1940.10 1994.12 44.05
997 10.9689 1949.78 2002.55 44.16
998 10.9773 1965.58 2011.90 44.33
999 10.9857 1980.76 2022.28 44.51
1000 10.9941 1996.48 2033.85 44.68
1001 11.0025 2026.83 2046.80 45.02
1002 11.0109 2041.58 2061.35 45.18
1003 11.0193 2076.40 2077.84 45.57
1004 11.0277 2093.69 2096.66 45.76
1005 11.0361 2129.04 2118.37 46.14
1006 11.0445 2167.42 2143.71 46.56
1007 11.0529 2213.08 2173.65 47.04
1008 11.0613 2253.10 2209.51 47.47
1009 11.0697 2317.05 2252.99 48.14
1010 11.0781 2389.62 2306.24 48.88
1011 11.0865 2465.97 2371.95 49.66
1012 11.0949 2554.33 2466.71 50.54
1013 11.1033 2662.69 2567.66 51.60
1014 11.1117 2796.51 2692.08 52.88
1015 11.1201 2937.18 2844.19 54.20
1016 11.1285 3150.22 3028.10 56.13
1017 11.1369 3318.20 3247.43 57.60
1018 11.1453 3576.67 3504.69 59.81
1019 11.1537 3846.41 3800.85 62.02
1020 11.1621 4172.21 4134.45 64.59
1021 11.1705 4540.04 4500.74 67.38
1022 11.1789 4954.31 4890.49 70.39
1023 11.1873 5337.26 5288.64 73.06
1024 11.1957 5723.88 5673.05 75.66
1025 11.2041 6047.57 6014.71 77.77
1026 11.2125 6296.78 6280.09 79.35
1027 11.2209 6457.07 6428.17 80.36
1028 11.2293 6458.12 6455.62 80.36
1029 11.2377 6322.28 6348.78 79.51
1030 11.2461 6109.67 6122.60 78.16
1031 11.2545 5791.20 5806.21 76.10
1032 11.2629 5431.60 5434.13 73.70
1033 11.2713 5074.89 5038.19 71.24
1034 11.2797 4717.74 4643.56 68.69
1035 11.2881 4345.25 4267.90 65.92
1036 11.2965 4055.69 3922.32 63.68
1037 11.3049 3778.12 3613.05 61.47
1038 11.3133 3545.69 3342.63 59.55
1039 11.3217 3343.70 3110.86 57.82
1040 11.3301 3152.09 2915.76 56.14
1041 11.3385 3005.60 2754.04 54.82
1042 11.3469 2860.53 2621.75 53.48
1043 11.3553 2745.83 2514.68 52.40
1044 11.3637 2658.31 2428.63 51.56
1045 11.3721 2569.92 2359.79 50.69
1046 11.3805 2486.81 2304.76 49.87
1047 11.3889 2434.25 2260.69 49.34
1048 11.3973 2368.71 2225.26 48.67
1049 11.4057 2323.59 2196.64 48.20
1050 11.4141 2278.80 2173.44 47.74
1051 11.4225 2249.55 2154.59 47.43
1052 11.4309 2218.94 2139.35 47.11
1053 11.4393 2191.36 2127.16 46.81
1054 11.4477 2173.36 2117.66 46.62
1055 11.4561 2162.87 2110.59 46.51
1056 11.4645 2143.67 2105.81 46.30
1057 11.4729 2141.32 2103.70 46.27
1058 11.4813 2138.61 2103.50 46.25
1059 11.4897 2132.60 2105.75 46.18
1060 11.4981 2137.65 2110.71 46.23
1061 11.5065 2150.35 2118.80 46.37
1062 11.5149 2168.65 2130.57 46.57
1063 11.5233 2187.39 2146.83 46.77
1064 11.5317 2211.39 2168.57 47.03
1065 11.5401 2244.78 2197.10 47.38
1066 11.5485 2291.52 2233.96 47.87
1067 11.5569 2326.24 2280.97 48.23
1068 11.5653 2400.72 2340.14 49.00
1069 11.5737 2476.36 2413.62 49.76
1070 11.5821 2572.45 2503.49 50.72
1071 11.5905 2690.59 2611.64 51.87
1072 11.5989 2811.61 2739.50 53.02
1073 11.6073 2971.44 2887.72 54.51
1074 11.6157 3155.12 3055.94 56.17
1075 11.6241 3358.04 3242.14 57.95
1076 11.6325 3579.80 3442.22 59.83
1077 11.6409 3849.60 3649.29 62.05
1078 11.6493 4055.67 3852.84 63.68
1079 11.6577 4307.74 4038.56 65.63
1080 11.6661 4443.30 4189.41 66.66
1081 11.6745 4559.47 4288.22 67.52
1082 11.6829 4577.68 4322.13 67.66
1083 11.6913 4509.85 4286.47 67.16
1084 11.6997 4376.06 4186.39 66.15
1085 11.7081 4202.68 4034.95 64.83
1086 11.7165 3997.95 3849.21 63.23
1087 11.7249 3775.70 3646.11 61.45
1088 11.7333 3566.88 3439.70 59.72
1089 11.7417 3372.25 3240.37 58.07
1090 11.7501 3170.89 3055.02 56.31
1091 11.7585 3037.20 2887.69 55.11
1092 11.7669 2875.10 2740.37 53.62
1093 11.7753 2760.02 2613.46 52.54
1094 11.7837 2652.57 2506.30 51.50
1095 11.7921 2554.68 2417.50 50.54
1096 11.8005 2484.28 2345.18 49.84
1097 11.8089 2413.84 2287.29 49.13
1098 11.8173 2357.90 2241.72 48.56
1099 11.8257 2306.30 2206.47 48.02
1100 11.8341 2263.53 2179.79 47.58
1101 11.8425 2233.19 2160.15 47.26
1102 11.8509 2196.07 2146.32 46.86
1103 11.8593 2171.15 2137.33 46.60
1104 11.8677 2151.88 2132.46 46.39
1105 11.8761 2138.39 2131.24 46.24
1106 11.8845 2121.21 2133.30 46.06
1107 11.8929 2125.57 2138.51 46.10
1108 11.9013 2116.64 2146.90 46.01
1109 11.9097 2114.54 2158.59 45.98
1110 11.9181 2133.47 2175.26 46.19
1111 11.9265 2134.34 2195.28 46.20
1112 11.9349 2148.95 2219.67 46.36
1113 11.9433 2170.26 2249.98 46.59
1114 11.9517 2190.55 2287.62 46.80
1115 11.9601 2225.73 2334.44 47.18
1116 11.9685 2272.22 2392.81 47.67
1117 11.9769 2312.35 2465.69 48.09
1118 11.9853 2396.26 2556.65 48.95
1119 11.9937 2468.70 2669.84 49.69
1120 12.0021 2572.77 2809.82 50.72
1121 12.0105 2715.54 2981.50 52.11
1122 12.0189 2848.87 3189.66 53.37
1123 12.0273 3073.02 3438.63 55.43
1124 12.0357 3295.17 3731.82 57.40
1125 12.0441 3646.92 4070.94 60.39
1126 12.0525 4073.94 4455.51 63.83
1127 12.0609 4550.30 4881.54 67.46
1128 12.0693 5127.69 5340.56 71.61
1129 12.0777 5857.79 5817.95 76.54
1130 12.0861 6519.85 6290.82 80.75
1131 12.0945 7308.07 6726.98 85.49
1132 12.1029 7948.71 7086.27 89.16
1133 12.1113 8330.10 7326.22 91.27
1134 12.1197 8495.15 7413.00 92.17
1135 12.1281 8341.80 7333.08 91.33
1136 12.1365 7906.19 7098.48 88.92
1137 12.1449 7386.23 6741.96 85.94
1138 12.1533 6703.57 6305.74 81.88
1139 12.1617 6001.17 5830.39 77.47
1140 12.1701 5352.23 5348.51 73.16
1141 12.1785 4801.28 4883.53 69.29
1142 12.1869 4288.34 4450.65 65.49
1143 12.1953 3913.80 4058.60 62.56
1144 12.2037 3566.69 3711.62 59.72
1145 12.2121 3283.61 3410.42 57.30
1146 12.2205 3058.34 3153.41 55.30
1147 12.2289 2843.90 2934.22 53.33
1148 12.2373 2697.13 2754.80 51.93
1149 12.2457 2556.47 2599.31 50.56
1150 12.2541 2441.39 2478.79 49.41
1151 12.2625 2355.07 2380.56 48.53
1152 12.2709 2274.79 2300.94 47.69
1153 12.2793 2203.54 2235.29 46.94
1154 12.2877 2144.59 2181.06 46.31
1155 12.2961 2099.47 2135.82 45.82
1156 12.3045 2049.79 2097.65 45.27
1157 12.3129 2018.91 2065.06 44.93
1158 12.3213 1982.78 2036.93 44.53
1159 12.3297 1959.36 2012.44 44.26
1160 12.3381 1930.39 1991.00 43.94
1161 12.3465 1907.33 1972.17 43.67
1162 12.3549 1897.56 1955.65 43.56
1163 12.3633 1873.88 1941.25 43.29
1164 12.3717 1863.47 1928.83 43.17
1165 12.3801 1849.77 1918.34 43.01
1166 12.3885 1835.34 1909.77 42.84
1167 12.3969 1826.24 1903.12 42.73
1168 12.4053 1818.28 1898.43 42.64
1169 12.4137 1819.63 1895.74 42.66
1170 12.4221 1811.67 1895.05 42.56
1171 12.4305 1809.38 1896.37 42.54
1172 12.4389 1813.33 1899.61 42.58
1173 12.4473 1824.64 1904.62 42.72
1174 12.4557 1835.65 1911.11 42.84
1175 12.4641 1853.24 1918.62 43.05
1176 12.4725 1860.63 1926.46 43.13
1177 12.4809 1885.15 1933.67 43.42
1178 12.4893 1888.53 1939.06 43.46
1179 12.4977 1882.67 1941.33 43.39
1180 12.5061 1864.26 1939.45 43.18
1181 12.5145 1839.14 1932.91 42.89
1182 12.5229 1807.77 1922.00 42.52
1183 12.5313 1790.21 1907.60 42.31
1184 12.5397 1765.69 1890.94 42.02
1185 12.5481 1749.91 1873.22 41.83
1186 12.5565 1732.17 1855.40 41.62
1187 12.5649 1716.94 1838.21 41.44
1188 12.5733 1707.12 1822.10 41.32
1189 12.5817 1697.37 1807.34 41.20
1190 12.5901 1695.09 1794.06 41.17
1191 12.5985 1694.46 1782.29 41.16
1192 12.6069 1685.26 1771.99 41.05
1193 12.6153 1676.46 1763.06 40.94
1194 12.6237 1671.27 1755.38 40.88
1195 12.6321 1670.20 1748.81 40.87
1196 12.6405 1668.08 1743.21 40.84
1197 12.6489 1666.57 1738.45 40.82
1198 12.6573 1671.87 1734.39 40.89
1199 12.6657 1660.69 1730.93 40.75
1200 12.6741 1661.14 1728.00 40.76
1201 12.6825 1666.68 1725.52 40.83
1202 12.6909 1656.67 1723.43 40.70
1203 12.6993 1658.69 1719.70 40.73
1204 12.7077 1662.43 1718.40 40.77
1205 12.7161 1658.26 1714.85 40.72
1206 12.7245 1675.11 1714.25 40.93
1207 12.7329 1661.71 1713.99 40.76
1208 12.7413 1669.51 1714.10 40.86
1209 12.7497 1673.38 1714.62 40.91
1210 12.7581 1660.72 1715.58 40.75
1211 12.7665 1671.10 1717.08 40.88
1212 12.7749 1678.76 1719.20 40.97
1213 12.7833 1681.41 1722.08 41.01
1214 12.7917 1689.81 1725.89 41.11
1215 12.8001 1687.41 1730.86 41.08
1216 12.8085 1706.45 1737.28 41.31
1217 12.8169 1712.03 1745.50 41.38
1218 12.8253 1723.17 1755.94 41.51
1219 12.8337 1746.76 1769.12 41.79
1220 12.8421 1759.34 1785.58 41.94
1221 12.8505 1789.83 1805.93 42.31
1222 12.8589 1818.58 1830.78 42.64
1223 12.8673 1844.41 1860.69 42.95
1224 12.8757 1902.63 1896.15 43.62
1225 12.8841 1954.25 1937.46 44.21
1226 12.8925 2028.73 1984.68 45.04
1227 12.9009 2102.42 2037.51 45.85
1228 12.9093 2184.70 2095.13 46.74
1229 12.9177 2264.52 2156.07 47.59
1230 12.9261 2351.83 2217.98 48.50
1231 12.9345 2430.99 2277.40 49.31
1232 12.9429 2499.86 2329.83 50.00
1233 12.9513 2555.51 2370.06 50.55
1234 12.9597 2585.79 2393.15 50.85
1235 12.9681 2586.45 2395.81 50.86
1236 12.9765 2560.66 2377.45 50.60
1237 12.9849 2521.45 2340.42 50.21
1238 12.9933 2450.16 2289.20 49.50
1239 13.0017 2373.76 2229.03 48.72
1240 13.0101 2291.45 2164.81 47.87
1241 13.0185 2216.49 2100.44 47.08
1242 13.0269 2148.95 2038.73 46.36
1243 13.0353 2074.59 1981.69 45.55
1244 13.0437 2020.22 1929.90 44.95
1245 13.0521 1961.84 1884.03 44.29
1246 13.0605 1921.21 1844.12 43.83
1247 13.0689 1879.42 1809.93 43.35
1248 13.0773 1847.51 1783.10 42.98
1249 13.0857 1814.13 1758.97 42.59
1250 13.0941 1787.87 1738.98 42.28
1251 13.1025 1763.85 1722.53 42.00
1252 13.1109 1745.53 1709.05 41.78
1253 13.1193 1722.79 1698.02 41.51
1254 13.1277 1708.71 1689.03 41.34
1255 13.1361 1690.22 1681.70 41.11
1256 13.1445 1674.44 1675.76 40.92
1257 13.1529 1682.89 1657.15 41.02
1258 13.1613 1664.42 1653.69 40.80
1259 13.1697 1658.01 1651.22 40.72
1260 13.1781 1643.49 1649.72 40.54
1261 13.1865 1646.14 1649.24 40.57
1262 13.1949 1640.87 1649.83 40.51
1263 13.2033 1643.88 1651.61 40.54
1264 13.2117 1635.77 1654.71 40.44
1265 13.2201 1643.32 1659.25 40.54
1266 13.2285 1650.25 1665.38 40.62
1267 13.2369 1656.29 1673.20 40.70
1268 13.2453 1669.07 1682.78 40.85
1269 13.2537 1687.27 1694.12 41.08
1270 13.2621 1717.92 1707.14 41.45
1271 13.2705 1762.60 1721.59 41.98
1272 13.2789 1797.34 1737.05 42.40
1273 13.2873 1870.42 1752.84 43.25
1274 13.2957 1935.97 1767.94 44.00
1275 13.3041 2001.31 1781.03 44.74
1276 13.3125 2041.27 1790.56 45.18
1277 13.3209 2067.54 1795.14 45.47
1278 13.3293 2051.79 1793.88 45.30
1279 13.3377 2013.54 1786.77 44.87
1280 13.3461 1961.99 1774.64 44.29
1281 13.3545 1900.15 1758.90 43.59
1282 13.3629 1840.94 1741.05 42.91
1283 13.3713 1787.21 1722.45 42.28
1284 13.3797 1744.04 1704.10 41.76
1285 13.3881 1700.27 1686.69 41.23
1286 13.3965 1676.63 1671.46 40.95
1287 13.4049 1643.65 1657.04 40.54
1288 13.4133 1622.66 1644.30 40.28
1289 13.4217 1610.42 1633.25 40.13
1290 13.4301 1596.04 1623.80 39.95
1291 13.4385 1591.76 1618.58 39.90
1292 13.4469 1586.97 1611.97 39.84
1293 13.4553 1574.74 1606.52 39.68
1294 13.4637 1570.70 1602.08 39.63
1295 13.4721 1564.65 1598.49 39.56
1296 13.4805 1564.44 1595.62 39.55
1297 13.4889 1566.18 1593.37 39.58
1298 13.4973 1565.49 1591.64 39.57
1299 13.5057 1566.20 1590.37 39.58
1300 13.5141 1557.81 1589.51 39.47
1301 13.5225 1558.81 1589.03 39.48
1302 13.5309 1564.79 1588.92 39.56
1303 13.5393 1561.97 1589.18 39.52
1304 13.5477 1566.07 1589.84 39.57
1305 13.5561 1568.03 1590.53 39.60
1306 13.5645 1576.86 1592.13 39.71
1307 13.5729 1576.97 1594.33 39.71
1308 13.5813 1583.78 1597.25 39.80
1309 13.5897 1587.92 1601.04 39.85
1310 13.5981 1599.95 1605.90 40.00
1311 13.6065 1605.27 1612.10 40.07
1312 13.6149 1618.23 1619.92 40.23
1313 13.6233 1626.83 1629.73 40.33
1314 13.6317 1650.41 1641.91 40.63
1315 13.6401 1663.20 1656.88 40.78
1316 13.6485 1672.18 1675.05 40.89
1317 13.6569 1699.50 1696.83 41.22
1318 13.6653 1714.02 1722.54 41.40
1319 13.6737 1754.12 1752.39 41.88
1320 13.6821 1779.15 1786.43 42.18
1321 13.6905 1808.30 1824.46 42.52
1322 13.6989 1850.29 1865.89 43.01
1323 13.7073 1890.72 1909.68 43.48
1324 13.7157 1928.46 1954.09 43.91
1325 13.7241 1966.57 1996.54 44.35
1326 13.7325 2009.25 2033.65 44.82
1327 13.7409 2026.36 2061.52 45.02
1328 13.7493 2044.48 2076.57 45.22
1329 13.7577 2037.51 2077.88 45.14
1330 13.7661 2026.40 2062.81 45.02
1331 13.7745 2005.30 2034.80 44.78
1332 13.7829 1970.24 1997.42 44.39
1333 13.7913 1933.89 1961.05 43.98
1334 13.7997 1904.83 1917.08 43.64
1335 13.8081 1865.71 1872.84 43.19
1336 13.8165 1831.51 1830.94 42.80
1337 13.8249 1803.45 1792.47 42.47
1338 13.8333 1771.85 1758.03 42.09
1339 13.8417 1743.35 1727.84 41.75
1340 13.8501 1727.54 1701.90 41.56
1341 13.8585 1710.18 1680.00 41.35
1342 13.8669 1685.81 1661.85 41.06
1343 13.8753 1672.43 1647.07 40.90
1344 13.8837 1664.32 1635.27 40.80
1345 13.8921 1658.94 1626.05 40.73
1346 13.9005 1654.54 1619.06 40.68
1347 13.9089 1645.81 1613.99 40.57
1348 13.9173 1650.27 1610.58 40.62
1349 13.9257 1641.04 1608.65 40.51
1350 13.9341 1652.39 1608.07 40.65
1351 13.9425 1652.21 1608.78 40.65
1352 13.9509 1655.23 1610.80 40.68
1353 13.9593 1668.83 1614.20 40.85
1354 13.9677 1673.77 1619.14 40.91
1355 13.9761 1681.33 1625.80 41.00
1356 13.9845 1699.46 1634.53 41.22
1357 13.9929 1721.45 1645.68 41.49
1358 14.0013 1738.08 1659.69 41.69
1359 14.0097 1759.73 1677.06 41.95
1360 14.0181 1792.09 1697.00 42.33
1361 14.0265 1833.49 1722.30 42.82
1362 14.0349 1868.64 1753.25 43.23
1363 14.0433 1920.91 1789.79 43.83
1364 14.0517 1977.84 1832.28 44.47
1365 14.0601 2039.32 1880.86 45.16
1366 14.0685 2129.17 1935.33 46.14
1367 14.0769 2187.35 1995.07 46.77
1368 14.0853 2270.08 2058.98 47.65
1369 14.0937 2348.09 2125.40 48.46
1370 14.1021 2412.93 2192.11 49.12
1371 14.1105 2477.62 2256.07 49.78
1372 14.1189 2533.67 2313.34 50.34
1373 14.1273 2571.17 2359.04 50.71
1374 14.1357 2608.44 2387.96 51.07
1375 14.1441 2610.29 2395.85 51.09
1376 14.1525 2592.30 2380.99 50.91
1377 14.1609 2559.49 2344.90 50.59
1378 14.1693 2498.04 2291.96 49.98
1379 14.1777 2429.04 2227.96 49.29
1380 14.1861 2352.46 2158.60 48.50
1381 14.1945 2285.73 2088.54 47.81
1382 14.2029 2206.50 2021.15 46.97
1383 14.2113 2137.18 1958.63 46.23
1384 14.2197 2066.97 1902.24 45.46
1385 14.2281 2008.20 1852.57 44.81
1386 14.2365 1966.33 1809.75 44.34
1387 14.2449 1910.82 1773.62 43.71
1388 14.2533 1873.88 1743.79 43.29
1389 14.2617 1835.13 1719.76 42.84
1390 14.2701 1797.44 1700.95 42.40
1391 14.2785 1791.20 1686.83 42.32
1392 14.2869 1757.65 1676.89 41.92
1393 14.2953 1736.26 1670.71 41.67
1394 14.3037 1723.26 1667.99 41.51
1395 14.3121 1716.18 1668.56 41.43
1396 14.3205 1706.68 1672.38 41.31
1397 14.3289 1701.07 1679.59 41.24
1398 14.3373 1697.84 1690.45 41.20
1399 14.3457 1701.41 1705.40 41.25
1400 14.3541 1709.12 1725.01 41.34
1401 14.3625 1719.39 1749.96 41.47
1402 14.3709 1746.05 1781.06 41.79
1403 14.3793 1758.07 1819.15 41.93
1404 14.3877 1797.34 1864.56 42.40
1405 14.3961 1832.71 1919.14 42.81
1406 14.4045 1880.59 1982.95 43.37
1407 14.4129 1949.95 2056.31 44.16
1408 14.4213 2006.18 2139.01 44.79
1409 14.4297 2094.96 2230.21 45.77
1410 14.4381 2176.04 2328.12 46.65
1411 14.4465 2265.39 2429.83 47.60
1412 14.4549 2349.01 2531.24 48.47
1413 14.4633 2415.20 2627.22 49.14
1414 14.4717 2455.01 2711.88 49.55
1415 14.4801 2481.08 2778.97 49.81
1416 14.4885 2479.38 2822.30 49.79
1417 14.4969 2463.36 2836.78 49.63
1418 14.5053 2428.41 2819.74 49.28
1419 14.5137 2384.54 2772.23 48.83
1420 14.5221 2317.93 2699.19 48.14
1421 14.5305 2260.03 2608.13 47.54
1422 14.5389 2183.10 2507.26 46.72
1423 14.5473 2125.35 2403.77 46.10
1424 14.5557 2055.77 2303.14 45.34
1425 14.5641 2000.16 2209.12 44.72
1426 14.5725 1943.85 2123.91 44.09
1427 14.5809 1912.57 2048.64 43.73
1428 14.5893 1866.52 1983.71 43.20
1429 14.5977 1839.87 1928.94 42.89
1430 14.6061 1812.02 1883.85 42.57
1431 14.6145 1791.36 1847.77 42.32
1432 14.6229 1780.20 1819.90 42.19
1433 14.6313 1766.34 1799.45 42.03
1434 14.6397 1754.69 1785.71 41.89
1435 14.6481 1754.99 1778.06 41.89
1436 14.6565 1755.05 1776.09 41.89
1437 14.6649 1762.52 1779.54 41.98
1438 14.6733 1775.64 1788.42 42.14
1439 14.6817 1799.44 1802.97 42.42
1440 14.6901 1831.41 1823.72 42.79
1441 14.6985 1844.47 1851.48 42.95
1442 14.7069 1888.01 1887.35 43.45
1443 14.7153 1927.05 1932.72 43.90
1444 14.7237 1985.55 1989.29 44.56
1445 14.7321 2049.40 2058.97 45.27
1446 14.7405 2138.63 2143.81 46.25
1447 14.7489 2237.24 2245.96 47.30
1448 14.7573 2364.51 2367.49 48.63
1449 14.7657 2514.90 2510.10 50.15
1450 14.7741 2690.54 2674.99 51.87
1451 14.7825 2914.21 2865.86 53.98
1452 14.7909 3163.86 3074.81 56.25
1453 14.7993 3460.52 3302.23 58.83
1454 14.8077 3745.85 3542.83 61.20
1455 14.8161 4082.43 3791.31 63.89
1456 14.8245 4401.55 4029.41 66.34
1457 14.8329 4655.60 4249.00 68.23
1458 14.8413 4930.86 4432.39 70.22
1459 14.8497 5079.67 4562.38 71.27
1460 14.8581 5171.92 4623.46 71.92
1461 14.8665 5142.11 4605.85 71.71
1462 14.8749 5037.89 4509.35 70.98
1463 14.8833 4828.41 4344.12 69.49
1464 14.8917 4598.67 4127.76 67.81
1465 14.9001 4288.93 3880.60 65.49
1466 14.9085 4001.12 3621.29 63.25
1467 14.9169 3706.48 3364.36 60.88
1468 14.9253 3436.81 3119.85 58.62
1469 14.9337 3195.63 2894.13 56.53
1470 14.9421 2979.37 2690.45 54.58
1471 14.9505 2785.55 2510.02 52.78
1472 14.9589 2618.05 2352.68 51.17
1473 14.9673 2469.94 2217.24 49.70
1474 14.9757 2340.09 2101.90 48.37
1475 14.9841 2238.99 2004.55 47.32
1476 14.9925 2142.23 1922.91 46.28
1477 15.0009 2060.99 1854.69 45.40
1478 15.0093 1981.77 1797.74 44.52
1479 15.0177 1918.28 1750.13 43.80
1480 15.0261 1864.10 1710.13 43.18
1481 15.0345 1809.76 1676.29 42.54
1482 15.0429 1770.41 1647.42 42.08
1483 15.0513 1725.36 1622.55 41.54
1484 15.0597 1690.29 1600.88 41.11
1485 15.0681 1665.20 1581.84 40.81
1486 15.0765 1641.94 1564.93 40.52
1487 15.0849 1610.60 1549.79 40.13
1488 15.0933 1585.93 1536.14 39.82
1489 15.1017 1569.59 1523.77 39.62
1490 15.1101 1550.02 1512.48 39.37
1491 15.1185 1532.99 1509.57 39.15
1492 15.1269 1519.31 1500.19 38.98
1493 15.1353 1502.78 1491.55 38.77
1494 15.1437 1487.67 1483.57 38.57
1495 15.1521 1484.30 1476.96 38.53
1496 15.1605 1473.33 1470.36 38.38
1497 15.1689 1459.76 1463.78 38.21
1498 15.1773 1456.64 1457.88 38.17
1499 15.1857 1447.79 1452.38 38.05
1500 15.1941 1436.21 1447.24 37.90
1501 15.2025 1436.22 1442.44 37.90
1502 15.2109 1420.86 1437.95 37.69
1503 15.2193 1420.20 1431.58 37.69
1504 15.2277 1415.66 1427.67 37.63
1505 15.2361 1411.60 1424.01 37.57
1506 15.2445 1404.07 1420.57 37.47
1507 15.2529 1399.93 1417.35 37.42
1508 15.2613 1398.45 1414.33 37.40
1509 15.2697 1392.64 1411.49 37.32
1510 15.2781 1381.26 1408.84 37.17
1511 15.2865 1379.98 1406.35 37.15
1512 15.2949 1382.69 1404.02 37.18
1513 15.3033 1377.74 1401.85 37.12
1514 15.3117 1377.58 1399.82 37.12
1515 15.3201 1377.22 1397.94 37.11
1516 15.3285 1372.26 1396.20 37.04
1517 15.3369 1366.58 1394.59 36.97
1518 15.3453 1371.26 1393.11 37.03
1519 15.3537 1365.26 1391.77 36.95
1520 15.3621 1365.23 1390.56 36.95
1521 15.3705 1363.07 1389.48 36.92
1522 15.3789 1365.13 1388.54 36.95
1523 15.3873 1365.29 1387.74 36.95
1524 15.3957 1357.43 1387.08 36.84
1525 15.4041 1356.61 1386.56 36.83
1526 15.4125 1366.29 1386.20 36.96
1527 15.4209 1360.73 1386.00 36.89
1528 15.4293 1366.47 1385.97 36.97
1529 15.4377 1358.73 1386.12 36.86
1530 15.4461 1358.98 1386.44 36.86
1531 15.4545 1367.59 1386.96 36.98
1532 15.4629 1372.18 1387.66 37.04
1533 15.4713 1374.00 1391.13 37.07
1534 15.4797 1378.38 1392.26 37.13
1535 15.4881 1390.75 1393.56 37.29
1536 15.4965 1398.43 1395.01 37.40
1537 15.5049 1412.23 1396.59 37.58
1538 15.5133 1414.48 1398.26 37.61
1539 15.5217 1425.73 1399.98 37.76
1540 15.5301 1424.92 1401.74 37.75
1541 15.5385 1423.03 1403.54 37.72
1542 15.5469 1417.50 1404.59 37.65
1543 15.5553 1400.97 1406.65 37.43
1544 15.5637 1398.81 1408.94 37.40
1545 15.5721 1393.23 1411.53 37.33
1546 15.5805 1387.57 1411.63 37.25
1547 15.5889 1380.23 1415.05 37.15
1548 15.5973 1382.91 1418.94 37.19
1549 15.6057 1379.90 1423.36 37.15
1550 15.6141 1383.92 1428.37 37.20
1551 15.6225 1381.26 1434.04 37.17
1552 15.6309 1385.49 1440.43 37.22
1553 15.6393 1392.77 1447.63 37.32
1554 15.6477 1388.83 1455.75 37.27
1555 15.6561 1396.85 1464.93 37.37
1556 15.6645 1404.78 1475.35 37.48
1557 15.6729 1411.79 1487.21 37.57
1558 15.6813 1417.47 1500.80 37.65
1559 15.6897 1425.99 1516.47 37.76
1560 15.6981 1435.45 1534.68 37.89
1561 15.7065 1453.26 1556.00 38.12
1562 15.7149 1464.51 1581.13 38.27
1563 15.7233 1477.55 1610.92 38.44
1564 15.7317 1506.09 1646.40 38.81
1565 15.7401 1528.89 1688.72 39.10
1566 15.7485 1555.51 1739.21 39.44
1567 15.7569 1595.98 1801.63 39.95
1568 15.7653 1630.82 1872.86 40.38
1569 15.7737 1687.83 1956.70 41.08
1570 15.7821 1757.26 2054.47 41.92
1571 15.7905 1844.37 2167.27 42.95
1572 15.7989 1959.86 2295.79 44.27
1573 15.8073 2094.32 2439.78 45.76
1574 15.8157 2283.05 2598.00 47.78
1575 15.8241 2489.81 2767.54 49.90
1576 15.8325 2725.04 2943.13 52.20
1577 15.8409 2963.02 3117.00 54.43
1578 15.8493 3187.76 3278.88 56.46
1579 15.8577 3368.91 3417.01 58.04
1580 15.8661 3455.78 3520.30 58.79
1581 15.8745 3470.48 3580.27 58.91
1582 15.8829 3387.76 3592.49 58.20
1583 15.8913 3269.51 3556.70 57.18
1584 15.8997 3116.13 3476.59 55.82
1585 15.9081 2945.10 3357.98 54.27
1586 15.9165 2784.69 3213.66 52.77
1587 15.9249 2624.95 3053.44 51.23
1588 15.9333 2479.95 2887.97 49.80
1589 15.9417 2352.62 2719.28 48.50
1590 15.9501 2238.94 2567.29 47.32
1591 15.9585 2145.38 2428.16 46.32
1592 15.9669 2059.24 2305.80 45.38
1593 15.9753 1995.35 2200.06 44.67
1594 15.9837 1946.47 2110.82 44.12
1595 15.9921 1892.32 2037.49 43.50
1596 16.0005 1863.49 1979.13 43.17
1597 16.0089 1838.97 1934.73 42.88
1598 16.0173 1818.76 1903.37 42.65
1599 16.0257 1809.70 1884.27 42.54
1600 16.0341 1808.43 1876.94 42.53
1601 16.0425 1816.09 1881.19 42.62
1602 16.0509 1828.45 1897.24 42.76
1603 16.0593 1851.64 1925.65 43.03
1604 16.0677 1878.64 1967.39 43.34
1605 16.0761 1922.65 2023.72 43.85
1606 16.0845 1977.20 2096.16 44.47
1607 16.0929 2048.25 2186.42 45.26
1608 16.1013 2131.45 2299.70 46.17
1609 16.1097 2234.99 2431.75 47.28
1610 16.1181 2372.62 2584.44 48.71
1611 16.1265 2514.83 2759.41 50.15
1612 16.1349 2691.64 2955.81 51.88
1613 16.1433 2886.55 3171.04 53.73
1614 16.1517 3122.65 3399.68 55.88
1615 16.1601 3349.34 3632.80 57.87
1616 16.1685 3582.16 3857.07 59.85
1617 16.1769 3778.45 4054.75 61.47
1618 16.1853 3921.07 4206.03 62.62
1619 16.1937 4005.32 4292.99 63.29
1620 16.2021 3991.60 4304.80 63.18
1621 16.2105 3918.16 4241.11 62.60
1622 16.2189 3783.16 4111.51 61.51
1623 16.2273 3613.55 3931.92 60.11
1624 16.2357 3433.60 3719.89 58.60
1625 16.2441 3231.39 3491.56 56.85
1626 16.2525 3049.75 3260.08 55.22
1627 16.2609 2868.21 3035.48 53.56
1628 16.2693 2707.03 2824.62 52.03
1629 16.2777 2563.18 2631.71 50.63
1630 16.2861 2427.57 2459.00 49.27
1631 16.2945 2316.87 2307.04 48.13
1632 16.3029 2214.43 2175.28 47.06
1633 16.3113 2122.44 2062.54 46.07
1634 16.3197 2053.69 1967.10 45.32
1635 16.3281 1980.02 1887.07 44.50
1636 16.3365 1930.56 1820.56 43.94
1637 16.3449 1880.89 1765.72 43.37
1638 16.3533 1837.78 1720.85 42.87
1639 16.3617 1802.52 1684.52 42.46
1640 16.3701 1770.87 1655.50 42.08
1641 16.3785 1746.58 1634.08 41.79
1642 16.3869 1729.37 1617.05 41.59
1643 16.3953 1720.10 1605.20 41.47
1644 16.4037 1713.03 1598.26 41.39
1645 16.4121 1707.98 1597.31 41.33
1646 16.4205 1708.58 1600.25 41.33
1647 16.4289 1714.53 1608.45 41.41
1648 16.4373 1722.57 1622.28 41.50
1649 16.4457 1737.77 1642.19 41.69
1650 16.4541 1749.40 1668.64 41.83
1651 16.4625 1773.20 1702.06 42.11
1652 16.4709 1799.94 1742.78 42.43
1653 16.4793 1822.46 1790.90 42.69
1654 16.4877 1864.48 1846.24 43.18
1655 16.4961 1903.20 1908.02 43.63
1656 16.5045 1941.64 1974.76 44.06
1657 16.5129 1979.00 2043.84 44.49
1658 16.5213 2021.35 2111.21 44.96
1659 16.5297 2057.99 2171.38 45.37
1660 16.5381 2083.76 2217.83 45.65
1661 16.5465 2100.83 2244.26 45.83
1662 16.5549 2096.67 2246.42 45.79
1663 16.5633 2086.51 2223.56 45.68
1664 16.5717 2065.19 2178.79 45.44
1665 16.5801 2033.12 2117.82 45.09
1666 16.5885 1991.08 2047.27 44.62
1667 16.5969 1947.17 1973.05 44.13
1668 16.6053 1906.24 1899.78 43.66
1669 16.6137 1863.29 1830.51 43.17
1670 16.6221 1821.28 1767.15 42.68
1671 16.6305 1785.20 1710.69 42.25
1672 16.6389 1746.84 1661.53 41.80
1673 16.6473 1716.85 1619.65 41.43
1674 16.6557 1689.93 1584.86 41.11
1675 16.6641 1665.17 1556.80 40.81
1676 16.6725 1652.56 1535.07 40.65
1677 16.6809 1627.86 1519.31 40.35
1678 16.6893 1618.86 1509.20 40.24
1679 16.6977 1617.88 1504.52 40.22
1680 16.7061 1608.86 1505.18 40.11
1681 16.7145 1615.34 1513.85 40.19
1682 16.7229 1621.68 1525.39 40.27
1683 16.7313 1630.43 1542.65 40.38
1684 16.7397 1652.07 1565.92 40.65
1685 16.7481 1678.82 1595.49 40.97
1686 16.7565 1713.99 1631.61 41.40
1687 16.7649 1755.90 1674.39 41.90
1688 16.7733 1809.52 1723.71 42.54
1689 16.7817 1881.37 1779.05 43.37
1690 16.7901 1951.91 1839.24 44.18
1691 16.7985 2033.56 1902.20 45.10
1692 16.8069 2118.40 1964.67 46.03
1693 16.8153 2193.44 2022.00 46.83
1694 16.8237 2258.69 2068.50 47.53
1695 16.8321 2285.39 2098.39 47.81
1696 16.8405 2290.65 2107.29 47.86
1697 16.8489 2252.06 2093.78 47.46
1698 16.8573 2197.28 2059.86 46.88
1699 16.8657 2121.96 2010.21 46.06
1700 16.8741 2041.99 1950.63 45.19
1701 16.8825 1956.43 1886.56 44.23
1702 16.8909 1873.65 1822.36 43.29
1703 16.8993 1806.85 1761.04 42.51
1704 16.9077 1744.54 1704.52 41.77
1705 16.9161 1691.30 1653.82 41.13
1706 16.9245 1648.99 1609.42 40.61
1707 16.9329 1610.37 1571.39 40.13
1708 16.9413 1581.62 1539.51 39.77
1709 16.9497 1558.03 1509.85 39.47
1710 16.9581 1543.67 1489.23 39.29
1711 16.9665 1525.77 1473.55 39.06
1712 16.9749 1517.04 1462.39 38.95
1713 16.9833 1508.48 1455.09 38.84
1714 16.9917 1510.26 1452.04 38.86
1715 17.0001 1510.79 1452.71 38.87
1716 17.0085 1517.32 1457.05 38.95
1717 17.0169 1522.96 1465.21 39.03
1718 17.0253 1537.48 1478.47 39.21
1719 17.0337 1551.76 1495.24 39.39
1720 17.0421 1576.32 1517.14 39.70
1721 17.0505 1598.46 1544.94 39.98
1722 17.0589 1626.16 1579.57 40.33
1723 17.0673 1658.58 1622.06 40.73
1724 17.0757 1700.78 1673.51 41.24
1725 17.0841 1749.12 1735.08 41.82
1726 17.0925 1804.91 1807.83 42.48
1727 17.1009 1865.76 1892.66 43.19
1728 17.1093 1933.46 1990.13 43.97
1729 17.1177 2011.47 2100.29 44.85
1730 17.1261 2096.16 2222.35 45.78
1731 17.1345 2198.59 2354.10 46.89
1732 17.1429 2292.08 2491.52 47.88
1733 17.1513 2390.24 2628.05 48.89
1734 17.1597 2482.63 2754.22 49.83
1735 17.1681 2553.95 2858.32 50.54
1736 17.1765 2603.52 2928.18 51.02
1737 17.1849 2624.90 2954.28 51.23
1738 17.1933 2624.93 2932.84 51.23
1739 17.2017 2581.71 2867.15 50.81
1740 17.2101 2522.34 2766.40 50.22
1741 17.2185 2453.00 2642.60 49.53
1742 17.2269 2357.35 2507.54 48.55
1743 17.2353 2274.74 2370.88 47.69
1744 17.2437 2185.96 2239.45 46.75
1745 17.2521 2104.44 2117.52 45.87
1746 17.2605 2031.12 2007.50 45.07
1747 17.2689 1954.78 1910.37 44.21
1748 17.2773 1896.62 1829.46 43.55
1749 17.2857 1839.40 1750.24 42.89
1750 17.2941 1792.33 1690.73 42.34
1751 17.3025 1754.34 1642.17 41.88
1752 17.3109 1719.48 1603.63 41.47
1753 17.3193 1694.65 1573.42 41.17
1754 17.3277 1665.22 1552.14 40.81
1755 17.3361 1648.59 1538.82 40.60
1756 17.3445 1632.50 1532.75 40.40
1757 17.3529 1629.58 1533.64 40.37
1758 17.3613 1624.74 1541.32 40.31
1759 17.3697 1633.57 1555.78 40.42
1760 17.3781 1639.92 1577.06 40.50
1761 17.3865 1666.03 1605.19 40.82
1762 17.3949 1695.71 1640.14 41.18
1763 17.4033 1735.40 1681.64 41.66
1764 17.4117 1787.95 1729.09 42.28
1765 17.4201 1850.64 1781.22 43.02
1766 17.4285 1929.04 1835.98 43.92
1767 17.4369 2000.07 1890.35 44.72
1768 17.4453 2070.57 1940.36 45.50
1769 17.4537 2117.43 1981.58 46.02
1770 17.4621 2140.27 2009.91 46.26
1771 17.4705 2133.96 2022.30 46.19
1772 17.4789 2103.34 2017.31 45.86
1773 17.4873 2059.18 1995.27 45.38
1774 17.4957 2000.75 1958.12 44.73
1775 17.5041 1937.08 1909.17 44.01
1776 17.5125 1864.37 1852.52 43.18
1777 17.5209 1806.48 1792.34 42.50
1778 17.5293 1748.59 1732.23 41.82
1779 17.5377 1694.76 1674.90 41.17
1780 17.5461 1652.85 1622.08 40.66
1781 17.5545 1612.09 1574.75 40.15
1782 17.5629 1582.52 1533.30 39.78
1783 17.5713 1553.52 1497.74 39.41
1784 17.5797 1519.86 1467.86 38.99
1785 17.5881 1505.97 1443.33 38.81
1786 17.5965 1487.82 1423.76 38.57
1787 17.6049 1479.77 1408.76 38.47
1788 17.6133 1471.23 1398.00 38.36
1789 17.6217 1460.97 1391.20 38.22
1790 17.6301 1463.28 1388.19 38.25
1791 17.6385 1463.06 1386.18 38.25
1792 17.6469 1468.73 1390.70 38.32
1793 17.6553 1476.45 1399.16 38.42
1794 17.6637 1486.79 1411.82 38.56
1795 17.6721 1507.52 1429.08 38.83
1796 17.6805 1519.45 1451.37 38.98
1797 17.6889 1543.18 1479.21 39.28
1798 17.6973 1570.57 1513.09 39.63
1799 17.7057 1601.75 1553.48 40.02
1800 17.7141 1637.75 1600.71 40.47
1801 17.7225 1684.41 1654.88 41.04
1802 17.7309 1728.60 1715.72 41.58
1803 17.7393 1776.81 1782.29 42.15
1804 17.7477 1837.32 1852.75 42.86
1805 17.7561 1899.57 1923.94 43.58
1806 17.7645 1948.25 1991.11 44.14
1807 17.7729 2000.49 2048.14 44.73
1808 17.7813 2038.69 2088.36 45.15
1809 17.7897 2065.52 2106.22 45.45
1810 17.7981 2076.37 2099.14 45.57
1811 17.8065 2050.47 2068.50 45.28
1812 17.8149 2028.49 2021.52 45.04
1813 17.8233 1987.97 1959.98 44.59
1814 17.8317 1941.46 1892.74 44.06
1815 17.8401 1900.54 1825.06 43.60
1816 17.8485 1841.97 1760.66 42.92
1817 17.8569 1799.13 1701.89 42.42
1818 17.8653 1751.76 1650.02 41.85
1819 17.8737 1707.81 1605.66 41.33
1820 17.8821 1679.08 1568.94 40.98
1821 17.8905 1647.14 1541.19 40.58
1822 17.8989 1632.32 1519.48 40.40
1823 17.9073 1607.22 1504.96 40.09
1824 17.9157 1601.09 1497.46 40.01
1825 17.9241 1590.64 1496.92 39.88
1826 17.9325 1585.88 1500.97 39.82
1827 17.9409 1590.20 1514.62 39.88
1828 17.9493 1596.93 1535.72 39.96
1829 17.9577 1618.99 1564.68 40.24
1830 17.9661 1647.45 1601.97 40.59
1831 17.9745 1678.45 1648.10 40.97
1832 17.9829 1724.36 1703.48 41.53
1833 17.9913 1776.69 1768.33 42.15
1834 17.9997 1850.19 1842.50 43.01
1835 18.0081 1923.77 1925.13 43.86
1836 18.0165 2015.95 2014.37 44.90
1837 18.0249 2108.74 2106.88 45.92
1838 18.0333 2207.61 2197.51 46.99
1839 18.0417 2297.28 2279.49 47.93
1840 18.0501 2358.17 2345.23 48.56
1841 18.0585 2399.90 2387.97 48.99
1842 18.0669 2416.00 2403.67 49.15
1843 18.0753 2381.48 2391.91 48.80
1844 18.0837 2338.81 2355.38 48.36
1845 18.0921 2273.70 2298.60 47.68
1846 18.1005 2194.03 2226.70 46.84
1847 18.1089 2116.17 2144.91 46.00
1848 18.1173 2039.78 2058.27 45.16
1849 18.1257 1965.04 1971.34 44.33
1850 18.1341 1899.06 1887.94 43.58
1851 18.1425 1839.71 1818.93 42.89
1852 18.1509 1788.70 1749.82 42.29
1853 18.1593 1739.96 1689.47 41.71
1854 18.1677 1702.71 1638.12 41.26
1855 18.1761 1664.54 1595.60 40.80
1856 18.1845 1636.53 1561.57 40.45
1857 18.1929 1610.38 1535.60 40.13
1858 18.2013 1585.39 1517.32 39.82
1859 18.2097 1585.78 1506.39 39.82
1860 18.2181 1571.66 1502.65 39.64
1861 18.2265 1569.43 1506.03 39.62
1862 18.2349 1575.31 1516.64 39.69
1863 18.2433 1585.33 1534.69 39.82
1864 18.2517 1598.47 1560.50 39.98
1865 18.2601 1617.23 1594.45 40.21
1866 18.2685 1650.59 1633.07 40.63
1867 18.2769 1683.94 1682.79 41.04
1868 18.2853 1725.48 1742.74 41.54
1869 18.2937 1775.39 1810.86 42.14
1870 18.3021 1824.22 1885.89 42.71
1871 18.3105 1896.15 1965.31 43.54
1872 18.3189 1948.74 2044.92 44.14
1873 18.3273 2004.00 2118.59 44.77
1874 18.3357 2050.24 2178.59 45.28
1875 18.3441 2075.14 2216.85 45.55
1876 18.3525 2093.85 2227.17 45.76
1877 18.3609 2078.71 2207.38 45.59
1878 18.3693 2052.87 2160.16 45.31
1879 18.3777 2004.16 2094.96 44.77
1880 18.3861 1945.91 2013.96 44.11
1881 18.3945 1893.70 1927.56 43.52
1882 18.4029 1827.92 1841.61 42.75
1883 18.4113 1777.94 1759.95 42.17
1884 18.4197 1718.54 1686.65 41.46
1885 18.4281 1666.72 1619.15 40.83
1886 18.4365 1627.98 1559.51 40.35
1887 18.4449 1577.07 1507.51 39.71
1888 18.4533 1546.55 1463.34 39.33
1889 18.4617 1508.43 1425.06 38.84
1890 18.4701 1479.97 1392.55 38.47
1891 18.4785 1452.49 1365.12 38.11
1892 18.4869 1426.79 1342.06 37.77
1893 18.4953 1407.75 1322.71 37.52
1894 18.5037 1383.27 1306.50 37.19
1895 18.5121 1370.94 1292.93 37.03
1896 18.5205 1363.60 1281.54 36.93
1897 18.5289 1337.67 1272.00 36.57
1898 18.5373 1330.24 1264.00 36.47
1899 18.5457 1324.03 1255.99 36.39
1900 18.5541 1317.33 1250.44 36.29
1901 18.5625 1309.25 1245.86 36.18
1902 18.5709 1302.33 1242.12 36.09
1903 18.5793 1300.08 1237.98 36.06
1904 18.5877 1293.60 1235.69 35.97
1905 18.5961 1287.47 1234.03 35.88
1906 18.6045 1283.80 1232.96 35.83
1907 18.6129 1271.68 1232.46 35.66
1908 18.6213 1267.80 1232.52 35.61
1909 18.6297 1257.52 1233.16 35.46
1910 18.6381 1258.08 1234.39 35.47
1911 18.6465 1260.20 1236.24 35.50
1912 18.6549 1253.27 1241.33 35.40
1913 18.6633 1257.17 1244.56 35.46
1914 18.6717 1248.68 1248.54 35.34
1915 18.6801 1256.68 1253.35 35.45
1916 18.6885 1249.47 1259.08 35.35
1917 18.6969 1254.27 1265.84 35.42
1918 18.7053 1255.88 1278.60 35.44
1919 18.7137 1258.75 1288.04 35.48
1920 18.7221 1267.92 1299.11 35.61
1921 18.7305 1272.50 1312.33 35.67
1922 18.7389 1282.98 1329.78 35.82
1923 18.7473 1287.22 1347.79 35.88
1924 18.7557 1299.19 1368.98 36.04
1925 18.7641 1311.74 1393.89 36.22
1926 18.7725 1326.77 1423.11 36.42
1927 18.7809 1350.17 1457.27 36.74
1928 18.7893 1373.90 1497.02 37.07
1929 18.7977 1411.13 1542.95 37.56
1930 18.8061 1456.37 1595.58 38.16
1931 18.8145 1507.78 1655.20 38.83
1932 18.8229 1584.69 1721.70 39.81
1933 18.8313 1678.10 1794.32 40.96
1934 18.8397 1793.89 1871.33 42.35
1935 18.8481 1914.34 1949.59 43.75
1936 18.8565 2035.13 2024.54 45.11
1937 18.8649 2134.10 2090.56 46.20
1938 18.8733 2182.18 2139.36 46.71
1939 18.8817 2192.12 2172.89 46.82
1940 18.8901 2153.00 2187.87 46.40
1941 18.8985 2082.21 2187.12 45.63
1942 18.9069 2006.31 2175.36 44.79
1943 18.9153 1939.79 2157.29 44.04
1944 18.9237 1881.47 2135.96 43.38
1945 18.9321 1832.32 2112.19 42.81
1946 18.9405 1788.44 2084.97 42.29
1947 18.9489 1760.70 2052.56 41.96
1948 18.9573 1726.94 2013.90 41.56
1949 18.9657 1707.77 1969.51 41.33
1950 18.9741 1683.12 1921.51 41.03
1951 18.9825 1665.53 1872.97 40.81
1952 18.9909 1649.91 1826.92 40.62
1953 18.9993 1642.69 1788.89 40.53
1954 19.0077 1636.18 1754.34 40.45
1955 19.0161 1632.21 1727.31 40.40
1956 19.0245 1637.05 1708.30 40.46
1957 19.0329 1645.42 1697.61 40.56
1958 19.0413 1659.97 1695.46 40.74
1959 19.0497 1679.63 1702.14 40.98
1960 19.0581 1706.70 1718.09 41.31
1961 19.0665 1748.40 1743.91 41.81
1962 19.0749 1790.47 1780.45 42.31
1963 19.0833 1847.54 1828.78 42.98
1964 19.0917 1909.68 1890.16 43.70
1965 19.1001 1983.92 1966.04 44.54
1966 19.1085 2081.15 2058.01 45.62
1967 19.1169 2191.19 2167.59 46.81
1968 19.1253 2315.13 2296.20 48.12
1969 19.1337 2458.18 2444.81 49.58
1970 19.1421 2620.06 2610.49 51.19
1971 19.1505 2808.18 2797.70 52.99
1972 19.1589 3002.77 2999.45 54.80
1973 19.1673 3213.84 3207.69 56.69
1974 19.1757 3411.23 3409.73 58.41
1975 19.1841 3584.91 3586.74 59.87
1976 19.1925 3725.17 3720.12 61.03
1977 19.2009 3783.35 3790.02 61.51
1978 19.2093 3809.54 3785.70 61.72
1979 19.2177 3746.03 3708.74 61.20
1980 19.2261 3628.03 3572.35 60.23
1981 19.2345 3486.29 3396.41 59.04
1982 19.2429 3308.98 3201.32 57.52
1983 19.2513 3139.05 3009.95 56.03
1984 19.2597 2969.99 2822.10 54.50
1985 19.2681 2805.40 2650.69 52.97
1986 19.2765 2668.66 2499.42 51.66
1987 19.2849 2522.42 2370.69 50.22
1988 19.2933 2419.92 2262.32 49.19
1989 19.3017 2318.36 2174.73 48.15
1990 19.3101 2234.82 2106.89 47.27
1991 19.3185 2162.25 2057.71 46.50
1992 19.3269 2107.94 2026.20 45.91
1993 19.3353 2074.39 2011.53 45.55
1994 19.3437 2048.41 2013.07 45.26
1995 19.3521 2048.14 2030.37 45.26
1996 19.3605 2068.86 2063.15 45.48
1997 19.3689 2118.60 2111.14 46.03
1998 19.3773 2189.69 2173.84 46.79
1999 19.3857 2306.84 2250.30 48.03
2000 19.3941 2448.48 2338.55 49.48
2001 19.4025 2613.42 2435.16 51.12
2002 19.4109 2804.36 2534.75 52.96
2003 19.4193 2955.99 2630.19 54.37
2004 19.4277 3069.64 2713.55 55.40
2005 19.4361 3129.25 2774.46 55.94
2006 19.4445 3108.07 2815.57 55.75
2007 19.4529 3079.95 2832.74 55.50
2008 19.4613 2995.65 2827.54 54.73
2009 19.4697 2899.58 2804.42 53.85
2010 19.4781 2809.98 2760.67 53.01
2011 19.4865 2690.28 2700.25 51.87
2012 19.4949 2585.22 2625.61 50.85
2013 19.5033 2465.43 2540.35 49.65
2014 19.5117 2354.24 2449.02 48.52
2015 19.5201 2257.47 2359.51 47.51
2016 19.5285 2153.89 2270.15 46.41
2017 19.5369 2079.11 2187.77 45.60
2018 19.5453 2003.69 2115.99 44.76
2019 19.5537 1945.34 2054.68 44.11
2020 19.5621 1899.02 2005.63 43.58
2021 19.5705 1868.23 1969.25 43.22
2022 19.5789 1838.57 1945.60 42.88
2023 19.5873 1834.55 1934.70 42.83
2024 19.5957 1835.05 1936.64 42.84
2025 19.6041 1850.75 1951.66 43.02
2026 19.6125 1874.00 1980.22 43.29
2027 19.6209 1916.35 2022.97 43.78
2028 19.6293 1990.30 2080.77 44.61
2029 19.6377 2080.17 2154.59 45.61
2030 19.6461 2187.90 2245.35 46.78
2031 19.6545 2348.14 2353.73 48.46
2032 19.6629 2541.91 2479.80 50.42
2033 19.6713 2780.29 2622.41 52.73
2034 19.6797 3036.07 2778.84 55.10
2035 19.6881 3301.72 2944.39 57.46
2036 19.6965 3530.98 3112.42 59.42
2037 19.7049 3719.58 3275.56 60.99
2038 19.7133 3853.45 3426.77 62.08
2039 19.7217 3925.60 3559.94 62.65
2040 19.7301 3960.92 3669.44 62.94
2041 19.7385 3960.86 3748.89 62.94
2042 19.7469 3917.99 3791.21 62.59
2043 19.7553 3846.90 3790.53 62.02
2044 19.7637 3729.81 3744.60 61.07
2045 19.7721 3575.95 3655.79 59.80
2046 19.7805 3417.72 3534.22 58.46
2047 19.7889 3227.59 3380.34 56.81
2048 19.7973 3051.16 3207.37 55.24
2049 19.8057 2867.25 3025.73 53.55
2050 19.8141 2703.98 2843.57 52.00
2051 19.8225 2555.09 2669.13 50.55
2052 19.8309 2419.89 2507.92 49.19
2053 19.8393 2305.92 2363.01 48.02
2054 19.8477 2198.65 2235.56 46.89
2055 19.8561 2107.60 2125.48 45.91
2056 19.8645 2030.66 2031.83 45.06
2057 19.8729 1964.95 1953.28 44.33
2058 19.8813 1913.22 1888.44 43.74
2059 19.8897 1864.24 1835.93 43.18
2060 19.8981 1830.95 1794.52 42.79
2061 19.9065 1793.85 1763.19 42.35
2062 19.9149 1777.99 1741.16 42.17
2063 19.9233 1762.95 1727.87 41.99
2064 19.9317 1750.39 1722.99 41.84
2065 19.9401 1751.55 1726.40 41.85
2066 19.9485 1748.23 1738.17 41.81
2067 19.9569 1759.30 1756.01 41.94
2068 19.9653 1774.22 1785.26 42.12
2069 19.9737 1793.31 1823.67 42.35
2070 19.9821 1817.31 1871.36 42.63
2071 19.9905 1848.15 1928.04 42.99
2072 19.9989 1881.14 1992.70 43.37
2073 20.0073 1916.88 2064.80 43.78
2074 20.0157 1954.40 2136.75 44.21
2075 20.0241 1988.63 2202.71 44.59
2076 20.0325 2018.10 2257.76 44.92
2077 20.0409 2041.61 2292.36 45.18
2078 20.0493 2050.69 2300.79 45.28
2079 20.0577 2059.63 2281.78 45.38
2080 20.0661 2044.23 2239.14 45.21
2081 20.0745 2030.82 2180.18 45.06
2082 20.0829 2007.09 2113.17 44.80
2083 20.0913 1983.73 2045.33 44.54
2084 20.0997 1958.07 1981.87 44.25
2085 20.1081 1939.53 1926.06 44.04
2086 20.1165 1923.83 1879.65 43.86
2087 20.1249 1914.75 1843.50 43.76
2088 20.1333 1904.93 1817.89 43.65
2089 20.1417 1911.91 1802.93 43.73
2090 20.1501 1919.46 1798.70 43.81
2091 20.1585 1935.38 1805.36 43.99
2092 20.1669 1957.40 1823.27 44.24
2093 20.1753 1985.62 1852.95 44.56
2094 20.1837 2033.82 1895.16 45.10
2095 20.1921 2079.47 1950.88 45.60
2096 20.2005 2131.82 2021.18 46.17
2097 20.2089 2189.46 2107.20 46.79
2098 20.2173 2263.44 2209.96 47.58
2099 20.2257 2344.58 2329.90 48.42
2100 20.2341 2432.83 2466.45 49.32
2101 20.2425 2519.76 2617.18 50.20
2102 20.2509 2605.55 2776.59 51.04
2103 20.2593 2686.98 2935.33 51.84
2104 20.2677 2760.91 3079.85 52.54
2105 20.2761 2818.68 3185.53 53.09
2106 20.2845 2842.56 3254.62 53.32
2107 20.2929 2840.46 3269.54 53.30
2108 20.3013 2819.72 3230.29 53.10
2109 20.3097 2768.40 3145.12 52.62
2110 20.3181 2704.05 3026.88 52.00
2111 20.3265 2635.35 2889.14 51.34
2112 20.3349 2559.30 2744.00 50.59
2113 20.3433 2483.08 2601.77 49.83
2114 20.3517 2401.25 2467.99 49.00
2115 20.3601 2338.80 2348.01 48.36
2116 20.3685 2274.67 2244.35 47.69
2117 20.3769 2227.11 2158.05 47.19
2118 20.3853 2178.98 2089.22 46.68
2119 20.3937 2142.54 2037.45 46.29
2120 20.4021 2120.78 2002.14 46.05
2121 20.4105 2108.78 1982.77 45.92
2122 20.4189 2104.89 1978.94 45.88
2123 20.4273 2123.92 1990.42 46.09
2124 20.4357 2160.18 2017.19 46.48
2125 20.4441 2208.15 2059.24 46.99
2126 20.4525 2292.54 2116.45 47.88
2127 20.4609 2400.57 2188.24 49.00
2128 20.4693 2524.60 2273.08 50.25
2129 20.4777 2665.23 2368.06 51.63
2130 20.4861 2803.67 2468.55 52.95
2131 20.4945 2920.00 2568.38 54.04
2132 20.5029 3001.54 2657.76 54.79
2133 20.5113 3042.51 2737.02 55.16
2134 20.5197 3046.33 2798.64 55.19
2135 20.5281 3016.74 2839.46 54.92
2136 20.5365 2966.38 2856.42 54.46
2137 20.5449 2897.57 2844.36 53.83
2138 20.5533 2815.25 2805.16 53.06
2139 20.5617 2721.61 2737.65 52.17
2140 20.5701 2618.73 2645.52 51.17
2141 20.5785 2518.86 2537.16 50.19
2142 20.5869 2414.71 2419.94 49.14
2143 20.5953 2307.01 2302.78 48.03
2144 20.6037 2212.23 2189.25 47.03
2145 20.6121 2122.47 2084.84 46.07
2146 20.6205 2046.74 1992.02 45.24
2147 20.6289 1980.52 1911.73 44.50
2148 20.6373 1917.48 1844.00 43.79
2149 20.6457 1870.77 1788.29 43.25
2150 20.6541 1833.96 1743.89 42.82
2151 20.6625 1799.85 1710.02 42.42
2152 20.6709 1780.05 1686.01 42.19
2153 20.6793 1764.32 1671.39 42.00
2154 20.6877 1754.68 1665.87 41.89
2155 20.6961 1750.95 1669.40 41.84
2156 20.7045 1757.33 1682.14 41.92
2157 20.7129 1767.93 1704.48 42.05
2158 20.7213 1787.72 1736.96 42.28
2159 20.7297 1817.93 1780.22 42.64
2160 20.7381 1852.58 1834.91 43.04
2161 20.7465 1881.81 1901.41 43.38
2162 20.7549 1925.54 1979.52 43.88
2163 20.7633 1967.76 2067.64 44.36
2164 20.7717 2021.51 2159.72 44.96
2165 20.7801 2062.57 2255.00 45.42
2166 20.7885 2091.84 2342.48 45.74
2167 20.7969 2119.45 2409.24 46.04
2168 20.8053 2131.72 2445.58 46.17
2169 20.8137 2120.28 2441.05 46.05
2170 20.8221 2097.72 2403.58 45.80
2171 20.8305 2063.55 2335.26 45.43
2172 20.8389 2019.94 2245.64 44.94
2173 20.8473 1962.85 2143.32 44.30
2174 20.8557 1906.33 2041.39 43.66
2175 20.8641 1852.82 1944.00 43.04
2176 20.8725 1793.76 1855.11 42.35
2177 20.8809 1745.20 1776.71 41.78
2178 20.8893 1700.79 1709.51 41.24
2179 20.8977 1660.24 1653.36 40.75
2180 20.9061 1627.89 1607.70 40.35
2181 20.9145 1599.96 1571.91 40.00
2182 20.9229 1580.22 1545.30 39.75
2183 20.9313 1566.66 1527.31 39.58
2184 20.9397 1571.33 1517.50 39.64
2185 20.9481 1573.99 1515.52 39.67
2186 20.9565 1598.07 1521.06 39.98
2187 20.9649 1631.87 1533.70 40.40
2188 20.9733 1686.26 1555.03 41.06
2189 20.9817 1738.00 1579.21 41.69
2190 20.9901 1802.71 1606.20 42.46
2191 20.9985 1863.36 1632.50 43.17
2192 21.0069 1901.72 1653.45 43.61
2193 21.0153 1919.36 1664.08 43.81
2194 21.0237 1906.72 1660.54 43.67
2195 21.0321 1859.53 1643.15 43.12
2196 21.0405 1796.81 1610.71 42.39
2197 21.0489 1724.06 1568.87 41.52
2198 21.0573 1646.37 1522.36 40.58
2199 21.0657 1572.75 1475.24 39.66
2200 21.0741 1511.59 1430.31 38.88
2201 21.0825 1449.50 1389.13 38.07
2202 21.0909 1397.48 1352.34 37.38
2203 21.0993 1353.00 1316.72 36.78
2204 21.1077 1316.19 1288.65 36.28
2205 21.1161 1284.74 1264.37 35.84
2206 21.1245 1264.77 1243.47 35.56
2207 21.1329 1235.14 1225.50 35.14
2208 21.1413 1213.02 1210.08 34.83
2209 21.1497 1194.47 1196.85 34.56
2210 21.1581 1183.29 1185.53 34.40
2211 21.1665 1165.30 1175.88 34.14
2212 21.1749 1151.23 1167.70 33.93
2213 21.1833 1146.43 1160.83 33.86
2214 21.1917 1139.34 1155.16 33.75
2215 21.2001 1131.19 1150.61 33.63
2216 21.2085 1130.26 1147.14 33.62
2217 21.2169 1125.67 1144.72 33.55
2218 21.2253 1127.10 1144.86 33.57
2219 21.2337 1115.69 1144.66 33.40
2220 21.2421 1119.30 1145.67 33.46
2221 21.2505 1118.65 1147.98 33.45
2222 21.2589 1119.75 1151.73 33.46
2223 21.2673 1118.41 1157.07 33.44
2224 21.2757 1128.06 1164.16 33.59
2225 21.2841 1127.40 1173.13 33.58
2226 21.2925 1131.75 1184.06 33.64
2227 21.3009 1136.38 1196.84 33.71
2228 21.3093 1139.54 1211.08 33.76
2229 21.3177 1141.52 1225.93 33.79
2230 21.3261 1149.57 1239.99 33.91
2231 21.3345 1149.20 1245.15 33.90
2232 21.3429 1153.83 1251.92 33.97
2233 21.3513 1154.04 1252.54 33.97
2234 21.3597 1155.00 1246.70 33.99
2235 21.3681 1159.34 1234.27 34.05
2236 21.3765 1154.20 1219.40 33.97
2237 21.3849 1150.94 1202.98 33.93
2238 21.3933 1151.30 1186.68 33.93
2239 21.4017 1147.18 1171.63 33.87
2240 21.4101 1147.06 1158.44 33.87
2241 21.4185 1142.53 1147.38 33.80
2242 21.4269 1137.88 1138.47 33.73
2243 21.4353 1143.58 1133.03 33.82
2244 21.4437 1140.29 1128.27 33.77
2245 21.4521 1138.24 1125.45 33.74
2246 21.4605 1142.56 1126.74 33.80
2247 21.4689 1145.32 1127.83 33.84
2248 21.4773 1147.09 1130.78 33.87
2249 21.4857 1147.74 1135.80 33.88
2250 21.4941 1149.15 1143.04 33.90
2251 21.5025 1155.61 1152.73 33.99
2252 21.5109 1163.94 1165.13 34.12
2253 21.5193 1170.20 1180.55 34.21
2254 21.5277 1174.13 1199.22 34.27
2255 21.5361 1178.23 1221.23 34.33
2256 21.5445 1191.90 1244.00 34.52
2257 21.5529 1196.39 1271.55 34.59
2258 21.5613 1201.61 1299.79 34.66
2259 21.5697 1213.57 1326.06 34.84
2260 21.5781 1216.83 1346.88 34.88
2261 21.5865 1214.78 1355.53 34.85
2262 21.5949 1220.58 1356.26 34.94
2263 21.6033 1221.12 1345.82 34.94
2264 21.6117 1222.93 1325.48 34.97
2265 21.6201 1218.78 1300.86 34.91
2266 21.6285 1221.31 1274.27 34.95
2267 21.6369 1216.30 1248.58 34.88
2268 21.6453 1213.08 1225.53 34.83
2269 21.6537 1207.37 1206.68 34.75
2270 21.6621 1211.72 1190.99 34.81
2271 21.6705 1210.65 1179.15 34.79
2272 21.6789 1212.77 1172.88 34.82
2273 21.6873 1217.21 1168.39 34.89
2274 21.6957 1228.23 1167.40 35.05
2275 21.7041 1235.35 1169.87 35.15
2276 21.7125 1252.27 1175.86 35.39
2277 21.7209 1268.04 1185.48 35.61
2278 21.7293 1292.46 1198.94 35.95
2279 21.7377 1317.80 1216.43 36.30
2280 21.7461 1346.21 1238.15 36.69
2281 21.7545 1379.10 1264.21 37.14
2282 21.7629 1407.00 1294.53 37.51
2283 21.7713 1439.65 1328.73 37.94
2284 21.7797 1469.02 1366.00 38.33
2285 21.7881 1488.03 1404.78 38.58
2286 21.7965 1512.95 1442.72 38.90
2287 21.8049 1525.12 1476.65 39.05
2288 21.8133 1528.03 1503.01 39.09
2289 21.8217 1523.43 1518.70 39.03
2290 21.8301 1512.34 1521.81 38.89
2291 21.8385 1495.44 1508.03 38.67
2292 21.8469 1471.35 1487.45 38.36
2293 21.8553 1445.58 1459.08 38.02
2294 21.8637 1421.23 1426.33 37.70
2295 21.8721 1397.21 1394.14 37.38
2296 21.8805 1381.38 1365.71 37.17
2297 21.8889 1358.32 1341.47 36.86
2298 21.8973 1345.63 1323.39 36.68
2299 21.9057 1342.71 1312.07 36.64
2300 21.9141 1331.99 1307.85 36.50
2301 21.9225 1333.57 1310.91 36.52
2302 21.9309 1343.77 1321.45 36.66
loop_
_pd_proc_info_excluded_regions
'from 0.999 to 2.600'
'from 21.94 to 22.014'
loop_
_cod_changelog_entry_id
_cod_changelog_entry_author
_cod_changelog_entry_date
_cod_changelog_entry_text
1 'Vaitkus, Antanas' 2022-05-09T03:40:00+03:00
'Updated bibliographic information.'
