#------------------------------------------------------------------------------
#$Date: 2022-05-09 03:44:03 +0300 (Mon, 09 May 2022) $
#$Revision: 275240 $
#$URL: file:///home/coder/svn-repositories/cod/cif/7/11/91/7119159.cif $
#------------------------------------------------------------------------------
#
# This file is available in the Crystallography Open Database (COD),
# http://www.crystallography.net/
#
# All data on this site have been placed in the public domain by the
# contributors.
#
data_7119159
loop_
_publ_author_name
'Wood, Peter A.'
'Sarjeant, Amy A.'
'Yakovenko, Andrey A.'
'Ward, Suzanna C.'
'Groom, Colin R.'
_publ_section_title
;
 Capturing neon -- the first experimental structure of neon
 trapped within a metal-organic environment
;
_journal_coden_ASTM              CHCOFS
_journal_issue                   65
_journal_name_full
'Chemical Communications (Cambridge, United Kingdom)'
_journal_page_first              10048
_journal_page_last               10051
_journal_paper_doi               10.1039/c6cc04808k
_journal_volume                  52
_journal_year                    2016
_chemical_absolute_configuration .
_chemical_formula_moiety         '[Cu2(C17H14N10O4) 0.358(Ne)]n'
_chemical_formula_sum            'C8.5 H7 Cu N5 Ne0.179 O2'
_chemical_formula_weight         278.3
_space_group_IT_number           15
_symmetry_cell_setting           monoclinic
_symmetry_Int_Tables_number      15
_symmetry_space_group_name_Hall  '-C 2yc'
_symmetry_space_group_name_H-M   'C 1 2/c 1'
_cell_angle_alpha                90
_cell_angle_beta                 116.097(3)
_cell_angle_gamma                90
_cell_formula_units_Z            8
_cell_length_a                   28.7444(11)
_cell_length_b                   9.2672(5)
_cell_length_c                   9.3295(4)
_cell_measurement_temperature    295
_cell_volume                     2231.83(19)
_computing_cell_refinement       'Jana 2006 (Petricek, 2006)'
_computing_data_reduction        'GSASII(Toby & Von Dreele, 2013)'
_computing_molecular_graphics    'Mercury (version, 2015)'
_computing_publication_material  'Jana 2006 (Petricek, 2006)'
_computing_structure_refinement  'Jana 2006 (Petricek, 2006)'
_diffrn_ambient_temperature      295
_diffrn_detector                 'Flat Panel Detector'
_diffrn_detector_type            'Perkin-Elmer amorphous-Si'
_diffrn_measurement_device       '17-BM-B beamline'
_diffrn_radiation_monochromator  'PSL DCM Si(111)'
_diffrn_radiation_probe          x-ray
_diffrn_radiation_type           synchrotron
_diffrn_radiation_wavelength     0.72768
_diffrn_source                   synchrotron
_diffrn_source_type              synchrotron
_exptl_absorpt_coefficient_mu    2.096
_exptl_crystal_density_diffrn    1.6568
_exptl_crystal_F_000             1118
_pd_char_colour                  blue
_pd_char_particle_morphology     'small crystalline powder'
_pd_instr_location
; 
17-BM-B line diffractometer, APS, Argonne National Lab (USA)
;
_pd_meas_2theta_range_inc        0.008
_pd_meas_2theta_range_max        21.992
_pd_meas_2theta_range_min        1.000
_pd_meas_number_of_points        2500
_pd_prep_cool_rate               0.0
_pd_prep_pressure                10000
_pd_prep_temperature             295(2)
_pd_proc_2theta_range_inc        0.008
_pd_proc_2theta_range_max        21.798
_pd_proc_2theta_range_min        2.008
_pd_proc_ls_background_function  '10 Chebyshev polynoms'
_pd_proc_ls_pref_orient_corr     none
_pd_proc_ls_profile_function     Pseudo-Voigt
_pd_proc_ls_prof_R_factor        0.0337
_pd_proc_ls_prof_wR_expected     0.0103
_pd_proc_ls_prof_wR_factor       0.0439
_pd_proc_wavelength              0.72768
_pd_spec_mounting                'capton capillary with Ne exchange gas'
_pd_spec_mount_mode              transmission
_pd_spec_shape                   cylinder
_pd_spec_size_axial              10.0
_pd_spec_size_equat              0.9
_pd_spec_size_thick              0.9
_refine_diff_density_max         0.13
_refine_diff_density_min         -0.15
_refine_ls_goodness_of_fit_all   4.28
_refine_ls_hydrogen_treatment    constr
_refine_ls_number_constraints    41
_refine_ls_number_parameters     73
_refine_ls_number_restraints     31
_refine_ls_R_factor_all          0.0354
_refine_ls_R_factor_gt           0.0348
_refine_ls_shift/su_max          0.0140
_refine_ls_shift/su_mean         0.0006
_refine_ls_weighting_scheme      sigma
_refine_ls_wR_factor_all         0.0537
_refine_ls_wR_factor_gt          0.0535
_cod_data_source_file            c6cc04808k2-6.cif
_cod_data_source_block           295K100bar
_cod_depositor_comments
;
The following automatic conversions were performed:

'_diffrn_radiation_probe' value 'X-ray' changed to 'x-ray' according
to the built-in table from CIF Core dictionary named 'cif_core.dic'
version 2.4.1 from 2010-06-29.

Automatic conversion script
Id: cif_fix_values 4624 2016-04-14 12:54:50Z antanas 
;
_cod_original_cell_volume        2231.82(19)
_cod_original_formula_sum        'C8.5 H7 Cu1 N5 Ne0.179 O2'
_cod_database_code               7119159
loop_
_space_group_symop_id
_space_group_symop_operation_xyz
1 x,y,z
2 -x,y,-z+1/2
3 -x,-y,-z
4 x,-y,z+1/2
5 x+1/2,y+1/2,z
6 -x+1/2,y+1/2,-z+1/2
7 -x+1/2,-y+1/2,-z
8 x+1/2,-y+1/2,z+1/2
loop_
_atom_site_label
_atom_site_type_symbol
_atom_site_fract_x
_atom_site_fract_y
_atom_site_fract_z
_atom_site_adp_type
_atom_site_U_iso_or_equiv
_atom_site_site_symmetry_multiplicity
_atom_site_occupancy
_atom_site_calc_flag
_atom_site_refinement_flags
_atom_site_disorder_assembly
_atom_site_disorder_group
Cu1 Cu 0.18782(17) 0.8307(6) 0.3137(6) Uiso 0.055(2) 8 1 d . . .
O1 O 0.1282(5) 1.0730(16) 0.3449(16) Uiso 0.070(3) 8 1 d . . .
O2 O 0.1390(5) 1.1799(17) 0.5742(16) Uiso 0.070(3) 8 1 d . . .
N1 N 0.2196(4) 1.0088(16) 0.7398(11) Uiso 0.070(3) 8 1 d . . .
N2 N 0.2559(4) 0.9053(17) 0.7928(12) Uiso 0.070(3) 8 1 d . . .
N3 N 0.2505(4) 0.8258(12) 0.6685(16) Uiso 0.070(3) 8 1 d . . .
N4 N 0.2114(4) 0.8766(14) 0.5377(13) Uiso 0.070(3) 8 1 d . . .
N11 N 0.1430(3) 0.6608(7) 0.3308(10) Uiso 0.070(3) 8 1 d . . .
C1 C 0.1493(2) 1.0886(11) 0.4906(15) Uiso 0.070(3) 8 1 d . . .
C2 C 0.1930(2) 0.9887(9) 0.5840(10) Uiso 0.070(3) 8 1 d . . .
C11 C 0.1108(4) 0.7196(8) 0.3847(12) Uiso 0.070(3) 8 1 d . . .
C12 C 0.0730(4) 0.6439(9) 0.4080(11) Uiso 0.070(3) 8 1 d . . .
C13 C 0.06843(16) 0.4973(9) 0.3725(4) Uiso 0.070(3) 8 1 d . . .
C14 C 0.1010(2) 0.4330(7) 0.3168(11) Uiso 0.070(3) 8 1 d . . .
C15 C 0.1376(3) 0.5186(7) 0.2976(13) Uiso 0.070(3) 8 1 d . . .
C16 C 0.02817(12) 0.4078(12) 0.39506(12) Uiso 0.070(3) 8 1 d . . .
C17 C 0 0.3137(12) 0.25 Uiso 0.070(3) 4 1 d . . .
H1c11 H 0.114278 0.820932 0.408723 Uiso 0.0845 8 1 d . . .
H1c12 H 0.050946 0.690645 0.446847 Uiso 0.0845 8 1 d . . .
H1c14 H 0.098311 0.331908 0.292053 Uiso 0.0845 8 1 d . . .
H1c15 H 0.16012 0.474283 0.258945 Uiso 0.0845 8 1 d . . .
H1c16 H 0.044837 0.348102 0.487942 Uiso 0.0845 8 1 d . . .
H2c16 H 0.003825 0.470557 0.408656 Uiso 0.0845 8 1 d . . .
H1c17 H 0.02454(6) 0.2539(12) 0.2338(3) Uiso 0.0845 8 1 d . . .
Ne1 Ne 0 0.016(6) 0.25 Uiso 0.211 4 0.358(14) d . . .
loop_
_atom_type_symbol
_atom_type_scat_dispersion_real
_atom_type_scat_dispersion_imag
_atom_type_scat_source
C 0.0037 0.0018 'International Tables Vol C tables 4.2.6.8 and 6.1.1.1'
H 0.0000 0.0000 'International Tables Vol C tables 4.2.6.8 and 6.1.1.1'
Cu 0.3158 1.3275 'International Tables Vol C tables 4.2.6.8 and 6.1.1.1'
N 0.0071 0.0036 'International Tables Vol C tables 4.2.6.8 and 6.1.1.1'
Ne 0.0277 0.0178 'International Tables Vol C tables 4.2.6.8 and 6.1.1.1'
O 0.0121 0.0066 'International Tables Vol C tables 4.2.6.8 and 6.1.1.1'
loop_
_geom_angle_atom_site_label_1
_geom_angle_atom_site_label_2
_geom_angle_atom_site_label_3
_geom_angle_site_symmetry_1
_geom_angle_site_symmetry_2
_geom_angle_site_symmetry_3
_geom_angle
N1 Cu1 N4 4_574 . . 102.1(5)
N1 Cu1 N11 4_574 . . 166.0(4)
N4 Cu1 N11 . . . 91.0(5)
Cu1 N1 N2 4_575 . . 142.8(8)
Cu1 N1 C2 4_575 . . 110.4(8)
N2 N1 C2 . . . 106.5(11)
N1 N2 N3 . . . 107.6(9)
N2 N3 N4 . . . 109.5(11)
Cu1 N4 N3 . . . 131.7(11)
Cu1 N4 C2 . . . 121.6(8)
N3 N4 C2 . . . 106.1(10)
Cu1 N11 C11 . . . 105.8(5)
Cu1 N11 C15 . . . 137.2(9)
C11 N11 C15 . . . 117.0(9)
O1 C1 O2 . . . 128.4(11)
O1 C1 C2 . . . 116.9(12)
O2 C1 C2 . . . 114.7(11)
N1 C2 N4 . . . 110.4(9)
N1 C2 C1 . . . 119.0(10)
N4 C2 C1 . . . 130.6(9)
N11 C11 C12 . . . 124.6(7)
N11 C11 H1c11 . . . 117.72
C12 C11 H1c11 . . . 117.72
C11 C12 C13 . . . 117.0(10)
C11 C12 H1c12 . . . 121.5
C13 C12 H1c12 . . . 121.5
C12 C13 C14 . . . 120.0(7)
C12 C13 C16 . . . 120.0(7)
C14 C13 C16 . . . 120.0(7)
C13 C14 C15 . . . 118.4(7)
C13 C14 H1c14 . . . 120.78
C15 C14 H1c14 . . . 120.77
N11 C15 C14 . . . 123.0(10)
N11 C15 H1c15 . . . 118.5
C14 C15 H1c15 . . . 118.5
C13 C16 C17 . . . 109.5(3)
C13 C16 H1c16 . . . 109.47
C13 C16 H2c16 . . . 109.47
C17 C16 H1c16 . . . 109.47
C17 C16 H2c16 . . . 109.47
H1c16 C16 H2c16 . . . 109.47
C16 C17 C16 . . 2_555 109.5(8)
C16 C17 H1c17 . . . 109.5(4)
C16 C17 H1c17 . . 2_555 109.5(4)
C16 C17 H1c17 2_555 . . 109.5(4)
C16 C17 H1c17 2_555 . 2_555 109.5(4)
H1c17 C17 H1c17 . . 2_555 109.5(13)
loop_
_geom_bond_atom_site_label_1
_geom_bond_atom_site_label_2
_geom_bond_site_symmetry_1
_geom_bond_site_symmetry_2
_geom_bond_distance
Cu1 N1 . 4_574 2.019(15)
Cu1 N4 . . 1.940(13)
Cu1 N11 . . 2.085(10)
O1 C1 . . 1.229(19)
O2 C1 . . 1.27(2)
N1 N2 . . 1.342(18)
N1 C2 . . 1.325(12)
N2 N3 . . 1.324(19)
N3 N4 . . 1.329(14)
N4 C2 . . 1.321(16)
N11 C11 . . 1.347(17)
N11 C15 . . 1.347(9)
C1 C2 . . 1.493(11)
C11 C12 . . 1.390(17)
C11 H1c11 . . 0.96
C12 C13 . . 1.390(12)
C12 H1c12 . . 0.96
C13 C14 . . 1.390(11)
C13 C16 . . 1.512(9)
C14 C15 . . 1.391(12)
C14 H1c14 . . 0.96
C15 H1c15 . . 0.96
C16 C17 . . 1.512(9)
C16 H1c16 . . 0.96
C16 H2c16 . . 0.96
C17 H1c17 . . 0.960(9)
C17 H1c17 . 2_555 0.960(9)
loop_
_pd_proc_point_id
_pd_proc_2theta_corrected
_pd_proc_intensity_net
_pd_calc_intensity_net
_pd_proc_ls_weight
1 2.0172 7346.98 6718.10 85.71
2 2.0256 7413.22 6774.16 86.10
3 2.0340 7408.30 6829.13 86.07
4 2.0424 7384.76 6883.06 85.93
5 2.0508 7417.86 6935.94 86.13
6 2.0592 7369.52 6987.78 85.85
7 2.0676 7400.42 7038.60 86.03
8 2.0760 7418.50 7088.42 86.13
9 2.0844 7374.27 7137.23 85.87
10 2.0928 7414.58 7185.06 86.11
11 2.1012 7432.19 7231.92 86.21
12 2.1096 7374.15 7277.80 85.87
13 2.1180 7445.52 7322.74 86.29
14 2.1264 7421.39 7366.73 86.15
15 2.1348 7401.49 7409.79 86.03
16 2.1432 7458.56 7451.94 86.36
17 2.1516 7405.38 7493.17 86.05
18 2.1600 7423.76 7533.51 86.16
19 2.1684 7491.77 7572.95 86.56
20 2.1768 7406.26 7611.52 86.06
21 2.1852 7474.81 7649.22 86.46
22 2.1936 7444.63 7686.07 86.28
23 2.2020 7446.28 7722.07 86.29
24 2.2104 7491.46 7757.23 86.55
25 2.2188 7461.82 7791.57 86.38
26 2.2272 7471.62 7825.09 86.44
27 2.2356 7522.19 7857.81 86.73
28 2.2440 7476.74 7889.73 86.47
29 2.2524 7496.07 7920.86 86.58
30 2.2608 7537.07 7951.22 86.82
31 2.2692 7503.69 7980.81 86.62
32 2.2776 7541.07 8009.64 86.84
33 2.2860 7541.23 8037.73 86.84
34 2.2944 7545.56 8065.08 86.87
35 2.3028 7589.23 8091.70 87.12
36 2.3112 7556.02 8117.60 86.93
37 2.3196 7590.43 8142.79 87.12
38 2.3280 7624.36 8167.28 87.32
39 2.3364 7588.59 8191.08 87.11
40 2.3448 7651.99 8214.20 87.48
41 2.3532 7660.60 8236.64 87.52
42 2.3616 7643.88 8258.42 87.43
43 2.3700 7719.96 8279.54 87.86
44 2.3784 7699.19 8300.01 87.75
45 2.3868 7720.96 8319.84 87.87
46 2.3952 7801.37 8339.04 88.33
47 2.4036 7744.67 8357.62 88.00
48 2.4120 7819.35 8375.59 88.43
49 2.4204 7864.31 8392.95 88.68
50 2.4288 7854.91 8409.71 88.63
51 2.4372 7930.76 8425.89 89.05
52 2.4456 7957.05 8441.48 89.20
53 2.4540 7959.05 8456.50 89.21
54 2.4624 8047.83 8470.96 89.71
55 2.4708 8040.18 8484.86 89.67
56 2.4792 8091.89 8498.21 89.95
57 2.4876 8196.36 8511.02 90.53
58 2.4960 8186.47 8523.29 90.48
59 2.5044 8265.90 8535.04 90.92
60 2.5128 8330.87 8546.27 91.27
61 2.5212 8336.50 8556.99 91.30
62 2.5296 8450.54 8567.21 91.93
63 2.5380 8484.78 8576.93 92.11
64 2.5464 8546.21 8586.16 92.45
65 2.5548 8627.15 8594.91 92.88
66 2.5632 8668.39 8603.19 93.10
67 2.5716 8761.39 8611.00 93.60
68 2.5800 8835.50 8618.35 94.00
69 2.5884 8844.46 8625.25 94.04
70 2.5968 8988.75 8631.70 94.81
71 2.6052 9043.37 8637.71 95.10
72 2.6136 9081.92 8643.29 95.30
73 2.6220 9202.73 8648.44 95.93
74 2.6304 9220.61 8653.17 96.02
75 2.6388 9284.85 8657.49 96.36
76 2.6472 9382.73 8661.41 96.86
77 2.6556 9394.00 8664.92 96.92
78 2.6640 9472.51 8668.05 97.33
79 2.6724 9586.84 8670.78 97.91
80 2.6808 9545.08 8673.14 97.70
81 2.6892 9620.32 8675.12 98.08
82 2.6976 9654.26 8676.74 98.26
83 2.7060 9683.74 8677.99 98.41
84 2.7144 9756.31 8678.89 98.77
85 2.7228 9748.88 8889.71 98.74
86 2.7312 9779.32 8897.02 98.89
87 2.7396 9794.64 8904.36 98.97
88 2.7480 9773.46 8911.75 98.86
89 2.7564 9780.49 8919.24 98.90
90 2.7648 9785.00 8926.86 98.92
91 2.7732 9747.45 8934.64 98.73
92 2.7816 9775.30 8942.63 98.87
93 2.7900 9708.21 8950.88 98.53
94 2.7984 9705.57 8959.43 98.52
95 2.8068 9687.23 8968.34 98.42
96 2.8152 9632.73 8977.66 98.15
97 2.8236 9648.00 8987.46 98.22
98 2.8320 9646.08 8997.81 98.21
99 2.8404 9528.42 9008.78 97.61
100 2.8488 9578.85 9020.45 97.87
101 2.8572 9537.89 9032.93 97.66
102 2.8656 9539.71 9046.31 97.67
103 2.8740 9558.13 9060.70 97.77
104 2.8824 9526.46 9076.24 97.60
105 2.8908 9548.75 9093.06 97.72
106 2.8992 9600.26 9111.33 97.98
107 2.9076 9554.82 9131.21 97.75
108 2.9160 9626.00 9152.93 98.11
109 2.9244 9646.51 9176.70 98.22
110 2.9328 9631.59 9202.78 98.14
111 2.9412 9682.27 9231.47 98.40
112 2.9496 9665.05 9263.11 98.31
113 2.9580 9665.27 9298.09 98.31
114 2.9664 9692.19 9336.87 98.45
115 2.9748 9648.55 9379.96 98.23
116 2.9832 9689.85 9427.98 98.44
117 2.9916 9735.88 9481.64 98.67
118 3.0000 9708.71 9541.79 98.53
119 3.0084 9765.30 9609.42 98.82
120 3.0168 9768.77 9685.71 98.84
121 3.0252 9852.77 9772.10 99.26
122 3.0336 9947.28 9870.30 99.74
123 3.0420 10041.40 9982.39 100.21
124 3.0504 10122.10 10110.90 100.61
125 3.0588 10276.60 10259.10 101.37
126 3.0672 10412.00 10430.70 102.04
127 3.0756 10602.00 10630.90 102.97
128 3.0840 10888.70 10865.70 104.35
129 3.0924 11130.40 11143.50 105.50
130 3.1008 11523.20 11475.40 107.35
131 3.1092 12061.00 11877.60 109.82
132 3.1176 12731.30 12377.80 112.83
133 3.1260 13617.70 13029.30 116.69
134 3.1344 15124.50 13945.10 122.98
135 3.1428 17063.70 15365.30 130.63
136 3.1512 20163.10 17770.00 142.00
137 3.1596 25819.50 22023.10 160.68
138 3.1680 33647.40 29474.30 183.43
139 3.1764 45887.40 41879.60 214.21
140 3.1848 64873.20 60967.80 254.70
141 3.1932 85876.50 87617.00 293.05
142 3.2016 117437.00 120819.00 342.69
143 3.2100 152148.00 156844.00 390.06
144 3.2184 190103.00 188922.00 436.01
145 3.2268 213639.00 208147.00 462.21
146 3.2352 216617.00 207385.00 465.42
147 3.2436 194250.00 186947.00 440.74
148 3.2520 158987.00 154289.00 398.73
149 3.2604 116720.00 118254.00 341.64
150 3.2688 84916.70 85402.00 291.40
151 3.2772 60032.10 59256.40 245.01
152 3.2856 42547.30 40658.30 206.27
153 3.2940 29354.10 28639.60 171.33
154 3.3024 22704.10 21444.20 150.68
155 3.3108 17523.10 17336.80 132.38
156 3.3192 14617.30 15001.60 120.90
157 3.3276 12932.30 13606.50 113.72
158 3.3360 11766.30 12692.70 108.47
159 3.3444 11027.40 12032.30 105.01
160 3.3528 10500.70 11518.10 102.47
161 3.3612 10064.50 11099.40 100.32
162 3.3696 9785.02 10749.80 98.92
163 3.3780 9531.15 10453.40 97.63
164 3.3864 9334.90 10199.40 96.62
165 3.3948 9206.72 9979.81 95.95
166 3.4032 9116.42 9788.39 95.48
167 3.4116 8961.76 9620.31 94.67
168 3.4200 8893.05 9471.73 94.30
169 3.4284 8835.57 9339.54 94.00
170 3.4368 8754.57 9221.23 93.57
171 3.4452 8719.47 9114.75 93.38
172 3.4536 8642.64 9018.42 92.97
173 3.4620 8592.36 8930.83 92.69
174 3.4704 8513.08 8850.83 92.27
175 3.4788 8410.12 8777.42 91.71
176 3.4872 8329.79 8709.80 91.27
177 3.4956 8218.61 8647.24 90.66
178 3.5040 8095.22 8589.17 89.97
179 3.5124 8037.37 8535.06 89.65
180 3.5208 7943.19 8484.47 89.12
181 3.5292 7882.35 8437.03 88.78
182 3.5376 7834.77 8392.41 88.51
183 3.5460 7776.98 8350.31 88.19
184 3.5544 7699.04 8310.49 87.74
185 3.5628 7694.31 8272.72 87.72
186 3.5712 7612.17 8236.82 87.25
187 3.5796 7591.98 8202.61 87.13
188 3.5880 7572.88 8169.94 87.02
189 3.5964 7528.49 8138.68 86.77
190 3.6048 7532.56 8108.71 86.79
191 3.6132 7485.05 8079.91 86.52
192 3.6216 7482.87 8052.21 86.50
193 3.6300 7472.47 8025.50 86.44
194 3.6384 7416.64 7999.72 86.12
195 3.6468 7438.18 7974.80 86.24
196 3.6552 7433.54 7950.67 86.22
197 3.6636 7393.75 7927.27 85.99
198 3.6720 7408.83 7904.57 86.07
199 3.6804 7393.23 7882.51 85.98
200 3.6888 7366.26 7861.04 85.83
201 3.6972 7362.00 7840.15 85.80
202 3.7056 7342.62 7819.77 85.69
203 3.7140 7327.53 7799.90 85.60
204 3.7224 7398.28 7780.49 86.01
205 3.7308 7292.17 7761.53 85.39
206 3.7392 7291.20 7742.98 85.39
207 3.7476 7292.97 7521.77 85.40
208 3.7560 7279.05 7510.41 85.32
209 3.7644 7269.64 7499.11 85.26
210 3.7728 7258.93 7487.87 85.20
211 3.7812 7251.15 7476.69 85.15
212 3.7896 7260.05 7465.57 85.21
213 3.7980 7231.48 7454.51 85.04
214 3.8064 7236.75 7443.52 85.07
215 3.8148 7228.67 7432.59 85.02
216 3.8232 7220.48 7421.73 84.97
217 3.8316 7240.85 7410.93 85.09
218 3.8400 7233.55 7400.21 85.05
219 3.8484 7231.59 7389.55 85.04
220 3.8568 7264.81 7378.96 85.23
221 3.8652 7245.76 7368.44 85.12
222 3.8736 7290.42 7358.00 85.38
223 3.8820 7329.97 7347.63 85.62
224 3.8904 7335.22 7337.33 85.65
225 3.8988 7399.28 7327.11 86.02
226 3.9072 7428.33 7316.96 86.19
227 3.9156 7417.16 7306.90 86.12
228 3.9240 7404.87 7296.90 86.05
229 3.9324 7359.80 7286.99 85.79
230 3.9408 7328.60 7277.16 85.61
231 3.9492 7299.14 7267.40 85.43
232 3.9576 7259.08 7257.73 85.20
233 3.9660 7237.47 7248.14 85.07
234 3.9744 7205.41 7238.63 84.88
235 3.9828 7181.67 7229.20 84.74
236 3.9912 7158.88 7219.86 84.61
237 3.9996 7152.17 7210.60 84.57
238 4.0080 7124.56 7201.43 84.41
239 4.0164 7144.69 7192.35 84.53
240 4.0248 7110.22 7183.34 84.32
241 4.0332 7107.44 7174.43 84.31
242 4.0416 7133.34 7165.61 84.46
243 4.0500 7079.31 7156.87 84.14
244 4.0584 7116.10 7148.22 84.36
245 4.0668 7104.73 7139.66 84.29
246 4.0752 7080.01 7131.19 84.14
247 4.0836 7099.65 7122.82 84.26
248 4.0920 7105.99 7114.53 84.30
249 4.1004 7079.92 7106.33 84.14
250 4.1088 7093.09 7098.23 84.22
251 4.1172 7086.06 7090.22 84.18
252 4.1256 7081.84 7082.30 84.15
253 4.1340 7097.68 7074.47 84.25
254 4.1424 7083.29 7066.74 84.16
255 4.1508 7088.60 7059.10 84.19
256 4.1592 7094.11 7051.56 84.23
257 4.1676 7080.91 7044.11 84.15
258 4.1760 7085.26 7036.76 84.17
259 4.1844 7078.47 7029.50 84.13
260 4.1928 7080.90 7022.34 84.15
261 4.2012 7097.49 7015.27 84.25
262 4.2096 7056.80 7008.30 84.00
263 4.2180 7064.67 7001.42 84.05
264 4.2264 7071.25 6994.65 84.09
265 4.2348 7054.12 6987.97 83.99
266 4.2432 7079.11 6981.39 84.14
267 4.2516 7076.33 6982.76 84.12
268 4.2600 7060.78 6976.63 84.03
269 4.2684 7083.38 6970.61 84.16
270 4.2768 7055.88 6964.70 84.00
271 4.2852 7058.35 6958.90 84.01
272 4.2936 7066.47 6953.21 84.06
273 4.3020 7045.46 6947.65 83.94
274 4.3104 7060.33 6942.19 84.03
275 4.3188 7051.30 6936.86 83.97
276 4.3272 7045.73 6931.64 83.94
277 4.3356 7053.68 6926.54 83.99
278 4.3440 7056.47 6921.57 84.00
279 4.3524 7049.90 6916.72 83.96
280 4.3608 7061.37 6912.00 84.03
281 4.3692 7037.28 6907.40 83.89
282 4.3776 7050.75 6902.94 83.97
283 4.3860 7048.33 6898.61 83.95
284 4.3944 7026.75 6894.41 83.83
285 4.4028 7049.10 6890.36 83.96
286 4.4112 7057.00 6886.45 84.01
287 4.4196 7030.11 6882.69 83.85
288 4.4280 7066.20 6879.08 84.06
289 4.4364 7037.58 6875.63 83.89
290 4.4448 7046.21 6872.35 83.94
291 4.4532 7060.24 6869.23 84.03
292 4.4616 7043.12 6866.29 83.92
293 4.4700 7054.98 6863.53 83.99
294 4.4784 7047.22 6860.97 83.95
295 4.4868 7045.96 6858.62 83.94
296 4.4952 7060.00 6856.48 84.02
297 4.5036 7057.26 6854.57 84.01
298 4.5120 7066.56 6852.92 84.06
299 4.5204 7075.75 6851.53 84.12
300 4.5288 7069.79 6850.43 84.08
301 4.5372 7075.29 6849.65 84.11
302 4.5456 7076.62 6849.21 84.12
303 4.5540 7065.14 6849.15 84.05
304 4.5624 7088.75 6849.52 84.19
305 4.5708 7073.72 6850.36 84.11
306 4.5792 7074.75 6851.74 84.11
307 4.5876 7082.73 6853.73 84.16
308 4.5960 7057.29 6856.42 84.01
309 4.6044 7070.20 6859.92 84.08
310 4.6128 7078.02 6864.37 84.13
311 4.6212 7073.89 6869.93 84.11
312 4.6296 7093.83 6876.83 84.22
313 4.6380 7072.06 6885.34 84.10
314 4.6464 7080.27 6895.84 84.14
315 4.6548 7096.77 6908.86 84.24
316 4.6632 7091.78 6925.29 84.21
317 4.6716 7103.86 6946.69 84.28
318 4.6800 7143.06 6976.16 84.52
319 4.6884 7151.04 7019.90 84.56
320 4.6968 7209.27 7089.70 84.91
321 4.7052 7297.75 7206.18 85.43
322 4.7136 7411.88 7401.44 86.09
323 4.7220 7604.20 7718.16 87.20
324 4.7304 7890.81 8202.17 88.83
325 4.7388 8248.01 8886.04 90.82
326 4.7472 8793.32 9766.76 93.77
327 4.7556 9415.47 10783.10 97.03
328 4.7640 10216.60 11798.90 101.08
329 4.7724 10870.30 12600.50 104.26
330 4.7808 11188.40 12943.40 105.78
331 4.7892 11161.90 12695.90 105.65
332 4.7976 10597.00 11954.80 102.94
333 4.8060 9871.02 10957.50 99.35
334 4.8144 9180.11 9928.84 95.81
335 4.8228 8544.00 9018.33 92.43
336 4.8312 8062.59 8299.00 89.79
337 4.8396 7700.75 7782.19 87.75
338 4.8480 7478.82 7439.63 86.48
339 4.8564 7325.83 7226.37 85.59
340 4.8648 7233.26 7098.45 85.05
341 4.8732 7188.60 7021.79 84.79
342 4.8816 7157.99 6973.94 84.60
343 4.8900 7135.12 6941.87 84.47
344 4.8984 7140.58 6918.63 84.50
345 4.9068 7135.39 6900.74 84.47
346 4.9152 7132.80 6886.44 84.46
347 4.9236 7128.82 6874.77 84.43
348 4.9320 7128.31 6865.15 84.43
349 4.9404 7129.07 6857.19 84.43
350 4.9488 7138.11 6850.59 84.49
351 4.9572 7119.94 6845.12 84.38
352 4.9656 7122.69 6840.61 84.40
353 4.9740 7134.98 6836.92 84.47
354 4.9824 7112.81 6833.92 84.34
355 4.9908 7114.60 6831.53 84.35
356 4.9992 7109.05 6829.67 84.32
357 5.0076 7120.60 6828.28 84.38
358 5.0160 7144.07 6827.29 84.52
359 5.0244 7119.77 6826.68 84.38
360 5.0328 7133.55 6826.39 84.46
361 5.0412 7134.99 6826.40 84.47
362 5.0496 7133.03 6826.68 84.46
363 5.0580 7136.87 6827.21 84.48
364 5.0664 7160.41 6827.97 84.62
365 5.0748 7153.85 6828.93 84.58
366 5.0832 7165.69 6830.09 84.65
367 5.0916 7179.69 6831.44 84.73
368 5.1000 7162.44 6832.95 84.63
369 5.1084 7178.02 6834.62 84.72
370 5.1168 7179.76 6836.44 84.73
371 5.1252 7180.85 6838.40 84.74
372 5.1336 7218.13 6840.49 84.96
373 5.1420 7202.23 6842.72 84.87
374 5.1504 7231.82 6845.07 85.04
375 5.1588 7230.22 6847.53 85.03
376 5.1672 7227.53 6850.11 85.01
377 5.1756 7241.79 6852.79 85.10
378 5.1840 7234.02 6855.58 85.05
379 5.1924 7255.68 6858.47 85.18
380 5.2008 7250.29 6861.46 85.15
381 5.2092 7255.51 6864.54 85.18
382 5.2176 7246.08 6867.71 85.12
383 5.2260 7251.40 6870.97 85.16
384 5.2344 7253.17 6874.32 85.17
385 5.2428 7238.55 6877.75 85.08
386 5.2512 7245.65 6881.26 85.12
387 5.2596 7247.67 6884.86 85.13
388 5.2680 7262.19 6888.53 85.22
389 5.2764 7248.85 6892.27 85.14
390 5.2848 7249.17 6896.09 85.14
391 5.2932 7259.62 6899.99 85.20
392 5.3016 7241.23 6903.96 85.10
393 5.3100 7248.46 6907.99 85.14
394 5.3184 7236.37 6904.43 85.07
395 5.3268 7228.57 6908.84 85.02
396 5.3352 7239.63 6913.30 85.09
397 5.3436 7233.77 6917.81 85.05
398 5.3520 7247.20 6922.38 85.13
399 5.3604 7240.19 6927.01 85.09
400 5.3688 7219.34 6931.68 84.97
401 5.3772 7244.61 6936.41 85.12
402 5.3856 7234.42 6941.19 85.06
403 5.3940 7233.48 6946.03 85.05
404 5.4024 7248.81 6950.91 85.14
405 5.4108 7238.05 6955.84 85.08
406 5.4192 7237.58 6960.82 85.07
407 5.4276 7223.84 6965.85 84.99
408 5.4360 7233.86 6970.93 85.05
409 5.4444 7234.88 6976.06 85.06
410 5.4528 7237.81 6981.24 85.08
411 5.4612 7228.79 6986.46 85.02
412 5.4696 7252.86 6991.72 85.16
413 5.4780 7232.83 6997.03 85.05
414 5.4864 7232.10 7002.39 85.04
415 5.4948 7229.05 7007.79 85.02
416 5.5032 7229.51 7013.23 85.03
417 5.5116 7228.14 7018.72 85.02
418 5.5200 7225.50 7024.25 85.00
419 5.5284 7222.81 7029.82 84.99
420 5.5368 7211.79 7035.43 84.92
421 5.5452 7210.27 7041.08 84.91
422 5.5536 7196.04 7046.77 84.83
423 5.5620 7219.25 7052.50 84.97
424 5.5704 7199.87 7058.27 84.85
425 5.5788 7200.53 7064.08 84.86
426 5.5872 7212.60 7069.92 84.93
427 5.5956 7200.38 7075.80 84.86
428 5.6040 7207.79 7081.71 84.90
429 5.6124 7200.52 7087.67 84.86
430 5.6208 7204.24 7093.65 84.88
431 5.6292 7208.85 7099.67 84.90
432 5.6376 7201.19 7105.73 84.86
433 5.6460 7213.17 7111.81 84.93
434 5.6544 7213.59 7117.93 84.93
435 5.6628 7190.93 7124.08 84.80
436 5.6712 7203.80 7130.27 84.88
437 5.6796 7213.72 7136.48 84.93
438 5.6880 7221.95 7142.72 84.98
439 5.6964 7216.33 7148.99 84.95
440 5.7048 7210.59 7155.30 84.92
441 5.7132 7204.95 7161.62 84.88
442 5.7216 7215.50 7167.98 84.94
443 5.7300 7213.82 7174.37 84.93
444 5.7384 7223.59 7180.77 84.99
445 5.7468 7225.90 7187.21 85.01
446 5.7552 7218.76 7193.67 84.96
447 5.7636 7231.22 7200.16 85.04
448 5.7720 7223.24 7206.67 84.99
449 5.7804 7220.24 7213.20 84.97
450 5.7888 7235.46 7219.76 85.06
451 5.7972 7225.87 7226.33 85.01
452 5.8056 7243.24 7288.04 85.11
453 5.8140 7243.17 7296.33 85.11
454 5.8224 7243.55 7304.72 85.11
455 5.8308 7250.33 7313.21 85.15
456 5.8392 7260.62 7321.81 85.21
457 5.8476 7258.66 7330.51 85.20
458 5.8560 7261.86 7339.33 85.22
459 5.8644 7266.12 7348.28 85.24
460 5.8728 7279.23 7357.35 85.32
461 5.8812 7290.41 7366.57 85.38
462 5.8896 7287.76 7375.92 85.37
463 5.8980 7295.67 7392.00 85.41
464 5.9064 7301.08 7401.86 85.45
465 5.9148 7302.39 7411.91 85.45
466 5.9232 7300.81 7422.16 85.44
467 5.9316 7302.04 7432.61 85.45
468 5.9400 7319.09 7443.27 85.55
469 5.9484 7322.62 7454.18 85.57
470 5.9568 7324.55 7465.34 85.58
471 5.9652 7335.27 7476.77 85.65
472 5.9736 7345.05 7488.50 85.70
473 5.9820 7344.76 7500.55 85.70
474 5.9904 7355.20 7512.94 85.76
475 5.9988 7347.85 7525.71 85.72
476 6.0072 7372.04 7538.88 85.86
477 6.0156 7378.18 7552.49 85.90
478 6.0240 7384.66 7566.59 85.93
479 6.0324 7401.44 7581.23 86.03
480 6.0408 7401.88 7596.44 86.03
481 6.0492 7406.64 7718.41 86.06
482 6.0576 7432.74 7738.18 86.21
483 6.0660 7443.06 7758.88 86.27
484 6.0744 7453.76 7780.61 86.34
485 6.0828 7467.07 7803.47 86.41
486 6.0912 7488.10 7827.59 86.53
487 6.0996 7507.62 7853.12 86.65
488 6.1080 7518.89 7880.21 86.71
489 6.1164 7531.61 7909.05 86.78
490 6.1248 7554.88 7939.87 86.92
491 6.1332 7583.37 7972.91 87.08
492 6.1416 7596.70 8008.48 87.16
493 6.1500 7629.10 8046.93 87.34
494 6.1584 7650.89 8088.67 87.47
495 6.1668 7687.87 8134.22 87.68
496 6.1752 7703.29 8184.15 87.77
497 6.1836 7744.91 8239.21 88.01
498 6.1920 7807.51 8300.26 88.36
499 6.2004 7854.55 8368.39 88.63
500 6.2088 7908.83 8444.95 88.93
501 6.2172 7991.17 8531.62 89.39
502 6.2256 8075.82 8630.60 89.87
503 6.2340 8192.55 8744.89 90.51
504 6.2424 8347.17 8878.92 91.36
505 6.2508 8527.85 9039.92 92.35
506 6.2592 8779.35 9240.76 93.70
507 6.2676 9132.34 9505.58 95.56
508 6.2760 9647.17 9879.02 98.22
509 6.2844 10350.50 10439.60 101.74
510 6.2928 11496.20 11314.00 107.22
511 6.3012 13102.30 12684.90 114.46
512 6.3096 15271.60 14926.90 123.58
513 6.3180 18423.50 17976.30 135.73
514 6.3264 22612.50 22124.80 150.38
515 6.3348 27902.20 27339.40 167.04
516 6.3432 34085.70 33301.00 184.62
517 6.3516 40944.50 39314.90 202.35
518 6.3600 46396.00 44267.10 215.40
519 6.3684 48563.90 46814.30 220.37
520 6.3768 47305.60 46088.60 217.50
521 6.3852 42635.70 42420.20 206.48
522 6.3936 36342.00 37056.90 190.64
523 6.4020 30354.00 31312.40 174.22
524 6.4104 25420.40 26124.40 159.44
525 6.4188 21562.70 22013.30 146.84
526 6.4272 18998.30 19145.40 137.83
527 6.4356 17550.00 17420.00 132.48
528 6.4440 16854.80 16564.40 129.83
529 6.4524 16620.60 16221.50 128.92
530 6.4608 16511.50 16028.90 128.50
531 6.4692 16136.70 15720.30 127.03
532 6.4776 15549.90 15218.30 124.70
533 6.4860 14688.30 14606.60 121.19
534 6.4944 13957.10 14019.10 118.14
535 6.5028 13465.30 13573.90 116.04
536 6.5112 13271.10 13367.80 115.20
537 6.5196 13588.30 13496.70 116.57
538 6.5280 14305.60 14087.60 119.61
539 6.5364 15681.70 15336.40 125.23
540 6.5448 18163.90 17533.40 134.77
541 6.5532 21391.80 21055.80 146.26
542 6.5616 26447.90 26301.70 162.63
543 6.5700 33138.20 33555.20 182.04
544 6.5784 41390.40 42807.50 203.45
545 6.5868 52132.10 53566.20 228.32
546 6.5952 63929.00 64686.30 252.84
547 6.6036 74432.20 74254.80 272.82
548 6.6120 80773.20 79813.60 284.21
549 6.6204 80703.60 79468.30 284.08
550 6.6288 73894.70 73356.10 271.84
551 6.6372 63029.80 63523.80 251.06
552 6.6456 50436.60 52401.70 224.58
553 6.6540 39741.40 41811.80 199.35
554 6.6624 30922.20 32813.50 175.85
555 6.6708 24587.50 25828.80 156.80
556 6.6792 19532.70 20814.80 139.76
557 6.6876 16283.10 17452.10 127.61
558 6.6960 14316.70 15321.00 119.65
559 6.7044 12918.20 14027.50 113.66
560 6.7128 12172.40 13266.90 110.33
561 6.7212 11710.60 12834.20 108.21
562 6.7296 11489.70 12607.20 107.19
563 6.7380 11430.50 12520.40 106.91
564 6.7464 11518.70 12544.50 107.32
565 6.7548 11766.00 12673.60 108.47
566 6.7632 12137.10 12921.50 110.17
567 6.7716 12742.10 13327.70 112.88
568 6.7800 13633.40 13973.80 116.76
569 6.7884 15002.30 15009.90 122.48
570 6.7968 16963.10 16687.20 130.24
571 6.8052 19813.10 19384.50 140.76
572 6.8136 24216.80 23603.50 155.62
573 6.8220 30047.60 29898.80 173.34
574 6.8304 38045.00 38737.10 195.05
575 6.8388 49001.80 50277.30 221.36
576 6.8472 62834.30 64127.60 250.67
577 6.8556 79002.30 79111.70 281.07
578 6.8640 93948.50 93079.40 306.51
579 6.8724 106213.00 102941.00 325.90
580 6.8808 109082.00 105638.00 330.27
581 6.8892 102890.00 100167.00 320.77
582 6.8976 88764.30 88458.60 297.93
583 6.9060 73215.30 73776.20 270.58
584 6.9144 57674.80 58931.20 240.16
585 6.9228 44830.10 45721.90 211.73
586 6.9312 34684.70 35029.40 186.24
587 6.9396 27057.00 26974.10 164.49
588 6.9480 21493.20 21374.50 146.61
589 6.9564 17923.00 17654.20 133.88
590 6.9648 15540.60 15261.80 124.66
591 6.9732 13805.00 13732.30 117.50
592 6.9816 12635.50 12730.10 112.41
593 6.9900 11792.30 12038.70 108.59
594 6.9984 11180.80 11531.00 105.74
595 7.0068 10721.00 11136.30 103.54
596 7.0152 10353.60 10816.40 101.75
597 7.0236 10070.70 10550.20 100.35
598 7.0320 9846.09 10324.70 99.23
599 7.0404 9644.98 10125.40 98.21
600 7.0488 9500.85 9958.95 97.47
601 7.0572 9361.86 9814.39 96.76
602 7.0656 9300.51 9688.06 96.44
603 7.0740 9151.17 9577.12 95.66
604 7.0824 9061.08 9479.20 95.19
605 7.0908 8997.67 9392.42 94.86
606 7.0992 8929.09 9315.20 94.49
607 7.1076 8880.27 9246.23 94.24
608 7.1160 8828.70 9184.42 93.96
609 7.1244 8789.58 9128.86 93.75
610 7.1328 8744.45 9078.77 93.51
611 7.1412 8728.33 9033.51 93.43
612 7.1496 8688.27 8992.51 93.21
613 7.1580 8674.06 8955.28 93.13
614 7.1664 8637.46 8921.42 92.94
615 7.1748 8613.33 8890.58 92.81
616 7.1832 8610.56 8862.44 92.79
617 7.1916 8594.71 8734.04 92.71
618 7.2000 8571.79 8713.46 92.58
619 7.2084 8574.28 8694.77 92.60
620 7.2168 8558.55 8677.79 92.51
621 7.2252 8549.65 8662.39 92.46
622 7.2336 8564.88 8648.44 92.55
623 7.2420 8537.00 8635.85 92.40
624 7.2504 8549.35 8624.53 92.46
625 7.2588 8546.86 8614.42 92.45
626 7.2672 8540.27 8605.51 92.41
627 7.2756 8535.08 8597.80 92.39
628 7.2840 8550.41 8591.40 92.47
629 7.2924 8541.21 8586.54 92.42
630 7.3008 8554.30 8583.73 92.49
631 7.3092 8538.88 8583.84 92.41
632 7.3176 8550.67 8588.35 92.47
633 7.3260 8526.92 8599.41 92.34
634 7.3344 8515.95 8619.79 92.28
635 7.3428 8518.00 8652.44 92.29
636 7.3512 8486.57 8699.71 92.12
637 7.3596 8465.97 8762.15 92.01
638 7.3680 8436.55 8837.27 91.85
639 7.3764 8413.21 8918.32 91.72
640 7.3848 8402.99 8993.16 91.67
641 7.3932 8393.18 9044.66 91.61
642 7.4016 8373.92 9056.07 91.51
643 7.4100 8371.28 9022.17 91.49
644 7.4184 8362.39 8953.73 91.45
645 7.4268 8371.16 8868.74 91.49
646 7.4352 8356.98 8782.67 91.42
647 7.4436 8361.30 8705.51 91.44
648 7.4520 8364.01 8642.21 91.46
649 7.4604 8361.28 8451.56 91.44
650 7.4688 8363.52 8420.91 91.45
651 7.4772 8374.95 8400.95 91.51
652 7.4856 8378.85 8388.69 91.54
653 7.4940 8378.44 8381.53 91.53
654 7.5024 8390.26 8377.54 91.60
655 7.5108 8387.51 8375.43 91.58
656 7.5192 8403.51 8374.42 91.67
657 7.5276 8401.86 8374.08 91.66
658 7.5360 8408.41 8374.16 91.70
659 7.5444 8433.97 8374.53 91.84
660 7.5528 8430.23 8375.10 91.82
661 7.5612 8439.03 8375.82 91.86
662 7.5696 8452.69 8376.65 91.94
663 7.5780 8459.16 8377.57 91.97
664 7.5864 8461.54 8378.56 91.99
665 7.5948 8475.32 8379.59 92.06
666 7.6032 8481.97 8380.65 92.10
667 7.6116 8486.29 8381.74 92.12
668 7.6200 8493.27 8382.83 92.16
669 7.6284 8486.68 8383.93 92.12
670 7.6368 8508.68 8385.03 92.24
671 7.6452 8516.03 8386.11 92.28
672 7.6536 8523.74 8387.19 92.32
673 7.6620 8532.96 8388.24 92.37
674 7.6704 8538.38 8389.28 92.40
675 7.6788 8548.06 8390.29 92.46
676 7.6872 8543.45 8391.27 92.43
677 7.6956 8550.54 8392.23 92.47
678 7.7040 8565.56 8393.15 92.55
679 7.7124 8564.43 8394.05 92.54
680 7.7208 8561.15 8394.91 92.53
681 7.7292 8571.74 8395.74 92.58
682 7.7376 8563.92 8396.53 92.54
683 7.7460 8575.93 8397.28 92.61
684 7.7544 8562.25 8398.00 92.53
685 7.7628 8574.14 8398.67 92.60
686 7.7712 8582.99 8399.31 92.64
687 7.7796 8575.00 8399.91 92.60
688 7.7880 8573.26 8400.47 92.59
689 7.7964 8577.46 8400.99 92.61
690 7.8048 8574.23 8401.47 92.60
691 7.8132 8582.95 8401.91 92.64
692 7.8216 8585.66 8402.30 92.66
693 7.8300 8581.50 8402.66 92.64
694 7.8384 8583.95 8402.97 92.65
695 7.8468 8570.26 8403.24 92.58
696 7.8552 8577.54 8403.47 92.61
697 7.8636 8564.82 8403.65 92.55
698 7.8720 8570.99 8403.79 92.58
699 7.8804 8565.21 8403.89 92.55
700 7.8888 8577.27 8403.95 92.61
701 7.8972 8565.36 8403.96 92.55
702 7.9056 8584.46 8403.93 92.65
703 7.9140 8567.36 8403.86 92.56
704 7.9224 8575.47 8403.74 92.60
705 7.9308 8563.46 8403.58 92.54
706 7.9392 8577.60 8403.38 92.62
707 7.9476 8590.56 8403.13 92.69
708 7.9560 8567.62 8402.84 92.56
709 7.9644 8596.00 8402.51 92.71
710 7.9728 8598.61 8402.13 92.73
711 7.9812 8591.88 8401.71 92.69
712 7.9896 8599.80 8400.39 92.74
713 7.9980 8600.98 8399.90 92.74
714 8.0064 8595.37 8399.38 92.71
715 8.0148 8614.83 8398.80 92.82
716 8.0232 8608.44 8398.19 92.78
717 8.0316 8602.13 8397.53 92.75
718 8.0400 8630.11 8396.82 92.90
719 8.0484 8624.71 8418.38 92.87
720 8.0568 8622.35 8418.21 92.86
721 8.0652 8633.87 8418.03 92.92
722 8.0736 8626.80 8417.82 92.88
723 8.0820 8651.98 8417.61 93.02
724 8.0904 8643.73 8417.38 92.97
725 8.0988 8640.78 8417.14 92.96
726 8.1072 8669.43 8416.89 93.11
727 8.1156 8656.03 8416.64 93.04
728 8.1240 8665.07 8416.38 93.09
729 8.1324 8674.99 8416.13 93.14
730 8.1408 8681.90 8415.87 93.18
731 8.1492 8691.00 8415.62 93.23
732 8.1576 8704.25 8415.38 93.30
733 8.1660 8716.63 8415.15 93.36
734 8.1744 8721.81 8414.94 93.39
735 8.1828 8733.37 8414.75 93.45
736 8.1912 8734.69 8414.58 93.46
737 8.1996 8748.03 8414.44 93.53
738 8.2080 8750.22 8414.34 93.54
739 8.2164 8763.09 8414.27 93.61
740 8.2248 8768.50 8414.26 93.64
741 8.2332 8766.03 8414.30 93.63
742 8.2416 8772.77 8414.40 93.66
743 8.2500 8767.00 8414.57 93.63
744 8.2584 8756.55 8414.83 93.58
745 8.2668 8768.94 8415.17 93.64
746 8.2752 8751.60 8415.62 93.55
747 8.2836 8759.87 8416.18 93.59
748 8.2920 8760.16 8416.87 93.60
749 8.3004 8750.02 8417.71 93.54
750 8.3088 8747.25 8418.71 93.53
751 8.3172 8752.76 8419.89 93.56
752 8.3256 8758.36 8421.28 93.59
753 8.3340 8759.98 8422.89 93.59
754 8.3424 8759.27 8424.77 93.59
755 8.3508 8765.63 8426.94 93.62
756 8.3592 8765.93 8429.43 93.63
757 8.3676 8759.50 8432.30 93.59
758 8.3760 8780.15 8435.58 93.70
759 8.3844 8767.05 8439.52 93.63
760 8.3928 8785.94 8443.81 93.73
761 8.4012 8798.21 8458.76 93.80
762 8.4096 8799.72 8464.62 93.81
763 8.4180 8831.80 8471.29 93.98
764 8.4264 8849.74 8478.88 94.07
765 8.4348 8850.87 8487.52 94.08
766 8.4432 8882.08 8497.38 94.24
767 8.4516 8894.64 8508.65 94.31
768 8.4600 8918.26 8521.57 94.44
769 8.4684 8951.74 8536.41 94.61
770 8.4768 8965.87 8553.51 94.69
771 8.4852 9011.60 8573.30 94.93
772 8.4936 9043.67 8596.29 95.10
773 8.5020 9084.97 8623.14 95.32
774 8.5104 9121.83 8654.72 95.51
775 8.5188 9183.63 8692.23 95.83
776 8.5272 9231.07 8737.49 96.08
777 8.5356 9322.24 8793.41 96.55
778 8.5440 9402.80 8865.01 96.97
779 8.5524 9510.10 8961.04 97.52
780 8.5608 9676.50 9099.73 98.37
781 8.5692 9889.44 9298.66 99.45
782 8.5776 10153.30 9597.38 100.76
783 8.5860 10554.70 10045.20 102.74
784 8.5944 11088.10 10701.60 105.30
785 8.6028 11773.50 11625.70 108.51
786 8.6112 12768.10 12859.90 113.00
787 8.6196 13906.10 14408.50 117.92
788 8.6280 15397.50 16257.70 124.09
789 8.6364 16941.70 18174.20 130.16
790 8.6448 18619.90 19945.80 136.46
791 8.6532 19695.80 21210.40 140.34
792 8.6616 20104.90 21607.80 141.79
793 8.6700 19508.30 21002.90 139.67
794 8.6784 18074.30 19596.50 134.44
795 8.6868 16311.00 17765.60 127.71
796 8.6952 14568.40 15854.30 120.70
797 8.7036 13041.10 14093.00 114.20
798 8.7120 11816.30 12606.60 108.70
799 8.7204 10917.00 11438.30 104.49
800 8.7288 10248.30 10573.80 101.23
801 8.7372 9816.88 9965.54 99.08
802 8.7456 9513.51 9553.03 97.54
803 8.7540 9310.18 9278.54 96.49
804 8.7624 9179.31 9095.44 95.81
805 8.7708 9086.97 8970.25 95.33
806 8.7792 9019.20 8881.06 94.97
807 8.7876 8968.82 8814.61 94.70
808 8.7960 8930.10 8763.22 94.50
809 8.8044 8904.41 8722.51 94.36
810 8.8128 8868.40 8689.96 94.17
811 8.8212 8870.86 8664.05 94.19
812 8.8296 8870.76 8643.83 94.18
813 8.8380 8848.46 8628.66 94.07
814 8.8464 8852.54 8642.82 94.09
815 8.8548 8852.99 8637.41 94.09
816 8.8632 8867.09 8636.41 94.17
817 8.8716 8891.75 8639.99 94.30
818 8.8800 8916.20 8648.51 94.43
819 8.8884 8944.73 8662.77 94.58
820 8.8968 9012.58 8684.20 94.93
821 8.9052 9073.21 8715.38 95.25
822 8.9136 9170.15 8760.89 95.76
823 8.9220 9292.07 8828.38 96.40
824 8.9304 9451.67 8929.85 97.22
825 8.9388 9643.62 9083.97 98.20
826 8.9472 9917.94 9311.07 99.59
827 8.9556 10205.50 9638.19 101.02
828 8.9640 10606.50 10089.50 102.99
829 8.9724 11057.10 10679.60 105.15
830 8.9808 11580.50 11404.30 107.61
831 8.9892 12138.40 12230.40 110.17
832 8.9976 12671.00 13085.30 112.57
833 9.0060 13092.20 13848.10 114.42
834 9.0144 13282.70 14357.80 115.25
835 9.0228 13253.90 14471.30 115.13
836 9.0312 12963.30 14156.60 113.86
837 9.0396 12452.70 13520.40 111.59
838 9.0480 11920.90 12729.00 109.18
839 9.0564 11373.90 11925.00 106.65
840 9.0648 10921.20 11206.30 104.50
841 9.0732 10571.80 10615.20 102.82
842 9.0816 10310.60 10173.50 101.54
843 9.0900 10152.70 9877.04 100.76
844 9.0984 10092.60 9710.38 100.46
845 9.1068 10087.20 9655.61 100.43
846 9.1152 10185.50 9698.78 100.92
847 9.1236 10357.50 9833.11 101.77
848 9.1320 10625.50 10059.50 103.08
849 9.1404 10951.70 10385.50 104.65
850 9.1488 11471.90 10825.00 107.11
851 9.1572 12044.80 11398.60 109.75
852 9.1656 12830.70 12134.80 113.27
853 9.1740 13784.20 13069.80 117.41
854 9.1824 14924.30 14249.60 122.17
855 9.1908 16437.50 15741.30 128.21
856 9.1992 18298.60 17638.70 135.27
857 9.2076 20546.50 20031.40 143.34
858 9.2160 23430.50 22937.80 153.07
859 9.2244 26590.00 26235.10 163.06
860 9.2328 30129.60 29611.30 173.58
861 9.2412 33162.50 32530.00 182.11
862 9.2496 35151.90 34288.80 187.49
863 9.2580 35296.30 34310.90 187.87
864 9.2664 33420.30 32543.50 182.81
865 9.2748 29931.80 29498.70 173.01
866 9.2832 25920.20 25857.90 161.00
867 9.2916 21803.10 22239.30 147.66
868 9.3000 18467.70 18985.50 135.90
869 9.3084 15715.70 16280.70 125.36
870 9.3168 13710.60 14194.90 117.09
871 9.3252 12220.10 12649.50 110.54
872 9.3336 11222.80 11570.80 105.94
873 9.3420 10547.70 10849.90 102.70
874 9.3504 10138.10 10386.40 100.69
875 9.3588 9893.20 10102.00 99.46
876 9.3672 9791.30 9944.90 98.95
877 9.3756 9776.97 9888.38 98.88
878 9.3840 9893.50 9930.51 99.47
879 9.3924 10095.00 10083.60 100.47
880 9.4008 10446.20 10384.20 102.21
881 9.4092 10888.30 10881.20 104.35
882 9.4176 11653.60 11630.50 107.95
883 9.4260 12457.50 12682.00 111.61
884 9.4344 13743.20 14061.20 117.23
885 9.4428 15010.70 15748.00 122.52
886 9.4512 16713.90 17654.40 129.28
887 9.4596 18391.70 19600.00 135.62
888 9.4680 19982.20 21294.10 141.36
889 9.4764 21072.70 22354.40 145.16
890 9.4848 21448.80 22466.40 146.45
891 9.4932 21022.90 21590.80 144.99
892 9.5016 19769.20 19998.00 140.60
893 9.5100 18163.20 18073.30 134.77
894 9.5184 16405.20 16138.70 128.08
895 9.5268 14642.50 14400.80 121.01
896 9.5352 13225.70 12964.70 115.00
897 9.5436 12021.50 11858.50 109.64
898 9.5520 11081.50 11054.20 105.27
899 9.5604 10363.30 10488.70 101.80
900 9.5688 9828.18 10085.60 99.14
901 9.5772 9448.24 9777.54 97.20
902 9.5856 9177.43 9522.91 95.80
903 9.5940 8958.23 9305.60 94.65
904 9.6024 8812.36 9123.82 93.87
905 9.6108 8712.89 8981.45 93.34
906 9.6192 8656.54 8884.48 93.04
907 9.6276 8640.81 8839.81 92.96
908 9.6360 8666.03 8854.02 93.09
909 9.6444 8700.56 8935.14 93.28
910 9.6528 8791.57 9070.00 93.76
911 9.6612 8891.77 9275.99 94.30
912 9.6696 9038.70 9529.58 95.07
913 9.6780 9182.92 9804.83 95.83
914 9.6864 9342.45 10059.60 96.66
915 9.6948 9448.24 10236.80 97.20
916 9.7032 9472.57 10280.60 97.33
917 9.7116 9399.68 10169.70 96.95
918 9.7200 9236.11 9933.02 96.10
919 9.7284 9012.06 9627.85 94.93
920 9.7368 8788.21 9310.09 93.75
921 9.7452 8577.57 9012.04 92.62
922 9.7536 8395.68 8757.12 91.63
923 9.7620 8279.92 8553.14 90.99
924 9.7704 8180.75 8400.03 90.45
925 9.7788 8120.00 8291.94 90.11
926 9.7872 8090.56 8220.51 89.95
927 9.7956 8076.79 8177.27 89.87
928 9.8040 8083.31 8155.15 89.91
929 9.8124 8112.19 8149.05 90.07
930 9.8208 8154.33 8152.78 90.30
931 9.8292 8221.39 8172.02 90.67
932 9.8376 8306.04 8204.53 91.14
933 9.8460 8411.92 8253.86 91.72
934 9.8544 8578.90 8327.03 92.62
935 9.8628 8763.66 8435.94 93.61
936 9.8712 9029.41 8599.33 95.02
937 9.8796 9369.69 8844.25 96.80
938 9.8880 9798.36 9162.36 98.99
939 9.8964 10340.10 9683.59 101.69
940 9.9048 11044.30 10403.50 105.09
941 9.9132 11789.40 11351.10 108.58
942 9.9216 12741.20 12530.70 112.88
943 9.9300 13744.90 13907.20 117.24
944 9.9384 14831.80 15389.70 121.79
945 9.9468 15736.40 16814.20 125.44
946 9.9552 16496.60 17938.40 128.44
947 9.9636 16803.30 18495.10 129.63
948 9.9720 16749.60 18333.70 129.42
949 9.9804 16369.50 17533.20 127.94
950 9.9888 15682.80 16341.70 125.23
951 9.9972 14898.30 15020.90 122.06
952 10.0056 14154.30 13756.90 118.97
953 10.0140 13410.50 12649.20 115.80
954 10.0224 12840.60 11727.30 113.32
955 10.0308 12238.30 10976.30 110.63
956 10.0392 11688.90 10368.10 108.11
957 10.0476 11186.00 9883.47 105.76
958 10.0560 10747.90 9512.24 103.67
959 10.0644 10384.80 9244.77 101.91
960 10.0728 10137.00 9068.43 100.68
961 10.0812 9913.17 8967.06 99.56
962 10.0896 9767.71 8920.00 98.83
963 10.0980 9652.59 8900.59 98.25
964 10.1064 9500.71 8876.53 97.47
965 10.1148 9360.79 8817.66 96.75
966 10.1232 9139.67 8685.82 95.60
967 10.1316 8937.93 8538.38 94.54
968 10.1400 8688.30 8371.30 93.21
969 10.1484 8479.23 8204.66 92.08
970 10.1568 8292.38 8052.33 91.06
971 10.1652 8146.42 7922.19 90.26
972 10.1736 8006.91 7817.51 89.48
973 10.1820 7905.42 7738.44 88.91
974 10.1904 7834.17 7683.50 88.51
975 10.1988 7780.09 7650.89 88.20
976 10.2072 7749.94 7639.74 88.03
977 10.2156 7722.25 7649.52 87.88
978 10.2240 7735.12 7684.87 87.95
979 10.2324 7759.38 7747.83 88.09
980 10.2408 7784.26 7841.35 88.23
981 10.2492 7851.35 7966.47 88.61
982 10.2576 7920.20 8120.32 89.00
983 10.2660 8015.16 8297.41 89.53
984 10.2744 8107.35 8474.92 90.04
985 10.2828 8199.46 8629.77 90.55
986 10.2912 8271.19 8729.37 90.95
987 10.2996 8297.36 8748.35 91.09
988 10.3080 8286.77 8687.02 91.03
989 10.3164 8275.33 8573.60 90.97
990 10.3248 8252.51 8447.27 90.84
991 10.3332 8258.20 8341.90 90.87
992 10.3416 8303.17 8280.26 91.12
993 10.3500 8383.93 8269.96 91.56
994 10.3584 8515.71 8319.15 92.28
995 10.3668 8644.19 8413.27 92.97
996 10.3752 8800.85 8530.15 93.81
997 10.3836 8906.77 8636.32 94.38
998 10.3920 8928.38 8692.70 94.49
999 10.4004 8887.02 8669.80 94.27
1000 10.4088 8743.49 8563.72 93.51
1001 10.4172 8528.82 8395.31 92.35
1002 10.4256 8312.88 8194.74 91.18
1003 10.4340 8083.98 7989.44 89.91
1004 10.4424 7887.75 7798.74 88.81
1005 10.4508 7713.78 7634.13 87.83
1006 10.4592 7580.87 7498.86 87.07
1007 10.4676 7456.13 7392.79 86.35
1008 10.4760 7382.10 7312.29 85.92
1009 10.4844 7302.34 7252.39 85.45
1010 10.4928 7247.06 7207.95 85.13
1011 10.5012 7199.89 7174.49 84.85
1012 10.5096 7165.07 7148.55 84.65
1013 10.5180 7130.19 7127.60 84.44
1014 10.5264 7099.47 7109.98 84.26
1015 10.5348 7073.22 7094.64 84.10
1016 10.5432 7061.26 7080.91 84.03
1017 10.5516 7036.72 7068.40 83.89
1018 10.5600 7020.46 7056.86 83.79
1019 10.5684 6996.13 7046.14 83.64
1020 10.5768 6992.08 7036.16 83.62
1021 10.5852 6971.49 7026.88 83.50
1022 10.5936 6954.68 7018.31 83.39
1023 10.6020 6940.61 7010.48 83.31
1024 10.6104 6945.24 7003.48 83.34
1025 10.6188 6923.31 6978.81 83.21
1026 10.6272 6915.59 6974.18 83.16
1027 10.6356 6909.92 6970.52 83.13
1028 10.6440 6892.00 6967.77 83.02
1029 10.6524 6898.26 6965.70 83.06
1030 10.6608 6884.92 6963.89 82.98
1031 10.6692 6878.12 6961.70 82.93
1032 10.6776 6870.29 6958.29 82.89
1033 10.6860 6864.73 6951.01 82.85
1034 10.6944 6851.16 6943.74 82.77
1035 10.7028 6843.25 6935.02 82.72
1036 10.7112 6819.11 6925.69 82.58
1037 10.7196 6812.95 6916.51 82.54
1038 10.7280 6795.25 6907.98 82.43
1039 10.7364 6785.71 6900.41 82.38
1040 10.7448 6772.26 6893.94 82.29
1041 10.7532 6755.97 6889.46 82.19
1042 10.7616 6741.06 6885.31 82.10
1043 10.7700 6726.04 6880.55 82.01
1044 10.7784 6735.96 6878.70 82.07
1045 10.7868 6716.18 6878.04 81.95
1046 10.7952 6713.71 6878.78 81.94
1047 10.8036 6712.92 6881.32 81.93
1048 10.8120 6698.77 6886.33 81.85
1049 10.8204 6729.10 6895.00 82.03
1050 10.8288 6710.92 6909.19 81.92
1051 10.8372 6718.27 6931.73 81.96
1052 10.8456 6743.56 6966.58 82.12
1053 10.8540 6768.49 7018.79 82.27
1054 10.8624 6827.62 7094.17 82.63
1055 10.8708 6871.37 7198.37 82.89
1056 10.8792 6964.49 7335.51 83.45
1057 10.8876 7072.54 7506.45 84.10
1058 10.8960 7216.96 7706.85 84.95
1059 10.9044 7384.97 7924.82 85.94
1060 10.9128 7552.17 8138.63 86.90
1061 10.9212 7697.28 8314.91 87.73
1062 10.9296 7802.48 8413.75 88.33
1063 10.9380 7815.26 8405.86 88.40
1064 10.9464 7745.96 8292.11 88.01
1065 10.9548 7630.18 8100.50 87.35
1066 10.9632 7472.12 7875.84 86.44
1067 10.9716 7308.93 7648.53 85.49
1068 10.9800 7159.15 7439.90 84.61
1069 10.9884 7024.51 7261.45 83.81
1070 10.9968 6920.98 7117.64 83.19
1071 11.0052 6835.97 7007.36 82.68
1072 11.0136 6783.70 6926.96 82.36
1073 11.0220 6754.58 6871.34 82.19
1074 11.0304 6731.86 6835.47 82.05
1075 11.0388 6730.18 6815.20 82.04
1076 11.0472 6741.86 6807.48 82.11
1077 11.0556 6754.74 6807.98 82.19
1078 11.0640 6796.13 6859.35 82.44
1079 11.0724 6846.93 6879.15 82.75
1080 11.0808 6894.18 6904.41 83.03
1081 11.0892 6940.19 6931.57 83.31
1082 11.0976 6976.13 6956.62 83.52
1083 11.1060 7010.75 6975.13 83.73
1084 11.1144 7023.39 6982.47 83.81
1085 11.1228 7004.30 6974.59 83.69
1086 11.1312 6959.10 6950.31 83.42
1087 11.1396 6885.22 6912.95 82.98
1088 11.1480 6790.09 6868.55 82.40
1089 11.1564 6715.39 6822.94 81.95
1090 11.1648 6629.21 6780.18 81.42
1091 11.1732 6557.07 6742.56 80.98
1092 11.1816 6511.15 6711.01 80.69
1093 11.1900 6473.66 6685.53 80.46
1094 11.1984 6454.03 6665.51 80.34
1095 11.2068 6428.77 6650.03 80.18
1096 11.2152 6419.53 6638.09 80.12
1097 11.2236 6406.34 6628.80 80.04
1098 11.2320 6398.60 6621.43 79.99
1099 11.2404 6389.71 6615.44 79.94
1100 11.2488 6397.61 6610.46 79.99
1101 11.2572 6380.08 6606.29 79.88
1102 11.2656 6390.30 6602.78 79.94
1103 11.2740 6377.49 6599.87 79.86
1104 11.2824 6392.69 6597.55 79.95
1105 11.2908 6390.39 6595.86 79.94
1106 11.2992 6387.38 6594.87 79.92
1107 11.3076 6385.44 6594.72 79.91
1108 11.3160 6393.53 6595.67 79.96
1109 11.3244 6399.29 6598.11 80.00
1110 11.3328 6410.69 6602.65 80.07
1111 11.3412 6420.85 6610.16 80.13
1112 11.3496 6435.37 6621.78 80.22
1113 11.3580 6468.13 6638.82 80.42
1114 11.3664 6478.63 6662.83 80.49
1115 11.3748 6527.77 6694.99 80.79
1116 11.3832 6555.89 6735.93 80.97
1117 11.3916 6615.89 6787.24 81.34
1118 11.4000 6668.01 6843.22 81.66
1119 11.4084 6732.27 6901.80 82.05
1120 11.4168 6791.93 6956.34 82.41
1121 11.4252 6840.72 6997.69 82.71
1122 11.4336 6872.21 7016.55 82.90
1123 11.4420 6887.64 7008.56 82.99
1124 11.4504 6866.33 6977.43 82.86
1125 11.4588 6841.03 6932.30 82.71
1126 11.4672 6823.60 6882.68 82.61
1127 11.4756 6783.65 6835.66 82.36
1128 11.4840 6763.69 6795.62 82.24
1129 11.4924 6733.45 6767.70 82.06
1130 11.5008 6729.85 6746.89 82.04
1131 11.5092 6738.67 6735.67 82.09
1132 11.5176 6740.48 6733.10 82.10
1133 11.5260 6763.30 6738.05 82.24
1134 11.5344 6795.79 6749.47 82.44
1135 11.5428 6820.29 6766.59 82.59
1136 11.5512 6871.37 6788.99 82.89
1137 11.5596 6926.08 6816.60 83.22
1138 11.5680 6973.34 6849.71 83.51
1139 11.5764 7054.67 6888.92 83.99
1140 11.5848 7129.34 6935.21 84.44
1141 11.5932 7247.67 6989.92 85.13
1142 11.6016 7365.61 7054.99 85.82
1143 11.6100 7514.29 7130.05 86.68
1144 11.6184 7699.89 7225.36 87.75
1145 11.6268 7919.36 7343.96 88.99
1146 11.6352 8187.76 7495.46 90.49
1147 11.6436 8525.07 7694.91 92.33
1148 11.6520 8964.15 7965.23 94.68
1149 11.6604 9465.90 8339.55 97.29
1150 11.6688 10180.70 8862.73 100.90
1151 11.6772 10900.30 9591.15 104.40
1152 11.6856 11974.90 10587.70 109.43
1153 11.6940 13174.40 11914.10 114.78
1154 11.7024 14639.30 13616.70 120.99
1155 11.7108 16368.00 15706.30 127.94
1156 11.7192 18183.40 18138.00 134.85
1157 11.7276 20087.40 20785.10 141.73
1158 11.7360 21877.50 23411.90 147.91
1159 11.7444 23348.00 25653.60 152.80
1160 11.7528 24275.70 27056.80 155.81
1161 11.7612 24478.30 27251.10 156.46
1162 11.7696 23900.80 26177.00 154.60
1163 11.7780 22547.20 24128.50 150.16
1164 11.7864 20915.50 21557.30 144.62
1165 11.7948 18864.30 18865.60 137.35
1166 11.8032 16815.90 16328.80 129.68
1167 11.8116 14963.70 14105.20 122.33
1168 11.8200 13258.90 12264.00 115.15
1169 11.8284 11898.20 10811.30 109.08
1170 11.8368 10771.80 9710.67 103.79
1171 11.8452 9934.17 8903.58 99.67
1172 11.8536 9246.92 8379.50 96.16
1173 11.8620 8724.15 7969.23 93.40
1174 11.8704 8258.57 7676.08 90.88
1175 11.8788 7957.65 7462.27 89.21
1176 11.8872 7679.25 7301.36 87.63
1177 11.8956 7476.23 7175.95 86.47
1178 11.9040 7310.44 7074.96 85.50
1179 11.9124 7170.75 6991.54 84.68
1180 11.9208 7070.82 6921.43 84.09
1181 11.9292 6967.60 6861.87 83.47
1182 11.9376 6896.89 6811.07 83.05
1183 11.9460 6844.18 6767.83 82.73
1184 11.9544 6800.05 6731.36 82.46
1185 11.9628 6764.53 6701.28 82.25
1186 11.9712 6728.05 6677.61 82.02
1187 11.9796 6710.33 6660.87 81.92
1188 11.9880 6699.70 6652.12 81.85
1189 11.9964 6708.88 6653.11 81.91
1190 12.0048 6703.14 6666.13 81.87
1191 12.0132 6723.64 6693.94 82.00
1192 12.0216 6752.64 6739.27 82.17
1193 12.0300 6797.30 6804.26 82.45
1194 12.0384 6867.02 6889.63 82.87
1195 12.0468 6914.03 6993.88 83.15
1196 12.0552 7010.50 7112.07 83.73
1197 12.0636 7100.10 7234.97 84.26
1198 12.0720 7197.03 7347.69 84.84
1199 12.0804 7267.89 7431.02 85.25
1200 12.0888 7335.65 7467.89 85.65
1201 12.0972 7349.24 7454.06 85.73
1202 12.1056 7359.03 7403.02 85.78
1203 12.1140 7348.58 7338.92 85.72
1204 12.1224 7323.97 7285.07 85.58
1205 12.1308 7312.20 7261.30 85.51
1206 12.1392 7336.69 7277.73 85.65
1207 12.1476 7382.96 7338.06 85.92
1208 12.1560 7458.12 7441.82 86.36
1209 12.1644 7576.46 7570.70 87.04
1210 12.1728 7682.07 7706.79 87.65
1211 12.1812 7795.08 7820.02 88.29
1212 12.1896 7818.54 7876.73 88.42
1213 12.1980 7793.98 7853.69 88.28
1214 12.2064 7702.10 7751.49 87.76
1215 12.2148 7542.38 7592.85 86.85
1216 12.2232 7383.63 7407.73 85.93
1217 12.2316 7214.37 7221.21 84.94
1218 12.2400 7053.64 7049.98 83.99
1219 12.2484 6928.87 6903.30 83.24
1220 12.2568 6826.92 6785.02 82.63
1221 12.2652 6753.95 6695.06 82.18
1222 12.2736 6694.36 6630.86 81.82
1223 12.2820 6648.86 6588.56 81.54
1224 12.2904 6632.37 6564.07 81.44
1225 12.2988 6618.51 6553.71 81.35
1226 12.3072 6603.47 6554.62 81.26
1227 12.3156 6612.58 6564.79 81.32
1228 12.3240 6622.44 6583.04 81.38
1229 12.3324 6632.53 6608.72 81.44
1230 12.3408 6646.74 6641.51 81.53
1231 12.3492 6682.00 6681.26 81.74
1232 12.3576 6719.49 6727.70 81.97
1233 12.3660 6765.01 6780.40 82.25
1234 12.3744 6805.24 6838.59 82.49
1235 12.3828 6859.00 6901.29 82.82
1236 12.3912 6914.81 6968.73 83.16
1237 12.3996 6991.45 7042.45 83.61
1238 12.4080 7070.05 7126.37 84.08
1239 12.4164 7188.01 7226.38 84.78
1240 12.4248 7326.93 7350.34 85.60
1241 12.4332 7494.40 7509.16 86.57
1242 12.4416 7714.11 7718.83 87.83
1243 12.4500 7994.29 8003.15 89.41
1244 12.4584 8386.45 8357.97 91.58
1245 12.4668 8840.80 8910.25 94.03
1246 12.4752 9539.28 9682.50 97.67
1247 12.4836 10408.10 10749.00 102.02
1248 12.4920 11585.30 12187.70 107.64
1249 12.5004 13262.30 14068.30 115.16
1250 12.5088 15085.70 16432.00 122.82
1251 12.5172 17752.60 19271.50 133.24
1252 12.5256 20791.00 22507.70 144.19
1253 12.5340 24443.10 25952.10 156.34
1254 12.5424 28083.60 29283.20 167.58
1255 12.5508 31451.00 32023.70 177.34
1256 12.5592 33511.50 33617.00 183.06
1257 12.5676 33989.30 33649.20 184.36
1258 12.5760 32668.30 32111.90 180.74
1259 12.5844 29884.50 29403.00 172.87
1260 12.5928 26303.50 26079.40 162.18
1261 12.6012 22555.80 22625.10 150.19
1262 12.6096 18865.50 19370.00 137.35
1263 12.6180 16086.10 16503.70 126.83
1264 12.6264 13595.20 14111.40 116.60
1265 12.6348 11770.10 12203.30 108.49
1266 12.6432 10364.70 10738.50 101.81
1267 12.6516 9344.97 9648.95 96.67
1268 12.6600 8609.19 8856.18 92.79
1269 12.6684 8069.54 8285.38 89.83
1270 12.6768 7676.93 7873.44 87.62
1271 12.6852 7395.47 7571.40 86.00
1272 12.6936 7174.44 7344.16 84.70
1273 12.7020 7001.20 7167.88 83.67
1274 12.7104 6876.73 7027.02 82.93
1275 12.7188 6757.13 6911.71 82.20
1276 12.7272 6694.37 6815.81 81.82
1277 12.7356 6620.93 6735.30 81.37
1278 12.7440 6565.36 6667.64 81.03
1279 12.7524 6517.93 6611.28 80.73
1280 12.7608 6478.18 6565.54 80.49
1281 12.7692 6466.08 6530.82 80.41
1282 12.7776 6439.97 6508.68 80.25
1283 12.7860 6437.60 6501.84 80.23
1284 12.7944 6454.97 6512.05 80.34
1285 12.8028 6478.31 6547.27 80.49
1286 12.8112 6536.95 6609.65 80.85
1287 12.8196 6597.89 6702.25 81.23
1288 12.8280 6691.17 6826.08 81.80
1289 12.8364 6825.62 6978.69 82.62
1290 12.8448 6964.41 7152.83 83.45
1291 12.8532 7135.25 7334.39 84.47
1292 12.8616 7283.98 7500.69 85.35
1293 12.8700 7387.66 7620.99 85.95
1294 12.8784 7434.86 7664.12 86.23
1295 12.8868 7361.90 7614.72 85.80
1296 12.8952 7253.49 7480.34 85.17
1297 12.9036 7097.53 7292.01 84.25
1298 12.9120 6920.94 7078.04 83.19
1299 12.9204 6762.58 6864.92 82.23
1300 12.9288 6617.95 6668.60 81.35
1301 12.9372 6487.12 6497.46 80.54
1302 12.9456 6384.32 6354.61 79.90
1303 12.9540 6293.28 6239.36 79.33
1304 12.9624 6220.76 6148.76 78.87
1305 12.9708 6154.75 6078.80 78.45
1306 12.9792 6103.82 6025.21 78.13
1307 12.9876 6061.89 5984.02 77.86
1308 12.9960 6025.82 5951.92 77.63
1309 13.0044 5990.24 5926.35 77.40
1310 13.0128 5970.45 5905.47 77.27
1311 13.0212 5947.71 5888.01 77.12
1312 13.0296 5950.92 5873.12 77.14
1313 13.0380 5935.34 5871.23 77.04
1314 13.0464 5921.07 5860.26 76.95
1315 13.0548 5919.84 5850.70 76.94
1316 13.0632 5909.59 5842.41 76.87
1317 13.0716 5926.95 5835.29 76.99
1318 13.0800 5920.10 5829.31 76.94
1319 13.0884 5933.06 5824.45 77.03
1320 13.0968 5939.50 5820.76 77.07
1321 13.1052 5968.82 5818.19 77.26
1322 13.1136 5980.30 5817.29 77.33
1323 13.1220 6013.81 5818.21 77.55
1324 13.1304 6039.35 5821.51 77.71
1325 13.1388 6080.02 5828.00 77.97
1326 13.1472 6130.33 5838.92 78.30
1327 13.1556 6180.44 5856.00 78.62
1328 13.1640 6264.09 5897.26 79.15
1329 13.1724 6343.32 5934.38 79.64
1330 13.1808 6469.51 5986.02 80.43
1331 13.1892 6610.03 6055.48 81.30
1332 13.1976 6790.54 6145.72 82.40
1333 13.2060 6994.51 6258.57 83.63
1334 13.2144 7240.77 6393.95 85.09
1335 13.2228 7534.12 6548.62 86.80
1336 13.2312 7812.95 6714.73 88.39
1337 13.2396 8068.58 6878.73 89.83
1338 13.2480 8240.51 7022.41 90.78
1339 13.2564 8287.19 7127.92 91.03
1340 13.2648 8195.02 7184.21 90.53
1341 13.2732 8002.30 7187.84 89.46
1342 13.2816 7710.81 7085.35 87.81
1343 13.2900 7426.95 6987.30 86.18
1344 13.2984 7106.65 6847.72 84.30
1345 13.3068 6829.64 6682.89 82.64
1346 13.3152 6596.53 6511.44 81.22
1347 13.3236 6395.60 6348.36 79.97
1348 13.3320 6242.31 6203.39 79.01
1349 13.3404 6125.95 6079.95 78.27
1350 13.3488 6013.47 5979.35 77.55
1351 13.3572 5951.98 5900.16 77.15
1352 13.3656 5899.93 5839.72 76.81
1353 13.3740 5865.15 5794.78 76.58
1354 13.3824 5836.36 5762.12 76.40
1355 13.3908 5821.80 5738.82 76.30
1356 13.3992 5820.80 5722.47 76.29
1357 13.4076 5818.70 5711.24 76.28
1358 13.4160 5824.85 5703.79 76.32
1359 13.4244 5827.97 5699.24 76.34
1360 13.4328 5835.35 5696.96 76.39
1361 13.4412 5861.70 5696.61 76.56
1362 13.4496 5848.08 5697.99 76.47
1363 13.4580 5831.26 5701.04 76.36
1364 13.4664 5828.72 5705.87 76.35
1365 13.4748 5812.16 5712.69 76.24
1366 13.4832 5817.33 5721.82 76.27
1367 13.4916 5811.07 5733.84 76.23
1368 13.5000 5799.49 5749.91 76.15
1369 13.5084 5819.02 5773.75 76.28
1370 13.5168 5824.51 5801.02 76.32
1371 13.5252 5856.47 5840.13 76.53
1372 13.5336 5896.11 5889.97 76.79
1373 13.5420 5933.25 5957.27 77.03
1374 13.5504 6017.35 6048.08 77.57
1375 13.5588 6093.20 6168.89 78.06
1376 13.5672 6187.38 6326.05 78.66
1377 13.5756 6315.25 6524.61 79.47
1378 13.5840 6445.16 6766.88 80.28
1379 13.5924 6627.87 7050.54 81.41
1380 13.6008 6802.59 7366.45 82.48
1381 13.6092 7006.31 7693.40 83.70
1382 13.6176 7171.10 8020.35 84.68
1383 13.6260 7317.97 8281.34 85.55
1384 13.6344 7427.83 8445.32 86.18
1385 13.6428 7492.64 8482.36 86.56
1386 13.6512 7494.95 8392.31 86.57
1387 13.6596 7477.32 8207.75 86.47
1388 13.6680 7422.06 7978.76 86.15
1389 13.6764 7386.18 7754.38 85.94
1390 13.6848 7387.14 7574.30 85.95
1391 13.6932 7442.88 7468.38 86.27
1392 13.7016 7576.90 7458.83 87.05
1393 13.7100 7823.42 7561.50 88.45
1394 13.7184 8184.64 7785.77 90.47
1395 13.7268 8682.54 8133.60 93.18
1396 13.7352 9320.39 8597.62 96.54
1397 13.7436 10120.50 9158.18 100.60
1398 13.7520 10982.70 9779.84 104.80
1399 13.7604 11904.70 10405.70 109.11
1400 13.7688 12641.70 10954.40 112.43
1401 13.7772 13121.60 11329.10 114.55
1402 13.7856 13211.10 11450.90 114.94
1403 13.7940 12862.90 11303.50 113.42
1404 13.8024 12257.30 10946.60 110.71
1405 13.8108 11546.80 10484.30 107.46
1406 13.8192 10763.80 10021.80 103.75
1407 13.8276 10168.30 9643.23 100.84
1408 13.8360 9696.09 9409.03 98.47
1409 13.8444 9438.41 9358.96 97.15
1410 13.8528 9423.64 9513.92 97.08
1411 13.8612 9622.66 9876.03 98.10
1412 13.8696 10102.50 10427.10 100.51
1413 13.8780 10761.60 11126.00 103.74
1414 13.8864 11615.80 11903.60 107.78
1415 13.8948 12527.20 12656.60 111.93
1416 13.9032 13402.90 13248.80 115.77
1417 13.9116 14020.70 13537.50 118.41
1418 13.9200 14194.20 13431.50 119.14
1419 13.9284 13791.70 12942.60 117.44
1420 13.9368 12962.60 12174.30 113.85
1421 13.9452 11824.50 11262.30 108.74
1422 13.9536 10578.70 10322.60 102.85
1423 13.9620 9505.29 9434.87 97.50
1424 13.9704 8510.68 8668.87 92.25
1425 13.9788 7779.01 8001.95 88.20
1426 13.9872 7191.58 7461.20 84.80
1427 13.9956 6757.51 7036.87 82.20
1428 14.0040 6439.42 6717.81 80.25
1429 14.0124 6191.39 6484.39 78.69
1430 14.0208 6037.19 6318.50 77.70
1431 14.0292 5909.50 6202.34 76.87
1432 14.0376 5809.14 6125.75 76.22
1433 14.0460 5741.22 6076.31 75.77
1434 14.0544 5686.54 6045.75 75.41
1435 14.0628 5637.23 6026.10 75.08
1436 14.0712 5604.84 6011.08 74.87
1437 14.0796 5581.85 5994.78 74.71
1438 14.0880 5571.19 5973.18 74.64
1439 14.0964 5554.95 5945.47 74.53
1440 14.1048 5549.83 5913.97 74.50
1441 14.1132 5554.80 5882.49 74.53
1442 14.1216 5567.32 5854.78 74.61
1443 14.1300 5590.99 5833.95 74.77
1444 14.1384 5610.32 5822.61 74.90
1445 14.1468 5649.18 5823.29 75.16
1446 14.1552 5707.18 5838.87 75.55
1447 14.1636 5764.96 5872.91 75.93
1448 14.1720 5843.32 5931.73 76.44
1449 14.1804 5951.14 6018.22 77.14
1450 14.1888 6057.74 6138.24 77.83
1451 14.1972 6217.79 6299.15 78.85
1452 14.2056 6413.92 6506.34 80.09
1453 14.2140 6633.64 6762.97 81.45
1454 14.2224 6898.96 7068.22 83.06
1455 14.2308 7199.90 7415.46 84.85
1456 14.2392 7525.09 7789.61 86.75
1457 14.2476 7853.62 8170.09 88.62
1458 14.2560 8132.35 8512.14 90.18
1459 14.2644 8368.33 8782.27 91.48
1460 14.2728 8524.83 8953.55 92.33
1461 14.2812 8648.26 9023.15 93.00
1462 14.2896 8687.44 9015.92 93.21
1463 14.2980 8758.75 8977.52 93.59
1464 14.3064 8835.67 8961.55 94.00
1465 14.3148 8961.33 9015.78 94.66
1466 14.3232 9213.53 9172.73 95.99
1467 14.3316 9548.35 9445.00 97.72
1468 14.3400 9996.15 9823.05 99.98
1469 14.3484 10525.30 10272.40 102.59
1470 14.3568 11007.90 10730.60 104.92
1471 14.3652 11411.20 11107.40 106.82
1472 14.3736 11606.00 11300.30 107.73
1473 14.3820 11540.00 11236.50 107.42
1474 14.3904 11293.20 10902.20 106.27
1475 14.3988 10761.60 10366.50 103.74
1476 14.4072 10152.20 9716.18 100.76
1477 14.4156 9488.76 9034.80 97.41
1478 14.4240 8802.77 8382.30 93.82
1479 14.4324 8219.01 7795.63 90.66
1480 14.4408 7660.40 7293.33 87.52
1481 14.4492 7199.14 6880.86 84.85
1482 14.4576 6841.56 6554.70 82.71
1483 14.4660 6521.70 6305.10 80.76
1484 14.4744 6293.38 6119.63 79.33
1485 14.4828 6106.37 5984.13 78.14
1486 14.4912 5956.34 5886.04 77.18
1487 14.4996 5842.03 5814.50 76.43
1488 14.5080 5749.83 5761.21 75.83
1489 14.5164 5686.86 5720.70 75.41
1490 14.5248 5642.60 5689.93 75.12
1491 14.5332 5600.81 5667.37 74.84
1492 14.5416 5594.57 5641.74 74.80
1493 14.5500 5578.26 5640.55 74.69
1494 14.5584 5585.80 5640.73 74.74
1495 14.5668 5603.69 5648.69 74.86
1496 14.5752 5616.43 5665.05 74.94
1497 14.5836 5663.41 5690.90 75.26
1498 14.5920 5706.30 5728.03 75.54
1499 14.6004 5773.31 5779.31 75.98
1500 14.6088 5860.06 5849.28 76.55
1501 14.6172 5956.96 5944.81 77.18
1502 14.6256 6103.08 6075.83 78.12
1503 14.6340 6267.81 6256.03 79.17
1504 14.6424 6497.99 6504.26 80.61
1505 14.6508 6788.33 6839.86 82.39
1506 14.6592 7163.00 7287.38 84.63
1507 14.6676 7661.49 7870.04 87.53
1508 14.6760 8304.92 8591.38 91.13
1509 14.6844 9152.29 9491.40 95.67
1510 14.6928 10162.80 10547.90 100.81
1511 14.7012 11450.20 11732.40 107.01
1512 14.7096 12931.50 12985.40 113.72
1513 14.7180 14546.00 14204.70 120.61
1514 14.7264 16077.40 15242.50 126.80
1515 14.7348 17281.60 15921.40 131.46
1516 14.7432 17845.60 16094.80 133.59
1517 14.7516 17621.80 15722.40 132.75
1518 14.7600 16662.00 14895.00 129.08
1519 14.7684 15204.90 13780.60 123.31
1520 14.7768 13539.70 12549.80 116.36
1521 14.7852 11863.30 11332.30 108.92
1522 14.7936 10411.80 10211.80 102.04
1523 14.8020 9233.15 9234.50 96.09
1524 14.8104 8259.01 8417.96 90.88
1525 14.8188 7564.95 7759.48 86.98
1526 14.8272 7039.15 7243.86 83.90
1527 14.8356 6649.96 6849.41 81.55
1528 14.8440 6401.99 6553.81 80.01
1529 14.8524 6193.09 6339.50 78.70
1530 14.8608 6066.38 6191.54 77.89
1531 14.8692 5969.46 6099.51 77.26
1532 14.8776 5962.03 6056.38 77.21
1533 14.8860 5920.87 6057.64 76.95
1534 14.8944 5929.08 6100.33 77.00
1535 14.9028 5990.47 6181.91 77.40
1536 14.9112 6075.02 6299.04 77.94
1537 14.9196 6178.95 6446.32 78.61
1538 14.9280 6314.34 6614.92 79.46
1539 14.9364 6456.84 6791.27 80.35
1540 14.9448 6612.03 6957.51 81.31
1541 14.9532 6770.22 7096.72 82.28
1542 14.9616 6912.79 7201.31 83.14
1543 14.9700 7058.30 7278.00 84.01
1544 14.9784 7208.79 7346.52 84.90
1545 14.9868 7349.63 7415.82 85.73
1546 14.9952 7484.51 7495.15 86.51
1547 15.0036 7582.80 7574.30 87.08
1548 15.0120 7682.93 7630.74 87.65
1549 15.0204 7668.70 7632.33 87.57
1550 15.0288 7605.24 7550.93 87.21
1551 15.0372 7461.29 7376.58 86.38
1552 15.0456 7233.22 7132.47 85.05
1553 15.0540 6989.37 6844.28 83.60
1554 15.0624 6699.34 6547.53 81.85
1555 15.0708 6415.55 6263.21 80.10
1556 15.0792 6198.65 6005.39 78.73
1557 15.0876 5933.15 5781.37 77.03
1558 15.0960 5764.70 5593.58 75.93
1559 15.1044 5592.59 5443.07 74.78
1560 15.1128 5473.38 5322.68 73.98
1561 15.1212 5367.17 5229.82 73.26
1562 15.1296 5272.53 5159.65 72.61
1563 15.1380 5213.59 5107.51 72.21
1564 15.1464 5161.15 5057.98 71.84
1565 15.1548 5104.65 5031.21 71.45
1566 15.1632 5082.58 5013.26 71.29
1567 15.1716 5043.24 5002.81 71.02
1568 15.1800 5044.27 4999.21 71.02
1569 15.1884 5029.88 5002.46 70.92
1570 15.1968 5026.60 5013.09 70.90
1571 15.2052 5043.93 5032.19 71.02
1572 15.2136 5059.37 5065.58 71.13
1573 15.2220 5092.73 5107.37 71.36
1574 15.2304 5145.52 5164.61 71.73
1575 15.2388 5195.55 5240.86 72.08
1576 15.2472 5280.12 5339.97 72.66
1577 15.2556 5368.29 5465.98 73.27
1578 15.2640 5498.33 5622.97 74.15
1579 15.2724 5642.32 5814.76 75.12
1580 15.2808 5826.38 6044.15 76.33
1581 15.2892 6051.54 6310.41 77.79
1582 15.2976 6309.66 6607.10 79.43
1583 15.3060 6604.11 6919.17 81.27
1584 15.3144 6898.07 7220.68 83.05
1585 15.3228 7126.78 7473.86 84.42
1586 15.3312 7295.22 7634.55 85.41
1587 15.3396 7323.75 7668.02 85.58
1588 15.3480 7218.10 7567.19 84.96
1589 15.3564 7010.92 7357.44 83.73
1590 15.3648 6743.44 7082.43 82.12
1591 15.3732 6501.73 6785.60 80.63
1592 15.3816 6253.07 6502.84 79.08
1593 15.3900 6078.82 6248.05 77.97
1594 15.3984 5964.51 6033.62 77.23
1595 15.4068 5876.35 5861.17 76.66
1596 15.4152 5864.88 5725.11 76.58
1597 15.4236 5819.83 5614.82 76.29
1598 15.4320 5783.25 5522.69 76.05
1599 15.4404 5727.94 5427.96 75.68
1600 15.4488 5622.25 5330.97 74.98
1601 15.4572 5528.87 5232.56 74.36
1602 15.4656 5392.45 5138.80 73.43
1603 15.4740 5275.58 5048.48 72.63
1604 15.4824 5152.93 4966.52 71.78
1605 15.4908 5039.24 4894.25 70.99
1606 15.4992 4938.66 4832.13 70.28
1607 15.5076 4856.27 4779.91 69.69
1608 15.5160 4778.33 4736.88 69.13
1609 15.5244 4724.41 4680.09 68.73
1610 15.5328 4671.55 4652.68 68.35
1611 15.5412 4645.68 4630.81 68.16
1612 15.5496 4618.89 4613.90 67.96
1613 15.5580 4577.40 4600.74 67.66
1614 15.5664 4572.80 4590.59 67.62
1615 15.5748 4539.12 4591.72 67.37
1616 15.5832 4545.84 4586.08 67.42
1617 15.5916 4529.55 4582.00 67.30
1618 15.6000 4517.84 4579.21 67.21
1619 15.6084 4524.19 4577.55 67.26
1620 15.6168 4519.87 4576.79 67.23
1621 15.6252 4533.13 4577.96 67.33
1622 15.6336 4530.18 4581.32 67.31
1623 15.6420 4540.58 4587.69 67.38
1624 15.6504 4570.95 4598.23 67.61
1625 15.6588 4574.24 4616.19 67.63
1626 15.6672 4614.73 4640.15 67.93
1627 15.6756 4634.81 4677.74 68.08
1628 15.6840 4680.17 4725.28 68.41
1629 15.6924 4720.79 4789.53 68.71
1630 15.7008 4783.89 4873.91 69.17
1631 15.7092 4859.17 4981.46 69.71
1632 15.7176 4945.28 5114.44 70.32
1633 15.7260 5051.09 5272.45 71.07
1634 15.7344 5186.57 5453.23 72.02
1635 15.7428 5327.93 5647.57 72.99
1636 15.7512 5467.86 5849.56 73.94
1637 15.7596 5606.60 6038.27 74.88
1638 15.7680 5695.34 6189.94 75.47
1639 15.7764 5788.83 6280.13 76.08
1640 15.7848 5800.48 6293.18 76.16
1641 15.7932 5776.25 6229.80 76.00
1642 15.8016 5714.57 6106.43 75.59
1643 15.8100 5613.65 5947.65 74.92
1644 15.8184 5539.43 5773.84 74.43
1645 15.8268 5442.98 5614.59 73.78
1646 15.8352 5394.62 5479.95 73.45
1647 15.8436 5367.03 5378.44 73.26
1648 15.8520 5371.24 5314.62 73.29
1649 15.8604 5422.16 5288.92 73.64
1650 15.8688 5497.13 5298.46 74.14
1651 15.8772 5601.32 5337.24 74.84
1652 15.8856 5724.82 5396.22 75.66
1653 15.8940 5829.85 5463.25 76.35
1654 15.9024 5937.87 5523.74 77.06
1655 15.9108 5983.86 5567.77 77.36
1656 15.9192 6001.59 5580.34 77.47
1657 15.9276 5969.02 5568.18 77.26
1658 15.9360 5904.88 5543.77 76.84
1659 15.9444 5840.21 5525.34 76.42
1660 15.9528 5765.82 5524.30 75.93
1661 15.9612 5728.51 5553.45 75.69
1662 15.9696 5716.09 5619.07 75.60
1663 15.9780 5720.72 5722.53 75.64
1664 15.9864 5789.61 5859.95 76.09
1665 15.9948 5855.80 6021.41 76.52
1666 16.0032 5939.43 6189.65 77.07
1667 16.0116 6039.15 6339.84 77.71
1668 16.0200 6087.40 6442.37 78.02
1669 16.0284 6145.20 6471.36 78.39
1670 16.0368 6128.70 6416.53 78.29
1671 16.0452 6068.76 6290.97 77.90
1672 16.0536 5986.82 6114.31 77.37
1673 16.0620 5854.46 5916.94 76.51
1674 16.0704 5730.94 5722.64 75.70
1675 16.0788 5594.26 5547.83 74.79
1676 16.0872 5500.21 5403.81 74.16
1677 16.0956 5416.19 5297.82 73.59
1678 16.1040 5365.87 5234.59 73.25
1679 16.1124 5370.03 5217.27 73.28
1680 16.1208 5398.30 5247.98 73.47
1681 16.1292 5479.46 5328.34 74.02
1682 16.1376 5597.96 5453.49 74.82
1683 16.1460 5762.83 5636.17 75.91
1684 16.1544 5973.00 5869.61 77.29
1685 16.1628 6235.21 6150.73 78.96
1686 16.1712 6504.12 6472.47 80.65
1687 16.1796 6829.59 6821.78 82.64
1688 16.1880 7108.78 7178.48 84.31
1689 16.1964 7402.03 7518.80 86.04
1690 16.2048 7681.25 7822.74 87.64
1691 16.2132 7886.80 8081.06 88.81
1692 16.2216 8121.30 8294.08 90.12
1693 16.2300 8273.30 8461.36 90.96
1694 16.2384 8423.23 8571.92 91.78
1695 16.2468 8488.94 8611.08 92.14
1696 16.2552 8442.04 8566.14 91.88
1697 16.2636 8393.54 8441.29 91.62
1698 16.2720 8235.65 8254.89 90.75
1699 16.2804 8057.97 8029.41 89.77
1700 16.2888 7840.06 7786.03 88.54
1701 16.2972 7609.76 7547.05 87.23
1702 16.3056 7427.68 7338.29 86.18
1703 16.3140 7261.74 7186.48 85.22
1704 16.3224 7165.55 7113.87 84.65
1705 16.3308 7131.80 7134.21 84.45
1706 16.3392 7160.37 7251.68 84.62
1707 16.3476 7259.95 7460.44 85.21
1708 16.3560 7381.97 7744.17 85.92
1709 16.3644 7559.05 8074.38 86.94
1710 16.3728 7705.52 8408.22 87.78
1711 16.3812 7818.09 8690.29 88.42
1712 16.3896 7929.45 8862.77 89.05
1713 16.3980 7933.31 8886.66 89.07
1714 16.4064 7920.82 8761.46 89.00
1715 16.4148 7855.98 8530.23 88.63
1716 16.4232 7746.24 8239.98 88.01
1717 16.4316 7677.58 7948.88 87.62
1718 16.4400 7589.32 7694.88 87.12
1719 16.4484 7565.46 7498.59 86.98
1720 16.4568 7568.43 7364.69 87.00
1721 16.4652 7558.92 7283.76 86.94
1722 16.4736 7579.55 7235.24 87.06
1723 16.4820 7526.05 7192.35 86.75
1724 16.4904 7437.23 7126.74 86.24
1725 16.4988 7268.66 7016.20 85.26
1726 16.5072 7001.13 6849.36 83.67
1727 16.5156 6725.60 6629.58 82.01
1728 16.5240 6395.43 6372.80 79.97
1729 16.5324 6091.79 6100.00 78.05
1730 16.5408 5810.56 5829.59 76.23
1731 16.5492 5548.31 5574.93 74.49
1732 16.5576 5340.88 5344.64 73.08
1733 16.5660 5159.96 5146.14 71.83
1734 16.5744 5030.01 4977.19 70.92
1735 16.5828 4914.60 4840.38 70.10
1736 16.5912 4834.55 4731.08 69.53
1737 16.5996 4782.91 4653.26 69.16
1738 16.6080 4735.16 4600.32 68.81
1739 16.6164 4724.63 4571.25 68.74
1740 16.6248 4726.22 4563.50 68.75
1741 16.6332 4727.90 4576.02 68.76
1742 16.6416 4764.64 4609.14 69.03
1743 16.6500 4791.08 4661.92 69.22
1744 16.6584 4857.69 4735.97 69.70
1745 16.6668 4928.95 4832.94 70.21
1746 16.6752 4999.85 4958.03 70.71
1747 16.6836 5126.66 5108.33 71.60
1748 16.6920 5251.52 5287.67 72.47
1749 16.7004 5408.64 5494.24 73.54
1750 16.7088 5586.28 5721.57 74.74
1751 16.7172 5763.50 5956.67 75.92
1752 16.7256 5958.53 6177.60 77.19
1753 16.7340 6102.75 6362.86 78.12
1754 16.7424 6251.84 6485.72 79.07
1755 16.7508 6330.85 6531.22 79.57
1756 16.7592 6331.08 6498.40 79.57
1757 16.7676 6309.09 6397.68 79.43
1758 16.7760 6197.36 6245.12 78.72
1759 16.7844 6071.70 6059.77 77.92
1760 16.7928 5898.85 5862.77 76.80
1761 16.8012 5723.37 5675.00 75.65
1762 16.8096 5582.03 5513.43 74.71
1763 16.8180 5464.68 5391.31 73.92
1764 16.8264 5412.69 5309.27 73.57
1765 16.8348 5383.67 5268.77 73.37
1766 16.8432 5418.09 5259.90 73.61
1767 16.8516 5498.58 5280.27 74.15
1768 16.8600 5590.62 5310.09 74.77
1769 16.8684 5698.11 5330.10 75.49
1770 16.8768 5765.02 5321.24 75.93
1771 16.8852 5770.29 5271.03 75.96
1772 16.8936 5705.01 5178.52 75.53
1773 16.9020 5553.16 5053.39 74.52
1774 16.9104 5353.73 4910.06 73.17
1775 16.9188 5129.80 4762.04 71.62
1776 16.9272 4907.71 4619.34 70.06
1777 16.9356 4721.46 4488.42 68.71
1778 16.9440 4565.51 4372.72 67.57
1779 16.9524 4440.53 4273.60 66.64
1780 16.9608 4340.40 4190.95 65.88
1781 16.9692 4260.29 4123.57 65.27
1782 16.9776 4207.62 4069.66 64.87
1783 16.9860 4146.28 4027.15 64.39
1784 16.9944 4125.16 3993.94 64.23
1785 17.0028 4091.23 3968.09 63.96
1786 17.0112 4073.98 3948.00 63.83
1787 17.0196 4060.16 3932.34 63.72
1788 17.0280 4047.11 3916.44 63.62
1789 17.0364 4035.86 3907.05 63.53
1790 17.0448 4026.78 3899.93 63.46
1791 17.0532 4017.72 3894.74 63.39
1792 17.0616 4026.30 3891.32 63.45
1793 17.0700 4013.59 3889.58 63.35
1794 17.0784 4023.17 3884.49 63.43
1795 17.0868 4016.43 3886.31 63.38
1796 17.0952 4020.80 3890.43 63.41
1797 17.1036 4032.12 3896.85 63.50
1798 17.1120 4035.58 3903.23 63.53
1799 17.1204 4056.73 3915.61 63.69
1800 17.1288 4065.81 3932.55 63.76
1801 17.1372 4089.23 3955.57 63.95
1802 17.1456 4112.03 3986.66 64.13
1803 17.1540 4136.03 4028.40 64.31
1804 17.1624 4187.00 4083.96 64.71
1805 17.1708 4229.84 4156.90 65.04
1806 17.1792 4294.85 4251.00 65.54
1807 17.1876 4372.46 4369.85 66.12
1808 17.1960 4469.07 4517.10 66.85
1809 17.2044 4599.35 4692.32 67.82
1810 17.2128 4763.06 4895.60 69.01
1811 17.2212 4957.30 5116.32 70.41
1812 17.2296 5198.16 5359.35 72.10
1813 17.2380 5448.95 5603.85 73.82
1814 17.2464 5739.00 5827.87 75.76
1815 17.2548 5971.30 6004.14 77.27
1816 17.2632 6139.43 6105.18 78.35
1817 17.2716 6222.29 6114.13 78.88
1818 17.2800 6135.86 6033.58 78.33
1819 17.2884 5975.07 5884.23 77.30
1820 17.2968 5717.39 5694.94 75.61
1821 17.3052 5446.78 5492.71 73.80
1822 17.3136 5183.55 5296.04 72.00
1823 17.3220 4957.33 5121.48 70.41
1824 17.3304 4778.48 4975.55 69.13
1825 17.3388 4644.83 4859.82 68.15
1826 17.3472 4560.87 4786.51 67.53
1827 17.3556 4518.31 4747.67 67.22
1828 17.3640 4505.62 4744.57 67.12
1829 17.3724 4529.57 4773.56 67.30
1830 17.3808 4556.14 4828.34 67.50
1831 17.3892 4607.83 4900.92 67.88
1832 17.3976 4653.63 4979.76 68.22
1833 17.4060 4696.97 5051.30 68.53
1834 17.4144 4713.04 5102.24 68.65
1835 17.4228 4715.84 5124.29 68.67
1836 17.4312 4720.55 5118.27 68.71
1837 17.4396 4703.01 5093.92 68.58
1838 17.4480 4686.44 5065.38 68.46
1839 17.4564 4692.83 5045.87 68.50
1840 17.4648 4707.48 5044.62 68.61
1841 17.4732 4753.19 5065.94 68.94
1842 17.4816 4796.76 5109.98 69.26
1843 17.4900 4870.07 5170.07 69.79
1844 17.4984 4947.61 5238.06 70.34
1845 17.5068 5020.96 5303.18 70.86
1846 17.5152 5106.88 5352.03 71.46
1847 17.5236 5140.79 5370.97 71.70
1848 17.5320 5152.65 5348.30 71.78
1849 17.5404 5127.00 5280.32 71.60
1850 17.5488 5026.54 5173.47 70.90
1851 17.5572 4928.04 5041.94 70.20
1852 17.5656 4795.32 4902.27 69.25
1853 17.5740 4660.55 4768.83 68.27
1854 17.5824 4558.71 4648.27 67.52
1855 17.5908 4457.10 4554.95 66.76
1856 17.5992 4401.09 4488.88 66.34
1857 17.6076 4358.34 4451.59 66.02
1858 17.6160 4352.17 4441.00 65.97
1859 17.6244 4376.21 4458.72 66.15
1860 17.6328 4413.32 4499.18 66.43
1861 17.6412 4492.96 4556.64 67.03
1862 17.6496 4548.65 4622.55 67.44
1863 17.6580 4630.01 4685.80 68.04
1864 17.6664 4678.51 4732.99 68.40
1865 17.6748 4680.69 4751.07 68.42
1866 17.6832 4684.30 4732.09 68.44
1867 17.6916 4623.34 4675.63 68.00
1868 17.7000 4548.88 4589.88 67.45
1869 17.7084 4461.42 4486.47 66.79
1870 17.7168 4360.18 4376.52 66.03
1871 17.7252 4271.69 4265.96 65.36
1872 17.7336 4173.99 4165.62 64.61
1873 17.7420 4102.76 4076.09 64.05
1874 17.7504 4042.13 3998.92 63.58
1875 17.7588 3983.62 3934.35 63.12
1876 17.7672 3954.36 3883.16 62.88
1877 17.7756 3904.56 3841.39 62.49
1878 17.7840 3883.08 3808.93 62.31
1879 17.7924 3865.42 3785.38 62.17
1880 17.8008 3847.86 3767.30 62.03
1881 17.8092 3846.12 3754.02 62.02
1882 17.8176 3827.10 3744.81 61.86
1883 17.8260 3830.11 3739.09 61.89
1884 17.8344 3822.67 3736.22 61.83
1885 17.8428 3827.24 3736.12 61.86
1886 17.8512 3834.70 3738.80 61.92
1887 17.8596 3833.83 3747.14 61.92
1888 17.8680 3855.36 3756.15 62.09
1889 17.8764 3859.82 3768.87 62.13
1890 17.8848 3878.55 3785.72 62.28
1891 17.8932 3905.44 3807.09 62.49
1892 17.9016 3914.91 3835.56 62.57
1893 17.9100 3958.40 3866.54 62.92
1894 17.9184 3982.52 3902.04 63.11
1895 17.9268 4017.42 3941.36 63.38
1896 17.9352 4060.38 3983.18 63.72
1897 17.9436 4088.97 4025.55 63.94
1898 17.9520 4137.27 4065.98 64.32
1899 17.9604 4170.86 4102.06 64.58
1900 17.9688 4214.30 4132.58 64.92
1901 17.9772 4245.79 4158.27 65.16
1902 17.9856 4271.01 4182.46 65.35
1903 17.9940 4328.66 4210.15 65.79
1904 18.0024 4356.57 4246.78 66.00
1905 18.0108 4417.67 4297.12 66.47
1906 18.0192 4475.05 4365.84 66.90
1907 18.0276 4539.18 4452.14 67.37
1908 18.0360 4638.65 4556.36 68.11
1909 18.0444 4714.08 4675.58 68.66
1910 18.0528 4809.71 4803.82 69.35
1911 18.0612 4890.18 4932.20 69.93
1912 18.0696 4955.37 5050.90 70.39
1913 18.0780 5020.97 5145.71 70.86
1914 18.0864 5024.23 5207.27 70.88
1915 18.0948 5038.13 5228.01 70.98
1916 18.1032 5009.07 5206.10 70.77
1917 18.1116 4966.31 5147.30 70.47
1918 18.1200 4913.03 5059.23 70.09
1919 18.1284 4845.22 4967.27 69.61
1920 18.1368 4798.83 4881.05 69.27
1921 18.1452 4756.08 4812.06 68.96
1922 18.1536 4743.52 4767.89 68.87
1923 18.1620 4756.73 4752.39 68.97
1924 18.1704 4785.99 4766.04 69.18
1925 18.1788 4857.46 4805.94 69.70
1926 18.1872 4942.51 4865.49 70.30
1927 18.1956 5047.35 4935.18 71.04
1928 18.2040 5166.34 5000.85 71.88
1929 18.2124 5243.45 5047.48 72.41
1930 18.2208 5324.79 5058.34 72.97
1931 18.2292 5323.83 5026.81 72.96
1932 18.2376 5299.59 4955.28 72.80
1933 18.2460 5213.51 4854.29 72.20
1934 18.2544 5082.15 4737.72 71.29
1935 18.2628 4952.00 4618.31 70.37
1936 18.2712 4796.04 4505.72 69.25
1937 18.2796 4665.11 4404.26 68.30
1938 18.2880 4545.22 4322.48 67.42
1939 18.2964 4436.87 4272.66 66.61
1940 18.3048 4369.32 4229.56 66.10
1941 18.3132 4297.53 4204.59 65.56
1942 18.3216 4269.30 4195.38 65.34
1943 18.3300 4233.56 4198.46 65.07
1944 18.3384 4223.87 4209.24 64.99
1945 18.3468 4212.43 4222.25 64.90
1946 18.3552 4193.36 4231.76 64.76
1947 18.3636 4199.04 4232.46 64.80
1948 18.3720 4177.15 4223.40 64.63
1949 18.3804 4175.20 4204.49 64.62
1950 18.3888 4166.44 4178.17 64.55
1951 18.3972 4141.29 4144.54 64.35
1952 18.4056 4135.92 4111.37 64.31
1953 18.4140 4108.72 4077.79 64.10
1954 18.4224 4085.63 4045.35 63.92
1955 18.4308 4060.66 4015.49 63.72
1956 18.4392 4023.47 3989.46 63.43
1957 18.4476 4025.28 3968.15 63.45
1958 18.4560 3982.97 3952.19 63.11
1959 18.4644 3986.50 3941.92 63.14
1960 18.4728 3972.80 3937.36 63.03
1961 18.4812 3959.26 3938.52 62.92
1962 18.4896 3978.86 3945.10 63.08
1963 18.4980 3973.83 3959.18 63.04
1964 18.5064 4000.01 3975.49 63.25
1965 18.5148 4009.89 3995.92 63.32
1966 18.5232 4035.62 4020.18 63.53
1967 18.5316 4074.51 4047.80 63.83
1968 18.5400 4089.25 4079.03 63.95
1969 18.5484 4152.82 4112.07 64.44
1970 18.5568 4183.06 4151.89 64.68
1971 18.5652 4243.47 4196.64 65.14
1972 18.5736 4314.99 4247.70 65.69
1973 18.5820 4372.47 4306.45 66.12
1974 18.5904 4468.04 4375.40 66.84
1975 18.5988 4553.06 4456.79 67.48
1976 18.6072 4676.12 4552.21 68.38
1977 18.6156 4790.36 4661.88 69.21
1978 18.6240 4907.07 4784.10 70.05
1979 18.6324 5045.92 4915.02 71.03
1980 18.6408 5143.80 5048.68 71.72
1981 18.6492 5275.28 5178.03 72.63
1982 18.6576 5358.41 5296.81 73.20
1983 18.6660 5455.52 5401.60 73.86
1984 18.6744 5550.20 5491.87 74.50
1985 18.6828 5622.24 5569.09 74.98
1986 18.6912 5727.46 5636.48 75.68
1987 18.6996 5804.53 5699.23 76.19
1988 18.7080 5920.27 5763.91 76.94
1989 18.7164 6028.90 5836.27 77.65
1990 18.7248 6112.34 5918.44 78.18
1991 18.7332 6230.60 6006.88 78.93
1992 18.7416 6273.75 6092.28 79.21
1993 18.7500 6329.35 6161.89 79.56
1994 18.7584 6321.57 6203.72 79.51
1995 18.7668 6266.74 6210.55 79.16
1996 18.7752 6225.11 6181.40 78.90
1997 18.7836 6089.21 6114.84 78.03
1998 18.7920 5985.34 6013.49 77.36
1999 18.8004 5826.04 5881.21 76.33
2000 18.8088 5676.15 5726.44 75.34
2001 18.8172 5544.27 5564.53 74.46
2002 18.8256 5388.06 5403.80 73.40
2003 18.8340 5278.09 5258.57 72.65
2004 18.8424 5161.18 5137.68 71.84
2005 18.8508 5071.78 5045.16 71.22
2006 18.8592 5031.10 4983.55 70.93
2007 18.8676 4960.08 4951.96 70.43
2008 18.8760 4957.85 4948.02 70.41
2009 18.8844 4946.78 4967.51 70.33
2010 18.8928 4974.02 5004.24 70.53
2011 18.9012 4999.92 5050.08 70.71
2012 18.9096 5008.66 5095.89 70.77
2013 18.9180 5047.35 5133.44 71.04
2014 18.9264 5054.80 5157.74 71.10
2015 18.9348 5063.25 5170.10 71.16
2016 18.9432 5055.21 5167.48 71.10
2017 18.9516 5026.93 5152.94 70.90
2018 18.9600 5005.76 5128.37 70.75
2019 18.9684 4950.48 5091.57 70.36
2020 18.9768 4917.73 5039.66 70.13
2021 18.9852 4846.57 4979.04 69.62
2022 18.9936 4812.50 4912.40 69.37
2023 19.0020 4744.59 4847.85 68.88
2024 19.0104 4690.64 4789.83 68.49
2025 19.0188 4658.05 4745.24 68.25
2026 19.0272 4641.06 4716.75 68.13
2027 19.0356 4639.70 4707.79 68.12
2028 19.0440 4668.09 4720.55 68.32
2029 19.0524 4706.18 4756.93 68.60
2030 19.0608 4783.41 4818.82 69.16
2031 19.0692 4870.83 4908.42 69.79
2032 19.0776 4996.65 5029.25 70.69
2033 19.0860 5148.09 5180.55 71.75
2034 19.0944 5326.59 5365.94 72.98
2035 19.1028 5562.03 5586.98 74.58
2036 19.1112 5812.82 5842.61 76.24
2037 19.1196 6154.52 6140.57 78.45
2038 19.1280 6545.26 6481.72 80.90
2039 19.1364 7040.92 6870.06 83.91
2040 19.1448 7645.82 7307.18 87.44
2041 19.1532 8298.51 7788.20 91.10
2042 19.1616 9076.08 8298.68 95.27
2043 19.1700 9850.83 8814.70 99.25
2044 19.1784 10625.90 9286.13 103.08
2045 19.1868 11200.70 9660.27 105.83
2046 19.1952 11476.70 9877.71 107.13
2047 19.2036 11531.30 9895.87 107.38
2048 19.2120 11169.10 9704.98 105.68
2049 19.2204 10637.00 9336.51 103.14
2050 19.2288 9887.85 8846.11 99.44
2051 19.2372 9067.96 8293.31 95.23
2052 19.2456 8280.65 7727.90 91.00
2053 19.2540 7521.91 7184.66 86.73
2054 19.2624 6875.85 6688.29 82.92
2055 19.2708 6342.24 6250.95 79.64
2056 19.2792 5887.92 5878.52 76.73
2057 19.2876 5565.66 5572.06 74.60
2058 19.2960 5289.63 5328.67 72.73
2059 19.3044 5105.62 5144.70 71.45
2060 19.3128 4966.48 5012.54 70.47
2061 19.3212 4879.52 4926.77 69.85
2062 19.3296 4826.51 4881.40 69.47
2063 19.3380 4799.65 4871.03 69.28
2064 19.3464 4829.96 4890.62 69.50
2065 19.3548 4846.22 4935.39 69.61
2066 19.3632 4908.00 5000.77 70.06
2067 19.3716 4966.01 5080.01 70.47
2068 19.3800 5023.36 5166.20 70.88
2069 19.3884 5093.46 5249.74 71.37
2070 19.3968 5108.10 5319.09 71.47
2071 19.4052 5120.16 5362.39 71.56
2072 19.4136 5078.59 5370.88 71.26
2073 19.4220 5030.88 5342.13 70.93
2074 19.4304 4938.87 5281.07 70.28
2075 19.4388 4836.73 5196.89 69.55
2076 19.4472 4735.70 5099.84 68.82
2077 19.4556 4624.34 4998.51 68.00
2078 19.4640 4530.26 4900.87 67.31
2079 19.4724 4442.11 4806.73 66.65
2080 19.4808 4360.59 4719.81 66.03
2081 19.4892 4299.86 4640.89 65.57
2082 19.4976 4241.17 4570.34 65.12
2083 19.5060 4196.76 4508.40 64.78
2084 19.5144 4151.22 4458.52 64.43
2085 19.5228 4119.26 4414.14 64.18
2086 19.5312 4106.52 4378.17 64.08
2087 19.5396 4074.97 4350.04 63.84
2088 19.5480 4074.87 4329.02 63.83
2089 19.5564 4058.03 4313.01 63.70
2090 19.5648 4060.11 4304.18 63.72
2091 19.5732 4069.44 4300.88 63.79
2092 19.5816 4074.88 4304.12 63.83
2093 19.5900 4097.62 4311.42 64.01
2094 19.5984 4107.62 4327.60 64.09
2095 19.6068 4147.16 4351.98 64.40
2096 19.6152 4181.59 4386.44 64.67
2097 19.6236 4224.24 4431.91 64.99
2098 19.6320 4295.11 4490.13 65.54
2099 19.6404 4363.31 4562.47 66.06
2100 19.6488 4454.72 4649.91 66.74
2101 19.6572 4564.84 4750.09 67.56
2102 19.6656 4695.65 4867.61 68.52
2103 19.6740 4851.77 4997.69 69.65
2104 19.6824 4994.88 5135.85 70.67
2105 19.6908 5171.24 5276.36 71.91
2106 19.6992 5349.90 5409.98 73.14
2107 19.7076 5525.60 5534.17 74.33
2108 19.7160 5705.57 5639.97 75.54
2109 19.7244 5863.93 5720.74 76.58
2110 19.7328 5995.23 5769.35 77.43
2111 19.7412 6046.75 5779.90 77.76
2112 19.7496 6042.22 5750.87 77.73
2113 19.7580 5953.92 5687.78 77.16
2114 19.7664 5818.58 5604.99 76.28
2115 19.7748 5682.15 5511.81 75.38
2116 19.7832 5496.03 5424.30 74.14
2117 19.7916 5369.04 5352.64 73.27
2118 19.8000 5259.83 5303.77 72.52
2119 19.8084 5204.96 5281.34 72.15
2120 19.8168 5172.04 5286.19 71.92
2121 19.8252 5169.87 5315.23 71.90
2122 19.8336 5204.47 5366.38 72.14
2123 19.8420 5228.14 5431.42 72.31
2124 19.8504 5274.80 5500.23 72.63
2125 19.8588 5297.42 5561.68 72.78
2126 19.8672 5335.63 5607.38 73.05
2127 19.8756 5368.43 5630.27 73.27
2128 19.8840 5379.67 5632.13 73.35
2129 19.8924 5412.94 5622.23 73.57
2130 19.9008 5416.54 5608.29 73.60
2131 19.9092 5444.81 5594.50 73.79
2132 19.9176 5456.70 5585.28 73.87
2133 19.9260 5482.00 5578.21 74.04
2134 19.9344 5497.05 5571.83 74.14
2135 19.9428 5485.90 5562.65 74.07
2136 19.9512 5485.34 5552.00 74.06
2137 19.9596 5470.36 5539.85 73.96
2138 19.9680 5468.99 5531.43 73.95
2139 19.9764 5474.99 5530.46 73.99
2140 19.9848 5504.69 5538.59 74.19
2141 19.9932 5568.35 5554.66 74.62
2142 20.0016 5631.05 5575.15 75.04
2143 20.0100 5707.77 5595.85 75.55
2144 20.0184 5761.97 5614.45 75.91
2145 20.0268 5810.08 5631.27 76.22
2146 20.0352 5840.76 5653.52 76.42
2147 20.0436 5862.54 5686.50 76.57
2148 20.0520 5913.21 5735.32 76.90
2149 20.0604 5962.35 5805.48 77.22
2150 20.0688 6050.44 5887.61 77.78
2151 20.0772 6141.61 5978.13 78.37
2152 20.0856 6224.46 6065.55 78.90
2153 20.0940 6289.45 6134.09 79.31
2154 20.1024 6292.19 6168.62 79.32
2155 20.1108 6281.19 6158.36 79.25
2156 20.1192 6189.09 6088.43 78.67
2157 20.1276 6074.41 5989.65 77.94
2158 20.1360 5936.85 5859.97 77.05
2159 20.1444 5739.90 5711.45 75.76
2160 20.1528 5577.64 5560.27 74.68
2161 20.1612 5402.61 5407.88 73.50
2162 20.1696 5254.85 5267.04 72.49
2163 20.1780 5128.42 5143.73 71.61
2164 20.1864 5033.10 5041.52 70.94
2165 20.1948 4967.80 4961.75 70.48
2166 20.2032 4907.88 4903.91 70.06
2167 20.2116 4881.32 4865.97 69.87
2168 20.2200 4856.03 4844.50 69.69
2169 20.2284 4837.62 4834.94 69.55
2170 20.2368 4834.15 4832.13 69.53
2171 20.2452 4814.38 4830.97 69.39
2172 20.2536 4803.29 4827.88 69.31
2173 20.2620 4770.98 4821.48 69.07
2174 20.2704 4761.46 4812.57 69.00
2175 20.2788 4739.22 4803.12 68.84
2176 20.2872 4720.79 4795.15 68.71
2177 20.2956 4725.59 4790.54 68.74
2178 20.3040 4706.31 4789.84 68.60
2179 20.3124 4728.42 4795.00 68.76
2180 20.3208 4738.83 4808.52 68.84
2181 20.3292 4782.16 4833.72 69.15
2182 20.3376 4839.61 4871.90 69.57
2183 20.3460 4904.21 4931.07 70.03
2184 20.3544 5008.89 5011.18 70.77
2185 20.3628 5119.78 5113.20 71.55
2186 20.3712 5281.65 5236.89 72.68
2187 20.3796 5446.38 5379.58 73.80
2188 20.3880 5650.12 5536.26 75.17
2189 20.3964 5850.96 5698.95 76.49
2190 20.4048 6031.53 5858.24 77.66
2191 20.4132 6198.37 6004.30 78.73
2192 20.4216 6300.41 6129.65 79.38
2193 20.4300 6362.42 6230.97 79.76
2194 20.4384 6380.40 6306.41 79.88
2195 20.4468 6344.51 6353.47 79.65
2196 20.4552 6299.92 6367.39 79.37
2197 20.4636 6219.96 6343.15 78.87
2198 20.4720 6153.78 6279.40 78.45
2199 20.4804 6084.13 6181.55 78.00
2200 20.4888 5994.94 6060.38 77.43
2201 20.4972 5935.74 5928.67 77.04
2202 20.5056 5845.54 5797.24 76.46
2203 20.5140 5765.40 5672.47 75.93
2204 20.5224 5671.73 5556.32 75.31
2205 20.5308 5586.43 5448.06 74.74
2206 20.5392 5482.85 5345.67 74.05
2207 20.5476 5366.66 5247.51 73.26
2208 20.5560 5263.64 5153.21 72.55
2209 20.5644 5138.94 5064.27 71.69
2210 20.5728 5039.32 4979.93 70.99
2211 20.5812 4935.58 4902.79 70.25
2212 20.5896 4854.34 4835.07 69.67
2213 20.5980 4792.10 4778.19 69.22
2214 20.6064 4740.41 4734.19 68.85
2215 20.6148 4712.21 4705.32 68.65
2216 20.6232 4701.38 4690.52 68.57
2217 20.6316 4708.66 4690.83 68.62
2218 20.6400 4742.02 4708.20 68.86
2219 20.6484 4782.52 4742.60 69.16
2220 20.6568 4866.00 4794.42 69.76
2221 20.6652 4957.32 4866.56 70.41
2222 20.6736 5092.89 4948.57 71.36
2223 20.6820 5228.95 5046.39 72.31
2224 20.6904 5377.01 5152.58 73.33
2225 20.6988 5522.81 5260.40 74.32
2226 20.7072 5659.06 5360.66 75.23
2227 20.7156 5754.09 5442.79 75.86
2228 20.7240 5803.55 5497.43 76.18
2229 20.7324 5804.36 5519.81 76.19
2230 20.7408 5754.62 5512.07 75.86
2231 20.7492 5697.86 5482.68 75.48
2232 20.7576 5625.09 5443.36 75.00
2233 20.7660 5571.89 5405.68 74.65
2234 20.7744 5546.77 5378.79 74.48
2235 20.7828 5525.40 5368.68 74.33
2236 20.7912 5545.82 5378.05 74.47
2237 20.7996 5570.72 5406.51 74.64
2238 20.8080 5619.35 5448.65 74.96
2239 20.8164 5677.08 5504.14 75.35
2240 20.8248 5712.12 5565.09 75.58
2241 20.8332 5757.81 5626.67 75.88
2242 20.8416 5792.32 5685.11 76.11
2243 20.8500 5801.66 5736.95 76.17
2244 20.8584 5827.66 5778.38 76.34
2245 20.8668 5800.53 5805.37 76.16
2246 20.8752 5796.61 5813.67 76.14
2247 20.8836 5747.98 5803.55 75.82
2248 20.8920 5696.17 5773.35 75.47
2249 20.9004 5623.36 5725.60 74.99
2250 20.9088 5529.71 5662.58 74.36
2251 20.9172 5451.80 5589.33 73.84
2252 20.9256 5348.52 5513.42 73.13
2253 20.9340 5274.02 5443.89 72.62
2254 20.9424 5207.11 5389.78 72.16
2255 20.9508 5162.66 5358.46 71.85
2256 20.9592 5144.80 5353.74 71.73
2257 20.9676 5156.47 5381.30 71.81
2258 20.9760 5212.29 5439.59 72.20
2259 20.9844 5275.31 5526.26 72.63
2260 20.9928 5384.48 5635.96 73.38
2261 21.0012 5510.04 5760.32 74.23
2262 21.0096 5651.95 5887.79 75.18
2263 21.0180 5788.50 6004.78 76.08
2264 21.0264 5913.06 6098.59 76.90
2265 21.0348 6035.18 6161.52 77.69
2266 21.0432 6095.94 6193.99 78.08
2267 21.0516 6166.64 6200.56 78.53
2268 21.0600 6213.07 6199.94 78.82
2269 21.0684 6269.89 6200.27 79.18
2270 21.0768 6348.59 6209.71 79.68
2271 21.0852 6443.15 6230.62 80.27
2272 21.0936 6564.49 6261.58 81.02
2273 21.1020 6671.13 6292.84 81.68
2274 21.1104 6760.11 6310.04 82.22
2275 21.1188 6777.61 6296.38 82.33
2276 21.1272 6699.30 6237.73 81.85
2277 21.1356 6545.87 6128.15 80.91
2278 21.1440 6292.65 5972.24 79.33
2279 21.1524 6015.11 5783.54 77.56
2280 21.1608 5690.61 5576.41 75.44
2281 21.1692 5393.72 5366.18 73.44
2282 21.1776 5117.84 5163.82 71.54
2283 21.1860 4877.29 4976.70 69.84
2284 21.1944 4681.26 4809.18 68.42
2285 21.2028 4514.02 4662.41 67.19
2286 21.2112 4396.75 4539.11 66.31
2287 21.2196 4287.84 4435.99 65.48
2288 21.2280 4207.14 4352.01 64.86
2289 21.2364 4144.08 4284.69 64.37
2290 21.2448 4091.39 4231.08 63.96
2291 21.2532 4055.50 4187.83 63.68
2292 21.2616 4009.72 4151.47 63.32
2293 21.2700 3985.39 4119.14 63.13
2294 21.2784 3950.87 4088.49 62.86
2295 21.2868 3928.02 4058.43 62.67
2296 21.2952 3905.45 4028.64 62.49
2297 21.3036 3885.81 3999.68 62.34
2298 21.3120 3869.09 3972.24 62.20
2299 21.3204 3847.47 3946.95 62.03
2300 21.3288 3836.74 3924.26 61.94
2301 21.3372 3821.84 3904.49 61.82
2302 21.3456 3813.22 3888.81 61.75
2303 21.3540 3808.45 3875.38 61.71
2304 21.3624 3806.92 3865.77 61.70
2305 21.3708 3808.61 3856.71 61.71
2306 21.3792 3813.80 3853.16 61.76
2307 21.3876 3819.34 3852.92 61.80
2308 21.3960 3824.28 3856.05 61.84
2309 21.4044 3841.76 3862.63 61.98
2310 21.4128 3878.12 3872.82 62.27
2311 21.4212 3895.77 3883.52 62.42
2312 21.4296 3933.84 3901.58 62.72
2313 21.4380 3964.02 3924.97 62.96
2314 21.4464 4005.45 3951.90 63.29
2315 21.4548 4052.77 3983.76 63.66
2316 21.4632 4104.20 4021.07 64.06
2317 21.4716 4171.86 4064.60 64.59
2318 21.4800 4226.97 4115.25 65.02
2319 21.4884 4303.99 4174.05 65.60
2320 21.4968 4381.29 4241.11 66.19
2321 21.5052 4458.71 4318.55 66.77
2322 21.5136 4551.01 4405.92 67.46
2323 21.5220 4633.78 4503.21 68.07
2324 21.5304 4731.70 4607.19 68.79
2325 21.5388 4828.72 4717.40 69.49
2326 21.5472 4929.36 4829.33 70.21
2327 21.5556 5027.62 4941.21 70.91
2328 21.5640 5123.53 5051.54 71.58
2329 21.5724 5237.43 5160.12 72.37
2330 21.5808 5349.34 5265.11 73.14
2331 21.5892 5436.40 5365.05 73.73
2332 21.5976 5510.09 5457.43 74.23
2333 21.6060 5592.17 5538.56 74.78
2334 21.6144 5634.88 5604.68 75.07
2335 21.6228 5647.09 5651.67 75.15
2336 21.6312 5663.18 5674.32 75.25
2337 21.6396 5636.68 5666.20 75.08
2338 21.6480 5570.77 5621.25 74.64
2339 21.6564 5484.11 5536.76 74.05
2340 21.6648 5377.86 5418.64 73.33
2341 21.6732 5267.62 5272.10 72.58
2342 21.6816 5118.92 5107.46 71.55
2343 21.6900 4973.11 4935.37 70.52
2344 21.6984 4816.39 4770.35 69.40
2345 21.7068 4664.04 4615.83 68.29
2346 21.7152 4514.23 4475.82 67.19
2347 21.7236 4382.70 4352.14 66.20
2348 21.7320 4262.41 4245.28 65.29
2349 21.7404 4149.80 4155.41 64.42
2350 21.7488 4063.21 4081.37 63.74
2351 21.7572 3977.63 4019.87 63.07
2352 21.7656 3914.28 3970.36 62.56
2353 21.7740 3847.27 3931.09 62.03
2354 21.7824 3802.14 3901.27 61.66
2355 21.7908 3760.23 3876.26 61.32
2356 21.7992 3718.60 3858.09 60.98
2357 21.8076 3689.71 3844.40 60.74
loop_
_pd_proc_info_excluded_regions
'from 0.999 to 2.000'
'from 21.8 to 22.014'
loop_
_restr_angle_atom_site_label_1
_restr_angle_site_symmetry_1
_restr_angle_atom_site_label_2
_restr_angle_site_symmetry_2
_restr_angle_atom_site_label_3
_restr_angle_site_symmetry_3
_restr_angle_target
_restr_angle_target_weight_param
N1 . C2 . N4 . 110.38 0.01
C2 . N1 . N2 . 106.4 0.01
N1 . N2 . N3 . 107.54 0.01
N2 . N3 . N4 . 109.49 0.01
N1 . C2 . C1 . 118.96 0.01
O1 . C1 . O2 . 128.38 0.01
C11 . N11 . C15 . 117 0.01
C12 . C13 . C14 . 120 0.01
N11 . C15 . C14 . 123 0.01
C13 . C16 . C17 . 109.47 0.01
C16 . C17 . C16 2_555 109.47 0.01
C12 . C13 . C16 . 120 0.01
H1c17 . C17 . H1c17 2_555 109.47 0.01
H1c17 . C17 . C16 . 109.47 0.01
loop_
_restr_distance_atom_site_label_1
_restr_distance_site_symmetry_1
_restr_distance_atom_site_label_2
_restr_distance_site_symmetry_2
_restr_distance_target
_restr_distance_target_weight_param
C2 . N1 . 1.317 0.001
N1 . N2 . 1.33 0.001
N2 . N3 . 1.324 0.001
N3 . N4 . 1.342 0.001
N4 . C2 . 1.329 0.001
C1 . C2 . 1.494 0.001
O1 . C1 . 1.229 0.001
C1 . O2 . 1.271 0.001
N11 . C11 . 1.347 0.001
N11 . C15 . 1.347 0.001
C11 . C12 . 1.39 0.001
C12 . C13 . 1.39 0.001
C13 . C14 . 1.39 0.001
C14 . C15 . 1.39 0.001
C13 . C16 . 1.51 0.001
C16 . C17 . 1.51 0.001
C17 . H1c17 . 0.96 0.001
loop_
_cod_changelog_entry_id
_cod_changelog_entry_author
_cod_changelog_entry_date
_cod_changelog_entry_text
1 'Vaitkus, Antanas' 2022-05-09T03:40:00+03:00
'Updated bibliographic information.'
