#------------------------------------------------------------------------------
#$Date: 2022-05-09 03:44:03 +0300 (Mon, 09 May 2022) $
#$Revision: 275240 $
#$URL: file:///home/coder/svn-repositories/cod/cif/7/11/91/7119158.cif $
#------------------------------------------------------------------------------
#
# This file is available in the Crystallography Open Database (COD),
# http://www.crystallography.net/
#
# All data on this site have been placed in the public domain by the
# contributors.
#
data_7119158
loop_
_publ_author_name
'Wood, Peter A.'
'Sarjeant, Amy A.'
'Yakovenko, Andrey A.'
'Ward, Suzanna C.'
'Groom, Colin R.'
_publ_section_title
;
 Capturing neon -- the first experimental structure of neon
 trapped within a metal-organic environment
;
_journal_coden_ASTM              CHCOFS
_journal_issue                   65
_journal_name_full
'Chemical Communications (Cambridge, United Kingdom)'
_journal_page_first              10048
_journal_page_last               10051
_journal_paper_doi               10.1039/c6cc04808k
_journal_volume                  52
_journal_year                    2016
_chemical_absolute_configuration .
_chemical_formula_moiety         '[Ni(C4HO3) 0.223(Ne)]n'
_chemical_formula_sum            'C4 H Ne0.223 Ni O3'
_chemical_formula_weight         160.2
_space_group_IT_number           148
_symmetry_cell_setting           trigonal
_symmetry_Int_Tables_number      148
_symmetry_space_group_name_Hall  '-R 3'
_symmetry_space_group_name_H-M   'R -3 :H'
_cell_angle_alpha                90
_cell_angle_beta                 90
_cell_angle_gamma                120
_cell_formula_units_Z            18
_cell_length_a                   25.7522(3)
_cell_length_b                   25.7522(3)
_cell_length_c                   6.7576(3)
_cell_measurement_temperature    295
_cell_volume                     3881.07(18)
_computing_cell_refinement       'Jana 2006 (Petricek, 2006)'
_computing_data_reduction        'GSASII(Toby & Von Dreele, 2013)'
_computing_molecular_graphics    'Mercury (version, 2015)'
_computing_publication_material  'Jana 2006 (Petricek, 2006)'
_computing_structure_refinement  'Jana 2006 (Petricek, 2006)'
_diffrn_ambient_temperature      295
_diffrn_detector                 'Flat Panel Detector'
_diffrn_detector_type            'Perkin-Elmer amorphous-Si'
_diffrn_measurement_device       '17-BM-B beamline'
_diffrn_radiation_monochromator  'PSL DCM Si(111)'
_diffrn_radiation_probe          x-ray
_diffrn_radiation_type           synchrotron
_diffrn_radiation_wavelength     0.72768
_diffrn_source                   synchrotron
_diffrn_source_type              synchrotron
_exptl_absorpt_coefficient_mu    2.359
_exptl_crystal_density_diffrn    1.2341
_exptl_crystal_F_000             1426
_pd_char_colour                  brown
_pd_char_particle_morphology     'small crystalline powder'
_pd_instr_location
; 
17-BM-B line diffractometer, APS, Argonne National Lab (USA)
;
_pd_meas_2theta_range_inc        0.008
_pd_meas_2theta_range_max        21.992
_pd_meas_2theta_range_min        1.000
_pd_meas_number_of_points        2500
_pd_prep_cool_rate               0.0
_pd_prep_pressure                10000
_pd_prep_temperature             295(2)
_pd_proc_2theta_range_inc        0.008
_pd_proc_2theta_range_max        21.798
_pd_proc_2theta_range_min        2.008
_pd_proc_ls_background_function  '8 Chebyshev polynoms'
_pd_proc_ls_pref_orient_corr     none
_pd_proc_ls_profile_function     Pseudo-Voigt
_pd_proc_ls_prof_R_factor        0.0385
_pd_proc_ls_prof_wR_expected     0.0152
_pd_proc_ls_prof_wR_factor       0.0532
_pd_proc_wavelength              0.72768
_pd_spec_mounting                'capton capillary with Ne exchange gas'
_pd_spec_mount_mode              transmission
_pd_spec_shape                   cylinder
_pd_spec_size_axial              10.0
_pd_spec_size_equat              0.9
_pd_spec_size_thick              0.9
_refine_diff_density_max         0.07
_refine_diff_density_min         -0.08
_refine_ls_goodness_of_fit_all   3.50
_refine_ls_hydrogen_treatment    constr
_refine_ls_number_constraints    21
_refine_ls_number_parameters     27
_refine_ls_number_restraints     0
_refine_ls_R_factor_all          0.0217
_refine_ls_R_factor_gt           0.0217
_refine_ls_shift/su_max          0.0321
_refine_ls_shift/su_mean         0.0039
_refine_ls_weighting_scheme      sigma
_refine_ls_wR_factor_all         0.0360
_refine_ls_wR_factor_gt          0.0360
_cod_data_source_file            c6cc04808k2-5.cif
_cod_data_source_block           295K100bar
_cod_depositor_comments
;
The following automatic conversions were performed:

'_diffrn_radiation_probe' value 'X-ray' changed to 'x-ray' according
to the built-in table from CIF Core dictionary named 'cif_core.dic'
version 2.4.1 from 2010-06-29.

Automatic conversion script
Id: cif_fix_values 4624 2016-04-14 12:54:50Z antanas 
;
_cod_original_cell_volume        3881.04(19)
_cod_original_sg_symbol_H-M      'R -3'
_cod_original_formula_sum        'C4 H1 Ne0.223 Ni1 O3'
_cod_database_code               7119158
loop_
_space_group_symop_id
_space_group_symop_operation_xyz
1 x,y,z
2 -y,x-y,z
3 -x+y,-x,z
4 -x,-y,-z
5 y,-x+y,-z
6 x-y,x,-z
7 x+2/3,y+1/3,z+1/3
8 -y+2/3,x-y+1/3,z+1/3
9 -x+y+2/3,-x+1/3,z+1/3
10 -x+2/3,-y+1/3,-z+1/3
11 y+2/3,-x+y+1/3,-z+1/3
12 x-y+2/3,x+1/3,-z+1/3
13 x+1/3,y+2/3,z+2/3
14 -y+1/3,x-y+2/3,z+2/3
15 -x+y+1/3,-x+2/3,z+2/3
16 -x+1/3,-y+2/3,-z+2/3
17 y+1/3,-x+y+2/3,-z+2/3
18 x-y+1/3,x+2/3,-z+2/3
loop_
_atom_site_label
_atom_site_type_symbol
_atom_site_fract_x
_atom_site_fract_y
_atom_site_fract_z
_atom_site_adp_type
_atom_site_U_iso_or_equiv
_atom_site_site_symmetry_multiplicity
_atom_site_occupancy
_atom_site_calc_flag
_atom_site_refinement_flags
_atom_site_disorder_assembly
_atom_site_disorder_group
Ni1 Ni 0.61899(8) 0.64771(9) 0.3532(3) Uiso 0.0621(5) 18 1 d . . .
O1 O 0.438614 0.406244 0.434232 Uiso 0.0621(5) 18 1 d . . .
O2 O 0.368971 0.365436 0.216567 Uiso 0.0621(5) 18 1 d . . .
O3 O 0.614437 0.582814 0.157977 Uiso 0.0621(5) 18 1 d . . .
C1 C 0.418153 0.406857 0.253761 Uiso 0.0621(5) 18 1 d . . .
C2 C 0.462557 0.4533 0.11806 Uiso 0.0621(5) 18 1 d . . .
C3 C 0.559669 0.548566 0.080323 Uiso 0.0621(5) 18 1 d . . .
C4 C 0.518049 0.496704 0.194141 Uiso 0.0621(5) 18 1 d . . .
H1c4 H 0.528839 0.491907 0.32607 Uiso 0.0745 18 1 d . . .
Ne1 Ne 0.1912(13) 0.5242(12) 0.173(5) Uiso 0.186 18 0.223(6) d . . .
loop_
_atom_type_symbol
_atom_type_scat_dispersion_real
_atom_type_scat_dispersion_imag
_atom_type_scat_source
C 0.0037 0.0018 'International Tables Vol C tables 4.2.6.8 and 6.1.1.1'
H 0.0000 0.0000 'International Tables Vol C tables 4.2.6.8 and 6.1.1.1'
Ne 0.0277 0.0178 'International Tables Vol C tables 4.2.6.8 and 6.1.1.1'
Ni 0.3409 1.1694 'International Tables Vol C tables 4.2.6.8 and 6.1.1.1'
O 0.0121 0.0066 'International Tables Vol C tables 4.2.6.8 and 6.1.1.1'
loop_
_geom_angle_atom_site_label_1
_geom_angle_atom_site_label_2
_geom_angle_atom_site_label_3
_geom_angle_site_symmetry_1
_geom_angle_site_symmetry_2
_geom_angle_site_symmetry_3
_geom_angle
O1 Ni1 O2 4_666 . 17_555 103.34
O1 Ni1 O2 4_666 . 12_555 173.7
O1 Ni1 O3 4_666 . . 99.78
O1 Ni1 O3 4_666 . 9_565 92.55
O2 Ni1 O2 17_555 . 12_555 82.95
O2 Ni1 O3 17_555 . . 90.4
O2 Ni1 O3 17_555 . 9_565 86.64
O2 Ni1 O3 12_555 . . 79.65
O2 Ni1 O3 12_555 . 9_565 88.11
O3 Ni1 O3 . . 9_565 167.67
Ni1 O1 C1 4_666 . . 119.82
Ni1 O2 Ni1 11_455 . 18_545 90.73
Ni1 O2 C1 11_455 . . 125.47
Ni1 O2 C1 18_545 . . 143.67
Ni1 O3 Ni1 . . 14_654 93.72
Ni1 O3 C3 . . . 113.19
Ni1 O3 C3 14_654 . . 126.93
O1 C1 O2 . . . 115.29
O1 C1 C2 . . . 115.12
O2 C1 C2 . . . 128.91
C1 C2 C3 . . 4_665 114.31
C1 C2 C4 . . . 118.9
C3 C2 C4 4_665 . . 126.52
O3 C3 C2 . . 4_665 130.69
O3 C3 C4 . . . 116.69
C2 C3 C4 4_665 . . 111.3
C2 C4 C3 . . . 122.1
C2 C4 H1c4 . . . 118.95
C3 C4 H1c4 . . . 118.95
loop_
_geom_bond_atom_site_label_1
_geom_bond_atom_site_label_2
_geom_bond_site_symmetry_1
_geom_bond_site_symmetry_2
_geom_bond_distance
Ni1 O1 . 4_666 2.0331
Ni1 O2 . 17_555 1.9978
Ni1 O2 . 12_555 2.101
Ni1 O3 . . 2.0858
Ni1 O3 . 9_565 1.9092
O1 C1 . . 1.3317
O2 C1 . . 1.2059
O3 C3 . . 1.3411
C1 C2 . . 1.487
C2 C3 . 4_665 1.449
C2 C4 . . 1.3995
C3 C4 . . 1.4466
C4 H1c4 . . 0.96
Ni1 Ne1 . 2_665 4.14(4)
loop_
_pd_proc_point_id
_pd_proc_2theta_corrected
_pd_proc_intensity_net
_pd_calc_intensity_net
_pd_proc_ls_weight
1 2.6025 4387.67 3751.40 66.24
2 2.6109 4416.12 3738.65 66.45
3 2.6193 4405.20 3725.98 66.37
4 2.6277 4410.45 3713.40 66.41
5 2.6361 4456.12 4247.89 66.75
6 2.6445 4424.54 4251.04 66.52
7 2.6529 4445.76 4254.93 66.68
8 2.6613 4460.22 4259.62 66.78
9 2.6697 4441.66 4265.14 66.65
10 2.6781 4473.27 4271.54 66.88
11 2.6865 4471.13 4278.86 66.87
12 2.6949 4487.71 4287.16 66.99
13 2.7033 4511.15 4296.49 67.17
14 2.7117 4514.66 4306.91 67.19
15 2.7201 4530.15 4318.50 67.31
16 2.7285 4544.90 4331.31 67.42
17 2.7369 4552.98 4345.43 67.48
18 2.7453 4570.81 4360.94 67.61
19 2.7537 4593.48 4377.93 67.78
20 2.7621 4592.27 4396.50 67.77
21 2.7705 4617.69 4416.76 67.95
22 2.7789 4623.01 4438.82 67.99
23 2.7873 4637.51 4462.82 68.10
24 2.7957 4681.28 4488.89 68.42
25 2.8041 4683.52 4517.18 68.44
26 2.8125 4708.55 4547.88 68.62
27 2.8209 4727.60 4581.15 68.76
28 2.8293 4726.04 4617.22 68.75
29 2.8377 4785.44 4656.30 69.18
30 2.8461 4790.44 4698.64 69.21
31 2.8545 4823.25 4744.52 69.45
32 2.8629 4868.30 4794.26 69.77
33 2.8713 4894.45 4848.19 69.96
34 2.8797 4938.03 4906.70 70.27
35 2.8881 5019.93 4970.23 70.85
36 2.8965 5042.86 5039.23 71.01
37 2.9049 5121.95 5114.27 71.57
38 2.9133 5190.00 5195.95 72.04
39 2.9217 5237.80 5284.96 72.37
40 2.9301 5339.18 5382.09 73.07
41 2.9385 5397.19 5488.22 73.47
42 2.9469 5518.37 5604.37 74.29
43 2.9553 5614.24 5731.70 74.93
44 2.9637 5724.17 5871.56 75.66
45 2.9721 5855.83 6025.49 76.52
46 2.9805 5991.02 6195.27 77.40
47 2.9889 6131.16 6383.00 78.30
48 2.9973 6315.98 6591.11 79.47
49 3.0057 6501.20 6822.45 80.63
50 3.0141 6717.42 7080.40 81.96
51 3.0225 6994.86 7368.98 83.64
52 3.0309 7249.57 7692.97 85.14
53 3.0393 7538.59 8058.11 86.83
54 3.0477 7919.35 8471.34 88.99
55 3.0561 8358.55 8941.16 91.43
56 3.0645 8798.52 9477.90 93.80
57 3.0729 9461.09 10094.50 97.27
58 3.0813 10038.40 10807.30 100.19
59 3.0897 10924.20 11637.40 104.52
60 3.0981 11879.60 12613.80 108.99
61 3.1065 13159.50 13778.20 114.71
62 3.1149 14578.50 15195.60 120.74
63 3.1233 16534.40 16974.10 128.59
64 3.1317 19058.40 19297.50 138.05
65 3.1401 22273.90 22475.90 149.24
66 3.1485 27233.20 27010.20 165.02
67 3.1569 33868.70 33654.10 184.04
68 3.1653 43338.90 43439.30 208.18
69 3.1737 57502.90 57610.40 239.80
70 3.1821 76651.30 77432.30 276.86
71 3.1905 102510.00 103842.00 320.17
72 3.1989 136937.00 136987.00 370.05
73 3.2073 179257.00 175673.00 423.39
74 3.2157 218644.00 216698.00 467.59
75 3.2241 261464.00 254089.00 511.33
76 3.2325 282575.00 279204.00 531.58
77 3.2409 282093.00 283929.00 531.12
78 3.2493 259347.00 266494.00 509.26
79 3.2577 227303.00 233038.00 476.76
80 3.2661 187283.00 192614.00 432.76
81 3.2745 150665.00 152422.00 388.16
82 3.2829 113670.00 116732.00 337.15
83 3.2913 91728.80 87475.90 302.87
84 3.2997 68876.60 64992.70 262.44
85 3.3081 53178.90 48610.10 230.61
86 3.3165 42432.20 37151.20 205.99
87 3.3249 33661.40 29329.90 183.47
88 3.3333 27308.70 24012.80 165.25
89 3.3417 22846.90 20330.30 151.15
90 3.3501 18909.40 17683.10 137.51
91 3.3585 16292.00 15690.50 127.64
92 3.3669 14093.00 14123.40 118.71
93 3.3753 12476.10 12847.50 111.70
94 3.3837 11097.60 11782.80 105.35
95 3.3921 10122.10 10879.70 100.61
96 3.4005 9141.47 10104.80 95.61
97 3.4089 8468.08 9434.17 92.02
98 3.4173 7829.02 8849.72 88.48
99 3.4257 7359.38 8337.28 85.79
100 3.4341 6922.57 7885.45 83.20
101 3.4425 6549.33 7485.06 80.93
102 3.4509 6255.36 7128.58 79.09
103 3.4593 5951.82 6809.77 77.15
104 3.4677 5703.86 6523.49 75.52
105 3.4761 5470.52 6265.42 73.96
106 3.4845 5273.48 6031.93 72.62
107 3.4929 5095.64 5819.95 71.38
108 3.5013 4949.35 5626.89 70.35
109 3.5097 4761.46 5450.51 69.00
110 3.5181 4637.91 5288.93 68.10
111 3.5265 4532.50 5140.47 67.32
112 3.5349 4386.27 5003.74 66.23
113 3.5433 4286.37 4877.48 65.47
114 3.5517 4207.41 4760.63 64.86
115 3.5601 4102.02 4652.25 64.05
116 3.5685 4043.20 4551.50 63.59
117 3.5769 3951.74 4457.65 62.86
118 3.5853 3872.68 4370.07 62.23
119 3.5937 3809.74 4288.19 61.72
120 3.6021 3740.81 4211.49 61.16
121 3.6105 3688.46 4139.52 60.73
122 3.6189 3646.81 4071.89 60.39
123 3.6273 3576.86 4008.23 59.81
124 3.6357 3537.27 3948.22 59.47
125 3.6441 3506.54 3891.57 59.22
126 3.6525 3453.02 3838.01 58.76
127 3.6609 3427.91 3787.30 58.55
128 3.6693 3369.20 3739.24 58.04
129 3.6777 3344.97 3693.63 57.84
130 3.6861 3320.95 3650.29 57.63
131 3.6945 3274.66 3609.05 57.22
132 3.7029 3249.09 3569.78 57.00
133 3.7113 3235.06 3532.34 56.88
134 3.7197 3186.85 3496.60 56.45
135 3.7281 3178.49 3462.46 56.38
136 3.7365 3162.42 3429.81 56.24
137 3.7449 3118.14 3398.55 55.84
138 3.7533 3139.43 3368.60 56.03
139 3.7617 3075.38 3339.88 55.46
140 3.7701 3059.70 3312.31 55.31
141 3.7785 3031.69 3285.83 55.06
142 3.7869 2989.13 3260.38 54.67
143 3.7953 2982.67 3235.88 54.61
144 3.8037 2960.93 3212.29 54.41
145 3.8121 2936.96 3189.57 54.19
146 3.8205 2929.21 3167.65 54.12
147 3.8289 2898.70 3146.50 53.84
148 3.8373 2886.00 3126.08 53.72
149 3.8457 2885.33 2560.81 53.72
150 3.8541 2843.23 2556.41 53.32
151 3.8625 2844.90 2552.05 53.34
152 3.8709 2836.34 2547.72 53.26
153 3.8793 2813.27 2543.43 53.04
154 3.8877 2809.47 2539.17 53.00
155 3.8961 2787.28 2534.94 52.79
156 3.9045 2766.47 2530.76 52.60
157 3.9129 2768.76 2526.60 52.62
158 3.9213 2740.07 2522.48 52.35
159 3.9297 2752.32 2518.40 52.46
160 3.9381 2740.62 2514.34 52.35
161 3.9465 2720.89 2510.32 52.16
162 3.9549 2720.12 2506.34 52.15
163 3.9633 2713.38 2502.39 52.09
164 3.9717 2695.91 2498.47 51.92
165 3.9801 2708.37 2494.58 52.04
166 3.9885 2675.56 2490.73 51.73
167 3.9969 2667.40 2486.91 51.65
168 4.0053 2671.83 2483.12 51.69
169 4.0137 2646.28 2479.36 51.44
170 4.0221 2640.90 2475.63 51.39
171 4.0305 2650.59 2471.94 51.48
172 4.0389 2624.27 2468.27 51.23
173 4.0473 2634.75 2464.64 51.33
174 4.0557 2616.21 2461.04 51.15
175 4.0641 2604.58 2457.47 51.04
176 4.0725 2614.27 2453.93 51.13
177 4.0809 2585.26 2450.42 50.85
178 4.0893 2586.34 2446.94 50.86
179 4.0977 2607.35 2443.49 51.06
180 4.1061 2567.75 2440.07 50.67
181 4.1145 2576.04 2436.67 50.75
182 4.1229 2574.19 2433.31 50.74
183 4.1313 2557.88 2429.98 50.58
184 4.1397 2564.34 2426.67 50.64
185 4.1481 2557.19 2423.40 50.57
186 4.1565 2547.96 2420.15 50.48
187 4.1649 2546.90 2416.93 50.47
188 4.1733 2535.28 2413.74 50.35
189 4.1817 2535.28 2410.58 50.35
190 4.1901 2539.31 2407.44 50.39
191 4.1985 2514.69 2404.33 50.15
192 4.2069 2526.57 2401.25 50.26
193 4.2153 2512.14 2398.20 50.12
194 4.2237 2510.11 2395.17 50.10
195 4.2321 2520.36 2392.17 50.20
196 4.2405 2502.80 2389.20 50.03
197 4.2489 2488.04 2386.25 49.88
198 4.2573 2488.95 2383.33 49.89
199 4.2657 2488.05 2380.44 49.88
200 4.2741 2487.75 2377.57 49.88
201 4.2825 2484.67 2374.72 49.85
202 4.2909 2464.77 2371.90 49.65
203 4.2993 2483.31 2369.11 49.83
204 4.3077 2470.21 2366.34 49.70
205 4.3161 2467.96 2363.60 49.68
206 4.3245 2477.90 2360.88 49.78
207 4.3329 2452.43 2358.19 49.52
208 4.3413 2463.30 2355.52 49.63
209 4.3497 2471.47 2352.88 49.71
210 4.3581 2456.79 2350.25 49.57
211 4.3665 2456.23 2347.66 49.56
212 4.3749 2453.28 2345.08 49.53
213 4.3833 2438.74 2342.53 49.38
214 4.3917 2448.70 2340.01 49.48
215 4.4001 2434.22 2337.50 49.34
216 4.4085 2450.24 2335.02 49.50
217 4.4169 2435.20 2332.57 49.35
218 4.4253 2425.98 2330.13 49.25
219 4.4337 2429.10 2327.72 49.29
220 4.4421 2423.39 2325.33 49.23
221 4.4505 2423.05 2322.96 49.22
222 4.4589 2429.25 2320.62 49.29
223 4.4673 2417.91 2318.29 49.17
224 4.4757 2414.44 2315.99 49.14
225 4.4841 2415.80 2313.71 49.15
226 4.4925 2408.46 2311.45 49.08
227 4.5009 2414.57 2309.21 49.14
228 4.5093 2418.53 2306.99 49.18
229 4.5177 2408.78 2304.80 49.08
230 4.5261 2406.17 2302.62 49.05
231 4.5345 2399.40 2300.47 48.98
232 4.5429 2414.11 2298.33 49.13
233 4.5513 2415.50 2296.22 49.15
234 4.5597 2405.13 2294.12 49.04
235 4.5681 2409.05 2292.05 49.08
236 4.5765 2408.07 2290.00 49.07
237 4.5849 2389.12 2287.96 48.88
238 4.5933 2399.24 2285.95 48.98
239 4.6017 2398.18 2283.95 48.97
240 4.6101 2391.70 2281.97 48.90
241 4.6185 2403.48 2280.01 49.03
242 4.6269 2385.28 2278.08 48.84
243 4.6353 2396.50 2276.16 48.95
244 4.6437 2395.25 2274.25 48.94
245 4.6521 2382.64 2272.37 48.81
246 4.6605 2389.53 2270.51 48.88
247 4.6689 2401.34 2268.66 49.00
248 4.6773 2393.58 2266.83 48.92
249 4.6857 2399.60 2265.02 48.99
250 4.6941 2383.62 2263.22 48.82
251 4.7025 2383.54 2261.45 48.82
252 4.7109 2401.10 2259.69 49.00
253 4.7193 2385.95 2257.95 48.85
254 4.7277 2389.72 2256.23 48.88
255 4.7361 2401.56 2254.52 49.01
256 4.7445 2389.16 2252.83 48.88
257 4.7529 2404.73 2251.16 49.04
258 4.7613 2393.95 2249.50 48.93
259 4.7697 2395.52 2247.86 48.94
260 4.7781 2401.33 2246.23 49.00
261 4.7865 2390.20 2244.63 48.89
262 4.7949 2385.90 2243.03 48.85
263 4.8033 2394.12 2241.46 48.93
264 4.8117 2395.17 2239.90 48.94
265 4.8201 2404.89 2238.35 49.04
266 4.8285 2406.39 2236.82 49.05
267 4.8369 2399.36 2235.31 48.98
268 4.8453 2400.98 2387.93 49.00
269 4.8537 2406.08 2389.89 49.05
270 4.8621 2401.80 2391.97 49.01
271 4.8705 2417.07 2394.20 49.16
272 4.8789 2403.26 2396.56 49.02
273 4.8873 2416.44 2399.08 49.16
274 4.8957 2437.62 2401.74 49.37
275 4.9041 2413.72 2404.57 49.13
276 4.9125 2432.73 2407.56 49.32
277 4.9209 2431.89 2410.73 49.31
278 4.9293 2436.74 2414.08 49.36
279 4.9377 2441.91 2417.62 49.42
280 4.9461 2433.15 2421.36 49.33
281 4.9545 2434.42 2425.31 49.34
282 4.9629 2456.20 2429.47 49.56
283 4.9713 2440.58 2433.86 49.40
284 4.9797 2468.19 2438.50 49.68
285 4.9881 2462.13 2443.38 49.62
286 4.9965 2461.30 2448.53 49.61
287 5.0049 2479.94 2453.96 49.80
288 5.0133 2467.46 2459.69 49.67
289 5.0217 2480.93 2465.72 49.81
290 5.0301 2498.74 2472.08 49.99
291 5.0385 2488.95 2478.78 49.89
292 5.0469 2503.85 2485.85 50.04
293 5.0553 2507.90 2493.31 50.08
294 5.0637 2513.19 2501.17 50.13
295 5.0721 2522.47 2509.46 50.22
296 5.0805 2525.33 2518.22 50.25
297 5.0889 2540.72 2527.46 50.41
298 5.0973 2554.25 2537.22 50.54
299 5.1057 2559.56 2547.53 50.59
300 5.1141 2569.62 2558.43 50.69
301 5.1225 2583.57 2569.96 50.83
302 5.1309 2588.31 2582.16 50.88
303 5.1393 2609.67 2595.08 51.08
304 5.1477 2637.44 2608.76 51.36
305 5.1561 2642.50 2623.27 51.41
306 5.1645 2659.38 2638.66 51.57
307 5.1729 2664.68 2654.99 51.62
308 5.1813 2692.27 2672.36 51.89
309 5.1897 2705.32 2690.82 52.01
310 5.1981 2724.44 2710.47 52.20
311 5.2065 2738.30 2731.41 52.33
312 5.2149 2766.29 2753.74 52.60
313 5.2233 2776.54 2777.59 52.69
314 5.2317 2818.79 2803.07 53.09
315 5.2401 2827.95 2830.35 53.18
316 5.2485 2867.91 2859.57 53.55
317 5.2569 2899.06 2890.93 53.84
318 5.2653 2923.00 2924.61 54.06
319 5.2737 2965.05 2960.86 54.45
320 5.2821 3006.75 2999.93 54.83
321 5.2905 3041.20 3042.09 55.15
322 5.2989 3092.46 3087.69 55.61
323 5.3073 3131.73 3137.08 55.96
324 5.3157 3191.38 3190.69 56.49
325 5.3241 3263.95 3248.99 57.13
326 5.3325 3316.55 3312.53 57.59
327 5.3409 3394.89 3381.95 58.27
328 5.3493 3470.66 3457.96 58.91
329 5.3577 3551.37 3541.40 59.59
330 5.3661 3662.16 3633.25 60.52
331 5.3745 3754.78 3734.64 61.28
332 5.3829 3868.19 3846.92 62.19
333 5.3913 4017.75 3971.66 63.39
334 5.3997 4157.41 4110.75 64.48
335 5.4081 4333.62 4266.42 65.83
336 5.4165 4541.41 4441.47 67.39
337 5.4249 4755.24 4639.38 68.96
338 5.4333 5001.40 4864.69 70.72
339 5.4417 5332.56 5123.52 73.02
340 5.4501 5685.73 5424.63 75.40
341 5.4585 6132.71 5780.95 78.31
342 5.4669 6661.01 6212.06 81.61
343 5.4753 7287.76 6747.71 85.37
344 5.4837 8020.70 7432.68 89.56
345 5.4921 9008.73 8332.41 94.91
346 5.5005 10257.30 9538.30 101.28
347 5.5089 11814.40 11171.70 108.69
348 5.5173 13935.60 13383.20 118.05
349 5.5257 16307.50 16344.90 127.70
350 5.5341 20121.10 20232.50 141.85
351 5.5425 24631.00 25199.40 156.94
352 5.5509 30250.80 31338.80 173.93
353 5.5593 38467.70 38643.10 196.13
354 5.5677 46856.90 46954.10 216.46
355 5.5761 56150.30 55908.40 236.96
356 5.5845 67077.40 64868.60 258.99
357 5.5929 75608.00 72866.20 274.97
358 5.6013 81394.60 78663.80 285.30
359 5.6097 82826.20 81079.40 287.80
360 5.6181 80251.50 79537.10 283.29
361 5.6265 73632.80 74411.70 271.35
362 5.6349 64438.50 66798.70 253.85
363 5.6433 55284.30 57961.70 235.13
364 5.6517 46038.40 48940.20 214.57
365 5.6601 38160.00 40445.00 195.35
366 5.6685 31271.70 32894.20 176.84
367 5.6769 26044.90 26486.40 161.38
368 5.6853 21372.60 21259.20 146.19
369 5.6937 17934.10 17138.70 133.92
370 5.7021 15200.50 13981.80 123.29
371 5.7105 12960.00 11614.90 113.84
372 5.7189 11238.10 9863.50 106.01
373 5.7273 9780.32 8571.20 98.90
374 5.7357 8630.64 7609.83 92.90
375 5.7441 7710.03 6881.34 87.81
376 5.7525 6981.99 6314.97 83.56
377 5.7609 6320.37 5861.76 79.50
378 5.7693 5824.54 5489.03 76.32
379 5.7777 5384.67 5175.23 73.38
380 5.7861 5008.07 4906.22 70.77
381 5.7945 4705.39 4672.46 68.60
382 5.8029 4443.75 4467.31 66.66
383 5.8113 4209.77 4285.95 64.88
384 5.8197 4031.99 4124.68 63.50
385 5.8281 3844.03 3980.60 62.00
386 5.8365 3688.80 3851.34 60.74
387 5.8449 3584.73 3734.95 59.87
388 5.8533 3444.82 3629.78 58.69
389 5.8617 3346.11 3534.45 57.85
390 5.8701 3267.59 3447.77 57.16
391 5.8785 3160.53 3368.75 56.22
392 5.8869 3097.06 3296.50 55.65
393 5.8953 3024.43 3230.28 54.99
394 5.9037 2946.35 3169.44 54.28
395 5.9121 2911.50 3113.42 53.96
396 5.9205 2849.12 3061.72 53.38
397 5.9289 2805.59 3013.90 52.97
398 5.9373 2762.99 2969.60 52.56
399 5.9457 2717.07 2928.47 52.13
400 5.9541 2694.77 2890.22 51.91
401 5.9625 2643.22 2854.58 51.41
402 5.9709 2627.86 2821.33 51.26
403 5.9793 2600.20 2790.25 50.99
404 5.9877 2569.16 2761.16 50.69
405 5.9961 2544.81 2733.90 50.45
406 6.0045 2530.16 2708.30 50.30
407 6.0129 2496.26 2684.25 49.96
408 6.0213 2475.46 2661.61 49.75
409 6.0297 2458.20 2640.28 49.58
410 6.0381 2442.31 2620.17 49.42
411 6.0465 2440.92 2601.17 49.41
412 6.0549 2414.31 2583.21 49.14
413 6.0633 2410.22 2566.21 49.09
414 6.0717 2390.71 2550.11 48.89
415 6.0801 2369.72 2534.84 48.68
416 6.0885 2359.02 2520.36 48.57
417 6.0969 2355.71 2506.60 48.54
418 6.1053 2332.74 2493.52 48.30
419 6.1137 2332.72 2481.07 48.30
420 6.1221 2321.63 2469.23 48.18
421 6.1305 2302.69 2457.94 47.99
422 6.1389 2296.37 2447.18 47.92
423 6.1473 2286.88 2436.92 47.82
424 6.1557 2277.33 2427.13 47.72
425 6.1641 2274.16 2417.78 47.69
426 6.1725 2258.18 2408.85 47.52
427 6.1809 2270.96 2400.31 47.65
428 6.1893 2246.63 2392.16 47.40
429 6.1977 2246.16 2384.36 47.39
430 6.2061 2249.00 2376.91 47.42
431 6.2145 2230.00 2369.78 47.22
432 6.2229 2229.85 2362.98 47.22
433 6.2313 2231.81 2356.47 47.24
434 6.2397 2212.38 2350.27 47.04
435 6.2481 2227.44 2344.35 47.20
436 6.2565 2216.21 2338.72 47.08
437 6.2649 2212.86 2333.38 47.04
438 6.2733 2216.52 2328.32 47.08
439 6.2817 2209.11 2323.55 47.00
440 6.2901 2205.74 2319.10 46.97
441 6.2985 2207.15 2314.99 46.98
442 6.3069 2191.64 2311.28 46.81
443 6.3153 2204.67 2308.05 46.95
444 6.3237 2205.66 2305.42 46.96
445 6.3321 2188.49 2303.56 46.78
446 6.3405 2207.85 2302.69 46.99
447 6.3489 2189.49 2303.09 46.79
448 6.3573 2203.74 2305.10 46.94
449 6.3657 2205.90 2310.53 46.97
450 6.3741 2202.35 2316.80 46.93
451 6.3825 2214.71 2171.37 47.06
452 6.3909 2230.37 2186.10 47.23
453 6.3993 2233.75 2203.27 47.26
454 6.4077 2263.53 2222.43 47.58
455 6.4161 2278.80 2242.73 47.74
456 6.4245 2302.85 2262.73 47.99
457 6.4329 2329.36 2280.36 48.26
458 6.4413 2346.46 2293.10 48.44
459 6.4497 2347.00 2298.62 48.45
460 6.4581 2330.04 2295.82 48.27
461 6.4665 2301.71 2285.35 47.98
462 6.4749 2280.37 2269.20 47.75
463 6.4833 2254.81 2249.78 47.48
464 6.4917 2225.79 2229.22 47.18
465 6.5001 2207.91 2209.11 46.99
466 6.5085 2183.52 2190.54 46.73
467 6.5169 2187.31 2174.14 46.77
468 6.5253 2170.54 2160.20 46.59
469 6.5337 2144.06 2148.71 46.30
470 6.5421 2161.83 2139.49 46.50
471 6.5505 2140.45 2132.24 46.26
472 6.5589 2129.15 2126.63 46.14
473 6.5673 2132.74 2122.30 46.18
474 6.5757 2118.93 2118.97 46.03
475 6.5841 2123.02 2116.37 46.08
476 6.5925 2121.84 2114.30 46.06
477 6.6009 2097.42 2112.62 45.80
478 6.6093 2114.95 2111.22 45.99
479 6.6177 2101.70 2110.02 45.84
480 6.6261 2096.58 2108.97 45.79
481 6.6345 2104.52 2108.04 45.88
482 6.6429 2084.87 2107.19 45.66
483 6.6513 2089.17 2106.43 45.71
484 6.6597 2088.64 2105.72 45.70
485 6.6681 2083.32 2105.07 45.64
486 6.6765 2081.63 2104.47 45.62
487 6.6849 2080.54 2103.91 45.61
488 6.6933 2078.56 2103.38 45.59
489 6.7017 2074.61 2102.89 45.55
490 6.7101 2076.56 2102.42 45.57
491 6.7185 2067.33 2101.99 45.47
492 6.7269 2077.66 2101.57 45.58
493 6.7353 2070.41 2101.19 45.50
494 6.7437 2074.18 2100.82 45.54
495 6.7521 2075.45 2100.48 45.56
496 6.7605 2055.71 2100.15 45.34
497 6.7689 2069.05 2099.85 45.49
498 6.7773 2069.68 2099.56 45.49
499 6.7857 2061.51 2099.30 45.40
500 6.7941 2077.60 2099.05 45.58
501 6.8025 2056.86 2098.82 45.35
502 6.8109 2080.38 2098.61 45.61
503 6.8193 2067.33 2098.43 45.47
504 6.8277 2060.50 2098.26 45.39
505 6.8361 2075.89 2098.12 45.56
506 6.8445 2077.14 2098.00 45.58
507 6.8529 2063.69 2097.90 45.43
508 6.8613 2076.76 2097.83 45.57
509 6.8697 2061.05 2097.79 45.40
510 6.8781 2070.34 2097.78 45.50
511 6.8865 2070.58 2097.80 45.50
512 6.8949 2066.96 2097.86 45.46
513 6.9033 2072.97 2097.96 45.53
514 6.9117 2072.87 2098.10 45.53
515 6.9201 2059.91 2098.28 45.39
516 6.9285 2076.01 2098.52 45.56
517 6.9369 2059.04 2098.82 45.38
518 6.9453 2067.56 2099.18 45.47
519 6.9537 2072.16 2099.62 45.52
520 6.9621 2064.38 2100.14 45.44
521 6.9705 2074.93 2100.74 45.55
522 6.9789 2067.05 2101.45 45.46
523 6.9873 2052.78 2102.28 45.31
524 6.9957 2068.26 2103.25 45.48
525 7.0041 2062.58 2104.37 45.42
526 7.0125 2067.36 2105.66 45.47
527 7.0209 2068.60 2107.17 45.48
528 7.0293 2070.08 2122.80 45.50
529 7.0377 2087.82 2125.14 45.69
530 7.0461 2079.30 2127.87 45.60
531 7.0545 2087.46 2131.10 45.69
532 7.0629 2102.11 2135.01 45.85
533 7.0713 2089.42 2139.83 45.71
534 7.0797 2096.86 2145.89 45.79
535 7.0881 2115.42 2153.66 45.99
536 7.0965 2111.14 2163.78 45.95
537 7.1049 2129.57 2177.07 46.15
538 7.1133 2139.30 2194.52 46.25
539 7.1217 2150.23 2217.26 46.37
540 7.1301 2193.95 2246.51 46.84
541 7.1385 2228.25 2283.39 47.20
542 7.1469 2284.72 2328.80 47.80
543 7.1553 2369.39 2383.17 48.68
544 7.1637 2456.09 2446.21 49.56
545 7.1721 2608.65 2516.67 51.07
546 7.1805 2770.49 2591.96 52.64
547 7.1889 2957.64 2667.74 54.38
548 7.1973 3165.58 2737.54 56.26
549 7.2057 3287.92 2792.97 57.34
550 7.2141 3349.55 2825.27 57.88
551 7.2225 3330.47 2828.26 57.71
552 7.2309 3198.77 2801.35 56.56
553 7.2393 3030.77 2749.83 55.05
554 7.2477 2862.49 2682.26 53.50
555 7.2561 2686.44 2607.25 51.83
556 7.2645 2561.06 2531.66 50.61
557 7.2729 2440.60 2459.87 49.40
558 7.2813 2355.14 2395.48 48.53
559 7.2897 2289.60 2339.63 47.85
560 7.2981 2237.09 2292.75 47.30
561 7.3065 2203.64 2254.52 46.94
562 7.3149 2188.06 2224.16 46.78
563 7.3233 2151.89 2200.54 46.39
564 7.3317 2144.40 2182.48 46.31
565 7.3401 2130.32 2168.81 46.16
566 7.3485 2127.01 2158.51 46.12
567 7.3569 2124.73 2150.74 46.09
568 7.3653 2104.94 2144.83 45.88
569 7.3737 2113.54 2140.27 45.97
570 7.3821 2107.84 2136.72 45.91
571 7.3905 2106.15 2133.93 45.89
572 7.3989 2108.60 2131.72 45.92
573 7.4073 2100.35 2129.98 45.83
574 7.4157 2101.22 2128.62 45.84
575 7.4241 2103.47 2127.60 45.86
576 7.4325 2098.59 2126.87 45.81
577 7.4409 2098.15 2126.41 45.81
578 7.4493 2111.11 2126.19 45.95
579 7.4577 2092.29 2126.20 45.74
580 7.4661 2106.84 2126.44 45.90
581 7.4745 2120.51 2126.89 46.05
582 7.4829 2108.50 2127.55 45.92
583 7.4913 2126.62 2128.42 46.12
584 7.4997 2109.94 2129.49 45.93
585 7.5081 2108.87 2130.78 45.92
586 7.5165 2127.18 2132.29 46.12
587 7.5249 2113.76 2134.02 45.98
588 7.5333 2131.50 2135.99 46.17
589 7.5417 2121.68 2138.20 46.06
590 7.5501 2123.34 2140.68 46.08
591 7.5585 2136.35 2143.43 46.22
592 7.5669 2125.10 2146.48 46.10
593 7.5753 2130.63 2149.86 46.16
594 7.5837 2144.95 2153.58 46.31
595 7.5921 2137.26 2157.68 46.23
596 7.6005 2157.24 2162.20 46.45
597 7.6089 2147.83 2167.16 46.34
598 7.6173 2144.66 2172.63 46.31
599 7.6257 2159.75 2178.65 46.47
600 7.6341 2160.57 2185.28 46.48
601 7.6425 2168.79 2192.59 46.57
602 7.6509 2180.05 2200.66 46.69
603 7.6593 2177.53 2209.58 46.66
604 7.6677 2198.35 2247.13 46.89
605 7.6761 2208.62 2258.62 47.00
606 7.6845 2206.29 2271.36 46.97
607 7.6929 2235.89 2285.53 47.29
608 7.7013 2225.32 2301.35 47.17
609 7.7097 2248.02 2319.10 47.41
610 7.7181 2262.24 2339.15 47.56
611 7.7265 2277.51 2361.96 47.72
612 7.7349 2300.80 2388.22 47.97
613 7.7433 2326.18 2418.86 48.23
614 7.7517 2337.44 2455.24 48.35
615 7.7601 2385.26 2499.29 48.84
616 7.7685 2410.17 2553.71 49.09
617 7.7769 2460.88 2622.26 49.61
618 7.7853 2508.40 2709.95 50.08
619 7.7937 2574.90 2823.20 50.74
620 7.8021 2664.86 2969.90 51.62
621 7.8105 2776.60 3159.13 52.69
622 7.8189 2910.61 3400.78 53.95
623 7.8273 3114.23 3704.50 55.81
624 7.8357 3391.34 4078.56 58.24
625 7.8441 3792.98 4528.30 61.59
626 7.8525 4328.54 5054.25 65.79
627 7.8609 5143.01 5650.34 71.71
628 7.8693 6142.27 6301.05 78.37
629 7.8777 7346.79 6978.84 85.71
630 7.8861 8801.11 7640.19 93.81
631 7.8945 10167.50 8224.09 100.83
632 7.9029 11202.60 8656.95 105.84
633 7.9113 11557.00 8869.12 107.50
634 7.9197 11224.30 8821.22 105.94
635 7.9281 10312.20 8522.67 101.55
636 7.9365 8975.68 8027.05 94.74
637 7.9449 7781.73 7408.02 88.21
638 7.9533 6437.49 6736.06 80.23
639 7.9617 5471.61 6065.53 73.97
640 7.9701 4659.16 5433.75 68.26
641 7.9785 4063.28 4863.58 63.74
642 7.9869 3618.32 4366.60 60.15
643 7.9953 3290.66 3946.38 57.36
644 8.0037 3038.63 3600.30 55.12
645 8.0121 2888.07 3321.82 53.74
646 8.0205 2731.55 3102.03 52.26
647 8.0289 2639.91 2931.03 51.38
648 8.0373 2568.39 2799.20 50.68
649 8.0457 2508.68 2697.87 50.09
650 8.0541 2458.29 2619.66 49.58
651 8.0625 2422.30 2558.70 49.22
652 8.0709 2391.26 2510.47 48.90
653 8.0793 2374.41 2470.16 48.73
654 8.0877 2348.36 2438.36 48.46
655 8.0961 2338.53 2411.89 48.36
656 8.1045 2322.44 2389.58 48.19
657 8.1129 2303.02 2370.60 47.99
658 8.1213 2300.83 2354.38 47.97
659 8.1297 2285.97 2340.51 47.81
660 8.1381 2294.03 2328.66 47.90
661 8.1465 2296.00 2318.61 47.92
662 8.1549 2278.49 2310.17 47.73
663 8.1633 2286.50 2303.20 47.82
664 8.1717 2289.37 2297.57 47.85
665 8.1801 2268.14 2293.20 47.63
666 8.1885 2286.67 2290.01 47.82
667 8.1969 2270.75 2287.94 47.65
668 8.2053 2282.36 2286.95 47.77
669 8.2137 2294.72 2287.40 47.90
670 8.2221 2281.99 2288.52 47.77
671 8.2305 2297.57 2290.68 47.93
672 8.2389 2298.21 2293.90 47.94
673 8.2473 2309.85 2298.19 48.06
674 8.2557 2314.98 2303.59 48.11
675 8.2641 2318.74 2310.15 48.15
676 8.2725 2333.60 2317.93 48.31
677 8.2809 2349.64 2327.01 48.47
678 8.2893 2355.81 2337.48 48.54
679 8.2977 2382.10 2349.46 48.81
680 8.3061 2396.83 2363.08 48.96
681 8.3145 2409.74 2378.50 49.09
682 8.3229 2434.86 2395.91 49.34
683 8.3313 2451.60 2415.53 49.51
684 8.3397 2484.22 2437.64 49.84
685 8.3481 2513.98 2462.55 50.14
686 8.3565 2542.53 2490.66 50.42
687 8.3649 2591.80 2522.47 50.91
688 8.3733 2642.18 2558.65 51.40
689 8.3817 2684.49 2600.03 51.81
690 8.3901 2747.98 2647.81 52.42
691 8.3985 2826.36 2703.64 53.16
692 8.4069 2908.36 2769.84 53.93
693 8.4153 3017.90 2849.69 54.94
694 8.4237 3130.42 2947.78 55.95
695 8.4321 3288.68 3070.38 57.35
696 8.4405 3454.11 3225.86 58.77
697 8.4489 3655.04 3424.95 60.46
698 8.4573 3909.91 3680.83 62.53
699 8.4657 4213.04 4009.01 64.91
700 8.4741 4604.64 4426.50 67.86
701 8.4825 5025.92 4950.56 70.89
702 8.4909 5644.20 5597.08 75.13
703 8.4993 6263.97 6377.92 79.15
704 8.5077 7170.32 7298.20 84.68
705 8.5161 8071.64 8353.42 89.84
706 8.5245 9276.26 9525.04 96.31
707 8.5329 10462.40 10776.60 102.29
708 8.5413 11777.00 12047.20 108.52
709 8.5497 13032.90 13246.10 114.16
710 8.5581 14039.10 14253.30 118.49
711 8.5665 14763.60 14934.90 121.51
712 8.5749 14944.00 15179.30 122.25
713 8.5833 14680.40 14942.00 121.16
714 8.5917 13968.70 14266.00 118.19
715 8.6001 12867.00 13261.90 113.43
716 8.6085 11742.80 12063.30 108.36
717 8.6169 10524.10 10790.90 102.59
718 8.6253 9405.17 9535.61 96.98
719 8.6337 8319.04 8358.98 91.21
720 8.6421 7456.34 7298.26 86.35
721 8.6505 6651.66 6371.89 81.56
722 8.6589 6045.61 5584.96 77.75
723 8.6673 5454.70 4932.52 73.86
724 8.6757 5000.04 4402.65 70.71
725 8.6841 4622.67 3979.77 67.99
726 8.6925 4274.53 3646.47 65.38
727 8.7009 4007.51 3385.77 63.30
728 8.7093 3775.12 3182.18 61.44
729 8.7177 3563.58 3022.39 59.70
730 8.7261 3403.29 2895.63 58.34
731 8.7345 3244.37 2793.52 56.96
732 8.7429 3131.75 2709.69 55.96
733 8.7513 3025.12 2641.00 55.00
734 8.7597 2916.85 2581.26 54.01
735 8.7681 2851.57 2529.53 53.40
736 8.7765 2773.85 2485.26 52.67
737 8.7849 2705.83 2445.06 52.02
738 8.7933 2654.86 2409.14 51.53
739 8.8017 2596.11 2362.78 50.95
740 8.8101 2563.66 2333.85 50.63
741 8.8185 2530.39 2307.61 50.30
742 8.8269 2477.53 2283.73 49.77
743 8.8353 2455.33 2261.93 49.55
744 8.8437 2416.86 2241.97 49.16
745 8.8521 2399.14 2223.64 48.98
746 8.8605 2374.34 2206.78 48.73
747 8.8689 2349.23 2191.23 48.47
748 8.8773 2330.84 2176.87 48.28
749 8.8857 2316.80 2163.56 48.13
750 8.8941 2285.72 2151.23 47.81
751 8.9025 2285.71 2139.77 47.81
752 8.9109 2262.71 2129.12 47.57
753 8.9193 2245.00 2119.20 47.38
754 8.9277 2236.63 2109.97 47.29
755 8.9361 2219.62 2101.37 47.11
756 8.9445 2216.16 2093.35 47.08
757 8.9529 2213.35 2085.90 47.05
758 8.9613 2201.70 2078.98 46.92
759 8.9697 2192.46 2072.58 46.82
760 8.9781 2180.59 2066.70 46.70
761 8.9865 2169.64 2061.37 46.58
762 8.9949 2174.14 2056.60 46.63
763 9.0033 2152.63 2052.47 46.40
764 9.0117 2163.96 2049.06 46.52
765 9.0201 2156.56 2046.49 46.44
766 9.0285 2151.25 2044.91 46.38
767 9.0369 2160.42 2044.50 46.48
768 9.0453 2154.82 2045.46 46.42
769 9.0537 2152.79 2047.99 46.40
770 9.0621 2169.77 2052.26 46.58
771 9.0705 2170.64 2058.41 46.59
772 9.0789 2187.37 2066.50 46.77
773 9.0873 2213.93 2076.45 47.05
774 9.0957 2216.99 2088.03 47.08
775 9.1041 2254.02 2100.79 47.48
776 9.1125 2272.55 2113.99 47.67
777 9.1209 2303.45 2126.51 47.99
778 9.1293 2329.45 2136.86 48.26
779 9.1377 2339.56 2143.37 48.37
780 9.1461 2335.95 2144.55 48.33
781 9.1545 2323.33 2139.67 48.20
782 9.1629 2291.10 2129.09 47.87
783 9.1713 2266.66 2114.07 47.61
784 9.1797 2227.35 2096.27 47.19
785 9.1881 2197.49 2077.28 46.88
786 9.1965 2169.13 2058.32 46.57
787 9.2049 2136.56 2040.25 46.22
788 9.2133 2120.69 2023.62 46.05
789 9.2217 2098.06 2008.72 45.80
790 9.2301 2080.64 1995.65 45.61
791 9.2385 2067.72 1984.39 45.47
792 9.2469 2057.03 1974.83 45.35
793 9.2553 2041.71 1966.77 45.19
794 9.2637 2043.02 1973.98 45.20
795 9.2721 2023.05 1968.55 44.98
796 9.2805 2019.27 1964.01 44.94
797 9.2889 2015.70 1960.19 44.90
798 9.2973 2004.97 1956.92 44.78
799 9.3057 2007.76 1954.10 44.81
800 9.3141 1995.35 1951.63 44.67
801 9.3225 2000.03 1949.44 44.72
802 9.3309 1994.76 1947.49 44.66
803 9.3393 1987.22 1945.73 44.58
804 9.3477 1985.12 1944.16 44.55
805 9.3561 1988.99 1942.74 44.60
806 9.3645 1984.83 1941.48 44.55
807 9.3729 1975.60 1940.37 44.45
808 9.3813 1971.70 1939.40 44.40
809 9.3897 1974.83 1938.57 44.44
810 9.3981 1974.67 1937.89 44.44
811 9.4065 1961.00 1937.36 44.28
812 9.4149 1968.85 1936.99 44.37
813 9.4233 1966.13 1936.77 44.34
814 9.4317 1965.58 1936.74 44.33
815 9.4401 1971.06 1936.88 44.40
816 9.4485 1953.79 1937.22 44.20
817 9.4569 1965.20 1937.79 44.33
818 9.4653 1961.06 1938.58 44.28
819 9.4737 1965.14 1939.64 44.33
820 9.4821 1960.78 1940.99 44.28
821 9.4905 1964.62 1914.90 44.32
822 9.4989 1980.48 1917.46 44.50
823 9.5073 1976.38 1920.44 44.46
824 9.5157 1973.17 1923.94 44.42
825 9.5241 1973.46 1928.07 44.42
826 9.5325 1985.32 1932.98 44.56
827 9.5409 1978.79 1938.89 44.48
828 9.5493 1992.56 1946.10 44.64
829 9.5577 1991.19 1955.00 44.62
830 9.5661 2009.15 1966.12 44.82
831 9.5745 2027.44 1980.14 45.03
832 9.5829 2024.87 1997.92 45.00
833 9.5913 2047.68 2020.47 45.25
834 9.5997 2065.52 2048.95 45.45
835 9.6081 2082.23 2084.64 45.63
836 9.6165 2124.50 2128.80 46.09
837 9.6249 2164.03 2182.60 46.52
838 9.6333 2207.21 2246.94 46.98
839 9.6417 2283.28 2322.28 47.78
840 9.6501 2352.18 2408.37 48.50
841 9.6585 2471.30 2504.01 49.71
842 9.6669 2593.70 2606.73 50.93
843 9.6753 2734.91 2712.31 52.30
844 9.6837 2884.72 2814.56 53.71
845 9.6921 3018.17 2905.27 54.94
846 9.7005 3099.01 2975.19 55.67
847 9.7089 3143.72 3015.89 56.07
848 9.7173 3114.37 3022.06 55.81
849 9.7257 3046.54 2993.04 55.20
850 9.7341 2937.68 2932.94 54.20
851 9.7425 2798.26 2849.33 52.90
852 9.7509 2673.88 2751.24 51.71
853 9.7593 2551.16 2647.17 50.51
854 9.7677 2431.52 2544.02 49.31
855 9.7761 2345.48 2446.64 48.43
856 9.7845 2258.87 2358.11 47.53
857 9.7929 2200.82 2280.06 46.91
858 9.8013 2135.95 2213.05 46.22
859 9.8097 2096.83 2156.86 45.79
860 9.8181 2048.25 2110.77 45.26
861 9.8265 2028.09 2073.69 45.03
862 9.8349 2000.66 2044.41 44.73
863 9.8433 1981.19 2021.65 44.51
864 9.8517 1956.46 2004.25 44.23
865 9.8601 1951.89 1991.16 44.18
866 9.8685 1929.19 1981.48 43.92
867 9.8769 1928.16 1974.51 43.91
868 9.8853 1926.12 1969.70 43.89
869 9.8937 1916.50 1966.63 43.78
870 9.9021 1909.88 1965.01 43.70
871 9.9105 1909.34 1964.63 43.70
872 9.9189 1904.07 1965.36 43.64
873 9.9273 1907.83 1967.12 43.68
874 9.9357 1911.86 1969.88 43.72
875 9.9441 1915.73 1973.61 43.77
876 9.9525 1911.17 1978.34 43.72
877 9.9609 1914.33 1984.10 43.75
878 9.9693 1920.58 1990.95 43.82
879 9.9777 1926.28 1998.97 43.89
880 9.9861 1917.86 2008.26 43.79
881 9.9945 1929.75 2018.95 43.93
882 10.0029 1940.45 2031.21 44.05
883 10.0113 1946.08 2045.24 44.11
884 10.0197 1968.70 2061.29 44.37
885 10.0281 1970.08 2079.72 44.39
886 10.0365 1988.72 2100.97 44.60
887 10.0449 2009.43 2125.68 44.83
888 10.0533 2044.51 2154.71 45.22
889 10.0617 2060.11 2189.24 45.39
890 10.0701 2090.78 2230.90 45.73
891 10.0785 2133.81 2281.87 46.19
892 10.0869 2189.51 2344.67 46.79
893 10.0953 2234.62 2423.75 47.27
894 10.1037 2301.28 2523.36 47.97
895 10.1121 2402.38 2648.99 49.01
896 10.1205 2483.61 2806.95 49.84
897 10.1289 2642.35 3004.01 51.40
898 10.1373 2799.09 3246.96 52.91
899 10.1457 3033.78 3542.05 55.08
900 10.1541 3311.69 3894.02 57.55
901 10.1625 3728.32 4305.22 61.06
902 10.1709 4175.33 4774.57 64.62
903 10.1793 4817.91 5296.00 69.41
904 10.1877 5515.66 5856.76 74.27
905 10.1961 6378.38 6435.44 79.86
906 10.2045 7289.15 6999.11 85.38
907 10.2129 8134.38 7502.72 90.19
908 10.2213 8861.10 7893.26 94.13
909 10.2297 9219.01 8114.71 96.02
910 10.2381 9247.22 8137.69 96.16
911 10.2465 8895.53 7950.16 94.32
912 10.2549 8288.94 7586.60 91.04
913 10.2633 7544.40 7098.02 86.86
914 10.2717 6661.25 6539.61 81.62
915 10.2801 5942.51 5958.52 77.09
916 10.2885 5215.00 5389.87 72.21
917 10.2969 4636.62 4857.15 68.09
918 10.3053 4141.90 4374.51 64.36
919 10.3137 3716.15 3949.13 60.96
920 10.3221 3386.43 3583.03 58.19
921 10.3305 3122.19 3274.37 55.88
922 10.3389 2893.93 3018.80 53.80
923 10.3473 2720.18 2810.37 52.16
924 10.3557 2571.59 2642.30 50.71
925 10.3641 2446.95 2507.77 49.47
926 10.3725 2367.33 2400.40 48.66
927 10.3809 2273.74 2314.49 47.68
928 10.3893 2209.84 2245.27 47.01
929 10.3977 2150.08 2188.85 46.37
930 10.4061 2095.18 2142.19 45.77
931 10.4145 2056.51 2102.98 45.35
932 10.4229 2016.43 2069.49 44.90
933 10.4313 1973.02 2040.45 44.42
934 10.4397 1961.38 2014.94 44.29
935 10.4481 1932.00 1992.29 43.95
936 10.4565 1915.25 1972.00 43.76
937 10.4649 1892.47 1953.69 43.50
938 10.4733 1880.28 1937.08 43.36
939 10.4817 1853.67 1921.94 43.05
940 10.4901 1847.85 1908.08 42.99
941 10.4985 1829.49 1895.35 42.77
942 10.5069 1826.12 1883.63 42.73
943 10.5153 1808.27 1872.80 42.52
944 10.5237 1806.25 1862.77 42.50
945 10.5321 1802.31 1853.45 42.45
946 10.5405 1789.78 1844.79 42.31
947 10.5489 1776.92 1836.71 42.15
948 10.5573 1775.38 1829.16 42.14
949 10.5657 1760.86 1822.09 41.96
950 10.5741 1760.81 1815.47 41.96
951 10.5825 1755.75 1809.24 41.90
952 10.5909 1752.18 1803.38 41.86
953 10.5993 1756.87 1797.85 41.92
954 10.6077 1740.61 1792.64 41.72
955 10.6161 1742.40 1787.72 41.74
956 10.6245 1733.03 1783.06 41.63
957 10.6329 1729.53 1778.65 41.59
958 10.6413 1726.44 1774.46 41.55
959 10.6497 1715.70 1770.50 41.42
960 10.6581 1718.99 1766.73 41.46
961 10.6665 1718.99 1767.90 41.46
962 10.6749 1716.31 1764.64 41.43
963 10.6833 1706.22 1762.72 41.31
964 10.6917 1715.25 1759.85 41.42
965 10.7001 1703.25 1757.13 41.27
966 10.7085 1705.73 1754.56 41.30
967 10.7169 1695.58 1752.13 41.18
968 10.7253 1700.40 1749.84 41.24
969 10.7337 1694.78 1747.69 41.17
970 10.7421 1699.92 1745.67 41.23
971 10.7505 1689.08 1743.78 41.10
972 10.7589 1688.24 1742.01 41.09
973 10.7673 1692.27 1740.37 41.14
974 10.7757 1686.80 1738.86 41.07
975 10.7841 1689.61 1737.47 41.10
976 10.7925 1682.41 1736.20 41.02
977 10.8009 1691.57 1735.07 41.13
978 10.8093 1684.42 1734.06 41.04
979 10.8177 1681.85 1733.18 41.01
980 10.8261 1687.87 1732.44 41.08
981 10.8345 1681.31 1731.83 41.00
982 10.8429 1692.11 1731.38 41.14
983 10.8513 1689.37 1731.07 41.10
984 10.8597 1685.49 1730.92 41.05
985 10.8681 1686.83 1730.94 41.07
986 10.8765 1692.34 1731.13 41.14
987 10.8849 1694.58 1731.51 41.17
988 10.8933 1685.58 1732.09 41.06
989 10.9017 1694.91 1732.88 41.17
990 10.9101 1702.17 1733.91 41.26
991 10.9185 1703.32 1735.18 41.27
992 10.9269 1712.77 1736.73 41.39
993 10.9353 1699.01 1738.57 41.22
994 10.9437 1711.62 1740.74 41.37
995 10.9521 1713.63 1743.26 41.40
996 10.9605 1715.77 1746.18 41.42
997 10.9689 1724.21 1749.53 41.52
998 10.9773 1725.48 1753.38 41.54
999 10.9857 1743.18 1757.77 41.75
1000 10.9941 1750.77 1762.79 41.84
1001 11.0025 1756.20 1768.52 41.91
1002 11.0109 1770.15 1775.07 42.07
1003 11.0193 1785.34 1782.61 42.25
1004 11.0277 1791.25 1791.31 42.32
1005 11.0361 1817.27 1801.43 42.63
1006 11.0445 1837.42 1813.33 42.87
1007 11.0529 1860.14 1827.47 43.13
1008 11.0613 1881.61 1844.47 43.38
1009 11.0697 1911.52 1865.15 43.72
1010 11.0781 1951.32 1890.60 44.17
1011 11.0865 1990.42 1922.15 44.61
1012 11.0949 2030.92 1961.47 45.07
1013 11.1033 2094.46 2022.96 45.77
1014 11.1117 2158.55 2084.17 46.46
1015 11.1201 2232.17 2159.73 47.25
1016 11.1285 2350.70 2252.06 48.48
1017 11.1369 2425.45 2363.45 49.25
1018 11.1453 2565.30 2495.69 50.65
1019 11.1537 2702.40 2649.88 51.98
1020 11.1621 2863.67 2825.95 53.51
1021 11.1705 3054.71 3022.19 55.27
1022 11.1789 3278.30 3234.71 57.26
1023 11.1873 3480.57 3456.67 59.00
1024 11.1957 3705.24 3677.53 60.87
1025 11.2041 3903.11 3882.79 62.47
1026 11.2125 4069.73 4040.21 63.79
1027 11.2209 4206.64 4159.79 64.86
1028 11.2293 4244.21 4211.43 65.15
1029 11.2377 4221.55 4187.47 64.97
1030 11.2461 4125.87 4091.13 64.23
1031 11.2545 3966.34 3935.49 62.98
1032 11.2629 3774.06 3739.32 61.43
1033 11.2713 3565.33 3521.78 59.71
1034 11.2797 3360.72 3299.11 57.97
1035 11.2881 3144.82 3083.30 56.08
1036 11.2965 2966.39 2882.22 54.46
1037 11.3049 2807.83 2700.61 52.99
1038 11.3133 2660.67 2540.77 51.58
1039 11.3217 2547.69 2403.19 50.47
1040 11.3301 2424.45 2287.14 49.24
1041 11.3385 2339.59 2190.98 48.37
1042 11.3469 2258.50 2112.60 47.52
1043 11.3553 2190.21 2049.62 46.80
1044 11.3637 2129.13 1999.61 46.14
1045 11.3721 2080.98 1960.31 45.62
1046 11.3805 2039.44 1929.70 45.16
1047 11.3889 1995.43 1906.05 44.67
1048 11.3973 1969.73 1887.96 44.38
1049 11.4057 1938.60 1874.33 44.03
1050 11.4141 1927.43 1864.31 43.90
1051 11.4225 1901.74 1857.31 43.61
1052 11.4309 1896.10 1852.88 43.54
1053 11.4393 1884.48 1850.74 43.41
1054 11.4477 1872.53 1850.72 43.27
1055 11.4561 1875.98 1852.77 43.31
1056 11.4645 1871.35 1856.89 43.26
1057 11.4729 1885.76 1863.19 43.43
1058 11.4813 1890.53 1871.90 43.48
1059 11.4897 1891.96 1883.31 43.50
1060 11.4981 1918.50 1897.90 43.80
1061 11.5065 1935.09 1916.35 43.99
1062 11.5149 1968.04 1939.55 44.36
1063 11.5233 1996.86 1968.74 44.69
1064 11.5317 2040.92 2005.48 45.18
1065 11.5401 2083.78 2051.74 45.65
1066 11.5485 2155.31 2109.94 46.43
1067 11.5569 2206.66 2182.91 46.98
1068 11.5653 2301.38 2273.79 47.97
1069 11.5737 2407.44 2385.99 49.07
1070 11.5821 2527.18 2522.83 50.27
1071 11.5905 2677.18 2687.41 51.74
1072 11.5989 2841.75 2882.08 53.31
1073 11.6073 3054.38 3108.09 55.27
1074 11.6157 3286.46 3365.12 57.33
1075 11.6241 3559.59 3650.33 59.66
1076 11.6325 3844.61 3957.75 62.00
1077 11.6409 4201.96 4277.09 64.82
1078 11.6493 4486.78 4592.51 66.98
1079 11.6577 4834.44 4882.06 69.53
1080 11.6661 5036.02 5119.15 70.96
1081 11.6745 5222.06 5276.66 72.26
1082 11.6829 5272.06 5333.95 72.61
1083 11.6913 5203.54 5283.38 72.14
1084 11.6997 5031.73 5132.76 70.93
1085 11.7081 4798.11 4902.28 69.27
1086 11.7165 4518.39 4618.21 67.22
1087 11.7249 4218.53 4306.65 64.95
1088 11.7333 3928.88 3989.36 62.68
1089 11.7417 3668.49 3682.50 60.57
1090 11.7501 3382.99 3396.89 58.16
1091 11.7585 3198.88 3138.88 56.56
1092 11.7669 2967.73 2911.59 54.48
1093 11.7753 2817.69 2715.65 53.08
1094 11.7837 2667.27 2549.99 51.65
1095 11.7921 2537.07 2412.40 50.37
1096 11.8005 2435.98 2299.88 49.36
1097 11.8089 2333.92 2209.16 48.31
1098 11.8173 2262.09 2136.91 47.56
1099 11.8257 2198.61 2079.99 46.89
1100 11.8341 2140.46 2035.60 46.27
1101 11.8425 2096.46 2001.36 45.79
1102 11.8509 2053.55 1975.29 45.32
1103 11.8593 2014.68 1955.86 44.89
1104 11.8677 1986.86 1941.90 44.57
1105 11.8761 1967.95 1932.55 44.36
1106 11.8845 1939.72 1927.32 44.04
1107 11.8929 1938.93 1925.67 44.03
1108 11.9013 1921.48 1927.50 43.83
1109 11.9097 1916.35 1932.82 43.78
1110 11.9181 1923.35 1941.80 43.86
1111 11.9265 1931.04 1956.75 43.94
1112 11.9349 1944.33 1974.30 44.09
1113 11.9433 1953.61 1997.64 44.20
1114 11.9517 1977.58 2027.11 44.47
1115 11.9601 1993.44 2064.68 44.65
1116 11.9685 2037.06 2112.40 45.13
1117 11.9769 2074.79 2172.86 45.55
1118 11.9853 2150.13 2249.28 46.37
1119 11.9937 2202.41 2345.46 46.93
1120 12.0021 2306.77 2465.68 48.03
1121 12.0105 2425.20 2614.66 49.25
1122 12.0189 2539.20 2797.15 50.39
1123 12.0273 2744.66 3017.60 52.39
1124 12.0357 2925.05 3279.80 54.08
1125 12.0441 3234.18 3586.08 56.87
1126 12.0525 3586.85 3936.92 59.89
1127 12.0609 4004.15 4329.72 63.28
1128 12.0693 4516.00 4757.97 67.20
1129 12.0777 5149.29 5209.80 71.76
1130 12.0861 5766.47 5665.94 75.94
1131 12.0945 6498.61 6098.26 80.61
1132 12.1029 7137.58 6470.12 84.48
1133 12.1113 7571.69 6740.07 87.02
1134 12.1197 7840.74 6871.30 88.55
1135 12.1281 7779.19 6843.46 88.20
1136 12.1365 7458.00 6660.54 86.36
1137 12.1449 7000.63 6349.19 83.67
1138 12.1533 6376.27 5948.87 79.85
1139 12.1617 5709.35 5500.24 75.56
1140 12.1701 5090.92 5037.37 71.35
1141 12.1785 4548.34 4585.46 67.44
1142 12.1869 4040.92 4161.30 63.57
1143 12.1953 3649.56 3774.86 60.41
1144 12.2037 3323.98 3431.33 57.65
1145 12.2121 3015.01 3132.16 54.91
1146 12.2205 2787.88 2874.79 52.80
1147 12.2289 2591.01 2659.40 50.90
1148 12.2373 2439.20 2475.83 49.39
1149 12.2457 2305.09 2328.66 48.01
1150 12.2541 2189.68 2208.46 46.79
1151 12.2625 2102.00 2110.58 45.85
1152 12.2709 2022.72 2030.84 44.97
1153 12.2793 1955.73 1966.54 44.22
1154 12.2877 1900.42 1912.69 43.59
1155 12.2961 1846.76 1867.76 42.97
1156 12.3045 1805.98 1829.78 42.50
1157 12.3129 1772.09 1797.23 42.10
1158 12.3213 1746.02 1768.97 41.79
1159 12.3297 1716.20 1744.13 41.43
1160 12.3381 1689.67 1722.07 41.11
1161 12.3465 1667.00 1702.31 40.83
1162 12.3549 1646.25 1684.48 40.57
1163 12.3633 1627.12 1668.30 40.34
1164 12.3717 1620.14 1653.56 40.25
1165 12.3801 1596.54 1640.06 39.96
1166 12.3885 1591.26 1627.67 39.89
1167 12.3969 1581.00 1616.27 39.76
1168 12.4053 1568.51 1605.76 39.60
1169 12.4137 1561.98 1596.04 39.52
1170 12.4221 1551.04 1587.05 39.38
1171 12.4305 1541.04 1578.71 39.26
1172 12.4389 1536.46 1570.97 39.20
1173 12.4473 1530.45 1563.77 39.12
1174 12.4557 1522.31 1557.07 39.02
1175 12.4641 1521.97 1550.81 39.01
1176 12.4725 1509.87 1544.94 38.86
1177 12.4809 1511.65 1539.43 38.88
1178 12.4893 1503.39 1534.21 38.77
1179 12.4977 1491.64 1529.24 38.62
1180 12.5061 1498.54 1524.49 38.71
1181 12.5145 1484.02 1519.92 38.52
1182 12.5229 1487.09 1515.54 38.56
1183 12.5313 1480.87 1511.33 38.48
1184 12.5397 1471.88 1507.32 38.37
1185 12.5481 1477.89 1503.50 38.44
1186 12.5565 1469.53 1499.89 38.33
1187 12.5649 1464.20 1496.48 38.26
1188 12.5733 1468.58 1493.28 38.32
1189 12.5817 1455.43 1490.28 38.15
1190 12.5901 1449.91 1487.48 38.08
1191 12.5985 1462.94 1484.88 38.25
1192 12.6069 1452.22 1482.47 38.11
1193 12.6153 1453.95 1480.25 38.13
1194 12.6237 1443.21 1478.22 37.99
1195 12.6321 1447.87 1476.37 38.05
1196 12.6405 1442.34 1474.71 37.98
1197 12.6489 1444.21 1473.23 38.00
1198 12.6573 1447.07 1471.94 38.04
1199 12.6657 1441.16 1470.85 37.96
1200 12.6741 1440.41 1469.95 37.95
1201 12.6825 1443.65 1469.27 38.00
1202 12.6909 1439.93 1468.80 37.95
1203 12.6993 1441.18 1462.13 37.96
1204 12.7077 1443.21 1463.38 37.99
1205 12.7161 1442.35 1461.42 37.98
1206 12.7245 1447.36 1462.19 38.04
1207 12.7329 1443.27 1463.30 37.99
1208 12.7413 1448.28 1464.80 38.06
1209 12.7497 1456.39 1466.74 38.16
1210 12.7581 1448.64 1469.21 38.06
1211 12.7665 1457.74 1472.31 38.18
1212 12.7749 1458.66 1476.17 38.19
1213 12.7833 1465.81 1480.97 38.29
1214 12.7917 1475.14 1486.95 38.41
1215 12.8001 1475.44 1494.40 38.41
1216 12.8085 1494.80 1503.69 38.66
1217 12.8169 1503.79 1515.30 38.78
1218 12.8253 1523.26 1529.78 39.03
1219 12.8337 1536.83 1547.81 39.20
1220 12.8421 1557.54 1570.11 39.47
1221 12.8505 1589.46 1597.49 39.87
1222 12.8589 1622.37 1630.77 40.28
1223 12.8673 1651.68 1670.71 40.64
1224 12.8757 1703.84 1717.97 41.28
1225 12.8841 1758.66 1772.96 41.94
1226 12.8925 1839.25 1835.75 42.89
1227 12.9009 1913.94 1905.94 43.75
1228 12.9093 2015.84 1982.49 44.90
1229 12.9177 2101.12 2063.53 45.84
1230 12.9261 2204.53 2146.21 46.95
1231 12.9345 2304.74 2226.30 48.01
1232 12.9429 2386.56 2298.17 48.85
1233 12.9513 2461.54 2355.09 49.61
1234 12.9597 2507.27 2390.29 50.07
1235 12.9681 2516.76 2398.74 50.17
1236 12.9765 2491.23 2378.91 49.91
1237 12.9849 2444.70 2333.33 49.44
1238 12.9933 2365.43 2267.65 48.64
1239 13.0017 2272.92 2188.91 47.68
1240 13.0101 2170.62 2103.87 46.59
1241 13.0185 2083.58 2018.02 45.65
1242 13.0269 1999.25 1935.36 44.71
1243 13.0353 1909.76 1858.48 43.70
1244 13.0437 1845.39 1789.08 42.96
1245 13.0521 1784.42 1727.47 42.24
1246 13.0605 1720.06 1673.97 41.47
1247 13.0689 1677.10 1628.26 40.95
1248 13.0773 1639.85 1589.79 40.49
1249 13.0857 1605.40 1557.83 40.07
1250 13.0941 1576.87 1533.51 39.71
1251 13.1025 1543.84 1512.14 39.29
1252 13.1109 1524.30 1494.86 39.04
1253 13.1193 1506.17 1480.99 38.81
1254 13.1277 1484.48 1469.93 38.53
1255 13.1361 1476.66 1461.21 38.43
1256 13.1445 1462.94 1454.48 38.25
1257 13.1529 1456.37 1436.65 38.16
1258 13.1613 1442.82 1433.44 37.98
1259 13.1697 1438.07 1431.76 37.92
1260 13.1781 1422.46 1431.65 37.72
1261 13.1865 1425.81 1433.22 37.76
1262 13.1949 1415.36 1436.66 37.62
1263 13.2033 1419.58 1442.18 37.68
1264 13.2117 1415.47 1450.05 37.62
1265 13.2201 1418.34 1460.55 37.66
1266 13.2285 1431.11 1473.94 37.83
1267 13.2369 1431.92 1490.45 37.84
1268 13.2453 1456.43 1510.20 38.16
1269 13.2537 1473.63 1533.20 38.39
1270 13.2621 1512.35 1559.24 38.89
1271 13.2705 1561.36 1587.87 39.51
1272 13.2789 1618.11 1618.23 40.23
1273 13.2873 1689.17 1648.97 41.10
1274 13.2957 1768.28 1678.10 42.05
1275 13.3041 1846.18 1703.05 42.97
1276 13.3125 1896.18 1720.92 43.55
1277 13.3209 1920.37 1729.12 43.82
1278 13.3293 1909.14 1726.19 43.69
1279 13.3377 1866.25 1712.34 43.20
1280 13.3461 1799.68 1689.37 42.42
1281 13.3545 1730.30 1660.00 41.60
1282 13.3629 1655.52 1627.08 40.69
1283 13.3713 1596.89 1593.06 39.96
1284 13.3797 1541.62 1559.73 39.26
1285 13.3881 1486.39 1528.31 38.55
1286 13.3965 1462.26 1499.52 38.24
1287 13.4049 1428.86 1475.21 37.80
1288 13.4133 1405.67 1452.59 37.49
1289 13.4217 1386.38 1433.06 37.23
1290 13.4301 1372.35 1416.44 37.05
1291 13.4385 1366.77 1402.47 36.97
1292 13.4469 1352.51 1393.44 36.78
1293 13.4553 1353.83 1383.89 36.79
1294 13.4637 1345.17 1376.06 36.68
1295 13.4721 1335.60 1369.67 36.55
1296 13.4805 1362.58 1364.47 36.91
1297 13.4889 1337.61 1360.24 36.57
1298 13.4973 1346.05 1356.81 36.69
1299 13.5057 1351.76 1354.05 36.77
1300 13.5141 1329.93 1351.85 36.47
1301 13.5225 1345.11 1350.14 36.68
1302 13.5309 1338.94 1348.88 36.59
1303 13.5393 1335.74 1348.03 36.55
1304 13.5477 1338.10 1347.59 36.58
1305 13.5561 1335.11 1347.58 36.54
1306 13.5645 1340.16 1348.03 36.61
1307 13.5729 1344.90 1348.98 36.67
1308 13.5813 1345.26 1350.53 36.68
1309 13.5897 1340.15 1352.78 36.61
1310 13.5981 1362.47 1355.88 36.91
1311 13.6065 1365.14 1360.03 36.95
1312 13.6149 1371.80 1365.44 37.04
1313 13.6233 1377.77 1372.40 37.12
1314 13.6317 1395.35 1381.23 37.35
1315 13.6401 1411.34 1392.25 37.57
1316 13.6485 1423.60 1405.84 37.73
1317 13.6569 1448.60 1422.35 38.06
1318 13.6653 1462.19 1442.07 38.24
1319 13.6737 1492.81 1465.25 38.64
1320 13.6821 1518.10 1491.99 38.96
1321 13.6905 1543.46 1522.23 39.29
1322 13.6989 1576.91 1555.62 39.71
1323 13.7073 1611.62 1591.47 40.15
1324 13.7157 1646.49 1628.59 40.58
1325 13.7241 1689.40 1665.09 41.10
1326 13.7325 1727.70 1698.40 41.57
1327 13.7409 1749.58 1725.34 41.83
1328 13.7493 1768.82 1742.65 42.06
1329 13.7577 1770.71 1747.86 42.08
1330 13.7661 1765.89 1741.49 42.02
1331 13.7745 1749.70 1722.01 41.83
1332 13.7829 1724.27 1693.40 41.52
1333 13.7913 1692.56 1658.95 41.14
1334 13.7997 1653.31 1631.13 40.66
1335 13.8081 1619.68 1593.85 40.25
1336 13.8165 1579.42 1558.39 39.74
1337 13.8249 1554.06 1525.26 39.42
1338 13.8333 1526.95 1495.40 39.08
1339 13.8417 1503.03 1469.12 38.77
1340 13.8501 1484.53 1446.47 38.53
1341 13.8585 1462.96 1427.32 38.25
1342 13.8669 1445.93 1411.46 38.03
1343 13.8753 1433.84 1398.56 37.87
1344 13.8837 1416.72 1388.31 37.64
1345 13.8921 1412.88 1380.37 37.59
1346 13.9005 1411.34 1374.42 37.57
1347 13.9089 1402.08 1370.18 37.44
1348 13.9173 1404.07 1367.43 37.47
1349 13.9257 1397.19 1366.00 37.38
1350 13.9341 1401.87 1365.77 37.44
1351 13.9425 1399.80 1366.67 37.41
1352 13.9509 1406.70 1368.72 37.51
1353 13.9593 1413.02 1371.96 37.59
1354 13.9677 1421.02 1376.44 37.70
1355 13.9761 1426.64 1382.50 37.77
1356 13.9845 1441.89 1390.30 37.97
1357 13.9929 1455.10 1400.16 38.15
1358 14.0013 1465.70 1412.47 38.28
1359 14.0097 1489.73 1425.58 38.60
1360 14.0181 1507.42 1444.20 38.83
1361 14.0265 1541.37 1466.33 39.26
1362 14.0349 1566.96 1493.36 39.58
1363 14.0433 1603.86 1525.37 40.05
1364 14.0517 1649.20 1562.76 40.61
1365 14.0601 1693.72 1605.74 41.15
1366 14.0685 1767.91 1654.27 42.05
1367 14.0769 1810.65 1707.95 42.55
1368 14.0853 1879.66 1766.00 43.36
1369 14.0937 1948.96 1827.24 44.15
1370 14.1021 2012.79 1890.09 44.86
1371 14.1105 2070.89 1952.34 45.51
1372 14.1189 2120.53 2010.96 46.05
1373 14.1273 2173.55 2061.87 46.62
1374 14.1357 2213.75 2100.10 47.05
1375 14.1441 2238.23 2120.75 47.31
1376 14.1525 2238.93 2120.44 47.32
1377 14.1609 2228.59 2098.69 47.21
1378 14.1693 2191.49 2058.19 46.81
1379 14.1777 2136.77 2003.89 46.23
1380 14.1861 2073.46 1941.46 45.54
1381 14.1945 2019.42 1876.01 44.94
1382 14.2029 1937.43 1811.51 44.02
1383 14.2113 1884.48 1750.68 43.41
1384 14.2197 1824.93 1695.18 42.72
1385 14.2281 1767.00 1645.94 42.04
1386 14.2365 1724.89 1603.32 41.53
1387 14.2449 1678.37 1567.32 40.97
1388 14.2533 1642.66 1537.69 40.53
1389 14.2617 1617.65 1514.02 40.22
1390 14.2701 1590.06 1495.81 39.88
1391 14.2785 1566.92 1482.58 39.58
1392 14.2869 1543.41 1473.86 39.29
1393 14.2953 1533.95 1469.28 39.17
1394 14.3037 1518.80 1468.59 38.97
1395 14.3121 1510.65 1471.65 38.87
1396 14.3205 1510.43 1478.53 38.86
1397 14.3289 1513.68 1489.42 38.91
1398 14.3373 1518.24 1504.72 38.96
1399 14.3457 1534.67 1524.96 39.17
1400 14.3541 1542.56 1550.87 39.28
1401 14.3625 1556.55 1583.25 39.45
1402 14.3709 1588.72 1622.03 39.86
1403 14.3793 1614.80 1670.18 40.18
1404 14.3877 1666.70 1727.61 40.83
1405 14.3961 1724.24 1795.09 41.52
1406 14.4045 1786.34 1873.14 42.27
1407 14.4129 1878.86 1961.84 43.35
1408 14.4213 1969.83 2060.55 44.38
1409 14.4297 2092.10 2167.72 45.74
1410 14.4381 2216.62 2280.51 47.08
1411 14.4465 2336.73 2394.66 48.34
1412 14.4549 2449.36 2504.94 49.49
1413 14.4633 2539.62 2604.72 50.39
1414 14.4717 2602.49 2688.26 51.01
1415 14.4801 2632.83 2750.33 51.31
1416 14.4885 2628.83 2786.53 51.27
1417 14.4969 2617.60 2793.44 51.16
1418 14.5053 2573.23 2769.19 50.73
1419 14.5137 2515.56 2714.62 50.16
1420 14.5221 2435.68 2633.96 49.35
1421 14.5305 2352.59 2534.27 48.50
1422 14.5389 2261.21 2423.84 47.55
1423 14.5473 2165.25 2310.34 46.53
1424 14.5557 2083.68 2199.85 45.65
1425 14.5641 1997.17 2096.61 44.69
1426 14.5725 1927.78 2003.17 43.91
1427 14.5809 1862.94 1920.82 43.16
1428 14.5893 1811.05 1850.04 42.56
1429 14.5977 1768.52 1790.63 42.05
1430 14.6061 1725.84 1742.05 41.54
1431 14.6145 1694.19 1703.54 41.16
1432 14.6229 1675.53 1674.23 40.93
1433 14.6313 1652.93 1653.24 40.66
1434 14.6397 1641.77 1639.77 40.52
1435 14.6481 1637.70 1633.17 40.47
1436 14.6565 1627.06 1632.95 40.34
1437 14.6649 1636.26 1638.87 40.45
1438 14.6733 1640.46 1650.92 40.50
1439 14.6817 1656.90 1669.42 40.71
1440 14.6901 1706.80 1694.96 41.31
1441 14.6985 1709.18 1728.53 41.34
1442 14.7069 1744.22 1771.43 41.76
1443 14.7153 1798.70 1825.36 42.41
1444 14.7237 1854.89 1892.39 43.07
1445 14.7321 1929.61 1974.93 43.93
1446 14.7405 2011.47 2075.62 44.85
1447 14.7489 2123.16 2197.29 46.08
1448 14.7573 2258.09 2342.81 47.52
1449 14.7657 2415.31 2514.66 49.15
1450 14.7741 2609.85 2714.89 51.09
1451 14.7825 2846.63 2944.57 53.35
1452 14.7909 3105.45 3206.68 55.73
1453 14.7993 3438.00 3491.67 58.63
1454 14.8077 3753.82 3797.83 61.27
1455 14.8161 4126.98 4115.37 64.24
1456 14.8245 4486.39 4434.57 66.98
1457 14.8329 4802.80 4741.65 69.30
1458 14.8413 5135.92 5009.98 71.67
1459 14.8497 5358.19 5219.81 73.20
1460 14.8581 5512.19 5347.65 74.24
1461 14.8665 5576.34 5374.98 74.67
1462 14.8749 5479.82 5294.89 74.03
1463 14.8833 5286.14 5115.31 72.71
1464 14.8917 5043.70 4856.91 71.02
1465 14.9001 4699.63 4546.81 68.55
1466 14.9085 4358.05 4211.67 66.02
1467 14.9169 4011.28 3873.19 63.33
1468 14.9253 3683.02 3546.92 60.69
1469 14.9337 3387.05 3243.01 58.20
1470 14.9421 3123.03 2967.01 55.88
1471 14.9505 2881.47 2721.36 53.68
1472 14.9589 2674.84 2506.47 51.72
1473 14.9673 2497.47 2321.12 49.97
1474 14.9757 2341.53 2163.14 48.39
1475 14.9841 2206.03 2029.87 46.97
1476 14.9925 2085.70 1918.28 45.67
1477 15.0009 1986.21 1825.32 44.57
1478 15.0093 1902.24 1748.03 43.61
1479 15.0177 1822.34 1683.76 42.69
1480 15.0261 1756.92 1630.10 41.92
1481 15.0345 1696.12 1585.03 41.18
1482 15.0429 1646.25 1546.87 40.57
1483 15.0513 1599.16 1514.24 39.99
1484 15.0597 1556.65 1486.04 39.45
1485 15.0681 1535.39 1461.43 39.18
1486 15.0765 1490.69 1439.74 38.61
1487 15.0849 1462.90 1420.46 38.25
1488 15.0933 1438.41 1403.19 37.93
1489 15.1017 1419.75 1387.62 37.68
1490 15.1101 1393.14 1373.52 37.32
1491 15.1185 1379.47 1360.69 37.14
1492 15.1269 1362.01 1356.51 36.91
1493 15.1353 1350.07 1345.90 36.74
1494 15.1437 1330.72 1336.16 36.48
1495 15.1521 1317.85 1327.21 36.30
1496 15.1605 1311.34 1320.44 36.21
1497 15.1689 1300.73 1312.89 36.07
1498 15.1773 1287.62 1305.89 35.88
1499 15.1857 1282.45 1299.43 35.81
1500 15.1941 1269.60 1293.44 35.63
1501 15.2025 1266.54 1287.90 35.59
1502 15.2109 1250.42 1280.73 35.36
1503 15.2193 1253.87 1276.00 35.41
1504 15.2277 1248.16 1271.63 35.33
1505 15.2361 1242.67 1267.58 35.25
1506 15.2445 1241.69 1263.83 35.24
1507 15.2529 1229.25 1260.37 35.06
1508 15.2613 1232.13 1257.18 35.10
1509 15.2697 1223.76 1254.24 34.98
1510 15.2781 1220.50 1251.54 34.94
1511 15.2865 1218.48 1249.07 34.91
1512 15.2949 1207.53 1246.83 34.75
1513 15.3033 1212.16 1244.81 34.82
1514 15.3117 1209.23 1243.00 34.77
1515 15.3201 1206.13 1241.40 34.73
1516 15.3285 1204.14 1240.02 34.70
1517 15.3369 1198.99 1238.86 34.63
1518 15.3453 1200.23 1237.92 34.64
1519 15.3537 1197.27 1237.23 34.60
1520 15.3621 1197.22 1236.80 34.60
1521 15.3705 1197.58 1236.65 34.61
1522 15.3789 1193.13 1236.82 34.54
1523 15.3873 1194.33 1237.35 34.56
1524 15.3957 1195.04 1238.29 34.57
1525 15.4041 1188.77 1239.68 34.48
1526 15.4125 1193.21 1241.59 34.54
1527 15.4209 1193.19 1244.08 34.54
1528 15.4293 1195.47 1247.20 34.58
1529 15.4377 1197.38 1251.00 34.60
1530 15.4461 1198.77 1255.54 34.62
1531 15.4545 1203.44 1260.82 34.69
1532 15.4629 1205.33 1266.84 34.72
1533 15.4713 1210.75 1273.54 34.80
1534 15.4797 1222.02 1283.22 34.96
1535 15.4881 1227.19 1290.85 35.03
1536 15.4965 1247.30 1298.48 35.32
1537 15.5049 1259.35 1305.65 35.49
1538 15.5133 1269.48 1311.80 35.63
1539 15.5217 1283.97 1316.38 35.83
1540 15.5301 1287.63 1319.02 35.88
1541 15.5385 1282.83 1318.15 35.82
1542 15.5469 1281.00 1317.10 35.79
1543 15.5553 1275.19 1314.85 35.71
1544 15.5637 1263.71 1312.00 35.55
1545 15.5721 1251.56 1306.40 35.38
1546 15.5805 1248.87 1303.94 35.34
1547 15.5889 1239.86 1302.19 35.21
1548 15.5973 1239.91 1301.37 35.21
1549 15.6057 1235.97 1301.60 35.16
1550 15.6141 1238.09 1302.98 35.19
1551 15.6225 1239.79 1305.57 35.21
1552 15.6309 1240.70 1309.43 35.22
1553 15.6393 1246.82 1314.59 35.31
1554 15.6477 1252.53 1321.12 35.39
1555 15.6561 1254.64 1329.11 35.42
1556 15.6645 1259.99 1338.66 35.50
1557 15.6729 1273.58 1349.96 35.69
1558 15.6813 1281.17 1363.23 35.79
1559 15.6897 1297.83 1378.80 36.03
1560 15.6981 1308.13 1397.08 36.17
1561 15.7065 1326.35 1418.63 36.42
1562 15.7149 1344.09 1444.13 36.66
1563 15.7233 1361.44 1474.45 36.90
1564 15.7317 1393.64 1510.62 37.33
1565 15.7401 1412.64 1553.83 37.58
1566 15.7485 1454.11 1605.46 38.13
1567 15.7569 1496.70 1667.04 38.69
1568 15.7653 1545.39 1742.14 39.31
1569 15.7737 1609.95 1828.44 40.12
1570 15.7821 1686.24 1929.37 41.06
1571 15.7905 1782.41 2046.22 42.22
1572 15.7989 1917.03 2179.83 43.78
1573 15.8073 2056.28 2330.22 45.35
1574 15.8157 2267.28 2496.33 47.62
1575 15.8241 2491.08 2675.42 49.91
1576 15.8325 2741.01 2862.39 52.35
1577 15.8409 3014.70 3049.49 54.91
1578 15.8493 3291.28 3226.37 57.37
1579 15.8577 3492.09 3381.01 59.09
1580 15.8661 3635.04 3501.96 60.29
1581 15.8745 3682.74 3580.34 60.69
1582 15.8829 3634.68 3611.08 60.29
1583 15.8913 3535.73 3592.76 59.46
1584 15.8997 3389.19 3525.87 58.22
1585 15.9081 3214.98 3418.29 56.70
1586 15.9165 3038.02 3277.09 55.12
1587 15.9249 2857.14 3113.19 53.45
1588 15.9333 2690.77 2938.25 51.87
1589 15.9417 2528.11 2753.02 50.28
1590 15.9501 2382.05 2585.00 48.81
1591 15.9585 2263.38 2430.32 47.58
1592 15.9669 2148.17 2291.89 46.35
1593 15.9753 2060.31 2171.13 45.39
1594 15.9837 1983.09 2068.30 44.53
1595 15.9921 1917.13 1983.01 43.78
1596 16.0005 1865.57 1914.35 43.19
1597 16.0089 1823.76 1861.26 42.71
1598 16.0173 1801.30 1822.74 42.44
1599 16.0257 1783.60 1797.87 42.23
1600 16.0341 1771.39 1786.00 42.09
1601 16.0425 1771.84 1786.83 42.09
1602 16.0509 1786.02 1800.46 42.26
1603 16.0593 1807.08 1827.37 42.51
1604 16.0677 1836.51 1868.50 42.85
1605 16.0761 1885.72 1925.13 43.42
1606 16.0845 1949.24 1998.86 44.15
1607 16.0929 2026.87 2091.53 45.02
1608 16.1013 2119.98 2204.92 46.04
1609 16.1097 2244.52 2340.79 47.38
1610 16.1181 2395.44 2504.41 48.94
1611 16.1265 2561.94 2690.34 50.62
1612 16.1349 2767.25 2898.49 52.60
1613 16.1433 2994.86 3128.30 54.73
1614 16.1517 3277.11 3374.70 57.25
1615 16.1601 3551.30 3629.04 59.59
1616 16.1685 3839.64 3878.07 61.96
1617 16.1769 4090.96 4103.69 63.96
1618 16.1853 4276.98 4285.10 65.40
1619 16.1937 4402.39 4402.61 66.35
1620 16.2021 4414.49 4442.96 66.44
1621 16.2105 4331.72 4403.24 65.82
1622 16.2189 4179.89 4290.77 64.65
1623 16.2273 3972.93 4119.77 63.03
1624 16.2357 3740.04 3907.05 61.16
1625 16.2441 3497.34 3669.03 59.14
1626 16.2525 3265.13 3420.30 57.14
1627 16.2609 3040.10 3173.06 55.14
1628 16.2693 2832.58 2936.52 53.22
1629 16.2777 2655.44 2716.96 51.53
1630 16.2861 2487.62 2518.15 49.88
1631 16.2945 2344.70 2341.67 48.42
1632 16.3029 2220.23 2187.52 47.12
1633 16.3113 2107.07 2054.79 45.90
1634 16.3197 2014.61 1941.81 44.88
1635 16.3281 1925.98 1846.59 43.89
1636 16.3365 1861.26 1767.06 43.14
1637 16.3449 1803.95 1701.12 42.47
1638 16.3533 1754.00 1646.83 41.88
1639 16.3617 1710.81 1602.47 41.36
1640 16.3701 1670.37 1566.55 40.87
1641 16.3785 1646.08 1537.86 40.57
1642 16.3869 1619.98 1517.13 40.25
1643 16.3953 1598.71 1500.34 39.98
1644 16.4037 1593.53 1488.72 39.92
1645 16.4121 1582.84 1482.03 39.78
1646 16.4205 1582.96 1480.90 39.79
1647 16.4289 1580.15 1484.19 39.75
1648 16.4373 1585.10 1492.82 39.81
1649 16.4457 1598.44 1507.15 39.98
1650 16.4541 1609.74 1527.63 40.12
1651 16.4625 1634.68 1554.68 40.43
1652 16.4709 1661.46 1588.66 40.76
1653 16.4793 1686.75 1629.82 41.07
1654 16.4877 1724.74 1678.16 41.53
1655 16.4961 1757.67 1733.26 41.92
1656 16.5045 1800.76 1794.13 42.44
1657 16.5129 1848.63 1858.92 43.00
1658 16.5213 1886.01 1924.51 43.43
1659 16.5297 1926.32 1986.41 43.89
1660 16.5381 1965.95 2038.75 44.34
1661 16.5465 1993.38 2075.11 44.65
1662 16.5549 2000.80 2090.09 44.73
1663 16.5633 2004.40 2080.95 44.77
1664 16.5717 1987.30 2048.72 44.58
1665 16.5801 1948.38 1997.74 44.14
1666 16.5885 1910.72 1934.16 43.71
1667 16.5969 1864.95 1864.20 43.19
1668 16.6053 1811.40 1792.81 42.56
1669 16.6137 1770.38 1724.14 42.08
1670 16.6221 1714.48 1660.33 41.41
1671 16.6305 1676.34 1602.77 40.94
1672 16.6389 1635.52 1552.08 40.44
1673 16.6473 1595.27 1508.43 39.94
1674 16.6557 1572.02 1471.71 39.65
1675 16.6641 1538.41 1441.62 39.22
1676 16.6725 1516.66 1417.78 38.94
1677 16.6809 1495.87 1399.81 38.68
1678 16.6893 1479.61 1387.35 38.47
1679 16.6977 1470.37 1380.12 38.35
1680 16.7061 1462.17 1377.95 38.24
1681 16.7145 1463.77 1380.78 38.26
1682 16.7229 1461.19 1392.52 38.23
1683 16.7313 1468.65 1405.63 38.32
1684 16.7397 1483.73 1424.14 38.52
1685 16.7481 1505.22 1448.26 38.80
1686 16.7565 1530.46 1478.21 39.12
1687 16.7649 1566.19 1514.09 39.58
1688 16.7733 1604.08 1555.82 40.05
1689 16.7817 1667.01 1603.00 40.83
1690 16.7901 1720.35 1654.70 41.48
1691 16.7985 1782.54 1709.25 42.22
1692 16.8069 1858.51 1763.95 43.11
1693 16.8153 1925.09 1814.90 43.88
1694 16.8237 1986.96 1857.18 44.58
1695 16.8321 2016.80 1885.63 44.91
1696 16.8405 2032.48 1896.09 45.08
1697 16.8489 2014.36 1886.90 44.88
1698 16.8573 1972.90 1859.43 44.42
1699 16.8657 1909.78 1817.65 43.70
1700 16.8741 1836.83 1766.66 42.86
1701 16.8825 1767.07 1711.44 42.04
1702 16.8909 1695.62 1655.98 41.18
1703 16.8993 1633.31 1603.06 40.41
1704 16.9077 1578.73 1554.43 39.73
1705 16.9161 1527.57 1511.02 39.08
1706 16.9245 1495.55 1473.26 38.67
1707 16.9329 1461.96 1441.19 38.24
1708 16.9413 1431.43 1414.63 37.83
1709 16.9497 1413.80 1389.56 37.60
1710 16.9581 1396.88 1373.09 37.37
1711 16.9665 1386.87 1361.05 37.24
1712 16.9749 1374.79 1353.08 37.08
1713 16.9833 1375.41 1345.41 37.09
1714 16.9917 1381.46 1348.70 37.17
1715 17.0001 1383.01 1351.52 37.19
1716 17.0085 1395.17 1357.75 37.35
1717 17.0169 1409.25 1367.51 37.54
1718 17.0253 1420.68 1381.12 37.69
1719 17.0337 1446.39 1399.57 38.03
1720 17.0421 1462.12 1422.42 38.24
1721 17.0505 1501.80 1451.01 38.75
1722 17.0589 1536.35 1486.34 39.20
1723 17.0673 1576.41 1529.53 39.70
1724 17.0757 1625.64 1581.82 40.32
1725 17.0841 1671.17 1644.54 40.88
1726 17.0925 1741.30 1719.00 41.73
1727 17.1009 1812.52 1806.36 42.57
1728 17.1093 1892.51 1907.59 43.50
1729 17.1177 1982.03 2023.19 44.52
1730 17.1261 2088.25 2152.96 45.70
1731 17.1345 2204.39 2295.50 46.95
1732 17.1429 2308.66 2447.74 48.05
1733 17.1513 2436.25 2604.24 49.36
1734 17.1597 2564.96 2756.37 50.65
1735 17.1681 2668.93 2892.46 51.66
1736 17.1765 2755.56 2998.78 52.49
1737 17.1849 2808.76 3062.15 53.00
1738 17.1933 2834.86 3073.80 53.24
1739 17.2017 2807.25 3032.22 52.98
1740 17.2101 2754.39 2943.74 52.48
1741 17.2185 2669.00 2820.22 51.66
1742 17.2269 2561.03 2675.47 50.61
1743 17.2353 2449.76 2522.18 49.49
1744 17.2437 2328.35 2370.15 48.25
1745 17.2521 2220.52 2226.04 47.12
1746 17.2605 2123.24 2093.91 46.08
1747 17.2689 2026.40 1975.81 45.02
1748 17.2773 1943.21 1864.60 44.08
1749 17.2857 1868.48 1779.06 43.23
1750 17.2941 1810.41 1704.55 42.55
1751 17.3025 1750.03 1643.15 41.83
1752 17.3109 1695.78 1592.02 41.18
1753 17.3193 1664.22 1553.71 40.79
1754 17.3277 1619.05 1525.43 40.24
1755 17.3361 1596.60 1506.39 39.96
1756 17.3445 1573.23 1495.93 39.66
1757 17.3529 1563.59 1493.57 39.54
1758 17.3613 1559.20 1498.99 39.49
1759 17.3697 1561.42 1512.02 39.51
1760 17.3781 1571.10 1532.57 39.64
1761 17.3865 1591.54 1560.55 39.89
1762 17.3949 1626.91 1595.80 40.33
1763 17.4033 1664.50 1637.90 40.80
1764 17.4117 1729.29 1686.06 41.58
1765 17.4201 1803.62 1738.74 42.47
1766 17.4285 1893.73 1793.53 43.52
1767 17.4369 1980.54 1846.89 44.50
1768 17.4453 2071.53 1894.26 45.51
1769 17.4537 2125.47 1930.74 46.10
1770 17.4621 2164.69 1952.10 46.53
1771 17.4705 2160.60 1955.89 46.48
1772 17.4789 2122.05 1941.97 46.07
1773 17.4873 2068.72 1912.21 45.48
1774 17.4957 1989.13 1869.71 44.60
1775 17.5041 1910.74 1818.21 43.71
1776 17.5125 1833.92 1761.51 42.82
1777 17.5209 1757.52 1703.13 41.92
1778 17.5293 1687.70 1646.16 41.08
1779 17.5377 1617.02 1592.53 40.21
1780 17.5461 1573.32 1543.77 39.67
1781 17.5545 1529.33 1500.66 39.11
1782 17.5629 1488.80 1463.45 38.58
1783 17.5713 1456.93 1432.10 38.17
1784 17.5797 1430.05 1406.37 37.82
1785 17.5881 1411.98 1385.92 37.58
1786 17.5965 1399.26 1370.37 37.41
1787 17.6049 1384.34 1359.39 37.21
1788 17.6133 1378.19 1352.69 37.12
1789 17.6217 1375.21 1350.08 37.08
1790 17.6301 1382.95 1351.47 37.19
1791 17.6385 1391.52 1354.37 37.30
1792 17.6469 1397.09 1364.12 37.38
1793 17.6553 1415.88 1378.46 37.63
1794 17.6637 1427.16 1397.87 37.78
1795 17.6721 1449.87 1422.97 38.08
1796 17.6805 1480.04 1454.49 38.47
1797 17.6889 1513.36 1493.22 38.90
1798 17.6973 1555.97 1540.00 39.45
1799 17.7057 1601.71 1595.65 40.02
1800 17.7141 1651.94 1660.83 40.64
1801 17.7225 1711.98 1735.99 41.38
1802 17.7309 1782.96 1821.15 42.23
1803 17.7393 1862.21 1915.61 43.15
1804 17.7477 1941.73 2017.59 44.06
1805 17.7561 2033.39 2123.72 45.09
1806 17.7645 2114.41 2228.45 45.98
1807 17.7729 2202.71 2323.91 46.93
1808 17.7813 2274.33 2400.47 47.69
1809 17.7897 2326.80 2448.51 48.24
1810 17.7981 2357.63 2461.18 48.56
1811 17.8065 2348.91 2436.88 48.47
1812 17.8149 2326.03 2382.72 48.23
1813 17.8233 2274.76 2301.63 47.69
1814 17.8317 2207.25 2206.40 46.98
1815 17.8401 2141.71 2106.03 46.28
1816 17.8485 2062.98 2007.45 45.42
1817 17.8569 1996.57 1915.27 44.68
1818 17.8653 1915.97 1832.18 43.77
1819 17.8737 1852.52 1759.63 43.04
1820 17.8821 1802.47 1698.14 42.46
1821 17.8905 1750.20 1647.74 41.84
1822 17.8989 1708.38 1609.47 41.33
1823 17.9073 1673.94 1580.50 40.91
1824 17.9157 1648.45 1561.70 40.60
1825 17.9241 1634.47 1550.74 40.43
1826 17.9325 1620.28 1551.71 40.25
1827 17.9409 1616.07 1562.51 40.20
1828 17.9493 1621.97 1583.35 40.27
1829 17.9577 1644.50 1614.58 40.55
1830 17.9661 1665.23 1656.65 40.81
1831 17.9745 1695.53 1710.03 41.18
1832 17.9829 1742.75 1775.14 41.75
1833 17.9913 1800.25 1852.16 42.43
1834 17.9997 1877.45 1940.84 43.33
1835 18.0081 1960.59 2040.03 44.28
1836 18.0165 2060.47 2147.37 45.39
1837 18.0249 2176.32 2258.62 46.65
1838 18.0333 2290.08 2367.11 47.85
1839 18.0417 2390.49 2463.92 48.89
1840 18.0501 2478.84 2538.80 49.79
1841 18.0585 2536.57 2582.44 50.36
1842 18.0669 2559.50 2589.36 50.59
1843 18.0753 2536.27 2559.64 50.36
1844 18.0837 2494.42 2498.55 49.94
1845 18.0921 2412.81 2414.31 49.12
1846 18.1005 2319.73 2315.48 48.16
1847 18.1089 2234.84 2209.56 47.27
1848 18.1173 2130.22 2102.43 46.15
1849 18.1257 2046.96 1998.53 45.24
1850 18.1341 1962.76 1901.17 44.30
1851 18.1425 1885.54 1812.50 43.42
1852 18.1509 1819.28 1743.98 42.65
1853 18.1593 1755.57 1675.71 41.90
1854 18.1677 1699.21 1617.73 41.22
1855 18.1761 1656.00 1569.61 40.69
1856 18.1845 1619.74 1530.73 40.25
1857 18.1929 1591.36 1500.48 39.89
1858 18.2013 1559.71 1478.27 39.49
1859 18.2097 1552.58 1463.61 39.40
1860 18.2181 1538.01 1456.17 39.22
1861 18.2265 1528.11 1455.78 39.09
1862 18.2349 1529.11 1462.43 39.10
1863 18.2433 1542.01 1476.26 39.27
1864 18.2517 1551.59 1497.53 39.39
1865 18.2601 1572.42 1526.58 39.65
1866 18.2685 1606.40 1559.69 40.08
1867 18.2769 1641.51 1603.49 40.52
1868 18.2853 1680.28 1657.64 40.99
1869 18.2937 1738.05 1719.91 41.69
1870 18.3021 1799.49 1789.33 42.42
1871 18.3105 1869.25 1863.88 43.23
1872 18.3189 1938.85 1939.98 44.03
1873 18.3273 1999.55 2012.24 44.72
1874 18.3357 2060.20 2073.55 45.39
1875 18.3441 2099.42 2116.03 45.82
1876 18.3525 2126.11 2132.99 46.11
1877 18.3609 2114.03 2121.18 45.98
1878 18.3693 2087.57 2082.01 45.69
1879 18.3777 2046.63 2024.40 45.24
1880 18.3861 1974.64 1949.26 44.44
1881 18.3945 1919.28 1867.40 43.81
1882 18.4029 1847.01 1784.90 42.98
1883 18.4113 1777.71 1705.90 42.16
1884 18.4197 1724.52 1632.86 41.53
1885 18.4281 1652.62 1568.67 40.65
1886 18.4365 1606.58 1510.53 40.08
1887 18.4449 1552.92 1459.91 39.41
1888 18.4533 1509.76 1416.42 38.86
1889 18.4617 1466.22 1380.34 38.29
1890 18.4701 1440.49 1349.44 37.95
1891 18.4785 1402.49 1323.56 37.45
1892 18.4869 1373.41 1302.21 37.06
1893 18.4953 1345.87 1284.76 36.69
1894 18.5037 1323.51 1270.69 36.38
1895 18.5121 1303.33 1259.50 36.10
1896 18.5205 1292.99 1250.77 35.96
1897 18.5289 1273.39 1244.15 35.68
1898 18.5373 1269.18 1239.32 35.63
1899 18.5457 1260.81 1234.23 35.51
1900 18.5541 1249.33 1232.12 35.35
1901 18.5625 1248.67 1230.88 35.34
1902 18.5709 1240.22 1229.45 35.22
1903 18.5793 1241.79 1228.85 35.24
1904 18.5877 1232.17 1228.04 35.10
1905 18.5961 1231.50 1226.84 35.09
1906 18.6045 1220.53 1225.22 34.94
1907 18.6129 1213.91 1223.37 34.84
1908 18.6213 1203.59 1221.54 34.69
1909 18.6297 1198.55 1220.04 34.62
1910 18.6381 1192.58 1219.13 34.53
1911 18.6465 1188.19 1218.98 34.47
1912 18.6549 1180.30 1219.75 34.36
1913 18.6633 1178.14 1225.26 34.32
1914 18.6717 1180.37 1228.23 34.36
1915 18.6801 1180.50 1232.40 34.36
1916 18.6885 1180.86 1237.87 34.36
1917 18.6969 1185.90 1244.78 34.44
1918 18.7053 1190.01 1253.30 34.50
1919 18.7137 1189.39 1270.75 34.49
1920 18.7221 1209.96 1283.29 34.78
1921 18.7305 1209.14 1298.26 34.77
1922 18.7389 1224.08 1316.34 34.99
1923 18.7473 1232.90 1339.09 35.11
1924 18.7557 1248.98 1364.14 35.34
1925 18.7641 1266.29 1393.72 35.58
1926 18.7725 1291.24 1428.48 35.93
1927 18.7809 1316.08 1469.16 36.28
1928 18.7893 1353.00 1516.46 36.78
1929 18.7977 1402.91 1571.01 37.46
1930 18.8061 1471.45 1633.28 38.36
1931 18.8145 1549.29 1703.44 39.36
1932 18.8229 1665.81 1781.06 40.81
1933 18.8313 1799.79 1864.83 42.42
1934 18.8397 1965.15 1952.10 44.33
1935 18.8481 2132.54 2038.47 46.18
1936 18.8565 2291.97 2117.90 47.87
1937 18.8649 2415.14 2183.43 49.14
1938 18.8733 2463.37 2224.84 49.63
1939 18.8817 2452.08 2247.14 49.52
1940 18.8901 2379.69 2247.21 48.78
1941 18.8985 2269.03 2229.89 47.63
1942 18.9069 2158.02 2201.85 46.45
1943 18.9153 2044.97 2169.34 45.22
1944 18.9237 1957.52 2136.62 44.24
1945 18.9321 1877.83 2105.37 43.33
1946 18.9405 1825.63 2074.97 42.73
1947 18.9489 1775.89 2043.42 42.14
1948 18.9573 1735.12 2008.66 41.65
1949 18.9657 1708.93 1969.71 41.34
1950 18.9741 1678.22 1927.33 40.97
1951 18.9825 1652.49 1883.72 40.65
1952 18.9909 1639.88 1841.70 40.50
1953 18.9993 1619.84 1803.84 40.25
1954 19.0077 1613.06 1772.16 40.16
1955 19.0161 1611.31 1752.41 40.14
1956 19.0245 1610.65 1736.54 40.13
1957 19.0329 1624.79 1729.46 40.31
1958 19.0413 1636.48 1731.58 40.45
1959 19.0497 1669.01 1743.39 40.85
1960 19.0581 1701.60 1765.52 41.25
1961 19.0665 1744.75 1798.81 41.77
1962 19.0749 1795.37 1844.37 42.37
1963 19.0833 1859.00 1903.60 43.12
1964 19.0917 1927.47 1978.13 43.90
1965 19.1001 2018.80 2069.85 44.93
1966 19.1085 2137.27 2180.83 46.23
1967 19.1169 2255.76 2313.11 47.49
1968 19.1253 2407.07 2468.68 49.06
1969 19.1337 2576.91 2649.07 50.76
1970 19.1421 2771.32 2850.73 52.64
1971 19.1505 2988.05 3080.88 54.66
1972 19.1589 3228.43 3331.57 56.82
1973 19.1673 3484.88 3594.41 59.03
1974 19.1757 3730.28 3855.41 61.08
1975 19.1841 3970.53 4093.35 63.01
1976 19.1925 4169.64 4283.59 64.57
1977 19.2009 4262.48 4399.95 65.29
1978 19.2093 4334.03 4424.67 65.83
1979 19.2177 4282.68 4354.52 65.44
1980 19.2261 4169.10 4202.29 64.57
1981 19.2345 4009.38 3991.60 63.32
1982 19.2429 3792.86 3749.00 61.59
1983 19.2513 3591.86 3497.76 59.93
1984 19.2597 3373.49 3262.27 58.08
1985 19.2681 3172.88 3038.06 56.33
1986 19.2765 2986.27 2838.35 54.65
1987 19.2849 2810.84 2665.47 53.02
1988 19.2933 2665.44 2520.78 51.63
1989 19.3017 2530.65 2401.55 50.31
1990 19.3101 2424.81 2307.49 49.24
1991 19.3185 2329.44 2237.13 48.26
1992 19.3269 2258.28 2189.08 47.52
1993 19.3353 2207.97 2162.06 46.99
1994 19.3437 2174.61 2155.05 46.63
1995 19.3521 2166.24 2167.20 46.54
1996 19.3605 2178.34 2197.84 46.67
1997 19.3689 2230.32 2246.31 47.23
1998 19.3773 2307.20 2311.64 48.03
1999 19.3857 2435.99 2392.22 49.36
2000 19.3941 2595.95 2485.20 50.95
2001 19.4025 2771.66 2585.96 52.65
2002 19.4109 2982.81 2687.65 54.62
2003 19.4193 3147.34 2781.76 56.10
2004 19.4277 3269.93 2856.34 57.18
2005 19.4361 3317.75 2911.26 57.60
2006 19.4445 3291.03 2940.84 57.37
2007 19.4529 3238.15 2946.92 56.90
2008 19.4613 3146.88 2933.73 56.10
2009 19.4697 3053.75 2905.38 55.26
2010 19.4781 2957.68 2866.98 54.38
2011 19.4865 2841.58 2814.57 53.31
2012 19.4949 2740.35 2751.50 52.35
2013 19.5033 2623.25 2679.10 51.22
2014 19.5117 2510.95 2599.57 50.11
2015 19.5201 2411.07 2515.88 49.10
2016 19.5285 2293.69 2435.07 47.89
2017 19.5369 2207.78 2354.29 46.99
2018 19.5453 2129.56 2280.63 46.15
2019 19.5537 2063.00 2219.48 45.42
2020 19.5621 2007.53 2168.51 44.81
2021 19.5705 1979.10 2131.44 44.49
2022 19.5789 1949.80 2109.17 44.16
2023 19.5873 1939.98 2102.34 44.05
2024 19.5957 1937.70 2111.52 44.02
2025 19.6041 1958.95 2137.39 44.26
2026 19.6125 1999.22 2180.80 44.71
2027 19.6209 2057.37 2242.81 45.36
2028 19.6293 2154.64 2324.68 46.42
2029 19.6377 2272.02 2427.72 47.67
2030 19.6461 2425.24 2553.08 49.25
2031 19.6545 2643.52 2701.41 51.42
2032 19.6629 2891.37 2872.23 53.77
2033 19.6713 3209.61 3063.52 56.65
2034 19.6797 3536.53 3270.58 59.47
2035 19.6881 3871.12 3486.10 62.22
2036 19.6965 4157.28 3700.64 64.48
2037 19.7049 4392.47 3904.59 66.28
2038 19.7133 4551.46 4089.91 67.46
2039 19.7217 4644.52 4250.55 68.15
2040 19.7301 4689.31 4380.96 68.48
2041 19.7385 4699.03 4473.50 68.55
2042 19.7469 4660.82 4518.07 68.27
2043 19.7553 4592.45 4505.30 67.77
2044 19.7637 4451.50 4431.18 66.72
2045 19.7721 4257.62 4299.84 65.25
2046 19.7805 4051.16 4122.35 63.65
2047 19.7889 3800.76 3917.26 61.65
2048 19.7973 3562.33 3689.34 59.69
2049 19.8057 3313.65 3455.23 57.56
2050 19.8141 3093.86 3224.97 55.62
2051 19.8225 2898.52 3007.35 53.84
2052 19.8309 2708.87 2806.39 52.05
2053 19.8393 2555.47 2626.14 50.55
2054 19.8477 2410.36 2467.79 49.10
2055 19.8561 2295.62 2331.15 47.91
2056 19.8645 2192.52 2214.99 46.82
2057 19.8729 2110.47 2117.64 45.94
2058 19.8813 2044.37 2037.34 45.21
2059 19.8897 1983.12 1972.33 44.53
2060 19.8981 1943.54 1921.08 44.09
2061 19.9065 1905.78 1882.30 43.66
2062 19.9149 1884.88 1855.02 43.42
2063 19.9233 1866.29 1838.56 43.20
2064 19.9317 1863.50 1832.52 43.17
2065 19.9401 1864.82 1836.83 43.18
2066 19.9485 1873.53 1848.68 43.28
2067 19.9569 1894.82 1874.41 43.53
2068 19.9653 1920.50 1911.52 43.82
2069 19.9737 1945.76 1960.62 44.11
2070 19.9821 1987.93 2022.21 44.59
2071 19.9905 2041.84 2096.45 45.19
2072 19.9989 2094.20 2182.81 45.76
2073 20.0073 2148.18 2281.71 46.35
2074 20.0157 2211.65 2384.91 47.03
2075 20.0241 2268.60 2486.73 47.63
2076 20.0325 2331.70 2580.30 48.29
2077 20.0409 2373.17 2652.61 48.72
2078 20.0493 2404.15 2692.68 49.03
2079 20.0577 2428.67 2693.81 49.28
2080 20.0661 2420.44 2656.29 49.20
2081 20.0745 2395.90 2587.35 48.95
2082 20.0829 2367.88 2498.23 48.66
2083 20.0913 2330.48 2400.64 48.28
2084 20.0997 2285.41 2304.10 47.81
2085 20.1081 2242.51 2215.18 47.36
2086 20.1165 2215.16 2137.77 47.07
2087 20.1249 2185.75 2073.90 46.75
2088 20.1333 2164.29 2024.39 46.52
2089 20.1417 2157.35 1989.47 46.45
2090 20.1501 2152.05 1969.19 46.39
2091 20.1585 2162.72 1963.55 46.51
2092 20.1669 2172.95 1972.76 46.61
2093 20.1753 2210.28 1997.21 47.01
2094 20.1837 2249.63 2037.61 47.43
2095 20.1921 2299.75 2094.90 47.96
2096 20.2005 2361.70 2170.26 48.60
2097 20.2089 2426.65 2264.99 49.26
2098 20.2173 2519.03 2380.35 50.19
2099 20.2257 2614.83 2517.10 51.14
2100 20.2341 2722.63 2675.07 52.18
2101 20.2425 2832.74 2852.18 53.22
2102 20.2509 2946.73 3043.05 54.28
2103 20.2593 3059.23 3237.86 55.31
2104 20.2677 3159.84 3410.59 56.21
2105 20.2761 3245.12 3563.59 56.97
2106 20.2845 3289.21 3665.87 57.35
2107 20.2929 3302.64 3703.14 57.47
2108 20.3013 3283.09 3671.84 57.30
2109 20.3097 3226.55 3580.03 56.80
2110 20.3181 3149.86 3443.36 56.12
2111 20.3265 3059.48 3279.40 55.31
2112 20.3349 2957.36 3103.85 54.38
2113 20.3433 2861.18 2928.90 53.49
2114 20.3517 2754.52 2763.93 52.48
2115 20.3601 2668.20 2613.95 51.65
2116 20.3685 2577.40 2483.05 50.77
2117 20.3769 2508.48 2372.93 50.08
2118 20.3853 2446.19 2284.10 49.46
2119 20.3937 2395.91 2216.22 48.95
2120 20.4021 2360.09 2168.65 48.58
2121 20.4105 2333.06 2140.74 48.30
2122 20.4189 2329.84 2131.94 48.27
2123 20.4273 2345.64 2141.91 48.43
2124 20.4357 2382.67 2170.51 48.81
2125 20.4441 2447.06 2217.63 49.47
2126 20.4525 2535.76 2283.04 50.36
2127 20.4609 2669.30 2365.98 51.67
2128 20.4693 2811.19 2464.58 53.02
2129 20.4777 2989.90 2575.39 54.68
2130 20.4861 3146.58 2693.19 56.09
2131 20.4945 3297.12 2807.75 57.42
2132 20.5029 3398.61 2919.59 58.30
2133 20.5113 3454.75 3020.03 58.78
2134 20.5197 3464.07 3106.18 58.86
2135 20.5281 3431.00 3176.28 58.57
2136 20.5365 3387.80 3227.61 58.20
2137 20.5449 3323.24 3253.71 57.65
2138 20.5533 3242.71 3252.27 56.94
2139 20.5617 3146.00 3217.31 56.09
2140 20.5701 3031.54 3147.00 55.06
2141 20.5785 2911.07 3046.02 53.95
2142 20.5869 2787.28 2920.16 52.79
2143 20.5953 2659.94 2778.05 51.57
2144 20.6037 2546.61 2630.28 50.46
2145 20.6121 2422.95 2483.89 49.22
2146 20.6205 2328.85 2346.72 48.26
2147 20.6289 2223.61 2223.07 47.16
2148 20.6373 2152.11 2115.05 46.39
2149 20.6457 2083.82 2023.22 45.65
2150 20.6541 2025.26 1947.20 45.00
2151 20.6625 1981.55 1886.16 44.51
2152 20.6709 1946.94 1839.13 44.12
2153 20.6793 1921.30 1805.29 43.83
2154 20.6877 1896.11 1783.94 43.54
2155 20.6961 1895.04 1774.68 43.53
2156 20.7045 1894.03 1777.39 43.52
2157 20.7129 1905.79 1792.22 43.66
2158 20.7213 1929.68 1819.56 43.93
2159 20.7297 1956.68 1860.00 44.23
2160 20.7381 1989.13 1914.23 44.60
2161 20.7465 2030.31 1982.81 45.06
2162 20.7549 2086.47 2065.77 45.68
2163 20.7633 2134.70 2158.73 46.20
2164 20.7717 2201.97 2265.78 46.93
2165 20.7801 2259.42 2377.71 47.53
2166 20.7885 2304.09 2485.41 48.00
2167 20.7969 2342.26 2578.56 48.40
2168 20.8053 2356.83 2640.27 48.55
2169 20.8137 2356.04 2654.85 48.54
2170 20.8221 2334.34 2634.33 48.31
2171 20.8305 2294.86 2572.98 47.90
2172 20.8389 2238.22 2480.90 47.31
2173 20.8473 2170.20 2368.49 46.59
2174 20.8557 2101.97 2249.84 45.85
2175 20.8641 2023.37 2132.16 44.98
2176 20.8725 1957.01 2021.72 44.24
2177 20.8809 1882.74 1922.32 43.39
2178 20.8893 1827.26 1835.86 42.75
2179 20.8977 1766.63 1762.85 42.03
2180 20.9061 1717.88 1703.04 41.45
2181 20.9145 1682.41 1655.86 41.02
2182 20.9229 1650.18 1620.56 40.62
2183 20.9313 1631.93 1596.50 40.40
2184 20.9397 1614.83 1583.10 40.19
2185 20.9481 1622.87 1579.91 40.28
2186 20.9565 1638.98 1586.50 40.48
2187 20.9649 1670.78 1602.29 40.88
2188 20.9733 1717.78 1628.15 41.45
2189 20.9817 1777.95 1658.58 42.17
2190 20.9901 1847.75 1692.31 42.99
2191 20.9985 1907.60 1724.66 43.68
2192 21.0069 1951.46 1749.56 44.18
2193 21.0153 1967.52 1760.68 44.36
2194 21.0237 1956.96 1753.41 44.24
2195 21.0321 1902.75 1726.67 43.62
2196 21.0405 1836.48 1684.52 42.85
2197 21.0489 1746.52 1630.04 41.79
2198 21.0573 1666.16 1570.41 40.82
2199 21.0657 1581.51 1510.61 39.77
2200 21.0741 1505.16 1453.98 38.80
2201 21.0825 1439.43 1402.28 37.94
2202 21.0909 1380.00 1356.20 37.15
2203 21.0993 1329.92 1311.07 36.47
2204 21.1077 1287.92 1275.91 35.89
2205 21.1161 1248.15 1245.46 35.33
2206 21.1245 1210.18 1219.13 34.79
2207 21.1329 1186.65 1196.40 34.45
2208 21.1413 1164.49 1176.74 34.12
2209 21.1497 1142.12 1159.72 33.80
2210 21.1581 1121.79 1144.97 33.49
2211 21.1665 1111.53 1132.17 33.34
2212 21.1749 1093.15 1121.05 33.06
2213 21.1833 1084.36 1111.41 32.93
2214 21.1917 1071.22 1103.08 32.73
2215 21.2001 1064.95 1095.92 32.63
2216 21.2085 1062.84 1089.85 32.60
2217 21.2169 1057.07 1084.80 32.51
2218 21.2253 1051.37 1080.74 32.42
2219 21.2337 1052.71 1079.19 32.45
2220 21.2421 1048.53 1077.13 32.38
2221 21.2505 1047.22 1076.12 32.36
2222 21.2589 1043.92 1076.21 32.31
2223 21.2673 1049.61 1077.50 32.40
2224 21.2757 1050.32 1080.10 32.41
2225 21.2841 1047.73 1084.12 32.37
2226 21.2925 1053.08 1089.65 32.45
2227 21.3009 1048.11 1096.72 32.37
2228 21.3093 1055.44 1105.26 32.49
2229 21.3177 1061.35 1114.91 32.58
2230 21.3261 1068.17 1125.02 32.68
2231 21.3345 1067.08 1126.68 32.67
2232 21.3429 1072.34 1134.15 32.75
2233 21.3513 1069.33 1138.01 32.70
2234 21.3597 1072.88 1137.23 32.75
2235 21.3681 1074.66 1130.60 32.78
2236 21.3765 1071.22 1121.16 32.73
2237 21.3849 1068.09 1109.25 32.68
2238 21.3933 1070.10 1096.40 32.71
2239 21.4017 1065.00 1083.82 32.63
2240 21.4101 1062.14 1072.30 32.59
2241 21.4185 1064.39 1062.26 32.62
2242 21.4269 1056.51 1053.88 32.50
2243 21.4353 1060.05 1047.17 32.56
2244 21.4437 1052.20 1043.81 32.44
2245 21.4521 1052.20 1040.29 32.44
2246 21.4605 1058.96 1038.27 32.54
2247 21.4689 1056.85 1039.29 32.51
2248 21.4773 1056.69 1040.85 32.51
2249 21.4857 1062.27 1043.33 32.59
2250 21.4941 1062.85 1047.41 32.60
2251 21.5025 1062.45 1053.25 32.60
2252 21.5109 1070.11 1061.00 32.71
2253 21.5193 1073.40 1070.88 32.76
2254 21.5277 1078.77 1083.10 32.84
2255 21.5361 1082.05 1097.85 32.89
2256 21.5445 1089.43 1112.48 33.01
2257 21.5529 1093.10 1132.21 33.06
2258 21.5613 1103.35 1153.65 33.22
2259 21.5697 1111.01 1175.49 33.33
2260 21.5781 1117.54 1195.65 33.43
2261 21.5865 1122.97 1208.02 33.51
2262 21.5949 1126.51 1217.37 33.56
2263 21.6033 1130.53 1218.77 33.62
2264 21.6117 1133.53 1210.25 33.67
2265 21.6201 1130.47 1198.66 33.62
2266 21.6285 1136.15 1184.22 33.71
2267 21.6369 1138.05 1169.53 33.74
2268 21.6453 1138.57 1156.51 33.74
2269 21.6537 1136.69 1146.88 33.71
2270 21.6621 1144.59 1140.36 33.83
2271 21.6705 1151.79 1137.78 33.94
2272 21.6789 1159.51 1139.30 34.05
2273 21.6873 1171.93 1147.58 34.23
2274 21.6957 1189.16 1157.81 34.48
2275 21.7041 1208.04 1172.71 34.76
2276 21.7125 1234.16 1192.58 35.13
2277 21.7209 1265.67 1217.78 35.58
2278 21.7293 1297.55 1248.62 36.02
2279 21.7377 1344.68 1285.31 36.67
2280 21.7461 1398.65 1327.81 37.40
2281 21.7545 1451.52 1375.74 38.10
2282 21.7629 1499.44 1428.27 38.72
2283 21.7713 1548.29 1484.23 39.35
2284 21.7797 1596.71 1542.05 39.96
2285 21.7881 1631.14 1599.47 40.39
2286 21.7965 1663.34 1653.33 40.78
2287 21.8049 1681.83 1699.22 41.01
2288 21.8133 1690.89 1732.04 41.12
2289 21.8217 1686.75 1747.39 41.07
2290 21.8301 1677.55 1742.98 40.96
2291 21.8385 1652.44 1714.62 40.65
2292 21.8469 1613.58 1674.90 40.17
2293 21.8553 1576.35 1623.68 39.70
2294 21.8637 1540.78 1565.48 39.25
2295 21.8721 1502.56 1507.24 38.76
2296 21.8805 1468.11 1452.20 38.32
2297 21.8889 1440.95 1404.07 37.96
2298 21.8973 1416.70 1362.86 37.64
2299 21.9057 1403.51 1330.13 37.46
2300 21.9141 1392.96 1306.09 37.32
2301 21.9225 1383.55 1290.67 37.20
2302 21.9309 1392.83 1283.73 37.32
loop_
_pd_proc_info_excluded_regions
'from 0.999 to 2.600'
'from 21.94 to 22.014'
loop_
_cod_changelog_entry_id
_cod_changelog_entry_author
_cod_changelog_entry_date
_cod_changelog_entry_text
1 'Vaitkus, Antanas' 2022-05-09T03:40:00+03:00
'Updated bibliographic information.'
