#------------------------------------------------------------------------------
#$Date: 2022-05-09 03:44:03 +0300 (Mon, 09 May 2022) $
#$Revision: 275240 $
#$URL: file:///home/coder/svn-repositories/cod/cif/7/11/91/7119156.cif $
#------------------------------------------------------------------------------
#
# This file is available in the Crystallography Open Database (COD),
# http://www.crystallography.net/
#
# All data on this site have been placed in the public domain by the
# contributors.
#
data_7119156
loop_
_publ_author_name
'Wood, Peter A.'
'Sarjeant, Amy A.'
'Yakovenko, Andrey A.'
'Ward, Suzanna C.'
'Groom, Colin R.'
_publ_section_title
;
 Capturing neon -- the first experimental structure of neon
 trapped within a metal-organic environment
;
_journal_coden_ASTM              CHCOFS
_journal_issue                   65
_journal_name_full
'Chemical Communications (Cambridge, United Kingdom)'
_journal_page_first              10048
_journal_page_last               10051
_journal_paper_doi               10.1039/c6cc04808k
_journal_volume                  52
_journal_year                    2016
_chemical_absolute_configuration .
_chemical_formula_moiety         '[Cu2(C17H14N10O4) 0.892(Ne)]n'
_chemical_formula_sum            'C8.5 H7 Cu N5 Ne0.446 O2'
_chemical_formula_weight         283.7
_space_group_IT_number           15
_symmetry_cell_setting           monoclinic
_symmetry_Int_Tables_number      15
_symmetry_space_group_name_Hall  '-C 2yc'
_symmetry_space_group_name_H-M   'C 1 2/c 1'
_cell_angle_alpha                90
_cell_angle_beta                 116.615(4)
_cell_angle_gamma                90
_cell_formula_units_Z            8
_cell_length_a                   28.6315(13)
_cell_length_b                   9.2743(5)
_cell_length_c                   9.2833(5)
_cell_measurement_temperature    100
_cell_volume                     2203.9(2)
_computing_cell_refinement       'Jana 2006 (Petricek, 2006)'
_computing_data_reduction        'GSASII(Toby & Von Dreele, 2013)'
_computing_molecular_graphics    'Mercury (version, 2015)'
_computing_publication_material  'Jana 2006 (Petricek, 2006)'
_computing_structure_refinement  'Jana 2006 (Petricek, 2006)'
_diffrn_ambient_temperature      100
_diffrn_detector                 'Flat Panel Detector'
_diffrn_detector_type            'Perkin-Elmer amorphous-Si'
_diffrn_measurement_device       '17-BM-B beamline'
_diffrn_radiation_monochromator  'PSL DCM Si(111)'
_diffrn_radiation_probe          x-ray
_diffrn_radiation_type           synchrotron
_diffrn_radiation_wavelength     0.72768
_diffrn_source                   synchrotron
_diffrn_source_type              synchrotron
_exptl_absorpt_coefficient_mu    2.13
_exptl_crystal_density_diffrn    1.7102
_exptl_crystal_F_000             1140
_pd_char_colour                  blue
_pd_char_particle_morphology     'small crystalline powder'
_pd_instr_location
; 
17-BM-B line diffractometer, APS, Argonne National Lab (USA)
;
_pd_meas_2theta_range_inc        0.008
_pd_meas_2theta_range_max        21.992
_pd_meas_2theta_range_min        1.000
_pd_meas_number_of_points        2500
_pd_prep_cool_rate               0.0
_pd_prep_pressure                10000
_pd_prep_temperature             100(2)
_pd_proc_2theta_range_inc        0.008
_pd_proc_2theta_range_max        21.798
_pd_proc_2theta_range_min        2.008
_pd_proc_ls_background_function  '10 Chebyshev polynoms'
_pd_proc_ls_pref_orient_corr     none
_pd_proc_ls_profile_function     Pseudo-Voigt
_pd_proc_ls_prof_R_factor        0.0332
_pd_proc_ls_prof_wR_expected     0.0126
_pd_proc_ls_prof_wR_factor       0.0441
_pd_proc_wavelength              0.72768
_pd_spec_mounting                'capton capillary with Ne exchange gas'
_pd_spec_mount_mode              transmission
_pd_spec_shape                   cylinder
_pd_spec_size_axial              10.0
_pd_spec_size_equat              0.9
_pd_spec_size_thick              0.9
_refine_diff_density_max         0.16
_refine_diff_density_min         -0.22
_refine_ls_goodness_of_fit_all   3.51
_refine_ls_hydrogen_treatment    constr
_refine_ls_number_constraints    43
_refine_ls_number_parameters     73
_refine_ls_number_restraints     31
_refine_ls_R_factor_all          0.0320
_refine_ls_R_factor_gt           0.0308
_refine_ls_shift/su_max          0.0130
_refine_ls_shift/su_mean         0.0006
_refine_ls_weighting_scheme      sigma
_refine_ls_wR_factor_all         0.0432
_refine_ls_wR_factor_gt          0.0430
_cod_data_source_file            c6cc04808k2-3.cif
_cod_data_source_block           100K100bar
_cod_depositor_comments
;
The following automatic conversions were performed:

'_diffrn_radiation_probe' value 'X-ray' changed to 'x-ray' according
to the built-in table from CIF Core dictionary named 'cif_core.dic'
version 2.4.1 from 2010-06-29.

Automatic conversion script
Id: cif_fix_values 4624 2016-04-14 12:54:50Z antanas 
;
_cod_original_sg_symbol_H-M      'C 2/c'
_cod_original_formula_sum        'C8.5 H7 Cu1 N5 Ne0.446 O2'
_cod_database_code               7119156
loop_
_space_group_symop_id
_space_group_symop_operation_xyz
1 x,y,z
2 -x,y,-z+1/2
3 -x,-y,-z
4 x,-y,z+1/2
5 x+1/2,y+1/2,z
6 -x+1/2,y+1/2,-z+1/2
7 -x+1/2,-y+1/2,-z
8 x+1/2,-y+1/2,z+1/2
loop_
_atom_site_label
_atom_site_type_symbol
_atom_site_fract_x
_atom_site_fract_y
_atom_site_fract_z
_atom_site_adp_type
_atom_site_U_iso_or_equiv
_atom_site_site_symmetry_multiplicity
_atom_site_occupancy
_atom_site_calc_flag
_atom_site_refinement_flags
_atom_site_disorder_assembly
_atom_site_disorder_group
Cu1 Cu 0.18764(18) 0.8269(6) 0.3103(7) Uiso 0.043(3) 8 1 d . . .
O1 O 0.1271(6) 1.0664(17) 0.334(2) Uiso 0.036(4) 8 1 d . . .
O2 O 0.1372(5) 1.176(2) 0.5621(17) Uiso 0.036(4) 8 1 d . . .
N1 N 0.2208(5) 1.0110(17) 0.7329(14) Uiso 0.036(4) 8 1 d . . .
N2 N 0.2577(4) 0.9082(19) 0.7884(14) Uiso 0.036(4) 8 1 d . . .
N3 N 0.2512(4) 0.8247(15) 0.6652(18) Uiso 0.036(4) 8 1 d . . .
N4 N 0.2109(5) 0.8722(16) 0.5326(14) Uiso 0.036(4) 8 1 d . . .
N11 N 0.1422(3) 0.6614(8) 0.3189(12) Uiso 0.036(4) 8 1 d . . .
C1 C 0.1482(3) 1.0844(13) 0.4805(19) Uiso 0.036(4) 8 1 d . . .
C2 C 0.1928(3) 0.9864(11) 0.5767(13) Uiso 0.036(4) 8 1 d . . .
C11 C 0.1110(5) 0.7198(9) 0.3772(13) Uiso 0.036(4) 8 1 d . . .
C12 C 0.0740(4) 0.6438(10) 0.4047(12) Uiso 0.036(4) 8 1 d . . .
C13 C 0.06917(17) 0.4974(9) 0.3689(5) Uiso 0.036(4) 8 1 d . . .
C14 C 0.1007(3) 0.4335(8) 0.3086(12) Uiso 0.036(4) 8 1 d . . .
C15 C 0.1366(3) 0.5193(8) 0.2854(14) Uiso 0.036(4) 8 1 d . . .
C16 C 0.02973(13) 0.4077(12) 0.39570(14) Uiso 0.036(4) 8 1 d . . .
C17 C 0 0.3136(13) 0.25 Uiso 0.036(4) 4 1 d . . .
H1c11 H 0.114705 0.821055 0.401414 Uiso 0.0434 8 1 d . . .
H1c12 H 0.052662 0.6903 0.44649 Uiso 0.0434 8 1 d . . .
H1c14 H 0.097777 0.3325 0.283528 Uiso 0.0434 8 1 d . . .
H1c15 H 0.158355 0.475305 0.243733 Uiso 0.0434 8 1 d . . .
H1c16 H 0.047508 0.347965 0.489059 Uiso 0.0434 8 1 d . . .
H2c16 H 0.005764 0.470107 0.411951 Uiso 0.0434 8 1 d . . .
H1c17 H 0.02411(7) 0.2538(13) 0.2312(3) Uiso 0.0434 8 1 d . . .
Ne1 Ne 0 -0.010(4) 0.25 Uiso 0.108 4 0.480(9) d . . .
Ne2 Ne 0 0 0 Uiso 0.108 4 0.411(8) d . . .
loop_
_atom_type_symbol
_atom_type_scat_dispersion_real
_atom_type_scat_dispersion_imag
_atom_type_scat_source
C 0.0037 0.0018 'International Tables Vol C tables 4.2.6.8 and 6.1.1.1'
H 0.0000 0.0000 'International Tables Vol C tables 4.2.6.8 and 6.1.1.1'
Cu 0.3158 1.3275 'International Tables Vol C tables 4.2.6.8 and 6.1.1.1'
N 0.0071 0.0036 'International Tables Vol C tables 4.2.6.8 and 6.1.1.1'
Ne 0.0277 0.0178 'International Tables Vol C tables 4.2.6.8 and 6.1.1.1'
O 0.0121 0.0066 'International Tables Vol C tables 4.2.6.8 and 6.1.1.1'
loop_
_geom_angle_atom_site_label_1
_geom_angle_atom_site_label_2
_geom_angle_atom_site_label_3
_geom_angle_site_symmetry_1
_geom_angle_site_symmetry_2
_geom_angle_site_symmetry_3
_geom_angle
N1 Cu1 N4 4_574 . . 102.9(6)
N1 Cu1 N11 4_574 . . 163.9(5)
N4 Cu1 N11 . . . 92.5(6)
Cu1 N1 N2 4_575 . . 141.8(10)
Cu1 N1 C2 4_575 . . 111.1(9)
N2 N1 C2 . . . 106.5(13)
N1 N2 N3 . . . 107.6(10)
N2 N3 N4 . . . 109.5(13)
Cu1 N4 N3 . . . 131.8(13)
Cu1 N4 C2 . . . 121.0(9)
N3 N4 C2 . . . 106.1(12)
Cu1 N11 C11 . . . 105.2(6)
Cu1 N11 C15 . . . 137.8(9)
C11 N11 C15 . . . 117.0(10)
O1 C1 O2 . . . 128.4(12)
O1 C1 C2 . . . 116.4(14)
O2 C1 C2 . . . 115.2(13)
N1 C2 N4 . . . 110.4(10)
N1 C2 C1 . . . 119.0(12)
N4 C2 C1 . . . 130.6(11)
N11 C11 C12 . . . 124.6(8)
N11 C11 H1c11 . . . 117.72
C12 C11 H1c11 . . . 117.72
C11 C12 C13 . . . 117.0(10)
C11 C12 H1c12 . . . 121.51
C13 C12 H1c12 . . . 121.51
C12 C13 C14 . . . 120.0(8)
C12 C13 C16 . . . 120.0(8)
C14 C13 C16 . . . 120.0(8)
C13 C14 C15 . . . 118.5(7)
C13 C14 H1c14 . . . 120.77
C15 C14 H1c14 . . . 120.77
N11 C15 C14 . . . 123.0(11)
N11 C15 H1c15 . . . 118.5
C14 C15 H1c15 . . . 118.5
C13 C16 C17 . . . 109.5(3)
C13 C16 H1c16 . . . 109.47
C13 C16 H2c16 . . . 109.47
C17 C16 H1c16 . . . 109.47
C17 C16 H2c16 . . . 109.47
H1c16 C16 H2c16 . . . 109.47
C16 C17 C16 . . 2_555 109.5(9)
C16 C17 H1c17 . . . 109.5(4)
C16 C17 H1c17 . . 2_555 109.5(4)
C16 C17 H1c17 2_555 . . 109.5(4)
C16 C17 H1c17 2_555 . 2_555 109.5(4)
H1c17 C17 H1c17 . . 2_555 109.5(14)
Ne2 Ne1 Ne2 . . 2_555 175.3(19)
Ne1 Ne2 Ne1 . . 3_555 180.0(5)
loop_
_geom_bond_atom_site_label_1
_geom_bond_atom_site_label_2
_geom_bond_site_symmetry_1
_geom_bond_site_symmetry_2
_geom_bond_distance
Cu1 N1 . 4_574 2.070(17)
Cu1 N4 . . 1.910(14)
Cu1 N11 . . 2.037(11)
O1 C1 . . 1.23(2)
O2 C1 . . 1.27(2)
N1 N2 . . 1.34(2)
N1 C2 . . 1.325(15)
N2 N3 . . 1.32(2)
N3 N4 . . 1.329(16)
N4 C2 . . 1.321(19)
N11 C11 . . 1.347(19)
N11 C15 . . 1.347(11)
C1 C2 . . 1.494(12)
C11 C12 . . 1.390(19)
C11 H1c11 . . 0.96
C12 C13 . . 1.390(13)
C12 H1c12 . . 0.96
C13 C14 . . 1.390(12)
C13 C16 . . 1.511(10)
C14 C15 . . 1.390(14)
C14 H1c14 . . 0.96
C15 H1c15 . . 0.96
C16 C17 . . 1.511(10)
C16 H1c16 . . 0.96
C16 H2c16 . . 0.96
C17 H1c17 . . 0.960(10)
C17 H1c17 . 2_555 0.960(10)
Ne1 Ne2 . . 2.3228(16)
Ne1 Ne2 . 2_555 2.3228(16)
loop_
_pd_proc_point_id
_pd_proc_2theta_corrected
_pd_proc_intensity_net
_pd_calc_intensity_net
_pd_proc_ls_weight
1 2.0172 5389.05 4963.53 73.41
2 2.0256 5419.02 4999.77 73.61
3 2.0340 5402.24 5035.33 73.50
4 2.0424 5385.42 5070.21 73.39
5 2.0508 5423.80 5104.43 73.65
6 2.0592 5391.61 5137.99 73.43
7 2.0676 5411.19 5170.90 73.56
8 2.0760 5447.39 5203.17 73.81
9 2.0844 5395.89 5234.80 73.46
10 2.0928 5423.27 5265.79 73.64
11 2.1012 5442.82 5296.17 73.78
12 2.1096 5381.24 5325.93 73.36
13 2.1180 5437.92 5355.08 73.74
14 2.1264 5406.13 5383.63 73.53
15 2.1348 5404.79 5411.59 73.52
16 2.1432 5445.47 5438.96 73.79
17 2.1516 5396.33 5465.75 73.46
18 2.1600 5429.09 5491.96 73.68
19 2.1684 5453.22 5517.60 73.85
20 2.1768 5415.34 5542.68 73.59
21 2.1852 5456.60 5567.21 73.87
22 2.1936 5432.76 5591.19 73.71
23 2.2020 5415.75 5614.63 73.59
24 2.2104 5462.15 5637.53 73.91
25 2.2188 5424.42 5659.90 73.65
26 2.2272 5442.55 5681.75 73.77
27 2.2356 5475.99 5703.08 74.00
28 2.2440 5454.46 5723.90 73.85
29 2.2524 5469.39 5744.22 73.96
30 2.2608 5500.10 5764.04 74.16
31 2.2692 5459.56 5783.36 73.89
32 2.2776 5497.55 5802.20 74.15
33 2.2860 5488.21 5820.56 74.08
34 2.2944 5478.56 5838.45 74.02
35 2.3028 5495.43 5855.87 74.13
36 2.3112 5480.12 5872.82 74.03
37 2.3196 5492.06 5889.31 74.11
38 2.3280 5530.76 5905.36 74.37
39 2.3364 5488.96 5920.96 74.09
40 2.3448 5552.10 5936.11 74.51
41 2.3532 5544.84 5950.84 74.46
42 2.3616 5528.82 5965.13 74.36
43 2.3700 5575.14 5979.00 74.67
44 2.3784 5543.99 5992.46 74.46
45 2.3868 5567.53 6005.50 74.62
46 2.3952 5615.05 6018.13 74.93
47 2.4036 5567.46 6030.36 74.62
48 2.4120 5622.35 6042.19 74.98
49 2.4204 5641.10 6053.63 75.11
50 2.4288 5623.69 6064.69 74.99
51 2.4372 5688.52 6075.36 75.42
52 2.4456 5691.09 6085.66 75.44
53 2.4540 5703.17 6095.58 75.52
54 2.4624 5757.11 6105.14 75.88
55 2.4708 5752.25 6114.34 75.84
56 2.4792 5772.10 6123.18 75.97
57 2.4876 5826.19 6131.67 76.33
58 2.4960 5809.65 6139.81 76.22
59 2.5044 5867.78 6147.61 76.60
60 2.5128 5881.86 6155.08 76.69
61 2.5212 5900.45 6162.21 76.81
62 2.5296 5974.53 6169.01 77.30
63 2.5380 5974.76 6175.49 77.30
64 2.5464 6008.61 6181.65 77.52
65 2.5548 6053.12 6187.50 77.80
66 2.5632 6073.48 6193.03 77.93
67 2.5716 6126.20 6198.26 78.27
68 2.5800 6154.73 6203.19 78.45
69 2.5884 6187.64 6207.83 78.66
70 2.5968 6239.76 6212.17 78.99
71 2.6052 6270.38 6216.23 79.19
72 2.6136 6301.58 6220.00 79.38
73 2.6220 6391.92 6223.49 79.95
74 2.6304 6389.56 6226.71 79.93
75 2.6388 6433.56 6229.65 80.21
76 2.6472 6494.74 6232.33 80.59
77 2.6556 6480.33 6234.75 80.50
78 2.6640 6525.47 6236.91 80.78
79 2.6724 6593.68 6238.81 81.20
80 2.6808 6581.48 6240.46 81.13
81 2.6892 6634.05 6241.87 81.45
82 2.6976 6645.84 6243.03 81.52
83 2.7060 6695.13 6243.96 81.82
84 2.7144 6733.89 6244.65 82.06
85 2.7228 6743.24 6245.10 82.12
86 2.7312 6782.97 6356.66 82.36
87 2.7396 6823.14 6360.29 82.60
88 2.7480 6782.68 6363.88 82.36
89 2.7564 6848.91 6367.45 82.76
90 2.7648 6838.42 6371.00 82.69
91 2.7732 6818.58 6374.57 82.57
92 2.7816 6858.95 6378.16 82.82
93 2.7900 6835.12 6381.80 82.67
94 2.7984 6839.31 6385.52 82.70
95 2.8068 6854.02 6389.32 82.79
96 2.8152 6810.33 6393.25 82.52
97 2.8236 6827.23 6397.33 82.63
98 2.8320 6855.04 6401.58 82.80
99 2.8404 6794.06 6406.04 82.43
100 2.8488 6839.16 6410.74 82.70
101 2.8572 6827.33 6415.73 82.63
102 2.8656 6861.79 6421.05 82.84
103 2.8740 6908.54 6426.74 83.12
104 2.8824 6921.67 6432.85 83.20
105 2.8908 7014.56 6439.44 83.75
106 2.8992 7112.33 6446.58 84.33
107 2.9076 7162.06 6454.33 84.63
108 2.9160 7320.36 6462.78 85.56
109 2.9244 7453.68 6472.01 86.33
110 2.9328 7538.63 6482.12 86.83
111 2.9412 7655.69 6493.22 87.50
112 2.9496 7652.15 6505.43 87.48
113 2.9580 7632.20 6518.91 87.36
114 2.9664 7588.75 6533.81 87.11
115 2.9748 7471.58 6550.32 86.44
116 2.9832 7413.37 6568.66 86.10
117 2.9916 7369.93 6589.07 85.85
118 3.0000 7289.72 6611.83 85.38
119 3.0084 7287.86 6637.29 85.37
120 3.0168 7241.69 6665.82 85.10
121 3.0252 7247.76 6697.89 85.13
122 3.0336 7278.78 6734.04 85.32
123 3.0420 7273.79 6774.90 85.29
124 3.0504 7312.43 6821.26 85.51
125 3.0588 7383.21 6874.03 85.93
126 3.0672 7421.19 6934.33 86.15
127 3.0756 7492.69 7003.53 86.56
128 3.0840 7617.24 7083.31 87.28
129 3.0924 7686.25 7175.76 87.67
130 3.1008 7846.42 7283.50 88.58
131 3.1092 8023.84 7409.86 89.58
132 3.1176 8242.61 7559.17 90.79
133 3.1260 8508.23 7737.32 92.24
134 3.1344 8865.74 7953.01 94.16
135 3.1428 9321.19 8220.66 96.55
136 3.1512 9924.39 8567.21 99.62
137 3.1596 10753.20 9046.60 103.70
138 3.1680 11928.50 9766.64 109.22
139 3.1764 13601.60 10931.00 116.63
140 3.1848 16219.30 12888.40 127.36
141 3.1932 19326.50 16164.10 139.02
142 3.2016 24659.70 21423.80 157.03
143 3.2100 31442.00 29323.20 177.32
144 3.2184 40239.00 40223.80 200.60
145 3.2268 51734.10 53840.30 227.45
146 3.2352 66918.10 68915.00 258.68
147 3.2436 82343.20 83018.50 286.95
148 3.2520 93574.40 92664.60 305.90
149 3.2604 97819.20 94528.10 312.76
150 3.2688 90628.10 87853.10 301.05
151 3.2772 75958.00 75160.90 275.61
152 3.2856 58652.50 60114.10 242.18
153 3.2940 43140.60 45645.50 207.70
154 3.3024 32370.10 33492.80 179.92
155 3.3108 23528.30 24320.20 153.39
156 3.3192 17521.20 17996.10 132.37
157 3.3276 13631.90 13949.30 116.76
158 3.3360 10950.00 11491.40 104.64
159 3.3444 9421.99 10027.80 97.07
160 3.3528 8354.90 9136.01 91.41
161 3.3612 7668.21 8556.66 87.57
162 3.3696 7235.73 8147.23 85.06
163 3.3780 6905.83 7835.11 83.10
164 3.3864 6684.39 7584.29 81.76
165 3.3948 6520.62 7376.20 80.75
166 3.4032 6385.13 7200.25 79.91
167 3.4116 6237.43 7049.58 78.98
168 3.4200 6189.44 6919.29 78.67
169 3.4284 6111.41 6805.67 78.18
170 3.4368 6047.00 6705.84 77.76
171 3.4452 6032.44 6617.50 77.67
172 3.4536 5966.73 6538.82 77.24
173 3.4620 5945.06 6468.31 77.10
174 3.4704 5934.46 6404.75 77.04
175 3.4788 5889.65 6347.15 76.74
176 3.4872 5859.22 6294.69 76.55
177 3.4956 5829.27 6246.67 76.35
178 3.5040 5772.72 6202.50 75.98
179 3.5124 5746.76 6161.73 75.81
180 3.5208 5683.53 6123.91 75.39
181 3.5292 5651.06 6088.72 75.17
182 3.5376 5615.86 6055.83 74.94
183 3.5460 5563.46 6025.00 74.59
184 3.5544 5528.92 5996.01 74.36
185 3.5628 5517.88 5968.65 74.28
186 3.5712 5474.32 5942.76 73.99
187 3.5796 5450.31 5918.20 73.83
188 3.5880 5433.42 5894.83 73.71
189 3.5964 5393.52 5872.54 73.44
190 3.6048 5401.80 5851.23 73.50
191 3.6132 5349.12 5830.82 73.14
192 3.6216 5358.74 5811.22 73.20
193 3.6300 5356.52 5792.37 73.19
194 3.6384 5301.61 5774.20 72.81
195 3.6468 5328.53 5756.66 73.00
196 3.6552 5311.42 5739.70 72.88
197 3.6636 5281.49 5723.27 72.67
198 3.6720 5300.18 5707.33 72.80
199 3.6804 5293.06 5691.86 72.75
200 3.6888 5267.36 5676.81 72.58
201 3.6972 5290.25 5662.15 72.73
202 3.7056 5239.73 5647.87 72.39
203 3.7140 5271.28 5633.93 72.60
204 3.7224 5255.68 5620.32 72.50
205 3.7308 5215.05 5607.00 72.22
206 3.7392 5245.91 5593.98 72.43
207 3.7476 5212.82 5581.22 72.20
208 3.7560 5204.01 5568.72 72.14
209 3.7644 5221.32 5556.46 72.26
210 3.7728 5207.46 5544.43 72.16
211 3.7812 5200.50 5532.61 72.11
212 3.7896 5207.50 5411.67 72.16
213 3.7980 5171.94 5403.62 71.92
214 3.8064 5187.89 5395.59 72.03
215 3.8148 5160.37 5387.61 71.84
216 3.8232 5141.09 5379.65 71.70
217 3.8316 5173.59 5371.74 71.93
218 3.8400 5155.17 5363.85 71.80
219 3.8484 5148.72 5356.01 71.75
220 3.8568 5161.75 5348.21 71.85
221 3.8652 5145.84 5340.44 71.73
222 3.8736 5145.56 5332.72 71.73
223 3.8820 5171.53 5325.03 71.91
224 3.8904 5139.14 5317.38 71.69
225 3.8988 5169.96 5309.78 71.90
226 3.9072 5168.69 5302.22 71.89
227 3.9156 5168.21 5294.70 71.89
228 3.9240 5192.41 5287.22 72.06
229 3.9324 5181.48 5279.79 71.98
230 3.9408 5176.11 5272.40 71.95
231 3.9492 5184.43 5265.06 72.00
232 3.9576 5157.90 5257.77 71.82
233 3.9660 5155.31 5250.52 71.80
234 3.9744 5144.07 5243.31 71.72
235 3.9828 5126.22 5236.16 71.60
236 3.9912 5124.91 5229.05 71.59
237 3.9996 5117.23 5221.99 71.53
238 4.0080 5104.70 5214.97 71.45
239 4.0164 5116.24 5208.01 71.53
240 4.0248 5100.60 5201.10 71.42
241 4.0332 5101.99 5194.23 71.43
242 4.0416 5099.19 5187.42 71.41
243 4.0500 5071.50 5180.66 71.21
244 4.0584 5078.49 5173.95 71.26
245 4.0668 5067.81 5167.29 71.19
246 4.0752 5066.93 5160.69 71.18
247 4.0836 5087.09 5154.13 71.32
248 4.0920 5037.62 5147.63 70.98
249 4.1004 5052.29 5141.18 71.08
250 4.1088 5116.95 5134.79 71.53
251 4.1172 5035.02 5128.45 70.96
252 4.1256 5051.01 5122.16 71.07
253 4.1340 5054.15 5115.93 71.09
254 4.1424 5031.32 5109.76 70.93
255 4.1508 5056.34 5103.64 71.11
256 4.1592 5033.95 5097.57 70.95
257 4.1676 5039.32 5091.56 70.99
258 4.1760 5049.41 5085.61 71.06
259 4.1844 5032.06 5079.71 70.94
260 4.1928 5048.82 5073.87 71.06
261 4.2012 5046.08 5068.09 71.04
262 4.2096 5033.93 5062.36 70.95
263 4.2180 5043.80 5056.70 71.02
264 4.2264 5026.14 5051.08 70.90
265 4.2348 5021.63 5047.29 70.86
266 4.2432 5018.97 5041.85 70.84
267 4.2516 5011.11 5036.47 70.79
268 4.2600 5013.06 5031.16 70.80
269 4.2684 5030.23 5025.90 70.92
270 4.2768 4996.77 5020.71 70.69
271 4.2852 5010.01 5015.57 70.78
272 4.2936 5006.43 5010.50 70.76
273 4.3020 4986.02 5005.50 70.61
274 4.3104 5015.93 5000.56 70.82
275 4.3188 4995.55 4995.68 70.68
276 4.3272 5003.14 4990.86 70.73
277 4.3356 5025.67 4986.11 70.89
278 4.3440 4996.65 4981.43 70.69
279 4.3524 5009.73 4976.81 70.78
280 4.3608 5014.20 4972.26 70.81
281 4.3692 4983.42 4967.78 70.59
282 4.3776 5008.97 4963.36 70.77
283 4.3860 5005.21 4959.01 70.75
284 4.3944 4981.21 4954.73 70.58
285 4.4028 5002.91 4950.53 70.73
286 4.4112 4976.14 4946.39 70.54
287 4.4196 4981.39 4942.32 70.58
288 4.4280 4990.53 4938.33 70.64
289 4.4364 4983.93 4934.41 70.60
290 4.4448 4999.79 4930.57 70.71
291 4.4532 4968.14 4926.81 70.49
292 4.4616 4972.73 4923.12 70.52
293 4.4700 4986.64 4919.52 70.62
294 4.4784 4979.40 4915.99 70.56
295 4.4868 4978.44 4912.56 70.56
296 4.4952 4987.66 4909.21 70.62
297 4.5036 4969.69 4905.96 70.50
298 4.5120 4978.52 4902.80 70.56
299 4.5204 4989.99 4899.74 70.64
300 4.5288 4983.17 4896.78 70.59
301 4.5372 4986.54 4893.94 70.62
302 4.5456 4978.34 4891.22 70.56
303 4.5540 4984.63 4888.62 70.60
304 4.5624 4991.33 4886.16 70.65
305 4.5708 4983.82 4883.85 70.60
306 4.5792 4991.28 4881.70 70.65
307 4.5876 4990.56 4879.73 70.64
308 4.5960 4964.72 4877.96 70.46
309 4.6044 4985.06 4876.41 70.60
310 4.6128 4978.43 4875.12 70.56
311 4.6212 4965.82 4874.13 70.47
312 4.6296 4983.84 4873.48 70.60
313 4.6380 4975.74 4873.24 70.54
314 4.6464 4977.79 4873.50 70.55
315 4.6548 4999.50 4874.37 70.71
316 4.6632 4969.82 4876.06 70.50
317 4.6716 4979.96 4878.93 70.57
318 4.6800 4986.08 4883.65 70.61
319 4.6884 4981.32 4891.52 70.58
320 4.6968 4999.84 4904.92 70.71
321 4.7052 4998.21 4927.84 70.70
322 4.7136 5016.49 4966.33 70.83
323 4.7220 5069.01 5028.21 71.20
324 4.7304 5090.89 5121.80 71.35
325 4.7388 5155.26 5253.03 71.80
326 4.7472 5260.89 5421.76 72.53
327 4.7556 5339.19 5617.74 73.07
328 4.7640 5489.75 5817.34 74.09
329 4.7724 5608.35 5981.87 74.89
330 4.7808 5662.95 6064.06 75.25
331 4.7892 5644.47 6032.96 75.13
332 4.7976 5534.97 5900.07 74.40
333 4.8060 5404.07 5708.79 73.51
334 4.8144 5293.35 5503.86 72.76
335 4.8228 5171.44 5316.36 71.91
336 4.8312 5120.31 5162.79 71.56
337 4.8396 5050.10 5047.81 71.06
338 4.8480 5016.59 4967.97 70.83
339 4.8564 5004.87 4915.71 70.75
340 4.8648 4976.71 4882.70 70.55
341 4.8732 4974.03 4861.93 70.53
342 4.8816 4980.85 4848.42 70.58
343 4.8900 4958.52 4839.06 70.42
344 4.8984 4983.62 4832.08 70.59
345 4.9068 4978.68 4826.55 70.56
346 4.9152 4950.01 4821.99 70.36
347 4.9236 4984.15 4818.12 70.60
348 4.9320 4975.19 4814.79 70.54
349 4.9404 4971.88 4811.91 70.51
350 4.9488 4998.50 4809.40 70.70
351 4.9572 4970.74 4807.19 70.50
352 4.9656 4973.46 4805.25 70.52
353 4.9740 4984.96 4803.55 70.60
354 4.9824 4970.58 4802.04 70.50
355 4.9908 4979.79 4800.72 70.57
356 4.9992 4959.80 4799.56 70.43
357 5.0076 4963.14 4798.54 70.45
358 5.0160 4991.40 4797.66 70.65
359 5.0244 4951.38 4796.90 70.37
360 5.0328 4979.25 4796.24 70.56
361 5.0412 4983.94 4795.70 70.60
362 5.0496 4960.25 4795.25 70.43
363 5.0580 4993.78 4794.89 70.67
364 5.0664 4973.80 4794.61 70.53
365 5.0748 4979.29 4794.42 70.56
366 5.0832 5000.88 4794.31 70.72
367 5.0916 4976.24 4794.27 70.54
368 5.1000 4990.70 4794.30 70.64
369 5.1084 5002.44 4794.40 70.73
370 5.1168 4983.47 4794.57 70.59
371 5.1252 5007.10 4794.80 70.76
372 5.1336 5014.93 4795.10 70.82
373 5.1420 4994.01 4795.45 70.67
374 5.1504 5022.80 4795.86 70.87
375 5.1588 5017.06 4796.33 70.83
376 5.1672 5017.21 4796.86 70.83
377 5.1756 5028.43 4797.44 70.91
378 5.1840 5010.73 4798.08 70.79
379 5.1924 5023.90 4798.77 70.88
380 5.2008 5040.31 4799.51 71.00
381 5.2092 5025.55 4800.30 70.89
382 5.2176 5036.66 4801.14 70.97
383 5.2260 5039.94 4802.03 70.99
384 5.2344 5041.16 4802.96 71.00
385 5.2428 5047.86 4803.95 71.05
386 5.2512 5024.90 4804.98 70.89
387 5.2596 5052.19 4806.06 71.08
388 5.2680 5047.84 4807.19 71.05
389 5.2764 5038.23 4808.35 70.98
390 5.2848 5044.49 4809.57 71.02
391 5.2932 5032.05 4810.83 70.94
392 5.3016 5031.16 4812.13 70.93
393 5.3100 5038.23 4813.47 70.98
394 5.3184 5016.06 4814.86 70.82
395 5.3268 5030.86 4816.28 70.93
396 5.3352 5036.02 4817.75 70.96
397 5.3436 5016.19 4817.58 70.83
398 5.3520 5020.63 4819.18 70.86
399 5.3604 5026.36 4820.81 70.90
400 5.3688 5017.17 4822.49 70.83
401 5.3772 5023.57 4824.20 70.88
402 5.3856 5013.43 4825.95 70.81
403 5.3940 5021.49 4827.73 70.86
404 5.4024 5031.50 4829.55 70.93
405 5.4108 5016.09 4831.40 70.82
406 5.4192 5018.69 4833.29 70.84
407 5.4276 5018.76 4835.22 70.84
408 5.4360 5015.17 4837.18 70.82
409 5.4444 5025.35 4839.17 70.89
410 5.4528 5016.98 4841.20 70.83
411 5.4612 5022.88 4843.26 70.87
412 5.4696 5029.65 4845.35 70.92
413 5.4780 5012.87 4847.48 70.80
414 5.4864 5010.20 4849.64 70.78
415 5.4948 5010.24 4851.83 70.78
416 5.5032 4990.72 4854.06 70.64
417 5.5116 5007.39 4856.31 70.76
418 5.5200 5019.10 4858.60 70.85
419 5.5284 4997.76 4860.91 70.69
420 5.5368 5007.21 4863.26 70.76
421 5.5452 4987.35 4865.64 70.62
422 5.5536 4995.23 4868.05 70.68
423 5.5620 4995.73 4870.48 70.68
424 5.5704 4984.41 4872.95 70.60
425 5.5788 4984.64 4875.44 70.60
426 5.5872 4993.28 4877.96 70.66
427 5.5956 4977.59 4880.51 70.55
428 5.6040 4985.21 4883.09 70.61
429 5.6124 4980.92 4885.69 70.58
430 5.6208 4984.18 4888.32 70.60
431 5.6292 5002.60 4890.98 70.73
432 5.6376 4968.67 4893.67 70.49
433 5.6460 4984.36 4896.38 70.60
434 5.6544 4994.13 4899.11 70.67
435 5.6628 4973.97 4901.87 70.53
436 5.6712 4983.09 4904.66 70.59
437 5.6796 4991.90 4907.47 70.65
438 5.6880 4987.76 4910.30 70.62
439 5.6964 5001.74 4913.16 70.72
440 5.7048 4985.74 4916.04 70.61
441 5.7132 4994.07 4918.94 70.67
442 5.7216 4998.47 4921.87 70.70
443 5.7300 4969.66 4924.82 70.50
444 5.7384 4988.96 4927.79 70.63
445 5.7468 4976.91 4930.78 70.55
446 5.7552 4967.39 4933.79 70.48
447 5.7636 4993.23 4936.83 70.66
448 5.7720 4976.14 4939.88 70.54
449 5.7804 4986.72 4942.96 70.62
450 5.7888 4993.45 4946.05 70.66
451 5.7972 4972.00 4949.17 70.51
452 5.8056 4991.91 4952.30 70.65
453 5.8140 4995.97 4990.73 70.68
454 5.8224 4986.04 4994.95 70.61
455 5.8308 4994.00 4999.24 70.67
456 5.8392 4993.55 5003.60 70.67
457 5.8476 4994.35 5008.02 70.67
458 5.8560 5009.18 5012.53 70.78
459 5.8644 4997.92 5017.11 70.70
460 5.8728 5011.71 5021.77 70.79
461 5.8812 5014.07 5026.51 70.81
462 5.8896 4995.63 5031.35 70.68
463 5.8980 5013.86 5036.28 70.81
464 5.9064 5009.09 5041.30 70.78
465 5.9148 5014.65 5046.44 70.81
466 5.9232 5032.61 5051.68 70.94
467 5.9316 5018.12 5057.04 70.84
468 5.9400 5027.87 5065.39 70.91
469 5.9484 5016.58 5071.10 70.83
470 5.9568 5014.46 5076.95 70.81
471 5.9652 5029.72 5082.96 70.92
472 5.9736 5021.41 5089.13 70.86
473 5.9820 5020.20 5095.49 70.85
474 5.9904 5025.85 5102.04 70.89
475 5.9988 5023.14 5108.80 70.87
476 6.0072 5044.83 5115.78 71.03
477 6.0156 5055.48 5123.01 71.10
478 6.0240 5041.33 5130.50 71.00
479 6.0324 5062.09 5138.29 71.15
480 6.0408 5060.31 5146.38 71.14
481 6.0492 5047.11 5154.83 71.04
482 6.0576 5073.25 5163.65 71.23
483 6.0660 5075.67 5223.45 71.24
484 6.0744 5089.08 5234.64 71.34
485 6.0828 5094.36 5246.41 71.37
486 6.0912 5097.43 5258.81 71.40
487 6.0996 5105.98 5271.92 71.46
488 6.1080 5125.37 5285.80 71.59
489 6.1164 5119.19 5300.55 71.55
490 6.1248 5144.47 5316.27 71.72
491 6.1332 5151.64 5333.07 71.77
492 6.1416 5153.46 5351.10 71.79
493 6.1500 5187.24 5370.51 72.02
494 6.1584 5190.69 5391.50 72.05
495 6.1668 5209.54 5414.27 72.18
496 6.1752 5243.98 5439.11 72.42
497 6.1836 5250.67 5466.31 72.46
498 6.1920 5303.69 5496.25 72.83
499 6.2004 5340.92 5529.40 73.08
500 6.2088 5381.66 5566.30 73.36
501 6.2172 5426.95 5607.63 73.67
502 6.2256 5470.00 5654.25 73.96
503 6.2340 5567.95 5707.21 74.62
504 6.2424 5683.25 5767.92 75.39
505 6.2508 5718.78 5838.30 75.62
506 6.2592 5830.29 5921.17 76.36
507 6.2676 5916.14 6021.18 76.92
508 6.2760 6055.93 6146.50 77.82
509 6.2844 6245.26 6312.14 79.03
510 6.2928 6516.61 6545.17 80.73
511 6.3012 6947.24 6983.40 83.35
512 6.3096 7544.00 7520.00 86.86
513 6.3180 8492.97 8347.31 92.16
514 6.3264 9774.37 9591.63 98.87
515 6.3348 11592.60 11378.60 107.67
516 6.3432 14032.80 13790.50 118.46
517 6.3516 17236.20 16811.40 131.29
518 6.3600 20950.70 20271.20 144.74
519 6.3684 24767.60 23792.90 157.38
520 6.3768 28118.10 26757.70 167.68
521 6.3852 29861.10 28391.00 172.80
522 6.3936 29155.40 28138.60 170.75
523 6.4020 26458.10 26107.10 162.66
524 6.4104 22901.90 22969.90 151.33
525 6.4188 19257.80 19483.10 138.77
526 6.4272 16119.40 16199.00 126.96
527 6.4356 13737.50 13435.60 117.21
528 6.4440 11941.00 11320.90 109.28
529 6.4524 10560.20 9846.28 102.76
530 6.4608 9738.62 8923.16 98.68
531 6.4692 9199.84 8431.94 95.92
532 6.4776 8919.31 8255.69 94.44
533 6.4860 8856.42 8294.23 94.11
534 6.4944 8947.78 8463.37 94.59
535 6.5028 9136.50 8686.05 95.58
536 6.5112 9387.17 8885.09 96.89
537 6.5196 9574.14 8994.59 97.85
538 6.5280 9685.14 8995.34 98.41
539 6.5364 9738.96 8934.98 98.69
540 6.5448 9826.10 8904.30 99.13
541 6.5532 10011.70 9010.46 100.06
542 6.5616 10472.00 9375.60 102.33
543 6.5700 11291.10 10145.30 106.26
544 6.5784 12453.80 11488.60 111.60
545 6.5868 14353.80 13577.90 119.81
546 6.5952 16863.80 16544.10 129.86
547 6.6036 19998.90 20410.10 141.42
548 6.6120 24046.70 25017.10 155.07
549 6.6204 28786.30 29950.50 169.66
550 6.6288 33552.80 34476.10 183.17
551 6.6372 36876.70 37564.00 192.03
552 6.6456 38049.60 38243.70 195.06
553 6.6540 35871.80 36271.20 189.40
554 6.6624 31712.50 32343.40 178.08
555 6.6708 26524.00 27532.60 162.86
556 6.6792 21388.20 22730.20 146.25
557 6.6876 17213.60 18494.40 131.20
558 6.6960 14135.30 15092.70 118.89
559 6.7044 11649.90 12571.80 107.93
560 6.7128 10095.60 10834.90 100.48
561 6.7212 9020.86 9716.63 94.98
562 6.7296 8358.76 9043.66 91.43
563 6.7380 8008.76 8671.18 89.49
564 6.7464 7804.19 8496.60 88.34
565 6.7548 7789.94 8457.86 88.26
566 6.7632 7891.50 8526.27 88.83
567 6.7716 8123.47 8701.17 90.13
568 6.7800 8530.15 9010.77 92.36
569 6.7884 9191.41 9520.54 95.87
570 6.7968 10162.80 10347.90 100.81
571 6.8052 11560.70 11677.30 107.52
572 6.8136 13796.40 13764.90 117.46
573 6.8220 16722.60 16915.80 129.32
574 6.8304 20863.60 21423.70 144.44
575 6.8388 26490.10 27467.30 162.76
576 6.8472 34017.50 34982.90 184.44
577 6.8556 43225.80 43530.40 207.91
578 6.8640 52788.70 52168.90 229.76
579 6.8724 61905.40 59372.30 248.81
580 6.8808 66864.80 63251.30 258.58
581 6.8892 65889.50 62477.10 256.69
582 6.8976 58907.90 57326.70 242.71
583 6.9060 49488.30 49439.80 222.46
584 6.9144 39375.20 40654.40 198.43
585 6.9228 30752.10 32312.90 175.36
586 6.9312 23825.20 25186.00 154.35
587 6.9396 18658.10 19581.00 136.60
588 6.9480 14610.10 15471.20 120.87
589 6.9564 12012.80 12627.60 109.60
590 6.9648 10243.20 10742.20 101.21
591 6.9732 9000.56 9484.62 94.87
592 6.9816 8177.12 8687.28 90.43
593 6.9900 7620.66 8149.51 87.30
594 6.9984 7202.00 7766.81 84.86
595 7.0068 6929.58 7478.12 83.24
596 7.0152 6677.28 7249.37 81.71
597 7.0236 6515.74 7061.70 80.72
598 7.0320 6392.46 6904.23 79.95
599 7.0404 6244.35 6770.22 79.02
600 7.0488 6180.99 6655.05 78.62
601 7.0572 6097.50 6555.32 78.09
602 7.0656 6028.87 6468.43 77.65
603 7.0740 5983.99 6392.32 77.36
604 7.0824 5930.81 6325.31 77.01
605 7.0908 5893.77 6266.05 76.77
606 7.0992 5861.01 6213.43 76.56
607 7.1076 5810.82 6163.76 76.23
608 7.1160 5798.73 6121.88 76.15
609 7.1244 5767.43 6084.29 75.94
610 7.1328 5731.93 6050.47 75.71
611 7.1412 5729.18 6019.94 75.69
612 7.1496 5697.25 5992.32 75.48
613 7.1580 5691.08 5967.27 75.44
614 7.1664 5689.96 5944.50 75.43
615 7.1748 5662.73 5923.77 75.25
616 7.1832 5651.77 5904.86 75.18
617 7.1916 5647.89 5887.58 75.15
618 7.2000 5620.50 5871.77 74.97
619 7.2084 5646.08 5857.28 75.14
620 7.2168 5618.55 5844.00 74.96
621 7.2252 5616.58 5831.81 74.94
622 7.2336 5627.51 5772.20 75.02
623 7.2420 5595.59 5763.25 74.80
624 7.2504 5614.55 5755.08 74.93
625 7.2588 5615.14 5747.62 74.93
626 7.2672 5603.34 5740.82 74.86
627 7.2756 5608.44 5734.63 74.89
628 7.2840 5606.11 5729.01 74.87
629 7.2924 5604.32 5723.92 74.86
630 7.3008 5611.04 5719.35 74.91
631 7.3092 5596.82 5715.26 74.81
632 7.3176 5608.11 5711.66 74.89
633 7.3260 5608.58 5708.56 74.89
634 7.3344 5615.25 5705.99 74.93
635 7.3428 5617.27 5704.07 74.95
636 7.3512 5632.71 5702.99 75.05
637 7.3596 5611.72 5703.10 74.91
638 7.3680 5647.28 5704.97 75.15
639 7.3764 5622.70 5709.42 74.98
640 7.3848 5621.74 5717.44 74.98
641 7.3932 5624.84 5730.09 75.00
642 7.4016 5592.63 5748.17 74.78
643 7.4100 5614.51 5771.79 74.93
644 7.4184 5585.81 5799.98 74.74
645 7.4268 5580.75 5830.18 74.70
646 7.4352 5597.08 5857.92 74.81
647 7.4436 5582.49 5876.83 74.72
648 7.4520 5574.62 5880.83 74.66
649 7.4604 5598.83 5868.11 74.83
650 7.4688 5561.31 5842.70 74.57
651 7.4772 5600.73 5723.17 74.84
652 7.4856 5584.66 5693.66 74.73
653 7.4940 5592.68 5667.27 74.78
654 7.5024 5620.96 5645.84 74.97
655 7.5108 5615.03 5629.83 74.93
656 7.5192 5622.88 5618.77 74.99
657 7.5276 5656.07 5611.71 75.21
658 7.5360 5672.94 5607.57 75.32
659 7.5444 5706.77 5605.40 75.54
660 7.5528 5741.06 5604.47 75.77
661 7.5612 5749.35 5604.28 75.82
662 7.5696 5796.98 5604.54 76.14
663 7.5780 5796.53 5605.06 76.13
664 7.5864 5800.95 5605.75 76.16
665 7.5948 5787.64 5606.55 76.08
666 7.6032 5757.72 5607.44 75.88
667 7.6116 5749.22 5608.37 75.82
668 7.6200 5729.67 5609.35 75.69
669 7.6284 5693.18 5610.36 75.45
670 7.6368 5698.93 5611.39 75.49
671 7.6452 5667.70 5612.43 75.28
672 7.6536 5672.70 5613.49 75.32
673 7.6620 5668.63 5614.54 75.29
674 7.6704 5646.91 5615.60 75.15
675 7.6788 5656.29 5616.65 75.21
676 7.6872 5645.91 5617.70 75.14
677 7.6956 5639.42 5618.74 75.10
678 7.7040 5646.57 5619.77 75.14
679 7.7124 5645.69 5620.78 75.14
680 7.7208 5629.48 5621.79 75.03
681 7.7292 5646.20 5622.77 75.14
682 7.7376 5631.58 5623.75 75.04
683 7.7460 5631.64 5624.71 75.04
684 7.7544 5642.33 5625.65 75.12
685 7.7628 5631.57 5626.57 75.04
686 7.7712 5651.73 5627.47 75.18
687 7.7796 5646.17 5628.36 75.14
688 7.7880 5652.60 5629.23 75.18
689 7.7964 5656.67 5630.07 75.21
690 7.8048 5663.31 5630.90 75.25
691 7.8132 5681.02 5631.71 75.37
692 7.8216 5686.69 5632.49 75.41
693 7.8300 5680.57 5633.26 75.37
694 7.8384 5705.89 5634.00 75.54
695 7.8468 5707.26 5634.73 75.55
696 7.8552 5701.89 5635.43 75.51
697 7.8636 5712.05 5636.11 75.58
698 7.8720 5695.94 5636.77 75.47
699 7.8804 5696.47 5637.40 75.47
700 7.8888 5692.92 5638.02 75.45
701 7.8972 5675.50 5638.61 75.34
702 7.9056 5687.31 5639.18 75.41
703 7.9140 5670.09 5639.73 75.30
704 7.9224 5671.06 5640.26 75.31
705 7.9308 5665.52 5640.76 75.27
706 7.9392 5657.48 5641.25 75.22
707 7.9476 5669.90 5641.71 75.30
708 7.9560 5662.56 5642.14 75.25
709 7.9644 5654.89 5642.56 75.20
710 7.9728 5669.24 5642.95 75.29
711 7.9812 5663.19 5643.32 75.25
712 7.9896 5669.55 5643.67 75.30
713 7.9980 5674.45 5644.00 75.33
714 8.0064 5666.68 5644.30 75.28
715 8.0148 5679.65 5644.58 75.36
716 8.0232 5682.40 5644.84 75.38
717 8.0316 5673.76 5645.07 75.32
718 8.0400 5680.04 5645.29 75.37
719 8.0484 5678.71 5645.14 75.36
720 8.0568 5675.24 5659.56 75.33
721 8.0652 5687.18 5660.11 75.41
722 8.0736 5674.61 5660.65 75.33
723 8.0820 5703.21 5661.19 75.52
724 8.0904 5691.60 5661.72 75.44
725 8.0988 5689.09 5662.25 75.43
726 8.1072 5694.77 5662.78 75.46
727 8.1156 5696.47 5663.31 75.47
728 8.1240 5698.36 5663.83 75.49
729 8.1324 5710.00 5664.36 75.56
730 8.1408 5703.96 5664.90 75.52
731 8.1492 5709.71 5665.44 75.56
732 8.1576 5723.44 5665.98 75.65
733 8.1660 5715.92 5666.54 75.60
734 8.1744 5738.91 5667.11 75.76
735 8.1828 5731.62 5667.69 75.71
736 8.1912 5747.01 5668.29 75.81
737 8.1996 5749.69 5668.91 75.83
738 8.2080 5748.88 5669.55 75.82
739 8.2164 5754.73 5670.21 75.86
740 8.2248 5775.26 5670.91 76.00
741 8.2332 5756.13 5671.64 75.87
742 8.2416 5777.46 5672.40 76.01
743 8.2500 5770.36 5673.21 75.96
744 8.2584 5784.54 5674.06 76.06
745 8.2668 5784.86 5674.97 76.06
746 8.2752 5781.93 5675.94 76.04
747 8.2836 5797.64 5676.97 76.14
748 8.2920 5797.67 5678.08 76.14
749 8.3004 5794.57 5679.27 76.12
750 8.3088 5804.97 5680.55 76.19
751 8.3172 5797.91 5681.94 76.14
752 8.3256 5808.38 5683.43 76.21
753 8.3340 5814.11 5685.06 76.25
754 8.3424 5805.02 5686.83 76.19
755 8.3508 5812.87 5688.76 76.24
756 8.3592 5821.27 5690.87 76.30
757 8.3676 5812.83 5693.18 76.24
758 8.3760 5824.67 5696.13 76.32
759 8.3844 5827.00 5698.93 76.33
760 8.3928 5835.78 5702.01 76.39
761 8.4012 5856.41 5705.42 76.53
762 8.4096 5846.64 5709.20 76.46
763 8.4180 5870.82 5713.38 76.62
764 8.4264 5875.93 5718.04 76.65
765 8.4348 5866.12 5723.25 76.59
766 8.4432 5901.89 5729.06 76.82
767 8.4516 5904.51 5740.48 76.84
768 8.4600 5917.55 5747.97 76.93
769 8.4684 5936.28 5756.42 77.05
770 8.4768 5956.41 5765.99 77.18
771 8.4852 5978.88 5776.86 77.32
772 8.4936 6002.57 5789.29 77.48
773 8.5020 6015.85 5803.55 77.56
774 8.5104 6051.64 5820.00 77.79
775 8.5188 6090.27 5839.11 78.04
776 8.5272 6129.36 5861.50 78.29
777 8.5356 6200.72 5888.04 78.74
778 8.5440 6233.95 5920.10 78.96
779 8.5524 6302.98 5959.93 79.39
780 8.5608 6398.53 6011.37 79.99
781 8.5692 6492.16 6081.10 80.57
782 8.5776 6624.23 6180.22 81.39
783 8.5860 6779.73 6327.53 82.34
784 8.5944 6967.25 6545.85 83.47
785 8.6028 7234.68 6869.50 85.06
786 8.6112 7616.21 7335.91 87.27
787 8.6196 8072.07 7979.69 89.84
788 8.6280 8737.98 8820.78 93.48
789 8.6364 9511.67 9851.12 97.53
790 8.6448 10543.40 11019.40 102.68
791 8.6532 11664.30 12215.60 108.00
792 8.6616 12761.20 13258.70 112.96
793 8.6700 13535.00 13911.40 116.34
794 8.6784 13714.30 14004.00 117.11
795 8.6868 13240.70 13457.80 115.07
796 8.6952 12184.50 12473.40 110.38
797 8.7036 10915.30 11290.50 104.48
798 8.7120 9736.65 10105.00 98.67
799 8.7204 8727.07 9040.48 93.42
800 8.7288 7930.52 8158.70 89.05
801 8.7372 7376.76 7475.51 85.89
802 8.7456 6954.93 6975.45 83.40
803 8.7540 6668.33 6625.82 81.66
804 8.7624 6480.64 6389.06 80.50
805 8.7708 6333.90 6230.85 79.59
806 8.7792 6261.90 6124.15 79.13
807 8.7876 6190.64 6050.01 78.68
808 8.7960 6154.98 5996.18 78.45
809 8.8044 6112.06 5955.27 78.18
810 8.8128 6088.23 5922.98 78.03
811 8.8212 6074.05 5896.86 77.94
812 8.8296 6055.20 5875.44 77.82
813 8.8380 6021.94 5857.81 77.60
814 8.8464 6027.70 5843.36 77.64
815 8.8548 6007.05 5831.65 77.51
816 8.8632 6001.09 5822.40 77.47
817 8.8716 5991.75 5815.40 77.41
818 8.8800 5981.89 5810.56 77.34
819 8.8884 5989.26 5807.90 77.39
820 8.8968 5990.77 5807.56 77.40
821 8.9052 5988.15 5809.92 77.38
822 8.9136 5996.60 5815.58 77.44
823 8.9220 6005.85 5825.40 77.50
824 8.9304 6013.03 5854.71 77.54
825 8.9388 6034.50 5878.74 77.68
826 8.9472 6046.86 5908.94 77.76
827 8.9556 6092.88 5948.30 78.06
828 8.9640 6141.16 5997.69 78.37
829 8.9724 6173.40 6057.71 78.57
830 8.9808 6250.96 6128.77 79.06
831 8.9892 6333.31 6211.48 79.58
832 8.9976 6439.05 6307.97 80.24
833 9.0060 6571.72 6424.92 81.07
834 9.0144 6717.97 6575.67 81.96
835 9.0228 6912.30 6776.62 83.14
836 9.0312 7113.77 7039.74 84.34
837 9.0396 7371.66 7365.53 85.86
838 9.0480 7629.38 7737.94 87.35
839 9.0564 7861.42 8119.92 88.66
840 9.0648 8040.61 8449.68 89.67
841 9.0732 8132.74 8648.72 90.18
842 9.0816 8098.08 8655.42 89.99
843 9.0900 7963.80 8468.64 89.24
844 9.0984 7764.94 8148.29 88.12
845 9.1068 7528.12 7772.78 86.76
846 9.1152 7318.32 7405.30 85.55
847 9.1236 7123.74 7086.23 84.40
848 9.1320 6993.69 6837.29 83.63
849 9.1404 6913.70 6668.92 83.15
850 9.1488 6866.84 6574.84 82.87
851 9.1572 6880.81 6550.95 82.95
852 9.1656 6939.06 6588.45 83.30
853 9.1740 7018.36 6678.16 83.78
854 9.1824 7159.49 6811.05 84.61
855 9.1908 7326.89 6978.28 85.60
856 9.1992 7542.58 7171.05 86.85
857 9.2076 7775.86 7382.69 88.18
858 9.2160 8059.01 7617.17 89.77
859 9.2244 8380.27 7903.34 91.54
860 9.2328 8832.97 8302.79 93.98
861 9.2412 9395.61 8900.07 96.93
862 9.2496 10170.20 9783.25 100.85
863 9.2580 11248.40 11024.60 106.06
864 9.2664 12530.90 12658.40 111.94
865 9.2748 14239.30 14657.10 119.33
866 9.2832 16176.10 16906.60 127.18
867 9.2916 18435.20 19176.80 135.78
868 9.3000 20520.20 21088.20 143.25
869 9.3084 22096.50 22214.30 148.65
870 9.3168 22622.10 22192.00 150.41
871 9.3252 21773.00 21023.50 147.56
872 9.3336 19927.50 19058.50 141.16
873 9.3420 17470.30 16747.90 132.18
874 9.3504 14961.50 14450.70 122.32
875 9.3588 12673.60 12391.80 112.58
876 9.3672 10913.10 10683.70 104.47
877 9.3756 9459.61 9354.57 97.26
878 9.3840 8426.50 8376.53 91.80
879 9.3924 7689.58 7689.97 87.69
880 9.4008 7177.43 7225.30 84.72
881 9.4092 6870.12 6918.48 82.89
882 9.4176 6624.33 6731.74 81.39
883 9.4260 6487.25 6602.83 80.54
884 9.4344 6398.21 6521.84 79.99
885 9.4428 6366.94 6476.22 79.79
886 9.4512 6366.27 6461.27 79.79
887 9.4596 6406.15 6478.91 80.04
888 9.4680 6492.60 6538.43 80.58
889 9.4764 6632.58 6654.18 81.44
890 9.4848 6836.82 6851.03 82.69
891 9.4932 7138.74 7160.77 84.49
892 9.5016 7543.06 7619.54 86.85
893 9.5100 8070.38 8261.21 89.84
894 9.5184 8726.91 9106.59 93.42
895 9.5268 9592.90 10150.70 97.94
896 9.5352 10533.40 11349.00 102.63
897 9.5436 11636.50 12602.10 107.87
898 9.5520 12644.60 13741.10 112.45
899 9.5604 13482.70 14535.10 116.11
900 9.5688 13863.30 14764.00 117.74
901 9.5772 13750.20 14351.60 117.26
902 9.5856 13104.10 13423.30 114.47
903 9.5940 12066.00 12212.30 109.85
904 9.6024 10968.10 10936.00 104.73
905 9.6108 9883.17 9744.11 99.41
906 9.6192 8898.35 8720.70 94.33
907 9.6276 8135.45 7898.57 90.20
908 9.6360 7499.31 7274.27 86.60
909 9.6444 7019.66 6823.05 83.78
910 9.6528 6675.90 6508.81 81.71
911 9.6612 6416.40 6296.97 80.10
912 9.6696 6231.82 6154.71 78.94
913 9.6780 6098.58 6060.95 78.09
914 9.6864 5994.16 6001.52 77.42
915 9.6948 5938.08 5969.07 77.06
916 9.7032 5901.10 5961.51 76.82
917 9.7116 5885.79 5975.59 76.72
918 9.7200 5899.40 6024.46 76.81
919 9.7284 5917.81 6106.83 76.93
920 9.7368 5954.16 6224.38 77.16
921 9.7452 6037.87 6374.67 77.70
922 9.7536 6103.83 6548.86 78.13
923 9.7620 6223.43 6729.36 78.89
924 9.7704 6321.00 6887.72 79.50
925 9.7788 6409.31 6986.90 80.06
926 9.7872 6456.71 6994.75 80.35
927 9.7956 6433.31 6905.18 80.21
928 9.8040 6362.13 6744.99 79.76
929 9.8124 6237.54 6547.00 78.98
930 9.8208 6078.02 6345.42 77.96
931 9.8292 5946.76 6161.31 77.12
932 9.8376 5837.70 6005.91 76.40
933 9.8460 5735.81 5883.24 75.74
934 9.8544 5663.62 5790.86 75.26
935 9.8628 5616.23 5727.11 74.94
936 9.8712 5588.13 5685.24 74.75
937 9.8796 5563.92 5659.93 74.59
938 9.8880 5556.91 5646.83 74.54
939 9.8964 5561.51 5642.83 74.58
940 9.9048 5569.59 5646.05 74.63
941 9.9132 5604.10 5655.65 74.86
942 9.9216 5634.32 5671.75 75.06
943 9.9300 5689.91 5695.40 75.43
944 9.9384 5770.16 5728.96 75.96
945 9.9468 5870.41 5776.71 76.62
946 9.9552 6008.35 5817.98 77.51
947 9.9636 6188.44 5920.73 78.67
948 9.9720 6431.59 6073.21 80.20
949 9.9804 6716.93 6298.12 81.96
950 9.9888 7094.43 6622.82 84.23
951 9.9972 7562.57 7075.76 86.96
952 10.0056 8137.57 7679.90 90.21
953 10.0140 8840.74 8444.03 94.03
954 10.0224 9582.98 9353.20 97.89
955 10.0308 10432.10 10357.30 102.14
956 10.0392 11217.40 11360.20 105.91
957 10.0476 11895.80 12209.70 109.07
958 10.0560 12268.20 12720.10 110.76
959 10.0644 12333.40 12751.30 111.06
960 10.0728 12056.50 12305.40 109.80
961 10.0812 11459.40 11524.00 107.05
962 10.0896 10759.50 10589.50 103.73
963 10.0980 9972.43 9646.00 99.86
964 10.1064 9181.07 8779.33 95.82
965 10.1148 8525.21 8028.97 92.33
966 10.1232 7892.53 7406.56 88.84
967 10.1316 7397.74 6908.99 86.01
968 10.1400 6949.49 6524.45 83.36
969 10.1484 6611.56 6235.01 81.31
970 10.1568 6328.05 6020.56 79.55
971 10.1652 6130.25 5862.65 78.30
972 10.1736 5933.74 5746.31 77.03
973 10.1820 5825.48 5660.24 76.32
974 10.1904 5717.41 5596.36 75.61
975 10.1988 5640.82 5549.04 75.11
976 10.2072 5593.99 5500.62 74.79
977 10.2156 5534.42 5475.63 74.39
978 10.2240 5520.58 5462.81 74.30
979 10.2324 5509.12 5460.86 74.22
980 10.2408 5492.29 5471.29 74.11
981 10.2492 5499.74 5496.04 74.16
982 10.2576 5507.03 5536.79 74.21
983 10.2660 5543.21 5595.41 74.45
984 10.2744 5579.00 5667.86 74.69
985 10.2828 5628.44 5750.89 75.02
986 10.2912 5673.99 5835.84 75.33
987 10.2996 5713.59 5908.99 75.59
988 10.3080 5729.06 5953.03 75.69
989 10.3164 5733.02 5953.84 75.72
990 10.3248 5682.63 5909.89 75.38
991 10.3332 5645.76 5833.62 75.14
992 10.3416 5592.45 5743.00 74.78
993 10.3500 5544.38 5653.74 74.46
994 10.3584 5514.05 5577.02 74.26
995 10.3668 5500.63 5520.30 74.17
996 10.3752 5495.38 5488.62 74.13
997 10.3836 5530.54 5485.46 74.37
998 10.3920 5582.46 5513.36 74.72
999 10.4004 5675.01 5573.91 75.33
1000 10.4088 5782.96 5667.19 76.05
1001 10.4172 5925.20 5790.63 76.98
1002 10.4256 6074.16 5937.61 77.94
1003 10.4340 6243.76 6093.72 79.02
1004 10.4424 6386.31 6244.95 79.91
1005 10.4508 6495.87 6362.15 80.60
1006 10.4592 6533.81 6414.74 80.83
1007 10.4676 6487.38 6384.16 80.54
1008 10.4760 6375.54 6276.67 79.85
1009 10.4844 6202.93 6119.07 78.76
1010 10.4928 6030.98 5942.32 77.66
1011 10.5012 5829.19 5768.98 76.35
1012 10.5096 5674.36 5613.75 75.33
1013 10.5180 5537.42 5483.66 74.41
1014 10.5264 5413.90 5380.34 73.58
1015 10.5348 5319.24 5301.87 72.93
1016 10.5432 5251.32 5244.23 72.47
1017 10.5516 5191.30 5202.70 72.05
1018 10.5600 5152.06 5172.84 71.78
1019 10.5684 5127.64 5151.02 71.61
1020 10.5768 5092.58 5134.53 71.36
1021 10.5852 5086.63 5121.56 71.32
1022 10.5936 5066.55 5110.97 71.18
1023 10.6020 5055.59 5102.09 71.10
1024 10.6104 5040.57 5094.59 71.00
1025 10.6188 5035.27 5088.31 70.96
1026 10.6272 5036.24 5083.22 70.97
1027 10.6356 5034.60 5079.37 70.95
1028 10.6440 5037.73 5076.80 70.98
1029 10.6524 5029.73 5075.49 70.92
1030 10.6608 5045.50 5075.32 71.03
1031 10.6692 5050.00 5076.02 71.06
1032 10.6776 5050.77 5077.06 71.07
1033 10.6860 5059.11 5077.64 71.13
1034 10.6944 5062.37 5076.75 71.15
1035 10.7028 5045.84 5073.50 71.03
1036 10.7112 5040.97 5055.52 71.00
1037 10.7196 5032.59 5047.41 70.94
1038 10.7280 5002.40 5039.15 70.73
1039 10.7364 4979.19 5030.90 70.56
1040 10.7448 4965.67 5023.25 70.47
1041 10.7532 4950.38 5016.57 70.36
1042 10.7616 4944.09 5011.02 70.31
1043 10.7700 4923.73 5005.83 70.17
1044 10.7784 4923.32 5002.53 70.17
1045 10.7868 4907.39 5000.23 70.05
1046 10.7952 4902.51 4998.91 70.02
1047 10.8036 4904.23 4999.32 70.03
1048 10.8120 4898.73 5000.24 69.99
1049 10.8204 4904.84 5002.75 70.03
1050 10.8288 4896.65 5007.59 69.98
1051 10.8372 4899.46 5015.87 70.00
1052 10.8456 4905.54 5029.22 70.04
1053 10.8540 4921.38 5049.78 70.15
1054 10.8624 4935.77 5080.02 70.25
1055 10.8708 4966.42 5122.46 70.47
1056 10.8792 5011.71 5179.01 70.79
1057 10.8876 5064.24 5250.24 71.16
1058 10.8960 5132.07 5334.55 71.64
1059 10.9044 5219.44 5427.17 72.25
1060 10.9128 5295.43 5519.17 72.77
1061 10.9212 5360.45 5596.60 73.22
1062 10.9296 5416.91 5642.26 73.60
1063 10.9380 5433.38 5642.74 73.71
1064 10.9464 5400.92 5597.10 73.49
1065 10.9548 5350.66 5517.71 73.15
1066 10.9632 5285.94 5421.78 72.70
1067 10.9716 5209.47 5322.62 72.18
1068 10.9800 5162.01 5232.31 71.85
1069 10.9884 5097.35 5154.81 71.40
1070 10.9968 5063.96 5092.13 71.16
1071 11.0052 5043.92 5044.02 71.02
1072 11.0136 5006.93 5008.83 70.76
1073 11.0220 4993.95 4984.35 70.67
1074 11.0304 4982.57 4968.39 70.59
1075 11.0388 4975.66 4959.25 70.54
1076 11.0472 4974.25 4955.83 70.53
1077 11.0556 4976.70 4957.65 70.55
1078 11.0640 4984.50 4964.64 70.60
1079 11.0724 5000.94 4976.96 70.72
1080 11.0808 5017.71 4994.74 70.84
1081 11.0892 5053.36 5017.64 71.09
1082 11.0976 5074.04 5044.86 71.23
1083 11.1060 5106.06 5074.26 71.46
1084 11.1144 5140.38 5102.60 71.70
1085 11.1228 5170.07 5124.16 71.90
1086 11.1312 5186.84 5140.98 72.02
1087 11.1396 5200.61 5149.73 72.12
1088 11.1480 5197.57 5149.26 72.09
1089 11.1564 5198.48 5137.71 72.10
1090 11.1648 5167.86 5114.15 71.89
1091 11.1732 5131.07 5080.70 71.63
1092 11.1816 5059.68 5041.93 71.13
1093 11.1900 4992.30 5002.58 70.66
1094 11.1984 4927.00 4966.01 70.19
1095 11.2068 4880.62 4957.86 69.86
1096 11.2152 4830.41 4931.82 69.50
1097 11.2236 4798.56 4911.03 69.27
1098 11.2320 4762.70 4894.93 69.01
1099 11.2404 4748.07 4882.70 68.91
1100 11.2488 4738.23 4873.50 68.83
1101 11.2572 4711.55 4866.52 68.64
1102 11.2656 4709.66 4861.12 68.63
1103 11.2740 4696.70 4856.84 68.53
1104 11.2824 4694.88 4853.35 68.52
1105 11.2908 4701.79 4850.43 68.57
1106 11.2992 4688.01 4847.97 68.47
1107 11.3076 4690.16 4845.89 68.48
1108 11.3160 4687.15 4844.17 68.46
1109 11.3244 4688.56 4842.79 68.47
1110 11.3328 4693.51 4841.79 68.51
1111 11.3412 4693.96 4841.21 68.51
1112 11.3496 4694.56 4841.15 68.52
1113 11.3580 4698.39 4841.77 68.54
1114 11.3664 4706.68 4843.26 68.61
1115 11.3748 4715.87 4846.22 68.67
1116 11.3832 4729.00 4851.20 68.77
1117 11.3916 4736.75 4859.09 68.82
1118 11.4000 4746.93 4871.03 68.90
1119 11.4084 4779.41 4888.26 69.13
1120 11.4168 4792.07 4912.03 69.22
1121 11.4252 4828.14 4943.19 69.48
1122 11.4336 4853.02 4981.90 69.66
1123 11.4420 4890.41 5027.15 69.93
1124 11.4504 4932.54 5076.35 70.23
1125 11.4588 4966.63 5124.70 70.47
1126 11.4672 5003.04 5164.96 70.73
1127 11.4756 5010.32 5188.43 70.78
1128 11.4840 5017.88 5188.61 70.84
1129 11.4924 5004.99 5165.45 70.75
1130 11.5008 4978.86 5125.38 70.56
1131 11.5092 4948.48 5078.29 70.35
1132 11.5176 4914.40 5030.75 70.10
1133 11.5260 4877.65 4985.72 69.84
1134 11.5344 4866.22 4947.34 69.76
1135 11.5428 4834.08 4916.67 69.53
1136 11.5512 4825.93 4893.62 69.47
1137 11.5596 4802.88 4877.34 69.30
1138 11.5680 4804.28 4866.66 69.31
1139 11.5764 4801.13 4860.34 69.29
1140 11.5848 4793.70 4857.35 69.24
1141 11.5932 4801.71 4856.76 69.29
1142 11.6016 4797.64 4858.03 69.26
1143 11.6100 4804.32 4859.50 69.31
1144 11.6184 4814.78 4863.55 69.39
1145 11.6268 4819.61 4868.79 69.42
1146 11.6352 4829.26 4875.22 69.49
1147 11.6436 4849.12 4882.89 69.64
1148 11.6520 4859.63 4891.88 69.71
1149 11.6604 4885.28 4902.34 69.89
1150 11.6688 4898.98 4914.42 69.99
1151 11.6772 4926.68 4928.35 70.19
1152 11.6856 4956.61 4944.38 70.40
1153 11.6940 4986.29 4962.83 70.61
1154 11.7024 5025.56 4984.08 70.89
1155 11.7108 5069.06 5008.77 71.20
1156 11.7192 5120.22 5037.23 71.56
1157 11.7276 5181.60 5070.38 71.98
1158 11.7360 5242.35 5109.35 72.40
1159 11.7444 5331.78 5155.74 73.02
1160 11.7528 5427.50 5212.03 73.67
1161 11.7612 5568.58 5282.17 74.62
1162 11.7696 5716.16 5372.57 75.61
1163 11.7780 5946.61 5493.35 77.11
1164 11.7864 6182.77 5660.05 78.63
1165 11.7948 6517.14 5894.84 80.73
1166 11.8032 6940.02 6228.35 83.31
1167 11.8116 7446.47 6697.36 86.29
1168 11.8200 8175.06 7342.06 90.42
1169 11.8284 8946.30 8199.05 94.58
1170 11.8368 9986.67 9291.50 99.93
1171 11.8452 11098.40 10618.40 105.35
1172 11.8536 12386.60 12138.70 111.29
1173 11.8620 13666.80 13759.10 116.90
1174 11.8704 15002.00 15315.20 122.48
1175 11.8788 15973.60 16598.20 126.39
1176 11.8872 16565.00 17268.60 128.71
1177 11.8956 16745.70 17173.50 129.40
1178 11.9040 16228.60 16340.40 127.39
1179 11.9124 15332.80 14989.60 123.83
1180 11.9208 14138.20 13396.70 118.90
1181 11.9292 12690.50 11785.60 112.65
1182 11.9376 11338.80 10302.60 106.48
1183 11.9460 10038.90 9027.26 100.19
1184 11.9544 8956.16 7989.22 94.64
1185 11.9628 8061.18 7183.37 89.78
1186 11.9712 7380.37 6582.05 85.91
1187 11.9796 6778.14 6147.08 82.33
1188 11.9880 6368.60 5838.58 79.80
1189 11.9964 6029.80 5620.99 77.65
1190 12.0048 5771.32 5466.05 75.97
1191 12.0132 5585.68 5353.12 74.74
1192 12.0216 5438.19 5268.13 73.74
1193 12.0300 5314.16 5202.00 72.90
1194 12.0384 5234.33 5149.11 72.35
1195 12.0468 5163.04 5106.01 71.85
1196 12.0552 5119.37 5070.60 71.55
1197 12.0636 5074.89 5041.64 71.24
1198 12.0720 5040.62 5018.44 71.00
1199 12.0804 5017.91 5000.76 70.84
1200 12.0888 5011.82 4988.86 70.79
1201 12.0972 5005.17 4983.57 70.75
1202 12.1056 5013.28 4986.45 70.80
1203 12.1140 5028.78 4999.90 70.91
1204 12.1224 5061.46 5027.18 71.14
1205 12.1308 5100.71 5072.26 71.42
1206 12.1392 5166.09 5139.28 71.88
1207 12.1476 5250.25 5231.77 72.46
1208 12.1560 5345.29 5351.55 73.11
1209 12.1644 5479.66 5496.67 74.02
1210 12.1728 5635.66 5662.81 75.07
1211 12.1812 5799.48 5839.17 76.15
1212 12.1896 5958.00 6002.32 77.19
1213 12.1980 6107.93 6126.32 78.15
1214 12.2064 6185.83 6182.27 78.65
1215 12.2148 6197.97 6154.19 78.73
1216 12.2232 6135.90 6049.73 78.33
1217 12.2316 6004.77 5894.89 77.49
1218 12.2400 5836.70 5719.08 76.40
1219 12.2484 5675.52 5545.21 75.34
1220 12.2568 5523.27 5387.80 74.32
1221 12.2652 5393.45 5254.39 73.44
1222 12.2736 5284.65 5147.28 72.70
1223 12.2820 5198.37 5065.35 72.10
1224 12.2904 5124.41 5005.51 71.58
1225 12.2988 5070.84 4963.94 71.21
1226 12.3072 5024.53 4936.94 70.88
1227 12.3156 4976.32 4921.29 70.54
1228 12.3240 4948.70 4914.56 70.35
1229 12.3324 4930.61 4915.07 70.22
1230 12.3408 4915.60 4921.88 70.11
1231 12.3492 4912.64 4934.30 70.09
1232 12.3576 4904.27 4952.16 70.03
1233 12.3660 4916.40 4975.32 70.12
1234 12.3744 4924.45 5003.58 70.17
1235 12.3828 4946.88 5036.60 70.33
1236 12.3912 4957.10 5073.77 70.41
1237 12.3996 4983.72 5114.18 70.60
1238 12.4080 5024.35 5156.99 70.88
1239 12.4164 5061.75 5202.26 71.15
1240 12.4248 5124.02 5251.81 71.58
1241 12.4332 5181.59 5309.46 71.98
1242 12.4416 5267.63 5380.71 72.58
1243 12.4500 5360.69 5473.05 73.22
1244 12.4584 5500.34 5597.16 74.16
1245 12.4668 5666.93 5768.63 75.28
1246 12.4752 5912.53 6010.13 76.89
1247 12.4836 6213.76 6353.18 78.83
1248 12.4920 6639.59 6838.49 81.48
1249 12.5004 7264.24 7514.52 85.23
1250 12.5088 7953.47 8431.58 89.18
1251 12.5172 9023.38 9633.22 94.99
1252 12.5256 10297.70 11143.90 101.48
1253 12.5340 11997.50 12953.90 109.53
1254 12.5424 13970.50 15002.60 118.20
1255 12.5508 16299.40 17160.60 127.67
1256 12.5592 18629.60 19206.30 136.49
1257 12.5676 20657.80 20822.50 143.73
1258 12.5760 21897.00 21658.90 147.98
1259 12.5844 21971.00 21467.10 148.23
1260 12.5928 20980.20 20341.70 144.85
1261 12.6012 18958.80 18543.30 137.69
1262 12.6096 16488.10 16426.10 128.41
1263 12.6180 14204.30 14278.20 119.18
1264 12.6264 11997.80 12289.90 109.53
1265 12.6348 10253.60 10566.40 101.26
1266 12.6432 8819.60 9150.62 93.91
1267 12.6516 7756.39 8037.37 88.07
1268 12.6600 6937.08 7195.72 83.29
1269 12.6684 6381.26 6578.24 79.88
1270 12.6768 5959.86 6134.24 77.20
1271 12.6852 5674.00 5817.17 75.33
1272 12.6936 5467.89 5589.10 73.95
1273 12.7020 5313.91 5421.57 72.90
1274 12.7104 5192.39 5294.65 72.06
1275 12.7188 5097.87 5195.18 71.40
1276 12.7272 5028.93 5114.81 70.92
1277 12.7356 4974.71 5048.29 70.53
1278 12.7440 4926.54 4992.38 70.19
1279 12.7524 4891.24 4945.05 69.94
1280 12.7608 4858.58 4905.06 69.70
1281 12.7692 4829.79 4871.74 69.50
1282 12.7776 4807.65 4844.92 69.34
1283 12.7860 4796.24 4824.94 69.25
1284 12.7944 4784.72 4812.70 69.17
1285 12.8028 4776.82 4809.69 69.11
1286 12.8112 4777.54 4817.99 69.12
1287 12.8196 4780.39 4839.97 69.14
1288 12.8280 4796.34 4878.02 69.26
1289 12.8364 4821.05 4933.88 69.43
1290 12.8448 4855.85 5007.98 69.68
1291 12.8532 4910.53 5098.57 70.08
1292 12.8616 4980.47 5200.84 70.57
1293 12.8700 5040.66 5305.79 71.00
1294 12.8784 5089.80 5399.19 71.34
1295 12.8868 5120.68 5462.55 71.56
1296 12.8952 5120.48 5477.99 71.56
1297 12.9036 5089.90 5438.41 71.34
1298 12.9120 5037.24 5349.30 70.97
1299 12.9204 4960.59 5233.71 70.43
1300 12.9288 4882.81 5107.33 69.88
1301 12.9372 4810.74 4983.85 69.36
1302 12.9456 4737.30 4871.89 68.83
1303 12.9540 4682.85 4775.90 68.43
1304 12.9624 4637.52 4697.30 68.10
1305 12.9708 4587.81 4635.44 67.73
1306 12.9792 4563.61 4588.35 67.55
1307 12.9876 4535.00 4553.51 67.34
1308 12.9960 4513.53 4528.29 67.18
1309 13.0044 4504.72 4510.33 67.12
1310 13.0128 4488.59 4497.67 67.00
1311 13.0212 4476.76 4488.76 66.91
1312 13.0296 4469.92 4482.34 66.86
1313 13.0380 4472.54 4477.26 66.88
1314 13.0464 4470.05 4474.93 66.86
1315 13.0548 4474.48 4469.32 66.89
1316 13.0632 4474.75 4470.59 66.89
1317 13.0716 4475.95 4462.07 66.90
1318 13.0800 4485.19 4452.50 66.97
1319 13.0884 4489.65 4442.59 67.00
1320 13.0968 4501.25 4432.98 67.09
1321 13.1052 4513.28 4424.10 67.18
1322 13.1136 4524.02 4416.04 67.26
1323 13.1220 4537.84 4409.21 67.36
1324 13.1304 4545.25 4403.46 67.42
1325 13.1388 4557.24 4398.75 67.51
1326 13.1472 4571.79 4395.00 67.61
1327 13.1556 4586.97 4392.14 67.73
1328 13.1640 4599.38 4390.13 67.82
1329 13.1724 4605.03 4389.00 67.86
1330 13.1808 4608.93 4388.85 67.89
1331 13.1892 4621.69 4389.88 67.98
1332 13.1976 4635.04 4392.48 68.08
1333 13.2060 4653.06 4397.19 68.21
1334 13.2144 4680.19 4404.80 68.41
1335 13.2228 4705.55 4416.31 68.60
1336 13.2312 4751.10 4432.94 68.93
1337 13.2396 4809.53 4464.91 69.35
1338 13.2480 4863.24 4495.93 69.74
1339 13.2564 4959.82 4535.77 70.43
1340 13.2648 5043.43 4585.06 71.02
1341 13.2732 5175.25 4643.65 71.94
1342 13.2816 5304.00 4710.23 72.83
1343 13.2900 5430.85 4749.88 73.69
1344 13.2984 5552.63 4821.96 74.52
1345 13.3068 5621.65 4887.88 74.98
1346 13.3152 5649.53 4943.54 75.16
1347 13.3236 5586.66 4989.13 74.74
1348 13.3320 5498.85 5027.64 74.15
1349 13.3404 5371.91 5060.72 73.29
1350 13.3488 5226.64 5085.28 72.30
1351 13.3572 5103.37 5093.22 71.44
1352 13.3656 4982.92 5074.99 70.59
1353 13.3740 4872.59 5026.04 69.80
1354 13.3824 4784.17 4950.84 69.17
1355 13.3908 4690.34 4860.25 68.49
1356 13.3992 4617.21 4765.68 67.95
1357 13.4076 4563.22 4675.66 67.55
1358 13.4160 4506.53 4595.37 67.13
1359 13.4244 4473.59 4527.30 66.88
1360 13.4328 4453.16 4472.08 66.73
1361 13.4412 4426.89 4429.03 66.53
1362 13.4496 4418.57 4396.67 66.47
1363 13.4580 4413.46 4373.15 66.43
1364 13.4664 4418.44 4356.58 66.47
1365 13.4748 4430.89 4345.27 66.56
1366 13.4832 4446.61 4337.82 66.68
1367 13.4916 4463.58 4333.18 66.81
1368 13.5000 4480.02 4330.61 66.93
1369 13.5084 4482.34 4329.68 66.95
1370 13.5168 4501.63 4330.01 67.09
1371 13.5252 4488.34 4334.03 67.00
1372 13.5336 4483.39 4337.23 66.96
1373 13.5420 4469.78 4342.22 66.86
1374 13.5504 4464.81 4349.30 66.82
1375 13.5588 4455.64 4358.72 66.75
1376 13.5672 4447.44 4370.96 66.69
1377 13.5756 4452.65 4385.39 66.73
1378 13.5840 4460.43 4401.76 66.79
1379 13.5924 4461.84 4419.59 66.80
1380 13.6008 4468.63 4437.89 66.85
1381 13.6092 4479.61 4453.60 66.93
1382 13.6176 4488.22 4470.98 66.99
1383 13.6260 4497.17 4484.93 67.06
1384 13.6344 4499.18 4506.27 67.08
1385 13.6428 4518.59 4521.87 67.22
1386 13.6512 4544.67 4542.35 67.41
1387 13.6596 4568.45 4571.10 67.59
1388 13.6680 4623.60 4612.32 68.00
1389 13.6764 4691.75 4671.64 68.50
1390 13.6848 4794.54 4756.63 69.24
1391 13.6932 4927.04 4877.16 70.19
1392 13.7016 5092.98 5045.48 71.37
1393 13.7100 5324.94 5275.35 72.97
1394 13.7184 5617.73 5580.54 74.95
1395 13.7268 5995.18 5972.33 77.43
1396 13.7352 6475.89 6455.94 80.47
1397 13.7436 7038.98 7026.93 83.90
1398 13.7520 7683.30 7666.28 87.65
1399 13.7604 8410.91 8335.24 91.71
1400 13.7688 9070.46 8970.48 95.24
1401 13.7772 9634.09 9484.06 98.15
1402 13.7856 9962.81 9780.29 99.81
1403 13.7940 9947.78 9791.90 99.74
1404 13.8024 9635.43 9517.11 98.16
1405 13.8108 9120.99 9022.07 95.50
1406 13.8192 8415.27 8405.07 91.73
1407 13.8276 7749.58 7756.56 88.03
1408 13.8360 7112.52 7141.69 84.34
1409 13.8444 6560.51 6601.00 81.00
1410 13.8528 6101.53 6156.09 78.11
1411 13.8612 5773.17 5815.37 75.98
1412 13.8696 5523.43 5579.25 74.32
1413 13.8780 5373.38 5444.20 73.30
1414 13.8864 5297.80 5406.04 72.79
1415 13.8948 5297.53 5462.10 72.78
1416 13.9032 5368.07 5611.59 73.27
1417 13.9116 5533.43 5854.31 74.39
1418 13.9200 5761.77 6188.12 75.91
1419 13.9284 6102.12 6605.62 78.12
1420 13.9368 6522.48 7090.02 80.76
1421 13.9452 7033.18 7610.45 83.86
1422 13.9536 7633.22 8116.93 87.37
1423 13.9620 8227.21 8537.48 90.70
1424 13.9704 8799.09 8788.27 93.80
1425 13.9788 9116.13 8804.83 95.48
1426 13.9872 9159.21 8578.66 95.70
1427 13.9956 8893.45 8162.59 94.31
1428 14.0040 8346.62 7638.60 91.36
1429 14.0124 7647.11 7082.27 87.45
1430 14.0208 6953.78 6560.52 83.39
1431 14.0292 6329.01 6080.69 79.56
1432 14.0376 5795.05 5671.40 76.13
1433 14.0460 5379.67 5338.52 73.35
1434 14.0544 5083.95 5077.56 71.30
1435 14.0628 4833.71 4879.61 69.52
1436 14.0712 4666.57 4733.29 68.31
1437 14.0796 4541.22 4627.14 67.39
1438 14.0880 4455.36 4550.87 66.75
1439 14.0964 4393.30 4494.95 66.28
1440 14.1048 4345.47 4455.74 65.92
1441 14.1132 4317.30 4427.66 65.71
1442 14.1216 4296.73 4408.02 65.55
1443 14.1300 4283.72 4395.29 65.45
1444 14.1384 4281.07 4388.91 65.43
1445 14.1468 4288.09 4389.08 65.48
1446 14.1552 4306.29 4396.72 65.62
1447 14.1636 4334.03 4413.48 65.83
1448 14.1720 4363.19 4441.92 66.05
1449 14.1804 4411.90 4484.41 66.42
1450 14.1888 4477.36 4544.39 66.91
1451 14.1972 4546.68 4624.92 67.43
1452 14.2056 4645.71 4728.37 68.16
1453 14.2140 4759.17 4855.72 68.99
1454 14.2224 4883.69 5005.70 69.88
1455 14.2308 5024.79 5174.47 70.89
1456 14.2392 5167.31 5352.53 71.88
1457 14.2476 5321.28 5526.82 72.95
1458 14.2560 5454.01 5679.93 73.85
1459 14.2644 5567.70 5796.52 74.62
1460 14.2728 5687.29 5873.12 75.41
1461 14.2812 5804.99 5923.67 76.19
1462 14.2896 5936.66 5974.61 77.05
1463 14.2980 6115.60 6054.31 78.20
1464 14.3064 6326.13 6185.96 79.54
1465 14.3148 6595.02 6385.69 81.21
1466 14.3232 6904.31 6662.60 83.09
1467 14.3316 7260.53 7017.02 85.21
1468 14.3400 7672.28 7437.98 87.59
1469 14.3484 8072.44 7894.05 89.85
1470 14.3568 8421.55 8337.92 91.77
1471 14.3652 8677.29 8703.03 93.15
1472 14.3736 8783.71 8915.74 93.72
1473 14.3820 8708.31 8921.11 93.32
1474 14.3904 8481.34 8696.07 92.09
1475 14.3988 8084.54 8281.97 89.91
1476 14.4072 7627.57 7751.40 87.34
1477 14.4156 7138.69 7178.67 84.49
1478 14.4240 6640.32 6620.48 81.49
1479 14.4324 6197.78 6113.05 78.73
1480 14.4408 5799.23 5675.24 76.15
1481 14.4492 5453.33 5313.47 73.85
1482 14.4576 5168.44 5025.58 71.89
1483 14.4660 4944.41 4803.56 70.32
1484 14.4744 4762.19 4636.70 69.01
1485 14.4828 4615.41 4513.47 67.94
1486 14.4912 4499.28 4423.20 67.08
1487 14.4996 4398.90 4357.01 66.32
1488 14.5080 4326.70 4307.96 65.78
1489 14.5164 4261.42 4271.01 65.28
1490 14.5248 4219.06 4240.28 64.95
1491 14.5332 4174.65 4210.32 64.61
1492 14.5416 4143.85 4193.61 64.37
1493 14.5500 4119.92 4180.92 64.19
1494 14.5584 4104.05 4171.71 64.06
1495 14.5668 4094.50 4165.66 63.99
1496 14.5752 4086.78 4162.62 63.93
1497 14.5836 4084.42 4167.04 63.91
1498 14.5920 4089.66 4170.09 63.95
1499 14.6004 4091.88 4176.37 63.97
1500 14.6088 4108.31 4186.59 64.10
1501 14.6172 4127.95 4200.51 64.25
1502 14.6256 4152.27 4219.36 64.44
1503 14.6340 4182.17 4244.49 64.67
1504 14.6424 4220.42 4278.02 64.96
1505 14.6508 4282.16 4323.20 65.44
1506 14.6592 4345.08 4385.65 65.92
1507 14.6676 4433.21 4470.95 66.58
1508 14.6760 4544.05 4589.44 67.41
1509 14.6844 4691.64 4753.37 68.50
1510 14.6928 4886.53 4977.17 69.90
1511 14.7012 5149.62 5276.35 71.76
1512 14.7096 5481.49 5665.28 74.04
1513 14.7180 5914.41 6145.11 76.91
1514 14.7264 6496.51 6735.81 80.60
1515 14.7348 7179.58 7418.55 84.73
1516 14.7432 8038.64 8166.68 89.66
1517 14.7516 8997.21 8930.11 94.85
1518 14.7600 10010.80 9630.46 100.05
1519 14.7684 10910.20 10162.50 104.45
1520 14.7768 11575.40 10418.20 107.59
1521 14.7852 11785.20 10335.00 108.56
1522 14.7936 11462.80 9933.26 107.06
1523 14.8020 10710.70 9303.53 103.49
1524 14.8104 9676.11 8557.43 98.37
1525 14.8188 8620.68 7789.04 92.85
1526 14.8272 7599.27 7063.49 87.17
1527 14.8356 6732.67 6419.08 82.05
1528 14.8440 6062.07 5874.25 77.86
1529 14.8524 5511.65 5433.26 74.24
1530 14.8608 5126.49 5090.02 71.60
1531 14.8692 4829.63 4832.42 69.50
1532 14.8776 4652.90 4645.74 68.21
1533 14.8860 4492.22 4514.95 67.02
1534 14.8944 4387.90 4426.52 66.24
1535 14.9028 4309.76 4369.13 65.65
1536 14.9112 4268.95 4333.61 65.34
1537 14.9196 4232.60 4312.59 65.06
1538 14.9280 4212.15 4300.20 64.90
1539 14.9364 4195.84 4292.37 64.78
1540 14.9448 4185.22 4286.96 64.69
1541 14.9532 4188.37 4283.45 64.72
1542 14.9616 4185.39 4281.59 64.69
1543 14.9700 4196.16 4280.27 64.78
1544 14.9784 4188.19 4277.28 64.72
1545 14.9868 4183.31 4270.26 64.68
1546 14.9952 4188.90 4258.55 64.72
1547 15.0036 4183.29 4244.48 64.68
1548 15.0120 4189.48 4233.13 64.73
1549 15.0204 4209.43 4229.56 64.88
1550 15.0288 4224.46 4241.19 65.00
1551 15.0372 4264.37 4272.21 65.30
1552 15.0456 4313.08 4327.03 65.67
1553 15.0540 4384.57 4409.17 66.22
1554 15.0624 4479.66 4520.52 66.93
1555 15.0708 4593.82 4662.05 67.78
1556 15.0792 4740.93 4830.16 68.85
1557 15.0876 4888.03 5018.04 69.91
1558 15.0960 5039.26 5215.29 70.99
1559 15.1044 5203.69 5406.78 72.14
1560 15.1128 5335.40 5579.09 73.04
1561 15.1212 5443.50 5722.57 73.78
1562 15.1296 5513.99 5818.85 74.26
1563 15.1380 5521.19 5839.92 74.30
1564 15.1464 5492.55 5786.01 74.11
1565 15.1548 5390.91 5650.70 73.42
1566 15.1632 5271.02 5454.21 72.60
1567 15.1716 5114.21 5227.48 71.51
1568 15.1800 4952.63 4993.94 70.37
1569 15.1884 4792.88 4774.26 69.23
1570 15.1968 4645.13 4580.07 68.16
1571 15.2052 4515.17 4417.22 67.19
1572 15.2136 4403.31 4287.61 66.36
1573 15.2220 4319.96 4190.80 65.73
1574 15.2304 4259.78 4125.02 65.27
1575 15.2388 4220.22 4088.41 64.96
1576 15.2472 4199.80 4079.83 64.81
1577 15.2556 4191.48 4099.38 64.74
1578 15.2640 4209.67 4148.59 64.88
1579 15.2724 4254.33 4230.13 65.23
1580 15.2808 4310.68 4347.02 65.66
1581 15.2892 4408.27 4501.69 66.39
1582 15.2976 4538.14 4694.69 67.37
1583 15.3060 4697.95 4923.06 68.54
1584 15.3144 4885.07 5178.96 69.89
1585 15.3228 5091.23 5447.49 71.35
1586 15.3312 5310.53 5704.49 72.87
1587 15.3396 5491.23 5916.81 74.10
1588 15.3480 5604.33 6048.11 74.86
1589 15.3564 5615.05 6073.31 74.93
1590 15.3648 5548.11 5991.69 74.49
1591 15.3732 5419.51 5826.40 73.62
1592 15.3816 5248.70 5611.01 72.45
1593 15.3900 5084.57 5376.84 71.31
1594 15.3984 4935.83 5147.62 70.26
1595 15.4068 4810.68 4940.78 69.36
1596 15.4152 4703.48 4757.23 68.58
1597 15.4236 4604.12 4598.80 67.85
1598 15.4320 4508.07 4460.00 67.14
1599 15.4404 4414.49 4334.70 66.44
1600 15.4488 4310.03 4219.39 65.65
1601 15.4572 4205.89 4115.10 64.85
1602 15.4656 4106.46 4022.66 64.08
1603 15.4740 4002.32 3938.73 63.26
1604 15.4824 3916.41 3866.13 62.58
1605 15.4908 3833.56 3804.35 61.92
1606 15.4992 3765.61 3752.56 61.36
1607 15.5076 3710.21 3709.68 60.91
1608 15.5160 3658.19 3675.94 60.48
1609 15.5244 3622.99 3647.36 60.19
1610 15.5328 3589.12 3624.14 59.91
1611 15.5412 3558.47 3592.36 59.65
1612 15.5496 3540.27 3577.38 59.50
1613 15.5580 3518.99 3564.59 59.32
1614 15.5664 3507.83 3553.79 59.23
1615 15.5748 3496.14 3544.54 59.13
1616 15.5832 3486.90 3536.54 59.05
1617 15.5916 3474.50 3529.61 58.94
1618 15.6000 3465.07 3523.61 58.86
1619 15.6084 3466.08 3518.47 58.87
1620 15.6168 3454.08 3514.18 58.77
1621 15.6252 3451.17 3510.74 58.75
1622 15.6336 3445.71 3508.20 58.70
1623 15.6420 3442.20 3506.63 58.67
1624 15.6504 3442.34 3506.18 58.67
1625 15.6588 3447.06 3507.00 58.71
1626 15.6672 3444.58 3509.37 58.69
1627 15.6756 3457.18 3513.64 58.80
1628 15.6840 3466.75 3520.34 58.88
1629 15.6924 3468.60 3530.16 58.89
1630 15.7008 3490.57 3543.75 59.08
1631 15.7092 3502.70 3562.72 59.18
1632 15.7176 3531.57 3588.94 59.43
1633 15.7260 3564.05 3622.30 59.70
1634 15.7344 3595.58 3666.84 59.96
1635 15.7428 3646.32 3720.44 60.38
1636 15.7512 3689.88 3790.65 60.74
1637 15.7596 3756.20 3865.96 61.29
1638 15.7680 3811.33 3950.36 61.74
1639 15.7764 3877.49 4039.03 62.27
1640 15.7848 3935.90 4124.98 62.74
1641 15.7932 3990.43 4198.63 63.17
1642 15.8016 4016.77 4250.07 63.38
1643 15.8100 4033.92 4273.47 63.51
1644 15.8184 4021.32 4270.80 63.41
1645 15.8268 4007.25 4251.16 63.30
1646 15.8352 3985.34 4225.60 63.13
1647 15.8436 3958.99 4203.55 62.92
1648 15.8520 3955.01 4190.33 62.89
1649 15.8604 3953.31 4187.39 62.88
1650 15.8688 3970.51 4191.59 63.01
1651 15.8772 4000.08 4197.48 63.25
1652 15.8856 4033.78 4203.32 63.51
1653 15.8940 4077.02 4207.68 63.85
1654 15.9024 4118.38 4214.03 64.17
1655 15.9108 4180.28 4226.84 64.66
1656 15.9192 4229.73 4245.15 65.04
1657 15.9276 4283.46 4274.27 65.45
1658 15.9360 4328.17 4304.66 65.79
1659 15.9444 4359.14 4325.99 66.02
1660 15.9528 4367.82 4326.08 66.09
1661 15.9612 4339.59 4295.93 65.88
1662 15.9696 4273.48 4234.47 65.37
1663 15.9780 4187.62 4149.01 64.71
1664 15.9864 4100.43 4050.80 64.03
1665 15.9948 3993.23 3950.32 63.19
1666 16.0032 3887.69 3855.25 62.35
1667 16.0116 3806.20 3771.38 61.69
1668 16.0200 3729.86 3699.17 61.07
1669 16.0284 3658.92 3640.54 60.49
1670 16.0368 3614.23 3595.23 60.12
1671 16.0452 3568.27 3562.28 59.74
1672 16.0536 3541.83 3540.41 59.51
1673 16.0620 3529.43 3528.39 59.41
1674 16.0704 3522.52 3528.19 59.35
1675 16.0788 3524.64 3533.72 59.37
1676 16.0872 3542.23 3548.16 59.52
1677 16.0956 3570.31 3572.66 59.75
1678 16.1040 3604.10 3609.20 60.03
1679 16.1124 3650.14 3660.44 60.42
1680 16.1208 3728.03 3729.64 61.06
1681 16.1292 3804.84 3815.98 61.68
1682 16.1376 3909.32 3931.76 62.52
1683 16.1460 4026.19 4075.40 63.45
1684 16.1544 4169.22 4249.72 64.57
1685 16.1628 4362.73 4452.31 66.05
1686 16.1712 4554.63 4680.94 67.49
1687 16.1796 4787.72 4927.87 69.19
1688 16.1880 5025.86 5179.83 70.89
1689 16.1964 5275.73 5420.06 72.63
1690 16.2048 5546.69 5633.97 74.48
1691 16.2132 5779.59 5815.40 76.02
1692 16.2216 6014.18 5970.56 77.55
1693 16.2300 6189.94 6105.81 78.68
1694 16.2384 6334.34 6220.66 79.59
1695 16.2468 6416.94 6302.91 80.11
1696 16.2552 6400.96 6332.71 80.01
1697 16.2636 6344.48 6293.95 79.65
1698 16.2720 6209.82 6185.52 78.80
1699 16.2804 6045.11 6022.68 77.75
1700 16.2888 5879.41 5827.69 76.68
1701 16.2972 5670.29 5618.67 75.30
1702 16.3056 5477.85 5404.75 74.01
1703 16.3140 5276.42 5188.98 72.64
1704 16.3224 5066.87 4973.95 71.18
1705 16.3308 4866.68 4764.34 69.76
1706 16.3392 4674.41 4565.73 68.37
1707 16.3476 4502.18 4382.89 67.10
1708 16.3560 4361.58 4219.05 66.04
1709 16.3644 4241.40 4076.48 65.13
1710 16.3728 4153.71 3956.63 64.45
1711 16.3812 4074.82 3859.82 63.83
1712 16.3896 4031.72 3785.66 63.50
1713 16.3980 4007.41 3733.43 63.30
1714 16.4064 4013.76 3702.69 63.35
1715 16.4148 4047.58 3693.62 63.62
1716 16.4232 4090.52 3707.44 63.96
1717 16.4316 4175.82 3746.58 64.62
1718 16.4400 4276.63 3814.76 65.40
1719 16.4484 4414.19 3916.81 66.44
1720 16.4568 4594.81 4058.11 67.79
1721 16.4652 4797.10 4243.85 69.26
1722 16.4736 5038.51 4477.89 70.98
1723 16.4820 5293.47 4760.95 72.76
1724 16.4904 5575.89 5089.13 74.67
1725 16.4988 5863.88 5452.00 76.58
1726 16.5072 6097.63 5834.04 78.09
1727 16.5156 6305.69 6202.30 79.41
1728 16.5240 6433.37 6525.56 80.21
1729 16.5324 6499.10 6764.05 80.62
1730 16.5408 6461.34 6879.44 80.38
1731 16.5492 6333.37 6846.64 79.58
1732 16.5576 6172.25 6666.94 78.56
1733 16.5660 5923.68 6370.29 76.97
1734 16.5744 5654.98 6002.69 75.20
1735 16.5828 5373.42 5610.39 73.30
1736 16.5912 5083.28 5227.38 71.30
1737 16.5996 4829.60 4879.62 69.50
1738 16.6080 4584.56 4577.98 67.71
1739 16.6164 4381.49 4328.49 66.19
1740 16.6248 4216.36 4126.62 64.93
1741 16.6332 4070.54 3968.71 63.80
1742 16.6416 3955.28 3847.62 62.89
1743 16.6500 3855.37 3755.18 62.09
1744 16.6584 3783.33 3683.23 61.51
1745 16.6668 3713.68 3624.58 60.94
1746 16.6752 3646.55 3573.07 60.39
1747 16.6836 3599.96 3528.02 60.00
1748 16.6920 3555.23 3488.09 59.63
1749 16.7004 3514.75 3454.07 59.29
1750 16.7088 3493.94 3427.10 59.11
1751 16.7172 3468.52 3408.39 58.89
1752 16.7256 3462.97 3399.16 58.85
1753 16.7340 3461.22 3400.61 58.83
1754 16.7424 3469.42 3413.98 58.90
1755 16.7508 3499.76 3438.87 59.16
1756 16.7592 3530.72 3481.29 59.42
1757 16.7676 3577.88 3537.30 59.82
1758 16.7760 3638.24 3609.05 60.32
1759 16.7844 3721.78 3696.79 61.01
1760 16.7928 3808.14 3798.39 61.71
1761 16.8012 3913.50 3911.10 62.56
1762 16.8096 4023.76 4030.08 63.43
1763 16.8180 4129.03 4149.96 64.26
1764 16.8264 4232.24 4267.05 65.06
1765 16.8348 4334.92 4380.76 65.84
1766 16.8432 4410.23 4491.74 66.41
1767 16.8516 4486.70 4599.29 66.98
1768 16.8600 4550.07 4693.32 67.45
1769 16.8684 4596.36 4761.53 67.80
1770 16.8768 4619.35 4788.66 67.97
1771 16.8852 4614.08 4765.80 67.93
1772 16.8936 4595.64 4696.76 67.79
1773 16.9020 4531.82 4597.18 67.32
1774 16.9104 4473.36 4485.92 66.88
1775 16.9188 4419.86 4379.54 66.48
1776 16.9272 4371.74 4288.11 66.12
1777 16.9356 4352.13 4215.22 65.97
1778 16.9440 4339.05 4158.49 65.87
1779 16.9524 4359.46 4110.45 66.03
1780 16.9608 4373.59 4060.42 66.13
1781 16.9692 4380.56 3998.32 66.19
1782 16.9776 4362.56 3919.16 66.05
1783 16.9860 4300.54 3824.92 65.58
1784 16.9944 4191.22 3722.25 64.74
1785 17.0028 4055.03 3615.91 63.68
1786 17.0112 3897.41 3517.27 62.43
1787 17.0196 3750.20 3427.42 61.24
1788 17.0280 3617.23 3348.41 60.14
1789 17.0364 3503.30 3281.04 59.19
1790 17.0448 3407.86 3225.11 58.38
1791 17.0532 3338.54 3178.27 57.78
1792 17.0616 3280.67 3139.41 57.28
1793 17.0700 3240.26 3111.29 56.92
1794 17.0784 3201.70 3089.53 56.58
1795 17.0868 3180.82 3072.80 56.40
1796 17.0952 3156.23 3059.98 56.18
1797 17.1036 3146.06 3050.16 56.09
1798 17.1120 3143.23 3041.33 56.06
1799 17.1204 3121.64 3035.78 55.87
1800 17.1288 3115.61 3031.80 55.82
1801 17.1372 3105.20 3029.23 55.72
1802 17.1456 3111.32 3027.61 55.78
1803 17.1540 3100.94 3027.69 55.69
1804 17.1624 3109.50 3029.19 55.76
1805 17.1708 3106.26 3032.30 55.73
1806 17.1792 3109.55 3037.36 55.76
1807 17.1876 3127.81 3044.88 55.93
1808 17.1960 3117.53 3055.62 55.83
1809 17.2044 3134.48 3070.68 55.99
1810 17.2128 3144.04 3092.22 56.07
1811 17.2212 3168.78 3120.92 56.29
1812 17.2296 3204.14 3159.81 56.61
1813 17.2380 3227.12 3211.63 56.81
1814 17.2464 3272.96 3279.21 57.21
1815 17.2548 3327.05 3365.19 57.68
1816 17.2632 3397.94 3471.54 58.29
1817 17.2716 3493.09 3598.91 59.10
1818 17.2800 3612.62 3746.15 60.11
1819 17.2884 3749.60 3909.49 61.23
1820 17.2968 3923.00 4082.03 62.63
1821 17.3052 4107.65 4251.07 64.09
1822 17.3136 4312.89 4400.05 65.67
1823 17.3220 4478.82 4508.13 66.92
1824 17.3304 4626.29 4559.61 68.02
1825 17.3388 4669.53 4547.61 68.33
1826 17.3472 4634.89 4479.35 68.08
1827 17.3556 4533.70 4372.60 67.33
1828 17.3640 4368.98 4259.29 66.10
1829 17.3724 4201.89 4149.11 64.82
1830 17.3808 4043.94 4055.27 63.59
1831 17.3892 3909.85 3983.98 62.53
1832 17.3976 3819.10 3936.89 61.80
1833 17.4060 3756.38 3911.78 61.29
1834 17.4144 3719.84 3902.68 60.99
1835 17.4228 3685.31 3900.10 60.71
1836 17.4312 3649.55 3892.20 60.41
1837 17.4396 3621.39 3867.98 60.18
1838 17.4480 3563.75 3821.97 59.70
1839 17.4564 3520.91 3755.95 59.34
1840 17.4648 3460.33 3677.46 58.82
1841 17.4732 3409.36 3595.88 58.39
1842 17.4816 3373.39 3519.36 58.08
1843 17.4900 3331.18 3454.94 57.72
1844 17.4984 3303.96 3406.95 57.48
1845 17.5068 3289.22 3379.08 57.35
1846 17.5152 3293.88 3374.02 57.39
1847 17.5236 3304.92 3389.65 57.49
1848 17.5320 3326.92 3427.43 57.68
1849 17.5404 3368.75 3485.82 58.04
1850 17.5488 3418.39 3561.93 58.47
1851 17.5572 3493.63 3651.12 59.11
1852 17.5656 3561.71 3746.45 59.68
1853 17.5740 3635.36 3838.51 60.29
1854 17.5824 3725.87 3916.19 61.04
1855 17.5908 3772.95 3969.39 61.42
1856 17.5992 3820.77 3992.91 61.81
1857 17.6076 3834.09 3988.54 61.92
1858 17.6160 3820.45 3963.47 61.81
1859 17.6244 3796.61 3926.96 61.62
1860 17.6328 3757.36 3886.80 61.30
1861 17.6412 3736.54 3851.90 61.13
1862 17.6496 3700.94 3824.60 60.84
1863 17.6580 3692.49 3804.61 60.77
1864 17.6664 3675.10 3787.52 60.62
1865 17.6748 3641.48 3766.24 60.34
1866 17.6832 3606.20 3733.72 60.05
1867 17.6916 3552.51 3686.38 59.60
1868 17.7000 3488.73 3622.87 59.07
1869 17.7084 3416.57 3553.04 58.45
1870 17.7168 3341.13 3478.97 57.80
1871 17.7252 3280.94 3404.13 57.28
1872 17.7336 3210.07 3330.64 56.66
1873 17.7420 3154.85 3260.16 56.17
1874 17.7504 3099.16 3194.42 55.67
1875 17.7588 3050.67 3134.95 55.23
1876 17.7672 3016.93 3082.92 54.93
1877 17.7756 2988.20 3038.32 54.66
1878 17.7840 2974.93 3002.11 54.54
1879 17.7924 2952.53 2970.06 54.34
1880 17.8008 2929.37 2945.25 54.12
1881 17.8092 2926.22 2925.34 54.09
1882 17.8176 2910.02 2909.47 53.94
1883 17.8260 2900.68 2896.99 53.86
1884 17.8344 2897.74 2886.99 53.83
1885 17.8428 2890.89 2879.06 53.77
1886 17.8512 2893.15 2872.77 53.79
1887 17.8596 2885.30 2867.78 53.72
1888 17.8680 2893.30 2863.85 53.79
1889 17.8764 2884.84 2860.82 53.71
1890 17.8848 2884.83 2858.58 53.71
1891 17.8932 2894.23 2858.99 53.80
1892 17.9016 2880.08 2858.26 53.67
1893 17.9100 2891.39 2858.32 53.77
1894 17.9184 2897.81 2859.28 53.83
1895 17.9268 2894.27 2861.32 53.80
1896 17.9352 2916.42 2864.69 54.00
1897 17.9436 2920.24 2869.75 54.04
1898 17.9520 2939.21 2876.94 54.21
1899 17.9604 2949.64 2886.73 54.31
1900 17.9688 2967.27 2899.66 54.47
1901 17.9772 2991.21 2916.27 54.69
1902 17.9856 3007.45 2936.97 54.84
1903 17.9940 3045.86 2962.00 55.19
1904 18.0024 3069.34 2991.31 55.40
1905 18.0108 3101.26 3024.48 55.69
1906 18.0192 3131.09 3060.47 55.96
1907 18.0276 3156.52 3098.27 56.18
1908 18.0360 3186.73 3133.86 56.45
1909 18.0444 3198.06 3164.55 56.55
1910 18.0528 3210.25 3187.05 56.66
1911 18.0612 3219.89 3199.51 56.74
1912 18.0696 3222.83 3202.66 56.77
1913 18.0780 3218.93 3201.21 56.74
1914 18.0864 3210.27 3197.16 56.66
1915 18.0948 3224.29 3194.53 56.78
1916 18.1032 3225.13 3196.91 56.79
1917 18.1116 3228.36 3205.99 56.82
1918 18.1200 3245.78 3222.21 56.97
1919 18.1284 3266.35 3245.03 57.15
1920 18.1368 3293.06 3273.31 57.39
1921 18.1452 3316.75 3306.14 57.59
1922 18.1536 3357.65 3343.40 57.95
1923 18.1620 3399.53 3382.41 58.31
1924 18.1704 3428.13 3429.45 58.55
1925 18.1788 3466.09 3479.78 58.87
1926 18.1872 3483.36 3529.61 59.02
1927 18.1956 3512.89 3572.51 59.27
1928 18.2040 3520.98 3600.60 59.34
1929 18.2124 3506.37 3606.96 59.21
1930 18.2208 3503.51 3588.77 59.19
1931 18.2292 3472.25 3549.51 58.93
1932 18.2376 3452.16 3497.76 58.76
1933 18.2460 3420.22 3441.00 58.48
1934 18.2544 3389.97 3388.40 58.22
1935 18.2628 3365.32 3347.17 58.01
1936 18.2712 3345.75 3319.13 57.84
1937 18.2796 3361.87 3311.41 57.98
1938 18.2880 3349.22 3324.52 57.87
1939 18.2964 3375.62 3359.25 58.10
1940 18.3048 3412.09 3415.00 58.41
1941 18.3132 3458.28 3489.60 58.81
1942 18.3216 3523.89 3579.07 59.36
1943 18.3300 3595.44 3677.11 59.96
1944 18.3384 3681.20 3783.51 60.67
1945 18.3468 3762.43 3869.31 61.34
1946 18.3552 3830.29 3930.22 61.89
1947 18.3636 3890.89 3955.03 62.38
1948 18.3720 3916.50 3938.11 62.58
1949 18.3804 3907.24 3881.89 62.51
1950 18.3888 3872.22 3795.91 62.23
1951 18.3972 3788.57 3692.72 61.55
1952 18.4056 3704.17 3584.00 60.86
1953 18.4140 3598.41 3478.62 59.99
1954 18.4224 3501.72 3382.38 59.18
1955 18.4308 3417.98 3296.95 58.46
1956 18.4392 3328.70 3226.99 57.69
1957 18.4476 3261.75 3170.93 57.11
1958 18.4560 3202.06 3127.52 56.59
1959 18.4644 3163.15 3096.15 56.24
1960 18.4728 3125.68 3074.62 55.91
1961 18.4812 3108.53 3060.98 55.75
1962 18.4896 3090.68 3053.44 55.59
1963 18.4980 3081.84 3050.65 55.51
1964 18.5064 3088.95 3051.85 55.58
1965 18.5148 3096.25 3056.83 55.64
1966 18.5232 3110.48 3064.41 55.77
1967 18.5316 3141.94 3077.11 56.05
1968 18.5400 3161.91 3093.67 56.23
1969 18.5484 3213.01 3115.11 56.68
1970 18.5568 3251.72 3139.64 57.02
1971 18.5652 3299.79 3169.03 57.44
1972 18.5736 3347.72 3204.49 57.86
1973 18.5820 3394.02 3246.69 58.26
1974 18.5904 3465.00 3296.03 58.86
1975 18.5988 3508.87 3351.70 59.24
1976 18.6072 3567.93 3411.49 59.73
1977 18.6156 3618.05 3471.86 60.15
1978 18.6240 3655.25 3528.01 60.46
1979 18.6324 3690.91 3574.58 60.75
1980 18.6408 3694.16 3607.06 60.78
1981 18.6492 3722.03 3623.67 61.01
1982 18.6576 3726.83 3626.79 61.05
1983 18.6660 3733.96 3622.35 61.11
1984 18.6744 3743.68 3617.74 61.19
1985 18.6828 3753.41 3618.98 61.27
1986 18.6912 3788.37 3630.78 61.55
1987 18.6996 3813.15 3655.69 61.75
1988 18.7080 3856.74 3694.23 62.10
1989 18.7164 3902.68 3744.56 62.47
1990 18.7248 3921.88 3801.97 62.62
1991 18.7332 3957.23 3858.54 62.91
1992 18.7416 3953.49 3903.60 62.88
1993 18.7500 3943.49 3926.00 62.80
1994 18.7584 3907.63 3918.11 62.51
1995 18.7668 3854.64 3878.99 62.09
1996 18.7752 3807.69 3815.15 61.71
1997 18.7836 3735.60 3737.03 61.12
1998 18.7920 3678.84 3655.19 60.65
1999 18.8004 3613.37 3578.24 60.11
2000 18.8088 3562.51 3512.45 59.69
2001 18.8172 3533.37 3462.10 59.44
2002 18.8256 3494.65 3429.98 59.12
2003 18.8340 3484.91 3418.31 59.03
2004 18.8424 3487.18 3426.79 59.05
2005 18.8508 3498.32 3455.72 59.15
2006 18.8592 3528.42 3503.98 59.40
2007 18.8676 3549.93 3569.32 59.58
2008 18.8760 3606.00 3648.24 60.05
2009 18.8844 3641.24 3736.12 60.34
2010 18.8928 3695.56 3827.90 60.79
2011 18.9012 3738.39 3921.17 61.14
2012 18.9096 3776.61 4008.39 61.45
2013 18.9180 3821.05 4089.59 61.81
2014 18.9264 3842.61 4159.07 61.99
2015 18.9348 3858.33 4209.09 62.12
2016 18.9432 3853.92 4230.28 62.08
2017 18.9516 3840.23 4215.68 61.97
2018 18.9600 3814.01 4164.26 61.76
2019 18.9684 3773.86 4082.88 61.43
2020 18.9768 3725.49 3983.14 61.04
2021 18.9852 3663.15 3877.40 60.52
2022 18.9936 3632.11 3775.79 60.27
2023 19.0020 3591.13 3686.68 59.93
2024 19.0104 3561.85 3614.81 59.68
2025 19.0188 3559.35 3563.39 59.66
2026 19.0272 3556.51 3534.13 59.64
2027 19.0356 3580.09 3527.63 59.83
2028 19.0440 3609.88 3543.67 60.08
2029 19.0524 3646.02 3581.34 60.38
2030 19.0608 3713.39 3639.35 60.94
2031 19.0692 3770.16 3714.74 61.40
2032 19.0776 3859.06 3808.34 62.12
2033 19.0860 3949.39 3916.36 62.84
2034 19.0944 4056.43 4035.96 63.69
2035 19.1028 4154.34 4164.49 64.45
2036 19.1112 4273.18 4300.93 65.37
2037 19.1196 4424.29 4447.31 66.52
2038 19.1280 4583.54 4609.83 67.70
2039 19.1364 4795.79 4796.70 69.25
2040 19.1448 5056.52 5014.40 71.11
2041 19.1532 5364.45 5271.88 73.24
2042 19.1616 5758.50 5571.97 75.88
2043 19.1700 6196.13 5910.72 78.72
2044 19.1784 6710.21 6273.29 81.92
2045 19.1868 7198.58 6634.50 84.84
2046 19.1952 7609.51 6956.14 87.23
2047 19.2036 7933.20 7192.71 89.07
2048 19.2120 7996.61 7294.40 89.42
2049 19.2204 7910.22 7235.75 88.94
2050 19.2288 7581.41 7020.72 87.07
2051 19.2372 7117.37 6686.79 84.36
2052 19.2456 6579.84 6279.29 81.12
2053 19.2540 6021.08 5842.68 77.60
2054 19.2624 5481.23 5411.39 74.04
2055 19.2708 5014.98 5008.51 70.82
2056 19.2792 4610.44 4647.91 67.90
2057 19.2876 4287.52 4336.77 65.48
2058 19.2960 4014.22 4076.99 63.36
2059 19.3044 3815.12 3867.38 61.77
2060 19.3128 3662.60 3702.95 60.52
2061 19.3212 3553.13 3578.96 59.61
2062 19.3296 3476.40 3489.80 58.96
2063 19.3380 3435.48 3430.21 58.61
2064 19.3464 3409.74 3395.56 58.39
2065 19.3548 3402.73 3381.93 58.33
2066 19.3632 3415.34 3386.39 58.44
2067 19.3716 3443.77 3406.17 58.68
2068 19.3800 3476.21 3438.71 58.96
2069 19.3884 3518.19 3481.15 59.31
2070 19.3968 3548.80 3529.87 59.57
2071 19.4052 3594.65 3580.20 59.96
2072 19.4136 3615.36 3625.58 60.13
2073 19.4220 3636.85 3659.71 60.31
2074 19.4304 3638.12 3676.61 60.32
2075 19.4388 3616.63 3673.15 60.14
2076 19.4472 3590.07 3650.52 59.92
2077 19.4556 3532.38 3609.91 59.43
2078 19.4640 3484.62 3556.63 59.03
2079 19.4724 3422.87 3495.73 58.51
2080 19.4808 3344.38 3432.20 57.83
2081 19.4892 3283.75 3370.22 57.30
2082 19.4976 3219.15 3313.42 56.74
2083 19.5060 3157.73 3262.66 56.19
2084 19.5144 3108.10 3221.10 55.75
2085 19.5228 3069.78 3187.73 55.41
2086 19.5312 3026.97 3161.87 55.02
2087 19.5396 2999.57 3142.23 54.77
2088 19.5480 2976.70 3127.16 54.56
2089 19.5564 2951.39 3114.86 54.33
2090 19.5648 2940.43 3104.26 54.23
2091 19.5732 2928.35 3094.64 54.11
2092 19.5816 2920.13 3086.13 54.04
2093 19.5900 2921.23 3080.76 54.05
2094 19.5984 2918.63 3076.22 54.02
2095 19.6068 2923.40 3074.52 54.07
2096 19.6152 2930.02 3076.06 54.13
2097 19.6236 2943.44 3079.18 54.25
2098 19.6320 2962.38 3087.83 54.43
2099 19.6404 2976.27 3100.24 54.56
2100 19.6488 3003.99 3116.78 54.81
2101 19.6572 3029.87 3138.03 55.04
2102 19.6656 3066.68 3164.80 55.38
2103 19.6740 3101.52 3197.82 55.69
2104 19.6824 3148.13 3237.55 56.11
2105 19.6908 3187.10 3284.26 56.45
2106 19.6992 3226.28 3337.17 56.80
2107 19.7076 3271.49 3394.78 57.20
2108 19.7160 3311.48 3455.89 57.55
2109 19.7244 3357.04 3519.55 57.94
2110 19.7328 3411.20 3585.75 58.41
2111 19.7412 3494.58 3655.19 59.12
2112 19.7496 3580.24 3728.91 59.84
2113 19.7580 3686.70 3803.48 60.72
2114 19.7664 3809.34 3874.58 61.72
2115 19.7748 3920.47 3936.09 62.61
2116 19.7832 4019.82 3980.40 63.40
2117 19.7916 4087.05 3993.47 63.93
2118 19.8000 4088.51 3973.42 63.94
2119 19.8084 4050.48 3922.25 63.64
2120 19.8168 3952.99 3845.82 62.87
2121 19.8252 3834.30 3755.84 61.92
2122 19.8336 3699.54 3660.93 60.82
2123 19.8420 3570.74 3568.79 59.76
2124 19.8504 3456.41 3480.47 58.79
2125 19.8588 3355.33 3401.18 57.93
2126 19.8672 3290.74 3333.13 57.37
2127 19.8756 3233.28 3277.57 56.86
2128 19.8840 3196.79 3235.02 56.54
2129 19.8924 3182.21 3205.59 56.41
2130 19.9008 3175.89 3189.17 56.36
2131 19.9092 3188.52 3185.74 56.47
2132 19.9176 3208.92 3195.54 56.65
2133 19.9260 3247.15 3219.11 56.98
2134 19.9344 3297.89 3257.30 57.43
2135 19.9428 3351.57 3311.36 57.89
2136 19.9512 3433.12 3382.44 58.59
2137 19.9596 3513.19 3471.59 59.27
2138 19.9680 3633.48 3579.47 60.28
2139 19.9764 3742.78 3706.21 61.18
2140 19.9848 3877.59 3848.90 62.27
2141 19.9932 4017.59 4006.42 63.38
2142 20.0016 4158.32 4172.31 64.49
2143 20.0100 4300.23 4337.74 65.58
2144 20.0184 4421.94 4495.26 66.50
2145 20.0268 4556.23 4633.30 67.50
2146 20.0352 4652.76 4745.20 68.21
2147 20.0436 4744.98 4831.48 68.88
2148 20.0520 4836.75 4896.85 69.55
2149 20.0604 4911.42 4948.03 70.08
2150 20.0688 4995.41 4989.85 70.68
2151 20.0772 5062.22 5022.50 71.15
2152 20.0856 5108.45 5041.00 71.47
2153 20.0940 5130.09 5025.35 71.62
2154 20.1024 5106.74 4981.98 71.46
2155 20.1108 5052.12 4894.84 71.08
2156 20.1192 4920.16 4765.99 70.14
2157 20.1276 4778.30 4607.09 69.13
2158 20.1360 4601.79 4432.52 67.84
2159 20.1444 4402.35 4257.54 66.35
2160 20.1528 4226.83 4093.13 65.01
2161 20.1612 4051.98 3946.21 63.66
2162 20.1696 3904.94 3819.97 62.49
2163 20.1780 3778.52 3714.69 61.47
2164 20.1864 3671.26 3628.38 60.59
2165 20.1948 3589.08 3557.28 59.91
2166 20.2032 3505.33 3496.89 59.21
2167 20.2116 3441.85 3443.24 58.67
2168 20.2200 3388.85 3394.03 58.21
2169 20.2284 3347.62 3352.36 57.86
2170 20.2368 3306.30 3312.50 57.50
2171 20.2452 3280.48 3279.35 57.28
2172 20.2536 3257.14 3254.24 57.07
2173 20.2620 3240.39 3238.13 56.92
2174 20.2704 3242.00 3231.41 56.94
2175 20.2788 3238.56 3236.30 56.91
2176 20.2872 3244.11 3247.32 56.96
2177 20.2956 3256.84 3265.37 57.07
2178 20.3040 3266.33 3288.41 57.15
2179 20.3124 3272.12 3312.94 57.20
2180 20.3208 3278.00 3338.15 57.25
2181 20.3292 3287.82 3359.65 57.34
2182 20.3376 3285.59 3373.89 57.32
2183 20.3460 3277.19 3376.78 57.25
2184 20.3544 3265.29 3367.51 57.14
2185 20.3628 3249.83 3346.72 57.01
2186 20.3712 3233.28 3317.96 56.86
2187 20.3796 3207.61 3286.24 56.64
2188 20.3880 3195.94 3256.39 56.53
2189 20.3964 3188.39 3232.55 56.47
2190 20.4048 3185.37 3217.81 56.44
2191 20.4132 3192.47 3214.35 56.50
2192 20.4216 3205.39 3223.47 56.62
2193 20.4300 3233.61 3245.60 56.86
2194 20.4384 3272.80 3280.32 57.21
2195 20.4468 3323.25 3326.26 57.65
2196 20.4552 3395.33 3380.69 58.27
2197 20.4636 3467.80 3440.15 58.89
2198 20.4720 3556.32 3499.05 59.63
2199 20.4804 3644.86 3550.54 60.37
2200 20.4888 3716.47 3587.34 60.96
2201 20.4972 3779.10 3603.75 61.47
2202 20.5056 3807.49 3598.00 61.70
2203 20.5140 3807.84 3573.13 61.71
2204 20.5224 3764.44 3535.76 61.35
2205 20.5308 3711.07 3493.56 60.92
2206 20.5392 3641.86 3453.82 60.35
2207 20.5476 3577.65 3421.75 59.81
2208 20.5560 3528.86 3401.55 59.40
2209 20.5644 3482.20 3395.76 59.01
2210 20.5728 3473.72 3406.16 58.94
2211 20.5812 3476.28 3433.53 58.96
2212 20.5896 3506.72 3477.93 59.22
2213 20.5980 3556.72 3538.98 59.64
2214 20.6064 3620.39 3616.14 60.17
2215 20.6148 3708.26 3708.62 60.90
2216 20.6232 3809.13 3817.36 61.72
2217 20.6316 3917.07 3942.03 62.59
2218 20.6400 4037.02 4079.43 63.54
2219 20.6484 4161.78 4226.24 64.51
2220 20.6568 4282.92 4375.89 65.44
2221 20.6652 4386.64 4519.47 66.23
2222 20.6736 4494.43 4646.94 67.04
2223 20.6820 4571.89 4748.20 67.62
2224 20.6904 4640.28 4812.97 68.12
2225 20.6988 4681.97 4841.11 68.42
2226 20.7072 4714.15 4832.62 68.66
2227 20.7156 4723.88 4794.91 68.73
2228 20.7240 4716.23 4736.37 68.67
2229 20.7324 4689.39 4662.81 68.48
2230 20.7408 4631.14 4575.10 68.05
2231 20.7492 4553.73 4471.48 67.48
2232 20.7576 4442.04 4349.89 66.65
2233 20.7660 4308.76 4211.95 65.64
2234 20.7744 4165.08 4063.63 64.54
2235 20.7828 4008.37 3913.51 63.31
2236 20.7912 3873.82 3770.12 62.24
2237 20.7996 3740.61 3640.08 61.16
2238 20.8080 3637.10 3527.84 60.31
2239 20.8164 3554.52 3436.01 59.62
2240 20.8248 3488.75 3365.97 59.07
2241 20.8332 3456.24 3318.70 58.79
2242 20.8416 3440.21 3293.22 58.65
2243 20.8500 3439.64 3288.85 58.65
2244 20.8584 3456.99 3304.69 58.80
2245 20.8668 3480.72 3338.97 59.00
2246 20.8752 3519.35 3389.26 59.32
2247 20.8836 3560.78 3452.42 59.67
2248 20.8920 3607.66 3524.76 60.06
2249 20.9004 3655.23 3602.19 60.46
2250 20.9088 3696.20 3680.33 60.80
2251 20.9172 3733.20 3754.12 61.10
2252 20.9256 3765.58 3816.45 61.36
2253 20.9340 3771.58 3864.51 61.41
2254 20.9424 3774.88 3884.97 61.44
2255 20.9508 3761.00 3881.45 61.33
2256 20.9592 3733.36 3855.10 61.10
2257 20.9676 3697.70 3812.53 60.81
2258 20.9760 3668.35 3762.61 60.57
2259 20.9844 3633.91 3712.10 60.28
2260 20.9928 3602.00 3665.65 60.02
2261 21.0012 3577.21 3625.51 59.81
2262 21.0096 3552.08 3589.05 59.60
2263 21.0180 3538.09 3563.09 59.48
2264 21.0264 3521.60 3544.63 59.34
2265 21.0348 3525.20 3534.34 59.37
2266 21.0432 3519.00 3532.84 59.32
2267 21.0516 3534.56 3540.84 59.45
2268 21.0600 3557.30 3559.63 59.64
2269 21.0684 3592.47 3591.75 59.94
2270 21.0768 3643.99 3640.90 60.37
2271 21.0852 3720.51 3711.02 61.00
2272 21.0936 3818.16 3805.25 61.79
2273 21.1020 3952.65 3925.00 62.87
2274 21.1104 4111.67 4069.19 64.12
2275 21.1188 4298.09 4233.25 65.56
2276 21.1272 4494.27 4410.52 67.04
2277 21.1356 4685.85 4588.35 68.45
2278 21.1440 4843.03 4751.26 69.59
2279 21.1524 4949.93 4883.03 70.36
2280 21.1608 4974.73 4971.47 70.53
2281 21.1692 4942.69 5011.99 70.30
2282 21.1776 4862.13 5007.47 69.73
2283 21.1860 4747.93 4963.94 68.91
2284 21.1944 4618.02 4886.17 67.96
2285 21.2028 4479.56 4776.04 66.93
2286 21.2112 4339.83 4635.35 65.88
2287 21.2196 4203.86 4468.68 64.84
2288 21.2280 4058.62 4285.01 63.71
2289 21.2364 3927.40 4094.91 62.67
2290 21.2448 3787.07 3908.33 61.54
2291 21.2532 3655.13 3732.28 60.46
2292 21.2616 3528.18 3569.84 59.40
2293 21.2700 3421.24 3425.89 58.49
2294 21.2784 3316.06 3296.97 57.59
2295 21.2868 3222.17 3184.17 56.76
2296 21.2952 3149.26 3086.89 56.12
2297 21.3036 3065.25 3004.16 55.36
2298 21.3120 3002.11 2934.73 54.79
2299 21.3204 2940.08 2877.12 54.22
2300 21.3288 2897.62 2829.78 53.83
2301 21.3372 2858.01 2791.40 53.46
2302 21.3456 2819.36 2760.13 53.10
2303 21.3540 2789.27 2735.01 52.81
2304 21.3624 2770.79 2715.05 52.64
2305 21.3708 2754.42 2699.45 52.48
2306 21.3792 2742.60 2687.60 52.37
2307 21.3876 2739.57 2679.13 52.34
2308 21.3960 2730.20 2673.57 52.25
2309 21.4044 2726.06 2670.78 52.21
2310 21.4128 2729.19 2669.15 52.24
2311 21.4212 2726.97 2671.55 52.22
2312 21.4296 2732.30 2676.44 52.27
2313 21.4380 2736.50 2683.75 52.31
2314 21.4464 2746.53 2693.39 52.41
2315 21.4548 2748.22 2705.17 52.42
2316 21.4632 2755.76 2719.52 52.50
2317 21.4716 2776.12 2734.74 52.69
2318 21.4800 2786.78 2751.18 52.79
2319 21.4884 2801.53 2768.68 52.93
2320 21.4968 2810.39 2787.75 53.01
2321 21.5052 2829.96 2807.85 53.20
2322 21.5136 2849.96 2829.65 53.38
2323 21.5220 2870.26 2852.97 53.57
2324 21.5304 2889.70 2877.45 53.76
2325 21.5388 2910.02 2902.06 53.94
2326 21.5472 2927.31 2924.44 54.10
2327 21.5556 2937.37 2941.86 54.20
2328 21.5640 2937.79 2951.57 54.20
2329 21.5724 2934.37 2951.78 54.17
2330 21.5808 2926.55 2942.53 54.10
2331 21.5892 2911.04 2924.80 53.95
2332 21.5976 2891.42 2903.80 53.77
2333 21.6060 2877.07 2880.53 53.64
2334 21.6144 2866.54 2855.47 53.54
2335 21.6228 2856.83 2835.61 53.45
2336 21.6312 2846.67 2819.41 53.35
2337 21.6396 2839.41 2807.51 53.29
2338 21.6480 2838.10 2800.40 53.27
2339 21.6564 2825.76 2797.75 53.16
2340 21.6648 2831.08 2798.86 53.21
2341 21.6732 2818.60 2803.77 53.09
2342 21.6816 2821.01 2810.81 53.11
2343 21.6900 2816.60 2823.87 53.07
2344 21.6984 2822.73 2841.57 53.13
2345 21.7068 2826.69 2864.48 53.17
2346 21.7152 2845.70 2893.07 53.35
2347 21.7236 2861.60 2927.46 53.49
2348 21.7320 2892.48 2967.47 53.78
2349 21.7404 2930.20 3012.46 54.13
2350 21.7488 2983.24 3061.22 54.62
2351 21.7572 3026.58 3111.93 55.01
2352 21.7656 3089.25 3163.47 55.58
2353 21.7740 3146.91 3211.59 56.10
2354 21.7824 3213.36 3256.44 56.69
2355 21.7908 3265.40 3298.98 57.14
2356 21.7992 3320.37 3341.92 57.62
2357 21.8076 3373.87 3388.95 58.08
loop_
_pd_proc_info_excluded_regions
'from 0.999 to 2.000'
'from 21.8 to 22.014'
loop_
_restr_angle_atom_site_label_1
_restr_angle_site_symmetry_1
_restr_angle_atom_site_label_2
_restr_angle_site_symmetry_2
_restr_angle_atom_site_label_3
_restr_angle_site_symmetry_3
_restr_angle_target
_restr_angle_target_weight_param
N1 . C2 . N4 . 110.38 0.01
C2 . N1 . N2 . 106.4 0.01
N1 . N2 . N3 . 107.54 0.01
N2 . N3 . N4 . 109.49 0.01
N1 . C2 . C1 . 118.96 0.01
O1 . C1 . O2 . 128.38 0.01
C11 . N11 . C15 . 117 0.01
C12 . C13 . C14 . 120 0.01
N11 . C15 . C14 . 123 0.01
C13 . C16 . C17 . 109.47 0.01
C16 . C17 . C16 2_555 109.47 0.01
C12 . C13 . C16 . 120 0.01
H1c17 . C17 . H1c17 2_555 109.47 0.01
H1c17 . C17 . C16 . 109.47 0.01
loop_
_restr_distance_atom_site_label_1
_restr_distance_site_symmetry_1
_restr_distance_atom_site_label_2
_restr_distance_site_symmetry_2
_restr_distance_target
_restr_distance_target_weight_param
C2 . N1 . 1.317 0.001
N1 . N2 . 1.33 0.001
N2 . N3 . 1.324 0.001
N3 . N4 . 1.342 0.001
N4 . C2 . 1.329 0.001
C1 . C2 . 1.494 0.001
O1 . C1 . 1.229 0.001
C1 . O2 . 1.271 0.001
N11 . C11 . 1.347 0.001
N11 . C15 . 1.347 0.001
C11 . C12 . 1.39 0.001
C12 . C13 . 1.39 0.001
C13 . C14 . 1.39 0.001
C14 . C15 . 1.39 0.001
C13 . C16 . 1.51 0.001
C16 . C17 . 1.51 0.001
C17 . H1c17 . 0.96 0.001
loop_
_cod_changelog_entry_id
_cod_changelog_entry_author
_cod_changelog_entry_date
_cod_changelog_entry_text
1 'Vaitkus, Antanas' 2022-05-09T03:40:00+03:00
'Updated bibliographic information.'
