#------------------------------------------------------------------------------
#$Date: 2022-05-09 03:44:03 +0300 (Mon, 09 May 2022) $
#$Revision: 275240 $
#$URL: file:///home/coder/svn-repositories/cod/cif/7/11/91/7119154.cif $
#------------------------------------------------------------------------------
#
# This file is available in the Crystallography Open Database (COD),
# http://www.crystallography.net/
#
# All data on this site have been placed in the public domain by the
# contributors.
#
data_7119154
loop_
_publ_author_name
'Wood, Peter A.'
'Sarjeant, Amy A.'
'Yakovenko, Andrey A.'
'Ward, Suzanna C.'
'Groom, Colin R.'
_publ_section_title
;
 Capturing neon -- the first experimental structure of neon
 trapped within a metal-organic environment
;
_journal_coden_ASTM              CHCOFS
_journal_issue                   65
_journal_name_full
'Chemical Communications (Cambridge, United Kingdom)'
_journal_page_first              10048
_journal_page_last               10051
_journal_paper_doi               10.1039/c6cc04808k
_journal_volume                  52
_journal_year                    2016
_chemical_absolute_configuration .
_chemical_formula_moiety         '[Ni(C4HO3) 0.46(Ne)]n'
_chemical_formula_sum            'C4 H Ne0.46 Ni O3'
_chemical_formula_weight         165
_space_group_IT_number           148
_symmetry_cell_setting           trigonal
_symmetry_Int_Tables_number      148
_symmetry_space_group_name_Hall  '-R 3'
_symmetry_space_group_name_H-M   'R -3 :H'
_cell_angle_alpha                90
_cell_angle_beta                 90
_cell_angle_gamma                120
_cell_formula_units_Z            18
_cell_length_a                   25.7542(3)
_cell_length_b                   25.7542(3)
_cell_length_c                   6.7550(3)
_cell_measurement_temperature    200
_cell_volume                     3880.18(18)
_computing_cell_refinement       'Jana 2006 (Petricek, 2006)'
_computing_data_reduction        'GSASII(Toby & Von Dreele, 2013)'
_computing_molecular_graphics    'Mercury (version, 2015)'
_computing_publication_material  'Jana 2006 (Petricek, 2006)'
_computing_structure_refinement  'Jana 2006 (Petricek, 2006)'
_diffrn_ambient_temperature      200
_diffrn_detector                 'Flat Panel Detector'
_diffrn_detector_type            'Perkin-Elmer amorphous-Si'
_diffrn_measurement_device       '17-BM-B beamline'
_diffrn_radiation_monochromator  'PSL DCM Si(111)'
_diffrn_radiation_probe          x-ray
_diffrn_radiation_type           synchrotron
_diffrn_radiation_wavelength     0.72768
_diffrn_source                   synchrotron
_diffrn_source_type              synchrotron
_exptl_absorpt_coefficient_mu    2.368
_exptl_crystal_density_diffrn    1.2712
_exptl_crystal_F_000             1469
_pd_char_colour                  brown
_pd_char_particle_morphology     'small crystalline powder'
_pd_instr_location
; 
17-BM-B line diffractometer, APS, Argonne National Lab (USA)
;
_pd_meas_2theta_range_inc        0.008
_pd_meas_2theta_range_max        21.992
_pd_meas_2theta_range_min        1.000
_pd_meas_number_of_points        2500
_pd_prep_cool_rate               0.0
_pd_prep_pressure                10000
_pd_prep_temperature             200(2)
_pd_proc_2theta_range_inc        0.008
_pd_proc_2theta_range_max        21.798
_pd_proc_2theta_range_min        2.008
_pd_proc_ls_background_function  '8 Chebyshev polynoms'
_pd_proc_ls_pref_orient_corr     none
_pd_proc_ls_profile_function     Pseudo-Voigt
_pd_proc_ls_prof_R_factor        0.0382
_pd_proc_ls_prof_wR_expected     0.0166
_pd_proc_ls_prof_wR_factor       0.0519
_pd_proc_wavelength              0.72768
_pd_spec_mounting                'capton capillary with Ne exchange gas'
_pd_spec_mount_mode              transmission
_pd_spec_shape                   cylinder
_pd_spec_size_axial              10.0
_pd_spec_size_equat              0.9
_pd_spec_size_thick              0.9
_refine_diff_density_max         0.09
_refine_diff_density_min         -0.10
_refine_ls_goodness_of_fit_all   3.13
_refine_ls_hydrogen_treatment    constr
_refine_ls_number_constraints    22
_refine_ls_number_parameters     28
_refine_ls_number_restraints     0
_refine_ls_R_factor_all          0.0280
_refine_ls_R_factor_gt           0.0280
_refine_ls_shift/su_max          0.0419
_refine_ls_shift/su_mean         0.0050
_refine_ls_weighting_scheme      sigma
_refine_ls_wR_factor_all         0.0412
_refine_ls_wR_factor_gt          0.0412
_cod_data_source_file            c6cc04808k2-1.cif
_cod_data_source_block           200K100bar
_cod_depositor_comments
;
The following automatic conversions were performed:

'_diffrn_radiation_probe' value 'X-ray' changed to 'x-ray' according
to the built-in table from CIF Core dictionary named 'cif_core.dic'
version 2.4.1 from 2010-06-29.

Automatic conversion script
Id: cif_fix_values 4624 2016-04-14 12:54:50Z antanas 
;
_cod_original_cell_volume        3880.17(19)
_cod_original_sg_symbol_H-M      'R -3'
_cod_original_formula_sum        'C4 H1 Ne0.46 Ni1 O3'
_cod_database_code               7119154
loop_
_space_group_symop_id
_space_group_symop_operation_xyz
1 x,y,z
2 -y,x-y,z
3 -x+y,-x,z
4 -x,-y,-z
5 y,-x+y,-z
6 x-y,x,-z
7 x+2/3,y+1/3,z+1/3
8 -y+2/3,x-y+1/3,z+1/3
9 -x+y+2/3,-x+1/3,z+1/3
10 -x+2/3,-y+1/3,-z+1/3
11 y+2/3,-x+y+1/3,-z+1/3
12 x-y+2/3,x+1/3,-z+1/3
13 x+1/3,y+2/3,z+2/3
14 -y+1/3,x-y+2/3,z+2/3
15 -x+y+1/3,-x+2/3,z+2/3
16 -x+1/3,-y+2/3,-z+2/3
17 y+1/3,-x+y+2/3,-z+2/3
18 x-y+1/3,x+2/3,-z+2/3
loop_
_atom_site_label
_atom_site_type_symbol
_atom_site_fract_x
_atom_site_fract_y
_atom_site_fract_z
_atom_site_adp_type
_atom_site_U_iso_or_equiv
_atom_site_site_symmetry_multiplicity
_atom_site_occupancy
_atom_site_calc_flag
_atom_site_refinement_flags
_atom_site_disorder_assembly
_atom_site_disorder_group
Ni1 Ni 0.61862(8) 0.64787(9) 0.3529(3) Uiso 0.0517(5) 18 1 d . . .
O1 O 0.437857 0.407712 0.437046 Uiso 0.0517(5) 18 1 d . . .
O2 O 0.368793 0.365412 0.218203 Uiso 0.0517(5) 18 1 d . . .
O3 O 0.613564 0.583693 0.15751 Uiso 0.0517(5) 18 1 d . . .
C1 C 0.41774 0.407263 0.255159 Uiso 0.0517(5) 18 1 d . . .
C2 C 0.46225 0.45323 0.118479 Uiso 0.0517(5) 18 1 d . . .
C3 C 0.559044 0.548737 0.079096 Uiso 0.0517(5) 18 1 d . . .
C4 C 0.517431 0.497293 0.194567 Uiso 0.0517(5) 18 1 d . . .
H1c4 H 0.528002 0.493244 0.327656 Uiso 0.0621 18 1 d . . .
Ne1 Ne 0.1686(7) 0.5092(6) 0.168(2) Uiso 0.154 18 0.436(7) d . . .
Ne2 Ne 0 0 0.5 Uiso 0.154 3 0.147(11) d . . .
loop_
_atom_type_symbol
_atom_type_scat_dispersion_real
_atom_type_scat_dispersion_imag
_atom_type_scat_source
C 0.0037 0.0018 'International Tables Vol C tables 4.2.6.8 and 6.1.1.1'
H 0.0000 0.0000 'International Tables Vol C tables 4.2.6.8 and 6.1.1.1'
Ne 0.0277 0.0178 'International Tables Vol C tables 4.2.6.8 and 6.1.1.1'
Ni 0.3409 1.1694 'International Tables Vol C tables 4.2.6.8 and 6.1.1.1'
O 0.0121 0.0066 'International Tables Vol C tables 4.2.6.8 and 6.1.1.1'
loop_
_geom_angle_atom_site_label_1
_geom_angle_atom_site_label_2
_geom_angle_atom_site_label_3
_geom_angle_site_symmetry_1
_geom_angle_site_symmetry_2
_geom_angle_site_symmetry_3
_geom_angle
O1 Ni1 O2 4_666 . 17_555 102.66
O1 Ni1 O3 4_666 . . 98.42
O1 Ni1 O3 4_666 . 9_565 94.87
O2 Ni1 O3 17_555 . . 90.63
O2 Ni1 O3 17_555 . 9_565 85.52
O3 Ni1 O3 . . 9_565 166.68
Ni1 O1 C1 4_666 . . 120.13
Ni1 O2 C1 18_545 . . 144.43
Ni1 O3 Ni1 . . 14_654 94.67
Ni1 O3 C3 . . . 114.52
Ni1 O3 C3 14_654 . . 127.15
O1 C1 O2 . . . 115.29
O1 C1 C2 . . . 115.11
O2 C1 C2 . . . 128.92
C1 C2 C3 . . 4_665 114.88
C1 C2 C4 . . . 118.92
C3 C2 C4 4_665 . . 125.85
O3 C3 C2 . . 4_665 130.15
O3 C3 C4 . . . 116.71
C2 C3 C4 4_665 . . 111.98
C2 C4 C3 . . . 122.11
C2 C4 H1c4 . . . 118.94
C3 C4 H1c4 . . . 118.95
loop_
_geom_bond_atom_site_label_1
_geom_bond_atom_site_label_2
_geom_bond_site_symmetry_1
_geom_bond_site_symmetry_2
_geom_bond_distance
Ni1 O1 . 4_666 2.0238
Ni1 O2 . 17_555 2.0032
Ni1 O3 . . 2.0679
Ni1 O3 . 9_565 1.9103
Ni1 Ne1 . 2_665 3.67(2)
O1 C1 . . 1.3312
O2 C1 . . 1.206
O3 C3 . . 1.3411
C1 C2 . . 1.4869
C2 C3 . 4_665 1.4341
C2 C4 . . 1.3996
C3 C4 . . 1.4465
C4 H1c4 . . 0.96
loop_
_pd_proc_point_id
_pd_proc_2theta_corrected
_pd_proc_intensity_net
_pd_calc_intensity_net
_pd_proc_ls_weight
1 2.6025 3748.01 3257.76 61.22
2 2.6109 3779.49 3247.59 61.48
3 2.6193 3770.92 3237.47 61.41
4 2.6277 3763.18 3646.76 61.34
5 2.6361 3794.52 3648.54 61.60
6 2.6445 3778.15 3650.89 61.47
7 2.6529 3801.58 3653.84 61.66
8 2.6613 3805.87 3657.40 61.69
9 2.6697 3792.45 3661.62 61.58
10 2.6781 3823.32 3666.53 61.83
11 2.6865 3832.33 3672.17 61.91
12 2.6949 3826.02 3678.58 61.85
13 2.7033 3865.52 3685.80 62.17
14 2.7117 3849.66 3693.88 62.05
15 2.7201 3861.09 3702.88 62.14
16 2.7285 3902.57 3712.84 62.47
17 2.7369 3889.93 3723.84 62.37
18 2.7453 3910.52 3735.93 62.53
19 2.7537 3934.05 3749.19 62.72
20 2.7621 3941.75 3763.70 62.78
21 2.7705 3956.59 3779.53 62.90
22 2.7789 3951.18 3796.79 62.86
23 2.7873 3966.82 3815.57 62.98
24 2.7957 3990.61 3835.99 63.17
25 2.8041 3993.31 3858.17 63.19
26 2.8125 4004.30 3882.23 63.28
27 2.8209 4047.36 3908.33 63.62
28 2.8293 4037.94 3936.63 63.54
29 2.8377 4084.90 3967.31 63.91
30 2.8461 4093.88 4000.56 63.98
31 2.8545 4115.33 4036.61 64.15
32 2.8629 4156.40 4075.70 64.47
33 2.8713 4178.17 4118.10 64.64
34 2.8797 4224.48 4164.10 65.00
35 2.8881 4285.91 4214.07 65.47
36 2.8965 4297.60 4268.36 65.56
37 2.9049 4368.67 4327.41 66.10
38 2.9133 4421.18 4391.69 66.49
39 2.9217 4455.77 4461.77 66.75
40 2.9301 4529.55 4538.25 67.30
41 2.9385 4590.97 4621.83 67.76
42 2.9469 4684.23 4713.32 68.44
43 2.9553 4773.33 4813.64 69.09
44 2.9637 4838.19 4923.84 69.56
45 2.9721 4949.19 5045.14 70.35
46 2.9805 5083.04 5178.96 71.30
47 2.9889 5171.71 5326.94 71.91
48 2.9973 5338.64 5491.01 73.07
49 3.0057 5470.59 5673.41 73.96
50 3.0141 5645.67 5876.82 75.14
51 3.0225 5879.73 6104.39 76.68
52 3.0309 6077.74 6359.91 77.96
53 3.0393 6312.31 6647.92 79.45
54 3.0477 6641.05 6973.87 81.49
55 3.0561 6979.16 7344.48 83.54
56 3.0645 7334.24 7767.91 85.64
57 3.0729 7857.15 8254.39 88.64
58 3.0813 8336.33 8816.82 91.30
59 3.0897 9030.79 9472.13 95.03
60 3.0981 9823.95 10243.40 99.12
61 3.1065 10813.30 11164.50 103.99
62 3.1149 11985.60 12288.10 109.48
63 3.1233 13520.00 13701.90 116.28
64 3.1317 15484.40 15553.20 124.44
65 3.1401 18000.50 18087.10 134.17
66 3.1485 21787.20 21692.40 147.60
67 3.1569 26845.30 26942.90 163.85
68 3.1653 34025.30 34608.20 184.46
69 3.1737 44757.20 45597.50 211.56
70 3.1821 59223.30 60812.00 243.36
71 3.1905 79000.10 80890.40 281.07
72 3.1989 105325.00 105880.00 324.54
73 3.2073 137071.00 134833.00 370.23
74 3.2157 167248.00 165317.00 408.96
75 3.2241 198794.00 192848.00 445.86
76 3.2325 213906.00 211030.00 462.50
77 3.2409 213104.00 214003.00 461.63
78 3.2493 195659.00 200666.00 442.33
79 3.2577 171128.00 175640.00 413.68
80 3.2661 141139.00 145566.00 375.68
81 3.2745 113622.00 115695.00 337.08
82 3.2829 85815.70 89128.10 292.94
83 3.2913 69539.90 67270.80 263.70
84 3.2997 52724.10 50379.40 229.62
85 3.3081 41039.50 37982.60 202.58
86 3.3165 33104.30 29239.50 181.95
87 3.3249 26546.20 23220.70 162.93
88 3.3333 21754.10 19097.50 147.49
89 3.3417 18357.00 16225.30 135.49
90 3.3501 15309.30 14154.10 123.73
91 3.3585 13286.20 12593.50 115.27
92 3.3669 11554.60 11366.50 107.49
93 3.3753 10251.50 10368.00 101.25
94 3.3837 9158.25 9535.14 95.70
95 3.3921 8387.03 8828.70 91.58
96 3.4005 7587.94 8222.41 87.11
97 3.4089 7041.36 7697.56 83.91
98 3.4173 6534.50 7239.98 80.84
99 3.4257 6141.28 6838.61 78.37
100 3.4341 5796.07 6484.59 76.13
101 3.4425 5501.62 6170.77 74.17
102 3.4509 5245.92 5891.27 72.43
103 3.4593 4998.19 5641.23 70.70
104 3.4677 4792.91 5416.64 69.23
105 3.4761 4618.79 5214.12 67.96
106 3.4845 4450.00 5030.85 66.71
107 3.4929 4305.45 4864.41 65.62
108 3.5013 4178.13 4712.80 64.64
109 3.5097 4045.87 4574.25 63.61
110 3.5181 3947.46 4447.29 62.83
111 3.5265 3852.10 4330.62 62.07
112 3.5349 3743.37 4223.14 61.18
113 3.5433 3666.74 4123.87 60.55
114 3.5517 3608.85 4031.98 60.07
115 3.5601 3511.15 3946.72 59.26
116 3.5685 3456.47 3867.45 58.79
117 3.5769 3395.14 3793.60 58.27
118 3.5853 3321.45 3724.67 57.63
119 3.5937 3291.76 3660.20 57.37
120 3.6021 3246.41 3599.80 56.98
121 3.6105 3169.91 3543.12 56.30
122 3.6189 3157.37 3489.84 56.19
123 3.6273 3081.40 3439.67 55.51
124 3.6357 3067.43 3392.38 55.38
125 3.6441 3035.85 3347.72 55.10
126 3.6525 2990.91 3305.48 54.69
127 3.6609 2979.95 3265.49 54.59
128 3.6693 2937.02 3227.58 54.19
129 3.6777 2904.62 3191.59 53.89
130 3.6861 2889.59 3157.38 53.75
131 3.6945 2850.27 3124.83 53.39
132 3.7029 2829.52 3093.82 53.19
133 3.7113 2804.25 3064.25 52.96
134 3.7197 2774.64 3036.02 52.67
135 3.7281 2767.10 3009.04 52.60
136 3.7365 2749.53 2983.23 52.44
137 3.7449 2711.49 2958.52 52.07
138 3.7533 2704.99 2934.84 52.01
139 3.7617 2679.83 2912.12 51.77
140 3.7701 2670.52 2890.32 51.68
141 3.7785 2662.00 2869.36 51.59
142 3.7869 2628.23 2849.21 51.27
143 3.7953 2622.77 2829.82 51.21
144 3.8037 2600.73 2811.14 51.00
145 3.8121 2589.41 2793.14 50.89
146 3.8205 2578.41 2775.78 50.78
147 3.8289 2560.50 2759.02 50.60
148 3.8373 2538.84 2742.83 50.39
149 3.8457 2541.17 2727.19 50.41
150 3.8541 2518.79 2294.37 50.19
151 3.8625 2508.69 2290.81 50.09
152 3.8709 2508.68 2287.28 50.09
153 3.8793 2485.70 2283.78 49.86
154 3.8877 2489.03 2280.31 49.89
155 3.8961 2472.02 2276.87 49.72
156 3.9045 2454.94 2273.45 49.55
157 3.9129 2457.81 2270.07 49.58
158 3.9213 2443.30 2266.71 49.43
159 3.9297 2427.69 2263.37 49.27
160 3.9381 2434.14 2260.07 49.34
161 3.9465 2418.58 2256.79 49.18
162 3.9549 2415.80 2253.54 49.15
163 3.9633 2398.08 2250.32 48.97
164 3.9717 2387.32 2247.12 48.86
165 3.9801 2393.90 2243.95 48.93
166 3.9885 2373.82 2240.81 48.72
167 3.9969 2365.79 2237.69 48.64
168 4.0053 2365.76 2234.60 48.64
169 4.0137 2357.00 2231.53 48.55
170 4.0221 2368.18 2228.49 48.66
171 4.0305 2344.33 2225.48 48.42
172 4.0389 2337.92 2222.49 48.35
173 4.0473 2337.37 2219.53 48.35
174 4.0557 2334.28 2216.59 48.31
175 4.0641 2329.97 2213.67 48.27
176 4.0725 2311.92 2210.79 48.08
177 4.0809 2309.75 2207.92 48.06
178 4.0893 2311.10 2205.08 48.07
179 4.0977 2314.51 2202.27 48.11
180 4.1061 2296.32 2199.48 47.92
181 4.1145 2304.71 2196.71 48.01
182 4.1229 2289.92 2193.97 47.85
183 4.1313 2286.03 2191.25 47.81
184 4.1397 2286.31 2188.55 47.82
185 4.1481 2287.32 2185.88 47.83
186 4.1565 2275.83 2183.23 47.71
187 4.1649 2279.56 2180.61 47.74
188 4.1733 2269.33 2178.01 47.64
189 4.1817 2267.30 2175.43 47.62
190 4.1901 2270.76 2172.87 47.65
191 4.1985 2251.14 2170.34 47.45
192 4.2069 2248.51 2167.82 47.42
193 4.2153 2248.22 2165.33 47.42
194 4.2237 2239.82 2162.87 47.33
195 4.2321 2242.70 2160.42 47.36
196 4.2405 2240.75 2158.00 47.34
197 4.2489 2231.66 2155.60 47.24
198 4.2573 2238.94 2153.22 47.32
199 4.2657 2225.94 2150.86 47.18
200 4.2741 2229.59 2148.52 47.22
201 4.2825 2232.91 2146.20 47.25
202 4.2909 2211.74 2143.91 47.03
203 4.2993 2224.61 2141.63 47.17
204 4.3077 2207.96 2139.38 46.99
205 4.3161 2204.71 2137.14 46.95
206 4.3245 2219.55 2134.93 47.11
207 4.3329 2204.45 2132.74 46.95
208 4.3413 2207.83 2130.57 46.99
209 4.3497 2209.76 2128.41 47.01
210 4.3581 2201.05 2126.28 46.92
211 4.3665 2208.46 2124.17 46.99
212 4.3749 2212.23 2122.07 47.03
213 4.3833 2196.19 2120.00 46.86
214 4.3917 2201.93 2117.95 46.92
215 4.4001 2194.62 2115.91 46.85
216 4.4085 2191.34 2113.89 46.81
217 4.4169 2207.58 2111.90 46.98
218 4.4253 2182.26 2109.92 46.71
219 4.4337 2185.55 2107.96 46.75
220 4.4421 2179.39 2106.02 46.68
221 4.4505 2180.30 2104.10 46.69
222 4.4589 2191.67 2102.19 46.82
223 4.4673 2177.42 2100.31 46.66
224 4.4757 2180.75 2098.44 46.70
225 4.4841 2183.99 2096.59 46.73
226 4.4925 2171.69 2094.75 46.60
227 4.5009 2173.67 2092.94 46.62
228 4.5093 2173.90 2091.14 46.63
229 4.5177 2167.77 2089.36 46.56
230 4.5261 2170.62 2087.60 46.59
231 4.5345 2168.30 2085.85 46.56
232 4.5429 2165.28 2084.13 46.53
233 4.5513 2170.94 2082.42 46.59
234 4.5597 2161.83 2080.72 46.50
235 4.5681 2167.79 2079.04 46.56
236 4.5765 2170.92 2077.38 46.59
237 4.5849 2158.40 2075.74 46.46
238 4.5933 2164.52 2074.11 46.52
239 4.6017 2161.27 2072.50 46.49
240 4.6101 2152.79 2070.90 46.40
241 4.6185 2163.82 2069.32 46.52
242 4.6269 2151.17 2067.76 46.38
243 4.6353 2154.35 2066.21 46.42
244 4.6437 2172.52 2064.67 46.61
245 4.6521 2156.88 2063.16 46.44
246 4.6605 2158.41 2061.65 46.46
247 4.6689 2156.67 2060.17 46.44
248 4.6773 2163.17 2058.69 46.51
249 4.6857 2163.74 2057.24 46.52
250 4.6941 2149.53 2055.80 46.36
251 4.7025 2159.65 2054.37 46.47
252 4.7109 2162.40 2052.96 46.50
253 4.7193 2155.39 2051.56 46.43
254 4.7277 2160.28 2050.18 46.48
255 4.7361 2156.52 2048.81 46.44
256 4.7445 2153.92 2047.45 46.41
257 4.7529 2156.90 2046.11 46.44
258 4.7613 2151.67 2044.79 46.39
259 4.7697 2161.03 2043.47 46.49
260 4.7781 2177.45 2042.17 46.66
261 4.7865 2165.59 2040.89 46.54
262 4.7949 2157.39 2039.62 46.45
263 4.8033 2169.86 2038.36 46.58
264 4.8117 2151.43 2037.12 46.38
265 4.8201 2170.26 2035.88 46.59
266 4.8285 2168.72 2034.67 46.57
267 4.8369 2156.61 2150.23 46.44
268 4.8453 2167.91 2151.62 46.56
269 4.8537 2171.81 2153.10 46.60
270 4.8621 2171.09 2154.69 46.60
271 4.8705 2180.32 2156.39 46.69
272 4.8789 2178.25 2158.20 46.67
273 4.8873 2180.18 2160.12 46.69
274 4.8957 2180.94 2162.16 46.70
275 4.9041 2180.54 2164.33 46.70
276 4.9125 2196.87 2166.63 46.87
277 4.9209 2181.21 2169.06 46.70
278 4.9293 2187.74 2171.64 46.77
279 4.9377 2205.53 2174.36 46.96
280 4.9461 2192.38 2177.24 46.82
281 4.9545 2198.71 2180.28 46.89
282 4.9629 2210.36 2183.50 47.01
283 4.9713 2189.65 2186.89 46.79
284 4.9797 2214.15 2190.47 47.05
285 4.9881 2218.07 2194.24 47.10
286 4.9965 2221.19 2198.22 47.13
287 5.0049 2224.84 2202.42 47.17
288 5.0133 2212.93 2206.85 47.04
289 5.0217 2234.54 2211.52 47.27
290 5.0301 2237.90 2216.45 47.31
291 5.0385 2234.41 2221.64 47.27
292 5.0469 2244.48 2227.11 47.38
293 5.0553 2253.37 2232.89 47.47
294 5.0637 2247.35 2238.98 47.41
295 5.0721 2258.84 2245.41 47.53
296 5.0805 2260.30 2252.20 47.54
297 5.0889 2263.49 2259.37 47.58
298 5.0973 2277.15 2266.94 47.72
299 5.1057 2290.80 2274.94 47.86
300 5.1141 2298.89 2283.40 47.95
301 5.1225 2323.80 2292.35 48.21
302 5.1309 2306.38 2301.81 48.02
303 5.1393 2335.75 2311.84 48.33
304 5.1477 2331.13 2322.46 48.28
305 5.1561 2338.63 2333.72 48.36
306 5.1645 2364.15 2345.66 48.62
307 5.1729 2369.33 2358.35 48.68
308 5.1813 2384.14 2371.83 48.83
309 5.1897 2405.03 2386.16 49.04
310 5.1981 2404.78 2401.42 49.04
311 5.2065 2426.61 2417.68 49.26
312 5.2149 2439.67 2435.02 49.39
313 5.2233 2466.74 2453.54 49.67
314 5.2317 2474.52 2473.33 49.74
315 5.2401 2493.36 2494.51 49.93
316 5.2485 2523.14 2517.21 50.23
317 5.2569 2552.67 2541.56 50.52
318 5.2653 2570.53 2567.73 50.70
319 5.2737 2607.92 2595.88 51.07
320 5.2821 2631.85 2626.23 51.30
321 5.2905 2666.51 2658.98 51.64
322 5.2989 2703.39 2694.40 51.99
323 5.3073 2734.58 2732.77 52.29
324 5.3157 2782.88 2774.41 52.75
325 5.3241 2835.50 2819.70 53.25
326 5.3325 2882.01 2869.06 53.68
327 5.3409 2938.74 2922.99 54.21
328 5.3493 3004.74 2982.04 54.82
329 5.3577 3070.03 3046.87 55.41
330 5.3661 3155.31 3118.24 56.17
331 5.3745 3227.44 3197.03 56.81
332 5.3829 3308.23 3284.27 57.52
333 5.3913 3439.14 3381.21 58.64
334 5.3997 3551.16 3489.30 59.59
335 5.4081 3692.35 3610.31 60.76
336 5.4165 3857.60 3746.40 62.11
337 5.4249 4012.96 3900.33 63.35
338 5.4333 4227.75 4075.68 65.02
339 5.4417 4473.69 4277.33 66.89
340 5.4501 4761.25 4512.26 69.00
341 5.4585 5098.47 4790.78 71.40
342 5.4669 5515.68 5128.49 74.27
343 5.4753 6005.54 5548.89 77.50
344 5.4837 6583.78 6087.02 81.14
345 5.4921 7344.67 6793.53 85.70
346 5.5005 8291.45 7738.34 91.06
347 5.5089 9494.72 9013.12 97.44
348 5.5173 11120.10 10730.00 105.45
349 5.5257 12942.90 13015.50 113.77
350 5.5341 15853.50 15996.60 125.91
351 5.5425 19280.90 19781.20 138.86
352 5.5509 23521.60 24431.00 153.37
353 5.5593 29781.70 29932.10 172.57
354 5.5677 36100.00 36157.70 190.00
355 5.5761 43073.90 42828.40 207.54
356 5.5845 51309.20 49459.60 226.51
357 5.5929 57486.90 55322.60 239.76
358 5.6013 61604.90 59499.40 248.20
359 5.6097 62385.90 61135.00 249.77
360 5.6181 60223.40 59841.10 245.40
361 5.6265 55163.40 55928.30 234.87
362 5.6349 48205.00 50218.60 219.56
363 5.6433 41422.70 43638.10 203.53
364 5.6517 34521.20 36943.10 185.80
365 5.6601 28752.20 30647.20 169.57
366 5.6685 23701.10 25051.10 153.95
367 5.6769 19859.00 20296.80 140.92
368 5.6853 16477.80 16410.30 128.37
369 5.6937 13936.80 13337.50 118.05
370 5.7021 11919.70 10974.50 109.18
371 5.7105 10296.70 9195.29 101.47
372 5.7189 8993.98 7872.84 94.84
373 5.7273 7921.93 6892.75 89.01
374 5.7357 7036.10 6160.79 83.88
375 5.7441 6331.67 5604.44 79.57
376 5.7525 5776.39 5171.02 76.00
377 5.7609 5265.83 4823.79 72.57
378 5.7693 4892.01 4538.10 69.94
379 5.7777 4550.06 4297.53 67.45
380 5.7861 4242.72 4091.31 65.14
381 5.7945 4016.48 3912.10 63.38
382 5.8029 3810.14 3754.81 61.73
383 5.8113 3605.81 3615.74 60.05
384 5.8197 3476.94 3492.06 58.97
385 5.8281 3333.07 3381.55 57.73
386 5.8365 3203.25 3282.39 56.60
387 5.8449 3113.98 3193.09 55.80
388 5.8533 3005.94 3112.40 54.83
389 5.8617 2930.23 3039.24 54.13
390 5.8701 2861.26 2972.73 53.49
391 5.8785 2783.40 2912.09 52.76
392 5.8869 2735.70 2856.65 52.30
393 5.8953 2676.32 2805.84 51.73
394 5.9037 2615.80 2759.17 51.14
395 5.9121 2587.87 2716.20 50.87
396 5.9205 2542.56 2676.55 50.42
397 5.9289 2489.74 2639.89 49.90
398 5.9373 2470.64 2605.93 49.71
399 5.9457 2437.66 2574.41 49.37
400 5.9541 2411.12 2545.11 49.10
401 5.9625 2375.92 2517.83 48.74
402 5.9709 2355.47 2492.38 48.53
403 5.9793 2329.57 2468.61 48.27
404 5.9877 2297.06 2446.37 47.93
405 5.9961 2289.86 2425.54 47.85
406 6.0045 2270.65 2406.01 47.65
407 6.0129 2250.67 2387.66 47.44
408 6.0213 2241.28 2370.41 47.34
409 6.0297 2226.14 2354.18 47.18
410 6.0381 2210.51 2338.88 47.02
411 6.0465 2206.22 2324.46 46.97
412 6.0549 2181.24 2310.84 46.70
413 6.0633 2185.27 2297.97 46.75
414 6.0717 2175.03 2285.80 46.64
415 6.0801 2154.25 2274.28 46.41
416 6.0885 2141.64 2263.38 46.28
417 6.0969 2137.81 2253.04 46.24
418 6.1053 2124.10 2243.25 46.09
419 6.1137 2117.41 2233.96 46.02
420 6.1221 2116.26 2225.14 46.00
421 6.1305 2106.93 2216.78 45.90
422 6.1389 2100.18 2208.83 45.83
423 6.1473 2091.40 2201.30 45.73
424 6.1557 2092.52 2194.14 45.74
425 6.1641 2093.68 2187.36 45.76
426 6.1725 2085.12 2180.92 45.66
427 6.1809 2084.42 2174.83 45.66
428 6.1893 2072.62 2169.06 45.53
429 6.1977 2061.85 2163.60 45.41
430 6.2061 2068.29 2158.46 45.48
431 6.2145 2064.36 2153.62 45.44
432 6.2229 2068.53 2149.09 45.48
433 6.2313 2071.16 2144.85 45.51
434 6.2397 2048.20 2140.92 45.26
435 6.2481 2064.07 2137.30 45.43
436 6.2565 2056.18 2134.00 45.35
437 6.2649 2050.14 2131.05 45.28
438 6.2733 2059.90 2128.46 45.39
439 6.2817 2045.66 2126.28 45.23
440 6.2901 2058.48 2124.57 45.37
441 6.2985 2054.38 2123.44 45.33
442 6.3069 2050.14 2123.02 45.28
443 6.3153 2056.12 2123.55 45.34
444 6.3237 2064.94 2125.33 45.44
445 6.3321 2056.65 2128.81 45.35
446 6.3405 2073.42 2134.57 45.53
447 6.3489 2076.38 2143.35 45.57
448 6.3573 2069.67 2156.01 45.49
449 6.3657 2095.41 2174.67 45.78
450 6.3741 2106.25 2197.90 45.89
451 6.3825 2138.32 2227.61 46.24
452 6.3909 2163.41 2147.54 46.51
453 6.3993 2205.30 2193.27 46.96
454 6.4077 2273.25 2244.69 47.68
455 6.4161 2346.42 2299.78 48.44
456 6.4245 2442.13 2355.11 49.42
457 6.4329 2546.33 2405.51 50.46
458 6.4413 2612.95 2444.39 51.12
459 6.4497 2656.01 2465.12 51.54
460 6.4581 2644.41 2463.65 51.42
461 6.4665 2578.50 2440.50 50.78
462 6.4749 2505.08 2400.37 50.05
463 6.4833 2408.66 2349.78 49.08
464 6.4917 2324.68 2294.84 48.22
465 6.5001 2260.35 2240.31 47.54
466 6.5085 2191.58 2189.44 46.81
467 6.5169 2158.11 2144.17 46.46
468 6.5253 2101.00 2105.44 45.84
469 6.5337 2064.85 2073.38 45.44
470 6.5421 2047.70 2047.59 45.25
471 6.5505 2019.09 2027.34 44.93
472 6.5589 1999.90 2011.73 44.72
473 6.5673 2000.27 1999.82 44.72
474 6.5757 1981.12 1990.78 44.51
475 6.5841 1983.07 1983.89 44.53
476 6.5925 1972.78 1978.57 44.42
477 6.6009 1958.99 1974.38 44.26
478 6.6093 1965.11 1971.01 44.33
479 6.6177 1950.93 1968.23 44.17
480 6.6261 1950.35 1965.89 44.16
481 6.6345 1957.36 1963.88 44.24
482 6.6429 1938.08 1962.13 44.02
483 6.6513 1931.01 1960.59 43.94
484 6.6597 1949.50 1959.23 44.15
485 6.6681 1921.21 1958.01 43.83
486 6.6765 1931.17 1956.91 43.95
487 6.6849 1931.48 1955.93 43.95
488 6.6933 1922.32 1955.04 43.84
489 6.7017 1921.03 1954.24 43.83
490 6.7101 1916.91 1953.51 43.78
491 6.7185 1919.17 1952.84 43.81
492 6.7269 1921.29 1952.24 43.83
493 6.7353 1905.85 1951.69 43.66
494 6.7437 1913.02 1951.19 43.74
495 6.7521 1913.69 1950.73 43.75
496 6.7605 1916.45 1950.32 43.78
497 6.7689 1915.24 1949.94 43.76
498 6.7773 1911.41 1949.60 43.72
499 6.7857 1917.35 1949.30 43.79
500 6.7941 1915.31 1949.02 43.76
501 6.8025 1901.00 1948.78 43.60
502 6.8109 1906.94 1948.57 43.67
503 6.8193 1912.63 1948.38 43.73
504 6.8277 1901.16 1948.23 43.60
505 6.8361 1921.54 1948.10 43.84
506 6.8445 1905.92 1948.00 43.66
507 6.8529 1903.65 1947.93 43.63
508 6.8613 1913.26 1947.89 43.74
509 6.8697 1901.76 1947.87 43.61
510 6.8781 1911.18 1947.89 43.72
511 6.8865 1912.70 1947.94 43.73
512 6.8949 1904.12 1948.03 43.64
513 6.9033 1909.47 1948.15 43.70
514 6.9117 1912.37 1948.31 43.73
515 6.9201 1902.08 1948.51 43.61
516 6.9285 1906.60 1948.76 43.66
517 6.9369 1898.35 1949.06 43.57
518 6.9453 1904.86 1949.41 43.64
519 6.9537 1901.22 1949.82 43.60
520 6.9621 1904.17 1950.30 43.64
521 6.9705 1905.29 1950.86 43.65
522 6.9789 1904.36 1951.50 43.64
523 6.9873 1904.14 1952.23 43.64
524 6.9957 1919.82 1953.07 43.82
525 7.0041 1904.35 1954.03 43.64
526 7.0125 1912.91 1955.13 43.74
527 7.0209 1912.34 1956.40 43.73
528 7.0293 1913.69 1968.28 43.75
529 7.0377 1915.78 1970.19 43.77
530 7.0461 1918.87 1972.39 43.80
531 7.0545 1909.54 1974.98 43.70
532 7.0629 1927.70 1978.08 43.91
533 7.0713 1926.76 1981.86 43.89
534 7.0797 1938.63 1986.57 44.03
535 7.0881 1935.18 1992.55 43.99
536 7.0965 1937.47 2000.28 44.02
537 7.1049 1961.25 2010.35 44.29
538 7.1133 1962.42 2023.50 44.30
539 7.1217 1976.48 2040.60 44.46
540 7.1301 1997.63 2062.54 44.69
541 7.1385 2037.40 2090.22 45.14
542 7.1469 2080.64 2124.34 45.61
543 7.1553 2140.59 2165.31 46.27
544 7.1637 2208.76 2213.05 47.00
545 7.1721 2331.69 2266.73 48.29
546 7.1805 2471.84 2324.62 49.72
547 7.1889 2626.94 2383.67 51.25
548 7.1973 2796.76 2439.29 52.88
549 7.2057 2922.64 2485.28 54.06
550 7.2141 2978.98 2514.81 54.58
551 7.2225 2978.87 2522.48 54.58
552 7.2309 2877.80 2506.76 53.65
553 7.2393 2733.51 2470.82 52.28
554 7.2477 2596.88 2420.88 50.96
555 7.2561 2444.60 2363.73 49.44
556 7.2645 2328.79 2305.02 48.26
557 7.2729 2225.00 2248.76 47.17
558 7.2813 2159.66 2196.46 46.47
559 7.2897 2092.52 2151.53 45.74
560 7.2981 2056.97 2113.46 45.35
561 7.3065 2021.35 2082.11 44.96
562 7.3149 2005.76 2057.04 44.79
563 7.3233 1979.06 2037.40 44.49
564 7.3317 1975.50 2022.29 44.45
565 7.3401 1960.31 2010.82 44.28
566 7.3485 1957.75 2002.17 44.25
567 7.3569 1955.12 1995.66 44.22
568 7.3653 1938.68 1990.72 44.03
569 7.3737 1950.10 1986.96 44.16
570 7.3821 1937.39 1984.05 44.02
571 7.3905 1939.21 1981.78 44.04
572 7.3989 1940.45 1980.01 44.05
573 7.4073 1930.71 1978.62 43.94
574 7.4157 1930.48 1977.56 43.94
575 7.4241 1934.45 1976.77 43.98
576 7.4325 1929.22 1976.21 43.92
577 7.4409 1941.65 1975.87 44.06
578 7.4493 1933.57 1975.73 43.97
579 7.4577 1934.13 1975.77 43.98
580 7.4661 1937.26 1975.98 44.01
581 7.4745 1934.76 1976.36 43.99
582 7.4829 1936.71 1976.91 44.01
583 7.4913 1945.66 1977.61 44.11
584 7.4997 1936.52 1978.48 44.01
585 7.5081 1936.45 1979.50 44.01
586 7.5165 1946.13 1980.70 44.11
587 7.5249 1939.94 1982.06 44.04
588 7.5333 1951.53 1983.61 44.18
589 7.5417 1949.63 1985.34 44.15
590 7.5501 1946.22 1987.26 44.12
591 7.5585 1952.42 1989.40 44.19
592 7.5669 1950.68 1991.75 44.17
593 7.5753 1952.93 1994.35 44.19
594 7.5837 1968.80 1997.21 44.37
595 7.5921 1952.13 2000.35 44.18
596 7.6005 1979.55 2003.79 44.49
597 7.6089 1972.42 2007.57 44.41
598 7.6173 1970.27 2011.73 44.39
599 7.6257 1979.20 2016.28 44.49
600 7.6341 1986.93 2021.30 44.58
601 7.6425 1986.45 2026.81 44.57
602 7.6509 1992.37 2032.88 44.64
603 7.6593 1996.98 2059.71 44.69
604 7.6677 2006.23 2067.49 44.79
605 7.6761 2011.89 2076.08 44.85
606 7.6845 2000.80 2085.60 44.73
607 7.6929 2031.99 2096.16 45.08
608 7.7013 2025.97 2107.93 45.01
609 7.7097 2042.94 2121.12 45.20
610 7.7181 2054.93 2135.97 45.33
611 7.7265 2070.50 2152.85 45.50
612 7.7349 2084.42 2172.22 45.66
613 7.7433 2102.20 2194.75 45.85
614 7.7517 2107.24 2221.41 45.90
615 7.7601 2153.10 2253.54 46.40
616 7.7685 2163.52 2293.07 46.51
617 7.7769 2199.94 2342.61 46.90
618 7.7853 2246.68 2405.70 47.40
619 7.7937 2286.44 2486.85 47.82
620 7.8021 2350.44 2591.63 48.48
621 7.8105 2421.16 2726.49 49.21
622 7.8189 2520.27 2898.51 50.20
623 7.8273 2665.54 3114.68 51.63
624 7.8357 2862.09 3381.15 53.50
625 7.8441 3135.93 3702.15 56.00
626 7.8525 3506.90 4078.66 59.22
627 7.8609 4075.34 4507.18 63.84
628 7.8693 4789.43 4977.76 69.21
629 7.8777 5674.49 5472.12 75.33
630 7.8861 6757.86 5960.89 82.21
631 7.8945 7792.74 6401.97 88.28
632 7.9029 8640.17 6743.00 92.95
633 7.9113 8978.58 6931.55 94.76
634 7.9197 8827.95 6933.54 93.96
635 7.9281 8212.83 6748.74 90.62
636 7.9365 7245.05 6410.89 85.12
637 7.9449 6351.19 5972.11 79.69
638 7.9533 5318.06 5485.08 72.93
639 7.9617 4575.93 4991.87 67.65
640 7.9701 3948.67 4522.02 62.84
641 7.9785 3478.10 4094.07 58.98
642 7.9869 3142.95 3717.93 56.06
643 7.9953 2881.23 3397.36 53.68
644 8.0037 2695.22 3131.33 51.92
645 8.0121 2560.89 2915.70 50.61
646 8.0205 2440.32 2744.38 49.40
647 8.0289 2376.23 2610.34 48.75
648 8.0373 2304.10 2506.55 48.00
649 8.0457 2259.65 2426.55 47.54
650 8.0541 2224.26 2364.75 47.16
651 8.0625 2193.97 2316.64 46.84
652 8.0709 2174.20 2278.67 46.63
653 8.0793 2150.13 2248.22 46.37
654 8.0877 2125.65 2222.20 46.10
655 8.0961 2127.05 2201.61 46.12
656 8.1045 2105.62 2184.31 45.89
657 8.1129 2099.90 2169.64 45.82
658 8.1213 2102.78 2157.13 45.86
659 8.1297 2077.73 2146.44 45.58
660 8.1381 2096.34 2137.32 45.79
661 8.1465 2079.09 2129.59 45.60
662 8.1549 2073.60 2123.09 45.54
663 8.1633 2082.06 2117.71 45.63
664 8.1717 2076.08 2113.37 45.56
665 8.1801 2075.76 2109.98 45.56
666 8.1885 2083.27 2107.49 45.64
667 8.1969 2069.23 2105.85 45.49
668 8.2053 2076.73 2105.04 45.57
669 8.2137 2086.30 2105.42 45.68
670 8.2221 2077.65 2106.20 45.58
671 8.2305 2089.44 2107.77 45.71
672 8.2389 2088.62 2110.13 45.70
673 8.2473 2090.50 2113.30 45.72
674 8.2557 2101.98 2117.31 45.85
675 8.2641 2104.10 2122.18 45.87
676 8.2725 2113.23 2127.97 45.97
677 8.2809 2118.78 2134.73 46.03
678 8.2893 2128.36 2142.53 46.13
679 8.2977 2154.02 2151.46 46.41
680 8.3061 2152.68 2161.62 46.40
681 8.3145 2178.92 2173.12 46.68
682 8.3229 2192.63 2186.11 46.83
683 8.3313 2206.95 2200.75 46.98
684 8.3397 2224.98 2217.25 47.17
685 8.3481 2256.97 2235.84 47.51
686 8.3565 2270.97 2256.83 47.65
687 8.3649 2313.61 2280.60 48.10
688 8.3733 2340.84 2307.64 48.38
689 8.3817 2390.36 2338.61 48.89
690 8.3901 2439.24 2374.41 49.39
691 8.3985 2489.17 2416.31 49.89
692 8.4069 2559.56 2466.07 50.59
693 8.4153 2639.72 2526.19 51.38
694 8.4237 2726.24 2600.14 52.21
695 8.4321 2850.61 2692.60 53.39
696 8.4405 2974.58 2809.79 54.54
697 8.4489 3127.44 2959.60 55.92
698 8.4573 3319.11 3151.66 57.61
699 8.4657 3553.45 3397.16 59.61
700 8.4741 3849.87 3708.21 62.05
701 8.4825 4165.85 4096.99 64.54
702 8.4909 4637.21 4574.49 68.10
703 8.4993 5099.21 5148.60 71.41
704 8.5077 5791.28 5822.25 76.10
705 8.5161 6456.54 6591.29 80.35
706 8.5245 7363.22 7441.33 85.81
707 8.5329 8264.62 8344.88 90.91
708 8.5413 9239.08 9256.51 96.12
709 8.5497 10170.00 10109.40 100.85
710 8.5581 10906.80 10816.40 104.44
711 8.5665 11426.60 11281.80 106.89
712 8.5749 11518.80 11429.30 107.33
713 8.5833 11274.90 11231.80 106.18
714 8.5917 10738.90 10724.80 103.63
715 8.6001 9918.83 9989.73 99.59
716 8.6085 9075.11 9121.92 95.26
717 8.6169 8168.43 8206.27 90.38
718 8.6253 7360.13 7306.17 85.79
719 8.6337 6569.09 6464.24 81.05
720 8.6421 5936.20 5706.10 77.05
721 8.6505 5349.42 5044.24 73.14
722 8.6589 4909.62 4481.86 70.07
723 8.6673 4484.72 4015.21 66.97
724 8.6757 4155.83 3635.74 64.47
725 8.6841 3876.98 3332.34 62.27
726 8.6925 3625.42 3092.70 60.21
727 8.7009 3420.02 2904.80 58.48
728 8.7093 3238.49 2757.68 56.91
729 8.7177 3085.00 2641.93 55.54
730 8.7261 2972.60 2549.89 54.52
731 8.7345 2850.29 2475.60 53.39
732 8.7429 2759.54 2414.52 52.53
733 8.7513 2678.09 2364.19 51.75
734 8.7597 2603.88 2320.58 51.03
735 8.7681 2544.17 2283.51 50.44
736 8.7765 2489.07 2250.37 49.89
737 8.7849 2437.17 2221.00 49.37
738 8.7933 2400.38 2194.75 48.99
739 8.8017 2353.57 2171.15 48.51
740 8.8101 2325.23 2139.38 48.22
741 8.8185 2299.18 2120.21 47.95
742 8.8269 2253.59 2102.78 47.47
743 8.8353 2238.36 2086.86 47.31
744 8.8437 2213.82 2072.30 47.05
745 8.8521 2183.24 2058.93 46.73
746 8.8605 2171.70 2046.64 46.60
747 8.8689 2153.75 2035.32 46.41
748 8.8773 2139.89 2024.86 46.26
749 8.8857 2124.89 2015.20 46.10
750 8.8941 2102.10 2006.24 45.85
751 8.9025 2099.18 1997.94 45.82
752 8.9109 2078.26 1990.24 45.59
753 8.9193 2071.55 1983.09 45.51
754 8.9277 2067.00 1976.45 45.46
755 8.9361 2054.29 1970.29 45.32
756 8.9445 2055.30 1964.58 45.34
757 8.9529 2045.04 1959.30 45.22
758 8.9613 2030.31 1954.44 45.06
759 8.9697 2033.95 1950.00 45.10
760 8.9781 2025.08 1945.98 45.00
761 8.9865 2015.65 1942.41 44.90
762 8.9949 2020.73 1939.33 44.95
763 9.0033 2009.68 1936.82 44.83
764 9.0117 2017.97 1934.97 44.92
765 9.0201 2003.42 1933.90 44.76
766 9.0285 2003.60 1933.78 44.76
767 9.0369 2014.81 1934.78 44.89
768 9.0453 2012.35 1937.13 44.86
769 9.0537 2020.30 1941.02 44.95
770 9.0621 2020.56 1946.65 44.95
771 9.0705 2029.17 1954.17 45.05
772 9.0789 2044.65 1963.65 45.22
773 9.0873 2061.76 1975.03 45.41
774 9.0957 2078.35 1988.10 45.59
775 9.1041 2114.90 2002.43 45.99
776 9.1125 2142.84 2017.28 46.29
777 9.1209 2169.22 2031.55 46.57
778 9.1293 2195.20 2043.76 46.85
779 9.1377 2206.33 2052.15 46.97
780 9.1461 2212.98 2055.14 47.04
781 9.1545 2200.85 2051.84 46.91
782 9.1629 2163.20 2042.44 46.51
783 9.1713 2142.05 2028.14 46.28
784 9.1797 2103.25 2010.65 45.86
785 9.1881 2078.74 1991.65 45.59
786 9.1965 2045.88 1972.48 45.23
787 9.2049 2008.46 1954.09 44.82
788 9.2133 1997.48 1937.09 44.69
789 9.2217 1973.84 1921.83 44.43
790 9.2301 1958.68 1908.44 44.26
791 9.2385 1945.82 1896.92 44.11
792 9.2469 1929.96 1887.16 43.93
793 9.2553 1930.49 1878.98 43.94
794 9.2637 1918.55 1883.11 43.80
795 9.2721 1898.81 1877.65 43.58
796 9.2805 1899.41 1873.13 43.58
797 9.2889 1899.15 1869.37 43.58
798 9.2973 1885.90 1866.19 43.43
799 9.3057 1888.17 1863.48 43.45
800 9.3141 1882.51 1861.13 43.39
801 9.3225 1882.05 1859.06 43.38
802 9.3309 1869.72 1857.22 43.24
803 9.3393 1866.22 1855.56 43.20
804 9.3477 1865.53 1854.07 43.19
805 9.3561 1871.19 1852.72 43.26
806 9.3645 1866.22 1851.49 43.20
807 9.3729 1868.26 1850.39 43.22
808 9.3813 1859.59 1849.40 43.12
809 9.3897 1873.10 1848.52 43.28
810 9.3981 1860.93 1847.74 43.14
811 9.4065 1854.36 1847.08 43.06
812 9.4149 1856.70 1846.52 43.09
813 9.4233 1850.82 1846.08 43.02
814 9.4317 1850.92 1845.76 43.02
815 9.4401 1850.01 1845.56 43.01
816 9.4485 1848.77 1845.49 43.00
817 9.4569 1849.44 1845.57 43.01
818 9.4653 1852.08 1845.79 43.04
819 9.4737 1839.28 1846.19 42.89
820 9.4821 1852.79 1846.77 43.04
821 9.4905 1842.94 1847.55 42.93
822 9.4989 1857.46 1828.43 43.10
823 9.5073 1857.81 1830.08 43.10
824 9.5157 1849.93 1832.04 43.01
825 9.5241 1856.28 1834.38 43.08
826 9.5325 1864.27 1837.20 43.18
827 9.5409 1857.78 1840.61 43.10
828 9.5493 1871.84 1844.79 43.26
829 9.5577 1877.63 1849.98 43.33
830 9.5661 1882.50 1856.48 43.39
831 9.5745 1893.63 1864.69 43.52
832 9.5829 1896.62 1875.10 43.55
833 9.5913 1916.27 1888.32 43.78
834 9.5997 1927.31 1905.03 43.90
835 9.6081 1936.92 1925.97 44.01
836 9.6165 1969.98 1951.90 44.38
837 9.6249 1993.98 1983.52 44.65
838 9.6333 2019.40 2021.37 44.94
839 9.6417 2073.36 2065.76 45.53
840 9.6501 2129.27 2116.58 46.14
841 9.6585 2211.46 2173.19 47.03
842 9.6669 2302.39 2234.23 47.98
843 9.6753 2406.24 2297.32 49.05
844 9.6837 2508.96 2358.93 50.09
845 9.6921 2614.22 2414.28 51.13
846 9.7005 2689.78 2457.84 51.86
847 9.7089 2713.93 2484.37 52.10
848 9.7173 2693.52 2490.32 51.90
849 9.7257 2639.37 2474.91 51.37
850 9.7341 2556.42 2440.39 50.56
851 9.7425 2471.47 2391.27 49.71
852 9.7509 2357.32 2333.05 48.55
853 9.7593 2262.31 2270.94 47.56
854 9.7677 2190.12 2209.16 46.80
855 9.7761 2121.08 2150.67 46.06
856 9.7845 2056.04 2097.37 45.34
857 9.7929 2010.06 2050.29 44.83
858 9.8013 1968.07 2009.80 44.36
859 9.8097 1931.26 1975.81 43.95
860 9.8181 1913.12 1947.92 43.74
861 9.8265 1889.21 1925.50 43.47
862 9.8349 1868.71 1907.83 43.23
863 9.8433 1863.25 1894.18 43.17
864 9.8517 1839.33 1883.84 42.89
865 9.8601 1836.18 1876.17 42.85
866 9.8685 1833.39 1870.66 42.82
867 9.8769 1824.95 1866.85 42.72
868 9.8853 1813.53 1864.43 42.59
869 9.8937 1814.49 1863.15 42.60
870 9.9021 1820.43 1862.81 42.67
871 9.9105 1804.30 1863.32 42.48
872 9.9189 1809.44 1864.58 42.54
873 9.9273 1806.27 1866.55 42.50
874 9.9357 1805.01 1869.23 42.49
875 9.9441 1815.35 1872.60 42.61
876 9.9525 1805.45 1876.70 42.49
877 9.9609 1813.20 1881.55 42.58
878 9.9693 1822.00 1887.21 42.68
879 9.9777 1818.24 1893.74 42.64
880 9.9861 1828.02 1901.23 42.76
881 9.9945 1832.31 1909.76 42.81
882 10.0029 1842.81 1919.49 42.93
883 10.0113 1845.79 1930.56 42.96
884 10.0197 1865.14 1943.18 43.19
885 10.0281 1868.37 1957.60 43.22
886 10.0365 1880.53 1974.19 43.37
887 10.0449 1904.93 1993.42 43.65
888 10.0533 1920.61 2015.94 43.82
889 10.0617 1932.79 2042.67 43.96
890 10.0701 1955.39 2074.81 44.22
891 10.0785 1992.95 2114.04 44.64
892 10.0869 2028.90 2162.53 45.04
893 10.0953 2078.43 2222.65 45.59
894 10.1037 2129.54 2298.70 46.15
895 10.1121 2204.48 2394.39 46.95
896 10.1205 2272.63 2514.48 47.67
897 10.1289 2388.51 2664.08 48.87
898 10.1373 2507.22 2848.31 50.07
899 10.1457 2693.18 3071.96 51.90
900 10.1541 2910.72 3338.71 53.95
901 10.1625 3223.31 3650.47 56.77
902 10.1709 3583.76 4006.69 59.86
903 10.1793 4083.93 4403.11 63.91
904 10.1877 4640.36 4830.57 68.12
905 10.1961 5321.76 5273.48 72.95
906 10.2045 6061.68 5707.65 77.86
907 10.2129 6754.60 6099.67 82.19
908 10.2213 7361.80 6410.39 85.80
909 10.2297 7678.54 6600.06 87.63
910 10.2381 7723.88 6631.81 87.89
911 10.2465 7464.83 6505.12 86.40
912 10.2549 7000.63 6240.39 83.67
913 10.2633 6406.68 5875.27 80.04
914 10.2717 5700.32 5451.98 75.50
915 10.2801 5125.61 5007.40 71.59
916 10.2885 4530.30 4569.43 67.31
917 10.2969 4066.06 4156.94 63.77
918 10.3053 3662.20 3781.49 60.52
919 10.3137 3326.94 3449.15 57.68
920 10.3221 3047.38 3161.91 55.20
921 10.3305 2837.10 2918.72 53.26
922 10.3389 2657.57 2716.56 51.55
923 10.3473 2509.47 2551.06 50.09
924 10.3557 2394.07 2417.15 48.93
925 10.3641 2285.58 2309.66 47.81
926 10.3725 2217.20 2223.70 47.09
927 10.3809 2135.96 2154.83 46.22
928 10.3893 2081.37 2099.33 45.62
929 10.3977 2035.30 2054.13 45.11
930 10.4061 1988.89 2016.80 44.60
931 10.4145 1955.02 1985.48 44.22
932 10.4229 1919.80 1958.80 43.82
933 10.4313 1889.86 1935.71 43.47
934 10.4397 1868.91 1915.47 43.23
935 10.4481 1853.79 1897.53 43.06
936 10.4565 1828.45 1881.47 42.76
937 10.4649 1815.27 1867.01 42.61
938 10.4733 1795.34 1853.90 42.37
939 10.4817 1781.15 1841.96 42.20
940 10.4901 1775.05 1831.05 42.13
941 10.4985 1758.87 1821.03 41.94
942 10.5069 1757.58 1811.82 41.92
943 10.5153 1741.15 1803.31 41.73
944 10.5237 1745.11 1795.44 41.77
945 10.5321 1726.48 1788.15 41.55
946 10.5405 1723.16 1781.37 41.51
947 10.5489 1716.47 1775.05 41.43
948 10.5573 1707.97 1769.16 41.33
949 10.5657 1705.93 1763.66 41.30
950 10.5741 1708.71 1758.50 41.34
951 10.5825 1697.37 1753.67 41.20
952 10.5909 1694.44 1749.13 41.16
953 10.5993 1691.34 1744.87 41.13
954 10.6077 1687.45 1740.85 41.08
955 10.6161 1690.29 1737.07 41.11
956 10.6245 1681.92 1733.50 41.01
957 10.6329 1677.52 1730.14 40.96
958 10.6413 1669.95 1726.96 40.87
959 10.6497 1673.34 1723.96 40.91
960 10.6581 1666.83 1721.13 40.83
961 10.6665 1665.62 1723.14 40.81
962 10.6749 1665.45 1719.85 40.81
963 10.6833 1664.05 1719.74 40.79
964 10.6917 1661.47 1716.91 40.76
965 10.7001 1656.66 1714.94 40.70
966 10.7085 1655.81 1713.11 40.69
967 10.7169 1651.71 1711.39 40.64
968 10.7253 1652.49 1709.81 40.65
969 10.7337 1655.59 1708.34 40.69
970 10.7421 1653.21 1706.99 40.66
971 10.7505 1654.55 1705.76 40.68
972 10.7589 1650.55 1704.64 40.63
973 10.7673 1652.60 1703.65 40.65
974 10.7757 1647.34 1702.77 40.59
975 10.7841 1647.26 1702.01 40.59
976 10.7925 1641.22 1701.37 40.51
977 10.8009 1643.20 1700.86 40.54
978 10.8093 1651.67 1700.48 40.64
979 10.8177 1651.33 1700.23 40.64
980 10.8261 1642.94 1700.12 40.53
981 10.8345 1647.61 1700.15 40.59
982 10.8429 1643.82 1700.33 40.54
983 10.8513 1650.07 1700.67 40.62
984 10.8597 1649.25 1701.18 40.61
985 10.8681 1649.13 1701.87 40.61
986 10.8765 1659.30 1702.75 40.73
987 10.8849 1657.04 1703.84 40.71
988 10.8933 1654.35 1705.14 40.67
989 10.9017 1665.83 1706.69 40.81
990 10.9101 1667.41 1708.49 40.83
991 10.9185 1668.20 1710.57 40.84
992 10.9269 1677.15 1712.96 40.95
993 10.9353 1673.44 1715.69 40.91
994 10.9437 1683.37 1718.79 41.03
995 10.9521 1685.49 1722.29 41.05
996 10.9605 1697.99 1726.25 41.21
997 10.9689 1707.28 1730.71 41.32
998 10.9773 1703.98 1735.74 41.28
999 10.9857 1717.75 1741.42 41.45
1000 10.9941 1730.39 1747.81 41.60
1001 11.0025 1740.62 1755.05 41.72
1002 11.0109 1757.28 1763.26 41.92
1003 11.0193 1770.91 1772.62 42.08
1004 11.0277 1780.43 1783.36 42.20
1005 11.0361 1802.83 1795.80 42.46
1006 11.0445 1828.57 1810.35 42.76
1007 11.0529 1857.48 1827.58 43.10
1008 11.0613 1883.58 1848.22 43.40
1009 11.0697 1916.39 1873.28 43.78
1010 11.0781 1962.00 1904.01 44.29
1011 11.0865 2008.63 1942.02 44.82
1012 11.0949 2062.28 1989.26 45.41
1013 11.1033 2127.75 2059.09 46.13
1014 11.1117 2203.76 2132.13 46.94
1015 11.1201 2292.55 2222.03 47.88
1016 11.1285 2410.92 2331.55 49.10
1017 11.1369 2509.36 2463.27 50.09
1018 11.1453 2661.44 2619.17 51.59
1019 11.1537 2817.47 2800.38 53.08
1020 11.1621 3017.83 3006.66 54.93
1021 11.1705 3226.65 3235.85 56.80
1022 11.1789 3479.76 3483.22 58.99
1023 11.1873 3715.76 3740.56 60.96
1024 11.1957 3974.69 3995.30 63.05
1025 11.2041 4199.23 4230.23 64.80
1026 11.2125 4386.63 4424.26 66.23
1027 11.2209 4531.31 4544.46 67.32
1028 11.2293 4558.77 4595.68 67.52
1029 11.2377 4516.40 4559.04 67.20
1030 11.2461 4391.27 4439.65 66.27
1031 11.2545 4201.32 4253.68 64.82
1032 11.2629 3978.16 4023.14 63.07
1033 11.2713 3749.08 3769.92 61.23
1034 11.2797 3516.81 3512.24 59.30
1035 11.2881 3270.35 3263.41 57.19
1036 11.2965 3074.31 3032.08 55.45
1037 11.3049 2895.52 2823.40 53.81
1038 11.3133 2741.90 2639.80 52.36
1039 11.3217 2609.41 2481.69 51.08
1040 11.3301 2479.04 2348.16 49.79
1041 11.3385 2376.86 2237.27 48.75
1042 11.3469 2293.45 2146.57 47.89
1043 11.3553 2215.09 2073.31 47.06
1044 11.3637 2149.02 2014.73 46.36
1045 11.3721 2094.52 1968.23 45.77
1046 11.3805 2044.73 1931.51 45.22
1047 11.3889 2002.29 1902.58 44.75
1048 11.3973 1972.71 1879.86 44.42
1049 11.4057 1945.20 1862.06 44.10
1050 11.4141 1916.44 1848.21 43.78
1051 11.4225 1894.40 1837.59 43.52
1052 11.4309 1881.15 1829.69 43.37
1053 11.4393 1863.21 1824.13 43.16
1054 11.4477 1852.06 1820.70 43.04
1055 11.4561 1852.64 1819.26 43.04
1056 11.4645 1839.46 1819.78 42.89
1057 11.4729 1849.10 1822.28 43.00
1058 11.4813 1849.01 1826.96 43.00
1059 11.4897 1848.00 1833.92 42.99
1060 11.4981 1862.61 1843.56 43.16
1061 11.5065 1873.05 1856.39 43.28
1062 11.5149 1900.84 1873.08 43.60
1063 11.5233 1924.57 1894.58 43.87
1064 11.5317 1946.83 1922.07 44.12
1065 11.5401 1988.32 1957.09 44.59
1066 11.5485 2033.60 2001.49 45.10
1067 11.5569 2077.79 2057.45 45.58
1068 11.5653 2154.91 2127.41 46.42
1069 11.5737 2242.81 2214.01 47.36
1070 11.5821 2338.58 2319.85 48.36
1071 11.5905 2453.20 2447.36 49.53
1072 11.5989 2577.84 2598.44 50.77
1073 11.6073 2744.64 2774.12 52.39
1074 11.6157 2934.12 2974.29 54.17
1075 11.6241 3143.66 3196.91 56.07
1076 11.6325 3383.15 3437.57 58.16
1077 11.6409 3669.76 3688.59 60.58
1078 11.6493 3900.88 3937.99 62.46
1079 11.6577 4179.29 4169.04 64.65
1080 11.6661 4351.80 4361.16 65.97
1081 11.6745 4502.92 4492.82 67.10
1082 11.6829 4544.21 4546.87 67.41
1083 11.6913 4498.23 4515.89 67.07
1084 11.6997 4363.41 4404.62 66.06
1085 11.7081 4181.53 4228.12 64.66
1086 11.7165 3960.19 4006.97 62.93
1087 11.7249 3708.12 3762.08 60.89
1088 11.7333 3478.06 3511.09 58.98
1089 11.7417 3261.00 3267.22 57.11
1090 11.7501 3040.56 3039.39 55.14
1091 11.7585 2879.82 2832.88 53.66
1092 11.7669 2709.43 2650.41 52.05
1093 11.7753 2579.07 2492.64 50.78
1094 11.7837 2457.35 2358.88 49.57
1095 11.7921 2361.54 2247.50 48.60
1096 11.8005 2273.48 2156.22 47.68
1097 11.8089 2193.05 2082.49 46.83
1098 11.8173 2128.94 2023.73 46.14
1099 11.8257 2080.20 1977.44 45.61
1100 11.8341 2025.19 1941.41 45.00
1101 11.8425 1995.91 1913.71 44.68
1102 11.8509 1960.06 1892.77 44.27
1103 11.8593 1932.09 1877.34 43.96
1104 11.8677 1911.60 1866.48 43.72
1105 11.8761 1895.08 1859.48 43.53
1106 11.8845 1872.65 1855.93 43.27
1107 11.8929 1868.82 1855.43 43.23
1108 11.9013 1851.70 1857.91 43.03
1109 11.9097 1858.04 1863.37 43.10
1110 11.9181 1863.71 1871.98 43.17
1111 11.9265 1859.24 1885.60 43.12
1112 11.9349 1874.15 1902.08 43.29
1113 11.9433 1893.17 1922.82 43.51
1114 11.9517 1901.24 1949.25 43.60
1115 11.9601 1928.97 1982.76 43.92
1116 11.9685 1967.91 2025.13 44.36
1117 11.9769 1993.62 2078.60 44.65
1118 11.9853 2060.63 2145.99 45.39
1119 11.9937 2108.13 2230.56 45.91
1120 12.0021 2204.42 2336.04 46.95
1121 12.0105 2297.29 2466.50 47.93
1122 12.0189 2401.77 2626.05 49.01
1123 12.0273 2572.94 2818.55 50.72
1124 12.0357 2729.12 3047.30 52.24
1125 12.0441 3006.16 3314.35 54.83
1126 12.0525 3316.10 3620.18 57.59
1127 12.0609 3685.45 3962.64 60.71
1128 12.0693 4132.51 4336.24 64.28
1129 12.0777 4698.33 4730.89 68.54
1130 12.0861 5245.65 5130.14 72.43
1131 12.0945 5905.79 5509.93 76.85
1132 12.1029 6487.69 5838.69 80.55
1133 12.1113 6886.23 6080.44 82.98
1134 12.1197 7138.30 6202.72 84.49
1135 12.1281 7084.53 6186.79 84.17
1136 12.1365 6795.74 6034.82 82.44
1137 12.1449 6403.61 5768.93 80.02
1138 12.1533 5839.56 5423.01 76.42
1139 12.1617 5244.10 5032.62 72.42
1140 12.1701 4686.15 4627.89 68.46
1141 12.1785 4206.26 4231.30 64.86
1142 12.1869 3747.47 3857.95 61.22
1143 12.1953 3410.52 3516.90 58.40
1144 12.2037 3117.20 3212.95 55.83
1145 12.2121 2852.83 2947.58 53.41
1146 12.2205 2652.84 2720.04 51.51
1147 12.2289 2465.21 2526.11 49.65
1148 12.2373 2335.37 2366.13 48.33
1149 12.2457 2212.01 2229.09 47.03
1150 12.2541 2113.65 2121.22 45.97
1151 12.2625 2033.29 2033.25 45.09
1152 12.2709 1955.76 1961.49 44.22
1153 12.2793 1899.31 1903.40 43.58
1154 12.2877 1847.29 1854.92 42.98
1155 12.2961 1806.13 1814.48 42.50
1156 12.3045 1766.86 1780.34 42.03
1157 12.3129 1732.86 1751.12 41.63
1158 12.3213 1704.84 1725.79 41.29
1159 12.3297 1677.45 1703.57 40.96
1160 12.3381 1659.14 1683.89 40.73
1161 12.3465 1627.67 1666.31 40.34
1162 12.3549 1619.96 1650.50 40.25
1163 12.3633 1597.91 1636.21 39.97
1164 12.3717 1592.22 1623.27 39.90
1165 12.3801 1572.27 1611.51 39.65
1166 12.3885 1562.19 1600.83 39.52
1167 12.3969 1555.59 1591.13 39.44
1168 12.4053 1549.94 1582.34 39.37
1169 12.4137 1537.09 1574.40 39.21
1170 12.4221 1529.19 1567.25 39.10
1171 12.4305 1516.34 1560.84 38.94
1172 12.4389 1515.15 1555.12 38.92
1173 12.4473 1504.47 1550.04 38.79
1174 12.4557 1494.52 1545.53 38.66
1175 12.4641 1495.57 1541.50 38.67
1176 12.4725 1484.55 1537.85 38.53
1177 12.4809 1490.07 1534.44 38.60
1178 12.4893 1484.23 1531.11 38.53
1179 12.4977 1471.72 1527.65 38.36
1180 12.5061 1470.37 1523.91 38.35
1181 12.5145 1466.50 1519.76 38.29
1182 12.5229 1467.04 1515.20 38.30
1183 12.5313 1456.59 1510.31 38.17
1184 12.5397 1458.53 1505.24 38.19
1185 12.5481 1453.75 1500.13 38.13
1186 12.5565 1451.23 1495.13 38.10
1187 12.5649 1447.04 1490.33 38.04
1188 12.5733 1445.41 1485.80 38.02
1189 12.5817 1439.23 1481.57 37.94
1190 12.5901 1437.88 1477.67 37.92
1191 12.5985 1436.54 1474.10 37.90
1192 12.6069 1435.95 1470.84 37.89
1193 12.6153 1437.58 1467.90 37.92
1194 12.6237 1426.41 1465.26 37.77
1195 12.6321 1433.69 1462.88 37.86
1196 12.6405 1431.96 1460.77 37.84
1197 12.6489 1423.70 1458.91 37.73
1198 12.6573 1427.76 1457.27 37.79
1199 12.6657 1423.02 1455.85 37.72
1200 12.6741 1427.69 1454.64 37.78
1201 12.6825 1423.01 1453.64 37.72
1202 12.6909 1423.66 1452.85 37.73
1203 12.6993 1420.88 1448.37 37.69
1204 12.7077 1425.30 1448.12 37.75
1205 12.7161 1424.65 1445.87 37.74
1206 12.7245 1425.13 1446.16 37.75
1207 12.7329 1416.84 1446.73 37.64
1208 12.7413 1427.94 1447.63 37.79
1209 12.7497 1429.70 1448.89 37.81
1210 12.7581 1431.13 1450.58 37.83
1211 12.7665 1432.52 1452.77 37.85
1212 12.7749 1433.25 1455.58 37.86
1213 12.7833 1445.40 1459.14 38.02
1214 12.7917 1444.57 1463.63 38.01
1215 12.8001 1457.39 1469.30 38.18
1216 12.8085 1460.49 1476.43 38.22
1217 12.8169 1477.05 1485.40 38.43
1218 12.8253 1476.99 1496.66 38.43
1219 12.8337 1502.33 1510.75 38.76
1220 12.8421 1508.39 1528.25 38.84
1221 12.8505 1541.04 1549.83 39.26
1222 12.8589 1569.83 1576.15 39.62
1223 12.8673 1578.67 1607.85 39.73
1224 12.8757 1640.58 1645.49 40.50
1225 12.8841 1677.64 1689.45 40.96
1226 12.8925 1744.35 1739.87 41.77
1227 12.9009 1808.33 1796.47 42.52
1228 12.9093 1886.93 1858.53 43.44
1229 12.9177 1965.65 1924.59 44.34
1230 12.9261 2053.21 1992.39 45.31
1231 12.9345 2133.94 2058.54 46.19
1232 12.9429 2206.16 2118.47 46.97
1233 12.9513 2266.55 2166.71 47.61
1234 12.9597 2307.32 2197.65 48.03
1235 12.9681 2321.11 2206.99 48.18
1236 12.9765 2299.05 2193.17 47.95
1237 12.9849 2259.15 2157.90 47.53
1238 12.9933 2194.42 2105.59 46.84
1239 13.0017 2117.37 2041.92 46.01
1240 13.0101 2041.80 1972.51 45.19
1241 13.0185 1964.14 1901.96 44.32
1242 13.0269 1888.95 1833.68 43.46
1243 13.0353 1822.85 1769.90 42.69
1244 13.0437 1757.30 1712.11 41.92
1245 13.0521 1714.30 1660.59 41.40
1246 13.0605 1662.67 1615.66 40.78
1247 13.0689 1625.38 1577.11 40.32
1248 13.0773 1590.07 1544.52 39.88
1249 13.0857 1557.15 1519.03 39.46
1250 13.0941 1540.08 1496.55 39.24
1251 13.1025 1509.28 1478.12 38.85
1252 13.1109 1491.12 1463.09 38.62
1253 13.1193 1480.49 1450.90 38.48
1254 13.1277 1462.19 1441.03 38.24
1255 13.1361 1450.70 1433.09 38.09
1256 13.1445 1438.38 1426.75 37.93
1257 13.1529 1426.76 1410.34 37.77
1258 13.1613 1417.68 1406.78 37.65
1259 13.1697 1413.46 1404.36 37.60
1260 13.1781 1405.69 1403.07 37.49
1261 13.1865 1401.95 1402.95 37.44
1262 13.1949 1397.63 1404.10 37.38
1263 13.2033 1395.07 1406.67 37.35
1264 13.2117 1390.41 1410.81 37.29
1265 13.2201 1396.31 1416.71 37.37
1266 13.2285 1396.57 1424.56 37.37
1267 13.2369 1401.63 1434.52 37.44
1268 13.2453 1417.07 1446.72 37.64
1269 13.2537 1424.05 1461.20 37.74
1270 13.2621 1447.74 1477.90 38.05
1271 13.2705 1475.45 1496.59 38.41
1272 13.2789 1512.84 1516.82 38.90
1273 13.2873 1570.28 1537.84 39.63
1274 13.2957 1623.86 1558.50 40.30
1275 13.3041 1688.10 1577.20 41.09
1276 13.3125 1733.97 1592.01 41.64
1277 13.3209 1761.54 1600.95 41.97
1278 13.3293 1766.16 1602.57 42.03
1279 13.3377 1742.72 1596.38 41.75
1280 13.3461 1696.03 1583.12 41.18
1281 13.3545 1642.78 1564.41 40.53
1282 13.3629 1586.03 1542.24 39.83
1283 13.3713 1541.10 1518.48 39.26
1284 13.3797 1492.62 1494.61 38.63
1285 13.3881 1456.22 1471.68 38.16
1286 13.3965 1430.34 1450.35 37.82
1287 13.4049 1406.60 1432.14 37.50
1288 13.4133 1383.74 1414.97 37.20
1289 13.4217 1364.10 1399.98 36.93
1290 13.4301 1361.98 1387.10 36.90
1291 13.4385 1344.57 1376.17 36.67
1292 13.4469 1338.64 1369.33 36.59
1293 13.4553 1338.65 1361.73 36.59
1294 13.4637 1332.49 1355.47 36.50
1295 13.4721 1321.67 1350.32 36.35
1296 13.4805 1321.33 1346.11 36.35
1297 13.4889 1319.44 1342.68 36.32
1298 13.4973 1313.58 1339.89 36.24
1299 13.5057 1314.43 1337.64 36.26
1300 13.5141 1313.34 1335.85 36.24
1301 13.5225 1320.24 1334.45 36.34
1302 13.5309 1321.97 1333.42 36.36
1303 13.5393 1314.11 1332.73 36.25
1304 13.5477 1322.70 1332.32 36.37
1305 13.5561 1323.74 1332.32 36.38
1306 13.5645 1328.11 1332.69 36.44
1307 13.5729 1326.10 1333.49 36.42
1308 13.5813 1332.59 1334.78 36.50
1309 13.5897 1330.91 1336.67 36.48
1310 13.5981 1347.55 1339.27 36.71
1311 13.6065 1349.47 1342.75 36.74
1312 13.6149 1361.56 1347.29 36.90
1313 13.6233 1364.28 1353.14 36.94
1314 13.6317 1379.86 1360.55 37.15
1315 13.6401 1387.53 1369.81 37.25
1316 13.6485 1393.24 1381.23 37.33
1317 13.6569 1417.15 1395.08 37.65
1318 13.6653 1432.50 1411.64 37.85
1319 13.6737 1457.74 1431.09 38.18
1320 13.6821 1477.09 1453.52 38.43
1321 13.6905 1499.69 1478.88 38.73
1322 13.6989 1528.87 1506.89 39.10
1323 13.7073 1561.62 1536.96 39.52
1324 13.7157 1596.32 1568.10 39.95
1325 13.7241 1625.22 1598.74 40.31
1326 13.7325 1649.58 1626.73 40.62
1327 13.7409 1674.69 1649.42 40.92
1328 13.7493 1700.86 1664.07 41.24
1329 13.7577 1695.43 1668.61 41.18
1330 13.7661 1700.16 1663.50 41.23
1331 13.7745 1673.42 1647.28 40.91
1332 13.7829 1656.61 1623.32 40.70
1333 13.7913 1629.97 1594.37 40.37
1334 13.7997 1596.48 1570.48 39.96
1335 13.8081 1571.59 1539.45 39.64
1336 13.8165 1536.21 1509.21 39.19
1337 13.8249 1507.31 1481.15 38.82
1338 13.8333 1491.94 1455.82 38.63
1339 13.8417 1468.37 1433.49 38.32
1340 13.8501 1449.03 1414.20 38.07
1341 13.8585 1427.13 1397.87 37.78
1342 13.8669 1417.31 1384.31 37.65
1343 13.8753 1406.45 1373.27 37.50
1344 13.8837 1399.39 1364.48 37.41
1345 13.8921 1389.80 1357.65 37.28
1346 13.9005 1389.31 1352.53 37.27
1347 13.9089 1379.87 1348.88 37.15
1348 13.9173 1382.27 1346.51 37.18
1349 13.9257 1376.39 1345.29 37.10
1350 13.9341 1380.76 1345.11 37.16
1351 13.9425 1378.79 1345.93 37.13
1352 13.9509 1384.04 1347.76 37.20
1353 13.9593 1395.07 1350.65 37.35
1354 13.9677 1389.07 1354.72 37.27
1355 13.9761 1406.03 1360.07 37.50
1356 13.9845 1416.42 1367.05 37.64
1357 13.9929 1418.78 1375.90 37.67
1358 14.0013 1436.54 1386.97 37.90
1359 14.0097 1456.97 1400.66 38.17
1360 14.0181 1468.44 1415.84 38.32
1361 14.0265 1509.34 1435.77 38.85
1362 14.0349 1526.57 1460.25 39.07
1363 14.0433 1563.52 1489.26 39.54
1364 14.0517 1606.63 1523.19 40.08
1365 14.0601 1642.44 1562.23 40.53
1366 14.0685 1707.23 1606.35 41.32
1367 14.0769 1747.68 1655.18 41.81
1368 14.0853 1819.36 1707.97 42.65
1369 14.0937 1874.95 1763.52 43.30
1370 14.1021 1931.54 1820.19 43.95
1371 14.1105 1993.03 1875.78 44.64
1372 14.1189 2041.38 1927.33 45.18
1373 14.1273 2085.51 1971.09 45.67
1374 14.1357 2116.91 2002.68 46.01
1375 14.1441 2133.45 2017.97 46.19
1376 14.1525 2128.89 2014.39 46.14
1377 14.1609 2109.99 1991.98 45.93
1378 14.1693 2072.67 1953.47 45.53
1379 14.1777 2025.58 1903.41 45.01
1380 14.1861 1964.61 1846.81 44.32
1381 14.1945 1909.24 1788.07 43.69
1382 14.2029 1847.04 1730.53 42.98
1383 14.2113 1797.08 1676.48 42.39
1384 14.2197 1739.76 1627.28 41.71
1385 14.2281 1697.28 1583.68 41.20
1386 14.2365 1653.49 1545.93 40.66
1387 14.2449 1615.98 1514.00 40.20
1388 14.2533 1581.82 1487.65 39.77
1389 14.2617 1553.13 1466.47 39.41
1390 14.2701 1528.63 1450.02 39.10
1391 14.2785 1506.57 1437.86 38.81
1392 14.2869 1489.37 1429.55 38.59
1393 14.2953 1484.94 1424.74 38.53
1394 14.3037 1466.67 1423.18 38.30
1395 14.3121 1462.02 1424.74 38.24
1396 14.3205 1460.85 1429.40 38.22
1397 14.3289 1460.56 1437.33 38.22
1398 14.3373 1458.23 1448.79 38.19
1399 14.3457 1462.40 1464.22 38.24
1400 14.3541 1471.64 1484.19 38.36
1401 14.3625 1484.56 1509.37 38.53
1402 14.3709 1505.03 1540.55 38.79
1403 14.3793 1524.59 1578.56 39.05
1404 14.3877 1563.34 1623.53 39.54
1405 14.3961 1597.39 1677.60 39.97
1406 14.4045 1651.78 1740.65 40.64
1407 14.4129 1715.27 1812.96 41.42
1408 14.4213 1782.58 1894.29 42.22
1409 14.4297 1871.37 1983.74 43.26
1410 14.4381 1969.91 2079.45 44.38
1411 14.4465 2060.09 2178.37 45.39
1412 14.4549 2157.97 2276.33 46.45
1413 14.4633 2237.44 2367.94 47.30
1414 14.4717 2291.93 2447.63 47.87
1415 14.4801 2337.30 2509.89 48.35
1416 14.4885 2340.70 2549.79 48.38
1417 14.4969 2332.58 2563.47 48.30
1418 14.5053 2295.99 2548.75 47.92
1419 14.5137 2245.59 2506.17 47.39
1420 14.5221 2174.94 2439.46 46.64
1421 14.5305 2115.85 2354.89 46.00
1422 14.5389 2034.38 2259.90 45.10
1423 14.5473 1964.20 2161.38 44.32
1424 14.5557 1894.78 2064.81 43.53
1425 14.5641 1833.20 1974.09 42.82
1426 14.5725 1774.30 1891.58 42.12
1427 14.5809 1725.76 1818.51 41.54
1428 14.5893 1684.16 1755.39 41.04
1429 14.5977 1648.53 1702.11 40.60
1430 14.6061 1617.84 1658.23 40.22
1431 14.6145 1600.69 1623.14 40.01
1432 14.6229 1574.76 1596.08 39.68
1433 14.6313 1556.66 1576.28 39.45
1434 14.6397 1549.97 1563.04 39.37
1435 14.6481 1540.61 1555.75 39.25
1436 14.6565 1553.36 1553.98 39.41
1437 14.6649 1549.86 1557.45 39.37
1438 14.6733 1555.48 1566.13 39.44
1439 14.6817 1566.81 1580.22 39.58
1440 14.6901 1594.09 1600.18 39.93
1441 14.6985 1607.71 1626.77 40.10
1442 14.7069 1641.97 1661.05 40.52
1443 14.7153 1682.48 1704.37 41.02
1444 14.7237 1731.34 1758.42 41.61
1445 14.7321 1791.54 1825.15 42.33
1446 14.7405 1867.91 1906.70 43.22
1447 14.7489 1957.98 2005.39 44.25
1448 14.7573 2066.53 2123.54 45.46
1449 14.7657 2196.91 2263.22 46.87
1450 14.7741 2352.12 2426.12 48.50
1451 14.7825 2547.01 2613.20 50.47
1452 14.7909 2760.94 2827.12 52.54
1453 14.7993 3038.86 3059.99 55.13
1454 14.8077 3305.40 3310.64 57.49
1455 14.8161 3626.29 3570.98 60.22
1456 14.8245 3944.12 3835.86 62.80
1457 14.8329 4220.32 4084.97 64.96
1458 14.8413 4516.41 4304.47 67.20
1459 14.8497 4705.35 4475.50 68.60
1460 14.8581 4837.54 4579.27 69.55
1461 14.8665 4869.11 4601.22 69.78
1462 14.8749 4803.37 4536.05 69.31
1463 14.8833 4638.83 4390.26 68.11
1464 14.8917 4418.60 4180.40 66.47
1465 14.9001 4141.64 3928.26 64.36
1466 14.9085 3845.58 3655.36 62.01
1467 14.9169 3551.10 3379.35 59.59
1468 14.9253 3278.28 3112.93 57.26
1469 14.9337 3025.80 2864.45 55.01
1470 14.9421 2805.21 2638.51 52.96
1471 14.9505 2601.71 2437.17 51.01
1472 14.9589 2435.70 2260.80 49.35
1473 14.9673 2282.93 2108.47 47.78
1474 14.9757 2153.74 1978.43 46.41
1475 14.9841 2038.76 1868.56 45.15
1476 14.9925 1942.42 1776.41 44.07
1477 15.0009 1852.69 1699.51 43.04
1478 15.0093 1781.66 1635.48 42.21
1479 15.0177 1711.16 1582.15 41.37
1480 15.0261 1664.74 1537.56 40.80
1481 15.0345 1611.98 1500.06 40.15
1482 15.0429 1569.86 1468.27 39.62
1483 15.0513 1524.56 1441.06 39.05
1484 15.0597 1491.51 1417.52 38.62
1485 15.0681 1465.22 1396.95 38.28
1486 15.0765 1434.97 1378.81 37.88
1487 15.0849 1412.39 1362.67 37.58
1488 15.0933 1392.04 1348.19 37.31
1489 15.1017 1368.60 1335.13 36.99
1490 15.1101 1355.07 1323.27 36.81
1491 15.1185 1336.82 1312.47 36.56
1492 15.1269 1323.14 1309.30 36.38
1493 15.1353 1311.58 1300.34 36.22
1494 15.1437 1298.66 1292.10 36.04
1495 15.1521 1282.94 1285.73 35.82
1496 15.1605 1274.43 1278.74 35.70
1497 15.1689 1264.85 1272.15 35.56
1498 15.1773 1263.12 1266.17 35.54
1499 15.1857 1254.46 1260.63 35.42
1500 15.1941 1239.82 1255.48 35.21
1501 15.2025 1238.32 1250.70 35.19
1502 15.2109 1230.18 1246.26 35.07
1503 15.2193 1223.04 1240.31 34.97
1504 15.2277 1219.15 1236.48 34.92
1505 15.2361 1210.15 1232.92 34.79
1506 15.2445 1211.08 1229.60 34.80
1507 15.2529 1207.85 1226.51 34.75
1508 15.2613 1205.48 1223.64 34.72
1509 15.2697 1199.83 1220.96 34.64
1510 15.2781 1194.57 1218.48 34.56
1511 15.2865 1189.02 1216.18 34.48
1512 15.2949 1186.81 1214.05 34.45
1513 15.3033 1186.70 1212.09 34.45
1514 15.3117 1182.53 1210.29 34.39
1515 15.3201 1179.26 1208.64 34.34
1516 15.3285 1174.13 1207.14 34.27
1517 15.3369 1176.13 1205.80 34.29
1518 15.3453 1177.57 1204.60 34.32
1519 15.3537 1173.16 1203.56 34.25
1520 15.3621 1166.81 1202.67 34.16
1521 15.3705 1167.74 1201.93 34.17
1522 15.3789 1169.51 1201.37 34.20
1523 15.3873 1166.49 1200.99 34.15
1524 15.3957 1171.44 1200.79 34.23
1525 15.4041 1168.35 1200.81 34.18
1526 15.4125 1161.44 1201.05 34.08
1527 15.4209 1168.56 1201.53 34.18
1528 15.4293 1164.64 1202.27 34.13
1529 15.4377 1167.96 1203.29 34.18
1530 15.4461 1165.63 1204.60 34.14
1531 15.4545 1170.86 1206.22 34.22
1532 15.4629 1169.90 1208.16 34.20
1533 15.4713 1174.26 1210.39 34.27
1534 15.4797 1173.33 1215.01 34.25
1535 15.4881 1181.42 1217.79 34.37
1536 15.4965 1188.90 1220.71 34.48
1537 15.5049 1191.35 1223.66 34.52
1538 15.5133 1197.29 1226.49 34.60
1539 15.5217 1205.65 1229.04 34.72
1540 15.5301 1206.49 1231.18 34.73
1541 15.5385 1207.29 1231.66 34.75
1542 15.5469 1202.30 1232.95 34.67
1543 15.5553 1205.74 1233.97 34.72
1544 15.5637 1205.27 1234.93 34.72
1545 15.5721 1202.96 1236.00 34.68
1546 15.5805 1200.30 1234.94 34.65
1547 15.5889 1191.25 1236.74 34.51
1548 15.5973 1192.45 1239.04 34.53
1549 15.6057 1195.23 1241.93 34.57
1550 15.6141 1197.15 1245.46 34.60
1551 15.6225 1203.43 1249.70 34.69
1552 15.6309 1200.52 1254.69 34.65
1553 15.6393 1206.65 1260.52 34.74
1554 15.6477 1212.37 1267.25 34.82
1555 15.6561 1210.92 1274.98 34.80
1556 15.6645 1218.44 1283.84 34.91
1557 15.6729 1230.26 1293.99 35.08
1558 15.6813 1231.18 1305.65 35.09
1559 15.6897 1248.84 1319.09 35.34
1560 15.6981 1257.72 1334.68 35.46
1561 15.7065 1266.18 1352.87 35.58
1562 15.7149 1284.65 1374.24 35.84
1563 15.7233 1295.64 1399.50 35.99
1564 15.7317 1324.40 1429.52 36.39
1565 15.7401 1345.98 1465.28 36.69
1566 15.7485 1375.08 1507.97 37.08
1567 15.7569 1407.27 1558.87 37.51
1568 15.7653 1445.42 1621.13 38.02
1569 15.7737 1498.82 1692.68 38.71
1570 15.7821 1561.54 1776.59 39.52
1571 15.7905 1639.79 1874.09 40.49
1572 15.7989 1740.02 1986.09 41.71
1573 15.8073 1857.78 2112.87 43.10
1574 15.8157 2024.29 2253.91 44.99
1575 15.8241 2208.24 2407.46 46.99
1576 15.8325 2424.36 2569.84 49.24
1577 15.8409 2667.15 2735.23 51.64
1578 15.8493 2895.69 2895.33 53.81
1579 15.8577 3105.92 3039.84 55.73
1580 15.8661 3249.75 3157.98 57.01
1581 15.8745 3310.29 3240.32 57.54
1582 15.8829 3287.66 3280.37 57.34
1583 15.8913 3208.37 3275.25 56.64
1584 15.8997 3077.28 3225.80 55.47
1585 15.9081 2931.02 3135.23 54.14
1586 15.9165 2767.72 3013.94 52.61
1587 15.9249 2603.32 2870.86 51.02
1588 15.9333 2447.11 2716.75 49.47
1589 15.9417 2304.74 2553.53 48.01
1590 15.9501 2183.34 2404.26 46.73
1591 15.9585 2069.85 2265.58 45.50
1592 15.9669 1975.40 2141.45 44.45
1593 15.9753 1896.27 2032.77 43.55
1594 15.9837 1832.58 1939.84 42.81
1595 15.9921 1771.06 1862.36 42.08
1596 16.0005 1730.82 1799.56 41.60
1597 16.0089 1691.63 1750.52 41.13
1598 16.0173 1665.16 1714.29 40.81
1599 16.0257 1652.63 1690.03 40.65
1600 16.0341 1645.50 1677.11 40.56
1601 16.0425 1645.64 1675.16 40.57
1602 16.0509 1651.02 1684.17 40.63
1603 16.0593 1668.03 1704.48 40.84
1604 16.0677 1691.30 1736.80 41.13
1605 16.0761 1736.03 1782.16 41.67
1606 16.0845 1771.70 1841.88 42.09
1607 16.0929 1837.83 1917.53 42.87
1608 16.1013 1907.66 2010.65 43.68
1609 16.1097 2008.31 2126.22 44.81
1610 16.1181 2119.39 2260.18 46.04
1611 16.1265 2250.88 2413.84 47.44
1612 16.1349 2412.88 2588.47 49.12
1613 16.1433 2594.01 2782.66 50.93
1614 16.1517 2817.54 2992.80 53.08
1615 16.1601 3041.27 3212.49 55.15
1616 16.1685 3295.67 3431.51 57.41
1617 16.1769 3515.75 3635.30 59.29
1618 16.1853 3691.79 3806.10 60.76
1619 16.1937 3822.92 3925.68 61.83
1620 16.2021 3854.06 3979.82 62.08
1621 16.2105 3812.28 3962.62 61.74
1622 16.2189 3691.56 3877.83 60.76
1623 16.2273 3534.39 3736.91 59.45
1624 16.2357 3347.46 3555.12 57.86
1625 16.2441 3142.53 3348.17 56.06
1626 16.2525 2940.96 3130.08 54.23
1627 16.2609 2746.87 2912.39 52.41
1628 16.2693 2571.98 2703.62 50.71
1629 16.2777 2423.78 2509.49 49.23
1630 16.2861 2279.58 2333.46 47.74
1631 16.2945 2161.83 2176.95 46.50
1632 16.3029 2041.64 2040.06 45.18
1633 16.3113 1955.31 1922.03 44.22
1634 16.3197 1880.98 1821.46 43.37
1635 16.3281 1799.87 1736.62 42.42
1636 16.3365 1746.29 1665.71 41.79
1637 16.3449 1693.29 1606.89 41.15
1638 16.3533 1645.96 1558.43 40.57
1639 16.3617 1615.09 1518.83 40.19
1640 16.3701 1573.86 1486.74 39.67
1641 16.3785 1558.66 1461.08 39.48
1642 16.3869 1537.24 1442.29 39.21
1643 16.3953 1522.52 1427.20 39.02
1644 16.4037 1512.45 1416.68 38.89
1645 16.4121 1504.27 1410.50 38.78
1646 16.4205 1498.88 1409.24 38.72
1647 16.4289 1502.34 1411.83 38.76
1648 16.4373 1511.89 1419.08 38.88
1649 16.4457 1519.98 1431.30 38.99
1650 16.4541 1530.89 1448.85 39.13
1651 16.4625 1553.78 1472.10 39.42
1652 16.4709 1569.67 1501.34 39.62
1653 16.4793 1596.25 1536.77 39.95
1654 16.4877 1624.32 1578.37 40.30
1655 16.4961 1658.20 1625.77 40.72
1656 16.5045 1695.10 1678.08 41.17
1657 16.5129 1734.43 1733.68 41.65
1658 16.5213 1769.48 1789.84 42.07
1659 16.5297 1808.20 1842.66 42.52
1660 16.5381 1835.92 1887.08 42.85
1661 16.5465 1858.85 1917.61 43.11
1662 16.5549 1867.02 1929.67 43.21
1663 16.5633 1866.23 1921.00 43.20
1664 16.5717 1851.64 1892.58 43.03
1665 16.5801 1815.78 1848.20 42.61
1666 16.5885 1784.95 1793.12 42.25
1667 16.5969 1738.16 1732.66 41.69
1668 16.6053 1698.53 1671.23 41.21
1669 16.6137 1657.40 1611.92 40.71
1670 16.6221 1613.48 1556.87 40.17
1671 16.6305 1584.48 1507.18 39.81
1672 16.6389 1548.17 1463.39 39.35
1673 16.6473 1512.86 1425.63 38.90
1674 16.6557 1484.60 1393.80 38.53
1675 16.6641 1460.01 1367.64 38.21
1676 16.6725 1440.99 1346.82 37.96
1677 16.6809 1424.32 1331.00 37.74
1678 16.6893 1412.19 1319.87 37.58
1679 16.6977 1402.92 1313.19 37.46
1680 16.7061 1398.53 1310.80 37.40
1681 16.7145 1394.67 1312.64 37.35
1682 16.7229 1400.80 1321.80 37.43
1683 16.7313 1406.04 1332.35 37.50
1684 16.7397 1414.82 1347.47 37.61
1685 16.7481 1426.00 1367.39 37.76
1686 16.7565 1453.09 1392.32 38.12
1687 16.7649 1479.77 1422.40 38.47
1688 16.7733 1508.80 1457.62 38.84
1689 16.7817 1562.64 1497.76 39.53
1690 16.7901 1616.43 1542.18 40.20
1691 16.7985 1672.97 1589.66 40.90
1692 16.8069 1737.89 1638.17 41.69
1693 16.8153 1804.06 1684.64 42.47
1694 16.8237 1863.96 1725.02 43.17
1695 16.8321 1899.57 1754.75 43.58
1696 16.8405 1920.70 1769.75 43.83
1697 16.8489 1906.76 1767.68 43.67
1698 16.8573 1871.71 1748.84 43.26
1699 16.8657 1824.03 1716.02 42.71
1700 16.8741 1757.13 1673.48 41.92
1701 16.8825 1692.71 1625.72 41.14
1702 16.8909 1622.98 1576.59 40.29
1703 16.8993 1571.13 1528.90 39.64
1704 16.9077 1516.65 1484.49 38.94
1705 16.9161 1470.96 1444.42 38.35
1706 16.9245 1436.92 1409.22 37.91
1707 16.9329 1402.68 1379.03 37.45
1708 16.9413 1376.02 1353.76 37.09
1709 16.9497 1358.18 1330.02 36.85
1710 16.9581 1339.62 1313.89 36.60
1711 16.9665 1331.84 1301.82 36.49
1712 16.9749 1322.37 1293.48 36.36
1713 16.9833 1314.28 1285.49 36.25
1714 16.9917 1321.13 1286.99 36.35
1715 17.0001 1321.80 1288.54 36.36
1716 17.0085 1330.35 1293.19 36.47
1717 17.0169 1338.48 1301.03 36.59
1718 17.0253 1351.81 1312.31 36.77
1719 17.0337 1368.97 1328.00 37.00
1720 17.0421 1385.27 1347.47 37.22
1721 17.0505 1409.95 1371.99 37.55
1722 17.0589 1437.46 1402.39 37.91
1723 17.0673 1470.50 1439.64 38.35
1724 17.0757 1511.57 1484.78 38.88
1725 17.0841 1556.11 1538.94 39.45
1726 17.0925 1609.20 1603.21 40.11
1727 17.1009 1668.19 1678.56 40.84
1728 17.1093 1732.21 1765.77 41.62
1729 17.1177 1808.76 1865.21 42.53
1730 17.1261 1887.65 1976.63 43.45
1731 17.1345 1978.26 2098.71 44.48
1732 17.1429 2080.83 2228.69 45.62
1733 17.1513 2175.96 2361.69 46.65
1734 17.1597 2279.46 2490.12 47.74
1735 17.1681 2375.22 2603.81 48.74
1736 17.1765 2437.53 2690.98 49.37
1737 17.1849 2482.68 2740.57 49.83
1738 17.1933 2499.31 2745.59 49.99
1739 17.2017 2465.21 2705.42 49.65
1740 17.2101 2422.36 2626.06 49.22
1741 17.2185 2349.88 2517.98 48.48
1742 17.2269 2264.33 2392.98 47.58
1743 17.2353 2174.39 2261.67 46.63
1744 17.2437 2071.19 2132.11 45.51
1745 17.2521 1991.75 2009.69 44.63
1746 17.2605 1904.82 1897.66 43.64
1747 17.2689 1833.50 1797.60 42.82
1748 17.2773 1765.13 1710.03 42.01
1749 17.2857 1707.75 1630.63 41.32
1750 17.2941 1653.53 1567.26 40.66
1751 17.3025 1609.27 1514.82 40.12
1752 17.3109 1569.57 1472.37 39.62
1753 17.3193 1537.61 1437.74 39.21
1754 17.3277 1507.59 1412.59 38.83
1755 17.3361 1486.59 1395.02 38.56
1756 17.3445 1473.61 1384.38 38.39
1757 17.3529 1458.65 1380.24 38.19
1758 17.3613 1452.43 1382.32 38.11
1759 17.3697 1452.63 1390.45 38.11
1760 17.3781 1456.77 1404.57 38.17
1761 17.3865 1474.96 1424.61 38.41
1762 17.3949 1497.20 1450.50 38.69
1763 17.4033 1533.33 1482.00 39.16
1764 17.4117 1580.12 1518.63 39.75
1765 17.4201 1638.08 1559.40 40.47
1766 17.4285 1713.24 1602.69 41.39
1767 17.4369 1784.02 1646.05 42.24
1768 17.4453 1864.00 1686.12 43.17
1769 17.4537 1919.90 1719.06 43.82
1770 17.4621 1960.70 1741.16 44.28
1771 17.4705 1967.85 1749.77 44.36
1772 17.4789 1944.63 1743.93 44.10
1773 17.4873 1908.10 1724.41 43.68
1774 17.4957 1834.28 1693.31 42.83
1775 17.5041 1775.38 1653.57 42.14
1776 17.5125 1702.95 1608.45 41.27
1777 17.5209 1639.13 1561.06 40.49
1778 17.5293 1583.23 1514.15 39.79
1779 17.5377 1525.04 1469.60 39.05
1780 17.5461 1481.01 1428.77 38.48
1781 17.5545 1439.80 1392.42 37.94
1782 17.5629 1403.87 1360.83 37.47
1783 17.5713 1383.56 1334.03 37.20
1784 17.5797 1354.11 1311.86 36.80
1785 17.5881 1338.11 1294.06 36.58
1786 17.5965 1323.67 1280.34 36.38
1787 17.6049 1311.16 1270.42 36.21
1788 17.6133 1311.56 1264.06 36.22
1789 17.6217 1308.28 1261.09 36.17
1790 17.6301 1312.40 1261.44 36.23
1791 17.6385 1307.39 1262.90 36.16
1792 17.6469 1313.09 1270.09 36.24
1793 17.6553 1328.84 1281.01 36.45
1794 17.6637 1338.13 1296.02 36.58
1795 17.6721 1356.56 1315.58 36.83
1796 17.6805 1378.67 1340.27 37.13
1797 17.6889 1399.94 1370.68 37.42
1798 17.6973 1436.26 1407.47 37.90
1799 17.7057 1467.55 1451.26 38.31
1800 17.7141 1506.84 1502.55 38.82
1801 17.7225 1558.67 1561.66 39.48
1802 17.7309 1611.56 1628.59 40.14
1803 17.7393 1676.78 1702.73 40.95
1804 17.7477 1732.41 1782.63 41.62
1805 17.7561 1803.59 1865.57 42.47
1806 17.7645 1867.04 1947.10 43.21
1807 17.7729 1942.20 2021.00 44.07
1808 17.7813 1998.25 2079.71 44.70
1809 17.7897 2030.88 2115.80 45.07
1810 17.7981 2056.34 2124.11 45.35
1811 17.8065 2048.16 2103.62 45.26
1812 17.8149 2030.16 2057.88 45.06
1813 17.8233 1984.68 1996.11 44.55
1814 17.8317 1931.69 1921.19 43.95
1815 17.8401 1882.24 1842.52 43.38
1816 17.8485 1817.19 1765.41 42.63
1817 17.8569 1777.29 1693.39 42.16
1818 17.8653 1706.06 1628.52 41.30
1819 17.8737 1655.31 1571.88 40.69
1820 17.8821 1618.84 1523.87 40.23
1821 17.8905 1571.09 1485.61 39.64
1822 17.8989 1547.81 1454.68 39.34
1823 17.9073 1521.16 1431.92 39.00
1824 17.9157 1502.26 1417.04 38.76
1825 17.9241 1485.47 1409.84 38.54
1826 17.9325 1479.04 1408.38 38.46
1827 17.9409 1477.19 1416.40 38.43
1828 17.9493 1479.10 1432.19 38.46
1829 17.9577 1497.18 1456.04 38.69
1830 17.9661 1512.79 1488.35 38.89
1831 17.9745 1531.75 1529.54 39.14
1832 17.9829 1575.56 1580.01 39.69
1833 17.9913 1623.78 1640.04 40.30
1834 17.9997 1682.46 1709.57 41.02
1835 18.0081 1748.89 1788.00 41.82
1836 18.0165 1836.90 1873.82 42.86
1837 18.0249 1925.17 1964.22 43.88
1838 18.0333 2023.23 2054.53 44.98
1839 18.0417 2118.26 2138.22 46.02
1840 18.0501 2192.67 2207.35 46.83
1841 18.0585 2246.05 2253.99 47.39
1842 18.0669 2285.79 2272.50 47.81
1843 18.0753 2264.06 2261.20 47.58
1844 18.0837 2230.93 2222.69 47.23
1845 18.0921 2170.34 2162.51 46.59
1846 18.1005 2095.51 2087.24 45.78
1847 18.1089 2024.00 2003.22 44.99
1848 18.1173 1937.94 1915.79 44.02
1849 18.1257 1865.27 1829.32 43.19
1850 18.1341 1790.53 1747.13 42.31
1851 18.1425 1723.97 1671.50 41.52
1852 18.1509 1667.31 1612.37 40.83
1853 18.1593 1621.92 1553.37 40.27
1854 18.1677 1574.67 1503.04 39.68
1855 18.1761 1533.58 1461.12 39.16
1856 18.1845 1501.02 1427.18 38.74
1857 18.1929 1479.50 1400.73 38.46
1858 18.2013 1456.04 1381.30 38.16
1859 18.2097 1436.43 1368.52 37.90
1860 18.2181 1428.57 1362.10 37.80
1861 18.2265 1421.99 1361.92 37.71
1862 18.2349 1417.86 1367.98 37.65
1863 18.2433 1427.31 1380.43 37.78
1864 18.2517 1442.36 1399.51 37.98
1865 18.2601 1459.90 1425.56 38.21
1866 18.2685 1483.63 1455.32 38.52
1867 18.2769 1514.27 1496.33 38.91
1868 18.2853 1554.41 1543.66 39.43
1869 18.2937 1596.76 1600.03 39.96
1870 18.3021 1642.81 1663.28 40.53
1871 18.3105 1703.61 1731.86 41.27
1872 18.3189 1764.13 1802.89 42.00
1873 18.3273 1826.38 1871.89 42.74
1874 18.3357 1871.10 1932.70 43.26
1875 18.3441 1915.42 1978.08 43.77
1876 18.3525 1941.43 2001.32 44.06
1877 18.3609 1947.79 1998.33 44.13
1878 18.3693 1925.05 1969.14 43.88
1879 18.3777 1887.59 1917.92 43.45
1880 18.3861 1833.62 1854.38 42.82
1881 18.3945 1781.97 1779.64 42.21
1882 18.4029 1717.66 1702.76 41.44
1883 18.4113 1662.22 1628.10 40.77
1884 18.4197 1606.40 1558.37 40.08
1885 18.4281 1550.30 1496.53 39.37
1886 18.4365 1503.89 1440.19 38.78
1887 18.4449 1456.44 1390.83 38.16
1888 18.4533 1423.39 1348.15 37.73
1889 18.4617 1385.17 1312.29 37.22
1890 18.4701 1356.82 1281.42 36.84
1891 18.4785 1326.11 1255.38 36.42
1892 18.4869 1294.74 1233.63 35.98
1893 18.4953 1276.43 1215.57 35.73
1894 18.5037 1257.72 1200.68 35.46
1895 18.5121 1233.52 1188.46 35.12
1896 18.5205 1221.49 1178.52 34.95
1897 18.5289 1211.73 1170.50 34.81
1898 18.5373 1202.29 1164.12 34.67
1899 18.5457 1189.14 1157.77 34.48
1900 18.5541 1181.44 1153.97 34.37
1901 18.5625 1177.77 1151.12 34.32
1902 18.5709 1172.70 1149.02 34.24
1903 18.5793 1167.31 1146.84 34.17
1904 18.5877 1167.14 1145.59 34.16
1905 18.5961 1162.11 1144.47 34.09
1906 18.6045 1154.14 1143.38 33.97
1907 18.6129 1144.82 1142.34 33.84
1908 18.6213 1138.61 1141.41 33.74
1909 18.6297 1133.38 1140.76 33.67
1910 18.6381 1131.26 1140.52 33.63
1911 18.6465 1129.83 1140.84 33.61
1912 18.6549 1127.25 1141.82 33.57
1913 18.6633 1121.76 1146.52 33.49
1914 18.6717 1119.58 1149.10 33.46
1915 18.6801 1123.15 1152.58 33.51
1916 18.6885 1124.56 1157.04 33.53
1917 18.6969 1124.43 1162.57 33.53
1918 18.7053 1127.90 1174.81 33.58
1919 18.7137 1127.26 1183.01 33.57
1920 18.7221 1138.40 1192.78 33.74
1921 18.7305 1138.04 1204.38 33.73
1922 18.7389 1147.00 1218.34 33.87
1923 18.7473 1161.62 1236.13 34.08
1924 18.7557 1164.29 1255.41 34.12
1925 18.7641 1183.87 1278.18 34.41
1926 18.7725 1192.59 1304.99 34.53
1927 18.7809 1215.70 1336.45 34.87
1928 18.7893 1238.83 1373.23 35.20
1929 18.7977 1269.94 1415.91 35.64
1930 18.8061 1312.78 1465.08 36.23
1931 18.8145 1371.12 1521.13 37.03
1932 18.8229 1442.74 1584.15 37.98
1933 18.8313 1547.44 1653.71 39.34
1934 18.8397 1649.12 1728.53 40.61
1935 18.8481 1784.75 1806.09 42.25
1936 18.8565 1916.32 1882.40 43.78
1937 18.8649 2055.06 1952.03 45.33
1938 18.8733 2138.32 2008.98 46.24
1939 18.8817 2180.05 2045.01 46.69
1940 18.8901 2156.98 2064.26 46.44
1941 18.8985 2081.38 2064.80 45.62
1942 18.9069 1999.08 2050.93 44.71
1943 18.9153 1905.70 2028.04 43.65
1944 18.9237 1819.11 2000.70 42.65
1945 18.9321 1747.68 1971.55 41.81
1946 18.9405 1690.51 1941.07 41.12
1947 18.9489 1645.74 1908.29 40.57
1948 18.9573 1608.50 1871.99 40.11
1949 18.9657 1581.95 1831.74 39.77
1950 18.9741 1551.89 1788.54 39.39
1951 18.9825 1525.78 1744.53 39.06
1952 18.9909 1512.00 1702.26 38.88
1953 18.9993 1494.47 1664.04 38.66
1954 19.0077 1487.79 1635.33 38.57
1955 19.0161 1478.89 1609.76 38.46
1956 19.0245 1485.23 1591.63 38.54
1957 19.0329 1489.80 1581.28 38.60
1958 19.0413 1508.27 1578.98 38.84
1959 19.0497 1521.50 1585.00 39.01
1960 19.0581 1546.33 1599.77 39.32
1961 19.0665 1577.94 1623.88 39.72
1962 19.0749 1618.74 1658.14 40.23
1963 19.0833 1671.51 1703.61 40.88
1964 19.0917 1729.49 1761.55 41.59
1965 19.1001 1797.01 1833.46 42.39
1966 19.1085 1897.20 1921.00 43.56
1967 19.1169 1994.24 2025.85 44.66
1968 19.1253 2104.55 2149.68 45.88
1969 19.1337 2245.37 2293.86 47.39
1970 19.1421 2399.19 2455.81 48.98
1971 19.1505 2573.37 2641.65 50.73
1972 19.1589 2770.71 2845.63 52.64
1973 19.1673 2981.83 3061.81 54.61
1974 19.1757 3192.81 3279.93 56.51
1975 19.1841 3390.00 3483.68 58.22
1976 19.1925 3569.47 3653.74 59.74
1977 19.2009 3669.48 3767.76 60.58
1978 19.2093 3735.59 3808.73 61.12
1979 19.2177 3703.99 3770.51 60.86
1980 19.2261 3624.45 3660.42 60.20
1981 19.2345 3498.88 3496.20 59.15
1982 19.2429 3324.93 3299.78 57.66
1983 19.2513 3154.92 3091.49 56.17
1984 19.2597 2968.50 2893.00 54.48
1985 19.2681 2798.27 2701.90 52.90
1986 19.2765 2647.25 2530.12 51.45
1987 19.2849 2488.61 2380.21 49.89
1988 19.2933 2369.98 2253.76 48.68
1989 19.3017 2255.98 2148.54 47.50
1990 19.3101 2167.28 2064.47 46.55
1991 19.3185 2085.65 2000.38 45.67
1992 19.3269 2015.87 1955.13 44.90
1993 19.3353 1975.84 1927.65 44.45
1994 19.3437 1936.06 1917.10 44.00
1995 19.3521 1923.70 1922.82 43.86
1996 19.3605 1923.31 1944.35 43.86
1997 19.3689 1950.21 1981.32 44.16
1998 19.3773 2000.24 2033.29 44.72
1999 19.3857 2084.67 2099.48 45.66
2000 19.3941 2199.25 2178.42 46.90
2001 19.4025 2347.13 2267.38 48.45
2002 19.4109 2523.63 2361.86 50.24
2003 19.4193 2695.84 2455.43 51.92
2004 19.4277 2841.40 2540.23 53.30
2005 19.4361 2940.60 2605.43 54.23
2006 19.4445 2966.54 2651.39 54.47
2007 19.4529 2956.85 2673.10 54.38
2008 19.4613 2888.91 2672.00 53.75
2009 19.4697 2813.00 2651.26 53.04
2010 19.4781 2720.61 2616.19 52.16
2011 19.4865 2610.97 2564.72 51.10
2012 19.4949 2511.40 2501.03 50.11
2013 19.5033 2396.06 2427.46 48.95
2014 19.5117 2289.49 2347.11 47.85
2015 19.5201 2189.84 2263.58 46.80
2016 19.5285 2080.61 2183.65 45.61
2017 19.5369 1997.58 2105.18 44.69
2018 19.5453 1925.79 2034.17 43.88
2019 19.5537 1861.69 1974.43 43.15
2020 19.5621 1814.74 1924.48 42.60
2021 19.5705 1773.34 1886.66 42.11
2022 19.5789 1746.94 1861.38 41.80
2023 19.5873 1732.15 1848.88 41.62
2024 19.5957 1729.45 1849.37 41.59
2025 19.6041 1742.28 1863.20 41.74
2026 19.6125 1762.87 1890.90 41.99
2027 19.6209 1797.41 1933.19 42.40
2028 19.6293 1858.53 1991.04 43.11
2029 19.6377 1935.89 2065.56 44.00
2030 19.6461 2042.05 2157.85 45.19
2031 19.6545 2191.21 2268.90 46.81
2032 19.6629 2374.85 2399.18 48.73
2033 19.6713 2603.47 2548.03 51.02
2034 19.6797 2862.27 2713.44 53.50
2035 19.6881 3156.03 2891.05 56.18
2036 19.6965 3411.21 3074.17 58.41
2037 19.7049 3648.29 3254.48 60.40
2038 19.7133 3829.92 3423.40 61.89
2039 19.7217 3950.31 3573.20 62.85
2040 19.7301 4013.97 3697.38 63.36
2041 19.7385 4037.60 3789.37 63.54
2042 19.7469 4012.89 3841.59 63.35
2043 19.7553 3958.13 3846.83 62.91
2044 19.7637 3843.16 3801.10 61.99
2045 19.7721 3688.58 3706.19 60.73
2046 19.7805 3509.78 3569.61 59.24
2047 19.7889 3309.14 3406.04 57.53
2048 19.7973 3109.27 3219.40 55.76
2049 19.8057 2912.12 3024.52 53.96
2050 19.8141 2718.35 2831.54 52.14
2051 19.8225 2549.24 2646.68 50.49
2052 19.8309 2394.17 2476.02 48.93
2053 19.8393 2269.69 2322.65 47.64
2054 19.8477 2147.12 2187.75 46.34
2055 19.8561 2055.65 2071.26 45.34
2056 19.8645 1969.17 1972.18 44.38
2057 19.8729 1894.95 1889.13 43.53
2058 19.8813 1836.90 1820.65 42.86
2059 19.8897 1790.68 1765.24 42.32
2060 19.8981 1753.98 1721.62 41.88
2061 19.9065 1718.87 1688.69 41.46
2062 19.9149 1702.41 1665.63 41.26
2063 19.9233 1686.39 1651.86 41.07
2064 19.9317 1676.52 1647.03 40.95
2065 19.9401 1676.81 1651.09 40.95
2066 19.9485 1682.99 1664.14 41.02
2067 19.9569 1702.54 1683.94 41.26
2068 19.9653 1719.83 1716.10 41.47
2069 19.9737 1744.16 1758.48 41.76
2070 19.9821 1771.35 1811.49 42.09
2071 19.9905 1807.23 1875.21 42.51
2072 19.9989 1849.51 1949.10 43.01
2073 20.0073 1896.84 2031.48 43.55
2074 20.0157 1948.40 2120.91 44.14
2075 20.0241 1992.27 2206.47 44.63
2076 20.0325 2041.32 2284.26 45.18
2077 20.0409 2076.74 2343.13 45.57
2078 20.0493 2091.57 2374.00 45.73
2079 20.0577 2110.52 2371.65 45.94
2080 20.0661 2105.14 2336.87 45.88
2081 20.0745 2083.06 2276.14 45.64
2082 20.0829 2053.01 2199.08 45.31
2083 20.0913 2022.47 2115.49 44.97
2084 20.0997 1989.10 2033.21 44.60
2085 20.1081 1958.88 1957.58 44.26
2086 20.1165 1934.24 1891.74 43.98
2087 20.1249 1904.29 1837.27 43.64
2088 20.1333 1897.33 1794.80 43.56
2089 20.1417 1888.28 1764.45 43.45
2090 20.1501 1890.04 1746.21 43.47
2091 20.1585 1893.81 1740.05 43.52
2092 20.1669 1909.17 1746.09 43.69
2093 20.1753 1934.82 1764.62 43.99
2094 20.1837 1969.07 1796.17 44.37
2095 20.1921 2009.31 1841.53 44.83
2096 20.2005 2054.51 1901.64 45.33
2097 20.2089 2119.22 1977.59 46.03
2098 20.2173 2188.62 2070.49 46.78
2099 20.2257 2264.04 2181.11 47.58
2100 20.2341 2351.06 2309.56 48.49
2101 20.2425 2440.67 2454.57 49.40
2102 20.2509 2536.85 2612.40 50.37
2103 20.2593 2629.53 2775.86 51.28
2104 20.2677 2713.39 2933.35 52.09
2105 20.2761 2789.50 3060.38 52.82
2106 20.2845 2832.10 3158.02 53.22
2107 20.2929 2848.29 3203.62 53.37
2108 20.3013 2835.10 3191.58 53.25
2109 20.3097 2791.41 3126.09 52.83
2110 20.3181 2731.97 3018.75 52.27
2111 20.3265 2661.38 2884.12 51.59
2112 20.3349 2576.45 2736.16 50.76
2113 20.3433 2498.70 2586.28 49.99
2114 20.3517 2402.84 2443.47 49.02
2115 20.3601 2331.17 2312.57 48.28
2116 20.3685 2259.90 2197.50 47.54
2117 20.3769 2197.38 2099.86 46.88
2118 20.3853 2143.45 2020.13 46.30
2119 20.3937 2100.15 1958.02 45.83
2120 20.4021 2066.99 1912.92 45.46
2121 20.4105 2047.06 1884.23 45.24
2122 20.4189 2033.90 1871.40 45.10
2123 20.4273 2040.38 1874.12 45.17
2124 20.4357 2062.23 1892.24 45.41
2125 20.4441 2095.94 1925.78 45.78
2126 20.4525 2168.60 1974.77 46.57
2127 20.4609 2252.12 2038.98 47.46
2128 20.4693 2365.99 2117.60 48.64
2129 20.4777 2504.53 2208.66 50.05
2130 20.4861 2642.56 2308.75 51.41
2131 20.4945 2785.85 2412.66 52.78
2132 20.5029 2895.88 2510.96 53.81
2133 20.5113 2975.99 2603.83 54.55
2134 20.5197 3004.41 2683.03 54.81
2135 20.5281 2999.18 2745.16 54.76
2136 20.5365 2972.49 2787.34 54.52
2137 20.5449 2908.83 2804.55 53.93
2138 20.5533 2841.49 2796.26 53.31
2139 20.5617 2752.85 2758.39 52.47
2140 20.5701 2662.47 2690.78 51.60
2141 20.5785 2552.90 2598.61 50.53
2142 20.5869 2447.78 2487.98 49.47
2143 20.5953 2329.10 2366.88 48.26
2144 20.6037 2227.89 2244.24 47.20
2145 20.6121 2132.69 2124.93 46.18
2146 20.6205 2046.62 2014.76 45.24
2147 20.6289 1963.88 1916.53 44.32
2148 20.6373 1899.89 1831.42 43.59
2149 20.6457 1842.13 1759.55 42.92
2150 20.6541 1792.59 1700.43 42.34
2151 20.6625 1755.47 1653.29 41.90
2152 20.6709 1724.79 1617.32 41.53
2153 20.6793 1697.59 1591.84 41.20
2154 20.6877 1688.15 1576.33 41.09
2155 20.6961 1683.44 1570.49 41.03
2156 20.7045 1682.06 1574.26 41.01
2157 20.7129 1689.85 1587.81 41.11
2158 20.7213 1707.11 1611.51 41.32
2159 20.7297 1730.50 1645.91 41.60
2160 20.7381 1755.84 1691.63 41.90
2161 20.7465 1789.38 1749.23 42.30
2162 20.7549 1835.29 1818.91 42.84
2163 20.7633 1878.49 1900.27 43.34
2164 20.7717 1929.53 1987.79 43.93
2165 20.7801 1974.17 2083.62 44.43
2166 20.7885 2018.61 2177.43 44.93
2167 20.7969 2046.25 2260.55 45.24
2168 20.8053 2074.52 2318.98 45.55
2169 20.8137 2073.61 2338.65 45.54
2170 20.8221 2060.95 2327.53 45.40
2171 20.8305 2025.66 2280.15 45.01
2172 20.8389 1980.23 2204.55 44.50
2173 20.8473 1922.91 2109.64 43.85
2174 20.8557 1861.78 2008.29 43.15
2175 20.8641 1800.12 1907.11 42.43
2176 20.8725 1746.31 1811.79 41.79
2177 20.8809 1690.89 1725.77 41.12
2178 20.8893 1628.34 1650.75 40.35
2179 20.8977 1586.76 1587.16 39.83
2180 20.9061 1550.14 1534.75 39.37
2181 20.9145 1514.44 1493.02 38.92
2182 20.9229 1483.71 1461.31 38.52
2183 20.9313 1466.31 1439.02 38.29
2184 20.9397 1458.36 1425.66 38.19
2185 20.9481 1451.88 1420.86 38.10
2186 20.9565 1468.81 1424.33 38.33
2187 20.9649 1484.71 1435.75 38.53
2188 20.9733 1521.75 1454.62 39.01
2189 20.9817 1567.27 1481.82 39.59
2190 20.9901 1624.38 1511.87 40.30
2191 20.9985 1687.71 1543.52 41.08
2192 21.0069 1733.97 1572.30 41.64
2193 21.0153 1771.59 1592.71 42.09
2194 21.0237 1773.46 1599.45 42.11
2195 21.0321 1753.00 1589.26 41.87
2196 21.0405 1703.86 1563.48 41.28
2197 21.0489 1639.30 1522.95 40.49
2198 21.0573 1567.15 1474.03 39.59
2199 21.0657 1495.77 1421.87 38.68
2200 21.0741 1420.51 1370.47 37.69
2201 21.0825 1364.09 1322.35 36.93
2202 21.0909 1305.99 1278.78 36.14
2203 21.0993 1257.60 1236.20 35.46
2204 21.1077 1217.85 1202.50 34.90
2205 21.1161 1182.50 1173.26 34.39
2206 21.1245 1153.29 1148.01 33.96
2207 21.1329 1127.45 1126.26 33.58
2208 21.1413 1099.11 1107.53 33.15
2209 21.1497 1086.56 1091.41 32.96
2210 21.1581 1067.75 1077.52 32.68
2211 21.1665 1048.44 1065.55 32.38
2212 21.1749 1043.17 1055.25 32.30
2213 21.1833 1034.04 1046.40 32.16
2214 21.1917 1021.62 1038.83 31.96
2215 21.2001 1014.85 1032.42 31.86
2216 21.2085 1012.49 1027.06 31.82
2217 21.2169 1005.66 1022.70 31.71
2218 21.2253 1003.79 1019.30 31.68
2219 21.2337 1001.23 1018.27 31.64
2220 21.2421 998.37 1016.81 31.60
2221 21.2505 1002.22 1016.35 31.66
2222 21.2589 996.27 1016.97 31.56
2223 21.2673 997.89 1018.74 31.59
2224 21.2757 996.96 1021.77 31.57
2225 21.2841 1002.13 1026.16 31.66
2226 21.2925 1001.69 1031.99 31.65
2227 21.3009 1001.89 1039.27 31.65
2228 21.3093 1011.80 1047.87 31.81
2229 21.3177 1011.50 1057.42 31.80
2230 21.3261 1016.78 1067.22 31.89
2231 21.3345 1011.64 1069.61 31.81
2232 21.3429 1018.64 1076.35 31.92
2233 21.3513 1017.83 1079.45 31.90
2234 21.3597 1022.46 1078.09 31.98
2235 21.3681 1021.62 1071.36 31.96
2236 21.3765 1021.30 1062.22 31.96
2237 21.3849 1018.85 1051.06 31.92
2238 21.3933 1022.31 1039.27 31.97
2239 21.4017 1014.52 1027.91 31.85
2240 21.4101 1017.17 1017.65 31.89
2241 21.4185 1009.33 1008.84 31.77
2242 21.4269 1013.38 1001.58 31.83
2243 21.4353 1009.35 995.89 31.77
2244 21.4437 1003.58 993.24 31.68
2245 21.4521 1008.59 990.54 31.76
2246 21.4605 1005.55 989.26 31.71
2247 21.4689 1002.12 991.18 31.66
2248 21.4773 1005.80 992.72 31.71
2249 21.4857 1011.98 995.73 31.81
2250 21.4941 1004.55 1000.30 31.69
2251 21.5025 1015.02 1006.57 31.86
2252 21.5109 1017.81 1014.73 31.90
2253 21.5193 1024.55 1024.98 32.01
2254 21.5277 1025.01 1037.54 32.02
2255 21.5361 1036.00 1052.56 32.19
2256 21.5445 1041.71 1070.08 32.28
2257 21.5529 1046.30 1087.51 32.35
2258 21.5613 1051.50 1108.81 32.43
2259 21.5697 1057.42 1130.18 32.52
2260 21.5781 1064.67 1149.48 32.63
2261 21.5865 1066.43 1164.08 32.66
2262 21.5949 1070.35 1168.61 32.72
2263 21.6033 1069.85 1168.03 32.71
2264 21.6117 1072.71 1159.83 32.75
2265 21.6201 1073.24 1144.58 32.76
2266 21.6285 1084.04 1128.01 32.92
2267 21.6369 1072.54 1111.08 32.75
2268 21.6453 1075.29 1095.59 32.79
2269 21.6537 1073.36 1083.14 32.76
2270 21.6621 1072.82 1073.30 32.75
2271 21.6705 1073.25 1066.77 32.76
2272 21.6789 1082.61 1063.62 32.90
2273 21.6873 1085.09 1066.02 32.94
2274 21.6957 1096.43 1069.69 33.11
2275 21.7041 1109.77 1076.85 33.31
2276 21.7125 1123.10 1087.66 33.51
2277 21.7209 1147.62 1102.34 33.88
2278 21.7293 1172.43 1121.16 34.24
2279 21.7377 1203.97 1144.39 34.70
2280 21.7461 1232.18 1172.24 35.10
2281 21.7545 1271.88 1204.76 35.66
2282 21.7629 1313.49 1241.74 36.24
2283 21.7713 1355.39 1282.63 36.82
2284 21.7797 1394.13 1326.41 37.34
2285 21.7881 1423.78 1371.36 37.73
2286 21.7965 1449.43 1414.99 38.07
2287 21.8049 1471.69 1453.85 38.36
2288 21.8133 1480.33 1483.87 38.48
2289 21.8217 1478.37 1501.32 38.45
2290 21.8301 1470.21 1503.93 38.34
2291 21.8385 1454.08 1491.58 38.13
2292 21.8469 1425.88 1462.25 37.76
2293 21.8553 1398.53 1427.61 37.40
2294 21.8637 1369.20 1387.14 37.00
2295 21.8721 1340.33 1346.39 36.61
2296 21.8805 1313.28 1307.96 36.24
2297 21.8889 1289.63 1274.91 35.91
2298 21.8973 1270.83 1247.08 35.65
2299 21.9057 1259.52 1225.87 35.49
2300 21.9141 1248.62 1211.50 35.34
2301 21.9225 1247.58 1204.01 35.32
2302 21.9309 1251.61 1203.39 35.38
loop_
_pd_proc_info_excluded_regions
'from 0.999 to 2.600'
'from 21.94 to 22.014'
loop_
_cod_changelog_entry_id
_cod_changelog_entry_author
_cod_changelog_entry_date
_cod_changelog_entry_text
1 'Vaitkus, Antanas' 2022-05-09T03:40:00+03:00
'Updated bibliographic information.'
