#------------------------------------------------------------------------------
#$Date: 2017-05-25 03:54:54 +0300 (Thu, 25 May 2017) $
#$Revision: 196951 $
#$URL: file:///home/coder/svn-repositories/cod/cif/7/12/01/7120186.cif $
#------------------------------------------------------------------------------
#
# This file is available in the Crystallography Open Database (COD),
# http://www.crystallography.net/
#
# All data on this site have been placed in the public domain by the
# contributors.
#
data_7120186
loop_
_publ_author_name
'Dolgopolova, Ekaterina A.'
'Moore, Thomas'
'Ejegbavwo, Otega'
'Pellechia, Perry J.'
'Smith, Mark D.'
'Shustova, Natalia'
_publ_section_title
;
 A Metal-Organic Framework as a Flask: Photophysics of Confined
 Chromophores with a Benzylidene Imidazolinone Core
;
_journal_name_full               'Chem. Commun.'
_journal_paper_doi               10.1039/C7CC02253K
_journal_year                    2017
_chemical_formula_moiety
'2(C13 H11.5 N2 O3), 0.83(C H4 O), 0.83(H2 O), 0.29(O)'
_chemical_formula_sum            'C26.82 H28.56 N4 O7.95'
_chemical_formula_weight         534.12
_chemical_name_systematic        pCOOH-BI
_space_group_crystal_system      triclinic
_space_group_IT_number           2
_space_group_name_Hall           '-P 1'
_space_group_name_H-M_alt        'P -1'
_symmetry_space_group_name_Hall  '-P 1'
_symmetry_space_group_name_H-M   'P -1'
_atom_sites_solution_hydrogens   mixed
_atom_sites_solution_primary     dual
_audit_creation_date             2017-03-16
_audit_creation_method
;
Olex2 1.2
(compiled 2017.03.02 svn.r3394 for OlexSys, GUI svn.r5324)
;
_audit_update_record
;
2017-03-23 deposited with the CCDC.
2017-05-24 downloaded from the CCDC.
;
_cell_angle_alpha                106.072(2)
_cell_angle_beta                 97.728(2)
_cell_angle_gamma                95.999(2)
_cell_formula_units_Z            2
_cell_length_a                   7.2557(4)
_cell_length_b                   12.9984(6)
_cell_length_c                   14.6568(8)
_cell_measurement_reflns_used    9725
_cell_measurement_temperature    100(2)
_cell_measurement_theta_max      27.64
_cell_measurement_theta_min      2.51
_cell_volume                     1301.56(12)
_computing_cell_refinement       'SAINT v8.37A (Bruker, 2015)'
_computing_data_collection       'Bruker APEX3 v2016.5-0 (Bruker, 2016)'
_computing_data_reduction        'SAINT v8.37A (Bruker, 2015)'
_computing_molecular_graphics    'Olex2 (Dolomanov et al., 2009)'
_computing_publication_material  'Olex2 (Dolomanov et al., 2009)'
_computing_structure_refinement  'XL (Sheldrick, 2008)'
_computing_structure_solution    'XT (Sheldrick, 2015)'
_diffrn_ambient_temperature      100(2)
_diffrn_detector                 'Bruker PHOTON-100 area detector'
_diffrn_detector_area_resol_mean 10.4
_diffrn_detector_type            'CMOS area detector'
_diffrn_measured_fraction_theta_full 0.998
_diffrn_measured_fraction_theta_max 0.998
_diffrn_measurement_device       'three-circle diffractometer'
_diffrn_measurement_device_type  'Bruker D8 Quest'
_diffrn_measurement_method       '\w and \f scans'
_diffrn_radiation_monochromator  'mirror optics'
_diffrn_radiation_probe          x-ray
_diffrn_radiation_type           MoK\a
_diffrn_radiation_wavelength     0.71073
_diffrn_reflns_av_R_equivalents  0.0600
_diffrn_reflns_av_unetI/netI     0.0320
_diffrn_reflns_Laue_measured_fraction_full 0.998
_diffrn_reflns_Laue_measured_fraction_max 0.998
_diffrn_reflns_limit_h_max       9
_diffrn_reflns_limit_h_min       -9
_diffrn_reflns_limit_k_max       17
_diffrn_reflns_limit_k_min       -17
_diffrn_reflns_limit_l_max       19
_diffrn_reflns_limit_l_min       -19
_diffrn_reflns_number            54527
_diffrn_reflns_point_group_measured_fraction_full 0.998
_diffrn_reflns_point_group_measured_fraction_max 0.998
_diffrn_reflns_theta_full        27.755
_diffrn_reflns_theta_max         27.756
_diffrn_reflns_theta_min         2.510
_diffrn_source                   'microfocus sealed X-ray tube'
_diffrn_source_type              'Incoatec I\ms'
_diffrn_standards_number         0
_exptl_absorpt_coefficient_mu    0.102
_exptl_absorpt_correction_T_max  0.7456
_exptl_absorpt_correction_T_min  0.7265
_exptl_absorpt_correction_type   multi-scan
_exptl_absorpt_process_details
;
SADABS-2016/2 (Bruker,2016/2) was used for absorption correction.
wR2(int) was 0.1655 before and 0.0543 after correction.
The Ratio of minimum to maximum transmission is 0.9744.
The \l/2 correction factor is Not present.
;
_exptl_crystal_colour            yellow
_exptl_crystal_colour_primary    yellow
_exptl_crystal_density_diffrn    1.363
_exptl_crystal_description       'rect. Prism'
_exptl_crystal_F_000             562
_exptl_crystal_size_max          0.46
_exptl_crystal_size_mid          0.24
_exptl_crystal_size_min          0.14
_refine_diff_density_max         0.447
_refine_diff_density_min         -0.288
_refine_diff_density_rms         0.056
_refine_ls_extinction_method     none
_refine_ls_goodness_of_fit_ref   1.018
_refine_ls_hydrogen_treatment    mixed
_refine_ls_matrix_type           full
_refine_ls_number_parameters     388
_refine_ls_number_reflns         6129
_refine_ls_number_restraints     3
_refine_ls_restrained_S_all      1.018
_refine_ls_R_factor_all          0.0703
_refine_ls_R_factor_gt           0.0484
_refine_ls_shift/su_max          0.000
_refine_ls_shift/su_mean         0.000
_refine_ls_structure_factor_coef Fsqd
_refine_ls_weighting_details
'w=1/[\s^2^(Fo^2^)+(0.0603P)^2^+0.7690P] where P=(Fo^2^+2Fc^2^)/3'
_refine_ls_weighting_scheme      calc
_refine_ls_wR_factor_gt          0.1166
_refine_ls_wR_factor_ref         0.1280
_reflns_Friedel_coverage         0.000
_reflns_number_gt                4682
_reflns_number_total             6129
_reflns_threshold_expression     'I > 2\s(I)'
_cod_data_source_file            c7cc02253k2.cif
_cod_data_source_block           ead2cooh
_cod_database_code               7120186
_shelx_shelxl_version_number     2016/6
_shelx_space_group_comment
;
The symmetry employed for this shelxl refinement is uniquely defined
by the following loop, which should always be used as a source of
symmetry information in preference to the above space-group names.
They are only intended as comments.
;
_shelx_estimated_absorpt_t_max   0.986
_shelx_estimated_absorpt_t_min   0.955
_olex2_refinement_description
;
1. Fixed Uiso
 At 1.2 times of:
  All C(H) groups
 At 1.5 times of:
  All C(H,H,H) groups
2. Restrained distances
 O1S-H1S
 0.85 with sigma of 0.02
 O2S-H2SA = O2S-H2SB
 0.85 with sigma of 0.02
3. Uiso/Uaniso restraints and constraints
Uiso(O3S) = Uiso(O4S)
4. Others
 Sof(O1S)=Sof(H1S)=Sof(C1S)=Sof(H1SA)=Sof(H1SB)=Sof(H1SC)=FVAR(1)
 Sof(O2S)=Sof(H2SA)=Sof(H2SB)=FVAR(2)
 Fixed Sof: H3A(0.5) H2B(0.5)
5.a Aromatic/amide H refined with riding coordinates:
 C6A(H6A), C8A(H8A), C9A(H9A), C11A(H11A), C12A(H12A), C6B(H6B), C8B(H8B),
 C9B(H9B), C11B(H11B), C12B(H12B)
5.b Idealised Me refined as rotating group:
 C4A(H4AA,H4AB,H4AC), C5A(H5AA,H5AB,H5AC), C4B(H4BA,H4BB,H4BC), C5B(H5BA,H5BB,
 H5BC), C1S(H1SA,H1SB,H1SC)
;
_shelx_res_file
;
TITL ead2cooh_a.res in P-1
    ead2cooh.res
    created by SHELXL-2016/6 at 13:18:41 on 16-Mar-2017
REM Old TITL EAD2cooh in P-1
REM SHELXT solution in P-1
REM R1 0.137, Rweak 0.007, Alpha 0.035, Orientation as input
REM Formula found by SHELXT: C28 N5 O6
CELL 0.71073 7.2557 12.9984 14.6568 106.072 97.728 95.999
ZERR 2 0.0004 0.0006 0.0008 0.002 0.002 0.002
LATT 1
SFAC C H N O
UNIT 53.65 57.12 8 15.89
EQIV $1 2-X,-Y,1-Z
EQIV $2 -X,2-Y,-Z
EQIV $3 -1+X,1+Y,+Z
EQIV $4 1-X,2-Y,1-Z
DFIX 0.85 O1S H1S
DFIX 0.85 O2S H2Sa O2S H2Sb
EADP O3S O4S

L.S. 7
PLAN  9
SIZE 0.14 0.24 0.46
TEMP -173(2)
HTAB O2B O2B_$1
HTAB O3A O3A_$2
HTAB O1S O3B_$3
HTAB O2S O2A_$4
HTAB O2S O1B
BOND $H
list 4
fmap 2
ACTA 55.51
REM <olex2.extras>
REM <HklSrc "%.\\EAD2cooh.hkl">
REM </olex2.extras>

WGHT    0.060300    0.769000
FVAR       0.42509   0.82553   0.83407
O1A   4    0.277378    0.200190   -0.105290    11.00000    0.03012    0.01722 =
         0.03165    0.00096    0.00375    0.00376
O2A   4    0.168988    0.941772    0.130812    11.00000    0.04048    0.01632 =
         0.02679    0.00530   -0.00452    0.00705
O3A   4    0.027341    0.905426   -0.021633    11.00000    0.03637    0.01861 =
         0.02347    0.00955    0.00149    0.01379
H3A   2    0.003769    0.971093    0.003756    10.50000    0.04270
N1A   3    0.412495    0.236079    0.054904    11.00000    0.02191    0.01347 =
         0.03349    0.01060    0.00793    0.00549
N2A   3    0.392187    0.413463    0.113850    11.00000    0.01987    0.01772 =
         0.02203    0.00896    0.00590    0.00721
C1A   1    0.327960    0.261638   -0.024220    11.00000    0.01697    0.01380 =
         0.03059    0.00549    0.00795    0.00293
C2A   1    0.315377    0.378589    0.014971    11.00000    0.01597    0.01388 =
         0.02446    0.00559    0.00723    0.00268
C3A   1    0.447904    0.328767    0.133176    11.00000    0.01986    0.01848 =
         0.02664    0.01070    0.01016    0.00679
C4A   1    0.546700    0.327356    0.228186    11.00000    0.03152    0.02708 =
         0.02813    0.01565    0.01015    0.01316
AFIX 137
H4AA  2    0.670341    0.305152    0.221355    11.00000   -1.50000
H4AB  2    0.472318    0.276050    0.251900    11.00000   -1.50000
H4AC  2    0.562691    0.399936    0.274051    11.00000   -1.50000
AFIX   0
C5A   1    0.451930    0.128241    0.053664    11.00000    0.03165    0.01502 =
         0.04630    0.01289    0.00822    0.00892
AFIX 137
H5AA  2    0.419635    0.079790   -0.012435    11.00000   -1.50000
H5AB  2    0.376823    0.100637    0.094971    11.00000   -1.50000
H5AC  2    0.585885    0.131682    0.077622    11.00000   -1.50000
AFIX   0
C6A   1    0.239940    0.434966   -0.041257    11.00000    0.01548    0.01586 =
         0.01855    0.00379    0.00418    0.00148
AFIX  43
H6A   2    0.199227    0.395232   -0.107174    11.00000   -1.20000
AFIX   0
C7A   1    0.211688    0.548107   -0.015657    11.00000    0.01215    0.01363 =
         0.01916    0.00634    0.00378    0.00185
C8A   1    0.256597    0.617287    0.078722    11.00000    0.01914    0.01669 =
         0.01770    0.00814   -0.00003    0.00438
AFIX  43
H8A   2    0.308823    0.590906    0.129275    11.00000   -1.20000
AFIX   0
C9A   1    0.225480    0.723798    0.098919    11.00000    0.02032    0.01539 =
         0.01637    0.00418    0.00018    0.00337
AFIX  43
H9A   2    0.257555    0.770296    0.163156    11.00000   -1.20000
AFIX   0
C10A  1    0.147294    0.763429    0.025587    11.00000    0.01416    0.01396 =
         0.02067    0.00797    0.00391    0.00292
C11A  1    0.100101    0.694839   -0.068299    11.00000    0.01688    0.02053 =
         0.01763    0.01064    0.00195    0.00413
AFIX  43
H11A  2    0.045081    0.721020   -0.118407    11.00000   -1.20000
AFIX   0
C12A  1    0.133168    0.588490   -0.088845    11.00000    0.01710    0.01883 =
         0.01603    0.00465    0.00294    0.00113
AFIX  43
H12A  2    0.102254    0.542437   -0.153280    11.00000   -1.20000
AFIX   0
C13A  1    0.114218    0.879274    0.049256    11.00000    0.01959    0.01558 =
         0.02410    0.00965    0.00459    0.00424

O1B   4    0.651417    0.800656    0.626856    11.00000    0.03689    0.02416 =
         0.02333    0.00392    0.00602    0.00637
O2B   4    0.944173    0.085700    0.488848    11.00000    0.02572    0.02260 =
         0.02700    0.01025   -0.00117    0.00385
H2B   2    0.981154    0.028853    0.504579    10.50000    0.03425
O3B   4    0.966429    0.130677    0.648155    11.00000    0.06232    0.03419 =
         0.03033    0.01855    0.00426    0.01941
N1B   3    0.628128    0.760901    0.461446    11.00000    0.01962    0.01720 =
         0.02346    0.00802    0.00099    0.00209
N2B   3    0.687201    0.587810    0.420833    11.00000    0.01599    0.02237 =
         0.01711    0.00675    0.00032    0.00259
C1B   1    0.658015    0.738738    0.547882    11.00000    0.01648    0.01967 =
         0.02157    0.00544    0.00233    0.00156
C2B   1    0.698251    0.625529    0.521413    11.00000    0.01335    0.01953 =
         0.01949    0.00471    0.00169    0.00175
C3B   1    0.647873    0.668911    0.389359    11.00000    0.01288    0.02123 =
         0.02099    0.00591   -0.00029    0.00027
C4B   1    0.627269    0.668624    0.287486    11.00000    0.02788    0.02520 =
         0.02095    0.00877    0.00009    0.00219
AFIX 137
H4BA  2    0.512149    0.697367    0.270450    11.00000   -1.50000
H4BB  2    0.619926    0.594370    0.245934    11.00000   -1.50000
H4BC  2    0.736082    0.713947    0.278590    11.00000   -1.50000
AFIX   0
C5B   1    0.585071    0.863864    0.449890    11.00000    0.02747    0.01881 =
         0.03462    0.01136    0.00228    0.00441
AFIX 137
H5BA  2    0.683228    0.894904    0.421246    11.00000   -1.50000
H5BB  2    0.579678    0.913726    0.513004    11.00000   -1.50000
H5BC  2    0.463301    0.852327    0.407633    11.00000   -1.50000
AFIX   0
C6B   1    0.740330    0.574665    0.588372    11.00000    0.01483    0.02385 =
         0.01763    0.00517    0.00227    0.00206
AFIX  43
H6B   2    0.739850    0.616571    0.652696    11.00000   -1.20000
AFIX   0
C7B   1    0.786398    0.466273    0.578669    11.00000    0.01195    0.02301 =
         0.01953    0.00871    0.00118    0.00202
C8B   1    0.799057    0.392172    0.490407    11.00000    0.01903    0.02396 =
         0.01696    0.00871    0.00041    0.00353
AFIX  43
H8B   2    0.777125    0.411838    0.432531    11.00000   -1.20000
AFIX   0
C9B   1    0.843524    0.290346    0.487628    11.00000    0.01928    0.02247 =
         0.01834    0.00520   -0.00002    0.00283
AFIX  43
H9B   2    0.850019    0.240410    0.427429    11.00000   -1.20000
AFIX   0
C10B  1    0.878843    0.259937    0.571477    11.00000    0.01276    0.02310 =
         0.02574    0.01169    0.00045    0.00130
C11B  1    0.865670    0.333129    0.659241    11.00000    0.01877    0.03096 =
         0.02122    0.01476    0.00128    0.00403
AFIX  43
H11B  2    0.888951    0.313311    0.716984    11.00000   -1.20000
AFIX   0
C12B  1    0.818983    0.434242    0.662703    11.00000    0.01757    0.02874 =
         0.01764    0.00818    0.00209    0.00425
AFIX  43
H12B  2    0.808731    0.482935    0.722882    11.00000   -1.20000
AFIX   0
C13B  1    0.932511    0.151238    0.571085    11.00000    0.01841    0.02514 =
         0.02863    0.01403   -0.00193    0.00079

PART 1
O1S   4    0.147636    1.005391    0.743752    21.00000    0.05853    0.03136 =
         0.03179    0.01693    0.00675    0.02261
H1S   2    0.084603    1.025955    0.701769    21.00000    0.06625
C1S   1    0.072272    0.899735    0.755317    21.00000    0.04558    0.02513 =
         0.03042    0.00403    0.01636    0.00479
AFIX 137
H1SA  2    0.041250    0.845120    0.692054    21.00000   -1.50000
H1SB  2   -0.041289    0.907203    0.784540    21.00000   -1.50000
H1SC  2    0.167179    0.877243    0.796979    21.00000   -1.50000
AFIX   0
O2S   4    0.518460    0.993423    0.721720    31.00000    0.03308    0.03362 =
         0.03761    0.00107   -0.00580    0.01047
H2SA  2    0.546139    0.934228    0.691794    31.00000    0.05715
H2SB  2    0.603336    1.022810    0.767998    31.00000    0.07016

PART 0
PART 2
O3S   4   -0.015769    0.824844    0.765432     0.17169    0.05337

O4S   4    0.344900    0.994185    0.728921     0.11559    0.05337
HKLF 4




REM  ead2cooh_a.res in P-1
REM R1 =  0.0484 for    4682 Fo > 4sig(Fo)  and  0.0703 for all    6129 data
REM    388 parameters refined using      3 restraints

END

WGHT      0.0603      0.7690

REM Highest difference peak  0.447,  deepest hole -0.288,  1-sigma level  0.056
Q1    1   0.1427  1.0658  0.8079  11.00000  0.05    0.45
Q2    1   0.7280  0.5337  0.3625  11.00000  0.05    0.34
Q3    1   0.2696  1.0153  0.7352  11.00000  0.05    0.33
Q4    1   0.6869  0.6795  0.5388  11.00000  0.05    0.33
Q5    1   0.1252  0.8160  0.0380  11.00000  0.05    0.32
Q6    1   0.4618  1.0609  0.7561  11.00000  0.05    0.29
Q7    1   0.0018  0.9633  0.7180  11.00000  0.05    0.29
Q8    1   0.2293  0.4996 -0.0241  11.00000  0.05    0.28
Q9    1   0.8833  0.2053  0.5653  11.00000  0.05    0.27
;
_shelx_res_checksum              91988
_olex2_submission_special_instructions 'No special instructions were received'
loop_
_space_group_symop_operation_xyz
'x, y, z'
'-x, -y, -z'
loop_
_atom_site_label
_atom_site_type_symbol
_atom_site_fract_x
_atom_site_fract_y
_atom_site_fract_z
_atom_site_U_iso_or_equiv
_atom_site_adp_type
_atom_site_occupancy
_atom_site_site_symmetry_order
_atom_site_calc_flag
_atom_site_refinement_flags_posn
_atom_site_refinement_flags_occupancy
_atom_site_disorder_assembly
_atom_site_disorder_group
O1A O 0.27738(17) 0.20019(9) -0.10529(9) 0.0277(3) Uani 1 1 d . . . .
O2A O 0.16899(18) 0.94177(9) 0.13081(9) 0.0289(3) Uani 1 1 d . . . .
O3A O 0.02734(17) 0.90543(9) -0.02163(9) 0.0251(3) Uani 1 1 d . . . .
H3A H 0.004(8) 0.971(4) 0.004(4) 0.043(14) Uiso 0.5 1 d . P . .
N1A N 0.41249(19) 0.23608(10) 0.05490(10) 0.0217(3) Uani 1 1 d . . . .
N2A N 0.39219(18) 0.41346(10) 0.11385(10) 0.0187(3) Uani 1 1 d . . . .
C1A C 0.3280(2) 0.26164(12) -0.02422(12) 0.0202(3) Uani 1 1 d . . . .
C2A C 0.3154(2) 0.37859(12) 0.01497(11) 0.0177(3) Uani 1 1 d . . . .
C3A C 0.4479(2) 0.32877(12) 0.13318(12) 0.0199(3) Uani 1 1 d . . . .
C4A C 0.5467(3) 0.32736(14) 0.22819(13) 0.0262(4) Uani 1 1 d . . . .
H4AA H 0.670341 0.305152 0.221355 0.039 Uiso 1 1 calc GR . . .
H4AB H 0.472318 0.276050 0.251900 0.039 Uiso 1 1 calc GR . . .
H4AC H 0.562691 0.399936 0.274051 0.039 Uiso 1 1 calc GR . . .
C5A C 0.4519(3) 0.12824(13) 0.05366(15) 0.0296(4) Uani 1 1 d . . . .
H5AA H 0.419635 0.079790 -0.012435 0.044 Uiso 1 1 calc GR . . .
H5AB H 0.376823 0.100637 0.094971 0.044 Uiso 1 1 calc GR . . .
H5AC H 0.585885 0.131682 0.077622 0.044 Uiso 1 1 calc GR . . .
C6A C 0.2399(2) 0.43497(12) -0.04126(11) 0.0168(3) Uani 1 1 d . . . .
H6A H 0.199227 0.395232 -0.107174 0.020 Uiso 1 1 calc R . . .
C7A C 0.2117(2) 0.54811(11) -0.01566(11) 0.0146(3) Uani 1 1 d . . . .
C8A C 0.2566(2) 0.61729(12) 0.07872(11) 0.0174(3) Uani 1 1 d . . . .
H8A H 0.308823 0.590906 0.129275 0.021 Uiso 1 1 calc R . . .
C9A C 0.2255(2) 0.72380(12) 0.09892(11) 0.0177(3) Uani 1 1 d . . . .
H9A H 0.257555 0.770296 0.163156 0.021 Uiso 1 1 calc R . . .
C10A C 0.1473(2) 0.76343(11) 0.02559(11) 0.0155(3) Uani 1 1 d . . . .
C11A C 0.1001(2) 0.69484(12) -0.06830(11) 0.0173(3) Uani 1 1 d . . . .
H11A H 0.045081 0.721020 -0.118407 0.021 Uiso 1 1 calc R . . .
C12A C 0.1332(2) 0.58849(12) -0.08885(11) 0.0175(3) Uani 1 1 d . . . .
H12A H 0.102254 0.542437 -0.153280 0.021 Uiso 1 1 calc R . . .
C13A C 0.1142(2) 0.87927(12) 0.04926(12) 0.0188(3) Uani 1 1 d . . . .
O1B O 0.65142(18) 0.80066(10) 0.62686(9) 0.0285(3) Uani 1 1 d . . . .
O2B O 0.94417(16) 0.08570(10) 0.48885(9) 0.0250(3) Uani 1 1 d . . . .
H2B H 0.981(7) 0.029(3) 0.505(4) 0.034(13) Uiso 0.5 1 d . P . .
O3B O 0.9664(2) 0.13068(11) 0.64815(10) 0.0399(4) Uani 1 1 d . . . .
N1B N 0.62813(18) 0.76090(10) 0.46145(10) 0.0200(3) Uani 1 1 d . . . .
N2B N 0.68720(18) 0.58781(11) 0.42083(9) 0.0186(3) Uani 1 1 d . . . .
C1B C 0.6580(2) 0.73874(13) 0.54788(12) 0.0195(3) Uani 1 1 d . . . .
C2B C 0.6983(2) 0.62553(12) 0.52141(11) 0.0178(3) Uani 1 1 d . . . .
C3B C 0.6479(2) 0.66891(12) 0.38936(11) 0.0189(3) Uani 1 1 d . . . .
C4B C 0.6273(2) 0.66862(14) 0.28749(12) 0.0248(4) Uani 1 1 d . . . .
H4BA H 0.512149 0.697367 0.270450 0.037 Uiso 1 1 calc GR . . .
H4BB H 0.619926 0.594370 0.245934 0.037 Uiso 1 1 calc GR . . .
H4BC H 0.736082 0.713947 0.278590 0.037 Uiso 1 1 calc GR . . .
C5B C 0.5851(2) 0.86386(13) 0.44989(14) 0.0265(4) Uani 1 1 d . . . .
H5BA H 0.683228 0.894904 0.421246 0.040 Uiso 1 1 calc GR . . .
H5BB H 0.579678 0.913726 0.513004 0.040 Uiso 1 1 calc GR . . .
H5BC H 0.463301 0.852327 0.407633 0.040 Uiso 1 1 calc GR . . .
C6B C 0.7403(2) 0.57466(13) 0.58837(11) 0.0191(3) Uani 1 1 d . . . .
H6B H 0.739850 0.616571 0.652696 0.023 Uiso 1 1 calc R . . .
C7B C 0.7864(2) 0.46627(13) 0.57867(11) 0.0179(3) Uani 1 1 d . . . .
C8B C 0.7991(2) 0.39217(13) 0.49041(11) 0.0197(3) Uani 1 1 d . . . .
H8B H 0.777125 0.411838 0.432531 0.024 Uiso 1 1 calc R . . .
C9B C 0.8435(2) 0.29035(13) 0.48763(12) 0.0205(3) Uani 1 1 d . . . .
H9B H 0.850019 0.240410 0.427429 0.025 Uiso 1 1 calc R . . .
C10B C 0.8788(2) 0.25994(13) 0.57148(12) 0.0200(3) Uani 1 1 d . . . .
C11B C 0.8657(2) 0.33313(14) 0.65924(12) 0.0224(3) Uani 1 1 d . . . .
H11B H 0.888951 0.313311 0.716984 0.027 Uiso 1 1 calc R . . .
C12B C 0.8190(2) 0.43424(13) 0.66270(12) 0.0211(3) Uani 1 1 d . . . .
H12B H 0.808731 0.482935 0.722882 0.025 Uiso 1 1 calc R . . .
C13B C 0.9325(2) 0.15124(14) 0.57108(13) 0.0236(4) Uani 1 1 d . . . .
O1S O 0.1476(3) 1.00539(13) 0.74375(12) 0.0379(5) Uani 0.826(4) 1 d D P A 1
H1S H 0.085(4) 1.026(3) 0.7018(19) 0.066(10) Uiso 0.826(4) 1 d D P A 1
C1S C 0.0723(4) 0.89974(17) 0.75532(17) 0.0336(6) Uani 0.826(4) 1 d . P A 1
H1SA H 0.041250 0.845120 0.692054 0.050 Uiso 0.826(4) 1 calc GR P A 1
H1SB H -0.041289 0.907203 0.784540 0.050 Uiso 0.826(4) 1 calc GR P A 1
H1SC H 0.167179 0.877243 0.796979 0.050 Uiso 0.826(4) 1 calc GR P A 1
O2S O 0.5185(2) 0.99342(14) 0.72172(13) 0.0374(6) Uani 0.834(6) 1 d D P B 1
H2SA H 0.546(4) 0.9342(18) 0.692(2) 0.057(10) Uiso 0.834(6) 1 d D P B 1
H2SB H 0.603(4) 1.023(2) 0.7680(19) 0.070(11) Uiso 0.834(6) 1 d D P B 1
O3S O -0.0158(14) 0.8248(8) 0.7654(7) 0.053(3) Uiso 0.172(4) 1 d . . C 2
O4S O 0.345(2) 0.9942(12) 0.7289(11) 0.053(4) Uiso 0.116(5) 1 d . . D 2
loop_
_atom_site_aniso_label
_atom_site_aniso_U_11
_atom_site_aniso_U_22
_atom_site_aniso_U_33
_atom_site_aniso_U_23
_atom_site_aniso_U_13
_atom_site_aniso_U_12
O1A 0.0301(7) 0.0172(6) 0.0316(7) 0.0010(5) 0.0038(5) 0.0038(5)
O2A 0.0405(7) 0.0163(6) 0.0268(7) 0.0053(5) -0.0045(5) 0.0071(5)
O3A 0.0364(7) 0.0186(6) 0.0235(6) 0.0095(5) 0.0015(5) 0.0138(5)
N1A 0.0219(7) 0.0135(6) 0.0335(8) 0.0106(6) 0.0079(6) 0.0055(5)
N2A 0.0199(7) 0.0177(6) 0.0220(7) 0.0090(5) 0.0059(5) 0.0072(5)
C1A 0.0170(7) 0.0138(7) 0.0306(9) 0.0055(6) 0.0080(6) 0.0029(6)
C2A 0.0160(7) 0.0139(7) 0.0245(8) 0.0056(6) 0.0072(6) 0.0027(6)
C3A 0.0199(8) 0.0185(7) 0.0266(9) 0.0107(6) 0.0102(6) 0.0068(6)
C4A 0.0315(9) 0.0271(9) 0.0281(9) 0.0156(7) 0.0102(7) 0.0132(7)
C5A 0.0317(9) 0.0150(8) 0.0463(11) 0.0129(7) 0.0082(8) 0.0089(7)
C6A 0.0155(7) 0.0159(7) 0.0186(7) 0.0038(6) 0.0042(6) 0.0015(6)
C7A 0.0122(7) 0.0136(7) 0.0192(7) 0.0063(6) 0.0038(6) 0.0018(5)
C8A 0.0191(8) 0.0167(7) 0.0177(8) 0.0081(6) 0.0000(6) 0.0044(6)
C9A 0.0203(8) 0.0154(7) 0.0164(7) 0.0042(6) 0.0002(6) 0.0034(6)
C10A 0.0142(7) 0.0140(7) 0.0207(8) 0.0080(6) 0.0039(6) 0.0029(5)
C11A 0.0169(7) 0.0205(7) 0.0176(8) 0.0106(6) 0.0019(6) 0.0041(6)
C12A 0.0171(7) 0.0188(7) 0.0160(7) 0.0046(6) 0.0029(6) 0.0011(6)
C13A 0.0196(8) 0.0156(7) 0.0241(8) 0.0097(6) 0.0046(6) 0.0042(6)
O1B 0.0369(7) 0.0242(6) 0.0233(6) 0.0039(5) 0.0060(5) 0.0064(5)
O2B 0.0257(6) 0.0226(6) 0.0270(7) 0.0103(5) -0.0012(5) 0.0039(5)
O3B 0.0623(10) 0.0342(7) 0.0303(7) 0.0186(6) 0.0043(7) 0.0194(7)
N1B 0.0196(7) 0.0172(6) 0.0235(7) 0.0080(5) 0.0010(5) 0.0021(5)
N2B 0.0160(6) 0.0224(7) 0.0171(7) 0.0068(5) 0.0003(5) 0.0026(5)
C1B 0.0165(7) 0.0197(8) 0.0216(8) 0.0054(6) 0.0023(6) 0.0016(6)
C2B 0.0133(7) 0.0195(7) 0.0195(8) 0.0047(6) 0.0017(6) 0.0017(6)
C3B 0.0129(7) 0.0212(8) 0.0210(8) 0.0059(6) -0.0003(6) 0.0003(6)
C4B 0.0279(9) 0.0252(8) 0.0209(8) 0.0088(7) 0.0001(7) 0.0022(7)
C5B 0.0275(9) 0.0188(8) 0.0346(10) 0.0114(7) 0.0023(7) 0.0044(7)
C6B 0.0148(7) 0.0239(8) 0.0176(8) 0.0052(6) 0.0023(6) 0.0021(6)
C7B 0.0119(7) 0.0230(8) 0.0195(8) 0.0087(6) 0.0012(6) 0.0020(6)
C8B 0.0190(8) 0.0240(8) 0.0170(8) 0.0087(6) 0.0004(6) 0.0035(6)
C9B 0.0193(8) 0.0225(8) 0.0183(8) 0.0052(6) 0.0000(6) 0.0028(6)
C10B 0.0128(7) 0.0231(8) 0.0257(8) 0.0117(7) 0.0005(6) 0.0013(6)
C11B 0.0188(8) 0.0310(9) 0.0212(8) 0.0148(7) 0.0013(6) 0.0040(7)
C12B 0.0176(8) 0.0287(9) 0.0176(8) 0.0082(7) 0.0021(6) 0.0043(6)
C13B 0.0184(8) 0.0251(8) 0.0286(9) 0.0140(7) -0.0019(7) 0.0008(6)
O1S 0.0585(12) 0.0314(9) 0.0318(10) 0.0169(7) 0.0068(8) 0.0226(8)
C1S 0.0456(14) 0.0251(11) 0.0304(12) 0.0040(9) 0.0164(10) 0.0048(10)
O2S 0.0331(10) 0.0336(10) 0.0376(11) 0.0011(8) -0.0058(8) 0.0105(7)
loop_
_atom_type_symbol
_atom_type_description
_atom_type_scat_dispersion_real
_atom_type_scat_dispersion_imag
_atom_type_scat_source
C C 0.0033 0.0016 'International Tables Vol C Tables 4.2.6.8 and 6.1.1.4'
H H 0.0000 0.0000 'International Tables Vol C Tables 4.2.6.8 and 6.1.1.4'
N N 0.0061 0.0033 'International Tables Vol C Tables 4.2.6.8 and 6.1.1.4'
O O 0.0106 0.0060 'International Tables Vol C Tables 4.2.6.8 and 6.1.1.4'
loop_
_geom_angle_atom_site_label_1
_geom_angle_atom_site_label_2
_geom_angle_atom_site_label_3
_geom_angle
C13A O3A H3A 105(4)
C1A N1A C3A 108.42(12)
C1A N1A C5A 124.16(14)
C3A N1A C5A 127.42(15)
C3A N2A C2A 105.46(13)
O1A C1A N1A 126.51(14)
O1A C1A C2A 130.39(16)
N1A C1A C2A 103.10(13)
N2A C2A C1A 108.94(13)
C6A C2A N2A 129.51(14)
C6A C2A C1A 121.55(15)
N1A C3A C4A 120.75(14)
N2A C3A N1A 114.08(15)
N2A C3A C4A 125.14(15)
C3A C4A H4AA 109.5
C3A C4A H4AB 109.5
C3A C4A H4AC 109.5
H4AA C4A H4AB 109.5
H4AA C4A H4AC 109.5
H4AB C4A H4AC 109.5
N1A C5A H5AA 109.5
N1A C5A H5AB 109.5
N1A C5A H5AC 109.5
H5AA C5A H5AB 109.5
H5AA C5A H5AC 109.5
H5AB C5A H5AC 109.5
C2A C6A H6A 115.3
C2A C6A C7A 129.38(15)
C7A C6A H6A 115.3
C8A C7A C6A 122.95(14)
C8A C7A C12A 118.77(13)
C12A C7A C6A 118.27(14)
C7A C8A H8A 119.8
C9A C8A C7A 120.44(14)
C9A C8A H8A 119.8
C8A C9A H9A 119.8
C8A C9A C10A 120.43(14)
C10A C9A H9A 119.8
C9A C10A C13A 119.51(13)
C11A C10A C9A 119.51(13)
C11A C10A C13A 120.98(14)
C10A C11A H11A 119.9
C12A C11A C10A 120.13(14)
C12A C11A H11A 119.9
C7A C12A H12A 119.6
C11A C12A C7A 120.70(14)
C11A C12A H12A 119.6
O2A C13A O3A 124.58(14)
O2A C13A C10A 120.74(14)
O3A C13A C10A 114.68(14)
C13B O2B H2B 103(3)
C1B N1B C3B 108.00(13)
C1B N1B C5B 124.63(14)
C3B N1B C5B 127.37(14)
C3B N2B C2B 105.36(13)
O1B C1B N1B 126.16(15)
O1B C1B C2B 130.05(15)
N1B C1B C2B 103.78(13)
N2B C2B C1B 108.79(13)
C6B C2B N2B 129.38(14)
C6B C2B C1B 121.82(14)
N1B C3B C4B 120.74(14)
N2B C3B N1B 114.06(14)
N2B C3B C4B 125.20(15)
C3B C4B H4BA 109.5
C3B C4B H4BB 109.5
C3B C4B H4BC 109.5
H4BA C4B H4BB 109.5
H4BA C4B H4BC 109.5
H4BB C4B H4BC 109.5
N1B C5B H5BA 109.5
N1B C5B H5BB 109.5
N1B C5B H5BC 109.5
H5BA C5B H5BB 109.5
H5BA C5B H5BC 109.5
H5BB C5B H5BC 109.5
C2B C6B H6B 114.6
C2B C6B C7B 130.79(15)
C7B C6B H6B 114.6
C8B C7B C6B 123.80(14)
C8B C7B C12B 118.40(14)
C12B C7B C6B 117.80(14)
C7B C8B H8B 120.0
C9B C8B C7B 120.05(15)
C9B C8B H8B 120.0
C8B C9B H9B 119.4
C8B C9B C10B 121.17(15)
C10B C9B H9B 119.4
C9B C10B C11B 118.95(15)
C9B C10B C13B 122.40(15)
C11B C10B C13B 118.64(15)
C10B C11B H11B 119.8
C12B C11B C10B 120.36(15)
C12B C11B H11B 119.8
C7B C12B H12B 119.5
C11B C12B C7B 121.05(15)
C11B C12B H12B 119.5
O2B C13B C10B 117.07(14)
O3B C13B O2B 123.92(16)
O3B C13B C10B 119.00(16)
C1S O1S H1S 116(2)
O1S C1S H1SA 109.5
O1S C1S H1SB 109.5
O1S C1S H1SC 109.5
H1SA C1S H1SB 109.5
H1SA C1S H1SC 109.5
H1SB C1S H1SC 109.5
H2SA O2S H2SB 108(3)
loop_
_geom_bond_atom_site_label_1
_geom_bond_atom_site_label_2
_geom_bond_distance
O1A C1A 1.217(2)
O2A C13A 1.230(2)
O3A H3A 0.88(5)
O3A C13A 1.2871(19)
N1A C1A 1.377(2)
N1A C3A 1.387(2)
N1A C5A 1.455(2)
N2A C2A 1.408(2)
N2A C3A 1.300(2)
C1A C2A 1.486(2)
C2A C6A 1.346(2)
C3A C4A 1.484(2)
C4A H4AA 0.9800
C4A H4AB 0.9800
C4A H4AC 0.9800
C5A H5AA 0.9800
C5A H5AB 0.9800
C5A H5AC 0.9800
C6A H6A 0.9500
C6A C7A 1.457(2)
C7A C8A 1.399(2)
C7A C12A 1.400(2)
C8A H8A 0.9500
C8A C9A 1.383(2)
C9A H9A 0.9500
C9A C10A 1.395(2)
C10A C11A 1.391(2)
C10A C13A 1.501(2)
C11A H11A 0.9500
C11A C12A 1.385(2)
C12A H12A 0.9500
O1B C1B 1.2235(19)
O2B H2B 0.89(4)
O2B C13B 1.288(2)
O3B C13B 1.231(2)
N1B C1B 1.370(2)
N1B C3B 1.394(2)
N1B C5B 1.455(2)
N2B C2B 1.407(2)
N2B C3B 1.305(2)
C1B C2B 1.485(2)
C2B C6B 1.347(2)
C3B C4B 1.479(2)
C4B H4BA 0.9800
C4B H4BB 0.9800
C4B H4BC 0.9800
C5B H5BA 0.9800
C5B H5BB 0.9800
C5B H5BC 0.9800
C6B H6B 0.9500
C6B C7B 1.455(2)
C7B C8B 1.404(2)
C7B C12B 1.404(2)
C8B H8B 0.9500
C8B C9B 1.386(2)
C9B H9B 0.9500
C9B C10B 1.392(2)
C10B C11B 1.394(2)
C10B C13B 1.503(2)
C11B H11B 0.9500
C11B C12B 1.380(2)
C12B H12B 0.9500
O1S H1S 0.837(18)
O1S C1S 1.487(3)
C1S H1SA 0.9800
C1S H1SB 0.9800
C1S H1SC 0.9800
O2S H2SA 0.833(18)
O2S H2SB 0.825(19)
loop_
_geom_hbond_atom_site_label_D
_geom_hbond_atom_site_label_H
_geom_hbond_atom_site_label_A
_geom_hbond_distance_DH
_geom_hbond_distance_HA
_geom_hbond_distance_DA
_geom_hbond_angle_DHA
_geom_hbond_site_symmetry_A
O3A H3A O3A 0.88(5) 1.60(4) 2.452(2) 164(5) 2_575
O2B H2B O2B 0.89(4) 1.66(4) 2.537(2) 169(5) 2_756
O1S H1S O3B 0.837(18) 1.96(2) 2.749(2) 156(3) 1_465
O2S H2SA O1B 0.833(18) 2.015(19) 2.842(2) 172(3) .
O2S H2SB O2A 0.825(19) 1.99(2) 2.793(2) 166(3) 2_676
