#------------------------------------------------------------------------------
#$Date: 2017-06-16 04:03:09 +0300 (Fri, 16 Jun 2017) $
#$Revision: 197866 $
#$URL: file:///home/coder/svn-repositories/cod/cif/7/12/02/7120281.cif $
#------------------------------------------------------------------------------
#
# This file is available in the Crystallography Open Database (COD),
# http://www.crystallography.net/
#
# All data on this site have been placed in the public domain by the
# contributors.
#
data_7120281
loop_
_publ_author_name
'Mouchaham, Georges'
'Abeykoon, Brain'
'Gim\'enez-Marqu\'es, M\'onica'
'Navalon, Sergio'
'Santiago-Portillo, Andrea'
'affram, maame'
'Guillou, Nathalie'
'Martineau, Charlotte'
'Garcia, Hermenegildo'
'Fateeva, Alexandra'
'Devic, Thomas'
_publ_section_title
;
 Adaptability of the metal(III,IV) 1,2,3-trioxobenzene rod Second-ary
 Building Unit for the production of chemically stable and catalyt-ically
 active Metal-Organic Frameworks
;
_journal_name_full               'Chem. Commun.'
_journal_paper_doi               10.1039/C7CC04215A
_journal_year                    2017
_chemical_formula_moiety         La2C44H24N4O12
_chemical_formula_sum            'C22 H12 La N2 O6'
_chemical_formula_weight         539.25
_chemical_name_common            La2(H6PorphGal)
_chemical_name_systematic        MIL-173(La)
_space_group_crystal_system      tetragonal
_space_group_IT_number           139
_space_group_name_Hall           '-I 4 2'
_space_group_name_H-M_alt        'I 4/m m m'
_symmetry_space_group_name_Hall  '-I 4 2'
_symmetry_space_group_name_H-M   'I 4/m m m'
_atom_sites_solution_hydrogens   mixed
_audit_creation_method           SHELXL-2016/6
_audit_update_record
;
2017-04-15 deposited with the CCDC.
2017-06-14 downloaded from the CCDC.
;
_cell_angle_alpha                90
_cell_angle_beta                 90
_cell_angle_gamma                90
_cell_formula_units_Z            4
_cell_length_a                   20.6040(6)
_cell_length_b                   20.6040(6)
_cell_length_c                   8.5110(6)
_cell_measurement_reflns_used    2829
_cell_measurement_temperature    293(2)
_cell_measurement_theta_max      29.203
_cell_measurement_theta_min      3.233
_cell_volume                     3613.1(3)
_computing_cell_refinement       'CrysAlisPro 1.171.38.43 (Rigaku OD, 2015)'
_computing_data_collection       'CrysAlisPro 1.171.38.43 (Rigaku OD, 2015)'
_computing_data_reduction        'CrysAlisPro 1.171.38.43 (Rigaku OD, 2015)'
_computing_structure_refinement  'SHELXL-2016/6 (Sheldrick, 2016)'
_computing_structure_solution    SHELXS-97
_diffrn_ambient_temperature      293(2)
_diffrn_detector_area_resol_mean 8.2634
_diffrn_measured_fraction_theta_full 0.997
_diffrn_measured_fraction_theta_max 0.897
_diffrn_measurement_device_type  'Xcalibur, Onyx'
_diffrn_measurement_method       \w
_diffrn_radiation_type           MoK\a
_diffrn_radiation_wavelength     0.71073
_diffrn_reflns_av_R_equivalents  0.0308
_diffrn_reflns_av_unetI/netI     0.0241
_diffrn_reflns_Laue_measured_fraction_full 0.997
_diffrn_reflns_Laue_measured_fraction_max 0.897
_diffrn_reflns_limit_h_max       28
_diffrn_reflns_limit_h_min       -21
_diffrn_reflns_limit_k_max       27
_diffrn_reflns_limit_k_min       -25
_diffrn_reflns_limit_l_max       11
_diffrn_reflns_limit_l_min       -8
_diffrn_reflns_number            6428
_diffrn_reflns_point_group_measured_fraction_full 0.997
_diffrn_reflns_point_group_measured_fraction_max 0.897
_diffrn_reflns_theta_full        25.242
_diffrn_reflns_theta_max         29.400
_diffrn_reflns_theta_min         2.589
_diffrn_source                   'Enhance (Mo) X-ray Source'
_exptl_absorpt_coefficient_mu    1.206
_exptl_absorpt_correction_T_max  1.0000
_exptl_absorpt_correction_T_min  0.75299
_exptl_absorpt_correction_type   multi-scan
_exptl_absorpt_process_details
;
CrysAlisPro 1.171.38.43 (Rigaku Oxford Diffraction, 2015)
Analytical numeric absorption correction using a multifaceted crystal
            model based on expressions derived by R.C. Clark & J.S. Reid.
(Clark, R. C. & Reid, J. S. (1995). Acta Cryst. A51, 887-897)
Empirical absorption correction using spherical harmonics,
 implemented in SCALE3 ABSPACK scaling algorithm.
;
_exptl_crystal_colour            red
_exptl_crystal_density_diffrn    0.991
_exptl_crystal_description       needle
_exptl_crystal_F_000             1052
_exptl_crystal_recrystallization_method 'solvothermal synthesis'
_exptl_crystal_size_max          0.2
_exptl_crystal_size_mid          0.05
_exptl_crystal_size_min          0.03
_refine_diff_density_max         0.593
_refine_diff_density_min         -0.729
_refine_diff_density_rms         0.078
_refine_ls_extinction_method     none
_refine_ls_goodness_of_fit_ref   1.121
_refine_ls_hydrogen_treatment    mixed
_refine_ls_matrix_type           full
_refine_ls_number_parameters     55
_refine_ls_number_reflns         1299
_refine_ls_number_restraints     2
_refine_ls_restrained_S_all      1.120
_refine_ls_R_factor_all          0.0427
_refine_ls_R_factor_gt           0.0371
_refine_ls_shift/su_max          0.000
_refine_ls_shift/su_mean         0.000
_refine_ls_structure_factor_coef Fsqd
_refine_ls_weighting_details
'w=1/[\s^2^(Fo^2^)+(0.0456P)^2^+9.1343P] where P=(Fo^2^+2Fc^2^)/3'
_refine_ls_weighting_scheme      calc
_refine_ls_wR_factor_gt          0.0983
_refine_ls_wR_factor_ref         0.1004
_reflns_Friedel_coverage         0.000
_reflns_number_gt                1059
_reflns_number_total             1299
_reflns_threshold_expression     'I > 2\s(I)'
_cod_data_source_file            c7cc04215a2.cif
_cod_data_source_block           shelx
_cod_database_code               7120281
_shelx_shelxl_version_number     2016/6
_shelx_space_group_comment
;
The symmetry employed for this shelxl refinement is uniquely defined
by the following loop, which should always be used as a source of
symmetry information in preference to the above space-group names.
They are only intended as comments.
;
_shelx_res_file
;

TITL ba429-3-1 in I4/mmm
    shelx.res
    created by SHELXL-2016/6 at 22:30:30 on 15-Apr-2017
CELL  0.71073  20.6040  20.6040   8.5110   90.000   90.000   90.000
ZERR     4.00   0.0006   0.0006   0.0006    0.000    0.000    0.000
LATT   2
SYMM  - X, - Y,   Z
SYMM  - Y,   X,   Z
SYMM    Y, - X,   Z
SYMM  - X,   Y, - Z
SYMM    X, - Y, - Z
SYMM    Y,   X, - Z
SYMM  - Y, - X, - Z
SFAC  C    H    N    O    LA
UNIT  88 48 8 24 4
acta
MERG   2
DFIX O2 H2 0.82
DFIX C3 H2 2.5
FMAP   2
plan -20
BOND $H
L.S. 32
ABIN
WGHT    0.045600    9.134300
FVAR       1.22511
MOLE    1
LA1   5    0.500000    0.000000    0.250000    10.12500    0.03345    0.03345 =
         0.02031    0.00000    0.00000    0.00000
O1    4    0.500000   -0.061125    0.500000    10.25000    0.06669    0.01308 =
         0.03134    0.00000    0.00000    0.00000
C1    1    0.500000   -0.125795    0.500000    10.25000    0.05499    0.01295 =
         0.04045    0.00000    0.00000    0.00000
C4    1    0.500000   -0.260144    0.500000    10.25000    0.04153    0.00490 =
         0.06249    0.00000    0.00000    0.00000
C2    1    0.500000   -0.159510    0.638804    10.50000    0.11254    0.02018 =
         0.04100   -0.00501    0.00000    0.00000
C5    1    0.500000   -0.332854    0.500000    10.25000    0.01291    0.01986 =
         0.07424    0.00000    0.00000    0.00000
C3    1    0.500000   -0.227993    0.637446    10.50000    0.10768    0.02256 =
         0.05198    0.00795    0.00000    0.00000
AFIX  43
H3    2    0.500000   -0.250884    0.731621    10.50000   -1.20000
AFIX   0
O2    4    0.500000   -0.123386    0.771253    10.50000    0.30506    0.02435 =
         0.03601    0.00096    0.00000    0.00000
H2    2    0.500000   -0.145102    0.851561    10.37500   -1.20000
N1    3    0.570663   -0.429337    0.500000    10.25000    0.01855    0.01855 =
         0.08252    0.00000    0.00000    0.00042
AFIX  43
H1    2    0.541149   -0.458853    0.500000    10.12500   -1.20000
AFIX   0
C6    1    0.559316   -0.364100    0.500000    10.50000    0.02262    0.01874 =
         0.08053    0.00000    0.00000   -0.00842
C7    1    0.621415   -0.332985    0.500000    10.50000    0.03196    0.02508 =
         0.13404    0.00000    0.00000   -0.01052
AFIX  43
H7    2    0.628626   -0.288428    0.500000    10.50000   -1.20000

AFIX   0
HKLF    4




REM  ba429-3-1 in I4/mmm
REM R1 =  0.0371 for    1059 Fo > 4sig(Fo)  and  0.0427 for all    1299 data
REM     55 parameters refined using      2 restraints

END

WGHT      0.0453      9.0608

REM Highest difference peak  0.593,  deepest hole -0.729,  1-sigma level  0.078
Q1    1   0.4128  0.0872  0.2500  10.50000  0.05    0.59
Q2    1   0.5000 -0.2897  0.5000  10.25000  0.05    0.50
Q3    1   0.5000  0.0396  0.1949  10.50000  0.05    0.44
Q4    1   0.4461  0.1181  0.2581  11.00000  0.05    0.40
Q5    1   0.5000 -0.5000  0.5000  10.06250  0.05    0.35
Q6    1   0.5000  0.0000  0.1371  10.25000  0.05    0.34
Q7    1   0.4121 -0.3507  0.5231  11.00000  0.05    0.32
Q8    1   0.5939 -0.4319  0.5000  10.50000  0.05    0.31
Q9    1   0.3710  0.0000  0.3009  10.50000  0.05    0.29
Q10   1   0.4732  0.0000  0.1850  10.50000  0.05    0.28
Q11   1   0.4236  0.0000  0.1370  10.50000  0.05    0.27
Q12   1   0.5000 -0.1555  0.7441  10.50000  0.05    0.26
Q13   1   0.2961  0.5000  0.0000  10.25000  0.05    0.26
Q14   1   0.4313  0.1787  0.0000  10.50000  0.05    0.26
Q15   1   0.5611 -0.4389  0.6226  10.50000  0.05    0.25
Q16   1   0.5274 -0.3460  0.5000  10.50000  0.05    0.23
Q17   1   0.5000 -0.1575  0.5365  10.50000  0.05    0.23
Q18   1   0.4673  0.0000  0.0294  10.50000  0.05    0.22
Q19   1   0.5459 -0.0658  0.5000  10.50000  0.05    0.22
Q20   1   0.4629 -0.2714  0.5000  10.50000  0.05    0.22
;
_shelx_res_checksum              82256
_shelx_fab_file
;
    1    3    0     68.06      0.00
    3    3    0    -89.28      0.00
    0    4    0    -57.51      0.00
    2    4    0      2.47      0.00
    4    4    0     -5.75      0.00
    1    5    0    -49.83      0.00
    3    5    0      3.43      0.00
    5    5    0     -0.65      0.00
    0    6    0     27.14      0.00
    2    6    0      5.27      0.00
    4    6    0    -14.54      0.00
    6    6    0     -5.66      0.00
    1    7    0      7.00      0.00
    3    7    0     -1.54      0.00
    5    7    0      4.15      0.00
    7    7    0     -0.25      0.00
    0    8    0    -45.09      0.00
    2    8    0     -3.57      0.00
    4    8    0     12.99      0.00
    6    8    0     -6.68      0.00
    8    8    0      5.86      0.00
    1    9    0     15.59      0.00
    3    9    0    -13.16      0.00
    5    9    0      4.50      0.00
    7    9    0    -10.09      0.00
    9    9    0      3.05      0.00
    0   10    0     17.00      0.00
    2   10    0     15.18      0.00
    4   10    0     -6.90      0.00
    6   10    0     -4.25      0.00
    8   10    0      5.31      0.00
   10   10    0     -5.11      0.00
    1   11    0    -12.57      0.00
    3   11    0     11.44      0.00
    5   11    0      2.91      0.00
    7   11    0     -1.70      0.00
    9   11    0      0.55      0.00
   11   11    0      0.03      0.00
    0   12    0      8.41      0.00
    2   12    0      1.17      0.00
    4   12    0     -3.11      0.00
    6   12    0     -3.12      0.00
    8   12    0      0.06      0.00
   10   12    0     -0.23      0.00
   12   12    0      0.75      0.00
    1   13    0      5.52      0.00
    3   13    0      2.51      0.00
    5   13    0     -1.72      0.00
    7   13    0      1.16      0.00
    9   13    0      3.04      0.00
   11   13    0     -2.29      0.00
   13   13    0     -0.08      0.00
    0   14    0    -13.71      0.00
    2   14    0     -5.84      0.00
    4   14    0      5.27      0.00
    6   14    0      6.37      0.00
    8   14    0      2.76      0.00
   10   14    0     -0.47      0.00
   12   14    0     -0.61      0.00
   14   14    0      0.33      0.00
    1   15    0     -0.01      0.00
    3   15    0     -1.19      0.00
    5   15    0     -1.85      0.00
    7   15    0     -1.70      0.00
    9   15    0      3.73      0.00
   11   15    0      1.13      0.00
   13   15    0     -1.30      0.00
   15   15    0     -0.24      0.00
    0   16    0      3.86      0.00
    2   16    0      5.29      0.00
    4   16    0      3.98      0.00
    6   16    0     -6.97      0.00
    8   16    0     -2.52      0.00
   10   16    0      0.54      0.00
   12   16    0     -0.41      0.00
   14   16    0      1.78      0.00
   16   16    0     -0.76      0.00
    1   17    0     -5.28      0.00
    3   17    0      4.06      0.00
    5   17    0     -1.27      0.00
    7   17    0     -2.12      0.00
    9   17    0      0.14      0.00
   11   17    0     -0.81      0.00
   13   17    0     -0.40      0.00
   15   17    0     -0.43      0.00
   17   17    0      0.69      0.00
    0   18    0     -6.68      0.00
    2   18    0     -1.96      0.00
    4   18    0      2.23      0.00
    6   18    0     -3.66      0.00
    8   18    0      0.06      0.00
   10   18    0      1.97      0.00
   12   18    0     -3.83      0.00
   14   18    0      0.74      0.00
   16   18    0     -0.37      0.00
   18   18    0     -3.52      0.00
    1   19    0      2.30      0.00
    3   19    0      2.78      0.00
    5   19    0     -3.43      0.00
    7   19    0     -3.20      0.00
    9   19    0      1.25      0.00
   11   19    0     -0.31      0.00
   13   19    0      0.25      0.00
   15   19    0      2.11      0.00
   17   19    0      1.72      0.00
    0   20    0     -2.05      0.00
    2   20    0     -1.23      0.00
    4   20    0      0.04      0.00
    6   20    0     -4.44      0.00
    8   20    0     -1.51      0.00
   10   20    0      3.53      0.00
   12   20    0      0.12      0.00
   14   20    0     -2.07      0.00
   16   20    0     -0.01      0.00
    1   21    0     -6.19      0.00
    3   21    0      1.62      0.00
    5   21    0     -1.98      0.00
    7   21    0     -3.03      0.00
    9   21    0     -0.11      0.00
   11   21    0     -1.38      0.00
   13   21    0      0.17      0.00
   15   21    0     -0.46      0.00
    0   22    0      3.34      0.00
    2   22    0      3.86      0.00
    4   22    0     -2.87      0.00
    6   22    0     -4.82      0.00
    8   22    0      1.21      0.00
   10   22    0      1.92      0.00
   12   22    0     -1.33      0.00
   14   22    0     -0.46      0.00
    1   23    0      2.87      0.00
    3   23    0      4.04      0.00
    5   23    0     -7.33      0.00
    7   23    0     -0.14      0.00
    9   23    0      5.49      0.00
   11   23    0     -0.54      0.00
   13   23    0     -0.88      0.00
    0   24    0      1.32      0.00
    2   24    0      4.93      0.00
    4   24    0     -4.48      0.00
    6   24    0     -6.22      0.00
    8   24    0      3.03      0.00
   10   24    0      0.74      0.00
   12   24    0     -2.74      0.00
    1   25    0      4.12      0.00
    3   25    0      4.04      0.00
    5   25    0     -6.46      0.00
    7   25    0     -1.82      0.00
    9   25    0      1.19      0.00
    0   26    0      0.72      0.00
    2   26    0      5.52      0.00
    4   26    0     -0.44      0.00
    6   26    0      2.58      0.00
    8   26    0     -0.26      0.00
    1   27    0      6.77      0.00
    3   27    0      0.37      0.00
    5   27    0     -2.90      0.00
    7   27    0      2.34      0.00
    0   28    0      8.05      0.00
    2   28    0      3.23      0.00
    4   28    0     -3.39      0.00
    0    1    1   -163.00      0.00
    1    2    1     38.49      0.00
    0    3    1      4.60      0.00
    2    3    1    -34.13      0.00
    1    4    1     -1.17      0.00
    3    4    1     47.60      0.00
    0    5    1     69.03      0.00
    2    5    1     11.50      0.00
    4    5    1    -11.71      0.00
    1    6    1    -18.15      0.00
    3    6    1      4.33      0.00
    5    6    1     15.95      0.00
    0    7    1     -0.07      0.00
    2    7    1     -5.96      0.00
    4    7    1     -1.76      0.00
    6    7    1     -0.02      0.00
    1    8    1     19.73      0.00
    3    8    1      7.94      0.00
    5    8    1    -15.41      0.00
    7    8    1      6.09      0.00
    0    9    1     -3.89      0.00
    2    9    1     -9.38      0.00
    4    9    1      5.59      0.00
    6    9    1     11.41      0.00
    8    9    1     -7.16      0.00
    1   10    1    -14.88      0.00
    3   10    1     -0.52      0.00
    5   10    1     -0.83      0.00
    7   10    1      2.63      0.00
    9   10    1      2.61      0.00
    0   11    1     12.00      0.00
    2   11    1     -1.90      0.00
    4   11    1     -0.65      0.00
    6   11    1     -1.72      0.00
    8   11    1     -1.46      0.00
   10   11    1     -0.32      0.00
    1   12    1     -1.00      0.00
    3   12    1     -3.98      0.00
    5   12    1      3.62      0.00
    7   12    1      2.98      0.00
    9   12    1     -1.56      0.00
   11   12    1      0.13      0.00
    0   13    1    -10.10      0.00
    2   13    1     -1.41      0.00
    4   13    1     -1.29      0.00
    6   13    1      1.06      0.00
    8   13    1     -3.46      0.00
   10   13    1      1.29      0.00
   12   13    1     -0.44      0.00
    1   14    1      8.24      0.00
    3   14    1      0.60      0.00
    5   14    1     -4.09      0.00
    7   14    1     -4.12      0.00
    9   14    1     -2.73      0.00
   11   14    1     -0.46      0.00
   13   14    1      0.97      0.00
    0   15    1      2.61      0.00
    2   15    1      1.15      0.00
    4   15    1      0.11      0.00
    6   15    1     -1.57      0.00
    8   15    1      1.34      0.00
   10   15    1     -0.53      0.00
   12   15    1     -1.10      0.00
   14   15    1     -0.42      0.00
    1   16    1     -4.42      0.00
    3   16    1     -6.81      0.00
    5   16    1      3.35      0.00
    7   16    1      6.91      0.00
    9   16    1     -2.44      0.00
   11   16    1      0.52      0.00
   13   16    1     -0.03      0.00
   15   16    1     -0.35      0.00
    0   17    1      3.50      0.00
    2   17    1      1.39      0.00
    4   17    1     -4.12      0.00
    6   17    1      4.93      0.00
    8   17    1      1.10      0.00
   10   17    1     -1.90      0.00
   12   17    1      2.51      0.00
   14   17    1     -2.32      0.00
   16   17    1      1.07      0.00
    1   18    1      4.75      0.00
    3   18    1     -1.22      0.00
    5   18    1      1.24      0.00
    7   18    1     -1.03      0.00
    9   18    1      2.27      0.00
   11   18    1      0.65      0.00
   13   18    1     -0.30      0.00
   15   18    1      0.10      0.00
   17   18    1      0.30      0.00
    0   19    1      1.54      0.00
    2   19    1     -4.59      0.00
    4   19    1     -2.86      0.00
    6   19    1      6.50      0.00
    8   19    1      1.79      0.00
   10   19    1     -1.96      0.00
   12   19    1     -1.39      0.00
   14   19    1      0.57      0.00
   16   19    1     -1.52      0.00
   18   19    1      1.74      0.00
    1   20    1      0.96      0.00
    3   20    1     -0.82      0.00
    5   20    1      3.54      0.00
    7   20    1      5.00      0.00
    9   20    1     -5.25      0.00
   11   20    1      1.10      0.00
   13   20    1     -0.58      0.00
   15   20    1      0.27      0.00
   17   20    1     -0.75      0.00
   19   20    1     -2.38      0.00
    0   21    1      1.58      0.00
    2   21    1      5.46      0.00
    4   21    1     -0.19      0.00
    6   21    1      0.17      0.00
    8   21    1      3.68      0.00
   10   21    1     -2.61      0.00
   12   21    1      1.17      0.00
   14   21    1      0.57      0.00
   16   21    1      0.96      0.00
   18   21    1      1.20      0.00
    1   22    1     -0.29      0.00
    3   22    1     -7.17      0.00
    5   22    1      7.77      0.00
    7   22    1     -1.72      0.00
    9   22    1      1.71      0.00
   11   22    1     -3.78      0.00
   13   22    1     -1.73      0.00
   15   22    1      0.28      0.00
   17   22    1      3.21      0.00
    0   23    1     -0.29      0.00
    2   23    1     -7.83      0.00
    4   23    1      3.34      0.00
    6   23    1      7.41      0.00
    8   23    1     -9.06      0.00
   10   23    1     -3.08      0.00
   12   23    1      4.78      0.00
   14   23    1      0.41      0.00
   16   23    1     -6.13      0.00
    1   24    1     -3.50      0.00
    3   24    1      1.85      0.00
    5   24    1      1.16      0.00
    7   24    1      5.47      0.00
    9   24    1     -4.87      0.00
   11   24    1      2.78      0.00
   13   24    1     -0.84      0.00
    0   25    1      0.98      0.00
    2   25    1     -6.02      0.00
    4   25    1      2.78      0.00
    6   25    1      1.30      0.00
    8   25    1      1.34      0.00
   10   25    1      2.71      0.00
   12   25    1     -4.24      0.00
    1   26    1     -1.33      0.00
    3   26    1     -7.20      0.00
    5   26    1      4.91      0.00
    7   26    1     -3.84      0.00
    9   26    1      0.77      0.00
   11   26    1      0.82      0.00
    0   27    1     -9.75      0.00
    2   27    1     -3.73      0.00
    4   27    1      2.84      0.00
    6   27    1     -0.50      0.00
    8   27    1      3.25      0.00
    1   28    1     -5.81      0.00
    0    0    2    182.19      0.00
    1    1    2     14.54      0.00
    0    2    2     -8.87      0.00
    2    2    2    -28.70      0.00
    1    3    2      8.17      0.00
    3    3    2      9.20      0.00
    0    4    2    -17.88      0.00
    2    4    2     -0.94      0.00
    4    4    2    -12.17      0.00
    1    5    2    -13.65      0.00
    3    5    2    -30.62      0.00
    5    5    2     20.29      0.00
    0    6    2     -7.54      0.00
    2    6    2     26.72      0.00
    4    6    2      0.96      0.00
    6    6    2    -33.40      0.00
    1    7    2      7.83      0.00
    3    7    2     -5.47      0.00
    5    7    2      7.87      0.00
    7    7    2     -1.51      0.00
    0    8    2    -20.83      0.00
    2    8    2    -12.62      0.00
    4    8    2      1.52      0.00
    6    8    2     11.21      0.00
    8    8    2      2.78      0.00
    1    9    2      8.78      0.00
    3    9    2     -0.68      0.00
    5    9    2     -7.88      0.00
    7    9    2     -7.13      0.00
    9    9    2      9.39      0.00
    0   10    2      7.41      0.00
    2   10    2     10.53      0.00
    4   10    2     -1.17      0.00
    6   10    2     -2.59      0.00
    8   10    2      2.12      0.00
   10   10    2     -5.23      0.00
    1   11    2     -5.88      0.00
    3   11    2     -1.46      0.00
    5   11    2      4.13      0.00
    7   11    2      3.52      0.00
    9   11    2     -0.22      0.00
   11   11    2      2.91      0.00
    0   12    2      3.62      0.00
    2   12    2      3.02      0.00
    4   12    2     -2.74      0.00
    6   12    2     -2.58      0.00
    8   12    2      0.34      0.00
   10   12    2      1.43      0.00
   12   12    2      2.64      0.00
    1   13    2      4.09      0.00
    3   13    2      4.61      0.00
    5   13    2      0.33      0.00
    7   13    2     -0.87      0.00
    9   13    2      1.12      0.00
   11   13    2     -1.65      0.00
   13   13    2      1.04      0.00
    0   14    2     -4.29      0.00
    2   14    2     -6.14      0.00
    4   14    2      1.35      0.00
    6   14    2      5.51      0.00
    8   14    2      1.85      0.00
   10   14    2      0.78      0.00
   12   14    2      1.06      0.00
   14   14    2     -1.34      0.00
    1   15    2     -3.04      0.00
    3   15    2      0.73      0.00
    5   15    2      0.12      0.00
    7   15    2     -0.91      0.00
    9   15    2      0.52      0.00
   11   15    2     -0.17      0.00
   13   15    2      0.89      0.00
   15   15    2     -0.07      0.00
    0   16    2      7.27      0.00
    2   16    2      3.87      0.00
    4   16    2      2.34      0.00
    6   16    2     -5.66      0.00
    8   16    2     -4.26      0.00
   10   16    2      1.09      0.00
   12   16    2     -1.00      0.00
   14   16    2      0.81      0.00
   16   16    2     -1.96      0.00
    1   17    2     -2.02      0.00
    3   17    2      2.41      0.00
    5   17    2     -1.38      0.00
    7   17    2     -3.12      0.00
    9   17    2     -2.16      0.00
   11   17    2     -0.27      0.00
   13   17    2      0.61      0.00
   15   17    2      0.21      0.00
   17   17    2     -1.48      0.00
    0   18    2     -6.19      0.00
    2   18    2     -0.03      0.00
    4   18    2      1.75      0.00
    6   18    2     -5.83      0.00
    8   18    2      0.01      0.00
   10   18    2      0.20      0.00
   12   18    2     -0.36      0.00
   14   18    2      0.21      0.00
   16   18    2     -0.79      0.00
   18   18    2     -2.66      0.00
    1   19    2      3.12      0.00
    3   19    2      3.99      0.00
    5   19    2     -4.32      0.00
    7   19    2     -4.37      0.00
    9   19    2     -1.90      0.00
   11   19    2      1.71      0.00
   13   19    2      2.81      0.00
   15   19    2     -1.77      0.00
   17   19    2     -0.39      0.00
   19   19    2      0.03      0.00
    0   20    2     -3.15      0.00
    2   20    2     -0.45      0.00
    4   20    2      2.39      0.00
    6   20    2     -3.51      0.00
    8   20    2     -3.65      0.00
   10   20    2      0.54      0.00
   12   20    2      0.09      0.00
   14   20    2      1.60      0.00
   16   20    2      1.25      0.00
   18   20    2      1.89      0.00
    1   21    2     -3.26      0.00
    3   21    2     -0.08      0.00
    5   21    2     -4.96      0.00
    7   21    2     -2.19      0.00
    9   21    2      2.74      0.00
   11   21    2      2.75      0.00
   13   21    2      0.11      0.00
   15   21    2     -2.11      0.00
   17   21    2     -1.57      0.00
    0   22    2      0.96      0.00
    2   22    2      3.55      0.00
    4   22    2     -0.81      0.00
    6   22    2     -3.00      0.00
    8   22    2      2.16      0.00
   10   22    2      2.19      0.00
   12   22    2      1.87      0.00
   14   22    2      1.91      0.00
   16   22    2     -0.45      0.00
    1   23    2      0.72      0.00
    3   23    2      6.29      0.00
    5   23    2     -3.10      0.00
    7   23    2      1.73      0.00
    9   23    2      2.74      0.00
   11   23    2     -0.08      0.00
   13   23    2      0.19      0.00
   15   23    2     -0.32      0.00
    0   24    2     -2.34      0.00
    2   24    2      2.92      0.00
    4   24    2     -2.79      0.00
    6   24    2     -2.93      0.00
    8   24    2      0.84      0.00
   10   24    2      1.85      0.00
   12   24    2     -0.93      0.00
   14   24    2     -1.85      0.00
    1   25    2     -2.48      0.00
    3   25    2      1.36      0.00
    5   25    2     -1.04      0.00
    7   25    2     -1.16      0.00
    9   25    2     -1.02      0.00
   11   25    2     -2.41      0.00
    0   26    2      1.15      0.00
    2   26    2      2.01      0.00
    4   26    2     -0.48      0.00
    6   26    2     -0.32      0.00
    8   26    2     -1.13      0.00
   10   26    2      0.56      0.00
    3   27    2      0.77      0.00
    5   27    2     -1.57      0.00
    7   27    2     -3.47      0.00
    0    1    3    -32.77      0.00
    1    2    3     27.43      0.00
    0    3    3    -13.71      0.00
    2    3    3     -2.27      0.00
    1    4    3      1.63      0.00
    3    4    3      5.24      0.00
    0    5    3     21.30      0.00
    2    5    3      3.35      0.00
    4    5    3     -2.50      0.00
    1    6    3    -18.52      0.00
    3    6    3      4.06      0.00
    5    6    3     -5.35      0.00
    0    7    3     12.01      0.00
    2    7    3    -12.31      0.00
    4    7    3     -5.20      0.00
    6    7    3      9.86      0.00
    1    8    3      8.78      0.00
    3    8    3     16.24      0.00
    5    8    3    -10.74      0.00
    7    8    3     -9.74      0.00
    0    9    3     -5.67      0.00
    2    9    3     -4.81      0.00
    4    9    3      5.04      0.00
    6    9    3      5.94      0.00
    8    9    3     -0.81      0.00
    1   10    3     -7.63      0.00
    3   10    3     -6.80      0.00
    5   10    3      6.77      0.00
    7   10    3      0.89      0.00
    9   10    3     -4.08      0.00
    0   11    3      3.26      0.00
    2   11    3      3.45      0.00
    4   11    3      2.15      0.00
    6   11    3     -8.58      0.00
    8   11    3     -2.10      0.00
   10   11    3      2.38      0.00
    1   12    3     -3.49      0.00
    3   12    3      1.74      0.00
    5   12    3     -0.64      0.00
    7   12    3      2.49      0.00
    9   12    3     -0.79      0.00
   11   12    3     -2.71      0.00
    0   13    3     -4.45      0.00
    2   13    3     -2.92      0.00
    4   13    3     -2.95      0.00
    6   13    3      0.84      0.00
    8   13    3      0.11      0.00
   10   13    3      2.17      0.00
   12   13    3     -0.85      0.00
    1   14    3      7.72      0.00
    3   14    3     -2.31      0.00
    5   14    3     -1.87      0.00
    7   14    3     -1.53      0.00
    9   14    3     -2.85      0.00
   11   14    3      1.69      0.00
   13   14    3     -0.69      0.00
    0   15    3     -2.18      0.00
    2   15    3      2.62      0.00
    4   15    3      2.89      0.00
    6   15    3     -1.84      0.00
    8   15    3      1.29      0.00
   10   15    3     -0.51      0.00
   12   15    3     -1.66      0.00
   14   15    3     -0.11      0.00
    1   16    3     -3.79      0.00
    3   16    3     -4.29      0.00
    5   16    3      0.75      0.00
    7   16    3      4.05      0.00
    9   16    3      4.00      0.00
   11   16    3      1.62      0.00
   13   16    3     -1.46      0.00
   15   16    3      2.04      0.00
    0   17    3     -0.25      0.00
    2   17    3      0.20      0.00
    4   17    3     -3.24      0.00
    6   17    3      7.52      0.00
    8   17    3      2.97      0.00
   10   17    3     -3.15      0.00
   12   17    3      4.20      0.00
   14   17    3      0.08      0.00
   16   17    3      1.10      0.00
    1   18    3      0.32      0.00
    3   18    3      0.82      0.00
    5   18    3      5.51      0.00
    7   18    3      1.74      0.00
    9   18    3      1.50      0.00
   11   18    3     -2.00      0.00
   13   18    3      0.93      0.00
   15   18    3      0.02      0.00
   17   18    3      2.25      0.00
    0   19    3      2.24      0.00
    2   19    3     -5.96      0.00
    4   19    3     -1.43      0.00
    6   19    3      6.68      0.00
    8   19    3      1.76      0.00
   10   19    3      6.26      0.00
   12   19    3     -5.51      0.00
   14   19    3     -1.40      0.00
   16   19    3      2.13      0.00
   18   19    3      0.66      0.00
    1   20    3     -0.04      0.00
    3   20    3     -2.02      0.00
    5   20    3      2.46      0.00
    7   20    3      4.50      0.00
    9   20    3      3.57      0.00
   11   20    3     -1.57      0.00
   13   20    3     -1.84      0.00
   15   20    3      1.55      0.00
   17   20    3     -3.03      0.00
    0   21    3      3.98      0.00
    2   21    3      1.56      0.00
    4   21    3      0.64      0.00
    6   21    3      4.22      0.00
    8   21    3      2.00      0.00
   10   21    3     -7.47      0.00
   12   21    3      6.11      0.00
   14   21    3     -3.58      0.00
   16   21    3     -2.29      0.00
    1   22    3     -1.95      0.00
    3   22    3     -3.09      0.00
    5   22    3      4.40      0.00
    7   22    3     -1.71      0.00
    9   22    3     -1.65      0.00
   11   22    3      0.40      0.00
   13   22    3     -7.31      0.00
   15   22    3      3.16      0.00
    0   23    3      0.17      0.00
    2   23    3     -3.86      0.00
    4   23    3     -2.71      0.00
    6   23    3     -1.51      0.00
    8   23    3     -1.15      0.00
   10   23    3      1.91      0.00
   12   23    3     -4.68      0.00
    1   24    3      7.40      0.00
    3   24    3     -8.30      0.00
    5   24    3      2.91      0.00
    7   24    3      0.07      0.00
    9   24    3     -0.13      0.00
   11   24    3     -2.36      0.00
    0   25    3     -0.21      0.00
    2   25    3      4.33      0.00
    4   25    3      2.83      0.00
    6   25    3     -0.36      0.00
    8   25    3      0.81      0.00
   10   25    3     -1.32      0.00
    5   26    3     -5.39      0.00
    7   26    3      5.75      0.00
    0    0    4     38.76      0.00
    1    1    4    -12.77      0.00
    0    2    4     -0.89      0.00
    2    2    4    -28.14      0.00
    1    3    4      3.76      0.00
    3    3    4      3.43      0.00
    0    4    4     -4.18      0.00
    2    4    4     -0.60      0.00
    4    4    4      3.38      0.00
    1    5    4     -2.12      0.00
    3    5    4     -9.57      0.00
    5    5    4     12.99      0.00
    0    6    4      1.32      0.00
    2    6    4     13.50      0.00
    4    6    4      3.86      0.00
    6    6    4    -10.43      0.00
    1    7    4      3.28      0.00
    3    7    4     -6.28      0.00
    5    7    4      7.54      0.00
    7    7    4     -0.76      0.00
    0    8    4    -18.30      0.00
    2    8    4     -5.72      0.00
    4    8    4     -2.07      0.00
    6    8    4      2.58      0.00
    8    8    4      9.91      0.00
    1    9    4      5.78      0.00
    3    9    4     -3.91      0.00
    5    9    4     -3.91      0.00
    7    9    4     -2.02      0.00
    9    9    4      0.58      0.00
    0   10    4      6.44      0.00
    2   10    4      7.61      0.00
    4   10    4     -1.35      0.00
    6   10    4     -2.33      0.00
    8   10    4     -0.31      0.00
   10   10    4     -2.19      0.00
    1   11    4     -3.15      0.00
    3   11    4     -0.51      0.00
    5   11    4      3.57      0.00
    7   11    4      4.02      0.00
    9   11    4      0.28      0.00
   11   11    4     -3.12      0.00
    0   12    4      6.85      0.00
    2   12    4     -0.83      0.00
    4   12    4     -2.52      0.00
    6   12    4      1.52      0.00
    8   12    4     -3.33      0.00
   10   12    4      0.56      0.00
   12   12    4      3.13      0.00
    1   13    4      0.95      0.00
    3   13    4      5.70      0.00
    5   13    4     -2.09      0.00
    7   13    4     -2.74      0.00
    9   13    4      2.64      0.00
   11   13    4     -3.86      0.00
   13   13    4      1.04      0.00
    0   14    4     -3.97      0.00
    2   14    4     -4.92      0.00
    4   14    4      1.02      0.00
    6   14    4      4.44      0.00
    8   14    4      2.41      0.00
   10   14    4     -2.18      0.00
   12   14    4     -0.49      0.00
   14   14    4      2.27      0.00
    1   15    4     -0.94      0.00
    3   15    4      0.86      0.00
    5   15    4     -2.83      0.00
    7   15    4     -0.63      0.00
    9   15    4      2.52      0.00
   11   15    4      2.89      0.00
   13   15    4      1.41      0.00
   15   15    4     -0.73      0.00
    0   16    4      3.49      0.00
    2   16    4      4.59      0.00
    4   16    4      2.25      0.00
    6   16    4     -2.59      0.00
    8   16    4     -2.29      0.00
   10   16    4      0.03      0.00
   12   16    4     -2.56      0.00
   14   16    4      1.09      0.00
   16   16    4      0.64      0.00
    1   17    4      0.24      0.00
    3   17    4      1.40      0.00
    5   17    4     -0.49      0.00
    7   17    4     -1.34      0.00
    9   17    4     -1.11      0.00
   11   17    4     -1.54      0.00
   13   17    4     -1.81      0.00
   15   17    4     -1.03      0.00
   17   17    4      2.49      0.00
    0   18    4     -3.24      0.00
    2   18    4      0.94      0.00
    4   18    4     -0.21      0.00
    6   18    4     -6.96      0.00
    8   18    4      0.54      0.00
   10   18    4      2.09      0.00
   12   18    4      0.10      0.00
   14   18    4     -0.34      0.00
   16   18    4     -0.58      0.00
    1   19    4      2.20      0.00
    3   19    4      2.64      0.00
    5   19    4     -1.58      0.00
    7   19    4     -2.84      0.00
    9   19    4     -5.31      0.00
   11   19    4      0.45      0.00
   13   19    4      2.56      0.00
   15   19    4      1.18      0.00
    0   20    4     -0.23      0.00
    2   20    4      1.40      0.00
    4   20    4      2.41      0.00
    6   20    4     -5.28      0.00
    8   20    4     -2.85      0.00
   10   20    4      0.03      0.00
   12   20    4     -1.54      0.00
   14   20    4      1.25      0.00
    1   21    4     -2.10      0.00
    3   21    4      0.19      0.00
    5   21    4     -4.78      0.00
    7   21    4      0.49      0.00
    9   21    4     -0.39      0.00
   11   21    4      0.57      0.00
   13   21    4      1.42      0.00
    0   22    4     -1.16      0.00
    2   22    4      3.48      0.00
    4   22    4     -0.09      0.00
    6   22    4     -1.25      0.00
    8   22    4      2.33      0.00
   10   22    4      0.10      0.00
   12   22    4     -1.29      0.00
    1   23    4      0.75      0.00
    3   23    4      6.60      0.00
    5   23    4      0.05      0.00
    7   23    4      1.92      0.00
    9   23    4     -0.23      0.00
    0   24    4     -5.00      0.00
    2   24    4     -0.35      0.00
    4   24    4      3.33      0.00
    6   24    4      0.91      0.00
    0    1    5     -7.60      0.00
    1    2    5     10.90      0.00
    0    3    5     -9.11      0.00
    2    3    5      2.19      0.00
    1    4    5     -1.56      0.00
    3    4    5     -1.54      0.00
    0    5    5     -2.32      0.00
    2    5    5      3.96      0.00
    4    5    5     -2.46      0.00
    1    6    5     -7.50      0.00
    3    6    5      0.95      0.00
    5    6    5     -4.97      0.00
    0    7    5      9.61      0.00
    2    7    5     -5.35      0.00
    4    7    5     -1.34      0.00
    6    7    5      3.07      0.00
    1    8    5      5.13      0.00
    3    8    5     11.33      0.00
    5    8    5     -6.27      0.00
    7    8    5     -3.74      0.00
    0    9    5      2.17      0.00
    2    9    5     -4.43      0.00
    4    9    5      2.14      0.00
    6    9    5      3.40      0.00
    8    9    5     -1.60      0.00
    1   10    5     -6.07      0.00
    3   10    5     -3.84      0.00
    5   10    5      0.84      0.00
    7   10    5      0.29      0.00
    9   10    5      3.81      0.00
    0   11    5     -0.47      0.00
    2   11    5      0.69      0.00
    4   11    5     -2.02      0.00
    6   11    5     -3.00      0.00
    8   11    5      1.42      0.00
   10   11    5      1.99      0.00
    1   12    5     -1.50      0.00
    3   12    5      0.59      0.00
    5   12    5      0.16      0.00
    7   12    5      3.18      0.00
    9   12    5     -2.03      0.00
   11   12    5      2.70      0.00
    0   13    5     -3.52      0.00
    2   13    5     -0.78      0.00
    4   13    5      1.19      0.00
    6   13    5     -0.26      0.00
    8   13    5      0.11      0.00
   10   13    5      3.17      0.00
   12   13    5     -0.52      0.00
    1   14    5      5.44      0.00
    3   14    5     -3.94      0.00
    5   14    5      3.06      0.00
    7   14    5     -1.80      0.00
    9   14    5     -1.80      0.00
   11   14    5     -0.23      0.00
   13   14    5      1.82      0.00
    0   15    5      0.11      0.00
    2   15    5      1.04      0.00
    4   15    5      1.06      0.00
    6   15    5      0.15      0.00
    8   15    5     -0.67      0.00
   10   15    5     -2.31      0.00
   12   15    5      0.18      0.00
   14   15    5     -4.48      0.00
    1   16    5     -2.78      0.00
    3   16    5     -3.72      0.00
    5   16    5      0.36      0.00
    7   16    5      2.86      0.00
    9   16    5     -2.49      0.00
   11   16    5      2.75      0.00
   13   16    5     -1.14      0.00
   15   16    5      0.87      0.00
    0   17    5      4.02      0.00
    2   17    5     -3.13      0.00
    4   17    5     -1.20      0.00
    6   17    5      0.85      0.00
    8   17    5      0.90      0.00
   10   17    5     -1.72      0.00
   12   17    5      2.13      0.00
   14   17    5      4.06      0.00
   16   17    5     -6.05      0.00
    1   18    5      3.12      0.00
    3   18    5     -0.22      0.00
    5   18    5     -0.51      0.00
    7   18    5      0.72      0.00
    9   18    5      0.15      0.00
   11   18    5      1.71      0.00
   13   18    5     -0.25      0.00
   15   18    5     -2.83      0.00
    0   19    5     -1.28      0.00
    2   19    5     -1.06      0.00
    4   19    5     -2.63      0.00
    6   19    5      4.60      0.00
    8   19    5      1.76      0.00
   10   19    5     -0.13      0.00
   12   19    5      1.48      0.00
    1   20    5      0.33      0.00
    3   20    5     -2.14      0.00
    5   20    5      2.59      0.00
    7   20    5      0.42      0.00
    9   20    5      4.69      0.00
   11   20    5     -3.36      0.00
    0   21    5      3.28      0.00
    2   21    5      4.02      0.00
    4   21    5     -1.28      0.00
    6   21    5      3.53      0.00
    8   21    5     -2.58      0.00
   10   21    5      0.92      0.00
    1   22    5     -1.53      0.00
    3   22    5      1.16      0.00
    5   22    5      4.12      0.00
    7   22    5     -4.10      0.00
    0   23    5      4.82      0.00
    2   23    5     -5.97      0.00
    0    0    6     22.54      0.00
    1    1    6     -0.98      0.00
    0    2    6      1.26      0.00
    2    2    6     -8.01      0.00
    1    3    6      3.33      0.00
    3    3    6      5.36      0.00
    0    4    6      4.32      0.00
    2    4    6     -1.20      0.00
    4    4    6      2.62      0.00
    1    5    6     -1.26      0.00
    3    5    6     -4.53      0.00
    5    5    6      7.17      0.00
    0    6    6     -0.15      0.00
    2    6    6      3.85      0.00
    4    6    6      3.77      0.00
    6    6    6     -3.79      0.00
    1    7    6      1.92      0.00
    3    7    6     -5.11      0.00
    5    7    6      5.67      0.00
    7    7    6      0.50      0.00
    0    8    6    -12.70      0.00
    2    8    6     -0.36      0.00
    4    8    6     -2.07      0.00
    6    8    6      0.60      0.00
    8    8    6      7.69      0.00
    1    9    6      3.31      0.00
    3    9    6     -3.29      0.00
    5    9    6     -0.79      0.00
    7    9    6     -2.77      0.00
    9    9    6      0.58      0.00
    0   10    6      4.60      0.00
    2   10    6      4.60      0.00
    4   10    6     -0.26      0.00
    6   10    6     -0.62      0.00
    8   10    6     -2.01      0.00
   10   10    6     -3.63      0.00
    1   11    6     -1.79      0.00
    3   11    6      2.62      0.00
    5   11    6      0.25      0.00
    7   11    6      1.62      0.00
    9   11    6      0.27      0.00
   11   11    6     -3.52      0.00
    0   12    6      4.59      0.00
    2   12    6     -1.91      0.00
    4   12    6     -1.09      0.00
    6   12    6     -0.45      0.00
    8   12    6     -2.13      0.00
   10   12    6      0.09      0.00
   12   12    6      3.07      0.00
    1   13    6     -0.13      0.00
    3   13    6      2.85      0.00
    5   13    6     -1.73      0.00
    7   13    6     -1.22      0.00
    9   13    6      0.63      0.00
   11   13    6     -3.24      0.00
   13   13    6      1.89      0.00
    0   14    6     -2.76      0.00
    2   14    6     -1.87      0.00
    4   14    6     -0.34      0.00
    6   14    6      1.66      0.00
    8   14    6      0.53      0.00
   10   14    6     -0.37      0.00
   12   14    6     -0.45      0.00
   14   14    6     -0.50      0.00
    1   15    6     -1.71      0.00
    3   15    6      1.66      0.00
    5   15    6     -2.58      0.00
    7   15    6     -3.64      0.00
    9   15    6      2.38      0.00
   11   15    6      2.15      0.00
   13   15    6      2.69      0.00
   15   15    6     -0.56      0.00
    0   16    6     -1.69      0.00
    2   16    6      3.93      0.00
    4   16    6      0.19      0.00
    6   16    6     -1.24      0.00
    8   16    6     -1.15      0.00
   10   16    6      0.91      0.00
   12   16    6     -1.31      0.00
   14   16    6      2.55      0.00
    1   17    6     -1.41      0.00
    3   17    6      0.78      0.00
    5   17    6      1.34      0.00
    7   17    6      1.28      0.00
    9   17    6      1.02      0.00
   11   17    6     -0.62      0.00
   13   17    6     -3.56      0.00
    0   18    6     -4.58      0.00
    2   18    6     -0.60      0.00
    4   18    6      2.21      0.00
    6   18    6     -1.22      0.00
    8   18    6      0.14      0.00
   10   18    6      1.13      0.00
   12   18    6     -0.20      0.00
    1   19    6      0.62      0.00
    3   19    6      0.94      0.00
    5   19    6      1.25      0.00
    7   19    6     -1.51      0.00
    9   19    6     -1.52      0.00
   11   19    6      0.23      0.00
    0   20    6     -2.55      0.00
    2   20    6     -0.10      0.00
    4   20    6      1.73      0.00
    6   20    6     -0.45      0.00
    8   20    6      0.23      0.00
    1   21    6     -3.06      0.00
    3   21    6     -2.19      0.00
    5   21    6     -1.95      0.00
    0    1    7     -8.57      0.00
    1    2    7      4.74      0.00
    0    3    7     -5.45      0.00
    2    3    7     -0.45      0.00
    1    4    7      0.73      0.00
    3    4    7     -0.27      0.00
    0    5    7      6.11      0.00
    2    5    7      4.18      0.00
    4    5    7     -2.54      0.00
    1    6    7     -1.53      0.00
    3    6    7      2.02      0.00
    5    6    7     -4.61      0.00
    0    7    7      4.04      0.00
    2    7    7     -2.54      0.00
    4    7    7     -1.49      0.00
    6    7    7      1.25      0.00
    1    8    7      1.99      0.00
    3    8    7      6.96      0.00
    5    8    7     -3.08      0.00
    7    8    7     -1.38      0.00
    0    9    7      1.32      0.00
    2    9    7     -2.95      0.00
    4    9    7      4.83      0.00
    6    9    7      3.01      0.00
    8    9    7     -1.57      0.00
    1   10    7     -3.01      0.00
    3   10    7     -1.77      0.00
    5   10    7      2.59      0.00
    7   10    7      1.53      0.00
    9   10    7     -0.13      0.00
    0   11    7      0.24      0.00
    2   11    7      1.30      0.00
    4   11    7     -0.12      0.00
    6   11    7     -1.58      0.00
    8   11    7     -1.11      0.00
   10   11    7      0.76      0.00
    1   12    7      0.31      0.00
    3   12    7      0.03      0.00
    5   12    7      0.70      0.00
    7   12    7      0.02      0.00
    9   12    7      0.99      0.00
   11   12    7     -0.49      0.00
    0   13    7     -3.88      0.00
    2   13    7      1.14      0.00
    4   13    7     -2.52      0.00
    6   13    7      2.79      0.00
    8   13    7     -0.30      0.00
   10   13    7      0.55      0.00
   12   13    7     -2.16      0.00
    1   14    7      1.99      0.00
    3   14    7     -0.87      0.00
    5   14    7      1.21      0.00
    7   14    7     -0.87      0.00
    9   14    7     -1.90      0.00
   11   14    7      1.40      0.00
   13   14    7     -2.15      0.00
    0   15    7      3.39      0.00
    2   15    7     -1.15      0.00
    4   15    7      2.82      0.00
    6   15    7     -1.42      0.00
    8   15    7      5.07      0.00
   10   15    7     -1.24      0.00
   12   15    7     -5.59      0.00
   14   15    7      0.55      0.00
    1   16    7      1.00      0.00
    3   16    7     -3.30      0.00
    5   16    7      1.43      0.00
    7   16    7      4.59      0.00
    9   16    7     -4.67      0.00
   11   16    7      0.69      0.00
   13   16    7     -0.56      0.00
    0   17    7      1.48      0.00
    2   17    7      1.46      0.00
    4   17    7      0.23      0.00
    6   17    7     -1.80      0.00
    8   17    7     -4.79      0.00
   10   17    7      1.38      0.00
   12   17    7      0.60      0.00
    1   18    7      2.62      0.00
    3   18    7      0.17      0.00
    5   18    7     -2.55      0.00
    7   18    7     -0.56      0.00
    9   18    7      1.68      0.00
    0   19    7      6.15      0.00
    2   19    7     -4.33      0.00
    4   19    7     -1.68      0.00
    6   19    7     -0.23      0.00
    0    0    8     16.66      0.00
    1    1    8     -0.72      0.00
    0    2    8     -0.41      0.00
    2    2    8     -4.86      0.00
    1    3    8      3.15      0.00
    3    3    8      2.34      0.00
    0    4    8     -0.58      0.00
    2    4    8      0.51      0.00
    4    4    8      3.81      0.00
    1    5    8     -3.06      0.00
    3    5    8     -3.35      0.00
    5    5    8      7.14      0.00
    0    6    8      1.10      0.00
    2    6    8      2.84      0.00
    4    6    8     -0.57      0.00
    6    6    8      0.52      0.00
    1    7    8      1.35      0.00
    3    7    8      0.24      0.00
    5    7    8      2.41      0.00
    7    7    8     -1.40      0.00
    0    8    8     -3.68      0.00
    2    8    8     -1.95      0.00
    4    8    8     -0.44      0.00
    6    8    8     -0.95      0.00
    8    8    8      2.91      0.00
    1    9    8      1.67      0.00
    3    9    8     -2.27      0.00
    5    9    8     -1.54      0.00
    7    9    8     -1.63      0.00
    9    9    8     -0.35      0.00
    0   10    8     -0.38      0.00
    2   10    8      3.01      0.00
    4   10    8      0.13      0.00
    6   10    8     -0.21      0.00
    8   10    8     -0.04      0.00
   10   10    8     -0.70      0.00
    1   11    8     -0.95      0.00
    3   11    8     -0.55      0.00
    5   11    8      1.36      0.00
    7   11    8      1.33      0.00
    9   11    8      1.10      0.00
   11   11    8     -1.58      0.00
    0   12    8      0.69      0.00
    2   12    8     -0.16      0.00
    4   12    8     -0.19      0.00
    6   12    8     -0.59      0.00
    8   12    8     -1.14      0.00
   10   12    8     -1.42      0.00
   12   12    8      1.35      0.00
    1   13    8      1.73      0.00
    3   13    8      1.31      0.00
    5   13    8     -1.37      0.00
    7   13    8     -1.77      0.00
    9   13    8      0.64      0.00
   11   13    8     -0.35      0.00
   13   13    8      1.08      0.00
    0   14    8     -0.23      0.00
    2   14    8     -1.34      0.00
    4   14    8     -0.97      0.00
    6   14    8      0.44      0.00
    8   14    8      1.62      0.00
   10   14    8     -0.96      0.00
   12   14    8      3.05      0.00
   14   14    8     -2.36      0.00
    1   15    8     -1.60      0.00
    3   15    8      0.43      0.00
    5   15    8     -3.76      0.00
    7   15    8      0.01      0.00
    9   15    8      0.04      0.00
   11   15    8     -0.55      0.00
   13   15    8      3.18      0.00
    0   16    8     -1.15      0.00
    2   16    8      0.23      0.00
    4   16    8      0.29      0.00
    6   16    8     -2.81      0.00
    8   16    8     -0.33      0.00
   10   16    8      0.26      0.00
   12   16    8      1.83      0.00
    1   17    8     -3.68      0.00
    3   17    8     -0.91      0.00
    5   17    8      2.67      0.00
    7   17    8     -0.13      0.00
    0    1    9     -5.21      0.00
    1    2    9      3.58      0.00
    0    3    9     -3.34      0.00
    2    3    9     -0.60      0.00
    1    4    9     -0.54      0.00
    3    4    9     -2.36      0.00
    0    5    9      2.08      0.00
    2    5    9      1.42      0.00
    4    5    9     -0.09      0.00
    1    6    9     -3.12      0.00
    3    6    9      1.60      0.00
    5    6    9     -2.94      0.00
    0    7    9      0.19      0.00
    2    7    9     -2.88      0.00
    4    7    9     -0.77      0.00
    6    7    9      3.32      0.00
    1    8    9      1.65      0.00
    3    8    9      3.55      0.00
    5    8    9     -0.97      0.00
    7    8    9     -0.93      0.00
    0    9    9      1.00      0.00
    2    9    9     -0.05      0.00
    4    9    9      0.16      0.00
    6    9    9      2.52      0.00
    8    9    9      0.49      0.00
    1   10    9     -0.13      0.00
    3   10    9     -2.38      0.00
    5   10    9     -0.47      0.00
    7   10    9      0.79      0.00
    9   10    9     -0.65      0.00
    0   11    9     -2.50      0.00
    2   11    9      3.53      0.00
    4   11    9      0.95      0.00
    6   11    9     -5.88      0.00
    8   11    9      0.92      0.00
   10   11    9      1.72      0.00
    1   12    9      0.14      0.00
    3   12    9     -0.91      0.00
    5   12    9      0.95      0.00
    7   12    9      2.98      0.00
    9   12    9     -1.00      0.00
   11   12    9      2.42      0.00
    0   13    9      3.03      0.00
    2   13    9     -4.73      0.00
    4   13    9      0.69      0.00
    6   13    9      2.49      0.00
    8   13    9      1.16      0.00
   10   13    9     -0.14      0.00
   12   13    9     -0.75      0.00
    1   14    9     -1.09      0.00
    3   14    9      5.11      0.00
    5   14    9     -0.33      0.00
    7   14    9     -4.91      0.00
    9   14    9      2.40      0.00
   11   14    9      0.10      0.00
    0   15    9      3.45      0.00
    2   15    9      0.95      0.00
    4   15    9     -1.53      0.00
    6   15    9      5.34      0.00
    8   15    9     -4.58      0.00
   10   15    9      3.95      0.00
    0    0   10     12.51      0.00
    1    1   10     -0.94      0.00
    0    2   10     -2.16      0.00
    2    2   10     -5.67      0.00
    1    3   10     -0.13      0.00
    3    3   10      0.73      0.00
    0    4   10     -0.51      0.00
    2    4   10      0.76      0.00
    4    4   10     -0.66      0.00
    1    5   10     -2.48      0.00
    3    5   10     -0.63      0.00
    5    5   10      2.48      0.00
    0    6   10      0.51      0.00
    2    6   10      1.70      0.00
    4    6   10      1.95      0.00
    6    6   10     -1.44      0.00
    1    7   10      2.56      0.00
    3    7   10      0.45      0.00
    5    7   10      0.62      0.00
    7    7   10     -0.48      0.00
    0    8   10     -3.39      0.00
    2    8   10     -0.51      0.00
    4    8   10      0.26      0.00
    6    8   10     -0.67      0.00
    8    8   10      0.86      0.00
    1    9   10      0.53      0.00
    3    9   10     -1.60      0.00
    5    9   10     -0.20      0.00
    7    9   10     -1.22      0.00
    9    9   10      1.30      0.00
    0   10   10      3.94      0.00
    2   10   10     -0.68      0.00
    4   10   10      0.07      0.00
    6   10   10      0.77      0.00
    8   10   10      0.24      0.00
   10   10   10     -0.52      0.00
    1   11   10     -1.34      0.00
    3   11   10     -0.26      0.00
    5   11   10      2.15      0.00
    7   11   10      0.29      0.00
    9   11   10     -0.11      0.00
    0   12   10      1.19      0.00
    2   12   10      0.77      0.00
    4   12   10     -1.57      0.00
    6   12   10      0.06      0.00
    8   12   10     -0.65      0.00
    1   13   10      1.46      0.00
    3   13   10      0.72      0.00
    5   13   10      0.44      0.00
    1    2   11      3.58      0.00
    0    3   11     -0.45      0.00
    2    3   11      3.05      0.00
    1    4   11      0.53      0.00
    3    4   11     -1.37      0.00
    0    5   11      2.14      0.00
    2    5   11      0.24      0.00
    4    5   11      1.14      0.00
    1    6   11      0.20      0.00
    3    6   11     -2.43      0.00
    5    6   11     -3.33      0.00
    0    7   11     -0.41      0.00
    2    7   11     -3.81      0.00
    4    7   11     -1.90      0.00
    1    8   11      0.72      0.00
    3    8   11     -0.76      0.00
    0    9   11     -2.13      0.00
    2    9   11      2.25      0.00
    1   10   11     -3.31      0.00
    1    1    0     43.21      0.00
    0    2    0   -101.78      0.00
    2    2    0     45.42      0.00
   19   19    0     -3.65      0.00
   18   20    0      4.39      0.00
   20   20    0      0.64      0.00
   17   21    0     -5.47      0.00
   19   21    0      3.32      0.00
   16   22    0      5.03      0.00
   18   22    0     -5.06      0.00
   15   23    0      1.24      0.00
   17   23    0      3.63      0.00
   14   24    0      1.94      0.00
   11   25    0     -0.34      0.00
   13   25    0      3.95      0.00
   10   26    0     -2.87      0.00
   12   26    0      4.52      0.00
    9   27    0     -3.47      0.00
    6   28    0     -0.37      0.00
   15   24    1      0.64      0.00
    3   28    1      1.47      0.00
    5   28    1     -0.36      0.00
   13   25    2      2.98      0.00
    1   27    2      4.80      0.00
    0   28    2      2.15      0.00
    2   28    2      2.46      0.00
   19   20    3     -1.54      0.00
   18   21    3      0.81      0.00
   14   23    3      1.50      0.00
   13   24    3      2.85      0.00
   12   25    3     -1.22      0.00
    1   26    3     -0.72      0.00
    3   26    3      5.20      0.00
    9   26    3     -3.36      0.00
    0   27    3      5.29      0.00
    2   27    3     -4.89      0.00
    4   27    3      0.44      0.00
    6   27    3      3.80      0.00
   18   18    4     -3.88      0.00
   17   19    4     -2.10      0.00
   19   19    4     -0.17      0.00
   16   20    4      0.04      0.00
   18   20    4      3.11      0.00
   15   21    4     -0.33      0.00
   14   22    4      5.03      0.00
   11   23    4      0.78      0.00
   13   23    4      2.78      0.00
    8   24    4     -0.82      0.00
   10   24    4      0.28      0.00
   12   24    4      4.00      0.00
    1   25    4     -3.11      0.00
    3   25    4     -0.84      0.00
    5   25    4      0.38      0.00
    7   25    4     -3.03      0.00
    9   25    4      4.02      0.00
    0   26    4      3.18      0.00
    2   26    4     -1.70      0.00
    4   26    4     -2.67      0.00
    6   26    4      2.25      0.00
   17   18    5      2.12      0.00
   14   19    5     -1.75      0.00
   16   19    5      1.55      0.00
   13   20    5      2.60      0.00
   15   20    5      1.95      0.00
   12   21    5      4.02      0.00
   14   21    5     -4.10      0.00
    9   22    5     -0.69      0.00
   11   22    5      2.52      0.00
   13   22    5     -2.85      0.00
    4   23    5     -1.21      0.00
    6   23    5      0.28      0.00
    8   23    5     -1.23      0.00
   10   23    5     -0.09      0.00
   12   23    5     -1.53      0.00
    1   24    5      3.17      0.00
    3   24    5     -3.36      0.00
    5   24    5     -0.83      0.00
    7   24    5      2.07      0.00
    9   24    5     -1.85      0.00
    0   25    5     -3.46      0.00
    2   25    5      2.38      0.00
    4   25    5      3.21      0.00
    6   25    5     -1.38      0.00
   16   16    6      1.62      0.00
   15   17    6      2.48      0.00
   17   17    6      2.77      0.00
   14   18    6     -1.11      0.00
   16   18    6      2.90      0.00
   13   19    6     -0.02      0.00
   15   19    6     -0.42      0.00
   10   20    6     -0.14      0.00
   12   20    6     -3.20      0.00
   14   20    6     -0.13      0.00
    7   21    6      3.86      0.00
    9   21    6     -1.47      0.00
   11   21    6     -1.14      0.00
   13   21    6     -0.50      0.00
    0   22    6      1.15      0.00
    2   22    6     -0.97      0.00
    4   22    6     -1.58      0.00
    6   22    6     -1.77      0.00
    8   22    6      3.73      0.00
   10   22    6     -0.73      0.00
    1   23    6     -0.58      0.00
    3   23    6      3.77      0.00
    5   23    6     -1.41      0.00
    7   23    6      1.19      0.00
    9   23    6      1.62      0.00
    0   24    6     -0.40      0.00
    2   24    6     -0.11      0.00
    4   24    6     -0.71      0.00
   15   16    7     -1.79      0.00
   14   17    7     -0.42      0.00
   11   18    7     -4.89      0.00
   13   18    7      0.72      0.00
    8   19    7      0.54      0.00
   10   19    7     -2.56      0.00
   12   19    7      2.07      0.00
    1   20    7     -0.38      0.00
    3   20    7      2.25      0.00
    5   20    7     -2.85      0.00
    7   20    7     -4.68      0.00
    9   20    7      1.30      0.00
   11   20    7      3.06      0.00
    0   21    7      0.53      0.00
    2   21    7      3.25      0.00
    4   21    7     -1.35      0.00
    6   21    7      0.20      0.00
    8   21    7     -1.16      0.00
    1   22    7      0.54      0.00
    3   22    7     -1.93      0.00
    5   22    7      2.59      0.00
    7   22    7     -1.78      0.00
    0   23    7     -3.53      0.00
    2   23    7     -0.16      0.00
    9   17    8      2.67      0.00
   11   17    8     -0.27      0.00
    0   18    8     -6.35      0.00
    2   18    8      0.97      0.00
    4   18    8     -2.97      0.00
    6   18    8      2.63      0.00
    8   18    8      0.95      0.00
   10   18    8      0.53      0.00
    1   19    8     -2.09      0.00
    3   19    8      2.15      0.00
    5   19    8      1.25      0.00
    7   19    8      1.31      0.00
    9   19    8     -1.17      0.00
    0   20    8     -0.68      0.00
    2   20    8     -1.19      0.00
    4   20    8      2.52      0.00
    6   20    8      1.86      0.00
    1   21    8      0.15      0.00
    1   16    9      0.86      0.00
    3   16    9     -1.62      0.00
    5   16    9      1.63      0.00
    7   16    9      3.33      0.00
    9   16    9     -1.01      0.00
    0   17    9      1.30      0.00
    2   17    9      1.35      0.00
    4   17    9      3.35      0.00
    6   17    9     -4.28      0.00
    1   18    9      4.97      0.00
    3   18    9     -1.98      0.00
    7   13   10     -0.21      0.00
    0   14   10     -4.50      0.00
    2   14   10      1.06      0.00
    4   14   10      0.72      0.00
    6   14   10      1.16      0.00
    1   15   10      0.03      0.00
    3   15   10     -1.31      0.00
    0    1   11     -0.98      0.00
    6    7   11      1.17      0.00
    5    8   11     -0.31      0.00
    4    9   11     -1.54      0.00
    3   10   11      2.23      0.00
    0    0    0      0.00      0.00
# SQUEEZE RESULTS
# Note: Data are Listed for all Voids in the P1 Unit Cell
# i.e. Centre of Gravity, Solvent Accessible Volume,
# Recovered number of Electrons in the Void and
# Details about the Squeezed Material
loop_
  _platon_squeeze_void_nr
  _platon_squeeze_void_average_x
  _platon_squeeze_void_average_y
  _platon_squeeze_void_average_z
  _platon_squeeze_void_volume
  _platon_squeeze_void_count_electrons
  _platon_squeeze_void_content
   1  0.214  0.311 -0.159      2157       517 ' '
# Missing Reflections Below sin(th)/lambda= 0.25
loop_
  _platon_missing_refln_index_h
  _platon_missing_refln_index_k
  _platon_missing_refln_index_l
  _platon_missing_refln_theta
    1    1    0     1.398
    0    2    0     1.977
    2    2    0     2.796
_platon_squeeze_void_probe_radius                  1.20
_platon_squeeze_details
)
TITL shelx     I 4/m m m    R = 0.08
CELL   20.6040   20.6040    8.5110     90.00     90.00     90.00
SPGR I4/mmm
# Solvent Accessible Volume =    2188.4
# Electrons Found in S.A.V. =     511.8
# Note: Atoms in Void as Cxxx and Qxxx all others
C101 0.576 0.187-0.012 !       3.36 eA-3
C102 0.673 0.469 0.010 !       1.63 eA-3
C103 0.583 0.500 0.031 !       1.42 eA-3
C104 0.414 0.391 0.003 !       1.13 eA-3
C105 0.635 0.187 0.058 !       1.12 eA-3
C106 0.657 0.796 0.123 !       1.12 eA-3
Q107 0.194 0.500 0.000 !       1.12 eA-3
C108 0.433 0.313 0.005 !       1.00 eA-3
C109 0.354 0.219 0.000 !       0.99 eA-3
C110 0.457 0.609 0.024 !       0.95 eA-3
C111 0.339 0.170 0.206 !       0.94 eA-3
C112 0.420 0.424 0.122 !       0.93 eA-3
C113 0.738 0.281 0.006 !       0.93 eA-3
C114 0.607 0.312-0.003 !       0.91 eA-3
C115 0.183 0.318 0.224 !       0.89 eA-3
C116 0.358 0.266 0.023 !       0.88 eA-3
Q117 1.000 0.640 0.250 !       0.87 eA-3
Q118 1.000 0.453-0.003 !       0.86 eA-3
C119 0.767 0.327 0.044 !       0.85 eA-3
Q120 0.378 0.046 0.250 !       0.85 eA-3
C121 0.179 0.690 0.139 !       0.85 eA-3
C122 0.548 0.421 0.025 !       0.82 eA-3
Q123 1.000 0.203 0.007 !       0.74 eA-3
C124 0.470 0.419 0.117 !       0.73 eA-3
Q125 1.000 1.000 0.000 !       0.72 eA-3
C126 0.234 0.366 0.083 !       0.68 eA-3
C127 0.747 0.730 0.150 !       0.65 eA-3
C128 0.312 0.297 0.010 !       0.62 eA-3
Q129 0.593 0.094 0.248 !       0.61 eA-3
C130 0.685 0.148 0.237 !       0.60 eA-3
Q131 1.000 0.754 0.210 !       0.58 eA-3
C132 0.453 0.471 0.119 !       0.58 eA-3
Q133 0.937 0.063 0.000 !       0.57 eA-3
Q134 0.029 0.156-0.001 !       0.56 eA-3
C135 0.714 0.797 0.113 !       0.53 eA-3
)
;
_shelx_fab_checksum              84730
loop_
_space_group_symop_operation_xyz
'x, y, z'
'-x, -y, z'
'-y, x, z'
'y, -x, z'
'-x, y, -z'
'x, -y, -z'
'y, x, -z'
'-y, -x, -z'
'x+1/2, y+1/2, z+1/2'
'-x+1/2, -y+1/2, z+1/2'
'-y+1/2, x+1/2, z+1/2'
'y+1/2, -x+1/2, z+1/2'
'-x+1/2, y+1/2, -z+1/2'
'x+1/2, -y+1/2, -z+1/2'
'y+1/2, x+1/2, -z+1/2'
'-y+1/2, -x+1/2, -z+1/2'
'-x, -y, -z'
'x, y, -z'
'y, -x, -z'
'-y, x, -z'
'x, -y, z'
'-x, y, z'
'-y, -x, z'
'y, x, z'
'-x+1/2, -y+1/2, -z+1/2'
'x+1/2, y+1/2, -z+1/2'
'y+1/2, -x+1/2, -z+1/2'
'-y+1/2, x+1/2, -z+1/2'
'x+1/2, -y+1/2, z+1/2'
'-x+1/2, y+1/2, z+1/2'
'-y+1/2, -x+1/2, z+1/2'
'y+1/2, x+1/2, z+1/2'
loop_
_atom_site_label
_atom_site_type_symbol
_atom_site_fract_x
_atom_site_fract_y
_atom_site_fract_z
_atom_site_U_iso_or_equiv
_atom_site_adp_type
_atom_site_occupancy
_atom_site_site_symmetry_order
_atom_site_calc_flag
_atom_site_refinement_flags_posn
_atom_site_refinement_flags_adp
_atom_site_refinement_flags_occupancy
La1 La 0.500000 0.000000 0.250000 0.02907(16) Uani 1 8 d S T P
O1 O 0.500000 -0.06112(18) 0.500000 0.0370(10) Uani 1 4 d S T P
C1 C 0.500000 -0.1258(3) 0.500000 0.0361(13) Uani 1 4 d S T P
C4 C 0.500000 -0.2601(2) 0.500000 0.0363(14) Uani 1 4 d S T P
C2 C 0.500000 -0.1595(2) 0.6388(6) 0.0579(15) Uani 1 2 d S T P
C5 C 0.500000 -0.3329(3) 0.500000 0.0357(15) Uani 1 4 d S T P
C3 C 0.500000 -0.2280(2) 0.6374(7) 0.0607(16) Uani 1 2 d DS T P
H3 H 0.500000 -0.250884 0.731621 0.073 Uiso 1 2 calc R U P
O2 O 0.500000 -0.1234(2) 0.7713(4) 0.122(3) Uani 1 2 d DS T P
H2 H 0.500000 -0.1451(11) 0.852(2) 0.146 Uiso 0.75 2 d DS U P
N1 N 0.57066(16) -0.42934(16) 0.500000 0.0399(13) Uani 1 4 d S T P
H1 H 0.541149 -0.458853 0.500000 0.048 Uiso 0.5 4 calc R U P
C6 C 0.55932(19) -0.36410(19) 0.500000 0.0406(11) Uani 1 2 d S T P
C7 C 0.6214(2) -0.3330(2) 0.500000 0.0637(17) Uani 1 2 d S T P
H7 H 0.628626 -0.288428 0.500000 0.076 Uiso 1 2 calc R U P
loop_
_atom_site_aniso_label
_atom_site_aniso_U_11
_atom_site_aniso_U_22
_atom_site_aniso_U_33
_atom_site_aniso_U_23
_atom_site_aniso_U_13
_atom_site_aniso_U_12
La1 0.03345(19) 0.03345(19) 0.0203(2) 0.000 0.000 0.000
O1 0.067(3) 0.0131(16) 0.031(2) 0.000 0.000 0.000
C1 0.055(4) 0.013(2) 0.040(3) 0.000 0.000 0.000
C4 0.042(3) 0.005(2) 0.062(4) 0.000 0.000 0.000
C2 0.113(5) 0.020(2) 0.041(3) -0.005(2) 0.000 0.000
C5 0.013(2) 0.020(2) 0.074(4) 0.000 0.000 0.000
C3 0.108(5) 0.023(2) 0.052(3) 0.008(2) 0.000 0.000
O2 0.305(10) 0.0243(18) 0.036(2) 0.0010(16) 0.000 0.000
N1 0.0186(13) 0.0186(13) 0.083(4) 0.000 0.000 0.0004(17)
C6 0.0226(18) 0.0187(17) 0.081(3) 0.000 0.000 -0.0084(15)
C7 0.032(2) 0.025(2) 0.134(5) 0.000 0.000 -0.0105(18)
loop_
_atom_type_symbol
_atom_type_description
_atom_type_scat_dispersion_real
_atom_type_scat_dispersion_imag
_atom_type_scat_source
C C 0.0033 0.0016 'International Tables Vol C Tables 4.2.6.8 and 6.1.1.4'
H H 0.0000 0.0000 'International Tables Vol C Tables 4.2.6.8 and 6.1.1.4'
N N 0.0061 0.0033 'International Tables Vol C Tables 4.2.6.8 and 6.1.1.4'
O O 0.0106 0.0060 'International Tables Vol C Tables 4.2.6.8 and 6.1.1.4'
La La -0.2871 2.4523 'International Tables Vol C Tables 4.2.6.8 and 6.1.1.4'
loop_
_geom_angle_atom_site_label_1
_geom_angle_atom_site_label_2
_geom_angle_atom_site_label_3
_geom_angle
_geom_angle_site_symmetry_1
_geom_angle_site_symmetry_3
O1 La1 O1 137.78(10) . 27
O1 La1 O1 61.24(15) . 17_656
O1 La1 O1 137.78(10) 27 17_656
O1 La1 O1 137.78(10) . 11_544
O1 La1 O1 61.25(15) 27 11_544
O1 La1 O1 137.78(10) 17_656 11_544
O1 La1 O2 86.50(7) . 11_544
O1 La1 O2 124.69(11) 27 11_544
O1 La1 O2 86.50(7) 17_656 11_544
O1 La1 O2 63.45(11) 11_544 11_544
O1 La1 O2 63.45(11) . 18_556
O1 La1 O2 86.50(7) 27 18_556
O1 La1 O2 124.69(11) 17_656 18_556
O1 La1 O2 86.50(7) 11_544 18_556
O2 La1 O2 90.289(12) 11_544 18_556
O1 La1 O2 86.50(7) . 12_554
O1 La1 O2 63.45(11) 27 12_554
O1 La1 O2 86.50(7) 17_656 12_554
O1 La1 O2 124.69(11) 11_544 12_554
O2 La1 O2 171.86(17) 11_544 12_554
O2 La1 O2 90.289(12) 18_556 12_554
O1 La1 O2 124.69(11) . 17_656
O1 La1 O2 86.50(7) 27 17_656
O1 La1 O2 63.45(11) 17_656 17_656
O1 La1 O2 86.50(7) 11_544 17_656
O2 La1 O2 90.289(12) 11_544 17_656
O2 La1 O2 171.86(17) 18_556 17_656
O2 La1 O2 90.289(12) 12_554 17_656
C1 O1 La1 120.62(7) . 17_656
C1 O1 La1 120.62(7) . .
La1 O1 La1 118.76(15) 17_656 .
O1 C1 C2 120.5(3) . 18_556
O1 C1 C2 120.5(3) . .
C2 C1 C2 119.1(5) 18_556 .
C3 C4 C3 121.0(5) 18_556 .
C3 C4 C5 119.5(3) 18_556 .
C3 C4 C5 119.5(3) . .
O2 C2 C1 116.1(4) . .
O2 C2 C3 123.9(5) . .
C1 C2 C3 120.0(5) . .
C6 C5 C6 124.4(5) . 5_656
C6 C5 C4 117.8(2) . .
C6 C5 C4 117.8(2) 5_656 .
C4 C3 C2 120.0(5) . .
C4 C3 H3 120.0 . .
C2 C3 H3 120.0 . .
C2 O2 La1 119.4(3) . 17_656
C2 O2 H2 113.4(16) . .
La1 O2 H2 127.3(16) 17_656 .
C6 N1 C6 109.7(5) . 7_646
C6 N1 H1 125.1 . .
C6 N1 H1 125.1 7_646 .
N1 C6 C5 127.6(4) . .
N1 C6 C7 106.7(4) . .
C5 C6 C7 125.6(4) . .
C7 C7 C6 108.4(2) 7_646 .
C7 C7 H7 125.8 7_646 .
C6 C7 H7 125.8 . .
loop_
_geom_bond_atom_site_label_1
_geom_bond_atom_site_label_2
_geom_bond_distance
_geom_bond_site_symmetry_2
La1 O1 2.4725(19) .
La1 O1 2.4726(19) 27
La1 O1 2.4726(19) 17_656
La1 O1 2.4726(19) 11_544
La1 O2 2.549(4) 11_544
La1 O2 2.549(4) 18_556
La1 O2 2.549(4) 12_554
La1 O2 2.549(4) 17_656
O1 C1 1.332(6) .
C1 C2 1.370(6) 18_556
C1 C2 1.370(6) .
C4 C3 1.344(6) 18_556
C4 C3 1.344(6) .
C4 C5 1.498(7) .
C2 O2 1.351(6) .
C2 C3 1.411(6) .
C5 C6 1.381(5) .
C5 C6 1.381(5) 5_656
C3 H3 0.9300 .
O2 H2 0.82(2) .
N1 C6 1.364(5) .
N1 C6 1.364(5) 7_646
N1 H1 0.8600 .
C6 C7 1.431(6) .
C7 C7 1.329(10) 7_646
C7 H7 0.9300 .
