#------------------------------------------------------------------------------
#$Date: 2017-08-24 05:27:04 +0300 (Thu, 24 Aug 2017) $
#$Revision: 199912 $
#$URL: file:///home/coder/svn-repositories/cod/cif/7/12/05/7120594.cif $
#------------------------------------------------------------------------------
#
# This file is available in the Crystallography Open Database (COD),
# http://www.crystallography.net/
#
# All data on this site have been placed in the public domain by the
# contributors.
#
data_7120594
loop_
_publ_author_name
'Nikolayenko, Varvara I.'
'Herbert, Simon'
'Barbour, Len'
_publ_section_title
;
 Reversible structural switching of a metal-organic framework by
 photoirradiation
;
_journal_name_full               'Chem. Commun.'
_journal_paper_doi               10.1039/C7CC06074B
_journal_year                    2017
_chemical_formula_moiety         'C41 H28 F6 N2 O4 S2 Zn'
_chemical_formula_sum            'C41 H28 F6 N2 O4 S2 Zn'
_chemical_formula_weight         856.14
_chemical_name_common            iDMOF1_apohost
_space_group_crystal_system      orthorhombic
_space_group_IT_number           19
_space_group_name_Hall           'P 2ac 2ab'
_space_group_name_H-M_alt        'P 21 21 21'
_symmetry_space_group_name_Hall  'P 2ac 2ab'
_symmetry_space_group_name_H-M   'P 21 21 21'
_atom_sites_solution_hydrogens   geom
_audit_creation_method           SHELXL-2016/6
_audit_update_record
;
2017-08-02 deposited with the CCDC.
2017-08-23 downloaded from the CCDC.
;
_cell_angle_alpha                90
_cell_angle_beta                 90
_cell_angle_gamma                90
_cell_formula_units_Z            4
_cell_length_a                   7.63580(10)
_cell_length_b                   23.6500(2)
_cell_length_c                   29.1848(3)
_cell_measurement_reflns_used    9922
_cell_measurement_temperature    296(2)
_cell_measurement_theta_max      63.193
_cell_measurement_theta_min      2.4045
_cell_volume                     5270.39(10)
_computing_cell_refinement       'SAINT (Bruker, 2016)'
_computing_data_collection       'APEX3 (Bruker, 2016)'
_computing_data_reduction        'SAINT (Bruker, 2016)'
_computing_structure_refinement  'SHELXL-2016/6 (Sheldrick, 2016)'
_computing_structure_solution    'SHELXL-2016/6 (Sheldrick, 2016)'
_diffrn_ambient_temperature      296(2)
_diffrn_measured_fraction_theta_full 0.991
_diffrn_measured_fraction_theta_max 0.991
_diffrn_measurement_device_type  'Bruker APEX CCD area -detector'
_diffrn_measurement_method       \w
_diffrn_radiation_type           CuK\a
_diffrn_radiation_wavelength     1.54178
_diffrn_reflns_av_R_equivalents  0.0508
_diffrn_reflns_av_unetI/netI     0.0339
_diffrn_reflns_Laue_measured_fraction_full 0.991
_diffrn_reflns_Laue_measured_fraction_max 0.991
_diffrn_reflns_limit_h_max       9
_diffrn_reflns_limit_h_min       -9
_diffrn_reflns_limit_k_max       28
_diffrn_reflns_limit_k_min       -28
_diffrn_reflns_limit_l_max       34
_diffrn_reflns_limit_l_min       -34
_diffrn_reflns_number            59749
_diffrn_reflns_point_group_measured_fraction_full 0.984
_diffrn_reflns_point_group_measured_fraction_max 0.984
_diffrn_reflns_theta_full        66.522
_diffrn_reflns_theta_max         66.522
_diffrn_reflns_theta_min         2.405
_diffrn_source                   'fine-focus sealed tube'
_exptl_absorpt_coefficient_mu    1.858
_exptl_absorpt_correction_T_max  0.9294
_exptl_absorpt_correction_T_min  0.8217
_exptl_absorpt_correction_type   numerical
_exptl_absorpt_process_details   'SADABS, 2016'
_exptl_crystal_colour            Blue
_exptl_crystal_density_diffrn    1.079
_exptl_crystal_description       Plate
_exptl_crystal_F_000             1744
_exptl_crystal_size_max          0.110
_exptl_crystal_size_mid          0.080
_exptl_crystal_size_min          0.040
_refine_diff_density_max         0.198
_refine_diff_density_min         -0.144
_refine_diff_density_rms         0.029
_refine_ls_abs_structure_details
;
 Flack x determined using 2653 quotients [(I+)-(I-)]/[(I+)+(I-)]
 (Parsons, Flack and Wagner, Acta Cryst. B69 (2013) 249-259).
;
_refine_ls_abs_structure_Flack   0.023(9)
_refine_ls_extinction_method     none
_refine_ls_goodness_of_fit_ref   1.048
_refine_ls_hydrogen_treatment    constr
_refine_ls_matrix_type           full
_refine_ls_number_parameters     515
_refine_ls_number_reflns         9148
_refine_ls_number_restraints     6
_refine_ls_restrained_S_all      1.048
_refine_ls_R_factor_all          0.0514
_refine_ls_R_factor_gt           0.0408
_refine_ls_shift/su_max          0.001
_refine_ls_shift/su_mean         0.000
_refine_ls_structure_factor_coef Fsqd
_refine_ls_weighting_details
'w=1/[\s^2^(Fo^2^)+(0.0542P)^2^+0.2017P] where P=(Fo^2^+2Fc^2^)/3'
_refine_ls_weighting_scheme      calc
_refine_ls_wR_factor_gt          0.1021
_refine_ls_wR_factor_ref         0.1063
_reflns_Friedel_coverage         0.763
_reflns_Friedel_fraction_full    0.976
_reflns_Friedel_fraction_max     0.976
_reflns_number_gt                7375
_reflns_number_total             9148
_reflns_threshold_expression     'I > 2\s(I)'
_cod_data_source_file            c7cc06074b5.cif
_cod_data_source_block           iDMOF1_apohost
_cod_database_code               7120594
_shelx_shelxl_version_number     2016/6
_shelx_space_group_comment
;
The symmetry employed for this shelxl refinement is uniquely defined
by the following loop, which should always be used as a source of
symmetry information in preference to the above space-group names.
They are only intended as comments.
;
_shelx_estimated_absorpt_t_min   0.822
_shelx_estimated_absorpt_t_max   0.929
_shelx_res_file
;
TITL iDMOF1' in P2(1)2(1)2(1)
    C:\Users\vin\Desktop\XSEED2~1\DMOF1\iDMOF1'\idmof1'_sqd.res
    created by SHELXL-2016/6 at 10:45:26 on 30-Apr-2017
CELL 1.54178 7.6358 23.6500 29.1848 90.000 90.000 90.000
ZERR 4.0000 0.0001 0.0002 0.0003 0.000 0.000 0.000
LATT -1
SYMM 0.5-X, -Y, 0.5+Z
SYMM 0.5+X, 0.5-Y, -Z
SYMM -X, 0.5+Y, 0.5-Z
SFAC C H N O F S ZN
UNIT 164 112 8 16 24 8 4
EADP C37 C37A
EADP C38 C38A
CONF
BOND $H
EQIV $1 -X,1/2+Y,3/2-Z
EQIV $2 5/2+X,3/2-Y,1-Z
DFIX 1.489 0.002 C36 C37A
DFIX 1.489 0.002 C36 C37
DFIX 1.493 0.002 C38A C37A
DFIX 1.493 0.002 C37 C38
DFIX 2.478 0.002 C36 C38A
DFIX 2.478 0.002 C36 C38
HTAB C15 O4_$1
HTAB C40 O1
HTAB C31 O3_$2
OMIT 0 3 3
OMIT 1 2 0
OMIT 0 2 4
OMIT 0 4 3
ACTA
HTAB 2.0
MERG 2
SHEL 99999.00 0.84
SIZE 0.04 0.08 0.11
TEMP 23
L.S. 20 0 60
WGHT    0.054200    0.201700
FVAR       1.13233   0.41880
ZN1   7    0.586418    0.960531    0.767887    11.00000    0.06322    0.07496 =
         0.09355    0.02469    0.00381   -0.00160
S1    6    1.389521    0.995783    0.633503    11.00000    0.09082    0.08231 =
         0.13856    0.01475    0.03785    0.00380
S2    6    1.335297    1.112669    0.459718    11.00000    0.06064    0.12923 =
         0.09521    0.00109    0.00171    0.00010
C15   1    0.821942    1.040663    0.719780    11.00000    0.07529    0.07476 =
         0.08763    0.01534    0.01094   -0.00437
AFIX  43
H15   2    0.737947    1.066528    0.729434    11.00000   -1.20000
AFIX   0
C32   1    1.620383    1.061028    0.333624    11.00000    0.07251    0.12131 =
         0.10252   -0.03962    0.00740   -0.02430
AFIX  43
H32   2    1.552393    1.044273    0.310938    11.00000   -1.20000
AFIX   0
O2    4    0.432831    0.904241    0.744227    11.00000    0.07772    0.08010 =
         0.14358    0.01943   -0.01846   -0.00456
N1    3    0.794325    0.985819    0.727812    11.00000    0.06939    0.07882 =
         0.08588    0.02046    0.00730    0.00088
O4    4   -0.471833    0.532665    0.725249    11.00000    0.07690    0.07644 =
         0.11395   -0.01881    0.01111   -0.00087
C17   1    1.095467    1.023286    0.684200    11.00000    0.06582    0.07423 =
         0.07797    0.01597    0.00283    0.00395
C29   1    1.635789    1.102635    0.407533    11.00000    0.06763    0.07679 =
         0.09219   -0.01002    0.00520   -0.00921
C9    1   -0.226042    0.582595    0.699638    11.00000    0.06965    0.08413 =
         0.07852   -0.00637    0.00318    0.00009
C1    1    0.501509    0.856012    0.736740    11.00000    0.07858    0.08360 =
         0.11688    0.02694    0.00281   -0.00611
F5    5    1.796589    1.237264    0.545801    11.00000    0.10950    0.11945 =
         0.12348   -0.00741    0.04167   -0.03598
C27   1    1.632192    1.143072    0.488631    11.00000    0.06562    0.08884 =
         0.08288   -0.00531    0.01561   -0.00815
AFIX  43
H27   2    1.751030    1.151433    0.490305    11.00000   -1.20000
AFIX   0
F2    5    1.461452    1.219336    0.668888    11.00000    0.15263    0.13886 =
         0.15267   -0.04861    0.06767   -0.02355
C18   1    1.251777    1.042369    0.659808    11.00000    0.07557    0.08600 =
         0.07735    0.01232    0.00741   -0.00536
O1    4    0.658321    0.846659    0.737622    11.00000    0.07134    0.10324 =
         0.18928    0.01065    0.00440   -0.01369
C20   1    1.459514    1.100925    0.624623    11.00000    0.06984    0.08046 =
         0.07638    0.00890    0.01206   -0.00009
F6    5    1.544690    1.273964    0.559480    11.00000    0.14200    0.08558 =
         0.15519    0.01566    0.02473   -0.00021
C8    1   -0.262810    0.628175    0.728655    11.00000    0.06777    0.08280 =
         0.09290   -0.00563    0.00990    0.00394
AFIX  43
H8    2   -0.365151    0.627879    0.745929    11.00000   -1.20000
AFIX   0
N2    3    1.792793    1.066799    0.326042    11.00000    0.06361    0.08427 =
         0.09816   -0.03220   -0.00202   -0.01076
O3    4   -0.300757    0.491023    0.674286    11.00000    0.09185    0.10259 =
         0.14294   -0.04732    0.01685   -0.01873
C3    1    0.197039    0.817763    0.734720    11.00000    0.07637    0.07582 =
         0.13996    0.01343    0.00633    0.00024
AFIX  43
H3    2    0.157187    0.853127    0.743967    11.00000   -1.20000
AFIX   0
C5    1    0.130960    0.721626    0.714059    11.00000    0.07505    0.07223 =
         0.10113    0.01470    0.00438    0.00020
C26   1    1.514753    1.152998    0.525450    11.00000    0.06331    0.07931 =
         0.08333    0.01168    0.01176   -0.00610
C39   1    1.066119    0.966185    0.692398    11.00000    0.07965    0.08143 =
         0.12080    0.02935    0.02394    0.01206
AFIX  43
H39   2    1.148599    0.939463    0.683406    11.00000   -1.20000
AFIX   0
C41   1    1.348217    1.139271    0.514865    11.00000    0.06478    0.11452 =
         0.08061    0.00675    0.00691    0.01213
C14   1    0.427597    0.756456    0.713567    11.00000    0.06793    0.08802 =
         0.13432    0.01099    0.00346   -0.00802
AFIX  43
H14   2    0.545753    0.749831    0.708003    11.00000   -1.20000
AFIX   0
C24   1    1.655094    1.231396    0.572415    11.00000    0.08754    0.09359 =
         0.09442    0.01228    0.02357   -0.00820
C28   1    1.556635    1.120359    0.450769    11.00000    0.06157    0.08079 =
         0.08066   -0.00187    0.00010    0.00262
C7    1   -0.150579    0.673315    0.732087    11.00000    0.07696    0.07446 =
         0.09806   -0.01336    0.00384   -0.00008
AFIX  43
H7    2   -0.180057    0.703520    0.750977    11.00000   -1.20000
AFIX   0
C2    1    0.373051    0.809522    0.728293    11.00000    0.07276    0.07612 =
         0.10396    0.01558   -0.00017    0.00043
C19   1    1.306520    1.095975    0.653073    11.00000    0.07312    0.08777 =
         0.07216    0.01505    0.01447    0.00334
AFIX  43
H19   2    1.250059    1.127101    0.665762    11.00000   -1.20000
AFIX   0
C16   1    0.966715    1.060385    0.698211    11.00000    0.07767    0.07539 =
         0.09668    0.01668    0.00637   -0.00453
AFIX  43
H16   2    0.979299    1.098934    0.692850    11.00000   -1.20000
AFIX   0
C12   1    0.037877    0.629787    0.678380    11.00000    0.07872    0.11498 =
         0.11069   -0.01884    0.02760   -0.01139
AFIX  43
H12   2    0.138841    0.630094    0.660560    11.00000   -1.20000
AFIX   0
C25   1    1.568721    1.176200    0.569902    11.00000    0.06825    0.07682 =
         0.08144   -0.00049    0.01241   -0.00357
C6    1    0.006877    0.674830    0.707816    11.00000    0.07551    0.08025 =
         0.08795    0.00336    0.00611    0.00668
C10   1   -0.339350    0.532037    0.698265    11.00000    0.07150    0.09949 =
         0.08741   -0.01619    0.01004   -0.00249
C4    1    0.078434    0.775102    0.727835    11.00000    0.07028    0.08654 =
         0.14226    0.01324    0.01220    0.00854
AFIX  43
H4    2   -0.040023    0.782192    0.732513    11.00000   -1.20000
AFIX   0
C13   1    0.309103    0.714096    0.707233    11.00000    0.07819    0.07648 =
         0.12747    0.00052    0.01358    0.00389
AFIX  43
H13   2    0.349277    0.678775    0.697975    11.00000   -1.20000
AFIX   0
C21   1    1.539024    1.154680    0.611847    11.00000    0.06625    0.08327 =
         0.08235   -0.00097    0.01202   -0.00468
C30   1    1.813506    1.108881    0.399875    11.00000    0.06769    0.13171 =
         0.11198   -0.05015    0.00435   -0.01833
AFIX  43
H30   2    1.884887    1.125219    0.422042    11.00000   -1.20000
AFIX   0
C33   1    1.539912    1.078368    0.372689    11.00000    0.05833    0.13383 =
         0.11200   -0.01842   -0.00097   -0.00761
AFIX  43
H33   2    1.419563    1.073843    0.375934    11.00000   -1.20000
AFIX   0
C11   1   -0.073277    0.585483    0.674657    11.00000    0.08307    0.09869 =
         0.11027   -0.02506    0.02580   -0.00744
AFIX  43
H11   2   -0.045776    0.556164    0.654677    11.00000   -1.20000
AFIX   0
C40   1    0.914800    0.949429    0.713831    11.00000    0.07902    0.07379 =
         0.12537    0.02601    0.01872    0.01205
AFIX  43
H40   2    0.896151    0.911042    0.718724    11.00000   -1.20000
AFIX   0
C31   1    1.883721    1.090455    0.358706    11.00000    0.06217    0.14681 =
         0.10785   -0.05660    0.02037   -0.01928
AFIX  43
H31   2    2.003293    1.095253    0.354056    11.00000   -1.20000
AFIX   0
F4    5    1.690760    1.290173    0.638405    11.00000    0.31480    0.11138 =
         0.12157   -0.02412    0.03438   -0.06861
F1    5    1.687093    1.170577    0.681759    11.00000    0.19829    0.13133 =
         0.11656    0.00188   -0.05407   -0.01817
C22   1    1.600318    1.194998    0.648396    11.00000    0.09639    0.09922 =
         0.08725    0.00408    0.01386   -0.00853
C36   1    1.520607    1.049280    0.611472    11.00000    0.08462    0.09235 =
         0.11130    0.02209    0.03083    0.00322
F3    5    1.875991    1.225498    0.627864    11.00000    0.11985    0.32596 =
         0.15452   -0.00131    0.00144   -0.07495
C23   1    1.700954    1.240996    0.623099    11.00000    0.14824    0.13056 =
         0.10858   -0.01755    0.02681   -0.04840
C34   1    1.184421    1.149158    0.541897    11.00000    0.06841    0.20784 =
         0.11888    0.05198    0.01747    0.00765
AFIX  23
H34A  2    1.215060    1.163570    0.571963    11.00000   -1.20000
H34B  2    1.113732    1.177517    0.526584    11.00000   -1.20000
AFIX   0
PART 1
C37   1    1.682418    1.030347    0.587466    21.00000    0.11542    0.09837 =
         0.16703    0.03418    0.07397    0.02429
AFIX  23
H37A  2    1.747212    1.004993    0.607344    21.00000   -1.20000
H37B  2    1.755881    1.062941    0.581333    21.00000   -1.20000
AFIX   0
PART 0
C35   1    1.081236    1.096895    0.547121    11.00000    0.10217    0.27192 =
         0.15634    0.03243    0.03135   -0.02030
AFIX 137
H35A  2    1.032289    1.086409    0.518038    11.00000   -1.50000
H35B  2    0.988451    1.103148    0.568731    11.00000   -1.50000
H35C  2    1.155750    1.067082    0.557996    11.00000   -1.50000
AFIX   0
PART 2
C38A  1    1.739059    0.979086    0.584698   -21.00000    0.17652    0.12781 =
         0.16347    0.00937    0.08802    0.03137
AFIX 137
H38A  2    1.804793    0.976734    0.612673   -21.00000   -1.50000
H38B  2    1.814143    0.970480    0.559253   -21.00000   -1.50000
H38C  2    1.644136    0.952493    0.585605   -21.00000   -1.50000
AFIX   0
PART 1
C38   1    1.643511    1.000832    0.543400    21.00000    0.17652    0.12781 =
         0.16347    0.00937    0.08802    0.03137
AFIX 137
H38D  2    1.742428    0.978236    0.534630    21.00000   -1.50000
H38E  2    1.620179    1.028330    0.519986    21.00000   -1.50000
H38F  2    1.542910    0.976955    0.547252    21.00000   -1.50000
AFIX   0
PART 2
C37A  1    1.667683    1.037487    0.579353   -21.00000    0.11542    0.09837 =
         0.16703    0.03418    0.07397    0.02429
AFIX  23
H37C  2    1.760769    1.064599    0.584720   -21.00000   -1.20000
H37D  2    1.626992    1.042455    0.548126   -21.00000   -1.20000
AFIX   0
HKLF 4




REM  iDMOF1' in P2(1)2(1)2(1)
REM R1 =  0.0408 for    7375 Fo > 4sig(Fo)  and  0.0514 for all    9148 data
REM    515 parameters refined using      6 restraints

END

WGHT      0.0541      0.2011

REM Instructions for potential hydrogen bonds
HTAB C15 O4_$1
HTAB C40 O1

REM Highest difference peak  0.198,  deepest hole -0.144,  1-sigma level  0.029
Q1    1   1.5121  1.2807  0.6336  11.00000  0.05    0.20
Q2    1   0.6463  0.9382  0.7940  11.00000  0.05    0.19
Q3    1   0.4981  0.9346  0.7872  11.00000  0.05    0.17
Q4    1   0.6835  0.9793  0.7484  11.00000  0.05    0.17
Q5    1   0.5344  0.9366  0.7362  11.00000  0.05    0.15
Q6    1   1.0836  1.1790  0.5642  11.00000  0.05    0.14
Q7    1   0.6569  0.9423  0.7413  11.00000  0.05    0.14
Q8    1   1.4796  1.0216  0.6251  11.00000  0.05    0.13
Q9    1   0.2141  0.6210  0.6779  11.00000  0.05    0.12
Q10   1   1.4332  1.0823  0.4582  11.00000  0.05    0.12
Q11   1  -0.3092  0.6170  0.6939  11.00000  0.05    0.12
Q12   1   1.3177  1.0208  0.6524  11.00000  0.05    0.11
Q13   1  -0.5582  0.5411  0.6907  11.00000  0.05    0.11
Q14   1   0.6738  0.9779  0.7981  11.00000  0.05    0.11
Q15   1  -0.1666  0.5951  0.7195  11.00000  0.05    0.10
Q16   1   0.4611  0.8197  0.7591  11.00000  0.05    0.10
Q17   1   1.6204  0.9682  0.5581  11.00000  0.05    0.10
Q18   1   1.5419  1.1827  0.6760  11.00000  0.05    0.10
Q19   1   1.4357  1.2451  0.5645  11.00000  0.05    0.10
Q20   1   0.7015  0.8608  0.7096  11.00000  0.05    0.10
;
_shelx_res_checksum              2605
loop_
_space_group_symop_operation_xyz
'x, y, z'
'-x+1/2, -y, z+1/2'
'x+1/2, -y+1/2, -z'
'-x, y+1/2, -z+1/2'
loop_
_atom_site_label
_atom_site_type_symbol
_atom_site_fract_x
_atom_site_fract_y
_atom_site_fract_z
_atom_site_U_iso_or_equiv
_atom_site_adp_type
_atom_site_occupancy
_atom_site_site_symmetry_order
_atom_site_calc_flag
_atom_site_refinement_flags_posn
_atom_site_refinement_flags_adp
_atom_site_refinement_flags_occupancy
_atom_site_disorder_assembly
_atom_site_disorder_group
Zn1 Zn 0.58642(7) 0.96053(2) 0.76789(2) 0.07724(18) Uani 1 1 d . . . . .
S1 S 1.38952(19) 0.99578(6) 0.63350(6) 0.1039(4) Uani 1 1 d . . . . .
S2 S 1.33530(15) 1.11267(7) 0.45972(5) 0.0950(4) Uani 1 1 d . . . . .
C15 C 0.8219(6) 1.0407(2) 0.71978(15) 0.0792(11) Uani 1 1 d . . . . .
H15 H 0.737947 1.066528 0.729434 0.095 Uiso 1 1 calc R U . . .
C32 C 1.6204(6) 1.0610(2) 0.33362(19) 0.0988(16) Uani 1 1 d . . . . .
H32 H 1.552393 1.044273 0.310938 0.119 Uiso 1 1 calc R U . . .
O2 O 0.4328(4) 0.90424(14) 0.74423(13) 0.1005(10) Uani 1 1 d . . . . .
N1 N 0.7943(4) 0.98582(15) 0.72781(13) 0.0780(9) Uani 1 1 d . . . . .
O4 O -0.4718(4) 0.53266(13) 0.72525(12) 0.0891(9) Uani 1 1 d . . . . .
C17 C 1.0955(6) 1.02329(17) 0.68420(14) 0.0727(10) Uani 1 1 d . . . . .
C29 C 1.6358(5) 1.1026(2) 0.40753(16) 0.0789(11) Uani 1 1 d . . . . .
C9 C -0.2260(6) 0.5826(2) 0.69964(15) 0.0774(11) Uani 1 1 d . . . . .
C1 C 0.5015(7) 0.8560(2) 0.7367(2) 0.0930(14) Uani 1 1 d . . . . .
F5 F 1.7966(4) 1.23726(14) 0.54580(12) 0.1175(11) Uani 1 1 d . . . . .
C27 C 1.6322(6) 1.14307(19) 0.48863(15) 0.0791(12) Uani 1 1 d . . . . .
H27 H 1.751030 1.151433 0.490305 0.095 Uiso 1 1 calc R U . . .
F2 F 1.4615(6) 1.21934(17) 0.66889(14) 0.1481(15) Uani 1 1 d . . . . .
C18 C 1.2518(6) 1.0424(2) 0.65981(15) 0.0796(11) Uani 1 1 d . . . . .
O1 O 0.6583(5) 0.84666(17) 0.73762(18) 0.1213(14) Uani 1 1 d . . . . .
C20 C 1.4595(5) 1.10093(19) 0.62462(15) 0.0756(11) Uani 1 1 d . . . . .
F6 F 1.5447(5) 1.27396(13) 0.55948(14) 0.1276(12) Uani 1 1 d . . . . .
C8 C -0.2628(5) 0.62817(19) 0.72865(17) 0.0812(11) Uani 1 1 d . . . . .
H8 H -0.365151 0.627879 0.745929 0.097 Uiso 1 1 calc R U . . .
N2 N 1.7928(4) 1.06680(16) 0.32604(14) 0.0820(10) Uani 1 1 d . . . . .
O3 O -0.3008(5) 0.49102(17) 0.67429(15) 0.1125(12) Uani 1 1 d . . . . .
C3 C 0.1970(6) 0.8178(2) 0.7347(2) 0.0974(15) Uani 1 1 d . . . . .
H3 H 0.157187 0.853127 0.743967 0.117 Uiso 1 1 calc R U . . .
C5 C 0.1310(6) 0.72163(19) 0.71406(17) 0.0828(12) Uani 1 1 d . . . . .
C26 C 1.5148(5) 1.15300(19) 0.52545(16) 0.0753(11) Uani 1 1 d . . . . .
C39 C 1.0661(6) 0.9662(2) 0.69240(18) 0.0940(14) Uani 1 1 d . . . . .
H39 H 1.148599 0.939463 0.683406 0.113 Uiso 1 1 calc R U . . .
C41 C 1.3482(6) 1.1393(2) 0.51486(16) 0.0866(14) Uani 1 1 d . . . . .
C14 C 0.4276(6) 0.7565(2) 0.71357(19) 0.0968(15) Uani 1 1 d . . . . .
H14 H 0.545753 0.749831 0.708003 0.116 Uiso 1 1 calc R U . . .
C24 C 1.6551(7) 1.2314(2) 0.57241(18) 0.0918(14) Uani 1 1 d . . . . .
C28 C 1.5566(5) 1.12036(18) 0.45077(15) 0.0743(11) Uani 1 1 d . . . . .
C7 C -0.1506(6) 0.67331(19) 0.73209(18) 0.0832(12) Uani 1 1 d . . . . .
H7 H -0.180057 0.703520 0.750977 0.100 Uiso 1 1 calc R U . . .
C2 C 0.3731(6) 0.80952(19) 0.72829(18) 0.0843(12) Uani 1 1 d . . . . .
C19 C 1.3065(6) 1.0960(2) 0.65307(14) 0.0777(11) Uani 1 1 d . . . . .
H19 H 1.250059 1.127101 0.665762 0.093 Uiso 1 1 calc R U . . .
C16 C 0.9667(6) 1.0604(2) 0.69821(17) 0.0832(12) Uani 1 1 d . . . . .
H16 H 0.979299 1.098934 0.692850 0.100 Uiso 1 1 calc R U . . .
C12 C 0.0379(6) 0.6298(2) 0.67838(19) 0.1015(16) Uani 1 1 d . . . . .
H12 H 0.138841 0.630094 0.660560 0.122 Uiso 1 1 calc R U . . .
C25 C 1.5687(6) 1.17620(18) 0.56990(15) 0.0755(11) Uani 1 1 d . . . . .
C6 C 0.0069(6) 0.6748(2) 0.70782(17) 0.0812(12) Uani 1 1 d . . . . .
C10 C -0.3394(6) 0.5320(2) 0.69826(17) 0.0861(13) Uani 1 1 d . . . . .
C4 C 0.0784(6) 0.7751(2) 0.7278(2) 0.0997(15) Uani 1 1 d . . . . .
H4 H -0.040023 0.782192 0.732513 0.120 Uiso 1 1 calc R U . . .
C13 C 0.3091(6) 0.7141(2) 0.7072(2) 0.0940(14) Uani 1 1 d . . . . .
H13 H 0.349277 0.678775 0.697975 0.113 Uiso 1 1 calc R U . . .
C21 C 1.5390(5) 1.1547(2) 0.61185(16) 0.0773(11) Uani 1 1 d . . . . .
C30 C 1.8135(6) 1.1089(3) 0.39987(19) 0.1038(18) Uani 1 1 d . . . . .
H30 H 1.884887 1.125219 0.422042 0.125 Uiso 1 1 calc R U . . .
C33 C 1.5399(6) 1.0784(3) 0.37269(19) 0.1014(16) Uani 1 1 d . . . . .
H33 H 1.419563 1.073843 0.375934 0.122 Uiso 1 1 calc R U . . .
C11 C -0.0733(7) 0.5855(2) 0.67466(18) 0.0973(15) Uani 1 1 d . . . . .
H11 H -0.045776 0.556164 0.654677 0.117 Uiso 1 1 calc R U . . .
C40 C 0.9148(6) 0.94943(19) 0.71383(18) 0.0927(14) Uani 1 1 d . . . . .
H40 H 0.896151 0.911042 0.718724 0.111 Uiso 1 1 calc R U . . .
C31 C 1.8837(6) 1.0905(3) 0.35871(18) 0.1056(18) Uani 1 1 d . . . . .
H31 H 2.003293 1.095253 0.354056 0.127 Uiso 1 1 calc R U . . .
F4 F 1.6908(9) 1.29017(17) 0.63840(14) 0.183(2) Uani 1 1 d . . . . .
F1 F 1.6871(6) 1.17058(17) 0.68176(13) 0.1487(15) Uani 1 1 d . . . . .
C22 C 1.6003(8) 1.1950(2) 0.64840(18) 0.0943(14) Uani 1 1 d . . . . .
C36 C 1.5206(6) 1.0493(2) 0.61147(18) 0.0961(15) Uani 1 1 d D . . . .
F3 F 1.8760(6) 1.2255(3) 0.62786(17) 0.200(3) Uani 1 1 d . . . . .
C23 C 1.7010(11) 1.2410(3) 0.6231(2) 0.129(2) Uani 1 1 d . . . . .
C34 C 1.1844(7) 1.1492(4) 0.5419(2) 0.132(3) Uani 1 1 d . . . . .
H34A H 1.215060 1.163570 0.571963 0.158 Uiso 1 1 calc R U . . .
H34B H 1.113732 1.177517 0.526584 0.158 Uiso 1 1 calc R U . . .
C37 C 1.6824(12) 1.0303(9) 0.5875(5) 0.127(3) Uani 0.419(9) 1 d D . P A 1
H37A H 1.747212 1.004993 0.607344 0.152 Uiso 0.419(9) 1 calc R U P A 1
H37B H 1.755881 1.062941 0.581333 0.152 Uiso 0.419(9) 1 calc R U P A 1
C35 C 1.0812(10) 1.0969(4) 0.5471(3) 0.177(4) Uani 1 1 d . . . . .
H35A H 1.032289 1.086409 0.518038 0.265 Uiso 1 1 calc R U . . .
H35B H 0.988451 1.103148 0.568731 0.265 Uiso 1 1 calc R U . . .
H35C H 1.155750 1.067082 0.557996 0.265 Uiso 1 1 calc R U . . .
C38A C 1.7391(17) 0.9791(4) 0.5847(5) 0.156(5) Uani 0.581(9) 1 d D . P A 2
H38A H 1.804793 0.976734 0.612673 0.234 Uiso 0.581(9) 1 calc R U P A 2
H38B H 1.814143 0.970480 0.559253 0.234 Uiso 0.581(9) 1 calc R U P A 2
H38C H 1.644136 0.952493 0.585605 0.234 Uiso 0.581(9) 1 calc R U P A 2
C38 C 1.644(3) 1.0008(7) 0.5434(5) 0.156(5) Uani 0.419(9) 1 d D . P A 1
H38D H 1.742428 0.978236 0.534630 0.234 Uiso 0.419(9) 1 calc R U P A 1
H38E H 1.620179 1.028330 0.519986 0.234 Uiso 0.419(9) 1 calc R U P A 1
H38F H 1.542910 0.976955 0.547252 0.234 Uiso 0.419(9) 1 calc R U P A 1
C37A C 1.6677(16) 1.0375(5) 0.5794(4) 0.127(3) Uani 0.581(9) 1 d D . P A 2
H37C H 1.760769 1.064599 0.584720 0.152 Uiso 0.581(9) 1 calc R U P A 2
H37D H 1.626992 1.042455 0.548126 0.152 Uiso 0.581(9) 1 calc R U P A 2
loop_
_atom_site_aniso_label
_atom_site_aniso_U_11
_atom_site_aniso_U_22
_atom_site_aniso_U_33
_atom_site_aniso_U_23
_atom_site_aniso_U_13
_atom_site_aniso_U_12
Zn1 0.0632(3) 0.0750(3) 0.0935(4) 0.0247(3) 0.0038(3) -0.0016(3)
S1 0.0908(8) 0.0823(7) 0.1386(11) 0.0147(7) 0.0379(8) 0.0038(7)
S2 0.0606(6) 0.1292(11) 0.0952(8) 0.0011(8) 0.0017(6) 0.0001(7)
C15 0.075(2) 0.075(2) 0.088(3) 0.015(2) 0.011(2) -0.004(2)
C32 0.073(3) 0.121(4) 0.103(4) -0.040(3) 0.007(3) -0.024(3)
O2 0.0777(19) 0.0801(19) 0.144(3) 0.0194(19) -0.018(2) -0.0046(17)
N1 0.0694(19) 0.079(2) 0.086(2) 0.020(2) 0.0073(19) 0.0009(17)
O4 0.0769(17) 0.0764(18) 0.114(2) -0.0188(18) 0.0111(18) -0.0009(15)
C17 0.066(2) 0.074(2) 0.078(2) 0.0160(19) 0.003(2) 0.004(2)
C29 0.068(2) 0.077(3) 0.092(3) -0.010(2) 0.005(2) -0.009(2)
C9 0.070(2) 0.084(3) 0.079(3) -0.006(2) 0.003(2) 0.000(2)
C1 0.079(3) 0.084(3) 0.117(4) 0.027(3) 0.003(3) -0.006(2)
F5 0.110(2) 0.119(2) 0.123(2) -0.0074(19) 0.042(2) -0.0360(19)
C27 0.066(2) 0.089(3) 0.083(3) -0.005(2) 0.016(2) -0.008(2)
F2 0.153(3) 0.139(3) 0.153(3) -0.049(3) 0.068(3) -0.024(2)
C18 0.076(2) 0.086(3) 0.077(3) 0.012(2) 0.007(2) -0.005(2)
O1 0.071(2) 0.103(3) 0.189(4) 0.011(3) 0.004(3) -0.0137(19)
C20 0.070(2) 0.080(3) 0.076(3) 0.009(2) 0.012(2) 0.000(2)
F6 0.142(3) 0.0856(19) 0.155(3) 0.0157(19) 0.025(2) 0.000(2)
C8 0.068(2) 0.083(3) 0.093(3) -0.006(3) 0.010(2) 0.004(2)
N2 0.0636(19) 0.084(2) 0.098(3) -0.032(2) -0.0020(19) -0.0108(18)
O3 0.092(2) 0.103(3) 0.143(3) -0.047(2) 0.017(2) -0.019(2)
C3 0.076(3) 0.076(3) 0.140(4) 0.013(3) 0.006(3) 0.000(2)
C5 0.075(3) 0.072(2) 0.101(3) 0.015(2) 0.004(2) 0.000(2)
C26 0.063(2) 0.079(3) 0.083(3) 0.012(2) 0.012(2) -0.006(2)
C39 0.080(3) 0.081(3) 0.121(4) 0.029(3) 0.024(3) 0.012(3)
C41 0.065(2) 0.115(4) 0.081(3) 0.007(3) 0.007(2) 0.012(2)
C14 0.068(2) 0.088(3) 0.134(4) 0.011(3) 0.003(3) -0.008(2)
C24 0.088(3) 0.094(3) 0.094(3) 0.012(3) 0.024(3) -0.008(3)
C28 0.062(2) 0.081(3) 0.081(3) -0.002(2) 0.000(2) 0.003(2)
C7 0.077(2) 0.074(2) 0.098(3) -0.013(3) 0.004(3) 0.000(2)
C2 0.073(3) 0.076(3) 0.104(3) 0.016(3) 0.000(3) 0.000(2)
C19 0.073(2) 0.088(3) 0.072(3) 0.015(2) 0.014(2) 0.003(2)
C16 0.078(3) 0.075(3) 0.097(3) 0.017(2) 0.006(2) -0.005(2)
C12 0.079(3) 0.115(4) 0.111(4) -0.019(3) 0.028(3) -0.011(3)
C25 0.068(2) 0.077(2) 0.081(3) 0.000(2) 0.012(2) -0.004(2)
C6 0.076(3) 0.080(3) 0.088(3) 0.003(2) 0.006(2) 0.007(2)
C10 0.071(2) 0.099(3) 0.087(3) -0.016(3) 0.010(2) -0.002(3)
C4 0.070(2) 0.087(3) 0.142(4) 0.013(3) 0.012(3) 0.009(2)
C13 0.078(3) 0.076(3) 0.127(4) 0.001(3) 0.014(3) 0.004(2)
C21 0.066(2) 0.083(3) 0.082(3) -0.001(2) 0.012(2) -0.005(2)
C30 0.068(3) 0.132(4) 0.112(4) -0.050(4) 0.004(3) -0.018(3)
C33 0.058(2) 0.134(4) 0.112(4) -0.018(4) -0.001(3) -0.008(3)
C11 0.083(3) 0.099(3) 0.110(4) -0.025(3) 0.026(3) -0.007(3)
C40 0.079(3) 0.074(3) 0.125(4) 0.026(2) 0.019(3) 0.012(2)
C31 0.062(2) 0.147(5) 0.108(4) -0.057(4) 0.020(3) -0.019(3)
F4 0.315(7) 0.111(3) 0.122(3) -0.024(2) 0.034(4) -0.069(4)
F1 0.198(4) 0.131(3) 0.117(2) 0.002(2) -0.054(3) -0.018(3)
C22 0.096(3) 0.099(3) 0.087(3) 0.004(3) 0.014(3) -0.009(3)
C36 0.085(3) 0.092(3) 0.111(4) 0.022(3) 0.031(3) 0.003(3)
F3 0.120(3) 0.326(8) 0.155(4) -0.001(4) 0.001(3) -0.075(4)
C23 0.148(6) 0.131(5) 0.109(5) -0.018(4) 0.027(4) -0.048(5)
C34 0.068(3) 0.208(8) 0.119(4) 0.052(5) 0.017(3) 0.008(4)
C37 0.115(5) 0.098(5) 0.167(7) 0.034(5) 0.074(5) 0.024(4)
C35 0.102(4) 0.272(11) 0.156(6) 0.032(7) 0.031(5) -0.020(7)
C38A 0.177(12) 0.128(8) 0.163(9) 0.009(7) 0.088(9) 0.031(7)
C38 0.177(12) 0.128(8) 0.163(9) 0.009(7) 0.088(9) 0.031(7)
C37A 0.115(5) 0.098(5) 0.167(7) 0.034(5) 0.074(5) 0.024(4)
loop_
_atom_type_symbol
_atom_type_description
_atom_type_scat_dispersion_real
_atom_type_scat_dispersion_imag
_atom_type_scat_source
C C 0.0181 0.0091 'International Tables Vol C Tables 4.2.6.8 and 6.1.1.4'
H H 0.0000 0.0000 'International Tables Vol C Tables 4.2.6.8 and 6.1.1.4'
N N 0.0311 0.0180 'International Tables Vol C Tables 4.2.6.8 and 6.1.1.4'
O O 0.0492 0.0322 'International Tables Vol C Tables 4.2.6.8 and 6.1.1.4'
F F 0.0727 0.0534 'International Tables Vol C Tables 4.2.6.8 and 6.1.1.4'
S S 0.3331 0.5567 'International Tables Vol C Tables 4.2.6.8 and 6.1.1.4'
Zn Zn -1.5491 0.6778 'International Tables Vol C Tables 4.2.6.8 and 6.1.1.4'
loop_
_geom_angle_atom_site_label_1
_geom_angle_atom_site_label_2
_geom_angle_atom_site_label_3
_geom_angle
_geom_angle_site_symmetry_1
_geom_angle_site_symmetry_3
O2 Zn1 O4 112.14(14) . 4_556
O2 Zn1 N2 111.05(15) . 2_775
O4 Zn1 N2 113.56(16) 4_556 2_775
O2 Zn1 N1 118.14(17) . .
O4 Zn1 N1 98.73(14) 4_556 .
N2 Zn1 N1 102.49(14) 2_775 .
C18 S1 C36 93.0(2) . .
C28 S2 C41 92.7(2) . .
N1 C15 C16 123.0(4) . .
N1 C15 H15 118.5 . .
C16 C15 H15 118.5 . .
N2 C32 C33 123.5(5) . .
N2 C32 H32 118.3 . .
C33 C32 H32 118.3 . .
C1 O2 Zn1 115.8(3) . .
C40 N1 C15 117.9(4) . .
C40 N1 Zn1 121.4(3) . .
C15 N1 Zn1 120.2(3) . .
C10 O4 Zn1 114.3(3) . 4_546
C16 C17 C39 116.9(4) . .
C16 C17 C18 122.0(4) . .
C39 C17 C18 121.0(4) . .
C33 C29 C30 116.5(5) . .
C33 C29 C28 122.5(4) . .
C30 C29 C28 121.0(4) . .
C11 C9 C8 116.9(4) . .
C11 C9 C10 121.5(4) . .
C8 C9 C10 121.5(4) . .
O1 C1 O2 124.3(5) . .
O1 C1 C2 121.0(5) . .
O2 C1 C2 114.6(4) . .
C28 C27 C26 114.4(4) . .
C28 C27 H27 122.8 . .
C26 C27 H27 122.8 . .
C19 C18 C17 127.9(4) . .
C19 C18 S1 110.5(3) . .
C17 C18 S1 121.6(4) . .
C36 C20 C19 111.6(4) . .
C36 C20 C21 124.6(4) . .
C19 C20 C21 123.9(4) . .
C7 C8 C9 121.2(4) . .
C7 C8 H8 119.4 . .
C9 C8 H8 119.4 . .
C31 N2 C32 116.4(4) . .
C31 N2 Zn1 120.2(3) . 2_774
C32 N2 Zn1 123.3(3) . 2_774
C4 C3 C2 121.5(5) . .
C4 C3 H3 119.2 . .
C2 C3 H3 119.2 . .
C4 C5 C13 116.3(5) . .
C4 C5 C6 122.5(4) . .
C13 C5 C6 121.2(4) . .
C41 C26 C27 112.5(4) . .
C41 C26 C25 123.9(4) . .
C27 C26 C25 123.6(4) . .
C40 C39 C17 119.7(5) . .
C40 C39 H39 120.2 . .
C17 C39 H39 120.2 . .
C26 C41 C34 129.0(5) . .
C26 C41 S2 110.8(3) . .
C34 C41 S2 119.9(4) . .
C13 C14 C2 120.4(5) . .
C13 C14 H14 119.8 . .
C2 C14 H14 119.8 . .
F5 C24 F6 105.2(4) . .
F5 C24 C25 115.3(5) . .
F6 C24 C25 111.4(4) . .
F5 C24 C23 111.1(5) . .
F6 C24 C23 107.3(5) . .
C25 C24 C23 106.4(4) . .
C27 C28 C29 129.9(4) . .
C27 C28 S2 109.6(3) . .
C29 C28 S2 120.5(3) . .
C8 C7 C6 121.4(4) . .
C8 C7 H7 119.3 . .
C6 C7 H7 119.3 . .
C3 C2 C14 117.7(5) . .
C3 C2 C1 121.1(4) . .
C14 C2 C1 121.2(4) . .
C18 C19 C20 114.3(4) . .
C18 C19 H19 122.8 . .
C20 C19 H19 122.8 . .
C15 C16 C17 120.0(4) . .
C15 C16 H16 120.0 . .
C17 C16 H16 120.0 . .
C11 C12 C6 122.5(5) . .
C11 C12 H12 118.8 . .
C6 C12 H12 118.8 . .
C21 C25 C24 111.6(4) . .
C21 C25 C26 128.0(4) . .
C24 C25 C26 120.3(4) . .
C12 C6 C7 116.2(4) . .
C12 C6 C5 123.0(4) . .
C7 C6 C5 120.8(4) . .
O3 C10 O4 123.1(5) . .
O3 C10 C9 120.9(4) . .
O4 C10 C9 115.9(4) . .
C3 C4 C5 121.5(5) . .
C3 C4 H4 119.2 . .
C5 C4 H4 119.2 . .
C14 C13 C5 122.5(5) . .
C14 C13 H13 118.7 . .
C5 C13 H13 118.7 . .
C25 C21 C20 129.3(4) . .
C25 C21 C22 110.7(4) . .
C20 C21 C22 120.1(4) . .
C29 C30 C31 119.1(5) . .
C29 C30 H30 120.5 . .
C31 C30 H30 120.5 . .
C32 C33 C29 120.3(4) . .
C32 C33 H33 119.8 . .
C29 C33 H33 119.8 . .
C12 C11 C9 121.8(5) . .
C12 C11 H11 119.1 . .
C9 C11 H11 119.1 . .
N1 C40 C39 122.5(4) . .
N1 C40 H40 118.7 . .
C39 C40 H40 118.7 . .
N2 C31 C30 124.2(4) . .
N2 C31 H31 117.9 . .
C30 C31 H31 117.9 . .
F1 C22 F2 104.8(5) . .
F1 C22 C21 113.8(5) . .
F2 C22 C21 109.9(5) . .
F1 C22 C23 114.8(6) . .
F2 C22 C23 107.9(5) . .
C21 C22 C23 105.4(4) . .
C20 C36 C37A 127.1(6) . .
C20 C36 C37 133.3(10) . .
C20 C36 S1 110.6(3) . .
C37A C36 S1 122.1(5) . .
C37 C36 S1 115.7(10) . .
F4 C23 F3 105.6(7) . .
F4 C23 C22 117.4(6) . .
F3 C23 C22 104.3(7) . .
F4 C23 C24 117.9(7) . .
F3 C23 C24 106.0(6) . .
C22 C23 C24 104.2(5) . .
C35 C34 C41 111.7(7) . .
C35 C34 H34A 109.3 . .
C41 C34 H34A 109.3 . .
C35 C34 H34B 109.3 . .
C41 C34 H34B 109.3 . .
H34A C34 H34B 107.9 . .
C36 C37 C38 112.4(3) . .
C36 C37 H37A 109.1 . .
C38 C37 H37A 109.1 . .
C36 C37 H37B 109.1 . .
C38 C37 H37B 109.1 . .
H37A C37 H37B 107.9 . .
C34 C35 H35A 109.5 . .
C34 C35 H35B 109.5 . .
H35A C35 H35B 109.5 . .
C34 C35 H35C 109.5 . .
H35A C35 H35C 109.5 . .
H35B C35 H35C 109.5 . .
C37A C38A H38A 109.5 . .
C37A C38A H38B 109.5 . .
H38A C38A H38B 109.5 . .
C37A C38A H38C 109.5 . .
H38A C38A H38C 109.5 . .
H38B C38A H38C 109.5 . .
C37 C38 H38D 109.5 . .
C37 C38 H38E 109.5 . .
H38D C38 H38E 109.5 . .
C37 C38 H38F 109.5 . .
H38D C38 H38F 109.5 . .
H38E C38 H38F 109.5 . .
C36 C37A C38A 112.5(3) . .
C36 C37A H37C 109.1 . .
C38A C37A H37C 109.1 . .
C36 C37A H37D 109.1 . .
C38A C37A H37D 109.1 . .
H37C C37A H37D 107.8 . .
loop_
_geom_bond_atom_site_label_1
_geom_bond_atom_site_label_2
_geom_bond_distance
_geom_bond_site_symmetry_2
Zn1 O2 1.904(3) .
Zn1 O4 1.928(3) 4_556
Zn1 N2 2.037(4) 2_775
Zn1 N1 2.061(3) .
S1 C18 1.706(5) .
S1 C36 1.737(5) .
S2 C28 1.720(4) .
S2 C41 1.731(5) .
C15 N1 1.335(6) .
C15 C16 1.355(6) .
C15 H15 0.9300 .
C32 N2 1.342(6) .
C32 C33 1.359(7) .
C32 H32 0.9300 .
O2 C1 1.274(6) .
N1 C40 1.324(6) .
O4 C10 1.282(5) .
C17 C16 1.380(6) .
C17 C39 1.390(6) .
C17 C18 1.461(6) .
C29 C33 1.378(7) .
C29 C30 1.383(6) .
C29 C28 1.461(6) .
C9 C11 1.377(6) .
C9 C8 1.399(6) .
C9 C10 1.476(7) .
C1 O1 1.218(6) .
C1 C2 1.494(7) .
F5 C24 1.338(5) .
C27 C28 1.357(6) .
C27 C26 1.419(6) .
C27 H27 0.9300 .
F2 C22 1.347(6) .
C18 C19 1.349(7) .
C20 C36 1.363(6) .
C20 C19 1.438(6) .
C20 C21 1.457(6) .
F6 C24 1.366(6) .
C8 C7 1.373(6) .
C8 H8 0.9300 .
N2 C31 1.305(6) .
O3 C10 1.232(6) .
C3 C4 1.371(7) .
C3 C2 1.371(6) .
C3 H3 0.9300 .
C5 C4 1.386(7) .
C5 C13 1.386(6) .
C5 C6 1.468(6) .
C26 C41 1.348(6) .
C26 C25 1.468(6) .
C39 C40 1.372(7) .
C39 H39 0.9300 .
C41 C34 1.497(7) .
C14 C13 1.363(7) .
C14 C2 1.390(7) .
C14 H14 0.9300 .
C24 C25 1.464(7) .
C24 C23 1.537(9) .
C7 C6 1.396(6) .
C7 H7 0.9300 .
C19 H19 0.9300 .
C16 H16 0.9300 .
C12 C11 1.353(7) .
C12 C6 1.389(7) .
C12 H12 0.9300 .
C25 C21 1.345(6) .
C4 H4 0.9300 .
C13 H13 0.9300 .
C21 C22 1.505(7) .
C30 C31 1.386(7) .
C30 H30 0.9300 .
C33 H33 0.9300 .
C11 H11 0.9300 .
C40 H40 0.9300 .
C31 H31 0.9300 .
F4 C23 1.248(8) .
F1 C22 1.312(6) .
C22 C23 1.523(8) .
C36 C37A 1.489(3) .
C36 C37 1.489(3) .
F3 C23 1.393(10) .
C34 C35 1.474(11) .
C34 H34A 0.9700 .
C34 H34B 0.9700 .
C37 C38 1.493(3) .
C37 H37A 0.9700 .
C37 H37B 0.9700 .
C35 H35A 0.9600 .
C35 H35B 0.9600 .
C35 H35C 0.9600 .
C38A C37A 1.493(3) .
C38A H38A 0.9600 .
C38A H38B 0.9600 .
C38A H38C 0.9600 .
C38 H38D 0.9600 .
C38 H38E 0.9600 .
C38 H38F 0.9600 .
C37A H37C 0.9700 .
C37A H37D 0.9700 .
loop_
_geom_hbond_atom_site_label_D
_geom_hbond_atom_site_label_H
_geom_hbond_atom_site_label_A
_geom_hbond_distance_DH
_geom_hbond_distance_HA
_geom_hbond_distance_DA
_geom_hbond_angle_DHA
_geom_hbond_site_symmetry_A
C15 H15 O4 0.93 2.55 3.124(5) 120.0 4_556
C40 H40 O1 0.93 2.43 3.198(6) 139.5 .
C31 H31 O3 0.93 2.66 3.232(6) 120.2 3_766
loop_
_geom_torsion_atom_site_label_1
_geom_torsion_atom_site_label_2
_geom_torsion_atom_site_label_3
_geom_torsion_atom_site_label_4
_geom_torsion
_geom_torsion_site_symmetry_1
_geom_torsion_site_symmetry_4
C16 C15 N1 C40 -0.1(7) . .
C16 C15 N1 Zn1 172.3(4) . .
Zn1 O2 C1 O1 -10.6(8) . .
Zn1 O2 C1 C2 167.0(4) . .
C16 C17 C18 C19 9.9(8) . .
C39 C17 C18 C19 -173.2(5) . .
C16 C17 C18 S1 -167.8(4) . .
C39 C17 C18 S1 9.1(6) . .
C36 S1 C18 C19 -1.6(4) . .
C36 S1 C18 C17 176.4(4) . .
C11 C9 C8 C7 -0.4(7) . .
C10 C9 C8 C7 175.5(5) . .
C33 C32 N2 C31 0.1(9) . .
C33 C32 N2 Zn1 178.9(5) . 2_774
C28 C27 C26 C41 -1.9(6) . .
C28 C27 C26 C25 178.7(4) . .
C16 C17 C39 C40 -0.4(8) . .
C18 C17 C39 C40 -177.5(5) . .
C27 C26 C41 C34 -172.6(6) . .
C25 C26 C41 C34 6.8(9) . .
C27 C26 C41 S2 1.2(6) . .
C25 C26 C41 S2 -179.5(4) . .
C28 S2 C41 C26 -0.2(4) . .
C28 S2 C41 C34 174.2(5) . .
C26 C27 C28 C29 -177.4(5) . .
C26 C27 C28 S2 1.7(5) . .
C33 C29 C28 C27 177.8(5) . .
C30 C29 C28 C27 -1.3(9) . .
C33 C29 C28 S2 -1.2(7) . .
C30 C29 C28 S2 179.7(4) . .
C41 S2 C28 C27 -0.8(4) . .
C41 S2 C28 C29 178.3(4) . .
C9 C8 C7 C6 -1.9(7) . .
C4 C3 C2 C14 1.3(9) . .
C4 C3 C2 C1 -178.8(5) . .
C13 C14 C2 C3 -1.9(9) . .
C13 C14 C2 C1 178.2(5) . .
O1 C1 C2 C3 169.1(6) . .
O2 C1 C2 C3 -8.7(8) . .
O1 C1 C2 C14 -11.0(9) . .
O2 C1 C2 C14 171.2(5) . .
C17 C18 C19 C20 -175.6(4) . .
S1 C18 C19 C20 2.3(5) . .
C36 C20 C19 C18 -1.9(6) . .
C21 C20 C19 C18 178.4(4) . .
N1 C15 C16 C17 -1.2(7) . .
C39 C17 C16 C15 1.4(7) . .
C18 C17 C16 C15 178.4(4) . .
F5 C24 C25 C21 130.6(5) . .
F6 C24 C25 C21 -109.7(5) . .
C23 C24 C25 C21 7.0(6) . .
F5 C24 C25 C26 -53.6(7) . .
F6 C24 C25 C26 66.1(6) . .
C23 C24 C25 C26 -177.3(5) . .
C41 C26 C25 C21 54.0(8) . .
C27 C26 C25 C21 -126.7(5) . .
C41 C26 C25 C24 -121.1(5) . .
C27 C26 C25 C24 58.3(7) . .
C11 C12 C6 C7 -2.9(8) . .
C11 C12 C6 C5 176.5(5) . .
C8 C7 C6 C12 3.4(7) . .
C8 C7 C6 C5 -176.0(4) . .
C4 C5 C6 C12 154.0(6) . .
C13 C5 C6 C12 -27.3(8) . .
C4 C5 C6 C7 -26.6(7) . .
C13 C5 C6 C7 152.1(5) . .
Zn1 O4 C10 O3 8.6(7) 4_546 .
Zn1 O4 C10 C9 -167.4(3) 4_546 .
C11 C9 C10 O3 -0.6(8) . .
C8 C9 C10 O3 -176.3(5) . .
C11 C9 C10 O4 175.5(5) . .
C8 C9 C10 O4 -0.2(7) . .
C2 C3 C4 C5 0.0(9) . .
C13 C5 C4 C3 -0.7(8) . .
C6 C5 C4 C3 178.1(5) . .
C2 C14 C13 C5 1.3(9) . .
C4 C5 C13 C14 0.0(8) . .
C6 C5 C13 C14 -178.8(5) . .
C24 C25 C21 C20 -178.9(4) . .
C26 C25 C21 C20 5.7(8) . .
C24 C25 C21 C22 1.4(6) . .
C26 C25 C21 C22 -174.0(5) . .
C36 C20 C21 C25 58.4(8) . .
C19 C20 C21 C25 -122.0(5) . .
C36 C20 C21 C22 -121.9(6) . .
C19 C20 C21 C22 57.7(6) . .
C33 C29 C30 C31 -0.4(9) . .
C28 C29 C30 C31 178.7(5) . .
N2 C32 C33 C29 -1.0(10) . .
C30 C29 C33 C32 1.1(9) . .
C28 C29 C33 C32 -178.0(5) . .
C6 C12 C11 C9 0.7(10) . .
C8 C9 C11 C12 1.0(8) . .
C10 C9 C11 C12 -174.9(5) . .
C15 N1 C40 C39 1.1(8) . .
Zn1 N1 C40 C39 -171.1(4) . .
C17 C39 C40 N1 -0.9(9) . .
C32 N2 C31 C30 0.7(9) . .
Zn1 N2 C31 C30 -178.2(5) 2_774 .
C29 C30 C31 N2 -0.5(10) . .
C25 C21 C22 F1 -135.9(5) . .
C20 C21 C22 F1 44.4(7) . .
C25 C21 C22 F2 106.9(5) . .
C20 C21 C22 F2 -72.9(6) . .
C25 C21 C22 C23 -9.2(7) . .
C20 C21 C22 C23 171.1(5) . .
C19 C20 C36 C37A 175.2(10) . .
C21 C20 C36 C37A -5.2(12) . .
C19 C20 C36 C37 -171.3(9) . .
C21 C20 C36 C37 8.3(12) . .
C19 C20 C36 S1 0.6(6) . .
C21 C20 C36 S1 -179.8(4) . .
C18 S1 C36 C20 0.6(4) . .
C18 S1 C36 C37A -174.3(9) . .
C18 S1 C36 C37 174.0(7) . .
F1 C22 C23 F4 -88.8(9) . .
F2 C22 C23 F4 27.7(10) . .
C21 C22 C23 F4 145.1(7) . .
F1 C22 C23 F3 27.7(7) . .
F2 C22 C23 F3 144.2(5) . .
C21 C22 C23 F3 -98.4(6) . .
F1 C22 C23 C24 138.7(6) . .
F2 C22 C23 C24 -104.8(6) . .
C21 C22 C23 C24 12.6(7) . .
F5 C24 C23 F4 89.5(8) . .
F6 C24 C23 F4 -24.9(8) . .
C25 C24 C23 F4 -144.3(6) . .
F5 C24 C23 F3 -28.4(7) . .
F6 C24 C23 F3 -142.9(6) . .
C25 C24 C23 F3 97.8(6) . .
F5 C24 C23 C22 -138.2(5) . .
F6 C24 C23 C22 107.3(6) . .
C25 C24 C23 C22 -12.0(7) . .
C26 C41 C34 C35 -128.5(7) . .
S2 C41 C34 C35 58.2(7) . .
C20 C36 C37 C38 -119.6(15) . .
S1 C36 C37 C38 68.8(18) . .
C20 C36 C37A C38A 160.3(11) . .
S1 C36 C37A C38A -25.6(18) . .
