#------------------------------------------------------------------------------
#$Date: 2017-08-17 04:46:35 +0300 (Thu, 17 Aug 2017) $
#$Revision: 199804 $
#$URL: file:///home/coder/svn-repositories/cod/cif/7/12/05/7120571.cif $
#------------------------------------------------------------------------------
#
# This file is available in the Crystallography Open Database (COD),
# http://www.crystallography.net/
#
# All data on this site have been placed in the public domain by the
# contributors.
#
data_7120571
loop_
_publ_author_name
'Tao, Chen-Lei'
'Chen, Bin'
'Liu, Xun-Gao'
'Zhou, Li-Jiao'
'Zhu, Xiao-Li'
'Cao, Jun'
'Gu, Zhi-Guo'
'Zhao, Zujin'
'Shen, Liang'
'Tang, Ben Zhong'
_publ_section_title
;
 A highly luminescent entangled metal-organic framework based on
 pyridine-substituted tetraphenylethene for efficient pesticide detection
;
_journal_name_full               'Chem. Commun.'
_journal_paper_doi               10.1039/C7CC05031C
_journal_year                    2017
_chemical_formula_moiety         'C36 H26 N2'
_chemical_formula_sum            'C36 H26 N2'
_chemical_formula_weight         486.59
_space_group_crystal_system      monoclinic
_space_group_IT_number           4
_space_group_name_Hall           'P 2yb'
_space_group_name_H-M_alt        'P 1 21 1'
_symmetry_space_group_name_Hall  'P 2yb'
_symmetry_space_group_name_H-M   'P 1 21 1'
_atom_sites_solution_hydrogens   geom
_audit_creation_method           SHELXL-2014/7
_audit_update_record
;
2017-05-23 deposited with the CCDC.
2017-08-16 downloaded from the CCDC.
;
_cell_angle_alpha                90
_cell_angle_beta                 90.142(2)
_cell_angle_gamma                90
_cell_formula_units_Z            4
_cell_length_a                   5.6957(4)
_cell_length_b                   34.431(2)
_cell_length_c                   13.1466(9)
_cell_measurement_reflns_used    8790
_cell_measurement_temperature    173(2)
_cell_measurement_theta_max      23.29
_cell_measurement_theta_min      2.83
_cell_volume                     2578.2(3)
_computing_structure_refinement  'SHELXL-2014/7 (Sheldrick, 2014)'
_diffrn_ambient_temperature      173(2)
_diffrn_measured_fraction_theta_full 0.998
_diffrn_measured_fraction_theta_max 0.998
_diffrn_measurement_device_type  'PHOTON 100 CMOS detector'
_diffrn_measurement_method       'omega scan'
_diffrn_radiation_type           MoK\a
_diffrn_radiation_wavelength     0.71073
_diffrn_reflns_av_R_equivalents  0.1060
_diffrn_reflns_av_unetI/netI     0.0768
_diffrn_reflns_Laue_measured_fraction_full 0.998
_diffrn_reflns_Laue_measured_fraction_max 0.998
_diffrn_reflns_limit_h_max       6
_diffrn_reflns_limit_h_min       -5
_diffrn_reflns_limit_k_max       36
_diffrn_reflns_limit_k_min       -36
_diffrn_reflns_limit_l_max       14
_diffrn_reflns_limit_l_min       -14
_diffrn_reflns_number            35464
_diffrn_reflns_point_group_measured_fraction_full 0.994
_diffrn_reflns_point_group_measured_fraction_max 0.994
_diffrn_reflns_theta_full        22.249
_diffrn_reflns_theta_max         22.249
_diffrn_reflns_theta_min         2.828
_diffrn_source                   'sealed tube'
_exptl_absorpt_coefficient_mu    0.073
_exptl_absorpt_correction_T_max  0.7449
_exptl_absorpt_correction_T_min  0.5926
_exptl_absorpt_correction_type   multi-scan
_exptl_absorpt_process_details   'SADABS (Bruker, 2014)'
_exptl_crystal_density_diffrn    1.254
_exptl_crystal_description       needle
_exptl_crystal_F_000             1024
_exptl_crystal_size_max          0.380
_exptl_crystal_size_mid          0.100
_exptl_crystal_size_min          0.030
_refine_diff_density_max         0.416
_refine_diff_density_min         -0.363
_refine_diff_density_rms         0.088
_refine_ls_abs_structure_details
;
 Flack x determined using 1982 quotients [(I+)-(I-)]/[(I+)+(I-)]
 (Parsons, Flack and Wagner, Acta Cryst. B69 (2013) 249-259).
;
_refine_ls_abs_structure_Flack   -2.6(10)
_refine_ls_extinction_method     none
_refine_ls_goodness_of_fit_ref   1.199
_refine_ls_hydrogen_treatment    constr
_refine_ls_matrix_type           full
_refine_ls_number_parameters     710
_refine_ls_number_reflns         6467
_refine_ls_number_restraints     208
_refine_ls_restrained_S_all      1.182
_refine_ls_R_factor_all          0.1332
_refine_ls_R_factor_gt           0.1076
_refine_ls_shift/su_max          0.001
_refine_ls_shift/su_mean         0.000
_refine_ls_structure_factor_coef Fsqd
_refine_ls_weighting_details
'w=1/[\s^2^(Fo^2^)+(0.1407P)^2^+9.3569P] where P=(Fo^2^+2Fc^2^)/3'
_refine_ls_weighting_scheme      calc
_refine_ls_wR_factor_gt          0.2778
_refine_ls_wR_factor_ref         0.2984
_reflns_Friedel_coverage         0.953
_reflns_Friedel_fraction_full    0.990
_reflns_Friedel_fraction_max     0.990
_reflns_number_gt                5341
_reflns_number_total             6467
_reflns_threshold_expression     'I > 2\s(I)'
_cod_data_source_file            c7cc05031c2.cif
_cod_data_source_block           BPyTPE
_cod_original_cell_volume        2578.1(3)
_cod_database_code               7120571
_shelx_shelxl_version_number     2014/7
_shelx_space_group_comment
;
The symmetry employed for this shelxl refinement is uniquely defined
by the following loop, which should always be used as a source of
symmetry information in preference to the above space-group names.
They are only intended as comments.
;
_shelx_estimated_absorpt_t_min   0.973
_shelx_estimated_absorpt_t_max   0.998
_shelx_res_file
;

    1.res created by SHELXL-2014/7


TITL 1 in P2(1)
CELL 0.71073   5.6957  34.4309  13.1466  90.000  90.142  90.000
ZERR    4.00   0.0004   0.0022   0.0009   0.000   0.002   0.000
LATT -1
SYMM -X, 0.5+Y, -Z
SFAC C  H  N
UNIT 144 104 8
omit    2   6   4
omit    2  -6   4
omit    3 -20  10
omit    1  10   4
omit    3 -19   9
omit    4 -17   9
OMIT  -2.00  44.5
l.s. 10
acta
sadi .02 c1a c14a c1a c14z
sadi c1a c15a c1a c19a c1a c15z c1a c19z
simu .02 c14a > c19z
BOND $H
FMAP 2
PLAN 20
isor .01 c13a
isor .005 c7a
size 0.38 0.10 0.03
TEMP -100.150
WGHT    0.140700    9.356894
FVAR       0.18171   0.62563
MOLE 1
C1A   1    0.034834    0.640531    0.746019    11.00000    0.01561    0.03093 =
         0.02301   -0.00196   -0.00110   -0.00664
C2A   1    0.057308    0.604645    0.703102    11.00000    0.01850    0.02649 =
         0.02298   -0.00497    0.00408    0.01122
C3A   1    0.093580    0.649747    0.852767    11.00000    0.02380    0.02687 =
         0.02744   -0.00789   -0.00797    0.00061
C4A   1   -0.061178    0.672454    0.910952    11.00000    0.01305    0.04136 =
         0.02407    0.00534    0.00255    0.00078
AFIX  43
H4A   2   -0.206802    0.680046    0.881711    11.00000   -1.20000
AFIX   0
C5A   1   -0.009876    0.684089    1.008520    11.00000    0.01740    0.02932 =
         0.01849   -0.01621   -0.00833    0.00682
AFIX  43
H5A   2   -0.119420    0.699597    1.044732    11.00000   -1.20000
AFIX   0
C6A   1    0.201847    0.673389    1.055327    11.00000    0.01660    0.03302 =
         0.00305    0.00057    0.00185   -0.00290
C7A   1    0.356295    0.650868    0.999643    11.00000    0.01826    0.03036 =
         0.02818   -0.00095   -0.01337    0.00151
AFIX  43
H7A   2    0.499266    0.642775    1.030388    11.00000   -1.20000
AFIX   0
C8A   1    0.308266    0.639629    0.899256    11.00000    0.01413    0.03917 =
         0.01959   -0.00572   -0.00257    0.00099
AFIX  43
H8A   2    0.421233    0.625086    0.862285    11.00000   -1.20000
AFIX   0
C9A   1    0.489715    0.684443    1.311872    11.00000    0.02705    0.06458 =
         0.02780   -0.00111   -0.01855   -0.00987
AFIX  43
H9A   2    0.627398    0.675378    1.345187    11.00000   -1.20000
AFIX   0
C10A  1    0.452110    0.672570    1.212985    11.00000    0.02921    0.04740 =
         0.02985    0.01283   -0.00763    0.00012
AFIX  43
H10A  2    0.562575    0.656332    1.179594    11.00000   -1.20000
AFIX   0
C11A  1    0.252594    0.684599    1.163696    11.00000    0.01768    0.03150 =
         0.03007   -0.00341    0.00473    0.00027
C12A  1    0.107078    0.708610    1.215932    11.00000    0.03769    0.05435 =
         0.02059    0.00182   -0.01531    0.00689
AFIX  43
H12A  2   -0.027417    0.718900    1.182618    11.00000   -1.20000
AFIX   0
C13A  1    0.150206    0.718693    1.318364    11.00000    0.03564    0.04624 =
         0.02565   -0.00279   -0.02143    0.00402
AFIX  43
H13A  2    0.037269    0.733459    1.354741    11.00000   -1.20000
AFIX   0
C20A  1    0.010554    0.597843    0.596013    11.00000    0.02171    0.02893 =
         0.03134    0.00132   -0.01021    0.01681
C21A  1   -0.144878    0.567822    0.569778    11.00000    0.02410    0.02394 =
         0.03172   -0.00303   -0.00012   -0.00686
AFIX  43
H21A  2   -0.209191    0.551158    0.620114    11.00000   -1.20000
AFIX   0
C22A  1   -0.202524    0.563245    0.465474    11.00000    0.02283    0.03914 =
         0.02320   -0.01014    0.00250   -0.00764
AFIX  43
H22A  2   -0.306350    0.542783    0.447290    11.00000   -1.20000
AFIX   0
C23A  1   -0.119013    0.586177    0.390180    11.00000    0.03028    0.02186 =
         0.02891   -0.00598   -0.00895   -0.00083
C24A  1    0.041268    0.614762    0.417675    11.00000    0.03624    0.03362 =
         0.02559   -0.00136    0.00484   -0.01665
AFIX  43
H24A  2    0.108747    0.630556    0.366210    11.00000   -1.20000
AFIX   0
C25A  1    0.104800    0.620791    0.517465    11.00000    0.03992    0.02471 =
         0.02934   -0.00836   -0.00256   -0.01068
AFIX  43
H25A  2    0.213920    0.640742    0.533605    11.00000   -1.20000
AFIX   0
C26A  1   -0.110167    0.586240    0.102365    11.00000    0.03787    0.04502 =
         0.02760   -0.01178   -0.00282   -0.00631
AFIX  43
H26A  2   -0.011823    0.596429    0.050563    11.00000   -1.20000
AFIX   0
C27A  1   -0.041996    0.592210    0.202174    11.00000    0.03076    0.02958 =
         0.02862   -0.00630   -0.00918   -0.01645
AFIX  43
H27A  2    0.102796    0.604822    0.216321    11.00000   -1.20000
AFIX   0
C28A  1   -0.181470    0.580093    0.280948    11.00000    0.02626    0.03153 =
         0.02351   -0.00503   -0.01139    0.00065
C29A  1   -0.390721    0.561163    0.255270    11.00000    0.03196    0.05837 =
         0.02819   -0.00939   -0.00560   -0.00002
AFIX  43
H29A  2   -0.496751    0.552363    0.305955    11.00000   -1.20000
AFIX   0
C30A  1   -0.436521    0.555811    0.152648    11.00000    0.04032    0.07489 =
         0.02884   -0.00630    0.00650    0.00244
AFIX  43
H30A  2   -0.577244    0.542570    0.135114    11.00000   -1.20000
AFIX   0
C31A  1    0.138594    0.570935    0.764656    11.00000    0.03252    0.02721 =
         0.03785   -0.00407   -0.00610   -0.01259
C32A  1    0.023951    0.558829    0.850196    11.00000    0.04190    0.02088 =
         0.03506   -0.00061    0.00719    0.00345
AFIX  43
H32A  2   -0.117350    0.571291    0.870268    11.00000   -1.20000
AFIX   0
C33A  1    0.112902    0.528444    0.907826    11.00000    0.05921    0.02043 =
         0.04840   -0.00499   -0.01286   -0.00038
AFIX  43
H33A  2    0.033356    0.520428    0.967685    11.00000   -1.20000
AFIX   0
C34A  1    0.318765    0.509570    0.878330    11.00000    0.07248    0.02408 =
         0.06608    0.00298   -0.02601    0.02108
AFIX  43
H34A  2    0.387412    0.490371    0.920933    11.00000   -1.20000
AFIX   0
C35A  1    0.423927    0.519294    0.784582    11.00000    0.04876    0.05413 =
         0.04330   -0.00346    0.00862    0.00995
AFIX  43
H35A  2    0.555153    0.505073    0.760180    11.00000   -1.20000
AFIX   0
C36A  1    0.333061    0.549747    0.729093    11.00000    0.03515    0.03174 =
         0.05697   -0.00066   -0.01131    0.01075
AFIX  43
H36A  2    0.402638    0.556538    0.665948    11.00000   -1.20000
AFIX   0
C1B   1    0.463930    0.359496    0.306870    11.00000    0.01618    0.03802 =
         0.02239   -0.00728    0.00817    0.00871
C2B   1    0.444376    0.395558    0.265282    11.00000    0.02231    0.01926 =
         0.03207    0.00419   -0.00564    0.00159
C3B   1    0.408307    0.350609    0.414970    11.00000    0.02792    0.02928 =
         0.01606    0.00557    0.00710   -0.00853
C4B   1    0.197271    0.361030    0.458095    11.00000    0.01066    0.03476 =
         0.04626    0.01727    0.00791    0.01023
AFIX  43
H4B   2    0.086323    0.376052    0.421050    11.00000   -1.20000
AFIX   0
C5B   1    0.149576    0.348938    0.558240    11.00000    0.02521    0.04094 =
         0.02582   -0.01090    0.00821   -0.00289
AFIX  43
H5B   2    0.005737    0.356525    0.588804    11.00000   -1.20000
AFIX   0
C6B   1    0.303124    0.326657    0.613010    11.00000    0.01935    0.02618 =
         0.02040    0.00056    0.00789    0.00297
C7B   1    0.506002    0.316999    0.569287    11.00000    0.01766    0.01909 =
         0.02036   -0.00253   -0.00435    0.01007
AFIX  43
H7B   2    0.617751    0.302504    0.607311    11.00000   -1.20000
AFIX   0
C8B   1    0.559981    0.327651    0.468153    11.00000    0.02149    0.02920 =
         0.04066    0.00113    0.00897    0.00816
AFIX  43
H8B   2    0.701136    0.318857    0.437458    11.00000   -1.20000
AFIX   0
C9B   1    0.342487    0.281378    0.875942    11.00000    0.04419    0.04704 =
         0.00714    0.00749    0.00870    0.00754
AFIX  43
H9B   2    0.453077    0.266157    0.912627    11.00000   -1.20000
AFIX   0
C10B  1    0.391489    0.290422    0.773881    11.00000    0.01990    0.04638 =
         0.03774    0.00690    0.01407    0.00985
AFIX  43
H10B  2    0.524952    0.279447    0.741586    11.00000   -1.20000
AFIX   0
C11B  1    0.246916    0.315058    0.720910    11.00000    0.02129    0.02781 =
         0.01396   -0.00905   -0.00201   -0.00508
C12B  1    0.046986    0.327029    0.772030    11.00000    0.02506    0.04973 =
         0.01900    0.00803    0.00807    0.00383
AFIX  43
H12B  2   -0.062840    0.343248    0.737952    11.00000   -1.20000
AFIX   0
C13B  1    0.003653    0.316090    0.870329    11.00000    0.01929    0.05531 =
         0.03439    0.00379    0.00035   -0.00230
AFIX  43
H13B  2   -0.135387    0.325178    0.902221    11.00000   -1.20000
AFIX   0
C14B  1    0.557636    0.325985    0.246268    11.00000    0.03586    0.04037 =
         0.01404   -0.00050   -0.01352    0.00823
C15B  1    0.768118    0.326878    0.196662    11.00000    0.03186    0.04475 =
         0.02122    0.00710    0.00651    0.01119
AFIX  43
H15B  2    0.869379    0.348598    0.204587    11.00000   -1.20000
AFIX   0
C16B  1    0.834532    0.296092    0.134623    11.00000    0.04015    0.07067 =
         0.02854   -0.00797    0.00599    0.01333
AFIX  43
H16B  2    0.980720    0.296620    0.100015    11.00000   -1.20000
AFIX   0
C17B  1    0.687826    0.265271    0.124135    11.00000    0.07698    0.06533 =
         0.03909   -0.00542    0.00116    0.03991
AFIX  43
H17B  2    0.734257    0.244348    0.081589    11.00000   -1.20000
AFIX   0
C18B  1    0.470217    0.263105    0.173690    11.00000    0.06187    0.01884 =
         0.04683   -0.00767   -0.02950   -0.00204
AFIX  43
H18B  2    0.367073    0.241728    0.164067    11.00000   -1.20000
AFIX   0
C19B  1    0.412093    0.294579    0.239078    11.00000    0.03110    0.03197 =
         0.04082    0.00171   -0.00914   -0.00420
AFIX  43
H19B  2    0.271646    0.293744    0.277845    11.00000   -1.20000
AFIX   0
C20B  1    0.485582    0.402693    0.153464    11.00000    0.02154    0.02296 =
         0.00801   -0.00125   -0.00321    0.00238
C21B  1    0.630595    0.432511    0.128756    11.00000    0.03871    0.03708 =
         0.02072   -0.00204   -0.01802    0.00410
AFIX  43
H21B  2    0.689528    0.449085    0.180643    11.00000   -1.20000
AFIX   0
C22B  1    0.696132    0.439233    0.023742    11.00000    0.03772    0.03770 =
         0.02994    0.00460    0.01183    0.00221
AFIX  43
H22B  2    0.795762    0.460300    0.006114    11.00000   -1.20000
AFIX   0
C23B  1    0.612470    0.414867   -0.048864    11.00000    0.02783    0.02482 =
         0.01819    0.00460   -0.00842    0.00869
C24B  1    0.451455    0.385103   -0.022080    11.00000    0.02423    0.02825 =
         0.02543   -0.00375   -0.00054   -0.01135
AFIX  43
H24B  2    0.380996    0.369390   -0.073111    11.00000   -1.20000
AFIX   0
C25B  1    0.397969    0.379255    0.081095    11.00000    0.03390    0.02889 =
         0.02425    0.01543   -0.01110   -0.00860
AFIX  43
H25B  2    0.298154    0.358369    0.099953    11.00000   -1.20000
AFIX   0
C26B  1    0.600843    0.414850   -0.337115    11.00000    0.03132    0.04112 =
         0.04162    0.00167   -0.00208    0.00329
AFIX  43
H26B  2    0.496476    0.407393   -0.390103    11.00000   -1.20000
AFIX   0
C27B  1    0.535304    0.407469   -0.236769    11.00000    0.04115    0.03851 =
         0.01553   -0.00734   -0.00963   -0.01492
AFIX  43
H27B  2    0.392099    0.394422   -0.222603    11.00000   -1.20000
AFIX   0
C28B  1    0.680319    0.419281   -0.158002    11.00000    0.03401    0.01715 =
         0.02746    0.00390    0.02446    0.00719
C29B  1    0.891495    0.436451   -0.185262    11.00000    0.03843    0.03845 =
         0.03592    0.00136   -0.00729   -0.00981
AFIX  43
H29B  2    1.000934    0.444229   -0.134559    11.00000   -1.20000
AFIX   0
C30B  1    0.940771    0.442117   -0.287638    11.00000    0.01850    0.04103 =
         0.03614    0.00784    0.00312    0.00122
AFIX  43
H30B  2    1.085206    0.454327   -0.304321    11.00000   -1.20000
AFIX   0
C31B  1    0.379110    0.430441    0.325369    11.00000    0.02909    0.02001 =
         0.03117   -0.00374    0.00677    0.00661
C32B  1    0.507222    0.441672    0.412367    11.00000    0.03055    0.03306 =
         0.02370    0.00895    0.00235    0.00183
AFIX  43
H32B  2    0.642667    0.427500    0.432528    11.00000   -1.20000
AFIX   0
C33B  1    0.433998    0.473583    0.468325    11.00000    0.05797    0.02510 =
         0.03601   -0.00181   -0.00367   -0.00185
AFIX  43
H33B  2    0.517731    0.480731    0.528042    11.00000   -1.20000
AFIX   0
C34B  1    0.245443    0.494644    0.439187    11.00000    0.06074    0.03481 =
         0.05623   -0.00184    0.01306    0.00179
AFIX  43
H34B  2    0.193678    0.515798    0.479741    11.00000   -1.20000
AFIX   0
C35B  1    0.126442    0.485301    0.349307    11.00000    0.04770    0.04626 =
         0.07826   -0.00921   -0.00792    0.02611
AFIX  43
H35B  2    0.004351    0.501637    0.324817    11.00000   -1.20000
AFIX   0
C36B  1    0.186413    0.452760    0.297284    11.00000    0.03482    0.04533 =
         0.03706   -0.00380   -0.01158   -0.00389
AFIX  43
H36B  2    0.094513    0.445065    0.240349    11.00000   -1.20000
AFIX   0
N1A   3    0.346769    0.707751    1.364241    11.00000    0.05267    0.04661 =
         0.01962   -0.00204    0.00091   -0.00981
N2A   3   -0.296195    0.567984    0.074155    11.00000    0.03624    0.06978 =
         0.03713    0.00164    0.00861    0.00703
N1B   3    0.149647    0.292999    0.923777    11.00000    0.03610    0.04907 =
         0.03301   -0.00411    0.00722   -0.01286
N2B   3    0.803751    0.431939   -0.362372    11.00000    0.04148    0.04757 =
         0.03050    0.00525    0.00547   -0.00379
part 1
same c14a c19a < c15a
same c14z > c19z
same c14z c19z < c15z
C14A  1   -0.037984    0.674461    0.685499    21.00000    0.02433    0.02345 =
         0.02330   -0.00628    0.01077   -0.00205
C15A  1   -0.253185    0.675413    0.633903    21.00000    0.02728    0.02838 =
         0.02749   -0.00980    0.00778   -0.01082
AFIX  43
H15A  2   -0.355610    0.653697    0.638032    21.00000   -1.20000
AFIX   0
C16A  1   -0.319709    0.707555    0.576742    21.00000    0.02796    0.02644 =
         0.02673   -0.00782   -0.00732    0.00155
AFIX  43
H16A  2   -0.470754    0.708643    0.546061    21.00000   -1.20000
AFIX   0
C17A  1   -0.162064    0.738162    0.565008    21.00000    0.03160    0.02873 =
         0.01095    0.01264    0.00086   -0.00394
AFIX  43
H17A  2   -0.196795    0.758541    0.518639    21.00000   -1.20000
AFIX   0
C18A  1    0.048028    0.739099    0.621299    21.00000    0.02299    0.01649 =
         0.02479   -0.00594   -0.00639    0.00646
AFIX  43
H18A  2    0.148656    0.761082    0.618923    21.00000   -1.20000
AFIX   0
C19A  1    0.104225    0.707107    0.680283    21.00000    0.02783    0.02258 =
         0.02825   -0.01397    0.00708   -0.00095
AFIX  43
H19A  2    0.245702    0.707521    0.718693    21.00000   -1.20000
AFIX   0
part 2
C14Z  1   -0.071627    0.673412    0.690328   -21.00000    0.02583
C15Z  1   -0.286385    0.668373    0.640081   -21.00000    0.03006
AFIX  43
H15Z  2   -0.374494    0.645351    0.651364   -21.00000   -1.20000
AFIX   0
C16Z  1   -0.372747    0.696361    0.574184   -21.00000    0.03225
AFIX  43
H16Z  2   -0.518612    0.692913    0.540166   -21.00000   -1.20000
AFIX   0
C17Z  1   -0.238111    0.729888    0.559350   -21.00000    0.01930
AFIX  43
H17Z  2   -0.296280    0.749435    0.514951   -21.00000   -1.20000
AFIX   0
C18Z  1   -0.022360    0.735763    0.607017   -21.00000    0.02511
AFIX  43
H18Z  2    0.066370    0.758699    0.595463   -21.00000   -1.20000
AFIX   0
C19Z  1    0.058399    0.706895    0.672032   -21.00000    0.02099
AFIX  43
H19Z  2    0.205979    0.710080    0.704811   -21.00000   -1.20000
part 0
AFIX   0
HKLF 4

REM  1 in P2(1)
REM R1 =  0.1076 for    5341 Fo > 4sig(Fo)  and  0.1332 for all    6467 data
REM    710 parameters refined using    208 restraints

END

WGHT      0.0724     17.0357

REM Highest difference peak  0.416,  deepest hole -0.363,  1-sigma level  0.088
Q1    1   0.1804  0.4616  0.1697  11.00000  0.05    0.42
Q2    1  -0.2101  0.2939  0.9964  11.00000  0.05    0.37
Q3    1   0.4183  0.3615  0.1801  11.00000  0.05    0.34
Q4    1   0.5957  0.4120 -0.4647  11.00000  0.05    0.34
Q5    1   0.1305  0.5534  1.0374  11.00000  0.05    0.32
Q6    1  -0.1957  0.7663  1.3783  11.00000  0.05    0.32
Q7    1   0.0567  0.7069  0.8147  11.00000  0.05    0.32
Q8    1   0.9567  0.4414 -0.4470  11.00000  0.05    0.32
Q9    1  -0.6478  0.7172  0.4805  11.00000  0.05    0.32
Q10   1   0.5139  0.4793  0.0713  11.00000  0.05    0.31
Q11   1   0.3600  0.6484  1.1164  11.00000  0.05    0.31
Q12   1  -0.1520  0.5006  0.4526  11.00000  0.05    0.31
Q13   1   0.1433  0.5737  0.8814  11.00000  0.05    0.30
Q14   1   0.2361  0.5834 -0.0412  11.00000  0.05    0.30
Q15   1   0.6456  0.7217  1.2407  11.00000  0.05    0.30
Q16   1   0.6917  0.4977  0.8534  11.00000  0.05    0.30
Q17   1   0.0279  0.7402  0.7465  11.00000  0.05    0.29
Q18   1  -0.0113  0.6081  0.8622  11.00000  0.05    0.29
Q19   1  -0.2786  0.6756  0.7688  11.00000  0.05    0.29
Q20   1   0.2592  0.5075  1.0089  11.00000  0.05    0.29
;
_shelx_res_checksum              61878
loop_
_space_group_symop_operation_xyz
'x, y, z'
'-x, y+1/2, -z'
loop_
_atom_site_label
_atom_site_type_symbol
_atom_site_fract_x
_atom_site_fract_y
_atom_site_fract_z
_atom_site_U_iso_or_equiv
_atom_site_adp_type
_atom_site_occupancy
_atom_site_site_symmetry_order
_atom_site_calc_flag
_atom_site_refinement_flags_posn
_atom_site_refinement_flags_adp
_atom_site_refinement_flags_occupancy
_atom_site_disorder_assembly
_atom_site_disorder_group
C1A C 0.035(2) 0.6405(4) 0.7460(10) 0.023(3) Uani 1 1 d D . . . .
C2A C 0.057(2) 0.6046(4) 0.7031(10) 0.023(3) Uani 1 1 d . . . . .
C3A C 0.094(2) 0.6497(4) 0.8528(11) 0.026(3) Uani 1 1 d . . . . .
C4A C -0.061(2) 0.6725(4) 0.9110(11) 0.026(3) Uani 1 1 d . . . . .
H4A H -0.2068 0.6800 0.8817 0.031 Uiso 1 1 calc R U . . .
C5A C -0.010(2) 0.6841(4) 1.0085(10) 0.022(3) Uani 1 1 d . . . . .
H5A H -0.1194 0.6996 1.0447 0.026 Uiso 1 1 calc R U . . .
C6A C 0.202(2) 0.6734(4) 1.0553(9) 0.018(3) Uani 1 1 d . . . . .
C7A C 0.356(2) 0.6509(4) 0.9996(11) 0.026(3) Uani 1 1 d . U . . .
H7A H 0.4993 0.6428 1.0304 0.031 Uiso 1 1 calc R U . . .
C8A C 0.308(2) 0.6396(4) 0.8993(10) 0.024(3) Uani 1 1 d . . . . .
H8A H 0.4212 0.6251 0.8623 0.029 Uiso 1 1 calc R U . . .
C9A C 0.490(3) 0.6844(5) 1.3119(12) 0.040(4) Uani 1 1 d . . . . .
H9A H 0.6274 0.6754 1.3452 0.048 Uiso 1 1 calc R U . . .
C10A C 0.452(3) 0.6726(5) 1.2130(11) 0.036(4) Uani 1 1 d . . . . .
H10A H 0.5626 0.6563 1.1796 0.043 Uiso 1 1 calc R U . . .
C11A C 0.253(2) 0.6846(4) 1.1637(11) 0.026(3) Uani 1 1 d . . . . .
C12A C 0.107(3) 0.7086(5) 1.2159(11) 0.038(4) Uani 1 1 d . . . . .
H12A H -0.0274 0.7189 1.1826 0.045 Uiso 1 1 calc R U . . .
C13A C 0.150(3) 0.7187(5) 1.3184(12) 0.036(4) Uani 1 1 d . U . . .
H13A H 0.0373 0.7335 1.3547 0.043 Uiso 1 1 calc R U . . .
C20A C 0.011(3) 0.5978(4) 0.5960(11) 0.027(4) Uani 1 1 d . . . . .
C21A C -0.145(2) 0.5678(4) 0.5698(11) 0.027(3) Uani 1 1 d . . . . .
H21A H -0.2092 0.5512 0.6201 0.032 Uiso 1 1 calc R U . . .
C22A C -0.203(3) 0.5632(4) 0.4655(11) 0.028(4) Uani 1 1 d . . . . .
H22A H -0.3064 0.5428 0.4473 0.034 Uiso 1 1 calc R U . . .
C23A C -0.119(3) 0.5862(4) 0.3902(11) 0.027(4) Uani 1 1 d . . . . .
C24A C 0.041(3) 0.6148(4) 0.4177(11) 0.032(4) Uani 1 1 d . . . . .
H24A H 0.1087 0.6306 0.3662 0.038 Uiso 1 1 calc R U . . .
C25A C 0.105(3) 0.6208(4) 0.5175(11) 0.031(4) Uani 1 1 d . . . . .
H25A H 0.2139 0.6407 0.5336 0.038 Uiso 1 1 calc R U . . .
C26A C -0.110(3) 0.5862(5) 0.1024(12) 0.037(4) Uani 1 1 d . . . . .
H26A H -0.0118 0.5964 0.0506 0.044 Uiso 1 1 calc R U . . .
C27A C -0.042(3) 0.5922(4) 0.2022(11) 0.030(4) Uani 1 1 d . . . . .
H27A H 0.1028 0.6048 0.2163 0.036 Uiso 1 1 calc R U . . .
C28A C -0.181(3) 0.5801(4) 0.2809(11) 0.027(4) Uani 1 1 d . . . . .
C29A C -0.391(3) 0.5612(5) 0.2553(12) 0.040(4) Uani 1 1 d . . . . .
H29A H -0.4968 0.5524 0.3060 0.047 Uiso 1 1 calc R U . . .
C30A C -0.437(3) 0.5558(6) 0.1526(12) 0.048(5) Uani 1 1 d . . . . .
H30A H -0.5772 0.5426 0.1351 0.058 Uiso 1 1 calc R U . . .
C31A C 0.139(3) 0.5709(4) 0.7647(12) 0.033(4) Uani 1 1 d . . . . .
C32A C 0.024(3) 0.5588(4) 0.8502(11) 0.033(4) Uani 1 1 d . . . . .
H32A H -0.1173 0.5713 0.8703 0.039 Uiso 1 1 calc R U . . .
C33A C 0.113(3) 0.5284(4) 0.9078(13) 0.043(4) Uani 1 1 d . . . . .
H33A H 0.0334 0.5204 0.9677 0.051 Uiso 1 1 calc R U . . .
C34A C 0.319(4) 0.5096(5) 0.8783(15) 0.054(5) Uani 1 1 d . . . . .
H34A H 0.3874 0.4904 0.9209 0.065 Uiso 1 1 calc R U . . .
C35A C 0.424(3) 0.5193(5) 0.7846(13) 0.049(5) Uani 1 1 d . . . . .
H35A H 0.5552 0.5051 0.7602 0.058 Uiso 1 1 calc R U . . .
C36A C 0.333(3) 0.5497(5) 0.7291(14) 0.041(4) Uani 1 1 d . . . . .
H36A H 0.4026 0.5565 0.6659 0.050 Uiso 1 1 calc R U . . .
C1B C 0.464(2) 0.3595(4) 0.3069(10) 0.026(3) Uani 1 1 d . . . . .
C2B C 0.444(2) 0.3956(4) 0.2653(11) 0.025(3) Uani 1 1 d . . . . .
C3B C 0.408(3) 0.3506(4) 0.4150(10) 0.024(3) Uani 1 1 d . . . . .
C4B C 0.197(2) 0.3610(4) 0.4581(12) 0.031(4) Uani 1 1 d . . . . .
H4B H 0.0863 0.3761 0.4211 0.037 Uiso 1 1 calc R U . . .
C5B C 0.150(3) 0.3489(4) 0.5582(11) 0.031(4) Uani 1 1 d . . . . .
H5B H 0.0057 0.3565 0.5888 0.037 Uiso 1 1 calc R U . . .
C6B C 0.303(2) 0.3267(4) 0.6130(10) 0.022(3) Uani 1 1 d . . . . .
C7B C 0.506(2) 0.3170(4) 0.5693(10) 0.019(3) Uani 1 1 d . . . . .
H7B H 0.6178 0.3025 0.6073 0.023 Uiso 1 1 calc R U . . .
C8B C 0.560(3) 0.3277(4) 0.4682(12) 0.030(4) Uani 1 1 d . . . . .
H8B H 0.7011 0.3189 0.4375 0.037 Uiso 1 1 calc R U . . .
C9B C 0.342(3) 0.2814(5) 0.8759(10) 0.033(4) Uani 1 1 d . . . . .
H9B H 0.4531 0.2662 0.9126 0.039 Uiso 1 1 calc R U . . .
C10B C 0.391(3) 0.2904(5) 0.7739(12) 0.035(4) Uani 1 1 d . . . . .
H10B H 0.5250 0.2794 0.7416 0.042 Uiso 1 1 calc R U . . .
C11B C 0.247(2) 0.3151(4) 0.7209(10) 0.021(3) Uani 1 1 d . . . . .
C12B C 0.047(3) 0.3270(5) 0.7720(11) 0.031(4) Uani 1 1 d . . . . .
H12B H -0.0628 0.3432 0.7380 0.037 Uiso 1 1 calc R U . . .
C13B C 0.004(3) 0.3161(5) 0.8703(12) 0.036(4) Uani 1 1 d . . . . .
H13B H -0.1354 0.3252 0.9022 0.044 Uiso 1 1 calc R U . . .
C14B C 0.558(3) 0.3260(5) 0.2463(10) 0.030(4) Uani 1 1 d . . . . .
C15B C 0.768(3) 0.3269(5) 0.1967(10) 0.033(4) Uani 1 1 d . . . . .
H15B H 0.8694 0.3486 0.2046 0.039 Uiso 1 1 calc R U . . .
C16B C 0.835(3) 0.2961(6) 0.1346(12) 0.046(5) Uani 1 1 d . . . . .
H16B H 0.9807 0.2966 0.1000 0.056 Uiso 1 1 calc R U . . .
C17B C 0.688(4) 0.2653(6) 0.1241(14) 0.060(6) Uani 1 1 d . . . . .
H17B H 0.7343 0.2443 0.0816 0.073 Uiso 1 1 calc R U . . .
C18B C 0.470(3) 0.2631(4) 0.1737(13) 0.043(5) Uani 1 1 d . . . . .
H18B H 0.3671 0.2417 0.1641 0.051 Uiso 1 1 calc R U . . .
C19B C 0.412(3) 0.2946(4) 0.2391(12) 0.035(4) Uani 1 1 d . . . . .
H19B H 0.2716 0.2937 0.2778 0.042 Uiso 1 1 calc R U . . .
C20B C 0.486(2) 0.4027(4) 0.1535(9) 0.018(3) Uani 1 1 d . . . . .
C21B C 0.631(3) 0.4325(5) 0.1288(11) 0.032(4) Uani 1 1 d . . . . .
H21B H 0.6895 0.4491 0.1806 0.039 Uiso 1 1 calc R U . . .
C22B C 0.696(3) 0.4392(5) 0.0237(11) 0.035(4) Uani 1 1 d . . . . .
H22B H 0.7958 0.4603 0.0061 0.042 Uiso 1 1 calc R U . . .
C23B C 0.612(3) 0.4149(4) -0.0489(10) 0.024(3) Uani 1 1 d . . . . .
C24B C 0.451(3) 0.3851(4) -0.0221(11) 0.026(3) Uani 1 1 d . . . . .
H24B H 0.3810 0.3694 -0.0731 0.031 Uiso 1 1 calc R U . . .
C25B C 0.398(3) 0.3793(4) 0.0811(11) 0.029(4) Uani 1 1 d . . . . .
H25B H 0.2982 0.3584 0.1000 0.035 Uiso 1 1 calc R U . . .
C26B C 0.601(3) 0.4149(5) -0.3371(12) 0.038(4) Uani 1 1 d . . . . .
H26B H 0.4965 0.4074 -0.3901 0.046 Uiso 1 1 calc R U . . .
C27B C 0.535(3) 0.4075(5) -0.2368(10) 0.032(4) Uani 1 1 d . . . . .
H27B H 0.3921 0.3944 -0.2226 0.038 Uiso 1 1 calc R U . . .
C28B C 0.680(3) 0.4193(4) -0.1580(11) 0.026(4) Uani 1 1 d . . . . .
C29B C 0.891(3) 0.4365(5) -0.1853(12) 0.038(4) Uani 1 1 d . . . . .
H29B H 1.0009 0.4442 -0.1346 0.045 Uiso 1 1 calc R U . . .
C30B C 0.941(3) 0.4421(5) -0.2876(11) 0.032(4) Uani 1 1 d . . . . .
H30B H 1.0852 0.4543 -0.3043 0.038 Uiso 1 1 calc R U . . .
C31B C 0.379(3) 0.4304(4) 0.3254(11) 0.027(4) Uani 1 1 d . . . . .
C32B C 0.507(3) 0.4417(4) 0.4124(10) 0.029(4) Uani 1 1 d . . . . .
H32B H 0.6427 0.4275 0.4325 0.035 Uiso 1 1 calc R U . . .
C33B C 0.434(3) 0.4736(4) 0.4683(13) 0.040(4) Uani 1 1 d . . . . .
H33B H 0.5177 0.4807 0.5280 0.048 Uiso 1 1 calc R U . . .
C34B C 0.245(4) 0.4946(5) 0.4392(15) 0.051(5) Uani 1 1 d . . . . .
H34B H 0.1937 0.5158 0.4797 0.061 Uiso 1 1 calc R U . . .
C35B C 0.126(3) 0.4853(6) 0.3493(16) 0.057(5) Uani 1 1 d . . . . .
H35B H 0.0044 0.5016 0.3248 0.069 Uiso 1 1 calc R U . . .
C36B C 0.186(3) 0.4528(5) 0.2973(12) 0.039(4) Uani 1 1 d . . . . .
H36B H 0.0945 0.4451 0.2403 0.047 Uiso 1 1 calc R U . . .
N1A N 0.347(2) 0.7078(4) 1.3642(9) 0.040(3) Uani 1 1 d . . . . .
N2A N -0.296(3) 0.5680(5) 0.0742(10) 0.048(4) Uani 1 1 d . . . . .
N1B N 0.150(2) 0.2930(4) 0.9238(10) 0.039(3) Uani 1 1 d . . . . .
N2B N 0.804(2) 0.4319(4) -0.3624(10) 0.040(3) Uani 1 1 d . . . . .
C14A C -0.038(5) 0.6745(8) 0.685(3) 0.024(6) Uani 0.63(8) 1 d D U P A 1
C15A C -0.253(5) 0.6754(9) 0.634(3) 0.028(5) Uani 0.63(8) 1 d D U P A 1
H15A H -0.3556 0.6537 0.6380 0.033 Uiso 0.63(8) 1 calc R U P A 1
C16A C -0.320(6) 0.7076(11) 0.5767(19) 0.027(6) Uani 0.63(8) 1 d D U P A 1
H16A H -0.4708 0.7086 0.5461 0.032 Uiso 0.63(8) 1 calc R U P A 1
C17A C -0.162(8) 0.7382(9) 0.5650(19) 0.024(6) Uani 0.63(8) 1 d D U P A 1
H17A H -0.1968 0.7585 0.5186 0.029 Uiso 0.63(8) 1 calc R U P A 1
C18A C 0.048(7) 0.7391(6) 0.621(2) 0.021(5) Uani 0.63(8) 1 d D U P A 1
H18A H 0.1487 0.7611 0.6189 0.026 Uiso 0.63(8) 1 calc R U P A 1
C19A C 0.104(7) 0.7071(7) 0.680(3) 0.026(5) Uani 0.63(8) 1 d D U P A 1
H19A H 0.2457 0.7075 0.7187 0.031 Uiso 0.63(8) 1 calc R U P A 1
C14Z C -0.072(10) 0.6734(13) 0.690(7) 0.026(8) Uiso 0.37(8) 1 d D U P A 2
C15Z C -0.286(9) 0.6684(16) 0.640(5) 0.030(8) Uiso 0.37(8) 1 d D U P A 2
H15Z H -0.3745 0.6454 0.6514 0.036 Uiso 0.37(8) 1 calc R U P A 2
C16Z C -0.373(9) 0.6964(19) 0.574(4) 0.032(8) Uiso 0.37(8) 1 d D U P A 2
H16Z H -0.5186 0.6929 0.5402 0.039 Uiso 0.37(8) 1 calc R U P A 2
C17Z C -0.238(11) 0.7299(14) 0.559(3) 0.019(8) Uiso 0.37(8) 1 d D U P A 2
H17Z H -0.2963 0.7494 0.5150 0.023 Uiso 0.37(8) 1 calc R U P A 2
C18Z C -0.022(11) 0.7358(12) 0.607(4) 0.025(8) Uiso 0.37(8) 1 d D U P A 2
H18Z H 0.0664 0.7587 0.5955 0.030 Uiso 0.37(8) 1 calc R U P A 2
C19Z C 0.058(10) 0.7069(12) 0.672(6) 0.021(8) Uiso 0.37(8) 1 d D U P A 2
H19Z H 0.2060 0.7101 0.7048 0.025 Uiso 0.37(8) 1 calc R U P A 2
loop_
_atom_site_aniso_label
_atom_site_aniso_U_11
_atom_site_aniso_U_22
_atom_site_aniso_U_33
_atom_site_aniso_U_23
_atom_site_aniso_U_13
_atom_site_aniso_U_12
C1A 0.016(7) 0.031(9) 0.023(8) -0.002(7) -0.001(6) -0.007(6)
C2A 0.019(8) 0.026(8) 0.023(8) -0.005(7) 0.004(6) 0.011(6)
C3A 0.024(8) 0.027(8) 0.027(8) -0.008(7) -0.008(7) 0.001(7)
C4A 0.013(7) 0.041(9) 0.024(8) 0.005(7) 0.003(6) 0.001(7)
C5A 0.017(8) 0.029(8) 0.018(8) -0.016(6) -0.008(6) 0.007(6)
C6A 0.017(7) 0.033(8) 0.003(6) 0.001(6) 0.002(5) -0.003(6)
C7A 0.018(6) 0.030(6) 0.028(6) -0.001(5) -0.013(5) 0.002(5)
C8A 0.014(7) 0.039(9) 0.020(8) -0.006(6) -0.003(6) 0.001(6)
C9A 0.027(9) 0.065(12) 0.028(9) -0.001(8) -0.019(7) -0.010(8)
C10A 0.029(9) 0.047(10) 0.030(9) 0.013(8) -0.008(7) 0.000(8)
C11A 0.018(8) 0.032(9) 0.030(8) -0.003(7) 0.005(7) 0.000(7)
C12A 0.038(10) 0.054(11) 0.021(8) 0.002(8) -0.015(7) 0.007(8)
C13A 0.036(8) 0.046(9) 0.026(8) -0.003(7) -0.021(7) 0.004(7)
C20A 0.022(9) 0.029(9) 0.031(9) 0.001(7) -0.010(7) 0.017(7)
C21A 0.024(8) 0.024(8) 0.032(9) -0.003(6) 0.000(7) -0.007(7)
C22A 0.023(8) 0.039(9) 0.023(8) -0.010(7) 0.003(6) -0.008(7)
C23A 0.030(9) 0.022(8) 0.029(9) -0.006(7) -0.009(7) -0.001(7)
C24A 0.036(10) 0.034(9) 0.026(9) -0.001(7) 0.005(7) -0.017(7)
C25A 0.040(10) 0.025(8) 0.029(9) -0.008(7) -0.003(7) -0.011(7)
C26A 0.038(10) 0.045(10) 0.028(9) -0.012(7) -0.003(8) -0.006(8)
C27A 0.031(9) 0.030(9) 0.029(9) -0.006(7) -0.009(7) -0.016(7)
C28A 0.026(9) 0.032(8) 0.024(8) -0.005(7) -0.011(7) 0.001(7)
C29A 0.032(10) 0.058(11) 0.028(9) -0.009(8) -0.006(7) 0.000(8)
C30A 0.040(11) 0.075(13) 0.029(10) -0.006(9) 0.006(8) 0.002(10)
C31A 0.033(9) 0.027(9) 0.038(9) -0.004(7) -0.006(8) -0.013(8)
C32A 0.042(10) 0.021(8) 0.035(9) -0.001(7) 0.007(8) 0.003(7)
C33A 0.059(12) 0.020(9) 0.048(11) -0.005(8) -0.013(9) 0.000(9)
C34A 0.072(14) 0.024(9) 0.066(13) 0.003(9) -0.026(11) 0.021(9)
C35A 0.049(11) 0.054(12) 0.043(11) -0.003(9) 0.009(9) 0.010(9)
C36A 0.035(10) 0.032(10) 0.057(11) -0.001(8) -0.011(9) 0.011(8)
C1B 0.016(8) 0.038(9) 0.022(8) -0.007(7) 0.008(6) 0.009(7)
C2B 0.022(8) 0.019(8) 0.032(8) 0.004(7) -0.006(7) 0.002(6)
C3B 0.028(9) 0.029(8) 0.016(7) 0.006(6) 0.007(6) -0.009(7)
C4B 0.011(8) 0.035(9) 0.046(10) 0.017(7) 0.008(7) 0.010(7)
C5B 0.025(9) 0.041(10) 0.026(8) -0.011(7) 0.008(7) -0.003(7)
C6B 0.019(8) 0.026(8) 0.020(8) 0.001(6) 0.008(6) 0.003(7)
C7B 0.018(8) 0.019(8) 0.020(8) -0.003(6) -0.004(6) 0.010(6)
C8B 0.021(8) 0.029(8) 0.041(10) 0.001(7) 0.009(7) 0.008(7)
C9B 0.044(10) 0.047(10) 0.007(7) 0.007(7) 0.009(7) 0.008(8)
C10B 0.020(8) 0.046(10) 0.038(10) 0.007(8) 0.014(7) 0.010(8)
C11B 0.021(8) 0.028(8) 0.014(7) -0.009(6) -0.002(6) -0.005(6)
C12B 0.025(9) 0.050(10) 0.019(8) 0.008(7) 0.008(7) 0.004(8)
C13B 0.019(8) 0.055(11) 0.034(10) 0.004(8) 0.000(7) -0.002(8)
C14B 0.036(9) 0.040(9) 0.014(8) 0.000(6) -0.014(7) 0.008(8)
C15B 0.032(9) 0.045(10) 0.021(8) 0.007(7) 0.007(7) 0.011(8)
C16B 0.040(10) 0.071(14) 0.029(10) -0.008(9) 0.006(8) 0.013(10)
C17B 0.077(16) 0.065(14) 0.039(12) -0.005(10) 0.001(11) 0.040(13)
C18B 0.062(13) 0.019(8) 0.047(11) -0.008(7) -0.029(10) -0.002(8)
C19B 0.031(9) 0.032(10) 0.041(10) 0.002(8) -0.009(7) -0.004(8)
C20B 0.022(8) 0.023(8) 0.008(7) -0.001(6) -0.003(6) 0.002(6)
C21B 0.039(10) 0.037(10) 0.021(8) -0.002(7) -0.018(7) 0.004(8)
C22B 0.038(10) 0.038(9) 0.030(9) 0.005(7) 0.012(7) 0.002(8)
C23B 0.028(8) 0.025(8) 0.018(8) 0.005(6) -0.008(6) 0.009(7)
C24B 0.024(9) 0.028(8) 0.025(8) -0.004(6) -0.001(6) -0.011(7)
C25B 0.034(9) 0.029(9) 0.024(8) 0.015(7) -0.011(7) -0.009(7)
C26B 0.031(10) 0.041(10) 0.042(10) 0.002(8) -0.002(8) 0.003(8)
C27B 0.041(10) 0.039(9) 0.016(8) -0.007(7) -0.010(7) -0.015(8)
C28B 0.034(9) 0.017(7) 0.027(9) 0.004(6) 0.024(7) 0.007(7)
C29B 0.038(10) 0.038(10) 0.036(9) 0.001(8) -0.007(8) -0.010(8)
C30B 0.018(8) 0.041(9) 0.036(10) 0.008(8) 0.003(7) 0.001(7)
C31B 0.029(9) 0.020(8) 0.031(9) -0.004(7) 0.007(7) 0.007(7)
C32B 0.031(9) 0.033(9) 0.024(8) 0.009(7) 0.002(7) 0.002(7)
C33B 0.058(12) 0.025(9) 0.036(10) -0.002(7) -0.004(9) -0.002(9)
C34B 0.061(13) 0.035(10) 0.056(13) -0.002(9) 0.013(10) 0.002(9)
C35B 0.048(12) 0.046(12) 0.078(15) -0.009(11) -0.008(11) 0.026(10)
C36B 0.035(10) 0.045(11) 0.037(9) -0.004(8) -0.012(8) -0.004(8)
N1A 0.053(9) 0.047(9) 0.020(7) -0.002(6) 0.001(7) -0.010(8)
N2A 0.036(9) 0.070(11) 0.037(9) 0.002(7) 0.009(7) 0.007(8)
N1B 0.036(8) 0.049(9) 0.033(8) -0.004(7) 0.007(7) -0.013(7)
N2B 0.041(9) 0.048(9) 0.030(8) 0.005(6) 0.005(7) -0.004(7)
C14A 0.024(11) 0.023(10) 0.023(10) -0.006(8) 0.011(11) -0.002(9)
C15A 0.027(11) 0.028(11) 0.027(10) -0.010(10) 0.008(10) -0.011(9)
C16A 0.028(11) 0.026(11) 0.027(9) -0.008(9) -0.007(9) 0.002(10)
C17A 0.032(12) 0.029(10) 0.011(9) 0.013(9) 0.001(10) -0.004(10)
C18A 0.023(12) 0.016(9) 0.025(10) -0.006(8) -0.006(9) 0.006(9)
C19A 0.028(12) 0.023(10) 0.028(11) -0.014(9) 0.007(10) -0.001(9)
loop_
_atom_type_symbol
_atom_type_description
_atom_type_scat_dispersion_real
_atom_type_scat_dispersion_imag
_atom_type_scat_source
C C 0.0033 0.0016 'International Tables Vol C Tables 4.2.6.8 and 6.1.1.4'
H H 0.0000 0.0000 'International Tables Vol C Tables 4.2.6.8 and 6.1.1.4'
N N 0.0061 0.0033 'International Tables Vol C Tables 4.2.6.8 and 6.1.1.4'
loop_
_geom_angle_atom_site_label_1
_geom_angle_atom_site_label_2
_geom_angle_atom_site_label_3
_geom_angle
C2A C1A C14A 121(2)
C2A C1A C3A 124.5(13)
C14A C1A C3A 114(2)
C2A C1A C14Z 122(4)
C3A C1A C14Z 113(4)
C1A C2A C20A 122.0(13)
C1A C2A C31A 120.7(12)
C20A C2A C31A 117.2(12)
C4A C3A C8A 116.5(12)
C4A C3A C1A 119.7(12)
C8A C3A C1A 123.6(13)
C5A C4A C3A 122.5(13)
C5A C4A H4A 118.7
C3A C4A H4A 118.7
C4A C5A C6A 120.9(12)
C4A C5A H5A 119.5
C6A C5A H5A 119.5
C7A C6A C5A 117.5(11)
C7A C6A C11A 121.6(11)
C5A C6A C11A 120.8(11)
C6A C7A C8A 122.0(12)
C6A C7A H7A 119.0
C8A C7A H7A 119.0
C7A C8A C3A 120.5(13)
C7A C8A H8A 119.8
C3A C8A H8A 119.8
N1A C9A C10A 124.8(15)
N1A C9A H9A 117.6
C10A C9A H9A 117.6
C11A C10A C9A 118.9(16)
C11A C10A H10A 120.6
C9A C10A H10A 120.6
C12A C11A C10A 116.8(15)
C12A C11A C6A 121.3(13)
C10A C11A C6A 121.8(13)
C11A C12A C13A 121.8(15)
C11A C12A H12A 119.1
C13A C12A H12A 119.1
N1A C13A C12A 120.6(15)
N1A C13A H13A 119.7
C12A C13A H13A 119.7
C21A C20A C25A 118.3(13)
C21A C20A C2A 118.1(14)
C25A C20A C2A 123.5(14)
C20A C21A C22A 117.6(14)
C20A C21A H21A 121.2
C22A C21A H21A 121.2
C23A C22A C21A 124.2(14)
C23A C22A H22A 117.9
C21A C22A H22A 117.9
C22A C23A C24A 117.1(13)
C22A C23A C28A 122.6(13)
C24A C23A C28A 120.3(14)
C25A C24A C23A 121.7(14)
C25A C24A H24A 119.1
C23A C24A H24A 119.1
C24A C25A C20A 121.0(14)
C24A C25A H25A 119.5
C20A C25A H25A 119.5
N2A C26A C27A 125.1(16)
N2A C26A H26A 117.4
C27A C26A H26A 117.4
C28A C27A C26A 120.6(14)
C28A C27A H27A 119.7
C26A C27A H27A 119.7
C27A C28A C29A 117.0(13)
C27A C28A C23A 123.1(13)
C29A C28A C23A 119.9(14)
C30A C29A C28A 117.1(16)
C30A C29A H29A 121.5
C28A C29A H29A 121.5
N2A C30A C29A 125.7(17)
N2A C30A H30A 117.2
C29A C30A H30A 117.2
C32A C31A C36A 119.6(15)
C32A C31A C2A 122.5(14)
C36A C31A C2A 117.9(14)
C31A C32A C33A 120.3(16)
C31A C32A H32A 119.8
C33A C32A H32A 119.8
C32A C33A C34A 120.3(17)
C32A C33A H33A 119.8
C34A C33A H33A 119.8
C33A C34A C35A 119.4(16)
C33A C34A H34A 120.3
C35A C34A H34A 120.3
C36A C35A C34A 118.9(17)
C36A C35A H35A 120.6
C34A C35A H35A 120.6
C35A C36A C31A 120.9(17)
C35A C36A H36A 119.5
C31A C36A H36A 119.5
C2B C1B C3B 123.6(13)
C2B C1B C14B 121.1(12)
C3B C1B C14B 115.2(13)
C1B C2B C31B 123.0(13)
C1B C2B C20B 121.8(12)
C31B C2B C20B 115.2(11)
C8B C3B C4B 119.5(13)
C8B C3B C1B 118.2(13)
C4B C3B C1B 121.8(13)
C3B C4B C5B 118.6(13)
C3B C4B H4B 120.7
C5B C4B H4B 120.7
C6B C5B C4B 122.3(13)
C6B C5B H5B 118.9
C4B C5B H5B 118.9
C7B C6B C5B 117.8(13)
C7B C6B C11B 121.7(12)
C5B C6B C11B 120.4(12)
C6B C7B C8B 122.1(13)
C6B C7B H7B 119.0
C8B C7B H7B 119.0
C3B C8B C7B 119.6(13)
C3B C8B H8B 120.2
C7B C8B H8B 120.2
N1B C9B C10B 123.5(14)
N1B C9B H9B 118.3
C10B C9B H9B 118.3
C11B C10B C9B 120.1(14)
C11B C10B H10B 120.0
C9B C10B H10B 120.0
C10B C11B C12B 115.5(13)
C10B C11B C6B 120.8(12)
C12B C11B C6B 123.6(13)
C13B C12B C11B 121.7(14)
C13B C12B H12B 119.1
C11B C12B H12B 119.1
N1B C13B C12B 122.8(15)
N1B C13B H13B 118.6
C12B C13B H13B 118.6
C19B C14B C15B 121.2(15)
C19B C14B C1B 115.4(14)
C15B C14B C1B 123.3(14)
C14B C15B C16B 120.2(16)
C14B C15B H15B 119.9
C16B C15B H15B 119.9
C17B C16B C15B 119.2(17)
C17B C16B H16B 120.4
C15B C16B H16B 120.4
C16B C17B C18B 122.6(17)
C16B C17B H17B 118.7
C18B C17B H17B 118.7
C17B C18B C19B 116.6(16)
C17B C18B H18B 121.7
C19B C18B H18B 121.7
C14B C19B C18B 120.2(16)
C14B C19B H19B 119.9
C18B C19B H19B 119.9
C25B C20B C21B 120.7(13)
C25B C20B C2B 122.3(13)
C21B C20B C2B 116.9(12)
C20B C21B C22B 120.5(13)
C20B C21B H21B 119.8
C22B C21B H21B 119.8
C23B C22B C21B 118.7(15)
C23B C22B H22B 120.6
C21B C22B H22B 120.6
C22B C23B C24B 119.9(13)
C22B C23B C28B 121.4(14)
C24B C23B C28B 118.7(13)
C25B C24B C23B 119.0(13)
C25B C24B H24B 120.5
C23B C24B H24B 120.5
C20B C25B C24B 121.1(13)
C20B C25B H25B 119.4
C24B C25B H25B 119.4
N2B C26B C27B 123.2(15)
N2B C26B H26B 118.4
C27B C26B H26B 118.4
C28B C27B C26B 119.6(15)
C28B C27B H27B 120.2
C26B C27B H27B 120.2
C27B C28B C29B 116.6(13)
C27B C28B C23B 122.2(13)
C29B C28B C23B 121.2(14)
C28B C29B C30B 119.2(14)
C28B C29B H29B 120.4
C30B C29B H29B 120.4
N2B C30B C29B 124.8(15)
N2B C30B H30B 117.6
C29B C30B H30B 117.6
C36B C31B C32B 118.1(13)
C36B C31B C2B 120.3(13)
C32B C31B C2B 121.6(13)
C33B C32B C31B 119.5(14)
C33B C32B H32B 120.3
C31B C32B H32B 120.3
C34B C33B C32B 121.0(16)
C34B C33B H33B 119.5
C32B C33B H33B 119.5
C33B C34B C35B 120.0(17)
C33B C34B H34B 120.0
C35B C34B H34B 120.0
C36B C35B C34B 119.6(17)
C36B C35B H35B 120.2
C34B C35B H35B 120.2
C35B C36B C31B 121.5(15)
C35B C36B H36B 119.2
C31B C36B H36B 119.2
C13A N1A C9A 116.9(13)
C26A N2A C30A 114.4(15)
C9B N1B C13B 116.2(13)
C30B N2B C26B 116.6(14)
C19A C14A C15A 117.9(18)
C19A C14A C1A 120.4(15)
C15A C14A C1A 121.7(15)
C16A C15A C14A 121(2)
C16A C15A H15A 119.4
C14A C15A H15A 119.4
C15A C16A C17A 119.2(19)
C15A C16A H16A 120.4
C17A C16A H16A 120.4
C16A C17A C18A 120.5(18)
C16A C17A H17A 119.8
C18A C17A H17A 119.8
C19A C18A C17A 118(2)
C19A C18A H18A 120.9
C17A C18A H18A 120.9
C18A C19A C14A 123(2)
C18A C19A H19A 118.7
C14A C19A H19A 118.7
C19Z C14Z C15Z 119(3)
C19Z C14Z C1A 120(2)
C15Z C14Z C1A 120(2)
C16Z C15Z C14Z 121(3)
C16Z C15Z H15Z 119.4
C14Z C15Z H15Z 119.4
C15Z C16Z C17Z 118(3)
C15Z C16Z H16Z 121.1
C17Z C16Z H16Z 121.1
C18Z C17Z C16Z 123(3)
C18Z C17Z H17Z 118.7
C16Z C17Z H17Z 118.7
C19Z C18Z C17Z 118(3)
C19Z C18Z H18Z 121.2
C17Z C18Z H18Z 121.2
C18Z C19Z C14Z 122(3)
C18Z C19Z H19Z 119.2
C14Z C19Z H19Z 119.2
loop_
_geom_bond_atom_site_label_1
_geom_bond_atom_site_label_2
_geom_bond_distance
C1A C2A 1.364(19)
C1A C14A 1.47(2)
C1A C3A 1.476(19)
C1A C14Z 1.48(3)
C2A C20A 1.45(2)
C2A C31A 1.49(2)
C3A C4A 1.41(2)
C3A C8A 1.41(2)
C4A C5A 1.375(19)
C4A H4A 0.9500
C5A C6A 1.402(19)
C5A H5A 0.9500
C6A C7A 1.384(19)
C6A C11A 1.503(19)
C7A C8A 1.402(19)
C7A H7A 0.9500
C8A H8A 0.9500
C9A N1A 1.34(2)
C9A C10A 1.38(2)
C9A H9A 0.9500
C10A C11A 1.37(2)
C10A H10A 0.9500
C11A C12A 1.36(2)
C12A C13A 1.41(2)
C12A H12A 0.9500
C13A N1A 1.33(2)
C13A H13A 0.9500
C20A C21A 1.40(2)
C20A C25A 1.41(2)
C21A C22A 1.42(2)
C21A H21A 0.9500
C22A C23A 1.35(2)
C22A H22A 0.9500
C23A C24A 1.39(2)
C23A C28A 1.49(2)
C24A C25A 1.38(2)
C24A H24A 0.9500
C25A H25A 0.9500
C26A N2A 1.29(2)
C26A C27A 1.38(2)
C26A H26A 0.9500
C27A C28A 1.37(2)
C27A H27A 0.9500
C28A C29A 1.40(2)
C29A C30A 1.39(2)
C29A H29A 0.9500
C30A N2A 1.37(2)
C30A H30A 0.9500
C31A C32A 1.37(2)
C31A C36A 1.41(2)
C32A C33A 1.39(2)
C32A H32A 0.9500
C33A C34A 1.40(3)
C33A H33A 0.9500
C34A C35A 1.41(3)
C34A H34A 0.9500
C35A C36A 1.38(2)
C35A H35A 0.9500
C36A H36A 0.9500
C1B C2B 1.36(2)
C1B C3B 1.49(2)
C1B C14B 1.50(2)
C2B C31B 1.49(2)
C2B C20B 1.509(19)
C3B C8B 1.36(2)
C3B C4B 1.38(2)
C4B C5B 1.41(2)
C4B H4B 0.9500
C5B C6B 1.37(2)
C5B H5B 0.9500
C6B C7B 1.334(19)
C6B C11B 1.509(19)
C7B C8B 1.41(2)
C7B H7B 0.9500
C8B H8B 0.9500
C9B N1B 1.33(2)
C9B C10B 1.41(2)
C9B H9B 0.9500
C10B C11B 1.37(2)
C10B H10B 0.9500
C11B C12B 1.39(2)
C12B C13B 1.37(2)
C12B H12B 0.9500
C13B N1B 1.35(2)
C13B H13B 0.9500
C14B C19B 1.37(2)
C14B C15B 1.37(2)
C15B C16B 1.39(2)
C15B H15B 0.9500
C16B C17B 1.36(3)
C16B H16B 0.9500
C17B C18B 1.40(3)
C17B H17B 0.9500
C18B C19B 1.42(2)
C18B H18B 0.9500
C19B H19B 0.9500
C20B C25B 1.34(2)
C20B C21B 1.36(2)
C21B C22B 1.45(2)
C21B H21B 0.9500
C22B C23B 1.36(2)
C22B H22B 0.9500
C23B C24B 1.42(2)
C23B C28B 1.495(19)
C24B C25B 1.41(2)
C24B H24B 0.9500
C25B H25B 0.9500
C26B N2B 1.34(2)
C26B C27B 1.40(2)
C26B H26B 0.9500
C27B C28B 1.38(2)
C27B H27B 0.9500
C28B C29B 1.39(2)
C29B C30B 1.39(2)
C29B H29B 0.9500
C30B N2B 1.30(2)
C30B H30B 0.9500
C31B C36B 1.39(2)
C31B C32B 1.41(2)
C32B C33B 1.39(2)
C32B H32B 0.9500
C33B C34B 1.35(3)
C33B H33B 0.9500
C34B C35B 1.40(3)
C34B H34B 0.9500
C35B C36B 1.36(2)
C35B H35B 0.9500
C36B H36B 0.9500
C14A C19A 1.39(2)
C14A C15A 1.40(2)
C15A C16A 1.39(2)
C15A H15A 0.9500
C16A C17A 1.39(2)
C16A H16A 0.9500
C17A C18A 1.41(2)
C17A H17A 0.9500
C18A C19A 1.38(2)
C18A H18A 0.9500
C19A H19A 0.9500
C14Z C19Z 1.39(2)
C14Z C15Z 1.40(2)
C15Z C16Z 1.39(3)
C15Z H15Z 0.9500
C16Z C17Z 1.40(3)
C16Z H16Z 0.9500
C17Z C18Z 1.39(3)
C17Z H17Z 0.9500
C18Z C19Z 1.39(3)
C18Z H18Z 0.9500
C19Z H19Z 0.9500
