#------------------------------------------------------------------------------
#$Date: 2019-11-17 06:52:55 +0200 (Sun, 17 Nov 2019) $
#$Revision: 228509 $
#$URL: file:///home/coder/svn-repositories/cod/cif/7/12/20/7122081.cif $
#------------------------------------------------------------------------------
#
# This file is available in the Crystallography Open Database (COD),
# http://www.crystallography.net/
#
# All data on this site have been placed in the public domain by the
# contributors.
#
data_7122081
loop_
_publ_author_name
'Mohideen, M Infas H'
'Belmabkhout, Youssef'
'Bhatt, Prashant M.'
'Shkurenko, Aleksander'
'Chen, Zhijie'
'Adil, Karim'
'Eddaoudi, Mohamed'
_publ_section_title
;
 Upgrading gasoline to high octane numbers using a zeolite-like
 metal-organic framework molecular sieve with ana-topology.
;
_journal_issue                   68
_journal_name_full
'Chemical communications (Cambridge, England)'
_journal_page_first              9414
_journal_page_last               9417
_journal_paper_doi               10.1039/c8cc04824j
_journal_volume                  54
_journal_year                    2018
_chemical_formula_moiety
'2(C2 H8 N 1+), (K3 Y3 (C5 H2 N2 O4)6 ), 2(Cl 1-), 0.31(O H2)'
_chemical_formula_sum            'C34 H28.62 Cl2 K3 N14 O24.31 Y3'
_chemical_formula_weight         1477.26
_space_group_crystal_system      cubic
_space_group_IT_number           230
_space_group_name_Hall           '-I 4bd 2c 3'
_space_group_name_H-M_alt        'I a -3 d'
_symmetry_space_group_name_Hall  '-I 4bd 2c 3'
_symmetry_space_group_name_H-M   'I a -3 d'
_atom_sites_solution_hydrogens   geom
_atom_sites_solution_primary     direct
_atom_sites_solution_secondary   difmap
_audit_creation_method           SHELXL-2014/7
_audit_update_record
;
2018-06-14 deposited with the CCDC.
2018-07-30 downloaded from the CCDC.
;
_cell_angle_alpha                90
_cell_angle_beta                 90
_cell_angle_gamma                90
_cell_formula_units_Z            16
_cell_length_a                   28.006(4)
_cell_length_b                   28.006(4)
_cell_length_c                   28.006(4)
_cell_measurement_reflns_used    9091
_cell_measurement_temperature    100.0(1)
_cell_measurement_theta_max      67.11
_cell_measurement_theta_min      3.87
_cell_volume                     21966(5)
_computing_cell_refinement       'SAINT v8.34A (Bruker, 2013)'
_computing_data_collection
'Bruker APEX2 v2009.3-0 (Bruker AXS Inc., 2009)'
_computing_data_reduction        'SAINT v8.34A (Bruker, 2013)'
_computing_molecular_graphics    'DIAMOND (Crystal Impact GbR, 2009'
_computing_publication_material
'PublCIF. Westrip, S. P. (2010). J. Appl. Cryst. 43, 920-925.'
_computing_structure_refinement  'SHELXL-2014/7 (Sheldrick, 2014)'
_computing_structure_solution    'ShelXS (Sheldrick, 2008)'
_diffrn_ambient_temperature      100.0(1)
_diffrn_detector_area_resol_mean 8.3
_diffrn_measured_fraction_theta_full 0.998
_diffrn_measured_fraction_theta_max 0.998
_diffrn_measurement_device_type  'Bruker X8 PROSPECTOR APEX2 CCD'
_diffrn_measurement_method       '\f and \w scans'
_diffrn_radiation_monochromator  mirrors
_diffrn_radiation_type           CuK\a
_diffrn_radiation_wavelength     1.54178
_diffrn_reflns_av_R_equivalents  0.0344
_diffrn_reflns_av_unetI/netI     0.0079
_diffrn_reflns_Laue_measured_fraction_full 0.998
_diffrn_reflns_Laue_measured_fraction_max 0.998
_diffrn_reflns_limit_h_max       33
_diffrn_reflns_limit_h_min       -33
_diffrn_reflns_limit_k_max       26
_diffrn_reflns_limit_k_min       -28
_diffrn_reflns_limit_l_max       33
_diffrn_reflns_limit_l_min       -32
_diffrn_reflns_number            73418
_diffrn_reflns_point_group_measured_fraction_full 0.998
_diffrn_reflns_point_group_measured_fraction_max 0.998
_diffrn_reflns_theta_full        67.222
_diffrn_reflns_theta_max         67.222
_diffrn_reflns_theta_min         3.866
_diffrn_source                   'Incoatec I\ms'
_exptl_absorpt_coefficient_mu    7.901
_exptl_absorpt_correction_T_max  0.7529
_exptl_absorpt_correction_T_min  0.6594
_exptl_absorpt_correction_type   multi-scan
_exptl_absorpt_process_details
;
SADABS-2016/2 (Bruker,2016/2) was used for absorption correction.
wR2(int) was 0.0647 before and 0.0458 after correction.
The Ratio of minimum to maximum transmission is 0.8758.
The \l/2 correction factor is Not present.
;
_exptl_crystal_colour            colorless
_exptl_crystal_density_diffrn    1.787
_exptl_crystal_description       cubic
_exptl_crystal_F_000             11730
_exptl_crystal_size_max          0.030
_exptl_crystal_size_mid          0.030
_exptl_crystal_size_min          0.030
_refine_diff_density_max         0.922
_refine_diff_density_min         -0.458
_refine_diff_density_rms         0.097
_refine_ls_extinction_method     none
_refine_ls_goodness_of_fit_ref   1.089
_refine_ls_hydrogen_treatment    constr
_refine_ls_matrix_type           full
_refine_ls_number_parameters     140
_refine_ls_number_reflns         1647
_refine_ls_number_restraints     20
_refine_ls_restrained_S_all      1.118
_refine_ls_R_factor_all          0.0291
_refine_ls_R_factor_gt           0.0283
_refine_ls_shift/su_max          0.001
_refine_ls_shift/su_mean         0.000
_refine_ls_structure_factor_coef Fsqd
_refine_ls_weighting_details
'w=1/[\s^2^(Fo^2^)+(0.0612P)^2^+70.2357P] where P=(Fo^2^+2Fc^2^)/3'
_refine_ls_weighting_scheme      calc
_refine_ls_wR_factor_gt          0.0906
_refine_ls_wR_factor_ref         0.0913
_reflns_Friedel_coverage         0.000
_reflns_number_gt                1595
_reflns_number_total             1647
_reflns_threshold_expression     'I > 2\s(I)'
_cod_data_source_file            c8cc04824j2.cif
_cod_data_source_block           shelx
_cod_depositor_comments          'Adding full bibliography for 7122081.cif.'
_cod_original_cell_volume        21966(9)
_cod_database_code               7122081
_shelx_shelxl_version_number     2014/7
_shelx_space_group_comment
;
The symmetry employed for this shelxl refinement is uniquely defined
by the following loop, which should always be used as a source of
symmetry information in preference to the above space-group names.
They are only intended as comments.
;
_shelx_estimated_absorpt_t_min   0.797
_shelx_estimated_absorpt_t_max   0.797
_platon_squeeze_void_probe_radius 1.20
_shelx_res_file
;

    shelx.res created by SHELXL-2014/7

TITL KME_618b in Ia-3d #230
CELL  1.54178  28.0061  28.0061  28.0061   90.000   90.000   90.000
ZERR    16.00   0.0037   0.0037   0.0037    0.000    0.000    0.000
LATT   2
SYMM  1/2 - X, - Y, 1/2 + Z
SYMM  - X, 1/2 + Y, 1/2 - Z
SYMM  1/2 + X, 1/2 - Y, - Z
SYMM    Z,   X,   Y
SYMM  1/2 + Z, 1/2 - X, - Y
SYMM  1/2 - Z, - X, 1/2 + Y
SYMM  - Z, 1/2 + X, 1/2 - Y
SYMM    Y,   Z,   X
SYMM  - Y, 1/2 + Z, 1/2 - X
SYMM  1/2 + Y, 1/2 - Z, - X
SYMM  1/2 - Y, - Z, 1/2 + X
SYMM  3/4 + Y, 1/4 + X, 1/4 - Z
SYMM  3/4 - Y, 3/4 - X, 3/4 - Z
SYMM  1/4 + Y, 1/4 - X, 3/4 + Z
SYMM  1/4 - Y, 3/4 + X, 1/4 + Z
SYMM  3/4 + X, 1/4 + Z, 1/4 - Y
SYMM  1/4 - X, 3/4 + Z, 1/4 + Y
SYMM  3/4 - X, 3/4 - Z, 3/4 - Y
SYMM  1/4 + X, 1/4 - Z, 3/4 + Y
SYMM  3/4 + Z, 1/4 + Y, 1/4 - X
SYMM  1/4 + Z, 1/4 - Y, 3/4 + X
SYMM  1/4 - Z, 3/4 + Y, 1/4 + X
SYMM  3/4 - Z, 3/4 - Y, 3/4 - X
SFAC  C   H   CL K  N   O   Y
UNIT  544 458 32 48 224 389 48
MERG   2
OMIT     0.00 180.00
OMIT     0   2   2
OMIT     1   3   6
ABIN
EQIV $1 +X,1-Y,0.5-Z
EQIV $2 0.25+Z,1.25-Y,-0.25+X
EQIV $3 0.25+Z,-0.25+Y,0.75-X
EQIV $4 0.75-Z,0.25+Y,-0.25+X
EQIV $5 1-X,1.5-Y,+Z
EQIV $6 1-X,0.5+Y,0.5-Z
DFIX 1.48 0.01 N3A C6A N3A C7A
ISOR 0.006 0.012 N3A
ISOR 0.01 0.02 C6A
ISOR 0.009 0.018 C7A
FREE Y1 K1_$4
FREE Y1 K1_$2
FREE Y1 K1_$1
FREE Y1 K1
FREE Y1 K1_$6
FREE Y1 K1_$5
CONN 24 K1
FREE K1 C5_$1
FREE K1 C5
FREE K1 C4_$3
FREE K1 C4_$2
FMAP   2   53   53
PLAN    5
SIZE     0.030   0.030   0.030
ACTA
BOND   $H
L.S.   3    0    1
TEMP  -173.00
WGHT    0.061200   70.235695
FVAR       0.05237
Y1    7    0.568280    0.625000    0.318280    10.50000    0.01363    0.01170 =
         0.01363   -0.00077    0.00163    0.00077
K1    4    0.561631    0.500000    0.250000    10.50000    0.02781    0.01402 =
         0.01815   -0.00366    0.00000    0.00000
O1    6    0.490554    0.649946    0.325666    11.00000    0.01498    0.01793 =
         0.01797    0.00173    0.00298    0.00103
O2    6    0.438532    0.684913    0.374021    11.00000    0.01769    0.01419 =
         0.01924    0.00046    0.00474    0.00177
O3    6    0.523341    0.557012    0.316794    11.00000    0.02380    0.01726 =
         0.03078   -0.00559    0.00911   -0.00331
O4    6    0.488837    0.487658    0.332143    11.00000    0.03317    0.01558 =
         0.03162   -0.00120    0.00995    0.00140
C1    1    0.445424    0.601940    0.379504    11.00000    0.01525    0.01680 =
         0.01745    0.00093    0.00175    0.00109
C2    1    0.458358    0.555257    0.370376    11.00000    0.01894    0.01613 =
         0.01825    0.00171    0.00107   -0.00120
N1    5    0.409992    0.602641    0.413733    11.00000    0.02011    0.01575 =
         0.02196    0.00219    0.00638    0.00071
C3    1    0.402055    0.557611    0.424992    11.00000    0.02460    0.01895 =
         0.02554    0.00494    0.00842   -0.00106
AFIX  43
H3    2    0.379267    0.547347    0.447928    11.00000   -1.20000
AFIX   0
N2    5    0.430321    0.528129    0.399872    11.00000    0.02516    0.01274 =
         0.02676    0.00370    0.00559    0.00120
AFIX  43
H2    2    0.430756    0.496782    0.401995    11.00000   -1.20000
AFIX   0
C4    1    0.459522    0.648446    0.358142    11.00000    0.01367    0.01553 =
         0.01487   -0.00027   -0.00093   -0.00051
C5    1    0.492601    0.531346    0.337186    11.00000    0.01951    0.01653 =
         0.01872   -0.00050   -0.00014    0.00143
CL1   3    0.417390    0.417390    0.417390    10.33333    0.02247    0.02247 =
         0.02247    0.00020    0.00020    0.00020
PART   -1
N3A   5    0.426656    0.409891    0.305789    10.33333    0.04154    0.06103 =
         0.03249   -0.02482    0.01342   -0.03429
AFIX  23
H3AA  2    0.397235    0.404050    0.318281    10.33333   -1.20000
H3AB  2    0.439824    0.434736    0.322071    10.33333   -1.20000
AFIX   0
C6A   1    0.422197    0.422231    0.255990    10.33333    0.09937    0.11366 =
         0.06406   -0.01692    0.01640   -0.05125
AFIX  33
H6AA  2    0.402017    0.450637    0.252774    10.33333   -1.50000
H6AB  2    0.453893    0.428879    0.242738    10.33333   -1.50000
H6AC  2    0.407652    0.395562    0.238622    10.33333   -1.50000
AFIX   0
C7A   1    0.457724    0.366097    0.311254    10.33333    0.08029    0.10579 =
         0.05653   -0.04070   -0.01226   -0.00146
AFIX  33
H7AA  2    0.460563    0.357967    0.345170    10.33333   -1.50000
H7AB  2    0.443255    0.339306    0.294009    10.33333   -1.50000
H7AC  2    0.489497    0.372623    0.298125    10.33333   -1.50000
AFIX   0
HKLF    4

REM  KME_618b in Ia-3d #230
REM R1 =  0.0283 for    1595 Fo > 4sig(Fo)  and  0.0291 for all    1647 data
REM    140 parameters refined using     20 restraints

END

WGHT      0.0612     70.2237

REM Highest difference peak  0.922,  deepest hole -0.458,  1-sigma level  0.097
Q1    1   0.4113  0.4300  0.2942  11.00000  0.05    0.92
Q2    1   0.3750  0.4639  0.2139  10.50000  0.05    0.85
Q3    1   0.4615  0.3438  0.2859  11.00000  0.05    0.75
Q4    1   0.4756  0.3543  0.3161  11.00000  0.05    0.52
Q5    1   0.5185  0.6247  0.3185  11.00000  0.05    0.27
;
_shelx_res_checksum              12891
_shelx_fab_file
;
    1    1    2      0.88      0.00
    1    2    3     -0.71      0.00
    2    3    3      2.23      0.00
    0    0    4     33.58      0.00
    0    2    4      0.00      0.00
    2    2    4     27.03      0.00
    1    3    4      2.59      0.00
    0    4    4     21.73      0.00
    4    4    4     12.99      0.00
    1    2    5      1.76      0.00
    2    3    5      0.33      0.00
    1    4    5     -1.53      0.00
    3    4    5      3.89      0.00
    2    5    5      2.55      0.00
    1    1    6      1.61      0.00
    0    2    6     18.13      0.00
    3    3    6      3.99      0.00
    0    4    6      0.00      0.00
    2    4    6     10.47      0.00
    1    5    6      2.98      0.00
    3    5    6      0.41      0.00
    5    5    6      4.47      0.00
    0    6    6      5.82      0.00
    4    6    6      2.11      0.00
    1    2    7     -0.82      0.00
    2    3    7      2.01      0.00
    1    4    7      2.27      0.00
    3    4    7     -0.43      0.00
    2    5    7      0.10      0.00
    4    5    7      3.56      0.00
    1    6    7     -0.98      0.00
    3    6    7      3.30      0.00
    5    6    7      0.02      0.00
    2    7    7      1.93      0.00
    6    7    7      3.34      0.00
    0    0    8     10.37      0.00
    0    2    8      0.00      0.00
    2    2    8      7.51      0.00
    1    3    8      2.37      0.00
    0    4    8      5.30      0.00
    2    4    8      0.01      0.00
    4    4    8      1.98      0.00
    1    5    8      1.06      0.00
    3    5    8      3.46      0.00
    0    6    8      0.01      0.00
    2    6    8      1.11      0.00
    4    6    8      0.00      0.00
    6    6    8     -0.95      0.00
    1    7    8      1.49      0.00
    3    7    8     -0.16      0.00
    5    7    8      3.04      0.00
    0    8    8     -0.25      0.00
    4    8    8     -0.77      0.00
    8    8    8      0.16      0.00
    1    2    9      0.92      0.00
    2    3    9      0.24      0.00
    1    4    9     -0.61      0.00
    3    4    9      2.04      0.00
    2    5    9      1.52      0.00
    4    5    9      0.16      0.00
    1    6    9      1.02      0.00
    3    6    9      0.10      0.00
    5    6    9      2.45      0.00
    2    7    9      0.13      0.00
    4    7    9      2.21      0.00
    6    7    9      0.14      0.00
    1    8    9      0.34      0.00
    3    8    9      1.25      0.00
    5    8    9      0.22      0.00
    7    8    9      1.94      0.00
    2    9    9      0.95      0.00
    6    9    9      1.73      0.00
    1    1   10      1.01      0.00
    0    2   10      4.14      0.00
    1    3   10      0.65      0.00
    3    3   10      2.42      0.00
    0    4   10      0.01      0.00
    2    4   10      1.81      0.00
    1    5   10      1.54      0.00
    3    5   10      0.00      0.00
    5    5   10      2.57      0.00
    0    6   10      0.54      0.00
    2    6   10      0.00      0.00
    4    6   10      0.00      0.00
    1    7   10     -0.08      0.00
    3    7   10      1.57      0.00
    5    7   10     -0.24      0.00
    7    7   10      1.90      0.00
    0    8   10     -0.01      0.00
    2    8   10     -0.15      0.00
    4    8   10      0.00      0.00
    6    8   10      0.58      0.00
    1    9   10     -0.22      0.00
    3    9   10     -0.67      0.00
    5    9   10      1.15      0.00
    7    9   10      0.06      0.00
    9    9   10      1.29      0.00
    0   10   10      0.16      0.00
    4   10   10      0.80      0.00
    8   10   10      2.21      0.00
    1    2   11     -0.26      0.00
    2    3   11      0.68      0.00
    1    4   11      0.50      0.00
    3    4   11     -0.21      0.00
    2    5   11      0.31      0.00
    4    5   11      1.26      0.00
    1    6   11      0.19      0.00
    3    6   11      0.72      0.00
    5    6   11     -0.30      0.00
    2    7   11      0.74      0.00
    4    7   11      0.57      0.00
    6    7   11      1.28      0.00
    1    8   11     -0.40      0.00
    3    8   11      0.41      0.00
    5    8   11      0.83      0.00
    7    8   11     -0.52      0.00
    2    9   11      0.25      0.00
    4    9   11      0.81      0.00
    6    9   11      0.48      0.00
    8    9   11      1.06      0.00
    1   10   11      0.86      0.00
    3   10   11     -0.18      0.00
    5   10   11     -0.09      0.00
    7   10   11      0.91      0.00
    9   10   11     -0.43      0.00
    2   11   11      0.14      0.00
    6   11   11      0.55      0.00
   10   11   11      1.11      0.00
    0    0   12      3.08      0.00
    0    2   12     -0.01      0.00
    2    2   12      2.45      0.00
    1    3   12      1.07      0.00
    0    4   12      1.95      0.00
    2    4   12     -0.01      0.00
    4    4   12      1.49      0.00
    1    5   12      0.26      0.00
    3    5   12      1.45      0.00
    0    6   12     -0.04      0.00
    2    6   12      1.22      0.00
    4    6   12     -0.02      0.00
    6    6   12      1.56      0.00
    1    7   12      0.25      0.00
    3    7   12     -0.36      0.00
    5    7   12      1.20      0.00
    0    8   12      0.87      0.00
    2    8   12     -0.05      0.00
    4    8   12      1.40      0.00
    6    8   12     -0.01      0.00
    8    8   12      2.41      0.00
    1    9   12     -0.64      0.00
    3    9   12      0.12      0.00
    5    9   12     -0.11      0.00
    7    9   12      0.96      0.00
    0   10   12     -0.06      0.00
    2   10   12      1.09      0.00
    4   10   12     -0.03      0.00
    6   10   12      2.19      0.00
    8   10   12      0.00      0.00
   10   10   12      2.57      0.00
    1   11   12     -0.66      0.00
    3   11   12     -0.25      0.00
    5   11   12      0.27      0.00
    7   11   12      0.54      0.00
    9   11   12      1.09      0.00
    0   12   12      0.95      0.00
    4   12   12      1.63      0.00
    8   12   12      2.33      0.00
   12   12   12      1.54      0.00
    1    2   13      0.17      0.00
    2    3   13      0.33      0.00
    1    4   13     -0.14      0.00
    3    4   13      0.30      0.00
    2    5   13      0.32      0.00
    4    5   13      0.80      0.00
    1    6   13     -0.19      0.00
    3    6   13     -0.25      0.00
    5    6   13      0.43      0.00
    2    7   13      0.62      0.00
    4    7   13      0.47      0.00
    6    7   13      1.14      0.00
    1    8   13      0.47      0.00
    3    8   13     -0.19      0.00
    5    8   13     -0.67      0.00
    7    8   13      0.64      0.00
    2    9   13      0.10      0.00
    4    9   13      0.90      0.00
    6    9   13      0.46      0.00
    8    9   13      0.99      0.00
    1   10   13     -0.65      0.00
    3   10   13      0.04      0.00
    5   10   13      0.22      0.00
    7   10   13     -0.96      0.00
    9   10   13      0.99      0.00
    2   11   13      0.28      0.00
    4   11   13     -0.06      0.00
    6   11   13      0.56      0.00
    8   11   13      0.66      0.00
   10   11   13      0.45      0.00
    1   12   13      0.33      0.00
    3   12   13     -0.27      0.00
    5   12   13     -0.66      0.00
    7   12   13      0.73      0.00
    9   12   13     -0.75      0.00
   11   12   13      1.35      0.00
    2   13   13     -0.25      0.00
    6   13   13      0.02      0.00
   10   13   13      1.09      0.00
    1    1   14      0.42      0.00
    0    2   14      2.31      0.00
    1    3   14      0.25      0.00
    3    3   14      0.95      0.00
    0    4   14     -0.08      0.00
    2    4   14      2.16      0.00
    1    5   14      0.54      0.00
    3    5   14     -0.01      0.00
    5    5   14      0.94      0.00
    0    6   14      1.91      0.00
    2    6   14     -0.12      0.00
    4    6   14      2.26      0.00
    1    7   14     -0.09      0.00
    3    7   14      0.48      0.00
    5    7   14      0.00      0.00
    7    7   14      0.77      0.00
    0    8   14     -0.18      0.00
    2    8   14      1.79      0.00
    4    8   14     -0.09      0.00
    6    8   14      2.54      0.00
    1    9   14     -0.22      0.00
    3    9   14     -0.06      0.00
    5    9   14      0.41      0.00
    7    9   14      0.24      0.00
    9    9   14      0.89      0.00
    0   10   14      1.26      0.00
    2   10   14     -0.15      0.00
    4   10   14      1.86      0.00
    6   10   14     -0.02      0.00
    8   10   14      2.34      0.00
    1   11   14     -0.19      0.00
    3   11   14     -0.15      0.00
    5   11   14      0.53      0.00
    7   11   14      0.65      0.00
    9   11   14      0.39      0.00
   11   11   14      1.25      0.00
    0   12   14     -0.12      0.00
    2   12   14      0.93      0.00
    4   12   14     -0.05      0.00
    6   12   14      1.66      0.00
    8   12   14      0.02      0.00
   10   12   14      1.40      0.00
    1   13   14     -0.20      0.00
    3   13   14      0.43      0.00
    5   13   14      0.22      0.00
    7   13   14      0.85      0.00
    9   13   14      1.07      0.00
   11   13   14      0.26      0.00
   13   13   14      1.40      0.00
    0   14   14      0.22      0.00
    4   14   14      0.69      0.00
    8   14   14      0.99      0.00
   12   14   14      0.42      0.00
    1    2   15     -0.20      0.00
    2    3   15      0.06      0.00
    1    4   15      0.03      0.00
    3    4   15     -0.63      0.00
    2    5   15      0.65      0.00
    4    5   15      0.12      0.00
    1    6   15     -0.08      0.00
    3    6   15     -0.06      0.00
    5    6   15     -1.12      0.00
    2    7   15      0.03      0.00
    4    7   15      1.26      0.00
    6    7   15      0.28      0.00
    1    8   15     -0.31      0.00
    3    8   15     -0.41      0.00
    5    8   15      0.21      0.00
    7    8   15     -1.30      0.00
    2    9   15      0.68      0.00
    4    9   15     -0.02      0.00
    6    9   15      1.29      0.00
    8    9   15      0.62      0.00
    1   10   15      0.16      0.00
    3   10   15     -0.13      0.00
    5   10   15     -0.83      0.00
    7   10   15      0.72      0.00
    9   10   15     -0.97      0.00
    2   11   15     -0.21      0.00
    4   11   15      0.76      0.00
    6   11   15      0.09      0.00
    8   11   15      0.76      0.00
   10   11   15      1.06      0.00
    1   12   15     -0.21      0.00
    3   12   15     -0.35      0.00
    5   12   15      0.35      0.00
    7   12   15     -0.89      0.00
    9   12   15      1.14      0.00
   11   12   15     -0.41      0.00
    2   13   15      0.19      0.00
    4   13   15     -0.34      0.00
    6   13   15      0.33      0.00
    8   13   15      0.49      0.00
   10   13   15      0.20      0.00
   12   13   15      1.29      0.00
    1   14   15     -0.10      0.00
    3   14   15     -0.02      0.00
    5   14   15     -0.67      0.00
    7   14   15      0.66      0.00
    9   14   15     -0.52      0.00
   11   14   15      1.23      0.00
   13   14   15     -0.06      0.00
    2   15   15     -0.28      0.00
    6   15   15     -0.07      0.00
   10   15   15      0.86      0.00
   14   15   15      1.07      0.00
    0    0   16      1.24      0.00
    0    2   16     -0.05      0.00
    2    2   16      1.46      0.00
    1    3   16      0.42      0.00
    0    4   16      1.57      0.00
    2    4   16     -0.11      0.00
    4    4   16      1.97      0.00
    1    5   16      0.21      0.00
    3    5   16      0.55      0.00
    0    6   16     -0.28      0.00
    2    6   16      1.84      0.00
    4    6   16     -0.11      0.00
    6    6   16      2.36      0.00
    1    7   16      0.22      0.00
    3    7   16      0.17      0.00
    5    7   16      0.48      0.00
    0    8   16      1.52      0.00
    2    8   16     -0.29      0.00
    4    8   16      2.00      0.00
    6    8   16     -0.05      0.00
    8    8   16      2.14      0.00
    1    9   16      0.16      0.00
    3    9   16      0.14      0.00
    5    9   16      0.44      0.00
    7    9   16      0.55      0.00
    0   10   16     -0.34      0.00
    2   10   16      1.18      0.00
    4   10   16     -0.15      0.00
    6   10   16      1.74      0.00
    8   10   16      0.02      0.00
   10   10   16      1.27      0.00
    1   11   16      0.02      0.00
    3   11   16      0.53      0.00
    5   11   16      0.22      0.00
    7   11   16      0.64      0.00
    9   11   16      0.85      0.00
    0   12   16      0.38      0.00
    2   12   16     -0.22      0.00
    4   12   16      0.81      0.00
    6   12   16      0.01      0.00
    8   12   16      1.01      0.00
   10   12   16      0.04      0.00
   12   12   16      0.40      0.00
    1   13   16      0.26      0.00
    3   13   16     -0.03      0.00
    5   13   16      0.77      0.00
    7   13   16      0.49      0.00
    9   13   16      0.46      0.00
   11   13   16      1.10      0.00
    0   14   16     -0.15      0.00
    2   14   16     -0.06      0.00
    4   14   16     -0.05      0.00
    6   14   16      0.42      0.00
    8   14   16      0.05      0.00
   10   14   16      0.33      0.00
   12   14   16      0.02      0.00
   14   14   16      0.21      0.00
    1   15   16     -0.08      0.00
    3   15   16      0.36      0.00
    5   15   16      0.05      0.00
    7   15   16      0.46      0.00
    9   15   16      0.69      0.00
   11   15   16      0.11      0.00
   13   15   16      1.00      0.00
    0   16   16     -0.41      0.00
    4   16   16     -0.09      0.00
    8   16   16      0.19      0.00
   12   16   16      0.24      0.00
   16   16   16      0.67      0.00
    1    2   17      0.04      0.00
    2    3   17      0.40      0.00
    1    4   17     -0.24      0.00
    3    4   17     -0.05      0.00
    2    5   17     -0.04      0.00
    4    5   17      0.97      0.00
    1    6   17     -0.07      0.00
    3    6   17     -0.58      0.00
    5    6   17      0.08      0.00
    2    7   17      0.70      0.00
    4    7   17     -0.02      0.00
    6    7   17      1.22      0.00
    1    8   17     -0.02      0.00
    3    8   17     -0.03      0.00
    5    8   17     -0.82      0.00
    7    8   17      0.49      0.00
    2    9   17     -0.14      0.00
    4    9   17      1.03      0.00
    6    9   17      0.17      0.00
    8    9   17      0.92      0.00
    1   10   17     -0.15      0.00
    3   10   17     -0.25      0.00
    5   10   17      0.39      0.00
    7   10   17     -0.73      0.00
    9   10   17      0.92      0.00
    2   11   17      0.44      0.00
    4   11   17     -0.21      0.00
    6   11   17      0.74      0.00
    8   11   17      0.53      0.00
   10   11   17      0.37      0.00
    1   12   17      0.06      0.00
    3   12   17      0.07      0.00
    5   12   17     -0.38      0.00
    7   12   17      0.77      0.00
    9   12   17     -0.37      0.00
   11   12   17      1.09      0.00
    2   13   17     -0.24      0.00
    4   13   17      0.34      0.00
    6   13   17     -0.02      0.00
    8   13   17      0.22      0.00
   10   13   17      0.82      0.00
   12   13   17      0.03      0.00
    1   14   17     -0.14      0.00
    3   14   17     -0.08      0.00
    5   14   17      0.24      0.00
    7   14   17     -0.23      0.00
    9   14   17      0.81      0.00
   11   14   17     -0.05      0.00
   13   14   17      0.92      0.00
    2   15   17      0.06      0.00
    4   15   17     -0.23      0.00
    6   15   17      0.05      0.00
    8   15   17      0.31      0.00
   10   15   17     -0.02      0.00
   12   15   17      0.78      0.00
   14   15   17     -0.01      0.00
    1   16   17      0.21      0.00
    3   16   17     -0.26      0.00
    5   16   17      0.00      0.00
    7   16   17      0.16      0.00
    9   16   17      0.03      0.00
   11   16   17      0.61      0.00
   13   16   17      0.02      0.00
   15   16   17      0.58      0.00
    2   17   17     -0.11      0.00
    6   17   17      0.02      0.00
   10   17   17      0.40      0.00
   14   17   17      0.43      0.00
    1    1   18      0.14      0.00
    0    2   18     -0.04      0.00
    1    3   18      0.12      0.00
    3    3   18      0.31      0.00
    0    4   18     -0.24      0.00
    2    4   18      0.62      0.00
    1    5   18      0.27      0.00
    3    5   18      0.14      0.00
    5    5   18      0.35      0.00
    0    6   18      0.84      0.00
    2    6   18     -0.33      0.00
    4    6   18      1.35      0.00
    1    7   18      0.31      0.00
    3    7   18      0.27      0.00
    5    7   18      0.24      0.00
    7    7   18      0.42      0.00
    0    8   18     -0.49      0.00
    2    8   18      1.02      0.00
    4    8   18     -0.22      0.00
    6    8   18      1.49      0.00
    1    9   18      0.24      0.00
    3    9   18      0.52      0.00
    5    9   18      0.29      0.00
    7    9   18      0.32      0.00
    9    9   18      0.63      0.00
    0   10   18      0.56      0.00
    2   10   18     -0.39      0.00
    4   10   18      0.92      0.00
    6   10   18     -0.01      0.00
    8   10   18      0.97      0.00
    1   11   18      0.41      0.00
    3   11   18      0.10      0.00
    5   11   18      0.69      0.00
    7   11   18      0.44      0.00
    9   11   18      0.24      0.00
   11   11   18      0.85      0.00
    0   12   18     -0.39      0.00
    2   12   18      0.18      0.00
    4   12   18     -0.12      0.00
    6   12   18      0.54      0.00
    8   12   18      0.12      0.00
   10   12   18      0.34      0.00
    1   13   18      0.04      0.00
    3   13   18      0.50      0.00
    5   13   18      0.03      0.00
    7   13   18      0.48      0.00
    9   13   18      0.59      0.00
   11   13   18      0.07      0.00
   13   13   18      0.86      0.00
    0   14   18     -0.25      0.00
    2   14   18     -0.22      0.00
    4   14   18      0.02      0.00
    6   14   18      0.07      0.00
    8   14   18      0.23      0.00
   10   14   18      0.10      0.00
   12   14   18      0.23      0.00
    1   15   18     -0.05      0.00
    3   15   18     -0.30      0.00
    5   15   18      0.21      0.00
    7   15   18      0.03      0.00
    9   15   18      0.05      0.00
   11   15   18      0.59      0.00
   13   15   18     -0.03      0.00
   15   15   18      0.63      0.00
    0   16   18     -0.16      0.00
    2   16   18     -0.23      0.00
    4   16   18     -0.04      0.00
    6   16   18      0.13      0.00
    8   16   18      0.07      0.00
   10   16   18      0.31      0.00
   12   16   18      0.02      0.00
   14   16   18      0.65      0.00
    1   17   18     -0.54      0.00
    3   17   18     -0.32      0.00
    5   17   18     -0.45      0.00
    7   17   18     -0.22      0.00
    9   17   18      0.02      0.00
   11   17   18     -0.12      0.00
   13   17   18      0.40      0.00
   15   17   18      0.03      0.00
   17   17   18      0.30      0.00
    0   18   18     -0.12      0.00
    4   18   18      0.13      0.00
    8   18   18      0.44      0.00
   12   18   18      0.68      0.00
   16   18   18      1.04      0.00
    1    2   19     -0.07      0.00
    2    3   19     -0.10      0.00
    1    4   19     -0.11      0.00
    3    4   19     -0.34      0.00
    2    5   19      0.41      0.00
    4    5   19     -0.13      0.00
    1    6   19      0.06      0.00
    3    6   19     -0.16      0.00
    5    6   19     -0.54      0.00
    2    7   19     -0.12      0.00
    4    7   19      0.74      0.00
    6    7   19      0.08      0.00
    1    8   19     -0.25      0.00
    3    8   19     -0.02      0.00
    5    8   19      0.15      0.00
    7    8   19     -0.43      0.00
    2    9   19      0.44      0.00
    4    9   19     -0.14      0.00
    6    9   19      0.63      0.00
    8    9   19      0.43      0.00
    1   10   19      0.31      0.00
    3   10   19     -0.03      0.00
    5   10   19     -0.01      0.00
    7   10   19      0.57      0.00
    9   10   19     -0.11      0.00
    2   11   19     -0.18      0.00
    4   11   19      0.45      0.00
    6   11   19      0.04      0.00
    8   11   19      0.20      0.00
   10   11   19      0.66      0.00
    1   12   19     -0.28      0.00
    3   12   19      0.31      0.00
    5   12   19      0.29      0.00
    7   12   19      0.11      0.00
    9   12   19      0.73      0.00
   11   12   19      0.10      0.00
    2   13   19      0.14      0.00
    4   13   19     -0.18      0.00
    6   13   19      0.11      0.00
    8   13   19      0.29      0.00
   10   13   19     -0.10      0.00
   12   13   19      0.60      0.00
    1   14   19      0.42      0.00
    3   14   19     -0.16      0.00
    5   14   19      0.32      0.00
    7   14   19      0.35      0.00
    9   14   19      0.18      0.00
   11   14   19      0.57      0.00
   13   14   19      0.04      0.00
    2   15   19     -0.10      0.00
    4   15   19     -0.02      0.00
    6   15   19      0.01      0.00
    8   15   19     -0.14      0.00
   10   15   19      0.34      0.00
   12   15   19     -0.10      0.00
   14   15   19      0.34      0.00
    1   16   19     -0.51      0.00
    3   16   19      0.49      0.00
    5   16   19     -0.23      0.00
    7   16   19      0.33      0.00
    9   16   19      0.15      0.00
   11   16   19      0.08      0.00
   13   16   19      0.31      0.00
   15   16   19     -0.10      0.00
    2   17   19     -0.03      0.00
    4   17   19      0.03      0.00
    6   17   19     -0.11      0.00
    8   17   19      0.14      0.00
   10   17   19     -0.12      0.00
   12   17   19      0.13      0.00
   14   17   19      0.01      0.00
   16   17   19      0.10      0.00
    1   18   19      0.69      0.00
    3   18   19     -0.67      0.00
    5   18   19      0.54      0.00
    7   18   19     -0.39      0.00
    9   18   19      0.25      0.00
   11   18   19     -0.02      0.00
   13   18   19     -0.09      0.00
   15   18   19      0.17      0.00
   17   18   19     -0.10      0.00
    2   19   19      0.11      0.00
    6   19   19      0.18      0.00
   10   19   19     -0.02      0.00
   14   19   19     -0.15      0.00
   18   19   19      0.01      0.00
    0    0   20     -1.15      0.00
    0    2   20     -0.09      0.00
    2    2   20     -0.68      0.00
    1    3   20      0.07      0.00
    0    4   20     -0.34      0.00
    2    4   20     -0.21      0.00
    4    4   20      0.29      0.00
    1    5   20      0.16      0.00
    3    5   20      0.14      0.00
    0    6   20     -0.49      0.00
    2    6   20      0.35      0.00
    4    6   20     -0.18      0.00
    6    6   20      0.91      0.00
    1    7   20      0.22      0.00
    3    7   20      0.32      0.00
    5    7   20      0.27      0.00
    0    8   20      0.42      0.00
    2    8   20     -0.46      0.00
    4    8   20      0.75      0.00
    6    8   20     -0.04      0.00
    8    8   20      0.79      0.00
    1    9   20      0.39      0.00
    3    9   20      0.22      0.00
    5    9   20      0.44      0.00
    7    9   20      0.46      0.00
    0   10   20     -0.51      0.00
    2   10   20      0.40      0.00
    4   10   20     -0.16      0.00
    6   10   20      0.63      0.00
    8   10   20      0.10      0.00
   10   10   20      0.34      0.00
    1   11   20      0.19      0.00
    3   11   20      0.49      0.00
    5   11   20      0.20      0.00
    7   11   20      0.34      0.00
    9   11   20      0.62      0.00
    0   12   20      0.09      0.00
    2   12   20     -0.32      0.00
    4   12   20      0.28      0.00
    6   12   20      0.14      0.00
    8   12   20      0.31      0.00
   10   12   20      0.12      0.00
   12   12   20      0.21      0.00
    1   13   20      0.11      0.00
    3   13   20     -0.13      0.00
    5   13   20      0.29      0.00
    7   13   20      0.18      0.00
    9   13   20      0.07      0.00
   11   13   20      0.61      0.00
    0   14   20     -0.35      0.00
    2   14   20      0.01      0.00
    4   14   20     -0.05      0.00
    6   14   20      0.24      0.00
    8   14   20      0.21      0.00
   10   14   20      0.28      0.00
   12   14   20      0.05      0.00
   14   14   20      0.55      0.00
    1   15   20     -0.42      0.00
    3   15   20     -0.16      0.00
    5   15   20     -0.38      0.00
    7   15   20     -0.10      0.00
    9   15   20      0.10      0.00
   11   15   20     -0.11      0.00
   13   15   20      0.46      0.00
    0   16   20     -0.01      0.00
    2   16   20     -0.23      0.00
    4   16   20      0.20      0.00
    6   16   20      0.06      0.00
    8   16   20      0.43      0.00
   10   16   20      0.07      0.00
   12   16   20      0.61      0.00
   14   16   20     -0.02      0.00
   16   16   20      0.94      0.00
    1   17   20     -0.66      0.00
    3   17   20     -0.76      0.00
    5   17   20     -0.47      0.00
    7   17   20     -0.48      0.00
    9   17   20     -0.30      0.00
   11   17   20      0.01      0.00
   13   17   20     -0.04      0.00
   15   17   20      0.28      0.00
    0   18   20     -0.19      0.00
    2   18   20      0.17      0.00
    4   18   20     -0.08      0.00
    6   18   20      0.52      0.00
    8   18   20      0.01      0.00
   10   18   20      0.73      0.00
   12   18   20     -0.04      0.00
   14   18   20      0.91      0.00
   16   18   20     -0.02      0.00
   18   18   20      0.91      0.00
    1   19   20     -0.87      0.00
    3   19   20     -0.75      0.00
    5   19   20     -0.76      0.00
    7   19   20     -0.47      0.00
    9   19   20     -0.43      0.00
   11   19   20     -0.08      0.00
   13   19   20     -0.02      0.00
   15   19   20      0.14      0.00
   17   19   20      0.14      0.00
    0   20   20      0.14      0.00
    4   20   20      0.42      0.00
    8   20   20      0.77      0.00
   12   20   20      0.83      0.00
   16   20   20      0.81      0.00
    1    2   21     -0.16      0.00
    2    3   21      0.06      0.00
    1    4   21      0.20      0.00
    3    4   21     -0.33      0.00
    2    5   21     -0.19      0.00
    4    5   21      0.22      0.00
    1    6   21     -0.44      0.00
    3    6   21      0.18      0.00
    5    6   21     -0.24      0.00
    2    7   21      0.27      0.00
    4    7   21     -0.24      0.00
    6    7   21      0.21      0.00
    1    8   21      0.54      0.00
    3    8   21     -0.34      0.00
    5    8   21      0.23      0.00
    7    8   21      0.09      0.00
    2    9   21     -0.18      0.00
    4    9   21      0.34      0.00
    6    9   21     -0.07      0.00
    8    9   21     -0.02      0.00
    1   10   21     -0.54      0.00
    3   10   21      0.61      0.00
    5   10   21      0.03      0.00
    7   10   21      0.32      0.00
    9   10   21      0.36      0.00
    2   11   21      0.16      0.00
    4   11   21     -0.19      0.00
    6   11   21      0.09      0.00
    8   11   21      0.15      0.00
   10   11   21     -0.20      0.00
    1   12   21      0.67      0.00
    3   12   21     -0.24      0.00
    5   12   21      0.58      0.00
    7   12   21      0.30      0.00
    9   12   21      0.29      0.00
   11   12   21      0.35      0.00
    2   13   21     -0.11      0.00
    4   13   21      0.01      0.00
    6   13   21     -0.05      0.00
    8   13   21     -0.20      0.00
   10   13   21      0.20      0.00
   12   13   21     -0.12      0.00
    1   14   21     -0.51      0.00
    3   14   21      0.65      0.00
    5   14   21     -0.04      0.00
    7   14   21      0.41      0.00
    9   14   21      0.26      0.00
   11   14   21      0.05      0.00
   13   14   21      0.16      0.00
    2   15   21     -0.06      0.00
    4   15   21     -0.03      0.00
    6   15   21     -0.24      0.00
    8   15   21      0.05      0.00
   10   15   21     -0.26      0.00
   12   15   21      0.04      0.00
   14   15   21      0.08      0.00
    1   16   21      0.63      0.00
    3   16   21     -0.40      0.00
    5   16   21      0.50      0.00
    7   16   21     -0.08      0.00
    9   16   21      0.11      0.00
   11   16   21      0.06      0.00
   13   16   21     -0.22      0.00
   15   16   21      0.00      0.00
    2   17   21      0.08      0.00
    4   17   21     -0.20      0.00
    6   17   21      0.13      0.00
    8   17   21     -0.30      0.00
   10   17   21     -0.06      0.00
   12   17   21     -0.12      0.00
   14   17   21     -0.16      0.00
   16   17   21      0.15      0.00
    1   18   21     -0.63      0.00
    3   18   21      0.60      0.00
    5   18   21     -0.44      0.00
    7   18   21      0.28      0.00
    9   18   21     -0.22      0.00
   11   18   21     -0.17      0.00
   13   18   21     -0.04      0.00
   15   18   21     -0.31      0.00
   17   18   21     -0.02      0.00
    2   19   21     -0.07      0.00
    4   19   21      0.30      0.00
    6   19   21     -0.18      0.00
    8   19   21      0.08      0.00
   10   19   21     -0.16      0.00
   12   19   21     -0.30      0.00
   14   19   21     -0.01      0.00
   16   19   21     -0.24      0.00
    1   20   21      0.71      0.00
    3   20   21     -0.68      0.00
    5   20   21      0.48      0.00
    7   20   21     -0.50      0.00
    9   20   21      0.06      0.00
   11   20   21     -0.26      0.00
   13   20   21     -0.26      0.00
   15   20   21     -0.01      0.00
    2   21   21      0.27      0.00
    6   21   21      0.35      0.00
   10   21   21     -0.18      0.00
   14   21   21     -0.44      0.00
    1    1   22     -0.04      0.00
    0    2   22     -0.70      0.00
    1    3   22      0.00      0.00
    3    3   22     -0.03      0.00
    0    4   22     -0.32      0.00
    2    4   22     -0.08      0.00
    1    5   22      0.04      0.00
    3    5   22      0.09      0.00
    5    5   22      0.16      0.00
    0    6   22      0.23      0.00
    2    6   22     -0.40      0.00
    4    6   22      0.55      0.00
    1    7   22      0.21      0.00
    3    7   22      0.18      0.00
    5    7   22      0.16      0.00
    7    7   22      0.46      0.00
    0    8   22     -0.53      0.00
    2    8   22      0.52      0.00
    4    8   22     -0.18      0.00
    6    8   22      0.66      0.00
    1    9   22      0.23      0.00
    3    9   22      0.34      0.00
    5    9   22      0.37      0.00
    7    9   22      0.15      0.00
    9    9   22      0.68      0.00
    0   10   22      0.43      0.00
    2   10   22     -0.32      0.00
    4   10   22      0.52      0.00
    6   10   22      0.14      0.00
    8   10   22      0.37      0.00
    1   11   22      0.21      0.00
    3   11   22      0.14      0.00
    5   11   22      0.26      0.00
    7   11   22      0.47      0.00
    9   11   22      0.05      0.00
   11   11   22      0.65      0.00
    0   12   22     -0.34      0.00
    2   12   22      0.35      0.00
    4   12   22      0.04      0.00
    6   12   22      0.37      0.00
    8   12   22      0.29      0.00
   10   12   22      0.21      0.00
    1   13   22     -0.14      0.00
    3   13   22      0.01      0.00
    5   13   22     -0.02      0.00
    7   13   22      0.00      0.00
    9   13   22      0.38      0.00
   11   13   22     -0.05      0.00
   13   13   22      0.45      0.00
    0   14   22      0.25      0.00
    2   14   22     -0.22      0.00
    4   14   22      0.35      0.00
    6   14   22      0.23      0.00
    8   14   22      0.36      0.00
   10   14   22      0.17      0.00
   12   14   22      0.40      0.00
    1   15   22     -0.44      0.00
    3   15   22     -0.51      0.00
    5   15   22     -0.29      0.00
    7   15   22     -0.21      0.00
    9   15   22     -0.20      0.00
   11   15   22      0.19      0.00
   13   15   22     -0.05      0.00
   15   15   22      0.26      0.00
    0   16   22     -0.36      0.00
    2   16   22      0.30      0.00
    4   16   22     -0.08      0.00
    6   16   22      0.51      0.00
    8   16   22      0.12      0.00
   10   16   22      0.56      0.00
   12   16   22     -0.05      0.00
   14   16   22      0.70      0.00
    1   17   22     -0.81      0.00
    3   17   22     -0.66      0.00
    5   17   22     -0.71      0.00
    7   17   22     -0.44      0.00
    9   17   22     -0.34      0.00
   11   17   22     -0.17      0.00
   13   17   22      0.06      0.00
   15   17   22      0.01      0.00
   17   17   22      0.17      0.00
    0   18   22      0.20      0.00
    2   18   22     -0.29      0.00
    4   18   22      0.44      0.00
    6   18   22     -0.07      0.00
    8   18   22      0.71      0.00
   10   18   22     -0.10      0.00
   12   18   22      0.73      0.00
   14   18   22     -0.14      0.00
   16   18   22      0.71      0.00
    1   19   22     -0.85      0.00
    3   19   22     -0.88      0.00
    5   19   22     -0.63      0.00
    7   19   22     -0.68      0.00
    9   19   22     -0.28      0.00
   11   19   22     -0.32      0.00
   13   19   22      0.03      0.00
   15   19   22      0.04      0.00
    0   20   22     -0.21      0.00
    2   20   22      0.13      0.00
    4   20   22     -0.14      0.00
    6   20   22      0.59      0.00
    8   20   22     -0.10      0.00
   10   20   22      0.73      0.00
   12   20   22     -0.14      0.00
   14   20   22      0.59      0.00
    1   21   22     -0.76      0.00
    3   21   22     -0.63      0.00
    5   21   22     -0.67      0.00
    7   21   22     -0.31      0.00
    9   21   22     -0.49      0.00
   11   21   22      0.03      0.00
   13   21   22     -0.19      0.00
    0   22   22     -0.22      0.00
    4   22   22      0.17      0.00
    8   22   22      0.61      0.00
   12   22   22      0.47      0.00
    1    2   23      0.15      0.00
    2    3   23     -0.25      0.00
    1    4   23     -0.43      0.00
    3    4   23      0.15      0.00
    2    5   23      0.09      0.00
    4    5   23     -0.41      0.00
    1    6   23      0.53      0.00
    3    6   23     -0.55      0.00
    5    6   23      0.14      0.00
    2    7   23     -0.24      0.00
    4    7   23      0.19      0.00
    6    7   23     -0.33      0.00
    1    8   23     -0.69      0.00
    3    8   23      0.59      0.00
    5    8   23     -0.35      0.00
    7    8   23      0.19      0.00
    2    9   23      0.17      0.00
    4    9   23     -0.31      0.00
    6    9   23      0.10      0.00
    8    9   23     -0.11      0.00
    1   10   23      0.78      0.00
    3   10   23     -0.47      0.00
    5   10   23      0.55      0.00
    7   10   23     -0.03      0.00
    9   10   23      0.19      0.00
    2   11   23     -0.17      0.00
    4   11   23      0.12      0.00
    6   11   23     -0.21      0.00
    8   11   23     -0.10      0.00
   10   11   23      0.01      0.00
    1   12   23     -0.60      0.00
    3   12   23      0.70      0.00
    5   12   23     -0.11      0.00
    7   12   23      0.33      0.00
    9   12   23      0.13      0.00
   11   12   23      0.02      0.00
    2   13   23      0.00      0.00
    4   13   23     -0.15      0.00
    6   13   23     -0.15      0.00
    8   13   23     -0.11      0.00
   10   13   23     -0.18      0.00
   12   13   23     -0.04      0.00
    1   14   23      0.58      0.00
    3   14   23     -0.27      0.00
    5   14   23      0.40      0.00
    7   14   23      0.09      0.00
    9   14   23     -0.05      0.00
   11   14   23      0.08      0.00
   13   14   23     -0.23      0.00
    2   15   23      0.01      0.00
    4   15   23     -0.21      0.00
    6   15   23     -0.03      0.00
    8   15   23     -0.35      0.00
   10   15   23     -0.14      0.00
   12   15   23     -0.09      0.00
   14   15   23     -0.15      0.00
    1   16   23     -0.36      0.00
    3   16   23      0.37      0.00
    5   16   23     -0.07      0.00
    7   16   23     -0.02      0.00
    9   16   23      0.07      0.00
   11   16   23     -0.40      0.00
   13   16   23     -0.02      0.00
   15   16   23     -0.33      0.00
    2   17   23     -0.15      0.00
    4   17   23      0.18      0.00
    6   17   23     -0.39      0.00
    8   17   23     -0.02      0.00
   10   17   23     -0.34      0.00
   12   17   23     -0.28      0.00
   14   17   23      0.02      0.00
   16   17   23     -0.18      0.00
    1   18   23      0.35      0.00
    3   18   23     -0.25      0.00
    5   18   23      0.10      0.00
    7   18   23     -0.07      0.00
    9   18   23     -0.32      0.00
   11   18   23     -0.03      0.00
   13   18   23     -0.49      0.00
   15   18   23     -0.03      0.00
    2   19   23      0.23      0.00
    4   19   23     -0.25      0.00
    6   19   23      0.28      0.00
    8   19   23     -0.35      0.00
   10   19   23     -0.18      0.00
   12   19   23     -0.20      0.00
   14   19   23     -0.38      0.00
    1   20   23     -0.39      0.00
    3   20   23      0.28      0.00
    5   20   23     -0.27      0.00
    7   20   23     -0.06      0.00
    9   20   23     -0.17      0.00
   11   20   23     -0.36      0.00
   13   20   23     -0.08      0.00
    2   21   23     -0.07      0.00
    4   21   23      0.47      0.00
    6   21   23     -0.17      0.00
    8   21   23      0.16      0.00
   10   21   23     -0.16      0.00
   12   21   23     -0.38      0.00
    1   22   23      0.47      0.00
    3   22   23     -0.46      0.00
    5   22   23      0.24      0.00
    7   22   23     -0.35      0.00
    9   22   23     -0.05      0.00
    2   23   23      0.33      0.00
    6   23   23      0.47      0.00
    0    0   24      0.06      0.00
    0    2   24     -0.10      0.00
    2    2   24      0.28      0.00
    1    3   24     -0.06      0.00
    0    4   24      0.44      0.00
    2    4   24     -0.22      0.00
    4    4   24      0.67      0.00
    1    5   24      0.04      0.00
    3    5   24      0.09      0.00
    0    6   24     -0.47      0.00
    2    6   24      0.70      0.00
    4    6   24     -0.14      0.00
    6    6   24      0.74      0.00
    1    7   24      0.16      0.00
    3    7   24      0.15      0.00
    5    7   24      0.41      0.00
    0    8   24      0.72      0.00
    2    8   24     -0.34      0.00
    4    8   24      0.71      0.00
    6    8   24      0.06      0.00
    8    8   24      0.43      0.00
    1    9   24      0.20      0.00
    3    9   24      0.32      0.00
    5    9   24      0.16      0.00
    7    9   24      0.66      0.00
    0   10   24     -0.30      0.00
    2   10   24      0.63      0.00
    4   10   24      0.07      0.00
    6   10   24      0.45      0.00
    8   10   24      0.21      0.00
   10   10   24      0.12      0.00
    1   11   24      0.13      0.00
    3   11   24      0.12      0.00
    5   11   24      0.37      0.00
    7   11   24      0.06      0.00
    9   11   24      0.62      0.00
    0   12   24      0.51      0.00
    2   12   24     -0.06      0.00
    4   12   24      0.47      0.00
    6   12   24      0.39      0.00
    8   12   24      0.22      0.00
   10   12   24      0.18      0.00
   12   12   24      0.13      0.00
    1   13   24     -0.13      0.00
    3   13   24     -0.07      0.00
    5   13   24     -0.07      0.00
    7   13   24      0.22      0.00
    9   13   24     -0.05      0.00
   11   13   24      0.35      0.00
    0   14   24     -0.20      0.00
    2   14   24      0.43      0.00
    4   14   24      0.15      0.00
    6   14   24      0.40      0.00
    8   14   24      0.33      0.00
   10   14   24      0.25      0.00
   12   14   24      0.02      0.00
   14   14   24      0.35      0.00
    1   15   24     -0.45      0.00
    3   15   24     -0.37      0.00
    5   15   24     -0.31      0.00
    7   15   24     -0.22      0.00
    9   15   24     -0.05      0.00
   11   15   24     -0.09      0.00
   13   15   24      0.09      0.00
    0   16   24      0.32      0.00
    2   16   24     -0.23      0.00
    4   16   24      0.45      0.00
    6   16   24      0.11      0.00
    8   16   24      0.49      0.00
   10   16   24     -0.01      0.00
   12   16   24      0.42      0.00
   14   16   24     -0.12      0.00
   16   16   24      0.43      0.00
    1   17   24     -0.66      0.00
    3   17   24     -0.68      0.00
    5   17   24     -0.46      0.00
    7   17   24     -0.50      0.00
    9   17   24     -0.22      0.00
   11   17   24     -0.22      0.00
   13   17   24     -0.05      0.00
   15   17   24      0.03      0.00
    0   18   24     -0.41      0.00
    2   18   24      0.22      0.00
    4   18   24     -0.21      0.00
    6   18   24      0.54      0.00
    8   18   24     -0.12      0.00
   10   18   24      0.56      0.00
   12   18   24     -0.28      0.00
   14   18   24      0.42      0.00
    1   19   24     -0.77      0.00
    3   19   24     -0.64      0.00
    5   19   24     -0.71      0.00
    7   19   24     -0.36      0.00
    9   19   24     -0.52      0.00
   11   19   24     -0.12      0.00
   13   19   24     -0.20      0.00
    0   20   24     -0.13      0.00
    2   20   24     -0.32      0.00
    4   20   24      0.21      0.00
    6   20   24     -0.20      0.00
    8   20   24      0.57      0.00
   10   20   24     -0.27      0.00
   12   20   24      0.41      0.00
    1   21   24     -0.65      0.00
    3   21   24     -0.68      0.00
    5   21   24     -0.44      0.00
    7   21   24     -0.58      0.00
    9   21   24     -0.18      0.00
    0   22   24     -0.17      0.00
    2   22   24     -0.31      0.00
    4   22   24     -0.13      0.00
    6   22   24      0.30      0.00
    1   23   24     -0.56      0.00
    3   23   24     -0.44      0.00
    1    2   25     -0.19      0.00
    2    3   25      0.01      0.00
    1    4   25      0.25      0.00
    3    4   25     -0.44      0.00
    2    5   25     -0.26      0.00
    4    5   25      0.15      0.00
    1    6   25     -0.55      0.00
    3    6   25      0.22      0.00
    5    6   25     -0.52      0.00
    2    7   25      0.21      0.00
    4    7   25     -0.42      0.00
    6    7   25      0.21      0.00
    1    8   25      0.58      0.00
    3    8   25     -0.59      0.00
    5    8   25      0.15      0.00
    7    8   25     -0.36      0.00
    2    9   25     -0.23      0.00
    4    9   25      0.32      0.00
    6    9   25     -0.39      0.00
    8    9   25      0.16      0.00
    1   10   25     -0.63      0.00
    3   10   25      0.48      0.00
    5   10   25     -0.34      0.00
    7   10   25      0.02      0.00
    9   10   25     -0.15      0.00
    2   11   25      0.15      0.00
    4   11   25     -0.29      0.00
    6   11   25      0.17      0.00
    8   11   25     -0.27      0.00
   10   11   25      0.10      0.00
    1   12   25      0.51      0.00
    3   12   25     -0.34      0.00
    5   12   25      0.18      0.00
    7   12   25     -0.02      0.00
    9   12   25     -0.22      0.00
   11   12   25     -0.05      0.00
    2   13   25     -0.10      0.00
    4   13   25      0.02      0.00
    6   13   25     -0.23      0.00
    8   13   25     -0.10      0.00
   10   13   25     -0.22      0.00
   12   13   25      0.12      0.00
    1   14   25     -0.26      0.00
    3   14   25      0.18      0.00
    5   14   25      0.03      0.00
    7   14   25     -0.26      0.00
    9   14   25      0.15      0.00
   11   14   25     -0.46      0.00
   13   14   25     -0.05      0.00
    2   15   25     -0.08      0.00
    4   15   25     -0.02      0.00
    6   15   25     -0.27      0.00
    8   15   25     -0.17      0.00
   10   15   25     -0.25      0.00
   12   15   25     -0.24      0.00
   14   15   25      0.14      0.00
    1   16   25      0.06      0.00
    3   16   25      0.04      0.00
    5   16   25     -0.25      0.00
    7   16   25      0.24      0.00
    9   16   25     -0.61      0.00
   11   16   25      0.15      0.00
   13   16   25     -0.52      0.00
   15   16   25     -0.05      0.00
    2   17   25      0.12      0.00
    4   17   25     -0.29      0.00
    6   17   25      0.10      0.00
    8   17   25     -0.45      0.00
   10   17   25     -0.21      0.00
   12   17   25     -0.24      0.00
   14   17   25     -0.25      0.00
    1   18   25      0.03      0.00
    3   18   25     -0.16      0.00
    5   18   25      0.18      0.00
    7   18   25     -0.51      0.00
    9   18   25      0.22      0.00
   11   18   25     -0.63      0.00
   13   18   25      0.08      0.00
    2   19   25     -0.14      0.00
    4   19   25      0.33      0.00
    6   19   25     -0.38      0.00
    8   19   25      0.08      0.00
   10   19   25     -0.39      0.00
    1   20   25      0.03      0.00
    3   20   25     -0.02      0.00
    5   20   25     -0.22      0.00
    7   20   25      0.10      0.00
    9   20   25     -0.44      0.00
    2   21   25      0.29      0.00
    4   21   25     -0.18      0.00
    6   21   25      0.41      0.00
    1   22   25     -0.27      0.00
    3   22   25      0.14      0.00
    1    1   26     -0.03      0.00
    0    2   26      0.86      0.00
    1    3   26     -0.01      0.00
    3    3   26      0.05      0.00
    0    4   26     -0.31      0.00
    2    4   26      0.91      0.00
    1    5   26      0.08      0.00
    3    5   26      0.03      0.00
    5    5   26      0.35      0.00
    0    6   26      0.89      0.00
    2    6   26     -0.33      0.00
    4    6   26      0.79      0.00
    1    7   26      0.12      0.00
    3    7   26      0.32      0.00
    5    7   26      0.05      0.00
    7    7   26      0.64      0.00
    0    8   26     -0.36      0.00
    2    8   26      0.74      0.00
    4    8   26     -0.03      0.00
    6    8   26      0.43      0.00
    1    9   26      0.23      0.00
    3    9   26      0.11      0.00
    5    9   26      0.53      0.00
    7    9   26      0.04      0.00
    9    9   26      0.64      0.00
    0   10   26      0.61      0.00
    2   10   26     -0.05      0.00
    4   10   26      0.45      0.00
    6   10   26      0.33      0.00
    8   10   26      0.03      0.00
    1   11   26      0.08      0.00
    3   11   26      0.26      0.00
    5   11   26      0.05      0.00
    7   11   26      0.48      0.00
    9   11   26      0.02      0.00
   11   11   26      0.32      0.00
    0   12   26     -0.01      0.00
    2   12   26      0.43      0.00
    4   12   26      0.34      0.00
    6   12   26      0.19      0.00
    8   12   26      0.42      0.00
   10   12   26     -0.12      0.00
    1   13   26     -0.06      0.00
    3   13   26     -0.08      0.00
    5   13   26      0.11      0.00
    7   13   26     -0.01      0.00
    9   13   26      0.16      0.00
   11   13   26      0.01      0.00
   13   13   26     -0.03      0.00
    0   14   26      0.34      0.00
    2   14   26      0.06      0.00
    4   14   26      0.32      0.00
    6   14   26      0.43      0.00
    8   14   26      0.13      0.00
   10   14   26      0.18      0.00
   12   14   26     -0.01      0.00
    1   15   26     -0.29      0.00
    3   15   26     -0.27      0.00
    5   15   26     -0.16      0.00
    7   15   26     -0.17      0.00
    9   15   26     -0.03      0.00
   11   15   26     -0.15      0.00
   13   15   26     -0.01      0.00
    0   16   26     -0.21      0.00
    2   16   26      0.25      0.00
    4   16   26      0.06      0.00
    6   16   26      0.34      0.00
    8   16   26      0.13      0.00
   10   16   26      0.21      0.00
   12   16   26     -0.16      0.00
    1   17   26     -0.48      0.00
    3   17   26     -0.35      0.00
    5   17   26     -0.45      0.00
    7   17   26     -0.15      0.00
    9   17   26     -0.39      0.00
   11   17   26     -0.06      0.00
    0   18   26      0.02      0.00
    2   18   26     -0.29      0.00
    4   18   26      0.24      0.00
    6   18   26     -0.10      0.00
    8   18   26      0.40      0.00
   10   18   26     -0.27      0.00
    1   19   26     -0.49      0.00
    3   19   26     -0.56      0.00
    5   19   26     -0.29      0.00
    7   19   26     -0.53      0.00
    9   19   26     -0.14      0.00
    0   20   26     -0.34      0.00
    2   20   26     -0.15      0.00
    4   20   26     -0.24      0.00
    6   20   26      0.32      0.00
    1   21   26     -0.54      0.00
    1    2   27     -0.01      0.00
    2    3   27     -0.17      0.00
    1    4   27     -0.21      0.00
    3    4   27     -0.17      0.00
    2    5   27      0.25      0.00
    4    5   27     -0.38      0.00
    1    6   27      0.16      0.00
    3    6   27     -0.45      0.00
    5    6   27     -0.34      0.00
    2    7   27     -0.23      0.00
    4    7   27      0.51      0.00
    6    7   27     -0.46      0.00
    1    8   27     -0.45      0.00
    3    8   27      0.05      0.00
    5    8   27     -0.46      0.00
    7    8   27     -0.42      0.00
    2    9   27      0.32      0.00
    4    9   27     -0.37      0.00
    6    9   27      0.53      0.00
    8    9   27     -0.37      0.00
    1   10   27      0.33      0.00
    3   10   27     -0.43      0.00
    5   10   27     -0.15      0.00
    7   10   27     -0.26      0.00
    9   10   27     -0.42      0.00
    2   11   27     -0.18      0.00
    4   11   27      0.37      0.00
    6   11   27     -0.38      0.00
    8   11   27      0.31      0.00
   10   11   27     -0.24      0.00
    1   12   27     -0.29      0.00
    3   12   27      0.02      0.00
    5   12   27     -0.13      0.00
    7   12   27     -0.43      0.00
    9   12   27     -0.01      0.00
   11   12   27     -0.39      0.00
    2   13   27      0.10      0.00
    4   13   27     -0.22      0.00
    6   13   27      0.10      0.00
    8   13   27     -0.31      0.00
   10   13   27      0.04      0.00
   12   13   27     -0.16      0.00
    1   14   27     -0.01      0.00
    3   14   27      0.01      0.00
    5   14   27     -0.42      0.00
    7   14   27      0.21      0.00
    9   14   27     -0.66      0.00
   11   14   27      0.12      0.00
   13   14   27     -0.32      0.00
    2   15   27     -0.03      0.00
    4   15   27     -0.09      0.00
    6   15   27     -0.14      0.00
    8   15   27     -0.24      0.00
   10   15   27     -0.25      0.00
   12   15   27     -0.12      0.00
    1   16   27      0.18      0.00
    3   16   27     -0.40      0.00
    5   16   27      0.32      0.00
    7   16   27     -0.74      0.00
    9   16   27      0.36      0.00
   11   16   27     -0.65      0.00
    2   17   27     -0.10      0.00
    4   17   27      0.10      0.00
    6   17   27     -0.33      0.00
    8   17   27     -0.07      0.00
   10   17   27     -0.39      0.00
    1   18   27     -0.30      0.00
    3   18   27      0.28      0.00
    5   18   27     -0.60      0.00
    7   18   27      0.42      0.00
    2   19   27      0.18      0.00
    4   19   27     -0.22      0.00
    0    0   28      0.83      0.00
    0    2   28     -0.10      0.00
    2    2   28      0.78      0.00
    1    3   28      0.05      0.00
    0    4   28      0.73      0.00
    2    4   28     -0.20      0.00
    4    4   28      0.59      0.00
    1    5   28      0.05      0.00
    3    5   28      0.23      0.00
    0    6   28     -0.42      0.00
    2    6   28      0.55      0.00
    4    6   28     -0.11      0.00
    6    6   28      0.24      0.00
    1    7   28      0.19      0.00
    3    7   28      0.04      0.00
    5    7   28      0.46      0.00
    0    8   28      0.43      0.00
    2    8   28     -0.22      0.00
    4    8   28      0.24      0.00
    6    8   28      0.11      0.00
    8    8   28     -0.16      0.00
    1    9   28      0.10      0.00
    3    9   28      0.32      0.00
    5    9   28      0.04      0.00
    7    9   28      0.45      0.00
    0   10   28     -0.10      0.00
    2   10   28      0.23      0.00
    4   10   28      0.23      0.00
    6   10   28     -0.08      0.00
    8   10   28      0.25      0.00
   10   10   28     -0.39      0.00
    1   11   28      0.12      0.00
    3   11   28      0.03      0.00
    5   11   28      0.28      0.00
    7   11   28      0.06      0.00
    9   11   28      0.14      0.00
    0   12   28      0.17      0.00
    2   12   28      0.19      0.00
    4   12   28      0.06      0.00
    6   12   28      0.53      0.00
    8   12   28     -0.25      0.00
   10   12   28      0.20      0.00
   12   12   28     -0.37      0.00
    1   13   28     -0.03      0.00
    3   13   28      0.03      0.00
    5   13   28      0.04      0.00
    7   13   28      0.00      0.00
    9   13   28      0.09      0.00
   11   13   28     -0.24      0.00
    0   14   28      0.08      0.00
    2   14   28      0.11      0.00
    4   14   28      0.37      0.00
    6   14   28      0.01      0.00
    8   14   28      0.40      0.00
   10   14   28     -0.22      0.00
    1   15   28     -0.14      0.00
    3   15   28     -0.06      0.00
    5   15   28     -0.17      0.00
    7   15   28      0.08      0.00
    9   15   28     -0.31      0.00
    0   16   28      0.04      0.00
    2   16   28      0.01      0.00
    4   16   28      0.13      0.00
    6   16   28      0.25      0.00
    8   16   28      0.08      0.00
    1   17   28     -0.18      0.00
    3   17   28     -0.27      0.00
    5   17   28     -0.01      0.00
    0   18   28     -0.21      0.00
    2   18   28     -0.02      0.00
    1    2   29      0.00      0.00
    2    3   29      0.23      0.00
    1    4   29     -0.13      0.00
    3    4   29     -0.20      0.00
    2    5   29     -0.15      0.00
    4    5   29      0.54      0.00
    1    6   29     -0.16      0.00
    3    6   29     -0.32      0.00
    5    6   29     -0.38      0.00
    2    7   29      0.40      0.00
    4    7   29     -0.34      0.00
    6    7   29      0.69      0.00
    1    8   29      0.06      0.00
    3    8   29     -0.38      0.00
    5    8   29     -0.47      0.00
    7    8   29     -0.39      0.00
    2    9   29     -0.20      0.00
    4    9   29      0.61      0.00
    6    9   29     -0.41      0.00
    8    9   29      0.59      0.00
    1   10   29     -0.29      0.00
    3   10   29     -0.13      0.00
    5   10   29     -0.31      0.00
    7   10   29     -0.54      0.00
    9   10   29     -0.24      0.00
    2   11   29      0.28      0.00
    4   11   29     -0.32      0.00
    6   11   29      0.46      0.00
    8   11   29     -0.36      0.00
   10   11   29      0.32      0.00
    1   12   29      0.04      0.00
    3   12   29     -0.20      0.00
    5   12   29     -0.43      0.00
    7   12   29     -0.04      0.00
    9   12   29     -0.53      0.00
   11   12   29     -0.07      0.00
    2   13   29     -0.14      0.00
    4   13   29      0.22      0.00
    6   13   29     -0.32      0.00
    8   13   29      0.08      0.00
   10   13   29     -0.27      0.00
    1   14   29      0.02      0.00
    3   14   29     -0.35      0.00
    5   14   29      0.12      0.00
    7   14   29     -0.67      0.00
    9   14   29      0.20      0.00
    2   15   29      0.03      0.00
    4   15   29     -0.13      0.00
    6   15   29     -0.09      0.00
    1   16   29     -0.31      0.00
    3   16   29      0.22      0.00
    5   16   29     -0.67      0.00
    1    1   30      0.02      0.00
    0    2   30      0.19      0.00
    1    3   30      0.02      0.00
    3    3   30      0.12      0.00
    0    4   30     -0.32      0.00
    2    4   30      0.08      0.00
    1    5   30      0.09      0.00
    3    5   30      0.00      0.00
    5    5   30      0.26      0.00
    0    6   30      0.01      0.00
    2    6   30     -0.34      0.00
    4    6   30     -0.11      0.00
    1    7   30      0.03      0.00
    3    7   30      0.21      0.00
    5    7   30     -0.01      0.00
    7    7   30      0.26      0.00
    0    8   30     -0.37      0.00
    2    8   30     -0.12      0.00
    4    8   30     -0.05      0.00
    6    8   30     -0.32      0.00
    1    9   30      0.09      0.00
    3    9   30     -0.01      0.00
    5    9   30      0.20      0.00
    7    9   30      0.02      0.00
    9    9   30     -0.02      0.00
    0   10   30     -0.13      0.00
    2   10   30     -0.04      0.00
    4   10   30     -0.23      0.00
    6   10   30      0.30      0.00
    8   10   30     -0.46      0.00
    1   11   30      0.01      0.00
    3   11   30      0.09      0.00
    5   11   30      0.05      0.00
    7   11   30     -0.03      0.00
    9   11   30      0.06      0.00
    0   12   30      0.06      0.00
    2   12   30     -0.13      0.00
    4   12   30      0.36      0.00
    6   12   30     -0.27      0.00
    8   12   30      0.41      0.00
    1   13   30      0.00      0.00
    3   13   30      0.05      0.00
    5   13   30     -0.07      0.00
    7   13   30      0.15      0.00
    0   14   30     -0.09      0.00
    2   14   30      0.20      0.00
    4   14   30     -0.08      0.00
    1    2   31     -0.13      0.00
    2    3   31     -0.05      0.00
    1    4   31      0.01      0.00
    3    4   31     -0.38      0.00
    2    5   31      0.34      0.00
    4    5   31     -0.22      0.00
    1    6   31     -0.12      0.00
    3    6   31     -0.24      0.00
    5    6   31     -0.56      0.00
    2    7   31     -0.15      0.00
    4    7   31      0.61      0.00
    6    7   31     -0.35      0.00
    1    8   31     -0.21      0.00
    3    8   31     -0.24      0.00
    5    8   31     -0.35      0.00
    7    8   31     -0.56      0.00
    2    9   31      0.35      0.00
    4    9   31     -0.31      0.00
    6    9   31      0.60      0.00
    8    9   31     -0.34      0.00
    1   10   31      0.08      0.00
    3   10   31     -0.32      0.00
    5   10   31     -0.37      0.00
    7   10   31     -0.25      0.00
    2   11   31     -0.18      0.00
    4   11   31      0.42      0.00
    6   11   31     -0.37      0.00
    1   12   31     -0.19      0.00
    3   12   31     -0.18      0.00
    0    0   32     -0.39      0.00
    0    2   32     -0.10      0.00
    2    2   32     -0.41      0.00
    1    3   32      0.03      0.00
    0    4   32     -0.43      0.00
    2    4   32     -0.22      0.00
    4    4   32     -0.45      0.00
    1    5   32     -0.02      0.00
    3    5   32      0.08      0.00
    0    6   32     -0.48      0.00
    2    6   32     -0.44      0.00
    4    6   32     -0.16      0.00
    6    6   32     -0.45      0.00
    1    7   32      0.00      0.00
    3    7   32     -0.06      0.00
    5    7   32      0.06      0.00
    0    8   32     -0.40      0.00
    2    8   32     -0.34      0.00
    4    8   32     -0.41      0.00
    1    9   32     -0.07      0.00
    3    9   32      0.01      0.00
    1    2   33      0.01      0.00
    2    3   33      0.18      0.00
    1    4   33     -0.12      0.00
    3    4   33     -0.12      0.00
    2    5   33     -0.10      0.00
    0    2    2     40.65      0.00
    1    3    6      1.21      0.00
   18   19   21      0.07      0.00
   17   20   21     -0.17      0.00
   17   19   22      0.05      0.00
   16   20   22     -0.08      0.00
   11   22   23     -0.25      0.00
   11   21   24     -0.40      0.00
    8   22   24     -0.14      0.00
    5   23   24     -0.48      0.00
   12   19   25     -0.30      0.00
    8   21   25     -0.27      0.00
    5   22   25     -0.15      0.00
   15   15   26     -0.13      0.00
   14   16   26      0.11      0.00
   13   17   26     -0.22      0.00
    8   20   26     -0.26      0.00
    3   21   26     -0.40      0.00
    9   18   27     -0.70      0.00
    6   19   27      0.24      0.00
    1   20   27      0.11      0.00
    3   20   27     -0.28      0.00
   12   14   28      0.01      0.00
   11   15   28      0.05      0.00
   10   16   28     -0.01      0.00
    7   17   28     -0.37      0.00
    4   18   28     -0.05      0.00
    8   15   29     -0.23      0.00
    2   17   29      0.02      0.00
    6   14   30      0.47      0.00
    1   15   30      0.02      0.00
    3   15   30     -0.08      0.00
    5   12   31     -0.16      0.00
    2   13   31      0.16      0.00
    6    8   32      0.03      0.00
    5    9   32     -0.03      0.00
    0   10   32     -0.25      0.00
    2   10   32     -0.32      0.00
    4   10   32      0.06      0.00
    4    5   33      0.39      0.00
    1    6   33     -0.11      0.00
    3    6   33     -0.23      0.00
    0    0    0      0.00      0.00
# SQUEEZE RESULTS (Version =  41016)
# Note: Data are Listed for all Voids in the P1 Unit Cell
# i.e. Centre of Gravity, Solvent Accessible Volume,
# Recovered number of Electrons in the Void and
# Details about the Squeezed Material
loop_
  _platon_squeeze_void_nr
  _platon_squeeze_void_average_x
  _platon_squeeze_void_average_y
  _platon_squeeze_void_average_z
  _platon_squeeze_void_volume
  _platon_squeeze_void_count_electrons
  _platon_squeeze_void_content
   1  0.000  0.000  0.000        52         3 ' '
   2  0.500  0.000  0.000        52         3 ' '
   3  0.500  0.000  0.500        52         3 ' '
   4  1.000  0.000  0.500        52         3 ' '
   5  0.750  0.250  0.250        52         3 ' '
   6  0.250  0.250  0.250        52         3 ' '
   7  0.250  0.250  0.750        52         3 ' '
   8  0.750  0.250  0.750        52         3 ' '
   9  0.500  0.500  0.000        52         3 ' '
  10  1.000  0.500  0.500        52         3 ' '
  11  0.500  0.500  0.500        52         3 ' '
  12  0.000  0.500  1.000        52         3 ' '
  13  0.750  0.750  0.250        52         3 ' '
  14  0.250  0.750  0.250        52         3 ' '
  15  0.250  0.750  0.750        52         3 ' '
  16  0.750  0.750  0.750        52         3 ' '
# Missing Reflections Below sin(th)/lambda = 0.25
loop_
  _platon_missing_refln_index_h
  _platon_missing_refln_index_k
  _platon_missing_refln_index_l
  _platon_missing_refln_theta
    0    2    2     4.465
    1    3    6    10.760
_platon_squeeze_void_probe_radius                  1.20
_platon_squeeze_details
)
TITL shelx     I a -3 d     R = 0.03
CELL   28.0060   28.0060   28.0060     90.00     90.00     90.00
SPGR Ia-3d
# Solvent Accessible Volume =       829
# Electrons Found in S.A.V. =        36
# Note: Atoms in Void as Cxxx and Qxxx all others
Q101 0.454 0.679 0.165 !       1.26 eA-3
Q102 0.712 0.374 0.039 !       1.16 eA-3
Q103 0.592 0.780 0.042 !       0.88 eA-3
Q104 0.319 0.466 0.361 !       0.61 eA-3
)
;
_shelx_fab_checksum              86498
loop_
_space_group_symop_operation_xyz
'x, y, z'
'-x+1/2, -y, z+1/2'
'-x, y+1/2, -z+1/2'
'x+1/2, -y+1/2, -z'
'z, x, y'
'z+1/2, -x+1/2, -y'
'-z+1/2, -x, y+1/2'
'-z, x+1/2, -y+1/2'
'y, z, x'
'-y, z+1/2, -x+1/2'
'y+1/2, -z+1/2, -x'
'-y+1/2, -z, x+1/2'
'y+3/4, x+1/4, -z+1/4'
'-y+3/4, -x+3/4, -z+3/4'
'y+1/4, -x+1/4, z+3/4'
'-y+1/4, x+3/4, z+1/4'
'x+3/4, z+1/4, -y+1/4'
'-x+1/4, z+3/4, y+1/4'
'-x+3/4, -z+3/4, -y+3/4'
'x+1/4, -z+1/4, y+3/4'
'z+3/4, y+1/4, -x+1/4'
'z+1/4, -y+1/4, x+3/4'
'-z+1/4, y+3/4, x+1/4'
'-z+3/4, -y+3/4, -x+3/4'
'x+1/2, y+1/2, z+1/2'
'-x+1, -y+1/2, z+1'
'-x+1/2, y+1, -z+1'
'x+1, -y+1, -z+1/2'
'z+1/2, x+1/2, y+1/2'
'z+1, -x+1, -y+1/2'
'-z+1, -x+1/2, y+1'
'-z+1/2, x+1, -y+1'
'y+1/2, z+1/2, x+1/2'
'-y+1/2, z+1, -x+1'
'y+1, -z+1, -x+1/2'
'-y+1, -z+1/2, x+1'
'y+5/4, x+3/4, -z+3/4'
'-y+5/4, -x+5/4, -z+5/4'
'y+3/4, -x+3/4, z+5/4'
'-y+3/4, x+5/4, z+3/4'
'x+5/4, z+3/4, -y+3/4'
'-x+3/4, z+5/4, y+3/4'
'-x+5/4, -z+5/4, -y+5/4'
'x+3/4, -z+3/4, y+5/4'
'z+5/4, y+3/4, -x+3/4'
'z+3/4, -y+3/4, x+5/4'
'-z+3/4, y+5/4, x+3/4'
'-z+5/4, -y+5/4, -x+5/4'
'-x, -y, -z'
'x-1/2, y, -z-1/2'
'x, -y-1/2, z-1/2'
'-x-1/2, y-1/2, z'
'-z, -x, -y'
'-z-1/2, x-1/2, y'
'z-1/2, x, -y-1/2'
'z, -x-1/2, y-1/2'
'-y, -z, -x'
'y, -z-1/2, x-1/2'
'-y-1/2, z-1/2, x'
'y-1/2, z, -x-1/2'
'-y-3/4, -x-1/4, z-1/4'
'y-3/4, x-3/4, z-3/4'
'-y-1/4, x-1/4, -z-3/4'
'y-1/4, -x-3/4, -z-1/4'
'-x-3/4, -z-1/4, y-1/4'
'x-1/4, -z-3/4, -y-1/4'
'x-3/4, z-3/4, y-3/4'
'-x-1/4, z-1/4, -y-3/4'
'-z-3/4, -y-1/4, x-1/4'
'-z-1/4, y-1/4, -x-3/4'
'z-1/4, -y-3/4, -x-1/4'
'z-3/4, y-3/4, x-3/4'
'-x+1/2, -y+1/2, -z+1/2'
'x, y+1/2, -z'
'x+1/2, -y, z'
'-x, y, z+1/2'
'-z+1/2, -x+1/2, -y+1/2'
'-z, x, y+1/2'
'z, x+1/2, -y'
'z+1/2, -x, y'
'-y+1/2, -z+1/2, -x+1/2'
'y+1/2, -z, x'
'-y, z, x+1/2'
'y, z+1/2, -x'
'-y-1/4, -x+1/4, z+1/4'
'y-1/4, x-1/4, z-1/4'
'-y+1/4, x+1/4, -z-1/4'
'y+1/4, -x-1/4, -z+1/4'
'-x-1/4, -z+1/4, y+1/4'
'x+1/4, -z-1/4, -y+1/4'
'x-1/4, z-1/4, y-1/4'
'-x+1/4, z+1/4, -y-1/4'
'-z-1/4, -y+1/4, x+1/4'
'-z+1/4, y+1/4, -x-1/4'
'z+1/4, -y-1/4, -x+1/4'
'z-1/4, y-1/4, x-1/4'
loop_
_atom_site_label
_atom_site_type_symbol
_atom_site_fract_x
_atom_site_fract_y
_atom_site_fract_z
_atom_site_U_iso_or_equiv
_atom_site_adp_type
_atom_site_occupancy
_atom_site_site_symmetry_order
_atom_site_calc_flag
_atom_site_refinement_flags_posn
_atom_site_refinement_flags_adp
_atom_site_refinement_flags_occupancy
_atom_site_disorder_assembly
_atom_site_disorder_group
Y1 Y 0.56828(2) 0.6250 0.31828(2) 0.01298(16) Uani 1 2 d S T P . .
K1 K 0.56163(3) 0.5000 0.2500 0.0200(2) Uani 1 2 d S T P . .
O1 O 0.49055(7) 0.64995(7) 0.32567(6) 0.0170(4) Uani 1 1 d . . . . .
O2 O 0.43853(7) 0.68491(7) 0.37402(7) 0.0170(4) Uani 1 1 d . . . . .
O3 O 0.52334(7) 0.55701(7) 0.31679(7) 0.0239(5) Uani 1 1 d . . . . .
O4 O 0.48884(8) 0.48766(7) 0.33214(8) 0.0268(5) Uani 1 1 d . . . . .
C1 C 0.44542(9) 0.60194(10) 0.37950(10) 0.0165(5) Uani 1 1 d . . . . .
C2 C 0.45836(10) 0.55526(10) 0.37038(10) 0.0178(5) Uani 1 1 d . . . . .
N1 N 0.40999(8) 0.60264(8) 0.41373(8) 0.0193(5) Uani 1 1 d . . . . .
C3 C 0.40205(11) 0.55761(10) 0.42499(11) 0.0230(6) Uani 1 1 d . . . . .
H3 H 0.3793 0.5473 0.4479 0.028 Uiso 1 1 calc R U . . .
N2 N 0.43032(8) 0.52813(8) 0.39987(9) 0.0216(5) Uani 1 1 d . . . . .
H2 H 0.4308 0.4968 0.4020 0.026 Uiso 1 1 calc R U . . .
C4 C 0.45952(9) 0.64845(9) 0.35814(9) 0.0147(5) Uani 1 1 d . . . . .
C5 C 0.49260(10) 0.53135(10) 0.33719(10) 0.0183(6) Uani 1 1 d . . . . .
Cl1 Cl 0.41739(2) 0.41739(2) 0.41739(2) 0.0225(3) Uani 1 3 d S T P . .
N3A N 0.4267(3) 0.4099(4) 0.3058(3) 0.045(2) Uani 0.3333 1 d D U P A -1
H3AA H 0.3972 0.4041 0.3183 0.054 Uiso 0.3333 1 calc R U P A -1
H3AB H 0.4398 0.4347 0.3221 0.054 Uiso 0.3333 1 calc R U P A -1
C6A C 0.4222(7) 0.4222(8) 0.2560(4) 0.092(6) Uani 0.3333 1 d D U P A -1
H6AA H 0.4020 0.4506 0.2528 0.139 Uiso 0.3333 1 calc R U P A -1
H6AB H 0.4539 0.4289 0.2427 0.139 Uiso 0.3333 1 calc R U P A -1
H6AC H 0.4077 0.3956 0.2386 0.139 Uiso 0.3333 1 calc R U P A -1
C7A C 0.4577(7) 0.3661(6) 0.3113(6) 0.081(6) Uani 0.3333 1 d D U P A -1
H7AA H 0.4606 0.3580 0.3452 0.121 Uiso 0.3333 1 calc R U P A -1
H7AB H 0.4433 0.3393 0.2940 0.121 Uiso 0.3333 1 calc R U P A -1
H7AC H 0.4895 0.3726 0.2981 0.121 Uiso 0.3333 1 calc R U P A -1
loop_
_atom_site_aniso_label
_atom_site_aniso_U_11
_atom_site_aniso_U_22
_atom_site_aniso_U_33
_atom_site_aniso_U_23
_atom_site_aniso_U_13
_atom_site_aniso_U_12
Y1 0.01363(17) 0.0117(2) 0.01363(17) -0.00077(8) 0.00163(11) 0.00077(8)
K1 0.0278(4) 0.0140(4) 0.0182(4) -0.0037(3) 0.000 0.000
O1 0.0150(9) 0.0179(9) 0.0180(9) 0.0017(7) 0.0030(7) 0.0010(7)
O2 0.0177(9) 0.0142(9) 0.0192(9) 0.0005(7) 0.0047(7) 0.0018(7)
O3 0.0238(11) 0.0173(10) 0.0308(11) -0.0056(8) 0.0091(9) -0.0033(8)
O4 0.0332(12) 0.0156(10) 0.0316(11) -0.0012(8) 0.0100(9) 0.0014(8)
C1 0.0153(12) 0.0168(13) 0.0175(13) 0.0009(10) 0.0018(10) 0.0011(10)
C2 0.0189(14) 0.0161(13) 0.0182(13) 0.0017(10) 0.0011(11) -0.0012(11)
N1 0.0201(12) 0.0158(11) 0.0220(12) 0.0022(9) 0.0064(10) 0.0007(9)
C3 0.0246(15) 0.0190(14) 0.0255(15) 0.0049(11) 0.0084(12) -0.0011(11)
N2 0.0252(13) 0.0127(11) 0.0268(13) 0.0037(10) 0.0056(10) 0.0012(9)
C4 0.0137(12) 0.0155(12) 0.0149(12) -0.0003(10) -0.0009(10) -0.0005(10)
C5 0.0195(14) 0.0165(13) 0.0187(13) -0.0005(11) -0.0001(11) 0.0014(10)
Cl1 0.0225(3) 0.0225(3) 0.0225(3) 0.0002(3) 0.0002(3) 0.0002(3)
N3A 0.042(4) 0.061(5) 0.032(4) -0.025(4) 0.013(3) -0.034(4)
C6A 0.099(12) 0.114(13) 0.064(9) -0.017(9) 0.016(9) -0.051(10)
C7A 0.080(11) 0.106(13) 0.057(9) -0.041(10) -0.012(8) -0.001(10)
loop_
_atom_type_symbol
_atom_type_description
_atom_type_scat_dispersion_real
_atom_type_scat_dispersion_imag
_atom_type_scat_source
C C 0.0181 0.0091 'International Tables Vol C Tables 4.2.6.8 and 6.1.1.4'
H H 0.0000 0.0000 'International Tables Vol C Tables 4.2.6.8 and 6.1.1.4'
Cl Cl 0.3639 0.7018 'International Tables Vol C Tables 4.2.6.8 and 6.1.1.4'
K K 0.3868 1.0657 'International Tables Vol C Tables 4.2.6.8 and 6.1.1.4'
N N 0.0311 0.0180 'International Tables Vol C Tables 4.2.6.8 and 6.1.1.4'
O O 0.0492 0.0322 'International Tables Vol C Tables 4.2.6.8 and 6.1.1.4'
Y Y -0.2670 2.0244 'International Tables Vol C Tables 4.2.6.8 and 6.1.1.4'
loop_
_geom_angle_atom_site_label_1
_geom_angle_atom_site_label_2
_geom_angle_atom_site_label_3
_geom_angle
_geom_angle_site_symmetry_1
_geom_angle_site_symmetry_3
O3 Y1 O3 132.50(11) 22_564 .
O3 Y1 O1 74.49(7) 22_564 22_564
O3 Y1 O1 77.20(7) . 22_564
O3 Y1 O1 77.21(7) 22_564 .
O3 Y1 O1 74.50(7) . .
O1 Y1 O1 105.28(9) 22_564 .
O3 Y1 O2 75.68(7) 22_564 87_656
O3 Y1 O2 127.50(7) . 87_656
O1 Y1 O2 149.95(7) 22_564 87_656
O1 Y1 O2 71.28(6) . 87_656
O3 Y1 O2 127.50(7) 22_564 53_666
O3 Y1 O2 75.68(7) . 53_666
O1 Y1 O2 71.28(6) 22_564 53_666
O1 Y1 O2 149.95(7) . 53_666
O2 Y1 O2 126.67(9) 87_656 53_666
O3 Y1 N1 78.36(8) 22_564 87_656
O3 Y1 N1 145.87(8) . 87_656
O1 Y1 N1 103.47(7) 22_564 87_656
O1 Y1 N1 135.24(7) . 87_656
O2 Y1 N1 66.64(7) 87_656 87_656
O2 Y1 N1 72.49(7) 53_666 87_656
O3 Y1 N1 145.87(8) 22_564 53_666
O3 Y1 N1 78.36(8) . 53_666
O1 Y1 N1 135.24(7) 22_564 53_666
O1 Y1 N1 103.47(7) . 53_666
O2 Y1 N1 72.49(7) 87_656 53_666
O2 Y1 N1 66.64(7) 53_666 53_666
N1 Y1 N1 78.01(11) 87_656 53_666
K1 K1 O3 0(10) 28_455 .
K1 K1 O3 0(10) 28_455 28_455
O3 K1 O3 132.88(10) . 28_455
K1 K1 O1 0(10) 28_455 22_564
O3 K1 O1 62.19(6) . 22_564
O3 K1 O1 125.25(6) 28_455 22_564
K1 K1 O1 0(10) 28_455 45_445
O3 K1 O1 125.25(6) . 45_445
O3 K1 O1 62.19(6) 28_455 45_445
O1 K1 O1 164.10(8) 22_564 45_445
K1 K1 O2 0(10) 28_455 22_564
O3 K1 O2 105.45(5) . 22_564
O3 K1 O2 101.00(6) 28_455 22_564
O1 K1 O2 43.98(5) 22_564 22_564
O1 K1 O2 124.16(6) 45_445 22_564
K1 K1 O2 0(10) 28_455 45_445
O3 K1 O2 101.00(6) . 45_445
O3 K1 O2 105.45(5) 28_455 45_445
O1 K1 O2 124.16(6) 22_564 45_445
O1 K1 O2 43.98(5) 45_445 45_445
O2 K1 O2 110.25(8) 22_564 45_445
K1 K1 O2 0(10) 28_455 53_666
O3 K1 O2 59.33(6) . 53_666
O3 K1 O2 167.60(7) 28_455 53_666
O1 K1 O2 54.86(5) 22_564 53_666
O1 K1 O2 114.46(6) 45_445 53_666
O2 K1 O2 70.51(2) 22_564 53_666
O2 K1 O2 70.51(2) 45_445 53_666
K1 K1 O2 0(10) 28_455 78_654
O3 K1 O2 167.60(7) . 78_654
O3 K1 O2 59.33(6) 28_455 78_654
O1 K1 O2 114.46(6) 22_564 78_654
O1 K1 O2 54.86(5) 45_445 78_654
O2 K1 O2 70.51(2) 22_564 78_654
O2 K1 O2 70.51(2) 45_445 78_654
O2 K1 O2 108.59(8) 53_666 78_654
K1 K1 O4 0(10) 28_455 .
O3 K1 O4 44.32(6) . .
O3 K1 O4 100.87(7) 28_455 .
O1 K1 O4 105.70(5) 22_564 .
O1 K1 O4 84.94(5) 45_445 .
O2 K1 O4 149.59(5) 22_564 .
O2 K1 O4 83.76(5) 45_445 .
O2 K1 O4 90.45(5) 53_666 .
O2 K1 O4 139.59(5) 78_654 .
K1 K1 O4 0(10) 28_455 28_455
O3 K1 O4 100.87(7) . 28_455
O3 K1 O4 44.32(6) 28_455 28_455
O1 K1 O4 84.94(5) 22_564 28_455
O1 K1 O4 105.70(5) 45_445 28_455
O2 K1 O4 83.75(5) 22_564 28_455
O2 K1 O4 149.59(5) 45_445 28_455
O2 K1 O4 139.59(5) 53_666 28_455
O2 K1 O4 90.45(5) 78_654 28_455
O4 K1 O4 97.54(9) . 28_455
K1 K1 K1 0(10) 28_455 65_765
O3 K1 K1 113.56(5) . 65_765
O3 K1 K1 113.56(5) 28_455 65_765
O1 K1 K1 82.05(4) 22_564 65_765
O1 K1 K1 82.05(4) 45_445 65_765
O2 K1 K1 55.13(4) 22_564 65_765
O2 K1 K1 55.13(4) 45_445 65_765
O2 K1 K1 54.29(4) 53_666 65_765
O2 K1 K1 54.29(4) 78_654 65_765
O4 K1 K1 131.23(5) . 65_765
O4 K1 K1 131.23(5) 28_455 65_765
K1 K1 Y1 0(7) 28_455 28_455
O3 K1 Y1 150.95(5) . 28_455
O3 K1 Y1 33.18(4) 28_455 28_455
O1 K1 Y1 144.42(4) 22_564 28_455
O1 K1 Y1 34.28(4) 45_445 28_455
O2 K1 Y1 103.09(4) 22_564 28_455
O2 K1 Y1 73.75(3) 45_445 28_455
O2 K1 Y1 138.10(4) 53_666 28_455
O2 K1 Y1 36.99(4) 78_654 28_455
O4 K1 Y1 106.79(4) . 28_455
O4 K1 Y1 76.85(4) 28_455 28_455
K1 K1 Y1 87.326(13) 65_765 28_455
C4 O1 Y1 135.21(17) . .
C4 O1 K1 101.37(16) . 22_564
Y1 O1 K1 101.50(7) . 22_564
C4 O1 K1 101.37(16) . 47_544
Y1 O1 K1 101.50(7) . 47_544
K1 O1 K1 0.00(4) 22_564 47_544
C4 O2 Y1 123.53(17) . 57_666
C4 O2 K1 91.08(15) . 47_544
Y1 O2 K1 145.39(7) 57_666 47_544
C4 O2 K1 91.08(15) . 22_564
Y1 O2 K1 145.39(7) 57_666 22_564
K1 O2 K1 0.00(3) 47_544 22_564
C4 O2 K1 115.12(16) . 57_666
Y1 O2 K1 92.42(6) 57_666 57_666
K1 O2 K1 70.58(5) 47_544 57_666
K1 O2 K1 70.58(5) 22_564 57_666
C5 O3 Y1 147.70(18) . .
C5 O3 K1 104.47(17) . 28_455
Y1 O3 K1 106.78(7) . 28_455
C5 O3 K1 104.47(17) . .
Y1 O3 K1 106.78(7) . .
K1 O3 K1 0.0 28_455 .
C5 O4 K1 85.31(16) . 28_455
C5 O4 K1 85.31(16) . .
K1 O4 K1 0.0 28_455 .
N1 C1 C2 109.3(2) . .
N1 C1 C4 117.3(2) . .
C2 C1 C4 133.3(2) . .
N2 C2 C1 105.3(2) . .
N2 C2 C5 119.6(2) . .
C1 C2 C5 135.1(3) . .
C3 N1 C1 105.9(2) . .
C3 N1 Y1 137.79(19) . 57_666
C1 N1 Y1 116.05(17) . 57_666
N1 C3 N2 111.3(3) . .
N1 C3 H3 124.3 . .
N2 C3 H3 124.3 . .
C3 N2 C2 108.2(2) . .
C3 N2 H2 125.9 . .
C2 N2 H2 125.9 . .
O1 C4 O2 123.4(2) . .
O1 C4 C1 120.2(2) . .
O2 C4 C1 116.4(2) . .
O1 C4 K1 56.86(13) . 22_564
O2 C4 K1 66.68(14) . 22_564
C1 C4 K1 175.48(18) . 22_564
O1 C4 K1 56.86(13) . 47_544
O2 C4 K1 66.68(14) . 47_544
C1 C4 K1 175.48(18) . 47_544
K1 C4 K1 0.00(3) 22_564 47_544
O4 C5 O3 124.9(3) . .
O4 C5 C2 117.4(2) . .
O3 C5 C2 117.7(2) . .
O4 C5 K1 72.31(15) . 28_455
O3 C5 K1 53.40(14) . 28_455
C2 C5 K1 167.06(18) . 28_455
C6A N3A C7A 110.0(13) . .
C6A N3A H3AA 109.7 . .
C7A N3A H3AA 109.7 . .
C6A N3A H3AB 109.7 . .
C7A N3A H3AB 109.7 . .
H3AA N3A H3AB 108.2 . .
N3A C6A H6AA 109.5 . .
N3A C6A H6AB 109.5 . .
H6AA C6A H6AB 109.5 . .
N3A C6A H6AC 109.5 . .
H6AA C6A H6AC 109.5 . .
H6AB C6A H6AC 109.5 . .
N3A C7A H7AA 109.5 . .
N3A C7A H7AB 109.5 . .
H7AA C7A H7AB 109.5 . .
N3A C7A H7AC 109.5 . .
H7AA C7A H7AC 109.5 . .
H7AB C7A H7AC 109.5 . .
loop_
_geom_bond_atom_site_label_1
_geom_bond_atom_site_label_2
_geom_bond_distance
_geom_bond_site_symmetry_2
Y1 O3 2.283(2) 22_564
Y1 O3 2.283(2) .
Y1 O1 2.2955(19) 22_564
Y1 O1 2.2955(19) .
Y1 O2 2.4051(19) 87_656
Y1 O2 2.4051(19) 53_666
Y1 N1 2.474(2) 87_656
Y1 N1 2.474(2) 53_666
K1 K1 0.0000(18) 28_455
K1 O3 2.683(2) .
K1 O3 2.683(2) 28_455
K1 O1 2.8418(19) 22_564
K1 O1 2.8418(19) 45_445
K1 O2 3.056(2) 22_564
K1 O2 3.056(2) 45_445
K1 O2 3.088(2) 53_666
K1 O2 3.088(2) 78_654
K1 O4 3.093(2) .
K1 O4 3.093(2) 28_455
K1 K1 3.5495(19) 65_765
K1 Y1 3.9934(5) 28_455
O1 C4 1.259(3) .
O1 K1 2.8419(19) 22_564
O1 K1 2.8419(19) 47_544
O2 C4 1.260(3) .
O2 Y1 2.4052(19) 57_666
O2 K1 3.056(2) 47_544
O2 K1 3.056(2) 22_564
O2 K1 3.088(2) 57_666
O3 C5 1.259(3) .
O3 K1 2.683(2) 28_455
O4 C5 1.236(4) .
O4 K1 3.093(2) 28_455
C1 N1 1.380(4) .
C1 C2 1.381(4) .
C1 C4 1.487(4) .
C2 N2 1.370(4) .
C2 C5 1.494(4) .
N1 C3 1.319(4) .
N1 Y1 2.474(2) 57_666
C3 N2 1.343(4) .
C3 H3 0.9500 .
N2 H2 0.8800 .
C4 K1 3.327(3) 22_564
C4 K1 3.327(3) 47_544
C5 K1 3.236(3) 28_455
N3A C6A 1.442(10) .
N3A C7A 1.512(10) .
N3A H3AA 0.9100 .
N3A H3AB 0.9100 .
C6A H6AA 0.9800 .
C6A H6AB 0.9800 .
C6A H6AC 0.9800 .
C7A H7AA 0.9800 .
C7A H7AB 0.9800 .
C7A H7AC 0.9800 .
loop_
_platon_squeeze_void_nr
_platon_squeeze_void_average_x
_platon_squeeze_void_average_y
_platon_squeeze_void_average_z
_platon_squeeze_void_volume
_platon_squeeze_void_count_electrons
_platon_squeeze_void_content
1 0.000 0.000 0.000 52 3 ' '
2 0.500 0.000 0.000 52 3 ' '
3 0.500 0.000 0.500 52 3 ' '
4 1.000 0.000 0.500 52 3 ' '
5 0.750 0.250 0.250 52 3 ' '
6 0.250 0.250 0.250 52 3 ' '
7 0.250 0.250 0.750 52 3 ' '
8 0.750 0.250 0.750 52 3 ' '
9 0.500 0.500 0.000 52 3 ' '
10 1.000 0.500 0.500 52 3 ' '
11 0.500 0.500 0.500 52 3 ' '
12 0.000 0.500 1.000 52 3 ' '
13 0.750 0.750 0.250 52 3 ' '
14 0.250 0.750 0.250 52 3 ' '
15 0.250 0.750 0.750 52 3 ' '
16 0.750 0.750 0.750 52 3 ' '
