#------------------------------------------------------------------------------
#$Date: 2019-08-22 03:19:59 +0300 (Thu, 22 Aug 2019) $
#$Revision: 217639 $
#$URL: file:///home/coder/svn-repositories/cod/cif/7/12/40/7124049.cif $
#------------------------------------------------------------------------------
#
# This file is available in the Crystallography Open Database (COD),
# http://www.crystallography.net/
#
# All data on this site have been placed in the public domain by the
# contributors.
#
data_7124049
loop_
_publ_author_name
'Zhang, Cui-Juan'
'Lian, Kai-Ting'
'Huang, Guo-Zhang'
'Bala, Sukhen'
'Ni, Zhao-Ping'
'Tong, Ming-Liang'
_publ_section_title
;
 Hysteretic Four-Step Spin-Crossover in a 3D Hofmann-type Metal-Organic
 Framework with Aromatic Guest
;
_journal_name_full               'Chemical Communications'
_journal_paper_doi               10.1039/C9CC06017K
_journal_year                    2019
_chemical_formula_moiety         'C16 H8 Ag2 Fe N8 O, 1.5(C10 H8)'
_chemical_formula_sum            'C31 H20 Ag2 Fe N8 O'
_chemical_formula_weight         792.14
_space_group_crystal_system      monoclinic
_space_group_IT_number           15
_space_group_name_Hall           '-C 2yc'
_space_group_name_H-M_alt        'C 1 2/c 1'
_symmetry_space_group_name_Hall  '-C 2yc'
_symmetry_space_group_name_H-M   'C 1 2/c 1'
_atom_sites_solution_hydrogens   geom
_atom_sites_solution_primary     dual
_audit_creation_date             2018-12-24
_audit_creation_method
;
Olex2 1.2
(compiled 2018.05.29 svn.r3508 for OlexSys, GUI svn.r5506)
;
_audit_update_record
;
2019-04-30 deposited with the CCDC.    2019-08-20 downloaded from the CCDC.
;
_cell_angle_alpha                90
_cell_angle_beta                 131.4150(10)
_cell_angle_gamma                90
_cell_formula_units_Z            8
_cell_length_a                   21.0563(12)
_cell_length_b                   28.9371(17)
_cell_length_c                   14.1011(14)
_cell_measurement_reflns_used    9609
_cell_measurement_temperature    298(2)
_cell_measurement_theta_max      26.75
_cell_measurement_theta_min      2.39
_cell_volume                     6443.4(8)
_computing_cell_refinement       'SAINT v8.37A (Bruker, 2015)'
_computing_data_reduction        'SAINT v8.37A (Bruker, 2015)'
_computing_molecular_graphics    'Olex2 (Dolomanov et al., 2009)'
_computing_publication_material  'Olex2 (Dolomanov et al., 2009)'
_computing_structure_refinement  'ShelXL (Sheldrick, 2015)'
_computing_structure_solution    'ShelXT (Sheldrick, 2015)'
_diffrn_ambient_temperature      298.07
_diffrn_measured_fraction_theta_full 0.995
_diffrn_measured_fraction_theta_max 0.989
_diffrn_measurement_device_type  'Bruker APEX-III CCD'
_diffrn_measurement_method       '\f and \w scans'
_diffrn_radiation_type           MoK\a
_diffrn_radiation_wavelength     0.71073
_diffrn_reflns_av_R_equivalents  0.0601
_diffrn_reflns_av_unetI/netI     0.0438
_diffrn_reflns_Laue_measured_fraction_full 0.995
_diffrn_reflns_Laue_measured_fraction_max 0.989
_diffrn_reflns_limit_h_max       26
_diffrn_reflns_limit_h_min       -20
_diffrn_reflns_limit_k_max       37
_diffrn_reflns_limit_k_min       -37
_diffrn_reflns_limit_l_max       17
_diffrn_reflns_limit_l_min       -18
_diffrn_reflns_number            41739
_diffrn_reflns_point_group_measured_fraction_full 0.995
_diffrn_reflns_point_group_measured_fraction_max 0.989
_diffrn_reflns_theta_full        25.242
_diffrn_reflns_theta_max         27.518
_diffrn_reflns_theta_min         1.469
_diffrn_standards_number         0
_exptl_absorpt_coefficient_mu    1.685
_exptl_absorpt_correction_T_max  0.0949
_exptl_absorpt_correction_T_min  0.0674
_exptl_absorpt_correction_type   multi-scan
_exptl_absorpt_process_details
'SADABS-2014/5 (Bruker,2014/5) was used for absorption correction. wR2(int) was 0.0663 before and 0.0567 after correction. The Ratio of minimum to maximum transmission is 0.7102. The \l/2 correction factor is Not present.'
_exptl_crystal_colour            yellow
_exptl_crystal_colour_primary    yellow
_exptl_crystal_density_diffrn    1.633
_exptl_crystal_description       BLOCK
_exptl_crystal_F_000             3120
_exptl_crystal_size_max          0.147
_exptl_crystal_size_mid          0.146
_exptl_crystal_size_min          0.081
_refine_diff_density_max         0.828
_refine_diff_density_min         -0.810
_refine_diff_density_rms         0.088
_refine_ls_extinction_method     none
_refine_ls_goodness_of_fit_ref   1.092
_refine_ls_hydrogen_treatment    constr
_refine_ls_matrix_type           full
_refine_ls_number_parameters     390
_refine_ls_number_reflns         7353
_refine_ls_number_restraints     0
_refine_ls_restrained_S_all      1.092
_refine_ls_R_factor_all          0.0939
_refine_ls_R_factor_gt           0.0531
_refine_ls_shift/su_max          0.000
_refine_ls_shift/su_mean         0.000
_refine_ls_structure_factor_coef Fsqd
_refine_ls_weighting_details
'w=1/[\s^2^(Fo^2^)+(0.0341P)^2^+37.3501P] where P=(Fo^2^+2Fc^2^)/3'
_refine_ls_weighting_scheme      calc
_refine_ls_wR_factor_gt          0.1157
_refine_ls_wR_factor_ref         0.1311
_reflns_Friedel_coverage         0.000
_reflns_number_gt                4832
_reflns_number_total             7353
_reflns_threshold_expression     'I > 2\s(I)'
_cod_data_source_file            c9cc06017k2.cif
_cod_data_source_block           1-naph-298K
_cod_database_code               7124049
_shelx_shelxl_version_number     2014/7
_shelx_space_group_comment
;
The symmetry employed for this shelxl refinement is uniquely defined
by the following loop, which should always be used as a source of
symmetry information in preference to the above space-group names.
They are only intended as comments.
;
_shelx_estimated_absorpt_t_max   0.876
_shelx_estimated_absorpt_t_min   0.790
_olex2_refinement_description
;
1. Fixed Uiso
 At 1.2 times of:
  All C(H) groups
2.a Aromatic/amide H refined with riding coordinates:
 C5(H5), C6(H6), C8(H8), C9(H9), C13(H13), C14(H14), C15(H15), C16(H16),
 C17(H17), C18(H18), C19(H19), C20(H20), C22(H22), C23(H23), C24(H24), C25(H25),
  C27(H27), C28(H28), C29(H29), C30(H30)
;
_shelx_res_file
;
    c.res created by SHELXL-2014/7

TITL C_a.res in C2/c
REM Old TITL C in C2/c
REM SHELXT solution in C2/c
REM R1 0.238, Rweak 0.024, Alpha 0.095, Orientation as input
REM Formula found by SHELXT: C26 N8 O6 Fe Ag2
CELL 0.71073 21.0563 28.9371 14.1011 90 131.415 90
ZERR 8 0.0012 0.0017 0.0014 0 0.001 0
LATT 7
SYMM -X,+Y,0.5-Z
SFAC C H Ag Fe N O
UNIT 248 160 16 8 64 8

L.S. 10
PLAN  20
SIZE 0.081 0.146 0.147
TEMP 24.92
LIST 6
fmap 2
acta
OMIT -3 1 2
OMIT -4 14 3
OMIT 4 4 3
REM <olex2.extras>
REM <HklSrc "%.\\C.hkl">
REM </olex2.extras>

WGHT    0.034100   37.350098
FVAR       0.03712
AG1   3    0.500000    0.207812    0.750000    10.50000    0.05406    0.07992 =
         0.03161    0.00000    0.01489    0.00000
AG2   3    0.500000    0.215145    0.250000    10.50000    0.07713    0.05619 =
         0.13067    0.00000    0.08818    0.00000
AG3   3    0.000000    0.177990   -0.250000    10.50000    0.06820    0.05627 =
         0.03097    0.00000    0.01492    0.00000
AG4   3    0.000000    0.178857    0.250000    10.50000    0.06500    0.06724 =
         0.11082    0.00000    0.07387    0.00000
FE1   4    0.250480    0.190447    0.249942    11.00000    0.02430    0.02766 =
         0.03003    0.00068    0.01633    0.00156
O1    6    0.194341    0.440245    0.218501    11.00000    0.04642    0.02748 =
         0.05346    0.00158    0.02919    0.00064
N1    5    0.348008    0.201318    0.450725    11.00000    0.04374    0.05550 =
         0.03646   -0.00296    0.02074    0.00183
N2    5    0.343784    0.206217    0.235718    11.00000    0.04826    0.04927 =
         0.07016    0.00375    0.04469   -0.00092
N3    5    0.153550    0.180529    0.049661    11.00000    0.04671    0.04531 =
         0.03151    0.00430    0.01659    0.00425
N4    5    0.157368    0.177560    0.266329    11.00000    0.04794    0.04214 =
         0.07423    0.00042    0.04801    0.00070
N5    5    0.217268    0.264347    0.223402    11.00000    0.03462    0.02749 =
         0.05230    0.00094    0.02441    0.00191
N6    5    0.065740    0.416645    0.129797    11.00000    0.04867    0.03048 =
         0.06942    0.00123    0.03369    0.00182
N7    5    0.067269    0.465043    0.134126    11.00000    0.04691    0.03249 =
         0.07015    0.00013    0.03533   -0.00002
N8    5    0.218361    0.616898    0.227473    11.00000    0.02724    0.03311 =
         0.03539    0.00036    0.01762   -0.00104
C1    1    0.401429    0.204723    0.557647    11.00000    0.04921    0.05904 =
         0.03764   -0.00129    0.02169    0.00283
C2    1    0.398362    0.211279    0.239321    11.00000    0.06741    0.05049 =
         0.10176    0.00316    0.06940    0.00211
C3    1    0.099478    0.178242   -0.057432    11.00000    0.06239    0.04535 =
         0.04347    0.00229    0.02588    0.00116
C4    1    0.103130    0.177040    0.264437    11.00000    0.05708    0.04850 =
         0.08638    0.00345    0.05613    0.00600
C5    1    0.135015    0.277094    0.147667    11.00000    0.04044    0.03156 =
         0.06444   -0.00170    0.02752   -0.00055
AFIX  43
H5    2    0.093865    0.254145    0.104126    11.00000   -1.20000
AFIX   0
C6    1    0.109227    0.321873    0.131780    11.00000    0.03896    0.03510 =
         0.06408    0.00132    0.02582    0.00236
AFIX  43
H6    2    0.051904    0.329099    0.078175    11.00000   -1.20000
AFIX   0
C7    1    0.169975    0.356439    0.196954    11.00000    0.04973    0.02950 =
         0.05229    0.00220    0.03047   -0.00060
C8    1    0.253455    0.344557    0.271317    11.00000    0.04077    0.03075 =
         0.08674   -0.00794    0.02903   -0.00486
AFIX  43
H8    2    0.295710    0.366942    0.313800    11.00000   -1.20000
AFIX   0
C9    1    0.273370    0.297550    0.281524    11.00000    0.05037    0.03282 =
         0.08138    0.00563    0.03833    0.00795
AFIX  43
H9    2    0.330218    0.289465    0.333021    11.00000   -1.20000
AFIX   0
C10   1    0.141292    0.404186    0.181159    11.00000    0.04535    0.03334 =
         0.04963   -0.00117    0.02793   -0.00465
C11   1    0.142704    0.477177    0.185478    11.00000    0.05206    0.03189 =
         0.04617    0.00123    0.03228    0.00198
C12   1    0.172575    0.524613    0.203459    11.00000    0.04282    0.03737 =
         0.03947   -0.00202    0.02617   -0.00093
C13   1    0.113074    0.559449    0.154131    11.00000    0.03771    0.03873 =
         0.05416   -0.00567    0.02587   -0.00696
AFIX  43
H13   2    0.057042    0.552386    0.113008    11.00000   -1.20000
AFIX   0
C14   1    0.138021    0.604871    0.166789    11.00000    0.03659    0.03702 =
         0.05233    0.00229    0.02480    0.00262
AFIX  43
H14   2    0.097452    0.628036    0.131807    11.00000   -1.20000
AFIX   0
C15   1    0.275706    0.582637    0.276319    11.00000    0.03096    0.03252 =
         0.04404    0.00081    0.01996    0.00056
AFIX  43
H15   2    0.331835    0.590536    0.320092    11.00000   -1.20000
AFIX   0
C16   1    0.255439    0.536368    0.264743    11.00000    0.04047    0.03383 =
         0.04670    0.00295    0.02707    0.00625
AFIX  43
H16   2    0.296540    0.513679    0.297385    11.00000   -1.20000
AFIX   0

C17   1    0.304544    0.518068    0.036645    11.00000    0.09423    0.12731 =
         0.08186   -0.01245    0.06050   -0.00358
AFIX  43
H17   2    0.357886    0.509233    0.068057    11.00000   -1.20000
AFIX   0
C18   1    0.285727    0.562874    0.025529    11.00000    0.13775    0.11501 =
         0.08639   -0.01705    0.07749   -0.01763
AFIX  43
H18   2    0.328059    0.584184    0.053553    11.00000   -1.20000
AFIX   0
C19   1    0.208633    0.579392   -0.024143    11.00000    0.18634    0.10129 =
         0.08184   -0.00046    0.09419    0.01339
AFIX  43
H19   2    0.198107    0.610994   -0.032235    11.00000   -1.20000
AFIX   0
C20   1    0.146670    0.547927   -0.062066    11.00000    0.12468    0.13497 =
         0.06415    0.01819    0.06746    0.05877
AFIX  43
H20   2    0.093564    0.558316   -0.095588    11.00000   -1.20000
AFIX   0
C21   1    0.163275    0.499299   -0.050347    11.00000    0.07917    0.12122 =
         0.05222    0.00001    0.04686    0.01778
C22   1    0.102148    0.465244   -0.088306    11.00000    0.08870    0.16355 =
         0.06476   -0.00799    0.05346   -0.00325
AFIX  43
H22   2    0.048609    0.474437   -0.121208    11.00000   -1.20000
AFIX   0
C23   1    0.119724    0.419841   -0.077880    11.00000    0.13498    0.13890 =
         0.07678   -0.02942    0.07609   -0.04717
AFIX  43
H23   2    0.078466    0.398043   -0.104003    11.00000   -1.20000
AFIX   0
C24   1    0.201169    0.405370   -0.027051    11.00000    0.14904    0.10152 =
         0.07471   -0.00682    0.07430    0.01719
AFIX  43
H24   2    0.212713    0.373983   -0.021476    11.00000   -1.20000
AFIX   0
C25   1    0.261895    0.436285    0.013165    11.00000    0.08851    0.10337 =
         0.06814    0.00267    0.05384    0.02016
AFIX  43
H25   2    0.315578    0.426076    0.048963    11.00000   -1.20000
AFIX   0
C26   1    0.245201    0.484374    0.001737    11.00000    0.06924    0.10539 =
         0.04755   -0.00603    0.03915    0.00412

C27   1    0.462059    0.469387    0.358799    11.00000    0.15249    0.18915 =
         0.12275   -0.00258    0.08907    0.01910
AFIX  43
H27   2    0.444323    0.475605    0.279697    11.00000   -1.20000
AFIX   0
C28   1    0.459973    0.425148    0.390893    11.00000    0.12368    0.18511 =
         0.13222   -0.00243    0.06686    0.04356
AFIX  43
H28   2    0.443736    0.401693    0.333596    11.00000   -1.20000
AFIX   0
C29   1    0.520523    0.586219    0.502448    11.00000    0.08164    0.13117 =
         0.15321    0.02497    0.05075    0.02715
AFIX  43
H29   2    0.524468    0.616676    0.485761    11.00000   -1.20000
AFIX   0
C30   1    0.494515    0.552324    0.417520    11.00000    0.09881    0.17644 =
         0.11642    0.03499    0.06197    0.02472
AFIX  43
H30   2    0.478846    0.559797    0.340344    11.00000   -1.20000
AFIX   0
C31   1    0.490583    0.504701    0.444302    11.00000    0.06532    0.14471 =
         0.07822    0.01902    0.04459    0.03034
HKLF 4

REM  C_a.res in C2/c
REM R1 =  0.0531 for    4832 Fo > 4sig(Fo)  and  0.0939 for all    7353 data
REM    390 parameters refined using      0 restraints

END

WGHT      0.0341     37.3571

REM Highest difference peak  0.828,  deepest hole -0.810,  1-sigma level  0.088
Q1    1   0.5000  0.1829  0.2500  10.50000  0.05    0.83
Q2    1   0.0000  0.2206 -0.2500  10.50000  0.05    0.69
Q3    1   0.0000  0.5772 -0.2500  10.50000  0.05    0.61
Q4    1   0.0642  0.4640 -0.0148  11.00000  0.05    0.59
Q5    1   0.0591  0.4170 -0.0070  11.00000  0.05    0.56
Q6    1   0.0000  0.1166 -0.2500  10.50000  0.05    0.47
Q7    1   0.5000  0.4903  0.2500  10.50000  0.05    0.45
Q8    1   0.2004  0.4421  0.1565  11.00000  0.05    0.43
Q9    1   0.1767  0.5224  0.1408  11.00000  0.05    0.42
Q10   1   0.1384  0.4024  0.0992  11.00000  0.05    0.41
Q11   1   0.1683  0.3547  0.1302  11.00000  0.05    0.40
Q12   1   0.5000  0.5292  0.2500  10.50000  0.05    0.40
Q13   1   0.1389  0.6012  0.1012  11.00000  0.05    0.39
Q14   1   0.0262  0.1960  0.3075  11.00000  0.05    0.38
Q15   1   0.4577  0.2315  0.1640  11.00000  0.05    0.37
Q16   1   0.0000  0.4678 -0.2500  10.50000  0.05    0.36
Q17   1   0.3209  0.3813  0.3980  11.00000  0.05    0.36
Q18   1   0.2090  0.2395  0.2335  11.00000  0.05    0.35
Q19   1   0.0000  0.1570  0.2500  10.50000  0.05    0.34
Q20   1   0.4584  0.5938  0.2114  11.00000  0.05    0.34
;
_shelx_res_checksum              5274
_olex2_submission_special_instructions 'No special instructions were received'
loop_
_space_group_symop_operation_xyz
'x, y, z'
'-x, y, -z+1/2'
'x+1/2, y+1/2, z'
'-x+1/2, y+1/2, -z+1/2'
'-x, -y, -z'
'x, -y, z-1/2'
'-x+1/2, -y+1/2, -z'
'x+1/2, -y+1/2, z-1/2'
loop_
_atom_site_label
_atom_site_type_symbol
_atom_site_fract_x
_atom_site_fract_y
_atom_site_fract_z
_atom_site_U_iso_or_equiv
_atom_site_adp_type
_atom_site_occupancy
_atom_site_site_symmetry_order
_atom_site_calc_flag
_atom_site_refinement_flags_posn
_atom_site_refinement_flags_adp
_atom_site_refinement_flags_occupancy
Ag1 Ag 0.5000 0.20781(3) 0.7500 0.0657(2) Uani 1 2 d S T P
Ag2 Ag 0.5000 0.21514(2) 0.2500 0.0727(2) Uani 1 2 d S T P
Ag3 Ag 0.0000 0.17799(2) -0.2500 0.0658(2) Uani 1 2 d S T P
Ag4 Ag 0.0000 0.17886(2) 0.2500 0.0687(2) Uani 1 2 d S T P
Fe1 Fe 0.25048(4) 0.19045(2) 0.24994(6) 0.02862(15) Uani 1 1 d . . .
O1 O 0.1943(2) 0.44025(11) 0.2185(3) 0.0455(8) Uani 1 1 d . . .
N1 N 0.3480(3) 0.20132(16) 0.4507(4) 0.0498(11) Uani 1 1 d . . .
N2 N 0.3438(3) 0.20622(15) 0.2357(5) 0.0516(12) Uani 1 1 d . . .
N3 N 0.1536(3) 0.18053(15) 0.0497(4) 0.0485(11) Uani 1 1 d . . .
N4 N 0.1574(3) 0.17756(15) 0.2663(5) 0.0488(11) Uani 1 1 d . . .
N5 N 0.2173(2) 0.26435(13) 0.2234(4) 0.0415(10) Uani 1 1 d . . .
N6 N 0.0657(3) 0.41665(14) 0.1298(5) 0.0537(12) Uani 1 1 d . . .
N7 N 0.0673(3) 0.46504(14) 0.1341(5) 0.0525(12) Uani 1 1 d . . .
N8 N 0.2184(2) 0.61690(13) 0.2275(4) 0.0343(9) Uani 1 1 d . . .
C1 C 0.4014(4) 0.2047(2) 0.5576(5) 0.0542(14) Uani 1 1 d . . .
C2 C 0.3984(4) 0.2113(2) 0.2393(7) 0.0627(17) Uani 1 1 d . . .
C3 C 0.0995(4) 0.17824(19) -0.0574(6) 0.0576(15) Uani 1 1 d . . .
C4 C 0.1031(4) 0.17704(19) 0.2644(6) 0.0572(15) Uani 1 1 d . . .
C5 C 0.1350(3) 0.27709(17) 0.1477(6) 0.0511(14) Uani 1 1 d . . .
H5 H 0.0939 0.2541 0.1041 0.061 Uiso 1 1 calc R . .
C6 C 0.1092(3) 0.32187(17) 0.1318(6) 0.0525(14) Uani 1 1 d . . .
H6 H 0.0519 0.3291 0.0782 0.063 Uiso 1 1 calc R . .
C7 C 0.1700(3) 0.35644(17) 0.1970(5) 0.0464(12) Uani 1 1 d . . .
C8 C 0.2535(4) 0.34456(18) 0.2713(6) 0.0631(17) Uani 1 1 d . . .
H8 H 0.2957 0.3669 0.3138 0.076 Uiso 1 1 calc R . .
C9 C 0.2734(4) 0.29755(18) 0.2815(6) 0.0590(16) Uani 1 1 d . . .
H9 H 0.3302 0.2895 0.3330 0.071 Uiso 1 1 calc R . .
C10 C 0.1413(3) 0.40419(17) 0.1812(5) 0.0455(12) Uani 1 1 d . . .
C11 C 0.1427(3) 0.47718(17) 0.1855(5) 0.0435(12) Uani 1 1 d . . .
C12 C 0.1726(3) 0.52461(17) 0.2035(5) 0.0407(11) Uani 1 1 d . . .
C13 C 0.1131(3) 0.55945(17) 0.1541(5) 0.0471(12) Uani 1 1 d . . .
H13 H 0.0570 0.5524 0.1130 0.056 Uiso 1 1 calc R . .
C14 C 0.1380(3) 0.60487(17) 0.1668(5) 0.0456(12) Uani 1 1 d . . .
H14 H 0.0975 0.6280 0.1318 0.055 Uiso 1 1 calc R . .
C15 C 0.2757(3) 0.58264(16) 0.2763(5) 0.0396(11) Uani 1 1 d . . .
H15 H 0.3318 0.5905 0.3201 0.048 Uiso 1 1 calc R . .
C16 C 0.2554(3) 0.53637(16) 0.2647(5) 0.0417(11) Uani 1 1 d . . .
H16 H 0.2965 0.5137 0.2974 0.050 Uiso 1 1 calc R . .
C17 C 0.3045(6) 0.5181(4) 0.0366(8) 0.099(3) Uani 1 1 d . . .
H17 H 0.3579 0.5092 0.0681 0.119 Uiso 1 1 calc R . .
C18 C 0.2857(8) 0.5629(4) 0.0255(9) 0.110(3) Uani 1 1 d . . .
H18 H 0.3281 0.5842 0.0536 0.132 Uiso 1 1 calc R . .
C19 C 0.2086(10) 0.5794(4) -0.0241(10) 0.119(4) Uani 1 1 d . . .
H19 H 0.1981 0.6110 -0.0322 0.143 Uiso 1 1 calc R . .
C20 C 0.1467(7) 0.5479(4) -0.0621(8) 0.104(3) Uani 1 1 d . . .
H20 H 0.0936 0.5583 -0.0956 0.125 Uiso 1 1 calc R . .
C21 C 0.1633(5) 0.4993(3) -0.0503(6) 0.082(2) Uani 1 1 d . . .
C22 C 0.1021(6) 0.4652(4) -0.0883(8) 0.104(3) Uani 1 1 d . . .
H22 H 0.0486 0.4744 -0.1212 0.124 Uiso 1 1 calc R . .
C23 C 0.1197(8) 0.4198(4) -0.0779(9) 0.112(3) Uani 1 1 d . . .
H23 H 0.0785 0.3980 -0.1040 0.135 Uiso 1 1 calc R . .
C24 C 0.2012(8) 0.4054(4) -0.0271(9) 0.108(3) Uani 1 1 d . . .
H24 H 0.2127 0.3740 -0.0215 0.130 Uiso 1 1 calc R . .
C25 C 0.2619(6) 0.4363(3) 0.0132(7) 0.085(2) Uani 1 1 d . . .
H25 H 0.3156 0.4261 0.0490 0.102 Uiso 1 1 calc R . .
C26 C 0.2452(5) 0.4844(3) 0.0017(6) 0.074(2) Uani 1 1 d . . .
C27 C 0.4621(9) 0.4694(7) 0.3588(14) 0.156(5) Uani 1 1 d . . .
H27 H 0.4443 0.4756 0.2797 0.188 Uiso 1 1 calc R . .
C28 C 0.4600(9) 0.4251(7) 0.3909(16) 0.161(6) Uani 1 1 d . . .
H28 H 0.4437 0.4017 0.3336 0.193 Uiso 1 1 calc R . .
C29 C 0.5205(7) 0.5862(5) 0.5024(17) 0.143(5) Uani 1 1 d . . .
H29 H 0.5245 0.6167 0.4858 0.172 Uiso 1 1 calc R . .
C30 C 0.4945(7) 0.5523(6) 0.4175(13) 0.138(4) Uani 1 1 d . . .
H30 H 0.4788 0.5598 0.3403 0.165 Uiso 1 1 calc R . .
C31 C 0.4906(5) 0.5047(5) 0.4443(8) 0.098(3) Uani 1 1 d . . .
loop_
_atom_site_aniso_label
_atom_site_aniso_U_11
_atom_site_aniso_U_22
_atom_site_aniso_U_33
_atom_site_aniso_U_23
_atom_site_aniso_U_13
_atom_site_aniso_U_12
Ag1 0.0541(4) 0.0799(5) 0.0316(3) 0.000 0.0149(3) 0.000
Ag2 0.0771(5) 0.0562(4) 0.1307(7) 0.000 0.0882(5) 0.000
Ag3 0.0682(5) 0.0563(4) 0.0310(3) 0.000 0.0149(3) 0.000
Ag4 0.0650(4) 0.0672(4) 0.1108(6) 0.000 0.0739(5) 0.000
Fe1 0.0243(3) 0.0277(3) 0.0300(3) 0.0007(2) 0.0163(3) 0.0016(2)
O1 0.0464(19) 0.0275(17) 0.053(2) 0.0016(15) 0.0292(18) 0.0006(15)
N1 0.044(3) 0.055(3) 0.036(3) -0.003(2) 0.021(2) 0.002(2)
N2 0.048(3) 0.049(3) 0.070(3) 0.004(2) 0.045(3) -0.001(2)
N3 0.047(3) 0.045(3) 0.032(2) 0.0043(19) 0.017(2) 0.004(2)
N4 0.048(3) 0.042(3) 0.074(3) 0.000(2) 0.048(3) 0.0007(19)
N5 0.035(2) 0.027(2) 0.052(3) 0.0009(18) 0.024(2) 0.0019(17)
N6 0.049(3) 0.030(2) 0.069(3) 0.001(2) 0.034(3) 0.0018(19)
N7 0.047(3) 0.032(2) 0.070(3) 0.000(2) 0.035(3) 0.0000(19)
N8 0.0272(19) 0.033(2) 0.035(2) 0.0004(16) 0.0176(18) -0.0010(15)
C1 0.049(3) 0.059(4) 0.038(3) -0.001(3) 0.022(3) 0.003(3)
C2 0.067(4) 0.050(4) 0.102(5) 0.003(3) 0.069(4) 0.002(3)
C3 0.062(4) 0.045(3) 0.043(3) 0.002(3) 0.026(3) 0.001(3)
C4 0.057(4) 0.048(3) 0.086(5) 0.003(3) 0.056(4) 0.006(3)
C5 0.040(3) 0.032(3) 0.064(4) -0.002(2) 0.028(3) -0.001(2)
C6 0.039(3) 0.035(3) 0.064(4) 0.001(2) 0.026(3) 0.002(2)
C7 0.050(3) 0.030(3) 0.052(3) 0.002(2) 0.030(3) -0.001(2)
C8 0.041(3) 0.031(3) 0.087(5) -0.008(3) 0.029(3) -0.005(2)
C9 0.050(3) 0.033(3) 0.081(4) 0.006(3) 0.038(3) 0.008(2)
C10 0.045(3) 0.033(3) 0.050(3) -0.001(2) 0.028(3) -0.005(2)
C11 0.052(3) 0.032(3) 0.046(3) 0.001(2) 0.032(3) 0.002(2)
C12 0.043(3) 0.037(3) 0.039(3) -0.002(2) 0.026(2) -0.001(2)
C13 0.038(3) 0.039(3) 0.054(3) -0.006(2) 0.026(2) -0.007(2)
C14 0.037(3) 0.037(3) 0.052(3) 0.002(2) 0.025(3) 0.003(2)
C15 0.031(2) 0.033(3) 0.044(3) 0.001(2) 0.020(2) 0.0006(19)
C16 0.040(3) 0.034(2) 0.047(3) 0.003(2) 0.027(3) 0.006(2)
C17 0.094(6) 0.127(8) 0.082(6) -0.012(5) 0.061(5) -0.004(6)
C18 0.138(10) 0.115(9) 0.086(6) -0.017(6) 0.077(7) -0.018(7)
C19 0.186(13) 0.101(8) 0.082(7) 0.000(6) 0.094(8) 0.013(8)
C20 0.125(8) 0.135(9) 0.064(5) 0.018(5) 0.067(6) 0.059(7)
C21 0.079(5) 0.121(7) 0.052(4) 0.000(4) 0.047(4) 0.018(5)
C22 0.089(6) 0.164(10) 0.065(5) -0.008(6) 0.053(5) -0.003(7)
C23 0.135(10) 0.139(9) 0.077(6) -0.029(6) 0.076(7) -0.047(8)
C24 0.149(10) 0.102(7) 0.075(6) -0.007(5) 0.074(7) 0.017(7)
C25 0.089(6) 0.103(7) 0.068(5) 0.003(5) 0.054(5) 0.020(5)
C26 0.069(5) 0.105(6) 0.048(4) -0.006(4) 0.039(4) 0.004(4)
C27 0.152(12) 0.189(15) 0.123(11) -0.003(12) 0.089(10) 0.019(12)
C28 0.124(10) 0.185(17) 0.132(13) -0.002(11) 0.067(10) 0.044(11)
C29 0.082(8) 0.131(11) 0.153(13) 0.025(10) 0.051(9) 0.027(7)
C30 0.099(8) 0.176(14) 0.116(10) 0.035(9) 0.062(8) 0.025(8)
C31 0.065(5) 0.145(9) 0.078(6) 0.019(7) 0.045(5) 0.030(5)
loop_
_atom_type_symbol
_atom_type_description
_atom_type_scat_dispersion_real
_atom_type_scat_dispersion_imag
_atom_type_scat_source
C C 0.0033 0.0016 'International Tables Vol C Tables 4.2.6.8 and 6.1.1.4'
H H 0.0000 0.0000 'International Tables Vol C Tables 4.2.6.8 and 6.1.1.4'
Ag Ag -0.8971 1.1015 'International Tables Vol C Tables 4.2.6.8 and 6.1.1.4'
Fe Fe 0.3463 0.8444 'International Tables Vol C Tables 4.2.6.8 and 6.1.1.4'
N N 0.0061 0.0033 'International Tables Vol C Tables 4.2.6.8 and 6.1.1.4'
O O 0.0106 0.0060 'International Tables Vol C Tables 4.2.6.8 and 6.1.1.4'
loop_
_geom_angle_atom_site_label_1
_geom_angle_atom_site_label_2
_geom_angle_atom_site_label_3
_geom_angle
_geom_angle_site_symmetry_1
_geom_angle_site_symmetry_3
C1 Ag1 Ag4 92.49(16) 2_656 7_556
C1 Ag1 Ag4 92.49(16) . 7_556
C1 Ag1 C1 175.0(3) . 2_656
C2 Ag2 Ag3 93.13(17) 2_655 7
C2 Ag2 Ag3 93.13(17) . 7
C2 Ag2 C2 173.7(3) 2_655 .
C3 Ag3 Ag2 89.80(16) 2_554 7
C3 Ag3 Ag2 89.80(16) . 7
C3 Ag3 C3 179.6(3) . 2_554
C4 Ag4 Ag1 91.47(16) . 7_556
C4 Ag4 Ag1 91.47(16) 2 7_556
C4 Ag4 C4 177.1(3) 2 .
N1 Fe1 N5 90.06(16) . .
N1 Fe1 N8 91.00(16) . 4_545
N2 Fe1 N1 87.49(18) . .
N2 Fe1 N4 177.66(17) . .
N2 Fe1 N5 89.15(16) . .
N2 Fe1 N8 90.89(15) . 4_545
N3 Fe1 N1 179.27(18) . .
N3 Fe1 N2 92.17(19) . .
N3 Fe1 N4 88.70(18) . .
N3 Fe1 N5 89.29(16) . .
N3 Fe1 N8 89.66(15) . 4_545
N4 Fe1 N1 91.62(18) . .
N4 Fe1 N5 88.69(16) . .
N4 Fe1 N8 91.29(15) . 4_545
N8 Fe1 N5 178.95(17) 4_545 .
C10 O1 C11 101.8(4) . .
C1 N1 Fe1 176.2(5) . .
C2 N2 Fe1 172.4(5) . .
C3 N3 Fe1 175.0(5) . .
C4 N4 Fe1 169.2(5) . .
C5 N5 Fe1 119.7(3) . .
C9 N5 Fe1 123.6(3) . .
C9 N5 C5 116.7(4) . .
C10 N6 N7 105.7(4) . .
C11 N7 N6 106.4(4) . .
C14 N8 Fe1 118.4(3) . 4
C14 N8 C15 117.4(4) . .
C15 N8 Fe1 124.1(3) . 4
N1 C1 Ag1 177.2(5) . .
N2 C2 Ag2 175.5(5) . .
N3 C3 Ag3 176.6(5) . .
N4 C4 Ag4 176.0(6) . .
N5 C5 C6 123.4(5) . .
C5 C6 C7 118.9(5) . .
C6 C7 C10 118.2(5) . .
C8 C7 C6 118.7(5) . .
C8 C7 C10 123.1(5) . .
C7 C8 C9 117.9(5) . .
N5 C9 C8 124.3(5) . .
O1 C10 C7 121.1(5) . .
N6 C10 O1 113.4(4) . .
N6 C10 C7 125.5(5) . .
O1 C11 C12 121.4(5) . .
N7 C11 O1 112.7(4) . .
N7 C11 C12 125.8(5) . .
C13 C12 C11 117.0(4) . .
C16 C12 C11 124.1(5) . .
C16 C12 C13 118.9(5) . .
C14 C13 C12 119.2(5) . .
N8 C14 C13 122.7(5) . .
N8 C15 C16 123.4(4) . .
C15 C16 C12 118.4(4) . .
C18 C17 C26 120.8(10) . .
C17 C18 C19 124.2(11) . .
C18 C19 C20 118.0(11) . .
C19 C20 C21 120.6(9) . .
C22 C21 C20 123.3(9) . .
C22 C21 C26 118.2(9) . .
C26 C21 C20 118.5(9) . .
C23 C22 C21 121.5(9) . .
C22 C23 C24 119.8(10) . .
C25 C24 C23 120.9(9) . .
C24 C25 C26 120.8(8) . .
C17 C26 C21 117.9(8) . .
C17 C26 C25 123.3(8) . .
C25 C26 C21 118.8(8) . .
C28 C27 C31 119.7(15) . .
C29 C28 C27 124.0(17) 5_666 .
C28 C29 C30 118.0(15) 5_666 .
C29 C30 C31 121.3(13) . .
C27 C31 C30 123.0(11) . .
C31 C31 C27 119.0(16) 5_666 .
C31 C31 C30 117.8(14) 5_666 .
loop_
_geom_bond_atom_site_label_1
_geom_bond_atom_site_label_2
_geom_bond_distance
_geom_bond_site_symmetry_2
Ag1 Ag4 3.2794(11) 7_556
Ag1 C1 2.055(6) 2_656
Ag1 C1 2.055(6) .
Ag2 Ag3 3.0922(10) 7
Ag2 C2 2.047(6) .
Ag2 C2 2.047(6) 2_655
Ag3 Ag2 3.0924(10) 7
Ag3 C3 2.058(6) .
Ag3 C3 2.058(6) 2_554
Ag4 Ag1 3.2795(11) 7_556
Ag4 C4 2.043(6) .
Ag4 C4 2.043(6) 2
Fe1 N1 2.154(5) .
Fe1 N2 2.152(4) .
Fe1 N3 2.144(4) .
Fe1 N4 2.153(4) .
Fe1 N5 2.204(4) .
Fe1 N8 2.188(4) 4_545
O1 C10 1.355(6) .
O1 C11 1.368(6) .
N1 C1 1.142(7) .
N2 C2 1.126(7) .
N3 C3 1.143(7) .
N4 C4 1.125(7) .
N5 C5 1.352(6) .
N5 C9 1.307(7) .
N6 N7 1.401(6) .
N6 C10 1.289(7) .
N7 C11 1.284(7) .
N8 Fe1 2.188(4) 4
N8 C14 1.342(6) .
N8 C15 1.347(6) .
C5 C6 1.365(7) .
C6 C7 1.388(7) .
C7 C8 1.367(7) .
C7 C10 1.465(7) .
C8 C9 1.403(7) .
C11 C12 1.461(7) .
C12 C13 1.384(7) .
C12 C16 1.383(7) .
C13 C14 1.383(7) .
C15 C16 1.382(7) .
C17 C18 1.334(13) .
C17 C26 1.393(12) .
C18 C19 1.360(15) .
C19 C20 1.376(14) .
C20 C21 1.433(12) .
C21 C22 1.415(12) .
C21 C26 1.423(10) .
C22 C23 1.346(14) .
C23 C24 1.416(14) .
C24 C25 1.341(13) .
C25 C26 1.418(10) .
C27 C28 1.368(19) .
C27 C31 1.379(16) .
C28 C29 1.312(18) 5_666
C29 C28 1.312(18) 5_666
C29 C30 1.352(16) .
C30 C31 1.446(15) .
C31 C31 1.369(18) 5_666
