#------------------------------------------------------------------------------
#$Date: 2019-08-22 03:19:59 +0300 (Thu, 22 Aug 2019) $
#$Revision: 217639 $
#$URL: file:///home/coder/svn-repositories/cod/cif/7/12/40/7124050.cif $
#------------------------------------------------------------------------------
#
# This file is available in the Crystallography Open Database (COD),
# http://www.crystallography.net/
#
# All data on this site have been placed in the public domain by the
# contributors.
#
data_7124050
loop_
_publ_author_name
'Zhang, Cui-Juan'
'Lian, Kai-Ting'
'Huang, Guo-Zhang'
'Bala, Sukhen'
'Ni, Zhao-Ping'
'Tong, Ming-Liang'
_publ_section_title
;
 Hysteretic Four-Step Spin-Crossover in a 3D Hofmann-type Metal-Organic
 Framework with Aromatic Guest
;
_journal_name_full               'Chemical Communications'
_journal_paper_doi               10.1039/C9CC06017K
_journal_year                    2019
_chemical_formula_moiety         'C32 H16 Ag4 Fe2 N16 O2, 3(C10 H8)'
_chemical_formula_sum            'C62 H40 Ag4 Fe2 N16 O2'
_chemical_formula_weight         1584.28
_space_group_crystal_system      triclinic
_space_group_IT_number           2
_space_group_name_Hall           '-P 1'
_space_group_name_H-M_alt        'P -1'
_symmetry_space_group_name_Hall  '-P 1'
_symmetry_space_group_name_H-M   'P -1'
_atom_sites_solution_hydrogens   geom
_atom_sites_solution_primary     dual
_audit_creation_date             2018-12-25
_audit_creation_method
;
Olex2 1.2
(compiled 2018.05.29 svn.r3508 for OlexSys, GUI svn.r5506)
;
_audit_update_record
;
2019-04-30 deposited with the CCDC.    2019-08-20 downloaded from the CCDC.
;
_cell_angle_alpha                67.038(4)
_cell_angle_beta                 90.558(4)
_cell_angle_gamma                64.872(4)
_cell_formula_units_Z            2
_cell_length_a                   15.5150(19)
_cell_length_b                   17.552(2)
_cell_length_c                   13.9024(16)
_cell_measurement_reflns_used    9978
_cell_measurement_temperature    211(2)
_cell_measurement_theta_max      26.797
_cell_measurement_theta_min      2.409
_cell_volume                     3085.4(7)
_computing_cell_refinement       'SAINT v8.37A (Bruker, 2015)'
_computing_data_reduction        'SAINT v8.37A (Bruker, 2015)'
_computing_molecular_graphics    'Olex2 (Dolomanov et al., 2009)'
_computing_publication_material  'Olex2 (Dolomanov et al., 2009)'
_computing_structure_refinement  'ShelXL (Sheldrick, 2015)'
_computing_structure_solution    'ShelXT (Sheldrick, 2015)'
_diffrn_ambient_temperature      211.16
_diffrn_measured_fraction_theta_full 0.996
_diffrn_measured_fraction_theta_max 0.986
_diffrn_measurement_device_type  'Bruker APEX-III CCD'
_diffrn_measurement_method       '\w scans'
_diffrn_radiation_monochromator  graphite
_diffrn_radiation_type           MoK\a
_diffrn_radiation_wavelength     0.71073
_diffrn_reflns_av_R_equivalents  0.0993
_diffrn_reflns_av_unetI/netI     0.0994
_diffrn_reflns_Laue_measured_fraction_full 0.996
_diffrn_reflns_Laue_measured_fraction_max 0.986
_diffrn_reflns_limit_h_max       19
_diffrn_reflns_limit_h_min       -20
_diffrn_reflns_limit_k_max       22
_diffrn_reflns_limit_k_min       -22
_diffrn_reflns_limit_l_max       16
_diffrn_reflns_limit_l_min       -18
_diffrn_reflns_number            51532
_diffrn_reflns_point_group_measured_fraction_full 0.996
_diffrn_reflns_point_group_measured_fraction_max 0.986
_diffrn_reflns_theta_full        25.242
_diffrn_reflns_theta_max         27.599
_diffrn_reflns_theta_min         1.423
_exptl_absorpt_coefficient_mu    1.759
_exptl_absorpt_correction_T_max  0.0950
_exptl_absorpt_correction_T_min  0.0589
_exptl_absorpt_correction_type   multi-scan
_exptl_absorpt_process_details
'SADABS-2014/5 (Bruker,2014/5) was used for absorption correction. wR2(int) was 0.1045 before and 0.0793 after correction. The Ratio of minimum to maximum transmission is 0.6200. The \l/2 correction factor is Not present.'
_exptl_crystal_colour            red
_exptl_crystal_colour_primary    red
_exptl_crystal_density_diffrn    1.705
_exptl_crystal_description       block
_exptl_crystal_F_000             1560
_exptl_crystal_size_max          0.147
_exptl_crystal_size_mid          0.146
_exptl_crystal_size_min          0.081
_refine_diff_density_max         2.908
_refine_diff_density_min         -3.449
_refine_diff_density_rms         0.211
_refine_ls_extinction_method     none
_refine_ls_goodness_of_fit_ref   1.096
_refine_ls_hydrogen_treatment    constr
_refine_ls_matrix_type           full
_refine_ls_number_parameters     769
_refine_ls_number_reflns         14107
_refine_ls_number_restraints     14
_refine_ls_restrained_S_all      1.095
_refine_ls_R_factor_all          0.1571
_refine_ls_R_factor_gt           0.1040
_refine_ls_shift/su_max          0.001
_refine_ls_shift/su_mean         0.000
_refine_ls_structure_factor_coef Fsqd
_refine_ls_weighting_details
'w=1/[\s^2^(Fo^2^)+(0.0853P)^2^+65.3088P] where P=(Fo^2^+2Fc^2^)/3'
_refine_ls_weighting_scheme      calc
_refine_ls_wR_factor_gt          0.2601
_refine_ls_wR_factor_ref         0.2843
_reflns_Friedel_coverage         0.000
_reflns_number_gt                8925
_reflns_number_total             14107
_reflns_threshold_expression     'I > 2\s(I)'
_cod_data_source_file            c9cc06017k2.cif
_cod_data_source_block           1-naph-211K
_cod_database_code               7124050
_shelx_shelxl_version_number     2014/7
_shelx_space_group_comment
;
The symmetry employed for this shelxl refinement is uniquely defined
by the following loop, which should always be used as a source of
symmetry information in preference to the above space-group names.
They are only intended as comments.
;
_shelx_estimated_absorpt_t_max   0.871
_shelx_estimated_absorpt_t_min   0.782
_olex2_refinement_description
;
1. Fixed Uiso
 At 1.2 times of:
  All C(H) groups
2. Rigid bond restraints
 C40, C39
 with sigma for 1-2 distances of 0.01 and sigma for 1-3 distances of 0.01
 C9, C8
 with sigma for 1-2 distances of 0.01 and sigma for 1-3 distances of 0.01
3. Uiso/Uaniso restraints and constraints
C40 \\sim C39: within 1.7A with sigma of 0.02 and sigma for terminal atoms of
0.04
C9 \\sim C8: within 1.7A with sigma of 0.02 and sigma for terminal atoms of 0.04
Uanis(N16) = Uanis(C45)
4.a Aromatic/amide H refined with riding coordinates:
 C5(H5), C6(H6), C8(H8), C9(H9), C13(H13), C14(H14), C15(H15), C16(H16),
 C36(H36), C37(H37), C39(H39), C40(H40), C44(H44), C45(H45), C46(H46), C47(H47),
  C17(H17), C18(H18), C19(H19), C20(H20), C22(H22), C23(H23), C24(H24),
 C25(H25), C27(H27), C28(H28), C29(H29), C30(H30), C48(H48), C49(H49), C50(H50),
  C51(H51), C53(H53), C54(H54), C55(H55), C56(H56), C58(H58), C59(H59),
 C60(H60), C61(H61)
;
_shelx_res_file
;
    h.res created by SHELXL-2014/7

TITL H in P-1
CELL 0.71073 15.515 17.5523 13.9024 67.038 90.558 64.872
ZERR 2 0.0019 0.0022 0.0016 0.004 0.004 0.004
LATT 1
SFAC C H Ag Fe N O
UNIT 124 80 8 4 32 4
DELU C40 C39
DELU C9 C8
SIMU 0.02 0.04 1.7 C40 C39
SIMU 0.02 0.04 1.7 C9 C8
EADP N16 C45

L.S. 40 0 0
PLAN  10
SIZE 0.081 0.146 0.147
TEMP -61.99
fmap 2 53
acta
OMIT 3 3 4
REM <olex2.extras>
REM <HklSrc "%.\\H.hkl">
REM </olex2.extras>

WGHT    0.085300   65.308807
FVAR       0.21523
AG1   3    0.295041    0.430009    0.533045    11.00000    0.04441    0.04222 =
         0.04908   -0.01985   -0.01577   -0.01506
AG2   3    0.299396    0.414520    1.038979    11.00000    0.03692    0.05594 =
         0.04021   -0.02250    0.02033   -0.02313
AG3   3    0.815634    0.357422    1.069396    11.00000    0.03883    0.04874 =
         0.04166   -0.02096   -0.00606   -0.02123
AG4   3    0.817875    0.356466    0.574738    11.00000    0.04036    0.04103 =
         0.04114   -0.01623    0.02451   -0.01846
FE1   4    0.559967    0.381605    0.807566    11.00000    0.01522    0.02573 =
         0.01894   -0.01024    0.00518   -0.01319
FE2   4    0.060918    0.381142    1.309331    11.00000    0.01489    0.02488 =
         0.01972   -0.00908    0.00410   -0.01107
O1    6    0.362530    0.877087    0.584505    11.00000    0.02345    0.02593 =
         0.03946   -0.01508    0.01235   -0.01161
O2    6    0.754690   -0.115049    1.033867    11.00000    0.03235    0.02961 =
         0.04313   -0.01673    0.00690   -0.01672
N1    5    0.461026    0.407232    0.693443    11.00000    0.03042    0.03172 =
         0.02285   -0.00986    0.00574   -0.01638
N2    5    0.459974    0.398899    0.894033    11.00000    0.02679    0.03337 =
         0.02825   -0.01572    0.00432   -0.01420
N3    5    0.655571    0.359495    0.921622    11.00000    0.02829    0.02441 =
         0.03063   -0.00861    0.00029   -0.01412
N4    5    0.658991    0.365006    0.719938    11.00000    0.02813    0.03127 =
         0.02538   -0.01329    0.00979   -0.01758
N5    5    0.521459    0.520922    0.743815    11.00000    0.01837    0.02554 =
         0.02947   -0.01380    0.01160   -0.01860
N6    5    0.516274    0.831980    0.648414    11.00000    0.04710    0.02552 =
         0.04488   -0.01059    0.00632   -0.01484
N7    5    0.467317    0.928744    0.604364    11.00000    0.03055    0.02707 =
         0.04190   -0.01045    0.00098   -0.01019
N8    5    0.162859    1.233537    0.392187    11.00000    0.02668    0.02642 =
         0.02762   -0.01051    0.00212   -0.01067
N9    5    0.973637    0.360682    0.424952    11.00000    0.02662    0.03765 =
         0.02910   -0.01342    0.01044   -0.01422
N10   5    0.979766    0.355304    1.211680    11.00000    0.03684    0.03431 =
         0.04147   -0.01333   -0.00604   -0.01828
N11   5    0.148738    0.402649    1.192937    11.00000    0.03179    0.04063 =
         0.03074   -0.01149    0.00725   -0.01948
N12   5    0.139856    0.414637    0.400102    11.00000    0.03331    0.04252 =
         0.03360   -0.02046    0.00082   -0.01674
N13   5    0.953221   -0.472290    1.228371    11.00000    0.01976    0.04455 =
         0.04616   -0.02602    0.00912   -0.01821
N14   5    0.648660   -0.165634    1.017203    11.00000    0.02920    0.03036 =
         0.04312   -0.01583    0.00575   -0.01097
N15   5    0.603319   -0.068479    0.966624    11.00000    0.03056    0.02963 =
         0.04396   -0.00890    0.00693   -0.01593
N16   5    0.597412    0.244144    0.868238    11.00000    0.01158    0.03033 =
         0.03053   -0.01396    0.00752   -0.01285
C1    1    0.402388    0.419577    0.632392    11.00000    0.03784    0.03085 =
         0.04362   -0.01441   -0.00361   -0.01584
C2    1    0.402270    0.408293    0.944816    11.00000    0.03393    0.03150 =
         0.03274   -0.01059    0.00573   -0.01771
C3    1    0.712491    0.355878    0.978900    11.00000    0.02847    0.03435 =
         0.04103   -0.01945    0.00088   -0.01376
C4    1    0.715218    0.358224    0.669692    11.00000    0.03235    0.03306 =
         0.03225   -0.01148    0.00986   -0.01494
C5    1    0.591049    0.547906    0.737443    11.00000    0.01885    0.03435 =
         0.03845   -0.01689    0.00451   -0.01182
AFIX  43
H5    2    0.656463    0.501630    0.759017    11.00000   -1.20000
AFIX   0
C6    1    0.571909    0.638770    0.701380    11.00000    0.02095    0.03247 =
         0.04335   -0.01660    0.01342   -0.01469
AFIX  43
H6    2    0.622574    0.655164    0.696843    11.00000   -1.20000
AFIX   0
C7    1    0.473373    0.707575    0.671014    11.00000    0.03985    0.02775 =
         0.04211   -0.01226    0.01162   -0.01825
C8    1    0.401478    0.679711    0.677631    11.00000    0.01893    0.02856 =
         0.05049   -0.00975    0.01479   -0.00896
AFIX  43
H8    2    0.335501    0.724521    0.657417    11.00000   -1.20000
AFIX   0
C9    1    0.426786    0.585912    0.713999    11.00000    0.02805    0.01532 =
         0.05270   -0.00426    0.00278    0.00421
AFIX  43
H9    2    0.377823    0.567335    0.717971    11.00000   -1.20000
AFIX   0
C10   1    0.453009    0.805029    0.637680    11.00000    0.02544    0.03069 =
         0.04453   -0.01409    0.00612   -0.01004
C11   1    0.379047    0.952889    0.567562    11.00000    0.03880    0.03295 =
         0.03754   -0.01734    0.01188   -0.01588
C12   1    0.302406    1.047116    0.506470    11.00000    0.02307    0.03974 =
         0.03080   -0.02090    0.00592   -0.01516
C13   1    0.327331    1.119269    0.482171    11.00000    0.02462    0.03298 =
         0.05888   -0.02643    0.01566   -0.01436
AFIX  43
H13   2    0.391231    1.105622    0.506553    11.00000   -1.20000
AFIX   0
C14   1    0.257475    1.210856    0.422059    11.00000    0.02931    0.03614 =
         0.03669   -0.01683    0.00670   -0.02091
AFIX  43
H14   2    0.275853    1.258629    0.401329    11.00000   -1.20000
AFIX   0
C15   1    0.141737    1.162719    0.418669    11.00000    0.01881    0.02706 =
         0.03337   -0.01058   -0.00419   -0.01146
AFIX  43
H15   2    0.076669    1.178294    0.396328    11.00000   -1.20000
AFIX   0
C16   1    0.204878    1.070266    0.474734    11.00000    0.02753    0.03615 =
         0.03935   -0.01993    0.00806   -0.01998
AFIX  43
H16   2    0.184333    1.024186    0.491413    11.00000   -1.20000
AFIX   0
C32   1    0.920585    0.356983    0.482373    11.00000    0.04586    0.03674 =
         0.03420   -0.01287    0.01483   -0.01580
C33   1    0.923970    0.352950    1.160065    11.00000    0.04352    0.04220 =
         0.04001   -0.01735   -0.00231   -0.01932
C34   1    0.200119    0.409955    1.135330    11.00000    0.03420    0.04438 =
         0.02658   -0.01426    0.01222   -0.01884
C35   1    0.191705    0.423927    0.446746    11.00000    0.04995    0.03667 =
         0.04370   -0.01750   -0.00806   -0.01421
C36   1    0.858498   -0.446735    1.211253    11.00000    0.02319    0.02955 =
         0.05295   -0.01814    0.01691   -0.01234
AFIX  43
H36   2    0.838983   -0.493638    1.238531    11.00000   -1.20000
AFIX   0
C37   1    0.788099   -0.356468    1.156443    11.00000    0.03074    0.03281 =
         0.04677   -0.01511    0.00551   -0.01392
AFIX  43
H37   2    0.722297   -0.342949    1.146514    11.00000   -1.20000
AFIX   0
C38   1    0.812644   -0.284267    1.115119    11.00000    0.02806    0.03528 =
         0.03519   -0.01663    0.00648   -0.01530
C39   1    0.912627   -0.309001    1.133365    11.00000    0.03429    0.04060 =
         0.05127   -0.01591   -0.00151   -0.00905
AFIX  43
H39   2    0.934613   -0.263982    1.105444    11.00000   -1.20000
AFIX   0
C40   1    0.978336   -0.404869    1.195740    11.00000    0.01089    0.05377 =
         0.06253   -0.03078    0.00093   -0.01312
AFIX  43
H40   2    1.044234   -0.421411    1.215096    11.00000   -1.20000
AFIX   0
C41   1    0.737566   -0.188938    1.054904    11.00000    0.03394    0.03044 =
         0.03836   -0.01672    0.01159   -0.01591
C42   1    0.667745   -0.040999    0.979143    11.00000    0.01975    0.03809 =
         0.02707   -0.01336    0.00392   -0.00763
C43   1    0.647996    0.055041    0.941997    11.00000    0.02248    0.03991 =
         0.01953   -0.01197    0.00520   -0.01601
C44   1    0.551516    0.123853    0.899066    11.00000    0.02223    0.04180 =
         0.03501   -0.01462    0.00994   -0.01948
AFIX  43
H44   2    0.502014    0.107525    0.893006    11.00000   -1.20000
AFIX   0
C45   1    0.529630    0.216062    0.865640    11.00000    0.01158    0.03033 =
         0.03053   -0.01396    0.00752   -0.01285
AFIX  43
H45   2    0.463968    0.261656    0.839700    11.00000   -1.20000
AFIX   0
C46   1    0.693369    0.177219    0.909360    11.00000    0.01125    0.03311 =
         0.03044   -0.01635    0.00707   -0.00762
AFIX  43
H46   2    0.741984    0.195508    0.911029    11.00000   -1.20000
AFIX   0
C47   1    0.719209    0.081664    0.948902    11.00000    0.02005    0.03459 =
         0.02799   -0.01398    0.00472   -0.00876
AFIX  43
H47   2    0.784417    0.036165    0.979823    11.00000   -1.20000
AFIX   0

C17   1    0.431734    0.932015    0.342787    11.00000    0.07390    0.09829 =
         0.05493   -0.05315    0.03374   -0.05361
AFIX  43
H17   2    0.477628    0.951523    0.352477    11.00000   -1.20000
AFIX   0
C18   1    0.459143    0.839953    0.381845    11.00000    0.04928    0.08361 =
         0.05330   -0.03466    0.00816   -0.02367
AFIX  43
H18   2    0.523892    0.796611    0.418049    11.00000   -1.20000
AFIX   0
C19   1    0.395488    0.808147    0.370212    11.00000    0.07093    0.06867 =
         0.06017   -0.03613    0.03583   -0.03697
AFIX  43
H19   2    0.417569    0.743382    0.397609    11.00000   -1.20000
AFIX   0
C20   1    0.296413    0.870381    0.317670    11.00000    0.08115    0.06108 =
         0.04165   -0.02582    0.01353   -0.04592
AFIX  43
H20   2    0.251713    0.848308    0.312770    11.00000   -1.20000
AFIX   0
C21   1    0.267787    0.968571    0.272410    11.00000    0.04843    0.06980 =
         0.03354   -0.03457    0.01919   -0.03773
C22   1    0.175914    1.034530    0.215962    11.00000    0.04543    0.08514 =
         0.05523   -0.04121    0.01587   -0.03499
AFIX  43
H22   2    0.130196    1.015571    0.203911    11.00000   -1.20000
AFIX   0
C23   1    0.149400    1.126333    0.177131    11.00000    0.04823    0.09329 =
         0.06072   -0.04723    0.01884   -0.03178
AFIX  43
H23   2    0.084491    1.168917    0.140912    11.00000   -1.20000
AFIX   0
C24   1    0.208080    1.160470    0.186411    11.00000    0.09290    0.07001 =
         0.04972   -0.03546    0.04158   -0.04023
AFIX  43
H24   2    0.186129    1.225345    0.155991    11.00000   -1.20000
AFIX   0
C25   1    0.304713    1.097302    0.243128    11.00000    0.09117    0.09360 =
         0.05184   -0.05875    0.04334   -0.06867
AFIX  43
H25   2    0.347825    1.120246    0.251045    11.00000   -1.20000
AFIX   0
C26   1    0.338346    0.997710    0.289260    11.00000    0.05421    0.09409 =
         0.04638   -0.05263    0.02553   -0.04620

C27   1   -0.047121    1.101130    0.366407    11.00000    0.09128    0.09818 =
         0.06611   -0.03136    0.02761   -0.05755
AFIX  43
H27   2   -0.037158    1.113983    0.296386    11.00000   -1.20000
AFIX   0
C28   1   -0.109612    1.170512    0.388526    11.00000    0.07114    0.10194 =
         0.10058   -0.03200    0.03242   -0.05156
AFIX  43
H28   2   -0.145987    1.231001    0.333122    11.00000   -1.20000
AFIX   0
C29   1   -0.120018    1.153936    0.487761    11.00000    0.07297    0.09974 =
         0.15589   -0.08552    0.04502   -0.05261
AFIX  43
H29   2   -0.163681    1.203310    0.501772    11.00000   -1.20000
AFIX   0
C30   1    0.068849    0.933352    0.429095    11.00000    0.08640    0.10951 =
         0.07148   -0.05543    0.03475   -0.05235
AFIX  43
H30   2    0.077242    0.942878    0.359189    11.00000   -1.20000
AFIX   0
C31   1    0.003362    1.009244    0.448183    11.00000    0.05710    0.08876 =
         0.04774   -0.02956    0.01397   -0.05175

C48   1    0.635883   -0.074904    1.226024    11.00000    0.05858    0.10819 =
         0.05343   -0.04668    0.02577   -0.04943
AFIX  43
H48   2    0.572371   -0.057935    1.195520    11.00000   -1.20000
AFIX   0
C49   1    0.699344   -0.165826    1.280312    11.00000    0.09598    0.07906 =
         0.05839   -0.04230    0.03079   -0.05858
AFIX  43
H49   2    0.679904   -0.211746    1.289543    11.00000   -1.20000
AFIX   0
C50   1    0.799479   -0.192828    1.325148    11.00000    0.08938    0.07255 =
         0.03619   -0.02717    0.02668   -0.03676
AFIX  43
H50   2    0.844779   -0.256329    1.363225    11.00000   -1.20000
AFIX   0
C51   1    0.825643   -0.127802    1.311853    11.00000    0.04248    0.07268 =
         0.03077   -0.02630    0.01114   -0.02190
AFIX  43
H51   2    0.890470   -0.147121    1.340668    11.00000   -1.20000
AFIX   0
C52   1    0.762695   -0.031136    1.257211    11.00000    0.04052    0.06684 =
         0.02309   -0.02399    0.01910   -0.02483
C53   1    0.786148    0.039606    1.247529    11.00000    0.04672    0.07255 =
         0.05394   -0.02874    0.00899   -0.02998
AFIX  43
H53   2    0.848701    0.022701    1.280812    11.00000   -1.20000
AFIX   0
C54   1    0.723855    0.129843    1.193281    11.00000    0.08288    0.06552 =
         0.06188   -0.02270    0.03350   -0.03943
AFIX  43
H54   2    0.744788    0.174951    1.182961    11.00000   -1.20000
AFIX   0
C55   1    0.622988    0.159315    1.149588    11.00000    0.07976    0.05870 =
         0.04700   -0.01656    0.02292   -0.02205
AFIX  43
H55   2    0.576887    0.222848    1.115266    11.00000   -1.20000
AFIX   0
C56   1    0.599708    0.093967    1.160186    11.00000    0.05322    0.08119 =
         0.02670   -0.02358    0.00298   -0.00375
AFIX  43
H56   2    0.535452    0.112900    1.129810    11.00000   -1.20000
AFIX   0
C57   1    0.662100   -0.001999    1.212895    11.00000    0.03486    0.08968 =
         0.02668   -0.03024    0.01504   -0.02678

C58   1    1.056594   -0.103303    0.972227    11.00000    0.05831    0.10327 =
         0.10081   -0.06536    0.02588   -0.04322
AFIX  43
H58   2    1.077703   -0.116585    0.914836    11.00000   -1.20000
AFIX   0
C59   1    1.068219   -0.175310    1.066161    11.00000    0.02871    0.08654 =
         0.12522   -0.04898    0.01972   -0.03211
AFIX  43
H59   2    1.099429   -0.237365    1.074862    11.00000   -1.20000
AFIX   0
C60   1    1.033337   -0.154911    1.147241    11.00000    0.04390    0.10642 =
         0.07056   -0.02210    0.00597   -0.03827
AFIX  43
H60   2    1.038157   -0.203393    1.211773    11.00000   -1.20000
AFIX   0
C61   1    0.991729   -0.065856    1.136615    11.00000    0.06560    0.11727 =
         0.05851   -0.04170    0.01995   -0.04884
AFIX  43
H61   2    0.966050   -0.053633    1.192986    11.00000   -1.20000
AFIX   0
C62   1    0.986161    0.008551    1.043185    11.00000    0.04359    0.08493 =
         0.05537   -0.03719    0.02053   -0.02886
HKLF 4

REM  H in P-1
REM R1 =  0.1040 for    8925 Fo > 4sig(Fo)  and  0.1571 for all   14107 data
REM    769 parameters refined using     14 restraints

END

WGHT      0.0859     64.5451

REM Highest difference peak  2.908,  deepest hole -3.449,  1-sigma level  0.211
Q1    1   0.2731  0.4947  0.9956  11.00000  0.05    2.91
Q2    1   0.2648  0.5203  0.4836  11.00000  0.05    2.59
Q3    1   0.6175  0.7164  0.3931  11.00000  0.05    2.56
Q4    1   0.2731  0.4997  0.4946  11.00000  0.05    2.46
Q5    1   0.3811  0.2824  1.1003  11.00000  0.05    2.21
Q6    1   0.2396  0.4386  0.5385  11.00000  0.05    2.19
Q7    1   0.9976 -0.5473  1.2724  11.00000  0.05    2.01
Q8    1   0.3247  0.3631  0.5797  11.00000  0.05    1.99
Q9    1   0.5075  0.4481  0.7800  11.00000  0.05    1.87
Q10   1   0.7590  0.4395  0.5334  11.00000  0.05    1.86
;
_shelx_res_checksum              35338
_olex2_submission_special_instructions 'No special instructions were received'
loop_
_space_group_symop_operation_xyz
'x, y, z'
'-x, -y, -z'
loop_
_atom_site_label
_atom_site_type_symbol
_atom_site_fract_x
_atom_site_fract_y
_atom_site_fract_z
_atom_site_U_iso_or_equiv
_atom_site_adp_type
_atom_site_occupancy
_atom_site_site_symmetry_order
_atom_site_calc_flag
_atom_site_refinement_flags_posn
_atom_site_refinement_flags_adp
Ag1 Ag 0.29504(8) 0.43001(7) 0.53304(9) 0.0475(3) Uani 1 1 d . .
Ag2 Ag 0.29940(7) 0.41452(8) 1.03898(8) 0.0431(3) Uani 1 1 d . .
Ag3 Ag 0.81563(8) 0.35742(7) 1.06940(8) 0.0424(3) Uani 1 1 d . .
Ag4 Ag 0.81788(8) 0.35647(7) 0.57474(8) 0.0415(3) Uani 1 1 d . .
Fe1 Fe 0.55997(10) 0.38160(10) 0.80757(11) 0.0183(3) Uani 1 1 d . .
Fe2 Fe 0.06092(10) 0.38114(10) 1.30933(12) 0.0193(3) Uani 1 1 d . .
O1 O 0.3625(5) 0.8771(5) 0.5845(6) 0.0292(17) Uani 1 1 d . .
O2 O 0.7547(6) -0.1150(5) 1.0339(7) 0.0338(19) Uani 1 1 d . .
N1 N 0.4610(7) 0.4072(6) 0.6934(7) 0.028(2) Uani 1 1 d . .
N2 N 0.4600(7) 0.3989(6) 0.8940(8) 0.029(2) Uani 1 1 d . .
N3 N 0.6556(7) 0.3595(6) 0.9216(8) 0.028(2) Uani 1 1 d . .
N4 N 0.6590(7) 0.3650(6) 0.7199(7) 0.026(2) Uani 1 1 d . .
N5 N 0.5215(6) 0.5209(6) 0.7438(7) 0.0205(18) Uani 1 1 d . .
N6 N 0.5163(8) 0.8320(7) 0.6484(9) 0.042(3) Uani 1 1 d . .
N7 N 0.4673(7) 0.9287(7) 0.6044(9) 0.036(2) Uani 1 1 d . .
N8 N 0.1629(7) 1.2335(6) 0.3922(7) 0.028(2) Uani 1 1 d . .
N9 N 0.9736(7) 0.3607(7) 0.4250(8) 0.032(2) Uani 1 1 d . .
N10 N 0.9798(8) 0.3553(7) 1.2117(9) 0.038(2) Uani 1 1 d . .
N11 N 0.1487(7) 0.4026(7) 1.1929(8) 0.035(2) Uani 1 1 d . .
N12 N 0.1399(7) 0.4146(7) 0.4001(8) 0.036(2) Uani 1 1 d . .
N13 N 0.9532(7) -0.4723(7) 1.2284(8) 0.033(2) Uani 1 1 d . .
N14 N 0.6487(7) -0.1656(7) 1.0172(9) 0.035(2) Uani 1 1 d . .
N15 N 0.6033(7) -0.0685(7) 0.9666(9) 0.036(2) Uani 1 1 d . .
N16 N 0.5974(6) 0.2441(6) 0.8682(7) 0.0226(14) Uani 1 1 d . .
C1 C 0.4024(9) 0.4196(8) 0.6324(11) 0.038(3) Uani 1 1 d . .
C2 C 0.4023(9) 0.4083(8) 0.9448(10) 0.033(3) Uani 1 1 d . .
C3 C 0.7125(9) 0.3559(8) 0.9789(10) 0.034(3) Uani 1 1 d . .
C4 C 0.7152(9) 0.3582(8) 0.6697(10) 0.034(3) Uani 1 1 d . .
C5 C 0.5910(8) 0.5479(8) 0.7374(10) 0.030(2) Uani 1 1 d . .
H5 H 0.6565 0.5016 0.7590 0.036 Uiso 1 1 calc R .
C6 C 0.5719(8) 0.6388(8) 0.7014(10) 0.031(3) Uani 1 1 d . .
H6 H 0.6226 0.6552 0.6968 0.038 Uiso 1 1 calc R .
C7 C 0.4734(9) 0.7076(8) 0.6710(10) 0.037(3) Uani 1 1 d . .
C8 C 0.4015(8) 0.6797(8) 0.6776(11) 0.036(3) Uani 1 1 d . U
H8 H 0.3355 0.7245 0.6574 0.043 Uiso 1 1 calc R .
C9 C 0.4268(9) 0.5859(8) 0.7140(11) 0.041(3) Uani 1 1 d . U
H9 H 0.3778 0.5673 0.7180 0.050 Uiso 1 1 calc R .
C10 C 0.4530(9) 0.8050(8) 0.6377(11) 0.036(3) Uani 1 1 d . .
C11 C 0.3790(9) 0.9529(8) 0.5676(10) 0.036(3) Uani 1 1 d . .
C12 C 0.3024(8) 1.0471(8) 0.5065(9) 0.029(2) Uani 1 1 d . .
C13 C 0.3273(9) 1.1193(8) 0.4822(11) 0.036(3) Uani 1 1 d . .
H13 H 0.3912 1.1056 0.5066 0.043 Uiso 1 1 calc R .
C14 C 0.2575(8) 1.2109(8) 0.4221(10) 0.031(3) Uani 1 1 d . .
H14 H 0.2759 1.2586 0.4013 0.038 Uiso 1 1 calc R .
C15 C 0.1417(8) 1.1627(7) 0.4187(9) 0.027(2) Uani 1 1 d . .
H15 H 0.0767 1.1783 0.3963 0.033 Uiso 1 1 calc R .
C16 C 0.2049(8) 1.0703(8) 0.4747(10) 0.031(3) Uani 1 1 d . .
H16 H 0.1843 1.0242 0.4914 0.037 Uiso 1 1 calc R .
C32 C 0.9206(10) 0.3570(9) 0.4824(10) 0.041(3) Uani 1 1 d . .
C33 C 0.9240(10) 0.3529(9) 1.1601(11) 0.042(3) Uani 1 1 d . .
C34 C 0.2001(9) 0.4100(9) 1.1353(9) 0.035(3) Uani 1 1 d . .
C35 C 0.1917(11) 0.4239(9) 0.4467(11) 0.046(3) Uani 1 1 d . .
C36 C 0.8585(8) -0.4467(8) 1.2113(11) 0.035(3) Uani 1 1 d . .
H36 H 0.8390 -0.4936 1.2385 0.042 Uiso 1 1 calc R .
C37 C 0.7881(9) -0.3565(8) 1.1564(11) 0.038(3) Uani 1 1 d . .
H37 H 0.7223 -0.3429 1.1465 0.046 Uiso 1 1 calc R .
C38 C 0.8126(9) -0.2843(8) 1.1151(10) 0.032(3) Uani 1 1 d . .
C39 C 0.9126(10) -0.3090(10) 1.1334(12) 0.047(3) Uani 1 1 d . U
H39 H 0.9346 -0.2640 1.1054 0.056 Uiso 1 1 calc R .
C40 C 0.9783(8) -0.4049(9) 1.1957(11) 0.041(3) Uani 1 1 d . U
H40 H 1.0442 -0.4214 1.2151 0.050 Uiso 1 1 calc R .
C41 C 0.7376(9) -0.1889(8) 1.0549(10) 0.033(3) Uani 1 1 d . .
C42 C 0.6677(8) -0.0410(8) 0.9791(9) 0.031(3) Uani 1 1 d . .
C43 C 0.6480(8) 0.0550(8) 0.9420(8) 0.027(2) Uani 1 1 d . .
C44 C 0.5515(8) 0.1239(8) 0.8991(9) 0.032(3) Uani 1 1 d . .
H44 H 0.5020 0.1075 0.8930 0.038 Uiso 1 1 calc R .
C45 C 0.5296(7) 0.2161(7) 0.8656(9) 0.0226(14) Uani 1 1 d . .
H45 H 0.4640 0.2617 0.8397 0.027 Uiso 1 1 calc R .
C46 C 0.6934(7) 0.1772(8) 0.9094(9) 0.025(2) Uani 1 1 d . .
H46 H 0.7420 0.1955 0.9110 0.030 Uiso 1 1 calc R .
C47 C 0.7192(8) 0.0817(8) 0.9489(9) 0.029(2) Uani 1 1 d . .
H47 H 0.7844 0.0362 0.9798 0.035 Uiso 1 1 calc R .
C17 C 0.4317(14) 0.9320(14) 0.3428(13) 0.063(5) Uani 1 1 d . .
H17 H 0.4776 0.9515 0.3525 0.076 Uiso 1 1 calc R .
C18 C 0.4591(13) 0.8400(13) 0.3818(13) 0.063(4) Uani 1 1 d . .
H18 H 0.5239 0.7966 0.4180 0.076 Uiso 1 1 calc R .
C19 C 0.3955(13) 0.8081(13) 0.3702(14) 0.062(4) Uani 1 1 d . .
H19 H 0.4176 0.7434 0.3976 0.074 Uiso 1 1 calc R .
C20 C 0.2964(13) 0.8704(11) 0.3177(12) 0.055(4) Uani 1 1 d . .
H20 H 0.2517 0.8483 0.3128 0.066 Uiso 1 1 calc R .
C21 C 0.2678(10) 0.9686(10) 0.2724(10) 0.042(3) Uani 1 1 d . .
C22 C 0.1759(11) 1.0345(13) 0.2160(13) 0.056(4) Uani 1 1 d . .
H22 H 0.1302 1.0156 0.2039 0.068 Uiso 1 1 calc R .
C23 C 0.1494(13) 1.1263(14) 0.1771(14) 0.063(5) Uani 1 1 d . .
H23 H 0.0845 1.1689 0.1409 0.076 Uiso 1 1 calc R .
C24 C 0.2081(15) 1.1605(13) 0.1864(14) 0.066(5) Uani 1 1 d . .
H24 H 0.1861 1.2253 0.1560 0.080 Uiso 1 1 calc R .
C25 C 0.3047(14) 1.0973(13) 0.2431(13) 0.059(5) Uani 1 1 d . .
H25 H 0.3478 1.1202 0.2510 0.071 Uiso 1 1 calc R .
C26 C 0.3383(11) 0.9977(12) 0.2893(12) 0.052(4) Uani 1 1 d . .
C27 C -0.0471(16) 1.1011(16) 0.3664(17) 0.081(6) Uani 1 1 d . .
H27 H -0.0372 1.1140 0.2964 0.098 Uiso 1 1 calc R .
C28 C -0.1096(16) 1.1705(18) 0.389(2) 0.091(7) Uani 1 1 d . .
H28 H -0.1460 1.2310 0.3331 0.109 Uiso 1 1 calc R .
C29 C -0.1200(16) 1.1539(18) 0.488(2) 0.094(7) Uani 1 1 d . .
H29 H -0.1637 1.2033 0.5018 0.113 Uiso 1 1 calc R .
C30 C 0.0688(16) 0.9334(17) 0.4291(17) 0.081(6) Uani 1 1 d . .
H30 H 0.0772 0.9429 0.3592 0.097 Uiso 1 1 calc R .
C31 C 0.0034(12) 1.0092(13) 0.4482(12) 0.058(4) Uani 1 1 d . .
C48 C 0.6359(13) -0.0749(15) 1.2260(14) 0.065(5) Uani 1 1 d . .
H48 H 0.5724 -0.0579 1.1955 0.078 Uiso 1 1 calc R .
C49 C 0.6993(15) -0.1658(14) 1.2803(14) 0.066(5) Uani 1 1 d . .
H49 H 0.6799 -0.2117 1.2895 0.080 Uiso 1 1 calc R .
C50 C 0.7995(15) -0.1928(13) 1.3251(12) 0.065(5) Uani 1 1 d . .
H50 H 0.8448 -0.2563 1.3632 0.078 Uiso 1 1 calc R .
C51 C 0.8256(11) -0.1278(11) 1.3119(11) 0.049(4) Uani 1 1 d . .
H51 H 0.8905 -0.1471 1.3407 0.059 Uiso 1 1 calc R .
C52 C 0.7627(10) -0.0311(10) 1.2572(10) 0.042(3) Uani 1 1 d . .
C53 C 0.7861(12) 0.0396(12) 1.2475(13) 0.056(4) Uani 1 1 d . .
H53 H 0.8487 0.0227 1.2808 0.068 Uiso 1 1 calc R .
C54 C 0.7239(15) 0.1298(13) 1.1933(14) 0.070(5) Uani 1 1 d . .
H54 H 0.7448 0.1750 1.1830 0.084 Uiso 1 1 calc R .
C55 C 0.6230(15) 0.1593(13) 1.1496(13) 0.068(5) Uani 1 1 d . .
H55 H 0.5769 0.2228 1.1153 0.082 Uiso 1 1 calc R .
C56 C 0.5997(13) 0.0940(13) 1.1602(11) 0.065(5) Uani 1 1 d . .
H56 H 0.5355 0.1129 1.1298 0.077 Uiso 1 1 calc R .
C57 C 0.6621(10) -0.0020(12) 1.2129(10) 0.049(4) Uani 1 1 d . .
C58 C 1.0566(14) -0.1033(16) 0.9722(19) 0.078(6) Uani 1 1 d . .
H58 H 1.0777 -0.1166 0.9148 0.093 Uiso 1 1 calc R .
C59 C 1.0682(12) -0.1753(15) 1.066(2) 0.077(6) Uani 1 1 d . .
H59 H 1.0994 -0.2374 1.0749 0.092 Uiso 1 1 calc R .
C60 C 1.0333(13) -0.1549(17) 1.1472(17) 0.078(6) Uani 1 1 d . .
H60 H 1.0382 -0.2034 1.2118 0.094 Uiso 1 1 calc R .
C61 C 0.9917(14) -0.0659(17) 1.1366(15) 0.077(6) Uani 1 1 d . .
H61 H 0.9660 -0.0536 1.1930 0.092 Uiso 1 1 calc R .
C62 C 0.9862(12) 0.0086(13) 1.0432(13) 0.059(4) Uani 1 1 d . .
loop_
_atom_site_aniso_label
_atom_site_aniso_U_11
_atom_site_aniso_U_22
_atom_site_aniso_U_33
_atom_site_aniso_U_23
_atom_site_aniso_U_13
_atom_site_aniso_U_12
Ag1 0.0444(6) 0.0422(6) 0.0491(6) -0.0198(5) -0.0158(5) -0.0151(5)
Ag2 0.0369(6) 0.0559(7) 0.0402(6) -0.0225(5) 0.0203(4) -0.0231(5)
Ag3 0.0388(6) 0.0487(6) 0.0417(6) -0.0210(5) -0.0061(4) -0.0212(5)
Ag4 0.0404(6) 0.0410(6) 0.0411(6) -0.0162(5) 0.0245(5) -0.0185(4)
Fe1 0.0152(7) 0.0257(7) 0.0189(7) -0.0102(6) 0.0052(5) -0.0132(6)
Fe2 0.0149(7) 0.0249(7) 0.0197(7) -0.0091(6) 0.0041(5) -0.0111(6)
O1 0.023(4) 0.026(4) 0.039(5) -0.015(3) 0.012(3) -0.012(3)
O2 0.032(5) 0.030(4) 0.043(5) -0.017(4) 0.007(4) -0.017(4)
N1 0.030(5) 0.032(5) 0.023(5) -0.010(4) 0.006(4) -0.016(4)
N2 0.027(5) 0.033(5) 0.028(5) -0.016(4) 0.004(4) -0.014(4)
N3 0.028(5) 0.024(5) 0.031(5) -0.009(4) 0.000(4) -0.014(4)
N4 0.028(5) 0.031(5) 0.025(5) -0.013(4) 0.010(4) -0.018(4)
N5 0.018(4) 0.026(4) 0.029(5) -0.014(4) 0.012(4) -0.019(4)
N6 0.047(7) 0.026(5) 0.045(6) -0.011(5) 0.006(5) -0.015(5)
N7 0.031(6) 0.027(5) 0.042(6) -0.010(4) 0.001(5) -0.010(4)
N8 0.027(5) 0.026(5) 0.028(5) -0.011(4) 0.002(4) -0.011(4)
N9 0.027(5) 0.038(6) 0.029(5) -0.013(4) 0.010(4) -0.014(4)
N10 0.037(6) 0.034(6) 0.041(6) -0.013(5) -0.006(5) -0.018(5)
N11 0.032(5) 0.041(6) 0.031(5) -0.011(5) 0.007(4) -0.019(5)
N12 0.033(6) 0.043(6) 0.034(6) -0.020(5) 0.001(4) -0.017(5)
N13 0.020(5) 0.045(6) 0.046(6) -0.026(5) 0.009(4) -0.018(4)
N14 0.029(5) 0.030(5) 0.043(6) -0.016(5) 0.006(5) -0.011(4)
N15 0.031(5) 0.030(5) 0.044(6) -0.009(5) 0.007(5) -0.016(4)
N16 0.012(3) 0.030(4) 0.031(4) -0.014(3) 0.008(3) -0.013(3)
C1 0.038(7) 0.031(6) 0.044(7) -0.014(6) -0.004(6) -0.016(5)
C2 0.034(7) 0.032(6) 0.033(6) -0.011(5) 0.006(5) -0.018(5)
C3 0.028(6) 0.034(6) 0.041(7) -0.019(5) 0.001(5) -0.014(5)
C4 0.032(6) 0.033(6) 0.032(6) -0.011(5) 0.010(5) -0.015(5)
C5 0.019(5) 0.034(6) 0.038(6) -0.017(5) 0.005(5) -0.012(5)
C6 0.021(6) 0.032(6) 0.043(7) -0.017(5) 0.013(5) -0.015(5)
C7 0.040(7) 0.028(6) 0.042(7) -0.012(5) 0.012(6) -0.018(5)
C8 0.019(5) 0.029(5) 0.050(7) -0.010(5) 0.015(5) -0.009(5)
C9 0.028(6) 0.015(5) 0.053(8) -0.004(5) 0.003(6) 0.004(5)
C10 0.025(6) 0.031(6) 0.045(7) -0.014(6) 0.006(5) -0.010(5)
C11 0.039(7) 0.033(6) 0.038(7) -0.017(5) 0.012(6) -0.016(5)
C12 0.023(6) 0.040(6) 0.031(6) -0.021(5) 0.006(5) -0.015(5)
C13 0.025(6) 0.033(6) 0.059(8) -0.026(6) 0.016(6) -0.014(5)
C14 0.029(6) 0.036(6) 0.037(6) -0.017(5) 0.007(5) -0.021(5)
C15 0.019(5) 0.027(6) 0.033(6) -0.011(5) -0.004(4) -0.011(4)
C16 0.028(6) 0.036(6) 0.039(7) -0.020(5) 0.008(5) -0.020(5)
C32 0.046(8) 0.037(7) 0.034(7) -0.013(6) 0.015(6) -0.016(6)
C33 0.044(8) 0.042(7) 0.040(7) -0.017(6) -0.002(6) -0.019(6)
C34 0.034(7) 0.044(7) 0.027(6) -0.014(5) 0.012(5) -0.019(6)
C35 0.050(8) 0.037(7) 0.044(8) -0.018(6) -0.008(6) -0.014(6)
C36 0.023(6) 0.030(6) 0.053(8) -0.018(6) 0.017(5) -0.012(5)
C37 0.031(7) 0.033(6) 0.047(8) -0.015(6) 0.006(6) -0.014(5)
C38 0.028(6) 0.035(6) 0.035(6) -0.017(5) 0.006(5) -0.015(5)
C39 0.034(7) 0.041(6) 0.051(8) -0.016(6) -0.002(6) -0.009(5)
C40 0.011(5) 0.054(7) 0.063(8) -0.031(6) 0.001(5) -0.013(5)
C41 0.034(7) 0.030(6) 0.038(7) -0.017(5) 0.012(5) -0.016(5)
C42 0.020(5) 0.038(6) 0.027(6) -0.013(5) 0.004(4) -0.008(5)
C43 0.022(5) 0.040(6) 0.020(5) -0.012(5) 0.005(4) -0.016(5)
C44 0.022(6) 0.042(7) 0.035(6) -0.015(5) 0.010(5) -0.019(5)
C45 0.012(3) 0.030(4) 0.031(4) -0.014(3) 0.008(3) -0.013(3)
C46 0.011(5) 0.033(6) 0.030(6) -0.016(5) 0.007(4) -0.008(4)
C47 0.020(5) 0.035(6) 0.028(6) -0.014(5) 0.005(4) -0.009(5)
C17 0.074(12) 0.098(14) 0.055(10) -0.053(10) 0.034(9) -0.054(11)
C18 0.049(9) 0.084(13) 0.053(10) -0.035(9) 0.008(8) -0.024(9)
C19 0.071(12) 0.069(11) 0.060(10) -0.036(9) 0.036(9) -0.037(9)
C20 0.081(12) 0.061(10) 0.042(8) -0.026(7) 0.014(8) -0.046(9)
C21 0.048(8) 0.070(9) 0.034(7) -0.035(7) 0.019(6) -0.038(7)
C22 0.045(9) 0.085(12) 0.055(9) -0.041(9) 0.016(7) -0.035(9)
C23 0.048(9) 0.093(14) 0.061(10) -0.047(10) 0.019(8) -0.032(9)
C24 0.093(14) 0.070(11) 0.050(10) -0.035(9) 0.042(10) -0.040(11)
C25 0.091(13) 0.094(13) 0.052(9) -0.059(9) 0.043(9) -0.069(11)
C26 0.054(9) 0.094(12) 0.046(8) -0.053(9) 0.026(7) -0.046(9)
C27 0.091(15) 0.098(16) 0.066(12) -0.031(12) 0.028(11) -0.058(13)
C28 0.071(14) 0.102(17) 0.101(18) -0.032(14) 0.032(13) -0.052(13)
C29 0.073(14) 0.100(17) 0.16(2) -0.086(19) 0.045(16) -0.053(13)
C30 0.086(15) 0.110(17) 0.071(13) -0.055(13) 0.035(11) -0.052(13)
C31 0.057(10) 0.089(12) 0.048(8) -0.030(9) 0.014(8) -0.052(9)
C48 0.059(10) 0.108(15) 0.053(10) -0.047(10) 0.026(8) -0.049(11)
C49 0.096(14) 0.079(13) 0.058(10) -0.042(10) 0.031(10) -0.059(12)
C50 0.089(14) 0.073(11) 0.036(8) -0.027(8) 0.027(9) -0.037(10)
C51 0.042(8) 0.073(10) 0.031(7) -0.026(7) 0.011(6) -0.022(8)
C52 0.041(7) 0.067(9) 0.023(6) -0.024(6) 0.019(5) -0.025(7)
C53 0.047(9) 0.073(11) 0.054(9) -0.029(8) 0.009(7) -0.030(8)
C54 0.083(14) 0.066(11) 0.062(11) -0.023(9) 0.034(10) -0.039(10)
C55 0.080(13) 0.059(11) 0.047(9) -0.017(8) 0.023(9) -0.022(10)
C56 0.053(10) 0.081(12) 0.027(7) -0.024(8) 0.003(7) -0.004(9)
C57 0.035(7) 0.090(11) 0.027(6) -0.030(7) 0.015(6) -0.027(8)
C58 0.058(11) 0.103(16) 0.101(16) -0.065(14) 0.026(11) -0.043(11)
C59 0.029(8) 0.087(14) 0.125(19) -0.049(14) 0.020(10) -0.032(9)
C60 0.044(10) 0.106(17) 0.071(13) -0.022(12) 0.006(9) -0.038(11)
C61 0.066(12) 0.117(17) 0.059(11) -0.042(12) 0.020(9) -0.049(12)
C62 0.044(9) 0.085(12) 0.055(10) -0.037(9) 0.021(7) -0.029(8)
loop_
_atom_type_symbol
_atom_type_description
_atom_type_scat_dispersion_real
_atom_type_scat_dispersion_imag
_atom_type_scat_source
C C 0.0033 0.0016 'International Tables Vol C Tables 4.2.6.8 and 6.1.1.4'
H H 0.0000 0.0000 'International Tables Vol C Tables 4.2.6.8 and 6.1.1.4'
Ag Ag -0.8971 1.1015 'International Tables Vol C Tables 4.2.6.8 and 6.1.1.4'
Fe Fe 0.3463 0.8444 'International Tables Vol C Tables 4.2.6.8 and 6.1.1.4'
N N 0.0061 0.0033 'International Tables Vol C Tables 4.2.6.8 and 6.1.1.4'
O O 0.0106 0.0060 'International Tables Vol C Tables 4.2.6.8 and 6.1.1.4'
loop_
_geom_angle_atom_site_label_1
_geom_angle_atom_site_label_2
_geom_angle_atom_site_label_3
_geom_angle
_geom_angle_site_symmetry_1
_geom_angle_site_symmetry_3
C1 Ag1 Ag4 96.5(3) . 2_666
C1 Ag1 C35 172.9(5) . .
C35 Ag1 Ag4 90.0(4) . 2_666
C2 Ag2 Ag3 94.2(3) . 2_667
C34 Ag2 Ag3 90.1(4) . 2_667
C34 Ag2 C2 175.5(5) . .
C3 Ag3 Ag2 90.4(3) . 2_667
C3 Ag3 C33 177.2(5) . .
C33 Ag3 Ag2 92.0(4) . 2_667
C4 Ag4 Ag1 87.5(3) . 2_666
C32 Ag4 Ag1 91.7(4) . 2_666
C32 Ag4 C4 178.3(5) . .
N1 Fe1 N5 89.7(4) . .
N1 Fe1 N16 89.5(4) . .
N2 Fe1 N1 88.0(4) . .
N2 Fe1 N5 90.7(4) . .
N2 Fe1 N16 89.7(4) . .
N3 Fe1 N1 178.2(4) . .
N3 Fe1 N2 90.8(4) . .
N3 Fe1 N4 89.7(4) . .
N3 Fe1 N5 89.0(4) . .
N3 Fe1 N16 91.8(4) . .
N4 Fe1 N1 91.5(4) . .
N4 Fe1 N2 179.5(4) . .
N4 Fe1 N5 89.1(4) . .
N4 Fe1 N16 90.5(4) . .
N16 Fe1 N5 179.1(4) . .
N8 Fe2 N13 177.4(4) 1_546 1_465
N9 Fe2 N8 88.8(4) 1_456 1_546
N9 Fe2 N10 89.4(4) 1_456 1_455
N9 Fe2 N11 179.6(4) 1_456 .
N9 Fe2 N12 92.2(4) 1_456 1_556
N9 Fe2 N13 88.9(4) 1_456 1_465
N10 Fe2 N8 91.2(4) 1_455 1_546
N10 Fe2 N11 90.9(4) 1_455 .
N10 Fe2 N12 176.8(4) 1_455 1_556
N10 Fe2 N13 87.4(4) 1_455 1_465
N11 Fe2 N8 91.4(4) . 1_546
N11 Fe2 N13 90.8(4) . 1_465
N12 Fe2 N8 91.6(4) 1_556 1_546
N12 Fe2 N11 87.5(4) 1_556 .
N12 Fe2 N13 89.9(4) 1_556 1_465
C10 O1 C11 100.3(9) . .
C42 O2 C41 103.3(9) . .
C1 N1 Fe1 176.3(10) . .
C2 N2 Fe1 179.5(12) . .
C3 N3 Fe1 171.4(10) . .
C4 N4 Fe1 177.7(10) . .
C5 N5 Fe1 119.5(7) . .
C5 N5 C9 119.5(10) . .
C9 N5 Fe1 120.8(8) . .
C10 N6 N7 106.8(10) . .
C11 N7 N6 106.2(10) . .
C14 N8 Fe2 116.8(7) . 1_564
C15 N8 Fe2 126.5(8) . 1_564
C15 N8 C14 116.7(9) . .
C32 N9 Fe2 174.4(10) . 1_654
C33 N10 Fe2 169.2(11) . 1_655
C34 N11 Fe2 176.1(10) . .
C35 N12 Fe2 171.3(11) . 1_554
C36 N13 Fe2 121.2(8) . 1_645
C40 N13 Fe2 121.9(8) . 1_645
C40 N13 C36 116.9(10) . .
C41 N14 N15 104.2(10) . .
C42 N15 N14 108.1(10) . .
C45 N16 Fe1 120.7(7) . .
C45 N16 C46 118.5(9) . .
C46 N16 Fe1 120.8(7) . .
N1 C1 Ag1 174.0(11) . .
N2 C2 Ag2 175.3(10) . .
N3 C3 Ag3 175.0(11) . .
N4 C4 Ag4 175.3(11) . .
N5 C5 C6 123.5(10) . .
C5 C6 C7 117.8(11) . .
C6 C7 C10 117.7(11) . .
C8 C7 C6 118.7(11) . .
C8 C7 C10 123.6(11) . .
C9 C8 C7 120.1(11) . .
N5 C9 C8 120.4(12) . .
O1 C10 C7 120.9(11) . .
N6 C10 O1 113.5(10) . .
N6 C10 C7 125.5(11) . .
O1 C11 C12 120.2(11) . .
N7 C11 O1 113.1(10) . .
N7 C11 C12 126.5(11) . .
C13 C12 C11 117.0(11) . .
C13 C12 C16 118.7(11) . .
C16 C12 C11 124.2(11) . .
C14 C13 C12 119.6(11) . .
N8 C14 C13 121.6(11) . .
N8 C15 C16 126.5(10) . .
C15 C16 C12 116.6(11) . .
N9 C32 Ag4 175.8(11) . .
N10 C33 Ag3 175.4(12) . .
N11 C34 Ag2 176.2(12) . .
N12 C35 Ag1 175.1(12) . .
N13 C36 C37 123.8(12) . .
C36 C37 C38 120.6(12) . .
C37 C38 C39 117.0(11) . .
C37 C38 C41 120.2(11) . .
C39 C38 C41 122.8(11) . .
C38 C39 C40 116.9(13) . .
N13 C40 C39 124.4(12) . .
O2 C41 C38 122.0(11) . .
N14 C41 O2 113.8(10) . .
N14 C41 C38 124.2(11) . .
O2 C42 C43 124.2(10) . .
N15 C42 O2 110.6(10) . .
N15 C42 C43 125.1(10) . .
C44 C43 C42 117.5(10) . .
C47 C43 C42 123.5(10) . .
C47 C43 C44 118.9(11) . .
C45 C44 C43 119.1(10) . .
N16 C45 C44 123.3(10) . .
N16 C46 C47 120.5(10) . .
C43 C47 C46 119.6(10) . .
C18 C17 C26 121.3(17) . .
C17 C18 C19 121.6(17) . .
C18 C19 C20 121.6(17) . .
C19 C20 C21 116.9(15) . .
C20 C21 C26 118.6(14) . .
C22 C21 C20 122.0(14) . .
C22 C21 C26 119.3(15) . .
C23 C22 C21 121.2(15) . .
C24 C23 C22 124.4(18) . .
C23 C24 C25 118.2(18) . .
C24 C25 C26 120.8(15) . .
C17 C26 C21 119.8(16) . .
C17 C26 C25 124.2(15) . .
C21 C26 C25 116.0(15) . .
C28 C27 C31 120(2) . .
C29 C28 C27 120(2) . .
C28 C29 C30 122(2) . 2_576
C29 C30 C31 120.2(19) 2_576 .
C27 C31 C30 122.4(17) . .
C31 C31 C27 121(2) 2_576 .
C31 C31 C30 117(2) 2_576 .
C49 C48 C57 122.1(16) . .
C48 C49 C50 119.2(16) . .
C51 C50 C49 119.7(17) . .
C50 C51 C52 124.2(16) . .
C51 C52 C57 117.4(14) . .
C53 C52 C51 125.7(14) . .
C53 C52 C57 116.8(14) . .
C54 C53 C52 122.8(16) . .
C53 C54 C55 120.3(18) . .
C56 C55 C54 117.2(17) . .
C55 C56 C57 125.5(18) . .
C48 C57 C52 117.3(15) . .
C56 C57 C48 125.6(16) . .
C56 C57 C52 117.1(16) . .
C59 C58 C62 123(2) . 2_757
C58 C59 C60 118(2) . .
C61 C60 C59 121(2) . .
C60 C61 C62 121.5(19) . .
C61 C62 C58 123.9(17) . 2_757
C62 C62 C58 117(2) 2_757 2_757
C62 C62 C61 118(2) 2_757 .
loop_
_geom_bond_atom_site_label_1
_geom_bond_atom_site_label_2
_geom_bond_distance
_geom_bond_site_symmetry_2
Ag1 Ag4 3.0581(15) 2_666
Ag1 C1 2.053(12) .
Ag1 C35 2.056(14) .
Ag2 Ag3 3.2639(15) 2_667
Ag2 C2 2.068(13) .
Ag2 C34 2.058(12) .
Ag3 Ag2 3.2639(15) 2_667
Ag3 C3 2.042(12) .
Ag3 C33 2.047(13) .
Ag4 Ag1 3.0581(15) 2_666
Ag4 C4 2.076(12) .
Ag4 C32 2.057(13) .
Fe1 N1 1.971(10) .
Fe1 N2 1.966(10) .
Fe1 N3 1.962(9) .
Fe1 N4 1.965(9) .
Fe1 N5 2.045(8) .
Fe1 N16 2.021(9) .
Fe2 N8 2.167(9) 1_546
Fe2 N9 2.133(10) 1_456
Fe2 N10 2.137(10) 1_455
Fe2 N11 2.150(10) .
Fe2 N12 2.144(10) 1_556
Fe2 N13 2.175(10) 1_465
O1 C10 1.364(14) .
O1 C11 1.392(14) .
O2 C41 1.355(14) .
O2 C42 1.344(13) .
N1 C1 1.127(15) .
N2 C2 1.142(15) .
N3 C3 1.148(14) .
N4 C4 1.119(15) .
N5 C5 1.342(14) .
N5 C9 1.352(14) .
N6 N7 1.386(14) .
N6 C10 1.287(16) .
N7 C11 1.281(16) .
N8 Fe2 2.167(9) 1_564
N8 C14 1.360(15) .
N8 C15 1.334(14) .
N9 Fe2 2.133(10) 1_654
N9 C32 1.156(16) .
N10 Fe2 2.137(10) 1_655
N10 C33 1.143(16) .
N11 C34 1.146(15) .
N12 Fe2 2.144(10) 1_554
N12 C35 1.130(16) .
N13 Fe2 2.175(10) 1_645
N13 C36 1.330(15) .
N13 C40 1.317(16) .
N14 N15 1.390(14) .
N14 C41 1.298(16) .
N15 C42 1.317(16) .
N16 C45 1.343(13) .
N16 C46 1.377(13) .
C5 C6 1.362(16) .
C6 C7 1.413(17) .
C7 C8 1.386(17) .
C7 C10 1.470(17) .
C8 C9 1.385(17) .
C11 C12 1.444(17) .
C12 C13 1.397(16) .
C12 C16 1.405(16) .
C13 C14 1.383(17) .
C15 C16 1.360(16) .
C36 C37 1.362(17) .
C37 C38 1.388(17) .
C38 C39 1.412(18) .
C38 C41 1.446(17) .
C39 C40 1.418(18) .
C42 C43 1.443(17) .
C43 C44 1.393(16) .
C43 C47 1.386(16) .
C44 C45 1.376(16) .
C46 C47 1.408(16) .
C17 C18 1.35(2) .
C17 C26 1.37(2) .
C18 C19 1.36(2) .
C19 C20 1.42(2) .
C20 C21 1.44(2) .
C21 C22 1.36(2) .
C21 C26 1.442(19) .
C22 C23 1.35(2) .
C23 C24 1.31(3) .
C24 C25 1.41(3) .
C25 C26 1.44(2) .
C27 C28 1.35(3) .
C27 C31 1.41(3) .
C28 C29 1.32(3) .
C29 C30 1.37(3) 2_576
C30 C29 1.37(3) 2_576
C30 C31 1.42(3) .
C31 C31 1.36(3) 2_576
C48 C49 1.34(3) .
C48 C57 1.45(2) .
C49 C50 1.47(3) .
C50 C51 1.32(2) .
C51 C52 1.41(2) .
C52 C53 1.40(2) .
C52 C57 1.461(19) .
C53 C54 1.33(2) .
C54 C55 1.46(3) .
C55 C56 1.30(3) .
C56 C57 1.40(2) .
C58 C59 1.36(3) .
C58 C62 1.43(3) 2_757
C59 C60 1.36(3) .
C60 C61 1.36(3) .
C61 C62 1.41(3) .
C62 C58 1.43(3) 2_757
C62 C62 1.38(3) 2_757
