#------------------------------------------------------------------------------
#$Date: 2019-08-22 03:20:28 +0300 (Thu, 22 Aug 2019) $
#$Revision: 217640 $
#$URL: file:///home/coder/svn-repositories/cod/cif/7/12/40/7124053.cif $
#------------------------------------------------------------------------------
#
# This file is available in the Crystallography Open Database (COD),
# http://www.crystallography.net/
#
# All data on this site have been placed in the public domain by the
# contributors.
#
data_7124053
loop_
_publ_author_name
'Cui, Yuanjing'
'Yue, Dan'
'Huang, YiKe'
'Zhang, Jun'
'Wang, Zhiyu'
'Yang, Deren'
'Qian, Guodong'
_publ_section_title
;
 Photo-Induced Electron Transfer in Metal-Organic Framework: A new
 Approach Towards highly sensitive luminescent probe of Fe3+
;
_journal_name_full               'Chemical Communications'
_journal_paper_doi               10.1039/C9CC05019A
_journal_year                    2019
_chemical_formula_moiety         'C7 H4 N O3 Zn'
_chemical_formula_sum            'C7 H4 N O3 Zn'
_chemical_formula_weight         215.48
_space_group_crystal_system      tetragonal
_space_group_IT_number           91
_space_group_name_Hall           'P 4w 2c'
_space_group_name_H-M_alt        'P 41 2 2'
_symmetry_space_group_name_Hall  'P 4w 2c'
_symmetry_space_group_name_H-M   'P 41 2 2'
_atom_sites_solution_hydrogens   geom
_audit_block_doi                 10.5517/ccdc.csd.cc1nvl69
_audit_creation_date             2018-04-09
_audit_creation_method
;
Olex2 1.2-alpha
(compiled 2018.04.03 svn.r3497 for OlexSys, GUI svn.r5486)
;
_audit_update_record
;
2018-04-12 deposited with the CCDC.    2019-08-21 downloaded from the CCDC.
;
_cell_angle_alpha                90
_cell_angle_beta                 90
_cell_angle_gamma                90
_cell_formula_units_Z            8
_cell_length_a                   12.88630(10)
_cell_length_b                   12.88630(10)
_cell_length_c                   13.2102(3)
_cell_measurement_reflns_used    3996
_cell_measurement_temperature    100.00(10)
_cell_measurement_theta_max      73.5780
_cell_measurement_theta_min      5.8630
_cell_volume                     2193.64(6)
_computing_cell_refinement       'CrysAlisPro 1.171.39.9d (Rigaku OD, 2015)'
_computing_data_collection       'CrysAlisPro 1.171.39.9d (Rigaku OD, 2015)'
_computing_data_reduction        'CrysAlisPro 1.171.39.9d (Rigaku OD, 2015)'
_computing_molecular_graphics    'Olex2 (Dolomanov et al., 2009)'
_computing_publication_material  'Olex2 (Dolomanov et al., 2009)'
_computing_structure_refinement  'ShelXL (Sheldrick, 2015)'
_diffrn_ambient_environment      N~2~
_diffrn_ambient_temperature      100.00(10)
_diffrn_detector                 'CCD plate'
_diffrn_measured_fraction_theta_full 1.000
_diffrn_measured_fraction_theta_max 1.000
_diffrn_measurement_details
;
List of Runs (angles in degrees, time in seconds):

  # Type    Start    End  Width  t~exp~   \w     \q     \k     \f   Frames
#--------------------------------------------------------------------------
  1  \w      1.00  27.00   0.50    1.00    --    0.00  82.00 -90.00   52
  2  \w    -33.00  32.00   0.50    1.00    --    0.00  82.00  60.00  130
  3  \w     66.00 172.00   0.50    2.00    --   95.20  15.00  30.00  212
  4  \w    144.00 185.00   0.50    2.00    --   95.20  82.00 -90.00   82
  5  \w    143.00 185.00   0.50    2.00    --   95.20  82.00 -60.00   84
  6  \w    154.00 179.00   0.50    2.00    --   95.20  82.00 150.00   50
  7  \w     76.00 110.00   0.50    2.00    --   95.20 -77.00  60.00   68
  8  \w     43.00  73.00   0.50    2.00    --   95.20 -77.00  60.00   60
  9  \w    121.00 146.00   0.50   20.00    --   95.80  82.00  60.00   50
;
_diffrn_measurement_device       'four-circle diffractometer'
_diffrn_measurement_device_type  'XtaLAB Pro: Kappa single'
_diffrn_measurement_method       '\w scans'
_diffrn_orient_matrix_type
'CrysAlisPro convention (1999,Acta A55,543-557)'
_diffrn_orient_matrix_UB_11      -0.1152398000
_diffrn_orient_matrix_UB_12      -0.0010428000
_diffrn_orient_matrix_UB_13      0.0308684000
_diffrn_orient_matrix_UB_21      -0.0031383000
_diffrn_orient_matrix_UB_22      0.1192115000
_diffrn_orient_matrix_UB_23      -0.0074050000
_diffrn_orient_matrix_UB_31      -0.0316693000
_diffrn_orient_matrix_UB_32      -0.0081856000
_diffrn_orient_matrix_UB_33      -0.1122665000
_diffrn_radiation_monochromator  graphite
_diffrn_radiation_probe          x-ray
_diffrn_radiation_type           CuK\a
_diffrn_radiation_wavelength     1.54178
_diffrn_reflns_av_R_equivalents  0.0238
_diffrn_reflns_av_unetI/netI     0.0306
_diffrn_reflns_Laue_measured_fraction_full 1.000
_diffrn_reflns_Laue_measured_fraction_max 1.000
_diffrn_reflns_limit_h_max       15
_diffrn_reflns_limit_h_min       -15
_diffrn_reflns_limit_k_max       15
_diffrn_reflns_limit_k_min       -13
_diffrn_reflns_limit_l_max       15
_diffrn_reflns_limit_l_min       -8
_diffrn_reflns_number            6476
_diffrn_reflns_point_group_measured_fraction_full 1.000
_diffrn_reflns_point_group_measured_fraction_max 1.000
_diffrn_reflns_theta_full        67.679
_diffrn_reflns_theta_max         68.240
_diffrn_reflns_theta_min         3.430
_diffrn_source                   'fine-focus sealed X-ray tube'
_diffrn_source_type              'Enhance (Cu) X-ray Source'
_exptl_absorpt_coefficient_mu    2.920
_exptl_absorpt_correction_T_max  1.00000
_exptl_absorpt_correction_T_min  0.86388
_exptl_absorpt_correction_type   multi-scan
_exptl_absorpt_process_details
;
CrysAlisPro 1.171.39.9d (Rigaku Oxford Diffraction, 2015)
Empirical absorption correction using spherical harmonics,
 implemented in SCALE3 ABSPACK scaling algorithm.
;
_exptl_crystal_density_diffrn    1.305
_exptl_crystal_description       block
_exptl_crystal_F_000             856
_exptl_crystal_size_max          0.27
_exptl_crystal_size_mid          0.24
_exptl_crystal_size_min          0.22
_refine_diff_density_max         0.898
_refine_diff_density_min         -0.334
_refine_diff_density_rms         0.078
_refine_ls_abs_structure_details
;
 Refined as an inversion twin.
;
_refine_ls_abs_structure_Flack   0.48(8)
_refine_ls_extinction_method     none
_refine_ls_goodness_of_fit_ref   1.090
_refine_ls_hydrogen_treatment    constr
_refine_ls_matrix_type           full
_refine_ls_number_parameters     121
_refine_ls_number_reflns         2022
_refine_ls_number_restraints     48
_refine_ls_restrained_S_all      1.094
_refine_ls_R_factor_all          0.0372
_refine_ls_R_factor_gt           0.0355
_refine_ls_shift/su_max          0.000
_refine_ls_shift/su_mean         0.000
_refine_ls_structure_factor_coef Fsqd
_refine_ls_weighting_details
'w=1/[\s^2^(Fo^2^)+(0.0527P)^2^+1.6343P] where P=(Fo^2^+2Fc^2^)/3'
_refine_ls_weighting_scheme      calc
_refine_ls_wR_factor_gt          0.0955
_refine_ls_wR_factor_ref         0.0968
_reflns_Friedel_coverage         0.661
_reflns_Friedel_fraction_full    1.000
_reflns_Friedel_fraction_max     1.000
_reflns_number_gt                1934
_reflns_number_total             2022
_reflns_threshold_expression     'I > 2\s(I)'
_cod_data_source_file            c9cc05019a2.cif
_cod_data_source_block           zhangl_pl_sq
_cod_database_code               7124053
_shelx_shelxl_version_number     2014/7
_shelx_space_group_comment
;
The symmetry employed for this shelxl refinement is uniquely defined
by the following loop, which should always be used as a source of
symmetry information in preference to the above space-group names.
They are only intended as comments.
;
_shelx_estimated_absorpt_t_max   0.566
_shelx_estimated_absorpt_t_min   0.506
_reflns_odcompleteness_completeness 100.00
_reflns_odcompleteness_iscentric 1
_reflns_odcompleteness_theta     66.97
_olex2_refinement_description
;
1. Twinned data refinement
 Scales: 0.52(8)
 0.48(8)
2. Fixed Uiso
 At 1.2 times of:
  All C(H) groups, All N(H,H,H,H) groups
3. Uiso/Uaniso restraints and constraints
Uanis(Zn2A) \\sim Ueq: with sigma of 0.001 and sigma for terminal atoms of 0.002
4. Rigid body (RIGU) restrains
 Zn2A, Zn2, N1, C6, C1, O1
 with sigma for 1-2 distances of 0.002 and sigma for 1-3 distances of 0.004
5. Others
 Sof(H1BC)=Sof(H1BD)=Sof(Zn2A)=0.5*(1-FVAR(2))
 Sof(Zn2)=Sof(H1AA)=Sof(H1AB)=0.5*FVAR(2)
6.a Secondary CH2 refined with riding coordinates:
 N1(H1AA,H1AB), N1(H1BC,H1BD)
6.b Aromatic/amide H refined with riding coordinates:
 C5(H5), C3(H3), C2(H2)
;
_shelx_res_file
;
    zhangl_pl_sq.res created by SHELXL-2014/7

TITL zhangl_a.res in P4(1) New: P4122
CELL 1.54178 12.8863 12.8863 13.2102 90 90 90
ZERR 8 0.0001 0.0001 0.0003 0 0 0
LATT -1
SYMM -Y,+X,0.25+Z
SYMM -X,-Y,0.5+Z
SYMM +Y,-X,0.75+Z
SYMM +X,-Y,0.5-Z
SYMM +Y,+X,0.75-Z
SYMM -X,+Y,-Z
SYMM -Y,-X,0.25-Z
SFAC C H N O Zn
UNIT 56 32 8 24 8
RIGU 0.002 0.004 Zn2A Zn2 N1 C6 C1 O1
ISOR 0.001 0.002 Zn2A

L.S. 5 0 38
PLAN  0
SIZE 0.27 0.24 0.22
BOND $H
CONF
ABIN
fmap 2
acta
SHEL 999 0.83
TWIN -1 0 0 0 -1 0 0 0 -1 2
REM <olex2.extras>
REM <HklSrc "%.\\zhangl_pl_sq.hkl">
REM </olex2.extras>

WGHT    0.052700    1.634300
BASF   0.47868
FVAR       0.25741   0.90479
ZN1   5    0.000000    0.493568    0.000000    10.50000    0.02291    0.01617 =
         0.01156    0.00000   -0.00221    0.00000
PART 1
ZN2   5    0.028394    0.500000    0.250000    20.50000    0.02348    0.01770 =
         0.01217    0.00085    0.00000    0.00000
PART 0
O1    4    0.045096    0.415035    0.116611    11.00000    0.03681    0.02955 =
         0.01940   -0.00052   -0.00267    0.01008
O3    4    0.415753    0.114647    0.217086    11.00000    0.04861    0.05180 =
         0.02342   -0.00916   -0.01213    0.02579
O2    4    0.402816    0.085193    0.054404    11.00000    0.06766    0.07605 =
         0.03103   -0.01163   -0.00947    0.04689
N1    3    0.142206    0.386229    0.295599    11.00000    0.06794    0.06517 =
         0.01858   -0.01192   -0.00549    0.03889
PART 1
AFIX  23
H1AA  2    0.195745    0.417711    0.325067    20.50000   -1.20000
H1AB  2    0.114265    0.342524    0.340079    20.50000   -1.20000
AFIX  23
PART 0
PART 2
H1BC  2    0.190241    0.431416    0.315613   -20.50000   -1.20000
H1BD  2    0.128876    0.342886    0.346415   -20.50000   -1.20000
AFIX   0
PART 0
C1    1    0.124656    0.349366    0.118637    11.00000    0.03211    0.02360 =
         0.01704    0.00122   -0.00167    0.00683
C7    1    0.375769    0.131045    0.130672    11.00000    0.02046    0.03263 =
         0.02126   -0.00454    0.00041    0.00536
C5    1    0.258397    0.259773    0.211787    11.00000    0.03607    0.03201 =
         0.01524    0.00027   -0.00622    0.00926
AFIX  43
H5    2    0.292046    0.247926    0.272985    11.00000   -1.20000
AFIX   0
C6    1    0.177258    0.329810    0.207742    11.00000    0.03957    0.03102 =
         0.01805   -0.00334   -0.00120    0.00938
C4    1    0.290266    0.206968    0.125821    11.00000    0.02941    0.03190 =
         0.02607   -0.00116   -0.00403    0.00519
C3    1    0.240490    0.228532    0.034410    11.00000    0.05334    0.04254 =
         0.01434   -0.00463   -0.00360    0.02309
AFIX  43
H3    2    0.262521    0.195784   -0.024529    11.00000   -1.20000
AFIX   0
C2    1    0.158422    0.298319    0.030358    11.00000    0.04966    0.04861 =
         0.02115   -0.00011   -0.00361    0.02048
AFIX  43
H2    2    0.125597    0.311392   -0.031028    11.00000   -1.20000
AFIX   0
PART 2
ZN2A  5   -0.001558    0.468513    0.248101   -20.50000    0.00779    0.00659 =
         0.00697    0.00074   -0.00053    0.00066
HKLF 4 1 1 0 0 0 -1 0 0 0 -1

REM  zhangl_a.res in P4(1) New: P4122
REM R1 =  0.0355 for    1934 Fo > 4sig(Fo)  and  0.0372 for all    2022 data
REM    121 parameters refined using     48 restraints

END

WGHT      0.0527      1.6357

REM Highest difference peak  0.898,  deepest hole -0.334,  1-sigma level  0.078
Q1    1   0.0006  0.5000  0.2500  10.50000  0.05    0.82
Q2    1   0.0830  0.3827  0.0335  11.00000  0.05    0.55
Q3    1   0.4537  0.0865  0.1313  11.00000  0.05    0.54
Q4    1   0.0982  0.4152  0.2068  11.00000  0.05    0.46
Q5    1   0.3490  0.1986  0.2137  11.00000  0.05    0.35
Q6    1   0.3886  0.1202 -0.0336  11.00000  0.05    0.31
Q7    1   0.1999  0.2862  0.1234  11.00000  0.05    0.30
Q8    1   0.3288  0.1624  0.0309  11.00000  0.05    0.29
Q9    1   0.1002  0.4606  0.1090  11.00000  0.05    0.24
Q10   1   0.3417  0.0830 -0.0052  11.00000  0.05    0.23
Q11   1   0.1602  0.3889  0.1454  11.00000  0.05    0.23
Q12   1   0.3551  0.0691  0.2304  11.00000  0.05    0.22
Q13   1   0.1005  0.4880  0.3160  11.00000  0.05    0.19
Q14   1  -0.0454  0.4852  0.0939  11.00000  0.05    0.19
Q15   1  -0.0351  0.3972  0.0428  11.00000  0.05    0.19
Q16   1   0.0031  0.5876  0.0328  11.00000  0.05    0.19
Q17   1   0.3405  0.1438  0.1408  11.00000  0.05    0.16
Q18   1   0.2396  0.2986  0.2156  11.00000  0.05    0.15
Q19   1   0.0633  0.2819  0.3762  11.00000  0.05    0.15
Q20   1   0.1424  0.3955 -0.0806  11.00000  0.05    0.15
;
_shelx_res_checksum              78066
_shelx_fab_file
;
    0    1    0     -1.39     -0.02
    1    1    0    183.97     -0.03
    0    2    0    122.70     -0.06
    1    2    0     -6.36     -0.02
    2    2    0     25.81      0.08
    0    3    0      2.47     -0.02
    1    3    0     20.28      0.01
    2    3    0     -6.31      0.02
    3    3    0    -35.74      0.06
    0    4    0     11.89     -0.01
    1    4    0      8.48      0.01
    2    4    0    -18.65      0.01
    3    4    0     -2.37      0.03
    4    4    0    -16.50      0.00
    0    5    0     14.13      0.01
    1    5    0     10.45     -0.01
    2    5    0      3.03      0.00
    3    5    0     -6.32     -0.05
    4    5    0     -2.02      0.00
    5    5    0      3.51      0.05
    0    6    0     21.56      0.05
    1    6    0      2.32      0.00
    2    6    0     10.59     -0.07
    3    6    0     -5.29     -0.03
    4    6    0      4.64      0.00
    5    6    0     -1.97     -0.05
    6    6    0      3.60      0.04
    0    7    0     -3.69      0.01
    1    7    0     14.97      0.01
    2    7    0     -7.75     -0.02
    3    7    0      6.24     -0.03
    4    7    0     -6.23     -0.03
    5    7    0      3.29      0.02
    6    7    0      0.73      0.06
    7    7    0      0.25     -0.02
    0    8    0      9.29      0.00
    1    8    0     -4.81      0.01
    2    8    0      5.80      0.02
    3    8    0     -6.43      0.01
    4    8    0      2.22      0.01
    5    8    0     -1.94     -0.01
    6    8    0      0.85     -0.02
    7    8    0      1.24      0.38
    8    8    0      0.65      0.00
    0    9    0      0.78      0.00
    1    9    0      4.42      0.00
    2    9    0     -1.13      0.03
    3    9    0      1.74      0.04
    4    9    0     -1.92     -0.01
    5    9    0      1.33     -0.02
    6    9    0      0.69      0.09
    7    9    0      0.98      0.00
    8    9    0     -0.54      0.47
    9    9    0      1.06      0.01
    0   10    0      2.71     -0.04
    1   10    0      3.59      0.00
    2   10    0      1.72      0.03
    3   10    0      0.51      0.03
    4   10    0      1.05      0.00
    5   10    0     -0.17     -0.06
    6   10    0      1.41     -0.03
    7   10    0      0.17      0.15
    8   10    0      1.23      0.02
    9   10    0     -0.42      0.18
   10   10    0      0.51     -0.01
    0   11    0      3.59     -0.01
    1   11    0      0.20     -0.02
    2   11    0      1.97     -0.01
    3   11    0      0.04      0.02
    4   11    0     -0.77     -0.01
    5   11    0      0.52     -0.02
    6   11    0     -0.65     -0.04
    7   11    0      1.33      0.01
    8   11    0      0.41      0.06
    9   11    0      0.90      0.00
   10   11    0      0.94     -0.05
    0   12    0     -1.00      0.00
    1   12    0      0.07     -0.03
    2   12    0     -1.01     -0.01
    3   12    0     -0.96      0.00
    4   12    0     -1.03      0.00
    5   12    0     -1.86     -0.01
    6   12    0     -0.08      0.01
    7   12    0     -0.04      0.01
    8   12    0      0.94      0.02
    9   12    0      1.26     -0.03
    0   13    0     -3.15      0.00
    1   13    0     -0.36      0.01
    2   13    0     -1.90     -0.01
    3   13    0     -0.76     -0.02
    4   13    0     -1.66      0.01
    5   13    0     -1.59      0.02
    6   13    0     -1.40      0.02
    7   13    0     -0.27      0.01
    8   13    0      0.89      0.00
    0   14    0      0.79      0.05
    1   14    0     -2.72      0.01
    2   14    0      0.65     -0.02
    3   14    0     -0.45      0.01
    4   14    0     -0.61     -0.01
    5   14    0     -1.12      0.00
    6   14    0     -1.10      0.02
    0   15    0     -1.55      0.01
    1   15    0      0.98      0.03
    2   15    0      0.28      0.02
    3   15    0      0.75     -0.03
    4   15    0      0.74     -0.01
    0    1    1      0.00    -14.97
    1    1    1    -14.36    -14.35
    1    2    1    -10.02    -14.57
    0    2    1     -0.01    -15.91
    2    2    1     -8.74     -8.72
    2    3    1     -5.42     -0.48
    1    3    1     -7.40     -3.26
    0    3    1      0.03     -5.17
    3    3    1      0.61      0.68
    3    4    1      0.93      7.08
    2    4    1     -5.68      3.57
    1    4    1     -4.30      6.71
    0    4    1      0.02     -0.59
    4    4    1      0.53      0.53
    4    5    1      0.08      2.39
    3    5    1     -3.06     -0.23
    2    5    1     -3.33      8.25
    1    5    1     -4.70     -3.61
    0    5    1      0.02      7.49
    5    5    1     -3.48     -3.51
    5    6    1     -0.50     -2.15
    4    6    1     -1.93     -4.83
    3    6    1     -1.48      2.94
    2    6    1     -4.06     -6.12
    1    6    1     -2.57      3.53
    0    6    1      0.00    -11.25
    6    6    1     -4.94     -4.93
    6    7    1      3.20      0.26
    5    7    1     -2.09     -5.33
    4    7    1      0.97     -1.12
    3    7    1     -1.06     -4.69
    2    7    1     -1.41      2.00
    1    7    1     -1.67    -10.03
    0    7    1     -0.02     -0.08
    7    7    1     -3.50     -3.50
    7    8    1      5.09      3.72
    6    8    1     -2.54     -4.00
    5    8    1      4.05     -1.18
    4    8    1     -0.03     -2.86
    3    8    1      0.68      1.43
    2    8    1     -0.87     -3.55
    1    8    1     -0.60      1.00
    0    8    1     -0.01     -7.76
    8    8    1     -2.73     -2.75
    8    9    1      2.27      2.72
    7    9    1     -2.54     -3.47
    6    9    1      4.17      0.21
    5    9    1     -1.69     -3.28
    4    9    1      1.98     -0.93
    3    9    1     -0.54     -0.66
    2    9    1     -0.22      2.22
    1    9    1     -0.78     -4.00
    0    9    1     -0.02      0.78
    9    9    1     -2.21     -2.24
    9   10    1     -0.91      0.08
    8   10    1     -1.42     -2.54
    7   10    1      1.63      0.71
    6   10    1     -2.45     -3.39
    5   10    1      2.03     -3.03
    4   10    1     -1.28     -2.25
    3   10    1     -0.45     -0.03
    2   10    1     -1.05     -2.81
    1   10    1     -0.54      0.99
    0   10    1      0.01     -6.38
   10   10    1     -0.64     -0.67
   10   11    1     -1.37     -0.74
    9   11    1      0.14     -0.88
    8   11    1      0.05      0.78
    7   11    1     -1.06     -1.59
    6   11    1      1.91     -2.12
    5   11    1     -1.20     -2.71
    4   11    1      0.01     -2.88
    3   11    1     -0.53     -2.59
    2   11    1     -1.46      0.44
    1   11    1     -0.27     -6.18
    0   11    1      0.02     -0.54
    9   12    1     -0.20      0.42
    8   12    1      0.20     -0.16
    7   12    1      2.26      0.14
    6   12    1     -0.07     -0.75
    5   12    1      1.58     -2.74
    4   12    1     -0.01     -1.49
    3   12    1     -1.09     -0.42
    2   12    1      0.48     -2.73
    1   12    1     -0.85     -0.35
    0   12    1      0.03     -5.23
    8   13    1      1.43      0.50
    7   13    1      0.21      0.37
    6   13    1      2.40     -0.89
    5   13    1      0.44      0.00
    4   13    1      0.23     -0.93
    3   13    1      0.50     -0.18
    2   13    1     -0.96      1.08
    1   13    1      0.75     -1.89
    0   13    1      0.01     -0.22
    6   14    1      0.40      0.37
    5   14    1      0.42     -0.72
    4   14    1      0.01      0.34
    3   14    1     -0.65      1.08
    2   14    1      0.91     -0.24
    1   14    1     -0.31      1.01
    0   14    1     -0.01     -1.19
    3   15    1      0.06     -0.22
    2   15    1     -0.32      1.06
    1   15    1      0.68     -0.82
    0   15    1      0.00      0.44
    0    1    2     -0.10      0.01
    1    1    2      0.00     14.31
    1    2    2     -0.12     -0.19
    0    2    2     -6.75     -0.02
    2    2    2      0.00     23.77
    2    3    2      0.26     -1.22
    1    3    2     -7.87     15.02
    0    3    2      0.30     -0.01
    3    3    2     -0.02      3.70
    3    4    2     -0.06      0.28
    2    4    2     -4.86      5.56
    1    4    2      1.17      1.03
    0    4    2     -9.55     -0.01
    4    4    2      0.02    -13.66
    4    5    2     -1.08      3.64
    3    5    2      0.03     -7.14
    2    5    2     -0.12      4.18
    1    5    2     -5.48      5.31
    0    5    2      1.06     -0.01
    5    5    2      0.03     -7.92
    5    6    2     -1.40      3.11
    4    6    2      2.46     -4.43
    3    6    2     -2.65      4.06
    2    6    2      0.01      2.29
    1    6    2     -1.27      3.70
    0    6    2     -2.33      0.01
    6    6    2     -0.02      5.17
    6    7    2     -1.00      0.31
    5    7    2      1.31      4.69
    4    7    2     -2.65     -0.36
    3    7    2      2.17      0.72
    2    7    2     -2.80      2.28
    1    7    2     -0.39      2.99
    0    7    2     -2.52      0.00
    7    7    2     -0.01      9.48
    7    8    2     -0.18      0.10
    6    8    2      0.70      8.03
    5    8    2     -0.76     -2.46
    4    8    2      0.94      2.47
    3    8    2     -1.08     -2.34
    2    8    2     -0.52      1.46
    1    8    2     -1.42      0.48
    0    8    2     -1.70      0.00
    8    8    2      0.03      6.51
    8    9    2      0.25      0.63
    7    9    2      0.46      5.80
    6    9    2      0.61     -0.37
    5    9    2      0.11      4.04
    4    9    2      1.54     -3.14
    3    9    2     -0.63      0.10
    2    9    2      0.99     -1.02
    1    9    2     -2.30      0.34
    0    9    2      0.75      0.00
    9    9    2      0.01      3.21
    9   10    2      0.14     -0.37
    8   10    2     -0.47      2.97
    7   10    2      0.54      1.79
    6   10    2     -0.27      3.62
    5   10    2      1.76     -0.71
    4   10    2     -0.56      0.31
    3   10    2      2.19     -1.14
    2   10    2     -1.62     -0.09
    1   10    2      1.94      0.65
    0   10    2     -2.34     -0.03
   10   10    2     -0.01      1.02
   10   11    2      0.24     -1.03
    9   11    2     -0.53      0.97
    8   11    2      0.11      1.19
    7   11    2     -0.98      2.04
    6   11    2      0.49      1.47
    5   11    2     -0.51      0.46
    4   11    2      1.28     -0.48
    3   11    2     -1.01     -0.77
    2   11    2      1.33      1.35
    1   11    2     -1.76      0.38
    0   11    2      1.71      0.00
    9   12    2      0.52     -0.13
    8   12    2     -0.74      0.55
    7   12    2      0.01      1.32
    6   12    2     -0.62      0.15
    5   12    2      0.07     -0.05
    4   12    2     -0.20     -1.49
    3   12    2      0.24      0.65
    2   12    2     -0.95     -0.02
    1   12    2      0.56      1.75
    0   12    2     -0.98      0.00
    8   13    2      0.24      0.12
    7   13    2     -0.54     -0.19
    6   13    2     -0.30     -0.08
    5   13    2      0.47     -1.07
    4   13    2     -0.57     -0.88
    3   13    2     -0.17     -0.82
    2   13    2      0.03      1.31
    1   13    2     -0.05      0.52
    0   13    2      0.25      0.00
    6   14    2      0.23     -0.34
    5   14    2     -1.03     -0.94
    4   14    2      0.35     -0.52
    3   14    2     -0.28     -0.64
    2   14    2     -0.38      0.30
    1   14    2      0.54      0.64
    0   14    2      0.27      0.02
    3   15    2     -0.81     -0.02
    2   15    2      0.60     -0.15
    1   15    2     -0.44      0.25
    0   15    2      0.75     -0.01
    0    1    3     -0.01      5.77
    1    1    3     -2.56      2.55
    1    2    3     -1.56      4.81
    0    2    3      0.00      2.56
    2    2    3     -1.72      1.70
    2    3    3      1.49     -2.69
    1    3    3     -4.77     -1.31
    0    3    3     -0.07      4.04
    3    3    3     -1.41      1.41
    3    4    3      0.83     -5.37
    2    4    3     -8.36     -3.08
    1    4    3     -0.93     -1.19
    0    4    3      0.02     -0.22
    4    4    3     -2.94      2.91
    4    5    3     -2.16     -0.49
    3    5    3     -5.85      0.61
    2    5    3     -2.79     -4.41
    1    5    3     -6.70      1.88
    0    5    3     -0.12      0.34
    5    5    3     -3.44      3.47
    5    6    3     -2.00      2.94
    4    6    3     -1.39      3.71
    3    6    3     -2.14     -2.21
    2    6    3     -4.89      2.78
    1    6    3     -1.71      0.02
    0    6    3     -0.01      6.94
    6    6    3     -1.82      1.84
    6    7    3      0.88      0.81
    5    7    3      0.26      2.99
    4    7    3     -0.01      1.16
    3    7    3      0.46      2.26
    2    7    3     -0.92     -1.10
    1    7    3     -1.68      5.08
    0    7    3     -0.04      1.97
    7    7    3     -0.49      0.44
    7    8    3      2.80     -1.94
    6    8    3     -0.81      1.07
    5    8    3      1.10      1.62
    4    8    3      0.59      1.57
    3    8    3     -0.11     -0.59
    2    8    3      0.30      1.16
    1    8    3     -0.52      0.56
    0    8    3      0.00      3.78
    8    8    3     -0.97      0.99
    8    9    3      2.12     -2.15
    7    9    3     -2.09      0.73
    6    9    3      1.75      0.91
    5    9    3     -2.30      1.32
    4    9    3      0.02      1.27
    3    9    3     -0.85     -0.37
    2    9    3     -1.00     -0.18
    1    9    3     -0.27      1.32
    0    9    3      0.01      1.59
    9    9    3     -0.87      0.90
    9   10    3      0.89     -1.31
    8   10    3     -1.04      0.93
    7   10    3      1.69      0.44
    6   10    3     -2.75      1.14
    5   10    3      0.88      3.21
    4   10    3     -2.88      0.24
    3   10    3     -0.90      1.24
    2   10    3     -0.89     -0.52
    1   10    3     -0.89      2.03
    0   10    3      0.00      1.60
   10   10    3      0.01     -0.03
   10   11    3      0.35     -0.78
    9   11    3      0.45      0.41
    8   11    3      1.08     -0.16
    7   11    3     -0.55      0.57
    6   11    3      1.82      3.77
    5   11    3     -1.80      0.77
    4   11    3      0.29      2.98
    3   11    3     -1.40     -1.12
    2   11    3     -1.00      1.62
    1   11    3      0.31      0.74
    0   11    3      0.00      3.23
    9   12    3      0.46     -0.53
    8   12    3      0.84     -0.21
    7   12    3      1.50      2.06
    6   12    3      0.40     -0.05
    5   12    3      1.58      3.28
    4   12    3     -1.01     -0.52
    3   12    3     -0.16      0.53
    2   12    3      0.13     -0.79
    1   12    3     -0.27      1.61
    0   12    3      0.02      1.41
    7   13    3      0.97     -0.84
    6   13    3      1.23      1.66
    5   13    3     -0.14     -0.26
    4   13    3      0.51     -0.26
    3   13    3     -1.11     -0.97
    2   13    3     -0.05     -0.98
    1   13    3      0.49      0.35
    0   13    3     -0.01      0.66
    6   14    3      0.32     -0.33
    5   14    3      0.37     -0.23
    4   14    3     -1.21     -0.03
    3   14    3     -0.40     -1.79
    2   14    3     -0.46     -0.45
    1   14    3      0.16     -0.64
    0   14    3      0.06      0.29
    2   15    3     -0.19     -0.83
    1   15    3      0.18     -0.28
    0   15    3      0.01     -0.24
    0    0    4    -66.23      0.03
    0    1    4     -8.17      0.02
    1    1    4    -42.48     -0.01
    1    2    4      0.26     -0.13
    0    2    4    -27.09     -0.01
    2    2    4     -3.99      0.00
    2    3    4      4.09     -0.71
    1    3    4     -3.15     -0.40
    0    3    4     -2.67      0.01
    3    3    4      7.08      0.02
    3    4    4      2.07     -0.10
    2    4    4      2.57      0.71
    1    4    4     -5.79     -0.86
    0    4    4     -3.12     -0.01
    4    4    4     -1.14      0.00
    4    5    4     -0.09      1.31
    3    5    4     -2.80      1.14
    2    5    4     -4.44     -0.14
    1    5    4     -4.24      0.12
    0    5    4    -11.14      0.02
    5    5    4     -3.08      0.02
    5    6    4     -1.62      0.58
    4    6    4     -3.20      0.67
    3    6    4     -0.78      1.69
    2    6    4     -3.87      0.33
    1    6    4     -6.41     -0.40
    0    6    4     -4.57      0.00
    6    6    4      2.37      0.01
    6    7    4     -2.42     -1.38
    5    7    4      0.96      0.17
    4    7    4      0.20      0.52
    3    7    4     -2.95      0.58
    2    7    4     -0.52     -0.28
    1    7    4     -1.84     -0.60
    0    7    4     -2.66      0.00
    7    7    4      4.16      0.00
    7    8    4     -2.11     -1.78
    6    8    4      2.21     -0.66
    5    8    4     -0.35     -2.22
    4    8    4     -2.27      1.04
    3    8    4      0.78     -0.17
    2    8    4     -2.79     -0.74
    1    8    4     -0.19     -0.88
    0    8    4     -1.28     -0.02
    8    8    4      1.25     -0.01
    8    9    4     -1.24     -0.33
    7    9    4      0.02     -0.36
    6    9    4     -0.11     -2.62
    5    9    4     -1.64      0.67
    4    9    4      0.53     -0.47
    3    9    4     -4.79      0.76
    2    9    4     -0.04     -0.31
    1    9    4     -3.57     -1.07
    0    9    4     -0.30      0.00
    9    9    4     -1.20      0.00
    9   10    4     -0.23      0.80
    8   10    4     -1.61      0.35
    7   10    4      0.12     -0.54
    6   10    4     -1.42      0.26
    5   10    4      1.30     -0.51
    4   10    4     -3.54      2.11
    3   10    4      0.41      0.62
    2   10    4     -4.61     -0.34
    1   10    4      0.37     -0.31
    0   10    4     -3.65     -0.01
   10   10    4     -1.28      0.00
   10   11    4      0.59      0.40
    9   11    4     -1.30      0.16
    8   11    4     -0.16      1.03
    7   11    4     -1.12      0.22
    6   11    4      1.70     -0.03
    5   11    4     -0.64      1.01
    4   11    4      1.65      0.82
    3   11    4     -2.45      1.05
    2   11    4      1.17      0.27
    1   11    4     -2.15     -0.66
    0   11    4      2.04      0.00
    9   12    4     -0.07      0.60
    8   12    4     -0.63     -0.10
    7   12    4      0.63      0.25
    6   12    4      0.92     -0.38
    5   12    4      2.22      0.49
    4   12    4      0.54      0.46
    3   12    4      1.09      0.47
    2   12    4     -0.54     -0.47
    1   12    4      2.24     -0.02
    0   12    4      0.33      0.02
    7   13    4      0.67     -0.49
    6   13    4      0.98      0.01
    5   13    4      1.56     -0.44
    4   13    4      0.57      0.16
    3   13    4      0.17     -0.19
    2   13    4      0.23     -0.07
    1   13    4      0.79     -0.38
    0   13    4      2.16     -0.01
    5   14    4     -0.13      0.02
    4   14    4      0.12     -0.18
    3   14    4     -1.40     -0.11
    2   14    4     -0.27     -0.10
    1   14    4      0.49      0.05
    0   14    4      0.95      0.01
    0   15    4      0.89      0.00
    0    1    5     -0.01     11.06
    1    1    5      4.54      4.52
    1    2    5      5.81     10.22
    0    2    5      0.01      3.13
    2    2    5      3.61      3.62
    2    3    5      1.43     -0.09
    1    3    5      4.14     -1.32
    0    3    5     -0.01      5.61
    3    3    5      0.28      0.29
    3    4    5     -2.03     -4.00
    2    4    5      4.84     -2.42
    1    4    5      0.59     -1.67
    0    4    5      0.02     -2.84
    4    4    5     -0.55     -0.53
    4    5    5      0.25     -0.84
    3    5    5      3.42     -0.72
    2    5    5     -0.18     -2.47
    1    5    5      4.33      1.57
    0    5    5      0.00     -0.55
    5    5    5     -0.30     -0.32
    5    6    5      2.17      1.02
    4    6    5      0.70      0.26
    3    6    5      1.52     -0.11
    2    6    5      4.54      3.57
    1    6    5      0.01      0.40
    0    6    5     -0.01      7.12
    6    6    5     -0.42     -0.40
    6    7    5      0.43     -0.21
    5    7    5     -0.68      0.43
    4    7    5      2.22      0.01
    3    7    5      1.62      1.30
    2    7    5      0.30     -0.62
    1    7    5      2.10      5.99
    0    7    5      0.01     -0.48
    7    7    5      1.05      1.08
    7    8    5     -0.99     -0.79
    6    8    5      0.57      1.82
    5    8    5      0.27     -0.97
    4    8    5      0.13      0.45
    3    8    5      0.13     -1.54
    2    8    5      1.17      1.14
    1    8    5     -0.65     -2.38
    0    8    5     -0.01      4.12
    8    8    5      2.43      2.40
    8    9    5     -0.42      0.06
    7    9    5      1.92      2.55
    6    9    5     -1.11     -0.89
    5    9    5      0.72      1.89
    4    9    5     -0.47     -0.91
    3    9    5      0.25      0.43
    2    9    5     -0.81     -1.27
    1    9    5      0.29      1.79
    0    9    5      0.00     -1.59
    9    9    5      1.17      1.17
    9   10    5      0.07      0.09
    8   10    5      1.02      0.90
    7   10    5     -0.88     -0.02
    6   10    5      1.15      2.32
    5   10    5     -0.93      0.08
    4   10    5      0.49      2.01
    3   10    5     -0.48      0.89
    2   10    5      0.10      1.70
    1   10    5     -0.11      1.51
    0   10    5      0.01      3.44
   10   10    5     -0.47     -0.46
    9   11    5     -0.42     -0.46
    8   11    5     -0.28      0.21
    7   11    5      0.34      0.79
    6   11    5     -1.19      0.29
    5   11    5      0.47      1.75
    4   11    5     -0.53      1.67
    3   11    5      0.30      1.77
    2   11    5      0.47      2.70
    1   11    5      0.22      2.97
    0   11    5     -0.01      3.43
    8   12    5     -0.39     -0.34
    7   12    5     -1.00      0.19
    6   12    5     -0.29      0.30
    5   12    5     -0.79      0.87
    4   12    5      0.07      0.47
    3   12    5      0.89      1.49
    2   12    5      0.19      0.84
    1   12    5      0.83      2.15
    0   12    5      0.02      2.03
    6   13    5     -0.74      0.01
    5   13    5     -0.45     -0.47
    4   13    5      0.65      0.26
    3   13    5     -0.09     -0.55
    2   13    5      1.52     -0.15
    1   13    5      0.00      0.15
    0   13    5     -0.02      0.22
    4   14    5     -0.03     -0.38
    3   14    5      1.03     -0.51
    2   14    5     -0.07     -0.31
    1   14    5      0.53     -0.76
    0   14    5      0.01     -0.19
    0    1    6      1.04      0.00
    1    1    6     -0.02     -5.11
    1    2    6      1.79     -0.46
    0    2    6     -2.05     -0.03
    2    2    6      0.00     -9.55
    2    3    6      0.16      1.67
    1    3    6     -1.76     -5.69
    0    3    6      2.38     -0.01
    3    3    6      0.02     -1.82
    3    4    6     -1.50      2.01
    2    4    6     -0.07     -2.02
    1    4    6     -0.99     -0.24
    0    4    6     -1.04      0.00
    4    4    6     -0.02      6.87
    4    5    6     -1.63     -0.22
    3    5    6      0.90      3.52
    2    5    6     -2.97     -0.56
    1    5    6      0.90     -1.88
    0    5    6     -2.24      0.01
    5    5    6     -0.03      4.03
    5    6    6     -1.24     -1.29
    4    6    6      1.43      2.22
    3    6    6     -2.08     -0.96
    2    6    6      1.77     -1.20
    1    6    6     -0.96     -1.35
    0    6    6      1.82      0.02
    6    6    6      0.00     -2.97
    6    7    6     -0.75     -0.97
    5    7    6      1.07     -2.31
    4    7    6     -1.49     -0.33
    3    7    6      1.38     -0.17
    2    7    6      0.40     -1.32
    1    7    6      1.41     -1.68
    0    7    6      1.50     -0.01
    7    7    6      0.01     -4.46
    7    8    6      0.02     -0.19
    6    8    6      0.03     -3.69
    5    8    6     -1.34      0.55
    4    8    6      0.32     -0.78
    3    8    6     -0.18      0.22
    2    8    6     -0.15     -0.61
    1    8    6      1.06     -0.66
    0    8    6     -0.40      0.01
    8    8    6     -0.01     -1.33
    8    9    6      0.66      0.19
    7    9    6     -0.09     -1.64
    6    9    6     -0.14      0.31
    5    9    6     -0.58     -1.83
    4    9    6     -1.04      1.30
    3    9    6     -0.98      0.88
    2    9    6     -0.31     -0.27
    1    9    6     -1.73     -0.24
    0    9    6     -0.29      0.00
    9    9    6      0.02      1.20
    9   10    6      0.46      0.01
    8   10    6      0.13      0.51
    7   10    6      1.40     -0.18
    6   10    6     -0.33     -1.47
    5   10    6     -0.18      0.22
    4   10    6     -0.70      0.69
    3   10    6     -0.50      0.27
    2   10    6     -0.77      1.24
    1   10    6     -0.50     -0.56
    0   10    6     -1.23     -0.02
   10   10    6      0.02      0.77
    9   11    6      0.05      0.72
    8   11    6      1.25     -0.15
    7   11    6      0.30     -0.27
    6   11    6      1.55     -0.96
    5   11    6     -0.38     -0.18
    4   11    6      0.34      0.27
    3   11    6      0.60      1.72
    2   11    6      0.63     -0.43
    1   11    6      0.90      0.20
    0   11    6      0.54      0.01
    7   12    6      1.67     -0.50
    6   12    6     -0.04     -0.37
    5   12    6      1.24     -0.32
    4   12    6      0.03      0.49
    3   12    6      0.75      0.53
    2   12    6      1.81      0.26
    1   12    6      1.32     -0.25
    0   12    6      2.09      0.01
    6   13    6      1.27     -0.31
    5   13    6     -0.85     -0.40
    4   13    6      0.03      0.48
    3   13    6      0.56     -0.12
    2   13    6      0.10      0.03
    1   13    6      1.86     -0.54
    0   13    6      0.38      0.00
    3   14    6     -1.30      0.01
    2   14    6      0.96     -0.47
    1   14    6     -1.00     -0.25
    0   14    6      1.40      0.01
    0    1    7     -0.02     -6.29
    1    1    7     -0.56      0.56
    1    2    7      1.09     -5.65
    0    2    7      0.00      1.20
    2    2    7     -0.50      0.50
    2    3    7     -2.18      1.68
    1    3    7      0.81      1.57
    0    3    7      0.00     -6.83
    3    3    7      0.77     -0.79
    3    4    7     -1.58      4.05
    2    4    7      2.84      1.24
    1    4    7     -0.59     -1.01
    0    4    7      0.01      0.86
    4    4    7      3.25     -3.23
    4    5    7      1.38      0.20
    3    5    7      3.68     -0.42
    2    5    7      0.35      3.41
    1    5    7      1.70     -0.53
    0    5    7      0.00     -0.95
    5    5    7      3.27     -3.25
    5    6    7      1.88     -2.27
    4    6    7      1.69     -1.74
    3    6    7      0.92      1.47
    2    6    7      0.61     -0.63
    1    6    7     -0.01      0.67
    0    6    7      0.01     -3.30
    6    6    7      0.90     -0.88
    6    7    7     -0.05     -0.62
    5    7    7     -0.20     -1.01
    4    7    7     -0.32     -1.01
    3    7    7     -1.23     -0.29
    2    7    7     -0.48      0.43
    1    7    7     -0.80     -2.55
    0    7    7     -0.01     -0.67
    7    7    7      0.24     -0.23
    7    8    7     -0.71      1.02
    6    8    7      0.78      0.12
    5    8    7     -1.19     -0.58
    4    8    7     -0.55     -0.01
    3    8    7     -0.94     -0.26
    2    8    7     -1.41      0.01
    1    8    7     -0.44     -0.05
    0    8    7      0.01     -2.25
    8    8    7      0.81     -0.83
    8    9    7      0.24      0.51
    7    9    7      1.85      0.13
    6    9    7     -0.37      0.75
    5    9    7      1.18      0.21
    4    9    7     -0.59     -0.49
    3    9    7     -0.18      0.94
    2    9    7      0.31      0.43
    1    9    7     -0.32      0.08
    0    9    7     -0.01      1.02
    9    9    7      0.65     -0.64
    9   10    7      0.30     -0.15
    8   10    7      0.95      0.00
    7   10    7      0.48      1.05
    6   10    7      1.45     -0.28
    5   10    7     -0.12     -0.30
    4   10    7      0.56      0.08
    3   10    7      0.64     -0.12
    2   10    7     -0.05      1.36
    1   10    7      0.69      1.21
    0   10    7      0.01      0.11
    8   11    7      0.06      0.28
    7   11    7      0.29     -0.26
    6   11    7     -0.17      0.20
    5   11    7      0.34     -1.08
    4   11    7     -0.29     -0.89
    3   11    7     -0.08      0.53
    2   11    7      0.52      0.53
    1   11    7     -0.20     -0.04
    0   11    7      0.01      1.59
    7   12    7     -0.30      0.19
    6   12    7     -0.01     -1.01
    5   12    7     -0.73     -0.91
    4   12    7     -0.10     -0.77
    3   12    7     -0.37     -0.30
    2   12    7     -0.32     -0.01
    1   12    7      0.18      1.34
    0   12    7      0.00     -2.04
    5   13    7      0.22     -1.10
    4   13    7     -0.27     -0.63
    3   13    7     -0.11     -0.06
    2   13    7      0.05      0.41
    1   13    7     -0.34     -1.78
    0   13    7      0.00      1.39
    0    0    8     21.78      0.00
    0    1    8      5.71     -0.01
    1    1    8     14.54     -0.01
    1    2    8      1.99      1.13
    0    2    8      9.33     -0.01
    2    2    8      1.12      0.02
    2    3    8     -0.11      2.20
    1    3    8      0.34      0.52
    0    3    8      0.70      0.00
    3    3    8     -3.95      0.01
    3    4    8     -0.65      0.72
    2    4    8     -2.31      0.60
    1    4    8      0.21      2.99
    0    4    8     -0.13     -0.01
    4    4    8     -0.54     -0.01
    4    5    8     -0.45     -1.28
    3    5    8      0.45     -0.46
    2    5    8      0.53      1.55
    1    5    8      0.52      0.24
    0    5    8      0.55     -0.01
    5    5    8      1.27      0.00
    5    6    8     -0.65     -1.14
    4    6    8      1.25     -0.65
    3    6    8     -0.11     -1.70
    2    6    8      0.83     -0.60
    1    6    8      0.84      1.16
    0    6    8      1.11      0.00
    6    6    8     -0.15      0.00
    6    7    8     -2.12      0.62
    5    7    8     -0.36      0.60
    4    7    8     -1.20     -1.30
    3    7    8      0.29     -0.78
    2    7    8     -0.21      0.33
    1    7    8     -0.09     -0.12
    0    7    8     -0.34      0.00
    7    7    8     -1.03      0.01
    7    8    8     -1.82      1.59
    6    8    8     -0.52      0.80
    5    8    8     -1.85      1.89
    4    8    8     -0.12     -0.01
    3    8    8     -1.10      0.64
    2    8    8     -0.34     -0.32
    1    8    8     -0.84      1.09
    0    8    8      0.14      0.00
    8    8    8      0.03      0.01
    8    9    8      0.53      0.97
    7    9    8      0.80     -0.16
    6    9    8     -1.72      3.28
    5    9    8      1.04     -0.03
    4    9    8     -0.66      1.78
    3    9    8      0.76     -0.80
    2    9    8      0.17      1.17
    1    9    8      1.18      0.14
    0    9    8     -0.02      0.00
    9    9    8      0.89     -0.01
    8   10    8      1.09     -0.50
    7   10    8     -0.44      1.72
    6   10    8      1.70     -0.52
    5   10    8     -0.53      1.70
    4   10    8      1.82     -0.98
    3   10    8      1.08      0.10
    2   10    8      1.76     -0.36
    1   10    8      1.19      0.27
    0   10    8      2.64      0.00
    7   11    8      0.70     -0.25
    6   11    8     -0.47      0.61
    5   11    8      1.13     -0.37
    4   11    8      0.68     -0.69
    3   11    8      1.33     -0.63
    2   11    8      1.13     -0.54
    1   11    8      2.32      0.22
    0   11    8      0.91     -0.01
    6   12    8     -0.27      0.31
    5   12    8     -0.22     -0.39
    4   12    8      0.29     -0.08
    3   12    8      0.58     -0.67
    2   12    8      1.19      0.04
    1   12    8      0.49     -0.05
    0   12    8      1.67      0.00
    3   13    8      0.41      0.00
    2   13    8      0.44      0.14
    1   13    8      0.88      0.13
    0   13    8      0.86      0.00
    0    1    9      0.00     -4.95
    1    1    9     -0.19     -0.22
    1    2    9     -2.52     -4.83
    0    2    9      0.02      1.35
    2    2    9      0.22      0.20
    2    3    9     -0.16     -0.91
    1    3    9     -0.79      2.62
    0    3    9     -0.02     -2.52
    3    3    9      0.80      0.81
    3    4    9      1.44      1.40
    2    4    9     -0.50      1.39
    1    4    9      1.20      0.90
    0    4    9      0.01      2.52
    4    4    9      0.06      0.07
    4    5    9      0.26      0.76
    3    5    9     -0.50     -0.70
    2    5    9      1.58      1.44
    1    5    9     -0.72     -0.90
    0    5    9     -0.01      2.24
    5    5    9     -0.45     -0.44
    5    6    9     -1.23     -0.45
    4    6    9     -1.06     -0.60
    3    6    9     -0.45      0.11
    2    6    9     -0.77     -2.40
    1    6    9      1.19      0.91
    0    6    9     -0.02     -3.22
    6    6    9     -0.17     -0.14
    6    7    9     -1.07     -0.18
    5    7    9     -0.76      0.31
    4    7    9     -1.65     -0.24
    3    7    9     -0.82     -0.49
    2    7    9      0.21     -0.46
    1    7    9     -0.47     -1.73
    0    7    9      0.02      0.25
    7    7    9     -0.59     -0.58
    7    8    9      0.17      0.21
    6    8    9     -0.51     -0.13
    5    8    9     -1.32      0.17
    4    8    9     -0.48      1.03
    3    8    9     -0.58      0.17
    2    8    9      0.07      0.73
    1    8    9      0.77      0.48
    0    8    9     -0.02      0.50
    8    8    9     -0.86     -0.86
    8    9    9      0.66     -0.01
    7    9    9     -0.52     -0.78
    6    9    9      0.08     -0.16
    5    9    9     -0.14      0.35
    4    9    9     -0.33      0.59
    3    9    9      0.74      0.84
    2    9    9      0.66      0.78
    1    9    9      0.24      0.74
    0    9    9      0.02      1.22
    9    9    9     -0.42     -0.38
    7   10    9      0.97     -0.42
    6   10    9     -0.21     -0.70
    5   10    9      0.44      0.00
    4   10    9      0.74     -0.24
    3   10    9      0.47      0.37
    2   10    9      0.69     -0.52
    1   10    9      0.58      0.28
    0   10    9      0.00     -0.74
    6   11    9      0.82     -0.33
    5   11    9      0.25     -0.45
    4   11    9      0.27      0.00
    3   11    9      0.68     -0.54
    2   11    9      0.47     -0.42
    1   11    9     -0.03     -1.26
    0   11    9     -0.01     -0.34
    4   12    9      0.49      0.39
    3   12    9      0.01     -0.18
    2   12    9     -0.17     -0.03
    1   12    9      0.17     -0.06
    0   12    9      0.01     -0.65
    0    1   10     -0.61      0.00
    1    1   10     -0.04      1.62
    1    2   10     -0.69     -0.95
    0    2   10     -2.74      0.02
    2    2   10      0.01      3.25
    2    3   10      0.18     -1.63
    1    3   10     -2.00      1.97
    0    3   10     -0.52      0.01
    3    3   10     -0.01      0.61
    3    4   10      0.65     -0.89
    2    4   10     -0.33      0.67
    1    4   10      0.70     -0.61
    0    4   10     -0.51      0.00
    4    4   10     -0.06     -2.70
    4    5   10      0.49      0.12
    3    5   10     -1.11     -1.58
    2    5   10      0.92     -0.44
    1    5   10      0.89      0.64
    0    5   10      0.90      0.00
    5    5   10     -0.02     -2.01
    5    6   10     -0.04      0.53
    4    6   10     -1.71     -1.20
    3    6   10      0.27     -0.10
    2    6   10     -0.55      0.20
    1    6   10      0.07     -0.13
    0    6   10      0.66      0.00
    6    6   10      0.00      0.17
    6    7   10      0.18      0.66
    5    7   10     -0.54      0.53
    4    7   10     -0.46     -0.31
    3    7   10     -1.50      0.08
    2    7   10     -0.97     -0.03
    1    7   10     -0.39      0.66
    0    7   10     -0.67      0.00
    7    7   10      0.01      1.20
    7    8   10      0.49      0.59
    6    8   10      0.42      1.43
    5    8   10      0.16     -0.40
    4    8   10     -0.27      0.85
    3    8   10     -0.80     -0.21
    2    8   10     -0.04      0.49
    1    8   10     -0.60      0.04
    0    8   10     -0.15     -0.01
    8    8   10      0.01      0.85
    8    9   10     -0.02      0.26
    7    9   10      0.60      1.06
    6    9   10      0.74     -0.07
    5    9   10      0.93      1.45
    4    9   10      0.24     -0.37
    3    9   10      0.68      0.09
    2    9   10      0.25      0.37
    1    9   10      0.78      0.18
    0    9   10      1.03      0.00
    6   10   10      0.93      1.16
    5   10   10      0.62     -0.12
    4   10   10      0.66      0.28
    3   10   10      0.68      0.42
    2   10   10      0.65     -0.59
    1   10   10      1.11      0.24
    0   10   10      0.70      0.02
    4   11   10      0.50      0.17
    3   11   10     -0.28     -0.68
    2   11   10      0.12      0.19
    1   11   10     -0.13     -0.22
    0   11   10     -0.07     -0.01
    1   12   10     -0.91     -0.22
    0   12   10     -0.43      0.00
    0    1   11      0.01     -1.43
    1    1   11      1.11     -1.15
    1    2   11      1.39     -0.51
    0    2   11     -0.02     -1.15
    2    2   11      0.47     -0.48
    2    3   11      0.68      0.66
    1    3   11     -0.21     -0.34
    0    3   11      0.01      1.40
    3    3   11     -0.92      0.92
    3    4   11     -0.36      0.36
    2    4   11     -2.12     -0.36
    1    4   11      1.32      0.86
    0    4   11     -0.01     -0.19
    4    4   11     -1.59      1.60
    4    5   11     -0.87     -0.17
    3    5   11     -2.51     -0.07
    2    5   11      1.36     -0.78
    1    5   11     -1.34     -0.60
    0    5   11      0.01     -0.33
    5    5   11     -0.81      0.82
    5    6   11     -0.62      0.15
    4    6   11     -0.46      0.36
    3    6   11      0.22     -1.02
    2    6   11     -1.27     -0.28
    1    6   11      1.79     -0.92
    0    6   11      0.00      0.21
    6    6   11      0.15     -0.13
    6    7   11      0.02      0.52
    5    7   11      0.49     -0.29
    4    7   11     -0.41      0.06
    3    7   11      0.17      0.18
    2    7   11      1.87     -0.22
    1    7   11      0.11      0.95
    0    7   11      0.00     -0.11
    7    7   11     -0.04      0.07
    7    8   11     -0.02      0.23
    6    8   11     -0.18     -0.33
    5    8   11      0.03      0.80
    4    8   11      0.57     -0.23
    3    8   11      0.59      0.28
    2    8   11      0.50      0.40
    1    8   11      1.36      0.57
    0    8   11     -0.02      1.33
    6    9   11      0.09      0.23
    5    9   11      0.05     -0.32
    4    9   11     -0.15      0.20
    3    9   11      0.29     -0.09
    2    9   11      0.82      0.13
    1    9   11      0.37      0.08
    0    9   11      0.00      0.13
    5   10   11     -0.13      0.02
    4   10   11      0.07      0.08
    3   10   11      0.00     -0.57
    2   10   11      0.09     -0.53
    1   10   11      0.34     -0.51
    0   10   11     -0.01     -0.42
    2   11   11      0.13     -0.51
    1   11   11      0.01     -0.66
    0   11   11      0.00     -0.45
    0    0   12     -6.76     -0.01
    0    1   12     -2.66     -0.01
    1    1   12     -4.48     -0.01
    1    2   12     -6.37      0.95
    0    2   12     -2.87      0.01
    2    2   12      0.06      0.00
    2    3   12     -5.22      2.58
    1    3   12      0.30     -0.60
    0    3   12     -6.56      0.00
    3    3   12      1.93      0.02
    3    4   12      0.21      2.05
    2    4   12      1.39     -1.00
    1    4   12     -4.23      3.86
    0    4   12      0.82      0.00
    4    4   12      0.41      0.01
    4    5   12      2.70      0.07
    3    5   12      0.03     -0.14
    2    5   12     -0.57      4.07
    1    5   12      0.57     -0.32
    0    5   12     -2.10      0.00
    5    5   12     -0.36     -0.02
    5    6   12      1.06     -0.53
    4    6   12     -0.46      0.57
    3    6   12      1.01      0.52
    2    6   12     -0.34      0.28
    1    6   12     -0.23      2.51
    0    6   12      0.22      0.00
    6    6   12      0.66      0.05
    6    7   12     -0.65     -0.22
    5    7   12      0.26      0.54
    4    7   12      0.54     -1.01
    3    7   12     -0.34      0.48
    2    7   12      0.24      0.86
    1    7   12      0.14      0.27
    0    7   12      0.51      0.01
    7    7   12      1.04      0.04
    6    8   12      0.39      0.29
    5    8   12      0.19     -0.51
    4    8   12     -0.06      0.18
    3    8   12      0.20     -0.78
    2    8   12      0.11      0.21
    1    8   12      0.52      0.47
    0    8   12      0.47      0.01
    4    9   12      0.41     -0.43
    3    9   12     -0.05     -0.02
    2    9   12      0.38     -0.18
    1    9   12     -0.26     -0.06
    0    9   12      0.52      0.01
    2   10   12     -0.73     -0.03
    1   10   12      0.27      0.24
    0   10   12     -1.31     -0.01
    0    1   13      0.00      1.30
    1    1   13      0.95      0.96
    1    2   13      1.06      1.53
    0    2   13     -0.01     -0.15
    2    2   13      1.11      1.09
    2    3   13      0.48      0.30
    1    3   13      1.81     -0.95
    0    3   13      0.01      0.80
    3    3   13      0.64      0.66
    3    4   13     -0.45     -0.66
    2    4   13      1.73     -0.03
    1    4   13      0.17      0.02
    0    4   13      0.00     -0.77
    4    4   13      0.01      0.00
    4    5   13     -0.15      0.14
    3    5   13      0.68      0.73
    2    5   13     -0.32     -0.23
    1    5   13      1.40      0.69
    0    5   13      0.01      0.23
    5    5   13     -0.95     -0.96
    5    6   13      0.34      0.64
    4    6   13     -0.21     -0.05
    3    6   13     -0.46      0.23
    2    6   13      1.61      1.20
    1    6   13     -0.25      0.03
    0    6   13      0.01      0.90
    6    6   13     -1.43     -1.42
    5    7   13     -0.89     -0.80
    4    7   13     -0.12      0.44
    3    7   13      0.97      0.68
    2    7   13     -0.44     -0.36
    1    7   13      0.94      0.31
    0    7   13      0.00     -0.82
    4    8   13     -0.10      0.15
    3    8   13     -0.35      0.00
    2    8   13      0.73      0.29
    1    8   13     -0.16     -1.28
    0    8   13      0.00     -0.68
    0    1   14      0.29     -0.01
    1    1   14      0.01     -0.23
    1    2   14      0.57      0.17
    0    2   14      1.40      0.02
    2    2   14     -0.01     -0.62
    2    3   14      0.17     -0.35
    1    3   14      1.02     -0.63
    0    3   14      0.96      0.00
    3    3   14     -0.01     -0.60
    3    4   14     -0.65     -0.41
    2    4   14      0.03     -0.65
    1    4   14      0.08      0.14
    0    4   14      0.94      0.01
    4    4   14      0.00     -0.08
    4    5   14     -0.76     -0.15
    3    5   14     -0.17      0.21
    2    5   14     -1.07      0.06
    1    5   14      0.46     -0.36
    0    5   14     -0.08      0.02
    5    5   14     -0.01      0.19
    4    6   14     -0.16      0.40
    3    6   14     -1.10     -0.19
    2    6   14      0.21      0.32
    1    6   14      0.09      0.23
    0    6   14      0.78      0.00
    2    7   14      0.10     -0.01
    1    7   14      0.50      0.08
    0    7   14      1.09      0.02
    0    1   15     -0.01      0.54
    1    1   15      0.03     -0.01
    1    2   15     -0.40      0.34
    0    2   15      0.01     -0.76
    2    2   15     -0.18      0.18
    2    3   15     -0.59      0.05
    1    3   15     -0.44     -0.92
    0    3   15     -0.01     -0.20
    3    3   15     -0.01      0.02
    3    4   15     -0.43      0.06
    2    4   15     -0.45     -0.37
    1    4   15     -0.27     -0.30
    0    4   15      0.00     -1.50
    1    5   15     -0.49     -0.67
    0    5   15      0.00      0.22
   11   11    0     -0.14     -0.02
   10   12    0      0.26     -0.01
    7   14    0     -0.35      0.01
   11   11    1      0.19      0.17
   10   12    1      0.38     -0.10
    4   15    1     -0.68      0.16
    4   15    2     -0.76     -0.75
    8   13    3      0.60      0.23
    3   15    3     -0.96      0.23
    1   15    4      0.08      0.05
    2   15    4     -0.94      0.16
   10   11    5      0.05     -0.25
    7   13    5     -0.52     -0.36
    5   14    5      0.09     -0.12
    8   12    6      0.35      0.55
    0   14    7     -0.02     -1.95
    1   14    7      0.18      0.56
    9   10    8      1.40      0.29
    8   10    9     -0.17     -0.51
    7   10   10     -0.02     -0.12
    5   11   10      0.28      0.59
    2   12   10     -0.74     -0.26
    8    8   11     -0.31      0.31
    5    9   12     -0.27      0.06
    0    9   13      0.00     -1.18
    1    9   13      0.13     -0.41
    3    7   14      0.06      0.40
    2    5   15     -0.24     -0.06
    0    0    0      0.00      0.00
# SQUEEZE RESULTS (Version =  21116)
# Note: Data are Listed for all Voids in the P1 Unit Cell
# i.e. Centre of Gravity, Solvent Accessible Volume,
# Recovered number of Electrons in the Void and
# Details about the Squeezed Material
loop_
  _platon_squeeze_void_nr
  _platon_squeeze_void_average_x
  _platon_squeeze_void_average_y
  _platon_squeeze_void_average_z
  _platon_squeeze_void_volume
  _platon_squeeze_void_count_electrons
  _platon_squeeze_void_content
   1  0.000  0.000 -0.005       453       137 ' '
   2  0.500  0.500  0.847       493       133 ' '
_platon_squeeze_void_probe_radius                  1.20
_platon_squeeze_details
)
TITL zhangl_pl P 41 2 2     R = 0.08
CELL   12.8863   12.8863   13.2102     90.00     90.00     90.00
SPGR P4122
# Solvent Accessible Volume =       947
# Electrons Found in S.A.V. =       268
# Note: Atoms in Void as Cxxx and Qxxx all others
C101 0.021 0.016 0.381 !       2.92 eA-3
C102 0.970 0.810 0.885 !       2.75 eA-3
C103 0.483 0.484 0.873 !       2.69 eA-3
Q104 0.990 0.548 0.246 !       2.50 eA-3
C105 0.635 0.573 0.872 !       2.26 eA-3
C106 0.008 0.886 0.888 !       2.04 eA-3
C107 0.603 0.517 0.640 !       1.72 eA-3
C108 0.357 0.500 0.250 !       1.69 eA-3
Q109 1.000 0.516-0.006 !       1.56 eA-3
C110 0.481 0.500 0.750 !       1.21 eA-3
C111 0.637 0.450 0.150 !       1.13 eA-3
C112 1.001 0.919 0.623 !       1.12 eA-3
C113 0.453 0.409 0.116 !       0.99 eA-3
Q114 0.938 0.500 0.250 !       0.98 eA-3
C115 0.504 0.363 0.034 !       0.93 eA-3
C116 0.915 0.972 0.720 !       0.91 eA-3
C117 0.906 0.906 0.375 !       0.90 eA-3
C118 0.642 0.455 0.074 !       0.89 eA-3
C119 0.913 1.000 0.250 !       0.84 eA-3
C120 0.549 0.546 0.850 !       0.79 eA-3
C121 0.862 0.053 0.103 !       0.72 eA-3
Q122 0.078 0.552 0.876 !       0.69 eA-3
Q123 0.077 0.621 0.466 !       0.65 eA-3
C124 0.532 0.555-0.008 !       0.60 eA-3
Q125 0.573 0.905 0.033 !       0.57 eA-3
C126 0.857 0.932 0.734 !       0.57 eA-3
C127 0.480 0.372 0.733 !       0.54 eA-3
C128 0.883 0.031 0.189 !       0.53 eA-3
)
;
_shelx_fab_checksum              57807
_platon_squeeze_void_probe_radius 1.20
_olex2_submission_special_instructions 'No special instructions were received'
_oxdiff_exptl_absorpt_empirical_details
;
Empirical correction (ABSPACK) includes:
- Absorption correction using spherical harmonics
- Frame scaling
- Detector area scaling
;
_oxdiff_exptl_absorpt_empirical_full_max 1.296
_oxdiff_exptl_absorpt_empirical_full_min 0.778
loop_
_space_group_symop_operation_xyz
'x, y, z'
'-y, x, z+1/4'
'-x, -y, z+1/2'
'y, -x, z+3/4'
'x, -y, -z+1/2'
'y, x, -z+3/4'
'-x, y, -z'
'-y, -x, -z+1/4'
loop_
_atom_site_label
_atom_site_type_symbol
_atom_site_fract_x
_atom_site_fract_y
_atom_site_fract_z
_atom_site_U_iso_or_equiv
_atom_site_adp_type
_atom_site_occupancy
_atom_site_site_symmetry_order
_atom_site_calc_flag
_atom_site_refinement_flags_posn
_atom_site_refinement_flags_adp
_atom_site_refinement_flags_occupancy
_atom_site_disorder_assembly
_atom_site_disorder_group
Zn1 Zn 0.0000 0.49357(5) 0.0000 0.0169(2) Uani 1 2 d S T P A .
Zn2 Zn 0.0284(3) 0.5000 0.2500 0.0178(6) Uani 0.905(13) 2 d S TU P A 1
O1 O 0.0451(3) 0.4150(2) 0.11661(18) 0.0286(7) Uani 1 1 d . U . . .
O3 O 0.4158(3) 0.1146(3) 0.2171(2) 0.0413(9) Uani 1 1 d . . . . .
O2 O 0.4028(3) 0.0852(3) 0.0544(3) 0.0582(13) Uani 1 1 d . . . . .
N1 N 0.1422(4) 0.3862(4) 0.2956(3) 0.0506(13) Uani 1 1 d . U . . .
H1AA H 0.1957 0.4177 0.3251 0.061 Uiso 0.452(7) 1 calc R . . A 1
H1AB H 0.1143 0.3425 0.3401 0.061 Uiso 0.452(7) 1 calc R . . A 1
H1BC H 0.1902 0.4314 0.3156 0.061 Uiso 0.048(7) 1 calc R . . A 2
H1BD H 0.1289 0.3429 0.3464 0.061 Uiso 0.048(7) 1 calc R . . A 2
C1 C 0.1247(4) 0.3494(3) 0.1186(3) 0.0242(9) Uani 1 1 d . U . . .
C7 C 0.3758(3) 0.1310(3) 0.1307(3) 0.0248(10) Uani 1 1 d . . . . .
C5 C 0.2584(3) 0.2598(3) 0.2118(3) 0.0278(10) Uani 1 1 d . . . . .
H5 H 0.2920 0.2479 0.2730 0.033 Uiso 1 1 calc R . . . .
C6 C 0.1773(4) 0.3298(3) 0.2077(3) 0.0295(11) Uani 1 1 d . U . . .
C4 C 0.2903(3) 0.2070(3) 0.1258(3) 0.0291(11) Uani 1 1 d . . . . .
C3 C 0.2405(4) 0.2285(4) 0.0344(3) 0.0367(12) Uani 1 1 d . . . . .
H3 H 0.2625 0.1958 -0.0245 0.044 Uiso 1 1 calc R . . . .
C2 C 0.1584(4) 0.2983(4) 0.0304(3) 0.0398(12) Uani 1 1 d . . . . .
H2 H 0.1256 0.3114 -0.0310 0.048 Uiso 1 1 calc R . . . .
Zn2A Zn -0.0016(16) 0.469(2) 0.2481(8) 0.007(3) Uani 0.048(7) 1 d . U . A 2
loop_
_atom_site_aniso_label
_atom_site_aniso_U_11
_atom_site_aniso_U_22
_atom_site_aniso_U_33
_atom_site_aniso_U_23
_atom_site_aniso_U_13
_atom_site_aniso_U_12
Zn1 0.0229(4) 0.0162(3) 0.0116(4) 0.000 -0.0022(2) 0.000
Zn2 0.0235(10) 0.0177(9) 0.0122(4) 0.0008(4) 0.000 0.000
O1 0.0368(16) 0.0296(15) 0.0194(13) -0.0005(11) -0.0027(12) 0.0101(12)
O3 0.049(2) 0.052(2) 0.0234(15) -0.0092(15) -0.0121(14) 0.0258(16)
O2 0.068(3) 0.076(3) 0.0310(18) -0.0116(19) -0.0095(18) 0.047(2)
N1 0.068(3) 0.065(3) 0.0186(17) -0.0119(19) -0.0055(19) 0.039(2)
C1 0.032(2) 0.024(2) 0.0170(18) 0.0012(15) -0.0017(16) 0.0068(16)
C7 0.020(2) 0.033(2) 0.021(2) -0.0045(17) 0.0004(16) 0.005(2)
C5 0.036(2) 0.032(2) 0.015(2) 0.0003(17) -0.0062(17) 0.0093(19)
C6 0.040(3) 0.031(2) 0.0181(18) -0.0033(16) -0.0012(16) 0.009(2)
C4 0.029(2) 0.032(2) 0.026(2) -0.0012(18) -0.0040(18) 0.005(2)
C3 0.053(3) 0.043(3) 0.014(2) -0.0046(19) -0.004(2) 0.023(2)
C2 0.050(3) 0.049(3) 0.021(2) 0.000(2) -0.004(2) 0.020(2)
Zn2A 0.008(3) 0.007(3) 0.007(3) 0.0007(13) -0.0005(13) 0.0007(13)
loop_
_atom_type_symbol
_atom_type_description
_atom_type_scat_dispersion_real
_atom_type_scat_dispersion_imag
_atom_type_scat_source
C C 0.0181 0.0091 'International Tables Vol C Tables 4.2.6.8 and 6.1.1.4'
H H 0.0000 0.0000 'International Tables Vol C Tables 4.2.6.8 and 6.1.1.4'
N N 0.0311 0.0180 'International Tables Vol C Tables 4.2.6.8 and 6.1.1.4'
O O 0.0492 0.0322 'International Tables Vol C Tables 4.2.6.8 and 6.1.1.4'
Zn Zn -1.5491 0.6778 'International Tables Vol C Tables 4.2.6.8 and 6.1.1.4'
loop_
_citation_id
_citation_doi
_citation_year
1 10.1039/C8CC02235F 2018
loop_
_geom_angle_atom_site_label_1
_geom_angle_atom_site_label_2
_geom_angle_atom_site_label_3
_geom_angle
_geom_angle_site_symmetry_1
_geom_angle_site_symmetry_3
O1 Zn1 O1 116.84(19) 7 .
O1 Zn1 O3 105.43(15) 7 8_565
O1 Zn1 O3 111.53(12) 7 4_564
O1 Zn1 O3 105.43(15) . 4_564
O1 Zn1 O3 111.53(12) . 8_565
O3 Zn1 O3 105.6(3) 4_564 8_565
O1 Zn2 O1 168.2(3) . 5_565
O1 Zn2 N1 92.90(16) . 5_565
O1 Zn2 N1 92.90(16) 5_565 .
O1 Zn2 N1 79.00(14) . .
O1 Zn2 N1 79.00(14) 5_565 5_565
O2 Zn2 O1 92.81(15) 8_565 5_565
O2 Zn2 O1 92.81(15) 2 .
O2 Zn2 O1 95.62(14) 8_565 .
O2 Zn2 O1 95.62(14) 2 5_565
O2 Zn2 O2 89.2(3) 2 8_565
O2 Zn2 N1 88.42(19) 2 .
O2 Zn2 N1 174.01(19) 2 5_565
O2 Zn2 N1 174.01(18) 8_565 .
O2 Zn2 N1 88.42(19) 8_565 5_565
N1 Zn2 N1 94.4(3) . 5_565
Zn1 O1 Zn2 111.56(14) . .
Zn1 O1 Zn2A 115.4(4) . .
Zn1 O1 Zn2A 101.0(6) . 5_565
C1 O1 Zn1 125.5(2) . .
C1 O1 Zn2 113.4(3) . .
C1 O1 Zn2A 125.0(6) . 5_565
C1 O1 Zn2A 116.2(4) . .
Zn2A O1 Zn2A 18.0(12) . 5_565
C7 O3 Zn1 125.1(3) . 2_655
C7 O2 Zn2 143.9(3) . 4_554
C7 O2 Zn2A 138.5(6) . 8_655
C7 O2 Zn2A 152.2(8) . 4_554
Zn2A O2 Zn2A 19.5(13) 4_554 8_655
Zn2 N1 H1AA 109.8 . .
Zn2 N1 H1AB 109.8 . .
H1AA N1 H1AB 108.3 . .
H1BC N1 H1BD 108.7 . .
C6 N1 Zn2 109.3(3) . .
C6 N1 H1AA 109.8 . .
C6 N1 H1AB 109.8 . .
C6 N1 H1BC 110.6 . .
C6 N1 H1BD 110.6 . .
C6 N1 Zn2A 105.9(5) . .
Zn2A N1 H1BC 110.6 . .
Zn2A N1 H1BD 110.6 . .
O1 C1 C6 120.8(3) . .
O1 C1 C2 121.3(4) . .
C6 C1 C2 118.0(4) . .
O3 C7 C4 116.9(3) . .
O2 C7 O3 123.1(4) . .
O2 C7 C4 120.0(4) . .
C6 C5 H5 119.6 . .
C6 C5 C4 120.9(4) . .
C4 C5 H5 119.6 . .
C1 C6 N1 116.1(4) . .
C1 C6 C5 121.5(4) . .
C5 C6 N1 122.3(4) . .
C5 C4 C7 120.8(4) . .
C5 C4 C3 118.4(4) . .
C3 C4 C7 120.9(4) . .
C4 C3 H3 119.6 . .
C2 C3 C4 120.8(4) . .
C2 C3 H3 119.6 . .
C1 C2 H2 119.8 . .
C3 C2 C1 120.4(4) . .
C3 C2 H2 119.8 . .
O1 Zn2A O1 143.0(14) . 5_565
O1 Zn2A O2 98.2(5) . 8_565
O1 Zn2A N1 80.1(4) . .
O2 Zn2A O1 83.2(8) 8_565 5_565
O2 Zn2A O1 116.3(16) 2 .
O2 Zn2A O1 99.0(5) 2 5_565
O2 Zn2A O2 103.4(8) 2 8_565
O2 Zn2A N1 100.5(9) 2 .
O2 Zn2A N1 154.0(16) 8_565 .
N1 Zn2A O1 83.1(6) . 5_565
Zn2A Zn2A O1 48.1(13) 5_565 5_565
Zn2A Zn2A O1 113.9(17) 5_565 .
Zn2A Zn2A O2 120.8(12) 5_565 2
Zn2A Zn2A O2 39.7(11) 5_565 8_565
Zn2A Zn2A N1 117.3(10) 5_565 .
loop_
_geom_bond_atom_site_label_1
_geom_bond_atom_site_label_2
_geom_bond_distance
_geom_bond_site_symmetry_2
Zn1 O1 1.933(3) 7
Zn1 O1 1.933(3) .
Zn1 O3 1.933(3) 8_565
Zn1 O3 1.933(3) 4_564
Zn2 O1 2.086(3) .
Zn2 O1 2.086(3) 5_565
Zn2 O2 2.056(4) 2
Zn2 O2 2.056(4) 8_565
Zn2 N1 2.159(5) .
Zn2 N1 2.159(5) 5_565
O1 C1 1.330(5) .
O1 Zn2A 1.963(12) .
O1 Zn2A 2.41(2) 5_565
O3 Zn1 1.933(3) 2_655
O3 C7 1.270(5) .
O2 Zn2 2.056(4) 4_554
O2 C7 1.219(5) .
O2 Zn2A 1.56(3) 4_554
O2 Zn2A 2.096(15) 8_655
N1 H1AA 0.8900 .
N1 H1AB 0.8900 .
N1 H1BC 0.8900 .
N1 H1BD 0.8900 .
N1 C6 1.442(5) .
N1 Zn2A 2.225(12) .
C1 C6 1.381(5) .
C1 C2 1.408(6) .
C7 C4 1.475(6) .
C5 H5 0.9300 .
C5 C6 1.382(6) .
C5 C4 1.386(6) .
C4 C3 1.395(6) .
C3 H3 0.9300 .
C3 C2 1.389(6) .
C2 H2 0.9300 .
Zn2A O1 2.41(2) 5_565
Zn2A O2 1.56(3) 2
Zn2A O2 2.096(15) 8_565
Zn2A Zn2A 0.81(5) 5_565
loop_
_geom_torsion_atom_site_label_1
_geom_torsion_atom_site_label_2
_geom_torsion_atom_site_label_3
_geom_torsion_atom_site_label_4
_geom_torsion
_geom_torsion_site_symmetry_1
Zn1 O1 C1 C6 153.3(4) .
Zn1 O1 C1 C2 -26.2(7) .
Zn1 O3 C7 O2 -11.8(7) 2_655
Zn1 O3 C7 C4 166.0(3) 2_655
Zn2 O1 C1 C6 10.2(6) .
Zn2 O1 C1 C2 -169.4(4) .
Zn2 O2 C7 O3 2.4(10) 4_554
Zn2 O2 C7 C4 -175.4(5) 4_554
Zn2 N1 C6 C1 -7.5(6) .
Zn2 N1 C6 C5 172.7(4) .
O1 C1 C6 N1 -1.4(7) .
O1 C1 C6 C5 178.3(5) .
O1 C1 C2 C3 -178.8(5) .
O3 C7 C4 C5 2.1(6) .
O3 C7 C4 C3 -178.9(5) .
O2 C7 C4 C5 179.9(5) .
O2 C7 C4 C3 -1.0(7) .
C7 C4 C3 C2 178.5(5) .
C5 C4 C3 C2 -2.4(8) .
C6 C1 C2 C3 1.7(8) .
C6 C5 C4 C7 -179.0(4) .
C6 C5 C4 C3 1.9(7) .
C4 C5 C6 N1 -179.9(5) .
C4 C5 C6 C1 0.4(7) .
C4 C3 C2 C1 0.6(9) .
C2 C1 C6 N1 178.1(5) .
C2 C1 C6 C5 -2.2(7) .
Zn2A O1 C1 C6 11.6(8) 5_565
Zn2A O1 C1 C6 -6.7(12) .
Zn2A O1 C1 C2 -167.9(5) 5_565
Zn2A O1 C1 C2 173.8(11) .
Zn2A O2 C7 O3 -20.9(14) 8_655
Zn2A O2 C7 O3 4.0(16) 4_554
Zn2A O2 C7 C4 161.3(11) 8_655
Zn2A O2 C7 C4 -173.7(13) 4_554
Zn2A N1 C6 C1 7.4(9) .
Zn2A N1 C6 C5 -172.4(9) .
loop_
_platon_squeeze_void_nr
_platon_squeeze_void_average_x
_platon_squeeze_void_average_y
_platon_squeeze_void_average_z
_platon_squeeze_void_volume
_platon_squeeze_void_count_electrons
_platon_squeeze_void_content
1 0.000 0.000 -0.005 453 137 ' '
2 0.500 0.500 0.847 493 133 ' '
loop_
_twin_individual_id
_twin_individual_mass_fraction_refined
1 0.52(8)
2 0.48(8)
