#------------------------------------------------------------------------------
#$Date: 2019-09-25 12:22:59 +0300 (Wed, 25 Sep 2019) $
#$Revision: 218826 $
#$URL: file:///home/coder/svn-repositories/cod/cif/7/12/42/7124224.cif $
#------------------------------------------------------------------------------
#
# This file is available in the Crystallography Open Database (COD),
# http://www.crystallography.net/
#
# All data on this site have been placed in the public domain by the
# contributors.
#
data_7124224
loop_
_publ_author_name
'Drake, Hannah'
'Day, Gregory S.'
'Vali, Shaik Waseem'
'Xiao, Zhifeng'
'Banerjee, Sayan'
'Li, Jialuo'
'Joseph, Elizabeth'
'Kuszynski, Jason E.'
'Perry, Zachary'
'Kirchon, Angelo'
'Ozdemir, Osman'
'Lindahl, Paul'
'Zhou, Hong-Cai'
_publ_section_title
;
 The Thermally Induced Decarboxylation Mechanism of a Mixed-Oxidation
 State Carboxylate-Based Iron Metal-Organic Framework
;
_journal_name_full               'Chemical Communications'
_journal_paper_doi               10.1039/C9CC04555D
_journal_year                    2019
_chemical_formula_moiety         'C48 H30 Fe6 N6 O32'
_chemical_formula_sum            'C48 H30 Fe6 N6 O32'
_chemical_formula_weight         1537.88
_chemical_name_common            PCN-250
_chemical_name_systematic
'catena-[hexakis(m-5,5'-((E)-diazenediyl)bis(benzene-1,3-dicarboxylato))-tetrakis(m-oxo)-dodeca-aqua-dodeca-iron unknown solvate]'
_space_group_crystal_system      cubic
_space_group_IT_number           218
_space_group_name_Hall           'P -4n 2 3'
_space_group_name_H-M_alt        'P -4 3 n'
_symmetry_space_group_name_Hall  'P -4n 2 3'
_symmetry_space_group_name_H-M   'P -4 3 n'
_atom_sites_solution_hydrogens   mixed
_audit_creation_date             2019-09-09
_audit_creation_method
;
Olex2 1.3-alpha
(compiled 2019.08.16 svn.r3652 for OlexSys, GUI svn.r5895)
;
_audit_update_record
;
2019-09-12 deposited with the CCDC.    2019-09-23 downloaded from the CCDC.
;
_cell_angle_alpha                90
_cell_angle_beta                 90
_cell_angle_gamma                90
_cell_formula_units_Z            4
_cell_length_a                   21.9834(5)
_cell_length_b                   21.9834(5)
_cell_length_c                   21.9834(5)
_cell_measurement_reflns_used    9876
_cell_measurement_temperature    200.0
_cell_measurement_theta_max      28
_cell_measurement_theta_min      0.5
_cell_volume                     10623.9(4)
_computing_molecular_graphics    'Olex2 1.3-alpha (Dolomanov et al., 2009)'
_computing_publication_material  'Olex2 1.3-alpha (Dolomanov et al., 2009)'
_computing_structure_refinement  'ShelXL 2018/3 (Sheldrick, 2015)'
_diffrn_ambient_temperature      200.0
_diffrn_measured_fraction_theta_full 0.964
_diffrn_measured_fraction_theta_max 0.971
_diffrn_measurement_device_type  'Bruker P4'
_diffrn_measurement_method       '\w scans'
_diffrn_radiation_monochromator  graphite
_diffrn_radiation_type           Synchrotron
_diffrn_radiation_wavelength     0.7288
_diffrn_reflns_av_R_equivalents  0.2412
_diffrn_reflns_av_unetI/netI     0.0753
_diffrn_reflns_Laue_measured_fraction_full 0.964
_diffrn_reflns_Laue_measured_fraction_max 0.971
_diffrn_reflns_limit_h_max       25
_diffrn_reflns_limit_h_min       -29
_diffrn_reflns_limit_k_max       28
_diffrn_reflns_limit_k_min       -29
_diffrn_reflns_limit_l_max       29
_diffrn_reflns_limit_l_min       -29
_diffrn_reflns_number            67255
_diffrn_reflns_point_group_measured_fraction_full 0.966
_diffrn_reflns_point_group_measured_fraction_max 0.972
_diffrn_reflns_theta_full        25.930
_diffrn_reflns_theta_max         29.029
_diffrn_reflns_theta_min         1.343
_diffrn_source                   'Advanced Light Source, Beamline 12.2.1'
_exptl_absorpt_coefficient_mu    0.907
_exptl_absorpt_correction_type   none
_exptl_crystal_colour            'clear dark red'
_exptl_crystal_colour_lustre     clear
_exptl_crystal_colour_modifier   dark
_exptl_crystal_colour_primary    red
_exptl_crystal_density_diffrn    0.961
_exptl_crystal_description       block
_exptl_crystal_F_000             3088
_exptl_crystal_size_max          0.1
_exptl_crystal_size_mid          0.05
_exptl_crystal_size_min          0.05
_platon_squeeze_details          )
_refine_diff_density_max         0.426
_refine_diff_density_min         -0.544
_refine_diff_density_rms         0.083
_refine_ls_abs_structure_details
;
 Refined as an inversion twin.
;
_refine_ls_abs_structure_Flack   0.09(3)
_refine_ls_extinction_coef       0.118(6)
_refine_ls_extinction_expression Fc^*^=kFc[1+0.001xFc^2^\l^3^/sin(2\q)]^-1/4^
_refine_ls_extinction_method     'SHELXL-2018/3 (Sheldrick 2018)'
_refine_ls_goodness_of_fit_ref   1.102
_refine_ls_hydrogen_treatment    constr
_refine_ls_matrix_type           full
_refine_ls_number_parameters     142
_refine_ls_number_reflns         4288
_refine_ls_number_restraints     0
_refine_ls_restrained_S_all      1.102
_refine_ls_R_factor_all          0.0468
_refine_ls_R_factor_gt           0.0414
_refine_ls_shift/su_max          0.001
_refine_ls_shift/su_mean         0.000
_refine_ls_structure_factor_coef Fsqd
_refine_ls_weighting_details
'w=1/[\s^2^(Fo^2^)+(0.0786P)^2^] where P=(Fo^2^+2Fc^2^)/3'
_refine_ls_weighting_scheme      calc
_refine_ls_wR_factor_gt          0.1160
_refine_ls_wR_factor_ref         0.1273
_reflns_Friedel_coverage         0.855
_reflns_Friedel_fraction_full    0.968
_reflns_Friedel_fraction_max     0.973
_reflns_number_gt                3835
_reflns_number_total             4288
_reflns_threshold_expression     'I > 2\s(I)'
_iucr_refine_instructions_details
;
TITL PCN-250_AfterActivation in P-43n #218
    pcn-250_afteractivation.res
    created by SHELXL-2018/3 at 15:27:35 on 09-Sep-2019
REM reset to P-43n #218
CELL 0.7288 21.9834 21.9834 21.9834 90 90 90
ZERR 4 0.0005 0.0005 0.0005 0 0 0
LATT -1
SYMM 0.5+Y,0.5-X,0.5-Z
SYMM -X,-Y,+Z
SYMM 0.5-Y,0.5+X,0.5-Z
SYMM 0.5-X,0.5+Z,0.5-Y
SYMM +X,-Y,-Z
SYMM 0.5-X,0.5-Z,0.5+Y
SYMM 0.5-Z,0.5-Y,0.5+X
SYMM -X,+Y,-Z
SYMM 0.5+Z,0.5-Y,0.5-X
SYMM +Z,+X,+Y
SYMM +Y,+Z,+X
SYMM -Y,-Z,+X
SYMM +Z,-X,-Y
SYMM -Y,+Z,-X
SYMM -Z,-X,+Y
SYMM -Z,+X,-Y
SYMM +Y,-Z,-X
SYMM 0.5-Y,0.5-X,0.5+Z
SYMM 0.5+Y,0.5+X,0.5+Z
SYMM 0.5+X,0.5-Z,0.5-Y
SYMM 0.5+X,0.5+Z,0.5+Y
SYMM 0.5-Z,0.5+Y,0.5-X
SYMM 0.5+Z,0.5+Y,0.5+X
SFAC C H Fe N O
DISP C 0.0037 0.0017 12.0457
DISP Fe 0.3621 0.8896 3712.4999
DISP H -0 0 0.6249
DISP N 0.007 0.0034 20.6663
DISP O 0.0123 0.0065 34.424
UNIT 192 120 24 24 128

L.S. 5 0 185
PLAN  20
SIZE 0.05 0.05 0.1
TEMP -73.15
ABIN
fmap 2 53
ACTA
TWIN -1 0 0 0 -1 0 0 0 -1 2
REM <olex2.extras>
REM <HklSrc "%.\\pcn-250_afteractivation.hkl">
REM </olex2.extras>

WGHT    0.078600
EXTI    0.117953
BASF   0.09270
FVAR       0.61562
FE1   3    0.761162    0.820410    0.696745    11.00000    0.01692    0.02486 =
         0.02453   -0.00300   -0.00070   -0.00084
O1    5    0.759742    0.759742    0.759742    10.33333    0.01993    0.01993 =
         0.01993    0.00076    0.00076    0.00076
O2    5    0.671494    0.813301    0.681384    11.00000    0.02023    0.05693 =
         0.03853    0.01458   -0.00797   -0.00599
O3    5    0.625907    0.774694    0.762908    11.00000    0.02072    0.05670 =
         0.02810    0.00154   -0.00428    0.00104
O4    5    0.393587    0.755136    0.749912    11.00000    0.02156    0.05165 =
         0.03041    0.00669    0.00177   -0.00129
O5    5    0.351344    0.795579    0.666561    11.00000    0.01861    0.05333 =
         0.03575    0.01411    0.00323    0.00137
C2    1    0.396146    0.778068    0.697811    11.00000    0.01579    0.03263 =
         0.02810   -0.00441    0.00102    0.00090
C8    1    0.511083    0.783660    0.703861    11.00000    0.01942    0.04190 =
         0.02562   -0.00097    0.00004    0.00251
AFIX  43
H8    2    0.509130    0.775689    0.746289    11.00000   -1.20000
AFIX   0
C1    1    0.625574    0.793597    0.709932    11.00000    0.01858    0.03588 =
         0.02886   -0.00326   -0.00331    0.00103
C7    1    0.567507    0.793165    0.675382    11.00000    0.01639    0.04778 =
         0.02795   -0.00143   -0.00075    0.00093
C6    1    0.569219    0.803128    0.612360    11.00000    0.01516    0.09440 =
         0.02601   -0.00139   -0.00086   -0.00320
AFIX  43
H6    2    0.606867    0.811703    0.592952    11.00000   -1.20000
AFIX   0
C3    1    0.457427    0.786065    0.668891    11.00000    0.01901    0.05016 =
         0.02580   -0.00262    0.00172   -0.00132
C4    1    0.459645    0.794997    0.606985    11.00000    0.01904    0.08170 =
         0.02778    0.00219   -0.00367   -0.00347
AFIX  43
H4    2    0.423208    0.797386    0.583872    11.00000   -1.20000
AFIX   0
C5    1    0.516489    0.800528    0.578463    11.00000    0.02017    0.12716 =
         0.01982    0.00572    0.00225   -0.00380
O6    5    0.763297    0.886282    0.627831    11.00000    0.05071    0.04275 =
         0.03747    0.01138    0.00590    0.00160
AFIX   7
H6A   2    0.767247    0.926892    0.631790    11.00000   -1.50000
H6B   2    0.760457    0.880392    0.587391    11.00000   -1.50000
AFIX   0
N1    4    0.524182    0.802665    0.513964    11.00000    0.01950    0.16231 =
         0.02179   -0.00322    0.00044   -0.00092
HKLF 4




REM  PCN-250_AfterActivation in P-43n #218
REM wR2 = 0.1273, GooF = S = 1.102, Restrained GooF = 1.102 for all data
REM R1 = 0.0414 for 3835 Fo > 4sig(Fo) and 0.0468 for all 4288 data
REM 142 parameters refined using 0 restraints

END  
     
WGHT      0.0786      0.0000 

REM Highest difference peak  0.426,  deepest hole -0.544,  1-sigma level  0.083
Q1    1   0.7575  1.0038  0.6227  11.00000  0.05    0.36
Q2    1   0.7439  0.8776  0.5173  11.00000  0.05    0.35
Q3    1   0.5245  0.7414  0.5368  11.00000  0.05    0.27
Q4    1   0.7761  0.9620  0.6013  11.00000  0.05    0.24
Q5    1   0.4215  0.7760  0.5350  11.00000  0.05    0.24
Q6    1   0.5136  0.8171  0.5776  11.00000  0.05    0.23
Q7    1   0.8005  0.9355  0.6155  11.00000  0.05    0.23
Q8    1   0.4755  0.7554  0.5568  11.00000  0.05    0.23
Q9    1   0.5030  0.8031  0.5783  11.00000  0.05    0.23
Q10   1   0.4837  0.7452  0.5633  11.00000  0.05    0.22
Q11   1   0.5187  0.7626  0.4745  11.00000  0.05    0.22
Q12   1   0.4098  0.7876  0.5379  11.00000  0.05    0.22
Q13   1   0.5597  0.7608  0.5369  11.00000  0.05    0.21
Q14   1   0.5806  0.7788  0.5211  11.00000  0.05    0.21
Q15   1   0.5639  0.7624  0.4767  11.00000  0.05    0.21
Q16   1   0.4575  0.7829  0.6147  11.00000  0.05    0.20
Q17   1   0.5586  0.7457  0.5873  11.00000  0.05    0.20
Q18   1   0.5980  0.7975  0.5385  11.00000  0.05    0.20
Q19   1   0.5843  0.7812  0.5330  11.00000  0.05    0.19
Q20   1   0.7428  0.9432  0.6330  11.00000  0.05    0.19

  REM The information below was added by Olex2.
  REM
  REM R1 = 0.0414 for 3835 Fo > 4sig(Fo) and 0.0468 for all 71542 data
  REM n/a parameters refined using n/a restraints
  REM Highest difference peak 0.43, deepest hole -0.54
  REM Mean Shift 0, Max Shift 0.001.

  REM +++ Tabular Listing of Refinement Information +++
  REM R1_all = 0.0468
  REM R1_gt = 0.0414
  REM wR_ref = 0.1273
  REM GOOF = 1.102
  REM Shift_max = 0.001
  REM Shift_mean = 0
  REM Reflections_all = 71542
  REM Reflections_gt = 3835
  REM Parameters = n/a
  REM Hole = -0.54
  REM Peak = 0.43
  REM Flack = n/a

  
;
_cod_data_source_file            c9cc04555d2.cif
_cod_data_source_block           pcn-250_afteractivation
_cod_original_cell_volume        10623.9(7)
_cod_database_code               7124224
_shelx_shelxl_version_number     2018/3
_shelx_space_group_comment
;
The symmetry employed for this shelxl refinement is uniquely defined
by the following loop, which should always be used as a source of
symmetry information in preference to the above space-group names.
They are only intended as comments.
;
_shelx_estimated_absorpt_t_max   0.956
_shelx_estimated_absorpt_t_min   0.915
_olex2_refinement_description
;
1. Twinned data refinement
 Scales: 0.91(3)
 0.09(3)
2. Fixed Uiso
 At 1.2 times of:
  All C(H) groups
 At 1.5 times of:
  All O(H,H) groups
3.a Rotating group:
 O6(H6A,H6B)
3.b Aromatic/amide H refined with riding coordinates:
 C8(H8), C6(H6), C4(H4)
;
_shelx_fab_file
;
 0 1 1 26.13 1.67
 0 0 2 1049.06 -1.93
 0 1 2 8.90 1.41
 0 2 2 -293.09 0.87
 0 1 3 -382.24 -1.27
 1 2 3 40.14 -1.12
 1 1 4 -79.50 7.17
 2 2 4 -4.46 -38.96
 0 2 4 -32.34 -0.03
 3 3 4 -5.58 26.90
 2 3 4 8.33 -1.42
 1 3 4 -9.61 19.16
 0 3 4 -14.06 -0.16
 1 2 5 109.39 26.55
 3 4 5 8.15 4.14
 2 4 5 -13.29 -8.48
 1 4 5 18.13 8.76
 0 4 5 27.55 0.10
 4 5 5 -10.94 -14.45
 2 5 5 -6.74 -13.11
 0 0 6 63.11 2.51
 1 1 6 -9.96 4.80
 0 2 6 -6.98 5.21
 2 2 6 19.67 27.75
 3 3 6 11.45 -19.30
 1 3 6 33.90 -0.79
 4 4 6 -5.28 -10.24
 3 4 6 -49.74 -15.67
 2 4 6 13.57 12.17
 1 4 6 -38.96 -17.18
 0 4 6 -3.95 0.51
 5 5 6 -7.83 4.72
 4 5 6 -0.45 8.93
 3 5 6 11.26 -19.52
 1 5 6 -7.82 -11.36
 4 6 6 13.83 -8.01
 2 6 6 -4.80 7.11
 1 2 7 -52.06 25.30
 2 3 7 -14.91 19.22
 1 3 7 -23.60 -2.46
 0 3 7 -9.65 -0.02
 3 4 7 -0.46 0.25
 2 4 7 -18.22 -14.08
 1 4 7 -6.79 2.24
 0 4 7 6.01 0.33
 4 5 7 11.74 -5.62
 3 5 7 -1.21 -2.95
 2 5 7 -4.23 7.34
 1 5 7 -16.22 -5.86
 0 5 7 -5.77 -0.77
 5 6 7 -17.23 0.22
 4 6 7 -4.35 -9.30
 3 6 7 6.95 -10.53
 2 6 7 -9.20 5.07
 1 6 7 11.70 -7.46
 0 6 7 -2.38 0.13
 6 7 7 -33.65 9.39
 4 7 7 8.09 -0.57
 2 7 7 7.69 -0.63
 0 7 7 6.87 -0.54
 0 0 8 14.97 -7.57
 0 1 8 2.79 0.79
 0 2 8 -20.90 -0.28
 1 2 8 5.23 7.95
 3 3 8 -18.12 32.27
 1 3 8 -24.77 24.77
 4 4 8 -12.68 -5.56
 3 4 8 14.72 17.92
 2 4 8 13.25 2.81
 0 4 8 1.88 -0.66
 5 5 8 -19.43 -11.02
 4 5 8 -8.80 -20.79
 3 5 8 -1.32 -4.68
 1 5 8 -21.08 13.38
 5 6 8 -5.15 2.39
 4 6 8 -5.08 -14.33
 3 6 8 -2.86 -6.98
 2 6 8 5.52 3.51
 1 6 8 7.30 -1.13
 6 7 8 16.74 -12.56
 5 7 8 12.43 -5.83
 4 7 8 16.95 -14.22
 3 7 8 13.53 -14.59
 2 7 8 -7.10 7.80
 1 7 8 8.72 6.67
 4 8 8 5.08 3.12
 2 8 8 8.77 28.32
 0 8 8 15.09 -0.23
 0 1 9 -26.84 7.18
 1 2 9 -0.38 7.16
 0 2 9 6.40 -1.17
 2 3 9 7.52 6.45
 1 3 9 8.68 1.33
 0 3 9 10.55 0.75
 3 4 9 6.10 8.60
 2 4 9 -14.42 -7.49
 1 4 9 6.99 2.75
 0 4 9 5.62 0.17
 4 5 9 8.19 5.85
 3 5 9 14.55 3.38
 2 5 9 -1.02 19.84
 1 5 9 20.64 3.18
 0 5 9 1.50 0.56
 5 6 9 -6.41 -2.17
 4 6 9 16.16 -20.82
 3 6 9 -16.19 -0.24
 2 6 9 12.80 -7.80
 1 6 9 -12.42 -3.23
 0 6 9 5.11 0.07
 6 7 9 0.52 6.16
 5 7 9 9.50 4.50
 4 7 9 0.92 -0.06
 3 7 9 3.51 -3.24
 2 7 9 -0.80 1.21
 1 7 9 13.89 -0.51
 0 7 9 -4.76 0.09
 7 8 9 4.90 40.79
 6 8 9 -0.88 -0.59
 5 8 9 10.57 3.02
 4 8 9 -0.24 -4.01
 3 8 9 -0.26 -6.07
 2 8 9 6.15 -13.12
 1 8 9 1.82 1.14
 0 8 9 -0.34 0.11
 8 9 9 -16.31 22.12
 6 9 9 19.96 -6.96
 4 9 9 -10.92 -14.06
 2 9 9 -2.10 -5.52
 0 9 9 -0.28 -0.03
 1 1 10 19.89 -14.29
 0 2 10 37.88 -2.70
 2 2 10 37.08 -21.73
 2 3 10 14.46 5.44
 1 3 10 8.51 -3.20
 3 4 10 -18.59 -3.22
 0 4 10 5.84 -2.44
 5 5 10 -0.19 -1.00
 4 5 10 2.30 -7.29
 2 5 10 3.87 -2.15
 1 5 10 -6.07 -1.91
 5 6 10 -1.18 1.98
 4 6 10 -2.43 3.20
 3 6 10 -19.51 -9.31
 2 6 10 2.50 3.30
 1 6 10 -17.88 -0.54
 0 6 10 2.88 -0.52
 7 7 10 2.83 21.72
 6 7 10 5.61 -0.80
 5 7 10 -0.79 1.47
 4 7 10 12.16 -1.41
 3 7 10 0.48 -6.33
 2 7 10 -10.78 -4.07
 1 7 10 -9.32 0.76
 0 7 10 -2.68 0.51
 7 8 10 6.48 -2.43
 5 8 10 4.70 -2.03
 4 8 10 13.72 -0.93
 3 8 10 -1.71 -0.22
 2 8 10 -5.75 13.32
 1 8 10 11.64 -1.44
 0 8 10 2.94 -0.47
 9 9 10 -21.10 8.38
 8 9 10 -6.67 -8.20
 6 9 10 -2.12 4.05
 5 9 10 -8.80 5.07
 4 9 10 4.51 3.94
 3 9 10 -1.09 3.72
 2 9 10 3.88 -1.25
 1 9 10 -2.03 0.09
 0 9 10 4.05 0.15
 10 10 10 -17.78 -0.26
 8 10 10 0.10 -11.91
 4 10 10 5.26 -2.41
 2 10 10 -4.66 7.11
 0 10 10 6.19 -1.16
 0 1 11 -8.79 18.06
 1 2 11 -3.76 0.58
 0 2 11 7.19 -1.56
 2 3 11 -7.67 -1.04
 1 3 11 -10.17 0.22
 0 3 11 6.15 2.00
 3 4 11 -12.61 12.11
 2 4 11 -10.49 -2.12
 1 4 11 -22.68 -0.96
 0 4 11 1.56 -0.46
 4 5 11 -6.58 8.68
 3 5 11 3.17 -1.42
 2 5 11 -6.14 10.11
 1 5 11 1.73 -2.01
 0 5 11 -2.30 0.57
 5 6 11 -0.25 -8.40
 4 6 11 1.69 -3.42
 3 6 11 -2.38 2.60
 2 6 11 -0.27 -8.23
 1 6 11 4.38 -5.97
 0 6 11 -3.92 -0.27
 6 7 11 6.98 -14.41
 5 7 11 2.38 2.95
 4 7 11 -3.58 -1.00
 3 7 11 -14.92 -4.78
 2 7 11 7.74 3.07
 1 7 11 -7.77 -5.38
 0 7 11 -2.70 -0.61
 7 8 11 2.01 -2.33
 6 8 11 -0.95 1.21
 5 8 11 1.99 -13.94
 4 8 11 -4.37 11.61
 3 8 11 3.31 -6.11
 2 8 11 4.59 -3.71
 1 8 11 11.39 -4.23
 0 8 11 10.89 0.65
 8 9 11 -8.75 -1.25
 7 9 11 -0.79 -2.17
 6 9 11 9.18 -7.13
 5 9 11 -1.79 -8.36
 4 9 11 -15.00 -3.34
 3 9 11 -3.24 -2.57
 2 9 11 0.74 5.25
 1 9 11 -0.43 -1.90
 0 9 11 -4.36 0.41
 9 10 11 -2.54 -3.03
 8 10 11 -1.29 3.52
 7 10 11 -0.84 0.70
 6 10 11 0.84 -3.47
 5 10 11 -3.53 -2.89
 4 10 11 -0.67 7.09
 3 10 11 10.25 2.68
 2 10 11 9.69 3.97
 1 10 11 2.02 -0.17
 10 11 11 9.05 1.39
 8 11 11 -0.21 2.21
 6 11 11 7.09 0.59
 4 11 11 -1.50 1.21
 2 11 11 6.54 10.84
 0 11 11 -2.05 1.32
 0 0 12 -11.64 10.55
 1 1 12 -28.52 -4.71
 0 1 12 1.40 -1.04
 2 2 12 8.81 4.66
 1 2 12 -8.89 -0.11
 0 2 12 -9.28 2.81
 2 3 12 4.68 3.20
 1 3 12 -4.45 -2.10
 0 3 12 4.13 -0.15
 3 3 12 -3.38 -7.66
 4 4 12 6.11 -13.85
 3 4 12 8.46 -7.61
 2 4 12 4.92 -0.34
 1 4 12 0.99 2.02
 0 4 12 -15.95 -1.02
 5 5 12 -7.84 1.16
 4 5 12 -12.67 -1.12
 3 5 12 -0.39 -12.34
 2 5 12 -3.66 4.08
 1 5 12 8.32 2.62
 0 5 12 17.52 -0.20
 6 6 12 -7.16 13.77
 5 6 12 2.15 9.00
 4 6 12 3.91 -2.90
 3 6 12 -0.80 -2.67
 2 6 12 -1.20 1.16
 1 6 12 -9.92 2.32
 0 6 12 -3.51 1.24
 7 7 12 3.63 -0.99
 6 7 12 -4.43 -2.12
 5 7 12 -4.47 1.59
 4 7 12 -3.90 0.05
 3 7 12 -5.97 -1.69
 2 7 12 -5.86 1.15
 1 7 12 22.66 3.48
 0 7 12 6.07 0.42
 8 8 12 3.69 1.73
 7 8 12 1.66 2.79
 6 8 12 -0.33 7.82
 5 8 12 0.44 2.96
 4 8 12 13.30 -0.97
 3 8 12 1.99 -5.07
 2 8 12 -0.28 -5.11
 1 8 12 -2.43 -4.60
 0 8 12 1.85 -0.19
 9 9 12 6.70 1.28
 8 9 12 2.22 -3.64
 7 9 12 7.25 1.31
 6 9 12 1.42 2.05
 5 9 12 1.81 0.31
 4 9 12 -0.70 -1.72
 3 9 12 -2.60 2.19
 2 9 12 0.37 3.26
 1 9 12 5.62 -2.97
 0 9 12 6.28 0.23
 10 10 12 -4.75 0.51
 9 10 12 -0.09 -0.16
 8 10 12 2.87 1.01
 7 10 12 -3.44 9.22
 6 10 12 -5.02 -3.49
 5 10 12 -1.92 10.01
 4 10 12 2.92 2.87
 3 10 12 6.09 -3.55
 2 10 12 2.60 -1.65
 1 10 12 1.06 -2.11
 0 10 12 -1.47 -0.35
 11 11 12 -1.60 0.78
 10 11 12 -2.23 0.56
 9 11 12 -0.42 -0.52
 8 11 12 2.94 -0.63
 7 11 12 1.49 -2.98
 6 11 12 -1.54 0.76
 5 11 12 -3.79 -5.03
 4 11 12 -5.81 -6.33
 3 11 12 -2.26 0.42
 2 11 12 -0.08 -2.27
 1 11 12 1.00 0.24
 0 11 12 1.07 -0.13
 12 12 12 3.57 -1.74
 10 12 12 2.13 -3.91
 8 12 12 8.45 0.86
 6 12 12 10.46 -1.60
 4 12 12 18.83 4.41
 2 12 12 15.54 -2.83
 0 12 12 -0.38 -0.09
 0 1 13 -2.98 2.73
 1 2 13 19.72 0.93
 0 2 13 -2.77 -0.46
 2 3 13 3.25 -3.76
 1 3 13 12.31 2.92
 0 3 13 -0.68 -1.51
 3 4 13 5.25 3.44
 2 4 13 -2.96 9.11
 1 4 13 2.68 0.48
 0 4 13 9.21 -1.03
 4 5 13 -0.91 0.69
 3 5 13 9.67 6.92
 2 5 13 0.23 -7.73
 1 5 13 26.62 3.35
 0 5 13 -2.91 0.11
 5 6 13 -0.22 -2.13
 4 6 13 -1.21 -0.80
 3 6 13 -4.04 6.41
 2 6 13 1.93 0.35
 1 6 13 -4.10 -1.42
 0 6 13 4.87 0.41
 6 7 13 3.99 -7.20
 5 7 13 4.00 -1.14
 4 7 13 0.74 -2.53
 3 7 13 -2.93 0.82
 2 7 13 6.66 -5.80
 1 7 13 -2.02 -0.61
 0 7 13 -4.55 -0.37
 7 8 13 0.82 -1.70
 6 8 13 12.88 3.07
 5 8 13 0.00 -2.97
 4 8 13 1.17 2.09
 3 8 13 -6.20 6.76
 2 8 13 -1.46 2.84
 1 8 13 -0.44 0.84
 0 8 13 -7.34 0.67
 8 9 13 -3.82 -2.36
 7 9 13 5.63 10.44
 6 9 13 0.17 2.59
 5 9 13 2.98 1.23
 4 9 13 -4.23 2.34
 3 9 13 9.53 8.01
 2 9 13 0.80 -1.02
 1 9 13 -0.33 4.13
 0 9 13 -2.85 0.29
 9 10 13 0.86 -4.15
 8 10 13 -2.50 -0.24
 7 10 13 -0.53 -1.84
 6 10 13 7.67 -0.34
 5 10 13 1.59 3.42
 4 10 13 -2.73 -3.27
 3 10 13 8.47 4.79
 2 10 13 0.02 1.38
 1 10 13 4.66 1.32
 0 10 13 2.11 -0.42
 10 11 13 4.94 0.79
 9 11 13 -3.00 -5.76
 8 11 13 -1.00 -0.44
 7 11 13 0.46 1.14
 6 11 13 -0.06 -1.09
 5 11 13 -2.99 -0.48
 4 11 13 3.59 -3.56
 3 11 13 4.65 1.78
 2 11 13 0.68 0.33
 1 11 13 -2.79 -0.85
 0 11 13 1.03 0.16
 11 12 13 -0.55 3.78
 10 12 13 3.36 -0.27
 9 12 13 -0.08 6.44
 8 12 13 -2.24 -4.42
 7 12 13 4.41 1.09
 6 12 13 -2.31 -2.36
 5 12 13 0.69 -1.98
 4 12 13 -0.98 -1.99
 3 12 13 -6.76 -1.36
 2 12 13 -3.66 1.31
 1 12 13 -0.41 1.63
 0 12 13 -1.53 0.28
 12 13 13 -0.68 0.50
 10 13 13 -1.25 -0.60
 8 13 13 -2.18 0.20
 6 13 13 -1.49 2.90
 4 13 13 1.13 0.00
 2 13 13 -7.13 1.84
 0 13 13 2.18 0.60
 0 1 14 3.36 -0.33
 1 2 14 4.24 -3.42
 3 3 14 18.12 -13.09
 2 3 14 -0.18 -6.09
 1 3 14 28.55 2.18
 0 3 14 1.73 -0.22
 4 4 14 0.11 -6.46
 3 4 14 0.48 -2.14
 2 4 14 4.77 -2.62
 1 4 14 5.26 -3.02
 0 4 14 3.17 -0.75
 5 5 14 5.24 11.65
 4 5 14 1.70 -0.92
 3 5 14 0.67 -10.44
 2 5 14 -3.73 1.12
 1 5 14 0.14 2.98
 0 5 14 -2.00 0.18
 6 6 14 1.51 5.81
 5 6 14 -2.55 5.24
 4 6 14 -0.34 4.44
 3 6 14 -4.51 2.64
 2 6 14 -3.55 5.66
 1 6 14 -4.02 1.83
 0 6 14 3.82 0.65
 7 7 14 2.48 2.45
 6 7 14 -7.60 -4.92
 5 7 14 2.87 8.08
 4 7 14 3.44 -1.15
 3 7 14 -7.35 -6.32
 2 7 14 1.42 0.79
 1 7 14 -1.59 -1.70
 0 7 14 -0.80 -0.04
 8 8 14 3.63 3.83
 7 8 14 0.81 2.79
 6 8 14 4.00 8.11
 5 8 14 0.74 -4.03
 4 8 14 -3.15 5.50
 3 8 14 0.82 2.18
 2 8 14 -2.15 -2.77
 1 8 14 -0.53 0.18
 0 8 14 6.59 -0.05
 9 9 14 -3.11 2.76
 8 9 14 1.80 -2.64
 7 9 14 -1.19 2.71
 6 9 14 1.16 0.31
 5 9 14 6.90 7.50
 4 9 14 5.72 0.24
 3 9 14 4.27 -2.35
 2 9 14 2.69 3.90
 1 9 14 -0.95 -7.80
 0 9 14 -2.21 -0.39
 10 10 14 -2.30 2.41
 9 10 14 4.32 -1.24
 8 10 14 2.03 1.39
 7 10 14 1.24 -1.16
 6 10 14 -2.29 -2.00
 5 10 14 -0.97 -2.82
 4 10 14 -14.91 4.08
 3 10 14 -0.77 -0.59
 2 10 14 -4.75 0.82
 1 10 14 -8.63 3.38
 0 10 14 -1.28 0.05
 11 11 14 -1.87 -8.33
 10 11 14 -1.81 -1.32
 9 11 14 -1.90 -5.13
 8 11 14 0.14 0.58
 7 11 14 -2.30 -1.98
 6 11 14 -2.90 1.98
 5 11 14 0.06 2.52
 4 11 14 -3.24 3.27
 3 11 14 -1.34 0.60
 2 11 14 3.98 -2.68
 1 11 14 -1.10 -0.44
 0 11 14 -1.28 -0.38
 12 12 14 -5.71 0.96
 11 12 14 1.10 3.05
 10 12 14 -3.71 0.75
 9 12 14 -2.05 1.19
 8 12 14 1.91 3.25
 7 12 14 -2.23 -1.32
 6 12 14 1.25 -0.02
 5 12 14 -4.20 0.22
 4 12 14 -0.89 1.30
 3 12 14 -1.30 -0.68
 2 12 14 1.13 -0.67
 1 12 14 -0.76 2.00
 0 12 14 -3.09 0.46
 13 13 14 0.63 2.26
 12 13 14 -0.91 1.53
 11 13 14 0.18 -1.11
 10 13 14 -0.47 -4.08
 9 13 14 -0.38 0.14
 8 13 14 -2.85 -1.63
 7 13 14 1.32 0.83
 6 13 14 -0.57 -4.23
 5 13 14 4.25 1.34
 4 13 14 -1.02 -1.38
 3 13 14 -1.98 -0.99
 2 13 14 6.20 -6.87
 1 13 14 1.15 1.16
 0 13 14 -1.17 -1.12
 14 14 14 1.99 -2.56
 12 14 14 -2.48 0.06
 10 14 14 -2.59 2.48
 8 14 14 0.61 2.96
 6 14 14 -2.28 -0.03
 4 14 14 -3.34 0.53
 2 14 14 -0.21 7.11
 0 14 14 3.25 0.74
 0 1 15 -4.61 -5.14
 1 2 15 5.72 1.35
 0 2 15 -6.22 0.91
 2 3 15 -3.78 -4.89
 1 3 15 -21.27 1.47
 0 3 15 0.27 -1.29
 3 4 15 2.28 -8.24
 2 4 15 -15.10 7.13
 1 4 15 4.38 -3.22
 0 4 15 -3.45 0.26
 4 5 15 -2.17 5.64
 3 5 15 -9.39 0.24
 2 5 15 -2.68 -6.08
 1 5 15 -15.22 -0.87
 0 5 15 0.11 -0.29
 5 6 15 -2.23 6.76
 4 6 15 -5.73 -0.07
 3 6 15 -2.52 0.76
 2 6 15 -11.73 1.11
 1 6 15 -0.50 -1.73
 0 6 15 -4.98 0.64
 6 7 15 -3.69 3.25
 5 7 15 -2.21 -3.88
 4 7 15 -0.67 2.17
 3 7 15 -3.97 -5.93
 2 7 15 2.21 -2.52
 1 7 15 -1.84 -2.56
 0 7 15 -2.77 -0.09
 7 8 15 -1.65 1.89
 6 8 15 0.82 5.01
 5 8 15 2.16 -1.08
 4 8 15 -1.73 0.44
 3 8 15 0.88 -1.85
 2 8 15 -3.13 6.29
 1 8 15 6.01 -1.72
 0 8 15 -7.77 -0.09
 8 9 15 1.31 -6.01
 7 9 15 -0.40 1.88
 6 9 15 -2.06 0.17
 5 9 15 -6.27 -5.41
 4 9 15 -0.46 -0.14
 3 9 15 1.25 -1.16
 2 9 15 -0.33 -1.67
 1 9 15 2.73 2.81
 0 9 15 -1.44 0.13
 9 10 15 2.60 -1.81
 8 10 15 -3.64 1.20
 7 10 15 -4.73 -2.47
 6 10 15 -1.10 3.96
 5 10 15 1.14 0.36
 4 10 15 1.70 -2.84
 3 10 15 12.08 -4.29
 2 10 15 6.31 1.94
 1 10 15 5.60 -1.97
 0 10 15 5.31 -0.88
 10 11 15 1.78 5.14
 9 11 15 -2.83 -2.88
 8 11 15 0.74 -0.19
 7 11 15 -2.71 -3.85
 6 11 15 -2.53 -1.08
 5 11 15 -5.18 -4.01
 4 11 15 1.08 -0.16
 3 11 15 0.95 0.11
 2 11 15 -4.16 2.57
 1 11 15 -1.06 -0.09
 0 11 15 0.61 -0.57
 11 12 15 -0.74 -1.27
 10 12 15 1.98 3.52
 9 12 15 3.43 0.51
 8 12 15 0.89 -2.71
 7 12 15 -0.41 -1.33
 6 12 15 -3.93 -1.34
 5 12 15 -3.57 0.35
 4 12 15 4.08 -1.65
 3 12 15 0.98 -2.58
 2 12 15 0.29 -1.53
 1 12 15 2.48 -1.02
 0 12 15 -1.42 0.40
 12 13 15 1.13 -1.63
 11 13 15 1.34 2.69
 10 13 15 -0.32 1.06
 9 13 15 0.84 3.05
 8 13 15 0.88 -3.36
 7 13 15 3.54 1.00
 6 13 15 -3.12 -1.67
 5 13 15 2.67 1.30
 4 13 15 -0.81 -0.01
 3 13 15 1.89 3.68
 2 13 15 -6.24 1.45
 1 13 15 2.73 0.22
 0 13 15 0.92 0.10
 13 14 15 2.24 3.45
 12 14 15 -1.95 -2.68
 11 14 15 -0.12 1.15
 10 14 15 -3.52 3.65
 9 14 15 1.06 -1.71
 8 14 15 1.15 -0.81
 7 14 15 -3.16 -1.30
 6 14 15 -2.30 1.12
 5 14 15 -4.37 2.58
 4 14 15 3.81 1.85
 3 14 15 0.21 -0.16
 2 14 15 -2.01 -0.42
 1 14 15 0.12 -1.58
 0 14 15 -0.37 2.07
 14 15 15 2.29 4.78
 12 15 15 1.06 1.80
 10 15 15 -4.80 0.01
 8 15 15 0.26 -7.02
 6 15 15 -4.87 -2.66
 4 15 15 -1.06 2.45
 2 15 15 3.05 4.11
 0 15 15 1.86 0.28
 0 1 16 1.79 0.80
 2 2 16 11.91 13.92
 1 2 16 0.75 -3.50
 3 3 16 -25.87 14.92
 2 3 16 1.47 -1.08
 1 3 16 -15.55 13.61
 0 3 16 -2.99 0.26
 4 4 16 -9.20 -0.93
 3 4 16 3.08 0.77
 2 4 16 -3.09 2.79
 1 4 16 1.01 1.03
 0 4 16 0.80 0.63
 5 5 16 -3.78 3.80
 4 5 16 -3.10 -1.86
 3 5 16 -8.77 4.44
 2 5 16 -0.17 -0.15
 1 5 16 -12.79 6.05
 0 5 16 -0.98 0.25
 6 6 16 -2.34 -3.27
 5 6 16 2.69 0.66
 4 6 16 -1.98 -2.72
 3 6 16 0.54 2.09
 2 6 16 -2.48 2.21
 1 6 16 -2.73 1.46
 0 6 16 -0.02 -0.15
 7 7 16 1.41 -3.40
 6 7 16 -1.67 2.31
 5 7 16 -2.03 -2.58
 4 7 16 1.85 -0.38
 3 7 16 2.85 1.28
 2 7 16 4.59 -1.59
 1 7 16 9.13 3.96
 0 7 16 3.31 -0.09
 8 8 16 -10.82 -2.27
 7 8 16 -4.93 -5.72
 6 8 16 -3.27 -0.36
 5 8 16 -3.10 -4.71
 4 8 16 -3.60 -6.85
 3 8 16 -0.84 3.72
 2 8 16 -2.76 -3.63
 1 8 16 5.37 -1.72
 0 8 16 -4.41 0.02
 9 9 16 -1.34 -1.03
 8 9 16 0.21 0.86
 7 9 16 -3.42 -2.42
 6 9 16 2.53 -0.83
 5 9 16 -2.27 -1.00
 4 9 16 -1.16 -3.38
 3 9 16 5.78 0.66
 2 9 16 2.95 1.53
 1 9 16 7.72 0.27
 0 9 16 1.22 0.19
 10 10 16 -2.37 0.14
 9 10 16 1.33 0.52
 8 10 16 -3.22 -1.66
 7 10 16 0.55 -0.15
 6 10 16 4.23 1.64
 5 10 16 -0.57 2.69
 4 10 16 2.92 3.46
 3 10 16 0.72 0.68
 2 10 16 5.93 3.54
 1 10 16 -0.45 -1.49
 0 10 16 0.45 -0.19
 11 11 16 -3.92 -0.64
 10 11 16 1.85 1.08
 9 11 16 0.51 -2.58
 8 11 16 -0.30 2.41
 7 11 16 0.98 -0.70
 6 11 16 0.84 -0.18
 5 11 16 -0.70 0.01
 4 11 16 -4.20 3.39
 3 11 16 -0.59 0.66
 2 11 16 -0.56 0.91
 1 11 16 -2.98 3.71
 0 11 16 -5.68 0.18
 12 12 16 -2.41 1.56
 11 12 16 -0.04 -1.02
 10 12 16 1.48 -0.44
 9 12 16 -5.90 -1.15
 8 12 16 1.97 -1.60
 7 12 16 -1.09 -0.29
 6 12 16 0.10 0.98
 5 12 16 -1.59 2.87
 4 12 16 3.56 0.89
 3 12 16 1.11 -2.65
 2 12 16 4.84 -1.15
 1 12 16 3.50 -2.04
 0 12 16 -3.04 -0.02
 13 13 16 -5.01 -1.87
 12 13 16 0.19 3.90
 11 13 16 -1.20 1.00
 10 13 16 3.02 -3.07
 9 13 16 2.25 0.25
 8 13 16 -0.04 -0.43
 7 13 16 0.93 -0.02
 6 13 16 0.50 -1.28
 5 13 16 -0.15 -2.36
 4 13 16 -1.03 1.80
 3 13 16 1.47 -1.59
 2 13 16 2.95 -1.62
 1 13 16 1.60 3.31
 0 13 16 0.90 -0.34
 14 14 16 1.26 -0.12
 13 14 16 0.71 1.83
 12 14 16 -0.20 -0.58
 11 14 16 2.22 0.67
 10 14 16 1.57 -0.52
 9 14 16 -2.06 -2.33
 8 14 16 1.34 -2.07
 7 14 16 1.16 -0.33
 6 14 16 0.30 0.17
 5 14 16 0.88 1.47
 4 14 16 0.47 -0.61
 3 14 16 0.72 -0.94
 2 14 16 3.59 3.23
 1 14 16 -1.55 -2.47
 0 14 16 3.51 -0.07
 15 15 16 2.44 -1.32
 14 15 16 1.20 -1.45
 13 15 16 0.24 -1.31
 12 15 16 1.61 4.31
 11 15 16 -0.17 1.58
 10 15 16 2.29 0.45
 9 15 16 0.90 1.41
 8 15 16 0.53 1.07
 7 15 16 -0.93 -1.50
 6 15 16 1.90 -0.40
 5 15 16 -5.51 -2.21
 4 15 16 -1.24 -2.76
 3 15 16 -2.62 -1.60
 2 15 16 0.06 1.26
 1 15 16 -2.54 1.62
 0 15 16 2.04 -0.50
 16 16 16 2.51 6.04
 14 16 16 1.20 4.02
 12 16 16 2.57 -1.76
 10 16 16 1.81 -4.07
 8 16 16 -0.63 -6.74
 6 16 16 1.89 -0.03
 4 16 16 -2.58 0.09
 2 16 16 -1.57 3.35
 0 16 16 0.29 -0.05
 0 1 17 -3.14 1.44
 1 2 17 -17.54 10.77
 0 2 17 -3.79 -2.07
 2 3 17 -14.85 10.17
 1 3 17 17.74 1.58
 0 3 17 2.76 2.29
 3 4 17 3.45 1.15
 2 4 17 -0.68 -0.92
 1 4 17 -2.08 3.58
 0 4 17 5.68 -0.63
 4 5 17 4.84 3.01
 3 5 17 1.57 -3.52
 2 5 17 -7.43 0.75
 1 5 17 5.54 -2.12
 0 5 17 2.41 -0.05
 5 6 17 1.60 1.17
 4 6 17 3.77 4.39
 3 6 17 1.45 3.35
 2 6 17 1.14 -3.01
 1 6 17 -2.22 3.42
 0 6 17 3.97 -0.13
 6 7 17 -1.92 0.50
 5 7 17 3.39 2.08
 4 7 17 0.24 -1.06
 3 7 17 -0.27 -2.55
 2 7 17 -1.13 -0.10
 1 7 17 3.28 -1.24
 0 7 17 0.56 -0.04
 7 8 17 -0.78 0.16
 6 8 17 -1.52 -0.75
 5 8 17 -2.27 -1.18
 4 8 17 2.99 1.80
 3 8 17 -2.64 -0.66
 2 8 17 1.99 -1.01
 1 8 17 0.31 1.22
 0 8 17 1.91 0.23
 8 9 17 2.09 -2.89
 7 9 17 -0.54 1.90
 6 9 17 1.00 0.86
 5 9 17 2.02 0.14
 4 9 17 1.40 -4.57
 3 9 17 -2.12 -2.52
 2 9 17 3.62 -3.30
 1 9 17 4.00 1.77
 0 9 17 1.41 0.28
 9 10 17 2.47 3.98
 8 10 17 0.93 -1.18
 7 10 17 -1.30 -1.31
 6 10 17 -0.37 0.41
 5 10 17 -1.35 -0.55
 4 10 17 1.20 -0.83
 3 10 17 0.59 -0.99
 2 10 17 -0.49 -2.18
 1 10 17 -4.59 1.15
 0 10 17 3.44 0.13
 10 11 17 3.74 5.60
 9 11 17 0.44 0.89
 8 11 17 1.34 1.88
 7 11 17 -0.32 0.32
 6 11 17 0.30 3.27
 5 11 17 0.05 0.98
 4 11 17 2.96 2.78
 3 11 17 -1.10 -1.93
 2 11 17 2.65 3.92
 1 11 17 -0.80 -0.74
 0 11 17 3.31 0.17
 11 12 17 -0.37 1.93
 10 12 17 -1.21 3.53
 9 12 17 2.19 0.50
 8 12 17 1.27 0.37
 7 12 17 2.14 -2.12
 6 12 17 0.15 3.50
 5 12 17 1.39 0.17
 4 12 17 3.64 4.80
 3 12 17 0.79 3.32
 2 12 17 -1.25 2.26
 1 12 17 1.33 1.24
 0 12 17 2.53 -0.06
 12 13 17 0.48 -0.40
 11 13 17 1.28 -0.43
 10 13 17 3.71 0.19
 9 13 17 -0.16 -0.68
 8 13 17 1.32 -1.04
 7 13 17 2.28 -0.32
 6 13 17 -0.49 -0.86
 5 13 17 -1.40 -0.91
 4 13 17 4.20 2.25
 3 13 17 -2.00 -1.28
 2 13 17 -0.24 -0.64
 1 13 17 1.10 -1.36
 0 13 17 -2.20 0.02
 13 14 17 -0.68 1.33
 12 14 17 1.43 -3.82
 11 14 17 -1.09 3.12
 10 14 17 -1.41 2.51
 9 14 17 1.25 -1.80
 8 14 17 0.10 0.59
 7 14 17 0.73 -2.83
 6 14 17 0.05 0.28
 5 14 17 0.04 -0.56
 4 14 17 0.12 1.88
 3 14 17 0.22 1.53
 2 14 17 -3.66 3.03
 1 14 17 -0.05 -1.62
 0 14 17 -1.26 0.88
 14 15 17 0.92 0.48
 13 15 17 -2.09 -2.16
 12 15 17 0.72 0.49
 11 15 17 0.71 -4.77
 10 15 17 -2.75 -0.77
 9 15 17 0.92 -3.49
 8 15 17 1.40 -1.07
 7 15 17 0.57 0.76
 6 15 17 0.62 -0.21
 5 15 17 -0.53 2.22
 4 15 17 1.14 1.07
 3 15 17 -0.31 -0.46
 2 15 17 2.05 -0.43
 1 15 17 0.57 -0.19
 0 15 17 -6.62 -0.49
 15 16 17 -0.27 -0.27
 14 16 17 -1.09 2.45
 13 16 17 -1.65 -2.52
 12 16 17 0.60 -0.90
 11 16 17 -0.65 -1.32
 10 16 17 -0.80 0.32
 9 16 17 0.42 -1.49
 8 16 17 -1.19 -1.23
 7 16 17 -0.20 -1.75
 6 16 17 -0.84 -3.86
 5 16 17 -2.10 -1.13
 4 16 17 -0.09 1.24
 3 16 17 -1.52 -0.69
 2 16 17 -0.47 0.67
 1 16 17 2.55 1.53
 0 16 17 -4.15 -0.08
 16 17 17 0.84 -1.96
 14 17 17 2.83 -4.26
 12 17 17 2.91 -2.08
 10 17 17 -0.61 -1.40
 8 17 17 0.83 -1.94
 6 17 17 -0.27 -1.94
 4 17 17 -4.71 -1.37
 2 17 17 2.45 3.03
 0 17 17 -0.75 -0.11
 0 0 18 -4.59 -3.26
 1 1 18 16.88 3.40
 0 1 18 0.62 1.90
 2 2 18 2.67 6.38
 1 2 18 -0.55 -0.94
 0 2 18 -0.86 -1.41
 3 3 18 10.78 10.56
 2 3 18 8.38 3.84
 1 3 18 19.43 5.09
 0 3 18 -4.74 1.51
 4 4 18 2.56 3.07
 3 4 18 -0.42 -0.96
 2 4 18 -2.13 1.68
 1 4 18 8.30 3.95
 0 4 18 -2.14 -0.08
 5 5 18 0.75 2.07
 4 5 18 -0.65 -0.13
 3 5 18 3.89 4.17
 2 5 18 4.12 1.62
 1 5 18 3.53 -0.47
 0 5 18 -1.53 0.29
 6 6 18 -0.71 2.41
 5 6 18 -2.16 -1.12
 4 6 18 3.38 2.57
 3 6 18 -2.65 -3.73
 2 6 18 -2.28 3.28
 1 6 18 0.39 -0.62
 0 6 18 1.65 -0.56
 7 7 18 8.19 -4.24
 6 7 18 1.74 1.27
 5 7 18 3.58 -4.09
 4 7 18 0.75 -0.39
 3 7 18 -1.59 2.38
 2 7 18 4.34 -1.66
 1 7 18 1.37 0.60
 0 7 18 2.02 -0.31
 8 8 18 2.08 1.47
 7 8 18 -0.45 -2.99
 6 8 18 -0.12 2.33
 5 8 18 1.01 1.73
 4 8 18 -0.03 -1.52
 3 8 18 1.97 4.62
 2 8 18 -1.93 1.02
 1 8 18 3.74 -0.45
 0 8 18 2.15 -0.58
 9 9 18 3.49 6.19
 8 9 18 -0.45 2.59
 7 9 18 -1.46 -0.11
 6 9 18 3.53 2.54
 5 9 18 -1.12 -0.46
 4 9 18 -6.58 -0.14
 3 9 18 -2.39 3.01
 2 9 18 -2.52 -0.04
 1 9 18 -1.96 -0.21
 0 9 18 -2.18 0.77
 10 10 18 1.53 1.47
 9 10 18 0.22 -2.67
 8 10 18 0.08 0.94
 7 10 18 -2.53 -1.82
 6 10 18 -0.84 3.89
 5 10 18 1.13 3.81
 4 10 18 -1.49 2.86
 3 10 18 3.07 2.51
 2 10 18 -1.77 -0.16
 1 10 18 -1.43 -0.41
 0 10 18 1.76 -1.49
 11 11 18 0.36 -1.02
 10 11 18 -0.63 1.64
 9 11 18 0.07 2.06
 8 11 18 -0.55 0.52
 7 11 18 -3.18 1.96
 6 11 18 1.59 -1.14
 5 11 18 -1.76 2.50
 4 11 18 -1.86 0.54
 3 11 18 -0.23 1.83
 2 11 18 -0.07 -2.68
 1 11 18 -2.76 0.02
 0 11 18 -0.61 0.20
 12 12 18 -1.38 0.88
 11 12 18 1.60 -0.07
 10 12 18 0.63 -0.04
 9 12 18 -1.55 -0.87
 8 12 18 -4.03 -1.73
 7 12 18 -2.75 -0.10
 6 12 18 -5.19 -1.09
 5 12 18 -0.70 -0.38
 4 12 18 -2.10 0.61
 3 12 18 -0.44 -2.47
 2 12 18 -1.22 -0.30
 1 12 18 0.29 -0.05
 0 12 18 -0.67 -0.95
 13 13 18 -3.45 -4.62
 12 13 18 -0.07 2.93
 11 13 18 0.45 -2.67
 10 13 18 0.30 -1.64
 9 13 18 -0.21 -1.53
 8 13 18 1.22 1.56
 7 13 18 -1.16 -0.60
 6 13 18 -0.48 1.66
 5 13 18 -1.58 1.29
 4 13 18 -0.90 0.69
 3 13 18 0.75 0.68
 2 13 18 -1.91 -4.62
 1 13 18 -3.37 -0.87
 0 13 18 2.02 -0.36
 14 14 18 0.20 -1.93
 13 14 18 -1.62 -0.33
 12 14 18 0.59 -1.02
 11 14 18 0.64 1.60
 10 14 18 0.72 1.65
 9 14 18 -0.12 0.12
 8 14 18 -3.05 1.49
 7 14 18 -1.54 0.20
 6 14 18 1.50 1.17
 5 14 18 0.04 -0.48
 4 14 18 0.72 -0.84
 3 14 18 0.70 -1.06
 2 14 18 1.06 1.55
 1 14 18 -2.26 -1.16
 0 14 18 2.39 -0.03
 15 15 18 0.59 -1.08
 14 15 18 0.73 0.33
 13 15 18 0.34 -0.92
 12 15 18 1.30 1.53
 11 15 18 0.26 0.73
 10 15 18 0.82 -0.25
 9 15 18 -1.61 1.24
 8 15 18 0.03 -0.50
 7 15 18 -0.36 -0.28
 6 15 18 -0.24 1.12
 5 15 18 0.34 1.57
 4 15 18 2.22 -0.36
 3 15 18 -0.27 -0.53
 2 15 18 -1.83 -0.41
 1 15 18 0.56 -0.75
 0 15 18 1.59 0.06
 16 16 18 0.04 0.04
 15 16 18 1.38 -5.27
 14 16 18 -0.58 0.80
 13 16 18 -0.65 -5.59
 12 16 18 4.06 -0.77
 11 16 18 -0.78 -1.15
 10 16 18 2.73 2.17
 9 16 18 0.20 1.21
 8 16 18 -1.73 0.25
 7 16 18 -1.60 -2.19
 6 16 18 1.85 2.52
 5 16 18 -2.18 -2.14
 4 16 18 -1.01 -0.71
 3 16 18 -0.44 0.32
 2 16 18 -2.25 1.07
 1 16 18 -1.40 -0.23
 0 16 18 -0.04 0.09
 15 17 18 -2.31 1.71
 14 17 18 0.60 1.47
 13 17 18 -1.11 -0.01
 12 17 18 0.87 1.00
 11 17 18 0.92 0.39
 10 17 18 -0.20 -1.17
 9 17 18 1.08 0.45
 8 17 18 -0.91 -3.13
 7 17 18 0.11 -0.47
 6 17 18 0.38 1.59
 5 17 18 1.50 -0.16
 4 17 18 3.38 -2.42
 3 17 18 -1.25 -3.44
 2 17 18 -0.47 0.18
 1 17 18 4.74 0.31
 0 17 18 2.11 0.02
 14 18 18 -2.18 -2.97
 12 18 18 1.91 -2.44
 10 18 18 1.11 3.01
 8 18 18 1.13 -0.41
 6 18 18 3.51 1.67
 4 18 18 4.96 1.46
 2 18 18 4.18 1.03
 0 18 18 4.52 -0.37
 0 1 19 4.07 0.76
 1 2 19 -5.50 0.59
 0 2 19 -1.53 -1.98
 2 3 19 -5.82 0.37
 1 3 19 -1.50 3.40
 0 3 19 4.22 1.74
 3 4 19 3.34 -2.79
 2 4 19 -1.02 0.93
 1 4 19 2.45 -1.08
 0 4 19 0.56 -0.64
 4 5 19 0.81 0.16
 3 5 19 0.67 -1.23
 2 5 19 -5.16 1.22
 1 5 19 -8.01 1.73
 0 5 19 1.69 0.42
 5 6 19 3.16 -1.41
 4 6 19 -2.43 -1.97
 3 6 19 3.93 -1.27
 2 6 19 -3.99 -2.37
 1 6 19 0.23 1.76
 0 6 19 -3.18 -1.02
 6 7 19 2.79 -2.41
 5 7 19 -1.62 -1.94
 4 7 19 -4.18 1.74
 3 7 19 -7.02 1.81
 2 7 19 -4.32 3.32
 1 7 19 -6.46 3.03
 0 7 19 -1.83 0.32
 7 8 19 4.20 -4.53
 6 8 19 -3.55 -3.80
 5 8 19 1.55 -0.80
 4 8 19 -1.27 -0.60
 3 8 19 2.35 -1.69
 2 8 19 0.36 -1.36
 1 8 19 1.95 2.19
 0 8 19 0.06 -0.26
 8 9 19 0.14 -0.42
 7 9 19 -3.51 -4.53
 6 9 19 0.85 0.71
 5 9 19 0.26 -2.96
 4 9 19 -3.06 -0.23
 3 9 19 -5.36 3.15
 2 9 19 1.71 0.90
 1 9 19 -2.03 4.26
 0 9 19 -1.46 0.84
 9 10 19 -2.69 3.09
 8 10 19 -0.54 -2.48
 7 10 19 -0.46 -0.52
 6 10 19 -0.98 -0.39
 5 10 19 -0.63 -0.45
 4 10 19 1.03 0.04
 3 10 19 -0.18 -1.80
 2 10 19 -1.24 -1.48
 1 10 19 -1.25 0.79
 0 10 19 -1.34 -0.03
 10 11 19 1.47 -0.82
 9 11 19 -2.10 -1.09
 8 11 19 0.22 1.71
 7 11 19 -3.05 -3.73
 6 11 19 -0.01 -0.09
 5 11 19 -0.13 -1.24
 4 11 19 -3.93 0.17
 3 11 19 0.88 -0.44
 2 11 19 0.53 2.57
 1 11 19 -0.71 -0.69
 0 11 19 0.61 0.44
 11 12 19 1.17 -1.28
 10 12 19 -2.65 2.52
 9 12 19 -3.35 -0.85
 8 12 19 -3.82 -1.23
 7 12 19 0.52 2.60
 6 12 19 -0.59 0.33
 5 12 19 1.34 0.83
 4 12 19 2.79 0.93
 3 12 19 -0.55 1.65
 2 12 19 0.02 -0.02
 1 12 19 1.66 0.30
 0 12 19 0.59 -0.31
 12 13 19 -0.02 2.14
 11 13 19 -0.08 -0.50
 10 13 19 2.45 -0.78
 9 13 19 -5.14 -2.95
 8 13 19 -0.98 -0.78
 7 13 19 0.02 0.23
 6 13 19 -1.59 -2.79
 5 13 19 0.31 -0.02
 4 13 19 -1.19 4.06
 3 13 19 0.32 1.48
 2 13 19 0.84 1.17
 1 13 19 -0.06 -0.28
 0 13 19 1.35 0.18
 13 14 19 1.82 1.56
 12 14 19 1.15 -3.38
 11 14 19 0.94 0.20
 10 14 19 0.07 0.10
 9 14 19 -4.15 -1.36
 8 14 19 -2.33 0.13
 7 14 19 1.11 1.43
 6 14 19 -0.26 -0.59
 5 14 19 1.82 -0.55
 4 14 19 -0.53 -1.19
 3 14 19 0.31 0.63
 2 14 19 1.65 1.55
 1 14 19 -0.11 -1.82
 0 14 19 0.91 -0.12
 14 15 19 1.48 1.41
 13 15 19 -0.01 1.88
 12 15 19 -1.93 3.57
 11 15 19 1.91 1.74
 10 15 19 -1.77 0.09
 9 15 19 -1.09 -0.15
 8 15 19 -0.83 2.16
 7 15 19 0.94 0.19
 6 15 19 1.83 0.56
 5 15 19 3.40 -0.59
 4 15 19 -0.80 0.56
 3 15 19 0.32 -1.12
 2 15 19 0.76 -3.81
 1 15 19 -0.23 -0.39
 0 15 19 -0.92 -0.14
 15 16 19 -0.12 1.02
 14 16 19 -2.38 2.16
 13 16 19 -0.15 0.90
 12 16 19 0.47 0.10
 11 16 19 -0.04 1.22
 10 16 19 0.22 -0.41
 9 16 19 -3.64 0.69
 8 16 19 1.47 0.23
 7 16 19 0.41 0.28
 6 16 19 0.65 -0.76
 5 16 19 0.96 -0.59
 4 16 19 1.38 1.09
 3 16 19 1.39 0.00
 2 16 19 6.61 0.70
 1 16 19 3.66 0.18
 0 16 19 0.26 -0.44
 14 17 19 0.53 -2.16
 13 17 19 0.30 0.58
 12 17 19 -0.97 0.01
 11 17 19 0.82 1.41
 10 17 19 1.01 -0.10
 9 17 19 0.24 1.37
 8 17 19 0.79 1.21
 7 17 19 -0.74 0.35
 6 17 19 3.07 1.28
 5 17 19 0.69 1.10
 4 17 19 -1.74 0.01
 3 17 19 -0.87 0.91
 2 17 19 0.92 1.55
 1 17 19 -0.76 1.80
 0 17 19 3.26 0.41
 13 18 19 0.23 -0.95
 12 18 19 -0.31 -1.09
 11 18 19 0.79 -0.17
 10 18 19 -0.96 -0.54
 9 18 19 1.03 -0.72
 8 18 19 1.92 0.72
 7 18 19 0.93 -0.17
 6 18 19 -0.02 -2.42
 5 18 19 -0.63 0.51
 4 18 19 0.24 0.03
 3 18 19 0.27 0.33
 2 18 19 4.93 -2.64
 1 18 19 2.41 1.28
 0 18 19 1.36 -0.27
 10 19 19 0.53 1.65
 8 19 19 0.06 2.00
 6 19 19 3.61 1.86
 4 19 19 2.36 -1.48
 2 19 19 -1.53 2.58
 0 19 19 -1.76 0.35
 0 0 20 1.66 -0.51
 1 1 20 0.11 -1.34
 0 1 20 3.25 0.62
 2 2 20 7.07 -2.73
 1 2 20 -2.95 0.96
 0 2 20 1.58 -0.44
 3 3 20 -12.82 -5.22
 2 3 20 2.50 1.32
 1 3 20 -4.78 -2.10
 0 3 20 -3.19 1.33
 4 4 20 -9.41 -0.85
 3 4 20 -2.93 1.15
 2 4 20 -2.20 -2.10
 1 4 20 -8.62 2.80
 0 4 20 0.70 0.22
 5 5 20 -0.45 -1.80
 4 5 20 -6.95 1.97
 3 5 20 -3.87 -5.85
 2 5 20 -6.22 4.18
 1 5 20 3.08 -3.01
 0 5 20 -2.42 0.43
 6 6 20 -11.54 -3.88
 5 6 20 -1.60 -3.00
 4 6 20 -9.59 -2.60
 3 6 20 -0.91 -2.74
 2 6 20 -8.06 -1.10
 1 6 20 -3.04 -0.87
 0 6 20 0.08 -0.31
 7 7 20 -0.98 3.91
 6 7 20 -0.08 0.93
 5 7 20 1.24 0.34
 4 7 20 -1.83 -0.35
 3 7 20 -0.06 -3.32
 2 7 20 -2.19 2.26
 1 7 20 9.96 -1.92
 0 7 20 -0.38 -0.13
 8 8 20 1.59 -1.48
 7 8 20 -1.38 -2.27
 6 8 20 -3.07 -2.27
 5 8 20 -1.98 0.31
 4 8 20 2.26 -1.67
 3 8 20 0.47 1.45
 2 8 20 0.94 0.60
 1 8 20 -0.95 -0.12
 0 8 20 1.98 -0.08
 9 9 20 3.44 -1.47
 8 9 20 -1.45 0.73
 7 9 20 -3.81 -1.41
 6 9 20 0.97 1.12
 5 9 20 -0.20 -0.31
 4 9 20 0.16 -1.73
 3 9 20 3.66 -0.61
 2 9 20 -0.65 -0.12
 1 9 20 6.89 -1.41
 0 9 20 -0.40 0.63
 10 10 20 1.46 4.27
 9 10 20 1.33 2.12
 8 10 20 0.11 0.10
 7 10 20 -4.97 -3.29
 6 10 20 -2.38 -0.13
 5 10 20 -2.29 -1.76
 4 10 20 3.20 0.56
 3 10 20 -1.70 -0.22
 2 10 20 0.04 -0.27
 1 10 20 -3.19 -0.40
 0 10 20 -0.19 -0.10
 11 11 20 -1.25 -4.59
 10 11 20 1.82 -2.00
 9 11 20 -1.24 -1.92
 8 11 20 -0.48 -1.44
 7 11 20 -2.58 -0.34
 6 11 20 -2.34 -1.69
 5 11 20 -1.48 -0.34
 4 11 20 2.70 -1.55
 3 11 20 1.34 -1.48
 2 11 20 0.47 -1.03
 1 11 20 2.55 -0.91
 0 11 20 -1.99 0.61
 12 12 20 0.59 -1.83
 11 12 20 -4.26 -1.08
 10 12 20 -0.05 0.61
 9 12 20 1.47 -0.53
 8 12 20 -0.63 0.11
 7 12 20 -0.66 -0.26
 6 12 20 0.53 -1.50
 5 12 20 3.53 0.40
 4 12 20 3.24 -0.61
 3 12 20 2.13 -0.77
 2 12 20 -1.14 0.14
 1 12 20 4.62 0.58
 0 12 20 -0.26 -0.14
 13 13 20 -1.42 -0.01
 12 13 20 1.43 4.52
 11 13 20 -1.21 -1.02
 10 13 20 -0.50 1.38
 9 13 20 -1.27 -1.53
 8 13 20 -0.55 2.89
 7 13 20 2.36 -0.23
 6 13 20 0.05 1.46
 5 13 20 -0.22 0.36
 4 13 20 3.52 -1.79
 3 13 20 0.16 -1.88
 2 13 20 -1.43 -3.36
 1 13 20 -1.93 -1.19
 0 13 20 -0.42 0.05
 14 14 20 0.74 1.75
 13 14 20 -2.97 0.57
 12 14 20 0.55 -0.23
 11 14 20 -2.54 2.09
 10 14 20 -1.26 0.88
 9 14 20 2.37 0.17
 8 14 20 -0.35 1.49
 7 14 20 -0.60 -1.15
 6 14 20 1.53 0.83
 5 14 20 3.94 1.06
 4 14 20 -0.70 -1.72
 3 14 20 0.94 1.19
 2 14 20 -0.98 -1.43
 1 14 20 -2.18 1.28
 0 14 20 3.46 0.56
 15 15 20 -0.29 -2.96
 14 15 20 -1.36 -1.96
 13 15 20 0.61 1.11
 12 15 20 -0.54 0.40
 11 15 20 1.05 0.94
 10 15 20 1.40 2.15
 9 15 20 0.84 -1.45
 8 15 20 -1.06 1.06
 7 15 20 2.40 -0.52
 6 15 20 0.77 1.06
 5 15 20 0.92 2.05
 4 15 20 2.81 0.20
 3 15 20 -0.57 -0.75
 2 15 20 -3.73 -1.08
 1 15 20 2.10 -0.31
 0 15 20 -0.87 0.25
 14 16 20 -0.20 2.24
 13 16 20 -2.70 0.21
 12 16 20 1.52 -0.39
 11 16 20 -2.94 3.07
 10 16 20 -1.78 0.89
 9 16 20 0.57 4.41
 8 16 20 -1.89 0.56
 7 16 20 -1.34 -0.14
 6 16 20 -0.75 2.47
 5 16 20 1.43 -0.09
 4 16 20 -1.80 -2.63
 3 16 20 -1.43 0.91
 2 16 20 -1.05 -3.26
 1 16 20 0.16 1.01
 0 16 20 3.37 0.01
 12 17 20 1.02 2.07
 11 17 20 -0.42 2.44
 10 17 20 2.01 2.03
 9 17 20 -0.62 0.94
 8 17 20 0.50 -0.62
 7 17 20 -0.40 -0.76
 6 17 20 1.27 1.11
 5 17 20 1.46 -0.55
 4 17 20 0.75 -1.77
 3 17 20 -2.32 -3.54
 2 17 20 -1.51 -0.87
 1 17 20 0.92 0.05
 0 17 20 3.01 0.10
 11 18 20 -1.10 0.20
 10 18 20 -1.16 2.51
 9 18 20 0.77 -0.04
 8 18 20 0.54 -0.37
 7 18 20 -0.04 -0.15
 6 18 20 -0.14 0.23
 5 18 20 1.40 -0.73
 4 18 20 -1.61 -0.95
 3 18 20 -2.08 -1.39
 2 18 20 -2.97 -1.35
 1 18 20 -0.14 0.55
 0 18 20 -2.61 -0.20
 9 19 20 1.31 -0.78
 8 19 20 0.46 -0.13
 7 19 20 0.29 0.83
 6 19 20 -0.51 2.43
 5 19 20 -0.36 3.01
 4 19 20 -2.52 0.56
 3 19 20 1.13 2.04
 2 19 20 -1.09 2.95
 1 19 20 0.07 1.93
 0 19 20 2.27 0.17
 6 20 20 -1.35 0.67
 4 20 20 -1.58 -0.83
 2 20 20 -1.62 -0.49
 0 20 20 -3.19 -0.19
 0 1 21 2.17 -1.24
 1 2 21 -3.12 0.75
 0 2 21 0.19 0.35
 2 3 21 -2.58 1.05
 1 3 21 -2.59 0.56
 0 3 21 -2.05 0.08
 3 4 21 -6.31 1.39
 2 4 21 -0.75 2.54
 1 4 21 -12.51 0.46
 0 4 21 -0.46 0.04
 4 5 21 -5.43 -0.97
 3 5 21 3.73 0.45
 2 5 21 -0.79 1.05
 1 5 21 5.52 -0.58
 0 5 21 -1.35 -0.20
 5 6 21 -3.69 -1.96
 4 6 21 1.51 3.20
 3 6 21 3.75 -2.44
 2 6 21 0.64 4.13
 1 6 21 2.55 -0.60
 0 6 21 1.28 -0.31
 6 7 21 -1.73 -3.83
 5 7 21 -4.62 1.75
 4 7 21 -1.02 -0.20
 3 7 21 -2.98 1.03
 2 7 21 3.89 -0.67
 1 7 21 7.07 -0.60
 0 7 21 2.04 0.35
 7 8 21 -1.96 -3.55
 6 8 21 -0.02 -2.53
 5 8 21 -4.67 -3.87
 4 8 21 0.71 2.59
 3 8 21 3.74 -2.78
 2 8 21 1.08 0.67
 1 8 21 1.91 0.05
 0 8 21 -1.05 -0.29
 8 9 21 -0.18 -0.15
 7 9 21 0.71 -1.40
 6 9 21 -2.41 -5.40
 5 9 21 -0.18 0.44
 4 9 21 0.28 0.20
 3 9 21 -2.13 1.96
 2 9 21 4.30 0.16
 1 9 21 0.30 -0.10
 0 9 21 -0.59 0.98
 9 10 21 -0.57 1.43
 8 10 21 0.20 -0.70
 7 10 21 -3.16 -1.06
 6 10 21 0.44 0.70
 5 10 21 -3.09 -2.12
 4 10 21 0.46 1.29
 3 10 21 2.76 2.23
 2 10 21 0.83 -0.19
 1 10 21 -1.56 -0.09
 0 10 21 -1.75 -0.15
 10 11 21 -1.14 -3.25
 9 11 21 1.94 2.53
 8 11 21 -0.34 0.68
 7 11 21 1.82 0.94
 6 11 21 0.00 -2.10
 5 11 21 1.50 0.98
 4 11 21 0.40 0.44
 3 11 21 3.59 0.85
 2 11 21 4.04 0.66
 1 11 21 0.96 -2.18
 0 11 21 2.47 -0.27
 11 12 21 -0.08 -1.46
 10 12 21 5.22 0.56
 9 12 21 0.04 0.37
 8 12 21 1.65 0.38
 7 12 21 -0.33 1.26
 6 12 21 1.24 -0.01
 5 12 21 -2.63 -2.87
 4 12 21 2.40 1.65
 3 12 21 2.26 2.60
 2 12 21 1.20 -0.02
 1 12 21 0.57 0.27
 0 12 21 -0.30 -0.28
 12 13 21 -2.29 1.78
 11 13 21 1.57 -1.66
 10 13 21 1.54 2.85
 9 13 21 -1.88 -3.85
 8 13 21 1.68 1.46
 7 13 21 -0.89 0.63
 6 13 21 0.94 -0.88
 5 13 21 -1.10 0.63
 4 13 21 0.54 2.33
 3 13 21 -0.11 4.19
 2 13 21 2.07 0.84
 1 13 21 -1.64 -0.38
 0 13 21 -0.23 -0.84
 13 14 21 -0.55 0.23
 12 14 21 -0.96 1.85
 11 14 21 0.14 -0.78
 10 14 21 2.62 -1.19
 9 14 21 0.96 0.37
 8 14 21 -2.04 0.43
 7 14 21 3.41 1.39
 6 14 21 -0.15 -0.44
 5 14 21 -1.27 -2.29
 4 14 21 0.97 0.35
 3 14 21 1.22 1.65
 2 14 21 0.46 1.11
 1 14 21 -0.65 -0.32
 0 14 21 -1.13 -0.03
 13 15 21 0.18 1.03
 12 15 21 -1.95 2.29
 11 15 21 2.97 1.42
 10 15 21 0.21 1.76
 9 15 21 -0.51 -1.45
 8 15 21 1.04 1.24
 7 15 21 -1.21 -2.26
 6 15 21 2.10 -1.25
 5 15 21 0.57 -1.08
 4 15 21 -0.82 -2.22
 3 15 21 -0.09 1.98
 2 15 21 0.46 -3.57
 1 15 21 2.44 -1.21
 0 15 21 -0.84 -0.58
 12 16 21 -0.46 2.39
 11 16 21 -0.02 -0.90
 10 16 21 0.04 1.69
 9 16 21 0.31 1.75
 8 16 21 1.28 1.57
 7 16 21 2.41 2.08
 6 16 21 0.76 -1.95
 5 16 21 -0.32 -0.28
 4 16 21 -0.90 -1.40
 3 16 21 -1.20 -0.20
 2 16 21 0.18 0.91
 1 16 21 0.46 -1.02
 0 16 21 -2.35 0.28
 11 17 21 1.15 -0.64
 10 17 21 1.37 -0.01
 9 17 21 1.46 0.06
 8 17 21 0.82 -0.14
 7 17 21 0.36 -0.69
 6 17 21 0.86 -0.84
 5 17 21 0.14 1.24
 4 17 21 -2.12 0.18
 3 17 21 -1.40 1.33
 2 17 21 -0.24 -0.82
 1 17 21 -1.63 -0.10
 0 17 21 2.01 0.10
 9 18 21 -0.30 -0.63
 8 18 21 1.50 1.43
 7 18 21 0.83 0.07
 6 18 21 -1.16 -1.84
 5 18 21 0.09 -1.03
 4 18 21 -3.42 -0.70
 3 18 21 0.39 0.15
 2 18 21 -1.88 1.06
 1 18 21 0.27 0.44
 0 18 21 -0.35 0.07
 7 19 21 0.42 -1.29
 6 19 21 -1.90 -1.11
 5 19 21 1.07 -0.90
 4 19 21 -0.55 -0.46
 3 19 21 0.10 -0.83
 2 19 21 -1.16 1.88
 1 19 21 -1.46 -0.36
 0 19 21 -1.48 0.31
 3 20 21 0.67 1.92
 2 20 21 -0.34 0.25
 1 20 21 -0.29 1.54
 0 20 21 2.89 -0.22
 0 0 22 4.09 8.20
 1 1 22 -1.95 0.68
 0 1 22 -4.81 -0.88
 2 2 22 6.99 5.14
 1 2 22 17.70 -0.63
 0 2 22 -0.18 3.44
 3 3 22 -2.21 -2.53
 2 3 22 -4.44 -1.23
 1 3 22 -1.40 1.25
 0 3 22 1.00 -0.71
 4 4 22 4.98 -1.68
 3 4 22 4.65 0.92
 2 4 22 5.16 2.37
 1 4 22 9.78 -1.16
 0 4 22 0.94 0.90
 5 5 22 7.63 0.45
 4 5 22 0.06 -2.98
 3 5 22 2.58 -1.41
 2 5 22 0.58 -3.46
 1 5 22 1.91 3.37
 0 5 22 4.65 -1.57
 6 6 22 8.37 3.72
 5 6 22 0.52 1.29
 4 6 22 4.48 -0.43
 3 6 22 6.58 -1.29
 2 6 22 -0.54 1.37
 1 6 22 4.77 -1.93
 0 6 22 -0.35 0.13
 7 7 22 -5.27 7.36
 6 7 22 -2.25 0.17
 5 7 22 -0.56 2.86
 4 7 22 2.55 -0.03
 3 7 22 -0.75 -0.57
 2 7 22 1.27 -0.74
 1 7 22 2.21 2.31
 0 7 22 0.15 -1.57
 8 8 22 7.27 2.79
 7 8 22 2.73 2.35
 6 8 22 3.68 1.71
 5 8 22 3.31 4.35
 4 8 22 1.38 -0.87
 3 8 22 3.37 0.55
 2 8 22 0.80 0.12
 1 8 22 -2.88 0.08
 0 8 22 -2.37 0.44
 9 9 22 3.15 1.72
 8 9 22 0.17 -0.44
 7 9 22 -4.52 0.12
 6 9 22 1.56 -0.60
 5 9 22 -0.28 0.05
 4 9 22 2.52 -0.44
 3 9 22 2.44 1.20
 2 9 22 -0.40 -0.34
 1 9 22 -1.69 1.94
 0 9 22 -0.17 0.39
 10 10 22 1.30 5.26
 9 10 22 1.70 0.76
 8 10 22 1.41 1.51
 7 10 22 2.86 -3.01
 6 10 22 -4.37 -1.15
 5 10 22 4.95 -2.68
 4 10 22 -2.47 -0.73
 3 10 22 1.64 0.21
 2 10 22 0.67 0.17
 1 10 22 -1.67 0.58
 0 10 22 -0.50 0.80
 11 11 22 3.02 0.80
 10 11 22 -0.83 3.52
 9 11 22 1.31 2.42
 8 11 22 0.80 1.30
 7 11 22 -2.39 -1.35
 6 11 22 -0.10 -2.62
 5 11 22 0.92 0.67
 4 11 22 2.21 -1.08
 3 11 22 -2.09 3.54
 2 11 22 -0.46 1.08
 1 11 22 -2.44 4.08
 0 11 22 -2.84 0.87
 12 12 22 3.20 -4.65
 11 12 22 -1.91 -2.30
 10 12 22 0.50 -0.86
 9 12 22 1.45 -1.44
 8 12 22 1.21 1.81
 7 12 22 1.57 -1.07
 6 12 22 -0.93 0.61
 5 12 22 0.02 0.36
 4 12 22 -1.04 1.80
 3 12 22 -0.53 -0.58
 2 12 22 -1.73 1.35
 1 12 22 -1.54 -0.52
 0 12 22 0.44 0.17
 13 13 22 0.82 0.14
 12 13 22 1.76 0.61
 11 13 22 0.48 1.73
 10 13 22 1.55 3.19
 9 13 22 -0.30 1.31
 8 13 22 1.88 3.57
 7 13 22 1.29 -2.13
 6 13 22 1.69 -0.74
 5 13 22 2.04 1.57
 4 13 22 2.22 -0.82
 3 13 22 0.20 1.02
 2 13 22 2.17 0.86
 1 13 22 -0.59 2.70
 0 13 22 1.82 -0.42
 13 14 22 -0.66 -1.33
 12 14 22 0.06 -0.50
 11 14 22 0.12 -0.16
 10 14 22 -2.01 -0.96
 9 14 22 2.10 0.92
 8 14 22 1.23 1.66
 7 14 22 -1.47 0.76
 6 14 22 -1.64 0.95
 5 14 22 -0.58 0.63
 4 14 22 -2.70 0.66
 3 14 22 0.87 -0.93
 2 14 22 -3.50 -1.92
 1 14 22 -1.12 -0.14
 0 14 22 -1.39 0.35
 12 15 22 0.43 -4.02
 11 15 22 0.50 1.40
 10 15 22 2.79 -0.68
 9 15 22 0.65 1.20
 8 15 22 0.11 -0.34
 7 15 22 1.45 -0.87
 6 15 22 1.25 -3.89
 5 15 22 -0.61 1.41
 4 15 22 0.62 -0.81
 3 15 22 -0.48 -1.86
 2 15 22 -1.33 -0.36
 1 15 22 -0.41 -0.68
 0 15 22 -0.25 -0.20
 10 16 22 -3.36 -3.31
 9 16 22 -0.30 1.76
 8 16 22 -1.15 -1.97
 7 16 22 -2.67 0.07
 6 16 22 -1.55 1.06
 5 16 22 -0.21 -1.04
 4 16 22 1.20 -0.47
 3 16 22 -2.94 -2.22
 2 16 22 0.62 -3.84
 1 16 22 1.04 -1.24
 0 16 22 0.19 -0.23
 9 17 22 -1.46 1.83
 8 17 22 -0.49 -0.77
 7 17 22 0.13 -0.47
 6 17 22 1.15 -1.92
 5 17 22 -0.58 -0.04
 4 17 22 -1.32 0.67
 3 17 22 -2.16 -3.00
 2 17 22 -1.68 -1.31
 1 17 22 -1.21 -1.94
 0 17 22 0.70 0.35
 6 18 22 -0.60 0.45
 5 18 22 -1.12 0.97
 4 18 22 -1.33 0.44
 3 18 22 -4.35 -1.76
 2 18 22 0.23 -1.08
 1 18 22 -1.13 -1.03
 0 18 22 0.74 -0.11
 7 18 22 -1.51 1.68
 3 19 22 0.63 -2.12
 2 19 22 -0.34 1.10
 1 19 22 -1.80 -1.11
 0 19 22 0.46 0.11
 0 1 23 3.47 -3.55
 1 2 23 6.36 0.36
 0 2 23 1.40 2.02
 2 3 23 7.75 -2.98
 1 3 23 7.28 -1.12
 0 3 23 1.27 -1.70
 3 4 23 6.41 0.53
 2 4 23 -1.54 -6.15
 1 4 23 -3.61 -1.18
 0 4 23 -1.42 2.28
 4 5 23 3.30 0.93
 3 5 23 -3.50 5.47
 2 5 23 3.25 -2.34
 1 5 23 1.44 0.82
 0 5 23 1.58 -0.59
 5 6 23 2.27 7.93
 4 6 23 1.44 1.07
 3 6 23 6.85 3.96
 2 6 23 -1.18 -2.93
 1 6 23 5.13 -2.26
 0 6 23 0.12 0.73
 6 7 23 1.03 1.87
 5 7 23 -2.12 3.38
 4 7 23 1.56 2.89
 3 7 23 -5.36 3.10
 2 7 23 3.15 -0.36
 1 7 23 -2.81 0.94
 0 7 23 3.39 -0.06
 7 8 23 1.86 4.59
 6 8 23 -1.64 0.35
 5 8 23 0.82 3.80
 4 8 23 -0.10 1.03
 3 8 23 3.15 1.16
 2 8 23 1.61 -2.87
 1 8 23 0.34 -3.21
 0 8 23 2.80 0.07
 8 9 23 1.30 5.94
 7 9 23 0.22 -1.01
 6 9 23 -1.91 -4.29
 5 9 23 -1.00 -1.51
 4 9 23 1.00 0.24
 3 9 23 -2.13 1.16
 2 9 23 1.13 -0.82
 1 9 23 -4.07 0.56
 0 9 23 -0.40 0.49
 9 10 23 1.73 3.03
 8 10 23 -2.18 -0.27
 7 10 23 0.76 -1.59
 6 10 23 -2.15 0.11
 5 10 23 1.55 -0.75
 4 10 23 -2.01 -1.41
 3 10 23 0.54 1.18
 2 10 23 0.81 0.31
 1 10 23 -4.49 -5.55
 0 10 23 -0.49 -0.27
 10 11 23 -0.46 -2.53
 9 11 23 -2.07 -1.98
 8 11 23 -1.02 1.55
 7 11 23 -0.95 -2.55
 6 11 23 0.46 -0.67
 5 11 23 -0.77 -2.95
 4 11 23 2.23 1.26
 3 11 23 2.89 2.16
 2 11 23 2.63 -1.38
 1 11 23 1.35 1.27
 0 11 23 2.96 -0.43
 11 12 23 1.33 0.58
 10 12 23 -0.30 2.48
 9 12 23 -0.69 0.94
 8 12 23 -1.88 2.43
 7 12 23 -2.69 -1.15
 6 12 23 -2.87 0.91
 5 12 23 -4.17 -1.64
 4 12 23 -0.54 -0.47
 3 12 23 -1.13 2.39
 2 12 23 0.82 0.09
 1 12 23 -0.58 -2.25
 0 12 23 -1.42 -0.38
 12 13 23 0.93 0.37
 11 13 23 -0.89 -2.15
 10 13 23 0.96 0.62
 9 13 23 -3.29 -4.10
 8 13 23 0.69 0.21
 7 13 23 -0.91 0.83
 6 13 23 -0.05 0.49
 5 13 23 -1.78 -3.38
 4 13 23 -0.27 0.26
 3 13 23 1.16 -0.86
 2 13 23 1.41 -1.40
 1 13 23 0.13 0.02
 0 13 23 -0.35 -0.43
 11 14 23 0.15 1.11
 10 14 23 1.41 0.29
 9 14 23 0.91 0.17
 8 14 23 -0.86 0.71
 7 14 23 0.21 0.85
 6 14 23 -2.21 2.36
 5 14 23 -1.11 -0.17
 4 14 23 -0.32 -0.41
 3 14 23 1.84 2.85
 2 14 23 -0.91 -1.00
 1 14 23 -0.39 0.20
 0 14 23 -0.61 0.28
 10 15 23 -0.72 -0.78
 9 15 23 -0.87 -0.99
 8 15 23 0.16 -0.08
 7 15 23 0.77 -0.27
 6 15 23 0.75 1.28
 5 15 23 -0.49 -3.24
 4 15 23 -0.34 0.14
 3 15 23 0.72 -2.88
 2 15 23 0.84 -0.10
 1 15 23 2.77 -3.09
 0 15 23 -1.65 -0.20
 8 16 23 0.76 -0.17
 7 16 23 -0.61 2.50
 6 16 23 0.89 -0.08
 5 16 23 -0.06 1.11
 4 16 23 1.11 -0.65
 3 16 23 -1.39 -1.55
 2 16 23 -0.18 0.50
 1 16 23 -1.84 -1.68
 0 16 23 0.77 0.70
 6 17 23 1.42 0.44
 5 17 23 -0.61 -1.90
 4 17 23 0.21 0.58
 3 17 23 0.73 -1.49
 2 17 23 1.03 -1.77
 1 17 23 1.81 -1.84
 0 17 23 1.93 -0.18
 1 18 23 -2.00 -0.98
 0 18 23 -2.03 0.15
 0 0 24 2.53 3.16
 1 1 24 -7.11 0.64
 0 1 24 -0.31 -0.79
 2 2 24 2.97 2.74
 1 2 24 6.72 -1.24
 0 2 24 -1.70 0.58
 3 3 24 -3.22 -0.16
 2 3 24 -2.21 1.61
 1 3 24 -6.14 0.73
 0 3 24 3.16 -0.22
 4 4 24 -1.69 -2.54
 3 4 24 2.81 0.66
 2 4 24 3.00 -0.04
 1 4 24 -3.88 -0.75
 0 4 24 0.16 0.04
 5 5 24 11.44 2.81
 4 5 24 -2.18 -1.17
 3 5 24 1.20 0.63
 2 5 24 0.57 -0.24
 1 5 24 -2.46 0.81
 0 5 24 3.15 -2.09
 6 6 24 1.99 1.78
 5 6 24 -1.86 0.30
 4 6 24 -2.91 0.20
 3 6 24 2.36 1.30
 2 6 24 -1.88 0.09
 1 6 24 -7.10 0.34
 0 6 24 -0.34 -0.23
 7 7 24 2.81 -0.72
 6 7 24 -1.13 1.10
 5 7 24 1.42 0.99
 4 7 24 -0.77 -0.19
 3 7 24 -4.33 -0.56
 2 7 24 1.94 -0.68
 1 7 24 0.29 -0.18
 0 7 24 -0.92 -3.14
 8 8 24 3.06 1.04
 7 8 24 1.14 0.49
 6 8 24 2.11 0.76
 5 8 24 -2.14 -0.81
 4 8 24 -1.09 2.44
 3 8 24 1.35 -1.49
 2 8 24 1.11 1.56
 1 8 24 -5.94 1.48
 0 8 24 0.70 0.11
 9 9 24 -0.75 1.14
 8 9 24 -0.26 -0.71
 7 9 24 1.05 0.49
 6 9 24 2.04 1.07
 5 9 24 1.77 2.12
 4 9 24 0.26 -0.75
 3 9 24 -0.49 -0.53
 2 9 24 0.08 -2.63
 1 9 24 -1.87 -0.96
 0 9 24 -1.59 -0.75
 10 10 24 2.05 0.16
 9 10 24 -1.03 3.35
 8 10 24 0.42 -1.69
 7 10 24 1.30 -2.23
 6 10 24 0.97 -2.34
 5 10 24 1.12 -4.54
 4 10 24 3.50 -1.57
 3 10 24 2.61 -0.78
 2 10 24 6.73 -0.92
 1 10 24 0.13 1.13
 0 10 24 5.18 0.54
 11 11 24 -6.86 -1.49
 10 11 24 -3.85 -1.82
 9 11 24 -3.69 0.34
 8 11 24 -1.87 -2.91
 7 11 24 -0.07 -0.25
 6 11 24 1.36 -0.40
 5 11 24 3.42 0.79
 4 11 24 1.84 0.55
 3 11 24 -1.78 -1.87
 2 11 24 0.55 -1.45
 1 11 24 2.26 -0.78
 0 11 24 -3.81 0.18
 11 12 24 0.27 1.53
 10 12 24 3.84 -0.79
 9 12 24 0.49 1.28
 8 12 24 2.55 -0.69
 7 12 24 0.71 -2.52
 6 12 24 0.61 -0.30
 5 12 24 -4.00 -2.10
 4 12 24 -2.24 -0.05
 3 12 24 0.21 -0.44
 2 12 24 -2.00 0.39
 1 12 24 -2.39 0.39
 0 12 24 0.48 0.31
 10 13 24 -1.20 0.27
 9 13 24 -0.06 -1.94
 8 13 24 -0.13 0.94
 7 13 24 1.77 -0.53
 6 13 24 -1.65 1.18
 5 13 24 1.90 3.53
 4 13 24 -1.45 0.58
 3 13 24 0.52 -1.27
 2 13 24 2.81 -0.65
 1 13 24 2.09 0.29
 0 13 24 1.05 -0.32
 9 14 24 3.58 1.98
 8 14 24 2.26 1.39
 7 14 24 1.39 0.80
 6 14 24 -2.07 0.94
 5 14 24 -1.64 -2.93
 4 14 24 -2.05 0.31
 3 14 24 3.09 -3.21
 2 14 24 -1.15 -0.41
 1 14 24 0.26 0.48
 0 14 24 0.41 0.48
 7 15 24 -0.29 -1.43
 6 15 24 -1.63 1.62
 5 15 24 -1.21 -0.29
 4 15 24 -0.42 0.55
 3 15 24 1.99 -3.51
 2 15 24 2.96 -0.64
 1 15 24 0.19 -1.72
 0 15 24 1.70 -0.29
 4 16 24 1.05 1.39
 3 16 24 -0.35 -2.83
 2 16 24 1.06 0.14
 1 16 24 0.11 -0.06
 0 16 24 -1.23 0.24
 5 16 24 0.97 -3.55
 0 1 25 3.11 -0.05
 1 2 25 -1.68 2.08
 0 2 25 1.15 -0.85
 2 3 25 0.51 -2.54
 1 3 25 0.01 -2.68
 0 3 25 -1.17 1.13
 3 4 25 1.45 -0.69
 2 4 25 -0.25 -2.83
 1 4 25 -8.91 -0.47
 0 4 25 2.51 0.03
 4 5 25 1.38 -3.21
 3 5 25 -1.91 1.05
 2 5 25 -0.83 -7.17
 1 5 25 1.76 -0.89
 0 5 25 3.11 0.62
 5 6 25 -2.28 2.64
 4 6 25 3.04 1.86
 3 6 25 -4.84 2.16
 2 6 25 -1.54 3.38
 1 6 25 -2.49 -0.25
 0 6 25 2.41 -0.11
 6 7 25 0.56 1.01
 5 7 25 1.84 -0.66
 4 7 25 -1.03 0.79
 3 7 25 1.31 -0.92
 2 7 25 -1.48 -4.80
 1 7 25 5.81 0.86
 0 7 25 3.21 -0.07
 7 8 25 -0.52 0.87
 6 8 25 -0.33 0.22
 5 8 25 -3.10 -0.03
 4 8 25 0.36 -1.23
 3 8 25 -2.62 -1.10
 2 8 25 -2.27 -1.25
 1 8 25 0.45 -0.31
 0 8 25 2.90 0.51
 8 9 25 -1.23 -2.31
 7 9 25 -0.97 3.04
 6 9 25 0.07 -3.43
 5 9 25 -0.75 -0.79
 4 9 25 0.71 -2.42
 3 9 25 0.22 -0.52
 2 9 25 0.35 -5.39
 1 9 25 2.67 -1.01
 0 9 25 2.48 0.13
 9 10 25 -2.09 -0.44
 8 10 25 3.13 2.04
 7 10 25 3.44 0.54
 6 10 25 3.62 0.76
 5 10 25 6.32 0.18
 4 10 25 -0.22 -1.40
 3 10 25 4.95 -1.59
 2 10 25 -1.31 0.47
 1 10 25 3.45 -3.37
 0 10 25 0.78 -0.05
 10 11 25 -2.23 -3.46
 9 11 25 -0.85 -0.44
 8 11 25 -0.05 -3.78
 7 11 25 -0.59 0.06
 6 11 25 2.15 -1.80
 5 11 25 -1.30 -0.19
 4 11 25 1.23 1.00
 3 11 25 -1.22 1.88
 2 11 25 0.32 -1.71
 1 11 25 -1.64 -0.09
 0 11 25 2.82 0.18
 9 12 25 -3.46 0.51
 8 12 25 -1.48 0.52
 7 12 25 2.43 0.84
 6 12 25 -1.05 0.40
 5 12 25 4.12 -1.02
 4 12 25 0.21 0.52
 3 12 25 3.29 -2.19
 2 12 25 1.41 1.37
 1 12 25 4.99 -3.33
 0 12 25 -0.15 -0.36
 7 13 25 2.07 0.79
 6 13 25 2.14 0.76
 5 13 25 0.76 -0.29
 4 13 25 0.47 1.88
 3 13 25 0.89 -0.85
 2 13 25 0.24 -0.53
 1 13 25 -0.62 0.16
 0 13 25 0.19 -0.03
 5 14 25 0.43 -1.28
 4 14 25 -0.74 0.29
 3 14 25 0.58 -0.47
 2 14 25 0.05 -0.31
 1 14 25 -0.88 -1.78
 0 14 25 1.19 0.37
 6 14 25 -2.30 3.07
 2 15 25 1.02 1.21
 1 15 25 -1.44 -1.58
 0 15 25 -0.78 0.03
 0 0 26 9.54 -3.35
 1 1 26 -2.52 -0.59
 0 1 26 -2.05 1.07
 2 2 26 3.06 -0.59
 1 2 26 0.25 0.42
 0 2 26 1.96 -1.83
 3 3 26 2.16 1.61
 2 3 26 -0.19 -1.35
 1 3 26 1.28 0.48
 0 3 26 -2.11 2.27
 4 4 26 4.46 -3.67
 3 4 26 0.65 0.31
 2 4 26 3.54 -0.94
 1 4 26 1.68 -0.29
 0 4 26 -1.39 -0.79
 5 5 26 3.66 -0.68
 4 5 26 -6.21 -0.85
 3 5 26 0.42 0.63
 2 5 26 0.47 -0.36
 1 5 26 4.16 -0.50
 0 5 26 0.62 0.46
 6 6 26 1.29 -0.12
 5 6 26 -0.86 1.14
 4 6 26 0.58 -2.82
 3 6 26 -0.82 -0.74
 2 6 26 -0.89 -0.80
 1 6 26 6.49 -0.34
 0 6 26 -2.17 -0.53
 7 7 26 8.84 -4.81
 6 7 26 1.08 1.09
 5 7 26 1.25 -2.73
 4 7 26 -3.53 1.70
 3 7 26 -2.62 0.72
 2 7 26 4.87 3.04
 1 7 26 5.52 0.07
 0 7 26 2.25 -0.97
 8 8 26 -1.37 0.06
 7 8 26 0.48 -1.41
 6 8 26 -0.26 -0.49
 5 8 26 0.44 -1.95
 4 8 26 -3.30 -2.67
 3 8 26 1.23 -5.43
 2 8 26 -3.57 -0.75
 1 8 26 2.73 -0.26
 0 8 26 -2.53 -0.69
 9 9 26 -2.24 0.81
 8 9 26 5.00 6.53
 7 9 26 3.51 -0.14
 6 9 26 4.79 4.06
 5 9 26 0.23 -0.46
 4 9 26 -3.32 1.54
 3 9 26 -1.74 1.60
 2 9 26 0.31 0.98
 1 9 26 -0.07 0.59
 0 9 26 -1.90 0.02
 8 10 26 -2.78 -0.40
 7 10 26 2.88 2.71
 6 10 26 -0.34 1.05
 5 10 26 5.46 0.82
 4 10 26 0.49 -4.64
 3 10 26 2.58 -2.43
 2 10 26 3.94 -3.17
 1 10 26 1.41 -0.73
 0 10 26 3.85 0.02
 7 11 26 0.94 -0.78
 6 11 26 4.22 4.16
 5 11 26 -0.48 -2.73
 4 11 26 -1.36 4.51
 3 11 26 -4.75 0.82
 2 11 26 0.54 1.15
 1 11 26 -0.85 0.91
 0 11 26 -0.62 -0.08
 6 12 26 1.01 3.96
 5 12 26 4.34 1.24
 4 12 26 -1.76 -0.13
 3 12 26 3.76 0.37
 2 12 26 0.40 -0.36
 1 12 26 2.35 -0.10
 0 12 26 1.29 -0.29
 3 13 26 -3.11 1.60
 2 13 26 -0.42 0.09
 1 13 26 -3.34 2.23
 0 13 26 1.09 -0.39
 0 1 27 0.33 0.75
 1 2 27 -3.60 0.60
 0 2 27 -6.56 -1.33
 2 3 27 7.40 1.33
 1 3 27 3.19 -4.85
 0 3 27 4.01 4.60
 3 4 27 16.60 -0.03
 2 4 27 -5.54 -4.08
 1 4 27 0.46 -0.49
 0 4 27 -5.67 -0.77
 4 5 27 10.20 -2.01
 3 5 27 3.74 -2.25
 2 5 27 2.39 -0.32
 1 5 27 7.37 -4.57
 0 5 27 5.15 4.08
 5 6 27 6.44 -1.98
 4 6 27 0.33 2.41
 3 6 27 6.07 -1.69
 2 6 27 -4.26 2.89
 1 6 27 -1.14 -0.15
 0 6 27 -0.42 -0.50
 6 7 27 1.03 -1.53
 5 7 27 4.11 -1.90
 4 7 27 -0.13 -0.02
 3 7 27 4.43 -2.07
 2 7 27 -3.48 0.12
 1 7 27 5.50 -1.28
 0 7 27 1.24 0.62
 7 8 27 -0.40 -0.97
 6 8 27 -1.32 -1.25
 5 8 27 0.83 -1.03
 4 8 27 -0.63 0.00
 3 8 27 1.86 -1.20
 2 8 27 -2.90 0.28
 1 8 27 -3.25 1.69
 0 8 27 2.57 0.59
 6 9 27 -0.19 1.88
 5 9 27 0.05 -1.75
 4 9 27 -1.77 0.88
 3 9 27 -1.27 -0.57
 2 9 27 -3.80 1.08
 1 9 27 -1.65 -2.06
 0 9 27 -0.75 -0.13
 5 10 27 -0.95 0.36
 4 10 27 0.13 -1.03
 3 10 27 0.15 0.73
 2 10 27 -1.31 -0.02
 1 10 27 -2.66 1.31
 0 10 27 1.87 0.66
 2 11 27 -0.49 1.49
 1 11 27 -1.48 -0.73
 0 11 27 3.24 0.61
 0 0 28 -4.78 -10.31
 1 1 28 4.01 -2.12
 0 1 28 -4.07 0.52
 2 2 28 4.08 -1.26
 1 2 28 0.64 0.97
 0 2 28 -0.57 -4.59
 3 3 28 3.08 -3.95
 2 3 28 4.76 -2.24
 1 3 28 2.93 -1.41
 0 3 28 2.12 1.93
 4 4 28 1.67 -1.48
 3 4 28 -7.22 -2.04
 2 4 28 5.58 0.68
 1 4 28 -0.37 -0.67
 0 4 28 2.91 -1.01
 5 5 28 2.81 0.15
 4 5 28 -1.48 2.82
 3 5 28 3.05 -2.34
 2 5 28 1.62 -0.79
 1 5 28 3.94 -0.46
 0 5 28 1.79 2.17
 6 6 28 -3.44 -2.68
 5 6 28 -3.18 -2.55
 4 6 28 -1.24 -3.02
 3 6 28 -9.21 -1.77
 2 6 28 3.00 -1.50
 1 6 28 0.56 -0.15
 0 6 28 2.22 -1.47
 4 7 28 -1.09 3.32
 3 7 28 1.60 1.07
 2 7 28 0.30 0.77
 1 7 28 1.81 0.92
 0 7 28 -2.59 0.38
 2 8 28 1.39 0.11
 1 8 28 3.17 1.42
 0 8 28 2.61 -1.90
 0 1 29 -0.93 -2.17
 1 2 29 -4.03 1.60
 0 2 29 2.48 -0.32
 2 3 29 0.28 3.25
 1 3 29 -6.31 -3.13
 0 3 29 -1.63 2.25
 1 1 2 356.48 -16.18
 2 2 2 -667.83 -71.00
 0 2 3 117.15 -2.47
 0 3 3 -239.57 0.16
 2 3 3 55.81 2.20
 0 0 4 278.79 -6.33
 0 1 4 202.69 0.55
 1 2 4 24.97 -6.11
 0 4 4 30.35 0.67
 2 4 4 108.83 -43.67
 4 4 4 44.52 -74.99
 0 1 5 30.98 -3.46
 0 2 5 -1.73 0.29
 0 3 5 47.09 0.33
 1 3 5 16.28 4.59
 2 3 5 93.02 13.61
 0 5 5 -26.85 -0.12
 0 1 6 -20.96 0.23
 1 2 6 66.72 -5.67
 0 3 6 -63.90 -1.26
 2 3 6 35.02 -12.66
 0 5 6 -43.74 -0.22
 2 5 6 14.88 -14.54
 0 6 6 7.50 -0.37
 6 6 6 51.54 -3.74
 0 1 7 -59.12 -1.70
 0 2 7 -26.51 0.42
 1 1 8 -70.40 7.10
 2 2 8 -4.50 -9.16
 0 3 8 -23.75 0.22
 2 3 8 32.93 -8.38
 1 4 8 43.81 10.62
 0 5 8 15.67 -0.29
 2 5 8 18.39 -1.92
 0 6 8 8.84 -0.45
 6 6 8 6.73 0.21
 0 7 8 4.40 0.72
 7 7 8 22.31 38.40
 6 8 8 -16.99 15.75
 8 8 8 -50.18 20.44
 0 0 10 83.21 -5.64
 0 1 10 -40.20 -0.47
 1 2 10 -13.76 4.88
 0 3 10 -38.89 -0.08
 3 3 10 25.23 12.16
 1 4 10 -18.17 7.39
 2 4 10 16.94 1.05
 4 4 10 -15.70 9.68
 0 5 10 12.10 -0.15
 3 5 10 23.32 -7.62
 6 6 10 16.88 11.16
 6 8 10 10.71 -4.84
 8 8 10 -0.31 -13.13
 7 9 10 -11.98 22.06
 6 10 10 -2.22 -17.23
 0 10 11 22.97 -0.22
 0 0 14 -16.55 3.46
 1 1 14 -10.10 4.11
 0 2 14 11.10 -0.44
 2 2 14 23.58 3.44
 0 0 16 -19.41 3.43
 1 1 16 -21.61 11.75
 0 2 16 4.93 2.37
 16 17 18 -1.93 3.32
 12 19 19 -2.38 0.57
 13 17 20 -0.46 2.07
 12 18 20 0.66 -0.29
 10 19 20 2.46 -0.04
 8 20 20 -1.24 0.75
 14 15 21 0.94 0.86
 13 16 21 -1.27 -1.00
 10 18 21 -0.91 2.30
 8 19 21 -0.49 -1.21
 4 20 21 0.13 0.08
 5 20 21 -1.02 -0.08
 11 16 22 -0.56 0.22
 4 19 22 -2.41 1.69
 12 14 23 -2.05 3.51
 9 16 23 0.75 1.31
 7 17 23 1.14 -1.66
 2 18 23 -2.13 1.11
 3 18 23 -0.19 -1.62
 4 18 23 0.78 0.28
 12 12 24 3.89 -1.28
 11 13 24 -3.09 -1.06
 8 15 24 -0.67 3.87
 6 16 24 -2.40 0.89
 0 17 24 -0.37 0.00
 1 17 24 -0.80 -1.15
 2 17 24 1.27 -2.02
 10 12 25 -3.99 0.16
 8 13 25 3.25 0.70
 3 15 25 -0.34 -1.64
 4 15 25 1.23 0.53
 9 10 26 -3.80 0.31
 8 11 26 3.50 3.86
 7 12 26 3.65 -0.21
 4 13 26 -3.59 1.55
 7 9 27 -1.28 0.08
 6 10 27 1.45 -1.85
 3 11 27 -1.40 1.56
 4 11 27 -0.29 0.91
 5 7 28 0.83 2.35
 6 7 28 0.46 4.02
 3 8 28 0.38 -0.79
 4 8 28 0.29 0.37
 0 9 28 -5.04 -0.09
 1 9 28 -2.16 0.03
 2 9 28 -0.97 -0.87
 0 4 29 3.77 -0.31
 1 4 29 -2.48 2.02
 2 4 29 0.11 0.13
 3 4 29 2.67 1.57
 0 5 29 -0.82 2.05
 1 5 29 -4.11 -2.17
 0 0 0 0.00 0.00
# SQUEEZE RESULTS (Version = 270519)
# Note: Data are Listed for all Voids in the P1 Unit Cell
# i.e. Centre of Gravity, Solvent Accessible Volume,
# Recovered number of Electrons in the Void and
# Details about the Squeezed Material
;
_platon_squeeze_special_details
;
A solvent mask was calculated and 3939 electrons were
found in a volume of 6109\%A^3 in 1 void per unit cell.
This is consistent with the presence of 
24[C3H7NO] per Formula Unit 
which account for 3840 electrons 
per unit cell.
;
_platon_squeeze_void_probe_radius 1.20
_olex2_submission_special_instructions 'No special instructions were received'
loop_
_space_group_symop_operation_xyz
'x, y, z'
'y+1/2, -x+1/2, -z+1/2'
'-x, -y, z'
'-y+1/2, x+1/2, -z+1/2'
'-x+1/2, z+1/2, -y+1/2'
'x, -y, -z'
'-x+1/2, -z+1/2, y+1/2'
'-z+1/2, -y+1/2, x+1/2'
'-x, y, -z'
'z+1/2, -y+1/2, -x+1/2'
'z, x, y'
'y, z, x'
'-y, -z, x'
'z, -x, -y'
'-y, z, -x'
'-z, -x, y'
'-z, x, -y'
'y, -z, -x'
'-y+1/2, -x+1/2, z+1/2'
'y+1/2, x+1/2, z+1/2'
'x+1/2, -z+1/2, -y+1/2'
'x+1/2, z+1/2, y+1/2'
'-z+1/2, y+1/2, -x+1/2'
'z+1/2, y+1/2, x+1/2'
loop_
_atom_site_label
_atom_site_type_symbol
_atom_site_fract_x
_atom_site_fract_y
_atom_site_fract_z
_atom_site_U_iso_or_equiv
_atom_site_adp_type
_atom_site_occupancy
_atom_site_site_symmetry_order
_atom_site_calc_flag
_atom_site_refinement_flags_posn
_atom_site_refinement_flags_adp
_atom_site_refinement_flags_occupancy
Fe1 Fe 0.76116(2) 0.82041(3) 0.69675(3) 0.0221(2) Uani 1 1 d . . .
O1 O 0.75974(12) 0.75974(12) 0.75974(12) 0.0199(8) Uani 1 3 d S T P
O2 O 0.67149(13) 0.81330(16) 0.68138(15) 0.0386(8) Uani 1 1 d . . .
O3 O 0.62591(13) 0.77469(16) 0.76291(14) 0.0352(7) Uani 1 1 d . . .
O4 O 0.39359(13) 0.75514(15) 0.74991(13) 0.0345(7) Uani 1 1 d . . .
O5 O 0.35134(13) 0.79558(17) 0.66656(14) 0.0359(7) Uani 1 1 d . . .
C2 C 0.39615(16) 0.77807(18) 0.69781(19) 0.0255(8) Uani 1 1 d . . .
C8 C 0.51108(17) 0.7837(2) 0.70386(19) 0.0290(8) Uani 1 1 d . . .
H8 H 0.509130 0.775689 0.746289 0.035 Uiso 1 1 calc R U .
C1 C 0.62557(17) 0.7936(2) 0.70993(19) 0.0278(8) Uani 1 1 d . . .
C7 C 0.56751(17) 0.7932(2) 0.67538(19) 0.0307(9) Uani 1 1 d . . .
C6 C 0.56922(19) 0.8031(3) 0.6124(2) 0.0452(13) Uani 1 1 d . . .
H6 H 0.606867 0.811703 0.592952 0.054 Uiso 1 1 calc R U .
C3 C 0.45743(18) 0.7861(2) 0.66889(19) 0.0317(9) Uani 1 1 d . . .
C4 C 0.45964(19) 0.7950(3) 0.6070(2) 0.0428(12) Uani 1 1 d . . .
H4 H 0.423208 0.797386 0.583872 0.051 Uiso 1 1 calc R U .
C5 C 0.5165(2) 0.8005(3) 0.5785(2) 0.0557(18) Uani 1 1 d . . .
O6 O 0.76330(18) 0.88628(16) 0.62783(16) 0.0436(8) Uani 1 1 d . . .
H6A H 0.767247 0.926892 0.631790 0.065 Uiso 1 1 d R U .
H6B H 0.760457 0.880392 0.587391 0.065 Uiso 1 1 d R U .
N1 N 0.52418(18) 0.8027(3) 0.51396(18) 0.0679(18) Uani 1 1 d . . .
loop_
_atom_site_aniso_label
_atom_site_aniso_U_11
_atom_site_aniso_U_22
_atom_site_aniso_U_33
_atom_site_aniso_U_23
_atom_site_aniso_U_13
_atom_site_aniso_U_12
Fe1 0.0169(3) 0.0249(3) 0.0245(3) -0.00300(18) -0.00070(19) -0.00084(19)
O1 0.0199(8) 0.0199(8) 0.0199(8) 0.0008(9) 0.0008(9) 0.0008(9)
O2 0.0202(13) 0.057(2) 0.0385(17) 0.0146(15) -0.0080(11) -0.0060(13)
O3 0.0207(14) 0.057(2) 0.0281(15) 0.0015(14) -0.0043(11) 0.0010(12)
O4 0.0216(13) 0.052(2) 0.0304(16) 0.0067(13) 0.0018(10) -0.0013(12)
O5 0.0186(13) 0.0533(19) 0.0357(17) 0.0141(14) 0.0032(11) 0.0014(13)
C2 0.0158(16) 0.0326(19) 0.0281(18) -0.0044(14) 0.0010(14) 0.0009(13)
C8 0.0194(17) 0.042(2) 0.0256(19) -0.0010(16) 0.0000(14) 0.0025(15)
C1 0.0186(17) 0.036(2) 0.029(2) -0.0033(16) -0.0033(14) 0.0010(15)
C7 0.0164(17) 0.048(2) 0.0279(19) -0.0014(17) -0.0007(14) 0.0009(15)
C6 0.0152(18) 0.094(4) 0.026(2) -0.001(2) -0.0009(14) -0.003(2)
C3 0.0190(18) 0.050(3) 0.0258(19) -0.0026(17) 0.0017(14) -0.0013(16)
C4 0.0190(19) 0.082(4) 0.028(2) 0.002(2) -0.0037(16) -0.003(2)
C5 0.020(2) 0.127(6) 0.020(2) 0.006(3) 0.0022(16) -0.004(2)
O6 0.051(2) 0.0427(19) 0.0375(19) 0.0114(13) 0.0059(15) 0.0016(16)
N1 0.0195(18) 0.162(6) 0.0218(18) -0.003(3) 0.0004(14) -0.001(3)
loop_
_atom_type_symbol
_atom_type_description
_atom_type_scat_dispersion_real
_atom_type_scat_dispersion_imag
_atom_type_scat_source
C C 0.0037 0.0017 'International Tables Vol C Tables 4.2.6.8 and 6.1.1.4'
H H 0.0000 0.0000 'International Tables Vol C Tables 4.2.6.8 and 6.1.1.4'
Fe Fe 0.3621 0.8896 'International Tables Vol C Tables 4.2.6.8 and 6.1.1.4'
N N 0.0070 0.0034 'International Tables Vol C Tables 4.2.6.8 and 6.1.1.4'
O O 0.0123 0.0065 'International Tables Vol C Tables 4.2.6.8 and 6.1.1.4'
loop_
_geom_angle_atom_site_label_1
_geom_angle_atom_site_label_2
_geom_angle_atom_site_label_3
_geom_angle
_geom_angle_site_symmetry_1
_geom_angle_site_symmetry_3
O1 Fe1 O2 92.94(14) . .
O1 Fe1 O3 97.07(13) . 12
O1 Fe1 O4 97.54(13) . 4_656
O1 Fe1 O5 93.12(14) . 21_566
O1 Fe1 O6 179.59(12) . .
O2 Fe1 O3 88.07(15) . 12
O2 Fe1 O4 89.17(15) . 4_656
O2 Fe1 O5 173.90(13) . 21_566
O2 Fe1 O6 87.37(14) . .
O3 Fe1 O6 82.66(14) 12 .
O4 Fe1 O3 165.25(12) 4_656 12
O4 Fe1 O6 82.74(14) 4_656 .
O5 Fe1 O3 90.50(14) 21_566 12
O5 Fe1 O4 90.73(14) 21_566 4_656
O5 Fe1 O6 86.57(14) 21_566 .
Fe1 O1 Fe1 119.996(3) . 11
Fe1 O1 Fe1 119.996(3) 12 11
Fe1 O1 Fe1 119.997(3) . 12
C1 O2 Fe1 136.7(3) . .
C1 O3 Fe1 129.9(3) . 11
C2 O4 Fe1 129.6(3) . 2_466
C2 O5 Fe1 135.9(3) . 21_466
O4 C2 O5 125.9(3) . .
O4 C2 C3 118.4(4) . .
O5 C2 C3 115.8(4) . .
C7 C8 C3 119.4(4) . .
O2 C1 C7 115.7(4) . .
O3 C1 O2 125.3(4) . .
O3 C1 C7 119.0(4) . .
C8 C7 C1 122.1(4) . .
C6 C7 C8 119.1(4) . .
C6 C7 C1 118.7(4) . .
C5 C6 C7 120.3(4) . .
C8 C3 C2 121.1(4) . .
C4 C3 C2 117.9(4) . .
C4 C3 C8 121.0(4) . .
C3 C4 C5 119.1(4) . .
C6 C5 C4 120.7(4) . .
C6 C5 N1 115.8(4) . .
C4 C5 N1 123.5(4) . .
N1 N1 C5 113.2(5) 9_656 .
loop_
_geom_bond_atom_site_label_1
_geom_bond_atom_site_label_2
_geom_bond_distance
_geom_bond_site_symmetry_2
Fe1 O1 1.9229(5) .
Fe1 O2 2.006(3) .
Fe1 O3 2.028(3) 12
Fe1 O4 2.023(3) 4_656
Fe1 O5 2.010(3) 21_566
Fe1 O6 2.096(3) .
O2 C1 1.265(5) .
O3 C1 1.237(5) .
O4 C2 1.253(5) .
O5 C2 1.261(5) .
C2 C3 1.500(5) .
C8 C7 1.405(5) .
C8 C3 1.409(6) .
C1 C7 1.485(5) .
C7 C6 1.403(6) .
C6 C5 1.379(6) .
C3 C4 1.376(6) .
C4 C5 1.403(6) .
C5 N1 1.429(6) .
N1 N1 1.228(8) 9_656
loop_
_platon_squeeze_void_nr
_platon_squeeze_void_average_x
_platon_squeeze_void_average_y
_platon_squeeze_void_average_z
_platon_squeeze_void_volume
_platon_squeeze_void_count_electrons
_platon_squeeze_void_content
1 -0.074 -0.031 -0.025 6109 3939 ' '
loop_
_platon_missing_refln_index_h
_platon_missing_refln_index_k
_platon_missing_refln_index_l
_platon_missing_refln_theta
1 1 2 2.327
2 2 2 3.292
0 2 3 3.426
0 3 3 4.033
2 3 3 4.459
0 0 4 3.802
0 1 4 3.919
1 2 4 4.356
0 4 4 5.380
2 4 4 5.708
4 4 4 6.595
0 1 5 4.849
0 2 5 5.121
0 3 5 5.547
1 3 5 5.628
2 3 5 5.865
0 5 5 6.731
0 1 6 5.787
1 2 6 6.093
0 3 6 6.384
2 3 6 6.663
0 5 6 7.439
2 5 6 7.680
0 6 6 8.086
6 6 6 9.919
0 1 7 6.731
0 2 7 6.931
1 1 8 7.739
2 2 8 8.086
0 3 8 8.142
2 3 8 8.364
1 4 8 8.580
0 5 8 8.997
2 5 8 9.198
0 6 8 9.541
0 7 8 10.149
0 0 10 9.541
0 1 10 9.590
1 2 10 9.779
0 3 10 9.966
3 3 10 10.373
1 4 10 10.329
2 4 10 10.462
loop_
_twin_individual_id
_twin_individual_mass_fraction_refined
1 0.91(3)
2 0.09(3)
