#------------------------------------------------------------------------------
#$Date: 2021-05-05 11:02:42 +0300 (Wed, 05 May 2021) $
#$Revision: 264865 $
#$URL: file:///home/coder/svn-repositories/cod/cif/7/12/80/7128077.cif $
#------------------------------------------------------------------------------
#
# This file is available in the Crystallography Open Database (COD),
# http://www.crystallography.net/
#
# All data on this site have been placed in the public domain by the
# contributors.
#
data_7128077
loop_
_publ_author_name
'Voigt, Laura'
'Wugt Larsen, Ren\'e'
'Kubus, Mariusz'
'Pedersen, Kasper S.'
_publ_section_title
;
 Zero-valent metals in metal-organic frameworks:
 fac-M(CO)<sub>3</sub>(pyrazine)<sub>3/2</sub>.
;
_journal_issue                   32
_journal_name_full
'Chemical communications (Cambridge, England)'
_journal_page_first              3861
_journal_page_last               3864
_journal_paper_doi               10.1039/d1cc00864a
_journal_volume                  57
_journal_year                    2021
_chemical_formula_moiety         'C9 H6 Mo1 N3 O3'
_chemical_formula_sum            'C9 H6 Mo N3 O3'
_chemical_formula_weight         300.11
_space_group_crystal_system      cubic
_space_group_IT_number           220
_space_group_name_Hall           'I -4bd 2c 3'
_space_group_name_H-M_alt        'I -4 3 d'
_atom_sites_solution_hydrogens   geom
_atom_sites_solution_primary     direct
_audit_creation_date             2020-10-18
_audit_creation_method
;
Olex2 1.3
(compiled 2020.07.31 svn.rc2a77460 for OlexSys, GUI svn.r6145)
;
_audit_update_record
;
2021-02-15 deposited with the CCDC.	2021-03-25 downloaded from the CCDC.
;
_cell_angle_alpha                90
_cell_angle_beta                 90
_cell_angle_gamma                90
_cell_formula_units_Z            16
_cell_length_a                   16.2253(5)
_cell_length_b                   16.2253(5)
_cell_length_c                   16.2253(5)
_cell_measurement_reflns_used    848
_cell_measurement_temperature    120.00(10)
_cell_measurement_theta_max      27.8410
_cell_measurement_theta_min      3.9570
_cell_volume                     4271.5(2)
_computing_cell_refinement       'CrysAlisPro 1.171.39.46 (Rigaku OD, 2018)'
_computing_data_collection       'CrysAlisPro 1.171.39.46 (Rigaku OD, 2018)'
_computing_data_reduction        'CrysAlisPro 1.171.39.46 (Rigaku OD, 2018)'
_computing_molecular_graphics    'Olex2 1.3 (Dolomanov et al., 2009)'
_computing_publication_material  'Olex2 1.3 (Dolomanov et al., 2009)'
_computing_structure_refinement  'SHELXL 2018/3 (Sheldrick, 2015)'
_computing_structure_solution    'SHELXS  (Sheldrick, 2008)'
_diffrn_ambient_environment      N~2~
_diffrn_ambient_temperature      120.00(10)
_diffrn_detector                 'CCD plate'
_diffrn_detector_area_resol_mean 5.3073
_diffrn_detector_type            Atlas
_diffrn_measured_fraction_theta_full 0.997
_diffrn_measured_fraction_theta_max 0.995
_diffrn_measurement_details
;
List of Runs (angles in degrees, time in seconds):

  # Type    Start    End  Width  t~exp~   \w     \q     \k     \f   Frames
#--------------------------------------------------------------------------
  1  \w    -64.00 -22.00   1.00   12.50    --  -11.58 -57.00 150.00   42
;
_diffrn_measurement_device       'four-circle diffractometer'
_diffrn_measurement_device_type  'SuperNova, Dual, Cu at home/near, Atlas'
_diffrn_measurement_method       '\w scans'
_diffrn_orient_matrix_type
'CrysAlisPro convention (1999,Acta A55,543-557)'
_diffrn_orient_matrix_UB_11      0.0047128000
_diffrn_orient_matrix_UB_12      -0.0418993000
_diffrn_orient_matrix_UB_13      -0.0114934000
_diffrn_orient_matrix_UB_21      -0.0186584000
_diffrn_orient_matrix_UB_22      0.0084939000
_diffrn_orient_matrix_UB_23      -0.0386209000
_diffrn_orient_matrix_UB_31      0.0392404000
_diffrn_orient_matrix_UB_32      0.0090717000
_diffrn_orient_matrix_UB_33      -0.0170095000
_diffrn_radiation_monochromator  mirror
_diffrn_radiation_probe          x-ray
_diffrn_radiation_type           'Mo K\a'
_diffrn_radiation_wavelength     0.71073
_diffrn_reflns_av_R_equivalents  0.0539
_diffrn_reflns_av_unetI/netI     0.0609
_diffrn_reflns_Laue_measured_fraction_full 0.997
_diffrn_reflns_Laue_measured_fraction_max 0.995
_diffrn_reflns_limit_h_max       4
_diffrn_reflns_limit_h_min       -18
_diffrn_reflns_limit_k_max       13
_diffrn_reflns_limit_k_min       -20
_diffrn_reflns_limit_l_max       13
_diffrn_reflns_limit_l_min       -16
_diffrn_reflns_number            2128
_diffrn_reflns_point_group_measured_fraction_full 0.935
_diffrn_reflns_point_group_measured_fraction_max 0.923
_diffrn_reflns_theta_full        25.242
_diffrn_reflns_theta_max         27.079
_diffrn_reflns_theta_min         3.552
_diffrn_source                   'micro-focus sealed X-ray tube'
_diffrn_source_type              'SuperNova (Mo) X-ray Source'
_exptl_absorpt_coefficient_mu    1.222
_exptl_absorpt_correction_T_max  1.00000
_exptl_absorpt_correction_T_min  0.96429
_exptl_absorpt_correction_type   multi-scan
_exptl_absorpt_process_details
;
CrysAlisPro 1.171.39.46 (Rigaku Oxford Diffraction, 2018)
Empirical absorption correction using spherical harmonics,
 implemented in SCALE3 ABSPACK scaling algorithm.
;
_exptl_crystal_colour            'metallic yellowish black'
_exptl_crystal_colour_lustre     metallic
_exptl_crystal_colour_modifier   yellowish
_exptl_crystal_colour_primary    black
_exptl_crystal_density_diffrn    1.867
_exptl_crystal_description       hexagonal
_exptl_crystal_F_000             2352
_exptl_crystal_size_max          0.3
_exptl_crystal_size_mid          0.3
_exptl_crystal_size_min          0.3
_refine_diff_density_max         0.378
_refine_diff_density_min         -0.318
_refine_diff_density_rms         0.088
_refine_ls_abs_structure_details
;
 Flack x determined using 229 quotients [(I+)-(I-)]/[(I+)+(I-)]
 (Parsons, Flack and Wagner, Acta Cryst. B69 (2013) 249-259).
;
_refine_ls_abs_structure_Flack   0.00(7)
_refine_ls_extinction_method     none
_refine_ls_goodness_of_fit_ref   1.071
_refine_ls_hydrogen_treatment    constr
_refine_ls_matrix_type           full
_refine_ls_number_parameters     49
_refine_ls_number_reflns         727
_refine_ls_number_restraints     0
_refine_ls_restrained_S_all      1.071
_refine_ls_R_factor_all          0.0426
_refine_ls_R_factor_gt           0.0305
_refine_ls_shift/su_max          0.001
_refine_ls_shift/su_mean         0.000
_refine_ls_structure_factor_coef Fsqd
_refine_ls_weighting_details
'w=1/[\s^2^(Fo^2^)+(0.0074P)^2^] where P=(Fo^2^+2Fc^2^)/3'
_refine_ls_weighting_scheme      calc
_refine_ls_wR_factor_gt          0.0484
_refine_ls_wR_factor_ref         0.0546
_reflns_Friedel_coverage         0.675
_reflns_Friedel_fraction_full    0.856
_reflns_Friedel_fraction_max     0.832
_reflns_number_gt                622
_reflns_number_total             727
_reflns_threshold_expression     'I > 2\s(I)'
_cod_data_source_file            d1cc00864a2.cif
_cod_data_source_block           lv194_moco3pyz2_b
_cod_depositor_comments
'Adding full bibliography for 7128075--7128079.cif.'
_cod_original_cell_volume        4271.5(4)
_cod_database_code               7128077
_shelx_shelxl_version_number     2018/3
_chemical_oxdiff_formula         'Mo C15 O3 H12 N6'
_shelx_space_group_comment
;
The symmetry employed for this shelxl refinement is uniquely defined
by the following loop, which should always be used as a source of
symmetry information in preference to the above space-group names.
They are only intended as comments.
;
_shelx_estimated_absorpt_t_max   0.711
_shelx_estimated_absorpt_t_min   0.711
_reflns_odcompleteness_completeness 99.37
_reflns_odcompleteness_iscentric 1
_reflns_odcompleteness_theta     26.32
_olex2_refinement_description
;
1. Fixed Uiso
 At 1.2 times of:
  All C(H) groups
2.a Aromatic/amide H refined with riding coordinates:
 C5(H5), C6(H6)
;
_shelx_res_file
;
TITL LV194_MoCo3pyz2_b in I-43d #220
    lv194_moco3pyz2_b.res
    created by SHELXL-2018/3 at 10:24:12 on 18-Oct-2020
REM reset to I-43d #220
CELL 0.71073 16.225348 16.225348 16.225348 90 90 90
ZERR 16 0.000544 0.000544 0.000544 0 0 0
LATT -2
SYMM 0.25+Y,0.75-X,0.25-Z
SYMM -X,0.5-Y,+Z
SYMM 0.25-Y,0.25+X,0.75-Z
SYMM 0.25-X,0.25+Z,0.75-Y
SYMM +X,-Y,0.5-Z
SYMM 0.75-X,0.25-Z,0.25+Y
SYMM 0.75-Z,0.25-Y,0.25+X
SYMM 0.5-X,+Y,-Z
SYMM 0.25+Z,0.75-Y,0.25-X
SYMM +Z,+X,+Y
SYMM +Y,+Z,+X
SYMM -Y,0.5-Z,+X
SYMM +Z,-X,0.5-Y
SYMM 0.5-Y,+Z,-X
SYMM -Z,0.5-X,+Y
SYMM 0.5-Z,+X,-Y
SYMM +Y,-Z,0.5-X
SYMM 0.75-Y,0.25-X,0.25+Z
SYMM 0.25+Y,0.25+X,0.25+Z
SYMM 0.25+X,0.75-Z,0.25-Y
SYMM 0.25+X,0.25+Z,0.25+Y
SYMM 0.25-Z,0.25+Y,0.75-X
SYMM 0.25+Z,0.25+Y,0.25+X
SFAC C H Mo N O
UNIT 144 96 15.99984 48 48

L.S. 10
PLAN  5
SIZE 0.3 0.3 0.3
CONF
BOND
MORE -1
BOND $H
fmap 2
acta
SHEL 999 0.78
REM <olex2.extras>
REM <HklSrc "%./LV194_MoCo3pyz2_b.hkl">
REM </olex2.extras>

WGHT    0.007400
FVAR       0.39931
MO1   3    0.976400    0.476400    0.023600    10.33333    0.01102    0.01102 =
         0.01102    0.00029    0.00029   -0.00029
C3    1    0.967926    0.593992    0.003941    11.00000    0.01765    0.01766 =
         0.01935   -0.00133   -0.00079   -0.00084
O2    5    0.966505    0.664205   -0.010735    11.00000    0.03717    0.01718 =
         0.04700    0.00626    0.00287   -0.00013
N4    4    0.960018    0.488761    0.163545    11.00000    0.00824    0.01418 =
         0.01213   -0.00193   -0.00059    0.00191
C5    1    0.958939    0.425963    0.216701    11.00000    0.02797    0.01174 =
         0.01632   -0.00192    0.00056   -0.00289
AFIX  43
H5    2    0.958346    0.372488    0.196077    11.00000   -1.20000
AFIX   0
C6    1    0.958664    0.562863    0.199334    11.00000    0.03345    0.01565 =
         0.01599    0.00378   -0.00186    0.00578
AFIX  43
H6    2    0.957477    0.609278    0.165724    11.00000   -1.20000
AFIX   0
HKLF 4




REM  LV194_MoCo3pyz2_b in I-43d #220
REM wR2 = 0.0546, GooF = S = 1.071, Restrained GooF = 1.071 for all data
REM R1 = 0.0305 for 622 Fo > 4sig(Fo) and 0.0426 for all 727 data
REM 49 parameters refined using 0 restraints

END

WGHT      0.0074      0.0000

REM Highest difference peak  0.378,  deepest hole -0.318,  1-sigma level  0.088
Q1    1   0.9813  0.5998  0.1509  11.00000  0.05    0.38
Q2    1   0.9275  0.4697 -0.0264  11.00000  0.05    0.35
Q3    1   1.0142  0.4825  0.1373  11.00000  0.05    0.33
Q4    1   0.9629  0.7010  0.0521  11.00000  0.05    0.31
Q5    1   0.8543  0.6219 -0.0064  11.00000  0.05    0.31
;
_shelx_res_checksum              86072
_shelx_hkl_file
;
  -2   2   2 1.60655 14.9138   1
   0  -2   2 49288.8 529.400   1
   0   2  -2 48595.3 523.130   1
  -2  -2   2-36.1967 32.3071   1
   0  -3  -1 7315.78 202.500   1
   0   3  -1 7012.14 216.045   1
  -1   3   0 7160.62 210.829   1
   1  -3   0 7551.02 218.206   1
   1   3  -2 626.557 69.7482   1
  -2   3   1 595.317 62.1600   1
   1   2  -3 619.205 63.1654   1
  -2  -1   3 837.228 56.5441   1
  -1  -3   2 670.304 73.9716   1
   1  -3  -2 675.451 57.6029   1
  -1   3  -2 704.199 81.1359   1
  -1  -2   3 700.888 68.9657   1
  -3   3   2 212.337 38.6656   1
  -3   2   3 206.169 24.4319   1
   2   3  -3 265.765 50.6663   1
   0   3  -3 1.02325 29.6565   1
  -2  -3   3 143.431 39.2243   1
   2  -3  -3 128.114 26.3031   1
  -3  -2   3 110.025 32.6597   1
   0   4   0 116714. 954.923   1
   1   1  -4 51.2581 26.8557   1
   1   4  -1 22.6574 27.4608   1
  -1   4   1-28.5114 31.0755   1
  -1   4  -1-7.19965 29.9372   1
   1  -4  -1-11.4621 27.8397   1
  -2   4   2 6980.71 214.191   1
   2   2  -4 7192.80 214.225   1
   0  -4  -2 1527.56 107.657   1
  -2   4   0 1550.14 117.930   1
   2   0  -4 1517.20 61.1590   1
   0   4  -2 1498.86 121.993   1
  -2  -4   2 7099.35 258.755   1
  -2  -2   4 7423.58 220.413   1
  -2   4  -2 7092.26 277.523   1
   2  -4  -2 7108.08 226.933   1
  -3   4   3 16.3665 19.2650   1
  -4   3   3 14.9260 17.0816   1
   1   4  -3 3311.75 184.319   1
  -3   4   1 3632.32 173.798   1
   1   3  -4 3540.10 179.169   1
  -1  -4   3 3845.08 202.520   1
   1  -4  -3 3531.72 150.975   1
  -1   4  -3 3344.29 193.920   1
  -1  -3   4 3816.12 187.173   1
  -3  -1   4 3648.42 128.577   1
  -3  -3   4 5.85285 28.5772   1
  -3  -4   3 0.41397 33.8420   1
  -4   4   4 449.247 52.4132   1
   2   4  -4-10.0814 30.8688   1
  -4   4   2 21.1566 29.5682   1
   0   4  -4 11090.1 354.502   1
  -2  -4   4 22.2397 41.2727   1
   2  -4  -4 6.70250 22.3163   1
  -4  -2   4 60.3665 32.1642   1
  -4  -4   4 479.833 79.0992   1
   0   5  -1 16709.6 418.811   1
   1  -5   0 17534.4 421.371   1
   0  -5  -1 17336.0 404.395   1
  -1   5   0 16769.1 407.654   1
   2   1  -5 4491.79 155.781   1
   1   5  -2 4023.12 214.467   1
   1   2  -5 4117.01 181.635   1
  -2   5   1 4323.18 203.291   1
  -2   5  -1 4155.85 217.649   1
   2  -5  -1 4471.78 213.771   1
  -1   5  -2 4341.80 228.526   1
   1  -5  -2 4420.47 199.383   1
   2   3  -5 382.703 63.9579   1
  -3   5   2 317.581 57.5890   1
   2   5  -3 279.348 63.2981   1
   0   3  -5 5971.31 252.961   1
   0   5  -3 5913.68 269.286   1
   0  -5   3 5496.02 264.291   1
  -3   5   0 5634.43 252.729   1
  -2   5  -3 263.569 65.7158   1
  -2  -5   3 336.289 68.8082   1
   2  -5  -3 348.208 57.6442   1
   2  -3  -5 342.093 36.4006   1
  -2  -3   5 297.379 60.5447   1
  -3  -5   2 378.065 73.0317   1
  -3  -2   5 269.817 48.6722   1
  -3   5  -2 391.435 76.5061   1
  -5   4   3 3895.97 175.880   1
   3   4  -5 3662.24 205.048   1
  -4   5   3 4188.71 188.284   1
  -4   5   1 6215.85 262.178   1
   1   5  -4 5803.15 272.771   1
   1   4  -5 5721.68 259.014   1
  -1  -5   4 6196.26 287.202   1
   1  -5  -4 5638.60 216.167   1
  -4  -1   5 5979.58 177.779   1
  -1   5  -4 6069.08 290.927   1
  -1   4  -5 5957.28 286.432   1
  -4  -5   3 4531.11 243.684   1
   3  -4  -5 4220.65 141.832   1
  -3  -4   5 4304.81 225.509   1
  -4  -3   5 4693.26 211.373   1
   3  -5  -4 4554.81 186.849   1
  -3  -5   4 4488.82 242.301   1
  -5   5   4-9.28044 24.5240   1
  -5   4   5-8.72233 17.9728   1
   2   5  -5 11513.5 390.367   1
  -5   5   2 11592.3 353.069   1
   0   5  -5-17.6037 32.4829   1
  -5  -2   5 10898.7 297.665   1
   2  -5  -5 11112.8 282.850   1
  -2   5  -5 10749.0 416.697   1
  -2  -5   5 11473.2 399.386   1
  -4  -5   5 12.1173 31.9895   1
  -5  -4   5 43.3493 37.7081   1
  -5  -5   4-4.79711 33.2249   1
   0   6   0-0.97377 34.7170   1
   0  -6   0-11.9884 39.0851   1
   1   6  -1 11291.9 383.770   1
  -1   6   1 11270.1 353.277   1
  -1  -6  -1 12638.8 389.751   1
   1  -6   1 12013.7 404.180   1
   1  -6  -1 12237.5 375.827   1
  -1   6  -1 11551.9 384.026   1
   2   2  -6 2.47449 22.7467   1
  -2   6   2-6.63071 26.6602   1
  -2   6   0 37813.9 680.928   1
   0   6  -2 38561.1 712.546   1
   0  -6  -2 39342.6 661.454   1
   2   0  -6 38645.1 416.967   1
   2  -6   0 39964.7 714.783   1
  -2   6  -2 187.254 63.1985   1
   2  -6  -2 23.6701 32.5140   1
  -3   6   3 5620.16 237.878   1
   3   3  -6 5596.56 232.893   1
  -3   6   1 3203.79 195.974   1
   1   3  -6 3110.82 185.157   1
   1   6  -3 3102.86 206.168   1
   3   1  -6 3173.85 133.028   1
  -1   6  -3 2976.16 213.134   1
  -3   6  -1 3381.16 220.164   1
   1  -6  -3 3532.02 195.369   1
  -3   6  -3 5958.38 315.250   1
   3  -6  -3 6168.91 257.641   1
  -3  -6   3 6449.14 305.425   1
  -3  -3   6 6092.56 248.920   1
  -6   4   4 16.4880 23.4498   1
  -4   6   4 14.2917 23.7449   1
  -4   6   2 8662.47 314.416   1
   2   4  -6 8239.34 316.232   1
   2   6  -4 7595.85 336.033   1
   0   4  -6 12.1617 41.5514   1
  -4   6   0-28.8593 38.3541   1
   0   6  -4 57.6128 47.3499   1
  -2  -4   6 8422.15 325.915   1
  -2  -6   4 8168.71 356.291   1
   2  -4  -6 8289.46 208.552   1
  -4   6  -2 8696.08 375.803   1
   2  -6  -4 8387.87 289.608   1
  -4  -2   6 8305.28 257.990   1
  -2   6  -4 8457.48 378.407   1
  -4  -6   4 16.5379 39.5852   1
  -4  -4   6-10.7079 36.5651   1
  -5   6   5 4392.26 191.398   1
  -6   5   5 4443.23 179.876   1
  -5   6   3 52.5717 30.3675   1
   3   6  -5 40.8661 39.7470   1
   3   5  -6 22.8923 38.5119   1
  -6   5   3 30.1980 31.0650   1
   1   5  -6 3841.57 237.549   1
   1   6  -5 4059.74 253.216   1
  -5   6   1 3976.13 234.340   1
  -1  -6   5 3658.69 246.543   1
   1  -6  -5 3861.33 199.703   1
  -1   5  -6 3741.50 252.610   1
  -1   6  -5 3606.00 248.763   1
  -5  -1   6 3738.63 150.667   1
   3  -5  -6-3.22970 19.5026   1
  -5  -3   6 8.24961 30.1381   1
   3  -6  -5 61.9542 35.2551   1
  -6  -3   5-17.1942 26.8848   1
  -3  -6   5 33.8739 36.7350   1
  -3  -5   6-2.64786 39.0623   1
  -3   6  -5-35.0452 45.3921   1
  -5  -6   3-0.32405 36.9543   1
  -6  -5   5 3995.09 245.146   1
  -5  -6   5 4726.11 278.062   1
  -5  -5   6 4456.78 257.399   1
  -6   6   6-5.75171 18.8326   1
  -6   6   4 5009.09 228.897   1
  -6   4   6 5101.09 134.050   1
  -6   6   2 36.2591 35.1713   1
   2   6  -6 24.6817 32.5366   1
  -6   0   6 13216.1 251.542   1
   0   6  -6 13170.8 476.178   1
   2  -6  -6-11.2878 22.4758   1
  -2   6  -6 10.5893 38.5937   1
  -2  -6   6 12.0647 41.7124   1
  -6  -2   6 18.7428 19.3155   1
  -4  -6   6 5315.00 301.448   1
  -6  -4   6 4961.91 254.818   1
  -6  -6   4 5053.22 291.610   1
  -6  -6   6 14.5405 38.9602   1
   1  -7   0 15067.2 470.204   1
   0   7  -1 13467.4 450.508   1
   0  -7  -1 13748.3 436.136   1
  -1   7   0 14707.3 448.845   1
  -1  -7  -2 9528.91 366.436   1
   1   7  -2 9722.46 389.444   1
   1   2  -7 9142.11 307.305   1
   2   1  -7 9230.19 260.070   1
  -2   7   1 9520.17 355.151   1
  -2   7  -1 9884.74 389.784   1
   1  -7  -2 9972.54 365.628   1
  -1   7  -2 9542.09 386.148   1
   2  -7  -1 9540.95 369.124   1
   2   7  -3 4660.92 275.524   1
   3   2  -7 4457.93 192.200   1
   2   3  -7 4433.08 223.870   1
  -3   7   2 4746.77 246.143   1
   0   7  -3 3815.95 247.767   1
   3   0  -7 3793.38 125.867   1
   0  -7  -3 3880.30 226.303   1
  -3   7   0 3490.85 228.112   1
   0   3  -7 3611.59 217.559   1
  -3   7  -2 4543.93 280.030   1
   2  -7  -3 4554.39 244.600   1
   3  -7  -2 4618.13 252.604   1
  -2   7  -3 4348.20 275.563   1
  -4   7   3 2477.16 173.994   1
   3   4  -7 2718.20 183.481   1
   1   4  -7 8387.61 341.160   1
   1   7  -4 8921.98 386.022   1
  -4   7   1 8909.34 358.042   1
  -4   7  -1 8853.99 389.007   1
  -1   7  -4 8667.57 396.062   1
  -1   4  -7 8274.44 365.558   1
   1  -7  -4 9165.13 335.915   1
  -3  -7   4 2528.26 217.742   1
  -3  -4   7 2565.55 185.513   1
  -4  -7   3 2631.04 216.172   1
   3  -4  -7 2691.23 99.4332   1
  -4   7  -3 2768.73 232.152   1
   3  -7  -4 2691.91 183.302   1
  -3   7  -4 2438.57 224.606   1
  -4  -3   7 2599.46 167.222   1
  -5   7   4 4600.68 231.068   1
  -7   4   5 4012.25 170.666   1
  -7   5   4 3985.56 199.335   1
   2   5  -7 439.056 83.2699   1
   2   7  -5 371.487 92.2000   1
  -5   7   2 345.925 74.4356   1
  -5   7   0 7804.56 359.013   1
   0   5  -7 7422.24 354.737   1
   0  -7  -5 8235.46 329.302   1
   0   7  -5 7902.63 381.776   1
  -2  -7   5 202.576 65.0914   1
  -5  -2   7 304.038 54.0365   1
   2  -7  -5 401.335 79.4232   1
   2  -5  -7 308.474 49.0126   1
  -2   7  -5 249.452 76.6594   1
  -5   7  -2 270.131 77.1029   1
  -4  -7   5 3879.27 272.302   1
  -5  -4   7 4057.14 229.598   1
  -5  -7   4 4498.01 287.476   1
  -4   7  -5 4174.91 303.172   1
  -4  -5   7 4406.51 261.104   1
  -7   6   5 789.590 89.5980   1
  -6   7   5 720.115 91.0152   1
  -7   5   6 689.884 68.2725   1
   3   6  -7 10004.3 408.156   1
  -7   6   3 10114.4 364.336   1
  -6   7   3 10180.5 370.780   1
   3   7  -6 10036.4 429.895   1
   1   7  -6 7808.42 384.141   1
  -6   7   1 8680.05 378.270   1
   1   6  -7 7971.02 375.503   1
  -6  -1   7 8229.05 233.225   1
  -1   6  -7 8607.21 409.118   1
  -1   7  -6 7981.90 401.047   1
   1  -7  -6 8377.98 316.027   1
  -1  -7   6 8354.39 403.935   1
  -6   7  -1 8271.17 397.328   1
  -7  -3   6 10922.2 356.834   1
  -6  -3   7 10910.4 349.869   1
  -6  -7   3 10354.0 442.490   1
   3  -6  -7 10273.3 288.383   1
  -3  -6   7 10913.4 438.105   1
  -3  -7   6 11167.6 457.342   1
   3  -7  -6 10868.4 340.876   1
  -3   7  -6 10869.9 492.430   1
  -6  -7   5 716.887 120.431   1
  -7  -6   5 816.588 124.477   1
  -6  -5   7 861.760 118.442   1
  -5  -6   7 719.453 117.019   1
  -7  -5   6 693.919 109.431   1
  -5  -7   6 991.311 143.517   1
  -7   7   6 6474.57 252.213   1
  -7   7   4 25.8370 26.3779   1
   2   7  -7 7023.62 368.101   1
  -7   7   2 7925.87 356.955   1
  -7   0   7 189.398 38.1099   1
   0   7  -7 73.0444 44.9489   1
  -2   7  -7 7285.11 402.033   1
  -2  -7   7 7568.62 396.405   1
   2  -7  -7 7681.85 290.287   1
  -7  -2   7 7264.21 262.774   1
  -4  -7   7 16.2599 41.3847   1
  -7  -7   4-29.5864 47.1492   1
   4  -7  -7 2.77040 29.2516   1
  -4   7  -7 109.432 78.2742   1
  -7  -4   7 66.0099 44.2265   1
  -7  -6   7 6651.06 350.299   1
  -6  -7   7 6598.12 369.869   1
  -7  -7   6 7053.04 378.246   1
   0   8   0 480.194 94.5733   1
  -1   8   1 15.1738 35.8555   1
   1  -8  -1 15.7295 43.5019   1
  -1   8  -1 4.06422 39.6943   1
  -2   8   2 3794.64 235.610   1
   2   2  -8 3794.00 195.856   1
   0  -8  -2 43.2660 38.1256   1
  -2   8   0 167.671 66.9224   1
   0   8  -2 132.299 59.0808   1
   2   0  -8 79.1637 30.0596   1
   2  -8  -2 3602.69 238.320   1
  -2   8  -2 3980.83 272.545   1
  -3   8   3-4.87277 26.7132   1
   3   3  -8 24.9393 24.9402   1
   3   1  -8 2066.20 122.390   1
   1   3  -8 2065.54 167.251   1
  -3   8   1 2227.19 185.396   1
   1   8  -3 2402.23 209.676   1
   3  -1  -8 2173.48 82.4256   1
  -3   8  -1 2060.96 193.779   1
  -1   8  -3 2083.40 198.001   1
   1  -8  -3 2512.16 195.071   1
   3  -8  -1 2096.52 188.844   1
  -3   8  -3 5.69769 43.4181   1
   3  -8  -3 23.4304 33.2251   1
  -4   8   4 1279.07 134.500   1
   4   4  -8 1142.56 124.162   1
   2   4  -8 96.6312 49.4895   1
  -4   8   2 195.360 69.4251   1
   2   8  -4 129.978 61.7683   1
   0   4  -8 312.899 76.6697   1
  -4   8   0 235.790 73.1967   1
   0  -8  -4 283.057 73.4956   1
   0   8  -4 209.793 69.4941   1
  -2   8  -4 153.033 77.2640   1
   2  -8  -4 71.2407 46.6720   1
  -4   8  -2 157.698 66.3138   1
  -4  -4   8 1373.39 140.408   1
  -4  -8   4 1429.50 173.590   1
  -4   8  -4 1129.16 160.170   1
  -5   8   5-13.5753 27.5169   1
  -8   5   5-25.5063 22.3995   1
  -5   8   3 2988.45 208.411   1
   3   5  -8 2917.97 214.990   1
   1   5  -8 1016.70 133.223   1
   1   8  -5 841.703 130.838   1
  -5   8   1 1083.24 138.095   1
   1  -8  -5 870.151 114.315   1
  -1   8  -5 1049.57 153.512   1
  -5   8  -1 1111.50 150.088   1
  -1  -8   5 986.809 150.861   1
  -1   5  -8 962.681 139.177   1
  -3  -8   5 3457.01 272.151   1
   3  -5  -8 3063.47 129.112   1
  -3   8  -5 3422.11 281.400   1
  -5  -3   8 3226.93 194.197   1
  -5   8  -3 3011.13 260.288   1
  -5  -8   3 3259.85 255.758   1
   3  -8  -5 3109.98 209.003   1
  -5   8  -5 83.9135 59.3233   1
  -5  -8   5 123.729 68.2573   1
  -5  -5   8-34.1525 35.9983   1
  -8   6   6 6833.98 246.922   1
  -6   8   4 96.3267 47.8626   1
  -8   6   4 55.1325 36.7267   1
  -8   4   6 26.0637 18.9948   1
   2   8  -6 3213.95 259.750   1
  -6   8   2 2740.09 217.276   1
   2   6  -8 2890.67 230.208   1
  -6   8   0 55.1621 36.7159   1
   0   6  -8 123.851 53.3382   1
   0   8  -6 188.778 78.4759   1
   0  -8  -6 168.891 59.4953   1
  -2  -8   6 2943.94 254.506   1
  -2   6  -8 3031.48 258.984   1
  -6  -2   8 2654.58 156.306   1
  -6  -8   2 3106.27 259.817   1
   2  -8  -6 2736.16 194.359   1
  -6   8  -2 2927.69 255.761   1
   2  -6  -8 2955.23 160.980   1
  -2   8  -6 3132.75 267.987   1
  -6  -4   8 80.5805 46.2914   1
  -8  -4   6 18.3617 31.7341   1
  -4  -8   6 139.179 69.8001   1
  -6  -8   4 106.447 62.5615   1
  -4  -6   8 80.9285 57.7570   1
   4  -8  -6 121.732 48.5844   1
  -4   8  -6 34.5531 47.8474   1
  -6   8  -4 140.433 72.1593   1
  -6  -6   8 6695.20 351.791   1
  -8  -6   6 6152.92 341.849   1
  -6  -8   6 6470.65 380.137   1
  -8   7   7 12.0148 20.3502   1
  -8   7   5 4408.27 234.858   1
  -8   5   7 4535.64 146.196   1
  -7   8   5 4180.92 235.202   1
  -8   7   3 1744.03 168.091   1
   3   8  -7 1729.21 193.938   1
  -7   8   3 1772.03 170.842   1
   3   7  -8 1565.67 175.812   1
  -8   3   7 1577.46 69.4673   1
   1   7  -8 6945.22 380.044   1
   1   8  -7 8147.94 422.021   1
  -7   8   1 7242.87 372.949   1
  -7   8  -1 7282.80 399.004   1
  -1   7  -8 7829.22 416.373   1
  -8  -1   7 7458.87 255.805   1
   1  -8  -7 7735.39 329.390   1
  -7  -1   8 7717.76 233.363   1
  -1   8  -7 7226.06 411.729   1
  -3   7  -8 1693.06 207.986   1
  -7  -8   3 1663.33 201.296   1
  -3  -7   8 1842.83 202.812   1
  -8  -3   7 1612.60 144.863   1
  -7  -3   8 1462.14 132.890   1
  -3  -8   7 2115.18 221.596   1
  -3   8  -7 1521.98 197.278   1
   3  -8  -7 1566.96 141.738   1
   3  -7  -8 1574.28 128.339   1
  -7  -5   8 4871.60 285.771   1
  -8  -7   5 4510.28 312.995   1
  -5  -7   8 4444.03 304.583   1
  -5   8  -7 4274.28 347.677   1
  -5  -8   7 4522.59 316.346   1
  -8  -5   7 4602.81 280.183   1
  -7  -8   5 3824.23 292.596   1
  -7  -7   8 17.1367 46.5460   1
  -8  -7   7-30.4330 49.3054   1
  -7  -8   7-14.8835 46.3731   1
  -8   8   6 22.6854 30.0723   1
  -8   8   4 6811.60 329.629   1
   2   8  -8-17.2115 43.1048   1
  -8   8   2 50.3475 42.8174   1
  -8   0   8 872.153 72.5075   1
   0   8  -8 1151.40 167.840   1
  -8   8   0 882.239 140.968   1
  -8  -2   8 8.26332 30.8167   1
   2  -8  -8-20.4606 24.6663   1
  -2   8  -8-3.12959 50.2455   1
   4  -8  -8 6944.45 283.133   1
  -4  -8   8 6916.69 401.484   1
  -8  -4   8 6811.57 318.803   1
  -8  -8   4 6166.31 377.221   1
  -4   8  -8 7407.93 454.920   1
  -8  -6   8 12.8754 37.4275   1
  -8  -8   6 34.0684 43.5942   1
  -6  -8   8 108.064 71.1706   1
  -8  -8   8 21809.7 732.252   1
  -1   9   0 17629.9 568.580   1
   0   9  -1 17008.2 568.626   1
   1   2  -9 3656.23 216.609   1
  -2   9   1 3796.32 257.974   1
   2   1  -9 3572.68 186.857   1
   1   9  -2 3934.57 278.784   1
  -2   9  -1 3727.31 267.398   1
  -1   9  -2 3549.68 267.160   1
   2   3  -9 1888.80 157.974   1
  -3   9   2 1722.22 173.805   1
   3   2  -9 1779.63 134.049   1
   0   3  -9 4000.38 251.410   1
   0   9  -3 3952.06 283.280   1
  -3   9   0 4150.24 280.159   1
   3   0  -9 4300.67 161.490   1
  -3   9  -2 1766.92 196.412   1
  -2   9  -3 1958.77 207.785   1
   3  -2  -9 1901.80 73.0213   1
  -4   9   3 4552.12 274.417   1
   4   3  -9 4254.43 222.402   1
   3   4  -9 4283.36 248.503   1
   1   4  -9 9377.30 388.889   1
   1   9  -4 9976.30 462.449   1
  -4   9   1 9943.78 423.570   1
  -4   9  -1 10230.5 456.364   1
  -1   9  -4 9917.64 469.148   1
   3  -9  -4 4689.37 283.122   1
  -4   9  -3 5119.48 341.512   1
   3  -4  -9 4623.42 123.995   1
  -3  -9   4 4962.01 334.855   1
  -3   9  -4 5049.09 344.983   1
  -4  -9   3 4844.27 326.134   1
   4   5  -9 1820.08 171.303   1
  -5   9   4 1985.83 177.486   1
   2   9  -5 5950.03 360.385   1
  -5   9   2 5511.19 312.983   1
   2   5  -9 5340.74 304.144   1
   0   9  -5 1350.97 175.730   1
  -5   9   0 1509.30 175.261   1
   0   5  -9 1229.80 158.235   1
  -2  -9   5 5081.91 346.734   1
  -5   9  -2 5607.70 356.691   1
  -5  -9   2 5304.36 342.623   1
   2  -9  -5 5208.53 295.067   1
  -2   9  -5 5068.57 349.659   1
  -5   9  -4 1806.05 216.648   1
   4  -9  -5 1930.80 177.145   1
  -4  -9   5 1841.03 209.622   1
  -4   9  -5 2055.18 228.535   1
  -5  -9   4 2001.08 219.679   1
  -9   5   6 4943.71 211.008   1
  -6   9   5 4552.43 264.814   1
  -9   6   5 4012.57 226.791   1
  -6   9   3 3314.50 242.151   1
   3   6  -9 2819.58 227.715   1
   1   6  -9 6705.49 368.690   1
   1   9  -6 7706.31 417.903   1
  -6   9   1 6454.03 358.891   1
  -1   6  -9 6212.53 372.355   1
  -1  -9   6 5922.58 380.163   1
  -6   9  -1 6771.29 387.780   1
  -6  -9   1 6779.19 398.862   1
  -1   9  -6 7401.58 424.254   1
   3  -9  -6 3087.24 220.712   1
  -6  -3   9 3066.42 193.003   1
  -3   9  -6 3292.24 290.808   1
  -6   9  -3 3695.30 307.071   1
   3  -6  -9 2975.37 149.073   1
  -6  -9   3 2946.51 263.543   1
  -3  -9   6 3616.88 298.842   1
  -5   9  -6 4957.48 374.495   1
  -6  -5   9 5691.78 310.021   1
  -6   9  -5 4882.28 370.084   1
  -9  -5   6 4976.74 302.681   1
  -5  -6   9 4999.14 312.026   1
  -5  -9   6 5407.53 363.777   1
  -6  -9   5 4530.30 333.327   1
  -9   7   6 562.296 84.4230   1
  -7   9   6 620.000 97.2954   1
  -9   6   7 494.123 62.1751   1
  -9   7   4 1761.09 165.487   1
  -9   4   7 1885.31 102.818   1
  -7   9   4 1867.58 177.700   1
   4   7  -9 1800.79 197.128   1
  -7   9   2 2216.72 208.187   1
   2   7  -9 2512.48 231.068   1
   2   9  -7 2057.93 221.186   1
   0   9  -7 1818.30 213.823   1
   0   7  -9 1619.90 195.840   1
  -7   9   0 1803.35 202.957   1
  -2   7  -9 2569.88 258.166   1
  -2   9  -7 2301.04 246.398   1
  -9  -2   7 2187.78 162.633   1
  -2  -9   7 2712.78 263.492   1
  -7  -2   9 2383.17 150.915   1
  -7   9  -2 2507.75 253.393   1
   2  -7  -9 2156.43 154.773   1
  -7  -9   2 2423.75 247.302   1
   2  -9  -7 2461.72 196.978   1
  -4  -9   7 1701.66 211.229   1
  -9  -4   7 1957.15 178.329   1
  -7  -9   4 2323.86 243.278   1
  -4   9  -7 1993.03 238.376   1
   4  -7  -9 1994.75 124.987   1
  -7   9  -4 1960.78 235.023   1
  -4  -7   9 1823.80 203.201   1
  -4   7  -9 2109.30 244.227   1
   4  -9  -7 1839.17 166.569   1
  -7  -4   9 2149.50 178.973   1
  -7  -6   9 620.033 116.014   1
  -6  -7   9 481.254 106.671   1
  -6  -9   7 506.325 122.979   1
  -9  -6   7 455.859 98.1583   1
  -9  -7   6 538.955 114.245   1
  -7  -9   6 478.609 119.385   1
  -9   8   7 1688.68 137.187   1
  -9   8   5 2137.82 181.992   1
  -8   9   5 2274.23 189.031   1
  -8   9   3 5321.24 318.886   1
  -9   8   3 5101.83 308.451   1
   3   8  -9 4662.43 329.640   1
   3   9  -8 5043.86 355.298   1
  -9   8   1 4902.95 330.031   1
  -8   9   1 4901.71 333.618   1
   1   9  -8 4922.63 352.081   1
  -9   1   8 4804.23 150.464   1
   1   8  -9 5035.62 350.079   1
  -8   9  -1 4990.56 351.765   1
  -8  -1   9 5030.10 193.871   1
  -1   8  -9 4873.24 356.968   1
   1  -8  -9 4681.84 259.774   1
  -1   9  -8 4665.56 355.371   1
  -9  -1   8 5250.19 217.698   1
  -8  -3   9 5388.29 259.878   1
  -8   9  -3 4949.33 370.460   1
   3  -9  -8 5168.63 279.073   1
  -3   8  -9 5424.03 393.036   1
  -3  -9   8 5155.05 367.069   1
   3  -8  -9 5178.49 247.024   1
  -8  -9   3 5088.58 363.314   1
  -9  -3   8 5230.47 265.276   1
  -9  -8   5 2136.61 236.969   1
  -5  -9   8 2295.38 250.797   1
  -8  -5   9 1973.56 191.346   1
  -8  -9   5 2297.15 248.277   1
  -5  -8   9 2150.65 233.480   1
  -9  -5   8 2272.96 204.110   1
  -7  -9   8 1727.55 219.032   1
  -9  -8   7 1945.10 224.951   1
  -9  -7   8 2049.28 218.155   1
  -8  -9   7 1720.76 223.074   1
  -7  -8   9 1867.02 216.610   1
  -8  -7   9 2038.96 215.694   1
  -9   9   6 2014.71 171.713   1
  -9   9   4-15.5366 27.6589   1
  -9   9   2 413.878 98.7941   1
   2   9  -9 362.397 106.156   1
  -9   0   9 11.2020 17.0915   1
  -9   9   0 13.7516 49.7270   1
   0   9  -9-45.0387 80.4805   1
   2  -9  -9 351.873 78.7732   1
  -9  -2   9 466.316 74.8820   1
   4  -9  -9-21.3374 34.6502   1
  -9  -4   9 7.09977 35.0385   1
  -4  -9   9 69.7425 79.1183   1
  -9  -9   4 87.3611 74.7547   1
  -9  -6   9 2069.64 210.396   1
  -9  -9   6 1891.17 230.522   1
  -6  -9   9 1916.49 234.012   1
  -9  -9   8-223.446 86.2417   1
  -8  -9   9-35.3546 58.7002   1
  -9  -8   9-61.5177 67.5098   1
   0 -10   0 148.638 81.9642   1
   1 -10   1 5278.87 350.438   1
  -1 -10  -1 4304.29 304.472   1
  -1  10  -1 4359.06 302.795   1
   1 -10  -1 4363.13 301.266   1
   2   2 -10 31.4985 33.5684   1
  -2 -10  -2-10.3237 39.9891   1
   2 -10   0 300.421 91.5288   1
   0 -10  -2 424.154 100.529   1
  -2  10   0 715.053 124.981   1
   0  10  -2 840.295 141.736   1
   2   0 -10 433.731 66.8535   1
  -2  10  -2 57.1543 57.4244   1
  -3 -10  -3 4736.89 325.009   1
   3   3 -10 4776.66 248.605   1
   1   3 -10 480.012 88.4683   1
   3   1 -10 381.910 61.0766   1
  -3  10   1 561.452 105.943   1
   1  10  -3 484.443 105.231   1
  -1 -10  -3 370.771 91.5706   1
  -3  10  -1 656.030 121.156   1
   3  -1 -10 507.434 55.3999   1
   3 -10  -1 636.366 122.233   1
  -1  10  -3 431.974 106.218   1
  -3  10  -3 4168.65 317.870   1
  -3 -10   3 3778.93 309.742   1
   4   4 -10-11.7885 29.2024   1
   4   2 -10 812.395 91.2471   1
   2   4 -10 849.302 120.355   1
  -4 -10  -2 830.067 144.701   1
  -2 -10  -4 1004.96 151.791   1
  -4  10   2 993.926 139.601   1
   0   4 -10 659.439 113.385   1
   0  10  -4 722.452 136.362   1
  -4  10   0 690.190 126.341   1
  -2  10  -4 1043.25 161.263   1
  -4 -10   2 874.371 148.858   1
  -2 -10   4 862.466 151.976   1
  -4  10  -2 992.639 153.578   1
  -4  10  -4 2.14386 55.6125   1
  -4 -10   4 17.9427 53.9074   1
  -5  10   3 253.150 69.4987   1
   3   5 -10 129.314 61.5668   1
  -5 -10  -1 3132.31 279.183   1
   1  10  -5 4124.51 321.235   1
   1   5 -10 4409.43 291.268   1
  -1 -10  -5 4202.04 293.568   1
  -5  10   1 4498.82 307.174   1
  -1 -10   5 4465.34 343.530   1
  -5  10  -1 4144.05 309.619   1
  -1  10  -5 4335.71 331.711   1
  -1   5 -10 3860.06 292.470   1
  -5 -10   1 4428.77 328.813   1
  -3 -10   5 255.767 93.7201   1
  -5 -10   3 174.545 67.8451   1
   3  -5 -10 110.774 29.0848   1
  -3  10  -5 137.142 74.7300   1
  -5  10  -3 48.5998 42.4449   1
  -5 -10   5 5177.64 373.872   1
 -10   6   6 37.6633 34.9386   1
  -6  10   4 2060.82 197.086   1
   4   6 -10 1626.03 179.654   1
   2   6 -10 159.985 61.5553   1
  -6  10   2 161.178 54.1382   1
   2  10  -6 253.685 86.0694   1
   0   6 -10 112.696 67.0425   1
   0  10  -6 120.973 90.7453   1
  -6  10   0 40.8314 49.3103   1
  -6 -10   0 20.2884 49.0758   1
  -6  10  -2 182.213 77.3619   1
  -2   6 -10 258.363 86.1460   1
  -2 -10   6 229.339 80.8962   1
   2  -6 -10 195.736 48.4774   1
  -2  10  -6 397.445 109.298   1
  -6 -10   2 202.807 81.1724   1
  -6 -10   4 2332.68 245.895   1
  -4 -10   6 2028.81 236.675   1
 -10  -6   6-8.41022 38.1331   1
  -6 -10   6 47.0639 49.8940   1
 -10   7   7 5430.88 237.681   1
 -10   7   5 635.674 98.8611   1
  -7  10   5 619.937 108.846   1
 -10   5   7 606.621 71.1104   1
   3  10  -7 7674.51 445.216   1
   3   7 -10 6738.70 380.155   1
  -7  10   3 6820.72 366.315   1
   1  10  -7 4603.17 349.175   1
   1   7 -10 5056.68 345.475   1
  -7  10   1 4433.74 317.228   1
  -1 -10  -7 4978.40 322.096   1
  -7  10  -1 4904.93 353.211   1
  -7 -10   1 4490.67 351.205   1
  -1   7 -10 4305.88 331.839   1
  -1  10  -7 4968.20 373.091   1
  -7 -10   3 7172.00 436.388   1
  -3 -10   7 6545.93 431.413   1
  -3   7 -10 7683.29 463.395   1
   3  -7 -10 6924.24 249.184   1
 -10  -3   7 7156.03 332.368   1
  -7 -10   5 815.502 155.626   1
 -10  -7   5 958.145 157.198   1
  -7  -5  10 553.958 107.994   1
 -10  -5   7 545.019 108.782   1
  -5 -10   7 737.895 150.873   1
  -7 -10   7 5556.70 409.530   1
  -7  -7  10 5534.58 361.806   1
 -10  -7   7 6090.68 379.251   1
 -10   6   8 7650.57 201.599   1
 -10   8   6 7117.47 320.339   1
  -8  10   6 7623.44 350.743   1
 -10   4   8 184.706 27.2755   1
   4   8 -10 304.053 90.6059   1
 -10   8   4 345.187 85.8538   1
  -8  10   4 211.037 66.4556   1
  -8  10   2 1960.67 213.070   1
 -10   8   2 2140.86 219.425   1
   2   8 -10 1982.59 221.468   1
  -8  10   0 200.786 69.9854   1
 -10   0   8 192.568 45.1455   1
   0   8 -10 183.759 82.3659   1
  -8 -10   2 2308.60 258.772   1
   2  -8 -10 2149.62 163.771   1
  -2   8 -10 2543.73 270.370   1
 -10  -2   8 2148.00 165.558   1
  -8 -10   4 250.887 104.006   1
 -10  -4   8 377.643 85.5447   1
   4 -10  -8 404.480 90.9786   1
  -8  -4  10 200.706 61.0750   1
  -4 -10   8 174.826 78.2623   1
   4  -8 -10 156.754 40.3607   1
  -6 -10   8 8249.92 493.330   1
  -8  -6  10 7477.47 396.312   1
  -6  -8  10 7838.35 447.646   1
 -10  -8   6 7745.02 447.463   1
 -10  -6   8 7567.96 404.489   1
  -8 -10   6 7818.23 474.888   1
 -10  -8   8-57.2653 63.7761   1
  -8  -8  10 14.2836 50.6764   1
  -8 -10   8-7.38596 60.6244   1
 -10   9   7 437.253 78.9406   1
 -10   9   5 2899.80 229.668   1
  -9  10   5 3000.26 236.665   1
   3   9 -10 2493.86 256.458   1
 -10   9   3 2635.76 238.319   1
  -9  10   3 2699.21 245.482   1
 -10   1   9 3775.39 116.871   1
  -9  10   1 3610.97 301.209   1
 -10   9   1 3534.08 295.100   1
 -10  -1   9 3905.70 192.676   1
   3 -10  -9 2354.51 198.521   1
  -9  -3  10 2894.84 197.921   1
 -10  -3   9 2705.73 198.750   1
   3  -9 -10 2813.61 194.520   1
  -9 -10   3 2938.58 297.128   1
 -10  -5   9 2970.31 239.956   1
  -5 -10   9 2882.64 295.149   1
  -5  -9  10 3178.39 299.315   1
 -10  -9   5 2916.66 288.537   1
  -9  -5  10 3133.28 241.929   1
  -9 -10   5 3309.07 309.946   1
 -10  -9   7 301.384 93.3330   1
  -9 -10   7 676.086 147.503   1
 -10  -7   9 541.222 123.775   1
  -7 -10   9 415.450 121.620   1
  -9  -7  10 458.642 107.804   1
  -7  -9  10 517.908 129.348   1
  -9 -10   9 1212.00 200.129   1
 -10  -9   9 1447.93 214.924   1
  -9  -9  10 1984.62 246.293   1
 -10  10   6 83.1579 52.0494   1
 -10  10   4 1756.06 193.755   1
 -10  10   2-15.2590 42.7917   1
   0 -10 -10 567.460 116.065   1
 -10  -2  10-16.4657 30.8240   1
   4 -10 -10 2487.35 193.387   1
 -10 -10   4 2289.54 269.409   1
 -10  -4  10 2107.86 186.700   1
  -6 -10  10-107.613 73.5122   1
 -10  -6  10-25.2629 41.1850   1
 -10 -10   6-9.41332 50.3856   1
 -10 -10   8 8353.65 523.711   1
  -8 -10  10 8174.56 509.665   1
 -10  -8  10 8572.38 481.752   1
 -10 -10  10-83.8797 79.2706   1
   0 -11  -1 5065.78 342.641   1
   0 -11   1 4056.56 319.197   1
  -1 -11   0 4506.78 332.555   1
  -1  11   0 5388.59 351.486   1
   1 -11   0 4663.85 340.849   1
   1   2 -11 11360.7 415.782   1
   1 -11   2 9694.48 503.946   1
  -2  11   1 11855.8 515.860   1
   2 -11   1 11090.4 530.227   1
  -2 -11  -1 11839.4 530.201   1
  -1 -11  -2 12000.8 529.544   1
   2   1 -11 10532.0 355.959   1
  -2 -11   1 10472.6 510.118   1
  -1 -11   2 10322.5 517.472   1
   1 -11  -2 11054.2 502.760   1
   2 -11  -1 12093.7 536.661   1
  -2  11  -1 11576.0 522.709   1
  -1  11  -2 11176.1 522.211   1
   2   3 -11 2638.13 202.071   1
  -3  11   2 2347.97 227.922   1
  -3 -11  -2 2626.19 254.425   1
   3   2 -11 2636.86 177.221   1
  -2 -11  -3 2447.93 241.184   1
   0  11  -3 3161.19 284.015   1
   0 -11   3 2364.04 254.138   1
   3   0 -11 3129.88 158.519   1
  -3  11   0 3356.87 281.262   1
  -3 -11   0 2513.59 251.068   1
   0 -11  -3 3347.39 277.555   1
   0   3 -11 2793.06 227.411   1
  -3 -11   2 2313.61 252.421   1
  -2 -11   3 2292.85 247.140   1
   3 -11  -2 2477.04 242.176   1
  -2  11  -3 2295.19 244.509   1
   3  -2 -11 2254.74 104.287   1
   2 -11  -3 2332.95 227.453   1
  -3  11  -2 2542.92 251.909   1
   4   3 -11 3106.22 200.036   1
  -4  11   3 2836.23 246.350   1
   3   4 -11 3038.01 221.204   1
  -4 -11  -3 3645.02 309.100   1
  -3 -11  -4 3387.64 288.445   1
   1  11  -4 3848.58 322.428   1
   1   4 -11 3492.47 254.806   1
  -1 -11  -4 3838.14 296.277   1
   4   1 -11 3867.68 178.979   1
  -4 -11  -1 3184.15 286.915   1
  -4  11   1 4315.96 312.636   1
  -4 -11   1 4336.03 336.223   1
  -1 -11   4 3915.23 330.772   1
  -1   4 -11 3912.68 292.926   1
   1 -11  -4 4046.00 296.286   1
  -1  11  -4 4289.10 335.027   1
  -4  11  -1 4298.40 325.187   1
  -4  11  -3 3709.57 318.549   1
  -3 -11   4 3023.55 286.758   1
   3 -11  -4 3150.71 261.921   1
  -4 -11   3 3409.17 309.276   1
   4   5 -11 2144.96 194.558   1
  -5  11   4 2304.96 217.120   1
  -5  11   2 2522.89 236.684   1
   2   5 -11 2480.04 220.634   1
  -5 -11  -2 2119.40 237.650   1
  -2 -11  -5 2527.15 245.836   1
  -5  11   0 5191.36 355.177   1
   0   5 -11 4895.22 329.677   1
   0  11  -5 4933.66 363.415   1
   0 -11   5 5545.73 399.031   1
  -5 -11   0 5461.37 381.128   1
   0 -11  -5 4898.88 326.539   1
  -5  11  -2 2687.03 269.505   1
   2 -11  -5 3052.06 252.672   1
  -2 -11   5 2727.41 284.253   1
  -5 -11   2 2574.85 267.483   1
  -2   5 -11 2615.11 257.547   1
  -5 -11   4 2215.75 255.693   1
  -4 -11   5 2187.64 249.967   1
   3   6 -11 1813.45 192.553   1
  -6  11   3 2196.58 216.928   1
  -6  11   1 3136.50 273.388   1
  -1 -11  -6 3232.28 270.602   1
   1   6 -11 3298.27 275.902   1
  -6 -11  -1 2729.50 280.896   1
  -6  11  -1 3257.26 294.429   1
  -1   6 -11 3521.81 297.347   1
   1 -11  -6 2992.06 255.606   1
  -1 -11   6 3184.49 307.670   1
  -6 -11   1 3530.94 315.672   1
  -3 -11   6 2364.71 264.981   1
  -3   6 -11 2079.91 244.114   1
  -6 -11   3 2254.53 254.611   1
   3  -6 -11 2237.21 120.928   1
  -5 -11   6 812.579 164.390   1
  -6 -11   5 663.337 146.542   1
 -11   7   6 1100.02 127.340   1
 -11   6   7 1199.58 111.233   1
 -11   7   4 1196.15 149.934   1
   4   7 -11 1015.44 153.621   1
  -7  11   4 1118.70 153.734   1
   2   7 -11 1596.85 195.561   1
  -2 -11  -7 1644.42 203.414   1
  -7  11   2 1583.19 191.419   1
   0 -11  -7 1302.00 168.942   1
  -7 -11   0 1014.42 176.934   1
  -7  11   0 1083.98 173.653   1
   0   7 -11 1301.96 186.721   1
  -2 -11   7 1382.87 209.854   1
  -7 -11   2 1639.12 221.724   1
   2  -7 -11 1568.26 132.896   1
  -2   7 -11 1598.65 215.246   1
  -7 -11   4 1397.43 205.013   1
  -4 -11   7 1105.99 187.778   1
 -11  -4   7 1222.92 153.921   1
 -11  -6   7 1023.26 158.216   1
  -7 -11   6 1296.32 207.334   1
 -11  -7   6 673.247 137.025   1
  -6 -11   7 799.276 164.114   1
 -11   7   8 372.245 54.2101   1
 -11   8   7 323.809 65.9390   1
 -11   5   8 1312.19 87.0151   1
 -11   8   5 1317.99 152.096   1
  -8  11   5 1106.81 154.092   1
  -8  11   3 2573.60 244.120   1
 -11   8   3 2711.32 244.068   1
   3   8 -11 2348.25 243.501   1
  -8  11   1 4316.55 335.287   1
   1   8 -11 4027.96 328.038   1
  -1 -11  -8 4290.69 315.973   1
   1  -8 -11 3782.69 235.829   1
 -11  -1   8 4267.80 226.501   1
  -8 -11   1 4249.32 362.591   1
   1 -11  -8 4352.66 301.756   1
   3  -8 -11 2343.29 158.920   1
  -3 -11   8 2574.49 284.133   1
 -11  -3   8 2280.73 193.993   1
  -8 -11   3 2346.24 271.673   1
  -8 -11   5 1535.46 224.214   1
  -8  -5  11 1258.22 157.103   1
 -11  -5   8 1423.78 174.697   1
 -11  -8   5 1393.15 204.188   1
  -5 -11   8 1197.25 208.540   1
  -7 -11   8 268.046 98.7843   1
  -8 -11   7 481.025 143.710   1
  -8  -7  11 235.825 83.2765   1
 -11  -8   7 450.855 122.502   1
  -7  -8  11 328.965 98.4193   1
 -11  -7   8 336.803 95.2883   1
 -11   9   6 141.313 58.1746   1
  -9  11   6 91.7027 32.4232   1
  -9  11   4 216.068 77.7921   1
 -11   9   4 274.117 81.5562   1
  -9  11   2 66.4334 58.8020   1
 -11   9   2 20.8212 48.3270   1
   0 -11  -9 813.910 136.199   1
 -11   0   9 685.312 75.2707   1
   2  -9 -11 39.8741 32.7956   1
  -9 -11   2-6.53639 65.0097   1
 -11  -2   9 5.80085 24.1007   1
  -4 -11   9 286.574 110.083   1
 -11  -4   9 135.504 58.8870   1
   4  -9 -11 268.851 58.8924   1
  -9 -11   4 207.974 86.9416   1
  -9  -4  11 257.006 72.0912   1
  -9  -6  11 207.428 79.9809   1
  -9 -11   6 229.954 100.542   1
 -11  -6   9 177.041 83.4258   1
 -11  -9   6 167.345 89.8689   1
  -6 -11   9 162.931 85.0752   1
 -11  -9   8 123.678 67.0596   1
 -11  -8   9-72.9026 66.2846   1
  -8  -9  11 28.3636 43.7901   1
  -9 -11   8 6.90961 54.8462   1
  -8 -11   9 86.9205 66.3252   1
  -9  -8  11 75.2288 57.6745   1
 -10  11   7 1066.75 136.321   1
 -11  10   5 962.533 136.078   1
 -10  11   5 886.632 140.813   1
 -10  11   3 2162.27 235.157   1
 -11  10   3 2367.88 239.570   1
  -1 -11 -10 2252.65 231.578   1
 -11  -1  10 2355.49 147.229   1
   1 -11 -10 2431.46 224.205   1
 -11  -3  10 2282.09 183.678   1
   3 -10 -11 2353.41 189.698   1
 -10  -3  11 2245.43 174.308   1
 -10 -11   3 2164.06 271.593   1
  -5 -11  10 1037.93 199.188   1
 -10 -11   5 753.274 164.541   1
 -11  -5  10 941.826 139.105   1
 -10  -5  11 868.387 134.541   1
 -11 -10   5 921.825 185.379   1
 -11 -10   7 997.161 182.505   1
  -7 -11  10 1159.63 206.950   1
 -10 -11   7 1038.50 195.126   1
 -10  -7  11 1069.86 167.607   1
 -11  -7  10 955.014 161.910   1
  -7 -10  11 1005.06 181.223   1
 -11  -9  10 205.148 89.4186   1
 -10 -11   9 39.7203 72.6328   1
  -9 -11  10 191.838 95.2005   1
 -11 -10   9 121.637 77.4442   1
 -10  -9  11 90.8450 54.8068   1
  -9 -10  11 319.664 120.608   1
 -11  11   6 666.823 119.145   1
 -11  11   4-0.50023 42.4283   1
   0 -11 -11-16.9895 45.5881   1
 -11  -2  11 545.226 77.9793   1
 -11  -4  11 23.6819 30.7393   1
   4 -11 -11 16.2105 30.6560   1
 -11 -11   4 39.3766 64.9099   1
 -11  -6  11 731.683 131.360   1
 -11 -11   6 856.930 181.037   1
 -11  -8  11 46.7200 73.9613   1
 -11 -11   8 7.37340 77.3666   1
  -8 -11  11-4.36399 50.9521   1
 -11 -11  10 146.922 86.0470   1
 -11 -10  11 198.017 96.9281   1
 -10 -11  11 54.1364 72.1339   1
   0 -12   0 1298.54 197.808   1
   1   1 -12-11.0314 41.9294   1
   1 -12   1-31.7532 63.3531   1
  -1 -12  -1-86.2596 75.0109   1
   1 -12  -1-28.1531 70.5048   1
  -1  12  -1 29.4725 43.3373   1
  -1 -12   1-47.1589 40.9437   1
  -2 -12  -2 40.5560 53.9606   1
   2 -12   2 122.622 70.7273   1
   2   2 -12 244.210 61.8237   1
   2   0 -12 416.439 72.5785   1
  -2 -12   0 356.322 104.568   1
  -2  12   0 349.241 92.8209   1
   0 -12  -2 498.106 121.571   1
   0 -12   2 362.267 104.231   1
   2 -12   0 624.619 133.754   1
   2 -12  -2 141.229 66.6573   1
  -2 -12   2 337.390 115.857   1
   3   3 -12 33.7145 38.1402   1
  -3 -12  -3-58.9435 55.5056   1
  -3 -12  -1 834.285 155.183   1
   3   1 -12 863.975 98.9976   1
  -1 -12  -3 1045.30 168.326   1
   1   3 -12 888.620 127.780   1
  -3  12   1 896.362 149.587   1
   1 -12   3 1104.10 187.165   1
   3 -12  -1 920.010 156.952   1
   3  -1 -12 988.739 85.1249   1
  -3 -12   1 954.846 169.798   1
  -1 -12   3 680.513 149.077   1
  -3  12  -1 997.475 160.678   1
   1 -12  -3 912.570 156.869   1
   3 -12  -3 5.11689 59.2001   1
  -3 -12   3-66.5037 75.1965   1
   3  -3 -12 8.41259 14.3368   1
  -4 -12  -4 386.660 124.682   1
   4   4 -12 205.667 61.9041   1
  -2 -12  -4 22.0625 52.6652   1
  -4 -12  -2 120.172 74.5349   1
   2   4 -12 81.9501 50.1153   1
  -4  12   2 120.337 70.9873   1
   4   2 -12 105.226 37.3368   1
   0 -12   4 133.851 93.2823   1
   0 -12  -4-21.8527 56.0486   1
   0   4 -12 24.1646 52.2754   1
   4   0 -12 18.1235 19.4166   1
  -4  12   0-65.8811 49.7345   1
  -4 -12   0 70.4049 59.5275   1
   2 -12  -4 120.536 74.6221   1
  -4 -12   2 134.390 83.8802   1
  -2 -12   4 152.671 71.5821   1
   4 -12  -4 314.731 98.7615   1
  -4 -12   4 459.917 119.721   1
  -5  12   3 1821.17 206.676   1
  -5 -12  -3 1568.38 215.260   1
  -3 -12  -5 1736.44 220.133   1
   3   5 -12 1584.70 173.251   1
  -5 -12  -1 1017.59 180.938   1
   1   5 -12 974.147 148.665   1
  -5  12   1 1043.15 166.429   1
  -1 -12  -5 989.217 160.457   1
  -1   5 -12 906.486 158.120   1
   1 -12  -5 1169.03 168.511   1
  -1 -12   5 1021.89 183.841   1
  -5 -12   1 572.568 140.279   1
  -3 -12   5 2094.00 260.401   1
  -5 -12   3 2019.54 249.594   1
   3 -12  -5 1641.94 200.463   1
   3  -5 -12 1757.15 90.4951   1
  -5 -12   5 36.8849 83.5271   1
 -12   6   6 3639.02 231.106   1
  -6  12   4 41.7471 36.6431   1
   4   6 -12 49.8145 39.8424   1
  -6 -12  -2 846.677 175.275   1
  -6  12   2 849.974 149.824   1
  -2 -12  -6 730.423 144.373   1
   2   6 -12 775.420 134.905   1
   0   6 -12 103.014 58.0611   1
   0 -12  -6 219.995 80.8288   1
  -6 -12   0 79.4335 61.1490   1
  -2 -12   6 914.231 183.516   1
  -2   6 -12 890.911 162.238   1
   2 -12  -6 826.430 145.489   1
  -6 -12   2 629.039 140.217   1
  -6 -12   4-12.3086 59.2864   1
  -4 -12   6 97.1339 68.4541   1
   4 -12  -6 27.9892 38.2932   1
  -6 -12   6 4315.95 383.112   1
 -12   7   7-6.87654 21.7181   1
 -12   7   5 3285.02 244.673   1
 -12   5   7 3086.95 190.669   1
  -7  12   5 3210.11 265.794   1
   3   7 -12 879.456 147.520   1
  -3 -12  -7 1085.16 176.818   1
  -7  12   3 1010.02 161.570   1
   1   7 -12 3361.30 297.919   1
  -7 -12  -1 3119.09 317.448   1
  -1 -12  -7 3505.34 293.266   1
  -7  12   1 3370.93 299.040   1
  -1   7 -12 3497.73 313.697   1
   1 -12  -7 3160.97 276.972   1
  -7 -12   1 3467.35 338.540   1
   3  -7 -12 988.138 91.1638   1
  -3 -12   7 940.880 174.703   1
   3 -12  -7 1078.18 159.579   1
  -7 -12   3 1120.24 190.427   1
  -7 -12   5 2987.35 318.409   1
  -5 -12   7 3036.21 327.159   1
 -12  -5   7 3374.42 272.236   1
  -7 -12   7-107.159 101.443   1
 -12  -7   7-56.0265 52.4328   1
 -12   6   8 55.7053 28.0056   1
 -12   8   6 19.5793 36.1572   1
 -12   4   8 2597.34 145.067   1
 -12   8   4 2399.03 225.065   1
   4   8 -12 2301.70 245.015   1
  -8  12   4 2680.91 249.312   1
  -8  12   2 94.0500 58.2806   1
   2   8 -12 143.601 72.0542   1
  -2 -12  -8 48.1033 59.6805   1
   0 -12  -8 88.7769 59.7678   1
  -8 -12   0 107.711 67.5013   1
   2 -12  -8 188.354 77.0474   1
  -8 -12   2 262.877 113.188   1
   2  -8 -12 94.2765 43.2040   1
 -12  -4   8 2737.44 230.356   1
  -4 -12   8 2710.31 305.080   1
   4 -12  -8 2519.51 234.982   1
  -8 -12   4 2632.88 296.506   1
  -8 -12   6 41.1323 63.7402   1
  -6 -12   8 41.3516 83.3338   1
 -12  -8   6 162.929 75.4540   1
 -12  -6   8-5.79563 34.9550   1
  -8 -12   8 10664.6 623.705   1
 -12  -8   8 9371.69 521.163   1
 -12   9   5 1259.00 161.666   1
  -9  12   5 1337.75 175.058   1
 -12   3   9 2464.17 91.4092   1
 -12   9   3 1972.42 221.014   1
 -12   3   9 2555.18 91.3612   1
  -9  12   3 2378.74 248.261   1
 -12   1   9 3251.32 157.801   1
  -1 -12  -9 3013.14 280.976   1
  -9 -12   1 3354.30 343.191   1
 -12  -1   9 3458.31 204.213   1
   1 -12  -9 2775.37 254.500   1
   3  -9 -12 2564.30 178.295   1
   3 -12  -9 2334.52 228.085   1
  -9 -12   3 2706.11 315.360   1
 -12  -3   9 2534.81 206.305   1
  -9 -12   5 1290.80 218.266   1
 -12  -5   9 1266.89 167.614   1
 -12  -9   5 1226.62 198.383   1
  -5 -12   9 1034.54 199.346   1
 -12  -7   9 867.288 153.113   1
  -9  -7  12 829.239 149.133   1
  -9 -12   7 610.623 168.730   1
  -7 -12   9 865.781 183.321   1
 -12  -9   7 535.905 137.241   1
  -9 -12   9 80.3868 62.9368   1
  -9  -9  12 49.8968 65.1551   1
 -12  -9   9-42.2219 53.9991   1
 -10  12   6 4942.83 327.779   1
 -12  10   4 127.717 76.8872   1
 -10  12   4 304.557 92.7189   1
  -2 -12 -10 965.277 163.189   1
 -12   0  10 22.7990 20.6919   1
   0 -10 -12 14.8599 40.4203   1
 -12  -2  10 984.317 116.261   1
   2 -12 -10 952.824 148.662   1
 -10 -12   2 1048.15 199.122   1
 -12  -4  10 88.5785 51.6185   1
 -12 -10   4 63.7453 68.6149   1
   4 -10 -12 82.7806 41.5867   1
 -10 -12   4 64.9074 66.0539   1
 -12  -6  10 4679.00 339.603   1
 -10 -12   6 4764.99 418.387   1
  -6 -12  10 4558.27 409.943   1
 -10  -6  12 5103.38 335.531   1
 -12 -10   6 5074.56 418.040   1
 -12 -10   8 214.747 103.371   1
 -12  -8  10 170.246 85.2925   1
 -10 -12   8 169.441 103.435   1
 -10  -8  12 332.141 95.8817   1
  -8 -12  10 160.039 84.0529   1
 -12 -10  10 6423.86 475.162   1
 -10 -12  10 6547.79 506.805   1
 -10 -10  12 6516.47 477.391   1
 -11  12   5 1327.75 184.134   1
  -1 -11 -12 2651.01 254.906   1
  -1 -12 -11 2701.40 264.840   1
 -12  -1  11 2718.14 146.240   1
   1 -11 -12 2840.50 238.649   1
   1 -12 -11 2658.81 248.031   1
 -12  -3  11 2015.35 172.060   1
 -12 -11   3 1969.03 271.934   1
 -11 -12   3 2159.60 287.540   1
 -11  -5  12 1600.82 176.957   1
 -12  -5  11 1426.52 170.213   1
 -12 -11   5 1220.81 218.431   1
 -11 -12   5 1038.37 204.360   1
 -12 -11   7 707.022 162.367   1
 -11  -7  12 698.246 139.173   1
 -11 -12   7 374.707 114.822   1
 -12  -7  11 356.410 105.019   1
  -7 -12  11 561.827 145.212   1
 -12  -9  11 5.23111 74.2616   1
 -12 -11   9-70.7947 64.2013   1
  -9 -12  11-24.1485 72.8560   1
  -9 -11  12-12.0394 69.0091   1
 -11 -12   9 41.2278 58.6408   1
 -11  -9  12-92.0041 67.5214   1
 -11 -11  12-38.1797 66.0491   1
 -12 -11  11-61.8919 62.7047   1
  -2 -12 -12-27.3325 64.6190   1
   0 -12 -12 193.718 74.7215   1
 -12 -12   2-27.6391 62.2827   1
   2 -12 -12 87.9641 53.0792   1
 -12  -4  12 3005.23 223.520   1
 -12 -12   4 2293.39 303.737   1
 -12 -12   6 139.238 89.3556   1
 -12  -6  12-117.276 57.9437   1
 -12 -12   8 7265.48 552.691   1
 -12  -8  12 7201.52 461.199   1
 -12 -10  12 85.7326 67.9489   1
 -12 -12  10 25.2623 60.5253   1
 -12 -12  12 5042.75 460.804   1
  -1 -13   0 4182.47 357.140   1
   0 -13  -1 3896.99 339.746   1
   0 -13   1 4144.20 360.214   1
   1 -13   0 3403.14 320.890   1
   2   1 -13 1776.30 159.312   1
   1   2 -13 1539.31 165.300   1
  -2 -13  -1 2128.70 251.297   1
   1 -13   2 2371.42 277.084   1
   2 -13   1 2149.89 262.551   1
  -1 -13  -2 1779.72 230.493   1
   1 -13  -2 2069.21 245.442   1
  -1 -13   2 1935.37 245.484   1
   2 -13  -1 2072.70 249.159   1
   2  -1 -13 2056.58 153.716   1
  -2 -13   1 1896.46 243.577   1
   2   3 -13 2351.40 204.237   1
  -2 -13  -3 2114.43 249.160   1
  -3 -13  -2 2575.78 279.621   1
   3   2 -13 2304.41 178.214   1
   3   0 -13 1426.03 119.010   1
  -3 -13   0 1625.09 232.228   1
   0 -13   3 1429.54 221.872   1
   0 -13  -3 1262.28 197.106   1
   0   3 -13 1155.93 155.863   1
   3  -2 -13 2421.15 123.279   1
  -2 -13   3 2309.28 271.567   1
   2 -13  -3 2367.06 258.124   1
  -3 -13   2 2583.29 293.146   1
   3 -13  -2 2186.82 254.264   1
   4   3 -13 1393.87 142.216   1
  -4 -13  -3 1518.17 216.627   1
  -3 -13  -4 1393.39 206.562   1
   3   4 -13 1324.29 158.178   1
   1   4 -13 3881.32 285.548   1
   4   1 -13 3478.03 183.116   1
  -4 -13  -1 3451.44 325.326   1
  -1 -13  -4 3611.42 322.764   1
   1 -13  -4 3744.69 320.906   1
  -1   4 -13 3533.81 297.168   1
  -1 -13   4 4193.30 370.066   1
  -4 -13   1 3975.81 358.267   1
  -3 -13   4 1571.74 237.307   1
   3 -13  -4 1475.55 200.061   1
  -4 -13   3 1533.31 225.891   1
   4   5 -13 1441.33 170.227   1
  -5 -13  -4 1242.21 203.945   1
  -4 -13  -5 1548.74 224.965   1
   2   5 -13 966.134 146.712   1
  -5 -13  -2 905.994 182.437   1
  -2 -13  -5 824.893 162.664   1
   0 -13  -5 568.912 131.091   1
   0   5 -13 426.783 109.582   1
   0 -13   5 684.744 167.873   1
  -5 -13   0 294.639 109.199   1
  -5 -13   2 792.239 171.847   1
   2 -13  -5 818.947 153.187   1
  -2   5 -13 777.787 149.226   1
  -2 -13   5 1197.53 212.402   1
  -4 -13   5 1533.83 239.438   1
   4 -13  -5 1537.43 199.546   1
  -5 -13   4 1163.64 204.259   1
  -5 -13  -6 1634.78 235.121   1
  -6  13   3 4337.30 338.625   1
  -3 -13  -6 4045.34 345.127   1
  -6 -13  -3 4301.84 377.449   1
   3   6 -13 3472.31 277.648   1
   1   6 -13 4011.17 315.667   1
  -6 -13  -1 3876.37 356.680   1
  -1 -13  -6 4433.43 348.382   1
   1 -13  -6 4468.18 345.657   1
  -1   6 -13 3903.64 329.969   1
  -1 -13   6 4261.88 385.829   1
  -6 -13   1 3809.13 356.636   1
   3 -13  -6 4118.52 325.949   1
  -3 -13   6 3550.42 359.609   1
   3  -6 -13 3848.17 146.925   1
  -6 -13   3 4979.52 416.557   1
  -5 -13   6 1461.41 235.927   1
  -6 -13   5 1515.33 241.135   1
 -13   6   7 1265.86 131.552   1
 -13   7   6 1249.35 147.064   1
  -4 -13  -7 142.602 74.0238   1
   4   7 -13 328.456 96.2115   1
  -7  13   4 304.420 92.9337   1
   2   7 -13 1441.83 196.295   1
  -7 -13  -2 1846.79 260.905   1
  -2 -13  -7 2088.85 247.717   1
   0 -13  -7 209.439 97.2038   1
  -7 -13   0 228.039 100.675   1
   2 -13  -7 1664.64 207.478   1
  -2 -13   7 1978.67 269.971   1
   2  -7 -13 1968.58 148.098   1
  -7 -13   2 1781.94 253.135   1
  -4 -13   7 209.200 107.698   1
  -7 -13   4 472.121 137.817   1
   4 -13  -7 310.399 96.5527   1
  -6 -13   7 1366.24 232.497   1
 -13  -6   7 1136.36 177.940   1
  -7 -13   6 1479.53 239.565   1
 -13   8   5 2906.27 246.339   1
  -8  13   5 2436.43 245.118   1
  -3 -13  -8 1828.89 235.644   1
  -8 -13  -1 2889.38 326.434   1
  -1 -13  -8 2642.81 274.421   1
   1 -13  -8 3112.19 287.852   1
  -8 -13   1 3130.85 334.210   1
   3  -8 -13 1815.90 130.326   1
   3 -13  -8 2210.87 244.865   1
  -3 -13   8 2205.74 292.336   1
 -13  -3   8 2286.46 208.549   1
  -8 -13   3 2105.35 280.153   1
  -5 -13   8 2855.87 329.129   1
 -13  -5   8 2547.55 243.944   1
  -8 -13   5 2901.87 332.001   1
  -7 -13   8 288.148 120.771   1
 -13  -8   7 22.2814 53.4018   1
  -8 -13   7 261.204 114.020   1
 -13  -7   8 196.727 83.8594   1
 -13   9   4 858.894 143.374   1
  -2 -13  -9 257.409 94.4536   1
   0 -13  -9-9.75041 41.8577   1
 -13   0   9 9.51515 26.2346   1
  -9 -13   0 81.7494 89.1556   1
 -13  -2   9 353.241 81.5072   1
  -9 -13   2 555.691 146.812   1
   2 -13  -9 259.077 91.7473   1
   2  -9 -13 281.966 71.0079   1
  -9 -13   4 696.351 172.877   1
   4 -13  -9 681.805 134.466   1
 -13  -4   9 845.970 133.790   1
  -4 -13   9 886.820 191.991   1
  -6 -13   9-77.6571 90.8214   1
  -9 -13   6 8.73019 68.8050   1
 -13  -9   6 85.4618 59.3646   1
 -13  -6   9-10.5977 49.2203   1
 -13  -8   9 1622.33 225.439   1
  -9 -13   8 1353.46 238.694   1
  -8 -13   9 1403.60 254.617   1
 -13  -9   8 1280.48 205.965   1
  -3 -13 -10 3674.73 336.978   1
  -1 -13 -10 2240.08 250.881   1
 -13   1  10 2015.34 110.321   1
   1 -13 -10 2188.08 238.699   1
 -10 -13   1 2944.06 341.251   1
 -13  -1  10 2336.81 165.332   1
   3 -10 -13 3913.71 231.323   1
   3 -13 -10 3940.23 306.416   1
 -10 -13   3 3944.90 390.015   1
 -13  -3  10 3955.94 259.170   1
 -10 -13   5 523.251 159.542   1
 -13  -5  10 662.990 123.015   1
  -5 -13  10 810.666 183.739   1
 -13 -10   5 768.216 174.167   1
 -13  -7  10 1670.55 216.878   1
 -10 -13   7 2003.75 288.989   1
  -7 -13  10 1413.23 239.708   1
 -13 -10   7 1334.06 221.150   1
 -10 -13   9 125.224 105.796   1
 -13 -10   9 147.868 88.3964   1
 -13  -9  10-77.7813 64.1105   1
  -9 -13  10 5.13844 65.0872   1
  -2 -13 -11 101.219 73.0185   1
   0 -13 -11 114.745 59.1268   1
 -11 -13   0 298.536 115.867   1
   0 -11 -13 97.4756 60.4336   1
 -11 -13   2 47.2640 64.1477   1
   2 -13 -11 93.8043 64.5533   1
   4 -13 -11 163.103 67.7093   1
 -13 -11   4 28.5143 55.3384   1
 -13  -4  11 102.660 49.6541   1
 -11 -13   4 109.087 73.6193   1
 -11 -13   6 94.4934 82.4039   1
 -13  -6  11 57.5088 49.4938   1
 -13 -11   6 37.1944 57.4677   1
 -13 -11   8 351.042 127.469   1
 -11 -13   8 344.544 137.215   1
 -11  -8  13 510.879 135.937   1
 -13  -8  11 265.428 96.6376   1
 -11 -10  13 319.697 108.649   1
 -13 -10  11 84.9431 77.6716   1
 -11 -13  10 192.780 93.3389   1
 -13 -11  10 196.302 96.4335   1
 -10 -13  11 26.6664 61.3267   1
  -3 -13 -12 1229.83 201.090   1
  -1 -12 -13 2121.02 237.159   1
  -1 -13 -12 2163.30 248.444   1
   1 -13 -12 2222.54 237.580   1
 -12 -13   1 2264.55 311.405   1
   1 -12 -13 2225.77 222.816   1
 -13 -12   3 1368.22 250.219   1
   3 -13 -12 1307.56 176.896   1
 -12 -13   3 1054.95 221.081   1
 -13 -12   5 1285.42 237.923   1
 -12 -13   5 2083.84 297.058   1
 -13 -12   7-22.6640 73.4033   1
 -12 -13   7-105.797 82.9753   1
  -9 -13  12 1030.55 222.336   1
 -13  -9  12 845.403 170.101   1
 -13 -12   9 982.690 215.476   1
 -12 -13   9 414.256 137.938   1
 -13 -12  11 313.680 119.200   1
 -11 -12  13 359.738 149.089   1
 -12 -13  11 588.241 166.267   1
 -11 -13  12 83.7283 90.2358   1
 -13 -11  12 489.290 147.579   1
  -2 -13 -13 2314.82 268.753   1
   0 -13 -13 113.338 70.1778   1
 -13 -13   2 1953.86 297.722   1
 -13 -13   4-12.5354 72.4734   1
 -13 -13   6 1804.96 287.381   1
 -13 -13   8 151.274 94.8955   1
 -13 -13  10 639.438 186.470   1
 -13 -13  12 143.592 100.063   1
   0 -14   0 510.428 141.974   1
   1 -14   1 654.074 152.831   1
   1   1 -14 933.123 130.798   1
  -1 -14  -1 1160.00 195.667   1
  -1 -14   1 1175.15 207.661   1
   1 -14  -1 623.501 152.227   1
  -2 -14  -2 94.6839 89.4474   1
   2   2 -14-50.2226 36.1388   1
  -2 -14   0 4026.74 365.601   1
   0 -14  -2 3344.07 323.824   1
   2   0 -14 3421.38 218.310   1
   0 -14   2 3631.17 354.602   1
   2 -14   0 3941.11 364.698   1
   0   2 -14 3013.82 254.169   1
  -2 -14   2-148.070 88.9552   1
   2 -14  -2 122.692 84.5551   1
  -3 -14  -3 1290.46 205.807   1
   3   3 -14 1175.02 142.021   1
   3   1 -14 808.179 100.611   1
  -3 -14  -1 818.949 176.857   1
   1   3 -14 852.539 137.383   1
  -1 -14  -3 876.134 171.524   1
   1 -14   3 879.626 185.413   1
   1 -14  -3 726.658 154.747   1
  -1   3 -14 870.872 148.312   1
   3  -1 -14 658.671 76.2077   1
  -3 -14   1 785.737 175.002   1
  -1 -14   3 744.414 169.864   1
   3 -14  -1 827.496 166.333   1
  -3 -14   3 1247.60 218.805   1
   3  -3 -14 1281.06 81.2701   1
   3 -14  -3 1335.69 207.498   1
   4   4 -14 31.4096 53.1901   1
  -4 -14  -4 27.5791 51.9382   1
   2   4 -14 3120.20 253.933   1
  -2 -14  -4 3460.94 330.197   1
   4   2 -14 2621.27 185.077   1
  -4 -14  -2 3329.85 334.977   1
  -4 -14   0 219.957 100.553   1
   4   0 -14 312.864 49.3442   1
   0 -14  -4 341.048 98.8272   1
   0   4 -14 322.555 97.1499   1
   0 -14   4 395.964 140.551   1
  -4 -14   2 2941.52 322.478   1
   2 -14  -4 2746.06 293.544   1
  -2 -14   4 2981.31 333.667   1
  -4 -14   4-123.049 88.0970   1
  -5 -14  -5 4940.73 416.105   1
  -5 -14  -3 20.2522 59.5733   1
  -3 -14  -5 267.221 100.564   1
   3   5 -14 161.429 64.6861   1
   1   5 -14 1602.87 197.240   1
  -1 -14  -5 1800.97 241.448   1
  -5 -14  -1 1540.34 235.612   1
  -5 -14   1 1581.86 240.762   1
  -1 -14   5 1618.57 251.425   1
   1 -14  -5 1563.23 215.642   1
  -1   5 -14 1462.22 205.763   1
   3 -14  -5 128.164 74.5829   1
  -5 -14   3 136.879 83.7367   1
  -3 -14   5 147.343 90.5506   1
   3  -5 -14 110.772 22.3702   1
  -5 -14   5 4202.40 406.305   1
  -6 -14  -6-147.688 91.3644   1
  -6 -14  -4 3068.66 334.047   1
   4   6 -14 3172.62 267.839   1
  -4 -14  -6 3023.54 323.229   1
   2   6 -14-8.67935 36.6438   1
  -6 -14  -2 85.7415 74.4687   1
  -2 -14  -6 3.15764 58.7163   1
   0 -14  -6 3069.42 304.166   1
   0   6 -14 2904.08 282.162   1
  -6 -14   0 3150.80 336.044   1
  -2 -14   6 48.2333 78.7029   1
   2 -14  -6 90.9376 72.4312   1
  -6 -14   2 144.403 77.3782   1
  -6 -14   4 3463.42 362.164   1
  -4 -14   6 3226.85 357.333   1
   4 -14  -6 2861.61 286.914   1
  -6 -14   6-36.0776 79.7629   1
  -7 -14  -5 418.501 135.483   1
  -5 -14  -7 235.094 105.338   1
  -7 -14  -3 1152.72 215.427   1
  -3 -14  -7 1405.02 213.849   1
   3   7 -14 1183.84 175.707   1
  -1 -14  -7 1530.08 219.551   1
  -7 -14  -1 1297.58 223.951   1
   1 -14  -7 1608.42 217.672   1
  -7 -14   1 1350.71 231.035   1
   3  -7 -14 1299.61 90.9331   1
  -7 -14   3 1296.78 227.741   1
   3 -14  -7 1266.71 192.321   1
  -3 -14   7 1358.04 231.480   1
  -7 -14   5 256.173 117.894   1
  -5 -14   7 611.783 179.478   1
  -7 -14   7 1901.60 279.905   1
 -14  -7   7 2084.56 253.207   1
 -14   8   4 99.1386 58.2513   1
  -8 -14  -4-9.63559 51.9740   1
  -4 -14  -8 98.6660 81.0123   1
  -8 -14  -2 2250.60 299.942   1
  -2 -14  -8 1988.58 249.097   1
   0 -14  -8 32.5397 54.4921   1
  -8 -14   0-7.04976 60.2569   1
   2 -14  -8 1964.16 237.811   1
   2  -8 -14 2057.03 159.560   1
  -8 -14   2 2273.92 303.258   1
  -4 -14   8-0.82823 82.2167   1
  -8 -14   4 48.6838 66.8375   1
 -14  -4   8-25.9968 42.9448   1
   4 -14  -8-58.9117 75.7103   1
  -8 -14   6 6521.88 520.607   1
  -6 -14   8 6371.85 524.317   1
 -14  -8   6 5755.68 437.084   1
 -14  -6   8 6182.64 405.641   1
  -8 -14   8-7.78102 65.1225   1
 -14  -8   8 100.977 71.3822   1
  -5 -14  -9 1800.58 258.118   1
  -9 -14  -3 2161.09 301.676   1
  -3 -14  -9 1682.98 237.179   1
  -9 -14  -1 2417.35 311.891   1
  -1 -14  -9 2264.03 264.151   1
   1 -14  -9 2529.34 266.952   1
 -14  -1   9 2347.76 191.031   1
  -9 -14   1 2578.52 326.964   1
  -9 -14   3 1864.96 274.897   1
   3 -14  -9 1737.46 222.950   1
 -14  -3   9 1770.63 187.353   1
  -9 -14   5 2282.91 305.496   1
  -5 -14   9 1725.68 280.660   1
 -14  -9   5 1712.37 243.892   1
 -14  -5   9 1702.74 205.118   1
  -9 -14   7 142.115 86.2483   1
 -14  -9   7 326.947 105.782   1
  -7 -14   9 434.500 150.155   1
 -14  -7   9 216.137 80.0034   1
 -14  -9   9 4.22412 38.8561   1
  -9 -14   9 58.7662 52.7691   1
  -4 -14 -10 1599.10 246.240   1
 -10 -14  -2 155.640 99.3322   1
  -2 -14 -10-66.1360 84.4226   1
   0 -14 -10 534.072 129.832   1
   0 -10 -14 509.269 108.010   1
 -10 -14   0 488.216 150.851   1
 -14  -2  10 19.6742 36.7556   1
 -10 -14   2-21.1162 99.9373   1
   2 -14 -10 11.0579 42.6128   1
 -10 -14   4 2305.63 313.471   1
   4 -14 -10 1667.10 208.514   1
 -14  -4  10 1800.32 191.637   1
 -14  -6  10-4.24626 54.7221   1
 -10 -14   6 115.889 92.6834   1
 -14 -10   6-145.611 92.6270   1
  -6 -14  10 19.5781 81.5685   1
 -14  -8  10 5346.18 411.211   1
 -10 -14   8 5443.51 495.754   1
  -8 -14  10 5275.56 490.122   1
 -14 -10   8 4680.06 417.081   1
 -14 -10  10 155.947 101.388   1
 -10 -14  10 78.0500 96.5690   1
  -3 -14 -11 547.083 142.717   1
  -1 -11 -14 1318.50 181.512   1
 -11 -14  -1 1859.40 287.586   1
  -1 -14 -11 1568.28 224.054   1
   1 -14 -11 1868.46 235.058   1
 -11 -14   1 1791.73 289.169   1
   1 -11 -14 1662.89 180.965   1
   3 -14 -11 461.637 120.524   1
 -11 -14   3 844.052 199.731   1
 -11 -14   5 2144.06 315.952   1
 -14 -11   5 2311.85 308.828   1
  -7 -14  11 447.895 163.988   1
 -11 -14   7 575.174 179.310   1
 -14  -7  11 403.870 113.337   1
 -14 -11   7 182.323 99.9696   1
 -11 -14   9 328.663 127.904   1
 -14 -11   9 217.868 92.9374   1
  -9 -14  11 106.865 80.1088   1
 -14  -9  11 125.984 73.4983   1
 -14 -11  11-74.5654 76.6303   1
 -11 -14  11-72.2982 82.6261   1
  -4 -14 -12 17.7497 60.5874   1
  -2 -12 -14 603.414 130.497   1
  -2 -14 -12 571.581 131.723   1
   0 -14 -12 301.826 104.901   1
 -12 -14   0 371.287 128.389   1
   0 -12 -14 332.447 98.0743   1
   2 -14 -12 391.472 111.298   1
 -12 -14   2 665.137 188.168   1
 -14 -12   4 95.7535 97.6722   1
 -12 -14   4-62.3483 105.283   1
 -14 -12   6 3796.76 403.500   1
 -12 -14   6 3840.86 420.169   1
 -14 -12   8 2.66321 51.2832   1
 -12 -14   8 58.5308 80.6814   1
 -14 -12  10 4323.07 436.434   1
 -12 -14  10 4873.03 485.109   1
 -10 -14  12 4351.50 454.363   1
 -12 -14  12 38.4980 72.3913   1
  -3 -13 -14 1748.16 239.131   1
  -3 -14 -13 1971.76 267.484   1
  -1 -13 -14 1090.42 179.886   1
  -1 -14 -13 980.690 174.205   1
 -13 -14   1 916.797 211.967   1
 -14 -13   3 1753.18 285.224   1
 -13 -14   3 2161.15 321.905   1
 -14 -13   5 100.506 95.0569   1
 -13 -14   5-23.9230 85.3976   1
 -14 -13   7 1116.48 230.796   1
 -13 -14   7 1155.42 254.073   1
 -14 -13   9 247.481 115.725   1
 -13 -14   9 302.532 126.175   1
 -11 -14  13 201.087 106.435   1
 -14 -13  11 293.563 121.477   1
 -13 -14  11 8.15606 113.059   1
  -4 -14 -14 1852.97 262.769   1
  -2 -14 -14 122.192 75.7234   1
 -14 -14   0-37.0105 84.8241   1
 -14 -14   2 73.0353 82.4012   1
 -14 -14   4 2157.19 325.607   1
 -14 -14   6 289.366 124.667   1
 -14 -14   8 3348.00 415.461   1
 -14 -14  10 351.958 166.461   1
  -1 -15   0 520.000 147.123   1
   1 -15   0 187.491 103.752   1
   1   0 -15 364.813 80.5799   1
   0 -15  -1 561.557 143.260   1
   0 -15   1 488.615 137.115   1
  -2 -15  -1 5947.97 466.824   1
  -1 -15  -2 6551.27 472.887   1
   2   1 -15 5271.81 291.300   1
   1   2 -15 5690.12 337.417   1
   1 -15   2 5173.32 440.969   1
   2 -15   1 6421.03 483.855   1
  -2 -15   1 6110.96 473.667   1
   2  -1 -15 5450.43 263.150   1
   1 -15  -2 5277.86 434.663   1
  -1 -15   2 5552.55 460.986   1
   2 -15  -1 5174.35 429.342   1
   3   2 -15 66.6940 34.7875   1
  -3 -15  -2-63.0213 69.2597   1
   2   3 -15 36.0267 44.2132   1
   0 -15   3 2039.70 287.382   1
   0 -15  -3 2464.56 290.617   1
   0   3 -15 1915.02 214.128   1
  -3 -15   0 2054.04 286.130   1
   3   0 -15 1777.57 144.278   1
   2 -15  -3-19.9385 87.1351   1
   3  -2 -15 65.9706 26.0643   1
  -2 -15   3 127.792 77.7725   1
   3 -15  -2 37.8580 67.1266   1
  -3 -15   2 23.9372 90.3012   1
   4   3 -15 3271.38 227.943   1
   3   4 -15 3136.52 249.038   1
  -4 -15  -3 3975.90 381.740   1
  -3 -15  -4 3683.24 360.008   1
  -4 -15  -1 1298.06 226.766   1
  -1 -15  -4 1128.49 201.808   1
   4   1 -15 1050.74 107.056   1
   1   4 -15 991.093 149.959   1
   1 -15  -4 1384.90 221.097   1
  -1   4 -15 1040.55 171.679   1
  -4 -15   1 1111.69 208.714   1
  -1 -15   4 1088.28 211.090   1
  -4 -15   3 3687.00 381.488   1
  -3 -15   4 3869.31 396.369   1
   3 -15  -4 3700.68 352.141   1
   4   5 -15-4.29635 36.7253   1
  -5 -15  -4 165.369 93.4209   1
  -4 -15  -5-21.2437 75.6327   1
  -5 -15  -2 5354.93 447.165   1
  -2 -15  -5 5119.25 417.411   1
   2   5 -15 4930.54 342.519   1
   0   5 -15 109.244 73.6819   1
   0 -15  -5 14.7982 61.3412   1
  -5 -15   2 5044.64 452.839   1
   2 -15  -5 5098.30 411.598   1
  -2 -15   5 5460.52 472.625   1
  -4 -15   5-19.9474 60.1802   1
  -5 -15   4 132.579 92.1093   1
  -6 -15  -5 1993.81 287.245   1
  -5 -15  -6 1615.17 256.257   1
  -6 -15  -3 326.539 118.159   1
   3   6 -15 365.005 96.5947   1
  -3 -15  -6 497.774 143.135   1
  -1 -15  -6 1642.59 239.523   1
   1   6 -15 1441.89 202.587   1
  -6 -15  -1 1575.06 258.630   1
  -6 -15   1 2024.99 287.422   1
  -1 -15   6 1798.11 281.447   1
   1 -15  -6 1426.95 217.765   1
  -3 -15   6 345.506 124.515   1
   3 -15  -6 317.782 110.855   1
  -6 -15   3 371.379 141.213   1
  -5 -15   6 2080.70 298.512   1
  -6 -15   5 1677.94 276.569   1
  -7 -15  -6 180.926 87.6415   1
  -6 -15  -7 267.999 96.5971   1
  -7 -15  -4 2941.89 350.912   1
  -4 -15  -7 3075.07 332.374   1
  -2 -15  -7 1401.44 223.357   1
  -7 -15  -2 1280.10 232.342   1
   0 -15  -7 2031.71 263.046   1
  -7 -15   0 2519.36 325.285   1
  -7 -15   2 1192.26 225.115   1
   2 -15  -7 972.699 175.504   1
   2  -7 -15 931.180 99.4334   1
  -2 -15   7 1306.06 243.277   1
  -7 -15   4 3430.14 384.015   1
  -4 -15   7 2452.64 328.234   1
   4 -15  -7 2689.98 284.960   1
  -6 -15   7 127.734 104.148   1
  -7 -15   6 19.5025 87.9019   1
  -7 -15  -8 1474.65 248.463   1
  -8 -15  -5 79.1821 107.260   1
  -5 -15  -8-7.08052 57.5439   1
  -8 -15  -3 3643.79 392.331   1
  -3 -15  -8 3453.78 352.474   1
  -1 -15  -8 1749.14 246.342   1
  -8 -15  -1 2326.85 318.318   1
   1 -15  -8 1945.06 248.842   1
  -8 -15   1 1878.88 291.400   1
   3 -15  -8 3192.44 321.090   1
  -3 -15   8 3526.79 396.687   1
  -8 -15   3 3568.09 390.459   1
  -5 -15   8 77.2880 59.1425   1
  -8 -15   5 39.1864 85.1446   1
 -15  -5   8 44.5792 51.7382   1
  -8 -15   7 2084.54 313.221   1
  -7 -15   8 2017.14 316.107   1
 -15  -7   8 1764.98 237.078   1
 -15  -8   7 2213.41 278.026   1
  -6 -15  -9 1622.02 267.307   1
  -9 -15  -4 666.383 175.955   1
  -4 -15  -9 257.145 114.032   1
  -9 -15  -2 1548.72 266.456   1
  -2 -15  -9 1591.09 238.471   1
   0 -15  -9 356.090 110.378   1
  -9 -15   0 263.359 130.018   1
   2 -15  -9 1728.16 231.873   1
 -15  -2   9 1660.59 178.091   1
  -9 -15   2 1951.66 296.871   1
  -9 -15   4 453.366 155.533   1
   4 -15  -9 462.753 132.595   1
 -15  -4   9 435.040 107.350   1
 -15  -9   6 1545.44 243.457   1
  -9 -15   6 1712.47 284.170   1
  -6 -15   9 1403.21 261.344   1
 -15  -6   9 1917.87 229.269   1
 -15  -8   9 520.550 134.032   1
  -9 -15   8 448.804 143.093   1
  -8 -15   9 461.626 158.095   1
 -15  -9   8 343.171 123.201   1
  -5 -15 -10 1552.17 246.833   1
 -10 -15  -3 693.167 175.682   1
  -3 -15 -10 596.230 149.353   1
  -1 -15 -10 1979.61 259.288   1
 -10 -15  -1 1371.75 255.376   1
   1 -15 -10 1569.27 226.816   1
 -10 -15   1 1858.49 288.541   1
   3 -15 -10 522.645 122.024   1
 -10 -15   3 404.757 167.921   1
 -15  -5  10 1427.52 183.064   1
 -10 -15   5 1223.92 242.928   1
 -15 -10   5 1427.06 246.401   1
 -15  -7  10 12.8998 40.6714   1
  -7 -15  10-145.153 129.470   1
 -10 -15   7 42.3767 96.1597   1
 -15 -10   7-83.0402 65.9818   1
  -9 -15  10 1046.75 232.486   1
 -15 -10   9 1212.98 220.275   1
 -10 -15   9 1553.85 283.176   1
 -15  -9  10 1092.21 202.339   1
  -6 -15 -11 181.925 106.830   1
  -4 -15 -11 479.178 140.302   1
 -11 -15  -2 1915.68 309.799   1
  -2 -15 -11 1192.21 208.059   1
   0 -15 -11 253.238 97.1494   1
 -11 -15   0 546.736 178.110   1
   2 -15 -11 1418.43 203.058   1
 -11 -15   2 1840.08 293.160   1
 -11 -15   4 339.766 134.952   1
 -15 -11   4 673.988 176.630   1
 -11 -15   6 434.148 164.270   1
 -15 -11   6 270.508 116.653   1
 -15 -11   8 445.710 156.247   1
  -8 -15  11 399.026 165.156   1
 -11 -15   8 709.299 212.025   1
 -10 -15  11 296.828 113.698   1
 -15 -11  10 434.016 140.226   1
 -11 -15  10 153.284 98.1470   1
  -5 -15 -12 29.0818 74.8305   1
  -3 -15 -12 1767.91 257.754   1
  -1 -15 -12 848.229 160.534   1
 -12 -15  -1 679.264 188.655   1
   1 -15 -12 687.138 154.998   1
 -12 -15   1 590.497 179.836   1
 -15 -12   3 1732.97 286.251   1
 -12 -15   3 1810.02 300.040   1
 -12 -15   5 157.603 99.3956   1
 -15 -12   5 333.522 132.680   1
 -12 -15   7 1966.79 315.749   1
 -15 -12   7 1380.60 253.640   1
 -12 -15   9 353.583 158.071   1
  -9 -15  12 171.620 121.221   1
 -15 -12   9 260.803 122.907   1
 -11 -15  12 119.539 71.1475   1
 -12 -15  11 25.7701 56.6110   1
  -4 -15 -13 1860.88 270.515   1
 -13 -15  -2 254.862 129.603   1
  -2 -15 -13 497.236 142.814   1
 -13 -15   0 2266.98 341.047   1
 -15 -13   2 339.143 143.701   1
 -13 -15   2 588.988 184.346   1
 -15 -13   4 1399.72 267.316   1
 -13 -15   4 934.651 222.433   1
 -13 -15   6 365.107 136.852   1
 -15 -13   6 216.522 103.899   1
 -15 -13   8 1094.60 231.869   1
 -13 -15   8 1017.44 237.265   1
 -13 -15  10 127.799 107.420   1
 -15 -13  10 86.3678 104.861   1
  -5 -15 -14 1119.94 226.697   1
  -3 -15 -14 162.188 87.8871   1
 -15 -14   1 1132.20 255.042   1
 -14 -15   1 1647.83 305.906   1
 -15 -14   3 520.418 188.273   1
 -14 -15   3 325.706 151.006   1
 -14 -15   5 1711.96 305.598   1
 -15 -14   5 1767.35 301.629   1
 -15 -14   7 252.826 120.111   1
 -14 -15   7 78.6437 76.8880   1
 -15 -14   9 803.444 211.026   1
  -6 -15 -15 1002.79 216.924   1
   0 -16   0 11298.4 677.774   1
  -1 -16  -1-19.5531 76.5038   1
   1 -16   1-15.4618 79.4995   1
   1   1 -16-37.1277 51.8965   1
   1 -16  -1-37.5220 87.9565   1
  -1 -16   1 22.7898 60.0103   1
  -2 -16  -2 10276.3 625.869   1
   0   2 -16 125.525 65.5167   1
   0 -16  -2 284.550 124.629   1
   2 -16   0 51.8179 68.4923   1
   0 -16   2 320.968 133.231   1
  -2 -16   0 50.6040 95.8984   1
  -2 -16   2 8821.66 603.139   1
   2 -16  -2 9296.59 588.724   1
  -3 -16  -3-79.9458 81.8041   1
  -3 -16  -1 572.441 155.788   1
  -1 -16  -3 919.231 194.954   1
   1   3 -16 430.434 100.820   1
  -1 -16   3 665.566 177.975   1
   1 -16  -3 552.575 148.449   1
  -3 -16   1 409.450 149.618   1
  -1   3 -16 404.882 117.168   1
  -3 -16   3 37.7504 98.7359   1
   3 -16  -3 30.0347 73.2339   1
  -4 -16  -4 2519.36 313.848   1
  -4 -16  -2 104.047 88.6767   1
  -2 -16  -4 98.8138 69.1706   1
  -4 -16   0 6222.43 506.368   1
   0 -16  -4 5766.62 458.660   1
   0   4 -16 6250.01 413.246   1
   0 -16   4 6338.20 520.166   1
   2 -16  -4 84.2618 75.2757   1
  -2 -16   4 112.842 84.8717   1
  -4 -16   2 282.660 125.568   1
  -4 -16   4 2741.77 349.549   1
  -5 -16  -5-99.1126 88.4112   1
  -5 -16  -3 2545.56 320.337   1
  -3 -16  -5 2707.55 324.699   1
  -5 -16  -1 1236.82 232.950   1
  -1 -16  -5 1283.04 234.672   1
   1 -16  -5 1030.81 196.338   1
  -1 -16   5 1411.42 256.135   1
  -5 -16   1 1080.56 220.771   1
  -3 -16   5 1991.76 305.289   1
   3 -16  -5 2459.91 294.924   1
  -5 -16   3 1957.81 294.729   1
  -5 -16   5-41.9042 74.6395   1
  -6 -16  -6 2469.05 325.184   1
  -6 -16  -4 18.6007 70.9788   1
  -4 -16  -6-4.77654 59.2876   1
  -2 -16  -6 2473.62 305.611   1
  -6 -16  -2 3204.47 366.292   1
  -6 -16   0-49.2715 67.1618   1
   0 -16  -6 97.1635 69.5666   1
  -6 -16   2 3769.87 412.880   1
   2 -16  -6 2951.11 329.961   1
  -2 -16   6 2784.88 353.359   1
  -4 -16   6-126.256 114.553   1
  -6 -16   4 36.3890 77.1363   1
  -6 -16   6 2820.86 361.238   1
  -7 -16  -7 3.63002 99.3300   1
  -7 -16  -5 3876.25 416.559   1
  -5 -16  -7 3358.60 374.221   1
  -3 -16  -7 729.501 170.523   1
  -7 -16  -3 752.185 186.349   1
  -1 -16  -7 2173.05 284.591   1
  -7 -16  -1 2674.80 341.531   1
   1 -16  -7 2029.13 266.801   1
  -7 -16   1 1904.86 294.703   1
  -7 -16   3 589.708 174.009   1
   3 -16  -7 755.769 170.421   1
  -3 -16   7 934.348 210.925   1
  -5 -16   7 2851.09 364.097   1
  -7 -16   5 3120.27 383.110   1
  -7 -16   7-262.103 123.784   1
 -16  -7   7-9.65413 46.3202   1
  -8 -16  -8 2218.75 323.035   1
  -8 -16  -6 8.44798 65.6269   1
  -6 -16  -8 98.4727 92.9485   1
  -8 -16  -4 1313.18 246.326   1
  -4 -16  -8 869.766 184.817   1
  -2 -16  -8 51.7744 73.7626   1
  -8 -16  -2 257.860 123.637   1
   0 -16  -8 1150.65 210.120   1
  -8 -16   0 1938.11 299.078   1
  -8 -16   2-13.9084 59.4784   1
   2 -16  -8-18.8202 47.9668   1
  -8 -16   4 1052.07 228.099   1
  -4 -16   8 798.132 208.611   1
  -6 -16   8-27.7871 70.9842   1
 -16  -6   8-11.2469 60.0773   1
  -8 -16   6 46.9699 100.872   1
  -8 -16   8 1991.09 318.716   1
 -16  -8   8 2750.54 310.456   1
  -9 -16  -7 1234.82 246.942   1
  -7 -16  -9 1226.03 242.996   1
  -9 -16  -5 959.048 221.970   1
  -5 -16  -9 623.147 166.320   1
  -9 -16  -3 2317.11 324.098   1
  -3 -16  -9 2182.53 289.238   1
  -1 -16  -9 2462.77 297.456   1
  -9 -16  -1 2607.90 349.145   1
  -9 -16   1 2421.47 336.085   1
   1 -16  -9 2120.47 269.047   1
  -9 -16   3 2184.69 324.393   1
   3 -16  -9 2190.40 271.144   1
  -5 -16   9 1125.08 239.663   1
  -9 -16   5 628.061 183.990   1
 -16  -5   9 636.332 136.008   1
  -9 -16   7 1442.68 271.025   1
  -7 -16   9 999.205 234.560   1
 -16  -9   7 1361.22 238.188   1
 -16  -7   9 1209.74 193.846   1
 -16  -9   9-90.6076 84.0809   1
  -9 -16   9 5.29081 70.5334   1
  -8 -16 -10 73.9480 84.1990   1
 -10 -16  -6 2164.73 341.221   1
  -6 -16 -10 2066.76 300.675   1
 -10 -16  -4 44.1182 69.8406   1
  -4 -16 -10-12.2241 67.0690   1
  -2 -16 -10 62.4150 71.6424   1
 -10 -16  -2 247.959 106.249   1
   0 -16 -10-52.9527 63.8299   1
 -10 -16   0-166.500 98.9811   1
 -10 -16   2 323.369 125.465   1
   2 -16 -10 117.079 73.3744   1
 -10 -16   4 78.4724 93.9572   1
 -10 -16   6 2041.25 321.299   1
 -16 -10   6 1736.87 268.540   1
  -6 -16  10 2261.44 338.405   1
 -10 -16   8-62.0619 78.3460   1
  -8 -16  10-137.499 116.236   1
 -16 -10   8-55.2361 90.4308   1
 -10 -16  10 3667.88 441.932   1
  -7 -16 -11 611.081 178.938   1
 -11 -16  -5 1804.93 310.366   1
  -5 -16 -11 1586.67 261.988   1
 -11 -16  -3 1193.45 253.545   1
  -3 -16 -11 1466.39 245.036   1
  -1 -16 -11 1605.66 252.027   1
 -11 -16  -1 1819.33 300.976   1
 -11 -16   1 2037.12 324.160   1
   1 -16 -11 1289.31 214.208   1
 -11 -16   3 1543.29 284.402   1
 -11 -16   5 1833.99 305.607   1
 -16 -11   5 1637.02 273.582   1
 -11 -16   7 726.460 196.624   1
 -16 -11   7 488.641 156.019   1
 -16 -11   9 96.3350 77.3014   1
 -11 -16   9 264.753 128.088   1
  -9 -16  11 137.901 85.6422   1
  -6 -16 -12-10.1937 71.6543   1
 -12 -16  -4 983.747 235.361   1
  -4 -16 -12 752.245 179.995   1
  -2 -16 -12 39.5948 62.4380   1
 -12 -16  -2 72.9697 108.979   1
   0 -16 -12-11.3322 61.6269   1
 -12 -16   0-10.5672 81.5607   1
 -12 -16   2 100.427 108.162   1
 -12 -16   4 800.047 207.082   1
 -16 -12   4 788.828 202.482   1
 -12 -16   6 79.5607 77.4821   1
 -16 -12   6 82.7600 70.4434   1
 -16 -12   8 1420.31 262.375   1
 -12 -16   8 1521.61 301.517   1
  -7 -16 -13 78.8317 94.2663   1
  -5 -16 -13 287.268 125.813   1
  -3 -16 -13 772.077 175.165   1
 -16 -13   3 1120.68 245.646   1
 -16 -13   5 366.255 138.261   1
 -16 -13   7 62.9670 103.222   1
 -16 -13   9 209.100 108.673   1
  -6 -16 -14 1617.50 284.097   1
  -4 -16 -14 216.192 111.165   1
   1 -17   0 1057.18 215.020   1
   0 -17   1 979.375 213.527   1
  -1 -17   0 1102.77 222.317   1
   0 -17  -1 879.961 202.197   1
  -1 -17  -2 474.340 139.677   1
   1 -17   2 772.261 193.397   1
  -2 -17  -1 868.277 195.546   1
   1 -17  -2 878.177 199.874   1
  -1 -17   2 753.201 192.946   1
   2 -17  -1 1045.80 215.600   1
  -2 -17   1 570.274 175.000   1
  -3 -17  -2 3075.17 361.635   1
  -2 -17  -3 2469.56 328.100   1
   0 -17   3 147.675 117.238   1
   0 -17  -3 56.9266 78.2192   1
  -3 -17   0 123.781 96.4330   1
  -3 -17   2 2855.96 365.322   1
  -2 -17   3 2981.26 374.874   1
   2 -17  -3 2524.77 326.404   1
  -4 -17  -3 133.621 111.083   1
  -3 -17  -4 72.7709 90.6849   1
  -4 -17  -1 1322.21 242.333   1
  -1 -17  -4 946.207 201.218   1
  -1 -17   4 1402.20 264.280   1
   1 -17  -4 1179.66 219.564   1
  -4 -17   1 991.616 216.429   1
  -4 -17   3 107.986 78.9119   1
   3 -17  -4 101.764 96.6127   1
  -3 -17   4 1.90359 80.6791   1
  -5 -17  -4 2434.90 324.722   1
  -4 -17  -5 2677.68 342.275   1
  -5 -17  -2 67.6713 69.1000   1
  -2 -17  -5-38.3114 68.6041   1
   0 -17  -5 2369.76 305.673   1
  -5 -17   0 2011.96 310.027   1
   2 -17  -5 91.4824 94.8869   1
  -2 -17   5-16.4539 95.3899   1
  -5 -17   2 51.5402 100.460   1
  -5 -17   4 2468.86 344.805   1
  -4 -17   5 2097.93 322.558   1
  -6 -17  -5 85.7525 81.6281   1
  -5 -17  -6 117.066 102.273   1
  -6 -17  -3 1023.85 223.546   1
  -3 -17  -6 1361.34 237.109   1
  -6 -17  -1-29.7925 70.9600   1
  -1 -17  -6 82.7565 69.3809   1
   1 -17  -6 309.363 119.760   1
  -6 -17   1 127.943 90.3988   1
  -3 -17   6 1585.06 281.627   1
   3 -17  -6 1154.44 214.386   1
  -6 -17   3 1198.25 242.481   1
  -6 -17   5 155.102 117.938   1
  -5 -17   6 114.255 96.2833   1
  -7 -17  -6 1000.30 220.602   1
  -6 -17  -7 938.774 215.559   1
  -4 -17  -7 131.564 89.0940   1
  -7 -17  -4 15.9849 100.675   1
  -2 -17  -7 2577.37 328.833   1
  -7 -17  -2 2989.57 370.241   1
  -7 -17   0-23.9694 79.7911   1
   0 -17  -7 11.8803 80.6278   1
  -7 -17   2 2776.84 365.212   1
   2 -17  -7 3068.56 346.946   1
  -4 -17   7 272.662 135.973   1
  -7 -17   4 179.165 103.701   1
  -7 -17   6 1486.76 276.830   1
  -6 -17   7 1003.17 241.959   1
  -8 -17  -7 763.119 201.327   1
  -7 -17  -8 209.004 130.863   1
  -8 -17  -5 1324.72 256.661   1
  -5 -17  -8 1200.50 228.923   1
  -3 -17  -8 19.4298 54.9474   1
  -8 -17  -3 81.5517 85.6128   1
  -8 -17  -1 443.086 142.108   1
  -1 -17  -8 724.440 171.812   1
  -8 -17   1 777.574 209.383   1
   1 -17  -8 665.872 173.867   1
   3 -17  -8 104.548 78.2408   1
  -8 -17   3 28.3970 69.1167   1
  -5 -17   8 1485.62 283.667   1
 -17  -5   8 1427.62 208.026   1
  -8 -17   5 1896.94 320.434   1
  -7 -17   8 164.521 97.5415   1
 -17  -8   7 266.679 107.260   1
 -17  -7   8 274.530 104.397   1
  -9 -17  -8 1364.94 269.907   1
  -8 -17  -9 1546.18 281.657   1
  -9 -17  -6 430.534 166.894   1
  -6 -17  -9 620.435 174.585   1
  -9 -17  -4 1928.44 322.726   1
  -4 -17  -9 1802.91 283.513   1
  -2 -17  -9 1105.03 224.771   1
  -9 -17  -2 915.153 215.206   1
  -9 -17   0 1357.29 264.102   1
   0 -17  -9 1838.48 266.843   1
  -9 -17   2 1025.14 241.047   1
   2 -17  -9 808.064 176.075   1
  -9 -17   4 1783.99 306.977   1
 -17  -9   6 834.136 191.618   1
  -6 -17   9 547.654 186.731   1
  -9 -17   6 664.872 183.721   1
  -8 -17   9 1875.63 329.533   1
  -9 -17   8 1455.46 289.776   1
 -17  -9   8 1524.93 250.902   1
  -7 -17 -10 976.940 220.799   1
 -10 -17  -5 90.1752 92.7308   1
  -5 -17 -10-39.0707 74.7492   1
  -3 -17 -10 1491.06 253.593   1
 -10 -17  -3 1466.37 275.660   1
  -1 -17 -10 157.976 72.5983   1
 -10 -17  -1 232.564 101.756   1
 -10 -17   1 508.262 167.876   1
   1 -17 -10 291.920 113.607   1
   3 -17 -10 1267.88 216.733   1
 -10 -17   3 1212.91 261.102   1
 -17 -10   5 196.060 109.622   1
 -10 -17   5 74.0933 80.0783   1
 -10 -17   7 1178.34 272.502   1
  -7 -17  10 1117.82 252.424   1
 -17 -10   7 690.084 182.522   1
  -6 -17 -11 450.131 156.163   1
  -4 -17 -11 721.290 185.598   1
  -2 -17 -11 1423.40 241.986   1
 -11 -17  -2 1053.79 244.102   1
   0 -17 -11 1084.97 206.314   1
 -11 -17   0 1556.85 296.811   1
 -11 -17   2 1409.64 283.036   1
 -11 -17   4 843.912 226.522   1
 -17 -11   4 977.446 217.165   1
 -17 -11   6 960.400 222.305   1
 -17 -11   8 1310.46 246.579   1
  -7 -17 -12 460.275 169.965   1
  -5 -17 -12 1508.34 262.362   1
  -3 -17 -12 151.214 62.5438   1
  -1 -17 -12 784.662 172.440   1
 -17 -12   3 87.1347 98.0244   1
 -17 -12   5 1184.45 248.780   1
 -17 -12   7 57.3211 80.2843   1
  -6 -17 -13 717.133 192.058   1
  -4 -17 -13 820.826 194.038   1
   0 -18   0 90.7851 93.5493   1
   1 -18   1-15.2878 36.1379   1
  -1 -18  -1 111.505 80.4735   1
   1 -18  -1 28.5165 96.6032   1
  -1 -18   1-175.312 104.616   1
  -2 -18  -2 51.7150 86.0281   1
  -2 -18   0 4315.21 453.643   1
   0 -18  -2 4903.58 472.018   1
   0 -18   2 4221.80 449.051   1
   2 -18  -2-150.318 132.307   1
  -2 -18   2-213.453 120.586   1
  -3 -18  -3 819.054 195.120   1
  -1 -18  -3 295.318 125.268   1
  -3 -18  -1 236.160 105.244   1
   1 -18  -3 123.734 111.854   1
  -3 -18   1 281.886 139.878   1
  -1 -18   3 435.471 166.176   1
  -3 -18   3 700.260 205.774   1
  -4 -18  -4 12.3248 79.2841   1
  -2 -18  -4 3186.69 377.782   1
  -4 -18  -2 2968.60 372.927   1
   0 -18  -4 51.3332 85.3933   1
  -4 -18   0-54.5212 88.7523   1
  -4 -18   2 4011.21 440.726   1
  -2 -18   4 3506.56 421.725   1
   2 -18  -4 3085.62 366.383   1
  -4 -18   4-18.7255 81.9013   1
  -5 -18  -5 3185.94 389.258   1
  -5 -18  -3 289.036 136.635   1
  -3 -18  -5 305.376 138.569   1
  -5 -18  -1 1383.67 264.018   1
  -1 -18  -5 1495.88 256.047   1
  -5 -18   1 1551.72 279.828   1
   1 -18  -5 933.392 198.423   1
  -5 -18   3 269.679 123.623   1
   3 -18  -5 247.131 116.331   1
  -3 -18   5 210.515 110.473   1
  -5 -18   5 3500.17 435.832   1
  -6 -18  -6 57.3037 81.7632   1
  -6 -18  -4 1663.96 289.954   1
  -4 -18  -6 1265.49 246.309   1
  -6 -18  -2 116.813 103.064   1
  -2 -18  -6-9.89044 63.8373   1
   0 -18  -6 1739.90 280.796   1
  -6 -18   0 2047.60 330.217   1
   2 -18  -6 60.5363 58.4934   1
  -2 -18   6-151.541 109.489   1
  -6 -18   2-27.8585 89.9061   1
  -6 -18   4 1583.43 283.421   1
  -4 -18   6 970.113 222.918   1
  -6 -18   6-60.7888 112.629   1
  -7 -18  -7 1430.34 269.826   1
  -5 -18  -7 118.179 103.403   1
  -7 -18  -5 217.912 126.732   1
  -7 -18  -3 1655.66 286.990   1
  -3 -18  -7 1405.56 256.903   1
  -7 -18  -1 1579.70 293.963   1
  -1 -18  -7 908.492 202.406   1
  -7 -18   1 1131.04 248.411   1
   1 -18  -7 830.870 200.176   1
   3 -18  -7 1409.82 240.286   1
  -7 -18   3 995.087 223.198   1
  -3 -18   7 1483.80 274.399   1
  -7 -18   5 16.3834 78.1055   1
  -5 -18   7 244.182 133.973   1
 -18  -7   7 1555.86 249.101   1
  -7 -18   7 1249.54 277.061   1
  -8 -18  -6 1463.66 271.748   1
  -6 -18  -8 1326.08 258.354   1
  -4 -18  -8-18.7759 70.6412   1
  -8 -18  -4 45.8720 93.0329   1
  -8 -18  -2 884.986 226.330   1
  -2 -18  -8 884.171 198.498   1
   0 -18  -8-228.294 107.607   1
  -8 -18   0-1.06337 94.6192   1
   2 -18  -8 839.838 188.180   1
  -8 -18   2 994.696 236.244   1
  -8 -18   4 156.368 110.456   1
  -8 -18   6 1224.93 282.150   1
  -6 -18   8 1120.67 256.194   1
  -7 -18  -9 206.309 114.127   1
  -5 -18  -9 958.107 219.455   1
  -3 -18  -9 1311.08 250.580   1
  -9 -18  -3 1604.02 293.419   1
  -9 -18  -1 1863.77 315.904   1
  -1 -18  -9 1266.96 238.134   1
  -9 -18   1 1965.37 328.508   1
   1 -18  -9 1379.35 241.784   1
  -9 -18   3 1273.99 266.561   1
   3 -18  -9 1926.26 280.965   1
 -18  -9   7 176.237 95.1891   1
  -6 -18 -10 4.03707 61.5899   1
  -4 -18 -10 208.993 84.8328   1
  -2 -18 -10 139.800 72.3499   1
   0 -18 -10-77.3941 79.9323   1
   2 -18 -10 68.4797 76.9489   1
 -18 -10   6-51.7706 95.2824   1
  -5 -18 -11 1206.78 247.556   1
  -3 -18 -11 906.970 201.317   1
  -1 -18 -11 1477.31 251.538   1
 -18 -11   5 1676.23 298.790   1
 -18 -11   7 148.551 99.7658   1
  -4 -18 -12-167.418 127.630   1
  -2 -18 -12 267.788 137.498   1
  -1 -19   0-25.6268 73.4715   1
   0 -19  -1-53.2872 104.436   1
   0 -19   1 87.9242 87.8963   1
   1 -19   0-25.3408 68.3258   1
  -2 -19  -1 713.704 196.065   1
  -1 -19  -2 1084.53 241.869   1
  -1 -19   2 910.357 232.397   1
   1 -19  -2 610.196 177.069   1
  -2 -19   1 952.619 229.827   1
  -2 -19  -3 15.8293 77.7185   1
  -3 -19  -2 37.5390 95.6333   1
  -3 -19   0 708.819 192.017   1
   0 -19  -3 539.283 170.753   1
   2 -19  -3 397.456 157.374   1
  -3 -19   2 147.148 120.386   1
  -2 -19   3 45.5696 92.1153   1
  -4 -19  -3 1079.86 250.859   1
  -3 -19  -4 841.522 206.396   1
  -1 -19  -4-29.0460 82.7868   1
  -4 -19  -1 161.254 132.794   1
  -4 -19   1 98.5815 90.0300   1
  -1 -19   4 47.1498 84.9736   1
   1 -19  -4-149.380 98.7498   1
  -3 -19   4 1228.09 258.207   1
  -4 -19   3 938.158 235.687   1
  -5 -19  -4 65.9290 86.8111   1
  -4 -19  -5-8.15938 70.1681   1
  -5 -19  -2 1633.40 291.222   1
  -2 -19  -5 745.889 199.271   1
   0 -19  -5 157.774 118.859   1
  -5 -19   0 135.626 95.3482   1
  -5 -19   2 1195.31 257.314   1
  -2 -19   5 1140.33 243.646   1
   2 -19  -5 1100.92 235.793   1
  -4 -19   5 398.172 161.404   1
  -5 -19   4 64.7339 97.8208   1
  -6 -19  -5 1022.56 232.919   1
  -5 -19  -6 929.967 218.524   1
  -6 -19  -3-113.839 105.121   1
  -3 -19  -6-240.419 119.763   1
  -1 -19  -6 221.787 113.812   1
  -6 -19  -1 194.867 111.494   1
  -6 -19   1 277.071 140.074   1
   1 -19  -6-47.6698 78.3586   1
  -6 -19   3-66.2861 80.8602   1
  -3 -19   6-185.594 128.477   1
  -6 -19  -7 635.012 180.684   1
  -7 -19  -4 1660.45 304.647   1
  -4 -19  -7 2104.97 320.663   1
  -7 -19  -2 148.227 113.176   1
  -2 -19  -7 253.700 121.617   1
   0 -19  -7 1155.67 236.584   1
  -7 -19   0 1395.74 286.569   1
  -7 -19   2 272.066 135.507   1
   2 -19  -7 376.354 150.798   1
  -5 -19  -8 257.200 131.798   1
  -3 -19  -8 497.419 164.136   1
  -1 -19  -8 19.8105 76.7337   1
   1 -19  -8 123.816 74.7008   1
  -4 -19  -9 809.328 214.921   1
  -2 -19  -9 689.222 175.436   1
   0 -19  -9 1051.21 215.393   1
   2 -19  -9 1161.84 228.645   1
 -19  -9   6 884.114 197.369   1
  -5 -19 -10 880.954 220.389   1
  -3 -19 -10 34.7975 71.3227   1
  -1 -19 -10 419.200 155.244   1
 -19 -10   5 795.765 200.080   1
  -4 -19 -11 1037.88 235.176   1
  -2 -19 -11 1209.46 243.579   1
   0 -20   0 6451.76 584.969   1
  -1 -20  -1-105.773 98.2938   1
   1 -20  -1 7.52619 56.3953   1
  -1 -20   1-38.0170 100.020   1
  -2 -20  -2 4266.56 481.353   1
   0 -20  -2 390.429 163.480   1
  -2 -20   0 293.417 156.084   1
  -2 -20   2 4633.43 513.729   1
  -3 -20  -3-44.4501 93.9168   1
  -3 -20  -1 362.154 157.220   1
  -1 -20  -3 605.034 184.372   1
   1 -20  -3 144.266 108.953   1
  -3 -20   1 106.090 91.0613   1
  -4 -20  -4 3205.91 416.947   1
  -2 -20  -4-66.6131 96.6957   1
  -4 -20  -2-89.0232 88.1371   1
  -4 -20   0 4760.47 520.226   1
   0 -20  -4 4205.71 463.943   1
   2 -20  -4 72.6196 100.359   1
  -3 -20  -5 1695.81 302.990   1
  -1 -20  -5 662.057 183.624   1
   1 -20  -5 625.077 182.156   1
  -4 -20  -6 95.1602 86.3732   1
  -2 -20  -6 1927.18 312.473   1
   0 -20  -6-23.4522 102.192   1
   2 -20  -6 1706.87 290.562   1
  -3 -20  -7 378.586 155.845   1
  -1 -20  -7 790.224 207.444   1
   1 -20  -7 1309.66 255.629   1
  -2 -20  -8 127.955 99.9281   1
   0 -20  -8 965.940 231.541   1
   2 -20  -8 272.715 124.055   1
  -3 -20  -9 819.955 221.714   1
  -1 -20  -9 789.079 197.893   1
   1 -20  -9 977.989 224.085   1
  -2 -20 -10 119.754 86.8117   1
   1 -21  -2 255.239 156.460   1
   0 -21  -3 682.841 212.252   1
  -1 -21  -4 13.5876 64.8883   1
   1 -21  -4 382.925 152.432   1
   0 -21  -5 953.021 215.205   1
  -1 -21  -6 55.8825 82.6550   1
   1 -21  -6 27.0304 84.7870   1
   0 -21  -7 846.681 217.744   1
   2 -21  -7 1254.14 259.006   1
   1 -21  -8 238.819 114.392   1
   0   0   0    0.00    0.00   0

TITL LV194_MoCo3pyz2_b in I-43d
REM I-43d (#220 in standard setting)
CELL 0.71073  16.225348  16.225348  16.225348  90.0000  90.0000  90.0000
ZERR   10.00   0.000544   0.000544   0.000544   0.0000   0.0000   0.0000
LATT -2
SYMM -x+1/2,-y, z+1/2
SYMM -x, y+1/2,-z+1/2
SYMM  x+1/2,-y+1/2,-z
SYMM  z, x, y
SYMM  z+1/2,-x+1/2,-y
SYMM -z+1/2,-x, y+1/2
SYMM -z, x+1/2,-y+1/2
SYMM  y, z, x
SYMM -y, z+1/2,-x+1/2
SYMM  y+1/2,-z+1/2,-x
SYMM -y+1/2,-z, x+1/2
SYMM  y+1/4, x+1/4, z+1/4
SYMM -y+1/4,-x+3/4, z+3/4
SYMM  y+3/4,-x+1/4,-z+3/4
SYMM -y+3/4, x+3/4,-z+1/4
SYMM  x+1/4, z+1/4, y+1/4
SYMM -x+3/4, z+3/4,-y+1/4
SYMM -x+1/4,-z+3/4, y+3/4
SYMM  x+3/4,-z+1/4,-y+3/4
SYMM  z+1/4, y+1/4, x+1/4
SYMM  z+3/4,-y+1/4,-x+3/4
SYMM -z+3/4, y+3/4,-x+1/4
SYMM -z+1/4,-y+3/4, x+3/4
SFAC C H N O Mo
UNIT 150.00 120.00 60.00 30.00 10.00
TREF
HKLF 4
END
;
_shelx_hkl_checksum              81953
_olex2_date_sample_data_collection 2019-03-04
_olex2_submission_special_instructions 'No special instructions were received'
_oxdiff_exptl_absorpt_empirical_details
;
Empirical correction (ABSPACK) includes:
- Absorption correction using spherical harmonics
- Frame scaling
;
_oxdiff_exptl_absorpt_empirical_full_max 1.063
_oxdiff_exptl_absorpt_empirical_full_min 0.954
loop_
_space_group_symop_operation_xyz
'x, y, z'
'y+1/4, -x+3/4, -z+1/4'
'-x, -y+1/2, z'
'-y+1/4, x+1/4, -z+3/4'
'-x+1/4, z+1/4, -y+3/4'
'x, -y, -z+1/2'
'-x+3/4, -z+1/4, y+1/4'
'-z+3/4, -y+1/4, x+1/4'
'-x+1/2, y, -z'
'z+1/4, -y+3/4, -x+1/4'
'z, x, y'
'y, z, x'
'-y, -z+1/2, x'
'z, -x, -y+1/2'
'-y+1/2, z, -x'
'-z, -x+1/2, y'
'-z+1/2, x, -y'
'y, -z, -x+1/2'
'-y+3/4, -x+1/4, z+1/4'
'y+1/4, x+1/4, z+1/4'
'x+1/4, -z+3/4, -y+1/4'
'x+1/4, z+1/4, y+1/4'
'-z+1/4, y+1/4, -x+3/4'
'z+1/4, y+1/4, x+1/4'
'x+1/2, y+1/2, z+1/2'
'y+3/4, -x+5/4, -z+3/4'
'-x+1/2, -y+1, z+1/2'
'-y+3/4, x+3/4, -z+5/4'
'-x+3/4, z+3/4, -y+5/4'
'x+1/2, -y+1/2, -z+1'
'-x+5/4, -z+3/4, y+3/4'
'-z+5/4, -y+3/4, x+3/4'
'-x+1, y+1/2, -z+1/2'
'z+3/4, -y+5/4, -x+3/4'
'z+1/2, x+1/2, y+1/2'
'y+1/2, z+1/2, x+1/2'
'-y+1/2, -z+1, x+1/2'
'z+1/2, -x+1/2, -y+1'
'-y+1, z+1/2, -x+1/2'
'-z+1/2, -x+1, y+1/2'
'-z+1, x+1/2, -y+1/2'
'y+1/2, -z+1/2, -x+1'
'-y+5/4, -x+3/4, z+3/4'
'y+3/4, x+3/4, z+3/4'
'x+3/4, -z+5/4, -y+3/4'
'x+3/4, z+3/4, y+3/4'
'-z+3/4, y+3/4, -x+5/4'
'z+3/4, y+3/4, x+3/4'
loop_
_atom_site_label
_atom_site_type_symbol
_atom_site_fract_x
_atom_site_fract_y
_atom_site_fract_z
_atom_site_U_iso_or_equiv
_atom_site_adp_type
_atom_site_occupancy
_atom_site_site_symmetry_order
_atom_site_calc_flag
_atom_site_refinement_flags_posn
_atom_site_refinement_flags_adp
_atom_site_refinement_flags_occupancy
_atom_site_disorder_assembly
_atom_site_disorder_group
Mo1 Mo 0.97640(3) 0.47640(3) 0.02360(3) 0.0110(2) Uani 1 3 d S T P . .
C3 C 0.9679(4) 0.5940(3) 0.0039(4) 0.0182(14) Uani 1 1 d . . . . .
O2 O 0.9665(3) 0.6642(3) -0.0107(3) 0.0338(13) Uani 1 1 d . . . . .
N4 N 0.9600(3) 0.4888(3) 0.1635(3) 0.0115(11) Uani 1 1 d . . . . .
C5 C 0.9589(4) 0.4260(4) 0.2167(4) 0.0187(14) Uani 1 1 d . . . . .
H5 H 0.958346 0.372488 0.196077 0.022 Uiso 1 1 calc R U . . .
C6 C 0.9587(4) 0.5629(4) 0.1993(4) 0.0217(16) Uani 1 1 d . . . . .
H6 H 0.957477 0.609278 0.165724 0.026 Uiso 1 1 calc R U . . .
loop_
_atom_site_aniso_label
_atom_site_aniso_U_11
_atom_site_aniso_U_22
_atom_site_aniso_U_33
_atom_site_aniso_U_23
_atom_site_aniso_U_13
_atom_site_aniso_U_12
Mo1 0.0110(2) 0.0110(2) 0.0110(2) 0.0003(2) 0.0003(2) -0.0003(2)
C3 0.018(4) 0.018(3) 0.019(3) -0.001(3) -0.001(3) -0.001(3)
O2 0.037(3) 0.017(3) 0.047(3) 0.006(2) 0.003(2) 0.000(3)
N4 0.008(3) 0.014(3) 0.012(3) -0.002(2) -0.001(2) 0.002(2)
C5 0.028(4) 0.012(3) 0.016(3) -0.002(3) 0.001(3) -0.003(3)
C6 0.033(5) 0.016(4) 0.016(4) 0.004(3) -0.002(3) 0.006(3)
loop_
_atom_type_symbol
_atom_type_description
_atom_type_scat_dispersion_real
_atom_type_scat_dispersion_imag
_atom_type_scat_source
C C 0.0033 0.0016 'International Tables Vol C Tables 4.2.6.8 and 6.1.1.4'
H H 0.0000 0.0000 'International Tables Vol C Tables 4.2.6.8 and 6.1.1.4'
Mo Mo -1.6832 0.6857 'International Tables Vol C Tables 4.2.6.8 and 6.1.1.4'
N N 0.0061 0.0033 'International Tables Vol C Tables 4.2.6.8 and 6.1.1.4'
O O 0.0106 0.0060 'International Tables Vol C Tables 4.2.6.8 and 6.1.1.4'
loop_
_geom_angle_atom_site_label_1
_geom_angle_atom_site_label_2
_geom_angle_atom_site_label_3
_geom_angle
_geom_angle_site_symmetry_1
_geom_angle_site_symmetry_3
_geom_angle_publ_flag
C3 Mo1 C3 85.4(3) 42 41_545 ?
C3 Mo1 C3 85.4(3) 42 . ?
C3 Mo1 C3 85.4(3) 41_545 . ?
C3 Mo1 N4 91.7(2) 42 . ?
C3 Mo1 N4 177.0(2) . 42 ?
C3 Mo1 N4 177.0(2) 41_545 . ?
C3 Mo1 N4 93.9(2) 42 42 ?
C3 Mo1 N4 177.0(2) 42 41_545 ?
C3 Mo1 N4 93.9(2) . . ?
C3 Mo1 N4 91.7(2) 41_545 42 ?
C3 Mo1 N4 91.7(2) . 41_545 ?
C3 Mo1 N4 93.9(2) 41_545 41_545 ?
N4 Mo1 N4 88.97(18) . 41_545 ?
N4 Mo1 N4 88.97(18) 41_545 42 ?
N4 Mo1 N4 88.97(18) . 42 ?
O2 C3 Mo1 176.3(6) . . ?
C5 N4 Mo1 125.0(4) . . ?
C5 N4 C6 114.0(5) . . ?
C6 N4 Mo1 120.7(4) . . ?
N4 C5 H5 118.7 . . ?
N4 C5 C6 122.7(5) . 6_565 ?
C6 C5 H5 118.7 6_565 . ?
N4 C6 C5 123.4(6) . 6_565 ?
N4 C6 H6 118.3 . . ?
C5 C6 H6 118.3 6_565 . ?
loop_
_geom_bond_atom_site_label_1
_geom_bond_atom_site_label_2
_geom_bond_distance
_geom_bond_site_symmetry_2
_geom_bond_publ_flag
Mo1 C3 1.939(5) 42 ?
Mo1 C3 1.939(5) 41_545 ?
Mo1 C3 1.939(5) . ?
Mo1 N4 2.295(4) . ?
Mo1 N4 2.295(4) 41_545 ?
Mo1 N4 2.295(4) 42 ?
C3 O2 1.164(6) . ?
N4 C5 1.335(8) . ?
N4 C6 1.335(7) . ?
C5 H5 0.9300 . ?
C5 C6 1.374(8) 6_565 ?
C6 H6 0.9300 . ?
loop_
_geom_torsion_atom_site_label_1
_geom_torsion_atom_site_label_2
_geom_torsion_atom_site_label_3
_geom_torsion_atom_site_label_4
_geom_torsion
_geom_torsion_site_symmetry_1
_geom_torsion_site_symmetry_2
_geom_torsion_site_symmetry_3
_geom_torsion_site_symmetry_4
_geom_torsion_publ_flag
Mo1 N4 C5 C6 172.1(6) . . . 6_565 ?
Mo1 N4 C6 C5 -172.0(5) . . . 6_565 ?
C5 N4 C6 C5 2.1(9) . . . 6_565 ?
C6 N4 C5 C6 -1.6(7) . . . 6_565 ?
