#------------------------------------------------------------------------------
#$Date: 2021-05-05 11:02:42 +0300 (Wed, 05 May 2021) $
#$Revision: 264865 $
#$URL: file:///home/coder/svn-repositories/cod/cif/7/12/80/7128078.cif $
#------------------------------------------------------------------------------
#
# This file is available in the Crystallography Open Database (COD),
# http://www.crystallography.net/
#
# All data on this site have been placed in the public domain by the
# contributors.
#
data_7128078
loop_
_publ_author_name
'Voigt, Laura'
'Wugt Larsen, Ren\'e'
'Kubus, Mariusz'
'Pedersen, Kasper S.'
_publ_section_title
;
 Zero-valent metals in metal-organic frameworks:
 fac-M(CO)<sub>3</sub>(pyrazine)<sub>3/2</sub>.
;
_journal_issue                   32
_journal_name_full
'Chemical communications (Cambridge, England)'
_journal_page_first              3861
_journal_page_last               3864
_journal_paper_doi               10.1039/d1cc00864a
_journal_volume                  57
_journal_year                    2021
_chemical_formula_moiety         'C9 H6 Cr1 N3 O3'
_chemical_formula_sum            'C9 H6 Cr N3 O3'
_chemical_formula_weight         256.17
_space_group_crystal_system      cubic
_space_group_IT_number           220
_space_group_name_Hall           'I -4bd 2c 3'
_space_group_name_H-M_alt        'I -4 3 d'
_atom_sites_solution_hydrogens   difmap
_atom_sites_solution_primary     direct
_audit_creation_date             2020-10-18
_audit_creation_method
;
Olex2 1.3
(compiled 2020.07.31 svn.rc2a77460 for OlexSys, GUI svn.r6145)
;
_audit_update_record
;
2021-02-15 deposited with the CCDC.	2021-03-25 downloaded from the CCDC.
;
_cell_angle_alpha                90
_cell_angle_beta                 90
_cell_angle_gamma                90
_cell_formula_units_Z            16
_cell_length_a                   15.8757(6)
_cell_length_b                   15.8757(6)
_cell_length_c                   15.8757(6)
_cell_measurement_reflns_used    852
_cell_measurement_temperature    119.99(10)
_cell_measurement_theta_max      27.1330
_cell_measurement_theta_min      4.0530
_cell_volume                     4001.3(3)
_computing_cell_refinement       'CrysAlisPro 1.171.39.46 (Rigaku OD, 2018)'
_computing_data_collection       'CrysAlisPro 1.171.39.46 (Rigaku OD, 2018)'
_computing_data_reduction        'CrysAlisPro 1.171.39.46 (Rigaku OD, 2018)'
_computing_molecular_graphics    'Olex2 1.3 (Dolomanov et al., 2009)'
_computing_publication_material  'Olex2 1.3 (Dolomanov et al., 2009)'
_computing_structure_refinement  'SHELXL 2018/3 (Sheldrick, 2015)'
_computing_structure_solution    'SHELXS  (Sheldrick, 2008)'
_diffrn_ambient_environment      N~2~
_diffrn_ambient_temperature      119.99(10)
_diffrn_detector                 'CCD plate'
_diffrn_detector_area_resol_mean 5.3073
_diffrn_detector_type            Atlas
_diffrn_measured_fraction_theta_full 0.997
_diffrn_measured_fraction_theta_max 0.974
_diffrn_measurement_details
;
List of Runs (angles in degrees, time in seconds):

  # Type    Start    End  Width  t~exp~   \w     \q     \k     \f   Frames
#--------------------------------------------------------------------------
  1  \w    -34.00   5.00   1.00   35.00    --   10.87 -77.00-150.00   39
;
_diffrn_measurement_device       'four-circle diffractometer'
_diffrn_measurement_device_type  'SuperNova, Dual, Cu at home/near, Atlas'
_diffrn_measurement_method       '\w scans'
_diffrn_orient_matrix_type
'CrysAlisPro convention (1999,Acta A55,543-557)'
_diffrn_orient_matrix_UB_11      -0.0085667000
_diffrn_orient_matrix_UB_12      0.0314339000
_diffrn_orient_matrix_UB_13      0.0305782000
_diffrn_orient_matrix_UB_21      -0.0193433000
_diffrn_orient_matrix_UB_22      0.0252534000
_diffrn_orient_matrix_UB_23      -0.0313864000
_diffrn_orient_matrix_UB_31      -0.0393221000
_diffrn_orient_matrix_UB_32      -0.0192445000
_diffrn_orient_matrix_UB_33      0.0088549000
_diffrn_radiation_monochromator  mirror
_diffrn_radiation_probe          x-ray
_diffrn_radiation_type           'Mo K\a'
_diffrn_radiation_wavelength     0.71073
_diffrn_reflns_av_R_equivalents  0.0373
_diffrn_reflns_av_unetI/netI     0.0448
_diffrn_reflns_Laue_measured_fraction_full 0.997
_diffrn_reflns_Laue_measured_fraction_max 0.974
_diffrn_reflns_limit_h_max       16
_diffrn_reflns_limit_h_min       -12
_diffrn_reflns_limit_k_max       12
_diffrn_reflns_limit_k_min       -20
_diffrn_reflns_limit_l_max       4
_diffrn_reflns_limit_l_min       -17
_diffrn_reflns_number            1916
_diffrn_reflns_point_group_measured_fraction_full 0.933
_diffrn_reflns_point_group_measured_fraction_max 0.885
_diffrn_reflns_theta_full        25.242
_diffrn_reflns_theta_max         28.211
_diffrn_reflns_theta_min         3.630
_diffrn_source                   'micro-focus sealed X-ray tube'
_diffrn_source_type              'SuperNova (Mo) X-ray Source'
_exptl_absorpt_coefficient_mu    1.137
_exptl_absorpt_correction_T_max  1.00000
_exptl_absorpt_correction_T_min  0.96245
_exptl_absorpt_correction_type   multi-scan
_exptl_absorpt_process_details
;
CrysAlisPro 1.171.39.46 (Rigaku Oxford Diffraction, 2018)
Empirical absorption correction using spherical harmonics,
 implemented in SCALE3 ABSPACK scaling algorithm.
;
_exptl_crystal_colour            'metallic yellowish black'
_exptl_crystal_colour_lustre     metallic
_exptl_crystal_colour_modifier   yellowish
_exptl_crystal_colour_primary    black
_exptl_crystal_density_diffrn    1.701
_exptl_crystal_description       hexagonal
_exptl_crystal_F_000             2064
_exptl_crystal_size_max          0.3
_exptl_crystal_size_mid          0.3
_exptl_crystal_size_min          0.3
_refine_diff_density_max         0.277
_refine_diff_density_min         -0.224
_refine_diff_density_rms         0.061
_refine_ls_abs_structure_details
;
 Flack x determined using 238 quotients [(I+)-(I-)]/[(I+)+(I-)]
 (Parsons, Flack and Wagner, Acta Cryst. B69 (2013) 249-259).
;
_refine_ls_abs_structure_Flack   -0.05(3)
_refine_ls_extinction_method     none
_refine_ls_goodness_of_fit_ref   1.107
_refine_ls_hydrogen_treatment    refxyz
_refine_ls_matrix_type           full
_refine_ls_number_parameters     55
_refine_ls_number_reflns         739
_refine_ls_number_restraints     0
_refine_ls_restrained_S_all      1.107
_refine_ls_R_factor_all          0.0436
_refine_ls_R_factor_gt           0.0359
_refine_ls_shift/su_max          0.000
_refine_ls_shift/su_mean         0.000
_refine_ls_structure_factor_coef Fsqd
_refine_ls_weighting_details
'w=1/[\s^2^(Fo^2^)+(0.0274P)^2^+3.7015P] where P=(Fo^2^+2Fc^2^)/3'
_refine_ls_weighting_scheme      calc
_refine_ls_wR_factor_gt          0.0726
_refine_ls_wR_factor_ref         0.0766
_reflns_Friedel_coverage         0.646
_reflns_Friedel_fraction_full    0.852
_reflns_Friedel_fraction_max     0.775
_reflns_number_gt                669
_reflns_number_total             739
_reflns_threshold_expression     'I > 2\s(I)'
_cod_data_source_file            d1cc00864a2.cif
_cod_data_source_block           lv382_crco3pyz_cubic_b
_cod_depositor_comments
'Adding full bibliography for 7128075--7128079.cif.'
_cod_original_cell_volume        4001.3(5)
_cod_database_code               7128078
_shelx_shelxl_version_number     2018/3
_chemical_oxdiff_formula         'Cr C9 H6 O3 N3'
_shelx_space_group_comment
;
The symmetry employed for this shelxl refinement is uniquely defined
by the following loop, which should always be used as a source of
symmetry information in preference to the above space-group names.
They are only intended as comments.
;
_shelx_estimated_absorpt_t_max   0.727
_shelx_estimated_absorpt_t_min   0.727
_reflns_odcompleteness_completeness 99.32
_reflns_odcompleteness_iscentric 1
_reflns_odcompleteness_theta     26.32
_olex2_refinement_description
;
1. Fixed Uiso
 At 1.2 times of:
  All C(H) groups
;
_shelx_res_file
;
TITL LV382_CrCO3pyz_cubic_b in I-43d #220
    lv382_crco3pyz_cubic_b.res
    created by SHELXL-2018/3 at 10:32:13 on 18-Oct-2020
REM reset to I-43d #220
CELL 0.71073 15.87567 15.87567 15.87567 90 90 90
ZERR 16 0.00062 0.00062 0.00062 0 0 0
LATT -2
SYMM 0.25+Y,0.75-X,0.25-Z
SYMM -X,0.5-Y,+Z
SYMM 0.25-Y,0.25+X,0.75-Z
SYMM 0.25-X,0.25+Z,0.75-Y
SYMM +X,-Y,0.5-Z
SYMM 0.75-X,0.25-Z,0.25+Y
SYMM 0.75-Z,0.25-Y,0.25+X
SYMM 0.5-X,+Y,-Z
SYMM 0.25+Z,0.75-Y,0.25-X
SYMM +Z,+X,+Y
SYMM +Y,+Z,+X
SYMM -Y,0.5-Z,+X
SYMM +Z,-X,0.5-Y
SYMM 0.5-Y,+Z,-X
SYMM -Z,0.5-X,+Y
SYMM 0.5-Z,+X,-Y
SYMM +Y,-Z,0.5-X
SYMM 0.75-Y,0.25-X,0.25+Z
SYMM 0.25+Y,0.25+X,0.25+Z
SYMM 0.25+X,0.75-Z,0.25-Y
SYMM 0.25+X,0.25+Z,0.25+Y
SYMM 0.25-Z,0.25+Y,0.75-X
SYMM 0.25+Z,0.25+Y,0.25+X
SFAC C H Cr N O
UNIT 144 96 16 48 48

L.S. 4
PLAN  5
SIZE 0.3 0.3 0.3
CONF
BOND
MORE -1
BOND $H
fmap 2
acta
SHEL 999 0.75
REM <olex2.extras>
REM <HklSrc "%./LV382_CrCO3pyz_cubic_b.hkl">
REM </olex2.extras>

WGHT    0.027400    3.701500
FVAR       0.59977
CR1   3    0.973623    0.473623    0.026377    10.33333    0.01127    0.01127 =
         0.01127    0.00012    0.00012   -0.00012
N2    4    0.838570    0.459703    0.012740    11.00000    0.01341    0.00917 =
         0.01663   -0.00056   -0.00075   -0.00007
C6    1    0.965731    0.586781    0.006507    11.00000    0.01453    0.01958 =
         0.01570   -0.00148    0.00230   -0.00011
O5    5    0.966582    0.657888   -0.010387    11.00000    0.03710    0.01538 =
         0.03867    0.00890   -0.00059   -0.00142
C3    1    0.783504    0.459049    0.075652    11.00000    0.01351    0.02899 =
         0.01500    0.00067   -0.00330    0.00092
H3    2    0.805314    0.457900    0.126782    11.00000   -1.20000
C4    1    0.802799    0.458449   -0.064127    11.00000    0.01390    0.03335 =
         0.01566   -0.00258    0.00182   -0.00246
H4    2    0.842937    0.455913   -0.111423    11.00000   -1.20000
HKLF 4




REM  LV382_CrCO3pyz_cubic_b in I-43d #220
REM wR2 = 0.0766, GooF = S = 1.107, Restrained GooF = 1.107 for all data
REM R1 = 0.0359 for 669 Fo > 4sig(Fo) and 0.0436 for all 739 data
REM 55 parameters refined using 0 restraints

END

WGHT      0.0274      3.7014

REM Highest difference peak  0.277,  deepest hole -0.224,  1-sigma level  0.061
Q1    1   0.8861  0.4703  0.0032  11.00000  0.05    0.28
Q2    1   0.9730  0.5382 -0.0421  11.00000  0.05    0.24
Q3    1   1.0233  0.5460 -0.0376  11.00000  0.05    0.24
Q4    1   1.0169  0.5367  0.0238  11.00000  0.05    0.22
Q5    1   0.9447  0.5422  0.0225  11.00000  0.05    0.21
;
_shelx_res_checksum              30741
_shelx_hkl_file
;
  -2  -2  -2 14.5747 15.2923   1
   2   2   0 48867.5 330.195   1
  -2   2  -2 4.40586 8.63214   1
  -1  -3   0 9049.38 161.474   1
   1  -3   0 9322.24 153.203   1
   0   3  -1 9207.73 154.924   1
   0  -3   1 9042.67 155.320   1
   0  -3  -1 9386.71 163.940   1
  -3  -1  -2 1662.05 50.5692   1
  -2  -3  -1 1600.01 70.7463   1
   2  -3   1 1611.07 60.3688   1
  -3  -2  -1 1613.71 63.7214   1
   3   2   1 1776.14 65.2105   1
   2   3   1 1820.51 75.2417   1
  -1   3  -2 1761.70 67.4441   1
  -2   3  -1 1719.28 63.9028   1
  -3  -2  -3 3065.16 91.6850   1
   3  -3   2 3108.15 77.0486   1
  -3  -3  -2 2956.54 100.232   1
   3   3   0 17.2991 16.0669   1
  -3   2  -3 3019.88 62.5318   1
   3   3   2 2907.36 99.3108   1
  -2   3  -3 3068.39 86.6275   1
  -3   3  -2 2924.17 75.4604   1
   0  -4   0 142480. 710.906   1
   1  -4   1-3.10191 15.0070   1
  -1  -4  -1-15.2125 15.9475   1
  -1  -4   1 22.3251 18.0143   1
  -1   4  -1 2.51582 14.1235   1
   4   1   1-2.19973 11.0326   1
   2  -4   2 1087.02 58.5638   1
  -2  -4  -2 935.038 63.4847   1
  -4  -2  -2 1157.78 55.6924   1
   0   4  -2 3852.82 118.440   1
   2  -4   0 3588.79 109.683   1
  -2  -4   0 3538.58 119.300   1
   4   2   2 847.300 46.8447   1
  -2   4  -2 824.280 51.7151   1
  -3  -4  -3-24.5859 23.7335   1
  -4  -3  -3-5.04313 16.5663   1
   3   4  -1 3295.70 121.530   1
  -4  -1  -3 3235.26 75.6666   1
   3  -4   1 3083.28 96.7775   1
  -3  -4  -1 3165.02 115.723   1
  -1   4  -3 3156.30 106.983   1
   3   4   1 3295.69 117.072   1
   4   3   1 3020.93 103.190   1
  -3   4  -3 39.5409 16.5401   1
  -4   3  -3 22.2795 11.9503   1
  -4  -4  -4 3707.94 133.123   1
  -4  -2  -4-30.1918 17.1272   1
  -4  -4  -2 12.3712 17.5845   1
   4  -4   2 0.32093 12.8057   1
   4   4   0 3026.42 117.842   1
   4   4   2 41.3355 19.5475   1
  -4   4  -4 3058.73 91.1081   1
   0  -5  -1 25804.4 344.758   1
  -1  -5   0 26585.8 349.620   1
   0   5  -1 26057.1 336.724   1
   1  -5   0 26547.3 335.251   1
   0  -5   1 26883.5 344.140   1
   1  -5   2 4222.55 133.713   1
   1   5  -2 4385.29 144.602   1
  -1  -5  -2 4137.02 142.345   1
  -2  -5  -1 4033.32 140.758   1
   2  -5   1 4246.17 130.970   1
   5   2   1 3155.69 98.6475   1
  -1   5  -2 3849.42 125.954   1
   5   1   2 3788.62 85.9155   1
   2   5   1 3801.02 135.223   1
  -2   5  -1 3774.93 124.271   1
  -5  -2  -3 508.592 39.6065   1
   5  -3   2 523.129 30.5425   1
   3  -5   2 627.015 49.7214   1
  -3  -5  -2 640.847 60.0709   1
  -2  -5  -3 643.139 60.1600   1
  -5  -3  -2 525.950 47.1386   1
   0   5  -3 3062.33 121.800   1
   3  -5   0 3079.92 115.290   1
   5   3   0 2454.03 101.554   1
   3   5   0 2995.06 124.591   1
  -3  -5   0 3128.14 128.040   1
   3   5   2 642.239 59.8794   1
  -2   5  -3 630.031 49.8483   1
   5   3   2 511.573 44.7732   1
  -3   5  -2 601.278 49.1444   1
  -5  -4  -3 2009.75 97.7699   1
  -4  -5  -3 2135.65 108.561   1
  -3  -5  -4 2230.82 112.344   1
   5  -4   3 2246.90 71.1958   1
  -5  -3  -4 2221.40 93.0216   1
   4  -5   3 2160.43 86.5943   1
   4  -5   1 7143.71 163.719   1
  -4  -5  -1 6847.69 190.944   1
  -5  -1  -4 6845.97 118.981   1
   4   5   1 7137.62 194.450   1
   5   4   1 7238.75 183.744   1
  -1   5  -4 6944.96 179.996   1
  -4   5  -3 2429.32 92.6012   1
  -3   5  -4 2428.82 97.4999   1
  -5  -5  -4 32.1666 22.9934   1
  -4  -5  -5-29.2233 25.2155   1
  -5  -4  -5-2.02161 19.7248   1
  -5  -5  -2 10958.4 246.822   1
  -5  -2  -5 11049.9 192.550   1
   5  -5   2 11323.3 197.670   1
   5   5   0 44.7178 22.5564   1
  -2   5  -5 9957.65 216.463   1
   5   5   2 10291.3 237.544   1
  -5   5  -4 8.96699 14.4177   1
  -4   5  -5 8.19688 14.6214   1
  -5   4  -5 6.59640 11.1442   1
   0   6   0-41.9015 22.4594   1
   0  -6   0-20.3348 25.8467   1
  -1  -6  -1 20452.3 339.593   1
   1  -6   1 20994.1 326.611   1
  -1   6  -1 21532.6 329.203   1
   1  -6  -1 21664.4 344.284   1
  -1  -6   1 22380.4 351.820   1
  -2  -6  -2 36.2100 29.2413   1
   2  -6   2 12.9531 21.0006   1
   2  -6   0 43440.0 464.767   1
  -2  -6   0 42371.8 494.762   1
   0   6  -2 42622.7 476.533   1
   0  -6  -2 43076.0 494.360   1
   0  -6   2 43578.6 480.602   1
   6   0   2 43445.9 257.313   1
   6   2   2-0.05397 12.9195   1
  -2   6  -2-1.34547 18.0289   1
   3  -6   3 6432.39 171.956   1
  -3  -6  -3 6319.23 199.956   1
  -6  -3  -3 6469.32 160.556   1
   3  -6   1 5373.78 160.909   1
  -1  -6  -3 5228.20 181.408   1
  -3  -6  -1 5172.39 178.399   1
  -1   6  -3 5843.58 173.541   1
   6   3   1 4222.14 133.802   1
   6   3   3 5161.81 142.898   1
  -3   6  -3 6037.33 168.163   1
  -6  -4  -4 3.80545 17.9508   1
  -4  -6  -4-9.80073 23.7775   1
  -6  -2  -4 4261.75 114.256   1
  -4  -6  -2 4528.76 170.413   1
   6  -4   2 4371.44 104.492   1
   4  -6   2 4232.91 137.722   1
  -2  -6  -4 4463.32 171.552   1
   4  -6   0 49.9013 19.9287   1
   0   6  -4 43.9373 25.0168   1
   6   4   0 54.0474 23.1736   1
  -2   6  -4 4242.76 148.801   1
   6   4   2 4353.40 145.220   1
   4   6   2 4796.79 171.553   1
  -4   6  -4 29.6420 23.9272   1
  -5  -6  -5 2086.54 120.473   1
  -6  -5  -5 2009.97 111.861   1
  -5  -5  -6 2097.55 116.896   1
  -6  -5  -3 159.213 35.2574   1
   5  -6   3 127.426 26.8846   1
  -5  -6  -3 116.067 34.1051   1
   6  -5   3 143.292 23.5534   1
  -3  -6  -5 105.183 29.6517   1
  -6  -3  -5 117.159 24.5478   1
  -5  -6  -1 2885.44 137.209   1
  -6  -1  -5 3055.32 84.5589   1
   5  -6   1 3035.12 119.479   1
   6   5  -1 3092.65 143.226   1
   6   5   1 2936.00 132.247   1
   5   6   1 2784.63 135.038   1
  -1   6  -5 2858.66 129.734   1
   6   5   3 144.507 34.0463   1
  -3   6  -5 99.3682 26.9790   1
  -5   5  -6 1700.22 78.6442   1
  -5   6  -5 1807.67 87.2750   1
  -6  -6  -6-13.8448 28.4523   1
  -6  -4  -6 2597.66 117.541   1
  -4  -6  -6 2411.13 133.875   1
  -6  -6  -4 2342.81 127.476   1
   6  -6   2 12.6721 14.8751   1
  -6  -6  -2 14.5481 24.0657   1
  -6  -2  -6 0.25350 14.1059   1
   6   6  -2 16.7614 18.5821   1
   6   6   0 11848.8 290.166   1
  -2   6  -6 5.43124 15.9938   1
   6   6   2-12.5756 19.0680   1
  -6   4  -6 2808.62 77.3802   1
  -4   6  -6 2795.42 118.472   1
  -6   6  -6-6.01087 13.3820   1
   0  -7  -1 16932.7 327.498   1
   1  -7   0 16492.2 320.072   1
  -1  -7   0 16332.1 327.295   1
   0  -7   1 16889.6 323.140   1
  -1  -7  -2 11330.8 275.759   1
   1  -7   2 11737.0 264.225   1
  -2  -7  -1 11016.9 273.942   1
   2  -7   1 11366.5 258.386   1
   2  -7  -1 11877.9 273.236   1
   1  -7  -2 12229.0 284.189   1
  -1   7  -2 11643.1 263.200   1
  -2  -7   1 11490.7 277.813   1
   3  -7   2 2329.16 114.953   1
  -2  -7  -3 2170.65 124.203   1
  -3  -7  -2 2358.66 130.991   1
   0   7  -3 4844.08 176.641   1
   3  -7   0 4841.77 169.868   1
  -3  -7   0 4549.09 179.071   1
   7   0   3 4730.15 77.7182   1
   0  -7  -3 4892.52 188.613   1
   7   3   2 2385.13 101.285   1
  -2   7  -3 1941.58 107.745   1
   7   2   3 1614.42 72.0899   1
  -3   7  -2 2010.36 107.648   1
  -7  -3  -4 2324.22 98.6231   1
  -4  -7  -3 2360.16 132.204   1
   7  -4   3 2486.76 68.0725   1
   4  -7   3 2488.54 115.676   1
  -3  -7  -4 2474.35 134.370   1
   4  -7   1 8109.30 214.541   1
  -1  -7  -4 8296.79 249.652   1
  -4  -7  -1 8393.71 244.417   1
  -1   7  -4 8510.72 232.464   1
   7   4   1 7858.77 207.094   1
   7   4   3 2416.81 110.660   1
  -3   7  -4 2358.23 114.331   1
  -4   7  -3 2387.39 113.903   1
  -5  -7  -4 1342.31 102.333   1
  -7  -5  -4 1262.33 89.5293   1
  -4  -7  -5 1438.25 108.441   1
  -7  -4  -5 1420.95 87.2008   1
  -2  -7  -5 831.122 83.9551   1
   5  -7   2 929.432 72.0245   1
  -5  -7  -2 815.239 80.7467   1
  -7  -2  -5 891.512 53.3118   1
   7  -5   2 863.773 55.0319   1
   5   7   0 5146.63 197.295   1
   5  -7   0 5075.88 174.786   1
   7   5   0 5238.30 186.580   1
  -2   7  -5 701.752 68.0842   1
   5   7   2 770.354 78.0037   1
   7   5   2 752.131 69.6042   1
  -4   7  -5 1197.16 81.1626   1
  -6  -5  -7 1094.46 86.3047   1
  -6  -7  -5 873.581 86.5796   1
  -7  -5  -6 969.639 81.8991   1
  -5  -7  -6 964.515 91.3053   1
  -5  -6  -7 1054.27 90.3468   1
  -7  -6  -5 1025.32 86.3014   1
   6  -7   3 9943.57 219.097   1
  -6  -3  -7 10173.4 224.610   1
  -7  -3  -6 9589.77 206.341   1
  -7  -6  -3 10171.0 265.296   1
   7  -6   3 10208.7 196.214   1
  -3  -7  -6 9568.60 284.284   1
  -6  -7  -3 10223.5 280.898   1
   6  -7   1 9181.68 225.023   1
   6   7  -1 9374.17 278.961   1
  -7  -1  -6 9026.98 149.526   1
   7   6  -1 9738.08 276.762   1
   7  -6   1 8931.86 207.011   1
   6   7   1 9343.81 269.128   1
  -1   7  -6 9104.69 255.311   1
   7   6   1 9526.83 261.025   1
  -3   7  -6 9655.52 244.940   1
   7   6   3 10556.6 272.022   1
   6   7   3 10220.8 281.880   1
  -3   6  -7 10198.0 244.978   1
  -6   5  -7 926.042 56.7633   1
  -5   6  -7 983.323 70.3935   1
  -5   7  -6 887.927 69.6053   1
  -7  -7  -6 4536.56 195.298   1
  -6  -7  -7 4619.42 200.712   1
  -7  -6  -7 4323.34 182.729   1
  -7  -4  -7-11.5062 19.8017   1
  -4  -7  -7 3.96917 25.9165   1
  -7  -7  -4 0.28163 24.4977   1
   7   7  -2 7805.91 267.245   1
   7  -7   2 7982.83 200.835   1
  -7  -2  -7 7592.20 171.351   1
   7   7   0 606.867 78.6607   1
  -7   0  -7 686.118 40.1471   1
  -2   7  -7 7263.92 227.301   1
   7   7   2 7537.09 243.871   1
  -7   4  -7 6.14677 7.38194   1
  -4   7  -7 24.7968 23.1195   1
  -6   7  -7 4128.62 143.197   1
  -7   6  -7 4410.06 123.338   1
   0  -8   0 473.464 60.4700   1
  -1  -8  -1-41.3875 24.7681   1
   1  -8   1-0.24527 22.9718   1
  -1   8  -1-11.1394 20.8395   1
   1  -8  -1-8.39878 21.5853   1
  -1  -8   1 15.2817 24.8441   1
   2  -8   2 2048.57 118.104   1
  -2  -8  -2 2102.41 127.572   1
   0  -8   2 160.153 39.6677   1
   2  -8   0 206.199 42.1082   1
   0  -8  -2 191.590 44.4808   1
  -2  -8   0 193.467 48.0535   1
   8   2   2 1796.10 82.8643   1
   2  -8  -2 1728.38 115.578   1
  -2   8  -2 1774.37 109.675   1
  -3  -8  -3 15.8764 24.3322   1
   3  -8   3-7.57899 20.8118   1
  -3  -8  -1 1639.19 116.004   1
  -1  -8  -3 1678.88 118.513   1
   3  -8   1 1875.89 113.663   1
   3  -8  -1 1624.08 110.361   1
   8   3   1 1668.50 91.7405   1
  -1   8  -3 1539.73 105.099   1
   8   1   3 1719.99 65.7377   1
   1  -8  -3 1460.29 109.561   1
   8   3   3-20.5941 20.8406   1
  -3   8  -3 11.6738 19.1042   1
  -4  -8  -4 1029.04 98.5888   1
   4  -8   2 133.657 29.9571   1
  -4  -8  -2 126.266 36.2286   1
  -2  -8  -4 174.024 46.3578   1
  -4  -8   0 371.476 60.3009   1
   0  -8  -4 332.327 55.8241   1
   8   4   0 342.986 47.0697   1
   4  -8   0 353.655 53.2470   1
  -2   8  -4 219.348 42.6774   1
   8   4   2 216.406 37.1773   1
   4   8   2 163.408 41.2722   1
  -4   8  -4 898.361 75.4658   1
  -8  -5  -5-7.65555 18.5229   1
  -5  -8  -5-17.8599 34.2908   1
  -5  -8  -3 1607.36 119.643   1
   5  -8   3 1560.18 97.8958   1
  -3  -8  -5 1622.24 120.215   1
   8  -5   3 1622.73 65.7434   1
  -5  -8  -1 770.786 84.3954   1
   8   5  -1 632.137 70.5892   1
  -1  -8  -5 661.228 81.2190   1
   5  -8   1 633.932 67.5293   1
   5  -8  -1 206.911 49.7342   1
   8   5   1 592.963 63.5429   1
   5   8   1 533.027 70.2554   1
  -3   8  -5 1748.03 109.387   1
   8   5   3 1750.02 104.779   1
  -5   5  -8 4.36304 14.0236   1
  -5   8  -5 10.6213 20.1028   1
  -8  -6  -6 5987.36 212.913   1
  -6  -6  -8 5655.26 215.116   1
  -6  -8  -6 6010.80 236.523   1
  -4  -8  -6 108.215 41.0266   1
  -6  -4  -8 122.070 31.0613   1
  -8  -6  -4 109.662 34.4088   1
   6   8  -4 149.501 40.4412   1
  -8  -4  -6 70.8492 26.6115   1
  -6  -8  -4 105.657 39.6936   1
  -8  -2  -6 2789.78 97.2005   1
   6  -8   2 2793.10 131.540   1
  -2  -8  -6 2832.09 163.749   1
   8   6  -2 2700.19 153.743   1
   6   8  -2 2688.08 159.936   1
   2   8  -6 2993.97 167.406   1
  -6  -8  -2 2891.24 160.188   1
   8  -6   2 2736.89 106.779   1
   8   6   0 288.457 50.3738   1
   6   8   0 403.620 65.2532   1
   6  -8   0 349.524 52.3930   1
   8   6   2 2810.19 142.317   1
   6   8   2 2706.63 154.897   1
  -4   8  -6 154.029 38.0853   1
  -4   6  -8 91.0381 27.8429   1
  -6   4  -8 113.465 21.4695   1
  -6   6  -8 5326.81 158.458   1
  -6   8  -6 5464.30 177.042   1
  -7  -7  -8 39.4109 36.8165   1
  -8  -7  -7 85.8070 42.4723   1
  -7  -8  -7 62.3204 41.1372   1
  -5  -7  -8 2100.68 138.610   1
  -7  -5  -8 2061.29 121.525   1
  -5  -8  -7 1879.17 136.800   1
  -8  -5  -7 2192.31 121.342   1
  -8  -7  -5 2160.03 136.636   1
  -7  -8  -5 2091.10 140.573   1
   8  -7   3 1527.29 84.3719   1
  -8  -3  -7 1663.04 88.9500   1
   7   8  -3 1747.58 135.883   1
   7  -8   3 1667.04 97.9162   1
  -7  -3  -8 1410.81 86.4580   1
   8   7  -3 1535.18 125.491   1
  -3  -8  -7 1412.70 119.457   1
  -7  -8  -3 1330.35 112.376   1
   8  -7   1 6745.00 194.717   1
  -8  -1  -7 7041.30 135.457   1
   7  -8   1 6908.42 210.638   1
   8   7  -1 7365.79 259.652   1
   7   8  -1 7099.76 261.518   1
   7   8   1 7085.40 254.675   1
   8   7   1 6980.42 243.671   1
   8   7   3 1287.75 104.694   1
   7   8   3 1407.72 114.922   1
  -7   3  -8 1497.68 53.0409   1
  -3   7  -8 1393.15 101.364   1
  -5   8  -7 1933.80 112.192   1
  -7   5  -8 1965.12 76.5338   1
  -5   7  -8 1964.13 109.096   1
  -7   7  -8 9.13259 15.4096   1
  -8  -8  -8 28926.3 545.834   1
  -8  -8  -6-22.6393 27.6738   1
  -6  -8  -8 41.7956 33.6574   1
  -8  -6  -8-37.1927 28.8071   1
   8   8  -4 8408.41 309.805   1
  -8  -4  -8 7697.44 216.683   1
  -8  -8  -4 7853.62 272.035   1
  -4  -8  -8 8107.05 288.044   1
   8   8  -2 13.9811 32.5211   1
   8  -8   2 12.6912 21.1917   1
  -8  -2  -8 10.7838 14.1598   1
   8   8   0 585.672 80.1323   1
  -8   0  -8 563.817 35.6238   1
   8  -8   0 727.956 77.1325   1
   8   8   2-6.12845 24.6583   1
  -6   8  -8-10.7669 21.4838   1
   0  -9   1 20306.2 408.270   1
   1  -9   0 20285.2 404.468   1
   0  -9  -1 19903.4 406.397   1
  -1  -9   0 20605.2 415.249   1
   2  -9   1 1717.75 117.597   1
  -2  -9  -1 1657.48 122.257   1
  -1  -9  -2 1661.70 123.353   1
   1  -9   2 1770.68 120.419   1
   9   1   2 1357.34 68.3502   1
   2  -9  -1 1383.76 107.311   1
   1  -9  -2 1516.67 114.694   1
   9   2   1 1738.87 91.7449   1
  -2  -9   1 1606.13 121.706   1
   2  -9   3 841.891 83.2429   1
  -2  -9  -3 959.258 96.7711   1
   3  -9   2 851.805 82.4452   1
  -3  -9  -2 946.959 94.3687   1
   3  -9   0 1428.55 111.925   1
   9   0   3 1309.71 50.9286   1
  -3  -9   0 1339.47 113.656   1
   0  -9  -3 1271.23 108.126   1
   9   2   3 971.787 61.5840   1
   9   3   2 1018.65 72.4897   1
   2  -9  -3 1136.59 102.821   1
   3  -9  -2 1057.91 97.7699   1
  -4  -9  -3 2858.83 165.141   1
   9  -4   3 3081.15 70.6633   1
  -3  -9  -4 3028.17 172.494   1
   1   9  -4 10006.2 300.673   1
  -1  -9  -4 9504.62 297.898   1
   4  -9   1 9742.87 269.867   1
  -4  -9  -1 9835.42 303.343   1
   4  -9  -1 10664.2 296.248   1
   9   4   1 10398.2 253.277   1
   1  -9  -4 10017.7 307.126   1
   9   4   3 3400.55 136.713   1
   4   9  -5 1843.08 141.227   1
  -5  -9  -4 1620.21 127.325   1
  -4  -9  -5 1545.17 125.782   1
   5   9  -4 1810.32 140.460   1
   5  -9   2 2090.42 123.001   1
  -2  -9  -5 3033.08 172.401   1
  -5  -9  -2 2998.65 172.093   1
   9  -5   2 3332.83 107.178   1
   5   9  -2 3134.67 177.155   1
   2   9  -5 3383.49 181.441   1
   5   9   0 1008.15 101.738   1
   0   9  -5 898.675 92.0552   1
   5  -9   0 871.000 83.9988   1
   0  -9  -5 987.764 101.854   1
   9   5   0 933.356 84.5924   1
   9   5   2 2962.85 142.230   1
   5   9   2 2877.16 166.590   1
  -9  -5  -6 2669.51 132.247   1
  -5  -9  -6 2732.82 170.585   1
  -6  -9  -5 2693.37 168.636   1
  -6  -5  -9 2856.58 149.430   1
   6  -9   3 3070.69 145.288   1
  -6  -9  -3 2792.47 167.574   1
   9  -6   3 3188.76 104.692   1
  -3  -9  -6 3098.29 177.686   1
   3   9  -6 2973.06 180.002   1
   6   9  -3 3283.66 189.457   1
   9   6  -1 5792.02 227.735   1
   1   9  -6 5780.61 237.200   1
   6  -9   1 6074.52 216.684   1
  -1  -9  -6 5898.20 246.773   1
   6   9  -1 6214.59 252.952   1
  -1   9  -6 5275.17 220.271   1
   6   9   1 5677.21 236.618   1
   6  -9  -1 5359.92 211.852   1
   9   6   1 5482.78 208.002   1
   9   6   3 3157.30 155.212   1
  -5   6  -9 2554.74 121.800   1
  -6   5  -9 2830.44 112.730   1
  -7  -9  -6 600.318 83.8602   1
  -9  -6  -7 623.724 71.9884   1
  -6  -9  -7 693.833 85.1632   1
  -6  -7  -9 560.287 73.3358   1
  -7  -6  -9 644.290 74.9528   1
  -9  -7  -6 547.011 73.3266   1
  -4  -9  -7 886.364 99.0973   1
  -9  -4  -7 1028.69 77.3366   1
  -7  -4  -9 957.859 81.6180   1
  -7  -9  -4 1063.96 108.786   1
   2   9  -7 3502.60 196.153   1
   9   7  -2 3781.37 195.649   1
   7  -9   2 4581.46 182.733   1
   9  -7   2 3630.29 134.888   1
  -2  -9  -7 3445.53 193.741   1
   7   9  -2 3591.75 198.369   1
   7   9   0 150.428 47.9412   1
   7  -9   0 151.528 43.1333   1
   9   7   0 143.887 42.0605   1
   0   9  -7 87.8201 36.0856   1
  -2   9  -7 3580.66 178.358   1
   7   9   2 4048.00 202.016   1
   9   7   2 3839.88 182.067   1
  -4   7  -9 1035.50 86.8754   1
  -7   4  -9 1170.32 60.1777   1
  -6   9  -7 560.860 64.2173   1
  -6   7  -9 613.665 61.0740   1
  -7   6  -9 623.205 52.4865   1
  -9  -8  -7 226.318 54.8728   1
  -7  -8  -9 196.201 50.7672   1
  -8  -7  -9 267.789 54.9000   1
  -9  -7  -8 234.315 50.9121   1
  -8  -9  -7 241.409 59.1165   1
  -7  -9  -8 248.191 57.7562   1
  -8  -9  -5 2454.55 161.990   1
  -8  -5  -9 2551.40 136.880   1
  -9  -8  -5 2415.40 154.950   1
  -5  -9  -8 2537.48 166.834   1
  -5  -8  -9 2988.31 178.576   1
  -9  -5  -8 2664.41 137.792   1
  -9  -3  -8 3813.67 136.874   1
   9  -8   3 3702.95 141.366   1
   9   8  -3 3854.19 211.711   1
   8  -9   3 3768.36 156.803   1
  -8  -3  -9 3567.83 139.496   1
  -3  -9  -8 3499.16 198.891   1
  -8  -1  -9 4817.15 132.717   1
   1   9  -8 4711.83 227.501   1
   8  -9   1 4765.23 186.296   1
  -9  -1  -8 4690.84 107.730   1
   9  -8   1 4686.90 175.348   1
   8   9  -1 4623.03 225.253   1
   9   8  -1 4668.13 224.633   1
   9   8   1 5134.18 227.878   1
   8   9   1 5124.24 232.303   1
  -1   9  -8 4573.94 212.934   1
  -8   1  -9 4872.79 97.7916   1
  -3   9  -8 3648.66 181.626   1
   9   8   3 3736.20 189.804   1
   8   9   3 4014.02 205.604   1
  -8   5  -9 2576.38 74.6025   1
  -7   8  -9 394.413 50.6008   1
  -7   9  -8 280.676 44.7557   1
  -8  -9  -9-33.8535 35.4807   1
  -9  -8  -9 13.0042 36.8495   1
  -9  -9  -8 38.2120 34.9052   1
  -6  -9  -9 1226.57 121.407   1
  -9  -6  -9 1253.48 103.393   1
  -9  -9  -6 1214.94 118.562   1
  -4  -9  -9-11.0949 39.3628   1
  -9  -4  -9-4.62843 24.6783   1
   9  -9   4 21.4433 22.7565   1
  -9  -2  -9 286.383 37.6952   1
   9  -9   2 380.652 55.9178   1
  -9   0  -9 28.2192 11.7853   1
   0   9  -9-23.1731 25.9649   1
   9   9   0-40.5004 38.6104   1
   9  -9   0-7.03165 27.1879   1
   9   9   2 320.043 63.5619   1
  -2   9  -9 269.936 57.0954   1
  -4   9  -9 0.15210 25.1751   1
   0 -10   0 86.5406 41.8989   1
  -1 -10  -1 6806.42 256.102   1
   1 -10   1 7006.60 252.178   1
  -1 -10   1 6566.90 250.660   1
   1 -10  -1 6704.53 249.193   1
  -1  10  -1 7229.91 255.915   1
  -2 -10  -2-24.0146 36.1586   1
   2 -10   2-10.8502 29.9640   1
  -2 -10   0 121.974 35.0361   1
   0  10  -2 139.778 42.3818   1
   0 -10  -2 213.591 51.6376   1
   2 -10   0 192.769 48.7908   1
  10   0   2 166.121 26.0942   1
   0 -10   2 194.345 49.4838   1
  10   2   2 22.0120 19.7720   1
   2 -10  -2 52.2363 35.3902   1
  -2  10  -2-31.0679 26.9756   1
   3  10  -3 4125.79 208.603   1
  -3 -10  -3 4184.52 208.233   1
   3 -10   3 4375.51 193.049   1
  -3 -10  -1 447.845 71.8760   1
  10  -1   3 513.088 27.2798   1
   1  10  -3 542.700 77.4185   1
  -1 -10  -3 495.914 80.6834   1
   3 -10   1 408.888 62.8090   1
   1 -10  -3 535.490 73.3807   1
  10   1   3 581.839 43.6254   1
  10   3   1 596.271 61.1480   1
   3 -10  -1 563.022 75.5142   1
  -1  10  -3 518.813 70.4037   1
  10   3   3 3965.20 138.944   1
   3 -10  -3 3866.54 197.891   1
  -3  10  -3 2902.35 160.738   1
   4  10  -4-29.9134 31.2794   1
  -4 -10  -4 3.53532 28.3740   1
   4  10  -2 2597.31 166.802   1
   4 -10   2 2521.42 147.072   1
   2  10  -4 2493.37 160.459   1
  -2 -10  -4 2683.95 167.953   1
  -4 -10  -2 2709.01 166.386   1
  10   4   0 1457.36 103.708   1
  -4 -10   0 1425.88 124.388   1
   0  10  -4 1187.21 108.070   1
   4 -10   0 1219.25 107.027   1
   4  10   0 1357.53 121.782   1
   0 -10  -4 1350.06 121.528   1
  -2  10  -4 2315.56 144.237   1
   4 -10  -2 2195.09 146.363   1
  10   4   2 2334.80 121.533   1
   2 -10  -4 2166.78 152.951   1
  10   4   4 23.3119 24.6754   1
  -5 -10  -5 4202.77 215.568   1
   5 -10   3 217.842 51.8569   1
  -5 -10  -3 259.345 63.1198   1
   3  10  -5 240.663 58.4202   1
  -3 -10  -5 155.762 45.3032   1
   5  10  -3 206.456 52.2344   1
  10  -5   3 159.801 20.4686   1
   1  10  -5 3897.92 198.879   1
  10   5  -1 3809.39 180.966   1
   5 -10   1 3872.73 181.430   1
   5  10  -1 4103.78 209.640   1
  -5 -10  -1 3881.66 203.207   1
  -1 -10  -5 3658.18 199.867   1
  10   5   1 3794.73 168.773   1
  -1  10  -5 3717.36 187.505   1
   5  10   1 3745.24 200.885   1
   1 -10  -5 3335.35 191.548   1
   5 -10  -1 3585.36 181.019   1
  -3  10  -5 133.104 40.9097   1
  10   5   3 130.248 32.7001   1
  -6 -10  -6 43.7343 42.3753   1
  -6  -6 -10-22.8280 28.6877   1
  -6 -10  -4 1677.34 138.172   1
  -4 -10  -6 1741.18 141.325   1
  10   6  -2 393.255 65.7705   1
  -2 -10  -6 423.735 71.2551   1
   6 -10   2 452.075 63.7165   1
   2  10  -6 487.297 78.5471   1
   6  10  -2 321.519 63.5158   1
  -6 -10  -2 425.677 70.7701   1
  10  -6   2 441.710 43.7676   1
  10   6   0 1215.44 105.609   1
   6 -10   0 1209.94 102.615   1
   6  10   0 1337.61 123.119   1
   0  10  -6 1277.58 116.341   1
   0 -10  -6 1304.33 124.703   1
   6  10   2 409.673 74.7773   1
   6 -10  -2 245.457 53.9509   1
  -2  10  -6 436.576 67.9330   1
  10   6   2 396.071 59.3778   1
  -4  10  -6 1292.53 105.977   1
  -6   6 -10 0.09996 16.7467   1
  -7  -7 -10 5166.42 226.554   1
 -10  -7  -7 5318.29 218.475   1
  -7 -10  -7 5368.59 255.700   1
  -5 -10  -7 656.813 91.3717   1
  -7 -10  -5 566.893 82.5219   1
  -7  -5 -10 644.804 76.5987   1
  -3 -10  -7 6163.93 268.868   1
  10  -7   3 6398.55 163.101   1
   7 -10   3 6614.76 224.943   1
  10   7  -3 6691.11 273.266   1
  -7 -10  -3 5880.19 257.663   1
   1  10  -7 4936.10 235.138   1
   7 -10   1 4640.60 196.998   1
  10  -7   1 4621.84 165.018   1
  -1 -10  -7 4676.83 236.140   1
  10   7  -1 4708.38 217.649   1
  10   7   1 5095.88 219.045   1
   7  10   1 4826.71 234.045   1
   7 -10  -1 4737.32 211.471   1
  -1  10  -7 4917.28 225.861   1
  -3  10  -7 6152.88 238.643   1
  10   7   3 6060.02 231.419   1
  -7   5 -10 751.815 58.3808   1
  -5   7 -10 624.327 69.0290   1
  -7   7 -10 5793.40 177.168   1
  -8  -8 -10 24.6808 36.3226   1
 -10  -8  -8-40.7492 39.5945   1
  -8 -10  -8 22.0722 46.0338   1
  -8 -10  -6 6957.05 285.929   1
  -6 -10  -8 7403.13 302.016   1
  -8  -6 -10 7170.80 251.783   1
  -6  -8 -10 7950.14 296.825   1
 -10  -6  -8 7231.04 241.405   1
  -4 -10  -8 482.454 81.8107   1
 -10  -4  -8 632.718 62.6822   1
   8 -10   4 153.327 41.8845   1
  -8  -4 -10 510.336 63.3694   1
  -8 -10  -4 589.688 88.5477   1
  -8  -2 -10 3092.26 127.095   1
  10  -8   2 3298.55 138.230   1
   8 -10   2 3274.94 162.253   1
  -2 -10  -8 3198.13 200.428   1
   0  10  -8 441.032 74.7301   1
  10   8   0 481.562 75.8200   1
   8 -10   0 496.809 70.0833   1
  -2  10  -8 3204.96 182.642   1
  10   8   2 3236.20 179.927   1
  -8   4 -10 546.830 37.5888   1
  -4  10  -8 516.709 69.7076   1
  -6   8 -10 6623.48 215.562   1
  -8   6 -10 6927.38 155.165   1
  -8   8 -10-18.4346 19.5646   1
  -9 -10  -9 956.260 117.979   1
 -10  -9  -9 1147.26 116.537   1
  -9  -9 -10 911.273 108.990   1
 -10  -7  -9 772.955 88.0321   1
  -7  -9 -10 686.496 94.6439   1
  -9  -7 -10 778.029 91.2891   1
 -10  -9  -7 651.337 86.5656   1
  -9 -10  -7 667.908 97.9649   1
  -7 -10  -9 799.755 106.008   1
 -10  -5  -9 2048.93 121.270   1
  -9  -5 -10 2076.63 127.600   1
  -5 -10  -9 2030.78 159.216   1
  -9 -10  -5 2305.20 168.848   1
  -5  -9 -10 2251.35 165.726   1
   9 -10   3 2583.53 139.514   1
  10  -9   3 2203.59 116.435   1
  -9  -3 -10 2277.96 114.740   1
 -10  -3  -9 2363.84 107.890   1
  -3 -10  -9 2072.07 166.602   1
   9 -10   1 2704.27 149.917   1
  -9  -1 -10 2767.91 100.751   1
  10  -9   1 2708.09 141.860   1
  -1  10  -9 2789.38 178.089   1
  10   9   1 2620.19 174.061   1
   9 -10  -1 2486.53 155.703   1
  -9   1 -10 2361.14 54.3459   1
  -1   9 -10 2677.88 173.413   1
  -3  10  -9 2397.90 156.733   1
  10   9   3 2230.51 158.611   1
  -3   9 -10 2454.48 154.873   1
  -5   9 -10 1743.88 122.961   1
  -5  10  -9 2316.51 145.508   1
  -7   9 -10 705.500 71.7195   1
 -10 -10 -10 5.16847 30.8806   1
 -10 -10  -8 5574.77 266.995   1
 -10  -8 -10 6003.96 258.800   1
  -8 -10 -10 5548.95 273.304   1
 -10  -6 -10 0.15269 22.1192   1
  -6 -10 -10-4.38113 34.0310   1
 -10  -4 -10 1090.69 85.6151   1
  -4 -10 -10 1091.66 122.528   1
 -10  -2 -10-13.2349 15.0401   1
  10 -10   2-28.6198 28.8372   1
  10 -10   0 1629.81 124.211   1
  -2  10 -10-40.8233 35.3242   1
  -4  10 -10 1224.62 113.001   1
  -6  10 -10 8.65244 19.1792   1
  -1 -11   0 3038.89 183.069   1
   0 -11  -1 3292.05 185.620   1
   0 -11   1 3143.07 183.350   1
   0  11  -1 3067.87 179.234   1
   1  11   0 3385.67 190.782   1
   1 -11   0 3388.28 185.545   1
   1 -11   2 12666.6 355.499   1
  -2 -11  -1 13770.0 386.090   1
  -1 -11  -2 13747.2 384.186   1
   2  11  -1 13536.9 383.448   1
   1  11  -2 13593.6 379.623   1
   2 -11   1 13214.7 364.771   1
  11   1   2 13937.8 241.473   1
  -2 -11   1 13497.4 378.906   1
   2 -11  -1 13367.0 371.847   1
   1 -11  -2 13195.1 374.889   1
  -1  11  -2 13770.7 374.059   1
  11   2   1 13822.9 277.649   1
   3  11  -2 836.180 101.144   1
  -3 -11  -2 786.540 97.0878   1
   2  11  -3 798.141 96.9435   1
  -2 -11  -3 540.052 81.0834   1
   3 -11   2 839.321 93.4496   1
  11   0   3 3084.20 88.0705   1
   3 -11   0 3059.59 175.527   1
  -3 -11   0 3003.39 183.040   1
   0 -11  -3 3016.53 182.580   1
   0  11  -3 3008.09 176.637   1
   3  11   0 3180.57 187.349   1
  -2  11  -3 682.837 84.0498   1
  11   3   2 680.134 65.2679   1
  11   2   3 519.530 49.2858   1
   3 -11  -2 820.304 94.9287   1
   2 -11  -3 711.326 93.2613   1
   4 -11   3 2585.15 155.721   1
  -3 -11  -4 2854.27 182.392   1
  -4 -11  -3 2410.09 169.760   1
  11  -4   3 2546.69 60.2695   1
  -4 -11  -1 2497.92 169.460   1
   1  11  -4 2373.95 162.299   1
  -1 -11  -4 2079.33 155.253   1
   4  11  -1 2147.31 157.799   1
   4 -11   1 2731.92 163.470   1
  11   4   1 2353.55 128.725   1
   4 -11  -1 2135.50 148.433   1
  -1  11  -4 2238.21 151.672   1
   1 -11  -4 2287.86 163.352   1
   4  11   1 2321.49 163.667   1
  -3  11  -4 2505.32 157.290   1
   4 -11  -3 2666.83 172.413   1
   3 -11  -4 2828.43 181.194   1
  11   3   4 2736.97 116.205   1
  11   4   3 2720.81 128.883   1
  -5 -11  -4 1210.89 124.460   1
  -4 -11  -5 1247.20 125.148   1
  -5 -11  -2 2773.68 182.025   1
  -2 -11  -5 2724.54 180.156   1
   5 -11   2 2895.35 164.407   1
  11   5   0 3683.07 177.030   1
   0  11  -5 3885.17 205.937   1
   5 -11   0 3669.35 189.911   1
   0 -11  -5 3505.74 204.350   1
  11   5   2 2885.63 147.688   1
  -2  11  -5 3070.69 177.229   1
   5 -11  -2 2930.27 178.137   1
   2 -11  -5 3018.75 190.632   1
  -4  11  -5 1114.40 104.945   1
  11   5   4 1016.43 85.9900   1
  -6 -11  -5 327.116 70.0229   1
  -5 -11  -6 330.461 72.7569   1
  11  -6   3 860.379 52.2487   1
   6 -11   3 802.041 85.4791   1
  -3 -11  -6 754.523 97.2102   1
  -6 -11  -3 727.292 98.5843   1
  11   6  -1 1970.46 140.023   1
  -1 -11  -6 1913.90 156.681   1
   6 -11   1 1843.03 133.878   1
  11   6   1 1545.98 118.154   1
  -1  11  -6 1663.17 134.379   1
   1 -11  -6 1682.56 152.674   1
   6 -11  -1 1594.15 129.287   1
  -3  11  -6 801.370 90.8700   1
  11   6   3 1018.98 92.6787   1
   6 -11  -3 901.097 104.971   1
  -5  11  -6 209.190 47.0523   1
  -6  -7 -11 403.174 68.1163   1
  -6 -11  -7 537.032 91.1095   1
  -7 -11  -6 474.373 84.5111   1
  -7  -6 -11 471.384 71.5601   1
  -7 -11  -4 1117.30 124.164   1
  -4 -11  -7 1008.46 118.688   1
  11   7  -2 1864.12 146.514   1
  11  -7   2 1917.34 97.2952   1
  -2 -11  -7 1756.77 150.588   1
   7 -11   2 1932.20 134.926   1
  11   7   0 1895.05 141.188   1
   0  11  -7 1965.45 153.995   1
   0 -11  -7 1866.25 158.760   1
   7 -11   0 1947.86 140.256   1
  -2  11  -7 1940.58 144.626   1
  11   7   2 2007.31 138.584   1
   7 -11  -2 2102.08 155.167   1
  -4  11  -7 1245.82 112.863   1
  -6   7 -11 623.104 66.8179   1
  -7   6 -11 461.878 52.2278   1
  -6  11  -7 474.647 67.5691   1
  -8 -11  -7 32.3478 38.1856   1
  -8  -7 -11-18.5376 32.9622   1
  -7 -11  -8 15.1784 35.3052   1
  -7  -8 -11 48.0674 43.7486   1
  -8 -11  -5 286.413 71.4507   1
  -5  -8 -11 282.367 64.1708   1
  -5 -11  -8 169.974 53.0149   1
  -8  -5 -11 277.230 52.7938   1
   8 -11   3 1465.32 112.668   1
  11  -8   3 1669.16 93.0119   1
  -3 -11  -8 1505.46 144.981   1
  -8  -3 -11 1766.57 110.430   1
   8 -11   1 2959.73 166.444   1
  11  -8   1 2890.92 139.012   1
  -1 -11  -8 2627.21 189.905   1
  -1  11  -8 3083.50 191.319   1
  11   8   1 2929.33 177.185   1
   8 -11  -1 2943.83 176.351   1
  -3  11  -8 1323.29 119.540   1
  11   8   3 1408.54 122.298   1
  -8   5 -11 229.987 30.7793   1
  -5  11  -8 251.766 53.8510   1
  -8   7 -11 38.6325 17.2634   1
  -7   8 -11 33.6701 22.7515   1
  -9 -11  -8 370.581 75.4053   1
  -8 -11  -9 357.195 76.6594   1
  -8  -9 -11 400.162 79.1415   1
  -9  -8 -11 389.227 71.8782   1
 -11  -9  -8 461.057 77.8930   1
 -11  -8  -9 438.419 73.9529   1
  -9  -6 -11 152.046 41.2272   1
  -6 -11  -9 234.352 64.0890   1
  -6  -9 -11 215.978 59.2268   1
  -9 -11  -6 178.909 61.3545   1
 -11  -6  -9 234.510 51.1676   1
  -9  -4 -11 76.2860 31.0720   1
  -4 -11  -9 16.4643 32.7326   1
   9 -11   2 30.8536 33.1253   1
  -2 -11  -9-16.5035 42.8339   1
  -9  -2 -11 56.7545 23.8939   1
  11  -9   2 55.4478 33.3424   1
   9 -11   0 176.487 46.1469   1
  11  -9   0 300.743 55.7129   1
  -9   0 -11 182.589 28.3309   1
   9 -11  -2-24.3568 45.4979   1
  -9   2 -11 11.3493 6.67202   1
  -2   9 -11-24.6423 25.7326   1
  -4   9 -11 6.68141 25.0267   1
  -4  11  -9 40.4247 32.3751   1
  -6  11  -9 243.451 53.4657   1
 -10 -11  -9 94.8280 44.5192   1
 -10  -9 -11 235.085 57.1016   1
 -11  -9 -10 10.0313 29.6542   1
  -9 -11 -10 34.2004 31.4413   1
  -9 -10 -11 52.5227 33.7542   1
 -11 -10  -9 143.371 47.3446   1
  -7 -10 -11 530.282 90.6615   1
 -10  -7 -11 514.307 75.2826   1
  -7 -11 -10 649.906 101.560   1
 -10 -11  -7 492.749 89.3167   1
 -11  -7 -10 573.444 76.8277   1
 -11  -5 -10 721.101 75.4707   1
 -10  -5 -11 733.441 79.3430   1
  -5 -10 -11 771.130 107.658   1
  -5 -11 -10 587.782 95.2643   1
  10 -11   3 1161.38 97.9001   1
 -10  -3 -11 1136.61 80.6673   1
  -3 -11 -10 1226.45 136.154   1
  11 -10   3 1594.68 109.320   1
 -10  -1 -11 1250.83 64.3896   1
  10 -11   1 1306.71 111.291   1
  11 -10   1 1241.49 100.633   1
  10 -11  -1 1327.95 122.320   1
  11 -10  -1 1193.93 110.881   1
  -3  10 -11 1187.56 115.615   1
  -3  11 -10 969.357 108.210   1
  -5  11 -10 442.888 70.1705   1
  -5  10 -11 525.856 75.0540   1
 -11 -10 -11 95.3374 45.0667   1
 -10 -11 -11 193.562 61.9775   1
 -11 -11 -10 211.014 62.3894   1
 -11  -8 -11-24.3235 26.6926   1
  -8 -11 -11 28.2798 34.3482   1
 -11 -11  -8-18.6480 36.8029   1
  -6 -11 -11 1035.35 127.331   1
 -11  -6 -11 1130.01 101.343   1
  -4 -11 -11 53.4544 45.2614   1
 -11  -4 -11 18.0027 17.2427   1
  11 -11   2 1115.56 99.9522   1
  11 -11   0 38.9430 41.8510   1
  11 -11  -2 1130.88 116.279   1
  -4  11 -11 12.1066 29.9079   1
   0 -12   0 3994.20 221.065   1
   1 -12   1 32.8709 39.7555   1
  -1 -12  -1 12.9320 36.8395   1
   1 -12  -1-9.83091 37.6019   1
  -1 -12   1-14.1049 35.3543   1
  -2 -12  -2 170.279 52.6472   1
   2 -12   2 142.894 48.5207   1
  -2 -12   0 1026.82 116.428   1
   2 -12   0 987.063 106.803   1
   0  12  -2 975.618 106.314   1
   0 -12  -2 958.704 110.729   1
  12   0   2 946.667 61.9094   1
   0 -12   2 1007.20 109.710   1
   2 -12  -2 375.112 76.5151   1
  12   2   2 317.244 44.3965   1
  -3 -12  -3-15.9984 41.4244   1
   3 -12   3 20.9829 34.6221   1
  -3 -12  -1 933.713 112.281   1
   3 -12   1 674.771 89.0949   1
  12  -1   3 726.381 38.5188   1
  -1 -12  -3 879.547 107.593   1
  12   3   1 750.730 72.7652   1
   1 -12  -3 689.565 94.8407   1
  12   1   3 639.457 49.5716   1
  -1  12  -3 593.794 85.9111   1
   3 -12  -1 586.506 88.6379   1
  12   3   3 24.7111 21.7568   1
   3 -12  -3-33.0703 43.3935   1
  -4 -12  -4 843.242 109.628   1
   4 -12   2 322.300 67.2776   1
  -4 -12  -2 271.176 63.2553   1
  -2 -12  -4 386.524 77.0046   1
   0 -12  -4 58.8306 44.6867   1
   4 -12   0 17.4493 38.2007   1
  12   4   0 30.4102 25.8593   1
   2 -12  -4 346.739 71.9123   1
   4 -12  -2 411.820 76.3774   1
  12   4   2 405.241 55.4049   1
  -2  12  -4 387.802 66.4066   1
  12   4   4 888.063 74.8883   1
   4 -12  -4 1046.58 118.027   1
  -5 -12  -5 9.86027 38.2056   1
  12  -5   3 924.157 43.1239   1
  -5 -12  -3 1102.20 122.772   1
   5 -12   3 966.734 103.975   1
  -3 -12  -5 817.448 109.518   1
   5 -12   1 1159.73 115.543   1
  -1 -12  -5 1105.86 123.924   1
  12   5  -1 1070.66 101.825   1
  -5 -12  -1 999.682 114.256   1
   1 -12  -5 819.144 111.925   1
   5 -12  -1 787.831 92.9924   1
  -1  12  -5 902.022 103.475   1
  12   5   1 851.670 87.3824   1
   3 -12  -5 940.763 116.514   1
   5 -12  -3 916.024 107.322   1
  12   5   3 958.925 86.4090   1
  -3  12  -5 878.123 101.290   1
   5 -12  -5-30.8772 32.8185   1
  -6 -12  -6 1861.73 162.991   1
  -6 -12  -4-2.80730 44.5498   1
  -4 -12  -6 45.1700 40.7692   1
   6 -12   2 616.132 82.0824   1
  -2 -12  -6 489.071 85.8729   1
  12  -6   2 463.776 47.3780   1
  -6 -12  -2 633.985 95.1010   1
  12   6  -2 549.856 78.9088   1
   6 -12   0 569.020 85.4933   1
  12   6   0 556.673 78.7333   1
   0 -12  -6 416.831 79.8185   1
  12   6   2 563.574 73.6920   1
  -2  12  -6 700.759 92.6582   1
   2 -12  -6 631.419 94.7987   1
   6 -12  -2 459.432 80.5987   1
  12   6   4 85.5082 26.0633   1
   6 -12  -4 59.9760 40.1060   1
  -4  12  -6 131.643 46.0326   1
  -7 -12  -7-79.6963 58.1810   1
  -7  -7 -12-16.5381 35.9386   1
  -7 -12  -5 2697.51 192.889   1
  -5 -12  -7 3017.05 206.081   1
  -7 -12  -3 1288.76 136.855   1
  12  -7   3 1306.84 71.8768   1
  -3 -12  -7 1183.14 130.172   1
   7 -12   3 1054.58 105.442   1
  12   7  -1 3075.48 187.290   1
   7 -12   1 3297.58 188.354   1
  -1 -12  -7 3254.65 216.816   1
  12   7   1 3340.94 185.962   1
   7 -12  -1 2847.38 181.419   1
   1 -12  -7 2894.07 204.204   1
   7 -12  -3 999.632 116.736   1
  -3  12  -7 939.994 104.251   1
  12   7   3 959.423 95.8087   1
  -5  12  -7 2378.41 159.032   1
  -7   7 -12-9.43317 19.4383   1
  -8  -8 -12 8959.46 327.058   1
  -8 -12  -8 8388.05 354.997   1
  -8  -6 -12 62.1101 40.0154   1
  -6  -8 -12 29.0352 33.0157   1
  -6 -12  -8-7.96783 36.8122   1
  -8 -12  -6 37.3552 44.9824   1
  -4 -12  -8 1458.93 149.209   1
  -8  -4 -12 1273.81 105.184   1
  -8 -12  -4 1307.86 139.456   1
  -2 -12  -8 285.877 69.3039   1
   8 -12   2 194.015 51.4432   1
  12  -8   2 214.862 39.1993   1
   8 -12   0 73.1052 38.4111   1
   0 -12  -8 121.288 58.3802   1
   8 -12  -2 183.422 57.6721   1
  12   8   2 223.533 56.8665   1
  -4  12  -8 1661.41 137.173   1
  -4   8 -12 1467.87 121.584   1
  -6  12  -8 37.9256 30.4959   1
  -9 -12  -9-16.8367 38.3910   1
  -9  -9 -12-39.5985 35.3051   1
  -9 -12  -7 175.235 57.3571   1
  -9  -7 -12 184.549 49.9161   1
  -7 -12  -9 365.634 80.8864   1
  -7  -9 -12 143.436 48.8995   1
  -5 -12  -9 1105.62 128.137   1
  -9  -5 -12 992.619 93.9379   1
  -5  -9 -12 1176.16 133.504   1
  -9 -12  -5 1094.43 127.195   1
  -9  -3 -12 2035.53 119.821   1
  -3 -12  -9 2150.52 179.837   1
   9 -12   3 2049.47 139.824   1
  12  -9   3 1997.22 107.359   1
   9 -12   1 2934.10 175.169   1
  12  -9   1 3157.20 154.458   1
  -9  -1 -12 3246.69 126.747   1
  -1 -12  -9 3005.43 216.723   1
   9 -12  -1 3139.32 190.694   1
   9 -12  -3 1771.36 155.696   1
  -9   3 -12 1806.02 63.9284   1
  -3   9 -12 1858.35 148.024   1
  -5   9 -12 890.617 93.4072   1
  -5  12  -9 1090.38 113.115   1
 -10 -12 -10 3278.86 227.608   1
 -10 -10 -12 3344.34 219.347   1
  -8 -10 -12 405.056 82.2054   1
  -8 -12 -10 348.333 79.5336   1
 -10  -8 -12 477.395 76.6790   1
 -10 -12  -8 223.539 66.4393   1
 -10  -6 -12 2360.69 151.191   1
  -6 -12 -10 2516.65 200.469   1
  -6 -10 -12 2295.72 183.028   1
 -10  -4 -12 164.027 40.1658   1
  -4 -12 -10 156.401 61.8035   1
  -4 -10 -12 202.930 64.1133   1
  -2 -12 -10 863.525 121.967   1
  10 -12   2 1050.82 103.586   1
  12 -10   2 816.695 81.0937   1
 -10  -2 -12 902.581 68.3194   1
 -10   0 -12 483.542 35.8965   1
  10 -12   0 509.300 79.7908   1
  12 -10   0 256.244 52.7756   1
  10 -12  -2 874.979 105.120   1
  -4  10 -12 231.623 55.7204   1
 -11 -12 -11 91.8548 52.6304   1
 -11 -11 -12 58.8573 42.9634   1
 -12 -11 -11 36.9839 42.6180   1
 -11  -9 -12 59.3659 38.7425   1
  -9 -12 -11 150.593 58.7155   1
  -9 -11 -12-50.2329 51.0917   1
 -11 -12  -9 22.1517 37.2372   1
 -12  -9 -11 82.1087 45.2562   1
 -11  -7 -12 335.066 61.3071   1
  -7 -11 -12 460.124 89.4141   1
 -12  -7 -11 423.176 66.9082   1
  -7 -12 -11 409.620 91.6986   1
 -11  -5 -12 1003.42 90.8847   1
  -5 -11 -12 947.462 126.414   1
  -5 -12 -11 979.166 126.454   1
  11 -12   3 1771.26 131.421   1
  12 -11   3 1986.69 123.375   1
  -3 -12 -11 1753.76 173.068   1
  -3 -11 -12 1793.50 172.631   1
 -11  -3 -12 1951.51 102.285   1
  11 -12   1 1994.86 142.720   1
  12 -11   1 2162.82 143.467   1
  -1 -12 -11 2129.45 191.664   1
  11 -12  -1 1813.29 146.540   1
  12 -11  -1 2150.85 154.477   1
  11 -12  -3 1730.35 154.183   1
 -10 -12 -12-16.3396 39.5665   1
  -8 -12 -12 3633.55 249.138   1
  -6 -12 -12-8.83595 40.4870   1
  -4 -12 -12 1123.94 141.237   1
  -2 -12 -12 73.8479 52.7259   1
  12 -12   2 0.83653 23.8671   1
  12 -12   0 371.825 69.1665   1
  12 -12  -2 38.3492 34.0503   1
   0 -13   1 3214.15 201.036   1
  -1 -13   0 2852.82 194.771   1
   0 -13  -1 2905.61 197.064   1
   1 -13   0 2696.60 184.940   1
   2 -13   1 944.445 111.418   1
  -2 -13  -1 932.661 118.919   1
  -1 -13  -2 1054.02 119.503   1
   1 -13   2 809.618 103.226   1
  13   1   2 1062.13 74.0020   1
   2 -13  -1 942.878 114.401   1
   1 -13  -2 1029.36 118.594   1
  -2 -13   1 875.391 112.110   1
  13   2   1 946.491 79.0287   1
   3 -13   2 1385.38 131.581   1
  -3 -13  -2 1353.22 137.190   1
  13  -2   3 1295.94 41.3866   1
  -2 -13  -3 1387.97 142.838   1
  13   0   3 530.177 41.0940   1
   3 -13   0 518.206 86.2699   1
   0 -13  -3 618.126 99.1098   1
  13   3   0 593.207 70.4755   1
  -3 -13   0 606.412 93.7818   1
  13   3   2 1214.17 90.0243   1
   3 -13  -2 1232.78 127.826   1
  13   2   3 1210.01 77.1761   1
   2 -13  -3 1279.81 131.445   1
  -4 -13  -3 644.774 100.041   1
  -3 -13  -4 430.147 82.5902   1
   4 -13   3 568.547 85.5481   1
   4 -13   1 2280.56 164.717   1
  -1 -13  -4 2348.79 181.266   1
  -4 -13  -1 2181.22 176.129   1
  13   4   1 2426.81 140.252   1
   4 -13  -1 2571.07 180.540   1
   1 -13  -4 2386.90 182.522   1
  13   4   3 536.726 62.5881   1
   4 -13  -3 448.848 80.1348   1
  13   3   4 456.606 51.6869   1
   3 -13  -4 659.484 99.6044   1
  -5 -13  -4 417.784 83.3942   1
  -4 -13  -5 473.343 85.5576   1
   5 -13   2 669.946 92.6278   1
  -5 -13  -2 608.351 99.1992   1
  -2 -13  -5 404.447 82.0560   1
  13   5   0 59.8429 31.2506   1
   0 -13  -5-53.5904 43.0739   1
   5 -13   0 22.1186 38.0736   1
   2 -13  -5 566.616 94.2328   1
   5 -13  -2 540.041 82.6451   1
  13   5   2 562.416 70.4087   1
   5 -13  -4 312.681 69.5801   1
   4 -13  -5 380.725 81.9154   1
  13   5   4 380.766 55.5317   1
  -6 -13  -5 1182.97 136.314   1
  -5 -13  -6 1199.21 137.499   1
   6 -13   3 3015.29 185.260   1
  -6 -13  -3 2833.60 203.437   1
  13  -6   3 2796.16 81.9959   1
  -3 -13  -6 2799.14 206.706   1
  13   6  -1 2274.49 159.521   1
   6 -13   1 2393.98 170.953   1
  -1 -13  -6 2232.65 183.468   1
  13   6   1 2408.50 155.051   1
   6 -13  -1 2410.79 175.712   1
   1 -13  -6 2465.15 189.116   1
  13   6   3 2537.73 149.457   1
   6 -13  -3 2325.86 176.209   1
   3 -13  -6 2488.54 195.574   1
   6 -13  -5 933.683 121.160   1
   5 -13  -6 1165.19 138.091   1
  -7 -13  -6 590.390 100.762   1
  -6 -13  -7 634.878 106.045   1
  -7  -6 -13 475.938 78.5493   1
  -4 -13  -7 58.1488 42.5027   1
  -7 -13  -4 200.898 69.5204   1
   7 -13   2 1132.20 115.532   1
  -2 -13  -7 1194.62 139.842   1
  13  -7   2 1135.98 74.7425   1
   0 -13  -7 183.918 63.3069   1
  13   7   0 106.113 44.5317   1
   7 -13   0 161.457 52.3359   1
   2 -13  -7 1028.67 135.299   1
  13   7   2 992.851 104.551   1
   7 -13  -2 1180.73 127.777   1
   7 -13  -4 102.580 43.4079   1
   4 -13  -7 72.5742 46.2206   1
  -8 -13  -7 68.9247 41.8731   1
  -7 -13  -8 137.632 61.6054   1
  -7  -8 -13 120.815 54.4773   1
  -8  -7 -13 17.8088 28.0167   1
  -8 -13  -5 1801.38 169.495   1
  -5 -13  -8 1812.35 171.698   1
  -8  -5 -13 1669.12 127.550   1
  13  -8   3 708.737 56.4707   1
  -3 -13  -8 791.679 113.940   1
   8 -13   3 722.222 93.3862   1
  -1 -13  -8 1004.28 129.409   1
   8 -13   1 1025.49 111.989   1
  13  -8   1 998.637 83.3900   1
   1 -13  -8 1201.62 144.260   1
   8 -13  -1 1243.11 128.777   1
   8 -13  -3 893.425 116.240   1
  13   8   3 681.611 88.8230   1
   8 -13  -5 1271.06 141.407   1
  -5   8 -13 1530.70 124.318   1
  -9 -13  -8 1620.64 164.838   1
  -8 -13  -9 1590.18 164.876   1
  -9  -8 -13 1617.20 144.442   1
  -8  -9 -13 1923.25 164.697   1
  -6 -13  -9 159.042 58.5901   1
  -9 -13  -6 119.477 53.5867   1
  -9  -6 -13 161.551 47.4165   1
  -6  -9 -13 142.245 54.1292   1
  -4 -13  -9 756.795 117.807   1
  -9  -4 -13 820.822 85.3875   1
  -2 -13  -9 1100.12 138.306   1
   9 -13   2 1045.17 108.166   1
  13  -9   2 1111.86 86.3482   1
  -9  -2 -13 1150.89 87.8365   1
   0 -13  -9 138.819 62.9989   1
  13  -9   0 95.8976 33.4305   1
   9 -13   0 175.491 57.7364   1
   9 -13  -2 1094.23 122.451   1
   9 -13  -4 588.696 99.1148   1
  -4   9 -13 712.892 90.5019   1
 -10 -13  -9 59.0077 52.4402   1
  -9 -13 -10 37.2059 43.1678   1
 -10  -9 -13-15.3980 33.0841   1
  -9 -10 -13 17.3833 30.7140   1
  -7 -13 -10 909.227 124.889   1
  -7 -10 -13 961.271 123.833   1
 -10  -7 -13 609.487 83.2057   1
 -10 -13  -7 872.156 123.881   1
  -5 -13 -10 137.469 56.8948   1
  -5 -10 -13 241.795 71.9168   1
 -10  -5 -13 125.593 39.8152   1
  10 -13   3 2253.16 155.205   1
  13 -10   3 2257.66 120.582   1
 -10  -3 -13 2125.89 120.541   1
  -3 -13 -10 2297.39 199.910   1
  -1 -13 -10 901.598 125.475   1
  13 -10   1 928.660 89.9940   1
  10 -13   1 858.163 101.144   1
  13 -10  -1 749.087 87.1354   1
  10 -13  -1 875.337 111.706   1
   1 -13 -10 799.692 121.035   1
  10 -13  -3 2229.92 178.430   1
 -10 -13 -11 140.530 58.4909   1
 -10 -11 -13 99.1750 41.9588   1
 -11 -13 -10 64.5798 50.4422   1
  -8 -11 -13 620.609 104.764   1
  -8 -13 -11 851.601 131.329   1
  -6 -13 -11 673.494 114.478   1
  -6 -11 -13 479.808 95.5294   1
  -4 -11 -13 152.391 63.5355   1
  -4 -13 -11 268.489 84.9864   1
  11 -13   2-16.8657 39.5990   1
  13 -11   2 75.1415 36.6095   1
  -2 -13 -11-6.49306 42.5596   1
  11 -13   0 196.754 55.8030   1
   0 -13 -11 196.075 68.5467   1
  13 -11   0 249.926 52.9495   1
  11 -13  -2 65.2591 45.4630   1
  13 -11  -2 7.62374 33.4929   1
  11 -13  -4 57.8553 33.3094   1
 -11 -13 -12 497.328 98.7657   1
 -12 -13 -11 521.898 106.903   1
  -9 -13 -12 605.922 108.917   1
  -9 -12 -13 667.030 113.639   1
  -7 -12 -13 143.671 62.1903   1
  -7 -13 -12 49.5189 44.5494   1
  -5 -12 -13 563.278 105.315   1
  -5 -13 -12 864.932 127.571   1
  -3 -13 -12 601.863 113.615   1
  -3 -12 -13 705.007 115.088   1
  12 -13   3 667.451 84.0521   1
  13 -12   1 906.088 98.9672   1
  -1 -13 -12 770.560 125.110   1
  12 -13   1 918.085 106.015   1
  12 -13  -1 986.201 112.436   1
  13 -12  -1 987.001 110.476   1
  13 -12  -3 505.305 89.6022   1
  12 -13  -3 563.681 98.1085   1
 -10 -13 -13 401.036 90.8676   1
  -8 -13 -13 27.4330 50.3030   1
  -6 -13 -13 1859.04 188.369   1
  -4 -13 -13 7.01305 35.6298   1
  -2 -13 -13 2368.96 217.357   1
  13 -13   0 47.6574 39.7266   1
  13 -13  -2 2114.40 171.381   1
  13 -13  -4-40.0012 45.9858   1
   0 -14   0 1606.67 160.233   1
   1 -14   1 1551.15 149.826   1
  -1 -14  -1 1684.84 158.462   1
   1 -14  -1 1520.60 147.964   1
  14   1   1 1735.71 105.334   1
  -1 -14   1 1804.47 160.948   1
  -2 -14  -2 11.0145 36.6395   1
   2 -14   2-42.6751 39.1359   1
  14   0   2 2509.00 106.855   1
   2 -14   0 1999.46 167.103   1
   0 -14  -2 2272.38 180.949   1
  -2 -14   0 2472.73 193.480   1
  14   2   2-2.83827 16.2690   1
   2 -14  -2 14.7811 38.4558   1
  -3 -14  -3 623.165 104.582   1
   3 -14   1 784.942 104.823   1
  14  -1   3 915.951 45.5458   1
  -1 -14  -3 827.975 109.845   1
  -3 -14  -1 747.058 109.230   1
  14   3   1 792.926 78.8868   1
  14   1   3 826.860 59.5609   1
   3 -14  -1 947.696 116.538   1
   1 -14  -3 1094.12 130.828   1
   3 -14  -3 707.164 105.483   1
  14   3   3 815.787 72.5080   1
  -4 -14  -4-0.54502 33.7863   1
  -4 -14  -2 1898.77 170.747   1
   4 -14   2 2114.62 166.099   1
  -2 -14  -4 1884.31 171.940   1
  14   4   0 996.500 96.6116   1
   4 -14   0 822.851 109.069   1
   0 -14  -4 925.371 117.762   1
  14   4   2 2013.94 126.487   1
   4 -14  -2 2095.88 169.126   1
   2 -14  -4 2004.89 173.499   1
  14   4   4 10.1031 23.0463   1
   4 -14  -4-5.71162 38.1705   1
  -5 -14  -5 2863.53 216.173   1
  -5 -14  -3 206.540 70.2882   1
  -3 -14  -5 163.917 56.8152   1
   5 -14   3 90.2164 42.4931   1
   5 -14   1 833.557 108.221   1
  14   5  -1 786.215 94.8212   1
  -1 -14  -5 884.254 120.869   1
  14   5   1 848.979 91.4378   1
   1 -14  -5 732.693 108.144   1
   5 -14  -1 758.983 108.533   1
   5 -14  -3 85.5585 54.1571   1
  14   5   3 195.591 44.6022   1
   3 -14  -5 120.960 54.5278   1
   5 -14  -5 3701.42 242.100   1
  -6 -14  -6 81.3649 56.7632   1
  -6 -14  -4 1576.50 163.422   1
  -4 -14  -6 1564.00 164.266   1
  -2 -14  -6 248.646 69.8536   1
   6 -14   2 363.737 74.0801   1
  14  -6   2 268.779 35.4214   1
  14   6   0 2108.96 152.886   1
   6 -14   0 2141.60 169.393   1
   0 -14  -6 2402.06 198.528   1
   2 -14  -6 205.921 55.1787   1
  14   6   2 302.604 57.2226   1
   6 -14  -2 368.328 80.1778   1
   6 -14  -4 1674.34 162.228   1
   4 -14  -6 1815.19 173.842   1
  14   6   4 1320.36 109.113   1
   6 -14  -6-16.3378 34.1928   1
  -7 -14  -7 1910.41 183.831   1
  -7  -7 -14 1858.71 155.588   1
  -7 -14  -5 227.162 69.1360   1
  -5 -14  -7 225.008 64.2402   1
  14  -7   3 517.996 38.5432   1
   7 -14   3 562.198 84.5454   1
  -3 -14  -7 442.357 95.1966   1
   7 -14   1 710.865 98.5367   1
  -1 -14  -7 680.045 108.270   1
  14  -7   1 714.975 68.7249   1
   1 -14  -7 995.464 131.635   1
  14   7   1 882.685 100.900   1
   7 -14  -1 825.416 105.604   1
  14   7   3 676.629 85.6258   1
   7 -14  -3 821.514 111.809   1
   3 -14  -7 587.986 103.140   1
   7 -14  -5 226.895 67.8428   1
   5 -14  -7 245.007 69.5245   1
  -8 -14  -8 60.9871 52.8277   1
  -8  -8 -14 55.9478 51.6864   1
  -8 -14  -6 4232.10 269.639   1
  -6 -14  -8 4454.91 276.560   1
  -8  -6 -14 4453.43 225.297   1
  -6  -8 -14 4613.76 252.849   1
  -4 -14  -8 183.152 73.1895   1
   8 -14   2 1573.34 141.095   1
  14  -8   2 1822.63 99.5906   1
  -2 -14  -8 1644.88 170.565   1
   0 -14  -8 143.351 59.1295   1
   8 -14   0 144.351 52.8257   1
   8 -14  -2 1752.63 159.746   1
   2 -14  -8 1815.73 179.364   1
   8 -14  -4 122.679 54.5640   1
   4 -14  -8 73.0041 52.8674   1
   8 -14  -6 4634.63 282.810   1
  -9 -14  -9 435.315 93.7444   1
  -9  -9 -14 407.813 82.7130   1
  -7  -9 -14 439.765 88.5642   1
  -9  -7 -14 488.357 80.7979   1
  -7 -14  -9 496.383 103.157   1
  -9 -14  -7 387.328 92.7612   1
  -9  -5 -14 1204.73 111.821   1
  -5 -14  -9 1173.27 148.818   1
   9 -14   3 1843.49 149.040   1
  -3 -14  -9 1637.99 169.912   1
  -9  -3 -14 1587.95 115.208   1
   9 -14   1 1505.87 141.041   1
  14  -9   1 1573.41 108.438   1
  -1 -14  -9 1726.10 177.946   1
   9 -14  -1 1623.88 152.089   1
   1 -14  -9 1618.66 176.218   1
   9 -14  -3 1557.45 154.717   1
   3 -14  -9 1509.86 171.748   1
   9 -14  -5 876.696 120.669   1
 -10 -14 -10-6.26625 40.6303   1
 -10 -10 -14-4.29095 33.9637   1
  -8 -14 -10 2905.55 232.257   1
 -10  -8 -14 3116.54 200.474   1
  -8 -10 -14 2785.15 208.308   1
 -10 -14  -8 2726.19 223.993   1
  -6 -10 -14-16.2818 41.7106   1
  -6 -14 -10 54.5908 47.2365   1
 -10  -6 -14 47.3450 29.2650   1
  -4 -14 -10 1222.41 153.369   1
  10 -14   2 67.6460 37.7692   1
  -2 -14 -10 2.54910 46.6835   1
  14 -10   0 299.491 59.0171   1
  10 -14   0 283.667 66.2417   1
   0 -14 -10 518.076 103.077   1
   2 -14 -10 81.9581 56.7619   1
  10 -14  -2 23.3685 35.3978   1
  10 -14  -4 1077.24 135.022   1
 -11 -14 -11 86.1758 52.6090   1
  -9 -14 -11 355.848 91.4951   1
  -9 -11 -14 429.886 93.4032   1
 -11 -14  -9 648.918 114.853   1
  -7 -11 -14 330.807 77.4277   1
  -7 -14 -11 287.097 78.1278   1
  -5 -14 -11 2048.25 201.963   1
  -5 -11 -14 2022.25 188.162   1
  -3 -14 -11 49.3896 40.0925   1
  11 -14   3 7.75014 29.3090   1
  11 -14   1 1037.45 116.704   1
  14 -11   1 1008.29 97.6352   1
  -1 -14 -11 942.928 135.362   1
  11 -14  -1 1132.32 125.997   1
   1 -14 -11 1010.88 145.725   1
  14 -11  -1 862.137 100.459   1
  11 -14  -3-0.53815 37.4939   1
  11 -14  -5 2209.57 198.977   1
 -10 -14 -12 1571.63 178.756   1
  -8 -14 -12 24.2973 42.0800   1
  -8 -12 -14 24.2572 36.7295   1
  -6 -14 -12 1177.95 150.867   1
  -6 -12 -14 1069.47 143.972   1
  -4 -14 -12 55.1668 50.4051   1
  -4 -12 -14-28.4577 49.5369   1
  12 -14   2 646.026 90.2578   1
  -2 -14 -12 628.287 115.762   1
  14 -12   0 386.361 68.1424   1
  12 -14   0 504.502 84.9875   1
   0 -14 -12 284.672 91.2794   1
  12 -14  -2 668.495 103.011   1
  14 -12  -2 659.329 98.1150   1
  12 -14  -4 200.818 67.6277   1
  -9 -14 -13 883.459 136.093   1
  -9 -13 -14 1023.21 144.637   1
  -7 -13 -14 642.906 120.305   1
  -7 -14 -13 817.464 132.051   1
  -5 -14 -13 152.128 71.6321   1
  -5 -13 -14 113.959 68.2346   1
  -3 -14 -13 1314.07 166.161   1
  -3 -13 -14 1168.74 155.916   1
  -1 -14 -13 677.952 128.891   1
  -1 -13 -14 651.063 124.014   1
  13 -14  -1 651.335 98.6538   1
  14 -13  -1 423.397 78.9687   1
  13 -14  -3 1068.06 137.049   1
  14 -13  -3 1168.31 137.061   1
  13 -14  -5 4.71393 41.4505   1
  -8 -14 -14 1092.31 150.560   1
  -6 -14 -14 28.8703 44.5322   1
  -4 -14 -14 1646.62 191.159   1
  -2 -14 -14-12.4459 40.0071   1
   0 -14 -14 117.405 66.3335   1
  14 -14  -2-88.8799 49.9820   1
  14 -14  -4 1682.26 172.572   1
   1 -15   0 159.944 63.4604   1
   0 -15  -1 129.151 69.7494   1
   0 -15   1 125.520 50.6497   1
  -1 -15   0 97.8363 50.9177   1
  15  -1   2 4103.72 130.176   1
  -2 -15  -1 3931.40 250.741   1
   2 -15   1 3720.57 235.045   1
  -1 -15  -2 4008.90 251.331   1
  15   2   1 3675.35 163.587   1
  15   1   2 4058.10 150.631   1
   2 -15  -1 3914.01 244.145   1
   1 -15  -2 4230.69 257.565   1
  -3 -15  -2 584.496 104.113   1
  -2 -15  -3 454.647 90.7773   1
   3 -15   2 503.832 92.2679   1
   3 -15   0 601.977 103.944   1
  15   0   3 555.336 44.7820   1
   0 -15  -3 641.230 106.628   1
  15   3   0 474.204 68.7808   1
  15   2   3 540.482 54.8057   1
   3 -15  -2 529.629 94.1543   1
  15   3   2 637.127 70.0533   1
   2 -15  -3 747.576 113.409   1
  -4 -15  -3 2125.54 190.568   1
  -3 -15  -4 2120.45 189.742   1
   4 -15   1 257.892 69.0323   1
  -1 -15  -4 349.999 80.4422   1
  -4 -15  -1 290.247 79.4359   1
  15   4  -1 290.311 57.2082   1
  15   4   1 320.520 58.2412   1
   4 -15  -1 439.700 87.6645   1
   1 -15  -4 392.455 89.0882   1
   4 -15  -3 1948.01 176.844   1
   3 -15  -4 1865.66 173.243   1
  15   4   3 1907.45 120.503   1
  -5 -15  -4 232.681 73.1131   1
  -4 -15  -5 277.733 75.5229   1
   5 -15   2 3938.55 233.690   1
  -2 -15  -5 3535.68 247.105   1
  15  -5   2 3571.68 109.982   1
  -5 -15  -2 3633.04 251.091   1
  15   5   0-6.40427 26.4053   1
   5 -15   0 90.5558 48.1401   1
   0 -15  -5 33.8116 39.1889   1
   5 -15  -2 3245.21 223.705   1
  15   5   2 3354.56 174.741   1
   2 -15  -5 3093.96 228.484   1
   5 -15  -4 249.583 71.4613   1
   4 -15  -5 198.555 71.0559   1
  -6 -15  -5 1241.15 152.072   1
  -5 -15  -6 1138.92 147.160   1
  -3 -15  -6 409.010 88.4193   1
   6 -15   3 428.297 80.3023   1
  -6 -15  -3 310.732 89.4223   1
  -1 -15  -6 909.449 128.468   1
   6 -15   1 821.087 112.434   1
   1 -15  -6 758.419 114.669   1
   6 -15  -1 582.062 97.9930   1
  15   6   1 814.161 95.2409   1
  15   6   3 304.254 55.4552   1
   6 -15  -3 274.069 70.2804   1
   3 -15  -6 373.032 86.9945   1
   6 -15  -5 937.816 129.426   1
   5 -15  -6 993.515 135.539   1
  -7 -15  -6 624.065 110.047   1
  -6 -15  -7 805.162 125.006   1
  -4 -15  -7 1954.31 191.785   1
  -7 -15  -4 1994.70 189.116   1
   7 -15   2 3402.80 218.775   1
  -2 -15  -7 3398.21 243.635   1
   0 -15  -7 1078.43 141.390   1
   7 -15   0 1046.91 125.288   1
   7 -15  -2 3152.16 220.671   1
   2 -15  -7 3646.41 257.444   1
   7 -15  -4 1311.04 148.140   1
   4 -15  -7 1609.11 174.605   1
   6 -15  -7 790.518 127.502   1
   7 -15  -6 630.636 114.102   1
  -8 -15  -7 823.811 132.175   1
  -7  -8 -15 796.465 109.030   1
  -7 -15  -8 881.901 131.680   1
  -8  -7 -15 760.094 101.292   1
  -8  -5 -15 79.9730 36.5508   1
  -5 -15  -8 93.8230 47.5038   1
  -8 -15  -5 123.779 55.0250   1
  -3 -15  -8 2494.35 216.944   1
   8 -15   3 2365.29 178.842   1
   8 -15   1 1022.24 121.010   1
  -1 -15  -8 1066.30 141.176   1
  15  -8   1 910.442 79.9402   1
   8 -15  -1 924.361 119.083   1
   1 -15  -8 1041.82 140.400   1
   8 -15  -3 2710.90 208.628   1
   3 -15  -8 2582.16 219.169   1
   8 -15  -5 123.595 62.7829   1
   5 -15  -8 72.4044 46.7225   1
   8 -15  -7 903.407 136.226   1
   7 -15  -8 1162.23 153.982   1
  -8 -15  -9 1291.50 158.379   1
  -9  -8 -15 1043.77 120.967   1
  -8  -9 -15 1084.66 131.931   1
  -9 -15  -8 817.842 128.306   1
  -6 -15  -9 1627.53 179.659   1
  -9  -6 -15 1459.79 131.070   1
  -6  -9 -15 1539.38 159.263   1
  -9 -15  -6 1448.13 167.796   1
  -9  -4 -15 1142.25 107.037   1
  -4 -15  -9 1062.66 145.056   1
   9 -15   2 1230.53 131.128   1
  -2 -15  -9 1165.14 154.883   1
   9 -15   0 999.143 121.557   1
  15  -9   0 1036.07 96.9589   1
   0 -15  -9 1069.47 142.891   1
   9 -15  -2 690.902 105.603   1
   2 -15  -9 824.825 127.941   1
   9 -15  -4 915.996 128.962   1
   4 -15  -9 1032.51 144.309   1
   9 -15  -6 1592.35 173.131   1
   6 -15  -9 1408.36 172.531   1
  -9 -10 -15 809.118 119.359   1
  -9 -15 -10 850.375 134.145   1
 -10 -15  -9 777.535 127.209   1
  -7 -15 -10 295.551 87.6052   1
  -7 -10 -15 351.223 81.5634   1
  -5 -10 -15 537.832 99.7404   1
  -5 -15 -10 659.617 117.957   1
  -3 -15 -10 727.746 125.144   1
  10 -15   3 663.164 93.7236   1
  10 -15   1 499.089 88.6447   1
  -1 -15 -10 544.406 111.161   1
  15 -10  -1 564.492 81.0439   1
   1 -15 -10 852.636 139.335   1
  10 -15  -1 736.413 109.422   1
  10 -15  -3 666.618 108.790   1
   3 -15 -10 830.002 134.200   1
   5 -15 -10 742.191 126.770   1
  10 -15  -5 498.772 99.4971   1
  10 -15  -7 342.267 87.0983   1
 -10 -15 -11 171.434 73.9502   1
 -11 -15 -10 258.866 83.0229   1
  -8 -11 -15 453.874 93.9876   1
  -8 -15 -11 415.513 94.2761   1
  -6 -11 -15 335.935 87.0519   1
  -6 -15 -11 154.384 62.2635   1
  -4 -15 -11 606.494 118.673   1
  -4 -11 -15 448.855 97.3937   1
  11 -15   2 1955.04 160.610   1
  -2 -15 -11 1845.26 194.348   1
   0 -15 -11 124.172 58.1230   1
  11 -15   0 56.3508 38.9103   1
  11 -15  -2 2086.61 182.308   1
   2 -15 -11 2381.32 228.608   1
  15 -11  -2 1854.84 155.682   1
  11 -15  -4 549.435 102.517   1
   4 -15 -11 433.419 100.504   1
  11 -15  -6 88.6361 56.0995   1
  -9 -15 -12 112.952 50.5216   1
  -9 -12 -15 234.717 70.6126   1
  -7 -12 -15 513.057 97.7494   1
  -7 -15 -12 385.592 103.141   1
  -5 -15 -12 11.7285 42.6234   1
  -5 -12 -15 25.8860 41.7898   1
  -3 -15 -12 433.473 105.600   1
  -3 -12 -15 684.288 126.252   1
  12 -15   1 171.506 60.4500   1
  -1 -15 -12 135.664 53.6921   1
   1 -15 -12 214.875 91.6351   1
  12 -15  -1 81.7179 51.3647   1
   3 -15 -12 953.577 154.398   1
  15 -12  -3 761.113 111.077   1
  12 -15  -3 854.247 120.518   1
  12 -15  -5-10.9860 40.8327   1
  12 -15  -7 740.091 130.887   1
  -8 -15 -13 946.923 152.715   1
  -8 -13 -15 1157.43 157.589   1
  -6 -13 -15 142.997 72.8858   1
  -6 -15 -13 225.110 71.7024   1
  -4 -15 -13 1247.38 168.608   1
  -4 -13 -15 1582.30 182.553   1
  -2 -15 -13 158.504 74.1339   1
  -2 -13 -15 237.610 83.0322   1
   0 -15 -13 2505.83 239.417   1
  13 -15  -2 195.870 62.3843   1
   2 -15 -13 266.166 91.8537   1
  13 -15  -4 1180.38 150.162   1
  15 -13  -4 1205.04 141.139   1
  13 -15  -6 236.322 80.2627   1
  -7 -14 -15 831.456 134.139   1
  -5 -14 -15 1058.42 154.858   1
  -3 -14 -15 442.671 116.989   1
  14 -15  -3 478.583 93.3955   1
  14 -15  -5 853.904 131.227   1
  15 -14  -5 920.118 131.601   1
  14 -15  -7 517.696 107.528   1
   0 -16   0 14187.6 484.076   1
  -1 -16  -1 60.9356 51.4239   1
   1 -16   1 98.0122 65.3648   1
   1 -16  -1 13.7851 41.3487   1
  -2 -16  -2 9589.48 406.679   1
   2 -16   2 10031.9 397.882   1
   2 -16   0 358.831 88.6462   1
   0 -16  -2 27.1395 41.2614   1
  -2 -16   0 189.924 63.9754   1
  16   2   0 237.782 47.3814   1
   2 -16  -2 10075.5 410.081   1
  -3 -16  -3-11.7863 41.9312   1
   3 -16   1 28.8339 32.4253   1
  -1 -16  -3-76.1169 60.1482   1
  16   3  -1 85.3502 35.6768   1
  -3 -16  -1 98.0190 55.8798   1
   3 -16  -1 100.294 41.8785   1
   1 -16  -3 177.212 61.8063   1
   3 -16  -3 37.0428 53.4775   1
  -4 -16  -4 2033.91 195.291   1
  -2 -16  -4 141.271 61.3191   1
   4 -16   2 135.705 54.5737   1
  -4 -16  -2 119.748 62.1023   1
  16   4   0 6428.06 254.711   1
   0 -16  -4 6423.33 336.616   1
   4 -16  -2 271.366 77.0289   1
   2 -16  -4 182.390 65.3227   1
   4 -16  -4 2057.07 190.455   1
  -5 -16  -5 82.0223 60.1155   1
  -3 -16  -5 1571.73 175.282   1
  -5 -16  -3 1377.76 164.652   1
   5 -16   1 1243.67 137.739   1
  -1 -16  -5 1160.59 153.424   1
   5 -16  -1 795.753 117.316   1
   1 -16  -5 1228.52 149.632   1
   3 -16  -5 1498.79 165.403   1
   5 -16  -3 1847.74 182.612   1
   5 -16  -5 26.1726 37.0988   1
  -6 -16  -6 1204.90 156.107   1
  -4 -16  -6-23.6681 52.8953   1
  -6 -16  -4 23.1967 37.3205   1
   6 -16   2 2790.39 208.473   1
  -2 -16  -6 2920.10 232.823   1
   6 -16   0 328.098 80.6909   1
   0 -16  -6 290.427 78.4632   1
   6 -16  -2 2030.41 185.064   1
   2 -16  -6 2660.69 223.315   1
   6 -16  -4 23.9917 51.8288   1
   4 -16  -6 107.168 62.0361   1
   6 -16  -6 1092.24 149.637   1
  -7 -16  -7 21.9955 43.1474   1
  -7  -7 -16 38.8226 44.4246   1
  -5 -16  -7 1599.78 181.682   1
  -7 -16  -5 2004.47 200.530   1
  -3 -16  -7 448.711 101.357   1
  -1 -16  -7 725.418 123.723   1
   7 -16   1 690.668 108.465   1
   1 -16  -7 795.120 126.877   1
   7 -16  -1 669.451 106.012   1
   7 -16  -3 415.140 95.8400   1
   3 -16  -7 304.724 86.8674   1
   7 -16  -5 1855.63 186.593   1
   5 -16  -7 2080.20 202.798   1
   7 -16  -7 93.4551 59.9778   1
  -8 -16  -8 825.197 136.381   1
  -8  -8 -16 596.188 96.4573   1
  -6 -16  -8 71.4563 55.8244   1
  -8  -6 -16-26.0790 36.0612   1
  -8 -16  -6-16.4519 51.6985   1
  -4 -16  -8 153.834 50.5056   1
   8 -16   2 130.196 50.9165   1
  -2 -16  -8 306.013 89.2036   1
   8 -16   0 1441.70 152.633   1
   0 -16  -8 1264.95 159.117   1
   2 -16  -8 290.175 83.8151   1
   8 -16  -2 212.704 62.9237   1
   4 -16  -8 340.542 91.4267   1
   8 -16  -4 213.952 79.1010   1
   8 -16  -6 64.2292 48.1253   1
   6 -16  -8 61.5629 44.0305   1
   8 -16  -8 803.854 136.618   1
  -9 -16  -9 10.0398 47.7150   1
  -7 -16  -9 900.223 145.667   1
  -7  -9 -16 624.459 104.245   1
  -9 -16  -7 848.345 138.061   1
  -5 -16  -9 420.598 101.986   1
  -3 -16  -9 1023.38 146.653   1
   9 -16   3 1091.83 128.528   1
   9 -16   1 1498.84 151.940   1
  -1 -16  -9 1636.36 189.887   1
   9 -16  -1 1597.42 163.211   1
   1 -16  -9 1761.64 190.737   1
   9 -16  -3 1238.99 148.458   1
   3 -16  -9 1423.71 177.926   1
   9 -16  -5 287.417 82.4055   1
   5 -16  -9 432.032 110.157   1
   7 -16  -9 1089.50 156.359   1
   9 -16  -7 912.135 142.246   1
   9 -16  -9 58.2185 62.5361   1
 -10 -16 -10 1628.14 190.467   1
  -8 -16 -10 289.921 91.7448   1
  -8 -10 -16 327.827 83.5621   1
 -10 -16  -8 187.525 71.6347   1
  -6 -16 -10 756.520 132.126   1
  -6 -10 -16 566.390 104.613   1
  -4 -16 -10-114.011 66.8880   1
  10 -16   2 172.385 58.9566   1
  -2 -16 -10 35.1552 36.7549   1
  10 -16   0 19.1498 32.0899   1
   0 -16 -10 171.058 68.7655   1
   2 -16 -10 183.878 74.0077   1
  10 -16  -2 137.208 58.1244   1
   4 -16 -10 84.4601 67.3983   1
  10 -16  -4-67.2808 51.6668   1
   6 -16 -10 802.412 139.973   1
  10 -16  -6 566.443 109.794   1
  10 -16  -8 125.542 70.8760   1
  -9 -16 -11 30.0817 46.0352   1
  -7 -16 -11 791.897 137.224   1
  -7 -11 -16 585.383 108.180   1
  -5 -11 -16 726.076 119.931   1
  -5 -16 -11 601.809 124.451   1
  -3 -16 -11 1207.57 164.884   1
  11 -16   1 885.516 116.504   1
  -1 -16 -11 867.208 142.278   1
   1 -16 -11 1110.26 157.641   1
  11 -16  -1 803.663 120.889   1
   3 -16 -11 1437.16 186.801   1
  11 -16  -3 1301.31 157.601   1
  11 -16  -5 591.479 109.840   1
  11 -16  -7 728.194 130.450   1
  -8 -12 -16 249.720 75.1393   1
  -6 -16 -12 74.4661 57.0745   1
  -6 -12 -16 150.458 74.2033   1
  -4 -16 -12 520.680 114.089   1
  -4 -12 -16 546.332 114.736   1
  -2 -16 -12 380.231 105.796   1
   0 -16 -12 57.8369 53.2895   1
  12 -16   0 55.1676 46.7752   1
  12 -16  -2 284.817 76.4757   1
  12 -16  -4 549.000 105.903   1
  12 -16  -6 86.8653 57.9096   1
  -7 -13 -16-36.1779 54.9088   1
  -5 -13 -16 476.607 115.294   1
  -3 -13 -16 336.866 91.6790   1
  13 -16  -3 101.922 54.3931   1
  13 -16  -5 126.437 47.1954   1
  14 -16  -6 753.103 128.060   1
   0 -17  -1 182.127 60.9962   1
  -1 -17   0 7.33985 43.8400   1
   1 -17   0 130.005 69.7531   1
  -1 -17  -2 95.4619 50.9232   1
   2 -17   1 151.243 59.7941   1
  -2 -17  -1 27.1918 46.0668   1
   2 -17  -1-12.0711 35.2561   1
   1 -17  -2 82.2693 65.1145   1
  -3 -17  -2 1885.24 191.172   1
  -2 -17  -3 1925.46 192.757   1
   3 -17   0 505.158 101.081   1
   0 -17  -3 564.693 115.809   1
   3 -17  -2 1953.06 190.816   1
   2 -17  -3 1930.95 195.228   1
  -3 -17  -4 212.343 79.1300   1
  -4 -17  -3 200.312 73.6052   1
  -1 -17  -4 544.717 112.502   1
   4 -17   1 247.785 76.8547   1
   4 -17  -1 273.124 65.5478   1
   1 -17  -4 514.423 110.884   1
   4 -17  -3 348.868 81.9355   1
   3 -17  -4 173.683 65.2377   1
  -5 -17  -4 2024.13 203.511   1
  -4 -17  -5 1504.24 181.925   1
  -2 -17  -5 361.825 92.4676   1
   5 -17   2 347.370 86.6434   1
   5 -17   0 1557.01 169.381   1
   0 -17  -5 1512.22 178.049   1
   5 -17  -2 192.150 68.8646   1
   2 -17  -5 364.284 97.0205   1
   5 -17  -4 1541.57 171.076   1
   4 -17  -5 1870.08 192.848   1
  -5 -17  -6 590.964 122.531   1
  -6 -17  -5 433.122 101.528   1
  -3 -17  -6 543.697 114.481   1
   6 -17   1 339.357 88.4757   1
  -1 -17  -6 173.377 57.0925   1
   6 -17  -1 297.199 78.5158   1
   1 -17  -6 253.176 79.6586   1
   3 -17  -6 264.681 78.0537   1
   6 -17  -3 321.077 85.2450   1
   6 -17  -5 525.128 108.949   1
   5 -17  -6 551.193 112.199   1
  -6 -17  -7 308.583 93.0218   1
  -7 -17  -6 344.768 94.9435   1
  -4 -17  -7 620.735 117.710   1
  -2 -17  -7 2346.56 223.865   1
   7 -17   2 2170.53 190.259   1
   7 -17   0 371.717 84.6876   1
   0 -17  -7 392.790 99.4096   1
   7 -17  -2 2150.03 199.118   1
   2 -17  -7 2476.22 224.576   1
   7 -17  -4 682.381 122.588   1
   4 -17  -7 688.027 127.099   1
   7 -17  -6 412.627 98.9795   1
   6 -17  -7 435.596 102.642   1
  -7 -17  -8 1449.02 180.884   1
  -7  -8 -17 1039.24 135.252   1
  -8 -17  -7 1313.55 172.987   1
  -5 -17  -8 487.905 105.856   1
  -3 -17  -8 176.242 79.3431   1
   8 -17   1 39.6949 36.1866   1
  -1 -17  -8 167.680 75.0194   1
   1 -17  -8 82.0565 60.4800   1
   8 -17  -1 34.2616 47.5592   1
   3 -17  -8 133.760 61.3209   1
   8 -17  -3-22.5961 35.9293   1
   8 -17  -5 485.004 102.856   1
   5 -17  -8 549.543 113.284   1
   8 -17  -7 1253.52 165.838   1
   7 -17  -8 1248.99 170.170   1
  -8 -17  -9 1054.17 157.225   1
  -9 -17  -8 1383.25 177.266   1
  -6 -17  -9 1007.61 155.118   1
  -6  -9 -17 936.257 133.959   1
  -4 -17  -9 2056.82 214.361   1
  -2 -17  -9 1296.50 171.996   1
   9 -17   2 1235.65 144.262   1
   0 -17  -9 1416.90 180.144   1
   9 -17   0 1150.71 142.628   1
   2 -17  -9 1188.56 165.104   1
   9 -17  -2 781.187 122.741   1
   4 -17  -9 1739.31 201.226   1
   9 -17  -4 1223.78 156.373   1
   9 -17  -6 966.779 148.415   1
  -7 -10 -17 214.797 75.2349   1
  -5 -17 -10 307.535 87.1496   1
  -5 -10 -17 278.635 85.6402   1
  -3 -17 -10 332.764 92.1146   1
  10 -17   1 94.9799 49.3193   1
  -1 -17 -10 165.369 78.6762   1
  10 -17  -1 34.3317 43.2914   1
   1 -17 -10 34.6879 54.5038   1
  10 -17  -3 350.370 89.9211   1
  10 -17  -5 282.648 83.3270   1
  10 -17  -7 381.574 100.584   1
  -6 -11 -17 239.231 78.1303   1
  -4 -11 -17 660.855 116.934   1
  11 -17   0 785.884 123.219   1
  11 -17  -2 966.852 135.380   1
  11 -17  -4 487.160 105.147   1
  11 -17  -6 378.589 101.762   1
  -7 -12 -17 827.780 130.644   1
  -5 -12 -17 789.652 132.583   1
  -3 -12 -17-82.5874 58.9151   1
  12 -17  -1 406.554 92.6501   1
  12 -17  -3-72.1917 48.9256   1
  12 -17  -5 566.635 109.956   1
  13 -17  -4 763.802 127.632   1
   0 -18   0 44.3559 61.3649   1
  -1 -18  -1 154.000 62.6637   1
   1 -18  -1 343.541 89.6086   1
  -2 -18  -2 36.1345 50.3377   1
   2 -18   0 3422.76 257.078   1
   0 -18  -2 3059.82 246.860   1
   2 -18  -2 24.4511 39.2916   1
  -3 -18  -3 378.513 102.211   1
  -1 -18  -3 135.157 51.8796   1
   3 -18   1 138.060 56.6552   1
   3 -18  -1 176.844 77.2295   1
   1 -18  -3 97.3032 47.1046   1
   3 -18  -3 513.444 109.333   1
  -4 -18  -4-36.3236 44.0340   1
  -2 -18  -4 2127.16 217.428   1
  -4 -18  -2 1864.79 200.063   1
   4 -18   0 180.076 64.7897   1
   0 -18  -4 275.785 88.5386   1
   4 -18  -2 1921.03 196.646   1
   2 -18  -4 1767.85 191.148   1
   4 -18  -4 93.4171 64.9550   1
  -5 -18  -5 2121.85 218.195   1
  -3 -18  -5 294.999 83.5694   1
  -5 -18  -3 240.278 81.6284   1
  -1 -18  -5 727.043 133.855   1
   5 -18   1 635.440 113.941   1
   5 -18  -1 493.403 101.454   1
   1 -18  -5 474.043 106.369   1
   5 -18  -3 365.199 99.2942   1
   3 -18  -5 571.182 120.558   1
   5 -18  -5 1764.91 194.167   1
  -6 -18  -6-76.2146 60.2664   1
  -4 -18  -6 471.229 106.862   1
  -6 -18  -4 560.289 122.441   1
  -2 -18  -6-10.3178 42.4228   1
   6 -18   2 2.82028 49.3711   1
   6 -18   0 1023.83 141.448   1
   0 -18  -6 1564.03 189.686   1
   6 -18  -2 9.53413 38.4216   1
   2 -18  -6 11.2208 55.8848   1
   4 -18  -6 487.862 114.369   1
   6 -18  -4 455.034 103.627   1
   6 -18  -6 86.2014 78.4318   1
  -5 -18  -7 148.039 69.2769   1
  -7 -18  -5 292.878 99.6766   1
  -3 -18  -7 580.558 121.889   1
   7 -18   1 350.357 82.8155   1
  -1 -18  -7 558.073 113.904   1
   7 -18  -1 401.738 87.2725   1
   1 -18  -7 664.410 126.977   1
   3 -18  -7 504.293 116.160   1
   7 -18  -3 584.414 114.683   1
   7 -18  -5 261.477 84.4860   1
   5 -18  -7 34.3540 48.8486   1
  -4 -18  -8 200.275 83.1984   1
  -2 -18  -8 166.724 79.6731   1
   8 -18   2 252.195 74.2739   1
   8 -18   0-84.8152 52.7491   1
   0 -18  -8 111.593 67.5654   1
   2 -18  -8 196.564 75.3834   1
   8 -18  -2 110.640 50.4376   1
   8 -18  -4 2.18398 36.9982   1
   8 -18  -6 199.734 84.6765   1
   9 -18   1 952.189 137.690   1
   9 -18  -1 781.689 127.088   1
   9 -18  -3 1117.20 153.668   1
   9 -18  -5 795.712 139.817   1
  -6 -10 -18-47.5875 58.0099   1
  10 -18   2 181.960 74.8493   1
  10 -18   0-14.6152 38.7733   1
  10 -18  -2 112.135 54.5518   1
  10 -18  -4 315.905 98.7899   1
  -5 -11 -18 1474.27 178.537   1
  11 -18  -1 1312.51 157.330   1
  11 -18  -3 484.462 104.548   1
  12 -18  -2 506.760 106.864   1
  12 -18  -4 358.923 99.4498   1
   1 -19   0 217.683 90.1660   1
   0 -19  -1 244.169 84.7800   1
  -1 -19  -2 303.627 88.0985   1
   2 -19  -1 372.840 94.2323   1
   1 -19  -2 376.727 103.094   1
  -2 -19  -3 112.160 69.2484   1
  -3 -19  -2 80.5585 62.0722   1
   0 -19  -3 98.2288 60.9064   1
   3 -19   0 298.526 90.4838   1
   3 -19  -2 50.5731 48.8197   1
   2 -19  -3 235.933 94.0525   1
  -3 -19  -4 474.265 107.508   1
  -4 -19  -3 538.283 121.852   1
  -1 -19  -4 105.910 75.3922   1
   4 -19   1-5.95871 43.7398   1
   4 -19  -1 58.0983 70.2279   1
   1 -19  -4-0.38949 47.1883   1
   4 -19  -3 583.579 116.761   1
   3 -19  -4 634.951 124.813   1
  -2 -19  -5 459.438 107.314   1
   5 -19   0 223.936 72.8068   1
   0 -19  -5 68.2876 57.3457   1
   5 -19  -2 507.973 102.437   1
   2 -19  -5 565.343 125.960   1
   5 -19  -4 239.496 75.1194   1
   4 -19  -5 156.120 67.6597   1
   6 -19   1 36.3903 41.0014   1
   6 -19  -1 50.8870 47.9293   1
   6 -19  -3 45.3781 53.0542   1
   6 -19  -5 316.111 89.7352   1
   7 -19   0 987.584 145.194   1
   7 -19  -2 61.7396 47.5469   1
   7 -19  -4 1203.24 170.093   1
   8 -19   1 161.166 70.3061   1
   8 -19  -1 27.5571 50.0454   1
   8 -19  -3 431.285 111.678   1
   9 -19   0 932.644 139.300   1
   9 -19  -2 431.700 100.466   1
  10 -19   1 14.0975 43.8256   1
  10 -19  -1-48.4920 51.7272   1
  10 -19  -3 8.74941 43.1711   1
  11 -19  -2 660.759 125.553   1
   1 -20  -1-22.7136 60.1649   1
   2 -20   0 521.822 120.414   1
   2 -20  -2 1349.48 178.576   1
   3 -20  -1-29.0141 62.4903   1
   4 -20   0 2198.93 225.040   1
   4 -20  -2-6.71573 40.6815   1
   5 -20   1 511.749 114.930   1
   5 -20  -1 289.710 88.2201   1
   6 -20   0 186.379 74.1457   1
   7 -20   1 407.648 99.6387   1
   7 -20  -1 428.665 107.122   1
   8 -20   0 298.471 80.0695   1
   9 -20   1 987.298 149.606   1
   0   0   0    0.00    0.00   0

TITL LV382_CrCO3pyz_cubic_b in I-43d
REM I-43d (#220 in standard setting)
CELL 0.71073  15.875673  15.875673  15.875673  90.0000  90.0000  90.0000
ZERR   14.00   0.000624   0.000624   0.000624   0.0000   0.0000   0.0000
LATT -2
SYMM -x+1/2,-y, z+1/2
SYMM -x, y+1/2,-z+1/2
SYMM  x+1/2,-y+1/2,-z
SYMM  z, x, y
SYMM  z+1/2,-x+1/2,-y
SYMM -z+1/2,-x, y+1/2
SYMM -z, x+1/2,-y+1/2
SYMM  y, z, x
SYMM -y, z+1/2,-x+1/2
SYMM  y+1/2,-z+1/2,-x
SYMM -y+1/2,-z, x+1/2
SYMM  y+1/4, x+1/4, z+1/4
SYMM -y+1/4,-x+3/4, z+3/4
SYMM  y+3/4,-x+1/4,-z+3/4
SYMM -y+3/4, x+3/4,-z+1/4
SYMM  x+1/4, z+1/4, y+1/4
SYMM -x+3/4, z+3/4,-y+1/4
SYMM -x+1/4,-z+3/4, y+3/4
SYMM  x+3/4,-z+1/4,-y+3/4
SYMM  z+1/4, y+1/4, x+1/4
SYMM  z+3/4,-y+1/4,-x+3/4
SYMM -z+3/4, y+3/4,-x+1/4
SYMM -z+1/4,-y+3/4, x+3/4
SFAC C H N O Cr
UNIT 126.00 84.00 42.00 42.00 14.00
TREF
HKLF 4
END
;
_shelx_hkl_checksum              36680
_olex2_date_sample_data_collection 2020-10-05
_olex2_submission_special_instructions 'No special instructions were received'
_oxdiff_exptl_absorpt_empirical_details
;
Empirical correction (ABSPACK) includes:
- Absorption correction using spherical harmonics
- Frame scaling
;
_oxdiff_exptl_absorpt_empirical_full_max 1.028
_oxdiff_exptl_absorpt_empirical_full_min 0.972
loop_
_space_group_symop_operation_xyz
'x, y, z'
'y+1/4, -x+3/4, -z+1/4'
'-x, -y+1/2, z'
'-y+1/4, x+1/4, -z+3/4'
'-x+1/4, z+1/4, -y+3/4'
'x, -y, -z+1/2'
'-x+3/4, -z+1/4, y+1/4'
'-z+3/4, -y+1/4, x+1/4'
'-x+1/2, y, -z'
'z+1/4, -y+3/4, -x+1/4'
'z, x, y'
'y, z, x'
'-y, -z+1/2, x'
'z, -x, -y+1/2'
'-y+1/2, z, -x'
'-z, -x+1/2, y'
'-z+1/2, x, -y'
'y, -z, -x+1/2'
'-y+3/4, -x+1/4, z+1/4'
'y+1/4, x+1/4, z+1/4'
'x+1/4, -z+3/4, -y+1/4'
'x+1/4, z+1/4, y+1/4'
'-z+1/4, y+1/4, -x+3/4'
'z+1/4, y+1/4, x+1/4'
'x+1/2, y+1/2, z+1/2'
'y+3/4, -x+5/4, -z+3/4'
'-x+1/2, -y+1, z+1/2'
'-y+3/4, x+3/4, -z+5/4'
'-x+3/4, z+3/4, -y+5/4'
'x+1/2, -y+1/2, -z+1'
'-x+5/4, -z+3/4, y+3/4'
'-z+5/4, -y+3/4, x+3/4'
'-x+1, y+1/2, -z+1/2'
'z+3/4, -y+5/4, -x+3/4'
'z+1/2, x+1/2, y+1/2'
'y+1/2, z+1/2, x+1/2'
'-y+1/2, -z+1, x+1/2'
'z+1/2, -x+1/2, -y+1'
'-y+1, z+1/2, -x+1/2'
'-z+1/2, -x+1, y+1/2'
'-z+1, x+1/2, -y+1/2'
'y+1/2, -z+1/2, -x+1'
'-y+5/4, -x+3/4, z+3/4'
'y+3/4, x+3/4, z+3/4'
'x+3/4, -z+5/4, -y+3/4'
'x+3/4, z+3/4, y+3/4'
'-z+3/4, y+3/4, -x+5/4'
'z+3/4, y+3/4, x+3/4'
loop_
_atom_site_label
_atom_site_type_symbol
_atom_site_fract_x
_atom_site_fract_y
_atom_site_fract_z
_atom_site_U_iso_or_equiv
_atom_site_adp_type
_atom_site_occupancy
_atom_site_site_symmetry_order
_atom_site_calc_flag
_atom_site_refinement_flags_posn
_atom_site_refinement_flags_adp
_atom_site_refinement_flags_occupancy
_atom_site_disorder_assembly
_atom_site_disorder_group
Cr1 Cr 0.97362(4) 0.47362(4) 0.02638(4) 0.0113(3) Uani 1 3 d S T P . .
N2 N 0.83857(19) 0.4597(2) 0.0127(2) 0.0131(7) Uani 1 1 d . . . . .
C6 C 0.9657(3) 0.5868(2) 0.0065(3) 0.0166(8) Uani 1 1 d . . . . .
O5 O 0.9666(2) 0.65789(18) -0.0104(2) 0.0304(8) Uani 1 1 d . . . . .
C3 C 0.7835(3) 0.4590(3) 0.0757(3) 0.0192(9) Uani 1 1 d . . . . .
H3 H 0.805(3) 0.458(3) 0.127(3) 0.023 Uiso 1 1 d . U . . .
C4 C 0.8028(3) 0.4584(3) -0.0641(3) 0.0210(10) Uani 1 1 d . . . . .
H4 H 0.843(3) 0.456(3) -0.111(3) 0.025 Uiso 1 1 d . U . . .
loop_
_atom_site_aniso_label
_atom_site_aniso_U_11
_atom_site_aniso_U_22
_atom_site_aniso_U_33
_atom_site_aniso_U_23
_atom_site_aniso_U_13
_atom_site_aniso_U_12
Cr1 0.0113(3) 0.0113(3) 0.0113(3) 0.0001(3) 0.0001(3) -0.0001(3)
N2 0.0134(17) 0.0092(16) 0.0166(18) -0.0006(13) -0.0007(14) -0.0001(13)
C6 0.015(2) 0.020(2) 0.016(2) -0.0015(16) 0.0023(16) -0.0001(19)
O5 0.0371(19) 0.0154(16) 0.0387(19) 0.0089(14) -0.0006(16) -0.0014(16)
C3 0.014(2) 0.029(2) 0.015(2) 0.0007(18) -0.0033(17) 0.0009(18)
C4 0.014(2) 0.033(3) 0.016(2) -0.0026(19) 0.0018(16) -0.0025(18)
loop_
_atom_type_symbol
_atom_type_description
_atom_type_scat_dispersion_real
_atom_type_scat_dispersion_imag
_atom_type_scat_source
C C 0.0033 0.0016 'International Tables Vol C Tables 4.2.6.8 and 6.1.1.4'
H H 0.0000 0.0000 'International Tables Vol C Tables 4.2.6.8 and 6.1.1.4'
Cr Cr 0.3209 0.6236 'International Tables Vol C Tables 4.2.6.8 and 6.1.1.4'
N N 0.0061 0.0033 'International Tables Vol C Tables 4.2.6.8 and 6.1.1.4'
O O 0.0106 0.0060 'International Tables Vol C Tables 4.2.6.8 and 6.1.1.4'
loop_
_geom_angle_atom_site_label_1
_geom_angle_atom_site_label_2
_geom_angle_atom_site_label_3
_geom_angle
_geom_angle_site_symmetry_1
_geom_angle_site_symmetry_3
_geom_angle_publ_flag
N2 Cr1 N2 90.47(13) 42 41_545 ?
N2 Cr1 N2 90.47(13) . 42 ?
N2 Cr1 N2 90.47(13) . 41_545 ?
C6 Cr1 N2 90.87(17) . . ?
C6 Cr1 N2 175.56(17) . 41_545 ?
C6 Cr1 N2 175.56(17) 41_545 42 ?
C6 Cr1 N2 175.56(17) 42 . ?
C6 Cr1 N2 90.87(17) 42 42 ?
C6 Cr1 N2 93.76(16) . 42 ?
C6 Cr1 N2 93.76(16) 42 41_545 ?
C6 Cr1 N2 93.76(16) 41_545 . ?
C6 Cr1 N2 90.87(17) 41_545 41_545 ?
C6 Cr1 C6 84.8(2) 41_545 . ?
C6 Cr1 C6 84.8(2) 42 . ?
C6 Cr1 C6 84.8(2) 42 41_545 ?
C3 N2 Cr1 125.3(3) . . ?
C3 N2 C4 113.8(3) . . ?
C4 N2 Cr1 120.6(3) . . ?
O5 C6 Cr1 174.3(4) . . ?
N2 C3 H3 116(3) . . ?
N2 C3 C4 123.6(4) . 9_655 ?
C4 C3 H3 121(3) 9_655 . ?
N2 C4 C3 122.6(4) . 9_655 ?
N2 C4 H4 115(3) . . ?
C3 C4 H4 123(3) 9_655 . ?
loop_
_geom_bond_atom_site_label_1
_geom_bond_atom_site_label_2
_geom_bond_distance
_geom_bond_site_symmetry_2
_geom_bond_publ_flag
Cr1 N2 2.166(3) . ?
Cr1 N2 2.166(3) 42 ?
Cr1 N2 2.166(3) 41_545 ?
Cr1 C6 1.828(4) 42 ?
Cr1 C6 1.828(4) . ?
Cr1 C6 1.828(4) 41_545 ?
N2 C3 1.327(5) . ?
N2 C4 1.346(5) . ?
C6 O5 1.160(5) . ?
C3 H3 0.88(5) . ?
C3 C4 1.382(6) 9_655 ?
C4 H4 0.99(5) . ?
loop_
_geom_torsion_atom_site_label_1
_geom_torsion_atom_site_label_2
_geom_torsion_atom_site_label_3
_geom_torsion_atom_site_label_4
_geom_torsion
_geom_torsion_site_symmetry_1
_geom_torsion_site_symmetry_2
_geom_torsion_site_symmetry_3
_geom_torsion_site_symmetry_4
_geom_torsion_publ_flag
Cr1 N2 C3 C4 173.3(4) . . . 9_655 ?
Cr1 N2 C4 C3 -172.7(3) . . . 9_655 ?
C3 N2 C4 C3 1.9(6) . . . 9_655 ?
C4 N2 C3 C4 -0.9(5) . . . 9_655 ?
