#------------------------------------------------------------------------------
#$Date: 2021-07-05 19:11:58 +0300 (Mon, 05 Jul 2021) $
#$Revision: 266996 $
#$URL: file:///home/coder/svn-repositories/cod/cif/7/12/83/7128357.cif $
#------------------------------------------------------------------------------
#
# This file is available in the Crystallography Open Database (COD),
# http://www.crystallography.net/
#
# All data on this site have been placed in the public domain by the
# contributors.
#
data_7128357
loop_
_publ_author_name
'Liu, Guoliang'
'Yang, Ziqi'
'Zhou, Mi'
'Wang, Yuxiang'
'Yuan, Daqiang'
'Zhao, Dan'
_publ_section_title
;
 Heterogeneous postassembly modification of zirconium metal-organic cages
 in supramolecular frameworks.
;
_journal_issue                   51
_journal_name_full
'Chemical communications (Cambridge, England)'
_journal_page_first              6276
_journal_page_last               6279
_journal_paper_doi               10.1039/d1cc01606g
_journal_volume                  57
_journal_year                    2021
_chemical_formula_sum            'C108 H60 Cl6 N6 O40 Zr12'
_chemical_formula_weight         3388.96
_space_group_crystal_system      cubic
_space_group_IT_number           225
_space_group_name_Hall           '-F 4 2 3'
_space_group_name_H-M_alt        'F m -3 m'
_atom_sites_solution_hydrogens   geom
_audit_creation_method           SHELXL-2014/7
_audit_update_record
;
2020-09-05 deposited with the CCDC.	2021-05-21 downloaded from the CCDC.
;
_cell_angle_alpha                90
_cell_angle_beta                 90
_cell_angle_gamma                90
_cell_formula_units_Z            8
_cell_length_a                   36.6049(6)
_cell_length_b                   36.6049(6)
_cell_length_c                   36.6049(6)
_cell_measurement_reflns_used    4391
_cell_measurement_temperature    173(2)
_cell_measurement_theta_max      65.5020
_cell_measurement_theta_min      3.9660
_cell_volume                     49047.6(14)
_computing_structure_refinement  'SHELXL-2014/7 (Sheldrick, 2014)'
_diffrn_ambient_temperature      173(2)
_diffrn_detector_area_resol_mean 10.5594
_diffrn_measured_fraction_theta_full 0.997
_diffrn_measured_fraction_theta_max 0.984
_diffrn_measurement_device_type  'SuperNova, Dual, Cu at home/near, Atlas'
_diffrn_measurement_method       '\w scans'
_diffrn_radiation_type           CuK\a
_diffrn_radiation_wavelength     1.54184
_diffrn_reflns_av_R_equivalents  0.0457
_diffrn_reflns_av_unetI/netI     0.0248
_diffrn_reflns_Laue_measured_fraction_full 0.997
_diffrn_reflns_Laue_measured_fraction_max 0.984
_diffrn_reflns_limit_h_max       44
_diffrn_reflns_limit_h_min       -14
_diffrn_reflns_limit_k_max       30
_diffrn_reflns_limit_k_min       -40
_diffrn_reflns_limit_l_max       41
_diffrn_reflns_limit_l_min       -35
_diffrn_reflns_number            14504
_diffrn_reflns_point_group_measured_fraction_full 0.997
_diffrn_reflns_point_group_measured_fraction_max 0.984
_diffrn_reflns_theta_full        67.684
_diffrn_reflns_theta_max         72.162
_diffrn_reflns_theta_min         4.005
_diffrn_source                   'micro-focus sealed X-ray tube'
_exptl_absorpt_coefficient_mu    4.958
_exptl_absorpt_correction_T_max  1.00000
_exptl_absorpt_correction_T_min  0.19222
_exptl_absorpt_correction_type   multi-scan
_exptl_crystal_colour            yellow
_exptl_crystal_density_diffrn    0.918
_exptl_crystal_description       cubic
_exptl_crystal_F_000             13216
_exptl_crystal_size_max          0.02
_exptl_crystal_size_mid          0.02
_exptl_crystal_size_min          0.02
_refine_diff_density_max         0.745
_refine_diff_density_min         -0.564
_refine_diff_density_rms         0.100
_refine_ls_extinction_method     none
_refine_ls_goodness_of_fit_ref   1.022
_refine_ls_hydrogen_treatment    constr
_refine_ls_matrix_type           full
_refine_ls_number_parameters     67
_refine_ls_number_reflns         2385
_refine_ls_number_restraints     18
_refine_ls_restrained_S_all      1.031
_refine_ls_R_factor_all          0.1268
_refine_ls_R_factor_gt           0.0889
_refine_ls_shift/su_max          0.001
_refine_ls_shift/su_mean         0.000
_refine_ls_structure_factor_coef Fsqd
_refine_ls_weighting_details
'w=1/[\s^2^(Fo^2^)+(0.1414P)^2^+890.2360P] where P=(Fo^2^+2Fc^2^)/3'
_refine_ls_weighting_scheme      calc
_refine_ls_wR_factor_gt          0.2618
_refine_ls_wR_factor_ref         0.3196
_reflns_Friedel_coverage         0.000
_reflns_number_gt                1383
_reflns_number_total             2385
_reflns_threshold_expression     'I > 2\s(I)'
_cod_data_source_file            d1cc01606g2.cif
_cod_data_source_block           1
_cod_depositor_comments          'Adding full bibliography for 7128357.cif.'
_cod_original_cell_volume        49048(2)
_cod_database_code               7128357
_shelx_shelxl_version_number     2014/7
_shelx_space_group_comment
;
The symmetry employed for this shelxl refinement is uniquely defined
by the following loop, which should always be used as a source of
symmetry information in preference to the above space-group names.
They are only intended as comments.
;
_shelx_res_file
;

    C:\Users\jdpan\Desktop\TMP-JD~1\1_a.res created by SHELXL-2014/7

TITL C:\Users\LIUGUO~1\Desktop\ZrT-1-AA\tmp\1_a.res in Fm-3m
CELL 1.54184 36.6049 36.6049 36.6049 90.000 90.000 90.000
ZERR 8.0000 0.0006 0.0006 0.0006 0.000 0.000 0.000
LATT 4
SYMM -Y, X, Z
SYMM -X, -Y, Z
SYMM Y, -X, Z
SYMM X, -Z, Y
SYMM X, -Y, -Z
SYMM X, Z, -Y
SYMM Z, Y, -X
SYMM -X, Y, -Z
SYMM -Z, Y, X
SYMM Z, X, Y
SYMM Y, Z, X
SYMM -Y, -Z, X
SYMM Z, -X, -Y
SYMM -Y, Z, -X
SYMM -Z, -X, Y
SYMM -Z, X, -Y
SYMM Y, -Z, -X
SYMM Y, X, -Z
SYMM -Y, -X, -Z
SYMM -X, Z, Y
SYMM -X, -Z, -Y
SYMM Z, -Y, X
SYMM -Z, -Y, -X
SFAC C H N O CL ZR
UNIT 864 480 48 320 48 96
ISOR 0.05 0.1 C5
ISOR 0.01 0.02 C4 C5
EADP N1 C3 C2 C1 O1
BOND $H
ABIN
EQIV $1 3/2-Y,3/2-X,Z
EQIV $2 Y,X,Z
EQIV $3 3/2-X,3/2-Y,Z
DFIX 1.363 0.02 N1 C3
DFIX 2.434 0.02 N1 C2
DFIX 2.434 0.02 N1 C3_$1
DFIX 3.706 0.02 N1 C3_$2
DFIX 3.706 0.02 N1 C2_$3
DFIX 4.256 0.02 N1 C3_$3
ACTA
FMAP 2 1 53
GRID
PLAN 100 0 0
MERG 2
TEMP -100
L.S. 99
WGHT    0.141400  890.235962
FVAR       0.03340
ZR1   6    0.674870    0.610487    0.389513    10.50000    0.08365    0.09592 =
         0.09592    0.00608    0.00966   -0.00966
CL2   5    0.612571    0.500000    0.387429    10.12500    0.12564    0.06745 =
         0.12564    0.00000   -0.00721    0.00000
O2    4    0.643056    0.643056    0.356944    10.16667    0.08406    0.08406 =
         0.08406    0.02340    0.02340   -0.02340
O3    4    0.636294    0.576223    0.363706    10.50000    0.08620    0.08722 =
         0.08620    0.00109    0.00282   -0.00109
O1    4    0.704808    0.661968    0.395174    11.00000    0.10301    0.11110 =
         0.16870    0.01603   -0.00673   -0.02980
CL1   5    0.658545    0.500000    0.341455    10.12500    0.18460    0.10620 =
         0.18460    0.00000   -0.02235    0.00000
C1    1    0.693792    0.693792    0.394946    10.50000    0.10301    0.11110 =
         0.16870    0.01603   -0.00673   -0.02980
C2    1    0.723622    0.723622    0.395198    10.50000    0.10301    0.11110 =
         0.16870    0.01603   -0.00673   -0.02980
C6    1    0.686707    0.550405    0.422702    11.00000    0.15564    0.11211 =
         0.17110    0.04205   -0.03760   -0.00075
AFIX  13
H6    2    0.670534    0.528396    0.422131    11.00000   -1.20000
AFIX   0
C5    1    0.716187    0.556304    0.400773    11.00000    0.17021    0.14189 =
         0.14621   -0.01413    0.00679    0.05335
AFIX  13
H5    2    0.725508    0.539146    0.381667    11.00000   -1.20000
AFIX   0
C4    1    0.734267    0.586153    0.413847    10.50000    0.13678    0.17315 =
         0.17315    0.01346   -0.00369    0.00369
AFIX  13
H4    2    0.759051    0.594280    0.405720    10.50000   -1.20000
AFIX   0
C3    1    0.759231    0.712543    0.393941    11.00000    0.10301    0.11110 =
         0.16870    0.01603   -0.00673   -0.02980
N1    3    0.770763    0.676475    0.387001    10.25000    0.10301    0.11110 =
         0.16870    0.01603   -0.00673   -0.02980
HKLF 4

REM  C:\Users\LIUGUO~1\Desktop\ZrT-1-AA\tmp\1_a.res in Fm-3m
REM R1 =  0.0889 for    1383 Fo > 4sig(Fo)  and  0.1268 for all    2385 data
REM     67 parameters refined using     18 restraints

END

WGHT      0.1413    887.6637

REM Highest difference peak  0.745,  deepest hole -0.564,  1-sigma level  0.100
Q1    1   0.6189  0.5000  0.3600  10.50000  0.05    0.75
Q2    1   0.6811  0.4645  0.3189  10.50000  0.05    0.46
Q3    1   0.6783  0.5000  0.3817  10.50000  0.05    0.39
Q4    1   0.6546  0.6464  0.3536  10.50000  0.05    0.38
Q5    1   0.6849  0.6849  0.3151  10.16667  0.05    0.33
Q6    1   0.6842  0.5991  0.3803  11.00000  0.05    0.33
Q7    1   0.6865  0.5000  0.3135  10.25000  0.05    0.30
Q8    1   0.5877  0.5000  0.4123  10.25000  0.05    0.30
Q9    1   0.6270  0.6270  0.3730  10.16667  0.05    0.29
Q10   1   0.6996  0.5000  0.3200  10.50000  0.05    0.29
Q11   1   0.6992  0.5000  0.4414  10.50000  0.05    0.28
Q12   1   0.5000  0.5000  0.4325  10.12500  0.05    0.24
Q13   1   0.7382  0.6799  0.3845  11.00000  0.05    0.24
Q14   1   0.7967  0.5000  0.5000  10.12500  0.05    0.23
Q15   1   0.6261  0.5850  0.3739  10.50000  0.05    0.22
Q16   1   0.6179  0.5000  0.5000  10.12500  0.05    0.22
Q17   1   0.8213  0.6787  0.4219  10.50000  0.05    0.22
Q18   1   0.7190  0.5000  0.2810  10.25000  0.05    0.19
Q19   1   0.6971  0.5000  0.5000  10.12500  0.05    0.19
Q20   1   0.7794  0.6805  0.4216  11.00000  0.05    0.18
Q21   1   0.7606  0.5000  0.5000  10.12500  0.05    0.18
Q22   1   0.6592  0.5000  0.4817  10.50000  0.05    0.18
Q23   1   0.7427  0.5000  0.3550  10.50000  0.05    0.18
Q24   1   0.7452  0.5000  0.5000  10.12500  0.05    0.18
Q25   1   0.6411  0.5396  0.3589  10.50000  0.05    0.17
Q26   1   0.5816  0.5000  0.4677  10.50000  0.05    0.17
Q27   1   0.7834  0.6833  0.3552  11.00000  0.05    0.17
Q28   1   0.5824  0.5000  0.5000  10.12500  0.05    0.17
Q29   1   0.6252  0.5644  0.3574  11.00000  0.05    0.17
Q30   1   0.6145  0.5610  0.4390  10.50000  0.05    0.16
Q31   1   0.6975  0.5422  0.4578  10.50000  0.05    0.16
Q32   1   0.7592  0.5000  0.2967  10.50000  0.05    0.16
Q33   1   0.6896  0.5389  0.4611  10.50000  0.05    0.16
Q34   1   0.7375  0.7375  0.4834  10.50000  0.05    0.15
Q35   1   0.7384  0.7384  0.3238  10.50000  0.05    0.15
Q36   1   0.8072  0.6625  0.3643  11.00000  0.05    0.15
Q37   1   0.7812  0.5000  0.3632  10.50000  0.05    0.15
Q38   1   0.8015  0.5000  0.3762  10.50000  0.05    0.15
Q39   1   0.7604  0.7126  0.4295  11.00000  0.05    0.15
Q40   1   0.8389  0.6360  0.3640  10.50000  0.05    0.15
Q41   1   0.8209  0.5000  0.3209  10.25000  0.05    0.15
Q42   1   0.7209  0.6800  0.3200  10.50000  0.05    0.15
Q43   1   0.5266  0.5000  0.4734  10.25000  0.05    0.14
Q44   1   0.7437  0.6969  0.4255  11.00000  0.05    0.14
Q45   1   0.7431  0.5189  0.4811  10.50000  0.05    0.14
Q46   1   0.8337  0.6257  0.3743  10.50000  0.05    0.14
Q47   1   0.8163  0.5000  0.3633  10.50000  0.05    0.14
Q48   1   0.6601  0.5000  0.4415  10.50000  0.05    0.13
Q49   1   0.7585  0.7201  0.4313  11.00000  0.05    0.13
Q50   1   0.7188  0.7188  0.4464  10.50000  0.05    0.13
Q51   1   0.7585  0.5130  0.3390  11.00000  0.05    0.13
Q52   1   0.7366  0.7041  0.3203  11.00000  0.05    0.13
Q53   1   0.6986  0.5237  0.4021  11.00000  0.05    0.13
Q54   1   0.8053  0.6947  0.4463  10.50000  0.05    0.13
Q55   1   0.7560  0.5000  0.4168  10.50000  0.05    0.12
Q56   1   0.7598  0.5184  0.4438  11.00000  0.05    0.12
Q57   1   0.7992  0.7008  0.2992  10.16667  0.05    0.12
Q58   1   0.6337  0.5354  0.4646  10.50000  0.05    0.12
Q59   1   0.8182  0.6655  0.4527  11.00000  0.05    0.12
Q60   1   0.7806  0.7194  0.2806  10.16667  0.05    0.12
Q61   1   0.7811  0.5196  0.3937  11.00000  0.05    0.11
Q62   1   0.7589  0.7165  0.3347  11.00000  0.05    0.11
Q63   1   0.5830  0.5830  0.4170  10.16667  0.05    0.11
Q64   1   0.9151  0.5170  0.4151  10.50000  0.05    0.11
Q65   1   0.8118  0.5346  0.5000  10.50000  0.05    0.11
Q66   1   0.7390  0.5385  0.4248  11.00000  0.05    0.11
Q67   1   0.7546  0.6581  0.3419  10.50000  0.05    0.10
Q68   1   0.8034  0.5638  0.4362  10.50000  0.05    0.10
Q69   1   0.7834  0.6957  0.4621  11.00000  0.05    0.10
Q70   1   0.7212  0.7394  0.3823  11.00000  0.05    0.10
Q71   1   0.8184  0.5119  0.4219  11.00000  0.05    0.10
Q72   1   0.6038  0.5359  0.4641  10.50000  0.05    0.10
Q73   1   0.5803  0.5333  0.4197  10.50000  0.05    0.10
Q74   1   0.7779  0.5000  0.3157  10.50000  0.05    0.09
Q75   1   0.8189  0.5135  0.4102  11.00000  0.05    0.09
Q76   1   0.7357  0.5812  0.3993  11.00000  0.05    0.09
Q77   1   0.8449  0.5000  0.5000  10.12500  0.05    0.09
Q78   1   0.6821  0.5628  0.3997  11.00000  0.05    0.08
Q79   1   0.8388  0.5807  0.4193  10.50000  0.05    0.07
Q80   1   0.5594  0.4406  0.4406  10.16667  0.05    0.07
Q81   1   0.9215  0.5000  0.5000  10.12500  0.05    0.07
Q82   1   0.8720  0.5000  0.5000  10.12500  0.05    0.07
Q83   1   0.9370  0.5333  0.4820  11.00000  0.05    0.07
Q84   1   0.8046  0.6198  0.4390  11.00000  0.05    0.07
Q85   1   0.8867  0.5402  0.3867  10.50000  0.05    0.06
Q86   1   0.8763  0.6237  0.3763  10.16667  0.05    0.06
Q87   1   0.8800  0.5384  0.3901  11.00000  0.05    0.06
Q88   1   0.8594  0.5428  0.4806  11.00000  0.05    0.06
Q89   1   0.9218  0.5658  0.5000  10.50000  0.05    0.05
Q90   1   0.8327  0.6031  0.4593  11.00000  0.05    0.05
Q91   1   0.9006  0.5000  0.4624  10.50000  0.05    0.05
Q92   1   0.8972  0.5747  0.4253  10.50000  0.05    0.05
Q93   1   0.8324  0.5583  0.4417  10.50000  0.05    0.04
Q94   1   0.8082  0.5829  0.3891  11.00000  0.05    0.04
Q95   1   0.6606  0.5643  0.4357  10.50000  0.05    0.04
Q96   1   0.8881  0.5000  0.3952  10.50000  0.05    0.03
Q97   1   0.6346  0.5542  0.3222  11.00000  0.05    0.03
Q98   1   0.8761  0.5633  0.5000  10.50000  0.05    0.02
;
_shelx_res_checksum              45338
_shelx_fab_file
;
0 4 0 596.8109 16.3838
0 4 2 -314.1706 -8.3690
0 4 4 960.2446 -40.5101
0 6 0 734.3319 9.2060
0 6 2 -140.8353 1.5260
0 6 4 13.9909 8.6065
0 6 6 -40.6061 19.6137
0 8 0 254.8253 -32.8268
0 8 2 -141.4138 10.3435
0 8 4 6.8545 20.4471
0 8 6 29.4757 -17.7305
0 8 8 -19.9661 13.5548
0 10 0 436.2601 -31.9725
0 10 2 -241.0738 13.3822
0 10 4 388.5487 24.6723
0 10 6 0.1392 -3.0706
0 10 8 186.4258 -8.9212
0 10 10 -19.9538 -21.1280
0 12 0 203.5939 6.2241
0 12 2 70.7338 -8.8254
0 12 4 8.8854 9.9649
0 12 6 20.1474 6.5023
0 12 8 40.7542 -18.0657
0 12 10 -50.4185 -10.1208
0 12 12 39.3573 16.2210
0 14 0 142.4851 25.6324
0 14 2 -137.4068 -8.9921
0 14 4 156.1096 -27.6380
0 14 6 -25.9048 -3.5785
0 14 8 -35.1618 30.2329
0 14 10 58.0835 33.9722
0 14 12 14.0297 -4.0065
0 14 14 43.4564 -44.3807
0 16 0 187.8081 -2.0062
0 16 2 -59.6773 -1.8797
0 16 4 66.7591 6.0706
0 16 6 -40.8636 4.0407
0 16 8 38.0554 -7.8904
0 16 10 -51.3380 -5.6833
0 16 12 3.4898 0.5784
0 16 14 37.5433 4.9991
0 16 16 -5.5357 2.4708
0 18 0 87.4532 -20.5148
0 18 2 61.0043 8.6762
0 18 4 31.9642 24.3807
0 18 6 59.4118 -4.7581
0 18 8 39.8776 -22.9699
0 18 10 43.9749 -29.3962
0 18 12 54.7888 -4.9480
0 18 14 16.4644 35.6076
0 18 16 26.1944 -7.5289
0 18 18 12.2938 -34.6022
0 20 0 82.2107 -3.8814
0 20 2 -40.3942 4.2848
0 20 4 89.9937 -5.5390
0 20 6 -16.5183 -13.4785
0 20 8 18.0562 16.2183
0 20 10 11.2613 10.5946
0 20 12 -18.7217 -6.9184
0 20 14 26.0577 -3.8340
0 20 16 -0.9827 0.3641
0 20 18 0.6472 2.9863
0 20 20 9.1840 2.8910
0 22 0 -5.5247 15.9867
0 22 2 -30.5164 -9.9095
0 22 4 -5.6565 -2.0980
0 22 6 -15.4771 14.1252
0 22 8 7.4187 0.0312
0 22 10 -2.9891 4.3279
0 22 12 -11.2079 9.5846
0 22 14 22.9798 -12.1972
0 22 16 4.8732 1.7082
0 22 18 15.9407 12.4982
0 22 20 -5.7962 -5.0391
0 22 22 16.9119 1.0579
0 24 0 8.7913 5.8282
0 24 2 -26.6206 -5.5111
0 24 4 35.7893 -3.6720
0 24 6 14.5881 3.4862
0 24 8 -13.9402 -2.8366
0 24 10 39.3913 4.9021
0 24 12 28.8207 3.6470
0 24 14 -11.4618 -9.1232
0 24 16 13.1347 2.7497
0 24 18 -0.3056 4.6956
0 24 20 -3.7306 -3.2125
0 24 22 89.7375 3.3420
0 26 0 6.3044 -3.2267
0 26 2 -5.0398 6.2624
0 26 4 6.0364 -0.8013
0 26 6 6.9132 -11.4595
0 26 8 21.9714 6.3627
0 26 10 14.9007 2.8509
0 26 12 -3.6590 -6.8252
0 26 14 17.5189 5.0167
0 26 16 -23.8902 1.5460
0 26 18 -37.9885 -4.7507
0 26 20 39.7824 1.3263
0 26 22 -1.2023 -2.3900
0 26 24 -31.2319 -2.5831
0 26 26 1.2564 3.5438
0 28 0 23.7656 -9.7160
0 28 2 -43.9952 3.1352
0 28 4 -14.6462 12.6018
0 28 6 31.3774 -1.6494
0 28 8 0.6345 -14.8533
0 28 10 -24.7666 -13.9806
0 28 12 5.2704 1.2127
0 28 14 -16.0543 17.2304
0 28 16 -11.8714 -2.6527
0 28 18 46.2724 -13.9157
0 28 20 -24.1069 3.5038
0 28 22 -20.1934 7.9134
0 28 24 -16.5287 5.5091
0 28 26 -52.2020 -0.4578
0 28 28 4.9365 -9.0071
0 30 0 28.6555 -2.4477
0 30 2 13.9019 -2.7607
0 30 4 13.7653 -0.4005
0 30 6 1.9476 3.7458
0 30 8 2.5050 0.3101
0 30 10 27.8010 2.4743
0 30 12 11.7389 1.9443
0 30 14 -29.9625 -3.1125
0 30 16 -22.5796 -0.3237
0 30 18 -13.9131 1.0736
0 30 20 3.1320 0.6297
0 30 22 25.2162 1.6583
0 30 24 -16.7837 0.4638
0 30 26 11.5204 -2.9494
0 30 28 3.2599 0.8442
0 30 30 -17.3247 3.0348
0 32 0 78.7824 9.0464
0 32 2 60.4771 -3.1444
0 32 4 -29.9940 -11.0237
0 32 6 -11.8627 1.3502
0 32 8 8.6047 9.4898
0 32 10 -27.6863 12.5549
0 32 12 9.4055 0.4997
0 32 14 -19.1936 -13.5043
0 32 16 -28.3956 2.0962
0 32 18 3.1644 11.6404
0 32 20 0.9002 -3.3439
0 32 22 2.7407 -3.8639
0 32 24 0.6984 -3.0922
0 32 26 -0.2686 0.3645
0 32 28 9.4220 7.5074
0 32 30 5.1549 -0.5373
0 34 0 -0.1240 0.1059
0 34 2 13.3265 -1.1333
0 34 4 7.4450 5.6238
0 34 6 -14.4368 1.4524
0 34 8 2.7008 -7.1461
0 34 10 -1.2038 -6.8069
0 34 12 4.4041 0.0610
0 34 14 -2.7105 5.1770
0 34 16 -6.8042 -0.2325
0 34 18 -18.5881 -4.0939
0 34 20 -0.9259 -2.0797
0 34 22 -16.4499 3.3756
0 34 24 -27.4577 -0.2665
0 34 26 -4.6578 -0.9420
0 34 28 29.7710 -2.0698
0 36 0 22.1567 -4.3003
0 36 2 -16.7148 4.5348
0 36 4 -3.3288 3.9538
0 36 6 7.6418 -4.8701
0 36 8 -1.1501 -0.6129
0 36 10 -12.2897 -1.7080
0 36 12 23.9073 -0.9125
0 36 14 -15.0855 7.0246
0 36 16 14.0180 0.0127
0 36 18 14.3045 -5.1154
0 36 20 5.5463 1.6039
0 36 22 -3.0236 0.5646
0 36 24 -25.0721 -0.3087
0 36 26 7.3604 0.6438
0 38 0 11.4777 -0.6296
0 38 2 13.9152 1.4187
0 38 4 -22.5093 -0.6645
0 38 6 -31.0653 -0.4285
0 38 8 47.1284 2.6441
0 38 10 2.0398 0.6101
0 38 12 -20.1407 -0.2172
0 38 14 5.0867 -0.4772
0 38 16 -4.6214 -0.1768
0 38 18 16.5236 -0.1838
0 38 20 -7.5530 -0.7881
0 38 22 -33.9596 -2.0137
0 38 24 -16.2291 -0.1378
0 40 0 17.2042 -0.6219
0 40 2 -25.3540 -1.8665
0 40 4 11.2353 2.0033
0 40 6 19.0729 3.1265
0 40 8 -5.1915 -1.8797
0 40 10 -23.0946 -1.7713
0 40 12 16.4857 2.2753
0 40 14 -25.1312 -0.2083
0 40 16 8.8513 -0.5677
0 40 18 0.7171 -0.6723
0 40 20 -9.9205 -1.0667
0 42 0 -79.0993 -1.4118
0 42 2 -8.2644 -1.0728
0 42 4 17.7442 -0.8457
0 42 6 -7.7854 0.0980
0 42 8 27.0679 1.0305
0 42 10 -12.1939 2.7066
0 42 12 -11.3074 -0.0782
0 42 14 39.1670 -2.6550
0 42 16 -7.8414 -0.0588
0 44 0 -3.3068 1.3736
0 44 2 -8.3345 1.3219
0 44 4 15.2426 -2.2629
0 44 6 -5.6171 -1.4942
0 44 8 3.9985 -0.8595
1 3 1 -681.1813 8.8075
1 3 3 -47.4609 1.6255
1 5 1 -220.2042 -3.4472
1 5 3 -86.3913 -10.5641
1 5 5 317.3378 3.3073
1 7 1 176.8397 7.2138
1 7 3 -66.0091 3.9868
1 7 5 51.3540 -11.3411
1 7 7 -98.4869 7.8828
1 9 1 -87.2423 -8.0547
1 9 3 71.5057 2.6644
1 9 5 0.8868 -36.4679
1 9 7 -121.0553 6.3379
1 9 9 -119.5764 -2.8224
1 11 1 65.1500 13.2386
1 11 3 -1.3162 -4.3638
1 11 5 -31.3890 3.6174
1 11 7 5.4808 1.8965
1 11 9 21.4645 -14.9832
1 11 11 -3.6004 11.9398
1 13 1 -41.1352 -7.7119
1 13 3 -37.6439 -6.6108
1 13 5 82.1238 7.5758
1 13 7 -39.3062 2.0764
1 13 9 76.4427 5.9751
1 13 11 63.8533 -3.3496
1 13 13 0.5468 3.3881
1 15 1 -52.3400 -5.6922
1 15 3 21.4275 -5.8955
1 15 5 2.3351 -1.8028
1 15 7 37.5874 -2.1306
1 15 9 -24.5210 17.5214
1 15 11 -27.3968 9.3711
1 15 13 -35.8275 9.6060
1 15 15 -12.6873 4.0407
1 17 1 11.2902 9.3058
1 17 3 -55.7072 5.5930
1 17 5 17.9161 10.9071
1 17 7 -18.8164 -6.2613
1 17 9 -11.4556 -18.9038
1 17 11 -38.4320 -8.1938
1 17 13 2.0516 18.7080
1 17 15 -6.9046 -7.7585
1 17 17 -19.1720 4.0291
1 19 1 3.9244 -1.4315
1 19 3 18.5208 4.2010
1 19 5 28.7807 -6.7758
1 19 7 -0.7686 -0.5026
1 19 9 15.0625 0.3132
1 19 11 17.2987 -7.2391
1 19 13 -2.0521 11.6406
1 19 15 -7.5064 2.4820
1 19 17 -25.3002 8.6411
1 19 19 0.6078 0.0925
1 21 1 -17.5433 -2.1625
1 21 3 -28.5514 0.8420
1 21 5 -5.3790 1.6357
1 21 7 -17.4441 3.1899
1 21 9 -19.6991 4.0359
1 21 11 -6.2484 2.4663
1 21 13 1.8202 -3.8522
1 21 15 -20.7045 -3.6089
1 21 17 0.8295 11.7871
1 21 19 13.6682 -4.6936
1 21 21 4.9210 7.7678
1 23 1 17.2421 7.3588
1 23 3 24.0717 -4.6801
1 23 5 17.0339 8.7909
1 23 7 -11.3855 0.7273
1 23 9 6.7969 -15.0824
1 23 11 11.6364 7.6481
1 23 13 5.4696 6.4618
1 23 15 18.2208 -2.1251
1 23 17 -5.5260 7.1047
1 23 19 3.3724 -11.1056
1 23 21 3.3232 1.9979
1 23 23 42.0046 -1.4446
1 25 1 6.1865 -4.6596
1 25 3 11.1311 1.2592
1 25 5 10.7398 -5.3018
1 25 7 -18.2934 3.6805
1 25 9 -18.8526 2.0581
1 25 11 37.9846 3.7699
1 25 13 9.4514 -3.7113
1 25 15 -4.7702 -1.2216
1 25 17 -14.6158 -0.4467
1 25 19 -32.7161 0.6241
1 25 21 16.7133 2.1325
1 25 23 25.7811 1.0776
1 25 25 23.6972 2.1151
1 27 1 30.2185 -1.1894
1 27 3 -11.4734 3.4292
1 27 5 31.8835 -7.6508
1 27 7 17.2710 -0.8396
1 27 9 -7.4383 -1.9444
1 27 11 3.3392 -5.7882
1 27 13 0.9255 -1.9229
1 27 15 0.3734 8.2280
1 27 17 -12.2662 -11.6430
1 27 19 7.4484 4.3096
1 27 21 -4.2087 1.5122
1 27 23 24.7794 -4.9870
1 27 25 14.6463 -1.3710
1 27 27 16.2914 -0.4374
1 29 1 -39.9656 3.0732
1 29 3 -0.8521 4.2133
1 29 5 -16.7570 2.3063
1 29 7 -7.3958 -0.5773
1 29 9 -15.0437 -6.1897
1 29 11 -10.2709 -0.4391
1 29 13 -0.8819 0.9868
1 29 15 -6.6079 5.1804
1 29 17 -0.9689 -4.7509
1 29 19 1.3207 -0.4681
1 29 21 6.5866 -1.4689
1 29 23 -11.0894 -0.6956
1 29 25 3.9358 -0.2572
1 29 27 -21.0245 0.6465
1 29 29 -19.8195 0.7382
1 31 1 31.3387 -0.9065
1 31 3 1.7382 -2.3087
1 31 5 -2.6162 0.2869
1 31 7 -0.6518 2.8887
1 31 9 -8.2908 3.6012
1 31 11 20.4591 1.7214
1 31 13 12.3685 -3.3439
1 31 15 -3.4198 -6.7747
1 31 17 10.7881 7.1967
1 31 19 9.9623 2.9013
1 31 21 -11.7889 -3.2310
1 31 23 23.8368 -0.3225
1 31 25 -21.6985 -1.4258
1 31 27 -1.4023 2.6906
1 31 29 16.3898 -3.3488
1 31 31 3.3790 1.3337
1 33 1 -12.3612 0.6310
1 33 3 -13.0016 -2.9223
1 33 5 -10.1307 1.4417
1 33 7 9.8756 -2.7274
1 33 9 3.3300 2.8002
1 33 11 6.5135 0.6333
1 33 13 3.0846 3.4477
1 33 15 22.2642 -1.0356
1 33 17 1.1455 1.7686
1 33 19 -11.1883 -0.7335
1 33 21 -0.8822 -2.8616
1 33 23 -20.5418 0.8645
1 33 25 -8.4715 1.0066
1 33 27 26.3260 0.8882
1 33 29 23.3342 -0.7875
1 35 1 -33.2748 0.9025
1 35 3 28.7952 1.1760
1 35 5 0.2984 3.8661
1 35 7 16.5606 -2.2519
1 35 9 11.6387 -2.3703
1 35 11 -1.6170 -2.7253
1 35 13 19.4992 4.0921
1 35 15 7.9706 1.8078
1 35 17 -16.1848 -3.9474
1 35 19 8.0778 -1.5249
1 35 21 -7.2500 3.5327
1 35 23 -3.5348 2.9113
1 35 25 -0.7593 0.0942
1 35 27 -6.5343 -0.3358
1 37 1 16.4248 -1.9086
1 37 3 -14.1106 -0.3607
1 37 5 -2.5401 -2.9955
1 37 7 2.8561 2.1102
1 37 9 18.0669 -0.1281
1 37 11 1.9138 0.5921
1 37 13 -3.4711 -1.1930
1 37 15 5.6420 -4.1824
1 37 17 18.8443 2.4030
1 37 19 -10.9599 3.0818
1 37 21 11.7155 0.5782
1 37 23 4.5218 -0.5874
1 37 25 -8.5421 -0.5654
1 39 1 21.6975 1.1768
1 39 3 -6.3243 0.6292
1 39 5 -28.3894 -0.0542
1 39 7 -25.3871 1.0344
1 39 9 15.6562 -1.8551
1 39 11 -16.1912 -0.9576
1 39 13 -5.7843 0.3122
1 39 15 9.3256 0.0625
1 39 17 -8.2926 1.2954
1 39 19 15.7113 -0.1718
1 39 21 -8.2306 0.3874
1 41 1 -24.0050 1.3005
1 41 3 33.1661 0.0415
1 41 5 -16.3685 1.2598
1 41 7 13.2073 -0.3544
1 41 9 13.3699 -0.8259
1 41 11 -19.5805 1.3284
1 41 13 0.5468 -1.1345
1 41 15 12.1930 0.8705
1 41 17 -6.1969 -0.8228
1 41 19 1.6161 -0.2354
1 43 1 0.7086 -0.7870
1 43 3 -0.7559 -1.1672
1 43 5 9.2832 -0.1743
1 43 7 4.9517 1.7134
1 43 9 13.9411 -0.9206
1 43 11 -11.5184 1.7452
1 43 13 -20.3588 -2.7694
2 2 2 27.8361 4.5558
2 4 2 59.1228 -5.0416
2 4 4 -25.1799 -4.9373
2 6 2 -198.6743 -4.9286
2 6 4 -252.7752 4.2580
2 6 6 -52.9394 5.7842
2 8 2 -92.6202 21.1158
2 8 4 -78.2680 -17.3185
2 8 6 -61.4776 -1.9299
2 8 8 23.4743 1.9395
2 10 2 170.3609 24.3221
2 10 4 -197.6995 -14.6759
2 10 6 94.4652 3.6248
2 10 8 52.5911 1.7712
2 10 10 -69.2226 -6.7800
2 12 2 -106.1023 -10.9872
2 12 4 -1.2627 -1.6970
2 12 6 -44.5195 -3.5304
2 12 8 -27.9365 5.0171
2 12 10 -38.0859 9.8509
2 12 12 -85.7815 8.8769
2 14 2 95.2990 -21.4769
2 14 4 -99.8453 17.3703
2 14 6 12.1254 7.8480
2 14 8 -47.7853 2.8204
2 14 10 -14.7496 -13.5253
2 14 12 7.7228 -2.7557
2 14 14 43.8575 -9.3024
2 16 2 -3.6065 0.9883
2 16 4 -103.8153 -7.7508
2 16 6 -37.8702 -6.3352
2 16 8 -8.7609 4.4669
2 16 10 -10.9258 0.3730
2 16 12 -2.7256 -1.4875
2 16 14 23.1210 3.6767
2 16 16 -21.6290 7.9285
2 18 2 30.0417 19.1469
2 18 4 36.4169 -11.8392
2 18 6 -7.8378 -1.2603
2 18 8 17.6621 6.0950
2 18 10 16.6707 13.4272
2 18 12 -16.7607 -7.5973
2 18 14 16.6809 -7.3970
2 18 16 -2.6598 -1.3361
2 18 18 -13.4219 -2.9422
2 20 2 22.9416 2.1673
2 20 4 -61.0997 -5.2516
2 20 6 -7.4776 -1.1161
2 20 8 -28.6986 -2.9535
2 20 10 -2.7106 0.5885
2 20 12 -7.3544 2.8483
2 20 14 -22.5306 -5.4661
2 20 16 -18.7125 -3.2340
2 20 18 3.6149 0.2581
2 20 20 -48.2866 -0.6555
2 22 2 -3.3045 -16.5185
2 22 4 5.3812 8.3278
2 22 6 -8.6325 -0.7595
2 22 8 17.2567 -1.8904
2 22 10 1.2461 -3.6153
2 22 12 -3.7645 -2.4347
2 22 14 12.1904 -1.1746
2 22 16 -17.3077 -4.1538
2 22 18 -4.9183 -4.7528
2 22 20 -8.5134 1.8714
2 22 22 12.2420 6.1935
2 24 2 26.9138 -7.8876
2 24 4 -5.9533 4.1451
2 24 6 6.0356 -2.0133
2 24 8 -7.6338 -0.7334
2 24 10 -2.1514 1.4011
2 24 12 -8.8782 -6.1696
2 24 14 -11.3220 4.5995
2 24 16 -10.6391 2.3149
2 24 18 -15.6392 1.1956
2 24 20 -17.0296 1.2328
2 24 22 7.3452 -2.2149
2 24 24 -16.6219 -4.6240
2 26 2 -4.9262 6.1088
2 26 4 -9.0453 -1.5686
2 26 6 9.9349 9.3760
2 26 8 -5.2979 1.4010
2 26 10 17.2753 -2.0472
2 26 12 -1.2427 0.2273
2 26 14 -13.0405 1.7934
2 26 16 -1.5379 -4.8158
2 26 18 19.7810 1.7415
2 26 20 10.7214 0.3921
2 26 22 12.0447 -0.4035
2 26 24 -33.0235 3.0395
2 26 26 -0.2426 3.9441
2 28 2 -21.1473 9.9202
2 28 4 -18.0593 -5.0434
2 28 6 3.9806 -1.4804
2 28 8 5.1122 1.7604
2 28 10 -3.5665 4.8711
2 28 12 -16.8063 3.4672
2 28 14 -33.1974 0.7871
2 28 16 -16.5818 3.4906
2 28 18 -13.1056 2.3699
2 28 20 11.7424 -2.7583
2 28 22 -1.9030 0.2458
2 28 24 -8.3995 0.6942
2 28 26 23.0679 -0.1756
2 28 28 65.9236 -1.1589
2 30 2 62.4734 -2.7117
2 30 4 -14.4909 1.3875
2 30 6 2.9802 -1.8771
2 30 8 -3.4763 0.9644
2 30 10 -14.7157 -0.7387
2 30 12 -28.0820 1.1614
2 30 14 0.9306 0.9496
2 30 16 -55.8314 -2.4999
2 30 18 4.4059 -3.1153
2 30 20 16.9609 0.0944
2 30 22 -6.6223 2.0418
2 30 24 7.9330 1.6451
2 30 26 44.5010 2.2830
2 30 28 15.6513 -0.5951
2 30 30 54.7245 1.8990
2 32 2 -16.3600 -8.8749
2 32 4 -27.7423 3.8167
2 32 6 0.5731 -0.7693
2 32 8 -28.2024 -1.7521
2 32 10 -13.1070 -0.7613
2 32 12 5.2699 -0.8953
2 32 14 -52.8186 -1.5611
2 32 16 4.6333 -0.0926
2 32 18 11.3814 1.7021
2 32 20 -2.2609 0.3887
2 32 22 26.5214 1.4236
2 32 24 12.1630 -1.7270
2 32 26 12.2257 -2.0188
2 32 28 58.6906 -2.0528
2 32 30 -6.8933 0.8324
2 34 2 46.7760 0.1360
2 34 4 -30.1188 -1.3057
2 34 6 6.7525 1.5348
2 34 8 -0.3616 1.0857
2 34 10 -20.6373 2.2979
2 34 12 -8.7580 -2.7481
2 34 14 -6.9928 -2.6441
2 34 16 -34.6399 -0.4809
2 34 18 13.9254 -0.7944
2 34 20 12.3729 -2.5947
2 34 22 -21.6962 0.8246
2 34 24 6.4018 0.0302
2 34 26 12.8489 1.0615
2 34 28 1.6509 0.5591
2 36 2 -14.6406 6.4447
2 36 4 -15.0915 -5.4802
2 36 6 13.9043 -1.6184
2 36 8 0.5124 0.5773
2 36 10 -7.0927 1.1184
2 36 12 -5.4148 -1.5991
2 36 14 -28.5258 0.4317
2 36 16 -0.3657 0.9181
2 36 18 17.3311 1.4399
2 36 20 -9.1610 1.5650
2 36 22 15.5702 -3.4558
2 36 24 -2.0628 -1.2721
2 36 26 -9.3150 0.0101
2 38 2 -9.9345 0.8824
2 38 4 -5.9465 0.1841
2 38 6 7.6091 1.3805
2 38 8 -3.4218 0.7547
2 38 10 -8.1128 -0.1067
2 38 12 -1.0446 -0.2481
2 38 14 -16.2091 0.0758
2 38 16 -5.2262 -0.7768
2 38 18 15.5348 -2.0386
2 38 20 0.7092 -0.4697
2 38 22 -0.8123 -0.8924
2 38 24 9.9217 1.4628
2 40 2 14.3106 -2.0907
2 40 4 20.2264 -0.2384
2 40 6 -7.3186 -1.8281
2 40 8 3.7588 -0.6754
2 40 10 8.5615 0.5934
2 40 12 -3.8087 1.6089
2 40 14 19.7359 0.1053
2 40 16 -1.3766 0.5034
2 40 18 -13.0105 -0.3444
2 40 20 -5.0737 0.0928
2 42 2 11.1748 -1.8668
2 42 4 0.1993 0.8259
2 42 6 9.2604 0.2732
2 42 8 -12.5650 1.6835
2 42 10 -18.7474 -0.2975
2 42 12 6.8841 0.7340
2 42 14 -17.9557 -0.0064
2 42 16 7.8297 -1.5444
2 44 2 -26.2473 1.1003
2 44 4 -5.9845 -0.1860
2 44 6 11.6354 -0.3736
2 44 8 7.5228 0.5086
2 44 10 13.3944 0.2840
3 3 3 12.1335 17.0441
3 5 3 80.6589 17.7163
3 5 5 19.0627 -19.6338
3 7 3 -29.5859 6.7163
3 7 5 25.3009 21.8904
3 7 7 -62.3937 -0.8561
3 9 3 48.8248 11.6311
3 9 5 3.0333 18.9179
3 9 7 -57.3324 8.9786
3 9 9 -71.5409 8.6776
3 11 3 -29.2386 7.1568
3 11 5 -1.5751 5.1894
3 11 7 11.4050 3.3812
3 11 9 5.4884 8.0220
3 11 11 34.5913 -11.8196
3 13 3 8.6321 -14.2758
3 13 5 85.3558 -2.8406
3 13 7 3.9675 -22.0124
3 13 9 6.6922 -1.8683
3 13 11 -25.1292 -0.0257
3 13 13 -1.1304 -15.6159
3 15 3 -16.2031 -11.4105
3 15 5 4.4527 -0.5206
3 15 7 -3.1015 -16.7647
3 15 9 2.6975 -23.2208
3 15 11 -19.2145 -6.5605
3 15 13 -18.7197 0.6654
3 15 15 20.4075 -7.4097
3 17 3 -12.6598 18.5712
3 17 5 36.1692 0.5933
3 17 7 -40.6318 17.7700
3 17 9 -14.4341 19.6294
3 17 11 -22.8747 9.0448
3 17 13 -23.9622 -10.4212
3 17 15 -11.3249 -1.0497
3 17 17 -15.6734 -18.2651
3 19 3 -3.8112 11.1840
3 19 5 -17.0238 0.6854
3 19 7 -8.1385 12.0438
3 19 9 -4.2505 -10.7254
3 19 11 -0.8737 6.1906
3 19 13 11.7865 -10.5394
3 19 15 24.0575 6.9955
3 19 17 -4.1480 2.1245
3 19 19 3.8035 0.8436
3 21 3 -37.3508 -2.7489
3 21 5 -15.4929 1.4707
3 21 7 -36.9343 -2.4329
3 21 9 -6.2576 -5.6726
3 21 11 7.4742 -0.9887
3 21 13 -8.4197 2.6180
3 21 15 -16.5368 4.1055
3 21 17 -14.7841 -3.9965
3 21 19 8.8254 -1.6583
3 21 21 23.4701 -4.2442
3 23 3 12.1278 -4.9785
3 23 5 10.5844 0.3869
3 23 7 17.7497 -8.1378
3 23 9 -17.6601 12.9914
3 23 11 15.1197 -9.2024
3 23 13 17.0729 4.8753
3 23 15 -5.8964 3.7680
3 23 17 4.2981 -3.8743
3 23 19 -11.3609 5.3935
3 23 21 -35.6687 -1.3089
3 23 23 -3.7464 1.8448
3 25 3 -11.3691 -0.6425
3 25 5 -30.6349 -1.7631
3 25 7 -12.7071 -6.3308
3 25 9 3.0427 -0.3699
3 25 11 -15.6501 3.1889
3 25 13 -3.8182 0.3580
3 25 15 15.8637 -2.8018
3 25 17 -4.9696 -0.7826
3 25 19 -0.7847 -1.5802
3 25 21 8.9678 -4.1637
3 25 23 -48.2562 1.4486
3 25 25 9.9014 -0.3776
3 27 3 15.0758 5.4609
3 27 5 12.1347 -0.6109
3 27 7 1.7986 7.6005
3 27 9 14.2271 -2.0765
3 27 11 12.0867 4.4861
3 27 13 -15.3022 -4.0579
3 27 15 -4.4177 -4.8534
3 27 17 -1.4522 5.6697
3 27 19 7.4476 3.5408
3 27 21 1.5211 -0.1323
3 27 23 -1.1473 1.9850
3 27 25 13.8601 -2.6390
3 27 27 -7.9289 -2.8381
3 29 3 -12.6838 3.1310
3 29 5 12.6064 -1.9715
3 29 7 -25.9956 5.4132
3 29 9 -1.3753 6.5954
3 29 11 -30.1023 -1.3071
3 29 13 -10.2662 -3.6413
3 29 15 4.9196 -4.5775
3 29 17 -28.4842 2.9890
3 29 19 -10.7872 2.0222
3 29 21 4.0163 -5.0966
3 29 23 -5.7153 -3.9037
3 29 25 -6.4098 -0.0324
3 29 27 -5.0508 1.2326
3 29 29 -34.2975 0.9315
3 31 3 5.7601 -4.2847
3 31 5 11.8157 1.0416
3 31 7 3.0971 -5.2310
3 31 9 0.4818 -7.7206
3 31 11 -12.0821 -4.3188
3 31 13 10.9677 3.6927
3 31 15 15.3218 4.5833
3 31 17 -10.9033 -1.5054
3 31 19 4.8193 -4.9252
3 31 21 -18.8675 5.7929
3 31 23 -33.0695 1.8380
3 31 25 0.9333 0.6196
3 31 27 -24.5383 -1.5029
3 31 29 -15.4478 1.4297
3 31 31 3.5766 -5.6326
3 33 3 -9.5214 -0.8206
3 33 5 -4.1728 1.1415
3 33 7 -1.7816 -2.0732
3 33 9 0.4449 -2.0093
3 33 11 2.9379 0.4102
3 33 13 7.7896 1.8966
3 33 15 7.9158 2.1862
3 33 17 3.7359 -0.2285
3 33 19 9.9432 -1.4562
3 33 21 -19.5183 1.5228
3 33 23 1.6664 -2.8153
3 33 25 7.4350 1.8818
3 33 27 -7.1516 -0.2353
3 33 29 4.3579 1.5944
3 35 3 -33.8206 3.0701
3 35 5 28.1254 0.4883
3 35 7 9.9307 3.0871
3 35 9 -18.5563 2.8606
3 35 11 18.7119 2.6520
3 35 13 1.5096 -0.2664
3 35 15 -7.4401 0.0047
3 35 17 18.7761 -1.1353
3 35 19 -15.8320 2.6652
3 35 21 -21.6892 1.0846
3 35 23 16.5286 0.3242
3 35 25 -23.7484 0.2244
3 35 27 -16.4290 -2.3627
3 37 3 19.1372 2.7111
3 37 5 8.4469 -0.4297
3 37 7 -10.4237 -0.5438
3 37 9 4.4366 -0.3493
3 37 11 -29.1237 2.4784
3 37 13 -2.1074 -1.4095
3 37 15 4.1720 1.0106
3 37 17 -9.2112 -0.1894
3 37 19 -0.0476 1.0247
3 37 21 16.7602 -1.7403
3 37 23 1.9027 -1.4305
3 37 25 10.8814 -0.4471
3 39 3 7.9462 -0.9799
3 39 5 -1.9171 2.6636
3 39 7 -28.5686 -0.6011
3 39 9 -3.0290 1.1600
3 39 11 7.4966 -2.0105
3 39 13 13.3096 -0.2675
3 39 15 3.1628 1.3967
3 39 17 0.3811 0.3577
3 39 19 -10.4226 -0.9874
3 39 21 -10.1782 0.4232
3 41 3 -3.0042 -2.4860
3 41 5 24.9813 0.1499
3 41 7 -5.1670 -2.4718
3 41 9 -13.7563 1.1379
3 41 11 2.7384 -2.2169
3 41 13 -35.9838 1.5311
3 41 15 -2.9307 -1.6278
3 41 17 -11.3940 2.9727
3 43 3 -6.7003 -1.3882
3 43 5 -14.4512 0.6784
3 43 7 4.0753 -1.4793
3 43 9 27.9891 -1.2049
3 43 11 7.3266 -2.8600
3 43 13 0.5279 1.5305
4 4 4 549.4144 2.8836
4 6 4 58.2700 -23.4282
4 6 6 -104.5220 -2.9024
4 8 4 46.3889 -4.7270
4 8 6 108.2637 -5.8043
4 8 8 52.5276 -9.3967
4 10 4 104.4254 -17.5673
4 10 6 -60.0530 9.1844
4 10 8 -4.6671 -18.9770
4 10 10 -9.7680 13.0658
4 12 4 27.9830 -9.8697
4 12 6 -5.7845 -1.1081
4 12 8 25.9684 -5.5683
4 12 10 -23.7943 -8.4176
4 12 12 33.9086 -27.9624
4 14 4 -15.6697 43.0872
4 14 6 -37.4709 3.6921
4 14 8 3.0646 7.8524
4 14 10 -9.0304 18.2569
4 14 12 7.2769 -3.7170
4 14 14 61.5277 54.5454
4 16 4 67.2272 -11.9043
4 16 6 -33.8436 0.3570
4 16 8 31.7383 3.6578
4 16 10 42.5846 -1.6490
4 16 12 14.4200 -6.4614
4 16 14 -2.4886 0.3703
4 16 16 -2.5273 -12.4375
4 18 4 59.9127 -36.3741
4 18 6 22.6742 1.9877
4 18 8 10.9948 -8.1906
4 18 10 14.6310 -6.8157
4 18 12 1.4963 7.2856
4 18 14 27.3710 0.3199
4 18 16 6.9653 1.3933
4 18 18 -8.5793 26.0450
4 20 4 -0.4124 10.6713
4 20 6 -45.4754 -1.6339
4 20 8 4.7483 5.6659
4 20 10 12.6985 14.5788
4 20 12 13.6280 -0.2812
4 20 14 1.4669 7.7001
4 20 16 -11.2251 -2.7111
4 20 18 6.0177 -5.6330
4 20 20 2.4485 -4.9607
4 22 4 25.3135 0.7279
4 22 6 9.1300 -5.7025
4 22 8 -7.4417 3.5620
4 22 10 13.5949 -6.7597
4 22 12 2.2294 -1.0719
4 22 14 -7.7316 -2.1782
4 22 16 0.8560 -1.5438
4 22 18 7.4615 2.7772
4 22 20 -1.2231 5.1594
4 22 22 -0.0744 -2.4879
4 24 4 -22.6180 -2.0142
4 24 6 2.3508 -0.3462
4 24 8 26.2428 -1.3306
4 24 10 -10.2301 -2.1291
4 24 12 -2.0198 -1.5044
4 24 14 21.7530 -4.4224
4 24 16 5.1164 0.5224
4 24 18 -0.0016 3.9167
4 24 20 -19.6341 -3.4046
4 24 22 -20.3602 -1.3134
4 24 24 -17.2063 2.9292
4 26 4 -6.3286 4.0385
4 26 6 -0.0421 7.5234
4 26 8 21.9594 -1.8702
4 26 10 15.8486 6.2877
4 26 12 7.6052 -1.0260
4 26 14 24.7802 4.0537
4 26 16 29.7820 1.2943
4 26 18 5.0255 -3.7702
4 26 20 2.7751 -0.8311
4 26 22 -23.6632 0.1945
4 26 24 -12.8487 -1.2316
4 26 26 -12.1195 -10.0708
4 28 4 1.5290 -16.5783
4 28 6 -18.9793 -3.7108
4 28 8 -7.3541 -3.3009
4 28 10 2.7963 -2.0620
4 28 12 0.9646 -0.0371
4 28 14 20.5632 -3.4828
4 28 16 19.4517 1.0717
4 28 18 -22.1057 -0.3167
4 28 20 -12.4167 1.1529
4 28 22 0.1691 -1.3078
4 28 24 5.9162 1.5820
4 28 26 -0.4238 1.3361
4 28 28 21.6292 6.7930
4 30 4 0.6270 0.7051
4 30 6 -1.5640 2.1767
4 30 8 11.2458 -0.4497
4 30 10 9.3290 0.7011
4 30 12 -3.8190 3.5569
4 30 14 36.2143 -1.4615
4 30 16 -6.1799 0.8304
4 30 18 -21.3844 0.2207
4 30 20 4.5803 0.8682
4 30 22 -11.5417 2.5050
4 30 24 -7.9365 0.5161
4 30 26 -2.9055 -3.5314
4 30 28 7.5520 0.0406
4 30 30 22.7929 -3.4583
4 32 4 -9.6600 12.3208
4 32 6 -4.5573 -2.1390
4 32 8 -7.5115 2.2135
4 32 10 -9.9242 2.9682
4 32 12 18.0449 -1.6839
4 32 14 -20.8213 2.6790
4 32 16 4.5406 -0.3980
4 32 18 14.9211 -0.6755
4 32 20 9.6526 1.0041
4 32 22 -6.3379 -2.2514
4 32 24 6.3905 -1.2494
4 32 26 -21.5930 -0.2225
4 32 28 -2.7523 -0.5428
4 32 30 10.1906 0.4317
4 34 4 -29.7831 -7.6970
4 34 6 -17.1841 -0.6626
4 34 8 2.7608 1.2438
4 34 10 13.3356 -5.0823
4 34 12 13.5889 -2.5589
4 34 14 -2.9570 -0.9898
4 34 16 0.6998 -0.3534
4 34 18 8.1586 1.9645
4 34 20 14.5965 0.6867
4 34 22 3.8610 0.2932
4 34 24 11.0779 1.3505
4 34 26 4.7910 1.1114
4 34 28 0.0634 1.7796
4 36 4 -15.1174 -4.4621
4 36 6 10.2433 3.8918
4 36 8 -10.3470 -1.5213
4 36 10 -20.4803 -0.3921
4 36 12 16.2619 1.4874
4 36 14 -19.2238 -0.9093
4 36 16 7.4854 1.5978
4 36 18 12.5721 0.0125
4 36 20 -4.8404 -2.3198
4 36 22 26.0215 1.0063
4 36 24 4.5029 1.7145
4 36 26 -0.5900 -1.8537
4 38 4 27.2743 2.2757
4 38 6 -7.5181 -1.1162
4 38 8 -12.3057 0.6678
4 38 10 15.0175 0.5623
4 38 12 23.8040 1.2467
4 38 14 9.7895 1.1980
4 38 16 5.8531 0.3208
4 38 18 -7.5322 -2.8574
4 38 20 -7.8610 -0.2680
4 38 22 -10.6238 0.7771
4 38 24 -12.5569 0.4768
4 40 4 23.5077 -1.7985
4 40 6 32.9980 -3.4023
4 40 8 -10.4296 0.6149
4 40 10 -12.7012 -2.8060
4 40 12 5.4828 0.5271
4 40 14 -3.0970 -1.0757
4 40 16 -7.2409 -2.3450
4 40 18 -0.9060 2.1798
4 40 20 -22.6493 3.0701
4 42 4 -0.0050 3.5793
4 42 6 23.4493 1.4334
4 42 8 -9.8033 -0.3009
4 42 10 -4.4629 3.1079
4 42 12 1.0721 -0.8010
4 42 14 -16.0786 0.4186
4 42 16 11.6779 -0.3751
4 44 4 -7.7987 0.2329
4 44 6 9.9496 0.6918
4 44 8 -21.8369 0.5285
5 5 5 53.7122 25.1082
5 7 5 -28.8343 4.3933
5 7 7 4.8058 -12.4633
5 9 5 -15.1051 -31.4002
5 9 7 34.5592 4.7933
5 9 9 -18.7453 40.7725
5 11 5 -8.1952 8.5232
5 11 7 -4.5185 -2.1771
5 11 9 16.1519 -13.7930
5 11 11 57.4202 -14.8873
5 13 5 129.1664 26.7347
5 13 7 13.6222 3.5773
5 13 9 43.7669 32.0626
5 13 11 -10.4514 1.2740
5 13 13 47.5039 15.1480
5 15 5 -45.7827 6.1573
5 15 7 -14.6662 -2.4267
5 15 9 -31.6320 0.3710
5 15 11 -22.2743 -4.9050
5 15 13 -17.9841 9.6355
5 15 15 -24.6407 -1.8502
5 17 5 129.0594 4.7186
5 17 7 -19.3044 -4.7516
5 17 9 20.2800 -12.4884
5 17 11 -4.4006 6.4406
5 17 13 -1.1955 -4.9261
5 17 15 7.0796 -1.1928
5 17 17 10.4895 -10.9546
5 19 5 22.3531 -21.4941
5 19 7 1.9285 -0.9048
5 19 9 14.5166 -25.3606
5 19 11 -4.5011 -3.3902
5 19 13 22.2808 1.4233
5 19 15 15.8424 6.4855
5 19 17 -5.7303 -2.9615
5 19 19 2.3957 14.9794
5 21 5 18.1496 2.0462
5 21 7 2.5775 3.8447
5 21 9 0.7330 3.3751
5 21 11 17.3050 2.4447
5 21 13 4.2560 -4.7276
5 21 15 -17.4837 -4.6597
5 21 17 9.5807 -0.5401
5 21 19 -11.7463 -0.8623
5 21 21 -16.0011 -12.9132
5 23 5 -0.3723 30.5655
5 23 7 10.7305 2.9878
5 23 9 7.4505 7.1216
5 23 11 0.9477 7.1632
5 23 13 -4.6725 5.9102
5 23 15 7.8388 2.6564
5 23 17 -10.7477 0.8029
5 23 19 0.2556 0.7297
5 23 21 11.4315 0.3288
5 23 23 11.3900 17.5238
5 25 5 -21.6995 -10.6226
5 25 7 19.1930 2.9871
5 25 9 1.9257 -4.1346
5 25 11 4.5375 0.6059
5 25 13 -2.5197 -3.0126
5 25 15 -22.4973 -1.8468
5 25 17 -16.2842 -1.1535
5 25 19 -1.1280 1.3481
5 25 21 -25.9067 -0.3763
5 25 23 17.0188 1.7898
5 25 25 -3.0269 -4.4592
5 27 5 12.4303 -13.8340
5 27 7 -6.5868 -5.3133
5 27 9 -14.8863 -9.1738
5 27 11 -2.7008 -3.0216
5 27 13 -16.2836 0.2111
5 27 15 27.2500 8.0840
5 27 17 25.2239 -1.2681
5 27 19 12.4674 -0.5345
5 27 21 11.3927 5.2864
5 27 23 21.5971 3.7421
5 27 25 -0.8553 0.6526
5 27 27 3.9044 5.2115
5 29 5 -20.7654 8.2102
5 29 7 -1.9944 -1.0799
5 29 9 7.7232 1.2437
5 29 11 -12.4779 -0.6213
5 29 13 -2.1569 0.8018
5 29 15 15.8075 1.2371
5 29 17 -7.8331 -2.5715
5 29 19 -19.2211 -0.3329
5 29 21 4.0331 -1.8833
5 29 23 -5.4298 -1.3547
5 29 25 18.5482 -0.3061
5 29 27 -19.4576 0.8165
5 29 29 6.2845 0.8889
5 31 5 30.7163 1.6884
5 31 7 2.3352 2.7106
5 31 9 9.2587 4.4323
5 31 11 15.6489 -1.8908
5 31 13 0.8391 1.4124
5 31 15 5.8095 -1.9312
5 31 17 0.4947 -0.3497
5 31 19 8.3327 -0.3532
5 31 21 -19.7615 1.3837
5 31 23 25.4014 -0.9192
5 31 25 -16.8095 3.2651
5 31 27 -34.8773 -1.1429
5 31 29 -6.2222 0.0493
5 31 31 -9.1021 -1.5293
5 33 5 0.7870 6.5888
5 33 7 -12.7298 -1.8381
5 33 9 19.9418 6.8686
5 33 11 29.8688 0.4268
5 33 13 -0.7913 2.1989
5 33 15 6.3231 -4.6349
5 33 17 5.0135 0.0664
5 33 19 -5.1945 -0.6871
5 33 21 6.0129 -2.6009
5 33 23 2.7077 -3.6822
5 33 25 9.7089 1.7501
5 33 27 7.3196 0.2592
5 33 29 1.6298 1.7097
5 35 5 -40.2521 1.3808
5 35 7 -18.4298 -4.6801
5 35 9 20.9440 -3.5348
5 35 11 -13.7542 0.1762
5 35 13 12.9985 1.7810
5 35 15 17.8015 0.4939
5 35 17 0.3263 -0.6443
5 35 19 18.1199 -0.7449
5 35 21 27.1922 -0.1089
5 35 23 -7.6282 0.1305
5 35 25 28.5483 -2.2269
5 35 27 9.0658 -2.1221
5 37 5 1.9130 -9.1891
5 37 7 -29.6593 0.8038
5 37 9 -3.2309 -4.6600
5 37 11 28.2309 -0.3725
5 37 13 21.1638 -3.7989
5 37 15 16.7717 -2.0391
5 37 17 21.0680 0.9994
5 37 19 -7.2833 1.3324
5 37 21 -1.0798 0.5838
5 37 23 -10.4440 -1.4069
5 37 25 -24.5251 0.7015
5 39 5 1.4324 4.5994
5 39 7 -43.2881 2.2772
5 39 9 2.9689 0.8343
5 39 11 16.2680 1.2881
5 39 13 24.5655 1.1060
5 39 15 15.7133 0.2950
5 39 17 -8.6673 0.6879
5 39 19 10.9349 -0.6235
5 39 21 -24.3600 0.1333
5 41 5 6.1913 6.4789
5 41 7 16.6892 0.0641
5 41 9 -13.4666 3.0337
5 41 11 -25.5244 -0.0618
5 41 13 3.8144 0.0423
5 41 15 -5.3766 0.9609
5 41 17 -7.8357 0.5770
5 43 5 5.4373 -3.3863
5 43 7 -24.1438 0.1351
5 43 9 -11.5992 -0.2665
5 43 11 25.1530 0.3545
6 6 6 -48.5570 -11.6981
6 8 6 5.2796 -9.2748
6 8 8 -18.4704 3.4213
6 10 6 -98.9213 -7.7202
6 10 8 -37.3416 -3.5925
6 10 10 -80.6927 -9.2964
6 12 6 -47.2546 -15.0131
6 12 8 26.3043 14.0112
6 12 10 -18.0206 3.2971
6 12 12 45.4302 -19.0081
6 14 6 9.3497 -3.5251
6 14 8 45.5465 -20.2835
6 14 10 15.8352 1.4763
6 14 12 -23.0469 -2.8894
6 14 14 2.9864 5.4877
6 16 6 -13.1465 -3.1943
6 16 8 19.6763 7.1739
6 16 10 -14.9662 5.0550
6 16 12 -2.3426 -6.6135
6 16 14 1.1714 -0.0271
6 16 16 -19.1098 -5.1537
6 18 6 9.3674 4.1075
6 18 8 6.2402 8.6210
6 18 10 -0.7308 8.9559
6 18 12 15.1579 -1.9746
6 18 14 -0.0839 12.8165
6 18 16 15.8109 1.0532
6 18 18 6.0670 -12.2287
6 20 6 -16.9450 6.7200
6 20 8 -16.5259 -3.8261
6 20 10 -16.3835 5.0088
6 20 12 -14.2050 -9.9504
6 20 14 -0.9323 -6.7966
6 20 16 -18.2332 -1.3330
6 20 18 5.4197 3.3871
6 20 20 1.6357 -0.7506
6 22 6 -19.0165 -11.3926
6 22 8 20.6888 -1.4985
6 22 10 -3.6406 -5.9946
6 22 12 -0.6380 2.1486
6 22 14 3.9422 4.8443
6 22 16 12.1141 2.2865
6 22 18 14.7743 2.5810
6 22 20 -11.8537 -1.1270
6 22 22 5.0831 -11.0050
6 24 6 9.3585 -3.6552
6 24 8 -12.1063 -1.6077
6 24 10 9.3019 -2.0137
6 24 12 16.8965 -2.5060
6 24 14 -6.6769 2.1227
6 24 16 13.6644 -2.9860
6 24 18 3.2268 -4.4757
6 24 20 -13.7356 1.0733
6 24 22 12.8359 0.2055
6 24 24 13.2309 1.6444
6 26 6 -12.8053 7.0497
6 26 8 4.1555 0.1587
6 26 10 -12.7015 4.1230
6 26 12 -7.5564 0.8800
6 26 14 33.0255 -0.1307
6 26 16 2.4708 -0.8532
6 26 18 -21.0101 -0.7363
6 26 20 2.9559 1.5825
6 26 22 -17.9772 -4.7542
6 26 24 -15.9287 -1.7996
6 26 26 25.7574 -7.7806
6 28 6 -3.3960 0.9243
6 28 8 -14.5779 8.5497
6 28 10 -10.0403 -1.6564
6 28 12 5.6313 3.9670
6 28 14 -1.6516 -1.4056
6 28 16 25.3210 -3.1571
6 28 18 4.5886 -4.4065
6 28 20 -19.8953 -0.5732
6 28 22 2.1094 -2.0392
6 28 24 7.1318 2.7885
6 28 26 -33.5092 0.3761
6 28 28 29.2461 3.8259
6 30 6 -2.5680 -2.3914
6 30 8 -4.8540 -3.1554
6 30 10 18.7487 -1.6337
6 30 12 -1.3300 -0.6955
6 30 14 0.1382 -0.5305
6 30 16 -13.5597 1.8119
6 30 18 -10.4602 3.8121
6 30 20 1.1877 1.5311
6 30 22 15.1101 -1.8215
6 30 24 -10.3276 -0.4671
6 30 26 9.5988 -3.4663
6 30 28 0.2472 0.6184
6 30 30 41.2128 -1.4504
6 32 6 -8.1739 -3.5358
6 32 8 1.1219 -3.1438
6 32 10 13.9287 2.9646
6 32 12 -2.1379 -3.7846
6 32 14 5.7861 -2.1785
6 32 16 -8.7580 1.4803
6 32 18 10.8691 2.2062
6 32 20 6.5303 -1.3849
6 32 22 -1.9331 -0.0832
6 32 24 -9.3334 2.0962
6 32 26 -23.6215 -0.2291
6 32 28 -16.1340 0.7888
6 32 30 7.4011 -0.6209
6 34 6 -5.5727 0.3249
6 34 8 17.6868 3.3332
6 34 10 20.3354 -0.8837
6 34 12 7.6763 3.0415
6 34 14 -43.7959 1.0853
6 34 16 -8.4182 0.8583
6 34 18 3.2854 0.8328
6 34 20 7.7887 -0.1798
6 34 22 5.2711 3.7759
6 34 24 -14.5717 0.2196
6 34 26 -3.1557 -0.9567
6 34 28 14.4736 -0.6381
6 36 6 -12.9602 4.2035
6 36 8 12.9667 1.7907
6 36 10 22.0286 2.3173
6 36 12 -6.1294 0.5556
6 36 14 3.5301 0.7916
6 36 16 -0.0710 0.9010
6 36 18 -6.2747 -2.0914
6 36 20 26.0185 -1.6067
6 36 22 -2.0807 0.8531
6 36 24 -29.5559 1.4038
6 36 26 19.8668 0.5230
6 38 6 -25.2634 -1.3737
6 38 8 14.4247 0.0708
6 38 10 27.2853 0.6395
6 38 12 51.5987 -1.7531
6 38 14 20.8178 0.2722
6 38 16 -14.8103 0.7644
6 38 18 12.7773 -0.7407
6 38 20 -32.0278 3.7403
6 38 22 -33.5211 -0.5753
6 40 6 37.4875 -3.5955
6 40 8 -25.8201 0.9089
6 40 10 -9.5964 -2.9431
6 40 12 22.2255 1.4103
6 40 14 -9.4773 -1.4465
6 40 16 8.5111 -0.9126
6 40 18 -4.3380 1.1432
6 40 20 1.7004 1.3508
6 42 6 13.9287 0.2027
6 42 8 3.9072 -1.9780
6 42 10 -20.6297 -0.1149
6 42 12 -10.5482 -0.8640
6 42 14 5.6361 -0.3979
6 44 6 -16.0874 -0.0256
6 44 8 -3.1495 0.1505
7 7 7 -11.5047 7.3796
7 9 7 50.8711 14.1206
7 9 9 47.6793 0.6999
7 11 7 35.9085 11.0549
7 11 9 12.7191 0.1879
7 11 11 14.6404 6.7774
7 13 7 -18.7599 -11.9102
7 13 9 -19.9206 -8.3850
7 13 11 -6.5362 -4.2252
7 13 13 16.5306 -1.1887
7 15 7 -47.8190 -3.7038
7 15 9 -52.7068 1.3291
7 15 11 -17.2903 -2.6022
7 15 13 -17.3836 -3.9776
7 15 15 -8.3168 0.1821
7 17 7 -9.6529 12.7349
7 17 9 -13.8216 0.4838
7 17 11 10.0037 3.4444
7 17 13 6.0723 -8.6008
7 17 15 -8.3250 -5.7209
7 17 17 4.7047 10.2144
7 19 7 10.1881 15.0046
7 19 9 1.9823 -0.2380
7 19 11 -15.7052 3.5470
7 19 13 -9.5847 5.3317
7 19 15 3.0055 0.0955
7 19 17 5.7018 -5.8661
7 19 19 -18.8268 -0.1976
7 21 7 37.6848 -7.3770
7 21 9 -9.4604 6.9644
7 21 11 -15.6854 1.4946
7 21 13 5.1967 -4.8661
7 21 15 2.3494 -4.2106
7 21 17 -3.0708 4.1134
7 21 19 -27.2542 2.9658
7 21 21 -17.6090 5.3358
7 23 7 18.8384 -13.1287
7 23 9 47.3992 -2.4495
7 23 11 14.6259 -3.2010
7 23 13 -4.6527 2.8231
7 23 15 -12.2436 -4.0336
7 23 17 -9.5807 -0.4712
7 23 19 -36.8297 -5.1211
7 23 21 -5.5581 1.9009
7 23 23 38.5098 1.4904
7 25 7 -9.9213 5.7183
7 25 9 -8.1758 4.5682
7 25 11 11.4899 0.2168
7 25 13 8.0131 -5.0906
7 25 15 -9.5515 -0.6509
7 25 17 -6.1729 4.9002
7 25 19 9.5976 3.1768
7 25 21 51.4109 -0.8132
7 25 23 -19.6045 -2.5633
7 25 25 58.8781 2.5909
7 27 7 7.5569 10.9873
7 27 9 8.0741 -3.9925
7 27 11 -20.1698 0.8602
7 27 13 -15.1573 -0.1909
7 27 15 -7.8575 4.2267
7 27 17 0.4460 0.4333
7 27 19 6.1728 -0.7598
7 27 21 -12.3701 -1.9763
7 27 23 -29.5657 0.2895
7 27 25 -10.1328 -0.5569
7 27 27 0.2086 -2.1008
7 29 7 -11.1888 1.2270
7 29 9 9.0837 -2.0551
7 29 11 -5.7823 1.7733
7 29 13 3.4048 0.1718
7 29 15 -14.8266 -1.4387
7 29 17 10.7882 0.5548
7 29 19 19.9521 1.3650
7 29 21 3.2049 0.0198
7 29 23 -28.0944 2.7095
7 29 25 12.2982 0.1957
7 29 27 -2.1189 -1.1052
7 29 29 8.8714 -1.1453
7 31 7 -9.2819 -6.0479
7 31 9 4.1492 1.3842
7 31 11 6.3311 -0.4112
7 31 13 1.3767 2.7464
7 31 15 9.8021 1.6680
7 31 17 -16.6751 -0.2416
7 31 19 -9.6526 -4.0320
7 31 21 2.1204 0.6438
7 31 23 -3.6661 0.1509
7 31 25 16.8127 -0.8489
7 31 27 -0.3057 1.0262
7 31 29 -5.4337 1.0802
7 31 31 5.0201 1.2977
7 33 7 1.1441 -3.8727
7 33 9 7.5958 -0.5711
7 33 11 1.8826 -2.8180
7 33 13 -5.8926 -1.4680
7 33 15 -9.0739 -2.2982
7 33 17 -4.7662 0.7438
7 33 19 3.4417 1.1865
7 33 21 -1.6178 3.6484
7 33 23 0.2297 -0.1735
7 33 25 -1.1367 0.5478
7 33 27 -5.6512 1.0443
7 33 29 -3.2442 -0.8505
7 35 7 -6.5060 1.8062
7 35 9 0.9309 -1.0491
7 35 11 9.4887 -0.8198
7 35 13 -25.0310 -0.2383
7 35 15 -8.2079 0.6899
7 35 17 6.2478 -0.4031
7 35 19 18.8163 0.6382
7 35 21 9.3524 -0.2032
7 35 23 -23.6008 -2.1241
7 35 25 -27.3416 -0.7124
7 35 27 -15.8770 0.6891
7 37 7 -7.2901 3.5565
7 37 9 21.0103 2.1076
7 37 11 10.9971 0.8036
7 37 13 19.8679 -1.2007
7 37 15 3.2603 -0.0155
7 37 17 9.0372 -0.6359
7 37 19 -0.5456 0.5151
7 37 21 -12.9382 -1.8845
7 37 23 -39.1340 0.1313
7 37 25 -17.9649 0.9486
7 39 7 -56.9428 -1.5691
7 39 9 -41.5602 -1.1236
7 39 11 30.8658 -0.5214
7 39 13 10.8355 2.0096
7 39 15 6.1447 1.8126
7 39 17 5.1147 -1.0690
7 39 19 17.6920 -0.6344
7 39 21 -28.0291 0.1288
7 41 7 -27.7173 -1.7531
7 41 9 -50.3743 1.0282
7 41 11 4.7874 0.5294
7 41 13 17.9795 -0.4947
7 41 15 5.5211 -0.6472
7 43 7 -32.5882 0.8957
7 43 9 -0.6256 -0.7364
7 43 11 -6.2982 0.8859
8 8 8 -85.0557 6.2532
8 10 8 -60.1001 3.2790
8 10 10 -72.8764 6.9181
8 12 8 40.1288 -24.9132
8 12 10 -11.6920 -8.0749
8 12 12 34.5752 3.5024
8 14 8 48.8626 -9.0809
8 14 10 -3.2251 -2.2107
8 14 12 -6.2913 9.7768
8 14 14 7.3667 0.3529
8 16 8 25.1132 -2.9379
8 16 10 11.5870 -4.4414
8 16 12 9.6335 2.7710
8 16 14 17.0406 -4.6025
8 16 16 11.3012 9.1410
8 18 8 20.9576 5.4036
8 18 10 4.4703 -4.3633
8 18 12 12.2139 4.0641
8 18 14 5.5673 -5.1755
8 18 16 -0.2894 -0.1750
8 18 18 5.4891 -6.0946
8 20 8 -19.3346 18.9057
8 20 10 -23.6795 -0.5173
8 20 12 -22.1601 3.8256
8 20 14 -5.0966 8.2051
8 20 16 -3.2800 1.2647
8 20 18 12.7250 1.5479
8 20 20 -12.5191 1.0864
8 22 8 45.2659 -14.5304
8 22 10 7.5618 -5.0313
8 22 12 -1.5019 -4.7037
8 22 14 10.1904 1.1913
8 22 16 6.0634 3.1665
8 22 18 6.4245 -1.8630
8 22 20 3.9248 -0.4789
8 22 22 24.5939 9.9561
8 24 8 -8.0031 -9.7511
8 24 10 -9.4786 -0.1304
8 24 12 3.8846 -0.0493
8 24 14 7.4715 0.1164
8 24 16 2.7330 2.4314
8 24 18 1.2555 1.5197
8 24 20 -12.3154 0.6641
8 24 22 6.0824 2.7074
8 24 24 -4.0937 -1.7502
8 26 8 -2.5635 8.3269
8 26 10 -5.4424 1.7465
8 26 12 8.0124 4.7321
8 26 14 12.0391 1.2170
8 26 16 14.0149 -3.5926
8 26 18 3.2016 3.8070
8 26 20 -10.6927 1.6304
8 26 22 8.3737 -1.0138
8 26 24 11.1255 1.0682
8 26 26 9.3368 6.7739
8 28 8 21.0606 1.5518
8 28 10 -31.6056 4.2301
8 28 12 -5.6524 -1.4907
8 28 14 -20.1049 -5.2705
8 28 16 -17.5531 1.0370
8 28 18 -9.9933 1.5413
8 28 20 6.5401 0.3885
8 28 22 -5.7963 2.0045
8 28 24 -8.3369 -0.2734
8 28 26 9.6544 0.5054
8 28 28 -14.4326 0.0412
8 30 8 -0.9242 -2.4806
8 30 10 -5.6350 -1.7224
8 30 12 13.3775 -2.3485
8 30 14 15.3802 -1.6273
8 30 16 -16.0555 -0.3700
8 30 18 3.7516 1.1713
8 30 20 0.8377 1.5250
8 30 22 6.4926 -1.1634
8 30 24 19.3108 -2.3637
8 30 26 5.9525 2.0274
8 30 28 3.4292 -1.1899
8 30 30 18.2981 2.0744
8 32 8 -21.6571 -1.4948
8 32 10 -15.1641 -2.7102
8 32 12 11.1045 1.3659
8 32 14 0.6748 3.6261
8 32 16 30.8750 -0.9836
8 32 18 -8.2776 -2.4301
8 32 20 0.1288 -2.9779
8 32 22 36.7873 -0.0662
8 32 24 18.0906 0.8233
8 32 26 6.5034 -0.4387
8 32 28 25.2609 -2.1197
8 32 30 -1.1764 1.6645
8 34 8 10.6007 -6.8051
8 34 10 0.9666 -0.7163
8 34 12 13.9791 -0.8306
8 34 14 -8.0856 -0.0342
8 34 16 -11.5725 0.4154
8 34 18 -0.3600 -0.6620
8 34 20 2.4275 -0.4606
8 34 22 -9.8589 -0.0910
8 34 24 -7.8390 -1.9846
8 34 26 -12.4232 -2.1967
8 34 28 -5.2097 0.2577
8 36 8 14.9801 4.4563
8 36 10 -5.9483 0.4553
8 36 12 1.0055 1.3496
8 36 14 -8.2148 0.2574
8 36 16 3.5771 -0.1790
8 36 18 14.4498 -1.0520
8 36 20 -9.6973 0.3869
8 36 22 11.4560 -1.2824
8 36 24 -0.1430 0.4856
8 36 26 -29.4149 1.8742
8 38 8 -21.5914 2.4491
8 38 10 2.6602 -1.7568
8 38 12 -2.1920 2.5007
8 38 14 -22.9113 -0.8914
8 38 16 -6.5125 0.2898
8 38 18 -4.2802 1.8825
8 38 20 -18.0934 0.4381
8 38 22 -0.2781 -0.1753
8 40 8 -43.1317 -4.4951
8 40 10 -1.5045 0.6931
8 40 12 -0.0568 -1.2233
8 40 14 9.8492 -0.8192
8 40 16 -6.1723 1.9925
8 40 18 11.0731 -1.6063
8 42 8 -19.0544 -0.9368
8 42 10 -10.8663 -0.5173
8 42 12 1.3725 -0.6117
8 42 14 -19.8534 0.4311
9 9 9 114.9285 -32.0933
9 11 9 4.0793 16.0461
9 11 11 39.0025 -3.3223
9 13 9 4.2561 29.1119
9 13 11 -11.9327 14.5391
9 13 13 50.1043 -5.3024
9 15 9 21.7431 0.6424
9 15 11 4.6613 -1.9404
9 15 13 -5.3889 3.6169
9 15 15 30.5052 -0.0953
9 17 9 27.3830 2.7205
9 17 11 7.2356 4.6913
9 17 13 -0.1802 5.2213
9 17 15 -12.7435 12.3619
9 17 17 3.7832 15.2972
9 19 9 11.5477 -31.4364
9 19 11 7.3546 -4.2461
9 19 13 14.6521 -2.9355
9 19 15 6.5158 -5.8883
9 19 17 19.3051 0.2154
9 19 19 15.1417 -15.9411
9 21 9 27.1007 2.1429
9 21 11 -15.4940 4.7806
9 21 13 -12.8971 4.0456
9 21 15 17.2968 -4.8967
9 21 17 -2.8900 4.0406
9 21 19 -18.1266 0.4648
9 21 21 6.1452 12.1686
9 23 9 22.4685 38.4666
9 23 11 12.9404 3.5510
9 23 13 27.3865 4.6105
9 23 15 -19.3801 -1.4850
9 23 17 -1.1978 -5.1448
9 23 19 -5.1170 -10.4887
9 23 21 -4.7597 -3.2395
9 23 23 1.4727 -17.3914
9 25 9 2.0909 -8.9702
9 25 11 -4.8553 -4.6439
9 25 13 -2.0804 -2.9961
9 25 15 -11.1799 -3.2159
9 25 17 -8.8383 2.6983
9 25 19 -3.8385 -0.4306
9 25 21 -23.6680 2.5243
9 25 23 9.4155 -1.6993
9 25 25 -11.0046 4.6601
9 27 9 3.6038 -14.5710
9 27 11 8.2854 -4.9796
9 27 13 0.4288 1.3427
9 27 15 -7.3828 -0.6628
9 27 17 15.2309 -2.1940
9 27 19 4.0646 -6.8423
9 27 21 -3.4960 -1.7109
9 27 23 -11.6486 1.2196
9 27 25 8.6026 -2.0381
9 27 27 4.9220 -8.0471
9 29 9 3.5639 10.9364
9 29 11 5.7163 -1.1506
9 29 13 16.3143 2.0127
9 29 15 -24.5006 4.3357
9 29 17 -4.5008 1.0907
9 29 19 5.0917 1.6102
9 29 21 -38.9508 2.7358
9 29 23 -14.6114 -3.3745
9 29 25 -8.8700 1.2425
9 29 27 -1.1778 -0.7101
9 29 29 6.8450 -0.3792
9 31 9 -15.6548 2.7349
9 31 11 14.1930 2.1063
9 31 13 -19.7471 1.8134
9 31 15 6.3990 -1.6838
9 31 17 0.0650 -3.3722
9 31 19 -9.1725 -1.5192
9 31 21 -4.8573 0.9504
9 31 23 19.7072 0.3464
9 31 25 7.8384 0.4006
9 31 27 3.0441 0.9689
9 31 29 -12.0870 0.4811
9 31 31 6.2565 2.5433
9 33 9 -18.1064 7.2062
9 33 11 -10.7863 3.2828
9 33 13 -12.6237 -0.7252
9 33 15 -1.4897 -0.3642
9 33 17 -25.0128 1.8706
9 33 19 16.7088 3.1928
9 33 21 1.4507 -0.3044
9 33 23 22.5880 -0.2530
9 33 25 2.9356 1.1197
9 33 27 7.3831 1.2217
9 33 29 1.3281 -0.5400
9 35 9 -8.8538 2.2915
9 35 11 18.7304 -0.5851
9 35 13 -4.2443 -1.2034
9 35 15 -13.6479 1.8762
9 35 17 6.6940 -1.3251
9 35 19 -15.6689 1.0454
9 35 21 -2.7173 -1.6168
9 35 23 7.7296 0.3456
9 35 25 -4.3197 1.4841
9 35 27 -30.6098 1.3319
9 37 9 -7.7648 -9.9207
9 37 11 -30.2816 -0.8992
9 37 13 -11.3959 -1.9298
9 37 15 -3.5655 -0.8957
9 37 17 -24.9205 -0.4803
9 37 19 14.4149 2.8328
9 37 21 -20.1098 -0.2669
9 37 23 5.9719 5.3104
9 39 9 11.5394 3.1921
9 39 11 18.8439 1.6922
9 39 13 -3.2609 -0.1362
9 39 15 -5.5234 -0.2311
9 39 17 1.8654 -2.0674
9 39 19 -2.1633 -0.2222
9 41 9 -4.9033 7.5536
9 41 11 22.5669 -0.2903
9 41 13 8.5721 -1.3918
9 41 15 8.3494 -0.1712
9 43 9 8.6672 -4.6086
10 10 10 44.8783 -3.3521
10 12 10 -68.8148 5.2028
10 12 12 -9.3950 3.2876
10 14 10 -8.3231 12.1572
10 14 12 -24.6339 -18.1977
10 14 14 30.7321 -22.3223
10 16 10 -3.5171 -6.6960
10 16 12 -15.1633 2.9424
10 16 14 4.9480 1.0119
10 16 16 14.5437 6.5662
10 18 10 -4.2764 -17.4132
10 18 12 -1.3741 3.4204
10 18 14 10.7460 -16.8117
10 18 16 -18.9500 -1.4812
10 18 18 2.8523 -19.1484
10 20 10 -10.2059 0.4667
10 20 12 2.1002 -3.1873
10 20 14 -22.3652 3.1912
10 20 16 -16.6669 7.4564
10 20 18 -10.8635 -5.1514
10 20 20 13.1864 2.0411
10 22 10 18.0943 -3.4419
10 22 12 -11.4219 -2.9571
10 22 14 10.0136 -0.8434
10 22 16 -1.2528 -2.5444
10 22 18 0.0328 1.9346
10 22 20 9.0252 5.0473
10 22 22 10.9564 3.4253
10 24 10 -19.2634 1.5945
10 24 12 -10.4179 2.3849
10 24 14 13.5848 4.5402
10 24 16 -21.6710 3.0396
10 24 18 6.7309 2.7949
10 24 20 10.0346 1.4054
10 24 22 -24.1887 -0.2378
10 24 24 20.6290 -4.2232
10 26 10 -7.1215 -0.9448
10 26 12 1.5377 2.1380
10 26 14 -6.9837 3.3369
10 26 16 8.5730 -0.7070
10 26 18 13.4673 -2.7923
10 26 20 -13.5510 2.3589
10 26 22 -0.2420 3.2640
10 26 24 9.1855 2.2526
10 26 26 -10.0287 4.6568
10 28 10 -21.7698 -8.4417
10 28 12 -30.7496 3.7397
10 28 14 -26.8100 -2.0749
10 28 16 -16.1111 -0.8957
10 28 18 -5.0295 0.5299
10 28 20 0.3795 -0.9524
10 28 22 -4.8739 -1.8889
10 28 24 26.3683 -0.1874
10 28 26 -8.9654 0.8283
10 28 28 11.3325 -3.2815
10 30 10 12.1188 0.1112
10 30 12 3.3988 -1.1018
10 30 14 -5.1072 -1.8161
10 30 16 4.5400 -0.0759
10 30 18 27.0363 1.3689
10 30 20 -9.6764 -1.9090
10 30 22 14.1401 1.5903
10 30 24 19.5667 0.2479
10 30 26 -3.3210 1.2945
10 30 28 4.8372 -0.0127
10 30 30 4.5970 2.8196
10 32 10 -4.0645 4.4442
10 32 12 1.7233 -1.5458
10 32 14 -1.8349 1.4986
10 32 16 19.0279 1.3686
10 32 18 1.4802 1.1720
10 32 20 5.1015 -0.5918
10 32 22 -5.1509 0.0847
10 32 24 12.1388 -1.0908
10 32 26 -4.8039 -0.6066
10 32 28 6.0614 -2.8565
10 32 30 4.9282 -1.1950
10 34 10 10.4419 -2.3505
10 34 12 27.1877 1.5451
10 34 14 6.5679 -2.8372
10 34 16 10.9952 0.2636
10 34 18 -5.0018 -0.3747
10 34 20 10.1212 -0.3835
10 34 22 -0.2310 0.5763
10 34 24 8.5853 0.6155
10 34 26 -7.1394 -0.7867
10 34 28 17.2005 -0.2893
10 36 10 -24.9913 -1.9282
10 36 12 -9.1368 1.6692
10 36 14 11.2776 0.0083
10 36 16 -16.4534 0.4542
10 36 18 -11.0683 -0.3493
10 36 20 -7.7660 -1.6209
10 36 22 12.4142 -0.5648
10 36 24 34.1686 -0.8641
10 38 10 -19.5006 -0.0793
10 38 12 -3.3090 -2.1914
10 38 14 -15.2132 0.0886
10 38 16 12.5533 -0.0107
10 38 18 -1.4859 1.3198
10 38 20 13.7069 0.7684
10 38 22 28.4629 -0.8611
10 40 10 25.5026 -0.0028
10 40 12 -2.8439 0.4014
10 40 14 4.9319 2.0777
10 40 16 -4.6735 1.1199
10 42 10 -6.8651 2.2557
10 42 12 0.5535 1.5728
11 11 11 74.4643 -6.7435
11 13 11 -25.8672 -2.9313
11 13 13 14.7092 7.2642
11 15 11 10.8541 -2.8616
11 15 13 -1.5952 4.0017
11 15 15 -11.0897 4.5371
11 17 11 -3.4054 6.4263
11 17 13 -10.8419 -2.7937
11 17 15 -6.9162 -3.3848
11 17 17 -2.3534 10.4697
11 19 11 5.4652 4.9827
11 19 13 -1.8276 1.9067
11 19 15 -9.9034 -2.0813
11 19 17 9.7190 6.9466
11 19 19 7.1826 2.8719
11 21 11 12.6199 0.1372
11 21 13 -0.2795 -0.2026
11 21 15 -5.8183 -2.4705
11 21 17 -2.5514 5.6548
11 21 19 -0.8475 -0.6287
11 21 21 -31.1816 -0.3760
11 23 11 7.9776 -9.4382
11 23 13 -0.8374 -3.9800
11 23 15 11.3710 -3.2766
11 23 17 -11.7663 2.0728
11 23 19 4.2992 2.8831
11 23 21 1.3546 0.2856
11 23 23 -14.5622 5.7114
11 25 11 11.1886 3.6649
11 25 13 11.6740 1.0823
11 25 15 -20.3655 -0.4705
11 25 17 -6.0125 0.7453
11 25 19 22.2500 -0.5197
11 25 21 -24.3854 -1.3639
11 25 23 -7.6878 -2.1413
11 25 25 1.3615 -0.6225
11 27 11 31.9801 4.8978
11 27 13 8.7773 -2.2332
11 27 15 7.7130 -0.1907
11 27 17 18.2009 1.6221
11 27 19 5.6926 -0.1895
11 27 21 -15.7196 2.6190
11 27 23 -0.1302 1.0403
11 27 25 -20.7439 -0.3051
11 27 27 -1.8167 3.5530
11 29 11 5.0881 -2.7342
11 29 13 15.1672 -0.8957
11 29 15 -22.3172 1.7165
11 29 17 -6.8777 0.8928
11 29 19 12.3844 0.9082
11 29 21 -19.7720 -0.0891
11 29 23 -18.5967 -1.1957
11 29 25 -5.8746 -1.0106
11 29 27 -1.9546 0.2501
11 29 29 3.4532 -1.6268
11 31 11 25.9227 -4.2488
11 31 13 3.6714 1.2496
11 31 15 1.2019 -1.6777
11 31 17 21.6336 -0.5401
11 31 19 7.6638 -0.0051
11 31 21 -10.2714 -0.9100
11 31 23 -3.7922 0.6812
11 31 25 -12.1547 0.2224
11 31 27 -6.2287 1.0255
11 31 29 -2.3156 1.7677
11 31 31 -3.7774 5.0166
11 33 11 -14.5201 -0.7479
11 33 13 -12.7034 -2.5215
11 33 15 -15.4661 -0.1382
11 33 17 -3.2629 1.2927
11 33 19 34.4869 0.7901
11 33 21 3.0904 1.2459
11 33 23 6.5641 -0.9612
11 33 25 0.5059 -0.8812
11 33 27 5.6544 0.7386
11 35 11 -12.7747 0.5863
11 35 13 5.3929 0.1288
11 35 15 -5.8167 1.8857
11 35 17 -36.3076 -3.4985
11 35 19 16.0450 -1.3289
11 35 21 8.1263 1.1441
11 35 23 -3.4974 0.7370
11 35 25 30.4129 0.2442
11 37 11 -4.3175 2.6918
11 37 13 -1.3350 1.9803
11 37 15 -14.7176 1.8685
11 37 17 6.4170 0.3946
11 37 19 -24.8221 0.4487
11 37 21 -5.2424 -1.0060
11 37 23 22.3555 -0.3758
11 39 11 32.8171 -1.1448
11 39 13 -1.9154 -0.8491
11 39 15 11.2945 -0.2937
11 39 17 -10.8396 -1.8252
11 39 19 11.2906 -0.8580
11 41 11 4.8903 -2.8524
11 41 13 20.6245 0.5190
12 12 12 39.8719 -3.9539
12 14 12 28.2847 -3.0763
12 14 14 33.4197 -15.4841
12 16 12 21.5866 0.6614
12 16 14 34.2487 5.6446
12 16 16 -36.8414 -4.8543
12 18 12 28.6145 15.9641
12 18 14 -8.1097 4.0944
12 18 16 -7.4699 1.9337
12 18 18 -3.9660 -7.3099
12 20 12 -20.3024 10.3227
12 20 14 9.1262 0.8231
12 20 16 -20.0609 -0.5894
12 20 18 -25.0245 0.5794
12 20 20 -35.1595 -3.1188
12 22 12 8.7924 -13.7981
12 22 14 17.2342 4.0603
12 22 16 -12.4625 -4.1690
12 22 18 -7.7024 -1.9711
12 22 20 -10.9705 -1.0581
12 22 22 -4.7301 -5.0489
12 24 12 14.6164 -11.8539
12 24 14 -26.3680 -0.4755
12 24 16 -0.7940 -0.8630
12 24 18 0.8987 -1.5790
12 24 20 -12.7678 -1.2844
12 24 22 15.3832 -0.7582
12 24 24 -8.8924 0.2195
12 26 12 -27.3048 8.5685
12 26 14 -0.9306 -5.4872
12 26 16 -14.6098 1.5153
12 26 18 2.2917 1.1185
12 26 20 -5.9173 -1.1258
12 26 22 -3.0658 -5.3660
12 26 24 4.2050 0.8000
12 26 26 24.4961 -5.0956
12 28 12 5.5058 7.5393
12 28 14 -31.8698 0.2950
12 28 16 0.8791 0.7445
12 28 18 16.7511 -4.1868
12 28 20 -4.0533 1.6000
12 28 22 10.7451 -3.7116
12 28 24 9.3558 0.8316
12 28 26 -0.9905 0.5953
12 28 28 16.6853 0.2460
12 30 12 5.8095 -1.7376
12 30 14 -13.4746 0.7591
12 30 16 -23.1874 -1.8000
12 30 18 -8.4877 -0.4188
12 30 20 -43.3140 -0.1436
12 30 22 -5.1611 2.0131
12 30 24 -26.8251 1.6446
12 30 26 10.7611 -1.7166
12 30 28 3.1508 -1.5919
12 30 30 9.3262 -1.5377
12 32 12 33.1761 -5.8677
12 32 14 67.8249 2.4285
12 32 16 36.8240 -1.7930
12 32 18 43.5742 4.0362
12 32 20 3.5478 -1.5798
12 32 22 -3.1955 0.5979
12 32 24 -0.5015 1.0207
12 32 26 0.1718 0.1180
12 32 28 8.9444 0.6784
12 34 12 13.1136 -0.3010
12 34 14 1.2832 1.3870
12 34 16 -18.8815 0.3905
12 34 18 -8.0955 -0.7343
12 34 20 -13.1318 0.0960
12 34 22 -22.0073 -0.6605
12 34 24 -9.9635 -0.3142
12 34 26 -10.9399 0.3177
12 36 12 -1.2596 3.2145
12 36 14 7.5269 -2.3304
12 36 16 3.4041 0.9357
12 36 18 -14.9366 -0.5327
12 36 20 3.8962 1.7013
12 36 22 7.0601 1.2487
12 36 24 -3.7683 0.4990
12 38 12 -5.6184 2.3767
12 38 14 10.0603 -1.7742
12 38 16 -5.1722 -0.9737
12 38 18 -5.7355 0.2725
12 38 20 -29.1340 -2.2924
12 40 12 4.7259 -2.8910
12 40 14 -15.6688 0.6859
12 40 16 8.4280 -0.3460
13 13 13 12.6047 12.1420
13 15 13 -7.6033 -1.7933
13 15 15 -18.1495 4.9755
13 17 13 13.0715 5.3514
13 17 15 -20.1360 -1.0004
13 17 17 5.0390 -4.3982
13 19 13 -10.9175 -8.3805
13 19 15 4.6393 0.4053
13 19 17 11.1763 -1.4266
13 19 19 20.2616 10.5035
13 21 13 -5.3073 -3.4907
13 21 15 -14.6428 -0.5577
13 21 17 13.3273 -8.3440
13 21 19 -1.0202 -0.9030
13 21 21 3.7916 -10.7836
13 23 13 0.8903 15.7773
13 23 15 -23.9517 5.4695
13 23 17 -1.9666 -1.6333
13 23 19 1.4911 3.5899
13 23 21 -12.0769 -2.0811
13 23 23 -17.2616 12.7068
13 25 13 -18.5920 -7.4353
13 25 15 -4.1605 1.4394
13 25 17 12.9854 -3.7255
13 25 19 -1.3799 -1.4342
13 25 21 11.7509 2.3697
13 25 23 -13.0910 3.0720
13 25 25 10.9465 -3.6458
13 27 13 9.7266 -4.4440
13 27 15 5.4939 2.1154
13 27 17 6.4079 3.5292
13 27 19 16.3096 4.3261
13 27 21 10.4774 3.7372
13 27 23 8.2381 1.0582
13 27 25 -0.0197 1.0768
13 27 27 1.2264 1.0536
13 29 13 21.1194 6.1737
13 29 15 -26.1443 -0.0136
13 29 17 -22.1709 1.9018
13 29 19 -2.0862 0.1389
13 29 21 2.0587 -1.2758
13 29 23 -11.3530 -0.6311
13 29 25 -4.3348 -1.4126
13 29 27 -6.9064 0.5363
13 29 29 -4.8206 2.3767
13 31 13 23.9172 -1.8648
13 31 15 -0.5791 0.2153
13 31 17 -14.4320 -2.7168
13 31 19 -15.5056 -1.7417
13 31 21 -4.1604 -0.1963
13 31 23 9.3374 0.3797
13 31 25 -0.9660 -1.6953
13 31 27 23.4538 1.5685
13 31 29 -11.5961 -0.2490
13 33 13 34.1613 1.1771
13 33 15 29.5953 -0.1561
13 33 17 -3.1841 -4.2622
13 33 19 40.8390 -1.5019
13 33 21 4.9400 -2.3490
13 33 23 23.9251 -1.1023
13 33 25 32.7255 -1.5538
13 33 27 12.6883 0.4540
13 35 13 -30.8653 2.9371
13 35 15 -18.5238 -1.3388
13 35 17 -8.7201 2.2626
13 35 19 -5.7050 1.8908
13 35 21 4.3631 0.5244
13 35 23 4.1695 1.0109
13 35 25 7.8978 0.6675
13 37 13 12.1817 -3.8204
13 37 15 10.3010 0.1084
13 37 17 -10.1399 2.7248
13 37 19 3.3367 0.2736
13 37 21 -10.8092 1.1056
13 39 13 -16.8715 3.2295
13 39 15 -0.5537 1.3358
13 39 17 6.4208 0.0026
14 14 14 2.0146 7.0802
14 16 14 2.5753 -3.3168
14 16 16 4.2581 -7.4894
14 18 14 31.4551 -17.6090
14 18 16 8.2539 5.0037
14 18 18 -2.3039 12.7089
14 20 14 16.6649 10.3171
14 20 16 20.6911 0.2412
14 20 18 5.2258 -5.5247
14 20 20 1.0899 -1.8987
14 22 14 -9.6441 8.4373
14 22 16 -14.3787 -2.8517
14 22 18 15.6704 11.2833
14 22 20 -23.8126 -2.5876
14 22 22 -10.7414 3.3044
14 24 14 0.1941 5.1879
14 24 16 3.1633 -1.8320
14 24 18 -12.5980 2.4741
14 24 20 2.7911 -2.6408
14 24 22 -36.4599 -0.2935
14 24 24 -6.6736 2.4409
14 26 14 -20.8521 0.1059
14 26 16 15.1381 0.9662
14 26 18 -2.1534 -3.8333
14 26 20 -9.3512 0.8900
14 26 22 -4.6361 -2.9358
14 26 24 18.9180 -2.9364
14 26 26 11.6052 -3.9035
14 28 14 -20.9645 -13.2861
14 28 16 -14.1950 -2.4099
14 28 18 5.3769 -3.7974
14 28 20 17.1057 -1.3960
14 28 22 -4.4742 3.3737
14 28 24 15.2905 4.6233
14 28 26 21.3976 0.4223
14 28 28 0.4459 4.9823
14 30 14 11.7605 1.4673
14 30 16 1.0173 -0.1087
14 30 18 -8.7316 3.1428
14 30 20 -4.5277 -0.2279
14 30 22 -11.4875 -0.3221
14 30 24 2.5607 -1.6031
14 30 26 11.4755 -1.6066
14 30 28 10.6635 -1.7849
14 30 30 8.9537 -2.4762
14 32 14 64.3886 10.5015
14 32 16 56.8610 3.1987
14 32 18 -5.2962 2.8992
14 32 20 -21.3545 3.6161
14 32 22 -7.0197 2.4066
14 32 24 -0.9898 0.0131
14 32 26 -5.8447 1.5686
14 32 28 11.3624 -1.9326
14 34 14 44.7295 -5.1321
14 34 16 32.3534 1.0519
14 34 18 -6.5238 0.6946
14 34 20 1.9794 -1.4139
14 34 22 -14.5027 -2.1434
14 34 24 -0.4352 0.7062
14 34 26 -11.3465 1.3119
14 36 14 14.7176 -4.1197
14 36 16 -2.3695 -0.5690
14 36 18 -9.0562 -1.7392
14 36 20 -7.2896 -1.7973
14 36 22 2.1912 0.8884
14 38 14 -13.6103 -0.0731
14 38 16 11.8335 -0.8369
14 38 18 -12.1028 -2.0072
14 38 20 4.0032 -0.3561
15 15 15 6.7458 8.2918
15 17 15 0.1191 -7.0168
15 17 17 -14.9244 -1.8040
15 19 15 7.7742 -4.3468
15 19 17 -1.2922 6.6545
15 19 19 -0.3629 5.0918
15 21 15 -46.5788 -2.6753
15 21 17 -15.9994 2.0194
15 21 19 15.8531 0.1812
15 21 21 -10.9695 -6.5777
15 23 15 -51.3119 3.5770
15 23 17 21.8456 -3.3627
15 23 19 11.3951 6.0535
15 23 21 -11.0156 -0.6792
15 23 23 -10.3717 3.0076
15 25 15 8.8880 0.1472
15 25 17 -4.0138 -1.7891
15 25 19 -8.0728 -0.0494
15 25 21 -15.7757 -1.9525
15 25 23 -11.2080 3.1518
15 25 25 -11.3167 0.2654
15 27 15 -18.6157 2.4327
15 27 17 -9.8718 2.3828
15 27 19 10.2335 -0.7187
15 27 21 11.3265 -1.9485
15 27 23 5.1817 -1.8855
15 27 25 6.3856 -2.2403
15 27 27 -28.6964 -5.0237
15 29 15 -15.8279 0.4505
15 29 17 15.1562 -0.8279
15 29 19 24.9908 -0.8862
15 29 21 4.8564 -0.2563
15 29 23 15.3143 -3.0985
15 29 25 -4.9863 1.6569
15 29 27 6.7956 2.4453
15 29 29 -14.6803 2.4572
15 31 15 8.4216 0.2316
15 31 17 -2.5715 -1.6900
15 31 19 -36.2007 0.8723
15 31 21 -0.7423 -2.2875
15 31 23 -18.0920 0.6832
15 31 25 1.6867 1.5184
15 31 27 -9.1081 1.1423
15 33 15 60.1448 1.6370
15 33 17 -0.6853 -4.0897
15 33 19 11.0093 0.2716
15 33 21 -5.4175 -0.3053
15 33 23 5.0046 2.1421
15 33 25 -16.6853 -0.2650
15 35 15 16.6643 -0.3013
15 35 17 9.6998 2.0099
15 35 19 -22.6125 1.1179
15 35 21 4.9975 2.4655
15 35 23 -4.9777 -1.4202
15 37 15 7.4957 -0.6757
15 37 17 -12.6446 0.9827
15 37 19 10.1100 -1.3753
15 37 21 -10.7516 0.8139
15 39 15 0.1538 0.2345
16 16 16 -1.7264 4.2896
16 18 16 -18.7123 4.0886
16 18 18 1.0473 -5.3905
16 20 16 6.7546 0.5193
16 20 18 -5.5877 -4.9395
16 20 20 -7.7299 -1.0417
16 22 16 -18.2503 -5.9036
16 22 18 22.5074 1.5083
16 22 20 8.1920 0.5068
16 22 22 -5.9816 -3.7215
16 24 16 18.9393 -1.7078
16 24 18 30.8432 0.7395
16 24 20 -14.2102 -0.0204
16 24 22 -5.9144 -1.5827
16 24 24 -4.9511 -1.7275
16 26 16 -39.6581 2.4145
16 26 18 -11.9442 2.4670
16 26 20 -12.8384 2.3063
16 26 22 -3.5187 -0.3591
16 26 24 8.9841 2.3291
16 26 26 17.9032 2.7219
16 28 16 22.7946 3.7664
16 28 18 11.7684 -0.6013
16 28 20 6.8994 0.0918
16 28 22 -5.5774 -0.3709
16 28 24 15.9358 0.0177
16 28 26 10.8404 -1.1198
16 28 28 22.1226 -1.0164
16 30 16 54.2101 -2.8340
16 30 18 49.2542 1.5515
16 30 20 -27.2124 0.1835
16 30 22 16.8009 1.2138
16 30 24 4.6616 -0.7343
16 30 26 15.7483 -0.1466
16 30 28 4.9133 -0.0299
16 32 16 55.3011 -5.0872
16 32 18 -6.5353 1.7516
16 32 20 -13.1064 -1.2429
16 32 22 -12.6427 0.0671
16 32 24 -17.1537 -1.9087
16 32 26 -27.9775 -1.8567
16 34 16 45.3826 1.0824
16 34 18 -24.7663 -0.3716
16 34 20 0.0610 -1.2041
16 34 22 4.9369 -0.8169
16 34 24 -11.8532 0.4054
16 36 16 13.4736 3.0631
16 36 18 -3.7397 -3.2772
16 36 20 -15.7594 -0.3871
16 36 22 12.1079 0.9959
16 38 16 -9.7446 -0.6903
17 17 17 2.5020 2.6852
17 19 17 -6.5454 -1.5429
17 19 19 12.4188 7.8665
17 21 17 15.9768 -7.9490
17 21 19 10.4111 -4.0052
17 21 21 33.5910 3.6100
17 23 17 10.9024 -4.9979
17 23 19 16.4821 -1.5883
17 23 21 28.1439 0.3716
17 23 23 15.9090 1.2741
17 25 17 -10.5415 -4.4662
17 25 19 4.6294 -3.9547
17 25 21 -6.8341 1.6265
17 25 23 19.0321 -1.0516
17 25 25 6.8023 3.3019
17 27 17 -42.2070 6.1872
17 27 19 -17.3139 -0.4882
17 27 21 3.7983 4.2000
17 27 23 12.1613 -2.5094
17 27 25 -10.9950 -0.2745
17 27 27 6.6008 0.3842
17 29 17 22.3851 6.6813
17 29 19 4.0415 -1.7172
17 29 21 -6.1028 2.4266
17 29 23 6.3280 3.6945
17 29 25 4.3587 0.0033
17 29 27 -1.9097 -0.4108
17 29 29 -13.3652 -1.2348
17 31 17 32.5558 -4.0560
17 31 19 4.3718 -1.2024
17 31 21 4.6365 -1.6368
17 31 23 17.7450 -1.4486
17 31 25 -3.9819 0.7973
17 31 27 8.0890 -0.3945
17 33 17 -10.2543 -2.0643
17 33 19 5.2279 0.2853
17 33 21 15.8093 1.1589
17 33 23 -5.8674 1.4346
17 33 25 -3.0132 1.6645
17 35 17 2.3862 3.8091
17 35 19 18.7868 2.2754
17 35 21 11.9841 0.1370
17 37 17 12.2683 1.4840
17 37 19 -16.3999 1.8213
18 18 18 44.5386 -4.8317
18 20 18 1.8392 4.7520
18 20 20 18.0359 -1.9705
18 22 18 35.3102 4.2777
18 22 20 5.8915 0.9724
18 22 22 48.2749 -0.5128
18 24 18 6.6440 1.3181
18 24 20 1.7154 -1.6544
18 24 22 -7.2835 2.0553
18 24 24 -3.5843 -3.3604
18 26 18 -21.5399 4.1257
18 26 20 20.5007 0.8330
18 26 22 2.7311 -0.1475
18 26 24 -7.4860 2.3708
18 26 26 13.9999 3.1552
18 28 18 -12.7313 -9.1161
18 28 20 -28.4805 -0.1533
18 28 22 4.2211 -2.0224
18 28 24 1.1459 -2.0786
18 28 26 -11.8334 0.8513
18 28 28 5.0097 -2.6801
18 30 18 -12.5219 2.3197
18 30 20 13.9082 0.2780
18 30 22 3.0192 0.7149
18 30 24 4.8888 0.9487
18 30 26 16.6317 0.0745
18 32 18 7.0959 4.6274
18 32 20 10.6441 0.1436
18 32 22 1.3423 -1.0846
18 32 24 9.8544 -1.6979
18 34 18 -15.0324 -6.5122
18 34 20 -8.5550 0.8557
18 34 22 -3.5722 -0.0836
18 36 18 -12.9902 -2.0162
18 36 20 21.5017 0.7632
19 19 19 15.3497 -2.3096
19 21 19 -7.4511 3.0354
19 21 21 41.4056 4.3165
19 23 19 -19.2701 5.2430
19 23 21 -12.7742 -1.6166
19 23 23 14.1564 -9.4349
19 25 19 -38.3618 -3.1477
19 25 21 3.8029 0.4850
19 25 23 -29.9282 1.6914
19 25 25 -7.6413 3.3583
19 27 19 -20.8054 -8.1229
19 27 21 4.1514 0.1563
19 27 23 1.1558 -5.3631
19 27 25 -9.0750 0.2881
19 27 27 -12.9330 -4.0276
19 29 19 -28.9262 -1.1164
19 29 21 14.6176 1.1207
19 29 23 -7.0014 -0.5224
19 29 25 -5.3990 1.4099
19 29 27 -9.5715 -2.2246
19 31 19 23.1578 2.3825
19 31 21 23.1536 0.2575
19 31 23 -13.0059 -0.3442
19 31 25 6.3750 2.0680
19 33 19 29.2073 3.2186
19 33 21 5.4029 -2.0436
19 33 23 -22.3901 -0.0054
19 35 19 -0.3798 -1.3939
19 35 21 -4.5332 -0.3743
20 22 20 -4.6035 1.4078
20 22 22 -7.0041 1.6661
20 24 20 -22.9182 2.6762
20 24 22 -28.7146 1.3001
20 24 24 -26.7813 1.5991
20 26 20 16.4661 2.0111
20 26 22 8.4987 -1.4721
20 26 24 6.6549 -1.6117
20 26 26 11.3161 4.2705
20 28 20 -10.1658 -0.1882
20 28 22 -2.7584 1.6660
20 28 24 -11.1118 1.6753
20 28 26 9.8886 1.5212
20 30 20 17.3490 -1.0385
20 30 22 -5.4499 -2.2417
20 30 24 10.0333 -1.1488
20 30 26 -3.3283 -0.2058
20 32 20 -0.5879 -0.0597
20 32 22 0.6051 4.0529
20 32 24 -6.2628 0.5339
20 34 20 -3.5069 1.6841
21 21 21 14.7192 -2.0808
21 23 21 -13.4993 -0.7755
21 23 23 -10.3205 -3.8295
21 25 21 -15.6533 0.0865
21 25 23 -16.9095 1.3059
21 25 25 16.5015 -2.6721
21 27 21 -3.0168 5.7760
21 27 23 1.3747 1.6546
21 27 25 13.8200 -0.4462
21 27 27 7.3738 -0.8637
21 29 21 -26.1732 3.6600
21 29 23 8.1282 1.4474
21 29 25 -0.8457 -0.7852
21 31 21 0.0222 -5.7251
21 31 23 -16.5297 -1.5651
22 22 22 -14.0266 0.8799
22 24 22 -10.2804 0.2301
22 24 24 4.5826 0.2358
22 26 22 -8.2424 1.8771
22 26 24 0.2535 -0.3779
22 26 26 10.3903 -1.2476
22 28 22 -30.4166 -2.5544
22 28 24 7.9809 -0.0631
22 28 26 -26.4499 -1.3802
22 30 22 -15.6489 -0.2451
22 30 24 -11.8275 0.0640
23 23 23 16.3065 4.1190
23 25 23 6.8978 -3.4769
23 25 25 -15.0084 -2.2826
23 27 23 6.1728 -3.1258
23 27 25 5.3591 1.8472
23 29 23 2.5580 2.1650
24 24 24 10.9492 2.0667
24 26 24 -1.9190 -0.4289
24 28 24 -29.2085 -2.2718
0 0 0 0.0 0.0
;
_shelx_fab_checksum              71816
loop_
_space_group_symop_operation_xyz
'x, y, z'
'-y, x, z'
'-x, -y, z'
'y, -x, z'
'x, -z, y'
'x, -y, -z'
'x, z, -y'
'z, y, -x'
'-x, y, -z'
'-z, y, x'
'z, x, y'
'y, z, x'
'-y, -z, x'
'z, -x, -y'
'-y, z, -x'
'-z, -x, y'
'-z, x, -y'
'y, -z, -x'
'y, x, -z'
'-y, -x, -z'
'-x, z, y'
'-x, -z, -y'
'z, -y, x'
'-z, -y, -x'
'x, y+1/2, z+1/2'
'-y, x+1/2, z+1/2'
'-x, -y+1/2, z+1/2'
'y, -x+1/2, z+1/2'
'x, -z+1/2, y+1/2'
'x, -y+1/2, -z+1/2'
'x, z+1/2, -y+1/2'
'z, y+1/2, -x+1/2'
'-x, y+1/2, -z+1/2'
'-z, y+1/2, x+1/2'
'z, x+1/2, y+1/2'
'y, z+1/2, x+1/2'
'-y, -z+1/2, x+1/2'
'z, -x+1/2, -y+1/2'
'-y, z+1/2, -x+1/2'
'-z, -x+1/2, y+1/2'
'-z, x+1/2, -y+1/2'
'y, -z+1/2, -x+1/2'
'y, x+1/2, -z+1/2'
'-y, -x+1/2, -z+1/2'
'-x, z+1/2, y+1/2'
'-x, -z+1/2, -y+1/2'
'z, -y+1/2, x+1/2'
'-z, -y+1/2, -x+1/2'
'x+1/2, y, z+1/2'
'-y+1/2, x, z+1/2'
'-x+1/2, -y, z+1/2'
'y+1/2, -x, z+1/2'
'x+1/2, -z, y+1/2'
'x+1/2, -y, -z+1/2'
'x+1/2, z, -y+1/2'
'z+1/2, y, -x+1/2'
'-x+1/2, y, -z+1/2'
'-z+1/2, y, x+1/2'
'z+1/2, x, y+1/2'
'y+1/2, z, x+1/2'
'-y+1/2, -z, x+1/2'
'z+1/2, -x, -y+1/2'
'-y+1/2, z, -x+1/2'
'-z+1/2, -x, y+1/2'
'-z+1/2, x, -y+1/2'
'y+1/2, -z, -x+1/2'
'y+1/2, x, -z+1/2'
'-y+1/2, -x, -z+1/2'
'-x+1/2, z, y+1/2'
'-x+1/2, -z, -y+1/2'
'z+1/2, -y, x+1/2'
'-z+1/2, -y, -x+1/2'
'x+1/2, y+1/2, z'
'-y+1/2, x+1/2, z'
'-x+1/2, -y+1/2, z'
'y+1/2, -x+1/2, z'
'x+1/2, -z+1/2, y'
'x+1/2, -y+1/2, -z'
'x+1/2, z+1/2, -y'
'z+1/2, y+1/2, -x'
'-x+1/2, y+1/2, -z'
'-z+1/2, y+1/2, x'
'z+1/2, x+1/2, y'
'y+1/2, z+1/2, x'
'-y+1/2, -z+1/2, x'
'z+1/2, -x+1/2, -y'
'-y+1/2, z+1/2, -x'
'-z+1/2, -x+1/2, y'
'-z+1/2, x+1/2, -y'
'y+1/2, -z+1/2, -x'
'y+1/2, x+1/2, -z'
'-y+1/2, -x+1/2, -z'
'-x+1/2, z+1/2, y'
'-x+1/2, -z+1/2, -y'
'z+1/2, -y+1/2, x'
'-z+1/2, -y+1/2, -x'
'-x, -y, -z'
'y, -x, -z'
'x, y, -z'
'-y, x, -z'
'-x, z, -y'
'-x, y, z'
'-x, -z, y'
'-z, -y, x'
'x, -y, z'
'z, -y, -x'
'-z, -x, -y'
'-y, -z, -x'
'y, z, -x'
'-z, x, y'
'y, -z, x'
'z, x, -y'
'z, -x, y'
'-y, z, x'
'-y, -x, z'
'y, x, z'
'x, -z, -y'
'x, z, y'
'-z, y, -x'
'z, y, x'
'-x, -y+1/2, -z+1/2'
'y, -x+1/2, -z+1/2'
'x, y+1/2, -z+1/2'
'-y, x+1/2, -z+1/2'
'-x, z+1/2, -y+1/2'
'-x, y+1/2, z+1/2'
'-x, -z+1/2, y+1/2'
'-z, -y+1/2, x+1/2'
'x, -y+1/2, z+1/2'
'z, -y+1/2, -x+1/2'
'-z, -x+1/2, -y+1/2'
'-y, -z+1/2, -x+1/2'
'y, z+1/2, -x+1/2'
'-z, x+1/2, y+1/2'
'y, -z+1/2, x+1/2'
'z, x+1/2, -y+1/2'
'z, -x+1/2, y+1/2'
'-y, z+1/2, x+1/2'
'-y, -x+1/2, z+1/2'
'y, x+1/2, z+1/2'
'x, -z+1/2, -y+1/2'
'x, z+1/2, y+1/2'
'-z, y+1/2, -x+1/2'
'z, y+1/2, x+1/2'
'-x+1/2, -y, -z+1/2'
'y+1/2, -x, -z+1/2'
'x+1/2, y, -z+1/2'
'-y+1/2, x, -z+1/2'
'-x+1/2, z, -y+1/2'
'-x+1/2, y, z+1/2'
'-x+1/2, -z, y+1/2'
'-z+1/2, -y, x+1/2'
'x+1/2, -y, z+1/2'
'z+1/2, -y, -x+1/2'
'-z+1/2, -x, -y+1/2'
'-y+1/2, -z, -x+1/2'
'y+1/2, z, -x+1/2'
'-z+1/2, x, y+1/2'
'y+1/2, -z, x+1/2'
'z+1/2, x, -y+1/2'
'z+1/2, -x, y+1/2'
'-y+1/2, z, x+1/2'
'-y+1/2, -x, z+1/2'
'y+1/2, x, z+1/2'
'x+1/2, -z, -y+1/2'
'x+1/2, z, y+1/2'
'-z+1/2, y, -x+1/2'
'z+1/2, y, x+1/2'
'-x+1/2, -y+1/2, -z'
'y+1/2, -x+1/2, -z'
'x+1/2, y+1/2, -z'
'-y+1/2, x+1/2, -z'
'-x+1/2, z+1/2, -y'
'-x+1/2, y+1/2, z'
'-x+1/2, -z+1/2, y'
'-z+1/2, -y+1/2, x'
'x+1/2, -y+1/2, z'
'z+1/2, -y+1/2, -x'
'-z+1/2, -x+1/2, -y'
'-y+1/2, -z+1/2, -x'
'y+1/2, z+1/2, -x'
'-z+1/2, x+1/2, y'
'y+1/2, -z+1/2, x'
'z+1/2, x+1/2, -y'
'z+1/2, -x+1/2, y'
'-y+1/2, z+1/2, x'
'-y+1/2, -x+1/2, z'
'y+1/2, x+1/2, z'
'x+1/2, -z+1/2, -y'
'x+1/2, z+1/2, y'
'-z+1/2, y+1/2, -x'
'z+1/2, y+1/2, x'
loop_
_atom_site_label
_atom_site_type_symbol
_atom_site_fract_x
_atom_site_fract_y
_atom_site_fract_z
_atom_site_U_iso_or_equiv
_atom_site_adp_type
_atom_site_occupancy
_atom_site_site_symmetry_order
_atom_site_calc_flag
_atom_site_refinement_flags_posn
_atom_site_refinement_flags_adp
_atom_site_refinement_flags_occupancy
_atom_site_disorder_assembly
_atom_site_disorder_group
Zr1 Zr 0.67487(3) 0.61049(2) 0.38951(2) 0.0918(6) Uani 1 2 d S T P . .
Cl2 Cl 0.6126(2) 0.5000 0.3874(2) 0.106(3) Uani 0.5 4 d S T P . .
O2 O 0.64306(17) 0.64306(17) 0.35694(17) 0.084(4) Uani 1 6 d S T P . .
O3 O 0.63629(16) 0.5762(2) 0.36371(16) 0.087(2) Uani 1 2 d S T P . .
O1 O 0.7048(2) 0.6620(2) 0.3952(2) 0.128(2) Uani 1 1 d . . . . .
Cl1 Cl 0.6585(3) 0.5000 0.3415(3) 0.158(5) Uani 0.5 4 d S T P . .
C1 C 0.6938(3) 0.6938(3) 0.3949(5) 0.128(2) Uani 1 2 d S T P . .
C2 C 0.7236(3) 0.7236(3) 0.3952(5) 0.128(2) Uani 1 2 d DS T P . .
C6 C 0.6867(4) 0.5504(3) 0.4227(3) 0.146(5) Uani 1 1 d . . . . .
H6 H 0.6705 0.5284 0.4221 0.176 Uiso 1 1 calc R U . . .
C5 C 0.7162(4) 0.5563(4) 0.4008(4) 0.153(5) Uani 1 1 d . U . . .
H5 H 0.7255 0.5391 0.3817 0.183 Uiso 1 1 calc R U . . .
C4 C 0.7343(6) 0.5862(4) 0.4138(4) 0.161(7) Uani 1 2 d S TU P . .
H4 H 0.7591 0.5943 0.4057 0.193 Uiso 1 2 calc R U P . .
C3 C 0.7592(3) 0.7125(2) 0.3939(4) 0.128(2) Uani 1 1 d D . . . .
N1 N 0.7708(6) 0.6765(3) 0.3870(11) 0.128(2) Uani 0.25 1 d D . P . .
loop_
_atom_site_aniso_label
_atom_site_aniso_U_11
_atom_site_aniso_U_22
_atom_site_aniso_U_33
_atom_site_aniso_U_23
_atom_site_aniso_U_13
_atom_site_aniso_U_12
Zr1 0.0837(8) 0.0959(7) 0.0959(7) 0.0061(6) 0.0097(4) -0.0097(4)
Cl2 0.126(5) 0.067(5) 0.126(5) 0.000 -0.007(6) 0.000
O2 0.084(4) 0.084(4) 0.084(4) 0.023(4) 0.023(4) -0.023(4)
O3 0.086(3) 0.087(5) 0.086(3) 0.001(3) 0.003(4) -0.001(3)
O1 0.103(4) 0.111(4) 0.169(5) 0.016(4) -0.007(4) -0.030(4)
Cl1 0.185(9) 0.106(9) 0.185(9) 0.000 -0.022(11) 0.000
C1 0.103(4) 0.111(4) 0.169(5) 0.016(4) -0.007(4) -0.030(4)
C2 0.103(4) 0.111(4) 0.169(5) 0.016(4) -0.007(4) -0.030(4)
C6 0.156(11) 0.112(9) 0.171(12) 0.042(9) -0.038(9) -0.001(8)
C5 0.170(9) 0.142(8) 0.146(8) -0.014(7) 0.007(7) 0.053(7)
C4 0.137(10) 0.173(8) 0.173(8) 0.013(9) -0.004(6) 0.004(6)
C3 0.103(4) 0.111(4) 0.169(5) 0.016(4) -0.007(4) -0.030(4)
N1 0.103(4) 0.111(4) 0.169(5) 0.016(4) -0.007(4) -0.030(4)
loop_
_atom_type_symbol
_atom_type_description
_atom_type_scat_dispersion_real
_atom_type_scat_dispersion_imag
_atom_type_scat_source
C C 0.0181 0.0091 'International Tables Vol C Tables 4.2.6.8 and 6.1.1.4'
H H 0.0000 0.0000 'International Tables Vol C Tables 4.2.6.8 and 6.1.1.4'
N N 0.0311 0.0180 'International Tables Vol C Tables 4.2.6.8 and 6.1.1.4'
O O 0.0492 0.0322 'International Tables Vol C Tables 4.2.6.8 and 6.1.1.4'
Cl Cl 0.3639 0.7018 'International Tables Vol C Tables 4.2.6.8 and 6.1.1.4'
Zr Zr -0.1862 2.2449 'International Tables Vol C Tables 4.2.6.8 and 6.1.1.4'
loop_
_geom_angle_atom_site_label_1
_geom_angle_atom_site_label_2
_geom_angle_atom_site_label_3
_geom_angle
_geom_angle_site_symmetry_1
_geom_angle_site_symmetry_3
_geom_angle_publ_flag
O2 Zr1 O3 72.9(3) . . ?
O2 Zr1 O3 72.9(3) . 17_656 ?
O3 Zr1 O3 94.8(4) . 17_656 ?
O2 Zr1 O1 80.7(3) . 117_566 ?
O3 Zr1 O1 83.9(3) . 117_566 ?
O3 Zr1 O1 152.6(3) 17_656 117_566 ?
O2 Zr1 O1 80.7(3) . . ?
O3 Zr1 O1 152.6(3) . . ?
O3 Zr1 O1 83.9(3) 17_656 . ?
O1 Zr1 O1 85.0(5) 117_566 . ?
O2 Zr1 C4 154.7(6) . . ?
O3 Zr1 C4 121.8(3) . . ?
O3 Zr1 C4 121.8(3) 17_656 . ?
O1 Zr1 C4 80.7(4) 117_566 . ?
O1 Zr1 C4 80.7(4) . . ?
O2 Zr1 C5 153.0(3) . 117_566 ?
O3 Zr1 C5 130.9(4) . 117_566 ?
O3 Zr1 C5 90.4(4) 17_656 117_566 ?
O1 Zr1 C5 111.1(4) 117_566 117_566 ?
O1 Zr1 C5 76.5(4) . 117_566 ?
C4 Zr1 C5 31.4(4) . 117_566 ?
O2 Zr1 C5 153.0(3) . . ?
O3 Zr1 C5 90.4(4) . . ?
O3 Zr1 C5 130.9(4) 17_656 . ?
O1 Zr1 C5 76.5(4) 117_566 . ?
O1 Zr1 C5 111.1(4) . . ?
C4 Zr1 C5 31.4(4) . . ?
C5 Zr1 C5 52.1(7) 117_566 . ?
O2 Zr1 C6 151.1(4) . . ?
O3 Zr1 C6 79.3(3) . . ?
O3 Zr1 C6 102.5(4) 17_656 . ?
O1 Zr1 C6 104.1(4) 117_566 . ?
O1 Zr1 C6 127.7(4) . . ?
C4 Zr1 C6 51.6(6) . . ?
C5 Zr1 C6 52.0(4) 117_566 . ?
C5 Zr1 C6 31.1(4) . . ?
O2 Zr1 C6 151.1(4) . 117_566 ?
O3 Zr1 C6 102.5(4) . 117_566 ?
O3 Zr1 C6 79.3(3) 17_656 117_566 ?
O1 Zr1 C6 127.7(4) 117_566 117_566 ?
O1 Zr1 C6 104.1(4) . 117_566 ?
C4 Zr1 C6 51.6(6) . 117_566 ?
C5 Zr1 C6 31.1(4) 117_566 117_566 ?
C5 Zr1 C6 52.0(4) . 117_566 ?
C6 Zr1 C6 31.7(6) . 117_566 ?
O2 Zr1 Zr1 35.58(15) . 18_566 ?
O3 Zr1 Zr1 37.89(17) . 18_566 ?
O3 Zr1 Zr1 87.0(2) 17_656 18_566 ?
O1 Zr1 Zr1 75.2(2) 117_566 18_566 ?
O1 Zr1 Zr1 114.9(2) . 18_566 ?
C4 Zr1 Zr1 149.60(8) . 18_566 ?
C5 Zr1 Zr1 167.9(4) 117_566 18_566 ?
C5 Zr1 Zr1 122.6(3) . 18_566 ?
C6 Zr1 Zr1 117.2(3) . 18_566 ?
C6 Zr1 Zr1 136.9(3) 117_566 18_566 ?
O2 Zr1 Zr1 35.58(15) . 17_656 ?
O3 Zr1 Zr1 87.0(2) . 17_656 ?
O3 Zr1 Zr1 37.89(17) 17_656 17_656 ?
O1 Zr1 Zr1 114.9(2) 117_566 17_656 ?
O1 Zr1 Zr1 75.2(2) . 17_656 ?
C4 Zr1 Zr1 149.60(8) . 17_656 ?
C5 Zr1 Zr1 122.6(3) 117_566 17_656 ?
C5 Zr1 Zr1 167.9(4) . 17_656 ?
C6 Zr1 Zr1 136.9(3) . 17_656 ?
C6 Zr1 Zr1 117.2(3) 117_566 17_656 ?
Zr1 Zr1 Zr1 60.0 18_566 17_656 ?
Zr1 O2 Zr1 108.8(3) . 17_656 ?
Zr1 O2 Zr1 108.8(3) . 18_566 ?
Zr1 O2 Zr1 108.8(3) 17_656 18_566 ?
Zr1 O3 Zr1 104.2(3) . 18_566 ?
C1 O1 Zr1 130.5(9) . . ?
O1 C1 O1 128.2(16) . 116 ?
O1 C1 C2 115.9(8) . . ?
O1 C1 C2 115.9(8) 116 . ?
C3 C2 C3 124.4(13) 116 . ?
C3 C2 C1 117.7(6) 116 . ?
C3 C2 C1 117.7(6) . . ?
C5 C6 C6 107.7(9) . 117_566 ?
C5 C6 Zr1 73.6(8) . . ?
C6 C6 Zr1 74.2(3) 117_566 . ?
C5 C6 H6 125.8 . . ?
C6 C6 H6 125.8 117_566 . ?
Zr1 C6 H6 125.8 . . ?
C6 C5 C4 107.7(16) . . ?
C6 C5 Zr1 75.3(8) . . ?
C4 C5 Zr1 73.7(11) . . ?
C6 C5 H5 125.7 . . ?
C4 C5 H5 125.7 . . ?
Zr1 C5 H5 125.7 . . ?
C5 C4 C5 109(2) . 117_566 ?
C5 C4 Zr1 74.9(11) . . ?
C5 C4 Zr1 74.9(11) 117_566 . ?
C5 C4 H4 125.0 . . ?
C5 C4 H4 125.0 117_566 . ?
Zr1 C4 H4 125.0 . . ?
C2 C3 N1 124.8(13) . . ?
C2 C3 C3 117.7(6) . 187_665 ?
N1 C3 C3 116.8(11) . 187_665 ?
loop_
_geom_bond_atom_site_label_1
_geom_bond_atom_site_label_2
_geom_bond_distance
_geom_bond_site_symmetry_2
_geom_bond_publ_flag
Zr1 O2 2.049(4) . ?
Zr1 O3 2.112(5) . ?
Zr1 O3 2.112(5) 17_656 ?
Zr1 O1 2.190(7) 117_566 ?
Zr1 O1 2.190(7) . ?
Zr1 C4 2.51(2) . ?
Zr1 C5 2.528(14) 117_566 ?
Zr1 C5 2.528(14) . ?
Zr1 C6 2.550(11) . ?
Zr1 C6 2.550(11) 117_566 ?
Zr1 Zr1 3.333(2) 18_566 ?
Zr1 Zr1 3.333(2) 17_656 ?
Cl2 Cl1 2.38(2) . ?
O2 Zr1 2.049(4) 17_656 ?
O2 Zr1 2.049(4) 18_566 ?
O3 Zr1 2.112(5) 18_566 ?
O1 C1 1.233(9) . ?
C1 O1 1.233(10) 116 ?
C1 C2 1.54(2) . ?
C2 C3 1.366(10) 116 ?
C2 C3 1.366(10) . ?
C6 C5 1.362(18) . ?
C6 C6 1.39(2) 117_566 ?
C6 H6 1.0000 . ?
C5 C4 1.364(18) . ?
C5 H5 1.0000 . ?
C4 C5 1.364(18) 117_566 ?
C4 H4 1.0000 . ?
C3 N1 1.409(13) . ?
C3 C3 1.461(18) 187_665 ?
