#------------------------------------------------------------------------------
#$Date: 2022-07-27 00:52:35 +0300 (Wed, 27 Jul 2022) $
#$Revision: 276942 $
#$URL: file:///home/coder/svn-repositories/cod/cif/7/13/04/7130403.cif $
#------------------------------------------------------------------------------
#
# This file is available in the Crystallography Open Database (COD),
# http://www.crystallography.net/
#
# All data on this site have been placed in the public domain by the
# contributors.
#
data_7130403
loop_
_publ_author_name
'Freund, Ralph'
'Kalytta-Mewes, Andreas'
'Kraft, Maryana'
'Volkmer, Dirk'
_publ_section_title
;
 Anionic or neutral? The charge of Ni8 cubes in metal-organic framework
 compounds.
;
_journal_name_full               'Chemical Communications'
_journal_paper_doi               10.1039/D2CC03016K
_journal_year                    2022
_chemical_formula_sum            'C72 H54 Cs1.76 N24 Ni8 O6'
_chemical_formula_weight         2054.50
_space_group_crystal_system      cubic
_space_group_IT_number           225
_space_group_name_Hall           '-F 4 2 3'
_space_group_name_H-M_alt        'F m -3 m'
_atom_sites_solution_hydrogens   difmap
_audit_creation_method           SHELXL-2018/3
_audit_update_record
;
2022-05-20 deposited with the CCDC.	2022-07-26 downloaded from the CCDC.
;
_cell_angle_alpha                90
_cell_angle_beta                 90
_cell_angle_gamma                90
_cell_formula_units_Z            4
_cell_length_a                   25.3948(5)
_cell_length_b                   25.3948(5)
_cell_length_c                   25.3948(5)
_cell_measurement_reflns_used    4132
_cell_measurement_temperature    150(2)
_cell_measurement_theta_max      28.4105
_cell_measurement_theta_min      2.66
_cell_volume                     16377.0(6)
_computing_cell_refinement       'SAINT V8.40A'
_computing_data_collection       'Bruker APEX3'
_computing_data_reduction        'SAINT V8.40A'
_computing_structure_refinement  'SHELXL-2018/3 (Sheldrick, 2018)'
_computing_structure_solution    'SHELXT 2014/5 (Sheldrick, 2014)'
_diffrn_ambient_temperature      150(2)
_diffrn_measured_fraction_theta_full 0.998
_diffrn_measured_fraction_theta_max 0.997
_diffrn_measurement_device_type  'Bruker D8 Venture'
_diffrn_radiation_type           MoK\a
_diffrn_radiation_wavelength     0.71073
_diffrn_reflns_av_R_equivalents  0.0673
_diffrn_reflns_av_unetI/netI     0.0260
_diffrn_reflns_Laue_measured_fraction_full 0.998
_diffrn_reflns_Laue_measured_fraction_max 0.997
_diffrn_reflns_limit_h_max       26
_diffrn_reflns_limit_h_min       -32
_diffrn_reflns_limit_k_max       32
_diffrn_reflns_limit_k_min       -25
_diffrn_reflns_limit_l_max       24
_diffrn_reflns_limit_l_min       -32
_diffrn_reflns_number            16345
_diffrn_reflns_point_group_measured_fraction_full 0.998
_diffrn_reflns_point_group_measured_fraction_max 0.997
_diffrn_reflns_theta_full        25.242
_diffrn_reflns_theta_max         27.489
_diffrn_reflns_theta_min         2.268
_diffrn_source                   'fine-focus sealed tube'
_exptl_absorpt_coefficient_mu    1.315
_exptl_absorpt_correction_T_max  0.7473
_exptl_absorpt_correction_T_min  0.6264
_exptl_absorpt_correction_type   multi-scan
_exptl_absorpt_process_details   SADABS-2016/2
_exptl_crystal_colour            green
_exptl_crystal_density_diffrn    0.833
_exptl_crystal_description       octahedral
_exptl_crystal_F_000             4090
_exptl_crystal_size_max          0.1
_exptl_crystal_size_mid          0.1
_exptl_crystal_size_min          0.095
_refine_diff_density_max         0.791
_refine_diff_density_min         -0.795
_refine_diff_density_rms         0.090
_refine_ls_extinction_coef       0.00070(13)
_refine_ls_extinction_expression Fc^*^=kFc[1+0.001xFc^2^\l^3^/sin(2\q)]^-1/4^
_refine_ls_extinction_method     'SHELXL-2018/3 (Sheldrick 2018)'
_refine_ls_goodness_of_fit_ref   1.072
_refine_ls_hydrogen_treatment    refall
_refine_ls_matrix_type           full
_refine_ls_number_parameters     53
_refine_ls_number_reflns         999
_refine_ls_number_restraints     3
_refine_ls_restrained_S_all      1.071
_refine_ls_R_factor_all          0.0601
_refine_ls_R_factor_gt           0.0457
_refine_ls_shift/su_max          0.000
_refine_ls_shift/su_mean         0.000
_refine_ls_structure_factor_coef Fsqd
_refine_ls_weighting_details
'w=1/[\s^2^(Fo^2^)+(0.1024P)^2^] where P=(Fo^2^+2Fc^2^)/3'
_refine_ls_weighting_scheme      calc
_refine_ls_wR_factor_gt          0.1342
_refine_ls_wR_factor_ref         0.1428
_reflns_Friedel_coverage         0.000
_reflns_number_gt                795
_reflns_number_total             999
_reflns_threshold_expression     'I > 2\s(I)'
_cod_data_source_file            d2cc03016k1.cif
_cod_data_source_block           mo_vk262_cs_0m_a_sq
_cod_original_cell_volume        16377.0(10)
_cod_database_code               7130403
_shelx_shelxl_version_number     2018/3
_shelx_space_group_comment
;
The symmetry employed for this shelxl refinement is uniquely defined
by the following loop, which should always be used as a source of
symmetry information in preference to the above space-group names.
They are only intended as comments.
;
_shelx_res_file
;
TITL mo_VK262_Cs_0m_a.res in Fm-3m
    mo_vk262_cs_0m_a_sq.res
    created by SHELXL-2018/3 at 19:40:03 on 19-May-2022
REM Old TITL mo_VK262_Cs_0m in Fm-3m
REM SHELXT solution in Fm-3m
REM R1 0.117,  Rweak 0.007,  Alpha 0.038,  Orientation as input
REM Formula found by SHELXT:  C36 N24 Ni4 O3
CELL  0.71073  25.3948  25.3948  25.3948   90.000   90.000   90.000
ZERR    4.000   0.0005   0.0005   0.0005    0.000    0.000    0.000
LATT  4
SYMM -X, -Y, Z
SYMM -X, Y, -Z
SYMM X, -Y, -Z
SYMM Z, X, Y
SYMM Z, -X, -Y
SYMM -Z, -X, Y
SYMM -Z, X, -Y
SYMM Y, Z, X
SYMM -Y, Z, -X
SYMM Y, -Z, -X
SYMM -Y, -Z, X
SYMM Y, X, -Z
SYMM -Y, -X, -Z
SYMM Y, -X, Z
SYMM -Y, X, Z
SYMM X, Z, -Y
SYMM -X, Z, Y
SYMM -X, -Z, -Y
SYMM X, -Z, Y
SYMM Z, Y, -X
SYMM Z, -Y, X
SYMM -Z, Y, X
SYMM -Z, -Y, -X
SFAC C H CS N NI O
UNIT 288 216 7.02528 96 32 24
LIST 4
omit -1 55
DFIX 0.82 O1 H1
DFIX 0.93 C1 H2
DFIX 0.93 C4 H4
ACTA
TEMP -123.150
L.S. 5 0    2
BOND $H
FMAP 2
PLAN 20
ABIN
WGHT    0.102400
EXTI    0.000703
FVAR       0.11826   0.07318
NI1   5    0.441316    0.558684    0.558684    10.16667    0.01199    0.01199 =
         0.01199   -0.00088    0.00088    0.00088
H1    2    0.388097    0.500000    0.500000    10.12500    0.25973
O1    6    0.420613    0.500000    0.500000    10.12500    0.01233    0.01113 =
         0.01113    0.00000    0.00000    0.00000
CS1   3    0.451165    0.726575    0.548835    20.50000    0.11414    0.11386 =
         0.11414    0.03087    0.01643   -0.03087
N1    4    0.473330    0.610097    0.610097    10.50000    0.01833    0.01962 =
         0.01962   -0.00745    0.00086    0.00086
C1    1    0.457200    0.645664    0.645664    10.50000    0.02481    0.03178 =
         0.03178   -0.01936    0.00258    0.00258
C2    1    0.500000    0.669736    0.669736    10.25000    0.02715    0.02893 =
         0.02893   -0.01592    0.00000    0.00000
H2    2    0.422288    0.654593    0.654593    10.50000    0.06921
C3    1    0.500000    0.710658    0.710658    10.25000    0.03277    0.03541 =
         0.03541   -0.02210    0.00000    0.00000
PART -1
C4    1    0.543350    0.719014    0.742754    10.50000    0.03631    0.05589 =
         0.05806   -0.04001   -0.01417    0.01891
H4    2    0.575036    0.701531    0.738530    10.50000    0.03677
PART 0
HKLF 4




REM  mo_VK262_Cs_0m_a.res in Fm-3m
REM wR2 = 0.142801, GooF = S = 1.07246, Restrained GooF = 1.07105 for all data
REM R1 = 0.045743 for 795 Fo > 4sig(Fo) and 0.060063 for all 999 data
REM 53 parameters refined using 3 restraints

END

WGHT      0.1024      0.0000

REM Highest difference peak  0.791,  deepest hole -0.795,  1-sigma level  0.090
Q1    1   0.3145  0.5000  0.5000  10.12500  0.05    0.79
Q2    1   0.4800  0.7163  0.5200  10.50000  0.05    0.76
Q3    1   0.4907  0.7220  0.5093  10.50000  0.05    0.73
Q4    1   0.5000  0.5000  0.5000  10.02083  0.05    0.72
Q5    1   0.5000  0.7264  0.5000  10.12500  0.05    0.59
Q6    1   0.5000  0.6092  0.6092  10.25000  0.05    0.47
Q7    1   0.4267  0.7534  0.5293  11.00000  0.05    0.39
Q8    1   0.4697  0.7583  0.5572  11.00000  0.05    0.36
Q9    1   0.5316  0.7500  0.7500  10.25000  0.05    0.31
Q10   1   0.5223  0.6599  0.6599  10.50000  0.05    0.29
Q11   1   0.4497  0.5503  0.5274  10.50000  0.05    0.28
Q12   1   0.4460  0.7829  0.5540  10.50000  0.05    0.27
Q13   1   0.5000  0.6916  0.6916  10.25000  0.05    0.27
Q14   1   0.4413  0.5335  0.5335  10.50000  0.05    0.26
Q15   1   0.5000  0.7367  0.7123  10.50000  0.05    0.25
Q16   1   0.4681  0.5319  0.5000  10.25000  0.05    0.24
Q17   1   0.4565  0.5857  0.5857  10.50000  0.05    0.22
Q18   1   0.4720  0.7139  0.7139  10.50000  0.05    0.21
Q19   1   0.4194  0.5806  0.5320  10.50000  0.05    0.20
Q20   1   0.4697  0.9378  0.5303  10.50000  0.05    0.20
;
_shelx_res_checksum              38170
_shelx_fab_file
;
    0    2    2     85.32      0.00
    2    2    2    -56.25      0.00
    1    1    3    -51.33      0.00
    1    3    3     23.07      0.00
    3    3    3     21.39      0.00
    0    0    4    -92.70      0.00
    0    2    4      3.28      0.00
    2    2    4      6.54      0.00
    0    4    4      3.20      0.00
    2    4    4     -2.32      0.00
    4    4    4     45.16      0.00
    1    1    5      2.48      0.00
    1    3    5      5.07      0.00
    3    3    5    -17.23      0.00
    1    5    5    -16.51      0.00
    3    5    5     17.14      0.00
    5    5    5     -1.13      0.00
    0    0    6    122.09      0.00
    0    2    6    -39.55      0.00
    0    4    6      2.16      0.00
    2    2    6     26.53      0.00
    2    4    6     -8.02      0.00
    4    4    6    -32.67      0.00
    0    6    6     22.20      0.00
    2    6    6    -16.23      0.00
    4    6    6     30.53      0.00
    6    6    6     -6.03      0.00
    1    1    7     18.86      0.00
    1    3    7     -8.11      0.00
    1    5    7     11.09      0.00
    3    3    7     -9.72      0.00
    3    5    7     -9.12      0.00
    5    5    7     -3.03      0.00
    1    7    7     -8.82      0.00
    3    7    7     15.17      0.00
    5    7    7      9.58      0.00
    7    7    7    -25.46      0.00
    0    0    8    -33.36      0.00
    0    2    8     22.87      0.00
    0    4    8     -2.24      0.00
    0    6    8    -25.86      0.00
    2    2    8    -27.09      0.00
    2    4    8     10.92      0.00
    2    6    8     20.17      0.00
    4    4    8     -6.12      0.00
    4    6    8     -0.10      0.00
    6    6    8    -20.77      0.00
    0    8    8     42.52      0.00
    2    8    8    -36.81      0.00
    4    8    8     -4.52      0.00
    6    8    8     17.25      0.00
    8    8    8    -11.23      0.00
    1    1    9    -10.98      0.00
    1    3    9     -6.66      0.00
    1    5    9      4.29      0.00
    1    7    9     -0.52      0.00
    3    3    9     24.95      0.00
    3    5    9      0.56      0.00
    3    7    9     -7.96      0.00
    5    5    9      1.80      0.00
    5    7    9    -10.57      0.00
    7    7    9      9.36      0.00
    1    9    9      4.20      0.00
    3    9    9     -4.83      0.00
    5    9    9      5.33      0.00
    7    9    9      2.55      0.00
    9    9    9    -10.01      0.00
    0    0   10    -18.55      0.00
    0    2   10     -6.24      0.00
    0    4   10      2.07      0.00
    0    6   10      4.46      0.00
    0    8   10    -24.39      0.00
    2    2   10      6.39      0.00
    2    4   10     -3.07      0.00
    2    6   10     -1.93      0.00
    2    8   10     18.18      0.00
    4    4   10     18.45      0.00
    4    6   10     -8.74      0.00
    4    8   10      1.92      0.00
    6    6   10      4.76      0.00
    6    8   10     -5.21      0.00
    8    8   10     -1.08      0.00
    0   10   10     39.39      0.00
    2   10   10    -22.42      0.00
    4   10   10     -0.08      0.00
    6   10   10     11.92      0.00
    8   10   10     -3.65      0.00
   10   10   10      3.89      0.00
    1    1   11     -2.96      0.00
    1    3   11     14.53      0.00
    1    5   11    -12.69      0.00
    1    7   11     -0.03      0.00
    1    9   11      3.52      0.00
    3    3   11    -34.13      0.00
    3    5   11     19.72      0.00
    3    7   11     10.12      0.00
    3    9   11     -7.72      0.00
    5    5   11     -9.55      0.00
    5    7   11     -0.40      0.00
    5    9   11     14.13      0.00
    7    7   11     -2.74      0.00
    7    9   11     -7.86      0.00
    9    9   11     -0.27      0.00
    1   11   11      2.17      0.00
    3   11   11     -1.28      0.00
    5   11   11    -14.00      0.00
    7   11   11     12.55      0.00
    9   11   11      8.56      0.00
   11   11   11    -10.58      0.00
    0    0   12     11.36      0.00
    0    2   12     11.28      0.00
    0    4   12     -5.93      0.00
    0    6   12     -0.93      0.00
    0    8   12      0.36      0.00
    0   10   12     -9.06      0.00
    2    2   12     -3.60      0.00
    2    4   12     -7.41      0.00
    2    6   12      3.21      0.00
    2    8   12      1.82      0.00
    2   10   12      3.12      0.00
    4    4   12      0.11      0.00
    4    6   12      7.50      0.00
    4    8   12      1.54      0.00
    4   10   12     -3.71      0.00
    6    6   12     -2.77      0.00
    6    8   12      1.52      0.00
    6   10   12     -0.23      0.00
    8    8   12     -3.70      0.00
    8   10   12      4.37      0.00
   10   10   12     -2.37      0.00
    0   12   12      3.52      0.00
    2   12   12      0.48      0.00
    4   12   12      8.99      0.00
    6   12   12     -9.67      0.00
    8   12   12     -3.54      0.00
   10   12   12      7.13      0.00
   12   12   12     -1.33      0.00
    1    1   13     12.16      0.00
    1    3   13    -13.14      0.00
    1    5   13      2.59      0.00
    1    7   13      3.79      0.00
    1    9   13     -5.53      0.00
    1   11   13     -1.77      0.00
    3    3   13     15.89      0.00
    3    5   13     -9.08      0.00
    3    7   13     -4.66      0.00
    3    9   13      5.53      0.00
    3   11   13      6.49      0.00
    5    5   13     11.13      0.00
    5    7   13      3.14      0.00
    5    9   13     -8.92      0.00
    5   11   13      4.25      0.00
    7    7   13     -1.53      0.00
    7    9   13      7.49      0.00
    7   11   13     -8.87      0.00
    9    9   13     -2.49      0.00
    9   11   13     -4.57      0.00
   11   11   13     11.29      0.00
    1   13   13      3.09      0.00
    3   13   13      2.73      0.00
    5   13   13     -3.98      0.00
    7   13   13     -7.33      0.00
    9   13   13      9.43      0.00
   11   13   13    -10.18      0.00
   13   13   13     -0.66      0.00
    0    0   14      3.21      0.00
    0    2   14     -5.59      0.00
    0    4   14     -0.06      0.00
    0    6   14     -4.49      0.00
    0    8   14     14.04      0.00
    0   10   14    -10.77      0.00
    0   12   14     -0.08      0.00
    2    2   14     -0.71      0.00
    2    4   14      4.87      0.00
    2    6   14     -0.41      0.00
    2    8   14    -11.96      0.00
    2   10   14      8.89      0.00
    2   12   14      4.49      0.00
    4    4   14     -4.34      0.00
    4    6   14      2.19      0.00
    4    8   14     -2.88      0.00
    4   10   14      2.94      0.00
    4   12   14     -2.58      0.00
    6    6   14     -1.49      0.00
    6    8   14      4.47      0.00
    6   10   14     -2.39      0.00
    6   12   14     -2.38      0.00
    8    8   14     -0.54      0.00
    8   10   14     -2.95      0.00
    8   12   14      1.15      0.00
   10   10   14     -2.26      0.00
   10   12   14      0.37      0.00
   12   12   14     -8.13      0.00
    0   14   14      9.71      0.00
    2   14   14     -9.57      0.00
    4   14   14     -0.96      0.00
    6   14   14      0.98      0.00
    8   14   14     -3.88      0.00
   10   14   14     -0.77      0.00
   12   14   14      3.39      0.00
   14   14   14      0.28      0.00
    1    1   15     -8.41      0.00
    1    3   15      3.86      0.00
    1    5   15      4.45      0.00
    1    7   15     -6.02      0.00
    1    9   15      5.37      0.00
    1   11   15      2.19      0.00
    1   13   15     -0.12      0.00
    3    3   15      2.40      0.00
    3    5   15     -4.61      0.00
    3    7   15      2.01      0.00
    3    9   15     -3.26      0.00
    3   11   15     -1.14      0.00
    3   13   15     -5.05      0.00
    5    5   15      1.50      0.00
    5    7   15      0.21      0.00
    5    9   15     -0.66      0.00
    5   11   15      4.57      0.00
    5   13   15     -3.16      0.00
    7    7   15     -2.60      0.00
    7    9   15      2.88      0.00
    7   11   15     -2.74      0.00
    7   13   15      4.67      0.00
    9    9   15     -5.94      0.00
    9   11   15      0.59      0.00
    9   13   15     -1.69      0.00
   11   11   15     -1.21      0.00
   11   13   15     -1.11      0.00
   13   13   15      2.06      0.00
    1   15   15      0.78      0.00
    3   15   15     -0.45      0.00
    5   15   15      3.22      0.00
    7   15   15     -0.65      0.00
    9   15   15     -6.95      0.00
   11   15   15      4.65      0.00
   13   15   15      4.71      0.00
   15   15   15     -4.98      0.00
    0    0   16      5.48      0.00
    0    2   16     -9.10      0.00
    0    4   16      6.43      0.00
    0    6   16      6.23      0.00
    0    8   16     -7.96      0.00
    0   10   16     12.74      0.00
    0   12   16     -2.54      0.00
    0   14   16     -3.69      0.00
    2    2   16      6.74      0.00
    2    4   16      0.91      0.00
    2    6   16     -5.64      0.00
    2    8   16      7.44      0.00
    2   10   16     -5.21      0.00
    2   12   16     -3.65      0.00
    2   14   16      2.95      0.00
    4    4   16     -2.61      0.00
    4    6   16      1.11      0.00
    4    8   16     -2.31      0.00
    4   10   16     -0.42      0.00
    4   12   16      1.45      0.00
    4   14   16     -1.13      0.00
    6    6   16      4.64      0.00
    6    8   16     -5.30      0.00
    6   10   16      5.06      0.00
    6   12   16      2.78      0.00
    6   14   16      0.07      0.00
    8    8   16      6.78      0.00
    8   10   16     -5.52      0.00
    8   12   16     -1.45      0.00
    8   14   16      1.10      0.00
   10   10   16      1.63      0.00
   10   12   16      2.86      0.00
   10   14   16     -2.03      0.00
   12   12   16      2.24      0.00
   12   14   16      3.09      0.00
   14   14   16      0.12      0.00
    0   16   16     17.00      0.00
    2   16   16     -3.10      0.00
    4   16   16     -5.21      0.00
    6   16   16      8.64      0.00
    8   16   16     -2.02      0.00
   10   16   16     -3.38      0.00
   12   16   16      4.67      0.00
   14   16   16     -0.95      0.00
   16   16   16      0.34      0.00
    1    1   17      1.67      0.00
    1    3   17      3.80      0.00
    1    5   17     -2.97      0.00
    1    7   17      4.69      0.00
    1    9   17      0.97      0.00
    1   11   17     -4.04      0.00
    1   13   17     -2.94      0.00
    1   15   17      6.14      0.00
    3    3   17    -11.24      0.00
    3    5   17      7.79      0.00
    3    7   17     -4.91      0.00
    3    9   17     -3.37      0.00
    3   11   17      3.25      0.00
    3   13   17      0.71      0.00
    3   15   17     -4.22      0.00
    5    5   17     -3.28      0.00
    5    7   17      0.20      0.00
    5    9   17      1.41      0.00
    5   11   17     -1.77      0.00
    5   13   17      6.02      0.00
    5   15   17     -1.90      0.00
    7    7   17      8.39      0.00
    7    9   17     -5.39      0.00
    7   11   17      1.87      0.00
    7   13   17     -3.05      0.00
    7   15   17      2.96      0.00
    9    9   17      4.50      0.00
    9   11   17      0.17      0.00
    9   13   17     -2.26      0.00
    9   15   17      2.76      0.00
   11   11   17     -0.18      0.00
   11   13   17     10.41      0.00
   11   15   17     -3.92      0.00
   13   13   17     -8.97      0.00
   13   15   17      2.06      0.00
   15   15   17     -1.27      0.00
    1   17   17     -1.18      0.00
    3   17   17      1.69      0.00
    5   17   17      0.72      0.00
    7   17   17      1.33      0.00
    9   17   17     -3.07      0.00
   11   17   17      0.34      0.00
   13   17   17      7.31      0.00
   15   17   17      0.99      0.00
   17   17   17    -12.64      0.00
    0    0   18     -5.14      0.00
    0    2   18     11.37      0.00
    0    4   18     -1.64      0.00
    0    6   18      1.92      0.00
    0    8   18      0.28      0.00
    0   10   18     -2.64      0.00
    0   12   18     -5.12      0.00
    0   14   18     -0.55      0.00
    0   16   18     -4.57      0.00
    2    2   18     -7.21      0.00
    2    4   18     -3.61      0.00
    2    6   18      3.35      0.00
    2    8   18     -2.74      0.00
    2   10   18     -1.05      0.00
    2   12   18      0.23      0.00
    2   14   18      0.63      0.00
    2   16   18      0.78      0.00
    4    4   18      1.31      0.00
    4    6   18     -3.19      0.00
    4    8   18      0.50      0.00
    4   10   18     -2.17      0.00
    4   12   18      4.25      0.00
    4   14   18     -0.84      0.00
    4   16   18      1.96      0.00
    6    6   18      7.74      0.00
    6    8   18      2.11      0.00
    6   10   18     -5.81      0.00
    6   12   18      1.32      0.00
    6   14   18     -2.08      0.00
    6   16   18     -3.95      0.00
    8    8   18     -2.30      0.00
    8   10   18      4.68      0.00
    8   12   18     -3.85      0.00
    8   14   18      2.88      0.00
    8   16   18     -0.02      0.00
   10   10   18      1.05      0.00
   10   12   18      0.78      0.00
   10   14   18      2.99      0.00
   10   16   18      1.88      0.00
   12   12   18      3.82      0.00
   12   14   18     -6.64      0.00
   12   16   18      0.45      0.00
   14   14   18     -2.66      0.00
   14   16   18      5.52      0.00
   16   16   18     -6.63      0.00
    0   18   18      4.36      0.00
    2   18   18     -2.73      0.00
    4   18   18     -0.93      0.00
    6   18   18      8.14      0.00
    8   18   18     -3.61      0.00
   10   18   18     -5.09      0.00
   12   18   18      5.41      0.00
   14   18   18     -1.54      0.00
   16   18   18     -1.51      0.00
   18   18   18     -2.14      0.00
    1    1   19      4.34      0.00
    1    3   19     -5.69      0.00
    1    5   19      5.68      0.00
    1    7   19     -3.00      0.00
    1    9   19     -2.68      0.00
    1   11   19      2.48      0.00
    1   13   19     -5.25      0.00
    1   15   19     -2.17      0.00
    1   17   19     -0.04      0.00
    3    3   19      4.92      0.00
    3    5   19    -11.70      0.00
    3    7   19      4.27      0.00
    3    9   19      0.16      0.00
    3   11   19     -4.10      0.00
    3   13   19      7.10      0.00
    3   15   19     -1.44      0.00
    3   17   19     -1.66      0.00
    5    5   19      5.32      0.00
    5    7   19      4.67      0.00
    5    9   19     -3.22      0.00
    5   11   19     -0.90      0.00
    5   13   19     -3.33      0.00
    5   15   19     -1.74      0.00
    5   17   19      3.89      0.00
    7    7   19     -0.52      0.00
    7    9   19     -0.68      0.00
    7   11   19     -0.32      0.00
    7   13   19     -0.10      0.00
    7   15   19     -2.48      0.00
    7   17   19     -1.33      0.00
    9    9   19      4.55      0.00
    9   11   19     -2.42      0.00
    9   13   19      3.74      0.00
    9   15   19      3.59      0.00
    9   17   19     -4.86      0.00
   11   11   19      7.72      0.00
   11   13   19    -11.44      0.00
   11   15   19      0.42      0.00
   11   17   19      4.17      0.00
   13   13   19      3.97      0.00
   13   15   19     -6.01      0.00
   13   17   19      0.60      0.00
   15   15   19      7.10      0.00
   15   17   19     -1.70      0.00
   17   17   19     -0.08      0.00
    1   19   19      3.47      0.00
    3   19   19      2.62      0.00
    5   19   19     -4.62      0.00
    7   19   19      4.30      0.00
    9   19   19      5.06      0.00
   11   19   19     -7.30      0.00
   13   19   19     -2.06      0.00
   15   19   19     -1.15      0.00
   17   19   19      6.42      0.00
   19   19   19     -7.78      0.00
    0    0   20      0.37      0.00
    0    2   20      0.36      0.00
    0    4   20      2.46      0.00
    0    6   20     -2.61      0.00
    0    8   20      0.20      0.00
    0   10   20      3.75      0.00
    0   12   20     -2.96      0.00
    0   14   20     -2.64      0.00
    0   16   20     -1.55      0.00
    0   18   20      5.15      0.00
    2    2   20     -0.23      0.00
    2    4   20     -2.30      0.00
    2    6   20      0.10      0.00
    2    8   20      0.02      0.00
    2   10   20     -0.72      0.00
    2   12   20      0.32      0.00
    2   14   20     -1.69      0.00
    2   16   20      0.72      0.00
    2   18   20      0.70      0.00
    4    4   20     -4.85      0.00
    4    6   20      3.57      0.00
    4    8   20      0.82      0.00
    4   10   20     -2.22      0.00
    4   12   20      0.88      0.00
    4   14   20     -2.01      0.00
    4   16   20     -0.29      0.00
    4   18   20     -0.01      0.00
    6    6   20     -1.33      0.00
    6    8   20      1.81      0.00
    6   10   20      0.36      0.00
    6   12   20     -3.18      0.00
    6   14   20      1.73      0.00
    6   16   20     -2.33      0.00
    6   18   20     -1.63      0.00
    8    8   20     -0.42      0.00
    8   10   20     -2.32      0.00
    8   12   20      0.93      0.00
    8   14   20      1.31      0.00
    8   16   20      1.67      0.00
    8   18   20      0.49      0.00
   10   10   20      4.41      0.00
   10   12   20     -1.76      0.00
   10   14   20     -3.46      0.00
   10   16   20     -0.96      0.00
   10   18   20      3.22      0.00
   12   12   20     -1.36      0.00
   12   14   20     -4.71      0.00
   12   16   20     -1.19      0.00
   12   18   20     -4.26      0.00
   14   14   20      2.77      0.00
   14   16   20      1.86      0.00
   14   18   20     -1.99      0.00
   16   16   20      1.77      0.00
   16   18   20      4.07      0.00
   18   18   20      3.05      0.00
    0   20   20      3.40      0.00
    2   20   20      3.86      0.00
    4   20   20     -1.05      0.00
    6   20   20      2.05      0.00
    8   20   20     -0.85      0.00
   10   20   20     -1.91      0.00
   12   20   20      3.03      0.00
   14   20   20     -5.85      0.00
   16   20   20      2.23      0.00
    1    1   21     -1.84      0.00
    1    3   21      5.09      0.00
    1    5   21     -4.13      0.00
    1    7   21      1.71      0.00
    1    9   21      4.16      0.00
    1   11   21     -2.70      0.00
    1   13   21      1.58      0.00
    1   15   21     -1.92      0.00
    1   17   21      3.04      0.00
    1   19   21      4.42      0.00
    3    3   21     -5.98      0.00
    3    5   21      5.38      0.00
    3    7   21     -0.12      0.00
    3    9   21     -1.26      0.00
    3   11   21      0.37      0.00
    3   13   21     -6.56      0.00
    3   15   21      5.52      0.00
    3   17   21     -0.90      0.00
    3   19   21     -3.75      0.00
    5    5   21      0.11      0.00
    5    7   21     -1.68      0.00
    5    9   21     -1.35      0.00
    5   11   21      5.31      0.00
    5   13   21      2.21      0.00
    5   15   21     -2.65      0.00
    5   17   21     -1.98      0.00
    5   19   21      3.10      0.00
    7    7   21     -1.99      0.00
    7    9   21      6.15      0.00
    7   11   21     -7.85      0.00
    7   13   21      2.91      0.00
    7   15   21      5.13      0.00
    7   17   21     -2.76      0.00
    7   19   21     -2.13      0.00
    9    9   21     -8.46      0.00
    9   11   21      2.52      0.00
    9   13   21     -3.83      0.00
    9   15   21     -2.10      0.00
    9   17   21      5.19      0.00
    9   19   21     -4.51      0.00
   11   11   21      2.38      0.00
   11   13   21      1.87      0.00
   11   15   21     -7.30      0.00
   11   17   21     -0.77      0.00
   11   19   21      5.85      0.00
   13   13   21     -3.56      0.00
   13   15   21      5.35      0.00
   13   17   21     -1.50      0.00
   13   19   21     -3.47      0.00
   15   15   21      1.88      0.00
   15   17   21     -1.91      0.00
   15   19   21      2.25      0.00
   17   17   21      9.47      0.00
    1   21   21      0.21      0.00
    3   21   21     11.25      0.00
    5   21   21     -4.34      0.00
    7   21   21      0.29      0.00
    9   21   21      1.47      0.00
   11   21   21     -7.58      0.00
   13   21   21      2.48      0.00
    0    0   22      2.98      0.00
    0    2   22     -4.42      0.00
    0    4   22      0.20      0.00
    0    6   22      1.14      0.00
    0    8   22      6.08      0.00
    0   10   22     -5.13      0.00
    0   12   22      3.44      0.00
    0   14   22      0.02      0.00
    0   16   22      3.76      0.00
    0   18   22     -1.06      0.00
    0   20   22      2.50      0.00
    2    2   22      5.62      0.00
    2    4   22      3.74      0.00
    2    6   22     -1.58      0.00
    2    8   22      0.71      0.00
    2   10   22      1.09      0.00
    2   12   22     -5.36      0.00
    2   14   22      1.67      0.00
    2   16   22      0.03      0.00
    2   18   22      1.65      0.00
    2   20   22      2.43      0.00
    4    4   22      3.29      0.00
    4    6   22      0.62      0.00
    4    8   22     -3.32      0.00
    4   10   22      1.90      0.00
    4   12   22     -0.68      0.00
    4   14   22      3.68      0.00
    4   16   22      0.50      0.00
    4   18   22     -2.74      0.00
    4   20   22      1.29      0.00
    6    6   22     -2.49      0.00
    6    8   22     -1.08      0.00
    6   10   22      3.23      0.00
    6   12   22      3.22      0.00
    6   14   22      2.70      0.00
    6   16   22      3.01      0.00
    6   18   22     -4.21      0.00
    6   20   22     -1.56      0.00
    8    8   22      3.28      0.00
    8   10   22     -4.88      0.00
    8   12   22     -3.62      0.00
    8   14   22      1.26      0.00
    8   16   22     -2.07      0.00
    8   18   22     -0.82      0.00
    8   20   22     -0.20      0.00
   10   10   22     -2.98      0.00
   10   12   22      6.56      0.00
   10   14   22     -7.34      0.00
   10   16   22      0.81      0.00
   10   18   22      2.37      0.00
   10   20   22     -3.56      0.00
   12   12   22      1.19      0.00
   12   14   22      2.56      0.00
   12   16   22      0.94      0.00
   12   18   22      4.44      0.00
   12   20   22     -6.12      0.00
   14   14   22      8.00      0.00
   14   16   22     -4.11      0.00
   14   18   22     -4.65      0.00
   14   20   22     11.16      0.00
   16   16   22      1.25      0.00
   16   18   22      1.02      0.00
    0   22   22     -2.18      0.00
    2   22   22      3.06      0.00
    4   22   22      4.33      0.00
    6   22   22     -3.94      0.00
    8   22   22      1.40      0.00
   10   22   22      2.11      0.00
    1    1   23     -2.83      0.00
    1    3   23      0.85      0.00
    1    5   23      2.18      0.00
    1    7   23      1.57      0.00
    1    9   23     -2.60      0.00
    1   11   23     -2.35      0.00
    1   13   23      1.83      0.00
    1   15   23      1.33      0.00
    1   17   23     -1.17      0.00
    1   19   23      0.72      0.00
    1   21   23      0.66      0.00
    3    3   23      7.79      0.00
    3    5   23      0.96      0.00
    3    7   23     -4.07      0.00
    3    9   23      1.35      0.00
    3   11   23     -0.91      0.00
    3   13   23     -1.02      0.00
    3   15   23      0.19      0.00
    3   17   23      0.71      0.00
    3   19   23      0.27      0.00
    3   21   23      0.12      0.00
    5    5   23     -1.60      0.00
    5    7   23     -2.02      0.00
    5    9   23      2.66      0.00
    5   11   23     -2.29      0.00
    5   13   23      3.71      0.00
    5   15   23      8.94      0.00
    5   17   23     -4.44      0.00
    5   19   23     -4.25      0.00
    5   21   23      0.73      0.00
    7    7   23      4.14      0.00
    7    9   23     -5.73      0.00
    7   11   23      5.52      0.00
    7   13   23      0.19      0.00
    7   15   23     -2.98      0.00
    7   17   23      0.30      0.00
    7   19   23     -0.51      0.00
    7   21   23     -1.94      0.00
    9    9   23      4.45      0.00
    9   11   23     -4.93      0.00
    9   13   23     -1.39      0.00
    9   15   23     -3.26      0.00
    9   17   23      0.51      0.00
    9   19   23     -0.51      0.00
    9   21   23      1.42      0.00
   11   11   23      4.01      0.00
   11   13   23      2.07      0.00
   11   15   23      0.63      0.00
   11   17   23      6.26      0.00
   11   19   23     -4.25      0.00
   13   13   23      6.42      0.00
   13   15   23      2.59      0.00
   13   17   23     -5.46      0.00
   13   19   23      5.69      0.00
   15   15   23     -3.93      0.00
   15   17   23     -2.74      0.00
    1   23   23     -0.19      0.00
    3   23   23     -6.57      0.00
    5   23   23      2.34      0.00
    0    0   24     -8.68      0.00
    0    2   24      0.65      0.00
    0    4   24      1.84      0.00
    0    6   24      0.62      0.00
    0    8   24     -4.05      0.00
    0   10   24     -3.36      0.00
    0   12   24      0.77      0.00
    0   14   24      4.80      0.00
    0   16   24     -5.00      0.00
    0   18   24      3.26      0.00
    0   20   24     -0.30      0.00
    0   22   24      2.23      0.00
    2    2   24     -1.98      0.00
    2    4   24      1.47      0.00
    2    6   24      0.84      0.00
    2    8   24     -1.27      0.00
    2   10   24     -1.71      0.00
    2   12   24      1.90      0.00
    2   14   24     -2.45      0.00
    2   16   24      0.48      0.00
    2   18   24     -0.62      0.00
    2   20   24     -0.50      0.00
    2   22   24     -5.73      0.00
    4    4   24     -0.04      0.00
    4    6   24     -3.58      0.00
    4    8   24      0.96      0.00
    4   10   24      1.95      0.00
    4   12   24     -4.37      0.00
    4   14   24      3.10      0.00
    4   16   24      1.62      0.00
    4   18   24     -4.54      0.00
    4   20   24     -0.12      0.00
    4   22   24     -4.33      0.00
    6    6   24      1.60      0.00
    6    8   24     -0.10      0.00
    6   10   24     -3.67      0.00
    6   12   24      4.29      0.00
    6   14   24      1.09      0.00
    6   16   24     -1.71      0.00
    6   18   24      0.92      0.00
    6   20   24     -3.26      0.00
    8    8   24      0.56      0.00
    8   10   24      3.39      0.00
    8   12   24     -0.17      0.00
    8   14   24     -5.40      0.00
    8   16   24      0.16      0.00
    8   18   24      1.22      0.00
    8   20   24      0.31      0.00
   10   10   24      2.41      0.00
   10   12   24     -6.94      0.00
   10   14   24      4.33      0.00
   10   16   24      2.07      0.00
   10   18   24     -1.17      0.00
   10   20   24     -1.14      0.00
   12   12   24      9.94      0.00
   12   14   24      0.70      0.00
   12   16   24     -1.68      0.00
   12   18   24      0.38      0.00
   14   14   24     -1.82      0.00
   14   16   24     -3.70      0.00
   16   16   24      0.51      0.00
    1    1   25      0.96      0.00
    1    3   25     -1.60      0.00
    1    5   25     -0.65      0.00
    1    7   25     -1.15      0.00
    1    9   25     -2.55      0.00
    1   11   25      1.43      0.00
    1   13   25      1.06      0.00
    1   15   25      0.89      0.00
    1   17   25     -0.75      0.00
    1   19   25      1.38      0.00
    1   21   25     -0.44      0.00
    3    3   25     -5.88      0.00
    3    5   25     -0.12      0.00
    3    7   25      1.93      0.00
    3    9   25      0.44      0.00
    3   11   25      0.41      0.00
    3   13   25      0.69      0.00
    3   15   25     -4.85      0.00
    3   17   25     -0.21      0.00
    3   19   25      0.52      0.00
    3   21   25     -6.55      0.00
    5    5   25     -1.59      0.00
    5    7   25     -0.17      0.00
    5    9   25     -0.39      0.00
    5   11   25      0.93      0.00
    5   13   25     -2.80      0.00
    5   15   25     -2.69      0.00
    5   17   25      3.15      0.00
    5   19   25     -2.73      0.00
    7    7   25     -0.40      0.00
    7    9   25      3.62      0.00
    7   11   25     -1.45      0.00
    7   13   25     -1.88      0.00
    7   15   25      0.48      0.00
    7   17   25      0.73      0.00
    7   19   25      0.30      0.00
    9    9   25      1.89      0.00
    9   11   25      1.76      0.00
    9   13   25     -2.11      0.00
    9   15   25      1.73      0.00
    9   17   25     -0.97      0.00
    9   19   25      1.81      0.00
   11   11   25     -3.17      0.00
   11   13   25      1.20      0.00
   11   15   25      3.57      0.00
   11   17   25     -2.59      0.00
   13   13   25      2.45      0.00
   13   15   25    -10.00      0.00
   13   17   25      2.08      0.00
   15   15   25      2.30      0.00
    0    0   26      9.95      0.00
    0    2   26      4.25      0.00
    0    4   26     -6.29      0.00
    0    6   26      0.75      0.00
    0    8   26     -1.44      0.00
    0   10   26      0.91      0.00
    0   12   26      1.17      0.00
    0   14   26      5.01      0.00
    0   16   26     -1.17      0.00
    0   18   26      0.34      0.00
    0   20   26      2.32      0.00
    2    2   26     -4.09      0.00
    2    4   26     -5.54      0.00
    2    6   26      1.49      0.00
    2    8   26      1.32      0.00
    2   10   26      0.34      0.00
    2   12   26      1.67      0.00
    2   14   26     -0.96      0.00
    2   16   26     -0.65      0.00
    2   18   26      0.34      0.00
    2   20   26     -0.07      0.00
    4    4   26      2.18      0.00
    4    6   26      0.52      0.00
    4    8   26     -0.51      0.00
    4   10   26      2.43      0.00
    4   12   26      4.24      0.00
    4   14   26    -11.28      0.00
    4   16   26      1.29      0.00
    4   18   26      5.12      0.00
    6    6   26     -0.13      0.00
    6    8   26      1.38      0.00
    6   10   26      2.46      0.00
    6   12   26     -6.07      0.00
    6   14   26      0.19      0.00
    6   16   26      0.90      0.00
    6   18   26      0.66      0.00
    8    8   26      1.47      0.00
    8   10   26      1.02      0.00
    8   12   26     -2.09      0.00
    8   14   26      1.09      0.00
    8   16   26      0.58      0.00
    8   18   26     -1.15      0.00
   10   10   26     -1.30      0.00
   10   12   26      4.01      0.00
   10   14   26     -0.50      0.00
   10   16   26      0.40      0.00
   12   12   26     -6.23      0.00
   12   14   26      1.02      0.00
   12   16   26     -1.46      0.00
   14   14   26    -10.21      0.00
    1    1   27      6.76      0.00
    1    3   27     -3.18      0.00
    1    5   27     -2.99      0.00
    1    7   27      2.17      0.00
    1    9   27      1.05      0.00
    1   11   27     -1.63      0.00
    1   13   27      6.12      0.00
    1   15   27     -2.07      0.00
    1   17   27     -0.86      0.00
    3    3   27     -2.87      0.00
    3    5   27      2.15      0.00
    3    7   27     -0.67      0.00
    3    9   27     -1.51      0.00
    3   11   27      7.50      0.00
    3   13   27     -9.27      0.00
    3   15   27      3.69      0.00
    3   17   27      3.87      0.00
    5    5   27      5.40      0.00
    5    7   27     -0.64      0.00
    5    9   27      1.85      0.00
    5   11   27      2.17      0.00
    5   13   27     -1.33      0.00
    5   15   27     -3.19      0.00
    5   17   27      4.84      0.00
    7    7   27      1.48      0.00
    7    9   27      0.37      0.00
    7   11   27     -3.60      0.00
    7   13   27      0.82      0.00
    7   15   27     -1.58      0.00
    7   17   27     -0.61      0.00
    9    9   27     -0.35      0.00
    9   11   27      0.45      0.00
    9   13   27     -2.79      0.00
    9   15   27      3.62      0.00
   11   11   27      2.71      0.00
   11   13   27      0.91      0.00
   11   15   27     -1.01      0.00
   13   13   27     -5.46      0.00
    0    0   28     -1.51      0.00
    0    2   28      1.05      0.00
    0    4   28      2.59      0.00
    0    6   28     -5.25      0.00
    0    8   28      6.03      0.00
    0   10   28     -1.18      0.00
    0   12   28      2.20      0.00
    0   14   28     -4.20      0.00
    0   16   28      1.67      0.00
    2    2   28      0.13      0.00
    2    4   28     -0.21      0.00
    2    6   28      2.18      0.00
    2    8   28     -4.40      0.00
    2   10   28      0.17      0.00
    2   12   28     -0.90      0.00
    2   14   28      2.60      0.00
    2   16   28     -0.19      0.00
    4    4   28      3.24      0.00
    4    6   28      6.19      0.00
    4    8   28     -5.88      0.00
    4   10   28      1.15      0.00
    4   12   28      0.63      0.00
    4   14   28      2.04      0.00
    4   16   28      4.61      0.00
    6    6   28     -3.33      0.00
    6    8   28      2.32      0.00
    6   10   28      1.63      0.00
    6   12   28      1.41      0.00
    6   14   28     -4.25      0.00
    6   16   28      1.71      0.00
    8    8   28      2.03      0.00
    8   10   28     -5.13      0.00
    8   12   28     -2.79      0.00
    8   14   28      1.52      0.00
   10   10   28      6.05      0.00
   10   12   28     -3.34      0.00
   10   14   28      0.36      0.00
   12   12   28      8.88      0.00
    1    1   29     -6.56      0.00
    1    3   29      1.31      0.00
    1    5   29      3.44      0.00
    1    7   29     -2.47      0.00
    1    9   29     -1.02      0.00
    1   11   29      2.49      0.00
    1   13   29     -7.00      0.00
    1   15   29      1.72      0.00
    3    3   29      6.06      0.00
    3    5   29      2.90      0.00
    3    7   29     -2.08      0.00
    3    9   29     -5.37      0.00
    3   11   29     -6.81      0.00
    3   13   29     12.61      0.00
    3   15   29     -1.50      0.00
    5    5   29      3.40      0.00
    5    7   29     -1.80      0.00
    5    9   29     -2.31      0.00
    5   11   29      3.99      0.00
    5   13   29     -3.58      0.00
    7    7   29      2.37      0.00
    7    9   29      2.06      0.00
    7   11   29     -1.43      0.00
    7   13   29     -3.67      0.00
    9    9   29      1.54      0.00
    9   11   29     -5.58      0.00
   11   11   29      7.61      0.00
    0    0   30     -4.94      0.00
    0    2   30    -11.52      0.00
    0    4   30      1.42      0.00
    0    6   30      9.27      0.00
    0    8   30     -9.63      0.00
    0   10   30      3.58      0.00
    0   12   30     -3.12      0.00
    2    2   30      1.11      0.00
    2    4   30      9.02      0.00
    2    6   30     -3.73      0.00
    2    8   30     -1.63      0.00
    2   10   30     -3.38      0.00
    2   12   30      2.58      0.00
    4    4   30     -0.02      0.00
    4    6   30     -3.96      0.00
    4    8   30      2.07      0.00
    4   10   30     -5.83      0.00
    4   12   30     -1.44      0.00
    6    6   30      6.98      0.00
    6    8   30     -4.01      0.00
    6   10   30     -0.16      0.00
    6   12   30     -0.38      0.00
    8    8   30      5.01      0.00
    8   10   30      3.32      0.00
    1    1   31     -8.71      0.00
    1    3   31      1.73      0.00
    1    5   31      5.62      0.00
    1    7   31     -2.75      0.00
    1    9   31     -2.70      0.00
    1   11   31      2.01      0.00
    3    3   31     -0.31      0.00
    3    5   31     -2.01      0.00
    3    7   31      2.03      0.00
    3    9   31      1.14      0.00
    5    5   31     -5.18      0.00
    5    7   31      4.41      0.00
    5    9   31     -2.80      0.00
    7    7   31     -3.33      0.00
    0    2   32      2.33      0.00
    0    4   32      7.53      0.00
    0    6   32     -3.96      0.00
    0    8   32     -0.97      0.00
    2    2   32     -1.59      0.00
    2    4   32     -4.65      0.00
    2    6   32      4.55      0.00
    4    4   32     -4.15      0.00
    4    6   32      2.36      0.00
    1    1    1     77.58      0.00
    0    0    2   -145.90      0.00
   17   19   21     -2.49      0.00
   11   21   23     -2.35      0.00
   14   18   24      1.11      0.00
    6   22   24      5.05      0.00
    5   21   25      0.80      0.00
   10   18   26     -0.42      0.00
    4   20   26     -4.47      0.00
    9   17   27     -1.38      0.00
    1   19   27      1.45      0.00
    3   19   27     -1.68      0.00
    9   13   29      2.26      0.00
    5   15   29      4.72      0.00
   10   10   30     -4.50      0.00
    0   14   30     -3.18      0.00
    2   14   30     -0.63      0.00
    7    9   31      1.91      0.00
    3   11   31     -1.39      0.00
    0    0   32    -10.46      0.00
    6    6   32     -3.17      0.00
    2    8   32      2.46      0.00
    1    1   33      3.89      0.00
    1    3   33     -0.93      0.00
    0    0    0      0.00      0.00
# SQUEEZE RESULTS (Version = 230318)
# Note: Data are Listed for all Voids in the P1 Unit Cell
# i.e. Centre of Gravity, Solvent Accessible Volume,
# Recovered number of Electrons in the Void and
# Details about the Squeezed Material
loop_
  _platon_squeeze_void_nr
  _platon_squeeze_void_average_x
  _platon_squeeze_void_average_y
  _platon_squeeze_void_average_z
  _platon_squeeze_void_volume
  _platon_squeeze_void_count_electrons
  _platon_squeeze_void_content
   1 -0.008 -0.005 -0.004      6323       302 ' '
# Missing Reflections Below sin(th)/lambda = 0.25
loop_
  _platon_missing_refln_index_h
  _platon_missing_refln_index_k
  _platon_missing_refln_index_l
  _platon_missing_refln_theta
    1    1    1     1.389
    0    0    2     1.604
_platon_squeeze_void_probe_radius                  1.20
_platon_squeeze_details
)
TITL mo_VK262_Cs_0m_a.res in Fm-3m
CELL   25.3948   25.3948   25.3948     90.00     90.00     90.00
SPGR Fm-3m
# Solvent Accessible Volume =      6541
# Electrons Found in S.A.V. =       273
# Note: Atoms in Void are Labelled as Cxxx and Qxxx for all Others
C101 0.313 0.313 0.313 !       1.71 eA-3
Q102 0.020 0.484 0.215 !       0.98 eA-3
Q103 0.222 0.500 0.000 !       0.87 eA-3
Q104 0.686 0.008 0.008 !       0.84 eA-3
C105 0.226 0.149 0.149 !       0.63 eA-3
C106 0.298 0.295 0.205 !       0.61 eA-3
C107 0.458 0.153 0.347 !       0.56 eA-3
C108 0.250 0.250 0.250 !       0.55 eA-3
C109 0.855 0.144 0.144 !       0.53 eA-3
C110 0.171 0.171 0.171 !       0.52 eA-3
)
;
_shelx_fab_checksum              52651
loop_
_space_group_symop_operation_xyz
'x, y, z'
'-x, -y, z'
'-x, y, -z'
'x, -y, -z'
'z, x, y'
'z, -x, -y'
'-z, -x, y'
'-z, x, -y'
'y, z, x'
'-y, z, -x'
'y, -z, -x'
'-y, -z, x'
'y, x, -z'
'-y, -x, -z'
'y, -x, z'
'-y, x, z'
'x, z, -y'
'-x, z, y'
'-x, -z, -y'
'x, -z, y'
'z, y, -x'
'z, -y, x'
'-z, y, x'
'-z, -y, -x'
'x, y+1/2, z+1/2'
'-x, -y+1/2, z+1/2'
'-x, y+1/2, -z+1/2'
'x, -y+1/2, -z+1/2'
'z, x+1/2, y+1/2'
'z, -x+1/2, -y+1/2'
'-z, -x+1/2, y+1/2'
'-z, x+1/2, -y+1/2'
'y, z+1/2, x+1/2'
'-y, z+1/2, -x+1/2'
'y, -z+1/2, -x+1/2'
'-y, -z+1/2, x+1/2'
'y, x+1/2, -z+1/2'
'-y, -x+1/2, -z+1/2'
'y, -x+1/2, z+1/2'
'-y, x+1/2, z+1/2'
'x, z+1/2, -y+1/2'
'-x, z+1/2, y+1/2'
'-x, -z+1/2, -y+1/2'
'x, -z+1/2, y+1/2'
'z, y+1/2, -x+1/2'
'z, -y+1/2, x+1/2'
'-z, y+1/2, x+1/2'
'-z, -y+1/2, -x+1/2'
'x+1/2, y, z+1/2'
'-x+1/2, -y, z+1/2'
'-x+1/2, y, -z+1/2'
'x+1/2, -y, -z+1/2'
'z+1/2, x, y+1/2'
'z+1/2, -x, -y+1/2'
'-z+1/2, -x, y+1/2'
'-z+1/2, x, -y+1/2'
'y+1/2, z, x+1/2'
'-y+1/2, z, -x+1/2'
'y+1/2, -z, -x+1/2'
'-y+1/2, -z, x+1/2'
'y+1/2, x, -z+1/2'
'-y+1/2, -x, -z+1/2'
'y+1/2, -x, z+1/2'
'-y+1/2, x, z+1/2'
'x+1/2, z, -y+1/2'
'-x+1/2, z, y+1/2'
'-x+1/2, -z, -y+1/2'
'x+1/2, -z, y+1/2'
'z+1/2, y, -x+1/2'
'z+1/2, -y, x+1/2'
'-z+1/2, y, x+1/2'
'-z+1/2, -y, -x+1/2'
'x+1/2, y+1/2, z'
'-x+1/2, -y+1/2, z'
'-x+1/2, y+1/2, -z'
'x+1/2, -y+1/2, -z'
'z+1/2, x+1/2, y'
'z+1/2, -x+1/2, -y'
'-z+1/2, -x+1/2, y'
'-z+1/2, x+1/2, -y'
'y+1/2, z+1/2, x'
'-y+1/2, z+1/2, -x'
'y+1/2, -z+1/2, -x'
'-y+1/2, -z+1/2, x'
'y+1/2, x+1/2, -z'
'-y+1/2, -x+1/2, -z'
'y+1/2, -x+1/2, z'
'-y+1/2, x+1/2, z'
'x+1/2, z+1/2, -y'
'-x+1/2, z+1/2, y'
'-x+1/2, -z+1/2, -y'
'x+1/2, -z+1/2, y'
'z+1/2, y+1/2, -x'
'z+1/2, -y+1/2, x'
'-z+1/2, y+1/2, x'
'-z+1/2, -y+1/2, -x'
'-x, -y, -z'
'x, y, -z'
'x, -y, z'
'-x, y, z'
'-z, -x, -y'
'-z, x, y'
'z, x, -y'
'z, -x, y'
'-y, -z, -x'
'y, -z, x'
'-y, z, x'
'y, z, -x'
'-y, -x, z'
'y, x, z'
'-y, x, -z'
'y, -x, -z'
'-x, -z, y'
'x, -z, -y'
'x, z, y'
'-x, z, -y'
'-z, -y, x'
'-z, y, -x'
'z, -y, -x'
'z, y, x'
'-x, -y+1/2, -z+1/2'
'x, y+1/2, -z+1/2'
'x, -y+1/2, z+1/2'
'-x, y+1/2, z+1/2'
'-z, -x+1/2, -y+1/2'
'-z, x+1/2, y+1/2'
'z, x+1/2, -y+1/2'
'z, -x+1/2, y+1/2'
'-y, -z+1/2, -x+1/2'
'y, -z+1/2, x+1/2'
'-y, z+1/2, x+1/2'
'y, z+1/2, -x+1/2'
'-y, -x+1/2, z+1/2'
'y, x+1/2, z+1/2'
'-y, x+1/2, -z+1/2'
'y, -x+1/2, -z+1/2'
'-x, -z+1/2, y+1/2'
'x, -z+1/2, -y+1/2'
'x, z+1/2, y+1/2'
'-x, z+1/2, -y+1/2'
'-z, -y+1/2, x+1/2'
'-z, y+1/2, -x+1/2'
'z, -y+1/2, -x+1/2'
'z, y+1/2, x+1/2'
'-x+1/2, -y, -z+1/2'
'x+1/2, y, -z+1/2'
'x+1/2, -y, z+1/2'
'-x+1/2, y, z+1/2'
'-z+1/2, -x, -y+1/2'
'-z+1/2, x, y+1/2'
'z+1/2, x, -y+1/2'
'z+1/2, -x, y+1/2'
'-y+1/2, -z, -x+1/2'
'y+1/2, -z, x+1/2'
'-y+1/2, z, x+1/2'
'y+1/2, z, -x+1/2'
'-y+1/2, -x, z+1/2'
'y+1/2, x, z+1/2'
'-y+1/2, x, -z+1/2'
'y+1/2, -x, -z+1/2'
'-x+1/2, -z, y+1/2'
'x+1/2, -z, -y+1/2'
'x+1/2, z, y+1/2'
'-x+1/2, z, -y+1/2'
'-z+1/2, -y, x+1/2'
'-z+1/2, y, -x+1/2'
'z+1/2, -y, -x+1/2'
'z+1/2, y, x+1/2'
'-x+1/2, -y+1/2, -z'
'x+1/2, y+1/2, -z'
'x+1/2, -y+1/2, z'
'-x+1/2, y+1/2, z'
'-z+1/2, -x+1/2, -y'
'-z+1/2, x+1/2, y'
'z+1/2, x+1/2, -y'
'z+1/2, -x+1/2, y'
'-y+1/2, -z+1/2, -x'
'y+1/2, -z+1/2, x'
'-y+1/2, z+1/2, x'
'y+1/2, z+1/2, -x'
'-y+1/2, -x+1/2, z'
'y+1/2, x+1/2, z'
'-y+1/2, x+1/2, -z'
'y+1/2, -x+1/2, -z'
'-x+1/2, -z+1/2, y'
'x+1/2, -z+1/2, -y'
'x+1/2, z+1/2, y'
'-x+1/2, z+1/2, -y'
'-z+1/2, -y+1/2, x'
'-z+1/2, y+1/2, -x'
'z+1/2, -y+1/2, -x'
'z+1/2, y+1/2, x'
loop_
_atom_site_label
_atom_site_type_symbol
_atom_site_fract_x
_atom_site_fract_y
_atom_site_fract_z
_atom_site_U_iso_or_equiv
_atom_site_adp_type
_atom_site_occupancy
_atom_site_site_symmetry_order
_atom_site_calc_flag
_atom_site_refinement_flags_posn
_atom_site_refinement_flags_adp
_atom_site_refinement_flags_occupancy
_atom_site_disorder_assembly
_atom_site_disorder_group
Ni1 Ni 0.44132(2) 0.55868(2) 0.55868(2) 0.0120(3) Uani 1 6 d S T P . .
H1 H 0.3881(8) 0.500000 0.500000 0.26(13) Uiso 1 8 d DS . P . .
O1 O 0.42061(15) 0.500000 0.500000 0.0115(8) Uani 1 8 d DS T P . .
Cs1 Cs 0.4512(2) 0.7266(3) 0.5488(2) 0.114(4) Uani 0.073(2) 2 d S T P . .
N1 N 0.47333(10) 0.61010(6) 0.61010(6) 0.0192(6) Uani 1 2 d S T P . .
C1 C 0.45720(14) 0.64566(9) 0.64566(9) 0.0295(8) Uani 1 2 d DS T P . .
C2 C 0.500000 0.66974(12) 0.66974(12) 0.0283(10) Uani 1 4 d S T P . .
H2 H 0.4223(10) 0.6546(14) 0.6546(14) 0.069(15) Uiso 1 2 d DS . P . .
C3 C 0.500000 0.71066(12) 0.71066(12) 0.0345(12) Uani 1 4 d S T P . .
C4 C 0.5434(2) 0.7190(2) 0.7428(2) 0.050(2) Uani 0.5 1 d D . P A -1
H4 H 0.5750(12) 0.7015(18) 0.739(2) 0.037(15) Uiso 0.5 1 d D . P B -1
loop_
_atom_site_aniso_label
_atom_site_aniso_U_11
_atom_site_aniso_U_22
_atom_site_aniso_U_33
_atom_site_aniso_U_23
_atom_site_aniso_U_13
_atom_site_aniso_U_12
Ni1 0.0120(3) 0.0120(3) 0.0120(3) -0.00088(12) 0.00088(12) 0.00088(12)
O1 0.0123(19) 0.0111(11) 0.0111(11) 0.000 0.000 0.000
Cs1 0.114(5) 0.114(6) 0.114(5) 0.031(3) 0.016(4) -0.031(3)
N1 0.0183(13) 0.0196(8) 0.0196(8) -0.0074(10) 0.0009(7) 0.0009(7)
C1 0.0248(17) 0.0318(12) 0.0318(12) -0.0194(15) 0.0026(9) 0.0026(9)
C2 0.027(2) 0.0289(15) 0.0289(15) -0.016(2) 0.000 0.000
C3 0.033(3) 0.0354(18) 0.0354(18) -0.022(2) 0.000 0.000
C4 0.036(3) 0.056(4) 0.058(4) -0.040(4) -0.014(2) 0.019(2)
loop_
_atom_type_symbol
_atom_type_description
_atom_type_scat_dispersion_real
_atom_type_scat_dispersion_imag
_atom_type_scat_source
C C 0.0033 0.0016 'International Tables Vol C Tables 4.2.6.8 and 6.1.1.4'
H H 0.0000 0.0000 'International Tables Vol C Tables 4.2.6.8 and 6.1.1.4'
Cs Cs -0.3680 2.1192 'International Tables Vol C Tables 4.2.6.8 and 6.1.1.4'
N N 0.0061 0.0033 'International Tables Vol C Tables 4.2.6.8 and 6.1.1.4'
Ni Ni 0.3393 1.1124 'International Tables Vol C Tables 4.2.6.8 and 6.1.1.4'
O O 0.0106 0.0060 'International Tables Vol C Tables 4.2.6.8 and 6.1.1.4'
loop_
_geom_angle_atom_site_label_1
_geom_angle_atom_site_label_2
_geom_angle_atom_site_label_3
_geom_angle
_geom_angle_site_symmetry_1
_geom_angle_site_symmetry_3
_geom_angle_publ_flag
N1 Ni1 N1 95.90(10) . 10_656 ?
N1 Ni1 N1 95.90(10) . 7_665 ?
N1 Ni1 N1 95.90(10) 10_656 7_665 ?
N1 Ni1 O1 90.62(9) . 105_666 ?
N1 Ni1 O1 170.24(12) 10_656 105_666 ?
N1 Ni1 O1 90.63(9) 7_665 105_666 ?
N1 Ni1 O1 90.62(9) . 101_666 ?
N1 Ni1 O1 90.63(9) 10_656 101_666 ?
N1 Ni1 O1 170.24(12) 7_665 101_666 ?
O1 Ni1 O1 82.03(15) 105_666 101_666 ?
N1 Ni1 O1 170.24(12) . . ?
N1 Ni1 O1 90.63(9) 10_656 . ?
N1 Ni1 O1 90.63(9) 7_665 . ?
O1 Ni1 O1 82.03(15) 105_666 . ?
O1 Ni1 O1 82.03(15) 101_666 . ?
N1 Ni1 Ni1 66.23(7) . 100_655 ?
N1 Ni1 Ni1 130.33(3) 10_656 100_655 ?
N1 Ni1 Ni1 130.33(3) 7_665 100_655 ?
O1 Ni1 Ni1 46.68(2) 105_666 100_655 ?
O1 Ni1 Ni1 46.68(2) 101_666 100_655 ?
O1 Ni1 Ni1 104.01(10) . 100_655 ?
N1 Ni1 Ni1 130.33(3) . 99_565 ?
N1 Ni1 Ni1 130.33(3) 10_656 99_565 ?
N1 Ni1 Ni1 66.24(7) 7_665 99_565 ?
O1 Ni1 Ni1 46.68(2) 105_666 99_565 ?
O1 Ni1 Ni1 104.01(10) 101_666 99_565 ?
O1 Ni1 Ni1 46.68(2) . 99_565 ?
Ni1 Ni1 Ni1 90.0 100_655 99_565 ?
N1 Ni1 Ni1 130.33(3) . 98_556 ?
N1 Ni1 Ni1 66.24(7) 10_656 98_556 ?
N1 Ni1 Ni1 130.33(3) 7_665 98_556 ?
O1 Ni1 Ni1 104.01(10) 105_666 98_556 ?
O1 Ni1 Ni1 46.68(2) 101_666 98_556 ?
O1 Ni1 Ni1 46.68(2) . 98_556 ?
Ni1 Ni1 Ni1 90.0 100_655 98_556 ?
Ni1 Ni1 Ni1 90.0 99_565 98_556 ?
N1 Ni1 Cs1 50.90(4) . . ?
N1 Ni1 Cs1 50.90(4) 10_656 . ?
N1 Ni1 Cs1 118.50(13) 7_665 . ?
O1 Ni1 Cs1 131.13(5) 105_666 . ?
O1 Ni1 Cs1 71.25(14) 101_666 . ?
O1 Ni1 Cs1 131.13(5) . . ?
Ni1 Ni1 Cs1 86.65(8) 100_655 . ?
Ni1 Ni1 Cs1 175.26(11) 99_565 . ?
Ni1 Ni1 Cs1 86.65(8) 98_556 . ?
N1 Ni1 Cs1 118.51(13) . 10_656 ?
N1 Ni1 Cs1 50.90(4) 10_656 10_656 ?
N1 Ni1 Cs1 50.90(4) 7_665 10_656 ?
O1 Ni1 Cs1 131.13(5) 105_666 10_656 ?
O1 Ni1 Cs1 131.13(5) 101_666 10_656 ?
O1 Ni1 Cs1 71.25(15) . 10_656 ?
Ni1 Ni1 Cs1 175.26(11) 100_655 10_656 ?
Ni1 Ni1 Cs1 86.65(8) 99_565 10_656 ?
Ni1 Ni1 Cs1 86.65(8) 98_556 10_656 ?
Cs1 Ni1 Cs1 96.49(14) . 10_656 ?
N1 Ni1 Cs1 50.90(4) . 7_665 ?
N1 Ni1 Cs1 118.50(13) 10_656 7_665 ?
N1 Ni1 Cs1 50.90(4) 7_665 7_665 ?
O1 Ni1 Cs1 71.25(14) 105_666 7_665 ?
O1 Ni1 Cs1 131.13(5) 101_666 7_665 ?
O1 Ni1 Cs1 131.13(5) . 7_665 ?
Ni1 Ni1 Cs1 86.65(8) 100_655 7_665 ?
Ni1 Ni1 Cs1 86.65(8) 99_565 7_665 ?
Ni1 Ni1 Cs1 175.26(11) 98_556 7_665 ?
Cs1 Ni1 Cs1 96.49(14) . 7_665 ?
Cs1 Ni1 Cs1 96.49(14) 10_656 7_665 ?
Ni1 O1 Ni1 152.0(2) . 4_566 ?
Ni1 O1 Ni1 86.64(5) . 98_556 ?
Ni1 O1 Ni1 86.64(5) 4_566 98_556 ?
Ni1 O1 Ni1 86.64(5) . 99_565 ?
Ni1 O1 Ni1 86.64(5) 4_566 99_565 ?
Ni1 O1 Ni1 152.0(2) 98_556 99_565 ?
Ni1 O1 H1 104.01(10) . . ?
Ni1 O1 H1 104.01(10) 4_566 . ?
Ni1 O1 H1 104.01(10) 98_556 . ?
Ni1 O1 H1 104.01(10) 99_565 . ?
Cs1 Cs1 Cs1 90.001(2) 100_655 98_556 ?
Cs1 Cs1 C1 140.04(17) 100_655 10_656 ?
Cs1 Cs1 C1 87.26(12) 98_556 10_656 ?
Cs1 Cs1 C1 87.26(12) 100_655 . ?
Cs1 Cs1 C1 140.04(17) 98_556 . ?
C1 Cs1 C1 70.30(19) 10_656 . ?
Cs1 Cs1 N1 117.33(13) 100_655 10_656 ?
Cs1 Cs1 N1 80.44(10) 98_556 10_656 ?
C1 Cs1 N1 23.25(8) 10_656 10_656 ?
C1 Cs1 N1 65.81(16) . 10_656 ?
Cs1 Cs1 N1 80.44(10) 100_655 . ?
Cs1 Cs1 N1 117.33(14) 98_556 . ?
C1 Cs1 N1 65.81(16) 10_656 . ?
C1 Cs1 N1 23.25(8) . . ?
N1 Cs1 N1 52.47(14) 10_656 . ?
Cs1 Cs1 Cs1 45.001(1) 100_655 3_656 ?
Cs1 Cs1 Cs1 45.001(2) 98_556 3_656 ?
C1 Cs1 Cs1 120.54(17) 10_656 3_656 ?
C1 Cs1 Cs1 120.55(17) . 3_656 ?
N1 Cs1 Cs1 101.96(15) 10_656 3_656 ?
N1 Cs1 Cs1 101.96(15) . 3_656 ?
Cs1 Cs1 C2 69.92(10) 100_655 . ?
Cs1 Cs1 C2 148.21(16) 98_556 . ?
C1 Cs1 C2 92.74(17) 10_656 . ?
C1 Cs1 C2 22.51(7) . . ?
N1 Cs1 C2 87.13(17) 10_656 . ?
N1 Cs1 C2 37.26(9) . . ?
Cs1 Cs1 C2 110.99(13) 3_656 . ?
Cs1 Cs1 C2 148.21(16) 100_655 10_656 ?
Cs1 Cs1 C2 69.92(10) 98_556 10_656 ?
C1 Cs1 C2 22.51(7) 10_656 10_656 ?
C1 Cs1 C2 92.74(17) . 10_656 ?
N1 Cs1 C2 37.26(9) 10_656 10_656 ?
N1 Cs1 C2 87.14(17) . 10_656 ?
Cs1 Cs1 C2 110.99(13) 3_656 10_656 ?
C2 Cs1 C2 115.09(18) . 10_656 ?
Cs1 Cs1 Ni1 93.35(7) 100_655 . ?
Cs1 Cs1 Ni1 93.35(8) 98_556 . ?
C1 Cs1 Ni1 47.13(12) 10_656 . ?
C1 Cs1 Ni1 47.13(12) . . ?
N1 Cs1 Ni1 27.52(8) 10_656 . ?
N1 Cs1 Ni1 27.51(8) . . ?
Cs1 Cs1 Ni1 94.74(11) 3_656 . ?
C2 Cs1 Ni1 64.67(13) . . ?
C2 Cs1 Ni1 64.67(13) 10_656 . ?
Cs1 Cs1 H2 102.7(5) 100_655 . ?
Cs1 Cs1 H2 143.7(9) 98_556 . ?
C1 Cs1 H2 61.2(8) 10_656 . ?
C1 Cs1 H2 16.4(3) . . ?
N1 Cs1 H2 63.5(9) 10_656 . ?
N1 Cs1 H2 35.6(5) . . ?
Cs1 Cs1 H2 136.5(4) 3_656 . ?
C2 Cs1 H2 34.0(6) . . ?
C2 Cs1 H2 82.6(8) 10_656 . ?
Ni1 Cs1 H2 52.6(8) . . ?
C1 N1 N1 107.78(19) . 100_655 ?
C1 N1 Ni1 138.5(2) . . ?
N1 N1 Ni1 113.77(7) 100_655 . ?
C1 N1 Cs1 70.77(14) . . ?
N1 N1 Cs1 99.56(10) 100_655 . ?
Ni1 N1 Cs1 101.58(10) . . ?
C1 N1 Cs1 70.77(14) . 7_665 ?
N1 N1 Cs1 99.56(10) 100_655 7_665 ?
Ni1 N1 Cs1 101.59(10) . 7_665 ?
Cs1 N1 Cs1 140.7(3) . 7_665 ?
N1 C1 C2 110.7(3) . . ?
N1 C1 Cs1 85.97(18) . . ?
C2 C1 Cs1 95.33(10) . . ?
N1 C1 Cs1 85.97(18) . 7_665 ?
C2 C1 Cs1 95.33(10) . 7_665 ?
Cs1 C1 Cs1 168.4(2) . 7_665 ?
N1 C1 H2 128(3) . . ?
C2 C1 H2 122(3) . . ?
Cs1 C1 H2 89.2(4) . . ?
Cs1 C1 H2 89.2(4) 7_665 . ?
C1 C2 C1 103.0(4) . 100_655 ?
C1 C2 C3 128.5(2) . . ?
C1 C2 C3 128.5(2) 100_655 . ?
C1 C2 Cs1 62.16(10) . . ?
C1 C2 Cs1 94.04(19) 100_655 . ?
C3 C2 Cs1 108.57(16) . . ?
C1 C2 Cs1 62.16(10) . 7_665 ?
C1 C2 Cs1 94.04(19) 100_655 7_665 ?
C3 C2 Cs1 108.57(16) . 7_665 ?
Cs1 C2 Cs1 124.2(2) . 7_665 ?
C1 C2 Cs1 94.04(19) . 100_655 ?
C1 C2 Cs1 62.16(10) 100_655 100_655 ?
C3 C2 Cs1 108.57(16) . 100_655 ?
Cs1 C2 Cs1 40.2(2) . 100_655 ?
Cs1 C2 Cs1 142.9(3) 7_665 100_655 ?
C1 C2 Cs1 94.04(19) . 104_565 ?
C1 C2 Cs1 62.16(10) 100_655 104_565 ?
C3 C2 Cs1 108.57(16) . 104_565 ?
Cs1 C2 Cs1 142.9(3) . 104_565 ?
Cs1 C2 Cs1 40.2(2) 7_665 104_565 ?
Cs1 C2 Cs1 124.2(2) 100_655 104_565 ?
C4 C3 C2 121.6(3) . . ?
C3 C4 H4 123(3) . . ?
loop_
_geom_bond_atom_site_label_1
_geom_bond_atom_site_label_2
_geom_bond_distance
_geom_bond_site_symmetry_2
_geom_bond_publ_flag
Ni1 N1 2.017(2) . ?
Ni1 N1 2.018(2) 10_656 ?
Ni1 N1 2.018(2) 7_665 ?
Ni1 O1 2.1721(10) 105_666 ?
Ni1 O1 2.1721(10) 101_666 ?
Ni1 O1 2.1722(10) . ?
Ni1 Ni1 2.9806(7) 100_655 ?
Ni1 Ni1 2.9806(7) 99_565 ?
Ni1 Ni1 2.9806(7) 98_556 ?
Ni1 Cs1 4.278(8) . ?
Ni1 Cs1 4.278(8) 10_656 ?
Ni1 Cs1 4.278(8) 7_665 ?
O1 H1 0.83(2) . ?
Cs1 Cs1 2.480(11) 100_655 ?
Cs1 Cs1 2.480(11) 98_556 ?
Cs1 C1 3.208(5) 10_656 ?
Cs1 C1 3.208(5) . ?
Cs1 N1 3.389(7) 10_656 ?
Cs1 N1 3.389(7) . ?
Cs1 Cs1 3.508(15) 3_656 ?
Cs1 C2 3.612(4) . ?
Cs1 C2 3.612(4) 10_656 ?
Cs1 H2 3.331(9) . ?
N1 C1 1.341(4) . ?
N1 N1 1.355(5) 100_655 ?
C1 C2 1.389(4) . ?
C1 H2 0.943(19) . ?
C2 C3 1.470(6) . ?
C3 C4 1.386(6) . ?
C4 H4 0.925(19) . ?
