#------------------------------------------------------------------------------
#$Date: 2022-07-27 00:52:35 +0300 (Wed, 27 Jul 2022) $
#$Revision: 276942 $
#$URL: file:///home/coder/svn-repositories/cod/cif/7/13/04/7130405.cif $
#------------------------------------------------------------------------------
#
# This file is available in the Crystallography Open Database (COD),
# http://www.crystallography.net/
#
# All data on this site have been placed in the public domain by the
# contributors.
#
data_7130405
loop_
_publ_author_name
'Freund, Ralph'
'Kalytta-Mewes, Andreas'
'Kraft, Maryana'
'Volkmer, Dirk'
_publ_section_title
;
 Anionic or neutral? The charge of Ni8 cubes in metal-organic framework
 compounds.
;
_journal_name_full               'Chemical Communications'
_journal_paper_doi               10.1039/D2CC03016K
_journal_year                    2022
_chemical_formula_sum            'C72 H54 N24 Ni8 O6'
_chemical_formula_weight         1821.07
_space_group_crystal_system      cubic
_space_group_IT_number           225
_space_group_name_Hall           '-F 4 2 3'
_space_group_name_H-M_alt        'F m -3 m'
_atom_sites_solution_hydrogens   mixed
_audit_creation_method           SHELXL-2018/3
_audit_update_record
;
2022-05-20 deposited with the CCDC.	2022-07-26 downloaded from the CCDC.
;
_cell_angle_alpha                90
_cell_angle_beta                 90
_cell_angle_gamma                90
_cell_formula_units_Z            4
_cell_length_a                   25.3036(11)
_cell_length_b                   25.3036(11)
_cell_length_c                   25.3036(11)
_cell_measurement_reflns_used    9705
_cell_measurement_temperature    150(2)
_cell_measurement_theta_max      33.432
_cell_measurement_theta_min      2.2765
_cell_volume                     16201.2(12)
_computing_cell_refinement       'SAINT V8.40A'
_computing_data_collection       'Bruker APEX3'
_computing_data_reduction        'SAINT V8.40A'
_computing_structure_refinement  'SHELXL-2018/3 (Sheldrick, 2018)'
_computing_structure_solution    'SHELXT 2018/2 (Sheldrick, 2018)'
_diffrn_ambient_temperature      150(2)
_diffrn_measured_fraction_theta_full 0.997
_diffrn_measured_fraction_theta_max 0.998
_diffrn_measurement_device_type  'Bruker D8 Venture'
_diffrn_radiation_type           MoK\a
_diffrn_radiation_wavelength     0.71073
_diffrn_reflns_av_R_equivalents  0.0483
_diffrn_reflns_av_unetI/netI     0.0067
_diffrn_reflns_Laue_measured_fraction_full 0.997
_diffrn_reflns_Laue_measured_fraction_max 0.998
_diffrn_reflns_limit_h_max       32
_diffrn_reflns_limit_h_min       -32
_diffrn_reflns_limit_k_max       32
_diffrn_reflns_limit_k_min       -32
_diffrn_reflns_limit_l_max       32
_diffrn_reflns_limit_l_min       -32
_diffrn_reflns_number            125932
_diffrn_reflns_point_group_measured_fraction_full 0.997
_diffrn_reflns_point_group_measured_fraction_max 0.998
_diffrn_reflns_theta_full        25.242
_diffrn_reflns_theta_max         27.486
_diffrn_reflns_theta_min         2.277
_diffrn_source                   'fine-focus sealed tube'
_exptl_absorpt_coefficient_mu    0.940
_exptl_absorpt_correction_T_max  0.7355
_exptl_absorpt_correction_T_min  0.6726
_exptl_absorpt_correction_type   multi-scan
_exptl_absorpt_process_details   SADABS-2016/2
_exptl_crystal_colour            green
_exptl_crystal_density_diffrn    0.747
_exptl_crystal_description       octahedral
_exptl_crystal_F_000             3704
_exptl_crystal_size_max          0.08
_exptl_crystal_size_mid          0.08
_exptl_crystal_size_min          0.075
_refine_diff_density_max         0.493
_refine_diff_density_min         -0.232
_refine_diff_density_rms         0.038
_refine_ls_extinction_method     none
_refine_ls_goodness_of_fit_ref   1.122
_refine_ls_hydrogen_treatment    mixed
_refine_ls_matrix_type           full
_refine_ls_number_parameters     42
_refine_ls_number_reflns         993
_refine_ls_number_restraints     2
_refine_ls_restrained_S_all      1.123
_refine_ls_R_factor_all          0.0308
_refine_ls_R_factor_gt           0.0214
_refine_ls_shift/su_max          0.002
_refine_ls_shift/su_mean         0.000
_refine_ls_structure_factor_coef Fsqd
_refine_ls_weighting_details
'w=1/[\s^2^(Fo^2^)+(0.0289P)^2^+26.9618P] where P=(Fo^2^+2Fc^2^)/3'
_refine_ls_weighting_scheme      calc
_refine_ls_wR_factor_gt          0.0551
_refine_ls_wR_factor_ref         0.0629
_reflns_Friedel_coverage         0.000
_reflns_number_gt                850
_reflns_number_total             993
_reflns_threshold_expression     'I > 2\s(I)'
_cod_data_source_file            d2cc03016k1.cif
_cod_data_source_block           mo_vk262_act_cubic_0m_a_sq
_cod_original_cell_volume        16201(2)
_cod_database_code               7130405
_shelx_shelxl_version_number     2018/3
_shelx_space_group_comment
;
The symmetry employed for this shelxl refinement is uniquely defined
by the following loop, which should always be used as a source of
symmetry information in preference to the above space-group names.
They are only intended as comments.
;
_shelx_res_file
;
TITL mo_VK262_act_cubic_0m_a.res in Fm-3m
    mo_vk262_act_cubic_0m_a_sq.res
    created by SHELXL-2018/3 at 18:38:31 on 19-May-2022
REM Old TITL mo_VK262_act_cubic_0m in Fm-3m
REM SHELXT solution in Fm-3m: R1 0.175, Rweak 0.010, Alpha 0.036
REM <I/s>   0.000 for    0 systematic absences,  Orientation as input
REM Formula found by SHELXT:  C36 Ni4 O3
CELL  0.71073  25.3036  25.3036  25.3036   90.000   90.000   90.000
ZERR    4.000   0.0011   0.0011   0.0011    0.000    0.000    0.000
LATT  4
SYMM -X, -Y, Z
SYMM -X, Y, -Z
SYMM X, -Y, -Z
SYMM Z, X, Y
SYMM Z, -X, -Y
SYMM -Z, -X, Y
SYMM -Z, X, -Y
SYMM Y, Z, X
SYMM -Y, Z, -X
SYMM Y, -Z, -X
SYMM -Y, -Z, X
SYMM Y, X, -Z
SYMM -Y, -X, -Z
SYMM Y, -X, Z
SYMM -Y, X, Z
SYMM X, Z, -Y
SYMM -X, Z, Y
SYMM -X, -Z, -Y
SYMM X, -Z, Y
SYMM Z, Y, -X
SYMM Z, -Y, X
SYMM -Z, Y, X
SYMM -Z, -Y, -X
SFAC C H N NI O
UNIT 288 216 96 32 24
LIST 4
ACTA
TEMP -123.150
L.S. 5 0    7
BOND
FMAP 2
omit -1 55
dfix 0.82 O1 H1
DFIX 0.93 C1 H3
PLAN 20
ABIN
WGHT    0.028900   26.961798
FVAR       0.12334   0.50000
NI1   4    0.441686    0.441686    0.441686    10.16667    0.01353    0.01353 =
         0.01353   -0.00178   -0.00178   -0.00178
PART -1
C1    1    0.541881    0.254847    0.283724    10.50000    0.07263    0.07846 =
         0.07518   -0.05823   -0.03139    0.02787
H3    2    0.574902    0.256711    0.302260    10.50000    0.10048
PART 0
N1    3    0.473969    0.390382    0.390382    10.50000    0.04135    0.03121 =
         0.03121   -0.01617   -0.00054   -0.00054
O1    5    0.420792    0.500000    0.500000    10.12500    0.00671    0.01525 =
         0.01525    0.00000    0.00000    0.00000
H1    2    0.389777    0.500000    0.500000    10.12500   -1.20000
C2    1    0.457110    0.354632    0.354632    10.50000    0.04603    0.04800 =
         0.04800   -0.02843   -0.00403   -0.00403
AFIX  43
H2    2    0.421111    0.347094    0.347094    10.50000   -1.20000
AFIX   0
C3    1    0.500000    0.330448    0.330448    10.25000    0.05354    0.04587 =
         0.04587   -0.03027    0.00000    0.00000
C4    1    0.500000    0.289310    0.289310    10.25000    0.06426    0.05145 =
         0.05145   -0.03786    0.00000    0.00000
HKLF 4




REM  mo_VK262_act_cubic_0m_a.res in Fm-3m
REM wR2 = 0.062912, GooF = S = 1.12160, Restrained GooF = 1.12337 for all data
REM R1 = 0.021379 for 850 Fo > 4sig(Fo) and 0.030777 for all 993 data
REM 42 parameters refined using 2 restraints

END

WGHT      0.0289     26.9616

REM Highest difference peak  0.493,  deepest hole -0.232,  1-sigma level  0.038
Q1    1   0.3497  0.5000  0.5000  10.12500  0.05    0.49
Q2    1   0.4212  0.4212  0.4212  10.16667  0.05    0.29
Q3    1   0.5000  0.3975  0.3975  10.25000  0.05    0.23
Q4    1   0.4461  0.4109  0.4109  10.50000  0.05    0.23
Q5    1   0.4236  0.4236  0.4707  10.50000  0.05    0.20
Q6    1   0.4624  0.4624  0.4624  10.16667  0.05    0.18
Q7    1   0.4309  0.5000  0.4712  10.50000  0.05    0.17
Q8    1   0.4336  0.5195  0.5195  10.50000  0.05    0.17
Q9    1   0.5000  0.3100  0.3100  10.25000  0.05    0.17
Q10   1   0.4610  0.4134  0.4134  10.50000  0.05    0.16
Q11   1   0.5000  0.3471  0.4101  10.50000  0.05    0.16
Q12   1   0.4498  0.5000  0.5000  10.12500  0.05    0.15
Q13   1   0.5000  0.3024  0.3791  10.50000  0.05    0.15
Q14   1   0.5000  0.3905  0.3424  10.50000  0.05    0.14
Q15   1   0.5000  0.4220  0.3633  10.50000  0.05    0.14
Q16   1   0.4120  0.4527  0.4527  10.50000  0.05    0.14
Q17   1   0.5903  0.2845  0.2845  10.50000  0.05    0.14
Q18   1   0.4389  0.4589  0.4069  11.00000  0.05    0.14
Q19   1   0.4048  0.5000  0.5000  10.12500  0.05    0.13
Q20   1   0.5000  0.3889  0.3143  10.50000  0.05    0.12
;
_shelx_res_checksum              15734
_shelx_fab_file
;
    0    2    2     10.06      0.00
    2    2    2   -427.98      0.00
    1    1    3    -84.45      0.00
    1    3    3    100.77      0.00
    3    3    3     12.58      0.00
    0    0    4    119.49      0.00
    0    2    4     49.71      0.00
    2    2    4    -13.84      0.00
    0    4    4    192.39      0.00
    2    4    4     15.97      0.00
    4    4    4     47.97      0.00
    1    1    5    -65.09      0.00
    1    3    5     13.26      0.00
    3    3    5      8.60      0.00
    1    5    5    -59.70      0.00
    3    5    5    -35.98      0.00
    5    5    5    -32.56      0.00
    0    0    6     53.04      0.00
    0    2    6    -38.47      0.00
    0    4    6     11.07      0.00
    2    2    6    -22.40      0.00
    2    4    6    -13.26      0.00
    4    4    6     -0.37      0.00
    0    6    6     -2.81      0.00
    2    6    6    -10.93      0.00
    4    6    6      8.03      0.00
    6    6    6     -4.22      0.00
    1    1    7     15.94      0.00
    1    3    7     27.05      0.00
    1    5    7     -6.99      0.00
    3    3    7     53.53      0.00
    3    5    7     -0.21      0.00
    5    5    7     -3.77      0.00
    1    7    7     29.11      0.00
    3    7    7     27.56      0.00
    5    7    7     12.26      0.00
    7    7    7     16.48      0.00
    0    0    8    -10.03      0.00
    0    2    8      3.15      0.00
    0    4    8    -17.76      0.00
    0    6    8     -2.11      0.00
    2    2    8    -23.41      0.00
    2    4    8      0.68      0.00
    2    6    8      4.15      0.00
    4    4    8    -14.59      0.00
    4    6    8     -6.01      0.00
    6    6    8      8.17      0.00
    0    8    8     -7.21      0.00
    2    8    8     -5.81      0.00
    4    8    8      2.80      0.00
    6    8    8     -2.98      0.00
    8    8    8      2.71      0.00
    1    1    9    -21.72      0.00
    1    3    9      0.94      0.00
    1    5    9    -21.43      0.00
    1    7    9      6.34      0.00
    3    3    9      4.59      0.00
    3    5    9    -14.21      0.00
    3    7    9      3.70      0.00
    5    5    9    -21.98      0.00
    5    7    9     -2.53      0.00
    7    7    9     -2.15      0.00
    1    9    9     -9.39      0.00
    3    9    9     -4.84      0.00
    5    9    9     -2.09      0.00
    7    9    9     -1.37      0.00
    9    9    9     -9.59      0.00
    0    0   10     28.95      0.00
    0    2   10     14.72      0.00
    0    4   10     11.43      0.00
    0    6   10     11.88      0.00
    0    8   10     -1.18      0.00
    2    2   10      9.87      0.00
    2    4   10      7.86      0.00
    2    6   10     12.19      0.00
    2    8   10     -2.61      0.00
    4    4   10     -0.46      0.00
    4    6   10      1.50      0.00
    4    8   10      1.90      0.00
    6    6   10     -4.50      0.00
    6    8   10     -1.62      0.00
    8    8   10     -4.18      0.00
    0   10   10     16.25      0.00
    2   10   10      1.23      0.00
    4   10   10      5.05      0.00
    6   10   10      4.55      0.00
    8   10   10      0.23      0.00
   10   10   10      2.85      0.00
    1    1   11     -6.83      0.00
    1    3   11      6.90      0.00
    1    5   11     -4.66      0.00
    1    7   11      6.09      0.00
    1    9   11     -2.32      0.00
    3    3   11     13.45      0.00
    3    5   11      1.94      0.00
    3    7   11      7.93      0.00
    3    9   11      1.25      0.00
    5    5   11     -1.78      0.00
    5    7   11      3.18      0.00
    5    9   11      1.04      0.00
    7    7   11     -1.85      0.00
    7    9   11      1.88      0.00
    9    9   11      1.92      0.00
    1   11   11     -1.23      0.00
    3   11   11     -5.78      0.00
    5   11   11     -2.62      0.00
    7   11   11      1.80      0.00
    9   11   11     -2.44      0.00
   11   11   11      2.11      0.00
    0    0   12      3.62      0.00
    0    2   12    -11.88      0.00
    0    4   12     -3.88      0.00
    0    6   12      2.38      0.00
    0    8   12     -4.61      0.00
    0   10   12      3.45      0.00
    2    2   12    -12.06      0.00
    2    4   12     -3.07      0.00
    2    6   12      0.17      0.00
    2    8   12     -8.81      0.00
    2   10   12     -2.07      0.00
    4    4   12     -0.86      0.00
    4    6   12      4.45      0.00
    4    8   12     -1.76      0.00
    4   10   12      4.37      0.00
    6    6   12      3.23      0.00
    6    8   12     -1.85      0.00
    6   10   12     -2.87      0.00
    8    8   12      1.67      0.00
    8   10   12      1.78      0.00
   10   10   12     -1.16      0.00
    0   12   12      9.99      0.00
    2   12   12     -6.96      0.00
    4   12   12     -1.81      0.00
    6   12   12      3.60      0.00
    8   12   12     -2.37      0.00
   10   12   12      0.75      0.00
   12   12   12      2.94      0.00
    1    1   13      5.80      0.00
    1    3   13      2.46      0.00
    1    5   13     -3.31      0.00
    1    7   13      0.28      0.00
    1    9   13      5.07      0.00
    1   11   13      1.56      0.00
    3    3   13     13.73      0.00
    3    5   13     -1.24      0.00
    3    7   13     -3.03      0.00
    3    9   13      4.53      0.00
    3   11   13     -1.74      0.00
    5    5   13      0.98      0.00
    5    7   13     -2.35      0.00
    5    9   13      2.58      0.00
    5   11   13     -0.86      0.00
    7    7   13      0.55      0.00
    7    9   13      1.72      0.00
    7   11   13     -4.31      0.00
    9    9   13      3.77      0.00
    9   11   13      1.39      0.00
   11   11   13      1.32      0.00
    1   13   13      4.46      0.00
    3   13   13      4.77      0.00
    5   13   13     -1.32      0.00
    7   13   13      1.81      0.00
    9   13   13      0.73      0.00
   11   13   13     -1.96      0.00
   13   13   13      4.65      0.00
    0    0   14     15.26      0.00
    0    2   14      3.66      0.00
    0    4   14     -0.80      0.00
    0    6   14      0.71      0.00
    0    8   14      3.73      0.00
    0   10   14      7.08      0.00
    0   12   14      5.69      0.00
    2    2   14      0.37      0.00
    2    4   14      0.32      0.00
    2    6   14      1.94      0.00
    2    8   14     -0.27      0.00
    2   10   14     -0.45      0.00
    2   12   14      0.75      0.00
    4    4   14      0.95      0.00
    4    6   14     -0.47      0.00
    4    8   14     -0.73      0.00
    4   10   14      2.57      0.00
    4   12   14      3.22      0.00
    6    6   14      2.13      0.00
    6    8   14      1.99      0.00
    6   10   14     -0.65      0.00
    6   12   14     -6.72      0.00
    8    8   14      1.50      0.00
    8   10   14     -0.77      0.00
    8   12   14      5.03      0.00
   10   10   14     -2.14      0.00
   10   12   14      0.53      0.00
   12   12   14      3.10      0.00
    0   14   14     -0.32      0.00
    2   14   14     -3.32      0.00
    4   14   14     -2.01      0.00
    6   14   14     -0.09      0.00
    8   14   14     -1.71      0.00
   10   14   14     -2.55      0.00
   12   14   14      1.11      0.00
   14   14   14      9.93      0.00
    1    1   15     -6.51      0.00
    1    3   15     -3.38      0.00
    1    5   15     -0.13      0.00
    1    7   15     -3.14      0.00
    1    9   15      3.55      0.00
    1   11   15     -3.85      0.00
    1   13   15      0.33      0.00
    3    3   15     -4.39      0.00
    3    5   15      2.59      0.00
    3    7   15     -2.98      0.00
    3    9   15      2.60      0.00
    3   11   15     -0.69      0.00
    3   13   15     -0.52      0.00
    5    5   15      0.62      0.00
    5    7   15     -0.23      0.00
    5    9   15      8.48      0.00
    5   11   15     -4.76      0.00
    5   13   15      1.44      0.00
    7    7   15     -4.43      0.00
    7    9   15      0.15      0.00
    7   11   15     -3.00      0.00
    7   13   15     -0.95      0.00
    9    9   15      1.28      0.00
    9   11   15     -0.46      0.00
    9   13   15      0.98      0.00
   11   11   15     -0.68      0.00
   11   13   15     -1.42      0.00
   13   13   15      0.77      0.00
    1   15   15      3.67      0.00
    3   15   15      2.50      0.00
    5   15   15      1.02      0.00
    7   15   15      1.18      0.00
    9   15   15      3.91      0.00
   11   15   15     -2.08      0.00
   13   15   15      2.40      0.00
   15   15   15     -0.05      0.00
    0    0   16      3.89      0.00
    0    2   16     -2.22      0.00
    0    4   16      0.42      0.00
    0    6   16      0.12      0.00
    0    8   16     -2.73      0.00
    0   10   16     -3.80      0.00
    0   12   16      0.59      0.00
    0   14   16     -3.32      0.00
    2    2   16      3.38      0.00
    2    4   16      0.92      0.00
    2    6   16      1.40      0.00
    2    8   16      1.75      0.00
    2   10   16     -3.27      0.00
    2   12   16     -0.39      0.00
    2   14   16     -1.76      0.00
    4    4   16     -1.93      0.00
    4    6   16     -2.56      0.00
    4    8   16     -0.07      0.00
    4   10   16      0.84      0.00
    4   12   16      0.73      0.00
    4   14   16     -3.45      0.00
    6    6   16      0.79      0.00
    6    8   16      0.43      0.00
    6   10   16     -2.58      0.00
    6   12   16      2.44      0.00
    6   14   16      0.47      0.00
    8    8   16      0.57      0.00
    8   10   16     -0.42      0.00
    8   12   16      1.57      0.00
    8   14   16     -1.47      0.00
   10   10   16     -3.51      0.00
   10   12   16     -1.36      0.00
   10   14   16     -2.73      0.00
   12   12   16     -1.06      0.00
   12   14   16     -0.33      0.00
   14   14   16     -1.07      0.00
    0   16   16      1.36      0.00
    2   16   16      1.99      0.00
    4   16   16     -2.85      0.00
    6   16   16     -1.23      0.00
    8   16   16      1.60      0.00
   10   16   16     -3.53      0.00
   12   16   16     -0.68      0.00
   14   16   16     -1.72      0.00
   16   16   16     -0.70      0.00
    1    1   17      8.01      0.00
    1    3   17      1.83      0.00
    1    5   17      5.94      0.00
    1    7   17     -2.78      0.00
    1    9   17      4.05      0.00
    1   11   17     -2.74      0.00
    1   13   17     -3.48      0.00
    1   15   17      1.37      0.00
    3    3   17     -2.12      0.00
    3    5   17      0.94      0.00
    3    7   17     -6.15      0.00
    3    9   17      2.72      0.00
    3   11   17     -1.67      0.00
    3   13   17     -2.35      0.00
    3   15   17     -2.28      0.00
    5    5   17      4.63      0.00
    5    7   17     -1.08      0.00
    5    9   17      0.62      0.00
    5   11   17     -0.81      0.00
    5   13   17     -0.53      0.00
    5   15   17      1.44      0.00
    7    7   17     -4.68      0.00
    7    9   17      0.51      0.00
    7   11   17     -1.49      0.00
    7   13   17      0.10      0.00
    7   15   17     -2.49      0.00
    9    9   17      3.28      0.00
    9   11   17      2.29      0.00
    9   13   17      1.10      0.00
    9   15   17      0.61      0.00
   11   11   17     -2.01      0.00
   11   13   17      1.98      0.00
   11   15   17     -1.32      0.00
   13   13   17      1.22      0.00
   13   15   17      3.15      0.00
   15   15   17     -0.73      0.00
    1   17   17     -0.26      0.00
    3   17   17     -1.94      0.00
    5   17   17      0.50      0.00
    7   17   17     -2.53      0.00
    9   17   17      3.23      0.00
   11   17   17     -1.86      0.00
   13   17   17      3.08      0.00
   15   17   17     -0.11      0.00
   17   17   17      4.00      0.00
    0    0   18     -7.00      0.00
    0    2   18      0.98      0.00
    0    4   18     -4.19      0.00
    0    6   18     -3.43      0.00
    0    8   18      2.49      0.00
    0   10   18     -1.11      0.00
    0   12   18     -0.62      0.00
    0   14   18      3.96      0.00
    0   16   18      2.66      0.00
    2    2   18     -0.03      0.00
    2    4   18      3.13      0.00
    2    6   18      1.61      0.00
    2    8   18      1.28      0.00
    2   10   18      1.17      0.00
    2   12   18      4.00      0.00
    2   14   18      2.31      0.00
    2   16   18      0.63      0.00
    4    4   18     -2.98      0.00
    4    6   18     -0.30      0.00
    4    8   18      0.63      0.00
    4   10   18     -3.08      0.00
    4   12   18      0.86      0.00
    4   14   18     -1.80      0.00
    4   16   18      1.84      0.00
    6    6   18      1.76      0.00
    6    8   18      0.63      0.00
    6   10   18     -0.86      0.00
    6   12   18      2.88      0.00
    6   14   18      0.49      0.00
    6   16   18      1.25      0.00
    8    8   18      2.79      0.00
    8   10   18     -0.74      0.00
    8   12   18      4.17      0.00
    8   14   18      1.86      0.00
    8   16   18      0.66      0.00
   10   10   18      0.48      0.00
   10   12   18      3.57      0.00
   10   14   18      0.75      0.00
   10   16   18     -1.07      0.00
   12   12   18      2.03      0.00
   12   14   18      5.26      0.00
   12   16   18      1.40      0.00
   14   14   18      0.91      0.00
   14   16   18      0.95      0.00
   16   16   18     -1.24      0.00
    0   18   18      2.98      0.00
    2   18   18      0.80      0.00
    4   18   18      2.42      0.00
    6   18   18      2.76      0.00
    8   18   18      0.84      0.00
   10   18   18      0.09      0.00
   12   18   18      0.17      0.00
   14   18   18      0.31      0.00
   16   18   18      0.33      0.00
   18   18   18     -2.00      0.00
    1    1   19     -0.57      0.00
    1    3   19     -2.65      0.00
    1    5   19      3.34      0.00
    1    7   19     -1.64      0.00
    1    9   19     -0.17      0.00
    1   11   19     -0.03      0.00
    1   13   19      6.08      0.00
    1   15   19      1.49      0.00
    1   17   19     -1.04      0.00
    3    3   19     -7.63      0.00
    3    5   19      0.90      0.00
    3    7   19     -3.48      0.00
    3    9   19      2.56      0.00
    3   11   19      0.04      0.00
    3   13   19     -0.08      0.00
    3   15   19      0.35      0.00
    3   17   19     -1.88      0.00
    5    5   19      5.51      0.00
    5    7   19     -1.59      0.00
    5    9   19      0.41      0.00
    5   11   19      1.57      0.00
    5   13   19     -0.77      0.00
    5   15   19      0.52      0.00
    5   17   19     -0.04      0.00
    7    7   19      4.08      0.00
    7    9   19      0.91      0.00
    7   11   19      0.31      0.00
    7   13   19     -1.10      0.00
    7   15   19     -2.07      0.00
    7   17   19     -0.36      0.00
    9    9   19     -0.96      0.00
    9   11   19      0.37      0.00
    9   13   19      5.78      0.00
    9   15   19     -2.52      0.00
    9   17   19      1.57      0.00
   11   11   19     -2.43      0.00
   11   13   19     -2.17      0.00
   11   15   19     -1.59      0.00
   11   17   19     -0.97      0.00
   13   13   19      3.97      0.00
   13   15   19     -3.72      0.00
   13   17   19      1.55      0.00
   15   15   19     -2.88      0.00
   15   17   19      0.35      0.00
   17   17   19     -1.34      0.00
    1   19   19     -0.35      0.00
    3   19   19      1.28      0.00
    5   19   19     -0.10      0.00
    7   19   19     -1.75      0.00
    9   19   19     -3.03      0.00
   11   19   19      0.23      0.00
   13   19   19     -3.23      0.00
   15   19   19     -2.52      0.00
   17   19   19      1.02      0.00
    0    0   20     -4.59      0.00
    0    2   20      1.63      0.00
    0    4   20     -0.71      0.00
    0    6   20     -4.85      0.00
    0    8   20     -2.10      0.00
    0   10   20     -1.23      0.00
    0   12   20      3.28      0.00
    0   14   20      0.73      0.00
    0   16   20     -3.11      0.00
    0   18   20     -1.32      0.00
    2    2   20      3.01      0.00
    2    4   20     -0.10      0.00
    2    6   20      3.62      0.00
    2    8   20      1.87      0.00
    2   10   20     -1.22      0.00
    2   12   20      0.14      0.00
    2   14   20     -0.22      0.00
    2   16   20     -3.28      0.00
    2   18   20      0.45      0.00
    4    4   20     -2.96      0.00
    4    6   20     -1.83      0.00
    4    8   20     -0.99      0.00
    4   10   20     -1.58      0.00
    4   12   20     -0.06      0.00
    4   14   20     -1.77      0.00
    4   16   20     -1.56      0.00
    4   18   20     -1.66      0.00
    6    6   20     -3.22      0.00
    6    8   20     -0.74      0.00
    6   10   20      0.75      0.00
    6   12   20     -0.21      0.00
    6   14   20     -3.01      0.00
    6   16   20     -1.45      0.00
    6   18   20     -0.42      0.00
    8    8   20      2.34      0.00
    8   10   20     -0.21      0.00
    8   12   20     -0.25      0.00
    8   14   20     -2.28      0.00
    8   16   20      0.05      0.00
    8   18   20     -0.65      0.00
   10   10   20     -1.91      0.00
   10   12   20      1.13      0.00
   10   14   20      1.22      0.00
   10   16   20      0.30      0.00
   10   18   20      0.74      0.00
   12   12   20      0.12      0.00
   12   14   20     -0.66      0.00
   12   16   20      0.96      0.00
   12   18   20      1.48      0.00
   14   14   20      1.49      0.00
   14   16   20      0.89      0.00
   14   18   20      0.21      0.00
   16   16   20     -0.24      0.00
   16   18   20      0.88      0.00
   18   18   20      0.90      0.00
    0   20   20      9.07      0.00
    2   20   20     -0.66      0.00
    4   20   20      1.80      0.00
    6   20   20     -0.09      0.00
    8   20   20     -2.31      0.00
   10   20   20     -0.12      0.00
   12   20   20     -2.81      0.00
   14   20   20      0.40      0.00
   16   20   20      3.84      0.00
    1    1   21     -0.02      0.00
    1    3   21     -1.74      0.00
    1    5   21      2.51      0.00
    1    7   21     -1.03      0.00
    1    9   21      1.57      0.00
    1   11   21     -0.19      0.00
    1   13   21     -1.16      0.00
    1   15   21      0.11      0.00
    1   17   21     -3.54      0.00
    1   19   21      6.34      0.00
    3    3   21     -6.69      0.00
    3    5   21      1.21      0.00
    3    7   21      5.49      0.00
    3    9   21     -4.88      0.00
    3   11   21     -0.89      0.00
    3   13   21      2.11      0.00
    3   15   21     -1.37      0.00
    3   17   21      4.55      0.00
    3   19   21      1.04      0.00
    5    5   21      2.41      0.00
    5    7   21     -2.59      0.00
    5    9   21     -3.48      0.00
    5   11   21      1.09      0.00
    5   13   21      3.16      0.00
    5   15   21      1.28      0.00
    5   17   21      0.65      0.00
    5   19   21     -2.07      0.00
    7    7   21     -4.51      0.00
    7    9   21      2.62      0.00
    7   11   21      1.52      0.00
    7   13   21     -1.22      0.00
    7   15   21      0.19      0.00
    7   17   21      2.82      0.00
    7   19   21      3.57      0.00
    9    9   21     -1.48      0.00
    9   11   21      0.33      0.00
    9   13   21      3.35      0.00
    9   15   21      3.50      0.00
    9   17   21     -0.57      0.00
    9   19   21     -0.43      0.00
   11   11   21      1.26      0.00
   11   13   21      5.05      0.00
   11   15   21     -2.16      0.00
   11   17   21      9.40      0.00
   11   19   21     -3.73      0.00
   13   13   21      0.62      0.00
   13   15   21      3.68      0.00
   13   17   21      1.96      0.00
   13   19   21     -2.98      0.00
   15   15   21     -1.03      0.00
   15   17   21      1.97      0.00
   15   19   21      1.83      0.00
   17   17   21      2.39      0.00
    1   21   21      0.57      0.00
    3   21   21     10.80      0.00
    5   21   21      3.56      0.00
    7   21   21     -4.57      0.00
    9   21   21     -0.65      0.00
   11   21   21      1.97      0.00
   13   21   21      4.65      0.00
    0    0   22     -4.49      0.00
    0    2   22     -2.25      0.00
    0    4   22     -2.23      0.00
    0    6   22     -0.69      0.00
    0    8   22      0.94      0.00
    0   10   22     -0.42      0.00
    0   12   22     -0.55      0.00
    0   14   22     -1.07      0.00
    0   16   22     -2.56      0.00
    0   18   22     -0.94      0.00
    0   20   22      1.42      0.00
    2    2   22      2.86      0.00
    2    4   22      2.28      0.00
    2    6   22      3.00      0.00
    2    8   22      3.88      0.00
    2   10   22     -1.34      0.00
    2   12   22     -1.73      0.00
    2   14   22     -2.91      0.00
    2   16   22      1.27      0.00
    2   18   22     -0.68      0.00
    2   20   22      5.16      0.00
    4    4   22      1.08      0.00
    4    6   22      6.17      0.00
    4    8   22     -3.01      0.00
    4   10   22     -0.47      0.00
    4   12   22      4.52      0.00
    4   14   22      3.31      0.00
    4   16   22      0.82      0.00
    4   18   22      0.45      0.00
    4   20   22      1.38      0.00
    6    6   22     -4.70      0.00
    6    8   22      1.19      0.00
    6   10   22      0.16      0.00
    6   12   22      3.12      0.00
    6   14   22      0.34      0.00
    6   16   22      2.05      0.00
    6   18   22     -0.27      0.00
    6   20   22     -2.01      0.00
    8    8   22      0.84      0.00
    8   10   22     -0.03      0.00
    8   12   22     -0.31      0.00
    8   14   22      2.06      0.00
    8   16   22     -0.61      0.00
    8   18   22      1.09      0.00
    8   20   22      0.27      0.00
   10   10   22      2.12      0.00
   10   12   22      1.51      0.00
   10   14   22     -0.28      0.00
   10   16   22      1.78      0.00
   10   18   22     -0.56      0.00
   10   20   22     -2.17      0.00
   12   12   22     -3.28      0.00
   12   14   22     -3.98      0.00
   12   16   22      0.58      0.00
   12   18   22     -1.94      0.00
   12   20   22     -0.70      0.00
   14   14   22     -0.90      0.00
   14   16   22     -0.82      0.00
   14   18   22      0.26      0.00
   14   20   22      1.43      0.00
   16   16   22     -2.16      0.00
   16   18   22      0.72      0.00
    0   22   22      8.41      0.00
    2   22   22     -2.99      0.00
    4   22   22      3.20      0.00
    6   22   22     -1.72      0.00
    8   22   22     -1.43      0.00
   10   22   22      8.55      0.00
    1    1   23      4.82      0.00
    1    3   23      2.21      0.00
    1    5   23      1.98      0.00
    1    7   23      2.91      0.00
    1    9   23     -1.24      0.00
    1   11   23      1.83      0.00
    1   13   23     -2.19      0.00
    1   15   23      0.14      0.00
    1   17   23     -3.29      0.00
    1   19   23     -0.70      0.00
    1   21   23      4.55      0.00
    3    3   23      3.27      0.00
    3    5   23      1.31      0.00
    3    7   23     -0.97      0.00
    3    9   23      0.74      0.00
    3   11   23      2.05      0.00
    3   13   23     -0.45      0.00
    3   15   23      1.47      0.00
    3   17   23     -1.67      0.00
    3   19   23      2.58      0.00
    3   21   23     -3.12      0.00
    5    5   23     -3.29      0.00
    5    7   23      0.55      0.00
    5    9   23      0.90      0.00
    5   11   23     -0.10      0.00
    5   13   23      4.43      0.00
    5   15   23     -3.85      0.00
    5   17   23     -2.17      0.00
    5   19   23     -3.81      0.00
    5   21   23     -1.85      0.00
    7    7   23      1.23      0.00
    7    9   23     -1.00      0.00
    7   11   23     -0.56      0.00
    7   13   23     -0.10      0.00
    7   15   23     -0.80      0.00
    7   17   23      0.24      0.00
    7   19   23     -1.97      0.00
    7   21   23      0.68      0.00
    9    9   23      0.18      0.00
    9   11   23      1.28      0.00
    9   13   23     -1.87      0.00
    9   15   23     -1.84      0.00
    9   17   23     -1.15      0.00
    9   19   23     -0.23      0.00
    9   21   23      1.75      0.00
   11   11   23      1.97      0.00
   11   13   23     -3.02      0.00
   11   15   23      0.31      0.00
   11   17   23     -0.94      0.00
   11   19   23     -0.08      0.00
   13   13   23     -0.83      0.00
   13   15   23     -4.70      0.00
   13   17   23      4.03      0.00
   13   19   23     -3.81      0.00
   15   15   23      0.01      0.00
   15   17   23      2.52      0.00
    1   23   23     -3.52      0.00
    3   23   23     -2.96      0.00
    0    0   24     -0.62      0.00
    0    2   24     -1.65      0.00
    0    4   24      0.67      0.00
    0    6   24     -1.76      0.00
    0    8   24     -1.38      0.00
    0   10   24      0.72      0.00
    0   12   24      2.30      0.00
    0   14   24     -1.05      0.00
    0   16   24      2.73      0.00
    0   18   24      0.16      0.00
    0   20   24      3.18      0.00
    0   22   24      2.07      0.00
    2    2   24      1.74      0.00
    2    4   24     -1.67      0.00
    2    6   24     -1.29      0.00
    2    8   24     -1.11      0.00
    2   10   24      0.23      0.00
    2   12   24      1.40      0.00
    2   14   24     -0.79      0.00
    2   16   24      3.18      0.00
    2   18   24      1.05      0.00
    2   20   24      0.01      0.00
    2   22   24      1.59      0.00
    4    4   24     -2.62      0.00
    4    6   24     -8.32      0.00
    4    8   24      5.07      0.00
    4   10   24     -1.25      0.00
    4   12   24     -0.35      0.00
    4   14   24      0.94      0.00
    4   16   24     -0.23      0.00
    4   18   24      0.42      0.00
    4   20   24      1.43      0.00
    4   22   24     -6.36      0.00
    6    6   24     -1.80      0.00
    6    8   24     -0.52      0.00
    6   10   24      0.12      0.00
    6   12   24     -2.71      0.00
    6   14   24     -1.11      0.00
    6   16   24     -0.30      0.00
    6   18   24     -0.40      0.00
    6   20   24     -1.29      0.00
    8    8   24     -1.47      0.00
    8   10   24      0.01      0.00
    8   12   24     -0.11      0.00
    8   14   24     -1.58      0.00
    8   16   24      1.62      0.00
    8   18   24      0.72      0.00
    8   20   24     -1.45      0.00
   10   10   24      1.20      0.00
   10   12   24      1.93      0.00
   10   14   24      1.62      0.00
   10   16   24     -0.46      0.00
   10   18   24     -0.08      0.00
   10   20   24      1.49      0.00
   12   12   24      4.27      0.00
   12   14   24      1.08      0.00
   12   16   24      1.29      0.00
   12   18   24      1.88      0.00
   14   14   24      3.76      0.00
   14   16   24      2.89      0.00
    1    1   25     -3.43      0.00
    1    3   25     -1.87      0.00
    1    5   25     -2.56      0.00
    1    7   25     -0.75      0.00
    1    9   25     -1.88      0.00
    1   11   25      0.93      0.00
    1   13   25     -1.02      0.00
    1   15   25      0.25      0.00
    1   17   25      1.46      0.00
    1   19   25     -0.71      0.00
    1   21   25      0.97      0.00
    3    3   25     -3.70      0.00
    3    5   25      0.68      0.00
    3    7   25      0.56      0.00
    3    9   25      1.29      0.00
    3   11   25     -2.97      0.00
    3   13   25     -2.47      0.00
    3   15   25      0.80      0.00
    3   17   25     -0.14      0.00
    3   19   25      0.52      0.00
    3   21   25      4.80      0.00
    5    5   25     -3.66      0.00
    5    7   25      0.04      0.00
    5    9   25      3.00      0.00
    5   11   25     -1.59      0.00
    5   13   25     -4.38      0.00
    5   15   25      4.44      0.00
    5   17   25     -0.27      0.00
    5   19   25      1.41      0.00
    7    7   25     -0.30      0.00
    7    9   25      1.18      0.00
    7   11   25     -2.02      0.00
    7   13   25     -0.83      0.00
    7   15   25     -0.29      0.00
    7   17   25      1.21      0.00
    7   19   25      1.11      0.00
    9    9   25     -0.44      0.00
    9   11   25     -0.55      0.00
    9   13   25     -0.06      0.00
    9   15   25      1.22      0.00
    9   17   25     -0.22      0.00
    9   19   25     -2.41      0.00
   11   11   25      2.32      0.00
   11   13   25     -0.31      0.00
   11   15   25      0.56      0.00
   11   17   25     -0.03      0.00
   13   13   25      0.69      0.00
   13   15   25      0.32      0.00
   15   15   25     -1.28      0.00
    0    0   26      5.13      0.00
    0    2   26      3.61      0.00
    0    4   26     -0.01      0.00
    0    6   26      1.51      0.00
    0    8   26      2.33      0.00
    0   10   26     -0.73      0.00
    0   12   26      0.52      0.00
    0   14   26      0.89      0.00
    0   16   26     -3.85      0.00
    0   18   26      0.18      0.00
    0   20   26     -5.08      0.00
    2    2   26     -1.81      0.00
    2    4   26      2.29      0.00
    2    6   26      0.14      0.00
    2    8   26      1.87      0.00
    2   10   26     -1.02      0.00
    2   12   26      0.30      0.00
    2   14   26     -0.82      0.00
    2   16   26     -0.20      0.00
    2   18   26      0.84      0.00
    2   20   26     -2.42      0.00
    4    4   26      4.98      0.00
    4    6   26      2.75      0.00
    4    8   26      1.21      0.00
    4   10   26     -0.46      0.00
    4   12   26     -0.66      0.00
    4   14   26     -4.30      0.00
    4   16   26      2.39      0.00
    4   18   26     -4.91      0.00
    6    6   26      0.97      0.00
    6    8   26      1.80      0.00
    6   10   26     -0.62      0.00
    6   12   26     -0.12      0.00
    6   14   26      1.82      0.00
    6   16   26     -1.44      0.00
    6   18   26      0.87      0.00
    8    8   26      0.17      0.00
    8   10   26      1.60      0.00
    8   12   26     -1.01      0.00
    8   14   26     -1.63      0.00
    8   16   26      0.31      0.00
    8   18   26      1.16      0.00
   10   10   26     -1.70      0.00
   10   12   26     -1.51      0.00
   10   14   26     -1.39      0.00
   10   16   26      0.54      0.00
   12   12   26      0.88      0.00
   12   14   26      0.33      0.00
   12   16   26     -0.09      0.00
   14   14   26     -6.41      0.00
    1    1   27      1.05      0.00
    1    3   27      2.14      0.00
    1    5   27      1.98      0.00
    1    7   27     -1.58      0.00
    1    9   27      2.23      0.00
    1   11   27     -1.02      0.00
    1   13   27      1.43      0.00
    1   15   27      1.64      0.00
    1   17   27      2.14      0.00
    3    3   27     -0.08      0.00
    3    5   27     -1.65      0.00
    3    7   27      0.39      0.00
    3    9   27      0.89      0.00
    3   11   27      2.05      0.00
    3   13   27     -2.12      0.00
    3   15   27      0.55      0.00
    3   17   27     -1.53      0.00
    5    5   27      3.36      0.00
    5    7   27     -1.55      0.00
    5    9   27     -2.02      0.00
    5   11   27     -0.39      0.00
    5   13   27      5.07      0.00
    5   15   27      0.13      0.00
    5   17   27     -2.79      0.00
    7    7   27     -2.51      0.00
    7    9   27      1.06      0.00
    7   11   27      0.87      0.00
    7   13   27     -6.93      0.00
    7   15   27     -0.46      0.00
    7   17   27     -1.62      0.00
    9    9   27      2.05      0.00
    9   11   27      1.73      0.00
    9   13   27     -2.66      0.00
    9   15   27      2.18      0.00
   11   11   27     -0.61      0.00
   11   13   27      4.37      0.00
   11   15   27      1.15      0.00
   13   13   27      2.18      0.00
    0    0   28    -12.63      0.00
    0    2   28      2.62      0.00
    0    4   28      8.73      0.00
    0    6   28      2.47      0.00
    0    8   28     -0.33      0.00
    0   10   28     -0.18      0.00
    0   12   28     -3.41      0.00
    0   14   28     -3.77      0.00
    0   16   28     -0.60      0.00
    2    2   28     -0.40      0.00
    2    4   28     -3.18      0.00
    2    6   28     -2.81      0.00
    2    8   28     -2.06      0.00
    2   10   28     -0.39      0.00
    2   12   28     -0.33      0.00
    2   14   28      2.83      0.00
    2   16   28      0.67      0.00
    4    4   28     -4.58      0.00
    4    6   28      0.62      0.00
    4    8   28      0.12      0.00
    4   10   28     -4.70      0.00
    4   12   28      4.66      0.00
    4   14   28      0.42      0.00
    4   16   28     -5.39      0.00
    6    6   28     -2.19      0.00
    6    8   28      0.48      0.00
    6   10   28      0.91      0.00
    6   12   28      1.99      0.00
    6   14   28     -4.43      0.00
    6   16   28      1.08      0.00
    8    8   28     -1.23      0.00
    8   10   28     -1.47      0.00
    8   12   28     -3.96      0.00
    8   14   28     -4.71      0.00
   10   10   28      2.21      0.00
   10   12   28      0.97      0.00
   10   14   28     -0.81      0.00
   12   12   28      6.44      0.00
    1    1   29     -3.03      0.00
    1    3   29      2.82      0.00
    1    5   29      3.83      0.00
    1    7   29     -1.12      0.00
    1    9   29     -0.77      0.00
    1   11   29      0.44      0.00
    1   13   29     -3.65      0.00
    1   15   29      1.44      0.00
    3    3   29      0.92      0.00
    3    5   29     -2.80      0.00
    3    7   29     -2.36      0.00
    3    9   29      2.52      0.00
    3   11   29     -2.55      0.00
    3   13   29      6.75      0.00
    3   15   29     -2.62      0.00
    5    5   29      2.82      0.00
    5    7   29     -0.31      0.00
    5    9   29      2.26      0.00
    5   11   29      0.59      0.00
    5   13   29     -0.19      0.00
    7    7   29      1.04      0.00
    7    9   29      0.37      0.00
    7   11   29      0.20      0.00
    7   13   29     -4.92      0.00
    9    9   29     -3.21      0.00
    9   11   29     -0.26      0.00
    0    0   30     -9.72      0.00
    0    2   30     -5.73      0.00
    0    4   30     -5.13      0.00
    0    6   30     10.63      0.00
    0    8   30     -1.26      0.00
    0   10   30      3.34      0.00
    0   12   30     -0.10      0.00
    2    2   30      1.52      0.00
    2    4   30     -4.43      0.00
    2    6   30     -6.27      0.00
    2    8   30     -0.41      0.00
    2   10   30     -0.36      0.00
    2   12   30      5.23      0.00
    4    4   30      3.60      0.00
    4    6   30      0.01      0.00
    4    8   30      1.51      0.00
    4   10   30     -1.30      0.00
    4   12   30     -2.43      0.00
    6    6   30      1.28      0.00
    6    8   30      3.12      0.00
    6   10   30      1.26      0.00
    6   12   30      4.12      0.00
    8    8   30     -1.94      0.00
    8   10   30     -2.84      0.00
    1    1   31     -4.25      0.00
    1    3   31     -2.95      0.00
    1    5   31     -2.91      0.00
    1    7   31      1.05      0.00
    1    9   31      0.99      0.00
    3    3   31     -4.89      0.00
    3    5   31      2.27      0.00
    3    7   31     -3.66      0.00
    3    9   31      2.66      0.00
    5    5   31      6.51      0.00
    5    7   31     -0.10      0.00
    5    9   31      0.38      0.00
    7    7   31      1.32      0.00
    0    0   32      1.01      0.00
    0    2   32      7.76      0.00
    0    4   32      2.27      0.00
    0    6   32      0.95      0.00
    2    2   32      5.98      0.00
    2    4   32     -2.36      0.00
    2    6   32      1.39      0.00
    4    4   32      6.92      0.00
    4    6   32      1.75      0.00
    1    1    1     99.01      0.00
    0    0    2    -65.14      0.00
   19   19   19     -1.44      0.00
   17   19   21      0.47      0.00
   11   21   23      3.04      0.00
    5   23   23     -8.54      0.00
   16   16   24      2.64      0.00
   13   17   25     -0.34      0.00
    5   21   25      0.18      0.00
    4   20   26      1.45      0.00
    1   19   27     -1.99      0.00
   11   11   29      0.15      0.00
    9   13   29     -0.39      0.00
    5   15   29      1.77      0.00
    7    9   31      1.06      0.00
    1   11   31      1.65      0.00
    3   11   31     -1.06      0.00
    0    8   32      5.65      0.00
    2    8   32     -2.51      0.00
    1    1   33      8.08      0.00
    0    0    0      0.00      0.00
# SQUEEZE RESULTS (Version = 230318)
# Note: Data are Listed for all Voids in the P1 Unit Cell
# i.e. Centre of Gravity, Solvent Accessible Volume,
# Recovered number of Electrons in the Void and
# Details about the Squeezed Material
loop_
  _platon_squeeze_void_nr
  _platon_squeeze_void_average_x
  _platon_squeeze_void_average_y
  _platon_squeeze_void_average_z
  _platon_squeeze_void_volume
  _platon_squeeze_void_count_electrons
  _platon_squeeze_void_content
   1 -0.011 -0.005 -0.005     10170      1218 ' '
# Missing Reflections Below sin(th)/lambda = 0.25
loop_
  _platon_missing_refln_index_h
  _platon_missing_refln_index_k
  _platon_missing_refln_index_l
  _platon_missing_refln_theta
    1    1    1     1.394
    0    0    2     1.610
_platon_squeeze_void_probe_radius                  1.20
_platon_squeeze_details
)
TITL mo_VK262_act_cubic_0m_a.res in Fm-3m
CELL   25.3036   25.3036   25.3036     90.00     90.00     90.00
SPGR Fm-3m
# Solvent Accessible Volume =     10259
# Electrons Found in S.A.V. =      1182
# Note: Atoms in Void are Labelled as Cxxx and Qxxx for all Others
C101 0.015 0.296 0.015 !       0.99 eA-3
Q102 1.000 0.344-0.001 !       0.89 eA-3
C103 0.250 0.250 0.250 !       0.56 eA-3
C104 0.500 0.504 0.234 !       0.50 eA-3
)
;
_shelx_fab_checksum              14685
loop_
_space_group_symop_operation_xyz
'x, y, z'
'-x, -y, z'
'-x, y, -z'
'x, -y, -z'
'z, x, y'
'z, -x, -y'
'-z, -x, y'
'-z, x, -y'
'y, z, x'
'-y, z, -x'
'y, -z, -x'
'-y, -z, x'
'y, x, -z'
'-y, -x, -z'
'y, -x, z'
'-y, x, z'
'x, z, -y'
'-x, z, y'
'-x, -z, -y'
'x, -z, y'
'z, y, -x'
'z, -y, x'
'-z, y, x'
'-z, -y, -x'
'x, y+1/2, z+1/2'
'-x, -y+1/2, z+1/2'
'-x, y+1/2, -z+1/2'
'x, -y+1/2, -z+1/2'
'z, x+1/2, y+1/2'
'z, -x+1/2, -y+1/2'
'-z, -x+1/2, y+1/2'
'-z, x+1/2, -y+1/2'
'y, z+1/2, x+1/2'
'-y, z+1/2, -x+1/2'
'y, -z+1/2, -x+1/2'
'-y, -z+1/2, x+1/2'
'y, x+1/2, -z+1/2'
'-y, -x+1/2, -z+1/2'
'y, -x+1/2, z+1/2'
'-y, x+1/2, z+1/2'
'x, z+1/2, -y+1/2'
'-x, z+1/2, y+1/2'
'-x, -z+1/2, -y+1/2'
'x, -z+1/2, y+1/2'
'z, y+1/2, -x+1/2'
'z, -y+1/2, x+1/2'
'-z, y+1/2, x+1/2'
'-z, -y+1/2, -x+1/2'
'x+1/2, y, z+1/2'
'-x+1/2, -y, z+1/2'
'-x+1/2, y, -z+1/2'
'x+1/2, -y, -z+1/2'
'z+1/2, x, y+1/2'
'z+1/2, -x, -y+1/2'
'-z+1/2, -x, y+1/2'
'-z+1/2, x, -y+1/2'
'y+1/2, z, x+1/2'
'-y+1/2, z, -x+1/2'
'y+1/2, -z, -x+1/2'
'-y+1/2, -z, x+1/2'
'y+1/2, x, -z+1/2'
'-y+1/2, -x, -z+1/2'
'y+1/2, -x, z+1/2'
'-y+1/2, x, z+1/2'
'x+1/2, z, -y+1/2'
'-x+1/2, z, y+1/2'
'-x+1/2, -z, -y+1/2'
'x+1/2, -z, y+1/2'
'z+1/2, y, -x+1/2'
'z+1/2, -y, x+1/2'
'-z+1/2, y, x+1/2'
'-z+1/2, -y, -x+1/2'
'x+1/2, y+1/2, z'
'-x+1/2, -y+1/2, z'
'-x+1/2, y+1/2, -z'
'x+1/2, -y+1/2, -z'
'z+1/2, x+1/2, y'
'z+1/2, -x+1/2, -y'
'-z+1/2, -x+1/2, y'
'-z+1/2, x+1/2, -y'
'y+1/2, z+1/2, x'
'-y+1/2, z+1/2, -x'
'y+1/2, -z+1/2, -x'
'-y+1/2, -z+1/2, x'
'y+1/2, x+1/2, -z'
'-y+1/2, -x+1/2, -z'
'y+1/2, -x+1/2, z'
'-y+1/2, x+1/2, z'
'x+1/2, z+1/2, -y'
'-x+1/2, z+1/2, y'
'-x+1/2, -z+1/2, -y'
'x+1/2, -z+1/2, y'
'z+1/2, y+1/2, -x'
'z+1/2, -y+1/2, x'
'-z+1/2, y+1/2, x'
'-z+1/2, -y+1/2, -x'
'-x, -y, -z'
'x, y, -z'
'x, -y, z'
'-x, y, z'
'-z, -x, -y'
'-z, x, y'
'z, x, -y'
'z, -x, y'
'-y, -z, -x'
'y, -z, x'
'-y, z, x'
'y, z, -x'
'-y, -x, z'
'y, x, z'
'-y, x, -z'
'y, -x, -z'
'-x, -z, y'
'x, -z, -y'
'x, z, y'
'-x, z, -y'
'-z, -y, x'
'-z, y, -x'
'z, -y, -x'
'z, y, x'
'-x, -y+1/2, -z+1/2'
'x, y+1/2, -z+1/2'
'x, -y+1/2, z+1/2'
'-x, y+1/2, z+1/2'
'-z, -x+1/2, -y+1/2'
'-z, x+1/2, y+1/2'
'z, x+1/2, -y+1/2'
'z, -x+1/2, y+1/2'
'-y, -z+1/2, -x+1/2'
'y, -z+1/2, x+1/2'
'-y, z+1/2, x+1/2'
'y, z+1/2, -x+1/2'
'-y, -x+1/2, z+1/2'
'y, x+1/2, z+1/2'
'-y, x+1/2, -z+1/2'
'y, -x+1/2, -z+1/2'
'-x, -z+1/2, y+1/2'
'x, -z+1/2, -y+1/2'
'x, z+1/2, y+1/2'
'-x, z+1/2, -y+1/2'
'-z, -y+1/2, x+1/2'
'-z, y+1/2, -x+1/2'
'z, -y+1/2, -x+1/2'
'z, y+1/2, x+1/2'
'-x+1/2, -y, -z+1/2'
'x+1/2, y, -z+1/2'
'x+1/2, -y, z+1/2'
'-x+1/2, y, z+1/2'
'-z+1/2, -x, -y+1/2'
'-z+1/2, x, y+1/2'
'z+1/2, x, -y+1/2'
'z+1/2, -x, y+1/2'
'-y+1/2, -z, -x+1/2'
'y+1/2, -z, x+1/2'
'-y+1/2, z, x+1/2'
'y+1/2, z, -x+1/2'
'-y+1/2, -x, z+1/2'
'y+1/2, x, z+1/2'
'-y+1/2, x, -z+1/2'
'y+1/2, -x, -z+1/2'
'-x+1/2, -z, y+1/2'
'x+1/2, -z, -y+1/2'
'x+1/2, z, y+1/2'
'-x+1/2, z, -y+1/2'
'-z+1/2, -y, x+1/2'
'-z+1/2, y, -x+1/2'
'z+1/2, -y, -x+1/2'
'z+1/2, y, x+1/2'
'-x+1/2, -y+1/2, -z'
'x+1/2, y+1/2, -z'
'x+1/2, -y+1/2, z'
'-x+1/2, y+1/2, z'
'-z+1/2, -x+1/2, -y'
'-z+1/2, x+1/2, y'
'z+1/2, x+1/2, -y'
'z+1/2, -x+1/2, y'
'-y+1/2, -z+1/2, -x'
'y+1/2, -z+1/2, x'
'-y+1/2, z+1/2, x'
'y+1/2, z+1/2, -x'
'-y+1/2, -x+1/2, z'
'y+1/2, x+1/2, z'
'-y+1/2, x+1/2, -z'
'y+1/2, -x+1/2, -z'
'-x+1/2, -z+1/2, y'
'x+1/2, -z+1/2, -y'
'x+1/2, z+1/2, y'
'-x+1/2, z+1/2, -y'
'-z+1/2, -y+1/2, x'
'-z+1/2, y+1/2, -x'
'z+1/2, -y+1/2, -x'
'z+1/2, y+1/2, x'
loop_
_atom_site_label
_atom_site_type_symbol
_atom_site_fract_x
_atom_site_fract_y
_atom_site_fract_z
_atom_site_U_iso_or_equiv
_atom_site_adp_type
_atom_site_occupancy
_atom_site_site_symmetry_order
_atom_site_calc_flag
_atom_site_refinement_flags_posn
_atom_site_refinement_flags_adp
_atom_site_refinement_flags_occupancy
_atom_site_disorder_assembly
_atom_site_disorder_group
Ni1 Ni 0.44169(2) 0.44169(2) 0.44169(2) 0.01353(12) Uani 1 6 d S T P . .
C1 C 0.54188(15) 0.25485(15) 0.28372(14) 0.0754(15) Uani 0.5 1 d D . P A -1
H3 H 0.5749(10) 0.2567(17) 0.3023(13) 0.100(15) Uiso 0.5 1 d D . P B -1
N1 N 0.47397(6) 0.39038(4) 0.39038(4) 0.0346(3) Uani 1 2 d S T P . .
O1 O 0.42079(7) 0.500000 0.500000 0.0124(4) Uani 1 8 d DS T P . .
H1 H 0.3898(7) 0.500000 0.500000 0.015 Uiso 1 8 d DS U P . .
C2 C 0.45711(9) 0.35463(5) 0.35463(5) 0.0473(5) Uani 1 2 d S T P . .
H2 H 0.421111 0.347094 0.347094 0.057 Uiso 1 2 calc R U P . .
C3 C 0.500000 0.33045(7) 0.33045(7) 0.0484(7) Uani 1 4 d S T P A .
C4 C 0.500000 0.28931(7) 0.28931(7) 0.0557(9) Uani 1 4 d S T P . .
loop_
_atom_site_aniso_label
_atom_site_aniso_U_11
_atom_site_aniso_U_22
_atom_site_aniso_U_33
_atom_site_aniso_U_23
_atom_site_aniso_U_13
_atom_site_aniso_U_12
Ni1 0.01353(12) 0.01353(12) 0.01353(12) -0.00178(6) -0.00178(6) -0.00178(6)
C1 0.073(2) 0.078(3) 0.075(3) -0.058(2) -0.0314(18) 0.0279(18)
N1 0.0414(8) 0.0312(5) 0.0312(5) -0.0162(6) -0.0005(4) -0.0005(4)
O1 0.0067(8) 0.0153(5) 0.0153(5) 0.000 0.000 0.000
C2 0.0460(11) 0.0480(8) 0.0480(8) -0.0284(10) -0.0040(5) -0.0040(5)
C3 0.0535(17) 0.0459(11) 0.0459(11) -0.0303(13) 0.000 0.000
C4 0.064(2) 0.0515(12) 0.0515(12) -0.0379(15) 0.000 0.000
loop_
_atom_type_symbol
_atom_type_description
_atom_type_scat_dispersion_real
_atom_type_scat_dispersion_imag
_atom_type_scat_source
C C 0.0033 0.0016 'International Tables Vol C Tables 4.2.6.8 and 6.1.1.4'
H H 0.0000 0.0000 'International Tables Vol C Tables 4.2.6.8 and 6.1.1.4'
N N 0.0061 0.0033 'International Tables Vol C Tables 4.2.6.8 and 6.1.1.4'
Ni Ni 0.3393 1.1124 'International Tables Vol C Tables 4.2.6.8 and 6.1.1.4'
O O 0.0106 0.0060 'International Tables Vol C Tables 4.2.6.8 and 6.1.1.4'
loop_
_geom_angle_atom_site_label_1
_geom_angle_atom_site_label_2
_geom_angle_atom_site_label_3
_geom_angle
_geom_angle_site_symmetry_1
_geom_angle_site_symmetry_3
_geom_angle_publ_flag
N1 Ni1 N1 96.19(6) . 9 ?
N1 Ni1 N1 96.19(6) . 5 ?
N1 Ni1 N1 96.19(6) 9 5 ?
N1 Ni1 O1 170.23(6) . . ?
N1 Ni1 O1 90.32(5) 9 . ?
N1 Ni1 O1 90.32(5) 5 . ?
N1 Ni1 O1 90.32(5) . 5 ?
N1 Ni1 O1 90.32(5) 9 5 ?
N1 Ni1 O1 170.23(6) 5 5 ?
O1 Ni1 O1 82.35(7) . 5 ?
N1 Ni1 O1 90.32(5) . 9 ?
N1 Ni1 O1 170.23(6) 9 9 ?
N1 Ni1 O1 90.32(5) 5 9 ?
O1 Ni1 O1 82.35(7) . 9 ?
O1 Ni1 O1 82.35(7) 5 9 ?
N1 Ni1 Ni1 130.245(16) . 98_556 ?
N1 Ni1 Ni1 66.02(4) 9 98_556 ?
N1 Ni1 Ni1 130.245(16) 5 98_556 ?
O1 Ni1 Ni1 46.728(11) . 98_556 ?
O1 Ni1 Ni1 46.729(11) 5 98_556 ?
O1 Ni1 Ni1 104.22(5) 9 98_556 ?
N1 Ni1 Ni1 130.245(16) . 99_565 ?
N1 Ni1 Ni1 130.245(16) 9 99_565 ?
N1 Ni1 Ni1 66.02(4) 5 99_565 ?
O1 Ni1 Ni1 46.728(11) . 99_565 ?
O1 Ni1 Ni1 104.22(5) 5 99_565 ?
O1 Ni1 Ni1 46.729(11) 9 99_565 ?
Ni1 Ni1 Ni1 90.0 98_556 99_565 ?
N1 Ni1 Ni1 66.02(4) . 100_655 ?
N1 Ni1 Ni1 130.245(16) 9 100_655 ?
N1 Ni1 Ni1 130.245(16) 5 100_655 ?
O1 Ni1 Ni1 104.22(5) . 100_655 ?
O1 Ni1 Ni1 46.729(11) 5 100_655 ?
O1 Ni1 Ni1 46.729(11) 9 100_655 ?
Ni1 Ni1 Ni1 90.0 98_556 100_655 ?
Ni1 Ni1 Ni1 90.0 99_565 100_655 ?
N1 N1 C2 108.44(11) 100_655 . ?
N1 N1 Ni1 113.99(4) 100_655 . ?
C2 N1 Ni1 137.57(14) . . ?
Ni1 O1 Ni1 86.54(2) 4_566 99_565 ?
Ni1 O1 Ni1 86.54(2) 4_566 98_556 ?
Ni1 O1 Ni1 151.56(9) 99_565 98_556 ?
Ni1 O1 Ni1 151.56(9) 4_566 . ?
Ni1 O1 Ni1 86.54(2) 99_565 . ?
Ni1 O1 Ni1 86.54(2) 98_556 . ?
N1 C2 C3 110.13(19) . . ?
C2 C3 C2 102.9(2) 100_655 . ?
C2 C3 C4 128.57(12) 100_655 . ?
C2 C3 C4 128.57(12) . . ?
C1 C4 C3 121.29(16) . . ?
loop_
_geom_bond_atom_site_label_1
_geom_bond_atom_site_label_2
_geom_bond_distance
_geom_bond_site_symmetry_2
_geom_bond_publ_flag
Ni1 N1 2.0094(14) . ?
Ni1 N1 2.0095(14) 9 ?
Ni1 N1 2.0095(14) 5 ?
Ni1 O1 2.1527(5) . ?
Ni1 O1 2.1527(5) 5 ?
Ni1 O1 2.1527(5) 9 ?
Ni1 Ni1 2.9510(3) 98_556 ?
Ni1 Ni1 2.9510(3) 99_565 ?
Ni1 Ni1 2.9510(3) 100_655 ?
C1 C4 1.380(4) . ?
N1 N1 1.317(3) 100_655 ?
N1 C2 1.349(2) . ?
C2 C3 1.388(3) . ?
C3 C4 1.472(4) . ?
