#------------------------------------------------------------------------------
#$Date: 2022-07-27 00:52:35 +0300 (Wed, 27 Jul 2022) $
#$Revision: 276942 $
#$URL: file:///home/coder/svn-repositories/cod/cif/7/13/04/7130404.cif $
#------------------------------------------------------------------------------
#
# This file is available in the Crystallography Open Database (COD),
# http://www.crystallography.net/
#
# All data on this site have been placed in the public domain by the
# contributors.
#
data_7130404
loop_
_publ_author_name
'Freund, Ralph'
'Kalytta-Mewes, Andreas'
'Kraft, Maryana'
'Volkmer, Dirk'
_publ_section_title
;
 Anionic or neutral? The charge of Ni8 cubes in metal-organic framework
 compounds.
;
_journal_name_full               'Chemical Communications'
_journal_paper_doi               10.1039/D2CC03016K
_journal_year                    2022
_chemical_formula_sum            'C72 H54 Cs1.27 N24 Ni8 O6'
_chemical_formula_weight         1990.00
_space_group_crystal_system      cubic
_space_group_IT_number           225
_space_group_name_Hall           '-F 4 2 3'
_space_group_name_H-M_alt        'F m -3 m'
_atom_sites_solution_hydrogens   difmap
_audit_creation_method           SHELXL-2018/3
_audit_update_record
;
2022-05-20 deposited with the CCDC.	2022-07-26 downloaded from the CCDC.
;
_cell_angle_alpha                90
_cell_angle_beta                 90
_cell_angle_gamma                90
_cell_formula_units_Z            4
_cell_length_a                   25.4123(5)
_cell_length_b                   25.4123(5)
_cell_length_c                   25.4123(5)
_cell_measurement_reflns_used    9946
_cell_measurement_temperature    150(2)
_cell_measurement_theta_max      39.671
_cell_measurement_theta_min      2.6585
_cell_volume                     16410.9(6)
_computing_cell_refinement       'SAINT V8.40A'
_computing_data_collection       'Bruker APEX3'
_computing_data_reduction        'SAINT V8.40A'
_computing_structure_refinement  'SHELXL-2018/3 (Sheldrick, 2018)'
_computing_structure_solution    'SHELXT 2014/5 (Sheldrick, 2014)'
_diffrn_ambient_temperature      150(2)
_diffrn_measured_fraction_theta_full 0.998
_diffrn_measured_fraction_theta_max 0.998
_diffrn_measurement_device_type  'Bruker D8 Venture'
_diffrn_radiation_type           MoK\a
_diffrn_radiation_wavelength     0.71073
_diffrn_reflns_av_R_equivalents  0.0337
_diffrn_reflns_av_unetI/netI     0.0126
_diffrn_reflns_Laue_measured_fraction_full 0.998
_diffrn_reflns_Laue_measured_fraction_max 0.998
_diffrn_reflns_limit_h_max       25
_diffrn_reflns_limit_h_min       -35
_diffrn_reflns_limit_k_max       35
_diffrn_reflns_limit_k_min       -28
_diffrn_reflns_limit_l_max       35
_diffrn_reflns_limit_l_min       -27
_diffrn_reflns_number            25161
_diffrn_reflns_point_group_measured_fraction_full 0.998
_diffrn_reflns_point_group_measured_fraction_max 0.998
_diffrn_reflns_theta_full        25.242
_diffrn_reflns_theta_max         29.956
_diffrn_reflns_theta_min         2.267
_diffrn_source                   'fine-focus sealed tube'
_exptl_absorpt_coefficient_mu    1.207
_exptl_absorpt_correction_T_max  0.7478
_exptl_absorpt_correction_T_min  0.6476
_exptl_absorpt_correction_type   multi-scan
_exptl_absorpt_process_details   SADABS-2016/2
_exptl_crystal_colour            green
_exptl_crystal_density_diffrn    0.805
_exptl_crystal_description       octahedral
_exptl_crystal_F_000             3984
_exptl_crystal_size_max          0.08
_exptl_crystal_size_mid          0.08
_exptl_crystal_size_min          0.075
_refine_diff_density_max         1.603
_refine_diff_density_min         -0.815
_refine_diff_density_rms         0.097
_refine_ls_extinction_method     none
_refine_ls_goodness_of_fit_ref   1.105
_refine_ls_hydrogen_treatment    refall
_refine_ls_matrix_type           full
_refine_ls_number_parameters     52
_refine_ls_number_reflns         1249
_refine_ls_number_restraints     8
_refine_ls_restrained_S_all      1.195
_refine_ls_R_factor_all          0.0425
_refine_ls_R_factor_gt           0.0388
_refine_ls_shift/su_max          0.001
_refine_ls_shift/su_mean         0.000
_refine_ls_structure_factor_coef Fsqd
_refine_ls_weighting_details
'w=1/[\s^2^(Fo^2^)+(0.0864P)^2^+34.6654P] where P=(Fo^2^+2Fc^2^)/3'
_refine_ls_weighting_scheme      calc
_refine_ls_wR_factor_gt          0.1272
_refine_ls_wR_factor_ref         0.1306
_reflns_Friedel_coverage         0.000
_reflns_number_gt                1126
_reflns_number_total             1249
_reflns_threshold_expression     'I > 2\s(I)'
_cod_data_source_file            d2cc03016k1.cif
_cod_data_source_block           mo_vk256_cs_0m_a_sq
_cod_original_cell_volume        16410.9(10)
_cod_database_code               7130404
_shelx_shelxl_version_number     2018/3
_shelx_space_group_comment
;
The symmetry employed for this shelxl refinement is uniquely defined
by the following loop, which should always be used as a source of
symmetry information in preference to the above space-group names.
They are only intended as comments.
;
_shelx_res_file
;
TITL mo_VK256_Cs_0m_a.res in Fm-3m
    mo_vk256_cs_0m_a_sq.res
    created by SHELXL-2018/3 at 17:45:36 on 19-May-2022
REM Old TITL mo_VK256_Cs_0m in Fm-3m
REM SHELXT solution in Fm-3m
REM R1 0.176,  Rweak 0.006,  Alpha 0.036,  Orientation as input
REM Formula found by SHELXT:  C30 Cs4 N18 O15
CELL  0.71073  25.4123  25.4123  25.4123   90.000   90.000   90.000
ZERR    4.000   0.0005   0.0005   0.0005    0.000    0.000    0.000
LATT  4
SYMM -X, -Y, Z
SYMM -X, Y, -Z
SYMM X, -Y, -Z
SYMM Z, X, Y
SYMM Z, -X, -Y
SYMM -Z, -X, Y
SYMM -Z, X, -Y
SYMM Y, Z, X
SYMM -Y, Z, -X
SYMM Y, -Z, -X
SYMM -Y, -Z, X
SYMM Y, X, -Z
SYMM -Y, -X, -Z
SYMM Y, -X, Z
SYMM -Y, X, Z
SYMM X, Z, -Y
SYMM -X, Z, Y
SYMM -X, -Z, -Y
SYMM X, -Z, Y
SYMM Z, Y, -X
SYMM Z, -Y, X
SYMM -Z, Y, X
SYMM -Z, -Y, -X
SFAC C H CS N NI O
UNIT 288 216 5.08416 96 32 24
LIST 4
ACTA
omit -1 60
TEMP -123.150
L.S. 5 0    1
BOND $H
acta
FMAP 2
PLAN 20
ISOR 0.001 C4
DFIX 0.93 C4 H3
DFIX 0.82 O1 H1
ABIN
WGHT    0.086400   34.665401
FVAR       0.11365   0.05311
NI1   5    0.441286    0.558714    0.558714    10.16667    0.00730    0.00730 =
         0.00730   -0.00108    0.00108    0.00108
H1    2    0.388199    0.500000    0.500000    10.12500    0.02899
O1    6    0.420819    0.500000    0.500000    10.12500    0.00582    0.00833 =
         0.00833    0.00000    0.00000    0.00000
N1    4    0.473407    0.610138    0.610138    10.50000    0.01435    0.01571 =
         0.01571   -0.00891    0.00059    0.00059
C1    1    0.457058    0.645612    0.645612    10.50000    0.02060    0.02583 =
         0.02583   -0.01838    0.00243    0.00243
CS1   3    0.452396    0.724781    0.452396    20.50000    0.08338    0.06519 =
         0.08338   -0.01952   -0.00838   -0.01952
C2    1    0.500000    0.669686    0.669686    10.25000    0.02316    0.02359 =
         0.02359   -0.01603    0.00000    0.00000
H2    2    0.420867    0.652324    0.652324    10.50000    0.03530

C3    1    0.500000    0.710593    0.710593    10.25000    0.02968    0.02956 =
         0.02956   -0.02349    0.00000    0.00000
PART -1
C4    1    0.543127    0.717969    0.743168    10.50000    0.03395    0.03735 =
         0.03757   -0.02664   -0.00735    0.01079
H3    2    0.575759    0.701504    0.739202    10.50000    0.07025
PART 0
HKLF 4




REM  mo_VK256_Cs_0m_a.res in Fm-3m
REM wR2 = 0.130605, GooF = S = 1.10484, Restrained GooF = 1.19515 for all data
REM R1 = 0.038768 for 1126 Fo > 4sig(Fo) and 0.042464 for all 1249 data
REM 52 parameters refined using 8 restraints

END

WGHT      0.0864     34.8937

REM Highest difference peak  1.603,  deepest hole -0.815,  1-sigma level  0.097
Q1    1   0.3165  0.5000  0.5000  10.12500  0.05    1.60
Q2    1   0.4793  0.7193  0.4933  11.00000  0.05    0.81
Q3    1   0.4781  0.7175  0.4781  10.50000  0.05    0.81
Q4    1   0.5000  0.7415  0.5000  10.12500  0.05    0.65
Q5    1   0.5000  0.7281  0.5000  10.12500  0.05    0.62
Q6    1   0.5000  0.7540  0.5000  10.12500  0.05    0.54
Q7    1   0.4511  0.7555  0.4511  10.50000  0.05    0.49
Q8    1   0.4654  0.7499  0.4390  11.00000  0.05    0.39
Q9    1   0.5315  0.7026  0.7578  11.00000  0.05    0.34
Q10   1   0.5000  0.6933  0.6933  10.25000  0.05    0.29
Q11   1   0.5000  0.6085  0.6085  10.25000  0.05    0.27
Q12   1   0.5000  0.8014  0.5000  10.12500  0.05    0.26
Q13   1   0.4445  0.7119  0.4445  10.50000  0.05    0.25
Q14   1   0.5461  0.7500  0.7500  10.25000  0.05    0.24
Q15   1   0.4411  0.7914  0.4411  10.50000  0.05    0.24
Q16   1   0.4649  0.6265  0.6265  10.50000  0.05    0.24
Q17   1   0.4790  0.6608  0.6608  10.50000  0.05    0.23
Q18   1   0.4297  0.5205  0.5205  10.50000  0.05    0.22
Q19   1   0.4186  0.7749  0.4186  10.50000  0.05    0.21
Q20   1   0.5526  0.7308  0.7308  10.50000  0.05    0.21
;
_shelx_res_checksum              9075
_shelx_fab_file
;
    0    2    2     40.27      0.00
    2    2    2    -25.12      0.00
    1    1    3    -32.92      0.00
    1    3    3     26.99      0.00
    3    3    3     -0.15      0.00
    0    0    4    -50.06      0.00
    0    2    4      0.26      0.00
    2    2    4     14.25      0.00
    0    4    4     18.28      0.00
    2    4    4     -4.69      0.00
    4    4    4     13.27      0.00
    1    1    5      6.93      0.00
    1    3    5      3.12      0.00
    3    3    5     -6.71      0.00
    1    5    5    -12.33      0.00
    3    5    5      5.01      0.00
    5    5    5      6.50      0.00
    0    0    6     49.97      0.00
    0    2    6     -0.81      0.00
    0    4    6     -8.84      0.00
    2    2    6      2.01      0.00
    2    4    6     -8.98      0.00
    4    4    6     -6.79      0.00
    0    6    6      0.98      0.00
    2    6    6      0.32      0.00
    4    6    6      8.29      0.00
    6    6    6     -8.81      0.00
    1    1    7     10.89      0.00
    1    3    7     -5.06      0.00
    1    5    7      3.47      0.00
    3    3    7    -15.44      0.00
    3    5    7     -3.45      0.00
    5    5    7     -5.53      0.00
    1    7    7     -4.51      0.00
    3    7    7      9.14      0.00
    5    7    7     -3.60      0.00
    7    7    7     -3.71      0.00
    0    0    8    -10.79      0.00
    0    2    8      4.18      0.00
    0    4    8      6.60      0.00
    0    6    8     -6.11      0.00
    2    2    8    -11.77      0.00
    2    4    8      0.84      0.00
    2    6    8      5.65      0.00
    4    4    8    -12.01      0.00
    4    6    8     -1.97      0.00
    6    6    8     -6.79      0.00
    0    8    8      0.56      0.00
    2    8    8    -11.46      0.00
    4    8    8     -2.72      0.00
    6    8    8      2.02      0.00
    8    8    8      2.83      0.00
    1    1    9     -8.33      0.00
    1    3    9      1.57      0.00
    1    5    9      3.18      0.00
    1    7    9     -5.17      0.00
    3    3    9      2.77      0.00
    3    5    9     -0.86      0.00
    3    7    9     -4.68      0.00
    5    5    9     -2.69      0.00
    5    7    9     -3.17      0.00
    7    7    9      1.58      0.00
    1    9    9      3.21      0.00
    3    9    9     -7.22      0.00
    5    9    9     -0.56      0.00
    7    9    9      0.77      0.00
    9    9    9     -4.55      0.00
    0    0   10     -8.57      0.00
    0    2   10     -0.85      0.00
    0    4   10      3.43      0.00
    0    6   10     -3.60      0.00
    0    8   10     -2.07      0.00
    2    2   10      5.30      0.00
    2    4   10      0.09      0.00
    2    6   10     -2.88      0.00
    2    8   10      2.17      0.00
    4    4   10      6.71      0.00
    4    6   10     -0.93      0.00
    4    8   10     -3.33      0.00
    6    6   10     -0.39      0.00
    6    8   10     -1.93      0.00
    8    8   10     -3.58      0.00
    0   10   10     16.38      0.00
    2   10   10     -4.90      0.00
    4   10   10     -0.04      0.00
    6   10   10      5.95      0.00
    8   10   10     -1.91      0.00
   10   10   10     -1.61      0.00
    1    1   11      3.73      0.00
    1    3   11      5.40      0.00
    1    5   11     -4.16      0.00
    1    7   11      0.37      0.00
    1    9   11      3.78      0.00
    3    3   11     -2.32      0.00
    3    5   11      3.28      0.00
    3    7   11      1.45      0.00
    3    9   11     -0.94      0.00
    5    5   11      1.17      0.00
    5    7   11      1.03      0.00
    5    9   11      3.19      0.00
    7    7   11     -7.56      0.00
    7    9   11     -0.29      0.00
    9    9   11     -2.62      0.00
    1   11   11      0.69      0.00
    3   11   11      0.71      0.00
    5   11   11     -0.67      0.00
    7   11   11      4.24      0.00
    9   11   11      1.12      0.00
   11   11   11      3.14      0.00
    0    0   12      9.00      0.00
    0    2   12      7.43      0.00
    0    4   12     -1.74      0.00
    0    6   12      2.44      0.00
    0    8   12      3.35      0.00
    0   10   12     -5.86      0.00
    2    2   12      1.59      0.00
    2    4   12      0.17      0.00
    2    6   12      0.09      0.00
    2    8   12      0.58      0.00
    2   10   12      2.57      0.00
    4    4   12     -2.79      0.00
    4    6   12      3.75      0.00
    4    8   12      2.43      0.00
    4   10   12     -0.60      0.00
    6    6   12     -3.10      0.00
    6    8   12      0.26      0.00
    6   10   12      1.29      0.00
    8    8   12     -3.41      0.00
    8   10   12      2.56      0.00
   10   10   12      0.90      0.00
    0   12   12      0.84      0.00
    2   12   12      1.22      0.00
    4   12   12      2.71      0.00
    6   12   12     -3.11      0.00
    8   12   12     -2.06      0.00
   10   12   12      2.32      0.00
   12   12   12      1.05      0.00
    1    1   13      6.43      0.00
    1    3   13     -0.79      0.00
    1    5   13      2.51      0.00
    1    7   13      3.04      0.00
    1    9   13     -2.64      0.00
    1   11   13     -0.71      0.00
    3    3   13      0.17      0.00
    3    5   13     -1.29      0.00
    3    7   13      1.10      0.00
    3    9   13      0.02      0.00
    3   11   13      1.87      0.00
    5    5   13      0.42      0.00
    5    7   13      0.01      0.00
    5    9   13      0.19      0.00
    5   11   13     -0.69      0.00
    7    7   13      0.31      0.00
    7    9   13      1.58      0.00
    7   11   13     -1.82      0.00
    9    9   13      0.72      0.00
    9   11   13      1.11      0.00
   11   11   13      0.13      0.00
    1   13   13      2.12      0.00
    3   13   13      3.28      0.00
    5   13   13     -0.12      0.00
    7   13   13     -2.01      0.00
    9   13   13     -1.11      0.00
   11   13   13     -1.63      0.00
   13   13   13      1.48      0.00
    0    0   14      4.73      0.00
    0    2   14      0.88      0.00
    0    4   14      1.56      0.00
    0    6   14      1.55      0.00
    0    8   14      1.73      0.00
    0   10   14     -0.94      0.00
    0   12   14      2.35      0.00
    2    2   14     -0.32      0.00
    2    4   14      0.68      0.00
    2    6   14      3.63      0.00
    2    8   14     -2.86      0.00
    2   10   14      0.28      0.00
    2   12   14      1.26      0.00
    4    4   14      1.12      0.00
    4    6   14     -1.85      0.00
    4    8   14      0.24      0.00
    4   10   14     -0.90      0.00
    4   12   14      0.89      0.00
    6    6   14      1.44      0.00
    6    8   14      1.56      0.00
    6   10   14     -0.35      0.00
    6   12   14     -0.49      0.00
    8    8   14      0.01      0.00
    8   10   14      0.54      0.00
    8   12   14      1.70      0.00
   10   10   14      0.14      0.00
   10   12   14     -2.35      0.00
   12   12   14     -1.89      0.00
    0   14   14      1.72      0.00
    2   14   14      0.67      0.00
    4   14   14     -1.09      0.00
    6   14   14      1.94      0.00
    8   14   14     -2.66      0.00
   10   14   14     -0.07      0.00
   12   14   14      1.77      0.00
   14   14   14      0.67      0.00
    1    1   15      0.77      0.00
    1    3   15      0.70      0.00
    1    5   15      2.20      0.00
    1    7   15     -0.21      0.00
    1    9   15      1.27      0.00
    1   11   15      2.24      0.00
    1   13   15      1.14      0.00
    3    3   15      2.58      0.00
    3    5   15      1.90      0.00
    3    7   15     -1.49      0.00
    3    9   15     -0.16      0.00
    3   11   15     -0.54      0.00
    3   13   15     -2.04      0.00
    5    5   15      0.28      0.00
    5    7   15      1.39      0.00
    5    9   15     -0.73      0.00
    5   11   15      2.33      0.00
    5   13   15      0.41      0.00
    7    7   15      1.95      0.00
    7    9   15     -0.45      0.00
    7   11   15      0.98      0.00
    7   13   15      2.25      0.00
    9    9   15     -0.73      0.00
    9   11   15      0.60      0.00
    9   13   15     -0.56      0.00
   11   11   15     -1.93      0.00
   11   13   15      0.04      0.00
   13   13   15      0.72      0.00
    1   15   15      0.44      0.00
    3   15   15      1.35      0.00
    5   15   15     -0.30      0.00
    7   15   15     -1.36      0.00
    9   15   15     -0.88      0.00
   11   15   15      1.59      0.00
   13   15   15      0.02      0.00
   15   15   15     -1.86      0.00
    0    0   16      4.45      0.00
    0    2   16     -1.20      0.00
    0    4   16      1.83      0.00
    0    6   16      1.57      0.00
    0    8   16     -1.77      0.00
    0   10   16      4.81      0.00
    0   12   16      1.10      0.00
    0   14   16     -1.02      0.00
    2    2   16      3.49      0.00
    2    4   16      1.68      0.00
    2    6   16     -1.57      0.00
    2    8   16      2.24      0.00
    2   10   16     -0.13      0.00
    2   12   16     -0.98      0.00
    2   14   16     -0.04      0.00
    4    4   16      3.60      0.00
    4    6   16      0.42      0.00
    4    8   16     -2.39      0.00
    4   10   16      3.57      0.00
    4   12   16     -0.33      0.00
    4   14   16      0.94      0.00
    6    6   16      3.40      0.00
    6    8   16     -0.10      0.00
    6   10   16      0.00      0.00
    6   12   16      3.68      0.00
    6   14   16     -1.54      0.00
    8    8   16      1.26      0.00
    8   10   16     -1.42      0.00
    8   12   16     -0.39      0.00
    8   14   16      0.40      0.00
   10   10   16      0.71      0.00
   10   12   16      1.70      0.00
   10   14   16      0.29      0.00
   12   12   16      0.03      0.00
   12   14   16      0.71      0.00
   14   14   16     -1.60      0.00
    0   16   16      5.00      0.00
    2   16   16      1.67      0.00
    4   16   16     -3.17      0.00
    6   16   16      3.27      0.00
    8   16   16      0.98      0.00
   10   16   16     -1.58      0.00
   12   16   16     -0.69      0.00
   14   16   16      0.04      0.00
   16   16   16     -2.10      0.00
    1    1   17      1.94      0.00
    1    3   17      0.39      0.00
    1    5   17     -0.11      0.00
    1    7   17      0.35      0.00
    1    9   17      0.44      0.00
    1   11   17      0.09      0.00
    1   13   17     -1.82      0.00
    1   15   17      1.73      0.00
    3    3   17      1.22      0.00
    3    5   17      1.67      0.00
    3    7   17     -2.41      0.00
    3    9   17      0.40      0.00
    3   11   17      1.91      0.00
    3   13   17      0.06      0.00
    3   15   17     -0.56      0.00
    5    5   17      0.77      0.00
    5    7   17     -0.75      0.00
    5    9   17      1.41      0.00
    5   11   17      1.04      0.00
    5   13   17      1.61      0.00
    5   15   17     -0.42      0.00
    7    7   17      3.01      0.00
    7    9   17     -1.89      0.00
    7   11   17     -0.28      0.00
    7   13   17     -1.68      0.00
    7   15   17      1.89      0.00
    9    9   17      0.94      0.00
    9   11   17      0.36      0.00
    9   13   17      0.11      0.00
    9   15   17      0.14      0.00
   11   11   17      1.88      0.00
   11   13   17      1.84      0.00
   11   15   17     -1.61      0.00
   13   13   17     -3.05      0.00
   13   15   17      0.34      0.00
   15   15   17     -0.40      0.00
    1   17   17      0.65      0.00
    3   17   17      0.68      0.00
    5   17   17     -0.28      0.00
    7   17   17     -0.19      0.00
    9   17   17      0.50      0.00
   11   17   17     -0.03      0.00
   13   17   17      0.30      0.00
   15   17   17     -1.03      0.00
   17   17   17     -1.28      0.00
    0    0   18      2.60      0.00
    0    2   18      0.90      0.00
    0    4   18     -3.50      0.00
    0    6   18      1.71      0.00
    0    8   18     -0.47      0.00
    0   10   18     -1.87      0.00
    0   12   18     -2.88      0.00
    0   14   18     -0.15      0.00
    0   16   18     -1.38      0.00
    2    2   18     -3.05      0.00
    2    4   18      0.90      0.00
    2    6   18     -0.34      0.00
    2    8   18     -2.97      0.00
    2   10   18      0.44      0.00
    2   12   18      0.99      0.00
    2   14   18     -1.19      0.00
    2   16   18      0.15      0.00
    4    4   18     -1.00      0.00
    4    6   18     -1.66      0.00
    4    8   18      0.99      0.00
    4   10   18     -0.56      0.00
    4   12   18      0.92      0.00
    4   14   18      0.23      0.00
    4   16   18      2.17      0.00
    6    6   18      0.16      0.00
    6    8   18     -0.30      0.00
    6   10   18     -0.42      0.00
    6   12   18     -1.39      0.00
    6   14   18      0.46      0.00
    6   16   18     -2.20      0.00
    8    8   18     -0.19      0.00
    8   10   18     -0.06      0.00
    8   12   18     -1.01      0.00
    8   14   18      0.03      0.00
    8   16   18     -0.14      0.00
   10   10   18      2.49      0.00
   10   12   18     -0.09      0.00
   10   14   18     -0.08      0.00
   10   16   18      1.01      0.00
   12   12   18     -0.06      0.00
   12   14   18     -2.32      0.00
   12   16   18      0.94      0.00
   14   14   18     -0.85      0.00
   14   16   18      0.46      0.00
   16   16   18      0.49      0.00
    0   18   18      1.37      0.00
    2   18   18     -0.90      0.00
    4   18   18     -2.45      0.00
    6   18   18      2.30      0.00
    8   18   18     -0.97      0.00
   10   18   18     -0.66      0.00
   12   18   18     -0.60      0.00
   14   18   18     -0.13      0.00
   16   18   18     -2.50      0.00
   18   18   18      1.21      0.00
    1    1   19     -0.01      0.00
    1    3   19     -4.64      0.00
    1    5   19      1.36      0.00
    1    7   19     -1.60      0.00
    1    9   19     -2.86      0.00
    1   11   19     -0.02      0.00
    1   13   19     -1.80      0.00
    1   15   19     -0.72      0.00
    1   17   19     -0.53      0.00
    3    3   19      0.58      0.00
    3    5   19     -4.14      0.00
    3    7   19      0.86      0.00
    3    9   19     -1.14      0.00
    3   11   19     -0.89      0.00
    3   13   19      1.58      0.00
    3   15   19     -1.54      0.00
    3   17   19     -0.02      0.00
    5    5   19     -0.42      0.00
    5    7   19      0.55      0.00
    5    9   19     -0.49      0.00
    5   11   19     -2.24      0.00
    5   13   19     -1.12      0.00
    5   15   19      1.47      0.00
    5   17   19      0.00      0.00
    7    7   19     -2.33      0.00
    7    9   19     -0.32      0.00
    7   11   19      0.01      0.00
    7   13   19      0.03      0.00
    7   15   19     -1.75      0.00
    7   17   19     -0.23      0.00
    9    9   19      2.09      0.00
    9   11   19     -0.60      0.00
    9   13   19     -0.28      0.00
    9   15   19      0.89      0.00
    9   17   19     -1.21      0.00
   11   11   19      1.15      0.00
   11   13   19     -3.05      0.00
   11   15   19      1.64      0.00
   11   17   19      1.22      0.00
   13   13   19     -0.81      0.00
   13   15   19     -1.56      0.00
   13   17   19      0.61      0.00
   15   15   19      0.60      0.00
   15   17   19      0.86      0.00
   17   17   19      0.37      0.00
    1   19   19      1.78      0.00
    3   19   19     -2.41      0.00
    5   19   19     -0.45      0.00
    7   19   19      1.76      0.00
    9   19   19      2.34      0.00
   11   19   19     -2.10      0.00
   13   19   19     -3.75      0.00
   15   19   19     -1.17      0.00
   17   19   19     -1.56      0.00
   19   19   19      0.54      0.00
    0    0   20     -0.54      0.00
    0    2   20     -3.38      0.00
    0    4   20     -0.54      0.00
    0    6   20     -0.08      0.00
    0    8   20     -1.90      0.00
    0   10   20     -1.84      0.00
    0   12   20     -0.15      0.00
    0   14   20     -0.06      0.00
    0   16   20      0.19      0.00
    0   18   20      2.18      0.00
    2    2   20     -1.79      0.00
    2    4   20     -2.40      0.00
    2    6   20     -0.84      0.00
    2    8   20     -0.94      0.00
    2   10   20     -0.45      0.00
    2   12   20     -0.23      0.00
    2   14   20     -1.55      0.00
    2   16   20     -0.80      0.00
    2   18   20      0.35      0.00
    4    4   20     -3.17      0.00
    4    6   20      1.40      0.00
    4    8   20      0.09      0.00
    4   10   20     -1.90      0.00
    4   12   20     -0.45      0.00
    4   14   20     -1.30      0.00
    4   16   20     -0.14      0.00
    4   18   20     -0.96      0.00
    6    6   20     -1.45      0.00
    6    8   20      0.94      0.00
    6   10   20     -1.10      0.00
    6   12   20     -1.68      0.00
    6   14   20      1.93      0.00
    6   16   20      0.18      0.00
    6   18   20      0.59      0.00
    8    8   20     -2.10      0.00
    8   10   20      1.38      0.00
    8   12   20      0.83      0.00
    8   14   20     -1.58      0.00
    8   16   20      0.48      0.00
    8   18   20      1.25      0.00
   10   10   20      0.02      0.00
   10   12   20     -1.43      0.00
   10   14   20      0.81      0.00
   10   16   20      0.52      0.00
   10   18   20      0.82      0.00
   12   12   20     -0.76      0.00
   12   14   20      0.57      0.00
   12   16   20      0.73      0.00
   12   18   20     -1.18      0.00
   14   14   20     -3.54      0.00
   14   16   20      0.46      0.00
   14   18   20     -1.38      0.00
   16   16   20      0.89      0.00
   16   18   20      2.14      0.00
   18   18   20     -0.78      0.00
    0   20   20      1.16      0.00
    2   20   20     -1.08      0.00
    4   20   20      0.58      0.00
    6   20   20      0.23      0.00
    8   20   20     -0.76      0.00
   10   20   20      2.17      0.00
   12   20   20     -1.41      0.00
   14   20   20      0.02      0.00
   16   20   20     -2.91      0.00
   18   20   20     -3.24      0.00
   20   20   20      2.04      0.00
    1    1   21     -2.97      0.00
    1    3   21      0.66      0.00
    1    5   21     -1.78      0.00
    1    7   21      0.52      0.00
    1    9   21     -0.31      0.00
    1   11   21     -1.12      0.00
    1   13   21      1.69      0.00
    1   15   21     -1.77      0.00
    1   17   21      2.52      0.00
    1   19   21      0.84      0.00
    3    3   21     -3.31      0.00
    3    5   21      0.61      0.00
    3    7   21     -1.31      0.00
    3    9   21      0.12      0.00
    3   11   21      0.29      0.00
    3   13   21     -3.78      0.00
    3   15   21      1.10      0.00
    3   17   21     -2.22      0.00
    3   19   21      0.01      0.00
    5    5   21      0.57      0.00
    5    7   21      1.15      0.00
    5    9   21     -1.32      0.00
    5   11   21      0.48      0.00
    5   13   21      0.49      0.00
    5   15   21     -0.36      0.00
    5   17   21      0.97      0.00
    5   19   21      0.60      0.00
    7    7   21     -0.49      0.00
    7    9   21      2.37      0.00
    7   11   21     -1.88      0.00
    7   13   21      0.33      0.00
    7   15   21      1.74      0.00
    7   17   21      1.39      0.00
    7   19   21     -0.72      0.00
    9    9   21     -3.55      0.00
    9   11   21      2.33      0.00
    9   13   21     -1.29      0.00
    9   15   21     -1.52      0.00
    9   17   21      2.50      0.00
    9   19   21     -1.01      0.00
   11   11   21     -2.06      0.00
   11   13   21      2.30      0.00
   11   15   21      1.95      0.00
   11   17   21     -1.45      0.00
   11   19   21      2.81      0.00
   13   13   21      0.57      0.00
   13   15   21     -0.79      0.00
   13   17   21      0.27      0.00
   13   19   21      0.77      0.00
   15   15   21     -3.08      0.00
   15   17   21      1.29      0.00
   15   19   21     -0.85      0.00
   17   17   21      0.00      0.00
   17   19   21      1.22      0.00
   19   19   21     -3.93      0.00
    1   21   21     -4.92      0.00
    3   21   21      6.03      0.00
    5   21   21     -0.89      0.00
    7   21   21     -2.63      0.00
    9   21   21      3.15      0.00
   11   21   21     -1.08      0.00
   13   21   21     -0.82      0.00
   15   21   21      3.90      0.00
   17   21   21     -4.68      0.00
   19   21   21      0.51      0.00
    0    0   22     -4.23      0.00
    0    2   22     -1.32      0.00
    0    4   22      1.00      0.00
    0    6   22      0.35      0.00
    0    8   22      0.92      0.00
    0   10   22     -0.72      0.00
    0   12   22      2.77      0.00
    0   14   22     -1.47      0.00
    0   16   22     -0.13      0.00
    0   18   22      2.48      0.00
    0   20   22     -6.15      0.00
    2    2   22      1.65      0.00
    2    4   22     -0.75      0.00
    2    6   22     -1.10      0.00
    2    8   22      0.49      0.00
    2   10   22     -0.28      0.00
    2   12   22     -2.37      0.00
    2   14   22      0.56      0.00
    2   16   22     -0.19      0.00
    2   18   22     -0.09      0.00
    2   20   22      1.97      0.00
    4    4   22      2.91      0.00
    4    6   22     -1.89      0.00
    4    8   22     -1.06      0.00
    4   10   22      0.52      0.00
    4   12   22     -0.14      0.00
    4   14   22      0.31      0.00
    4   16   22     -0.44      0.00
    4   18   22     -0.22      0.00
    4   20   22      2.98      0.00
    6    6   22      3.58      0.00
    6    8   22     -0.61      0.00
    6   10   22      1.54      0.00
    6   12   22      0.42      0.00
    6   14   22     -0.19      0.00
    6   16   22      3.19      0.00
    6   18   22     -1.01      0.00
    6   20   22     -2.34      0.00
    8    8   22      1.17      0.00
    8   10   22     -0.64      0.00
    8   12   22     -1.16      0.00
    8   14   22     -0.81      0.00
    8   16   22      0.42      0.00
    8   18   22      0.77      0.00
    8   20   22     -0.98      0.00
   10   10   22     -2.05      0.00
   10   12   22      3.00      0.00
   10   14   22     -1.48      0.00
   10   16   22     -0.22      0.00
   10   18   22      0.86      0.00
   10   20   22     -0.23      0.00
   12   12   22      0.34      0.00
   12   14   22      2.57      0.00
   12   16   22      0.26      0.00
   12   18   22      1.43      0.00
   12   20   22      2.37      0.00
   14   14   22      0.84      0.00
   14   16   22     -2.04      0.00
   14   18   22      0.89      0.00
   14   20   22      1.40      0.00
   16   16   22     -2.90      0.00
   16   18   22      0.92      0.00
   16   20   22      1.53      0.00
   18   18   22     -1.13      0.00
   18   20   22     -1.16      0.00
    0   22   22     -0.28      0.00
    2   22   22      0.16      0.00
    4   22   22     -0.06      0.00
    6   22   22     -0.85      0.00
    8   22   22      3.23      0.00
   10   22   22      3.59      0.00
   12   22   22     -5.83      0.00
   14   22   22      1.09      0.00
   16   22   22      0.60      0.00
    1    1   23     -1.75      0.00
    1    3   23      0.36      0.00
    1    5   23      0.34      0.00
    1    7   23      0.30      0.00
    1    9   23      0.08      0.00
    1   11   23     -0.11      0.00
    1   13   23     -0.53      0.00
    1   15   23     -0.62      0.00
    1   17   23     -0.60      0.00
    1   19   23     -1.20      0.00
    1   21   23      0.10      0.00
    3    3   23      2.87      0.00
    3    5   23     -0.56      0.00
    3    7   23     -2.84      0.00
    3    9   23     -0.32      0.00
    3   11   23     -1.44      0.00
    3   13   23      0.05      0.00
    3   15   23      0.28      0.00
    3   17   23      0.41      0.00
    3   19   23      1.23      0.00
    3   21   23      0.28      0.00
    5    5   23     -0.41      0.00
    5    7   23     -0.45      0.00
    5    9   23      0.94      0.00
    5   11   23      0.18      0.00
    5   13   23      1.01      0.00
    5   15   23      1.84      0.00
    5   17   23     -1.87      0.00
    5   19   23     -0.43      0.00
    5   21   23      0.04      0.00
    7    7   23      2.39      0.00
    7    9   23     -2.47      0.00
    7   11   23      2.43      0.00
    7   13   23     -1.95      0.00
    7   15   23     -0.31      0.00
    7   17   23      1.53      0.00
    7   19   23     -2.06      0.00
    7   21   23      0.68      0.00
    9    9   23      1.85      0.00
    9   11   23     -1.49      0.00
    9   13   23     -1.02      0.00
    9   15   23     -0.77      0.00
    9   17   23     -0.20      0.00
    9   19   23     -0.19      0.00
    9   21   23      0.82      0.00
   11   11   23      2.05      0.00
   11   13   23      1.02      0.00
   11   15   23     -2.60      0.00
   11   17   23      2.57      0.00
   11   19   23     -0.54      0.00
   11   21   23      0.74      0.00
   13   13   23      1.16      0.00
   13   15   23      2.85      0.00
   13   17   23     -1.60      0.00
   13   19   23      2.86      0.00
   13   21   23     -0.84      0.00
   15   15   23     -0.56      0.00
   15   17   23     -3.89      0.00
   15   19   23      3.09      0.00
   15   21   23     -0.68      0.00
   17   17   23      2.00      0.00
   17   19   23     -2.44      0.00
   17   21   23      2.87      0.00
   19   19   23      1.03      0.00
    1   23   23      2.76      0.00
    3   23   23     -3.05      0.00
    5   23   23     -0.94      0.00
    7   23   23      1.19      0.00
    9   23   23      2.23      0.00
   11   23   23     -0.72      0.00
   13   23   23     -0.34      0.00
    0    0   24     -2.79      0.00
    0    2   24      0.15      0.00
    0    4   24      0.10      0.00
    0    6   24     -0.34      0.00
    0    8   24     -0.29      0.00
    0   10   24      1.29      0.00
    0   12   24     -1.44      0.00
    0   14   24     -1.26      0.00
    0   16   24      0.30      0.00
    0   18   24     -1.82      0.00
    0   20   24      0.65      0.00
    0   22   24      3.89      0.00
    2    2   24     -1.40      0.00
    2    4   24      1.69      0.00
    2    6   24     -0.46      0.00
    2    8   24     -1.10      0.00
    2   10   24     -1.44      0.00
    2   12   24      0.14      0.00
    2   14   24     -0.53      0.00
    2   16   24     -0.19      0.00
    2   18   24     -0.39      0.00
    2   20   24      0.02      0.00
    2   22   24     -1.03      0.00
    4    4   24     -1.67      0.00
    4    6   24     -1.14      0.00
    4    8   24     -0.54      0.00
    4   10   24      0.73      0.00
    4   12   24     -1.83      0.00
    4   14   24      2.30      0.00
    4   16   24     -0.72      0.00
    4   18   24     -1.17      0.00
    4   20   24     -0.55      0.00
    4   22   24     -1.02      0.00
    6    6   24     -0.63      0.00
    6    8   24      0.10      0.00
    6   10   24     -1.09      0.00
    6   12   24      2.57      0.00
    6   14   24     -1.33      0.00
    6   16   24     -0.67      0.00
    6   18   24     -0.32      0.00
    6   20   24      0.09      0.00
    6   22   24      0.99      0.00
    8    8   24     -0.52      0.00
    8   10   24      0.19      0.00
    8   12   24     -1.38      0.00
    8   14   24     -0.41      0.00
    8   16   24      0.51      0.00
    8   18   24     -0.61      0.00
    8   20   24      0.35      0.00
    8   22   24     -0.82      0.00
   10   10   24      2.58      0.00
   10   12   24     -1.92      0.00
   10   14   24     -1.32      0.00
   10   16   24      1.04      0.00
   10   18   24     -0.97      0.00
   10   20   24     -0.90      0.00
   10   22   24      0.65      0.00
   12   12   24      3.06      0.00
   12   14   24     -2.18      0.00
   12   16   24     -0.81      0.00
   12   18   24      1.19      0.00
   12   20   24      0.03      0.00
   12   22   24      2.62      0.00
   14   14   24      4.58      0.00
   14   16   24     -1.91      0.00
   14   18   24     -0.03      0.00
   14   20   24      0.89      0.00
   14   22   24     -1.79      0.00
   16   16   24      2.40      0.00
   16   18   24     -2.23      0.00
   16   20   24     -0.16      0.00
   18   18   24      0.56      0.00
    0   24   24     -0.71      0.00
    2   24   24      0.16      0.00
    4   24   24     -1.67      0.00
    6   24   24      0.80      0.00
    8   24   24     -1.01      0.00
   10   24   24     -1.03      0.00
    1    1   25      0.44      0.00
    1    3   25     -0.65      0.00
    1    5   25      1.12      0.00
    1    7   25     -1.01      0.00
    1    9   25     -0.89      0.00
    1   11   25      0.96      0.00
    1   13   25     -1.86      0.00
    1   15   25      1.22      0.00
    1   17   25      0.40      0.00
    1   19   25     -1.04      0.00
    1   21   25      3.05      0.00
    1   23   25     -1.51      0.00
    3    3   25     -1.17      0.00
    3    5   25     -0.51      0.00
    3    7   25      1.70      0.00
    3    9   25      0.60      0.00
    3   11   25     -1.28      0.00
    3   13   25      1.07      0.00
    3   15   25     -1.33      0.00
    3   17   25     -1.42      0.00
    3   19   25      0.58      0.00
    3   21   25     -3.60      0.00
    3   23   25      1.01      0.00
    5    5   25     -1.05      0.00
    5    7   25     -0.82      0.00
    5    9   25      0.59      0.00
    5   11   25      0.36      0.00
    5   13   25     -0.61      0.00
    5   15   25     -0.72      0.00
    5   17   25      0.05      0.00
    5   19   25     -1.10      0.00
    5   21   25      0.99      0.00
    5   23   25      0.48      0.00
    7    7   25     -0.53      0.00
    7    9   25      0.08      0.00
    7   11   25     -0.69      0.00
    7   13   25      0.43      0.00
    7   15   25      0.32      0.00
    7   17   25     -0.93      0.00
    7   19   25      1.41      0.00
    7   21   25      0.17      0.00
    7   23   25     -1.39      0.00
    9    9   25      0.74      0.00
    9   11   25     -0.36      0.00
    9   13   25     -0.26      0.00
    9   15   25      1.30      0.00
    9   17   25      0.46      0.00
    9   19   25     -1.37      0.00
    9   21   25     -0.65      0.00
    9   23   25     -2.40      0.00
   11   11   25      1.36      0.00
   11   13   25     -2.40      0.00
   11   15   25      0.27      0.00
   11   17   25      0.02      0.00
   11   19   25     -1.03      0.00
   11   21   25      0.22      0.00
   11   23   25      2.62      0.00
   13   13   25      1.37      0.00
   13   15   25     -2.64      0.00
   13   17   25     -1.42      0.00
   13   19   25      0.77      0.00
   13   21   25      2.08      0.00
   15   15   25      2.04      0.00
   15   17   25      2.17      0.00
   15   19   25     -1.99      0.00
   17   17   25      0.23      0.00
   17   19   25     -0.27      0.00
    1   25   25     -0.68      0.00
    3   25   25      0.49      0.00
    5   25   25      0.81      0.00
    0    0   26      5.36      0.00
    0    2   26      1.92      0.00
    0    4   26     -2.26      0.00
    0    6   26      2.78      0.00
    0    8   26     -1.43      0.00
    0   10   26     -2.49      0.00
    0   12   26      1.08      0.00
    0   14   26      2.90      0.00
    0   16   26      0.08      0.00
    0   18   26      0.02      0.00
    0   20   26      2.45      0.00
    0   22   26     -0.40      0.00
    0   24   26     -1.77      0.00
    2    2   26     -2.04      0.00
    2    4   26      0.31      0.00
    2    6   26      1.45      0.00
    2    8   26      0.69      0.00
    2   10   26      1.86      0.00
    2   12   26      0.39      0.00
    2   14   26     -1.71      0.00
    2   16   26      0.99      0.00
    2   18   26      0.00      0.00
    2   20   26     -0.79      0.00
    2   22   26      0.47      0.00
    2   24   26     -1.06      0.00
    4    4   26     -0.01      0.00
    4    6   26      0.64      0.00
    4    8   26      2.12      0.00
    4   10   26      1.83      0.00
    4   12   26     -0.94      0.00
    4   14   26     -2.42      0.00
    4   16   26      0.88      0.00
    4   18   26      0.21      0.00
    4   20   26     -0.69      0.00
    4   22   26     -1.36      0.00
    4   24   26      3.38      0.00
    6    6   26     -1.08      0.00
    6    8   26      0.70      0.00
    6   10   26     -0.05      0.00
    6   12   26     -1.57      0.00
    6   14   26      2.08      0.00
    6   16   26     -1.74      0.00
    6   18   26      1.19      0.00
    6   20   26      0.38      0.00
    6   22   26      0.32      0.00
    8    8   26      1.13      0.00
    8   10   26     -1.50      0.00
    8   12   26      1.56      0.00
    8   14   26      1.01      0.00
    8   16   26      0.37      0.00
    8   18   26     -0.82      0.00
    8   20   26      0.22      0.00
    8   22   26     -0.48      0.00
   10   10   26      1.92      0.00
   10   12   26     -0.76      0.00
   10   14   26      0.18      0.00
   10   16   26      2.38      0.00
   10   18   26     -0.15      0.00
   10   20   26     -0.26      0.00
   10   22   26     -1.48      0.00
   12   12   26     -1.85      0.00
   12   14   26      0.95      0.00
   12   16   26     -1.95      0.00
   12   18   26     -0.53      0.00
   12   20   26     -0.36      0.00
   14   14   26     -4.04      0.00
   14   16   26      0.72      0.00
   14   18   26     -1.10      0.00
   14   20   26      1.64      0.00
   16   16   26      2.09      0.00
   16   18   26      2.43      0.00
    1    1   27      3.81      0.00
    1    3   27     -0.58      0.00
    1    5   27      0.14      0.00
    1    7   27      2.50      0.00
    1    9   27     -0.90      0.00
    1   11   27     -0.53      0.00
    1   13   27      3.27      0.00
    1   15   27     -0.78      0.00
    1   17   27      0.07      0.00
    1   19   27      1.44      0.00
    1   21   27     -1.29      0.00
    1   23   27      0.44      0.00
    3    3   27     -1.77      0.00
    3    5   27      3.13      0.00
    3    7   27      1.01      0.00
    3    9   27      1.99      0.00
    3   11   27      3.03      0.00
    3   13   27     -4.10      0.00
    3   15   27      1.60      0.00
    3   17   27      1.68      0.00
    3   19   27     -1.18      0.00
    3   21   27      2.50      0.00
    3   23   27     -1.94      0.00
    5    5   27      0.47      0.00
    5    7   27      0.82      0.00
    5    9   27      1.39      0.00
    5   11   27      0.13      0.00
    5   13   27     -1.83      0.00
    5   15   27      0.15      0.00
    5   17   27      1.89      0.00
    5   19   27      0.95      0.00
    5   21   27     -2.74      0.00
    7    7   27      0.66      0.00
    7    9   27      1.18      0.00
    7   11   27     -2.49      0.00
    7   13   27      3.74      0.00
    7   15   27     -1.30      0.00
    7   17   27     -1.61      0.00
    7   19   27     -0.06      0.00
    7   21   27      0.02      0.00
    9    9   27     -0.36      0.00
    9   11   27      0.88      0.00
    9   13   27     -0.54      0.00
    9   15   27      1.69      0.00
    9   17   27     -0.12      0.00
    9   19   27      0.47      0.00
    9   21   27      0.92      0.00
   11   11   27      1.06      0.00
   11   13   27     -1.65      0.00
   11   15   27      1.34      0.00
   11   17   27      1.16      0.00
   11   19   27      0.35      0.00
   13   13   27      1.77      0.00
   13   15   27     -1.72      0.00
   13   17   27     -1.06      0.00
   13   19   27     -0.84      0.00
   15   15   27     -0.28      0.00
   15   17   27      0.31      0.00
    0    0   28      5.17      0.00
    0    2   28     -1.60      0.00
    0    4   28      3.74      0.00
    0    6   28     -1.58      0.00
    0    8   28      1.96      0.00
    0   10   28      0.32      0.00
    0   12   28      1.24      0.00
    0   14   28     -2.34      0.00
    0   16   28      1.03      0.00
    0   18   28      0.33      0.00
    0   20   28     -2.23      0.00
    0   22   28      0.23      0.00
    2    2   28      3.40      0.00
    2    4   28     -2.57      0.00
    2    6   28      2.99      0.00
    2    8   28      0.00      0.00
    2   10   28     -0.02      0.00
    2   12   28     -0.26      0.00
    2   14   28      2.31      0.00
    2   16   28     -1.01      0.00
    2   18   28      0.87      0.00
    2   20   28      1.83      0.00
    2   22   28     -0.83      0.00
    4    4   28      2.08      0.00
    4    6   28      2.72      0.00
    4    8   28     -0.36      0.00
    4   10   28     -0.65      0.00
    4   12   28      1.60      0.00
    4   14   28     -0.99      0.00
    4   16   28      1.57      0.00
    4   18   28      1.90      0.00
    4   20   28     -0.12      0.00
    6    6   28     -1.05      0.00
    6    8   28      1.93      0.00
    6   10   28      0.84      0.00
    6   12   28     -0.71      0.00
    6   14   28     -0.71      0.00
    6   16   28      0.56      0.00
    6   18   28     -0.94      0.00
    6   20   28     -2.08      0.00
    8    8   28     -0.77      0.00
    8   10   28      1.22      0.00
    8   12   28     -0.51      0.00
    8   14   28      0.02      0.00
    8   16   28     -1.28      0.00
    8   18   28     -1.32      0.00
    8   20   28      1.25      0.00
   10   10   28      0.01      0.00
   10   12   28     -0.78      0.00
   10   14   28     -0.38      0.00
   10   16   28     -0.43      0.00
   10   18   28      2.36      0.00
   12   12   28      2.09      0.00
   12   14   28     -1.24      0.00
   12   16   28      1.44      0.00
   12   18   28     -0.87      0.00
   14   14   28      3.19      0.00
   14   16   28     -2.25      0.00
    1    1   29     -1.05      0.00
    1    3   29     -0.14      0.00
    1    5   29      1.89      0.00
    1    7   29     -0.61      0.00
    1    9   29      0.64      0.00
    1   11   29      0.74      0.00
    1   13   29     -2.13      0.00
    1   15   29      0.11      0.00
    1   17   29      0.53      0.00
    1   19   29     -0.42      0.00
    3    3   29      3.68      0.00
    3    5   29     -2.15      0.00
    3    7   29      0.17      0.00
    3    9   29     -2.32      0.00
    3   11   29     -1.43      0.00
    3   13   29      3.69      0.00
    3   15   29     -0.53      0.00
    3   17   29      0.08      0.00
    3   19   29      2.69      0.00
    5    5   29      2.18      0.00
    5    7   29      1.36      0.00
    5    9   29      0.45      0.00
    5   11   29     -0.96      0.00
    5   13   29      1.86      0.00
    5   15   29     -1.02      0.00
    5   17   29     -0.13      0.00
    5   19   29     -0.98      0.00
    7    7   29      1.61      0.00
    7    9   29     -2.04      0.00
    7   11   29      2.94      0.00
    7   13   29     -2.76      0.00
    7   15   29      0.19      0.00
    7   17   29     -0.59      0.00
    7   19   29     -2.53      0.00
    9    9   29      2.14      0.00
    9   11   29      1.11      0.00
    9   13   29     -3.65      0.00
    9   15   29     -1.30      0.00
    9   17   29      0.46      0.00
   11   11   29     -3.50      0.00
   11   13   29      2.40      0.00
   11   15   29     -1.72      0.00
   11   17   29     -0.46      0.00
   13   13   29      0.57      0.00
   13   15   29      1.22      0.00
    0    0   30     -4.81      0.00
    0    2   30     -1.47      0.00
    0    4   30     -2.71      0.00
    0    6   30      5.32      0.00
    0    8   30     -3.50      0.00
    0   10   30      3.87      0.00
    0   12   30     -3.05      0.00
    0   14   30     -1.06      0.00
    0   16   30      1.02      0.00
    0   18   30      0.48      0.00
    2    2   30     -1.37      0.00
    2    4   30      4.96      0.00
    2    6   30     -3.90      0.00
    2    8   30     -0.62      0.00
    2   10   30     -2.40      0.00
    2   12   30      1.53      0.00
    2   14   30     -0.41      0.00
    2   16   30      0.10      0.00
    2   18   30      0.53      0.00
    4    4   30     -0.90      0.00
    4    6   30     -3.96      0.00
    4    8   30      2.57      0.00
    4   10   30     -1.31      0.00
    4   12   30      0.08      0.00
    4   14   30      2.04      0.00
    4   16   30     -2.82      0.00
    4   18   30      0.78      0.00
    6    6   30      7.94      0.00
    6    8   30     -0.92      0.00
    6   10   30     -0.71      0.00
    6   12   30      1.83      0.00
    6   14   30     -1.04      0.00
    6   16   30      0.35      0.00
    6   18   30     -1.96      0.00
    8    8   30     -1.83      0.00
    8   10   30      1.53      0.00
    8   12   30     -0.37      0.00
    8   14   30     -1.85      0.00
    8   16   30     -0.03      0.00
   10   10   30      1.19      0.00
   10   12   30     -1.25      0.00
   10   14   30     -3.13      0.00
   10   16   30      0.96      0.00
   12   12   30     -1.04      0.00
   12   14   30      3.58      0.00
    1    1   31     -2.87      0.00
    1    3   31     -0.59      0.00
    1    5   31      1.25      0.00
    1    7   31     -1.16      0.00
    1    9   31     -0.41      0.00
    1   11   31      1.34      0.00
    1   13   31     -2.30      0.00
    1   15   31      1.45      0.00
    1   17   31      1.42      0.00
    3    3   31      2.80      0.00
    3    5   31      0.03      0.00
    3    7   31     -2.22      0.00
    3    9   31      0.30      0.00
    3   11   31     -2.01      0.00
    3   13   31      3.46      0.00
    3   15   31     -2.75      0.00
    3   17   31     -1.61      0.00
    5    5   31     -4.37      0.00
    5    7   31      4.78      0.00
    5    9   31      0.84      0.00
    5   11   31      0.51      0.00
    5   13   31     -0.83      0.00
    5   15   31      0.26      0.00
    5   17   31     -0.35      0.00
    7    7   31     -1.19      0.00
    7    9   31      0.87      0.00
    7   11   31      0.95      0.00
    7   13   31     -1.11      0.00
    7   15   31      1.18      0.00
    9    9   31     -2.53      0.00
    9   11   31      0.41      0.00
    9   13   31      1.75      0.00
    9   15   31     -2.04      0.00
   11   11   31      0.42      0.00
   11   13   31     -1.67      0.00
    0    0   32     -0.42      0.00
    0    2   32     -0.59      0.00
    0    4   32      0.00      0.00
    0    6   32     -2.61      0.00
    0    8   32      2.04      0.00
    0   10   32     -0.57      0.00
    0   12   32      0.27      0.00
    0   14   32     -1.03      0.00
    2    2   32     -1.19      0.00
    2    4   32      0.73      0.00
    2    6   32      1.56      0.00
    2    8   32     -1.84      0.00
    2   10   32      1.49      0.00
    2   12   32     -0.13      0.00
    2   14   32     -0.35      0.00
    4    4   32     -0.94      0.00
    4    6   32      1.87      0.00
    4    8   32      1.26      0.00
    4   10   32     -0.16      0.00
    4   12   32     -0.43      0.00
    4   14   32      0.94      0.00
    6    6   32     -2.65      0.00
    6    8   32      2.99      0.00
    6   10   32      1.78      0.00
    6   12   32     -0.97      0.00
    6   14   32     -0.37      0.00
    8    8   32     -0.92      0.00
    8   10   32     -0.31      0.00
    8   12   32      1.39      0.00
   10   10   32     -1.69      0.00
   10   12   32      1.38      0.00
    1    1   33      0.85      0.00
    1    3   33     -0.15      0.00
    1    5   33     -0.57      0.00
    1    7   33     -0.29      0.00
    1    9   33      0.75      0.00
    1   11   33     -0.54      0.00
    1   13   33      0.11      0.00
    3    3   33     -2.73      0.00
    3    5   33      0.49      0.00
    3    7   33      3.07      0.00
    3    9   33     -0.19      0.00
    3   11   33      1.38      0.00
    3   13   33     -2.66      0.00
    5    5   33      3.71      0.00
    5    7   33     -1.67      0.00
    5    9   33      0.32      0.00
    5   11   33     -0.64      0.00
    7    7   33      0.64      0.00
    7    9   33      1.46      0.00
    7   11   33      0.07      0.00
    9    9   33      1.10      0.00
    0    0   34     -0.20      0.00
    0    2   34     -0.11      0.00
    0    4   34      4.12      0.00
    0    6   34     -1.97      0.00
    0    8   34     -1.64      0.00
    0   10   34      0.21      0.00
    2    2   34      0.80      0.00
    2    4   34     -4.86      0.00
    2    6   34      0.73      0.00
    2    8   34      2.27      0.00
    2   10   34     -0.07      0.00
    4    4   34     -0.74      0.00
    4    6   34      3.82      0.00
    4    8   34     -1.82      0.00
    4   10   34     -1.31      0.00
    6    6   34     -1.28      0.00
    6    8   34     -1.56      0.00
    1    1   35     -1.88      0.00
    1    3   35      2.09      0.00
    1    5   35     -0.85      0.00
    1    7   35     -0.62      0.00
    3    3   35     -6.62      0.00
    3    5   35     -0.53      0.00
    5    5   35      1.45      0.00
    1    1    1     46.44      0.00
    0    0    2    -67.94      0.00
    0    0    0      0.00      0.00
# SQUEEZE RESULTS (Version = 230318)
# Note: Data are Listed for all Voids in the P1 Unit Cell
# i.e. Centre of Gravity, Solvent Accessible Volume,
# Recovered number of Electrons in the Void and
# Details about the Squeezed Material
loop_
  _platon_squeeze_void_nr
  _platon_squeeze_void_average_x
  _platon_squeeze_void_average_y
  _platon_squeeze_void_average_z
  _platon_squeeze_void_volume
  _platon_squeeze_void_count_electrons
  _platon_squeeze_void_content
   1 -0.008 -0.004 -0.004      6478       115 ' '
# Missing Reflections Below sin(th)/lambda = 0.25
loop_
  _platon_missing_refln_index_h
  _platon_missing_refln_index_k
  _platon_missing_refln_index_l
  _platon_missing_refln_theta
    1    1    1     1.388
    0    0    2     1.603
_platon_squeeze_void_probe_radius                  1.20
_platon_squeeze_details
)
TITL mo_VK256_Cs_0m_a.res in Fm-3m
CELL   25.4123   25.4123   25.4123     90.00     90.00     90.00
SPGR Fm-3m
# Solvent Accessible Volume =      6707
# Electrons Found in S.A.V. =        86
# Note: Atoms in Void are Labelled as Cxxx and Qxxx for all Others
Q101 0.500 0.180 0.005 !       1.87 eA-3
Q102 0.517 0.016 0.221 !       0.86 eA-3
Q103 0.500 0.501 0.250 !       0.71 eA-3
Q104 0.953 0.050 0.242 !       0.52 eA-3
)
;
_shelx_fab_checksum              52904
loop_
_space_group_symop_operation_xyz
'x, y, z'
'-x, -y, z'
'-x, y, -z'
'x, -y, -z'
'z, x, y'
'z, -x, -y'
'-z, -x, y'
'-z, x, -y'
'y, z, x'
'-y, z, -x'
'y, -z, -x'
'-y, -z, x'
'y, x, -z'
'-y, -x, -z'
'y, -x, z'
'-y, x, z'
'x, z, -y'
'-x, z, y'
'-x, -z, -y'
'x, -z, y'
'z, y, -x'
'z, -y, x'
'-z, y, x'
'-z, -y, -x'
'x, y+1/2, z+1/2'
'-x, -y+1/2, z+1/2'
'-x, y+1/2, -z+1/2'
'x, -y+1/2, -z+1/2'
'z, x+1/2, y+1/2'
'z, -x+1/2, -y+1/2'
'-z, -x+1/2, y+1/2'
'-z, x+1/2, -y+1/2'
'y, z+1/2, x+1/2'
'-y, z+1/2, -x+1/2'
'y, -z+1/2, -x+1/2'
'-y, -z+1/2, x+1/2'
'y, x+1/2, -z+1/2'
'-y, -x+1/2, -z+1/2'
'y, -x+1/2, z+1/2'
'-y, x+1/2, z+1/2'
'x, z+1/2, -y+1/2'
'-x, z+1/2, y+1/2'
'-x, -z+1/2, -y+1/2'
'x, -z+1/2, y+1/2'
'z, y+1/2, -x+1/2'
'z, -y+1/2, x+1/2'
'-z, y+1/2, x+1/2'
'-z, -y+1/2, -x+1/2'
'x+1/2, y, z+1/2'
'-x+1/2, -y, z+1/2'
'-x+1/2, y, -z+1/2'
'x+1/2, -y, -z+1/2'
'z+1/2, x, y+1/2'
'z+1/2, -x, -y+1/2'
'-z+1/2, -x, y+1/2'
'-z+1/2, x, -y+1/2'
'y+1/2, z, x+1/2'
'-y+1/2, z, -x+1/2'
'y+1/2, -z, -x+1/2'
'-y+1/2, -z, x+1/2'
'y+1/2, x, -z+1/2'
'-y+1/2, -x, -z+1/2'
'y+1/2, -x, z+1/2'
'-y+1/2, x, z+1/2'
'x+1/2, z, -y+1/2'
'-x+1/2, z, y+1/2'
'-x+1/2, -z, -y+1/2'
'x+1/2, -z, y+1/2'
'z+1/2, y, -x+1/2'
'z+1/2, -y, x+1/2'
'-z+1/2, y, x+1/2'
'-z+1/2, -y, -x+1/2'
'x+1/2, y+1/2, z'
'-x+1/2, -y+1/2, z'
'-x+1/2, y+1/2, -z'
'x+1/2, -y+1/2, -z'
'z+1/2, x+1/2, y'
'z+1/2, -x+1/2, -y'
'-z+1/2, -x+1/2, y'
'-z+1/2, x+1/2, -y'
'y+1/2, z+1/2, x'
'-y+1/2, z+1/2, -x'
'y+1/2, -z+1/2, -x'
'-y+1/2, -z+1/2, x'
'y+1/2, x+1/2, -z'
'-y+1/2, -x+1/2, -z'
'y+1/2, -x+1/2, z'
'-y+1/2, x+1/2, z'
'x+1/2, z+1/2, -y'
'-x+1/2, z+1/2, y'
'-x+1/2, -z+1/2, -y'
'x+1/2, -z+1/2, y'
'z+1/2, y+1/2, -x'
'z+1/2, -y+1/2, x'
'-z+1/2, y+1/2, x'
'-z+1/2, -y+1/2, -x'
'-x, -y, -z'
'x, y, -z'
'x, -y, z'
'-x, y, z'
'-z, -x, -y'
'-z, x, y'
'z, x, -y'
'z, -x, y'
'-y, -z, -x'
'y, -z, x'
'-y, z, x'
'y, z, -x'
'-y, -x, z'
'y, x, z'
'-y, x, -z'
'y, -x, -z'
'-x, -z, y'
'x, -z, -y'
'x, z, y'
'-x, z, -y'
'-z, -y, x'
'-z, y, -x'
'z, -y, -x'
'z, y, x'
'-x, -y+1/2, -z+1/2'
'x, y+1/2, -z+1/2'
'x, -y+1/2, z+1/2'
'-x, y+1/2, z+1/2'
'-z, -x+1/2, -y+1/2'
'-z, x+1/2, y+1/2'
'z, x+1/2, -y+1/2'
'z, -x+1/2, y+1/2'
'-y, -z+1/2, -x+1/2'
'y, -z+1/2, x+1/2'
'-y, z+1/2, x+1/2'
'y, z+1/2, -x+1/2'
'-y, -x+1/2, z+1/2'
'y, x+1/2, z+1/2'
'-y, x+1/2, -z+1/2'
'y, -x+1/2, -z+1/2'
'-x, -z+1/2, y+1/2'
'x, -z+1/2, -y+1/2'
'x, z+1/2, y+1/2'
'-x, z+1/2, -y+1/2'
'-z, -y+1/2, x+1/2'
'-z, y+1/2, -x+1/2'
'z, -y+1/2, -x+1/2'
'z, y+1/2, x+1/2'
'-x+1/2, -y, -z+1/2'
'x+1/2, y, -z+1/2'
'x+1/2, -y, z+1/2'
'-x+1/2, y, z+1/2'
'-z+1/2, -x, -y+1/2'
'-z+1/2, x, y+1/2'
'z+1/2, x, -y+1/2'
'z+1/2, -x, y+1/2'
'-y+1/2, -z, -x+1/2'
'y+1/2, -z, x+1/2'
'-y+1/2, z, x+1/2'
'y+1/2, z, -x+1/2'
'-y+1/2, -x, z+1/2'
'y+1/2, x, z+1/2'
'-y+1/2, x, -z+1/2'
'y+1/2, -x, -z+1/2'
'-x+1/2, -z, y+1/2'
'x+1/2, -z, -y+1/2'
'x+1/2, z, y+1/2'
'-x+1/2, z, -y+1/2'
'-z+1/2, -y, x+1/2'
'-z+1/2, y, -x+1/2'
'z+1/2, -y, -x+1/2'
'z+1/2, y, x+1/2'
'-x+1/2, -y+1/2, -z'
'x+1/2, y+1/2, -z'
'x+1/2, -y+1/2, z'
'-x+1/2, y+1/2, z'
'-z+1/2, -x+1/2, -y'
'-z+1/2, x+1/2, y'
'z+1/2, x+1/2, -y'
'z+1/2, -x+1/2, y'
'-y+1/2, -z+1/2, -x'
'y+1/2, -z+1/2, x'
'-y+1/2, z+1/2, x'
'y+1/2, z+1/2, -x'
'-y+1/2, -x+1/2, z'
'y+1/2, x+1/2, z'
'-y+1/2, x+1/2, -z'
'y+1/2, -x+1/2, -z'
'-x+1/2, -z+1/2, y'
'x+1/2, -z+1/2, -y'
'x+1/2, z+1/2, y'
'-x+1/2, z+1/2, -y'
'-z+1/2, -y+1/2, x'
'-z+1/2, y+1/2, -x'
'z+1/2, -y+1/2, -x'
'z+1/2, y+1/2, x'
loop_
_atom_site_label
_atom_site_type_symbol
_atom_site_fract_x
_atom_site_fract_y
_atom_site_fract_z
_atom_site_U_iso_or_equiv
_atom_site_adp_type
_atom_site_occupancy
_atom_site_site_symmetry_order
_atom_site_calc_flag
_atom_site_refinement_flags_posn
_atom_site_refinement_flags_adp
_atom_site_refinement_flags_occupancy
_atom_site_disorder_assembly
_atom_site_disorder_group
Ni1 Ni 0.44129(2) 0.55871(2) 0.55871(2) 0.00730(18) Uani 1 6 d S T P . .
H1 H 0.3882(8) 0.500000 0.500000 0.029(17) Uiso 1 8 d DS . P . .
O1 O 0.42082(9) 0.500000 0.500000 0.0075(5) Uani 1 8 d DS T P . .
N1 N 0.47341(6) 0.61014(4) 0.61014(4) 0.0153(3) Uani 1 2 d S T P . .
C1 C 0.45706(9) 0.64561(6) 0.64561(6) 0.0241(5) Uani 1 2 d S T P . .
Cs1 Cs 0.45240(19) 0.7248(3) 0.45240(19) 0.077(3) Uani 0.0531(14) 2 d S T P . .
C2 C 0.500000 0.66969(8) 0.66969(8) 0.0234(6) Uani 1 4 d S T P . .
H2 H 0.4209(14) 0.6523(9) 0.6523(9) 0.035(8) Uiso 1 2 d S . P . .
C3 C 0.500000 0.71059(8) 0.71059(8) 0.0296(8) Uani 1 4 d S T P . .
C4 C 0.54313(16) 0.71797(14) 0.74317(14) 0.0363(9) Uani 0.5 1 d D U P A -1
H3 H 0.5758(12) 0.702(2) 0.739(2) 0.070(19) Uiso 0.5 1 d D . P B -1
loop_
_atom_site_aniso_label
_atom_site_aniso_U_11
_atom_site_aniso_U_22
_atom_site_aniso_U_33
_atom_site_aniso_U_23
_atom_site_aniso_U_13
_atom_site_aniso_U_12
Ni1 0.00730(18) 0.00730(18) 0.00730(18) -0.00108(7) 0.00108(7) 0.00108(7)
O1 0.0058(11) 0.0083(6) 0.0083(6) 0.000 0.000 0.000
N1 0.0143(8) 0.0157(5) 0.0157(5) -0.0089(6) 0.0006(4) 0.0006(4)
C1 0.0206(10) 0.0258(7) 0.0258(7) -0.0184(9) 0.0024(5) 0.0024(5)
Cs1 0.083(3) 0.065(4) 0.083(3) -0.020(2) -0.008(3) -0.020(2)
C2 0.0232(14) 0.0236(9) 0.0236(9) -0.0160(12) 0.000 0.000
C3 0.0297(16) 0.0296(11) 0.0296(11) -0.0235(14) 0.000 0.000
C4 0.0340(14) 0.0373(14) 0.0376(15) -0.0266(12) -0.0074(11) 0.0108(11)
loop_
_atom_type_symbol
_atom_type_description
_atom_type_scat_dispersion_real
_atom_type_scat_dispersion_imag
_atom_type_scat_source
C C 0.0033 0.0016 'International Tables Vol C Tables 4.2.6.8 and 6.1.1.4'
H H 0.0000 0.0000 'International Tables Vol C Tables 4.2.6.8 and 6.1.1.4'
Cs Cs -0.3680 2.1192 'International Tables Vol C Tables 4.2.6.8 and 6.1.1.4'
N N 0.0061 0.0033 'International Tables Vol C Tables 4.2.6.8 and 6.1.1.4'
Ni Ni 0.3393 1.1124 'International Tables Vol C Tables 4.2.6.8 and 6.1.1.4'
O O 0.0106 0.0060 'International Tables Vol C Tables 4.2.6.8 and 6.1.1.4'
loop_
_geom_angle_atom_site_label_1
_geom_angle_atom_site_label_2
_geom_angle_atom_site_label_3
_geom_angle
_geom_angle_site_symmetry_1
_geom_angle_site_symmetry_3
_geom_angle_publ_flag
N1 Ni1 N1 95.98(6) . 10_656 ?
N1 Ni1 N1 95.98(6) . 7_665 ?
N1 Ni1 N1 95.98(6) 10_656 7_665 ?
N1 Ni1 O1 170.02(8) . . ?
N1 Ni1 O1 90.68(5) 10_656 . ?
N1 Ni1 O1 90.68(5) 7_665 . ?
N1 Ni1 O1 90.68(5) . 105_666 ?
N1 Ni1 O1 170.02(8) 10_656 105_666 ?
N1 Ni1 O1 90.68(5) 7_665 105_666 ?
O1 Ni1 O1 81.79(9) . 105_666 ?
N1 Ni1 O1 90.68(5) . 101_666 ?
N1 Ni1 O1 90.68(5) 10_656 101_666 ?
N1 Ni1 O1 170.02(8) 7_665 101_666 ?
O1 Ni1 O1 81.79(9) . 101_666 ?
O1 Ni1 O1 81.80(9) 105_666 101_666 ?
N1 Ni1 Ni1 130.302(17) . 99_565 ?
N1 Ni1 Ni1 130.303(17) 10_656 99_565 ?
N1 Ni1 Ni1 66.17(5) 7_665 99_565 ?
O1 Ni1 Ni1 46.642(14) . 99_565 ?
O1 Ni1 Ni1 46.643(15) 105_666 99_565 ?
O1 Ni1 Ni1 103.85(6) 101_666 99_565 ?
N1 Ni1 Ni1 66.17(5) . 100_655 ?
N1 Ni1 Ni1 130.303(17) 10_656 100_655 ?
N1 Ni1 Ni1 130.303(17) 7_665 100_655 ?
O1 Ni1 Ni1 103.85(6) . 100_655 ?
O1 Ni1 Ni1 46.643(15) 105_666 100_655 ?
O1 Ni1 Ni1 46.643(14) 101_666 100_655 ?
Ni1 Ni1 Ni1 90.0 99_565 100_655 ?
N1 Ni1 Ni1 130.302(17) . 98_556 ?
N1 Ni1 Ni1 66.17(5) 10_656 98_556 ?
N1 Ni1 Ni1 130.303(17) 7_665 98_556 ?
O1 Ni1 Ni1 46.642(14) . 98_556 ?
O1 Ni1 Ni1 103.85(6) 105_666 98_556 ?
O1 Ni1 Ni1 46.643(15) 101_666 98_556 ?
Ni1 Ni1 Ni1 90.0 99_565 98_556 ?
Ni1 Ni1 Ni1 90.0 100_655 98_556 ?
N1 Ni1 Cs1 119.24(11) . 105_666 ?
N1 Ni1 Cs1 51.11(3) 10_656 105_666 ?
N1 Ni1 Cs1 51.11(3) 7_665 105_666 ?
O1 Ni1 Cs1 70.75(11) . 105_666 ?
O1 Ni1 Cs1 130.82(5) 105_666 105_666 ?
O1 Ni1 Cs1 130.82(5) 101_666 105_666 ?
Ni1 Ni1 Cs1 86.18(7) 99_565 105_666 ?
Ni1 Ni1 Cs1 174.60(10) 100_655 105_666 ?
Ni1 Ni1 Cs1 86.18(7) 98_556 105_666 ?
N1 Ni1 Cs1 51.11(3) . 98_556 ?
N1 Ni1 Cs1 51.11(3) 10_656 98_556 ?
N1 Ni1 Cs1 119.23(11) 7_665 98_556 ?
O1 Ni1 Cs1 130.82(5) . 98_556 ?
O1 Ni1 Cs1 130.82(5) 105_666 98_556 ?
O1 Ni1 Cs1 70.75(11) 101_666 98_556 ?
Ni1 Ni1 Cs1 174.60(10) 99_565 98_556 ?
Ni1 Ni1 Cs1 86.18(7) 100_655 98_556 ?
Ni1 Ni1 Cs1 86.18(7) 98_556 98_556 ?
Cs1 Ni1 Cs1 97.37(12) 105_666 98_556 ?
N1 Ni1 Cs1 51.11(3) . 104_565 ?
N1 Ni1 Cs1 119.23(11) 10_656 104_565 ?
N1 Ni1 Cs1 51.11(3) 7_665 104_565 ?
O1 Ni1 Cs1 130.82(5) . 104_565 ?
O1 Ni1 Cs1 70.75(11) 105_666 104_565 ?
O1 Ni1 Cs1 130.82(5) 101_666 104_565 ?
Ni1 Ni1 Cs1 86.18(7) 99_565 104_565 ?
Ni1 Ni1 Cs1 86.18(7) 100_655 104_565 ?
Ni1 Ni1 Cs1 174.60(10) 98_556 104_565 ?
Cs1 Ni1 Cs1 97.37(12) 105_666 104_565 ?
Cs1 Ni1 Cs1 97.37(12) 98_556 104_565 ?
Ni1 O1 Ni1 152.31(12) . 4_566 ?
Ni1 O1 Ni1 86.72(3) . 98_556 ?
Ni1 O1 Ni1 86.72(3) 4_566 98_556 ?
Ni1 O1 Ni1 86.72(3) . 99_565 ?
Ni1 O1 Ni1 86.72(3) 4_566 99_565 ?
Ni1 O1 Ni1 152.31(12) 98_556 99_565 ?
Ni1 O1 H1 103.85(6) . . ?
Ni1 O1 H1 103.85(6) 4_566 . ?
Ni1 O1 H1 103.85(6) 98_556 . ?
Ni1 O1 H1 103.85(6) 99_565 . ?
C1 N1 N1 108.05(12) . 100_655 ?
C1 N1 Ni1 138.12(15) . . ?
N1 N1 Ni1 113.83(5) 100_655 . ?
C1 N1 Cs1 71.70(12) . 98_556 ?
N1 N1 Cs1 99.14(9) 100_655 98_556 ?
Ni1 N1 Cs1 100.99(7) . 98_556 ?
C1 N1 Cs1 71.70(12) . 104_565 ?
N1 N1 Cs1 99.14(9) 100_655 104_565 ?
Ni1 N1 Cs1 100.99(7) . 104_565 ?
Cs1 N1 Cs1 142.6(3) 98_556 104_565 ?
C1 N1 Cs1 85.40(10) . 3_656 ?
N1 N1 Cs1 60.40(8) 100_655 3_656 ?
Ni1 N1 Cs1 115.09(10) . 3_656 ?
Cs1 N1 Cs1 38.74(16) 98_556 3_656 ?
Cs1 N1 Cs1 143.15(15) 104_565 3_656 ?
C1 N1 Cs1 85.40(10) . 7_665 ?
N1 N1 Cs1 60.40(8) 100_655 7_665 ?
Ni1 N1 Cs1 115.09(10) . 7_665 ?
Cs1 N1 Cs1 143.15(15) 98_556 7_665 ?
Cs1 N1 Cs1 38.74(16) 104_565 7_665 ?
Cs1 N1 Cs1 113.1(2) 3_656 7_665 ?
N1 C1 C2 110.4(2) . . ?
N1 C1 Cs1 84.89(14) . 104_565 ?
C2 C1 Cs1 95.43(7) . 104_565 ?
N1 C1 Cs1 84.89(14) . 98_556 ?
C2 C1 Cs1 95.43(7) . 98_556 ?
Cs1 C1 Cs1 167.1(2) 104_565 98_556 ?
N1 C1 H2 123(2) . . ?
C2 C1 H2 127(2) . . ?
Cs1 C1 H2 89.5(3) 104_565 . ?
Cs1 C1 H2 89.5(3) 98_556 . ?
Cs1 Cs1 Cs1 89.997(1) 100_655 98_556 ?
Cs1 Cs1 C1 141.02(13) 100_655 107_655 ?
Cs1 Cs1 C1 87.88(10) 98_556 107_655 ?
Cs1 Cs1 C1 87.88(10) 100_655 98_556 ?
Cs1 Cs1 C1 141.02(13) 98_556 98_556 ?
C1 Cs1 C1 70.32(14) 107_655 98_556 ?
Cs1 Cs1 N1 80.86(9) 100_655 98_556 ?
Cs1 Cs1 N1 118.22(11) 98_556 98_556 ?
C1 Cs1 N1 66.21(11) 107_655 98_556 ?
C1 Cs1 N1 23.41(5) 98_556 98_556 ?
Cs1 Cs1 N1 118.22(11) 100_655 107_655 ?
Cs1 Cs1 N1 80.86(9) 98_556 107_655 ?
C1 Cs1 N1 23.41(5) 107_655 107_655 ?
C1 Cs1 N1 66.21(11) 98_556 107_655 ?
N1 Cs1 N1 53.06(10) 98_556 107_655 ?
Cs1 Cs1 Cs1 45.0 100_655 3_656 ?
Cs1 Cs1 Cs1 44.998(1) 98_556 3_656 ?
C1 Cs1 Cs1 121.57(13) 107_655 3_656 ?
C1 Cs1 Cs1 121.57(13) 98_556 3_656 ?
N1 Cs1 Cs1 102.83(13) 98_556 3_656 ?
N1 Cs1 Cs1 102.83(13) 107_655 3_656 ?
Cs1 Cs1 C2 149.19(13) 100_655 10_656 ?
Cs1 Cs1 C2 70.44(9) 98_556 10_656 ?
C1 Cs1 C2 22.57(5) 107_655 10_656 ?
C1 Cs1 C2 92.79(13) 98_556 10_656 ?
N1 Cs1 C2 87.64(13) 98_556 10_656 ?
N1 Cs1 C2 37.33(6) 107_655 10_656 ?
Cs1 Cs1 C2 111.75(11) 3_656 10_656 ?
Cs1 Cs1 C2 70.44(9) 100_655 98_556 ?
Cs1 Cs1 C2 149.19(13) 98_556 98_556 ?
C1 Cs1 C2 92.79(13) 107_655 98_556 ?
C1 Cs1 C2 22.57(5) 98_556 98_556 ?
N1 Cs1 C2 37.33(6) 98_556 98_556 ?
N1 Cs1 C2 87.64(13) 107_655 98_556 ?
Cs1 Cs1 C2 111.75(11) 3_656 98_556 ?
C2 Cs1 C2 115.15(15) 10_656 98_556 ?
Cs1 Cs1 N1 114.60(10) 100_655 10_656 ?
Cs1 Cs1 N1 60.40(8) 98_556 10_656 ?
C1 Cs1 N1 34.79(7) 107_655 10_656 ?
C1 Cs1 N1 85.42(13) 98_556 10_656 ?
N1 Cs1 N1 68.78(12) 98_556 10_656 ?
N1 Cs1 N1 20.47(6) 107_655 10_656 ?
Cs1 Cs1 N1 86.85(10) 3_656 10_656 ?
C2 Cs1 N1 35.03(6) 10_656 10_656 ?
C2 Cs1 N1 105.54(15) 98_556 10_656 ?
Cs1 Cs1 N1 60.40(8) 100_655 3_656 ?
Cs1 Cs1 N1 114.60(10) 98_556 3_656 ?
C1 Cs1 N1 85.42(13) 107_655 3_656 ?
C1 Cs1 N1 34.79(7) 98_556 3_656 ?
N1 Cs1 N1 20.47(6) 98_556 3_656 ?
N1 Cs1 N1 68.78(12) 107_655 3_656 ?
Cs1 Cs1 N1 86.85(10) 3_656 3_656 ?
C2 Cs1 N1 105.54(15) 10_656 3_656 ?
C2 Cs1 N1 35.03(6) 98_556 3_656 ?
N1 Cs1 N1 80.14(14) 10_656 3_656 ?
Cs1 Cs1 Ni1 93.82(7) 100_655 98_556 ?
Cs1 Cs1 Ni1 93.82(7) 98_556 98_556 ?
C1 Cs1 Ni1 47.59(9) 107_655 98_556 ?
C1 Cs1 Ni1 47.59(9) 98_556 98_556 ?
N1 Cs1 Ni1 27.90(6) 98_556 98_556 ?
N1 Cs1 Ni1 27.90(6) 107_655 98_556 ?
Cs1 Cs1 Ni1 95.41(9) 3_656 98_556 ?
C2 Cs1 Ni1 65.12(9) 10_656 98_556 ?
C2 Cs1 Ni1 65.12(9) 98_556 98_556 ?
N1 Cs1 Ni1 41.00(7) 10_656 98_556 ?
N1 Cs1 Ni1 41.00(7) 3_656 98_556 ?
C1 C2 C1 103.2(2) 100_655 . ?
C1 C2 C3 128.41(13) 100_655 . ?
C1 C2 C3 128.41(13) . . ?
C1 C2 Cs1 93.17(14) 100_655 104_565 ?
C1 C2 Cs1 62.00(8) . 104_565 ?
C3 C2 Cs1 109.47(12) . 104_565 ?
C1 C2 Cs1 93.17(14) 100_655 98_556 ?
C1 C2 Cs1 62.00(8) . 98_556 ?
C3 C2 Cs1 109.47(12) . 98_556 ?
Cs1 C2 Cs1 123.62(16) 104_565 98_556 ?
C1 C2 Cs1 62.00(8) 100_655 3_656 ?
C1 C2 Cs1 93.17(14) . 3_656 ?
C3 C2 Cs1 109.47(12) . 3_656 ?
Cs1 C2 Cs1 141.1(2) 104_565 3_656 ?
Cs1 C2 Cs1 39.13(18) 98_556 3_656 ?
C1 C2 Cs1 62.00(8) 100_655 7_665 ?
C1 C2 Cs1 93.17(14) . 7_665 ?
C3 C2 Cs1 109.47(12) . 7_665 ?
Cs1 C2 Cs1 39.13(18) 104_565 7_665 ?
Cs1 C2 Cs1 141.1(2) 98_556 7_665 ?
Cs1 C2 Cs1 123.62(16) 3_656 7_665 ?
C4 C3 C2 121.19(17) . . ?
C3 C4 H3 125(4) . . ?
loop_
_geom_bond_atom_site_label_1
_geom_bond_atom_site_label_2
_geom_bond_distance
_geom_bond_site_symmetry_2
_geom_bond_publ_flag
Ni1 N1 2.0203(16) . ?
Ni1 N1 2.0203(16) 10_656 ?
Ni1 N1 2.0203(16) 7_665 ?
Ni1 O1 2.1732(6) . ?
Ni1 O1 2.1733(6) 105_666 ?
Ni1 O1 2.1733(6) 101_666 ?
Ni1 Ni1 2.9842(4) 99_565 ?
Ni1 Ni1 2.9842(4) 100_655 ?
Ni1 Ni1 2.9842(4) 98_556 ?
Ni1 Cs1 4.239(6) 105_666 ?
Ni1 Cs1 4.239(6) 98_556 ?
Ni1 Cs1 4.239(6) 104_565 ?
O1 H1 0.83(2) . ?
N1 C1 1.341(2) . ?
N1 N1 1.352(3) 100_655 ?
N1 Cs1 3.361(5) 98_556 ?
N1 Cs1 3.361(5) 104_565 ?
N1 Cs1 3.817(5) 3_656 ?
N1 Cs1 3.817(5) 7_665 ?
C1 C2 1.393(3) . ?
C1 Cs1 3.204(4) 104_565 ?
C1 Cs1 3.204(4) 98_556 ?
C1 H2 0.95(4) . ?
Cs1 Cs1 2.419(10) 100_655 ?
Cs1 Cs1 2.419(10) 98_556 ?
Cs1 Cs1 3.422(14) 3_656 ?
Cs1 C2 3.612(3) 10_656 ?
Cs1 C2 3.612(3) 98_556 ?
C2 C3 1.470(4) . ?
C3 C4 1.386(4) . ?
C4 H3 0.93(2) . ?
