#------------------------------------------------------------------------------
#$Date: 2015-05-22 10:32:43 +0300 (Fri, 22 May 2015) $
#$Revision: 137195 $
#$URL: svn://www.crystallography.net/cod/cif/7/22/05/7220535.cif $
#------------------------------------------------------------------------------
#
# This file is available in the Crystallography Open Database (COD),
# http://www.crystallography.net/
#
# All data on this site have been placed in the public domain by the
# contributors.
#
data_7220535
loop_
_publ_author_name
'Xu, Guodong'
'Peng, Yongwu'
'Hu, Zhigang'
'Yuan, Daqiang'
'Donnadieu, Bruno'
'Zhao, Dan'
'Cheng, Hansong'
_publ_section_title
;
 A 2D metal-organic framework composed of bi-functional ligand with
 ultra-micropores for post-combustion CO2 capture
;
_journal_name_full               'RSC Adv.'
_journal_paper_doi               10.1039/C5RA04295J
_journal_year                    2015
_chemical_formula_sum            'C4 H2 N2 O3 Zn'
_chemical_formula_weight         191.45
_chemical_name_systematic
;
 ?
;
_space_group_crystal_system      monoclinic
_space_group_IT_number           14
_space_group_name_Hall           '-P 2yn'
_space_group_name_H-M_alt        'P 1 21/n 1'
_symmetry_space_group_name_Hall  '-P 2yn'
_symmetry_space_group_name_H-M   'P 1 21/n 1'
_atom_sites_solution_hydrogens   geom
_audit_creation_method           SHELXL-2014
_audit_update_record
;
2015-04-17 deposited with the CCDC.
2015-05-20 downloaded from the CCDC.
;
_cell_angle_alpha                90
_cell_angle_beta                 96.180(3)
_cell_angle_gamma                90
_cell_formula_units_Z            4
_cell_length_a                   8.8126(3)
_cell_length_b                   10.6094(3)
_cell_length_c                   10.5394(3)
_cell_measurement_reflns_used    2328
_cell_measurement_temperature    100(2)
_cell_measurement_theta_max      73.0600
_cell_measurement_theta_min      4.1500
_cell_volume                     979.67(5)
_computing_cell_refinement
;
CrysAlisPro, Agilent Technologies,
Version 1.171.36.32 (release 02-08-2013 CrysAlis171 .NET)
(compiled Aug  2 2013,16:46:58)
;
_computing_data_collection
;
CrysAlisPro, Agilent Technologies,
Version 1.171.36.32 (release 02-08-2013 CrysAlis171 .NET)
(compiled Aug  2 2013,16:46:58)
;
_computing_data_reduction
;
CrysAlisPro, Agilent Technologies,
Version 1.171.36.32 (release 02-08-2013 CrysAlis171 .NET)
(compiled Aug  2 2013,16:46:58)
;
_computing_structure_refinement  'SHELXL-2014 (Sheldrick, 2014)'
_computing_structure_solution    'SHELXT-2014 (Sheldrick, 2014)'
_diffrn_ambient_temperature      100(2)
_diffrn_measured_fraction_theta_full 0.998
_diffrn_measured_fraction_theta_max 0.969
_diffrn_radiation_type           CuK\a
_diffrn_radiation_wavelength     1.54184
_diffrn_reflns_av_R_equivalents  0.0155
_diffrn_reflns_av_unetI/netI     0.0202
_diffrn_reflns_laue_measured_fraction_full 0.998
_diffrn_reflns_laue_measured_fraction_max 0.969
_diffrn_reflns_limit_h_max       10
_diffrn_reflns_limit_h_min       -10
_diffrn_reflns_limit_k_max       13
_diffrn_reflns_limit_k_min       -12
_diffrn_reflns_limit_l_max       12
_diffrn_reflns_limit_l_min       -11
_diffrn_reflns_number            3635
_diffrn_reflns_point_group_measured_fraction_full 0.998
_diffrn_reflns_point_group_measured_fraction_max 0.969
_diffrn_reflns_theta_full        67.684
_diffrn_reflns_theta_max         73.670
_diffrn_reflns_theta_min         5.935
_exptl_absorpt_coefficient_mu    3.229
_exptl_absorpt_correction_T_max  1.00000
_exptl_absorpt_correction_T_min  0.88274
_exptl_absorpt_correction_type   multi-scan
_exptl_absorpt_process_details
;
CrysAlisPro, Agilent Technologies,
Version 1.171.36.32 (release 02-08-2013 CrysAlis171 .NET)
(compiled Aug  2 2013,16:46:58)
Empirical absorption correction using spherical harmonics,
 implemented in SCALE3 ABSPACK scaling algorithm.
;
_exptl_crystal_colour            colorless
_exptl_crystal_density_diffrn    1.298
_exptl_crystal_description       prism
_exptl_crystal_F_000             376
_exptl_crystal_size_max          0.080
_exptl_crystal_size_mid          0.060
_exptl_crystal_size_min          0.050
_platon_squeeze_details
;
Large sections of the structure, 449.1 cubic Angstrom or 45.8% of 
the unit cell volume, consist of solvent filled voids. The content 
of the voids is partially recognizable as mostly disordered 
dimethylacetamide, isopropanol, and some water molecules, while 
other sections show only featureless electron density. Attempts 
to include solvent molecules in the structural model yielded less 
than satisfactory results. The data were thus instead corrected for 
using back Fourier transform methods as implemented in the Squeeze 
algorithm of the Platon program package. Correction for unresolved 
electron density yielded 130 electrons for the void volume.
;
_refine_diff_density_max         0.613
_refine_diff_density_min         -0.379
_refine_diff_density_rms         0.083
_refine_ls_extinction_method     none
_refine_ls_goodness_of_fit_ref   1.157
_refine_ls_hydrogen_treatment    constr
_refine_ls_matrix_type           full
_refine_ls_number_parameters     91
_refine_ls_number_reflns         1908
_refine_ls_number_restraints     0
_refine_ls_restrained_S_all      1.157
_refine_ls_R_factor_all          0.0292
_refine_ls_R_factor_gt           0.0269
_refine_ls_shift/su_max          0.001
_refine_ls_shift/su_mean         0.000
_refine_ls_structure_factor_coef Fsqd
_refine_ls_weighting_details
'w=1/[\s^2^(Fo^2^)+(0.0378P)^2^+1.1007P] where P=(Fo^2^+2Fc^2^)/3'
_refine_ls_weighting_scheme      calc
_refine_ls_wR_factor_gt          0.0787
_refine_ls_wR_factor_ref         0.0800
_reflns_Friedel_coverage         0.000
_reflns_number_gt                1767
_reflns_number_total             1908
_reflns_threshold_expression     'I > 2\s(I)'
_cod_data_source_file            c5ra04295j2.cif
_cod_data_source_block           NUS-5
_cod_database_code               7220535
_shelx_space_group_comment
;
The symmetry employed for this shelxl refinement is uniquely defined
by the following loop, which should always be used as a source of
symmetry information in preference to the above space-group names.
They are only intended as comments.
;
_shelx_estimated_absorpt_t_min   0.782
_shelx_estimated_absorpt_t_max   0.855
_shelxl_version_number           2014-3
_shelx_res_file
;
TITL 19 in P2(1)/n
CELL 1.54184 8.8126 10.6094 10.5394 90.000 96.180 90.000
ZERR 4.0000 0.0003 0.0003 0.0003 0.000 0.003 0.000
LATT 1
SYMM 0.5-X, 0.5+Y, 0.5-Z
SFAC C H N O ZN
UNIT 16 8 8 12 4
MERG 2
FMAP 2
GRID
PLAN 20
TEMP -173
SIZE 0.05 0.06 0.08
BOND
ABIN
L.S. 20
ACTA
WGHT    0.037800    1.100700
FVAR       0.74927
ZN1   5    0.814964    0.426882    0.488939    11.00000    0.01088    0.01021 =
         0.01121    0.00105    0.00495    0.00087
O3    4    0.667803    0.483688    0.344930    11.00000    0.01785    0.02583 =
         0.01689    0.00073   -0.00092    0.00342
O1    4    0.717669    0.774276    0.906731    11.00000    0.02264    0.01532 =
         0.02154   -0.00609    0.01407   -0.00438
O2    4    0.919735    0.893528    0.895518    11.00000    0.01889    0.01657 =
         0.02179   -0.00626    0.00420   -0.00293
N1    3    0.876524    0.568464    0.606353    11.00000    0.01098    0.01573 =
         0.01385   -0.00139    0.00508   -0.00011
N2    3    1.014490    0.629437    0.608886    11.00000    0.01402    0.01343 =
         0.01494    0.00022    0.00585    0.00027
C1    1    0.799149    0.620839    0.694963    11.00000    0.01249    0.01756 =
         0.01628   -0.00284    0.00594    0.00120
AFIX  43
H1    2    0.700345    0.595774    0.713307    11.00000   -1.20000
AFIX   0
C4    1    0.841329    0.799908    0.857810    11.00000    0.01690    0.01159 =
         0.01264    0.00130    0.00364    0.00178
C2    1    0.884785    0.717686    0.756524    11.00000    0.01351    0.01382 =
         0.01210   -0.00052    0.00350    0.00184
C3    1    1.019281    0.719034    0.697755    11.00000    0.01520    0.01382 =
         0.01861   -0.00099    0.00448   -0.00296
AFIX  43
H3    2    1.102006    0.775484    0.718108    11.00000   -1.20000
AFIX   0
HKLF 4

REM  19 in P2(1)/n
REM R1 =  0.0269 for    1767 Fo > 4sig(Fo)  and  0.0292 for all    1908 data
REM     91 parameters refined using      0 restraints

END

WGHT      0.0378      1.0995

REM Highest difference peak  0.613,  deepest hole -0.379,  1-sigma level  0.083
Q1    1   0.5937  0.5270  0.3608  11.00000  0.05    0.61
Q2    1   0.6318  0.4383  0.3005  11.00000  0.05    0.55
Q3    1   0.6984  0.4943  0.2883  11.00000  0.05    0.45
Q4    1   0.6954  0.4826  0.3720  11.00000  0.05    0.40
Q5    1   0.7322  0.4986  0.2281  11.00000  0.05    0.27
Q6    1   0.8625  0.7581  0.8002  11.00000  0.05    0.26
Q7    1   0.8543  0.6635  0.7449  11.00000  0.05    0.24
Q8    1   0.8345  0.5639  0.5267  11.00000  0.05    0.23
Q9    1   1.0026  0.4134  0.8331  11.00000  0.05    0.21
Q10   1   0.6668  0.5039  0.4607  11.00000  0.05    0.20
Q11   1   1.3788  0.8601  0.7360  11.00000  0.05    0.20
Q12   1   0.9511  0.7213  0.7354  11.00000  0.05    0.20
Q13   1   0.6656  0.4181  0.0736  11.00000  0.05    0.20
Q14   1   0.5592  0.4481  0.0949  11.00000  0.05    0.19
Q15   1   0.5291  0.8571  0.6179  11.00000  0.05    0.19
Q16   1   0.8476  0.5846  0.6486  11.00000  0.05    0.19
Q17   1   0.8363  0.9078  0.4940  11.00000  0.05    0.19
Q18   1   0.4790  0.7033  0.8962  11.00000  0.05    0.19
Q19   1   0.5312  0.5915  0.8553  11.00000  0.05    0.18
Q20   1   0.7202  0.8976  0.5341  11.00000  0.05    0.18
;
_shelx_res_checksum              25226
_shelx_fab_file
;
    0    0    2     38.86      0.00
    0    0    4     -8.82      0.00
    0    0    6      1.90      0.00
    0    0    8     -0.75      0.00
    0    0   10     -0.29      0.00
    0    0   12      0.30      0.00
    0    1    1    -79.65      0.00
    0    1    2      1.85      0.00
    0    1    3     -7.06      0.00
    0    1    4      4.05      0.00
    0    1    5      4.52      0.00
    0    1    6      2.74      0.00
    0    1    7     -1.49      0.00
    0    1    8     -0.68      0.00
    0    1    9      0.30      0.00
    0    1   10     -4.33      0.00
    0    1   11     -0.81      0.00
    0    1   12     -0.20      0.00
    0    2    0     47.04      0.00
    0    2    1     -5.40      0.00
    0    2    2     35.61      0.00
    0    2    3     -3.45      0.00
    0    2    4     -0.54      0.00
    0    2    5     -3.98      0.00
    0    2    6     -3.76      0.00
    0    2    7     -1.39      0.00
    0    2    8      2.89      0.00
    0    2    9      5.52      0.00
    0    2   10      1.94      0.00
    0    2   11      3.45      0.00
    0    2   12      0.96      0.00
    0    3    1    -21.08      0.00
    0    3    2      6.01      0.00
    0    3    3    -15.63      0.00
    0    3    4     -0.82      0.00
    0    3    5      4.46      0.00
    0    3    6      0.78      0.00
    0    3    7      0.19      0.00
    0    3    8     -3.52      0.00
    0    3    9     -5.06      0.00
    0    3   10     -4.46      0.00
    0    3   11     -2.56      0.00
    0    3   12      0.44      0.00
    0    4    0      3.40      0.00
    0    4    1     -5.32      0.00
    0    4    2      8.79      0.00
    0    4    3     -1.65      0.00
    0    4    4      5.19      0.00
    0    4    5      5.91      0.00
    0    4    6     -1.00      0.00
    0    4    7      4.19      0.00
    0    4    8      3.25      0.00
    0    4    9      2.16      0.00
    0    4   10      4.77      0.00
    0    4   11     -0.42      0.00
    0    4   12      0.71      0.00
    0    5    1     -0.88      0.00
    0    5    2      5.12      0.00
    0    5    3     -0.62      0.00
    0    5    4     -3.27      0.00
    0    5    5     -3.24      0.00
    0    5    6    -10.53      0.00
    0    5    7     -3.12      0.00
    0    5    8     -1.91      0.00
    0    5    9     -3.96      0.00
    0    5   10      2.04      0.00
    0    5   11     -1.53      0.00
    0    6    0      6.43      0.00
    0    6    1     -0.86      0.00
    0    6    2     -1.29      0.00
    0    6    3     -0.36      0.00
    0    6    4     -1.76      0.00
    0    6    5      8.64      0.00
    0    6    6      3.84      0.00
    0    6    7      6.35      0.00
    0    6    8      5.03      0.00
    0    6    9     -2.15      0.00
    0    6   10      0.76      0.00
    0    6   11     -1.55      0.00
    0    7    1     -3.61      0.00
    0    7    2     -0.08      0.00
    0    7    3      1.83      0.00
    0    7    4     -5.88      0.00
    0    7    5      1.33      0.00
    0    7    6     -4.73      0.00
    0    7    7     -5.32      0.00
    0    7    8     -1.09      0.00
    0    7    9     -2.30      0.00
    0    7   10      1.53      0.00
    0    7   11      2.25      0.00
    0    8    0      2.13      0.00
    0    8    1     -0.02      0.00
    0    8    2      1.74      0.00
    0    8    3      4.02      0.00
    0    8    4     -1.83      0.00
    0    8    5      2.52      0.00
    0    8    6      0.67      0.00
    0    8    7      0.29      0.00
    0    8    8      3.37      0.00
    0    8    9      0.77      0.00
    0    8   10     -0.61      0.00
    0    9    1     -1.60      0.00
    0    9    2     -3.79      0.00
    0    9    3     -1.11      0.00
    0    9    4     -0.52      0.00
    0    9    5      0.13      0.00
    0    9    6      0.72      0.00
    0    9    7     -0.61      0.00
    0    9    8     -0.73      0.00
    0    9    9     -1.09      0.00
    0   10    0     -0.04      0.00
    0   10    1      3.19      0.00
    0   10    2      0.73      0.00
    0   10    3      0.14      0.00
    0   10    4      1.71      0.00
    0   10    5     -2.98      0.00
    0   10    6      0.48      0.00
    0   10    7      0.95      0.00
    0   11    1      0.72      0.00
    0   11    2     -1.18      0.00
    0   11    3     -0.70      0.00
    0   11    4      3.47      0.00
    0   11    5     -1.13      0.00
    0   11    6      0.22      0.00
    0   11    7     -0.43      0.00
    0   12    0     -0.09      0.00
    0   12    1     -0.32      0.00
    0   12    2     -0.34      0.00
    0   12    3     -1.28      0.00
    0   12    4      0.00      0.00
    0   12    5     -0.17      0.00
    0   13    1     -0.59      0.00
    0   13    2      1.24      0.00
   -1    0   11      2.46      0.00
   -1    0    9     -0.96      0.00
   -1    0    7      4.42      0.00
   -1    0    5     16.03      0.00
   -1    0    3      3.54      0.00
   -1    0    1      4.82      0.00
    1    0    1     44.68      0.00
    1    0    3     24.01      0.00
    1    0    5     -4.19      0.00
    1    0    7     -2.62      0.00
    1    0    9      3.09      0.00
    1    0   11      8.27      0.00
   -1    1   12     -0.85      0.00
   -1    1   11      0.28      0.00
   -1    1   10     -1.11      0.00
   -1    1    9     -0.56      0.00
   -1    1    8     -1.09      0.00
   -1    1    7      2.30      0.00
   -1    1    6    -10.87      0.00
   -1    1    5     -1.94      0.00
   -1    1    4     -9.02      0.00
   -1    1    3      9.79      0.00
   -1    1    2      2.95      0.00
   -1    1    1     15.17      0.00
    1    1    0    -26.32      0.00
    1    1    1     29.55      0.00
    1    1    2    -33.68      0.00
    1    1    3      7.93      0.00
    1    1    4     -7.20      0.00
    1    1    5      0.11      0.00
    1    1    6      4.50      0.00
    1    1    7      3.46      0.00
    1    1    8     -1.10      0.00
    1    1    9      0.06      0.00
    1    1   10     -6.94      0.00
    1    1   11     -2.71      0.00
    1    1   12     -4.44      0.00
   -1    2   12     -0.06      0.00
   -1    2   11      0.73      0.00
   -1    2   10      0.70      0.00
   -1    2    9      2.81      0.00
   -1    2    8     -0.92      0.00
   -1    2    7      7.90      0.00
   -1    2    6     -1.01      0.00
   -1    2    5      6.77      0.00
   -1    2    4     -4.09      0.00
   -1    2    3     -5.83      0.00
   -1    2    2    -20.89      0.00
   -1    2    1      9.39      0.00
    1    2    0     -7.61      0.00
    1    2    1     23.39      0.00
    1    2    3     17.56      0.00
    1    2    4     -6.35      0.00
    1    2    5      1.42      0.00
    1    2    6     -3.25      0.00
    1    2    7     -0.70      0.00
    1    2    8     -3.07      0.00
    1    2    9      6.39      0.00
    1    2   10      2.97      0.00
    1    2   11      4.52      0.00
    1    2   12      3.18      0.00
   -1    3   12      0.42      0.00
   -1    3   11     -0.50      0.00
   -1    3   10     -2.02      0.00
   -1    3    9     -0.85      0.00
   -1    3    8     -9.42      0.00
   -1    3    7     -1.05      0.00
   -1    3    6     -6.90      0.00
   -1    3    5      5.08      0.00
   -1    3    4      7.60      0.00
   -1    3    3     12.56      0.00
   -1    3    2      1.72      0.00
   -1    3    1      6.06      0.00
    1    3    0    -11.33      0.00
    1    3    1      9.88      0.00
    1    3    2    -17.22      0.00
    1    3    3     18.65      0.00
    1    3    4     -8.24      0.00
    1    3    5      6.89      0.00
    1    3    6     -1.46      0.00
    1    3    7      1.73      0.00
    1    3    8     -5.16      0.00
    1    3    9     -0.31      0.00
    1    3   10     -4.39      0.00
    1    3   11     -3.55      0.00
    1    3   12     -0.47      0.00
   -1    4   12     -0.32      0.00
   -1    4   11     -0.84      0.00
   -1    4   10      1.56      0.00
   -1    4    9      6.09      0.00
   -1    4    8      2.92      0.00
   -1    4    7     10.29      0.00
   -1    4    6     -2.06      0.00
   -1    4    5     -3.71      0.00
   -1    4    4     -9.70      0.00
   -1    4    3     -6.26      0.00
   -1    4    2     -3.49      0.00
   -1    4    1      2.57      0.00
    1    4    0      3.68      0.00
    1    4    1     12.63      0.00
    1    4    2     -9.00      0.00
    1    4    3     10.27      0.00
    1    4    4    -17.68      0.00
    1    4    5      3.38      0.00
    1    4    6     -3.67      0.00
    1    4    7      5.52      0.00
    1    4    8      1.60      0.00
    1    4    9      3.90      0.00
    1    4   10      1.40      0.00
    1    4   11      0.36      0.00
    1    4   12      1.07      0.00
   -1    5   11     -1.19      0.00
   -1    5   10     -0.47      0.00
   -1    5    9     -3.67      0.00
   -1    5    8     -6.48      0.00
   -1    5    7     -0.14      0.00
   -1    5    6     -4.52      0.00
   -1    5    5      4.46      0.00
   -1    5    4      3.22      0.00
   -1    5    3      1.55      0.00
   -1    5    2      3.97      0.00
   -1    5    1      2.62      0.00
    1    5    0     -4.76      0.00
    1    5    1     -8.15      0.00
    1    5    2    -12.31      0.00
    1    5    3      9.76      0.00
    1    5    4     -6.63      0.00
    1    5    5     13.05      0.00
    1    5    6     -3.76      0.00
    1    5    7     -0.17      0.00
    1    5    8     -3.47      0.00
    1    5    9     -2.53      0.00
    1    5   10     -0.94      0.00
    1    5   11      0.41      0.00
   -1    6   11      0.03      0.00
   -1    6   10      3.17      0.00
   -1    6    9     -0.36      0.00
   -1    6    8      1.95      0.00
   -1    6    7      3.55      0.00
   -1    6    6     -1.12      0.00
   -1    6    5      5.31      0.00
   -1    6    4      0.95      0.00
   -1    6    3     -3.57      0.00
   -1    6    2     -1.82      0.00
   -1    6    1     -2.41      0.00
    1    6    0      7.84      0.00
    1    6    1      8.25      0.00
    1    6    2      2.23      0.00
    1    6    3      9.63      0.00
    1    6    4     -7.75      0.00
    1    6    5      6.65      0.00
    1    6    6     -6.30      0.00
    1    6    7     -0.99      0.00
    1    6    8      1.85      0.00
    1    6    9      0.76      0.00
    1    6   10      0.67      0.00
    1    6   11      1.28      0.00
   -1    7   11     -0.18      0.00
   -1    7   10      1.46      0.00
   -1    7    9     -1.56      0.00
   -1    7    8      2.67      0.00
   -1    7    7     -1.20      0.00
   -1    7    6     -5.08      0.00
   -1    7    5     -1.92      0.00
   -1    7    4     -3.87      0.00
   -1    7    3      0.29      0.00
   -1    7    2      2.94      0.00
   -1    7    1      6.96      0.00
    1    7    0     -2.87      0.00
    1    7    1     -2.67      0.00
    1    7    2     -6.72      0.00
    1    7    3      1.98      0.00
    1    7    4     -8.85      0.00
    1    7    5      3.42      0.00
    1    7    6      0.50      0.00
    1    7    7      1.84      0.00
    1    7    8      3.51      0.00
    1    7    9     -0.43      0.00
    1    7   10     -1.84      0.00
   -1    8   10     -0.99      0.00
   -1    8    9     -3.03      0.00
   -1    8    8      0.50      0.00
   -1    8    7     -0.65      0.00
   -1    8    6      3.10      0.00
   -1    8    5      4.36      0.00
   -1    8    4      0.07      0.00
   -1    8    3      3.13      0.00
   -1    8    2     -4.31      0.00
   -1    8    1      0.60      0.00
    1    8    0      4.00      0.00
    1    8    1      2.93      0.00
    1    8    2      0.11      0.00
    1    8    3      9.13      0.00
    1    8    4     -0.76      0.00
    1    8    5      1.56      0.00
    1    8    6     -0.06      0.00
    1    8    7     -3.86      0.00
    1    8    8     -1.42      0.00
    1    8    9     -0.66      0.00
    1    8   10      0.23      0.00
   -1    9    9      1.18      0.00
   -1    9    8      1.20      0.00
   -1    9    7     -1.92      0.00
   -1    9    6      0.52      0.00
   -1    9    5     -1.40      0.00
   -1    9    4     -3.97      0.00
   -1    9    3      3.31      0.00
   -1    9    2     -4.71      0.00
   -1    9    1      2.09      0.00
    1    9    0     -1.28      0.00
    1    9    1     -0.50      0.00
    1    9    2     -6.55      0.00
    1    9    3     -0.25      0.00
    1    9    4     -3.75      0.00
    1    9    5     -0.52      0.00
    1    9    6      2.20      0.00
    1    9    7     -0.32      0.00
    1    9    8      1.28      0.00
    1    9    9      0.04      0.00
   -1   10    8      0.10      0.00
   -1   10    7     -0.69      0.00
   -1   10    6      1.40      0.00
   -1   10    5     -0.15      0.00
   -1   10    4     -1.45      0.00
   -1   10    3      4.28      0.00
   -1   10    2     -1.50      0.00
   -1   10    1      3.91      0.00
    1   10    0     -1.36      0.00
    1   10    1      4.04      0.00
    1   10    2      0.21      0.00
    1   10    3      3.12      0.00
    1   10    4     -0.31      0.00
    1   10    5     -0.66      0.00
    1   10    6     -0.54      0.00
    1   10    7     -0.63      0.00
   -1   11    6     -0.32      0.00
   -1   11    5      0.36      0.00
   -1   11    4      0.56      0.00
   -1   11    3      0.45      0.00
   -1   11    2     -1.81      0.00
   -1   11    1     -1.53      0.00
    1   11    0     -4.66      0.00
    1   11    1      0.43      0.00
    1   11    2     -2.05      0.00
    1   11    3     -0.74      0.00
    1   11    4      0.10      0.00
    1   11    5      1.76      0.00
    1   11    6     -0.48      0.00
   -1   12    5      0.70      0.00
   -1   12    4      0.26      0.00
   -1   12    3     -1.55      0.00
   -1   12    2      1.63      0.00
   -1   12    1      2.17      0.00
    1   12    0     -0.49      0.00
    1   12    1      3.19      0.00
    1   12    2      0.89      0.00
    1   12    3     -0.48      0.00
    1   12    4     -0.76      0.00
    1   12    5      0.41      0.00
    1   13    0     -1.20      0.00
    1   13    1     -0.64      0.00
   -2    0   12     -0.54      0.00
   -2    0   10      1.49      0.00
   -2    0    8     -3.67      0.00
   -2    0    6     -1.88      0.00
   -2    0    4      0.34      0.00
   -2    0    2      8.88      0.00
    2    0    0     27.36      0.00
    2    0    2     12.90      0.00
    2    0    4     11.22      0.00
    2    0    6      4.20      0.00
    2    0    8     -3.40      0.00
    2    0   10     -2.67      0.00
    2    0   12      3.49      0.00
   -2    1   12      1.02      0.00
   -2    1   11     -0.57      0.00
   -2    1   10     -0.52      0.00
   -2    1    9      0.65      0.00
   -2    1    8      1.27      0.00
   -2    1    7      4.34      0.00
   -2    1    6      5.82      0.00
   -2    1    5     -0.56      0.00
   -2    1    4     -6.33      0.00
   -2    1    3     -4.03      0.00
   -2    1    2    -12.32      0.00
   -2    1    1    -10.97      0.00
    2    1    0     -4.70      0.00
    2    1    1    -20.05      0.00
    2    1    2     11.15      0.00
    2    1    3    -19.22      0.00
    2    1    4      7.55      0.00
    2    1    5     -8.13      0.00
    2    1    6     -1.81      0.00
    2    1    7      0.28      0.00
    2    1    8     -1.61      0.00
    2    1    9      3.59      0.00
    2    1   10     -3.16      0.00
    2    1   11     -1.56      0.00
    2    1   12     -0.05      0.00
   -2    2   12      0.96      0.00
   -2    2   11     -1.39      0.00
   -2    2   10      0.17      0.00
   -2    2    9      0.00      0.00
   -2    2    8     -2.42      0.00
   -2    2    7     -6.67      0.00
   -2    2    6     -3.97      0.00
   -2    2    5     -2.28      0.00
   -2    2    4      6.95      0.00
   -2    2    3     17.82      0.00
   -2    2    2      0.55      0.00
   -2    2    1      5.53      0.00
    2    2    0      0.41      0.00
    2    2    1     -5.20      0.00
    2    2    2     28.13      0.00
    2    2    3    -11.91      0.00
    2    2    4     19.22      0.00
    2    2    5     -3.71      0.00
    2    2    6      2.66      0.00
    2    2    7      3.53      0.00
    2    2    8     -2.07      0.00
    2    2    9      4.18      0.00
    2    2   10      0.85      0.00
    2    2   11      1.53      0.00
    2    2   12      2.06      0.00
   -2    3   12      2.54      0.00
   -2    3   11     -2.07      0.00
   -2    3   10      1.34      0.00
   -2    3    9      1.19      0.00
   -2    3    8      2.16      0.00
   -2    3    7      3.37      0.00
   -2    3    6      3.62      0.00
   -2    3    5     -3.00      0.00
   -2    3    4     -8.08      0.00
   -2    3    3     -4.06      0.00
   -2    3    2    -10.64      0.00
   -2    3    1     11.23      0.00
    2    3    0      6.63      0.00
    2    3    1    -10.04      0.00
    2    3    2      3.72      0.00
    2    3    3    -28.07      0.00
    2    3    4      8.60      0.00
    2    3    5    -11.97      0.00
    2    3    6      0.52      0.00
    2    3    7      1.33      0.00
    2    3    8     -5.79      0.00
    2    3    9     -1.21      0.00
    2    3   10     -1.70      0.00
    2    3   11     -2.23      0.00
    2    3   12      0.06      0.00
   -2    4   12      3.00      0.00
   -2    4   11     -2.88      0.00
   -2    4   10      0.70      0.00
   -2    4    9     -1.50      0.00
   -2    4    8     -2.96      0.00
   -2    4    7      2.61      0.00
   -2    4    6      3.46      0.00
   -2    4    5      3.63      0.00
   -2    4    4      3.55      0.00
   -2    4    3      3.29      0.00
   -2    4    2     -8.49      0.00
   -2    4    1      8.68      0.00
    2    4    0     -6.12      0.00
    2    4    1     -1.55      0.00
    2    4    2     18.53      0.00
    2    4    3     -2.23      0.00
    2    4    4     23.61      0.00
    2    4    5     -4.33      0.00
    2    4    6      4.35      0.00
    2    4    7      2.51      0.00
    2    4    8     -0.47      0.00
    2    4    9      2.69      0.00
    2    4   10      2.91      0.00
    2    4   11      0.23      0.00
   -2    5   11     -2.45      0.00
   -2    5   10      3.93      0.00
   -2    5    9      2.04      0.00
   -2    5    8     -3.35      0.00
   -2    5    7     -1.47      0.00
   -2    5    6     -7.29      0.00
   -2    5    5     -5.71      0.00
   -2    5    4      0.46      0.00
   -2    5    3      4.17      0.00
   -2    5    2     -3.80      0.00
   -2    5    1      7.10      0.00
    2    5    0      3.78      0.00
    2    5    1     -2.91      0.00
    2    5    2     -1.41      0.00
    2    5    3    -16.11      0.00
    2    5    4      0.46      0.00
    2    5    5    -15.99      0.00
    2    5    6     -0.71      0.00
    2    5    7     -1.70      0.00
    2    5    8      0.48      0.00
    2    5    9     -0.35      0.00
    2    5   10     -0.71      0.00
    2    5   11     -1.72      0.00
   -2    6   11     -2.54      0.00
   -2    6   10      0.66      0.00
   -2    6    9     -0.72      0.00
   -2    6    8     -0.16      0.00
   -2    6    7      7.06      0.00
   -2    6    6      3.85      0.00
   -2    6    5      3.72      0.00
   -2    6    4      1.94      0.00
   -2    6    3      1.79      0.00
   -2    6    2     -3.01      0.00
   -2    6    1      1.48      0.00
    2    6    0      0.54      0.00
    2    6    1      1.57      0.00
    2    6    2      1.01      0.00
    2    6    3      0.34      0.00
    2    6    4      8.72      0.00
    2    6    5      1.70      0.00
    2    6    6     10.54      0.00
    2    6    7     -1.14      0.00
    2    6    8      0.32      0.00
    2    6    9     -1.62      0.00
    2    6   10     -0.58      0.00
    2    6   11      1.25      0.00
   -2    7   11      0.23      0.00
   -2    7   10      0.72      0.00
   -2    7    9     -0.82      0.00
   -2    7    8     -1.49      0.00
   -2    7    7     -1.75      0.00
   -2    7    6     -3.92      0.00
   -2    7    5     -3.02      0.00
   -2    7    4     -4.74      0.00
   -2    7    3     -2.66      0.00
   -2    7    2     -1.85      0.00
   -2    7    1     -1.38      0.00
    2    7    0     -2.45      0.00
    2    7    1      2.19      0.00
    2    7    2      0.00      0.00
    2    7    3      1.27      0.00
    2    7    4     -2.40      0.00
    2    7    5     -6.61      0.00
    2    7    6      0.85      0.00
    2    7    7     -5.85      0.00
    2    7    8      0.93      0.00
    2    7    9      1.58      0.00
    2    7   10     -0.55      0.00
   -2    8   10     -0.43      0.00
   -2    8    9     -0.30      0.00
   -2    8    8      1.01      0.00
   -2    8    7     -1.79      0.00
   -2    8    6      2.27      0.00
   -2    8    5      3.87      0.00
   -2    8    4      3.79      0.00
   -2    8    3      4.71      0.00
   -2    8    2      4.54      0.00
   -2    8    1     -1.34      0.00
    2    8    0     -2.37      0.00
    2    8    1      0.05      0.00
    2    8    2     -5.56      0.00
    2    8    3      2.46      0.00
    2    8    4      1.67      0.00
    2    8    5     -0.39      0.00
    2    8    6      4.45      0.00
    2    8    7      0.14      0.00
    2    8    8      1.32      0.00
    2    8    9      1.36      0.00
   -2    9    9      0.21      0.00
   -2    9    8      2.65      0.00
   -2    9    7     -1.42      0.00
   -2    9    6      1.44      0.00
   -2    9    5     -3.23      0.00
   -2    9    4     -4.03      0.00
   -2    9    3     -4.54      0.00
   -2    9    2     -1.65      0.00
   -2    9    1     -1.32      0.00
    2    9    0      0.36      0.00
    2    9    1      6.52      0.00
    2    9    2     -1.69      0.00
    2    9    3      1.99      0.00
    2    9    4      0.84      0.00
    2    9    5     -1.93      0.00
    2    9    6      0.95      0.00
    2    9    7     -0.38      0.00
    2    9    8     -1.63      0.00
   -2   10    7     -1.80      0.00
   -2   10    6      2.44      0.00
   -2   10    5     -0.69      0.00
   -2   10    4      4.00      0.00
   -2   10    3      1.88      0.00
   -2   10    2      2.34      0.00
   -2   10    1      3.22      0.00
    2   10    0     -3.36      0.00
    2   10    1      0.49      0.00
    2   10    2     -2.95      0.00
    2   10    3     -0.25      0.00
    2   10    4      1.21      0.00
    2   10    5     -1.56      0.00
    2   10    6     -0.41      0.00
    2   10    7     -0.07      0.00
   -2   11    6      0.34      0.00
   -2   11    5     -3.56      0.00
   -2   11    4      1.92      0.00
   -2   11    3     -2.12      0.00
   -2   11    2     -2.09      0.00
   -2   11    1      2.08      0.00
    2   11    0      2.05      0.00
    2   11    1      1.42      0.00
    2   11    2     -0.40      0.00
    2   11    3     -0.56      0.00
    2   11    4      0.55      0.00
    2   11    5     -0.25      0.00
    2   11    6      0.42      0.00
   -2   12    4      2.13      0.00
   -2   12    3     -2.00      0.00
   -2   12    2     -0.95      0.00
   -2   12    1      0.65      0.00
    2   12    0     -1.14      0.00
    2   12    1     -1.09      0.00
    2   12    2      1.11      0.00
    2   12    3      0.48      0.00
    2   12    4     -0.28      0.00
   -3    0   11      1.20      0.00
   -3    0    9      2.30      0.00
   -3    0    7      2.56      0.00
   -3    0    5     12.90      0.00
   -3    0    3      7.55      0.00
   -3    0    1    -13.45      0.00
    3    0    1     -1.58      0.00
    3    0    3     -5.01      0.00
    3    0    5     -4.59      0.00
    3    0    7      3.94      0.00
    3    0    9      3.60      0.00
    3    0   11      4.15      0.00
   -3    1   12     -0.56      0.00
   -3    1   11      1.92      0.00
   -3    1   10     -2.15      0.00
   -3    1    9     -0.17      0.00
   -3    1    8     -2.76      0.00
   -3    1    7     -1.43      0.00
   -3    1    6     -5.60      0.00
   -3    1    5     -0.09      0.00
   -3    1    4    -11.86      0.00
   -3    1    3      6.99      0.00
   -3    1    2      0.07      0.00
   -3    1    1     -1.68      0.00
    3    1    0      9.54      0.00
    3    1    1      7.96      0.00
    3    1    2      5.17      0.00
    3    1    3     -2.19      0.00
    3    1    4      1.06      0.00
    3    1    5     -2.65      0.00
    3    1    6     -1.74      0.00
    3    1    7      2.21      0.00
    3    1    8     -4.14      0.00
    3    1    9      0.73      0.00
    3    1   10     -3.33      0.00
    3    1   11     -2.19      0.00
    3    1   12     -2.45      0.00
   -3    2   12     -1.35      0.00
   -3    2   11      1.58      0.00
   -3    2   10     -3.04      0.00
   -3    2    9      3.81      0.00
   -3    2    8      1.90      0.00
   -3    2    7      3.46      0.00
   -3    2    6      1.90      0.00
   -3    2    5      1.04      0.00
   -3    2    4     -6.62      0.00
   -3    2    3      8.25      0.00
   -3    2    2     -4.22      0.00
   -3    2    1      3.37      0.00
    3    2    0     -5.50      0.00
    3    2    1    -14.97      0.00
    3    2    2     -2.41      0.00
    3    2    3      1.07      0.00
    3    2    4      1.53      0.00
    3    2    5      7.06      0.00
    3    2    6     -1.31      0.00
    3    2    7      3.66      0.00
    3    2    8     -3.00      0.00
    3    2    9      3.39      0.00
    3    2   10      1.82      0.00
    3    2   11      0.87      0.00
   -3    3   12      0.26      0.00
   -3    3   11      2.79      0.00
   -3    3   10     -3.62      0.00
   -3    3    9      1.63      0.00
   -3    3    8     -4.48      0.00
   -3    3    7     -4.24      0.00
   -3    3    6      4.27      0.00
   -3    3    5      4.75      0.00
   -3    3    4      2.25      0.00
   -3    3    3      5.34      0.00
   -3    3    2    -13.47      0.00
   -3    3    1     -0.63      0.00
    3    3    0      4.85      0.00
    3    3    1     -0.81      0.00
    3    3    2      8.14      0.00
    3    3    3      0.36      0.00
    3    3    4     -8.95      0.00
    3    3    5      2.61      0.00
    3    3    6     -9.49      0.00
    3    3    7      3.56      0.00
    3    3    8     -2.96      0.00
    3    3    9     -0.06      0.00
    3    3   10     -0.03      0.00
    3    3   11     -1.34      0.00
   -3    4   12      0.21      0.00
   -3    4   11      1.34      0.00
   -3    4   10     -1.94      0.00
   -3    4    9      5.11      0.00
   -3    4    8      1.66      0.00
   -3    4    7     -2.66      0.00
   -3    4    6      0.92      0.00
   -3    4    5     -6.84      0.00
   -3    4    4     -5.18      0.00
   -3    4    3      6.36      0.00
   -3    4    2     -2.11      0.00
   -3    4    1      6.16      0.00
    3    4    0      4.02      0.00
    3    4    1     -4.43      0.00
    3    4    2      4.08      0.00
    3    4    3     -0.91      0.00
    3    4    4     -6.34      0.00
    3    4    5     13.34      0.00
    3    4    6     -5.04      0.00
    3    4    7      9.18      0.00
    3    4    8     -0.67      0.00
    3    4    9     -1.45      0.00
    3    4   10     -0.48      0.00
    3    4   11     -0.41      0.00
   -3    5   11     -1.02      0.00
   -3    5   10     -3.76      0.00
   -3    5    9      0.24      0.00
   -3    5    8      0.55      0.00
   -3    5    7     -1.03      0.00
   -3    5    6      4.64      0.00
   -3    5    5     -0.64      0.00
   -3    5    4     -1.28      0.00
   -3    5    3      3.52      0.00
   -3    5    2     -2.23      0.00
   -3    5    1      5.72      0.00
    3    5    0     -4.40      0.00
    3    5    1     -9.70      0.00
    3    5    2      1.36      0.00
    3    5    3      3.14      0.00
    3    5    4     -3.32      0.00
    3    5    5     12.54      0.00
    3    5    6    -13.28      0.00
    3    5    7      1.70      0.00
    3    5    8     -3.87      0.00
    3    5    9      1.26      0.00
    3    5   10      2.46      0.00
    3    5   11      1.23      0.00
   -3    6   11      3.16      0.00
   -3    6   10      1.43      0.00
   -3    6    9     -0.92      0.00
   -3    6    8     -0.52      0.00
   -3    6    7     -2.78      0.00
   -3    6    6      1.36      0.00
   -3    6    5      1.86      0.00
   -3    6    4      0.24      0.00
   -3    6    3     -0.83      0.00
   -3    6    2     -5.53      0.00
   -3    6    1      1.48      0.00
    3    6    0      9.92      0.00
    3    6    1      4.63      0.00
    3    6    2      3.01      0.00
    3    6    3     -0.86      0.00
    3    6    4     -8.91      0.00
    3    6    5      6.21      0.00
    3    6    6     -8.06      0.00
    3    6    7      8.06      0.00
    3    6    8     -1.75      0.00
    3    6    9      0.82      0.00
    3    6   10     -1.88      0.00
   -3    7   10      0.31      0.00
   -3    7    9     -1.10      0.00
   -3    7    8      3.22      0.00
   -3    7    7     -0.31      0.00
   -3    7    6     -2.52      0.00
   -3    7    5     -0.45      0.00
   -3    7    4     -1.91      0.00
   -3    7    3      1.81      0.00
   -3    7    2      0.50      0.00
   -3    7    1      8.21      0.00
    3    7    0     -3.33      0.00
    3    7    1     -3.13      0.00
    3    7    2     -0.45      0.00
    3    7    3      3.67      0.00
    3    7    4     -2.41      0.00
    3    7    5      3.61      0.00
    3    7    6     -5.18      0.00
    3    7    7      5.36      0.00
    3    7    8     -4.36      0.00
    3    7    9      2.64      0.00
    3    7   10     -1.00      0.00
   -3    8   10     -0.56      0.00
   -3    8    9     -1.38      0.00
   -3    8    8      1.10      0.00
   -3    8    7      0.10      0.00
   -3    8    6     -0.46      0.00
   -3    8    5      3.07      0.00
   -3    8    4     -0.94      0.00
   -3    8    3      1.68      0.00
   -3    8    2     -3.72      0.00
   -3    8    1      2.52      0.00
    3    8    0      3.90      0.00
    3    8    1      0.17      0.00
    3    8    2     -2.74      0.00
    3    8    3      1.02      0.00
    3    8    4      0.14      0.00
    3    8    5      2.51      0.00
    3    8    6     -2.38      0.00
    3    8    7      3.07      0.00
    3    8    8     -5.30      0.00
    3    8    9      2.18      0.00
   -3    9    9      0.68      0.00
   -3    9    8      0.21      0.00
   -3    9    7     -0.46      0.00
   -3    9    6      0.21      0.00
   -3    9    5      0.92      0.00
   -3    9    4     -2.36      0.00
   -3    9    3      1.88      0.00
   -3    9    2     -4.11      0.00
   -3    9    1      1.95      0.00
    3    9    0      0.15      0.00
    3    9    1      1.79      0.00
    3    9    2      0.42      0.00
    3    9    3     -1.04      0.00
    3    9    4     -1.16      0.00
    3    9    5     -1.13      0.00
    3    9    6     -2.36      0.00
    3    9    7      3.85      0.00
   -3   10    7     -0.80      0.00
   -3   10    6      0.94      0.00
   -3   10    5     -0.89      0.00
   -3   10    4     -1.22      0.00
   -3   10    3      4.55      0.00
   -3   10    2     -1.25      0.00
   -3   10    1      2.55      0.00
    3   10    0     -3.62      0.00
    3   10    1     -1.18      0.00
    3   10    2      0.34      0.00
    3   10    3     -0.23      0.00
    3   10    4      2.23      0.00
    3   10    5      2.46      0.00
    3   10    6     -0.83      0.00
   -3   11    5     -0.94      0.00
   -3   11    4     -0.82      0.00
   -3   11    3      0.90      0.00
   -3   11    2     -3.86      0.00
   -3   11    1     -2.77      0.00
    3   11    0     -1.47      0.00
    3   11    1      2.22      0.00
    3   11    2      0.83      0.00
    3   11    3     -1.98      0.00
    3   11    4     -1.21      0.00
    3   11    5      0.10      0.00
   -3   12    4      0.93      0.00
   -3   12    3      0.64      0.00
   -3   12    2      0.56      0.00
   -3   12    1      1.82      0.00
    3   12    0     -1.31      0.00
    3   12    1     -0.02      0.00
    3   12    2     -0.48      0.00
    3   12    3      0.36      0.00
   -4    0   12     -1.14      0.00
   -4    0   10      1.58      0.00
   -4    0    8      4.31      0.00
   -4    0    6     -5.56      0.00
   -4    0    4    -11.43      0.00
   -4    0    2      4.75      0.00
    4    0    0     -0.96      0.00
    4    0    2     -6.10      0.00
    4    0    4      3.34      0.00
    4    0    6      9.12      0.00
    4    0    8      4.80      0.00
    4    0   10      1.09      0.00
   -4    1   12     -0.75      0.00
   -4    1   11      0.88      0.00
   -4    1   10      1.31      0.00
   -4    1    9     -3.83      0.00
   -4    1    8      2.30      0.00
   -4    1    7     -1.13      0.00
   -4    1    6      2.18      0.00
   -4    1    5     10.18      0.00
   -4    1    4     -7.90      0.00
   -4    1    3      3.93      0.00
   -4    1    2     -3.43      0.00
   -4    1    1     -3.78      0.00
    4    1    0     -6.32      0.00
    4    1    1      2.10      0.00
    4    1    2      6.99      0.00
    4    1    3      0.68      0.00
    4    1    4      0.97      0.00
    4    1    5     -6.49      0.00
    4    1    6     -4.80      0.00
    4    1    7     -6.41      0.00
    4    1    8     -0.83      0.00
    4    1    9     -2.96      0.00
    4    1   10     -0.76      0.00
    4    1   11     -0.76      0.00
   -4    2   12     -1.17      0.00
   -4    2   11     -0.25      0.00
   -4    2   10      0.57      0.00
   -4    2    9     -3.92      0.00
   -4    2    8      4.01      0.00
   -4    2    7     -4.09      0.00
   -4    2    6     -3.08      0.00
   -4    2    5      5.11      0.00
   -4    2    4     -7.19      0.00
   -4    2    3     11.38      0.00
   -4    2    2     -1.86      0.00
   -4    2    1     -0.59      0.00
    4    2    0      4.87      0.00
    4    2    1     -0.42      0.00
    4    2    2      2.44      0.00
    4    2    3     -5.14      0.00
    4    2    4      3.44      0.00
    4    2    5      2.58      0.00
    4    2    6      4.80      0.00
    4    2    7      3.90      0.00
    4    2    8      4.42      0.00
    4    2    9      1.34      0.00
    4    2   10      2.49      0.00
    4    2   11      0.14      0.00
   -4    3   12     -0.16      0.00
   -4    3   11      0.51      0.00
   -4    3   10      2.35      0.00
   -4    3    9     -1.13      0.00
   -4    3    8      5.72      0.00
   -4    3    7     -2.51      0.00
   -4    3    6     -2.89      0.00
   -4    3    5      3.80      0.00
   -4    3    4     -5.72      0.00
   -4    3    3      7.01      0.00
   -4    3    2     -5.26      0.00
   -4    3    1     -3.63      0.00
    4    3    0      5.19      0.00
    4    3    1     -7.96      0.00
    4    3    2     -1.01      0.00
    4    3    3     -4.67      0.00
    4    3    4      1.75      0.00
    4    3    5     -1.63      0.00
    4    3    6     -1.23      0.00
    4    3    7     -4.09      0.00
    4    3    8     -3.93      0.00
    4    3    9     -4.36      0.00
    4    3   10     -0.14      0.00
   -4    4   12      1.20      0.00
   -4    4   11     -1.43      0.00
   -4    4   10     -0.51      0.00
   -4    4    9     -5.02      0.00
   -4    4    8      1.53      0.00
   -4    4    7      0.46      0.00
   -4    4    6      1.81      0.00
   -4    4    5      2.65      0.00
   -4    4    4     -6.55      0.00
   -4    4    3     -1.57      0.00
   -4    4    2     -1.86      0.00
   -4    4    1      9.97      0.00
    4    4    0      8.82      0.00
    4    4    1     -2.53      0.00
    4    4    2      9.46      0.00
    4    4    3      3.86      0.00
    4    4    4      0.48      0.00
    4    4    5     -4.10      0.00
    4    4    6     -0.39      0.00
    4    4    7      0.55      0.00
    4    4    8      5.67      0.00
    4    4    9      2.56      0.00
    4    4   10      1.55      0.00
   -4    5   11     -1.58      0.00
   -4    5   10      4.09      0.00
   -4    5    9     -0.68      0.00
   -4    5    8      0.79      0.00
   -4    5    7     -2.03      0.00
   -4    5    6     -1.13      0.00
   -4    5    5      0.69      0.00
   -4    5    4      3.66      0.00
   -4    5    3      3.56      0.00
   -4    5    2     -3.48      0.00
   -4    5    1     -2.62      0.00
    4    5    0      8.62      0.00
    4    5    1    -10.52      0.00
    4    5    2     -1.77      0.00
    4    5    3     -1.83      0.00
    4    5    4     -1.05      0.00
    4    5    5      2.44      0.00
    4    5    6      5.48      0.00
    4    5    7     -3.81      0.00
    4    5    8      0.08      0.00
    4    5    9     -3.18      0.00
    4    5   10     -0.91      0.00
   -4    6   11     -1.50      0.00
   -4    6   10      2.97      0.00
   -4    6    9     -1.31      0.00
   -4    6    8      1.06      0.00
   -4    6    7     -0.36      0.00
   -4    6    6      0.25      0.00
   -4    6    5     -3.30      0.00
   -4    6    4      1.42      0.00
   -4    6    3     -0.88      0.00
   -4    6    2     -0.88      0.00
   -4    6    1      3.44      0.00
    4    6    0      5.77      0.00
    4    6    1     -4.23      0.00
    4    6    2      1.02      0.00
    4    6    3     -0.39      0.00
    4    6    4     -5.00      0.00
    4    6    5     -0.78      0.00
    4    6    6      4.32      0.00
    4    6    7     -4.14      0.00
    4    6    8      4.11      0.00
    4    6    9     -0.45      0.00
    4    6   10      0.67      0.00
   -4    7   10      0.20      0.00
   -4    7    9     -3.07      0.00
   -4    7    8      2.59      0.00
   -4    7    7      0.18      0.00
   -4    7    6      3.62      0.00
   -4    7    5     -2.55      0.00
   -4    7    4      1.18      0.00
   -4    7    3     -2.67      0.00
   -4    7    2      0.21      0.00
   -4    7    1     -1.92      0.00
    4    7    0      0.38      0.00
    4    7    1     -0.50      0.00
    4    7    2      4.21      0.00
    4    7    3      6.76      0.00
    4    7    4      1.34      0.00
    4    7    5      0.02      0.00
    4    7    6      0.21      0.00
    4    7    7     -5.60      0.00
    4    7    8      2.86      0.00
    4    7    9     -1.45      0.00
   -4    8    9     -2.52      0.00
   -4    8    8      2.71      0.00
   -4    8    7     -5.08      0.00
   -4    8    6      1.99      0.00
   -4    8    5     -1.25      0.00
   -4    8    4      3.28      0.00
   -4    8    3      1.09      0.00
   -4    8    2      3.55      0.00
   -4    8    1     -2.00      0.00
    4    8    0      0.09      0.00
    4    8    1     -1.39      0.00
    4    8    2     -5.26      0.00
    4    8    3     -3.65      0.00
    4    8    4     -3.35      0.00
    4    8    5      0.14      0.00
    4    8    6      1.84      0.00
    4    8    7      0.27      0.00
    4    8    8      2.75      0.00
   -4    9    8      3.82      0.00
   -4    9    7     -3.30      0.00
   -4    9    6      2.85      0.00
   -4    9    5     -1.48      0.00
   -4    9    4     -1.85      0.00
   -4    9    3     -2.87      0.00
   -4    9    2      0.46      0.00
   -4    9    1     -3.30      0.00
    4    9    0     -1.43      0.00
    4    9    1      4.28      0.00
    4    9    2      2.04      0.00
    4    9    3      3.68      0.00
    4    9    4      1.52      0.00
    4    9    5      1.41      0.00
    4    9    6     -1.64      0.00
   -4   10    6      2.41      0.00
   -4   10    5     -0.19      0.00
   -4   10    4      0.42      0.00
   -4   10    3      1.16      0.00
   -4   10    2      3.23      0.00
   -4   10    1     -0.99      0.00
    4   10    0     -0.07      0.00
    4   10    1      0.57      0.00
    4   10    2     -2.64      0.00
    4   10    3     -0.44      0.00
    4   10    4     -1.80      0.00
    4   10    5      0.59      0.00
   -4   11    5     -1.37      0.00
   -4   11    4      0.37      0.00
   -4   11    3     -0.52      0.00
   -4   11    2     -0.59      0.00
   -4   11    1     -1.39      0.00
    4   11    0     -0.18      0.00
    4   11    1     -1.35      0.00
    4   11    2     -0.28      0.00
    4   11    3      1.37      0.00
    4   11    4     -1.16      0.00
   -4   12    3     -0.25      0.00
   -4   12    2      0.17      0.00
   -4   12    1      0.60      0.00
    4   12    0      1.83      0.00
    4   12    1     -0.39      0.00
    4   12    2      0.49      0.00
   -5    0   11     -2.71      0.00
   -5    0    9     -3.45      0.00
   -5    0    7      5.59      0.00
   -5    0    5      9.92      0.00
   -5    0    3     -9.74      0.00
   -5    0    1     -5.50      0.00
    5    0    1      7.05      0.00
    5    0    3     -7.48      0.00
    5    0    5     -7.21      0.00
    5    0    7      1.53      0.00
    5    0    9      3.84      0.00
   -5    1   11      0.45      0.00
   -5    1   10      4.26      0.00
   -5    1    9     -0.77      0.00
   -5    1    8     -0.29      0.00
   -5    1    7     -1.24      0.00
   -5    1    6     -9.35      0.00
   -5    1    5      1.38      0.00
   -5    1    4     -0.29      0.00
   -5    1    3      1.32      0.00
   -5    1    2      8.24      0.00
   -5    1    1     -3.22      0.00
    5    1    0     -0.92      0.00
    5    1    1     -4.19      0.00
    5    1    2      0.00      0.00
    5    1    3     -3.78      0.00
    5    1    4      7.02      0.00
    5    1    5     -1.63      0.00
    5    1    6      3.39      0.00
    5    1    7      1.66      0.00
    5    1    8     -2.47      0.00
    5    1    9      2.23      0.00
    5    1   10     -2.32      0.00
   -5    2   11     -2.44      0.00
   -5    2   10     -0.10      0.00
   -5    2    9     -3.39      0.00
   -5    2    8      1.99      0.00
   -5    2    7      5.07      0.00
   -5    2    6     -0.40      0.00
   -5    2    5      2.51      0.00
   -5    2    4     -2.91      0.00
   -5    2    3      0.23      0.00
   -5    2    2      1.58      0.00
   -5    2    1     -0.23      0.00
    5    2    0      0.58      0.00
    5    2    1     -3.64      0.00
    5    2    2      6.38      0.00
    5    2    3      0.17      0.00
    5    2    4      4.74      0.00
    5    2    5     -3.71      0.00
    5    2    6     -1.06      0.00
    5    2    7     -3.24      0.00
    5    2    8     -2.87      0.00
    5    2    9      1.99      0.00
    5    2   10     -1.28      0.00
   -5    3   11      0.64      0.00
   -5    3   10      2.64      0.00
   -5    3    9     -1.08      0.00
   -5    3    8     -0.56      0.00
   -5    3    7     -0.30      0.00
   -5    3    6     -1.76      0.00
   -5    3    5      1.03      0.00
   -5    3    4     -2.16      0.00
   -5    3    3      1.26      0.00
   -5    3    2     -6.07      0.00
   -5    3    1      1.73      0.00
    5    3    0      1.88      0.00
    5    3    1     -2.39      0.00
    5    3    2      1.58      0.00
    5    3    3     -7.59      0.00
    5    3    4     -2.63      0.00
    5    3    5     -1.10      0.00
    5    3    6      4.82      0.00
    5    3    7      3.72      0.00
    5    3    8      2.62      0.00
    5    3    9      1.32      0.00
    5    3   10     -1.01      0.00
   -5    4   11     -1.14      0.00
   -5    4   10      0.49      0.00
   -5    4    9      0.36      0.00
   -5    4    8     -1.45      0.00
   -5    4    7     -0.49      0.00
   -5    4    6      0.14      0.00
   -5    4    5      2.99      0.00
   -5    4    4      0.03      0.00
   -5    4    3      4.91      0.00
   -5    4    2     -5.13      0.00
   -5    4    1      2.28      0.00
    5    4    0      1.43      0.00
    5    4    1      0.20      0.00
    5    4    2      4.17      0.00
    5    4    3      1.99      0.00
    5    4    4      3.66      0.00
    5    4    5      0.01      0.00
    5    4    6     -3.16      0.00
    5    4    7     -4.46      0.00
    5    4    8     -1.81      0.00
    5    4    9     -1.12      0.00
    5    4   10     -0.38      0.00
   -5    5   11     -2.17      0.00
   -5    5   10     -0.25      0.00
   -5    5    9      2.14      0.00
   -5    5    8      0.51      0.00
   -5    5    7      2.16      0.00
   -5    5    6     -1.95      0.00
   -5    5    5     -1.94      0.00
   -5    5    4     -4.86      0.00
   -5    5    3      4.19      0.00
   -5    5    2     -0.29      0.00
   -5    5    1      4.35      0.00
    5    5    0     -3.35      0.00
    5    5    1     -2.73      0.00
    5    5    2     -4.16      0.00
    5    5    3     -0.44      0.00
    5    5    4      1.21      0.00
    5    5    5      2.16      0.00
    5    5    6      1.06      0.00
    5    5    7      0.35      0.00
    5    5    8      0.94      0.00
    5    5    9     -0.04      0.00
   -5    6   10      0.76      0.00
   -5    6    9     -0.75      0.00
   -5    6    8     -2.82      0.00
   -5    6    7      2.21      0.00
   -5    6    6     -0.31      0.00
   -5    6    5      4.08      0.00
   -5    6    4     -0.92      0.00
   -5    6    3      0.32      0.00
   -5    6    2     -4.48      0.00
   -5    6    1     -0.37      0.00
    5    6    0      5.39      0.00
    5    6    1      7.74      0.00
    5    6    2      0.66      0.00
    5    6    3      2.20      0.00
    5    6    4     -3.80      0.00
    5    6    5     -3.95      0.00
    5    6    6      0.27      0.00
    5    6    7      2.32      0.00
    5    6    8      0.93      0.00
    5    6    9      1.03      0.00
   -5    7    9     -0.59      0.00
   -5    7    8     -2.14      0.00
   -5    7    7      2.45      0.00
   -5    7    6     -3.92      0.00
   -5    7    5      2.71      0.00
   -5    7    4     -0.90      0.00
   -5    7    3      0.82      0.00
   -5    7    2      2.95      0.00
   -5    7    1      5.10      0.00
    5    7    0     -2.46      0.00
    5    7    1     -3.70      0.00
    5    7    2     -7.07      0.00
    5    7    3      1.70      0.00
    5    7    4      1.61      0.00
    5    7    5      0.44      0.00
    5    7    6      1.28      0.00
    5    7    7      0.01      0.00
    5    7    8     -3.63      0.00
   -5    8    9      0.20      0.00
   -5    8    8      0.03      0.00
   -5    8    7      2.89      0.00
   -5    8    6     -4.58      0.00
   -5    8    5      1.73      0.00
   -5    8    4     -1.27      0.00
   -5    8    3     -2.81      0.00
   -5    8    2      0.10      0.00
   -5    8    1     -1.63      0.00
    5    8    0      4.37      0.00
    5    8    1      4.01      0.00
    5    8    2      1.18      0.00
    5    8    3      2.81      0.00
    5    8    4      0.20      0.00
    5    8    5     -1.51      0.00
    5    8    6     -0.52      0.00
    5    8    7      0.65      0.00
   -5    9    7      0.92      0.00
   -5    9    6     -1.30      0.00
   -5    9    5      3.14      0.00
   -5    9    4      1.32      0.00
   -5    9    3     -1.12      0.00
   -5    9    2      2.80      0.00
   -5    9    1     -0.04      0.00
    5    9    0     -1.11      0.00
    5    9    1     -2.55      0.00
    5    9    2     -2.34      0.00
    5    9    3     -2.02      0.00
    5    9    4     -1.39      0.00
    5    9    5     -0.20      0.00
   -5   10    6     -1.06      0.00
   -5   10    5     -0.67      0.00
   -5   10    4     -1.26      0.00
   -5   10    3     -1.70      0.00
   -5   10    2      1.44      0.00
   -5   10    1     -0.82      0.00
    5   10    0     -0.72      0.00
    5   10    1      1.10      0.00
    5   10    2      3.46      0.00
    5   10    3      1.14      0.00
    5   10    4      1.48      0.00
   -5   11    4      1.08      0.00
   -5   11    3      0.00      0.00
   -5   11    2      0.79      0.00
   -5   11    1     -1.72      0.00
    5   11    0     -0.13      0.00
    5   11    1     -0.88      0.00
    5   11    2     -0.90      0.00
    5   11    3     -1.59      0.00
   -6    0   10      2.43      0.00
   -6    0    8     -4.12      0.00
   -6    0    6     -2.76      0.00
   -6    0    4      4.00      0.00
   -6    0    2     -5.53      0.00
    6    0    0    -11.97      0.00
    6    0    2      2.21      0.00
    6    0    4      4.89      0.00
    6    0    6      4.74      0.00
    6    0    8     -0.67      0.00
   -6    1   11     -2.11      0.00
   -6    1   10      0.42      0.00
   -6    1    9      1.25      0.00
   -6    1    8      0.85      0.00
   -6    1    7      4.58      0.00
   -6    1    6      1.81      0.00
   -6    1    5     -2.32      0.00
   -6    1    4     -3.27      0.00
   -6    1    3     -0.11      0.00
   -6    1    2      4.27      0.00
   -6    1    1      8.81      0.00
    6    1    0     -3.83      0.00
    6    1    1      4.61      0.00
    6    1    2      4.20      0.00
    6    1    3     -3.56      0.00
    6    1    4     -1.76      0.00
    6    1    5     -5.11      0.00
    6    1    6     -3.11      0.00
    6    1    7     -0.96      0.00
    6    1    8      0.94      0.00
    6    1    9      1.96      0.00
   -6    2   11     -0.13      0.00
   -6    2   10     -0.48      0.00
   -6    2    9     -0.73      0.00
   -6    2    8     -3.95      0.00
   -6    2    7     -2.97      0.00
   -6    2    6      0.71      0.00
   -6    2    5      0.80      0.00
   -6    2    4      0.89      0.00
   -6    2    3     -0.60      0.00
   -6    2    2     -3.76      0.00
   -6    2    1     -7.67      0.00
    6    2    0     -1.70      0.00
    6    2    1     -0.38      0.00
    6    2    2     -2.06      0.00
    6    2    3     -2.71      0.00
    6    2    4      4.59      0.00
    6    2    5      5.07      0.00
    6    2    6      1.84      0.00
    6    2    7      1.66      0.00
    6    2    8     -2.83      0.00
    6    2    9     -2.33      0.00
   -6    3   10     -0.16      0.00
   -6    3    9      3.70      0.00
   -6    3    8      2.46      0.00
   -6    3    7     -0.10      0.00
   -6    3    6      2.03      0.00
   -6    3    5     -1.53      0.00
   -6    3    4      2.09      0.00
   -6    3    3      2.38      0.00
   -6    3    2      3.52      0.00
   -6    3    1     -0.91      0.00
    6    3    0     -2.21      0.00
    6    3    1     -0.17      0.00
    6    3    2      1.36      0.00
    6    3    3     -0.51      0.00
    6    3    4     -1.16      0.00
    6    3    5     -2.80      0.00
    6    3    6     -3.16      0.00
    6    3    7      2.73      0.00
    6    3    8      1.06      0.00
    6    3    9      2.94      0.00
   -6    4   10     -3.75      0.00
   -6    4    9      0.41      0.00
   -6    4    8     -0.91      0.00
   -6    4    7     -2.52      0.00
   -6    4    6      2.07      0.00
   -6    4    5     -4.64      0.00
   -6    4    4      0.73      0.00
   -6    4    3     -3.69      0.00
   -6    4    2      0.61      0.00
   -6    4    1      0.78      0.00
    6    4    0      0.40      0.00
    6    4    1     -0.93      0.00
    6    4    2      2.26      0.00
    6    4    3      1.20      0.00
    6    4    4      0.18      0.00
    6    4    5      0.31      0.00
    6    4    6     -1.89      0.00
    6    4    7     -0.47      0.00
    6    4    8     -2.78      0.00
    6    4    9      0.07      0.00
   -6    5   10     -1.76      0.00
   -6    5    9      2.06      0.00
   -6    5    8     -0.79      0.00
   -6    5    7     -0.40      0.00
   -6    5    6      6.08      0.00
   -6    5    5     -2.55      0.00
   -6    5    4      4.95      0.00
   -6    5    3     -3.16      0.00
   -6    5    2      0.05      0.00
   -6    5    1      1.16      0.00
    6    5    0      4.06      0.00
    6    5    1     -1.55      0.00
    6    5    2     -0.71      0.00
    6    5    3     -2.78      0.00
    6    5    4     -1.23      0.00
    6    5    5      2.95      0.00
    6    5    6      2.52      0.00
    6    5    7      1.56      0.00
    6    5    8     -0.65      0.00
   -6    6    9      2.52      0.00
   -6    6    8     -1.70      0.00
   -6    6    7     -3.49      0.00
   -6    6    6      1.15      0.00
   -6    6    5     -6.54      0.00
   -6    6    4      5.61      0.00
   -6    6    3     -1.66      0.00
   -6    6    2      0.81      0.00
   -6    6    1      3.35      0.00
    6    6    0     -2.16      0.00
    6    6    1     -3.31      0.00
    6    6    2      2.09      0.00
    6    6    3      1.00      0.00
    6    6    4      1.24      0.00
    6    6    5     -0.72      0.00
    6    6    6     -1.57      0.00
    6    6    7     -1.13      0.00
    6    6    8     -0.45      0.00
   -6    7    9      1.02      0.00
   -6    7    8      0.42      0.00
   -6    7    7      0.68      0.00
   -6    7    6      4.40      0.00
   -6    7    5     -4.29      0.00
   -6    7    4      4.24      0.00
   -6    7    3     -4.09      0.00
   -6    7    2     -1.55      0.00
   -6    7    1      2.53      0.00
    6    7    0      2.54      0.00
    6    7    1      2.67      0.00
    6    7    2      1.93      0.00
    6    7    3     -2.03      0.00
    6    7    4      0.66      0.00
    6    7    5     -1.37      0.00
    6    7    6     -0.40      0.00
    6    7    7      1.77      0.00
   -6    8    8     -0.24      0.00
   -6    8    7     -0.69      0.00
   -6    8    6      0.92      0.00
   -6    8    5     -3.50      0.00
   -6    8    4      3.43      0.00
   -6    8    3     -1.21      0.00
   -6    8    2      0.78      0.00
   -6    8    1      1.80      0.00
    6    8    0     -4.02      0.00
    6    8    1     -0.15      0.00
    6    8    2     -1.28      0.00
    6    8    3     -2.23      0.00
    6    8    4      2.70      0.00
    6    8    5      0.70      0.00
   -6    9    7      0.11      0.00
   -6    9    6      0.72      0.00
   -6    9    5     -0.78      0.00
   -6    9    4      1.41      0.00
   -6    9    3     -1.86      0.00
   -6    9    2      0.18      0.00
   -6    9    1      0.86      0.00
    6    9    0      0.60      0.00
    6    9    1      2.95      0.00
    6    9    2      0.25      0.00
    6    9    3     -1.12      0.00
    6    9    4      0.67      0.00
   -6   10    5     -0.59      0.00
   -6   10    4      0.66      0.00
   -6   10    3     -0.69      0.00
   -6   10    2      0.54      0.00
   -6   10    1     -0.17      0.00
    6   10    0     -1.12      0.00
    6   10    1     -0.48      0.00
    6   10    2     -0.17      0.00
    6   10    3      0.91      0.00
    6   11    0      0.27      0.00
   -7    0    9      0.25      0.00
   -7    0    7     -3.72      0.00
   -7    0    5      0.18      0.00
   -7    0    3      2.98      0.00
   -7    0    1      8.01      0.00
    7    0    1      4.83      0.00
    7    0    3     -3.37      0.00
    7    0    5     -1.97      0.00
    7    0    7      2.40      0.00
   -7    1   10     -0.87      0.00
   -7    1    9     -2.52      0.00
   -7    1    8      2.22      0.00
   -7    1    7     -1.24      0.00
   -7    1    6      2.99      0.00
   -7    1    5      3.27      0.00
   -7    1    4     -2.50      0.00
   -7    1    3     -1.67      0.00
   -7    1    2     -6.43      0.00
   -7    1    1      0.54      0.00
    7    1    0     -6.49      0.00
    7    1    1     -7.67      0.00
    7    1    2     -0.19      0.00
    7    1    3      0.22      0.00
    7    1    4      3.38      0.00
    7    1    5     -1.17      0.00
    7    1    6     -0.87      0.00
    7    1    7     -0.19      0.00
    7    1    8     -1.00      0.00
   -7    2   10      1.93      0.00
   -7    2    9     -0.98      0.00
   -7    2    8      4.01      0.00
   -7    2    7     -3.65      0.00
   -7    2    6     -2.43      0.00
   -7    2    5     -0.85      0.00
   -7    2    4     -1.44      0.00
   -7    2    3      7.34      0.00
   -7    2    2      1.83      0.00
   -7    2    1      5.58      0.00
    7    2    0      6.88      0.00
    7    2    1      0.99      0.00
    7    2    2      6.46      0.00
    7    2    3     -1.53      0.00
    7    2    4      0.69      0.00
    7    2    5     -0.40      0.00
    7    2    6      1.80      0.00
    7    2    7      0.04      0.00
    7    2    8     -0.28      0.00
   -7    3   10      0.38      0.00
   -7    3    9     -3.93      0.00
   -7    3    8      3.22      0.00
   -7    3    7     -0.93      0.00
   -7    3    6      3.36      0.00
   -7    3    5      1.66      0.00
   -7    3    4     -4.24      0.00
   -7    3    3      1.43      0.00
   -7    3    2     -7.37      0.00
   -7    3    1      3.96      0.00
    7    3    0     -0.31      0.00
    7    3    1     -4.76      0.00
    7    3    2      2.32      0.00
    7    3    3     -5.12      0.00
    7    3    4     -0.58      0.00
    7    3    5     -1.80      0.00
    7    3    6     -0.08      0.00
    7    3    7     -0.55      0.00
    7    3    8      2.15      0.00
   -7    4    9     -2.07      0.00
   -7    4    8      2.12      0.00
   -7    4    7     -4.50      0.00
   -7    4    6      0.77      0.00
   -7    4    5      0.55      0.00
   -7    4    4     -1.36      0.00
   -7    4    3      5.54      0.00
   -7    4    2     -5.78      0.00
   -7    4    1      3.40      0.00
    7    4    0      2.55      0.00
    7    4    1     -3.92      0.00
    7    4    2      2.80      0.00
    7    4    3     -1.04      0.00
    7    4    4      4.88      0.00
    7    4    5      1.73      0.00
    7    4    6      0.82      0.00
    7    4    7     -1.50      0.00
    7    4    8      0.13      0.00
   -7    5    9     -0.55      0.00
   -7    5    8      2.80      0.00
   -7    5    7     -2.05      0.00
   -7    5    6      1.99      0.00
   -7    5    5     -0.56      0.00
   -7    5    4     -1.96      0.00
   -7    5    3      3.93      0.00
   -7    5    2     -3.46      0.00
   -7    5    1      4.26      0.00
    7    5    0      1.01      0.00
    7    5    1     -0.20      0.00
    7    5    2      3.62      0.00
    7    5    3     -2.19      0.00
    7    5    4     -0.40      0.00
    7    5    5     -3.71      0.00
    7    5    6     -0.50      0.00
    7    5    7     -0.79      0.00
   -7    6    8      1.58      0.00
   -7    6    7     -1.10      0.00
   -7    6    6      1.28      0.00
   -7    6    5     -1.81      0.00
   -7    6    4     -1.64      0.00
   -7    6    3      1.58      0.00
   -7    6    2     -3.21      0.00
   -7    6    1      0.23      0.00
    7    6    0      1.26      0.00
    7    6    1     -1.49      0.00
    7    6    2     -0.95      0.00
    7    6    3     -2.01      0.00
    7    6    4      1.78      0.00
    7    6    5     -0.01      0.00
    7    6    6      2.93      0.00
    7    6    7      1.43      0.00
   -7    7    8     -0.88      0.00
   -7    7    7     -1.09      0.00
   -7    7    6      2.04      0.00
   -7    7    5      0.27      0.00
   -7    7    4      1.45      0.00
   -7    7    3      1.34      0.00
   -7    7    2     -0.11      0.00
   -7    7    1      1.07      0.00
    7    7    0      1.16      0.00
    7    7    1     -0.49      0.00
    7    7    2      0.61      0.00
    7    7    3      0.31      0.00
    7    7    4      1.40      0.00
    7    7    5     -1.80      0.00
   -7    8    7     -0.10      0.00
   -7    8    6      0.52      0.00
   -7    8    5     -1.58      0.00
   -7    8    4     -0.31      0.00
   -7    8    3     -1.90      0.00
   -7    8    2     -0.25      0.00
   -7    8    1     -0.73      0.00
    7    8    0      0.48      0.00
    7    8    1     -1.58      0.00
    7    8    2      1.43      0.00
    7    8    3     -0.77      0.00
    7    8    4      0.62      0.00
   -7    9    5      0.20      0.00
   -7    9    4      1.22      0.00
   -7    9    3      0.33      0.00
   -7    9    2      1.63      0.00
   -7    9    1     -0.56      0.00
    7    9    0      0.67      0.00
    7    9    1     -0.67      0.00
    7    9    2      1.93      0.00
    7    9    3     -2.04      0.00
   -7   10    1     -1.19      0.00
    7   10    0     -1.10      0.00
   -8    0    8     -0.09      0.00
   -8    0    6     -5.06      0.00
   -8    0    4     -0.20      0.00
   -8    0    2     -2.28      0.00
    8    0    0     -1.21      0.00
    8    0    2      7.77      0.00
    8    0    4     -0.11      0.00
    8    0    6      0.27      0.00
   -8    1    9     -1.16      0.00
   -8    1    8     -1.21      0.00
   -8    1    7      2.20      0.00
   -8    1    6     -1.26      0.00
   -8    1    5      3.29      0.00
   -8    1    4      1.20      0.00
   -8    1    3      1.04      0.00
   -8    1    2      2.74      0.00
   -8    1    1      1.47      0.00
    8    1    0     -0.07      0.00
    8    1    1     -3.24      0.00
    8    1    2      0.62      0.00
    8    1    3     -3.34      0.00
    8    1    4      1.17      0.00
    8    1    5      0.64      0.00
    8    1    6     -1.39      0.00
    8    1    7     -1.11      0.00
   -8    2    9      1.03      0.00
   -8    2    8      0.55      0.00
   -8    2    7      2.65      0.00
   -8    2    6     -1.75      0.00
   -8    2    5     -0.67      0.00
   -8    2    4     -4.68      0.00
   -8    2    3     -3.68      0.00
   -8    2    2      0.84      0.00
   -8    2    1     -1.94      0.00
    8    2    0      3.38      0.00
    8    2    1     -0.77      0.00
    8    2    2     -0.75      0.00
    8    2    3     -2.54      0.00
    8    2    4      0.56      0.00
    8    2    5      0.47      0.00
    8    2    6      0.91      0.00
    8    2    7      1.30      0.00
   -8    3    9     -0.61      0.00
   -8    3    8     -2.17      0.00
   -8    3    7     -1.06      0.00
   -8    3    6     -1.10      0.00
   -8    3    5      4.10      0.00
   -8    3    4      3.18      0.00
   -8    3    3      3.26      0.00
   -8    3    2      2.93      0.00
   -8    3    1     -5.87      0.00
    8    3    0     -1.48      0.00
    8    3    1     -0.44      0.00
    8    3    2      2.73      0.00
    8    3    3      3.57      0.00
    8    3    4      1.99      0.00
    8    3    5     -0.78      0.00
    8    3    6     -1.29      0.00
    8    3    7     -0.89      0.00
   -8    4    8      1.30      0.00
   -8    4    7      1.07      0.00
   -8    4    6     -1.17      0.00
   -8    4    5     -1.96      0.00
   -8    4    4     -3.77      0.00
   -8    4    3     -2.60      0.00
   -8    4    2      0.74      0.00
   -8    4    1     -2.14      0.00
    8    4    0      3.73      0.00
    8    4    1     -0.10      0.00
    8    4    2     -2.70      0.00
    8    4    3     -2.87      0.00
    8    4    4     -3.49      0.00
    8    4    5     -0.86      0.00
    8    4    6      0.84      0.00
   -8    5    7      0.56      0.00
   -8    5    6      2.05      0.00
   -8    5    5      1.89      0.00
   -8    5    4      1.91      0.00
   -8    5    3      0.97      0.00
   -8    5    2      1.61      0.00
   -8    5    1     -0.66      0.00
    8    5    0     -0.25      0.00
    8    5    1     -0.67      0.00
    8    5    2      0.57      0.00
    8    5    3      3.78      0.00
    8    5    4      2.17      0.00
    8    5    5      2.23      0.00
    8    5    6      0.81      0.00
   -8    6    7     -1.55      0.00
   -8    6    6     -1.31      0.00
   -8    6    5     -1.95      0.00
   -8    6    4     -1.04      0.00
   -8    6    3     -1.40      0.00
   -8    6    2     -0.47      0.00
   -8    6    1     -0.46      0.00
    8    6    0     -0.33      0.00
    8    6    1     -0.51      0.00
    8    6    2     -0.25      0.00
    8    6    3     -0.89      0.00
    8    6    4     -2.57      0.00
    8    6    5     -1.56      0.00
   -8    7    6      0.94      0.00
   -8    7    4      1.94      0.00
   -8    7    3      1.02      0.00
   -8    7    2      0.60      0.00
   -8    7    1      0.75      0.00
    8    7    0      0.08      0.00
    8    7    1      0.52      0.00
    8    7    2      1.01      0.00
    8    7    3     -0.14      0.00
    8    7    4      0.91      0.00
   -8    8    4     -0.89      0.00
   -8    8    3     -1.35      0.00
   -8    8    2     -0.78      0.00
   -8    8    1      0.04      0.00
    8    8    0     -0.84      0.00
    8    8    1     -0.09      0.00
    8    8    2     -0.96      0.00
    8    8    3     -0.98      0.00
   -9    0    7      0.17      0.00
   -9    0    5     -5.47      0.00
   -9    0    3     -1.91      0.00
   -9    0    1      1.28      0.00
    9    0    1      2.51      0.00
    9    0    3      4.20      0.00
    9    0    5     -2.03      0.00
   -9    1    8     -1.02      0.00
   -9    1    7     -0.60      0.00
   -9    1    6      2.86      0.00
   -9    1    5      1.22      0.00
   -9    1    4      3.60      0.00
   -9    1    3     -2.49      0.00
   -9    1    2      0.16      0.00
   -9    1    1      0.88      0.00
    9    1    0     -1.35      0.00
    9    1    1     -3.78      0.00
    9    1    2     -4.04      0.00
    9    1    3      2.07      0.00
    9    1    4     -0.40      0.00
    9    1    5      0.73      0.00
    9    1    6      1.40      0.00
   -9    2    8      1.32      0.00
   -9    2    7     -0.85      0.00
   -9    2    6     -0.05      0.00
   -9    2    5     -1.98      0.00
   -9    2    4      0.76      0.00
   -9    2    3     -2.43      0.00
   -9    2    2      1.88      0.00
   -9    2    1     -0.17      0.00
    9    2    0      4.38      0.00
    9    2    1      3.65      0.00
    9    2    2      1.80      0.00
    9    2    3      1.60      0.00
    9    2    4     -2.80      0.00
    9    2    5     -1.13      0.00
   -9    3    7     -1.61      0.00
   -9    3    6      0.19      0.00
   -9    3    5     -1.01      0.00
   -9    3    4      1.67      0.00
   -9    3    3      0.14      0.00
   -9    3    2      2.88      0.00
   -9    3    1      0.31      0.00
    9    3    0     -1.98      0.00
    9    3    1     -2.86      0.00
    9    3    2     -2.79      0.00
    9    3    3     -0.41      0.00
    9    3    4      0.21      0.00
    9    3    5      1.92      0.00
   -9    4    6      2.75      0.00
   -9    4    5      0.30      0.00
   -9    4    4     -0.17      0.00
   -9    4    3     -2.02      0.00
   -9    4    2     -1.72      0.00
   -9    4    1     -1.32      0.00
    9    4    0     -0.71      0.00
    9    4    1      1.33      0.00
    9    4    2      1.91      0.00
    9    4    3      1.16      0.00
    9    4    4     -0.24      0.00
    9    4    5     -0.83      0.00
   -9    5    4      0.41      0.00
   -9    5    3      1.17      0.00
   -9    5    2      1.12      0.00
   -9    5    1      0.46      0.00
    9    5    0      0.47      0.00
    9    5    1      0.42      0.00
    9    5    2     -0.73      0.00
    9    5    3     -1.42      0.00
    9    5    4      0.31      0.00
   -9    6    4      0.41      0.00
   -9    6    3     -0.15      0.00
   -9    6    2     -0.12      0.00
   -9    6    1     -0.46      0.00
    9    6    0      0.00      0.00
    9    6    1      0.55      0.00
    9    6    2      0.11      0.00
    9    6    3     -0.13      0.00
  -10    0    6      0.88      0.00
  -10    0    2     -4.37      0.00
   10    0    0     -2.49      0.00
   10    0    2      2.59      0.00
   10    0    4      0.81      0.00
  -10    1    6     -1.01      0.00
  -10    1    5     -0.62      0.00
  -10    1    4      2.37      0.00
  -10    1    3      1.90      0.00
  -10    1    2      0.53      0.00
  -10    1    1      3.63      0.00
   10    1    0      0.21      0.00
   10    1    1      0.33      0.00
   10    1    2     -0.76      0.00
   10    1    3     -1.88      0.00
  -10    2    6     -0.06      0.00
  -10    2    5     -1.39      0.00
  -10    2    4     -0.91      0.00
  -10    2    3     -2.39      0.00
  -10    2    2     -1.28      0.00
  -10    2    1      0.41      0.00
   10    2    0     -2.80      0.00
   10    2    1      0.75      0.00
   10    2    2     -0.62      0.00
   10    2    3     -0.28      0.00
  -10    3    5      0.91      0.00
  -10    3    4      1.53      0.00
  -10    3    3      0.35      0.00
  -10    3    2      2.15      0.00
  -10    3    1      1.20      0.00
   10    3    0      0.19      0.00
   10    3    1      3.31      0.00
   10    3    2      0.83      0.00
  -10    4    4     -0.17      0.00
  -10    4    3     -1.66      0.00
  -10    4    2     -0.75      0.00
  -10    4    1     -1.89      0.00
   10    4    0     -2.05      0.00
   10    4    1     -1.26      0.00
   10    4    2     -1.74      0.00
  -10    5    2      1.23      0.00
  -10    5    1      1.84      0.00
   10    5    0     -0.23      0.00
   10    6    0     -0.69      0.00
    9    7    0     -0.06      0.00
    9    8    0      0.01      0.00
    8    9    0      0.43      0.00
    8   10    0     -0.17      0.00
    7   11    0      0.54      0.00
    5   12    0     -0.33      0.00
    2   13    0      0.60      0.00
    3   13    0      0.24      0.00
    4   13    0      0.62      0.00
   10    5    1      0.84      0.00
  -10    6    1      0.02      0.00
   10    6    1      0.00      0.00
  -10    7    1      0.08      0.00
   -9    7    1     -0.01      0.00
    9    7    1     -0.03      0.00
   -9    8    1      0.10      0.00
    9    8    1      0.02      0.00
   -8    9    1      0.51      0.00
    8    9    1      0.99      0.00
   -8   10    1     -0.25      0.00
    7   10    1     -0.73      0.00
   -7   11    1     -0.47      0.00
   -6   11    1      0.46      0.00
    6   11    1     -0.46      0.00
   -5   12    1     -0.14      0.00
    5   12    1      0.47      0.00
   -4   13    1     -0.41      0.00
   -3   13    1     -0.04      0.00
   -2   13    1      0.28      0.00
   -1   13    1     -0.47      0.00
    2   13    1     -0.10      0.00
    3   13    1      0.32      0.00
    4   13    1     -0.09      0.00
    1    2    2    -24.71      0.00
   10    5    2      0.19      0.00
  -10    6    2     -0.57      0.00
   10    6    2      0.25      0.00
  -10    7    2     -0.27      0.00
   -9    7    2      0.14      0.00
    9    7    2     -0.36      0.00
   -9    8    2      0.03      0.00
    9    8    2     -0.18      0.00
   -8    9    2      1.03      0.00
    8    9    2      0.16      0.00
   -8   10    2     -0.17      0.00
   -7   10    2      0.14      0.00
    7   10    2      1.24      0.00
   -7   11    2      0.46      0.00
   -6   11    2      0.13      0.00
    6   11    2     -0.84      0.00
   -5   12    2      0.59      0.00
    5   12    2     -0.33      0.00
   -4   13    2     -0.03      0.00
   -3   13    2      0.23      0.00
   -2   13    2      1.07      0.00
   -1   13    2      0.46      0.00
    1   13    2     -0.95      0.00
    2   13    2      0.28      0.00
    3   13    2     -0.08      0.00
   10    3    3      0.15      0.00
   10    4    3     -0.60      0.00
  -10    5    3      0.11      0.00
   10    5    3      0.43      0.00
  -10    6    3     -0.12      0.00
   -9    7    3     -0.32      0.00
    9    7    3      0.43      0.00
   -9    8    3     -0.27      0.00
   -8    9    3      0.46      0.00
    8    9    3      0.49      0.00
   -7   10    3     -0.45      0.00
    7   10    3     -0.03      0.00
   -6   11    3     -0.14      0.00
    6   11    3      0.35      0.00
   -5   12    3     -1.01      0.00
    4   12    3      0.46      0.00
    5   12    3      0.14      0.00
   -3   13    3     -0.47      0.00
   -2   13    3     -0.66      0.00
   -1   13    3     -1.10      0.00
    0   13    3      0.86      0.00
    1   13    3      0.15      0.00
    2   13    3     -0.38      0.00
    3   13    3      0.56      0.00
  -10    0    4      0.31      0.00
   10    1    4      0.90      0.00
   10    2    4      1.10      0.00
   10    3    4      0.08      0.00
   10    4    4     -0.13      0.00
  -10    5    4      0.00      0.00
  -10    6    4      0.39      0.00
    9    6    4      1.10      0.00
   -9    7    4      0.23      0.00
    9    7    4      0.24      0.00
   -9    8    4      0.21      0.00
    8    8    4      0.67      0.00
   -8    9    4      0.37      0.00
    7    9    4     -0.63      0.00
   -7   10    4     -0.42      0.00
    6   10    4      0.18      0.00
   -6   11    4      0.73      0.00
    5   11    4     -0.11      0.00
   -5   12    4      0.24      0.00
   -4   12    4      0.40      0.00
    3   12    4      0.57      0.00
    4   12    4     -0.87      0.00
   -2   13    4      0.15      0.00
   -1   13    4     -0.59      0.00
    0   13    4      0.08      0.00
    1   13    4      0.42      0.00
    2   13    4     -0.24      0.00
   10    1    5      0.04      0.00
   10    2    5     -0.03      0.00
   10    3    5     -0.35      0.00
  -10    4    5      0.00      0.00
  -10    5    5     -0.49      0.00
   -9    5    5     -1.52      0.00
    9    5    5     -0.04      0.00
  -10    6    5     -0.03      0.00
   -9    6    5     -0.62      0.00
    9    6    5     -0.34      0.00
   -9    7    5     -0.16      0.00
   -8    7    5      1.25      0.00
    8    7    5      0.78      0.00
   -8    8    5     -0.89      0.00
    7    8    5      0.27      0.00
    8    8    5      0.20      0.00
   -8    9    5      0.25      0.00
    6    9    5     -0.87      0.00
    7    9    5      0.43      0.00
   -7   10    5     -0.13      0.00
    5   10    5      1.11      0.00
    6   10    5     -0.56      0.00
   -6   11    5      0.02      0.00
   -5   11    5      0.42      0.00
    4   11    5      0.56      0.00
    5   11    5     -0.28      0.00
   -4   12    5     -0.24      0.00
   -3   12    5      0.42      0.00
   -2   12    5     -0.43      0.00
    2   12    5     -0.11      0.00
    3   12    5      0.20      0.00
   -1   13    5     -0.15      0.00
    0   13    5     -0.29      0.00
    9    2    6     -0.18      0.00
  -10    3    6      0.18      0.00
    9    3    6      0.86      0.00
  -10    4    6     -0.15      0.00
    9    4    6     -0.90      0.00
  -10    5    6      0.07      0.00
   -9    5    6     -0.36      0.00
    9    5    6      0.58      0.00
   -9    6    6      0.44      0.00
    8    6    6     -0.73      0.00
   -9    7    6      0.46      0.00
    7    7    6     -1.31      0.00
    8    7    6      0.27      0.00
   -8    8    6     -0.43      0.00
    6    8    6     -0.73      0.00
    7    8    6      0.14      0.00
   -7    9    6      0.28      0.00
    5    9    6      0.62      0.00
    6    9    6     -0.66      0.00
   -6   10    6      0.20      0.00
    4   10    6     -0.46      0.00
    5   10    6      0.32      0.00
   -5   11    6      0.39      0.00
   -4   11    6      0.44      0.00
   -3   11    6      1.06      0.00
    3   11    6     -0.76      0.00
    4   11    6      0.28      0.00
   -3   12    6     -0.12      0.00
   -2   12    6      0.79      0.00
   -1   12    6     -0.35      0.00
    0   12    6      0.78      0.00
    1   12    6     -0.51      0.00
    2   12    6      0.00      0.00
    9    0    7     -0.28      0.00
  -10    1    7     -0.19      0.00
    9    1    7     -0.41      0.00
  -10    2    7      1.02      0.00
    9    2    7     -0.22      0.00
  -10    3    7     -0.34      0.00
    9    3    7      0.19      0.00
  -10    4    7      0.00      0.00
   -9    4    7      0.12      0.00
    8    4    7      0.34      0.00
   -9    5    7     -1.15      0.00
    8    5    7     -0.75      0.00
   -9    6    7      0.05      0.00
    8    6    7      0.21      0.00
   -8    7    7     -0.04      0.00
    7    7    7     -0.59      0.00
   -8    8    7      0.23      0.00
    6    8    7      0.06      0.00
   -7    9    7     -0.32      0.00
    4    9    7     -1.47      0.00
    5    9    7      0.27      0.00
    6    9    7      0.14      0.00
   -6   10    7      0.06      0.00
   -5   10    7     -0.34      0.00
   -4   10    7     -2.31      0.00
    3   10    7      0.54      0.00
    4   10    7      0.26      0.00
   -4   11    7     -0.88      0.00
   -3   11    7      0.10      0.00
   -2   11    7     -0.15      0.00
   -1   11    7     -0.35      0.00
    1   11    7      0.03      0.00
    2   11    7     -0.05      0.00
    3   11    7      0.20      0.00
   -1   12    7      0.08      0.00
    0   12    7      0.20      0.00
  -10    0    8      0.07      0.00
    8    0    8      0.57      0.00
  -10    1    8     -0.25      0.00
    8    1    8      0.10      0.00
  -10    2    8      0.05      0.00
    8    2    8      0.38      0.00
   -9    3    8      0.10      0.00
    8    3    8     -0.37      0.00
   -9    4    8      0.16      0.00
    8    4    8      0.27      0.00
   -9    5    8      0.21      0.00
   -8    5    8      0.09      0.00
    7    5    8      0.11      0.00
   -8    6    8      0.31      0.00
    7    6    8      0.15      0.00
   -8    7    8      0.18      0.00
    6    7    8      0.79      0.00
   -7    8    8     -0.05      0.00
    5    8    8     -0.57      0.00
    6    8    8     -0.45      0.00
   -6    9    8      0.45      0.00
   -5    9    8     -0.11      0.00
    3    9    8     -0.36      0.00
    4    9    8      0.28      0.00
    5    9    8     -0.10      0.00
   -5   10    8      0.10      0.00
   -4   10    8      0.60      0.00
   -3   10    8     -0.15      0.00
   -2   10    8     -0.21      0.00
    0   10    8      0.33      0.00
    1   10    8      1.01      0.00
    2   10    8      0.16      0.00
    3   10    8     -0.91      0.00
   -3   11    8     -0.20      0.00
   -2   11    8      0.45      0.00
   -1   11    8      0.14      0.00
    0   11    8     -0.53      0.00
    1   11    8     -0.08      0.00
   -9    0    9      1.04      0.00
    7    0    9     -0.02      0.00
   -9    1    9     -0.32      0.00
    7    1    9      0.75      0.00
   -9    2    9      0.53      0.00
    7    2    9     -0.57      0.00
   -9    3    9     -0.21      0.00
    7    3    9      0.33      0.00
   -8    4    9      0.25      0.00
    7    4    9     -0.65      0.00
   -8    5    9     -0.84      0.00
    6    5    9      0.14      0.00
   -8    6    9      0.14      0.00
   -7    6    9     -0.10      0.00
    6    6    9      1.13      0.00
   -7    7    9     -0.06      0.00
    5    7    9      0.02      0.00
   -6    8    9     -0.76      0.00
    4    8    9     -1.94      0.00
   -5    9    9      0.04      0.00
   -4    9    9     -0.82      0.00
    2    9    9     -0.93      0.00
    3    9    9      1.31      0.00
   -3   10    9      0.30      0.00
   -2   10    9     -0.42      0.00
   -1   10    9     -0.33      0.00
    0   10    9      0.11      0.00
    1   10    9     -0.30      0.00
    2   10    9      0.50      0.00
   -8    0   10      0.94      0.00
    6    0   10     -1.79      0.00
   -8    1   10     -0.01      0.00
    6    1   10      0.89      0.00
    7    1   10      0.34      0.00
   -8    2   10      0.55      0.00
    6    2   10     -1.00      0.00
   -8    3   10      0.21      0.00
    6    3   10      0.74      0.00
   -8    4   10      0.02      0.00
   -7    4   10      0.99      0.00
    6    4   10     -0.76      0.00
   -7    5   10      0.16      0.00
    5    5   10      0.12      0.00
   -7    6   10     -0.20      0.00
   -6    6   10     -0.47      0.00
    5    6   10     -0.03      0.00
   -6    7   10     -0.56      0.00
   -5    7   10      1.19      0.00
    4    7   10      0.24      0.00
   -5    8   10      0.09      0.00
   -4    8   10      0.72      0.00
    2    8   10     -0.44      0.00
    3    8   10      0.06      0.00
   -3    9   10      0.04      0.00
   -2    9   10     -0.16      0.00
   -1    9   10      0.93      0.00
    0    9   10      0.01      0.00
    1    9   10     -0.05      0.00
    2    9   10     -0.30      0.00
   -7    0   11      0.52      0.00
    5    0   11      1.03      0.00
   -7    1   11     -0.03      0.00
    5    1   11      0.08      0.00
    6    1   11      0.12      0.00
   -7    2   11      0.47      0.00
    5    2   11      0.24      0.00
   -7    3   11      0.15      0.00
   -6    3   11      0.63      0.00
    4    3   11     -0.50      0.00
    5    3   11      0.42      0.00
   -7    4   11      0.61      0.00
   -6    4   11      0.27      0.00
    4    4   11     -0.61      0.00
    5    4   11      0.31      0.00
   -6    5   11      0.88      0.00
    4    5   11     -0.13      0.00
   -5    6   11     -0.13      0.00
    3    6   11     -0.54      0.00
    4    6   11      0.27      0.00
   -5    7   11      0.10      0.00
   -4    7   11     -0.59      0.00
   -3    7   11      0.15      0.00
    1    7   11      0.04      0.00
    2    7   11      0.25      0.00
    3    7   11     -0.22      0.00
   -3    8   11     -0.30      0.00
   -2    8   11      0.16      0.00
   -1    8   11     -0.79      0.00
    0    8   11     -0.79      0.00
    1    8   11      1.06      0.00
   -6    0   12      1.40      0.00
    4    0   12      0.90      0.00
   -6    1   12      0.05      0.00
   -5    1   12      0.42      0.00
    4    1   12      0.11      0.00
   -6    2   12      0.91      0.00
   -5    2   12     -0.27      0.00
    3    2   12      1.17      0.00
    4    2   12     -0.16      0.00
   -6    3   12     -0.03      0.00
   -5    3   12      1.21      0.00
    3    3   12     -0.14      0.00
    4    3   12     -0.04      0.00
   -5    4   12      0.40      0.00
    2    4   12      0.49      0.00
    3    4   12      0.58      0.00
   -5    5   12      0.21      0.00
   -4    5   12      0.50      0.00
   -3    5   12     -1.10      0.00
   -2    5   12      0.58      0.00
   -1    5   12      0.36      0.00
    0    5   12      0.55      0.00
    1    5   12     -0.29      0.00
    2    5   12     -0.72      0.00
   -4    6   12     -0.01      0.00
   -3    6   12      0.14      0.00
   -2    6   12      0.78      0.00
   -1    6   12     -0.30      0.00
    0    6   12     -0.89      0.00
    1    6   12     -0.79      0.00
   -1    7   12     -0.18      0.00
    0    0    0      0.00      0.00
loop_
  _platon_squeeze_void_nr
  _platon_squeeze_void_average_x
  _platon_squeeze_void_average_y
  _platon_squeeze_void_average_z
  _platon_squeeze_void_volume
  _platon_squeeze_void_count_electrons
  _platon_squeeze_void_content
   1 -0.016  0.428 -0.025       434       130 ' '
_platon_squeeze_details
(replace by semicolon in column 1 when used as .sqf)
TITL 19 in P2(1)/n
CELL    8.8126   10.6094   10.5394     90.00     96.18     90.00
SPGR P21/n
C101 0.500 1.000 0.500 !       5.59 eA-3
Q102 0.744 1.007 0.380 !       5.36 eA-3
C103 0.432 0.617 0.881 !       5.30 eA-3
C104 0.946 0.056 0.547 !       4.44 eA-3
C105 0.598 0.901 0.549 !       4.02 eA-3
C106 0.123 0.478 0.903 !       3.76 eA-3
C107 0.616 0.968 0.475 !       3.21 eA-3
C108 0.461 0.856 0.649 !       2.81 eA-3
C109 0.471 0.919 0.596 !       2.44 eA-3
C110 0.412 0.714 0.803 !       2.30 eA-3
C111 0.818 0.567 0.163 !       2.04 eA-3
Q112 0.663 0.493 0.333 !       1.91 eA-3
Q113 0.780 0.291 0.583 !       1.30 eA-3
Q114 0.872 0.561 0.592 !       1.23 eA-3
C115 0.241 0.089 0.522 !       1.21 eA-3
Q116 0.524 0.866 0.123 !       1.13 eA-3
Q117 0.385 0.790 0.246 !       1.06 eA-3
Q118 0.415 0.586 0.417 !       1.05 eA-3
Q119 0.713 0.129 0.816 !       1.02 eA-3
Q120 0.469 0.230 0.779 !       1.00 eA-3
Q121 0.674 0.312 0.645 !       0.95 eA-3
Q122 0.659 0.964 0.002 !       0.84 eA-3
Q123 0.854 0.570 0.961 !       0.71 eA-3
Q124 0.210 0.626 0.484 !       0.61 eA-3
Q125 0.238 0.593 0.525 !       0.61 eA-3
C126 0.576 0.895 0.642 !       0.57 eA-3
Q127 0.940 0.572 0.910 !       0.51 eA-3
(replace by semicolon in column 1 when used as .sqf)
;
_shelx_fab_checksum              93571
loop_
_space_group_symop_operation_xyz
'x, y, z'
'-x+1/2, y+1/2, -z+1/2'
'-x, -y, -z'
'x-1/2, -y-1/2, z-1/2'
loop_
_atom_site_label
_atom_site_type_symbol
_atom_site_fract_x
_atom_site_fract_y
_atom_site_fract_z
_atom_site_U_iso_or_equiv
_atom_site_adp_type
_atom_site_occupancy
_atom_site_site_symmetry_order
_atom_site_calc_flag
_atom_site_refinement_flags_posn
_atom_site_refinement_flags_adp
Zn1 Zn 0.81496(3) 0.42688(3) 0.48894(3) 0.01049(12) Uani 1 1 d . .
O3 O 0.66780(19) 0.48369(17) 0.34493(16) 0.0204(4) Uani 1 1 d . .
O1 O 0.7177(2) 0.77428(16) 0.90673(16) 0.0190(4) Uani 1 1 d . .
O2 O 0.91973(19) 0.89353(16) 0.89552(16) 0.0189(4) Uani 1 1 d . .
N1 N 0.8765(2) 0.56846(18) 0.60635(19) 0.0132(4) Uani 1 1 d . .
N2 N 1.0145(2) 0.62944(19) 0.60889(18) 0.0138(4) Uani 1 1 d . .
C1 C 0.7991(3) 0.6208(2) 0.6950(2) 0.0151(5) Uani 1 1 d . .
H1 H 0.7003 0.5958 0.7133 0.018 Uiso 1 1 calc R U
C4 C 0.8413(3) 0.7999(2) 0.8578(2) 0.0136(4) Uani 1 1 d . .
C2 C 0.8848(3) 0.7177(2) 0.7565(2) 0.0130(4) Uani 1 1 d . .
C3 C 1.0193(3) 0.7190(2) 0.6978(2) 0.0157(5) Uani 1 1 d . .
H3 H 1.1020 0.7755 0.7181 0.019 Uiso 1 1 calc R U
loop_
_atom_site_aniso_label
_atom_site_aniso_U_11
_atom_site_aniso_U_22
_atom_site_aniso_U_33
_atom_site_aniso_U_23
_atom_site_aniso_U_13
_atom_site_aniso_U_12
Zn1 0.01088(17) 0.01021(17) 0.01121(18) 0.00105(11) 0.00495(11) 0.00087(10)
O3 0.0178(9) 0.0258(9) 0.0169(8) 0.0007(7) -0.0009(7) 0.0034(7)
O1 0.0226(9) 0.0153(8) 0.0215(9) -0.0061(7) 0.0141(7) -0.0044(7)
O2 0.0189(9) 0.0166(8) 0.0218(9) -0.0063(7) 0.0042(7) -0.0029(7)
N1 0.0110(9) 0.0157(10) 0.0138(9) -0.0014(7) 0.0051(7) -0.0001(7)
N2 0.0140(9) 0.0134(9) 0.0149(9) 0.0002(7) 0.0058(7) 0.0003(8)
C1 0.0125(11) 0.0176(11) 0.0163(11) -0.0028(9) 0.0059(9) 0.0012(9)
C4 0.0169(11) 0.0116(10) 0.0126(10) 0.0013(8) 0.0036(9) 0.0018(9)
C2 0.0135(11) 0.0138(11) 0.0121(10) -0.0005(8) 0.0035(8) 0.0018(9)
C3 0.0152(11) 0.0138(11) 0.0186(11) -0.0010(9) 0.0045(9) -0.0030(9)
loop_
_atom_type_symbol
_atom_type_description
_atom_type_scat_dispersion_real
_atom_type_scat_dispersion_imag
_atom_type_scat_source
C C 0.0181 0.0091 'International Tables Vol C Tables 4.2.6.8 and 6.1.1.4'
H H 0.0000 0.0000 'International Tables Vol C Tables 4.2.6.8 and 6.1.1.4'
N N 0.0311 0.0180 'International Tables Vol C Tables 4.2.6.8 and 6.1.1.4'
O O 0.0492 0.0322 'International Tables Vol C Tables 4.2.6.8 and 6.1.1.4'
Zn Zn -1.5491 0.6778 'International Tables Vol C Tables 4.2.6.8 and 6.1.1.4'
loop_
_geom_angle_atom_site_label_1
_geom_angle_atom_site_label_2
_geom_angle_atom_site_label_3
_geom_angle
_geom_angle_site_symmetry_1
_geom_angle_site_symmetry_3
O3 Zn1 N1 111.10(8) . .
O3 Zn1 O1 123.21(8) . 2_646
N1 Zn1 O1 108.45(8) . 2_646
O3 Zn1 N2 99.32(8) . 3_766
N1 Zn1 N2 112.14(8) . 3_766
O1 Zn1 N2 101.67(7) 2_646 3_766
C4 O1 Zn1 103.20(14) . 2_656
C1 N1 N2 107.92(19) . .
C1 N1 Zn1 128.70(16) . .
N2 N1 Zn1 123.37(14) . .
C3 N2 N1 108.09(18) . .
C3 N2 Zn1 127.31(16) . 3_766
N1 N2 Zn1 124.10(15) . 3_766
N1 C1 C2 109.9(2) . .
O2 C4 O1 120.3(2) . .
O2 C4 C2 121.8(2) . .
O1 C4 C2 117.9(2) . .
C1 C2 C3 104.14(19) . .
C1 C2 C4 127.5(2) . .
C3 C2 C4 128.3(2) . .
N2 C3 C2 109.9(2) . .
loop_
_geom_bond_atom_site_label_1
_geom_bond_atom_site_label_2
_geom_bond_distance
_geom_bond_site_symmetry_2
Zn1 O3 1.9811(17) .
Zn1 N1 1.9843(19) .
Zn1 O1 1.9953(16) 2_646
Zn1 N2 2.0031(19) 3_766
O1 C4 1.284(3) .
O1 Zn1 1.9953(16) 2_656
O2 C4 1.250(3) .
N1 C1 1.335(3) .
N1 N2 1.375(3) .
N2 C3 1.332(3) .
N2 Zn1 2.0031(19) 3_766
C1 C2 1.393(3) .
C4 C2 1.461(3) .
C2 C3 1.395(3) .
loop_
_platon_squeeze_void_nr
_platon_squeeze_void_average_x
_platon_squeeze_void_average_y
_platon_squeeze_void_average_z
_platon_squeeze_void_volume
_platon_squeeze_void_count_electrons
_platon_squeeze_void_content
1 -0.016 0.428 -0.025 434 130 ' '
