#------------------------------------------------------------------------------
#$Date: 2017-04-06 05:36:38 +0300 (Thu, 06 Apr 2017) $
#$Revision: 195226 $
#$URL: file:///home/coder/svn-repositories/cod/cif/7/22/80/7228004.cif $
#------------------------------------------------------------------------------
#
# This file is available in the Crystallography Open Database (COD),
# http://www.crystallography.net/
#
# All data on this site have been placed in the public domain by the
# contributors.
#
data_7228004
loop_
_publ_author_name
'Tang, Yu-Huan'
'Wu, Xin'
'Wang, Fei'
'Zhang, Jian'
_publ_section_title
;
 Sythesis of Zeolite-like Metal-organic Frameworks from a Dual-ligand
 Strategy
;
_journal_name_full               CrystEngComm
_journal_paper_doi               10.1039/C7CE00332C
_journal_year                    2017
_chemical_absolute_configuration s
_chemical_formula_moiety         'C21 H14 N8 O6 Zn2'
_chemical_formula_sum            'C21 H14 N8 O6 Zn2'
_chemical_formula_weight         605.14
_space_group_crystal_system      tetragonal
_space_group_IT_number           96
_space_group_name_Hall           'P 4nw 2abw'
_space_group_name_H-M_alt        'P 43 21 2'
_symmetry_space_group_name_Hall  'P 4nw 2abw'
_symmetry_space_group_name_H-M   'P 43 21 2'
_atom_sites_solution_hydrogens   geom
_audit_creation_method           SHELXL-2014/6
_audit_update_record
;
2017-03-31 deposited with the CCDC.
2017-04-05 downloaded from the CCDC.
;
_cell_angle_alpha                90
_cell_angle_beta                 90
_cell_angle_gamma                90
_cell_formula_units_Z            4
_cell_length_a                   14.0656(5)
_cell_length_b                   14.0656(5)
_cell_length_c                   15.9629(11)
_cell_measurement_reflns_used    7542
_cell_measurement_temperature    293(2)
_cell_measurement_theta_max      27.4895
_cell_measurement_theta_min      2.8965
_cell_volume                     3158.1(3)
_computing_cell_refinement       'CrystalClear (Rigaku Inc., 2008)'
_computing_data_collection       'CrystalClear (Rigaku Inc., 2008)'
_computing_data_reduction        'CrystalClear (Rigaku Inc., 2008)'
_computing_molecular_graphics    'SHELXL-2014/6 (Sheldrick, 2014)'
_computing_publication_material  'SHELXL-2014/6 (Sheldrick, 2014)'
_computing_structure_refinement  'SHELXL-2014/6 (Sheldrick, 2014)'
_computing_structure_solution    'SHELXL-2014/6 (Sheldrick, 2014)'
_diffrn_ambient_temperature      293(2)
_diffrn_measured_fraction_theta_full 0.996
_diffrn_measured_fraction_theta_max 0.997
_diffrn_measurement_device_type  'Mercury70 (2x2 bin mode)'
_diffrn_measurement_method       CCD_Profile_fitting
_diffrn_radiation_type           MoK\a
_diffrn_radiation_wavelength     0.71073
_diffrn_reflns_av_R_equivalents  0.0805
_diffrn_reflns_av_unetI/netI     0.0420
_diffrn_reflns_Laue_measured_fraction_full 0.996
_diffrn_reflns_Laue_measured_fraction_max 0.997
_diffrn_reflns_limit_h_max       18
_diffrn_reflns_limit_h_min       -18
_diffrn_reflns_limit_k_max       18
_diffrn_reflns_limit_k_min       -15
_diffrn_reflns_limit_l_max       20
_diffrn_reflns_limit_l_min       -20
_diffrn_reflns_number            24398
_diffrn_reflns_point_group_measured_fraction_full 0.998
_diffrn_reflns_point_group_measured_fraction_max 0.998
_diffrn_reflns_theta_full        25.242
_diffrn_reflns_theta_max         27.479
_diffrn_reflns_theta_min         2.896
_exptl_absorpt_coefficient_mu    1.561
_exptl_absorpt_correction_T_max  1.0000
_exptl_absorpt_correction_T_min  0.7903
_exptl_absorpt_correction_type   multi-scan
_exptl_crystal_colour            colorless
_exptl_crystal_density_diffrn    1.273
_exptl_crystal_description       block
_exptl_crystal_F_000             1216
_exptl_crystal_size_max          0.2
_exptl_crystal_size_mid          0.18
_exptl_crystal_size_min          0.15
_refine_diff_density_max         1.239
_refine_diff_density_min         -0.698
_refine_diff_density_rms         0.091
_refine_ls_abs_structure_details
;
 Refined as an inversion twin.
;
_refine_ls_abs_structure_Flack   0.07(4)
_refine_ls_extinction_method     none
_refine_ls_goodness_of_fit_ref   1.061
_refine_ls_hydrogen_treatment    constr
_refine_ls_matrix_type           full
_refine_ls_number_parameters     170
_refine_ls_number_reflns         3625
_refine_ls_number_restraints     7
_refine_ls_restrained_S_all      1.064
_refine_ls_R_factor_all          0.0594
_refine_ls_R_factor_gt           0.0548
_refine_ls_shift/su_max          0.004
_refine_ls_shift/su_mean         0.001
_refine_ls_structure_factor_coef Fsqd
_refine_ls_weighting_details
'w=1/[\s^2^(Fo^2^)+(0.1111P)^2^+0.2726P] where P=(Fo^2^+2Fc^2^)/3'
_refine_ls_weighting_scheme      calc
_refine_ls_wR_factor_gt          0.1615
_refine_ls_wR_factor_ref         0.1663
_reflns_Friedel_coverage         0.713
_reflns_Friedel_fraction_full    1.000
_reflns_Friedel_fraction_max     1.000
_reflns_number_gt                3250
_reflns_number_total             3625
_reflns_threshold_expression     'I > 2\s(I)'
_cod_data_source_file            c7ce00332c2.cif
_cod_data_source_block           3
_cod_depositor_comments
;
The following automatic conversions were performed:

'_exptl_absorpt_correction_type' value 'Multi-scan' changed to
'multi-scan' according to
/home/data/users/saulius/crontab/automatic-downloads/rss-feeds/RSC/lib/dictionaries/cif_core.dic
dictionary named 'cif_core.dic' version 2.4.2 from 2011-04-26.

Automatic conversion script
Id: cif_fix_values 4973 2017-02-22 13:04:09Z antanas 
;
_cod_database_code               7228004
_shelx_space_group_comment
;
The symmetry employed for this shelxl refinement is uniquely defined
by the following loop, which should always be used as a source of
symmetry information in preference to the above space-group names.
They are only intended as comments.
;
_shelxl_version_number           2014/6
_shelx_res_file
;
TITL a in P4(3)2(1)2
CELL 0.71073 14.0656 14.0656 15.9629 90 90 90
ZERR 4 0.0005 0.0005 0.0011 0 0 0
LATT -1
SYMM -X,-Y,0.5+Z
SYMM 0.5-Y,0.5+X,0.75+Z
SYMM 0.5+Y,0.5-X,0.25+Z
SYMM 0.5-X,0.5+Y,0.75-Z
SYMM 0.5+X,0.5-Y,0.25-Z
SYMM +Y,+X,-Z
SYMM -Y,-X,0.5-Z
SFAC C H N O Zn
UNIT 84 56 32 24 8

L.S. 10
PLAN  5
BOND $H
HTAB
FMAP 2
acta
ABIN
TWIN
SIMU O1 C8
DELU O1 C8
ACTA
WGHT    0.111100    0.272600
BASF   0.07338
FVAR       0.34183
ZN1   5    0.505060    0.230677    0.410394    11.00000    0.04013    0.03941 =
         0.03317   -0.00428    0.00106    0.00597
O3    4    0.668149    0.405731    0.123615    11.00000    0.06622    0.06391 =
         0.05449    0.00105   -0.00012   -0.03143
N2    3    0.453068    0.178460    0.301271    11.00000    0.03792    0.03861 =
         0.03125    0.00512    0.00107   -0.00279
N3    3    0.396826    0.300785    0.467523    11.00000    0.05959    0.05846 =
         0.06076   -0.00803    0.02406    0.00311
C7    1    0.389390    0.108913    0.289759    11.00000    0.03675    0.03712 =
         0.02774   -0.00465    0.00008   -0.00374
C5    1    0.431106    0.145571    0.165365    11.00000    0.04791    0.04444 =
         0.04216    0.00511   -0.00845   -0.01500
C4    1    0.446535    0.151053    0.077060    11.00000    0.08705    0.07990 =
         0.03048   -0.00001   -0.00039   -0.03600
AFIX  43
H4    2    0.414761    0.112052    0.039253    11.00000   -1.20000
AFIX   0
N1    3    0.372186    0.085065    0.211237    11.00000    0.04521    0.04198 =
         0.02901    0.00139    0.00234   -0.00661
C11   1    0.383895    0.383895    0.500000    10.50000    0.05000    0.05000 =
         0.06914   -0.01572    0.01572    0.00837
C2    1    0.562434    0.275561    0.107207    11.00000    0.05975    0.05551 =
         0.04468    0.00403   -0.00207   -0.01343
C6    1    0.480590    0.204263    0.220677    11.00000    0.03943    0.03963 =
         0.03107   -0.00095   -0.00085   -0.00121
C8    1    0.346327    0.056384    0.364200    11.00000    0.05586    0.05333 =
         0.04418    0.01087    0.00203   -0.01633
AFIX  13
H8    2    0.347365    0.097587    0.413698    11.00000   -1.20000
AFIX   0
C10   1    0.629739    0.349943    0.071300    11.00000    0.07076    0.08164 =
         0.03205    0.01004   -0.00320   -0.03247
C1    1    0.545438    0.269759    0.190892    11.00000    0.05370    0.04469 =
         0.04541   -0.00077   -0.00791   -0.01257
AFIX  43
H1    2    0.577313    0.309685    0.227875    11.00000   -1.20000
AFIX   0
O2    4    0.647604    0.350957   -0.003594    11.00000    0.16080    0.19625 =
         0.04369    0.00878    0.00214   -0.13034
N4    3    0.311610    0.258684    0.478141    11.00000    0.09467    0.08633 =
         0.22268   -0.08790    0.07899   -0.04135
C3    1    0.512542    0.218954    0.051605    11.00000    0.09861    0.07363 =
         0.02822    0.00401   -0.00307   -0.03809
AFIX  43
H3    2    0.523604    0.226607   -0.005436    11.00000   -1.20000
AFIX   0
O1    4    0.253292    0.031891    0.345371    11.00000    0.10238    0.13350 =
         0.15693    0.02897   -0.00355   -0.01913
AFIX 147
H1A   2    0.226507    0.077243    0.323352    11.00000   -1.50000
AFIX   0
C9    1    0.395716   -0.035835    0.383745    11.00000    0.07690    0.08748 =
         0.09016    0.04264   -0.00037   -0.00189
AFIX  33
H9A   2    0.461030   -0.023507    0.397406    11.00000   -1.50000
H9B   2    0.365027   -0.065895    0.430478    11.00000   -1.50000
H9C   2    0.392612   -0.076959    0.335827    11.00000   -1.50000
AFIX   0
HKLF 4

REM  a in P4(3)2(1)2
REM R1 =  0.0548 for    3250 Fo > 4sig(Fo)  and  0.0594 for all    3625 data
REM    170 parameters refined using      7 restraints

END

WGHT      0.1123      0.2769

REM Instructions for potential hydrogen bonds
EQIV $1 -y+1/2, x-1/2, z-1/4
HTAB C4 N2_$1
HTAB C8 N4
EQIV $2 -y+1, -x+1, -z+1/2
HTAB C1 O3_$2
EQIV $3 x-1/2, -y+1/2, -z+1/4
HTAB O1 O2_$3

REM Highest difference peak  1.239,  deepest hole -0.698,  1-sigma level  0.091
Q1    1   0.3604  0.0988  0.4376  11.00000  0.05    1.24
Q2    1   0.3566 -0.0879  0.4454  11.00000  0.05    0.42
Q3    1   0.4941  0.2279  0.2782  11.00000  0.05    0.40
Q4    1   0.4572  0.2632  0.3432  11.00000  0.05    0.38
Q5    1   0.3840  0.1044  0.1900  11.00000  0.05    0.35
;
_shelx_res_checksum              66748
_shelx_fab_file
;
    0    0    4    -16.16     -0.19
    0    0    8     -0.01      0.80
    0    0   12      1.28     -0.55
    0    0   16      3.07      0.37
    0    0   20      1.18     -5.79
    0    1    2     74.06     -0.56
    0    1    3    -22.70    -23.06
    0    1    4     -0.09     11.99
    0    1    5     -8.24      8.02
    0    1    6    -19.81      0.66
    0    1    7      8.36      8.80
    0    1    8      0.33     -1.47
    0    1    9      0.86     -0.50
    0    1   10     -1.12     -0.24
    0    1   11     -0.69     -1.40
    0    1   12     -0.21      0.71
    0    1   13      0.28     -0.88
    0    1   14     -0.20      0.53
    0    1   15      0.58      0.57
    0    1   16      0.26     -1.63
    0    1   17      3.68     -3.47
    0    1   18      5.38     -1.78
    0    1   19     -1.61     -1.90
    0    1   20     -0.31      2.20
    1    1    2      9.03     -0.32
    1    1    3     -0.36     19.99
    1    1    4      2.48      0.04
    1    1    5      0.12      7.46
    1    1    6      5.01      0.34
    1    1    7      0.47      0.47
    1    1    8     -2.15      0.19
    1    1    9     -0.14      2.31
    1    1   10      0.38      0.08
    1    1   11     -0.71     -2.98
    1    1   12      0.63     -0.21
    1    1   13      0.35     -1.96
    1    1   14     -1.88      0.25
    1    1   15      0.30     -1.22
    1    1   16      0.43      0.22
    1    1   17     -0.30      0.46
    1    1   18      4.40     -0.14
    1    1   19     -1.57     -0.51
    1    1   20      0.04     -3.70
    1    2    0     56.81     -0.24
    1    2    1    -11.23    -28.37
    1    2    2     -2.68      9.63
    1    2    3      3.08    -17.81
    1    2    4      5.14     14.31
    1    2    5     -1.62      8.98
    1    2    6     -2.82     -1.91
    1    2    7      5.26      7.34
    1    2    8      6.04     -2.61
    1    2    9     -0.23     -0.46
    1    2   10     -1.83      1.40
    1    2   11     -0.49      1.12
    1    2   12     -2.66      0.29
    1    2   13      0.86      1.89
    1    2   14      0.28     -1.38
    1    2   15     -0.46     -4.46
    1    2   16      0.29     -2.48
    1    2   17      0.87     -2.31
    1    2   18     -0.67     -0.89
    1    2   19      0.11     -0.25
    1    2   20     -1.27      0.60
    0    2    0     19.73     -0.11
    0    2    1    -39.23    -38.52
    0    2    2     -0.02     54.28
    0    2    3      3.12     -3.55
    0    2    4      4.42      0.07
    0    2    5      5.34      5.05
    0    2    6      0.23     -0.33
    0    2    7     -1.89      2.13
    0    2    8     -2.74      0.19
    0    2    9      1.20      1.54
    0    2   10     -0.08     -2.45
    0    2   11      1.71     -2.87
    0    2   12     -0.65      0.21
    0    2   13     -2.77     -3.52
    0    2   14     -0.05     -0.87
    0    2   15      0.65     -0.29
    0    2   16     -0.56      0.12
    0    2   17      1.99      2.39
    0    2   18     -0.39     -0.78
    0    2   19     -1.31     -1.65
    0    2   20      0.77     -1.43
    2    2    1     -0.38    -41.24
    2    2    2     10.73     -0.21
    2    2    3     -0.06     -4.15
    2    2    4     -4.39      0.12
    2    2    5      0.20     -2.23
    2    2    6      5.18      0.33
    2    2    7      0.34      0.23
    2    2    8      2.93      0.02
    2    2    9     -0.07      1.54
    2    2   10     -2.21     -0.14
    2    2   11     -0.24     -0.44
    2    2   12     -2.09     -0.25
    2    2   13      0.16     -0.13
    2    2   14     -1.57      0.22
    2    2   15      0.53      0.62
    2    2   16     -0.51      0.33
    2    2   17      0.17     -2.85
    2    2   18      3.31     -0.18
    2    2   19     -0.77     -0.52
    2    2   20      0.47     -2.26
    2    3    0     22.19     -0.26
    2    3    1     -5.70    -20.38
    2    3    2    -10.47     -0.40
    2    3    3     11.53      0.59
    2    3    4      6.81      2.17
    2    3    5     -2.64     -1.92
    2    3    6     -1.01      0.58
    2    3    7      1.56      2.04
    2    3    8      2.03     -2.24
    2    3    9     -0.25     -1.25
    2    3   10      0.95      1.12
    2    3   11      0.49     -0.55
    2    3   12      0.60      0.32
    2    3   13     -1.05      0.04
    2    3   14     -1.27     -1.33
    2    3   15     -1.01     -2.38
    2    3   16     -2.60     -0.85
    2    3   17     -0.27     -0.29
    2    3   18      1.12      0.01
    2    3   19     -0.62      1.55
    2    3   20     -0.94     -1.13
    1    3    0    -21.51      0.14
    1    3    1      3.11     -3.16
    1    3    2      2.79     17.31
    1    3    3      4.78    -14.14
    1    3    4     -4.04     -5.02
    1    3    5      7.54      0.20
    1    3    6      2.17      0.96
    1    3    7     -0.02      0.19
    1    3    8      0.66      1.64
    1    3    9     -1.65     -0.02
    1    3   10     -0.99     -1.13
    1    3   11     -0.01     -0.34
    1    3   12     -2.80      1.11
    1    3   13     -0.61     -1.36
    1    3   14     -2.37     -0.97
    1    3   15     -0.49      1.15
    1    3   16      0.82     -1.86
    1    3   17      1.62     -0.74
    1    3   18     -1.97     -1.57
    1    3   19     -1.10     -1.55
    1    3   20      0.92     -0.90
    0    3    1    -13.54     13.55
    0    3    2    -13.84      0.00
    0    3    3      7.83      7.47
    0    3    4     -0.01     14.09
    0    3    5      4.30     -4.36
    0    3    6      4.17     -0.19
    0    3    7      2.71      2.79
    0    3    8      0.00     -3.34
    0    3    9     -1.32      1.15
    0    3   10     -1.62      0.35
    0    3   11     -0.37     -0.51
    0    3   12      0.00      0.59
    0    3   13     -0.55      0.24
    0    3   14     -0.95     -0.32
    0    3   15     -3.68     -3.86
    0    3   16     -0.10     -2.88
    0    3   17     -0.05      0.31
    0    3   18     -1.62      0.32
    0    3   19      0.29      0.58
    0    3   20     -0.13     -0.52
    3    3    2     -0.05     -0.43
    3    3    3     -0.20      4.17
    3    3    4     -3.82      0.20
    3    3    5      0.23      3.37
    3    3    6     -1.19      0.08
    3    3    7      0.30     -3.74
    3    3    8      2.57     -0.11
    3    3    9     -0.52     -0.53
    3    3   10     -0.81     -0.11
    3    3   11     -0.65      0.92
    3    3   12     -0.68     -0.05
    3    3   13      0.89      2.27
    3    3   14      1.44     -0.42
    3    3   15      0.99     -0.18
    3    3   16     -2.21     -0.33
    3    3   17     -0.12     -1.25
    3    3   18      2.30     -0.96
    3    3   19     -1.22     -1.93
    3    3   20      0.65     -1.67
    3    4    0      8.08     -0.30
    3    4    1     -7.58     -9.45
    3    4    2      1.86     -1.01
    3    4    3     -0.04     -3.06
    3    4    4     -2.57     -0.56
    3    4    5      1.41      1.00
    3    4    6     -0.04      1.67
    3    4    7      0.51      3.00
    3    4    8      0.70     -1.10
    3    4    9     -1.18     -2.86
    3    4   10     -2.38      1.34
    3    4   11      1.26     -0.20
    3    4   12     -0.53      0.43
    3    4   13     -1.00      1.22
    3    4   14     -1.19     -1.04
    3    4   15     -0.51     -1.74
    3    4   16     -0.14     -0.42
    3    4   17      0.10      0.02
    3    4   18      2.22      0.21
    3    4   19     -0.85      1.33
    2    4    0      7.46     -0.05
    2    4    1     -1.47     -2.94
    2    4    2     -4.97     11.39
    2    4    3      0.67     -4.68
    2    4    4     -1.70     -4.40
    2    4    5      2.52      1.51
    2    4    6     -3.03     -3.51
    2    4    7      0.13     -1.27
    2    4    8     -0.71      1.65
    2    4    9      0.91     -1.35
    2    4   10      0.35      1.41
    2    4   11      0.50     -0.18
    2    4   12     -0.86      0.84
    2    4   13     -0.07      2.81
    2    4   14     -0.66     -0.77
    2    4   15     -3.64     -0.59
    2    4   16     -0.62     -3.30
    2    4   17      1.40      0.07
    2    4   18     -1.97     -1.62
    2    4   19     -3.19     -0.19
    2    4   20      0.94      1.14
    1    4    0      0.66     -0.02
    1    4    1    -10.41     -0.69
    1    4    2     -2.05      2.05
    1    4    3     14.05     12.13
    1    4    4     -3.72     -3.20
    1    4    5     -0.20     -4.57
    1    4    6     -0.30     -0.28
    1    4    7      1.00     -1.98
    1    4    8     -1.68     -0.77
    1    4    9     -0.56      0.08
    1    4   10      0.98     -0.44
    1    4   11      1.18     -0.95
    1    4   12      0.64      1.26
    1    4   13     -2.29     -0.28
    1    4   14     -1.22     -0.61
    1    4   15     -3.54     -0.33
    1    4   16     -3.72     -0.24
    1    4   17     -1.16      0.93
    1    4   18      0.03     -0.12
    1    4   19     -0.74     -0.99
    1    4   20     -0.10     -0.33
    0    4    0    -20.15      0.19
    0    4    1     12.77     13.20
    0    4    2     -0.04     -7.10
    0    4    3      7.03     -7.60
    0    4    4     -2.31      0.06
    0    4    5      5.27      5.19
    0    4    6      0.16     -0.26
    0    4    7      1.11     -0.83
    0    4    8      0.25      0.16
    0    4    9     -2.01     -1.73
    0    4   10     -0.11      1.20
    0    4   11     -2.03      1.72
    0    4   12      0.87     -0.04
    0    4   13     -0.36     -0.56
    0    4   14     -0.12     -0.17
    0    4   15      0.73      0.95
    0    4   16      0.24     -0.02
    0    4   17     -2.53     -1.98
    0    4   18     -0.23     -1.71
    0    4   19      0.63     -1.08
    0    4   20      1.88     -0.21
    4    4    0      1.94      0.44
    4    4    1     -0.46    -20.27
    4    4    2     -6.87      0.22
    4    4    3      0.28      2.18
    4    4    4      6.90      0.29
    4    4    5      0.21      1.71
    4    4    6     -1.44     -0.23
    4    4    7     -0.29     -0.26
    4    4    8     -2.41      0.03
    4    4    9      0.00      1.26
    4    4   10     -1.07      0.50
    4    4   11     -0.33      0.80
    4    4   12     -0.62      0.02
    4    4   13      0.36     -2.52
    4    4   14      3.04     -2.11
    4    4   15      0.20      1.74
    4    4   16      0.17     -0.22
    4    4   17     -0.43     -0.70
    4    4   18      0.88      0.25
    4    4   19     -1.47      0.58
    4    5    0      5.08      0.06
    4    5    1     -0.89    -12.52
    4    5    2      1.20      5.76
    4    5    3     -0.09      1.49
    4    5    4     -1.63     -1.83
    4    5    5      0.69     -0.45
    4    5    6      1.49      0.40
    4    5    7      0.16      1.69
    4    5    8     -1.23     -0.17
    4    5    9      0.57      2.29
    4    5   10     -2.48     -0.68
    4    5   11      1.32      0.88
    4    5   12      2.97     -0.23
    4    5   13     -0.49      0.90
    4    5   14      0.86     -0.68
    4    5   15     -1.24     -3.09
    4    5   16     -1.71     -0.45
    4    5   17     -0.21      0.12
    4    5   18      2.50     -0.79
    4    5   19     -2.19     -0.16
    3    5    0      2.24      0.17
    3    5    1      0.28     -4.28
    3    5    2     -8.46      6.13
    3    5    3      6.36     -2.66
    3    5    4      3.55     -0.65
    3    5    5     -3.45     -0.59
    3    5    6     -1.69     -2.06
    3    5    7     -0.92      3.10
    3    5    8     -2.37      0.49
    3    5    9      2.51      0.32
    3    5   10     -0.34     -0.76
    3    5   11      1.42     -1.23
    3    5   12      0.52     -0.19
    3    5   13      0.62     -0.95
    3    5   14      1.18      0.97
    3    5   15     -2.82      2.02
    3    5   16     -1.25     -1.21
    3    5   17     -1.69     -0.02
    3    5   18     -0.92      0.21
    3    5   19     -1.24      0.35
    2    5    0    -13.03     -0.08
    2    5    1     -5.41      2.65
    2    5    2      5.48     -0.26
    2    5    3      0.99      3.31
    2    5    4      0.04     -1.81
    2    5    5      0.66      2.63
    2    5    6     -2.23      1.07
    2    5    7      1.99     -0.07
    2    5    8     -2.75     -1.90
    2    5    9     -1.06     -1.89
    2    5   10     -0.34      1.03
    2    5   11      2.38     -1.37
    2    5   12     -0.28      1.67
    2    5   13     -1.24     -0.03
    2    5   14     -0.08     -0.62
    2    5   15     -1.86      0.52
    2    5   16      0.03      0.36
    2    5   17      0.19      1.19
    2    5   18     -1.02      0.93
    2    5   19     -0.86     -1.05
    1    5    0      3.50      0.31
    1    5    1     -0.53      9.12
    1    5    2     -3.80     -3.95
    1    5    3      2.21     -2.35
    1    5    4     -1.84     -1.16
    1    5    5      0.93      3.57
    1    5    6     -2.71     -2.49
    1    5    7     -0.13     -1.00
    1    5    8      0.69     -0.44
    1    5    9      3.81     -2.02
    1    5   10     -0.60      2.29
    1    5   11     -0.85     -0.54
    1    5   12      0.66      0.72
    1    5   13      0.09      0.01
    1    5   14     -0.33     -0.81
    1    5   15     -0.99      0.11
    1    5   16      1.47     -1.26
    1    5   17     -0.55      0.14
    1    5   18     -2.94      0.76
    1    5   19     -1.29     -0.12
    0    5    1     -1.89      1.45
    0    5    2      5.92      0.30
    0    5    3      6.83      6.83
    0    5    4     -0.21     -9.28
    0    5    5     -1.06      0.95
    0    5    6     -0.26     -0.19
    0    5    7      1.35      1.23
    0    5    8      0.11      0.59
    0    5    9      0.89     -1.28
    0    5   10      2.99      0.04
    0    5   11      0.20      0.59
    0    5   12     -0.19      0.45
    0    5   13     -1.05      1.08
    0    5   14      0.67     -0.16
    0    5   15     -1.36     -1.18
    0    5   16      0.20      1.55
    0    5   17     -0.61      0.97
    0    5   18      1.51      0.03
    0    5   19      0.12      0.56
    5    5    0     -5.66      0.72
    5    5    1      0.03     -7.01
    5    5    2     -6.15     -0.14
    5    5    3      0.30     -1.59
    5    5    4      2.32     -0.07
    5    5    5      0.12      0.73
    5    5    6      0.26     -0.23
    5    5    7     -0.36      2.05
    5    5    8      2.31      0.26
    5    5    9      0.06      0.43
    5    5   10      0.76      0.23
    5    5   11      0.01      2.46
    5    5   12     -1.64      0.21
    5    5   13     -0.02     -1.67
    5    5   14      0.45     -1.90
    5    5   15      0.27     -0.70
    5    5   16      0.94     -0.12
    5    5   17      0.01     -2.09
    5    5   18      2.85      0.59
    5    5   19     -0.31      0.19
    5    6    0     -5.91     -0.08
    5    6    1      2.24     -8.75
    5    6    2     -4.20      1.41
    5    6    3      3.01     -1.40
    5    6    4      1.16     -0.86
    5    6    5      0.25     -1.77
    5    6    6      1.37      1.11
    5    6    7     -0.06      3.77
    5    6    8      1.64     -1.83
    5    6    9     -0.02      4.40
    5    6   10      2.42     -1.96
    5    6   11     -0.96     -1.46
    5    6   12      0.37      0.00
    5    6   13     -0.46     -3.85
    5    6   14     -0.33     -0.66
    5    6   15     -0.73     -0.56
    5    6   16     -0.15     -0.15
    5    6   17     -1.17     -0.40
    5    6   18      0.87      1.17
    4    6    0      3.14      0.03
    4    6    1      0.49      2.03
    4    6    2     -4.16      1.08
    4    6    3      5.42     -2.47
    4    6    4     -0.04      0.30
    4    6    5     -0.39     -0.23
    4    6    6      0.05      0.03
    4    6    7     -0.20      2.68
    4    6    8      1.45     -1.93
    4    6    9      0.61      0.02
    4    6   10      0.17     -0.66
    4    6   11      0.38     -0.26
    4    6   12     -1.38     -1.84
    4    6   13     -0.29     -1.10
    4    6   14      0.25      0.22
    4    6   15     -0.27      0.64
    4    6   16     -0.78     -0.70
    4    6   17      0.02      0.13
    4    6   18     -0.18      0.67
    4    6   19     -2.26     -0.70
    3    6    0      1.79     -0.07
    3    6    1     -2.10      2.81
    3    6    2      5.50      5.17
    3    6    3     -0.71     -1.52
    3    6    4      0.89     -1.58
    3    6    5      2.73      0.98
    3    6    6     -0.79      0.01
    3    6    7     -0.19      1.01
    3    6    8     -2.44     -1.05
    3    6    9      0.93      0.41
    3    6   10     -1.94     -1.63
    3    6   11      3.87      1.00
    3    6   12      1.46     -0.60
    3    6   13      0.06      0.25
    3    6   14      0.31      1.25
    3    6   15     -3.88     -1.83
    3    6   16     -1.14     -0.44
    3    6   17      1.94     -0.39
    3    6   18     -1.24     -0.13
    3    6   19     -2.03      0.67
    2    6    0      2.98      0.08
    2    6    1     -3.79      3.55
    2    6    2     -3.30     -1.43
    2    6    3      6.74      3.49
    2    6    4     -0.30     -0.11
    2    6    5     -2.71      0.32
    2    6    6      0.27      0.69
    2    6    7      0.10      1.07
    2    6    8     -1.05     -2.18
    2    6    9      3.42     -1.38
    2    6   10     -1.87     -1.29
    2    6   11      0.35     -0.39
    2    6   12      0.26      0.97
    2    6   13     -0.64     -0.28
    2    6   14      0.55      0.13
    2    6   15     -0.71      0.47
    2    6   16      0.03      0.21
    2    6   17     -1.05     -0.81
    2    6   18     -0.40      1.57
    2    6   19      1.60     -0.27
    1    6    0     -7.89      0.28
    1    6    1      4.29      3.42
    1    6    2      5.47     -2.04
    1    6    3     -0.83      3.01
    1    6    4      1.63     -2.73
    1    6    5     -1.45      4.29
    1    6    6      1.87     -1.28
    1    6    7      2.30     -0.70
    1    6    8     -1.69     -1.48
    1    6    9     -0.88     -1.12
    1    6   10      1.69      1.05
    1    6   11     -0.10     -1.41
    1    6   12     -0.80      0.93
    1    6   13     -0.11     -0.85
    1    6   14      0.51      1.10
    1    6   15      0.71     -2.10
    1    6   16      2.74      2.69
    1    6   17     -0.46      1.69
    1    6   18      0.60      0.27
    1    6   19      1.05     -1.27
    0    6    0      3.53      0.72
    0    6    1     -1.55     -1.84
    0    6    2      0.03     -0.89
    0    6    3      0.17      0.22
    0    6    4     -1.06      0.04
    0    6    5      2.13      2.03
    0    6    6     -0.28     -4.52
    0    6    7      0.31     -0.22
    0    6    8      6.93     -0.01
    0    6    9      0.46      0.38
    0    6   10      0.24      1.20
    0    6   11      0.15     -0.31
    0    6   12      0.01     -0.05
    0    6   13     -0.36     -0.48
    0    6   14      0.08      2.68
    0    6   15      0.42     -0.41
    0    6   16      2.40     -0.24
    0    6   17     -0.15      0.04
    0    6   18     -0.08      1.18
    0    6   19     -0.45      0.52
    6    6    0     -6.00      0.34
    6    6    1      0.07     -5.02
    6    6    2     -5.02      0.15
    6    6    3      0.27      2.12
    6    6    4      1.84     -0.11
    6    6    5     -0.22     -0.78
    6    6    6      0.44     -0.36
    6    6    7     -0.40     -1.30
    6    6    8      2.20      0.53
    6    6    9      0.43     -1.44
    6    6   10      0.17      0.53
    6    6   11      0.25      1.32
    6    6   12      0.82     -0.06
    6    6   13     -0.28      0.08
    6    6   14      0.15     -2.56
    6    6   15     -0.47     -0.82
    6    6   16     -1.60     -0.29
    6    6   17      0.34     -1.56
    6    6   18      0.93      0.28
    6    7    0     -2.67      0.35
    6    7    1      0.44     -1.10
    6    7    2     -4.17     -0.48
    6    7    3      1.06      1.60
    6    7    4     -2.03     -3.38
    6    7    5      2.52     -1.82
    6    7    6      3.07      0.01
    6    7    7     -0.69     -1.07
    6    7    8      3.12     -1.82
    6    7    9     -1.15     -1.59
    6    7   10      1.11      0.41
    6    7   11     -0.69      0.45
    6    7   12     -1.19      0.22
    6    7   13      0.02     -1.98
    6    7   14     -0.69     -0.33
    6    7   15     -0.11      0.01
    6    7   16      0.61     -0.21
    6    7   17     -0.44     -0.28
    5    7    0      4.39     -0.28
    5    7    1      1.56     -2.38
    5    7    2     -0.70      0.76
    5    7    3      4.19      1.94
    5    7    4     -1.09     -2.29
    5    7    5     -0.03     -0.36
    5    7    6     -0.43     -1.88
    5    7    7     -0.02      0.16
    5    7    8      1.38     -1.49
    5    7    9     -0.47     -0.24
    5    7   10      0.07     -0.47
    5    7   11      0.06      0.33
    5    7   12     -0.21     -1.17
    5    7   13     -1.04     -0.21
    5    7   14     -0.41     -0.28
    5    7   15     -1.14      0.90
    5    7   16     -1.78     -1.49
    5    7   17      0.23      0.66
    5    7   18      0.02      0.51
    4    7    0      2.75     -0.24
    4    7    1     -0.33     -1.52
    4    7    2      1.70      3.35
    4    7    3      3.71     -2.21
    4    7    4      0.95     -2.01
    4    7    5      1.10      0.54
    4    7    6     -0.92     -0.61
    4    7    7      0.41      1.63
    4    7    8     -1.04     -0.47
    4    7    9      0.03      2.00
    4    7   10      0.13     -3.80
    4    7   11     -0.64      0.25
    4    7   12      1.87     -1.41
    4    7   13      0.34     -3.41
    4    7   14      0.21      2.21
    4    7   15     -0.42      1.01
    4    7   16     -1.49      0.78
    4    7   17     -0.19      0.61
    4    7   18     -0.94      1.30
    3    7    0      3.77     -0.02
    3    7    1     -4.14      4.00
    3    7    2      3.48     -2.75
    3    7    3      4.22      3.37
    3    7    4     -0.27     -0.93
    3    7    5     -0.08      0.28
    3    7    6     -1.32      1.25
    3    7    7      0.60     -0.53
    3    7    8     -0.89     -2.43
    3    7    9      0.66      0.63
    3    7   10     -1.15     -0.22
    3    7   11      0.38     -1.55
    3    7   12     -0.69      0.30
    3    7   13     -0.29      1.40
    3    7   14      0.75      0.92
    3    7   15      1.12     -0.05
    3    7   16     -0.75      0.83
    3    7   17      2.05     -0.01
    3    7   18     -1.52      0.25
    2    7    0      0.11      0.07
    2    7    1      3.07      4.27
    2    7    2      5.33     -1.43
    2    7    3     -2.99     -1.29
    2    7    4      3.98      0.01
    2    7    5     -0.12      1.48
    2    7    6     -1.70     -0.47
    2    7    7      0.79     -1.18
    2    7    8     -0.61      0.19
    2    7    9      0.47     -0.70
    2    7   10      0.19      1.97
    2    7   11      0.30      0.97
    2    7   12     -1.56     -0.93
    2    7   13      0.51      0.86
    2    7   14     -2.80      0.96
    2    7   15      0.12     -3.92
    2    7   16      3.48      0.28
    2    7   17      1.59      0.03
    2    7   18     -1.76      2.00
    2    7   19     -0.79      0.83
    1    7    0     -1.82      0.48
    1    7    1     -3.08      1.90
    1    7    2     -0.58      2.31
    1    7    3      5.82      1.11
    1    7    4     -1.96     -3.00
    1    7    5     -0.47      0.32
    1    7    6      2.35     -0.60
    1    7    7     -1.18     -1.87
    1    7    8      3.71     -0.39
    1    7    9     -0.35     -2.33
    1    7   10     -1.52      0.80
    1    7   11     -0.34      0.16
    1    7   12     -1.37      1.34
    1    7   13     -0.11     -0.94
    1    7   14      0.72      0.70
    1    7   15      0.98      0.55
    1    7   16     -0.72      1.22
    1    7   17     -0.56     -1.45
    1    7   18      2.65      1.74
    1    7   19      1.43      0.48
    0    7    1      2.91     -3.27
    0    7    2      1.37     -0.12
    0    7    3      0.86      0.58
    0    7    4      0.02      0.74
    0    7    5     -0.45      0.35
    0    7    6      4.11     -0.02
    0    7    7     -0.21     -0.28
    0    7    8     -0.06      0.63
    0    7    9     -0.59      0.69
    0    7   10      2.73     -0.04
    0    7   11     -1.36     -1.43
    0    7   12      0.16      0.88
    0    7   13     -0.10     -0.13
    0    7   14      0.16      0.18
    0    7   15     -0.54     -0.26
    0    7   16      0.35      4.83
    0    7   17     -1.05      1.07
    0    7   18      1.21      0.19
    0    7   19     -0.81     -1.15
    7    7    0     -3.85      0.40
    7    7    1      0.08     -0.11
    7    7    2     -3.52     -0.28
    7    7    3      0.15     -1.27
    7    7    4      2.15     -0.10
    7    7    5     -0.51     -2.32
    7    7    6     -1.10      0.02
    7    7    7     -0.12      1.08
    7    7    8      1.01      0.37
    7    7    9      0.93     -0.07
    7    7   10      1.44     -0.03
    7    7   11      0.31     -1.95
    7    7   12     -0.29     -0.06
    7    7   13     -0.85     -0.05
    7    7   14      0.49     -0.98
    7    7   15     -0.86      1.16
    7    7   16     -0.25     -0.34
    7    7   17      0.29      0.18
    7    8    0     -3.23      0.07
    7    8    1      0.93     -2.64
    7    8    2      1.28      0.98
    7    8    3     -0.32      2.80
    7    8    4      2.38     -3.24
    7    8    5     -0.60     -1.19
    7    8    6     -0.52     -0.85
    7    8    7     -0.41     -1.19
    7    8    8     -0.73     -1.16
    7    8    9     -0.29     -0.95
    7    8   10      0.37      1.35
    7    8   11      0.56      1.42
    7    8   12      0.37     -0.87
    7    8   13     -0.61     -1.92
    7    8   14     -0.35     -1.50
    7    8   15     -0.13     -0.28
    7    8   16      0.79     -0.32
    6    8    0      0.04     -0.20
    6    8    1     -0.30     -1.27
    6    8    2      0.47     -2.19
    6    8    3      2.45      0.24
    6    8    4      1.08     -1.01
    6    8    5     -1.39      1.00
    6    8    6     -1.99     -0.53
    6    8    7      0.10      2.31
    6    8    8      1.08     -1.79
    6    8    9     -0.54      0.75
    6    8   10      0.98     -0.68
    6    8   11     -0.51     -1.93
    6    8   12     -1.03      0.65
    6    8   13     -0.81      0.10
    6    8   14      0.42      0.05
    6    8   15     -0.62      2.84
    6    8   16     -0.07     -0.57
    6    8   17     -0.58      0.53
    5    8    0      3.03      0.14
    5    8    1     -0.98      0.07
    5    8    2     -0.34      1.38
    5    8    3      0.95     -1.24
    5    8    4      1.04     -3.68
    5    8    5      0.74      1.68
    5    8    6     -0.84     -1.43
    5    8    7     -0.59      0.15
    5    8    8     -0.94     -0.83
    5    8    9      0.25      1.38
    5    8   10     -0.19      0.24
    5    8   11     -0.90      0.17
    5    8   12     -0.03      0.23
    5    8   13      0.42     -2.34
    5    8   14     -0.38      1.27
    5    8   15      1.44      0.03
    5    8   16     -0.08     -0.67
    5    8   17      2.10      0.81
    4    8    0      3.58     -0.09
    4    8    1     -1.81     -1.06
    4    8    2      3.50      0.32
    4    8    3     -0.14      1.28
    4    8    4     -0.64     -3.33
    4    8    5      0.12      1.20
    4    8    6     -1.25     -0.08
    4    8    7      1.46      0.19
    4    8    8     -0.45     -0.22
    4    8    9      0.65      0.87
    4    8   10     -1.49     -0.03
    4    8   11     -0.13     -0.44
    4    8   12     -0.47     -1.58
    4    8   13      0.48      0.84
    4    8   14      1.52      1.35
    4    8   15      0.84      0.01
    4    8   16     -0.23     -2.08
    4    8   17      2.75      0.05
    4    8   18     -1.22     -0.06
    3    8    0      2.43     -0.01
    3    8    1     -0.36      1.27
    3    8    2      2.66     -1.64
    3    8    3      1.22     -4.32
    3    8    4      0.90      0.28
    3    8    5      0.68      0.65
    3    8    6     -1.26     -1.06
    3    8    7      1.49      2.69
    3    8    8     -0.73     -0.50
    3    8    9      0.72     -1.53
    3    8   10     -0.18      0.74
    3    8   11      0.15      1.27
    3    8   12      1.18     -0.71
    3    8   13     -0.60      0.43
    3    8   14     -0.91      2.06
    3    8   15      0.52     -1.14
    3    8   16      0.90      0.70
    3    8   17      0.77      0.16
    3    8   18      0.01      2.29
    2    8    0      1.64      0.67
    2    8    1     -1.81      2.24
    2    8    2      4.05      0.54
    2    8    3      2.36      2.12
    2    8    4     -3.60     -4.11
    2    8    5     -0.09      1.45
    2    8    6      0.32      0.07
    2    8    7      0.44     -2.28
    2    8    8      0.56      1.32
    2    8    9     -0.24     -0.04
    2    8   10     -0.04     -0.17
    2    8   11      0.49     -0.41
    2    8   12     -2.45      3.83
    2    8   13     -0.57      1.86
    2    8   14      0.50      0.47
    2    8   15      1.01      0.05
    2    8   16     -0.60      0.93
    2    8   17      1.77     -0.04
    2    8   18     -0.39     -1.16
    1    8    0      2.18      0.14
    1    8    1      3.51     -1.10
    1    8    2      0.40     -2.30
    1    8    3      0.29      0.60
    1    8    4     -0.11      1.14
    1    8    5     -1.27     -1.10
    1    8    6      0.51     -1.28
    1    8    7      2.14     -1.68
    1    8    8      1.91      1.54
    1    8    9      0.92     -0.48
    1    8   10      0.75      1.90
    1    8   11     -1.23     -0.72
    1    8   12     -0.26     -0.20
    1    8   13      0.01      0.40
    1    8   14     -0.90      1.04
    1    8   15      1.55     -1.11
    1    8   16      0.90      1.59
    1    8   17     -2.29      1.13
    1    8   18     -1.86      1.19
    0    8    0     -3.75      0.07
    0    8    1      1.45      1.66
    0    8    2      0.11     -1.48
    0    8    3      3.38     -3.89
    0    8    4     -4.15      0.03
    0    8    5      1.50      1.41
    0    8    6      0.25      0.23
    0    8    7      1.09     -0.87
    0    8    8      2.39     -0.23
    0    8    9     -1.22     -0.79
    0    8   10      0.10      2.05
    0    8   11      0.15     -0.11
    0    8   12      0.18      0.01
    0    8   13      0.32     -0.15
    0    8   14      0.07      0.53
    0    8   15     -2.16      2.12
    0    8   16     -1.76     -0.31
    0    8   17     -0.10      0.06
    0    8   18      1.19      2.41
    8    8    0      0.66      0.27
    8    8    1     -0.05     -2.90
    8    8    2     -3.96     -0.28
    8    8    3      0.02      0.53
    8    8    4     -0.59      0.00
    8    8    5     -0.43     -0.78
    8    8    6      1.68      0.00
    8    8    7      0.07     -0.43
    8    8    8      1.64     -0.13
    8    8    9      1.09     -1.27
    8    8   10     -0.84      0.24
    8    8   11      0.31     -0.59
    8    8   12     -0.65     -0.10
    8    8   13     -0.62     -0.20
    8    8   14      0.94     -0.40
    8    8   15     -0.41     -1.10
    8    8   16      1.18     -0.15
    8    9    0     -2.57      0.32
    8    9    1      0.26     -0.72
    8    9    2     -0.44      0.05
    8    9    3      0.20     -1.57
    8    9    4      0.83     -1.06
    8    9    5      0.22     -2.94
    8    9    6      0.76     -0.43
    8    9    7     -0.80      0.35
    8    9    8      0.42     -0.83
    8    9    9      0.31     -0.25
    8    9   10      1.06      0.38
    8    9   11      1.18     -0.04
    8    9   12      0.66     -0.30
    8    9   13     -2.05     -1.54
    8    9   14     -0.53     -0.25
    8    9   15     -0.71      0.05
    7    9    0      1.96     -0.32
    7    9    1     -1.42     -1.24
    7    9    2     -1.94      0.83
    7    9    3      1.13      0.45
    7    9    4      0.12     -1.38
    7    9    5      1.07      2.30
    7    9    6      1.78     -0.76
    7    9    7     -0.84      1.34
    7    9    8      2.82     -1.13
    7    9    9     -0.37      0.10
    7    9   10     -1.45     -0.03
    7    9   11      0.49     -0.64
    7    9   12     -1.41      0.42
    7    9   13      0.10     -0.30
    7    9   14      2.01     -1.00
    7    9   15     -0.30      0.16
    7    9   16      0.73      0.01
    6    9    0      1.38      0.15
    6    9    1      1.99      0.66
    6    9    2      0.78      2.65
    6    9    3      0.23      0.28
    6    9    4      1.96     -1.82
    6    9    5     -2.01      2.24
    6    9    6     -0.76     -0.25
    6    9    7     -0.99      1.20
    6    9    8     -1.66     -0.19
    6    9    9      0.69      2.43
    6    9   10      0.67     -0.14
    6    9   11      0.65      0.26
    6    9   12     -0.83     -1.03
    6    9   13      0.94     -1.68
    6    9   14     -0.30      1.46
    6    9   15     -0.16      0.94
    6    9   16     -0.11     -3.28
    5    9    0      0.30      0.07
    5    9    1     -1.01     -0.39
    5    9    2      2.48     -0.36
    5    9    3     -0.61      1.81
    5    9    4     -0.38      0.55
    5    9    5     -2.59      0.65
    5    9    6     -1.58      0.39
    5    9    7      2.12      1.11
    5    9    8     -0.71     -0.57
    5    9    9      0.34      2.03
    5    9   10     -0.48      0.25
    5    9   11     -1.49      0.32
    5    9   12     -1.33      0.09
    5    9   13      0.03     -1.07
    5    9   14      0.53      0.66
    5    9   15      1.25      0.63
    5    9   16     -0.53     -1.55
    5    9   17      0.14      0.11
    4    9    0      1.69      0.05
    4    9    1     -3.47     -0.64
    4    9    2     -0.93     -1.71
    4    9    3      0.97     -2.21
    4    9    4     -0.93     -1.63
    4    9    5     -0.54      0.40
    4    9    6      0.80     -1.04
    4    9    7     -0.63      0.36
    4    9    8      0.81      0.72
    4    9    9      1.34      0.31
    4    9   10     -0.71      0.68
    4    9   11     -0.43     -0.14
    4    9   12      0.66      0.32
    4    9   13      0.64     -0.16
    4    9   14     -0.51      0.94
    4    9   15      2.11     -2.54
    4    9   16      0.92      0.30
    4    9   17      3.06      0.25
    3    9    0      0.05      0.19
    3    9    1      0.60     -1.78
    3    9    2      1.91      0.91
    3    9    3     -0.05     -0.04
    3    9    4     -1.41     -3.04
    3    9    5      0.69      3.77
    3    9    6      1.36     -1.33
    3    9    7      2.70     -1.14
    3    9    8      1.82      1.72
    3    9    9     -1.00     -0.91
    3    9   10      0.28     -0.69
    3    9   11      0.95     -0.22
    3    9   12     -0.32      1.20
    3    9   13      2.30      3.15
    3    9   14      0.60      1.14
    3    9   15     -0.28     -1.47
    3    9   16      1.15     -2.23
    3    9   17     -0.21      1.03
    2    9    0      0.30      0.45
    2    9    1     -0.54     -1.99
    2    9    2      1.68     -3.21
    2    9    3      1.84      0.56
    2    9    4      0.30      1.33
    2    9    5      0.46     -0.33
    2    9    6     -1.21     -0.03
    2    9    7      0.74      0.02
    2    9    8      1.15     -2.97
    2    9    9      0.66     -0.78
    2    9   10      0.28      2.03
    2    9   11      0.58      0.62
    2    9   12      0.09     -1.06
    2    9   13     -0.67     -0.08
    2    9   14      0.87      0.47
    2    9   15      1.05      0.49
    2    9   16      0.47      3.09
    2    9   17     -3.07      1.23
    1    9    0      0.42      0.37
    1    9    1      0.18      1.04
    1    9    2      2.96     -1.05
    1    9    3     -1.15     -1.20
    1    9    4     -3.11     -1.15
    1    9    5      1.28      2.56
    1    9    6     -0.21     -1.25
    1    9    7     -0.08     -0.72
    1    9    8     -0.19     -0.09
    1    9    9      0.79     -0.64
    1    9   10      1.37     -0.10
    1    9   11      0.78      0.39
    1    9   12     -0.18      2.52
    1    9   13      0.43     -0.17
    1    9   14      1.39      0.05
    1    9   15     -1.98      0.27
    1    9   16      0.05      0.68
    1    9   17      0.63      0.18
    1    9   18     -1.59     -1.57
    0    9    1      1.50     -1.85
    0    9    2      0.51      0.10
    0    9    3     -0.95     -0.89
    0    9    4     -0.32     -0.73
    0    9    5      1.06     -0.93
    0    9    6      2.02     -0.37
    0    9    7      1.90      1.74
    0    9    8      0.18      1.75
    0    9    9      0.39     -0.49
    0    9   10      0.11      0.00
    0    9   11     -0.09     -0.02
    0    9   12      0.02     -0.77
    0    9   13     -0.12      0.25
    0    9   14     -0.05      0.04
    0    9   15     -0.62     -0.78
    0    9   16      0.52     -0.01
    0    9   17     -1.65      1.61
    0    9   18      0.90      0.05
    9    9    0     -3.71      0.24
    9    9    1      0.26     -1.09
    9    9    2     -2.14     -0.46
    9    9    3     -0.10      0.41
    9    9    4      1.10     -0.17
    9    9    5     -0.35     -2.40
    9    9    6      0.36     -0.24
    9    9    7     -0.31     -1.50
    9    9    8      0.55     -1.36
    9    9    9      1.61      0.16
    9    9   10     -0.12      0.16
    9    9   11      0.35     -0.04
    9    9   12     -0.23     -0.12
    9    9   13     -0.39     -0.57
    9    9   14     -0.66     -0.08
    9   10    0      0.92     -0.01
    9   10    1      0.72     -0.44
    9   10    2     -0.07      0.21
    9   10    3     -0.58      0.39
    9   10    4     -0.07     -1.93
    9   10    5     -0.41     -1.27
    9   10    6     -1.54     -0.53
    9   10    7     -0.47     -1.39
    9   10    8      0.09      0.52
    9   10    9      0.86     -0.95
    9   10   10      0.77     -0.86
    9   10   11      0.60     -0.89
    9   10   12      0.00      0.25
    9   10   13     -0.93     -0.58
    9   10   14     -0.35      0.61
    8   10    0     -0.87     -0.09
    8   10    1      0.07     -0.54
    8   10    2     -0.55      0.02
    8   10    3      0.73      2.08
    8   10    4      0.69     -1.31
    8   10    5     -0.20      0.18
    8   10    6      1.38      0.22
    8   10    7      0.30     -1.99
    8   10    8      1.57     -0.94
    8   10    9     -0.56      0.77
    8   10   10      0.05     -0.09
    8   10   11      0.27      0.71
    8   10   12     -1.96     -0.62
    8   10   13     -0.43     -0.87
    8   10   14      0.24      0.07
    7   10    0      1.82      0.37
    7   10    1     -0.07      1.67
    7   10    2      0.66     -0.56
    7   10    3      0.74     -0.82
    7   10    4      1.80     -0.28
    7   10    5     -0.05      0.54
    7   10    6     -0.29      0.96
    7   10    7      0.20      2.37
    7   10    8      0.70      0.49
    7   10    9      0.54      1.97
    7   10   10      1.45     -0.51
    7   10   11     -0.51      0.12
    7   10   12     -1.39     -0.81
    7   10   13      0.38     -0.65
    7   10   14      0.27      1.20
    7   10   15     -0.56      0.46
    6   10    0      1.35     -0.10
    6   10    1     -2.39     -0.50
    6   10    2      1.03      0.66
    6   10    3      0.62      1.13
    6   10    4     -0.14      0.86
    6   10    5      2.09      2.33
    6   10    6     -0.07      0.24
    6   10    7      0.88      1.95
    6   10    8      1.07     -0.22
    6   10    9     -0.05      1.53
    6   10   10     -0.11      0.90
    6   10   11      0.15      0.78
    6   10   12     -0.96      0.70
    6   10   13      0.85      0.88
    6   10   14     -0.10     -1.38
    6   10   15      0.18      0.19
    5   10    0      1.60      0.05
    5   10    1     -1.60      1.14
    5   10    2     -0.71      0.11
    5   10    3      0.42     -0.50
    5   10    4     -0.16     -0.88
    5   10    5     -1.76      1.03
    5   10    6     -1.36     -0.05
    5   10    7      0.28     -1.00
    5   10    8      0.16      0.93
    5   10    9      1.79     -0.01
    5   10   10      0.27      0.55
    5   10   11     -0.62      0.05
    5   10   12     -0.41     -0.61
    5   10   13      0.82      0.57
    5   10   14     -1.97      1.27
    5   10   15      0.06     -1.92
    5   10   16     -0.28     -3.20
    4   10    0     -1.77      0.17
    4   10    1      0.11     -0.32
    4   10    2      1.26      0.28
    4   10    3     -0.88      0.80
    4   10    4     -0.89     -2.26
    4   10    5     -1.18      0.02
    4   10    6      1.35     -1.73
    4   10    7      2.29     -1.49
    4   10    8      1.38      1.37
    4   10    9     -0.38     -1.41
    4   10   10     -0.21      0.45
    4   10   11     -0.40     -0.67
    4   10   12      0.70     -1.16
    4   10   13      0.24      0.51
    4   10   14      0.25      0.85
    4   10   15      0.14     -0.24
    4   10   16     -1.26      0.20
    3   10    0     -3.14      0.30
    3   10    1     -1.89     -2.44
    3   10    2      0.94     -0.68
    3   10    3      1.37     -0.91
    3   10    4     -0.97     -1.58
    3   10    5      1.97     -0.15
    3   10    6      0.95      0.14
    3   10    7     -0.77     -0.32
    3   10    8      1.60     -0.02
    3   10    9      0.04     -0.93
    3   10   10      0.45      0.31
    3   10   11      0.46     -0.24
    3   10   12      1.70      0.86
    3   10   13     -1.37     -0.17
    3   10   14      0.78     -0.07
    3   10   15      2.11     -1.05
    3   10   16      0.84      2.91
    3   10   17      0.48      0.26
    2   10    0      0.22      0.34
    2   10    1      2.37     -1.78
    2   10    2      0.79      0.39
    2   10    3     -0.19     -1.74
    2   10    4     -0.90      1.67
    2   10    5      0.78      3.73
    2   10    6      2.00     -1.67
    2   10    7      0.51      0.44
    2   10    8     -0.84      0.57
    2   10    9     -0.73     -1.21
    2   10   10      2.53     -0.76
    2   10   11      1.19      0.35
    2   10   12      0.70      0.96
    2   10   13      2.40     -0.23
    2   10   14     -0.62     -0.22
    2   10   15     -1.28     -1.17
    2   10   16      0.71      0.88
    2   10   17     -1.77      2.51
    1   10    0     -0.37      0.73
    1   10    1      0.69     -2.47
    1   10    2      1.32      1.36
    1   10    3     -0.27     -1.08
    1   10    4     -0.30      0.44
    1   10    5     -1.51     -0.55
    1   10    6     -0.31     -1.29
    1   10    7      0.49     -0.19
    1   10    8      0.99     -1.48
    1   10    9      0.11      0.30
    1   10   10      0.06      0.40
    1   10   11      0.94     -1.68
    1   10   12      0.85     -2.59
    1   10   13      0.43      0.37
    1   10   14      1.28      0.85
    1   10   15     -0.91      2.26
    1   10   16     -1.52      1.07
    1   10   17     -1.82     -1.38
    0   10    0      2.66      0.28
    0   10    1     -0.75     -1.14
    0   10    2      0.00     -0.71
    0   10    3     -2.19      2.65
    0   10    4     -0.57      0.01
    0   10    5     -0.06      0.26
    0   10    6      0.04     -1.87
    0   10    7     -1.00      0.95
    0   10    8     -0.35      0.08
    0   10    9      1.15      0.97
    0   10   10      0.06     -0.54
    0   10   11      0.00     -0.07
    0   10   12     -0.29     -0.05
    0   10   13     -0.94     -0.59
    0   10   14      0.01     -0.32
    0   10   15     -0.16     -0.02
    0   10   16      1.48     -0.08
    0   10   17      0.30     -0.17
   10   10    0      0.51     -0.08
   10   10    1      0.15      0.21
   10   10    2     -1.07     -1.55
   10   10    3     -0.89      1.39
   10   10    4     -0.97     -0.42
   10   10    5     -0.09     -2.23
   10   10    6     -0.21      0.43
   10   10    7     -1.80     -1.49
   10   10    8      0.26     -1.52
   10   10    9      0.57      0.12
   10   10   10     -0.18     -0.56
   10   10   11      0.39      0.41
   10   10   12     -0.78      0.03
   10   10   13     -0.16     -0.62
   10   11    0     -0.45     -0.61
   10   11    1      0.28     -0.59
   10   11    2      0.50      0.16
   10   11    3     -0.29     -1.44
   10   11    4      0.57      0.49
   10   11    5     -1.25      0.57
   10   11    6     -0.43      0.02
   10   11    7      0.40      0.57
   10   11    8     -0.97     -0.77
   10   11    9      0.09     -0.89
   10   11   10     -0.01     -0.56
   10   11   11      0.08     -0.95
   10   11   12      0.01      0.25
    9   11    0      0.05      0.02
    9   11    1     -1.38     -1.24
    9   11    2     -0.63      0.07
    9   11    3      0.20      2.33
    9   11    4      0.34     -0.95
    9   11    5      1.05      0.45
    9   11    6     -0.69     -0.64
    9   11    7     -0.66     -1.27
    9   11    8      0.31      0.34
    9   11    9     -0.61     -0.98
    9   11   10      0.26      0.18
    9   11   11     -0.31      0.93
    9   11   12     -1.18     -0.76
    9   11   13      0.24      0.36
    8   11    0      3.52      0.73
    8   11    1     -0.56      0.13
    8   11    2     -0.70      2.36
    8   11    3     -0.90     -1.12
    8   11    4      0.91     -1.14
    8   11    5     -0.71      1.90
    8   11    6      0.42     -0.06
    8   11    7      0.74      0.96
    8   11    8      1.70     -0.04
    8   11    9      0.79     -0.95
    8   11   10      0.10     -0.30
    8   11   11     -0.74     -0.36
    8   11   12     -0.58      1.05
    8   11   13      0.06      0.46
    7   11    0     -0.72      0.17
    7   11    1     -0.91     -0.79
    7   11    2      0.53      1.12
    7   11    3     -0.87      1.59
    7   11    4      1.21     -1.32
    7   11    5      0.90      0.71
    7   11    6      1.79     -0.91
    7   11    7      0.68     -0.64
    7   11    8     -0.14      0.46
    7   11    9      0.26      1.91
    7   11   10      0.83      0.93
    7   11   11     -0.47      0.09
    7   11   12      0.01     -1.36
    7   11   13      0.43      0.81
    7   11   14      0.04      0.61
    6   11    0      1.47      0.01
    6   11    1     -2.43     -0.32
    6   11    2      0.91     -2.11
    6   11    3      1.16     -1.25
    6   11    4      0.70      0.95
    6   11    5     -1.80      0.42
    6   11    6     -1.21      0.63
    6   11    7      1.22      1.18
    6   11    8      0.83      0.17
    6   11    9      1.78      0.26
    6   11   10      0.00     -0.11
    6   11   11     -0.15      1.03
    6   11   12      0.15     -0.01
    6   11   13      0.28      0.49
    6   11   14     -0.92      1.31
    6   11   15      0.19      0.75
    5   11    0     -1.18      0.04
    5   11    1     -0.42     -1.68
    5   11    2      1.84      1.18
    5   11    3     -0.64     -0.07
    5   11    4     -0.56     -0.96
    5   11    5      1.15      0.04
    5   11    6     -0.34     -0.98
    5   11    7      1.09     -1.09
    5   11    8      0.84     -0.23
    5   11    9      0.66     -0.85
    5   11   10     -0.80      0.04
    5   11   11      0.07     -1.05
    5   11   12     -0.19      1.27
    5   11   13      0.10      0.59
    5   11   14      0.08     -1.27
    5   11   15      0.57      1.25
    4   11    0     -1.98      0.40
    4   11    1     -0.31      0.16
    4   11    2     -0.18     -0.74
    4   11    3      1.07     -1.02
    4   11    4     -1.82     -1.48
    4   11    5     -0.97      0.05
    4   11    6      0.40     -1.89
    4   11    7      1.30     -1.89
    4   11    8     -0.32      0.36
    4   11    9      0.43     -0.65
    4   11   10     -0.06     -0.22
    4   11   11      0.36     -1.47
    4   11   12      0.29      0.14
    4   11   13      0.34     -0.51
    4   11   14     -1.04      1.24
    4   11   15      0.47     -1.53
    3   11    0     -0.99      0.44
    3   11    1      1.62     -0.03
    3   11    2     -0.28     -1.30
    3   11    3      0.59     -1.06
    3   11    4      0.07     -0.26
    3   11    5      0.33      0.21
    3   11    6      1.46     -0.30
    3   11    7      0.73      0.58
    3   11    8      0.25      0.24
    3   11    9     -0.32     -1.88
    3   11   10      1.18      0.59
    3   11   11      0.52     -1.22
    3   11   12     -0.36     -0.69
    3   11   13     -0.83     -0.27
    3   11   14      0.65     -0.09
    3   11   15     -0.53      0.09
    3   11   16      0.00      1.96
    2   11    0     -1.70      0.46
    2   11    1      1.04     -2.22
    2   11    2     -0.12      1.04
    2   11    3      0.33     -1.81
    2   11    4     -0.18      1.03
    2   11    5      0.23      0.19
    2   11    6      0.38      0.79
    2   11    7     -2.39      0.24
    2   11    8     -0.09      0.15
    2   11    9     -0.16      0.29
    2   11   10     -0.42     -0.10
    2   11   11      0.86     -1.58
    2   11   12      0.58     -0.20
    2   11   13     -1.22     -0.77
    2   11   14      3.58      0.97
    2   11   15      0.29      0.63
    2   11   16     -0.63      1.65
    1   11    0      0.60      0.04
    1   11    1      0.10     -2.52
    1   11    2     -0.24      1.79
    1   11    3     -1.23      1.19
    1   11    4     -0.71      3.24
    1   11    5     -0.01      0.62
    1   11    6      1.75     -1.05
    1   11    7     -1.36      1.55
    1   11    8     -0.02      0.82
    1   11    9      1.38     -0.33
    1   11   10      1.32     -1.04
    1   11   11     -0.09      0.56
    1   11   12      0.50     -0.97
    1   11   13      0.45     -0.37
    1   11   14     -1.78      0.05
    1   11   15      0.48      0.03
    1   11   16      0.49      0.40
    0   11    1      0.18     -0.72
    0   11    2      0.61     -0.10
    0   11    3     -1.31     -1.07
    0   11    4      0.12      0.99
    0   11    5      0.22     -0.62
    0   11    6     -0.37      0.18
    0   11    7      0.20      0.23
    0   11    8     -0.10     -2.15
    0   11    9     -0.35      0.40
    0   11   10     -0.28     -0.22
    0   11   11     -0.19     -0.27
    0   11   12      0.18     -1.17
    0   11   13     -1.08      0.80
    0   11   14      0.75      0.07
    0   11   15     -0.17     -0.21
    0   11   16     -0.26     -2.80
   11   11    0      0.33     -0.15
   11   11    1     -0.19     -1.33
   11   11    2      0.76     -0.23
   11   11    3     -2.54      1.92
   11   11    4      0.51     -0.26
   11   11    5      0.31     -1.15
   11   11    6     -1.79      0.68
   11   11    7     -0.92     -0.85
   11   11    8     -0.40      0.03
   11   11    9     -0.18      0.61
   11   11   10      0.87     -0.36
   11   12    0      0.63     -0.01
   11   12    1     -0.54     -0.11
   11   12    2      0.06     -0.77
   11   12    3      0.78     -1.19
   11   12    4      0.68      0.49
   11   12    5     -0.26     -0.60
   11   12    6      0.26      0.31
   11   12    7     -0.19      0.05
   11   12    8      0.12      0.07
   11   12    9     -0.62     -0.18
   10   12    0     -0.70      0.33
   10   12    1      0.57     -0.88
   10   12    2     -2.36      1.41
   10   12    3     -1.39      1.66
   10   12    4      2.03     -1.37
   10   12    5     -0.37      0.13
   10   12    6     -0.56      0.00
   10   12    7     -0.07     -0.28
   10   12    8     -0.75      0.77
   10   12    9      0.68      0.26
   10   12   10     -0.51      0.20
    9   12    0     -0.34      0.56
    9   12    1      1.35      0.10
    9   12    2     -1.14      1.72
    9   12    3      0.97     -0.69
    9   12    4     -0.39      1.28
    9   12    5     -0.80     -0.10
    9   12    6      2.23      0.81
    9   12    7      0.07     -0.58
    9   12    8     -1.15     -1.80
    9   12    9     -0.03      0.18
    9   12   10     -0.60      0.33
    9   12   11      0.36     -0.09
    8   12    0     -0.50      0.38
    8   12    1     -1.69     -0.77
    8   12    2      0.19      1.86
    8   12    3      0.49      0.44
    8   12    4      0.82      0.73
    8   12    5      0.43     -0.67
    8   12    6     -1.26     -1.82
    8   12    7     -0.49      0.46
    8   12    8      1.20      0.29
    8   12    9      0.34      0.44
    8   12   10      0.45      0.84
    8   12   11     -0.65     -0.25
    8   12   12     -0.20     -0.62
    7   12    0      1.21      0.20
    7   12    1     -3.10     -0.14
    7   12    2     -0.14      0.20
    7   12    3      0.03     -3.15
    7   12    4     -0.28      1.20
    7   12    5      0.42      0.76
    7   12    6      0.05     -0.31
    7   12    7      0.08      0.12
    7   12    8      1.95     -0.83
    7   12    9      0.13     -0.13
    7   12   10      0.53     -0.84
    7   12   11      0.49      0.78
    7   12   12      0.16      1.48
    7   12   13      0.40     -0.39
    6   12    0     -2.08     -0.07
    6   12    1      0.14     -1.52
    6   12    2     -0.62      1.30
    6   12    3     -0.37     -0.87
    6   12    4      0.37     -2.41
    6   12    5      0.06     -0.68
    6   12    6     -0.18     -0.50
    6   12    7     -0.39     -0.71
    6   12    8     -0.30      0.68
    6   12    9      0.37      0.35
    6   12   10      0.01     -0.74
    6   12   11      0.62     -0.85
    6   12   12     -0.14     -0.73
    6   12   13      0.37      1.44
    6   12   14      0.07      0.52
    5   12    0     -1.30      0.16
    5   12    1     -0.65     -1.08
    5   12    2      0.91     -1.97
    5   12    3      0.96      1.19
    5   12    4     -2.87      0.80
    5   12    5     -2.68     -0.33
    5   12    6     -0.36     -0.44
    5   12    7      1.14     -0.99
    5   12    8      0.15     -0.34
    5   12    9      0.57      0.09
    5   12   10     -0.64     -0.33
    5   12   11     -0.15      1.04
    5   12   12     -1.05     -1.06
    5   12   13      0.52      0.15
    5   12   14     -0.46      1.85
    4   12    0     -0.19      0.07
    4   12    1      0.80     -0.40
    4   12    2     -0.31     -0.09
    4   12    3     -0.76     -0.73
    4   12    4     -0.58     -0.65
    4   12    5      1.30      0.12
    4   12    6     -0.47     -0.08
    4   12    7      0.23      0.22
    4   12    8     -0.66     -0.78
    4   12    9     -0.65     -1.05
    4   12   10     -0.81     -0.67
    4   12   11      1.39     -0.37
    4   12   12     -0.83      1.77
    4   12   13     -0.10     -0.10
    4   12   14      0.44     -0.25
    3   12    0     -1.03      0.19
    3   12    1      0.51     -0.51
    3   12    2     -1.17     -0.13
    3   12    3      0.92     -1.18
    3   12    4     -1.66      0.82
    3   12    5      0.60     -0.26
    3   12    6      1.04     -0.04
    3   12    7     -1.66      0.87
    3   12    8     -1.05      1.21
    3   12    9      0.00      0.30
    3   12   10     -0.25     -1.27
    3   12   11      0.48     -1.66
    3   12   12     -0.02     -0.13
    3   12   13      0.56     -1.38
    3   12   14      0.36      1.69
    3   12   15      1.06     -1.50
    2   12    0     -1.22      0.18
    2   12    1      0.58     -0.98
    2   12    2      0.22     -0.01
    2   12    3      0.72      1.26
    2   12    4     -0.22      0.81
    2   12    5     -0.74      0.29
    2   12    6      1.22      0.01
    2   12    7     -0.09     -0.09
    2   12    8      1.89     -0.21
    2   12    9      1.22     -0.82
    2   12   10     -0.37      0.00
    2   12   11     -1.86     -0.54
    2   12   12      0.24     -1.18
    2   12   13     -0.49     -1.41
    2   12   14      1.36      0.12
    2   12   15     -0.15      1.27
    1   12    0     -1.32      0.01
    1   12    1     -0.06     -0.60
    1   12    2     -0.40      0.19
    1   12    3     -0.79     -0.22
    1   12    4      0.13      0.13
    1   12    5      0.68     -0.82
    1   12    6     -0.91      1.06
    1   12    7     -1.92      0.41
    1   12    8     -0.06     -0.45
    1   12    9     -0.46      1.10
    1   12   10      0.49     -1.40
    1   12   11      0.69     -0.03
    1   12   12      0.28     -0.06
    1   12   13     -0.31      0.51
    1   12   14      1.93      0.64
    1   12   15     -1.83     -0.74
    0   12    0     -0.18     -0.34
    0   12    1      0.16      0.21
    0   12    2     -0.09      1.56
    0   12    3     -0.38      0.26
    0   12    4     -0.72     -0.04
    0   12    5      1.40      1.08
    0   12    6      0.10      1.07
    0   12    7     -0.84      0.96
    0   12    8      0.99      0.03
    0   12    9     -0.28     -0.21
    0   12   10      0.14      0.09
    0   12   11     -0.16      0.05
    0   12   12     -0.05      0.15
    0   12   13      0.02      0.00
    0   12   14     -0.04     -0.74
    0   12   15      0.27     -0.23
   12   12    0     -0.94     -0.55
   12   12    1      0.29     -0.15
   12   12    2      1.15      0.95
   12   12    3     -0.90     -0.93
   12   12    4      0.43      0.52
   12   12    5      0.02     -0.26
   12   12    6     -0.18      0.03
   12   12    7     -0.26      1.26
   12   13    0      0.62     -0.02
   12   13    1      0.06     -0.91
   12   13    2     -0.55      0.09
   12   13    3     -0.34     -0.33
   12   13    4     -0.02      0.05
   12   13    5      0.00     -0.63
   11   13    0      0.02      0.39
   11   13    1      1.52      0.94
   11   13    2     -0.84      0.28
   11   13    3     -0.06      0.56
   11   13    4      0.12      0.53
   11   13    5     -0.16     -0.26
   11   13    6      0.18      0.83
   11   13    7     -0.73      0.87
   10   13    0     -0.33      0.09
   10   13    1     -0.76      0.07
   10   13    2     -0.31     -0.66
   10   13    3      1.78      0.62
   10   13    4     -1.01      0.46
   10   13    5      0.24     -0.28
   10   13    6     -0.15      0.44
   10   13    7     -0.63     -0.16
   10   13    8     -0.17     -0.29
   10   13    9     -0.53      0.50
    9   13    0     -0.67      0.25
    9   13    1     -0.33     -0.82
    9   13    2     -2.55      0.98
    9   13    3      0.84     -0.46
    9   13    4      0.92     -1.28
    9   13    5     -0.08      0.74
    9   13    6     -0.60     -0.41
    9   13    7     -1.08     -0.20
    9   13    8      0.91      1.20
    9   13    9      0.20      0.23
    9   13   10     -0.98     -0.55
    8   13    0      1.43      0.16
    8   13    1     -0.20     -0.48
    8   13    2     -0.43      0.58
    8   13    3      0.64     -1.23
    8   13    4     -1.33     -0.36
    8   13    5      1.26     -0.41
    8   13    6      1.16      0.40
    8   13    7     -1.17     -1.25
    8   13    8      0.15      0.06
    8   13    9      0.41      0.37
    8   13   10      1.18     -0.40
    8   13   11      0.67     -0.04
    7   13    0     -0.61     -0.06
    7   13    1     -1.68      0.21
    7   13    2      0.91      0.74
    7   13    3      1.01     -0.04
    7   13    4     -0.51     -0.31
    7   13    5     -0.78     -1.80
    7   13    6     -1.56     -0.41
    7   13    7      2.02      0.88
    7   13    8      0.91      0.25
    7   13    9     -0.62     -0.43
    7   13   10      0.02     -0.62
    7   13   11     -0.53     -0.15
    7   13   12     -0.39     -1.16
    6   13    0     -2.43     -0.11
    6   13    1     -0.78      0.13
    6   13    2      1.40     -1.37
    6   13    3     -0.34      0.42
    6   13    4     -0.54      1.62
    6   13    5      0.18      0.64
    6   13    6     -2.07     -0.11
    6   13    7      0.62     -0.44
    6   13    8      0.36     -0.73
    6   13    9     -0.16      0.13
    6   13   10      0.76     -0.38
    6   13   11     -0.76      1.35
    6   13   12     -0.09      0.18
    5   13    0     -1.01     -0.14
    5   13    1      0.65      0.81
    5   13    2     -1.63      0.21
    5   13    3      0.49     -0.36
    5   13    4     -0.64     -1.03
    5   13    5     -0.14      1.55
    5   13    6     -0.07      0.46
    5   13    7     -0.20      0.83
    5   13    8     -0.91      0.55
    5   13    9     -0.80      0.13
    5   13   10     -0.15     -0.31
    5   13   11      0.45      0.06
    5   13   12     -0.28     -0.31
    5   13   13     -0.16      1.40
    4   13    0     -0.67     -0.01
    4   13    1      0.36      0.15
    4   13    2     -0.30      0.13
    4   13    3      0.30      1.83
    4   13    4     -2.93     -0.12
    4   13    5      0.57      0.12
    4   13    6      1.42     -0.05
    4   13    7     -1.05      0.79
    4   13    8      0.50      1.59
    4   13    9      0.10      0.79
    4   13   10     -2.31      0.28
    4   13   11     -0.71      0.63
    4   13   12     -0.76     -0.47
    4   13   13      0.46     -0.19
    3   13    0     -0.60      0.20
    3   13    1      0.14     -0.24
    3   13    2      0.59      0.48
    3   13    3     -0.48     -0.05
    3   13    4      0.58      0.83
    3   13    5     -0.61      0.45
    3   13    6      0.05      0.96
    3   13    7     -0.84     -1.08
    3   13    8     -0.40     -1.18
    3   13    9      0.03     -0.45
    3   13   10      0.65     -0.16
    3   13   11      0.02      0.03
    3   13   12     -1.04      1.40
    3   13   13      0.32     -1.59
    3   13   14      0.49     -0.31
    2   13    0     -0.21     -0.10
    2   13    1     -0.40      0.16
    2   13    2     -0.32      0.36
    2   13    3     -0.92     -0.13
    2   13    4     -0.56      0.79
    2   13    5      0.76     -0.56
    2   13    6     -0.66      1.12
    2   13    7     -0.64      0.23
    2   13    8      0.26     -0.46
    2   13    9     -0.58     -0.57
    2   13   10      1.47     -2.28
    2   13   11      0.20     -0.61
    2   13   12      0.86     -0.67
    2   13   13      0.00     -0.55
    2   13   14      0.65      1.46
    1   13    0      0.24     -0.23
    1   13    1      0.41     -0.15
    1   13    2     -0.50     -0.61
    1   13    3     -0.53      0.69
    1   13    4     -0.58     -1.47
    1   13    5      1.34      0.67
    1   13    6      0.82     -0.72
    1   13    7      1.67      0.20
    1   13    8      1.95     -0.06
    1   13    9     -0.75     -0.44
    1   13   10     -1.93      0.61
    1   13   11     -0.20      0.27
    1   13   12     -0.06     -2.15
    1   13   13     -0.64      0.29
    1   13   14      0.92      0.56
    0   13    1      0.35     -0.34
    0   13    2     -0.58     -0.14
    0   13    3     -0.15     -0.13
    0   13    4     -0.14     -1.44
    0   13    5     -0.52      0.58
    0   13    6     -1.23      0.03
    0   13    7     -0.53     -0.74
    0   13    8     -0.04      1.06
    0   13    9      0.14     -0.18
    0   13   10      0.85     -0.03
    0   13   11     -0.32      0.45
    0   13   12     -0.05      0.28
    0   13   13     -0.49      0.72
    0   13   14     -0.25     -0.04
   11   14    0      0.12      0.01
   11   14    1     -0.70     -0.09
   11   14    2     -0.81      0.53
   11   14    3      0.22      0.38
   11   14    4      0.13     -0.17
   10   14    0     -0.16      0.36
   10   14    1     -0.39      0.98
   10   14    2     -1.19      0.56
   10   14    3     -1.06      0.55
   10   14    4     -0.34     -0.59
   10   14    5      0.03      0.32
   10   14    6     -0.20      0.53
    9   14    0      0.42     -0.13
    9   14    1     -1.44     -1.02
    9   14    2      0.65     -0.25
    9   14    3      0.34      0.10
    9   14    4     -0.69     -0.70
    9   14    5     -0.17     -0.74
    9   14    6     -0.83     -0.33
    9   14    7      0.17     -0.43
    9   14    8      0.56      0.23
    8   14    0      0.65     -0.08
    8   14    1     -0.89     -1.51
    8   14    2      0.69     -0.04
    8   14    3      1.38     -1.36
    8   14    4     -0.32     -0.74
    8   14    5     -0.50      0.57
    8   14    6     -0.90     -1.38
    8   14    7      0.67      0.34
    8   14    8      0.94      0.36
    8   14    9     -0.66     -0.69
    7   14    0      1.06     -0.50
    7   14    1      0.21      0.55
    7   14    2      0.69     -0.03
    7   14    3      0.25     -0.82
    7   14    4      0.21     -0.50
    7   14    5      1.22      0.76
    7   14    6     -0.12      0.03
    7   14    7     -0.18     -0.01
    7   14    8      0.40     -0.38
    7   14    9      0.93     -0.27
    7   14   10      0.45      0.13
    6   14    0      0.12     -0.11
    6   14    1     -0.02      1.39
    6   14    2      1.91     -1.34
    6   14    3      0.87      1.05
    6   14    4     -1.01     -0.32
    6   14    5     -0.02      0.45
    6   14    6      0.79      0.08
    6   14    7      0.45      0.33
    6   14    8     -1.14     -0.44
    6   14    9     -0.55     -0.24
    6   14   10     -0.01      0.25
    6   14   11     -0.10      0.23
    5   14    0     -0.16     -0.01
    5   14    1      1.46      0.46
    5   14    2      0.88     -0.61
    5   14    3     -0.11      1.96
    5   14    4     -0.17     -0.03
    5   14    5     -0.75      0.24
    5   14    6     -0.14      0.44
    5   14    7     -0.08      0.17
    5   14    8      0.81      0.70
    5   14    9      0.21      1.64
    5   14   10     -0.09     -0.27
    5   14   11     -0.23      1.04
    5   14   12      0.72      0.87
    4   14    0     -0.01      0.23
    4   14    1      0.35      0.26
    4   14    2     -0.53     -0.44
    4   14    3      1.16     -0.14
    4   14    4      0.30      0.55
    4   14    5      0.51      0.85
    4   14    6      0.97      1.40
    4   14    7     -0.20      0.36
    4   14    8     -1.29      0.58
    4   14    9     -0.81      0.05
    4   14   10      0.45      0.14
    4   14   11      0.26     -0.75
    4   14   12     -0.85     -0.29
    3   14    0      0.55     -0.04
    3   14    1      0.11     -0.13
    3   14    2      0.25      0.59
    3   14    3     -0.57      0.19
    3   14    4     -0.12      0.32
    3   14    5      1.96      0.04
    3   14    6     -1.20      0.01
    3   14    7     -0.71      0.34
    3   14    8      1.10      0.61
    3   14    9     -1.46     -0.82
    3   14   10     -1.37      0.09
    3   14   11     -0.18      0.18
    3   14   12     -0.17     -1.20
    2   14    0      0.48      0.15
    2   14    1     -0.58      0.32
    2   14    2      0.13     -0.20
    2   14    3     -1.88      0.07
    2   14    4     -0.17     -0.15
    2   14    5     -0.31     -0.23
    2   14    6      0.49     -0.90
    2   14    7      0.77     -1.41
    2   14    8      0.51     -0.45
    2   14    9      0.70     -0.06
    2   14   10      0.46      0.42
    2   14   11     -1.13      0.70
    2   14   12      0.14     -0.41
    2   14   13     -0.21      0.09
    1   14    0     -0.24     -0.16
    1   14    1     -1.23     -0.34
    1   14    2     -0.56      0.46
    1   14    3     -0.58      0.06
    1   14    4      0.09      0.02
    1   14    5      0.07      0.77
    1   14    6      0.24      0.00
    1   14    7      0.89     -0.96
    1   14    8     -0.65     -0.30
    1   14    9      0.80     -0.38
    1   14   10      0.80     -0.55
    1   14   11     -0.64      0.75
    1   14   12     -0.25      0.41
    1   14   13     -0.14      1.21
    0   14    0      0.05     -0.01
    0   14    1     -0.69     -0.17
    0   14    2     -0.02     -0.35
    0   14    3     -0.28      0.26
    0   14    4      0.26     -0.04
    0   14    5      1.06      1.09
    0   14    6      0.18     -0.27
    0   14    7      0.25     -0.20
    0   14    8      0.22     -0.09
    0   14    9     -0.96     -0.72
    0   14   10      0.04      1.28
    0   14   11      0.31     -0.57
    0   14   12     -0.80     -0.07
    0   14   13      1.02      1.22
   10   15    0      0.11     -0.04
   10   15    1     -1.02     -0.31
   10   15    2     -0.05      0.23
   10   15    3     -0.15     -0.38
    9   15    0     -0.65      0.19
    9   15    1     -0.64     -0.45
    9   15    2     -0.39     -0.39
    9   15    3     -0.70     -0.77
    9   15    4      0.07     -0.71
    9   15    5     -0.42      0.28
    8   15    0      1.31     -0.26
    8   15    1     -0.79     -0.72
    8   15    2      1.19     -0.44
    8   15    3      0.06     -0.58
    8   15    4     -0.37     -0.96
    8   15    5     -0.61     -0.76
    8   15    6     -0.19     -0.41
    8   15    7      0.43     -0.66
    7   15    0     -0.38     -0.16
    7   15    1     -0.34     -1.55
    7   15    2      1.95     -1.84
    7   15    3     -0.47     -0.35
    7   15    4     -0.71      0.00
    7   15    5      0.39      0.61
    7   15    6     -0.25     -0.03
    7   15    7     -0.25      0.33
    7   15    8     -0.53      0.35
    6   15    0      1.97     -0.23
    6   15    1      0.12      0.14
    6   15    2     -0.04     -1.19
    6   15    3      0.61     -0.02
    6   15    4     -0.02     -0.05
    6   15    5      0.10      0.38
    6   15    6      0.50      0.55
    6   15    7      0.06     -0.05
    6   15    8      1.08      0.10
    6   15    9     -0.15      0.06
    5   15    0      1.69      0.20
    5   15    1      0.14     -0.58
    5   15    2      0.98     -0.77
    5   15    3     -1.07      0.56
    5   15    4     -0.53     -0.58
    5   15    5      1.04     -0.73
    5   15    6      0.29     -0.84
    5   15    7     -0.36     -0.29
    5   15    8      0.49      0.23
    5   15    9      0.36      0.40
    5   15   10      0.14      0.59
    4   15    0      0.40      0.09
    4   15    1      0.32     -1.33
    4   15    2     -0.28      0.17
    4   15    3     -0.57     -0.55
    4   15    4      0.04     -0.53
    4   15    5     -0.04      0.45
    4   15    6     -0.30      0.81
    4   15    7      0.60      0.08
    4   15    8      0.40      0.68
    4   15    9      0.25     -0.17
    4   15   10      0.04     -0.76
    3   15    0      0.59      0.15
    3   15    1     -0.74     -1.40
    3   15    2     -0.02      0.71
    3   15    3      0.37      0.38
    3   15    4     -0.20      0.70
    3   15    5      0.28      0.62
    3   15    6      0.16     -0.22
    3   15    7      0.21     -0.62
    3   15    8     -1.88     -0.57
    3   15    9      0.78     -0.75
    3   15   10      0.51     -0.08
    3   15   11     -0.47     -0.75
    2   15    0     -0.16     -0.09
    2   15    1     -0.55     -0.09
    2   15    2      0.02      0.87
    2   15    3      0.01      0.17
    2   15    4      0.59      0.16
    2   15    5      0.02      0.02
    2   15    6     -0.99     -1.23
    2   15    7      0.54      0.25
    2   15    8      0.43     -0.57
    2   15    9     -0.52      0.07
    2   15   10     -0.39      0.88
    2   15   11     -0.13      0.24
    1   15    0     -0.48      0.38
    1   15    1      0.17      0.10
    1   15    2      0.10     -0.96
    1   15    3     -0.76      0.33
    1   15    4      0.24     -0.65
    1   15    5      0.35      0.54
    1   15    6      1.26      0.27
    1   15    7      0.83     -0.08
    1   15    8     -0.07     -0.02
    1   15    9      0.33      0.63
    1   15   10     -0.22      0.96
    1   15   11     -0.19     -0.14
    0   15    1     -0.49      0.61
    0   15    2      0.11      0.24
    0   15    3     -0.07     -0.11
    0   15    4      0.00      1.17
    0   15    5      0.69     -0.51
    0   15    6      0.53     -0.04
    0   15    7     -0.44     -0.50
    0   15    8      0.10      0.49
    0   15    9      0.29     -0.04
    0   15   10     -0.57      0.12
    0   15   11      0.46      0.75
    8   16    0     -1.82     -0.03
    8   16    1     -0.64     -0.68
    8   16    2      0.00     -0.35
    8   16    3     -0.69     -0.18
    8   16    4     -0.13     -0.17
    7   16    0      0.79     -0.12
    7   16    1     -0.88     -0.80
    7   16    2     -0.42     -0.99
    7   16    3     -0.46      0.36
    7   16    4     -0.37     -0.45
    7   16    5     -0.31      0.01
    7   16    6      0.09      0.10
    6   16    0     -1.10      0.08
    6   16    1      1.16     -2.67
    6   16    2      0.04      0.19
    6   16    3     -1.30      1.02
    6   16    4     -0.20      0.61
    6   16    5     -0.16      0.58
    6   16    6     -0.90      0.38
    6   16    7     -0.39     -0.64
    5   16    0     -0.43      0.07
    5   16    1     -1.22     -0.41
    5   16    2     -0.95      0.23
    5   16    3      0.03     -0.56
    5   16    4     -0.37      0.15
    5   16    5      0.59     -0.38
    5   16    6      0.96      0.31
    5   16    7      1.09      0.03
    5   16    8     -0.26     -0.29
    4   16    0     -0.33      0.22
    4   16    1     -0.81     -1.04
    4   16    2     -0.59      0.20
    4   16    3     -0.76     -0.95
    4   16    4      0.74     -0.12
    4   16    5      1.01     -0.45
    4   16    6     -0.46     -0.91
    4   16    7      0.27      0.64
    4   16    8     -0.07     -0.47
    3   16    0     -0.53      0.12
    3   16    1     -0.54     -0.97
    3   16    2     -0.40      0.71
    3   16    3      0.28     -0.41
    3   16    4     -0.24      0.64
    3   16    5     -0.88      0.89
    3   16    6      0.24     -0.17
    3   16    7      0.20     -0.08
    3   16    8      0.33     -0.96
    3   16    9      0.33      0.01
    2   16    0     -0.95      0.02
    2   16    1      0.04      0.12
    2   16    2     -0.02      0.37
    2   16    3     -0.68      0.94
    2   16    4      0.05     -0.35
    2   16    5     -0.15      0.13
    2   16    6      1.12     -0.77
    2   16    7     -0.15     -0.50
    2   16    8     -0.29     -0.54
    2   16    9      1.05      0.35
    1   16    0      0.29     -0.13
    1   16    1      0.48      0.88
    1   16    2      0.32     -0.43
    1   16    3      0.52      0.07
    1   16    4     -0.43     -0.01
    1   16    5      0.75     -0.57
    1   16    6     -0.72     -0.76
    1   16    7     -0.16      0.54
    1   16    8      0.74      0.43
    1   16    9     -0.23      0.68
    0   16    0      2.10      0.32
    0   16    1     -0.19     -0.45
    0   16    2     -0.14     -0.63
    0   16    3      0.19      0.06
    0   16    4     -0.23     -0.06
    0   16    5      1.17      1.24
    0   16    6      0.05      0.23
    0   16    7      0.36     -0.50
    0   16    8     -1.15      0.18
    0   16    9      0.62      0.42
    6   17    0      0.27      0.09
    6   17    1     -0.92     -0.43
    6   17    2     -0.85      0.83
    6   17    3      0.15      0.19
    5   17    0      0.09      0.07
    5   17    1      0.32     -0.82
    5   17    2     -1.22      1.49
    5   17    3     -0.29      0.05
    5   17    4     -0.32      0.13
    5   17    5     -0.06      0.15
    4   17    0     -1.61      0.21
    4   17    1     -0.24      0.11
    4   17    2     -0.24     -0.08
    4   17    3      1.07      0.21
    4   17    4      0.06      0.28
    4   17    5      0.21      0.20
    4   17    6      1.01      0.33
    3   17    0     -0.47      0.07
    3   17    1      0.42      0.36
    3   17    2      0.28     -0.73
    3   17    3     -0.65      0.54
    3   17    4      0.87      0.60
    3   17    5     -0.30     -0.25
    3   17    6     -0.43     -0.01
    2   17    0     -0.02     -0.24
    2   17    1     -0.50      0.06
    2   17    2     -0.05     -0.77
    2   17    3     -0.03      0.23
    2   17    4     -0.81      0.03
    2   17    5     -0.44      0.34
    2   17    6      0.51      0.04
    2   17    7     -0.13     -0.20
    1   17    0      0.49     -0.18
    1   17    1     -0.03     -0.71
    1   17    2     -1.12      0.21
    1   17    3      0.53      0.50
    1   17    4     -0.14     -1.32
    1   17    5      0.39      0.36
    1   17    6      0.37     -0.76
    1   17    7      0.06     -0.09
    0   17    1      0.00      0.19
    0   17    2      0.74     -0.25
    0   17    3     -0.35     -0.27
    0   17    4      0.08     -0.28
    0   17    5      0.93     -0.97
    0   17    6     -1.79     -0.09
    0   17    7      0.84      0.88
    3   18    0     -0.04     -0.03
    2   18    0      0.37     -0.16
    2   18    1      0.26      0.03
    2   18    2     -0.47     -0.57
    1   18    0      0.08     -0.23
    1   18    1     -0.62     -0.66
    1   18    2      0.08      0.28
    1   18    3     -0.20     -0.29
    0   18    0     -0.45     -0.04
    0   18    1     -0.17      0.04
    0   18    2      0.13      1.15
    0   18    3      0.86     -0.96
    1    1    0    119.78     -0.75
    2    2    0     -0.96     -0.44
    3    3    0     19.43     -0.45
   13   13    0      0.52     -0.37
    9   16    0     -0.14     -0.03
    7   17    0     -2.10      0.11
    0    1    1      4.44     -4.04
    1    1    1     -0.63   -105.73
    3    3    1     -0.71    -25.83
    9   16    1     -0.39     -1.12
    3   18    1     -0.19      0.52
    3   18    2     -0.01     -0.14
    2   18    3     -0.38      0.87
   10   15    4      0.01     -0.21
    6   17    4     -0.51      0.08
    0   18    4     -0.47     -0.08
    1   18    4     -0.94      0.12
   11   14    5      0.34      0.12
    9   15    6      0.26     -0.27
   10   14    7     -0.11      0.02
    3   17    7     -0.43      0.01
   12   12    8     -0.56      0.09
    7   15    9     -0.58      0.39
    4   16    9      0.06      0.58
    8   14   10      0.03      0.29
    0   16   10     -0.08     -0.01
    1   16   10     -0.01      0.04
    2   16   10      0.02      0.23
   11   11   11      0.09      0.46
   10   12   11     -0.93      0.23
    4   15   11     -0.05      0.95
    9   12   12      0.00      0.51
    0   15   12      0.01      0.52
    1   15   12      0.29      0.36
    6   13   13      0.99      0.05
    3   14   13      0.39     -1.32
    8   11   14      0.21     -0.15
    4   13   14     -0.18      0.65
    9    9   15     -0.14     -0.34
    4   12   15      0.33     -0.03
    6   10   16     -0.08     -0.01
    4   11   16      0.85     -0.92
    7    8   17     -0.47     -0.92
    6    7   18      0.67      0.58
    2    9   18      0.10      1.79
    3    4   20      0.29     -0.98
    0    5   20     -0.14      1.45
    1    5   20      1.60      0.27
    0    0    0      0.00      0.00
# SQUEEZE RESULTS (Version =  41016)
# Note: Data are Listed for all Voids in the P1 Unit Cell
# i.e. Centre of Gravity, Solvent Accessible Volume,
# Recovered number of Electrons in the Void and
# Details about the Squeezed Material
loop_
  _platon_squeeze_void_nr
  _platon_squeeze_void_average_x
  _platon_squeeze_void_average_y
  _platon_squeeze_void_average_z
  _platon_squeeze_void_volume
  _platon_squeeze_void_count_electrons
  _platon_squeeze_void_content
   1  0.000  0.000  0.009       597       153 ' '
   2  0.500  0.500  0.079       597       153 ' '
# Missing Reflections Below sin(th)/lambda = 0.25
loop_
  _platon_missing_refln_index_h
  _platon_missing_refln_index_k
  _platon_missing_refln_index_l
  _platon_missing_refln_theta
    1    1    0     2.048
    2    2    0     4.098
    3    3    0     6.153
    0    1    1     1.930
    1    1    1     2.413
    3    3    1     6.285
_platon_squeeze_void_probe_radius                  1.20
_platon_squeeze_details
)
TITL a in P4(3)2(1)2
CELL   14.0656   14.0656   15.9629     90.00     90.00     90.00
SPGR P43212
# Solvent Accessible Volume =      1192
# Electrons Found in S.A.V. =       304
# Note: Atoms in Void as Cxxx and Qxxx all others
C101 0.174 0.911 0.550 !       1.90 eA-3
C102 0.438 0.682 0.328 !       1.69 eA-3
C103 0.152 0.908 0.483 !       1.48 eA-3
C104 0.373 0.265 0.846 !       1.46 eA-3
C105 0.630 0.507 0.641 !       1.37 eA-3
C106 0.067 0.925 0.771 !       1.35 eA-3
C107 0.433 0.420 0.989 !       1.33 eA-3
Q108 0.863 0.406 0.813 !       1.31 eA-3
C109 0.190 0.873 0.610 !       1.19 eA-3
C110 0.333 0.293 0.873 !       1.16 eA-3
C111 0.936 0.025 0.938 !       1.15 eA-3
C112 0.500 0.421 0.825 !       1.03 eA-3
Q113 0.951 0.809 0.002 !       1.02 eA-3
C114 0.404 0.441 0.077 !       1.01 eA-3
Q115 0.324 0.712 0.344 !       1.01 eA-3
C116 0.618 0.672 0.407 !       0.98 eA-3
Q117 0.404 0.608 0.186 !       0.94 eA-3
C118 0.529 0.381 0.794 !       0.93 eA-3
C119 0.031 0.011 0.592 !       0.89 eA-3
C120 0.452 0.251 0.829 !       0.87 eA-3
C121 0.703 0.101 0.113 !       0.81 eA-3
Q122 0.828 0.151 0.440 !       0.78 eA-3
C123 0.031 0.993 0.637 !       0.76 eA-3
Q124 0.611 0.650 0.482 !       0.70 eA-3
Q125 0.659 0.043 0.138 !       0.70 eA-3
C126 0.235 0.929 0.613 !       0.70 eA-3
Q127 0.786 0.134 0.512 !       0.69 eA-3
C128 0.652 0.646 0.406 !       0.67 eA-3
Q129 0.362 0.319 0.029 !       0.65 eA-3
C130 0.177 0.428 0.162 !       0.64 eA-3
C131 0.562 0.439 0.751 !       0.61 eA-3
Q132 0.252 0.012 0.517 !       0.61 eA-3
C133 0.536 0.498 0.749 !       0.60 eA-3
C134 0.084 0.095 0.497 !       0.59 eA-3
C135 0.202 0.416 0.205 !       0.56 eA-3
Q136 0.513 0.768 0.406 !       0.56 eA-3
Q137 0.190 0.026 0.659 !       0.55 eA-3
Q138 0.154 0.863 0.376 !       0.53 eA-3
Q139 0.200 0.470 0.263 !       0.51 eA-3
Q140 0.863 0.098 0.378 !       0.51 eA-3
C141 0.320 0.312 0.004 !       0.51 eA-3
)
;
_shelx_fab_checksum              64853
loop_
_space_group_symop_operation_xyz
'x, y, z'
'-x, -y, z+1/2'
'-y+1/2, x+1/2, z+3/4'
'y+1/2, -x+1/2, z+1/4'
'-x+1/2, y+1/2, -z+3/4'
'x+1/2, -y+1/2, -z+1/4'
'y, x, -z'
'-y, -x, -z+1/2'
loop_
_atom_site_label
_atom_site_type_symbol
_atom_site_fract_x
_atom_site_fract_y
_atom_site_fract_z
_atom_site_U_iso_or_equiv
_atom_site_adp_type
_atom_site_occupancy
_atom_site_site_symmetry_order
_atom_site_calc_flag
_atom_site_refinement_flags_posn
_atom_site_refinement_flags_adp
_atom_site_refinement_flags_occupancy
Zn1 Zn 0.50506(4) 0.23068(4) 0.41039(4) 0.0376(2) Uani 1 1 d . . .
O3 O 0.6681(4) 0.4057(4) 0.1236(3) 0.0615(12) Uani 1 1 d . . .
N2 N 0.4531(3) 0.1785(3) 0.3013(3) 0.0359(9) Uani 1 1 d . . .
N3 N 0.3968(4) 0.3008(4) 0.4675(4) 0.0596(15) Uani 1 1 d . . .
C7 C 0.3894(4) 0.1089(4) 0.2898(3) 0.0339(11) Uani 1 1 d . . .
C5 C 0.4311(4) 0.1456(4) 0.1654(4) 0.0448(13) Uani 1 1 d . . .
C4 C 0.4465(6) 0.1511(6) 0.0771(4) 0.066(2) Uani 1 1 d . . .
H4 H 0.4148 0.1121 0.0393 0.079 Uiso 1 1 calc R U .
N1 N 0.3722(3) 0.0851(3) 0.2112(3) 0.0387(10) Uani 1 1 d . . .
C11 C 0.3839(5) 0.3839(5) 0.5000 0.056(2) Uani 1 2 d S T P
C2 C 0.5624(5) 0.2756(5) 0.1072(4) 0.0533(15) Uani 1 1 d . . .
C6 C 0.4806(4) 0.2043(4) 0.2207(3) 0.0367(10) Uani 1 1 d . . .
C8 C 0.3463(5) 0.0564(5) 0.3642(4) 0.0511(15) Uani 1 1 d . U .
H8 H 0.3474 0.0976 0.4137 0.061 Uiso 1 1 calc R U .
C10 C 0.6297(6) 0.3499(6) 0.0713(4) 0.0615(19) Uani 1 1 d . . .
C1 C 0.5454(5) 0.2698(4) 0.1909(4) 0.0479(13) Uani 1 1 d . . .
H1 H 0.5773 0.3097 0.2279 0.058 Uiso 1 1 calc R U .
O2 O 0.6476(6) 0.3510(7) -0.0036(4) 0.134(4) Uani 1 1 d . . .
N4 N 0.3116(6) 0.2587(6) 0.4781(8) 0.135(5) Uani 1 1 d . . .
C3 C 0.5125(6) 0.2190(5) 0.0516(4) 0.067(2) Uani 1 1 d . . .
H3 H 0.5236 0.2266 -0.0054 0.080 Uiso 1 1 calc R U .
O1 O 0.2533(7) 0.0319(7) 0.3454(8) 0.131(3) Uani 1 1 d . U .
H1A H 0.2265 0.0772 0.3234 0.196 Uiso 1 1 calc R U .
C9 C 0.3957(6) -0.0358(7) 0.3837(6) 0.085(3) Uani 1 1 d . . .
H9A H 0.4610 -0.0235 0.3974 0.127 Uiso 1 1 calc R U .
H9B H 0.3650 -0.0659 0.4305 0.127 Uiso 1 1 calc R U .
H9C H 0.3926 -0.0770 0.3358 0.127 Uiso 1 1 calc R U .
loop_
_atom_site_aniso_label
_atom_site_aniso_U_11
_atom_site_aniso_U_22
_atom_site_aniso_U_33
_atom_site_aniso_U_23
_atom_site_aniso_U_13
_atom_site_aniso_U_12
Zn1 0.0401(4) 0.0394(4) 0.0332(4) -0.0043(2) 0.0011(3) 0.0060(2)
O3 0.066(3) 0.064(3) 0.054(3) 0.001(2) 0.000(2) -0.031(2)
N2 0.038(2) 0.039(2) 0.031(2) 0.0051(18) 0.0011(17) -0.0028(16)
N3 0.060(3) 0.058(3) 0.061(4) -0.008(3) 0.024(3) 0.003(3)
C7 0.037(2) 0.037(2) 0.028(3) -0.005(2) 0.000(2) -0.004(2)
C5 0.048(3) 0.044(3) 0.042(3) 0.005(3) -0.008(3) -0.015(2)
C4 0.087(5) 0.080(5) 0.030(3) 0.000(3) 0.000(3) -0.036(4)
N1 0.045(2) 0.042(2) 0.029(2) 0.0014(17) 0.0023(18) -0.0066(19)
C11 0.050(3) 0.050(3) 0.069(7) -0.016(3) 0.016(3) 0.008(4)
C2 0.060(4) 0.056(4) 0.045(4) 0.004(3) -0.002(3) -0.013(3)
C6 0.039(3) 0.040(2) 0.031(3) -0.001(2) -0.001(2) -0.0012(19)
C8 0.056(3) 0.053(3) 0.044(3) 0.011(3) 0.002(3) -0.016(3)
C10 0.071(4) 0.082(5) 0.032(3) 0.010(3) -0.003(3) -0.032(4)
C1 0.054(3) 0.045(3) 0.045(3) -0.001(3) -0.008(3) -0.013(3)
O2 0.161(7) 0.196(9) 0.044(3) 0.009(4) 0.002(4) -0.130(6)
N4 0.095(6) 0.086(5) 0.223(12) -0.088(6) 0.079(7) -0.041(5)
C3 0.099(6) 0.074(5) 0.028(3) 0.004(3) -0.003(3) -0.038(4)
O1 0.102(6) 0.133(8) 0.157(9) 0.029(7) -0.004(6) -0.019(6)
C9 0.077(5) 0.087(6) 0.090(6) 0.043(5) 0.000(5) -0.002(5)
loop_
_atom_type_symbol
_atom_type_description
_atom_type_scat_dispersion_real
_atom_type_scat_dispersion_imag
_atom_type_scat_source
C C 0.0033 0.0016 'International Tables Vol C Tables 4.2.6.8 and 6.1.1.4'
H H 0.0000 0.0000 'International Tables Vol C Tables 4.2.6.8 and 6.1.1.4'
N N 0.0061 0.0033 'International Tables Vol C Tables 4.2.6.8 and 6.1.1.4'
O O 0.0106 0.0060 'International Tables Vol C Tables 4.2.6.8 and 6.1.1.4'
Zn Zn 0.2839 1.4301 'International Tables Vol C Tables 4.2.6.8 and 6.1.1.4'
loop_
_geom_angle_atom_site_label_1
_geom_angle_atom_site_label_2
_geom_angle_atom_site_label_3
_geom_angle
_geom_angle_site_symmetry_1
_geom_angle_site_symmetry_3
O3 Zn1 N1 106.0(2) 8_665 4
O3 Zn1 N2 104.73(18) 8_665 .
N1 Zn1 N2 106.80(18) 4 .
O3 Zn1 N3 104.5(3) 8_665 .
N1 Zn1 N3 126.1(2) 4 .
N2 Zn1 N3 106.9(2) . .
C10 O3 Zn1 121.3(4) . 8_665
C7 N2 C6 104.5(4) . .
C7 N2 Zn1 128.6(3) . .
C6 N2 Zn1 126.8(3) . .
C11 N3 N4 102.8(6) . .
C11 N3 Zn1 136.5(5) . .
N4 N3 Zn1 120.7(5) . .
N1 C7 N2 116.0(4) . .
N1 C7 C8 123.0(5) . .
N2 C7 C8 120.8(5) . .
C6 C5 N1 109.0(5) . .
C6 C5 C4 121.1(5) . .
N1 C5 C4 129.9(5) . .
C3 C4 C5 115.2(6) . .
C3 C4 H4 122.4 . .
C5 C4 H4 122.4 . .
C7 N1 C5 103.6(5) . .
C7 N1 Zn1 131.3(3) . 3_544
C5 N1 Zn1 124.0(4) . 3_544
N3 C11 N3 114.6(9) 7_556 .
C1 C2 C3 120.4(6) . .
C1 C2 C10 121.4(6) . .
C3 C2 C10 118.0(6) . .
C1 C6 N2 132.5(5) . .
C1 C6 C5 120.4(5) . .
N2 C6 C5 107.0(5) . .
O1 C8 C9 105.5(7) . .
O1 C8 C7 109.1(7) . .
C9 C8 C7 113.3(6) . .
O1 C8 H8 109.6 . .
C9 C8 H8 109.6 . .
C7 C8 H8 109.6 . .
O2 C10 O3 123.4(6) . .
O2 C10 C2 120.3(6) . .
O3 C10 C2 116.3(5) . .
C2 C1 C6 119.6(5) . .
C2 C1 H1 120.2 . .
C6 C1 H1 120.2 . .
N4 N4 N3 109.6(4) 7_556 .
C2 C3 C4 123.1(6) . .
C2 C3 H3 118.5 . .
C4 C3 H3 118.5 . .
C8 O1 H1A 109.5 . .
C8 C9 H9A 109.5 . .
C8 C9 H9B 109.5 . .
H9A C9 H9B 109.5 . .
C8 C9 H9C 109.5 . .
H9A C9 H9C 109.5 . .
H9B C9 H9C 109.5 . .
loop_
_geom_bond_atom_site_label_1
_geom_bond_atom_site_label_2
_geom_bond_distance
_geom_bond_site_symmetry_2
Zn1 O3 1.973(4) 8_665
Zn1 N1 2.005(5) 4
Zn1 N2 2.027(4) .
Zn1 N3 2.030(5) .
O3 C10 1.267(8) .
O3 Zn1 1.973(4) 8_665
N2 C7 1.339(6) .
N2 C6 1.392(7) .
N3 C11 1.292(8) .
N3 N4 1.348(9) .
C7 N1 1.320(6) .
C7 C8 1.525(8) .
C5 C6 1.395(8) .
C5 N1 1.395(7) .
C5 C4 1.428(9) .
C4 C3 1.393(10) .
C4 H4 0.9300 .
N1 Zn1 2.005(5) 3_544
C11 N3 1.292(8) 7_556
C2 C1 1.360(9) .
C2 C3 1.384(9) .
C2 C10 1.523(9) .
C6 C1 1.381(8) .
C8 O1 1.386(11) .
C8 C9 1.504(11) .
C8 H8 0.9800 .
C10 O2 1.222(8) .
C1 H1 0.9300 .
N4 N4 1.263(14) 7_556
C3 H3 0.9300 .
O1 H1A 0.8200 .
C9 H9A 0.9600 .
C9 H9B 0.9600 .
C9 H9C 0.9600 .
