#------------------------------------------------------------------------------
#$Date: 2018-12-13 01:46:31 +0200 (Thu, 13 Dec 2018) $
#$Revision: 212561 $
#$URL: file:///home/coder/svn-repositories/cod/cif/7/23/19/7231985.cif $
#------------------------------------------------------------------------------
#
# This file is available in the Crystallography Open Database (COD),
# http://www.crystallography.net/
#
# All data on this site have been placed in the public domain by the
# contributors.
#
data_7231985
loop_
_publ_author_name
'Lu, Jack'
'Zhang, Sheng'
'Wu, Shuo'
'Zhang, Wendou'
'Yang, Qi'
'Wei, Qing'
'Xie, Gang'
'Chen, Sanping'
'Gao, Sheng-li'
_publ_section_title
;
 A 3D solvent-free energetic metal-organic framework (EMOF) achieved by
 removing inclusion molecules from a new coordination polymer
;
_journal_name_full               CrystEngComm
_journal_paper_doi               10.1039/C8CE01803K
_journal_year                    2018
_chemical_formula_moiety         'C8 H4 Cu3 N16 Na O4'
_chemical_formula_sum            'C8 H4 Cu3 N16 Na O4'
_chemical_formula_weight         601.88
_space_group_crystal_system      tetragonal
_space_group_IT_number           141
_space_group_name_Hall           '-I 4bd 2'
_space_group_name_H-M_alt        'I 41/a m d'
_symmetry_space_group_name_Hall  '-I 4bd 2'
_symmetry_space_group_name_H-M   'I 41/a m d :2'
_atom_sites_solution_hydrogens   geom
_audit_creation_date             2016-05-25
_audit_creation_method
;
Olex2 1.2-beta
(compiled 2016.02.19 svn.r3266 for OlexSys, GUI svn.r5155)
;
_audit_update_record
;
2017-11-05 deposited with the CCDC.
2018-12-07 downloaded from the CCDC.
;
_cell_angle_alpha                90
_cell_angle_beta                 90
_cell_angle_gamma                90
_cell_formula_units_Z            4
_cell_length_a                   13.638(3)
_cell_length_b                   13.638(3)
_cell_length_c                   11.428(3)
_cell_measurement_reflns_used    586
_cell_measurement_temperature    296.15
_cell_measurement_theta_max      22.36
_cell_measurement_theta_min      2.99
_cell_volume                     2125.6(9)
_computing_cell_refinement       'SAINT v7.68A (Bruker, 2009)'
_computing_data_reduction        'SAINT v7.68A (Bruker, 2009)'
_computing_molecular_graphics    'Olex2 (Dolomanov et al., 2009)'
_computing_publication_material  'Olex2 (Dolomanov et al., 2009)'
_computing_structure_refinement  'ShelXL (Sheldrick, 2015)'
_diffrn_ambient_temperature      296.15
_diffrn_measured_fraction_theta_full 1.000
_diffrn_measured_fraction_theta_max 1.000
_diffrn_measurement_device_type  'Bruker APEX-II CCD'
_diffrn_measurement_method       '\f and \w scans'
_diffrn_radiation_monochromator  graphite
_diffrn_radiation_type           MoK\a
_diffrn_radiation_wavelength     0.71073
_diffrn_reflns_av_R_equivalents  0.0745
_diffrn_reflns_av_unetI/netI     0.0347
_diffrn_reflns_Laue_measured_fraction_full 1.000
_diffrn_reflns_Laue_measured_fraction_max 1.000
_diffrn_reflns_limit_h_max       16
_diffrn_reflns_limit_h_min       -16
_diffrn_reflns_limit_k_max       16
_diffrn_reflns_limit_k_min       -16
_diffrn_reflns_limit_l_max       14
_diffrn_reflns_limit_l_min       -9
_diffrn_reflns_number            5475
_diffrn_reflns_point_group_measured_fraction_full 1.000
_diffrn_reflns_point_group_measured_fraction_max 1.000
_diffrn_reflns_theta_full        25.242
_diffrn_reflns_theta_max         26.244
_diffrn_reflns_theta_min         2.325
_diffrn_standards_number         0
_exptl_absorpt_coefficient_mu    3.048
_exptl_absorpt_correction_T_max  0.7454
_exptl_absorpt_correction_T_min  0.6255
_exptl_absorpt_correction_type   multi-scan
_exptl_absorpt_process_details
;
SADABS-2008/1 (Bruker,2008) was used for absorption correction.
wR2(int) was 0.0966 before and 0.0497 after correction.
The Ratio of minimum to maximum transmission is 0.8391.
The \l/2 correction factor is 0.0015.
;
_exptl_crystal_colour            colourless
_exptl_crystal_colour_primary    colourless
_exptl_crystal_density_diffrn    1.881
_exptl_crystal_description       block
_exptl_crystal_F_000             1176
_refine_diff_density_max         0.648
_refine_diff_density_min         -0.655
_refine_diff_density_rms         0.132
_refine_ls_extinction_method     none
_refine_ls_goodness_of_fit_ref   1.160
_refine_ls_hydrogen_treatment    constr
_refine_ls_matrix_type           full
_refine_ls_number_parameters     51
_refine_ls_number_reflns         585
_refine_ls_number_restraints     60
_refine_ls_restrained_S_all      1.250
_refine_ls_R_factor_all          0.0764
_refine_ls_R_factor_gt           0.0534
_refine_ls_shift/su_max          0.000
_refine_ls_shift/su_mean         0.000
_refine_ls_structure_factor_coef Fsqd
_refine_ls_weighting_details
'w=1/[\s^2^(Fo^2^)+(0.0827P)^2^+19.7884P] where P=(Fo^2^+2Fc^2^)/3'
_refine_ls_weighting_scheme      calc
_refine_ls_wR_factor_gt          0.1657
_refine_ls_wR_factor_ref         0.1803
_reflns_Friedel_coverage         0.000
_reflns_number_gt                429
_reflns_number_total             585
_reflns_threshold_expression     'I > 2\s(I)'
_cod_data_source_file            c8ce01803k2.cif
_cod_data_source_block           xb9535_sq
_cod_original_cell_volume        2125.6(11)
_cod_database_code               7231985
_shelx_space_group_comment
;
The symmetry employed for this shelxl refinement is uniquely defined
by the following loop, which should always be used as a source of
symmetry information in preference to the above space-group names.
They are only intended as comments.
;
_olex2_refinement_description
;
1. Fixed Uiso
 At 1.2 times of:
  All C(H) groups
2. Uiso/Uaniso restraints and constraints
All non-hydrogen atoms restrained to be isotropic: with sigma of 0.009 and
sigma for terminal atoms of 0.009
3.a Aromatic/amide H refined with riding coordinates:
 C2(H2)
;
_shelx_fab_checksum              81037
_shelx_fab_file
;
    1    1    2      0.52      0.00
    2    2    4     -1.32      0.00
    3    3    6      2.36      0.00
    4    4    8     -0.83      0.00
    5    5   10     -0.25      0.00
    6    6   12     -0.06      0.00
    1    2    3     -0.16      0.00
    2    3    5      3.94      0.00
    3    4    7     -0.01      0.00
    4    5    9     -0.03      0.00
    5    6   11     -0.66      0.00
    0    2    2      3.37      0.00
    1    3    4     -0.33      0.00
    2    4    6      0.73      0.00
    3    5    8      0.20      0.00
    4    6   10     -1.22      0.00
    5    7   12     -0.73      0.00
    1    2    1     13.18      0.00
    0    3    3      1.36      0.00
    1    4    5     -0.72      0.00
    2    5    7      0.54      0.00
    3    6    9     -0.69      0.00
    4    7   11      0.85      0.00
    2    2    0   -322.32      0.00
    1    3    2      1.23      0.00
    0    4    4      3.03      0.00
    1    5    6     -1.05      0.00
    2    6    8     -0.06      0.00
    3    7   10      0.47      0.00
    4    8   12     -0.84      0.00
    2    3    1    -29.43      0.00
    1    4    3     -0.21      0.00
    0    5    5     -6.24      0.00
    1    6    7     -0.88      0.00
    2    7    9      1.20      0.00
    3    8   11     -1.18      0.00
    2    4    2     -5.88      0.00
    1    5    4     -0.89      0.00
    0    6    6     -2.08      0.00
    1    7    8     -0.65      0.00
    2    8   10      1.82      0.00
    3    4    1    -24.60      0.00
    2    5    3     -2.64      0.00
    1    6    5     -0.33      0.00
    0    7    7     -1.03      0.00
    1    8    9      0.45      0.00
    2    9   11     -0.47      0.00
    4    4    0    195.23      0.00
    3    5    2     -4.14      0.00
    2    6    4     -3.72      0.00
    1    7    6     -0.67      0.00
    0    8    8      1.03      0.00
    1    9   10     -0.56      0.00
    4    5    1     25.37      0.00
    3    6    3      0.12      0.00
    2    7    5      2.96      0.00
    1    8    7     -1.49      0.00
    0    9    9     -2.74      0.00
    1   10   11      0.82      0.00
    4    6    2      4.37      0.00
    3    7    4      1.40      0.00
    2    8    6      0.42      0.00
    1    9    8     -1.95      0.00
    0   10   10     -1.77      0.00
    5    6    1     22.55      0.00
    4    7    3      2.23      0.00
    3    8    5      0.50      0.00
    2    9    7      1.37      0.00
    1   10    9      0.46      0.00
    6    6    0   -102.10      0.00
    5    7    2      8.15      0.00
    4    8    4      1.31      0.00
    3    9    6      0.41      0.00
    2   10    8     -0.97      0.00
    1   11   10     -0.82      0.00
    6    7    1    -19.65      0.00
    5    8    3      0.23      0.00
    4    9    5     -0.42      0.00
    3   10    7      1.72      0.00
    2   11    9      2.37      0.00
    6    8    2     -2.50      0.00
    5    9    4      0.37      0.00
    4   10    6      1.99      0.00
    3   11    8      7.15      0.00
    7    8    1    -16.75      0.00
    6    9    3     -2.08      0.00
    5   10    5     -0.29      0.00
    4   11    7      0.93      0.00
    3   12    9     -0.40      0.00
    7    9    2     -9.69      0.00
    6   10    4     -0.36      0.00
    5   11    6     -0.52      0.00
    4   12    8     -0.10      0.00
    8    9    1     12.38      0.00
    7   10    3      0.31      0.00
    6   11    5      0.77      0.00
    5   12    7      1.68      0.00
    8   10    2      0.99      0.00
    7   11    4     -0.86      0.00
    6   12    6     -1.98      0.00
    5   13    8     -5.83      0.00
    9   10    1      8.12      0.00
    8   11    3     -0.14      0.00
    7   12    5     -0.67      0.00
    6   13    7     -2.09      0.00
   10   10    0    -12.53      0.00
    9   11    2      4.63      0.00
    8   12    4     -0.06      0.00
    7   13    6      1.50      0.00
   10   11    1     -3.04      0.00
    9   12    3      0.15      0.00
    8   13    5      0.17      0.00
   10   12    2     -0.28      0.00
    9   13    4      1.38      0.00
   11   12    1     -1.28      0.00
    4    5   11      1.28      0.00
    3    4    9     -0.55      0.00
    2    3    7      0.72      0.00
    1    2    5     -1.31      0.00
    0    1    3      0.09      0.00
    0    1    1     14.35      0.00
    2    3    3     -1.27      0.00
    3    4    5      1.83      0.00
    4    5    7      0.01      0.00
    5    6    9      0.04      0.00
    6    7   11     -0.95      0.00
    4    6   12      0.49      0.00
    3    5   10      1.04      0.00
    2    4    8      1.33      0.00
    1    3    6     -1.22      0.00
    0    2    4      0.17      0.00
    0    2    0    356.23      0.00
    2    4    4     -3.16      0.00
    3    5    6      1.80      0.00
    4    6    8     -0.01      0.00
    5    7   10      0.14      0.00
    3    6   11      0.59      0.00
    2    5    9      0.10      0.00
    1    4    7      0.05      0.00
    0    3    5     -4.83      0.00
    0    3    1     31.29      0.00
    2    5    5      4.95      0.00
    3    6    7      1.93      0.00
    4    7    9     -1.01      0.00
    5    8   11      0.84      0.00
    3    7   12      0.79      0.00
    2    6   10      1.19      0.00
    1    5    8     -0.03      0.00
    0    4    6     -1.48      0.00
    0    4    2      8.68      0.00
    2    6    6      0.77      0.00
    3    7    8      1.71      0.00
    4    8   10     -2.49      0.00
    2    7   11     -0.02      0.00
    1    6    9      0.37      0.00
    0    5    7     -0.44      0.00
    1    4    1     10.32      0.00
    0    5    3      2.94      0.00
    2    7    7      0.90      0.00
    3    8    9     -0.89      0.00
    4    9   11      0.87      0.00
    2    8   12      0.57      0.00
    1    7   10     -0.33      0.00
    0    6    8      0.04      0.00
    3    3    2     -3.24      0.00
    2    4    0   -245.88      0.00
    1    5    2      1.30      0.00
    0    6    4      4.44      0.00
    2    8    8     -0.95      0.00
    3    9   10      1.16      0.00
    1    8   11      0.53      0.00
    0    7    9     -1.33      0.00
    3    4    3      0.85      0.00
    2    5    1    -25.68      0.00
    1    6    3     -0.10      0.00
    0    7    5     -3.76      0.00
    2    9    9      2.17      0.00
    3   10   11     -1.79      0.00
    1    9   12     -0.13      0.00
    0    8   10     -1.17      0.00
    3    5    4      1.28      0.00
    2    6    2     -8.22      0.00
    1    7    4     -0.83      0.00
    0    8    6     -1.98      0.00
    2   10   10      2.36      0.00
    0    9   11      0.30      0.00
    3    6    5      0.27      0.00
    4    5    3      1.72      0.00
    3    6    1    -18.55      0.00
    2    7    3     -2.27      0.00
    1    8    5     -0.50      0.00
    0    9    7     -1.96      0.00
    3    7    6      1.15      0.00
    4    6    4      1.91      0.00
    5    5    2      6.89      0.00
    4    6    0    140.42      0.00
    3    7    2     -3.90      0.00
    2    8    4     -3.40      0.00
    1    9    6     -0.09      0.00
    0   10    8      1.22      0.00
    3    8    7      3.12      0.00
    4    7    5     -0.83      0.00
    5    6    3     -0.48      0.00
    4    7    1     17.26      0.00
    3    8    3     -0.31      0.00
    2    9    5      0.69      0.00
    1   10    7     -0.91      0.00
    0   11    9     -3.47      0.00
    3    9    8      4.73      0.00
    4    8    6      2.07      0.00
    5    7    4     -0.55      0.00
    4    8    2      5.60      0.00
    3    9    4     -0.15      0.00
    2   10    6     -0.06      0.00
    1   11    8     -3.04      0.00
    0   12   10     -2.25      0.00
    3   10    9     -0.95      0.00
    4    9    7      0.02      0.00
    5    8    5      0.74      0.00
    6    7    3     -1.69      0.00
    5    8    1     17.12      0.00
    4    9    3      1.76      0.00
    3   10    5      1.13      0.00
    2   11    7      0.90      0.00
    1   12    9      0.22      0.00
    3   11   10      1.85      0.00
    4   10    8      0.38      0.00
    5    9    6     -0.94      0.00
    6    8    4      0.29      0.00
    7    7    2    -10.75      0.00
    6    8    0    -67.34      0.00
    5    9    2      7.24      0.00
    4   10    4      1.55      0.00
    3   11    6     -0.89      0.00
    2   12    8     -0.94      0.00
    4   11    9     -0.54      0.00
    5   10    7     -0.78      0.00
    6    9    5     -0.50      0.00
    7    8    3      0.75      0.00
    6    9    1    -14.05      0.00
    5   10    3     -0.18      0.00
    4   11    5     -1.30      0.00
    3   12    7     -1.23      0.00
    5   11    8     -6.91      0.00
    6   10    6     -2.96      0.00
    7    9    4     -0.39      0.00
    6   10    2     -3.19      0.00
    5   11    4      1.44      0.00
    4   12    6      1.03      0.00
    3   13    8      6.33      0.00
    5   12    9      0.04      0.00
    6   11    7     -2.02      0.00
    7   10    5     -0.71      0.00
    8    9    3      1.17      0.00
    7   10    1    -11.21      0.00
    6   11    3     -0.23      0.00
    5   12    5      0.03      0.00
    4   13    7      1.47      0.00
    6   12    8      0.44      0.00
    7   11    6      1.80      0.00
    8   10    4     -0.60      0.00
    9    9    2      8.31      0.00
    8   10    0     24.14      0.00
    7   11    2     -6.28      0.00
    6   12    4     -1.12      0.00
    5   13    6     -0.19      0.00
    7   12    7     -1.74      0.00
    8   11    5      0.68      0.00
    9   10    3      0.05      0.00
    8   11    1      6.52      0.00
    7   12    3      0.69      0.00
    6   13    5      1.52      0.00
    8   12    6      2.17      0.00
    9   11    4      0.75      0.00
    8   12    2      1.59      0.00
    7   13    4     -1.03      0.00
    6   14    6     -0.49      0.00
    9   12    5      1.08      0.00
   10   11    3      0.63      0.00
    9   12    1      4.87      0.00
    8   13    3     -1.66      0.00
    7   14    5     -1.01      0.00
   10   12    4      1.03      0.00
   11   11    2     -2.25      0.00
   10   12    0     -6.45      0.00
    9   13    2      1.22      0.00
   11   12    3     -0.28      0.00
   10   13    1      0.03      0.00
    4    4   12      1.60      0.00
    3    3   10      1.76      0.00
    2    2    8      2.12      0.00
    1    1    6     -0.59      0.00
    0    0    4     -1.43      0.00
    4    4    4      2.90      0.00
    5    5    6     -0.98      0.00
    6    6    8      0.17      0.00
    7    7   10     -0.48      0.00
    4    5   13     -0.12      0.00
    3    4   11      1.68      0.00
    2    3    9     -0.35      0.00
    1    2    7      0.43      0.00
    0    1    5     -1.56      0.00
    4    5    5     -1.84      0.00
    5    6    7     -1.61      0.00
    6    7    9      1.01      0.00
    7    8   11      0.15      0.00
    3    5   12      0.43      0.00
    2    4   10      0.54      0.00
    1    3    8      0.04      0.00
    0    2    6     -0.51      0.00
    4    6    6      0.87      0.00
    5    7    8     -1.69      0.00
    6    8   10      1.64      0.00
    3    6   13      0.04      0.00
    2    5   11     -0.55      0.00
    1    4    9      0.30      0.00
    0    3    7     -0.66      0.00
    4    7    7     -0.19      0.00
    5    8    9      0.26      0.00
    2    6   12     -0.89      0.00
    1    5   10     -0.63      0.00
    0    4    8     -1.45      0.00
    0    4    0    267.27      0.00
    4    8    8      0.54      0.00
    5    9   10     -0.80      0.00
    1    6   11     -0.29      0.00
    0    5    9     -0.16      0.00
    0    5    1     25.39      0.00
    4    9    9     -1.26      0.00
    1    7   12     -0.30      0.00
    0    6   10     -0.87      0.00
    0    6    2      9.64      0.00
    4   10   10     -3.00      0.00
    0    7   11     -0.45      0.00
    1    6    1      7.21      0.00
    0    7    3      2.21      0.00
    0    8   12     -0.23      0.00
    2    6    0   -170.57      0.00
    1    7    2      0.92      0.00
    0    8    4      4.40      0.00
    2    7    1    -11.79      0.00
    1    8    3      0.04      0.00
    0    9    5     -0.61      0.00
    2    8    2     -7.25      0.00
    1    9    4      0.02      0.00
    0   10    6     -0.89      0.00
    5    6    5      0.71      0.00
    3    8    1    -12.82      0.00
    2    9    3     -1.03      0.00
    1   10    5     -0.67      0.00
    0   11    7     -1.82      0.00
    5    7    6     -0.68      0.00
    6    6    4     -0.18      0.00
    4    8    0     94.84      0.00
    3    9    2     -3.04      0.00
    2   10    4     -3.06      0.00
    1   11    6      0.69      0.00
    0   12    8      1.57      0.00
    5    8    7     -2.34      0.00
    6    7    5     -1.23      0.00
    4    9    1     10.50      0.00
    3   10    3     -0.02      0.00
    2   11    5      0.75      0.00
    1   12    7      0.45      0.00
    0   13    9     -3.27      0.00
    5    9    8     -4.77      0.00
    6    8    6     -2.18      0.00
    4   10    2      5.51      0.00
    3   11    4     -2.00      0.00
    2   12    6     -0.70      0.00
    1   13    8     -2.76      0.00
    5   10    9      0.42      0.00
    6    9    7     -1.07      0.00
    7    8    5     -1.51      0.00
    5   10    1     10.81      0.00
    4   11    3      0.36      0.00
    3   12    5      0.40      0.00
    2   13    7      0.05      0.00
    6   10    8      0.30      0.00
    7    9    6      1.51      0.00
    8    8    4     -0.81      0.00
    6   10    0    -41.44      0.00
    5   11    2      5.34      0.00
    4   12    4      1.85      0.00
    3   13    6     -1.33      0.00
    7   10    7     -0.55      0.00
    8    9    5      1.23      0.00
    6   11    1     -8.97      0.00
    5   12    3     -1.16      0.00
    4   13    5     -1.90      0.00
    3   14    7     -3.00      0.00
    7   11    8      3.58      0.00
    8   10    6      1.95      0.00
    6   12    2     -3.85      0.00
    5   13    4      2.06      0.00
    4   14    6     -0.02      0.00
    8   11    7      1.58      0.00
    9   10    5      1.27      0.00
    7   12    1     -6.49      0.00
    6   13    3      2.12      0.00
    5   14    5      0.92      0.00
    9   11    6     -2.16      0.00
   10   10    4      1.25      0.00
    8   12    0     13.93      0.00
    7   13    2     -3.04      0.00
    6   14    4     -1.48      0.00
   10   11    5     -1.56      0.00
    8   13    1      2.32      0.00
    7   14    3      0.80      0.00
    8   14    2      2.02      0.00
    3    4   13      0.14      0.00
    2    3   11     -1.31      0.00
    1    2    9      0.18      0.00
    0    1    7     -0.43      0.00
    6    7    7     -0.87      0.00
    7    8    9      1.04      0.00
    2    4   12     -1.80      0.00
    1    3   10     -0.93      0.00
    0    2    8     -2.27      0.00
    6    8    8      0.26      0.00
    7    9   10      0.11      0.00
    2    5   13      1.09      0.00
    1    4   11     -0.85      0.00
    0    3    9      0.22      0.00
    6    9    9      1.16      0.00
    1    5   12     -0.23      0.00
    0    4   10     -0.60      0.00
    6   10   10      2.32      0.00
    1    6   13     -0.07      0.00
    0    5   11     -0.04      0.00
    0    6   12      1.09      0.00
    0    6    0    181.92      0.00
    0    7    1      8.94      0.00
    0    8    2      7.53      0.00
    1    8    1      4.76      0.00
    0    9    3      0.73      0.00
    2    8    0   -113.53      0.00
    1    9    2      0.51      0.00
    0   10    4      3.85      0.00
    2    9    1     -4.33      0.00
    1   10    3      0.04      0.00
    0   11    5     -0.32      0.00
    2   10    2     -6.55      0.00
    1   11    4      1.03      0.00
    0   12    6      0.81      0.00
    3   10    1     -7.84      0.00
    2   11    3     -0.88      0.00
    1   12    5     -0.24      0.00
    0   13    7     -0.94      0.00
    7    7    6      0.77      0.00
    4   10    0     58.63      0.00
    3   11    2     -2.50      0.00
    2   12    4     -2.40      0.00
    1   13    6      0.91      0.00
    0   14    8      2.09      0.00
    7    8    7      0.86      0.00
    4   11    1      8.43      0.00
    3   12    3      0.73      0.00
    2   13    5      1.33      0.00
    1   14    7      1.34      0.00
    7    9    8      2.41      0.00
    4   12    2      5.97      0.00
    3   13    4     -3.19      0.00
    2   14    6     -0.76      0.00
    7   10    9      0.87      0.00
    8    9    7      0.70      0.00
    5   12    1      5.59      0.00
    4   13    3     -1.16      0.00
    3   14    5     -0.66      0.00
    8   10    8     -0.84      0.00
    9    9    6     -2.00      0.00
    6   12    0    -23.19      0.00
    5   13    2      3.81      0.00
    4   14    4      1.91      0.00
    9   10    7      0.73      0.00
    6   13    1     -4.62      0.00
    5   14    3     -1.60      0.00
    4   15    5     -1.20      0.00
    6   14    2     -4.42      0.00
    5   15    4      2.13      0.00
    7   14    1     -3.54      0.00
    6   15    3      2.66      0.00
    8   14    0      7.44      0.00
   10   13    3      0.77      0.00
    9   14    1      2.87      0.00
    2    2   12     -1.30      0.00
    1    1   10     -0.47      0.00
    0    0    8     -2.38      0.00
    8    8    8     -0.89      0.00
    2    3   13      0.78      0.00
    1    2   11     -0.75      0.00
    0    1    9      0.10      0.00
    8    9    9     -1.71      0.00
    1    3   12     -0.07      0.00
    0    2   10     -0.21      0.00
    1    4   13     -0.06      0.00
    0    3   11      0.82      0.00
    0    4   12      1.69      0.00
    0    5   13     -1.69      0.00
    6   11    9      0.19      0.00
    0    8    0    119.60      0.00
    0    9    1      1.31      0.00
    0   10    2      6.66      0.00
    1   10    1      2.92      0.00
    0   11    3      1.28      0.00
    2   10    0    -69.04      0.00
    1   11    2      0.47      0.00
    0   12    4      2.68      0.00
    2   11    1     -6.38      0.00
    1   12    3     -0.17      0.00
    0   13    5     -0.98      0.00
    2   12    2     -7.13      0.00
    1   13    4      1.67      0.00
    0   14    6      1.47      0.00
    3   12    1     -3.76      0.00
    2   13    3     -1.03      0.00
    1   14    5      0.25      0.00
    4   12    0     30.69      0.00
    3   13    2     -2.53      0.00
    2   14    4     -1.58      0.00
    1   15    6      0.37      0.00
    4   13    1      6.27      0.00
    3   14    3      1.49      0.00
    2   15    5      0.65      0.00
    4   14    2      6.40      0.00
    3   15    4     -3.17      0.00
    5   14    1      2.58      0.00
    4   15    3     -1.81      0.00
    6   14    0    -10.97      0.00
    5   15    2      2.57      0.00
    6   15    1     -0.96      0.00
    1    2   13     -0.23      0.00
    0    1   11      0.56      0.00
    0    2   12      0.75      0.00
    0    3   13     -1.21      0.00
    0   10    0     72.01      0.00
    0   11    1      5.35      0.00
    0   12    2      7.43      0.00
    1   12    1      1.39      0.00
    0   13    3      2.25      0.00
    2   12    0    -34.27      0.00
    1   13    2      0.74      0.00
    0   14    4      1.32      0.00
    2   13    1     -7.74      0.00
    1   14    3     -0.56      0.00
    0   15    5     -0.42      0.00
    2   14    2     -7.46      0.00
    1   15    4      1.62      0.00
    3   14    1     -1.33      0.00
    2   15    3     -0.20      0.00
    4   14    0     12.37      0.00
    3   15    2     -2.30      0.00
    4   15    1      1.74      0.00
    8   14    4      0.34      0.00
    7   15    2     -1.08      0.00
    1    1   14      0.24      0.00
    0    0   12     -0.04      0.00
    0    1   13     -0.37      0.00
    0    2   14     -0.21      0.00
    0   12    0     35.04      0.00
    0   13    1      8.47      0.00
    0   14    2      7.76      0.00
    1   14    1      0.41      0.00
    0   15    3      1.27      0.00
    2   14    0    -12.07      0.00
    1   15    2      0.83      0.00
    2   15    1     -3.41      0.00
    1   16    3     -0.94      0.00
    2   16    2     -5.98      0.00
    3   16    1     -0.74      0.00
    4   16    0      3.52      0.00
    5   16    1      1.51      0.00
    0   14    0     11.69      0.00
    0   15    1      4.39      0.00
    0   16    2      6.23      0.00
    1   16    1      0.16      0.00
    2   16    0     -1.97      0.00
    4   16    2      5.09      0.00
    8    8    0     41.42      0.00
    3   16    3      1.87      0.00
    0   16    0      1.23      0.00
    3   15    6     -0.34      0.00
    2   16    4     -1.13      0.00
    0   16    4      0.54      0.00
   12   12    0      2.39      0.00
   10   14    0     -3.49      0.00
    6   16    0     -4.37      0.00
   12   13    1     -0.81      0.00
    8   15    1      0.67      0.00
    7   16    1     -1.65      0.00
   11   13    2     -0.44      0.00
   10   14    2     -0.39      0.00
    9   15    2     -0.51      0.00
    6   16    2     -3.41      0.00
    9   14    3     -0.23      0.00
    8   15    3     -1.79      0.00
    5   16    3     -1.12      0.00
   12   12    4     -0.88      0.00
   11   13    4     -1.32      0.00
    7   15    4     -0.99      0.00
    4   16    4      1.84      0.00
    6   16    4     -1.33      0.00
   11   12    5     -1.13      0.00
   10   13    5     -1.48      0.00
    9   14    5      0.79      0.00
    6   15    5      1.28      0.00
    1   16    5      0.17      0.00
    3   16    5     -0.44      0.00
    5   16    5      0.54      0.00
   11   11    6      2.09      0.00
   10   12    6     -1.05      0.00
    9   13    6     -1.68      0.00
    8   14    6      1.18      0.00
    5   15    6     -0.58      0.00
    0   16    6      0.42      0.00
    2   16    6      0.13      0.00
   10   11    7     -0.11      0.00
    9   12    7      1.52      0.00
    8   13    7      1.70      0.00
    5   14    7      2.71      0.00
    7   14    7     -1.52      0.00
    0   15    7     -0.54      0.00
    2   15    7     -0.05      0.00
    4   15    7      0.85      0.00
   10   10    8      0.89      0.00
    9   11    8     -0.68      0.00
    8   12    8     -0.33      0.00
    7   13    8      2.75      0.00
    2   14    8     -1.18      0.00
    4   14    8     -0.30      0.00
    1   15    8     -1.23      0.00
    9   10    9     -1.82      0.00
    8   11    9     -1.18      0.00
    7   12    9      0.64      0.00
    2   13    9      2.04      0.00
    4   13    9      0.02      0.00
    1   14    9     -0.10      0.00
    9    9   10      0.13      0.00
    8   10   10     -0.90      0.00
    5   11   10     -1.70      0.00
    7   11   10      0.83      0.00
    2   12   10      2.43      0.00
    4   12   10     -2.48      0.00
    1   13   10     -0.57      0.00
    6    9   11     -1.09      0.00
    8    9   11      0.64      0.00
    5   10   11      1.47      0.00
    0   11   11      0.98      0.00
    2   11   11     -0.83      0.00
    4   11   11      0.60      0.00
    1   12   11      0.49      0.00
    6    8   12      0.41      0.00
    3    9   12      0.50      0.00
    5    9   12     -0.80      0.00
    0   10   12     -0.69      0.00
    2   10   12      1.02      0.00
    5    6   13      0.18      0.00
    0    7   13     -1.11      0.00
    2    7   13      0.70      0.00
    4    7   13     -0.02      0.00
    1    8   13     -0.06      0.00
    3    8   13      0.07      0.00
    1    3   14      0.40      0.00
    3    3   14     -0.52      0.00
    0    4   14     -0.37      0.00
    2    4   14      0.20      0.00
    1    5   14      0.16      0.00
    3    5   14      0.07      0.00
    0    6   14     -0.12      0.00
    0    0    0      0.00      0.00
# SQUEEZE RESULTS (Version = 150216)
# Note: Data are Listed for all Voids in the P1 Unit Cell
# i.e. Centre of Gravity, Solvent Accessible Volume,
# Recovered number of Electrons in the Void and
# Details about the Squeezed Material
loop_
  _platon_squeeze_void_nr
  _platon_squeeze_void_average_x
  _platon_squeeze_void_average_y
  _platon_squeeze_void_average_z
  _platon_squeeze_void_volume
  _platon_squeeze_void_count_electrons
  _platon_squeeze_void_content
   1  0.250  0.000 -0.015       153        86 ' '
   2  0.250  0.500 -0.017       153        86 ' '
   3  0.750  0.000 -0.015       153        86 ' '
   4  0.750  0.500 -0.015       153        86 ' '
_platon_squeeze_void_probe_radius                  1.20
_platon_squeeze_details
)
TITL xb9535_a.res in Fddd New: I41/amd
CELL   13.6380   13.6380   11.4280     90.00     90.00     90.00
SPGR I41/amd
# Solvent Accessible Volume =       609
# Electrons Found in S.A.V. =       343
# Note: Atoms in Void as Cxxx and Qxxx all others
C101 0.242 0.500 0.000 !       8.29 eA-3
Q102 0.764 0.749 0.109 !       2.33 eA-3
Q103 0.755 0.755 0.203 !       2.05 eA-3
Q104 1.000 0.752 0.172 !       1.48 eA-3
Q105 0.151 0.248 0.078 !       1.20 eA-3
Q106 1.000 0.690 0.115 !       1.14 eA-3
Q107 0.592 0.252 0.000 !       1.03 eA-3
Q108 0.229 0.248 0.078 !       1.00 eA-3
Q109 0.500 0.011 0.033 !       0.93 eA-3
Q110 0.500 0.837 0.124 !       0.91 eA-3
Q111 1.000 0.610 0.234 !       0.83 eA-3
Q112 0.352 0.244 0.047 !       0.81 eA-3
Q113 0.846 0.559 0.156 !       0.78 eA-3
Q114 0.881 0.745 0.078 !       0.77 eA-3
Q115 0.841 0.030 0.107 !       0.67 eA-3
Q116 0.500 0.748 0.234 !       0.65 eA-3
Q117 0.033 0.402 0.180 !       0.63 eA-3
Q118 0.230 0.345 0.083 !       0.62 eA-3
Q119 0.500 0.754 0.141 !       0.60 eA-3
Q120 0.547 0.252 0.141 !       0.59 eA-3
Q121 0.923 0.098 0.247 !       0.53 eA-3
Q122 0.775 0.690 0.034 !       0.50 eA-3
Q123 0.901 0.637 0.257 !       0.50 eA-3
)
;
_shelx_shelxl_version_number     2014/7
_olex2_submission_special_instructions 'No special instructions were received'
loop_
_space_group_symop_operation_xyz
'x, y, z'
'-y+1/4, x+3/4, z+1/4'
'-x+1/2, -y, z+1/2'
'y+1/4, -x+1/4, z+3/4'
'x, -y, -z'
'y+1/4, x+3/4, -z+1/4'
'-x+1/2, y, -z+1/2'
'-y+1/4, -x+1/4, -z+3/4'
'x+1/2, y+1/2, z+1/2'
'-y+3/4, x+5/4, z+3/4'
'-x+1, -y+1/2, z+1'
'y+3/4, -x+3/4, z+5/4'
'x+1/2, -y+1/2, -z+1/2'
'y+3/4, x+5/4, -z+3/4'
'-x+1, y+1/2, -z+1'
'-y+3/4, -x+3/4, -z+5/4'
'-x, -y, -z'
'y-1/4, -x-3/4, -z-1/4'
'x-1/2, y, -z-1/2'
'-y-1/4, x-1/4, -z-3/4'
'-x, y, z'
'-y-1/4, -x-3/4, z-1/4'
'x-1/2, -y, z-1/2'
'y-1/4, x-1/4, z-3/4'
'-x+1/2, -y+1/2, -z+1/2'
'y+1/4, -x-1/4, -z+1/4'
'x, y+1/2, -z'
'-y+1/4, x+1/4, -z-1/4'
'-x+1/2, y+1/2, z+1/2'
'-y+1/4, -x-1/4, z+1/4'
'x, -y+1/2, z'
'y+1/4, x+1/4, z-1/4'
loop_
_atom_site_label
_atom_site_type_symbol
_atom_site_fract_x
_atom_site_fract_y
_atom_site_fract_z
_atom_site_U_iso_or_equiv
_atom_site_adp_type
_atom_site_occupancy
_atom_site_site_symmetry_order
_atom_site_calc_flag
_atom_site_refinement_flags_posn
_atom_site_refinement_flags_adp
_atom_site_refinement_flags_occupancy
Cu1 Cu 0.5000 0.7500 0.3750 0.0349(7) Uani 1 8 d S T P
Cu2 Cu 0.5000 0.5000 0.5000 0.0413(6) Uani 1 4 d S T P
Na1 Na 0.5000 0.2500 0.1250 0.0383(18) Uani 1 8 d S T P
O1 O 0.5000 0.3717(6) 0.2599(6) 0.054(2) Uani 1 2 d S T P
N1 N 0.5000 0.5139(6) 0.1477(6) 0.0357(19) Uani 1 2 d S T P
N4 N 0.5000 0.4698(6) 0.0407(7) 0.043(2) Uani 1 2 d S T P
N2 N 0.5000 0.6230(6) 0.2878(7) 0.045(2) Uani 1 2 d S T P
N3 N 0.5000 0.5264(6) 0.3391(6) 0.038(2) Uani 1 2 d S T P
C1 C 0.5000 0.4599(8) 0.2527(8) 0.038(2) Uani 1 2 d S T P
C2 C 0.5000 0.6124(9) 0.1763(9) 0.050(3) Uani 1 2 d S T P
H2 H 0.5000 0.6636 0.1225 0.060 Uiso 1 2 calc RS T P
loop_
_atom_site_aniso_label
_atom_site_aniso_U_11
_atom_site_aniso_U_22
_atom_site_aniso_U_33
_atom_site_aniso_U_23
_atom_site_aniso_U_13
_atom_site_aniso_U_12
Cu1 0.0446(9) 0.0446(9) 0.0154(10) 0.000 0.000 0.000
Cu2 0.0693(14) 0.0478(11) 0.0069(7) 0.0012(7) 0.000 0.000
Na1 0.050(3) 0.050(3) 0.015(3) 0.000 0.000 0.000
O1 0.100(5) 0.042(4) 0.020(3) 0.004(3) 0.000 0.000
N1 0.061(5) 0.028(4) 0.018(3) 0.000(3) 0.000 0.000
N4 0.063(5) 0.051(5) 0.015(3) -0.002(3) 0.000 0.000
N2 0.077(6) 0.038(4) 0.020(3) 0.002(3) 0.000 0.000
N3 0.060(5) 0.033(4) 0.020(3) -0.001(3) 0.000 0.000
C1 0.054(5) 0.048(5) 0.012(3) -0.001(4) 0.000 0.000
C2 0.076(7) 0.048(6) 0.025(4) 0.001(4) 0.000 0.000
loop_
_atom_type_symbol
_atom_type_description
_atom_type_scat_dispersion_real
_atom_type_scat_dispersion_imag
_atom_type_scat_source
C C 0.0033 0.0016 'International Tables Vol C Tables 4.2.6.8 and 6.1.1.4'
H H 0.0000 0.0000 'International Tables Vol C Tables 4.2.6.8 and 6.1.1.4'
Cu Cu 0.3201 1.2651 'International Tables Vol C Tables 4.2.6.8 and 6.1.1.4'
N N 0.0061 0.0033 'International Tables Vol C Tables 4.2.6.8 and 6.1.1.4'
Na Na 0.0362 0.0249 'International Tables Vol C Tables 4.2.6.8 and 6.1.1.4'
O O 0.0106 0.0060 'International Tables Vol C Tables 4.2.6.8 and 6.1.1.4'
loop_
_geom_angle_atom_site_label_1
_geom_angle_atom_site_label_2
_geom_angle_atom_site_label_3
_geom_angle
_geom_angle_site_symmetry_1
_geom_angle_site_symmetry_3
N2 Cu1 N2 104.4(2) . 28_656
N2 Cu1 N2 120.2(5) 28_656 18_576
N2 Cu1 N2 104.4(2) . 18_576
N2 Cu1 N2 104.4(2) 28_656 11_564
N2 Cu1 N2 104.4(2) 18_576 11_564
N2 Cu1 N2 120.2(5) . 11_564
N3 Cu2 N3 180.0 17_666 .
O1 Na1 O1 117.58(19) 20_656 11_554
O1 Na1 O1 117.58(19) . 20_656
O1 Na1 O1 94.2(3) 20_656 26_565
O1 Na1 O1 94.2(3) . 11_554
O1 Na1 O1 117.58(19) . 26_565
O1 Na1 O1 117.58(19) 26_565 11_554
C1 O1 Na1 133.2(6) . .
N4 N1 C1 122.3(8) . .
N4 N1 C2 129.9(8) . .
C2 N1 C1 107.8(8) . .
N4 N4 N1 112.3(11) 17_665 .
N3 N2 Cu1 126.1(6) . .
C2 N2 Cu1 126.4(8) . .
C2 N2 N3 107.5(9) . .
N2 N3 Cu2 125.1(6) . .
C1 N3 Cu2 126.3(7) . .
C1 N3 N2 108.6(8) . .
O1 C1 N1 125.4(8) . .
O1 C1 N3 128.7(9) . .
N3 C1 N1 105.9(9) . .
N1 C2 H2 124.9 . .
N2 C2 N1 110.1(10) . .
N2 C2 H2 124.9 . .
loop_
_geom_bond_atom_site_label_1
_geom_bond_atom_site_label_2
_geom_bond_distance
_geom_bond_site_symmetry_2
Cu1 N2 1.998(9) .
Cu1 N2 1.998(9) 18_576
Cu1 N2 1.998(9) 11_564
Cu1 N2 1.998(9) 28_656
Cu2 N3 1.874(7) 17_666
Cu2 N3 1.874(7) .
Na1 O1 2.266(7) .
Na1 O1 2.266(7) 20_656
Na1 O1 2.266(7) 26_565
Na1 O1 2.266(7) 11_554
O1 C1 1.205(13) .
N1 N4 1.362(11) .
N1 C1 1.409(12) .
N1 C2 1.383(14) .
N4 N4 1.242(17) 17_665
N2 N3 1.442(11) .
N2 C2 1.283(12) .
N3 C1 1.341(12) .
C2 H2 0.9300 .
loop_
_geom_torsion_atom_site_label_1
_geom_torsion_atom_site_label_2
_geom_torsion_atom_site_label_3
_geom_torsion_atom_site_label_4
_geom_torsion
_geom_torsion_site_symmetry_4
Cu1 N2 N3 Cu2 0.000(2) .
Cu1 N2 N3 C1 180.000(2) .
Cu1 N2 C2 N1 180.000(2) .
Cu2 N3 C1 O1 0.000(3) .
Cu2 N3 C1 N1 180.000(2) .
Na1 O1 C1 N1 0.000(3) .
Na1 O1 C1 N3 180.000(2) .
N4 N1 C1 O1 0.000(3) .
N4 N1 C1 N3 180.000(2) .
N4 N1 C2 N2 180.000(2) .
N2 N3 C1 O1 180.000(2) .
N2 N3 C1 N1 0.000(2) .
N3 N2 C2 N1 0.000(2) .
C1 N1 N4 N4 180.000(2) 17_665
C1 N1 C2 N2 0.000(2) .
C2 N1 N4 N4 0.000(3) 17_665
C2 N1 C1 O1 180.000(2) .
C2 N1 C1 N3 0.000(2) .
C2 N2 N3 Cu2 180.000(2) .
C2 N2 N3 C1 0.000(2) .
