#------------------------------------------------------------------------------
#$Date: 2020-03-12 05:58:39 +0200 (Thu, 12 Mar 2020) $
#$Revision: 249310 $
#$URL: file:///home/coder/svn-repositories/cod/cif/7/24/01/7240108.cif $
#------------------------------------------------------------------------------
#
# This file is available in the Crystallography Open Database (COD),
# http://www.crystallography.net/
#
# All data on this site have been placed in the public domain by the
# contributors.
#
data_7240108
loop_
_publ_author_name
'Lu, Hai Dong'
'Li, Hai Tao'
'Xin, Lianxin'
'Guo, Fang'
_publ_section_title
;
 Effect of stepwise protonation of an N-containing ligand on the formation
 of metal-organic salts and coordination complexes in the solid state
;
_journal_name_full               CrystEngComm
_journal_paper_doi               10.1039/D0CE00093K
_journal_year                    2020
_chemical_formula_moiety         'C14 H20 I6 N4 Zn2, 2(C H4 O)'
_chemical_formula_sum            'C16 H28 I6 N4 O2 Zn2'
_chemical_formula_weight         1200.56
_space_group_crystal_system      triclinic
_space_group_IT_number           2
_space_group_name_Hall           '-P 1'
_space_group_name_H-M_alt        'P -1'
_atom_sites_solution_hydrogens   mixed
_atom_sites_solution_primary     dual
_audit_creation_date             2019-03-06
_audit_creation_method
;
Olex2 1.2-beta
(compiled 2018.05.29 svn.r3508 for OlexSys, GUI svn.r5506)
;
_audit_update_record
;
2019-10-12 deposited with the CCDC.	2020-03-11 downloaded from the CCDC.
;
_cell_angle_alpha                63.205(2)
_cell_angle_beta                 73.580(2)
_cell_angle_gamma                87.892(2)
_cell_formula_units_Z            1
_cell_length_a                   7.9785(5)
_cell_length_b                   10.7150(7)
_cell_length_c                   10.8206(7)
_cell_measurement_reflns_used    9889
_cell_measurement_temperature    296(2)
_cell_measurement_theta_max      28.333
_cell_measurement_theta_min      3.247
_cell_volume                     787.59(9)
_computing_cell_refinement       'SAINT v8.37A (Bruker, 2015)'
_computing_data_reduction        'SAINT v8.37A (Bruker, 2015)'
_computing_molecular_graphics    'Olex2 (Dolomanov et al., 2009)'
_computing_publication_material  'Olex2 (Dolomanov et al., 2009)'
_computing_structure_refinement  'ShelXL (Sheldrick, 2015)'
_computing_structure_solution    'ShelXT (Sheldrick, 2015)'
_diffrn_ambient_temperature      296.16
_diffrn_measured_fraction_theta_full 0.950
_diffrn_measured_fraction_theta_max 0.957
_diffrn_measurement_device_type  'CCD area detector'
_diffrn_radiation_type           MoK\a
_diffrn_radiation_wavelength     0.71073
_diffrn_reflns_av_R_equivalents  0.0330
_diffrn_reflns_av_unetI/netI     0.0333
_diffrn_reflns_Laue_measured_fraction_full 0.950
_diffrn_reflns_Laue_measured_fraction_max 0.957
_diffrn_reflns_limit_h_max       10
_diffrn_reflns_limit_h_min       -10
_diffrn_reflns_limit_k_max       14
_diffrn_reflns_limit_k_min       -14
_diffrn_reflns_limit_l_max       14
_diffrn_reflns_limit_l_min       -14
_diffrn_reflns_number            12358
_diffrn_reflns_point_group_measured_fraction_full 0.950
_diffrn_reflns_point_group_measured_fraction_max 0.957
_diffrn_reflns_theta_full        25.243
_diffrn_reflns_theta_max         28.333
_diffrn_reflns_theta_min         3.247
_exptl_absorpt_coefficient_mu    7.421
_exptl_absorpt_correction_T_max  0.7457
_exptl_absorpt_correction_T_min  0.2964
_exptl_absorpt_correction_type   multi-scan
_exptl_absorpt_process_details
;
SADABS-2014/5 (Bruker,2014/5) was used for absorption correction.
wR2(int) was 0.1498 before and 0.0591 after correction.
The Ratio of minimum to maximum transmission is 0.3975.
The \l/2 correction factor is 0.00150.
;
_exptl_crystal_colour            colourless
_exptl_crystal_colour_primary    colourless
_exptl_crystal_density_diffrn    2.531
_exptl_crystal_description       block
_exptl_crystal_F_000             546
_exptl_crystal_size_max          0.11
_exptl_crystal_size_mid          0.1
_exptl_crystal_size_min          0.08
_refine_diff_density_max         1.444
_refine_diff_density_min         -1.459
_refine_diff_density_rms         0.154
_refine_ls_extinction_method     none
_refine_ls_goodness_of_fit_ref   1.183
_refine_ls_hydrogen_treatment    mixed
_refine_ls_matrix_type           full
_refine_ls_number_parameters     145
_refine_ls_number_reflns         3767
_refine_ls_number_restraints     0
_refine_ls_restrained_S_all      1.183
_refine_ls_R_factor_all          0.0391
_refine_ls_R_factor_gt           0.0360
_refine_ls_shift/su_max          0.001
_refine_ls_shift/su_mean         0.000
_refine_ls_structure_factor_coef Fsqd
_refine_ls_weighting_details
'w=1/[\s^2^(Fo^2^)+(0.0180P)^2^+3.1647P] where P=(Fo^2^+2Fc^2^)/3'
_refine_ls_weighting_scheme      calc
_refine_ls_wR_factor_gt          0.0830
_refine_ls_wR_factor_ref         0.0859
_reflns_Friedel_coverage         0.000
_reflns_number_gt                3493
_reflns_number_total             3767
_reflns_threshold_expression     'I > 2\s(I)'
_cod_data_source_file            d0ce00093k2.cif
_cod_data_source_block           20181223_1a_0m
_cod_database_code               7240108
_shelx_shelxl_version_number     2014/7
_shelx_space_group_comment
;
The symmetry employed for this shelxl refinement is uniquely defined
by the following loop, which should always be used as a source of
symmetry information in preference to the above space-group names.
They are only intended as comments.
;
_shelx_estimated_absorpt_t_max   0.588
_shelx_estimated_absorpt_t_min   0.496
_olex2_refinement_description
;
1. Fixed Uiso
 At 1.2 times of:
  All C(H) groups, All C(H,H) groups, All N(H) groups
 At 1.5 times of:
  All C(H,H,H) groups, All O(H) groups
2.a Secondary CH2 refined with riding coordinates:
 C1(H1C,H1D), C2(H2A,H2B)
2.b Aromatic/amide H refined with riding coordinates:
 C7(H7), C4(H4), C6(H6), C5(H5)
2.c Idealised Me refined as rotating group:
 C8(H8A,H8B,H8C)
2.d Idealised tetrahedral OH refined as rotating group:
 O1(H1)
;
_shelx_res_file
;
    20181223_1a_0m.res created by SHELXL-2014/7

TITL 20181223_1a_0m_a.res in P-1
REM Old TITL 20181223_1a_0m in P1 #1
REM SHELXT solution in P-1
REM R1 0.170, Rweak 0.010, Alpha 0.052, Orientation as input
REM Formula found by SHELXT: C1 N3 Zn2 I2
CELL 0.71076 7.9785 10.715 10.8206 63.205 73.58 87.892
ZERR 1 0.0005 0.0007 0.0007 0.002 0.002 0.002
LATT 1
SFAC C H I N O Zn
UNIT 16 28 6 4 2 2

L.S. 20
PLAN  20
SIZE 0.08 0.1 0.11
TEMP 23.01
BOND $H
list 4
fmap 2 53
acta
REM <olex2.extras>
REM <HklSrc "%.\\20181223_1a_0m.hkl">
REM </olex2.extras>

WGHT    0.018000    3.164700
FVAR       0.68148
I2    3    0.674862    0.384605    0.363118    11.00000    0.03652    0.03347 =
         0.03233   -0.01113   -0.01441   -0.00042
I1    3    0.995419    0.734928   -0.026886    11.00000    0.05236    0.04420 =
         0.02218   -0.00962   -0.00506   -0.00049
I3    3    0.465868    0.773425    0.165957    11.00000    0.05614    0.04977 =
         0.04628   -0.02324   -0.02593    0.01528
ZN04  6    0.746255    0.656527    0.213823    11.00000    0.04340    0.03476 =
         0.02116   -0.01180   -0.01232   -0.00201
N1    4    0.648561    0.592464    0.809014    11.00000    0.02716    0.03598 =
         0.01507   -0.00820   -0.00491   -0.00233
H1A   2    0.574187    0.586509    0.760376    11.00000   -1.20000
N2    4    0.840043    0.716829    0.341114    11.00000    0.03875    0.03300 =
         0.01698   -0.00905   -0.00777   -0.00542
C3    1    0.867395    0.676189    0.570484    11.00000    0.02637    0.03467 =
         0.01856   -0.01303   -0.00670    0.00183
C7    1    0.813560    0.634051    0.482996    11.00000    0.03305    0.03049 =
         0.01803   -0.01070   -0.00624   -0.00271
AFIX  43
H7    2    0.756353    0.544089    0.524687    11.00000   -1.20000
AFIX   0
C1    1    0.595819    0.495772    0.967216    11.00000    0.02969    0.03811 =
         0.01476   -0.00806   -0.00491   -0.00290
AFIX  23
H1C   2    0.667165    0.522071    1.012700    11.00000   -1.20000
H1D   2    0.613942    0.400208    0.983575    11.00000   -1.20000
AFIX   0
C2    1    0.829556    0.579919    0.728922    11.00000    0.02934    0.04091 =
         0.01581   -0.00916   -0.00501   -0.00095
AFIX  23
H2A   2    0.914971    0.603888    0.765292    11.00000   -1.20000
H2B   2    0.839016    0.483695    0.744672    11.00000   -1.20000
AFIX   0
C4    1    0.953838    0.809755    0.505960    11.00000    0.04644    0.03882 =
         0.02941   -0.01849   -0.01141   -0.00512
AFIX  43
H4    2    0.990969    0.842174    0.561438    11.00000   -1.20000
AFIX   0
C6    1    0.923609    0.845059    0.280820    11.00000    0.06967    0.03457 =
         0.02079   -0.00668   -0.01445   -0.00777
AFIX  43
H6    2    0.941379    0.903221    0.182431    11.00000   -1.20000
AFIX   0
C5    1    0.984899    0.894686    0.359626    11.00000    0.07720    0.03400 =
         0.03314   -0.01135   -0.01633   -0.01572
AFIX  43
H5    2    1.045891    0.983693    0.314591    11.00000   -1.20000
AFIX   0

O1    5    0.623453    0.861411    0.776432    11.00000    0.09252    0.05198 =
         0.04537   -0.02503   -0.02221    0.01050
AFIX 147
H1    2    0.601194    0.868742    0.851497    11.00000   -1.50000
AFIX   0
C8    1    0.519444    0.946213    0.690864    11.00000    0.13959    0.05720 =
         0.13026   -0.05438   -0.08666    0.03723
AFIX 137
H8A   2    0.561407    0.952681    0.595602    11.00000   -1.50000
H8B   2    0.526730    1.038544    0.683807    11.00000   -1.50000
H8C   2    0.399449    0.905095    0.734978    11.00000   -1.50000
AFIX   0

H1B   2    0.646151    0.674812    0.791837    11.00000    0.03707
HKLF 4

REM  20181223_1a_0m_a.res in P-1
REM R1 =  0.0360 for    3493 Fo > 4sig(Fo)  and  0.0391 for all    3767 data
REM    145 parameters refined using      0 restraints

END

WGHT      0.0180      3.1645

REM Highest difference peak  1.444,  deepest hole -1.459,  1-sigma level  0.154
Q1    1   0.9052  0.7604 -0.0262  11.00000  0.05    1.44
Q2    1   1.0547  0.7590 -0.0075  11.00000  0.05    1.07
Q3    1   0.5414  0.8366  0.1232  11.00000  0.05    1.07
Q4    1   0.6641  0.2665  0.4006  11.00000  0.05    0.73
Q5    1   0.9819  0.6771  0.0067  11.00000  0.05    0.72
Q6    1   0.5000  0.5000  1.0000  10.50000  0.05    0.68
Q7    1   0.7537  0.5458  0.2453  11.00000  0.05    0.62
Q8    1   0.9657  0.8428  0.4288  11.00000  0.05    0.60
Q9    1   0.6826  0.4860  0.3227  11.00000  0.05    0.59
Q10   1   0.9689  0.8770  0.3062  11.00000  0.05    0.58
Q11   1   0.4434  0.6407  0.2178  11.00000  0.05    0.54
Q12   1   0.6698  0.5974  0.1770  11.00000  0.05    0.54
Q13   1   0.5434  0.9322  0.0407  11.00000  0.05    0.54
Q14   1   0.6007  0.4392  0.6381  11.00000  0.05    0.53
Q15   1   0.5740  0.4983  0.7778  11.00000  0.05    0.53
Q16   1   0.4472  0.9234  0.6643  11.00000  0.05    0.52
Q17   1   0.9285  0.6589  0.0697  11.00000  0.05    0.51
Q18   1   1.0038  0.6248  0.0013  11.00000  0.05    0.51
Q19   1   0.5220  0.7212  0.2393  11.00000  0.05    0.50
Q20   1   0.7830  0.3728  0.3706  11.00000  0.05    0.49
;
_shelx_res_checksum              54292
_olex2_submission_special_instructions 'No special instructions were received'
loop_
_space_group_symop_operation_xyz
'x, y, z'
'-x, -y, -z'
loop_
_atom_site_label
_atom_site_type_symbol
_atom_site_fract_x
_atom_site_fract_y
_atom_site_fract_z
_atom_site_U_iso_or_equiv
_atom_site_adp_type
_atom_site_occupancy
_atom_site_site_symmetry_order
_atom_site_calc_flag
_atom_site_refinement_flags_posn
_atom_site_refinement_flags_adp
_atom_site_refinement_flags_occupancy
_atom_site_disorder_assembly
_atom_site_disorder_group
I2 I 0.67486(4) 0.38461(3) 0.36312(3) 0.03461(10) Uani 1 1 d . . . . .
I1 I 0.99542(5) 0.73493(4) -0.02689(3) 0.04306(11) Uani 1 1 d . . . . .
I3 I 0.46587(5) 0.77343(4) 0.16596(4) 0.04807(11) Uani 1 1 d . . . . .
Zn04 Zn 0.74626(8) 0.65653(6) 0.21382(5) 0.03272(13) Uani 1 1 d . . . . .
N1 N 0.6486(5) 0.5925(4) 0.8090(4) 0.0276(7) Uani 1 1 d . . . . .
H1A H 0.574(7) 0.587(6) 0.760(6) 0.033 Uiso 1 1 d R . . . .
N2 N 0.8400(5) 0.7168(4) 0.3411(4) 0.0304(8) Uani 1 1 d . . . . .
C3 C 0.8674(5) 0.6762(5) 0.5705(4) 0.0262(8) Uani 1 1 d . . . . .
C7 C 0.8136(6) 0.6341(5) 0.4830(4) 0.0275(8) Uani 1 1 d . . . . .
H7 H 0.7564 0.5441 0.5247 0.033 Uiso 1 1 calc R . . . .
C1 C 0.5958(6) 0.4958(5) 0.9672(4) 0.0294(9) Uani 1 1 d . . . . .
H1C H 0.6672 0.5221 1.0127 0.035 Uiso 1 1 calc R . . . .
H1D H 0.6139 0.4002 0.9836 0.035 Uiso 1 1 calc R . . . .
C2 C 0.8296(6) 0.5799(5) 0.7289(4) 0.0305(9) Uani 1 1 d . . . . .
H2A H 0.9150 0.6039 0.7653 0.037 Uiso 1 1 calc R . . . .
H2B H 0.8390 0.4837 0.7447 0.037 Uiso 1 1 calc R . . . .
C4 C 0.9538(7) 0.8098(5) 0.5060(5) 0.0368(10) Uani 1 1 d . . . . .
H4 H 0.9910 0.8422 0.5614 0.044 Uiso 1 1 calc R . . . .
C6 C 0.9236(8) 0.8451(5) 0.2808(5) 0.0435(12) Uani 1 1 d . . . . .
H6 H 0.9414 0.9032 0.1824 0.052 Uiso 1 1 calc R . . . .
C5 C 0.9849(9) 0.8947(6) 0.3596(6) 0.0491(14) Uani 1 1 d . . . . .
H5 H 1.0459 0.9837 0.3146 0.059 Uiso 1 1 calc R . . . .
O1 O 0.6235(8) 0.8614(5) 0.7764(5) 0.0619(12) Uani 1 1 d . . . . .
H1 H 0.6012 0.8687 0.8515 0.093 Uiso 1 1 calc GR . . . .
C8 C 0.5194(16) 0.9462(9) 0.6909(13) 0.095(3) Uani 1 1 d . . . . .
H8A H 0.5614 0.9527 0.5956 0.142 Uiso 1 1 calc GR . . . .
H8B H 0.5267 1.0385 0.6838 0.142 Uiso 1 1 calc GR . . . .
H8C H 0.3994 0.9051 0.7350 0.142 Uiso 1 1 calc GR . . . .
H1B H 0.646(8) 0.675(7) 0.792(7) 0.037(16) Uiso 1 1 d . . . . .
loop_
_atom_site_aniso_label
_atom_site_aniso_U_11
_atom_site_aniso_U_22
_atom_site_aniso_U_33
_atom_site_aniso_U_23
_atom_site_aniso_U_13
_atom_site_aniso_U_12
I2 0.03652(16) 0.03347(16) 0.03233(16) -0.01113(12) -0.01441(12) -0.00042(11)
I1 0.0524(2) 0.04420(19) 0.02218(15) -0.00962(13) -0.00506(13) -0.00049(14)
I3 0.0561(2) 0.0498(2) 0.0463(2) -0.02324(17) -0.02593(17) 0.01528(16)
Zn04 0.0434(3) 0.0348(3) 0.0212(2) -0.0118(2) -0.0123(2) -0.0020(2)
N1 0.0272(17) 0.036(2) 0.0151(15) -0.0082(14) -0.0049(13) -0.0023(14)
N2 0.039(2) 0.0330(18) 0.0170(16) -0.0090(14) -0.0078(14) -0.0054(15)
C3 0.0264(18) 0.035(2) 0.0186(17) -0.0130(16) -0.0067(14) 0.0018(15)
C7 0.033(2) 0.030(2) 0.0180(18) -0.0107(15) -0.0062(15) -0.0027(16)
C1 0.030(2) 0.038(2) 0.0148(17) -0.0081(16) -0.0049(15) -0.0029(17)
C2 0.029(2) 0.041(2) 0.0158(17) -0.0092(17) -0.0050(15) -0.0010(17)
C4 0.046(3) 0.039(2) 0.029(2) -0.018(2) -0.011(2) -0.005(2)
C6 0.070(4) 0.035(2) 0.021(2) -0.0067(18) -0.014(2) -0.008(2)
C5 0.077(4) 0.034(3) 0.033(3) -0.011(2) -0.016(3) -0.016(3)
O1 0.093(4) 0.052(2) 0.045(2) -0.025(2) -0.022(2) 0.010(2)
C8 0.140(9) 0.057(4) 0.130(9) -0.054(5) -0.087(8) 0.037(5)
loop_
_atom_type_symbol
_atom_type_description
_atom_type_scat_dispersion_real
_atom_type_scat_dispersion_imag
_atom_type_scat_source
C C 0.0033 0.0016 'International Tables Vol C Tables 4.2.6.8 and 6.1.1.4'
H H 0.0000 0.0000 'International Tables Vol C Tables 4.2.6.8 and 6.1.1.4'
I I -0.4742 1.8119 'International Tables Vol C Tables 4.2.6.8 and 6.1.1.4'
N N 0.0061 0.0033 'International Tables Vol C Tables 4.2.6.8 and 6.1.1.4'
O O 0.0106 0.0060 'International Tables Vol C Tables 4.2.6.8 and 6.1.1.4'
Zn Zn 0.2839 1.4301 'International Tables Vol C Tables 4.2.6.8 and 6.1.1.4'
loop_
_geom_angle_atom_site_label_1
_geom_angle_atom_site_label_2
_geom_angle_atom_site_label_3
_geom_angle
_geom_angle_site_symmetry_1
_geom_angle_site_symmetry_3
_geom_angle_publ_flag
I1 Zn04 I2 113.29(2) . . ?
I1 Zn04 I3 110.44(2) . . ?
I3 Zn04 I2 110.34(2) . . ?
N2 Zn04 I2 104.99(11) . . ?
N2 Zn04 I1 106.29(11) . . ?
N2 Zn04 I3 111.31(12) . . ?
H1A N1 H1B 100(5) . . ?
C1 N1 H1A 116(3) . . ?
C1 N1 C2 113.9(4) . . ?
C1 N1 H1B 112(4) . . ?
C2 N1 H1A 107(3) . . ?
C2 N1 H1B 106(4) . . ?
C7 N2 Zn04 122.6(3) . . ?
C6 N2 Zn04 118.7(3) . . ?
C6 N2 C7 118.6(4) . . ?
C7 C3 C2 120.3(4) . . ?
C4 C3 C7 117.5(4) . . ?
C4 C3 C2 122.2(4) . . ?
N2 C7 C3 123.0(4) . . ?
N2 C7 H7 118.5 . . ?
C3 C7 H7 118.5 . . ?
N1 C1 C1 109.1(4) . 2_667 ?
N1 C1 H1C 109.9 . . ?
N1 C1 H1D 109.9 . . ?
C1 C1 H1C 109.9 2_667 . ?
C1 C1 H1D 109.9 2_667 . ?
H1C C1 H1D 108.3 . . ?
N1 C2 H2A 109.7 . . ?
N1 C2 H2B 109.7 . . ?
C3 C2 N1 110.0(4) . . ?
C3 C2 H2A 109.7 . . ?
C3 C2 H2B 109.7 . . ?
H2A C2 H2B 108.2 . . ?
C3 C4 H4 120.0 . . ?
C5 C4 C3 120.0(4) . . ?
C5 C4 H4 120.0 . . ?
N2 C6 H6 118.9 . . ?
N2 C6 C5 122.2(4) . . ?
C5 C6 H6 118.9 . . ?
C4 C5 C6 118.7(5) . . ?
C4 C5 H5 120.7 . . ?
C6 C5 H5 120.7 . . ?
C8 O1 H1 109.5 . . ?
O1 C8 H8A 109.5 . . ?
O1 C8 H8B 109.5 . . ?
O1 C8 H8C 109.5 . . ?
H8A C8 H8B 109.5 . . ?
H8A C8 H8C 109.5 . . ?
H8B C8 H8C 109.5 . . ?
loop_
_geom_bond_atom_site_label_1
_geom_bond_atom_site_label_2
_geom_bond_distance
_geom_bond_site_symmetry_2
_geom_bond_publ_flag
I2 Zn04 2.6042(6) . ?
I1 Zn04 2.5816(6) . ?
I3 Zn04 2.5895(7) . ?
Zn04 N2 2.072(4) . ?
N1 H1A 0.92(6) . ?
N1 C1 1.485(5) . ?
N1 C2 1.496(6) . ?
N1 H1B 0.82(6) . ?
N2 C7 1.338(5) . ?
N2 C6 1.331(6) . ?
C3 C7 1.384(6) . ?
C3 C2 1.493(6) . ?
C3 C4 1.382(6) . ?
C7 H7 0.9300 . ?
C1 C1 1.511(9) 2_667 ?
C1 H1C 0.9700 . ?
C1 H1D 0.9700 . ?
C2 H2A 0.9700 . ?
C2 H2B 0.9700 . ?
C4 H4 0.9300 . ?
C4 C5 1.376(7) . ?
C6 H6 0.9300 . ?
C6 C5 1.383(7) . ?
C5 H5 0.9300 . ?
O1 H1 0.8200 . ?
O1 C8 1.411(10) . ?
C8 H8A 0.9600 . ?
C8 H8B 0.9600 . ?
C8 H8C 0.9600 . ?
