#------------------------------------------------------------------------------
#$Date: 2020-03-12 05:58:39 +0200 (Thu, 12 Mar 2020) $
#$Revision: 249310 $
#$URL: file:///home/coder/svn-repositories/cod/cif/7/24/01/7240112.cif $
#------------------------------------------------------------------------------
#
# This file is available in the Crystallography Open Database (COD),
# http://www.crystallography.net/
#
# All data on this site have been placed in the public domain by the
# contributors.
#
data_7240112
loop_
_publ_author_name
'Lu, Hai Dong'
'Li, Hai Tao'
'Xin, Lianxin'
'Guo, Fang'
_publ_section_title
;
 Effect of stepwise protonation of an N-containing ligand on the formation
 of metal-organic salts and coordination complexes in the solid state
;
_journal_name_full               CrystEngComm
_journal_paper_doi               10.1039/D0CE00093K
_journal_year                    2020
_chemical_formula_moiety         '2(Cl4 Zn), C14 H22 N4'
_chemical_formula_sum            'C14 H22 Cl8 N4 Zn2'
_chemical_formula_weight         660.69
_space_group_crystal_system      monoclinic
_space_group_IT_number           14
_space_group_name_Hall           '-P 2yn'
_space_group_name_H-M_alt        'P 1 21/n 1'
_atom_sites_solution_hydrogens   geom
_atom_sites_solution_primary     iterative
_audit_creation_date             2018-06-02
_audit_creation_method
;
Olex2 1.2-beta
(compiled 2018.05.18 svn.r3508 for OlexSys, GUI svn.r5506)
;
_audit_update_record
;
2019-10-12 deposited with the CCDC.	2020-03-11 downloaded from the CCDC.
;
_cell_angle_alpha                90
_cell_angle_beta                 106.857(2)
_cell_angle_gamma                90
_cell_formula_units_Z            2
_cell_length_a                   10.2666(6)
_cell_length_b                   9.5232(6)
_cell_length_c                   13.0868(8)
_cell_measurement_reflns_used    9846
_cell_measurement_temperature    298(2)
_cell_measurement_theta_max      28.337
_cell_measurement_theta_min      3.092
_cell_volume                     1224.53(13)
_computing_cell_refinement       'SAINT v8.37A (Bruker, 2015)'
_computing_data_reduction        'SAINT v8.37A (Bruker, 2015)'
_computing_molecular_graphics    'Olex2 (Dolomanov et al., 2009)'
_computing_publication_material  'Olex2 (Dolomanov et al., 2009)'
_computing_structure_refinement  'ShelXL (Sheldrick, 2015)'
_computing_structure_solution    'olex2.solve (Bourhis et al., 2015)'
_diffrn_ambient_temperature      298
_diffrn_measured_fraction_theta_full 0.971
_diffrn_measured_fraction_theta_max 0.977
_diffrn_measurement_device_type  'CCD area detector'
_diffrn_radiation_type           MoK\a
_diffrn_radiation_wavelength     0.71076
_diffrn_reflns_av_R_equivalents  0.0223
_diffrn_reflns_av_unetI/netI     0.0143
_diffrn_reflns_Laue_measured_fraction_full 0.971
_diffrn_reflns_Laue_measured_fraction_max 0.977
_diffrn_reflns_limit_h_max       13
_diffrn_reflns_limit_h_min       -13
_diffrn_reflns_limit_k_max       12
_diffrn_reflns_limit_k_min       -12
_diffrn_reflns_limit_l_max       17
_diffrn_reflns_limit_l_min       -17
_diffrn_reflns_number            20162
_diffrn_reflns_point_group_measured_fraction_full 0.971
_diffrn_reflns_point_group_measured_fraction_max 0.977
_diffrn_reflns_theta_full        25.243
_diffrn_reflns_theta_max         28.337
_diffrn_reflns_theta_min         3.093
_exptl_absorpt_coefficient_mu    2.841
_exptl_absorpt_correction_T_max  0.7457
_exptl_absorpt_correction_T_min  0.5420
_exptl_absorpt_correction_type   multi-scan
_exptl_absorpt_process_details
;
SADABS-2014/5 (Bruker,2014/5) was used for absorption correction.
wR2(int) was 0.1002 before and 0.0469 after correction.
The Ratio of minimum to maximum transmission is 0.7268.
The \l/2 correction factor is 0.00150.
;
_exptl_crystal_density_diffrn    1.792
_exptl_crystal_description       block
_exptl_crystal_F_000             660
_exptl_crystal_size_max          0.13
_exptl_crystal_size_mid          0.1
_exptl_crystal_size_min          0.1
_refine_diff_density_max         0.491
_refine_diff_density_min         -0.421
_refine_diff_density_rms         0.064
_refine_ls_extinction_method     none
_refine_ls_goodness_of_fit_ref   1.121
_refine_ls_hydrogen_treatment    constr
_refine_ls_matrix_type           full
_refine_ls_number_parameters     127
_refine_ls_number_reflns         2993
_refine_ls_number_restraints     0
_refine_ls_restrained_S_all      1.121
_refine_ls_R_factor_all          0.0287
_refine_ls_R_factor_gt           0.0268
_refine_ls_shift/su_max          0.001
_refine_ls_shift/su_mean         0.000
_refine_ls_structure_factor_coef Fsqd
_refine_ls_weighting_details
'w=1/[\s^2^(Fo^2^)+(0.0270P)^2^+0.9310P] where P=(Fo^2^+2Fc^2^)/3'
_refine_ls_weighting_scheme      calc
_refine_ls_wR_factor_gt          0.0648
_refine_ls_wR_factor_ref         0.0662
_reflns_Friedel_coverage         0.000
_reflns_number_gt                2808
_reflns_number_total             2993
_reflns_threshold_expression     'I > 2\s(I)'
_cod_data_source_file            d0ce00093k2.cif
_cod_data_source_block           20180403_4a_0m
_cod_database_code               7240112
_shelx_shelxl_version_number     2014/7
_shelx_space_group_comment
;
The symmetry employed for this shelxl refinement is uniquely defined
by the following loop, which should always be used as a source of
symmetry information in preference to the above space-group names.
They are only intended as comments.
;
_olex2_refinement_description
;
1. Fixed Uiso
 At 1.2 times of:
  All C(H) groups, All C(H,H) groups, All N(H) groups, All N(H,H) groups
2.a Secondary CH2 refined with riding coordinates:
 N1(H1A,H1B), C1(H1C,H1D), C2(H2A,H2B)
2.b Aromatic/amide H refined with riding coordinates:
 N2(H2), C7(H7), C4(H4), C6(H6), C5(H5)
;
_shelx_res_file
;
    20180403_4a_0m.res created by SHELXL-2014/7

TITL 20180403_4a_0m_a.res in P2(1)/n
REM Old TITL 20180403_4a_0m in P21/n #14
REM SHELXT solution in P2(1)/n
REM R1 0.110, Rweak 0.004, Alpha 0.019, Orientation as input
REM Formula found by SHELXT: C8 N Zn Cl4
CELL 0.71076 10.2666 9.5232 13.0868 90 106.857 90
ZERR 2 0.0006 0.0006 0.0008 0 0.002 0
LATT 1
SYMM 0.5-X,0.5+Y,0.5-Z
SFAC C H Cl N Zn
UNIT 28 44 16 8 4

L.S. 10
PLAN  20
TEMP 24.85
BOND $H
list 4
fmap 2
acta
REM <olex2.extras>
REM <HklSrc "%.\\20180403_4a_0m.hkl">
REM </olex2.extras>

WGHT    0.027000    0.931000
FVAR       1.09238
ZN1   5    0.987045   -0.024889    0.742403    11.00000    0.02697    0.02641 =
         0.02874    0.00300    0.00747    0.00145
CL2   3    0.862116    0.155940    0.779284    11.00000    0.04059    0.03349 =
         0.04413   -0.00337    0.02180    0.00333
CL1   3    0.852991   -0.121980    0.588861    11.00000    0.03858    0.02957 =
         0.03659   -0.00629    0.00349    0.00289
CL3   3    1.182197    0.056985    0.721429    11.00000    0.02397    0.04679 =
         0.05256    0.01166    0.01139    0.00317
CL4   3    1.037489   -0.187033    0.875536    11.00000    0.05026    0.04548 =
         0.05008    0.02527    0.01008   -0.00021
N1    4    0.643329    0.129556    0.522533    11.00000    0.02431    0.02252 =
         0.02872    0.00134    0.00335   -0.00296
AFIX  23
H1A   2    0.707632    0.074672    0.563603    11.00000   -1.20000
H1B   2    0.614221    0.186670    0.565105    11.00000   -1.20000
AFIX   0
C3    1    0.805569    0.317569    0.517562    11.00000    0.02400    0.02373 =
         0.02944    0.00395    0.01010   -0.00202
N2    4    0.851701    0.535816    0.604171    11.00000    0.04110    0.02709 =
         0.06765   -0.01030    0.02166   -0.00078
AFIX  43
H2    2    0.822557    0.615686    0.619026    11.00000   -1.20000
AFIX   0
C1    1    0.528291    0.040818    0.461441    11.00000    0.03194    0.02424 =
         0.03023   -0.00117    0.00230   -0.00837
AFIX  23
H1C   2    0.559401   -0.023777    0.416185    11.00000   -1.20000
H1D   2    0.457594    0.099517    0.416169    11.00000   -1.20000
AFIX   0
C7    1    0.942587    0.286112    0.555817    11.00000    0.02885    0.02602 =
         0.04090    0.00683    0.01375    0.00507
AFIX  43
H7    2    0.974631    0.200096    0.539583    11.00000   -1.20000
AFIX   0
C2    1    0.703902    0.215727    0.451874    11.00000    0.03537    0.03474 =
         0.02978    0.00047    0.00866   -0.00892
AFIX  23
H2A   2    0.632383    0.266613    0.400398    11.00000   -1.20000
H2B   2    0.748173    0.154451    0.412948    11.00000   -1.20000
AFIX   0
C4    1    0.762328    0.445037    0.544135    11.00000    0.02438    0.02905 =
         0.05530    0.00091    0.01303    0.00277
AFIX  43
H4    2    0.670514    0.468427    0.520316    11.00000   -1.20000
AFIX   0
C6    1    1.032477    0.382472    0.618367    11.00000    0.02186    0.04153 =
         0.04486    0.00919    0.00568   -0.00048
AFIX  43
H6    2    1.124748    0.361597    0.643835    11.00000   -1.20000
AFIX   0
C5    1    0.984673    0.507312    0.642047    11.00000    0.03693    0.03690 =
         0.04382   -0.00246    0.00961   -0.01206
AFIX  43
H5    2    1.043783    0.572556    0.684242    11.00000   -1.20000
AFIX   0
HKLF 4

REM  20180403_4a_0m_a.res in P2(1)/n
REM R1 =  0.0268 for    2808 Fo > 4sig(Fo)  and  0.0287 for all    2993 data
REM    127 parameters refined using      0 restraints

END

WGHT      0.0269      0.9283

REM Highest difference peak  0.491,  deepest hole -0.421,  1-sigma level  0.064
Q1    1   0.9109  0.1394  0.8346  11.00000  0.05    0.49
Q2    1   0.9828 -0.2280  0.8269  11.00000  0.05    0.38
Q3    1   0.5000  0.0000  0.5000  10.50000  0.05    0.36
Q4    1   0.9883  0.4238  0.6372  11.00000  0.05    0.32
Q5    1   0.8760  0.3152  0.5311  11.00000  0.05    0.32
Q6    1   0.7591  0.2661  0.4942  11.00000  0.05    0.31
Q7    1   0.7941  0.3798  0.5341  11.00000  0.05    0.29
Q8    1   0.8825 -0.0594  0.5722  11.00000  0.05    0.29
Q9    1   0.8141  0.0957  0.7670  11.00000  0.05    0.27
Q10   1   0.9973  0.3313  0.5759  11.00000  0.05    0.27
Q11   1   1.0800  0.0417  0.7221  11.00000  0.05    0.25
Q12   1   1.1206 -0.0454  0.7589  11.00000  0.05    0.24
Q13   1   0.9149 -0.1660  0.6124  11.00000  0.05    0.24
Q14   1   0.9229  0.5153  0.6134  11.00000  0.05    0.23
Q15   1   0.8819  0.0486  0.7392  11.00000  0.05    0.23
Q16   1   0.9723 -0.1612  0.7007  11.00000  0.05    0.22
Q17   1   0.8176 -0.1015  0.6290  11.00000  0.05    0.21
Q18   1   1.1427  0.3739  0.6073  11.00000  0.05    0.21
Q19   1   0.5812  0.0805  0.4860  11.00000  0.05    0.20
Q20   1   1.1436  0.0131  0.6714  11.00000  0.05    0.20
;
_shelx_res_checksum              54882
_olex2_submission_special_instructions 'No special instructions were received'
loop_
_space_group_symop_operation_xyz
'x, y, z'
'-x+1/2, y+1/2, -z+1/2'
'-x, -y, -z'
'x-1/2, -y-1/2, z-1/2'
loop_
_atom_site_label
_atom_site_type_symbol
_atom_site_fract_x
_atom_site_fract_y
_atom_site_fract_z
_atom_site_U_iso_or_equiv
_atom_site_adp_type
_atom_site_occupancy
_atom_site_site_symmetry_order
_atom_site_calc_flag
_atom_site_refinement_flags_posn
_atom_site_refinement_flags_adp
_atom_site_refinement_flags_occupancy
_atom_site_disorder_assembly
_atom_site_disorder_group
Zn1 Zn 0.98704(2) -0.02489(2) 0.74240(2) 0.02750(8) Uani 1 1 d . . . . .
Cl2 Cl 0.86212(5) 0.15594(5) 0.77928(4) 0.03739(12) Uani 1 1 d . . . . .
Cl1 Cl 0.85299(5) -0.12198(5) 0.58886(4) 0.03648(11) Uani 1 1 d . . . . .
Cl3 Cl 1.18220(5) 0.05699(6) 0.72143(4) 0.04105(13) Uani 1 1 d . . . . .
Cl4 Cl 1.03749(6) -0.18703(6) 0.87554(5) 0.04955(15) Uani 1 1 d . . . . .
N1 N 0.64333(15) 0.12956(15) 0.52253(12) 0.0261(3) Uani 1 1 d . . . . .
H1A H 0.7076 0.0747 0.5636 0.031 Uiso 1 1 calc R . . . .
H1B H 0.6142 0.1867 0.5651 0.031 Uiso 1 1 calc R . . . .
C3 C 0.80557(17) 0.31757(18) 0.51756(14) 0.0252(3) Uani 1 1 d . . . . .
N2 N 0.8517(2) 0.53582(18) 0.60417(18) 0.0440(4) Uani 1 1 d . . . . .
H2 H 0.8226 0.6157 0.6190 0.053 Uiso 1 1 calc R . . . .
C1 C 0.52829(19) 0.04082(19) 0.46144(15) 0.0302(4) Uani 1 1 d . . . . .
H1C H 0.5594 -0.0238 0.4162 0.036 Uiso 1 1 calc R . . . .
H1D H 0.4576 0.0995 0.4162 0.036 Uiso 1 1 calc R . . . .
C7 C 0.94259(19) 0.28611(19) 0.55582(16) 0.0312(4) Uani 1 1 d . . . . .
H7 H 0.9746 0.2001 0.5396 0.037 Uiso 1 1 calc R . . . .
C2 C 0.7039(2) 0.2157(2) 0.45187(15) 0.0335(4) Uani 1 1 d . . . . .
H2A H 0.6324 0.2666 0.4004 0.040 Uiso 1 1 calc R . . . .
H2B H 0.7482 0.1545 0.4129 0.040 Uiso 1 1 calc R . . . .
C4 C 0.76233(19) 0.4450(2) 0.54414(18) 0.0359(4) Uani 1 1 d . . . . .
H4 H 0.6705 0.4684 0.5203 0.043 Uiso 1 1 calc R . . . .
C6 C 1.03248(19) 0.3825(2) 0.61837(17) 0.0369(4) Uani 1 1 d . . . . .
H6 H 1.1247 0.3616 0.6438 0.044 Uiso 1 1 calc R . . . .
C5 C 0.9847(2) 0.5073(2) 0.64205(18) 0.0397(4) Uani 1 1 d . . . . .
H5 H 1.0438 0.5726 0.6842 0.048 Uiso 1 1 calc R . . . .
loop_
_atom_site_aniso_label
_atom_site_aniso_U_11
_atom_site_aniso_U_22
_atom_site_aniso_U_33
_atom_site_aniso_U_23
_atom_site_aniso_U_13
_atom_site_aniso_U_12
Zn1 0.02697(12) 0.02641(12) 0.02874(12) 0.00300(7) 0.00747(8) 0.00145(7)
Cl2 0.0406(2) 0.0335(2) 0.0441(3) -0.00337(19) 0.0218(2) 0.00333(18)
Cl1 0.0386(2) 0.0296(2) 0.0366(2) -0.00629(17) 0.00349(18) 0.00289(17)
Cl3 0.0240(2) 0.0468(3) 0.0526(3) 0.0117(2) 0.01139(19) 0.00317(18)
Cl4 0.0503(3) 0.0455(3) 0.0501(3) 0.0253(2) 0.0101(2) -0.0002(2)
N1 0.0243(7) 0.0225(6) 0.0287(7) 0.0013(5) 0.0033(5) -0.0030(5)
C3 0.0240(7) 0.0237(7) 0.0294(8) 0.0039(6) 0.0101(6) -0.0020(6)
N2 0.0411(10) 0.0271(8) 0.0676(13) -0.0103(8) 0.0217(9) -0.0008(7)
C1 0.0319(9) 0.0242(8) 0.0302(9) -0.0012(7) 0.0023(7) -0.0084(7)
C7 0.0288(8) 0.0260(8) 0.0409(10) 0.0068(7) 0.0138(7) 0.0051(7)
C2 0.0354(9) 0.0347(9) 0.0298(9) 0.0005(7) 0.0087(7) -0.0089(8)
C4 0.0244(8) 0.0290(9) 0.0553(12) 0.0009(8) 0.0130(8) 0.0028(7)
C6 0.0219(8) 0.0415(10) 0.0449(11) 0.0092(9) 0.0057(7) -0.0005(7)
C5 0.0369(10) 0.0369(10) 0.0438(11) -0.0025(9) 0.0096(9) -0.0121(8)
loop_
_atom_type_symbol
_atom_type_description
_atom_type_scat_dispersion_real
_atom_type_scat_dispersion_imag
_atom_type_scat_source
C C 0.0033 0.0016 'International Tables Vol C Tables 4.2.6.8 and 6.1.1.4'
H H 0.0000 0.0000 'International Tables Vol C Tables 4.2.6.8 and 6.1.1.4'
Cl Cl 0.1484 0.1585 'International Tables Vol C Tables 4.2.6.8 and 6.1.1.4'
N N 0.0061 0.0033 'International Tables Vol C Tables 4.2.6.8 and 6.1.1.4'
Zn Zn 0.2839 1.4301 'International Tables Vol C Tables 4.2.6.8 and 6.1.1.4'
loop_
_geom_angle_atom_site_label_1
_geom_angle_atom_site_label_2
_geom_angle_atom_site_label_3
_geom_angle
_geom_angle_site_symmetry_1
_geom_angle_site_symmetry_3
_geom_angle_publ_flag
Cl1 Zn1 Cl2 105.09(2) . . ?
Cl3 Zn1 Cl2 109.94(2) . . ?
Cl3 Zn1 Cl1 111.50(2) . . ?
Cl3 Zn1 Cl4 108.51(2) . . ?
Cl4 Zn1 Cl2 111.58(2) . . ?
Cl4 Zn1 Cl1 110.23(2) . . ?
H1A N1 H1B 107.8 . . ?
C1 N1 H1A 109.0 . . ?
C1 N1 H1B 109.0 . . ?
C1 N1 C2 112.78(14) . . ?
C2 N1 H1A 109.0 . . ?
C2 N1 H1B 109.0 . . ?
C7 C3 C2 122.24(17) . . ?
C4 C3 C7 118.05(17) . . ?
C4 C3 C2 119.68(17) . . ?
C4 N2 H2 118.7 . . ?
C4 N2 C5 122.61(18) . . ?
C5 N2 H2 118.7 . . ?
N1 C1 C1 109.39(18) . 3_656 ?
N1 C1 H1C 109.8 . . ?
N1 C1 H1D 109.8 . . ?
C1 C1 H1C 109.8 3_656 . ?
C1 C1 H1D 109.8 3_656 . ?
H1C C1 H1D 108.2 . . ?
C3 C7 H7 119.9 . . ?
C3 C7 C6 120.21(17) . . ?
C6 C7 H7 119.9 . . ?
N1 C2 C3 110.16(14) . . ?
N1 C2 H2A 109.6 . . ?
N1 C2 H2B 109.6 . . ?
C3 C2 H2A 109.6 . . ?
C3 C2 H2B 109.6 . . ?
H2A C2 H2B 108.1 . . ?
C3 C4 H4 119.9 . . ?
N2 C4 C3 120.25(18) . . ?
N2 C4 H4 119.9 . . ?
C7 C6 H6 120.3 . . ?
C5 C6 C7 119.46(18) . . ?
C5 C6 H6 120.3 . . ?
N2 C5 C6 119.42(19) . . ?
N2 C5 H5 120.3 . . ?
C6 C5 H5 120.3 . . ?
loop_
_geom_bond_atom_site_label_1
_geom_bond_atom_site_label_2
_geom_bond_distance
_geom_bond_site_symmetry_2
_geom_bond_publ_flag
Zn1 Cl2 2.2809(5) . ?
Zn1 Cl1 2.2766(5) . ?
Zn1 Cl3 2.2397(5) . ?
Zn1 Cl4 2.2726(5) . ?
N1 H1A 0.8900 . ?
N1 H1B 0.8900 . ?
N1 C1 1.483(2) . ?
N1 C2 1.500(2) . ?
C3 C7 1.382(2) . ?
C3 C2 1.500(2) . ?
C3 C4 1.372(3) . ?
N2 H2 0.8600 . ?
N2 C4 1.337(3) . ?
N2 C5 1.338(3) . ?
C1 C1 1.517(4) 3_656 ?
C1 H1C 0.9700 . ?
C1 H1D 0.9700 . ?
C7 H7 0.9300 . ?
C7 C6 1.388(3) . ?
C2 H2A 0.9700 . ?
C2 H2B 0.9700 . ?
C4 H4 0.9300 . ?
C6 H6 0.9300 . ?
C6 C5 1.356(3) . ?
C5 H5 0.9300 . ?
