#------------------------------------------------------------------------------
#$Date: 2020-06-24 04:38:29 +0300 (Wed, 24 Jun 2020) $
#$Revision: 253389 $
#$URL: file:///home/coder/svn-repositories/cod/cif/7/24/07/7240769.cif $
#------------------------------------------------------------------------------
#
# This file is available in the Crystallography Open Database (COD),
# http://www.crystallography.net/
#
# All data on this site have been placed in the public domain by the
# contributors.
#
data_7240769
loop_
_publ_author_name
'Ponjan, Nutcha'
'Kielar, Filip'
'Dungkaew, Winya'
'Kongpatpanich, Kanokwan'
'Zenno, Hikaru'
'Hayami, Shinya'
'Sukwattanasinitt, Mongkol'
'Chainok, Kittipong'
_publ_section_title
;
 Self-assembly of three-dimensional oxalate-bridged
 alkali(I)-lanthanide(III) heterometal-organic frameworks
;
_journal_name_full               CrystEngComm
_journal_paper_doi               10.1039/D0CE00099J
_journal_year                    2020
_chemical_formula_moiety         'C21 H15 Er8 Na4 O50, 9.6[H2O]'
_chemical_formula_sum            'C21 H15 Er8 Na4 O50'
_chemical_formula_weight         2497.37
_space_group_crystal_system      tetragonal
_space_group_IT_number           87
_space_group_name_Hall           '-I 4'
_space_group_name_H-M_alt        'I 4/m'
_atom_sites_solution_hydrogens   difmap
_atom_sites_solution_primary     dual
_audit_creation_date             2019-10-14
_audit_creation_method
;
Olex2 1.3-alpha
(compiled 2019.08.16 svn.r3652 for OlexSys, GUI svn.r5895)
;
_audit_update_record
;
2020-01-07 deposited with the CCDC.	2020-06-23 downloaded from the CCDC.
;
_cell_angle_alpha                90
_cell_angle_beta                 90
_cell_angle_gamma                90
_cell_formula_units_Z            2
_cell_length_a                   12.4441(2)
_cell_length_b                   12.4441(2)
_cell_length_c                   19.0521(5)
_cell_measurement_reflns_used    9954
_cell_measurement_temperature    296.0
_cell_measurement_theta_max      28.29
_cell_measurement_theta_min      3.15
_cell_volume                     2950.32(10)
_computing_cell_refinement       'SAINT V8.40A (?, 2016)'
_computing_data_reduction        'SAINT V8.40A (?, 2016)'
_computing_molecular_graphics    'Olex2 1.3-alpha (Dolomanov et al., 2009)'
_computing_publication_material  'Olex2 1.3-alpha (Dolomanov et al., 2009)'
_computing_structure_refinement  'XL n/a (Sheldrick, 2008)'
_computing_structure_solution    'XT n/a (Sheldrick, 2015)'
_diffrn_ambient_temperature      296.0
_diffrn_detector                 'Bruker PHOTON 200 area detector'
_diffrn_detector_area_resol_mean 7.39
_diffrn_detector_type            'PHOTON II area detector'
_diffrn_measured_fraction_theta_full 0.998
_diffrn_measured_fraction_theta_max 0.998
_diffrn_measurement_device       'four-circle KAPPA diffractometer'
_diffrn_measurement_device_type  'BRUKER D8 QUEST CMOS PHOTON II'
_diffrn_measurement_method       '\w and \f scans'
_diffrn_radiation_collimation    '0.5 mm'
_diffrn_radiation_monochromator  graphite
_diffrn_radiation_probe          x-ray
_diffrn_radiation_type           MoK\a
_diffrn_radiation_wavelength     0.71073
_diffrn_radiation_xray_symbol    K-L~3~
_diffrn_reflns_av_R_equivalents  0.0287
_diffrn_reflns_av_unetI/netI     0.0131
_diffrn_reflns_Laue_measured_fraction_full 0.998
_diffrn_reflns_Laue_measured_fraction_max 0.998
_diffrn_reflns_limit_h_max       15
_diffrn_reflns_limit_h_min       -16
_diffrn_reflns_limit_k_max       16
_diffrn_reflns_limit_k_min       -16
_diffrn_reflns_limit_l_max       25
_diffrn_reflns_limit_l_min       -25
_diffrn_reflns_number            20538
_diffrn_reflns_point_group_measured_fraction_full 0.998
_diffrn_reflns_point_group_measured_fraction_max 0.998
_diffrn_reflns_theta_full        25.242
_diffrn_reflns_theta_max         28.286
_diffrn_reflns_theta_min         3.152
_diffrn_source                   'sealed x-ray tube'
_diffrn_source_target            Cu
_diffrn_source_type              'Micro focus tube'
_diffrn_standards_number         0
_exptl_absorpt_coefficient_mu    11.385
_exptl_absorpt_correction_T_max  0.7457
_exptl_absorpt_correction_T_min  0.6162
_exptl_absorpt_correction_type   multi-scan
_exptl_absorpt_process_details
;
SADABS-2016/2 (Bruker,2016/2) was used for absorption correction.
wR2(int) was 0.0638 before and 0.0410 after correction.
The Ratio of minimum to maximum transmission is 0.8263.
The \l/2 correction factor is Not present.
;
_exptl_crystal_colour            pink
_exptl_crystal_colour_primary    pink
_exptl_crystal_density_diffrn    2.811
_exptl_crystal_description       block
_exptl_crystal_F_000             2258
_exptl_crystal_size_max          0.18
_exptl_crystal_size_mid          0.14
_exptl_crystal_size_min          0.14
_refine_diff_density_max         0.802
_refine_diff_density_min         -1.448
_refine_diff_density_rms         0.129
_refine_ls_extinction_method     none
_refine_ls_goodness_of_fit_ref   1.095
_refine_ls_hydrogen_treatment    mixed
_refine_ls_matrix_type           full
_refine_ls_number_parameters     154
_refine_ls_number_reflns         1891
_refine_ls_number_restraints     22
_refine_ls_restrained_S_all      1.102
_refine_ls_R_factor_all          0.0225
_refine_ls_R_factor_gt           0.0199
_refine_ls_shift/su_max          0.002
_refine_ls_shift/su_mean         0.000
_refine_ls_structure_factor_coef Fsqd
_refine_ls_weighting_details
'w=1/[\s^2^(Fo^2^)+(0.0050P)^2^+37.7606P] where P=(Fo^2^+2Fc^2^)/3'
_refine_ls_weighting_scheme      calc
_refine_ls_wR_factor_gt          0.0417
_refine_ls_wR_factor_ref         0.0425
_reflns_Friedel_coverage         0.000
_reflns_number_gt                1706
_reflns_number_total             1891
_reflns_threshold_expression     'I > 2\s(I)'
_cod_data_source_file            d0ce00099j2.cif
_cod_data_source_block           3er
_cod_original_cell_volume        2950.32(13)
_cod_database_code               7240769
_shelx_shelxl_version_number     2018/3
_shelx_space_group_comment
;
The symmetry employed for this shelxl refinement is uniquely defined
by the following loop, which should always be used as a source of
symmetry information in preference to the above space-group names.
They are only intended as comments.
;
_shelx_estimated_absorpt_t_max   0.299
_shelx_estimated_absorpt_t_min   0.234
_olex2_refinement_description
;
1. Fixed Uiso
 At 1.5 times of:
  All C(H,H,H) groups, All O(H) groups
2. Restrained distances
 O1-H1
 0.85 with sigma of 0.01
3. Uiso/Uaniso restraints and constraints
Uanis(O7) \\sim Ueq, Uanis(C4) \\sim Ueq: with sigma of 0.001 and sigma for
terminal atoms of 0.002
4. Rigid body (RIGU) restrains
 Na1, O7, C4
 with sigma for 1-2 distances of 0.0001 and sigma for 1-3 distances of 0.0001
5. Others
 Fixed Sof: O3A(0.5) O3B(0.5) O4A(0.5) O4B(0.5) O5A(0.5) O5B(0.5) O6A(0.5)
 O6B(0.5) O7(0.25) H7(0.125) C3A(0.5) C3B(0.5) C4(0.125) H4C(0.25) H4A(0.25)
 H4B(0.25)
 Fixed X: O7(0.436688) C4(0.5)
 Fixed Y: O7(0.563621) C4(0.5)
 Fixed Z: O7(0.5) C4(0.534289)
6.a Riding coordinates:
 O7(H7), C4(H4C,H4A,H4B)
;
_smtbx_masks_void_probe_radius   1.2
_smtbx_masks_void_truncation_radius 1.2
_shelx_res_file
;
TITL KCLn4_0m in I4/m
    2er.res
    created by SHELXL-2018/3 at 22:45:19 on 14-Oct-2019
CELL 0.71073 12.4441 12.4441 19.0521 90 90 90
ZERR 2 0.00021 0.00021 0.0005 0 0 0
LATT 2
SYMM -Y,+X,+Z
SYMM -X,-Y,+Z
SYMM +Y,-X,+Z
SFAC C H Er Na O
UNIT 42 30 16 8 100
DFIX 0.85 0.01 O1 H1
RIGU 0.0001 0.0001 Na1 O7 C4
ISOR 0.001 0.002 O7 C4

L.S. 5 0 19
PLAN  5
SIZE 0.18 0.14 0.14
TEMP 22.85
CONF
BIND C4 O7
MORE -1
BOND $H
ABIN
fmap 2
acta
REM <olex2.extras>
REM <HklSrc "%.\\2Er.hkl">
REM </olex2.extras>

WGHT    0.005000   37.760601
FVAR       0.03709
ER1   3    0.500008    0.847204    0.684115    11.00000    0.02520    0.00866 =
         0.01300   -0.00071   -0.00005    0.00000
NA1   4    0.500082    0.743973    0.500000    10.50000    0.07788    0.04643 =
         0.03047    0.00000    0.00000   -0.00284
O1    5    0.499988    0.892162    0.802891    11.00000    0.01497    0.01253 =
         0.01569    0.00146   -0.00017   -0.00099
H1    2    0.500081    0.832531    0.824235    11.00000    0.03517
O2    5    0.499948    0.910861    0.569587    11.00000    0.05472    0.01256 =
         0.01337    0.00136    0.00035   -0.00009
PART -1
O3A   5    0.405310    0.721841    0.608683    10.50000    0.03408    0.03524 =
         0.02436   -0.00133    0.00359   -0.01412
PART 0
PART -2
O3B   5    0.360769    0.766543    0.617147    10.50000    0.03085    0.02041 =
         0.02288    0.00678   -0.01036   -0.00777
PART 0
PART -1
O4A   5    0.278230    0.594976    0.608568    10.50000    0.03551    0.03551 =
         0.02250   -0.00465    0.00263   -0.01239
PART 0
PART -2
O4B   5    0.233652    0.639171    0.616956    10.50000    0.02220    0.03048 =
         0.02263    0.01071   -0.00727   -0.00822
PART 0
PART -1
O5A   5    0.341092    0.785428    0.735077    10.50000    0.02760    0.01995 =
         0.03047   -0.00624    0.00677   -0.00504
PART 0
PART -2
O5B   5    0.451046    0.676429    0.729890    10.50000    0.02694    0.01512 =
         0.02916    0.00514   -0.00909   -0.00421
PART 0
PART -1
O6A   5    0.214717    0.658962    0.735301    10.50000    0.01997    0.02577 =
         0.03038   -0.00540    0.00702   -0.00534
PART 0
PART -2
O6B   5    0.323357    0.548740    0.729925    10.50000    0.01415    0.02855 =
         0.03150    0.00929   -0.00613   -0.00691
PART 0
PART -3
O7    5   10.436688   10.563621   10.500000    10.25000    0.05059    0.04655 =
         0.04900   -0.00071   -0.00099    0.00207
AFIX   3
H7    2    0.407900    0.530420    0.467860    10.12500   -1.50000
AFIX   0
PART 0
C1    1    0.500000    1.000000    0.540734    10.50000    0.01394    0.01223 =
         0.01530    0.00000    0.00000    0.00097
C2    1    0.322009    0.677801    0.638122    11.00000    0.03235    0.03207 =
         0.02242    0.00684   -0.00708   -0.01069
PART -1
C3A   1    0.292399    0.707382    0.708275    10.50000    0.02003    0.01706 =
         0.02530   -0.00213    0.00186    0.00733
PART 0
PART -2
C3B   1    0.367286    0.632094    0.706479    10.50000    0.01479    0.01595 =
         0.01792   -0.00041   -0.00026    0.00192
PART 0
PART -3
C4    1   10.500000   10.500000   10.534289    10.12500    0.04673    0.04592 =
         0.04770    0.00059    0.00097   -0.00009
AFIX   3
H4C   2    0.538570    0.455400    0.500000    10.25000   -1.50000
H4A   2    0.550060    0.541770    0.561280    10.25000   -1.50000
H4B   2    0.458370    0.455600    0.565310    10.25000   -1.50000
AFIX   0
HKLF 4




REM  KCLn4_0m in I4/m
REM wR2 = 0.042518, GooF = S = 1.09509, Restrained GooF = 1.10158 for all data
REM R1 = 0.019877 for 1706 Fo > 4sig(Fo) and 0.022526 for all 1891 data
REM 154 parameters refined using 22 restraints

END

WGHT      0.0050     37.7554

REM Highest difference peak  0.802,  deepest hole -1.448,  1-sigma level  0.129
Q1    1   0.1976  0.7997  0.6860  11.00000  0.05    0.80
Q2    1   0.4611  0.8089  0.6864  11.00000  0.05    0.70
Q3    1   0.3589  0.5440  0.5000  10.50000  0.05    0.60
Q4    1   0.5399  0.8186  0.6978  11.00000  0.05    0.60
Q5    1   0.6287  0.8081  0.5000  10.50000  0.05    0.60
;
_shelx_res_checksum              64783
_shelx_fab_file
;
0 0 4 -35.1285 2.4614
0 0 6 5.4501 1.0826
0 0 8 28.9633 0.0743
0 0 10 29.2972 -0.5703
0 0 12 12.0135 -0.3337
0 0 14 -6.0763 1.9665
0 0 16 1.1348 0.4391
0 0 18 5.0720 -3.0491
0 0 20 3.7335 0.8516
0 0 22 -1.1823 1.9194
0 0 24 -2.8772 -2.5741
0 1 3 31.0792 -1.6395
0 1 5 19.0291 -0.5980
0 1 7 -16.8436 0.6569
0 1 9 -11.7366 -0.2016
0 1 11 -11.2629 0.4189
0 1 13 1.6003 -0.1031
0 1 15 3.3990 -0.8443
0 1 17 -1.7214 0.8478
0 1 19 -2.1627 0.3972
0 1 21 -0.7374 -1.2169
0 1 23 2.9919 0.9214
0 1 25 1.3895 0.7367
0 2 0 -9.9626 -7.4175
0 2 2 -41.9063 -2.5755
0 2 4 -39.4643 0.9607
0 2 6 4.5535 -0.1496
0 2 8 -7.9381 -0.1510
0 2 10 -14.8109 -0.3193
0 2 12 -2.9880 -0.1201
0 2 14 -2.2267 0.1128
0 2 16 -1.5072 -0.0554
0 2 18 -2.1430 0.0399
0 2 20 -0.9179 -0.3973
0 2 22 -1.3928 -0.3523
0 2 24 -2.5549 3.9765
0 3 1 10.1929 2.2053
0 3 3 35.0584 -2.1110
0 3 5 15.6536 -1.7648
0 3 7 4.6264 -0.5102
0 3 9 15.3737 0.8954
0 3 11 4.7273 0.6543
0 3 13 -1.6590 -0.8243
0 3 15 0.9399 -0.8297
0 3 17 2.5466 0.4065
0 3 19 1.4788 0.8402
0 3 21 1.2688 -0.5349
0 3 23 1.1377 -4.3332
0 4 0 49.5091 -1.6189
0 4 2 15.7629 1.1414
0 4 4 -25.3395 1.7183
0 4 6 -16.6786 0.3320
0 4 8 2.4609 0.0479
0 4 10 9.4294 -0.6213
0 4 12 7.1976 -0.5502
0 4 14 -0.4675 0.4906
0 4 16 -3.9502 0.7618
0 4 18 0.0949 -0.3515
0 4 20 0.0515 1.5182
0 4 22 -2.0570 1.7842
0 4 24 -0.2391 0.6744
0 5 1 -31.2800 7.9652
0 5 3 4.5829 -1.3566
0 5 5 20.4926 -0.8551
0 5 7 -1.2234 0.3850
0 5 9 -12.5119 0.0030
0 5 11 -4.9630 0.1470
0 5 13 0.4257 0.4372
0 5 15 3.5362 -0.5849
0 5 17 1.5768 -0.2976
0 5 19 -2.3286 -0.0598
0 5 21 2.1993 -0.7324
0 5 23 1.5515 3.0161
0 6 0 -9.3390 -18.2424
0 6 2 -3.3360 -4.4601
0 6 4 1.8074 3.4841
0 6 6 6.3546 -0.0943
0 6 8 4.9254 -0.5239
0 6 10 -5.9293 -0.3307
0 6 12 -4.1526 0.1177
0 6 14 2.6511 0.1525
0 6 16 -0.0372 0.5317
0 6 18 0.8773 -0.2878
0 6 20 0.6736 -0.7678
0 6 22 -0.1333 -0.6338
0 7 1 12.4613 11.6841
0 7 3 -9.3796 -1.6044
0 7 5 -13.0128 -0.7664
0 7 7 -2.6079 0.3604
0 7 9 6.7623 0.3395
0 7 11 4.5017 0.4124
0 7 13 -4.7625 0.0241
0 7 15 -3.2948 -0.0981
0 7 17 1.5435 -0.8449
0 7 19 0.0993 0.0943
0 7 21 -2.7927 1.1252
0 7 23 -3.9762 0.1183
0 8 0 -1.0251 -10.4272
0 8 2 6.1201 -2.4210
0 8 4 6.2976 1.7745
0 8 6 -3.7744 -0.1751
0 8 8 -4.3045 -0.3999
0 8 10 0.5913 -0.4357
0 8 12 2.3933 0.4408
0 8 14 0.5807 0.1023
0 8 16 -1.5479 0.1843
0 8 18 -1.0216 0.4573
0 8 20 1.2058 -0.0315
0 8 22 4.1322 -1.6752
0 9 1 -3.4179 2.1719
0 9 3 -1.4478 -1.2522
0 9 5 6.7091 -0.8852
0 9 7 4.8590 0.0597
0 9 9 -2.7124 0.7707
0 9 11 -0.8874 -0.3060
0 9 13 3.2309 0.0581
0 9 15 1.3347 0.2344
0 9 17 -1.9953 -0.0311
0 9 19 -1.1264 -2.0050
0 9 21 -0.9416 -3.4229
0 10 0 -2.6432 1.6373
0 10 2 -1.4581 0.5222
0 10 4 -3.8608 0.0493
0 10 6 -4.5111 0.4787
0 10 8 2.0103 0.0886
0 10 10 1.4636 -0.7459
0 10 12 -3.5626 -0.6896
0 10 14 -2.7057 -0.2904
0 10 16 0.2098 0.7765
0 10 18 1.0225 0.4855
0 10 20 -0.3437 3.6943
0 11 1 4.6126 2.8832
0 11 3 0.2400 -1.1203
0 11 5 2.4441 0.0454
0 11 7 0.4374 0.2837
0 11 9 -2.4550 1.2773
0 11 11 1.9442 0.6957
0 11 13 2.1916 -0.8771
0 11 15 2.1400 -0.8933
0 11 17 3.3516 1.5772
0 11 19 1.1125 3.3730
0 12 0 -3.1651 -11.3491
0 12 2 2.7398 -1.7540
0 12 4 3.5331 2.3914
0 12 6 -1.7863 -1.4153
0 12 8 1.6153 -0.5580
0 12 10 -0.0112 -0.0629
0 12 12 -0.8153 1.1238
0 12 14 3.3106 -1.5484
0 12 16 -1.2779 -4.0016
0 13 1 -2.4654 9.9524
0 13 3 -6.0362 -1.6248
0 13 5 2.1670 -0.2471
0 13 7 2.5484 -0.1286
0 13 9 -2.0484 -1.6472
0 13 11 1.1208 -0.2087
0 13 13 -4.1614 3.4572
0 13 15 -4.6966 7.1144
0 14 0 0.8741 -10.9248
0 14 2 2.9558 -3.1795
0 14 4 -0.5554 2.4196
0 14 6 -4.4761 -0.1443
0 14 8 3.1639 0.3279
0 14 10 2.6961 -2.2676
0 14 12 -0.4309 -2.8700
0 15 1 -1.1318 2.6134
0 15 3 -1.7052 -2.0074
0 15 5 -1.1633 0.4616
0 15 7 -3.7998 1.5566
0 15 9 -6.3595 3.8569
0 16 0 2.9805 3.1492
0 16 2 1.1141 2.3531
0 16 4 2.4130 -0.8995
0 16 6 3.6424 -2.5271
1 1 2 -11.8814 8.2435
1 1 4 -29.2861 -0.0526
1 1 6 15.4722 -2.4360
1 1 8 8.6260 -0.6092
1 1 10 1.4482 0.7797
1 1 12 3.7919 0.0158
1 1 14 -2.6872 -0.9578
1 1 16 -0.0140 -0.4150
1 1 18 0.9616 0.5473
1 1 20 1.1342 1.1300
1 1 22 -1.0017 -0.8486
1 1 24 -2.4208 -1.0793
1 2 1 29.2928 -5.9552
1 2 3 28.0016 -1.6694
1 2 5 -19.0828 2.3166
1 2 7 -17.2047 1.3305
1 2 9 16.1383 -0.5667
1 2 11 5.3937 -0.8682
1 2 13 -2.8147 0.4199
1 2 15 -1.0326 1.2233
1 2 17 0.4896 -0.5803
1 2 19 1.3360 -1.0012
1 2 21 0.2694 1.1953
1 2 23 0.3079 0.2207
1 2 25 0.5059 -3.3354
1 3 0 -8.8494 2.1337
1 3 2 -12.4632 1.4323
1 3 4 4.2131 -1.7719
1 3 6 18.5047 -1.9711
1 3 8 -6.0345 -0.0232
1 3 10 -9.4520 0.3803
1 3 12 4.3070 0.5899
1 3 14 3.1481 -0.1426
1 3 16 -0.4602 -0.4397
1 3 18 -1.8397 -0.2554
1 3 20 -1.8082 -0.5070
1 3 22 0.3426 -0.1011
1 3 24 0.7920 2.8719
1 4 1 -33.1622 -9.2910
1 4 3 -1.4852 -2.9009
1 4 5 9.8895 2.7278
1 4 7 0.3615 1.4003
1 4 9 -6.2296 -0.3260
1 4 11 -8.8799 -0.5024
1 4 13 -3.3954 0.2276
1 4 15 2.2500 0.5687
1 4 17 1.9275 0.7131
1 4 19 0.4616 -0.2760
1 4 21 1.9626 -0.9013
1 4 23 -0.0040 2.5348
1 5 0 29.3898 6.3876
1 5 2 11.7334 4.7109
1 5 4 -15.6740 -0.8286
1 5 6 -9.6451 -2.5180
1 5 8 9.3500 -0.1112
1 5 10 7.3004 0.9742
1 5 12 -0.4988 0.3675
1 5 14 -2.0880 -0.7520
1 5 16 -2.8885 -0.4384
1 5 18 0.3142 -0.3146
1 5 20 -1.4708 0.9896
1 5 22 -3.7675 -2.0299
1 5 24 -0.7160 -6.6532
1 6 1 10.8269 -2.5611
1 6 3 2.5206 -2.2219
1 6 5 -1.0575 1.7817
1 6 7 -6.2505 0.7056
1 6 9 0.3458 -0.2528
1 6 11 8.1829 -0.6857
1 6 13 1.0385 0.2172
1 6 15 -0.9520 0.5840
1 6 17 1.4277 0.1909
1 6 19 0.3754 0.3201
1 6 21 2.9505 -0.4433
1 6 23 1.4542 0.9131
1 7 0 -21.1919 9.1990
1 7 2 -4.0678 8.0304
1 7 4 10.6108 1.0878
1 7 6 5.2122 -1.8571
1 7 8 -1.2482 -0.1789
1 7 10 -4.8522 0.1004
1 7 12 0.3550 0.2729
1 7 14 3.9504 -0.7942
1 7 16 -1.4214 -0.2816
1 7 18 -1.6817 -0.0800
1 7 20 -0.2628 0.0215
1 7 22 1.3443 1.2421
1 8 1 1.9077 -4.9591
1 8 3 -6.9161 -2.3601
1 8 5 1.4052 2.2684
1 8 7 5.4473 0.9795
1 8 9 -1.4316 -0.1981
1 8 11 -3.8994 -0.8203
1 8 13 -1.9371 -0.1870
1 8 15 1.2280 0.4763
1 8 17 0.0353 0.5385
1 8 19 -1.6237 0.4352
1 8 21 -2.1375 -0.1508
1 9 0 1.6120 2.2244
1 9 2 2.8623 1.8648
1 9 4 -3.1397 -0.9083
1 9 6 -7.8969 -1.5673
1 9 8 0.4639 0.1166
1 9 10 3.9458 0.8430
1 9 12 -0.5899 0.2891
1 9 14 -2.4988 -0.7929
1 9 16 1.5213 -0.7203
1 9 18 5.2176 -0.4547
1 9 20 1.8664 1.9686
1 10 1 1.7085 -7.4751
1 10 3 2.5065 -2.5788
1 10 5 5.0767 1.5945
1 10 7 0.3336 0.4710
1 10 9 -3.2194 -0.5495
1 10 11 1.0742 -0.4212
1 10 13 2.8546 0.7187
1 10 15 1.6639 0.2170
1 10 17 -2.3935 -0.2552
1 10 19 -2.7104 -1.2852
1 11 0 -4.6034 3.2922
1 11 2 -2.5654 2.4323
1 11 4 -1.8270 -0.8768
1 11 6 -1.0054 -1.2957
1 11 8 2.8465 0.1906
1 11 10 -0.2299 0.0000
1 11 12 -3.0368 1.2145
1 11 14 -2.1384 0.7377
1 11 16 -2.9359 0.4010
1 11 18 -0.2959 -0.8720
1 12 1 1.3637 -1.6913
1 12 3 -2.7582 -1.8427
1 12 5 -0.5722 1.2646
1 12 7 -0.1488 -0.0895
1 12 9 -0.2707 -0.0161
1 12 11 4.0604 -1.0354
1 12 13 0.6518 -0.5445
1 12 15 -0.7000 2.9793
1 12 17 2.1022 2.1086
1 13 0 0.0916 7.5712
1 13 2 2.9641 5.8691
1 13 4 2.2187 1.1914
1 13 6 -2.7987 -1.5774
1 13 8 -0.2602 0.7823
1 13 10 -1.0458 0.3775
1 13 12 -1.6283 -0.2906
1 13 14 3.2485 -5.3773
1 14 1 1.8349 -1.3157
1 14 3 -0.1856 -2.0011
1 14 5 1.7399 1.3090
1 14 7 -0.0720 0.4703
1 14 9 -5.4121 0.4807
1 14 11 -2.0284 1.5971
1 14 13 -0.5064 2.6373
1 15 0 -5.3044 0.6923
1 15 2 -3.3713 1.1097
1 15 4 1.2037 0.2964
1 15 6 3.5257 -0.9928
1 15 8 7.1204 -0.5591
1 15 10 6.8538 -2.7585
1 16 1 3.1442 -6.6467
1 16 3 0.6171 -1.2959
1 16 5 -3.8277 1.9159
2 1 1 30.2268 -2.0680
2 1 3 32.3712 0.7556
2 1 5 -14.8184 -0.2906
2 1 7 -16.3428 -0.9367
2 1 9 15.8269 -0.0153
2 1 11 5.7046 -0.3578
2 1 13 -2.2317 0.0488
2 1 15 -0.3286 0.5633
2 1 17 0.0022 -0.7646
2 1 19 -0.0731 -0.5707
2 1 21 0.6856 1.3200
2 1 23 1.7262 -0.1420
2 1 25 0.7367 -3.6255
2 2 0 -42.5729 -0.6391
2 2 2 -20.3171 -0.7078
2 2 4 40.0444 -0.1984
2 2 6 55.8075 1.6470
2 2 8 -0.9700 1.0065
2 2 10 -15.0772 -0.0285
2 2 12 6.1487 0.2929
2 2 14 6.2406 -0.6251
2 2 16 2.5330 0.2852
2 2 18 1.5322 1.3907
2 2 20 -0.6171 -0.7542
2 2 22 -0.2230 -1.3575
2 2 24 0.6880 2.2145
2 3 1 15.4952 7.7292
2 3 3 -23.9806 3.8648
2 3 5 -51.5506 -0.1337
2 3 7 -17.6533 -2.2460
2 3 9 14.2718 -0.0230
2 3 11 -0.5584 0.4838
2 3 13 -7.5182 -0.1713
2 3 15 -2.5489 -0.2088
2 3 17 -1.8959 -0.6458
2 3 19 0.0041 0.4852
2 3 21 0.7188 0.8982
2 3 23 -2.4906 -1.0728
2 4 0 16.2580 2.6889
2 4 2 13.2765 1.4008
2 4 4 8.2992 -0.2364
2 4 6 3.8621 0.9048
2 4 8 -1.1994 0.7188
2 4 10 2.8856 -0.4526
2 4 12 4.4158 0.1406
2 4 14 0.0613 -0.0243
2 4 16 0.4283 -0.1835
2 4 18 2.0090 -0.2614
2 4 20 0.1282 0.2042
2 4 22 1.7169 -1.1729
2 4 24 1.8375 -3.5121
2 5 1 -13.1277 0.4875
2 5 3 3.2520 1.6263
2 5 5 12.0523 0.4000
2 5 7 -0.3485 -1.6988
2 5 9 -5.9492 -0.1682
2 5 11 1.4368 -0.0739
2 5 13 2.9528 -0.1600
2 5 15 -0.5770 -0.1222
2 5 17 -2.2383 -0.1031
2 5 19 -1.8010 -0.5120
2 5 21 0.6825 0.0702
2 5 23 -0.3983 4.8707
2 6 0 -14.4835 -4.6603
2 6 2 -6.1033 -4.0314
2 6 4 -0.2318 -2.7639
2 6 6 2.7101 1.7771
2 6 8 4.1431 1.4213
2 6 10 -6.6704 -0.6256
2 6 12 -7.5860 -0.2152
2 6 14 1.7951 0.0594
2 6 16 1.3217 0.7768
2 6 18 0.1388 0.0290
2 6 20 -1.4331 0.5397
2 6 22 -1.7951 0.6548
2 7 1 17.5856 -5.4184
2 7 3 -5.0827 -0.4858
2 7 5 -5.7685 0.4962
2 7 7 -1.2957 -1.5713
2 7 9 1.2343 0.2522
2 7 11 3.8222 0.2740
2 7 13 -1.7835 0.1288
2 7 15 -0.4784 -0.4276
2 7 17 2.7713 -0.1013
2 7 19 0.8243 0.6132
2 7 21 0.6859 -2.1089
2 8 0 -8.8671 -1.2774
2 8 2 1.8114 -1.6951
2 8 4 3.3242 -2.1151
2 8 6 -5.3848 0.6867
2 8 8 0.6683 1.1446
2 8 10 4.0115 -0.2296
2 8 12 2.4068 0.0646
2 8 14 -0.1415 0.6887
2 8 16 -2.6937 0.6019
2 8 18 1.6301 -1.2066
2 8 20 1.9349 0.3978
2 8 22 1.6248 2.8340
2 9 1 -0.8297 6.3985
2 9 3 -2.1273 2.5066
2 9 5 5.2389 0.0258
2 9 7 2.2872 -1.7012
2 9 9 -3.5858 -0.4148
2 9 11 -0.6321 0.7698
2 9 13 0.8564 0.3092
2 9 15 1.9658 -0.6786
2 9 17 -2.2307 0.6275
2 9 19 -4.3704 0.2927
2 9 21 -0.5123 -2.2128
2 10 0 -0.9397 2.7055
2 10 2 0.0498 2.2582
2 10 4 -1.5903 0.7862
2 10 6 -1.2872 0.0438
2 10 8 2.9137 0.5761
2 10 10 0.1279 -0.1914
2 10 12 -1.4676 -0.3235
2 10 14 -1.4015 -0.0625
2 10 16 -1.7995 0.3123
2 10 18 2.0890 0.3179
2 10 20 0.5363 1.1388
2 11 1 1.0813 3.0989
2 11 3 -0.5720 2.0712
2 11 5 -0.5667 0.6701
2 11 7 -2.2918 -1.6499
2 11 9 -2.0812 0.1815
2 11 11 1.7277 -0.0962
2 11 13 1.2702 -0.9559
2 11 15 1.9154 -0.1533
2 11 17 1.1960 -1.1598
2 12 0 -0.8690 -3.4263
2 12 2 0.9449 -3.2590
2 12 4 3.1840 -1.9662
2 12 6 1.3883 2.2965
2 12 8 0.1927 1.2273
2 12 10 -2.1086 -1.7561
2 12 12 -3.2332 1.2154
2 12 14 -0.0066 -0.7972
2 12 16 1.0660 -1.5059
2 13 1 1.0376 -5.4755
2 13 3 -0.3593 -0.5014
2 13 5 -1.3582 1.3667
2 13 7 1.7820 -0.5734
2 13 9 1.6151 1.1661
2 13 11 1.3183 -0.6449
2 13 13 0.7327 -0.7671
2 13 15 -1.2443 3.4795
2 14 0 -3.5081 -2.0666
2 14 2 -4.8721 -2.1773
2 14 4 -1.5632 -1.7613
2 14 6 0.5699 -0.6941
2 14 8 1.0114 0.9419
2 14 10 4.2151 0.7182
2 14 12 1.9889 1.9878
2 15 1 7.1672 4.9280
2 15 3 4.7549 1.5049
2 15 5 -2.3362 -1.5726
2 15 7 -3.7645 -3.3090
2 15 9 -5.4217 -2.3050
2 16 0 -5.5319 7.5717
2 16 2 -4.6169 0.5112
2 16 4 0.4156 0.2725
2 16 6 2.2357 2.5292
3 1 0 -7.8655 -0.1348
3 1 2 -15.5985 0.3710
3 1 4 -2.6237 1.3077
3 1 6 15.7892 0.6298
3 1 8 -5.0141 -0.9734
3 1 10 -9.2444 -0.5636
3 1 12 4.1450 0.4533
3 1 14 2.7249 0.3288
3 1 16 -0.6870 -0.4403
3 1 18 0.7138 -0.7330
3 1 20 0.0152 -0.5228
3 1 22 -1.7759 0.2882
3 1 24 -0.6409 3.2494
3 2 1 15.7501 0.2317
3 2 3 -20.5448 -0.7904
3 2 5 -49.1538 -1.4106
3 2 7 -18.4072 -0.2293
3 2 9 13.9353 1.3927
3 2 11 -0.4421 0.3523
3 2 13 -8.2385 -0.3713
3 2 15 -2.1451 -0.0177
3 2 17 -1.6154 -0.0090
3 2 19 -0.9835 0.6374
3 2 21 2.2323 0.3994
3 2 23 0.1870 -1.2268
3 3 0 -22.2659 -10.5292
3 3 2 -0.3639 -5.5104
3 3 4 32.5330 -0.4479
3 3 6 22.3807 1.9363
3 3 8 -13.3119 -0.1368
3 3 10 -10.4209 -1.5651
3 3 12 5.4092 -0.2519
3 3 14 2.1210 0.4146
3 3 16 0.4302 1.0087
3 3 18 1.7392 0.1186
3 3 20 -1.5186 -0.4553
3 3 22 0.6705 2.7261
3 3 24 1.5457 5.4669
3 4 1 1.5067 -1.7840
3 4 3 1.2947 -2.4153
3 4 5 4.0441 -1.6413
3 4 7 9.9345 -0.0771
3 4 9 7.1007 1.3157
3 4 11 -2.5988 0.0591
3 4 13 -0.4435 -0.3760
3 4 15 1.8870 0.0113
3 4 17 -2.1653 0.0181
3 4 19 -1.7203 0.3694
3 4 21 -1.6186 -0.8879
3 4 23 -5.0213 -2.7153
3 5 0 8.4967 -3.6090
3 5 2 2.0148 -1.3980
3 5 4 -9.0705 0.6797
3 5 6 -6.5731 1.1989
3 5 8 1.4911 -0.7978
3 5 10 1.4858 -0.8613
3 5 12 -1.3443 0.2755
3 5 14 -0.5568 0.2092
3 5 16 2.3806 0.3499
3 5 18 3.7655 0.2698
3 5 20 1.4891 0.0232
3 5 22 3.7753 -0.9918
3 6 1 4.7877 8.9634
3 6 3 -3.5653 3.7382
3 6 5 -5.4700 -1.2008
3 6 7 -6.0449 -1.2836
3 6 9 0.7850 1.3414
3 6 11 6.8633 0.6194
3 6 13 0.1640 0.2193
3 6 15 -3.2136 -0.6153
3 6 17 -1.2155 -0.8715
3 6 19 -0.3237 0.1699
3 6 21 -0.1951 1.0781
3 6 23 -2.7682 1.2572
3 7 0 -15.5354 2.0222
3 7 2 -1.9709 1.5383
3 7 4 8.5733 0.6354
3 7 6 4.2546 0.9731
3 7 8 0.5163 -1.1157
3 7 10 -4.4919 -0.4926
3 7 12 -1.3725 0.5584
3 7 14 2.5874 -0.4375
3 7 16 -2.5975 0.0352
3 7 18 -2.2337 -0.4737
3 7 20 -0.4572 -0.7136
3 7 22 1.5943 0.0325
3 8 1 2.0073 3.6039
3 8 3 -4.6809 1.6605
3 8 5 1.1351 -0.6538
3 8 7 2.2295 -0.6488
3 8 9 -0.9002 1.1204
3 8 11 -0.2267 -0.0289
3 8 13 -1.3401 -0.1220
3 8 15 2.6493 -0.2742
3 8 17 2.5836 -0.0931
3 8 19 -1.3808 -0.2906
3 8 21 -0.9892 -2.0290
3 9 0 3.6264 -8.6628
3 9 2 4.4738 -4.3356
3 9 4 -0.1107 0.4919
3 9 6 -3.9136 1.7843
3 9 8 -0.1181 -0.0096
3 9 10 -0.5317 -1.3504
3 9 12 -0.6180 -0.6169
3 9 14 -1.1733 0.8039
3 9 16 -2.3174 0.8064
3 9 18 2.1770 0.3293
3 9 20 1.3270 2.8687
3 10 1 -1.5378 -3.4323
3 10 3 -0.8798 -3.5316
3 10 5 3.3041 -0.2801
3 10 7 2.2183 1.3012
3 10 9 0.4938 0.7853
3 10 11 1.8072 -0.0334
3 10 13 0.6400 -0.4241
3 10 15 2.9123 -0.0664
3 10 17 1.5569 0.6698
3 10 19 -0.6414 -0.9074
3 11 0 -0.2378 -4.5167
3 11 2 1.0848 -2.1333
3 11 4 -1.2569 -0.4785
3 11 6 -4.7728 -0.0162
3 11 8 -0.9320 -0.2696
3 11 10 -0.4327 -0.8795
3 11 12 -1.5025 -0.0449
3 11 14 -1.1571 -1.1630
3 11 16 -1.7805 -1.7899
3 11 18 -0.2701 -0.0901
3 12 1 -1.0776 5.7670
3 12 3 -1.9690 2.1529
3 12 5 1.0816 -1.6632
3 12 7 2.9747 -2.5270
3 12 9 0.9154 2.1005
3 12 11 1.5127 1.5519
3 12 13 0.2825 -0.0484
3 12 15 -1.7515 2.5912
3 13 0 2.8552 3.6603
3 13 2 0.2652 2.7210
3 13 4 0.9185 0.2686
3 13 6 0.1645 -0.1819
3 13 8 -3.1940 -1.4312
3 13 10 -0.4913 -1.0148
3 13 12 2.3356 4.0072
3 13 14 1.7233 1.5165
3 14 1 -3.0474 4.1691
3 14 3 3.4398 0.5969
3 14 5 -1.9531 0.5955
3 14 7 0.5888 0.5137
3 14 9 2.1689 -0.9197
3 14 11 -4.3919 -4.5150
3 15 0 3.8741 -5.9360
3 15 2 -2.8018 -3.3154
3 15 4 -1.5844 2.3989
3 15 6 2.9443 3.0598
3 15 8 -1.4682 3.0496
3 16 1 0.6340 -4.3160
3 16 3 2.4688 0.1002
4 1 1 -34.2115 -7.9289
4 1 3 0.7306 -3.5060
4 1 5 11.5331 1.1692
4 1 7 -0.8896 2.1474
4 1 9 -7.4598 -0.5959
4 1 11 -9.2388 -0.7876
4 1 13 -3.7025 0.2367
4 1 15 2.5764 0.3919
4 1 17 1.2738 1.0221
4 1 19 -2.3594 -0.2963
4 1 21 0.9548 -1.0741
4 1 23 1.0030 2.5465
4 2 0 16.0764 7.9495
4 2 2 12.2311 4.4914
4 2 4 7.7940 -0.2550
4 2 6 5.7718 -2.1614
4 2 8 0.0176 -0.8503
4 2 10 2.4875 0.9173
4 2 12 5.3823 0.4850
4 2 14 0.8557 -0.2906
4 2 16 -1.6228 -0.5635
4 2 18 0.4879 -0.4651
4 2 20 -0.5864 0.6400
4 2 22 -1.2329 -1.2492
4 2 24 0.4518 -4.0438
4 3 1 3.3804 1.8690
4 3 3 1.8059 1.9197
4 3 5 2.8060 1.4752
4 3 7 9.1225 0.4087
4 3 9 8.0606 -0.5132
4 3 11 -2.3986 -0.4606
4 3 13 -1.8600 0.5124
4 3 15 2.2360 0.0705
4 3 17 0.4957 -0.5962
4 3 19 0.2700 -0.1452
4 3 21 0.6601 -0.6556
4 3 23 -2.7350 -1.9172
4 4 0 0.7867 10.0146
4 4 2 -7.0735 6.3081
4 4 4 -17.8689 0.6388
4 4 6 -16.2179 -2.4073
4 4 8 -7.6745 -0.9626
4 4 10 4.0149 1.6751
4 4 12 4.9540 0.8557
4 4 14 -4.4997 -0.9499
4 4 16 -3.9885 -1.0750
4 4 18 1.0380 -0.8237
4 4 20 -0.6102 -0.3889
4 4 22 3.5466 1.9301
4 5 1 -7.1477 -4.5489
4 5 3 6.2859 -1.9211
4 5 5 9.6091 1.3698
4 5 7 0.9244 2.0707
4 5 9 -5.1039 -0.3271
4 5 11 -6.4171 -1.1058
4 5 13 0.3252 0.2582
4 5 15 5.2023 0.6100
4 5 17 -0.0541 0.6369
4 5 19 -0.4876 0.1479
4 5 21 0.4063 0.0051
4 5 23 -4.8922 -0.3303
4 6 0 1.5223 -2.5175
4 6 2 2.3943 -0.8113
4 6 4 4.7117 0.0198
4 6 6 7.5049 -0.4134
4 6 8 4.0509 -0.3667
4 6 10 -0.3540 0.7637
4 6 12 1.0244 -0.0260
4 6 14 0.4464 -0.4236
4 6 16 -0.9948 0.2713
4 6 18 0.3265 0.4054
4 6 20 -1.2941 -0.7830
4 6 22 1.4553 -2.4180
4 7 1 4.3913 -8.9209
4 7 3 -1.4943 -4.4254
4 7 5 -5.4731 0.5038
4 7 7 -3.1098 2.1831
4 7 9 1.9372 0.0017
4 7 11 1.0097 -2.5449
4 7 13 -2.6472 0.1322
4 7 15 0.1343 1.7000
4 7 17 2.2715 0.4189
4 7 19 0.9867 0.8062
4 7 21 -0.2829 3.4532
4 8 0 1.8133 3.4389
4 8 2 -0.3484 2.1948
4 8 4 -2.2045 -0.3132
4 8 6 -1.9817 -1.0249
4 8 8 -1.6422 -1.2478
4 8 10 0.2268 0.8912
4 8 12 2.1215 0.7831
4 8 14 0.3242 -1.6410
4 8 16 -1.4395 -0.5221
4 8 18 0.3142 0.6966
4 8 20 0.1471 -0.3547
4 9 1 -3.9528 1.2500
4 9 3 1.3526 0.4398
4 9 5 3.3579 -0.3614
4 9 7 2.9097 -0.4230
4 9 9 0.6748 -0.0314
4 9 11 -1.6048 -0.0686
4 9 13 -0.4999 0.4564
4 9 15 1.0176 -0.4843
4 9 17 -2.4838 -0.4056
4 9 19 -2.1386 -0.7102
4 10 0 -1.1534 9.9247
4 10 2 -1.4243 6.2206
4 10 4 -3.9036 0.8707
4 10 6 -5.8685 -2.7027
4 10 8 -2.2715 -0.5688
4 10 10 0.2380 2.1957
4 10 12 -0.1176 1.2636
4 10 14 -2.4193 0.6010
4 10 16 -1.5830 -0.9838
4 10 18 1.9957 -2.0323
4 11 1 2.7233 -1.0110
4 11 3 2.1286 -0.3889
4 11 5 9.2054 1.6968
4 11 7 6.6913 1.2128
4 11 9 0.1304 -1.4320
4 11 11 2.4921 -0.8520
4 11 13 2.7466 0.5111
4 11 15 3.2879 1.4432
4 11 17 1.1131 2.4812
4 12 0 -0.9472 -1.6485
4 12 2 0.9199 -0.4300
4 12 4 -2.7152 1.0045
4 12 6 -6.5397 1.4663
4 12 8 -0.5391 1.0591
4 12 10 -1.4015 -1.1096
4 12 12 -2.2775 -0.4243
4 12 14 0.3277 0.0804
4 12 16 -0.5502 -1.6218
4 13 1 -3.1107 -7.6509
4 13 3 -0.4067 -3.7917
4 13 5 -0.6302 1.0945
4 13 7 -0.8147 1.3919
4 13 9 0.2488 0.8910
4 13 11 -1.1983 -2.2227
4 13 13 -3.8708 -5.1130
4 14 0 11.1473 -0.5133
4 14 2 2.1725 1.1623
4 14 4 0.4462 -0.3705
4 14 6 4.8529 -2.9100
4 14 8 -1.6516 -1.2345
4 14 10 -0.4624 2.0899
4 14 12 5.5230 5.4498
4 15 1 -8.2454 1.6782
4 15 3 2.4954 -0.1799
4 15 5 -3.8869 -0.2040
4 15 7 -1.8593 0.9911
4 16 0 4.3009 11.3261
4 16 2 -1.3069 1.1030
5 1 0 29.7920 2.3196
5 1 2 12.0336 1.3249
5 1 4 -15.2986 0.3207
5 1 6 -8.9939 -0.1693
5 1 8 10.4700 0.6508
5 1 10 8.3783 0.9962
5 1 12 -0.9305 -0.0115
5 1 14 -2.6179 0.0663
5 1 16 -2.5988 -0.0161
5 1 18 0.9983 -0.7004
5 1 20 0.7455 0.6058
5 1 22 -1.7949 -1.9158
5 1 24 -0.1782 -6.1887
5 2 1 -11.4531 -0.5841
5 2 3 3.1249 -0.0435
5 2 5 10.6195 -0.0710
5 2 7 -1.2167 -0.4068
5 2 9 -6.1264 -0.7963
5 2 11 1.8096 -0.2601
5 2 13 3.5261 -0.0441
5 2 15 0.0274 -0.2944
5 2 17 0.3917 0.3046
5 2 19 0.1673 -0.4575
5 2 21 0.9930 -0.1210
5 2 23 0.4036 4.9069
5 3 0 5.2689 -8.0380
5 3 2 -0.0908 -5.2269
5 3 4 -9.3449 -0.8016
5 3 6 -6.4392 1.7906
5 3 8 0.8487 1.4659
5 3 10 0.6322 -0.0862
5 3 12 -1.5962 -1.2355
5 3 14 0.0790 -0.0433
5 3 16 1.3648 1.0814
5 3 18 1.3300 0.9224
5 3 20 0.3875 0.0547
5 3 22 1.7125 -1.5809
5 4 1 -6.2740 -2.8931
5 4 3 7.3582 -1.0910
5 4 5 10.6552 0.0782
5 4 7 1.4531 0.0553
5 4 9 -5.0186 -1.0299
5 4 11 -6.3613 -0.4165
5 4 13 0.0585 0.2171
5 4 15 4.5012 -0.0069
5 4 17 -0.3241 0.5881
5 4 19 -1.3158 0.5552
5 4 21 0.2765 0.3171
5 4 23 -3.6498 -0.6594
5 5 0 12.0705 0.2010
5 5 2 2.8806 -0.6951
5 5 4 -5.8872 -0.7280
5 5 6 -0.6157 -0.2404
5 5 8 3.7645 0.8260
5 5 10 7.0019 0.2611
5 5 12 4.1040 -0.9594
5 5 14 -6.5331 0.7711
5 5 16 -5.1651 0.2786
5 5 18 1.3030 -0.2487
5 5 20 -2.4701 1.8666
5 5 22 -0.4667 2.6526
5 6 1 -4.8890 5.7270
5 6 3 -0.2912 2.2042
5 6 5 -4.5155 -0.7398
5 6 7 -3.7867 -2.0205
5 6 9 0.3635 -0.8924
5 6 11 -2.0342 1.5959
5 6 13 0.9734 0.6555
5 6 15 3.8397 -1.5143
5 6 17 -0.4881 -0.5046
5 6 19 -0.2961 -1.1833
5 6 21 0.8494 -1.9745
5 7 0 1.7467 4.5577
5 7 2 -2.7236 3.4897
5 7 4 -0.3834 0.2627
5 7 6 3.8017 -0.6216
5 7 8 -2.2595 0.0376
5 7 10 -1.2241 1.0778
5 7 12 1.1176 0.5756
5 7 14 -0.9759 -0.0894
5 7 16 0.0076 0.0176
5 7 18 0.5413 -0.0687
5 7 20 0.8520 -1.3181
5 8 1 -1.9960 1.0481
5 8 3 6.3519 1.4840
5 8 5 2.2653 0.8963
5 8 7 3.0297 -0.1129
5 8 9 2.6795 0.1447
5 8 11 -2.3577 -0.2320
5 8 13 0.8157 0.7345
5 8 15 1.1783 -0.3689
5 8 17 -1.6100 -1.5044
5 8 19 -0.0806 0.9926
5 9 0 3.7520 -5.9881
5 9 2 -2.1037 -4.0876
5 9 4 -3.4132 -0.6962
5 9 6 -1.3972 2.3617
5 9 8 -2.8478 1.2655
5 9 10 1.9360 -0.8189
5 9 12 1.8168 -1.9337
5 9 14 -2.6239 0.1413
5 9 16 1.6845 1.5203
5 9 18 3.6100 -2.2720
5 10 1 2.5147 -3.3667
5 10 3 2.2091 -1.0458
5 10 5 1.7543 0.6096
5 10 7 0.7819 0.6909
5 10 9 -1.5591 -1.1485
5 10 11 -1.7279 -0.3569
5 10 13 1.3060 0.0392
5 10 15 2.9422 -0.7046
5 10 17 -2.1046 4.2035
5 11 0 -2.7021 -2.2171
5 11 2 0.0619 -2.6264
5 11 4 -2.7607 -0.8476
5 11 6 -4.9648 -1.2037
5 11 8 2.0282 0.4984
5 11 10 -0.5615 0.6175
5 11 12 -2.7222 -0.9123
5 11 14 -2.0928 1.3603
5 11 16 -2.9708 -0.5564
5 12 1 -1.0642 4.7271
5 12 3 -2.2227 1.3668
5 12 5 4.5231 -1.2156
5 12 7 -0.4743 -1.9771
5 12 9 -2.7112 -0.2092
5 12 11 3.9789 2.3540
5 12 13 -0.4812 -1.7074
5 12 15 0.1882 -3.5379
5 13 0 0.6798 5.4693
5 13 2 1.2855 2.5361
5 13 4 -0.0078 -0.5941
5 13 6 0.7937 -0.9418
5 13 8 4.2332 0.5607
5 13 10 0.2419 -0.8996
5 13 12 1.1784 2.3067
5 14 1 -3.4740 2.1207
5 14 3 1.2570 1.3760
5 14 5 -2.1938 1.4896
5 14 7 -2.8540 -0.3583
5 14 9 0.3055 -0.2397
5 14 11 -1.1485 -0.6147
5 15 0 7.4148 -4.0892
5 15 2 0.0541 -3.5504
5 15 4 0.0123 -0.1878
5 15 6 5.1069 1.0461
6 1 1 11.0603 -0.3551
6 1 3 2.0381 -0.3220
6 1 5 -1.4153 -0.6273
6 1 7 -6.2403 -0.0578
6 1 9 -0.4023 0.8346
6 1 11 8.6054 -0.1211
6 1 13 2.3874 -0.3871
6 1 15 -2.6926 0.2172
6 1 17 -0.2117 0.4987
6 1 19 -0.1251 0.9203
6 1 21 0.7397 -0.5065
6 1 23 -0.0806 0.3398
6 2 0 -15.6777 -1.1613
6 2 2 -6.4875 -0.1171
6 2 4 -0.0520 0.4381
6 2 6 2.1858 0.3320
6 2 8 4.0030 -0.7557
6 2 10 -6.8678 -0.9963
6 2 12 -10.2059 0.0114
6 2 14 1.8107 0.4886
6 2 16 3.6405 -0.1826
6 2 18 -1.0345 -0.5207
6 2 20 -1.9141 0.9092
6 2 22 -1.4918 1.0733
6 3 1 5.3247 7.3152
6 3 3 -3.2252 1.8965
6 3 5 -4.6167 -1.8759
6 3 7 -5.5920 -1.1065
6 3 9 0.3550 1.3375
6 3 11 8.2551 1.9388
6 3 13 1.4255 0.4490
6 3 15 -6.4073 -0.8208
6 3 17 -3.3164 -0.9323
6 3 19 -0.8960 -0.3215
6 3 21 -0.6791 1.1817
6 3 23 -0.9736 1.3975
6 4 0 2.8031 0.9470
6 4 2 3.2470 1.3653
6 4 4 4.3041 1.2591
6 4 6 7.0288 0.3530
6 4 8 5.0150 -0.8145
6 4 10 0.4882 -0.3834
6 4 12 0.0508 0.4296
6 4 14 1.3419 0.7651
6 4 16 1.8540 -0.1752
6 4 18 2.2773 -0.4355
6 4 20 0.8974 -1.1787
6 4 22 1.2105 -2.0406
6 5 1 -6.1738 2.0806
6 5 3 -0.9173 1.0487
6 5 5 -4.2656 -0.2957
6 5 7 -3.7388 -0.2174
6 5 9 -0.2937 0.7142
6 5 11 -2.1993 1.0390
6 5 13 1.6672 -0.5987
6 5 15 3.9899 -1.1069
6 5 17 0.2144 0.5556
6 5 19 0.5828 -0.8047
6 5 21 1.2649 -2.3795
6 6 0 5.8351 -8.5657
6 6 2 0.6224 -5.0208
6 6 4 2.5686 -0.5243
6 6 6 5.1537 2.3125
6 6 8 -3.8075 0.7934
6 6 10 -2.0232 -2.0410
6 6 12 -0.6232 -2.0119
6 6 14 -4.2398 0.9028
6 6 16 -0.3786 0.0677
6 6 18 0.7063 -0.5884
6 6 20 0.3787 2.5321
6 7 1 -0.4735 -2.0888
6 7 3 2.9147 -0.6857
6 7 5 -4.7069 0.1255
6 7 7 1.0321 0.2037
6 7 9 5.0313 0.4224
6 7 11 -0.6076 -0.1311
6 7 13 2.4163 -0.5194
6 7 15 1.1793 0.0663
6 7 17 -1.2756 1.4410
6 7 19 -0.5045 0.6283
6 7 21 -4.2032 -0.5284
6 8 0 3.9919 -3.1680
6 8 2 -2.4568 -1.6267
6 8 4 -1.7533 -1.1251
6 8 6 0.1509 0.2763
6 8 8 -5.3446 -0.4704
6 8 10 -0.1607 -0.4697
6 8 12 0.1643 0.1523
6 8 14 -3.7325 0.9224
6 8 16 -0.5988 1.6321
6 8 18 -0.8112 0.2464
6 8 20 -0.0896 -1.3824
6 9 1 -3.0433 5.3550
6 9 3 0.7797 1.5105
6 9 5 -1.3145 -1.8605
6 9 7 1.4169 -1.8854
6 9 9 1.2802 0.6880
6 9 11 -1.6767 1.7189
6 9 13 1.9154 0.4302
6 9 15 2.7670 -1.9590
6 9 17 -0.5237 0.9652
6 9 19 0.5211 5.0627
6 10 0 0.6540 2.7406
6 10 2 0.9128 2.4777
6 10 4 1.8352 1.2994
6 10 6 2.0323 -0.6236
6 10 8 2.1317 -0.9050
6 10 10 1.1544 -0.1154
6 10 12 0.7350 -0.4767
6 10 14 -1.3480 0.4168
6 10 16 -1.5762 -3.0296
6 10 18 1.4001 -8.4919
6 11 1 -1.9330 3.1877
6 11 3 -2.7803 0.2591
6 11 5 0.8077 -0.3191
6 11 7 -1.5989 1.1851
6 11 9 -1.7999 0.6197
6 11 11 1.3318 1.2593
6 11 13 -1.9225 -0.3606
6 11 15 0.7882 -0.8729
6 12 0 2.7557 -5.8648
6 12 2 4.9069 -3.4775
6 12 4 0.9716 1.2626
6 12 6 -2.5044 1.6161
6 12 8 2.4027 0.5138
6 12 10 -0.7887 -2.1256
6 12 12 0.6138 -0.7996
6 12 14 3.6070 4.4287
6 13 1 0.6932 -2.5095
6 13 3 -1.5795 -0.8277
6 13 5 3.0587 0.9026
6 13 7 1.5281 0.0073
6 13 9 -1.9252 0.3388
6 13 11 0.0859 1.3902
6 14 0 -3.4822 -3.5864
6 14 2 -2.0103 -1.1938
6 14 4 -1.9065 0.2745
6 14 6 -4.0204 1.3774
6 14 8 -1.2324 1.8461
6 14 10 0.3421 -1.4271
6 15 1 1.0154 5.1012
6 15 3 1.0487 -0.5088
6 15 5 -0.1390 -4.2457
7 1 0 -20.8880 7.9955
7 1 2 -3.5995 4.6296
7 1 4 11.3349 0.0612
7 1 6 5.9124 -0.9953
7 1 8 -1.0726 -0.5640
7 1 10 -5.5421 0.5575
7 1 12 -0.8749 1.1286
7 1 14 5.3709 -0.6006
7 1 16 1.1087 -0.3671
7 1 18 -1.9193 -0.1013
7 1 20 -0.2367 -0.2189
7 1 22 1.8094 1.4650
7 2 1 16.2549 -5.6363
7 2 3 -5.9894 -1.0787
7 2 5 -5.6538 1.7905
7 2 7 -0.8758 1.1155
7 2 9 1.6004 -0.3028
7 2 11 5.8003 -1.0036
7 2 13 -0.8321 -0.4811
7 2 15 -4.4883 0.3941
7 2 17 1.1566 0.5075
7 2 19 2.2678 0.1856
7 2 21 1.4746 -2.2791
7 3 0 -14.3699 -0.7807
7 3 2 -0.3707 -0.9151
7 3 4 9.3908 -1.0597
7 3 6 4.0112 -0.2794
7 3 8 0.8696 -0.0542
7 3 10 -4.7347 0.0582
7 3 12 -3.6785 -0.1128
7 3 14 4.8382 -0.5952
7 3 16 2.9761 0.0900
7 3 18 -0.5555 0.6911
7 3 20 0.7593 -0.4363
7 3 22 0.6123 -0.7537
7 4 1 4.3640 -7.2993
7 4 3 -3.1275 -2.3866
7 4 5 -6.4771 0.9116
7 4 7 -3.6392 1.4781
7 4 9 0.9965 -0.3057
7 4 11 1.7866 -2.3880
7 4 13 -1.5765 -0.4986
7 4 15 -3.0889 1.7564
7 4 17 0.2192 0.5110
7 4 19 0.0990 0.7559
7 4 21 -2.1453 3.6715
7 5 0 0.0660 5.2479
7 5 2 -2.7054 3.0063
7 5 4 0.4388 -0.5930
7 5 6 3.2351 -1.4783
7 5 8 -3.0137 -1.1293
7 5 10 -1.0811 1.1592
7 5 12 0.2388 1.4550
7 5 14 -1.6235 -0.6082
7 5 16 -0.7775 -0.7595
7 5 18 -3.1989 0.2849
7 5 20 -1.3291 -0.8308
7 6 1 0.9053 0.1627
7 6 3 2.7197 0.4328
7 6 5 -4.3716 -0.1082
7 6 7 2.4256 0.0538
7 6 9 5.6572 0.1939
7 6 11 -0.9663 -0.3277
7 6 13 2.5392 0.3026
7 6 15 1.0281 0.5771
7 6 17 -0.1694 0.3792
7 6 19 2.2948 -0.2996
7 6 21 -2.5515 -0.5027
7 7 0 -2.3614 8.5884
7 7 2 -4.0915 5.2140
7 7 4 2.2909 0.7531
7 7 6 3.6438 -1.0589
7 7 8 -4.3551 -0.8897
7 7 10 0.7085 1.5470
7 7 12 2.0022 1.3855
7 7 14 -0.9263 -1.0077
7 7 16 1.6511 -2.2609
7 7 18 -0.3061 -0.5268
7 7 20 1.4180 1.0922
7 8 1 0.2745 -3.0292
7 8 3 0.7226 -0.3772
7 8 5 -2.2246 0.6777
7 8 7 0.7358 0.9954
7 8 9 0.3365 0.0988
7 8 11 -3.0084 -1.0942
7 8 13 -1.0541 -0.0007
7 8 15 0.5494 0.6929
7 8 17 1.6846 -0.7644
7 8 19 1.6182 -2.4139
7 9 0 3.8672 -0.7805
7 9 2 2.7197 -0.2240
7 9 4 1.3978 -0.0869
7 9 6 0.1099 0.5076
7 9 8 0.3822 0.2803
7 9 10 0.7089 0.4968
7 9 12 0.9244 0.2896
7 9 14 0.4082 0.3857
7 9 16 -2.1360 0.2671
7 9 18 -1.8773 -0.5022
7 10 1 -0.6038 -6.8844
7 10 3 -1.3458 -2.6992
7 10 5 -0.5447 1.2566
7 10 7 -0.9522 1.5148
7 10 9 -1.1237 -1.1983
7 10 11 -0.1688 -2.0744
7 10 13 -2.0331 -0.4070
7 10 15 0.1113 1.8238
7 10 17 1.0990 4.5880
7 11 0 -0.8069 1.8949
7 11 2 -0.0170 0.9693
7 11 4 0.3427 0.2519
7 11 6 -0.9928 -1.0316
7 11 8 -0.6762 0.0781
7 11 10 -0.1537 1.1590
7 11 12 2.6018 -0.3195
7 11 14 2.2485 -1.0580
7 12 1 -1.5704 1.2280
7 12 3 -2.4897 -0.4400
7 12 5 0.5042 -1.0719
7 12 7 3.4863 -0.6642
7 12 9 1.5925 -1.4853
7 12 11 -1.6534 -0.0799
7 12 13 -3.0352 -0.5244
7 13 0 -2.0435 7.1703
7 13 2 1.3784 4.3080
7 13 4 1.3561 -0.4515
7 13 6 -5.2394 -3.6984
7 13 8 -3.6051 -0.0048
7 13 10 0.9058 2.1772
7 14 1 4.0568 -1.9277
7 14 3 -1.7833 -1.3460
7 14 5 3.9539 2.5992
7 14 7 6.7387 2.0098
7 15 0 -4.5065 -3.2673
8 1 1 2.3702 -1.4240
8 1 3 -6.7355 -0.8331
8 1 5 0.5566 -0.0847
8 1 7 3.8014 -0.1996
8 1 9 -1.6346 -0.5767
8 1 11 -3.0520 -0.6037
8 1 13 -2.6071 -0.3263
8 1 15 0.3546 -0.0224
8 1 17 2.7807 0.2955
8 1 19 0.8248 1.0321
8 1 21 -1.5515 -0.0207
8 2 0 -6.8834 0.7417
8 2 2 3.2455 0.3318
8 2 4 3.1914 -0.2148
8 2 6 -5.5168 -0.0138
8 2 8 1.1491 0.9476
8 2 10 3.8705 0.7290
8 2 12 1.8180 0.1635
8 2 14 1.3304 0.3780
8 2 16 -2.6171 0.0411
8 2 18 -1.8041 -1.2702
8 2 20 0.3739 0.3610
8 2 22 -0.7826 2.9754
8 3 1 0.9678 5.4699
8 3 3 -5.9195 2.6654
8 3 5 1.5109 -0.5591
8 3 7 2.8605 -1.5077
8 3 9 -1.1281 -0.3136
8 3 11 0.4740 0.8291
8 3 13 -0.3357 0.7244
8 3 15 0.2135 -0.4425
8 3 17 1.9771 -1.0800
8 3 19 -1.0350 -0.6672
8 3 21 -1.1241 -1.4387
8 4 0 -2.4814 2.7086
8 4 2 -1.5286 1.3781
8 4 4 -1.2891 0.3555
8 4 6 -2.4027 0.7548
8 4 8 -2.4542 0.2705
8 4 10 -0.2637 0.6812
8 4 12 -0.1720 0.2994
8 4 14 -0.2434 -1.3059
8 4 16 -0.3131 -0.2450
8 4 18 -1.3239 0.5775
8 4 20 1.1055 -1.0178
8 5 1 2.7015 -0.2150
8 5 3 6.3670 0.6171
8 5 5 2.8363 0.2143
8 5 7 5.1963 -0.0352
8 5 9 3.5802 0.1631
8 5 11 -2.0252 -0.4473
8 5 13 2.2110 0.8296
8 5 15 0.9977 0.1340
8 5 17 0.6850 -1.5943
8 5 19 3.3277 1.0382
8 6 0 -0.6214 -5.6157
8 6 2 -3.5841 -3.0615
8 6 4 -0.9716 -0.6642
8 6 6 -1.1909 1.1637
8 6 8 -6.5083 0.3414
8 6 10 0.9068 0.0690
8 6 12 0.9616 -0.3899
8 6 14 -2.6042 0.2536
8 6 16 2.3544 2.5396
8 6 18 -0.3447 1.1893
8 6 20 -1.0027 -1.7588
8 7 1 2.5892 -2.6103
8 7 3 -0.1296 -1.1487
8 7 5 -3.3694 -0.6562
8 7 7 0.4208 0.0313
8 7 9 -0.3667 -0.4184
8 7 11 -4.1163 -0.9514
8 7 13 -1.4865 0.2451
8 7 15 -1.9442 0.2646
8 7 17 -2.8582 -1.0694
8 7 19 -0.7728 -1.6577
8 8 0 -0.9382 -0.8381
8 8 2 0.4258 -1.7163
8 8 4 1.1661 -0.4081
8 8 6 0.7391 0.2609
8 8 8 2.2002 -0.7473
8 8 10 2.1490 -0.7838
8 8 12 2.6738 -1.1907
8 8 14 2.8385 -1.3808
8 8 16 -0.5298 0.1198
8 8 18 -1.0986 3.9003
8 9 1 -1.3909 4.4394
8 9 3 -1.2622 2.1129
8 9 5 1.4999 -0.6540
8 9 7 0.0870 -0.8085
8 9 9 -0.5992 0.2189
8 9 11 1.4404 0.6442
8 9 13 -1.9743 0.2366
8 9 15 -0.2623 -0.1822
8 9 17 3.3703 -1.6669
8 10 0 -2.3793 3.7632
8 10 2 -1.4326 1.6755
8 10 4 0.1233 -0.6005
8 10 6 -0.7465 -0.8714
8 10 8 -0.7849 0.3537
8 10 10 -0.5035 1.1007
8 10 12 0.6114 0.5016
8 10 14 1.4653 -0.5423
8 10 16 -0.5714 -1.1223
8 11 1 3.2808 2.1303
8 11 3 1.0807 2.2325
8 11 5 -2.4825 0.7002
8 11 7 1.4844 -0.1365
8 11 9 1.0974 0.2095
8 11 11 -3.1648 2.3446
8 11 13 -1.5621 3.4091
8 12 0 0.0496 -3.7720
8 12 2 -0.4039 -3.8865
8 12 4 3.2072 0.5225
8 12 6 1.4120 1.5345
8 12 8 -3.4923 1.1410
8 12 10 1.0954 -0.3591
8 12 12 2.7471 -2.7410
8 13 1 0.2346 -3.1499
8 13 3 -2.9836 -1.3901
8 13 5 -2.1076 1.9764
8 13 7 2.7736 2.3175
8 13 9 1.5798 -2.9533
8 14 0 -3.5844 0.3127
8 14 2 1.8069 0.6879
8 14 4 3.2753 -2.1917
8 14 6 -2.9455 -5.6893
9 1 0 -1.0724 -0.6529
9 1 2 1.2324 0.1725
9 1 4 -3.3587 1.0587
9 1 6 -6.4197 -0.0833
9 1 8 2.4751 0.0092
9 1 10 4.3090 -0.1047
9 1 12 -0.5499 -0.3279
9 1 14 -1.3330 -0.0109
9 1 16 -0.9988 -0.6616
9 1 18 -0.3565 -1.0563
9 1 20 0.6791 1.7568
9 2 1 -1.6404 0.9460
9 2 3 -1.8491 -0.8625
9 2 5 6.3753 -0.5294
9 2 7 1.7891 0.4348
9 2 9 -4.8666 0.3691
9 2 11 -0.9975 0.8634
9 2 13 0.7032 0.1540
9 2 15 1.7186 -0.2449
9 2 17 1.9580 1.2535
9 2 19 -1.0579 0.4542
9 2 21 -0.4905 -2.7183
9 3 0 4.6337 -8.1053
9 3 2 5.1904 -4.5566
9 3 4 -1.0745 0.0612
9 3 6 -5.0187 0.7348
9 3 8 -0.4298 -0.5992
9 3 10 -0.3753 -1.7508
9 3 12 -2.0759 -1.1909
9 3 14 -2.1018 0.9842
9 3 16 -1.8534 1.2906
9 3 18 0.6101 0.5616
9 3 20 1.3138 2.7189
9 4 1 -1.4492 -0.1520
9 4 3 1.5753 -0.8996
9 4 5 3.5553 -1.3809
9 4 7 3.3758 -0.2685
9 4 9 1.6254 0.5595
9 4 11 -0.0018 0.4778
9 4 13 2.4075 -0.3062
9 4 15 1.3364 -1.0119
9 4 17 -1.3930 0.1312
9 4 19 -0.3869 0.2163
9 5 0 0.2806 -2.2573
9 5 2 -2.1898 -1.3063
9 5 4 -2.7846 -0.1864
9 5 6 -2.6559 0.6036
9 5 8 -3.5011 -0.2697
9 5 10 2.1177 -1.2149
9 5 12 0.7479 -1.2763
9 5 14 -3.3038 0.4736
9 5 16 1.8029 0.8106
9 5 18 0.8223 -2.9461
9 6 1 -1.5570 5.9332
9 6 3 -1.5526 2.3902
9 6 5 -0.9101 -0.3553
9 6 7 2.3577 -0.9882
9 6 9 -0.0946 0.5167
9 6 11 -3.0220 1.5722
9 6 13 2.2135 0.2705
9 6 15 0.4916 -2.0694
9 6 17 -3.6085 0.7276
9 6 19 -0.4823 5.2726
9 7 0 0.3503 0.7164
9 7 2 2.5393 1.0984
9 7 4 3.0034 0.5521
9 7 6 0.8256 0.3798
9 7 8 1.4502 0.2134
9 7 10 1.9223 0.2688
9 7 12 0.4075 0.3424
9 7 14 -0.3600 0.8443
9 7 16 1.7067 0.1972
9 7 18 3.1603 -1.5103
9 8 1 -0.3176 2.4789
9 8 3 -1.4247 1.0808
9 8 5 0.4685 -0.2196
9 8 7 -1.2788 0.2784
9 8 9 -1.0875 1.0575
9 8 11 1.3263 0.9324
9 8 13 -0.8324 -0.0089
9 8 15 0.4656 -0.1081
9 8 17 1.4114 -0.9659
9 9 0 -0.2581 -6.4147
9 9 2 -0.3896 -2.7728
9 9 4 -0.7669 0.8397
9 9 6 -1.4147 1.4898
9 9 8 -2.0694 0.0754
9 9 10 -3.3103 -0.7743
9 9 12 -1.0823 0.7873
9 9 14 0.1933 1.9528
9 9 16 -2.6315 0.6033
9 10 1 1.9729 -2.5018
9 10 3 1.4823 -2.1135
9 10 5 -1.4631 -0.5050
9 10 7 3.0363 -0.1411
9 10 9 3.8361 -0.0756
9 10 11 -0.5699 -0.3881
9 10 13 -0.1801 -2.0941
9 11 0 0.5115 -2.7064
9 11 2 -2.0262 -2.3634
9 11 4 2.0595 -0.6157
9 11 6 2.3140 0.0451
9 11 8 -3.3326 -1.3721
9 11 10 2.2149 -4.5563
9 11 12 3.2081 -4.3434
9 12 1 -1.4034 5.9532
9 12 3 0.6823 -0.1879
9 12 5 -3.3016 -4.2308
9 12 7 -0.2329 -1.0346
9 12 9 0.4272 3.6254
9 13 0 0.7096 1.3295
9 13 2 -0.1331 3.2125
9 13 4 0.5285 5.9026
9 13 6 0.7492 1.5898
10 1 1 3.4723 -5.4333
10 1 3 1.1711 -2.1737
10 1 5 3.2942 0.4572
10 1 7 -0.7377 0.2762
10 1 9 -3.9893 -0.9979
10 1 11 1.1580 -0.4404
10 1 13 2.3522 -0.1036
10 1 15 0.4107 0.0704
10 1 17 1.4873 0.1170
10 1 19 1.3129 -1.3813
10 2 0 -0.3994 6.1207
10 2 2 0.8920 3.4668
10 2 4 -1.4520 0.3346
10 2 6 -1.7385 -1.5396
10 2 8 2.3625 0.0096
10 2 10 0.0911 0.7675
10 2 12 -2.0340 0.4163
10 2 14 -0.4311 -0.1988
10 2 16 -1.2837 -0.4008
10 2 18 -1.9250 0.3986
10 2 20 0.1330 1.6140
10 3 1 -2.5024 0.5985
10 3 3 0.3150 0.4583
10 3 5 3.7808 1.3888
10 3 7 1.8242 1.3681
10 3 9 1.7054 -0.3245
10 3 11 2.3630 -0.3365
10 3 13 1.2889 -0.2295
10 3 15 0.5804 -0.0396
10 3 17 -0.2123 0.0487
10 3 19 0.1050 -1.3587
10 4 0 -1.3498 7.3391
10 4 2 -1.8767 4.2298
10 4 4 -3.8754 1.1754
10 4 6 -2.7331 -1.5234
10 4 8 -1.2218 0.2919
10 4 10 -0.8700 2.2085
10 4 12 -0.2141 1.3678
10 4 14 -1.3152 0.9470
10 4 16 1.3489 -1.0893
10 4 18 1.9353 -2.2085
10 5 1 1.3635 -3.8441
10 5 3 0.2380 -1.2400
10 5 5 1.0614 1.0283
10 5 7 -0.7891 1.2132
10 5 9 -1.8357 -0.9561
10 5 11 -1.8970 -0.3244
10 5 13 0.6783 -0.2095
10 5 15 1.0709 -0.0397
10 5 17 -2.1876 4.4302
10 6 0 0.4673 0.0983
10 6 2 3.1933 0.0833
10 6 4 1.8564 -0.4375
10 6 6 -0.0736 -0.9779
10 6 8 2.3770 0.0362
10 6 10 1.4235 0.1472
10 6 12 -0.3343 -0.6347
10 6 14 -1.8282 0.0514
10 6 16 -0.2014 -2.9098
10 6 18 1.5872 -7.4744
10 7 1 -0.0842 -6.7795
10 7 3 -1.3292 -2.8666
10 7 5 1.7182 0.7652
10 7 7 -0.5016 0.5825
10 7 9 -1.0963 -1.5004
10 7 11 1.5306 -1.7497
10 7 13 1.2298 -0.5050
10 7 15 1.4946 1.7887
10 7 17 -0.1752 4.5853
10 8 0 -0.4606 3.7047
10 8 2 -0.9141 1.6235
10 8 4 -1.4737 -1.0439
10 8 6 -0.2877 -1.5686
10 8 8 0.2047 -0.1630
10 8 10 -1.1185 0.6584
10 8 12 -0.2192 0.4971
10 8 14 -0.7647 -0.4826
10 8 16 -1.8556 -1.3251
10 9 1 -0.1501 -0.1526
10 9 3 1.9137 -0.5219
10 9 5 -1.5362 0.2242
10 9 7 1.3481 -0.2827
10 9 9 3.5002 -0.5235
10 9 11 -1.3452 -0.5612
10 9 13 -1.1387 -1.9971
10 10 0 2.1009 6.5479
10 10 2 -2.1123 5.9949
10 10 4 0.1565 0.5807
10 10 6 0.5608 -1.0787
10 10 8 -6.1542 1.9583
10 10 10 -0.1040 2.1157
10 10 12 3.5974 2.9647
10 11 1 -2.8130 -2.1790
10 11 3 1.7842 0.7052
10 11 5 -0.8381 2.9246
10 11 7 2.6500 -0.0528
10 11 9 1.7397 -0.7261
10 11 11 -3.8863 1.7419
10 12 0 4.3448 -1.8903
10 12 2 0.2480 0.0563
10 12 4 -1.9716 2.6701
10 12 6 -0.7585 1.8557
10 12 8 0.1774 -0.4029
10 13 1 -0.3433 -4.7966
10 13 3 1.7819 -8.0715
11 1 0 -5.1746 1.1734
11 1 2 -0.2063 0.6161
11 1 4 2.4695 0.4618
11 1 6 0.3233 0.3620
11 1 8 2.5197 0.5126
11 1 10 1.0813 -0.2323
11 1 12 -2.2738 1.2154
11 1 14 -1.5708 1.2353
11 1 16 -3.2147 0.4445
11 1 18 -4.4018 -0.9354
11 2 1 -0.5963 -0.3086
11 2 3 -2.3959 0.2458
11 2 5 -1.3349 0.0010
11 2 7 -0.9177 -1.0808
11 2 9 -1.0207 -0.1827
11 2 11 0.3167 -0.1967
11 2 13 1.2323 -0.8341
11 2 15 1.1224 0.3497
11 2 17 2.6311 -1.0517
11 3 0 2.1331 -5.1472
11 3 2 0.5565 -3.4043
11 3 4 -2.9351 -1.0080
11 3 6 -2.5233 0.2803
11 3 8 -0.8384 0.8226
11 3 10 -0.2289 -0.6499
11 3 12 1.2043 -0.8609
11 3 14 0.8707 -1.6011
11 3 16 1.4227 -1.5052
11 3 18 0.1913 0.4385
11 4 1 1.8561 -1.1498
11 4 3 3.7894 -1.2650
11 4 5 6.0215 -0.2493
11 4 7 0.6629 -0.2281
11 4 9 -0.2001 -1.6131
11 4 11 -0.1479 -0.2428
11 4 13 -1.8536 0.3305
11 4 15 -0.9747 1.3027
11 4 17 -2.1202 2.4745
11 5 0 -2.6296 -0.1789
11 5 2 0.4332 -1.0452
11 5 4 -2.3973 0.2775
11 5 6 -1.4245 -0.9261
11 5 8 3.7579 0.1991
11 5 10 -1.1490 0.1594
11 5 12 -0.4281 -0.7533
11 5 14 0.3235 1.1470
11 5 16 -1.0773 -0.8556
11 6 1 -0.4318 4.4884
11 6 3 -2.2299 0.8894
11 6 5 2.7920 -0.6072
11 6 7 -1.7987 0.3515
11 6 9 -0.8324 0.0851
11 6 11 3.1953 1.2478
11 6 13 -0.5049 -0.0335
11 6 15 0.9126 -0.6160
11 7 0 -0.7803 2.3401
11 7 2 -0.1203 1.7494
11 7 4 -2.7181 1.5326
11 7 6 -2.2415 0.2412
11 7 8 0.4246 0.7097
11 7 10 -1.9137 1.0522
11 7 12 -0.3179 -0.2319
11 7 14 0.4342 -0.9232
11 8 1 -1.0040 1.5756
11 8 3 2.0212 1.9000
11 8 5 -0.3993 0.7274
11 8 7 -0.5841 0.0444
11 8 9 0.8393 0.5140
11 8 11 -1.9924 2.3005
11 8 13 -1.1099 3.1372
11 9 0 3.9658 -4.0894
11 9 2 -0.7858 -3.3702
11 9 4 0.9567 -0.8747
11 9 6 3.7081 0.6832
11 9 8 -2.1160 -0.4002
11 9 10 1.6433 -3.9477
11 9 12 4.4050 -4.2135
11 10 1 -1.8433 -3.0413
11 10 3 1.8677 -0.3059
11 10 5 -1.9195 1.9352
11 10 7 1.4791 -0.7935
11 10 9 2.0949 -1.0626
11 10 11 -4.0279 1.6284
11 11 0 4.3141 1.2920
11 11 2 1.4605 -2.2074
11 11 4 -0.2805 -6.5540
11 11 6 -1.0633 -3.3910
11 11 8 -1.3453 4.0483
11 12 1 -2.7353 2.8308
11 12 3 -1.4692 3.3243
12 1 1 2.2285 0.6296
12 1 3 -5.0319 -0.5474
12 1 5 -2.5087 -0.3708
12 1 7 -0.3609 -0.1688
12 1 9 -2.0577 0.6675
12 1 11 0.5273 -0.6714
12 1 13 0.2214 -0.9034
12 1 15 0.2260 2.5884
12 1 17 3.1380 2.1941
12 2 0 0.0190 -1.2932
12 2 2 1.5986 -1.0338
12 2 4 2.8825 -0.1468
12 2 6 1.1046 1.0404
12 2 8 -0.0220 -0.1444
12 2 10 0.7400 -1.9640
12 2 12 -0.5024 1.0992
12 2 14 -1.8303 -0.7846
12 2 16 -0.6701 -1.7647
12 3 1 -4.4028 5.2617
12 3 3 0.0740 1.8674
12 3 5 1.7117 -0.7495
12 3 7 0.5933 -1.4824
12 3 9 0.2842 2.0993
12 3 11 -2.3314 2.2316
12 3 13 -2.2208 0.1010
12 3 15 -1.5416 2.5352
12 4 0 3.3939 -0.5072
12 4 2 1.8893 0.1431
12 4 4 -3.5411 0.9819
12 4 6 -1.8306 0.9378
12 4 8 1.7605 0.5530
12 4 10 -0.4466 -1.7268
12 4 12 2.8257 0.0729
12 4 14 2.9846 0.8873
12 4 16 0.9733 -1.6103
12 5 1 -0.6615 2.8375
12 5 3 -1.9352 1.0440
12 5 5 2.4387 -0.1784
12 5 7 -3.3120 -0.2531
12 5 9 -0.8416 0.8113
12 5 11 3.1939 1.9613
12 5 13 -1.9531 -2.3231
12 5 15 0.6800 -3.2788
12 6 0 -1.6747 -6.5620
12 6 2 2.7661 -4.1962
12 6 4 0.7526 0.6229
12 6 6 -0.2261 0.6947
12 6 8 2.7705 0.0129
12 6 10 -3.0082 -1.8170
12 6 12 -0.5449 -0.6242
12 6 14 1.7596 3.9891
12 7 1 -1.1802 0.4626
12 7 3 -1.5300 -1.1905
12 7 5 0.4175 -1.1084
12 7 7 -0.4182 -0.0640
12 7 9 0.5437 -1.0664
12 7 11 -0.4633 -0.1542
12 7 13 -2.2478 -0.6640
12 8 0 4.6349 -2.2090
12 8 2 1.8660 -3.0122
12 8 4 1.4414 0.1371
12 8 6 2.4922 0.4471
12 8 8 -0.6378 0.0337
12 8 10 1.0558 -0.9003
12 8 12 2.7012 -2.5833
12 9 1 -2.4403 5.8464
12 9 3 0.4736 0.0735
12 9 5 -2.8414 -4.0908
12 9 7 -0.9472 -1.1250
12 9 9 0.9955 3.6954
12 10 0 0.1879 -0.3155
12 10 2 -0.9317 1.4688
12 10 4 -0.3998 3.4658
12 10 6 0.2490 1.8409
12 10 8 -0.3466 -1.0797
12 11 1 -0.9375 2.0725
12 11 3 -2.3349 3.0995
13 1 0 -3.8535 6.3603
13 1 2 0.5577 3.0681
13 1 4 1.0600 0.2956
13 1 6 -2.6626 -1.0024
13 1 8 1.0771 0.8225
13 1 10 0.6693 1.0721
13 1 12 -0.7307 0.3721
13 1 14 1.9973 -5.0080
13 2 1 2.3717 -4.1818
13 2 3 1.7886 -0.9676
13 2 5 0.6566 1.4273
13 2 7 0.6920 0.5821
13 2 9 0.7097 0.3759
13 2 11 0.6576 -1.2677
13 2 13 2.1696 -0.9034
13 2 15 1.6273 3.7528
13 3 0 6.5891 1.0907
13 3 2 1.6803 1.0946
13 3 4 -1.7951 -0.3413
13 3 6 -0.0893 -0.7500
13 3 8 -2.6432 -0.2482
13 3 10 -1.6200 -0.3667
13 3 12 2.0958 3.6714
13 3 14 0.0406 1.3272
13 4 1 -6.9235 -5.7404
13 4 3 -0.8847 -2.4228
13 4 5 0.4904 1.1061
13 4 7 -0.8349 0.2414
13 4 9 2.5192 0.1599
13 4 11 -1.0433 -2.2336
13 4 13 -4.2817 -5.6328
13 5 0 0.5399 5.4559
13 5 2 2.4174 2.1408
13 5 4 1.1610 -0.7984
13 5 6 1.6844 -0.7608
13 5 8 1.9561 0.7461
13 5 10 -1.5229 -0.8067
13 5 12 2.1116 2.4889
13 6 1 2.8767 -0.7676
13 6 3 -2.5828 -0.2036
13 6 5 -0.0475 0.7003
13 6 7 -0.5303 -0.5641
13 6 9 -0.0840 -0.4414
13 6 11 -0.0081 1.2641
13 7 0 -2.6251 6.1643
13 7 2 0.8018 4.0088
13 7 4 0.8447 -0.1421
13 7 6 -2.4554 -3.2959
13 7 8 -1.6617 0.5887
13 7 10 0.6160 2.3993
13 8 1 -1.5370 -2.9928
13 8 3 -1.3394 -0.9556
13 8 5 0.5010 2.4108
13 8 7 1.8475 2.3141
13 8 9 0.8618 -2.8378
13 9 0 0.4734 -0.4038
13 9 2 0.2083 1.6798
13 9 4 -0.4812 5.2067
13 9 6 -0.6438 2.0557
13 10 1 2.1530 -3.9950
13 10 3 0.6180 -7.8093
14 1 1 3.3498 0.5789
14 1 3 1.7285 -0.1568
14 1 5 3.6315 0.2092
14 1 7 -0.7360 0.0309
14 1 9 -4.4536 0.5730
14 1 11 0.7582 1.7496
14 1 13 0.9504 2.4602
14 2 0 -4.8513 -0.5202
14 2 2 -5.4921 -0.4790
14 2 4 -3.4892 0.1537
14 2 6 0.9111 -0.8250
14 2 8 2.3514 0.7020
14 2 10 0.5174 0.8093
14 2 12 -1.7515 1.6703
14 3 1 -3.0028 3.2758
14 3 3 3.0095 -0.2292
14 3 5 -0.5996 0.3673
14 3 7 -0.3703 0.1897
14 3 9 4.0924 -1.3827
14 3 11 0.4728 -3.7167
14 4 0 9.4893 -0.0502
14 4 2 2.7959 1.3040
14 4 4 -0.4191 0.0978
14 4 6 2.5766 -1.8512
14 4 8 -3.4047 -0.5554
14 4 10 -3.1411 1.4434
14 4 12 3.3554 5.4022
14 5 1 -2.2883 0.2743
14 5 3 -0.3410 0.1283
14 5 5 -2.0888 0.6415
14 5 7 -1.5076 -0.5483
14 5 9 1.5975 0.3613
14 5 11 -2.0521 -0.2644
14 6 0 -4.2962 -3.7118
14 6 2 -0.8340 -1.0185
14 6 4 0.5389 0.6244
14 6 6 -1.6924 1.5295
14 6 8 -1.4284 2.0434
14 6 10 0.5223 -1.4492
14 7 1 3.9663 -2.1642
14 7 3 -0.3782 -1.8386
14 7 5 4.6323 2.3724
14 7 7 5.9351 1.5858
14 8 0 -2.9453 1.5228
14 8 2 -0.0116 1.6428
14 8 4 -1.9246 -1.9351
14 8 6 -5.6522 -5.5390
15 1 0 -2.5875 -2.1001
15 1 2 -1.8565 -1.2508
15 1 4 -0.3886 0.8591
15 1 6 2.4718 -0.1869
15 1 8 6.6724 -0.9089
15 1 10 3.4863 -3.1671
15 2 1 6.6709 2.6201
15 2 3 4.0728 -0.0141
15 2 5 -1.9528 -1.7408
15 2 7 -5.7171 -2.0718
15 2 9 -4.3822 -1.9080
15 3 0 -0.2322 -5.0864
15 3 2 -2.9974 -3.3861
15 3 4 -0.3622 1.3472
15 3 6 4.6084 1.6490
15 3 8 0.5849 2.4925
15 4 1 -4.1692 2.3048
15 4 3 1.9952 0.7790
15 4 5 -3.3868 0.5143
15 4 7 -2.5150 1.4405
15 5 0 3.9904 -2.9105
15 5 2 -0.3152 -2.7309
15 5 4 0.2544 -0.2035
15 5 6 4.7460 0.1739
15 6 1 0.3769 5.6664
15 6 3 -0.7512 0.1607
15 6 5 -1.3919 -3.0485
15 7 0 -3.3238 -3.4184
16 1 1 0.3667 -4.9553
16 1 3 0.5719 -1.0038
16 1 5 -2.2168 1.3424
16 2 0 -5.9567 8.5486
16 2 2 -4.4347 0.9505
16 2 4 0.0192 0.5512
16 2 6 2.6038 2.2221
16 3 1 3.4605 -2.6637
16 3 3 1.6057 1.5654
16 4 0 1.3533 9.2552
16 4 2 -1.5080 -0.3504
0 0 0 0.0 0.0
;
_shelx_fab_checksum              77901
_olex2_submission_special_instructions 'No special instructions were received'
loop_
_space_group_symop_operation_xyz
'x, y, z'
'-y, x, z'
'-x, -y, z'
'y, -x, z'
'x+1/2, y+1/2, z+1/2'
'-y+1/2, x+1/2, z+1/2'
'-x+1/2, -y+1/2, z+1/2'
'y+1/2, -x+1/2, z+1/2'
'-x, -y, -z'
'y, -x, -z'
'x, y, -z'
'-y, x, -z'
'-x+1/2, -y+1/2, -z+1/2'
'y+1/2, -x+1/2, -z+1/2'
'x+1/2, y+1/2, -z+1/2'
'-y+1/2, x+1/2, -z+1/2'
loop_
_atom_site_label
_atom_site_type_symbol
_atom_site_fract_x
_atom_site_fract_y
_atom_site_fract_z
_atom_site_U_iso_or_equiv
_atom_site_adp_type
_atom_site_occupancy
_atom_site_site_symmetry_order
_atom_site_calc_flag
_atom_site_refinement_flags_posn
_atom_site_refinement_flags_adp
_atom_site_refinement_flags_occupancy
_atom_site_disorder_assembly
_atom_site_disorder_group
Er1 Er 0.50001(2) 0.84720(2) 0.68412(2) 0.01562(6) Uani 1 1 d . . . . .
Na1 Na 0.5001(3) 0.7440(3) 0.500000 0.0516(8) Uani 1 2 d S T P A .
O1 O 0.5000(2) 0.8922(2) 0.80289(14) 0.0144(5) Uani 1 1 d D . . . .
H1 H 0.500(4) 0.833(2) 0.824(3) 0.035(15) Uiso 1 1 d D . . . .
O2 O 0.4999(3) 0.9109(2) 0.56959(15) 0.0269(7) Uani 1 1 d . . . . .
O3A O 0.4053(6) 0.7218(6) 0.6087(4) 0.0312(15) Uani 0.5 1 d . . P A -1
O3B O 0.3608(6) 0.7665(6) 0.6171(4) 0.0247(14) Uani 0.5 1 d . . P A -2
O4A O 0.2782(6) 0.5950(6) 0.6086(4) 0.0312(15) Uani 0.5 1 d . . P A -1
O4B O 0.2337(6) 0.6392(6) 0.6170(4) 0.0251(14) Uani 0.5 1 d . . P A -2
O5A O 0.3411(5) 0.7854(5) 0.7351(3) 0.0260(13) Uani 0.5 1 d . . P A -1
O5B O 0.4510(5) 0.6764(4) 0.7299(3) 0.0237(12) Uani 0.5 1 d . . P A -2
O6A O 0.2147(5) 0.6590(5) 0.7353(3) 0.0254(13) Uani 0.5 1 d . . P A -1
O6B O 0.3234(4) 0.5487(5) 0.7299(3) 0.0247(12) Uani 0.5 1 d . . P A -2
O7 O 0.436688 0.563621 0.500000 0.0487(15) Uani 0.25 1 d S U P A -3
H7 H 0.407900 0.530420 0.467860 0.073 Uiso 0.125 1 d R U P A -3
C1 C 0.500000 1.000000 0.5407(3) 0.0138(9) Uani 1 2 d S T P A .
C2 C 0.3220(4) 0.6778(4) 0.6381(2) 0.0289(9) Uani 1 1 d . . . . .
C3A C 0.2924(6) 0.7074(6) 0.7083(4) 0.0208(16) Uani 0.5 1 d . . P A -1
C3B C 0.3673(6) 0.6321(6) 0.7065(4) 0.0162(14) Uani 0.5 1 d . . P A -2
C4 C 0.500000 0.500000 0.534289 0.0468(15) Uani 0.125 1 d S U P A -3
H4C H 0.538570 0.455400 0.500000 0.070 Uiso 0.25 1 d R U P A -3
H4A H 0.550060 0.541770 0.561280 0.070 Uiso 0.25 1 d R U P A -3
H4B H 0.458370 0.455600 0.565310 0.070 Uiso 0.25 1 d R U P A -3
loop_
_atom_site_aniso_label
_atom_site_aniso_U_11
_atom_site_aniso_U_22
_atom_site_aniso_U_33
_atom_site_aniso_U_23
_atom_site_aniso_U_13
_atom_site_aniso_U_12
Er1 0.02520(10) 0.00866(8) 0.01300(8) -0.00071(6) -0.00005(6) 0.00000(6)
Na1 0.078(2) 0.0464(14) 0.0305(15) 0.000 0.000 -0.0028(11)
O1 0.0150(12) 0.0125(12) 0.0157(12) 0.0015(10) -0.0002(10) -0.0010(9)
O2 0.055(2) 0.0126(13) 0.0134(12) 0.0014(10) 0.0004(13) -0.0001(13)
O3A 0.034(4) 0.035(4) 0.024(3) -0.001(3) 0.004(3) -0.014(3)
O3B 0.031(4) 0.020(3) 0.023(3) 0.007(3) -0.010(3) -0.008(3)
O4A 0.036(4) 0.036(4) 0.023(3) -0.005(3) 0.003(3) -0.012(3)
O4B 0.022(3) 0.030(4) 0.023(3) 0.011(3) -0.007(3) -0.008(3)
O5A 0.028(3) 0.020(3) 0.030(3) -0.006(2) 0.007(3) -0.005(2)
O5B 0.027(3) 0.015(3) 0.029(3) 0.005(2) -0.009(2) -0.004(2)
O6A 0.020(3) 0.026(3) 0.030(3) -0.005(3) 0.007(2) -0.005(2)
O6B 0.014(3) 0.029(3) 0.032(3) 0.009(3) -0.006(2) -0.007(2)
O7 0.0506(16) 0.0466(15) 0.0490(18) -0.0007(8) -0.0010(9) 0.0021(7)
C1 0.014(2) 0.012(2) 0.015(2) 0.000 0.000 0.0010(18)
C2 0.032(2) 0.032(2) 0.022(2) 0.0068(18) -0.0071(18) -0.0107(19)
C3A 0.020(4) 0.017(4) 0.025(4) -0.002(3) 0.002(3) 0.007(3)
C3B 0.015(3) 0.016(3) 0.018(3) 0.000(3) 0.000(3) 0.002(3)
C4 0.0467(17) 0.0459(14) 0.0477(18) 0.0006(9) 0.0010(9) -0.0001(8)
loop_
_atom_type_symbol
_atom_type_description
_atom_type_scat_dispersion_real
_atom_type_scat_dispersion_imag
_atom_type_scat_source
C C 0.0033 0.0016 'International Tables Vol C Tables 4.2.6.8 and 6.1.1.4'
H H 0.0000 0.0000 'International Tables Vol C Tables 4.2.6.8 and 6.1.1.4'
Er Er -0.2586 4.9576 'International Tables Vol C Tables 4.2.6.8 and 6.1.1.4'
Na Na 0.0362 0.0249 'International Tables Vol C Tables 4.2.6.8 and 6.1.1.4'
O O 0.0106 0.0060 'International Tables Vol C Tables 4.2.6.8 and 6.1.1.4'
loop_
_geom_angle_atom_site_label_1
_geom_angle_atom_site_label_2
_geom_angle_atom_site_label_3
_geom_angle
_geom_angle_site_symmetry_1
_geom_angle_site_symmetry_3
_geom_angle_publ_flag
Er1 Er1 Er1 62.245(5) 16_656 14_466 ?
Er1 Er1 Er1 58.878(3) 16_656 3_675 ?
Er1 Er1 Er1 58.878(3) 14_466 3_675 ?
Er1 Er1 Na1 144.95(6) 14_466 . ?
Er1 Er1 Na1 144.93(6) 16_656 . ?
Na1 Er1 Er1 110.11(5) . 3_675 ?
O1 Er1 Er1 78.71(6) 14_466 16_656 ?
O1 Er1 Er1 37.96(6) 14_466 14_466 ?
O1 Er1 Er1 37.96(6) 16_656 16_656 ?
O1 Er1 Er1 78.71(6) 16_656 14_466 ?
O1 Er1 Er1 35.66(6) 14_466 3_675 ?
O1 Er1 Er1 38.14(6) . 16_656 ?
O1 Er1 Er1 76.11(6) . 3_675 ?
O1 Er1 Er1 35.67(6) 16_656 3_675 ?
O1 Er1 Er1 38.13(6) . 14_466 ?
O1 Er1 Na1 173.77(8) . . ?
O1 Er1 Na1 112.25(8) 16_656 . ?
O1 Er1 Na1 112.26(8) 14_466 . ?
O1 Er1 O1 72.68(10) . 14_466 ?
O1 Er1 O1 69.97(10) 16_656 14_466 ?
O1 Er1 O1 72.68(10) . 16_656 ?
O1 Er1 O3A 149.71(18) 16_656 . ?
O1 Er1 O3A 107.8(2) 14_466 . ?
O1 Er1 O3A 136.82(18) . . ?
O1 Er1 O3B 89.0(2) 14_466 . ?
O1 Er1 O3B 128.54(19) . . ?
O1 Er1 O3B 144.96(17) 16_656 . ?
O1 Er1 O5A 71.04(16) . . ?
O1 Er1 O5B 146.58(15) 16_656 . ?
O1 Er1 O5B 122.73(17) 14_466 . ?
O1 Er1 O5B 81.86(16) . . ?
O2 Er1 Er1 117.73(8) . 16_656 ?
O2 Er1 Er1 117.71(7) . 14_466 ?
O2 Er1 Er1 70.05(7) . 3_675 ?
O2 Er1 Na1 40.07(8) . . ?
O2 Er1 O1 79.77(10) . 16_656 ?
O2 Er1 O1 79.75(10) . 14_466 ?
O2 Er1 O1 146.16(9) . . ?
O2 Er1 O3A 70.28(19) . . ?
O2 Er1 O3B 68.83(18) . . ?
O2 Er1 O5A 120.22(18) . . ?
O2 Er1 O5B 130.54(16) . . ?
O3A Er1 Er1 119.04(19) . 14_466 ?
O3A Er1 Er1 130.0(2) . 3_675 ?
O3A Er1 Er1 170.93(19) . 16_656 ?
O3A Er1 Na1 39.00(17) . . ?
O3B Er1 Na1 49.5(2) . . ?
O3B Er1 O5B 68.4(2) . . ?
O5A Er1 Er1 56.51(14) . 14_466 ?
O5A Er1 Er1 109.23(15) . 3_675 ?
O5A Er1 Er1 108.93(15) . 16_656 ?
O5A Er1 Na1 106.12(16) . . ?
O5A Er1 O1 74.79(16) . 14_466 ?
O5A Er1 O1 135.20(16) . 16_656 ?
O5A Er1 O3A 67.9(2) . . ?
O5B Er1 Na1 92.13(15) . . ?
Er1 Na1 Er1 139.77(10) 11_556 . ?
O2 Na1 Er1 102.44(11) . 11_556 ?
O2 Na1 Er1 37.33(6) 11_556 11_556 ?
O2 Na1 Er1 102.44(11) 11_556 . ?
O2 Na1 Er1 37.33(6) . . ?
O2 Na1 O2 65.11(15) 11_556 . ?
O2 Na1 O3B 109.8(2) 11_556 . ?
O2 Na1 O3B 59.56(16) . . ?
O2 Na1 C4 135.30(7) . . ?
O2 Na1 C4 159.59(9) 11_556 . ?
O3A Na1 Er1 39.54(17) . . ?
O3A Na1 Er1 148.2(3) . 11_556 ?
O3A Na1 O2 68.4(2) . . ?
O3A Na1 O2 124.1(3) . 11_556 ?
O3B Na1 Er1 134.73(18) . 11_556 ?
O3B Na1 Er1 39.46(13) . . ?
O7 Na1 Er1 108.93(5) . 11_556 ?
O7 Na1 Er1 108.93(5) . . ?
O7 Na1 O2 142.65(12) . . ?
O7 Na1 C4 22.72(3) . . ?
C4 Na1 Er1 97.97(4) . . ?
C4 Na1 Er1 122.26(6) . 11_556 ?
Er1 O1 Er1 108.67(10) 14_466 16_656 ?
Er1 O1 Er1 103.91(10) . 14_466 ?
Er1 O1 Er1 103.90(10) . 16_656 ?
Er1 O1 H1 117(4) 14_466 . ?
Er1 O1 H1 117(4) 16_656 . ?
Er1 O1 H1 105(4) . . ?
Er1 O2 Na1 102.60(11) . . ?
C1 O2 Er1 136.3(3) . . ?
C1 O2 Na1 121.1(3) . . ?
Na1 O3A Er1 101.5(3) . . ?
C2 O3A Er1 113.8(5) . . ?
C2 O3A Na1 144.4(5) . . ?
Er1 O3B Na1 91.1(2) . . ?
C2 O3B Er1 118.4(4) . . ?
C2 O3B Na1 113.2(5) . . ?
C3A O5A Er1 119.7(5) . . ?
C3B O5B Er1 118.3(5) . . ?
Na1 O7 H7 128.3 . . ?
C4 O7 Na1 112.04(8) . . ?
C4 O7 H7 109.5 . . ?
O2 C1 O2 127.3(5) . 3_675 ?
O2 C1 C1 116.4(2) . 9_676 ?
O2 C1 C1 116.4(2) 3_675 9_676 ?
O3A C2 C3A 119.9(6) . . ?
O3B C2 C3B 116.9(5) . . ?
O4A C2 O3A 118.9(6) . . ?
O4A C2 C3A 120.1(6) . . ?
O4B C2 O3B 124.1(6) . . ?
O4B C2 C3B 116.8(5) . . ?
O5A C3A C2 117.0(7) . . ?
O6A C3A O5A 125.4(7) . . ?
O6A C3A C2 117.3(7) . . ?
O5B C3B C2 116.3(6) . . ?
O6B C3B O5B 126.6(7) . . ?
O6B C3B C2 116.8(6) . . ?
Na1 C4 H4C 114.3 . . ?
Na1 C4 H4A 65.4 . . ?
Na1 C4 H4B 133.8 . . ?
O7 C4 Na1 45.24(6) . . ?
O7 C4 H4C 107.9 . . ?
O7 C4 H4A 109.5 . . ?
O7 C4 H4B 109.5 . . ?
H4C C4 H4A 110.2 . . ?
H4C C4 H4B 110.3 . . ?
H4A C4 H4B 109.4 . . ?
loop_
_geom_bond_atom_site_label_1
_geom_bond_atom_site_label_2
_geom_bond_distance
_geom_bond_site_symmetry_2
_geom_bond_publ_flag
Er1 Er1 3.6788(3) 14_466 ?
Er1 Er1 3.6787(3) 16_656 ?
Er1 Er1 3.8028(3) 3_675 ?
Er1 Na1 3.7356(12) . ?
Er1 O1 2.340(3) 16_656 ?
Er1 O1 2.341(3) 14_466 ?
Er1 O1 2.331(3) . ?
Er1 O2 2.321(3) . ?
Er1 O3A 2.426(7) . ?
Er1 O3B 2.374(6) . ?
Er1 O5A 2.333(6) . ?
Er1 O5B 2.377(5) . ?
Na1 O2 2.464(4) . ?
Na1 O2 2.464(4) 11_556 ?
Na1 O3A 2.399(7) . ?
Na1 O3B 2.840(8) . ?
Na1 O7 2.379(4) . ?
Na1 C4 3.106(3) . ?
O1 H1 0.846(10) . ?
O2 C1 1.238(4) . ?
O3A C2 1.300(8) . ?
O3B C2 1.270(8) . ?
O4A C2 1.295(8) . ?
O4B C2 1.266(8) . ?
O5A C3A 1.253(10) . ?
O5B C3B 1.261(9) . ?
O6A C3A 1.250(10) . ?
O6B C3B 1.255(9) . ?
O7 H7 0.8210 . ?
O7 C4 1.293942(17) . ?
C1 C1 1.552(10) 9_676 ?
C2 C3A 1.434(9) . ?
C2 C3B 1.529(9) . ?
C4 H4C 0.9824 . ?
C4 H4A 0.9606 . ?
C4 H4B 0.9607 . ?
loop_
_geom_torsion_atom_site_label_1
_geom_torsion_atom_site_label_2
_geom_torsion_atom_site_label_3
_geom_torsion_atom_site_label_4
_geom_torsion
_geom_torsion_site_symmetry_1
_geom_torsion_site_symmetry_2
_geom_torsion_site_symmetry_3
_geom_torsion_site_symmetry_4
_geom_torsion_publ_flag
Er1 O2 C1 O2 0.0(2) . . . 3_675 ?
Er1 O2 C1 C1 180.0(2) . . . 9_676 ?
Er1 O3A C2 O4A -166.5(6) . . . . ?
Er1 O3A C2 C3A 1.7(8) . . . . ?
Er1 O3B C2 O4B 163.6(6) . . . . ?
Er1 O3B C2 C3B 1.5(8) . . . . ?
Er1 O5A C3A O6A 170.6(6) . . . . ?
Er1 O5A C3A C2 -15.4(9) . . . . ?
Er1 O5B C3B O6B -171.4(6) . . . . ?
Er1 O5B C3B C2 15.6(8) . . . . ?
Na1 O2 C1 O2 -179.9(3) . . . 3_675 ?
Na1 O2 C1 C1 0.1(3) . . . 9_676 ?
Na1 O3A C2 O4A 22.7(14) . . . . ?
Na1 O3A C2 C3A -169.1(8) . . . . ?
Na1 O3B C2 O4B -91.7(8) . . . . ?
Na1 O3B C2 C3B 106.3(5) . . . . ?
O3A C2 C3A O5A 8.9(10) . . . . ?
O3A C2 C3A O6A -176.7(7) . . . . ?
O3B C2 C3B O5B -11.5(10) . . . . ?
O3B C2 C3B O6B 174.8(7) . . . . ?
O4A C2 C3A O5A 176.9(7) . . . . ?
O4A C2 C3A O6A -8.7(10) . . . . ?
O4B C2 C3B O5B -174.9(7) . . . . ?
O4B C2 C3B O6B 11.4(10) . . . . ?
loop_
_smtbx_masks_void_nr
_smtbx_masks_void_average_x
_smtbx_masks_void_average_y
_smtbx_masks_void_average_z
_smtbx_masks_void_volume
_smtbx_masks_void_count_electrons
_smtbx_masks_void_content
1 0.000 0.000 0.500 391.4 100.4 '9.6 water'
2 0.500 0.500 0.000 391.4 100.4 '9.6 water'
