#------------------------------------------------------------------------------
#$Date: 2020-03-17 04:32:56 +0200 (Tue, 17 Mar 2020) $
#$Revision: 249423 $
#$URL: file:///home/coder/svn-repositories/cod/cif/7/24/01/7240136.cif $
#------------------------------------------------------------------------------
#
# This file is available in the Crystallography Open Database (COD),
# http://www.crystallography.net/
#
# All data on this site have been placed in the public domain by the
# contributors.
#
data_7240136
loop_
_publ_author_name
'Zhang, Yuanbin'
'Wang, Lingyao'
'Hu, Jianbo'
'Duttwyler, Simon'
'Cui, Xili'
'Xing, Huabin'
_publ_section_title
;
 Solvent dependant supramolecular self-assembly of boron cage pillared
 metal-organic frameworks for selective gas separation
;
_journal_name_full               CrystEngComm
_journal_paper_doi               10.1039/D0CE00142B
_journal_year                    2020
_chemical_formula_sum            'C20 H28 B12 Cu N4'
_chemical_formula_weight         517.72
_space_group_crystal_system      tetragonal
_space_group_IT_number           140
_space_group_name_Hall           '-I 4 2c'
_space_group_name_H-M_alt        'I 4/m c m'
_atom_sites_solution_hydrogens   mixed
_audit_creation_method           SHELXL-2018/3
_audit_update_record
;
2019-05-21 deposited with the CCDC.	2020-03-16 downloaded from the CCDC.
;
_cell_angle_alpha                90
_cell_angle_beta                 90
_cell_angle_gamma                90
_cell_formula_units_Z            4
_cell_length_a                   15.6766(10)
_cell_length_b                   15.6766(10)
_cell_length_c                   20.1231(16)
_cell_measurement_reflns_used    5283
_cell_measurement_temperature    193(2)
_cell_measurement_theta_max      56.44
_cell_measurement_theta_min      5.16
_cell_volume                     4945.4(6)
_computing_structure_refinement  'SHELXL-2018/3 (Sheldrick, 2018)'
_computing_structure_solution    'SHELXT 2014/5 (Sheldrick, 2014)'
_diffrn_ambient_temperature      193(2)
_diffrn_measured_fraction_theta_full 0.995
_diffrn_measured_fraction_theta_max 0.996
_diffrn_measurement_device_type  'BRUKER D8 VENTURE PHOTON II'
_diffrn_radiation_type           GaK\a
_diffrn_radiation_wavelength     1.34139
_diffrn_reflns_av_R_equivalents  0.0986
_diffrn_reflns_av_unetI/netI     0.0355
_diffrn_reflns_Laue_measured_fraction_full 0.995
_diffrn_reflns_Laue_measured_fraction_max 0.996
_diffrn_reflns_limit_h_max       17
_diffrn_reflns_limit_h_min       -20
_diffrn_reflns_limit_k_max       19
_diffrn_reflns_limit_k_min       -20
_diffrn_reflns_limit_l_max       26
_diffrn_reflns_limit_l_min       -25
_diffrn_reflns_number            27049
_diffrn_reflns_point_group_measured_fraction_full 0.995
_diffrn_reflns_point_group_measured_fraction_max 0.996
_diffrn_reflns_theta_full        53.594
_diffrn_reflns_theta_max         60.146
_diffrn_reflns_theta_min         5.165
_exptl_absorpt_coefficient_mu    2.425
_exptl_crystal_density_diffrn    0.695
_exptl_crystal_description       block
_exptl_crystal_F_000             1060
_exptl_crystal_size_max          0.200
_exptl_crystal_size_mid          0.100
_exptl_crystal_size_min          0.100
_refine_diff_density_max         0.338
_refine_diff_density_min         -0.425
_refine_diff_density_rms         0.061
_refine_ls_extinction_method     none
_refine_ls_goodness_of_fit_ref   0.988
_refine_ls_hydrogen_treatment    mixed
_refine_ls_matrix_type           full
_refine_ls_number_parameters     62
_refine_ls_number_reflns         1522
_refine_ls_number_restraints     18
_refine_ls_restrained_S_all      0.984
_refine_ls_R_factor_all          0.0603
_refine_ls_R_factor_gt           0.0492
_refine_ls_shift/su_max          0.000
_refine_ls_shift/su_mean         0.000
_refine_ls_structure_factor_coef Fsqd
_refine_ls_weighting_details
'w=1/[\s^2^(Fo^2^)+(0.0800P)^2^+10.8000P] where P=(Fo^2^+2Fc^2^)/3'
_refine_ls_weighting_scheme      calc
_refine_ls_wR_factor_gt          0.1513
_refine_ls_wR_factor_ref         0.1597
_reflns_Friedel_coverage         0.000
_reflns_number_gt                1165
_reflns_number_total             1522
_reflns_threshold_expression     'I > 2\s(I)'
_cod_data_source_file            d0ce00142b2.cif
_cod_data_source_block           zju_b1_0m_a_sq
_cod_original_cell_volume        4945.4(7)
_cod_database_code               7240136
_shelx_shelxl_version_number     2018/3
_shelx_space_group_comment
;
The symmetry employed for this shelxl refinement is uniquely defined
by the following loop, which should always be used as a source of
symmetry information in preference to the above space-group names.
They are only intended as comments.
;
_shelx_estimated_absorpt_t_min   0.643
_shelx_estimated_absorpt_t_max   0.794
_shelx_res_file
;
TITL ZJU_B1_0m_a.res in I4/mcm
    zju_b1_0m_a_sq.res
    created by SHELXL-2018/3 at 07:37:53 on 13-Mar-2019
REM Old TITL ZJU_B1_0m in I4/mcm
REM SHELXT solution in I4/mcm
REM R1 0.242,  Rweak 0.019,  Alpha 0.059,  Orientation as input
REM Formula found by SHELXT:  C20 N6 Cu
CELL  1.34139  15.6766  15.6766  20.1231   90.000   90.000   90.000
ZERR   4  0.0010   0.0010   0.0016    0.000    0.000    0.000
LATT  2
SYMM -X, -Y, Z
SYMM -Y, X, Z
SYMM Y, -X, Z
SYMM -X, Y, 1/2-Z
SYMM X, -Y, 1/2-Z
SYMM Y, X, 1/2-Z
SYMM -Y, -X, 1/2-Z
SFAC C B N Cu H
UNIT 80 48.0003 16 4 112
LIST 6 ! automatically inserted. Change 6 to 4 for CHECKCIF!!
TEMP -80.160
L.S. 5 0   14
BOND $H
acta
rigu $B
FMAP 2
size 0.1 0.2 0.1
PLAN 20
ABIN
ACTA
WGHT    0.080000   10.800000
FVAR       0.41571
CU1   4    0.500000    0.500000    0.750000    10.12500    0.01675    0.01675 =
         0.03946    0.00000    0.00000    0.00000
B1    2    0.500000    0.500000    0.583052    10.25000    0.04023    0.04023 =
         0.03129    0.00000    0.00000    0.00000
H1    5    0.500000    0.500000    0.642160    10.25000   -1.50000
PART -1 10.41667
B2A   2    0.576088    0.554907    0.459363    10.41667    0.03400    0.06634 =
         0.03551    0.01474   -0.00438   -0.01903
AFIX   3
H2A   5    0.633582    0.610417    0.435506    10.41667   -1.50000
AFIX   0
B3A   2    0.594150    0.512183    0.539012    10.41667    0.03559    0.07333 =
         0.04034    0.01752   -0.00481   -0.00955
AFIX   3
H3    5    0.673511    0.501191    0.573142    10.41667   -1.50000
AFIX   0
B4A   2    0.538403    0.591623    0.534699    10.41667    0.08068    0.04373 =
         0.03987    0.00379   -0.00472   -0.01584
AFIX   3
H4    5    0.582697    0.659946    0.543029    10.41667   -1.50000
AFIX   0
PART 0
RESI 2
N1    3    0.409622    0.409622    0.750000    10.50000    0.02131    0.02131 =
         0.03533   -0.00079    0.00079   -0.00225
C2    1    0.348015    0.284406    0.702591    11.00000    0.04126    0.03517 =
         0.04342   -0.01173    0.01083   -0.01348
AFIX  43
H2    5    0.349991    0.241417    0.669353    11.00000   -1.20000
AFIX   0
C3    1    0.283606    0.283606    0.750000    10.50000    0.02823    0.02823 =
         0.03310   -0.00184    0.00184   -0.00828
C1    1    0.409167    0.347796    0.703858    11.00000    0.03475    0.03263 =
         0.04120   -0.00864    0.01108   -0.01079
AFIX  43
H1    5    0.452504    0.347638    0.670859    11.00000   -1.20000
resi 0
REM #####
AFIX   0
HKLF 4




REM  ZJU_B1_0m_a.res in I4/mcm
REM wR2 = 0.159743, GooF = S = 0.98848, Restrained GooF = 0.98362 for all data
REM R1 = 0.049215 for 1165 Fo > 4sig(Fo) and 0.060316 for all 1522 data
REM 62 parameters refined using 18 restraints

END

WGHT      0.1210      0.4428

REM Highest difference peak  0.338,  deepest hole -0.425,  1-sigma level  0.061
Q1    1   0.6758  0.4726  0.5616  11.00000  0.05    0.34
Q2    1   0.5116  0.5768  0.7180  11.00000  0.05    0.26
Q3    1   0.6544  0.5643  0.4270  11.00000  0.05    0.26
Q4    1   0.3922  0.2142  0.6896  11.00000  0.05    0.24
Q5    1   0.4414  0.4414  0.7500  10.50000  0.05    0.18
Q6    1   0.3781  0.3124  0.7051  11.00000  0.05    0.17
Q7    1   0.4204  0.2583  0.6726  11.00000  0.05    0.17
Q8    1   0.4379  0.3715  0.6482  11.00000  0.05    0.17
Q9    1   0.3512  0.2731  0.7279  11.00000  0.05    0.16
Q10   1   0.4126  0.3563  0.7295  11.00000  0.05    0.16
Q11   1   0.5785  0.7112  0.5992  11.00000  0.05    0.15
Q12   1   0.3206  0.3093  0.6933  11.00000  0.05    0.14
Q13   1   0.4172  0.2771  0.6631  11.00000  0.05    0.14
Q14   1   0.3820  0.2996  0.6306  11.00000  0.05    0.14
Q15   1   0.4233  0.3408  0.6201  11.00000  0.05    0.14
Q16   1   0.5459  0.5237  0.4401  11.00000  0.05    0.13
Q17   1   0.6150  0.7127  0.5725  11.00000  0.05    0.13
Q18   1   0.5000  0.3069  0.7500  10.50000  0.05    0.13
Q19   1   0.4551  0.3330  0.6846  11.00000  0.05    0.12
Q20   1   0.8718  0.6282  0.5836  10.50000  0.05    0.12
;
_shelx_res_checksum              94008
_shelx_fab_file
;
    1    3    0     95.79      0.00
    3    3    0    -34.85      0.00
    0    4    0    -80.97      0.00
    2    4    0    -33.20      0.00
    4    4    0     24.92      0.00
    1    5    0     10.74      0.00
    3    5    0      6.27      0.00
    5    5    0      0.90      0.00
    0    6    0     15.31      0.00
    2    6    0      8.48      0.00
    4    6    0    -11.97      0.00
    6    6    0     -3.16      0.00
    1    7    0    -12.30      0.00
    3    7    0      1.66      0.00
    5    7    0      7.60      0.00
    7    7    0     -6.11      0.00
    0    8    0      6.65      0.00
    2    8    0      3.37      0.00
    4    8    0     -5.16      0.00
    6    8    0      3.81      0.00
    8    8    0      5.48      0.00
    1    9    0     -3.50      0.00
    3    9    0     -0.49      0.00
    5    9    0     -0.89      0.00
    7    9    0     -4.76      0.00
    9    9    0     -0.17      0.00
    0   10    0      0.95      0.00
    2   10    0      3.03      0.00
    4   10    0      3.19      0.00
    6   10    0      1.91      0.00
    8   10    0     -0.27      0.00
   10   10    0     -0.08      0.00
    1   11    0      1.26      0.00
    3   11    0     -4.18      0.00
    5   11    0     -2.66      0.00
    7   11    0      1.30      0.00
    9   11    0      1.76      0.00
   11   11    0     -2.18      0.00
    0   12    0     -6.76      0.00
    2   12    0     -0.20      0.00
    4   12    0      2.31      0.00
    6   12    0      1.20      0.00
    8   12    0     -3.41      0.00
   10   12    0      0.32      0.00
   12   12    0      0.78      0.00
    1   13    0      5.29      0.00
    3   13    0      0.48      0.00
    5   13    0     -1.30      0.00
    7   13    0      0.49      0.00
    9   13    0      1.24      0.00
   11   13    0      0.38      0.00
   13   13    0      0.63      0.00
    0   14    0     -2.43      0.00
    2   14    0     -2.25      0.00
    4   14    0     -1.13      0.00
    6   14    0      0.48      0.00
    8   14    0      0.87      0.00
   10   14    0     -0.87      0.00
   12   14    0     -1.55      0.00
   14   14    0      0.86      0.00
    1   15    0     -1.22      0.00
    3   15    0      2.31      0.00
    5   15    0      0.51      0.00
    7   15    0     -1.68      0.00
    9   15    0     -0.29      0.00
   11   15    0      1.36      0.00
   13   15    0      0.22      0.00
    0   16    0      1.52      0.00
    2   16    0     -0.19      0.00
    4   16    0     -1.34      0.00
    6   16    0      2.24      0.00
    8   16    0     -0.39      0.00
   10   16    0      0.47      0.00
   12   16    0     -0.86      0.00
    1   17    0      1.56      0.00
    3   17    0      0.11      0.00
    5   17    0     -1.36      0.00
    7   17    0     -0.12      0.00
    9   17    0     -0.29      0.00
   11   17    0     -0.18      0.00
    0   18    0     -3.30      0.00
    2   18    0     -0.06      0.00
    4   18    0      0.26      0.00
    6   18    0      0.31      0.00
    8   18    0      0.53      0.00
    1   19    0      0.11      0.00
    3   19    0      0.09      0.00
    5   19    0      0.59      0.00
    7   19    0     -1.60      0.00
    0   20    0      1.97      0.00
    2   20    0     -0.75      0.00
    1    2    1    -10.78      0.00
    2    3    1      9.06      0.00
    1    4    1     -9.41      0.00
    3    4    1     -5.75      0.00
    2    5    1     19.38      0.00
    4    5    1    -18.90      0.00
    1    6    1    -13.78      0.00
    3    6    1     -4.96      0.00
    5    6    1     14.79      0.00
    2    7    1      6.32      0.00
    4    7    1      2.67      0.00
    6    7    1      0.35      0.00
    1    8    1     -0.04      0.00
    3    8    1      2.46      0.00
    5    8    1     -8.97      0.00
    7    8    1      1.03      0.00
    2    9    1     -6.92      0.00
    4    9    1     -0.62      0.00
    6    9    1      6.07      0.00
    8    9    1     -4.16      0.00
    1   10    1      5.98      0.00
    3   10    1      1.87      0.00
    5   10    1     -0.16      0.00
    7   10    1     -2.60      0.00
    9   10    1      2.45      0.00
    2   11    1     -0.20      0.00
    4   11    1      1.58      0.00
    6   11    1      0.73      0.00
    8   11    1      0.29      0.00
   10   11    1      2.24      0.00
    1   12    1     -2.13      0.00
    3   12    1     -2.39      0.00
    5   12    1     -0.90      0.00
    7   12    1      0.06      0.00
    9   12    1     -1.20      0.00
   11   12    1      2.24      0.00
    2   13    1      2.78      0.00
    4   13    1     -0.02      0.00
    6   13    1     -1.53      0.00
    8   13    1      2.41      0.00
   10   13    1     -3.72      0.00
   12   13    1      2.39      0.00
    1   14    1     -1.86      0.00
    3   14    1     -1.65      0.00
    5   14    1      3.06      0.00
    7   14    1     -0.87      0.00
    9   14    1      0.66      0.00
   11   14    1      0.08      0.00
   13   14    1     -1.53      0.00
    2   15    1      2.13      0.00
    4   15    1     -0.62      0.00
    6   15    1     -0.43      0.00
    8   15    1     -1.09      0.00
   10   15    1     -0.15      0.00
   12   15    1      0.41      0.00
    1   16    1     -1.26      0.00
    3   16    1      1.72      0.00
    5   16    1     -1.15      0.00
    7   16    1     -0.12      0.00
    9   16    1      3.34      0.00
   11   16    1     -0.30      0.00
    2   17    1     -0.84      0.00
    4   17    1     -3.52      0.00
    6   17    1      3.86      0.00
    8   17    1     -2.89      0.00
   10   17    1     -1.47      0.00
    1   18    1     -1.34      0.00
    3   18    1      3.95      0.00
    5   18    1     -1.01      0.00
    7   18    1     -0.05      0.00
    9   18    1      0.31      0.00
    2   19    1     -2.36      0.00
    4   19    1      0.90      0.00
    6   19    1     -0.59      0.00
    1   20    1      2.90      0.00
    3   20    1      0.72      0.00
    1    1    2      2.31      0.00
    0    2    2   -104.42      0.00
    2    2    2     24.57      0.00
    1    3    2     51.63      0.00
    3    3    2    -61.95      0.00
    0    4    2    -12.95      0.00
    2    4    2      8.88      0.00
    4    4    2     29.62      0.00
    1    5    2    -18.43      0.00
    3    5    2     -2.50      0.00
    5    5    2     -1.31      0.00
    0    6    2     14.53      0.00
    2    6    2      7.12      0.00
    4    6    2     -8.63      0.00
    6    6    2      1.26      0.00
    1    7    2     -0.43      0.00
    3    7    2      3.78      0.00
    5    7    2      2.61      0.00
    7    7    2     -1.97      0.00
    0    8    2     -4.14      0.00
    2    8    2     -4.92      0.00
    4    8    2     -2.55      0.00
    6    8    2      0.97      0.00
    8    8    2      0.60      0.00
    1    9    2      3.49      0.00
    3    9    2      3.56      0.00
    5    9    2     -0.16      0.00
    7    9    2     -0.84      0.00
    9    9    2      0.50      0.00
    0   10    2     -0.96      0.00
    2   10    2     -2.17      0.00
    4   10    2     -0.36      0.00
    6   10    2      1.00      0.00
    8   10    2     -0.65      0.00
   10   10    2     -0.51      0.00
    1   11    2      0.35      0.00
    3   11    2     -0.12      0.00
    5   11    2     -1.17      0.00
    7   11    2      0.36      0.00
    9   11    2      1.38      0.00
   11   11    2     -0.39      0.00
    0   12    2     -1.73      0.00
    2   12    2      0.96      0.00
    4   12    2      1.06      0.00
    6   12    2      0.60      0.00
    8   12    2     -1.56      0.00
   10   12    2     -0.52      0.00
   12   12    2      0.86      0.00
    1   13    2      1.30      0.00
    3   13    2     -1.41      0.00
    5   13    2     -0.88      0.00
    7   13    2      0.66      0.00
    9   13    2      0.37      0.00
   11   13    2      0.23      0.00
   13   13    2     -1.81      0.00
    0   14    2     -0.36      0.00
    2   14    2     -0.19      0.00
    4   14    2      1.02      0.00
    6   14    2     -0.27      0.00
    8   14    2      0.24      0.00
   10   14    2     -0.14      0.00
   12   14    2      0.42      0.00
   14   14    2      0.95      0.00
    1   15    2     -1.06      0.00
    3   15    2      0.21      0.00
    5   15    2     -0.20      0.00
    7   15    2     -0.22      0.00
    9   15    2     -0.18      0.00
   11   15    2     -0.25      0.00
   13   15    2      0.06      0.00
    0   16    2      0.36      0.00
    2   16    2      0.79      0.00
    4   16    2     -0.48      0.00
    6   16    2      0.90      0.00
    8   16    2     -0.46      0.00
   10   16    2      1.13      0.00
   12   16    2     -0.17      0.00
    1   17    2      0.86      0.00
    3   17    2     -0.64      0.00
    5   17    2     -0.20      0.00
    7   17    2      0.31      0.00
    9   17    2     -0.91      0.00
    0   18    2     -1.46      0.00
    2   18    2      0.27      0.00
    4   18    2      0.03      0.00
    6   18    2     -0.60      0.00
    8   18    2      0.43      0.00
    1   19    2     -0.52      0.00
    3   19    2      0.17      0.00
    5   19    2      0.91      0.00
    0   20    2      1.50      0.00
    2   20    2     -0.24      0.00
    1    2    3     39.71      0.00
    2    3    3    -22.64      0.00
    1    4    3     -0.46      0.00
    3    4    3    -14.23      0.00
    2    5    3     11.80      0.00
    4    5    3     19.08      0.00
    1    6    3      4.52      0.00
    3    6    3     -9.33      0.00
    5    6    3     -5.49      0.00
    2    7    3     -7.47      0.00
    4    7    3      2.21      0.00
    6    7    3     -7.98      0.00
    1    8    3      0.76      0.00
    3    8    3      5.44      0.00
    5    8    3      3.37      0.00
    7    8    3      8.74      0.00
    2    9    3      1.78      0.00
    4    9    3     -2.52      0.00
    6    9    3     -3.18      0.00
    8    9    3      0.20      0.00
    1   10    3     -0.08      0.00
    3   10    3     -3.84      0.00
    5   10    3      1.10      0.00
    7   10    3     -1.57      0.00
    9   10    3     -2.49      0.00
    2   11    3      0.14      0.00
    4   11    3      2.62      0.00
    6   11    3      1.13      0.00
    8   11    3      0.51      0.00
   10   11    3      1.79      0.00
    1   12    3      1.68      0.00
    3   12    3      0.48      0.00
    5   12    3     -2.05      0.00
    7   12    3      0.07      0.00
    9   12    3      0.68      0.00
   11   12    3      0.91      0.00
    2   13    3     -2.00      0.00
    4   13    3      0.67      0.00
    6   13    3     -0.26      0.00
    8   13    3      0.81      0.00
   10   13    3     -2.69      0.00
   12   13    3      0.27      0.00
    1   14    3      0.50      0.00
    3   14    3     -0.37      0.00
    5   14    3      0.30      0.00
    7   14    3     -0.18      0.00
    9   14    3     -0.20      0.00
   11   14    3      1.38      0.00
   13   14    3      2.66      0.00
    2   15    3      0.43      0.00
    4   15    3      0.60      0.00
    6   15    3      0.64      0.00
    8   15    3     -0.38      0.00
   10   15    3      0.37      0.00
   12   15    3     -2.05      0.00
    1   16    3      0.36      0.00
    3   16    3      0.03      0.00
    5   16    3     -1.72      0.00
    7   16    3     -1.68      0.00
    9   16    3      1.37      0.00
   11   16    3     -1.48      0.00
    2   17    3      0.11      0.00
    4   17    3     -0.18      0.00
    6   17    3      3.27      0.00
    8   17    3      0.64      0.00
   10   17    3      1.71      0.00
    1   18    3     -1.86      0.00
    3   18    3     -0.18      0.00
    5   18    3     -0.37      0.00
    7   18    3     -1.34      0.00
    9   18    3     -3.44      0.00
    2   19    3      1.82      0.00
    4   19    3      0.10      0.00
    6   19    3     -1.37      0.00
    1   20    3     -0.77      0.00
    0    2    4    -38.17      0.00
    2    2    4     48.39      0.00
    1    3    4    -17.91      0.00
    3    3    4    -34.42      0.00
    0    4    4     30.60      0.00
    2    4    4      7.25      0.00
    4    4    4     -6.12      0.00
    1    5    4     -5.65      0.00
    3    5    4     17.84      0.00
    5    5    4      5.69      0.00
    0    6    4    -10.71      0.00
    2    6    4     -9.58      0.00
    4    6    4     -8.00      0.00
    6    6    4      5.45      0.00
    1    7    4     10.70      0.00
    3    7    4     -1.45      0.00
    5    7    4     -5.27      0.00
    7    7    4      1.05      0.00
    0    8    4     -6.17      0.00
    2    8    4     -0.04      0.00
    4    8    4      9.30      0.00
    6    8    4     -0.15      0.00
    8    8    4     -2.77      0.00
    1    9    4      1.38      0.00
    3    9    4     -3.33      0.00
    5    9    4     -3.42      0.00
    7    9    4      1.97      0.00
    9    9    4      0.55      0.00
    0   10    4      0.55      0.00
    2   10    4     -1.18      0.00
    4   10    4     -0.26      0.00
    6   10    4      1.16      0.00
    8   10    4     -0.44      0.00
   10   10    4     -0.54      0.00
    1   11    4     -1.70      0.00
    3   11    4      2.24      0.00
    5   11    4      0.93      0.00
    7   11    4     -1.29      0.00
    9   11    4      0.31      0.00
   11   11    4      1.03      0.00
    0   12    4      2.42      0.00
    2   12    4      1.81      0.00
    4   12    4     -1.72      0.00
    6   12    4     -0.82      0.00
    8   12    4      1.52      0.00
   10   12    4     -0.70      0.00
   12   12    4     -0.64      0.00
    1   13    4     -1.15      0.00
    3   13    4     -1.33      0.00
    5   13    4      1.16      0.00
    7   13    4      0.34      0.00
    9   13    4     -1.26      0.00
   11   13    4      0.73      0.00
   13   13    4     -1.41      0.00
    0   14    4     -0.02      0.00
    2   14    4     -0.29      0.00
    4   14    4      1.45      0.00
    6   14    4     -0.62      0.00
    8   14    4     -0.51      0.00
   10   14    4      0.84      0.00
   12   14    4      0.68      0.00
   14   14    4     -0.92      0.00
    1   15    4      0.54      0.00
    3   15    4     -0.42      0.00
    5   15    4     -1.34      0.00
    7   15    4      1.14      0.00
    9   15    4      0.24      0.00
   11   15    4     -1.25      0.00
   13   15    4      1.34      0.00
    0   16    4     -0.89      0.00
    2   16    4      0.97      0.00
    4   16    4      0.63      0.00
    6   16    4     -0.13      0.00
    8   16    4     -0.60      0.00
   10   16    4      0.76      0.00
   12   16    4     -0.76      0.00
    1   17    4     -0.25      0.00
    3   17    4     -1.00      0.00
    5   17    4      0.53      0.00
    7   17    4      0.63      0.00
    9   17    4     -0.95      0.00
    0   18    4      0.95      0.00
    2   18    4     -0.06      0.00
    4   18    4     -0.13      0.00
    6   18    4     -0.98      0.00
    8   18    4      0.18      0.00
    1   19    4     -0.41      0.00
    3   19    4      0.90      0.00
    5   19    4      0.13      0.00
    0   20    4      0.17      0.00
    1    2    5     22.24      0.00
    2    3    5      0.46      0.00
    1    4    5     -9.49      0.00
    3    4    5     -0.86      0.00
    2    5    5     -5.05      0.00
    4    5    5      0.25      0.00
    1    6    5     17.86      0.00
    3    6    5      8.62      0.00
    5    6    5     -2.48      0.00
    2    7    5    -15.26      0.00
    4    7    5     -3.94      0.00
    6    7    5      3.27      0.00
    1    8    5     -3.15      0.00
    3    8    5      3.40      0.00
    5    8    5      3.17      0.00
    7    8    5     -4.57      0.00
    2    9    5     11.79      0.00
    4    9    5     -1.46      0.00
    6    9    5     -3.19      0.00
    8    9    5      4.58      0.00
    1   10    5     -5.77      0.00
    3   10    5     -8.39      0.00
    5   10    5      3.76      0.00
    7   10    5      1.58      0.00
    9   10    5     -1.88      0.00
    2   11    5      1.47      0.00
    4   11    5      1.74      0.00
    6   11    5     -1.90      0.00
    8   11    5     -1.95      0.00
   10   11    5      1.70      0.00
    1   12    5      3.09      0.00
    3   12    5      2.89      0.00
    5   12    5     -1.82      0.00
    7   12    5      1.13      0.00
    9   12    5      0.82      0.00
   11   12    5     -0.20      0.00
    2   13    5     -4.75      0.00
    4   13    5     -0.55      0.00
    6   13    5      1.11      0.00
    8   13    5      0.41      0.00
   10   13    5     -1.14      0.00
   12   13    5      0.37      0.00
    1   14    5      0.81      0.00
    3   14    5      2.06      0.00
    5   14    5     -0.04      0.00
    7   14    5      0.04      0.00
    9   14    5     -1.21      0.00
   11   14    5      1.16      0.00
   13   14    5     -0.43      0.00
    2   15    5      0.23      0.00
    4   15    5     -1.08      0.00
    6   15    5     -1.33      0.00
    8   15    5     -0.68      0.00
   10   15    5      0.92      0.00
   12   15    5     -0.52      0.00
    1   16    5      0.17      0.00
    3   16    5     -0.59      0.00
    5   16    5      1.76      0.00
    7   16    5      1.79      0.00
    9   16    5      1.74      0.00
   11   16    5     -2.03      0.00
    2   17    5      0.45      0.00
    4   17    5      0.21      0.00
    6   17    5     -1.68      0.00
    8   17    5     -2.10      0.00
   10   17    5      0.22      0.00
    1   18    5     -0.53      0.00
    3   18    5     -1.32      0.00
    5   18    5      0.72      0.00
    7   18    5      1.10      0.00
    2   19    5      1.74      0.00
    4   19    5      0.09      0.00
    0    0    6     -0.85      0.00
    1    1    6      3.19      0.00
    0    2    6     -3.81      0.00
    2    2    6      1.79      0.00
    1    3    6     -5.05      0.00
    3    3    6     28.73      0.00
    0    4    6     21.64      0.00
    2    4    6    -20.57      0.00
    4    4    6    -24.28      0.00
    1    5    6     -5.11      0.00
    3    5    6     16.87      0.00
    5    5    6     -2.00      0.00
    0    6    6      0.53      0.00
    2    6    6      3.74      0.00
    4    6    6      6.47      0.00
    6    6    6      2.78      0.00
    1    7    6      2.56      0.00
    3    7    6    -17.65      0.00
    5    7    6     -5.66      0.00
    7    7    6      7.19      0.00
    0    8    6    -10.71      0.00
    2    8    6      6.32      0.00
    4    8    6     12.99      0.00
    6    8    6     -5.57      0.00
    8    8    6     -3.14      0.00
    1    9    6      4.24      0.00
    3    9    6     -4.04      0.00
    5    9    6     -0.08      0.00
    7    9    6      2.60      0.00
    9    9    6     -1.68      0.00
    0   10    6      1.01      0.00
    2   10    6     -1.76      0.00
    4   10    6     -4.38      0.00
    6   10    6      0.70      0.00
    8   10    6      1.93      0.00
   10   10    6     -0.54      0.00
    1   11    6     -4.16      0.00
    3   11    6      4.62      0.00
    5   11    6      3.03      0.00
    7   11    6     -3.43      0.00
    9   11    6     -0.23      0.00
   11   11    6      1.06      0.00
    0   12    6      5.15      0.00
    2   12    6      1.99      0.00
    4   12    6     -3.12      0.00
    6   12    6     -0.51      0.00
    8   12    6      1.58      0.00
   10   12    6     -0.09      0.00
   12   12    6     -0.88      0.00
    1   13    6     -1.89      0.00
    3   13    6     -0.83      0.00
    5   13    6      0.87      0.00
    7   13    6      1.31      0.00
    9   13    6     -0.90      0.00
   11   13    6      0.02      0.00
   13   13    6     -0.10      0.00
    0   14    6     -0.49      0.00
    2   14    6     -0.33      0.00
    4   14    6      1.22      0.00
    6   14    6     -0.20      0.00
    8   14    6     -2.09      0.00
   10   14    6      1.28      0.00
   12   14    6     -0.01      0.00
    1   15    6      1.14      0.00
    3   15    6      0.23      0.00
    5   15    6     -1.67      0.00
    7   15    6      1.42      0.00
    9   15    6      0.62      0.00
   11   15    6     -0.42      0.00
    0   16    6     -0.36      0.00
    2   16    6     -0.04      0.00
    4   16    6      0.06      0.00
    6   16    6     -0.30      0.00
    8   16    6     -0.49      0.00
   10   16    6     -0.26      0.00
    1   17    6     -0.96      0.00
    3   17    6      0.05      0.00
    5   17    6      1.13      0.00
    7   17    6      0.36      0.00
    9   17    6     -0.30      0.00
    0   18    6      1.63      0.00
    2   18    6      0.35      0.00
    4   18    6     -0.74      0.00
    6   18    6     -0.58      0.00
    8   18    6      0.46      0.00
    1   19    6     -0.57      0.00
    3   19    6      0.37      0.00
    5   19    6      0.07      0.00
    1    2    7    -15.39      0.00
    2    3    7     18.44      0.00
    1    4    7     -8.88      0.00
    3    4    7     15.83      0.00
    2    5    7    -16.22      0.00
    4    5    7     -7.66      0.00
    1    6    7     16.95      0.00
    3    6    7      8.68      0.00
    5    6    7    -10.60      0.00
    2    7    7     -8.91      0.00
    4    7    7      2.99      0.00
    6    7    7      9.27      0.00
    1    8    7     -4.13      0.00
    3    8    7     -0.15      0.00
    5    8    7      1.01      0.00
    7    8    7     -2.80      0.00
    2    9    7      9.40      0.00
    4    9    7     -2.64      0.00
    6    9    7     -5.35      0.00
    8    9    7      2.10      0.00
    1   10    7     -4.04      0.00
    3   10    7     -5.39      0.00
    5   10    7      5.26      0.00
    7   10    7      2.09      0.00
    9   10    7     -2.01      0.00
    2   11    7     -0.49      0.00
    4   11    7      0.89      0.00
    6   11    7     -1.39      0.00
    8   11    7     -0.76      0.00
   10   11    7      1.60      0.00
    1   12    7      3.78      0.00
    3   12    7      4.11      0.00
    5   12    7     -2.91      0.00
    7   12    7      1.09      0.00
    9   12    7      1.60      0.00
   11   12    7     -0.97      0.00
    2   13    7     -5.02      0.00
    4   13    7     -0.33      0.00
    6   13    7      2.44      0.00
    8   13    7     -1.82      0.00
   10   13    7     -2.98      0.00
   12   13    7      2.94      0.00
    1   14    7      0.12      0.00
    3   14    7      1.11      0.00
    5   14    7     -1.85      0.00
    7   14    7     -1.67      0.00
    9   14    7      1.56      0.00
   11   14    7      2.66      0.00
   13   14    7     -4.84      0.00
    2   15    7      1.50      0.00
    4   15    7      0.91      0.00
    6   15    7      1.80      0.00
    8   15    7      1.94      0.00
   10   15    7     -1.70      0.00
   12   15    7     -0.43      0.00
    1   16    7      0.01      0.00
    3   16    7     -1.60      0.00
    5   16    7     -0.28      0.00
    7   16    7     -1.41      0.00
    9   16    7     -0.37      0.00
   11   16    7      0.36      0.00
    2   17    7     -0.74      0.00
    4   17    7      0.87      0.00
    6   17    7     -0.43      0.00
    8   17    7      0.23      0.00
    1   18    7      2.13      0.00
    3   18    7     -0.15      0.00
    5   18    7      0.16      0.00
    7   18    7     -0.48      0.00
    2   19    7     -1.23      0.00
    4   19    7      0.07      0.00
    0    0    8     -5.48      0.00
    1    1    8      3.46      0.00
    0    2    8     -0.80      0.00
    2    2    8     -5.81      0.00
    1    3    8     -0.03      0.00
    3    3    8     10.02      0.00
    0    4    8     12.27      0.00
    2    4    8     -4.41      0.00
    4    4    8     -0.92      0.00
    1    5    8    -11.86      0.00
    3    5    8      1.09      0.00
    5    5    8     -6.51      0.00
    0    6    8     11.40      0.00
    2    6    8      5.75      0.00
    4    6    8      3.94      0.00
    6    6    8     -0.36      0.00
    1    7    8      0.41      0.00
    3    7    8     -6.43      0.00
    5    7    8      1.91      0.00
    7    7    8      1.93      0.00
    0    8    8     -8.76      0.00
    2    8    8     -0.18      0.00
    4    8    8      2.16      0.00
    6    8    8     -3.41      0.00
    8    8    8     -0.33      0.00
    1    9    8      2.26      0.00
    3    9    8      1.84      0.00
    5    9    8     -0.07      0.00
    7    9    8      1.52      0.00
    9    9    8     -0.68      0.00
    0   10    8      5.49      0.00
    2   10    8     -1.35      0.00
    4   10    8     -3.37      0.00
    6   10    8      1.20      0.00
    8   10    8      0.40      0.00
   10   10    8     -0.86      0.00
    1   11    8     -3.64      0.00
    3   11    8      3.40      0.00
    5   11    8      1.63      0.00
    7   11    8     -2.26      0.00
    9   11    8      0.03      0.00
   11   11    8      1.37      0.00
    0   12    8      1.52      0.00
    2   12    8     -0.47      0.00
    4   12    8     -2.06      0.00
    6   12    8     -0.73      0.00
    8   12    8      1.19      0.00
   10   12    8     -0.17      0.00
   12   12    8     -0.53      0.00
    1   13    8      0.28      0.00
    3   13    8      0.21      0.00
    5   13    8      1.07      0.00
    7   13    8      1.75      0.00
    9   13    8     -0.37      0.00
   11   13    8     -0.43      0.00
   13   13    8     -0.40      0.00
    0   14    8      0.35      0.00
    2   14    8      0.62      0.00
    4   14    8      0.45      0.00
    6   14    8     -1.26      0.00
    8   14    8     -1.98      0.00
   10   14    8      0.82      0.00
   12   14    8      0.66      0.00
    1   15    8     -0.98      0.00
    3   15    8     -0.61      0.00
    5   15    8     -0.33      0.00
    7   15    8      1.05      0.00
    9   15    8     -0.03      0.00
   11   15    8     -0.38      0.00
    0   16    8      0.85      0.00
    2   16    8      0.27      0.00
    4   16    8     -0.12      0.00
    6   16    8      0.08      0.00
    8   16    8      0.88      0.00
   10   16    8      0.30      0.00
    1   17    8     -0.25      0.00
    3   17    8      0.34      0.00
    5   17    8      0.54      0.00
    7   17    8     -0.96      0.00
    9   17    8     -0.61      0.00
    0   18    8     -0.19      0.00
    2   18    8      0.59      0.00
    4   18    8     -0.68      0.00
    6   18    8      0.19      0.00
    1   19    8     -0.39      0.00
    3   19    8     -0.46      0.00
    1    2    9     -5.48      0.00
    2    3    9     -0.43      0.00
    1    4    9      0.09      0.00
    3    4    9     10.94      0.00
    2    5    9     -5.64      0.00
    4    5    9      3.00      0.00
    1    6    9      5.18      0.00
    3    6    9     -4.56      0.00
    5    6    9     -5.41      0.00
    2    7    9     -1.72      0.00
    4    7    9      4.83      0.00
    6    7    9     -1.05      0.00
    1    8    9      1.32      0.00
    3    8    9      1.36      0.00
    5    8    9     -0.21      0.00
    7    8    9      3.62      0.00
    2    9    9     -0.42      0.00
    4    9    9     -0.77      0.00
    6    9    9     -1.75      0.00
    8    9    9     -0.86      0.00
    1   10    9     -0.35      0.00
    3   10    9     -1.80      0.00
    5   10    9      1.10      0.00
    7   10    9     -1.06      0.00
    9   10    9     -1.37      0.00
    2   11    9      0.00      0.00
    4   11    9      1.01      0.00
    6   11    9      1.19      0.00
    8   11    9      2.29      0.00
   10   11    9     -0.19      0.00
    1   12    9      0.99      0.00
    3   12    9      1.37      0.00
    5   12    9     -2.51      0.00
    7   12    9     -0.54      0.00
    9   12    9     -0.48      0.00
   11   12    9      0.46      0.00
    2   13    9     -0.11      0.00
    4   13    9      0.51      0.00
    6   13    9      0.47      0.00
    8   13    9     -0.22      0.00
   10   13    9     -0.10      0.00
   12   13    9     -1.75      0.00
    1   14    9     -2.34      0.00
    3   14    9     -1.98      0.00
    5   14    9      1.66      0.00
    7   14    9     -0.08      0.00
    9   14    9     -1.63      0.00
   11   14    9      2.62      0.00
    2   15    9      3.56      0.00
    4   15    9     -0.73      0.00
    6   15    9     -2.57      0.00
    8   15    9      2.59      0.00
   10   15    9      0.10      0.00
    1   16    9     -1.52      0.00
    3   16    9     -0.79      0.00
    5   16    9      2.10      0.00
    7   16    9      1.53      0.00
    9   16    9     -1.90      0.00
    2   17    9     -0.08      0.00
    4   17    9      0.33      0.00
    6   17    9     -2.55      0.00
    8   17    9     -0.78      0.00
    1   18    9      2.21      0.00
    3   18    9     -1.10      0.00
    5   18    9      0.99      0.00
    0    0   10     -8.28      0.00
    1    1   10      1.55      0.00
    0    2   10      0.35      0.00
    2    2   10      1.37      0.00
    1    3   10      2.23      0.00
    3    3   10     -6.70      0.00
    0    4   10     -5.42      0.00
    2    4   10      0.02      0.00
    4    4   10      8.14      0.00
    1    5   10      0.74      0.00
    3    5   10      0.50      0.00
    5    5   10     -4.04      0.00
    0    6   10      5.20      0.00
    2    6   10     -1.97      0.00
    4    6   10     -3.01      0.00
    6    6   10     -0.48      0.00
    1    7   10     -1.63      0.00
    3    7   10      2.45      0.00
    5    7   10      5.33      0.00
    7    7   10     -4.67      0.00
    0    8   10      0.49      0.00
    2    8   10     -0.44      0.00
    4    8   10     -2.71      0.00
    6    8   10      0.10      0.00
    8    8   10      2.35      0.00
    1    9   10     -1.10      0.00
    3    9   10      2.15      0.00
    5    9   10     -1.63      0.00
    7    9   10      1.27      0.00
    9    9   10      0.57      0.00
    0   10   10      2.16      0.00
    2   10   10     -0.62      0.00
    4   10   10      0.44      0.00
    6   10   10      0.52      0.00
    8   10   10     -2.45      0.00
   10   10   10      1.39      0.00
    1   11   10      0.60      0.00
    3   11   10     -0.71      0.00
    5   11   10      0.02      0.00
    7   11   10      0.17      0.00
    9   11   10     -0.72      0.00
   11   11   10     -1.05      0.00
    0   12   10     -2.29      0.00
    2   12   10      0.08      0.00
    4   12   10      0.17      0.00
    6   12   10     -0.44      0.00
    8   12   10      2.00      0.00
   10   12   10      0.80      0.00
   12   12   10     -0.73      0.00
    1   13   10      0.55      0.00
    3   13   10     -0.10      0.00
    5   13   10      0.47      0.00
    7   13   10     -0.80      0.00
    9   13   10     -1.01      0.00
   11   13   10      0.82      0.00
   13   13   10      0.21      0.00
    0   14   10      0.59      0.00
    2   14   10     -0.03      0.00
    4   14   10     -0.04      0.00
    6   14   10     -0.05      0.00
    8   14   10      0.32      0.00
   10   14   10     -0.75      0.00
   12   14   10     -0.24      0.00
    1   15   10     -0.31      0.00
    3   15   10      0.36      0.00
    5   15   10      0.09      0.00
    7   15   10      0.20      0.00
    9   15   10     -0.13      0.00
   11   15   10      0.41      0.00
    0   16   10      0.03      0.00
    2   16   10     -0.42      0.00
    4   16   10     -0.73      0.00
    6   16   10     -0.49      0.00
    8   16   10      0.14      0.00
    1   17   10      0.49      0.00
    3   17   10      0.36      0.00
    5   17   10      0.85      0.00
    7   17   10      0.45      0.00
    0   18   10     -1.15      0.00
    2   18   10      0.28      0.00
    4   18   10     -0.36      0.00
    1    2   11      2.16      0.00
    2    3   11     -1.98      0.00
    1    4   11     -0.31      0.00
    3    4   11     -0.17      0.00
    2    5   11      3.67      0.00
    4    5   11      0.66      0.00
    1    6   11     -1.13      0.00
    3    6   11     -6.36      0.00
    5    6   11      5.91      0.00
    2    7   11      0.95      0.00
    4    7   11      2.66      0.00
    6    7   11     -2.54      0.00
    1    8   11      2.87      0.00
    3    8   11      0.52      0.00
    5    8   11     -3.67      0.00
    7    8   11     -0.35      0.00
    2    9   11     -2.62      0.00
    4    9   11      0.48      0.00
    6    9   11      2.23      0.00
    8    9   11     -0.62      0.00
    1   10   11     -0.12      0.00
    3   10   11      0.86      0.00
    5   10   11      1.75      0.00
    7   10   11     -1.11      0.00
    9   10   11     -0.36      0.00
    2   11   11      0.06      0.00
    4   11   11     -1.31      0.00
    6   11   11     -0.85      0.00
    8   11   11      1.80      0.00
   10   11   11     -1.98      0.00
    1   12   11      0.19      0.00
    3   12   11     -0.40      0.00
    5   12   11     -1.38      0.00
    7   12   11      1.16      0.00
    9   12   11     -0.10      0.00
   11   12   11      0.68      0.00
    2   13   11      1.65      0.00
    4   13   11      2.89      0.00
    6   13   11     -1.43      0.00
    8   13   11     -1.62      0.00
   10   13   11      2.46      0.00
   12   13   11     -3.91      0.00
    1   14   11     -0.98      0.00
    3   14   11     -3.08      0.00
    5   14   11      1.80      0.00
    7   14   11      1.99      0.00
    9   14   11     -3.66      0.00
   11   14   11      0.95      0.00
    2   15   11      0.00      0.00
    4   15   11     -1.67      0.00
    6   15   11     -1.97      0.00
    8   15   11      3.43      0.00
   10   15   11      2.28      0.00
    1   16   11      0.32      0.00
    3   16   11      4.28      0.00
    5   16   11     -0.40      0.00
    7   16   11     -1.04      0.00
    9   16   11     -3.24      0.00
    2   17   11     -3.06      0.00
    4   17   11     -0.18      0.00
    6   17   11      1.63      0.00
    1   18   11      2.68      0.00
    3   18   11     -0.66      0.00
    0    0   12      3.86      0.00
    1    1   12     -5.17      0.00
    0    2   12      2.79      0.00
    2    2   12      2.72      0.00
    1    3   12      3.87      0.00
    3    3   12     -8.13      0.00
    0    4   12    -10.70      0.00
    2    4   12     -0.71      0.00
    4    4   12     10.59      0.00
    1    5   12      4.74      0.00
    3    5   12     -1.12      0.00
    5    5   12     -4.85      0.00
    0    6   12      3.22      0.00
    2    6   12     -1.26      0.00
    4    6   12     -3.00      0.00
    6    6   12      1.41      0.00
    1    7   12     -5.28      0.00
    3    7   12      3.17      0.00
    5    7   12      4.82      0.00
    7    7   12     -5.68      0.00
    0    8   12      6.15      0.00
    2    8   12      1.05      0.00
    4    8   12     -3.95      0.00
    6    8   12      0.06      0.00
    8    8   12      3.59      0.00
    1    9   12     -1.18      0.00
    3    9   12      1.30      0.00
    5    9   12     -0.19      0.00
    7    9   12      1.11      0.00
    9    9   12     -2.93      0.00
    0   10   12     -3.61      0.00
    2   10   12     -0.34      0.00
    4   10   12      1.55      0.00
    6   10   12     -0.97      0.00
    8   10   12     -0.85      0.00
   10   10   12      3.14      0.00
    1   11   12      3.49      0.00
    3   11   12     -2.86      0.00
    5   11   12     -0.09      0.00
    7   11   12      0.97      0.00
    9   11   12     -0.50      0.00
   11   11   12     -0.42      0.00
    0   12   12     -3.19      0.00
    2   12   12      1.23      0.00
    4   12   12      0.81      0.00
    6   12   12     -0.03      0.00
    8   12   12      0.20      0.00
   10   12   12     -0.57      0.00
   12   12   12     -1.01      0.00
    1   13   12     -0.18      0.00
    3   13   12     -0.41      0.00
    5   13   12     -0.04      0.00
    7   13   12     -1.11      0.00
    9   13   12      0.02      0.00
   11   13   12      0.89      0.00
    0   14   12      0.56      0.00
    2   14   12     -0.27      0.00
    4   14   12      0.03      0.00
    6   14   12      0.77      0.00
    8   14   12      1.03      0.00
   10   14   12     -0.02      0.00
    1   15   12      0.02      0.00
    3   15   12      0.44      0.00
    5   15   12     -0.39      0.00
    7   15   12     -0.47      0.00
    9   15   12     -0.31      0.00
    0   16   12     -0.28      0.00
    2   16   12      0.05      0.00
    4   16   12     -0.33      0.00
    6   16   12      0.27      0.00
    8   16   12     -1.08      0.00
    1   17   12      0.76      0.00
    3   17   12     -0.46      0.00
    5   17   12     -0.07      0.00
    1    2   13      6.52      0.00
    2    3   13     -4.53      0.00
    1    4   13     -2.17      0.00
    3    4   13      0.06      0.00
    2    5   13      8.00      0.00
    4    5   13     -3.47      0.00
    1    6   13     -5.30      0.00
    3    6   13     -5.63      0.00
    5    6   13      8.08      0.00
    2    7   13      1.62      0.00
    4    7   13      1.09      0.00
    6    7   13     -0.01      0.00
    1    8   13      3.88      0.00
    3    8   13      2.13      0.00
    5    8   13     -6.07      0.00
    7    8   13     -1.43      0.00
    2    9   13     -5.15      0.00
    4    9   13      2.06      0.00
    6    9   13      4.86      0.00
    8    9   13     -3.40      0.00
    1   10   13      1.54      0.00
    3   10   13      0.49      0.00
    5   10   13     -1.66      0.00
    7   10   13      0.05      0.00
    9   10   13      0.11      0.00
    2   11   13     -0.18      0.00
    4   11   13      1.17      0.00
    6   11   13     -0.69      0.00
    8   11   13      1.33      0.00
   10   11   13     -0.70      0.00
    1   12   13      0.20      0.00
    3   12   13     -0.89      0.00
    5   12   13     -1.07      0.00
    7   12   13      1.12      0.00
    9   12   13     -0.54      0.00
   11   12   13      1.20      0.00
    2   13   13      1.31      0.00
    4   13   13      1.22      0.00
    6   13   13     -1.43      0.00
    8   13   13     -1.33      0.00
   10   13   13      1.12      0.00
    1   14   13     -0.59      0.00
    3   14   13     -2.09      0.00
    5   14   13      2.25      0.00
    7   14   13      1.50      0.00
    9   14   13     -1.54      0.00
    2   15   13      0.62      0.00
    4   15   13     -1.27      0.00
    6   15   13     -1.38      0.00
    8   15   13      1.54      0.00
    1   16   13     -2.09      0.00
    3   16   13      3.13      0.00
    5   16   13     -1.07      0.00
    7   16   13      0.01      0.00
    2   17   13     -0.20      0.00
    4   17   13     -0.28      0.00
    0    0   14      5.57      0.00
    1    1   14     -2.63      0.00
    0    2   14     -0.25      0.00
    2    2   14     -0.49      0.00
    1    3   14      2.77      0.00
    3    3   14     -3.07      0.00
    0    4   14     -2.48      0.00
    2    4   14     -0.17      0.00
    4    4   14      5.55      0.00
    1    5   14     -0.23      0.00
    3    5   14     -0.95      0.00
    5    5   14     -2.72      0.00
    0    6   14      1.27      0.00
    2    6   14      0.60      0.00
    4    6   14     -2.34      0.00
    6    6   14      2.55      0.00
    1    7   14     -0.83      0.00
    3    7   14      2.33      0.00
    5    7   14      2.45      0.00
    7    7   14     -4.62      0.00
    0    8   14      0.26      0.00
    2    8   14     -1.03      0.00
    4    8   14     -2.32      0.00
    6    8   14      0.48      0.00
    8    8   14      0.41      0.00
    1    9   14      1.27      0.00
    3    9   14     -0.01      0.00
    5    9   14     -0.79      0.00
    7    9   14      2.24      0.00
    9    9   14     -0.78      0.00
    0   10   14     -3.30      0.00
    2   10   14      0.40      0.00
    4   10   14      2.81      0.00
    6   10   14     -0.92      0.00
    8   10   14     -1.34      0.00
   10   10   14      0.16      0.00
    1   11   14      1.57      0.00
    3   11   14     -2.39      0.00
    5   11   14     -1.14      0.00
    7   11   14      0.73      0.00
    9   11   14      1.37      0.00
   11   11   14      0.09      0.00
    0   12   14     -0.85      0.00
    2   12   14      0.39      0.00
    4   12   14      0.54      0.00
    6   12   14      0.49      0.00
    8   12   14     -0.93      0.00
   10   12   14     -0.92      0.00
   12   12   14      0.93      0.00
    1   13   14      0.31      0.00
    3   13   14      0.21      0.00
    5   13   14      0.04      0.00
    7   13   14     -0.13      0.00
    9   13   14      0.15      0.00
   11   13   14     -0.16      0.00
    0   14   14     -0.57      0.00
    2   14   14     -0.84      0.00
    4   14   14      0.32      0.00
    6   14   14     -0.24      0.00
    8   14   14      1.19      0.00
    1   15   14      0.31      0.00
    3   15   14      0.30      0.00
    5   15   14     -0.08      0.00
    7   15   14     -1.40      0.00
    0   16   14      1.01      0.00
    2   16   14      0.14      0.00
    4   16   14     -0.73      0.00
    6   16   14      1.66      0.00
    1   17   14     -0.97      0.00
    1    2   15     -0.70      0.00
    2    3   15      0.22      0.00
    1    4   15     -2.06      0.00
    3    4   15      1.20      0.00
    2    5   15      2.75      0.00
    4    5   15      0.57      0.00
    1    6   15     -2.19      0.00
    3    6   15     -2.12      0.00
    5    6   15      0.65      0.00
    2    7   15      0.47      0.00
    4    7   15     -1.11      0.00
    6    7   15      0.93      0.00
    1    8   15     -0.03      0.00
    3    8   15      3.14      0.00
    5    8   15     -1.43      0.00
    7    8   15      1.36      0.00
    2    9   15     -0.89      0.00
    4    9   15     -0.16      0.00
    6    9   15      0.39      0.00
    8    9   15     -3.72      0.00
    1   10   15     -0.37      0.00
    3   10   15     -1.08      0.00
    5   10   15      0.39      0.00
    7   10   15      2.16      0.00
    9   10   15     -1.09      0.00
    2   11   15      0.35      0.00
    4   11   15      0.12      0.00
    6   11   15     -2.35      0.00
    8   11   15      1.15      0.00
   10   11   15      1.12      0.00
    1   12   15      0.44      0.00
    3   12   15      0.79      0.00
    5   12   15      1.10      0.00
    7   12   15      0.36      0.00
    9   12   15     -1.75      0.00
   11   12   15      0.89      0.00
    2   13   15     -0.32      0.00
    4   13   15     -0.72      0.00
    6   13   15     -0.28      0.00
    8   13   15      0.64      0.00
   10   13   15      1.22      0.00
    1   14   15      0.61      0.00
    3   14   15     -0.61      0.00
    5   14   15      0.55      0.00
    7   14   15     -0.27      0.00
    2   15   15     -0.72      0.00
    4   15   15     -0.38      0.00
    6   15   15      0.17      0.00
    1   16   15     -1.23      0.00
    3   16   15      3.16      0.00
    0    0   16     -0.69      0.00
    1    1   16      0.74      0.00
    0    2   16     -0.06      0.00
    2    2   16      0.08      0.00
    1    3   16     -1.73      0.00
    3    3   16      3.77      0.00
    0    4   16      4.92      0.00
    2    4   16     -2.21      0.00
    4    4   16     -4.15      0.00
    1    5   16     -1.19      0.00
    3    5   16      3.42      0.00
    5    5   16     -0.27      0.00
    0    6   16     -1.71      0.00
    2    6   16     -0.05      0.00
    4    6   16     -0.71      0.00
    6    6   16      2.45      0.00
    1    7   16      1.29      0.00
    3    7   16     -1.36      0.00
    5    7   16      0.02      0.00
    7    7   16     -1.87      0.00
    0    8   16     -0.48      0.00
    2    8   16      1.34      0.00
    4    8   16      0.46      0.00
    6    8   16     -0.65      0.00
    8    8   16     -0.99      0.00
    1    9   16     -1.35      0.00
    3    9   16     -1.18      0.00
    5    9   16      0.40      0.00
    7    9   16      2.60      0.00
    9    9   16     -1.54      0.00
    0   10   16      1.66      0.00
    2   10   16      0.78      0.00
    4   10   16      0.48      0.00
    6   10   16     -1.29      0.00
    8   10   16     -0.01      0.00
   10   10   16      1.07      0.00
    1   11   16     -0.87      0.00
    3   11   16      0.63      0.00
    5   11   16     -0.19      0.00
    7   11   16     -0.41      0.00
    9   11   16      0.21      0.00
   11   11   16     -0.56      0.00
    0   12   16      0.63      0.00
    2   12   16     -0.75      0.00
    4   12   16     -0.27      0.00
    6   12   16      0.52      0.00
    8   12   16      0.21      0.00
   10   12   16     -0.47      0.00
    1   13   16      0.89      0.00
    3   13   16     -0.30      0.00
    5   13   16     -0.20      0.00
    7   13   16      0.29      0.00
    9   13   16     -0.46      0.00
    0   14   16     -1.37      0.00
    2   14   16     -0.45      0.00
    4   14   16      1.82      0.00
    6   14   16     -1.13      0.00
    1   15   16      0.73      0.00
    3   15   16     -1.20      0.00
    5   15   16     -0.14      0.00
    1    2   17     -4.65      0.00
    2    3   17      3.36      0.00
    1    4   17     -1.00      0.00
    3    4   17      1.76      0.00
    2    5   17     -2.96      0.00
    4    5   17      2.09      0.00
    1    6   17      2.86      0.00
    3    6   17      0.48      0.00
    5    6   17     -0.50      0.00
    2    7   17     -0.33      0.00
    4    7   17     -1.48      0.00
    6    7   17     -1.39      0.00
    1    8   17     -2.92      0.00
    3    8   17      0.20      0.00
    5    8   17      0.66      0.00
    7    8   17      2.95      0.00
    2    9   17      3.42      0.00
    4    9   17      1.40      0.00
    6    9   17     -1.12      0.00
    8    9   17     -1.97      0.00
    1   10   17     -1.22      0.00
    3   10   17     -3.08      0.00
    5   10   17      0.09      0.00
    7   10   17      0.37      0.00
    9   10   17     -0.76      0.00
    2   11   17      0.31      0.00
    4   11   17     -0.28      0.00
    6   11   17     -0.11      0.00
    8   11   17      1.64      0.00
   10   11   17     -1.09      0.00
    1   12   17      1.90      0.00
    3   12   17      1.14      0.00
    5   12   17      1.03      0.00
    7   12   17     -1.97      0.00
    9   12   17      0.81      0.00
    2   13   17     -2.11      0.00
    4   13   17      0.27      0.00
    6   13   17      0.70      0.00
    8   13   17      0.06      0.00
    1   14   17      1.56      0.00
    3   14   17     -1.28      0.00
    5   14   17     -1.46      0.00
    2   15   17      0.49      0.00
    0    0   18     -6.42      0.00
    1    1   18      3.27      0.00
    0    2   18     -0.03      0.00
    2    2   18      1.33      0.00
    1    3   18     -4.03      0.00
    3    3   18      3.45      0.00
    0    4   18      6.32      0.00
    2    4   18     -1.14      0.00
    4    4   18     -4.07      0.00
    1    5   18     -0.98      0.00
    3    5   18      2.28      0.00
    5    5   18     -1.55      0.00
    0    6   18     -1.77      0.00
    2    6   18      0.11      0.00
    4    6   18      2.11      0.00
    6    6   18      0.67      0.00
    1    7   18      0.94      0.00
    3    7   18     -3.12      0.00
    5    7   18     -0.89      0.00
    7    7   18      1.25      0.00
    0    8   18     -0.95      0.00
    2    8   18      1.41      0.00
    4    8   18      1.89      0.00
    6    8   18     -0.88      0.00
    8    8   18     -1.18      0.00
    1    9   18      0.31      0.00
    3    9   18     -0.42      0.00
    5    9   18     -0.55      0.00
    7    9   18      1.25      0.00
    9    9   18     -1.04      0.00
    0   10   18     -0.24      0.00
    2   10   18     -1.07      0.00
    4   10   18     -0.84      0.00
    6   10   18     -0.19      0.00
    8   10   18      0.07      0.00
   10   10   18      1.06      0.00
    1   11   18      0.14      0.00
    3   11   18      1.94      0.00
    5   11   18      1.45      0.00
    7   11   18     -0.21      0.00
    9   11   18     -0.06      0.00
    0   12   18      0.66      0.00
    2   12   18     -0.57      0.00
    4   12   18     -1.54      0.00
    6   12   18     -1.14      0.00
    8   12   18      0.85      0.00
    1   13   18     -0.49      0.00
    3   13   18     -0.13      0.00
    5   13   18      0.57      0.00
    0   14   18      1.36      0.00
    2   14   18      0.15      0.00
    4   14   18      1.60      0.00
    1    2   19     -5.61      0.00
    2    3   19      4.50      0.00
    1    4   19     -0.80      0.00
    3    4   19      1.62      0.00
    2    5   19     -4.46      0.00
    4    5   19      2.03      0.00
    1    6   19      5.11      0.00
    3    6   19      0.30      0.00
    5    6   19     -0.75      0.00
    2    7   19     -0.89      0.00
    4    7   19      0.23      0.00
    6    7   19      0.18      0.00
    1    8   19     -2.29      0.00
    3    8   19     -0.91      0.00
    5    8   19     -0.26      0.00
    7    8   19     -1.60      0.00
    2    9   19      2.72      0.00
    4    9   19      0.80      0.00
    6    9   19     -0.06      0.00
    8    9   19      2.70      0.00
    1   10   19     -0.82      0.00
    3   10   19     -1.89      0.00
    5   10   19      2.13      0.00
    7   10   19     -0.94      0.00
    9   10   19     -2.61      0.00
    2   11   19      0.93      0.00
    4   11   19     -1.80      0.00
    6   11   19     -1.96      0.00
    8   11   19      2.24      0.00
    1   12   19      1.79      0.00
    3   12   19      0.00      0.00
    5   12   19      2.97      0.00
    2   13   19     -2.53      0.00
    4   13   19      0.11      0.00
    0    0   20     -0.17      0.00
    1    1   20      0.70      0.00
    0    2   20     -0.35      0.00
    2    2   20     -0.49      0.00
    1    3   20     -0.84      0.00
    3    3   20      3.46      0.00
    0    4   20      2.51      0.00
    2    4   20     -1.36      0.00
    4    4   20     -3.33      0.00
    1    5   20     -0.73      0.00
    3    5   20      1.34      0.00
    5    5   20      0.01      0.00
    0    6   20     -0.40      0.00
    2    6   20      0.32      0.00
    4    6   20      1.10      0.00
    6    6   20     -1.59      0.00
    1    7   20      0.95      0.00
    3    7   20     -1.54      0.00
    5    7   20      0.63      0.00
    7    7   20      0.30      0.00
    0    8   20     -1.76      0.00
    2    8   20     -0.03      0.00
    4    8   20      0.32      0.00
    6    8   20      0.15      0.00
    8    8   20      2.46      0.00
    1    9   20      0.38      0.00
    3    9   20      0.08      0.00
    5    9   20     -0.45      0.00
    7    9   20     -1.79      0.00
    9    9   20     -2.60      0.00
    0   10   20      0.75      0.00
    2   10   20      0.73      0.00
    4   10   20     -0.35      0.00
    6   10   20      0.54      0.00
    8   10   20      1.32      0.00
    1   11   20     -0.80      0.00
    3   11   20     -0.51      0.00
    5   11   20      0.97      0.00
    0   12   20     -0.91      0.00
    2   12   20     -0.07      0.00
    4   12   20     -0.05      0.00
    1    2   21     -4.64      0.00
    2    3   21      2.64      0.00
    1    4   21     -2.26      0.00
    3    4   21      4.13      0.00
    2    5   21     -1.24      0.00
    4    5   21     -0.46      0.00
    1    6   21      1.44      0.00
    3    6   21     -1.28      0.00
    5    6   21     -1.14      0.00
    2    7   21      0.31      0.00
    4    7   21      1.44      0.00
    6    7   21     -0.24      0.00
    1    8   21      0.11      0.00
    3    8   21      0.26      0.00
    5    8   21     -0.32      0.00
    7    8   21      1.00      0.00
    2    9   21     -1.66      0.00
    4    9   21     -0.39      0.00
    6    9   21     -0.78      0.00
    1   10   21      0.83      0.00
    3   10   21      0.65      0.00
    5   10   21      1.48      0.00
    2   11   21      1.01      0.00
    4   11   21     -0.77      0.00
    0    0   22      2.48      0.00
    1    1   22     -1.10      0.00
    0    2   22      0.12      0.00
    2    2   22      0.85      0.00
    1    3   22     -0.24      0.00
    3    3   22     -0.67      0.00
    0    4   22      0.21      0.00
    2    4   22      0.66      0.00
    4    4   22      0.06      0.00
    1    5   22     -0.72      0.00
    3    5   22     -0.45      0.00
    5    5   22     -0.58      0.00
    0    6   22      0.31      0.00
    2    6   22      0.88      0.00
    4    6   22      0.61      0.00
    6    6   22     -0.82      0.00
    1    7   22      0.41      0.00
    3    7   22     -0.89      0.00
    5    7   22      0.81      0.00
    7    7   22      0.44      0.00
    0    8   22     -1.82      0.00
    2    8   22     -0.32      0.00
    4    8   22      0.00      0.00
    6    8   22     -0.46      0.00
    1    9   22      0.86      0.00
    3    9   22      0.09      0.00
    5    9   22     -0.07      0.00
    0   10   22      0.51      0.00
    2   10   22      0.41      0.00
    4   10   22     -0.08      0.00
    1    2   23      0.35      0.00
    2    3   23      0.32      0.00
    1    4   23     -3.16      0.00
    3    4   23      1.62      0.00
    2    5   23      2.61      0.00
    4    5   23      0.67      0.00
    1    6   23     -1.97      0.00
    3    6   23     -2.11      0.00
    5    6   23     -1.08      0.00
    2    7   23      1.69      0.00
    4    7   23      0.23      0.00
    6    7   23     -0.21      0.00
    1    8   23      0.27      0.00
    3    8   23      0.33      0.00
    5    8   23      0.28      0.00
    2    9   23     -1.82      0.00
    0    0   24      0.73      0.00
    1    1   24     -0.14      0.00
    0    2   24      0.06      0.00
    2    2   24     -1.02      0.00
    1    3   24      0.50      0.00
    3    3   24      0.64      0.00
    0    4   24     -0.15      0.00
    2    4   24     -0.52      0.00
    4    4   24      0.03      0.00
    1    5   24      0.11      0.00
    3    5   24      0.75      0.00
    5    5   24     -0.75      0.00
    0    6   24      0.32      0.00
    2    6   24     -0.61      0.00
    4    6   24     -0.57      0.00
    1    7   24     -0.10      0.00
    3    7   24      0.49      0.00
    1    2   25      2.43      0.00
    2    3   25     -0.07      0.00
    1    4   25     -1.40      0.00
    3    4   25      0.64      0.00
    2    5   25     -0.19      0.00
    0    0   26      2.23      0.00
    1    1    0   -185.77      0.00
    0    2    0    -30.06      0.00
    2    2    0     31.80      0.00
    4   20    0     -0.05      0.00
    0    0    2    122.95      0.00
   11   17    2     -0.68      0.00
    7   19    2     -0.46      0.00
    3   20    3     -0.23      0.00
    0    0    4     -7.34      0.00
    1    1    4     20.62      0.00
    2   20    4     -0.56      0.00
    6   19    5     -0.62      0.00
    1   20    5     -1.57      0.00
   14   14    6      0.16      0.00
   13   15    6      0.37      0.00
   13   14    9     -1.77      0.00
    2   19    9     -1.04      0.00
   10   16   10      0.71      0.00
    0   18   12     -2.28      0.00
    2   18   12      0.22      0.00
   12   13   13     -2.23      0.00
   10   14   14     -0.08      0.00
    3   17   14      0.30      0.00
    9   14   15     -1.26      0.00
    8   14   16      0.82      0.00
    0   16   16     -0.07      0.00
    2   16   16      0.64      0.00
    4   15   17      2.08      0.00
    7   13   18      0.11      0.00
    7   12   19     -0.98      0.00
    1   14   19      2.16      0.00
    7   11   20      0.05      0.00
    1   13   20      1.45      0.00
    8    9   21     -0.96      0.00
    7   10   21      0.83      0.00
    1   12   21     -0.10      0.00
    1   11   22     -0.94      0.00
    0    8   24      0.10      0.00
    1    6   25      0.63      0.00
    1    1   26     -1.26      0.00
    0    2   26      0.97      0.00
    0    0    0      0.00      0.00
# SQUEEZE RESULTS (Version = 230318)
# Note: Data are Listed for all Voids in the P1 Unit Cell
# i.e. Centre of Gravity, Solvent Accessible Volume,
# Recovered number of Electrons in the Void and
# Details about the Squeezed Material
loop_
  _platon_squeeze_void_nr
  _platon_squeeze_void_average_x
  _platon_squeeze_void_average_y
  _platon_squeeze_void_average_z
  _platon_squeeze_void_volume
  _platon_squeeze_void_count_electrons
  _platon_squeeze_void_content
   1  0.021  0.320 -0.010      2673       404 ' '
# Missing Reflections Below sin(th)/lambda = 0.25
loop_
  _platon_missing_refln_index_h
  _platon_missing_refln_index_k
  _platon_missing_refln_index_l
  _platon_missing_refln_theta
    1    1    0     3.469
    0    2    0     4.909
    2    2    0     6.950
    0    0    2     3.822
    0    0    4     7.661
    1    1    4     8.419
_platon_squeeze_void_probe_radius                  1.20
_platon_squeeze_details
)
TITL ZJU_B1_0m_I 4/m c m    R = 0.10
CELL   15.6766   15.6766   20.1231     90.00     90.00     90.00
SPGR I4/mcm
# Solvent Accessible Volume =      2672
# Electrons Found in S.A.V. =       397
# Note: Atoms in Void are Labelled as Cxxx and Qxxx for all Others
C101 0.136 0.360 0.082 !       2.56 eA-3
C102 0.718 0.219 0.000 !       1.48 eA-3
C103 0.187 0.312 0.000 !       1.45 eA-3
C104 0.951 0.338 0.161 !       0.85 eA-3
C105 0.596 0.156 0.391 !       0.81 eA-3
C106 0.300 0.203-0.003 !       0.75 eA-3
C107 0.893 0.382 0.159 !       0.74 eA-3
C108 0.683 0.808 0.067 !       0.63 eA-3
C109 0.214 0.641 0.002 !       0.60 eA-3
C110 0.840 0.347 0.012 !       0.54 eA-3
C111 0.313 0.250 0.023 !       0.54 eA-3
C112 0.875 0.517 0.150 !       0.51 eA-3
)
;
_shelx_fab_checksum              14703
loop_
_space_group_symop_operation_xyz
'x, y, z'
'-x, -y, z'
'-y, x, z'
'y, -x, z'
'-x, y, -z+1/2'
'x, -y, -z+1/2'
'y, x, -z+1/2'
'-y, -x, -z+1/2'
'x+1/2, y+1/2, z+1/2'
'-x+1/2, -y+1/2, z+1/2'
'-y+1/2, x+1/2, z+1/2'
'y+1/2, -x+1/2, z+1/2'
'-x+1/2, y+1/2, -z+1'
'x+1/2, -y+1/2, -z+1'
'y+1/2, x+1/2, -z+1'
'-y+1/2, -x+1/2, -z+1'
'-x, -y, -z'
'x, y, -z'
'y, -x, -z'
'-y, x, -z'
'x, -y, z-1/2'
'-x, y, z-1/2'
'-y, -x, z-1/2'
'y, x, z-1/2'
'-x+1/2, -y+1/2, -z+1/2'
'x+1/2, y+1/2, -z+1/2'
'y+1/2, -x+1/2, -z+1/2'
'-y+1/2, x+1/2, -z+1/2'
'x+1/2, -y+1/2, z'
'-x+1/2, y+1/2, z'
'-y+1/2, -x+1/2, z'
'y+1/2, x+1/2, z'
loop_
_atom_site_label
_atom_site_type_symbol
_atom_site_fract_x
_atom_site_fract_y
_atom_site_fract_z
_atom_site_U_iso_or_equiv
_atom_site_adp_type
_atom_site_occupancy
_atom_site_site_symmetry_order
_atom_site_calc_flag
_atom_site_refinement_flags_posn
_atom_site_refinement_flags_adp
_atom_site_refinement_flags_occupancy
_atom_site_disorder_assembly
_atom_site_disorder_group
Cu1 Cu 0.500000 0.500000 0.750000 0.0243(3) Uani 1 8 d S T P . .
B1 B 0.500000 0.500000 0.5831(3) 0.0372(12) Uani 1 4 d S T P . .
H1 H 0.500000 0.500000 0.642(3) 0.056 Uiso 1 4 d S U P . .
B2A B 0.5761(10) 0.5549(18) 0.4594(6) 0.045(4) Uani 0.4167 1 d . . P A -1
H2A H 0.633582 0.610417 0.435506 0.068 Uiso 0.4167 1 d R U P A -1
B3A B 0.5942(10) 0.512(2) 0.5390(7) 0.050(4) Uani 0.4167 1 d . . P A -1
H3 H 0.673511 0.501191 0.573142 0.075 Uiso 0.4167 1 d R U P A -1
B4A B 0.538(2) 0.5916(10) 0.5347(5) 0.055(4) Uani 0.4167 1 d . . P A -1
H4 H 0.582697 0.659946 0.543029 0.082 Uiso 0.4167 1 d R U P A -1
N1_2 N 0.40962(11) 0.40962(11) 0.750000 0.0260(6) Uani 1 2 d S T P . .
C2_2 C 0.34801(16) 0.28441(16) 0.70259(13) 0.0400(6) Uani 1 1 d . . . . .
H2_2 H 0.349991 0.241417 0.669353 0.048 Uiso 1 1 calc R U . . .
C3_2 C 0.28361(13) 0.28361(13) 0.750000 0.0299(7) Uani 1 2 d S T P . .
C1_2 C 0.40917(15) 0.34780(15) 0.70386(13) 0.0362(6) Uani 1 1 d . . . . .
H1_2 H 0.452504 0.347638 0.670859 0.043 Uiso 1 1 calc R U . . .
loop_
_atom_site_aniso_label
_atom_site_aniso_U_11
_atom_site_aniso_U_22
_atom_site_aniso_U_33
_atom_site_aniso_U_23
_atom_site_aniso_U_13
_atom_site_aniso_U_12
Cu1 0.0167(3) 0.0167(3) 0.0395(5) 0.000 0.000 0.000
B1 0.0402(18) 0.0402(18) 0.031(3) 0.000 0.000 0.000
B2A 0.034(7) 0.066(10) 0.036(4) 0.015(5) -0.004(3) -0.019(7)
B3A 0.036(5) 0.073(12) 0.040(5) 0.018(6) -0.005(4) -0.010(6)
B4A 0.081(12) 0.044(6) 0.040(4) 0.004(4) -0.005(6) -0.016(6)
N1_2 0.0213(7) 0.0213(7) 0.0353(14) -0.0008(8) 0.0008(8) -0.0023(9)
C2_2 0.0413(14) 0.0352(13) 0.0434(13) -0.0117(11) 0.0108(11) -0.0135(10)
C3_2 0.0282(10) 0.0282(10) 0.0331(15) -0.0018(10) 0.0018(10) -0.0083(12)
C1_2 0.0348(12) 0.0326(12) 0.0412(13) -0.0086(10) 0.0111(10) -0.0108(10)
loop_
_atom_type_symbol
_atom_type_description
_atom_type_scat_dispersion_real
_atom_type_scat_dispersion_imag
_atom_type_scat_source
C C 0.0137 0.0067 'International Tables Vol C Tables 4.2.6.8 and 6.1.1.4'
B B 0.0070 0.0029 'International Tables Vol C Tables 4.2.6.8 and 6.1.1.4'
N N 0.0241 0.0134 'International Tables Vol C Tables 4.2.6.8 and 6.1.1.4'
Cu Cu -2.7974 3.6876 'International Tables Vol C Tables 4.2.6.8 and 6.1.1.4'
H H 0.0000 0.0000 'International Tables Vol C Tables 4.2.6.8 and 6.1.1.4'
loop_
_geom_angle_atom_site_label_1
_geom_angle_atom_site_label_2
_geom_angle_atom_site_label_3
_geom_angle
_geom_angle_site_symmetry_1
_geom_angle_site_symmetry_3
_geom_angle_publ_flag
N1_2 Cu1 N1_2 180.0 2_665 . ?
N1_2 Cu1 N1_2 90.0 2_665 4_565 ?
N1_2 Cu1 N1_2 90.0 . 4_565 ?
N1_2 Cu1 N1_2 90.0 2_665 3_655 ?
N1_2 Cu1 N1_2 90.0 . 3_655 ?
N1_2 Cu1 N1_2 180.0 4_565 3_655 ?
B3A B1 B4A 50.5(4) . . ?
B3A B1 H1 120.8(4) . . ?
B4A B1 H1 122.0(4) . . ?
B4A B2A B3A 51.8(5) . . ?
B4A B2A H2A 109.1 . . ?
B3A B2A H2A 117.7 . . ?
B4A B3A B1 68.3(7) . . ?
B4A B3A B2A 62.9(7) . . ?
B1 B3A B2A 111.8(9) . . ?
B4A B3A H3 128.6 . . ?
B1 B3A H3 118.8 . . ?
B2A B3A H3 128.5 . . ?
B3A B4A B2A 65.2(7) . . ?
B3A B4A B1 61.2(7) . . ?
B2A B4A B1 108.5(7) . . ?
B3A B4A H4 111.3 . . ?
B2A B4A H4 102.0 . . ?
B1 B4A H4 139.3 . . ?
C1_2 N1_2 C1_2 118.1(3) . 7_556 ?
C1_2 N1_2 Cu1 120.95(13) . . ?
C1_2 N1_2 Cu1 120.96(13) 7_556 . ?
C1_2 C2_2 C3_2 119.9(2) . . ?
C1_2 C2_2 H2_2 120.1 . . ?
C3_2 C2_2 H2_2 120.1 . . ?
C2_2 C3_2 C2_2 117.3(3) 7_556 . ?
C2_2 C3_2 C3_2 121.36(14) 7_556 25_556 ?
C2_2 C3_2 C3_2 121.35(14) . 25_556 ?
N1_2 C1_2 C2_2 122.4(2) . . ?
N1_2 C1_2 H1_2 118.8 . . ?
C2_2 C1_2 H1_2 118.8 . . ?
loop_
_geom_bond_atom_site_label_1
_geom_bond_atom_site_label_2
_geom_bond_distance
_geom_bond_site_symmetry_2
_geom_bond_publ_flag
Cu1 N1_2 2.004(2) 2_665 ?
Cu1 N1_2 2.004(2) . ?
Cu1 N1_2 2.004(2) 4_565 ?
Cu1 N1_2 2.004(2) 3_655 ?
B1 B3A 1.732(16) . ?
B1 B4A 1.836(11) . ?
B1 H1 1.19(7) . ?
B2A B4A 1.726(14) . ?
B2A B3A 1.760(11) . ?
B2A H2A 1.3417 . ?
B3A B4A 1.524(14) . ?
B3A H3 1.4315 . ?
B4A H4 1.2874 . ?
N1_2 C1_2 1.342(3) . ?
N1_2 C1_2 1.342(3) 7_556 ?
C2_2 C1_2 1.381(3) . ?
C2_2 C3_2 1.389(3) . ?
C2_2 H2_2 0.9500 . ?
C3_2 C3_2 1.490(6) 25_556 ?
C1_2 H1_2 0.9500 . ?
