#------------------------------------------------------------------------------
#$Date: 2022-12-03 01:34:51 +0200 (Sat, 03 Dec 2022) $
#$Revision: 279678 $
#$URL: file:///home/coder/svn-repositories/cod/cif/7/24/59/7245947.cif $
#------------------------------------------------------------------------------
#
# This file is available in the Crystallography Open Database (COD),
# http://www.crystallography.net/
#
# All data on this site have been placed in the public domain by the
# contributors.
#
data_7245947
loop_
_publ_author_name
'Yin, Jia-Ling'
'Yin, Meng-Ru'
'Yong, Guo-Ping'
_publ_section_title
;
 From two-dimensional networks to three-dimensional metal-organic
 frameworks mediated by solvent ratio: Luminescence and gas adsorption
 properties
;
_journal_name_full               CrystEngComm
_journal_paper_doi               10.1039/D2CE01472F
_journal_year                    2022
_chemical_formula_sum            'C18 H12 Cl Co N5 O6'
_chemical_formula_weight         488.71
_space_group_crystal_system      trigonal
_space_group_IT_number           148
_space_group_name_Hall           '-R 3'
_space_group_name_H-M_alt        'R -3 :H'
_atom_sites_solution_hydrogens   mixed
_audit_creation_method           SHELXL-2014/7
_audit_update_record
;
2022-10-25 deposited with the CCDC.	2022-12-02 downloaded from the CCDC.
;
_cell_angle_alpha                90
_cell_angle_beta                 90
_cell_angle_gamma                120
_cell_formula_units_Z            18
_cell_length_a                   19.52525(15)
_cell_length_b                   19.52525(15)
_cell_length_c                   28.0340(2)
_cell_measurement_reflns_used    18237
_cell_measurement_temperature    293(2)
_cell_measurement_theta_max      73.0534
_cell_measurement_theta_min      4.9617
_cell_volume                     9255.69(12)
_computing_cell_refinement       'CrysAlisPro 1.171.41.110a (Rigaku OD, 2021)'
_computing_data_collection       'CrysAlisPro 1.171.41.110a (Rigaku OD, 2021)'
_computing_data_reduction        'CrysAlisPro 1.171.41.110a (Rigaku OD, 2021)'
_computing_structure_refinement  'SHELXL-2014/7 (Sheldrick, 2014)'
_computing_structure_solution    'ShelXT (Sheldrick, 2015)'
_diffrn_ambient_temperature      293(2)
_diffrn_measured_fraction_theta_full 0.999
_diffrn_measured_fraction_theta_max 0.993
_diffrn_measurement_device_type  'SuperNova, Dual, Cu at home/near, AtlasS2'
_diffrn_radiation_type           CuK\a
_diffrn_radiation_wavelength     1.54184
_diffrn_reflns_av_R_equivalents  0.0283
_diffrn_reflns_av_unetI/netI     0.0168
_diffrn_reflns_Laue_measured_fraction_full 0.999
_diffrn_reflns_Laue_measured_fraction_max 0.993
_diffrn_reflns_limit_h_max       23
_diffrn_reflns_limit_h_min       -22
_diffrn_reflns_limit_k_max       22
_diffrn_reflns_limit_k_min       -23
_diffrn_reflns_limit_l_max       20
_diffrn_reflns_limit_l_min       -34
_diffrn_reflns_number            21788
_diffrn_reflns_point_group_measured_fraction_full 0.999
_diffrn_reflns_point_group_measured_fraction_max 0.993
_diffrn_reflns_theta_full        67.684
_diffrn_reflns_theta_max         69.954
_diffrn_reflns_theta_min         4.097
_diffrn_source                   'micro-focus sealed X-ray tube'
_exptl_absorpt_coefficient_mu    8.159
_exptl_absorpt_correction_T_max  0.250
_exptl_absorpt_correction_T_min  0.244
_exptl_absorpt_correction_type   multi-scan
_exptl_absorpt_process_details
;
CrysAlisPro 1.171.41.110a (Rigaku Oxford Diffraction, 2021)
Empirical absorption correction using spherical harmonics,
implemented in SCALE3 ABSPACK scaling algorithm.
;
_exptl_crystal_colour            red
_exptl_crystal_density_diffrn    1.578
_exptl_crystal_description       block
_exptl_crystal_F_000             4446
_exptl_crystal_size_max          0.200
_exptl_crystal_size_mid          0.180
_exptl_crystal_size_min          0.170
_platon_squeeze_details
;
;
_refine_diff_density_max         2.221
_refine_diff_density_min         -0.515
_refine_diff_density_rms         0.116
_refine_ls_extinction_coef       0.00028(3)
_refine_ls_extinction_expression Fc^*^=kFc[1+0.001xFc^2^\l^3^/sin(2\q)]^-1/4^
_refine_ls_extinction_method     'SHELXL-2014/7 (Sheldrick 2014'
_refine_ls_goodness_of_fit_ref   1.105
_refine_ls_hydrogen_treatment    constr
_refine_ls_matrix_type           full
_refine_ls_number_parameters     282
_refine_ls_number_reflns         3882
_refine_ls_number_restraints     0
_refine_ls_restrained_S_all      1.105
_refine_ls_R_factor_all          0.0440
_refine_ls_R_factor_gt           0.0427
_refine_ls_shift/su_max          0.001
_refine_ls_shift/su_mean         0.000
_refine_ls_structure_factor_coef Fsqd
_refine_ls_weighting_details
'w=1/[\s^2^(Fo^2^)+(0.1052P)^2^+13.0345P] where P=(Fo^2^+2Fc^2^)/3'
_refine_ls_weighting_scheme      calc
_refine_ls_wR_factor_gt          0.1427
_refine_ls_wR_factor_ref         0.1447
_reflns_Friedel_coverage         0.000
_reflns_number_gt                3740
_reflns_number_total             3911
_reflns_threshold_expression     'I > 2\s(I)'
_cod_data_source_file            d2ce01472f2.cif
_cod_data_source_block           3
_cod_original_cell_volume        9255.69(16)
_cod_original_sg_symbol_H-M      'R -3 '
_cod_database_code               7245947
_shelx_shelxl_version_number     2014/7
_shelx_space_group_comment
;
The symmetry employed for this shelxl refinement is uniquely defined
by the following loop, which should always be used as a source of
symmetry information in preference to the above space-group names.
They are only intended as comments.
;
_shelx_estimated_absorpt_t_min   0.292
_shelx_estimated_absorpt_t_max   0.338
_shelx_res_file
;

    1.res created by SHELXL-2014/7


TITL yjl201104_a.res in R-3
REM Old TITL YJL201104 in R-3 #148
REM SHELXT solution in R-3
REM R1 0.131, Rweak 0.017, Alpha 0.045, Orientation as input
REM Formula found by SHELXT: C21 N2 O6 Cl Co
CELL 1.54184 19.525248 19.525248 28.033961 90 90 120
ZERR 18 0.000151 0.000151 0.000221 0 0 0
LATT 3
SYMM -Y,+X-Y,+Z
SYMM +Y-X,-X,+Z
SFAC C H Cl Co N O
UNIT 324 216 18 18 90 108

L.S. 10
PLAN  20
SIZE 0.2 0.18 0.17
LIST 6
MORE -1
CONF
fmap 2
acta
REM <olex2.extras>
REM <HklSrc "%.\\YJL201104.hkl">
REM </olex2.extras>

WGHT    0.105200   13.034497
EXTI    0.000282
FVAR       1.41332
CO1   4    0.390005    0.527649    0.593390    11.00000    0.01534    0.01521 =
         0.01896    0.00056    0.00254    0.00624
CL1   3    0.211796    0.165817    0.736489    11.00000    0.11564    0.04980 =
         0.03471    0.00843    0.01360    0.03351
O1    6    0.309687    0.498518    0.647422    11.00000    0.02457    0.01815 =
         0.02692    0.00147    0.00814    0.00958
O2    6    0.216472    0.400965    0.691246    11.00000    0.02224    0.02167 =
         0.02275    0.00283    0.00790    0.01060
O6    6    0.407311    0.642936    0.598376    11.00000    0.02989    0.02020 =
         0.04844    0.00153    0.00602    0.01251
AFIX   7
H2    2    0.443196    0.673915    0.578473    11.00000   -1.50000
H1    2    0.427046    0.662969    0.625824    11.00000   -1.50000
AFIX   0
O3    6    0.302234    0.499676    0.538006    11.00000    0.02918    0.03615 =
         0.04319    0.01302   -0.00841    0.00284
N3    5    0.341547    0.399688    0.599546    11.00000    0.02039    0.01630 =
         0.02056    0.00082    0.00288    0.00878
N4    5    0.524203    0.428618    0.461792    11.00000    0.02210    0.01941 =
         0.02359    0.00046    0.00492    0.01016
N5    5    0.234446    0.437834    0.538722    11.00000    0.02550    0.02974 =
         0.03680   -0.00304   -0.00544    0.01252
O5    6    0.185445    0.433108    0.567965    11.00000    0.03744    0.05246 =
         0.07030   -0.01446    0.01204    0.01908
C13   1    0.268846    0.427275    0.659762    11.00000    0.01770    0.02036 =
         0.01909    0.00098    0.00043    0.01027
N2    5    0.228311    0.095463    0.611024    11.00000    0.04076    0.01698 =
         0.05060    0.00456    0.01372    0.01346
C10   1    0.286396    0.368894    0.634569    11.00000    0.01795    0.01867 =
         0.02154    0.00134    0.00235    0.00917
O4    6    0.218787    0.384060    0.510593    11.00000    0.05616    0.06113 =
         0.06851   -0.03226    0.00464    0.01926
C14   1    0.417066    0.378636    0.537134    11.00000    0.02492    0.01520 =
         0.02591   -0.00016    0.00674    0.00903
C11   1    0.359156    0.349728    0.577118    11.00000    0.02418    0.01979 =
         0.02442    0.00122    0.00542    0.01085
C16   1    0.455802    0.428383    0.458132    11.00000    0.02331    0.02332 =
         0.02297   -0.00063    0.00087    0.01167
AFIX  43
H16A  2    0.444545    0.445130    0.429644    11.00000   -1.20000
AFIX   0
C15   1    0.401031    0.404454    0.494642    11.00000    0.02215    0.02611 =
         0.02844   -0.00135    0.00282    0.01205
AFIX  43
H15A  2    0.354308    0.405618    0.490830    11.00000   -1.20000
AFIX   0
C18   1    0.486412    0.375111    0.540502    11.00000    0.03100    0.03046 =
         0.02838    0.00945    0.00815    0.01891
AFIX  43
H18A  2    0.497741    0.355801    0.567910    11.00000   -1.20000
AFIX   0
C17   1    0.537925    0.400838    0.502369    11.00000    0.02748    0.03050 =
         0.03028    0.00735    0.00737    0.01807
AFIX  43
H17A  2    0.584404    0.398866    0.504857    11.00000   -1.20000
AFIX   0
C9    1    0.248244    0.290379    0.647662    11.00000    0.02591    0.02022 =
         0.02685    0.00382    0.00823    0.01068
AFIX  43
H9A   2    0.209352    0.271751    0.671112    11.00000   -1.20000
AFIX   0
C8    1    0.268685    0.238716    0.625226    11.00000    0.02950    0.01745 =
         0.03075    0.00401    0.00555    0.01112
C12   1    0.325167    0.270453    0.589432    11.00000    0.03387    0.02007 =
         0.03624    0.00146    0.01046    0.01599
AFIX  43
H12A  2    0.340397    0.238384    0.573551    11.00000   -1.20000
AFIX   0
N1    5    0.194639    0.045293    0.685018    11.00000    0.06261    0.03219 =
         0.05832    0.01783    0.00644    0.02134
C7    1    0.234385    0.156199    0.640146    11.00000    0.03423    0.01888 =
         0.03813    0.00501    0.00979    0.01199
C1    1    0.212945    0.121389    0.684329    11.00000    0.04678    0.02637 =
         0.03857    0.00907    0.00642    0.01375
C2    1    0.204129    0.029666    0.640057    11.00000    0.05115    0.02322 =
         0.06670    0.01267    0.00865    0.01818
C6    1    0.236727    0.091103    0.562678    11.00000    0.06500    0.02694 =
         0.05399   -0.00321    0.01804    0.01480
AFIX  43
H6A   2    0.249121    0.134351    0.543217    11.00000   -1.20000
AFIX   0
C3    1    0.196455   -0.039762    0.619263    11.00000    0.08687    0.02098 =
         0.11478    0.01097    0.01814    0.02505
AFIX  43
H3A   2    0.183519   -0.083584    0.638309    11.00000   -1.20000
AFIX   0
C5    1    0.226678    0.022678    0.543712    11.00000    0.09746    0.04201 =
         0.08378   -0.01506    0.02827    0.02827
AFIX  43
H5A   2    0.232557    0.019325    0.511021    11.00000   -1.20000
AFIX   0
C4    1    0.207562   -0.042999    0.572720    11.00000    0.11068    0.02888 =
         0.12093   -0.01410    0.03421    0.03098
AFIX  43
H4A   2    0.202649   -0.088861    0.559385    11.00000   -1.20000

AFIX   0
HKLF 4

REM  yjl201104_a.res in R-3
REM R1 =  0.0427 for    3740 Fo > 4sig(Fo)  and  0.0440 for all    3882 data
REM    282 parameters refined using      0 restraints

END

WGHT      0.1062     12.4990

REM Highest difference peak  2.221,  deepest hole -0.515,  1-sigma level  0.116
Q1    1   0.0000  0.0000  0.7006  10.33333  0.05    2.22
Q2    1   0.0000  0.0000  0.5000  10.16667  0.05    0.94
Q3    1   0.6667  0.3333  0.5505  10.33333  0.05    0.82
Q4    1   0.1694  0.1734  0.7309  11.00000  0.05    0.56
Q5    1   0.3922  0.6332  0.5741  11.00000  0.05    0.40
Q6    1   0.0888  0.1099  0.5570  11.00000  0.05    0.40
Q7    1   0.2818  0.5144  0.5542  11.00000  0.05    0.38
Q8    1   0.3503  0.4366  0.5938  11.00000  0.05    0.34
Q9    1   0.2751  0.3970  0.6422  11.00000  0.05    0.32
Q10   1   0.4095  0.3947  0.5161  11.00000  0.05    0.32
Q11   1   0.2737  0.3320  0.6418  11.00000  0.05    0.30
Q12   1   0.4498  0.3774  0.5388  11.00000  0.05    0.29
Q13   1   0.2519  0.1953  0.6327  11.00000  0.05    0.29
Q14   1   0.5488  0.4343  0.4453  11.00000  0.05    0.29
Q15   1   0.3203  0.3866  0.6191  11.00000  0.05    0.28
Q16   1   0.2341  0.1783  0.7324  11.00000  0.05    0.26
Q17   1   0.3468  0.3123  0.5834  11.00000  0.05    0.25
Q18   1   0.3863  0.6396  0.6132  11.00000  0.05    0.25
Q19   1   0.3900  0.3692  0.5561  11.00000  0.05    0.25
Q20   1   0.2601  0.2710  0.6402  11.00000  0.05    0.25
;
_shelx_res_checksum              12019
loop_
_space_group_symop_operation_xyz
'x, y, z'
'-y, x-y, z'
'-x+y, -x, z'
'x+2/3, y+1/3, z+1/3'
'-y+2/3, x-y+1/3, z+1/3'
'-x+y+2/3, -x+1/3, z+1/3'
'x+1/3, y+2/3, z+2/3'
'-y+1/3, x-y+2/3, z+2/3'
'-x+y+1/3, -x+2/3, z+2/3'
'-x, -y, -z'
'y, -x+y, -z'
'x-y, x, -z'
'-x+2/3, -y+1/3, -z+1/3'
'y+2/3, -x+y+1/3, -z+1/3'
'x-y+2/3, x+1/3, -z+1/3'
'-x+1/3, -y+2/3, -z+2/3'
'y+1/3, -x+y+2/3, -z+2/3'
'x-y+1/3, x+2/3, -z+2/3'
loop_
_atom_site_label
_atom_site_type_symbol
_atom_site_fract_x
_atom_site_fract_y
_atom_site_fract_z
_atom_site_U_iso_or_equiv
_atom_site_adp_type
_atom_site_occupancy
_atom_site_site_symmetry_order
_atom_site_calc_flag
_atom_site_refinement_flags_posn
_atom_site_refinement_flags_adp
_atom_site_refinement_flags_occupancy
_atom_site_disorder_assembly
_atom_site_disorder_group
Co1 Co 0.39000(2) 0.52765(2) 0.59339(2) 0.01713(18) Uani 1 1 d . . . . .
Cl1 Cl 0.21180(8) 0.16582(6) 0.73649(3) 0.0702(4) Uani 1 1 d . . . . .
O1 O 0.30969(11) 0.49852(10) 0.64742(6) 0.0237(4) Uani 1 1 d . . . . .
O2 O 0.21647(10) 0.40096(10) 0.69125(6) 0.0224(4) Uani 1 1 d . . . . .
O6 O 0.40731(12) 0.64294(11) 0.59838(8) 0.0328(5) Uani 1 1 d . . . . .
H2 H 0.4432 0.6739 0.5785 0.049 Uiso 1 1 d R U . . .
H1 H 0.4270 0.6630 0.6258 0.049 Uiso 1 1 d R U . . .
O3 O 0.30223(13) 0.49968(13) 0.53801(8) 0.0422(6) Uani 1 1 d . . . . .
N3 N 0.34155(12) 0.39969(12) 0.59955(7) 0.0193(4) Uani 1 1 d . . . . .
N4 N 0.52420(13) 0.42862(12) 0.46179(7) 0.0218(4) Uani 1 1 d . . . . .
N5 N 0.23445(14) 0.43783(14) 0.53872(9) 0.0313(5) Uani 1 1 d . . . . .
O5 O 0.18544(15) 0.43311(16) 0.56797(10) 0.0549(7) Uani 1 1 d . . . . .
C13 C 0.26885(14) 0.42727(14) 0.65976(8) 0.0187(5) Uani 1 1 d . . . . .
N2 N 0.22831(16) 0.09546(14) 0.61102(10) 0.0365(6) Uani 1 1 d . . . . .
C10 C 0.28640(14) 0.36889(14) 0.63457(9) 0.0194(5) Uani 1 1 d . . . . .
O4 O 0.21879(18) 0.38406(18) 0.51059(12) 0.0664(9) Uani 1 1 d . . . . .
C14 C 0.41707(15) 0.37864(14) 0.53713(9) 0.0224(5) Uani 1 1 d . . . . .
C11 C 0.35916(15) 0.34973(15) 0.57712(9) 0.0229(5) Uani 1 1 d . . . . .
C16 C 0.45580(15) 0.42838(15) 0.45813(9) 0.0232(5) Uani 1 1 d . . . . .
H16A H 0.4445 0.4451 0.4296 0.028 Uiso 1 1 calc R U . . .
C15 C 0.40103(15) 0.40445(16) 0.49464(9) 0.0256(5) Uani 1 1 d . . . . .
H15A H 0.3543 0.4056 0.4908 0.031 Uiso 1 1 calc R U . . .
C18 C 0.48641(17) 0.37511(17) 0.54050(10) 0.0284(6) Uani 1 1 d . . . . .
H18A H 0.4977 0.3558 0.5679 0.034 Uiso 1 1 calc R U . . .
C17 C 0.53792(17) 0.40084(17) 0.50237(10) 0.0278(6) Uani 1 1 d . . . . .
H17A H 0.5844 0.3989 0.5049 0.033 Uiso 1 1 calc R U . . .
C9 C 0.24824(16) 0.29038(15) 0.64766(9) 0.0247(5) Uani 1 1 d . . . . .
H9A H 0.2094 0.2718 0.6711 0.030 Uiso 1 1 calc R U . . .
C8 C 0.26869(17) 0.23872(15) 0.62523(10) 0.0262(5) Uani 1 1 d . . . . .
C12 C 0.32517(17) 0.27045(16) 0.58943(11) 0.0289(6) Uani 1 1 d . . . . .
H12A H 0.3404 0.2384 0.5736 0.035 Uiso 1 1 calc R U . . .
N1 N 0.1946(2) 0.04529(18) 0.68502(13) 0.0521(8) Uani 1 1 d . . . . .
C7 C 0.23439(18) 0.15620(16) 0.64015(11) 0.0310(6) Uani 1 1 d . . . . .
C1 C 0.2129(2) 0.12139(18) 0.68433(12) 0.0393(7) Uani 1 1 d . . . . .
C2 C 0.2041(2) 0.02967(19) 0.64006(15) 0.0472(9) Uani 1 1 d . . . . .
C6 C 0.2367(2) 0.0911(2) 0.56268(14) 0.0523(10) Uani 1 1 d . . . . .
H6A H 0.2491 0.1344 0.5432 0.063 Uiso 1 1 calc R U . . .
C3 C 0.1965(3) -0.0398(2) 0.6193(2) 0.0751(15) Uani 1 1 d . . . . .
H3A H 0.1835 -0.0836 0.6383 0.090 Uiso 1 1 calc R U . . .
C5 C 0.2267(3) 0.0227(3) 0.5437(2) 0.0774(15) Uani 1 1 d . . . . .
H5A H 0.2326 0.0193 0.5110 0.093 Uiso 1 1 calc R U . . .
C4 C 0.2076(4) -0.0430(3) 0.5727(2) 0.0886(19) Uani 1 1 d . . . . .
H4A H 0.2026 -0.0889 0.5594 0.106 Uiso 1 1 calc R U . . .
loop_
_atom_site_aniso_label
_atom_site_aniso_U_11
_atom_site_aniso_U_22
_atom_site_aniso_U_33
_atom_site_aniso_U_23
_atom_site_aniso_U_13
_atom_site_aniso_U_12
Co1 0.0153(2) 0.0152(2) 0.0190(3) 0.00056(13) 0.00254(13) 0.00624(16)
Cl1 0.1156(10) 0.0498(5) 0.0347(5) 0.0084(4) 0.0136(5) 0.0335(6)
O1 0.0246(9) 0.0182(8) 0.0269(9) 0.0015(7) 0.0081(7) 0.0096(7)
O2 0.0222(9) 0.0217(9) 0.0228(9) 0.0028(7) 0.0079(7) 0.0106(7)
O6 0.0299(10) 0.0202(9) 0.0484(12) 0.0015(8) 0.0060(9) 0.0125(8)
O3 0.0292(11) 0.0362(12) 0.0432(12) 0.0130(10) -0.0084(9) 0.0028(9)
N3 0.0204(10) 0.0163(9) 0.0206(10) 0.0008(7) 0.0029(8) 0.0088(8)
N4 0.0221(10) 0.0194(10) 0.0236(11) 0.0005(8) 0.0049(8) 0.0102(9)
N5 0.0255(12) 0.0297(12) 0.0368(13) -0.0030(10) -0.0054(10) 0.0125(10)
O5 0.0374(13) 0.0525(15) 0.0703(18) -0.0145(13) 0.0120(12) 0.0191(11)
C13 0.0177(11) 0.0204(11) 0.0191(11) 0.0010(9) 0.0004(9) 0.0103(9)
N2 0.0408(14) 0.0170(11) 0.0506(15) 0.0046(10) 0.0137(12) 0.0135(10)
C10 0.0180(11) 0.0187(12) 0.0215(11) 0.0013(9) 0.0024(9) 0.0092(9)
O4 0.0562(17) 0.0611(18) 0.0685(18) -0.0323(15) 0.0046(14) 0.0193(14)
C14 0.0249(12) 0.0152(11) 0.0259(13) -0.0002(9) 0.0067(10) 0.0090(10)
C11 0.0242(12) 0.0198(12) 0.0244(12) 0.0012(9) 0.0054(10) 0.0109(10)
C16 0.0233(12) 0.0233(12) 0.0230(12) -0.0006(10) 0.0009(10) 0.0117(10)
C15 0.0222(12) 0.0261(13) 0.0284(13) -0.0013(10) 0.0028(10) 0.0120(10)
C18 0.0310(14) 0.0305(14) 0.0284(14) 0.0095(11) 0.0082(11) 0.0189(12)
C17 0.0275(13) 0.0305(14) 0.0303(14) 0.0074(11) 0.0074(11) 0.0181(11)
C9 0.0259(13) 0.0202(12) 0.0269(13) 0.0038(10) 0.0082(10) 0.0107(10)
C8 0.0295(13) 0.0174(12) 0.0307(13) 0.0040(10) 0.0056(11) 0.0111(11)
C12 0.0339(14) 0.0201(13) 0.0362(14) 0.0015(11) 0.0105(12) 0.0160(11)
N1 0.063(2) 0.0322(15) 0.058(2) 0.0178(13) 0.0064(15) 0.0213(14)
C7 0.0342(15) 0.0189(13) 0.0381(15) 0.0050(11) 0.0098(12) 0.0120(11)
C1 0.0468(18) 0.0264(15) 0.0386(17) 0.0091(12) 0.0064(13) 0.0138(13)
C2 0.051(2) 0.0232(15) 0.067(2) 0.0127(15) 0.0086(17) 0.0182(14)
C6 0.065(2) 0.0269(16) 0.054(2) -0.0032(14) 0.0180(18) 0.0148(16)
C3 0.087(3) 0.0210(17) 0.115(4) 0.011(2) 0.018(3) 0.025(2)
C5 0.097(4) 0.042(2) 0.084(3) -0.015(2) 0.028(3) 0.028(2)
C4 0.111(4) 0.029(2) 0.121(5) -0.014(2) 0.034(4) 0.031(2)
loop_
_atom_type_symbol
_atom_type_description
_atom_type_scat_dispersion_real
_atom_type_scat_dispersion_imag
_atom_type_scat_source
C C 0.0181 0.0091 'International Tables Vol C Tables 4.2.6.8 and 6.1.1.4'
H H 0.0000 0.0000 'International Tables Vol C Tables 4.2.6.8 and 6.1.1.4'
Cl Cl 0.3639 0.7018 'International Tables Vol C Tables 4.2.6.8 and 6.1.1.4'
Co Co -2.3653 3.6143 'International Tables Vol C Tables 4.2.6.8 and 6.1.1.4'
N N 0.0311 0.0180 'International Tables Vol C Tables 4.2.6.8 and 6.1.1.4'
O O 0.0492 0.0322 'International Tables Vol C Tables 4.2.6.8 and 6.1.1.4'
loop_
_geom_angle_atom_site_label_1
_geom_angle_atom_site_label_2
_geom_angle_atom_site_label_3
_geom_angle
_geom_angle_site_symmetry_1
_geom_angle_site_symmetry_3
_geom_angle_publ_flag
O1 Co1 O6 86.51(8) . . ?
O1 Co1 N4 173.39(8) . 10_666 ?
O6 Co1 N4 86.89(8) . 10_666 ?
O1 Co1 O2 91.97(7) . 15_556 ?
O6 Co1 O2 94.17(8) . 15_556 ?
N4 Co1 O2 88.21(8) 10_666 15_556 ?
O1 Co1 O3 93.48(9) . . ?
O6 Co1 O3 90.06(9) . . ?
N4 Co1 O3 86.84(9) 10_666 . ?
O2 Co1 O3 173.30(9) 15_556 . ?
O1 Co1 N3 77.92(7) . . ?
O6 Co1 N3 163.70(8) . . ?
N4 Co1 N3 108.68(8) 10_666 . ?
O2 Co1 N3 91.17(7) 15_556 . ?
O3 Co1 N3 86.16(8) . . ?
C13 O1 Co1 119.03(15) . . ?
C13 O2 Co1 125.26(16) . 14_456 ?
N5 O3 Co1 122.99(17) . . ?
C11 N3 C10 116.9(2) . . ?
C11 N3 Co1 132.10(17) . . ?
C10 N3 Co1 110.92(15) . . ?
C16 N4 C17 117.6(2) . . ?
C16 N4 Co1 122.13(17) . 10_666 ?
C17 N4 Co1 120.22(18) . 10_666 ?
O4 N5 O5 121.0(3) . . ?
O4 N5 O3 120.0(3) . . ?
O5 N5 O3 119.0(3) . . ?
O2 C13 O1 125.8(2) . . ?
O2 C13 C10 117.7(2) . . ?
O1 C13 C10 116.5(2) . . ?
C6 N2 C2 121.1(3) . . ?
C6 N2 C7 131.9(3) . . ?
C2 N2 C7 106.8(3) . . ?
N3 C10 C9 123.7(2) . . ?
N3 C10 C13 115.5(2) . . ?
C9 C10 C13 120.8(2) . . ?
C15 C14 C18 118.5(2) . . ?
C15 C14 C11 121.1(2) . . ?
C18 C14 C11 120.2(2) . . ?
N3 C11 C12 122.7(2) . . ?
N3 C11 C14 120.0(2) . . ?
C12 C11 C14 117.3(2) . . ?
N4 C16 C15 123.2(2) . . ?
C16 C15 C14 118.8(2) . . ?
C17 C18 C14 118.6(3) . . ?
N4 C17 C18 123.2(2) . . ?
C10 C9 C8 119.3(2) . . ?
C12 C8 C9 116.8(2) . . ?
C12 C8 C7 121.5(2) . . ?
C9 C8 C7 121.6(2) . . ?
C8 C12 C11 120.5(2) . . ?
C2 N1 C1 104.4(3) . . ?
C1 C7 N2 103.4(3) . . ?
C1 C7 C8 131.4(3) . . ?
N2 C7 C8 124.5(3) . . ?
N1 C1 C7 114.0(3) . . ?
N1 C1 Cl1 119.1(3) . . ?
C7 C1 Cl1 126.8(2) . . ?
N1 C2 N2 111.4(3) . . ?
N1 C2 C3 130.6(4) . . ?
N2 C2 C3 118.0(4) . . ?
C5 C6 N2 119.0(4) . . ?
C4 C3 C2 120.6(4) . . ?
C6 C5 C4 120.9(5) . . ?
C3 C4 C5 120.1(4) . . ?
loop_
_geom_bond_atom_site_label_1
_geom_bond_atom_site_label_2
_geom_bond_distance
_geom_bond_site_symmetry_2
_geom_bond_publ_flag
Co1 O1 2.0458(18) . ?
Co1 O6 2.1072(19) . ?
Co1 N4 2.121(2) 10_666 ?
Co1 O2 2.1240(18) 15_556 ?
Co1 O3 2.170(2) . ?
Co1 N3 2.192(2) . ?
Cl1 C1 1.706(3) . ?
O1 C13 1.258(3) . ?
O2 C13 1.250(3) . ?
O2 Co1 2.1240(18) 14_456 ?
O3 N5 1.270(3) . ?
N3 C11 1.342(3) . ?
N3 C10 1.356(3) . ?
N4 C16 1.337(3) . ?
N4 C17 1.344(4) . ?
N4 Co1 2.121(2) 10_666 ?
N5 O4 1.223(4) . ?
N5 O5 1.228(4) . ?
C13 C10 1.519(3) . ?
N2 C6 1.373(5) . ?
N2 C2 1.389(4) . ?
N2 C7 1.395(4) . ?
C10 C9 1.378(3) . ?
C14 C15 1.389(4) . ?
C14 C18 1.393(4) . ?
C14 C11 1.488(3) . ?
C11 C12 1.389(4) . ?
C16 C15 1.382(4) . ?
C18 C17 1.379(4) . ?
C9 C8 1.405(4) . ?
C8 C12 1.387(4) . ?
C8 C7 1.463(4) . ?
N1 C2 1.331(5) . ?
N1 C1 1.343(4) . ?
C7 C1 1.374(4) . ?
C2 C3 1.413(6) . ?
C6 C5 1.358(5) . ?
C3 C4 1.329(8) . ?
C5 C4 1.402(8) . ?
loop_
_geom_torsion_atom_site_label_1
_geom_torsion_atom_site_label_2
_geom_torsion_atom_site_label_3
_geom_torsion_atom_site_label_4
_geom_torsion
_geom_torsion_site_symmetry_1
_geom_torsion_site_symmetry_2
_geom_torsion_site_symmetry_3
_geom_torsion_site_symmetry_4
_geom_torsion_publ_flag
Co1 O3 N5 O4 -108.6(3) . . . . ?
Co1 O3 N5 O5 71.3(3) . . . . ?
Co1 O2 C13 O1 -10.1(4) 14_456 . . . ?
Co1 O2 C13 C10 168.60(15) 14_456 . . . ?
Co1 O1 C13 O2 -178.12(19) . . . . ?
Co1 O1 C13 C10 3.1(3) . . . . ?
C11 N3 C10 C9 -0.4(4) . . . . ?
Co1 N3 C10 C9 -177.4(2) . . . . ?
C11 N3 C10 C13 179.0(2) . . . . ?
Co1 N3 C10 C13 2.0(3) . . . . ?
O2 C13 C10 N3 177.7(2) . . . . ?
O1 C13 C10 N3 -3.5(3) . . . . ?
O2 C13 C10 C9 -2.9(4) . . . . ?
O1 C13 C10 C9 176.0(2) . . . . ?
C10 N3 C11 C12 -1.9(4) . . . . ?
Co1 N3 C11 C12 174.3(2) . . . . ?
C10 N3 C11 C14 177.9(2) . . . . ?
Co1 N3 C11 C14 -5.9(4) . . . . ?
C15 C14 C11 N3 -65.6(3) . . . . ?
C18 C14 C11 N3 118.9(3) . . . . ?
C15 C14 C11 C12 114.2(3) . . . . ?
C18 C14 C11 C12 -61.3(4) . . . . ?
C17 N4 C16 C15 3.0(4) . . . . ?
Co1 N4 C16 C15 -176.16(19) 10_666 . . . ?
N4 C16 C15 C14 -0.6(4) . . . . ?
C18 C14 C15 C16 -2.4(4) . . . . ?
C11 C14 C15 C16 -178.0(2) . . . . ?
C15 C14 C18 C17 3.0(4) . . . . ?
C11 C14 C18 C17 178.6(2) . . . . ?
C16 N4 C17 C18 -2.4(4) . . . . ?
Co1 N4 C17 C18 176.8(2) 10_666 . . . ?
C14 C18 C17 N4 -0.6(4) . . . . ?
N3 C10 C9 C8 2.5(4) . . . . ?
C13 C10 C9 C8 -176.9(2) . . . . ?
C10 C9 C8 C12 -2.3(4) . . . . ?
C10 C9 C8 C7 175.4(3) . . . . ?
C9 C8 C12 C11 0.2(4) . . . . ?
C7 C8 C12 C11 -177.5(3) . . . . ?
N3 C11 C12 C8 2.0(4) . . . . ?
C14 C11 C12 C8 -177.8(3) . . . . ?
C6 N2 C7 C1 175.1(4) . . . . ?
C2 N2 C7 C1 -0.2(4) . . . . ?
C6 N2 C7 C8 -13.7(6) . . . . ?
C2 N2 C7 C8 171.1(3) . . . . ?
C12 C8 C7 C1 142.2(4) . . . . ?
C9 C8 C7 C1 -35.4(5) . . . . ?
C12 C8 C7 N2 -26.5(5) . . . . ?
C9 C8 C7 N2 156.0(3) . . . . ?
C2 N1 C1 C7 -0.1(4) . . . . ?
C2 N1 C1 Cl1 -177.5(3) . . . . ?
N2 C7 C1 N1 0.2(4) . . . . ?
C8 C7 C1 N1 -170.2(3) . . . . ?
N2 C7 C1 Cl1 177.3(3) . . . . ?
C8 C7 C1 Cl1 6.9(6) . . . . ?
C1 N1 C2 N2 0.0(4) . . . . ?
C1 N1 C2 C3 177.3(5) . . . . ?
C6 N2 C2 N1 -175.7(3) . . . . ?
C7 N2 C2 N1 0.1(4) . . . . ?
C6 N2 C2 C3 6.6(6) . . . . ?
C7 N2 C2 C3 -177.6(4) . . . . ?
C2 N2 C6 C5 -4.8(6) . . . . ?
C7 N2 C6 C5 -179.5(4) . . . . ?
N1 C2 C3 C4 178.9(5) . . . . ?
N2 C2 C3 C4 -3.9(8) . . . . ?
N2 C6 C5 C4 0.3(8) . . . . ?
C2 C3 C4 C5 -0.3(9) . . . . ?
C6 C5 C4 C3 2.2(10) . . . . ?
loop_
_platon_squeeze_void_nr
_platon_squeeze_void_average_x
_platon_squeeze_void_average_y
_platon_squeeze_void_average_z
_platon_squeeze_void_volume
_platon_squeeze_void_count_electrons
1 0.000 0.000 0.030 210.4 19.6
2 0.000 0.500 -0.156 210.4 19.6
3 0.500 0.500 0.041 210.4 20.0
4 0.500 0.000 -0.151 210.4 20.0
