#------------------------------------------------------------------------------
#$Date: 2019-11-07 23:04:14 +0200 (Thu, 07 Nov 2019) $
#$Revision: 223925 $
#$URL: file:///home/coder/svn-repositories/cod/cif/7/70/05/7700595.cif $
#------------------------------------------------------------------------------
#
# This file is available in the Crystallography Open Database (COD),
# http://www.crystallography.net/
#
# All data on this site have been placed in the public domain by the
# contributors.
#
data_7700595
loop_
_publ_author_name
'Zhai, Lu'
'Yu, Jing-Wei'
'Zhang, Jin'
'Zhang, Wen-Wei'
'Wang, Lifeng'
'Ren, Xiao-Ming'
_publ_section_title
;
 High quantum yield pure blue emission and fast proton conduction from an
 indium-metal-organic framework.
;
_journal_issue                   32
_journal_name_full
'Dalton transactions (Cambridge, England : 2003)'
_journal_page_first              12088
_journal_page_last               12095
_journal_paper_doi               10.1039/c9dt02472g
_journal_volume                  48
_journal_year                    2019
_chemical_formula_moiety         'C18 H6 In N0 O8'
_chemical_formula_sum            'C18 H6 In N0 O8'
_chemical_formula_weight         465.05
_space_group_crystal_system      tetragonal
_space_group_IT_number           123
_space_group_name_Hall           '-P 4 2'
_space_group_name_H-M_alt        'P 4/m m m'
_symmetry_space_group_name_Hall  '-P 4 2'
_symmetry_space_group_name_H-M   'P 4/m m m'
_atom_sites_solution_hydrogens   mixed
_audit_creation_method           SHELXL-2014/7
_audit_update_record
;
2019-05-14 deposited with the CCDC.    2019-07-18 downloaded from the CCDC.
;
_cell_angle_alpha                90
_cell_angle_beta                 90
_cell_angle_gamma                90
_cell_formula_units_Z            1
_cell_length_a                   9.9618(3)
_cell_length_b                   9.9618(3)
_cell_length_c                   11.5931(7)
_cell_measurement_reflns_used    9890
_cell_measurement_temperature    298(2)
_cell_measurement_theta_max      25.72
_cell_measurement_theta_min      2.89
_cell_volume                     1150.47(9)
_computing_structure_refinement  'SHELXL-2014/7 (Sheldrick, 2014)'
_computing_structure_solution    'SHELXL-2014/7 (Sheldrick, 2014)'
_diffrn_ambient_temperature      298(2)
_diffrn_measured_fraction_theta_full 0.994
_diffrn_measured_fraction_theta_max 0.995
_diffrn_measurement_device_type  'CCD area detector'
_diffrn_measurement_method       'phi and omega scans'
_diffrn_radiation_monochromator  graphite
_diffrn_radiation_type           MoK\a
_diffrn_radiation_wavelength     0.71073
_diffrn_reflns_av_R_equivalents  0.0249
_diffrn_reflns_av_unetI/netI     0.0096
_diffrn_reflns_Laue_measured_fraction_full 0.994
_diffrn_reflns_Laue_measured_fraction_max 0.995
_diffrn_reflns_limit_h_max       12
_diffrn_reflns_limit_h_min       -12
_diffrn_reflns_limit_k_max       12
_diffrn_reflns_limit_k_min       -12
_diffrn_reflns_limit_l_max       14
_diffrn_reflns_limit_l_min       -15
_diffrn_reflns_number            16046
_diffrn_reflns_point_group_measured_fraction_full 0.994
_diffrn_reflns_point_group_measured_fraction_max 0.995
_diffrn_reflns_theta_full        25.242
_diffrn_reflns_theta_max         27.492
_diffrn_reflns_theta_min         2.892
_diffrn_source                   'sealed tube'
_exptl_absorpt_coefficient_mu    0.530
_exptl_crystal_colour            Colorless
_exptl_crystal_density_diffrn    0.671
_exptl_crystal_description       Block
_exptl_crystal_F_000             227
_exptl_crystal_size_max          0.25
_exptl_crystal_size_mid          0.18
_exptl_crystal_size_min          0.15
_refine_diff_density_max         0.431
_refine_diff_density_min         -0.349
_refine_diff_density_rms         0.052
_refine_ls_extinction_method     none
_refine_ls_goodness_of_fit_ref   1.019
_refine_ls_hydrogen_treatment    mixed
_refine_ls_matrix_type           full
_refine_ls_number_parameters     46
_refine_ls_number_reflns         828
_refine_ls_number_restraints     12
_refine_ls_restrained_S_all      1.121
_refine_ls_R_factor_all          0.0268
_refine_ls_R_factor_gt           0.0268
_refine_ls_shift/su_max          0.000
_refine_ls_shift/su_mean         0.000
_refine_ls_structure_factor_coef Fsqd
_refine_ls_weighting_details
'w=1/[\s^2^(Fo^2^)+(0.0534P)^2^+0.2000P] where P=(Fo^2^+2Fc^2^)/3'
_refine_ls_weighting_scheme      calc
_refine_ls_wR_factor_gt          0.0701
_refine_ls_wR_factor_ref         0.0701
_reflns_Friedel_coverage         0.000
_reflns_number_gt                828
_reflns_number_total             828
_reflns_threshold_expression     'I > 2\s(I)'
_cod_data_source_file            c9dt02472g2.cif
_cod_data_source_block           In
_cod_depositor_comments          'Adding full bibliography for 7700595.cif.'
_cod_original_cell_volume        1150.47(10)
_cod_database_code               7700595
_shelx_shelxl_version_number     2014/7
_shelx_space_group_comment
;
The symmetry employed for this shelxl refinement is uniquely defined
by the following loop, which should always be used as a source of
symmetry information in preference to the above space-group names.
They are only intended as comments.
;
_shelx_res_file
;

    F:\Xray-Me\20170713\Zhai\2_a_pl_sq.res created by SHELXL-2014/7

REM TRMX  1.000  0.000  0.000  0.000 -1.000  0.000  0.000  0.000 -1.000 tP  5
REM SPGR P4/mmm
REM  2_a.res in P4/m                  New: P4/mmm
REM R1 =  0.0253 for     828 Fo > 4sig(Fo)  and  0.0253 for all     828 data
REM     48 parameters refined using     12 restraints
REM Highest difference peak  0.458,  deepest hole -0.137,  1-sigma level  0.050
REM  2_a.res in P4/m                  New: P4/mmm
REM R1 =  0.0253 for     828 Fo > 4sig(Fo)  and  0.0253 for all     828 data
REM     46 parameters refined using     12 restraints
REM Highest difference peak  0.462,  deepest hole -0.136,  1-sigma level  0.050
REM  2_a.res in P4/m                  New: P4/mmm
REM R1 =  0.0438 for     828 Fo > 4sig(Fo)  and  0.0438 for all     828 data
REM     46 parameters refined using     12 restraints
REM Highest difference peak  0.602,  deepest hole -0.408,  1-sigma level  0.104
TITL 2_a.res in P4/m                  New: P4/mmm
CELL 0.71073 9.9618 9.9618 11.5931 90.000 90.000 90.000
ZERR 1.0000 0.0003 0.0003 0.0007 0.000 0.000 0.000
LATT 1
SYMM -Y, X, Z
SYMM -X, -Y, Z
SYMM Y, -X, Z
SYMM X, -Y, -Z
SYMM -X, Y, -Z
SYMM Y, X, -Z
SYMM -Y, -X, -Z
SFAC C H IN N O
UNIT 18 6 1 0 8
MERG 2
FMAP 2
GRID
PLAN -20
TEMP 0
EQIV $1 X,-Y,1-Z
EQIV $1 1-X,Y,1-Z
BOND $H
CONF
TWIN
DFIX 1.23 0.01 C1 O1 C1 O2
SADI IN1 O1 IN1 O2
DFIX 2.37 0.01 C2 O1 C2 O2
DFIX 1.39 0.01 C2 C3 C2 C4 C4 C5
DFIX 2.40 0.01 C2 C5 C4 C3
DFIX 2.80 0.01 C3 C5
EQIV $1 1-X,Y,1-Z
EQIV $1 1-X,Y,1-Z
DFIX 0.930 0.001 C3 H3
ABIN
L.S. 20
ACTA
WGHT    0.053400    0.200000
BASF  -0.39532
FVAR       1.06665
IN1   3    0.500000    0.500000    0.500000    10.06250    0.04451    0.04451 =
         0.03248    0.00000    0.00000    0.00000
PART 1
O1    5    0.500000    0.356762    0.358253    10.25000    0.09720    0.03434 =
         0.08497   -0.00937    0.00000    0.00000
PART 0
C6    1    0.500000    0.000000    0.047625    10.12500    0.17734    0.04150 =
         0.06466    0.00000    0.00000    0.00000
C2    1    0.500000    0.120329    0.355603    10.25000    0.11263    0.03359 =
         0.06396   -0.00208    0.00000    0.00000
C3    1    0.500000    0.000000    0.419637    10.12500    0.11404    0.04012 =
         0.06100    0.00000    0.00000    0.00000
H3    2    0.500000    0.000000    0.500000    10.12500   -1.20000
C1    1    0.500000    0.251917    0.415443    10.25000    0.09107    0.04621 =
         0.06118   -0.01512    0.00000    0.00000
C4    1    0.500000    0.120464    0.235564    10.25000    0.15219    0.03391 =
         0.06030    0.00209    0.00000    0.00000
AFIX  43
H4    2    0.500000    0.201226    0.195325    10.25000   -1.20000
AFIX   0
C5    1    0.500000    0.000000    0.176448    10.12500    0.16626    0.03957 =
         0.05518    0.00000    0.00000    0.00000
PART 2
O2    5    0.500000    0.258311    0.522537    10.25000    0.13461    0.05359 =
         0.05509   -0.00929    0.00000    0.00000
HKLF 4  1  1.0000 0.0000 0.0000 0.0000 -1.0000 0.0000 0.0000 0.0000 -1.0000

REM  2_a.res in P4/m                  New: P4/mmm
REM R1 =  0.0268 for     828 Fo > 4sig(Fo)  and  0.0268 for all     828 data
REM     46 parameters refined using     12 restraints

END

WGHT      0.0532      0.0000

REM Highest difference peak  0.431,  deepest hole -0.349,  1-sigma level  0.052
Q1    1   0.4518  0.4518  0.4687  10.50000  0.05    0.43
Q2    1   0.5000  0.0000  0.3901  10.25000  0.05    0.34
Q3    1   0.5000  0.2787  0.1888  10.50000  0.05    0.26
Q4    1   0.4402  0.2439  0.1904  11.00000  0.05    0.24
Q5    1   0.5000  0.0000  0.0861  10.25000  0.05    0.20
Q6    1   0.4355  0.2224  0.4598  11.00000  0.05    0.18
Q7    1   0.6427  0.1172  0.2725  11.00000  0.05    0.15
Q8    1   0.3931  0.5000  0.3513  10.50000  0.05    0.14
Q9    1   0.5000  0.0000  0.1402  10.25000  0.05    0.13
Q10   1   0.3766  0.0000  0.2696  10.50000  0.05    0.13
Q11   1   0.5000  0.1237  0.2887  10.50000  0.05    0.11
Q12   1   0.2396  0.5000  0.5000  10.25000  0.05    0.11
Q13   1   0.3278  0.4840  0.4222  11.00000  0.05    0.11
Q14   1   0.5000  0.2146  0.3885  10.50000  0.05    0.11
Q15   1   0.5000  0.0853  0.2092  10.50000  0.05    0.10
Q16   1   0.5000  0.0524  0.0000  10.25000  0.05    0.07
Q17   1   0.3634  0.3634  0.4574  10.50000  0.05    0.05
Q18   1   0.7822  0.2178  0.4129  10.50000  0.05    0.04
Q19   1   0.7219  0.2054  0.3418  11.00000  0.05    0.04
Q20   1   0.7637  0.1736  0.5000  10.50000  0.05    0.04
;
_shelx_res_checksum              42705
_shelx_fab_file
;
    1    1    0     28.74      0.00
    1    2    0     -7.31      0.00
    2    2    0     -1.27      0.00
    2    3    0     -1.23      0.00
    1    3    0    -10.20      0.00
    0    3    0    -12.25      0.00
    3    3    0      1.71      0.00
    3    4    0      2.49      0.00
    2    4    0     -0.21      0.00
    1    4    0     -1.15      0.00
    0    4    0     -3.21      0.00
    4    4    0     -1.02      0.00
    4    5    0      0.24      0.00
    3    5    0     -0.16      0.00
    2    5    0      0.74      0.00
    1    5    0      2.08      0.00
    0    5    0      1.88      0.00
    5    5    0     -0.51      0.00
    5    6    0      0.27      0.00
    4    6    0      0.41      0.00
    3    6    0     -0.69      0.00
    2    6    0      0.56      0.00
    1    6    0      1.45      0.00
    0    6    0      3.78      0.00
    6    6    0     -0.21      0.00
    6    7    0     -0.11      0.00
    5    7    0      0.28      0.00
    4    7    0     -0.14      0.00
    3    7    0     -0.08      0.00
    2    7    0     -0.08      0.00
    1    7    0      1.16      0.00
    0    7    0      1.09      0.00
    7    7    0      0.01      0.00
    7    8    0      0.01      0.00
    6    8    0      0.06      0.00
    5    8    0      0.30      0.00
    4    8    0      0.33      0.00
    3    8    0      0.03      0.00
    2    8    0     -0.52      0.00
    1    8    0     -0.40      0.00
    0    8    0     -0.71      0.00
    8    8    0      0.44      0.00
    8    9    0      0.04      0.00
    7    9    0      0.16      0.00
    6    9    0      0.35      0.00
    5    9    0      0.19      0.00
    4    9    0      0.06      0.00
    3    9    0     -0.27      0.00
    2    9    0     -0.18      0.00
    1    9    0     -0.24      0.00
    0    9    0      0.13      0.00
    9    9    0      0.11      0.00
    8   10    0     -0.24      0.00
    7   10    0      0.18      0.00
    6   10    0      0.06      0.00
    5   10    0     -0.22      0.00
    4   10    0     -0.30      0.00
    3   10    0     -0.31      0.00
    2   10    0      0.16      0.00
    1   10    0      0.35      0.00
    0   10    0      0.53      0.00
    6   11    0     -0.29      0.00
    5   11    0      0.01      0.00
    4   11    0      0.08      0.00
    3   11    0      0.22      0.00
    2   11    0     -0.11      0.00
    1   11    0     -0.04      0.00
    0   11    0     -0.30      0.00
    4   12    0      0.22      0.00
    3   12    0      0.13      0.00
    2   12    0      0.06      0.00
    1   12    0     -0.11      0.00
    0   12    0      0.03      0.00
    1    1    1      5.81      0.00
    1    2    1      4.95      0.00
    0    2    1      4.43      0.00
    2    2    1     11.34      0.00
    2    3    1      3.55      0.00
    1    3    1      4.89      0.00
    0    3    1      7.68      0.00
    3    3    1      0.64      0.00
    3    4    1     -0.19      0.00
    2    4    1     -2.74      0.00
    1    4    1      0.71      0.00
    0    4    1      1.64      0.00
    4    4    1     -0.30      0.00
    4    5    1      0.66      0.00
    3    5    1     -1.24      0.00
    2    5    1     -1.82      0.00
    1    5    1     -1.46      0.00
    0    5    1     -1.74      0.00
    5    5    1      0.02      0.00
    5    6    1     -0.15      0.00
    4    6    1     -0.02      0.00
    3    6    1     -0.24      0.00
    2    6    1      0.18      0.00
    1    6    1     -1.10      0.00
    0    6    1     -0.55      0.00
    6    6    1     -0.18      0.00
    6    7    1      0.06      0.00
    5    7    1     -0.14      0.00
    4    7    1     -0.39      0.00
    3    7    1      0.47      0.00
    2    7    1      0.57      0.00
    1    7    1      0.35      0.00
    0    7    1     -0.47      0.00
    7    7    1      0.12      0.00
    7    8    1     -0.06      0.00
    6    8    1     -0.04      0.00
    5    8    1     -0.12      0.00
    4    8    1     -0.08      0.00
    3    8    1      0.23      0.00
    2    8    1      0.28      0.00
    1    8    1      0.29      0.00
    0    8    1      0.01      0.00
    8    8    1      0.27      0.00
    8    9    1     -0.07      0.00
    7    9    1      0.05      0.00
    6    9    1      0.10      0.00
    5    9    1     -0.06      0.00
    4    9    1     -0.06      0.00
    3    9    1     -0.02      0.00
    2    9    1     -0.01      0.00
    1    9    1     -0.21      0.00
    0    9    1     -0.03      0.00
    9    9    1     -0.08      0.00
    8   10    1     -0.25      0.00
    7   10    1      0.16      0.00
    6   10    1      0.23      0.00
    5   10    1      0.05      0.00
    4   10    1      0.00      0.00
    3   10    1     -0.12      0.00
    2   10    1     -0.04      0.00
    1   10    1     -0.25      0.00
    0   10    1     -0.23      0.00
    6   11    1      0.10      0.00
    5   11    1      0.12      0.00
    4   11    1     -0.04      0.00
    3   11    1      0.04      0.00
    2   11    1     -0.07      0.00
    1   11    1      0.07      0.00
    0   11    1     -0.12      0.00
    4   12    1      0.01      0.00
    3   12    1      0.03      0.00
    2   12    1      0.02      0.00
    1   12    1     -0.05      0.00
    0   12    1      0.01      0.00
    0    0    2      5.94      0.00
    0    1    2     -4.24      0.00
    1    1    2      7.01      0.00
    1    2    2      0.90      0.00
    0    2    2      3.33      0.00
    2    2    2      2.53      0.00
    2    3    2     -1.26      0.00
    1    3    2     -2.44      0.00
    0    3    2     -0.88      0.00
    3    3    2      1.65      0.00
    3    4    2      1.28      0.00
    2    4    2     -1.25      0.00
    1    4    2     -0.96      0.00
    0    4    2     -1.93      0.00
    4    4    2      1.57      0.00
    4    5    2     -0.15      0.00
    3    5    2     -0.52      0.00
    2    5    2      1.40      0.00
    1    5    2      1.43      0.00
    0    5    2      0.84      0.00
    5    5    2     -0.05      0.00
    5    6    2     -0.25      0.00
    4    6    2     -0.72      0.00
    3    6    2      0.05      0.00
    2    6    2      0.73      0.00
    1    6    2      0.30      0.00
    0    6    2      0.28      0.00
    6    6    2     -0.03      0.00
    6    7    2      0.09      0.00
    5    7    2      0.11      0.00
    4    7    2      0.18      0.00
    3    7    2      0.19      0.00
    2    7    2     -0.39      0.00
    1    7    2     -0.61      0.00
    0    7    2     -0.83      0.00
    7    7    2     -0.20      0.00
    7    8    2     -0.01      0.00
    6    8    2      0.13      0.00
    5    8    2      0.07      0.00
    4    8    2      0.03      0.00
    3    8    2     -0.13      0.00
    2    8    2     -0.10      0.00
    1    8    2      0.08      0.00
    0    8    2      0.39      0.00
    8    8    2      0.00      0.00
    8    9    2     -0.07      0.00
    7    9    2      0.12      0.00
    6    9    2     -0.01      0.00
    5    9    2     -0.10      0.00
    4    9    2     -0.21      0.00
    3    9    2      0.02      0.00
    2    9    2      0.02      0.00
    1    9    2      0.16      0.00
    0    9    2      0.16      0.00
    9    9    2     -0.01      0.00
    8   10    2     -0.02      0.00
    7   10    2     -0.19      0.00
    6   10    2     -0.05      0.00
    5   10    2      0.08      0.00
    4   10    2      0.18      0.00
    3   10    2      0.00      0.00
    2   10    2      0.02      0.00
    1   10    2     -0.12      0.00
    0   10    2     -0.10      0.00
    6   11    2     -0.09      0.00
    5   11    2      0.01      0.00
    4   11    2     -0.01      0.00
    3   11    2     -0.09      0.00
    2   11    2      0.04      0.00
    1   11    2      0.29      0.00
    0   11    2      0.36      0.00
    4   12    2     -0.06      0.00
    3   12    2     -0.02      0.00
    2   12    2     -0.13      0.00
    1   12    2      0.06      0.00
    0   12    2      0.13      0.00
    0    0    3      7.21      0.00
    0    1    3      0.44      0.00
    1    1    3      0.32      0.00
    1    2    3     -3.58      0.00
    0    2    3     -1.42      0.00
    2    2    3     -1.78      0.00
    2    3    3     -0.28      0.00
    1    3    3     -0.17      0.00
    0    3    3      0.76      0.00
    3    3    3      1.37      0.00
    3    4    3     -0.55      0.00
    2    4    3      0.55      0.00
    1    4    3      2.05      0.00
    0    4    3      1.17      0.00
    4    4    3      0.26      0.00
    4    5    3     -0.29      0.00
    3    5    3     -0.88      0.00
    2    5    3      0.62      0.00
    1    5    3     -0.45      0.00
    0    5    3     -0.84      0.00
    5    5    3      0.88      0.00
    5    6    3      0.17      0.00
    4    6    3     -0.13      0.00
    3    6    3      0.54      0.00
    2    6    3     -0.36      0.00
    1    6    3     -0.58      0.00
    0    6    3     -0.59      0.00
    6    6    3      0.09      0.00
    6    7    3     -0.10      0.00
    5    7    3     -0.21      0.00
    4    7    3      0.28      0.00
    3    7    3      0.06      0.00
    2    7    3     -0.26      0.00
    1    7    3      0.40      0.00
    0    7    3      0.84      0.00
    7    7    3     -0.22      0.00
    7    8    3      0.15      0.00
    6    8    3     -0.06      0.00
    5    8    3     -0.06      0.00
    4    8    3      0.10      0.00
    3    8    3     -0.27      0.00
    2    8    3     -0.01      0.00
    1    8    3      0.08      0.00
    0    8    3      0.46      0.00
    8    8    3      0.01      0.00
    8    9    3     -0.03      0.00
    7    9    3      0.15      0.00
    6    9    3     -0.12      0.00
    5    9    3      0.07      0.00
    4    9    3      0.00      0.00
    3    9    3      0.04      0.00
    2    9    3     -0.10      0.00
    1    9    3      0.13      0.00
    0    9    3     -0.12      0.00
    7   10    3     -0.23      0.00
    6   10    3     -0.10      0.00
    5   10    3      0.05      0.00
    4   10    3      0.05      0.00
    3   10    3     -0.12      0.00
    2   10    3      0.01      0.00
    1   10    3      0.11      0.00
    0   10    3      0.11      0.00
    6   11    3     -0.06      0.00
    5   11    3     -0.04      0.00
    4   11    3      0.02      0.00
    3   11    3     -0.05      0.00
    2   11    3      0.01      0.00
    1   11    3     -0.32      0.00
    0   11    3     -0.30      0.00
    4   12    3     -0.10      0.00
    3   12    3      0.16      0.00
    2   12    3     -0.01      0.00
    1   12    3     -0.18      0.00
    0   12    3     -0.41      0.00
    0    0    4      0.37      0.00
    0    1    4      1.22      0.00
    1    1    4     -0.62      0.00
    1    2    4      0.07      0.00
    0    2    4     -1.36      0.00
    2    2    4      1.42      0.00
    2    3    4     -0.02      0.00
    1    3    4      0.11      0.00
    0    3    4      0.07      0.00
    3    3    4      0.06      0.00
    3    4    4     -0.83      0.00
    2    4    4     -0.82      0.00
    1    4    4     -0.04      0.00
    0    4    4     -0.53      0.00
    4    4    4      0.48      0.00
    4    5    4      0.00      0.00
    3    5    4      0.07      0.00
    2    5    4      0.32      0.00
    1    5    4     -0.74      0.00
    0    5    4     -0.37      0.00
    5    5    4      0.09      0.00
    5    6    4     -0.24      0.00
    4    6    4     -0.13      0.00
    3    6    4      0.62      0.00
    2    6    4     -0.13      0.00
    1    6    4      0.31      0.00
    0    6    4      0.76      0.00
    6    6    4     -0.03      0.00
    6    7    4      0.16      0.00
    5    7    4     -0.12      0.00
    4    7    4     -0.13      0.00
    3    7    4     -0.23      0.00
    2    7    4     -0.07      0.00
    1    7    4      0.28      0.00
    0    7    4      0.04      0.00
    7    7    4     -0.02      0.00
    7    8    4      0.13      0.00
    6    8    4      0.04      0.00
    5    8    4      0.03      0.00
    4    8    4      0.03      0.00
    3    8    4     -0.17      0.00
    2    8    4      0.20      0.00
    1    8    4     -0.45      0.00
    0    8    4     -0.63      0.00
    8    8    4     -0.16      0.00
    8    9    4     -0.21      0.00
    7    9    4     -0.06      0.00
    6    9    4      0.01      0.00
    5    9    4      0.19      0.00
    4    9    4      0.07      0.00
    3    9    4      0.07      0.00
    2    9    4     -0.06      0.00
    1    9    4      0.08      0.00
    0    9    4     -0.05      0.00
    7   10    4     -0.09      0.00
    6   10    4      0.04      0.00
    5   10    4      0.03      0.00
    4   10    4     -0.07      0.00
    3   10    4     -0.05      0.00
    2   10    4     -0.04      0.00
    1   10    4      0.15      0.00
    0   10    4      0.14      0.00
    5   11    4     -0.13      0.00
    4   11    4      0.08      0.00
    3   11    4      0.15      0.00
    2   11    4      0.05      0.00
    1   11    4     -0.34      0.00
    0   11    4     -0.24      0.00
    3   12    4      0.17      0.00
    2   12    4      0.04      0.00
    1   12    4     -0.10      0.00
    0   12    4     -0.25      0.00
    0    0    5     -2.43      0.00
    0    1    5      0.75      0.00
    1    1    5     -0.61      0.00
    1    2    5      1.35      0.00
    0    2    5     -0.87      0.00
    2    2    5      0.86      0.00
    2    3    5     -0.51      0.00
    1    3    5     -0.38      0.00
    0    3    5      0.33      0.00
    3    3    5     -0.45      0.00
    3    4    5      0.38      0.00
    2    4    5     -0.47      0.00
    1    4    5      0.06      0.00
    0    4    5      0.11      0.00
    4    4    5      0.32      0.00
    4    5    5     -0.05      0.00
    3    5    5      0.25      0.00
    2    5    5      0.52      0.00
    1    5    5      0.23      0.00
    0    5    5      0.45      0.00
    5    5    5     -0.33      0.00
    5    6    5     -0.01      0.00
    4    6    5      0.05      0.00
    3    6    5     -0.08      0.00
    2    6    5     -0.34      0.00
    1    6    5     -0.31      0.00
    0    6    5      0.06      0.00
    6    6    5     -0.06      0.00
    6    7    5      0.09      0.00
    5    7    5      0.24      0.00
    4    7    5      0.03      0.00
    3    7    5     -0.05      0.00
    2    7    5     -0.11      0.00
    1    7    5     -0.06      0.00
    0    7    5     -0.69      0.00
    7    7    5     -0.12      0.00
    7    8    5      0.08      0.00
    6    8    5     -0.04      0.00
    5    8    5     -0.08      0.00
    4    8    5      0.02      0.00
    3    8    5      0.13      0.00
    2    8    5      0.31      0.00
    1    8    5      0.17      0.00
    0    8    5      0.32      0.00
    8    8    5     -0.02      0.00
    8    9    5      0.01      0.00
    7    9    5     -0.11      0.00
    6    9    5      0.02      0.00
    5    9    5     -0.10      0.00
    4    9    5      0.00      0.00
    3    9    5      0.05      0.00
    2    9    5     -0.09      0.00
    1    9    5     -0.07      0.00
    0    9    5      0.22      0.00
    7   10    5      0.04      0.00
    6   10    5      0.01      0.00
    5   10    5      0.02      0.00
    4   10    5     -0.03      0.00
    3   10    5      0.09      0.00
    2   10    5     -0.09      0.00
    1   10    5     -0.17      0.00
    0   10    5     -0.33      0.00
    5   11    5     -0.04      0.00
    4   11    5     -0.01      0.00
    3   11    5      0.01      0.00
    2   11    5     -0.02      0.00
    1   11    5      0.10      0.00
    0   11    5      0.22      0.00
    2   12    5     -0.05      0.00
    1   12    5      0.09      0.00
    0   12    5      0.16      0.00
    0    0    6      0.41      0.00
    0    1    6      0.62      0.00
    1    1    6     -0.40      0.00
    1    2    6      0.57      0.00
    0    2    6     -0.81      0.00
    2    2    6     -0.30      0.00
    2    3    6      0.19      0.00
    1    3    6     -0.37      0.00
    0    3    6      0.66      0.00
    3    3    6     -0.20      0.00
    3    4    6      0.51      0.00
    2    4    6     -0.13      0.00
    1    4    6      0.04      0.00
    0    4    6     -0.03      0.00
    4    4    6     -0.67      0.00
    4    5    6     -0.02      0.00
    3    5    6     -0.32      0.00
    2    5    6     -0.01      0.00
    1    5    6      0.10      0.00
    0    5    6     -0.34      0.00
    5    5    6     -0.08      0.00
    5    6    6      0.10      0.00
    4    6    6      0.19      0.00
    3    6    6     -0.18      0.00
    2    6    6      0.19      0.00
    1    6    6     -0.18      0.00
    0    6    6      0.17      0.00
    6    6    6     -0.05      0.00
    6    7    6      0.06      0.00
    5    7    6      0.13      0.00
    4    7    6     -0.10      0.00
    3    7    6      0.16      0.00
    2    7    6      0.14      0.00
    1    7    6      0.28      0.00
    0    7    6     -0.20      0.00
    7    7    6      0.07      0.00
    7    8    6      0.25      0.00
    6    8    6      0.16      0.00
    5    8    6      0.03      0.00
    4    8    6     -0.09      0.00
    3    8    6     -0.01      0.00
    2    8    6     -0.08      0.00
    1    8    6      0.08      0.00
    0    8    6      0.21      0.00
    8    8    6      0.00      0.00
    7    9    6      0.03      0.00
    6    9    6      0.20      0.00
    5    9    6     -0.07      0.00
    4    9    6      0.06      0.00
    3    9    6     -0.03      0.00
    2    9    6      0.09      0.00
    1    9    6     -0.08      0.00
    0    9    6      0.13      0.00
    6   10    6     -0.17      0.00
    5   10    6      0.00      0.00
    4   10    6      0.08      0.00
    3   10    6      0.13      0.00
    2   10    6      0.10      0.00
    1   10    6      0.01      0.00
    0   10    6     -0.11      0.00
    4   11    6     -0.03      0.00
    3   11    6     -0.05      0.00
    2   11    6     -0.19      0.00
    1   11    6      0.02      0.00
    0   11    6     -0.05      0.00
    0    0    7      0.98      0.00
    0    1    7     -0.28      0.00
    1    1    7     -0.03      0.00
    1    2    7      0.21      0.00
    0    2    7     -0.29      0.00
    2    2    7     -0.50      0.00
    2    3    7      0.30      0.00
    1    3    7     -0.26      0.00
    0    3    7      0.54      0.00
    3    3    7     -0.42      0.00
    3    4    7      0.33      0.00
    2    4    7     -0.12      0.00
    1    4    7     -0.03      0.00
    0    4    7     -0.10      0.00
    4    4    7     -0.63      0.00
    4    5    7      0.28      0.00
    3    5    7     -0.12      0.00
    2    5    7     -0.11      0.00
    1    5    7      0.18      0.00
    0    5    7     -0.33      0.00
    5    5    7     -0.04      0.00
    5    6    7     -0.02      0.00
    4    6    7      0.18      0.00
    3    6    7      0.02      0.00
    2    6    7      0.27      0.00
    1    6    7     -0.16      0.00
    0    6    7      0.32      0.00
    6    6    7      0.02      0.00
    6    7    7      0.04      0.00
    5    7    7      0.10      0.00
    4    7    7     -0.05      0.00
    3    7    7      0.03      0.00
    2    7    7     -0.17      0.00
    1    7    7      0.02      0.00
    0    7    7     -0.12      0.00
    7    7    7      0.04      0.00
    7    8    7      0.07      0.00
    6    8    7      0.06      0.00
    5    8    7      0.20      0.00
    4    8    7     -0.03      0.00
    3    8    7     -0.11      0.00
    2    8    7     -0.19      0.00
    1    8    7     -0.05      0.00
    0    8    7     -0.22      0.00
    8    8    7     -0.26      0.00
    7    9    7     -0.17      0.00
    6    9    7      0.10      0.00
    5    9    7     -0.04      0.00
    4    9    7      0.06      0.00
    3    9    7     -0.04      0.00
    2    9    7      0.22      0.00
    1    9    7      0.00      0.00
    0    9    7     -0.06      0.00
    5   10    7     -0.03      0.00
    4   10    7      0.01      0.00
    3   10    7      0.00      0.00
    2   10    7      0.05      0.00
    1   10    7      0.01      0.00
    0   10    7      0.11      0.00
    3   11    7     -0.08      0.00
    2   11    7     -0.13      0.00
    1   11    7      0.09      0.00
    0   11    7      0.02      0.00
    0    0    8      0.53      0.00
    0    1    8     -0.48      0.00
    1    1    8      0.30      0.00
    1    2    8      0.07      0.00
    0    2    8      0.16      0.00
    2    2    8     -0.26      0.00
    2    3    8      0.10      0.00
    1    3    8     -0.14      0.00
    0    3    8      0.20      0.00
    3    3    8     -0.20      0.00
    3    4    8      0.20      0.00
    2    4    8     -0.04      0.00
    1    4    8      0.04      0.00
    0    4    8      0.11      0.00
    4    4    8     -0.09      0.00
    4    5    8      0.22      0.00
    3    5    8     -0.05      0.00
    2    5    8     -0.07      0.00
    1    5    8      0.19      0.00
    0    5    8     -0.14      0.00
    5    5    8     -0.05      0.00
    5    6    8     -0.09      0.00
    4    6    8     -0.05      0.00
    3    6    8      0.00      0.00
    2    6    8      0.05      0.00
    1    6    8     -0.22      0.00
    0    6    8      0.03      0.00
    6    6    8     -0.11      0.00
    6    7    8     -0.13      0.00
    5    7    8     -0.05      0.00
    4    7    8      0.04      0.00
    3    7    8     -0.02      0.00
    2    7    8     -0.15      0.00
    1    7    8     -0.01      0.00
    0    7    8      0.07      0.00
    7    7    8     -0.05      0.00
    7    8    8      0.23      0.00
    6    8    8      0.01      0.00
    5    8    8      0.04      0.00
    4    8    8     -0.05      0.00
    3    8    8     -0.02      0.00
    2    8    8      0.00      0.00
    1    8    8      0.05      0.00
    0    8    8     -0.07      0.00
    6    9    8      0.12      0.00
    5    9    8     -0.13      0.00
    4    9    8      0.00      0.00
    3    9    8      0.09      0.00
    2    9    8     -0.03      0.00
    1    9    8     -0.14      0.00
    0    9    8     -0.13      0.00
    4   10    8      0.11      0.00
    3   10    8      0.14      0.00
    2   10    8     -0.12      0.00
    1   10    8     -0.26      0.00
    0   10    8     -0.07      0.00
    0    0    9      0.12      0.00
    0    1    9     -0.15      0.00
    1    1    9      0.19      0.00
    1    2    9     -0.13      0.00
    0    2    9      0.22      0.00
    2    2    9     -0.12      0.00
    2    3    9     -0.08      0.00
    1    3    9     -0.06      0.00
    0    3    9     -0.08      0.00
    3    3    9      0.21      0.00
    3    4    9      0.01      0.00
    2    4    9      0.06      0.00
    1    4    9     -0.03      0.00
    0    4    9      0.05      0.00
    4    4    9      0.10      0.00
    4    5    9      0.02      0.00
    3    5    9     -0.10      0.00
    2    5    9      0.04      0.00
    1    5    9      0.07      0.00
    0    5    9     -0.11      0.00
    5    5    9      0.12      0.00
    5    6    9      0.19      0.00
    4    6    9     -0.04      0.00
    3    6    9      0.05      0.00
    2    6    9      0.06      0.00
    1    6    9      0.00      0.00
    0    6    9     -0.07      0.00
    6    6    9      0.07      0.00
    6    7    9     -0.02      0.00
    5    7    9     -0.01      0.00
    4    7    9      0.11      0.00
    3    7    9      0.03      0.00
    2    7    9      0.01      0.00
    1    7    9      0.04      0.00
    0    7    9      0.11      0.00
    7    7    9     -0.21      0.00
    6    8    9     -0.11      0.00
    5    8    9     -0.11      0.00
    4    8    9     -0.12      0.00
    3    8    9     -0.05      0.00
    2    8    9      0.11      0.00
    1    8    9      0.01      0.00
    0    8    9     -0.03      0.00
    5    9    9     -0.17      0.00
    4    9    9     -0.21      0.00
    3    9    9      0.06      0.00
    2    9    9     -0.02      0.00
    1    9    9     -0.01      0.00
    0    9    9     -0.01      0.00
    2   10    9      0.03      0.00
    1   10    9      0.07      0.00
    0   10    9      0.02      0.00
    0    0   10     -0.26      0.00
    0    1   10      0.01      0.00
    1    1   10     -0.03      0.00
    1    2   10     -0.06      0.00
    0    2   10      0.04      0.00
    2    2   10      0.09      0.00
    2    3   10     -0.08      0.00
    1    3   10      0.05      0.00
    0    3   10     -0.17      0.00
    3    3   10      0.17      0.00
    3    4   10     -0.14      0.00
    2    4   10      0.14      0.00
    1    4   10     -0.04      0.00
    0    4   10     -0.06      0.00
    4    4   10      0.14      0.00
    4    5   10      0.11      0.00
    3    5   10      0.05      0.00
    2    5   10      0.06      0.00
    1    5   10      0.02      0.00
    0    5   10      0.04      0.00
    5    5   10      0.13      0.00
    5    6   10      0.11      0.00
    4    6   10     -0.01      0.00
    3    6   10      0.07      0.00
    2    6   10     -0.08      0.00
    1    6   10      0.10      0.00
    0    6   10      0.17      0.00
    6    6   10      0.06      0.00
    6    7   10      0.26      0.00
    5    7   10     -0.09      0.00
    4    7   10     -0.05      0.00
    3    7   10     -0.09      0.00
    2    7   10     -0.10      0.00
    1    7   10      0.09      0.00
    0    7   10      0.20      0.00
    5    8   10     -0.03      0.00
    4    8   10     -0.01      0.00
    3    8   10     -0.13      0.00
    2    8   10      0.00      0.00
    1    8   10      0.02      0.00
    0    8   10      0.17      0.00
    3    9   10      0.08      0.00
    2    9   10     -0.03      0.00
    1    9   10     -0.01      0.00
    0    9   10      0.02      0.00
    0    0   11     -0.02      0.00
    0    1   11      0.07      0.00
    1    1   11     -0.08      0.00
    1    2   11      0.03      0.00
    0    2   11     -0.07      0.00
    2    2   11      0.04      0.00
    2    3   11      0.06      0.00
    1    3   11      0.05      0.00
    0    3   11     -0.06      0.00
    3    3   11      0.08      0.00
    3    4   11     -0.04      0.00
    2    4   11      0.14      0.00
    1    4   11     -0.02      0.00
    0    4   11     -0.10      0.00
    4    4   11      0.19      0.00
    4    5   11      0.21      0.00
    3    5   11      0.08      0.00
    2    5   11     -0.13      0.00
    1    5   11     -0.05      0.00
    0    5   11      0.03      0.00
    5    5   11      0.17      0.00
    5    6   11      0.25      0.00
    4    6   11      0.00      0.00
    3    6   11     -0.08      0.00
    2    6   11     -0.21      0.00
    1    6   11     -0.02      0.00
    0    6   11      0.21      0.00
    6    6   11      0.25      0.00
    5    7   11      0.09      0.00
    4    7   11     -0.02      0.00
    3    7   11     -0.09      0.00
    2    7   11      0.02      0.00
    1    7   11      0.08      0.00
    0    7   11     -0.05      0.00
    3    8   11      0.04      0.00
    2    8   11      0.15      0.00
    1    8   11      0.03      0.00
    0    8   11     -0.02      0.00
    0    0   12      0.36      0.00
    0    1   12      0.02      0.00
    1    1   12      0.13      0.00
    1    2   12      0.13      0.00
    0    2   12      0.01      0.00
    2    2   12      0.01      0.00
    2    3   12      0.17      0.00
    1    3   12     -0.04      0.00
    0    3   12      0.08      0.00
    3    3   12     -0.06      0.00
    3    4   12     -0.09      0.00
    2    4   12     -0.09      0.00
    1    4   12      0.05      0.00
    0    4   12      0.05      0.00
    4    4   12      0.13      0.00
    4    5   12      0.18      0.00
    3    5   12      0.07      0.00
    2    5   12     -0.21      0.00
    1    5   12      0.06      0.00
    0    5   12      0.18      0.00
    5    5   12     -0.02      0.00
    5    6   12      0.00      0.00
    4    6   12     -0.03      0.00
    3    6   12      0.08      0.00
    2    6   12     -0.03      0.00
    1    6   12     -0.05      0.00
    0    6   12      0.20      0.00
    3    7   12     -0.13      0.00
    2    7   12      0.09      0.00
    1    7   12      0.04      0.00
    0    7   12     -0.20      0.00
    0    0   13      0.32      0.00
    0    1   13     -0.31      0.00
    1    1   13      0.15      0.00
    1    2   13      0.01      0.00
    0    2   13      0.02      0.00
    2    2   13     -0.10      0.00
    2    3   13      0.16      0.00
    1    3   13     -0.18      0.00
    0    3   13      0.07      0.00
    3    3   13      0.02      0.00
    3    4   13     -0.09      0.00
    2    4   13     -0.19      0.00
    1    4   13      0.04      0.00
    0    4   13     -0.01      0.00
    4    4   13      0.14      0.00
    4    5   13      0.02      0.00
    3    5   13     -0.11      0.00
    2    5   13     -0.16      0.00
    1    5   13      0.10      0.00
    0    5   13      0.14      0.00
    2    6   13      0.13      0.00
    1    6   13      0.07      0.00
    0    6   13      0.22      0.00
    0    0   14      0.48      0.00
    0    1   14     -0.42      0.00
    1    1   14      0.14      0.00
    1    2   14     -0.09      0.00
    0    2   14     -0.14      0.00
    2    2   14      0.07      0.00
    2    3   14      0.13      0.00
    1    3   14     -0.04      0.00
    0    3   14      0.16      0.00
    3    3   14     -0.03      0.00
    2    4   14     -0.12      0.00
    1    4   14      0.24      0.00
    0    4   14      0.14      0.00
    0    0   15      0.01      0.00
    0    1   15     -0.59      0.00
    0    1    0     27.35      0.00
    0    2    0     -4.73      0.00
    5   12    0      0.02      0.00
    0    0    1      1.76      0.00
    0    1    1    -16.15      0.00
    9    9    3      0.02      0.00
    6   11    4      0.01      0.00
    0   11    8     -0.20      0.00
    1   11    8     -0.09      0.00
    3   10    9     -0.01      0.00
    4    8   11      0.12      0.00
    1    1   15     -0.02      0.00
    0    0    0      0.00      0.00
# SQUEEZE RESULTS (Version = 150216)
# Note: Data are Listed for all Voids in the P1 Unit Cell
# i.e. Centre of Gravity, Solvent Accessible Volume,
# Recovered number of Electrons in the Void and
# Details about the Squeezed Material
loop_
  _platon_squeeze_void_nr
  _platon_squeeze_void_average_x
  _platon_squeeze_void_average_y
  _platon_squeeze_void_average_z
  _platon_squeeze_void_volume
  _platon_squeeze_void_count_electrons
  _platon_squeeze_void_content
   1 -0.008 -0.005 -0.010       659        78 ' '
# Missing Reflections Below sin(th)/lambda = 0.25
loop_
  _platon_missing_refln_index_h
  _platon_missing_refln_index_k
  _platon_missing_refln_index_l
  _platon_missing_refln_theta
    0    1    0     2.044
    0    2    0     4.091
    0    0    1     1.757
    0    1    1     2.696
_platon_squeeze_void_probe_radius                  1.20
_platon_squeeze_details
)
TITL 2_a.res in P4/m                  New: P4/mmm
CELL    9.9618    9.9618   11.5931     90.00     90.00     90.00
SPGR P4/mmm
# Solvent Accessible Volume =       654
# Electrons Found in S.A.V. =        75
# Note: Atoms in Void as Cxxx and Qxxx all others
C101 0.136 0.156 0.501 !       0.57 eA-3
Q102 0.463 0.481 0.466 !       0.54 eA-3
Q103 0.500 0.250 0.490 !       0.53 eA-3
)
;
_shelx_fab_checksum              11276
loop_
_space_group_symop_operation_xyz
'x, y, z'
'-y, x, z'
'-x, -y, z'
'y, -x, z'
'x, -y, -z'
'-x, y, -z'
'y, x, -z'
'-y, -x, -z'
'-x, -y, -z'
'y, -x, -z'
'x, y, -z'
'-y, x, -z'
'-x, y, z'
'x, -y, z'
'-y, -x, z'
'y, x, z'
loop_
_atom_site_label
_atom_site_type_symbol
_atom_site_fract_x
_atom_site_fract_y
_atom_site_fract_z
_atom_site_U_iso_or_equiv
_atom_site_adp_type
_atom_site_occupancy
_atom_site_site_symmetry_order
_atom_site_calc_flag
_atom_site_refinement_flags_posn
_atom_site_refinement_flags_adp
_atom_site_refinement_flags_occupancy
_atom_site_disorder_assembly
_atom_site_disorder_group
In1 In 0.5000 0.5000 0.5000 0.04050(15) Uani 1 16 d DS T P A .
O1 O 0.5000 0.3568(3) 0.3583(4) 0.0722(10) Uani 0.5 2 d DS T P A 1
C6 C 0.5000 0.0000 0.0476(8) 0.095(3) Uani 0.5 4 d S T P . .
C2 C 0.5000 0.1203(4) 0.3556(4) 0.0701(14) Uani 0.5 2 d DS T P A .
C3 C 0.5000 0.0000 0.41964(9) 0.072(2) Uani 0.5 4 d DS T P . .
H3 H 0.5000 0.0000 0.5000 0.086 Uiso 1 8 d DS U P . .
C1 C 0.5000 0.2519(5) 0.4154(4) 0.0662(17) Uani 0.5 2 d DS T P . .
C4 C 0.5000 0.1205(4) 0.2356(4) 0.0821(19) Uani 0.5 2 d DS T P . .
H4 H 0.5000 0.2012 0.1953 0.099 Uiso 0.5 2 calc R U P A .
C5 C 0.5000 0.0000 0.1764(5) 0.087(3) Uani 0.5 4 d DS T P A .
O2 O 0.5000 0.2583(5) 0.5225(4) 0.081(2) Uani 0.5 2 d DS T P A 2
loop_
_atom_site_aniso_label
_atom_site_aniso_U_11
_atom_site_aniso_U_22
_atom_site_aniso_U_33
_atom_site_aniso_U_23
_atom_site_aniso_U_13
_atom_site_aniso_U_12
In1 0.04451(18) 0.04451(18) 0.0325(2) 0.000 0.000 0.000
O1 0.097(3) 0.0343(14) 0.085(2) -0.0094(16) 0.000 0.000
C6 0.177(11) 0.042(3) 0.065(4) 0.000 0.000 0.000
C2 0.113(4) 0.034(2) 0.064(3) -0.0021(19) 0.000 0.000
C3 0.114(7) 0.040(3) 0.061(4) 0.000 0.000 0.000
C1 0.091(4) 0.046(2) 0.061(4) -0.015(3) 0.000 0.000
C4 0.152(6) 0.034(2) 0.060(3) 0.002(2) 0.000 0.000
C5 0.166(10) 0.040(3) 0.055(4) 0.000 0.000 0.000
O2 0.135(3) 0.0536(18) 0.055(7) -0.009(2) 0.000 0.000
loop_
_atom_type_symbol
_atom_type_description
_atom_type_scat_dispersion_real
_atom_type_scat_dispersion_imag
_atom_type_scat_source
C C 0.0033 0.0016 'International Tables Vol C Tables 4.2.6.8 and 6.1.1.4'
H H 0.0000 0.0000 'International Tables Vol C Tables 4.2.6.8 and 6.1.1.4'
In In -0.7276 1.3100 'International Tables Vol C Tables 4.2.6.8 and 6.1.1.4'
N N 0.0061 0.0033 'International Tables Vol C Tables 4.2.6.8 and 6.1.1.4'
O O 0.0106 0.0060 'International Tables Vol C Tables 4.2.6.8 and 6.1.1.4'
loop_
_geom_angle_atom_site_label_1
_geom_angle_atom_site_label_2
_geom_angle_atom_site_label_3
_geom_angle
_geom_angle_site_symmetry_1
_geom_angle_site_symmetry_3
O1 In1 O1 180.0 12_656 4_565
O1 In1 O1 55.24(12) 12_656 9_666
O1 In1 O1 124.76(12) 4_565 9_666
O1 In1 O1 55.24(12) 12_656 11_556
O1 In1 O1 124.76(12) 4_565 11_556
O1 In1 O1 81.94(19) 9_666 11_556
O1 In1 O1 124.76(12) 12_656 3_665
O1 In1 O1 55.24(12) 4_565 3_665
O1 In1 O1 98.06(19) 9_666 3_665
O1 In1 O1 180.0 11_556 3_665
O1 In1 O1 98.06(19) 12_656 2_655
O1 In1 O1 81.94(19) 4_565 2_655
O1 In1 O1 124.76(12) 9_666 2_655
O1 In1 O1 124.76(12) 11_556 2_655
O1 In1 O1 55.24(12) 3_665 2_655
O1 In1 O1 81.94(19) 12_656 10_566
O1 In1 O1 98.06(19) 4_565 10_566
O1 In1 O1 55.24(12) 9_666 10_566
O1 In1 O1 55.24(12) 11_556 10_566
O1 In1 O1 124.76(12) 3_665 10_566
O1 In1 O1 180.0 2_655 10_566
O1 In1 O1 124.76(12) 12_656 .
O1 In1 O1 55.24(12) 4_565 .
O1 In1 O1 180.0 9_666 .
O1 In1 O1 98.06(19) 11_556 .
O1 In1 O1 81.94(19) 3_665 .
O1 In1 O1 55.24(12) 2_655 .
O1 In1 O1 124.76(12) 10_566 .
O2 In1 O2 180.0(2) 11_556 3_665
O2 In1 O2 89.33(3) 11_556 10_566
O2 In1 O2 90.67(3) 3_665 10_566
O2 In1 O2 90.67(3) 11_556 2_655
O2 In1 O2 89.33(3) 3_665 2_655
O2 In1 O2 180.0 10_566 2_655
C1 O1 In1 98.6(3) . .
C6 C6 C5 180.0 9_655 .
C4 C2 C3 121.8(3) . .
C4 C2 C1 117.8(4) . .
C3 C2 C1 120.3(4) . .
C2 C3 C2 116.5(3) . 3_655
C2 C3 C3 121.77(17) . 9_656
C2 C3 C3 121.77(17) 3_655 9_656
C2 C3 H3 121.77(17) . .
C2 C3 H3 121.77(17) 3_655 .
C3 C3 H3 0.0 9_656 .
O2 C1 O2 2.1(3) 11_556 .
O2 C1 C2 123.0(8) 11_556 .
O1 C1 C2 119.7(4) . .
O2 C1 C2 120.8(6) . .
O2 C1 C1 5.1(7) 11_556 11_556
O1 C1 C1 122.4(3) . 11_556
O2 C1 C1 2.9(4) . 11_556
C2 C1 C1 117.9(3) . 11_556
O2 C1 In1 63.3(6) 11_556 .
O1 C1 In1 54.0(3) . .
O2 C1 In1 65.4(4) . .
C2 C1 In1 173.7(4) . .
C1 C1 In1 68.36(11) 11_556 .
C5 C4 C2 119.7(4) . .
C5 C4 H4 120.2 . .
C2 C4 H4 120.2 . .
C4 C5 C4 120.5(5) 3_655 .
C4 C5 C6 119.7(3) 3_655 .
C4 C5 C6 119.7(3) . .
O2 O2 C1 174.9(7) 11_556 11_556
O2 O2 C1 2.9(4) 11_556 .
C1 O2 C1 172.0(11) 11_556 .
O2 O2 In1 83.80(12) 11_556 .
C1 O2 In1 101.3(7) 11_556 .
C1 O2 In1 86.7(4) . .
loop_
_geom_bond_atom_site_label_1
_geom_bond_atom_site_label_2
_geom_bond_distance
_geom_bond_site_symmetry_2
In1 O1 2.176(4) 12_656
In1 O1 2.176(4) 4_565
In1 O1 2.176(4) 9_666
In1 O1 2.176(4) 11_556
In1 O1 2.176(4) 3_665
In1 O1 2.176(4) 2_655
In1 O1 2.176(4) 10_566
In1 O1 2.176(4) .
In1 O2 2.422(5) 11_556
In1 O2 2.422(5) 3_665
In1 O2 2.422(5) 10_566
In1 O2 2.422(5) 2_655
O1 C1 1.237(6) .
C6 C6 1.104(18) 9_655
C6 C5 1.493(10) .
C2 C4 1.392(6) .
C2 C3 1.410(4) .
C2 C1 1.483(6) .
C3 C2 1.410(4) 3_655
C3 C3 1.863(2) 9_656
C3 H3 0.9317(10) .
C1 O2 0.722(7) 11_556
C1 O2 1.243(7) .
C1 C1 1.961(10) 11_556
C4 C5 1.382(5) .
C4 H4 0.9300 .
C5 C4 1.382(5) 3_655
O2 O2 0.523(10) 11_556
O2 C1 0.722(7) 11_556
loop_
_geom_torsion_atom_site_label_1
_geom_torsion_atom_site_label_2
_geom_torsion_atom_site_label_3
_geom_torsion_atom_site_label_4
_geom_torsion
_geom_torsion_site_symmetry_1
_geom_torsion_site_symmetry_4
C4 C2 C3 C2 0.000(0) . 3_655
C1 C2 C3 C2 180.000(1) . 3_655
C4 C2 C3 C3 180.000(0) . 9_656
C1 C2 C3 C3 0.000(1) . 9_656
In1 O1 C1 C2 180.000(1) . .
In1 O1 C1 C1 0.000(1) . 11_556
C4 C2 C1 O2 180.000(1) . 11_556
C3 C2 C1 O2 0.000(2) . 11_556
C4 C2 C1 O1 0.000(1) . .
C3 C2 C1 O1 180.000(1) . .
C4 C2 C1 O2 180.000(1) . .
C3 C2 C1 O2 0.000(1) . .
C4 C2 C1 C1 180.000(1) . 11_556
C3 C2 C1 C1 0.000(1) . 11_556
C3 C2 C4 C5 0.000(1) . .
C1 C2 C4 C5 180.000(1) . .
C2 C4 C5 C4 0.000(0) . 3_655
C2 C4 C5 C6 180.000(1) . .
C2 C1 O2 O2 180.00(2) . 11_556
C1 C1 O2 O2 180.00(3) 11_556 11_556
In1 C1 O2 O2 0.00(2) . 11_556
O2 C1 O2 In1 0.00(4) 11_556 .
C2 C1 O2 In1 180.000(1) . .
C1 C1 O2 In1 180.00(2) 11_556 .
