#------------------------------------------------------------------------------
#$Date: 2019-11-07 22:49:04 +0200 (Thu, 07 Nov 2019) $
#$Revision: 223866 $
#$URL: file:///home/coder/svn-repositories/cod/cif/7/70/01/7700137.cif $
#------------------------------------------------------------------------------
#
# This file is available in the Crystallography Open Database (COD),
# http://www.crystallography.net/
#
# All data on this site have been placed in the public domain by the
# contributors.
#
data_7700137
loop_
_publ_author_name
'Wu, Xue-Song'
'Bao, Hong-Fei'
'Zhu, Fu-Long'
'Sun, Jing'
'Wang, Xin-Long'
'Su, Zhong-Min'
_publ_section_title
;
 Syntheses and magnetic properties of high-dimensional
 cucurbit[6]uril-based metal-organic rotaxane frameworks.
;
_journal_issue                   27
_journal_name_full
'Dalton transactions (Cambridge, England : 2003)'
_journal_page_first              9939
_journal_page_last               9943
_journal_paper_doi               10.1039/c9dt01544b
_journal_volume                  48
_journal_year                    2019
_chemical_formula_moiety
'0.25(C136 H120 Co8 N16 O48), C36 H36 N24 O12, 2(H O), 5(H2 O)'
_chemical_formula_sum            'C70 H80 Co2 N28 O31'
_chemical_formula_weight         1927.48
_space_group_crystal_system      orthorhombic
_space_group_IT_number           61
_space_group_name_Hall           '-P 2ac 2ab'
_space_group_name_H-M_alt        'P b c a'
_symmetry_space_group_name_Hall  '-P 2ac 2ab'
_symmetry_space_group_name_H-M   'P b c a'
_atom_sites_solution_hydrogens   mixed
_atom_sites_solution_primary     direct
_audit_creation_date             2019-05-10
_audit_creation_method
;
Olex2 1.2
(compiled 2018.05.29 svn.r3508 for OlexSys, GUI svn.r5506)
;
_audit_update_record
;
2019-05-29 deposited with the CCDC.    2019-05-31 downloaded from the CCDC.
;
_cell_angle_alpha                90
_cell_angle_beta                 90
_cell_angle_gamma                90
_cell_formula_units_Z            4
_cell_length_a                   19.034(5)
_cell_length_b                   14.409(5)
_cell_length_c                   27.801(5)
_cell_measurement_reflns_used    6877
_cell_measurement_temperature    293(2)
_cell_measurement_theta_max      25.064
_cell_measurement_theta_min      2.954
_cell_volume                     7625(4)
_computing_cell_refinement       'APEX2(Bruker, 2005)'
_computing_data_collection       'APEX2(Bruker, 2005)'
_computing_data_reduction        'SAINT(Bruker, 2006)'
_computing_molecular_graphics    'SHELXTL (Sheldrick, 2008)'
_computing_publication_material  'SHELXTL (Sheldrick, 2008)'
_computing_structure_refinement  'Shelxl2014 (Sheldrick, 2015b)'
_computing_structure_solution    'ShelXT2014 (Sheldrick, 2015a)'
_diffrn_ambient_temperature      293.02
_diffrn_detector                 'charge-coupled device (CCD) area detector'
_diffrn_detector_area_resol_mean 7.9
_diffrn_detector_type            'Bruker APEX II'
_diffrn_measured_fraction_theta_full 0.957
_diffrn_measured_fraction_theta_max 0.957
_diffrn_measurement_device       'three-circle diffractometer'
_diffrn_measurement_device_type  'Bruker SMART APEX II'
_diffrn_measurement_method       '0.5\% \w and 0.5\% \f scans'
_diffrn_radiation_collimation    'focusing mirrors'
_diffrn_radiation_detector       'Bruker APEX II'
_diffrn_radiation_monochromator  'mirror optics'
_diffrn_radiation_probe          x-ray
_diffrn_radiation_type           MoK\a
_diffrn_radiation_wavelength     0.71069
_diffrn_reflns_av_R_equivalents  0.0513
_diffrn_reflns_av_unetI/netI     0.0821
_diffrn_reflns_Laue_measured_fraction_full 0.957
_diffrn_reflns_Laue_measured_fraction_max 0.957
_diffrn_reflns_limit_h_max       22
_diffrn_reflns_limit_h_min       -15
_diffrn_reflns_limit_k_max       16
_diffrn_reflns_limit_k_min       -12
_diffrn_reflns_limit_l_max       33
_diffrn_reflns_limit_l_min       -17
_diffrn_reflns_number            16951
_diffrn_reflns_point_group_measured_fraction_full 0.957
_diffrn_reflns_point_group_measured_fraction_max 0.957
_diffrn_reflns_theta_full        25.064
_diffrn_reflns_theta_max         25.064
_diffrn_reflns_theta_min         2.954
_diffrn_source                   'microfocus sealed X-ray tube'
_diffrn_source_type              'Incoatec I\ms'
_exptl_absorpt_coefficient_mu    0.547
_exptl_absorpt_correction_T_max  0.896
_exptl_absorpt_correction_T_min  0.877
_exptl_absorpt_correction_type   multi-scan
_exptl_absorpt_process_details
;
SADABS-2016/2 (Krause et al., 2015) was used for absorption correction.
;
_exptl_crystal_colour            purple
_exptl_crystal_density_diffrn    1.679
_exptl_crystal_density_method    'not measured'
_exptl_crystal_description       block
_exptl_crystal_F_000             3992
_exptl_crystal_size_max          0.24
_exptl_crystal_size_mid          0.22
_exptl_crystal_size_min          0.2
_refine_diff_density_max         1.014
_refine_diff_density_min         -1.041
_refine_diff_density_rms         0.101
_refine_ls_extinction_method     none
_refine_ls_goodness_of_fit_ref   1.138
_refine_ls_hydrogen_treatment    constr
_refine_ls_matrix_type           full
_refine_ls_number_parameters     595
_refine_ls_number_reflns         6476
_refine_ls_number_restraints     21
_refine_ls_restrained_S_all      1.142
_refine_ls_R_factor_all          0.1361
_refine_ls_R_factor_gt           0.1019
_refine_ls_shift/su_max          0.001
_refine_ls_shift/su_mean         0.000
_refine_ls_structure_factor_coef Fsqd
_refine_ls_weighting_details
'w=1/[\s^2^(Fo^2^)+(0.0250P)^2^+77.2448P] where P=(Fo^2^+2Fc^2^)/3'
_refine_ls_weighting_scheme      calc
_refine_ls_wR_factor_gt          0.2236
_refine_ls_wR_factor_ref         0.2386
_reflns_Friedel_coverage         0.000
_reflns_number_gt                4603
_reflns_number_total             6476
_reflns_threshold_expression     'I > 2\s(I)'
_cod_data_source_file            c9dt01544b2.cif
_cod_data_source_block           2
_cod_depositor_comments
'Adding full bibliography for 7700136--7700138.cif.'
_cod_database_code               7700137
_shelx_shelxl_version_number     2018/1
_shelx_space_group_comment
;
The symmetry employed for this shelxl refinement is uniquely defined
by the following loop, which should always be used as a source of
symmetry information in preference to the above space-group names.
They are only intended as comments.
;
_shelx_estimated_absorpt_t_max   0.54
_shelx_estimated_absorpt_t_min   0.21
_olex2_refinement_description
;
1. Fixed Uiso
 At 1.2 times of:
  All C(H) groups, All C(H,H) groups, All N(H,H) groups
 At 1.5 times of:
  All O(H) groups, All O(H,H) groups
2. Restrained distances
 N1-C1 \\sim C2-C3 \\sim C4-C5
 with sigma of 0.02
3. Uiso/Uaniso restraints and constraints
Uanis(O4W) \\sim Ueq, Uanis(O2W) \\sim Ueq, Uanis(O3W) \\sim Ueq: with sigma of
0.01 and sigma for terminal atoms of 0.01
4. Others
 Fixed Sof: O1W(0.85) H1WA(0.85) H1WB(0.85) O3W(0.65) H3WA(0.65) H3WB(0.65)
5.a Riding coordinates:
 O4W(H4W), O2W(H2WA,H2WB), O1W(H1WA,H1WB), O3W(H3WA,H3WB)
5.b Ternary CH refined with riding coordinates:
 C26(H26), C28(H28), C27(H27), C30(H30), C25(H25), C29(H29)
5.c Secondary CH2 refined with riding coordinates:
 N2(H2A,H2B), C24(H24A,H24B), C8(H8A,H8B), C18(H18A,H18B), C6(H6A,H6B),
 C34(H34A,H34B), C7(H7A,H7B), C32(H32A,H32B), C22(H22A,H22B), C20(H20A,H20B)
5.d Aromatic/amide H refined with riding coordinates:
 C15(H15), C3(H3), C5(H5), C13(H13), C2(H2), C11(H11), C1(H1)
;
_shelx_res_file
;
TITL 2 in Pbca
    2.res
    created by SHELXL-2018/1 at 13:59:34 on 10-May-2019
CELL 0.71069 19.034 14.409 27.801 90 90 90
ZERR 4 0.005 0.005 0.005 0 0 0
LATT 1
SYMM 0.5-X,-Y,0.5+Z
SYMM 0.5+X,0.5-Y,-Z
SYMM -X,0.5+Y,0.5-Z
SFAC C H Co N O
UNIT 280 320 8 112 124
SADI N1 C1 C2 C3 C4 C5
ISOR 0.01 0.01 O4W O2W O3W

L.S. 24
PLAN  25
SIZE 0.2 0.22 0.24
BOND
LIST 1
fmap 2
acta
MERG 2
OMIT 2 1 1
OMIT 1 2 1
OMIT 19 4 4
REM <olex2.extras>
REM <HklSrc "%.\\2.hkl">
REM </olex2.extras>

WGHT    0.025000   77.244797
FVAR       0.10093
CO1   3    1.088497   -0.436971    0.317495    11.00000    0.02793    0.02306 =
         0.04190   -0.00606   -0.00534    0.00061
O10   5    0.875319    0.153235    0.599556    11.00000    0.05715    0.02731 =
         0.04921    0.00621   -0.00267    0.00604
N6    4    0.801021   -0.168584    0.452704    11.00000    0.04089    0.03578 =
         0.03872    0.00343   -0.00030    0.00175
O5    5    0.823396   -0.071102    0.174205    11.00000    0.05805    0.03921 =
         0.06464    0.01992   -0.00949   -0.00155
O8    5    0.885689   -0.259144    0.490028    11.00000    0.03828    0.03211 =
         0.06202    0.00891    0.00014    0.00255
O7    5    0.959602   -0.228841    0.388997    11.00000    0.04839    0.02538 =
         0.05281    0.00730   -0.00185    0.00780
N3    4    0.960771   -0.120422    0.651663    11.00000    0.03458    0.02632 =
         0.05139    0.00106    0.00573   -0.00652
N10   4    0.817833    0.016940    0.379150    11.00000    0.03783    0.03099 =
         0.04882    0.00228    0.00066    0.00162
N5    4    0.806597   -0.170632    0.532457    11.00000    0.04040    0.03125 =
         0.04315    0.00470    0.00163    0.00259
N13   4    0.830773    0.005448    0.606951    11.00000    0.02323    0.03309 =
         0.04778    0.00111    0.00036   -0.00079
N2    4    1.032282   -0.207686    0.478782    11.00000    0.03272    0.02133 =
         0.05208   -0.00278   -0.00559    0.00650
AFIX  23
H2A   2    1.045529   -0.196308    0.448652    11.00000   -1.20000
H2B   2    0.987761   -0.226519    0.478121    11.00000   -1.20000
AFIX   0

N4    4    0.865524   -0.157413    0.610398    11.00000    0.03994    0.03024 =
         0.04118    0.00463   -0.00243   -0.00743
N12   4    0.762647   -0.012845    0.533344    11.00000    0.04966    0.02981 =
         0.04775    0.00105   -0.00087    0.00662
O6    5    0.927811   -0.066029    0.208724    11.00000    0.06273    0.02249 =
         0.04961    0.00866   -0.00934   -0.01182
N8    4    0.956776   -0.100559    0.339414    11.00000    0.03216    0.02436 =
         0.04335    0.00328    0.00023    0.00302
O9    5    0.963022   -0.250256    0.603389    11.00000    0.05569    0.02346 =
         0.06330   -0.00142   -0.00187    0.00388
N7    4    0.858183   -0.143342    0.375683    11.00000    0.03424    0.03031 =
         0.04322    0.00269   -0.00216    0.00122
C26   1    0.837001   -0.059923    0.349073    11.00000    0.03853    0.03146 =
         0.03810    0.00101   -0.00598   -0.00020
AFIX  13
H26   2    0.800960   -0.073444    0.324894    11.00000   -1.20000
AFIX   0

C10   1    0.890525   -0.326962    0.274855    11.00000    0.03804    0.01729 =
         0.03137   -0.00420    0.00073    0.00463
O11   5    0.770188    0.127791    0.493615    11.00000    0.06580    0.02664 =
         0.07796    0.00015    0.00189    0.01242
N14   4    0.925754    0.042387    0.649844    11.00000    0.05388    0.02297 =
         0.03813    0.00215    0.00194   -0.00910
N9    4    0.920715    0.060981    0.348656    11.00000    0.03782    0.02599 =
         0.03775    0.00386   -0.00550   -0.00328
C19   1    0.932797   -0.182813    0.619887    11.00000    0.04146    0.02514 =
         0.04064    0.01222    0.00141   -0.00777
O1    5    1.010397   -0.358926    0.293142    11.00000    0.04250    0.03782 =
         0.05111   -0.00165   -0.00800    0.01879
C23   1    0.928347   -0.164419    0.370411    11.00000    0.05196    0.02064 =
         0.03014   -0.00735   -0.00853   -0.00733
C21   1    0.836348   -0.203871    0.491966    11.00000    0.02146    0.02512 =
         0.05428    0.00490    0.00124   -0.00648
O12   5    0.857256    0.165818    0.393181    11.00000    0.06697    0.02612 =
         0.06727   -0.00481    0.00748    0.00878
C14   1    0.771909   -0.321969    0.239836    11.00000    0.02496    0.02660 =
         0.03988   -0.00214    0.00799    0.00042
O3    5    0.671592   -0.403768    0.265172    11.00000    0.05933    0.09584 =
         0.06481    0.02193    0.01395   -0.02934
O4    5    0.676124   -0.360424    0.189041    11.00000    0.03609    0.03832 =
         0.06931   -0.00179   -0.00561   -0.01443
C24   1    1.028986   -0.104076    0.323485    11.00000    0.04335    0.02919 =
         0.03408   -0.00334   -0.00352    0.00178
AFIX  23
H24A  2    1.046238   -0.167097    0.326800    11.00000   -1.20000
H24B  2    1.030974   -0.087778    0.289660    11.00000   -1.20000
AFIX   0
N11   4    0.754601   -0.011384    0.453580    11.00000    0.05457    0.03593 =
         0.04713    0.00586    0.00166    0.00730

C15   1    0.823078   -0.361346    0.271236    11.00000    0.04133    0.02714 =
         0.03042    0.00630    0.00454   -0.00013
AFIX  43
H15   2    0.810517   -0.412145    0.289995    11.00000   -1.20000
AFIX   0
O2    5    0.928520   -0.444309    0.329104    11.00000    0.07285    0.03679 =
         0.09919    0.03255   -0.02500   -0.01157
C3    1    1.077754   -0.454593    0.491843    11.00000    0.03785    0.03419 =
         0.04029    0.00431    0.00461    0.00313
AFIX  43
H3    2    1.077509   -0.457674    0.525256    11.00000   -1.20000
AFIX   0

C28   1    0.750245   -0.108464    0.522131    11.00000    0.02809    0.04392 =
         0.05032    0.00216    0.00326   -0.00296
AFIX  13
H28   2    0.706302   -0.130186    0.536646    11.00000   -1.20000
AFIX   0
C27   1    0.745177   -0.108441    0.466093    11.00000    0.03339    0.03422 =
         0.05384    0.00460    0.00275    0.00232
AFIX  13
H27   2    0.699662   -0.132009    0.455033    11.00000   -1.20000
AFIX   0

C8    1    0.995173   -0.044231    0.486103    11.00000    0.05735    0.01880 =
         0.05802   -0.01037   -0.00210    0.00821
AFIX  23
H8A   2    0.945837   -0.061096    0.486193    11.00000   -1.20000
H8B   2    1.009309   -0.034327    0.452977    11.00000   -1.20000
AFIX   0

C30   1    0.909310   -0.050705    0.665977    11.00000    0.05451    0.02833 =
         0.03525    0.00898    0.00616   -0.00435
AFIX  13
H30   2    0.900184   -0.052584    0.700655    11.00000   -1.20000
AFIX   0

C5    1    1.075986   -0.368744    0.418930    11.00000    0.03309    0.01785 =
         0.05147   -0.00365   -0.00489    0.00979
AFIX  43
H5    2    1.074035   -0.311631    0.403404    11.00000   -1.20000
AFIX   0

C25   1    0.907356   -0.029128    0.325819    11.00000    0.03495    0.02482 =
         0.03440    0.00358   -0.00647   -0.00045
AFIX  13
H25   2    0.903323   -0.023488    0.290799    11.00000   -1.20000
AFIX   0

C13   1    0.790801   -0.241402    0.215344    11.00000    0.01883    0.02916 =
         0.03850    0.00320   -0.00315    0.00462
AFIX  43
H13   2    0.759168   -0.214453    0.194016    11.00000   -1.20000
AFIX   0
C2    1    1.080666   -0.534655    0.464629    11.00000    0.04886    0.01683 =
         0.06663    0.00690    0.01346    0.00087
AFIX  43
H2    2    1.082413   -0.592422    0.479502    11.00000   -1.20000
AFIX   0
C12   1    0.856364   -0.200595    0.222320    11.00000    0.03697    0.01770 =
         0.03111    0.00070   -0.00251    0.00031

C35   1    0.864378    0.088798    0.375224    11.00000    0.04043    0.03423 =
         0.03839    0.00563   -0.00252    0.00929
N1    4    1.079397   -0.445592    0.392218    11.00000    0.03525    0.02259 =
         0.04044   -0.00635    0.00211    0.00194
C29   1    0.842966   -0.075850    0.636584    11.00000    0.04353    0.03478 =
         0.03803    0.00650    0.01751   -0.00735
AFIX  13
H29   2    0.802756   -0.089210    0.657483    11.00000   -1.20000
AFIX   0
C18   1    1.030401   -0.126728    0.672187    11.00000    0.05188    0.02537 =
         0.04456    0.00632   -0.00259   -0.00140
AFIX  23
H18A  2    1.048275   -0.189088    0.667394    11.00000   -1.20000
H18B  2    1.027448   -0.115842    0.706559    11.00000   -1.20000
AFIX   0

C6    1    1.076328   -0.282320    0.498702    11.00000    0.07007    0.02998 =
         0.04478   -0.00380   -0.01066    0.01800
AFIX  23
H6A   2    1.060220   -0.296703    0.530954    11.00000   -1.20000
H6B   2    1.124364   -0.260318    0.501089    11.00000   -1.20000
AFIX   0
C17   1    0.870678   -0.107800    0.199413    11.00000    0.03196    0.02457 =
         0.03996   -0.00131   -0.00198   -0.00110
C4    1    1.075223   -0.370284    0.468801    11.00000    0.03751    0.02138 =
         0.05022   -0.00266   -0.00141    0.00580

C34   1    0.751824    0.025561    0.404526    11.00000    0.04219    0.03863 =
         0.05867    0.01272   -0.00244    0.01471
AFIX  23
H34A  2    0.715679   -0.007116    0.386689    11.00000   -1.20000
H34B  2    0.738696    0.090558    0.405840    11.00000   -1.20000
AFIX   0

C7    1    1.037046   -0.121688    0.506842    11.00000    0.04720    0.02360 =
         0.04275   -0.00640    0.00353    0.00140
AFIX  23
H7A   2    1.085893   -0.102842    0.508726    11.00000   -1.20000
H7B   2    1.020828   -0.133721    0.539326    11.00000   -1.20000
AFIX   0
C11   1    0.907133   -0.245111    0.250450    11.00000    0.03496    0.02236 =
         0.03373   -0.00411   -0.00079   -0.00791
AFIX  43
H11   2    0.952049   -0.220153    0.252909    11.00000   -1.20000
AFIX   0
C9    1    0.946649   -0.380167    0.302027    11.00000    0.03216    0.02501 =
         0.04572   -0.00426   -0.00882    0.01461

C32   1    0.764940    0.022818    0.582454    11.00000    0.03509    0.04188 =
         0.05580   -0.00396    0.00980    0.00460
AFIX  23
H32A  2    0.756633    0.089220    0.581688    11.00000   -1.20000
H32B  2    0.727178   -0.005347    0.600780    11.00000   -1.20000
AFIX   0

C16   1    0.701160   -0.365212    0.232249    11.00000    0.04030    0.02942 =
         0.04774   -0.00067    0.01010    0.00234
C33   1    0.764171    0.044197    0.493411    11.00000    0.02114    0.04085 =
         0.06515   -0.00034    0.00258    0.00485
C31   1    0.875708    0.075161    0.617341    11.00000    0.03931    0.03751 =
         0.03490   -0.00190    0.00940    0.00412
C22   1    0.812924   -0.202075    0.403903    11.00000    0.04612    0.02082 =
         0.05523    0.00080    0.00001   -0.00475
AFIX  23
H22A  2    0.833443   -0.263616    0.405531    11.00000   -1.20000
H22B  2    0.767978   -0.207483    0.387698    11.00000   -1.20000
AFIX   0
C20   1    0.819150   -0.211062    0.579798    11.00000    0.05404    0.02792 =
         0.05215    0.00435   -0.00130   -0.01264
AFIX  23
H20A  2    0.774385   -0.218316    0.596043    11.00000   -1.20000
H20B  2    0.839099   -0.272471    0.575576    11.00000   -1.20000
AFIX   0

C1    1    1.080953   -0.528074    0.415707    11.00000    0.04410    0.01259 =
         0.06027   -0.00424    0.00793    0.00096
AFIX  43
H1    2    1.082270   -0.582421    0.397684    11.00000   -1.20000
AFIX   0

O4W   5    0.814861    0.066644    0.727413    11.00000    0.10646    0.08938 =
         0.14748    0.00371    0.00941    0.02679
AFIX   3
H4W   2    0.775421    0.068064    0.713103    11.00000   -1.50000
AFIX   0

O2W   5    0.582850   -0.115436    0.379895    11.00000    0.13045    0.07320 =
         0.11987    0.01855    0.01934   -0.01029
AFIX   3
H2WA  2    0.545630   -0.147666    0.382385    11.00000   -1.50000
H2WB  2    0.573400   -0.066326    0.364245    11.00000   -1.50000
AFIX   0
O1W   5    0.683745   -0.180462    0.314988    10.85000    0.09070    0.10744 =
         0.11299   -0.00369    0.01652    0.00035
AFIX   3
H1WA  2    0.652565   -0.159832    0.334078    10.85000   -1.50000
H1WB  2    0.683765   -0.146982    0.289818    10.85000   -1.50000
AFIX   0

O3W   5    0.902085   -0.419742    0.422664    10.65000    0.10437    0.08164 =
         0.12785   -0.00019    0.00479   -0.00281
AFIX   3
H3WA  2    0.910895   -0.413102    0.392894    10.65000   -1.50000
H3WB  2    0.899475   -0.366412    0.435624    10.65000   -1.50000
AFIX   0
HKLF 4




REM  2 in Pbca
REM R1 =  0.1019 for    4603 Fo > 4sig(Fo)  and  0.1361 for all    6476 data
REM    595 parameters refined using     21 restraints

END

WGHT      0.0203     76.4711

REM Highest difference peak  1.014,  deepest hole -1.041,  1-sigma level  0.101
Q1    1   1.0399 -0.4468  0.3223  11.00000  0.05    1.01
Q2    1   1.1267 -0.4329  0.3374  11.00000  0.05    0.63
Q3    1   1.1004 -0.4273  0.2859  11.00000  0.05    0.63
Q4    1   0.9447 -0.1923  0.1831  11.00000  0.05    0.62
Q5    1   0.8786 -0.1886  0.1931  11.00000  0.05    0.59
Q6    1   0.6358 -0.0977  0.2686  11.00000  0.05    0.49
Q7    1   1.0267 -0.2356  0.6995  11.00000  0.05    0.42
Q8    1   0.6209 -0.4008  0.2474  11.00000  0.05    0.41
Q9    1   0.6416 -0.1385  0.3788  11.00000  0.05    0.40
Q10   1   1.0070 -0.2203  0.3913  11.00000  0.05    0.38
Q11   1   0.8817  0.0645  0.6492  11.00000  0.05    0.37
Q12   1   0.5588 -0.1236  0.3075  11.00000  0.05    0.37
Q13   1   0.8022  0.0819  0.4906  11.00000  0.05    0.36
Q14   1   0.7874  0.0105  0.6117  11.00000  0.05    0.35
Q15   1   0.9607 -0.0615  0.1796  11.00000  0.05    0.35
Q16   1   0.9126 -0.3326  0.3026  11.00000  0.05    0.33
Q17   1   0.9089  0.0663  0.3723  11.00000  0.05    0.33
Q18   1   0.8777 -0.4426  0.3302  11.00000  0.05    0.33
Q19   1   0.7088 -0.4529  0.2566  11.00000  0.05    0.33
Q20   1   1.0556 -0.3697  0.2996  11.00000  0.05    0.33
Q21   1   0.7792 -0.0704  0.3090  11.00000  0.05    0.32
Q22   1   0.7744 -0.3411  0.2717  11.00000  0.05    0.32
Q23   1   0.8077  0.0200  0.4040  11.00000  0.05    0.32
Q24   1   1.0362 -0.3356  0.3301  11.00000  0.05    0.32
Q25   1   0.7905 -0.1986  0.4906  11.00000  0.05    0.32
;
_shelx_res_checksum              74128
_olex2_submission_special_instructions 'No special instructions were received'
loop_
_space_group_symop_operation_xyz
'x, y, z'
'-x+1/2, -y, z+1/2'
'x+1/2, -y+1/2, -z'
'-x, y+1/2, -z+1/2'
'-x, -y, -z'
'x-1/2, y, -z-1/2'
'-x-1/2, y-1/2, z'
'x, -y-1/2, z-1/2'
loop_
_atom_site_label
_atom_site_type_symbol
_atom_site_fract_x
_atom_site_fract_y
_atom_site_fract_z
_atom_site_U_iso_or_equiv
_atom_site_adp_type
_atom_site_occupancy
_atom_site_site_symmetry_order
_atom_site_calc_flag
_atom_site_refinement_flags_posn
_atom_site_refinement_flags_adp
_atom_site_refinement_flags_occupancy
Co1 Co 1.08850(5) -0.43697(7) 0.31749(4) 0.0310(3) Uani 1 1 d . . .
O10 O 0.8753(3) 0.1532(4) 0.5996(2) 0.0446(15) Uani 1 1 d . . .
N6 N 0.8010(4) -0.1686(5) 0.4527(2) 0.0385(17) Uani 1 1 d . . .
O5 O 0.8234(3) -0.0711(4) 0.1742(2) 0.0540(17) Uani 1 1 d . . .
O8 O 0.8857(3) -0.2591(4) 0.4900(2) 0.0441(15) Uani 1 1 d . . .
O7 O 0.9596(3) -0.2288(4) 0.3890(2) 0.0422(14) Uani 1 1 d . . .
N3 N 0.9608(3) -0.1204(4) 0.6517(2) 0.0374(16) Uani 1 1 d . . .
N10 N 0.8178(4) 0.0169(5) 0.3791(2) 0.0392(16) Uani 1 1 d . . .
N5 N 0.8066(4) -0.1706(5) 0.5325(2) 0.0383(16) Uani 1 1 d . . .
N13 N 0.8308(3) 0.0054(4) 0.6070(2) 0.0347(15) Uani 1 1 d . . .
N2 N 1.0323(3) -0.2077(4) 0.4788(2) 0.0354(16) Uani 1 1 d . . .
H2A H 1.045529 -0.196308 0.448652 0.042 Uiso 1 1 calc R . .
H2B H 0.987761 -0.226519 0.478121 0.042 Uiso 1 1 calc R . .
N4 N 0.8655(4) -0.1574(4) 0.6104(2) 0.0371(16) Uani 1 1 d . . .
N12 N 0.7626(4) -0.0128(5) 0.5333(2) 0.0424(17) Uani 1 1 d . . .
O6 O 0.9278(3) -0.0660(4) 0.2087(2) 0.0449(15) Uani 1 1 d . . .
N8 N 0.9568(3) -0.1006(4) 0.3394(2) 0.0333(15) Uani 1 1 d . . .
O9 O 0.9630(3) -0.2503(4) 0.6034(2) 0.0475(15) Uani 1 1 d . . .
N7 N 0.8582(3) -0.1433(4) 0.3757(2) 0.0359(16) Uani 1 1 d . . .
C26 C 0.8370(4) -0.0599(5) 0.3491(3) 0.0360(19) Uani 1 1 d . . .
H26 H 0.800960 -0.073444 0.324894 0.043 Uiso 1 1 calc R . .
C10 C 0.8905(4) -0.3270(5) 0.2749(3) 0.0289(17) Uani 1 1 d . . .
O11 O 0.7702(3) 0.1278(4) 0.4936(2) 0.0568(18) Uani 1 1 d . . .
N14 N 0.9258(4) 0.0424(4) 0.6498(2) 0.0383(17) Uani 1 1 d . . .
N9 N 0.9207(3) 0.0610(4) 0.3487(2) 0.0339(15) Uani 1 1 d . . .
C19 C 0.9328(4) -0.1828(5) 0.6199(3) 0.0358(19) Uani 1 1 d . . .
O1 O 1.0104(3) -0.3589(4) 0.2931(2) 0.0438(15) Uani 1 1 d . . .
C23 C 0.9283(5) -0.1644(5) 0.3704(3) 0.0342(19) Uani 1 1 d . . .
C21 C 0.8363(4) -0.2039(5) 0.4920(3) 0.0336(19) Uani 1 1 d . . .
O12 O 0.8573(4) 0.1658(4) 0.3932(2) 0.0535(17) Uani 1 1 d . . .
C14 C 0.7719(4) -0.3220(5) 0.2398(3) 0.0305(18) Uani 1 1 d . . .
O3 O 0.6716(4) -0.4038(6) 0.2652(3) 0.073(2) Uani 1 1 d . . .
O4 O 0.6761(3) -0.3604(4) 0.1890(2) 0.0479(15) Uani 1 1 d . . .
C24 C 1.0290(4) -0.1041(5) 0.3235(3) 0.0355(19) Uani 1 1 d . . .
H24A H 1.046238 -0.167097 0.326800 0.043 Uiso 1 1 calc R . .
H24B H 1.030974 -0.087778 0.289660 0.043 Uiso 1 1 calc R . .
N11 N 0.7546(4) -0.0114(5) 0.4536(3) 0.0459(18) Uani 1 1 d . . .
C15 C 0.8231(4) -0.3613(5) 0.2712(3) 0.0330(18) Uani 1 1 d . . .
H15 H 0.810517 -0.412145 0.289995 0.040 Uiso 1 1 calc R . .
O2 O 0.9285(4) -0.4443(4) 0.3291(3) 0.070(2) Uani 1 1 d . . .
C3 C 1.0778(4) -0.4546(5) 0.4918(3) 0.0374(19) Uani 1 1 d D . .
H3 H 1.077509 -0.457674 0.525256 0.045 Uiso 1 1 calc R . .
C28 C 0.7502(4) -0.1085(6) 0.5221(3) 0.041(2) Uani 1 1 d . . .
H28 H 0.706302 -0.130186 0.536646 0.049 Uiso 1 1 calc R . .
C27 C 0.7452(5) -0.1084(6) 0.4661(3) 0.040(2) Uani 1 1 d . . .
H27 H 0.699662 -0.132009 0.455033 0.049 Uiso 1 1 calc R . .
C8 C 0.9952(5) -0.0442(5) 0.4861(3) 0.045(2) Uani 1 1 d . . .
H8A H 0.945837 -0.061096 0.486193 0.054 Uiso 1 1 calc R . .
H8B H 1.009309 -0.034327 0.452977 0.054 Uiso 1 1 calc R . .
C30 C 0.9093(5) -0.0507(5) 0.6660(3) 0.039(2) Uani 1 1 d . . .
H30 H 0.900184 -0.052584 0.700655 0.047 Uiso 1 1 calc R . .
C5 C 1.0760(4) -0.3687(5) 0.4189(3) 0.0341(19) Uani 1 1 d D . .
H5 H 1.074035 -0.311631 0.403404 0.041 Uiso 1 1 calc R . .
C25 C 0.9074(4) -0.0291(5) 0.3258(3) 0.0314(17) Uani 1 1 d . . .
H25 H 0.903323 -0.023488 0.290799 0.038 Uiso 1 1 calc R . .
C13 C 0.7908(4) -0.2414(5) 0.2153(3) 0.0288(17) Uani 1 1 d . . .
H13 H 0.759168 -0.214453 0.194016 0.035 Uiso 1 1 calc R . .
C2 C 1.0807(5) -0.5347(5) 0.4646(3) 0.044(2) Uani 1 1 d D . .
H2 H 1.082413 -0.592422 0.479502 0.053 Uiso 1 1 calc R . .
C12 C 0.8564(4) -0.2006(5) 0.2223(3) 0.0286(17) Uani 1 1 d . . .
C35 C 0.8644(4) 0.0888(6) 0.3752(3) 0.038(2) Uani 1 1 d . . .
N1 N 1.0794(3) -0.4456(4) 0.3922(2) 0.0328(15) Uani 1 1 d D . .
C29 C 0.8430(4) -0.0758(5) 0.6366(3) 0.039(2) Uani 1 1 d . . .
H29 H 0.802756 -0.089210 0.657483 0.047 Uiso 1 1 calc R . .
C18 C 1.0304(4) -0.1267(6) 0.6722(3) 0.041(2) Uani 1 1 d . . .
H18A H 1.048275 -0.189088 0.667394 0.049 Uiso 1 1 calc R . .
H18B H 1.027448 -0.115842 0.706559 0.049 Uiso 1 1 calc R . .
C6 C 1.0763(5) -0.2823(6) 0.4987(3) 0.048(2) Uani 1 1 d . . .
H6A H 1.060220 -0.296703 0.530954 0.058 Uiso 1 1 calc R . .
H6B H 1.124364 -0.260318 0.501089 0.058 Uiso 1 1 calc R . .
C17 C 0.8707(4) -0.1078(5) 0.1994(3) 0.0322(18) Uani 1 1 d . . .
C4 C 1.0752(4) -0.3703(5) 0.4688(3) 0.0364(19) Uani 1 1 d D . .
C34 C 0.7518(5) 0.0256(6) 0.4045(3) 0.046(2) Uani 1 1 d . . .
H34A H 0.715679 -0.007116 0.386689 0.056 Uiso 1 1 calc R . .
H34B H 0.738696 0.090558 0.405840 0.056 Uiso 1 1 calc R . .
C7 C 1.0370(5) -0.1217(5) 0.5068(3) 0.0378(19) Uani 1 1 d . . .
H7A H 1.085893 -0.102842 0.508726 0.045 Uiso 1 1 calc R . .
H7B H 1.020828 -0.133721 0.539326 0.045 Uiso 1 1 calc R . .
C11 C 0.9071(4) -0.2451(5) 0.2504(3) 0.0303(17) Uani 1 1 d . . .
H11 H 0.952049 -0.220153 0.252909 0.036 Uiso 1 1 calc R . .
C9 C 0.9466(4) -0.3802(5) 0.3020(3) 0.0343(19) Uani 1 1 d . . .
C32 C 0.7649(4) 0.0228(6) 0.5825(3) 0.044(2) Uani 1 1 d . . .
H32A H 0.756633 0.089220 0.581688 0.053 Uiso 1 1 calc R . .
H32B H 0.727178 -0.005347 0.600780 0.053 Uiso 1 1 calc R . .
C16 C 0.7012(5) -0.3652(6) 0.2322(3) 0.039(2) Uani 1 1 d . . .
C33 C 0.7642(4) 0.0442(6) 0.4934(3) 0.042(2) Uani 1 1 d . . .
C31 C 0.8757(4) 0.0752(6) 0.6173(3) 0.0372(19) Uani 1 1 d . . .
C22 C 0.8129(5) -0.2021(5) 0.4039(3) 0.041(2) Uani 1 1 d . . .
H22A H 0.833443 -0.263616 0.405531 0.049 Uiso 1 1 calc R . .
H22B H 0.767978 -0.207483 0.387698 0.049 Uiso 1 1 calc R . .
C20 C 0.8192(5) -0.2111(6) 0.5798(3) 0.045(2) Uani 1 1 d . . .
H20A H 0.774385 -0.218316 0.596043 0.054 Uiso 1 1 calc R . .
H20B H 0.839099 -0.272471 0.575576 0.054 Uiso 1 1 calc R . .
C1 C 1.0810(4) -0.5281(5) 0.4157(3) 0.039(2) Uani 1 1 d D . .
H1 H 1.082270 -0.582421 0.397684 0.047 Uiso 1 1 calc R . .
O4W O 0.8149(5) 0.0666(7) 0.7274(4) 0.114(3) Uani 1 1 d . U .
H4W H 0.775421 0.068064 0.713103 0.172 Uiso 1 1 d R . .
O2W O 0.5829(5) -0.1154(6) 0.3799(3) 0.108(3) Uani 1 1 d . U .
H2WA H 0.545630 -0.147666 0.382385 0.162 Uiso 1 1 d R . .
H2WB H 0.573400 -0.066326 0.364245 0.162 Uiso 1 1 d R . .
O1W O 0.6837(5) -0.1805(8) 0.3150(4) 0.104(3) Uani 0.85 1 d . . P
H1WA H 0.652565 -0.159832 0.334078 0.156 Uiso 0.85 1 d R . P
H1WB H 0.683765 -0.146982 0.289818 0.156 Uiso 0.85 1 d R . P
O3W O 0.9021(7) -0.4197(10) 0.4227(5) 0.105(4) Uani 0.65 1 d . U P
H3WA H 0.910895 -0.413102 0.392894 0.157 Uiso 0.65 1 d R . P
H3WB H 0.899475 -0.366412 0.435624 0.157 Uiso 0.65 1 d R . P
loop_
_atom_site_aniso_label
_atom_site_aniso_U_11
_atom_site_aniso_U_22
_atom_site_aniso_U_33
_atom_site_aniso_U_23
_atom_site_aniso_U_13
_atom_site_aniso_U_12
Co1 0.0279(5) 0.0231(5) 0.0419(6) -0.0061(5) -0.0053(5) 0.0006(5)
O10 0.057(4) 0.027(3) 0.049(3) 0.006(3) -0.003(3) 0.006(3)
N6 0.041(4) 0.036(4) 0.039(4) 0.003(3) 0.000(3) 0.002(3)
O5 0.058(4) 0.039(4) 0.065(4) 0.020(3) -0.009(3) -0.002(3)
O8 0.038(3) 0.032(3) 0.062(4) 0.009(3) 0.000(3) 0.003(3)
O7 0.048(4) 0.025(3) 0.053(4) 0.007(3) -0.002(3) 0.008(3)
N3 0.035(4) 0.026(4) 0.051(4) 0.001(3) 0.006(3) -0.007(3)
N10 0.038(4) 0.031(4) 0.049(4) 0.002(3) 0.001(3) 0.002(3)
N5 0.040(4) 0.031(4) 0.043(4) 0.005(3) 0.002(3) 0.003(3)
N13 0.023(3) 0.033(4) 0.048(4) 0.001(3) 0.000(3) -0.001(3)
N2 0.033(4) 0.021(3) 0.052(4) -0.003(3) -0.006(3) 0.007(3)
N4 0.040(4) 0.030(4) 0.041(4) 0.005(3) -0.002(3) -0.007(3)
N12 0.050(5) 0.030(4) 0.048(4) 0.001(3) -0.001(4) 0.007(3)
O6 0.063(4) 0.022(3) 0.050(3) 0.009(3) -0.009(3) -0.012(3)
N8 0.032(4) 0.024(3) 0.043(4) 0.003(3) 0.000(3) 0.003(3)
O9 0.056(4) 0.023(3) 0.063(4) -0.001(3) -0.002(3) 0.004(3)
N7 0.034(4) 0.030(4) 0.043(4) 0.003(3) -0.002(3) 0.001(3)
C26 0.039(5) 0.031(4) 0.038(4) 0.001(4) -0.006(4) 0.000(4)
C10 0.038(5) 0.017(4) 0.031(4) -0.004(3) 0.001(3) 0.005(3)
O11 0.066(5) 0.027(4) 0.078(5) 0.000(3) 0.002(4) 0.012(3)
N14 0.054(5) 0.023(3) 0.038(4) 0.002(3) 0.002(3) -0.009(3)
N9 0.038(4) 0.026(3) 0.038(4) 0.004(3) -0.005(3) -0.003(3)
C19 0.041(5) 0.025(4) 0.041(5) 0.012(4) 0.001(4) -0.008(4)
O1 0.042(4) 0.038(3) 0.051(4) -0.002(3) -0.008(3) 0.019(3)
C23 0.052(6) 0.021(4) 0.030(4) -0.007(3) -0.009(4) -0.007(4)
C21 0.021(4) 0.025(4) 0.054(5) 0.005(4) 0.001(4) -0.006(3)
O12 0.067(4) 0.026(3) 0.067(4) -0.005(3) 0.007(3) 0.009(3)
C14 0.025(4) 0.027(4) 0.040(4) -0.002(3) 0.008(3) 0.000(3)
O3 0.059(5) 0.096(6) 0.065(5) 0.022(4) 0.014(4) -0.029(4)
O4 0.036(3) 0.038(3) 0.069(4) -0.002(3) -0.006(3) -0.014(3)
C24 0.043(5) 0.029(4) 0.034(4) -0.003(3) -0.004(4) 0.002(4)
N11 0.055(5) 0.036(4) 0.047(4) 0.006(3) 0.002(4) 0.007(4)
C15 0.041(5) 0.027(4) 0.030(4) 0.006(3) 0.005(4) 0.000(4)
O2 0.073(5) 0.037(4) 0.099(6) 0.033(4) -0.025(4) -0.012(4)
C3 0.038(5) 0.034(5) 0.040(4) 0.004(4) 0.005(4) 0.003(4)
C28 0.028(4) 0.044(5) 0.050(5) 0.002(4) 0.003(4) -0.003(4)
C27 0.033(5) 0.034(5) 0.054(5) 0.005(4) 0.003(4) 0.002(4)
C8 0.057(6) 0.019(4) 0.058(6) -0.010(4) -0.002(5) 0.008(4)
C30 0.055(5) 0.028(4) 0.035(4) 0.009(3) 0.006(4) -0.004(4)
C5 0.033(5) 0.018(4) 0.051(5) -0.004(3) -0.005(4) 0.010(3)
C25 0.035(4) 0.025(4) 0.034(4) 0.004(3) -0.006(4) 0.000(3)
C13 0.019(4) 0.029(4) 0.039(4) 0.003(3) -0.003(3) 0.005(3)
C2 0.049(5) 0.017(4) 0.067(6) 0.007(4) 0.013(5) 0.001(4)
C12 0.037(5) 0.018(4) 0.031(4) 0.001(3) -0.003(3) 0.000(3)
C35 0.040(5) 0.034(5) 0.038(5) 0.006(4) -0.003(4) 0.009(4)
N1 0.035(4) 0.023(3) 0.040(4) -0.006(3) 0.002(3) 0.002(3)
C29 0.044(5) 0.035(5) 0.038(4) 0.006(4) 0.018(4) -0.007(4)
C18 0.052(5) 0.025(4) 0.045(5) 0.006(4) -0.003(4) -0.001(4)
C6 0.070(7) 0.030(5) 0.045(5) -0.004(4) -0.011(5) 0.018(4)
C17 0.032(5) 0.025(4) 0.040(4) -0.001(3) -0.002(4) -0.001(4)
C4 0.038(5) 0.021(4) 0.050(5) -0.003(4) -0.001(4) 0.006(4)
C34 0.042(5) 0.039(5) 0.059(6) 0.013(4) -0.002(4) 0.015(4)
C7 0.047(5) 0.024(4) 0.043(5) -0.006(4) 0.004(4) 0.001(4)
C11 0.035(4) 0.022(4) 0.034(4) -0.004(3) -0.001(4) -0.008(4)
C9 0.032(5) 0.025(4) 0.046(5) -0.004(4) -0.009(4) 0.015(4)
C32 0.035(5) 0.042(5) 0.056(5) -0.004(4) 0.010(4) 0.005(4)
C16 0.040(5) 0.029(4) 0.048(5) -0.001(4) 0.010(4) 0.002(4)
C33 0.021(4) 0.041(6) 0.065(6) 0.000(5) 0.003(4) 0.005(4)
C31 0.039(5) 0.038(5) 0.035(4) -0.002(4) 0.009(4) 0.004(4)
C22 0.046(5) 0.021(4) 0.055(5) 0.001(4) 0.000(4) -0.005(4)
C20 0.054(6) 0.028(5) 0.052(5) 0.004(4) -0.001(5) -0.013(4)
C1 0.044(5) 0.013(4) 0.060(6) -0.004(4) 0.008(4) 0.001(3)
O4W 0.106(6) 0.089(6) 0.147(7) 0.004(5) 0.009(5) 0.027(5)
O2W 0.130(7) 0.073(5) 0.120(6) 0.019(5) 0.019(5) -0.010(5)
O1W 0.091(8) 0.107(9) 0.113(8) -0.004(7) 0.017(7) 0.000(7)
O3W 0.104(8) 0.082(7) 0.128(8) 0.000(7) 0.005(7) -0.003(7)
loop_
_atom_type_symbol
_atom_type_description
_atom_type_scat_dispersion_real
_atom_type_scat_dispersion_imag
_atom_type_scat_source
C C 0.0033 0.0016 'International Tables Vol C Tables 4.2.6.8 and 6.1.1.4'
H H 0.0000 0.0000 'International Tables Vol C Tables 4.2.6.8 and 6.1.1.4'
Co Co 0.3494 0.9721 'International Tables Vol C Tables 4.2.6.8 and 6.1.1.4'
N N 0.0061 0.0033 'International Tables Vol C Tables 4.2.6.8 and 6.1.1.4'
O O 0.0106 0.0060 'International Tables Vol C Tables 4.2.6.8 and 6.1.1.4'
loop_
_geom_angle_atom_site_label_1
_geom_angle_atom_site_label_2
_geom_angle_atom_site_label_3
_geom_angle
_geom_angle_site_symmetry_1
_geom_angle_site_symmetry_3
O6 Co1 N1 106.9(2) 4_745 .
O1 Co1 O6 106.5(2) . 4_745
O1 Co1 O4 106.3(3) . 6_656
O1 Co1 N1 108.1(2) . .
O4 Co1 O6 126.9(3) 6_656 4_745
O4 Co1 N1 101.0(3) 6_656 .
C21 N6 C27 112.5(7) . .
C21 N6 C22 122.6(7) . .
C27 N6 C22 124.2(7) . .
C19 N3 C30 111.6(7) . .
C19 N3 C18 124.8(7) . .
C18 N3 C30 123.5(7) . .
C26 N10 C34 124.8(7) . .
C35 N10 C26 111.9(7) . .
C35 N10 C34 122.5(7) . .
C21 N5 C28 111.8(7) . .
C21 N5 C20 122.9(7) . .
C28 N5 C20 123.7(7) . .
C32 N13 C29 123.0(7) . .
C31 N13 C29 112.2(7) . .
C31 N13 C32 121.3(7) . .
C7 N2 C6 112.5(6) . .
C19 N4 C29 113.6(7) . .
C19 N4 C20 123.0(7) . .
C29 N4 C20 123.2(7) . .
C28 N12 C32 123.2(7) . .
C33 N12 C28 113.6(7) . .
C33 N12 C32 122.8(7) . .
C17 O6 Co1 103.4(5) . 4_755
C23 N8 C24 123.0(7) . .
C23 N8 C25 112.7(6) . .
C24 N8 C25 124.3(6) . .
C23 N7 C26 113.2(6) . .
C23 N7 C22 120.6(7) . .
C22 N7 C26 126.3(7) . .
N10 C26 N7 114.1(6) . .
N10 C26 C25 104.0(6) . .
N7 C26 C25 102.0(6) . .
C15 C10 C11 118.6(7) . .
C15 C10 C9 120.7(7) . .
C11 C10 C9 120.6(7) . .
C24 N14 C30 122.7(7) 5_756 .
C31 N14 C24 122.1(7) . 5_756
C31 N14 C30 111.5(7) . .
C35 N9 C25 111.0(6) . .
C35 N9 C18 122.0(7) . 5_756
C18 N9 C25 121.1(6) 5_756 .
N4 C19 N3 108.4(7) . .
O9 C19 N3 125.7(8) . .
O9 C19 N4 125.9(8) . .
C9 O1 Co1 120.7(5) . .
O7 C23 N8 125.8(8) . .
O7 C23 N7 126.6(8) . .
N8 C23 N7 107.5(7) . .
O8 C21 N6 125.1(8) . .
O8 C21 N5 125.9(8) . .
N5 C21 N6 109.0(7) . .
C15 C14 C16 122.3(7) . .
C13 C14 C15 117.0(7) . .
C13 C14 C16 120.6(7) . .
C16 O4 Co1 111.1(5) . 6_556
N14 C24 N8 112.9(6) 5_756 .
C27 N11 C34 124.6(7) . .
C33 N11 C27 112.5(7) . .
C33 N11 C34 122.8(7) . .
C10 C15 C14 122.5(7) . .
C4 C3 C2 119.0(7) . .
N5 C28 N12 115.9(7) . .
N5 C28 C27 104.3(7) . .
N12 C28 C27 103.1(7) . .
N6 C27 N11 115.6(7) . .
N6 C27 C28 102.4(7) . .
N11 C27 C28 103.4(7) . .
C7 C8 C8 111.8(9) . 5_756
N3 C30 C29 104.1(6) . .
N14 C30 N3 114.1(7) . .
N14 C30 C29 103.3(6) . .
N1 C5 C4 122.9(7) . .
N8 C25 C26 104.4(6) . .
N8 C25 N9 113.9(6) . .
N9 C25 C26 102.8(6) . .
C12 C13 C14 121.0(7) . .
C1 C2 C3 119.3(7) . .
C13 C12 C17 118.6(7) . .
C13 C12 C11 120.2(7) . .
C11 C12 C17 121.2(7) . .
N9 C35 N10 109.3(7) . .
O12 C35 N10 125.6(8) . .
O12 C35 N9 125.1(8) . .
C5 N1 Co1 120.5(5) . .
C5 N1 C1 117.4(7) . .
C1 N1 Co1 122.0(5) . .
N13 C29 C30 104.0(6) . .
N4 C29 N13 114.7(6) . .
N4 C29 C30 102.3(7) . .
N3 C18 N9 112.9(6) . 5_756
N2 C6 C4 113.4(7) . .
O5 C17 O6 121.8(7) . .
O5 C17 C12 118.7(7) . .
O6 C17 C12 119.3(7) . .
C3 C4 C5 118.7(7) . .
C3 C4 C6 118.9(7) . .
C5 C4 C6 122.3(7) . .
N10 C34 N11 113.1(7) . .
N2 C7 C8 113.2(7) . .
C10 C11 C12 120.2(7) . .
O1 C9 C10 116.9(7) . .
O2 C9 C10 118.9(8) . .
O2 C9 O1 124.1(7) . .
N13 C32 N12 113.9(7) . .
O3 C16 C14 120.2(8) . .
O3 C16 O4 123.7(8) . .
O4 C16 C14 116.1(7) . .
O11 C33 N12 126.2(9) . .
O11 C33 N11 126.5(9) . .
N11 C33 N12 107.3(7) . .
O10 C31 N13 126.2(8) . .
O10 C31 N14 125.1(8) . .
N13 C31 N14 108.6(7) . .
N7 C22 N6 113.9(6) . .
N4 C20 N5 114.6(6) . .
N1 C1 C2 122.8(7) . .
loop_
_geom_bond_atom_site_label_1
_geom_bond_atom_site_label_2
_geom_bond_distance
_geom_bond_site_symmetry_2
Co1 O6 2.021(5) 4_745
Co1 O1 1.983(5) .
Co1 O4 2.008(5) 6_656
Co1 N1 2.088(6) .
O10 C31 1.229(10) .
N6 C21 1.379(10) .
N6 C27 1.421(10) .
N6 C22 1.458(10) .
O5 C17 1.257(9) .
O8 C21 1.233(9) .
O7 C23 1.218(9) .
N3 C19 1.368(10) .
N3 C30 1.458(10) .
N3 C18 1.446(10) .
N10 C26 1.435(10) .
N10 C35 1.367(10) .
N10 C34 1.446(11) .
N5 C21 1.348(10) .
N5 C28 1.427(10) .
N5 C20 1.459(10) .
N13 C29 1.451(10) .
N13 C32 1.448(10) .
N13 C31 1.351(10) .
N2 C6 1.472(10) .
N2 C7 1.467(9) .
N4 C19 1.358(10) .
N4 C29 1.448(10) .
N4 C20 1.449(10) .
N12 C28 1.432(11) .
N12 C32 1.459(10) .
N12 C33 1.382(11) .
O6 C17 1.270(9) .
N8 C23 1.372(10) .
N8 C24 1.445(10) .
N8 C25 1.445(9) .
O9 C19 1.219(10) .
N7 C26 1.468(10) .
N7 C23 1.377(10) .
N7 C22 1.440(10) .
C26 C25 1.552(11) .
C10 C15 1.380(11) .
C10 C11 1.397(10) .
C10 C9 1.516(10) .
O11 C33 1.210(10) .
N14 C24 1.443(10) 5_756
N14 C30 1.449(10) .
N14 C31 1.395(10) .
N9 C25 1.467(10) .
N9 C35 1.362(10) .
N9 C18 1.449(10) 5_756
O1 C9 1.276(10) .
O12 C35 1.224(10) .
C14 C15 1.426(11) .
C14 C13 1.393(10) .
C14 C16 1.499(11) .
O3 C16 1.210(10) .
O4 C16 1.294(10) .
N11 C27 1.452(10) .
N11 C34 1.465(10) .
N11 C33 1.379(11) .
O2 C9 1.241(10) .
C3 C2 1.381(10) .
C3 C4 1.374(11) .
C28 C27 1.561(11) .
C8 C8 1.502(15) 5_756
C8 C7 1.488(11) .
C30 C29 1.547(12) .
C5 N1 1.335(9) .
C5 C4 1.387(10) .
C13 C12 1.393(10) .
C2 C1 1.363(12) .
C12 C17 1.506(10) .
C12 C11 1.399(10) .
N1 C1 1.356(9) .
C6 C4 1.516(11) .
