#------------------------------------------------------------------------------
#$Date: 2019-11-08 00:27:12 +0200 (Fri, 08 Nov 2019) $
#$Revision: 224262 $
#$URL: file:///home/coder/svn-repositories/cod/cif/7/70/12/7701226.cif $
#------------------------------------------------------------------------------
#
# This file is available in the Crystallography Open Database (COD),
# http://www.crystallography.net/
#
# All data on this site have been placed in the public domain by the
# contributors.
#
data_7701226
loop_
_publ_author_name
'Stein, Timo'
'Hoffmann, Frank'
'Fr\"oba, Michael'
_publ_section_title
;
 A new set of metal-organic frameworks synthesised from
 diisophthalate-based, 2'-phosphorus-substituted m-terphenyl linker
 molecules.
;
_journal_issue                   40
_journal_name_full
'Dalton transactions (Cambridge, England : 2003)'
_journal_page_first              15127
_journal_page_last               15135
_journal_paper_doi               10.1039/c9dt03044a
_journal_volume                  48
_journal_year                    2019
_chemical_formula_sum            'C38 H31 O9 P'
_chemical_formula_weight         662.60
_chemical_name_systematic
'(3,3??,5,5??-Tetramethoxycarbonyl-1,1?:3?,1??-terphen-2?-yl)diphenylphosphane oxide'
_space_group_crystal_system      triclinic
_space_group_IT_number           2
_space_group_name_Hall           '-P 1'
_space_group_name_H-M_alt        'P -1'
_symmetry_space_group_name_Hall  '-P 1'
_symmetry_space_group_name_H-M   'P -1'
_atom_sites_solution_hydrogens   geom
_audit_creation_method           SHELXL-2018/3
_audit_update_record
;
2019-07-24 deposited with the CCDC.    2019-08-14 downloaded from the CCDC.
;
_cell_angle_alpha                101.701(3)
_cell_angle_beta                 97.017(3)
_cell_angle_gamma                102.970(4)
_cell_formula_units_Z            2
_cell_length_a                   8.2514(4)
_cell_length_b                   11.6965(5)
_cell_length_c                   17.6863(6)
_cell_measurement_reflns_used    15424
_cell_measurement_temperature    100(2)
_cell_measurement_theta_max      76.1710
_cell_measurement_theta_min      3.9750
_cell_volume                     1603.49(12)
_computing_cell_refinement       'CrysAlisPro 1.171.38.46 (Rigaku OD, 2015)'
_computing_data_collection       'CrysAlisPro 1.171.38.46 (Rigaku OD, 2015)'
_computing_data_reduction        'CrysAlisPro 1.171.38.46 (Rigaku OD, 2015)'
_computing_structure_refinement  'SHELXL-2018/3 (Sheldrick, 2018)'
_computing_structure_solution    'SHELXT-2018/2 (Sheldrick, 2018)'
_diffrn_ambient_temperature      100(2)
_diffrn_detector                 'CCD plate'
_diffrn_detector_area_resol_mean 5.2063
_diffrn_detector_type            Atlas
_diffrn_measured_fraction_theta_full 0.999
_diffrn_measured_fraction_theta_max 0.976
_diffrn_measurement_details
;
List of Runs (angles in degrees, time in seconds):

  # Type    Start    End  Width  t~exp~   \w     \q     \k     \f   Frames
#--------------------------------------------------------------------------
  1  \w    -96.00  -2.00   1.00    1.00    --  -41.85 125.00   0.00   94
  2  \w   -116.00 -17.00   1.00    1.00    --  -41.85 -38.00-150.00   99
  3  \w   -122.00  -1.00   1.00    1.00    --  -41.85 -19.00 -90.00  121
  4  \w     23.00  98.00   1.00    1.00    --   41.85-125.00 -30.00   75
  5  \w      1.00  83.00   1.00    1.00    --   41.85 -99.00  90.00   82
  6  \w      1.00  83.00   1.00    1.00    --   41.85 -99.00-180.00   82
  7  \w     36.00 116.00   1.00    4.00    --  112.00-111.00 -30.00   80
  8  \w     36.00 116.00   1.00    4.00    --  112.00-111.00 120.00   80
  9  \w     40.00 141.00   1.00    4.00    --  112.00 -61.00 -60.00  101
 10  \w    100.00 178.00   1.00    4.00    --  112.00 111.00 -30.00   78
 11  \w     29.00 109.00   1.00    4.00    --  112.00 -94.00 150.00   80
 12  \w     29.00 109.00   1.00    4.00    --  112.00 -94.00-120.00   80
 13  \w     36.00 116.00   1.00    4.00    --  112.00-111.00  30.00   80
 14  \w     86.00 178.00   1.00    4.00    --  112.00  45.00  90.00   92
 15  \w     84.00 178.00   1.00    4.00    --  112.00  30.00   0.00   94
 16  \w    100.00 178.00   1.00    4.00    --  112.00 111.00 -90.00   78
 17  \w    100.00 178.00   1.00    4.00    --  112.00 111.00  30.00   78
 18  \w     29.00 109.00   1.00    4.00    --  112.00 -94.00  60.00   80
 19  \w     39.00 138.00   1.00    4.00    --  112.00 -45.00 120.00   99
 20  \w     29.00 109.00   1.00    4.00    --  112.00 -94.00 120.00   80
 21  \w    100.00 178.00   1.00    4.00    --  112.00 111.00 -60.00   78
 22  \w     36.00 116.00   1.00    4.00    --  112.00-111.00-150.00   80
 23  \w     80.00 178.00   1.00    4.00    --  112.00  75.00   7.16   98
 24  \w     79.00 178.00   1.00    4.00    --  112.00  77.00  90.00   99
 25  \w     29.00 109.00   1.00    4.00    --  112.00 -94.00 -30.00   80
 26  \w     79.00 178.00   1.00    4.00    --  112.00  77.00 -90.00   99
 27  \w     57.00 151.00   1.00    4.00    --  112.00 178.00 -30.00   94
 28  \w   -118.00  -9.00   1.00    1.00    --  -41.85 -77.00  90.00  109
 29  \w   -118.00  -9.00   1.00    1.00    --  -41.85 -77.00 120.00  109
 30  \w   -118.00  -9.00   1.00    1.00    --  -41.85 -77.00-180.00  109
 31  \w    -74.00  34.00   1.00    1.00    --  -41.85  77.00 -30.00  108
 32  \w      9.00 118.00   1.00    1.00    --   41.85  77.00 -60.00  109
 33  \w      9.00 118.00   1.00    1.00    --   41.85  77.00  30.00  109
 34  \w     84.00 178.00   1.00    4.00    --  112.00  30.00-180.00   94
 35  \w     86.00 178.00   1.00    4.00    --  112.00  45.00  60.00   92
 36  \w     79.00 178.00   1.00    4.00    --  112.00  77.00-180.00   99
 37  \w     80.00 160.00   1.00    4.00    --  112.00  73.00 117.95   80
 38  \w     86.00 178.00   1.00    4.00    --  112.00  45.00-120.00   92
;
_diffrn_measurement_device       'four-circle diffractometer'
_diffrn_measurement_device_type  'SuperNova, Dual, Cu at zero, Atlas'
_diffrn_measurement_method       '\w scans'
_diffrn_orient_matrix_type
'CrysAlisPro convention (1999,Acta A55,543-557)'
_diffrn_orient_matrix_UB_11      0.0862054000
_diffrn_orient_matrix_UB_12      -0.0703452000
_diffrn_orient_matrix_UB_13      -0.0591656000
_diffrn_orient_matrix_UB_21      -0.1388492000
_diffrn_orient_matrix_UB_22      -0.1163280000
_diffrn_orient_matrix_UB_23      -0.0073124000
_diffrn_orient_matrix_UB_31      -0.1056701000
_diffrn_orient_matrix_UB_32      0.0297429000
_diffrn_orient_matrix_UB_33      -0.0679028000
_diffrn_radiation_monochromator  mirror
_diffrn_radiation_probe          x-ray
_diffrn_radiation_type           CuK\a
_diffrn_radiation_wavelength     1.54184
_diffrn_reflns_av_R_equivalents  0.0509
_diffrn_reflns_av_unetI/netI     0.0291
_diffrn_reflns_Laue_measured_fraction_full 0.999
_diffrn_reflns_Laue_measured_fraction_max 0.976
_diffrn_reflns_limit_h_max       10
_diffrn_reflns_limit_h_min       -10
_diffrn_reflns_limit_k_max       14
_diffrn_reflns_limit_k_min       -14
_diffrn_reflns_limit_l_max       22
_diffrn_reflns_limit_l_min       -22
_diffrn_reflns_number            32088
_diffrn_reflns_point_group_measured_fraction_full 0.999
_diffrn_reflns_point_group_measured_fraction_max 0.976
_diffrn_reflns_theta_full        67.684
_diffrn_reflns_theta_max         77.664
_diffrn_reflns_theta_min         3.993
_diffrn_source                   'micro-focus sealed X-ray tube'
_diffrn_source_type              'SuperNova (Cu) X-ray Source'
_exptl_absorpt_coefficient_mu    1.254
_exptl_absorpt_correction_T_max  1.00000
_exptl_absorpt_correction_T_min  0.64349
_exptl_absorpt_correction_type   multi-scan
_exptl_absorpt_process_details
;
CrysAlisPro 1.171.38.46 (Rigaku Oxford Diffraction, 2015)
Empirical absorption correction using spherical harmonics,
 implemented in SCALE3 ABSPACK scaling algorithm.
;
_exptl_crystal_colour            colorless
_exptl_crystal_density_diffrn    1.372
_exptl_crystal_description       block
_exptl_crystal_F_000             692
_exptl_crystal_recrystallization_method
'crystallization was induced by gas phase diffusion of n-hexane into a deuterochloroform solution containing the compound as a by-product.'
_exptl_crystal_size_max          0.400
_exptl_crystal_size_mid          0.300
_exptl_crystal_size_min          0.250
_refine_diff_density_max         0.565
_refine_diff_density_min         -0.372
_refine_diff_density_rms         0.059
_refine_ls_extinction_method     none
_refine_ls_goodness_of_fit_ref   1.033
_refine_ls_hydrogen_treatment    constr
_refine_ls_matrix_type           full
_refine_ls_number_parameters     437
_refine_ls_number_reflns         6679
_refine_ls_number_restraints     0
_refine_ls_restrained_S_all      1.033
_refine_ls_R_factor_all          0.0510
_refine_ls_R_factor_gt           0.0450
_refine_ls_shift/su_max          0.001
_refine_ls_shift/su_mean         0.000
_refine_ls_structure_factor_coef Fsqd
_refine_ls_weighting_details
'w=1/[\s^2^(Fo^2^)+(0.0795P)^2^+0.4780P] where P=(Fo^2^+2Fc^2^)/3'
_refine_ls_weighting_scheme      calc
_refine_ls_wR_factor_gt          0.1206
_refine_ls_wR_factor_ref         0.1275
_reflns_Friedel_coverage         0.000
_reflns_number_gt                5812
_reflns_number_total             6679
_reflns_threshold_expression     'I > 2\s(I)'
_cod_data_source_file            c9dt03044a2.cif
_cod_data_source_block           3dtriclinic
_cod_depositor_comments
'Adding full bibliography for 7701221--7701232.cif.'
_cod_database_code               7701226
_shelx_shelxl_version_number     2018/3
_shelx_space_group_comment
;
The symmetry employed for this shelxl refinement is uniquely defined
by the following loop, which should always be used as a source of
symmetry information in preference to the above space-group names.
They are only intended as comments.
;
_cell_oxdiff_length_a            8.2514(4)
_cell_oxdiff_length_b            11.6965(5)
_cell_oxdiff_length_c            17.6863(6)
_cell_oxdiff_angle_alpha         101.701(3)
_cell_oxdiff_angle_beta          97.017(3)
_cell_oxdiff_angle_gamma         102.970(4)
_cell_oxdiff_volume              1603.49(11)
_cell_oxdiff_measurement_reflns_used 15424
_shelx_estimated_absorpt_t_min   0.634
_shelx_estimated_absorpt_t_max   0.745
_oxdiff_exptl_absorpt_empirical_full_min 0.481
_oxdiff_exptl_absorpt_empirical_full_max 2.439
_oxdiff_exptl_absorpt_empirical_details
;
Empirical correction (ABSPACK) includes:
- Absorption correction using spherical harmonics
- Frame scaling
;
_shelx_res_file
;
TITL shelxt_a.res in P-1
    shelx.res
    created by SHELXL-2018/3 at 06:38:26 on 21-Jan-2019
CELL  1.54184   8.2514  11.6965  17.6863  101.701   97.017  102.970
ZERR     2.00   0.0004   0.0005   0.0006    0.003    0.003    0.004
LATT   1
SFAC  C    H    O    P
UNIT  76 62 18 2
MERG   2
OMIT    -2   1   0
FMAP   2
PLAN   20
MORE -1
SIZE     0.25   0.30   0.40
ACTA
BOND   $H
LIST   6
L.S.  10
TEMP  -173.00
WGHT    0.079500    0.478000
FVAR       6.71988
C10   1    0.389123    0.600968    0.727945    11.00000    0.02369    0.02327 =
         0.01944    0.00650    0.00223    0.00712
C11   1    0.394500    0.517514    0.775336    11.00000    0.02526    0.02692 =
         0.02002    0.00834    0.00229    0.00885
C12   1    0.286441    0.401264    0.750215    11.00000    0.03060    0.02825 =
         0.02573    0.01338    0.00128    0.00633
AFIX  43
H12   2    0.291799    0.344706    0.781547    11.00000   -1.20000
AFIX   0
C13   1    0.171541    0.366866    0.680437    11.00000    0.03091    0.02844 =
         0.02944    0.01157   -0.00119    0.00166
AFIX  43
H13   2    0.102817    0.286421    0.662760    11.00000   -1.20000
AFIX   0
C14   1    0.158345    0.451622    0.636776    11.00000    0.02665    0.03243 =
         0.02351    0.00979   -0.00126    0.00454
AFIX  43
H14   2    0.076573    0.429395    0.590099    11.00000   -1.20000
AFIX   0
C15   1    0.262289    0.568033    0.660059    11.00000    0.02478    0.02777 =
         0.02106    0.00928    0.00264    0.00825
C20   1    0.506791    0.545362    0.853003    11.00000    0.02460    0.02722 =
         0.02165    0.01179    0.00355    0.00624
C21   1    0.516716    0.647269    0.911620    11.00000    0.02438    0.02739 =
         0.02360    0.01223    0.00438    0.00776
AFIX  43
H21   2    0.455622    0.704060    0.901655    11.00000   -1.20000
AFIX   0
C22   1    0.616475    0.666365    0.985248    11.00000    0.02560    0.02727 =
         0.02333    0.01051    0.00406    0.00548
C23   1    0.705544    0.582941    1.000300    11.00000    0.02478    0.02931 =
         0.02294    0.01094    0.00019    0.00518
AFIX  43
H23   2    0.772068    0.595515    1.050484    11.00000   -1.20000
AFIX   0
C24   1    0.697023    0.481679    0.942051    11.00000    0.02410    0.02874 =
         0.02483    0.01220    0.00281    0.00683
C25   1    0.597359    0.462682    0.869017    11.00000    0.02677    0.02656 =
         0.02235    0.00947    0.00442    0.00803
AFIX  43
H25   2    0.590713    0.392578    0.829464    11.00000   -1.20000
AFIX   0
C26   1    0.629200    0.771683    1.050898    11.00000    0.02824    0.02885 =
         0.02699    0.00979    0.00286    0.00517
C27   1    0.549740    0.950854    1.094474    11.00000    0.04403    0.03081 =
         0.03542    0.00221    0.00711    0.01158
AFIX 137
H27A  2    0.498619    0.921839    1.136505    11.00000   -1.50000
H27B  2    0.487192    1.003972    1.074855    11.00000   -1.50000
H27C  2    0.667609    0.995788    1.114912    11.00000   -1.50000
AFIX   0
C28   1    0.792403    0.394161    0.961315    11.00000    0.02663    0.03121 =
         0.02999    0.01366    0.00202    0.00779
C29   1    0.866914    0.213397    0.914025    11.00000    0.04590    0.03884 =
         0.05138    0.01315    0.00162    0.02444
AFIX 137
H29A  2    0.989148    0.249384    0.926043    11.00000   -1.50000
H29B  2    0.839899    0.146288    0.867375    11.00000   -1.50000
H29C  2    0.830074    0.183321    0.958590    11.00000   -1.50000
AFIX   0
C30   1    0.230523    0.654504    0.611424    11.00000    0.02080    0.02737 =
         0.02318    0.00978   -0.00214    0.00420
C31   1    0.174598    0.754789    0.642428    11.00000    0.02279    0.02947 =
         0.02175    0.01016    0.00115    0.00531
AFIX  43
H31   2    0.154587    0.768760    0.694876    11.00000   -1.20000
AFIX   0
C32   1    0.147783    0.835261    0.596169    11.00000    0.02270    0.02787 =
         0.02383    0.00994    0.00112    0.00619
C33   1    0.177708    0.816256    0.519552    11.00000    0.02381    0.02754 =
         0.02291    0.01036    0.00009    0.00586
AFIX  43
H33   2    0.161492    0.871870    0.488764    11.00000   -1.20000
AFIX   0
C34   1    0.231772    0.714782    0.488256    11.00000    0.02472    0.02810 =
         0.02138    0.00867   -0.00123    0.00482
C35   1    0.254433    0.633107    0.533833    11.00000    0.02487    0.02494 =
         0.02281    0.00643   -0.00149    0.00549
AFIX  43
H35   2    0.286483    0.562282    0.511592    11.00000   -1.20000
AFIX   0
C36   1    0.095551    0.946502    0.629333    11.00000    0.02557    0.02895 =
         0.02482    0.00974    0.00216    0.00633
C37   1   -0.010896    1.046776    0.732792    11.00000    0.04296    0.03131 =
         0.02968    0.00836    0.00987    0.01370
AFIX 137
H37A  2    0.091502    1.110963    0.757489    11.00000   -1.50000
H37B  2   -0.077731    1.027771    0.772871    11.00000   -1.50000
H37C  2   -0.077931    1.073918    0.693650    11.00000   -1.50000
AFIX   0
C38   1    0.273508    0.689734    0.408266    11.00000    0.03077    0.02734 =
         0.02132    0.00857    0.00004    0.00820
C39   1    0.319496    0.763691    0.297183    11.00000    0.07496    0.04580 =
         0.02916    0.01869    0.02044    0.03212
AFIX 137
H39A  2    0.430969    0.746939    0.300256    11.00000   -1.50000
H39B  2    0.322569    0.836252    0.277182    11.00000   -1.50000
H39C  2    0.235387    0.694887    0.261757    11.00000   -1.50000
AFIX   0
C40   1    0.743425    0.744617    0.799319    11.00000    0.02420    0.02790 =
         0.02163    0.01216    0.00179    0.00499
C41   1    0.827519    0.846736    0.857670    11.00000    0.02893    0.02969 =
         0.02666    0.01179    0.00176    0.00611
AFIX  43
H41   2    0.771374    0.907546    0.874178    11.00000   -1.20000
AFIX   0
C42   1    0.994341    0.860413    0.892195    11.00000    0.03092    0.03486 =
         0.03140    0.01138   -0.00413    0.00144
AFIX  43
H42   2    1.052071    0.930718    0.931783    11.00000   -1.20000
AFIX   0
C43   1    1.075252    0.771161    0.868523    11.00000    0.02533    0.04475 =
         0.03779    0.02222    0.00013    0.00693
AFIX  43
H43   2    1.189494    0.781101    0.891201    11.00000   -1.20000
AFIX   0
C44   1    0.990474    0.667294    0.811879    11.00000    0.02956    0.03934 =
         0.03378    0.01940    0.00709    0.01391
AFIX  43
H44   2    1.045636    0.605247    0.797113    11.00000   -1.20000
AFIX   0
C45   1    0.824821    0.653668    0.776592    11.00000    0.02840    0.03066 =
         0.02571    0.01244    0.00376    0.00889
AFIX  43
H45   2    0.767301    0.582975    0.737274    11.00000   -1.20000
AFIX   0
C46   1    0.592981    0.771794    0.655517    11.00000    0.02278    0.02798 =
         0.02280    0.01105   -0.00023    0.00442
C47   1    0.581260    0.880238    0.637025    11.00000    0.02783    0.02767 =
         0.03001    0.01102   -0.00210    0.00473
AFIX  43
H47   2    0.540997    0.936826    0.671377    11.00000   -1.20000
AFIX   0
C48   1    0.628682    0.905460    0.568102    11.00000    0.03281    0.03386 =
         0.03629    0.02090   -0.00266    0.00213
AFIX  43
H48   2    0.620624    0.979430    0.555542    11.00000   -1.20000
AFIX   0
C49   1    0.687192    0.823974    0.517990    11.00000    0.03137    0.04826 =
         0.03123    0.02276    0.00444    0.00449
AFIX  43
H49   2    0.720044    0.842016    0.471209    11.00000   -1.20000
AFIX   0
C50   1    0.698229    0.714724    0.535975    11.00000    0.03240    0.04492 =
         0.02966    0.01473    0.00797    0.01223
AFIX  43
H50   2    0.737717    0.658186    0.501198    11.00000   -1.20000
AFIX   0
C51   1    0.651484    0.688752    0.604687    11.00000    0.02877    0.03243 =
         0.02674    0.01339    0.00378    0.00964
AFIX  43
H51   2    0.659328    0.614616    0.617045    11.00000   -1.20000
AFIX   0
O20   3    0.708312    0.786221    1.115854    11.00000    0.04580    0.03556 =
         0.02651    0.00375   -0.00560    0.01050
O21   3    0.543518    0.848569    1.030988    11.00000    0.04248    0.03121 =
         0.02811    0.00588    0.00339    0.01477
O22   3    0.870109    0.403322    1.025630    11.00000    0.04308    0.03874 =
         0.03431    0.01328   -0.00676    0.01620
O23   3    0.780877    0.303588    0.899387    11.00000    0.03988    0.03588 =
         0.03251    0.01207    0.00318    0.02017
O30   3    0.108201    1.032459    0.600441    11.00000    0.05461    0.03366 =
         0.03842    0.01932    0.01974    0.01905
O31   3    0.035304    0.940610    0.695165    11.00000    0.03978    0.02979 =
         0.02674    0.01138    0.00938    0.01320
O32   3    0.305243    0.597829    0.376999    11.00000    0.05178    0.03022 =
         0.02641    0.00909    0.00606    0.01588
O33   3    0.274806    0.782771    0.374056    11.00000    0.05444    0.03477 =
         0.02449    0.01489    0.01182    0.02103
O40   3    0.478121    0.848816    0.791518    11.00000    0.02945    0.02804 =
         0.02720    0.00645    0.00050    0.00911
P40   4    0.540600    0.748974    0.748932    11.00000    0.02350    0.02260 =
         0.02050    0.00800    0.00056    0.00665
HKLF    4




REM  shelxt_a.res in P-1
REM wR2 = 0.1275, GooF = S = 1.033, Restrained GooF = 1.033 for all data
REM R1 = 0.0450 for 5812 Fo > 4sig(Fo) and 0.0510 for all 6679 data
REM 437 parameters refined using 0 restraints

END

WGHT      0.0795      0.4781

REM Highest difference peak  0.565,  deepest hole -0.372,  1-sigma level  0.059
Q1    1   0.5226  0.7995  0.7852  11.00000  0.05    0.57
Q2    1   0.5691  0.7399  0.6981  11.00000  0.05    0.49
Q3    1   0.2470  0.7072  0.4509  11.00000  0.05    0.39
Q4    1   0.1142  0.8814  0.6093  11.00000  0.05    0.37
Q5    1   0.1673  0.8369  0.5614  11.00000  0.05    0.37
Q6    1   0.4437  0.9065  0.8400  11.00000  0.05    0.34
Q7    1   0.2036  0.7557  0.4986  11.00000  0.05    0.33
Q8    1   0.5086  0.6021  0.8778  11.00000  0.05    0.33
Q9    1   0.7530  0.7869  0.8469  11.00000  0.05    0.32
Q10   1   0.4607  0.6606  0.7273  11.00000  0.05    0.32
Q11   1   0.7261  0.5376  0.9610  11.00000  0.05    0.32
Q12   1   0.6222  0.7389  0.6318  11.00000  0.05    0.29
Q13   1   0.6241  0.7230  1.0110  11.00000  0.05    0.28
Q14   1   0.8170  0.8053  0.8117  11.00000  0.05    0.27
Q15   1   0.2243  0.7144  0.6344  11.00000  0.05    0.27
Q16   1   0.7692  0.6987  0.7973  11.00000  0.05    0.27
Q17   1   0.5793  0.6974  1.0175  11.00000  0.05    0.27
Q18   1   0.7908  0.7123  0.7706  11.00000  0.05    0.26
Q19   1   0.2235  0.6389  0.5718  11.00000  0.05    0.26
Q20   1   0.9795  0.7012  0.8525  11.00000  0.05    0.25
;
_shelx_res_checksum              5477
loop_
_space_group_symop_operation_xyz
'x, y, z'
'-x, -y, -z'
loop_
_atom_site_label
_atom_site_type_symbol
_atom_site_fract_x
_atom_site_fract_y
_atom_site_fract_z
_atom_site_U_iso_or_equiv
_atom_site_adp_type
_atom_site_occupancy
_atom_site_site_symmetry_order
_atom_site_calc_flag
_atom_site_refinement_flags_posn
_atom_site_refinement_flags_adp
C10 C 0.38912(18) 0.60097(13) 0.72794(9) 0.0219(3) Uani 1 1 d . .
C11 C 0.39450(19) 0.51751(14) 0.77534(9) 0.0235(3) Uani 1 1 d . .
C12 C 0.2864(2) 0.40126(14) 0.75022(9) 0.0277(3) Uani 1 1 d . .
H12 H 0.291799 0.344706 0.781547 0.033 Uiso 1 1 calc R U
C13 C 0.1715(2) 0.36687(15) 0.68044(10) 0.0305(3) Uani 1 1 d . .
H13 H 0.102817 0.286421 0.662760 0.037 Uiso 1 1 calc R U
C14 C 0.1583(2) 0.45162(15) 0.63678(9) 0.0281(3) Uani 1 1 d . .
H14 H 0.076573 0.429395 0.590099 0.034 Uiso 1 1 calc R U
C15 C 0.26229(19) 0.56803(14) 0.66006(9) 0.0239(3) Uani 1 1 d . .
C20 C 0.50679(19) 0.54536(14) 0.85300(9) 0.0237(3) Uani 1 1 d . .
C21 C 0.51672(19) 0.64727(14) 0.91162(9) 0.0240(3) Uani 1 1 d . .
H21 H 0.455622 0.704060 0.901655 0.029 Uiso 1 1 calc R U
C22 C 0.61648(19) 0.66637(14) 0.98525(9) 0.0250(3) Uani 1 1 d . .
C23 C 0.70554(19) 0.58294(14) 1.00030(9) 0.0256(3) Uani 1 1 d . .
H23 H 0.772068 0.595515 1.050484 0.031 Uiso 1 1 calc R U
C24 C 0.69702(19) 0.48168(14) 0.94205(9) 0.0251(3) Uani 1 1 d . .
C25 C 0.59736(19) 0.46268(14) 0.86902(9) 0.0245(3) Uani 1 1 d . .
H25 H 0.590713 0.392578 0.829464 0.029 Uiso 1 1 calc R U
C26 C 0.6292(2) 0.77168(15) 1.05090(10) 0.0281(3) Uani 1 1 d . .
C27 C 0.5497(2) 0.95085(16) 1.09447(11) 0.0373(4) Uani 1 1 d . .
H27A H 0.498619 0.921839 1.136505 0.056 Uiso 1 1 calc R U
H27B H 0.487192 1.003972 1.074855 0.056 Uiso 1 1 calc R U
H27C H 0.667609 0.995788 1.114912 0.056 Uiso 1 1 calc R U
C28 C 0.7924(2) 0.39416(15) 0.96131(10) 0.0285(3) Uani 1 1 d . .
C29 C 0.8669(3) 0.21340(18) 0.91403(13) 0.0434(5) Uani 1 1 d . .
H29A H 0.989148 0.249384 0.926043 0.065 Uiso 1 1 calc R U
H29B H 0.839899 0.146288 0.867375 0.065 Uiso 1 1 calc R U
H29C H 0.830074 0.183321 0.958590 0.065 Uiso 1 1 calc R U
C30 C 0.23052(18) 0.65450(14) 0.61142(9) 0.0241(3) Uani 1 1 d . .
C31 C 0.17460(18) 0.75479(14) 0.64243(9) 0.0245(3) Uani 1 1 d . .
H31 H 0.154587 0.768760 0.694876 0.029 Uiso 1 1 calc R U
C32 C 0.14778(18) 0.83526(14) 0.59617(9) 0.0245(3) Uani 1 1 d . .
C33 C 0.17771(18) 0.81626(14) 0.51955(9) 0.0246(3) Uani 1 1 d . .
H33 H 0.161492 0.871870 0.488764 0.029 Uiso 1 1 calc R U
C34 C 0.23177(19) 0.71478(14) 0.48826(9) 0.0251(3) Uani 1 1 d . .
C35 C 0.25443(19) 0.63311(14) 0.53383(9) 0.0247(3) Uani 1 1 d . .
H35 H 0.286483 0.562282 0.511592 0.030 Uiso 1 1 calc R U
C36 C 0.09555(19) 0.94650(14) 0.62933(9) 0.0263(3) Uani 1 1 d . .
C37 C -0.0109(2) 1.04678(16) 0.73279(10) 0.0335(4) Uani 1 1 d . .
H37A H 0.091502 1.110963 0.757489 0.050 Uiso 1 1 calc R U
H37B H -0.077731 1.027771 0.772871 0.050 Uiso 1 1 calc R U
H37C H -0.077931 1.073918 0.693650 0.050 Uiso 1 1 calc R U
C38 C 0.2735(2) 0.68973(14) 0.40827(9) 0.0263(3) Uani 1 1 d . .
C39 C 0.3195(3) 0.76369(19) 0.29718(11) 0.0448(5) Uani 1 1 d . .
H39A H 0.430969 0.746939 0.300256 0.067 Uiso 1 1 calc R U
H39B H 0.322569 0.836252 0.277182 0.067 Uiso 1 1 calc R U
H39C H 0.235387 0.694887 0.261757 0.067 Uiso 1 1 calc R U
C40 C 0.74342(19) 0.74462(14) 0.79932(9) 0.0241(3) Uani 1 1 d . .
C41 C 0.8275(2) 0.84674(15) 0.85767(10) 0.0282(3) Uani 1 1 d . .
H41 H 0.771374 0.907546 0.874178 0.034 Uiso 1 1 calc R U
C42 C 0.9943(2) 0.86041(16) 0.89220(11) 0.0339(4) Uani 1 1 d . .
H42 H 1.052071 0.930718 0.931783 0.041 Uiso 1 1 calc R U
C43 C 1.0753(2) 0.77116(17) 0.86852(11) 0.0349(4) Uani 1 1 d . .
H43 H 1.189494 0.781101 0.891201 0.042 Uiso 1 1 calc R U
C44 C 0.9905(2) 0.66729(16) 0.81188(10) 0.0317(4) Uani 1 1 d . .
H44 H 1.045636 0.605247 0.797113 0.038 Uiso 1 1 calc R U
C45 C 0.8248(2) 0.65367(15) 0.77659(10) 0.0273(3) Uani 1 1 d . .
H45 H 0.767301 0.582975 0.737274 0.033 Uiso 1 1 calc R U
C46 C 0.59298(18) 0.77179(14) 0.65552(9) 0.0245(3) Uani 1 1 d . .
C47 C 0.5813(2) 0.88024(15) 0.63702(10) 0.0289(3) Uani 1 1 d . .
H47 H 0.540997 0.936826 0.671377 0.035 Uiso 1 1 calc R U
C48 C 0.6287(2) 0.90546(16) 0.56810(11) 0.0343(4) Uani 1 1 d . .
H48 H 0.620624 0.979430 0.555542 0.041 Uiso 1 1 calc R U
C49 C 0.6872(2) 0.82397(18) 0.51799(11) 0.0360(4) Uani 1 1 d . .
H49 H 0.720044 0.842016 0.471209 0.043 Uiso 1 1 calc R U
C50 C 0.6982(2) 0.71472(18) 0.53597(11) 0.0342(4) Uani 1 1 d . .
H50 H 0.737717 0.658186 0.501198 0.041 Uiso 1 1 calc R U
C51 C 0.6515(2) 0.68875(15) 0.60469(10) 0.0282(3) Uani 1 1 d . .
H51 H 0.659328 0.614616 0.617045 0.034 Uiso 1 1 calc R U
O20 O 0.70831(17) 0.78622(12) 1.11585(7) 0.0375(3) Uani 1 1 d . .
O21 O 0.54352(16) 0.84857(11) 1.03099(7) 0.0335(3) Uani 1 1 d . .
O22 O 0.87011(17) 0.40332(12) 1.02563(8) 0.0383(3) Uani 1 1 d . .
O23 O 0.78088(16) 0.30359(11) 0.89939(7) 0.0341(3) Uani 1 1 d . .
O30 O 0.10820(18) 1.03246(12) 0.60044(8) 0.0383(3) Uani 1 1 d . .
O31 O 0.03530(15) 0.94061(10) 0.69517(7) 0.0304(3) Uani 1 1 d . .
O32 O 0.30524(17) 0.59783(11) 0.37700(7) 0.0350(3) Uani 1 1 d . .
O33 O 0.27481(17) 0.78277(11) 0.37406(7) 0.0347(3) Uani 1 1 d . .
O40 O 0.47812(14) 0.84882(10) 0.79152(7) 0.0284(2) Uani 1 1 d . .
P40 P 0.54060(5) 0.74897(3) 0.74893(2) 0.02194(11) Uani 1 1 d . .
loop_
_atom_site_aniso_label
_atom_site_aniso_U_11
_atom_site_aniso_U_22
_atom_site_aniso_U_33
_atom_site_aniso_U_23
_atom_site_aniso_U_13
_atom_site_aniso_U_12
C10 0.0237(7) 0.0233(7) 0.0194(7) 0.0065(5) 0.0022(5) 0.0071(5)
C11 0.0253(7) 0.0269(7) 0.0200(7) 0.0083(6) 0.0023(6) 0.0089(6)
C12 0.0306(7) 0.0282(8) 0.0257(8) 0.0134(6) 0.0013(6) 0.0063(6)
C13 0.0309(8) 0.0284(8) 0.0294(8) 0.0116(6) -0.0012(6) 0.0017(6)
C14 0.0267(7) 0.0324(8) 0.0235(8) 0.0098(6) -0.0013(6) 0.0045(6)
C15 0.0248(7) 0.0278(7) 0.0211(7) 0.0093(6) 0.0026(6) 0.0082(6)
C20 0.0246(7) 0.0272(7) 0.0216(7) 0.0118(6) 0.0035(6) 0.0062(6)
C21 0.0244(7) 0.0274(7) 0.0236(7) 0.0122(6) 0.0044(6) 0.0078(6)
C22 0.0256(7) 0.0273(7) 0.0233(8) 0.0105(6) 0.0041(6) 0.0055(6)
C23 0.0248(7) 0.0293(7) 0.0229(7) 0.0109(6) 0.0002(6) 0.0052(6)
C24 0.0241(7) 0.0287(7) 0.0248(8) 0.0122(6) 0.0028(6) 0.0068(6)
C25 0.0268(7) 0.0266(7) 0.0224(7) 0.0095(6) 0.0044(6) 0.0080(6)
C26 0.0282(7) 0.0289(8) 0.0270(8) 0.0098(6) 0.0029(6) 0.0052(6)
C27 0.0440(10) 0.0308(8) 0.0354(9) 0.0022(7) 0.0071(8) 0.0116(7)
C28 0.0266(7) 0.0312(8) 0.0300(8) 0.0137(6) 0.0020(6) 0.0078(6)
C29 0.0459(10) 0.0388(10) 0.0514(12) 0.0132(9) 0.0016(9) 0.0244(8)
C30 0.0208(6) 0.0274(7) 0.0232(7) 0.0098(6) -0.0021(5) 0.0042(5)
C31 0.0228(7) 0.0295(7) 0.0217(7) 0.0102(6) 0.0012(5) 0.0053(6)
C32 0.0227(7) 0.0279(7) 0.0238(7) 0.0099(6) 0.0011(6) 0.0062(6)
C33 0.0238(7) 0.0275(7) 0.0229(7) 0.0104(6) 0.0001(6) 0.0059(6)
C34 0.0247(7) 0.0281(7) 0.0214(7) 0.0087(6) -0.0012(6) 0.0048(6)
C35 0.0249(7) 0.0249(7) 0.0228(7) 0.0064(6) -0.0015(6) 0.0055(6)
C36 0.0256(7) 0.0290(7) 0.0248(8) 0.0097(6) 0.0022(6) 0.0063(6)
C37 0.0430(9) 0.0313(8) 0.0297(9) 0.0084(7) 0.0099(7) 0.0137(7)
C38 0.0308(7) 0.0273(7) 0.0213(7) 0.0086(6) 0.0000(6) 0.0082(6)
C39 0.0750(14) 0.0458(10) 0.0292(9) 0.0187(8) 0.0204(9) 0.0321(10)
C40 0.0242(7) 0.0279(7) 0.0216(7) 0.0122(6) 0.0018(6) 0.0050(6)
C41 0.0289(8) 0.0297(8) 0.0267(8) 0.0118(6) 0.0018(6) 0.0061(6)
C42 0.0309(8) 0.0349(8) 0.0314(9) 0.0114(7) -0.0041(7) 0.0014(7)
C43 0.0253(7) 0.0447(10) 0.0378(9) 0.0222(8) 0.0001(7) 0.0069(7)
C44 0.0296(8) 0.0393(9) 0.0338(9) 0.0194(7) 0.0071(7) 0.0139(7)
C45 0.0284(7) 0.0307(8) 0.0257(8) 0.0124(6) 0.0038(6) 0.0089(6)
C46 0.0228(7) 0.0280(7) 0.0228(7) 0.0111(6) -0.0002(6) 0.0044(6)
C47 0.0278(7) 0.0277(8) 0.0300(8) 0.0110(6) -0.0021(6) 0.0047(6)
C48 0.0328(8) 0.0339(8) 0.0363(9) 0.0209(7) -0.0027(7) 0.0021(7)
C49 0.0314(8) 0.0483(10) 0.0312(9) 0.0228(8) 0.0044(7) 0.0045(7)
C50 0.0324(8) 0.0449(10) 0.0297(9) 0.0147(7) 0.0080(7) 0.0122(7)
C51 0.0288(7) 0.0324(8) 0.0267(8) 0.0134(6) 0.0038(6) 0.0096(6)
O20 0.0458(7) 0.0356(6) 0.0265(6) 0.0038(5) -0.0056(5) 0.0105(5)
O21 0.0425(7) 0.0312(6) 0.0281(6) 0.0059(5) 0.0034(5) 0.0148(5)
O22 0.0431(7) 0.0387(7) 0.0343(7) 0.0133(5) -0.0068(5) 0.0162(6)
O23 0.0399(6) 0.0359(6) 0.0325(6) 0.0121(5) 0.0032(5) 0.0202(5)
O30 0.0546(8) 0.0337(6) 0.0384(7) 0.0193(5) 0.0197(6) 0.0191(6)
O31 0.0398(6) 0.0298(6) 0.0267(6) 0.0114(5) 0.0094(5) 0.0132(5)
O32 0.0518(7) 0.0302(6) 0.0264(6) 0.0091(5) 0.0061(5) 0.0159(5)
O33 0.0544(7) 0.0348(6) 0.0245(6) 0.0149(5) 0.0118(5) 0.0210(6)
O40 0.0294(5) 0.0280(5) 0.0272(6) 0.0064(4) 0.0005(4) 0.0091(4)
P40 0.02350(19) 0.02260(19) 0.02050(19) 0.00800(14) 0.00056(14) 0.00665(14)
loop_
_atom_type_symbol
_atom_type_description
_atom_type_scat_dispersion_real
_atom_type_scat_dispersion_imag
_atom_type_scat_source
C C 0.0181 0.0091 'International Tables Vol C Tables 4.2.6.8 and 6.1.1.4'
H H 0.0000 0.0000 'International Tables Vol C Tables 4.2.6.8 and 6.1.1.4'
O O 0.0492 0.0322 'International Tables Vol C Tables 4.2.6.8 and 6.1.1.4'
P P 0.2955 0.4335 'International Tables Vol C Tables 4.2.6.8 and 6.1.1.4'
loop_
_geom_angle_atom_site_label_1
_geom_angle_atom_site_label_2
_geom_angle_atom_site_label_3
_geom_angle
C11 C10 C15 118.64(14)
C11 C10 P40 123.20(11)
C15 C10 P40 118.16(11)
C12 C11 C10 119.39(14)
C12 C11 C20 116.29(13)
C10 C11 C20 124.31(14)
C13 C12 C11 121.32(14)
C13 C12 H12 119.3
C11 C12 H12 119.3
C12 C13 C14 119.11(15)
C12 C13 H13 120.4
C14 C13 H13 120.4
C15 C14 C13 121.21(14)
C15 C14 H14 119.4
C13 C14 H14 119.4
C14 C15 C10 119.93(14)
C14 C15 C30 116.89(13)
C10 C15 C30 123.17(14)
C21 C20 C25 118.96(14)
C21 C20 C11 122.10(13)
C25 C20 C11 118.83(14)
C20 C21 C22 120.20(14)
C20 C21 H21 119.9
C22 C21 H21 119.9
C23 C22 C21 120.11(15)
C23 C22 C26 117.00(14)
C21 C22 C26 122.87(14)
C24 C23 C22 119.97(14)
C24 C23 H23 120.0
C22 C23 H23 120.0
C23 C24 C25 119.81(14)
C23 C24 C28 118.00(14)
C25 C24 C28 122.16(15)
C24 C25 C20 120.94(14)
C24 C25 H25 119.5
C20 C25 H25 119.5
O20 C26 O21 123.33(16)
O20 C26 C22 123.54(15)
O21 C26 C22 113.13(14)
O21 C27 H27A 109.5
O21 C27 H27B 109.5
H27A C27 H27B 109.5
O21 C27 H27C 109.5
H27A C27 H27C 109.5
H27B C27 H27C 109.5
O22 C28 O23 123.79(15)
O22 C28 C24 123.90(16)
O23 C28 C24 112.31(13)
O23 C29 H29A 109.5
O23 C29 H29B 109.5
H29A C29 H29B 109.5
O23 C29 H29C 109.5
H29A C29 H29C 109.5
H29B C29 H29C 109.5
C31 C30 C35 119.47(14)
C31 C30 C15 120.90(14)
C35 C30 C15 119.62(14)
C30 C31 C32 119.90(15)
C30 C31 H31 120.0
C32 C31 H31 120.0
C33 C32 C31 120.59(14)
C33 C32 C36 118.49(13)
C31 C32 C36 120.84(14)
C32 C33 C34 119.40(14)
C32 C33 H33 120.3
C34 C33 H33 120.3
C33 C34 C35 119.91(15)
C33 C34 C38 123.17(14)
C35 C34 C38 116.88(14)
C30 C35 C34 120.64(14)
C30 C35 H35 119.7
C34 C35 H35 119.7
O30 C36 O31 123.82(15)
O30 C36 C32 124.15(15)
O31 C36 C32 112.03(13)
O31 C37 H37A 109.5
O31 C37 H37B 109.5
H37A C37 H37B 109.5
O31 C37 H37C 109.5
H37A C37 H37C 109.5
H37B C37 H37C 109.5
O32 C38 O33 123.00(15)
O32 C38 C34 124.61(14)
O33 C38 C34 112.38(13)
O33 C39 H39A 109.5
O33 C39 H39B 109.5
H39A C39 H39B 109.5
O33 C39 H39C 109.5
H39A C39 H39C 109.5
H39B C39 H39C 109.5
C41 C40 C45 119.78(14)
C41 C40 P40 115.60(12)
C45 C40 P40 124.15(12)
C40 C41 C42 120.23(16)
C40 C41 H41 119.9
C42 C41 H41 119.9
C43 C42 C41 119.74(17)
C43 C42 H42 120.1
C41 C42 H42 120.1
C42 C43 C44 120.35(15)
C42 C43 H43 119.8
C44 C43 H43 119.8
C43 C44 C45 120.20(16)
C43 C44 H44 119.9
C45 C44 H44 119.9
C44 C45 C40 119.66(16)
C44 C45 H45 120.2
C40 C45 H45 120.2
C47 C46 C51 119.86(15)
C47 C46 P40 117.34(13)
C51 C46 P40 122.73(12)
C48 C47 C46 119.83(16)
C48 C47 H47 120.1
C46 C47 H47 120.1
C49 C48 C47 120.47(16)
C49 C48 H48 119.8
C47 C48 H48 119.8
C48 C49 C50 119.96(16)
C48 C49 H49 120.0
C50 C49 H49 120.0
C51 C50 C49 120.02(17)
C51 C50 H50 120.0
C49 C50 H50 120.0
C50 C51 C46 119.85(15)
C50 C51 H51 120.1
C46 C51 H51 120.1
C26 O21 C27 114.47(13)
C28 O23 C29 115.51(14)
C36 O31 C37 115.47(13)
C38 O33 C39 114.25(13)
O40 P40 C46 112.51(7)
O40 P40 C40 111.72(7)
C46 P40 C40 101.08(7)
O40 P40 C10 113.54(7)
C46 P40 C10 106.42(7)
C40 P40 C10 110.77(7)
loop_
_geom_bond_atom_site_label_1
_geom_bond_atom_site_label_2
_geom_bond_distance
C10 C11 1.414(2)
C10 C15 1.418(2)
C10 P40 1.8308(15)
C11 C12 1.398(2)
C11 C20 1.491(2)
C12 C13 1.388(2)
C12 H12 0.9500
C13 C14 1.389(2)
C13 H13 0.9500
C14 C15 1.386(2)
C14 H14 0.9500
C15 C30 1.499(2)
C20 C21 1.392(2)
C20 C25 1.399(2)
C21 C22 1.400(2)
C21 H21 0.9500
C22 C23 1.394(2)
C22 C26 1.486(2)
C23 C24 1.385(2)
C23 H23 0.9500
C24 C25 1.391(2)
C24 C28 1.490(2)
C25 H25 0.9500
C26 O20 1.209(2)
C26 O21 1.336(2)
C27 O21 1.452(2)
C27 H27A 0.9800
C27 H27B 0.9800
C27 H27C 0.9800
C28 O22 1.207(2)
C28 O23 1.338(2)
C29 O23 1.4443(19)
C29 H29A 0.9800
C29 H29B 0.9800
C29 H29C 0.9800
C30 C31 1.390(2)
C30 C35 1.391(2)
C31 C32 1.402(2)
C31 H31 0.9500
C32 C33 1.390(2)
C32 C36 1.492(2)
C33 C34 1.395(2)
C33 H33 0.9500
C34 C35 1.398(2)
C34 C38 1.484(2)
C35 H35 0.9500
C36 O30 1.207(2)
C36 O31 1.329(2)
C37 O31 1.4386(19)
C37 H37A 0.9800
C37 H37B 0.9800
C37 H37C 0.9800
C38 O32 1.204(2)
C38 O33 1.3468(19)
C39 O33 1.439(2)
C39 H39A 0.9800
C39 H39B 0.9800
C39 H39C 0.9800
C40 C41 1.388(2)
C40 C45 1.399(2)
C40 P40 1.8138(15)
C41 C42 1.396(2)
C41 H41 0.9500
C42 C43 1.384(3)
C42 H42 0.9500
C43 C44 1.387(3)
C43 H43 0.9500
C44 C45 1.392(2)
C44 H44 0.9500
C45 H45 0.9500
C46 C47 1.393(2)
C46 C51 1.395(2)
C46 P40 1.8136(16)
C47 C48 1.392(2)
C47 H47 0.9500
C48 C49 1.377(3)
C48 H48 0.9500
C49 C50 1.397(3)
C49 H49 0.9500
C50 C51 1.389(2)
C50 H50 0.9500
C51 H51 0.9500
O40 P40 1.4850(12)
