#------------------------------------------------------------------------------
#$Date: 2019-11-08 00:27:12 +0200 (Fri, 08 Nov 2019) $
#$Revision: 224262 $
#$URL: file:///home/coder/svn-repositories/cod/cif/7/70/12/7701228.cif $
#------------------------------------------------------------------------------
#
# This file is available in the Crystallography Open Database (COD),
# http://www.crystallography.net/
#
# All data on this site have been placed in the public domain by the
# contributors.
#
data_7701228
loop_
_publ_author_name
'Stein, Timo'
'Hoffmann, Frank'
'Fr\"oba, Michael'
_publ_section_title
;
 A new set of metal-organic frameworks synthesised from
 diisophthalate-based, 2'-phosphorus-substituted m-terphenyl linker
 molecules.
;
_journal_issue                   40
_journal_name_full
'Dalton transactions (Cambridge, England : 2003)'
_journal_page_first              15127
_journal_page_last               15135
_journal_paper_doi               10.1039/c9dt03044a
_journal_volume                  48
_journal_year                    2019
_chemical_formula_moiety         '(C34 H23 Mg2 O13.57 P), (C3 H7 N O)'
_chemical_formula_sum            'C37 H30 Mg2 N O14.57 P'
_chemical_formula_weight         801.35
_chemical_name_common            UHM-80
_space_group_crystal_system      trigonal
_space_group_IT_number           160
_space_group_name_Hall           'R 3 -2"'
_space_group_name_H-M_alt        'R 3 m :H'
_symmetry_space_group_name_Hall  'R 3 -2"'
_symmetry_space_group_name_H-M   'R 3 m :H'
_atom_sites_solution_hydrogens   mixed
_audit_creation_method           SHELXL-2018/3
_audit_update_record
;
2019-07-24 deposited with the CCDC.    2019-08-14 downloaded from the CCDC.
;
_cell_angle_alpha                90
_cell_angle_beta                 90
_cell_angle_gamma                120
_cell_formula_units_Z            9
_cell_length_a                   25.5448(4)
_cell_length_b                   25.5448(4)
_cell_length_c                   21.0016(4)
_cell_measurement_reflns_used    12226
_cell_measurement_temperature    100(2)
_cell_measurement_theta_max      51.5240
_cell_measurement_theta_min      4.5160
_cell_volume                     11868.3(3)
_computing_cell_refinement       'CrysAlisPro 1.171.39.46 (Rigaku OD, 2018)'
_computing_data_collection       'CrysAlisPro 1.171.39.46 (Rigaku OD, 2018)'
_computing_data_reduction        'CrysAlisPro 1.171.39.46 (Rigaku OD, 2018)'
_computing_structure_refinement  'SHELXL-2018/3 (Sheldrick, 2018)'
_computing_structure_solution    'SHELXT 2018/2 (Sheldrick, 2018)'
_diffrn_ambient_environment      N~2~
_diffrn_ambient_temperature      100(2)
_diffrn_detector                 'CCD plate'
_diffrn_detector_area_resol_mean 5.2063
_diffrn_detector_type            Atlas
_diffrn_measured_fraction_theta_full 0.996
_diffrn_measured_fraction_theta_max 0.996
_diffrn_measurement_details
;
List of Runs (angles in degrees, time in seconds):

  # Type    Start    End  Width  t~exp~   \w     \q     \k     \f   Frames
#--------------------------------------------------------------------------
  1  \w    -73.00  28.00   1.00   25.00    --    0.00 -57.00   0.00  101
  2  \w    -28.00  73.00   1.00   25.00    --    0.00  57.00   0.00  101
  3  \w    -76.00  33.00   1.00   25.00    --    0.00 -77.00 -90.00  109
  4  \w     29.00 138.00   1.00   50.00    --   61.65  77.00-140.61  109
  5  \w      1.00 103.00   1.00   50.00    --   61.65 -99.00 -90.00  102
  6  \w     29.00 137.00   1.00   50.00    --   61.65  76.00  92.30  108
  7  \w    -11.00  90.00   1.00   50.00    --   61.65 -57.00 -60.00  101
  8  \w     29.00 138.00   1.00   50.00    --   61.65  77.00 -60.00  109
  9  \w     29.00 138.00   1.00   50.00    --   61.65  77.00  30.00  109
 10  \w     23.00 118.00   1.00   50.00    --   61.65-125.00 150.00   95
;
_diffrn_measurement_device       'four-circle diffractometer'
_diffrn_measurement_device_type  'SuperNova, Dual, Cu at home/near, Atlas'
_diffrn_measurement_method       '\w scans'
_diffrn_orient_matrix_type
'CrysAlisPro convention (1999,Acta A55,543-557)'
_diffrn_orient_matrix_UB_11      0.0565251000
_diffrn_orient_matrix_UB_12      0.0146741000
_diffrn_orient_matrix_UB_13      0.0395791000
_diffrn_orient_matrix_UB_21      -0.0376417000
_diffrn_orient_matrix_UB_22      -0.0150568000
_diffrn_orient_matrix_UB_23      0.0616088000
_diffrn_orient_matrix_UB_31      -0.0154532000
_diffrn_orient_matrix_UB_32      -0.0663568000
_diffrn_orient_matrix_UB_33      -0.0051986000
_diffrn_radiation_monochromator  mirror
_diffrn_radiation_probe          x-ray
_diffrn_radiation_type           CuK\a
_diffrn_radiation_wavelength     1.54184
_diffrn_reflns_av_R_equivalents  0.0585
_diffrn_reflns_av_unetI/netI     0.0378
_diffrn_reflns_Laue_measured_fraction_full 0.996
_diffrn_reflns_Laue_measured_fraction_max 0.996
_diffrn_reflns_limit_h_max       25
_diffrn_reflns_limit_h_min       -25
_diffrn_reflns_limit_k_max       25
_diffrn_reflns_limit_k_min       -25
_diffrn_reflns_limit_l_max       21
_diffrn_reflns_limit_l_min       -21
_diffrn_reflns_number            20838
_diffrn_reflns_point_group_measured_fraction_full 0.992
_diffrn_reflns_point_group_measured_fraction_max 0.992
_diffrn_reflns_theta_full        51.528
_diffrn_reflns_theta_max         51.528
_diffrn_reflns_theta_min         4.518
_diffrn_source                   'micro-focus sealed X-ray tube'
_diffrn_source_type              'SuperNova (Cu) X-ray Source'
_exptl_absorpt_coefficient_mu    1.141
_exptl_absorpt_correction_T_max  1.00000
_exptl_absorpt_correction_T_min  0.80942
_exptl_absorpt_correction_type   multi-scan
_exptl_absorpt_process_details
;
CrysAlisPro 1.171.39.46 (Rigaku Oxford Diffraction, 2018)
Empirical absorption correction using spherical harmonics,
 implemented in SCALE3 ABSPACK scaling algorithm.
;
_exptl_crystal_colour            colorless
_exptl_crystal_density_diffrn    1.009
_exptl_crystal_description       plate
_exptl_crystal_F_000             3731
_exptl_crystal_size_max          0.15
_exptl_crystal_size_mid          0.08
_exptl_crystal_size_min          0.03
_refine_diff_density_max         0.598
_refine_diff_density_min         -0.329
_refine_diff_density_rms         0.065
_refine_ls_abs_structure_details
;
 Flack x determined using 1256 quotients [(I+)-(I-)]/[(I+)+(I-)]
 (Parsons, Flack and Wagner, Acta Cryst. B69 (2013) 249-259).
;
_refine_ls_abs_structure_Flack   0.043(14)
_refine_ls_extinction_method     none
_refine_ls_goodness_of_fit_ref   1.093
_refine_ls_hydrogen_treatment    mixed
_refine_ls_matrix_type           full
_refine_ls_number_parameters     288
_refine_ls_number_reflns         3130
_refine_ls_number_restraints     254
_refine_ls_restrained_S_all      1.065
_refine_ls_R_factor_all          0.0844
_refine_ls_R_factor_gt           0.0785
_refine_ls_shift/su_max          0.000
_refine_ls_shift/su_mean         0.000
_refine_ls_structure_factor_coef Fsqd
_refine_ls_weighting_details
'w=1/[\s^2^(Fo^2^)+(0.1380P)^2^+30.0613P] where P=(Fo^2^+2Fc^2^)/3'
_refine_ls_weighting_scheme      calc
_refine_ls_wR_factor_gt          0.1908
_refine_ls_wR_factor_ref         0.1975
_reflns_Friedel_coverage         0.985
_reflns_Friedel_fraction_full    0.989
_reflns_Friedel_fraction_max     0.989
_reflns_number_gt                2853
_reflns_number_total             3130
_reflns_threshold_expression     'I > 2\s(I)'
_cod_data_source_file            c9dt03044a2.cif
_cod_data_source_block           UHM-80
_cod_depositor_comments
'Adding full bibliography for 7701221--7701232.cif.'
_cod_original_cell_volume        11868.3(4)
_cod_database_code               7701228
_shelx_shelxl_version_number     2018/3
_shelx_space_group_comment
;
The symmetry employed for this shelxl refinement is uniquely defined
by the following loop, which should always be used as a source of
symmetry information in preference to the above space-group names.
They are only intended as comments.
;
_cell_oxdiff_length_a            25.5326(10)
_cell_oxdiff_length_b            25.5477(9)
_cell_oxdiff_length_c            20.9854(8)
_cell_oxdiff_angle_alpha         89.985(3)
_cell_oxdiff_angle_beta          89.993(3)
_cell_oxdiff_angle_gamma         119.968(4)
_cell_oxdiff_volume              11858.6(8)
_cell_oxdiff_measurement_reflns_used 12225
_shelx_estimated_absorpt_t_min   0.847
_shelx_estimated_absorpt_t_max   0.967
_oxdiff_exptl_absorpt_empirical_full_min 0.621
_oxdiff_exptl_absorpt_empirical_full_max 1.417
_oxdiff_exptl_absorpt_empirical_details
;
Empirical correction (ABSPACK) includes:
- Absorption correction using spherical harmonics
- Frame scaling
;
_shelx_res_file
;
TITL UHM-80 in R3m
    UHM-80.res
    created by SHELXL-2018/3 at 17:19:54 on 19-Feb-2019
REM SHELXT solution in R3m: R1 0.171, Rweak 0.061, Alpha 0.013
REM Flack x = -0.032 ( 0.045 ) from 1331 Parsons' quotients
REM Formula found by SHELXT: C44 O14 Mg P

CELL  1.54184  25.5448  25.5448  21.0016   90.000   90.000  120.000
ZERR    9.00   0.0004   0.0004   0.0004    0.000    0.000    0.000
LATT  -3
SYMM  - Y,   X - Y,   Z
SYMM  - X + Y, - X,   Z
SYMM  - Y, - X,   Z
SYMM  - X + Y,   Y,   Z
SYMM    X,   X - Y,   Z
SFAC  C    H    O      MG   P    N
UNIT  333  270  131.14 18   9    9
MERG   2
MORE -1
RIGU

REM DMF molecule
DFIX 1.45 N100 C101 N100 C102
DFIX 1.36 N100 C100
DFIX 1.22 C100 O100
DFIX 2.512 C101 C102
DFIX 2.294 N100 O100
FLAT C101 C102 N100 O100

REM O ligands of Mg(II) ions
EADP O70A O70B
EXYZ O70A O70B
DFIX 2.20 MG2B O80B
DFIX 2.20 MG2B O90B
EADP O80B O90B

REM reflections with Fo^2 >> Fc^2
OMIT -1  18 -13
OMIT -11  15 -17

FMAP   2
PLAN   20
SIZE     0.03   0.08   0.15
ACTA
BOND   $H
L.S. 5 0   59
TEMP  -173
ABIN
WGHT    0.138000   30.061295
FVAR       0.16085   0.38232
C10   1    0.586955    0.614740    0.495663    11.00000    0.02696    0.03575 =
         0.03537    0.00722    0.00054    0.01359
C11   1    0.612579    0.668936    0.461974    11.00000    0.03834    0.03552 =
         0.03764   -0.00092   -0.00547    0.02375
AFIX  43
H11   2    0.587584    0.677669    0.435780    11.00000   -1.20000
AFIX   0
C12   1    0.673486    0.710118    0.465922    11.00000    0.03276    0.03615 =
         0.02590    0.00401   -0.00008    0.01815
C13   1    0.710871    0.697126    0.503953    11.00000    0.03437    0.03794 =
         0.03975   -0.00038    0.00197    0.02007
AFIX  43
H13   2    0.752915    0.725161    0.507410    11.00000   -1.20000
AFIX   0
C14   1    0.685046    0.642501    0.536312    11.00000    0.03692    0.03536 =
         0.04087   -0.00029   -0.00393    0.02283
C15   1    0.622897    0.601581    0.530809    11.00000    0.03488    0.04094 =
         0.03709    0.00227    0.00320    0.02515
AFIX  43
H15   2    0.605861    0.563858    0.552309    11.00000   -1.20000
AFIX   0
C16   1    0.698865    0.767656    0.428340    11.00000    0.03366    0.03906 =
         0.04283    0.00513   -0.00017    0.01657
C17   1    0.723481    0.625471    0.577175    11.00000    0.03618    0.03884 =
         0.05727    0.00528   -0.00621    0.01723
C20   1    0.487646    0.512354    0.484367    10.50000    0.03599    0.03599 =
         0.01945    0.00968   -0.00968    0.01904
C21   1    0.519867    0.576770    0.494971    11.00000    0.02828    0.03784 =
         0.03828    0.00191   -0.00508    0.01865
C22   1    0.486702    0.606856    0.505962    11.00000    0.04600    0.02817 =
         0.05993   -0.00592    0.00219    0.01807
AFIX  43
H22   2    0.508080    0.649612    0.510176    11.00000   -1.20000
AFIX   0
C23   1    0.424016    0.575984    0.510783    10.50000    0.04511    0.04511 =
         0.06351   -0.00003    0.00003    0.02649
AFIX  43
H23   2    0.402764    0.597237    0.517226    10.50000   -1.20000
AFIX   0
C40   1    0.480803    0.411098    0.411508    11.00000    0.03921    0.03983 =
         0.04141    0.00464    0.00027    0.02064
C41   1    0.485501    0.359909    0.417486    11.00000    0.08660    0.04546 =
         0.07514   -0.01412   -0.00004    0.03429
AFIX  43
H41   2    0.508838    0.355944    0.450354    11.00000   -1.20000
AFIX   0
C42   1    0.454123    0.313907    0.372640    11.00000    0.10359    0.03999 =
         0.09395   -0.01467    0.00026    0.03463
AFIX  43
H42   2    0.457866    0.278769    0.374707    11.00000   -1.20000
AFIX   0
C43   1    0.419635    0.317054    0.327687    11.00000    0.09871    0.06813 =
         0.06547   -0.01520    0.00085    0.02955
AFIX  43
H43   2    0.397726    0.283687    0.299931    11.00000   -1.20000
AFIX   0
C44   1    0.415121    0.368686    0.320646    11.00000    0.06292    0.06074 =
         0.04963   -0.00644   -0.00060    0.01577
AFIX  43
H44   2    0.390742    0.371718    0.288336    11.00000   -1.20000
AFIX   0
C45   1    0.447874    0.415713    0.362993    11.00000    0.04499    0.05439 =
         0.04400   -0.00341   -0.00499    0.02249
AFIX  43
H45   2    0.447311    0.452389    0.357978    11.00000   -1.20000
AFIX   0

N100  6    0.235514    0.471028    0.528905    10.50000    0.05215    0.14771 =
         0.05035   -0.01583   -0.00792    0.07385
O100  3    0.275697    0.551394    0.465762    10.50000    0.17265    0.23659 =
         0.17637    0.06559    0.03280    0.11830
C100  1    0.250167    0.500334    0.472839    10.50000    0.09013    0.22537 =
         0.08270    0.04211    0.02106    0.11268
AFIX  43
H100  2    0.238058    0.476116    0.435484    10.50000   -1.20000
AFIX   0
C101  1    0.203278    0.406555    0.525766    10.50000    0.07140    0.13958 =
         0.05299   -0.03354   -0.01677    0.06979
AFIX  33
H10A  2    0.194938    0.389877    0.568996    10.50000   -1.50000
H10B  2    0.165060    0.392769    0.503075    10.50000   -1.50000
H10C  2    0.227708    0.392769    0.503075    10.50000   -1.50000
AFIX   0
C102  1    0.251404    0.502809    0.587664    10.50000    0.07847    0.13652 =
         0.07922   -0.03573   -0.01787    0.06826
AFIX  33
H10D  2    0.236915    0.473830    0.622957    10.50000   -1.50000
H10E  2    0.295456    0.528263    0.590290    10.50000   -1.50000
H10F  2    0.232808    0.528263    0.590290    10.50000   -1.50000
AFIX   0

O10   3    0.753242    0.807421    0.436502    11.00000    0.05185    0.07214 =
         0.11445    0.05461   -0.03228   -0.00153
O11   3    0.663744    0.774556    0.392516    11.00000    0.03883    0.02734 =
         0.04325    0.00616   -0.00540    0.01540
O12   3    0.776250    0.665950    0.588085    11.00000    0.03011    0.04102 =
         0.03418    0.00669   -0.00342    0.01464
O13   3    0.699756    0.571333    0.593478    11.00000    0.04539    0.05228 =
         0.17008    0.04746   -0.04942    0.00867
O40   3    0.549436    0.450564    0.519081     0.28580    0.09351    0.09351 =
         0.06592    0.01801   -0.01801    0.06802
O50   3    0.879852    0.759704    0.654134    10.50000    0.05484    0.03293 =
         0.04970    0.00628    0.00314    0.01647
DFIX 0.96 O50 H50A O50 H50B
DANG 1.52 H50A H50B
H50A  2    0.890522    0.781044    0.614830    10.50000   -1.50000
H50B  2    0.893473    0.786946    0.688237    10.50000   -1.50000
O60   3    0.784225    0.568451    0.663676    10.50000    0.04427    0.02927 =
         0.04997    0.00315    0.00158    0.01464
MG1   4    0.833785    0.667571    0.658482    10.50000    0.02230    0.02902 =
         0.03115    0.00216    0.00108    0.01451
P40   5    0.528055    0.471945    0.466437    10.50000    0.03819    0.03819 =
         0.04259    0.00001   -0.00001    0.02347
REM second Mg(II) site
PART 1
MG2A  4    0.764619    0.529239    0.748329    20.50000    0.01991    0.02851 =
         0.03707    0.00831    0.00415    0.01426
O70A  3    0.778319    0.460627    0.720970    21.00000    0.11730
O80A  3    0.741914    0.483828    0.834624    20.50000    0.07967
PART 0
REM third Mg(II) site
PART 2
MG2B  4    0.824432    0.521084    0.674810   -20.50000    0.06461    0.05300 =
         0.06485    0.00978    0.00138    0.03375
O70B  3    0.778319    0.460627    0.720970   -20.50000    0.11730
O80B  3    0.880187    0.480968    0.694375   -20.50000    0.11914
O90B  3    0.801432    0.454068    0.592442   -20.50000    0.11914
PART 0
HKLF    4




REM  UHM-80 in R3m
REM wR2 = 0.1975, GooF = S = 1.093, Restrained GooF = 1.065 for all data
REM R1 = 0.0785 for 2853 Fo > 4sig(Fo) and 0.0844 for all 3130 data
REM 288 parameters refined using 254 restraints

END

WGHT      0.1380     30.0640

REM Highest difference peak  0.598,  deepest hole -0.329,  1-sigma level  0.065
Q1    1   0.9278  0.5055  0.7107  11.00000  0.05    0.60
Q2    1   0.2518  0.5037  0.4210  10.50000  0.05    0.53
Q3    1   0.9412  0.4706  0.7184  10.50000  0.05    0.46
Q4    1   0.7614  0.4558  0.6027  11.00000  0.05    0.40
Q5    1   0.7968  0.4333  0.5736  11.00000  0.05    0.29
Q6    1   0.2807  0.5615  0.5757  10.50000  0.05    0.24
Q7    1   0.8519  0.4780  0.6951  11.00000  0.05    0.24
Q8    1   0.7493  0.4606  0.7366  11.00000  0.05    0.24
Q9    1   0.7570  0.5140  0.8621  10.50000  0.05    0.23
Q10   1   0.7831  0.4831  0.8279  11.00000  0.05    0.23
Q11   1   0.8075  0.4756  0.7107  11.00000  0.05    0.22
Q12   1   0.3765  0.6235  0.5242  10.50000  0.05    0.22
Q13   1   0.2850  0.4326  0.4886  11.00000  0.05    0.22
Q14   1   0.9207  0.7756  0.6607  11.00000  0.05    0.22
Q15   1   0.8687  0.4623  0.7515  11.00000  0.05    0.21
Q16   1   0.6865  0.6330  0.4392  11.00000  0.05    0.21
Q17   1   0.9166  0.7797  0.5902  11.00000  0.05    0.21
Q18   1   0.8712  0.5087  0.7337  11.00000  0.05    0.21
Q19   1   0.6667  0.3333  0.9540  10.16667  0.05    0.20
Q20   1   0.1998  0.3996  0.4633  10.50000  0.05    0.20
;
_shelx_res_checksum              69831
_shelx_fab_file
;
    0    0   21     -1.69      2.21
   -1    2   21      0.47      0.50
    0    3   21      1.36     -0.83
   -3    3   21      0.40      5.03
   -2    4   21      3.15      2.20
    0    1   20      5.65      0.21
   -2    2   20      6.86     -0.91
   -1    3   20      6.34      3.04
    0    4   20      5.38      4.29
   -3    4   20      2.37     -6.65
   -2    5   20      0.60      1.38
   -5    5   20      2.98     -2.58
   -1    6   20      4.57     -5.80
   -4    6   20      2.17      3.33
    0    7   20      4.38     -0.64
   -3    7   20      2.50     -0.99
   -6    7   20      4.54      4.69
   -2    8   20      4.54      1.89
   -5    8   20      1.26      0.39
   -1    1   19     -0.78      2.36
    0    2   19     -5.01     -5.05
   -2    3   19     -0.36      3.40
   -1    4   19      4.47     -2.28
   -4    4   19      1.04      5.08
    0    5   19      4.41      0.76
   -3    5   19      3.42      1.95
   -2    6   19     -1.96      0.40
   -5    6   19     -0.46     -3.19
   -1    7   19     -0.97      3.59
   -4    7   19     -3.51     -3.59
   -7    7   19     -0.38      2.48
    0    8   19     -3.81     -2.50
   -3    8   19     -0.02      1.23
   -6    8   19     -3.78      1.38
   -2    9   19     -2.18     -2.72
   -5    9   19     -0.11      3.00
   -8    9   19     -2.41     -1.54
   -1   10   19      3.95     -1.69
   -4   10   19     -1.72      0.22
   -7   10   19     -0.43     -0.66
   -3   11   19     -0.41     -0.82
   -6   11   19     -2.84     -1.69
    0    0   18      7.83      8.97
   -1    2   18     -0.06      3.78
    0    3   18     -3.55     -1.08
   -3    3   18    -13.72     -3.63
   -2    4   18     -7.52     -5.08
   -1    5   18     -9.60      0.48
   -4    5   18     -5.91      5.08
    0    6   18     -5.72     -5.97
   -3    6   18      0.10      7.76
   -6    6   18      0.03     -3.92
   -2    7   18     -1.60      0.84
   -5    7   18      2.24      0.08
   -1    8   18      1.57      1.00
   -4    8   18     -1.60     -1.60
   -7    8   18      0.50     -4.32
    0    9   18     -2.43      3.93
   -3    9   18     -4.15     -2.54
   -6    9   18     -2.18     -3.39
   -9    9   18     -1.62     -1.39
   -2   10   18      0.04     -0.20
   -5   10   18     -6.92     -2.36
   -8   10   18     -2.16      2.48
   -1   11   18     -0.87      2.33
   -4   11   18     -2.06     -2.77
   -7   11   18     -6.35      5.43
  -10   11   18     -2.76    -10.34
   -3   12   18      3.49      1.24
   -6   12   18     -2.97      2.13
   -9   12   18     -1.82      0.07
   -5   13   18     -0.13      0.46
   -8   13   18      0.85      2.94
    0    1   17     -1.43    -14.67
   -2    2   17      8.50      5.17
   -1    3   17      1.05     -0.30
    0    4   17      2.81     -0.54
   -3    4   17      6.07      5.80
   -2    5   17      0.60     -4.41
   -5    5   17      2.35      3.17
   -1    6   17     -0.77     -2.90
   -4    6   17     -0.21      0.10
    0    7   17     -1.71      5.02
   -3    7   17     -0.36     -9.05
   -6    7   17      2.33     11.50
   -2    8   17      0.29     -0.20
   -5    8   17      0.73      3.62
   -8    8   17      1.80      2.83
   -1    9   17     -2.63     -3.07
   -4    9   17      8.43     -0.02
   -7    9   17      5.08     -0.94
    0   10   17      2.52     -9.86
   -3   10   17     -3.97      1.69
   -6   10   17      7.41     -3.65
   -9   10   17      7.39     10.19
   -2   11   17     -2.82     -5.83
   -5   11   17      4.02     -2.51
   -8   11   17      8.20      2.11
  -11   11   17      0.46     -8.99
   -1   12   17     -3.74     -5.51
   -4   12   17     -4.51     -2.38
   -7   12   17     -1.93     -4.65
  -10   12   17      0.19     -0.80
    0   13   17     -4.37     -3.96
   -3   13   17     -2.65     -3.33
   -6   13   17      0.83     -4.94
   -9   13   17     -0.36     -7.40
  -12   13   17     -5.92     -0.58
   -2   14   17     -1.71     -2.99
   -5   14   17     -3.83     -1.09
   -8   14   17      2.75     -4.53
  -11   14   17     -8.89      1.35
   -7   15   17      2.25      0.53
  -10   15   17      6.25     -8.24
   -1    1   16     13.90     -6.45
    0    2   16      2.62     -4.86
   -2    3   16      6.69     -4.45
   -1    4   16     -6.20      0.64
   -4    4   16     16.63      6.69
    0    5   16     -7.49      0.84
   -3    5   16      7.86      7.84
   -2    6   16      1.77      6.32
   -5    6   16      4.19     -5.00
   -1    7   16      1.88     -4.22
   -4    7   16      0.86     -6.30
   -7    7   16     -6.12      5.96
    0    8   16      4.96     -1.01
   -3    8   16     -1.18     -5.20
   -6    8   16     -2.19     -2.71
   -2    9   16      4.14     -6.25
   -5    9   16     -6.56      2.59
   -8    9   16     -3.64      5.01
   -1   10   16     -3.48      1.33
   -4   10   16     -7.97      0.44
   -7   10   16      1.28      3.22
  -10   10   16    -10.48     -6.07
    0   11   16      0.22     -3.73
   -3   11   16     -1.93     -5.01
   -6   11   16     -2.29      6.71
   -9   11   16     -8.84     -2.17
   -2   12   16     -2.87     -2.74
   -5   12   16     -0.12     -1.41
   -8   12   16      1.67     -6.41
  -11   12   16    -11.60      5.29
   -1   13   16      0.38     -4.41
   -4   13   16      4.88     -1.65
   -7   13   16      2.20     -3.40
  -10   13   16    -13.41     -2.45
  -13   13   16    -41.48      4.41
    0   14   16     -1.55     -0.92
   -3   14   16      2.21     -1.30
   -6   14   16      1.60      0.09
   -9   14   16     -1.39     -3.22
  -12   14   16    -33.35    -14.81
   -2   15   16      6.00     -2.67
   -5   15   16      2.07     -2.39
   -8   15   16     -4.17      0.96
  -11   15   16     -4.71     -6.47
  -14   15   16    -88.01     11.38
   -4   16   16      2.96      0.85
   -7   16   16      2.05     -4.66
  -10   16   16     -1.84      3.95
   -9   17   16     -0.41     -3.45
    0    0   15    -29.34    -16.25
   -1    2   15    -10.04     -2.44
    0    3   15      6.11     15.63
   -3    3   15     -4.95     -6.45
   -2    4   15     -2.66      1.79
   -1    5   15      3.15      2.94
   -4    5   15     -0.19     -0.54
    0    6   15      5.03     -3.58
   -3    6   15     -4.80     -2.02
   -6    6   15     11.10      9.84
   -2    7   15     -6.20      1.80
   -5    7   15      3.77      4.77
   -1    8   15      1.90     -1.07
   -4    8   15     -3.91      2.94
   -7    8   15      5.28     -0.49
    0    9   15     -4.50     -1.73
   -3    9   15      0.16      5.56
   -6    9   15     -6.79     -6.26
   -9    9   15      3.62      8.46
   -2   10   15      2.18      9.00
   -5   10   15     -0.40    -11.54
   -8   10   15      2.44      2.46
   -1   11   15      0.45     -0.37
   -4   11   15      0.14      8.42
   -7   11   15     -4.07     -4.41
  -10   11   15     -2.18      3.37
    0   12   15      2.16      4.19
   -3   12   15      0.67      3.69
   -6   12   15     -2.39      1.57
   -9   12   15      9.51     -3.05
  -12   12   15    -22.52      6.55
   -2   13   15     -1.28      5.38
   -5   13   15     -2.36      3.63
   -8   13   15     -1.74     -0.28
  -11   13   15     -1.47      6.89
   -1   14   15      1.32      2.93
   -4   14   15     -3.11      0.11
   -7   14   15      4.68     -4.43
  -10   14   15     -3.90     -3.35
  -13   14   15     13.94    -23.06
    0   15   15      4.36      6.41
   -3   15   15     -2.74      2.99
   -6   15   15      2.73      2.10
   -9   15   15     -3.92    -14.12
  -12   15   15      4.10     -2.33
  -15   15   15      2.83     -9.17
   -2   16   15     -2.88      1.70
   -5   16   15      0.71      0.37
   -8   16   15     -1.95     -0.82
  -11   16   15     -7.51    -11.97
  -14   16   15     -2.53     -0.50
   -4   17   15      2.10      1.12
   -7   17   15     -2.19      1.28
  -10   17   15     -5.64     -3.92
  -13   17   15     -8.43      9.27
   -6   18   15     -3.97     -0.62
   -9   18   15     -2.00      2.59
  -12   18   15     -4.75     11.23
    0    1   14      1.26     10.18
   -2    2   14     -0.45      0.16
   -1    3   14      5.61     -5.02
    0    4   14      4.04      1.64
   -3    4   14     14.68     -3.18
   -2    5   14     13.25      4.88
   -5    5   14     10.03    -16.43
   -1    6   14     13.41     16.78
   -4    6   14     -3.79     -2.23
    0    7   14      6.67      9.78
   -3    7   14      0.75      3.63
   -6    7   14      4.60      0.04
   -2    8   14     -5.32     -3.60
   -5    8   14     -5.17      8.96
   -8    8   14      8.83     -0.79
   -1    9   14      6.20      0.14
   -4    9   14     -5.37      2.34
   -7    9   14     11.13     -4.11
    0   10   14      2.29      9.13
   -3   10   14     -4.87     -3.89
   -6   10   14      5.06      2.58
   -9   10   14     -2.75     -7.73
   -2   11   14     -6.60      2.07
   -5   11   14      4.60      2.58
   -8   11   14     -4.15     -8.99
  -11   11   14      9.55    -16.66
   -1   12   14     -4.65     11.77
   -4   12   14     -0.60     -7.07
   -7   12   14     -6.33     -2.61
  -10   12   14      0.47     -2.22
    0   13   14     -9.39      8.84
   -3   13   14      4.42      3.74
   -6   13   14     -5.33     -8.81
   -9   13   14     -5.32     -3.15
  -12   13   14      3.88      6.60
   -2   14   14      2.33     -3.00
   -5   14   14      1.77     -2.22
   -8   14   14     -1.41     -4.25
  -11   14   14    -10.26      9.04
  -14   14   14      4.33     50.17
   -1   15   14      1.96     -1.87
   -4   15   14     -3.38     -3.90
   -7   15   14      1.58      0.71
  -10   15   14      6.44     -1.94
  -13   15   14    -13.72     28.79
    0   16   14     -0.09     -7.15
   -3   16   14      2.51     -5.49
   -6   16   14     -0.28     -7.21
   -9   16   14      7.00      3.92
  -12   16   14     -3.40     -3.58
  -15   16   14     24.02      7.54
   -2   17   14     -1.90      0.58
   -5   17   14      1.45     -2.34
   -8   17   14     -0.77     -4.94
  -11   17   14      4.55      0.66
  -14   17   14     16.00     -6.40
   -4   18   14      1.15     -2.38
   -7   18   14      1.00     -1.39
  -10   18   14     -1.99     -3.60
  -13   18   14     12.07    -11.73
   -6   19   14     -1.57      1.21
   -9   19   14     -3.57      2.64
  -12   19   14      2.53     -3.13
   -1    1   13    -10.20     13.23
    0    2   13     11.73      2.11
   -2    3   13    -10.42     -1.24
   -1    4   13      9.58      4.43
   -4    4   13     -6.78    -14.17
    0    5   13     -2.42     -9.65
   -3    5   13      2.57      3.27
   -2    6   13     11.49     -5.12
   -5    6   13      4.11      2.11
   -1    7   13    -12.70     -2.37
   -4    7   13     18.11      4.46
   -7    7   13      0.26      3.22
    0    8   13    -12.01     -2.80
   -3    8   13     11.64     10.89
   -6    8   13      1.62     -2.43
   -2    9   13      8.75      1.75
   -5    9   13     -3.66     12.86
   -8    9   13      8.03      3.60
   -1   10   13      0.76      4.12
   -4   10   13      1.41      1.63
   -7   10   13    -11.17     10.57
  -10   10   13     17.00     12.27
    0   11   13      7.39    -12.64
   -3   11   13      4.13      2.46
   -6   11   13     -6.65      3.73
   -9   11   13      2.35      4.58
   -2   12   13      1.56     -2.01
   -5   12   13      2.54      4.12
   -8   12   13     -0.05     -2.71
  -11   12   13    -12.99     11.26
   -1   13   13      0.50     -9.55
   -4   13   13      0.57     -1.30
   -7   13   13      1.98      0.27
  -10   13   13     -9.93    -12.03
  -13   13   13    -21.46     -8.12
    0   14   13      4.64     -1.66
   -3   14   13     -3.41      4.09
   -6   14   13      7.89     -2.01
   -9   14   13    -17.24     -1.42
  -12   14   13     -3.00    -14.00
   -2   15   13     -0.01     -0.82
   -5   15   13     -2.73     -0.43
   -8   15   13     -6.00     -5.12
  -11   15   13     -8.91     -5.64
  -14   15   13    -19.86    -10.24
   -1   16   13      1.16     -1.25
   -4   16   13      4.15      7.10
   -7   16   13     -3.73      2.35
  -10   16   13    -10.76      0.69
  -13   16   13     -4.08      3.37
  -16   16   13      3.88     -2.99
    0   17   13     -1.73    -10.44
   -3   17   13     -3.35      2.76
   -6   17   13     -4.90      1.79
   -9   17   13     -1.90      7.50
  -12   17   13      0.21     -0.79
  -15   17   13     -4.54    -19.00
   -2   18   13      5.13     -1.30
   -5   18   13     -3.64      4.56
   -8   18   13      2.40      2.65
  -11   18   13     -2.08      3.52
  -14   18   13      2.51    -16.53
   -4   19   13     -2.14     -1.16
   -7   19   13     -2.28     -0.49
  -10   19   13      1.11      2.17
  -13   19   13      5.60     -7.20
  -16   19   13     -8.83    -56.74
   -6   20   13      2.50     -0.45
   -9   20   13      0.68      0.55
  -12   20   13      1.66     -3.48
    0    0   12      4.45      9.50
   -1    2   12     -6.78     -4.29
    0    3   12     -8.62    -16.21
   -3    3   12      1.42      8.46
   -2    4   12      7.71      6.13
   -1    5   12      0.15    -14.68
   -4    5   12     -9.35     -1.65
    0    6   12     33.61      6.96
   -3    6   12    -14.38     -4.31
   -6    6   12      4.96     -7.90
   -2    7   12      2.22      7.56
   -5    7   12    -10.57     -1.24
   -1    8   12      6.46      9.33
   -4    8   12     -0.59     14.38
   -7    8   12      9.51     -9.02
    0    9   12      2.25      7.89
   -3    9   12     -9.74      9.42
   -6    9   12      7.70      4.26
   -9    9   12    -18.08     -2.05
   -2   10   12     -4.81     11.04
   -5   10   12      5.26     -0.63
   -8   10   12     -5.91      1.19
   -1   11   12      2.22      4.31
   -4   11   12     -0.49      7.88
   -7   11   12     -2.81      0.18
  -10   11   12     -8.81     -9.49
    0   12   12     10.07     16.92
   -3   12   12     -0.86     -0.67
   -6   12   12     -3.36      8.62
   -9   12   12      4.15     -2.66
  -12   12   12    -10.94     -9.64
   -2   13   12     12.11      6.35
   -5   13   12    -12.01      0.27
   -8   13   12      6.79      9.52
  -11   13   12      1.05     -0.83
   -1   14   12      0.59      1.51
   -4   14   12     -4.14      5.07
   -7   14   12     -2.18      1.16
  -10   14   12      2.68      4.14
  -13   14   12      3.04      1.30
    0   15   12     -3.97     -5.99
   -3   15   12     -6.29     -0.56
   -6   15   12      0.44      4.68
   -9   15   12      4.62     -5.65
  -12   15   12     -2.38      8.45
  -15   15   12      9.11    -17.28
   -2   16   12     -9.50      1.97
   -5   16   12     -6.54     -0.59
   -8   16   12     -1.40      0.74
  -11   16   12      0.04     -4.65
  -14   16   12     -1.56     -8.86
   -1   17   12     -8.55      1.03
   -4   17   12     -0.50     -3.84
   -7   17   12     -1.95     -5.06
  -10   17   12      4.61     -1.28
  -13   17   12     -4.24     -5.20
  -16   17   12     -2.17     -2.80
    0   18   12     -7.04      6.95
   -3   18   12     -5.15     -1.27
   -6   18   12     -3.76      3.65
   -9   18   12     -4.41     -4.08
  -12   18   12      4.79      7.00
  -15   18   12      5.78      8.01
   -2   19   12     -3.83     -2.30
   -5   19   12     -1.59      1.29
   -8   19   12     -1.36      4.77
  -11   19   12      5.62      1.63
  -14   19   12      1.47      4.07
   -4   20   12     -1.77      5.43
   -7   20   12     -6.08      2.00
  -10   20   12     -2.43      6.36
  -13   20   12      0.32      1.68
  -16   20   12      2.43     14.33
   -9   21   12     -4.87      1.29
  -12   21   12      1.35      2.98
    0    1   11     12.97      4.31
   -2    2   11    -28.36     12.34
   -1    3   11    -12.52      2.46
    0    4   11    -29.88     15.64
   -3    4   11    -18.48     -5.16
   -2    5   11     -9.76     -8.66
   -5    5   11     -8.31      3.59
   -1    6   11     -0.87     -5.60
   -4    6   11     -6.29      3.29
    0    7   11     -9.38      1.73
   -3    7   11     14.63    -21.05
   -6    7   11    -18.02      6.21
   -2    8   11     -5.11      0.52
   -5    8   11      8.07    -13.33
   -8    8   11    -24.45     -3.20
   -1    9   11      8.41     -6.82
   -4    9   11     -1.65     -6.98
   -7    9   11     -4.85    -10.68
    0   10   11     10.49     -9.90
   -3   10   11     -2.37     -1.86
   -6   10   11      3.75      2.95
   -9   10   11     16.19    -15.27
   -2   11   11      1.09      0.75
   -5   11   11      1.46     -2.73
   -8   11   11      6.06      0.91
  -11   11   11     16.13     -5.35
   -1   12   11     -2.96     -9.48
   -4   12   11     -4.34      1.67
   -7   12   11      9.48     -2.46
  -10   12   11     -4.65     -3.65
    0   13   11     -9.66     -5.40
   -3   13   11      3.46      3.64
   -6   13   11     -0.73    -10.19
   -9   13   11     -3.08     -1.77
  -12   13   11      5.60      4.28
   -2   14   11     -6.20    -10.42
   -5   14   11      4.18     -6.21
   -8   14   11     -4.73     -4.94
  -11   14   11      6.51     -1.19
  -14   14   11     -5.19     -7.77
   -1   15   11      3.60     -5.42
   -4   15   11      4.62      1.84
   -7   15   11      0.67    -11.39
  -10   15   11      3.42     12.78
  -13   15   11     10.60     -9.07
    0   16   11     -6.60     -7.06
   -3   16   11      7.64     -4.42
   -6   16   11     -4.75     -1.61
   -9   16   11     12.31     -1.22
  -12   16   11      6.76     -6.04
  -15   16   11     -0.24     -6.96
   -2   17   11      4.75      0.07
   -5   17   11      4.28      3.42
   -8   17   11      2.58      1.64
  -11   17   11      1.03     -0.20
  -14   17   11      3.28     -0.48
  -17   17   11     -4.26    -11.61
   -1   18   11     -1.06     -5.90
   -4   18   11     -2.74     -3.37
   -7   18   11     -0.30      0.87
  -10   18   11      4.70     -1.02
  -13   18   11     -3.85    -10.85
  -16   18   11    -21.50    -10.59
    0   19   11      2.24      0.08
   -3   19   11     -1.01     -7.87
   -6   19   11      0.10     -0.36
   -9   19   11     -0.51     -2.78
  -12   19   11     -8.48      0.31
  -15   19   11    -16.95     -7.45
  -18   19   11      9.19      7.34
   -2   20   11     -4.44     -4.30
   -5   20   11     -2.08     -8.30
   -8   20   11     -2.74     -4.76
  -11   20   11      5.46     -3.14
  -14   20   11     -3.10     -6.62
  -17   20   11     -7.11     -5.53
   -7   21   11      0.85     -1.23
  -10   21   11      2.67     -4.90
  -13   21   11      0.97     -2.29
  -16   21   11      8.88      1.91
   -9   22   11      2.45     -4.34
  -12   22   11      0.83     -0.49
   -1    1   10    -16.25      4.66
    0    2   10    -24.22    -38.27
   -2    3   10      6.84      5.32
   -1    4   10      3.69     -9.60
   -4    4   10    -14.65     -9.54
    0    5   10     -9.70     -5.67
   -3    5   10      0.25      5.53
   -2    6   10    -22.51    -17.66
   -5    6   10    -11.30      2.47
   -1    7   10      3.94     -4.97
   -4    7   10    -16.05      3.35
   -7    7   10     18.90    -14.88
    0    8   10     10.79     -8.46
   -3    8   10     -3.12     -4.96
   -6    8   10      0.32     -9.92
   -2    9   10     11.07     -9.44
   -5    9   10      3.20      3.39
   -8    9   10      2.74      2.35
   -1   10   10     -5.98      3.94
   -4   10   10      3.58    -13.09
   -7   10   10     -6.83      7.85
  -10   10   10     -9.23     10.83
    0   11   10    -12.80    -11.45
   -3   11   10     -0.20     -3.36
   -6   11   10     -8.02     -5.87
   -9   11   10      2.11      8.62
   -2   12   10     -5.16    -16.96
   -5   12   10     -5.12      4.69
   -8   12   10      4.86     -7.10
  -11   12   10    -14.24      1.99
   -1   13   10      3.43     -8.45
   -4   13   10     -9.99    -10.23
   -7   13   10      6.33      0.82
  -10   13   10     -1.32     -4.95
  -13   13   10     -0.45      7.88
    0   14   10     -2.52     -2.54
   -3   14   10      1.34     -5.15
   -6   14   10      2.61      1.78
   -9   14   10     -0.94     -4.87
  -12   14   10      1.28      5.04
   -2   15   10     -5.07      1.35
   -5   15   10      0.25      0.92
   -8   15   10     -4.88     -7.60
  -11   15   10     -4.26     -0.19
  -14   15   10     -2.51      3.23
   -1   16   10     -3.42      5.88
   -4   16   10      1.22     -9.17
   -7   16   10     -2.88      5.39
  -10   16   10     -2.87    -10.79
  -13   16   10     -9.13      6.00
  -16   16   10     -0.88     -3.18
    0   17   10     -6.14      9.34
   -3   17   10     -1.74     -3.10
   -6   17   10     -6.21     -5.95
   -9   17   10     -6.46      1.54
  -12   17   10     -1.11     -7.75
  -15   17   10     -5.62     -2.81
   -2   18   10     -0.70     -2.04
   -5   18   10      3.42     -1.40
   -8   18   10     -3.29     -4.49
  -11   18   10      1.87     -3.58
  -14   18   10     -2.36     -5.43
  -17   18   10     -7.02      0.49
   -1   19   10     -0.65      3.73
   -4   19   10      1.30      1.73
   -7   19   10     -2.08      1.47
  -10   19   10     -4.76     -2.14
  -13   19   10      5.54     -7.99
  -16   19   10     -0.81      0.11
  -19   19   10    -17.58    -12.42
   -3   20   10      2.91      1.99
   -6   20   10      0.62      0.67
   -9   20   10      0.74      9.96
  -12   20   10      0.01     -6.69
  -15   20   10     -3.76      3.99
  -18   20   10     -6.48     -6.15
   -5   21   10      2.86      0.06
   -8   21   10     -4.92      5.46
  -11   21   10     -4.89      1.61
  -14   21   10     -4.98      4.75
  -17   21   10     -2.87     -2.47
   -7   22   10     -0.51      4.10
  -10   22   10     -1.88      1.28
  -13   22   10     -1.68      7.91
  -16   22   10     -5.81     -2.54
    0    0    9     29.58    -14.85
   -1    2    9     -7.96     -1.69
    0    3    9      1.02     18.12
   -3    3    9    -10.89    -20.88
   -2    4    9     16.46     -4.37
   -1    5    9     -7.22     -0.54
   -4    5    9     15.64    -19.32
    0    6    9     16.87    -40.59
   -3    6    9     -1.74     -0.73
   -6    6    9     22.52     -8.81
   -2    7    9     11.43     -9.60
   -5    7    9     -4.04     -7.22
   -1    8    9    -10.54    -11.46
   -4    8    9      1.50    -17.59
   -7    8    9    -12.00     16.22
    0    9    9    -12.77    -19.91
   -3    9    9     -8.54      9.22
   -6    9    9     -7.91    -18.43
   -9    9    9    -12.10      3.02
   -2   10    9     -4.60     -9.08
   -5   10    9    -12.33    -10.53
   -8   10    9     -0.95    -15.73
   -1   11    9     -3.24    -16.13
   -4   11    9      0.99      2.87
   -7   11    9      2.33    -20.53
  -10   11    9     -7.70    -13.34
    0   12    9     -1.51      3.55
   -3   12    9      8.17     -3.46
   -6   12    9     -2.99    -14.11
   -9   12    9    -13.63     -9.69
  -12   12    9     11.44      8.91
   -2   13    9     -0.48     -0.16
   -5   13    9     -0.94     -3.15
   -8   13    9     -1.03    -12.32
  -11   13    9     -5.61      9.92
   -1   14    9     -9.52     -1.11
   -4   14    9     11.74     -2.38
   -7   14    9    -16.51     -9.67
  -10   14    9      7.38      2.85
  -13   14    9    -21.62     -0.53
    0   15    9     -2.19    -12.24
   -3   15    9     -2.50     -3.69
   -6   15    9     -1.86     -7.59
   -9   15    9      8.49      1.81
  -12   15    9     -9.86     -9.62
  -15   15    9    -23.55     22.86
   -2   16    9      4.67     -2.95
   -5   16    9      3.86     -3.37
   -8   16    9     -0.38     -4.56
  -11   16    9      1.71      1.88
  -14   16    9    -10.87      7.62
   -1   17    9      2.86     -2.30
   -4   17    9      0.68     -2.75
   -7   17    9      8.68     -0.90
  -10   17    9      2.86     -6.51
  -13   17    9     -4.74      8.50
  -16   17    9    -13.91      5.10
    0   18    9      4.96     -7.00
   -3   18    9     -5.61      4.45
   -6   18    9     10.77      0.41
   -9   18    9     -6.68     -3.26
  -12   18    9      1.04     13.44
  -15   18    9     -4.44     -1.35
  -18   18    9      2.94     -4.57
   -2   19    9     -5.63     -2.10
   -5   19    9     -3.64     -1.08
   -8   19    9      6.33     -1.16
  -11   19    9      4.04      1.02
  -14   19    9     -4.58      3.06
  -17   19    9      1.42     -4.08
   -1   20    9     -3.65     -0.04
   -4   20    9     -5.67      5.07
   -7   20    9      0.26     -7.02
  -10   20    9     -0.22     -1.17
  -13   20    9     -4.28      5.08
  -16   20    9      1.12     -5.85
  -19   20    9     -1.58     -1.39
   -3   21    9     -0.30      3.08
   -6   21    9     -3.53     -6.66
   -9   21    9      2.16     -5.98
  -12   21    9      2.37     -2.26
  -15   21    9      0.38     -4.57
  -18   21    9     -9.30     -0.47
   -5   22    9     -3.77      0.66
   -8   22    9      1.90     -4.76
  -11   22    9     -2.97      1.48
  -14   22    9     -0.13     -7.33
  -17   22    9     -6.32      1.21
  -10   23    9      0.02      2.05
  -13   23    9      1.89     -3.62
    0    1    8    -27.02     11.90
   -2    2    8     10.10     47.90
   -1    3    8    -16.64     -6.67
    0    4    8     29.50     17.74
   -3    4    8     -1.22     -0.17
   -2    5    8      2.70    -24.84
   -5    5    8      3.82     16.20
   -1    6    8      6.00     12.94
   -4    6    8     18.20     10.02
    0    7    8      0.01     -6.99
   -3    7    8    -10.25     -3.03
   -6    7    8     23.07    -15.24
   -2    8    8     -7.63     -0.88
   -5    8    8     20.69     -7.44
   -8    8    8     20.23    -22.94
   -1    9    8     13.98    -29.61
   -4    9    8     -1.28     -5.65
   -7    9    8     12.19    -12.26
    0   10    8     14.13      9.82
   -3   10    8     10.67    -21.35
   -6   10    8      6.34      8.76
   -9   10    8     28.50     -8.42
   -2   11    8      8.31      1.89
   -5   11    8      2.78     -7.38
   -8   11    8     16.09      1.56
  -11   11    8    -12.16      1.97
   -1   12    8     -2.87      2.36
   -4   12    8      2.84      3.06
   -7   12    8     11.01     -4.70
  -10   12    8      3.25     -9.57
    0   13    8      5.78     -2.33
   -3   13    8    -11.72     -4.94
   -6   13    8     17.08      3.92
   -9   13    8     -2.09    -17.25
  -12   13    8      0.64     -1.99
   -2   14    8      0.45     -1.59
   -5   14    8      4.06     -6.78
   -8   14    8     -1.18     -2.70
  -11   14    8     14.70    -11.29
  -14   14    8      4.27     -6.03
   -1   15    8      5.13      6.06
   -4   15    8     -2.32     -4.37
   -7   15    8      2.40     -1.92
  -10   15    8     -2.28     -1.09
  -13   15    8      6.32     -3.51
    0   16    8      2.51     12.86
   -3   16    8     -5.60     -6.40
   -6   16    8     -1.59      2.70
   -9   16    8     -2.59     -7.46
  -12   16    8      1.25      5.39
  -15   16    8     -0.19     -8.79
   -2   17    8     -0.05     -3.11
   -5   17    8    -10.04     -4.28
   -8   17    8      3.64      3.96
  -11   17    8    -10.57      0.25
  -14   17    8      0.31      4.78
  -17   17    8      2.45      1.40
   -1   18    8     -4.08      2.51
   -4   18    8     -0.24     -5.07
   -7   18    8     -8.34     -2.66
  -10   18    8      1.89      3.32
  -13   18    8     -6.07     -1.51
  -16   18    8      4.84     11.60
    0   19    8      2.68     -1.83
   -3   19    8     -2.46     -6.16
   -6   19    8      2.21     -0.12
   -9   19    8      1.34      3.20
  -12   19    8     -6.88      0.01
  -15   19    8     -3.35     12.47
  -18   19    8     -7.71     -1.75
   -2   20    8     -0.79      2.33
   -5   20    8      2.59     -7.49
   -8   20    8      0.62      7.51
  -11   20    8      1.35     -6.40
  -14   20    8     -2.31      3.54
  -17   20    8     -4.65     -0.60
  -20   20    8     -6.47      5.61
   -1   21    8     -5.26     -0.72
   -4   21    8      2.74     -3.58
   -7   21    8      5.25      7.75
  -10   21    8      3.07     -2.01
  -13   21    8      3.90      1.65
  -16   21    8     -8.65     -6.90
  -19   21    8     -2.47      2.86
   -3   22    8     -3.91      1.96
   -6   22    8      5.05      2.68
   -9   22    8      1.62     -7.50
  -12   22    8      1.66     -2.13
  -15   22    8     -2.62     -7.10
  -18   22    8      0.19     -1.73
   -8   23    8      3.02     -1.88
  -11   23    8      2.05     -4.05
  -14   23    8      0.61     -1.43
  -17   23    8     -5.40     -3.85
  -13   24    8     -0.75     -5.82
   -1    1    7     27.31     36.03
    0    2    7      5.64     24.94
   -2    3    7     14.89     16.60
   -1    4    7     27.60     14.10
   -4    4    7    -31.47      6.33
    0    5    7    -18.65    -13.51
   -3    5    7     21.86     22.62
   -2    6    7     -0.46     16.25
   -5    6    7    -13.69     -5.89
   -1    7    7      4.75    -32.28
   -4    7    7     -1.23     24.53
   -7    7    7      8.36     -2.72
    0    8    7      0.74     21.06
   -3    8    7     16.85    -10.52
   -6    8    7     -3.94     25.27
   -2    9    7      9.98      1.55
   -5    9    7      1.85     10.97
   -8    9    7      0.89     12.47
   -1   10    7     -8.80     12.87
   -4   10    7      8.42     11.68
   -7   10    7     -6.67      0.57
  -10   10    7     -9.86     10.49
    0   11    7     -7.07    -10.66
   -3   11    7      1.08     -3.91
   -6   11    7     -9.45      0.83
   -9   11    7     -7.92      0.52
   -2   12    7     -4.25     -7.35
   -5   12    7     -1.04      5.37
   -8   12    7    -12.61     -2.95
  -11   12    7     12.58      4.91
   -1   13    7     10.46      0.39
   -4   13    7      4.23    -10.43
   -7   13    7    -15.49     -3.30
  -10   13    7      3.75     17.34
  -13   13    7     -5.82     -9.11
    0   14    7     -9.81      6.19
   -3   14    7      8.13      2.73
   -6   14    7     -8.50      3.80
   -9   14    7      5.18      2.07
  -12   14    7    -18.05     11.22
   -2   15    7      1.67      8.79
   -5   15    7      0.42     -4.93
   -8   15    7     -2.81      5.68
  -11   15    7     -9.07     -7.18
  -14   15    7      0.80     18.44
   -1   16    7     -5.07     -4.92
   -4   16    7     -2.96      4.99
   -7   16    7      4.53      4.90
  -10   16    7     -3.24     -3.56
  -13   16    7     -0.90     14.49
  -16   16    7     -1.10      6.99
    0   17    7     -2.20     -0.88
   -3   17    7      2.63      6.26
   -6   17    7      0.60     -4.46
   -9   17    7     -8.81      8.13
  -12   17    7      6.73      0.53
  -15   17    7     -4.81     -1.37
   -2   18    7      0.55      6.99
   -5   18    7      3.12      6.61
   -8   18    7     -6.38     -2.09
  -11   18    7      3.46      5.20
  -14   18    7     -7.87      1.98
  -17   18    7     -4.86      1.81
   -1   19    7     -3.77      5.43
   -4   19    7      2.94     16.56
   -7   19    7     -6.87     -8.26
  -10   19    7     -6.57     10.16
  -13   19    7     -1.70     -5.65
  -16   19    7     -9.45     -6.03
  -19   19    7     -0.68      4.98
    0   20    7     -2.35     12.02
   -3   20    7      6.20      6.67
   -6   20    7    -12.37      5.33
   -9   20    7      6.07     -1.24
  -12   20    7     -7.62      1.71
  -15   20    7     -1.76     -2.77
  -18   20    7     -7.15      7.01
   -2   21    7      0.75      5.58
   -5   21    7     -3.97      9.78
   -8   21    7     -7.63     -0.25
  -11   21    7     -2.25      7.82
  -14   21    7     -2.60     -5.04
  -17   21    7     -5.90      5.19
  -20   21    7      2.67     -1.46
   -4   22    7     -2.60      2.11
   -7   22    7     -4.13      5.37
  -10   22    7      1.03      3.06
  -13   22    7     -0.14      0.05
  -16   22    7     -0.31      6.22
  -19   22    7     -2.84      1.05
   -6   23    7     -2.43      5.83
   -9   23    7     -2.85      5.35
  -12   23    7     -0.06     -2.19
  -15   23    7     -2.12      2.72
  -18   23    7      0.21     -2.31
   -8   24    7     -2.02      1.18
  -11   24    7     -0.44     -1.76
  -14   24    7     -0.81      1.78
    0    0    6     44.09      2.06
   -1    2    6     54.45     64.28
    0    3    6     -6.46     49.48
   -3    3    6     34.83     41.15
   -2    4    6    -42.07      4.77
   -1    5    6      9.92    -15.43
   -4    5    6      5.24     16.19
    0    6    6     15.07     18.80
   -3    6    6     -1.32    -14.04
   -6    6    6     -4.11      7.50
   -2    7    6     27.44     36.64
   -5    7    6      3.54    -12.76
   -1    8    6    -16.43     32.53
   -4    8    6      9.55      3.79
   -7    8    6    -13.24     -7.20
    0    9    6    -20.40    -12.02
   -3    9    6      5.29     35.85
   -6    9    6     -9.80     -4.09
   -9    9    6      9.20    -20.91
   -2   10    6    -16.29     -5.79
   -5   10    6     -5.30     17.71
   -8   10    6     -0.54     -8.19
   -1   11    6     16.70      0.37
   -4   11    6     -5.28     -4.04
   -7   11    6     11.12     21.18
  -10   11    6    -14.67     -7.99
    0   12    6      5.15      5.18
   -3   12    6      0.77      5.44
   -6   12    6      7.08     -1.17
   -9   12    6    -25.18      5.08
  -12   12    6      1.52     12.09
   -2   13    6      1.80      7.77
   -5   13    6     13.55      1.53
   -8   13    6     -8.76      0.92
  -11   13    6     -1.26     -1.93
   -1   14    6     -3.53      0.83
   -4   14    6     -5.02      3.02
   -7   14    6      7.14      0.50
  -10   14    6    -11.32    -13.18
  -13   14    6     -3.49      6.55
    0   15    6      8.61      1.26
   -3   15    6     -0.48      1.84
   -6   15    6     -3.13      1.10
   -9   15    6     11.89      2.29
  -12   15    6     -1.34    -11.75
  -15   15    6     -4.98      7.92
   -2   16    6     -3.58     -2.68
   -5   16    6     -5.54     10.86
   -8   16    6      1.78     -2.69
  -11   16    6      2.92      7.05
  -14   16    6    -11.35     -8.70
   -1   17    6      3.41      7.08
   -4   17    6     -7.34      2.65
   -7   17    6      5.91      7.27
  -10   17    6     -0.49      2.43
  -13   17    6      7.95     -3.30
  -16   17    6     -3.53      0.22
    0   18    6     -7.81     -3.83
   -3   18    6     -5.60      2.84
   -6   18    6     -1.95      5.99
   -9   18    6      2.69      4.35
  -12   18    6      0.62      2.30
  -15   18    6      5.17     -1.62
  -18   18    6    -14.80    -17.12
   -2   19    6     -8.71      2.24
   -5   19    6      1.39     -5.95
   -8   19    6      5.07     11.99
  -11   19    6      2.65     -6.25
  -14   19    6      8.70      5.71
  -17   19    6     -4.46     -7.54
   -1   20    6     -4.48     -3.34
   -4   20    6     -7.62     -3.88
   -7   20    6      8.87      8.60
  -10   20    6     -2.25     -4.28
  -13   20    6      2.34      8.55
  -16   20    6     -8.04     -1.41
  -19   20    6      3.79     -1.13
    0   21    6     -6.42      2.31
   -3   21    6      1.13     -0.83
   -6   21    6      0.96     -4.92
   -9   21    6     -1.88     -0.62
  -12   21    6     -0.24     -3.11
  -15   21    6     -8.97      4.65
  -18   21    6      3.06      0.92
  -21   21    6      1.94      2.42
   -2   22    6     -0.87      1.72
   -5   22    6      1.04     -1.57
   -8   22    6     -0.23     -6.50
  -11   22    6     -3.71      5.13
  -14   22    6     -5.24      0.42
  -17   22    6     -4.66      3.13
  -20   22    6      0.23     -3.55
   -4   23    6      0.44      2.23
   -7   23    6     -0.79     -7.97
  -10   23    6     -3.84     -0.30
  -13   23    6     -3.17      1.37
  -16   23    6     -0.61      2.21
  -19   23    6      0.79     -0.75
   -9   24    6     -2.82      0.88
  -12   24    6      2.36      5.79
  -15   24    6     -0.18      1.30
    0    1    5    -47.66     69.11
   -2    2    5    -48.81     34.10
   -1    3    5    -35.29      2.04
    0    4    5     22.27      0.43
   -3    4    5    -19.69     67.95
   -2    5    5     20.37     41.95
   -5    5    5    -26.68     45.28
   -1    6    5    -28.01     55.51
   -4    6    5     11.31     21.62
    0    7    5    -13.04     14.42
   -3    7    5    -25.31     40.11
   -6    7    5      0.30      9.80
   -2    8    5    -34.39    -21.12
   -5    8    5     24.40     28.76
   -8    8    5    -16.38      5.18
   -1    9    5     20.19     11.64
   -4    9    5     -3.23      0.90
   -7    9    5      5.81     21.47
    0   10    5     16.71     11.26
   -3   10    5      3.99     -1.07
   -6   10    5      7.85      1.22
   -9   10    5      6.86     15.82
   -2   11    5      9.70     18.29
   -5   11    5      3.47     12.56
   -8   11    5      5.28     -1.73
  -11   11    5      6.18     18.73
   -1   12    5    -14.03      3.63
   -4   12    5      3.21      6.40
   -7   12    5     -4.96     -0.34
  -10   12    5     20.95     -1.98
    0   13    5     -1.99     -8.20
   -3   13    5     -9.06     14.54
   -6   13    5     -0.54      7.51
   -9   13    5      9.67      7.07
  -12   13    5    -12.35      3.12
   -2   14    5      5.14     -3.44
   -5   14    5     -5.88     -2.01
   -8   14    5      2.29     10.26
  -11   14    5      0.18      5.27
  -14   14    5      6.56      4.77
   -1   15    5     -5.29     12.91
   -4   15    5      2.89      9.57
   -7   15    5     -0.58     12.69
  -10   15    5     -7.33      4.29
  -13   15    5      5.53     20.07
    0   16    5    -19.42      6.84
   -3   16    5      0.12      7.25
   -6   16    5      4.60      4.34
   -9   16    5     -4.93      4.00
  -12   16    5      6.76      1.96
  -15   16    5     -3.66     -0.40
   -2   17    5    -12.78      6.20
   -5   17    5      1.50     14.27
   -8   17    5      1.18      8.25
  -11   17    5      2.94      5.92
  -14   17    5      2.04      4.94
  -17   17    5     -0.50      5.66
   -1   18    5     -7.32      5.10
   -4   18    5      1.24      6.80
   -7   18    5    -14.61      6.29
  -10   18    5     18.32     10.58
  -13   18    5     -5.90      0.03
  -16   18    5      7.00     -1.90
    0   19    5      6.55      8.02
   -3   19    5     -3.22      4.09
   -6   19    5     -3.52     10.00
   -9   19    5      0.05      7.68
  -12   19    5     -1.33      9.59
  -15   19    5      1.70      5.23
  -18   19    5      3.49     11.56
   -2   20    5     -2.08      3.10
   -5   20    5     -3.36      8.12
   -8   20    5     -3.56      1.32
  -11   20    5     -1.61      9.76
  -14   20    5     -0.70     -6.65
  -17   20    5      2.16      6.29
  -20   20    5      2.87     -4.49
   -1   21    5      3.59      2.11
   -4   21    5     -1.59      2.80
   -7   21    5      4.31     11.16
  -10   21    5      0.11     -2.51
  -13   21    5     -3.89     -0.16
  -16   21    5      2.61      4.37
  -19   21    5      1.42     -0.78
   -3   22    5     -4.96      4.95
   -6   22    5      5.08      5.95
   -9   22    5     -1.39      6.34
  -12   22    5      1.47     -2.73
  -15   22    5     -3.96     -3.98
  -18   22    5      3.81     -0.49
  -21   22    5      1.50     -0.46
   -5   23    5      2.81      3.64
   -8   23    5      3.33      5.16
  -11   23    5     -3.16     -1.86
  -14   23    5      0.38      1.43
  -17   23    5      0.73     -1.95
  -20   23    5     -0.32      4.96
   -7   24    5     -1.31      1.72
  -10   24    5     -3.40      4.23
  -13   24    5     -2.82     -0.09
  -16   24    5      2.21     -2.11
  -12   25    5     -2.47      0.74
  -15   25    5      5.10     -2.01
   -1    1    4    -76.22    -43.89
    0    2    4     78.85     81.88
   -2    3    4     10.83    -31.48
   -1    4    4    -68.67    110.16
   -4    4    4     54.00    -24.02
    0    5    4    -89.91     10.31
   -3    5    4    -48.57     22.49
   -2    6    4    -14.64     -5.56
   -5    6    4    -16.18     58.11
   -1    7    4     15.41    -12.23
   -4    7    4    -35.21      3.51
   -7    7    4    -16.33     47.15
    0    8    4     25.74     15.09
   -3    8    4     24.82     -6.47
   -6    8    4    -20.00     28.20
   -2    9    4     19.84     27.17
   -5    9    4    -26.07     -5.47
   -8    9    4    -11.83     16.98
   -1   10    4    -14.64      5.06
   -4   10    4      3.81     13.06
   -7   10    4     -5.21     12.90
  -10   10    4    -35.65      2.68
    0   11    4     -7.99     -9.92
   -3   11    4    -26.96      2.61
   -6   11    4      5.54     14.65
   -9   11    4    -31.52      5.92
   -2   12    4     -1.32    -12.94
   -5   12    4    -11.35      7.92
   -8   12    4      0.65     17.29
  -11   12    4     -9.03     -2.62
   -1   13    4      1.06     -2.45
   -4   13    4     -5.89      6.88
   -7   13    4    -20.15     -9.91
  -10   13    4     -7.62     18.76
  -13   13    4     -4.46     -9.89
    0   14    4     -7.41     13.06
   -3   14    4      0.69     -6.17
   -6   14    4     -7.44      7.46
   -9   14    4     -8.17     -5.56
  -12   14    4     -2.15     11.56
   -2   15    4    -13.99     10.14
   -5   15    4    -16.99      5.22
   -8   15    4     -6.34    -12.26
  -11   15    4    -20.32     -0.03
  -14   15    4      1.35      1.38
   -1   16    4     -6.25     -3.22
   -4   16    4    -10.91      8.22
   -7   16    4     -4.94      0.07
  -10   16    4     -1.15      2.69
  -13   16    4     -7.71     -2.91
  -16   16    4     16.71     16.12
    0   17    4     -1.57      6.31
   -3   17    4    -14.39      3.60
   -6   17    4     -8.00      5.62
   -9   17    4    -15.99      2.08
  -12   17    4     -4.75     -5.45
  -15   17    4     -1.92      4.73
   -2   18    4      2.64      4.14
   -5   18    4     -9.04     -0.22
   -8   18    4     -2.85      8.68
  -11   18    4    -10.96     -3.20
  -14   18    4      2.35      2.29
  -17   18    4     -7.21      0.46
   -1   19    4    -13.64      9.56
   -4   19    4     -3.94      2.11
   -7   19    4     -5.00      7.02
  -10   19    4    -14.54     -1.54
  -13   19    4     -1.22      0.48
  -16   19    4     -6.38     -2.89
  -19   19    4     -6.88     -5.02
    0   20    4     -8.70      5.35
   -3   20    4     -2.93      3.46
   -6   20    4     -3.96      1.23
   -9   20    4     -1.60      1.99
  -12   20    4     -1.05      2.61
  -15   20    4     -1.21     -0.79
  -18   20    4      2.93      4.53
   -2   21    4     -2.96      0.49
   -5   21    4     -7.51      6.44
   -8   21    4     -8.67      0.35
  -11   21    4     -0.84      6.91
  -14   21    4      2.25      4.72
  -17   21    4      1.53     -0.08
  -20   21    4     -5.36      1.48
   -1   22    4     -0.17      2.86
   -4   22    4     -4.32     -1.51
   -7   22    4    -12.80     -3.52
  -10   22    4     -1.02      4.97
  -13   22    4     -0.23     -0.90
  -16   22    4      3.93      5.72
  -19   22    4     -3.00      2.18
  -22   22    4      4.80      6.76
   -3   23    4     -0.76      0.21
   -6   23    4     -8.31      0.39
   -9   23    4     -7.47      1.47
  -12   23    4      2.34     -1.04
  -15   23    4      1.13     -0.04
  -18   23    4     -4.20      0.33
   -5   24    4     -3.77     -0.24
   -8   24    4     -5.08      0.86
  -11   24    4      2.15     -4.13
  -14   24    4     -1.69     -4.76
  -17   24    4     -3.10     -1.61
  -10   25    4     -1.21     -1.31
  -13   25    4      3.01     -0.15
  -16   25    4     -3.97     -2.24
    0    0    3    133.85    -15.94
   -1    2    3     39.12     11.72
    0    3    3    -41.62    -84.93
   -3    3    3     86.72    140.64
   -2    4    3     23.00     78.86
   -1    5    3     86.54    -69.37
   -4    5    3      6.37     -6.94
    0    6    3     71.60     60.34
   -3    6    3     12.47    -30.39
   -6    6    3    -15.17    -12.44
   -2    7    3     -4.34     21.39
   -5    7    3      5.83    -42.87
   -1    8    3    -13.83      6.54
   -4    8    3     -0.83     38.14
   -7    8    3    -17.28     -5.36
    0    9    3    -18.58    -24.55
   -3    9    3    -19.71      3.73
   -6    9    3     -4.86     -4.50
   -9    9    3      7.84     -4.45
   -2   10    3     -0.06      8.47
   -5   10    3    -13.40     -0.36
   -8   10    3     -0.80      1.35
   -1   11    3     11.05    -15.40
   -4   11    3     -9.73     -6.44
   -7   11    3     -3.23    -18.78
  -10   11    3     -0.07     -8.38
    0   12    3    -11.99     12.51
   -3   12    3      9.69      7.76
   -6   12    3    -14.20     -7.53
   -9   12    3    -12.50    -13.91
  -12   12    3    -20.21      6.72
   -2   13    3    -11.87     11.29
   -5   13    3     -6.15    -20.09
   -8   13    3     -8.09     -2.73
  -11   13    3    -12.40    -17.61
   -1   14    3    -14.43     -5.17
   -4   14    3     -4.13      3.78
   -7   14    3     -4.01      4.12
  -10   14    3    -18.45     -9.84
  -13   14    3      4.15      6.03
    0   15    3      4.17     -5.44
   -3   15    3     -1.27    -14.26
   -6   15    3     -9.28     -5.34
   -9   15    3     -0.21     -5.00
  -12   15    3      2.91     -1.49
  -15   15    3      3.20     -5.15
   -2   16    3      7.08     -3.97
   -5   16    3     10.60     -1.89
   -8   16    3    -12.01     -0.24
  -11   16    3      1.89      2.53
  -14   16    3    -10.18      5.70
   -1   17    3     -0.16      5.16
   -4   17    3      6.55    -10.54
   -7   17    3      4.81     -9.45
  -10   17    3      1.46     -9.08
  -13   17    3     -0.21      0.64
  -16   17    3     -2.32      1.78
    0   18    3      8.15     -5.58
   -3   18    3      2.91      6.39
   -6   18    3      6.73     -5.71
   -9   18    3     10.42     -5.91
  -12   18    3     -7.84      2.81
  -15   18    3      0.43      2.25
  -18   18    3      1.10     12.15
   -2   19    3     -0.11      0.11
   -5   19    3     -0.85     -6.58
   -8   19    3      3.99     -6.55
  -11   19    3      8.14     -4.39
  -14   19    3     -0.50     -2.38
  -17   19    3      1.23      6.08
   -1   20    3      6.02     -3.85
   -4   20    3     -0.01      4.05
   -7   20    3      4.77     -9.92
  -10   20    3     -7.26      6.51
  -13   20    3      0.60      1.93
  -16   20    3     -3.89      9.14
  -19   20    3      4.67      0.66
    0   21    3     -2.08     -3.45
   -3   21    3      1.11      3.99
   -6   21    3      2.22     -3.68
   -9   21    3     -5.39     -4.64
  -12   21    3     -2.40      2.83
  -15   21    3     -6.66      2.01
  -18   21    3      0.04     -0.73
  -21   21    3     -1.82      6.81
   -2   22    3      2.84      4.54
   -5   22    3      5.91     -2.02
   -8   22    3      6.80     -1.32
  -11   22    3     -6.06     -0.31
  -14   22    3     -7.54      8.80
  -17   22    3      2.97     -1.06
  -20   22    3     -4.95      7.05
   -4   23    3      5.58      1.33
   -7   23    3     -1.92      0.79
  -10   23    3      5.97      2.17
  -13   23    3     -2.34      2.75
  -16   23    3     -2.15     -0.24
  -19   23    3      1.74      6.38
   -6   24    3      1.30      1.24
   -9   24    3      2.05      1.34
  -12   24    3      1.08      4.75
  -15   24    3      2.35      1.78
  -18   24    3      0.01      4.89
   -8   25    3     -2.83      1.61
  -11   25    3      1.28      2.52
  -14   25    3      1.82      1.03
  -17   25    3     -1.92      2.15
    0    1    2    101.79    296.38
   -2    2    2   -212.95     -1.87
   -1    3    2    112.45     -7.62
    0    4    2      3.38     91.15
   -3    4    2    -61.62   -103.85
   -2    5    2     63.21     45.65
   -5    5    2     58.33    -11.53
   -1    6    2    -15.51     19.00
   -4    6    2     -8.22     26.45
    0    7    2      1.17    -78.07
   -3    7    2     25.63     22.49
   -6    7    2     58.90     -5.27
   -2    8    2    -16.14    -40.43
   -5    8    2      4.81     -4.30
   -8    8    2     22.34    -17.09
   -1    9    2     20.25    -37.45
   -4    9    2     10.70    -22.04
   -7    9    2     19.75     -1.06
    0   10    2     -3.25     10.57
   -3   10    2     10.14    -20.37
   -6   10    2     -9.06     -6.69
   -9   10    2     -1.80     -7.14
   -2   11    2      2.03    -26.77
   -5   11    2     31.21     20.81
   -8   11    2    -10.08    -19.17
  -11   11    2      6.60     23.07
   -1   12    2     -7.78     -2.93
   -4   12    2     12.50      2.89
   -7   12    2     -6.52     -6.19
  -10   12    2      5.65     -7.45
    0   13    2     19.90    -27.21
   -3   13    2      8.14    -11.15
   -6   13    2     13.64      1.99
   -9   13    2     10.57      2.70
  -12   13    2     -5.81     -1.66
   -2   14    2      8.96    -13.48
   -5   14    2      8.90      2.95
   -8   14    2    -12.10     -6.47
  -11   14    2      9.17      3.01
  -14   14    2    -16.86    -12.02
   -1   15    2     13.54      4.63
   -4   15    2      5.82     -8.17
   -7   15    2     14.42      8.07
  -10   15    2      0.57      2.90
  -13   15    2      1.67      1.27
    0   16    2     -3.42      4.45
   -3   16    2      2.60      9.49
   -6   16    2     -0.22     -0.40
   -9   16    2     -3.29      3.21
  -12   16    2     -4.99     -9.49
  -15   16    2      5.68     -4.22
   -2   17    2     -1.77     -2.88
   -5   17    2      5.76      4.24
   -8   17    2      6.09      8.32
  -11   17    2      6.43     -0.79
  -14   17    2      3.09     -2.34
  -17   17    2      2.09     -8.53
   -1   18    2      7.62     -1.19
   -4   18    2     -0.92      2.74
   -7   18    2     -1.44     10.75
  -10   18    2     -4.24     -0.12
  -13   18    2      1.20      0.81
  -16   18    2     -5.16    -16.57
    0   19    2      6.67     11.19
   -3   19    2      8.32    -12.11
   -6   19    2      7.40      5.97
   -9   19    2      4.31     -0.80
  -12   19    2      3.18      3.98
  -15   19    2     -5.53     -3.12
  -18   19    2     -4.01      6.63
   -2   20    2      2.54      5.31
   -5   20    2      8.21     -2.95
   -8   20    2      3.62      0.20
  -11   20    2     -0.41     -3.99
  -14   20    2     -3.26     -6.44
  -17   20    2     -4.19      0.68
  -20   20    2     -6.07      4.23
   -1   21    2      3.63     -0.78
   -4   21    2      4.77      0.76
   -7   21    2      4.36     -4.57
  -10   21    2     11.25     -4.49
  -13   21    2     -0.58     -8.44
  -16   21    2     -2.10      3.88
  -19   21    2      0.40      3.69
    0   22    2      3.34     -0.15
   -3   22    2     -1.55     -0.01
   -6   22    2     -2.02      3.94
   -9   22    2      2.45      2.37
  -12   22    2      2.10     -6.11
  -15   22    2      2.78     -1.16
  -18   22    2     -3.81     -0.41
  -21   22    2      7.04      0.70
   -2   23    2     -0.49     -1.35
   -5   23    2     -0.88      3.67
   -8   23    2     -1.12      1.94
  -11   23    2      1.77     -4.95
  -14   23    2     -2.72      1.08
  -17   23    2      1.04      3.45
  -20   23    2      4.93     -0.98
   -4   24    2     -0.91      2.39
   -7   24    2      3.36      2.28
  -10   24    2     -5.93      0.67
  -13   24    2     -0.40      0.28
  -16   24    2     -2.92     -0.16
  -19   24    2      2.91      1.27
   -9   25    2      0.15     -3.35
  -12   25    2     -0.47      2.94
  -15   25    2     -2.89     -2.01
  -18   25    2      2.57      0.15
    0    2    1    -10.76    -65.73
   -2    3    1    186.22     77.51
   -1    4    1     19.18     39.14
   -4    4    1     82.27    -43.85
    0    5    1     48.01    -85.46
   -3    5    1    -24.79     30.21
   -2    6    1    -14.71   -126.53
   -5    6    1    -43.29     30.24
   -1    7    1     19.40     -9.51
   -4    7    1     -2.37     16.54
   -7    7    1    -31.72      7.91
    0    8    1     -8.33    -17.22
   -3    8    1     27.08      9.24
   -6    8    1     13.00    -23.09
   -2    9    1     44.06     19.64
   -5    9    1      5.01     21.22
   -8    9    1     23.11     -1.97
   -1   10    1     -3.03    -12.92
   -4   10    1      8.98    -21.72
   -7   10    1     23.96     -1.03
  -10   10    1     -0.04     -8.32
    0   11    1     14.82    -34.59
   -3   11    1     12.91      0.31
   -6   11    1     -0.21     -5.68
   -9   11    1    -10.99      7.62
   -2   12    1      6.19    -25.96
   -5   12    1    -10.59    -20.05
   -8   12    1      7.64     -5.85
  -11   12    1    -10.87      9.43
   -1   13    1     11.19      9.14
   -4   13    1     11.60     -6.31
   -7   13    1     -9.25      1.78
  -10   13    1    -10.96      8.05
  -13   13    1     12.47      5.81
    0   14    1    -18.10     14.25
   -3   14    1      2.01     -4.53
   -6   14    1     -5.17     -1.36
   -9   14    1      3.46    -10.05
  -12   14    1     19.70      1.41
   -2   15    1     -4.33     10.57
   -5   15    1      1.32      8.23
   -8   15    1      3.36      2.33
  -11   15    1      1.03     -0.34
  -14   15    1      6.18    -10.23
   -1   16    1     -4.25     -7.96
   -4   16    1     -9.58      1.22
   -7   16    1     -0.33     -5.23
  -10   16    1     13.67     -0.81
  -13   16    1     10.90     -6.03
  -16   16    1      7.23     -1.33
    0   17    1     -1.60      1.46
   -3   17    1      1.68     -0.14
   -6   17    1      3.94     -3.20
   -9   17    1     -1.50      5.57
  -12   17    1      5.10      2.02
  -15   17    1      2.10      7.86
   -2   18    1     -2.49      2.54
   -5   18    1     -8.04     -7.14
   -8   18    1      2.40    -13.08
  -11   18    1     -3.01     -1.07
  -14   18    1     12.61     -1.72
  -17   18    1      1.71      2.89
   -1   19    1     -2.60     -0.33
   -4   19    1     -1.67      5.81
   -7   19    1     -5.49     -6.57
  -10   19    1      1.11      2.57
  -13   19    1     -2.53     -0.20
  -16   19    1      4.67      5.21
  -19   19    1     -0.11     -6.87
    0   20    1     -3.86     -1.48
   -3   20    1      1.37      5.69
   -6   20    1    -11.40     -4.46
   -9   20    1     -1.98      1.01
  -12   20    1      6.11     -8.51
  -15   20    1     -0.36      1.04
  -18   20    1      6.53     -1.40
   -2   21    1      6.77      0.54
   -5   21    1      2.94      0.52
   -8   21    1    -11.12     -0.32
  -11   21    1      3.50      5.34
  -14   21    1     -2.31      1.31
  -17   21    1      2.97      0.66
  -20   21    1      0.43      6.32
   -1   22    1      1.66      5.83
   -4   22    1      2.62     -5.90
   -7   22    1     -0.43      0.74
  -10   22    1     -5.51     -9.27
  -13   22    1     -2.01     -0.91
  -16   22    1     -0.23     -2.93
  -19   22    1      1.34     11.24
  -22   22    1      3.87     -2.21
   -3   23    1      8.01      0.18
   -6   23    1     -1.02     -3.63
   -9   23    1      2.68     -6.39
  -12   23    1     -9.53     -2.82
  -15   23    1      4.46     -0.83
  -18   23    1     -3.28      1.09
  -21   23    1      2.49      1.26
   -5   24    1     -1.43      0.98
   -8   24    1     -0.03     -0.99
  -11   24    1     -0.02     -8.47
  -14   24    1     -0.05     -5.53
  -17   24    1     -1.02      2.00
  -20   24    1      3.57     -4.11
   -7   25    1      0.93      0.17
  -10   25    1     -0.53     -3.08
  -13   25    1      0.66     -2.88
  -16   25    1      1.16     -0.34
    0    3    0    -21.74   -117.76
   -2    4    0    152.93     -0.39
   -1    5    0     70.84     -6.36
    0    6    0     90.19     30.86
   -3    6    0    140.36      0.44
   -2    7    0     42.90     36.59
   -1    8    0     -8.29     -1.41
   -4    8    0     87.52     -0.31
    0    9    0    -11.37     26.18
   -3    9    0     -5.33    -17.51
   -2   10    0    -13.12    -15.48
   -5   10    0     42.14     -0.04
   -1   11    0     14.76      5.66
   -4   11    0      1.17      2.94
    0   12    0      9.44     -5.69
   -3   12    0      1.32     -9.25
   -6   12    0     35.00      0.01
   -2   13    0      1.15     17.37
   -5   13    0      7.23    -18.25
   -1   14    0      1.99    -17.01
   -4   14    0     11.62     -5.89
   -7   14    0     31.28     -0.10
    0   15    0     12.63      2.95
   -3   15    0      5.94     -0.31
   -6   15    0     13.04      0.56
   -2   16    0     11.91     -2.39
   -5   16    0     15.24      1.64
   -8   16    0     30.30      0.24
   -1   17    0      1.82     13.00
   -4   17    0      9.76      5.63
   -7   17    0     12.86      8.87
    0   18    0     11.98     -9.69
   -3   18    0      1.42      4.57
   -6   18    0     20.59      3.51
   -9   18    0     20.97     -0.38
   -2   19    0      3.19     -4.90
   -5   19    0      8.91      3.63
   -8   19    0      9.15      0.01
   -1   20    0      7.61      0.93
   -4   20    0      5.83    -13.20
   -7   20    0      8.57     -3.42
  -10   20    0      6.00      0.20
    0   21    0      2.80      0.37
   -3   21    0      1.98      4.26
   -6   21    0      2.97     -6.18
   -9   21    0      1.01      1.13
   -2   22    0      0.22      3.73
   -5   22    0      3.78      1.29
   -8   22    0      4.63     -5.22
  -11   22    0      4.14     -0.38
   -4   23    0      1.06      3.16
   -7   23    0      0.97      4.71
  -10   23    0      4.20     -2.10
   -6   24    0      6.40      1.41
   -9   24    0     -3.37     -0.42
  -12   24    0      8.23     -0.40
   -8   25    0     -1.93     -0.72
  -11   25    0      1.61      6.08
  -21   23    4      2.78      2.49
  -18   18   12      2.57      0.75
  -17   19   12     11.80     19.11
  -17   18   13     -8.54    -31.92
   -4   15   17     -3.24     -2.87
    0   12   18      0.88      4.97
   -1    2    0    271.71      0.14
   -1   23    0     -2.55      1.55
   -3   24    0     -4.52      0.73
  -13   26    0      4.86      0.01
   -1    1    1   -154.03   -127.65
  -19   25    1      2.32     -3.76
  -15   26    1      1.83      0.56
  -12   26    1     -0.79     -5.50
  -14   26    2      2.77      1.19
  -20   24    4      3.06      3.51
    0   22    5      0.36     -0.94
  -19   24    5     -0.98      1.63
   -9   25    5      0.20      0.13
  -18   24    6     -0.70     -1.21
   -6   24    6      2.15      0.13
  -14   25    6     -0.48      2.70
  -11   25    6     -0.68     -0.21
  -17   24    7      1.93     -0.40
   -5   23    8     -1.19      4.50
  -10   24    8      1.34     -4.41
  -16   23    9     -1.61      2.27
   -7   23    9     -0.08     -4.15
    0   20   10      1.48     -3.55
   -2   21   10     -2.82      2.04
  -12   23   10      0.54     -2.75
   -9   23   10     -2.04     -1.04
   -4   21   11     -1.72     -2.56
  -15   22   11     11.68     -1.00
  -15   21   12     -7.81     -1.16
   -6   21   12     -0.05      1.25
  -15   20   13     -3.86    -17.50
  -17   17   14     -0.51    -15.46
  -16   18   14     -5.20     -0.45
  -13   16   16    -37.96      0.39
  -12   17   16    -11.71      4.56
   -6   17   16      4.90     -1.25
   -9   16   17      3.71     -2.80
  -12   12   18     -7.36     11.45
  -11   13   18     -2.67      5.19
   -2   13   18     -0.62      4.52
   -7   14   18     -2.15      2.64
  -10   10   19      1.34      7.09
   -9   11   19      1.46      5.39
   -8   12   19      3.09     -3.50
   -5   12   19      0.58     -1.22
   -8    8   20      3.28      0.26
   -7    9   20      3.24     -2.06
   -4    9   20     -2.53      0.59
   -4    5   21      0.83      5.60
   -1    5   21     -3.38      1.11
    0    0    0      0.00      0.00
# SQUEEZE RESULTS (Version = 260918)
# Note: Data are Listed for all Voids in the P1 Unit Cell
# i.e. Centre of Gravity, Solvent Accessible Volume,
# Recovered number of Electrons in the Void and
# Details about the Squeezed Material
loop_
  _platon_squeeze_void_nr
  _platon_squeeze_void_average_x
  _platon_squeeze_void_average_y
  _platon_squeeze_void_average_z
  _platon_squeeze_void_volume
  _platon_squeeze_void_count_electrons
  _platon_squeeze_void_content
   1 -0.067 -0.136  0.279      3625       942 ' '
# Missing Reflections Below sin(th)/lambda = 0.25
loop_
  _platon_missing_refln_index_h
  _platon_missing_refln_index_k
  _platon_missing_refln_index_l
  _platon_missing_refln_theta
   -1    2    0     3.460
   -1    1    1     2.901
_platon_squeeze_void_probe_radius                  1.20
_platon_squeeze_details
)
TITL UHM-80           R 3 m :h     R = 0.09
CELL   25.5448   25.5448   21.0016     90.00     90.00    120.00
SPGR R3m
# Solvent Accessible Volume =      3628
# Electrons Found in S.A.V. =       932
# Note: Atoms in Void are Labelled as Cxxx and Qxxx for all Others
C101 1.000 1.003 0.860 !       3.54 eA-3
C102 0.438 0.561 0.296 !       3.37 eA-3
C103 1.000 1.005 0.047 !       3.14 eA-3
C104 0.500 1.001 0.763 !       2.60 eA-3
Q105 0.187 0.812 0.064 !       2.47 eA-3
C106 1.000 1.002 0.610 !       2.23 eA-3
C107 0.499 0.866 0.311 !       1.87 eA-3
C108 0.071 0.540 0.249 !       1.85 eA-3
C109 0.336 0.674 0.012 !       1.78 eA-3
C110 0.302 0.704 0.330 !       1.72 eA-3
C111 0.819 0.231 0.907 !       1.68 eA-3
C112 0.743 0.260 0.497 !       1.67 eA-3
C113 0.483 0.263 0.013 !       1.54 eA-3
C114 0.024 0.975 0.702 !       1.50 eA-3
C115 0.815 0.925 0.685 !       1.50 eA-3
C116 0.022 0.042 0.016 !       1.38 eA-3
Q117 0.546 0.773 0.125 !       1.36 eA-3
C118 0.350 0.841 0.345 !       1.35 eA-3
C119 0.336 0.718 0.717 !       1.34 eA-3
C120 0.383 0.718 0.717 !       1.34 eA-3
Q121 0.073 0.920 0.718 !       1.30 eA-3
C122 0.915 0.459 0.823 !       1.27 eA-3
C123 0.428 0.572 0.832 !       1.24 eA-3
Q124 0.313 0.627 0.971 !       1.22 eA-3
Q125 0.578 0.154 0.779 !       1.21 eA-3
C126 0.290 0.710 0.233 !       1.21 eA-3
C127 0.979 0.018-0.003 !       1.19 eA-3
Q128 0.811 0.270 0.924 !       1.18 eA-3
C129 0.273 0.547 0.184 !       1.16 eA-3
Q130 0.843 0.452 0.891 !       1.12 eA-3
Q131 0.359 0.642 0.235 !       1.08 eA-3
C132 0.914 0.832 0.514 !       1.08 eA-3
Q133 0.570 0.427 0.875 !       0.99 eA-3
Q134 0.490 0.806 0.172 !       0.99 eA-3
C135 1.000 0.997 0.453 !       0.98 eA-3
C136 0.336 0.674 0.639 !       0.95 eA-3
Q137 0.376 0.760 0.841 !       0.94 eA-3
C138 0.908 0.954 0.047 !       0.94 eA-3
Q139 0.056 0.941 0.748 !       0.93 eA-3
C140 0.046 0.956 0.111 !       0.92 eA-3
C141 1.000 1.003 0.282 !       0.91 eA-3
Q142 0.844 0.510 0.892 !       0.87 eA-3
C143 0.765 0.462 0.031 !       0.85 eA-3
Q144 0.553 0.384 0.784 !       0.85 eA-3
C145 0.336 0.671 0.185 !       0.84 eA-3
C146 0.648 0.299 0.875 !       0.80 eA-3
Q147 0.968 0.473 0.656 !       0.80 eA-3
Q148 0.688 0.313 0.656 !       0.80 eA-3
C149 0.750 0.821 0.623 !       0.80 eA-3
C150 0.023 0.977 0.126 !       0.79 eA-3
Q151 0.335 0.728 0.955 !       0.79 eA-3
Q152 0.703 0.405 0.888 !       0.78 eA-3
Q153 0.334 0.177 0.342 !       0.77 eA-3
Q154 0.828 0.235 0.970 !       0.77 eA-3
Q155 0.851 0.921 0.032 !       0.75 eA-3
Q156 0.384 0.145 0.939 !       0.74 eA-3
Q157 0.110 0.952 0.108 !       0.74 eA-3
Q158 0.780 0.615 0.440 !       0.74 eA-3
C159 0.274 0.603 0.813 !       0.73 eA-3
C160 0.398 0.728 0.811 !       0.73 eA-3
Q161 0.312 0.626 0.908 !       0.70 eA-3
Q162 0.133 0.264 0.719 !       0.69 eA-3
Q163 0.077 0.069 0.718 !       0.69 eA-3
Q164 0.703 0.404 0.639 !       0.68 eA-3
Q165 0.133 0.266 0.082 !       0.67 eA-3
Q166 0.477 0.733 0.144 !       0.66 eA-3
Q167 0.252 0.748 0.418 !       0.66 eA-3
Q168 0.930 0.857 0.035 !       0.66 eA-3
Q169 0.039 0.963 0.859 !       0.66 eA-3
Q170 0.086 0.601 0.359 !       0.66 eA-3
Q171 0.282 0.709 0.863 !       0.65 eA-3
C172 0.602 0.275 0.924 !       0.65 eA-3
Q173 0.912 0.172 0.379 !       0.62 eA-3
Q174 0.618 0.303 0.096 !       0.62 eA-3
Q175 0.756 0.454 0.533 !       0.61 eA-3
C176 0.071 0.928 0.092 !       0.61 eA-3
Q177 0.133 0.326 0.000 !       0.61 eA-3
Q178 0.657 0.539 0.919 !       0.61 eA-3
Q179 0.140 0.135 0.719 !       0.59 eA-3
Q180 0.075 0.040 0.328 !       0.59 eA-3
C181 0.633 0.369 0.828 !       0.59 eA-3
Q182 0.983 0.146 0.595 !       0.58 eA-3
Q183 0.937 0.866 0.720 !       0.58 eA-3
Q184 0.156 0.243 0.122 !       0.57 eA-3
Q185 0.969 0.935 0.734 !       0.56 eA-3
Q186 0.148 0.696 0.185 !       0.56 eA-3
Q187 0.066 0.459 0.311 !       0.54 eA-3
C188 0.079 0.541 0.812 !       0.54 eA-3
C189 0.444 0.698 0.281 !       0.52 eA-3
Q190 0.282 0.676 0.015 !       0.52 eA-3
C191 0.687 0.378 0.278 !       0.51 eA-3
C192 0.624 0.253 0.473 !       0.51 eA-3
Q193 0.648 0.361 0.699 !       0.51 eA-3
Q194 0.436 0.641 0.672 !       0.51 eA-3
C195 0.031 0.017 0.485 !       0.50 eA-3
)
;
_shelx_fab_checksum              15966
loop_
_space_group_symop_operation_xyz
'x, y, z'
'-y, x-y, z'
'-x+y, -x, z'
'-y, -x, z'
'-x+y, y, z'
'x, x-y, z'
'x+2/3, y+1/3, z+1/3'
'-y+2/3, x-y+1/3, z+1/3'
'-x+y+2/3, -x+1/3, z+1/3'
'-y+2/3, -x+1/3, z+1/3'
'-x+y+2/3, y+1/3, z+1/3'
'x+2/3, x-y+1/3, z+1/3'
'x+1/3, y+2/3, z+2/3'
'-y+1/3, x-y+2/3, z+2/3'
'-x+y+1/3, -x+2/3, z+2/3'
'-y+1/3, -x+2/3, z+2/3'
'-x+y+1/3, y+2/3, z+2/3'
'x+1/3, x-y+2/3, z+2/3'
loop_
_atom_site_label
_atom_site_type_symbol
_atom_site_fract_x
_atom_site_fract_y
_atom_site_fract_z
_atom_site_U_iso_or_equiv
_atom_site_adp_type
_atom_site_occupancy
_atom_site_site_symmetry_order
_atom_site_calc_flag
_atom_site_refinement_flags_posn
_atom_site_refinement_flags_adp
_atom_site_refinement_flags_occupancy
_atom_site_disorder_assembly
_atom_site_disorder_group
C10 C 0.5870(4) 0.6147(4) 0.4957(4) 0.034(2) Uani 1 1 d . . . . .
C11 C 0.6126(4) 0.6689(4) 0.4620(4) 0.035(2) Uani 1 1 d . . . . .
H11 H 0.587584 0.677669 0.435780 0.042 Uiso 1 1 calc R U . . .
C12 C 0.6735(4) 0.7101(4) 0.4659(4) 0.0312(19) Uani 1 1 d . . . . .
C13 C 0.7109(4) 0.6971(4) 0.5040(4) 0.036(2) Uani 1 1 d . . . . .
H13 H 0.752915 0.725161 0.507410 0.044 Uiso 1 1 calc R U . . .
C14 C 0.6850(4) 0.6425(4) 0.5363(4) 0.036(2) Uani 1 1 d . . . . .
C15 C 0.6229(4) 0.6016(4) 0.5308(4) 0.035(2) Uani 1 1 d . . . . .
H15 H 0.605861 0.563858 0.552309 0.042 Uiso 1 1 calc R U . . .
C16 C 0.6989(4) 0.7677(4) 0.4283(5) 0.039(2) Uani 1 1 d . . . . .
C17 C 0.7235(4) 0.6255(4) 0.5772(5) 0.045(2) Uani 1 1 d . . . . .
C20 C 0.4876(3) 0.5124(3) 0.4844(5) 0.030(3) Uani 1 2 d S T P . .
C21 C 0.5199(4) 0.5768(4) 0.4950(4) 0.034(2) Uani 1 1 d . . . . .
C22 C 0.4867(4) 0.6069(4) 0.5060(5) 0.045(2) Uani 1 1 d . . . . .
H22 H 0.508080 0.649612 0.510176 0.054 Uiso 1 1 calc R U . . .
C23 C 0.4240(3) 0.5760(3) 0.5108(7) 0.049(4) Uani 1 2 d S T P . .
H23 H 0.402764 0.597237 0.517226 0.059 Uiso 1 2 calc R U P . .
C40 C 0.4808(4) 0.4111(4) 0.4115(4) 0.040(2) Uani 1 1 d . . . . .
C41 C 0.4855(6) 0.3599(5) 0.4175(6) 0.068(3) Uani 1 1 d . . . . .
H41 H 0.508838 0.355944 0.450354 0.082 Uiso 1 1 calc R U . . .
C42 C 0.4541(7) 0.3139(5) 0.3726(7) 0.080(4) Uani 1 1 d . . . . .
H42 H 0.457866 0.278769 0.374707 0.096 Uiso 1 1 calc R U . . .
C43 C 0.4196(7) 0.3171(6) 0.3277(7) 0.083(4) Uani 1 1 d . . . . .
H43 H 0.397726 0.283687 0.299931 0.099 Uiso 1 1 calc R U . . .
C44 C 0.4151(5) 0.3687(5) 0.3206(5) 0.064(3) Uani 1 1 d . . . . .
H44 H 0.390742 0.371718 0.288336 0.077 Uiso 1 1 calc R U . . .
C45 C 0.4479(4) 0.4157(5) 0.3630(5) 0.049(2) Uani 1 1 d . . . . .
H45 H 0.447311 0.452389 0.357978 0.059 Uiso 1 1 calc R U . . .
N100 N 0.2355(4) 0.4710(7) 0.5289(6) 0.073(4) Uani 1 2 d DS T P . .
O100 O 0.2757(6) 0.5514(12) 0.4658(12) 0.188(11) Uani 1 2 d DS T P . .
C100 C 0.2502(7) 0.5003(13) 0.4728(11) 0.118(9) Uani 1 2 d DS T P . .
H100 H 0.238058 0.476116 0.435484 0.141 Uiso 1 2 calc R U P . .
C101 C 0.2033(4) 0.4066(9) 0.5258(8) 0.080(5) Uani 1 2 d DS T P . .
H10A H 0.194938 0.389877 0.568996 0.121 Uiso 1 2 calc R U P . .
H10B H 0.165060 0.392769 0.503075 0.121 Uiso 0.5 1 calc R U P . .
H10C H 0.227708 0.392769 0.503075 0.121 Uiso 0.5 1 calc R U P . .
C102 C 0.2514(5) 0.5028(10) 0.5877(9) 0.092(6) Uani 1 2 d DS T P . .
H10D H 0.236915 0.473830 0.622957 0.137 Uiso 1 2 calc R U P . .
H10E H 0.295456 0.528263 0.590290 0.137 Uiso 0.5 1 calc R U P . .
H10F H 0.232808 0.528263 0.590290 0.137 Uiso 0.5 1 calc R U P . .
O10 O 0.7532(4) 0.8074(4) 0.4365(5) 0.094(3) Uani 1 1 d . . . . .
O11 O 0.6637(3) 0.7746(2) 0.3925(3) 0.0370(15) Uani 1 1 d . . . . .
O12 O 0.7762(2) 0.6659(3) 0.5881(3) 0.0365(15) Uani 1 1 d . . . . .
O13 O 0.6998(3) 0.5713(3) 0.5935(5) 0.096(4) Uani 1 1 d . . . . .
O40 O 0.5494(4) 0.4506(4) 0.5191(9) 0.075(9) Uani 0.57(3) 2 d S T . . .
O50 O 0.87985(19) 0.7597(4) 0.6541(5) 0.048(2) Uani 1 2 d DS T P . .
H50A H 0.891(3) 0.781(5) 0.615(3) 0.072 Uiso 1 2 d DS U P . .
H50B H 0.893(2) 0.787(5) 0.688(4) 0.072 Uiso 1 2 d DS U P . .
O60 O 0.78423(18) 0.5685(4) 0.6637(4) 0.043(2) Uani 1 2 d S T P . .
Mg1 Mg 0.83379(8) 0.66757(16) 0.65848(19) 0.0267(9) Uani 1 2 d S T P A .
P40 P 0.52806(7) 0.47194(7) 0.46644(16) 0.0377(9) Uani 1 2 d S T P . .
Mg2A Mg 0.7646(2) 0.5292(4) 0.7483(5) 0.028(3) Uani 0.382(13) 2 d S T P A 1
O70A O 0.7783(8) 0.4606(8) 0.7210(8) 0.117(5) Uiso 0.382(13) 1 d . . P A 1
O80A O 0.7419(7) 0.4838(14) 0.8346(16) 0.080(9) Uiso 0.382(13) 2 d S . P A 1
Mg2B Mg 0.8244(6) 0.5211(5) 0.6748(6) 0.059(4) Uani 0.309(7) 1 d D . P A 2
O70B O 0.7783(8) 0.4606(8) 0.7210(8) 0.117(5) Uiso 0.309(7) 1 d . . P A 2
O80B O 0.8802(16) 0.4810(16) 0.6944(19) 0.119(9) Uiso 0.309(7) 1 d D . P A 2
O90B O 0.8014(18) 0.4541(15) 0.5924(15) 0.119(9) Uiso 0.309(7) 1 d D . P A 2
loop_
_atom_site_aniso_label
_atom_site_aniso_U_11
_atom_site_aniso_U_22
_atom_site_aniso_U_33
_atom_site_aniso_U_23
_atom_site_aniso_U_13
_atom_site_aniso_U_12
C10 0.027(4) 0.036(5) 0.035(5) 0.007(4) 0.001(4) 0.014(4)
C11 0.038(5) 0.036(5) 0.038(5) -0.001(4) -0.005(4) 0.024(4)
C12 0.033(4) 0.036(5) 0.026(4) 0.004(4) 0.000(4) 0.018(4)
C13 0.034(5) 0.038(5) 0.040(5) 0.000(4) 0.002(4) 0.020(4)
C14 0.037(5) 0.035(5) 0.041(5) 0.000(4) -0.004(4) 0.023(4)
C15 0.035(4) 0.041(5) 0.037(5) 0.002(4) 0.003(4) 0.025(4)
C16 0.034(5) 0.039(5) 0.043(5) 0.005(4) 0.000(4) 0.017(4)
C17 0.036(5) 0.039(5) 0.057(6) 0.005(5) -0.006(4) 0.017(4)
C20 0.036(5) 0.036(5) 0.019(6) 0.010(3) -0.010(3) 0.019(5)
C21 0.028(4) 0.038(5) 0.038(5) 0.002(4) -0.005(4) 0.019(4)
C22 0.046(5) 0.028(5) 0.060(6) -0.006(5) 0.002(5) 0.018(4)
C23 0.045(6) 0.045(6) 0.064(10) 0.000(3) 0.000(3) 0.026(6)
C40 0.039(5) 0.040(5) 0.041(5) 0.005(4) 0.000(4) 0.021(5)
C41 0.087(9) 0.045(6) 0.075(7) -0.014(5) 0.000(6) 0.034(6)
C42 0.104(10) 0.040(6) 0.094(9) -0.015(6) 0.000(7) 0.035(7)
C43 0.099(10) 0.068(8) 0.065(7) -0.015(7) 0.001(7) 0.030(8)
C44 0.063(7) 0.061(6) 0.050(6) -0.006(5) -0.001(5) 0.016(6)
C45 0.045(6) 0.054(6) 0.044(5) -0.003(5) -0.005(4) 0.022(5)
N100 0.052(5) 0.148(11) 0.050(6) -0.016(7) -0.008(4) 0.074(6)
O100 0.173(14) 0.24(3) 0.18(2) 0.07(2) 0.033(10) 0.118(13)
C100 0.090(9) 0.23(2) 0.083(12) 0.042(16) 0.021(8) 0.113(12)
C101 0.071(8) 0.140(12) 0.053(10) -0.034(10) -0.017(5) 0.070(6)
C102 0.078(8) 0.137(18) 0.079(10) -0.036(11) -0.018(6) 0.068(9)
O10 0.052(5) 0.072(5) 0.114(7) 0.055(5) -0.032(5) -0.002(4)
O11 0.039(4) 0.027(3) 0.043(3) 0.006(3) -0.005(3) 0.015(3)
O12 0.030(3) 0.041(4) 0.034(3) 0.007(3) -0.003(3) 0.015(3)
O13 0.045(5) 0.052(5) 0.170(9) 0.047(5) -0.049(5) 0.009(4)
O40 0.094(14) 0.094(14) 0.066(12) 0.018(5) -0.018(5) 0.068(13)
O50 0.055(5) 0.033(5) 0.050(6) 0.006(4) 0.003(2) 0.016(2)
O60 0.044(4) 0.029(5) 0.050(5) 0.003(4) 0.002(2) 0.015(2)
Mg1 0.0223(14) 0.029(2) 0.031(2) 0.0022(16) 0.0011(8) 0.0145(10)
P40 0.0382(14) 0.0382(14) 0.0426(19) 0.0000(8) 0.0000(8) 0.0235(17)
Mg2A 0.020(4) 0.029(6) 0.037(6) 0.008(4) 0.004(2) 0.014(3)
Mg2B 0.065(8) 0.053(7) 0.065(8) 0.010(6) 0.001(6) 0.034(6)
loop_
_atom_type_symbol
_atom_type_description
_atom_type_scat_dispersion_real
_atom_type_scat_dispersion_imag
_atom_type_scat_source
C C 0.0181 0.0091 'International Tables Vol C Tables 4.2.6.8 and 6.1.1.4'
H H 0.0000 0.0000 'International Tables Vol C Tables 4.2.6.8 and 6.1.1.4'
O O 0.0492 0.0322 'International Tables Vol C Tables 4.2.6.8 and 6.1.1.4'
Mg Mg 0.1719 0.1771 'International Tables Vol C Tables 4.2.6.8 and 6.1.1.4'
P P 0.2955 0.4335 'International Tables Vol C Tables 4.2.6.8 and 6.1.1.4'
N N 0.0311 0.0180 'International Tables Vol C Tables 4.2.6.8 and 6.1.1.4'
loop_
_geom_angle_atom_site_label_1
_geom_angle_atom_site_label_2
_geom_angle_atom_site_label_3
_geom_angle
_geom_angle_site_symmetry_1
_geom_angle_site_symmetry_3
C15 C10 C11 119.1(8) . .
C15 C10 C21 123.4(8) . .
C11 C10 C21 117.3(7) . .
C12 C11 C10 121.2(8) . .
C12 C11 H11 119.4 . .
C10 C11 H11 119.4 . .
C11 C12 C13 119.7(8) . .
C11 C12 C16 119.1(7) . .
C13 C12 C16 121.2(8) . .
C14 C13 C12 118.6(8) . .
C14 C13 H13 120.7 . .
C12 C13 H13 120.7 . .
C13 C14 C15 120.1(8) . .
C13 C14 C17 120.9(8) . .
C15 C14 C17 119.0(8) . .
C10 C15 C14 121.2(8) . .
C10 C15 H15 119.4 . .
C14 C15 H15 119.4 . .
O11 C16 O10 123.3(9) . .
O11 C16 C12 117.8(8) . .
O10 C16 C12 118.8(8) . .
O12 C17 O13 126.5(8) . .
O12 C17 C14 116.9(8) . .
O13 C17 C14 116.5(8) . .
C21 C20 C21 117.7(11) 4_665 .
C21 C20 P40 121.0(5) 4_665 .
C21 C20 P40 121.0(5) . .
C22 C21 C20 119.2(8) . .
C22 C21 C10 116.8(8) . .
C20 C21 C10 124.0(8) . .
C23 C22 C21 122.3(9) . .
C23 C22 H22 118.8 . .
C21 C22 H22 118.8 . .
C22 C23 C22 118.5(12) . 4_665
C22 C23 H23 120.8 . .
C22 C23 H23 120.8 4_665 .
C45 C40 C41 120.0(10) . .
C45 C40 P40 125.0(8) . .
C41 C40 P40 114.6(8) . .
C40 C41 C42 116.7(12) . .
C40 C41 H41 121.6 . .
C42 C41 H41 121.6 . .
C43 C42 C41 123.2(12) . .
C43 C42 H42 118.4 . .
C41 C42 H42 118.4 . .
C42 C43 C44 120.6(12) . .
C42 C43 H43 119.7 . .
C44 C43 H43 119.7 . .
C43 C44 C45 117.0(12) . .
C43 C44 H44 121.5 . .
C45 C44 H44 121.5 . .
C40 C45 C44 122.3(10) . .
C40 C45 H45 118.8 . .
C44 C45 H45 118.8 . .
C100 N100 C102 121.5(19) . .
C100 N100 C101 116.2(18) . .
C102 N100 C101 122.3(15) . .
O100 C100 N100 126(3) . .
O100 C100 H100 116.8 . .
N100 C100 H100 116.8 . .
N100 C101 H10A 109.5 . .
N100 C101 H10B 109.5 . .
H10A C101 H10B 109.5 . .
N100 C101 H10C 109.5 . .
H10A C101 H10C 109.5 . .
H10B C101 H10C 109.5 . .
N100 C102 H10D 109.5 . .
N100 C102 H10E 109.5 . .
H10D C102 H10E 109.5 . .
N100 C102 H10F 109.5 . .
H10D C102 H10F 109.5 . .
H10E C102 H10F 109.5 . .
C16 O10 Mg2A 133.2(7) . 14_654
C16 O10 Mg2B 115.1(8) . 16_664
Mg2A O10 Mg2B 59.4(4) 14_654 16_664
C16 O11 Mg1 139.9(6) . 14_654
C17 O12 Mg1 127.7(6) . .
C17 O13 Mg2B 138.1(9) . 5_655
Mg1 O50 H50A 122(8) . .
Mg1 O50 H50B 128(8) . .
H50A O50 H50B 110(7) . .
Mg2B O60 Mg2B 113.3(8) 5_655 .
Mg2B O60 Mg1 122.8(4) 5_655 .
Mg2B O60 Mg1 122.8(4) . .
Mg2A O60 Mg1 118.9(5) . .
O11 Mg1 O11 91.9(4) 10_665 9_565
O11 Mg1 O50 90.5(3) 10_665 .
O11 Mg1 O50 90.5(3) 9_565 .
O11 Mg1 O12 178.4(3) 10_665 .
O11 Mg1 O12 89.6(2) 9_565 .
O50 Mg1 O12 89.2(3) . .
O11 Mg1 O12 89.6(2) 10_665 5_655
O11 Mg1 O12 178.4(3) 9_565 5_655
O50 Mg1 O12 89.2(3) . 5_655
O12 Mg1 O12 88.8(3) . 5_655
O11 Mg1 O60 89.3(3) 10_665 .
O11 Mg1 O60 89.3(3) 9_565 .
O50 Mg1 O60 179.7(5) . .
O12 Mg1 O60 91.0(3) . .
O12 Mg1 O60 91.0(3) 5_655 .
O11 Mg1 Mg2A 69.8(2) 10_665 .
O11 Mg1 Mg2A 69.8(2) 9_565 .
O50 Mg1 Mg2A 150.9(4) . .
O12 Mg1 Mg2A 111.1(2) . .
O12 Mg1 Mg2A 111.1(2) 5_655 .
O60 Mg1 Mg2A 28.8(3) . .
O11 Mg1 Mg2B 106.0(3) 10_665 5_655
O11 Mg1 Mg2B 68.4(3) 9_565 5_655
O50 Mg1 Mg2B 153.2(2) . 5_655
O12 Mg1 Mg2B 74.8(3) . 5_655
O12 Mg1 Mg2B 111.4(3) 5_655 5_655
O60 Mg1 Mg2B 26.8(2) . 5_655
Mg2A Mg1 Mg2B 36.3(2) . 5_655
O11 Mg1 Mg2B 68.4(3) 10_665 .
O11 Mg1 Mg2B 106.0(3) 9_565 .
O50 Mg1 Mg2B 153.2(2) . .
O12 Mg1 Mg2B 111.4(3) . .
O12 Mg1 Mg2B 74.8(2) 5_655 .
O60 Mg1 Mg2B 26.8(2) . .
Mg2B Mg1 Mg2B 53.2(4) 5_655 .
O40 P40 C40 111.9(6) . .
O40 P40 C40 111.9(6) . 4_665
C40 P40 C40 98.4(6) . 4_665
O40 P40 C20 118.7(9) . .
C40 P40 C20 107.0(4) . .
C40 P40 C20 107.0(4) 4_665 .
O60 Mg2A O70A 94.2(7) . 5_655
O60 Mg2A O70A 94.2(7) . .
O70A Mg2A O70A 74.1(10) 5_655 .
O60 Mg2A O80A 177.0(11) . .
O70A Mg2A O80A 83.4(9) 5_655 .
O70A Mg2A O80A 83.4(9) . .
O60 Mg2A O10 87.7(4) . 10_665
O70A Mg2A O10 161.5(7) 5_655 10_665
O70A Mg2A O10 87.4(6) . 10_665
O80A Mg2A O10 94.0(6) . 10_665
O60 Mg2A O10 87.7(4) . 9_565
O70A Mg2A O10 87.4(6) 5_655 9_565
O70A Mg2A O10 161.5(7) . 9_565
O80A Mg2A O10 94.0(6) . 9_565
O10 Mg2A O10 111.1(8) 10_665 9_565
O60 Mg2A Mg1 32.3(3) . .
O70A Mg2A Mg1 119.1(6) 5_655 .
O70A Mg2A Mg1 119.1(6) . .
O80A Mg2A Mg1 150.7(10) . .
O10 Mg2A Mg1 70.4(3) 10_665 .
O10 Mg2A Mg1 70.4(3) 9_565 .
O70B Mg2B O60 106.9(9) . .
O60 Mg2B O13 81.0(5) . 5_655
O70B Mg2B O80B 77.5(12) . .
O60 Mg2B O80B 171.1(12) . .
O13 Mg2B O80B 97.5(12) 5_655 .
O70B Mg2B O90B 87.1(13) . .
O60 Mg2B O90B 110.7(11) . .
O13 Mg2B O90B 72.5(11) 5_655 .
O80B Mg2B O90B 76.9(15) . .
O70B Mg2B O10 88.1(8) . 10_665
O60 Mg2B O10 81.6(5) . 10_665
O13 Mg2B O10 111.9(6) 5_655 10_665
O80B Mg2B O10 90.8(12) . 10_665
O90B Mg2B O10 167.6(11) . 10_665
O70B Mg2B Mg2B 76.2(7) . 5_655
O60 Mg2B Mg2B 33.3(4) . 5_655
O13 Mg2B Mg2B 105.4(4) 5_655 5_655
O80B Mg2B Mg2B 153.2(10) . 5_655
O90B Mg2B Mg2B 96.7(10) . 5_655
O10 Mg2B Mg2B 93.3(4) 10_665 5_655
O70B Mg2B Mg1 130.2(8) . .
O60 Mg2B Mg1 30.4(3) . .
O13 Mg2B Mg1 64.9(3) 5_655 .
O80B Mg2B Mg1 141.4(11) . .
O90B Mg2B Mg1 123.8(10) . .
O10 Mg2B Mg1 67.5(3) 10_665 .
Mg2B Mg2B Mg1 63.40(19) 5_655 .
loop_
_geom_bond_atom_site_label_1
_geom_bond_atom_site_label_2
_geom_bond_distance
_geom_bond_site_symmetry_2
C10 C15 1.345(12) .
C10 C11 1.393(12) .
C10 C21 1.489(12) .
C11 C12 1.377(12) .
C11 H11 0.9500 .
C12 C13 1.406(12) .
C12 C16 1.500(13) .
C13 C14 1.387(13) .
C13 H13 0.9500 .
C14 C15 1.402(13) .
C14 C17 1.522(13) .
C15 H15 0.9500 .
C16 O11 1.249(11) .
C16 O10 1.257(11) .
C17 O12 1.243(11) .
C17 O13 1.249(11) .
C20 C21 1.442(11) 4_665
C20 C21 1.442(11) .
C20 P40 1.827(13) .
C21 C22 1.419(13) .
C22 C23 1.391(12) .
C22 H22 0.9500 .
C23 H23 0.9500 .
C40 C45 1.363(14) .
C40 C41 1.377(15) .
C40 P40 1.824(10) .
C41 C42 1.403(17) .
C41 H41 0.9500 .
C42 C43 1.321(19) .
C42 H42 0.9500 .
C43 C44 1.388(18) .
C43 H43 0.9500 .
C44 C45 1.389(15) .
C44 H44 0.9500 .
C45 H45 0.9500 .
N100 C100 1.34(2) .
N100 C102 1.420(18) .
N100 C101 1.428(19) .
O100 C100 1.14(2) .
C100 H100 0.9500 .
C101 H10A 0.9800 .
C101 H10B 0.9800 .
C101 H10C 0.9800 .
C102 H10D 0.9800 .
C102 H10E 0.9800 .
C102 H10F 0.9800 .
O10 Mg2A 2.143(9) 14_654
O10 Mg2B 2.389(16) 16_664
O11 Mg1 2.037(6) 14_654
O12 Mg1 2.070(6) .
O13 Mg2B 2.114(14) 5_655
O40 P40 1.455(17) .
O50 Mg1 2.040(9) .
O50 H50A 0.95(3) .
O50 H50B 0.94(3) .
O60 Mg2B 1.953(12) 5_655
O60 Mg2B 1.954(12) .
O60 Mg2A 1.978(12) .
O60 Mg1 2.195(9) .
Mg1 Mg2A 3.595(10) .
Mg1 Mg2B 3.644(12) 5_655
Mg1 Mg2B 3.645(12) .
Mg2A O70A 2.034(19) 5_655
Mg2A O70A 2.034(19) .
Mg2A O80A 2.07(3) .
Mg2B O70B 1.70(2) .
Mg2B O80B 2.17(3) .
Mg2B O90B 2.29(3) .
Mg2B Mg2B 3.26(2) 5_655
