#------------------------------------------------------------------------------
#$Date: 2019-11-08 00:23:43 +0200 (Fri, 08 Nov 2019) $
#$Revision: 224246 $
#$URL: file:///home/coder/svn-repositories/cod/cif/7/70/12/7701255.cif $
#------------------------------------------------------------------------------
#
# This file is available in the Crystallography Open Database (COD),
# http://www.crystallography.net/
#
# All data on this site have been placed in the public domain by the
# contributors.
#
data_7701255
loop_
_publ_author_name
'Fritzsche, J.'
'Ettlinger, R.'
'Grzywa, M.'
'Jantz, S. G.'
'Kalytta-Mewes, A'
'Bunzen, H.'
'H\"oppe, H A'
'Volkmer, D.'
_publ_section_title
;
 CFA-15 - a perfluorinated metal-organic framework with linear 1-D
 Cu<sup>II</sup>-chains containing accessible unsaturated, reactive metal
 centres.
;
_journal_issue                   40
_journal_name_full
'Dalton transactions (Cambridge, England : 2003)'
_journal_page_first              15236
_journal_page_last               15246
_journal_paper_doi               10.1039/c9dt02133g
_journal_volume                  48
_journal_year                    2019
_chemical_formula_sum            'C6 H2 F6 N2 O2'
_chemical_formula_weight         248.10
_chemical_name_common
'3,5-bis(trifluoromethyl)pyrazole-4-carboxylic acid'
_space_group_crystal_system      orthorhombic
_space_group_IT_number           36
_space_group_name_Hall           'C 2c -2'
_space_group_name_H-M_alt        'C m c 21'
_symmetry_space_group_name_Hall  'C 2c -2'
_symmetry_space_group_name_H-M   'C m c 21'
_atom_sites_solution_hydrogens   difmap
_audit_creation_method           SHELXL-2013
_audit_update_record
;
2019-05-02 deposited with the CCDC.    2019-09-25 downloaded from the CCDC.
;
_cell_angle_alpha                90
_cell_angle_beta                 90
_cell_angle_gamma                90
_cell_formula_units_Z            4
_cell_length_a                   6.7891(4)
_cell_length_b                   6.9057(3)
_cell_length_c                   17.1652(9)
_cell_measurement_reflns_used    7108
_cell_measurement_temperature    200(2)
_cell_measurement_theta_max      25.242
_cell_measurement_theta_min      2.373
_cell_volume                     804.76(7)
_computing_structure_refinement  'SHELXL-2013 (Sheldrick, 2013)'
_diffrn_ambient_temperature      200(2)
_diffrn_measured_fraction_theta_full 0.530
_diffrn_measured_fraction_theta_max 0.978
_diffrn_measurement_device_type  'Bruker D8 Venture'
_diffrn_measurement_method       'omega scan'
_diffrn_radiation_monochromator  graphite
_diffrn_radiation_type           MoK\a
_diffrn_radiation_wavelength     0.71073
_diffrn_reflns_av_R_equivalents  0.0268
_diffrn_reflns_av_unetI/netI     0.0105
_diffrn_reflns_Laue_measured_fraction_full 0.530
_diffrn_reflns_Laue_measured_fraction_max 0.978
_diffrn_reflns_limit_h_max       6
_diffrn_reflns_limit_h_min       -6
_diffrn_reflns_limit_k_max       6
_diffrn_reflns_limit_k_min       -6
_diffrn_reflns_limit_l_max       16
_diffrn_reflns_limit_l_min       -16
_diffrn_reflns_number            7108
_diffrn_reflns_point_group_measured_fraction_full 0.528
_diffrn_reflns_point_group_measured_fraction_max 0.981
_diffrn_reflns_theta_full        25.242
_diffrn_reflns_theta_max         19.942
_diffrn_reflns_theta_min         2.373
_diffrn_source                   'fine-focus sealed tube'
_exptl_absorpt_coefficient_mu    0.240
_exptl_absorpt_correction_T_max  0.7458
_exptl_absorpt_correction_T_min  0.5841
_exptl_absorpt_correction_type   multi-scan
_exptl_absorpt_process_details
; 
 multi-scan absorption correction using SADABS 
(G. M. Sheldrick, (1996). SADABS. Program for Empirical 
Absorption Correction. University of G\"ottingen, Germany.)
;
_exptl_crystal_colour            colourless
_exptl_crystal_density_diffrn    2.048
_exptl_crystal_description       rod
_exptl_crystal_F_000             488
_exptl_crystal_size_max          0.250
_exptl_crystal_size_mid          0.150
_exptl_crystal_size_min          0.140
_refine_diff_density_max         0.338
_refine_diff_density_min         -0.406
_refine_diff_density_rms         0.093
_refine_ls_abs_structure_details
;
 Flack x determined using 0 quotients [(I+)-(I-)]/[(I+)+(I-)]
 (Parsons and Flack (2004), Acta Cryst. A60, s61).
;
_refine_ls_abs_structure_Flack   0.000
_refine_ls_extinction_method     none
_refine_ls_goodness_of_fit_ref   1.208
_refine_ls_hydrogen_treatment    refxyz
_refine_ls_matrix_type           full
_refine_ls_number_parameters     68
_refine_ls_number_reflns         418
_refine_ls_number_restraints     24
_refine_ls_restrained_S_all      1.169
_refine_ls_R_factor_all          0.0679
_refine_ls_R_factor_gt           0.0668
_refine_ls_shift/su_max          0.040
_refine_ls_shift/su_mean         0.006
_refine_ls_structure_factor_coef Fsqd
_refine_ls_weighting_details
'w=1/[\s^2^(Fo^2^)+(0.0392P)^2^+11.1404P] where P=(Fo^2^+2Fc^2^)/3'
_refine_ls_weighting_scheme      calc
_refine_ls_wR_factor_gt          0.1437
_refine_ls_wR_factor_ref         0.1447
_reflns_Friedel_coverage         0.917
_reflns_Friedel_fraction_full    0.525
_reflns_Friedel_fraction_max     0.985
_reflns_number_gt                414
_reflns_number_total             418
_reflns_threshold_expression     'I > 2\s(I)'
_cod_data_source_file            c9dt02133g2.cif
_cod_data_source_block           H2-tfpc
_cod_depositor_comments
'Adding full bibliography for 7701254--7701255.cif.'
_cod_database_code               7701255
_shelx_space_group_comment
;
The symmetry employed for this shelxl refinement is uniquely defined
by the following loop, which should always be used as a source of
symmetry information in preference to the above space-group names.
They are only intended as comments.
;
_shelx_estimated_absorpt_t_min   0.942
_shelx_estimated_absorpt_t_max   0.967
_shelxl_version_number           2013-4
_shelx_res_file
;
TITL mo_H2TFPC_e_0ma_a.res in Cmcm --> Cmc2(1)
REM Old TITL mo_H2TFPC_e_0ma in Cmc2(1)

REM SHELXT solution in Cmcm
REM R1 0.230,  Rweak 0.030,  Alpha 0.062,  Orientation as input
REM Formula found by SHELXT:  C4 F52 O

CELL  0.71073   6.7891   6.9057  17.1652   90.000   90.000   90.000
ZERR    4.000   0.0004   0.0003   0.0009    0.000    0.000    0.000
LATT -7
SYMM -X, -Y, 1/2+Z
SYMM X, -Y, 1/2+Z
SYMM -X, Y, Z
SFAC C H F N O
UNIT 24 8 24 8 8
TEMP -73.470
SIZE 0.14 0.15 0.25
L.S. 6
BOND $H
LIST 6
ACTA
FMAP 2
OMIT 0 40

OMIT    3   1   3
OMIT    3   1  -3
OMIT    0   2   0
OMIT    4   4   0
OMIT    0   2   1
OMIT    0   2  -1
OMIT    0   2   2
OMIT    0   2  -2

PLAN 60
REM EQIV  $2   x, y, -z+3/2
EQIV $1   -x+1/2, -y+1/2, z-1/2
EQIV $2   x-1/2, -y+1/2, z-1/2
EQIV $3   -x, -y+1, z+1/2

TWIN 1 0 0 0 1 0 0 0 -1 -4

REM TWIN 0 -1 0 1 0 0 0 0 1 -8
REM BASF 0.125 0.125 0.125 0.125 0.125 0.125 0.125

DAMP 400

HTAB O1 N2
HTAB N1 O2

DFIX 0.96 0.01 O1 H1 N1 H2
DFIX 2.13 0.01 N2 H2
DFIX 2.47 0.01 O2 H1

SADI 0.01 C41 O2_$3 C41 O1_$3
SADI 0.001 C4 C3_$3 C4 C5_$3
SADI 0.001 N1 C5 N2 C3
SADI 0.001 C5 C51 C3 C31
SADI 0.001 C51 F51 C51 F52_$2 C51 F52_$1 C31 F31 C31 F32_$1 =
 C31 F32_$2

EADP N1 N2
EADP O1 O2

EADP F51 F31
EADP F52 F32
EADP C5 C3
EADP C51 C31
EADP C41 C4
REM SWAT 0.1 4

REM EXTI    0.000000
WGHT    0.039200   11.140400
BASF   0.08171   0.23709  -9.99900
FVAR       0.46873
F51   3    0.000000    0.348535    0.445446    10.50000    0.07126    0.02421 =
         0.04190   -0.00106    0.00000    0.00000
F31   3    0.000000    0.378074    0.066724    10.50000    0.07126    0.02421 =
         0.04190   -0.00106    0.00000    0.00000
F52   3    0.336546    0.403477    0.919787    11.00000    0.06424    0.05177 =
         0.04804   -0.00749    0.00929    0.01073
F32   3    0.650466    0.397991    0.577121    11.00000    0.06424    0.05177 =
         0.04804   -0.00749    0.00929    0.01073
O1    5    0.000000    0.814763    0.181815    10.50000    0.07015    0.01794 =
         0.02891    0.01773    0.00000    0.00000
O2    5    0.000000    0.812250    0.310711    10.50000    0.07015    0.01794 =
         0.02891    0.01773    0.00000    0.00000
N1    4    0.000000    0.417493    0.290446    10.50000    0.02762    0.02393 =
         0.04874   -0.00584    0.00000    0.00000
N2    4    0.000000    0.422623    0.213114    10.50000    0.02762    0.02393 =
         0.04874   -0.00584    0.00000    0.00000
C41   1    0.000000    0.100431    0.746520    10.50000    0.01791    0.02371 =
         0.03787    0.00587    0.00000    0.00000
C4    1    0.000000    0.889036    0.751387    10.50000    0.01791    0.02371 =
         0.03787    0.00587    0.00000    0.00000
C5    1    0.000000    0.234896    0.315451    10.50000    0.02060    0.01519 =
         0.03003    0.01192    0.00000    0.00000
C3    1    0.000000    0.239444    0.188792    10.50000    0.02060    0.01519 =
         0.03003    0.01192    0.00000    0.00000
C51   1    0.000000    0.191361    0.400740    10.50000    0.01224    0.03328 =
         0.07737    0.03565    0.00000    0.00000
C31   1    0.000000    0.207572    0.102676    10.50000    0.01224    0.03328 =
         0.07737    0.03565    0.00000    0.00000
H1    2    0.000000    0.676144    0.177695    10.50000   10.05000
H2    2    0.000000    0.510569    0.332008    10.50000   10.05000

HKLF 4

REM  mo_H2TFPC_e_0ma_a.res in Cmcm --> Cmc2(1)
REM R1 =  0.0668 for     414 Fo > 4sig(Fo)  and  0.0679 for all     418 data
REM     68 parameters refined using     24 restraints

END

WGHT      0.0394     11.1376

REM Highest difference peak  0.338,  deepest hole -0.406,  1-sigma level  0.093
Q1    1   0.0000  0.2009  0.4591  10.50000  0.05    0.34
Q2    1   0.1515  0.7781  0.2687  11.00000  0.05    0.31
Q3    1   0.1699  0.4293  0.4089  11.00000  0.05    0.29
Q4    1   0.0000  0.3106  0.3006  10.50000  0.05    0.29
Q5    1   0.1617  0.4652  0.0625  11.00000  0.05    0.28
Q6    1   0.0000  0.2497  0.1209  10.50000  0.05    0.26
Q7    1   0.0000  0.0911  0.4421  10.50000  0.05    0.26
Q8    1   0.6169  0.4989  0.5732  11.00000  0.05    0.26
Q9    1   0.0000  0.8915  0.7272  10.50000  0.05    0.25
Q10   1   0.5000  0.4301  0.5707  10.50000  0.05    0.25
Q11   1   0.0000  0.8771  0.1550  10.50000  0.05    0.24
Q12   1   0.1103  0.5842  0.2318  11.00000  0.05    0.24
Q13   1   0.2747  0.3326  0.9083  11.00000  0.05    0.23
Q14   1   0.7264  0.3377  0.5903  11.00000  0.05    0.23
Q15   1   0.3814  0.4660  0.9537  11.00000  0.05    0.23
Q16   1   0.0839  0.2943  0.0462  11.00000  0.05    0.22
Q17   1   0.0351  0.2657  0.3739  11.00000  0.05    0.22
Q18   1   0.1252  0.7988  0.2236  11.00000  0.05    0.22
Q19   1   0.0000  0.8771  0.0790  10.50000  0.05    0.21
Q20   1   0.0000  0.9168  0.7897  10.50000  0.05    0.21
Q21   1   0.0000  0.4056  0.4273  10.50000  0.05    0.20
Q22   1   0.0000  0.4018  0.1142  10.50000  0.05    0.18
Q23   1   0.0767  0.9070  0.3357  11.00000  0.05    0.18
Q24   1   0.0749  0.4844  0.2499  11.00000  0.05    0.17
Q25   1   0.1160  0.0918  0.1588  11.00000  0.05    0.17
Q26   1   0.0820  0.6755  0.1049  11.00000  0.05    0.17
Q27   1   0.0938  0.6031  0.2772  11.00000  0.05    0.17
Q28   1   0.8535  0.2163  0.5822  11.00000  0.05    0.17
Q29   1  -0.1137  0.3789 -0.0225  11.00000  0.05    0.16
Q30   1   0.0000  0.6604  0.2851  10.50000  0.05    0.16
Q31   1   0.1784  0.1913  0.9530  11.00000  0.05    0.16
Q32   1   0.0000  0.6984  0.3220  10.50000  0.05    0.16
Q33   1   0.0000  0.8578  0.4116  10.50000  0.05    0.15
Q34   1  -0.0840  0.3779  0.5141  11.00000  0.05    0.14
Q35   1   0.0434  0.2047  0.1705  11.00000  0.05    0.14
Q36   1   0.0000  0.4297 -0.0102  10.50000  0.05    0.13
Q37   1   0.2140  0.7722  0.3596  11.00000  0.05    0.13
Q38   1   0.1920  0.5271  0.9795  11.00000  0.05    0.12
Q39   1   0.1058  0.4004  0.1664  11.00000  0.05    0.11
Q40   1  -0.2045  0.9811  0.7767  11.00000  0.05    0.10
Q41   1   0.7453  0.2680  0.5062  11.00000  0.05    0.10
Q42   1   0.1096  0.2806  0.2248  11.00000  0.05    0.10
Q43   1   0.3707  0.4002  0.8509  11.00000  0.05    0.09
Q44   1   0.0000  1.0065  0.3496  10.50000  0.05    0.09
Q45   1   0.3804  0.3715  0.9976  11.00000  0.05    0.08
Q46   1   0.2083  0.5103  0.1688  11.00000  0.05    0.07
;
_shelx_res_checksum              41063
_publcif_funding_html
;
;
loop_
_space_group_symop_operation_xyz
'x, y, z'
'-x, -y, z+1/2'
'x, -y, z+1/2'
'-x, y, z'
'x+1/2, y+1/2, z'
'-x+1/2, -y+1/2, z+1/2'
'x+1/2, -y+1/2, z+1/2'
'-x+1/2, y+1/2, z'
loop_
_atom_site_label
_atom_site_type_symbol
_atom_site_fract_x
_atom_site_fract_y
_atom_site_fract_z
_atom_site_U_iso_or_equiv
_atom_site_adp_type
_atom_site_occupancy
_atom_site_site_symmetry_order
_atom_site_calc_flag
_atom_site_refinement_flags_posn
_atom_site_refinement_flags_adp
_atom_site_refinement_flags_occupancy
F51 F 0.0000 0.3485(3) 0.44545(16) 0.0458(17) Uani 1 2 d DS T P
F31 F 0.0000 0.3781(3) 0.0667(2) 0.0458(17) Uani 1 2 d DS T P
F52 F 0.3365(2) 0.4035(4) 0.9198(2) 0.0547(13) Uani 1 1 d . . .
F32 F 0.6505(3) 0.3980(4) 0.5771(2) 0.0547(13) Uani 1 1 d . . .
O1 O 0.0000 0.8148(14) 0.1818(6) 0.039(2) Uani 1 2 d DS T P
O2 O 0.0000 0.8122(15) 0.3107(5) 0.039(2) Uani 1 2 d DS T P
N1 N 0.0000 0.4175(4) 0.2904(4) 0.033(2) Uani 1 2 d DS T P
N2 N 0.0000 0.4226(4) 0.2131(4) 0.033(2) Uani 1 2 d DS T P
C41 C 0.0000 0.1004(18) 0.7465(6) 0.026(2) Uani 1 2 d DS T P
C4 C 0.0000 0.8890(18) 0.75139(6) 0.026(2) Uani 1 2 d DS T P
C5 C 0.0000 0.2349(3) 0.31545(8) 0.022(2) Uani 1 2 d DS T P
C3 C 0.0000 0.2394(3) 0.18879(8) 0.022(2) Uani 1 2 d DS T P
C51 C 0.0000 0.1914(2) 0.40074(9) 0.041(3) Uani 1 2 d DS T P
C31 C 0.0000 0.2076(2) 0.10268(9) 0.041(3) Uani 1 2 d DS T P
H1 H 0.0000 0.676(2) 0.1777(10) 0.050 Uiso 1 2 d DS U P
H2 H 0.0000 0.511(4) 0.3320(9) 0.050 Uiso 1 2 d DS U P
loop_
_atom_site_aniso_label
_atom_site_aniso_U_11
_atom_site_aniso_U_22
_atom_site_aniso_U_33
_atom_site_aniso_U_23
_atom_site_aniso_U_13
_atom_site_aniso_U_12
F51 0.071(4) 0.024(3) 0.042(3) -0.001(4) 0.000 0.000
F31 0.071(4) 0.024(3) 0.042(3) -0.001(4) 0.000 0.000
F52 0.064(3) 0.052(2) 0.048(2) -0.007(4) 0.009(2) 0.011(5)
F32 0.064(3) 0.052(2) 0.048(2) -0.007(4) 0.009(2) 0.011(5)
O1 0.070(5) 0.018(3) 0.029(4) 0.018(5) 0.000 0.000
O2 0.070(5) 0.018(3) 0.029(4) 0.018(5) 0.000 0.000
N1 0.028(4) 0.024(4) 0.049(4) -0.006(9) 0.000 0.000
N2 0.028(4) 0.024(4) 0.049(4) -0.006(9) 0.000 0.000
C41 0.018(5) 0.024(4) 0.038(5) 0.006(10) 0.000 0.000
C4 0.018(5) 0.024(4) 0.038(5) 0.006(10) 0.000 0.000
C5 0.021(5) 0.015(5) 0.030(6) 0.012(8) 0.000 0.000
C3 0.021(5) 0.015(5) 0.030(6) 0.012(8) 0.000 0.000
C51 0.012(5) 0.033(6) 0.077(7) 0.036(10) 0.000 0.000
C31 0.012(5) 0.033(6) 0.077(7) 0.036(10) 0.000 0.000
loop_
_atom_type_symbol
_atom_type_description
_atom_type_scat_dispersion_real
_atom_type_scat_dispersion_imag
_atom_type_scat_source
C C 0.0033 0.0016 'International Tables Vol C Tables 4.2.6.8 and 6.1.1.4'
H H 0.0000 0.0000 'International Tables Vol C Tables 4.2.6.8 and 6.1.1.4'
F F 0.0171 0.0103 'International Tables Vol C Tables 4.2.6.8 and 6.1.1.4'
N N 0.0061 0.0033 'International Tables Vol C Tables 4.2.6.8 and 6.1.1.4'
O O 0.0106 0.0060 'International Tables Vol C Tables 4.2.6.8 and 6.1.1.4'
loop_
_geom_angle_atom_site_label_1
_geom_angle_atom_site_label_2
_geom_angle_atom_site_label_3
_geom_angle
_geom_angle_site_symmetry_1
_geom_angle_site_symmetry_3
C41 O1 H1 122.0(14) 2_564 .
N2 N1 C5 110.3(4) . .
N2 N1 H2 136.5(16) . .
C5 N1 H2 113.2(17) . .
N1 N2 C3 106.7(3) . .
O1 C41 O2 123.5(11) 2_565 2_565
O1 C41 C4 121.1(9) 2_565 1_545
O2 C41 C4 115.4(9) 2_565 1_545
C3 C4 C5 102.6(8) 2_565 2_565
C3 C4 C41 126.3(5) 2_565 1_565
C5 C4 C41 131.2(6) 2_565 1_565
N1 C5 C4 109.1(5) . 2_564
N1 C5 C51 120.4(3) . .
C4 C5 C51 130.5(4) 2_564 .
N2 C3 C4 111.3(5) . 2_564
N2 C3 C31 116.7(3) . .
C4 C3 C31 132.0(4) 2_564 .
F51 C51 F52 105.09(19) . 7_454
F51 C51 F52 105.09(19) . 6_554
F52 C51 F52 113.2(3) 7_454 6_554
F51 C51 C5 113.66(19) . .
F52 C51 C5 109.9(2) 7_454 .
F52 C51 C5 109.9(2) 6_554 .
F31 C31 F32 109.42(18) . 6_554
F31 C31 F32 109.42(18) . 7_454
F32 C31 F32 100.4(2) 6_554 7_454
F31 C31 C3 109.2(2) . .
F32 C31 C3 114.02(18) 6_554 .
F32 C31 C3 114.02(18) 7_454 .
loop_
_geom_bond_atom_site_label_1
_geom_bond_atom_site_label_2
_geom_bond_distance
_geom_bond_site_symmetry_2
F51 C51 1.3293(17) .
F31 C31 1.3294(17) .
F52 C51 1.3294(15) 6
F32 C31 1.3294(15) 6
O1 C41 1.256(11) 2_564
O1 H1 0.960(14) .
O2 C41 1.256(11) 2_564
N1 N2 1.328(9) .
N1 C5 1.332(3) .
N1 H2 0.960(13) .
N2 C3 1.332(3) .
C41 O1 1.256(11) 2_565
C41 O2 1.256(11) 2_565
C41 C4 1.462(18) 1_545
C4 C3 1.393(8) 2_565
C4 C5 1.393(8) 2_565
C4 C41 1.462(18) 1_565
C5 C4 1.393(8) 2_564
C5 C51 1.495(2) .
C3 C4 1.393(8) 2_564
C3 C31 1.495(2) .
C51 F52 1.3294(15) 7_454
C51 F52 1.3294(15) 6_554
C31 F32 1.3294(15) 6_554
C31 F32 1.3294(15) 7_454
loop_
_geom_hbond_atom_site_label_D
_geom_hbond_atom_site_label_H
_geom_hbond_atom_site_label_A
_geom_hbond_distance_DH
_geom_hbond_distance_HA
_geom_hbond_distance_DA
_geom_hbond_angle_DHA
O1 H1 N2 0.960(14) 1.853(17) 2.761(10) 156.6(16)
N1 H2 O2 0.960(13) 2.12(3) 2.748(11) 122.1(18)
loop_
_publcif_info_exptl_table_extra_item
sin_theta_over_lambda_max
