#------------------------------------------------------------------------------
#$Date: 2019-11-08 00:27:12 +0200 (Fri, 08 Nov 2019) $
#$Revision: 224262 $
#$URL: file:///home/coder/svn-repositories/cod/cif/7/70/12/7701225.cif $
#------------------------------------------------------------------------------
#
# This file is available in the Crystallography Open Database (COD),
# http://www.crystallography.net/
#
# All data on this site have been placed in the public domain by the
# contributors.
#
data_7701225
loop_
_publ_author_name
'Stein, Timo'
'Hoffmann, Frank'
'Fr\"oba, Michael'
_publ_section_title
;
 A new set of metal-organic frameworks synthesised from
 diisophthalate-based, 2'-phosphorus-substituted m-terphenyl linker
 molecules.
;
_journal_issue                   40
_journal_name_full
'Dalton transactions (Cambridge, England : 2003)'
_journal_page_first              15127
_journal_page_last               15135
_journal_paper_doi               10.1039/c9dt03044a
_journal_volume                  48
_journal_year                    2019
_chemical_formula_moiety         'C28 H27 O9 P, 1.5(C2 H6 O)'
_chemical_formula_sum            'C31 H36 O10.5 P'
_chemical_formula_weight         607.57
_chemical_name_systematic
'(3,3??,5,5??-Tetramethoxycarbonyl-1,1?:3?,1??-terphen-2?-yl)dimethylphosphane oxide 1.5-ethanol solvate'
_space_group_crystal_system      triclinic
_space_group_IT_number           2
_space_group_name_Hall           '-P 1'
_space_group_name_H-M_alt        'P -1'
_symmetry_space_group_name_Hall  '-P 1'
_symmetry_space_group_name_H-M   'P -1'
_atom_sites_solution_hydrogens   mixed
_audit_creation_method           SHELXL-2018/3
_audit_update_record
;
2019-07-24 deposited with the CCDC.    2019-08-14 downloaded from the CCDC.
;
_cell_angle_alpha                66.3180(10)
_cell_angle_beta                 88.3110(10)
_cell_angle_gamma                82.6810(10)
_cell_formula_units_Z            2
_cell_length_a                   10.5051(2)
_cell_length_b                   12.1756(2)
_cell_length_c                   12.9793(3)
_cell_measurement_reflns_used    9902
_cell_measurement_temperature    100(2)
_cell_measurement_theta_max      34.25
_cell_measurement_theta_min      2.50
_cell_volume                     1507.51(5)
_computing_cell_refinement       'SAINT V8.34A (Bruker AXS Inc., 2013)'
_computing_data_collection       'APEX2 v.2014.1-1 (Bruker AXS Inc., 2014)'
_computing_data_reduction        'SAINT V8.34A (Bruker AXS Inc., 2013)'
_computing_structure_refinement  'SHELXL-2018/3 (Sheldrick, 2018)'
_computing_structure_solution    'SHELXS-2014/7 (Sheldrick, 2014)'
_diffrn_ambient_temperature      100(2)
_diffrn_measured_fraction_theta_full 0.997
_diffrn_measured_fraction_theta_max 0.972
_diffrn_measurement_device_type  'Bruker Smart APEX CCD area detector'
_diffrn_measurement_method       '\w scans'
_diffrn_radiation_monochromator  mirror
_diffrn_radiation_probe          x-ray
_diffrn_radiation_source         'Incoatec microfocus'
_diffrn_radiation_type           MoK\a
_diffrn_radiation_wavelength     0.71073
_diffrn_reflns_av_R_equivalents  0.0190
_diffrn_reflns_av_unetI/netI     0.0182
_diffrn_reflns_Laue_measured_fraction_full 0.997
_diffrn_reflns_Laue_measured_fraction_max 0.972
_diffrn_reflns_limit_h_max       16
_diffrn_reflns_limit_h_min       -16
_diffrn_reflns_limit_k_max       18
_diffrn_reflns_limit_k_min       -18
_diffrn_reflns_limit_l_max       19
_diffrn_reflns_limit_l_min       -19
_diffrn_reflns_number            41778
_diffrn_reflns_point_group_measured_fraction_full 0.997
_diffrn_reflns_point_group_measured_fraction_max 0.972
_diffrn_reflns_theta_full        25.242
_diffrn_reflns_theta_max         33.000
_diffrn_reflns_theta_min         1.714
_exptl_absorpt_coefficient_mu    0.150
_exptl_absorpt_correction_T_max  0.7468
_exptl_absorpt_correction_T_min  0.7098
_exptl_absorpt_correction_type   numerical
_exptl_absorpt_process_details   'SADABS-2012/1 (Bruker AXS Inc., 2012)'
_exptl_crystal_colour            colorless
_exptl_crystal_density_diffrn    1.338
_exptl_crystal_description       block
_exptl_crystal_F_000             642
_exptl_crystal_recrystallization_method
'Re-crystallisation from solvent: ethanol'
_exptl_crystal_size_max          0.14
_exptl_crystal_size_mid          0.14
_exptl_crystal_size_min          0.12
_refine_diff_density_max         0.554
_refine_diff_density_min         -0.349
_refine_diff_density_rms         0.059
_refine_ls_extinction_method     none
_refine_ls_goodness_of_fit_ref   1.038
_refine_ls_hydrogen_treatment    mixed
_refine_ls_matrix_type           full
_refine_ls_number_parameters     400
_refine_ls_number_reflns         11051
_refine_ls_number_restraints     5
_refine_ls_restrained_S_all      1.037
_refine_ls_R_factor_all          0.0425
_refine_ls_R_factor_gt           0.0382
_refine_ls_shift/su_max          0.000
_refine_ls_shift/su_mean         0.000
_refine_ls_structure_factor_coef Fsqd
_refine_ls_weighting_details
'w=1/[\s^2^(Fo^2^)+(0.0544P)^2^+0.6551P] where P=(Fo^2^+2Fc^2^)/3'
_refine_ls_weighting_scheme      calc
_refine_ls_wR_factor_gt          0.1043
_refine_ls_wR_factor_ref         0.1081
_reflns_Friedel_coverage         0.000
_reflns_number_gt                9904
_reflns_number_total             11051
_reflns_threshold_expression     'I > 2\s(I)'
_cod_data_source_file            c9dt03044a2.cif
_cod_data_source_block           3a
_cod_depositor_comments
'Adding full bibliography for 7701221--7701232.cif.'
_cod_original_formula_sum        'C31 H36 O10.50 P'
_cod_database_code               7701225
_shelx_shelxl_version_number     2018/3
_shelx_space_group_comment
;
The symmetry employed for this shelxl refinement is uniquely defined
by the following loop, which should always be used as a source of
symmetry information in preference to the above space-group names.
They are only intended as comments.
;
_shelx_estimated_absorpt_t_min   0.979
_shelx_estimated_absorpt_t_max   0.982
_shelx_res_file
;
TITL TST70_ in P-1
    .\tst70_0m1.res
    created by SHELXL-2018/3 at 13:16:17 on 07-Mar-2019
CELL  0.71073  10.5051  12.1756  12.9793   66.318   88.311   82.681
ZERR     2.00   0.0002   0.0002   0.0003    0.001    0.001    0.001
LATT   1
SFAC  C    H    O    P
UNIT  62 72 21 2
MERG   2
OMIT    -4.00  66.00
EQIV $1 -x+1, -y,   -z+1
EQIV $2  x-1,  y,    z
EQIV $3 -x+1, -y+1, -z+1
EQIV $4  x+1,  y,    z
EQIV $5 -x,   -y,  1-z
FREE  C60 H61C
MPLA 6 C10 C11 C12 C13 C14 C15
MPLA 6 C20 C21 C22 C23 C24 C25
MPLA 6 C30 C31 C32 C33 C34 C35
DFIX 0.99 0.001 C60 H61C
SADI 0.001 H61C H60A H61C H60B
SADI 0.001 C60_$5 H60A C60_$5 H60B C60_$5 H61C
FMAP   2
PLAN   20
SIZE     0.12   0.14   0.14
ACTA
BOND   $H
CONF
L.S.  10
TEMP  -173.00
WGHT    0.054400    0.655100
FVAR       0.13749
C10   1    0.598355    0.095600    0.128326    11.00000    0.01507    0.01132 =
         0.01234   -0.00659    0.00076   -0.00316
C11   1    0.471470    0.070351    0.144118    11.00000    0.01478    0.01230 =
         0.01326   -0.00677    0.00073   -0.00262
AFIX  43
H11   2    0.406238    0.128272    0.151404    11.00000   -1.20000
AFIX   0
C12   1    0.440158   -0.040071    0.149239    11.00000    0.01440    0.01187 =
         0.01262   -0.00569    0.00095   -0.00362
C13   1    0.534463   -0.124772    0.136319    11.00000    0.01636    0.01099 =
         0.01320   -0.00562    0.00068   -0.00309
AFIX  43
H13   2    0.512680   -0.199247    0.139043    11.00000   -1.20000
AFIX   0
C14   1    0.661122   -0.099399    0.119350    11.00000    0.01523    0.01098 =
         0.01300   -0.00588    0.00062   -0.00170
C15   1    0.692871    0.009989    0.115550    11.00000    0.01493    0.01234 =
         0.01413   -0.00710    0.00097   -0.00276
AFIX  43
H15   2    0.779328    0.026602    0.104201    11.00000   -1.20000
AFIX   0
C16   1    0.305060   -0.068409    0.164239    11.00000    0.01559    0.01434 =
         0.01299   -0.00667    0.00130   -0.00363
C17   1    0.089371    0.006427    0.176081    11.00000    0.01511    0.02410 =
         0.03588   -0.01464    0.00482   -0.00510
AFIX 137
H17A  2    0.038885    0.075650    0.184511    11.00000   -1.50000
H17B  2    0.081141   -0.067180    0.243404    11.00000   -1.50000
H17C  2    0.057650   -0.002494    0.109956    11.00000   -1.50000
AFIX   0
C18   1    0.759078   -0.190128    0.101373    11.00000    0.01616    0.01184 =
         0.01475   -0.00555    0.00102   -0.00118
C19   1    0.979378   -0.257880    0.102323    11.00000    0.01747    0.02128 =
         0.03225   -0.01422    0.00139    0.00310
AFIX 137
H19A  2    1.063604   -0.234429    0.108952    11.00000   -1.50000
H19B  2    0.971472   -0.263433    0.029573    11.00000   -1.50000
H19C  2    0.970652   -0.336563    0.163188    11.00000   -1.50000
AFIX   0
C20   1    0.603866    0.263073    0.199809    11.00000    0.01172    0.01101 =
         0.01204   -0.00587    0.00069   -0.00199
C21   1    0.632254    0.214715    0.117636    11.00000    0.01305    0.01137 =
         0.01317   -0.00674    0.00088   -0.00240
C22   1    0.691221    0.281456    0.017948    11.00000    0.01728    0.01449 =
         0.01329   -0.00759    0.00265   -0.00392
AFIX  43
H22   2    0.710997    0.247724   -0.035984    11.00000   -1.20000
AFIX   0
C23   1    0.721297    0.396217   -0.003409    11.00000    0.01887    0.01383 =
         0.01337   -0.00563    0.00316   -0.00530
AFIX  43
H23   2    0.765371    0.439028   -0.069602    11.00000   -1.20000
AFIX   0
C24   1    0.686540    0.447906    0.072575    11.00000    0.01783    0.01172 =
         0.01460   -0.00617    0.00203   -0.00441
AFIX  43
H24   2    0.703479    0.527911    0.056442    11.00000   -1.20000
AFIX   0
C25   1    0.626715    0.383513    0.172893    11.00000    0.01275    0.01126 =
         0.01261   -0.00655    0.00023   -0.00197
C30   1    0.585055    0.452258    0.242967    11.00000    0.01304    0.01052 =
         0.01283   -0.00606    0.00033   -0.00174
C31   1    0.454982    0.475940    0.261997    11.00000    0.01261    0.01205 =
         0.01409   -0.00654   -0.00120   -0.00181
AFIX  43
H31   2    0.393211    0.443148    0.234463    11.00000   -1.20000
AFIX   0
C32   1    0.414915    0.547441    0.321177    11.00000    0.01039    0.01123 =
         0.01361   -0.00556   -0.00052   -0.00126
C33   1    0.504681    0.594636    0.363427    11.00000    0.01125    0.01186 =
         0.01301   -0.00623    0.00024   -0.00124
AFIX  43
H33   2    0.477709    0.641772    0.405170    11.00000   -1.20000
AFIX   0
C34   1    0.634510    0.571857    0.343708    11.00000    0.01083    0.01179 =
         0.01302   -0.00659    0.00033   -0.00250
C35   1    0.674390    0.502523    0.282459    11.00000    0.01158    0.01303 =
         0.01490   -0.00751    0.00109   -0.00231
AFIX  43
H35   2    0.762863    0.489520    0.267607    11.00000   -1.20000
AFIX   0
C36   1    0.274727    0.573727    0.335094    11.00000    0.01120    0.01217 =
         0.01592   -0.00554   -0.00063   -0.00047
C37   1    0.115767    0.658268    0.422558    11.00000    0.01129    0.02464 =
         0.02808   -0.01333    0.00301    0.00076
AFIX 137
H37A  2    0.107128    0.700197    0.473436    11.00000   -1.50000
H37B  2    0.073228    0.585033    0.454573    11.00000   -1.50000
H37C  2    0.075751    0.711702    0.349334    11.00000   -1.50000
AFIX   0
C38   1    0.735034    0.621934    0.384160    11.00000    0.01289    0.01428 =
         0.01480   -0.00785    0.00029   -0.00302
C39   1    0.783506    0.720234    0.498721    11.00000    0.01793    0.01976 =
         0.02488   -0.01492   -0.00329   -0.00368
AFIX 137
H39A  2    0.741476    0.757257    0.547468    11.00000   -1.50000
H39B  2    0.823672    0.781204    0.436425    11.00000   -1.50000
H39C  2    0.849324    0.654251    0.542373    11.00000   -1.50000
AFIX   0
P40   4    0.553452    0.164631    0.339662    11.00000    0.01241    0.01214 =
         0.01098   -0.00512    0.00130   -0.00191
C40   1    0.654948    0.022318    0.379354    11.00000    0.02408    0.01390 =
         0.01585   -0.00415    0.00022    0.00189
AFIX 137
H40A  2    0.743904    0.037218    0.360423    11.00000   -1.50000
H40B  2    0.626371   -0.023082    0.338682    11.00000   -1.50000
H40C  2    0.649751   -0.024552    0.460535    11.00000   -1.50000
AFIX   0
C41   1    0.602668    0.214410    0.444134    11.00000    0.02491    0.01799 =
         0.01281   -0.00681   -0.00151   -0.00257
AFIX 137
H41A  2    0.691015    0.233718    0.430522    11.00000   -1.50000
H41B  2    0.598165    0.149967    0.519236    11.00000   -1.50000
H41C  2    0.545559    0.286587    0.439394    11.00000   -1.50000
AFIX   0
C50   1    0.148267    0.307335    0.194196    11.00000    0.02918    0.02844 =
         0.03700   -0.00647   -0.00873   -0.00592
AFIX  23
H50A  2    0.170415    0.291197    0.126485    11.00000   -1.20000
H50B  2    0.210068    0.358419    0.202425    11.00000   -1.20000
AFIX   0
C51   1    0.014992    0.371835    0.181102    11.00000    0.04061    0.04334 =
         0.07506   -0.01899   -0.02418    0.01437
AFIX 137
H51A  2    0.008494    0.446748    0.112819    11.00000   -1.50000
H51B  2   -0.004916    0.391118    0.246661    11.00000   -1.50000
H51C  2   -0.046015    0.319943    0.175236    11.00000   -1.50000
AFIX   0
C60   1   -0.034317    0.053530    0.509869    11.00000    0.02839    0.03453 =
         0.03759   -0.01622    0.00454   -0.00525
AFIX  23
H60A  2   -0.112389    0.029530    0.553556    11.00000   -1.20000
H60B  2    0.022493    0.077155    0.554913    11.00000   -1.20000
AFIX   0
O10   3    0.272927   -0.164790    0.175942    11.00000    0.01980    0.01592 =
         0.02419   -0.01038    0.00464   -0.00738
O11   3    0.222485    0.026008    0.161908    11.00000    0.01462    0.01709 =
         0.03456   -0.01350    0.00288   -0.00341
O12   3    0.732675   -0.273399    0.081423    11.00000    0.02213    0.01340 =
         0.02382   -0.01060    0.00165   -0.00265
O13   3    0.879430   -0.168004    0.110095    11.00000    0.01400    0.01591 =
         0.02646   -0.01138    0.00037    0.00010
O30   3    0.192726    0.549741    0.286511    11.00000    0.01254    0.02200 =
         0.02679   -0.01382   -0.00376   -0.00131
O31   3    0.250263    0.625633    0.408300    11.00000    0.01027    0.02061 =
         0.01970   -0.01176    0.00109    0.00008
O32   3    0.845867    0.616920    0.357178    11.00000    0.01264    0.03643 =
         0.02906   -0.02322    0.00429   -0.00798
O33   3    0.688971    0.672918    0.454223    11.00000    0.01368    0.01979 =
         0.02124   -0.01512    0.00048   -0.00359
O40   3    0.413623    0.151093    0.345608    11.00000    0.01462    0.02595 =
         0.01679   -0.00807    0.00316   -0.00556
O51   3    0.156151    0.196737    0.290668    11.00000    0.01976    0.02753 =
         0.02942   -0.01225   -0.00041   -0.00319
AFIX 147
H51   2    0.233494    0.171409    0.310344    11.00000   -1.50000
AFIX   0
O61   3   -0.067805    0.149320    0.412223    10.50000    0.02561    0.03251 =
         0.04102   -0.00214    0.01023   -0.00059
AFIX 147
H61   2   -0.002029    0.168570    0.374056    10.50000   -1.50000
AFIX   0
H61C  2   -0.057045    0.121474    0.436403    10.50000   10.03000
HKLF    4




REM  TST70_ in P-1
REM wR2 = 0.1081, GooF = S = 1.038, Restrained GooF = 1.037 for all data
REM R1 = 0.0382 for 9904 Fo > 4sig(Fo) and 0.0425 for all 11051 data
REM 400 parameters refined using 5 restraints

END

WGHT      0.0549      0.6494

REM Highest difference peak  0.554,  deepest hole -0.349,  1-sigma level  0.059
Q1    1   0.4620  0.5657  0.3466  11.00000  0.05    0.55
Q2    1   0.1426  0.1416  0.3472  11.00000  0.05    0.55
Q3    1   0.3447  0.5595  0.3290  11.00000  0.05    0.55
Q4    1   0.4832  0.1584  0.3468  11.00000  0.05    0.54
Q5    1   0.5706  0.5865  0.3472  11.00000  0.05    0.54
Q6    1   0.5998 -0.1121  0.1277  11.00000  0.05    0.53
Q7    1   0.6641  0.2507  0.0674  11.00000  0.05    0.52
Q8    1   0.6447  0.0522  0.1179  11.00000  0.05    0.52
Q9    1   0.5218  0.4642  0.2517  11.00000  0.05    0.51
Q10   1   0.3758 -0.0551  0.1569  11.00000  0.05    0.51
Q11   1   0.6843  0.6004  0.3582  11.00000  0.05    0.51
Q12   1   0.4568  0.0130  0.1461  11.00000  0.05    0.50
Q13   1   0.5356  0.0836  0.1347  11.00000  0.05    0.50
Q14   1   0.6199  0.2388  0.1598  11.00000  0.05    0.49
Q15   1   0.6319  0.4760  0.2590  11.00000  0.05    0.48
Q16   1   0.5835  0.2194  0.2673  11.00000  0.05    0.48
Q17   1   0.6174  0.3187  0.1857  11.00000  0.05    0.48
Q18   1   0.7084 -0.1402  0.1027  11.00000  0.05    0.48
Q19   1   0.6470  0.4217  0.1187  11.00000  0.05    0.48
Q20   1   0.4882 -0.0863  0.1451  11.00000  0.05    0.48
;
_shelx_res_checksum              86879
loop_
_space_group_symop_operation_xyz
'x, y, z'
'-x, -y, -z'
loop_
_atom_site_label
_atom_site_type_symbol
_atom_site_fract_x
_atom_site_fract_y
_atom_site_fract_z
_atom_site_U_iso_or_equiv
_atom_site_adp_type
_atom_site_occupancy
_atom_site_site_symmetry_order
_atom_site_calc_flag
_atom_site_refinement_flags_posn
_atom_site_refinement_flags_adp
_atom_site_refinement_flags_occupancy
C10 C 0.59836(8) 0.09560(8) 0.12833(7) 0.01218(14) Uani 1 1 d . . .
C11 C 0.47147(8) 0.07035(8) 0.14412(7) 0.01284(14) Uani 1 1 d . . .
H11 H 0.406238 0.128272 0.151404 0.015 Uiso 1 1 calc R U .
C12 C 0.44016(8) -0.04007(8) 0.14924(7) 0.01254(14) Uani 1 1 d . . .
C13 C 0.53446(9) -0.12477(8) 0.13632(7) 0.01315(14) Uani 1 1 d . . .
H13 H 0.512680 -0.199247 0.139043 0.016 Uiso 1 1 calc R U .
C14 C 0.66112(8) -0.09940(8) 0.11935(7) 0.01273(14) Uani 1 1 d . . .
C15 C 0.69287(8) 0.00999(8) 0.11555(7) 0.01314(14) Uani 1 1 d . . .
H15 H 0.779328 0.026602 0.104201 0.016 Uiso 1 1 calc R U .
C16 C 0.30506(9) -0.06841(8) 0.16424(7) 0.01378(15) Uani 1 1 d . . .
C17 C 0.08937(10) 0.00643(10) 0.17608(11) 0.0240(2) Uani 1 1 d . . .
H17A H 0.038885 0.075650 0.184511 0.036 Uiso 1 1 calc R U .
H17B H 0.081141 -0.067180 0.243404 0.036 Uiso 1 1 calc R U .
H17C H 0.057650 -0.002494 0.109956 0.036 Uiso 1 1 calc R U .
C18 C 0.75908(9) -0.19013(8) 0.10137(8) 0.01425(15) Uani 1 1 d . . .
C19 C 0.97938(10) -0.25788(10) 0.10232(10) 0.02309(19) Uani 1 1 d . . .
H19A H 1.063604 -0.234429 0.108952 0.035 Uiso 1 1 calc R U .
H19B H 0.971472 -0.263433 0.029573 0.035 Uiso 1 1 calc R U .
H19C H 0.970652 -0.336563 0.163188 0.035 Uiso 1 1 calc R U .
C20 C 0.60387(8) 0.26307(7) 0.19981(7) 0.01115(14) Uani 1 1 d . . .
C21 C 0.63225(8) 0.21471(8) 0.11764(7) 0.01188(14) Uani 1 1 d . . .
C22 C 0.69122(9) 0.28146(8) 0.01795(7) 0.01424(15) Uani 1 1 d . . .
H22 H 0.710997 0.247724 -0.035984 0.017 Uiso 1 1 calc R U .
C23 C 0.72130(9) 0.39622(8) -0.00341(8) 0.01506(15) Uani 1 1 d . . .
H23 H 0.765371 0.439028 -0.069602 0.018 Uiso 1 1 calc R U .
C24 C 0.68654(9) 0.44791(8) 0.07257(8) 0.01423(15) Uani 1 1 d . . .
H24 H 0.703479 0.527911 0.056442 0.017 Uiso 1 1 calc R U .
C25 C 0.62672(8) 0.38351(8) 0.17289(7) 0.01160(14) Uani 1 1 d . . .
C30 C 0.58505(8) 0.45226(7) 0.24297(7) 0.01167(14) Uani 1 1 d . . .
C31 C 0.45498(8) 0.47594(8) 0.26200(7) 0.01244(14) Uani 1 1 d . . .
H31 H 0.393211 0.443148 0.234463 0.015 Uiso 1 1 calc R U .
C32 C 0.41492(8) 0.54744(7) 0.32118(7) 0.01156(14) Uani 1 1 d . . .
C33 C 0.50468(8) 0.59464(8) 0.36343(7) 0.01166(14) Uani 1 1 d . . .
H33 H 0.477709 0.641772 0.405170 0.014 Uiso 1 1 calc R U .
C34 C 0.63451(8) 0.57186(7) 0.34371(7) 0.01126(14) Uani 1 1 d . . .
C35 C 0.67439(8) 0.50252(8) 0.28246(7) 0.01250(14) Uani 1 1 d . . .
H35 H 0.762863 0.489520 0.267607 0.015 Uiso 1 1 calc R U .
C36 C 0.27473(8) 0.57373(8) 0.33509(8) 0.01320(14) Uani 1 1 d . . .
C37 C 0.11577(9) 0.65827(10) 0.42256(9) 0.02079(18) Uani 1 1 d . . .
H37A H 0.107128 0.700197 0.473436 0.031 Uiso 1 1 calc R U .
H37B H 0.073228 0.585033 0.454573 0.031 Uiso 1 1 calc R U .
H37C H 0.075751 0.711702 0.349334 0.031 Uiso 1 1 calc R U .
C38 C 0.73503(8) 0.62193(8) 0.38416(7) 0.01322(14) Uani 1 1 d . . .
C39 C 0.78351(9) 0.72023(9) 0.49872(9) 0.01873(17) Uani 1 1 d . . .
H39A H 0.741476 0.757257 0.547468 0.028 Uiso 1 1 calc R U .
H39B H 0.823672 0.781204 0.436425 0.028 Uiso 1 1 calc R U .
H39C H 0.849324 0.654251 0.542373 0.028 Uiso 1 1 calc R U .
P40 P 0.55345(2) 0.16463(2) 0.33966(2) 0.01168(5) Uani 1 1 d . . .
C40 C 0.65495(10) 0.02232(9) 0.37935(8) 0.01893(17) Uani 1 1 d . . .
H40A H 0.743904 0.037218 0.360423 0.028 Uiso 1 1 calc R U .
H40B H 0.626371 -0.023082 0.338682 0.028 Uiso 1 1 calc R U .
H40C H 0.649751 -0.024552 0.460535 0.028 Uiso 1 1 calc R U .
C41 C 0.60267(10) 0.21441(9) 0.44413(8) 0.01834(17) Uani 1 1 d . . .
H41A H 0.691015 0.233718 0.430522 0.028 Uiso 1 1 calc R U .
H41B H 0.598165 0.149967 0.519236 0.028 Uiso 1 1 calc R U .
H41C H 0.545559 0.286587 0.439394 0.028 Uiso 1 1 calc R U .
C50 C 0.14827(12) 0.30733(12) 0.19420(12) 0.0333(3) Uani 1 1 d . . .
H50A H 0.170415 0.291197 0.126485 0.040 Uiso 1 1 calc R U .
H50B H 0.210068 0.358419 0.202425 0.040 Uiso 1 1 calc R U .
C51 C 0.01499(17) 0.37183(17) 0.18110(19) 0.0558(5) Uani 1 1 d . . .
H51A H 0.008494 0.446748 0.112819 0.084 Uiso 1 1 calc R U .
H51B H -0.004916 0.391118 0.246661 0.084 Uiso 1 1 calc R U .
H51C H -0.046015 0.319943 0.175236 0.084 Uiso 1 1 calc R U .
C60 C -0.03432(8) 0.05353(12) 0.50987(12) 0.0329(3) Uani 1 1 d D . .
H60A H -0.112389 0.029530 0.553556 0.039 Uiso 1 1 calc DR U .
H60B H 0.022493 0.077155 0.554913 0.039 Uiso 1 1 calc DR U .
O10 O 0.27293(7) -0.16479(6) 0.17594(6) 0.01882(13) Uani 1 1 d . . .
O11 O 0.22249(7) 0.02601(7) 0.16191(7) 0.02100(14) Uani 1 1 d . . .
O12 O 0.73268(7) -0.27340(6) 0.08142(6) 0.01876(13) Uani 1 1 d . . .
O13 O 0.87943(7) -0.16800(6) 0.11009(7) 0.01805(13) Uani 1 1 d . . .
O30 O 0.19273(7) 0.54974(7) 0.28651(7) 0.01914(14) Uani 1 1 d . . .
O31 O 0.25026(6) 0.62563(6) 0.40830(6) 0.01588(12) Uani 1 1 d . . .
O32 O 0.84587(7) 0.61692(8) 0.35718(7) 0.02242(15) Uani 1 1 d . . .
O33 O 0.68897(6) 0.67292(6) 0.45422(6) 0.01588(13) Uani 1 1 d . . .
O40 O 0.41362(7) 0.15109(7) 0.34561(6) 0.01906(13) Uani 1 1 d . . .
O51 O 0.15615(8) 0.19674(8) 0.29067(7) 0.02527(16) Uani 1 1 d . . .
H51 H 0.233494 0.171409 0.310344 0.038 Uiso 1 1 calc R U .
O61 O -0.06780(18) 0.14932(18) 0.41222(18) 0.0376(4) Uani 0.5 1 d . . P
H61 H -0.002029 0.168570 0.374056 0.056 Uiso 0.5 1 calc R U P
H61C H -0.05704(16) 0.12147(14) 0.4364(3) 0.030 Uiso 0.5 1 d D U P
loop_
_atom_site_aniso_label
_atom_site_aniso_U_11
_atom_site_aniso_U_22
_atom_site_aniso_U_33
_atom_site_aniso_U_23
_atom_site_aniso_U_13
_atom_site_aniso_U_12
C10 0.0151(3) 0.0113(3) 0.0123(3) -0.0066(3) 0.0008(3) -0.0032(3)
C11 0.0148(3) 0.0123(3) 0.0133(3) -0.0068(3) 0.0007(3) -0.0026(3)
C12 0.0144(3) 0.0119(3) 0.0126(3) -0.0057(3) 0.0010(3) -0.0036(3)
C13 0.0164(4) 0.0110(3) 0.0132(3) -0.0056(3) 0.0007(3) -0.0031(3)
C14 0.0152(3) 0.0110(3) 0.0130(3) -0.0059(3) 0.0006(3) -0.0017(3)
C15 0.0149(3) 0.0123(3) 0.0141(3) -0.0071(3) 0.0010(3) -0.0028(3)
C16 0.0156(4) 0.0143(4) 0.0130(3) -0.0067(3) 0.0013(3) -0.0036(3)
C17 0.0151(4) 0.0241(5) 0.0359(6) -0.0146(4) 0.0048(4) -0.0051(3)
C18 0.0162(4) 0.0118(3) 0.0148(4) -0.0055(3) 0.0010(3) -0.0012(3)
C19 0.0175(4) 0.0213(5) 0.0322(5) -0.0142(4) 0.0014(4) 0.0031(3)
C20 0.0117(3) 0.0110(3) 0.0120(3) -0.0059(3) 0.0007(3) -0.0020(2)
C21 0.0131(3) 0.0114(3) 0.0132(3) -0.0067(3) 0.0009(3) -0.0024(3)
C22 0.0173(4) 0.0145(4) 0.0133(3) -0.0076(3) 0.0027(3) -0.0039(3)
C23 0.0189(4) 0.0138(4) 0.0134(4) -0.0056(3) 0.0032(3) -0.0053(3)
C24 0.0178(4) 0.0117(3) 0.0146(4) -0.0062(3) 0.0020(3) -0.0044(3)
C25 0.0128(3) 0.0113(3) 0.0126(3) -0.0066(3) 0.0002(3) -0.0020(3)
C30 0.0130(3) 0.0105(3) 0.0128(3) -0.0061(3) 0.0003(3) -0.0017(3)
C31 0.0126(3) 0.0120(3) 0.0141(3) -0.0065(3) -0.0012(3) -0.0018(3)
C32 0.0104(3) 0.0112(3) 0.0136(3) -0.0056(3) -0.0005(3) -0.0013(2)
C33 0.0113(3) 0.0119(3) 0.0130(3) -0.0062(3) 0.0002(3) -0.0012(3)
C34 0.0108(3) 0.0118(3) 0.0130(3) -0.0066(3) 0.0003(3) -0.0025(2)
C35 0.0116(3) 0.0130(3) 0.0149(4) -0.0075(3) 0.0011(3) -0.0023(3)
C36 0.0112(3) 0.0122(3) 0.0159(4) -0.0055(3) -0.0006(3) -0.0005(3)
C37 0.0113(4) 0.0246(5) 0.0281(5) -0.0133(4) 0.0030(3) 0.0008(3)
C38 0.0129(3) 0.0143(4) 0.0148(4) -0.0079(3) 0.0003(3) -0.0030(3)
C39 0.0179(4) 0.0198(4) 0.0249(4) -0.0149(4) -0.0033(3) -0.0037(3)
P40 0.01241(10) 0.01214(10) 0.01098(9) -0.00512(7) 0.00130(7) -0.00191(7)
C40 0.0241(4) 0.0139(4) 0.0159(4) -0.0042(3) 0.0002(3) 0.0019(3)
C41 0.0249(4) 0.0180(4) 0.0128(4) -0.0068(3) -0.0015(3) -0.0026(3)
C50 0.0292(6) 0.0284(6) 0.0370(6) -0.0065(5) -0.0087(5) -0.0059(4)
C51 0.0406(8) 0.0433(9) 0.0751(13) -0.0190(9) -0.0242(8) 0.0144(7)
C60 0.0284(6) 0.0345(6) 0.0376(6) -0.0162(5) 0.0045(5) -0.0053(5)
O10 0.0198(3) 0.0159(3) 0.0242(3) -0.0104(3) 0.0046(3) -0.0074(2)
O11 0.0146(3) 0.0171(3) 0.0346(4) -0.0135(3) 0.0029(3) -0.0034(2)
O12 0.0221(3) 0.0134(3) 0.0238(3) -0.0106(3) 0.0017(3) -0.0027(2)
O13 0.0140(3) 0.0159(3) 0.0265(3) -0.0114(3) 0.0004(2) 0.0001(2)
O30 0.0125(3) 0.0220(3) 0.0268(4) -0.0138(3) -0.0038(3) -0.0013(2)
O31 0.0103(3) 0.0206(3) 0.0197(3) -0.0118(3) 0.0011(2) 0.0001(2)
O32 0.0126(3) 0.0364(4) 0.0291(4) -0.0232(3) 0.0043(3) -0.0080(3)
O33 0.0137(3) 0.0198(3) 0.0212(3) -0.0151(3) 0.0005(2) -0.0036(2)
O40 0.0146(3) 0.0260(4) 0.0168(3) -0.0081(3) 0.0032(2) -0.0056(2)
O51 0.0198(3) 0.0275(4) 0.0294(4) -0.0122(3) -0.0004(3) -0.0032(3)
O61 0.0256(8) 0.0325(9) 0.0410(10) -0.0021(8) 0.0102(8) -0.0006(7)
loop_
_atom_type_symbol
_atom_type_description
_atom_type_scat_dispersion_real
_atom_type_scat_dispersion_imag
_atom_type_scat_source
C C 0.0033 0.0016 'International Tables Vol C Tables 4.2.6.8 and 6.1.1.4'
H H 0.0000 0.0000 'International Tables Vol C Tables 4.2.6.8 and 6.1.1.4'
O O 0.0106 0.0060 'International Tables Vol C Tables 4.2.6.8 and 6.1.1.4'
P P 0.1023 0.0942 'International Tables Vol C Tables 4.2.6.8 and 6.1.1.4'
loop_
_geom_angle_atom_site_label_1
_geom_angle_atom_site_label_2
_geom_angle_atom_site_label_3
_geom_angle
_geom_angle_site_symmetry_1
_geom_angle_site_symmetry_3
C11 C10 C15 119.08(8) . .
C11 C10 C21 120.81(8) . .
C15 C10 C21 119.99(8) . .
C10 C11 C12 120.18(8) . .
C10 C11 H11 119.9 . .
C12 C11 H11 119.9 . .
C13 C12 C11 120.48(8) . .
C13 C12 C16 118.27(8) . .
C11 C12 C16 121.21(8) . .
C12 C13 C14 119.52(8) . .
C12 C13 H13 120.2 . .
C14 C13 H13 120.2 . .
C15 C14 C13 120.12(8) . .
C15 C14 C18 121.67(8) . .
C13 C14 C18 118.18(8) . .
C14 C15 C10 120.61(8) . .
C14 C15 H15 119.7 . .
C10 C15 H15 119.7 . .
O10 C16 O11 123.66(8) . .
O10 C16 C12 124.32(8) . .
O11 C16 C12 112.02(7) . .
O11 C17 H17A 109.5 . .
O11 C17 H17B 109.5 . .
H17A C17 H17B 109.5 . .
O11 C17 H17C 109.5 . .
H17A C17 H17C 109.5 . .
H17B C17 H17C 109.5 . .
O12 C18 O13 124.15(8) . .
O12 C18 C14 123.81(8) . .
O13 C18 C14 112.04(7) . .
O13 C19 H19A 109.5 . .
O13 C19 H19B 109.5 . .
H19A C19 H19B 109.5 . .
O13 C19 H19C 109.5 . .
H19A C19 H19C 109.5 . .
H19B C19 H19C 109.5 . .
C25 C20 C21 117.83(7) . .
C25 C20 P40 122.58(6) . .
C21 C20 P40 119.36(6) . .
C22 C21 C20 120.19(8) . .
C22 C21 C10 116.07(7) . .
C20 C21 C10 123.70(7) . .
C23 C22 C21 121.00(8) . .
C23 C22 H22 119.5 . .
C21 C22 H22 119.5 . .
C24 C23 C22 119.49(8) . .
C24 C23 H23 120.3 . .
C22 C23 H23 120.3 . .
C23 C24 C25 120.75(8) . .
C23 C24 H24 119.6 . .
C25 C24 H24 119.6 . .
C24 C25 C20 120.43(8) . .
C24 C25 C30 115.50(7) . .
C20 C25 C30 124.00(7) . .
C35 C30 C31 119.05(8) . .
C35 C30 C25 120.34(7) . .
C31 C30 C25 120.39(7) . .
C30 C31 C32 120.53(8) . .
C30 C31 H31 119.7 . .
C32 C31 H31 119.7 . .
C33 C32 C31 120.31(8) . .
C33 C32 C36 121.44(8) . .
C31 C32 C36 118.23(7) . .
C32 C33 C34 119.21(8) . .
C32 C33 H33 120.4 . .
C34 C33 H33 120.4 . .
C33 C34 C35 120.50(7) . .
C33 C34 C38 121.93(7) . .
C35 C34 C38 117.56(7) . .
C30 C35 C34 120.36(8) . .
C30 C35 H35 119.8 . .
C34 C35 H35 119.8 . .
O30 C36 O31 124.21(8) . .
O30 C36 C32 123.73(8) . .
O31 C36 C32 112.06(7) . .
O31 C37 H37A 109.5 . .
O31 C37 H37B 109.5 . .
H37A C37 H37B 109.5 . .
O31 C37 H37C 109.5 . .
H37A C37 H37C 109.5 . .
H37B C37 H37C 109.5 . .
O32 C38 O33 123.68(8) . .
O32 C38 C34 123.78(8) . .
O33 C38 C34 112.54(7) . .
O33 C39 H39A 109.5 . .
O33 C39 H39B 109.5 . .
H39A C39 H39B 109.5 . .
O33 C39 H39C 109.5 . .
H39A C39 H39C 109.5 . .
H39B C39 H39C 109.5 . .
O40 P40 C40 112.85(5) . .
O40 P40 C41 111.93(5) . .
C40 P40 C41 100.63(5) . .
O40 P40 C20 113.94(4) . .
C40 P40 C20 106.49(4) . .
C41 P40 C20 110.08(4) . .
P40 C40 H40A 109.5 . .
P40 C40 H40B 109.5 . .
H40A C40 H40B 109.5 . .
P40 C40 H40C 109.5 . .
H40A C40 H40C 109.5 . .
H40B C40 H40C 109.5 . .
P40 C41 H41A 109.5 . .
P40 C41 H41B 109.5 . .
H41A C41 H41B 109.5 . .
P40 C41 H41C 109.5 . .
H41A C41 H41C 109.5 . .
H41B C41 H41C 109.5 . .
O51 C50 C51 109.38(13) . .
O51 C50 H50A 109.8 . .
C51 C50 H50A 109.8 . .
O51 C50 H50B 109.8 . .
C51 C50 H50B 109.8 . .
H50A C50 H50B 108.2 . .
C50 C51 H51A 109.5 . .
C50 C51 H51B 109.5 . .
H51A C51 H51B 109.5 . .
C50 C51 H51C 109.5 . .
H51A C51 H51C 109.5 . .
H51B C51 H51C 109.5 . .
O61 C60 C60 111.90(18) . 2_556
O61 C60 H60A 109.2 . .
C60 C60 H60A 109.2 2_556 .
O61 C60 H60B 109.2 . .
C60 C60 H60B 109.2 2_556 .
H60A C60 H60B 107.9 . .
O61 C60 H61C 2.7(2) . .
C60 C60 H61C 109.24(11) 2_556 .
H60A C60 H61C 110.6 . .
H60B C60 H61C 110.6 . .
C16 O11 C17 115.74(8) . .
C18 O13 C19 114.93(8) . .
C36 O31 C37 115.09(7) . .
C38 O33 C39 114.91(7) . .
C50 O51 H51 109.5 . .
C60 O61 H61 109.5 . .
C60 O61 H61C 7.2(7) . .
H61 O61 H61C 105.4 . .
loop_
_geom_bond_atom_site_label_1
_geom_bond_atom_site_label_2
_geom_bond_distance
_geom_bond_site_symmetry_2
C10 C11 1.3968(12) .
C10 C15 1.4019(12) .
C10 C21 1.4888(11) .
C11 C12 1.3999(12) .
C11 H11 0.9500 .
C12 C13 1.3935(12) .
C12 C16 1.4919(12) .
C13 C14 1.3954(12) .
C13 H13 0.9500 .
C14 C15 1.3953(12) .
C14 C18 1.4956(12) .
C15 H15 0.9500 .
C16 O10 1.2120(11) .
C16 O11 1.3396(11) .
C17 O11 1.4425(12) .
C17 H17A 0.9800 .
C17 H17B 0.9800 .
C17 H17C 0.9800 .
C18 O12 1.2078(11) .
C18 O13 1.3430(11) .
C19 O13 1.4491(12) .
C19 H19A 0.9800 .
C19 H19B 0.9800 .
C19 H19C 0.9800 .
C20 C25 1.4154(11) .
C20 C21 1.4192(11) .
C20 P40 1.8356(9) .
C21 C22 1.3981(12) .
C22 C23 1.3875(12) .
C22 H22 0.9500 .
C23 C24 1.3859(12) .
C23 H23 0.9500 .
C24 C25 1.4008(12) .
C24 H24 0.9500 .
C25 C30 1.4880(11) .
C30 C35 1.3945(12) .
C30 C31 1.3958(12) .
C31 C32 1.3964(12) .
C31 H31 0.9500 .
C32 C33 1.3935(11) .
C32 C36 1.4881(12) .
C33 C34 1.3938(11) .
C33 H33 0.9500 .
C34 C35 1.3963(11) .
C34 C38 1.4888(12) .
C35 H35 0.9500 .
C36 O30 1.2120(11) .
C36 O31 1.3397(11) .
C37 O31 1.4453(11) .
C37 H37A 0.9800 .
C37 H37B 0.9800 .
C37 H37C 0.9800 .
C38 O32 1.2071(11) .
C38 O33 1.3407(11) .
C39 O33 1.4487(11) .
C39 H39A 0.9800 .
C39 H39B 0.9800 .
C39 H39C 0.9800 .
P40 O40 1.4952(7) .
P40 C40 1.8026(10) .
P40 C41 1.8041(10) .
C40 H40A 0.9800 .
C40 H40B 0.9800 .
C40 H40C 0.9800 .
C41 H41A 0.9800 .
C41 H41B 0.9800 .
C41 H41C 0.9800 .
C50 O51 1.4182(16) .
C50 C51 1.494(2) .
C50 H50A 0.9900 .
C50 H50B 0.9900 .
C51 H51A 0.9800 .
C51 H51B 0.9800 .
C51 H51C 0.9800 .
C60 O61 1.351(2) .
C60 C60 1.517(3) 2_556
C60 H60A 0.9900 .
C60 H60B 0.9900 .
C60 H61C 0.9900(10) .
O51 H51 0.8400 .
O61 H61 0.8400 .
O61 H61C 0.365(2) .
loop_
_geom_torsion_atom_site_label_1
_geom_torsion_atom_site_label_2
_geom_torsion_atom_site_label_3
_geom_torsion_atom_site_label_4
_geom_torsion
C15 C10 C11 C12 1.24(13)
C21 C10 C11 C12 177.28(8)
C10 C11 C12 C13 -1.35(13)
C10 C11 C12 C16 -179.03(8)
C11 C12 C13 C14 0.67(13)
C16 C12 C13 C14 178.42(8)
C12 C13 C14 C15 0.09(13)
C12 C13 C14 C18 -177.69(8)
C13 C14 C15 C10 -0.19(13)
C18 C14 C15 C10 177.51(8)
C11 C10 C15 C14 -0.47(13)
C21 C10 C15 C14 -176.55(8)
C13 C12 C16 O10 6.83(13)
C11 C12 C16 O10 -175.44(9)
C13 C12 C16 O11 -172.41(8)
C11 C12 C16 O11 5.32(12)
C15 C14 C18 O12 -164.51(9)
C13 C14 C18 O12 13.23(14)
C15 C14 C18 O13 15.52(12)
C13 C14 C18 O13 -166.74(8)
C25 C20 C21 C22 5.44(12)
P40 C20 C21 C22 -169.15(7)
C25 C20 C21 C10 -172.18(8)
P40 C20 C21 C10 13.23(11)
C11 C10 C21 C22 -121.28(9)
C15 C10 C21 C22 54.73(11)
C11 C10 C21 C20 56.43(12)
C15 C10 C21 C20 -127.56(9)
C20 C21 C22 C23 -0.96(13)
C10 C21 C22 C23 176.83(8)
C21 C22 C23 C24 -3.29(14)
C22 C23 C24 C25 2.90(14)
C23 C24 C25 C20 1.73(13)
C23 C24 C25 C30 -175.40(8)
C21 C20 C25 C24 -5.82(12)
P40 C20 C25 C24 168.58(7)
C21 C20 C25 C30 171.05(8)
P40 C20 C25 C30 -14.54(12)
C24 C25 C30 C35 -58.96(11)
C20 C25 C30 C35 124.02(9)
C24 C25 C30 C31 115.60(9)
C20 C25 C30 C31 -61.41(12)
C35 C30 C31 C32 -0.95(13)
C25 C30 C31 C32 -175.58(8)
C30 C31 C32 C33 -0.94(13)
C30 C31 C32 C36 177.63(8)
C31 C32 C33 C34 1.43(13)
C36 C32 C33 C34 -177.09(8)
C32 C33 C34 C35 -0.05(13)
C32 C33 C34 C38 178.55(8)
C31 C30 C35 C34 2.33(13)
C25 C30 C35 C34 176.96(8)
C33 C34 C35 C30 -1.84(13)
C38 C34 C35 C30 179.49(8)
C33 C32 C36 O30 168.95(9)
C31 C32 C36 O30 -9.60(13)
C33 C32 C36 O31 -11.72(12)
C31 C32 C36 O31 169.73(8)
C33 C34 C38 O32 -170.49(9)
C35 C34 C38 O32 8.15(14)
C33 C34 C38 O33 9.71(12)
C35 C34 C38 O33 -171.64(8)
C25 C20 P40 O40 102.55(8)
C21 C20 P40 O40 -83.13(8)
C25 C20 P40 C40 -132.39(7)
C21 C20 P40 C40 41.94(8)
C25 C20 P40 C41 -24.14(8)
C21 C20 P40 C41 150.18(7)
O10 C16 O11 C17 0.90(14)
C12 C16 O11 C17 -179.86(8)
O12 C18 O13 C19 -4.57(14)
C14 C18 O13 C19 175.40(8)
O30 C36 O31 C37 -3.08(13)
C32 C36 O31 C37 177.59(8)
O32 C38 O33 C39 -1.43(13)
C34 C38 O33 C39 178.36(8)
