#------------------------------------------------------------------------------
#$Date: 2019-11-23 23:42:01 +0200 (Sat, 23 Nov 2019) $
#$Revision: 235629 $
#$URL: file:///home/coder/svn-repositories/cod/cif/7/70/21/7702128.cif $
#------------------------------------------------------------------------------
#
# This file is available in the Crystallography Open Database (COD),
# http://www.crystallography.net/
#
# All data on this site have been placed in the public domain by the
# contributors.
#
data_7702128
loop_
_publ_author_name
'Li, Qin'
'Yu, Mei-Hui'
'Xu, Jian'
'Li, Ai-Lin'
'Hu, Tong-Liang'
'Bu, Xian-He'
_publ_section_title
;
 Two new metal-organic frameworks based on tetrazole-heterocyclic ligands
 accompanied by in situ ligand formation.
;
_journal_issue                   10
_journal_name_full
'Dalton transactions (Cambridge, England : 2003)'
_journal_page_first              3223
_journal_page_last               3228
_journal_paper_doi               10.1039/c7dt00005g
_journal_volume                  46
_journal_year                    2017
_chemical_formula_sum            'C18 H10 N10 O8 Zn2'
_chemical_formula_weight         625.14
_space_group_crystal_system      orthorhombic
_space_group_IT_number           41
_space_group_name_Hall           'A 2 -2ab'
_space_group_name_H-M_alt        'A e a 2'
_atom_sites_solution_hydrogens   geom
_audit_creation_method           SHELXL-2016/6
_audit_update_record
;
2017-02-12 deposited with the CCDC.
2017-02-15 downloaded from the CCDC.
;
_cell_angle_alpha                90
_cell_angle_beta                 90
_cell_angle_gamma                90
_cell_formula_units_Z            8
_cell_length_a                   17.8735(9)
_cell_length_b                   20.9554(14)
_cell_length_c                   20.7462(13)
_cell_measurement_reflns_used    4148
_cell_measurement_temperature    173(2)
_cell_measurement_theta_max      25.32
_cell_measurement_theta_min      2.99
_cell_volume                     7770.4(8)
_computing_cell_refinement       'SAINT(Bruker, 2013)'
_computing_data_collection       'APEX2 (Bruker, 2013)'
_computing_data_reduction        'SAINT(Bruker, 2013)'
_computing_molecular_graphics    Diamond
_computing_publication_material  'Bruker SHELXTL'
_computing_structure_refinement  'SHELXL-2016/6 (Sheldrick, 2016)'
_computing_structure_solution    'SHELXS-97 (Sheldrick, 1990)'
_diffrn_ambient_temperature      173(2)
_diffrn_measured_fraction_theta_full 0.976
_diffrn_measured_fraction_theta_max 0.975
_diffrn_measurement_device_type  'PHOTON100 CMOS detector'
_diffrn_measurement_method       'omega scan'
_diffrn_radiation_type           MoK\a
_diffrn_radiation_wavelength     0.71073
_diffrn_reflns_av_R_equivalents  0.0714
_diffrn_reflns_av_unetI/netI     0.1083
_diffrn_reflns_Laue_measured_fraction_full 0.976
_diffrn_reflns_Laue_measured_fraction_max 0.975
_diffrn_reflns_limit_h_max       21
_diffrn_reflns_limit_h_min       -21
_diffrn_reflns_limit_k_max       25
_diffrn_reflns_limit_k_min       -22
_diffrn_reflns_limit_l_max       24
_diffrn_reflns_limit_l_min       -24
_diffrn_reflns_number            15279
_diffrn_reflns_point_group_measured_fraction_full 0.978
_diffrn_reflns_point_group_measured_fraction_max 0.978
_diffrn_reflns_theta_full        25.242
_diffrn_reflns_theta_max         25.372
_diffrn_reflns_theta_min         2.989
_diffrn_source                   'fine-focus sealed tube'
_exptl_absorpt_coefficient_mu    1.276
_exptl_absorpt_correction_T_max  0.805
_exptl_absorpt_correction_T_min  0.744
_exptl_absorpt_correction_type   multi-scan
_exptl_absorpt_process_details   'SADABS (Bruker, 2013)'
_exptl_crystal_colour            colorless
_exptl_crystal_density_diffrn    1.069
_exptl_crystal_density_method    'not measured'
_exptl_crystal_description       block
_exptl_crystal_F_000             2496.0
_exptl_crystal_size_max          0.24
_exptl_crystal_size_mid          0.21
_exptl_crystal_size_min          0.17
_refine_diff_density_max         1.020
_refine_diff_density_min         -1.236
_refine_diff_density_rms         0.137
_refine_ls_abs_structure_details
;
 Refined as an inversion twin.
;
_refine_ls_abs_structure_Flack   0.29(4)
_refine_ls_extinction_method     none
_refine_ls_goodness_of_fit_ref   1.053
_refine_ls_hydrogen_treatment    constr
_refine_ls_matrix_type           full
_refine_ls_number_parameters     345
_refine_ls_number_reflns         6786
_refine_ls_number_restraints     134
_refine_ls_restrained_S_all      1.084
_refine_ls_R_factor_all          0.1100
_refine_ls_R_factor_gt           0.0813
_refine_ls_shift/su_max          0.000
_refine_ls_shift/su_mean         0.000
_refine_ls_structure_factor_coef Fsqd
_refine_ls_weighting_details
'w=1/[\s^2^(Fo^2^)+(0.1303P)^2^] where P=(Fo^2^+2Fc^2^)/3'
_refine_ls_weighting_scheme      calc
_refine_ls_wR_factor_gt          0.2076
_refine_ls_wR_factor_ref         0.2230
_reflns_Friedel_coverage         0.946
_reflns_Friedel_fraction_full    0.981
_reflns_Friedel_fraction_max     0.980
_reflns_number_gt                4834
_reflns_number_total             7134
_reflns_threshold_expression     'I > 2\s(I)'
_cod_data_source_file            c7dt00005g2.cif
_cod_data_source_block           w_sq
_cod_original_sg_symbol_Hall     'A 2 -2ac'
_cod_original_sg_symbol_H-M      'A b a 2'
_cod_database_code               7702128
_shelx_shelxl_version_number     2016/6
_shelx_space_group_comment
;
The symmetry employed for this shelxl refinement is uniquely defined
by the following loop, which should always be used as a source of
symmetry information in preference to the above space-group names.
They are only intended as comments.
;
_shelx_res_file
;
TITL W in  Aba2
    w_sq.res
    created by SHELXL-2016/6 at 12:42:54 on 06-Feb-2017
CELL  0.71073   17.8735   20.9554   20.7462    90.000    90.000    90.000
ZERR  8           0.0009    0.0014    0.0013     0.000     0.000     0.000
LATT -5
SYMM             - X ,            - Y ,              Z
SYMM     0.50000 - X ,              Y ,    0.50000 + Z
SYMM     0.50000 + X ,            - Y ,    0.50000 + Z
SFAC C  H  N  O  Zn
UNIT 144 0 80 64 16
L.S. 80
ACTA
BOND $H
FMAP 2
PLAN 50
dfix 1.43 0.01 C10 C17
DFIX 1.47 0.01 C1 C2
DFIX 1.38 0.01 C17 C18
DFIX 1.38 0.01 C18 C12
DFIX 1.38 0.01 C12 C13
ISOR 0.001 0.001 N3 N7 C17 N6
ISOR 0.01 0.01 O4 C15 N8 C8 C3 N5 N3
DFIX 1.38 0.01 C16 C14
DFIX 1.38 0.01 C4 C5
ISOR 0.01 0.01  C1
ISOR 0.01 0.01  C13 O6 O7 N1 N10 C7 C18 N4 O2 C11
CONF
TWIN
FREE Zn1  C10
FREE Zn2  C1
TEMP  -100
WGHT    0.130300
BASF   0.28827
FVAR       0.35793
O5    4    0.942369    0.745288    0.947601    11.00000    0.00595    0.05745 =
         0.05705    0.02139   -0.00094    0.00572
C10   1    0.957629    0.785374    0.907143    11.00000    0.01426    0.10920 =
         0.04786    0.04138    0.00311   -0.00051
ZN1   5    0.526764    0.803695    0.976842    11.00000    0.01403    0.02255 =
         0.02507    0.00252    0.00310   -0.00070
ZN2   5    0.000000    1.000000    1.279740    10.50000    0.01381    0.01852 =
         0.03188    0.00000    0.00000   -0.00084
ZN3   5    0.500000    1.000000    1.172598    10.50000    0.01760    0.02560 =
         0.02015    0.00000    0.00000   -0.00276
O1    4    0.085603    0.963359    1.239069    11.00000    0.02562    0.03304 =
         0.03508   -0.01098    0.01495   -0.00839
O2    4    0.002703    0.902334    1.182533    11.00000    0.00951    0.05263 =
         0.05266   -0.00689    0.00753    0.00760
O3    4    0.091122    0.741289    1.032754    11.00000    0.03045    0.05092 =
         0.06245   -0.03457    0.01150   -0.00617
O8    4    0.934945    0.950767    0.727291    11.00000    0.07820    0.10181 =
         0.11977    0.09071    0.07524    0.06534
O6    4    1.023773    0.792370    0.880313    11.00000    0.02312    0.07103 =
         0.10393    0.02874    0.00206    0.02643
O4    4    0.198181    0.750766    0.992201    11.00000    0.03929    0.12723 =
         0.11700   -0.08025    0.02012   -0.01623
O7    4    0.838160    0.999423    0.740999    11.00000    0.09076    0.13845 =
         0.14291    0.07703    0.03138    0.05352
N2    3    0.459298    0.930245    1.114994    11.00000    0.01086    0.03476 =
         0.04372   -0.00121    0.00804   -0.00388
N4    3    0.477685    0.862419    1.044427    11.00000    0.00683    0.02808 =
         0.03518    0.00583   -0.00560   -0.00860
N6    3    0.565906    0.862040    0.906892    11.00000    0.03498    0.03635 =
         0.03709    0.00028   -0.00035   -0.00035
N8    3    0.551592    0.931736    0.837681    11.00000    0.01921    0.02953 =
         0.03914    0.01036    0.00522   -0.00772
N10   3    0.695933    0.849147    0.898024    11.00000    0.03033    0.07391 =
         0.07340    0.03410    0.02479    0.02183
AFIX  43
H10   2    0.692890    0.820495    0.928924    11.00000   -1.20000
AFIX   0
N1    3    0.335088    0.907881    1.145541    11.00000    0.05878    0.06828 =
         0.10433   -0.05354   -0.00002   -0.01818
AFIX  43
H1    2    0.340110    0.932990    1.179264    11.00000   -1.20000
AFIX   0
N3    3    0.508329    0.907646    1.073680    11.00000    0.02402    0.02321 =
         0.02399   -0.00203   -0.00185    0.00045
AFIX  43
H20   2    0.554200    0.921704    1.067693    11.00000   -1.20000
AFIX   0
N5    3    0.407356    0.851006    1.061824    11.00000    0.03898    0.04590 =
         0.05168   -0.02008    0.00043   -0.01087
N7    3    0.515145    0.893304    0.878915    11.00000    0.03342    0.03358 =
         0.03350    0.00148    0.00093   -0.00061
AFIX  43
H22   2    0.466533    0.890558    0.885046    11.00000   -1.20000
AFIX   0
N9    3    0.621909    0.921461    0.832665    11.00000    0.01246    0.05140 =
         0.03787    0.02748    0.00536   -0.00290
C1    1    0.069300    0.922744    1.195194    11.00000    0.02956    0.04006 =
         0.06382   -0.01162   -0.00435   -0.02094
C2    1    0.132505    0.888652    1.160728    11.00000    0.01711    0.05614 =
         0.04788   -0.01826    0.01693   -0.01390
C9    1    0.396560    0.897131    1.110652    11.00000    0.03620    0.04280 =
         0.05828   -0.03809    0.01429    0.00291
C4    1    0.263199    0.883272    1.134013    11.00000    0.03883    0.06219 =
         0.06691   -0.01712    0.02106   -0.00123
C11   1    0.633841    0.874450    0.880670    11.00000    0.01869    0.02954 =
         0.04922    0.01916    0.01413    0.00784
C3    1    0.204644    0.910256    1.166283    11.00000    0.02985    0.04215 =
         0.04992   -0.02838    0.01209   -0.01928
AFIX  43
H21   2    0.214287    0.945549    1.193796    11.00000   -1.20000
AFIX   0
C7    1    0.117217    0.844310    1.112556    11.00000    0.03807    0.02410 =
         0.06113   -0.01886    0.03020    0.00431
AFIX  43
H23   2    0.066745    0.833249    1.103541    11.00000   -1.20000
AFIX   0
C5    1    0.244766    0.840791    1.084151    11.00000    0.03109    0.05513 =
         0.10995   -0.05788    0.03074   -0.01110
AFIX  43
H5    2    0.282153    0.828571    1.054034    11.00000   -1.20000
AFIX   0
C6    1    0.173350    0.816438    1.078050    11.00000    0.02262    0.08356 =
         0.09554   -0.05817    0.01754   -0.01230
C13   1    0.787774    0.907476    0.829279    11.00000    0.02574    0.04444 =
         0.02344    0.00291    0.00083    0.02631
AFIX  43
H13   2    0.750313    0.936067    0.814402    11.00000   -1.20000
AFIX   0
C12   1    0.768481    0.861102    0.874197    11.00000    0.01297    0.03863 =
         0.04400    0.00535   -0.00131    0.00951
C18   1    0.825088    0.823929    0.900808    11.00000    0.01330    0.03951 =
         0.05492    0.00238    0.00863    0.00590
AFIX  43
H18   2    0.812815    0.795308    0.934709    11.00000   -1.20000
AFIX   0
C16   1    0.911198    0.873492    0.833073    11.00000    0.03346    0.04046 =
         0.06273    0.00476    0.00842   -0.00056
AFIX  43
H16   2    0.960923    0.878861    0.817834    11.00000   -1.20000
AFIX   0
C14   1    0.856388    0.913066    0.806654    11.00000    0.03845    0.03153 =
         0.04893   -0.00886    0.02350   -0.00811
C17   1    0.899500    0.826964    0.879658    11.00000    0.03237    0.03388 =
         0.03382    0.00074    0.00028   -0.00061
C15   1    0.875931    0.957014    0.755578    11.00000    0.03984    0.04113 =
         0.05009    0.02008   -0.00551    0.00754
C8    1    0.156858    0.763224    1.029477    11.00000    0.03033    0.05416 =
         0.04174   -0.02597    0.00820    0.00771
HKLF 4 1  0.0000  0.0000 -1.0000  0.0000 -1.0000  0.0000 -1.0000  0.0000  0.0000




REM  W in  Aba2
REM R1 =  0.0813 for    4834 Fo > 4sig(Fo)  and  0.1100 for all    6786 data
REM    345 parameters refined using    134 restraints

END

WGHT      0.1316      0.0000

REM Highest difference peak  1.020,  deepest hole -1.236,  1-sigma level  0.137
Q1    1   0.4714  0.8062  0.9776  11.00000  0.05    1.02
Q2    1  -0.0637  1.0022  1.2830  11.00000  0.05    0.77
Q3    1   0.8213  0.9734  0.7076  11.00000  0.05    0.74
Q4    1   0.8533  1.0245  0.7635  11.00000  0.05    0.69
Q5    1   0.4415  0.8050  1.0336  11.00000  0.05    0.66
Q6    1   0.1968  0.7753  0.9709  11.00000  0.05    0.61
Q7    1   0.8988  0.8483  0.8956  11.00000  0.05    0.60
Q8    1   0.9406  0.6930  0.9201  11.00000  0.05    0.60
Q9    1   0.0550  0.9509  1.2930  11.00000  0.05    0.60
Q10   1   0.2055  0.7098  1.0264  11.00000  0.05    0.59
Q11   1   1.0342  0.8151  0.9187  11.00000  0.05    0.58
Q12   1   0.4980  0.8853  1.1000  11.00000  0.05    0.58
Q13   1   0.5231  0.9199  1.0521  11.00000  0.05    0.58
Q14   1   0.1453  0.9749  1.1857  11.00000  0.05    0.55
Q15   1   0.0186  1.0289  1.2212  11.00000  0.05    0.54
Q16   1   0.9398  0.9425  0.7013  11.00000  0.05    0.54
Q17   1   0.5461  0.8813  0.8364  11.00000  0.05    0.53
Q18   1   0.5235  0.9189  0.9013  11.00000  0.05    0.53
Q19   1   0.9031  0.8029  0.8583  11.00000  0.05    0.51
Q20   1   0.5025  0.9381  1.1234  11.00000  0.05    0.50
Q21   1   0.4344  0.9968  1.1716  11.00000  0.05    0.49
Q22   1   0.5506  0.8493  0.8741  11.00000  0.05    0.49
Q23   1   0.5382  0.8527  0.9782  11.00000  0.05    0.48
Q24   1   0.5573  0.8632  0.9333  11.00000  0.05    0.48
Q25   1   0.5012  0.9376  0.8284  11.00000  0.05    0.48
Q26   1  -0.0148  1.0182  1.2218  11.00000  0.05    0.48
Q27   1   0.8751  0.7973  0.9745  11.00000  0.05    0.47
Q28   1   0.7013  0.7939  0.9224  11.00000  0.05    0.47
Q29   1   0.4668  0.8127  1.0812  11.00000  0.05    0.47
Q30   1   0.6826  0.9725  0.7464  11.00000  0.05    0.44
Q31   1   0.0813  0.6972  1.0129  11.00000  0.05    0.44
Q32   1   0.4958  0.8101  0.9191  11.00000  0.05    0.44
Q33   1   0.0800  0.7408  0.9748  11.00000  0.05    0.44
Q34   1   0.0259  0.8131  1.0331  11.00000  0.05    0.44
Q35   1   0.5516  0.7647  0.9291  11.00000  0.05    0.44
Q36   1   0.8568  0.8686  0.8132  11.00000  0.05    0.44
Q37   1   0.4416  0.9440  1.1516  11.00000  0.05    0.44
Q38   1   0.9996  0.9381  0.7827  11.00000  0.05    0.42
Q39   1   0.1902  0.9413  1.1431  11.00000  0.05    0.42
Q40   1   0.8189  0.9368  0.7394  11.00000  0.05    0.41
Q41   1   0.5146  0.7513  0.9768  11.00000  0.05    0.41
Q42   1   0.8501  0.9767  0.8017  11.00000  0.05    0.41
Q43   1   0.9748  1.0072  0.7367  11.00000  0.05    0.41
Q44   1   0.1966  0.7669  1.0488  11.00000  0.05    0.40
Q45   1   0.5543  0.8147  0.9088  11.00000  0.05    0.40
Q46   1   0.4994  0.8006  1.0400  11.00000  0.05    0.40
Q47   1   0.0571  1.0569  1.2524  11.00000  0.05    0.40
Q48   1   0.3618  0.8524  1.0984  11.00000  0.05    0.39
Q49   1   0.9004  0.7310  1.0175  11.00000  0.05    0.39
Q50   1  -0.0016  0.9397  1.1710  11.00000  0.05    0.39
;
_shelx_res_checksum              51414
_platon_squeeze_void_probe_radius 1.20
loop_
_space_group_symop_operation_xyz
'x, y, z'
'-x, -y, z'
'-x+1/2, y, z+1/2'
'x+1/2, -y, z+1/2'
'x, y+1/2, z+1/2'
'-x, -y+1/2, z+1/2'
'-x+1/2, y+1/2, z+1'
'x+1/2, -y+1/2, z+1'
loop_
_atom_site_label
_atom_site_type_symbol
_atom_site_fract_x
_atom_site_fract_y
_atom_site_fract_z
_atom_site_U_iso_or_equiv
_atom_site_adp_type
_atom_site_occupancy
_atom_site_site_symmetry_order
_atom_site_calc_flag
_atom_site_refinement_flags_posn
_atom_site_refinement_flags_adp
_atom_site_refinement_flags_occupancy
O5 O 0.9424(5) 0.7453(5) 0.9476(5) 0.040(3) Uani 1 1 d . . .
C10 C 0.9576(8) 0.7854(10) 0.9071(8) 0.057(6) Uani 1 1 d D . .
Zn1 Zn 0.52676(6) 0.80370(6) 0.97684(13) 0.0205(3) Uani 1 1 d . . .
Zn2 Zn 0.000000 1.000000 1.27974(9) 0.0214(7) Uani 1 2 d S T P
Zn3 Zn 0.500000 1.000000 1.17260(9) 0.0211(6) Uani 1 2 d S T P
O1 O 0.0856(5) 0.9634(5) 1.2391(4) 0.031(2) Uani 1 1 d . . .
O2 O 0.0027(5) 0.9023(6) 1.1825(5) 0.038(3) Uani 1 1 d . U .
O3 O 0.0911(6) 0.7413(5) 1.0328(5) 0.048(3) Uani 1 1 d . . .
O8 O 0.9349(8) 0.9508(8) 0.7273(8) 0.100(7) Uani 1 1 d . . .
O6 O 1.0238(7) 0.7924(7) 0.8803(8) 0.066(4) Uani 1 1 d . U .
O4 O 0.1982(7) 0.7508(8) 0.9922(8) 0.095(5) Uani 1 1 d . U .
O7 O 0.8382(11) 0.9994(10) 0.7410(10) 0.124(7) Uani 1 1 d . U .
N2 N 0.4593(6) 0.9302(6) 1.1150(6) 0.030(3) Uani 1 1 d . . .
N4 N 0.4777(6) 0.8624(5) 1.0444(5) 0.023(2) Uani 1 1 d . U .
N6 N 0.5659(7) 0.8620(6) 0.9069(6) 0.036(3) Uani 1 1 d . U .
N8 N 0.5516(6) 0.9317(6) 0.8377(6) 0.029(3) Uani 1 1 d . U .
N10 N 0.6959(8) 0.8491(8) 0.8980(8) 0.059(4) Uani 1 1 d . U .
H10 H 0.692890 0.820495 0.928924 0.071 Uiso 1 1 calc R U .
N1 N 0.3351(9) 0.9079(9) 1.1455(9) 0.077(5) Uani 1 1 d . U .
H1 H 0.340110 0.932990 1.179264 0.093 Uiso 1 1 calc R U .
N3 N 0.5083(7) 0.9076(6) 1.0737(6) 0.024(3) Uani 1 1 d . U .
H20 H 0.554200 0.921704 1.067693 0.028 Uiso 1 1 calc R U .
N5 N 0.4074(8) 0.8510(7) 1.0618(7) 0.046(3) Uani 1 1 d . U .
N7 N 0.5151(8) 0.8933(7) 0.8789(7) 0.033(3) Uani 1 1 d . U .
H22 H 0.466533 0.890558 0.885046 0.040 Uiso 1 1 calc R U .
N9 N 0.6219(6) 0.9215(6) 0.8327(6) 0.034(3) Uani 1 1 d . . .
C1 C 0.0693(8) 0.9227(7) 1.1952(8) 0.044(4) Uani 1 1 d D U .
C2 C 0.1325(7) 0.8887(8) 1.1607(8) 0.040(4) Uani 1 1 d D . .
C9 C 0.3966(9) 0.8971(8) 1.1107(8) 0.046(4) Uani 1 1 d . . .
C4 C 0.2632(10) 0.8833(9) 1.1340(8) 0.056(5) Uani 1 1 d D . .
C11 C 0.6338(7) 0.8745(7) 0.8807(7) 0.032(3) Uani 1 1 d . U .
C3 C 0.2046(8) 0.9103(8) 1.1663(8) 0.041(4) Uani 1 1 d . U .
H21 H 0.214287 0.945549 1.193796 0.049 Uiso 1 1 calc R U .
C7 C 0.1172(9) 0.8443(7) 1.1126(8) 0.041(4) Uani 1 1 d . U .
H23 H 0.066745 0.833249 1.103541 0.049 Uiso 1 1 calc R U .
C5 C 0.2448(10) 0.8408(9) 1.0842(10) 0.065(6) Uani 1 1 d D . .
H5 H 0.282153 0.828571 1.054034 0.078 Uiso 1 1 calc R U .
C6 C 0.1734(10) 0.8164(11) 1.0780(11) 0.067(7) Uani 1 1 d . . .
C13 C 0.7878(7) 0.9075(6) 0.8293(6) 0.031(3) Uani 1 1 d D U .
H13 H 0.750313 0.936067 0.814402 0.037 Uiso 1 1 calc R U .
C12 C 0.7685(7) 0.8611(6) 0.8742(7) 0.032(3) Uani 1 1 d D . .
C18 C 0.8251(6) 0.8239(7) 0.9008(7) 0.036(4) Uani 1 1 d D U .
H18 H 0.812815 0.795308 0.934709 0.043 Uiso 1 1 calc R U .
C16 C 0.9112(9) 0.8735(8) 0.8331(8) 0.046(4) Uani 1 1 d D . .
H16 H 0.960923 0.878861 0.817834 0.055 Uiso 1 1 calc R U .
C14 C 0.8564(8) 0.9131(7) 0.8067(7) 0.040(4) Uani 1 1 d D . .
C17 C 0.8995(6) 0.8270(7) 0.8797(7) 0.033(3) Uani 1 1 d D U .
C15 C 0.8759(9) 0.9570(8) 0.7556(8) 0.044(4) Uani 1 1 d . U .
C8 C 0.1569(9) 0.7632(8) 1.0295(8) 0.042(4) Uani 1 1 d . U .
loop_
_atom_site_aniso_label
_atom_site_aniso_U_11
_atom_site_aniso_U_22
_atom_site_aniso_U_33
_atom_site_aniso_U_23
_atom_site_aniso_U_13
_atom_site_aniso_U_12
O5 0.006(5) 0.057(7) 0.057(6) 0.021(5) -0.001(4) 0.006(4)
C10 0.014(9) 0.109(17) 0.048(10) 0.041(11) 0.003(7) -0.001(9)
Zn1 0.0140(6) 0.0225(6) 0.0251(6) 0.0025(11) 0.0031(10) -0.0007(5)
Zn2 0.0138(13) 0.0185(15) 0.0319(16) 0.000 0.000 -0.0008(10)
Zn3 0.0176(14) 0.0256(17) 0.0202(14) 0.000 0.000 -0.0028(11)
O1 0.026(5) 0.033(6) 0.035(6) -0.011(5) 0.015(4) -0.008(4)
O2 0.010(5) 0.053(7) 0.053(6) -0.007(5) 0.008(4) 0.008(4)
O3 0.030(7) 0.051(8) 0.062(7) -0.035(6) 0.011(5) -0.006(5)
O8 0.078(11) 0.102(12) 0.120(12) 0.091(10) 0.075(10) 0.065(9)
O6 0.023(6) 0.071(8) 0.104(9) 0.029(7) 0.002(6) 0.026(5)
O4 0.039(7) 0.127(10) 0.117(11) -0.080(9) 0.020(7) -0.016(6)
O7 0.091(10) 0.138(12) 0.143(12) 0.077(10) 0.031(9) 0.054(9)
N2 0.011(6) 0.035(7) 0.044(7) -0.001(6) 0.008(5) -0.004(5)
N4 0.007(5) 0.028(6) 0.035(6) 0.006(5) -0.006(4) -0.009(4)
N6 0.035(3) 0.036(3) 0.037(3) 0.0003(14) -0.0004(14) -0.0003(14)
N8 0.019(6) 0.030(6) 0.039(6) 0.010(5) 0.005(5) -0.008(5)
N10 0.030(7) 0.074(9) 0.073(9) 0.034(8) 0.025(6) 0.022(6)
N1 0.059(9) 0.068(10) 0.104(10) -0.054(9) 0.000(8) -0.018(7)
N3 0.024(3) 0.023(3) 0.024(3) -0.0020(14) -0.0018(14) 0.0004(14)
N5 0.039(7) 0.046(7) 0.052(7) -0.020(6) 0.000(6) -0.011(6)
N7 0.033(4) 0.034(4) 0.034(3) 0.0015(14) 0.0009(14) -0.0006(14)
N9 0.012(7) 0.051(8) 0.038(7) 0.027(6) 0.005(5) -0.003(5)
C1 0.030(8) 0.040(8) 0.064(9) -0.012(7) -0.004(7) -0.021(6)
C2 0.017(8) 0.056(11) 0.048(9) -0.018(8) 0.017(6) -0.014(7)
C9 0.036(10) 0.043(10) 0.058(10) -0.038(9) 0.014(7) 0.003(7)
C4 0.039(11) 0.062(13) 0.067(12) -0.017(10) 0.021(8) -0.001(9)
C11 0.019(7) 0.030(7) 0.049(8) 0.019(6) 0.014(6) 0.008(5)
C3 0.030(7) 0.042(8) 0.050(8) -0.028(7) 0.012(6) -0.019(6)
C7 0.038(8) 0.024(7) 0.061(9) -0.019(7) 0.030(7) 0.004(6)
C5 0.031(10) 0.055(12) 0.110(16) -0.058(12) 0.031(10) -0.011(9)
C6 0.023(10) 0.084(16) 0.096(15) -0.058(13) 0.018(9) -0.012(9)
C13 0.026(7) 0.044(8) 0.023(6) 0.003(6) 0.001(5) 0.026(6)
C12 0.013(7) 0.039(9) 0.044(8) 0.005(7) -0.001(6) 0.010(6)
C18 0.013(7) 0.040(8) 0.055(8) 0.002(7) 0.009(6) 0.006(5)
C16 0.033(10) 0.040(10) 0.063(11) 0.005(8) 0.008(8) -0.001(7)
C14 0.038(9) 0.032(9) 0.049(9) -0.009(7) 0.024(7) -0.008(7)
C17 0.032(4) 0.034(4) 0.034(4) 0.0007(14) 0.0003(14) -0.0006(14)
C15 0.040(8) 0.041(8) 0.050(8) 0.020(7) -0.006(7) 0.008(7)
C8 0.030(8) 0.054(9) 0.042(8) -0.026(7) 0.008(6) 0.008(7)
loop_
_atom_type_symbol
_atom_type_description
_atom_type_scat_dispersion_real
_atom_type_scat_dispersion_imag
_atom_type_scat_source
C C 0.0033 0.0016 'International Tables Vol C Tables 4.2.6.8 and 6.1.1.4'
H H 0.0000 0.0000 'International Tables Vol C Tables 4.2.6.8 and 6.1.1.4'
N N 0.0061 0.0033 'International Tables Vol C Tables 4.2.6.8 and 6.1.1.4'
O O 0.0106 0.0060 'International Tables Vol C Tables 4.2.6.8 and 6.1.1.4'
Zn Zn 0.2839 1.4301 'International Tables Vol C Tables 4.2.6.8 and 6.1.1.4'
loop_
_geom_angle_atom_site_label_1
_geom_angle_atom_site_label_2
_geom_angle_atom_site_label_3
_geom_angle
_geom_angle_site_symmetry_1
_geom_angle_site_symmetry_3
C10 O5 Zn1 114.2(9) . 8_564
O5 C10 O6 124.7(13) . .
O5 C10 C17 121.2(13) . .
O6 C10 C17 113.9(13) . .
O3 Zn1 O5 113.9(5) 8_564 8_464
O3 Zn1 N6 122.2(5) 8_564 .
O5 Zn1 N6 111.6(5) 8_464 .
O3 Zn1 N4 98.0(5) 8_564 .
O5 Zn1 N4 101.5(4) 8_464 .
N6 Zn1 N4 105.9(5) . .
O1 Zn2 O1 127.5(6) . 2_575
O1 Zn2 N8 100.2(4) . 4_475
O1 Zn2 N8 109.5(4) 2_575 4_475
O1 Zn2 N8 109.5(4) . 3
O1 Zn2 N8 100.2(4) 2_575 3
N8 Zn2 N8 109.5(7) 4_475 3
O8 Zn3 O8 107.7(13) 3_655 4_475
O8 Zn3 N2 121.2(5) 3_655 2_675
O8 Zn3 N2 100.3(6) 4_475 2_675
O8 Zn3 N2 100.3(6) 3_655 .
O8 Zn3 N2 121.2(5) 4_475 .
N2 Zn3 N2 107.6(7) 2_675 .
C1 O1 Zn2 113.5(8) . .
C8 O3 Zn1 135.7(10) . 8_464
C15 O8 Zn3 138.8(12) . 3_654
N3 N2 C9 109.4(12) . .
N3 N2 Zn3 113.9(8) . .
C9 N2 Zn3 136.4(10) . .
N3 N4 N5 114.7(12) . .
N3 N4 Zn1 126.6(9) . .
N5 N4 Zn1 118.7(9) . .
N7 N6 C11 111.1(13) . .
N7 N6 Zn1 113.3(10) . .
C11 N6 Zn1 135.5(10) . .
N9 N8 N7 115.3(12) . .
N9 N8 Zn2 120.2(8) . 3_554
N7 N8 Zn2 124.4(9) . 3_554
C11 N10 C12 128.6(14) . .
C11 N10 H10 115.7 . .
C12 N10 H10 115.7 . .
C9 N1 C4 126.8(15) . .
C9 N1 H1 116.6 . .
C4 N1 H1 116.6 . .
N4 N3 N2 107.3(12) . .
N4 N3 H20 126.4 . .
N2 N3 H20 126.4 . .
N4 N5 C9 101.6(12) . .
N6 N7 N8 104.8(13) . .
N6 N7 H22 127.6 . .
N8 N7 H22 127.6 . .
N8 N9 C11 102.0(10) . .
O1 C1 O2 125.1(12) . .
O1 C1 C2 118.6(12) . .
O2 C1 C2 115.8(12) . .
C3 C2 C7 117.7(12) . .
C3 C2 C1 120.4(13) . .
C7 C2 C1 120.5(13) . .
N2 C9 N1 124.9(14) . .
N2 C9 N5 107.0(12) . .
N1 C9 N5 128.1(15) . .
C3 C4 N1 117.8(14) . .
C3 C4 C5 116.4(15) . .
N1 C4 C5 124.9(15) . .
N10 C11 N6 125.7(14) . .
N10 C11 N9 128.0(13) . .
N6 C11 N9 106.3(11) . .
C4 C3 C2 122.9(14) . .
C4 C3 H21 118.6 . .
C2 C3 H21 118.6 . .
C6 C7 C2 121.2(15) . .
C6 C7 H23 119.4 . .
C2 C7 H23 119.4 . .
C6 C5 C4 121.3(15) . .
C6 C5 H5 119.4 . .
C4 C5 H5 119.4 . .
C5 C6 C7 118.3(15) . .
C5 C6 C8 120.5(14) . .
C7 C6 C8 121.0(15) . .
C14 C13 C12 122.1(12) . .
C14 C13 H13 118.9 . .
C12 C13 H13 118.9 . .
N10 C12 C18 115.5(11) . .
N10 C12 C13 126.0(11) . .
C18 C12 C13 118.5(12) . .
C12 C18 C17 122.7(13) . .
C12 C18 H18 118.6 . .
C17 C18 H18 118.6 . .
C17 C16 C14 125.8(14) . .
C17 C16 H16 117.1 . .
C14 C16 H16 117.1 . .
C13 C14 C15 122.8(14) . .
C13 C14 C16 117.4(14) . .
C15 C14 C16 119.8(14) . .
C16 C17 C18 113.1(12) . .
C16 C17 C10 125.4(12) . .
C18 C17 C10 121.5(12) . .
O7 C15 O8 117.6(17) . .
O7 C15 C14 122.7(18) . .
O8 C15 C14 119.7(14) . .
O4 C8 O3 125.1(16) . .
O4 C8 C6 120.4(17) . .
O3 C8 C6 114.1(13) . .
loop_
_geom_bond_atom_site_label_1
_geom_bond_atom_site_label_2
_geom_bond_distance
_geom_bond_site_symmetry_2
O5 C10 1.218(18) .
O5 Zn1 1.923(9) 8_564
C10 O6 1.31(2) .
C10 C17 1.471(12) .
Zn1 O3 1.886(11) 8_564
Zn1 N6 2.022(13) .
Zn1 N4 2.062(12) .
Zn2 O1 1.909(9) .
Zn2 O1 1.909(9) 2_575
Zn2 N8 2.084(12) 4_475
Zn2 N8 2.084(12) 3
Zn3 O8 1.925(12) 3_655
Zn3 O8 1.925(12) 4_475
Zn3 N2 2.023(12) 2_675
Zn3 N2 2.023(12) .
O1 C1 1.280(17) .
O2 C1 1.292(17) .
O3 C8 1.26(2) .
O8 C15 1.21(2) .
O4 C8 1.101(19) .
O7 C15 1.16(2) .
N2 N3 1.314(17) .
N2 C9 1.322(19) .
N4 N3 1.252(17) .
N4 N5 1.330(18) .
N6 N7 1.261(18) .
N6 C11 1.356(18) .
N8 N9 1.279(16) .
N8 N7 1.343(18) .
N10 C11 1.282(19) .
N10 C12 1.410(18) .
N10 H10 0.8800 .
N1 C9 1.33(2) .
N1 C4 1.41(2) .
N1 H1 0.8800 .
N3 H20 0.8800 .
N5 C9 1.413(18) .
N7 H22 0.8800 .
N9 C11 1.417(17) .
C1 C2 1.516(12) .
C2 C3 1.37(2) .
C2 C7 1.39(2) .
C4 C3 1.37(2) .
C4 C5 1.404(13) .
C3 H21 0.9500 .
C7 C6 1.36(2) .
C7 H23 0.9500 .
C5 C6 1.38(2) .
C5 H5 0.9500 .
C6 C8 1.53(2) .
C13 C14 1.318(19) .
C13 C12 1.390(12) .
C13 H13 0.9500 .
C12 C18 1.391(12) .
C18 C17 1.402(12) .
C18 H18 0.9500 .
C16 C17 1.39(2) .
C16 C14 1.396(12) .
C16 H16 0.9500 .
C14 C15 1.45(2) .
loop_
_geom_torsion_atom_site_label_1
_geom_torsion_atom_site_label_2
_geom_torsion_atom_site_label_3
_geom_torsion_atom_site_label_4
_geom_torsion
_geom_torsion_site_symmetry_1
Zn1 O5 C10 O6 6(3) 8_564
Zn1 O5 C10 C17 180.0(14) 8_564
N5 N4 N3 N2 0.8(17) .
Zn1 N4 N3 N2 -176.4(9) .
C9 N2 N3 N4 0.2(17) .
Zn3 N2 N3 N4 175.6(9) .
N3 N4 N5 C9 -1.4(18) .
Zn1 N4 N5 C9 176.0(10) .
C11 N6 N7 N8 -6.0(17) .
Zn1 N6 N7 N8 176.2(9) .
N9 N8 N7 N6 7.6(18) .
Zn2 N8 N7 N6 -176.5(10) 3_554
N7 N8 N9 C11 -5.7(17) .
Zn2 N8 N9 C11 178.3(9) 3_554
Zn2 O1 C1 O2 -7(2) .
Zn2 O1 C1 C2 -178.1(12) .
O1 C1 C2 C3 -14(3) .
O2 C1 C2 C3 174.1(17) .
O1 C1 C2 C7 -179.8(15) .
O2 C1 C2 C7 8(2) .
N3 N2 C9 N1 -179.5(19) .
Zn3 N2 C9 N1 7(3) .
N3 N2 C9 N5 -1.1(19) .
Zn3 N2 C9 N5 -175.0(11) .
C4 N1 C9 N2 166(2) .
C4 N1 C9 N5 -12(4) .
N4 N5 C9 N2 1.4(18) .
N4 N5 C9 N1 180(2) .
C9 N1 C4 C3 -166(2) .
C9 N1 C4 C5 2(4) .
C12 N10 C11 N6 -178.1(17) .
C12 N10 C11 N9 0(3) .
N7 N6 C11 N10 -178.8(18) .
Zn1 N6 C11 N10 -2(3) .
N7 N6 C11 N9 2.9(18) .
Zn1 N6 C11 N9 -180.0(11) .
N8 N9 C11 N10 -176.6(18) .
N8 N9 C11 N6 1.7(16) .
N1 C4 C3 C2 -177.5(19) .
C5 C4 C3 C2 13(3) .
C7 C2 C3 C4 -11(3) .
C1 C2 C3 C4 -176.9(17) .
C3 C2 C7 C6 9(3) .
C1 C2 C7 C6 175.5(18) .
C3 C4 C5 C6 -15(3) .
N1 C4 C5 C6 177(2) .
C4 C5 C6 C7 14(4) .
C4 C5 C6 C8 -171(2) .
C2 C7 C6 C5 -11(3) .
C2 C7 C6 C8 174.3(18) .
C11 N10 C12 C18 -177.3(18) .
C11 N10 C12 C13 5(3) .
C14 C13 C12 N10 -175.9(17) .
C14 C13 C12 C18 7(2) .
N10 C12 C18 C17 175.9(16) .
C13 C12 C18 C17 -6(2) .
C12 C13 C14 C15 174.1(15) .
C12 C13 C14 C16 -5(2) .
C17 C16 C14 C13 2(3) .
C17 C16 C14 C15 -176.4(16) .
C14 C16 C17 C18 -2(2) .
C14 C16 C17 C10 179.9(17) .
C12 C18 C17 C16 4(2) .
C12 C18 C17 C10 -177.8(16) .
O5 C10 C17 C16 -179.4(17) .
O6 C10 C17 C16 -5(3) .
O5 C10 C17 C18 3(3) .
O6 C10 C17 C18 177.4(17) .
Zn3 O8 C15 O7 16(4) 3_654
Zn3 O8 C15 C14 -162.7(17) 3_654
C13 C14 C15 O7 18(3) .
C16 C14 C15 O7 -164(2) .
C13 C14 C15 O8 -164.1(19) .
C16 C14 C15 O8 15(3) .
Zn1 O3 C8 O4 -14(3) 8_464
Zn1 O3 C8 C6 158.6(14) 8_464
C5 C6 C8 O4 -13(4) .
C7 C6 C8 O4 162(2) .
C5 C6 C8 O3 174(2) .
C7 C6 C8 O3 -11(3) .
loop_
_platon_squeeze_void_nr
_platon_squeeze_void_average_x
_platon_squeeze_void_average_y
_platon_squeeze_void_average_z
_platon_squeeze_void_volume
_platon_squeeze_void_count_electrons
_platon_squeeze_void_content
1 -0.022 0.000 -0.013 4166 1289 ' '
