#------------------------------------------------------------------------------
#$Date: 2019-11-24 05:41:24 +0200 (Sun, 24 Nov 2019) $
#$Revision: 236850 $
#$URL: file:///home/coder/svn-repositories/cod/cif/7/70/22/7702218.cif $
#------------------------------------------------------------------------------
#
# This file is available in the Crystallography Open Database (COD),
# http://www.crystallography.net/
#
# All data on this site have been placed in the public domain by the
# contributors.
#
data_7702218
loop_
_publ_author_name
'Gu, Jin-Zhong'
'Cai, Yan'
'Wen, Min'
'Shi, Zi-Fa'
'Kirillov, Alexander M.'
_publ_section_title
;
 A new series of Cd(ii) metal-organic architectures driven by soft
 ether-bridged tricarboxylate spacers: synthesis, structural and
 topological versatility, and photocatalytic properties.
;
_journal_issue                   40
_journal_name_full
'Dalton transactions (Cambridge, England : 2003)'
_journal_page_first              14327
_journal_page_last               14339
_journal_paper_doi               10.1039/c8dt02467g
_journal_volume                  47
_journal_year                    2018
_chemical_formula_sum            'C68 H44 Cd3 N6 O15'
_chemical_formula_weight         1522.29
_space_group_crystal_system      monoclinic
_space_group_IT_number           15
_space_group_name_Hall           '-I 2yc'
_space_group_name_H-M_alt        'I 1 2/c 1'
_atom_sites_solution_hydrogens   mixed
_audit_creation_method           SHELXL-2014/7
_audit_update_record
;
2018-08-04 deposited with the CCDC.
2018-08-20 downloaded from the CCDC.
;
_cell_angle_alpha                90
_cell_angle_beta                 102.630(4)
_cell_angle_gamma                90
_cell_formula_units_Z            8
_cell_length_a                   31.7768(12)
_cell_length_b                   10.3456(3)
_cell_length_c                   35.2605(16)
_cell_measurement_reflns_used    20765
_cell_measurement_temperature    293(2)
_cell_measurement_theta_max      25.05
_cell_measurement_theta_min      3.437
_cell_volume                     11311.4(8)
_computing_cell_refinement       'Bruker SAINT'
_computing_data_collection       'Bruker APEX2'
_computing_data_reduction        'Bruker SAINT'
_computing_molecular_graphics    'Bruker SHELXTL'
_computing_publication_material  'Bruker SHELXTL'
_computing_structure_refinement  'SHELXL-2014/7 (Sheldrick, 2014)'
_computing_structure_solution    'SHELXL-2014/7 (Sheldrick, 2014)'
_diffrn_ambient_temperature      293(2)
_diffrn_measured_fraction_theta_full 0.997
_diffrn_measured_fraction_theta_max 0.997
_diffrn_measurement_device_type  'Bruker APE-II CCD'
_diffrn_measurement_method       '\f and \w scans'
_diffrn_radiation_type           MoK\a
_diffrn_radiation_wavelength     0.71073
_diffrn_reflns_av_R_equivalents  0.0733
_diffrn_reflns_av_unetI/netI     0.1262
_diffrn_reflns_Laue_measured_fraction_full 0.997
_diffrn_reflns_Laue_measured_fraction_max 0.997
_diffrn_reflns_limit_h_max       37
_diffrn_reflns_limit_h_min       -37
_diffrn_reflns_limit_k_max       11
_diffrn_reflns_limit_k_min       -12
_diffrn_reflns_limit_l_max       17
_diffrn_reflns_limit_l_min       -42
_diffrn_reflns_number            20765
_diffrn_reflns_point_group_measured_fraction_full 0.997
_diffrn_reflns_point_group_measured_fraction_max 0.997
_diffrn_reflns_theta_full        25.050
_diffrn_reflns_theta_max         25.050
_diffrn_reflns_theta_min         3.437
_diffrn_source                   'fine-focus sealed tube'
_exptl_absorpt_coefficient_mu    1.199
_exptl_absorpt_correction_T_max  0.778
_exptl_absorpt_correction_T_min  0.730
_exptl_absorpt_correction_type   multi-scan
_exptl_absorpt_process_details   SADABS
_exptl_crystal_colour            colourless
_exptl_crystal_density_diffrn    1.788
_exptl_crystal_description       block
_exptl_crystal_F_000             6064
_exptl_crystal_size_max          0.280
_exptl_crystal_size_mid          0.230
_exptl_crystal_size_min          0.220
_exptl_transmission_factor_max   0.768
_exptl_transmission_factor_min   0.725
_refine_diff_density_max         1.401
_refine_diff_density_min         -1.347
_refine_diff_density_rms         0.135
_refine_ls_extinction_method     none
_refine_ls_goodness_of_fit_ref   1.037
_refine_ls_hydrogen_treatment    constr
_refine_ls_matrix_type           full
_refine_ls_number_parameters     829
_refine_ls_number_reflns         9975
_refine_ls_number_restraints     0
_refine_ls_restrained_S_all      1.037
_refine_ls_R_factor_all          0.1147
_refine_ls_R_factor_gt           0.0575
_refine_ls_shift/su_max          0.002
_refine_ls_shift/su_mean         0.000
_refine_ls_structure_factor_coef Fsqd
_refine_ls_weighting_details     'w=1/[\s^2^(Fo^2^)] where P=(Fo^2^+2Fc^2^)/3'
_refine_ls_weighting_scheme      calc
_refine_ls_wR_factor_gt          0.0729
_refine_ls_wR_factor_ref         0.0974
_reflns_Friedel_coverage         0.000
_reflns_number_gt                5932
_reflns_number_total             9975
_reflns_threshold_expression     'I > 2\s(I)'
_cod_data_source_file            c8dt02467g2.cif
_cod_data_source_block           348-9Cd
_cod_original_sg_symbol_H-M      I2/c
_cod_database_code               7702218
_shelx_shelxl_version_number     2014/7
_shelx_space_group_comment
;
The symmetry employed for this shelxl refinement is uniquely defined
by the following loop, which should always be used as a source of
symmetry information in preference to the above space-group names.
They are only intended as comments.
;
_shelx_estimated_absorpt_t_min   0.730
_shelx_estimated_absorpt_t_max   0.778
_shelx_res_file
;

    348-9Cd.res created by SHELXL-2014/7

TITL 348-9Cd in I2/c #15
CELL 0.71073 31.776759 10.345623 35.260516 90 102.6299 90
ZERR 8 0.001185 0.000326 0.001628 0 0.0038 0
LATT 2
SYMM -X,+Y,0.5-Z
SFAC C  H  O  N  Cd
UNIT 544  352  120  48  24
OMIT -3 50.1
L.S. 22
ACTA
BOND $H
FMAP 2
PLAN 2
SIZE 0.28 0.23 0.22
HTAB
CONF
FREE Cd1  C1
FREE Cd3  C21
WGHT    0.000000
FVAR       0.46966
CD1   5    0.447279    1.197857    0.014267    11.00000    0.02696    0.03907 =
         0.02457    0.00140    0.00409   -0.00801
CD2   5    0.664485    0.912753    0.050249    11.00000    0.02958    0.02655 =
         0.02539    0.00037    0.00959   -0.00464
CD3   5    0.445169    0.706116    0.212833    11.00000    0.03337    0.06903 =
         0.04450    0.01146    0.01828   -0.00383
N1    4    0.411810    1.297205    0.059415    11.00000    0.03722    0.02822 =
         0.02805    0.00436    0.00227   -0.00717
N2    4    0.422056    1.040658    0.049447    11.00000    0.02101    0.02945 =
         0.03036    0.00334   -0.00123   -0.00727
N3    4    0.690565    0.851306   -0.003382    11.00000    0.03072    0.02528 =
         0.02171    0.00502    0.00946   -0.00546
N4    4    0.671493    1.097869    0.012802    11.00000    0.03105    0.02225 =
         0.03067    0.00181    0.01092   -0.00124
N5    4    0.429832    0.534416    0.250159    11.00000    0.04749    0.06550 =
         0.03165   -0.00425    0.00605   -0.01305
N6    4    0.463144    0.509482    0.186033    11.00000    0.03123    0.10775 =
         0.03900   -0.00060    0.00501   -0.01351
O1    3    0.517029    1.182885    0.056353    11.00000    0.03093    0.02718 =
         0.08117    0.00656   -0.00568   -0.00820
O2    3    0.497998    1.365482    0.025339    11.00000    0.02631    0.03860 =
         0.04935    0.01440   -0.00307   -0.00962
O3    3    0.663661    1.716785    0.078714    11.00000    0.03744    0.03010 =
         0.04298    0.00741   -0.00069   -0.00951
O4    3    0.612885    1.699524    0.025280    11.00000    0.04199    0.04799 =
         0.03139    0.01590    0.00001   -0.00188
O5    3    0.709881    1.275700    0.133580    11.00000    0.02818    0.03528 =
         0.03682    0.00565    0.00725    0.00746
O6    3    0.753960    0.954821    0.092075    11.00000    0.07016    0.03502 =
         0.05104   -0.00674    0.03051    0.01527
O7    3    0.692126    1.025096    0.103108    11.00000    0.02834    0.06114 =
         0.03774   -0.01774    0.00926   -0.01431
O8    3    0.594377    0.964468    0.048910    11.00000    0.02856    0.04553 =
         0.02880    0.01359    0.01083   -0.00318
O9    3    0.533865    0.852019    0.042292    11.00000    0.03878    0.06228 =
         0.02604   -0.00654    0.01055   -0.01427
O10   3    0.515320    0.776134    0.215433    11.00000    0.03597    0.07839 =
         0.02593    0.01145    0.00980   -0.00219
O11   3    0.467921    0.818902    0.162541    11.00000    0.02266    0.16527 =
         0.04249    0.04711    0.00876   -0.00307
O12   3    0.659904    0.873520    0.229465    11.00000    0.03652    0.18508 =
         0.04914    0.04712   -0.00500   -0.03281
O13   3    0.635700    0.694518    0.322733    11.00000    0.04415    0.06394 =
         0.05982    0.01880    0.02343    0.01560
O14   3    0.607122    0.837133    0.277963    11.00000    0.03690    0.07654 =
         0.03539    0.00902    0.00872    0.00122
O15   3    0.487548    0.616218    0.061197    11.00000    0.09575    0.04344 =
         0.15142   -0.01841    0.07617   -0.01094
AFIX   3
H1W   2    0.490436    0.543424    0.050875    11.00000   -1.20000
H2W   2    0.500540    0.683354    0.055864    11.00000   -1.20000
AFIX   0
C1    1    0.525344    1.295677    0.047988    11.00000    0.02578    0.03702 =
         0.03849   -0.01508    0.00984   -0.00450
C2    1    0.568530    1.352762    0.066034    11.00000    0.02271    0.02423 =
         0.03272   -0.00423    0.01133   -0.00642
C3    1    0.580845    1.471779    0.053183    11.00000    0.01801    0.03525 =
         0.02042    0.00667    0.00323    0.00442
AFIX  43
H3    2    0.562614    1.513992    0.032702    11.00000   -1.20000
AFIX   0
C4    1    0.619998    1.527699    0.070654    11.00000    0.02561    0.02161 =
         0.02735    0.00461    0.01158    0.00349
C5    1    0.632301    1.657938    0.057413    11.00000    0.02097    0.02903 =
         0.03082    0.00242    0.01094    0.00317
C6    1    0.647569    1.463521    0.101009    11.00000    0.02002    0.02475 =
         0.02465   -0.00048    0.00365    0.00198
AFIX  43
H6    2    0.673296    1.502412    0.113398    11.00000   -1.20000
AFIX   0
C7    1    0.636995    1.341981    0.112946    11.00000    0.02303    0.01946 =
         0.03416    0.00273    0.00692    0.01148
C8    1    0.597303    1.287788    0.095211    11.00000    0.01500    0.02850 =
         0.03916    0.00952    0.00369   -0.00415
AFIX  43
H8    2    0.589965    1.206603    0.103071    11.00000   -1.20000
AFIX   0
C9    1    0.668681    1.272001    0.143723    11.00000    0.02379    0.03844 =
         0.03060   -0.00212    0.00790    0.00374
AFIX  23
H9A   2    0.670403    1.313097    0.168742    11.00000   -1.20000
H9B   2    0.659594    1.183106    0.145488    11.00000   -1.20000
AFIX   0
C10   1    0.741901    1.209161    0.158714    11.00000    0.02137    0.02220 =
         0.03218    0.00459    0.00278    0.00049
C11   1    0.755260    1.087008    0.147830    11.00000    0.02307    0.02580 =
         0.02816    0.00304    0.00945   -0.00151
C12   1    0.732578    1.015715    0.111204    11.00000    0.03089    0.02023 =
         0.03623    0.00456    0.00785   -0.00434
C13   1    0.791179    1.030641    0.171950    11.00000    0.02565    0.02834 =
         0.05235    0.00923    0.01550    0.00277
AFIX  43
H13   2    0.801722    0.953013    0.164492    11.00000   -1.20000
AFIX   0
C14   1    0.811406    1.086535    0.206388    11.00000    0.03058    0.05753 =
         0.05565    0.00538   -0.00387    0.01389
AFIX  43
H14   2    0.834337    1.044842    0.222713    11.00000   -1.20000
AFIX   0
C15   1    0.797362    1.205733    0.216643    11.00000    0.04181    0.07486 =
         0.03421   -0.01211   -0.01224   -0.00015
AFIX  43
H15   2    0.810939    1.244660    0.239877    11.00000   -1.20000
AFIX   0
C16   1    0.763131    1.266590    0.192254    11.00000    0.03792    0.05208 =
         0.04683   -0.01054    0.00198   -0.00254
AFIX  43
H16   2    0.754458    1.347888    0.198821    11.00000   -1.20000
AFIX   0
C17   1    0.566008    0.913147    0.063107    11.00000    0.01927    0.04122 =
         0.03170   -0.00218    0.00653    0.00079
C18   1    0.569239    0.912397    0.106093    11.00000    0.02890    0.02599 =
         0.03244    0.00083    0.01053   -0.00465
C19   1    0.535119    0.879265    0.122849    11.00000    0.01911    0.05431 =
         0.02717    0.00746   -0.00241   -0.00361
AFIX  43
H19   2    0.508021    0.864756    0.107037    11.00000   -1.20000
AFIX   0
C20   1    0.540774    0.867415    0.162851    11.00000    0.03105    0.04877 =
         0.02426    0.01183    0.00979   -0.00134
C21   1    0.505709    0.820607    0.180850    11.00000    0.02838    0.06878 =
         0.03590    0.00594    0.00598   -0.00063
C22   1    0.581142    0.892054    0.186687    11.00000    0.03688    0.04657 =
         0.02123    0.00263    0.00463   -0.00148
AFIX  43
H22   2    0.584956    0.886284    0.213545    11.00000   -1.20000
AFIX   0
C23   1    0.616035    0.925580    0.170143    11.00000    0.02762    0.03588 =
         0.02685    0.00097    0.00800   -0.00314
C24   1    0.609252    0.936797    0.130233    11.00000    0.02937    0.03930 =
         0.03697   -0.00844    0.00909   -0.00847
AFIX  43
H24   2    0.632079    0.961345    0.119214    11.00000   -1.20000
AFIX   0
C25   1    0.659955    0.941319    0.196380    11.00000    0.04174    0.06968 =
         0.03411    0.01354    0.01183   -0.00775
AFIX  23
H25A  2    0.682012    0.908257    0.183802    11.00000   -1.20000
H25B  2    0.665799    1.031922    0.202398    11.00000   -1.20000
AFIX   0
C26   1    0.692952    0.870896    0.260721    11.00000    0.03630    0.05641 =
         0.03399    0.00099   -0.00530   -0.00120
C27   1    0.684098    0.823388    0.294906    11.00000    0.03913    0.03875 =
         0.02732   -0.00770    0.00706    0.00218
C28   1    0.639411    0.780227    0.299354    11.00000    0.03854    0.05738 =
         0.01804   -0.00585    0.00950    0.00929
C29   1    0.718593    0.807256    0.326533    11.00000    0.05344    0.04547 =
         0.02720   -0.00651    0.00644   -0.00343
AFIX  43
H29   2    0.713258    0.772327    0.349328    11.00000   -1.20000
AFIX   0
C30   1    0.760183    0.840721    0.325520    11.00000    0.03923    0.05680 =
         0.04694   -0.01602    0.00236   -0.00162
AFIX  43
H30   2    0.782403    0.829702    0.347316    11.00000   -1.20000
AFIX   0
C31   1    0.768360    0.890541    0.291895    11.00000    0.03664    0.05303 =
         0.05764   -0.02490    0.00045   -0.00744
AFIX  43
H31   2    0.796393    0.913485    0.290893    11.00000   -1.20000
AFIX   0
C32   1    0.735220    0.907294    0.259170    11.00000    0.03254    0.04671 =
         0.06327   -0.00293    0.01395   -0.01178
AFIX  43
H32   2    0.740958    0.942175    0.236522    11.00000   -1.20000
AFIX   0
C33   1    0.405440    1.424008    0.063456    11.00000    0.04140    0.03837 =
         0.06141    0.01120    0.01160   -0.01019
AFIX  43
H33   2    0.415434    1.481287    0.047096    11.00000   -1.20000
AFIX   0
C34   1    0.384570    1.473693    0.090997    11.00000    0.04606    0.04055 =
         0.06501   -0.00248    0.01387   -0.00452
AFIX  43
H34   2    0.380351    1.562320    0.092552    11.00000   -1.20000
AFIX   0
C35   1    0.370434    1.392467    0.115516    11.00000    0.04430    0.05506 =
         0.06341   -0.02163    0.01380    0.00062
AFIX  43
H35   2    0.357521    1.425236    0.134749    11.00000   -1.20000
AFIX   0
C36   1    0.375282    1.258699    0.111891    11.00000    0.02525    0.04821 =
         0.03844    0.00247    0.00668   -0.00224
C37   1    0.396399    1.214243    0.082723    11.00000    0.01865    0.03618 =
         0.02946    0.00041    0.00067   -0.00349
C38   1    0.360961    1.165587    0.136458    11.00000    0.04436    0.08281 =
         0.03023    0.00733    0.02339   -0.00571
AFIX  43
H38   2    0.347011    1.193311    0.155595    11.00000   -1.20000
AFIX   0
C39   1    0.367556    1.037967    0.132043    11.00000    0.05287    0.05708 =
         0.03681    0.01663    0.00680   -0.01014
AFIX  43
H39   2    0.358363    0.979666    0.148608    11.00000   -1.20000
AFIX   0
C40   1    0.388101    0.989822    0.102891    11.00000    0.03426    0.03978 =
         0.03365    0.00684   -0.00904   -0.01597
C41   1    0.402749    1.078050    0.077998    11.00000    0.01203    0.03989 =
         0.02878    0.00234   -0.00182   -0.00061
C42   1    0.394873    0.858278    0.096618    11.00000    0.04056    0.03332 =
         0.05432    0.01940   -0.00187   -0.01335
AFIX  43
H42   2    0.385205    0.796099    0.111758    11.00000   -1.20000
AFIX   0
C43   1    0.415247    0.822077    0.068851    11.00000    0.03114    0.04245 =
         0.06635    0.01567   -0.00534   -0.00020
AFIX  43
H43   2    0.420930    0.735061    0.065630    11.00000   -1.20000
AFIX   0
C44   1    0.427915    0.913834    0.044863    11.00000    0.03196    0.03941 =
         0.04966    0.00160   -0.00227    0.00548
AFIX  43
H44   2    0.440856    0.886454    0.025016    11.00000   -1.20000
AFIX   0
C45   1    0.697573    0.729228   -0.012377    11.00000    0.02455    0.02767 =
         0.03601   -0.00067    0.00409   -0.00082
AFIX  43
H45   2    0.688743    0.662354    0.001706    11.00000   -1.20000
AFIX   0
C46   1    0.718011    0.700124   -0.042682    11.00000    0.03279    0.03226 =
         0.03413   -0.01001   -0.00448    0.00766
AFIX  43
H46   2    0.722538    0.614266   -0.048513    11.00000   -1.20000
AFIX   0
C47   1    0.731223    0.795233   -0.063538    11.00000    0.03603    0.05731 =
         0.02122   -0.00779    0.00850    0.00135
AFIX  43
H47   2    0.745330    0.775341   -0.083290    11.00000   -1.20000
AFIX   0
C48   1    0.723455    0.924531   -0.055112    11.00000    0.02649    0.03422 =
         0.02304   -0.00124    0.01129   -0.00128
C49   1    0.702453    0.947498   -0.024864    11.00000    0.01387    0.03292 =
         0.01750    0.00255    0.00214   -0.00597
C50   1    0.735904    1.029683   -0.076071    11.00000    0.03456    0.05446 =
         0.03903   -0.00110    0.02261   -0.00222
AFIX  43
H50   2    0.750700    1.013726   -0.095615    11.00000   -1.20000
AFIX   0
C51   1    0.726554    1.152492   -0.068015    11.00000    0.04272    0.04077 =
         0.02478    0.00576    0.00488   -0.01044
AFIX  43
H51   2    0.734848    1.219841   -0.082255    11.00000   -1.20000
AFIX   0
C52   1    0.704101    1.181126   -0.037953    11.00000    0.02926    0.02999 =
         0.02822    0.00757    0.00018   -0.00525
C53   1    0.692385    1.079525   -0.015992    11.00000    0.02247    0.02698 =
         0.01761    0.00493   -0.00126   -0.00458
C54   1    0.692452    1.305668   -0.028812    11.00000    0.04618    0.02731 =
         0.03944    0.00817    0.00340   -0.00788
AFIX  43
H54   2    0.699548    1.375780   -0.042695    11.00000   -1.20000
AFIX   0
C55   1    0.671316    1.325870   -0.000503    11.00000    0.04812    0.02640 =
         0.04611    0.00487    0.00921    0.00133
AFIX  43
H55   2    0.663555    1.409094    0.005235    11.00000   -1.20000
AFIX   0
C56   1    0.660960    1.219016    0.020537    11.00000    0.03974    0.04125 =
         0.03195   -0.00334    0.01416    0.00082
AFIX  43
H56   2    0.646398    1.232976    0.040359    11.00000   -1.20000
AFIX   0
C57   1    0.413788    0.547427    0.281002    11.00000    0.06181    0.08712 =
         0.03434    0.01400    0.00977   -0.03535
AFIX  43
H57   2    0.409703    0.630861    0.289334    11.00000   -1.20000
AFIX   0
C58   1    0.402432    0.445472    0.302166    11.00000    0.07802    0.12157 =
         0.03862    0.02196    0.00739   -0.02515
AFIX  43
H58   2    0.391069    0.460408    0.323940    11.00000   -1.20000
AFIX   0
C59   1    0.408230    0.324508    0.290479    11.00000    0.05883    0.09768 =
         0.10362    0.04668   -0.00585   -0.02259
AFIX  43
H59   2    0.400428    0.255198    0.304273    11.00000   -1.20000
AFIX   0
C60   1    0.425465    0.300580    0.258530    11.00000    0.03560    0.05421 =
         0.11019    0.02060   -0.02021   -0.00960
C61   1    0.435683    0.414724    0.238261    11.00000    0.03314    0.07459 =
         0.04459    0.00234   -0.00246   -0.00351
C62   1    0.432749    0.177978    0.243954    11.00000    0.08135    0.06564 =
         0.16243    0.01645   -0.04503   -0.00086
AFIX  43
H62   2    0.425702    0.105361    0.256823    11.00000   -1.20000
AFIX   0
C63   1    0.449546    0.160063    0.212051    11.00000    0.08338    0.07119 =
         0.13934   -0.01449   -0.03348    0.00954
AFIX  43
H63   2    0.453205    0.077196    0.203071    11.00000   -1.20000
AFIX   0
C64   1    0.461616    0.271918    0.192332    11.00000    0.04728    0.10055 =
         0.08860   -0.04044   -0.01448    0.01220
C65   1    0.454078    0.398318    0.204806    11.00000    0.02357    0.07708 =
         0.06044   -0.02476   -0.01468    0.00155
C66   1    0.479386    0.264240    0.159239    11.00000    0.04391    0.16948 =
         0.14272   -0.09923   -0.02914    0.00601
AFIX  43
H66   2    0.483560    0.183799    0.148875    11.00000   -1.20000
AFIX   0
C67   1    0.490464    0.372363    0.142329    11.00000    0.02608    0.21740 =
         0.12735   -0.10020    0.01232    0.00249
AFIX  43
H67   2    0.504744    0.365814    0.122029    11.00000   -1.20000
AFIX   0
C68   1    0.480551    0.494289    0.155216    11.00000    0.04060    0.16265 =
         0.05931   -0.04115    0.00952   -0.01453
AFIX  43
H68   2    0.486320    0.567227    0.141795    11.00000   -1.20000
AFIX   0
HKLF 4

REM  348-9Cd in I2/c #15
REM R1 =  0.0575 for    5932 Fo > 4sig(Fo)  and  0.1147 for all    9975 data
REM    829 parameters refined using      0 restraints

END

WGHT      0.0046      0.0000

REM Instructions for potential hydrogen bonds
EQIV $1 x, y-1, z
HTAB O15 O2_$1
HTAB O15 O9
HTAB C9 O7
EQIV $2 x, y+1, z
HTAB C33 O15_$2
HTAB C43 O15
EQIV $3 -x+3/2, y-1/2, -z
HTAB C46 O6_$3

REM Highest difference peak  1.401,  deepest hole -1.347,  1-sigma level  0.135
Q1    1   0.4370  0.6334  0.1919  11.00000  0.05    0.98
Q2    1   0.4415  0.5840  0.2200  11.00000  0.05    0.88
;
_shelx_res_checksum              58512
loop_
_space_group_symop_operation_xyz
'x, y, z'
'-x, y, -z+1/2'
'x+1/2, y+1/2, z+1/2'
'-x+1/2, y+1/2, -z+1'
'-x, -y, -z'
'x, -y, z-1/2'
'-x+1/2, -y+1/2, -z+1/2'
'x+1/2, -y+1/2, z'
loop_
_atom_site_label
_atom_site_type_symbol
_atom_site_fract_x
_atom_site_fract_y
_atom_site_fract_z
_atom_site_U_iso_or_equiv
_atom_site_adp_type
_atom_site_occupancy
_atom_site_site_symmetry_order
_atom_site_calc_flag
_atom_site_refinement_flags_posn
_atom_site_refinement_flags_adp
Cd1 Cd 0.44728(2) 1.19786(5) 0.01427(2) 0.03044(15) Uani 1 1 d . .
Cd2 Cd 0.66448(2) 0.91275(4) 0.05025(2) 0.02662(15) Uani 1 1 d . .
Cd3 Cd 0.44517(2) 0.70612(6) 0.21283(2) 0.04747(19) Uani 1 1 d . .
N1 N 0.41181(18) 1.2972(5) 0.05941(17) 0.0319(16) Uani 1 1 d . .
N2 N 0.42206(18) 1.0407(5) 0.04945(17) 0.0280(15) Uani 1 1 d . .
N3 N 0.69057(17) 0.8513(5) -0.00338(16) 0.0253(14) Uani 1 1 d . .
N4 N 0.67149(18) 1.0979(5) 0.01280(17) 0.0274(15) Uani 1 1 d . .
N5 N 0.4298(2) 0.5344(7) 0.2502(2) 0.0486(19) Uani 1 1 d . .
N6 N 0.4631(2) 0.5095(8) 0.1860(2) 0.060(2) Uani 1 1 d . .
O1 O 0.51703(15) 1.1829(4) 0.05635(16) 0.0492(17) Uani 1 1 d . .
O2 O 0.49800(15) 1.3655(4) 0.02534(15) 0.0398(15) Uani 1 1 d . .
O3 O 0.66366(15) 1.7168(4) 0.07871(15) 0.0383(14) Uani 1 1 d . .
O4 O 0.61288(16) 1.6995(4) 0.02528(15) 0.0417(14) Uani 1 1 d . .
O5 O 0.70988(15) 1.2757(4) 0.13358(14) 0.0334(13) Uani 1 1 d . .
O6 O 0.75396(18) 0.9548(4) 0.09207(16) 0.0494(16) Uani 1 1 d . .
O7 O 0.69213(16) 1.0251(4) 0.10311(15) 0.0421(14) Uani 1 1 d . .
O8 O 0.59438(15) 0.9645(4) 0.04891(14) 0.0336(13) Uani 1 1 d . .
O9 O 0.53387(16) 0.8520(4) 0.04229(14) 0.0418(14) Uani 1 1 d . .
O10 O 0.51532(16) 0.7761(5) 0.21543(15) 0.0463(14) Uani 1 1 d . .
O11 O 0.46792(17) 0.8189(6) 0.16254(17) 0.077(2) Uani 1 1 d . .
O12 O 0.65990(19) 0.8735(7) 0.22946(19) 0.092(2) Uani 1 1 d . .
O13 O 0.63570(17) 0.6945(5) 0.32273(17) 0.0541(16) Uani 1 1 d . .
O14 O 0.60712(17) 0.8371(5) 0.27796(15) 0.0495(15) Uani 1 1 d . .
O15 O 0.48755(19) 0.6162(4) 0.0612(2) 0.089(2) Uani 1 1 d . .
H1W H 0.4904 0.5434 0.0509 0.107 Uiso 1 1 d R U
H2W H 0.5005 0.6834 0.0559 0.107 Uiso 1 1 d R U
C1 C 0.5253(2) 1.2957(7) 0.0480(2) 0.0333(19) Uani 1 1 d . .
C2 C 0.5685(2) 1.3528(6) 0.0660(2) 0.0257(17) Uani 1 1 d . .
C3 C 0.5808(2) 1.4718(6) 0.05318(19) 0.0247(17) Uani 1 1 d . .
H3 H 0.5626 1.5140 0.0327 0.030 Uiso 1 1 calc R U
C4 C 0.6200(2) 1.5277(6) 0.0707(2) 0.0240(17) Uani 1 1 d . .
C5 C 0.6323(2) 1.6579(6) 0.0574(2) 0.0261(18) Uani 1 1 d . .
C6 C 0.6476(2) 1.4635(5) 0.10101(19) 0.0233(17) Uani 1 1 d . .
H6 H 0.6733 1.5024 0.1134 0.028 Uiso 1 1 calc R U
C7 C 0.6370(2) 1.3420(5) 0.1129(2) 0.0255(18) Uani 1 1 d . .
C8 C 0.5973(2) 1.2878(6) 0.0952(2) 0.0279(18) Uani 1 1 d . .
H8 H 0.5900 1.2066 0.1031 0.033 Uiso 1 1 calc R U
C9 C 0.6687(2) 1.2720(6) 0.1437(2) 0.0306(19) Uani 1 1 d . .
H9A H 0.6704 1.3131 0.1687 0.037 Uiso 1 1 calc R U
H9B H 0.6596 1.1831 0.1455 0.037 Uiso 1 1 calc R U
C10 C 0.7419(2) 1.2092(6) 0.1587(2) 0.0257(18) Uani 1 1 d . .
C11 C 0.7553(2) 1.0870(6) 0.1478(2) 0.0251(17) Uani 1 1 d . .
C12 C 0.7326(2) 1.0157(6) 0.1112(2) 0.0290(19) Uani 1 1 d . .
C13 C 0.7912(2) 1.0306(6) 0.1720(2) 0.034(2) Uani 1 1 d . .
H13 H 0.8017 0.9530 0.1645 0.041 Uiso 1 1 calc R U
C14 C 0.8114(2) 1.0865(7) 0.2064(3) 0.050(2) Uani 1 1 d . .
H14 H 0.8343 1.0448 0.2227 0.060 Uiso 1 1 calc R U
C15 C 0.7974(3) 1.2057(8) 0.2166(2) 0.053(2) Uani 1 1 d . .
H15 H 0.8109 1.2447 0.2399 0.064 Uiso 1 1 calc R U
C16 C 0.7631(2) 1.2666(7) 0.1923(2) 0.047(2) Uani 1 1 d . .
H16 H 0.7545 1.3479 0.1988 0.056 Uiso 1 1 calc R U
C17 C 0.5660(2) 0.9131(7) 0.0631(2) 0.0306(18) Uani 1 1 d . .
C18 C 0.5692(2) 0.9124(6) 0.1061(2) 0.0285(18) Uani 1 1 d . .
C19 C 0.5351(2) 0.8793(6) 0.1228(2) 0.035(2) Uani 1 1 d . .
H19 H 0.5080 0.8648 0.1070 0.042 Uiso 1 1 calc R U
C20 C 0.5408(2) 0.8674(6) 0.1629(2) 0.0341(19) Uani 1 1 d . .
C21 C 0.5057(3) 0.8206(8) 0.1808(2) 0.045(2) Uani 1 1 d . .
C22 C 0.5811(2) 0.8921(6) 0.1867(2) 0.035(2) Uani 1 1 d . .
H22 H 0.5850 0.8863 0.2135 0.042 Uiso 1 1 calc R U
C23 C 0.6160(2) 0.9256(6) 0.1701(2) 0.0298(18) Uani 1 1 d . .
C24 C 0.6093(2) 0.9368(6) 0.1302(2) 0.035(2) Uani 1 1 d . .
H24 H 0.6321 0.9613 0.1192 0.042 Uiso 1 1 calc R U
C25 C 0.6600(3) 0.9413(7) 0.1964(2) 0.048(2) Uani 1 1 d . .
H25A H 0.6820 0.9083 0.1838 0.058 Uiso 1 1 calc R U
H25B H 0.6658 1.0319 0.2024 0.058 Uiso 1 1 calc R U
C26 C 0.6930(3) 0.8709(7) 0.2607(2) 0.044(2) Uani 1 1 d . .
C27 C 0.6841(3) 0.8234(6) 0.2949(2) 0.035(2) Uani 1 1 d . .
C28 C 0.6394(3) 0.7802(8) 0.2994(2) 0.037(2) Uani 1 1 d . .
C29 C 0.7186(3) 0.8073(6) 0.3265(2) 0.042(2) Uani 1 1 d . .
H29 H 0.7133 0.7723 0.3493 0.051 Uiso 1 1 calc R U
C30 C 0.7602(3) 0.8407(7) 0.3255(3) 0.049(2) Uani 1 1 d . .
H30 H 0.7824 0.8297 0.3473 0.058 Uiso 1 1 calc R U
C31 C 0.7684(3) 0.8905(7) 0.2919(3) 0.051(3) Uani 1 1 d . .
H31 H 0.7964 0.9135 0.2909 0.061 Uiso 1 1 calc R U
C32 C 0.7352(3) 0.9073(6) 0.2592(3) 0.047(2) Uani 1 1 d . .
H32 H 0.7410 0.9422 0.2365 0.056 Uiso 1 1 calc R U
C33 C 0.4054(3) 1.4240(7) 0.0635(3) 0.047(2) Uani 1 1 d . .
H33 H 0.4154 1.4813 0.0471 0.056 Uiso 1 1 calc R U
C34 C 0.3846(3) 1.4737(8) 0.0910(3) 0.050(2) Uani 1 1 d . .
H34 H 0.3804 1.5623 0.0926 0.060 Uiso 1 1 calc R U
C35 C 0.3704(3) 1.3925(8) 0.1155(3) 0.054(3) Uani 1 1 d . .
H35 H 0.3575 1.4252 0.1347 0.065 Uiso 1 1 calc R U
C36 C 0.3753(2) 1.2587(7) 0.1119(2) 0.037(2) Uani 1 1 d . .
C37 C 0.3964(2) 1.2142(7) 0.0827(2) 0.0288(18) Uani 1 1 d . .
C38 C 0.3610(3) 1.1656(8) 0.1365(2) 0.050(2) Uani 1 1 d . .
H38 H 0.3470 1.1933 0.1556 0.060 Uiso 1 1 calc R U
C39 C 0.3676(3) 1.0380(8) 0.1320(2) 0.049(2) Uani 1 1 d . .
H39 H 0.3584 0.9797 0.1486 0.059 Uiso 1 1 calc R U
C40 C 0.3881(2) 0.9898(7) 0.1029(2) 0.038(2) Uani 1 1 d . .
C41 C 0.4027(2) 1.0780(7) 0.0780(2) 0.0279(18) Uani 1 1 d . .
C42 C 0.3949(3) 0.8583(7) 0.0966(3) 0.045(2) Uani 1 1 d . .
H42 H 0.3852 0.7961 0.1118 0.054 Uiso 1 1 calc R U
C43 C 0.4152(3) 0.8221(8) 0.0689(3) 0.049(3) Uani 1 1 d . .
H43 H 0.4209 0.7351 0.0656 0.059 Uiso 1 1 calc R U
C44 C 0.4279(2) 0.9138(7) 0.0449(2) 0.042(2) Uani 1 1 d . .
H44 H 0.4409 0.8865 0.0250 0.050 Uiso 1 1 calc R U
C45 C 0.6976(2) 0.7292(6) -0.0124(2) 0.0298(19) Uani 1 1 d . .
H45 H 0.6887 0.6624 0.0017 0.036 Uiso 1 1 calc R U
C46 C 0.7180(2) 0.7001(7) -0.0427(2) 0.035(2) Uani 1 1 d . .
H46 H 0.7225 0.6143 -0.0485 0.042 Uiso 1 1 calc R U
C47 C 0.7312(2) 0.7952(7) -0.0635(2) 0.038(2) Uani 1 1 d . .
H47 H 0.7453 0.7753 -0.0833 0.045 Uiso 1 1 calc R U
C48 C 0.7235(2) 0.9245(7) -0.0551(2) 0.0270(18) Uani 1 1 d . .
C49 C 0.7025(2) 0.9475(6) -0.0249(2) 0.0216(17) Uani 1 1 d . .
C50 C 0.7359(2) 1.0297(7) -0.0761(2) 0.040(2) Uani 1 1 d . .
H50 H 0.7507 1.0137 -0.0956 0.049 Uiso 1 1 calc R U
C51 C 0.7266(2) 1.1525(7) -0.0680(2) 0.036(2) Uani 1 1 d . .
H51 H 0.7348 1.2198 -0.0823 0.044 Uiso 1 1 calc R U
C52 C 0.7041(2) 1.1811(6) -0.0380(2) 0.0301(19) Uani 1 1 d . .
C53 C 0.6924(2) 1.0795(6) -0.0160(2) 0.0232(17) Uani 1 1 d . .
C54 C 0.6925(2) 1.3057(7) -0.0288(2) 0.039(2) Uani 1 1 d . .
H54 H 0.6995 1.3758 -0.0427 0.046 Uiso 1 1 calc R U
C55 C 0.6713(3) 1.3259(7) -0.0005(2) 0.040(2) Uani 1 1 d . .
H55 H 0.6636 1.4091 0.0052 0.048 Uiso 1 1 calc R U
C56 C 0.6610(2) 1.2190(6) 0.0205(2) 0.037(2) Uani 1 1 d . .
H56 H 0.6464 1.2330 0.0404 0.044 Uiso 1 1 calc R U
C57 C 0.4138(3) 0.5474(9) 0.2810(3) 0.061(3) Uani 1 1 d . .
H57 H 0.4097 0.6309 0.2893 0.073 Uiso 1 1 calc R U
C58 C 0.4024(3) 0.4455(12) 0.3022(3) 0.080(3) Uani 1 1 d . .
H58 H 0.3911 0.4604 0.3239 0.096 Uiso 1 1 calc R U
C59 C 0.4082(4) 0.3245(13) 0.2905(4) 0.090(4) Uani 1 1 d . .
H59 H 0.4004 0.2552 0.3043 0.108 Uiso 1 1 calc R U
C60 C 0.4255(3) 0.3006(11) 0.2585(4) 0.072(4) Uani 1 1 d . .
C61 C 0.4357(3) 0.4147(10) 0.2383(3) 0.052(2) Uani 1 1 d . .
C62 C 0.4327(5) 0.1780(13) 0.2440(5) 0.114(6) Uani 1 1 d . .
H62 H 0.4257 0.1054 0.2568 0.137 Uiso 1 1 calc R U
C63 C 0.4495(5) 0.1601(14) 0.2121(5) 0.107(6) Uani 1 1 d . .
H63 H 0.4532 0.0772 0.2031 0.128 Uiso 1 1 calc R U
C64 C 0.4616(4) 0.2719(13) 0.1923(4) 0.083(4) Uani 1 1 d . .
C65 C 0.4541(3) 0.3983(10) 0.2048(3) 0.057(3) Uani 1 1 d . .
C66 C 0.4794(4) 0.2642(16) 0.1592(6) 0.126(7) Uani 1 1 d . .
H66 H 0.4836 0.1838 0.1489 0.152 Uiso 1 1 calc R U
C67 C 0.4905(4) 0.3724(17) 0.1423(4) 0.124(7) Uani 1 1 d . .
H67 H 0.5047 0.3658 0.1220 0.149 Uiso 1 1 calc R U
C68 C 0.4806(3) 0.4943(13) 0.1552(3) 0.088(4) Uani 1 1 d . .
H68 H 0.4863 0.5672 0.1418 0.105 Uiso 1 1 calc R U
loop_
_atom_site_aniso_label
_atom_site_aniso_U_11
_atom_site_aniso_U_22
_atom_site_aniso_U_33
_atom_site_aniso_U_23
_atom_site_aniso_U_13
_atom_site_aniso_U_12
Cd1 0.0270(3) 0.0391(3) 0.0246(3) 0.0014(3) 0.0041(3) -0.0080(3)
Cd2 0.0296(3) 0.0265(3) 0.0254(3) 0.0004(3) 0.0096(2) -0.0046(2)
Cd3 0.0334(4) 0.0690(4) 0.0445(4) 0.0115(4) 0.0183(3) -0.0038(3)
N1 0.037(4) 0.028(3) 0.028(4) 0.004(3) 0.002(3) -0.007(3)
N2 0.021(3) 0.029(3) 0.030(4) 0.003(3) -0.001(3) -0.007(3)
N3 0.031(4) 0.025(3) 0.022(4) 0.005(3) 0.009(3) -0.005(3)
N4 0.031(4) 0.022(3) 0.031(4) 0.002(3) 0.011(3) -0.001(3)
N5 0.047(5) 0.066(5) 0.032(5) -0.004(4) 0.006(4) -0.013(4)
N6 0.031(5) 0.108(6) 0.039(5) -0.001(5) 0.005(4) -0.014(4)
O1 0.031(3) 0.027(3) 0.081(5) 0.007(3) -0.006(3) -0.008(2)
O2 0.026(3) 0.039(3) 0.049(4) 0.014(3) -0.003(3) -0.010(2)
O3 0.037(3) 0.030(3) 0.043(4) 0.007(3) -0.001(3) -0.010(2)
O4 0.042(3) 0.048(3) 0.031(4) 0.016(3) 0.000(3) -0.002(3)
O5 0.028(3) 0.035(3) 0.037(3) 0.006(2) 0.007(3) 0.007(2)
O6 0.070(4) 0.035(3) 0.051(4) -0.007(3) 0.031(3) 0.015(3)
O7 0.028(3) 0.061(3) 0.038(4) -0.018(3) 0.009(3) -0.014(3)
O8 0.029(3) 0.046(3) 0.029(3) 0.014(2) 0.011(3) -0.003(2)
O9 0.039(3) 0.062(3) 0.026(3) -0.007(3) 0.011(3) -0.014(3)
O10 0.036(3) 0.078(4) 0.026(3) 0.011(3) 0.010(3) -0.002(3)
O11 0.023(3) 0.165(6) 0.042(4) 0.047(4) 0.009(3) -0.003(4)
O12 0.037(4) 0.185(7) 0.049(5) 0.047(5) -0.005(3) -0.033(4)
O13 0.044(4) 0.064(4) 0.060(5) 0.019(3) 0.023(3) 0.016(3)
O14 0.037(4) 0.077(4) 0.035(4) 0.009(3) 0.009(3) 0.001(3)
O15 0.096(6) 0.043(3) 0.151(8) -0.018(4) 0.076(5) -0.011(3)
C1 0.026(5) 0.037(4) 0.038(5) -0.015(4) 0.010(4) -0.004(4)
C2 0.023(4) 0.024(4) 0.033(5) -0.004(3) 0.011(4) -0.006(3)
C3 0.018(4) 0.035(4) 0.020(4) 0.007(3) 0.003(3) 0.004(3)
C4 0.026(4) 0.022(4) 0.027(5) 0.005(3) 0.012(3) 0.003(3)
C5 0.021(4) 0.029(4) 0.031(5) 0.002(4) 0.011(4) 0.003(3)
C6 0.020(4) 0.025(4) 0.025(4) 0.000(3) 0.004(3) 0.002(3)
C7 0.023(4) 0.019(4) 0.034(5) 0.003(3) 0.007(4) 0.011(3)
C8 0.015(4) 0.028(4) 0.039(5) 0.010(4) 0.004(4) -0.004(3)
C9 0.024(4) 0.038(4) 0.031(5) -0.002(4) 0.008(4) 0.004(4)
C10 0.021(4) 0.022(4) 0.032(5) 0.005(4) 0.003(4) 0.000(3)
C11 0.023(4) 0.026(4) 0.028(5) 0.003(3) 0.009(3) -0.002(3)
C12 0.031(5) 0.020(4) 0.036(5) 0.005(4) 0.008(4) -0.004(4)
C13 0.026(5) 0.028(4) 0.052(6) 0.009(4) 0.015(4) 0.003(4)
C14 0.031(5) 0.058(5) 0.056(7) 0.005(5) -0.004(5) 0.014(4)
C15 0.042(6) 0.075(6) 0.034(6) -0.012(5) -0.012(4) 0.000(5)
C16 0.038(5) 0.052(5) 0.047(6) -0.011(5) 0.002(5) -0.003(4)
C17 0.019(4) 0.041(4) 0.032(5) -0.002(4) 0.007(4) 0.001(4)
C18 0.029(5) 0.026(4) 0.032(5) 0.001(4) 0.011(4) -0.005(3)
C19 0.019(4) 0.054(5) 0.027(5) 0.007(4) -0.002(4) -0.004(4)
C20 0.031(5) 0.049(5) 0.024(5) 0.012(4) 0.010(4) -0.001(4)
C21 0.028(5) 0.069(6) 0.036(6) 0.006(5) 0.006(4) -0.001(5)
C22 0.037(5) 0.047(5) 0.021(5) 0.003(4) 0.005(4) -0.001(4)
C23 0.028(5) 0.036(4) 0.027(5) 0.001(4) 0.008(4) -0.003(4)
C24 0.029(5) 0.039(4) 0.037(5) -0.008(4) 0.009(4) -0.008(4)
C25 0.042(6) 0.070(5) 0.034(6) 0.014(5) 0.012(4) -0.008(5)
C26 0.036(5) 0.056(5) 0.034(6) 0.001(4) -0.005(4) -0.001(4)
C27 0.039(5) 0.039(4) 0.027(5) -0.008(4) 0.007(4) 0.002(4)
C28 0.039(5) 0.057(5) 0.018(5) -0.006(4) 0.010(4) 0.009(5)
C29 0.053(6) 0.045(5) 0.027(5) -0.007(4) 0.006(4) -0.003(5)
C30 0.039(6) 0.057(6) 0.047(6) -0.016(5) 0.002(5) -0.002(5)
C31 0.037(6) 0.053(5) 0.058(7) -0.025(5) 0.000(5) -0.007(4)
C32 0.033(5) 0.047(5) 0.063(7) -0.003(5) 0.014(5) -0.012(4)
C33 0.041(6) 0.038(5) 0.061(7) 0.011(5) 0.012(5) -0.010(4)
C34 0.046(6) 0.041(5) 0.065(7) -0.002(5) 0.014(5) -0.005(4)
C35 0.044(6) 0.055(6) 0.063(7) -0.022(5) 0.014(5) 0.001(5)
C36 0.025(5) 0.048(5) 0.038(6) 0.002(4) 0.007(4) -0.002(4)
C37 0.019(4) 0.036(4) 0.029(5) 0.000(4) 0.001(3) -0.003(4)
C38 0.044(6) 0.083(6) 0.030(5) 0.007(5) 0.023(4) -0.006(5)
C39 0.053(6) 0.057(6) 0.037(6) 0.017(5) 0.007(5) -0.010(5)
C40 0.034(5) 0.040(5) 0.034(5) 0.007(4) -0.009(4) -0.016(4)
C41 0.012(4) 0.040(4) 0.029(5) 0.002(4) -0.002(3) -0.001(3)
C42 0.041(6) 0.033(5) 0.054(7) 0.019(5) -0.002(5) -0.013(4)
C43 0.031(5) 0.042(5) 0.066(7) 0.016(5) -0.005(5) 0.000(4)
C44 0.032(5) 0.039(5) 0.050(6) 0.002(5) -0.002(4) 0.005(4)
C45 0.025(4) 0.028(4) 0.036(5) -0.001(4) 0.004(4) -0.001(3)
C46 0.033(5) 0.032(4) 0.034(5) -0.010(4) -0.004(4) 0.008(4)
C47 0.036(5) 0.057(5) 0.021(5) -0.008(4) 0.009(4) 0.001(4)
C48 0.026(4) 0.034(4) 0.023(4) -0.001(4) 0.011(4) -0.001(4)
C49 0.014(4) 0.033(4) 0.017(4) 0.003(3) 0.002(3) -0.006(3)
C50 0.035(5) 0.054(5) 0.039(6) -0.001(4) 0.023(4) -0.002(4)
C51 0.043(5) 0.041(5) 0.025(5) 0.006(4) 0.005(4) -0.010(4)
C52 0.029(5) 0.030(4) 0.028(5) 0.008(4) 0.000(4) -0.005(4)
C53 0.022(4) 0.027(4) 0.018(4) 0.005(3) -0.001(3) -0.005(3)
C54 0.046(5) 0.027(4) 0.039(6) 0.008(4) 0.003(4) -0.008(4)
C55 0.048(6) 0.026(4) 0.046(6) 0.005(4) 0.009(5) 0.001(4)
C56 0.040(5) 0.041(4) 0.032(5) -0.003(4) 0.014(4) 0.001(4)
C57 0.062(7) 0.087(7) 0.034(6) 0.014(6) 0.010(5) -0.035(6)
C58 0.078(8) 0.122(9) 0.039(7) 0.022(7) 0.007(6) -0.025(8)
C59 0.059(8) 0.098(10) 0.104(12) 0.047(9) -0.006(8) -0.023(8)
C60 0.036(6) 0.054(7) 0.110(11) 0.021(8) -0.020(6) -0.010(5)
C61 0.033(5) 0.075(7) 0.045(6) 0.002(6) -0.002(5) -0.004(5)
C62 0.081(11) 0.066(10) 0.162(18) 0.016(11) -0.045(11) -0.001(8)
C63 0.083(12) 0.071(9) 0.139(17) -0.014(11) -0.033(10) 0.010(8)
C64 0.047(7) 0.101(10) 0.089(11) -0.040(9) -0.014(7) 0.012(7)
C65 0.024(5) 0.077(7) 0.060(8) -0.025(6) -0.015(5) 0.002(5)
C66 0.044(9) 0.169(16) 0.143(18) -0.099(14) -0.029(10) 0.006(9)
C67 0.026(7) 0.217(17) 0.127(14) -0.100(14) 0.012(7) 0.002(10)
C68 0.041(7) 0.163(11) 0.059(8) -0.041(8) 0.010(6) -0.015(7)
loop_
_atom_type_symbol
_atom_type_description
_atom_type_scat_dispersion_real
_atom_type_scat_dispersion_imag
_atom_type_scat_source
C C 0.0033 0.0016 'International Tables Vol C Tables 4.2.6.8 and 6.1.1.4'
H H 0.0000 0.0000 'International Tables Vol C Tables 4.2.6.8 and 6.1.1.4'
O O 0.0106 0.0060 'International Tables Vol C Tables 4.2.6.8 and 6.1.1.4'
N N 0.0061 0.0033 'International Tables Vol C Tables 4.2.6.8 and 6.1.1.4'
Cd Cd -0.8075 1.2024 'International Tables Vol C Tables 4.2.6.8 and 6.1.1.4'
loop_
_geom_angle_atom_site_label_1
_geom_angle_atom_site_label_2
_geom_angle_atom_site_label_3
_geom_angle
_geom_angle_site_symmetry_1
_geom_angle_site_symmetry_3
O9 Cd1 N2 120.39(19) 5_675 .
O9 Cd1 O2 90.61(18) 5_675 .
N2 Cd1 O2 138.09(18) . .
O9 Cd1 O4 85.31(18) 5_675 5_685
N2 Cd1 O4 107.76(18) . 5_685
O2 Cd1 O4 101.81(16) . 5_685
O9 Cd1 N1 160.82(18) 5_675 .
N2 Cd1 N1 70.8(2) . .
O2 Cd1 N1 88.74(19) . .
O4 Cd1 N1 76.08(18) 5_685 .
O9 Cd1 O1 98.29(19) 5_675 .
N2 Cd1 O1 90.26(18) . .
O2 Cd1 O1 55.45(15) . .
O4 Cd1 O1 156.80(15) 5_685 .
N1 Cd1 O1 97.09(19) . .
O7 Cd2 O3 97.94(18) . 1_545
O7 Cd2 O8 95.76(18) . .
O3 Cd2 O8 96.50(17) 1_545 .
O7 Cd2 N3 133.38(19) . .
O3 Cd2 N3 99.04(18) 1_545 .
O8 Cd2 N3 124.76(18) . .
O7 Cd2 N4 88.65(19) . .
O3 Cd2 N4 169.8(2) 1_545 .
O8 Cd2 N4 90.53(18) . .
N3 Cd2 N4 70.84(19) . .
O14 Cd3 O10 123.01(18) 2_655 .
O14 Cd3 N5 97.3(2) 2_655 .
O10 Cd3 N5 122.2(2) . .
O14 Cd3 O11 99.8(2) 2_655 .
O10 Cd3 O11 55.14(17) . .
N5 Cd3 O11 159.7(3) . .
O14 Cd3 N6 146.8(2) 2_655 .
O10 Cd3 N6 88.3(2) . .
N5 Cd3 N6 70.6(3) . .
O11 Cd3 N6 89.1(3) . .
O14 Cd3 O13 53.69(17) 2_655 2_655
O10 Cd3 O13 150.39(18) . 2_655
N5 Cd3 O13 86.0(2) . 2_655
O11 Cd3 O13 95.33(18) . 2_655
N6 Cd3 O13 93.8(2) . 2_655
C33 N1 C37 118.3(7) . .
C33 N1 Cd1 126.8(5) . .
C37 N1 Cd1 114.9(4) . .
C44 N2 C41 118.0(7) . .
C44 N2 Cd1 123.7(6) . .
C41 N2 Cd1 118.1(5) . .
C45 N3 C49 118.8(6) . .
C45 N3 Cd2 124.3(5) . .
C49 N3 Cd2 116.7(4) . .
C56 N4 C53 118.2(6) . .
C56 N4 Cd2 125.8(5) . .
C53 N4 Cd2 115.5(4) . .
C57 N5 C61 117.7(8) . .
C57 N5 Cd3 124.1(7) . .
C61 N5 Cd3 118.1(6) . .
C68 N6 C65 117.2(10) . .
C68 N6 Cd3 127.4(9) . .
C65 N6 Cd3 115.4(6) . .
C1 O1 Cd1 90.5(4) . .
C1 O2 Cd1 92.0(4) . .
C5 O3 Cd2 104.6(4) . 1_565
C5 O4 Cd1 150.7(5) . 5_685
C10 O5 C9 114.4(5) . .
C12 O7 Cd2 110.4(5) . .
C17 O8 Cd2 133.1(4) . .
C17 O9 Cd1 106.5(5) . 5_675
C21 O10 Cd3 92.7(5) . .
C21 O11 Cd3 92.1(5) . .
C26 O12 C25 124.4(7) . .
C28 O13 Cd3 82.7(5) . 2_655
C28 O14 Cd3 99.3(5) . 2_655
H1W O15 H2W 121.7 . .
O1 C1 O2 122.0(6) . .
O1 C1 C2 119.3(7) . .
O2 C1 C2 118.6(6) . .
C8 C2 C3 118.7(6) . .
C8 C2 C1 121.0(6) . .
C3 C2 C1 120.3(6) . .
C4 C3 C2 120.7(6) . .
C4 C3 H3 119.6 . .
C2 C3 H3 119.6 . .
C6 C4 C3 119.6(6) . .
C6 C4 C5 120.1(6) . .
C3 C4 C5 120.2(6) . .
O4 C5 O3 123.0(6) . .
O4 C5 C4 118.8(6) . .
O3 C5 C4 118.1(6) . .
C7 C6 C4 120.7(6) . .
C7 C6 H6 119.7 . .
C4 C6 H6 119.7 . .
C6 C7 C8 118.8(6) . .
C6 C7 C9 119.2(6) . .
C8 C7 C9 121.9(6) . .
C2 C8 C7 121.4(6) . .
C2 C8 H8 119.3 . .
C7 C8 H8 119.3 . .
O5 C9 C7 108.2(6) . .
O5 C9 H9A 110.0 . .
C7 C9 H9A 110.0 . .
O5 C9 H9B 110.0 . .
C7 C9 H9B 110.0 . .
H9A C9 H9B 108.4 . .
C16 C10 O5 119.7(6) . .
C16 C10 C11 120.3(6) . .
O5 C10 C11 119.7(6) . .
C13 C11 C10 117.6(6) . .
C13 C11 C12 119.1(6) . .
C10 C11 C12 123.3(6) . .
O6 C12 O7 125.1(7) . .
O6 C12 C11 119.8(7) . .
O7 C12 C11 115.2(7) . .
C14 C13 C11 121.8(7) . .
C14 C13 H13 119.1 . .
C11 C13 H13 119.1 . .
C15 C14 C13 119.4(7) . .
C15 C14 H14 120.3 . .
C13 C14 H14 120.3 . .
C14 C15 C16 119.8(7) . .
C14 C15 H15 120.1 . .
C16 C15 H15 120.1 . .
C10 C16 C15 120.9(7) . .
C10 C16 H16 119.5 . .
C15 C16 H16 119.5 . .
O8 C17 O9 122.4(7) . .
O8 C17 C18 121.0(6) . .
O9 C17 C18 116.5(7) . .
C24 C18 C19 118.7(7) . .
C24 C18 C17 118.1(7) . .
C19 C18 C17 123.1(6) . .
C20 C19 C18 121.0(7) . .
C20 C19 H19 119.5 . .
C18 C19 H19 119.5 . .
C19 C20 C22 119.6(7) . .
C19 C20 C21 121.5(7) . .
C22 C20 C21 118.8(7) . .
O11 C21 O10 119.8(8) . .
O11 C21 C20 121.3(8) . .
O10 C21 C20 118.9(7) . .
C20 C22 C23 120.0(7) . .
C20 C22 H22 120.0 . .
C23 C22 H22 120.0 . .
C24 C23 C22 118.8(7) . .
C24 C23 C25 122.3(7) . .
C22 C23 C25 118.8(7) . .
C18 C24 C23 121.8(7) . .
C18 C24 H24 119.1 . .
C23 C24 H24 119.1 . .
O12 C25 C23 107.2(6) . .
O12 C25 H25A 110.3 . .
C23 C25 H25A 110.3 . .
O12 C25 H25B 110.3 . .
C23 C25 H25B 110.3 . .
H25A C25 H25B 108.5 . .
O12 C26 C27 116.7(8) . .
O12 C26 C32 122.9(8) . .
C27 C26 C32 120.4(8) . .
C26 C27 C29 117.7(8) . .
C26 C27 C28 124.2(7) . .
C29 C27 C28 118.0(7) . .
O13 C28 O14 123.0(8) . .
O13 C28 C27 120.3(7) . .
O14 C28 C27 116.7(7) . .
O13 C28 Cd3 70.7(5) . 2_655
O14 C28 Cd3 53.2(4) . 2_655
C27 C28 Cd3 165.4(5) . 2_655
C30 C29 C27 122.8(8) . .
C30 C29 H29 118.6 . .
C27 C29 H29 118.6 . .
C29 C30 C31 118.9(8) . .
C29 C30 H30 120.6 . .
C31 C30 H30 120.6 . .
C30 C31 C32 120.8(9) . .
C30 C31 H31 119.6 . .
C32 C31 H31 119.6 . .
C31 C32 C26 119.3(9) . .
C31 C32 H32 120.3 . .
C26 C32 H32 120.3 . .
N1 C33 C34 122.9(8) . .
N1 C33 H33 118.6 . .
C34 C33 H33 118.6 . .
C35 C34 C33 119.6(8) . .
C35 C34 H34 120.2 . .
C33 C34 H34 120.2 . .
C34 C35 C36 119.8(9) . .
C34 C35 H35 120.1 . .
C36 C35 H35 120.1 . .
C35 C36 C38 123.5(8) . .
C35 C36 C37 117.7(8) . .
C38 C36 C37 118.8(7) . .
N1 C37 C41 118.2(7) . .
N1 C37 C36 121.7(6) . .
C41 C37 C36 120.1(7) . .
C39 C38 C36 120.6(8) . .
C39 C38 H38 119.7 . .
C36 C38 H38 119.7 . .
C38 C39 C40 122.2(8) . .
C38 C39 H39 118.9 . .
C40 C39 H39 118.9 . .
C42 C40 C41 116.5(8) . .
C42 C40 C39 124.3(8) . .
C41 C40 C39 119.2(7) . .
N2 C41 C40 123.0(7) . .
N2 C41 C37 117.8(7) . .
C40 C41 C37 119.1(7) . .
C43 C42 C40 120.1(8) . .
C43 C42 H42 119.9 . .
C40 C42 H42 119.9 . .
C42 C43 C44 120.3(8) . .
C42 C43 H43 119.8 . .
C44 C43 H43 119.8 . .
N2 C44 C43 122.0(8) . .
N2 C44 H44 119.0 . .
C43 C44 H44 119.0 . .
N3 C45 C46 121.0(7) . .
N3 C45 H45 119.5 . .
C46 C45 H45 119.5 . .
C47 C46 C45 120.7(7) . .
C47 C46 H46 119.6 . .
C45 C46 H46 119.6 . .
C46 C47 C48 119.3(7) . .
C46 C47 H47 120.3 . .
C48 C47 H47 120.3 . .
C47 C48 C50 122.6(7) . .
C47 C48 C49 117.3(7) . .
C50 C48 C49 120.1(6) . .
N3 C49 C48 122.7(6) . .
N3 C49 C53 118.0(6) . .
C48 C49 C53 119.3(6) . .
C51 C50 C48 120.9(7) . .
C51 C50 H50 119.6 . .
C48 C50 H50 119.6 . .
C50 C51 C52 121.3(7) . .
C50 C51 H51 119.4 . .
C52 C51 H51 119.4 . .
C53 C52 C54 116.6(7) . .
C53 C52 C51 119.3(6) . .
C54 C52 C51 124.1(7) . .
N4 C53 C52 123.1(6) . .
N4 C53 C49 117.7(6) . .
C52 C53 C49 119.2(7) . .
C55 C54 C52 121.2(7) . .
C55 C54 H54 119.4 . .
C52 C54 H54 119.4 . .
C54 C55 C56 118.9(7) . .
C54 C55 H55 120.5 . .
C56 C55 H55 120.5 . .
N4 C56 C55 121.9(7) . .
N4 C56 H56 119.0 . .
C55 C56 H56 119.0 . .
N5 C57 C58 124.5(10) . .
N5 C57 H57 117.8 . .
C58 C57 H57 117.8 . .
C59 C58 C57 118.4(12) . .
C59 C58 H58 120.8 . .
C57 C58 H58 120.8 . .
C58 C59 C60 121.6(13) . .
C58 C59 H59 119.2 . .
C60 C59 H59 119.2 . .
C59 C60 C62 126.0(14) . .
C59 C60 C61 115.3(11) . .
C62 C60 C61 118.7(14) . .
N5 C61 C65 118.5(9) . .
N5 C61 C60 122.6(10) . .
C65 C61 C60 118.9(11) . .
C63 C62 C60 123.4(17) . .
C63 C62 H62 118.3 . .
C60 C62 H62 118.3 . .
C62 C63 C64 118.9(15) . .
C62 C63 H63 120.6 . .
C64 C63 H63 120.6 . .
C66 C64 C65 115.8(14) . .
C66 C64 C63 123.5(15) . .
C65 C64 C63 120.6(14) . .
N6 C65 C64 123.4(11) . .
N6 C65 C61 117.2(9) . .
C64 C65 C61 119.4(12) . .
C64 C66 C67 120.7(16) . .
C64 C66 H66 119.6 . .
C67 C66 H66 119.6 . .
C68 C67 C66 120.3(16) . .
C68 C67 H67 119.9 . .
C66 C67 H67 119.9 . .
N6 C68 C67 122.3(13) . .
N6 C68 H68 118.9 . .
C67 C68 H68 118.9 . .
loop_
_geom_bond_atom_site_label_1
_geom_bond_atom_site_label_2
_geom_bond_distance
_geom_bond_site_symmetry_2
Cd1 O9 2.264(5) 5_675
Cd1 N2 2.294(6) .
Cd1 O2 2.341(4) .
Cd1 O4 2.358(5) 5_685
Cd1 N1 2.376(6) .
Cd1 O1 2.388(5) .
Cd2 O7 2.209(5) .
Cd2 O3 2.265(4) 1_545
Cd2 O8 2.282(5) .
Cd2 N3 2.314(6) .
Cd2 N4 2.364(5) .
Cd3 O14 2.222(5) 2_655
Cd3 O10 2.327(5) .
Cd3 N5 2.325(7) .
Cd3 O11 2.364(5) .
Cd3 N6 2.365(8) .
Cd3 O13 2.604(5) 2_655
N1 C33 1.340(8) .
N1 C37 1.352(8) .
N2 C44 1.340(7) .
N2 C41 1.345(9) .
N3 C45 1.333(7) .
N3 C49 1.354(7) .
N4 C56 1.341(7) .
N4 C53 1.343(9) .
N5 C57 1.305(11) .
N5 C61 1.333(10) .
N6 C68 1.332(12) .
N6 C65 1.388(11) .
O1 C1 1.246(7) .
O2 C1 1.269(8) .
O3 C5 1.265(7) .
O3 Cd2 2.265(4) 1_565
O4 C5 1.242(8) .
O4 Cd1 2.358(5) 5_685
O5 C10 1.378(7) .
O5 C9 1.431(8) .
O6 C12 1.230(8) .
O7 C12 1.258(8) .
O8 C17 1.242(8) .
O9 C17 1.286(7) .
O9 Cd1 2.264(5) 5_675
O10 C21 1.276(8) .
O11 C21 1.233(8) .
O12 C26 1.346(9) .
O12 C25 1.362(8) .
O13 C28 1.234(8) .
O13 Cd3 2.604(5) 2_655
O14 C28 1.277(8) .
O14 Cd3 2.222(5) 2_655
O15 H1W 0.8501 .
O15 H2W 0.8498 .
C1 C2 1.502(9) .
C2 C8 1.391(8) .
C2 C3 1.397(8) .
C3 C4 1.388(8) .
C3 H3 0.9300 .
C4 C6 1.394(8) .
C4 C5 1.505(8) .
C6 C7 1.390(8) .
C6 H6 0.9300 .
C7 C8 1.397(8) .
C7 C9 1.496(8) .
C8 H8 0.9300 .
C9 H9A 0.9700 .
C9 H9B 0.9700 .
C10 C16 1.363(9) .
C10 C11 1.413(8) .
C11 C13 1.393(9) .
C11 C12 1.525(9) .
C13 C14 1.371(10) .
C13 H13 0.9300 .
C14 C15 1.386(9) .
C14 H14 0.9300 .
C15 C16 1.382(9) .
C15 H15 0.9300 .
C16 H16 0.9300 .
C17 C18 1.497(10) .
C18 C24 1.390(9) .
C18 C19 1.386(9) .
C19 C20 1.388(9) .
C19 H19 0.9300 .
C20 C22 1.395(9) .
C20 C21 1.479(10) .
C22 C23 1.405(10) .
C22 H22 0.9300 .
C23 C24 1.381(9) .
C23 C25 1.505(9) .
C24 H24 0.9300 .
C25 H25A 0.9700 .
C25 H25B 0.9700 .
C26 C27 1.386(10) .
C26 C32 1.407(10) .
C27 C29 1.392(9) .
C27 C28 1.529(10) .
C28 Cd3 2.737(8) 2_655
C29 C30 1.374(10) .
C29 H29 0.9300 .
C30 C31 1.369(11) .
C30 H30 0.9300 .
C31 C32 1.393(10) .
C31 H31 0.9300 .
C32 H32 0.9300 .
C33 C34 1.389(11) .
C33 H33 0.9300 .
C34 C35 1.351(11) .
C34 H34 0.9300 .
C35 C36 1.401(9) .
C35 H35 0.9300 .
C36 C38 1.435(10) .
C36 C37 1.422(10) .
C37 C41 1.438(9) .
C38 C39 1.351(9) .
C38 H38 0.9300 .
C39 C40 1.423(11) .
C39 H39 0.9300 .
C40 C42 1.403(9) .
C40 C41 1.414(10) .
C42 C43 1.340(11) .
C42 H42 0.9300 .
C43 C44 1.388(10) .
C43 H43 0.9300 .
C44 H44 0.9300 .
C45 C46 1.399(10) .
C45 H45 0.9300 .
C46 C47 1.349(9) .
C46 H46 0.9300 .
C47 C48 1.404(8) .
C47 H47 0.9300 .
C48 C50 1.419(9) .
C48 C49 1.397(9) .
C49 C53 1.452(8) .
C50 C51 1.349(8) .
C50 H50 0.9300 .
C51 C52 1.432(10) .
C51 H51 0.9300 .
C52 C53 1.403(9) .
C52 C54 1.398(9) .
C54 C55 1.336(10) .
C54 H54 0.9300 .
C55 C56 1.410(9) .
C55 H55 0.9300 .
C56 H56 0.9300 .
C57 C58 1.385(11) .
C57 H57 0.9300 .
C58 C59 1.343(13) .
C58 H58 0.9300 .
C59 C60 1.378(15) .
C59 H59 0.9300 .
C60 C62 1.407(15) .
C60 C61 1.453(13) .
C61 C65 1.436(13) .
C62 C63 1.359(18) .
C62 H62 0.9300 .
C63 C64 1.444(17) .
C63 H63 0.9300 .
C64 C66 1.405(18) .
C64 C65 1.417(13) .
C66 C67 1.350(18) .
C66 H66 0.9300 .
C67 C68 1.400(14) .
C67 H67 0.9300 .
C68 H68 0.9300 .
loop_
_geom_torsion_atom_site_label_1
_geom_torsion_atom_site_label_2
_geom_torsion_atom_site_label_3
_geom_torsion_atom_site_label_4
_geom_torsion
_geom_torsion_site_symmetry_1
_geom_torsion_site_symmetry_4
Cd1 O1 C1 O2 2.1(8) . .
Cd1 O1 C1 C2 -179.7(6) . .
Cd1 O2 C1 O1 -2.2(8) . .
Cd1 O2 C1 C2 179.6(6) . .
O1 C1 C2 C8 -7.6(11) . .
O2 C1 C2 C8 170.7(7) . .
O1 C1 C2 C3 171.2(7) . .
O2 C1 C2 C3 -10.5(11) . .
C8 C2 C3 C4 -3.6(10) . .
C1 C2 C3 C4 177.6(6) . .
C2 C3 C4 C6 0.9(10) . .
C2 C3 C4 C5 -178.0(6) . .
Cd1 O4 C5 O3 -102.8(10) 5_685 .
Cd1 O4 C5 C4 81.2(10) 5_685 .
Cd2 O3 C5 O4 10.0(9) 1_565 .
Cd2 O3 C5 C4 -174.0(5) 1_565 .
C6 C4 C5 O4 163.4(7) . .
C3 C4 C5 O4 -17.7(10) . .
C6 C4 C5 O3 -12.7(10) . .
C3 C4 C5 O3 166.2(7) . .
C3 C4 C6 C7 2.5(11) . .
C5 C4 C6 C7 -178.6(6) . .
C4 C6 C7 C8 -3.0(10) . .
C4 C6 C7 C9 175.8(7) . .
C3 C2 C8 C7 3.1(11) . .
C1 C2 C8 C7 -178.1(7) . .
C6 C7 C8 C2 0.1(11) . .
C9 C7 C8 C2 -178.6(7) . .
C10 O5 C9 C7 -177.1(5) . .
C6 C7 C9 O5 -48.6(8) . .
C8 C7 C9 O5 130.1(7) . .
C9 O5 C10 C16 -82.5(8) . .
C9 O5 C10 C11 103.5(7) . .
C16 C10 C11 C13 -1.7(11) . .
O5 C10 C11 C13 172.3(6) . .
C16 C10 C11 C12 178.8(7) . .
O5 C10 C11 C12 -7.3(10) . .
Cd2 O7 C12 O6 1.3(9) . .
Cd2 O7 C12 C11 -178.6(4) . .
C13 C11 C12 O6 -37.9(10) . .
C10 C11 C12 O6 141.7(7) . .
C13 C11 C12 O7 142.1(7) . .
C10 C11 C12 O7 -38.4(10) . .
C10 C11 C13 C14 4.2(11) . .
C12 C11 C13 C14 -176.2(7) . .
C11 C13 C14 C15 -3.6(13) . .
C13 C14 C15 C16 0.3(13) . .
O5 C10 C16 C15 -175.4(7) . .
C11 C10 C16 C15 -1.5(12) . .
C14 C15 C16 C10 2.2(13) . .
Cd2 O8 C17 O9 -107.0(7) . .
Cd2 O8 C17 C18 69.0(9) . .
Cd1 O9 C17 O8 18.9(8) 5_675 .
Cd1 O9 C17 C18 -157.2(5) 5_675 .
O8 C17 C18 C24 -17.7(10) . .
O9 C17 C18 C24 158.5(6) . .
O8 C17 C18 C19 167.2(7) . .
O9 C17 C18 C19 -16.5(10) . .
C24 C18 C19 C20 -1.6(11) . .
C17 C18 C19 C20 173.5(6) . .
C18 C19 C20 C22 1.5(11) . .
C18 C19 C20 C21 -174.3(7) . .
Cd3 O11 C21 O10 -4.5(9) . .
Cd3 O11 C21 C20 172.4(7) . .
Cd3 O10 C21 O11 4.6(9) . .
Cd3 O10 C21 C20 -172.4(6) . .
C19 C20 C21 O11 -17.0(13) . .
C22 C20 C21 O11 167.2(8) . .
C19 C20 C21 O10 159.9(7) . .
C22 C20 C21 O10 -15.9(11) . .
C19 C20 C22 C23 -1.5(11) . .
C21 C20 C22 C23 174.4(7) . .
C20 C22 C23 C24 1.7(11) . .
C20 C22 C23 C25 -175.2(6) . .
C19 C18 C24 C23 1.7(10) . .
C17 C18 C24 C23 -173.6(6) . .
C22 C23 C24 C18 -1.8(11) . .
C25 C23 C24 C18 175.0(6) . .
C26 O12 C25 C23 -176.1(8) . .
C24 C23 C25 O12 -154.5(7) . .
C22 C23 C25 O12 22.3(10) . .
C25 O12 C26 C27 165.1(8) . .
C25 O12 C26 C32 -18.3(14) . .
O12 C26 C27 C29 173.5(7) . .
C32 C26 C27 C29 -3.2(11) . .
O12 C26 C27 C28 -2.7(12) . .
C32 C26 C27 C28 -179.4(7) . .
Cd3 O13 C28 O14 10.6(7) 2_655 .
Cd3 O13 C28 C27 -169.5(7) 2_655 .
Cd3 O14 C28 O13 -12.5(9) 2_655 .
Cd3 O14 C28 C27 167.6(5) 2_655 .
C26 C27 C28 O13 150.1(8) . .
C29 C27 C28 O13 -26.1(10) . .
C26 C27 C28 O14 -30.0(11) . .
C29 C27 C28 O14 153.8(7) . .
C26 C27 C28 Cd3 13(3) . 2_655
C29 C27 C28 Cd3 -162.9(18) . 2_655
C26 C27 C29 C30 2.5(11) . .
C28 C27 C29 C30 178.9(7) . .
C27 C29 C30 C31 -0.9(12) . .
C29 C30 C31 C32 0.0(12) . .
C30 C31 C32 C26 -0.8(12) . .
O12 C26 C32 C31 -174.1(7) . .
C27 C26 C32 C31 2.4(12) . .
C37 N1 C33 C34 1.4(11) . .
Cd1 N1 C33 C34 -179.5(6) . .
N1 C33 C34 C35 1.1(13) . .
C33 C34 C35 C36 -2.7(13) . .
C34 C35 C36 C38 -179.6(8) . .
C34 C35 C36 C37 1.8(12) . .
C33 N1 C37 C41 179.2(6) . .
Cd1 N1 C37 C41 -0.1(8) . .
C33 N1 C37 C36 -2.3(10) . .
Cd1 N1 C37 C36 178.5(5) . .
C35 C36 C37 N1 0.7(11) . .
C38 C36 C37 N1 -178.0(6) . .
C35 C36 C37 C41 179.2(6) . .
C38 C36 C37 C41 0.6(11) . .
C35 C36 C38 C39 -178.4(7) . .
C37 C36 C38 C39 0.2(12) . .
C36 C38 C39 C40 -1.0(12) . .
C38 C39 C40 C42 -178.6(7) . .
C38 C39 C40 C41 1.0(12) . .
C44 N2 C41 C40 -0.7(10) . .
Cd1 N2 C41 C40 -176.5(5) . .
C44 N2 C41 C37 -179.8(6) . .
Cd1 N2 C41 C37 4.4(8) . .
C42 C40 C41 N2 0.3(10) . .
C39 C40 C41 N2 -179.3(7) . .
C42 C40 C41 C37 179.4(6) . .
C39 C40 C41 C37 -0.2(10) . .
N1 C37 C41 N2 -2.8(9) . .
C36 C37 C41 N2 178.6(6) . .
N1 C37 C41 C40 178.0(6) . .
C36 C37 C41 C40 -0.6(10) . .
C41 C40 C42 C43 1.6(11) . .
C39 C40 C42 C43 -178.8(8) . .
C40 C42 C43 C44 -3.2(13) . .
C41 N2 C44 C43 -0.9(10) . .
Cd1 N2 C44 C43 174.6(5) . .
C42 C43 C44 N2 2.9(12) . .
C49 N3 C45 C46 1.9(10) . .
Cd2 N3 C45 C46 -172.6(5) . .
N3 C45 C46 C47 0.1(11) . .
C45 C46 C47 C48 -1.4(11) . .
C46 C47 C48 C50 -179.2(7) . .
C46 C47 C48 C49 0.5(10) . .
C45 N3 C49 C48 -2.8(10) . .
Cd2 N3 C49 C48 172.1(5) . .
C45 N3 C49 C53 176.6(6) . .
Cd2 N3 C49 C53 -8.5(7) . .
C47 C48 C49 N3 1.5(10) . .
C50 C48 C49 N3 -178.7(6) . .
C47 C48 C49 C53 -177.9(6) . .
C50 C48 C49 C53 1.9(10) . .
C47 C48 C50 C51 177.7(7) . .
C49 C48 C50 C51 -2.1(11) . .
C48 C50 C51 C52 0.5(11) . .
C50 C51 C52 C53 1.3(11) . .
C50 C51 C52 C54 -178.3(7) . .
C56 N4 C53 C52 0.8(10) . .
Cd2 N4 C53 C52 -171.9(5) . .
C56 N4 C53 C49 -178.2(6) . .
Cd2 N4 C53 C49 9.1(8) . .
C54 C52 C53 N4 -0.7(10) . .
C51 C52 C53 N4 179.7(7) . .
C54 C52 C53 C49 178.2(6) . .
C51 C52 C53 C49 -1.4(10) . .
N3 C49 C53 N4 -0.6(9) . .
C48 C49 C53 N4 178.8(6) . .
N3 C49 C53 C52 -179.6(6) . .
C48 C49 C53 C52 -0.2(9) . .
C53 C52 C54 C55 0.1(11) . .
C51 C52 C54 C55 179.7(8) . .
C52 C54 C55 C56 0.4(12) . .
C53 N4 C56 C55 -0.2(10) . .
Cd2 N4 C56 C55 171.7(5) . .
C54 C55 C56 N4 -0.4(11) . .
C61 N5 C57 C58 0.0(14) . .
Cd3 N5 C57 C58 176.4(7) . .
N5 C57 C58 C59 0.1(15) . .
C57 C58 C59 C60 0.7(16) . .
C58 C59 C60 C62 -179.9(10) . .
C58 C59 C60 C61 -1.5(16) . .
C57 N5 C61 C65 -178.8(8) . .
Cd3 N5 C61 C65 4.5(10) . .
C57 N5 C61 C60 -0.8(12) . .
Cd3 N5 C61 C60 -177.5(6) . .
C59 C60 C61 N5 1.6(13) . .
C62 C60 C61 N5 -179.9(9) . .
C59 C60 C61 C65 179.5(9) . .
C62 C60 C61 C65 -1.9(13) . .
C59 C60 C62 C63 179.4(14) . .
C61 C60 C62 C63 1.0(19) . .
C60 C62 C63 C64 1(2) . .
C62 C63 C64 C66 179.8(13) . .
C62 C63 C64 C65 -3.2(19) . .
C68 N6 C65 C64 -1.3(12) . .
Cd3 N6 C65 C64 178.4(6) . .
C68 N6 C65 C61 179.4(8) . .
Cd3 N6 C65 C61 -0.9(9) . .
C66 C64 C65 N6 0.3(14) . .
C63 C64 C65 N6 -177.0(9) . .
C66 C64 C65 C61 179.6(9) . .
C63 C64 C65 C61 2.3(14) . .
N5 C61 C65 N6 -2.4(11) . .
C60 C61 C65 N6 179.6(7) . .
N5 C61 C65 C64 178.3(7) . .
C60 C61 C65 C64 0.3(12) . .
C65 C64 C66 C67 3.5(18) . .
C63 C64 C66 C67 -179.3(12) . .
C64 C66 C67 C68 -6(2) . .
C65 N6 C68 C67 -1.4(14) . .
Cd3 N6 C68 C67 179.0(7) . .
C66 C67 C68 N6 5.3(18) . .
