#------------------------------------------------------------------------------
#$Date: 2019-11-23 20:02:26 +0200 (Sat, 23 Nov 2019) $
#$Revision: 234759 $
#$URL: file:///home/coder/svn-repositories/cod/cif/7/70/21/7702112.cif $
#------------------------------------------------------------------------------
#
# This file is available in the Crystallography Open Database (COD),
# http://www.crystallography.net/
#
# All data on this site have been placed in the public domain by the
# contributors.
#
data_7702112
loop_
_publ_author_name
'Feng, Hui-Jun'
'Xu, Ling'
'Liu, Bing'
'Jiao, Huan'
_publ_section_title
;
 Europium metal-organic frameworks as recyclable and selective turn-off
 fluorescent sensors for aniline detection.
;
_journal_issue                   43
_journal_name_full
'Dalton transactions (Cambridge, England : 2003)'
_journal_page_first              17392
_journal_page_last               17400
_journal_paper_doi               10.1039/c6dt03358j
_journal_volume                  45
_journal_year                    2016
_chemical_formula_moiety         'C9 H5 Eu O6'
_chemical_formula_sum            'C9 H5 Eu O6'
_chemical_formula_weight         361.10
_space_group_crystal_system      monoclinic
_space_group_IT_number           14
_space_group_name_Hall           '-P 2ybc'
_space_group_name_H-M_alt        'P 1 21/c 1'
_symmetry_Int_Tables_number      14
_audit_creation_date             2016-09-14
_audit_creation_method
;
Olex2 1.2
(compiled 2016.08.25 svn.r3337 for OlexSys, GUI svn.r5221)
;
_audit_update_record
;
2016-09-16 deposited with the CCDC.
2016-09-29 downloaded from the CCDC.
;
_cell_angle_alpha                90
_cell_angle_beta                 95.245(5)
_cell_angle_gamma                90
_cell_formula_units_Z            4
_cell_length_a                   10.6681(5)
_cell_length_b                   12.9245(5)
_cell_length_c                   6.8298(5)
_cell_measurement_reflns_used    3978
_cell_measurement_temperature    293(2)
_cell_measurement_theta_max      28.7520
_cell_measurement_theta_min      3.6840
_cell_volume                     937.75(9)
_computing_cell_refinement       'CrystalClear (Rigaku Corp., 2002)'
_computing_data_collection       'CrystalClear (Rigaku Corp., 2002)'
_computing_data_reduction        'CrystalClear (Rigaku Corp., 2002)'
_computing_molecular_graphics    'Siemens SHELXTL^TM^ 5'
_computing_publication_material  'Siemens SHELXTL^TM^ 5'
_computing_structure_refinement  'Siemens SHELXTL^TM^ 5'
_computing_structure_solution    'Siemens SHELXTL^TM^ 5'
_diffrn_ambient_temperature      293(2)
_diffrn_measured_fraction_theta_full 0.9903
_diffrn_measured_fraction_theta_max 0.9903
_diffrn_measurement_device_type  'Rigaku Mercury CCD'
_diffrn_measurement_method       \w
_diffrn_radiation_type           'Mo K\a'
_diffrn_radiation_wavelength     0.71073
_diffrn_reflns_av_R_equivalents  0.0462
_diffrn_reflns_av_unetI/netI     0.0398
_diffrn_reflns_limit_h_max       14
_diffrn_reflns_limit_h_min       -14
_diffrn_reflns_limit_k_max       17
_diffrn_reflns_limit_k_min       -17
_diffrn_reflns_limit_l_max       9
_diffrn_reflns_limit_l_min       -9
_diffrn_reflns_number            10564
_diffrn_reflns_theta_full        25.0240
_diffrn_reflns_theta_max         25.02
_diffrn_reflns_theta_min         3.69
_exptl_absorpt_coefficient_mu    6.698
_exptl_absorpt_correction_T_max  1.00000
_exptl_absorpt_correction_T_min  0.54793
_exptl_absorpt_correction_type   multi-scan
_exptl_absorpt_process_details   'Sphere (CrystalClear)'
_exptl_crystal_colour            colorless
_exptl_crystal_density_diffrn    2.5575
_exptl_crystal_density_method    'not measured'
_exptl_crystal_description       prism
_exptl_crystal_F_000             680.3910
_exptl_crystal_size_max          0.20
_exptl_crystal_size_mid          0.10
_exptl_crystal_size_min          0.10
_refine_diff_density_max         4.3302
_refine_diff_density_min         -2.2645
_refine_diff_density_rms         0.3360
_refine_ls_d_res_high            0.8401
_refine_ls_d_res_low             5.5210
_refine_ls_goodness_of_fit_ref   1.0283
_refine_ls_hydrogen_treatment    mixed
_refine_ls_matrix_type           full
_refine_ls_number_constraints    10
_refine_ls_number_parameters     144
_refine_ls_number_reflns         1634
_refine_ls_number_restraints     0
_refine_ls_restrained_S_all      1.0283
_refine_ls_R_factor_all          0.0524
_refine_ls_R_factor_gt           0.0483
_refine_ls_shift/su_max          0.0007
_refine_ls_shift/su_mean         0.0001
_refine_ls_structure_factor_coef Fsqd
_refine_ls_weighting_details
'w=1/[\s^2^(Fo^2^)+(0.0480P)^2^+36.7759P] where P=(Fo^2^+2Fc^2^)/3'
_refine_ls_weighting_scheme      calc
_refine_ls_wR_factor_gt          0.1185
_refine_ls_wR_factor_ref         0.1227
_reflns_Friedel_coverage         0.0
_reflns_limit_h_max              12
_reflns_limit_h_min              -12
_reflns_limit_k_max              15
_reflns_limit_k_min              0
_reflns_limit_l_max              8
_reflns_limit_l_min              0
_reflns_number_gt                1471
_reflns_number_total             1634
_reflns_threshold_expression     I>=2u(I)
_iucr_refine_instructions_details
;
TITL 14 in P2(1)/c
CELL 0.71073 10.6681 12.9245 6.8298 90 95.245 90
ZERR 4 0.0005 0.0005 0.0005 0 0.005 0
LATT 1
SYMM -X,0.5+Y,0.5-Z
SFAC C H O Eu
UNIT 36 16 24 4

L.S. 100
PLAN  5
acta 
BOND 
FMAP 2
DAMP 
CONF 
bond $h
SHEL 6 0.84
OMIT 1 0 4
OMIT 5 6 3
OMIT -9 3 4
OMIT -3 10 3
OMIT -5 4 4
OMIT 1 4 4
OMIT 1 8 4
OMIT 1 1 3
OMIT 0 3 3
OMIT -2 3 4
OMIT -6 7 3
OMIT 0 5 3
WGHT 0.048 36.775902
FVAR 0.12531
REM <olex2.extras>
REM <HklSrc "%.\\14.hkl">
REM </olex2.extras>

Eu1   4     0.42563  0.37078  0.59640  11.00000  0.01212  0.00948  0.02683 =
 0.00189 -0.00107 -0.00117 
C11   1     1.10311  0.35923  0.88953  11.00000  0.01116  0.01787  0.02799 =
 0.00241  0.01413  0.00293 
C12   1     1.07931  0.45177  0.78808  11.00000  0.01791  0.01956  0.03275 =
 -0.00072 -0.00316  0.00032 
AFIX 43
H12   2     1.14587  0.49361  0.75818  11.00000 -1.20000 
AFIX 0
C13   1     0.95637  0.48143  0.73174  11.00000  0.01552  0.01888  0.03102 =
 0.00302  0.00085  0.00225 
AFIX 43
H13   2     0.94026  0.54427  0.66805  11.00000 -1.20000 
AFIX 0
C14   1     0.85817  0.41764  0.77029  11.00000  0.01790  0.01604  0.03270 =
 -0.00208 -0.00063  0.00277 
C15   1     0.88216  0.32517  0.86983  11.00000  0.01767  0.01994  0.03597 =
 0.00674  0.00279 -0.00262 
AFIX 43
H15   2     0.81573  0.28287  0.89848  11.00000 -1.20000 
AFIX 0
C16   1     1.00518  0.29576  0.92667  11.00000  0.01958  0.01783  0.02921 =
 0.00104 -0.00548  0.00320 
AFIX 43
H16   2     1.02122  0.23283  0.99011  11.00000 -1.20000 
AFIX 0
C17   1     1.23655  0.32508  0.93530  11.00000  0.01570  0.01970  0.02330 =
 -0.00598 -0.00078  0.00260 
C18   1     0.72576  0.44936  0.69845  11.00000  0.01392  0.02728  0.04171 =
 0.00414 -0.00833 -0.00109 
O11   3     1.32432  0.38161  0.87625  11.00000  0.01276  0.01913  0.02918 =
 0.00175 -0.00031  0.00233 
O12   3     1.25672  0.24344  1.02889  11.00000  0.02178  0.01934  0.03984 =
 0.00576  0.00005  0.01018 
O13   3     0.71302  0.53614  0.61977  11.00000  0.01854  0.02127  0.04811 =
 0.01292 -0.00757  0.00056 
O14   3     0.63679  0.38670  0.72475  11.00000  0.01287  0.03165  0.05715 =
 0.02110 -0.01007 -0.00414 
C1    1     0.54292  0.36988  0.22021  11.00000  0.01782  0.02333  0.03188 =
 -0.00212 -0.00736 -0.00122 
AFIX 13
H1    2     0.46578  0.39470  0.14606  11.00000 -1.20000 
AFIX 0
O1    3     0.48989  0.29012  0.27616  11.00000  0.02680  0.01288  0.05536 =
 -0.00581  0.00529 -0.00400 
O2    3     0.55172  0.44914  0.32606  11.00000  0.03715  0.01202  0.04397 =
 -0.00244  0.00763 -0.00475 
HKLF 4

END
Q1 1 1.4375 0.375 0.875 11 0.05 4.33
Q2 1 0.4375 0.375 0.333333 11 0.05 3.02
Q3 1 0.40625 0.375 0.166667 11 0.05 2.44
Q4 1 0.71875 0.375 0.375 11 0.05 2.13
Q5 1 0.71875 0.375 0.625 11 0.05 1.97
Q6 1 0.5625 0.4 0.916667 11 0.05 1.2
Q7 1 1.125 0.375 0.708333 11 0.05 1.02
Q8 1 0.6875 0.35 0.083333 11 0.05 0.95
Q9 1 0.34375 0.375 0.583333 11 0.05 0.93
Q10 1 1.15625 0.375 1 11 0.05 0.85
Q11 1 0.84375 0.225 1.125 11 0.05 0.83
Q12 1 1.15625 0.625 0.625 11 0.05 0.83
Q13 1 1.28125 0.475 1.041667 11 0.05 0.81
Q14 1 1.03125 0.35 0.958333 11 0.05 0.8
Q15 1 0.9375 0.6 0.875 11 0.05 0.78
Q16 1 0.4375 0.225 0.333333 11 0.05 0.78
Q17 1 0.625 0.375 0.458333 11 0.05 0.75
Q18 1 0.5625 0.25 0 11 0.05 0.73
Q19 1 1 0.5 0.5 11 0.05 0.73
Q20 1 1 0.2 0.916667 11 0.05 0.72

  REM The information below was added by Olex2.
  REM
  REM R1 = 0.0483 for 1471 Fo > 4sig(Fo) and 0.0524 for all 1634 data
  REM 144 parameters refined using 0 restraints
  REM Highest difference peak 4.3302, deepest hole -2.2645
  REM Mean Shift 0.0001, Max Shift 0.0007.
  
  REM +++ Tabular Listing of Refinement Information +++
  REM R1_all = 0.0524
  REM R1_gt = 0.0483
  REM wR_ref = 0.1227
  REM GOOF = 1.0283
  REM Shift_max = 0.0007
  REM Shift_mean = 0.0001
  REM Reflections_all = 1634
  REM Reflections_gt = 1471
  REM Parameters = 144
  REM Hole = -2.2645
  REM Peak = 4.3302
  REM Flack = n/a
  
  
;
_cod_data_source_file            c6dt03358j2.cif
_cod_data_source_block           Comp-5
_cod_database_code               7702112
_olex2_refinement_description
;
1. Fixed Uiso
 At 1.2 times of:
  All C(H) groups
2.a Ternary CH refined with riding coordinates:
 C1(H1)
2.b Aromatic/amide H refined with riding coordinates:
 C12(H12), C13(H13), C15(H15), C16(H16)
;
_iucr_refine_fcf_details
;
data_14
_computing_structure_refinement   'olex2.refine (Bourhis et al., 2015)'
_shelx_refln_list_code            4
loop_
  _space_group_symop_id
  _space_group_symop_operation_xyz
  1  x,y,z
  2  -x,y+1/2,-z+1/2
  3  -x,-y,-z
  4  x,-y-1/2,z-1/2

_space_group_crystal_system       monoclinic
_space_group_IT_number            14
_space_group_name_H-M_alt         'P 1 21/c 1'
_space_group_name_Hall            '-P 2ybc'
_symmetry_space_group_name_H-M    'P 1 21/c 1'
_symmetry_space_group_name_Hall   '-P 2ybc'
_symmetry_Int_Tables_number       14
_cell_length_a                    10.6681(5)
_cell_length_b                    12.9245(5)
_cell_length_c                    6.8298(5)
_cell_angle_alpha                 90
_cell_angle_beta                  95.245(5)
_cell_angle_gamma                 90
_cell_volume                      937.75(9)
loop_
  _refln_index_h
  _refln_index_k
  _refln_index_l
  _refln_F_squared_calc
  _refln_F_squared_meas
  _refln_F_squared_sigma
  _refln_F_squared_weight
  _refln_observed_status
-12 0 2 8363.200 8210.380 430.019 1.322 o
-12 1 1 2781.940 2739.980 144.837 6.117 o
-12 1 2 479.651 413.134 68.563 39.028 o
-12 1 3 903.475 1095.050 115.821 16.794 o
-12 2 1 4.558 69.626 34.745 395.061 o
-12 2 2 66.127 55.581 42.990 206.480 o
-12 2 3 5752.700 5297.650 244.113 2.542 o
-12 3 1 5181.790 5251.710 256.363 2.688 o
-12 3 2 780.867 665.285 148.701 16.947 o
-12 4 1 95.850 22.523 30.906 239.050 o
-12 4 2 5206.600 5294.910 361.404 2.223 o
-12 5 1 2712.370 2693.150 172.657 5.875 o
-11 0 2 11012.100 10401.500 454.875 0.983 o
-11 0 4 686.423 860.933 94.953 22.797 o
-11 1 1 4078.510 3670.920 163.958 4.136 o
-11 1 2 55.658 39.183 28.990 319.162 o
-11 1 3 3226.320 3363.770 159.966 5.035 o
-11 1 4 3574.250 3731.460 142.994 4.665 o
-11 2 1 2085.890 2042.940 139.194 8.145 o
-11 2 2 18.491 10.293 23.948 744.538 o
-11 2 3 2953.250 2772.610 128.521 6.040 o
-11 2 4 0.077 -21.103 21.846 1792.630 o
-11 3 1 4300.800 4155.320 195.219 3.637 o
-11 3 2 94.705 55.800 33.713 206.573 o
-11 3 3 2649.330 3094.040 150.640 5.981 o
-11 3 4 2390.590 2448.020 127.763 7.259 o
-11 4 1 196.488 111.606 35.699 114.139 o
-11 4 2 10369.300 10030.800 257.714 1.252 o
-11 4 3 21.667 37.871 29.265 463.380 o
-11 4 4 128.600 409.851 64.038 69.312 o
-11 5 1 1577.880 1418.250 118.501 11.381 o
-11 5 2 2.630 20.429 20.155 1190.790 o
-11 5 3 2076.340 2258.040 149.439 7.707 o
-11 6 1 2261.400 2073.990 127.666 7.930 o
-11 6 2 130.647 45.411 23.437 198.217 o
-11 6 3 3248.210 3173.300 203.433 4.672 o
-11 7 1 3264.930 3054.530 139.308 5.354 o
-11 7 2 51.193 41.043 28.686 332.085 o
-10 0 2 13232.600 12372.500 250.628 0.928 o
-10 0 4 606.463 677.758 75.017 28.900 o
-10 1 1 2252.790 2019.410 99.919 8.515 o
-10 1 2 2134.600 1952.560 73.154 9.384 o
-10 1 3 6724.680 6391.390 156.038 2.332 o
-10 1 4 2306.390 2742.950 109.816 7.399 o
-10 1 5 10.269 25.889 22.369 802.689 o
-10 2 1 8001.290 7831.720 182.117 1.824 o
-10 2 2 387.492 322.232 40.135 55.884 o
-10 2 3 959.559 1267.370 76.908 18.053 o
-10 2 4 25.800 9.527 19.058 771.359 o
-10 2 5 3409.180 3206.560 160.634 4.924 o
-10 3 1 1977.170 1849.880 99.323 9.582 o
-10 3 2 465.205 387.475 43.379 46.473 o
-10 3 3 5083.290 5063.940 162.534 3.152 o
-10 3 4 1864.610 2231.580 106.757 9.180 o
-10 3 5 799.217 568.425 97.982 22.987 o
-10 4 1 33.933 31.534 20.553 522.617 o
-10 4 2 9673.930 9506.730 239.874 1.376 o
-10 4 3 9.028 10.947 21.140 1070.070 o
-10 4 4 2725.780 2868.470 130.364 6.283 o
-10 4 5 244.804 192.386 42.307 83.638 o
-10 5 1 1768.160 1598.690 91.185 11.010 o
-10 5 2 1241.100 1076.580 72.981 16.456 o
-10 5 3 3258.310 3257.450 152.013 5.131 o
-10 5 4 2745.590 3090.420 151.575 5.842 o
-10 6 1 6142.500 5947.120 180.935 2.516 o
-10 6 2 270.059 233.438 34.652 79.259 o
-10 6 3 153.275 350.805 80.584 58.578 o
-10 6 4 112.178 101.559 29.526 175.494 o
-10 7 1 1790.860 1749.100 102.292 10.337 o
-10 7 2 79.888 26.812 19.549 320.679 o
-10 7 3 6346.540 6838.540 295.941 2.023 o
-10 8 1 125.530 108.643 30.721 159.459 o
-10 8 2 5666.600 5342.370 178.426 2.794 o
-10 8 3 9.137 7.021 29.573 724.931 o
-10 9 1 1030.580 862.727 82.148 19.181 o
-10 9 2 1024.650 898.308 75.796 19.475 o
-9 0 2 3008.600 3045.000 118.520 5.876 o
-9 0 4 12457.500 11960.900 308.109 0.960 o
-9 0 6 82.620 26.991 40.139 215.963 o
-9 1 1 1976.140 1707.340 63.117 10.531 o
-9 1 2 892.787 843.623 40.188 24.116 o
-9 1 3 2459.710 2308.980 89.742 7.805 o
-9 1 4 1478.220 2073.630 92.229 11.206 o
-9 1 5 882.647 933.315 70.432 21.523 o
-9 1 6 1984.300 1802.740 115.815 9.267 o
-9 2 1 16519.400 15926.800 199.680 0.685 o
-9 2 2 70.998 81.932 15.987 285.021 o
-9 2 3 3271.920 4125.780 130.867 4.851 o
-9 2 4 39.673 22.237 24.208 468.338 o
-9 2 5 5045.640 4949.790 171.394 3.162 o
-9 2 6 78.125 123.451 38.830 173.287 o
-9 3 1 712.958 746.942 63.058 26.992 o
-9 3 2 1410.670 1356.360 61.766 14.436 o
-9 3 3 5552.890 5183.310 142.713 2.983 o
-9 3 5 426.733 384.299 54.836 46.246 o
-9 3 6 2043.520 1866.950 128.119 8.722 o
-9 4 1 1177.770 1134.580 77.570 16.543 o
-9 4 2 6323.990 6416.330 138.631 2.483 o
-9 4 3 40.474 33.709 17.000 505.864 o
-9 4 4 8517.430 7910.950 205.788 1.693 o
-9 4 5 0.633 -89.910 33.891 737.801 o
-9 5 1 116.205 205.752 37.492 125.827 o
-9 5 2 4506.810 4504.090 128.034 3.753 o
-9 5 3 4279.130 4104.900 131.954 4.019 o
-9 5 4 1160.100 1364.330 99.561 14.668 o
-9 5 5 698.927 536.246 77.695 27.974 o
-9 6 1 11889.400 11332.100 243.505 1.067 o
-9 6 2 56.441 63.103 21.952 324.463 o
-9 6 3 764.139 1852.300 132.575 13.866 o
-9 6 4 371.738 306.644 48.889 55.251 o
-9 6 5 3624.000 3502.970 197.792 4.284 o
-9 7 1 47.251 39.748 26.676 363.641 o
-9 7 2 1610.900 1401.790 91.711 12.172 o
-9 7 3 6479.820 5909.730 222.054 2.310 o
-9 7 4 532.374 650.805 78.817 30.680 o
-9 8 1 407.116 399.053 54.537 47.130 o
-9 8 2 4738.200 4856.940 177.461 3.306 o
-9 8 3 426.171 362.763 61.813 44.982 o
-9 8 4 4271.340 3957.950 196.227 3.706 o
-9 9 1 187.724 186.762 39.810 100.367 o
-9 9 2 3280.500 3175.880 138.404 5.276 o
-9 9 3 1668.580 1600.990 116.606 10.686 o
-9 10 1 7804.160 7821.780 248.001 1.756 o
-9 10 2 172.011 96.594 33.210 131.052 o
-8 0 2 1951.720 1695.560 49.699 10.854 o
-8 0 4 13975.900 13881.100 318.337 0.809 o
-8 0 6 871.372 775.826 106.812 19.562 o
-8 1 1 5179.160 5034.100 89.084 3.338 o
-8 1 2 10128.600 9725.750 129.757 1.398 o
-8 1 3 3953.670 3944.050 88.081 4.545 o
-8 1 4 285.150 534.049 56.384 50.437 o
-8 1 5 3287.060 3044.420 121.248 5.495 o
-8 1 6 1789.730 1654.890 107.611 10.378 o
-8 2 1 15802.500 14054.300 284.886 0.731 o
-8 2 2 268.167 204.245 22.687 88.242 o
-8 2 3 4933.330 6297.640 121.995 3.068 o
-8 2 4 28.576 26.111 19.086 619.366 o
-8 2 5 2883.080 2621.210 120.266 6.349 o
-8 2 6 12.619 -10.691 36.058 533.564 o
-8 3 1 782.987 859.113 52.834 25.243 o
-8 3 2 3997.230 3857.660 99.327 4.494 o
-8 3 3 2133.630 2236.590 79.448 8.867 o
-8 3 4 235.274 569.353 49.561 55.482 o
-8 3 5 4886.310 4485.760 179.274 3.317 o
-8 3 6 1481.850 1430.930 110.675 12.086 o
-8 4 1 182.994 179.469 29.135 112.842 o
-8 4 2 1324.490 1200.250 57.540 15.821 o
-8 4 3 1.911 19.426 16.477 1543.070 o
-8 4 4 8974.420 8777.110 185.684 1.576 o
-8 4 5 44.611 65.638 27.912 320.062 o
-8 4 6 687.479 698.631 91.326 24.638 o
-8 5 1 339.066 308.977 36.395 62.810 o
-8 5 2 7752.290 7399.530 174.982 1.927 o
-8 5 3 2173.910 2162.850 95.130 8.614 o
-8 5 4 910.094 1468.940 86.942 16.958 o
-8 5 5 1551.310 1315.530 86.139 12.901 o
-8 5 6 2161.400 2243.640 164.034 7.252 o
-8 6 1 12482.400 11375.600 271.321 1.002 o
-8 6 2 31.804 0.311 21.663 684.989 o
-8 6 3 7885.780 8620.980 243.002 1.683 o
-8 6 4 3.854 47.212 23.062 712.279 o
-8 6 5 2409.770 2384.060 150.428 6.914 o
-8 7 1 1532.420 1496.010 87.560 12.466 o
-8 7 2 1996.130 1879.240 102.812 9.400 o
-8 7 3 2866.880 2839.200 131.502 6.083 o
-8 7 4 84.121 260.950 57.633 99.525 o
-8 7 5 3167.030 2901.120 183.015 5.096 o
-8 8 1 635.007 572.821 60.115 31.725 o
-8 8 2 1647.640 1476.970 94.943 11.710 o
-8 8 3 60.941 35.484 25.644 331.236 o
-8 8 4 7510.510 7206.420 259.757 1.841 o
-8 8 5 5.887 -17.168 29.623 840.511 o
-8 9 1 37.900 -3.725 31.990 439.553 o
-8 9 2 5406.300 5269.230 172.399 2.931 o
-8 9 3 723.662 708.983 79.606 25.291 o
-8 9 4 226.787 415.193 87.790 46.302 o
-8 10 1 11216.100 10558.000 294.141 1.116 o
-8 10 2 167.142 83.543 26.408 146.470 o
-8 10 3 2846.740 3517.260 185.124 5.085 o
-8 11 1 1440.210 1497.680 109.151 12.185 o
-8 11 2 1573.360 1487.140 107.914 11.615 o
-7 0 2 1730.570 1694.450 58.213 11.703 o
-7 0 4 11724.300 12868.900 221.575 1.032 o
-7 0 6 3650.790 3584.920 217.839 4.066 o
-7 1 1 10036.600 9636.640 144.052 1.406 o
-7 1 2 12493.400 11342.500 124.642 1.075 o
-7 1 3 1809.010 1778.170 57.294 11.171 o
-7 1 4 2899.080 2903.280 87.818 6.421 o
-7 1 5 5991.060 5325.670 172.568 2.696 o
-7 1 6 975.218 809.120 76.215 20.654 o
-7 1 7 73.136 81.733 31.944 224.330 o
-7 2 1 8914.350 7806.580 260.630 1.560 o
-7 2 2 49.937 24.205 11.027 521.627 o
-7 2 3 12870.900 13312.000 162.218 0.959 o
-7 2 4 11.873 11.213 19.353 1069.120 o
-7 2 5 8.571 48.991 20.021 708.287 o
-7 2 6 75.280 41.552 25.960 282.683 o
-7 2 7 2571.100 3002.440 167.243 5.932 o
-7 3 1 6245.740 5836.450 111.078 2.659 o
-7 3 2 4203.090 3793.320 86.507 4.402 o
-7 3 3 699.952 788.080 40.570 28.926 o
-7 3 4 2032.640 1853.150 71.245 9.919 o
-7 3 5 6026.740 5592.350 168.596 2.647 o
-7 3 6 1181.290 1003.370 92.442 16.296 o
-7 4 1 565.982 526.806 51.454 36.262 o
-7 4 2 439.720 344.714 33.363 52.045 o
-7 4 3 316.305 332.134 34.661 64.744 o
-7 4 4 5458.880 6592.440 248.737 2.419 o
-7 4 5 0.235 -43.190 23.166 1583.440 o
-7 4 6 3196.270 3032.350 153.757 5.305 o
-7 5 1 6708.180 5865.270 148.598 2.429 o
-7 5 2 11161.300 10283.600 197.653 1.208 o
-7 5 3 1245.140 1274.900 71.483 15.646 o
-7 5 4 2750.170 2833.620 109.261 6.513 o
-7 5 5 2400.190 2252.750 118.083 7.591 o
-7 5 6 2156.870 2084.330 132.642 8.064 o
-7 6 1 6029.570 5465.950 124.619 2.780 o
-7 6 2 101.789 59.548 23.594 226.029 o
-7 6 3 13420.900 14094.200 265.412 0.858 o
-7 6 4 17.548 24.187 25.071 633.322 o
-7 6 5 153.676 138.120 38.802 122.399 o
-7 6 6 81.031 40.201 30.503 251.116 o
-7 7 1 6726.390 6561.980 155.014 2.309 o
-7 7 2 6793.100 6336.720 203.232 2.219 o
-7 7 3 931.983 914.277 84.164 19.920 o
-7 7 4 1378.770 1307.010 104.745 13.209 o
-7 7 5 5269.180 4792.310 215.970 2.914 o
-7 7 6 975.865 882.171 101.629 18.226 o
-7 8 1 94.401 63.806 24.711 230.667 o
-7 8 2 585.235 480.436 58.852 35.202 o
-7 8 3 343.530 292.237 48.993 58.626 o
-7 8 4 4825.880 5642.830 225.461 2.880 o
-7 8 5 22.843 16.058 31.253 495.163 o
-7 9 1 902.458 881.456 81.865 20.706 o
-7 9 2 7229.420 6783.210 206.443 2.052 o
-7 9 3 31.603 53.165 31.957 350.394 o
-7 9 4 2538.440 2648.250 160.294 6.331 o
-7 9 5 2150.970 2005.650 146.878 7.874 o
-7 10 1 4260.770 4241.610 186.277 3.689 o
-7 10 2 184.474 138.994 33.705 115.619 o
-7 10 3 8896.850 9123.770 328.887 1.377 o
-7 10 4 417.392 360.173 65.263 44.565 o
-7 11 1 5976.650 6174.200 232.979 2.382 o
-7 11 2 1157.550 1187.800 92.489 15.720 o
-7 11 3 1881.340 2005.280 126.099 9.029 o
-7 12 1 330.477 307.740 53.768 57.237 o
-7 12 2 890.133 735.330 76.400 22.429 o
-6 0 2 14601.000 13897.000 215.642 0.818 o
-6 0 4 4346.120 5675.610 264.746 2.872 o
-6 0 6 4497.550 4232.670 232.331 3.292 o
-6 1 1 17211.800 15950.600 185.171 0.660 o
-6 1 2 9135.890 8498.240 100.671 1.646 o
-6 1 3 181.171 669.749 43.864 57.843 o
-6 1 4 6251.050 5893.090 109.367 2.650 o
-6 1 5 3907.020 3928.100 127.281 4.395 o
-6 1 6 6.029 24.963 24.537 813.182 o
-6 1 7 878.506 972.239 93.129 19.504 o
-6 2 1 1293.760 1185.910 51.221 16.352 o
-6 2 2 1676.690 1670.930 49.457 12.183 o
-6 2 3 19520.200 18059.500 179.316 0.548 o
-6 2 4 118.138 114.246 19.834 181.904 o
-6 2 5 1787.480 1682.490 84.011 10.930 o
-6 2 6 80.691 17.217 23.514 312.278 o
-6 2 7 1431.150 1949.210 129.939 10.501 o
-6 3 1 13839.400 12908.400 243.956 0.878 o
-6 3 2 3268.240 3058.880 77.833 5.833 o
-6 3 3 383.263 1082.240 84.035 28.069 o
-6 3 4 5673.290 5503.830 117.419 2.931 o
-6 3 5 5061.130 4854.920 154.237 3.243 o
-6 3 6 195.015 223.733 41.014 92.331 o
-6 3 7 1421.950 1389.010 130.888 11.669 o
-6 4 1 68.512 70.948 13.489 313.185 o
-6 4 2 8345.550 7550.230 163.316 1.811 o
-6 4 3 543.793 558.116 39.750 38.263 o
-6 4 4 3661.740 4662.360 132.571 4.267 o
-6 4 5 13.979 -3.906 20.692 1113.880 o
-6 4 6 7146.040 7089.070 202.890 2.044 o
-6 4 7 41.444 34.395 32.972 339.704 o
-6 5 1 11715.400 10920.000 141.601 1.156 o
-6 5 2 8082.270 7944.680 201.632 1.771 o
-6 5 3 12.285 167.759 28.586 269.730 o
-6 5 4 4733.270 4548.500 150.380 3.510 o
-6 5 5 2893.370 2754.200 126.118 6.167 o
-6 5 6 292.000 301.212 61.544 57.879 o
-6 6 1 623.567 499.027 36.867 36.479 o
-6 6 2 111.738 110.503 18.052 193.076 o
-6 6 3 19734.200 19046.000 296.428 0.511 o
-6 6 4 113.262 86.195 23.344 195.052 o
-6 6 5 402.777 296.135 53.117 51.625 o
-6 6 6 459.276 455.343 73.410 37.813 o
-6 7 1 14922.300 14435.000 247.908 0.776 o
-6 7 2 5723.020 5503.270 143.645 2.845 o
-6 7 4 3347.550 3097.550 158.240 5.063 o
-6 7 5 2789.220 2861.270 164.065 5.780 o
-6 7 6 167.575 155.752 44.781 106.237 o
-6 8 1 54.742 61.493 24.872 315.535 o
-6 8 2 5865.340 5740.220 157.923 2.707 o
-6 8 3 858.039 772.257 76.866 22.605 o
-6 8 4 1766.670 2834.590 160.849 7.513 o
-6 8 5 405.545 379.924 65.130 44.722 o
-6 8 6 4400.720 4358.570 222.859 3.364 o
-6 9 1 7993.820 8040.000 200.854 1.779 o
-6 9 2 4534.870 4615.100 165.202 3.535 o
-6 9 3 11.365 79.560 41.088 291.667 o
-6 9 4 6739.750 6522.690 244.096 2.109 o
-6 9 5 1959.910 1585.970 128.799 9.352 o
-6 10 1 1084.110 1139.440 81.600 17.176 o
-6 10 2 133.823 154.630 34.566 133.849 o
-6 10 3 7938.490 7728.200 258.901 1.721 o
-6 10 4 29.331 59.715 32.069 345.894 o
-6 10 5 708.461 625.726 81.141 26.273 o
-6 11 1 11730.500 11131.400 301.568 1.046 o
-6 11 2 4152.790 3666.540 159.629 4.111 o
-6 11 3 290.766 566.368 70.452 44.337 o
-6 11 4 1046.480 1090.120 107.933 16.126 o
-6 12 1 455.662 417.107 65.337 40.890 o
-6 12 2 1512.770 1414.410 102.343 12.279 o
-6 12 3 500.714 357.727 54.170 42.798 o
-6 13 1 2097.700 1813.210 117.474 8.882 o
-6 13 2 3213.970 3322.060 173.252 4.940 o
-5 0 2 33359.300 32217.900 383.580 0.222 o
-5 0 4 200.367 1788.560 368.632 5.239 o
-5 0 6 8848.870 9030.470 269.611 1.473 o
-5 1 1 20342.500 18576.100 229.919 0.512 o
-5 1 2 2944.230 2686.110 51.544 6.785 o
-5 1 3 1157.650 1370.440 51.893 16.726 o
-5 1 4 4476.670 4178.140 86.124 4.041 o
-5 1 5 1611.280 1435.020 76.923 12.527 o
-5 1 6 208.810 119.313 28.991 114.577 o
-5 1 7 1640.310 1677.880 106.404 10.955 o
-5 2 1 1590.360 2000.560 73.915 11.323 o
-5 2 2 291.855 311.025 21.688 73.767 o
-5 2 3 13319.500 12052.500 269.354 0.923 o
-5 2 4 46.186 234.750 36.334 160.314 o
-5 2 5 10071.400 9844.610 200.156 1.347 o
-5 2 6 0.878 -46.760 31.186 864.031 o
-5 2 7 323.329 368.044 53.111 55.330 o
-5 3 1 28090.700 26472.200 444.414 0.290 o
-5 3 2 6876.890 7110.540 125.901 2.242 o
-5 3 3 1608.260 1992.130 184.329 8.198 o
-5 3 4 7569.360 6946.430 142.352 2.065 o
-5 3 5 2187.800 1996.980 106.521 8.601 o
-5 3 6 324.666 293.423 42.966 63.013 o
-5 3 7 1834.480 2269.910 124.694 8.820 o
-5 4 1 149.765 133.517 14.373 154.392 o
-5 4 2 20251.800 19482.500 240.087 0.501 o
-5 4 3 141.629 136.601 15.621 158.002 o
-5 4 5 25.356 46.478 22.076 510.894 o
-5 4 6 7075.350 7123.440 216.812 2.027 o
-5 4 7 62.030 37.833 33.920 273.376 o
-5 5 1 20140.900 20032.400 207.109 0.501 o
-5 5 2 4504.750 4143.630 87.966 4.027 o
-5 5 3 14.940 395.157 89.640 64.619 o
-5 5 4 11085.400 10256.100 338.490 1.099 o
-5 5 5 982.195 867.341 70.078 20.609 o
-5 5 6 141.744 107.931 43.802 127.131 o
-5 5 7 2288.110 2359.980 166.061 6.876 o
-5 6 1 3637.740 4159.080 112.680 4.609 o
-5 6 2 38.469 50.866 15.510 474.157 o
-5 6 3 12490.900 11796.400 292.689 0.973 o
-5 6 4 8.878 77.927 24.436 484.595 o
-5 6 5 4493.870 4388.940 193.776 3.473 o
-5 6 6 176.983 109.830 34.924 123.402 o
-5 6 7 18.982 32.166 44.704 300.382 o
-5 7 1 16206.000 15604.600 287.714 0.681 o
-5 7 2 1673.090 1555.770 66.398 12.157 o
-5 7 3 2090.630 2675.560 136.756 7.482 o
-5 7 4 2164.710 2577.980 108.809 7.900 o
-5 7 5 2616.320 2286.350 145.608 6.718 o
-5 7 6 69.577 59.554 30.776 253.126 o
-5 8 1 151.843 131.989 22.660 145.507 o
-5 8 2 13023.900 12705.400 230.637 0.941 o
-5 8 3 424.451 399.385 56.633 45.424 o
-5 8 4 129.283 1028.710 147.986 22.541 o
-5 8 5 330.032 239.976 52.246 61.481 o
-5 8 6 4023.200 4059.690 212.044 3.720 o
-5 9 1 3627.980 3546.160 129.904 4.794 o
-5 9 2 1189.940 1067.970 67.076 17.244 o
-5 9 3 399.090 612.161 90.173 33.125 o
-5 9 4 9642.740 9431.300 289.220 1.328 o
-5 9 5 783.658 853.503 93.339 21.533 o
-5 9 6 60.962 80.411 40.568 207.636 o
-5 10 1 890.654 1066.570 87.211 19.261 o
-5 10 2 830.812 840.232 57.251 24.161 o
-5 10 3 7869.140 7250.590 220.236 1.845 o
-5 10 4 89.388 90.808 32.337 196.591 o
-5 10 5 3919.010 3896.700 204.601 3.887 o
-5 11 1 10345.100 9604.100 233.111 1.300 o
-5 11 2 1127.920 1107.620 69.606 17.538 o
-5 11 3 2061.640 2568.210 126.145 7.851 o
-5 11 4 1554.700 1429.790 110.059 11.761 o
-5 12 1 364.927 275.349 38.004 61.239 o
-5 12 2 11250.000 10640.700 274.321 1.126 o
-5 12 3 193.496 139.400 35.332 110.511 o
-5 12 4 40.247 498.085 68.993 71.945 o
-5 13 1 1500.420 1587.160 94.927 12.159 o
-5 13 2 1361.490 1225.240 102.909 13.638 o
-5 13 3 111.331 110.072 34.986 161.109 o
-5 14 1 319.044 513.642 79.873 41.218 o
-4 0 2 47534.100 43087.200 343.778 0.128 o
-4 0 4 519.769 1323.080 213.313 11.317 o
-4 0 6 5062.340 4772.450 196.779 3.088 o
-4 1 1 13690.100 12551.600 141.402 0.936 o
-4 1 2 232.904 174.280 10.796 106.458 o
-4 1 3 11639.700 12491.100 140.744 1.093 o
-4 1 4 6569.340 8391.840 217.586 1.998 o
-4 1 5 227.436 263.832 35.687 84.074 o
-4 1 6 3102.500 2823.220 116.748 5.917 o
-4 1 7 2229.430 2493.670 129.674 7.507 o
-4 2 1 5501.970 5905.610 161.496 2.802 o
-4 2 2 1594.540 1639.290 52.623 12.645 o
-4 2 3 5990.590 5724.510 92.312 2.809 o
-4 2 4 18.532 6.580 14.946 1131.820 o
-4 2 5 10939.100 10152.500 231.601 1.212 o
-4 2 6 8.647 -77.621 44.666 389.149 o
-4 2 7 41.919 43.401 44.287 243.646 o
-4 3 1 8773.390 8278.030 113.150 1.717 o
-4 3 2 1103.930 1107.970 34.844 19.225 o
-4 3 3 8350.420 8872.370 174.963 1.679 o
-4 3 4 5560.240 5822.640 121.633 2.902 o
-4 3 5 2.626 6.042 23.002 1286.600 o
-4 3 6 1419.860 1048.650 84.183 14.651 o
-4 3 7 3617.480 4250.260 167.182 4.241 o
-4 4 1 605.671 596.669 30.441 35.897 o
-4 4 2 27597.000 25402.300 500.301 0.296 o
-4 4 3 2.727 28.919 14.252 1374.730 o
-4 4 4 4210.740 4615.950 127.218 3.913 o
-4 4 5 39.395 41.040 23.398 425.176 o
-4 4 6 5834.070 5682.510 191.564 2.631 o
-4 4 7 22.275 64.893 40.551 287.346 o
-4 5 1 4643.110 4456.710 98.675 3.791 o
-4 5 2 392.298 363.208 33.677 55.264 o
-4 5 3 2581.690 3156.080 92.417 6.697 o
-4 5 4 8826.870 8948.730 151.094 1.620 o
-4 5 5 2.454 13.694 22.761 1151.060 o
-4 5 6 3758.300 3565.840 185.348 4.259 o
-4 5 7 1090.310 1365.820 126.306 13.710 o
-4 6 1 13529.800 13705.200 369.405 0.809 o
-4 6 2 1258.990 1158.580 56.281 16.614 o
-4 6 3 9564.550 9055.150 168.497 1.488 o
-4 6 4 46.117 61.938 20.457 371.097 o
-4 6 5 13106.400 12965.000 328.998 0.875 o
-4 6 6 6.656 2.719 28.508 851.011 o
-4 6 7 8.431 6.917 37.096 515.013 o
-4 7 1 10813.900 10682.100 172.631 1.239 o
-4 7 2 105.259 76.841 15.431 227.112 o
-4 7 3 4923.080 6149.910 271.801 2.560 o
-4 7 4 2270.430 2514.150 94.934 7.935 o
-4 7 5 411.007 364.202 53.922 48.228 o
-4 7 6 473.913 372.454 65.373 41.087 o
-4 8 1 510.090 486.027 35.605 42.285 o
-4 8 2 16326.500 14802.700 272.441 0.697 o
-4 8 3 929.409 864.045 71.683 21.252 o
-4 8 4 2206.070 2391.870 127.223 7.707 o
-4 8 5 20.038 -10.175 29.999 617.196 o
-4 8 6 4698.170 4545.800 222.984 3.176 o
-4 9 1 2377.370 2316.390 92.145 7.955 o
-4 9 2 203.319 187.504 27.357 105.749 o
-4 9 3 579.013 721.279 74.064 29.187 o
-4 9 4 3753.950 4610.000 181.959 3.917 o
-4 9 5 1.812 13.965 28.283 845.678 o
-4 9 6 1671.330 1650.380 136.592 9.959 o
-4 10 1 5692.960 5765.620 183.037 2.692 o
-4 10 2 1909.770 1882.670 85.051 10.050 o
-4 10 3 4478.450 4488.790 172.060 3.568 o
-4 10 4 2.510 -8.903 28.200 1002.500 o
-4 10 5 6392.590 5878.230 224.324 2.332 o
-4 11 1 6045.010 5622.140 177.951 2.610 o
-4 11 2 408.140 376.211 38.991 52.047 o
-4 11 3 5732.240 6129.870 200.597 2.563 o
-4 11 4 990.324 1097.990 95.542 17.424 o
-4 11 5 152.630 123.949 34.818 131.715 o
-4 12 1 664.877 642.962 57.686 30.130 o
-4 12 2 17792.100 16885.100 323.797 0.591 o
-4 12 3 161.008 81.851 25.094 152.767 o
-4 12 4 937.362 1086.200 98.933 17.772 o
-4 13 1 2030.340 1905.770 102.870 9.252 o
-4 13 2 148.599 128.614 29.061 140.555 o
-4 13 3 1188.940 1147.420 96.668 15.409 o
-4 14 1 2937.280 3093.090 160.353 5.498 o
-4 14 2 1583.880 1430.470 106.386 11.750 o
-3 0 2 47878.500 45184.200 268.478 0.125 o
-3 0 4 8960.690 8322.400 174.008 1.626 o
-3 0 6 1951.450 1865.990 124.650 9.062 o
-3 0 8 2703.280 2929.310 486.860 2.406 o
-3 1 1 9643.940 9607.340 132.589 1.467 o
-3 1 2 3301.860 2698.010 41.980 6.227 o
-3 1 3 13057.300 12824.300 121.129 0.976 o
-3 1 4 3535.900 5115.170 340.381 2.832 o
-3 1 5 282.258 258.127 26.604 78.328 o
-3 1 6 5408.350 4882.310 162.543 3.046 o
-3 1 7 2036.040 2230.550 121.723 8.400 o
-3 1 8 0.128 44.622 31.201 563.539 o
-3 2 1 19220.400 20220.500 197.801 0.524 o
-3 2 2 142.866 176.729 12.536 146.046 o
-3 2 3 80.688 1039.350 266.941 9.947 o
-3 2 4 29.054 18.408 12.918 776.335 o
-3 2 5 12886.200 12648.600 223.153 0.956 o
-3 2 6 9.267 -59.830 34.698 600.122 o
-3 2 7 2292.760 2652.110 143.138 7.005 o
-3 3 1 540.438 533.258 24.132 40.830 o
-3 3 2 10220.200 9271.900 129.335 1.415 o
-3 3 3 13183.800 12799.700 257.344 0.915 o
-3 3 4 2426.160 3131.700 331.498 3.833 o
-3 3 5 1118.290 1085.550 84.775 16.929 o
-3 3 6 3934.370 3579.480 165.342 4.268 o
-3 3 7 2315.760 2505.600 137.746 7.187 o
-3 4 1 1444.070 1519.730 45.962 14.053 o
-3 4 2 18236.500 16818.000 298.972 0.584 o
-3 4 3 161.768 146.299 19.013 139.037 o
-3 4 4 11836.400 10975.800 163.950 1.132 o
-3 4 5 462.648 396.880 44.056 46.186 o
-3 4 6 303.485 305.951 52.824 60.508 o
-3 4 7 24.547 -22.511 39.229 401.103 o
-3 5 1 2436.030 2437.120 58.720 8.048 o
-3 5 2 8789.090 8578.350 214.218 1.586 o
-3 5 3 9255.990 9397.970 198.050 1.479 o
-3 5 4 7047.880 8175.630 272.546 1.811 o
-3 5 5 1016.520 859.056 53.199 21.247 o
-3 5 6 3102.420 2738.810 181.283 5.270 o
-3 5 7 2059.550 2311.560 182.085 7.007 o
-3 6 1 26750.000 26502.500 609.041 0.287 o
-3 6 2 372.747 355.888 28.895 58.641 o
-3 6 3 948.160 1576.510 108.042 14.981 o
-3 6 4 1603.520 1615.480 66.080 12.369 o
-3 6 5 7068.170 6836.150 164.507 2.165 o
-3 6 6 0.177 19.441 31.033 712.296 o
-3 6 7 1360.890 1491.460 148.912 10.960 o
-3 7 1 3546.240 3511.930 116.038 4.986 o
-3 7 2 3399.650 3021.640 97.519 5.556 o
-3 7 3 12488.900 12495.000 251.984 0.973 o
-3 7 4 5301.810 5503.850 184.409 2.883 o
-3 7 5 1049.120 899.637 88.753 18.303 o
-3 7 6 2327.650 2232.070 151.973 7.177 o
-3 7 7 2974.330 3049.420 212.853 4.871 o
-3 8 1 1619.260 1503.140 58.985 12.751 o
-3 8 2 7010.400 5765.490 300.495 1.983 o
-3 8 3 757.511 809.192 67.849 24.912 o
-3 8 4 7592.600 7084.230 214.945 1.925 o
-3 8 5 363.804 326.815 53.656 53.384 o
-3 8 6 922.689 952.956 104.384 18.195 o
-3 9 1 12.412 16.735 13.531 1239.450 o
-3 9 2 3814.010 3402.930 119.927 4.752 o
-3 9 3 6664.210 6526.730 197.998 2.240 o
-3 9 4 4717.410 5421.060 196.690 3.097 o
-3 9 5 447.407 467.443 62.093 40.842 o
-3 9 6 4337.660 4282.220 198.021 3.563 o
-3 10 1 5279.070 5180.550 133.341 3.133 o
-3 10 2 626.549 563.769 52.161 33.242 o
-3 10 4 430.504 356.364 53.147 47.382 o
-3 10 5 6784.860 6859.570 240.500 2.069 o
-3 10 6 0.815 12.681 34.434 631.009 o
-3 11 1 5410.630 5715.580 147.125 2.918 o
-3 11 2 2636.490 2564.980 113.797 6.885 o
-3 11 3 9619.450 9457.750 344.609 1.261 o
-3 11 4 507.588 674.625 76.504 31.464 o
-3 11 5 387.661 321.055 57.580 50.337 o
-3 12 1 783.767 805.239 58.240 25.321 o
-3 12 2 9232.290 8777.450 198.431 1.525 o
-3 12 3 1.175 22.224 23.317 1016.370 o
-3 12 4 3172.590 3115.640 146.457 5.357 o
-3 13 1 646.078 661.079 61.392 29.938 o
-3 13 2 2841.400 2666.860 114.297 6.445 o
-3 13 3 1494.820 1283.390 93.180 13.066 o
-3 13 4 1565.690 2084.730 126.262 9.890 o
-3 14 1 4707.310 5071.500 209.353 3.122 o
-3 14 2 753.153 637.246 62.738 27.363 o
-2 0 2 24755.600 22683.500 274.884 0.374 o
-2 0 4 17502.500 15976.500 201.594 0.645 o
-2 0 6 565.434 573.782 84.533 29.837 o
-2 0 8 2494.310 2618.030 348.349 3.744 o
-2 1 1 50.836 122.499 19.438 273.647 o
-2 1 2 15784.100 14762.500 171.055 0.749 o
-2 1 3 12322.500 11863.400 123.741 1.068 o
-2 1 4 1150.900 2708.200 307.977 5.279 o
-2 1 5 2469.700 2440.680 72.120 7.836 o
-2 1 6 5969.290 5991.810 217.775 2.457 o
-2 1 7 659.980 711.059 86.242 25.723 o
-2 1 8 330.319 368.313 70.084 48.263 o
-2 2 1 23841.300 25151.300 255.444 0.371 o
-2 2 2 247.353 234.163 17.624 91.553 o
-2 2 3 10092.200 10297.800 362.448 1.156 o
-2 2 4 1151.230 1160.010 55.240 17.686 o
-2 2 5 8964.930 8547.540 216.837 1.559 o
-2 2 6 31.956 -117.351 69.989 151.136 o
-2 2 7 5496.410 6274.890 247.089 2.461 o
-2 2 8 15.280 -63.222 68.296 170.445 o
-2 3 1 219.894 291.516 47.163 75.835 o
-2 3 2 21506.700 21179.000 179.769 0.458 o
-2 3 3 17632.500 17606.500 219.431 0.608 o
-2 3 5 3676.420 3639.980 123.939 4.744 o
-2 3 6 3995.980 3709.220 167.626 4.158 o
-2 3 7 664.193 631.658 85.025 26.641 o
-2 4 1 202.860 237.302 17.574 103.517 o
-2 4 2 3515.080 2611.990 72.090 5.835 o
-2 4 3 91.760 102.271 17.546 224.130 o
-2 4 4 22197.400 20684.000 236.468 0.443 o
-2 4 5 178.663 157.718 33.702 114.255 o
-2 4 6 1.799 62.660 37.357 388.836 o
-2 4 7 43.234 61.043 37.544 266.463 o
-2 5 1 199.116 271.477 26.322 95.250 o
-2 5 2 19518.800 19372.900 335.592 0.505 o
-2 5 3 8061.670 8321.570 207.302 1.733 o
-2 5 4 1261.770 2147.040 143.208 10.305 o
-2 5 5 3340.500 3193.510 105.793 5.464 o
-2 5 6 2055.020 1956.610 133.995 8.442 o
-2 5 7 779.540 779.528 104.163 20.991 o
-2 6 1 29279.600 29019.600 415.629 0.268 o
-2 6 2 151.190 205.099 38.776 110.251 o
-2 6 3 1889.630 2883.680 353.062 3.945 o
-2 6 4 88.969 79.306 19.271 242.506 o
-2 6 5 6375.370 6251.580 143.807 2.482 o
-2 6 6 61.658 68.784 31.346 256.627 o
-2 6 7 2543.120 3305.650 191.624 5.449 o
-2 7 1 295.393 544.181 50.166 51.249 o
-2 7 2 6397.310 6025.420 205.446 2.362 o
-2 7 3 9013.970 8835.230 234.079 1.510 o
-2 7 4 1630.210 2040.020 102.485 10.389 o
-2 7 5 4445.250 4693.190 162.628 3.576 o
-2 7 6 2023.020 2149.950 146.091 8.018 o
-2 7 7 482.195 752.205 96.112 27.675 o
-2 8 1 3537.960 3502.140 116.208 4.999 o
-2 8 2 6674.680 6590.820 173.416 2.283 o
-2 8 3 1.745 28.545 29.139 691.525 o
-2 8 4 13601.900 13405.700 320.681 0.840 o
-2 8 5 151.896 123.189 26.856 143.101 o
-2 8 6 91.287 93.862 40.625 169.788 o
-2 9 1 0.261 47.405 18.767 913.441 o
-2 9 2 14379.600 13927.700 239.518 0.820 o
-2 9 3 6142.820 6223.130 227.224 2.345 o
-2 9 4 570.895 1263.400 111.424 19.799 o
-2 9 5 829.027 881.193 78.083 22.094 o
-2 9 6 4524.020 4952.040 231.155 3.121 o
-2 10 1 18079.300 17761.300 242.431 0.587 o
-2 10 2 1183.390 1085.260 69.807 17.096 o
-2 10 3 2186.730 3065.770 213.161 5.696 o
-2 10 4 778.802 688.468 80.705 24.305 o
-2 10 5 3622.280 3627.450 193.083 4.277 o
-2 10 6 13.407 -29.104 52.578 277.667 o
-2 11 1 24.799 78.823 29.610 349.830 o
-2 11 2 3394.840 2985.810 120.989 5.404 o
-2 11 3 8064.030 7824.850 205.626 1.779 o
-2 11 4 673.248 962.100 100.661 21.582 o
-2 11 5 2909.760 2767.880 172.791 5.577 o
-2 12 1 1010.540 1040.340 65.808 19.407 o
-2 12 2 3699.760 3422.240 135.087 4.748 o
-2 12 3 275.598 257.620 40.713 73.161 o
-2 12 4 5029.960 4758.390 177.714 3.188 o
-2 12 5 412.454 444.764 67.882 41.725 o
-2 13 1 33.065 30.481 18.585 560.593 o
-2 13 2 5733.900 5559.410 177.891 2.730 o
-2 13 3 2156.480 1951.700 110.530 8.671 o
-2 13 4 70.023 642.601 83.231 51.498 o
-2 14 1 6696.200 5979.880 206.803 2.282 o
-2 14 2 510.557 327.116 40.716 46.053 o
-2 14 3 1897.010 2287.770 166.240 7.692 o
-2 15 1 4.951 200.851 58.168 143.668 o
-1 0 2 25.084 90.231 13.868 447.707 o
-1 0 4 22112.000 22079.700 353.987 0.416 o
-1 0 6 2591.470 2553.560 164.312 6.262 o
-1 0 8 563.163 501.826 148.383 20.136 o
-1 1 1 19538.300 18864.200 149.241 0.540 o
-1 1 2 54083.100 50243.000 496.685 0.100 o
-1 1 3 15743.800 16028.200 141.242 0.728 o
-1 1 4 932.572 1510.790 75.628 17.171 o
-1 1 5 5049.460 4178.560 109.612 3.590 o
-1 1 6 3405.770 3402.830 164.060 4.803 o
-1 1 7 16.384 -32.047 34.775 533.068 o
-1 1 8 1673.790 1694.650 194.059 8.105 o
-1 2 1 10356.500 10649.900 86.659 1.334 o
-1 2 2 6356.460 6221.410 95.344 2.579 o
-1 2 3 23525.800 25450.200 314.891 0.368 o
-1 2 4 582.003 619.514 41.634 35.185 o
-1 2 5 1936.490 1753.180 89.489 10.095 o
-1 2 6 128.688 18.503 26.052 210.512 o
-1 2 7 4953.350 5773.100 235.536 2.765 o
-1 2 8 13.393 -53.871 44.138 377.258 o
-1 3 1 5588.770 5193.870 132.805 2.993 o
-1 3 2 17698.700 16569.000 231.729 0.621 o
-1 3 3 12389.100 12129.200 167.672 1.036 o
-1 3 4 958.364 1407.390 73.859 17.517 o
-1 3 5 9146.060 8503.420 209.224 1.545 o
-1 3 6 1815.860 1557.020 94.675 10.809 o
-1 3 7 0.134 -96.218 53.311 301.868 o
-1 4 1 200.542 180.222 23.181 110.828 o
-1 4 2 271.226 144.054 29.570 91.270 o
-1 4 3 168.708 869.073 136.132 25.491 o
-1 4 4 13052.400 15039.700 278.701 0.846 o
-1 4 5 24.414 32.856 20.459 604.176 o
-1 4 6 3287.670 3194.380 137.738 5.264 o
-1 4 7 1.190 17.074 40.124 464.654 o
-1 5 1 1096.150 997.351 58.607 19.028 o
-1 5 2 23995.000 23634.400 356.865 0.370 o
-1 5 3 5948.230 6050.250 202.970 2.499 o
-1 5 4 138.377 343.253 52.736 81.958 o
-1 5 5 1724.750 1755.860 96.208 10.736 o
-1 5 6 4193.420 4311.940 161.518 3.851 o
-1 5 7 57.242 124.573 40.921 185.925 o
-1 6 1 35933.100 35377.400 313.009 0.197 o
-1 6 2 218.165 161.272 32.770 101.153 o
-1 6 3 12342.900 14740.400 550.375 0.725 o
-1 6 4 5.114 71.588 18.283 641.482 o
-1 6 5 305.364 344.352 34.275 65.484 o
-1 6 6 1.309 26.702 33.459 580.683 o
-1 6 7 6066.080 7575.870 285.079 2.034 o
-1 7 1 1781.550 1984.210 139.025 9.021 o
-1 7 2 10723.600 9876.380 257.107 1.225 o
-1 7 3 3875.870 3484.950 150.503 4.457 o
-1 7 4 1.952 264.569 48.428 151.890 o
-1 7 5 8758.610 8541.730 223.274 1.581 o
-1 7 6 602.190 602.097 79.338 29.339 o
-1 7 7 157.534 201.981 50.766 95.604 o
-1 8 1 279.702 188.863 32.016 83.058 o
-1 8 2 74.704 53.827 27.969 261.525 o
-1 8 3 326.199 302.220 36.292 64.810 o
-1 8 4 14493.200 15341.500 326.934 0.745 o
-1 8 5 67.079 51.623 23.508 302.550 o
-1 8 6 3657.580 3824.620 196.556 4.150 o
-1 9 1 525.771 435.576 34.490 42.976 o
-1 9 2 15347.300 14876.600 262.655 0.741 o
-1 9 3 1634.430 1559.740 104.934 11.276 o
-1 9 4 229.034 596.814 73.306 46.203 o
-1 9 5 1323.290 1401.930 97.361 13.568 o
-1 9 6 2892.920 2702.110 169.590 5.679 o
-1 10 1 13502.900 12508.400 195.587 0.931 o
-1 10 2 91.324 135.416 27.939 182.532 o
-1 10 3 11440.400 12426.100 310.376 1.013 o
-1 10 4 1367.500 1273.890 115.818 12.883 o
-1 10 5 1530.450 1430.590 101.876 12.165 o
-1 10 6 181.277 103.219 39.116 117.734 o
-1 11 1 3037.090 3187.400 117.813 5.750 o
-1 11 2 2552.620 2375.170 116.251 7.185 o
-1 11 3 4521.850 4596.370 169.419 3.527 o
-1 11 4 1.154 28.959 29.966 670.241 o
-1 11 5 4592.210 4526.170 187.540 3.417 o
-1 12 1 707.589 638.929 54.641 29.368 o
-1 12 2 200.624 175.131 30.070 106.632 o
-1 12 3 1296.470 1151.500 88.903 14.965 o
-1 12 4 7783.810 8584.030 292.653 1.617 o
-1 12 5 0.377 17.019 45.316 378.121 o
-1 13 1 640.189 644.075 53.472 31.349 o
-1 13 2 7635.370 7260.360 201.039 1.923 o
-1 13 3 898.069 740.159 88.255 21.193 o
-1 13 4 509.884 708.234 90.659 28.472 o
-1 14 1 5116.650 4752.950 168.265 3.187 o
-1 14 2 125.957 99.276 28.002 167.730 o
-1 14 3 4818.050 5233.650 412.620 2.099 o
-1 15 1 1682.130 2003.500 142.632 9.184 o
0 0 2 185.582 193.907 18.576 116.797 o
0 0 4 11684.300 14234.600 450.564 0.837 o
0 0 6 10688.900 10267.600 323.300 1.147 o
0 0 8 160.002 191.687 108.262 47.558 o
0 1 2 5388.360 4951.610 72.076 3.287 o
0 1 3 2252.630 3566.320 229.932 5.098 o
0 1 4 4375.890 4487.450 96.831 3.966 o
0 1 5 4909.530 4388.220 142.712 3.489 o
0 1 6 434.993 431.017 75.037 39.019 o
0 1 7 485.271 504.335 70.688 36.343 o
0 1 8 1493.140 1299.180 358.856 4.617 o
0 2 1 38415.500 39250.200 298.514 0.173 o
0 2 2 6751.920 6957.250 106.055 2.326 o
0 2 3 37993.600 36730.800 272.887 0.182 o
0 2 4 0.633 -9.964 16.455 3000.180 o
0 2 5 434.372 390.505 46.138 47.793 o
0 2 6 65.172 29.455 24.986 331.658 o
0 2 7 6129.770 7065.880 296.373 2.043 o
0 2 8 8.605 -22.889 38.426 508.945 o
0 3 1 3107.420 2836.680 76.749 6.232 o
0 3 2 7873.360 7445.430 116.569 1.972 o
0 3 4 3141.800 3135.950 110.884 5.708 o
0 3 5 4839.630 4500.150 148.336 3.473 o
0 3 6 416.132 307.915 47.730 51.779 o
0 3 7 693.328 713.267 86.824 24.961 o
0 4 0 45856.700 55097.900 466.581 0.114 o
0 4 1 11.132 43.888 12.355 890.332 o
0 4 2 2117.690 2013.080 68.455 9.410 o
0 4 3 7968.780 8571.920 225.628 1.700 o
0 4 4 15623.000 17889.400 333.455 0.645 o
0 4 5 210.305 214.264 34.964 94.299 o
0 4 6 7831.830 7765.850 230.117 1.787 o
0 4 7 7.923 -27.993 31.069 740.701 o
0 5 1 8769.480 8784.840 145.570 1.648 o
0 5 2 18657.400 18402.200 270.059 0.554 o
0 5 4 1820.200 1691.190 86.618 10.718 o
0 5 5 5734.890 5616.640 172.738 2.735 o
0 5 6 692.137 786.155 71.871 26.045 o
0 5 7 398.882 394.851 67.250 44.032 o
0 6 0 311.312 439.945 42.532 56.792 o
0 6 1 18327.100 17355.700 414.995 0.543 o
0 6 2 339.083 368.831 36.729 59.381 o
0 6 3 24615.700 25079.200 585.888 0.322 o
0 6 4 1039.970 1058.280 70.973 18.660 o
0 6 5 60.633 45.259 23.263 331.671 o
0 6 6 474.684 426.778 54.853 42.179 o
0 6 7 4825.890 5588.640 242.667 2.814 o
0 7 1 10240.100 9439.070 198.332 1.352 o
0 7 2 14569.600 14712.500 304.686 0.765 o
0 7 3 141.981 210.794 56.359 92.315 o
0 7 4 2283.320 2293.610 108.953 7.952 o
0 7 5 7505.260 7774.880 213.966 1.875 o
0 7 6 298.796 254.002 46.299 67.267 o
0 7 7 1123.830 1041.600 109.194 15.612 o
0 8 0 26029.600 30667.500 509.168 0.284 o
0 8 1 336.421 349.325 27.396 63.396 o
0 8 2 3919.080 3721.220 134.485 4.427 o
0 8 3 323.990 263.170 32.835 68.932 o
0 8 4 6790.300 8703.590 219.498 1.915 o
0 8 5 68.729 58.899 26.090 277.278 o
0 8 6 5346.990 5359.260 196.064 2.852 o
0 9 1 3730.390 3457.470 87.195 4.995 o
0 9 2 12639.700 12142.200 230.288 0.987 o
0 9 3 32.875 131.640 42.768 201.677 o
0 9 4 3958.660 4116.900 241.512 3.536 o
0 9 5 1941.730 2020.490 117.496 9.031 o
0 9 6 103.772 141.085 50.399 125.481 o
0 10 0 2782.170 3378.150 126.177 5.882 o
0 10 1 5115.020 4867.630 110.126 3.361 o
0 10 2 390.000 394.157 44.842 51.256 o
0 10 3 12891.800 13084.000 449.245 0.806 o
0 10 4 726.702 799.202 75.310 24.835 o
0 10 5 31.145 6.785 25.138 580.374 o
0 10 6 58.810 41.529 31.611 290.495 o
0 11 1 12293.000 12022.100 228.049 1.018 o
0 11 2 2277.240 2033.080 104.935 8.349 o
0 11 3 919.179 1244.530 140.980 14.291 o
0 11 4 288.653 309.668 52.805 61.957 o
0 11 5 4786.050 4681.520 191.068 3.263 o
0 12 0 21812.900 23517.700 596.547 0.368 o
0 12 1 74.017 85.206 27.435 236.886 o
0 12 2 271.040 253.617 40.327 74.412 o
0 12 3 1564.390 1628.200 120.888 10.911 o
0 12 4 5413.100 6139.310 247.259 2.506 o
0 12 5 13.285 -45.248 27.475 794.726 o
0 13 1 1340.540 1277.130 79.686 14.587 o
0 13 2 7052.790 7114.390 252.199 1.956 o
0 13 3 479.074 417.061 65.305 39.751 o
0 13 4 3057.830 2967.730 176.935 5.244 o
0 14 0 737.026 1001.420 94.820 20.997 o
0 14 1 2363.770 2360.280 131.468 7.339 o
0 14 2 72.084 74.939 28.031 246.530 o
0 14 3 8552.030 8637.820 358.393 1.400 o
0 15 1 4504.590 4425.260 187.239 3.492 o
1 0 2 3341.820 2890.030 80.541 5.831 o
1 0 6 7108.510 6761.910 433.685 1.539 o
1 0 8 148.311 89.157 73.873 84.005 o
1 1 1 23709.600 23588.900 160.775 0.393 o
1 1 2 5236.860 5003.990 65.399 3.364 o
1 1 4 13827.800 13337.800 298.600 0.841 o
1 1 5 4754.680 4383.450 158.687 3.507 o
1 1 6 0.990 71.540 28.313 503.965 o
1 1 7 1853.420 1895.520 153.154 8.575 o
1 2 0 204.592 336.988 20.687 88.387 o
1 2 1 32.701 146.078 13.269 308.963 o
1 2 2 13.074 14.732 6.860 1565.580 o
1 2 3 26347.100 25333.800 313.019 0.329 o
1 2 4 741.672 917.482 66.204 24.339 o
1 2 5 3566.420 3543.060 132.894 4.833 o
1 2 6 119.192 31.570 23.529 221.278 o
1 2 7 2159.510 2580.630 136.675 7.440 o
1 3 0 906.191 990.064 29.831 23.055 o
1 3 1 40687.100 39828.300 214.071 0.162 o
1 3 2 4327.380 3862.060 62.970 4.349 o
1 3 3 3585.100 5133.200 263.681 3.315 o
1 3 4 12232.300 11801.900 262.316 1.010 o
1 3 5 6610.430 6175.090 223.245 2.237 o
1 3 6 75.709 69.178 27.806 246.116 o
1 3 7 2835.610 3165.800 150.650 5.687 o
1 4 0 47420.400 56368.300 612.797 0.106 o
1 4 1 96.872 81.190 8.839 247.682 o
1 4 2 9731.710 8782.140 119.578 1.521 o
1 4 3 156.963 117.398 20.043 149.719 o
1 4 5 100.106 65.468 24.587 221.398 o
1 4 6 9974.830 9514.130 243.309 1.337 o
1 4 7 0.563 -27.390 41.733 489.277 o
1 5 0 4247.200 4716.100 83.850 4.020 o
1 5 1 9319.240 8810.180 96.786 1.594 o
1 5 2 18821.000 18500.800 335.040 0.534 o
1 5 3 2264.620 2656.710 199.883 6.080 o
1 5 4 9253.580 9238.530 201.768 1.486 o
1 5 5 4569.600 4558.760 156.446 3.572 o
1 5 6 5.217 -11.645 23.141 1294.580 o
1 5 7 1510.540 1883.180 138.386 10.054 o
1 6 0 4.526 34.486 9.673 1368.220 o
1 6 1 11067.500 12035.100 183.301 1.143 o
1 6 2 246.184 217.857 22.283 92.038 o
1 6 3 16335.800 16155.900 318.224 0.656 o
1 6 4 131.666 147.943 22.088 154.123 o
1 6 5 2230.240 2178.690 113.022 8.146 o
1 6 6 503.184 470.730 57.082 39.176 o
1 6 7 1059.210 1293.820 119.108 14.559 o
1 7 0 2297.370 2421.000 66.906 8.332 o
1 7 1 20755.300 20220.300 223.835 0.482 o
1 7 2 2520.730 2320.960 97.766 7.555 o
1 7 3 1903.310 2790.370 131.444 7.859 o
1 7 4 3245.840 3164.020 127.222 5.422 o
1 7 5 7185.210 7141.550 206.314 2.022 o
1 7 6 45.958 37.479 26.808 371.950 o
1 7 7 1709.740 2060.520 148.462 8.863 o
1 8 0 24250.000 27738.700 396.188 0.333 o
1 8 1 37.704 50.384 12.716 502.932 o
1 8 2 10006.700 9722.410 187.278 1.372 o
1 8 3 962.629 936.866 76.310 19.972 o
1 8 5 891.294 871.628 75.596 21.443 o
1 8 6 5430.080 5370.610 197.066 2.814 o
1 9 0 7531.220 8551.140 158.586 1.878 o
1 9 1 4918.700 4554.210 101.328 3.583 o
1 9 2 4966.090 4865.410 141.454 3.336 o
1 9 3 1282.900 1583.100 160.491 10.601 o
1 9 4 8102.090 7903.170 215.695 1.750 o
1 9 5 3085.740 3083.550 144.442 5.497 o
1 9 6 4.870 23.284 23.651 890.522 o
1 10 0 1155.570 1337.600 67.226 16.312 o
1 10 1 69.499 295.869 62.909 91.992 o
1 10 2 818.570 787.296 60.548 24.617 o
1 10 3 11677.700 11365.200 239.294 1.085 o
1 10 4 11.998 68.370 27.421 455.322 o
1 10 5 1661.180 1786.650 114.721 10.414 o
1 10 6 228.073 219.407 43.785 83.265 o
1 11 0 879.851 867.236 53.395 23.327 o
1 11 1 15529.300 14278.300 244.597 0.752 o
1 11 2 1785.680 1720.980 94.328 10.611 o
1 11 3 84.830 621.382 126.427 33.238 o
1 11 4 3554.720 3318.380 153.387 4.793 o
1 11 5 3428.730 3197.940 158.522 4.928 o
1 12 0 16093.000 17078.100 354.779 0.636 o
1 12 1 17.368 37.048 21.305 643.283 o
1 12 2 1851.180 1885.190 123.401 9.365 o
1 12 3 610.729 552.006 68.316 31.563 o
1 12 4 586.217 1006.520 92.605 23.530 o
1 13 0 1723.940 2040.970 96.937 10.177 o
1 13 1 2369.160 2085.930 117.654 7.850 o
1 13 2 5350.940 4933.610 208.047 2.887 o
1 13 3 10.591 120.240 44.833 229.119 o
1 13 4 6649.580 6322.140 226.186 2.201 o
1 14 0 1053.090 1224.770 79.210 17.196 o
1 14 1 300.024 269.373 54.303 62.239 o
1 14 2 712.039 605.602 78.822 26.717 o
1 14 3 5921.630 6190.340 253.261 2.331 o
1 15 0 579.219 647.280 61.887 32.048 o
1 15 1 9476.920 9146.160 246.318 1.414 o
2 0 0 22450.200 26367.100 163.620 0.390 o
2 0 2 11479.400 9893.630 185.980 1.204 o
2 0 4 1348.790 2492.120 524.752 2.483 o
2 0 6 7782.920 7497.940 267.399 1.751 o
2 1 0 17513.100 20139.800 129.657 0.583 o
2 1 1 20070.800 19744.600 153.748 0.513 o
2 1 2 346.334 348.055 17.210 64.428 o
2 1 3 6548.490 6913.900 194.335 2.228 o
2 1 4 14089.300 13691.000 267.903 0.831 o
2 1 5 2097.610 1712.040 77.536 9.832 o
2 1 6 353.663 281.682 50.659 57.488 o
2 1 7 2543.290 2850.140 156.096 6.234 o
2 2 0 95.834 170.823 11.220 186.590 o
2 2 1 10849.100 11465.900 89.000 1.234 o
2 2 2 212.989 209.532 15.384 105.639 o
2 2 3 15775.900 15006.200 165.042 0.745 o
2 2 4 0.285 4.842 21.437 1633.190 o
2 2 5 10578.900 9948.260 242.154 1.249 o
2 2 6 177.845 47.428 24.214 154.214 o
2 2 7 125.407 119.529 45.408 129.414 o
2 3 0 7647.340 8734.020 66.311 1.923 o
2 3 1 28194.700 27830.000 170.548 0.299 o
2 3 2 1145.100 947.082 29.828 19.856 o
2 3 3 7640.070 8388.740 171.655 1.855 o
2 3 4 13922.900 13132.400 281.089 0.849 o
2 3 5 3330.880 2627.540 165.179 5.261 o
2 3 6 781.205 647.890 64.754 26.396 o
2 3 7 3270.550 3857.470 168.587 4.679 o
2 4 0 13985.300 15895.200 106.698 0.825 o
2 4 1 222.471 249.998 15.377 96.733 o
2 4 2 34062.400 32757.000 302.393 0.218 o
2 4 3 320.020 275.155 21.903 72.097 o
2 4 4 809.836 1795.710 175.783 11.338 o
2 4 5 10.752 9.630 9.576 1813.510 o
2 4 6 7292.690 7193.530 377.532 1.618 o
2 4 7 59.861 30.117 23.710 357.170 o
2 5 0 15438.400 17781.200 137.394 0.703 o
2 5 1 14471.100 14769.500 138.769 0.823 o
2 5 2 3947.580 3541.800 71.584 4.803 o
2 5 3 4955.610 5390.000 288.446 2.597 o
2 5 4 10874.700 10626.400 176.619 1.233 o
2 5 5 2396.360 2220.510 110.676 7.751 o
2 5 6 1613.040 1604.640 102.679 11.341 o
2 5 7 1398.750 1563.960 109.829 12.201 o
2 6 0 1163.580 1542.550 46.496 16.075 o
2 6 1 3034.570 3233.650 91.130 5.944 o
2 6 2 564.550 548.498 43.386 37.073 o
2 6 3 8436.580 8084.780 186.011 1.718 o
2 6 4 214.018 323.693 32.648 82.383 o
2 6 5 8343.800 8135.460 214.419 1.691 o
2 6 6 42.713 40.363 22.677 416.885 o
2 6 7 26.617 33.487 26.759 482.241 o
2 7 0 6115.200 6428.830 109.061 2.605 o
2 7 1 18291.300 17530.600 212.768 0.589 o
2 7 2 521.384 465.259 31.890 42.763 o
2 7 3 6477.820 6985.520 360.449 1.804 o
2 7 4 2565.620 2966.130 123.882 6.537 o
2 7 5 2088.180 1735.590 102.300 9.348 o
2 7 6 213.750 218.995 39.017 89.896 o
2 8 0 5973.140 6691.390 113.018 2.601 o
2 8 1 6.152 11.651 12.978 1858.150 o
2 8 2 15104.300 14137.600 215.977 0.785 o
2 8 3 321.973 304.607 33.861 66.045 o
2 8 4 359.144 1111.740 89.047 27.511 o
2 8 5 383.599 354.730 47.247 52.668 o
2 8 6 6562.370 7093.780 226.854 2.126 o
2 9 0 7949.520 8798.680 153.586 1.780 o
2 9 1 4134.800 3848.800 95.533 4.398 o
2 9 2 766.138 766.929 54.614 26.411 o
2 9 3 1116.310 1593.900 141.546 12.150 o
2 9 4 8593.060 8697.190 227.835 1.588 o
2 9 5 578.430 508.988 59.839 34.756 o
2 9 6 616.930 712.833 74.920 28.210 o
2 10 0 31.603 36.458 14.807 594.998 o
2 10 1 2302.140 2506.890 121.246 7.480 o
2 10 2 1465.040 1411.500 77.719 13.402 o
2 10 3 10323.300 9874.620 264.331 1.258 o
2 10 4 35.876 74.051 29.019 325.977 o
2 10 5 5943.500 5679.090 203.369 2.559 o
2 11 0 2877.490 3058.860 101.535 6.213 o
2 11 1 7556.460 6971.030 180.110 2.007 o
2 11 2 412.377 259.269 43.344 55.527 o
2 11 3 3687.330 4307.940 208.169 3.878 o
2 11 4 2708.730 2632.010 135.622 6.426 o
2 11 5 1336.710 1264.970 100.817 13.761 o
2 12 0 7987.960 8977.440 181.792 1.724 o
2 12 1 676.689 782.328 69.620 26.678 o
2 12 2 10315.800 9777.980 276.422 1.252 o
2 12 3 1037.870 893.050 88.678 18.466 o
2 12 4 281.128 548.496 69.103 45.913 o
2 13 0 3910.680 4493.730 156.944 4.006 o
2 13 1 1527.300 1364.600 94.549 12.610 o
2 13 2 36.736 34.547 26.454 423.736 o
2 13 3 1523.080 1563.480 121.730 11.189 o
2 13 4 6159.000 6248.990 225.637 2.342 o
2 14 0 2143.270 2353.630 119.645 8.027 o
2 14 1 1684.640 1670.440 102.215 10.909 o
2 14 2 2220.360 2045.400 139.185 7.833 o
2 15 0 487.950 554.793 59.740 37.453 o
2 15 1 7162.280 6681.690 232.227 2.024 o
3 0 0 525.302 467.905 19.081 43.891 o
3 0 2 34917.200 31271.600 268.670 0.219 o
3 0 4 7544.780 7246.760 282.374 1.785 o
3 0 6 4569.580 4373.750 208.108 3.359 o
3 1 0 9884.490 10507.300 90.823 1.399 o
3 1 1 15556.500 15939.300 193.807 0.727 o
3 1 2 183.999 165.222 13.935 126.245 o
3 1 3 13712.200 14417.500 209.002 0.855 o
3 1 4 11984.400 12725.300 226.782 1.015 o
3 1 5 553.453 500.381 47.984 37.892 o
3 1 6 2243.470 2084.410 114.692 8.198 o
3 1 7 1546.610 1816.650 125.395 10.464 o
3 2 0 1062.510 1228.060 32.980 19.057 o
3 2 1 36199.300 34524.000 351.128 0.197 o
3 2 2 1382.170 1343.380 33.272 15.398 o
3 2 3 5221.450 5210.400 91.281 3.266 o
3 2 4 19.440 12.145 17.398 924.706 o
3 2 5 12384.700 11718.900 215.740 1.029 o
3 2 6 24.217 -52.848 45.040 327.456 o
3 2 7 686.568 540.944 77.029 28.314 o
3 3 0 16444.900 18971.000 142.255 0.639 o
3 3 1 7528.120 7554.990 69.192 2.080 o
3 3 2 1860.330 1916.360 41.309 10.880 o
3 3 3 9855.080 10372.200 223.583 1.321 o
3 3 4 5473.730 5941.550 154.075 2.827 o
3 3 5 43.086 44.301 21.690 414.081 o
3 3 6 1080.190 1099.810 83.153 17.316 o
3 3 7 3470.140 4046.670 198.482 4.190 o
3 4 0 941.731 962.533 28.195 22.749 o
3 4 1 1828.900 1927.940 39.355 11.010 o
3 4 2 31406.500 28768.000 275.514 0.257 o
3 4 3 638.131 540.792 31.799 35.593 o
3 4 4 6863.500 7159.790 157.115 2.189 o
3 4 5 15.685 12.841 15.868 1081.400 o
3 4 6 2886.980 2692.150 130.688 6.170 o
3 4 7 79.354 57.023 33.192 228.544 o
3 5 0 25591.500 29843.000 210.609 0.316 o
3 5 1 7240.160 7516.830 102.399 2.126 o
3 5 2 1953.760 1977.400 56.216 10.205 o
3 5 3 7464.870 7488.800 143.933 2.025 o
3 5 4 6732.700 7455.640 169.583 2.162 o
3 5 5 213.544 227.452 36.873 90.477 o
3 5 6 3493.120 3362.090 147.110 4.883 o
3 5 7 805.522 1348.250 118.374 16.350 o
3 6 0 93.246 98.872 12.440 233.795 o
3 6 1 17745.600 17181.700 174.848 0.619 o
3 6 2 1633.310 1660.860 58.069 12.271 o
3 6 3 3144.050 3515.090 144.558 5.184 o
3 6 4 433.650 353.222 35.406 51.751 o
3 6 5 11242.100 10943.100 247.465 1.135 o
3 6 6 6.161 -32.258 25.424 1077.050 o
3 6 7 625.337 492.548 72.026 31.421 o
3 7 0 8395.630 8917.600 121.093 1.721 o
3 7 1 6128.560 5943.830 119.356 2.666 o
3 7 2 163.634 149.451 23.195 133.369 o
3 7 3 12721.500 12614.500 221.658 0.969 o
3 7 4 5462.530 5730.990 169.687 2.825 o
3 7 5 8.006 -6.142 22.978 1185.750 o
3 7 6 1160.610 1153.490 110.763 14.820 o
3 8 0 5.827 26.744 11.322 1433.240 o
3 8 1 56.189 86.953 14.918 320.936 o
3 8 2 15434.800 14366.300 259.134 0.750 o
3 8 3 96.819 102.889 17.598 216.501 o
3 8 4 3458.090 3563.690 139.895 4.876 o
3 8 5 372.727 284.207 43.050 58.243 o
3 8 6 2959.090 3021.220 172.375 5.376 o
3 9 0 12509.000 14256.300 175.208 0.947 o
3 9 1 1748.260 1681.800 63.808 11.542 o
3 9 2 231.813 186.055 23.168 99.768 o
3 9 3 4467.810 4180.060 147.203 3.792 o
3 9 4 5994.180 6469.360 195.872 2.441 o
3 9 5 151.461 106.727 29.122 145.263 o
3 9 6 2628.330 2626.850 202.725 5.590 o
3 10 0 139.748 128.942 22.468 154.634 o
3 10 1 10472.900 10105.600 186.442 1.297 o
3 10 2 1568.780 1415.960 94.168 12.271 o
3 10 3 2833.480 3272.260 137.932 5.762 o
3 10 4 9.780 -4.351 17.551 1567.570 o
3 10 5 5528.540 5562.600 199.300 2.734 o
3 11 0 3605.300 3828.010 124.005 4.722 o
3 11 1 11810.800 11520.300 208.690 1.087 o
3 11 2 59.065 29.026 22.464 371.166 o
3 11 3 6995.000 7279.750 213.236 2.035 o
3 11 4 2296.480 2240.070 124.813 7.717 o
3 11 5 1.549 -9.829 34.371 704.406 o
3 12 0 57.752 73.819 22.451 303.066 o
3 12 1 184.403 195.421 36.273 103.310 o
3 12 2 9652.520 8660.710 258.647 1.408 o
3 12 3 87.428 34.304 19.956 288.857 o
3 12 4 2987.450 2976.580 149.771 5.626 o
3 13 0 14290.700 15860.900 367.611 0.724 o
3 13 1 1930.880 1656.540 96.851 10.126 o
3 13 2 358.717 311.849 54.585 54.127 o
3 13 3 1105.020 1177.810 101.290 15.694 o
3 14 0 456.610 474.264 74.400 37.284 o
3 14 1 6643.150 6279.010 196.879 2.281 o
3 14 2 167.649 96.936 28.042 140.051 o
4 0 0 328.318 513.407 21.763 56.629 o
4 0 2 51090.900 47008.000 664.405 0.108 o
4 0 4 11849.500 11537.300 260.628 1.050 o
4 0 6 560.339 575.524 78.484 31.019 o
4 1 0 11351.600 12117.300 101.488 1.149 o
4 1 1 8095.010 8677.830 156.817 1.761 o
4 1 2 5887.470 5472.660 80.720 2.920 o
4 1 3 5832.810 5334.700 92.042 2.953 o
4 1 4 1699.890 1960.290 86.656 10.660 o
4 1 5 1058.060 995.017 67.768 18.999 o
4 1 6 3394.400 3110.340 138.707 5.184 o
4 1 7 1006.500 1193.740 102.176 16.397 o
4 2 0 958.038 1132.100 29.359 21.152 o
4 2 1 62875.500 61086.500 396.915 0.075 o
4 2 2 202.558 199.152 15.142 111.109 o
4 2 3 583.062 1659.330 157.090 13.998 o
4 2 4 1995.640 1948.450 72.558 9.860 o
4 2 5 10143.000 10287.900 230.741 1.287 o
4 2 6 187.215 137.180 63.884 82.430 o
4 2 7 4241.430 4412.580 229.423 3.391 o
4 3 0 5317.570 5534.780 68.050 3.184 o
4 3 1 47.443 87.345 16.700 340.664 o
4 3 2 5898.020 5663.630 111.896 2.820 o
4 3 3 11133.900 10175.600 161.894 1.239 o
4 3 4 625.775 990.365 57.243 26.802 o
4 3 5 1347.600 1040.760 73.000 15.702 o
4 3 6 3671.920 3441.650 170.273 4.497 o
4 3 7 462.175 604.492 101.259 29.024 o
4 4 0 16555.400 21072.900 143.305 0.598 o
4 4 1 573.093 576.678 25.511 38.122 o
4 4 2 19739.600 18424.600 208.717 0.533 o
4 4 3 341.603 277.236 23.679 68.327 o
4 4 4 12026.700 11600.700 352.283 0.969 o
4 4 5 725.294 631.996 58.264 28.597 o
4 4 6 488.787 660.063 80.476 31.533 o
4 4 7 0.639 -92.579 86.404 114.808 o
4 5 0 23070.400 27942.100 223.491 0.363 o
4 5 1 501.428 545.899 29.749 41.929 o
4 5 2 4755.070 4364.900 88.420 3.781 o
4 5 3 7390.510 6923.690 137.342 2.118 o
4 5 4 2836.990 3564.120 181.134 5.115 o
4 5 5 257.859 162.663 26.093 94.233 o
4 5 6 1967.990 1736.110 124.525 9.208 o
4 6 0 64.326 63.493 14.570 333.272 o
4 6 1 34234.900 33364.600 245.113 0.217 o
4 6 2 24.922 13.521 9.529 988.847 o
4 6 3 14.574 1030.510 210.088 14.960 o
4 6 4 921.401 948.207 58.447 21.676 o
4 6 5 8439.850 8478.880 215.297 1.646 o
4 6 6 188.344 126.284 48.388 100.200 o
4 7 0 7007.560 7526.270 129.623 2.149 o
4 7 1 2147.840 2358.240 93.171 8.455 o
4 7 2 1254.300 1180.960 65.391 16.209 o
4 7 3 9908.740 9352.180 196.434 1.399 o
4 7 4 3149.700 3142.730 125.021 5.570 o
4 7 5 736.358 635.120 73.933 26.475 o
4 7 6 1718.860 1559.710 154.037 9.399 o
4 8 0 3040.640 3561.920 100.720 5.645 o
4 8 1 72.996 68.764 20.502 280.254 o
4 8 2 12802.600 12503.800 225.094 0.965 o
4 8 3 982.658 978.807 68.281 19.988 o
4 8 4 11739.900 11167.600 243.432 1.085 o
4 8 5 421.901 373.036 56.572 46.437 o
4 8 6 394.119 396.154 83.537 39.297 o
4 9 0 9221.670 10113.600 201.744 1.433 o
4 9 1 99.784 119.470 22.823 192.670 o
4 9 2 3460.030 3228.050 122.098 5.184 o
4 9 3 3736.740 3769.950 138.815 4.533 o
4 9 4 2169.660 3086.930 186.485 6.138 o
4 9 5 625.523 457.696 84.741 29.745 o
4 10 0 3.556 42.143 16.708 972.081 o
4 10 1 18067.400 17412.600 237.067 0.594 o
4 10 2 1210.540 1066.290 82.083 16.329 o
4 10 3 0.461 521.540 136.413 34.243 o
4 10 4 318.687 297.874 44.129 62.987 o
4 10 5 5014.760 5483.560 285.482 2.577 o
4 11 0 3194.360 3376.880 133.673 5.302 o
4 11 1 2659.160 2590.060 96.623 7.023 o
4 11 2 1305.880 1178.680 90.251 14.735 o
4 11 3 7725.390 7471.210 215.524 1.859 o
4 11 4 155.001 164.386 89.794 61.633 o
4 12 0 451.129 515.533 65.306 38.760 o
4 12 1 1168.290 975.474 71.373 17.708 o
4 12 2 6855.080 6295.200 219.007 2.171 o
4 12 3 49.326 39.161 20.013 410.018 o
4 12 4 4573.130 4493.620 338.960 2.605 o
4 13 0 6120.400 6834.170 247.514 2.212 o
4 13 1 201.273 182.155 34.971 101.309 o
4 13 2 4475.800 4329.080 191.825 3.509 o
4 13 3 1055.470 883.996 95.131 17.872 o
4 14 0 95.850 54.007 30.656 216.496 o
4 14 1 8849.360 8208.530 251.117 1.555 o
5 0 0 3958.170 4322.660 71.261 4.440 o
5 0 2 2018.490 1637.410 70.837 10.371 o
5 0 4 14159.600 13893.800 307.426 0.804 o
5 0 6 276.744 211.170 50.614 71.072 o
5 1 0 17942.200 20829.100 205.171 0.550 o
5 1 1 7.240 144.685 23.206 344.091 o
5 1 2 19082.500 17986.900 260.481 0.549 o
5 1 3 6234.540 5772.270 88.127 2.713 o
5 1 4 80.308 630.847 132.757 31.248 o
5 1 5 3752.650 3614.020 138.684 4.588 o
5 1 6 5263.440 5402.500 280.485 2.534 o
5 1 7 167.517 232.080 60.512 80.301 o
5 2 0 477.485 610.899 22.661 42.234 o
5 2 1 28572.800 27017.600 171.213 0.299 o
5 2 2 12.530 21.876 11.819 1200.230 o
5 2 3 3736.010 5201.440 233.652 3.421 o
5 2 4 208.239 160.106 34.303 103.111 o
5 2 5 3220.920 3123.300 119.467 5.543 o
5 2 6 150.060 88.020 31.436 148.474 o
5 2 7 3550.880 3735.380 218.488 4.077 o
5 3 0 3016.410 3112.910 53.868 6.296 o
5 3 1 206.811 252.948 36.605 89.238 o
5 3 2 10042.000 9564.900 179.989 1.383 o
5 3 3 11286.300 10353.800 235.345 1.166 o
5 3 4 32.489 503.830 117.123 41.346 o
5 3 5 6786.740 6736.180 185.461 2.208 o
5 3 6 4174.640 4413.820 383.944 2.485 o
5 4 0 13889.800 16043.200 176.444 0.810 o
5 4 1 885.870 749.013 31.745 25.612 o
5 4 2 7211.410 5790.160 236.868 2.103 o
5 4 3 354.887 374.839 27.521 59.836 o
5 4 4 9856.460 9307.970 248.367 1.357 o
5 4 5 724.095 622.710 66.583 27.780 o
5 4 6 192.622 182.656 62.071 78.821 o
5 5 0 8300.110 9437.760 107.698 1.703 o
5 5 1 188.539 283.674 52.657 78.193 o
5 5 2 10361.200 9327.100 122.019 1.398 o
5 5 3 2204.170 2009.830 71.986 9.098 o
5 5 4 113.898 320.651 48.112 94.230 o
5 5 5 3712.200 3368.060 161.048 4.567 o
5 5 6 4220.240 4417.060 254.377 3.246 o
5 6 0 240.345 268.206 21.169 87.893 o
5 6 1 22086.900 20780.400 206.115 0.448 o
5 6 2 35.819 18.573 9.509 716.736 o
5 6 4 4.245 4.558 15.288 2181.420 o
5 6 5 2327.030 2347.180 176.029 6.640 o
5 6 6 8.887 -54.394 43.303 410.349 o
5 7 0 4948.110 5313.430 147.718 3.211 o
5 7 1 1696.840 1867.950 70.591 11.217 o
5 7 2 3030.990 2745.280 80.942 6.392 o
5 7 3 9445.330 9074.840 174.090 1.498 o
5 7 4 241.150 652.947 77.204 42.506 o
5 7 5 3832.460 3418.660 217.251 4.004 o
5 7 6 1234.230 1366.040 149.860 11.729 o
5 8 0 9355.810 10438.800 316.519 1.272 o
5 8 1 48.861 110.596 23.139 277.047 o
5 8 2 7817.080 7288.290 170.907 1.931 o
5 8 3 557.399 648.841 54.943 33.769 o
5 8 4 9785.490 9816.440 349.333 1.221 o
5 8 5 430.420 397.717 79.386 38.801 o
5 9 0 4635.780 5166.740 156.494 3.370 o
5 9 1 472.193 417.950 41.648 45.421 o
5 9 2 16923.100 16421.000 273.757 0.642 o
5 9 3 1895.800 1846.320 96.498 9.922 o
5 9 4 25.474 352.918 112.141 48.890 o
5 9 5 1429.360 1268.180 139.931 11.524 o
5 10 0 18.797 59.082 29.691 415.122 o
5 10 1 20954.500 19929.900 286.013 0.472 o
5 10 2 255.569 189.950 33.296 87.387 o
5 10 3 1482.970 2275.160 178.082 8.339 o
5 10 4 632.206 522.781 89.268 27.982 o
5 11 0 839.738 927.007 73.020 22.010 o
5 11 1 242.239 331.633 42.285 71.797 o
5 11 2 2153.510 1941.320 105.360 8.792 o
5 11 3 4256.630 3857.700 226.714 3.546 o
5 11 4 143.825 254.652 69.817 74.059 o
5 12 0 3559.890 3927.110 154.335 4.509 o
5 12 1 814.124 711.550 68.228 24.724 o
5 12 2 1333.370 1206.230 90.931 14.415 o
5 12 3 472.200 377.015 76.703 38.124 o
5 13 0 2657.740 2885.460 164.374 5.933 o
5 13 1 13.537 7.700 25.894 782.919 o
5 13 2 5660.950 5811.210 298.554 2.295 o
5 14 0 642.147 743.179 85.747 25.825 o
6 0 0 27829.500 32098.100 355.495 0.271 o
6 0 2 465.822 466.786 57.343 41.034 o
6 0 4 11190.700 12810.400 822.791 0.603 o
6 0 6 3270.030 3261.070 251.231 4.132 o
6 1 0 1780.810 1898.640 38.795 11.291 o
6 1 1 3822.580 3595.650 159.265 4.393 o
6 1 2 14815.900 13436.600 301.842 0.785 o
6 1 3 1749.500 1708.300 49.092 11.736 o
6 1 4 1294.490 1497.270 81.653 14.073 o
6 1 5 5662.390 5032.870 201.278 2.775 o
6 1 6 1677.480 1387.030 134.938 10.462 o
6 2 0 19.133 35.048 6.878 906.577 o
6 2 1 17607.600 16632.100 196.367 0.630 o
6 2 2 223.429 218.127 24.590 96.837 o
6 2 3 11374.800 11502.600 351.496 1.018 o
6 2 4 237.793 175.682 27.647 96.979 o
6 2 5 157.340 163.147 42.336 111.426 o
6 2 6 28.748 35.711 50.658 231.448 o
6 3 0 1036.740 969.690 30.257 21.160 o
6 3 1 4093.550 4093.140 83.615 4.379 o
6 3 2 9756.400 9246.010 155.436 1.460 o
6 3 3 2727.840 2293.490 151.097 6.448 o
6 3 4 199.329 314.058 48.919 76.279 o
6 3 5 5312.400 4873.570 249.347 2.738 o
6 3 6 2665.380 2828.410 245.347 4.846 o
6 4 0 16929.200 19068.100 182.322 0.614 o
6 4 1 996.694 864.372 29.249 22.616 o
6 4 2 7.663 42.684 14.287 937.544 o
6 4 3 39.277 21.121 10.407 644.469 o
6 4 4 11707.200 12617.300 373.169 0.940 o
6 4 5 7.430 1.660 32.232 691.839 o
6 4 6 3080.140 2945.790 212.999 4.819 o
6 5 0 1770.730 2022.060 49.309 10.934 o
6 5 1 1614.610 1472.140 73.998 12.490 o
6 5 2 9384.630 8201.940 194.166 1.549 o
6 5 3 3542.870 3212.220 107.368 5.208 o
6 5 4 651.922 912.189 84.909 24.105 o
6 5 5 2862.670 2520.540 147.978 6.118 o
6 5 6 2106.850 2228.570 187.125 6.893 o
6 6 0 697.764 746.061 35.395 29.948 o
6 6 1 7150.760 6376.330 114.885 2.283 o
6 6 2 55.777 25.138 32.767 311.864 o
6 6 3 12727.300 14336.500 365.227 0.837 o
6 6 4 503.621 386.887 58.728 40.829 o
6 6 5 38.124 59.402 40.169 261.767 o
6 6 6 190.557 90.132 54.117 98.023 o
6 7 0 1611.400 1627.870 53.949 12.558 o
6 7 1 1175.840 1377.920 68.943 15.896 o
6 7 2 7774.640 7386.490 169.219 1.932 o
6 7 3 1921.950 1764.950 117.532 9.478 o
6 7 4 549.245 678.425 76.994 30.117 o
6 7 5 5670.510 5435.250 279.963 2.412 o
6 8 0 13287.700 15025.600 246.349 0.847 o
6 8 1 1359.960 1331.700 74.797 14.444 o
6 8 2 597.435 592.086 57.425 33.008 o
6 8 3 696.082 767.212 80.938 25.103 o
6 8 4 6523.060 7336.720 253.882 2.042 o
6 8 5 38.406 -52.942 45.627 283.941 o
6 9 0 2989.580 3332.440 130.783 5.597 o
6 9 1 1185.090 1153.780 65.433 16.954 o
6 9 2 9923.880 9912.030 227.638 1.335 o
6 9 3 596.869 520.098 81.591 30.224 o
6 9 4 762.507 965.250 139.041 16.695 o
6 10 0 4254.690 4742.270 162.628 3.673 o
6 10 1 7477.250 7143.840 166.806 2.027 o
6 10 2 4.062 -6.991 26.994 1036.960 o
6 10 3 4467.770 5158.700 399.647 2.241 o
6 10 4 345.687 402.774 78.030 43.362 o
6 11 0 1295.120 1288.270 89.094 14.476 o
6 11 1 2819.520 2864.550 111.141 6.357 o
6 11 2 2171.740 2013.070 137.640 8.011 o
6 11 3 1941.210 1877.020 163.896 8.106 o
6 12 0 6691.220 7339.030 218.991 2.085 o
6 12 1 602.841 506.039 54.386 34.786 o
6 12 2 9.493 -61.866 38.129 509.247 o
6 13 0 613.246 701.249 98.797 25.009 o
6 13 1 617.287 556.667 70.159 31.005 o
7 0 0 27697.700 32011.800 516.677 0.261 o
7 0 2 7681.680 7471.890 276.204 1.754 o
7 0 4 7693.280 9259.580 845.398 0.733 o
7 0 6 5178.200 4670.550 480.810 1.815 o
7 1 0 479.006 550.194 22.625 43.860 o
7 1 1 8951.300 8480.650 129.015 1.657 o
7 1 2 5634.540 5011.700 205.732 2.773 o
7 1 3 423.648 658.147 112.822 27.041 o
7 1 4 2388.600 2507.410 139.220 7.025 o
7 1 5 3371.160 3325.690 168.060 4.836 o
7 1 6 231.233 162.833 57.427 77.636 o
7 2 0 53.628 54.070 8.013 419.283 o
7 2 1 3115.600 3144.280 85.411 5.935 o
7 2 2 571.390 483.474 33.791 39.482 o
7 2 3 16852.600 15522.200 435.461 0.608 o
7 2 4 8.749 -35.425 40.237 468.421 o
7 2 5 866.859 785.299 103.530 19.872 o
7 2 6 6.173 -53.359 46.359 373.354 o
7 3 0 70.532 89.896 8.916 293.702 o
7 3 1 5875.320 5744.110 113.592 2.809 o
7 3 2 7699.450 7258.970 144.381 1.997 o
7 3 3 170.049 215.150 42.869 98.462 o
7 3 4 2995.230 3134.690 228.623 4.632 o
7 3 5 5107.280 5112.640 315.899 2.469 o
7 3 6 235.412 247.497 104.123 43.425 o
7 4 0 16949.500 17920.100 488.512 0.550 o
7 4 1 909.192 755.937 49.629 24.047 o
7 4 2 3450.780 3088.280 90.922 5.496 o
7 4 3 227.522 126.893 35.047 101.661 o
7 4 4 5319.940 6449.380 463.183 1.722 o
7 4 5 0.146 -44.282 44.050 441.824 o
7 4 6 5507.790 5700.970 360.747 2.112 o
7 5 0 4.832 5.987 5.959 3776.760 o
7 5 1 3480.020 3041.390 102.251 5.413 o
7 5 2 9991.860 9139.570 211.681 1.388 o
7 5 3 1.052 113.132 43.726 258.082 o
7 5 4 4846.360 4801.480 203.661 3.147 o
7 5 5 3976.890 3773.530 190.240 3.992 o
7 6 0 249.968 297.377 26.575 80.702 o
7 6 1 2779.860 2681.320 79.762 6.884 o
7 6 2 39.953 23.923 22.171 486.055 o
7 6 3 14512.900 13959.400 335.336 0.772 o
7 6 4 705.344 678.571 79.178 26.029 o
7 6 5 277.168 229.135 62.642 62.761 o
7 7 0 39.508 71.195 18.475 392.465 o
7 7 1 9309.680 9329.120 158.961 1.513 o
7 7 2 3577.420 3396.480 139.425 4.845 o
7 7 3 2.050 125.837 95.780 79.743 o
7 7 4 1987.770 1687.480 125.749 9.192 o
7 7 5 5457.440 4959.230 277.298 2.556 o
7 8 0 11703.800 13619.500 242.316 0.995 o
7 8 1 11.966 10.318 14.959 1333.830 o
7 8 2 5044.340 4639.920 170.480 3.239 o
7 8 3 543.616 431.451 61.770 37.306 o
7 8 4 3396.220 3892.990 299.840 3.434 o
7 9 0 1107.560 1233.980 76.785 16.768 o
7 9 1 2028.750 1975.260 98.103 9.246 o
7 9 2 7682.160 7522.990 252.285 1.796 o
7 9 3 0.535 32.454 33.068 570.814 o
7 9 4 2653.670 2301.290 188.412 5.982 o
7 10 0 1695.840 2031.670 115.380 9.836 o
7 10 1 1069.440 1016.500 74.273 18.374 o
7 10 2 28.692 7.438 29.564 514.403 o
7 10 3 8241.760 7660.410 276.214 1.647 o
7 11 0 8.082 3.949 24.710 1001.930 o
7 11 1 6595.270 6705.340 195.660 2.240 o
7 11 2 1770.810 1886.300 136.300 9.270 o
7 11 3 189.511 281.882 60.572 72.283 o
7 12 0 8036.720 9084.650 259.377 1.597 o
7 12 1 448.101 408.715 66.365 41.221 o
8 0 0 9064.830 10339.600 159.014 1.476 o
8 0 2 10068.900 9708.810 408.211 1.129 o
8 0 4 1242.600 2439.750 556.594 2.282 o
8 1 0 2758.560 3087.330 81.965 6.549 o
8 1 1 4615.430 4499.120 97.993 3.798 o
8 1 2 3250.840 2994.900 130.981 5.483 o
8 1 3 923.772 989.217 83.799 19.584 o
8 1 4 5372.040 5749.580 224.467 2.666 o
8 1 5 2716.920 2504.200 187.852 5.775 o
8 2 0 1063.020 1067.610 69.398 18.441 o
8 2 1 838.986 912.434 45.912 24.140 o
8 2 2 258.200 243.994 27.831 83.845 o
8 2 3 13680.200 13712.800 298.115 0.839 o
8 2 4 15.741 -3.678 37.326 482.695 o
8 2 5 3215.450 3423.500 222.416 4.402 o
8 3 0 1926.500 2301.210 76.967 9.432 o
8 3 1 14662.700 14171.200 189.079 0.815 o
8 3 2 1144.940 983.144 59.643 18.502 o
8 3 3 732.537 1130.390 167.667 13.931 o
8 3 4 5242.070 5261.270 328.288 2.358 o
8 3 5 3406.950 3257.490 260.187 3.956 o
8 4 0 12935.100 14903.100 237.125 0.875 o
8 4 1 140.674 157.646 20.284 147.016 o
8 4 2 17360.300 16991.800 413.122 0.577 o
8 4 3 186.213 158.459 43.090 101.804 o
8 4 4 987.757 2029.670 516.473 2.685 o
8 4 5 8.372 -28.505 57.350 245.802 o
8 5 0 3044.580 3480.390 119.584 5.539 o
8 5 1 3782.290 3466.110 113.975 4.789 o
8 5 2 8006.110 7318.150 198.042 1.849 o
8 5 3 833.848 1173.050 104.958 17.929 o
8 5 4 3401.080 3300.950 177.063 4.737 o
8 5 5 858.656 802.049 111.913 19.073 o
8 6 0 411.395 432.768 39.398 49.513 o
8 6 1 31.978 71.923 25.507 370.053 o
8 6 2 77.286 61.825 26.816 253.828 o
8 6 3 14953.600 13722.800 291.169 0.776 o
8 6 4 186.162 152.476 39.979 106.010 o
8 7 0 1947.830 2175.700 102.828 9.095 o
8 7 1 8703.240 8604.910 185.194 1.632 o
8 7 2 1184.620 1024.250 80.041 16.857 o
8 7 3 753.732 1141.160 144.057 15.612 o
8 7 4 478.637 462.763 72.457 37.063 o
8 8 0 9705.900 10979.600 256.267 1.273 o
8 8 1 75.592 71.793 21.141 268.990 o
8 8 2 9250.660 8602.680 240.312 1.486 o
8 8 3 209.117 220.006 40.776 89.554 o
8 8 4 996.346 941.834 129.379 15.640 o
8 9 0 3382.710 4001.700 160.763 4.581 o
8 9 1 2949.600 2814.760 135.083 5.944 o
8 9 2 1710.390 1566.490 118.393 10.536 o
8 9 3 409.351 437.777 61.631 43.810 o
8 10 0 1174.360 1424.860 99.943 14.341 o
8 10 1 20.021 67.907 27.773 409.468 o
8 10 2 25.186 19.043 35.423 407.654 o
8 11 0 901.126 1012.780 88.222 19.380 o
8 11 1 4412.450 4390.400 182.148 3.580 o
9 0 0 5029.330 5617.820 124.719 3.174 o
9 0 2 15106.600 15066.500 715.484 0.540 o
9 0 4 8.607 18.991 36.486 483.793 o
9 1 0 7443.220 8412.500 146.090 1.926 o
9 1 1 6304.140 6304.280 194.190 2.378 o
9 1 2 197.194 129.934 27.802 118.131 o
9 1 3 2595.190 3345.830 158.339 5.789 o
9 1 4 3617.040 3994.080 229.425 3.859 o
9 1 5 162.051 62.006 47.918 121.529 o
9 2 0 358.285 425.568 37.899 54.460 o
9 2 1 2381.980 2415.390 94.904 7.793 o
9 2 2 120.379 128.214 27.417 161.765 o
9 2 3 8352.550 7931.940 304.919 1.561 o
9 2 4 47.135 7.865 44.633 264.538 o
9 2 5 5162.820 4967.100 276.159 2.654 o
9 3 0 12671.400 15011.300 280.496 0.867 o
9 3 1 5362.380 5328.010 122.299 3.093 o
9 3 2 384.733 295.526 59.475 50.874 o
9 3 3 4459.780 4812.100 242.709 3.118 o
9 3 4 3269.150 3437.400 259.994 3.988 o
9 4 0 7973.940 9139.520 195.043 1.695 o
9 4 1 286.359 287.915 34.300 72.078 o
9 4 2 11411.600 10924.600 348.980 1.039 o
9 4 3 9.087 4.529 30.463 711.953 o
9 4 4 229.887 376.528 95.329 44.005 o
9 5 0 7065.410 7868.000 191.610 1.996 o
9 5 1 5992.410 5713.040 158.344 2.666 o
9 5 2 12.357 -3.835 62.410 204.594 o
9 5 3 2456.130 2683.690 184.262 6.056 o
9 5 4 3708.050 3852.050 229.905 3.843 o
9 6 0 442.978 499.131 50.162 42.974 o
9 6 1 1822.380 1769.770 93.090 10.405 o
9 6 2 580.464 594.669 73.455 31.001 o
9 6 3 3813.940 3734.420 190.047 4.120 o
9 6 4 18.239 -0.186 25.635 777.534 o
9 7 0 3062.300 3273.590 131.290 5.539 o
9 7 1 5309.730 5256.480 164.951 2.999 o
9 7 2 219.233 173.711 42.033 91.693 o
9 7 3 5064.780 5446.430 287.523 2.558 o
9 8 0 2699.510 2907.270 128.801 6.312 o
9 8 1 369.298 397.096 47.604 51.997 o
9 8 2 7347.880 7230.180 256.862 1.876 o
9 8 3 544.479 539.007 76.703 32.389 o
9 9 0 7051.450 7808.500 234.256 1.924 o
9 9 1 2524.450 2558.990 133.584 6.821 o
9 9 2 397.230 356.444 60.170 47.537 o
9 10 0 174.877 277.191 48.748 84.517 o
9 10 1 1321.130 1203.790 97.221 14.224 o
10 0 0 238.916 268.686 58.069 67.812 o
10 0 2 9334.220 9712.430 372.899 1.239 o
10 0 4 3237.040 3156.790 406.301 2.799 o
10 1 0 7845.100 9012.990 221.917 1.690 o
10 1 1 3329.460 3114.460 145.257 5.194 o
10 1 2 176.576 163.055 36.394 111.247 o
10 1 3 5039.930 4942.860 271.596 2.721 o
10 1 4 2690.240 3478.980 301.325 3.913 o
10 2 0 72.099 75.866 21.192 271.874 o
10 2 1 6802.590 6917.120 213.610 2.121 o
10 2 2 143.631 43.547 34.632 162.590 o
10 2 3 501.418 716.342 101.415 26.744 o
10 2 4 0.113 -20.169 32.362 817.958 o
10 3 0 7054.430 8145.860 184.923 1.980 o
10 3 1 3969.420 3721.880 197.228 3.964 o
10 3 2 376.432 431.310 71.114 43.091 o
10 3 3 4891.880 4822.890 300.878 2.649 o
10 3 4 1507.110 1779.920 194.487 8.381 o
10 4 0 51.932 71.466 24.208 313.104 o
10 4 1 142.875 102.349 44.023 127.545 o
10 4 2 6364.300 6406.090 283.140 2.103 o
10 4 3 0.339 -13.482 29.991 946.208 o
10 5 0 10694.700 11925.200 242.363 1.143 o
10 5 1 1632.050 1584.140 140.911 10.069 o
10 5 2 446.261 381.675 73.809 39.980 o
10 5 3 2796.190 2857.790 199.335 5.315 o
10 6 0 57.466 67.683 23.713 305.721 o
10 6 1 7316.760 6936.930 256.433 1.912 o
10 6 2 207.478 207.768 60.045 75.752 o
10 6 3 434.461 770.706 111.742 25.813 o
10 7 0 5068.240 5583.230 178.629 2.984 o
10 7 1 2123.660 1983.600 141.078 8.086 o
10 7 2 60.435 40.714 38.867 245.531 o
10 8 0 152.921 121.141 32.365 135.722 o
10 8 1 470.182 520.471 63.237 38.254 o
10 8 2 5022.320 4959.750 269.980 2.731 o
10 9 0 6454.030 7088.730 230.776 2.143 o
11 0 0 994.011 1097.900 135.009 14.684 o
11 0 2 4680.690 4789.640 474.442 1.909 o
11 1 0 5520.420 6840.500 223.633 2.447 o
11 1 1 827.117 850.279 79.124 22.270 o
11 1 2 2594.970 2473.280 176.178 6.134 o
11 1 3 3180.450 3187.290 289.099 3.835 o
11 2 0 45.937 55.617 25.442 349.020 o
11 2 1 9686.700 9443.370 492.128 1.063 o
11 2 2 45.765 29.823 39.158 283.958 o
11 2 3 709.982 1133.960 132.406 17.005 o
11 3 0 3111.900 3681.230 185.201 4.750 o
11 3 1 118.338 116.958 42.897 138.372 o
11 3 2 1181.380 1141.900 123.303 14.009 o
11 3 3 4819.740 4726.510 308.170 2.652 o
11 4 0 1699.520 2016.290 140.253 9.180 o
11 4 1 62.229 24.663 26.220 340.677 o
11 4 2 2169.520 2237.990 176.471 6.992 o
11 5 0 5406.730 6234.980 250.360 2.482 o
11 5 1 37.209 57.895 37.245 285.008 o
11 5 2 1753.320 1757.920 158.653 8.873 o
11 6 0 115.700 139.569 41.114 136.917 o
11 6 1 9944.430 9517.040 567.498 0.950 o
11 7 0 2418.510 2596.560 168.802 6.421 o
11 7 1 134.298 109.466 48.971 121.499 o
12 0 0 5080.450 6190.690 339.115 2.237 o
12 1 0 1368.250 1515.790 136.505 11.393 o
12 1 1 203.309 86.072 58.367 90.330 o
12 2 0 458.268 526.827 80.797 34.696 o
12 2 1 8739.170 8054.570 290.459 1.522 o
12 3 0 987.758 1098.950 123.363 15.524 o
12 3 1 404.502 460.339 82.828 37.616 o
12 4 0 4517.240 5251.890 236.838 3.030 o
;
_olex2_submission_special_instructions 'No special instructions were received'
loop_
_space_group_symop_id
_space_group_symop_operation_xyz
1 x,y,z
2 -x,y+1/2,-z+1/2
3 -x,-y,-z
4 x,-y-1/2,z-1/2
loop_
_atom_site_label
_atom_site_type_symbol
_atom_site_fract_x
_atom_site_fract_y
_atom_site_fract_z
_atom_site_U_iso_or_equiv
_atom_site_adp_type
_atom_site_occupancy
_atom_site_refinement_flags_posn
Eu1 Eu 0.42563(5) 0.37078(4) 0.59640(9) 0.0163(2) Uani 1.000000 .
C11 C 1.1031(10) 0.3592(8) 0.8895(17) 0.018(2) Uani 1.000000 .
C12 C 1.0793(11) 0.4518(9) 0.7881(18) 0.024(2) Uani 1.000000 .
H12 H 1.1459(11) 0.4936(9) 0.7582(18) 0.028(3) Uiso 1.000000 R
C13 C 0.9564(10) 0.4814(9) 0.7317(18) 0.022(2) Uani 1.000000 .
H13 H 0.9403(10) 0.5443(9) 0.6681(18) 0.026(3) Uiso 1.000000 R
C14 C 0.8582(10) 0.4176(9) 0.7703(18) 0.022(2) Uani 1.000000 .
C15 C 0.8822(11) 0.3252(9) 0.8698(19) 0.025(3) Uani 1.000000 .
H15 H 0.8157(11) 0.2829(9) 0.8985(19) 0.029(3) Uiso 1.000000 R
C16 C 1.0052(10) 0.2958(9) 0.9267(18) 0.023(2) Uani 1.000000 .
H16 H 1.0212(10) 0.2328(9) 0.9901(18) 0.027(3) Uiso 1.000000 R
C17 C 1.2366(10) 0.3251(9) 0.9353(17) 0.020(2) Uani 1.000000 .
C18 C 0.7258(11) 0.4494(9) 0.698(2) 0.028(3) Uani 1.000000 .
O11 O 1.3243(7) 0.3816(6) 0.8762(12) 0.0205(17) Uani 1.000000 .
O12 O 1.2567(7) 0.2434(6) 1.0289(13) 0.0272(19) Uani 1.000000 .
O13 O 0.7130(7) 0.5361(6) 0.6198(14) 0.030(2) Uani 1.000000 .
O14 O 0.6368(7) 0.3867(7) 0.7247(15) 0.035(2) Uani 1.000000 .
C1 C 0.5429(11) 0.3699(9) 0.2202(19) 0.025(3) Uani 1.000000 .
H1 H 0.4658(11) 0.3947(9) 0.1461(19) 0.030(3) Uiso 1.000000 R
O1 O 0.4899(8) 0.2901(6) 0.2762(15) 0.032(2) Uani 1.000000 .
O2 O 0.5517(8) 0.4491(6) 0.3261(14) 0.031(2) Uani 1.000000 .
loop_
_atom_site_aniso_label
_atom_site_aniso_U_11
_atom_site_aniso_U_22
_atom_site_aniso_U_33
_atom_site_aniso_U_12
_atom_site_aniso_U_13
_atom_site_aniso_U_23
Eu1 0.0121(3) 0.0095(3) 0.0268(4) -0.00117(19) -0.0011(2) 0.0019(2)
C11 0.011(5) 0.018(5) 0.028(6) 0.003(4) 0.014(4) 0.002(5)
C12 0.018(6) 0.020(6) 0.033(7) 0.000(4) -0.003(5) -0.001(5)
C13 0.016(5) 0.019(6) 0.031(6) 0.002(4) 0.001(5) 0.003(5)
C14 0.018(6) 0.016(5) 0.033(6) 0.003(4) -0.001(5) -0.002(5)
C15 0.018(6) 0.020(6) 0.036(7) -0.003(5) 0.003(5) 0.007(5)
C16 0.020(6) 0.018(6) 0.029(6) 0.003(4) -0.005(5) 0.001(5)
C17 0.016(5) 0.020(6) 0.023(6) 0.003(4) -0.001(4) -0.006(5)
C18 0.014(6) 0.027(7) 0.042(7) -0.001(5) -0.008(5) 0.004(6)
O11 0.013(4) 0.019(4) 0.029(4) 0.002(3) -0.000(3) 0.002(3)
O12 0.022(4) 0.019(4) 0.040(5) 0.010(3) 0.000(4) 0.006(4)
O13 0.019(4) 0.021(4) 0.048(6) 0.001(3) -0.008(4) 0.013(4)
O14 0.013(4) 0.032(5) 0.057(6) -0.004(3) -0.010(4) 0.021(4)
C1 0.018(6) 0.023(6) 0.032(7) -0.001(5) -0.007(5) -0.002(5)
O1 0.027(4) 0.013(4) 0.055(6) -0.004(3) 0.005(4) -0.006(4)
O2 0.037(5) 0.012(4) 0.044(5) -0.005(3) 0.008(4) -0.002(4)
loop_
_atom_type_symbol
_atom_type_scat_dispersion_real
_atom_type_scat_dispersion_imag
_atom_type_scat_Cromer_Mann_a1
_atom_type_scat_Cromer_Mann_a2
_atom_type_scat_Cromer_Mann_a3
_atom_type_scat_Cromer_Mann_a4
_atom_type_scat_Cromer_Mann_b1
_atom_type_scat_Cromer_Mann_b2
_atom_type_scat_Cromer_Mann_b3
_atom_type_scat_Cromer_Mann_b4
_atom_type_scat_Cromer_Mann_c
_atom_type_scat_source
_atom_type_scat_dispersion_source
Eu -0.00847 3.77655 24.62740 19.08860 13.76030 2.92270 2.38790 0.19420 13.75460
123.17400 2.57450008392
'International Tables Volume C Table 6.1.1.4 (pp. 500-502)'
'Henke, Gullikson and Davis, At. Data and Nucl. Data Tables, 1993, 54, 2'
H 0.00000 0.00000 0.49300 0.32291 0.14019 0.04081 10.51090 26.12570 3.14236
57.79970 0.0030380000826
'International Tables Volume C Table 6.1.1.4 (pp. 500-502)'
'Henke, Gullikson and Davis, At. Data and Nucl. Data Tables, 1993, 54, 2'
C 0.00347 0.00161 2.31000 1.02000 1.58860 0.86500 20.84390 10.20750 0.56870
51.65120 0.215599998832
'International Tables Volume C Table 6.1.1.4 (pp. 500-502)'
'Henke, Gullikson and Davis, At. Data and Nucl. Data Tables, 1993, 54, 2'
O 0.01158 0.00611 3.04850 2.28680 1.54630 0.86700 13.27710 5.70110 0.32390
32.90890 0.250800013542
'International Tables Volume C Table 6.1.1.4 (pp. 500-502)'
'Henke, Gullikson and Davis, At. Data and Nucl. Data Tables, 1993, 54, 2'
loop_
_geom_angle_atom_site_label_1
_geom_angle_atom_site_label_2
_geom_angle_atom_site_label_3
_geom_angle
_geom_angle_site_symmetry_1
_geom_angle_site_symmetry_3
O12 Eu1 O11 77.8(3) 4_465 1_455
O13 Eu1 O11 100.2(3) 3_666 1_455
O13 Eu1 O12 76.6(3) 3_666 4_465
O14 Eu1 O11 101.1(3) . 1_455
O14 Eu1 O12 145.3(3) . 4_465
O14 Eu1 O13 136.3(3) . 3_666
C1 Eu1 O11 175.4(3) . 1_455
C1 Eu1 O12 101.9(3) . 4_465
C1 Eu1 O13 75.3(3) . 3_666
C1 Eu1 O14 81.8(3) . .
O1 Eu1 O11 76.6(3) 4_566 1_455
O1 Eu1 O11 156.9(3) . 1_455
O1 Eu1 O12 75.0(3) 4_566 4_465
O1 Eu1 O12 80.6(3) . 4_465
O1 Eu1 O13 82.7(3) . 3_666
O1 Eu1 O13 151.5(3) 4_566 3_666
O1 Eu1 O14 71.1(3) 4_566 .
O1 Eu1 O14 91.8(3) . .
O1 Eu1 C1 107.9(3) 4_566 .
O1 Eu1 C1 24.9(3) . .
O2 Eu1 O11 152.8(3) . 1_455
O2 Eu1 O11 78.5(3) 3_666 1_455
O2 Eu1 O12 123.1(3) . 4_465
O2 Eu1 O12 135.8(3) 3_666 4_465
O2 Eu1 O13 71.7(3) . 3_666
O2 Eu1 O13 71.5(3) 3_666 3_666
O2 Eu1 O14 76.0(3) 3_666 .
O2 Eu1 O14 71.9(3) . .
O2 Eu1 C1 98.8(3) 3_666 .
O2 Eu1 C1 25.0(3) . .
O2 Eu1 O1 123.6(3) 3_666 .
O2 Eu1 O1 122.9(3) . 4_566
O2 Eu1 O1 133.5(3) 3_666 4_566
O2 Eu1 O1 49.9(3) . .
C16 C11 C12 119.9(10) . .
C17 C11 C12 118.9(10) . .
C17 C11 C16 120.8(10) . .
C13 C12 C11 120.0(11) . .
C14 C13 C12 119.9(11) . .
C15 C14 C13 120.0(10) . .
C18 C14 C13 118.8(10) . .
C18 C14 C15 121.2(10) . .
C16 C15 C14 120.0(11) . .
C15 C16 C11 120.1(11) . .
O11 C17 C11 118.3(10) . .
O12 C17 C11 118.4(10) . .
O12 C17 O11 123.3(10) . .
O13 C18 C14 116.5(10) . .
O14 C18 C14 118.0(11) . .
O14 C18 O13 125.5(11) . .
C17 O11 Eu1 130.1(7) . 1_655
C17 O12 Eu1 136.9(7) . 4_666
C18 O13 Eu1 141.0(8) . 3_666
C18 O14 Eu1 134.8(8) . .
O1 C1 Eu1 60.0(7) . .
O2 C1 Eu1 60.7(7) . .
O2 C1 O1 120.6(12) . .
C1 O1 Eu1 95.1(7) . .
C1 O1 Eu1 130.7(8) . 4_565
C1 O2 Eu1 157.5(8) . 3_666
C1 O2 Eu1 94.3(7) . .
loop_
_geom_bond_atom_site_label_1
_geom_bond_atom_site_label_2
_geom_bond_distance
_geom_bond_site_symmetry_2
Eu1 O11 2.284(8) 1_455
Eu1 O12 2.342(7) 4_465
Eu1 O13 2.327(8) 3_666
Eu1 O14 2.350(8) .
Eu1 C1 2.959(13) .
Eu1 O1 2.479(8) 4_566
Eu1 O1 2.572(9) .
Eu1 O2 2.588(9) .
Eu1 O2 2.394(8) 3_666
C11 C12 1.394(16) .
C11 C16 1.370(16) .
C11 C17 1.496(15) .
C12 C13 1.387(15) .
C13 C14 1.377(16) .
C14 C15 1.387(17) .
C14 C18 1.509(15) .
C15 C16 1.387(16) .
C17 O11 1.281(14) .
C17 O12 1.242(14) .
C18 O13 1.246(15) .
C18 O14 1.273(14) .
C1 O1 1.252(14) .
C1 O2 1.252(14) .
