#------------------------------------------------------------------------------
#$Date: 2020-03-05 02:16:49 +0200 (Thu, 05 Mar 2020) $
#$Revision: 248980 $
#$URL: file:///home/coder/svn-repositories/cod/cif/7/70/33/7703381.cif $
#------------------------------------------------------------------------------
#
# This file is available in the Crystallography Open Database (COD),
# http://www.crystallography.net/
#
# All data on this site have been placed in the public domain by the
# contributors.
#
data_7703381
loop_
_publ_author_name
'Khrizanforova, Vera'
'Shekurov, Ruslan'
'Miluykov, Vasily'
'Khrizanforov, Mikhail'
'Bon, Volodymyr'
'Kaskel, Stefan'
'Gubaidullin, Aidar'
'Sinyashin, Oleg'
'Budnikova, Yulia'
_publ_section_title
;
 3D Ni and Co redox-active metal-organic frameworks based on ferrocenyl
 diphosphinate and 4,4'-bipyridine ligands as efficient electrocatalysts
 for the hydrogen evolution reaction.
;
_journal_issue                   9
_journal_name_full
'Dalton transactions (Cambridge, England : 2003)'
_journal_page_first              2794
_journal_page_last               2802
_journal_paper_doi               10.1039/c9dt04834k
_journal_volume                  49
_journal_year                    2020
_chemical_formula_sum            'C21 H22 Fe N2 Ni O5 P2'
_chemical_formula_weight         558.90
_chemical_name_systematic        NibpyfcdHp
_space_group_crystal_system      orthorhombic
_space_group_IT_number           52
_space_group_name_Hall           '-P 2a 2bc'
_space_group_name_H-M_alt        'P n n a'
_atom_sites_solution_hydrogens   mixed
_audit_creation_method           SHELXL-2016/4
_audit_update_record
;
2019-12-08 deposited with the CCDC.	2020-01-28 downloaded from the CCDC.
;
_cell_angle_alpha                90
_cell_angle_beta                 90
_cell_angle_gamma                90
_cell_formula_units_Z            4
_cell_length_a                   10.710(2)
_cell_length_b                   17.590(4)
_cell_length_c                   11.290(2)
_cell_measurement_reflns_used    274
_cell_measurement_temperature    263(2)
_cell_measurement_theta_max      25.3
_cell_measurement_theta_min      3.7
_cell_volume                     2126.9(7)
_computing_cell_refinement       'XDSAPP 2.0'
_computing_data_collection       MarCCD
_computing_data_reduction        'XDSAPP 2.0'
_computing_structure_refinement  'SHELXL-2016/4 (Sheldrick, 2016)'
_computing_structure_solution    'SHELXT 2014/5 (Sheldrick, 2014)'
_diffrn_ambient_temperature      263(2)
_diffrn_measured_fraction_theta_full 0.980
_diffrn_measured_fraction_theta_max 0.964
_diffrn_measurement_device_type  'MX-225 CCD'
_diffrn_measurement_method       '\D\f scans'
_diffrn_radiation_monochromator  'Si 111'
_diffrn_radiation_type           synchrotron
_diffrn_radiation_wavelength     0.88556
_diffrn_reflns_av_R_equivalents  0.0569
_diffrn_reflns_av_unetI/netI     0.0354
_diffrn_reflns_Laue_measured_fraction_full 0.980
_diffrn_reflns_Laue_measured_fraction_max 0.964
_diffrn_reflns_limit_h_max       13
_diffrn_reflns_limit_h_min       -13
_diffrn_reflns_limit_k_max       22
_diffrn_reflns_limit_k_min       -22
_diffrn_reflns_limit_l_max       14
_diffrn_reflns_limit_l_min       -14
_diffrn_reflns_number            16045
_diffrn_reflns_point_group_measured_fraction_full 0.980
_diffrn_reflns_point_group_measured_fraction_max 0.964
_diffrn_reflns_theta_full        32.096
_diffrn_reflns_theta_max         35.094
_diffrn_reflns_theta_min         2.886
_diffrn_source                   synchrotron
_diffrn_source_type              'BESSY BL MX-14.2'
_exptl_absorpt_coefficient_mu    3.193
_exptl_absorpt_correction_type   none
_exptl_crystal_colour            red
_exptl_crystal_density_diffrn    1.745
_exptl_crystal_description       block
_exptl_crystal_F_000             1144
_exptl_crystal_size_max          0.080
_exptl_crystal_size_mid          0.050
_exptl_crystal_size_min          0.050
_refine_diff_density_max         1.154
_refine_diff_density_min         -0.722
_refine_diff_density_rms         0.145
_refine_ls_extinction_method     none
_refine_ls_goodness_of_fit_ref   1.234
_refine_ls_hydrogen_treatment    mixed
_refine_ls_matrix_type           full
_refine_ls_number_parameters     156
_refine_ls_number_reflns         2354
_refine_ls_number_restraints     1
_refine_ls_restrained_S_all      2.361
_refine_ls_R_factor_all          0.0542
_refine_ls_R_factor_gt           0.0426
_refine_ls_shift/su_max          0.001
_refine_ls_shift/su_mean         0.000
_refine_ls_structure_factor_coef Fsqd
_refine_ls_weighting_details
'w=1/[\s^2^(Fo^2^)+(0.0581P)^2^+3.6743P] where P=(Fo^2^+2Fc^2^)/3'
_refine_ls_weighting_scheme      calc
_refine_ls_wR_factor_gt          0.1078
_refine_ls_wR_factor_ref         0.1230
_reflns_Friedel_coverage         0.000
_reflns_number_gt                2036
_reflns_number_total             2354
_reflns_threshold_expression     'I > 2\s(I)'
_cod_data_source_file            c9dt04834k2.cif
_cod_data_source_block           rs488_a
_cod_depositor_comments          'Adding full bibliography for 7703381.cif.'
_cod_database_code               7703381
_shelx_shelxl_version_number     2016/4
_shelx_space_group_comment
;
The symmetry employed for this shelxl refinement is uniquely defined
by the following loop, which should always be used as a source of
symmetry information in preference to the above space-group names.
They are only intended as comments.
;
_shelx_estimated_absorpt_t_min   0.784
_shelx_estimated_absorpt_t_max   0.857
_shelx_res_file
;
TITL rs488_a.res in Pnna
 rs488_a.res created by SHELXL-2016/4 at 17:45:06 on 09-Jan-2019
CELL  0.88556  10.7100  17.5900  11.2900   90.000   90.000   90.000
ZERR    4.000   0.0021   0.0035   0.0023    0.000    0.000    0.000
LATT 1
SYMM 1/2-X, -Y, Z
SYMM 1/2-X, 1/2+Y, 1/2-Z
SYMM X, 1/2-Y, 1/2-Z
SFAC C  H  N  O  P  Fe Ni
DISP  C     0.006     0.003      18.6
DISP  H     0.000     0.000       0.7
DISP Fe     0.341     1.259    6368.3
DISP  N     0.010     0.005      33.8
DISP Ni     0.249     1.644    8310.2
DISP  O     0.018     0.010      57.9
DISP  P     0.146     0.148     767.2
UNIT 84  88  8  20  8  4  4
L.S. 50
ACTA
omit   2   4  14
omit    12  10   0
omit   12   4   6
omit     1   4  14
omit    10  11   7
omit     1   5  13
omit    12   7   5
omit    13   0   5
rem omit -3 62
BOND $H
temp -10
FMAP 2
PLAN 20
size 0.05 0.05 0.08
WGHT    0.058100    3.674300
FVAR       0.47373
NI1   7    0.250000    0.500000    0.995473    10.50000    0.01421    0.00883 =
         0.00133    0.00000    0.00000    0.00054
FE1   6    0.549707    0.250000    0.750000    10.50000    0.02509    0.00676 =
         0.00730   -0.00325    0.00000    0.00000
P1    5    0.488505    0.399195    0.943278    11.00000    0.01702    0.00692 =
         0.00514   -0.00285    0.00025    0.00065
H1P   2    0.489278    0.434543    0.844747    11.00000   -1.20000
O1    4    0.359387    0.402525    0.995169    11.00000    0.01730    0.01086 =
         0.01340   -0.00172    0.00087    0.00094
O2    4    0.593188    0.431046    1.015338    11.00000    0.01808    0.01488 =
         0.01813   -0.00292   -0.00197   -0.00469
N1    3    0.250000    0.500000    0.809823    10.50000    0.01929    0.01559 =
         0.00156    0.00000    0.00000   -0.00121
N2    3    0.250000    0.500000    0.182666    10.50000    0.02382    0.01618 =
         0.00300    0.00000    0.00000   -0.00387
C7    1    0.523613    0.301228    0.912160    11.00000    0.02584    0.01122 =
         0.00405   -0.00417    0.00045    0.00056
C4    1    0.250000    0.500000    0.431160    10.50000    0.03734    0.01450 =
         0.00569    0.00000    0.00000   -0.00728
C8    1    0.647441    0.271826    0.902946    11.00000    0.02889    0.01940 =
         0.01318   -0.00625   -0.00723    0.00884
AFIX  43
H8    2    0.720869    0.299730    0.909543    11.00000   -1.20000
AFIX   0
C11   1    0.439530    0.239162    0.897059    11.00000    0.03352    0.01714 =
         0.01447   -0.00450    0.00819   -0.00504
AFIX  43
H11   2    0.352832    0.241987    0.898474    11.00000   -1.20000
AFIX   0
C10   1    0.511622    0.172045    0.879419    11.00000    0.06410    0.01050 =
         0.01223   -0.00105    0.00545   -0.00218
AFIX  43
H10   2    0.480253    0.123273    0.868204    11.00000   -1.20000
AFIX   0
C1    1    0.218131    0.438012    0.748734    11.00000    0.03943    0.02046 =
         0.00784    0.00116    0.00024   -0.00862
AFIX  43
H1    2    0.195523    0.394507    0.790340    11.00000   -1.20000
AFIX   0
C3    1    0.250000    0.500000    0.562901    10.50000    0.02849    0.02362 =
         0.00170    0.00000    0.00000    0.00084
C6    1    0.158034    0.532928    0.244505    11.00000    0.02430    0.02148 =
         0.01044   -0.00124   -0.00079    0.00115
AFIX  43
H6    2    0.093698    0.556437    0.203044    11.00000   -1.20000
AFIX   0
C5    1    0.153905    0.533734    0.367347    11.00000    0.02637    0.02418 =
         0.00877   -0.00325    0.00196    0.00348
AFIX  43
H5    2    0.087458    0.556632    0.406582    11.00000   -1.20000
AFIX   0
C9    1    0.638655    0.192497    0.881940    11.00000    0.05457    0.01975 =
         0.01353   -0.00070   -0.00299    0.01982
AFIX  43
H9    2    0.705633    0.159513    0.871568    11.00000   -1.20000
AFIX   0
C2    1    0.217239    0.435609    0.626367    11.00000    0.05031    0.02055 =
         0.00887   -0.00314   -0.00221   -0.00988
AFIX  43
H2    2    0.194865    0.391202    0.587021    11.00000   -1.20000
AFIX   0
dfix 0.86 0.005 o3 h3o
O3    4   -0.008227    0.250000    0.750000    10.50000    0.11891    0.30883 =
         0.16857   -0.07960    0.00000    0.00000
AFIX   3
H3O   2   -0.047547    0.314700    0.778600    10.50000   -1.50000
AFIX   0
PART   2
C12   1    0.092237    0.242771    0.810916    10.50000    0.13729    0.15613 =
         0.06836   -0.03902   -0.02785    0.08214
AFIX 133
H12A  2    0.071369    0.237067    0.893132    10.50000   -1.50000
H12B  2    0.143336    0.287133    0.800745    10.50000   -1.50000
H12C  2    0.137160    0.198707    0.784441    10.50000   -1.50000
PART   0

AFIX   0
HKLF 4




REM  rs488_a.res in Pnna
REM R1 =  0.0426 for    2036 Fo > 4sig(Fo)  and  0.0542 for all    2354 data
REM    156 parameters refined using      1 restraints

END

WGHT      0.0660      4.9220

REM Highest difference peak  1.154,  deepest hole -0.722,  1-sigma level  0.145
Q1    1   0.4561  0.2500  0.7500  10.50000  0.05    1.15
Q2    1   0.0019  0.1960  0.8265  11.00000  0.05    0.73
Q3    1   0.5736  0.2989  0.7397  11.00000  0.05    0.71
Q4    1   0.2439  0.4538  0.9998  11.00000  0.05    0.70
Q5    1   0.5052  0.3494  0.9386  11.00000  0.05    0.68
Q6    1   0.1299  0.2516  0.8195  11.00000  0.05    0.66
Q7    1   0.5209  0.2911  0.7717  11.00000  0.05    0.62
Q8    1   0.5653  0.4005  1.0514  11.00000  0.05    0.55
Q9    1   0.4588  0.2678  0.9351  11.00000  0.05    0.54
Q10   1   0.4105  0.4283  0.9820  11.00000  0.05    0.54
Q11   1   0.4545  0.1997  0.8827  11.00000  0.05    0.54
Q12   1   0.2498  0.4790  0.9357  11.00000  0.05    0.54
Q13   1   0.5530  0.3907  0.9866  11.00000  0.05    0.52
Q14   1   0.4991  0.4498  1.0633  11.00000  0.05    0.51
Q15   1   0.3746  0.3840  0.9459  11.00000  0.05    0.51
Q16   1   0.6432  0.4072  1.0067  11.00000  0.05    0.51
Q17   1   0.5031  0.4185  0.9950  11.00000  0.05    0.51
Q18   1   0.1230  0.2500  0.7500  10.50000  0.05    0.50
Q19   1   0.2500  0.5000  0.7487  10.50000  0.05    0.49
Q20   1   0.5110  0.4428  0.9300  11.00000  0.05    0.48
;
_shelx_res_checksum              81587
loop_
_space_group_symop_operation_xyz
'x, y, z'
'-x+1/2, -y, z'
'-x+1/2, y+1/2, -z+1/2'
'x, -y+1/2, -z+1/2'
'-x, -y, -z'
'x-1/2, y, -z'
'x-1/2, -y-1/2, z-1/2'
'-x, y-1/2, z-1/2'
loop_
_atom_site_label
_atom_site_type_symbol
_atom_site_fract_x
_atom_site_fract_y
_atom_site_fract_z
_atom_site_U_iso_or_equiv
_atom_site_adp_type
_atom_site_occupancy
_atom_site_site_symmetry_order
_atom_site_calc_flag
_atom_site_refinement_flags_posn
_atom_site_refinement_flags_adp
_atom_site_refinement_flags_occupancy
_atom_site_disorder_assembly
_atom_site_disorder_group
NI1 Ni 0.250000 0.500000 0.99547(4) 0.00812(18) Uani 1 2 d S T P . .
FE1 Fe 0.54971(6) 0.250000 0.750000 0.01305(19) Uani 1 2 d S T P . .
P1 P 0.48851(7) 0.39920(4) 0.94328(6) 0.0097(2) Uani 1 1 d . . . . .
H1P H 0.489(3) 0.435(2) 0.845(3) 0.012 Uiso 1 1 d . U . . .
O1 O 0.3594(2) 0.40253(11) 0.99517(18) 0.0139(5) Uani 1 1 d . . . . .
O2 O 0.5932(2) 0.43105(12) 1.01534(19) 0.0170(5) Uani 1 1 d . . . . .
N1 N 0.250000 0.500000 0.8098(3) 0.0121(7) Uani 1 2 d S T P . .
N2 N 0.250000 0.500000 0.1827(3) 0.0143(7) Uani 1 2 d S T P . .
C7 C 0.5236(3) 0.30123(17) 0.9122(3) 0.0137(6) Uani 1 1 d . . . . .
C4 C 0.250000 0.500000 0.4312(4) 0.0192(10) Uani 1 2 d S T P . .
C8 C 0.6474(3) 0.27183(18) 0.9029(3) 0.0205(7) Uani 1 1 d . . . . .
H8 H 0.720869 0.299730 0.909543 0.025 Uiso 1 1 calc R U . . .
C11 C 0.4395(3) 0.23916(18) 0.8971(3) 0.0217(7) Uani 1 1 d . . . . .
H11 H 0.352832 0.241987 0.898474 0.026 Uiso 1 1 calc R U . . .
C10 C 0.5116(4) 0.1720(2) 0.8794(3) 0.0289(9) Uani 1 1 d . . . . .
H10 H 0.480253 0.123273 0.868204 0.035 Uiso 1 1 calc R U . . .
C1 C 0.2181(4) 0.43801(19) 0.7487(3) 0.0226(7) Uani 1 1 d . . . . .
H1 H 0.195523 0.394507 0.790340 0.027 Uiso 1 1 calc R U . . .
C3 C 0.250000 0.500000 0.5629(4) 0.0179(9) Uani 1 2 d S T P . .
C6 C 0.1580(3) 0.53293(19) 0.2445(3) 0.0187(7) Uani 1 1 d . . . . .
H6 H 0.093698 0.556437 0.203044 0.022 Uiso 1 1 calc R U . . .
C5 C 0.1539(3) 0.53373(19) 0.3673(3) 0.0198(7) Uani 1 1 d . . . . .
H5 H 0.087458 0.556632 0.406582 0.024 Uiso 1 1 calc R U . . .
C9 C 0.6387(4) 0.1925(2) 0.8819(3) 0.0293(8) Uani 1 1 d . . . . .
H9 H 0.705633 0.159513 0.871568 0.035 Uiso 1 1 calc R U . . .
C2 C 0.2172(4) 0.43561(19) 0.6264(3) 0.0266(8) Uani 1 1 d . . . . .
H2 H 0.194865 0.391202 0.587021 0.032 Uiso 1 1 calc R U . . .
O3 O -0.0082(12) 0.250000 0.750000 0.199(7) Uani 1 2 d DS T P . .
H3O H -0.047547 0.314700 0.778600 0.298 Uiso 0.5 1 d DR U P A .
C12 C 0.0922(19) 0.2428(11) 0.8109(15) 0.121(8) Uani 0.5 1 d . . P A 2
H12A H 0.071369 0.237067 0.893132 0.181 Uiso 0.5 1 calc R U P A 2
H12B H 0.143336 0.287133 0.800745 0.181 Uiso 0.5 1 calc R U P A 2
H12C H 0.137160 0.198707 0.784441 0.181 Uiso 0.5 1 calc R U P A 2
loop_
_atom_site_aniso_label
_atom_site_aniso_U_11
_atom_site_aniso_U_22
_atom_site_aniso_U_33
_atom_site_aniso_U_23
_atom_site_aniso_U_13
_atom_site_aniso_U_12
NI1 0.0142(3) 0.0088(3) 0.0013(3) 0.000 0.000 0.00054(18)
FE1 0.0251(4) 0.0068(3) 0.0073(3) -0.0032(2) 0.000 0.000
P1 0.0170(4) 0.0069(4) 0.0051(4) -0.0029(2) 0.0002(3) 0.0006(2)
O1 0.0173(10) 0.0109(10) 0.0134(11) -0.0017(7) 0.0009(8) 0.0009(8)
O2 0.0181(11) 0.0149(11) 0.0181(11) -0.0029(8) -0.0020(8) -0.0047(9)
N1 0.0193(17) 0.0156(17) 0.0016(16) 0.000 0.000 -0.0012(13)
N2 0.0238(19) 0.0162(18) 0.0030(17) 0.000 0.000 -0.0039(14)
C7 0.0258(15) 0.0112(13) 0.0040(14) -0.0042(10) 0.0005(11) 0.0006(12)
C4 0.037(3) 0.014(2) 0.006(2) 0.000 0.000 -0.0073(17)
C8 0.0289(17) 0.0194(15) 0.0132(15) -0.0062(12) -0.0072(12) 0.0088(13)
C11 0.0335(19) 0.0171(16) 0.0145(17) -0.0045(12) 0.0082(13) -0.0050(13)
C10 0.064(3) 0.0105(15) 0.0122(17) -0.0011(12) 0.0054(15) -0.0022(15)
C1 0.0394(19) 0.0205(16) 0.0078(15) 0.0012(12) 0.0002(13) -0.0086(15)
C3 0.028(2) 0.024(2) 0.002(2) 0.000 0.000 0.0008(17)
C6 0.0243(16) 0.0215(15) 0.0104(15) -0.0012(11) -0.0008(12) 0.0011(13)
C5 0.0264(16) 0.0242(16) 0.0088(15) -0.0033(12) 0.0020(12) 0.0035(13)
C9 0.055(2) 0.0197(17) 0.0135(16) -0.0007(12) -0.0030(15) 0.0198(16)
C2 0.050(2) 0.0205(17) 0.0089(15) -0.0031(12) -0.0022(14) -0.0099(16)
O3 0.119(10) 0.31(2) 0.169(14) -0.080(13) 0.000 0.000
C12 0.137(16) 0.156(17) 0.068(9) -0.039(10) -0.028(11) 0.082(14)
loop_
_atom_type_symbol
_atom_type_description
_atom_type_scat_dispersion_real
_atom_type_scat_dispersion_imag
_atom_type_scat_source
C C 0.0060 0.0030 'International Tables Vol C Tables 4.2.6.8 and 6.1.1.4'
H H 0.0000 0.0000 'International Tables Vol C Tables 4.2.6.8 and 6.1.1.4'
N N 0.0100 0.0050 'International Tables Vol C Tables 4.2.6.8 and 6.1.1.4'
O O 0.0180 0.0100 'International Tables Vol C Tables 4.2.6.8 and 6.1.1.4'
P P 0.1460 0.1480 'International Tables Vol C Tables 4.2.6.8 and 6.1.1.4'
Fe Fe 0.3410 1.2590 'International Tables Vol C Tables 4.2.6.8 and 6.1.1.4'
Ni Ni 0.2490 1.6440 'International Tables Vol C Tables 4.2.6.8 and 6.1.1.4'
loop_
_geom_angle_atom_site_label_1
_geom_angle_atom_site_label_2
_geom_angle_atom_site_label_3
_geom_angle
_geom_angle_site_symmetry_1
_geom_angle_site_symmetry_3
O2 NI1 O2 173.25(12) 6_557 5_667
O2 NI1 O1 88.50(8) 6_557 .
O2 NI1 O1 91.49(8) 5_667 .
O2 NI1 O1 91.49(8) 6_557 2_565
O2 NI1 O1 88.50(8) 5_667 2_565
O1 NI1 O1 179.81(11) . 2_565
O2 NI1 N1 86.63(6) 6_557 .
O2 NI1 N1 86.63(6) 5_667 .
O1 NI1 N1 89.91(6) . .
O1 NI1 N1 89.90(6) 2_565 .
O2 NI1 N2 93.37(6) 6_557 1_556
O2 NI1 N2 93.37(6) 5_667 1_556
O1 NI1 N2 90.09(6) . 1_556
O1 NI1 N2 90.10(6) 2_565 1_556
N1 NI1 N2 180.0 . 1_556
C9 FE1 C9 124.2(2) . 4_556
C9 FE1 C11 68.28(15) . .
C9 FE1 C11 155.43(14) 4_556 .
C9 FE1 C11 155.43(14) . 4_556
C9 FE1 C11 68.28(15) 4_556 4_556
C11 FE1 C11 109.6(2) . 4_556
C9 FE1 C10 40.34(16) . .
C9 FE1 C10 161.58(17) 4_556 .
C11 FE1 C10 40.76(14) . .
C11 FE1 C10 121.83(16) 4_556 .
C9 FE1 C10 161.58(18) . 4_556
C9 FE1 C10 40.34(16) 4_556 4_556
C11 FE1 C10 121.83(16) . 4_556
C11 FE1 C10 40.76(14) 4_556 4_556
C10 FE1 C10 157.0(2) . 4_556
C9 FE1 C8 106.47(15) . 4_556
C9 FE1 C8 40.56(13) 4_556 4_556
C11 FE1 C8 163.36(12) . 4_556
C11 FE1 C8 68.24(15) 4_556 4_556
C10 FE1 C8 125.21(14) . 4_556
C10 FE1 C8 68.07(15) 4_556 4_556
C9 FE1 C8 40.56(13) . .
C9 FE1 C8 106.47(15) 4_556 .
C11 FE1 C8 68.24(15) . .
C11 FE1 C8 163.36(12) 4_556 .
C10 FE1 C8 68.07(15) . .
C10 FE1 C8 125.21(14) 4_556 .
C8 FE1 C8 118.8(2) 4_556 .
C9 FE1 C7 119.75(13) . 4_556
C9 FE1 C7 68.32(12) 4_556 4_556
C11 FE1 C7 127.04(13) . 4_556
C11 FE1 C7 40.63(12) 4_556 4_556
C10 FE1 C7 108.35(13) . 4_556
C10 FE1 C7 68.35(13) 4_556 4_556
C8 FE1 C7 40.59(13) 4_556 4_556
C8 FE1 C7 153.84(13) . 4_556
C9 FE1 C7 68.33(12) . .
C9 FE1 C7 119.75(13) 4_556 .
C11 FE1 C7 40.63(12) . .
C11 FE1 C7 127.04(13) 4_556 .
C10 FE1 C7 68.36(13) . .
C10 FE1 C7 108.34(13) 4_556 .
C8 FE1 C7 153.84(13) 4_556 .
C8 FE1 C7 40.59(13) . .
C7 FE1 C7 164.40(18) 4_556 .
O2 P1 O1 117.61(12) . .
O2 P1 C7 107.98(14) . .
O1 P1 C7 107.81(13) . .
O2 P1 H1P 106.7(15) . .
O1 P1 H1P 109.1(14) . .
C7 P1 H1P 107.2(17) . .
P1 O1 NI1 123.50(12) . .
P1 O2 NI1 142.59(14) . 5_667
C1 N1 C1 117.8(4) 2_565 .
C1 N1 NI1 121.12(18) 2_565 .
C1 N1 NI1 121.12(18) . .
C6 N2 C6 117.1(4) . 2_565
C6 N2 NI1 121.43(19) . 1_554
C6 N2 NI1 121.43(19) 2_565 1_554
C11 C7 C8 107.5(3) . .
C11 C7 P1 128.7(3) . .
C8 C7 P1 123.8(2) . .
C11 C7 FE1 69.16(17) . .
C8 C7 FE1 69.55(17) . .
P1 C7 FE1 128.41(16) . .
C5 C4 C5 117.5(4) . 2_565
C5 C4 C3 121.2(2) . .
C5 C4 C3 121.2(2) 2_565 .
C9 C8 C7 107.9(3) . .
C9 C8 FE1 69.02(18) . .
C7 C8 FE1 69.86(17) . .
C9 C8 H8 126.1 . .
C7 C8 H8 126.1 . .
FE1 C8 H8 126.6 . .
C10 C11 C7 108.0(3) . .
C10 C11 FE1 69.58(19) . .
C7 C11 FE1 70.20(18) . .
C10 C11 H11 126.0 . .
C7 C11 H11 126.0 . .
FE1 C11 H11 125.8 . .
C9 C10 C11 108.0(3) . .
C9 C10 FE1 69.5(2) . .
C11 C10 FE1 69.7(2) . .
C9 C10 H10 126.0 . .
C11 C10 H10 126.0 . .
FE1 C10 H10 126.4 . .
N1 C1 C2 122.9(3) . .
N1 C1 H1 118.5 . .
C2 C1 H1 118.5 . .
C2 C3 C2 117.7(4) 2_565 .
C2 C3 C4 121.1(2) 2_565 .
C2 C3 C4 121.1(2) . .
N2 C6 C5 123.3(3) . .
N2 C6 H6 118.4 . .
C5 C6 H6 118.4 . .
C6 C5 C4 119.4(3) . .
C6 C5 H5 120.3 . .
C4 C5 H5 120.3 . .
C10 C9 C8 108.6(3) . .
C10 C9 FE1 70.1(2) . .
C8 C9 FE1 70.42(18) . .
C10 C9 H9 125.7 . .
C8 C9 H9 125.7 . .
FE1 C9 H9 125.3 . .
C1 C2 C3 119.4(3) . .
C1 C2 H2 120.3 . .
C3 C2 H2 120.3 . .
C12b O3 C12 66.0(19) . 4_556
C12b O3 H3O 103.5 . .
C12b O3 H3O 109.2 4_556 .
O3 C12b C12 57.0(9) . 4_556
O3 C12b H12A 109.5 . .
C12b C12b H12A 165.9 4_556 .
O3 C12b H12B 109.5 . .
C12b C12b H12B 74.6 4_556 .
H12Ab C12b H12B 109.5 . .
O3 C12b H12C 109.5 . .
C12b C12b H12C 80.8 4_556 .
H12Ab C12b H12C 109.5 . .
H12Bb C12b H12C 109.5 . .
loop_
_geom_bond_atom_site_label_1
_geom_bond_atom_site_label_2
_geom_bond_distance
_geom_bond_site_symmetry_2
NI1 O2 2.075(2) 6_557
NI1 O2 2.075(2) 5_667
NI1 O1 2.077(2) .
NI1 O1 2.077(2) 2_565
NI1 N1 2.096(3) .
NI1 N2 2.113(4) 1_556
FE1 C9 2.037(3) .
FE1 C9 2.037(3) 4_556
FE1 C11 2.046(3) .
FE1 C11 2.046(3) 4_556
FE1 C10 2.045(4) .
FE1 C10 2.045(4) 4_556
FE1 C8 2.055(3) 4_556
FE1 C8 2.055(3) .
FE1 C7 2.060(3) 4_556
FE1 C7 2.060(3) .
P1 O2 1.494(2) .
P1 O1 1.503(2) .
P1 C7 1.798(3) .
P1 H1P 1.27(4) .
O2 NI1 2.075(2) 5_667
N1 C1 1.335(4) 2_565
N1 C1 1.335(4) .
N2 C6 1.339(4) .
N2 C6 1.339(4) 2_565
N2 NI1 2.113(4) 1_554
C7 C11 1.425(4) .
C7 C8 1.427(5) .
C4 C5 1.389(4) .
C4 C5 1.389(4) 2_565
C4 C3 1.487(7) .
C8 C9 1.419(5) .
C8 H8 0.9300 .
C11 C10 1.425(5) .
C11 H11 0.9300 .
C10 C9 1.408(6) .
C10 H10 0.9300 .
C1 C2 1.382(4) .
C1 H1 0.9300 .
C3 C2 1.385(4) 2_565
C3 C2 1.385(4) .
C6 C5 1.388(4) .
C6 H6 0.9300 .
C5 H5 0.9300 .
C9 H9 0.9300 .
C2 H2 0.9300 .
O3 C12 1.283(18) .
O3 C12 1.283(18) 4_556
O3 H3O 1.2557 .
C12b C12 1.40(3) 4_556
C12b H12A 0.9600 .
C12b H12B 0.9600 .
C12b H12C 0.9600 .
