#------------------------------------------------------------------------------
#$Date: 2020-06-05 13:38:31 +0300 (Fri, 05 Jun 2020) $
#$Revision: 252753 $
#$URL: file:///home/coder/svn-repositories/cod/cif/7/70/40/7704028.cif $
#------------------------------------------------------------------------------
#
# This file is available in the Crystallography Open Database (COD),
# http://www.crystallography.net/
#
# All data on this site have been placed in the public domain by the
# contributors.
#
data_7704028
loop_
_publ_author_name
'Li, Jingyang'
'He, Ying'
'Wang, Li'
'Pan, Qinhe'
'Song, Zhiguang'
'Shi, Xiaodong'
_publ_section_title
;
 Design and synthesis of photoluminescent active interpenetrating
 metal-organic frameworks using N-2-aryl-1,2,3-triazole ligands.
;
_journal_issue                   17
_journal_name_full
'Dalton transactions (Cambridge, England : 2003)'
_journal_page_first              5429
_journal_page_last               5433
_journal_paper_doi               10.1039/d0dt00933d
_journal_volume                  49
_journal_year                    2020
_chemical_formula_sum            'C101 H69 N15 O36 Zn7'
_chemical_formula_weight         2526.30
_space_group_crystal_system      monoclinic
_space_group_IT_number           14
_space_group_name_Hall           '-P 2ybc'
_space_group_name_H-M_alt        'P 1 21/c 1'
_atom_sites_solution_hydrogens   gemo
_audit_creation_method           SHELXL-2014/7
_audit_update_record
;
2019-12-25 deposited with the CCDC.	2020-04-08 downloaded from the CCDC.
;
_cell_angle_alpha                90
_cell_angle_beta                 92.371(2)
_cell_angle_gamma                90
_cell_formula_units_Z            4
_cell_length_a                   29.6681(15)
_cell_length_b                   27.6756(17)
_cell_length_c                   14.3832(7)
_cell_measurement_reflns_used    2993
_cell_measurement_temperature    278(2)
_cell_measurement_theta_max      25
_cell_measurement_theta_min      2.3
_cell_volume                     11799.7(11)
_computing_cell_refinement       'Bruker SMART'
_computing_data_collection       'Bruker SMART'
_computing_data_reduction        'Bruker SAINT'
_computing_molecular_graphics    'Bruker SHELXTL'
_computing_publication_material  'Bruker SHELXTL'
_computing_structure_refinement  'SHELXL-2014/7 (Sheldrick, 2014)'
_computing_structure_solution    'Bruker SHELXTL'
_diffrn_ambient_temperature      278(2)
_diffrn_measured_fraction_theta_full 0.959
_diffrn_measured_fraction_theta_max 0.959
_diffrn_measurement_device_type  'CCD area detector'
_diffrn_measurement_method       'phi and omega scans'
_diffrn_radiation_type           MoK\a
_diffrn_radiation_wavelength     0.71073
_diffrn_reflns_av_R_equivalents  0.0921
_diffrn_reflns_av_unetI/netI     0.1228
_diffrn_reflns_Laue_measured_fraction_full 0.959
_diffrn_reflns_Laue_measured_fraction_max 0.959
_diffrn_reflns_limit_h_max       34
_diffrn_reflns_limit_h_min       -35
_diffrn_reflns_limit_k_max       32
_diffrn_reflns_limit_k_min       -26
_diffrn_reflns_limit_l_max       17
_diffrn_reflns_limit_l_min       -15
_diffrn_reflns_number            66423
_diffrn_reflns_point_group_measured_fraction_full 0.959
_diffrn_reflns_point_group_measured_fraction_max 0.959
_diffrn_reflns_theta_full        25.000
_diffrn_reflns_theta_max         25.000
_diffrn_reflns_theta_min         2.312
_exptl_absorpt_coefficient_mu    1.481
_exptl_absorpt_correction_type   none
_exptl_crystal_colour            colorless
_exptl_crystal_density_diffrn    1.422
_exptl_crystal_description       block
_exptl_crystal_F_000             5112
_exptl_crystal_size_max          0.1
_exptl_crystal_size_mid          0.1
_exptl_crystal_size_min          0.1
_platon_squeeze_details
;
;
_refine_diff_density_max         1.850
_refine_diff_density_min         -1.634
_refine_diff_density_rms         0.124
_refine_ls_extinction_method     none
_refine_ls_goodness_of_fit_ref   1.089
_refine_ls_hydrogen_treatment    constr
_refine_ls_matrix_type           full
_refine_ls_number_parameters     1436
_refine_ls_number_reflns         19915
_refine_ls_number_restraints     2412
_refine_ls_restrained_S_all      1.078
_refine_ls_R_factor_all          0.1539
_refine_ls_R_factor_gt           0.0935
_refine_ls_shift/su_max          0.006
_refine_ls_shift/su_mean         0.000
_refine_ls_structure_factor_coef Fsqd
_refine_ls_weighting_details
'w=1/[\s^2^(Fo^2^)+(0.1349P)^2^] where P=(Fo^2^+2Fc^2^)/3'
_refine_ls_weighting_scheme      calc
_refine_ls_wR_factor_gt          0.2412
_refine_ls_wR_factor_ref         0.2665
_reflns_Friedel_coverage         0.000
_reflns_number_gt                10827
_reflns_number_total             19915
_reflns_threshold_expression     'I > 2\s(I)'
_cod_data_source_file            d0dt00933d2.cif
_cod_data_source_block           ljy
_cod_depositor_comments
'Adding full bibliography for 7704028--7704029.cif.'
_cod_original_sg_symbol_H-M      'P 21/c'
_cod_database_code               7704028
_shelx_shelxl_version_number     2014/7
_shelx_space_group_comment
;
The symmetry employed for this shelxl refinement is uniquely defined
by the following loop, which should always be used as a source of
symmetry information in preference to the above space-group names.
They are only intended as comments.
;
_shelx_res_file
;

    ljy.res created by SHELXL-2014/7

TITL LJY in P2(1)/c                   P21/c New:P21/c
CELL  0.71073   29.6681   27.6756   14.3832    90.000    92.371    90.000
ZERR        4    0.0015    0.0017    0.0007     0.000     0.002     0.000
LATT 1
SYMM             - X ,    0.50000 + Y ,    0.50000 - Z
SFAC C  H  N  O  Zn
UNIT 404 276 60 144 28
OMIT   0.00  50.00
L.S. 8
ACTA
BOND $H
FMAP 2
PLAN 0
simu 0.01 0.02 C89 C33 O19 O18
simu 0.01 0.02 N14 C95 C98 C97
simu 0.01 0.02 N2 C103 C100 C102
simu 0.005 0.01 3.8 $O
simu 0.005 0.01 3.8 $C
simu 0.01 0.02 3.8 O23 C81 C21 O24
SIMU 0.005 0.01 3.8 O36 O18 O13 O16
ISOR 0.01 O3 O36 C103 O25 O35 O10 O16
CONF
WGHT    0.134900
FVAR       0.41344
RESI 0
TEMP     5
ZN7   5    0.749454    1.094708    0.758280    11.00000    0.03185    0.03816 =
         0.08027   -0.00571   -0.00033   -0.00533
O36   4    0.743511    1.100637    0.621730    11.00000    0.10126    0.10169 =
         0.13742   -0.00611   -0.01816   -0.00586
C1    1    1.135511    1.135508    0.033965    11.00000    0.03473    0.06258 =
         0.05786    0.00880    0.01025    0.01094
C2    1    0.634690    0.872760    0.701812    11.00000    0.02491    0.03441 =
         0.04322   -0.00168   -0.00248    0.00037
C3    1    0.389085    0.699598    0.514428    11.00000    0.02567    0.04960 =
         0.04603    0.00181   -0.00584    0.00143
AFIX  43
H3    2    0.367257    0.721879    0.494705    11.00000   -1.20000
AFIX   0
C4    1    0.587746    0.871950    0.699512    11.00000    0.02622    0.03643 =
         0.04498   -0.00076   -0.00167    0.00235
AFIX  43
H4    2    0.572240    0.900769    0.707389    11.00000   -1.20000
AFIX   0
C5    1    0.573166    1.246276    0.202124    11.00000    0.03196    0.05037 =
         0.05144    0.00402   -0.00529   -0.00110
C6    1    0.463706    0.682051    0.576817    11.00000    0.02477    0.04482 =
         0.04465    0.00165   -0.00450   -0.00167
C7    1    1.142180    0.665671    0.491039    11.00000    0.03427    0.08256 =
         0.07026    0.00071    0.00938    0.00570
C8    1    0.624619    0.697244    0.824363    11.00000    0.02560    0.03442 =
         0.04360   -0.00048   -0.00420    0.00352
AFIX  43
H8    2    0.618183    0.729784    0.833009    11.00000   -1.20000
AFIX   0
C9    1    0.543019    1.204205    0.183113    11.00000    0.03107    0.05116 =
         0.05027    0.00479   -0.00487   -0.00126
C10   1    0.444435    1.158285    0.082408    11.00000    0.03265    0.06361 =
         0.04829   -0.00051   -0.00471   -0.00289
C11   1    1.058131    0.676748    0.563725    11.00000    0.03084    0.07117 =
         0.06460    0.00201    0.00721    0.00511
C12   1    0.867897    0.593595    0.851762    11.00000    0.02938    0.04648 =
         0.04494    0.00308    0.00419   -0.00357
C13   1    1.056008    1.158123    0.119310    11.00000    0.03539    0.06133 =
         0.05915    0.00766    0.01116    0.00684
C14   1    0.549197    1.155045    0.202560    11.00000    0.03127    0.05241 =
         0.05051    0.00568   -0.00474    0.00005
C15   1    0.559671    0.742109    0.660701    11.00000    0.02259    0.03566 =
         0.04269   -0.00005   -0.00413    0.00241
C16   1    0.411908    0.618310    0.538836    11.00000    0.02704    0.04946 =
         0.04800    0.00233   -0.00585   -0.00449
AFIX  43
H16   2    0.405401    0.585451    0.536446    11.00000   -1.20000
AFIX   0
C17   1    0.659803    0.918733    0.715736    11.00000    0.02646    0.03554 =
         0.04579   -0.00159   -0.00111   -0.00109
C18   1    0.603884    0.672027    0.750482    11.00000    0.02286    0.03350 =
         0.04219    0.00114   -0.00377    0.00197
C19   1    0.453550    0.633569    0.571355    11.00000    0.02671    0.04899 =
         0.04660    0.00239   -0.00603   -0.00024
AFIX  43
H19   2    0.475235    0.610902    0.589978    11.00000   -1.20000
AFIX   0
C20   1    0.927213    0.642492    0.739093    11.00000    0.02877    0.04587 =
         0.04703    0.00472    0.00388   -0.00102
C21   1    0.360125    1.147430   -0.002887    11.00000    0.03685    0.07378 =
         0.05265   -0.00246   -0.00572   -0.00422
C22   1    0.958549    0.668662    0.680629    11.00000    0.02792    0.04855 =
         0.04850    0.00445    0.00380    0.00030
C23   1    0.655015    0.673660    0.885305    11.00000    0.02563    0.03575 =
         0.04296   -0.00058   -0.00553    0.00251
AFIX  43
H23   2    0.668068    0.690302    0.935731    11.00000   -1.20000
AFIX   0
C24   1    0.647789    0.601975    0.796687    11.00000    0.02578    0.03447 =
         0.04394    0.00041   -0.00563    0.00414
AFIX  43
H24   2    0.656323    0.570224    0.785625    11.00000   -1.20000
AFIX   0
C25   1    0.586137    0.786550    0.674889    11.00000    0.02451    0.03413 =
         0.04260    0.00072   -0.00392    0.00168
C26   1    0.585999    1.127770    0.251575    11.00000    0.03195    0.05181 =
         0.05215    0.00645   -0.00576   -0.00157
C27   1    0.563857    0.830607    0.686189    11.00000    0.02435    0.03577 =
         0.04352   -0.00027   -0.00195    0.00212
AFIX  43
H27   2    0.532499    0.831518    0.684548    11.00000   -1.20000
AFIX   0
C28   1    0.379507    0.651452    0.509556    11.00000    0.02659    0.04898 =
         0.04567    0.00176   -0.00429   -0.00267
C29   1    0.846746    0.780061    0.681602    11.00000    0.02763    0.04661 =
         0.04953    0.00627    0.00356    0.00018
AFIX  43
H29   2    0.816832    0.771704    0.690066    11.00000   -1.20000
AFIX   0
C30   1    0.604704    1.087812    0.209608    11.00000    0.03386    0.05341 =
         0.05410    0.00798   -0.00635   -0.00078
AFIX  43
H30   2    0.593333    1.077863    0.151497    11.00000   -1.20000
AFIX   0
C31   1    1.077342    1.193649    0.070979    11.00000    0.03620    0.06344 =
         0.05977    0.00786    0.00995    0.00952
AFIX  43
H31   2    1.065401    1.224650    0.065844    11.00000   -1.20000
AFIX   0
C32   1    0.619835    1.241872    0.213344    11.00000    0.03408    0.05123 =
         0.05374    0.00402   -0.00635   -0.00180
AFIX  43
H32   2    0.633391    1.211599    0.211821    11.00000   -1.20000
AFIX   0
C33   1    0.865864    1.323974    0.221674    11.00000    0.04260    0.05910 =
         0.07123    0.00553    0.00831    0.00548
C34   1    0.698577    0.900137    0.436947    11.00000    0.02570    0.03259 =
         0.03829    0.00597   -0.00915   -0.00492
C35   1    1.117974    1.181386    0.029483    11.00000    0.03559    0.06489 =
         0.05920    0.00821    0.01089    0.00924
AFIX  43
H35   2    1.133427    1.205153   -0.001986    11.00000   -1.20000
AFIX   0
C36   1    0.580421    1.332204    0.215818    11.00000    0.03514    0.05096 =
         0.05337    0.00422   -0.00566   -0.00212
AFIX  43
H36   2    0.567196    1.362659    0.216668    11.00000   -1.20000
AFIX   0
C37   1    0.957603    1.206851    0.201706    11.00000    0.03777    0.05906 =
         0.06595    0.00617    0.01064    0.00023
C38   1    0.616887    0.624110    0.736756    11.00000    0.02514    0.03505 =
         0.04306   -0.00209   -0.00730    0.00287
AFIX  43
H38   2    0.604471    0.606927    0.686372    11.00000   -1.20000
AFIX   0
C39   1    0.568259    0.694025    0.690419    11.00000    0.02329    0.03491 =
         0.04244    0.00063   -0.00435    0.00153
C40   1    0.893097    0.632343    0.885869    11.00000    0.03088    0.04719 =
         0.04651    0.00264    0.00399   -0.00291
AFIX  43
H40   2    0.890397    0.641696    0.947492    11.00000   -1.20000
AFIX   0
C41   1    0.955980    1.159293    0.234681    11.00000    0.03743    0.05908 =
         0.06640    0.00622    0.00926   -0.00245
C42   1    0.431139    0.716052    0.548550    11.00000    0.02614    0.04781 =
         0.04621    0.00168   -0.00560   -0.00239
AFIX  43
H42   2    0.437311    0.748954    0.552354    11.00000   -1.20000
AFIX   0
C43   1    0.377449    1.192804    0.010679    11.00000    0.03700    0.07126 =
         0.05120   -0.00247   -0.00415   -0.00331
AFIX  43
H43   2    0.360990    1.219715   -0.009401    11.00000   -1.20000
AFIX   0
C44   1    0.655065    1.076792    0.340734    11.00000    0.03349    0.05391 =
         0.05462    0.00860   -0.00615   -0.00203
C45   1    0.665917    0.874325    0.371347    11.00000    0.02189    0.03396 =
         0.03465    0.00480   -0.00557   -0.00685
C46   1    0.633303    0.787660    0.677022    11.00000    0.02558    0.03526 =
         0.04437    0.00057   -0.00306    0.00346
AFIX  43
H46   2    0.649221    0.759028    0.670053    11.00000   -1.20000
AFIX   0
C47   1    0.824409    0.867271    0.671788    11.00000    0.03061    0.04695 =
         0.04738    0.00747   -0.00053    0.00166
C48   1    0.419529    1.198537    0.054361    11.00000    0.03552    0.06905 =
         0.05047   -0.00139   -0.00537   -0.00298
AFIX  43
H48   2    0.431121    1.229364    0.064926    11.00000   -1.20000
AFIX   0
C49   1    0.554078    1.292439    0.201248    11.00000    0.03333    0.05111 =
         0.05321    0.00407   -0.00651   -0.00151
AFIX  43
H49   2    0.523124    1.296020    0.190623    11.00000   -1.20000
AFIX   0
C50   1    0.858397    0.828635    0.671041    11.00000    0.02789    0.04493 =
         0.04721    0.00490    0.00137    0.00121
C51   1    0.879811    0.743701    0.679554    11.00000    0.02862    0.04627 =
         0.04942    0.00536    0.00246    0.00020
AFIX  43
H51   2    0.871921    0.711700    0.690051    11.00000   -1.20000
AFIX   0
C52   1    0.640015    1.062425    0.252611    11.00000    0.03401    0.05359 =
         0.05560    0.00780   -0.00598    0.00060
AFIX  43
H52   2    0.653243    1.036449    0.223092    11.00000   -1.20000
AFIX   0
C53   1    0.957962    0.717690    0.652124    11.00000    0.02773    0.04815 =
         0.04877    0.00495    0.00418    0.00000
C54   1    0.925503    1.247316    0.210214    11.00000    0.03766    0.05800 =
         0.06692    0.00560    0.01123    0.00082
C55   1    0.903965    0.840062    0.655326    11.00000    0.03041    0.04641 =
         0.04983    0.00651    0.00059    0.00032
AFIX  43
H55   2    0.912778    0.872107    0.649068    11.00000   -1.20000
AFIX   0
C56   1    0.646100    1.283400    0.226916    11.00000    0.03289    0.05290 =
         0.05529    0.00348   -0.00615   -0.00331
AFIX  43
H56   2    0.677292    1.280817    0.234422    11.00000   -1.20000
AFIX   0
C57   1    0.852098    1.278864    0.240981    11.00000    0.04098    0.05990 =
         0.07124    0.00495    0.01213    0.00420
AFIX  43
H57   2    0.822378    1.273729    0.256649    11.00000   -1.20000
AFIX   0
C58   1    0.921737    0.657127    0.831564    11.00000    0.02967    0.04639 =
         0.04775    0.00308    0.00325   -0.00280
AFIX  43
H58   2    0.937600    0.683619    0.855577    11.00000   -1.20000
AFIX   0
C59   1    0.656936    0.831005    0.689431    11.00000    0.02403    0.03620 =
         0.04460   -0.00064   -0.00320    0.00126
AFIX  43
H59   2    0.688277    0.831012    0.689137    11.00000   -1.20000
AFIX   0
C60   1    0.935019    0.803663    0.649382    11.00000    0.02791    0.04696 =
         0.04990    0.00636    0.00065   -0.00041
AFIX  43
H60   2    0.964584    0.811524    0.636432    11.00000   -1.20000
AFIX   0
C61   1    0.601162    1.141709    0.336438    11.00000    0.03471    0.05429 =
         0.05386    0.00582   -0.00518    0.00096
AFIX  43
H61   2    0.589006    1.168902    0.363956    11.00000   -1.20000
AFIX   0
C62   1    0.625983    1.327845    0.229174    11.00000    0.03481    0.05097 =
         0.05371    0.00431   -0.00641   -0.00369
C63   1    0.881584    1.239645    0.237932    11.00000    0.04067    0.05978 =
         0.07091    0.00584    0.01053    0.00054
AFIX  43
H63   2    0.872084    1.208865    0.254141    11.00000   -1.20000
AFIX   0
C64   1    0.861585    1.081461    0.317739    11.00000    0.03987    0.06057 =
         0.06917    0.00604    0.00638   -0.00864
AFIX  43
H64   2    0.837591    1.063478    0.292493    11.00000   -1.20000
AFIX   0
C65   1    0.922961    1.134378    0.295038    11.00000    0.03885    0.05934 =
         0.06737    0.00665    0.01019   -0.00467
C66   1    0.635851    1.114959    0.384549    11.00000    0.03626    0.05523 =
         0.05454    0.00612   -0.00691   -0.00074
AFIX  43
H66   2    0.645291    1.123333    0.444875    11.00000   -1.20000
AFIX   0
C67   1    0.384556    1.107811    0.025738    11.00000    0.03748    0.07073 =
         0.05263   -0.00187   -0.00628   -0.00779
AFIX  43
H67   2    0.372235    1.077182    0.016777    11.00000   -1.20000
AFIX   0
C68   1    0.867416    1.084401    0.410839    11.00000    0.03951    0.05942 =
         0.06718    0.00673    0.00915   -0.00759
C69   1    0.334677    0.633885    0.471181    11.00000    0.02684    0.05075 =
         0.04727    0.00278   -0.00359   -0.00042
C70   1    0.836745    0.567544    0.913425    11.00000    0.03110    0.04796 =
         0.04616    0.00379    0.00265   -0.00614
C71   1    0.873867    0.577910    0.762483    11.00000    0.03078    0.04713 =
         0.04752    0.00287    0.00206   -0.00355
AFIX  43
H71   2    0.858028    0.551136    0.739660    11.00000   -1.20000
AFIX   0
C72   1    1.079952    0.715093    0.527681    11.00000    0.03335    0.08087 =
         0.07073    0.00260    0.00926    0.00570
AFIX  43
H72   2    1.066382    0.745385    0.527575    11.00000   -1.20000
AFIX   0
C73   1    0.939010    1.292566    0.190218    11.00000    0.03936    0.05942 =
         0.06949    0.00614    0.01169    0.00386
AFIX  43
H73   2    0.968488    1.297954    0.173173    11.00000   -1.20000
AFIX   0
C74   1    0.903659    0.602075    0.705940    11.00000    0.03019    0.04830 =
         0.04664    0.00372    0.00304   -0.00221
AFIX  43
H74   2    0.907799    0.591113    0.645770    11.00000   -1.20000
AFIX   0
C75   1    0.245419    1.205332   -0.275594    11.00000    0.06387    0.06503 =
         0.12857   -0.00575   -0.00977    0.00266
AFIX  43
H75   2    0.261972    1.221321   -0.228679    11.00000   -1.20000
AFIX   0
C76   1    1.073803    1.112960    0.124979    11.00000    0.03801    0.06518 =
         0.06224    0.01007    0.01237    0.01051
AFIX  43
H76   2    1.059051    1.089234    0.157959    11.00000   -1.20000
AFIX   0
C77   1    0.655865    1.372024    0.245047    11.00000    0.03691    0.05329 =
         0.05528    0.00379   -0.00520   -0.00365
C78   1    1.176316    1.122682   -0.018596    11.00000    0.03571    0.06465 =
         0.05839    0.00851    0.00821    0.01161
C79   1    0.928282    1.138656    0.391783    11.00000    0.04206    0.06223 =
         0.06970    0.00554    0.01020   -0.00837
AFIX  43
H79   2    0.950353    1.159140    0.417294    11.00000   -1.20000
AFIX   0
C80   1    0.693493    1.049505    0.385808    11.00000    0.03550    0.05511 =
         0.05676    0.00945   -0.00663   -0.00257
C81   1    0.314232    1.143726   -0.054584    11.00000    0.04150    0.07621 =
         0.05489   -0.00390   -0.00415   -0.00636
C82   1    0.427381    1.112288    0.067917    11.00000    0.03800    0.06918 =
         0.05149   -0.00224   -0.00736   -0.00542
AFIX  43
H82   2    0.444053    1.085144    0.085845    11.00000   -1.20000
AFIX   0
C83   1    0.909550    1.330786    0.194833    11.00000    0.04415    0.06002 =
         0.07240    0.00618    0.01046    0.00322
AFIX  43
H83   2    0.919200    1.361660    0.179653    11.00000   -1.20000
AFIX   0
C84   1    1.122952    0.709710    0.490326    11.00000    0.03333    0.08204 =
         0.07074    0.00245    0.00928    0.00468
AFIX  43
H84   2    1.137710    0.736131    0.465679    11.00000   -1.20000
AFIX   0
C85   1    1.113776    1.101485    0.082288    11.00000    0.03823    0.06527 =
         0.06205    0.00885    0.01093    0.01065
AFIX  43
H85   2    1.125472    1.070368    0.087109    11.00000   -1.20000
AFIX   0
C86   1    0.837479    1.053369    0.473242    11.00000    0.03985    0.05944 =
         0.06759    0.00561    0.00374   -0.00758
C87   1    0.890390    1.104527    0.258246    11.00000    0.04162    0.06155 =
         0.06844    0.00693    0.00791   -0.00748
AFIX  43
H87   2    0.887470    1.099653    0.194305    11.00000   -1.20000
AFIX   0
C88   1    1.077325    0.630868    0.565061    11.00000    0.03611    0.08177 =
         0.07450    0.00162    0.01082    0.00505
AFIX  43
H88   2    1.062181    0.604405    0.588547    11.00000   -1.20000
AFIX   0
C89   1    0.831491    1.364070    0.228474    11.00000    0.04915    0.06152 =
         0.08173    0.00657    0.00889    0.00323
C90   1    1.186544    0.658061    0.447416    11.00000    0.03537    0.08660 =
         0.07366    0.00143    0.00792    0.00521
C91   1    0.901364    1.113024    0.449693    11.00000    0.04241    0.06259 =
         0.06854    0.00602    0.00866   -0.00902
AFIX  43
H91   2    0.905936    1.114924    0.513948    11.00000   -1.20000
AFIX   0
C92   1    1.120443    0.626128    0.529556    11.00000    0.03587    0.08176 =
         0.07368   -0.00073    0.00934    0.00747
AFIX  43
H92   2    1.134751    0.596227    0.531703    11.00000   -1.20000
AFIX   0
C93   1    0.252709    1.278266   -0.369652    11.00000    0.08371    0.08792 =
         0.13605    0.00771   -0.01703   -0.00593
AFIX 137
H93A  2    0.275913    1.284451   -0.322656    11.00000   -1.50000
H93B  2    0.228278    1.300531   -0.362560    11.00000   -1.50000
H93C  2    0.264777    1.282285   -0.430075    11.00000   -1.50000
AFIX   0
C94   1    0.211198    1.208886   -0.435406    11.00000    0.08739    0.09516 =
         0.14206   -0.00579   -0.02366    0.00215
AFIX 137
H94A  2    0.179659    1.214684   -0.427827    11.00000   -1.50000
H94B  2    0.216559    1.174719   -0.438195    11.00000   -1.50000
H94C  2    0.220263    1.223729   -0.491992    11.00000   -1.50000
AFIX   0
C95   1    0.935598    1.004044    0.641460    11.00000    0.06746    0.08484 =
         0.25895   -0.00271   -0.03763   -0.01237
AFIX  43
H95   2    0.919589    1.032624    0.648340    11.00000   -1.20000
AFIX   0
C97   1    1.003541    1.050857    0.651743    11.00000    0.08325    0.09962 =
         0.27450   -0.00144   -0.03933   -0.01211
AFIX 137
H97A  2    1.002492    1.062429    0.714537    11.00000   -1.50000
H97B  2    0.989165    1.073830    0.610230    11.00000   -1.50000
H97C  2    1.034402    1.046735    0.635758    11.00000   -1.50000
AFIX   0
C98   1    1.006486    0.963317    0.634955    11.00000    0.08661    0.10525 =
         0.27195    0.00330   -0.02829   -0.00013
AFIX 137
H98A  2    0.989854    0.940478    0.596811    11.00000   -1.50000
H98B  2    1.012799    0.949589    0.695393    11.00000   -1.50000
H98C  2    1.034325    0.970977    0.606578    11.00000   -1.50000
AFIX   0
C100  1    0.229925    0.676965    0.001323    11.00000    0.17500    0.18370 =
         0.16672    0.01607   -0.03813   -0.04339
AFIX   3
H10A  2    0.231156    0.642306    0.002017    11.00000   -1.50000
H10B  2    0.247058    0.688999   -0.048905    11.00000   -1.50000
H10C  2    0.199124    0.687257   -0.007073    11.00000   -1.50000
AFIX   0
C101  1    0.923830    0.755253    0.662077    11.00000    0.02728    0.04544 =
         0.04697    0.00563    0.00310    0.00063
C103  1    0.247607    0.662467    0.157966    11.00000    0.15883    0.17294 =
         0.15345    0.01644   -0.02333   -0.03253
AFIX   3
H103  2    0.236705    0.631523    0.145602    11.00000   -1.20000
AFIX   0
C102  1    0.264117    0.743842    0.092943    11.00000    0.17397    0.18426 =
         0.15639    0.01667   -0.03786   -0.04927
AFIX   3
H10D  2    0.241746    0.763379    0.121308    11.00000   -1.50000
H10E  2    0.268550    0.755244    0.030951    11.00000   -1.50000
H10F  2    0.292023    0.745899    0.128951    11.00000   -1.50000
AFIX   0
N1    3    0.487254    1.166102    0.127967    11.00000    0.02323    0.04208 =
         0.03785   -0.00435   -0.00262    0.00476
N2    3    0.247562    0.693634    0.086338    11.00000    0.14736    0.15855 =
         0.13402    0.03884   -0.03075   -0.04460
N3    3    0.504126    1.210593    0.137326    11.00000    0.01734    0.03934 =
         0.04928   -0.00076   -0.00392   -0.00194
N4    3    0.513276    1.131231    0.164767    11.00000    0.02460    0.03666 =
         0.04594    0.00562   -0.00185    0.00914
N5    3    0.991772    1.135079    0.206778    11.00000    0.02685    0.05557 =
         0.06758    0.01431    0.01828    0.00901
N6    3    1.014456    1.168382    0.158958    11.00000    0.02497    0.05740 =
         0.05474    0.01120    0.00512    0.00948
N7    3    0.995283    1.212148    0.155481    11.00000    0.03058    0.06327 =
         0.04248    0.00981    0.00221    0.01037
N8    3    0.505962    0.697709    0.615313    11.00000    0.01960    0.03391 =
         0.04497    0.00433   -0.00402   -0.00024
N9    3    0.519979    0.743183    0.615149    11.00000    0.02634    0.03046 =
         0.04187    0.00383   -0.00278   -0.00253
N10   3    0.533805    0.666849    0.660478    11.00000    0.02149    0.03264 =
         0.03857    0.00241   -0.01126    0.00010
N11   3    1.015836    0.683151    0.604393    11.00000    0.02399    0.04879 =
         0.05102    0.00639    0.01325    0.00481
N12   3    0.994849    0.647614    0.647525    11.00000    0.02585    0.04326 =
         0.07012    0.00120    0.01627    0.00502
N13   3    0.995324    0.726310    0.604446    11.00000    0.02059    0.04819 =
         0.05313    0.01233    0.01121    0.00064
N14   3    0.980706    1.005851    0.643909    11.00000    0.05351    0.07217 =
         0.24563    0.00432   -0.03524   -0.00510
N15   3    0.236124    1.228591   -0.359959    11.00000    0.03855    0.07209 =
         0.08642   -0.00587   -0.00376    0.00482
O1    4    0.768590    0.973305    0.585968    11.00000    0.04362    0.05041 =
         0.07279    0.00298   -0.00429   -0.00563
O2    4    0.697873    1.048156    0.471342    11.00000    0.05632    0.06517 =
         0.08577    0.01075   -0.00916   -0.00909
O3    4    0.728314    1.033936    0.713155    11.00000    0.05640    0.06304 =
         0.09353   -0.01467    0.00527   -0.00936
O4    4    0.710037    0.940681    0.417487    11.00000    0.05837    0.05810 =
         0.08178    0.00957   -0.02074   -0.01211
O5    4    0.797858    1.052465    0.452292    11.00000    0.05021    0.06047 =
         0.08987    0.01589   -0.00383   -0.00730
O6    4    0.636884    0.955754    0.737655    11.00000    0.05157    0.05201 =
         0.08359   -0.01133    0.00506   -0.00747
O7    4    0.857477    1.029995    0.535904    11.00000    0.05585    0.06960 =
         0.08875    0.01624   -0.00656   -0.00941
O8    4    0.804650    0.543977    0.877376    11.00000    0.05569    0.09061 =
         0.04459    0.01647   -0.00839   -0.03906
O9    4    0.914009    0.965273    0.630236    11.00000    0.05473    0.07102 =
         0.09201    0.00723   -0.00873   -0.00175
O10   4    0.659562    1.019357    0.880262    11.00000    0.07967    0.06558 =
         0.09184   -0.00730   -0.00202    0.00139
O11   4    0.639361    1.019117    0.594247    11.00000    0.08555    0.09154 =
         0.08769   -0.00451   -0.00254   -0.03374
O12   4    0.321839    0.592271    0.488830    11.00000    0.04626    0.08608 =
         0.08107   -0.00217   -0.01138   -0.02127
O13   4    0.696187    1.364772    0.262876    11.00000    0.05503    0.05859 =
         0.14070   -0.00098   -0.00796   -0.01021
O14   4    0.637172    1.412038    0.238063    11.00000    0.05146    0.05294 =
         0.12942   -0.00716    0.00762   -0.01276
O15   4    0.312776    0.662292    0.420305    11.00000    0.03660    0.09523 =
         0.05911   -0.00925   -0.00499   -0.01399
O16   4    0.765614    1.070032    0.887061    11.00000    0.09006    0.09053 =
         0.10357    0.01520   -0.00794   -0.00776
O17   4    0.710462    0.878670    0.509725    11.00000    0.05069    0.04793 =
         0.07041   -0.00068   -0.00843   -0.01009
O18   4    0.793516    1.356984    0.242595    11.00000    0.06173    0.07213 =
         0.14955   -0.00648   -0.00126    0.01266
O19   4    0.846563    1.404586    0.213004    11.00000    0.11246    0.09666 =
         0.21627    0.00971    0.03867    0.02263
O20   4    0.783734    0.855930    0.651200    11.00000    0.04480    0.04803 =
         0.07182    0.00325   -0.00059    0.00271
O21   4    1.193059    1.083066   -0.011196    11.00000    0.05685    0.08951 =
         0.08570    0.00047    0.02344    0.02464
O22   4    0.836999    0.909235    0.690474    11.00000    0.04790    0.05187 =
         0.07575    0.00137   -0.00993    0.00486
O23   4    0.298931    1.103363   -0.064079    11.00000    0.06092    0.11173 =
         0.08645   -0.00860   -0.01055   -0.00522
O24   4    0.295851    1.179172   -0.089288    11.00000    0.05668    0.11277 =
         0.07484   -0.00280   -0.01077    0.00213
O26   4    0.232952    1.166650   -0.262987    11.00000    0.06045    0.11567 =
         0.07260    0.00004   -0.00926    0.00397
O27   4    0.259652    0.672551    0.232734    11.00000    0.06111    0.11827 =
         0.05976   -0.02265   -0.00483   -0.00835
O28   4    0.702361    0.920007    0.711947    11.00000    0.04604    0.05093 =
         0.07402   -0.00671    0.00532   -0.00941
O29   4    0.842721    0.574620    0.998444    11.00000    0.06601    0.09373 =
         0.04752    0.01233   -0.00187   -0.03992
O30   4    1.206257    0.618126    0.459798    11.00000    0.05095    0.18210 =
         0.10427    0.00350    0.02577    0.02140
O31   4    0.721869    1.028546    0.334655    11.00000    0.05712    0.06158 =
         0.09028    0.01862   -0.01165   -0.00147
O32   4    1.203015    0.689086    0.402145    11.00000    0.04847    0.18737 =
         0.10059    0.02561    0.02353    0.02549
O33   4    1.190912    1.154285   -0.073727    11.00000    0.03709    0.08588 =
         0.06869    0.00108    0.01024    0.01367
O34   4    0.838750    1.005360    0.738045    11.00000    0.06540    0.06518 =
         0.09052   -0.00626   -0.00965    0.00281
O35   4    0.250863    0.570019    0.317021    11.00000    0.08008    0.10041 =
         0.08114   -0.02322    0.00747   -0.02710
ZN1   5    0.744833    0.908942    0.613058    11.00000    0.02576    0.02957 =
         0.03641    0.00088   -0.00453   -0.00135
ZN2   5    0.758050    0.992860    0.450992    11.00000    0.02209    0.02989 =
         0.03640    0.00378   -0.00335    0.00104
ZN3   5    0.664481    1.022149    0.730826    11.00000    0.03191    0.03762 =
         0.06828   -0.01297    0.00405   -0.00585
ZN4   5    0.840804    0.971465    0.611973    11.00000    0.03374    0.05222 =
         0.04808    0.00326   -0.00197   -0.00246
ZN5   5    0.257210    0.638346    0.360976    11.00000    0.01915    0.08037 =
         0.06040   -0.01917    0.00330   -0.00607
ZN6   5    0.241417    1.130251   -0.141889    11.00000    0.02299    0.08675 =
         0.04777   -0.00721   -0.00039    0.00577
O25   4    0.237347    1.065592   -0.209018    11.00000    0.06672    0.10381 =
         0.06578   -0.02661   -0.00875    0.02089
HKLF 4

REM  LJY in P2(1)/c                   P21/c New:P21/c
REM R1 =  0.0935 for   10827 Fo > 4sig(Fo)  and  0.1539 for all   19915 data
REM   1436 parameters refined using   2412 restraints

END

WGHT      0.1348      0.0000

REM Highest difference peak  1.850,  deepest hole -1.634,  1-sigma level  0.124
Q1    1   0.7229  1.0476  0.6603  11.00000  0.05    1.48
Q2    1   0.8574  1.4097  0.2767  11.00000  0.05    1.10
Q3    1   0.7340  1.0240  0.7537  11.00000  0.05    1.07
Q4    1   0.2473  0.6428  0.2446  11.00000  0.05    1.06
Q5    1   0.2383  1.1672 -0.1566  11.00000  0.05    1.05
Q6    1   0.8419  1.0102  0.6324  11.00000  0.05    0.95
Q7    1   0.2494  0.7142  0.1517  11.00000  0.05    0.87
Q8    1   0.6183  1.0375  0.6036  11.00000  0.05    0.82
Q9    1   1.2039  0.6318  0.4195  11.00000  0.05    0.74
Q10   1   0.6575  0.9969  0.5912  11.00000  0.05    0.73
Q11   1   0.2512  1.0940 -0.2244  11.00000  0.05    0.70
Q12   1   0.6902  1.0745  0.5083  11.00000  0.05    0.67
Q13   1   0.8312  0.9903  0.7932  11.00000  0.05    0.65
Q14   1   0.2368  0.5818  0.2760  11.00000  0.05    0.65
Q15   1   0.7266  1.0963  0.6828  11.00000  0.05    0.64
Q16   1   0.7306  0.9338  0.3852  11.00000  0.05    0.64
Q17   1   0.3049  1.0639 -0.0124  11.00000  0.05    0.63
Q18   1   0.7310  0.9896  0.4408  11.00000  0.05    0.63
Q19   1   0.8475  1.0524  0.5623  11.00000  0.05    0.62
Q20   1   0.2524  0.7004  0.2272  11.00000  0.05    0.62
;
_shelx_res_checksum              83349
loop_
_space_group_symop_operation_xyz
'x, y, z'
'-x, y+1/2, -z+1/2'
'-x, -y, -z'
'x, -y-1/2, z-1/2'
loop_
_atom_site_label
_atom_site_type_symbol
_atom_site_fract_x
_atom_site_fract_y
_atom_site_fract_z
_atom_site_U_iso_or_equiv
_atom_site_adp_type
_atom_site_occupancy
_atom_site_site_symmetry_order
_atom_site_calc_flag
_atom_site_refinement_flags_posn
_atom_site_refinement_flags_adp
_atom_site_refinement_flags_occupancy
_atom_site_disorder_assembly
_atom_site_disorder_group
Zn7 Zn 0.74945(4) 1.09471(4) 0.75828(9) 0.0502(3) Uani 1 1 d . . . . .
O36 O 0.7435(4) 1.1006(4) 0.6217(8) 0.114(2) Uani 1 1 d . U . . .
C1 C 1.1355(3) 1.1355(4) 0.0340(7) 0.0515(14) Uani 1 1 d . U . . .
C2 C 0.6347(3) 0.8728(3) 0.7018(6) 0.0343(12) Uani 1 1 d . U . . .
C3 C 0.3891(3) 0.6996(4) 0.5144(6) 0.0406(13) Uani 1 1 d . U . . .
H3 H 0.3673 0.7219 0.4947 0.049 Uiso 1 1 calc R U . . .
C4 C 0.5877(3) 0.8720(3) 0.6995(6) 0.0360(11) Uani 1 1 d . U . . .
H4 H 0.5722 0.9008 0.7074 0.043 Uiso 1 1 calc R U . . .
C5 C 0.5732(3) 1.2463(4) 0.2021(7) 0.0448(11) Uani 1 1 d . U . . .
C6 C 0.4637(3) 0.6821(3) 0.5768(6) 0.0382(12) Uani 1 1 d . U . . .
C7 C 1.1422(3) 0.6657(5) 0.4910(8) 0.0622(15) Uani 1 1 d . U . . .
C8 C 0.6246(3) 0.6972(3) 0.8244(6) 0.0347(11) Uani 1 1 d . U . . .
H8 H 0.6182 0.7298 0.8330 0.042 Uiso 1 1 calc R U . . .
C9 C 0.5430(3) 1.2042(4) 0.1831(7) 0.0443(10) Uani 1 1 d . U . . .
C10 C 0.4444(3) 1.1583(4) 0.0824(7) 0.0484(12) Uani 1 1 d . U . . .
C11 C 1.0581(3) 0.6767(4) 0.5637(7) 0.0554(13) Uani 1 1 d . U . . .
C12 C 0.8679(3) 0.5936(3) 0.8518(7) 0.0402(12) Uani 1 1 d . U . . .
C13 C 1.0560(3) 1.1581(4) 0.1193(7) 0.0517(13) Uani 1 1 d . U . . .
C14 C 0.5492(3) 1.1550(4) 0.2026(7) 0.0449(11) Uani 1 1 d . U . . .
C15 C 0.5597(3) 0.7421(3) 0.6607(6) 0.0338(11) Uani 1 1 d . U . . .
C16 C 0.4119(3) 0.6183(4) 0.5388(6) 0.0417(13) Uani 1 1 d . U . . .
H16 H 0.4054 0.5855 0.5364 0.050 Uiso 1 1 calc R U . . .
C17 C 0.6598(3) 0.9187(3) 0.7157(6) 0.0360(13) Uani 1 1 d . U . . .
C18 C 0.6039(3) 0.6720(3) 0.7505(6) 0.0330(11) Uani 1 1 d . U . . .
C19 C 0.4536(3) 0.6336(3) 0.5714(6) 0.0410(13) Uani 1 1 d . U . . .
H19 H 0.4752 0.6109 0.5900 0.049 Uiso 1 1 calc R U . . .
C20 C 0.9272(3) 0.6425(3) 0.7391(7) 0.0405(11) Uani 1 1 d . U . . .
C21 C 0.3601(3) 1.1474(4) -0.0029(7) 0.0546(13) Uani 1 1 d . U . . .
C22 C 0.9585(3) 0.6687(4) 0.6806(7) 0.0416(11) Uani 1 1 d . U . . .
C23 C 0.6550(3) 0.6737(3) 0.8853(6) 0.0350(13) Uani 1 1 d . U . . .
H23 H 0.6681 0.6903 0.9357 0.042 Uiso 1 1 calc R U . . .
C24 C 0.6478(3) 0.6020(3) 0.7967(6) 0.0349(13) Uani 1 1 d . U . . .
H24 H 0.6563 0.5702 0.7856 0.042 Uiso 1 1 calc R U . . .
C25 C 0.5861(3) 0.7865(3) 0.6749(6) 0.0339(10) Uani 1 1 d . U . . .
C26 C 0.5860(3) 1.1278(4) 0.2516(7) 0.0455(11) Uani 1 1 d . U . . .
C27 C 0.5639(3) 0.8306(3) 0.6862(6) 0.0346(11) Uani 1 1 d . U . . .
H27 H 0.5325 0.8315 0.6845 0.042 Uiso 1 1 calc R U . . .
C28 C 0.3795(3) 0.6515(4) 0.5096(7) 0.0406(13) Uani 1 1 d . U . . .
C29 C 0.8467(3) 0.7801(3) 0.6816(6) 0.0412(12) Uani 1 1 d . U . . .
H29 H 0.8168 0.7717 0.6901 0.049 Uiso 1 1 calc R U . . .
C30 C 0.6047(3) 1.0878(4) 0.2096(7) 0.0473(12) Uani 1 1 d . U . . .
H30 H 0.5933 1.0779 0.1515 0.057 Uiso 1 1 calc R U . . .
C31 C 1.0773(3) 1.1936(4) 0.0710(7) 0.0529(14) Uani 1 1 d . U . . .
H31 H 1.0654 1.2246 0.0658 0.064 Uiso 1 1 calc R U . . .
C32 C 0.6198(3) 1.2419(4) 0.2133(7) 0.0466(11) Uani 1 1 d . U . . .
H32 H 0.6334 1.2116 0.2118 0.056 Uiso 1 1 calc R U . . .
C33 C 0.8659(3) 1.3240(4) 0.2217(8) 0.0575(13) Uani 1 1 d . U . . .
C34 C 0.6986(3) 0.9001(3) 0.4369(6) 0.0325(18) Uani 1 1 d . U . . .
C35 C 1.1180(3) 1.1814(4) 0.0295(7) 0.0530(14) Uani 1 1 d . U . . .
H35 H 1.1334 1.2052 -0.0020 0.064 Uiso 1 1 calc R U . . .
C36 C 0.5804(3) 1.3322(4) 0.2158(7) 0.0467(12) Uani 1 1 d . U . . .
H36 H 0.5672 1.3627 0.2167 0.056 Uiso 1 1 calc R U . . .
C37 C 0.9576(3) 1.2069(4) 0.2017(8) 0.0540(11) Uani 1 1 d . U . . .
C38 C 0.6169(3) 0.6241(3) 0.7368(6) 0.0347(13) Uani 1 1 d . U . . .
H38 H 0.6045 0.6069 0.6864 0.042 Uiso 1 1 calc R U . . .
C39 C 0.5683(3) 0.6940(3) 0.6904(6) 0.0337(10) Uani 1 1 d . U . . .
C40 C 0.8931(3) 0.6323(3) 0.8859(7) 0.0415(12) Uani 1 1 d . U . . .
H40 H 0.8904 0.6417 0.9475 0.050 Uiso 1 1 calc R U . . .
C41 C 0.9560(3) 1.1593(4) 0.2347(8) 0.0541(11) Uani 1 1 d . U . . .
C42 C 0.4311(3) 0.7161(4) 0.5485(6) 0.0403(13) Uani 1 1 d . U . . .
H42 H 0.4373 0.7490 0.5524 0.048 Uiso 1 1 calc R U . . .
C43 C 0.3774(3) 1.1928(4) 0.0107(7) 0.0533(14) Uani 1 1 d . U . . .
H43 H 0.3610 1.2197 -0.0094 0.064 Uiso 1 1 calc R U . . .
C44 C 0.6551(3) 1.0768(4) 0.3407(7) 0.0476(13) Uani 1 1 d . U . . .
C45 C 0.6659(3) 0.8743(3) 0.3713(6) 0.0304(18) Uani 1 1 d . U . . .
C46 C 0.6333(3) 0.7877(3) 0.6770(6) 0.0352(10) Uani 1 1 d . U . . .
H46 H 0.6492 0.7590 0.6701 0.042 Uiso 1 1 calc R U . . .
C47 C 0.8244(3) 0.8673(4) 0.6718(7) 0.0417(13) Uani 1 1 d . U . . .
C48 C 0.4195(3) 1.1985(4) 0.0544(7) 0.0519(14) Uani 1 1 d . U . . .
H48 H 0.4311 1.2294 0.0649 0.062 Uiso 1 1 calc R U . . .
C49 C 0.5541(3) 1.2924(4) 0.2012(7) 0.0461(12) Uani 1 1 d . U . . .
H49 H 0.5231 1.2960 0.1906 0.055 Uiso 1 1 calc R U . . .
C50 C 0.8584(3) 0.8286(3) 0.6710(6) 0.0400(12) Uani 1 1 d . U . . .
C51 C 0.8798(3) 0.7437(4) 0.6796(6) 0.0414(10) Uani 1 1 d . U . . .
H51 H 0.8719 0.7117 0.6901 0.050 Uiso 1 1 calc R U . . .
C52 C 0.6400(3) 1.0624(4) 0.2526(7) 0.0480(12) Uani 1 1 d . U . . .
H52 H 0.6532 1.0364 0.2231 0.058 Uiso 1 1 calc R U . . .
C53 C 0.9580(3) 0.7177(4) 0.6521(7) 0.0415(10) Uani 1 1 d . U . . .
C54 C 0.9255(3) 1.2473(4) 0.2102(8) 0.0539(12) Uani 1 1 d . U . . .
C55 C 0.9040(3) 0.8401(4) 0.6553(6) 0.0422(12) Uani 1 1 d . U . . .
H55 H 0.9128 0.8721 0.6491 0.051 Uiso 1 1 calc R U . . .
C56 C 0.6461(3) 1.2834(4) 0.2269(7) 0.0472(12) Uani 1 1 d . U . . .
H56 H 0.6773 1.2808 0.2344 0.057 Uiso 1 1 calc R U . . .
C57 C 0.8521(4) 1.2789(4) 0.2410(8) 0.0571(13) Uani 1 1 d . U . . .
H57 H 0.8224 1.2737 0.2566 0.069 Uiso 1 1 calc R U . . .
C58 C 0.9217(3) 0.6571(4) 0.8316(6) 0.0412(10) Uani 1 1 d . U . . .
H58 H 0.9376 0.6836 0.8556 0.049 Uiso 1 1 calc R U . . .
C59 C 0.6569(3) 0.8310(3) 0.6894(6) 0.0351(12) Uani 1 1 d . U . . .
H59 H 0.6883 0.8310 0.6891 0.042 Uiso 1 1 calc R U . . .
C60 C 0.9350(3) 0.8037(3) 0.6494(6) 0.0416(12) Uani 1 1 d . U . . .
H60 H 0.9646 0.8115 0.6364 0.050 Uiso 1 1 calc R U . . .
C61 C 0.6012(3) 1.1417(4) 0.3364(7) 0.0478(11) Uani 1 1 d . U . . .
H61 H 0.5890 1.1689 0.3640 0.057 Uiso 1 1 calc R U . . .
C62 C 0.6260(3) 1.3278(4) 0.2292(7) 0.0467(13) Uani 1 1 d . U . . .
C63 C 0.8816(3) 1.2396(4) 0.2379(7) 0.0569(11) Uani 1 1 d . U . . .
H63 H 0.8721 1.2089 0.2541 0.068 Uiso 1 1 calc R U . . .
C64 C 0.8616(3) 1.0815(4) 0.3177(8) 0.0564(13) Uani 1 1 d . U . . .
H64 H 0.8376 1.0635 0.2925 0.068 Uiso 1 1 calc R U . . .
C65 C 0.9230(3) 1.1344(4) 0.2950(8) 0.0550(12) Uani 1 1 d . U . . .
C66 C 0.6359(3) 1.1150(4) 0.3845(7) 0.0489(12) Uani 1 1 d . U . . .
H66 H 0.6453 1.1233 0.4449 0.059 Uiso 1 1 calc R U . . .
C67 C 0.3846(3) 1.1078(4) 0.0257(7) 0.0538(14) Uani 1 1 d . U . . .
H67 H 0.3722 1.0772 0.0168 0.065 Uiso 1 1 calc R U . . .
C68 C 0.8674(3) 1.0844(4) 0.4108(8) 0.0552(13) Uani 1 1 d . U . . .
C69 C 0.3347(3) 0.6339(4) 0.4712(7) 0.0418(13) Uani 1 1 d . U . . .
C70 C 0.8367(3) 0.5675(4) 0.9134(7) 0.0417(13) Uani 1 1 d . U . . .
C71 C 0.8739(3) 0.5779(4) 0.7625(6) 0.0418(12) Uani 1 1 d . U . . .
H71 H 0.8580 0.5511 0.7397 0.050 Uiso 1 1 calc R U . . .
C72 C 1.0800(3) 0.7151(5) 0.5277(8) 0.0615(15) Uani 1 1 d . U . . .
H72 H 1.0664 0.7454 0.5276 0.074 Uiso 1 1 calc R U . . .
C73 C 0.9390(3) 1.2926(4) 0.1902(7) 0.0558(13) Uani 1 1 d . U . . .
H73 H 0.9685 1.2980 0.1732 0.067 Uiso 1 1 calc R U . . .
C74 C 0.9037(3) 0.6021(3) 0.7059(7) 0.0417(11) Uani 1 1 d . U . . .
H74 H 0.9078 0.5911 0.6458 0.050 Uiso 1 1 calc R U . . .
C75 C 0.2454(4) 1.2053(5) -0.2756(12) 0.086(3) Uani 1 1 d . U . . .
H75 H 0.2620 1.2213 -0.2287 0.103 Uiso 1 1 calc R U . . .
C76 C 1.0738(3) 1.1130(4) 0.1250(7) 0.0549(14) Uani 1 1 d . U . . .
H76 H 1.0591 1.0892 0.1580 0.066 Uiso 1 1 calc R U . . .
C77 C 0.6559(3) 1.3720(4) 0.2450(7) 0.0487(14) Uani 1 1 d . U . . .
C78 C 1.1763(3) 1.1227(4) -0.0186(8) 0.0527(16) Uani 1 1 d . U . . .
C79 C 0.9283(3) 1.1387(4) 0.3918(8) 0.0578(12) Uani 1 1 d . U . . .
H79 H 0.9504 1.1591 0.4173 0.069 Uiso 1 1 calc R U . . .
C80 C 0.6935(3) 1.0495(4) 0.3858(8) 0.0494(14) Uani 1 1 d . U . . .
C81 C 0.3142(4) 1.1437(5) -0.0546(8) 0.0577(15) Uani 1 1 d . U . . .
C82 C 0.4274(3) 1.1123(4) 0.0679(7) 0.0531(14) Uani 1 1 d . U . . .
H82 H 0.4441 1.0851 0.0858 0.064 Uiso 1 1 calc R U . . .
C83 C 0.9095(3) 1.3308(4) 0.1948(8) 0.0586(13) Uani 1 1 d . U . . .
H83 H 0.9192 1.3617 0.1797 0.070 Uiso 1 1 calc R U . . .
C84 C 1.1230(3) 0.7097(5) 0.4903(8) 0.0618(15) Uani 1 1 d . U . . .
H84 H 1.1377 0.7361 0.4657 0.074 Uiso 1 1 calc R U . . .
C85 C 1.1138(3) 1.1015(4) 0.0823(7) 0.0549(14) Uani 1 1 d . U . . .
H85 H 1.1255 1.0704 0.0871 0.066 Uiso 1 1 calc R U . . .
C86 C 0.8375(4) 1.0534(4) 0.4732(8) 0.0556(15) Uani 1 1 d . U . . .
C87 C 0.8904(3) 1.1045(4) 0.2582(8) 0.0570(12) Uani 1 1 d . U . . .
H87 H 0.8875 1.0997 0.1943 0.068 Uiso 1 1 calc R U . . .
C88 C 1.0773(3) 0.6309(4) 0.5651(8) 0.0639(15) Uani 1 1 d . U . . .
H88 H 1.0622 0.6044 0.5885 0.077 Uiso 1 1 calc R U . . .
C89 C 0.8315(4) 1.3641(5) 0.2285(9) 0.0640(15) Uani 1 1 d . U . . .
C90 C 1.1865(4) 0.6581(5) 0.4474(9) 0.0651(16) Uani 1 1 d . U . . .
C91 C 0.9014(3) 1.1130(4) 0.4497(8) 0.0577(13) Uani 1 1 d . U . . .
H91 H 0.9059 1.1149 0.5139 0.069 Uiso 1 1 calc R U . . .
C92 C 1.1204(3) 0.6261(5) 0.5296(8) 0.0636(15) Uani 1 1 d . U . . .
H92 H 1.1348 0.5962 0.5317 0.076 Uiso 1 1 calc R U . . .
C93 C 0.2527(5) 1.2783(5) -0.3697(11) 0.103(4) Uani 1 1 d . U . . .
H93A H 0.2759 1.2845 -0.3227 0.155 Uiso 1 1 calc R U . . .
H93B H 0.2283 1.3005 -0.3626 0.155 Uiso 1 1 calc R U . . .
H93C H 0.2648 1.2823 -0.4301 0.155 Uiso 1 1 calc R U . . .
C94 C 0.2112(5) 1.2089(6) -0.4354(11) 0.109(4) Uani 1 1 d . U . . .
H94A H 0.1797 1.2147 -0.4278 0.163 Uiso 1 1 calc R U . . .
H94B H 0.2166 1.1747 -0.4382 0.163 Uiso 1 1 calc R U . . .
H94C H 0.2203 1.2237 -0.4920 0.163 Uiso 1 1 calc R U . . .
C95 C 0.9356(5) 1.0040(6) 0.6415(15) 0.138(4) Uani 1 1 d . U . . .
H95 H 0.9196 1.0326 0.6483 0.166 Uiso 1 1 calc R U . . .
C97 C 1.0035(5) 1.0509(6) 0.6517(15) 0.154(5) Uani 1 1 d . U . . .
H97A H 1.0025 1.0624 0.7145 0.231 Uiso 1 1 calc R U . . .
H97B H 0.9892 1.0738 0.6102 0.231 Uiso 1 1 calc R U . . .
H97C H 1.0344 1.0467 0.6358 0.231 Uiso 1 1 calc R U . . .
C98 C 1.0065(6) 0.9633(6) 0.6350(16) 0.156(5) Uani 1 1 d . U . . .
H98A H 0.9899 0.9405 0.5968 0.233 Uiso 1 1 calc R U . . .
H98B H 1.0128 0.9496 0.6954 0.233 Uiso 1 1 calc R U . . .
H98C H 1.0343 0.9710 0.6066 0.233 Uiso 1 1 calc R U . . .
C100 C 0.2299(7) 0.6770(8) 0.0013(15) 0.176(5) Uani 1 1 d . U . . .
H10A H 0.2312 0.6423 0.0020 0.265 Uiso 1 1 d R U . . .
H10B H 0.2471 0.6890 -0.0489 0.265 Uiso 1 1 d R U . . .
H10C H 0.1991 0.6873 -0.0071 0.265 Uiso 1 1 d R U . . .
C101 C 0.9238(3) 0.7553(3) 0.6621(6) 0.0399(11) Uani 1 1 d . U . . .
C103 C 0.2476(7) 0.6625(9) 0.1580(17) 0.163(5) Uani 1 1 d . U . . .
H103 H 0.2367 0.6315 0.1456 0.195 Uiso 1 1 d R U . . .
C102 C 0.2641(7) 0.7438(8) 0.0929(14) 0.173(5) Uani 1 1 d . U . . .
H10D H 0.2417 0.7634 0.1213 0.259 Uiso 1 1 d R U . . .
H10E H 0.2686 0.7552 0.0310 0.259 Uiso 1 1 d R U . . .
H10F H 0.2920 0.7459 0.1290 0.259 Uiso 1 1 d R U . . .
N1 N 0.4873(2) 1.1661(3) 0.1280(5) 0.0345(18) Uani 1 1 d . . . . .
N2 N 0.2476(6) 0.6936(7) 0.0863(12) 0.148(5) Uani 1 1 d . U . . .
N3 N 0.5041(2) 1.2106(3) 0.1373(5) 0.0355(18) Uani 1 1 d . . . . .
N4 N 0.5133(2) 1.1312(3) 0.1648(5) 0.0358(18) Uani 1 1 d . . . . .
N5 N 0.9918(2) 1.1351(3) 0.2068(6) 0.050(2) Uani 1 1 d . . . . .
N6 N 1.0145(2) 1.1684(3) 0.1590(6) 0.046(2) Uani 1 1 d . . . . .
N7 N 0.9953(2) 1.2121(3) 0.1555(5) 0.045(2) Uani 1 1 d . . . . .
N8 N 0.5060(2) 0.6977(3) 0.6153(5) 0.0330(17) Uani 1 1 d . . . . .
N9 N 0.5200(2) 0.7432(3) 0.6151(5) 0.0330(17) Uani 1 1 d . . . . .
N10 N 0.5338(2) 0.6668(2) 0.6605(5) 0.0312(17) Uani 1 1 d . . . . .
N11 N 1.0158(2) 0.6832(3) 0.6044(5) 0.041(2) Uani 1 1 d . . . . .
N12 N 0.9948(2) 0.6476(3) 0.6475(6) 0.046(2) Uani 1 1 d . . . . .
N13 N 0.9953(2) 0.7263(3) 0.6044(5) 0.040(2) Uani 1 1 d . . . . .
N14 N 0.9807(4) 1.0059(4) 0.6439(12) 0.125(4) Uani 1 1 d . U . . .
N15 N 0.2361(3) 1.2286(4) -0.3600(8) 0.066(3) Uani 1 1 d . . . . .
O1 O 0.7686(2) 0.9733(2) 0.5860(5) 0.0558(10) Uani 1 1 d . U . . .
O2 O 0.6979(3) 1.0482(3) 0.4713(6) 0.0694(12) Uani 1 1 d . U . . .
O3 O 0.7283(3) 1.0339(3) 0.7132(6) 0.0709(12) Uani 1 1 d . U . . .
O4 O 0.7100(2) 0.9407(3) 0.4175(5) 0.0667(13) Uani 1 1 d . U . . .
O5 O 0.7979(3) 1.0525(3) 0.4523(6) 0.0670(13) Uani 1 1 d . U . . .
O6 O 0.6369(2) 0.9558(3) 0.7377(5) 0.0623(15) Uani 1 1 d . U . . .
O7 O 0.8575(3) 1.0300(3) 0.5359(6) 0.0717(14) Uani 1 1 d . U . . .
O8 O 0.8046(2) 0.5440(3) 0.8774(5) 0.0639(19) Uani 1 1 d . U . . .
O9 O 0.9140(3) 0.9653(3) 0.6302(6) 0.0729(16) Uani 1 1 d . U . . .
O10 O 0.6596(3) 1.0194(3) 0.8803(6) 0.079(2) Uani 1 1 d . U . . .
O11 O 0.6394(3) 1.0191(3) 0.5942(6) 0.088(2) Uani 1 1 d . U . . .
O12 O 0.3218(2) 0.5923(3) 0.4888(6) 0.072(2) Uani 1 1 d . U . . .
O13 O 0.6962(3) 1.3648(3) 0.2629(7) 0.0851(19) Uani 1 1 d . U . . .
O14 O 0.6372(3) 1.4120(3) 0.2381(7) 0.078(2) Uani 1 1 d . U . . .
O15 O 0.3128(2) 0.6623(3) 0.4203(5) 0.0638(17) Uani 1 1 d . U . . .
O16 O 0.7656(3) 1.0700(3) 0.8871(6) 0.095(2) Uani 1 1 d . U . . .
O17 O 0.7105(2) 0.8787(3) 0.5097(5) 0.0566(13) Uani 1 1 d . U . . .
O18 O 0.7935(3) 1.3570(3) 0.2426(7) 0.095(2) Uani 1 1 d . U . . .
O19 O 0.8466(4) 1.4046(4) 0.2130(10) 0.141(3) Uani 1 1 d . U . . .
O20 O 0.7837(2) 0.8559(2) 0.6512(5) 0.0550(13) Uani 1 1 d . U . . .
O21 O 1.1931(3) 1.0831(3) -0.0112(6) 0.077(2) Uani 1 1 d . U . . .
O22 O 0.8370(2) 0.9092(3) 0.6905(5) 0.0589(14) Uani 1 1 d . U . . .
O23 O 0.2989(3) 1.1034(4) -0.0641(6) 0.0867(19) Uani 1 1 d . U . . .
O24 O 0.2959(3) 1.1792(4) -0.0893(6) 0.0818(17) Uani 1 1 d . U . . .
O26 O 0.2330(3) 1.1667(4) -0.2630(6) 0.083(2) Uani 1 1 d . U . . .
O27 O 0.2597(3) 0.6726(3) 0.2327(6) 0.080(2) Uani 1 1 d . U . . .
O28 O 0.7024(2) 0.9200(2) 0.7119(5) 0.0569(12) Uani 1 1 d . U . . .
O29 O 0.8427(3) 0.5746(3) 0.9984(5) 0.069(2) Uani 1 1 d . U . . .
O30 O 1.2063(3) 0.6181(5) 0.4598(7) 0.112(3) Uani 1 1 d . U . . .
O31 O 0.7219(3) 1.0285(3) 0.3347(6) 0.0701(15) Uani 1 1 d . U . . .
O32 O 1.2030(3) 0.6891(5) 0.4021(7) 0.112(3) Uani 1 1 d . U . . .
O33 O 1.1909(2) 1.1543(3) -0.0737(5) 0.064(2) Uani 1 1 d . U . . .
O34 O 0.8387(3) 1.0054(3) 0.7380(6) 0.0741(17) Uani 1 1 d . U . . .
O35 O 0.2509(3) 0.5700(3) 0.3170(6) 0.087(2) Uani 1 1 d . U . . .
Zn1 Zn 0.74483(3) 0.90894(4) 0.61306(7) 0.0307(3) Uani 1 1 d . . . . .
Zn2 Zn 0.75805(3) 0.99286(3) 0.45099(7) 0.0296(3) Uani 1 1 d . . . . .
Zn3 Zn 0.66448(4) 1.02215(4) 0.73083(9) 0.0459(3) Uani 1 1 d . . . . .
Zn4 Zn 0.84080(4) 0.97147(4) 0.61197(8) 0.0448(3) Uani 1 1 d . . . . .
Zn5 Zn 0.25721(4) 0.63835(5) 0.36098(9) 0.0533(4) Uani 1 1 d . . . . .
Zn6 Zn 0.24142(4) 1.13025(5) -0.14189(8) 0.0526(4) Uani 1 1 d . . . . .
O25 O 0.2373(3) 1.0656(3) -0.2090(5) 0.079(2) Uani 1 1 d . U . . .
loop_
_atom_site_aniso_label
_atom_site_aniso_U_11
_atom_site_aniso_U_22
_atom_site_aniso_U_33
_atom_site_aniso_U_23
_atom_site_aniso_U_13
_atom_site_aniso_U_12
Zn7 0.0318(7) 0.0382(7) 0.0803(9) -0.0057(6) -0.0003(6) -0.0053(5)
O36 0.101(4) 0.102(4) 0.137(5) -0.006(4) -0.018(4) -0.006(4)
C1 0.035(3) 0.063(3) 0.058(3) 0.009(3) 0.010(2) 0.011(2)
C2 0.025(2) 0.034(2) 0.043(2) -0.002(2) -0.002(2) 0.000(2)
C3 0.026(2) 0.050(3) 0.046(3) 0.002(3) -0.006(2) 0.001(2)
C4 0.026(2) 0.036(2) 0.045(2) -0.001(2) -0.002(2) 0.002(2)
C5 0.032(2) 0.050(2) 0.051(2) 0.004(2) -0.005(2) -0.0011(19)
C6 0.025(2) 0.045(2) 0.045(2) 0.002(2) -0.005(2) -0.002(2)
C7 0.034(3) 0.083(3) 0.070(3) 0.001(3) 0.009(3) 0.006(3)
C8 0.026(2) 0.034(2) 0.044(2) 0.000(2) -0.0042(19) 0.0035(19)
C9 0.031(2) 0.051(2) 0.050(2) 0.005(2) -0.0049(18) -0.0013(18)
C10 0.033(2) 0.064(3) 0.048(2) -0.001(2) -0.005(2) -0.003(2)
C11 0.031(2) 0.071(3) 0.065(3) 0.002(3) 0.007(2) 0.005(2)
C12 0.029(2) 0.046(3) 0.045(2) 0.003(2) 0.004(2) -0.004(2)
C13 0.035(2) 0.061(3) 0.059(3) 0.008(2) 0.011(2) 0.007(2)
C14 0.031(2) 0.052(2) 0.051(2) 0.006(2) -0.0047(19) 0.0000(19)
C15 0.023(2) 0.036(2) 0.043(2) 0.000(2) -0.0041(19) 0.0024(18)
C16 0.027(2) 0.049(3) 0.048(3) 0.002(2) -0.006(2) -0.004(2)
C17 0.026(2) 0.036(3) 0.046(3) -0.002(2) -0.001(2) -0.001(2)
C18 0.023(2) 0.033(2) 0.042(2) 0.001(2) -0.0038(19) 0.0020(19)
C19 0.027(2) 0.049(3) 0.047(3) 0.002(3) -0.006(2) 0.000(2)
C20 0.029(2) 0.046(2) 0.047(2) 0.005(2) 0.0039(19) -0.0010(18)
C21 0.037(3) 0.074(3) 0.053(3) -0.002(3) -0.006(2) -0.004(2)
C22 0.028(2) 0.049(2) 0.049(2) 0.004(2) 0.0038(19) 0.0003(18)
C23 0.026(2) 0.036(3) 0.043(3) -0.001(2) -0.006(2) 0.003(2)
C24 0.026(2) 0.034(3) 0.044(3) 0.000(2) -0.006(2) 0.004(2)
C25 0.025(2) 0.034(2) 0.043(2) 0.001(2) -0.0039(18) 0.0017(18)
C26 0.032(2) 0.052(2) 0.052(2) 0.006(2) -0.0058(19) -0.0016(19)
C27 0.024(2) 0.036(2) 0.044(2) 0.000(2) -0.0020(19) 0.0021(19)
C28 0.027(2) 0.049(3) 0.046(3) 0.002(2) -0.004(2) -0.003(2)
C29 0.028(2) 0.047(2) 0.050(2) 0.006(2) 0.004(2) 0.000(2)
C30 0.034(2) 0.053(2) 0.054(2) 0.008(2) -0.006(2) -0.001(2)
C31 0.036(3) 0.063(3) 0.060(3) 0.008(3) 0.010(3) 0.010(3)
C32 0.034(2) 0.051(2) 0.054(2) 0.004(2) -0.0063(19) -0.0018(19)
C33 0.043(3) 0.059(3) 0.071(3) 0.006(3) 0.008(2) 0.005(2)
C34 0.026(4) 0.033(4) 0.038(4) 0.006(4) -0.009(3) -0.005(3)
C35 0.036(3) 0.065(3) 0.059(3) 0.008(3) 0.011(2) 0.009(2)
C36 0.035(2) 0.051(3) 0.053(2) 0.004(2) -0.006(2) -0.002(2)
C37 0.038(2) 0.059(2) 0.066(2) 0.006(2) 0.011(2) 0.0002(19)
C38 0.025(2) 0.035(2) 0.043(3) -0.002(2) -0.007(2) 0.003(2)
C39 0.0233(19) 0.035(2) 0.042(2) 0.0006(19) -0.0043(18) 0.0015(17)
C40 0.031(2) 0.047(2) 0.047(2) 0.003(2) 0.004(2) -0.003(2)
C41 0.037(2) 0.059(2) 0.066(2) 0.006(2) 0.009(2) -0.0024(19)
C42 0.026(2) 0.048(3) 0.046(3) 0.002(2) -0.006(2) -0.002(2)
C43 0.037(3) 0.071(3) 0.051(3) -0.002(3) -0.004(2) -0.003(2)
C44 0.033(2) 0.054(3) 0.055(3) 0.009(2) -0.006(2) -0.002(2)
C45 0.022(4) 0.034(4) 0.035(4) 0.005(4) -0.006(3) -0.007(3)
C46 0.0256(19) 0.035(2) 0.044(2) 0.0006(19) -0.0031(18) 0.0035(17)
C47 0.031(3) 0.047(3) 0.047(3) 0.007(2) -0.001(2) 0.002(2)
C48 0.036(3) 0.069(3) 0.050(3) -0.001(3) -0.005(2) -0.003(2)
C49 0.033(2) 0.051(3) 0.053(2) 0.004(2) -0.007(2) -0.002(2)
C50 0.028(2) 0.045(2) 0.047(2) 0.005(2) 0.001(2) 0.001(2)
C51 0.029(2) 0.046(2) 0.049(2) 0.005(2) 0.0025(18) 0.0002(18)
C52 0.034(2) 0.054(3) 0.056(2) 0.008(2) -0.006(2) 0.001(2)
C53 0.0277(19) 0.048(2) 0.049(2) 0.0049(19) 0.0042(18) 0.0000(17)
C54 0.038(2) 0.058(2) 0.067(2) 0.006(2) 0.011(2) 0.001(2)
C55 0.030(2) 0.046(2) 0.050(2) 0.007(2) 0.001(2) 0.000(2)
C56 0.033(2) 0.053(3) 0.055(2) 0.003(2) -0.006(2) -0.003(2)
C57 0.041(2) 0.060(3) 0.071(3) 0.005(2) 0.012(2) 0.004(2)
C58 0.030(2) 0.046(2) 0.048(2) 0.003(2) 0.0032(18) -0.0028(18)
C59 0.024(2) 0.036(2) 0.045(2) -0.001(2) -0.003(2) 0.001(2)
C60 0.028(2) 0.047(2) 0.050(2) 0.006(2) 0.001(2) 0.000(2)
C61 0.035(2) 0.054(2) 0.054(2) 0.006(2) -0.0052(19) 0.0010(19)
C62 0.035(2) 0.051(3) 0.054(3) 0.004(2) -0.006(2) -0.004(2)
C63 0.041(2) 0.060(2) 0.071(2) 0.006(2) 0.011(2) 0.0005(19)
C64 0.040(2) 0.061(3) 0.069(3) 0.006(2) 0.006(2) -0.009(2)
C65 0.039(2) 0.059(2) 0.067(2) 0.007(2) 0.010(2) -0.005(2)
C66 0.036(2) 0.055(3) 0.055(2) 0.006(2) -0.007(2) -0.001(2)
C67 0.037(3) 0.071(3) 0.053(3) -0.002(3) -0.006(2) -0.008(2)
C68 0.040(3) 0.059(3) 0.067(3) 0.007(3) 0.009(2) -0.008(2)
C69 0.027(3) 0.051(3) 0.047(3) 0.003(3) -0.004(2) 0.000(2)
C70 0.031(2) 0.048(3) 0.046(3) 0.004(2) 0.003(2) -0.006(2)
C71 0.031(2) 0.047(2) 0.048(2) 0.003(2) 0.002(2) -0.004(2)
C72 0.033(3) 0.081(3) 0.071(3) 0.003(3) 0.009(3) 0.006(3)
C73 0.039(2) 0.059(3) 0.069(3) 0.006(2) 0.012(2) 0.004(2)
C74 0.030(2) 0.048(2) 0.047(2) 0.004(2) 0.003(2) -0.0022(19)
C75 0.064(7) 0.065(7) 0.129(9) -0.006(7) -0.010(7) 0.003(6)
C76 0.038(3) 0.065(3) 0.062(3) 0.010(3) 0.012(2) 0.011(2)
C77 0.037(3) 0.053(3) 0.055(3) 0.004(3) -0.005(2) -0.004(2)
C78 0.036(3) 0.065(3) 0.058(3) 0.009(3) 0.008(3) 0.012(3)
C79 0.042(2) 0.062(2) 0.070(2) 0.006(2) 0.010(2) -0.008(2)
C80 0.035(3) 0.055(3) 0.057(3) 0.009(3) -0.007(2) -0.003(2)
C81 0.042(3) 0.076(3) 0.055(3) -0.004(3) -0.004(3) -0.006(3)
C82 0.038(3) 0.069(3) 0.051(3) -0.002(3) -0.007(2) -0.005(3)
C83 0.044(2) 0.060(3) 0.072(3) 0.006(2) 0.010(2) 0.003(2)
C84 0.033(3) 0.082(3) 0.071(3) 0.002(3) 0.009(3) 0.005(3)
C85 0.038(3) 0.065(3) 0.062(3) 0.009(3) 0.011(2) 0.011(2)
C86 0.040(3) 0.059(3) 0.068(3) 0.006(3) 0.004(3) -0.008(3)
C87 0.042(2) 0.062(2) 0.068(2) 0.007(2) 0.008(2) -0.007(2)
C88 0.036(3) 0.082(3) 0.074(3) 0.002(3) 0.011(3) 0.005(3)
C89 0.049(3) 0.062(3) 0.082(3) 0.007(3) 0.009(3) 0.003(3)
C90 0.035(3) 0.087(3) 0.074(3) 0.001(3) 0.008(3) 0.005(3)
C91 0.042(2) 0.063(3) 0.069(3) 0.006(2) 0.009(2) -0.009(2)
C92 0.036(3) 0.082(3) 0.074(3) -0.001(3) 0.009(3) 0.007(3)
C93 0.084(8) 0.088(8) 0.136(9) 0.008(7) -0.017(7) -0.006(6)
C94 0.087(8) 0.095(8) 0.142(9) -0.006(7) -0.024(7) 0.002(6)
C95 0.067(7) 0.085(7) 0.259(12) -0.003(8) -0.038(8) -0.012(6)
C97 0.083(8) 0.100(8) 0.275(13) -0.001(9) -0.039(9) -0.012(7)
C98 0.087(8) 0.105(8) 0.272(13) 0.003(9) -0.028(9) 0.000(7)
C100 0.175(9) 0.184(10) 0.167(9) 0.016(9) -0.038(8) -0.043(9)
C101 0.027(2) 0.045(2) 0.047(2) 0.006(2) 0.0031(19) 0.0006(18)
C103 0.159(8) 0.173(8) 0.153(8) 0.016(7) -0.023(7) -0.033(7)
C102 0.174(9) 0.184(10) 0.156(9) 0.017(9) -0.038(8) -0.049(9)
N1 0.023(4) 0.042(5) 0.038(4) -0.004(4) -0.003(3) 0.005(3)
N2 0.147(9) 0.159(10) 0.134(9) 0.039(8) -0.031(8) -0.045(8)
N3 0.017(4) 0.039(5) 0.049(5) -0.001(4) -0.004(3) -0.002(3)
N4 0.025(4) 0.037(5) 0.046(5) 0.006(4) -0.002(3) 0.009(3)
N5 0.027(4) 0.056(6) 0.068(6) 0.014(5) 0.018(4) 0.009(4)
N6 0.025(4) 0.057(6) 0.055(5) 0.011(5) 0.005(4) 0.009(4)
N7 0.031(5) 0.063(6) 0.042(5) 0.010(4) 0.002(4) 0.010(4)
N8 0.020(4) 0.034(4) 0.045(5) 0.004(4) -0.004(3) 0.000(3)
N9 0.026(4) 0.030(4) 0.042(4) 0.004(4) -0.003(3) -0.003(3)
N10 0.021(4) 0.033(4) 0.039(4) 0.002(4) -0.011(3) 0.000(3)
N11 0.024(4) 0.049(5) 0.051(5) 0.006(4) 0.013(4) 0.005(4)
N12 0.026(4) 0.043(5) 0.070(6) 0.001(4) 0.016(4) 0.005(4)
N13 0.021(4) 0.048(5) 0.053(5) 0.012(4) 0.011(4) 0.001(4)
N14 0.054(6) 0.072(7) 0.246(12) 0.004(8) -0.035(8) -0.005(5)
N15 0.039(6) 0.072(7) 0.086(7) -0.006(6) -0.004(5) 0.005(5)
O1 0.0436(19) 0.050(2) 0.073(2) 0.0030(18) -0.0043(18) -0.0056(17)
O2 0.056(2) 0.065(2) 0.086(3) 0.011(2) -0.009(2) -0.009(2)
O3 0.056(2) 0.063(2) 0.094(2) -0.015(2) 0.005(2) -0.009(2)
O4 0.058(3) 0.058(3) 0.082(3) 0.010(2) -0.021(2) -0.012(2)
O5 0.050(3) 0.060(3) 0.090(3) 0.016(2) -0.004(2) -0.007(2)
O6 0.052(3) 0.052(3) 0.084(3) -0.011(3) 0.005(3) -0.007(3)
O7 0.056(3) 0.070(3) 0.089(3) 0.016(3) -0.007(3) -0.009(3)
O8 0.056(4) 0.091(5) 0.045(4) 0.016(3) -0.008(3) -0.039(4)
O9 0.055(3) 0.071(3) 0.092(3) 0.007(3) -0.009(3) -0.002(3)
O10 0.080(4) 0.066(4) 0.092(4) -0.007(4) -0.002(4) 0.001(4)
O11 0.086(4) 0.092(4) 0.088(4) -0.005(4) -0.003(4) -0.034(4)
O12 0.046(4) 0.086(5) 0.081(5) -0.002(4) -0.011(4) -0.021(4)
O13 0.055(4) 0.059(4) 0.141(5) -0.001(4) -0.008(4) -0.010(3)
O14 0.051(4) 0.053(4) 0.129(5) -0.007(4) 0.008(4) -0.013(3)
O15 0.037(3) 0.095(4) 0.059(4) -0.009(3) -0.005(3) -0.014(3)
O16 0.090(5) 0.091(5) 0.104(5) 0.015(4) -0.008(4) -0.008(4)
O17 0.051(3) 0.048(3) 0.070(3) -0.001(2) -0.008(2) -0.010(2)
O18 0.062(4) 0.072(4) 0.150(5) -0.006(4) -0.001(4) 0.013(3)
O19 0.112(7) 0.097(6) 0.216(8) 0.010(6) 0.039(7) 0.023(6)
O20 0.045(2) 0.048(3) 0.072(3) 0.003(2) -0.001(2) 0.003(2)
O21 0.057(5) 0.090(6) 0.086(5) 0.000(5) 0.023(4) 0.025(4)
O22 0.048(3) 0.052(3) 0.076(3) 0.001(3) -0.010(2) 0.005(2)
O23 0.061(4) 0.112(4) 0.086(4) -0.009(4) -0.011(3) -0.005(3)
O24 0.057(3) 0.113(4) 0.075(3) -0.003(3) -0.011(3) 0.002(3)
O26 0.060(4) 0.116(5) 0.073(4) 0.000(4) -0.009(3) 0.004(4)
O27 0.061(4) 0.118(5) 0.060(4) -0.023(4) -0.005(3) -0.008(4)
O28 0.046(2) 0.051(2) 0.074(2) -0.007(2) 0.005(2) -0.009(2)
O29 0.066(4) 0.094(5) 0.048(4) 0.012(4) -0.002(3) -0.040(4)
O30 0.051(5) 0.182(8) 0.104(6) 0.003(6) 0.026(4) 0.021(5)
O31 0.057(3) 0.062(3) 0.090(3) 0.019(3) -0.012(3) -0.001(3)
O32 0.048(4) 0.187(8) 0.101(6) 0.026(6) 0.024(4) 0.025(5)
O33 0.037(4) 0.086(5) 0.069(5) 0.001(4) 0.010(3) 0.014(4)
O34 0.065(3) 0.065(3) 0.091(4) -0.006(3) -0.010(3) 0.003(3)
O35 0.080(4) 0.100(5) 0.081(4) -0.023(4) 0.007(4) -0.027(4)
Zn1 0.0258(5) 0.0296(6) 0.0364(6) 0.0009(5) -0.0045(4) -0.0013(4)
Zn2 0.0221(5) 0.0299(6) 0.0364(6) 0.0038(5) -0.0033(4) 0.0010(4)
Zn3 0.0319(6) 0.0376(7) 0.0683(8) -0.0130(6) 0.0040(6) -0.0058(5)
Zn4 0.0337(7) 0.0522(8) 0.0481(7) 0.0033(6) -0.0020(5) -0.0025(5)
Zn5 0.0192(6) 0.0804(10) 0.0604(8) -0.0192(7) 0.0033(5) -0.0061(6)
Zn6 0.0230(6) 0.0868(10) 0.0478(7) -0.0072(7) -0.0004(5) 0.0058(6)
O25 0.067(4) 0.104(5) 0.066(4) -0.027(4) -0.009(4) 0.021(4)
loop_
_atom_type_symbol
_atom_type_description
_atom_type_scat_dispersion_real
_atom_type_scat_dispersion_imag
_atom_type_scat_source
C C 0.0033 0.0016 'International Tables Vol C Tables 4.2.6.8 and 6.1.1.4'
H H 0.0000 0.0000 'International Tables Vol C Tables 4.2.6.8 and 6.1.1.4'
N N 0.0061 0.0033 'International Tables Vol C Tables 4.2.6.8 and 6.1.1.4'
O O 0.0106 0.0060 'International Tables Vol C Tables 4.2.6.8 and 6.1.1.4'
Zn Zn 0.2839 1.4301 'International Tables Vol C Tables 4.2.6.8 and 6.1.1.4'
loop_
_geom_angle_atom_site_label_1
_geom_angle_atom_site_label_2
_geom_angle_atom_site_label_3
_geom_angle
_geom_angle_site_symmetry_1
_geom_angle_site_symmetry_3
_geom_angle_publ_flag
O18 Zn7 O3 143.7(4) 4_586 . ?
O18 Zn7 O13 99.4(4) 4_586 4_586 ?
O3 Zn7 O13 105.4(3) . 4_586 ?
O18 Zn7 O36 81.7(4) 4_586 . ?
O3 Zn7 O36 73.7(4) . . ?
O13 Zn7 O36 86.9(4) 4_586 . ?
O18 Zn7 O16 102.1(4) 4_586 . ?
O3 Zn7 O16 94.4(4) . . ?
O13 Zn7 O16 109.1(4) 4_586 . ?
O36 Zn7 O16 162.3(4) . . ?
C85 C1 C35 118.8(9) . . ?
C85 C1 C78 120.6(10) . . ?
C35 C1 C78 120.6(10) . . ?
C59 C2 C4 118.6(8) . . ?
C59 C2 C17 120.5(8) . . ?
C4 C2 C17 120.9(8) . . ?
C28 C3 C42 121.2(9) . . ?
C28 C3 H3 119.4 . . ?
C42 C3 H3 119.4 . . ?
C27 C4 C2 122.3(9) . . ?
C27 C4 H4 118.9 . . ?
C2 C4 H4 118.9 . . ?
C32 C5 C49 118.8(9) . . ?
C32 C5 C9 122.7(9) . . ?
C49 C5 C9 118.3(8) . . ?
C19 C6 C42 119.5(8) . . ?
C19 C6 N8 120.5(8) . . ?
C42 C6 N8 119.8(8) . . ?
C84 C7 C92 120.7(10) . . ?
C84 C7 C90 120.3(11) . . ?
C92 C7 C90 119.0(11) . . ?
C18 C8 C23 119.9(8) . . ?
C18 C8 H8 120.0 . . ?
C23 C8 H8 120.0 . . ?
N3 C9 C14 109.6(8) . . ?
N3 C9 C5 119.7(9) . . ?
C14 C9 C5 130.7(9) . . ?
C82 C10 C48 120.6(10) . . ?
C82 C10 N1 121.6(9) . . ?
C48 C10 N1 117.8(9) . . ?
C72 C11 C88 121.2(10) . . ?
C72 C11 N11 120.3(10) . . ?
C88 C11 N11 118.5(10) . . ?
C71 C12 C40 119.1(9) . . ?
C71 C12 C70 120.6(9) . . ?
C40 C12 C70 120.1(9) . . ?
C76 C13 C31 120.2(9) . . ?
C76 C13 N6 120.4(9) . . ?
C31 C13 N6 119.3(9) . . ?
N4 C14 C9 107.4(8) . . ?
N4 C14 C26 119.8(9) . . ?
C9 C14 C26 132.7(9) . . ?
N9 C15 C39 108.4(7) . . ?
N9 C15 C25 120.6(8) . . ?
C39 C15 C25 131.0(8) . . ?
C19 C16 C28 120.4(10) . . ?
C19 C16 H16 119.8 . . ?
C28 C16 H16 119.8 . . ?
O28 C17 O6 122.0(8) . . ?
O28 C17 C2 120.9(8) . . ?
O6 C17 C2 116.9(8) . . ?
C8 C18 C38 117.9(8) . . ?
C8 C18 C39 121.7(8) . . ?
C38 C18 C39 120.4(8) . . ?
C16 C19 C6 120.8(9) . . ?
C16 C19 H19 119.6 . . ?
C6 C19 H19 119.6 . . ?
C74 C20 C58 118.6(8) . . ?
C74 C20 C22 121.3(9) . . ?
C58 C20 C22 120.0(9) . . ?
C43 C21 C67 120.1(10) . . ?
C43 C21 C81 116.9(10) . . ?
C67 C21 C81 122.9(11) . . ?
N12 C22 C53 108.4(8) . . ?
N12 C22 C20 122.0(9) . . ?
C53 C22 C20 129.5(8) . . ?
C45 C23 C8 120.5(8) 4_576 . ?
C45 C23 H23 119.8 4_576 . ?
C8 C23 H23 119.8 . . ?
C45 C24 C38 121.0(8) 4_576 . ?
C45 C24 H24 119.5 4_576 . ?
C38 C24 H24 119.5 . . ?
C46 C25 C27 117.1(8) . . ?
C46 C25 C15 123.4(8) . . ?
C27 C25 C15 119.6(8) . . ?
C61 C26 C30 120.1(9) . . ?
C61 C26 C14 120.0(9) . . ?
C30 C26 C14 120.0(9) . . ?
C4 C27 C25 120.3(8) . . ?
C4 C27 H27 119.8 . . ?
C25 C27 H27 119.8 . . ?
C3 C28 C16 119.5(9) . . ?
C3 C28 C69 121.0(9) . . ?
C16 C28 C69 119.5(9) . . ?
C50 C29 C51 120.7(9) . . ?
C50 C29 H29 119.7 . . ?
C51 C29 H29 119.7 . . ?
C52 C30 C26 121.3(10) . . ?
C52 C30 H30 119.4 . . ?
C26 C30 H30 119.4 . . ?
C13 C31 C35 117.5(10) . . ?
C13 C31 H31 121.2 . . ?
C35 C31 H31 121.2 . . ?
C5 C32 C56 119.3(10) . . ?
C5 C32 H32 120.3 . . ?
C56 C32 H32 120.3 . . ?
C57 C33 C83 118.7(10) . . ?
C57 C33 C89 117.1(10) . . ?
C83 C33 C89 124.1(11) . . ?
O4 C34 O17 124.5(9) . . ?
O4 C34 C45 118.4(8) . . ?
O17 C34 C45 117.0(8) . . ?
C1 C35 C31 122.2(10) . . ?
C1 C35 H35 118.9 . . ?
C31 C35 H35 118.9 . . ?
C49 C36 C62 120.7(10) . . ?
C49 C36 H36 119.7 . . ?
C62 C36 H36 119.7 . . ?
N7 C37 C41 108.3(9) . . ?
N7 C37 C54 121.0(9) . . ?
C41 C37 C54 130.7(9) . . ?
C24 C38 C18 121.0(8) . . ?
C24 C38 H38 119.5 . . ?
C18 C38 H38 119.5 . . ?
N10 C39 C15 107.9(7) . . ?
N10 C39 C18 118.8(8) . . ?
C15 C39 C18 133.0(8) . . ?
C58 C40 C12 121.8(9) . . ?
C58 C40 H40 119.1 . . ?
C12 C40 H40 119.1 . . ?
N5 C41 C37 109.4(9) . . ?
N5 C41 C65 119.4(10) . . ?
C37 C41 C65 131.2(10) . . ?
C6 C42 C3 118.6(9) . . ?
C6 C42 H42 120.7 . . ?
C3 C42 H42 120.7 . . ?
C21 C43 C48 119.8(11) . . ?
C21 C43 H43 120.1 . . ?
C48 C43 H43 120.1 . . ?
C66 C44 C52 121.3(9) . . ?
C66 C44 C80 121.1(9) . . ?
C52 C44 C80 117.6(10) . . ?
C24 C45 C23 119.6(8) 4_575 4_575 ?
C24 C45 C34 119.5(8) 4_575 . ?
C23 C45 C34 120.9(8) 4_575 . ?
C59 C46 C25 121.2(8) . . ?
C59 C46 H46 119.4 . . ?
C25 C46 H46 119.4 . . ?
O22 C47 O20 123.7(9) . . ?
O22 C47 C50 118.7(9) . . ?
O20 C47 C50 117.6(9) . . ?
C43 C48 C10 120.0(11) . . ?
C43 C48 H48 120.0 . . ?
C10 C48 H48 120.0 . . ?
C36 C49 C5 120.5(9) . . ?
C36 C49 H49 119.7 . . ?
C5 C49 H49 119.7 . . ?
C29 C50 C55 118.3(8) . . ?
C29 C50 C47 121.7(8) . . ?
C55 C50 C47 119.9(9) . . ?
C101 C51 C29 120.3(9) . . ?
C101 C51 H51 119.8 . . ?
C29 C51 H51 119.8 . . ?
C44 C52 C30 118.2(10) . . ?
C44 C52 H52 120.9 . . ?
C30 C52 H52 120.9 . . ?
N13 C53 C22 108.4(8) . . ?
N13 C53 C101 120.7(9) . . ?
C22 C53 C101 130.7(8) . . ?
C73 C54 C63 119.4(10) . . ?
C73 C54 C37 119.2(9) . . ?
C63 C54 C37 121.4(10) . . ?
C60 C55 C50 119.7(9) . . ?
C60 C55 H55 120.2 . . ?
C50 C55 H55 120.2 . . ?
C62 C56 C32 120.1(9) . . ?
C62 C56 H56 120.0 . . ?
C32 C56 H56 120.0 . . ?
C33 C57 C63 121.3(10) . . ?
C33 C57 H57 119.4 . . ?
C63 C57 H57 119.4 . . ?
C40 C58 C20 119.8(9) . . ?
C40 C58 H58 120.1 . . ?
C20 C58 H58 120.1 . . ?
C2 C59 C46 120.5(8) . . ?
C2 C59 H59 119.7 . . ?
C46 C59 H59 119.7 . . ?
C55 C60 C101 122.3(9) . . ?
C55 C60 H60 118.9 . . ?
C101 C60 H60 118.9 . . ?
C26 C61 C66 120.1(10) . . ?
C26 C61 H61 119.9 . . ?
C66 C61 H61 119.9 . . ?
C36 C62 C56 120.5(9) . . ?
C36 C62 C77 121.2(9) . . ?
C56 C62 C77 118.3(9) . . ?
C54 C63 C57 119.0(10) . . ?
C54 C63 H63 120.5 . . ?
C57 C63 H63 120.5 . . ?
C68 C64 C87 121.9(11) . . ?
C68 C64 H64 119.1 . . ?
C87 C64 H64 119.1 . . ?
C87 C65 C79 119.1(10) . . ?
C87 C65 C41 121.5(10) . . ?
C79 C65 C41 119.1(10) . . ?
C44 C66 C61 119.0(10) . . ?
C44 C66 H66 120.5 . . ?
C61 C66 H66 120.5 . . ?
C21 C67 C82 121.5(11) . . ?
C21 C67 H67 119.2 . . ?
C82 C67 H67 119.2 . . ?
C64 C68 C91 119.9(10) . . ?
C64 C68 C86 119.3(10) . . ?
C91 C68 C86 120.6(10) . . ?
O15 C69 O12 123.4(10) . . ?
O15 C69 C28 116.5(9) . . ?
O12 C69 C28 120.0(9) . . ?
O29 C70 O8 124.4(9) . . ?
O29 C70 C12 116.2(9) . . ?
O8 C70 C12 119.1(9) . . ?
C12 C71 C74 120.2(9) . . ?
C12 C71 H71 119.9 . . ?
C74 C71 H71 119.9 . . ?
C11 C72 C84 121.0(11) . . ?
C11 C72 H72 119.5 . . ?
C84 C72 H72 119.5 . . ?
C54 C73 C83 120.6(10) . . ?
C54 C73 H73 119.7 . . ?
C83 C73 H73 119.7 . . ?
C20 C74 C71 120.4(9) . . ?
C20 C74 H74 119.8 . . ?
C71 C74 H74 119.8 . . ?
O26 C75 N15 121.0(14) . . ?
O26 C75 H75 119.5 . . ?
N15 C75 H75 119.5 . . ?
C13 C76 C85 121.3(10) . . ?
C13 C76 H76 119.4 . . ?
C85 C76 H76 119.4 . . ?
O13 C77 O14 126.2(10) . . ?
O13 C77 C62 117.1(10) . . ?
O14 C77 C62 116.7(9) . . ?
O21 C78 O33 122.1(10) . . ?
O21 C78 C1 120.6(10) . . ?
O33 C78 C1 117.2(10) . . ?
C91 C79 C65 121.0(11) . . ?
C91 C79 H79 119.5 . . ?
C65 C79 H79 119.5 . . ?
O2 C80 O31 121.0(10) . . ?
O2 C80 C44 119.7(10) . . ?
O31 C80 C44 119.2(10) . . ?
O23 C81 O24 122.5(11) . . ?
O23 C81 C21 116.0(12) . . ?
O24 C81 C21 121.3(11) . . ?
O23 C81 Zn6 59.3(6) . . ?
O24 C81 Zn6 63.2(6) . . ?
C21 C81 Zn6 175.0(9) . . ?
C10 C82 C67 118.0(10) . . ?
C10 C82 H82 121.0 . . ?
C67 C82 H82 121.0 . . ?
C73 C83 C33 120.9(11) . . ?
C73 C83 H83 119.5 . . ?
C33 C83 H83 119.5 . . ?
C7 C84 C72 118.8(11) . . ?
C7 C84 H84 120.6 . . ?
C72 C84 H84 120.6 . . ?
C1 C85 C76 120.1(10) . . ?
C1 C85 H85 120.0 . . ?
C76 C85 H85 120.0 . . ?
O5 C86 O7 127.2(10) . . ?
O5 C86 C68 116.4(10) . . ?
O7 C86 C68 116.2(10) . . ?
C65 C87 C64 119.0(11) . . ?
C65 C87 H87 120.5 . . ?
C64 C87 H87 120.5 . . ?
C11 C88 C92 117.3(11) . . ?
C11 C88 H88 121.3 . . ?
C92 C88 H88 121.3 . . ?
O18 C89 O19 123.0(13) . . ?
O18 C89 C33 123.0(12) . . ?
O19 C89 C33 113.9(11) . . ?
O32 C90 O30 120.7(12) . . ?
O32 C90 C7 121.0(13) . . ?
O30 C90 C7 118.4(12) . . ?
O32 C90 Zn5 61.5(7) . 1_655 ?
O30 C90 Zn5 59.5(6) . 1_655 ?
C7 C90 Zn5 173.5(9) . 1_655 ?
C79 C91 C68 118.9(11) . . ?
C79 C91 H91 120.6 . . ?
C68 C91 H91 120.6 . . ?
C7 C92 C88 120.9(11) . . ?
C7 C92 H92 119.5 . . ?
C88 C92 H92 119.5 . . ?
N15 C93 H93A 109.5 . . ?
N15 C93 H93B 109.5 . . ?
H93A C93 H93B 109.5 . . ?
N15 C93 H93C 109.5 . . ?
H93A C93 H93C 109.5 . . ?
H93B C93 H93C 109.5 . . ?
N15 C94 H94A 109.5 . . ?
N15 C94 H94B 109.5 . . ?
H94A C94 H94B 109.5 . . ?
N15 C94 H94C 109.5 . . ?
H94A C94 H94C 109.5 . . ?
H94B C94 H94C 109.5 . . ?
O9 C95 N14 122.6(16) . . ?
O9 C95 H95 118.7 . . ?
N14 C95 H95 118.7 . . ?
N14 C97 H97A 109.5 . . ?
N14 C97 H97B 109.5 . . ?
H97A C97 H97B 109.5 . . ?
N14 C97 H97C 109.5 . . ?
H97A C97 H97C 109.5 . . ?
H97B C97 H97C 109.5 . . ?
N14 C98 H98A 109.5 . . ?
N14 C98 H98B 109.5 . . ?
H98A C98 H98B 109.5 . . ?
N14 C98 H98C 109.5 . . ?
H98A C98 H98C 109.5 . . ?
H98B C98 H98C 109.5 . . ?
N2 C100 H10A 108.1 . . ?
N2 C100 H10B 110.8 . . ?
H10A C100 H10B 109.5 . . ?
N2 C100 H10C 109.5 . . ?
H10A C100 H10C 109.5 . . ?
H10B C100 H10C 109.5 . . ?
C51 C101 C60 118.7(9) . . ?
C51 C101 C53 121.2(9) . . ?
C60 C101 C53 120.0(8) . . ?
O27 C103 N2 123(2) . . ?
O27 C103 H103 119.5 . . ?
N2 C103 H103 117.1 . . ?
N2 C102 H10D 108.9 . . ?
N2 C102 H10E 107.9 . . ?
H10D C102 H10E 109.5 . . ?
N2 C102 H10F 111.6 . . ?
H10D C102 H10F 109.5 . . ?
H10E C102 H10F 109.5 . . ?
N4 N1 N3 114.8(7) . . ?
N4 N1 C10 124.4(8) . . ?
N3 N1 C10 120.8(7) . . ?
C103 N2 C100 117(2) . . ?
C103 N2 C102 124.4(19) . . ?
C100 N2 C102 118.8(18) . . ?
C9 N3 N1 104.1(7) . . ?
N1 N4 C14 104.0(7) . . ?
C41 N5 N6 103.4(8) . . ?
N7 N6 N5 114.7(7) . . ?
N7 N6 C13 123.0(8) . . ?
N5 N6 C13 122.2(8) . . ?
C37 N7 N6 104.2(8) . . ?
N9 N8 N10 114.8(7) . . ?
N9 N8 C6 124.2(7) . . ?
N10 N8 C6 120.9(7) . . ?
C15 N9 N8 104.5(7) . . ?
C39 N10 N8 104.3(7) . . ?
N12 N11 N13 115.9(7) . . ?
N12 N11 C11 122.6(8) . . ?
N13 N11 C11 121.4(8) . . ?
C22 N12 N11 104.2(7) . . ?
N11 N13 C53 103.0(7) . . ?
C95 N14 C98 120.7(14) . . ?
C95 N14 C97 120.5(14) . . ?
C98 N14 C97 118.7(14) . . ?
C75 N15 C94 125.2(12) . . ?
C75 N15 C93 117.4(11) . . ?
C94 N15 C93 117.4(12) . . ?
Zn1 O1 Zn2 113.0(3) . . ?
Zn1 O1 Zn4 107.8(3) . . ?
Zn2 O1 Zn4 106.5(3) . . ?
C80 O2 Zn2 86.9(7) . . ?
Zn7 O3 Zn3 114.4(4) . . ?
C34 O4 Zn2 142.3(7) . . ?
C86 O5 Zn2 125.6(7) . . ?
C17 O6 Zn3 119.9(6) . . ?
C86 O7 Zn4 133.5(7) . . ?
C70 O8 Zn2 124.4(6) . 4_576 ?
C95 O9 Zn4 116.6(10) . . ?
C77 O13 Zn7 133.2(8) . 4_585 ?
C77 O14 Zn3 129.6(7) . 4_585 ?
C69 O15 Zn5 117.2(7) . . ?
C34 O17 Zn1 123.8(6) . . ?
C89 O18 Zn7 125.3(9) . 4_585 ?
C47 O20 Zn1 115.4(6) . . ?
C47 O22 Zn4 133.0(7) . . ?
C81 O23 Zn6 91.5(8) . . ?
C81 O24 Zn6 87.4(8) . . ?
C75 O26 Zn6 124.9(11) . . ?
C103 O27 Zn5 134.2(15) . . ?
C17 O28 Zn1 134.3(6) . . ?
C70 O29 Zn4 132.0(7) . 4_576 ?
C90 O30 Zn5 90.7(8) . 1_655 ?
C80 O31 Zn2 94.5(7) . . ?
C90 O32 Zn5 90.4(9) . 1_655 ?
C78 O33 Zn6 111.7(7) . 1_655 ?
O20 Zn1 O17 100.2(3) . . ?
O20 Zn1 O1 122.1(3) . . ?
O17 Zn1 O1 114.7(3) . . ?
O20 Zn1 O28 107.9(3) . . ?
O17 Zn1 O28 106.7(3) . . ?
O1 Zn1 O28 104.4(3) . . ?
O1 Zn2 O5 98.1(3) . . ?
O1 Zn2 O8 106.4(3) . 4_575 ?
O5 Zn2 O8 90.2(3) . 4_575 ?
O1 Zn2 O4 96.5(3) . . ?
O5 Zn2 O4 164.5(3) . . ?
O8 Zn2 O4 90.3(3) 4_575 . ?
O1 Zn2 O31 154.8(3) . . ?
O5 Zn2 O31 84.7(3) . . ?
O8 Zn2 O31 98.6(3) 4_575 . ?
O4 Zn2 O31 80.0(3) . . ?
O1 Zn2 O2 98.1(3) . . ?
O5 Zn2 O2 85.1(3) . . ?
O8 Zn2 O2 155.5(3) 4_575 . ?
O4 Zn2 O2 88.0(3) . . ?
O31 Zn2 O2 57.1(3) . . ?
O3 Zn3 O14 104.6(3) . 4_586 ?
O3 Zn3 O6 123.9(3) . . ?
O14 Zn3 O6 131.5(3) 4_586 . ?
O3 Zn3 O11 101.3(4) . . ?
O14 Zn3 O11 87.5(4) 4_586 . ?
O6 Zn3 O11 83.0(3) . . ?
O3 Zn3 O10 104.0(3) . . ?
O14 Zn3 O10 86.4(3) 4_586 . ?
O6 Zn3 O10 82.8(3) . . ?
O11 Zn3 O10 154.7(3) . . ?
O7 Zn4 O34 97.4(3) . . ?
O7 Zn4 O22 169.0(3) . . ?
O34 Zn4 O22 83.9(3) . . ?
O7 Zn4 O29 92.9(3) . 4_575 ?
O34 Zn4 O29 169.4(3) . 4_575 ?
O22 Zn4 O29 85.5(3) . 4_575 ?
O7 Zn4 O1 98.6(3) . . ?
O34 Zn4 O1 94.4(3) . . ?
O22 Zn4 O1 92.2(3) . . ?
O29 Zn4 O1 86.4(3) 4_575 . ?
O7 Zn4 O9 82.2(3) . . ?
O34 Zn4 O9 89.7(3) . . ?
O22 Zn4 O9 86.9(3) . . ?
O29 Zn4 O9 89.3(3) 4_575 . ?
O1 Zn4 O9 175.6(3) . . ?
O15 Zn5 O35 121.9(4) . . ?
O15 Zn5 O27 100.1(3) . . ?
O35 Zn5 O27 99.0(4) . . ?
O15 Zn5 O30 113.5(3) . 1_455 ?
O35 Zn5 O30 84.6(4) . 1_455 ?
O27 Zn5 O30 138.0(4) . 1_455 ?
O15 Zn5 O32 106.0(4) . 1_455 ?
O35 Zn5 O32 128.2(4) . 1_455 ?
O27 Zn5 O32 90.0(4) . 1_455 ?
O30 Zn5 O32 57.6(4) 1_455 1_455 ?
O15 Zn5 C90 114.5(4) . 1_455 ?
O35 Zn5 C90 106.8(4) . 1_455 ?
O27 Zn5 C90 113.4(4) . 1_455 ?
O30 Zn5 C90 29.7(4) 1_455 1_455 ?
O32 Zn5 C90 28.0(4) 1_455 1_455 ?
O33 Zn6 O26 101.2(3) 1_455 . ?
O33 Zn6 O25 120.6(3) 1_455 . ?
O26 Zn6 O25 91.5(4) . . ?
O33 Zn6 O23 118.1(3) 1_455 . ?
O26 Zn6 O23 134.0(4) . . ?
O25 Zn6 O23 88.4(3) . . ?
O33 Zn6 O24 100.7(3) 1_455 . ?
O26 Zn6 O24 93.0(4) . . ?
O25 Zn6 O24 136.7(3) . . ?
O23 Zn6 O24 58.6(3) . . ?
O33 Zn6 C81 111.5(4) 1_455 . ?
O26 Zn6 C81 115.9(4) . . ?
O25 Zn6 C81 113.9(4) . . ?
O23 Zn6 C81 29.2(3) . . ?
O24 Zn6 C81 29.4(3) . . ?
loop_
_geom_bond_atom_site_label_1
_geom_bond_atom_site_label_2
_geom_bond_distance
_geom_bond_site_symmetry_2
_geom_bond_publ_flag
Zn7 O18 1.890(9) 4_586 ?
Zn7 O3 1.900(8) . ?
Zn7 O13 1.941(8) 4_586 ?
Zn7 O36 1.971(11) . ?
Zn7 O16 2.013(9) . ?
C1 C85 1.350(14) . ?
C1 C35 1.373(14) . ?
C1 C78 1.496(13) . ?
C2 C59 1.346(12) . ?
C2 C4 1.392(11) . ?
C2 C17 1.484(12) . ?
C3 C28 1.364(13) . ?
C3 C42 1.398(12) . ?
C3 H3 0.9300 . ?
C4 C27 1.355(12) . ?
C4 H4 0.9300 . ?
C5 C32 1.393(12) . ?
C5 C49 1.397(13) . ?
C5 C9 1.487(13) . ?
C6 C19 1.377(12) . ?
C6 C42 1.397(12) . ?
C6 N8 1.417(11) . ?
C7 C84 1.346(15) . ?
C7 C92 1.396(16) . ?
C7 C90 1.496(15) . ?
C8 C18 1.393(12) . ?
C8 C23 1.394(11) . ?
C8 H8 0.9300 . ?
C9 N3 1.317(11) . ?
C9 C14 1.400(13) . ?
C10 C82 1.382(14) . ?
C10 C48 1.387(14) . ?
C10 N1 1.422(11) . ?
C11 C72 1.357(15) . ?
C11 C88 1.391(15) . ?
C11 N11 1.417(11) . ?
C12 C71 1.374(13) . ?
C12 C40 1.385(13) . ?
C12 C70 1.493(13) . ?
C13 C76 1.358(14) . ?
C13 C31 1.374(14) . ?
C13 N6 1.408(11) . ?
C14 N4 1.348(12) . ?
C14 C26 1.482(13) . ?
C15 N9 1.324(10) . ?
C15 C39 1.418(12) . ?
C15 C25 1.469(12) . ?
C16 C19 1.370(12) . ?
C16 C28 1.382(13) . ?
C16 H16 0.9300 . ?
C17 O28 1.267(10) . ?
C17 O6 1.276(11) . ?
C18 C38 1.397(12) . ?
C18 C39 1.469(11) . ?
C19 H19 0.9300 . ?
C20 C74 1.393(13) . ?
C20 C58 1.406(13) . ?
C20 C22 1.470(12) . ?
C21 C43 1.368(14) . ?
C21 C67 1.368(15) . ?
C21 C81 1.528(14) . ?
C22 N12 1.330(11) . ?
C22 C53 1.417(13) . ?
C23 C45 1.383(12) 4_576 ?
C23 H23 0.9300 . ?
C24 C45 1.351(12) 4_576 ?
C24 C38 1.376(11) . ?
C24 H24 0.9300 . ?
C25 C46 1.399(11) . ?
C25 C27 1.400(12) . ?
C26 C61 1.340(13) . ?
C26 C30 1.387(14) . ?
C27 H27 0.9300 . ?
C28 C69 1.500(13) . ?
C29 C50 1.398(13) . ?
C29 C51 1.406(12) . ?
C29 H29 0.9300 . ?
C30 C52 1.386(13) . ?
C30 H30 0.9300 . ?
C31 C35 1.409(13) . ?
C31 H31 0.9300 . ?
C32 C56 1.398(13) . ?
C32 H32 0.9300 . ?
C33 C57 1.346(14) . ?
C33 C83 1.381(14) . ?
C33 C89 1.513(15) . ?
C34 O4 1.209(10) . ?
C34 O17 1.242(10) . ?
C34 C45 1.505(11) . ?
C35 H35 0.9300 . ?
C36 C49 1.361(13) . ?
C36 C62 1.363(13) . ?
C36 H36 0.9300 . ?
C37 N7 1.332(12) . ?
C37 C41 1.401(14) . ?
C37 C54 1.478(14) . ?
C38 H38 0.9300 . ?
C39 N10 1.326(10) . ?
C40 C58 1.363(12) . ?
C40 H40 0.9300 . ?
C41 N5 1.332(12) . ?
C41 C65 1.503(14) . ?
C42 H42 0.9300 . ?
C43 C48 1.383(13) . ?
C43 H43 0.9300 . ?
C44 C66 1.367(14) . ?
C44 C52 1.385(13) . ?
C44 C80 1.493(14) . ?
C45 C24 1.351(12) 4_575 ?
C45 C23 1.383(12) 4_575 ?
C46 C59 1.397(12) . ?
C46 H46 0.9300 . ?
C47 O22 1.246(11) . ?
C47 O20 1.270(11) . ?
C47 C50 1.470(13) . ?
C48 H48 0.9300 . ?
C49 H49 0.9300 . ?
C50 C55 1.416(12) . ?
C51 C101 1.378(12) . ?
C51 H51 0.9300 . ?
C52 H52 0.9300 . ?
C53 N13 1.349(11) . ?
C53 C101 1.462(13) . ?
C54 C73 1.349(14) . ?
C54 C63 1.395(13) . ?
C55 C60 1.370(13) . ?
C55 H55 0.9300 . ?
C56 C62 1.368(13) . ?
C56 H56 0.9300 . ?
C57 C63 1.396(14) . ?
C57 H57 0.9300 . ?
C58 H58 0.9300 . ?
C59 H59 0.9300 . ?
C60 C101 1.394(13) . ?
C60 H60 0.9300 . ?
C61 C66 1.424(13) . ?
C61 H61 0.9300 . ?
C62 C77 1.522(14) . ?
C63 H63 0.9300 . ?
C64 C68 1.346(14) . ?
C64 C87 1.389(14) . ?
C64 H64 0.9300 . ?
C65 C87 1.362(14) . ?
C65 C79 1.399(15) . ?
C66 H66 0.9300 . ?
C67 C82 1.391(13) . ?
C67 H67 0.9300 . ?
C68 C91 1.381(14) . ?
C68 C86 1.549(14) . ?
C69 O15 1.240(11) . ?
C69 O12 1.243(11) . ?
C70 O29 1.244(11) . ?
C70 O8 1.249(11) . ?
C71 C74 1.396(12) . ?
C71 H71 0.9300 . ?
C72 C84 1.412(13) . ?
C72 H72 0.9300 . ?
C73 C83 1.376(14) . ?
C73 H73 0.9300 . ?
C74 H74 0.9300 . ?
C75 O26 1.149(14) . ?
C75 N15 1.391(17) . ?
C75 H75 0.9300 . ?
C76 C85 1.394(13) . ?
C76 H76 0.9300 . ?
C77 O13 1.230(12) . ?
C77 O14 1.241(12) . ?
C78 O21 1.207(12) . ?
C78 O33 1.269(12) . ?
C79 C91 1.375(14) . ?
C79 H79 0.9300 . ?
C80 O2 1.232(12) . ?
C80 O31 1.280(12) . ?
C81 O23 1.211(13) . ?
C81 O24 1.219(13) . ?
C81 Zn6 2.482(11) . ?
C82 H82 0.9300 . ?
C83 H83 0.9300 . ?
C84 H84 0.9300 . ?
C85 H85 0.9300 . ?
C86 O5 1.202(12) . ?
C86 O7 1.240(12) . ?
C87 H87 0.9300 . ?
C88 C92 1.403(14) . ?
C88 H88 0.9300 . ?
C89 O18 1.170(13) . ?
C89 O19 1.231(14) . ?
C90 O32 1.194(15) . ?
C90 O30 1.260(15) . ?
C90 Zn5 2.541(12) 1_655 ?
C91 H91 0.9300 . ?
C92 H92 0.9300 . ?
C93 N15 1.469(16) . ?
C93 H93A 0.9600 . ?
C93 H93B 0.9600 . ?
C93 H93C 0.9600 . ?
C94 N15 1.398(16) . ?
C94 H94A 0.9600 . ?
C94 H94B 0.9600 . ?
C94 H94C 0.9600 . ?
C95 O9 1.257(16) . ?
C95 N14 1.338(19) . ?
C95 H95 0.9300 . ?
C97 N14 1.420(18) . ?
C97 H97A 0.9600 . ?
C97 H97B 0.9600 . ?
C97 H97C 0.9600 . ?
C98 N14 1.413(19) . ?
C98 H98A 0.9600 . ?
C98 H98B 0.9600 . ?
C98 H98C 0.9600 . ?
C100 N2 1.39(2) . ?
C100 H10A 0.9599 . ?
C100 H10B 0.9600 . ?
C100 H10C 0.9600 . ?
C103 O27 1.15(2) . ?
C103 N2 1.34(2) . ?
C103 H103 0.9300 . ?
C102 N2 1.48(2) . ?
C102 H10D 0.9601 . ?
C102 H10E 0.9600 . ?
C102 H10F 0.9599 . ?
N1 N4 1.332(9) . ?
N1 N3 1.334(10) . ?
N5 N6 1.347(10) . ?
N6 N7 1.338(11) . ?
N8 N9 1.325(9) . ?
N8 N10 1.338(9) . ?
N11 N12 1.331(10) . ?
N11 N13 1.341(10) . ?
O1 Zn1 1.961(7) . ?
O1 Zn2 2.027(7) . ?
O1 Zn4 2.160(7) . ?
O2 Zn2 2.379(8) . ?
O3 Zn3 1.949(7) . ?
O4 Zn2 2.071(7) . ?
O5 Zn2 2.028(7) . ?
O6 Zn3 2.016(7) . ?
O7 Zn4 2.027(8) . ?
O8 Zn2 2.048(7) 4_576 ?
O9 Zn4 2.184(8) . ?
O10 Zn3 2.162(9) . ?
O11 Zn3 2.074(9) . ?
O13 Zn7 1.941(8) 4_585 ?
O14 Zn3 1.998(7) 4_585 ?
O15 Zn5 1.941(7) . ?
O17 Zn1 1.956(7) . ?
O18 Zn7 1.890(8) 4_585 ?
O20 Zn1 1.932(7) . ?
O22 Zn4 2.065(7) . ?
O23 Zn6 2.135(9) . ?
O24 Zn6 2.216(9) . ?
O26 Zn6 2.019(9) . ?
O27 Zn5 2.077(9) . ?
O28 Zn1 1.963(7) . ?
O29 Zn4 2.075(7) 4_576 ?
O30 Zn5 2.190(9) 1_655 ?
O31 Zn2 2.186(7) . ?
O32 Zn5 2.233(10) 1_655 ?
O33 Zn6 1.942(7) 1_655 ?
O34 Zn4 2.045(8) . ?
O35 Zn5 2.000(9) . ?
Zn2 O8 2.048(7) 4_575 ?
Zn3 O14 1.998(7) 4_586 ?
Zn4 O29 2.075(7) 4_575 ?
Zn5 O30 2.190(9) 1_455 ?
Zn5 O32 2.233(10) 1_455 ?
Zn5 C90 2.541(12) 1_455 ?
Zn6 O33 1.942(7) 1_455 ?
Zn6 O25 2.035(8) . ?
loop_
_geom_torsion_atom_site_label_1
_geom_torsion_atom_site_label_2
_geom_torsion_atom_site_label_3
_geom_torsion_atom_site_label_4
_geom_torsion
_geom_torsion_site_symmetry_1
_geom_torsion_site_symmetry_2
_geom_torsion_site_symmetry_3
_geom_torsion_site_symmetry_4
_geom_torsion_publ_flag
C59 C2 C4 C27 0.7(14) . . . . ?
C17 C2 C4 C27 179.5(8) . . . . ?
C32 C5 C9 N3 -152.5(9) . . . . ?
C49 C5 C9 N3 22.2(14) . . . . ?
C32 C5 C9 C14 24.2(17) . . . . ?
C49 C5 C9 C14 -161.0(10) . . . . ?
N3 C9 C14 N4 1.7(11) . . . . ?
C5 C9 C14 N4 -175.3(10) . . . . ?
N3 C9 C14 C26 -179.8(10) . . . . ?
C5 C9 C14 C26 3.2(19) . . . . ?
C59 C2 C17 O28 3.3(14) . . . . ?
C4 C2 C17 O28 -175.5(9) . . . . ?
C59 C2 C17 O6 -172.1(9) . . . . ?
C4 C2 C17 O6 9.1(13) . . . . ?
C23 C8 C18 C38 -4.2(13) . . . . ?
C23 C8 C18 C39 173.6(8) . . . . ?
C28 C16 C19 C6 1.0(14) . . . . ?
C42 C6 C19 C16 -0.2(14) . . . . ?
N8 C6 C19 C16 176.5(8) . . . . ?
C74 C20 C22 N12 -61.3(14) . . . . ?
C58 C20 C22 N12 116.4(11) . . . . ?
C74 C20 C22 C53 121.0(12) . . . . ?
C58 C20 C22 C53 -61.3(14) . . . . ?
C18 C8 C23 C45 2.1(13) . . . 4_576 ?
N9 C15 C25 C46 -146.4(9) . . . . ?
C39 C15 C25 C46 35.4(15) . . . . ?
N9 C15 C25 C27 33.0(13) . . . . ?
C39 C15 C25 C27 -145.2(10) . . . . ?
N4 C14 C26 C61 -130.6(10) . . . . ?
C9 C14 C26 C61 51.0(16) . . . . ?
N4 C14 C26 C30 49.3(13) . . . . ?
C9 C14 C26 C30 -129.0(12) . . . . ?
C2 C4 C27 C25 0.5(14) . . . . ?
C46 C25 C27 C4 -0.7(13) . . . . ?
C15 C25 C27 C4 179.9(8) . . . . ?
C42 C3 C28 C16 0.0(14) . . . . ?
C42 C3 C28 C69 -178.8(9) . . . . ?
C19 C16 C28 C3 -0.9(14) . . . . ?
C19 C16 C28 C69 177.9(9) . . . . ?
C61 C26 C30 C52 -1.9(15) . . . . ?
C14 C26 C30 C52 178.1(9) . . . . ?
C76 C13 C31 C35 -0.8(16) . . . . ?
N6 C13 C31 C35 -177.7(9) . . . . ?
C49 C5 C32 C56 2.4(15) . . . . ?
C9 C5 C32 C56 177.1(9) . . . . ?
C85 C1 C35 C31 -2.2(17) . . . . ?
C78 C1 C35 C31 174.1(10) . . . . ?
C13 C31 C35 C1 1.9(16) . . . . ?
C45 C24 C38 C18 1.1(14) 4_576 . . . ?
C8 C18 C38 C24 2.7(13) . . . . ?
C39 C18 C38 C24 -175.1(8) . . . . ?
N9 C15 C39 N10 1.2(10) . . . . ?
C25 C15 C39 N10 179.5(9) . . . . ?
N9 C15 C39 C18 -173.0(9) . . . . ?
C25 C15 C39 C18 5.4(17) . . . . ?
C8 C18 C39 N10 -142.1(9) . . . . ?
C38 C18 C39 N10 35.6(12) . . . . ?
C8 C18 C39 C15 31.5(15) . . . . ?
C38 C18 C39 C15 -150.7(10) . . . . ?
C71 C12 C40 C58 3.9(15) . . . . ?
C70 C12 C40 C58 -179.7(9) . . . . ?
N7 C37 C41 N5 -1.7(13) . . . . ?
C54 C37 C41 N5 177.4(11) . . . . ?
N7 C37 C41 C65 176.0(11) . . . . ?
C54 C37 C41 C65 -5(2) . . . . ?
C19 C6 C42 C3 -0.7(14) . . . . ?
N8 C6 C42 C3 -177.4(8) . . . . ?
C28 C3 C42 C6 0.8(14) . . . . ?
C67 C21 C43 C48 -0.7(16) . . . . ?
C81 C21 C43 C48 -177.9(9) . . . . ?
O4 C34 C45 C24 -4.8(13) . . . 4_575 ?
O17 C34 C45 C24 172.3(8) . . . 4_575 ?
O4 C34 C45 C23 173.7(9) . . . 4_575 ?
O17 C34 C45 C23 -9.2(13) . . . 4_575 ?
C27 C25 C46 C59 -0.3(13) . . . . ?
C15 C25 C46 C59 179.1(8) . . . . ?
C21 C43 C48 C10 1.4(15) . . . . ?
C82 C10 C48 C43 -0.6(15) . . . . ?
N1 C10 C48 C43 -179.3(9) . . . . ?
C62 C36 C49 C5 1.7(15) . . . . ?
C32 C5 C49 C36 -3.3(15) . . . . ?
C9 C5 C49 C36 -178.3(9) . . . . ?
C51 C29 C50 C55 2.0(14) . . . . ?
C51 C29 C50 C47 179.2(9) . . . . ?
O22 C47 C50 C29 158.4(9) . . . . ?
O20 C47 C50 C29 -23.1(14) . . . . ?
O22 C47 C50 C55 -24.3(14) . . . . ?
O20 C47 C50 C55 154.2(9) . . . . ?
C50 C29 C51 C101 -3.5(14) . . . . ?
C66 C44 C52 C30 -0.1(15) . . . . ?
C80 C44 C52 C30 -179.3(9) . . . . ?
C26 C30 C52 C44 2.6(15) . . . . ?
N12 C22 C53 N13 -2.3(11) . . . . ?
C20 C22 C53 N13 175.6(9) . . . . ?
N12 C22 C53 C101 173.6(10) . . . . ?
C20 C22 C53 C101 -8.4(18) . . . . ?
N7 C37 C54 C73 -15.3(17) . . . . ?
C41 C37 C54 C73 165.6(12) . . . . ?
N7 C37 C54 C63 164.3(10) . . . . ?
C41 C37 C54 C63 -14.7(19) . . . . ?
C29 C50 C55 C60 1.1(14) . . . . ?
C47 C50 C55 C60 -176.3(9) . . . . ?
C5 C32 C56 C62 0.1(15) . . . . ?
C83 C33 C57 C63 2.6(18) . . . . ?
C89 C33 C57 C63 -179.0(11) . . . . ?
C12 C40 C58 C20 -1.9(14) . . . . ?
C74 C20 C58 C40 -1.3(14) . . . . ?
C22 C20 C58 C40 -179.1(9) . . . . ?
C4 C2 C59 C46 -1.7(14) . . . . ?
C17 C2 C59 C46 179.5(8) . . . . ?
C25 C46 C59 C2 1.5(14) . . . . ?
C50 C55 C60 C101 -2.7(15) . . . . ?
C30 C26 C61 C66 -1.3(15) . . . . ?
C14 C26 C61 C66 178.6(9) . . . . ?
C49 C36 C62 C56 0.9(15) . . . . ?
C49 C36 C62 C77 179.7(9) . . . . ?
C32 C56 C62 C36 -1.7(15) . . . . ?
C32 C56 C62 C77 179.4(9) . . . . ?
C73 C54 C63 C57 2.4(17) . . . . ?
C37 C54 C63 C57 -177.3(10) . . . . ?
C33 C57 C63 C54 -2.9(17) . . . . ?
N5 C41 C65 C87 -81.0(14) . . . . ?
C37 C41 C65 C87 101.5(15) . . . . ?
N5 C41 C65 C79 93.4(13) . . . . ?
C37 C41 C65 C79 -84.1(16) . . . . ?
C52 C44 C66 C61 -3.0(15) . . . . ?
C80 C44 C66 C61 176.1(9) . . . . ?
C26 C61 C66 C44 3.8(15) . . . . ?
C43 C21 C67 C82 -0.8(16) . . . . ?
C81 C21 C67 C82 176.3(10) . . . . ?
C87 C64 C68 C91 3.5(17) . . . . ?
C87 C64 C68 C86 -173.2(10) . . . . ?
C3 C28 C69 O15 20.8(14) . . . . ?
C16 C28 C69 O15 -158.0(9) . . . . ?
C3 C28 C69 O12 -161.2(10) . . . . ?
C16 C28 C69 O12 20.0(14) . . . . ?
C71 C12 C70 O29 159.9(10) . . . . ?
C40 C12 C70 O29 -16.4(14) . . . . ?
C71 C12 C70 O8 -26.2(14) . . . . ?
C40 C12 C70 O8 157.5(10) . . . . ?
C40 C12 C71 C74 -2.6(14) . . . . ?
C70 C12 C71 C74 -178.9(9) . . . . ?
C88 C11 C72 C84 0.0(18) . . . . ?
N11 C11 C72 C84 177.4(10) . . . . ?
C63 C54 C73 C83 -1.6(18) . . . . ?
C37 C54 C73 C83 178.1(10) . . . . ?
C58 C20 C74 C71 2.6(14) . . . . ?
C22 C20 C74 C71 -179.6(9) . . . . ?
C12 C71 C74 C20 -0.6(14) . . . . ?
C31 C13 C76 C85 -0.1(17) . . . . ?
N6 C13 C76 C85 176.8(10) . . . . ?
C36 C62 C77 O13 175.1(10) . . . . ?
C56 C62 C77 O13 -6.0(15) . . . . ?
C36 C62 C77 O14 -5.4(15) . . . . ?
C56 C62 C77 O14 173.5(10) . . . . ?
C85 C1 C78 O21 -7.4(17) . . . . ?
C35 C1 C78 O21 176.4(11) . . . . ?
C85 C1 C78 O33 169.4(10) . . . . ?
C35 C1 C78 O33 -6.7(16) . . . . ?
C87 C65 C79 C91 0.4(17) . . . . ?
C41 C65 C79 C91 -174.1(10) . . . . ?
C66 C44 C80 O2 26.7(15) . . . . ?
C52 C44 C80 O2 -154.1(10) . . . . ?
C66 C44 C80 O31 -152.1(10) . . . . ?
C52 C44 C80 O31 27.1(14) . . . . ?
C43 C21 C81 O23 -178.4(10) . . . . ?
C67 C21 C81 O23 4.5(16) . . . . ?
C43 C21 C81 O24 6.3(16) . . . . ?
C67 C21 C81 O24 -170.8(11) . . . . ?
C48 C10 C82 C67 -0.8(15) . . . . ?
N1 C10 C82 C67 177.8(9) . . . . ?
C21 C67 C82 C10 1.5(16) . . . . ?
C54 C73 C83 C33 1.3(18) . . . . ?
C57 C33 C83 C73 -1.8(18) . . . . ?
C89 C33 C83 C73 180.0(11) . . . . ?
C92 C7 C84 C72 -1.2(18) . . . . ?
C90 C7 C84 C72 176.7(10) . . . . ?
C11 C72 C84 C7 -0.1(18) . . . . ?
C35 C1 C85 C76 1.3(17) . . . . ?
C78 C1 C85 C76 -175.0(10) . . . . ?
C13 C76 C85 C1 -0.2(17) . . . . ?
C64 C68 C86 O5 -44.9(15) . . . . ?
C91 C68 C86 O5 138.4(11) . . . . ?
C64 C68 C86 O7 131.0(12) . . . . ?
C91 C68 C86 O7 -45.7(16) . . . . ?
C79 C65 C87 C64 3.9(16) . . . . ?
C41 C65 C87 C64 178.3(10) . . . . ?
C68 C64 C87 C65 -5.9(17) . . . . ?
C72 C11 C88 C92 1.3(17) . . . . ?
N11 C11 C88 C92 -176.1(10) . . . . ?
C57 C33 C89 O18 -6(2) . . . . ?
C83 C33 C89 O18 172.4(13) . . . . ?
C57 C33 C89 O19 177.7(13) . . . . ?
C83 C33 C89 O19 -4(2) . . . . ?
C84 C7 C90 O32 -8.8(19) . . . . ?
C92 C7 C90 O32 169.1(13) . . . . ?
C84 C7 C90 O30 171.0(12) . . . . ?
C92 C7 C90 O30 -11.1(18) . . . . ?
C65 C79 C91 C68 -2.9(17) . . . . ?
C64 C68 C91 C79 0.9(17) . . . . ?
C86 C68 C91 C79 177.6(10) . . . . ?
C84 C7 C92 C88 2.6(18) . . . . ?
C90 C7 C92 C88 -175.3(11) . . . . ?
C11 C88 C92 C7 -2.6(17) . . . . ?
C29 C51 C101 C60 1.9(14) . . . . ?
C29 C51 C101 C53 -175.0(9) . . . . ?
C55 C60 C101 C51 1.2(15) . . . . ?
C55 C60 C101 C53 178.1(9) . . . . ?
N13 C53 C101 C51 156.5(9) . . . . ?
C22 C53 C101 C51 -19.0(16) . . . . ?
N13 C53 C101 C60 -20.3(14) . . . . ?
C22 C53 C101 C60 164.2(10) . . . . ?
C82 C10 N1 N4 -3.9(14) . . . . ?
C48 C10 N1 N4 174.8(8) . . . . ?
C82 C10 N1 N3 176.7(8) . . . . ?
C48 C10 N1 N3 -4.6(13) . . . . ?
O27 C103 N2 C100 -177(2) . . . . ?
O27 C103 N2 C102 2(4) . . . . ?
C14 C9 N3 N1 -0.8(10) . . . . ?
C5 C9 N3 N1 176.6(8) . . . . ?
N4 N1 N3 C9 -0.4(10) . . . . ?
C10 N1 N3 C9 179.1(8) . . . . ?
N3 N1 N4 C14 1.4(9) . . . . ?
C10 N1 N4 C14 -178.0(8) . . . . ?
C9 C14 N4 N1 -1.8(10) . . . . ?
C26 C14 N4 N1 179.5(8) . . . . ?
C37 C41 N5 N6 0.8(12) . . . . ?
C65 C41 N5 N6 -177.2(9) . . . . ?
C41 N5 N6 N7 0.4(11) . . . . ?
C41 N5 N6 C13 177.8(9) . . . . ?
C76 C13 N6 N7 -179.9(10) . . . . ?
C31 C13 N6 N7 -3.0(15) . . . . ?
C76 C13 N6 N5 2.8(16) . . . . ?
C31 C13 N6 N5 179.7(10) . . . . ?
C41 C37 N7 N6 1.8(11) . . . . ?
C54 C37 N7 N6 -177.4(9) . . . . ?
N5 N6 N7 C37 -1.4(11) . . . . ?
C13 N6 N7 C37 -178.9(9) . . . . ?
C19 C6 N8 N9 173.4(8) . . . . ?
C42 C6 N8 N9 -9.9(13) . . . . ?
C19 C6 N8 N10 -10.9(13) . . . . ?
C42 C6 N8 N10 165.8(8) . . . . ?
C39 C15 N9 N8 -1.6(9) . . . . ?
C25 C15 N9 N8 179.9(8) . . . . ?
N10 N8 N9 C15 1.5(9) . . . . ?
C6 N8 N9 C15 177.5(8) . . . . ?
C15 C39 N10 N8 -0.3(9) . . . . ?
C18 C39 N10 N8 174.9(7) . . . . ?
N9 N8 N10 C39 -0.8(9) . . . . ?
C6 N8 N10 C39 -176.9(8) . . . . ?
C72 C11 N11 N12 -174.3(10) . . . . ?
C88 C11 N11 N12 3.2(15) . . . . ?
C72 C11 N11 N13 3.3(15) . . . . ?
C88 C11 N11 N13 -179.2(9) . . . . ?
C53 C22 N12 N11 2.3(11) . . . . ?
C20 C22 N12 N11 -175.8(9) . . . . ?
N13 N11 N12 C22 -1.7(11) . . . . ?
C11 N11 N12 C22 176.0(9) . . . . ?
N12 N11 N13 C53 0.2(11) . . . . ?
C11 N11 N13 C53 -177.4(9) . . . . ?
C22 C53 N13 N11 1.2(10) . . . . ?
C101 C53 N13 N11 -175.2(8) . . . . ?
O9 C95 N14 C98 -1(3) . . . . ?
O9 C95 N14 C97 176.6(18) . . . . ?
O26 C75 N15 C94 1(2) . . . . ?
O26 C75 N15 C93 179.0(13) . . . . ?
O31 C80 O2 Zn2 -7.1(10) . . . . ?
C44 C80 O2 Zn2 174.2(9) . . . . ?
O18 Zn7 O3 Zn3 -153.4(5) 4_586 . . . ?
O13 Zn7 O3 Zn3 -22.0(6) 4_586 . . . ?
O36 Zn7 O3 Zn3 -104.1(5) . . . . ?
O16 Zn7 O3 Zn3 89.2(5) . . . . ?
O17 C34 O4 Zn2 18.3(18) . . . . ?
C45 C34 O4 Zn2 -164.8(8) . . . . ?
O7 C86 O5 Zn2 -38.2(17) . . . . ?
C68 C86 O5 Zn2 137.2(8) . . . . ?
O28 C17 O6 Zn3 17.9(13) . . . . ?
C2 C17 O6 Zn3 -166.7(6) . . . . ?
O5 C86 O7 Zn4 16(2) . . . . ?
C68 C86 O7 Zn4 -159.7(8) . . . . ?
O29 C70 O8 Zn2 -5.5(16) . . . 4_576 ?
C12 C70 O8 Zn2 -178.8(6) . . . 4_576 ?
N14 C95 O9 Zn4 -173.0(16) . . . . ?
O14 C77 O13 Zn7 -17(2) . . . 4_585 ?
C62 C77 O13 Zn7 162.0(8) . . . 4_585 ?
O13 C77 O14 Zn3 11.6(18) . . . 4_585 ?
C62 C77 O14 Zn3 -167.9(7) . . . 4_585 ?
O12 C69 O15 Zn5 -3.3(14) . . . . ?
C28 C69 O15 Zn5 174.7(6) . . . . ?
O4 C34 O17 Zn1 6.9(14) . . . . ?
C45 C34 O17 Zn1 -170.1(6) . . . . ?
O19 C89 O18 Zn7 -7(2) . . . 4_585 ?
C33 C89 O18 Zn7 176.6(8) . . . 4_585 ?
O22 C47 O20 Zn1 18.2(13) . . . . ?
C50 C47 O20 Zn1 -160.2(7) . . . . ?
O20 C47 O22 Zn4 -68.1(13) . . . . ?
C50 C47 O22 Zn4 110.3(9) . . . . ?
O24 C81 O23 Zn6 -2.4(13) . . . . ?
C21 C81 O23 Zn6 -177.7(8) . . . . ?
O23 C81 O24 Zn6 2.3(12) . . . . ?
C21 C81 O24 Zn6 177.3(10) . . . . ?
N15 C75 O26 Zn6 -176.7(8) . . . . ?
N2 C103 O27 Zn5 170.8(14) . . . . ?
O6 C17 O28 Zn1 -119.4(9) . . . . ?
C2 C17 O28 Zn1 65.3(12) . . . . ?
O8 C70 O29 Zn4 46.9(16) . . . 4_576 ?
C12 C70 O29 Zn4 -139.5(8) . . . 4_576 ?
O32 C90 O30 Zn5 -7.4(14) . . . 1_655 ?
C7 C90 O30 Zn5 172.9(10) . . . 1_655 ?
O2 C80 O31 Zn2 7.7(11) . . . . ?
C44 C80 O31 Zn2 -173.5(8) . . . . ?
O30 C90 O32 Zn5 7.2(14) . . . 1_655 ?
C7 C90 O32 Zn5 -173.0(11) . . . 1_655 ?
O21 C78 O33 Zn6 0.5(14) . . . 1_655 ?
C1 C78 O33 Zn6 -176.3(8) . . . 1_655 ?
loop_
_platon_squeeze_void_nr
_platon_squeeze_void_average_x
_platon_squeeze_void_average_y
_platon_squeeze_void_average_z
_platon_squeeze_void_volume
_platon_squeeze_void_count_electrons
1 0.000 0.250 -0.029 315.1 -2.5
2 0.000 0.750 -0.005 314.4 -1.9
3 0.110 0.000 0.000 21.5 -2.6
4 0.390 0.500 0.000 23.8 -2.7
5 0.500 0.249 -0.009 313.1 -1.8
6 0.500 0.751 -0.032 313.8 -2.4
7 0.610 0.500 0.000 21.5 -2.6
8 0.890 0.000 0.000 21.2 -2.5
9 0.110 0.500 0.500 21.6 -2.6
10 0.390 1.000 0.500 21.2 -2.6
11 0.610 0.000 0.500 21.6 -2.6
12 0.890 0.500 0.500 21.2 -2.6
