#------------------------------------------------------------------------------
#$Date: 2020-11-06 14:05:18 +0200 (Fri, 06 Nov 2020) $
#$Revision: 258811 $
#$URL: file:///home/coder/svn-repositories/cod/cif/7/70/56/7705662.cif $
#------------------------------------------------------------------------------
#
# This file is available in the Crystallography Open Database (COD),
# http://www.crystallography.net/
#
# All data on this site have been placed in the public domain by the
# contributors.
#
data_7705662
loop_
_publ_author_name
'Prasad, Thazhe Kootteri'
'Suh, Myunghyun Paik'
_publ_section_title
;
 Synthesis of multifunctional metal-organic frameworks and tuning the
 functionalities with pendant ligands.
;
_journal_issue                   42
_journal_name_full
'Dalton transactions (Cambridge, England : 2003)'
_journal_page_first              15034
_journal_page_last               15040
_journal_paper_doi               10.1039/d0dt03012k
_journal_volume                  49
_journal_year                    2020
_chemical_formula_sum            'C264 H192 O104 S24 Zn32'
_chemical_formula_weight         7889.44
_chemical_properties_physical    Air-sensitive,Moisture-sensitive
_space_group_crystal_system      cubic
_space_group_IT_number           227
_space_group_name_Hall           '-F 4vw 2vw 3'
_space_group_name_H-M_alt        'F d -3 m :2'
_audit_creation_method           SHELXL-2013
_audit_update_record
;
2020-06-22 deposited with the CCDC.	2020-10-06 downloaded from the CCDC.
;
_cell_angle_alpha                90
_cell_angle_beta                 90
_cell_angle_gamma                90
_cell_formula_units_Z            2
_cell_length_a                   29.970(10)
_cell_length_b                   29.970(10)
_cell_length_c                   29.970(10)
_cell_measurement_reflns_used    71208
_cell_measurement_temperature    293(2)
_cell_measurement_theta_max      25.217
_cell_measurement_theta_min      2.220
_cell_volume                     26919(16)
_computing_cell_refinement       HKL3000sm
_computing_data_collection       'ADSC Q210 ADX program'
_computing_data_reduction        HKL3000sm
_computing_molecular_graphics    'Mercury (Bruno, et.al., 2002)'
_computing_publication_material  'WinGX (Farrugia, 2012)'
_computing_structure_refinement  'SHELXL-2013 (Sheldrick, 2013)'
_computing_structure_solution    'SHELXL-2013 (Sheldrick, 2013)'
_diffrn_ambient_temperature      293(2)
_diffrn_measured_fraction_theta_full 0.855
_diffrn_measured_fraction_theta_max 0.830
_diffrn_measurement.details
' 1.00 degrees, 1.0 sec, detector distance 80.00 mm'
_diffrn_measurement_device_type  'ADSC Quantum-210 detector '
_diffrn_measurement_method       'omega scan'
_diffrn_radiation_monochromator  'silicon (111) double crystal monochromator'
_diffrn_radiation_type           synchrotron
_diffrn_radiation_wavelength     0.69998
_diffrn_reflns_av_R_equivalents  0.0096
_diffrn_reflns_av_unetI/netI     0.0133
_diffrn_reflns_Laue_measured_fraction_full 0.855
_diffrn_reflns_Laue_measured_fraction_max 0.830
_diffrn_reflns_limit_h_max       36
_diffrn_reflns_limit_h_min       2
_diffrn_reflns_limit_k_max       24
_diffrn_reflns_limit_k_min       0
_diffrn_reflns_limit_l_max       23
_diffrn_reflns_limit_l_min       0
_diffrn_reflns_number            1787
_diffrn_reflns_point_group_measured_fraction_full 0.855
_diffrn_reflns_point_group_measured_fraction_max 0.830
_diffrn_reflns_theta_full        24.834
_diffrn_reflns_theta_max         25.217
_diffrn_reflns_theta_min         2.220
_diffrn_source                   'PLSII 2D bending magnet'
_exptl_absorpt_coefficient_mu    1.537
_exptl_absorpt_correction_T_max  0.210
_exptl_absorpt_correction_T_min  0
_exptl_absorpt_correction_type   multi-scan
_exptl_absorpt_process_details   'HKL3000 Scalepack'
_exptl_crystal_colour            'pale yellow'
_exptl_crystal_density_diffrn    0.973
_exptl_crystal_description       cubic
_exptl_crystal_F_000             7904
_exptl_crystal_preparation       Luminescent
_exptl_crystal_recrystallization_method 'Solvothermal synthesis'
_exptl_crystal_size_max          0.2
_exptl_crystal_size_mid          0.2
_exptl_crystal_size_min          0.2
_refine_diff_density_max         1.202
_refine_diff_density_min         -0.447
_refine_diff_density_rms         0.079
_refine_ls_extinction_coef       0.0033(13)
_refine_ls_extinction_expression Fc^*^=kFc[1+0.001xFc^2^\l^3^/sin(2\q)]^-1/4^
_refine_ls_extinction_method     SHELXL
_refine_ls_goodness_of_fit_ref   1.429
_refine_ls_hydrogen_treatment    undef
_refine_ls_matrix_type           full
_refine_ls_number_parameters     30
_refine_ls_number_reflns         1046
_refine_ls_number_restraints     0
_refine_ls_restrained_S_all      1.429
_refine_ls_R_factor_all          0.1529
_refine_ls_R_factor_gt           0.1334
_refine_ls_shift/su_max          0.000
_refine_ls_shift/su_mean         0.000
_refine_ls_structure_factor_coef Fsqd
_refine_ls_weighting_details
'w=1/[\s^2^(Fo^2^)+(0.2000P)^2^] where P=(Fo^2^+2Fc^2^)/3'
_refine_ls_weighting_scheme      calc
_refine_ls_wR_factor_gt          0.3691
_refine_ls_wR_factor_ref         0.4010
_reflns_Friedel_coverage         0.000
_reflns_number_gt                538
_reflns_number_total             1046
_reflns_threshold_expression     'I > 2\s(I)'
_cod_data_source_file            d0dt03012k2.cif
_cod_data_source_block           SNU-171
_cod_depositor_comments
'Adding full bibliography for 7705661--7705665.cif.'
_cod_original_cell_volume        26919(27)
_cod_original_sg_symbol_H-M      'F d -3 m'
_cod_database_code               7705662
_shelx_space_group_comment
;
The symmetry employed for this shelxl refinement is uniquely defined
by the following loop, which should always be used as a source of
symmetry information in preference to the above space-group names.
They are only intended as comments.
;
_shelxl_version_number           2013-4
_shelx_res_file
;
TITL SMe
CELL  0.69998  29.9700  29.9700  29.9700   90.000   90.000   90.000
ZERR     2.00   0.0100   0.0100   0.0100    0.000    0.000    0.000
LATT   4
SYMM    X, 1/4 - Y, 1/4 - Z
SYMM  3/4 - X, 1/4 - Y, 1/2 + Z
SYMM  3/4 - X,   Y, 3/4 - Z
SYMM  - Y, 1/4 + X, 1/4 + Z
SYMM  3/4 + Y, 1/4 + X, 1/2 - Z
SYMM  3/4 + Y, - X, 3/4 + Z
SYMM  - Y, - X, - Z
SYMM    Y,   Z,   X
SYMM  3/4 - Y, 1/4 - Z, 1/2 + X
SYMM    Y, 1/4 - Z, 1/4 - X
SYMM  3/4 - Y,   Z, 3/4 - X
SYMM  - Z, 1/4 + Y, 1/4 + X
SYMM  - Z, - Y, - X
SYMM  3/4 + Z, - Y, 3/4 + X
SYMM  3/4 + Z, 1/4 + Y, 1/2 - X
SYMM    Z,   X,   Y
SYMM  1/4 - Z, 1/2 + X, 3/4 - Y
SYMM  1/4 - Z, 1/4 - X,   Y
SYMM    Z, 3/4 - X, 3/4 - Y
SYMM  - X, - Z, - Y
SYMM  - X, 3/4 + Z, 3/4 + Y
SYMM  1/4 + X, 1/2 - Z, 3/4 + Y
SYMM  3/4 + X, 1/4 + Z, 1/2 - Y
SFAC  C    H    O    S    ZN
UNIT  528  384  208  48   64
MERG   2
OMIT     1   7  15
OMIT     2   2  10
OMIT     3   3  15
OMIT     4  20  28
OMIT     4   4  10
OMIT     2   6   8
OMIT     2   6  12
OMIT     2   2   6
OMIT     8  12  12
OMIT     2   4  12
OMIT     2   4  16
OMIT     8   8  20
OMIT     0  10  22
OMIT     4   8   8
OMIT     4   4  20
OMIT     2   4  30
OMIT     4   8  20
OMIT     4   4   6
OMIT     8  18  28
OMIT     0   2  30
OMIT     7  11  13
OMIT     0   4  20
OMIT     1   1  15
OMIT     8   8   8
OMIT     8  10  20
OMIT    12  12  14
OMIT     0  18  26
OMIT     4  10  16
OMIT     6  16  18
OMIT     6  12  12
OMIT     2   2  12
OMIT     0   6  30
OMIT     1   1  19
OMIT     1  11  13
OMIT     8  10  14
OMIT     2  12  12
OMIT     6  14  20
OMIT     1   1  21
OMIT     2   2  32
OMIT    13  15  17
OMIT     0   8  20
OMIT     2   8  12
OMIT     0   0  20
OMIT    14  18  28
OMIT     2   2   2
OMIT     0  10  30
OMIT     2  10  10
OMIT     1   3  17
OMIT     3   5   7
OMIT     1  11  23
OMIT     0   8  28
OMIT     0   0  32
OMIT     6   8  20
OMIT     0  18  22
OMIT     0  14  30
OMIT     3   3  25
OMIT     0  12  32
OMIT     1  15  15
OMIT     2  10  14
OMIT    13  13  19
OMIT     4  10  22
OMIT     3   9  27
OMIT    13  13  15
OMIT     5  11  25
OMIT     1  15  19
OMIT     1   3  21
OMIT     3   3   3
OMIT     1   3  23
OMIT     3  17  23
OMIT     2  14  14
OMIT     6   6  18
OMIT     8   8  14
OMIT     0   4  32
OMIT    10  16  18
OMIT    15  15  17
OMIT     4  14  16
OMIT     9  13  17
OMIT     5   7  13
OMIT     9  15  31
OMIT     0   6  14
OMIT     3  15  15
OMIT     4  12  20
OMIT     9  11  23
OMIT     4   6  10
OMIT    10  14  14
OMIT     4   8  12
OMIT    12  18  22
OMIT     5  15  21
OMIT     4   6  20
OMIT     4  16  24
OMIT     6   8  16
OMIT     9  11  11
OMIT    10  10  20
OMIT     1  17  17
OMIT     1  13  17
OMIT     4   8  14
OMIT     5   5  31
OMIT    11  19  21
FMAP   2
PLAN    5
ACTA
BOND
L.S.   4
WGHT    0.200000
EXTI    0.003326
FVAR       1.54970
ZN1   5    0.087973    0.587973    0.087973    10.16667    0.15513    0.15513 =
         0.15513   -0.00767   -0.00767   -0.00767
ZN2   5    0.088365    0.161635    0.088365    10.16667    0.16938    0.16938 =
         0.16938    0.01883   -0.01883    0.01883
O1    3    0.125000    0.625000    0.125000    10.04167    0.12736    0.12736 =
         0.12736    0.00000    0.00000    0.00000
O2    3    0.099811    0.525791    0.099811    10.50000    0.23910    0.21320 =
         0.23910   -0.02536   -0.02346   -0.02536
O3    3    0.125000    0.125000    0.125000    10.04167    0.13100    0.13100 =
         0.13100    0.00000    0.00000    0.00000
O4    3    0.099365    0.223535    0.099365    10.50000    0.29132    0.27933 =
         0.29132    0.05453   -0.00475    0.05453
C1    1   10.125009   10.507200   10.125009    10.25000    0.17810
C2    1   10.125009   10.459700   10.125009    10.25000    0.21550
C3    1   10.098207   10.428905   10.098207    10.25000    0.45842
C4    1   10.100801   10.383801   10.100801    10.12500    0.48126
C5    1   10.105206   10.374000   10.105206    10.12500    0.14309
C6    1   10.091805   10.333302   10.091805    10.25000    0.52069
C7    1   10.116000   10.295900   10.116000    10.25000    0.25336
C8    1   10.125009   10.240100   10.125009    10.25000    0.24757
HKLF    4

REM  SMe
REM R1 =  0.1334 for     538 Fo > 4sig(Fo)  and  0.1529 for all    1046 data
REM     30 parameters refined using      0 restraints

END

WGHT      0.2000      0.0000

REM Highest difference peak  1.202,  deepest hole -0.447,  1-sigma level  0.079
Q1    1   0.1623  0.5877  0.0877  10.16667  0.05    0.49
Q2    1   0.0880  0.0880  0.0880  10.16667  0.05    0.30
Q3    1   0.1250  0.5511  0.1250  10.25000  0.05    0.29
Q4    1   0.1292  0.5553  0.0553  10.50000  0.05    0.29
Q5    1   0.0981  0.5336  0.1519  10.50000  0.05    0.27
;
_shelx_res_checksum              29346
loop_
_space_group_symop_operation_xyz
'x, y, z'
'x, -y+1/4, -z+1/4'
'-x+3/4, -y+1/4, z+1/2'
'-x+3/4, y, -z+3/4'
'-y, x+1/4, z+1/4'
'y+3/4, x+1/4, -z+1/2'
'y+3/4, -x, z+3/4'
'-y, -x, -z'
'y, z, x'
'-y+3/4, -z+1/4, x+1/2'
'y, -z+1/4, -x+1/4'
'-y+3/4, z, -x+3/4'
'-z, y+1/4, x+1/4'
'-z, -y, -x'
'z+3/4, -y, x+3/4'
'z+3/4, y+1/4, -x+1/2'
'z, x, y'
'-z+1/4, x+1/2, -y+3/4'
'-z+1/4, -x+1/4, y'
'z, -x+3/4, -y+3/4'
'-x, -z, -y'
'-x, z+3/4, y+3/4'
'x+1/4, -z+1/2, y+3/4'
'x+3/4, z+1/4, -y+1/2'
'x, y+1/2, z+1/2'
'x, -y+3/4, -z+3/4'
'-x+3/4, -y+3/4, z+1'
'-x+3/4, y+1/2, -z+5/4'
'-y, x+3/4, z+3/4'
'y+3/4, x+3/4, -z+1'
'y+3/4, -x+1/2, z+5/4'
'-y, -x+1/2, -z+1/2'
'y, z+1/2, x+1/2'
'-y+3/4, -z+3/4, x+1'
'y, -z+3/4, -x+3/4'
'-y+3/4, z+1/2, -x+5/4'
'-z, y+3/4, x+3/4'
'-z, -y+1/2, -x+1/2'
'z+3/4, -y+1/2, x+5/4'
'z+3/4, y+3/4, -x+1'
'z, x+1/2, y+1/2'
'-z+1/4, x+1, -y+5/4'
'-z+1/4, -x+3/4, y+1/2'
'z, -x+5/4, -y+5/4'
'-x, -z+1/2, -y+1/2'
'-x, z+5/4, y+5/4'
'x+1/4, -z+1, y+5/4'
'x+3/4, z+3/4, -y+1'
'x+1/2, y, z+1/2'
'x+1/2, -y+1/4, -z+3/4'
'-x+5/4, -y+1/4, z+1'
'-x+5/4, y, -z+5/4'
'-y+1/2, x+1/4, z+3/4'
'y+5/4, x+1/4, -z+1'
'y+5/4, -x, z+5/4'
'-y+1/2, -x, -z+1/2'
'y+1/2, z, x+1/2'
'-y+5/4, -z+1/4, x+1'
'y+1/2, -z+1/4, -x+3/4'
'-y+5/4, z, -x+5/4'
'-z+1/2, y+1/4, x+3/4'
'-z+1/2, -y, -x+1/2'
'z+5/4, -y, x+5/4'
'z+5/4, y+1/4, -x+1'
'z+1/2, x, y+1/2'
'-z+3/4, x+1/2, -y+5/4'
'-z+3/4, -x+1/4, y+1/2'
'z+1/2, -x+3/4, -y+5/4'
'-x+1/2, -z, -y+1/2'
'-x+1/2, z+3/4, y+5/4'
'x+3/4, -z+1/2, y+5/4'
'x+5/4, z+1/4, -y+1'
'x+1/2, y+1/2, z'
'x+1/2, -y+3/4, -z+1/4'
'-x+5/4, -y+3/4, z+1/2'
'-x+5/4, y+1/2, -z+3/4'
'-y+1/2, x+3/4, z+1/4'
'y+5/4, x+3/4, -z+1/2'
'y+5/4, -x+1/2, z+3/4'
'-y+1/2, -x+1/2, -z'
'y+1/2, z+1/2, x'
'-y+5/4, -z+3/4, x+1/2'
'y+1/2, -z+3/4, -x+1/4'
'-y+5/4, z+1/2, -x+3/4'
'-z+1/2, y+3/4, x+1/4'
'-z+1/2, -y+1/2, -x'
'z+5/4, -y+1/2, x+3/4'
'z+5/4, y+3/4, -x+1/2'
'z+1/2, x+1/2, y'
'-z+3/4, x+1, -y+3/4'
'-z+3/4, -x+3/4, y'
'z+1/2, -x+5/4, -y+3/4'
'-x+1/2, -z+1/2, -y'
'-x+1/2, z+5/4, y+3/4'
'x+3/4, -z+1, y+3/4'
'x+5/4, z+3/4, -y+1/2'
'-x, -y, -z'
'-x, y-1/4, z-1/4'
'x-3/4, y-1/4, -z-1/2'
'x-3/4, -y, z-3/4'
'y, -x-1/4, -z-1/4'
'-y-3/4, -x-1/4, z-1/2'
'-y-3/4, x, -z-3/4'
'y, x, z'
'-y, -z, -x'
'y-3/4, z-1/4, -x-1/2'
'-y, z-1/4, x-1/4'
'y-3/4, -z, x-3/4'
'z, -y-1/4, -x-1/4'
'z, y, x'
'-z-3/4, y, -x-3/4'
'-z-3/4, -y-1/4, x-1/2'
'-z, -x, -y'
'z-1/4, -x-1/2, y-3/4'
'z-1/4, x-1/4, -y'
'-z, x-3/4, y-3/4'
'x, z, y'
'x, -z-3/4, -y-3/4'
'-x-1/4, z-1/2, -y-3/4'
'-x-3/4, -z-1/4, y-1/2'
'-x, -y+1/2, -z+1/2'
'-x, y+1/4, z+1/4'
'x-3/4, y+1/4, -z'
'x-3/4, -y+1/2, z-1/4'
'y, -x+1/4, -z+1/4'
'-y-3/4, -x+1/4, z'
'-y-3/4, x+1/2, -z-1/4'
'y, x+1/2, z+1/2'
'-y, -z+1/2, -x+1/2'
'y-3/4, z+1/4, -x'
'-y, z+1/4, x+1/4'
'y-3/4, -z+1/2, x-1/4'
'z, -y+1/4, -x+1/4'
'z, y+1/2, x+1/2'
'-z-3/4, y+1/2, -x-1/4'
'-z-3/4, -y+1/4, x'
'-z, -x+1/2, -y+1/2'
'z-1/4, -x, y-1/4'
'z-1/4, x+1/4, -y+1/2'
'-z, x-1/4, y-1/4'
'x, z+1/2, y+1/2'
'x, -z-1/4, -y-1/4'
'-x-1/4, z, -y-1/4'
'-x-3/4, -z+1/4, y'
'-x+1/2, -y, -z+1/2'
'-x+1/2, y-1/4, z+1/4'
'x-1/4, y-1/4, -z'
'x-1/4, -y, z-1/4'
'y+1/2, -x-1/4, -z+1/4'
'-y-1/4, -x-1/4, z'
'-y-1/4, x, -z-1/4'
'y+1/2, x, z+1/2'
'-y+1/2, -z, -x+1/2'
'y-1/4, z-1/4, -x'
'-y+1/2, z-1/4, x+1/4'
'y-1/4, -z, x-1/4'
'z+1/2, -y-1/4, -x+1/4'
'z+1/2, y, x+1/2'
'-z-1/4, y, -x-1/4'
'-z-1/4, -y-1/4, x'
'-z+1/2, -x, -y+1/2'
'z+1/4, -x-1/2, y-1/4'
'z+1/4, x-1/4, -y+1/2'
'-z+1/2, x-3/4, y-1/4'
'x+1/2, z, y+1/2'
'x+1/2, -z-3/4, -y-1/4'
'-x+1/4, z-1/2, -y-1/4'
'-x-1/4, -z-1/4, y'
'-x+1/2, -y+1/2, -z'
'-x+1/2, y+1/4, z-1/4'
'x-1/4, y+1/4, -z-1/2'
'x-1/4, -y+1/2, z-3/4'
'y+1/2, -x+1/4, -z-1/4'
'-y-1/4, -x+1/4, z-1/2'
'-y-1/4, x+1/2, -z-3/4'
'y+1/2, x+1/2, z'
'-y+1/2, -z+1/2, -x'
'y-1/4, z+1/4, -x-1/2'
'-y+1/2, z+1/4, x-1/4'
'y-1/4, -z+1/2, x-3/4'
'z+1/2, -y+1/4, -x-1/4'
'z+1/2, y+1/2, x'
'-z-1/4, y+1/2, -x-3/4'
'-z-1/4, -y+1/4, x-1/2'
'-z+1/2, -x+1/2, -y'
'z+1/4, -x, y-3/4'
'z+1/4, x+1/4, -y'
'-z+1/2, x-1/4, y-3/4'
'x+1/2, z+1/2, y'
'x+1/2, -z-1/4, -y-3/4'
'-x+1/4, z, -y-3/4'
'-x-1/4, -z+1/4, y-1/2'
loop_
_atom_site_label
_atom_site_type_symbol
_atom_site_fract_x
_atom_site_fract_y
_atom_site_fract_z
_atom_site_U_iso_or_equiv
_atom_site_adp_type
_atom_site_occupancy
_atom_site_site_symmetry_order
_atom_site_calc_flag
_atom_site_refinement_flags_posn
_atom_site_refinement_flags_adp
_atom_site_refinement_flags_occupancy
_atom_site_disorder_assembly
_atom_site_disorder_group
Zn1 Zn 0.08797(3) 0.58797(3) 0.08797(3) 0.1551(15) Uani 1 6 d S T P . .
Zn2 Zn 0.08837(3) 0.16163(3) 0.08837(3) 0.1694(14) Uani 1 6 d S T P . .
O1 O 0.1250 0.6250 0.1250 0.127(4) Uani 1 24 d S T P . .
O2 O 0.0998(3) 0.5258(3) 0.0998(3) 0.230(4) Uani 1 2 d S T P . .
O3 O 0.1250 0.1250 0.1250 0.131(4) Uani 1 24 d S T P . .
O4 O 0.0994(3) 0.2235(5) 0.0994(3) 0.287(6) Uani 1 2 d S T P . .
C1 C 0.1250 0.5072 0.1250 0.178(4) Uiso 1 4 d S . P . .
C2 C 0.1250 0.4597 0.1250 0.215(7) Uiso 1 4 d S . P . .
C3 C 0.0982 0.4289 0.0982 0.46(3) Uiso 0.5 2 d S . P . .
C4 C 0.1008 0.3838 0.1008 0.48(8) Uiso 0.25 2 d S . P . .
C5 C 0.1052 0.3740 0.1052 0.143(7) Uiso 0.25 2 d S . P . .
C6 C 0.0918 0.3333 0.0918 0.52(3) Uiso 0.5 2 d S . P . .
C7 C 0.1160 0.2959 0.1160 0.253(12) Uiso 0.5 2 d S . P . .
C8 C 0.1250 0.2401 0.1250 0.248(9) Uiso 1 4 d S . P . .
loop_
_atom_site_aniso_label
_atom_site_aniso_U_11
_atom_site_aniso_U_22
_atom_site_aniso_U_33
_atom_site_aniso_U_23
_atom_site_aniso_U_13
_atom_site_aniso_U_12
Zn1 0.1551(15) 0.1551(15) 0.1551(15) -0.0077(4) -0.0077(4) -0.0077(4)
Zn2 0.1694(14) 0.1694(14) 0.1694(14) 0.0188(4) -0.0188(4) 0.0188(4)
O1 0.127(4) 0.127(4) 0.127(4) 0.000 0.000 0.000
O2 0.239(5) 0.213(6) 0.239(5) -0.025(5) -0.023(7) -0.025(5)
O3 0.131(4) 0.131(4) 0.131(4) 0.000 0.000 0.000
O4 0.291(6) 0.279(9) 0.291(6) 0.055(7) -0.005(10) 0.055(7)
loop_
_atom_type_symbol
_atom_type_description
_atom_type_scat_dispersion_real
_atom_type_scat_dispersion_imag
_atom_type_scat_source
C C 0.0033 0.0016 'International Tables Vol C Tables 4.2.6.8 and 6.1.1.4'
H H 0.0000 0.0000 'International Tables Vol C Tables 4.2.6.8 and 6.1.1.4'
O O 0.0106 0.0060 'International Tables Vol C Tables 4.2.6.8 and 6.1.1.4'
S S 0.1246 0.1234 'International Tables Vol C Tables 4.2.6.8 and 6.1.1.4'
Zn Zn 0.2839 1.4301 'International Tables Vol C Tables 4.2.6.8 and 6.1.1.4'
loop_
_geom_angle_atom_site_label_1
_geom_angle_atom_site_label_2
_geom_angle_atom_site_label_3
_geom_angle
_geom_angle_site_symmetry_1
_geom_angle_site_symmetry_3
_geom_angle_publ_flag
O1 Zn1 O2 110.2(3) . . ?
O1 Zn1 O2 110.2(3) . 176_455 ?
O2 Zn1 O2 108.7(3) . 176_455 ?
O1 Zn1 O2 110.2(3) . 41_554 ?
O2 Zn1 O2 108.7(3) . 41_554 ?
O2 Zn1 O2 108.7(3) 176_455 41_554 ?
O1 Zn1 Zn1 35.3 . 51_464 ?
O2 Zn1 Zn1 123.6(2) . 51_464 ?
O2 Zn1 Zn1 123.6(2) 176_455 51_464 ?
O2 Zn1 Zn1 74.9(3) 41_554 51_464 ?
O1 Zn1 Zn1 35.3 . 52_454 ?
O2 Zn1 Zn1 74.9(3) . 52_454 ?
O2 Zn1 Zn1 123.6(2) 176_455 52_454 ?
O2 Zn1 Zn1 123.6(2) 41_554 52_454 ?
Zn1 Zn1 Zn1 60.0 51_464 52_454 ?
O1 Zn1 Zn1 35.3 . 2_565 ?
O2 Zn1 Zn1 123.6(2) . 2_565 ?
O2 Zn1 Zn1 74.9(3) 176_455 2_565 ?
O2 Zn1 Zn1 123.6(2) 41_554 2_565 ?
Zn1 Zn1 Zn1 60.0 51_464 2_565 ?
Zn1 Zn1 Zn1 60.0 52_454 2_565 ?
O3 Zn2 O4 111.2(4) . 44_544 ?
O3 Zn2 O4 111.2(4) . 126_655 ?
O4 Zn2 O4 107.7(4) 44_544 126_655 ?
O3 Zn2 O4 111.2(4) . . ?
O4 Zn2 O4 107.7(4) 44_544 . ?
O4 Zn2 O4 107.7(4) 126_655 . ?
O3 Zn2 Zn2 35.3 . 52_454 ?
O4 Zn2 Zn2 124.3(3) 44_544 52_454 ?
O4 Zn2 Zn2 124.3(3) 126_655 52_454 ?
O4 Zn2 Zn2 75.9(4) . 52_454 ?
O3 Zn2 Zn2 35.3 . 51_454 ?
O4 Zn2 Zn2 75.9(4) 44_544 51_454 ?
O4 Zn2 Zn2 124.3(3) 126_655 51_454 ?
O4 Zn2 Zn2 124.3(3) . 51_454 ?
Zn2 Zn2 Zn2 60.0 52_454 51_454 ?
O3 Zn2 Zn2 35.3 . 2 ?
O4 Zn2 Zn2 124.3(3) 44_544 2 ?
O4 Zn2 Zn2 75.9(4) 126_655 2 ?
O4 Zn2 Zn2 124.3(3) . 2 ?
Zn2 Zn2 Zn2 60.0 52_454 2 ?
Zn2 Zn2 Zn2 60.0 51_454 2 ?
Zn1 O1 Zn1 109.471(1) 51_464 52_454 ?
Zn1 O1 Zn1 109.5 51_464 2_565 ?
Zn1 O1 Zn1 109.5 52_454 2_565 ?
Zn1 O1 Zn1 109.5 51_464 . ?
Zn1 O1 Zn1 109.5 52_454 . ?
Zn1 O1 Zn1 109.5 2_565 . ?
C1 O2 Zn1 132.6(6) . . ?
Zn2 O3 Zn2 109.471(1) . 52_454 ?
Zn2 O3 Zn2 109.5 . 51_454 ?
Zn2 O3 Zn2 109.471(1) 52_454 51_454 ?
Zn2 O3 Zn2 109.5 . 2 ?
Zn2 O3 Zn2 109.5 52_454 2 ?
Zn2 O3 Zn2 109.5 51_454 2 ?
C8 O4 Zn2 128.7(7) . . ?
O2 C1 O2 124.9(8) 52_454 . ?
O2 C1 C2 117.6(4) 52_454 . ?
O2 C1 C2 117.6(4) . . ?
C1 C2 C3 129.105(1) . 52_454 ?
C1 C2 C3 129.1 . . ?
C3 C2 C3 101.803(1) 52_454 . ?
C4 C3 C2 124.4 . . ?
C4 C3 C5 5.6 . . ?
C2 C3 C5 118.9 . . ?
C3 C4 C6 161.2 . . ?
C3 C4 C5 103.6 . 52_454 ?
C6 C4 C5 95.2 . 52_454 ?
C6 C5 C3 144.8 . . ?
C6 C5 C5 115.0 . 52_454 ?
C3 C5 C5 100.2 . 52_454 ?
C6 C5 C4 123.9 . 52_454 ?
C3 C5 C4 91.3 . 52_454 ?
C5 C5 C4 9.0 52_454 52_454 ?
C5 C6 C7 112.6 . . ?
C5 C6 C4 10.8 . . ?
C7 C6 C4 123.4 . . ?
C7 C7 C6 132.5 52_454 . ?
C7 C7 C8 77.1 52_454 . ?
C6 C7 C8 150.4 . . ?
O4 C8 O4 130.9(11) 52_454 . ?
O4 C8 C7 101.7(5) 52_454 52_454 ?
O4 C8 C7 127.4(5) . 52_454 ?
O4 C8 C7 127.4(5) 52_454 . ?
O4 C8 C7 101.7(5) . . ?
C7 C8 C7 25.7 52_454 . ?
loop_
_geom_bond_atom_site_label_1
_geom_bond_atom_site_label_2
_geom_bond_distance
_geom_bond_site_symmetry_2
_geom_bond_publ_flag
Zn1 O1 1.9220(15) . ?
Zn1 O2 1.930(11) . ?
Zn1 O2 1.930(11) 176_455 ?
Zn1 O2 1.930(11) 41_554 ?
Zn1 Zn1 3.139(2) 51_464 ?
Zn1 Zn1 3.139(2) 52_454 ?
Zn1 Zn1 3.139(2) 2_565 ?
Zn2 O3 1.9017(16) . ?
Zn2 O4 1.913(15) 44_544 ?
Zn2 O4 1.913(15) 126_655 ?
Zn2 O4 1.913(15) . ?
Zn2 Zn2 3.106(3) 52_454 ?
Zn2 Zn2 3.106(3) 51_454 ?
Zn2 Zn2 3.106(3) 2 ?
O1 Zn1 1.9220(15) 51_464 ?
O1 Zn1 1.9220(15) 52_454 ?
O1 Zn1 1.9220(15) 2_565 ?
O2 C1 1.205(11) . ?
O3 Zn2 1.9018(16) 52_454 ?
O3 Zn2 1.9018(16) 51_454 ?
O3 Zn2 1.9018(15) 2 ?
O4 C8 1.195(16) . ?
C1 O2 1.204(12) 52_454 ?
C1 C2 1.4236(5) . ?
C2 C3 1.4630(5) 52_454 ?
C2 C3 1.4636(5) . ?
C3 C4 1.3562(5) . ?
C3 C5 1.6721(6) . ?
C4 C6 1.5607(5) . ?
C4 C5 1.8874(6) 52_454 ?
C5 C6 1.3455(4) . ?
C5 C5 1.6777(6) 52_454 ?
C5 C4 1.8877(6) 52_454 ?
C6 C7 1.5192(5) . ?
C7 C7 0.7630(3) 52_454 ?
C7 C8 1.7154(6) . ?
C8 O4 1.194(16) 52_454 ?
C8 C7 1.7152(6) 52_454 ?
loop_
_platon_squeeze_void_nr
_platon_squeeze_void_average_x
_platon_squeeze_void_average_y
_platon_squeeze_void_average_z
_platon_squeeze_void_volume
_platon_squeeze_void_count_electrons
_platon_squeeze_void_content
1 0.007 -0.013 0.003 17554 2135 ' '
