#------------------------------------------------------------------------------
#$Date: 2020-11-06 14:07:15 +0200 (Fri, 06 Nov 2020) $
#$Revision: 258816 $
#$URL: file:///home/coder/svn-repositories/cod/cif/7/70/56/7705623.cif $
#------------------------------------------------------------------------------
#
# This file is available in the Crystallography Open Database (COD),
# http://www.crystallography.net/
#
# All data on this site have been placed in the public domain by the
# contributors.
#
data_7705623
loop_
_publ_author_name
'Gao, Xu-Sheng'
'Ding, Mei-Juan'
'Zhang, Jin'
'Zhao, Li-Duo'
'Ren, Xiao-Ming'
_publ_section_title
;
 Phase selectivity and tunable photophysical nature of rare earth
 metal-organic frameworks of Eu<sub> <i>x</i>
 </sub>Y<sub>1-<i>x</i></sub>-PTC (H<sub>3</sub>PTC = 2,4,6-pyridine
 tricarboxylic acid; <i>x</i> = 0-1).
;
_journal_issue                   42
_journal_name_full
'Dalton transactions (Cambridge, England : 2003)'
_journal_page_first              14985
_journal_page_last               14994
_journal_paper_doi               10.1039/d0dt03150j
_journal_volume                  49
_journal_year                    2020
_chemical_formula_sum            'C16 H16 Eu0.57 N2 O18 Y1.43'
_chemical_formula_weight         737.88
_space_group_crystal_system      monoclinic
_space_group_IT_number           14
_space_group_name_Hall           '-P 2yn'
_space_group_name_H-M_alt        'P 1 21/n 1'
_atom_sites_solution_hydrogens   difmap
_audit_creation_method           SHELXL-2016/6
_audit_update_record
;
2019-11-27 deposited with the CCDC.	2020-10-06 downloaded from the CCDC.
;
_cell_angle_alpha                90
_cell_angle_beta                 112.200(9)
_cell_angle_gamma                90
_cell_formula_units_Z            4
_cell_length_a                   18.329(4)
_cell_length_b                   6.8971(18)
_cell_length_c                   18.442(4)
_cell_measurement_reflns_used    9927
_cell_measurement_temperature    301(2)
_cell_measurement_theta_max      27.43
_cell_measurement_theta_min      3.19
_cell_volume                     2158.6(9)
_computing_cell_refinement       'Bruker SAINT'
_computing_data_collection       'Bruker APEX2'
_computing_data_reduction        'Bruker SAINT'
_computing_molecular_graphics    'Bruker SHELXTL'
_computing_publication_material  'Bruker SHELXTL'
_computing_structure_refinement  'SHELXL-2016/6 (Sheldrick, 2016)'
_computing_structure_solution    'SHELXS-97 (Sheldrick 2008)'
_diffrn_ambient_temperature      301(2)
_diffrn_measured_fraction_theta_full 0.997
_diffrn_measured_fraction_theta_max 0.995
_diffrn_measurement_device_type  'Bruker APEX-II CCD'
_diffrn_measurement_method       '\f and \w scans'
_diffrn_radiation_type           MoK\a
_diffrn_radiation_wavelength     0.71073
_diffrn_reflns_av_R_equivalents  0.0373
_diffrn_reflns_av_unetI/netI     0.0285
_diffrn_reflns_Laue_measured_fraction_full 0.997
_diffrn_reflns_Laue_measured_fraction_max 0.995
_diffrn_reflns_limit_h_max       23
_diffrn_reflns_limit_h_min       -21
_diffrn_reflns_limit_k_max       8
_diffrn_reflns_limit_k_min       -8
_diffrn_reflns_limit_l_max       22
_diffrn_reflns_limit_l_min       -23
_diffrn_reflns_number            24062
_diffrn_reflns_point_group_measured_fraction_full 0.997
_diffrn_reflns_point_group_measured_fraction_max 0.995
_diffrn_reflns_theta_full        25.242
_diffrn_reflns_theta_max         27.495
_diffrn_reflns_theta_min         3.185
_exptl_absorpt_coefficient_mu    5.567
_exptl_absorpt_correction_type   none
_exptl_crystal_colour            colorless
_exptl_crystal_density_diffrn    2.270
_exptl_crystal_description       block
_exptl_crystal_F_000             1446.4
_refine_diff_density_max         0.429
_refine_diff_density_min         -0.715
_refine_diff_density_rms         0.087
_refine_ls_extinction_method     none
_refine_ls_goodness_of_fit_ref   1.088
_refine_ls_hydrogen_treatment    refall
_refine_ls_matrix_type           full
_refine_ls_number_parameters     409
_refine_ls_number_reflns         4916
_refine_ls_number_restraints     0
_refine_ls_restrained_S_all      1.088
_refine_ls_R_factor_all          0.0294
_refine_ls_R_factor_gt           0.0230
_refine_ls_shift/su_max          0.002
_refine_ls_shift/su_mean         0.000
_refine_ls_structure_factor_coef Fsqd
_refine_ls_weighting_details
'w=1/[\s^2^(Fo^2^)+(0.0110P)^2^+1.5528P] where P=(Fo^2^+2Fc^2^)/3'
_refine_ls_weighting_scheme      calc
_refine_ls_wR_factor_gt          0.0423
_refine_ls_wR_factor_ref         0.0439
_reflns_Friedel_coverage         0.000
_reflns_number_gt                4391
_reflns_number_total             4942
_reflns_threshold_expression     'I > 2\s(I)'
_cod_data_source_file            d0dt03150j2.cif
_cod_data_source_block           1_CCDC4
_cod_depositor_comments
'Adding full bibliography for 7705619--7705631.cif.'
_cod_original_cell_volume        2158.6(8)
_cod_original_sg_symbol_H-M      'P 21/n'
_cod_database_code               7705623
_shelx_shelxl_version_number     2016/6
_shelx_space_group_comment
; 
The symmetry employed for this shelxl refinement is uniquely defined 
by the following loop, which should always be used as a source of 
symmetry information in preference to the above space-group names. 
They are only intended as comments. 
;
_shelx_res_file
; 
TITL 1 in P2(1)/n 
    1.res 
    created by SHELXL-2016/6 at 17:21:56 on 30-Jun-2019 
CELL 0.71073  18.32920   6.89710  18.44200  90.0000 112.1995  90.0000 
ZERR  4.00   0.00360   0.00180   0.00370   0.0000   0.0092   0.0000 
LATT 1 
SYMM 0.5-X,0.5+Y,0.5-Z 
SFAC C  H  Eu N  O  Y 
UNIT 64 64 2.28 8 72 5.72 
L.S. 40 
ACTA 
BOND $H 
FMAP 2 
PLAN 5 
LIST 4 
HTAB O18 O11_$7 
HTAB O15 O14_$12 
HTAB O15 O13_$12 
EQIV $12 x, y+1, z 
HTAB O16 O18 
HTAB O13 O11_$7 
HTAB O16 O4_$11 
EQIV $11 x-1/2, -y+3/2, z-1/2 
HTAB O17 O6_$10 
EQIV $10 -x+1, -y+1, -z+1 
HTAB O14 O4_$9 
HTAB O14 O3_$9 
EQIV $9 -x+1, -y+1, -z+2 
HTAB O15 O10_$8 
EQIV $8 x+1/2, -y+3/2, z+1/2 
HTAB O13 O1_$1 
EQIV $1 -x+1/2, y-1/2, -z+3/2 
HTAB O18 O9 
HTAB O17 O12_$7 
EQIV $7 x+1/2, -y+1/2, z+1/2 
HTAB C14 O13_$6 
EQIV $6 x-1/2, -y+1/2, z-1/2 
HTAB 
EADP Y1 Eu1 
EADP Y2 Eu2 
EXYZ Y1 Eu1 
EXYZ Y2 Eu2 
MORE -1 
CONF 
FREE Eu1  C8 
FREE Eu1  C1 
TEMP 27.850 
WGHT    0.011000    1.552800 
FVAR       0.08448   0.62293   0.80961 
Y1    6    0.373517    0.722933    0.877150    21.00000    0.00984    0.01371 = 
         0.00764    0.00034    0.00328    0.00034 
EU1   3    0.373517    0.722933    0.877150   -21.00000    0.00984    0.01371 = 
         0.00764    0.00034    0.00328    0.00034 
Y2    6    0.375354    0.752709    0.396112    31.00000    0.00839    0.01709 = 
         0.00689   -0.00009    0.00201   -0.00047 
EU2   3    0.375354    0.752709    0.396112   -31.00000    0.00839    0.01709 = 
         0.00689   -0.00009    0.00201   -0.00047 
C1    1    0.303071    0.965596    0.710055    11.00000    0.01510    0.02088 = 
         0.01414   -0.00184    0.00375    0.00008 
C2    1    0.383397    0.912312    0.711034    11.00000    0.01458    0.01601 = 
         0.01501    0.00072    0.00496   -0.00011 
C3    1    0.406959    0.934015    0.648349    11.00000    0.01450    0.01787 = 
         0.01185    0.00175    0.00041   -0.00148 
C4    1    0.482205    0.872328    0.657264    11.00000    0.01658    0.01677 = 
         0.01587   -0.00289    0.00689   -0.00447 
C5    1    0.508129    0.873286    0.588678    11.00000    0.01827    0.01282 = 
         0.01544    0.00205    0.00594    0.00149 
C6    1    0.532796    0.801941    0.729730    11.00000    0.01361    0.01698 = 
         0.01694   -0.00175    0.00458   -0.00198 
C7    1    0.503879    0.783534    0.788820    11.00000    0.01410    0.01578 = 
         0.01552   -0.00073    0.00466   -0.00214 
C8    1    0.550445    0.705220    0.869635    11.00000    0.01471    0.01913 = 
         0.01528   -0.00076    0.00408    0.00087 
C9    1    0.247071    0.421652    0.271065    11.00000    0.01598    0.01877 = 
         0.01706   -0.00031    0.00614   -0.00103 
C10   1    0.180486    0.355128    0.294853    11.00000    0.01543    0.01668 = 
         0.01500   -0.00032    0.00471   -0.00168 
C11   1    0.182635    0.363672    0.370805    11.00000    0.01704    0.02228 = 
         0.01176   -0.00155    0.00164   -0.00386 
C12   1    0.116540    0.305151    0.384624    11.00000    0.02150    0.01728 = 
         0.01414    0.00151    0.00769   -0.00078 
C13   1    0.116218    0.304805    0.466307    11.00000    0.02108    0.01889 = 
         0.01356   -0.00036    0.00629   -0.00122 
C14   1    0.051079    0.237340    0.322350    11.00000    0.01857    0.01838 = 
         0.01676    0.00074    0.00817   -0.00084 
C15   1    0.054917    0.225093    0.248782    11.00000    0.01346    0.01544 = 
         0.01602    0.00128    0.00482    0.00070 
C16   1   -0.009383    0.145015    0.176183    11.00000    0.01619    0.01536 = 
         0.01641    0.00206    0.00568    0.00116 
O1    5    0.286080    0.890576    0.765233    11.00000    0.01527    0.03710 = 
         0.02078    0.01005    0.00879    0.00612 
O2    5    0.259292    1.075041    0.658168    11.00000    0.01713    0.02724 = 
         0.01809    0.00695    0.00510    0.00597 
O3    5    0.509827    0.669099    0.911389    11.00000    0.01611    0.03262 = 
         0.01514    0.00681    0.00573    0.00434 
O4    5    0.621869    0.681077    0.890417    11.00000    0.01225    0.04933 = 
         0.02724    0.01015    0.00370    0.00390 
O5    5    0.459654    0.815671    0.524958    11.00000    0.02236    0.03362 = 
         0.01430   -0.00305    0.00330   -0.00495 
O6    5    0.577833    0.927058    0.602023    11.00000    0.01584    0.02612 = 
         0.01968   -0.00004    0.00768   -0.00252 
O7    5    0.306439    0.491731    0.323377    11.00000    0.01932    0.03098 = 
         0.01694   -0.00325    0.00180   -0.00931 
O8    5    0.237087    0.401194    0.200326    11.00000    0.01948    0.04202 = 
         0.01471   -0.00414    0.00799   -0.00921 
O9    5    0.180890    0.316228    0.523842    11.00000    0.02034    0.03493 = 
         0.01411    0.00083    0.00540   -0.00427 
O10   5    0.052627    0.284190    0.475923    11.00000    0.02041    0.03713 = 
         0.01775    0.00111    0.00931   -0.00252 
O11   5   -0.071458    0.085866    0.179924    11.00000    0.01683    0.03379 = 
         0.02112   -0.00184    0.00774   -0.00700 
O12   5    0.006348    0.145985    0.114369    11.00000    0.01703    0.03485 = 
         0.01368   -0.00394    0.00564   -0.00695 
O13   5    0.366543    0.457239    0.789947    11.00000    0.01882    0.03838 = 
         0.01937   -0.00877    0.01043   -0.00369 
O14   5    0.378521    0.428269    0.950308    11.00000    0.02838    0.02804 = 
         0.01858    0.00537    0.00633    0.00419 
O15   5    0.407200    1.059720    0.898078    11.00000    0.03136    0.02077 = 
         0.03379   -0.00363    0.00794   -0.00169 
O16   5    0.283553    0.811001    0.452862    11.00000    0.01759    0.05118 = 
         0.02132    0.00560    0.00847    0.00615 
O17   5    0.395621    0.458310    0.471631    11.00000    0.03068    0.02573 = 
         0.01720    0.00103    0.00163    0.00186 
O18   5    0.287637    0.610559    0.579615    11.00000    0.03734    0.04138 = 
         0.03343    0.00221    0.00599   -0.01362 
N1    4    0.430149    0.832826    0.778520    11.00000    0.01328    0.01701 = 
         0.01608    0.00013    0.00582   -0.00003 
N2    4    0.118631    0.285537    0.235874    11.00000    0.01452    0.01807 = 
         0.01199    0.00007    0.00419    0.00050 
H3    2    0.372454    0.990160    0.599520    11.00000    0.01143 
H6    2    0.588346    0.756221    0.738059    11.00000    0.02030 
H11   2    0.225814    0.404762    0.413122    11.00000    0.01223 
H13A  2    0.310246    0.415383    0.762496    11.00000    0.06497 
H13B  2    0.386578    0.443662    0.756748    11.00000    0.04298 
H14   2    0.002663    0.194211    0.330564    11.00000    0.01625 
H14A  2    0.333520    0.412588    0.953791    11.00000    0.08763 
H14B  2    0.420916    0.395408    1.001069    11.00000    0.09909 
H15A  2    0.454547    1.097345    0.930603    11.00000    0.09463 
H15B  2    0.382673    1.161968    0.882570    11.00000    0.10397 
H16A  2    0.284461    0.744025    0.496600    11.00000    0.06847 
H16B  2    0.234987    0.832390    0.423593    11.00000    0.07716 
H17A  2    0.433335    0.443889    0.517081    11.00000    0.06174 
H17B  2    0.392042    0.348815    0.447848    11.00000    0.07288 
H18A  2    0.257637    0.513234    0.560620    11.00000    0.07407 
H18B  2    0.337974    0.543513    0.607176    11.00000    0.13111 
HKLF 4 
  
  
  
  
REM  1 in P2(1)/n 
REM R1 =  0.0230 for    4391 Fo > 4sig(Fo)  and  0.0294 for all    4916 data 
REM    409 parameters refined using      0 restraints 
  
END 
  
WGHT      0.0109      1.5260 
  
REM Instructions for potential hydrogen bonds 
HTAB O13 O1_$1 
HTAB O13 O11_$7 
HTAB C14 O13_$6 
HTAB O14 O3_$9 
HTAB O14 O4_$9 
HTAB O15 O10_$8 
HTAB O15 O13_$12 
HTAB O15 O14_$12 
HTAB O16 O18 
HTAB O16 O4_$11 
HTAB O17 O12_$7 
HTAB O17 O6_$10 
HTAB O18 O9 
HTAB O18 O11_$7 
  
REM Highest difference peak  0.429,  deepest hole -0.715,  1-sigma level  0.087 
Q1    1   0.3638  0.7393  0.4370  11.00000  0.05    0.43 
Q2    1   0.5178  0.7615  0.5188  11.00000  0.05    0.41 
Q3    1   0.1159  0.2661  0.4230  11.00000  0.05    0.40 
Q4    1   0.4601  0.9516  0.6640  11.00000  0.05    0.40 
Q5    1   0.4225  0.7043  0.4320  11.00000  0.05    0.40 
;
_shelx_res_checksum              36309
loop_
_space_group_symop_operation_xyz
'x, y, z'
'-x+1/2, y+1/2, -z+1/2'
'-x, -y, -z'
'x-1/2, -y-1/2, z-1/2'
loop_
_atom_site_label
_atom_site_type_symbol
_atom_site_fract_x
_atom_site_fract_y
_atom_site_fract_z
_atom_site_U_iso_or_equiv
_atom_site_adp_type
_atom_site_occupancy
_atom_site_site_symmetry_order
_atom_site_calc_flag
_atom_site_refinement_flags_posn
_atom_site_refinement_flags_adp
_atom_site_refinement_flags_occupancy
_atom_site_disorder_assembly
_atom_site_disorder_group
Y1 Y 0.37352(2) 0.72293(2) 0.87715(2) 0.01040(6) Uani 0.623(2) 1 d . . P . .
Eu1 Eu 0.37352(2) 0.72293(2) 0.87715(2) 0.01040(6) Uani 0.377(2) 1 d . . P . .
Y2 Y 0.37535(2) 0.75271(2) 0.39611(2) 0.01104(7) Uani 0.810(2) 1 d . . P . .
Eu2 Eu 0.37535(2) 0.75271(2) 0.39611(2) 0.01104(7) Uani 0.190(2) 1 d . . P . .
C1 C 0.30307(14) 0.9656(3) 0.71005(14) 0.0172(5) Uani 1 1 d . . . . .
C2 C 0.38340(14) 0.9123(3) 0.71103(14) 0.0154(5) Uani 1 1 d . . . . .
C3 C 0.40696(14) 0.9340(3) 0.64835(14) 0.0161(5) Uani 1 1 d . . . . .
C4 C 0.48221(14) 0.8723(3) 0.65726(14) 0.0162(5) Uani 1 1 d . . . . .
C5 C 0.50813(14) 0.8733(3) 0.58868(14) 0.0156(5) Uani 1 1 d . . . . .
C6 C 0.53280(14) 0.8019(3) 0.72973(14) 0.0162(5) Uani 1 1 d . . . . .
C7 C 0.50388(13) 0.7835(3) 0.78882(13) 0.0154(5) Uani 1 1 d . . . . .
C8 C 0.55044(14) 0.7052(3) 0.86964(14) 0.0168(5) Uani 1 1 d . . . . .
C9 C 0.24707(14) 0.4217(3) 0.27106(14) 0.0173(5) Uani 1 1 d . . . . .
C10 C 0.18049(14) 0.3551(3) 0.29485(14) 0.0160(5) Uani 1 1 d . . . . .
C11 C 0.18264(15) 0.3637(3) 0.37080(14) 0.0181(5) Uani 1 1 d . . . . .
C12 C 0.11654(14) 0.3052(3) 0.38462(14) 0.0174(5) Uani 1 1 d . . . . .
C13 C 0.11622(14) 0.3048(3) 0.46631(14) 0.0179(5) Uani 1 1 d . . . . .
C14 C 0.05108(14) 0.2373(3) 0.32235(14) 0.0175(5) Uani 1 1 d . . . . .
C15 C 0.05492(13) 0.2251(3) 0.24878(13) 0.0152(5) Uani 1 1 d . . . . .
C16 C -0.00938(14) 0.1450(3) 0.17618(14) 0.0161(5) Uani 1 1 d . . . . .
O1 O 0.28608(10) 0.8906(3) 0.76523(10) 0.0238(4) Uani 1 1 d . . . . .
O2 O 0.25929(10) 1.0750(2) 0.65817(10) 0.0213(4) Uani 1 1 d . . . . .
O3 O 0.50983(10) 0.6691(2) 0.91139(10) 0.0213(4) Uani 1 1 d . . . . .
O4 O 0.62187(10) 0.6811(3) 0.89042(11) 0.0307(5) Uani 1 1 d . . . . .
O5 O 0.45965(10) 0.8157(3) 0.52496(10) 0.0245(4) Uani 1 1 d . . . . .
O6 O 0.57783(10) 0.9271(2) 0.60202(10) 0.0203(4) Uani 1 1 d . . . . .
O7 O 0.30644(10) 0.4917(3) 0.32338(10) 0.0239(4) Uani 1 1 d . . . . .
O8 O 0.23709(10) 0.4012(3) 0.20033(10) 0.0250(4) Uani 1 1 d . . . . .
O9 O 0.18089(10) 0.3162(3) 0.52384(10) 0.0234(4) Uani 1 1 d . . . . .
O10 O 0.05263(10) 0.2842(3) 0.47592(10) 0.0245(4) Uani 1 1 d . . . . .
O11 O -0.07146(10) 0.0859(3) 0.17992(10) 0.0237(4) Uani 1 1 d . . . . .
O12 O 0.00635(10) 0.1460(3) 0.11437(10) 0.0219(4) Uani 1 1 d . . . . .
O13 O 0.36654(11) 0.4572(3) 0.78995(11) 0.0246(4) Uani 1 1 d . . . . .
O14 O 0.37852(13) 0.4283(3) 0.95031(11) 0.0257(4) Uani 1 1 d . . . . .
O15 O 0.40720(14) 1.0597(3) 0.89808(13) 0.0299(5) Uani 1 1 d . . . . .
O16 O 0.28355(12) 0.8110(3) 0.45286(12) 0.0297(5) Uani 1 1 d . . . . .
O17 O 0.39562(12) 0.4583(3) 0.47163(12) 0.0267(4) Uani 1 1 d . . . . .
O18 O 0.28764(15) 0.6106(3) 0.57961(13) 0.0396(5) Uani 1 1 d . . . . .
N1 N 0.43015(11) 0.8328(3) 0.77852(11) 0.0154(4) Uani 1 1 d . . . . .
N2 N 0.11863(11) 0.2855(3) 0.23587(11) 0.0151(4) Uani 1 1 d . . . . .
H3 H 0.3725(14) 0.990(3) 0.5995(14) 0.011(6) Uiso 1 1 d . . . . .
H6 H 0.5883(16) 0.756(3) 0.7381(15) 0.020(7) Uiso 1 1 d . . . . .
H11 H 0.2258(15) 0.405(3) 0.4131(14) 0.012(6) Uiso 1 1 d . . . . .
H13A H 0.310(2) 0.415(5) 0.762(2) 0.065(11) Uiso 1 1 d . . . . .
H13B H 0.3866(19) 0.444(4) 0.7567(19) 0.043(10) Uiso 1 1 d . . . . .
H14 H 0.0027(15) 0.194(3) 0.3306(14) 0.016(6) Uiso 1 1 d . . . . .
H14A H 0.334(3) 0.413(6) 0.954(2) 0.088(16) Uiso 1 1 d . . . . .
H14B H 0.421(3) 0.395(6) 1.001(3) 0.099(16) Uiso 1 1 d . . . . .
H15A H 0.455(3) 1.097(7) 0.931(3) 0.095(17) Uiso 1 1 d . . . . .
H15B H 0.383(3) 1.162(8) 0.883(3) 0.104(18) Uiso 1 1 d . . . . .
H16A H 0.284(2) 0.744(5) 0.497(2) 0.068(12) Uiso 1 1 d . . . . .
H16B H 0.235(3) 0.832(6) 0.424(2) 0.077(14) Uiso 1 1 d . . . . .
H17A H 0.433(2) 0.444(5) 0.517(2) 0.062(12) Uiso 1 1 d . . . . .
H17B H 0.392(2) 0.349(6) 0.448(2) 0.073(13) Uiso 1 1 d . . . . .
H18A H 0.258(3) 0.513(6) 0.561(2) 0.074(14) Uiso 1 1 d . . . . .
H18B H 0.338(3) 0.544(8) 0.607(3) 0.13(2) Uiso 1 1 d . . . . .
loop_
_atom_site_aniso_label
_atom_site_aniso_U_11
_atom_site_aniso_U_22
_atom_site_aniso_U_33
_atom_site_aniso_U_23
_atom_site_aniso_U_13
_atom_site_aniso_U_12
Y1 0.00984(9) 0.01371(9) 0.00764(9) 0.00034(6) 0.00328(6) 0.00034(6)
Eu1 0.00984(9) 0.01371(9) 0.00764(9) 0.00034(6) 0.00328(6) 0.00034(6)
Y2 0.00839(10) 0.01709(11) 0.00689(10) -0.00009(7) 0.00201(7) -0.00047(7)
Eu2 0.00839(10) 0.01709(11) 0.00689(10) -0.00009(7) 0.00201(7) -0.00047(7)
C1 0.0151(12) 0.0209(12) 0.0141(12) -0.0018(9) 0.0038(10) 0.0001(10)
C2 0.0146(12) 0.0160(11) 0.0150(12) 0.0007(9) 0.0050(10) -0.0001(9)
C3 0.0145(12) 0.0179(12) 0.0118(12) 0.0018(9) 0.0004(10) -0.0015(9)
C4 0.0166(13) 0.0168(11) 0.0159(12) -0.0029(9) 0.0069(10) -0.0045(9)
C5 0.0183(13) 0.0128(11) 0.0154(13) 0.0021(9) 0.0059(10) 0.0015(9)
C6 0.0136(12) 0.0170(11) 0.0169(12) -0.0017(9) 0.0046(10) -0.0020(9)
C7 0.0141(12) 0.0158(11) 0.0155(12) -0.0007(9) 0.0047(10) -0.0021(9)
C8 0.0147(12) 0.0191(11) 0.0153(12) -0.0008(9) 0.0041(10) 0.0009(10)
C9 0.0160(12) 0.0188(12) 0.0171(13) -0.0003(9) 0.0061(10) -0.0010(9)
C10 0.0154(12) 0.0167(11) 0.0150(12) -0.0003(9) 0.0047(10) -0.0017(9)
C11 0.0170(13) 0.0223(12) 0.0118(12) -0.0016(9) 0.0016(10) -0.0039(10)
C12 0.0215(13) 0.0173(11) 0.0141(12) 0.0015(9) 0.0077(10) -0.0008(10)
C13 0.0211(13) 0.0189(12) 0.0136(12) -0.0004(9) 0.0063(10) -0.0012(10)
C14 0.0186(12) 0.0184(12) 0.0168(12) 0.0007(9) 0.0082(10) -0.0008(9)
C15 0.0135(11) 0.0154(11) 0.0160(12) 0.0013(9) 0.0048(9) 0.0007(9)
C16 0.0162(12) 0.0154(11) 0.0164(12) 0.0021(9) 0.0057(10) 0.0012(9)
O1 0.0153(9) 0.0371(10) 0.0208(10) 0.0101(8) 0.0088(8) 0.0061(8)
O2 0.0171(9) 0.0272(9) 0.0181(9) 0.0069(7) 0.0051(8) 0.0060(7)
O3 0.0161(9) 0.0326(10) 0.0151(9) 0.0068(7) 0.0057(7) 0.0043(7)
O4 0.0123(9) 0.0493(12) 0.0272(11) 0.0101(9) 0.0037(8) 0.0039(9)
O5 0.0224(10) 0.0336(10) 0.0143(9) -0.0030(7) 0.0033(8) -0.0049(8)
O6 0.0158(9) 0.0261(9) 0.0197(9) 0.0000(7) 0.0077(8) -0.0025(7)
O7 0.0193(10) 0.0310(10) 0.0169(10) -0.0032(7) 0.0018(8) -0.0093(8)
O8 0.0195(10) 0.0420(11) 0.0147(9) -0.0041(8) 0.0080(8) -0.0092(8)
O9 0.0203(10) 0.0349(10) 0.0141(9) 0.0008(7) 0.0054(8) -0.0043(8)
O10 0.0204(9) 0.0371(10) 0.0177(9) 0.0011(8) 0.0093(8) -0.0025(8)
O11 0.0168(9) 0.0338(10) 0.0211(10) -0.0018(8) 0.0077(8) -0.0070(8)
O12 0.0170(9) 0.0349(10) 0.0137(9) -0.0039(7) 0.0056(7) -0.0070(7)
O13 0.0188(10) 0.0384(11) 0.0194(10) -0.0088(8) 0.0104(9) -0.0037(8)
O14 0.0284(12) 0.0280(10) 0.0186(10) 0.0054(7) 0.0063(9) 0.0042(8)
O15 0.0314(12) 0.0208(10) 0.0338(12) -0.0036(8) 0.0079(10) -0.0017(9)
O16 0.0176(10) 0.0512(13) 0.0213(10) 0.0056(9) 0.0085(9) 0.0062(9)
O17 0.0307(12) 0.0257(10) 0.0172(11) 0.0010(8) 0.0016(9) 0.0019(8)
O18 0.0373(14) 0.0414(13) 0.0334(13) 0.0022(10) 0.0060(11) -0.0136(11)
N1 0.0133(10) 0.0170(10) 0.0161(10) 0.0001(8) 0.0058(8) 0.0000(8)
N2 0.0145(10) 0.0181(9) 0.0120(10) 0.0001(8) 0.0042(8) 0.0005(8)
loop_
_atom_type_symbol
_atom_type_description
_atom_type_scat_dispersion_real
_atom_type_scat_dispersion_imag
_atom_type_scat_source
C C 0.0033 0.0016 'International Tables Vol C Tables 4.2.6.8 and 6.1.1.4'
H H 0.0000 0.0000 'International Tables Vol C Tables 4.2.6.8 and 6.1.1.4'
Eu Eu -0.1578 3.6682 'International Tables Vol C Tables 4.2.6.8 and 6.1.1.4'
N N 0.0061 0.0033 'International Tables Vol C Tables 4.2.6.8 and 6.1.1.4'
O O 0.0106 0.0060 'International Tables Vol C Tables 4.2.6.8 and 6.1.1.4'
Y Y -2.7962 3.5667 'International Tables Vol C Tables 4.2.6.8 and 6.1.1.4'
loop_
_geom_angle_atom_site_label_1
_geom_angle_atom_site_label_2
_geom_angle_atom_site_label_3
_geom_angle
_geom_angle_site_symmetry_1
_geom_angle_site_symmetry_3
_geom_angle_publ_flag
O3 Y1 O1 127.26(6) . . ?
O3 Y1 O15 85.83(7) . . ?
O1 Y1 O15 73.56(8) . . ?
O3 Y1 O13 80.97(6) . . ?
O1 Y1 O13 86.68(7) . . ?
O15 Y1 O13 142.18(7) . . ?
O3 Y1 O14 84.59(7) . . ?
O1 Y1 O14 139.65(7) . . ?
O15 Y1 O14 140.38(7) . . ?
O13 Y1 O14 73.43(7) . . ?
O3 Y1 O9 121.60(6) . 2_556 ?
O1 Y1 O9 100.75(6) . 2_556 ?
O15 Y1 O9 77.30(7) . 2_556 ?
O13 Y1 O9 139.12(6) . 2_556 ?
O14 Y1 O9 75.41(6) . 2_556 ?
O3 Y1 O2 146.75(6) . 2_546 ?
O1 Y1 O2 72.58(6) . 2_546 ?
O15 Y1 O2 127.33(7) . 2_546 ?
O13 Y1 O2 73.36(6) . 2_546 ?
O14 Y1 O2 68.24(7) . 2_546 ?
O9 Y1 O2 70.88(6) 2_556 2_546 ?
O3 Y1 N1 63.85(6) . . ?
O1 Y1 N1 63.60(6) . . ?
O15 Y1 N1 71.00(7) . . ?
O13 Y1 N1 71.36(6) . . ?
O14 Y1 N1 135.50(6) . . ?
O9 Y1 N1 147.46(6) 2_556 . ?
O2 Y1 N1 124.18(6) 2_546 . ?
O3 Y1 O10 70.18(6) . 2_556 ?
O1 Y1 O10 138.55(6) . 2_556 ?
O15 Y1 O10 70.69(7) . 2_556 ?
O13 Y1 O10 134.75(6) . 2_556 ?
O14 Y1 O10 69.88(6) . 2_556 ?
O9 Y1 O10 51.43(6) 2_556 2_556 ?
O2 Y1 O10 114.68(5) 2_546 2_556 ?
N1 Y1 O10 120.96(6) . 2_556 ?
O3 Y1 C13 95.80(6) . 2_556 ?
O1 Y1 C13 122.82(6) . 2_556 ?
O15 Y1 C13 74.52(7) . 2_556 ?
O13 Y1 C13 141.80(7) . 2_556 ?
O14 Y1 C13 68.37(7) . 2_556 ?
O9 Y1 C13 25.85(6) 2_556 2_556 ?
O2 Y1 C13 91.70(6) 2_546 2_556 ?
N1 Y1 C13 140.75(7) . 2_556 ?
O10 Y1 C13 25.78(6) 2_556 2_556 ?
O7 Y2 O16 93.78(7) . . ?
O7 Y2 O5 137.84(6) . . ?
O16 Y2 O5 79.81(7) . . ?
O7 Y2 O6 148.26(6) . 3_676 ?
O16 Y2 O6 98.75(7) . 3_676 ?
O5 Y2 O6 73.41(6) . 3_676 ?
O7 Y2 O12 91.55(6) . 2 ?
O16 Y2 O12 158.58(7) . 2 ?
O5 Y2 O12 82.33(6) . 2 ?
O6 Y2 O12 87.31(6) 3_676 2 ?
O7 Y2 O8 76.89(7) . 2 ?
O16 Y2 O8 72.15(7) . 2 ?
O5 Y2 O8 137.08(6) . 2 ?
O6 Y2 O8 79.42(6) 3_676 2 ?
O12 Y2 O8 129.27(6) 2 2 ?
O7 Y2 O17 67.10(7) . . ?
O16 Y2 O17 82.27(7) . . ?
O5 Y2 O17 70.75(7) . . ?
O6 Y2 O17 143.37(7) 3_676 . ?
O12 Y2 O17 80.75(6) 2 . ?
O8 Y2 O17 133.92(7) 2 . ?
O7 Y2 N2 73.74(6) . 2 ?
O16 Y2 N2 136.96(7) . 2 ?
O5 Y2 N2 136.22(6) . 2 ?
O6 Y2 N2 77.25(6) 3_676 2 ?
O12 Y2 N2 64.38(6) 2 2 ?
O8 Y2 N2 64.96(6) 2 2 ?
O17 Y2 N2 126.00(7) . 2 ?
O2 C1 O1 125.2(2) . . ?
O2 C1 C2 119.9(2) . . ?
O1 C1 C2 114.9(2) . . ?
N1 C2 C3 122.0(2) . . ?
N1 C2 C1 113.01(19) . . ?
C3 C2 C1 124.9(2) . . ?
C2 C3 C4 118.4(2) . . ?
C2 C3 H3 121.4(14) . . ?
C4 C3 H3 120.2(14) . . ?
C3 C4 C6 119.3(2) . . ?
C3 C4 C5 120.7(2) . . ?
C6 C4 C5 119.9(2) . . ?
O5 C5 O6 126.1(2) . . ?
O5 C5 C4 116.9(2) . . ?
O6 C5 C4 117.0(2) . . ?
C7 C6 C4 118.2(2) . . ?
C7 C6 H6 120.6(14) . . ?
C4 C6 H6 121.1(14) . . ?
N1 C7 C6 122.1(2) . . ?
N1 C7 C8 113.30(19) . . ?
C6 C7 C8 124.6(2) . . ?
O4 C8 O3 125.4(2) . . ?
O4 C8 C7 119.6(2) . . ?
O3 C8 C7 115.0(2) . . ?
O7 C9 O8 126.1(2) . . ?
O7 C9 C10 117.1(2) . . ?
O8 C9 C10 116.7(2) . . ?
N2 C10 C11 122.1(2) . . ?
N2 C10 C9 113.8(2) . . ?
C11 C10 C9 124.1(2) . . ?
C10 C11 C12 118.6(2) . . ?
C10 C11 H11 123.8(15) . . ?
C12 C11 H11 117.6(15) . . ?
C11 C12 C14 119.1(2) . . ?
C11 C12 C13 121.1(2) . . ?
C14 C12 C13 119.7(2) . . ?
O10 C13 O9 121.2(2) . . ?
O10 C13 C12 119.8(2) . . ?
O9 C13 C12 118.9(2) . . ?
O10 C13 Y1 63.05(12) . 2_546 ?
O9 C13 Y1 58.88(12) . 2_546 ?
C12 C13 Y1 168.17(16) . 2_546 ?
C15 C14 C12 118.8(2) . . ?
C15 C14 H14 120.4(14) . . ?
C12 C14 H14 120.8(14) . . ?
N2 C15 C14 121.5(2) . . ?
N2 C15 C16 113.25(19) . . ?
C14 C15 C16 125.2(2) . . ?
O11 C16 O12 125.1(2) . . ?
O11 C16 C15 119.8(2) . . ?
O12 C16 C15 115.11(19) . . ?
C1 O1 Y1 126.81(15) . . ?
C1 O2 Y1 137.10(15) . 2_556 ?
C8 O3 Y1 127.18(15) . . ?
C5 O5 Y2 170.25(16) . . ?
C5 O6 Y2 127.75(14) . 3_676 ?
C9 O7 Y2 151.12(17) . . ?
C9 O8 Y2 124.68(15) . 2_545 ?
C13 O9 Y1 95.28(14) . 2_546 ?
C13 O10 Y1 91.17(14) . 2_546 ?
C16 O12 Y2 126.69(15) . 2_545 ?
Y1 O13 H13A 110(2) . . ?
Y1 O13 H13B 131(2) . . ?
H13A O13 H13B 105(3) . . ?
Y1 O14 H14A 108(3) . . ?
Y1 O14 H14B 125(3) . . ?
H14A O14 H14B 109(4) . . ?
Y1 O15 H15A 121(3) . . ?
Y1 O15 H15B 134(3) . . ?
H15A O15 H15B 104(4) . . ?
Y2 O16 H16A 122(2) . . ?
Y2 O16 H16B 120(3) . . ?
H16A O16 H16B 108(3) . . ?
Y2 O17 H17A 123(2) . . ?
Y2 O17 H17B 119(3) . . ?
H17A O17 H17B 106(3) . . ?
H18A O18 H18B 100(4) . . ?
C2 N1 C7 119.76(19) . . ?
C2 N1 Y1 120.08(15) . . ?
C7 N1 Y1 119.34(15) . . ?
C10 N2 C15 119.80(19) . . ?
C10 N2 Y2 119.60(14) . 2_545 ?
C15 N2 Y2 120.53(15) . 2_545 ?
loop_
_geom_bond_atom_site_label_1
_geom_bond_atom_site_label_2
_geom_bond_distance
_geom_bond_site_symmetry_2
_geom_bond_publ_flag
Y1 O3 2.3636(17) . ?
Y1 O1 2.3803(17) . ?
Y1 O15 2.397(2) . ?
Y1 O13 2.4094(18) . ?
Y1 O14 2.4219(19) . ?
Y1 O9 2.4736(17) 2_556 ?
Y1 O2 2.4884(17) 2_546 ?
Y1 N1 2.5273(19) . ?
Y1 O10 2.5654(18) 2_556 ?
Y1 C13 2.877(2) 2_556 ?
Y2 O7 2.3140(17) . ?
Y2 O16 2.3279(19) . ?
Y2 O5 2.3341(18) . ?
Y2 O6 2.3650(17) 3_676 ?
Y2 O12 2.3659(17) 2 ?
Y2 O8 2.3853(18) 2 ?
Y2 O17 2.4103(19) . ?
Y2 N2 2.4881(19) 2 ?
C1 O2 1.245(3) . ?
C1 O1 1.280(3) . ?
C1 C2 1.511(3) . ?
C2 N1 1.333(3) . ?
C2 C3 1.387(3) . ?
C3 C4 1.392(3) . ?
C3 H3 0.96(2) . ?
C4 C6 1.395(3) . ?
C4 C5 1.510(3) . ?
C5 O5 1.241(3) . ?
C5 O6 1.262(3) . ?
C6 C7 1.386(3) . ?
C6 H6 1.02(3) . ?
C7 N1 1.336(3) . ?
C7 C8 1.510(3) . ?
C8 O4 1.229(3) . ?
C8 O3 1.282(3) . ?
C9 O7 1.247(3) . ?
C9 O8 1.255(3) . ?
C9 C10 1.516(3) . ?
C10 N2 1.329(3) . ?
C10 C11 1.388(3) . ?
C11 C12 1.389(3) . ?
C11 H11 0.92(3) . ?
C12 C14 1.391(3) . ?
C12 C13 1.509(3) . ?
C13 O10 1.252(3) . ?
C13 O9 1.260(3) . ?
C14 C15 1.387(3) . ?
C14 H14 1.00(2) . ?
C15 N2 1.343(3) . ?
C15 C16 1.515(3) . ?
C16 O11 1.235(3) . ?
C16 O12 1.277(3) . ?
O13 H13A 1.00(4) . ?
O13 H13B 0.83(3) . ?
O14 H14A 0.86(4) . ?
O14 H14B 0.99(5) . ?
O15 H15A 0.89(5) . ?
O15 H15B 0.83(5) . ?
O16 H16A 0.92(4) . ?
O16 H16B 0.86(4) . ?
O17 H17A 0.87(4) . ?
O17 H17B 0.86(4) . ?
O18 H18A 0.85(4) . ?
O18 H18B 0.98(6) . ?
loop_
_geom_hbond_atom_site_label_D
_geom_hbond_atom_site_label_H
_geom_hbond_atom_site_label_A
_geom_hbond_distance_DH
_geom_hbond_distance_HA
_geom_hbond_distance_DA
_geom_hbond_angle_DHA
_geom_hbond_site_symmetry_A
O18 H18B O11 0.98(6) 1.92(6) 2.884(3) 167(4) 4_666
O15 H15B O14 0.83(5) 2.24(5) 2.837(3) 129(4) 1_565
O15 H15B O13 0.83(5) 2.60(5) 3.305(3) 144(4) 1_565
O16 H16A O18 0.92(4) 1.77(4) 2.692(3) 178(4) .
O13 H13B O11 0.83(3) 1.86(3) 2.691(2) 178(3) 4_666
O16 H16B O4 0.86(4) 1.93(4) 2.745(3) 157(4) 4_575
O17 H17B O6 0.86(4) 2.27(4) 3.106(3) 163(4) 3_666
O14 H14B O4 0.99(5) 2.47(4) 3.035(3) 116(3) 3_667
O14 H14B O3 0.99(5) 1.69(5) 2.683(3) 177(4) 3_667
O15 H15A O10 0.89(5) 1.86(5) 2.726(3) 165(4) 4_676
O13 H13A O1 1.00(4) 1.65(4) 2.631(3) 164(3) 2_546
O18 H18A O9 0.85(4) 1.89(4) 2.736(3) 172(4) .
O17 H17A O12 0.87(4) 1.89(4) 2.744(3) 167(4) 4_666
C14 H14 O13 1.00(2) 2.54(3) 3.474(3) 154.9(19) 4_565
loop_
_geom_torsion_atom_site_label_1
_geom_torsion_atom_site_label_2
_geom_torsion_atom_site_label_3
_geom_torsion_atom_site_label_4
_geom_torsion
_geom_torsion_site_symmetry_1
_geom_torsion_site_symmetry_2
_geom_torsion_site_symmetry_3
_geom_torsion_site_symmetry_4
_geom_torsion_publ_flag
O2 C1 C2 N1 165.5(2) . . . . ?
O1 C1 C2 N1 -14.4(3) . . . . ?
O2 C1 C2 C3 -17.1(4) . . . . ?
O1 C1 C2 C3 163.0(2) . . . . ?
N1 C2 C3 C4 -0.7(3) . . . . ?
C1 C2 C3 C4 -177.9(2) . . . . ?
C2 C3 C4 C6 -3.8(3) . . . . ?
C2 C3 C4 C5 173.7(2) . . . . ?
C3 C4 C5 O5 -42.2(3) . . . . ?
C6 C4 C5 O5 135.3(2) . . . . ?
C3 C4 C5 O6 139.9(2) . . . . ?
C6 C4 C5 O6 -42.6(3) . . . . ?
C3 C4 C6 C7 4.5(3) . . . . ?
C5 C4 C6 C7 -173.0(2) . . . . ?
C4 C6 C7 N1 -0.8(3) . . . . ?
C4 C6 C7 C8 178.4(2) . . . . ?
N1 C7 C8 O4 -169.5(2) . . . . ?
C6 C7 C8 O4 11.2(4) . . . . ?
N1 C7 C8 O3 10.5(3) . . . . ?
C6 C7 C8 O3 -168.7(2) . . . . ?
O7 C9 C10 N2 178.8(2) . . . . ?
O8 C9 C10 N2 -1.1(3) . . . . ?
O7 C9 C10 C11 -1.5(4) . . . . ?
O8 C9 C10 C11 178.6(2) . . . . ?
N2 C10 C11 C12 -2.8(4) . . . . ?
C9 C10 C11 C12 177.5(2) . . . . ?
C10 C11 C12 C14 1.0(3) . . . . ?
C10 C11 C12 C13 178.0(2) . . . . ?
C11 C12 C13 O10 167.7(2) . . . . ?
C14 C12 C13 O10 -15.4(3) . . . . ?
C11 C12 C13 O9 -15.6(3) . . . . ?
C14 C12 C13 O9 161.3(2) . . . . ?
C11 C12 C13 Y1 -91.6(8) . . . 2_546 ?
C14 C12 C13 Y1 85.4(8) . . . 2_546 ?
C11 C12 C14 C15 1.9(3) . . . . ?
C13 C12 C14 C15 -175.1(2) . . . . ?
C12 C14 C15 N2 -3.2(3) . . . . ?
C12 C14 C15 C16 176.7(2) . . . . ?
N2 C15 C16 O11 -179.4(2) . . . . ?
C14 C15 C16 O11 0.7(4) . . . . ?
N2 C15 C16 O12 0.3(3) . . . . ?
C14 C15 C16 O12 -179.6(2) . . . . ?
O2 C1 O1 Y1 -169.45(18) . . . . ?
C2 C1 O1 Y1 10.4(3) . . . . ?
O1 C1 O2 Y1 1.2(4) . . . 2_556 ?
C2 C1 O2 Y1 -178.70(15) . . . 2_556 ?
O4 C8 O3 Y1 177.49(18) . . . . ?
C7 C8 O3 Y1 -2.5(3) . . . . ?
O5 C5 O6 Y2 97.1(3) . . . 3_676 ?
C4 C5 O6 Y2 -85.2(2) . . . 3_676 ?
O8 C9 O7 Y2 91.0(4) . . . . ?
C10 C9 O7 Y2 -88.8(4) . . . . ?
O7 C9 O8 Y2 177.04(18) . . . 2_545 ?
C10 C9 O8 Y2 -3.1(3) . . . 2_545 ?
O10 C13 O9 Y1 10.1(2) . . . 2_546 ?
C12 C13 O9 Y1 -166.57(18) . . . 2_546 ?
O9 C13 O10 Y1 -9.7(2) . . . 2_546 ?
C12 C13 O10 Y1 166.94(19) . . . 2_546 ?
O11 C16 O12 Y2 -179.00(17) . . . 2_545 ?
C15 C16 O12 Y2 1.3(3) . . . 2_545 ?
C3 C2 N1 C7 4.5(3) . . . . ?
C1 C2 N1 C7 -178.0(2) . . . . ?
C3 C2 N1 Y1 -165.00(17) . . . . ?
C1 C2 N1 Y1 12.5(3) . . . . ?
C6 C7 N1 C2 -3.7(3) . . . . ?
C8 C7 N1 C2 177.0(2) . . . . ?
C6 C7 N1 Y1 165.85(17) . . . . ?
C8 C7 N1 Y1 -13.4(3) . . . . ?
C11 C10 N2 C15 1.6(3) . . . . ?
C9 C10 N2 C15 -178.71(19) . . . . ?
C11 C10 N2 Y2 -175.28(17) . . . 2_545 ?
C9 C10 N2 Y2 4.4(3) . . . 2_545 ?
C14 C15 N2 C10 1.5(3) . . . . ?
C16 C15 N2 C10 -178.4(2) . . . . ?
C14 C15 N2 Y2 178.32(16) . . . 2_545 ?
C16 C15 N2 Y2 -1.6(2) . . . 2_545 ?
