#------------------------------------------------------------------------------
#$Date: 2020-11-06 14:07:15 +0200 (Fri, 06 Nov 2020) $
#$Revision: 258816 $
#$URL: file:///home/coder/svn-repositories/cod/cif/7/70/56/7705629.cif $
#------------------------------------------------------------------------------
#
# This file is available in the Crystallography Open Database (COD),
# http://www.crystallography.net/
#
# All data on this site have been placed in the public domain by the
# contributors.
#
data_7705629
loop_
_publ_author_name
'Gao, Xu-Sheng'
'Ding, Mei-Juan'
'Zhang, Jin'
'Zhao, Li-Duo'
'Ren, Xiao-Ming'
_publ_section_title
;
 Phase selectivity and tunable photophysical nature of rare earth
 metal-organic frameworks of Eu<sub> <i>x</i>
 </sub>Y<sub>1-<i>x</i></sub>-PTC (H<sub>3</sub>PTC = 2,4,6-pyridine
 tricarboxylic acid; <i>x</i> = 0-1).
;
_journal_issue                   42
_journal_name_full
'Dalton transactions (Cambridge, England : 2003)'
_journal_page_first              14985
_journal_page_last               14994
_journal_paper_doi               10.1039/d0dt03150j
_journal_volume                  49
_journal_year                    2020
_chemical_formula_sum            'C16 H16 Eu1.49 N2 O18 Y0.51'
_chemical_formula_weight         796.09
_space_group_crystal_system      monoclinic
_space_group_IT_number           14
_space_group_name_Hall           '-P 2yn'
_space_group_name_H-M_alt        'P 1 21/n 1'
_atom_sites_solution_hydrogens   difmap
_audit_creation_method           SHELXL-2016/6
_audit_update_record
;
2019-11-27 deposited with the CCDC.	2020-10-06 downloaded from the CCDC.
;
_cell_angle_alpha                90
_cell_angle_beta                 112.056(2)
_cell_angle_gamma                90
_cell_formula_units_Z            4
_cell_length_a                   18.3931(12)
_cell_length_b                   6.9087(5)
_cell_length_c                   18.5133(12)
_cell_measurement_reflns_used    9905
_cell_measurement_temperature    306(2)
_cell_measurement_theta_max      27.50
_cell_measurement_theta_min      3.18
_cell_volume                     2180.4(3)
_computing_cell_refinement       'Bruker SAINT'
_computing_data_collection       'Bruker APEX2'
_computing_data_reduction        'Bruker SAINT'
_computing_molecular_graphics    'Bruker SHELXTL'
_computing_publication_material  'Bruker SHELXTL'
_computing_structure_refinement  'SHELXL-2016/6 (Sheldrick, 2016)'
_computing_structure_solution    'SHELXS-97 (Sheldrick 2008)'
_diffrn_ambient_temperature      306(2)
_diffrn_measured_fraction_theta_full 0.995
_diffrn_measured_fraction_theta_max 0.993
_diffrn_measurement_device_type  'Bruker APEX-II CCD'
_diffrn_measurement_method       '\f and \w scans'
_diffrn_radiation_type           MoK\a
_diffrn_radiation_wavelength     0.71073
_diffrn_reflns_av_R_equivalents  0.0311
_diffrn_reflns_av_unetI/netI     0.0187
_diffrn_reflns_Laue_measured_fraction_full 0.995
_diffrn_reflns_Laue_measured_fraction_max 0.993
_diffrn_reflns_limit_h_max       22
_diffrn_reflns_limit_h_min       -23
_diffrn_reflns_limit_k_max       8
_diffrn_reflns_limit_k_min       -8
_diffrn_reflns_limit_l_max       24
_diffrn_reflns_limit_l_min       -22
_diffrn_reflns_number            36200
_diffrn_reflns_point_group_measured_fraction_full 0.995
_diffrn_reflns_point_group_measured_fraction_max 0.993
_diffrn_reflns_theta_full        25.242
_diffrn_reflns_theta_max         27.496
_diffrn_reflns_theta_min         3.179
_exptl_absorpt_coefficient_mu    5.698
_exptl_absorpt_correction_type   none
_exptl_crystal_colour            colorless
_exptl_crystal_density_diffrn    2.425
_exptl_crystal_description       block
_exptl_crystal_F_000             1535
_refine_diff_density_max         0.649
_refine_diff_density_min         -0.675
_refine_diff_density_rms         0.083
_refine_ls_extinction_method     none
_refine_ls_goodness_of_fit_ref   1.104
_refine_ls_hydrogen_treatment    refall
_refine_ls_matrix_type           full
_refine_ls_number_parameters     409
_refine_ls_number_reflns         4946
_refine_ls_number_restraints     0
_refine_ls_restrained_S_all      1.104
_refine_ls_R_factor_all          0.0189
_refine_ls_R_factor_gt           0.0160
_refine_ls_shift/su_max          0.006
_refine_ls_shift/su_mean         0.000
_refine_ls_structure_factor_coef Fsqd
_refine_ls_weighting_details
'w=1/[\s^2^(Fo^2^)+(0.0144P)^2^+1.4981P] where P=(Fo^2^+2Fc^2^)/3'
_refine_ls_weighting_scheme      calc
_refine_ls_wR_factor_gt          0.0361
_refine_ls_wR_factor_ref         0.0369
_reflns_Friedel_coverage         0.000
_reflns_number_gt                4592
_reflns_number_total             4982
_reflns_threshold_expression     'I > 2\s(I)'
_cod_data_source_file            d0dt03150j2.cif
_cod_data_source_block           1_CCDC10
_cod_depositor_comments
'Adding full bibliography for 7705619--7705631.cif.'
_cod_original_sg_symbol_H-M      'P 21/n'
_cod_database_code               7705629
_shelx_shelxl_version_number     2016/6
_shelx_space_group_comment
; 
The symmetry employed for this shelxl refinement is uniquely defined 
by the following loop, which should always be used as a source of 
symmetry information in preference to the above space-group names. 
They are only intended as comments. 
;
_shelx_res_file
; 
TITL 1 in P2(1)/n 
    1.res 
    created by SHELXL-2016/6 at 17:37:46 on 02-Jul-2019 
CELL 0.71073  18.39310   6.90870  18.51330  90.0000 112.0561  90.0000 
ZERR   4.00   0.00120   0.00050   0.00120   0.0000   0.0024   0.0000 
LATT 1 
SYMM 0.5-X,0.5+Y,0.5-Z 
SFAC C  H  Eu N  O  Y 
UNIT 64 64 6 8 72 2 
omit -18 0 6 
L.S. 20 
ACTA 
BOND $H 
FMAP 2 
PLAN 10 
LIST 4 
CONF 
MORE -1 
EXYZ Y2 Eu2 
EXYZ Y1 Eu1 
EADP Y2 Eu2 
EADP Y1 Eu1 
TEMP 33.110 
WGHT    0.014400    1.498100 
FVAR       0.06990   0.19609   0.31378 
Y1    6    0.373425    0.722970    0.877677    21.00000    0.01024    0.01391 = 
         0.00803    0.00025    0.00362    0.00020 
EU1   3    0.373425    0.722970    0.877677   -21.00000    0.01024    0.01391 = 
         0.00803    0.00025    0.00362    0.00020 
Y2    6    0.375152    0.751403    0.396474    31.00000    0.00890    0.01754 = 
         0.00738    0.00003    0.00239   -0.00052 
EU2   3    0.375152    0.751403    0.396474   -31.00000    0.00890    0.01754 = 
         0.00738    0.00003    0.00239   -0.00052 
C1    1    0.303242    0.965132    0.709873    11.00000    0.01410    0.02081 = 
         0.01728   -0.00045    0.00488    0.00077 
C2    1    0.383569    0.911587    0.711176    11.00000    0.01167    0.01880 = 
         0.01451    0.00106    0.00329   -0.00036 
C3    1    0.406901    0.933129    0.648572    11.00000    0.01457    0.02092 = 
         0.01299    0.00254    0.00263   -0.00068 
C4    1    0.481783    0.871767    0.657508    11.00000    0.01542    0.01695 = 
         0.01425   -0.00199    0.00613   -0.00398 
C5    1    0.507824    0.872891    0.589197    11.00000    0.01817    0.01493 = 
         0.01228    0.00247    0.00448    0.00057 
C6    1    0.532415    0.802615    0.729714    11.00000    0.01544    0.01787 = 
         0.01610   -0.00018    0.00510   -0.00047 
C7    1    0.503734    0.783962    0.788611    11.00000    0.01368    0.01706 = 
         0.01527   -0.00032    0.00389   -0.00042 
C8    1    0.550636    0.706645    0.868976    11.00000    0.01553    0.02109 = 
         0.01374    0.00096    0.00318    0.00057 
C9    1    0.247184    0.417593    0.271219    11.00000    0.01608    0.02120 = 
         0.01470   -0.00094    0.00414   -0.00216 
C10   1    0.180665    0.352276    0.295216    11.00000    0.01666    0.01783 = 
         0.01486    0.00012    0.00439   -0.00035 
C11   1    0.182689    0.361301    0.370487    11.00000    0.01781    0.02457 = 
         0.01418   -0.00233    0.00444   -0.00385 
C12   1    0.116607    0.303754    0.384173    11.00000    0.01972    0.01888 = 
         0.01310    0.00111    0.00574    0.00040 
C13   1    0.116649    0.304463    0.465694    11.00000    0.02112    0.02072 = 
         0.01331    0.00105    0.00716   -0.00135 
C14   1    0.051090    0.236876    0.322295    11.00000    0.01566    0.01959 = 
         0.01648    0.00161    0.00709   -0.00078 
C15   1    0.055317    0.224855    0.249131    11.00000    0.01451    0.01646 = 
         0.01577    0.00004    0.00411   -0.00062 
C16   1   -0.009737    0.145673    0.176876    11.00000    0.01596    0.01703 = 
         0.01436    0.00107    0.00450    0.00171 
O1    5    0.286278    0.891216    0.764617    11.00000    0.01470    0.03909 = 
         0.02163    0.01108    0.00945    0.00551 
O2    5    0.260029    1.073823    0.658044    11.00000    0.01682    0.02877 = 
         0.01786    0.00718    0.00466    0.00620 
O3    5    0.510556    0.670102    0.910912    11.00000    0.01817    0.03286 = 
         0.01588    0.00637    0.00658    0.00397 
O4    5    0.621573    0.682740    0.888826    11.00000    0.01378    0.05042 = 
         0.02777    0.01143    0.00443    0.00556 
O5    5    0.459516    0.815850    0.525924    11.00000    0.02311    0.03556 = 
         0.01335   -0.00306    0.00446   -0.00484 
O6    5    0.577667    0.925206    0.602355    11.00000    0.01848    0.02572 = 
         0.02084    0.00002    0.00908   -0.00308 
O7    5    0.306821    0.486261    0.323738    11.00000    0.02094    0.03196 = 
         0.01649   -0.00337    0.00245   -0.01075 
O8    5    0.237696    0.397697    0.201303    11.00000    0.02036    0.04416 = 
         0.01294   -0.00439    0.00633   -0.01010 
O9    5    0.181041    0.316629    0.522684    11.00000    0.01968    0.03703 = 
         0.01289    0.00095    0.00455   -0.00508 
O10   5    0.053145    0.283827    0.475386    11.00000    0.02079    0.03900 = 
         0.01703    0.00264    0.00818   -0.00050 
O11   5   -0.071353    0.086841    0.181056    11.00000    0.01635    0.03404 = 
         0.02032   -0.00168    0.00715   -0.00701 
O12   5    0.005832    0.146338    0.115300    11.00000    0.01619    0.03695 = 
         0.01327   -0.00359    0.00569   -0.00702 
O13   5    0.366624    0.452946    0.790403    11.00000    0.01833    0.03852 = 
         0.02087   -0.01031    0.01051   -0.00388 
O14   5    0.377807    0.426466    0.951213    11.00000    0.02922    0.02794 = 
         0.02111    0.00644    0.00873    0.00460 
O15   5    0.407993    1.062150    0.898030    11.00000    0.03046    0.02067 = 
         0.03574   -0.00493    0.00898   -0.00328 
O16   5    0.282426    0.810408    0.453926    11.00000    0.01619    0.05349 = 
         0.02434    0.00580    0.00825    0.00504 
O17   5    0.395729    0.454286    0.472592    11.00000    0.03281    0.02644 = 
         0.01578    0.00272   -0.00127    0.00402 
O18   5    0.287756    0.609105    0.580224    11.00000    0.03760    0.04259 = 
         0.03689    0.00368    0.00513   -0.01426 
N1    4    0.429881    0.832043    0.778394    11.00000    0.01420    0.01941 = 
         0.01405    0.00079    0.00489    0.00016 
N2    4    0.118536    0.283680    0.235922    11.00000    0.01348    0.01965 = 
         0.01287   -0.00086    0.00464    0.00050 
H3    2    0.373861    0.992006    0.600842    11.00000    0.02721 
H6    2    0.584551    0.757420    0.737687    11.00000    0.01815 
H11   2    0.227366    0.403528    0.411354    11.00000    0.01975 
H13A  2    0.312845    0.414428    0.760333    11.00000    0.06623 
H13B  2    0.389600    0.448569    0.756034    11.00000    0.05401 
H14   2    0.004832    0.194683    0.328627    11.00000    0.01691 
H14A  2    0.339794    0.409033    0.956210    11.00000    0.04516 
H14B  2    0.415957    0.401857    1.002513    11.00000    0.07521 
H15A  2    0.457158    1.096234    0.930889    11.00000    0.10164 
H15B  2    0.379886    1.148181    0.885729    11.00000    0.10626 
H16A  2    0.282677    0.743702    0.497182    11.00000    0.06113 
H16B  2    0.237757    0.822292    0.427535    11.00000    0.05047 
H17A  2    0.430337    0.437932    0.519012    11.00000    0.05920 
H17B  2    0.392241    0.343611    0.451672    11.00000    0.07862 
H18A  2    0.256159    0.510761    0.563743    11.00000    0.06653 
H18B  2    0.330369    0.548991    0.607679    11.00000    0.09075 
HKLF 4 
  
  
  
  
REM  1 in P2(1)/n 
REM R1 =  0.0160 for    4592 Fo > 4sig(Fo)  and  0.0189 for all    4946 data 
REM    409 parameters refined using      0 restraints 
  
END 
  
WGHT      0.0079      1.8749 
  
REM Highest difference peak  0.649,  deepest hole -0.675,  1-sigma level  0.083 
Q1    1   0.3786  0.7591  0.4483  11.00000  0.05    0.65 
Q2    1   0.1170  0.2999  0.4252  11.00000  0.05    0.53 
Q3    1   0.4429  0.7069  0.9308  11.00000  0.05    0.50 
Q4    1   0.4150  0.7699  0.8188  11.00000  0.05    0.43 
Q5    1   0.3741  0.6610  0.9273  11.00000  0.05    0.40 
Q6    1   0.4390  0.7571  0.4561  11.00000  0.05    0.37 
Q7    1   0.4601  0.7753  0.8933  11.00000  0.05    0.36 
Q8    1   0.4980  0.8429  0.6292  11.00000  0.05    0.35 
Q9    1   0.3178  0.7022  0.8232  11.00000  0.05    0.35 
Q10   1   0.3598  0.3800  0.8966  11.00000  0.05    0.34 
;
_shelx_res_checksum              44917
loop_
_space_group_symop_operation_xyz
'x, y, z'
'-x+1/2, y+1/2, -z+1/2'
'-x, -y, -z'
'x-1/2, -y-1/2, z-1/2'
loop_
_atom_site_label
_atom_site_type_symbol
_atom_site_fract_x
_atom_site_fract_y
_atom_site_fract_z
_atom_site_U_iso_or_equiv
_atom_site_adp_type
_atom_site_occupancy
_atom_site_site_symmetry_order
_atom_site_calc_flag
_atom_site_refinement_flags_posn
_atom_site_refinement_flags_adp
_atom_site_refinement_flags_occupancy
_atom_site_disorder_assembly
_atom_site_disorder_group
Y1 Y 0.37343(2) 0.72297(2) 0.87768(2) 0.01067(4) Uani 0.196(3) 1 d . . P . .
Eu1 Eu 0.37343(2) 0.72297(2) 0.87768(2) 0.01067(4) Uani 0.804(3) 1 d . . P . .
Y2 Y 0.37515(2) 0.75140(2) 0.39647(2) 0.01147(5) Uani 0.314(3) 1 d . . P . .
Eu2 Eu 0.37515(2) 0.75140(2) 0.39647(2) 0.01147(5) Uani 0.686(3) 1 d . . P . .
C1 C 0.30324(13) 0.9651(3) 0.70987(13) 0.0177(4) Uani 1 1 d . . . . .
C2 C 0.38357(12) 0.9116(3) 0.71118(12) 0.0155(4) Uani 1 1 d . . . . .
C3 C 0.40690(13) 0.9331(3) 0.64857(13) 0.0169(4) Uani 1 1 d . . . . .
C4 C 0.48178(13) 0.8718(3) 0.65751(12) 0.0154(4) Uani 1 1 d . . . . .
C5 C 0.50782(13) 0.8729(3) 0.58920(12) 0.0155(4) Uani 1 1 d . . . . .
C6 C 0.53242(13) 0.8026(3) 0.72971(13) 0.0167(4) Uani 1 1 d . . . . .
C7 C 0.50373(12) 0.7840(3) 0.78861(13) 0.0158(4) Uani 1 1 d . . . . .
C8 C 0.55064(13) 0.7066(3) 0.86898(13) 0.0175(4) Uani 1 1 d . . . . .
C9 C 0.24718(13) 0.4176(3) 0.27122(13) 0.0178(4) Uani 1 1 d . . . . .
C10 C 0.18066(13) 0.3523(3) 0.29522(13) 0.0169(4) Uani 1 1 d . . . . .
C11 C 0.18269(14) 0.3613(3) 0.37049(13) 0.0193(5) Uani 1 1 d . . . . .
C12 C 0.11661(13) 0.3038(3) 0.38417(12) 0.0174(4) Uani 1 1 d . . . . .
C13 C 0.11665(13) 0.3045(3) 0.46569(13) 0.0182(4) Uani 1 1 d . . . . .
C14 C 0.05109(13) 0.2369(3) 0.32229(13) 0.0169(4) Uani 1 1 d . . . . .
C15 C 0.05532(13) 0.2249(3) 0.24913(13) 0.0160(4) Uani 1 1 d . . . . .
C16 C -0.00974(13) 0.1457(3) 0.17688(13) 0.0161(4) Uani 1 1 d . . . . .
O1 O 0.28628(9) 0.8912(2) 0.76462(10) 0.0244(4) Uani 1 1 d . . . . .
O2 O 0.26003(9) 1.0738(2) 0.65804(9) 0.0217(4) Uani 1 1 d . . . . .
O3 O 0.51056(9) 0.6701(2) 0.91091(9) 0.0223(4) Uani 1 1 d . . . . .
O4 O 0.62157(9) 0.6827(3) 0.88883(10) 0.0316(4) Uani 1 1 d . . . . .
O5 O 0.45952(10) 0.8159(3) 0.52592(9) 0.0247(4) Uani 1 1 d . . . . .
O6 O 0.57767(9) 0.9252(2) 0.60236(9) 0.0212(3) Uani 1 1 d . . . . .
O7 O 0.30682(10) 0.4863(2) 0.32374(9) 0.0245(4) Uani 1 1 d . . . . .
O8 O 0.23770(10) 0.3977(3) 0.20130(9) 0.0258(4) Uani 1 1 d . . . . .
O9 O 0.18104(9) 0.3166(3) 0.52268(9) 0.0237(4) Uani 1 1 d . . . . .
O10 O 0.05315(10) 0.2838(3) 0.47539(10) 0.0253(4) Uani 1 1 d . . . . .
O11 O -0.07135(9) 0.0868(2) 0.18106(10) 0.0235(4) Uani 1 1 d . . . . .
O12 O 0.00583(9) 0.1463(2) 0.11530(9) 0.0221(4) Uani 1 1 d . . . . .
O13 O 0.36662(11) 0.4529(3) 0.79040(10) 0.0250(4) Uani 1 1 d . . . . .
O14 O 0.37781(13) 0.4265(3) 0.95121(11) 0.0263(4) Uani 1 1 d . . . . .
O15 O 0.40799(13) 1.0622(3) 0.89803(12) 0.0300(4) Uani 1 1 d . . . . .
O16 O 0.28243(11) 0.8104(3) 0.45393(12) 0.0311(4) Uani 1 1 d . . . . .
O17 O 0.39573(11) 0.4543(3) 0.47259(11) 0.0280(4) Uani 1 1 d . . . . .
O18 O 0.28776(14) 0.6091(3) 0.58022(13) 0.0416(5) Uani 1 1 d . . . . .
N1 N 0.42988(10) 0.8320(3) 0.77839(10) 0.0160(4) Uani 1 1 d . . . . .
N2 N 0.11854(10) 0.2837(3) 0.23592(10) 0.0154(4) Uani 1 1 d . . . . .
H3 H 0.3739(15) 0.992(4) 0.6008(16) 0.027(7) Uiso 1 1 d . . . . .
H6 H 0.5846(16) 0.757(3) 0.7377(15) 0.018(7) Uiso 1 1 d . . . . .
H11 H 0.2274(15) 0.404(4) 0.4114(15) 0.020(6) Uiso 1 1 d . . . . .
H13A H 0.313(2) 0.414(5) 0.760(2) 0.066(11) Uiso 1 1 d . . . . .
H13B H 0.390(2) 0.449(5) 0.756(2) 0.054(11) Uiso 1 1 d . . . . .
H14 H 0.0048(15) 0.195(4) 0.3286(14) 0.017(6) Uiso 1 1 d . . . . .
H14A H 0.340(2) 0.409(5) 0.956(2) 0.045(11) Uiso 1 1 d . . . . .
H14B H 0.416(2) 0.402(6) 1.003(2) 0.075(13) Uiso 1 1 d . . . . .
H15A H 0.457(3) 1.096(7) 0.931(3) 0.102(17) Uiso 1 1 d . . . . .
H15B H 0.380(3) 1.148(8) 0.886(3) 0.106(19) Uiso 1 1 d . . . . .
H16A H 0.283(2) 0.744(5) 0.497(2) 0.061(12) Uiso 1 1 d . . . . .
H16B H 0.238(2) 0.822(5) 0.428(2) 0.050(11) Uiso 1 1 d . . . . .
H17A H 0.430(2) 0.438(5) 0.519(2) 0.059(11) Uiso 1 1 d . . . . .
H17B H 0.392(2) 0.344(6) 0.452(2) 0.079(14) Uiso 1 1 d . . . . .
H18A H 0.256(2) 0.511(6) 0.564(2) 0.067(12) Uiso 1 1 d . . . . .
H18B H 0.330(3) 0.549(7) 0.608(3) 0.091(16) Uiso 1 1 d . . . . .
loop_
_atom_site_aniso_label
_atom_site_aniso_U_11
_atom_site_aniso_U_22
_atom_site_aniso_U_33
_atom_site_aniso_U_23
_atom_site_aniso_U_13
_atom_site_aniso_U_12
Y1 0.01024(7) 0.01391(6) 0.00803(7) 0.00025(4) 0.00362(4) 0.00020(4)
Eu1 0.01024(7) 0.01391(6) 0.00803(7) 0.00025(4) 0.00362(4) 0.00020(4)
Y2 0.00890(7) 0.01754(7) 0.00738(7) 0.00003(4) 0.00239(4) -0.00052(4)
Eu2 0.00890(7) 0.01754(7) 0.00738(7) 0.00003(4) 0.00239(4) -0.00052(4)
C1 0.0141(11) 0.0208(10) 0.0173(11) -0.0005(8) 0.0049(9) 0.0008(8)
C2 0.0117(10) 0.0188(10) 0.0145(11) 0.0011(8) 0.0033(8) -0.0004(8)
C3 0.0146(11) 0.0209(10) 0.0130(11) 0.0025(8) 0.0026(9) -0.0007(8)
C4 0.0154(10) 0.0170(9) 0.0142(11) -0.0020(8) 0.0061(8) -0.0040(8)
C5 0.0182(11) 0.0149(9) 0.0123(10) 0.0025(8) 0.0045(8) 0.0006(8)
C6 0.0154(11) 0.0179(10) 0.0161(11) -0.0002(8) 0.0051(8) -0.0005(8)
C7 0.0137(10) 0.0171(9) 0.0153(11) -0.0003(8) 0.0039(8) -0.0004(8)
C8 0.0155(11) 0.0211(10) 0.0137(10) 0.0010(8) 0.0032(8) 0.0006(8)
C9 0.0161(11) 0.0212(10) 0.0147(11) -0.0009(8) 0.0041(9) -0.0022(8)
C10 0.0167(11) 0.0178(10) 0.0149(11) 0.0001(8) 0.0044(9) -0.0003(8)
C11 0.0178(11) 0.0246(11) 0.0142(11) -0.0023(9) 0.0044(9) -0.0039(9)
C12 0.0197(11) 0.0189(10) 0.0131(10) 0.0011(8) 0.0057(9) 0.0004(8)
C13 0.0211(11) 0.0207(10) 0.0133(10) 0.0011(8) 0.0072(9) -0.0013(9)
C14 0.0157(11) 0.0196(10) 0.0165(11) 0.0016(8) 0.0071(9) -0.0008(8)
C15 0.0145(10) 0.0165(9) 0.0158(11) 0.0000(8) 0.0041(8) -0.0006(8)
C16 0.0160(11) 0.0170(9) 0.0144(11) 0.0011(8) 0.0045(8) 0.0017(8)
O1 0.0147(8) 0.0391(9) 0.0216(9) 0.0111(7) 0.0094(7) 0.0055(7)
O2 0.0168(8) 0.0288(8) 0.0179(8) 0.0072(7) 0.0047(7) 0.0062(6)
O3 0.0182(8) 0.0329(9) 0.0159(8) 0.0064(7) 0.0066(6) 0.0040(7)
O4 0.0138(9) 0.0504(11) 0.0278(10) 0.0114(8) 0.0044(7) 0.0056(8)
O5 0.0231(9) 0.0356(9) 0.0133(8) -0.0031(7) 0.0045(7) -0.0048(7)
O6 0.0185(8) 0.0257(8) 0.0208(9) 0.0000(6) 0.0091(7) -0.0031(6)
O7 0.0209(9) 0.0320(9) 0.0165(8) -0.0034(7) 0.0024(7) -0.0107(7)
O8 0.0204(9) 0.0442(10) 0.0129(8) -0.0044(7) 0.0063(7) -0.0101(7)
O9 0.0197(8) 0.0370(9) 0.0129(8) 0.0009(7) 0.0046(6) -0.0051(7)
O10 0.0208(9) 0.0390(9) 0.0170(8) 0.0026(7) 0.0082(7) -0.0005(7)
O11 0.0163(8) 0.0340(9) 0.0203(9) -0.0017(7) 0.0072(7) -0.0070(7)
O12 0.0162(8) 0.0370(9) 0.0133(8) -0.0036(7) 0.0057(6) -0.0070(7)
O13 0.0183(9) 0.0385(10) 0.0209(9) -0.0103(7) 0.0105(7) -0.0039(7)
O14 0.0292(11) 0.0279(9) 0.0211(10) 0.0064(7) 0.0087(8) 0.0046(8)
O15 0.0305(11) 0.0207(9) 0.0357(11) -0.0049(8) 0.0090(9) -0.0033(8)
O16 0.0162(10) 0.0535(12) 0.0243(10) 0.0058(9) 0.0083(8) 0.0050(8)
O17 0.0328(11) 0.0264(9) 0.0158(9) 0.0027(7) -0.0013(8) 0.0040(7)
O18 0.0376(13) 0.0426(12) 0.0369(12) 0.0037(10) 0.0051(10) -0.0143(10)
N1 0.0142(9) 0.0194(9) 0.0140(9) 0.0008(7) 0.0049(7) 0.0002(7)
N2 0.0135(9) 0.0196(8) 0.0129(9) -0.0009(7) 0.0046(7) 0.0005(7)
loop_
_atom_type_symbol
_atom_type_description
_atom_type_scat_dispersion_real
_atom_type_scat_dispersion_imag
_atom_type_scat_source
C C 0.0033 0.0016 'International Tables Vol C Tables 4.2.6.8 and 6.1.1.4'
H H 0.0000 0.0000 'International Tables Vol C Tables 4.2.6.8 and 6.1.1.4'
Eu Eu -0.1578 3.6682 'International Tables Vol C Tables 4.2.6.8 and 6.1.1.4'
N N 0.0061 0.0033 'International Tables Vol C Tables 4.2.6.8 and 6.1.1.4'
O O 0.0106 0.0060 'International Tables Vol C Tables 4.2.6.8 and 6.1.1.4'
Y Y -2.7962 3.5667 'International Tables Vol C Tables 4.2.6.8 and 6.1.1.4'
loop_
_geom_angle_atom_site_label_1
_geom_angle_atom_site_label_2
_geom_angle_atom_site_label_3
_geom_angle
_geom_angle_site_symmetry_1
_geom_angle_site_symmetry_3
_geom_angle_publ_flag
O3 Y1 O1 126.32(5) . . ?
O3 Y1 O15 85.28(7) . . ?
O1 Y1 O15 73.61(7) . . ?
O3 Y1 O13 80.81(6) . . ?
O1 Y1 O13 86.65(6) . . ?
O15 Y1 O13 142.04(7) . . ?
O3 Y1 O14 85.27(6) . . ?
O1 Y1 O14 139.62(7) . . ?
O15 Y1 O14 140.62(7) . . ?
O13 Y1 O14 73.19(6) . . ?
O3 Y1 O9 121.86(5) . 2_556 ?
O1 Y1 O9 101.36(5) . 2_556 ?
O15 Y1 O9 77.79(6) . 2_556 ?
O13 Y1 O9 138.90(6) . 2_556 ?
O14 Y1 O9 75.15(6) . 2_556 ?
O3 Y1 O2 146.94(5) . 2_546 ?
O1 Y1 O2 72.72(5) . 2_546 ?
O15 Y1 O2 127.73(7) . 2_546 ?
O13 Y1 O2 73.14(6) . 2_546 ?
O14 Y1 O2 68.12(6) . 2_546 ?
O9 Y1 O2 71.13(5) 2_556 2_546 ?
O3 Y1 N1 63.45(6) . . ?
O1 Y1 N1 63.06(6) . . ?
O15 Y1 N1 70.77(6) . . ?
O13 Y1 N1 71.40(6) . . ?
O14 Y1 N1 135.60(6) . . ?
O9 Y1 N1 147.70(6) 2_556 . ?
O2 Y1 N1 123.76(5) 2_546 . ?
O3 Y1 O10 70.67(5) . 2_556 ?
O1 Y1 O10 138.92(6) . 2_556 ?
O15 Y1 O10 71.02(6) . 2_556 ?
O13 Y1 O10 134.42(6) . 2_556 ?
O14 Y1 O10 69.77(6) . 2_556 ?
O9 Y1 O10 51.20(5) 2_556 2_556 ?
O2 Y1 O10 114.71(5) 2_546 2_556 ?
N1 Y1 O10 121.37(6) . 2_556 ?
O3 Y1 C13 96.23(6) . 2_556 ?
O1 Y1 C13 123.32(6) . 2_556 ?
O15 Y1 C13 75.01(7) . 2_556 ?
O13 Y1 C13 141.36(6) . 2_556 ?
O14 Y1 C13 68.17(6) . 2_556 ?
O9 Y1 C13 25.69(6) 2_556 2_556 ?
O2 Y1 C13 91.80(6) 2_546 2_556 ?
N1 Y1 C13 141.12(6) . 2_556 ?
O10 Y1 C13 25.71(6) 2_556 2_556 ?
O7 Y2 O5 137.65(6) . . ?
O7 Y2 O16 94.11(7) . . ?
O5 Y2 O16 79.65(6) . . ?
O7 Y2 O6 148.23(6) . 3_676 ?
O5 Y2 O6 73.53(6) . 3_676 ?
O16 Y2 O6 98.95(7) . 3_676 ?
O7 Y2 O12 91.27(6) . 2 ?
O5 Y2 O12 82.79(6) . 2 ?
O16 Y2 O12 159.11(6) . 2 ?
O6 Y2 O12 86.74(6) 3_676 2 ?
O7 Y2 O8 76.74(6) . 2 ?
O5 Y2 O8 137.59(6) . 2 ?
O16 Y2 O8 72.61(6) . 2 ?
O6 Y2 O8 79.75(6) 3_676 2 ?
O12 Y2 O8 128.28(5) 2 2 ?
O7 Y2 O17 66.85(6) . . ?
O5 Y2 O17 70.81(6) . . ?
O16 Y2 O17 82.33(7) . . ?
O6 Y2 O17 143.47(6) 3_676 . ?
O12 Y2 O17 81.28(6) 2 . ?
O8 Y2 O17 133.77(6) 2 . ?
O7 Y2 N2 73.69(6) . 2 ?
O5 Y2 N2 136.28(6) . 2 ?
O16 Y2 N2 137.05(6) . 2 ?
O6 Y2 N2 77.06(6) 3_676 2 ?
O12 Y2 N2 63.77(5) 2 2 ?
O8 Y2 N2 64.56(6) 2 2 ?
O17 Y2 N2 125.87(6) . 2 ?
O2 C1 O1 125.4(2) . . ?
O2 C1 C2 119.8(2) . . ?
O1 C1 C2 114.73(19) . . ?
N1 C2 C3 122.3(2) . . ?
N1 C2 C1 113.13(19) . . ?
C3 C2 C1 124.52(19) . . ?
C2 C3 C4 118.1(2) . . ?
C2 C3 H3 122.0(16) . . ?
C4 C3 H3 119.8(16) . . ?
C3 C4 C6 119.6(2) . . ?
C3 C4 C5 120.66(19) . . ?
C6 C4 C5 119.75(19) . . ?
O5 C5 O6 126.0(2) . . ?
O5 C5 C4 116.71(19) . . ?
O6 C5 C4 117.24(19) . . ?
C7 C6 C4 118.2(2) . . ?
C7 C6 H6 120.0(16) . . ?
C4 C6 H6 121.6(16) . . ?
N1 C7 C6 122.1(2) . . ?
N1 C7 C8 113.60(19) . . ?
C6 C7 C8 124.3(2) . . ?
O4 C8 O3 125.6(2) . . ?
O4 C8 C7 119.5(2) . . ?
O3 C8 C7 114.91(19) . . ?
O8 C9 O7 126.0(2) . . ?
O8 C9 C10 117.18(19) . . ?
O7 C9 C10 116.9(2) . . ?
N2 C10 C11 122.3(2) . . ?
N2 C10 C9 113.49(19) . . ?
C11 C10 C9 124.21(19) . . ?
C10 C11 C12 118.5(2) . . ?
C10 C11 H11 121.0(16) . . ?
C12 C11 H11 120.5(16) . . ?
C11 C12 C14 119.4(2) . . ?
C11 C12 C13 120.63(19) . . ?
C14 C12 C13 119.9(2) . . ?
O10 C13 O9 121.4(2) . . ?
O10 C13 C12 119.46(19) . . ?
O9 C13 C12 119.0(2) . . ?
O10 C13 Y1 63.00(12) . 2_546 ?
O9 C13 Y1 59.15(11) . 2_546 ?
C12 C13 Y1 168.10(15) . 2_546 ?
C15 C14 C12 118.3(2) . . ?
C15 C14 H14 119.0(15) . . ?
C12 C14 H14 122.7(15) . . ?
N2 C15 C14 122.1(2) . . ?
N2 C15 C16 113.50(19) . . ?
C14 C15 C16 124.4(2) . . ?
O11 C16 O12 125.3(2) . . ?
O11 C16 C15 120.0(2) . . ?
O12 C16 C15 114.70(19) . . ?
C1 O1 Y1 127.15(14) . . ?
C1 O2 Y1 136.89(15) . 2_556 ?
C8 O3 Y1 127.31(14) . . ?
C5 O5 Y2 170.34(16) . . ?
C5 O6 Y2 127.29(13) . 3_676 ?
C9 O7 Y2 150.06(16) . . ?
C9 O8 Y2 124.92(15) . 2_545 ?
C13 O9 Y1 95.15(13) . 2_546 ?
C13 O10 Y1 91.29(13) . 2_546 ?
C16 O12 Y2 127.06(14) . 2_545 ?
Y1 O13 H13A 112(2) . . ?
Y1 O13 H13B 126(2) . . ?
H13A O13 H13B 104(3) . . ?
Y1 O14 H14A 112(3) . . ?
Y1 O14 H14B 124(2) . . ?
H14A O14 H14B 103(3) . . ?
Y1 O15 H15A 119(3) . . ?
Y1 O15 H15B 127(4) . . ?
H15A O15 H15B 113(5) . . ?
Y2 O16 H16A 122(2) . . ?
Y2 O16 H16B 120(3) . . ?
H16A O16 H16B 105(3) . . ?
Y2 O17 H17A 126(2) . . ?
Y2 O17 H17B 122(3) . . ?
H17A O17 H17B 104(3) . . ?
H18A O18 H18B 100(4) . . ?
C2 N1 C7 119.45(19) . . ?
C2 N1 Y1 120.37(14) . . ?
C7 N1 Y1 119.47(14) . . ?
C10 N2 C15 119.36(19) . . ?
C10 N2 Y2 119.63(14) . 2_545 ?
C15 N2 Y2 120.94(14) . 2_545 ?
loop_
_geom_bond_atom_site_label_1
_geom_bond_atom_site_label_2
_geom_bond_distance
_geom_bond_site_symmetry_2
_geom_bond_publ_flag
Y1 O3 2.3892(16) . ?
Y1 O1 2.4045(16) . ?
Y1 O15 2.4202(18) . ?
Y1 O13 2.4402(17) . ?
Y1 O14 2.4441(18) . ?
Y1 O9 2.4926(16) 2_556 ?
Y1 O2 2.5110(16) 2_546 ?
Y1 N1 2.5413(19) . ?
Y1 O10 2.5771(17) 2_556 ?
Y1 C13 2.892(2) 2_556 ?
Y2 O7 2.3404(16) . ?
Y2 O5 2.3573(16) . ?
Y2 O16 2.3598(19) . ?
Y2 O6 2.3939(16) 3_676 ?
Y2 O12 2.3926(16) 2 ?
Y2 O8 2.4051(16) 2 ?
Y2 O17 2.4376(18) . ?
Y2 N2 2.5070(18) 2 ?
C1 O2 1.242(3) . ?
C1 O1 1.274(3) . ?
C1 C2 1.514(3) . ?
C2 N1 1.334(3) . ?
C2 C3 1.387(3) . ?
C3 C4 1.390(3) . ?
C3 H3 0.96(3) . ?
C4 C6 1.396(3) . ?
C4 C5 1.511(3) . ?
C5 O5 1.239(3) . ?
C5 O6 1.267(3) . ?
C6 C7 1.384(3) . ?
C6 H6 0.97(3) . ?
C7 N1 1.341(3) . ?
C7 C8 1.510(3) . ?
C8 O4 1.227(3) . ?
C8 O3 1.281(3) . ?
C9 O8 1.247(3) . ?
C9 O7 1.254(3) . ?
C9 C10 1.519(3) . ?
C10 N2 1.339(3) . ?
C10 C11 1.381(3) . ?
C11 C12 1.390(3) . ?
C11 H11 0.93(3) . ?
C12 C14 1.393(3) . ?
C12 C13 1.509(3) . ?
C13 O10 1.255(3) . ?
C13 O9 1.259(3) . ?
C14 C15 1.388(3) . ?
C14 H14 0.95(3) . ?
C15 N2 1.338(3) . ?
C15 C16 1.523(3) . ?
C16 O11 1.233(3) . ?
C16 O12 1.275(3) . ?
O13 H13A 0.97(4) . ?
O13 H13B 0.89(4) . ?
O14 H14A 0.75(4) . ?
O14 H14B 0.96(4) . ?
O15 H15A 0.91(5) . ?
O15 H15B 0.76(5) . ?
O16 H16A 0.92(4) . ?
O16 H16B 0.79(4) . ?
O17 H17A 0.86(4) . ?
O17 H17B 0.85(4) . ?
O18 H18A 0.87(4) . ?
O18 H18B 0.86(5) . ?
loop_
_geom_torsion_atom_site_label_1
_geom_torsion_atom_site_label_2
_geom_torsion_atom_site_label_3
_geom_torsion_atom_site_label_4
_geom_torsion
_geom_torsion_site_symmetry_1
_geom_torsion_site_symmetry_2
_geom_torsion_site_symmetry_3
_geom_torsion_site_symmetry_4
_geom_torsion_publ_flag
O2 C1 C2 N1 165.7(2) . . . . ?
O1 C1 C2 N1 -14.1(3) . . . . ?
O2 C1 C2 C3 -17.1(3) . . . . ?
O1 C1 C2 C3 163.1(2) . . . . ?
N1 C2 C3 C4 -1.0(3) . . . . ?
C1 C2 C3 C4 -177.94(19) . . . . ?
C2 C3 C4 C6 -4.0(3) . . . . ?
C2 C3 C4 C5 173.91(19) . . . . ?
C3 C4 C5 O5 -42.0(3) . . . . ?
C6 C4 C5 O5 135.9(2) . . . . ?
C3 C4 C5 O6 140.5(2) . . . . ?
C6 C4 C5 O6 -41.6(3) . . . . ?
C3 C4 C6 C7 4.8(3) . . . . ?
C5 C4 C6 C7 -173.09(19) . . . . ?
C4 C6 C7 N1 -0.8(3) . . . . ?
C4 C6 C7 C8 178.4(2) . . . . ?
N1 C7 C8 O4 -170.1(2) . . . . ?
C6 C7 C8 O4 10.7(3) . . . . ?
N1 C7 C8 O3 10.4(3) . . . . ?
C6 C7 C8 O3 -168.8(2) . . . . ?
O8 C9 C10 N2 -1.2(3) . . . . ?
O7 C9 C10 N2 178.95(19) . . . . ?
O8 C9 C10 C11 178.8(2) . . . . ?
O7 C9 C10 C11 -1.1(3) . . . . ?
N2 C10 C11 C12 -2.5(3) . . . . ?
C9 C10 C11 C12 177.5(2) . . . . ?
C10 C11 C12 C14 0.8(3) . . . . ?
C10 C11 C12 C13 178.0(2) . . . . ?
C11 C12 C13 O10 168.1(2) . . . . ?
C14 C12 C13 O10 -14.8(3) . . . . ?
C11 C12 C13 O9 -15.3(3) . . . . ?
C14 C12 C13 O9 161.9(2) . . . . ?
C11 C12 C13 Y1 -93.2(8) . . . 2_546 ?
C14 C12 C13 Y1 84.0(8) . . . 2_546 ?
C11 C12 C14 C15 1.9(3) . . . . ?
C13 C12 C14 C15 -175.29(19) . . . . ?
C12 C14 C15 N2 -3.2(3) . . . . ?
C12 C14 C15 C16 176.90(19) . . . . ?
N2 C15 C16 O11 -179.87(19) . . . . ?
C14 C15 C16 O11 0.1(3) . . . . ?
N2 C15 C16 O12 0.4(3) . . . . ?
C14 C15 C16 O12 -179.7(2) . . . . ?
O2 C1 O1 Y1 -169.41(16) . . . . ?
C2 C1 O1 Y1 10.4(3) . . . . ?
O1 C1 O2 Y1 1.2(4) . . . 2_556 ?
C2 C1 O2 Y1 -178.58(14) . . . 2_556 ?
O4 C8 O3 Y1 177.77(18) . . . . ?
C7 C8 O3 Y1 -2.7(3) . . . . ?
O5 C5 O6 Y2 97.0(2) . . . 3_676 ?
C4 C5 O6 Y2 -85.8(2) . . . 3_676 ?
O8 C9 O7 Y2 91.5(4) . . . . ?
C10 C9 O7 Y2 -88.7(3) . . . . ?
O7 C9 O8 Y2 176.95(17) . . . 2_545 ?
C10 C9 O8 Y2 -2.8(3) . . . 2_545 ?
O10 C13 O9 Y1 10.2(2) . . . 2_546 ?
C12 C13 O9 Y1 -166.41(17) . . . 2_546 ?
O9 C13 O10 Y1 -9.8(2) . . . 2_546 ?
C12 C13 O10 Y1 166.78(18) . . . 2_546 ?
O11 C16 O12 Y2 -178.54(16) . . . 2_545 ?
C15 C16 O12 Y2 1.2(3) . . . 2_545 ?
C3 C2 N1 C7 5.1(3) . . . . ?
C1 C2 N1 C7 -177.62(18) . . . . ?
C3 C2 N1 Y1 -165.14(16) . . . . ?
C1 C2 N1 Y1 12.1(2) . . . . ?
C6 C7 N1 C2 -4.2(3) . . . . ?
C8 C7 N1 C2 176.56(18) . . . . ?
C6 C7 N1 Y1 166.16(16) . . . . ?
C8 C7 N1 Y1 -13.1(2) . . . . ?
C11 C10 N2 C15 1.3(3) . . . . ?
C9 C10 N2 C15 -178.71(18) . . . . ?
C11 C10 N2 Y2 -175.58(16) . . . 2_545 ?
C9 C10 N2 Y2 4.4(2) . . . 2_545 ?
C14 C15 N2 C10 1.6(3) . . . . ?
C16 C15 N2 C10 -178.47(18) . . . . ?
C14 C15 N2 Y2 178.44(15) . . . 2_545 ?
C16 C15 N2 Y2 -1.6(2) . . . 2_545 ?
