#------------------------------------------------------------------------------
#$Date: 2020-11-06 14:07:15 +0200 (Fri, 06 Nov 2020) $
#$Revision: 258816 $
#$URL: file:///home/coder/svn-repositories/cod/cif/7/70/56/7705631.cif $
#------------------------------------------------------------------------------
#
# This file is available in the Crystallography Open Database (COD),
# http://www.crystallography.net/
#
# All data on this site have been placed in the public domain by the
# contributors.
#
data_7705631
loop_
_publ_author_name
'Gao, Xu-Sheng'
'Ding, Mei-Juan'
'Zhang, Jin'
'Zhao, Li-Duo'
'Ren, Xiao-Ming'
_publ_section_title
;
 Phase selectivity and tunable photophysical nature of rare earth
 metal-organic frameworks of Eu<sub> <i>x</i>
 </sub>Y<sub>1-<i>x</i></sub>-PTC (H<sub>3</sub>PTC = 2,4,6-pyridine
 tricarboxylic acid; <i>x</i> = 0-1).
;
_journal_issue                   42
_journal_name_full
'Dalton transactions (Cambridge, England : 2003)'
_journal_page_first              14985
_journal_page_last               14994
_journal_paper_doi               10.1039/d0dt03150j
_journal_volume                  49
_journal_year                    2020
_chemical_formula_sum            'C16 H16 Eu1.64 N2 O18 Y0.36'
_chemical_formula_weight         805.61
_space_group_crystal_system      monoclinic
_space_group_IT_number           14
_space_group_name_Hall           '-P 2yn'
_space_group_name_H-M_alt        'P 1 21/n 1'
_atom_sites_solution_hydrogens   difmap
_audit_creation_method           SHELXL-2016/6
_audit_update_record
;
2019-11-27 deposited with the CCDC.	2020-10-06 downloaded from the CCDC.
;
_cell_angle_alpha                90
_cell_angle_beta                 112.0386(18)
_cell_angle_gamma                90
_cell_formula_units_Z            4
_cell_length_a                   18.4125(10)
_cell_length_b                   6.9080(3)
_cell_length_c                   18.5353(10)
_cell_measurement_reflns_used    9911
_cell_measurement_temperature    303(2)
_cell_measurement_theta_max      27.49
_cell_measurement_theta_min      2.95
_cell_volume                     2185.31(19)
_computing_cell_refinement       'Bruker SAINT'
_computing_data_collection       'Bruker APEX2'
_computing_data_reduction        'Bruker SAINT'
_computing_molecular_graphics    'Bruker SHELXTL'
_computing_publication_material  'Bruker SHELXTL'
_computing_structure_refinement  'SHELXL-2016/6 (Sheldrick, 2016)'
_computing_structure_solution    'SHELXS-97 (Sheldrick 2008)'
_diffrn_ambient_temperature      303(2)
_diffrn_measured_fraction_theta_full 0.993
_diffrn_measured_fraction_theta_max 0.994
_diffrn_measurement_device_type  'Bruker APEX-II CCD'
_diffrn_measurement_method       '\f and \w scans'
_diffrn_radiation_type           MoK\a
_diffrn_radiation_wavelength     0.71073
_diffrn_reflns_av_R_equivalents  0.0255
_diffrn_reflns_av_unetI/netI     0.0153
_diffrn_reflns_Laue_measured_fraction_full 0.993
_diffrn_reflns_Laue_measured_fraction_max 0.994
_diffrn_reflns_limit_h_max       23
_diffrn_reflns_limit_h_min       -23
_diffrn_reflns_limit_k_max       8
_diffrn_reflns_limit_k_min       -8
_diffrn_reflns_limit_l_max       23
_diffrn_reflns_limit_l_min       -24
_diffrn_reflns_number            36088
_diffrn_reflns_point_group_measured_fraction_full 0.993
_diffrn_reflns_point_group_measured_fraction_max 0.994
_diffrn_reflns_theta_full        25.242
_diffrn_reflns_theta_max         27.489
_diffrn_reflns_theta_min         3.178
_exptl_absorpt_coefficient_mu    5.715
_exptl_absorpt_correction_type   none
_exptl_crystal_colour            colorless
_exptl_crystal_density_diffrn    2.449
_exptl_crystal_description       block
_exptl_crystal_F_000             1549
_refine_diff_density_max         0.617
_refine_diff_density_min         -0.753
_refine_diff_density_rms         0.078
_refine_ls_extinction_method     none
_refine_ls_goodness_of_fit_ref   1.178
_refine_ls_hydrogen_treatment    refall
_refine_ls_matrix_type           full
_refine_ls_number_parameters     409
_refine_ls_number_reflns         4965
_refine_ls_number_restraints     0
_refine_ls_restrained_S_all      1.178
_refine_ls_R_factor_all          0.0168
_refine_ls_R_factor_gt           0.0157
_refine_ls_shift/su_max          0.002
_refine_ls_shift/su_mean         0.000
_refine_ls_structure_factor_coef Fsqd
_refine_ls_weighting_details
'w=1/[\s^2^(Fo^2^)+(0.0066P)^2^+2.5914P] where P=(Fo^2^+2Fc^2^)/3'
_refine_ls_weighting_scheme      calc
_refine_ls_wR_factor_gt          0.0336
_refine_ls_wR_factor_ref         0.0339
_reflns_Friedel_coverage         0.000
_reflns_number_gt                4761
_reflns_number_total             4993
_reflns_threshold_expression     'I > 2\s(I)'
_cod_data_source_file            d0dt03150j2.cif
_cod_data_source_block           1_CCDC12
_cod_depositor_comments
'Adding full bibliography for 7705619--7705631.cif.'
_cod_original_sg_symbol_H-M      'P 21/n'
_cod_database_code               7705631
_shelx_shelxl_version_number     2016/6
_shelx_space_group_comment
; 
The symmetry employed for this shelxl refinement is uniquely defined 
by the following loop, which should always be used as a source of 
symmetry information in preference to the above space-group names. 
They are only intended as comments. 
;
_shelx_res_file
; 
TITL 1 in P2(1)/n 
    1.res 
    created by SHELXL-2016/6 at 16:49:47 on 03-Jul-2019 
CELL 0.71073  18.41250   6.90800  18.53530  90.0000 112.0386  90.0000 
ZERR   4.00   0.00100   0.00030   0.00100   0.0000   0.0018   0.0000 
LATT 1 
SYMM 0.5-X,0.5+Y,0.5-Z 
SFAC C  H  Eu N  O  Y 
UNIT 64 64 6.56 8 72 1.44 
L.S. 20 
ACTA 
BOND $H 
FMAP 2 
PLAN 2 
LIST 4 
CONF 
MORE -1 
EXYZ Y2 Eu2 
EXYZ Y1 Eu1 
EADP Y2 Eu2 
EADP Y1 Eu1 
FREE Eu1  O15 
TEMP 29.870 
WGHT    0.006600    2.591400 
FVAR       0.08035   0.14855   0.21002 
Y1    6    0.373403    0.722940    0.877746    21.00000    0.01001    0.01320 = 
         0.00782    0.00023    0.00369    0.00012 
EU1   3    0.373403    0.722940    0.877746   -21.00000    0.01001    0.01320 = 
         0.00782    0.00023    0.00369    0.00012 
Y2    6    0.375087    0.751067    0.396485    31.00000    0.00868    0.01672 = 
         0.00710   -0.00001    0.00247   -0.00044 
EU2   3    0.375087    0.751067    0.396485   -31.00000    0.00868    0.01672 = 
         0.00710   -0.00001    0.00247   -0.00044 
C1    1    0.303044    0.965128    0.709819    11.00000    0.01283    0.02095 = 
         0.01271    0.00061    0.00289    0.00105 
C2    1    0.383516    0.911253    0.711202    11.00000    0.01310    0.01774 = 
         0.01394    0.00035    0.00375   -0.00017 
C3    1    0.406832    0.933343    0.648595    11.00000    0.01542    0.01856 = 
         0.01350    0.00276    0.00310   -0.00016 
C4    1    0.481915    0.871391    0.657570    11.00000    0.01606    0.01628 = 
         0.01461   -0.00060    0.00671   -0.00264 
C5    1    0.508011    0.872852    0.589296    11.00000    0.01736    0.01502 = 
         0.01312    0.00172    0.00576    0.00121 
C6    1    0.532432    0.802459    0.729748    11.00000    0.01353    0.01796 = 
         0.01623   -0.00149    0.00527   -0.00166 
C7    1    0.503569    0.784570    0.788514    11.00000    0.01326    0.01586 = 
         0.01423    0.00026    0.00392   -0.00086 
C8    1    0.550610    0.706690    0.868736    11.00000    0.01489    0.01897 = 
         0.01535    0.00049    0.00425    0.00105 
C9    1    0.247495    0.417167    0.271419    11.00000    0.01697    0.01978 = 
         0.01618   -0.00073    0.00547   -0.00244 
C10   1    0.180647    0.351484    0.294955    11.00000    0.01645    0.01843 = 
         0.01406    0.00067    0.00479   -0.00079 
C11   1    0.182741    0.360378    0.370525    11.00000    0.01898    0.02308 = 
         0.01424   -0.00209    0.00421   -0.00324 
C12   1    0.116671    0.303667    0.384153    11.00000    0.02133    0.01793 = 
         0.01225    0.00171    0.00658    0.00028 
C13   1    0.116469    0.304833    0.465562    11.00000    0.02221    0.01910 = 
         0.01203   -0.00002    0.00683   -0.00187 
C14   1    0.051100    0.236815    0.322244    11.00000    0.01843    0.01949 = 
         0.01353    0.00061    0.00697   -0.00150 
C15   1    0.055301    0.224351    0.249079    11.00000    0.01519    0.01613 = 
         0.01602   -0.00015    0.00570   -0.00035 
C16   1   -0.009633    0.146174    0.177097    11.00000    0.01520    0.01698 = 
         0.01433    0.00112    0.00581    0.00175 
O1    5    0.286224    0.891377    0.764553    11.00000    0.01563    0.03779 = 
         0.01983    0.01058    0.00899    0.00555 
O2    5    0.260020    1.073263    0.658146    11.00000    0.01570    0.02789 = 
         0.01803    0.00694    0.00500    0.00563 
O3    5    0.510587    0.670177    0.910922    11.00000    0.01721    0.03279 = 
         0.01437    0.00633    0.00610    0.00450 
O4    5    0.621519    0.683799    0.888821    11.00000    0.01414    0.04959 = 
         0.02616    0.01076    0.00515    0.00549 
O5    5    0.459516    0.816081    0.526146    11.00000    0.02418    0.03300 = 
         0.01368   -0.00278    0.00379   -0.00453 
O6    5    0.577690    0.924390    0.602439    11.00000    0.01812    0.02490 = 
         0.02066   -0.00033    0.00975   -0.00283 
O7    5    0.306816    0.484677    0.323760    11.00000    0.02019    0.03196 = 
         0.01667   -0.00332    0.00273   -0.01069 
O8    5    0.237832    0.396814    0.201374    11.00000    0.02071    0.04416 = 
         0.01404   -0.00481    0.00775   -0.01033 
O9    5    0.181068    0.316769    0.522508    11.00000    0.02012    0.03476 = 
         0.01341    0.00144    0.00475   -0.00513 
O10   5    0.053125    0.283608    0.475364    11.00000    0.01941    0.03774 = 
         0.01682    0.00307    0.00776   -0.00049 
O11   5   -0.071210    0.086937    0.181422    11.00000    0.01737    0.03385 = 
         0.01935   -0.00202    0.00802   -0.00672 
O12   5    0.005664    0.146096    0.115477    11.00000    0.01763    0.03638 = 
         0.01428   -0.00440    0.00607   -0.00742 
O13   5    0.366715    0.452488    0.790696    11.00000    0.01882    0.03787 = 
         0.01927   -0.00967    0.00938   -0.00353 
O14   5    0.377573    0.426296    0.951503    11.00000    0.03039    0.02741 = 
         0.01974    0.00617    0.00766    0.00376 
O15   5    0.407959    1.062297    0.898381    11.00000    0.03163    0.02100 = 
         0.03536   -0.00391    0.00891   -0.00270 
O16   5    0.281767    0.810171    0.454130    11.00000    0.01671    0.05390 = 
         0.02409    0.00496    0.00920    0.00558 
O17   5    0.395604    0.453492    0.472783    11.00000    0.03124    0.02575 = 
         0.01704    0.00188    0.00007    0.00381 
O18   5    0.287752    0.608225    0.580564    11.00000    0.03824    0.04184 = 
         0.03471    0.00163    0.00577   -0.01415 
N1    4    0.429867    0.832234    0.778361    11.00000    0.01318    0.01882 = 
         0.01428    0.00158    0.00512    0.00064 
N2    4    0.118570    0.284005    0.236035    11.00000    0.01482    0.02018 = 
         0.01156    0.00028    0.00447    0.00108 
H14   2    0.004918    0.194507    0.329601    11.00000    0.02571 
H6    2    0.584887    0.758835    0.736580    11.00000    0.02034 
H3    2    0.373689    0.988158    0.602218    11.00000    0.01885 
H11   2    0.227951    0.401838    0.412033    11.00000    0.01914 
H13A  2    0.315674    0.421375    0.763085    11.00000    0.04833 
H17A  2    0.428975    0.437538    0.518190    11.00000    0.04517 
H16B  2    0.233604    0.827607    0.425705    11.00000    0.06141 
H13B  2    0.387285    0.448968    0.756681    11.00000    0.04823 
H16A  2    0.281607    0.738166    0.497189    11.00000    0.06897 
H17B  2    0.391333    0.347021    0.449424    11.00000    0.05224 
H14A  2    0.415611    0.402989    0.998138    11.00000    0.06817 
H18A  2    0.256153    0.508768    0.561853    11.00000    0.06710 
H18B  2    0.333208    0.553517    0.609607    11.00000    0.09691 
H15A  2    0.457041    1.105650    0.928509    11.00000    0.10721 
H14B  2    0.339775    0.406434    0.956219    11.00000    0.08376 
H15B  2    0.380200    1.145723    0.881911    11.00000    0.09485 
HKLF 4 
  
  
  
  
REM  1 in P2(1)/n 
REM R1 =  0.0157 for    4761 Fo > 4sig(Fo)  and  0.0168 for all    4965 data 
REM    409 parameters refined using      0 restraints 
  
END 
  
WGHT      0.0055      2.5234 
  
REM Highest difference peak  0.617,  deepest hole -0.753,  1-sigma level  0.078 
Q1    1   0.3774  0.7530  0.4454  11.00000  0.05    0.62 
Q2    1   0.3786  0.5806  0.8802  11.00000  0.05    0.52 
;
_shelx_res_checksum              65895
loop_
_space_group_symop_operation_xyz
'x, y, z'
'-x+1/2, y+1/2, -z+1/2'
'-x, -y, -z'
'x-1/2, -y-1/2, z-1/2'
loop_
_atom_site_label
_atom_site_type_symbol
_atom_site_fract_x
_atom_site_fract_y
_atom_site_fract_z
_atom_site_U_iso_or_equiv
_atom_site_adp_type
_atom_site_occupancy
_atom_site_site_symmetry_order
_atom_site_calc_flag
_atom_site_refinement_flags_posn
_atom_site_refinement_flags_adp
_atom_site_refinement_flags_occupancy
_atom_site_disorder_assembly
_atom_site_disorder_group
Y1 Y 0.37340(2) 0.72294(2) 0.87775(2) 0.01024(4) Uani 0.149(3) 1 d . . P . .
Eu1 Eu 0.37340(2) 0.72294(2) 0.87775(2) 0.01024(4) Uani 0.851(3) 1 d . . P . .
Y2 Y 0.37509(2) 0.75107(2) 0.39648(2) 0.01098(4) Uani 0.210(3) 1 d . . P . .
Eu2 Eu 0.37509(2) 0.75107(2) 0.39648(2) 0.01098(4) Uani 0.790(3) 1 d . . P . .
C1 C 0.30304(12) 0.9651(3) 0.70982(12) 0.0161(4) Uani 1 1 d . . . . .
C2 C 0.38352(12) 0.9113(3) 0.71120(12) 0.0153(4) Uani 1 1 d . . . . .
C3 C 0.40683(13) 0.9333(3) 0.64859(13) 0.0165(4) Uani 1 1 d . . . . .
C4 C 0.48191(12) 0.8714(3) 0.65757(12) 0.0154(4) Uani 1 1 d . . . . .
C5 C 0.50801(12) 0.8729(3) 0.58930(12) 0.0152(4) Uani 1 1 d . . . . .
C6 C 0.53243(12) 0.8025(3) 0.72975(12) 0.0160(4) Uani 1 1 d . . . . .
C7 C 0.50357(12) 0.7846(3) 0.78851(12) 0.0148(4) Uani 1 1 d . . . . .
C8 C 0.55061(12) 0.7067(3) 0.86874(13) 0.0168(4) Uani 1 1 d . . . . .
C9 C 0.24749(13) 0.4172(3) 0.27142(13) 0.0179(4) Uani 1 1 d . . . . .
C10 C 0.18065(12) 0.3515(3) 0.29495(12) 0.0166(4) Uani 1 1 d . . . . .
C11 C 0.18274(13) 0.3604(3) 0.37053(13) 0.0194(4) Uani 1 1 d . . . . .
C12 C 0.11667(13) 0.3037(3) 0.38415(12) 0.0171(4) Uani 1 1 d . . . . .
C13 C 0.11647(13) 0.3048(3) 0.46556(12) 0.0177(4) Uani 1 1 d . . . . .
C14 C 0.05110(13) 0.2368(3) 0.32224(13) 0.0169(4) Uani 1 1 d . . . . .
C15 C 0.05530(12) 0.2244(3) 0.24908(13) 0.0158(4) Uani 1 1 d . . . . .
C16 C -0.00963(12) 0.1462(3) 0.17710(12) 0.0154(4) Uani 1 1 d . . . . .
O1 O 0.28622(9) 0.8914(3) 0.76455(10) 0.0237(4) Uani 1 1 d . . . . .
O2 O 0.26002(9) 1.0733(2) 0.65815(9) 0.0209(3) Uani 1 1 d . . . . .
O3 O 0.51059(9) 0.6702(2) 0.91092(9) 0.0214(3) Uani 1 1 d . . . . .
O4 O 0.62152(9) 0.6838(3) 0.88882(10) 0.0307(4) Uani 1 1 d . . . . .
O5 O 0.45952(10) 0.8161(3) 0.52615(9) 0.0246(4) Uani 1 1 d . . . . .
O6 O 0.57769(9) 0.9244(2) 0.60244(9) 0.0205(3) Uani 1 1 d . . . . .
O7 O 0.30682(9) 0.4847(3) 0.32376(9) 0.0242(4) Uani 1 1 d . . . . .
O8 O 0.23783(10) 0.3968(3) 0.20137(9) 0.0259(4) Uani 1 1 d . . . . .
O9 O 0.18107(9) 0.3168(3) 0.52251(9) 0.0232(4) Uani 1 1 d . . . . .
O10 O 0.05313(9) 0.2836(3) 0.47536(9) 0.0244(4) Uani 1 1 d . . . . .
O11 O -0.07121(9) 0.0869(3) 0.18142(10) 0.0232(4) Uani 1 1 d . . . . .
O12 O 0.00566(9) 0.1461(3) 0.11548(9) 0.0227(4) Uani 1 1 d . . . . .
O13 O 0.36672(10) 0.4525(3) 0.79070(10) 0.0247(4) Uani 1 1 d . . . . .
O14 O 0.37757(13) 0.4263(3) 0.95150(11) 0.0264(4) Uani 1 1 d . . . . .
O15 O 0.40796(13) 1.0623(3) 0.89838(13) 0.0304(4) Uani 1 1 d . . . . .
O16 O 0.28177(11) 0.8102(3) 0.45413(11) 0.0311(4) Uani 1 1 d . . . . .
O17 O 0.39560(11) 0.4535(3) 0.47278(11) 0.0273(4) Uani 1 1 d . . . . .
O18 O 0.28775(14) 0.6082(3) 0.58056(13) 0.0406(5) Uani 1 1 d . . . . .
N1 N 0.42987(10) 0.8322(3) 0.77836(10) 0.0154(4) Uani 1 1 d . . . . .
N2 N 0.11857(10) 0.2840(3) 0.23604(10) 0.0157(4) Uani 1 1 d . . . . .
H14 H 0.0049(16) 0.195(4) 0.3296(16) 0.026(7) Uiso 1 1 d . . . . .
H6 H 0.5849(16) 0.759(4) 0.7366(15) 0.020(7) Uiso 1 1 d . . . . .
H3 H 0.3737(14) 0.988(4) 0.6022(15) 0.019(7) Uiso 1 1 d . . . . .
H11 H 0.2280(15) 0.402(4) 0.4120(16) 0.019(6) Uiso 1 1 d . . . . .
H13A H 0.316(2) 0.421(5) 0.763(2) 0.048(10) Uiso 1 1 d . . . . .
H17A H 0.429(2) 0.438(5) 0.518(2) 0.045(10) Uiso 1 1 d . . . . .
H16B H 0.234(2) 0.828(6) 0.426(2) 0.061(12) Uiso 1 1 d . . . . .
H13B H 0.387(2) 0.449(5) 0.757(2) 0.048(10) Uiso 1 1 d . . . . .
H16A H 0.282(2) 0.738(6) 0.497(3) 0.069(13) Uiso 1 1 d . . . . .
H17B H 0.391(2) 0.347(6) 0.449(2) 0.052(11) Uiso 1 1 d . . . . .
H14A H 0.416(2) 0.403(6) 0.998(3) 0.068(12) Uiso 1 1 d . . . . .
H18A H 0.256(2) 0.509(6) 0.562(2) 0.067(12) Uiso 1 1 d . . . . .
H18B H 0.333(3) 0.554(7) 0.610(3) 0.097(17) Uiso 1 1 d . . . . .
H15A H 0.457(3) 1.106(7) 0.929(3) 0.107(18) Uiso 1 1 d . . . . .
H14B H 0.340(3) 0.406(7) 0.956(3) 0.084(17) Uiso 1 1 d . . . . .
H15B H 0.380(3) 1.146(8) 0.882(3) 0.095(18) Uiso 1 1 d . . . . .
loop_
_atom_site_aniso_label
_atom_site_aniso_U_11
_atom_site_aniso_U_22
_atom_site_aniso_U_33
_atom_site_aniso_U_23
_atom_site_aniso_U_13
_atom_site_aniso_U_12
Y1 0.01001(6) 0.01320(6) 0.00782(6) 0.00023(4) 0.00369(4) 0.00012(4)
Eu1 0.01001(6) 0.01320(6) 0.00782(6) 0.00023(4) 0.00369(4) 0.00012(4)
Y2 0.00868(6) 0.01672(7) 0.00710(6) -0.00001(4) 0.00247(4) -0.00044(4)
Eu2 0.00868(6) 0.01672(7) 0.00710(6) -0.00001(4) 0.00247(4) -0.00044(4)
C1 0.0128(10) 0.0210(11) 0.0127(10) 0.0006(8) 0.0029(8) 0.0011(8)
C2 0.0131(10) 0.0177(10) 0.0139(10) 0.0003(8) 0.0038(8) -0.0002(8)
C3 0.0154(10) 0.0186(10) 0.0135(10) 0.0028(8) 0.0031(8) -0.0002(8)
C4 0.0161(10) 0.0163(10) 0.0146(10) -0.0006(8) 0.0067(8) -0.0026(8)
C5 0.0174(10) 0.0150(10) 0.0131(10) 0.0017(8) 0.0058(8) 0.0012(8)
C6 0.0135(10) 0.0180(10) 0.0162(10) -0.0015(8) 0.0053(8) -0.0017(8)
C7 0.0133(9) 0.0159(9) 0.0142(10) 0.0003(8) 0.0039(8) -0.0009(8)
C8 0.0149(10) 0.0190(10) 0.0154(10) 0.0005(9) 0.0042(8) 0.0011(8)
C9 0.0170(10) 0.0198(10) 0.0162(10) -0.0007(8) 0.0055(9) -0.0024(8)
C10 0.0165(10) 0.0184(10) 0.0141(10) 0.0007(8) 0.0048(8) -0.0008(8)
C11 0.0190(11) 0.0231(11) 0.0142(10) -0.0021(9) 0.0042(9) -0.0032(9)
C12 0.0213(11) 0.0179(10) 0.0122(10) 0.0017(8) 0.0066(8) 0.0003(9)
C13 0.0222(11) 0.0191(10) 0.0120(10) 0.0000(8) 0.0068(8) -0.0019(9)
C14 0.0184(10) 0.0195(11) 0.0135(10) 0.0006(8) 0.0070(8) -0.0015(8)
C15 0.0152(10) 0.0161(10) 0.0160(10) -0.0001(8) 0.0057(8) -0.0003(8)
C16 0.0152(10) 0.0170(10) 0.0143(10) 0.0011(8) 0.0058(8) 0.0017(8)
O1 0.0156(8) 0.0378(10) 0.0198(8) 0.0106(7) 0.0090(7) 0.0055(7)
O2 0.0157(8) 0.0279(9) 0.0180(8) 0.0069(7) 0.0050(6) 0.0056(6)
O3 0.0172(8) 0.0328(9) 0.0144(7) 0.0063(7) 0.0061(6) 0.0045(7)
O4 0.0141(8) 0.0496(12) 0.0262(9) 0.0108(9) 0.0052(7) 0.0055(8)
O5 0.0242(8) 0.0330(9) 0.0137(8) -0.0028(7) 0.0038(6) -0.0045(7)
O6 0.0181(8) 0.0249(8) 0.0207(8) -0.0003(7) 0.0097(7) -0.0028(6)
O7 0.0202(8) 0.0320(9) 0.0167(8) -0.0033(7) 0.0027(7) -0.0107(7)
O8 0.0207(8) 0.0442(11) 0.0140(8) -0.0048(7) 0.0078(7) -0.0103(7)
O9 0.0201(8) 0.0348(9) 0.0134(7) 0.0014(7) 0.0048(6) -0.0051(7)
O10 0.0194(8) 0.0377(10) 0.0168(8) 0.0031(7) 0.0078(6) -0.0005(7)
O11 0.0174(8) 0.0339(9) 0.0194(8) -0.0020(7) 0.0080(7) -0.0067(7)
O12 0.0176(8) 0.0364(10) 0.0143(8) -0.0044(7) 0.0061(6) -0.0074(7)
O13 0.0188(9) 0.0379(10) 0.0193(9) -0.0097(8) 0.0094(7) -0.0035(7)
O14 0.0304(10) 0.0274(9) 0.0197(9) 0.0062(7) 0.0077(8) 0.0038(8)
O15 0.0316(11) 0.0210(9) 0.0354(11) -0.0039(8) 0.0089(9) -0.0027(8)
O16 0.0167(9) 0.0539(12) 0.0241(9) 0.0050(9) 0.0092(7) 0.0056(8)
O17 0.0312(10) 0.0257(9) 0.0170(9) 0.0019(8) 0.0001(8) 0.0038(8)
O18 0.0382(12) 0.0418(12) 0.0347(11) 0.0016(10) 0.0058(10) -0.0142(10)
N1 0.0132(8) 0.0188(9) 0.0143(8) 0.0016(7) 0.0051(7) 0.0006(7)
N2 0.0148(8) 0.0202(9) 0.0116(8) 0.0003(7) 0.0045(7) 0.0011(7)
loop_
_atom_type_symbol
_atom_type_description
_atom_type_scat_dispersion_real
_atom_type_scat_dispersion_imag
_atom_type_scat_source
C C 0.0033 0.0016 'International Tables Vol C Tables 4.2.6.8 and 6.1.1.4'
H H 0.0000 0.0000 'International Tables Vol C Tables 4.2.6.8 and 6.1.1.4'
Eu Eu -0.1578 3.6682 'International Tables Vol C Tables 4.2.6.8 and 6.1.1.4'
N N 0.0061 0.0033 'International Tables Vol C Tables 4.2.6.8 and 6.1.1.4'
O O 0.0106 0.0060 'International Tables Vol C Tables 4.2.6.8 and 6.1.1.4'
Y Y -2.7962 3.5667 'International Tables Vol C Tables 4.2.6.8 and 6.1.1.4'
loop_
_geom_angle_atom_site_label_1
_geom_angle_atom_site_label_2
_geom_angle_atom_site_label_3
_geom_angle
_geom_angle_site_symmetry_1
_geom_angle_site_symmetry_3
_geom_angle_publ_flag
O3 Y1 O1 126.26(5) . . ?
O3 Y1 O15 85.26(7) . . ?
O1 Y1 O15 73.72(7) . . ?
O3 Y1 O13 80.79(6) . . ?
O1 Y1 O13 86.68(6) . . ?
O15 Y1 O13 142.22(7) . . ?
O3 Y1 O14 85.42(6) . . ?
O1 Y1 O14 139.59(7) . . ?
O15 Y1 O14 140.41(7) . . ?
O13 Y1 O14 73.25(6) . . ?
O3 Y1 O9 121.86(5) . 2_556 ?
O1 Y1 O9 101.42(5) . 2_556 ?
O15 Y1 O9 77.67(6) . 2_556 ?
O13 Y1 O9 138.88(6) . 2_556 ?
O14 Y1 O9 74.99(6) . 2_556 ?
O3 Y1 O2 146.91(6) . 2_546 ?
O1 Y1 O2 72.70(6) . 2_546 ?
O15 Y1 O2 127.78(7) . 2_546 ?
O13 Y1 O2 73.05(6) . 2_546 ?
O14 Y1 O2 68.06(6) . 2_546 ?
O9 Y1 O2 71.25(5) 2_556 2_546 ?
O3 Y1 N1 63.44(5) . . ?
O1 Y1 N1 63.01(5) . . ?
O15 Y1 N1 70.90(6) . . ?
O13 Y1 N1 71.44(6) . . ?
O14 Y1 N1 135.76(6) . . ?
O9 Y1 N1 147.70(6) 2_556 . ?
O2 Y1 N1 123.66(5) 2_546 . ?
O3 Y1 O10 70.64(5) . 2_556 ?
O1 Y1 O10 139.01(6) . 2_556 ?
O15 Y1 O10 70.94(7) . 2_556 ?
O13 Y1 O10 134.29(6) . 2_556 ?
O14 Y1 O10 69.67(6) . 2_556 ?
O9 Y1 O10 51.22(5) 2_556 2_556 ?
O2 Y1 O10 114.80(5) 2_546 2_556 ?
N1 Y1 O10 121.38(6) . 2_556 ?
O3 Y1 C13 96.17(6) . 2_556 ?
O1 Y1 C13 123.38(6) . 2_556 ?
O15 Y1 C13 74.82(7) . 2_556 ?
O13 Y1 C13 141.33(6) . 2_556 ?
O14 Y1 C13 68.08(6) . 2_556 ?
O9 Y1 C13 25.74(6) 2_556 2_556 ?
O2 Y1 C13 91.98(6) 2_546 2_556 ?
N1 Y1 C13 141.06(6) . 2_556 ?
O10 Y1 C13 25.67(6) 2_556 2_556 ?
O7 Y2 O5 137.62(6) . . ?
O7 Y2 O16 94.08(7) . . ?
O5 Y2 O16 79.67(6) . . ?
O7 Y2 O12 91.23(6) . 2 ?
O5 Y2 O12 82.87(6) . 2 ?
O16 Y2 O12 159.22(6) . 2 ?
O7 Y2 O6 148.27(6) . 3_676 ?
O5 Y2 O6 73.52(6) . 3_676 ?
O16 Y2 O6 99.01(7) . 3_676 ?
O12 Y2 O6 86.67(6) 2 3_676 ?
O7 Y2 O8 76.72(6) . 2 ?
O5 Y2 O8 137.64(6) . 2 ?
O16 Y2 O8 72.60(6) . 2 ?
O12 Y2 O8 128.17(5) 2 2 ?
O6 Y2 O8 79.83(6) 3_676 2 ?
O7 Y2 O17 66.80(6) . . ?
O5 Y2 O17 70.82(6) . . ?
O16 Y2 O17 82.24(7) . . ?
O12 Y2 O17 81.44(6) 2 . ?
O6 Y2 O17 143.49(6) 3_676 . ?
O8 Y2 O17 133.65(6) 2 . ?
O7 Y2 N2 73.80(6) . 2 ?
O5 Y2 N2 136.25(6) . 2 ?
O16 Y2 N2 136.98(6) . 2 ?
O12 Y2 N2 63.73(6) 2 2 ?
O6 Y2 N2 76.95(6) 3_676 2 ?
O8 Y2 N2 64.50(6) 2 2 ?
O17 Y2 N2 126.04(6) . 2 ?
O2 C1 O1 125.6(2) . . ?
O2 C1 C2 119.86(19) . . ?
O1 C1 C2 114.59(18) . . ?
N1 C2 C3 122.33(19) . . ?
N1 C2 C1 113.24(18) . . ?
C3 C2 C1 124.38(19) . . ?
C2 C3 C4 118.0(2) . . ?
C2 C3 H3 121.1(16) . . ?
C4 C3 H3 120.9(16) . . ?
C6 C4 C3 119.5(2) . . ?
C6 C4 C5 119.83(19) . . ?
C3 C4 C5 120.62(19) . . ?
O5 C5 O6 126.2(2) . . ?
O5 C5 C4 116.45(19) . . ?
O6 C5 C4 117.30(19) . . ?
C7 C6 C4 118.03(19) . . ?
C7 C6 H6 121.7(16) . . ?
C4 C6 H6 120.1(16) . . ?
N1 C7 C6 122.3(2) . . ?
N1 C7 C8 113.71(18) . . ?
C6 C7 C8 123.93(19) . . ?
O4 C8 O3 125.3(2) . . ?
O4 C8 C7 119.8(2) . . ?
O3 C8 C7 114.89(18) . . ?
O7 C9 O8 126.3(2) . . ?
O7 C9 C10 117.1(2) . . ?
O8 C9 C10 116.68(19) . . ?
N2 C10 C11 122.2(2) . . ?
N2 C10 C9 113.98(19) . . ?
C11 C10 C9 123.85(19) . . ?
C10 C11 C12 118.5(2) . . ?
C10 C11 H11 121.3(16) . . ?
C12 C11 H11 120.2(16) . . ?
C11 C12 C14 119.4(2) . . ?
C11 C12 C13 120.73(19) . . ?
C14 C12 C13 119.84(19) . . ?
O10 C13 O9 121.5(2) . . ?
O10 C13 C12 119.67(19) . . ?
O9 C13 C12 118.75(19) . . ?
O10 C13 Y1 62.96(11) . 2_546 ?
O9 C13 Y1 59.22(11) . 2_546 ?
C12 C13 Y1 167.88(15) . 2_546 ?
C15 C14 C12 118.4(2) . . ?
C15 C14 H14 119.9(17) . . ?
C12 C14 H14 121.7(17) . . ?
N2 C15 C14 121.8(2) . . ?
N2 C15 C16 113.71(18) . . ?
C14 C15 C16 124.46(19) . . ?
O11 C16 O12 125.1(2) . . ?
O11 C16 C15 120.00(19) . . ?
O12 C16 C15 114.94(18) . . ?
C1 O1 Y1 127.26(14) . . ?
C1 O2 Y1 136.95(14) . 2_556 ?
C8 O3 Y1 127.23(14) . . ?
C5 O5 Y2 170.31(16) . . ?
C5 O6 Y2 127.06(14) . 3_676 ?
C9 O7 Y2 149.70(16) . . ?
C9 O8 Y2 125.13(14) . 2_545 ?
C13 O9 Y1 95.04(13) . 2_546 ?
C13 O10 Y1 91.38(13) . 2_546 ?
C16 O12 Y2 126.86(14) . 2_545 ?
Y1 O13 H13A 110(2) . . ?
Y1 O13 H13B 126(2) . . ?
H13A O13 H13B 103(3) . . ?
Y1 O14 H14A 122(3) . . ?
Y1 O14 H14B 113(4) . . ?
H14A O14 H14B 106(4) . . ?
Y1 O15 H15A 124(3) . . ?
Y1 O15 H15B 125(4) . . ?
H15A O15 H15B 111(5) . . ?
Y2 O16 H16B 120(3) . . ?
Y2 O16 H16A 122(2) . . ?
H16B O16 H16A 105(3) . . ?
Y2 O17 H17A 126(2) . . ?
Y2 O17 H17B 118(3) . . ?
H17A O17 H17B 107(3) . . ?
H18A O18 H18B 104(4) . . ?
C2 N1 C7 119.44(18) . . ?
C2 N1 Y1 120.31(13) . . ?
C7 N1 Y1 119.52(14) . . ?
C10 N2 C15 119.70(19) . . ?
C10 N2 Y2 119.48(14) . 2_545 ?
C15 N2 Y2 120.72(14) . 2_545 ?
loop_
_geom_bond_atom_site_label_1
_geom_bond_atom_site_label_2
_geom_bond_distance
_geom_bond_site_symmetry_2
_geom_bond_publ_flag
Y1 O3 2.3928(15) . ?
Y1 O1 2.4094(16) . ?
Y1 O15 2.4216(19) . ?
Y1 O13 2.4413(17) . ?
Y1 O14 2.4486(18) . ?
Y1 O9 2.4972(16) 2_556 ?
Y1 O2 2.5141(15) 2_546 ?
Y1 N1 2.5459(18) . ?
Y1 O10 2.5796(16) 2_556 ?
Y1 C13 2.895(2) 2_556 ?
Y2 O7 2.3478(16) . ?
Y2 O5 2.3644(16) . ?
Y2 O16 2.3746(18) . ?
Y2 O12 2.4002(15) 2 ?
Y2 O6 2.4020(16) 3_676 ?
Y2 O8 2.4075(16) 2 ?
Y2 O17 2.4428(18) . ?
Y2 N2 2.5128(18) 2 ?
C1 O2 1.238(3) . ?
C1 O1 1.273(3) . ?
C1 C2 1.519(3) . ?
C2 N1 1.334(3) . ?
C2 C3 1.389(3) . ?
C3 C4 1.396(3) . ?
C3 H3 0.93(3) . ?
C4 C6 1.396(3) . ?
C4 C5 1.513(3) . ?
C5 O5 1.240(3) . ?
C5 O6 1.264(3) . ?
C6 C7 1.385(3) . ?
C6 H6 0.97(3) . ?
C7 N1 1.339(3) . ?
C7 C8 1.511(3) . ?
C8 O4 1.226(3) . ?
C8 O3 1.285(3) . ?
C9 O7 1.248(3) . ?
C9 O8 1.250(3) . ?
C9 C10 1.521(3) . ?
C10 N2 1.334(3) . ?
C10 C11 1.388(3) . ?
C11 C12 1.388(3) . ?
C11 H11 0.94(3) . ?
C12 C14 1.396(3) . ?
C12 C13 1.510(3) . ?
C13 O10 1.255(3) . ?
C13 O9 1.262(3) . ?
C14 C15 1.390(3) . ?
C14 H14 0.96(3) . ?
C15 N2 1.340(3) . ?
C15 C16 1.518(3) . ?
C16 O11 1.236(3) . ?
C16 O12 1.275(3) . ?
O13 H13A 0.91(4) . ?
O13 H13B 0.85(4) . ?
O14 H14A 0.90(4) . ?
O14 H14B 0.75(5) . ?
O15 H15A 0.92(6) . ?
O15 H15B 0.75(5) . ?
O16 H16B 0.85(4) . ?
O16 H16A 0.94(4) . ?
O17 H17A 0.84(4) . ?
O17 H17B 0.84(4) . ?
O18 H18A 0.88(4) . ?
O18 H18B 0.89(5) . ?
loop_
_geom_torsion_atom_site_label_1
_geom_torsion_atom_site_label_2
_geom_torsion_atom_site_label_3
_geom_torsion_atom_site_label_4
_geom_torsion
_geom_torsion_site_symmetry_1
_geom_torsion_site_symmetry_2
_geom_torsion_site_symmetry_3
_geom_torsion_site_symmetry_4
_geom_torsion_publ_flag
O2 C1 C2 N1 165.6(2) . . . . ?
O1 C1 C2 N1 -14.2(3) . . . . ?
O2 C1 C2 C3 -16.8(3) . . . . ?
O1 C1 C2 C3 163.4(2) . . . . ?
N1 C2 C3 C4 -0.6(3) . . . . ?
C1 C2 C3 C4 -177.9(2) . . . . ?
C2 C3 C4 C6 -4.3(3) . . . . ?
C2 C3 C4 C5 173.88(19) . . . . ?
C6 C4 C5 O5 136.2(2) . . . . ?
C3 C4 C5 O5 -42.0(3) . . . . ?
C6 C4 C5 O6 -41.2(3) . . . . ?
C3 C4 C5 O6 140.6(2) . . . . ?
C3 C4 C6 C7 4.8(3) . . . . ?
C5 C4 C6 C7 -173.38(19) . . . . ?
C4 C6 C7 N1 -0.5(3) . . . . ?
C4 C6 C7 C8 178.2(2) . . . . ?
N1 C7 C8 O4 -169.7(2) . . . . ?
C6 C7 C8 O4 11.5(3) . . . . ?
N1 C7 C8 O3 10.0(3) . . . . ?
C6 C7 C8 O3 -168.7(2) . . . . ?
O7 C9 C10 N2 178.9(2) . . . . ?
O8 C9 C10 N2 -1.6(3) . . . . ?
O7 C9 C10 C11 -0.9(3) . . . . ?
O8 C9 C10 C11 178.6(2) . . . . ?
N2 C10 C11 C12 -2.5(3) . . . . ?
C9 C10 C11 C12 177.3(2) . . . . ?
C10 C11 C12 C14 1.1(3) . . . . ?
C10 C11 C12 C13 178.2(2) . . . . ?
C11 C12 C13 O10 168.6(2) . . . . ?
C14 C12 C13 O10 -14.3(3) . . . . ?
C11 C12 C13 O9 -15.3(3) . . . . ?
C14 C12 C13 O9 161.9(2) . . . . ?
C11 C12 C13 Y1 -92.2(7) . . . 2_546 ?
C14 C12 C13 Y1 84.9(7) . . . 2_546 ?
C11 C12 C14 C15 1.8(3) . . . . ?
C13 C12 C14 C15 -175.4(2) . . . . ?
C12 C14 C15 N2 -3.6(3) . . . . ?
C12 C14 C15 C16 177.1(2) . . . . ?
N2 C15 C16 O11 -179.8(2) . . . . ?
C14 C15 C16 O11 -0.5(3) . . . . ?
N2 C15 C16 O12 0.9(3) . . . . ?
C14 C15 C16 O12 -179.7(2) . . . . ?
O2 C1 O1 Y1 -169.47(17) . . . . ?
C2 C1 O1 Y1 10.3(3) . . . . ?
O1 C1 O2 Y1 1.3(4) . . . 2_556 ?
C2 C1 O2 Y1 -178.53(14) . . . 2_556 ?
O4 C8 O3 Y1 177.34(18) . . . . ?
C7 C8 O3 Y1 -2.4(3) . . . . ?
O5 C5 O6 Y2 96.9(2) . . . 3_676 ?
C4 C5 O6 Y2 -86.0(2) . . . 3_676 ?
O8 C9 O7 Y2 91.5(4) . . . . ?
C10 C9 O7 Y2 -89.1(3) . . . . ?
O7 C9 O8 Y2 176.77(17) . . . 2_545 ?
C10 C9 O8 Y2 -2.7(3) . . . 2_545 ?
O10 C13 O9 Y1 9.9(2) . . . 2_546 ?
C12 C13 O9 Y1 -166.23(17) . . . 2_546 ?
O9 C13 O10 Y1 -9.5(2) . . . 2_546 ?
C12 C13 O10 Y1 166.55(18) . . . 2_546 ?
O11 C16 O12 Y2 -178.33(16) . . . 2_545 ?
C15 C16 O12 Y2 0.9(3) . . . 2_545 ?
C3 C2 N1 C7 4.9(3) . . . . ?
C1 C2 N1 C7 -177.50(19) . . . . ?
C3 C2 N1 Y1 -165.31(16) . . . . ?
C1 C2 N1 Y1 12.3(2) . . . . ?
C6 C7 N1 C2 -4.3(3) . . . . ?
C8 C7 N1 C2 176.86(19) . . . . ?
C6 C7 N1 Y1 165.96(16) . . . . ?
C8 C7 N1 Y1 -12.8(2) . . . . ?
C11 C10 N2 C15 0.8(3) . . . . ?
C9 C10 N2 C15 -178.98(19) . . . . ?
C11 C10 N2 Y2 -175.43(17) . . . 2_545 ?
C9 C10 N2 Y2 4.8(2) . . . 2_545 ?
C14 C15 N2 C10 2.3(3) . . . . ?
C16 C15 N2 C10 -178.34(19) . . . . ?
C14 C15 N2 Y2 178.47(16) . . . 2_545 ?
C16 C15 N2 Y2 -2.2(2) . . . 2_545 ?
