#------------------------------------------------------------------------------
#$Date: 2020-11-06 14:07:15 +0200 (Fri, 06 Nov 2020) $
#$Revision: 258816 $
#$URL: file:///home/coder/svn-repositories/cod/cif/7/70/56/7705626.cif $
#------------------------------------------------------------------------------
#
# This file is available in the Crystallography Open Database (COD),
# http://www.crystallography.net/
#
# All data on this site have been placed in the public domain by the
# contributors.
#
data_7705626
loop_
_publ_author_name
'Gao, Xu-Sheng'
'Ding, Mei-Juan'
'Zhang, Jin'
'Zhao, Li-Duo'
'Ren, Xiao-Ming'
_publ_section_title
;
 Phase selectivity and tunable photophysical nature of rare earth
 metal-organic frameworks of Eu<sub> <i>x</i>
 </sub>Y<sub>1-<i>x</i></sub>-PTC (H<sub>3</sub>PTC = 2,4,6-pyridine
 tricarboxylic acid; <i>x</i> = 0-1).
;
_journal_issue                   42
_journal_name_full
'Dalton transactions (Cambridge, England : 2003)'
_journal_page_first              14985
_journal_page_last               14994
_journal_paper_doi               10.1039/d0dt03150j
_journal_volume                  49
_journal_year                    2020
_chemical_formula_sum            'C16 H16 Eu0.98 N2 O18 Y1.02'
_chemical_formula_weight         763.93
_space_group_crystal_system      monoclinic
_space_group_IT_number           14
_space_group_name_Hall           '-P 2yn'
_space_group_name_H-M_alt        'P 1 21/n 1'
_atom_sites_solution_hydrogens   difmap
_audit_creation_method           SHELXL-2016/6
_audit_update_record
;
2019-11-27 deposited with the CCDC.	2020-10-06 downloaded from the CCDC.
;
_cell_angle_alpha                90
_cell_angle_beta                 112.1571(11)
_cell_angle_gamma                90
_cell_formula_units_Z            4
_cell_length_a                   18.3578(7)
_cell_length_b                   6.9013(3)
_cell_length_c                   18.4646(8)
_cell_measurement_reflns_used    9950
_cell_measurement_temperature    273(2)
_cell_measurement_theta_max      27.56
_cell_measurement_theta_min      2.38
_cell_volume                     2166.58(16)
_computing_cell_refinement       'Bruker SAINT'
_computing_data_collection       'Bruker APEX2'
_computing_data_reduction        'Bruker SAINT'
_computing_molecular_graphics    'Bruker SHELXTL'
_computing_publication_material  'Bruker SHELXTL'
_computing_structure_refinement  'SHELXL-2016/6 (Sheldrick, 2016)'
_computing_structure_solution    'SHELXS-97 (Sheldrick 2008)'
_diffrn_ambient_temperature      273(2)
_diffrn_measured_fraction_theta_full 0.997
_diffrn_measured_fraction_theta_max 0.991
_diffrn_measurement_device_type  'Bruker APEX-II CCD'
_diffrn_measurement_method       '\f and \w scans'
_diffrn_radiation_type           MoK\a
_diffrn_radiation_wavelength     0.71073
_diffrn_reflns_av_R_equivalents  0.0314
_diffrn_reflns_av_unetI/netI     0.0272
_diffrn_reflns_Laue_measured_fraction_full 0.997
_diffrn_reflns_Laue_measured_fraction_max 0.991
_diffrn_reflns_limit_h_max       19
_diffrn_reflns_limit_h_min       -23
_diffrn_reflns_limit_k_max       8
_diffrn_reflns_limit_k_min       -8
_diffrn_reflns_limit_l_max       24
_diffrn_reflns_limit_l_min       -20
_diffrn_reflns_number            22849
_diffrn_reflns_point_group_measured_fraction_full 0.997
_diffrn_reflns_point_group_measured_fraction_max 0.991
_diffrn_reflns_theta_full        25.242
_diffrn_reflns_theta_max         27.562
_diffrn_reflns_theta_min         1.982
_exptl_absorpt_coefficient_mu    5.630
_exptl_absorpt_correction_type   none
_exptl_crystal_colour            colorless
_exptl_crystal_density_diffrn    2.342
_exptl_crystal_description       block
_exptl_crystal_F_000             1486
_refine_diff_density_max         0.447
_refine_diff_density_min         -0.948
_refine_diff_density_rms         0.117
_refine_ls_extinction_method     none
_refine_ls_goodness_of_fit_ref   1.047
_refine_ls_hydrogen_treatment    refall
_refine_ls_matrix_type           full
_refine_ls_number_parameters     409
_refine_ls_number_reflns         4939
_refine_ls_number_restraints     0
_refine_ls_restrained_S_all      1.047
_refine_ls_R_factor_all          0.0246
_refine_ls_R_factor_gt           0.0208
_refine_ls_shift/su_max          0.002
_refine_ls_shift/su_mean         0.000
_refine_ls_structure_factor_coef Fsqd
_refine_ls_weighting_details
'w=1/[\s^2^(Fo^2^)+(0.0173P)^2^+1.6562P] where P=(Fo^2^+2Fc^2^)/3'
_refine_ls_weighting_scheme      calc
_refine_ls_wR_factor_gt          0.0431
_refine_ls_wR_factor_ref         0.0442
_reflns_Friedel_coverage         0.000
_reflns_number_gt                4544
_reflns_number_total             4984
_reflns_threshold_expression     'I > 2\s(I)'
_cod_data_source_file            d0dt03150j2.cif
_cod_data_source_block           1_CCDC7
_cod_depositor_comments
'Adding full bibliography for 7705619--7705631.cif.'
_cod_original_sg_symbol_H-M      'P 21/n'
_cod_database_code               7705626
_shelx_shelxl_version_number     2016/6
_shelx_space_group_comment
; 
The symmetry employed for this shelxl refinement is uniquely defined 
by the following loop, which should always be used as a source of 
symmetry information in preference to the above space-group names. 
They are only intended as comments. 
;
_shelx_res_file
; 
TITL 1 in P2/n 
    1.res 
    created by SHELXL-2016/6 at 20:37:58 on 24-Jul-2019 
CELL 0.71073  18.35780   6.90130  18.46460  90.0000 112.1571  90.0000 
ZERR   4.00   0.00070   0.00030   0.00080   0.0000   0.0011   0.0000 
LATT 1 
SYMM 0.5-X,0.5+Y,0.5-Z 
SFAC C  H  Eu N  O  Y 
UNIT 64 64 3.92 8 72 4.08 
L.S. 20 
omit -1 0 1 
omit 0 0 2 
ACTA 
BOND $H 
FMAP 2 
PLAN 5 
LIST 4 
CONF 
MORE -1 
EXYZ Y2 Eu2 
EXYZ Y1 Eu1 
EADP Y2 Eu2 
EADP Y1 Eu1 
TEMP 0 
WGHT    0.017300    1.656200 
FVAR       0.08049   0.40510   0.61465 
Y1    6    0.373493    0.723066    0.877399    21.00000    0.00851    0.01262 = 
         0.00528    0.00020    0.00263    0.00028 
EU1   3    0.373493    0.723066    0.877399   -21.00000    0.00851    0.01262 = 
         0.00528    0.00020    0.00263    0.00028 
Y2    6    0.375254    0.752205    0.396302    31.00000    0.00737    0.01623 = 
         0.00452    0.00004    0.00149   -0.00044 
EU2   3    0.375254    0.752205    0.396302   -31.00000    0.00737    0.01623 = 
         0.00452    0.00004    0.00149   -0.00044 
C1    1    0.303182    0.965327    0.710092    11.00000    0.01415    0.01851 = 
         0.01400   -0.00130    0.00426   -0.00014 
C2    1    0.383636    0.912053    0.711005    11.00000    0.01220    0.01556 = 
         0.01328    0.00162    0.00317    0.00059 
C3    1    0.407086    0.933369    0.648455    11.00000    0.01502    0.01703 = 
         0.01125    0.00222    0.00226   -0.00080 
C4    1    0.481985    0.871986    0.657301    11.00000    0.01532    0.01404 = 
         0.01205   -0.00209    0.00526   -0.00412 
C5    1    0.508018    0.872997    0.588889    11.00000    0.01614    0.01191 = 
         0.01141    0.00297    0.00484    0.00210 
C6    1    0.532670    0.802578    0.729571    11.00000    0.01181    0.01860 = 
         0.01341   -0.00076    0.00464   -0.00110 
C7    1    0.504024    0.784306    0.788733    11.00000    0.01173    0.01553 = 
         0.01187   -0.00078    0.00218   -0.00129 
C8    1    0.550700    0.705666    0.869193    11.00000    0.01335    0.01707 = 
         0.01336    0.00010    0.00403    0.00060 
C9    1    0.246923    0.420356    0.270903    11.00000    0.01573    0.01790 = 
         0.01308    0.00034    0.00286   -0.00103 
C10   1    0.180638    0.354250    0.295077    11.00000    0.01510    0.01491 = 
         0.01076   -0.00005    0.00319   -0.00149 
C11   1    0.182510    0.362795    0.370577    11.00000    0.01758    0.02197 = 
         0.01037   -0.00041    0.00380   -0.00175 
C12   1    0.116457    0.304198    0.384530    11.00000    0.02016    0.01615 = 
         0.01026    0.00156    0.00518    0.00122 
C13   1    0.116180    0.304536    0.466099    11.00000    0.01984    0.01630 = 
         0.01291    0.00042    0.00630   -0.00030 
C14   1    0.051235    0.237251    0.322183    11.00000    0.01670    0.01698 = 
         0.01394    0.00179    0.00665   -0.00075 
C15   1    0.055232    0.225358    0.248843    11.00000    0.01437    0.01290 = 
         0.01297    0.00168    0.00419    0.00158 
C16   1   -0.009506    0.145477    0.176326    11.00000    0.01376    0.01503 = 
         0.01277    0.00042    0.00365    0.00203 
O1    5    0.286279    0.890798    0.764785    11.00000    0.01526    0.03425 = 
         0.01769    0.01169    0.00826    0.00572 
O2    5    0.259678    1.074203    0.658042    11.00000    0.01588    0.02649 = 
         0.01666    0.00726    0.00416    0.00621 
O3    5    0.510194    0.669775    0.911128    11.00000    0.01536    0.03096 = 
         0.01325    0.00595    0.00521    0.00456 
O4    5    0.621816    0.681818    0.889606    11.00000    0.01151    0.04727 = 
         0.02447    0.00932    0.00374    0.00376 
O5    5    0.459766    0.815781    0.525389    11.00000    0.02148    0.03204 = 
         0.01065   -0.00338    0.00221   -0.00393 
O6    5    0.577920    0.926005    0.602191    11.00000    0.01474    0.02512 = 
         0.01818    0.00067    0.00801   -0.00297 
O7    5    0.306567    0.489743    0.323422    11.00000    0.01821    0.03111 = 
         0.01365   -0.00366    0.00154   -0.01021 
O8    5    0.237274    0.399803    0.200581    11.00000    0.01889    0.04164 = 
         0.01076   -0.00444    0.00654   -0.01051 
O9    5    0.180982    0.316540    0.523324    11.00000    0.01961    0.03333 = 
         0.00946    0.00125    0.00345   -0.00417 
O10   5    0.052781    0.283794    0.475668    11.00000    0.01873    0.03603 = 
         0.01440    0.00208    0.00765   -0.00089 
O11   5   -0.071506    0.085858    0.180315    11.00000    0.01520    0.03234 = 
         0.01853   -0.00186    0.00783   -0.00720 
O12   5    0.006296    0.145985    0.114985    11.00000    0.01563    0.03474 = 
         0.01023   -0.00371    0.00407   -0.00636 
O13   5    0.366682    0.455391    0.790237    11.00000    0.01671    0.03673 = 
         0.01742   -0.00982    0.00870   -0.00396 
O14   5    0.377948    0.427470    0.950606    11.00000    0.02820    0.02627 = 
         0.01722    0.00594    0.00680    0.00427 
O15   5    0.407366    1.060821    0.897994    11.00000    0.03094    0.01964 = 
         0.03114   -0.00389    0.00785   -0.00266 
O16   5    0.283094    0.811023    0.453206    11.00000    0.01601    0.04985 = 
         0.02076    0.00660    0.00821    0.00635 
O17   5    0.395904    0.456941    0.472107    11.00000    0.02971    0.02508 = 
         0.01424    0.00221   -0.00072    0.00366 
O18   5    0.287643    0.609946    0.579791    11.00000    0.03598    0.03804 = 
         0.03153    0.00208    0.00443   -0.01344 
N1    4    0.429965    0.832479    0.778441    11.00000    0.01193    0.01689 = 
         0.01289   -0.00003    0.00401   -0.00001 
N2    4    0.118601    0.284707    0.235850    11.00000    0.01341    0.01670 = 
         0.01110   -0.00014    0.00416    0.00018 
H14   2    0.005630    0.201090    0.329850    11.00000    0.02061 
H6    2    0.588157    0.760907    0.739089    11.00000    0.01634 
H3    2    0.371156    0.988690    0.598685    11.00000    0.02315 
H11   2    0.228610    0.403446    0.413204    11.00000    0.01782 
H17A  2    0.431860    0.444011    0.522570    11.00000    0.07480 
H14A  2    0.420855    0.393053    0.999271    11.00000    0.10319 
H16A  2    0.285122    0.744046    0.495870    11.00000    0.09274 
H18A  2    0.256015    0.507240    0.560813    11.00000    0.05687 
H13A  2    0.315522    0.415871    0.764143    11.00000    0.05139 
H13B  2    0.387715    0.451025    0.756931    11.00000    0.05699 
H15A  2    0.456806    1.103990    0.926836    11.00000    0.09350 
H17B  2    0.390831    0.349915    0.450002    11.00000    0.07053 
H16B  2    0.235999    0.832703    0.425062    11.00000    0.07055 
H15B  2    0.386035    1.174727    0.885660    11.00000    0.10069 
H18B  2    0.331781    0.553743    0.607781    11.00000    0.10885 
H14B  2    0.338598    0.401325    0.956400    11.00000    0.05668 
HKLF 4 
  
  
  
  
REM  1 in P2/n 
REM R1 =  0.0208 for    4544 Fo > 4sig(Fo)  and  0.0246 for all    4939 data 
REM    409 parameters refined using      0 restraints 
  
END 
  
WGHT      0.0179      0.6566 
  
REM Highest difference peak  0.447,  deepest hole -0.948,  1-sigma level  0.117 
Q1    1   0.1186  0.2982  0.4242  11.00000  0.05    0.45 
Q2    1   0.3442  0.6130  0.7833  11.00000  0.05    0.43 
Q3    1   0.4015  0.5902  0.7935  11.00000  0.05    0.41 
Q4    1   0.3850  0.6347  0.9759  11.00000  0.05    0.41 
Q5    1   0.0847  0.2051  0.5214  11.00000  0.05    0.41 
;
_shelx_res_checksum              67895
loop_
_space_group_symop_operation_xyz
'x, y, z'
'-x+1/2, y+1/2, -z+1/2'
'-x, -y, -z'
'x-1/2, -y-1/2, z-1/2'
loop_
_atom_site_label
_atom_site_type_symbol
_atom_site_fract_x
_atom_site_fract_y
_atom_site_fract_z
_atom_site_U_iso_or_equiv
_atom_site_adp_type
_atom_site_occupancy
_atom_site_site_symmetry_order
_atom_site_calc_flag
_atom_site_refinement_flags_posn
_atom_site_refinement_flags_adp
_atom_site_refinement_flags_occupancy
_atom_site_disorder_assembly
_atom_site_disorder_group
Y1 Y 0.37349(2) 0.72307(2) 0.87740(2) 0.00879(5) Uani 0.405(3) 1 d . . P . .
Eu1 Eu 0.37349(2) 0.72307(2) 0.87740(2) 0.00879(5) Uani 0.595(3) 1 d . . P . .
Y2 Y 0.37525(2) 0.75220(2) 0.39630(2) 0.00959(6) Uani 0.615(3) 1 d . . P . .
Eu2 Eu 0.37525(2) 0.75220(2) 0.39630(2) 0.00959(6) Uani 0.385(3) 1 d . . P . .
C1 C 0.30318(12) 0.9653(3) 0.71009(13) 0.0159(5) Uani 1 1 d . . . . .
C2 C 0.38364(12) 0.9121(3) 0.71101(13) 0.0142(4) Uani 1 1 d . . . . .
C3 C 0.40709(13) 0.9334(3) 0.64846(13) 0.0152(5) Uani 1 1 d . . . . .
C4 C 0.48199(12) 0.8720(3) 0.65730(12) 0.0138(4) Uani 1 1 d . . . . .
C5 C 0.50802(12) 0.8730(3) 0.58889(13) 0.0133(4) Uani 1 1 d . . . . .
C6 C 0.53267(13) 0.8026(3) 0.72957(13) 0.0146(4) Uani 1 1 d . . . . .
C7 C 0.50402(12) 0.7843(3) 0.78873(13) 0.0137(4) Uani 1 1 d . . . . .
C8 C 0.55070(12) 0.7057(3) 0.86919(13) 0.0149(4) Uani 1 1 d . . . . .
C9 C 0.24692(13) 0.4204(3) 0.27090(13) 0.0163(5) Uani 1 1 d . . . . .
C10 C 0.18064(12) 0.3542(3) 0.29508(12) 0.0141(4) Uani 1 1 d . . . . .
C11 C 0.18251(13) 0.3628(3) 0.37058(13) 0.0171(5) Uani 1 1 d . . . . .
C12 C 0.11646(13) 0.3042(3) 0.38453(13) 0.0157(5) Uani 1 1 d . . . . .
C13 C 0.11618(13) 0.3045(3) 0.46610(13) 0.0163(5) Uani 1 1 d . . . . .
C14 C 0.05124(14) 0.2373(3) 0.32218(14) 0.0156(5) Uani 1 1 d . . . . .
C15 C 0.05523(13) 0.2254(3) 0.24884(13) 0.0137(5) Uani 1 1 d . . . . .
C16 C -0.00951(12) 0.1455(3) 0.17633(13) 0.0143(4) Uani 1 1 d . . . . .
O1 O 0.28628(9) 0.8908(2) 0.76478(9) 0.0218(4) Uani 1 1 d . . . . .
O2 O 0.25968(9) 1.0742(2) 0.65804(9) 0.0203(4) Uani 1 1 d . . . . .
O3 O 0.51019(9) 0.6698(2) 0.91113(9) 0.0199(4) Uani 1 1 d . . . . .
O4 O 0.62182(9) 0.6818(3) 0.88961(10) 0.0286(4) Uani 1 1 d . . . . .
O5 O 0.45977(9) 0.8158(2) 0.52539(9) 0.0225(4) Uani 1 1 d . . . . .
O6 O 0.57792(9) 0.9260(2) 0.60219(9) 0.0188(4) Uani 1 1 d . . . . .
O7 O 0.30657(9) 0.4897(2) 0.32342(9) 0.0223(4) Uani 1 1 d . . . . .
O8 O 0.23727(9) 0.3998(3) 0.20058(9) 0.0235(4) Uani 1 1 d . . . . .
O9 O 0.18098(9) 0.3165(2) 0.52332(9) 0.0214(4) Uani 1 1 d . . . . .
O10 O 0.05278(10) 0.2838(2) 0.47567(10) 0.0226(4) Uani 1 1 d . . . . .
O11 O -0.07151(9) 0.0859(2) 0.18031(9) 0.0216(4) Uani 1 1 d . . . . .
O12 O 0.00630(9) 0.1460(2) 0.11498(9) 0.0204(4) Uani 1 1 d . . . . .
O13 O 0.36668(10) 0.4554(3) 0.79024(10) 0.0230(4) Uani 1 1 d . . . . .
O14 O 0.37795(12) 0.4275(3) 0.95061(10) 0.0244(4) Uani 1 1 d . . . . .
O15 O 0.40737(12) 1.0608(3) 0.89799(12) 0.0284(4) Uani 1 1 d . . . . .
O16 O 0.28309(11) 0.8110(3) 0.45321(12) 0.0285(4) Uani 1 1 d . . . . .
O17 O 0.39590(11) 0.4569(3) 0.47211(11) 0.0257(4) Uani 1 1 d . . . . .
O18 O 0.28764(14) 0.6099(3) 0.57979(13) 0.0376(5) Uani 1 1 d . . . . .
N1 N 0.42996(10) 0.8325(3) 0.77844(11) 0.0141(4) Uani 1 1 d . . . . .
N2 N 0.11860(10) 0.2847(3) 0.23585(11) 0.0139(4) Uani 1 1 d . . . . .
H14 H 0.0056(15) 0.201(4) 0.3299(15) 0.021(7) Uiso 1 1 d . . . . .
H6 H 0.5882(14) 0.761(3) 0.7391(15) 0.016(6) Uiso 1 1 d . . . . .
H3 H 0.3712(14) 0.989(4) 0.5987(15) 0.023(7) Uiso 1 1 d . . . . .
H11 H 0.2286(14) 0.403(3) 0.4132(15) 0.018(6) Uiso 1 1 d . . . . .
H17A H 0.432(2) 0.444(5) 0.523(2) 0.075(12) Uiso 1 1 d . . . . .
H14A H 0.421(3) 0.393(6) 0.999(3) 0.103(15) Uiso 1 1 d . . . . .
H16A H 0.285(3) 0.744(6) 0.496(3) 0.093(16) Uiso 1 1 d . . . . .
H18A H 0.256(2) 0.507(5) 0.561(2) 0.057(11) Uiso 1 1 d . . . . .
H13A H 0.316(2) 0.416(5) 0.7641(19) 0.051(10) Uiso 1 1 d . . . . .
H13B H 0.388(2) 0.451(5) 0.757(2) 0.057(11) Uiso 1 1 d . . . . .
H15A H 0.457(3) 1.104(6) 0.927(3) 0.093(15) Uiso 1 1 d . . . . .
H17B H 0.391(2) 0.350(6) 0.450(2) 0.071(13) Uiso 1 1 d . . . . .
H16B H 0.236(2) 0.833(6) 0.425(2) 0.071(13) Uiso 1 1 d . . . . .
H15B H 0.386(3) 1.175(7) 0.886(3) 0.101(16) Uiso 1 1 d . . . . .
H18B H 0.332(3) 0.554(7) 0.608(3) 0.109(18) Uiso 1 1 d . . . . .
H14B H 0.339(2) 0.401(5) 0.956(2) 0.057(12) Uiso 1 1 d . . . . .
loop_
_atom_site_aniso_label
_atom_site_aniso_U_11
_atom_site_aniso_U_22
_atom_site_aniso_U_33
_atom_site_aniso_U_23
_atom_site_aniso_U_13
_atom_site_aniso_U_12
Y1 0.00851(8) 0.01262(8) 0.00528(8) 0.00020(5) 0.00263(5) 0.00028(5)
Eu1 0.00851(8) 0.01262(8) 0.00528(8) 0.00020(5) 0.00263(5) 0.00028(5)
Y2 0.00737(9) 0.01623(9) 0.00452(9) 0.00004(5) 0.00149(6) -0.00044(5)
Eu2 0.00737(9) 0.01623(9) 0.00452(9) 0.00004(5) 0.00149(6) -0.00044(5)
C1 0.0141(11) 0.0185(11) 0.0140(12) -0.0013(9) 0.0043(9) -0.0001(9)
C2 0.0122(11) 0.0156(11) 0.0133(12) 0.0016(8) 0.0032(9) 0.0006(8)
C3 0.0150(12) 0.0170(11) 0.0113(12) 0.0022(9) 0.0023(9) -0.0008(9)
C4 0.0153(11) 0.0140(11) 0.0121(11) -0.0021(8) 0.0053(9) -0.0041(8)
C5 0.0161(11) 0.0119(10) 0.0114(11) 0.0030(8) 0.0048(9) 0.0021(8)
C6 0.0118(11) 0.0186(11) 0.0134(12) -0.0008(9) 0.0046(9) -0.0011(9)
C7 0.0117(11) 0.0155(10) 0.0119(11) -0.0008(8) 0.0022(9) -0.0013(8)
C8 0.0134(11) 0.0171(11) 0.0134(12) 0.0001(9) 0.0040(9) 0.0006(9)
C9 0.0157(11) 0.0179(11) 0.0131(12) 0.0003(9) 0.0029(9) -0.0010(9)
C10 0.0151(11) 0.0149(11) 0.0108(11) 0.0000(8) 0.0032(9) -0.0015(8)
C11 0.0176(12) 0.0220(12) 0.0104(12) -0.0004(9) 0.0038(9) -0.0018(9)
C12 0.0202(12) 0.0162(11) 0.0103(11) 0.0016(8) 0.0052(9) 0.0012(9)
C13 0.0198(12) 0.0163(11) 0.0129(12) 0.0004(9) 0.0063(10) -0.0003(9)
C14 0.0167(12) 0.0170(12) 0.0139(12) 0.0018(8) 0.0067(10) -0.0008(8)
C15 0.0144(11) 0.0129(10) 0.0130(12) 0.0017(8) 0.0042(9) 0.0016(8)
C16 0.0138(11) 0.0150(11) 0.0128(11) 0.0004(8) 0.0036(9) 0.0020(8)
O1 0.0153(8) 0.0342(10) 0.0177(9) 0.0117(7) 0.0083(7) 0.0057(7)
O2 0.0159(8) 0.0265(9) 0.0167(9) 0.0073(7) 0.0042(7) 0.0062(7)
O3 0.0154(8) 0.0310(9) 0.0132(8) 0.0059(7) 0.0052(7) 0.0046(7)
O4 0.0115(9) 0.0473(12) 0.0245(10) 0.0093(8) 0.0037(7) 0.0038(8)
O5 0.0215(9) 0.0320(10) 0.0107(9) -0.0034(7) 0.0022(7) -0.0039(7)
O6 0.0147(8) 0.0251(9) 0.0182(9) 0.0007(7) 0.0080(7) -0.0030(6)
O7 0.0182(9) 0.0311(10) 0.0136(9) -0.0037(7) 0.0015(7) -0.0102(7)
O8 0.0189(9) 0.0416(11) 0.0108(9) -0.0044(7) 0.0065(7) -0.0105(7)
O9 0.0196(9) 0.0333(10) 0.0095(8) 0.0013(7) 0.0034(7) -0.0042(7)
O10 0.0187(9) 0.0360(10) 0.0144(9) 0.0021(7) 0.0077(7) -0.0009(7)
O11 0.0152(8) 0.0323(10) 0.0185(9) -0.0019(7) 0.0078(7) -0.0072(7)
O12 0.0156(8) 0.0347(10) 0.0102(8) -0.0037(7) 0.0041(6) -0.0064(7)
O13 0.0167(9) 0.0367(10) 0.0174(9) -0.0098(7) 0.0087(8) -0.0040(7)
O14 0.0282(11) 0.0263(10) 0.0172(10) 0.0059(7) 0.0068(8) 0.0043(8)
O15 0.0309(11) 0.0196(10) 0.0311(11) -0.0039(8) 0.0079(9) -0.0027(8)
O16 0.0160(10) 0.0498(12) 0.0208(10) 0.0066(9) 0.0082(8) 0.0063(9)
O17 0.0297(10) 0.0251(10) 0.0142(10) 0.0022(8) -0.0007(8) 0.0037(8)
O18 0.0360(12) 0.0380(12) 0.0315(12) 0.0021(9) 0.0044(10) -0.0134(10)
N1 0.0119(9) 0.0169(10) 0.0129(10) 0.0000(7) 0.0040(8) 0.0000(7)
N2 0.0134(9) 0.0167(9) 0.0111(10) -0.0001(7) 0.0042(8) 0.0002(7)
loop_
_atom_type_symbol
_atom_type_description
_atom_type_scat_dispersion_real
_atom_type_scat_dispersion_imag
_atom_type_scat_source
C C 0.0033 0.0016 'International Tables Vol C Tables 4.2.6.8 and 6.1.1.4'
H H 0.0000 0.0000 'International Tables Vol C Tables 4.2.6.8 and 6.1.1.4'
Eu Eu -0.1578 3.6682 'International Tables Vol C Tables 4.2.6.8 and 6.1.1.4'
N N 0.0061 0.0033 'International Tables Vol C Tables 4.2.6.8 and 6.1.1.4'
O O 0.0106 0.0060 'International Tables Vol C Tables 4.2.6.8 and 6.1.1.4'
Y Y -2.7962 3.5667 'International Tables Vol C Tables 4.2.6.8 and 6.1.1.4'
loop_
_geom_angle_atom_site_label_1
_geom_angle_atom_site_label_2
_geom_angle_atom_site_label_3
_geom_angle
_geom_angle_site_symmetry_1
_geom_angle_site_symmetry_3
_geom_angle_publ_flag
O3 Y1 O1 126.71(5) . . ?
O3 Y1 O15 85.64(7) . . ?
O1 Y1 O15 73.54(7) . . ?
O3 Y1 O13 80.84(6) . . ?
O1 Y1 O13 86.65(6) . . ?
O15 Y1 O13 142.15(6) . . ?
O3 Y1 O14 85.05(6) . . ?
O1 Y1 O14 139.54(6) . . ?
O15 Y1 O14 140.59(6) . . ?
O13 Y1 O14 73.26(6) . . ?
O3 Y1 O9 121.79(5) . 2_556 ?
O1 Y1 O9 101.09(5) . 2_556 ?
O15 Y1 O9 77.50(6) . 2_556 ?
O13 Y1 O9 139.01(6) . 2_556 ?
O14 Y1 O9 75.28(6) . 2_556 ?
O3 Y1 O2 146.82(5) . 2_546 ?
O1 Y1 O2 72.75(5) . 2_546 ?
O15 Y1 O2 127.47(6) . 2_546 ?
O13 Y1 O2 73.29(6) . 2_546 ?
O14 Y1 O2 68.00(6) . 2_546 ?
O9 Y1 O2 70.95(5) 2_556 2_546 ?
O3 Y1 N1 63.63(5) . . ?
O1 Y1 N1 63.27(5) . . ?
O15 Y1 N1 70.93(6) . . ?
O13 Y1 N1 71.37(6) . . ?
O14 Y1 N1 135.58(6) . . ?
O9 Y1 N1 147.58(6) 2_556 . ?
O2 Y1 N1 124.02(5) 2_546 . ?
O3 Y1 O10 70.40(5) . 2_556 ?
O1 Y1 O10 138.84(6) . 2_556 ?
O15 Y1 O10 70.92(6) . 2_556 ?
O13 Y1 O10 134.49(6) . 2_556 ?
O14 Y1 O10 69.87(6) . 2_556 ?
O9 Y1 O10 51.40(5) 2_556 2_556 ?
O2 Y1 O10 114.65(5) 2_546 2_556 ?
N1 Y1 O10 121.16(6) . 2_556 ?
O3 Y1 C13 95.97(6) . 2_556 ?
O1 Y1 C13 123.19(6) . 2_556 ?
O15 Y1 C13 74.74(6) . 2_556 ?
O13 Y1 C13 141.56(6) . 2_556 ?
O14 Y1 C13 68.30(6) . 2_556 ?
O9 Y1 C13 25.88(6) 2_556 2_556 ?
O2 Y1 C13 91.76(6) 2_546 2_556 ?
N1 Y1 C13 140.90(6) . 2_556 ?
O10 Y1 C13 25.72(6) 2_556 2_556 ?
O7 Y2 O16 93.95(6) . . ?
O7 Y2 O5 137.85(6) . . ?
O16 Y2 O5 79.87(6) . . ?
O7 Y2 O12 91.34(6) . 2 ?
O16 Y2 O12 158.96(6) . 2 ?
O5 Y2 O12 82.55(5) . 2 ?
O7 Y2 O6 148.15(6) . 3_676 ?
O16 Y2 O6 98.76(6) . 3_676 ?
O5 Y2 O6 73.47(6) . 3_676 ?
O12 Y2 O6 87.16(5) 2 3_676 ?
O7 Y2 O8 76.81(6) . 2 ?
O16 Y2 O8 72.24(6) . 2 ?
O5 Y2 O8 137.30(6) . 2 ?
O12 Y2 O8 128.79(5) 2 2 ?
O6 Y2 O8 79.48(6) 3_676 2 ?
O7 Y2 O17 67.11(6) . . ?
O16 Y2 O17 82.44(7) . . ?
O5 Y2 O17 70.74(6) . . ?
O12 Y2 O17 80.91(6) 2 . ?
O6 Y2 O17 143.39(6) 3_676 . ?
O8 Y2 O17 133.96(6) 2 . ?
O7 Y2 N2 73.65(6) . 2 ?
O16 Y2 N2 136.95(7) . 2 ?
O5 Y2 N2 136.15(6) . 2 ?
O12 Y2 N2 64.01(5) 2 2 ?
O6 Y2 N2 77.17(6) 3_676 2 ?
O8 Y2 N2 64.85(6) 2 2 ?
O17 Y2 N2 125.91(6) . 2 ?
O2 C1 O1 125.5(2) . . ?
O2 C1 C2 119.61(19) . . ?
O1 C1 C2 114.94(19) . . ?
N1 C2 C3 122.25(19) . . ?
N1 C2 C1 112.71(18) . . ?
C3 C2 C1 124.98(19) . . ?
C2 C3 C4 118.4(2) . . ?
C2 C3 H3 120.7(14) . . ?
C4 C3 H3 120.9(14) . . ?
C3 C4 C6 119.5(2) . . ?
C3 C4 C5 120.81(19) . . ?
C6 C4 C5 119.70(19) . . ?
O5 C5 O6 125.9(2) . . ?
O5 C5 C4 116.86(19) . . ?
O6 C5 C4 117.16(19) . . ?
C7 C6 C4 118.2(2) . . ?
C7 C6 H6 119.7(15) . . ?
C4 C6 H6 122.1(15) . . ?
N1 C7 C6 122.1(2) . . ?
N1 C7 C8 113.42(19) . . ?
C6 C7 C8 124.46(19) . . ?
O4 C8 O3 125.5(2) . . ?
O4 C8 C7 119.6(2) . . ?
O3 C8 C7 114.86(18) . . ?
O8 C9 O7 126.0(2) . . ?
O8 C9 C10 117.16(19) . . ?
O7 C9 C10 116.85(19) . . ?
N2 C10 C11 122.0(2) . . ?
N2 C10 C9 113.47(18) . . ?
C11 C10 C9 124.51(19) . . ?
C10 C11 C12 118.8(2) . . ?
C10 C11 H11 121.4(14) . . ?
C12 C11 H11 119.7(14) . . ?
C14 C12 C11 118.8(2) . . ?
C14 C12 C13 120.09(19) . . ?
C11 C12 C13 121.06(19) . . ?
O10 C13 O9 121.6(2) . . ?
O10 C13 C12 119.7(2) . . ?
O9 C13 C12 118.65(19) . . ?
O10 C13 Y1 63.13(12) . 2_546 ?
O9 C13 Y1 59.18(11) . 2_546 ?
C12 C13 Y1 168.06(16) . 2_546 ?
C15 C14 C12 118.8(2) . . ?
C15 C14 H14 120.9(16) . . ?
C12 C14 H14 120.3(16) . . ?
N2 C15 C14 121.8(2) . . ?
N2 C15 C16 113.40(19) . . ?
C14 C15 C16 124.8(2) . . ?
O11 C16 O12 125.3(2) . . ?
O11 C16 C15 119.94(19) . . ?
O12 C16 C15 114.76(18) . . ?
C1 O1 Y1 127.06(14) . . ?
C1 O2 Y1 136.87(14) . 2_556 ?
C8 O3 Y1 127.37(14) . . ?
C5 O5 Y2 170.41(15) . . ?
C5 O6 Y2 127.42(13) . 3_676 ?
C9 O7 Y2 150.63(16) . . ?
C9 O8 Y2 124.70(14) . 2_545 ?
C13 O9 Y1 94.95(13) . 2_546 ?
C13 O10 Y1 91.16(13) . 2_546 ?
C16 O12 Y2 127.07(14) . 2_545 ?
Y1 O13 H13A 111.1(19) . . ?
Y1 O13 H13B 126(2) . . ?
H13A O13 H13B 105(3) . . ?
Y1 O14 H14A 124(3) . . ?
Y1 O14 H14B 115(3) . . ?
H14A O14 H14B 106(3) . . ?
Y1 O15 H15A 123(3) . . ?
Y1 O15 H15B 140(3) . . ?
H15A O15 H15B 96(4) . . ?
Y2 O16 H16A 120(3) . . ?
Y2 O16 H16B 120(3) . . ?
H16A O16 H16B 109(4) . . ?
Y2 O17 H17A 124(2) . . ?
Y2 O17 H17B 120(3) . . ?
H17A O17 H17B 108(3) . . ?
H18A O18 H18B 102(4) . . ?
C2 N1 C7 119.33(19) . . ?
C2 N1 Y1 120.42(13) . . ?
C7 N1 Y1 119.51(14) . . ?
C10 N2 C15 119.60(19) . . ?
C10 N2 Y2 119.60(14) . 2_545 ?
C15 N2 Y2 120.74(14) . 2_545 ?
loop_
_geom_bond_atom_site_label_1
_geom_bond_atom_site_label_2
_geom_bond_distance
_geom_bond_site_symmetry_2
_geom_bond_publ_flag
Y1 O3 2.3753(15) . ?
Y1 O1 2.3908(15) . ?
Y1 O15 2.4055(18) . ?
Y1 O13 2.4221(17) . ?
Y1 O14 2.4315(18) . ?
Y1 O9 2.4818(16) 2_556 ?
Y1 O2 2.5007(15) 2_546 ?
Y1 N1 2.5323(18) . ?
Y1 O10 2.5687(17) 2_556 ?
Y1 C13 2.879(2) 2_556 ?
Y2 O7 2.3242(15) . ?
Y2 O16 2.3392(18) . ?
Y2 O5 2.3434(16) . ?
Y2 O12 2.3772(15) 2 ?
Y2 O6 2.3777(16) 3_676 ?
Y2 O8 2.3912(15) 2 ?
Y2 O17 2.4197(18) . ?
Y2 N2 2.4949(18) 2 ?
C1 O2 1.244(3) . ?
C1 O1 1.272(3) . ?
C1 C2 1.516(3) . ?
C2 N1 1.333(3) . ?
C2 C3 1.384(3) . ?
C3 C4 1.388(3) . ?
C3 H3 0.98(3) . ?
C4 C6 1.393(3) . ?
C4 C5 1.510(3) . ?
C5 O5 1.238(3) . ?
C5 O6 1.266(3) . ?
C6 C7 1.385(3) . ?
C6 H6 1.01(2) . ?
C7 N1 1.342(3) . ?
C7 C8 1.509(3) . ?
C8 O4 1.226(3) . ?
C8 O3 1.284(3) . ?
C9 O8 1.251(3) . ?
C9 O7 1.252(3) . ?
C9 C10 1.516(3) . ?
C10 N2 1.336(3) . ?
C10 C11 1.383(3) . ?
C11 C12 1.391(3) . ?
C11 H11 0.95(2) . ?
C12 C14 1.390(3) . ?
C12 C13 1.508(3) . ?
C13 O10 1.250(3) . ?
C13 O9 1.261(3) . ?
C14 C15 1.386(3) . ?
C14 H14 0.93(2) . ?
C15 N2 1.338(3) . ?
C15 C16 1.520(3) . ?
C16 O11 1.238(2) . ?
C16 O12 1.271(3) . ?
O13 H13A 0.92(3) . ?
O13 H13B 0.84(4) . ?
O14 H14A 0.97(5) . ?
O14 H14B 0.79(4) . ?
O15 H15A 0.91(5) . ?
O15 H15B 0.87(5) . ?
O16 H16A 0.90(5) . ?
O16 H16B 0.84(4) . ?
O17 H17A 0.92(4) . ?
O17 H17B 0.83(4) . ?
O18 H18A 0.90(4) . ?
O18 H18B 0.87(5) . ?
loop_
_geom_torsion_atom_site_label_1
_geom_torsion_atom_site_label_2
_geom_torsion_atom_site_label_3
_geom_torsion_atom_site_label_4
_geom_torsion
_geom_torsion_site_symmetry_1
_geom_torsion_site_symmetry_2
_geom_torsion_site_symmetry_3
_geom_torsion_site_symmetry_4
_geom_torsion_publ_flag
O2 C1 C2 N1 165.8(2) . . . . ?
O1 C1 C2 N1 -14.3(3) . . . . ?
O2 C1 C2 C3 -17.1(3) . . . . ?
O1 C1 C2 C3 162.8(2) . . . . ?
N1 C2 C3 C4 -1.0(3) . . . . ?
C1 C2 C3 C4 -177.9(2) . . . . ?
C2 C3 C4 C6 -3.9(3) . . . . ?
C2 C3 C4 C5 173.9(2) . . . . ?
C3 C4 C5 O5 -42.1(3) . . . . ?
C6 C4 C5 O5 135.7(2) . . . . ?
C3 C4 C5 O6 140.2(2) . . . . ?
C6 C4 C5 O6 -42.0(3) . . . . ?
C3 C4 C6 C7 4.6(3) . . . . ?
C5 C4 C6 C7 -173.2(2) . . . . ?
C4 C6 C7 N1 -0.5(3) . . . . ?
C4 C6 C7 C8 178.0(2) . . . . ?
N1 C7 C8 O4 -169.9(2) . . . . ?
C6 C7 C8 O4 11.5(3) . . . . ?
N1 C7 C8 O3 9.9(3) . . . . ?
C6 C7 C8 O3 -168.8(2) . . . . ?
O8 C9 C10 N2 -1.3(3) . . . . ?
O7 C9 C10 N2 179.0(2) . . . . ?
O8 C9 C10 C11 178.5(2) . . . . ?
O7 C9 C10 C11 -1.1(3) . . . . ?
N2 C10 C11 C12 -2.6(3) . . . . ?
C9 C10 C11 C12 177.6(2) . . . . ?
C10 C11 C12 C14 0.7(3) . . . . ?
C10 C11 C12 C13 178.1(2) . . . . ?
C14 C12 C13 O10 -14.9(3) . . . . ?
C11 C12 C13 O10 167.7(2) . . . . ?
C14 C12 C13 O9 161.7(2) . . . . ?
C11 C12 C13 O9 -15.6(3) . . . . ?
C14 C12 C13 Y1 85.5(8) . . . 2_546 ?
C11 C12 C13 Y1 -91.9(8) . . . 2_546 ?
C11 C12 C14 C15 2.1(3) . . . . ?
C13 C12 C14 C15 -175.4(2) . . . . ?
C12 C14 C15 N2 -3.1(3) . . . . ?
C12 C14 C15 C16 176.7(2) . . . . ?
N2 C15 C16 O11 -179.86(19) . . . . ?
C14 C15 C16 O11 0.3(3) . . . . ?
N2 C15 C16 O12 0.4(3) . . . . ?
C14 C15 C16 O12 -179.4(2) . . . . ?
O2 C1 O1 Y1 -169.50(17) . . . . ?
C2 C1 O1 Y1 10.6(3) . . . . ?
O1 C1 O2 Y1 1.6(4) . . . 2_556 ?
C2 C1 O2 Y1 -178.53(14) . . . 2_556 ?
O4 C8 O3 Y1 177.55(17) . . . . ?
C7 C8 O3 Y1 -2.2(3) . . . . ?
O5 C5 O6 Y2 97.0(2) . . . 3_676 ?
C4 C5 O6 Y2 -85.5(2) . . . 3_676 ?
O8 C9 O7 Y2 91.6(4) . . . . ?
C10 C9 O7 Y2 -88.8(3) . . . . ?
O7 C9 O8 Y2 176.87(17) . . . 2_545 ?
C10 C9 O8 Y2 -2.7(3) . . . 2_545 ?
O10 C13 O9 Y1 10.1(2) . . . 2_546 ?
C12 C13 O9 Y1 -166.46(18) . . . 2_546 ?
O9 C13 O10 Y1 -9.7(2) . . . 2_546 ?
C12 C13 O10 Y1 166.81(18) . . . 2_546 ?
O11 C16 O12 Y2 -178.71(16) . . . 2_545 ?
C15 C16 O12 Y2 1.0(3) . . . 2_545 ?
C3 C2 N1 C7 5.2(3) . . . . ?
C1 C2 N1 C7 -177.62(19) . . . . ?
C3 C2 N1 Y1 -164.98(16) . . . . ?
C1 C2 N1 Y1 12.2(2) . . . . ?
C6 C7 N1 C2 -4.4(3) . . . . ?
C8 C7 N1 C2 176.96(19) . . . . ?
C6 C7 N1 Y1 165.85(17) . . . . ?
C8 C7 N1 Y1 -12.8(2) . . . . ?
C11 C10 N2 C15 1.6(3) . . . . ?
C9 C10 N2 C15 -178.50(18) . . . . ?
C11 C10 N2 Y2 -175.43(16) . . . 2_545 ?
C9 C10 N2 Y2 4.4(2) . . . 2_545 ?
C14 C15 N2 C10 1.3(3) . . . . ?
C16 C15 N2 C10 -178.54(19) . . . . ?
C14 C15 N2 Y2 178.31(15) . . . 2_545 ?
C16 C15 N2 Y2 -1.5(2) . . . 2_545 ?
