#------------------------------------------------------------------------------
#$Date: 2020-11-06 14:07:15 +0200 (Fri, 06 Nov 2020) $
#$Revision: 258816 $
#$URL: file:///home/coder/svn-repositories/cod/cif/7/70/56/7705621.cif $
#------------------------------------------------------------------------------
#
# This file is available in the Crystallography Open Database (COD),
# http://www.crystallography.net/
#
# All data on this site have been placed in the public domain by the
# contributors.
#
data_7705621
loop_
_publ_author_name
'Gao, Xu-Sheng'
'Ding, Mei-Juan'
'Zhang, Jin'
'Zhao, Li-Duo'
'Ren, Xiao-Ming'
_publ_section_title
;
 Phase selectivity and tunable photophysical nature of rare earth
 metal-organic frameworks of Eu<sub> <i>x</i>
 </sub>Y<sub>1-<i>x</i></sub>-PTC (H<sub>3</sub>PTC = 2,4,6-pyridine
 tricarboxylic acid; <i>x</i> = 0-1).
;
_journal_issue                   42
_journal_name_full
'Dalton transactions (Cambridge, England : 2003)'
_journal_page_first              14985
_journal_page_last               14994
_journal_paper_doi               10.1039/d0dt03150j
_journal_volume                  49
_journal_year                    2020
_chemical_formula_sum            'C16 H16 Eu0.03 N2 O18 Y1.97'
_chemical_formula_weight         703.77
_space_group_crystal_system      monoclinic
_space_group_IT_number           14
_space_group_name_Hall           '-P 2yn'
_space_group_name_H-M_alt        'P 1 21/n 1'
_atom_sites_solution_hydrogens   difmap
_audit_creation_method           SHELXL-2016/6
_audit_update_record
;
2020-06-27 deposited with the CCDC.	2020-10-06 downloaded from the CCDC.
;
_cell_angle_alpha                90
_cell_angle_beta                 112.2217(9)
_cell_angle_gamma                90
_cell_formula_units_Z            4
_cell_length_a                   18.3118(5)
_cell_length_b                   6.87590(10)
_cell_length_c                   18.3669(4)
_cell_measurement_reflns_used    7631
_cell_measurement_temperature    296(2)
_cell_measurement_theta_max      27.45
_cell_measurement_theta_min      3.25
_cell_volume                     2140.82(8)
_computing_cell_refinement       'Bruker SAINT'
_computing_data_collection       'Bruker APEX2'
_computing_data_reduction        'Bruker SAINT'
_computing_molecular_graphics    'Bruker SHELXTL'
_computing_publication_material  'Bruker SHELXTL'
_computing_structure_refinement  'SHELXL-2016/6 (Sheldrick, 2016)'
_computing_structure_solution    'SHELXS-97 (Sheldrick 2008)'
_diffrn_ambient_temperature      296(2)
_diffrn_measured_fraction_theta_full 0.997
_diffrn_measured_fraction_theta_max 0.997
_diffrn_measurement_device_type  'Bruker APEX-II CCD'
_diffrn_measurement_method       '\f and \w scans'
_diffrn_radiation_type           MoK\a
_diffrn_radiation_wavelength     0.71073
_diffrn_reflns_av_R_equivalents  0.0531
_diffrn_reflns_av_unetI/netI     0.0331
_diffrn_reflns_Laue_measured_fraction_full 0.997
_diffrn_reflns_Laue_measured_fraction_max 0.997
_diffrn_reflns_limit_h_max       23
_diffrn_reflns_limit_h_min       -23
_diffrn_reflns_limit_k_max       8
_diffrn_reflns_limit_k_min       -8
_diffrn_reflns_limit_l_max       23
_diffrn_reflns_limit_l_min       -23
_diffrn_reflns_number            28249
_diffrn_reflns_point_group_measured_fraction_full 0.997
_diffrn_reflns_point_group_measured_fraction_max 0.997
_diffrn_reflns_theta_full        25.242
_diffrn_reflns_theta_max         27.496
_diffrn_reflns_theta_min         3.196
_exptl_absorpt_coefficient_mu    5.502
_exptl_absorpt_correction_type   none
_exptl_crystal_colour            colourless
_exptl_crystal_density_diffrn    2.184
_exptl_crystal_description       block
_exptl_crystal_F_000             1394
_refine_diff_density_max         0.411
_refine_diff_density_min         -1.375
_refine_diff_density_rms         0.101
_refine_ls_extinction_method     none
_refine_ls_goodness_of_fit_ref   1.073
_refine_ls_hydrogen_treatment    refall
_refine_ls_matrix_type           full
_refine_ls_number_parameters     407
_refine_ls_number_reflns         4895
_refine_ls_number_restraints     0
_refine_ls_restrained_S_all      1.073
_refine_ls_R_factor_all          0.0390
_refine_ls_R_factor_gt           0.0284
_refine_ls_shift/su_max          0.001
_refine_ls_shift/su_mean         0.000
_refine_ls_structure_factor_coef Fsqd
_refine_ls_weighting_details
'w=1/[\s^2^(Fo^2^)+(0.0314P)^2^] where P=(Fo^2^+2Fc^2^)/3'
_refine_ls_weighting_scheme      calc
_refine_ls_wR_factor_gt          0.0583
_refine_ls_wR_factor_ref         0.0613
_reflns_Friedel_coverage         0.000
_reflns_number_gt                4127
_reflns_number_total             4895
_reflns_threshold_expression     'I > 2\s(I)'
_cod_data_source_file            d0dt03150j2.cif
_cod_data_source_block           1_CCDC2
_cod_depositor_comments
'Adding full bibliography for 7705619--7705631.cif.'
_cod_original_sg_symbol_H-M      'P 21/n'
_cod_database_code               7705621
_shelx_shelxl_version_number     2016/6
_shelx_space_group_comment
; 
The symmetry employed for this shelxl refinement is uniquely defined 
by the following loop, which should always be used as a source of 
symmetry information in preference to the above space-group names. 
They are only intended as comments. 
;
_shelx_res_file
; 
TITL 1 in P2(1)/n 
    1.res 
    created by SHELXL-2016/6 at 15:59:24 on 22-Jun-2020 
CELL 0.71073  18.31180   6.87590  18.36690  90.0000 112.2217  90.0000 
ZERR   4.00   0.00050   0.00010   0.00040   0.0000   0.0009   0.0000 
LATT 1 
SYMM 0.5-X, 0.5+Y, 0.5-Z 
SFAC C  H  Eu N  O  Y 
UNIT 64 64 0.104 8 72 7.896 
L.S. 40 
ACTA 
FMAP 2 
PLAN 2 
LIST 4 
EXYZ Y1 Eu1 
EADP Y1 Eu1 
EXYZ Y2 Eu2 
EADP Y2 Eu2 
MORE -1 
CONF 
FREE Eu2  H16A 
FREE Eu1  H14A 
TEMP 22.850 
WGHT    0.031400 
FVAR       0.11879 
Y1    6    0.373570    0.722949    0.876707    10.98700    0.00884    0.01238 = 
         0.00765    0.00028    0.00342    0.00052 
EU1   3    0.373570    0.722949    0.876707    10.01300    0.00884    0.01238 = 
         0.00765    0.00028    0.00342    0.00052 
Y2    6    0.375507    0.753181    0.395744    10.98700    0.00792    0.01596 = 
         0.00709   -0.00015    0.00231   -0.00044 
EU2   3    0.375507    0.753181    0.395744    10.01300    0.00792    0.01596 = 
         0.00709   -0.00015    0.00231   -0.00044 
C1    1    0.302702    0.965672    0.710255    11.00000    0.00912    0.01768 = 
         0.01058   -0.00046    0.00218    0.00147 
C2    1    0.382950    0.912836    0.711261    11.00000    0.00913    0.01346 = 
         0.01102    0.00088    0.00271   -0.00031 
C3    1    0.406915    0.934839    0.648564    11.00000    0.01082    0.01573 = 
         0.00976    0.00209    0.00171   -0.00049 
C4    1    0.481820    0.872369    0.657291    11.00000    0.01231    0.01304 = 
         0.01139   -0.00187    0.00464   -0.00242 
C5    1    0.508140    0.873961    0.588575    11.00000    0.01530    0.00965 = 
         0.01057    0.00064    0.00567    0.00032 
C6    1    0.532694    0.802055    0.730069    11.00000    0.00808    0.01596 = 
         0.01138   -0.00036    0.00327   -0.00135 
C7    1    0.503541    0.783886    0.789278    11.00000    0.00951    0.01294 = 
         0.01159    0.00069    0.00240   -0.00056 
C8    1    0.550185    0.704088    0.870311    11.00000    0.01185    0.01388 = 
         0.01104    0.00003    0.00355    0.00130 
C9    1    0.247062    0.423505    0.271145    11.00000    0.01279    0.01599 = 
         0.01254   -0.00054    0.00402   -0.00071 
C10   1    0.180872    0.356108    0.295193    11.00000    0.01228    0.01365 = 
         0.01029    0.00073    0.00385    0.00015 
C11   1    0.182819    0.364268    0.371620    11.00000    0.01096    0.02010 = 
         0.01003   -0.00146    0.00096   -0.00322 
C12   1    0.116600    0.306275    0.385169    11.00000    0.01566    0.01345 = 
         0.00945    0.00057    0.00533    0.00025 
C13   1    0.116087    0.304948    0.466962    11.00000    0.01686    0.01272 = 
         0.01115    0.00101    0.00585   -0.00117 
C14   1    0.051168    0.237405    0.322482    11.00000    0.01126    0.01493 = 
         0.01492    0.00125    0.00579   -0.00123 
C15   1    0.055401    0.225541    0.248961    11.00000    0.01035    0.01232 = 
         0.01118    0.00170    0.00296    0.00096 
C16   1   -0.009444    0.145278    0.175867    11.00000    0.01198    0.01114 = 
         0.00942    0.00110    0.00166    0.00201 
O1    5    0.285839    0.890593    0.765737    11.00000    0.01222    0.03108 = 
         0.01619    0.00950    0.00691    0.00516 
O2    5    0.258624    1.075128    0.658323    11.00000    0.01159    0.02243 = 
         0.01502    0.00489    0.00399    0.00426 
O3    5    0.508817    0.667452    0.911610    11.00000    0.01380    0.02634 = 
         0.01046    0.00519    0.00524    0.00351 
O4    5    0.621451    0.680252    0.891768    11.00000    0.01082    0.04338 = 
         0.02181    0.01067    0.00346    0.00567 
O5    5    0.459761    0.815671    0.524764    11.00000    0.01746    0.02674 = 
         0.01075   -0.00336    0.00212   -0.00460 
O6    5    0.577989    0.927342    0.601898    11.00000    0.01247    0.02045 = 
         0.01570   -0.00035    0.00677   -0.00274 
O7    5    0.306754    0.493226    0.323114    11.00000    0.01667    0.02630 = 
         0.01311   -0.00312    0.00295   -0.00883 
O8    5    0.236912    0.401737    0.200025    11.00000    0.01451    0.03577 = 
         0.01211   -0.00325    0.00609   -0.00817 
O9    5    0.180803    0.314981    0.525133    11.00000    0.01516    0.02863 = 
         0.00987    0.00069    0.00315   -0.00507 
O10   5    0.052384    0.285623    0.476386    11.00000    0.01559    0.03244 = 
         0.01215    0.00044    0.00584   -0.00163 
O11   5   -0.071667    0.085467    0.179336    11.00000    0.01147    0.03021 = 
         0.01534   -0.00120    0.00629   -0.00608 
O12   5    0.006698    0.146056    0.114277    11.00000    0.01061    0.03213 = 
         0.00936   -0.00352    0.00345   -0.00646 
O13   5    0.366439    0.460438    0.789886    11.00000    0.01373    0.03194 = 
         0.01666   -0.00888    0.00969   -0.00315 
O14   5    0.379692    0.430514    0.949353    11.00000    0.02032    0.02391 = 
         0.01527    0.00484    0.00518    0.00304 
O15   5    0.406695    1.057266    0.898185    11.00000    0.02430    0.01631 = 
         0.02918   -0.00376    0.00525   -0.00119 
O16   5    0.284267    0.811561    0.452540    11.00000    0.01080    0.04321 = 
         0.01834    0.00549    0.00688    0.00463 
O17   5    0.395799    0.460255    0.471300    11.00000    0.02633    0.02081 = 
         0.01405    0.00223    0.00039    0.00278 
O18   5    0.286987    0.611618    0.579084    11.00000    0.02682    0.03735 = 
         0.02848    0.00353    0.00282   -0.01177 
N1    4    0.429851    0.833000    0.778977    11.00000    0.00945    0.01342 = 
         0.01116    0.00069    0.00390    0.00067 
N2    4    0.118459    0.286294    0.235666    11.00000    0.01017    0.01323 = 
         0.00977   -0.00119    0.00215   -0.00090 
H3    2    0.372870    0.988132    0.600896    11.00000    0.02369 
H6    2    0.583251    0.761502    0.736775    11.00000    0.01109 
H11   2    0.226277    0.410265    0.412347    11.00000    0.02278 
H13A  2    0.386469    0.447341    0.762456    11.00000    0.01679 
H13B  2    0.311626    0.422207    0.764545    11.00000    0.04887 
H14   2    0.009155    0.200434    0.330384    11.00000    0.01228 
H14A  2    0.341914    0.420051    0.950987    11.00000    0.03827 
H14B  2    0.418231    0.411627    0.996810    11.00000    0.06162 
H15A  2    0.452615    1.098220    0.927154    11.00000    0.04971 
H15B  2    0.385457    1.134390    0.887961    11.00000    0.05370 
H16A  2    0.244631    0.812249    0.429394    11.00000    0.05228 
H16B  2    0.282749    0.744154    0.497514    11.00000    0.07021 
H17A  2    0.434203    0.443969    0.510178    11.00000    0.05518 
H17B  2    0.390240    0.361109    0.448349    11.00000    0.04419 
H18A  2    0.250455    0.510211    0.558800    11.00000    0.06383 
H18B  2    0.327294    0.573014    0.600365    11.00000    0.04799 
HKLF 4 
  
  
  
  
REM  1 in P2(1)/n 
REM R1 =  0.0284 for    4127 Fo > 4sig(Fo)  and  0.0390 for all    4895 data 
REM    407 parameters refined using      0 restraints 
  
END 
  
WGHT      0.0314      0.0000 
  
REM Highest difference peak  0.411,  deepest hole -1.375,  1-sigma level  0.101 
Q1    1   0.4270  0.7996  0.4363  11.00000  0.05    0.41 
Q2    1   0.4655  0.7120  0.8784  11.00000  0.05    0.39 
;
_shelx_res_checksum              16453
loop_
_space_group_symop_operation_xyz
'x, y, z'
'-x+1/2, y+1/2, -z+1/2'
'-x, -y, -z'
'x-1/2, -y-1/2, z-1/2'
loop_
_atom_site_label
_atom_site_type_symbol
_atom_site_fract_x
_atom_site_fract_y
_atom_site_fract_z
_atom_site_U_iso_or_equiv
_atom_site_adp_type
_atom_site_occupancy
_atom_site_site_symmetry_order
_atom_site_calc_flag
_atom_site_refinement_flags_posn
_atom_site_refinement_flags_adp
_atom_site_refinement_flags_occupancy
_atom_site_disorder_assembly
_atom_site_disorder_group
Y1 Y 0.37357(2) 0.72295(3) 0.87671(2) 0.00954(6) Uani 0.987 1 d . . P . .
Eu1 Eu 0.37357(2) 0.72295(3) 0.87671(2) 0.00954(6) Uani 0.013 1 d . . P . .
Y2 Y 0.37551(2) 0.75318(3) 0.39574(2) 0.01048(6) Uani 0.987 1 d . . P . .
Eu2 Eu 0.37551(2) 0.75318(3) 0.39574(2) 0.01048(6) Uani 0.013 1 d . . P . .
C1 C 0.30270(15) 0.9657(3) 0.71025(14) 0.0129(5) Uani 1 1 d . . . . .
C2 C 0.38295(15) 0.9128(3) 0.71126(14) 0.0115(5) Uani 1 1 d . . . . .
C3 C 0.40692(15) 0.9348(3) 0.64856(14) 0.0127(5) Uani 1 1 d . . . . .
C4 C 0.48182(15) 0.8724(3) 0.65729(14) 0.0122(5) Uani 1 1 d . . . . .
C5 C 0.50814(15) 0.8740(3) 0.58857(14) 0.0116(5) Uani 1 1 d . . . . .
C6 C 0.53269(15) 0.8021(3) 0.73007(14) 0.0119(5) Uani 1 1 d . . . . .
C7 C 0.50354(14) 0.7839(3) 0.78928(14) 0.0118(5) Uani 1 1 d . . . . .
C8 C 0.55018(15) 0.7041(3) 0.87031(14) 0.0125(5) Uani 1 1 d . . . . .
C9 C 0.24706(15) 0.4235(3) 0.27114(14) 0.0140(5) Uani 1 1 d . . . . .
C10 C 0.18087(15) 0.3561(3) 0.29519(14) 0.0122(5) Uani 1 1 d . . . . .
C11 C 0.18282(16) 0.3643(4) 0.37162(14) 0.0146(5) Uani 1 1 d . . . . .
C12 C 0.11660(15) 0.3063(3) 0.38517(14) 0.0127(5) Uani 1 1 d . . . . .
C13 C 0.11609(15) 0.3049(3) 0.46696(14) 0.0134(5) Uani 1 1 d . . . . .
C14 C 0.05117(15) 0.2374(3) 0.32248(14) 0.0135(5) Uani 1 1 d . . . . .
C15 C 0.05540(15) 0.2255(3) 0.24896(14) 0.0116(5) Uani 1 1 d . . . . .
C16 C -0.00944(15) 0.1453(3) 0.17587(14) 0.0115(5) Uani 1 1 d . . . . .
O1 O 0.28584(11) 0.8906(3) 0.76574(10) 0.0194(4) Uani 1 1 d . . . . .
O2 O 0.25862(11) 1.0751(2) 0.65832(10) 0.0167(4) Uani 1 1 d . . . . .
O3 O 0.50882(11) 0.6675(3) 0.91161(10) 0.0167(4) Uani 1 1 d . . . . .
O4 O 0.62145(11) 0.6803(3) 0.89177(11) 0.0261(5) Uani 1 1 d . . . . .
O5 O 0.45976(11) 0.8157(3) 0.52476(10) 0.0193(4) Uani 1 1 d . . . . .
O6 O 0.57799(11) 0.9273(2) 0.60190(10) 0.0158(4) Uani 1 1 d . . . . .
O7 O 0.30675(11) 0.4932(3) 0.32311(10) 0.0195(4) Uani 1 1 d . . . . .
O8 O 0.23691(11) 0.4017(3) 0.20002(10) 0.0205(4) Uani 1 1 d . . . . .
O9 O 0.18080(11) 0.3150(3) 0.52513(10) 0.0184(4) Uani 1 1 d . . . . .
O10 O 0.05238(11) 0.2856(3) 0.47639(10) 0.0199(4) Uani 1 1 d . . . . .
O11 O -0.07167(11) 0.0855(3) 0.17934(10) 0.0186(4) Uani 1 1 d . . . . .
O12 O 0.00670(11) 0.1461(3) 0.11428(10) 0.0175(4) Uani 1 1 d . . . . .
O13 O 0.36644(13) 0.4604(3) 0.78989(12) 0.0196(4) Uani 1 1 d . . . . .
O14 O 0.37969(15) 0.4305(3) 0.94935(12) 0.0203(4) Uani 1 1 d . . . . .
O15 O 0.40670(16) 1.0573(3) 0.89819(14) 0.0247(5) Uani 1 1 d . . . . .
O16 O 0.28427(13) 0.8116(3) 0.45254(13) 0.0237(5) Uani 1 1 d . . . . .
O17 O 0.39580(14) 0.4603(3) 0.47130(12) 0.0225(4) Uani 1 1 d . . . . .
O18 O 0.28699(16) 0.6116(3) 0.57908(14) 0.0331(6) Uani 1 1 d . . . . .
N1 N 0.42985(12) 0.8330(3) 0.77898(12) 0.0113(4) Uani 1 1 d . . . . .
N2 N 0.11846(12) 0.2863(3) 0.23567(11) 0.0115(4) Uani 1 1 d . . . . .
H3 H 0.3729(18) 0.988(4) 0.6009(17) 0.024(8) Uiso 1 1 d . . . . .
H6 H 0.5833(18) 0.762(3) 0.7368(15) 0.011(7) Uiso 1 1 d . . . . .
H11 H 0.2263(19) 0.410(4) 0.4123(17) 0.023(8) Uiso 1 1 d . . . . .
H13A H 0.3865(19) 0.447(4) 0.7625(17) 0.017(9) Uiso 1 1 d . . . . .
H13B H 0.312(2) 0.422(5) 0.765(2) 0.049(11) Uiso 1 1 d . . . . .
H14 H 0.0092(17) 0.200(4) 0.3304(16) 0.012(7) Uiso 1 1 d . . . . .
H14A H 0.342(2) 0.420(5) 0.951(2) 0.038(13) Uiso 1 1 d . . . . .
H14B H 0.418(3) 0.412(6) 0.997(3) 0.062(13) Uiso 1 1 d . . . . .
H15A H 0.453(3) 1.098(5) 0.927(2) 0.050(12) Uiso 1 1 d . . . . .
H15B H 0.385(3) 1.134(6) 0.888(2) 0.054(16) Uiso 1 1 d . . . . .
H16A H 0.245(3) 0.812(6) 0.429(2) 0.052(14) Uiso 1 1 d . . . . .
H16B H 0.283(3) 0.744(6) 0.498(3) 0.070(14) Uiso 1 1 d . . . . .
H17A H 0.434(3) 0.444(5) 0.510(2) 0.055(13) Uiso 1 1 d . . . . .
H17B H 0.390(2) 0.361(5) 0.448(2) 0.044(12) Uiso 1 1 d . . . . .
H18A H 0.250(3) 0.510(6) 0.559(2) 0.064(13) Uiso 1 1 d . . . . .
H18B H 0.327(3) 0.573(6) 0.600(2) 0.048(14) Uiso 1 1 d . . . . .
loop_
_atom_site_aniso_label
_atom_site_aniso_U_11
_atom_site_aniso_U_22
_atom_site_aniso_U_33
_atom_site_aniso_U_23
_atom_site_aniso_U_13
_atom_site_aniso_U_12
Y1 0.00884(12) 0.01238(11) 0.00765(11) 0.00028(8) 0.00342(8) 0.00052(8)
Eu1 0.00884(12) 0.01238(11) 0.00765(11) 0.00028(8) 0.00342(8) 0.00052(8)
Y2 0.00792(12) 0.01596(12) 0.00709(11) -0.00015(8) 0.00231(8) -0.00044(8)
Eu2 0.00792(12) 0.01596(12) 0.00709(11) -0.00015(8) 0.00231(8) -0.00044(8)
C1 0.0091(13) 0.0177(11) 0.0106(11) -0.0005(9) 0.0022(9) 0.0015(9)
C2 0.0091(13) 0.0135(11) 0.0110(11) 0.0009(9) 0.0027(9) -0.0003(9)
C3 0.0108(13) 0.0157(12) 0.0098(11) 0.0021(9) 0.0017(10) -0.0005(9)
C4 0.0123(13) 0.0130(11) 0.0114(11) -0.0019(9) 0.0046(10) -0.0024(9)
C5 0.0153(14) 0.0096(10) 0.0106(11) 0.0006(8) 0.0057(10) 0.0003(9)
C6 0.0081(12) 0.0160(11) 0.0114(11) -0.0004(9) 0.0033(9) -0.0014(9)
C7 0.0095(12) 0.0129(10) 0.0116(11) 0.0007(9) 0.0024(9) -0.0006(9)
C8 0.0118(13) 0.0139(11) 0.0110(11) 0.0000(9) 0.0036(9) 0.0013(9)
C9 0.0128(13) 0.0160(12) 0.0125(12) -0.0005(9) 0.0040(10) -0.0007(9)
C10 0.0123(13) 0.0137(11) 0.0103(11) 0.0007(9) 0.0038(9) 0.0001(9)
C11 0.0110(14) 0.0201(12) 0.0100(12) -0.0015(9) 0.0010(10) -0.0032(10)
C12 0.0157(13) 0.0135(11) 0.0095(11) 0.0006(9) 0.0053(9) 0.0003(9)
C13 0.0169(14) 0.0127(11) 0.0112(11) 0.0010(9) 0.0059(10) -0.0012(10)
C14 0.0113(13) 0.0149(12) 0.0149(12) 0.0013(9) 0.0058(10) -0.0012(9)
C15 0.0104(12) 0.0123(10) 0.0112(11) 0.0017(9) 0.0030(9) 0.0010(9)
C16 0.0120(13) 0.0111(10) 0.0094(11) 0.0011(9) 0.0017(9) 0.0020(9)
O1 0.0122(10) 0.0311(10) 0.0162(9) 0.0095(8) 0.0069(8) 0.0052(8)
O2 0.0116(10) 0.0224(9) 0.0150(9) 0.0049(7) 0.0040(7) 0.0043(7)
O3 0.0138(10) 0.0263(9) 0.0105(8) 0.0052(7) 0.0052(7) 0.0035(7)
O4 0.0108(10) 0.0434(12) 0.0218(10) 0.0107(9) 0.0035(8) 0.0057(9)
O5 0.0175(10) 0.0267(9) 0.0107(9) -0.0034(7) 0.0021(7) -0.0046(8)
O6 0.0125(10) 0.0205(9) 0.0157(9) -0.0003(7) 0.0068(7) -0.0027(7)
O7 0.0167(10) 0.0263(9) 0.0131(9) -0.0031(7) 0.0029(7) -0.0088(8)
O8 0.0145(10) 0.0358(11) 0.0121(9) -0.0033(8) 0.0061(8) -0.0082(8)
O9 0.0152(10) 0.0286(10) 0.0099(8) 0.0007(7) 0.0031(7) -0.0051(8)
O10 0.0156(10) 0.0324(10) 0.0121(8) 0.0004(8) 0.0058(7) -0.0016(8)
O11 0.0115(10) 0.0302(10) 0.0153(9) -0.0012(7) 0.0063(7) -0.0061(8)
O12 0.0106(10) 0.0321(10) 0.0094(8) -0.0035(7) 0.0035(7) -0.0065(7)
O13 0.0137(11) 0.0319(11) 0.0167(10) -0.0089(8) 0.0097(8) -0.0032(8)
O14 0.0203(12) 0.0239(10) 0.0153(10) 0.0048(8) 0.0052(9) 0.0030(9)
O15 0.0243(13) 0.0163(10) 0.0292(12) -0.0038(9) 0.0052(10) -0.0012(9)
O16 0.0108(11) 0.0432(12) 0.0183(10) 0.0055(9) 0.0069(9) 0.0046(9)
O17 0.0263(12) 0.0208(10) 0.0140(10) 0.0022(8) 0.0004(9) 0.0028(8)
O18 0.0268(15) 0.0373(13) 0.0285(12) 0.0035(10) 0.0028(11) -0.0118(11)
N1 0.0094(11) 0.0134(9) 0.0112(10) 0.0007(8) 0.0039(8) 0.0007(8)
N2 0.0102(10) 0.0132(9) 0.0098(9) -0.0012(7) 0.0021(8) -0.0009(8)
loop_
_atom_type_symbol
_atom_type_description
_atom_type_scat_dispersion_real
_atom_type_scat_dispersion_imag
_atom_type_scat_source
C C 0.0033 0.0016 'International Tables Vol C Tables 4.2.6.8 and 6.1.1.4'
H H 0.0000 0.0000 'International Tables Vol C Tables 4.2.6.8 and 6.1.1.4'
Eu Eu -0.1578 3.6682 'International Tables Vol C Tables 4.2.6.8 and 6.1.1.4'
N N 0.0061 0.0033 'International Tables Vol C Tables 4.2.6.8 and 6.1.1.4'
O O 0.0106 0.0060 'International Tables Vol C Tables 4.2.6.8 and 6.1.1.4'
Y Y -2.7962 3.5667 'International Tables Vol C Tables 4.2.6.8 and 6.1.1.4'
loop_
_geom_angle_atom_site_label_1
_geom_angle_atom_site_label_2
_geom_angle_atom_site_label_3
_geom_angle
_geom_angle_site_symmetry_1
_geom_angle_site_symmetry_3
_geom_angle_publ_flag
O3 Y1 O1 128.23(6) . . ?
O3 Y1 O15 86.27(8) . . ?
O1 Y1 O15 73.65(8) . . ?
O3 Y1 O13 81.04(7) . . ?
O1 Y1 O13 86.84(7) . . ?
O15 Y1 O13 142.41(8) . . ?
O3 Y1 O14 83.61(7) . . ?
O1 Y1 O14 139.82(8) . . ?
O15 Y1 O14 140.06(8) . . ?
O13 Y1 O14 73.46(7) . . ?
O3 Y1 O9 121.50(6) . 2_556 ?
O1 Y1 O9 100.12(6) . 2_556 ?
O15 Y1 O9 77.10(7) . 2_556 ?
O13 Y1 O9 139.01(7) . 2_556 ?
O14 Y1 O9 75.70(7) . 2_556 ?
O3 Y1 O2 146.38(6) . 2_546 ?
O1 Y1 O2 72.38(6) . 2_546 ?
O15 Y1 O2 127.19(8) . 2_546 ?
O13 Y1 O2 73.38(7) . 2_546 ?
O14 Y1 O2 68.58(7) . 2_546 ?
O9 Y1 O2 70.59(6) 2_556 2_546 ?
O3 Y1 N1 64.27(6) . . ?
O1 Y1 N1 64.14(7) . . ?
O15 Y1 N1 71.17(7) . . ?
O13 Y1 N1 71.43(7) . . ?
O14 Y1 N1 135.19(7) . . ?
O9 Y1 N1 147.41(7) 2_556 . ?
O2 Y1 N1 124.44(6) 2_546 . ?
O3 Y1 O10 69.81(6) . 2_556 ?
O1 Y1 O10 138.07(6) . 2_556 ?
O15 Y1 O10 70.18(7) . 2_556 ?
O13 Y1 O10 135.07(7) . 2_556 ?
O14 Y1 O10 70.05(7) . 2_556 ?
O9 Y1 O10 51.73(6) 2_556 2_556 ?
O2 Y1 O10 114.81(6) 2_546 2_556 ?
N1 Y1 O10 120.55(6) . 2_556 ?
O3 Y1 C13 95.48(7) . 2_556 ?
O1 Y1 C13 122.32(7) . 2_556 ?
O15 Y1 C13 74.12(7) . 2_556 ?
O13 Y1 C13 142.01(7) . 2_556 ?
O14 Y1 C13 68.57(7) . 2_556 ?
O9 Y1 C13 26.04(7) 2_556 2_556 ?
O2 Y1 C13 91.65(7) 2_546 2_556 ?
N1 Y1 C13 140.51(7) . 2_556 ?
O10 Y1 C13 25.89(6) 2_556 2_556 ?
O7 Y2 O16 93.79(8) . . ?
O7 Y2 O5 137.81(6) . . ?
O16 Y2 O5 79.78(7) . . ?
O7 Y2 O6 148.44(6) . 3_676 ?
O16 Y2 O6 98.50(7) . 3_676 ?
O5 Y2 O6 73.30(6) . 3_676 ?
O7 Y2 O12 91.62(7) . 2 ?
O16 Y2 O12 158.33(7) . 2 ?
O5 Y2 O12 82.13(6) . 2 ?
O6 Y2 O12 87.56(6) 3_676 2 ?
O7 Y2 O8 76.91(7) . 2 ?
O16 Y2 O8 71.81(7) . 2 ?
O5 Y2 O8 136.91(6) . 2 ?
O6 Y2 O8 79.52(6) 3_676 2 ?
O12 Y2 O8 129.85(6) 2 2 ?
O7 Y2 O17 67.25(7) . . ?
O16 Y2 O17 82.24(8) . . ?
O5 Y2 O17 70.56(7) . . ?
O6 Y2 O17 143.12(7) 3_676 . ?
O12 Y2 O17 80.56(7) 2 . ?
O8 Y2 O17 133.83(7) 2 . ?
O7 Y2 N2 73.84(6) . 2 ?
O16 Y2 N2 137.02(7) . 2 ?
O5 Y2 N2 136.15(7) . 2 ?
O6 Y2 N2 77.40(6) 3_676 2 ?
O12 Y2 N2 64.58(6) 2 2 ?
O8 Y2 N2 65.34(6) 2 2 ?
O17 Y2 N2 126.16(7) . 2 ?
O2 C1 O1 125.0(2) . . ?
O2 C1 C2 120.2(2) . . ?
O1 C1 C2 114.9(2) . . ?
N1 C2 C3 121.7(2) . . ?
N1 C2 C1 113.1(2) . . ?
C3 C2 C1 125.2(2) . . ?
C2 C3 C4 118.7(2) . . ?
C3 C4 C6 119.4(2) . . ?
C3 C4 C5 121.0(2) . . ?
C6 C4 C5 119.6(2) . . ?
O5 C5 O6 126.0(2) . . ?
O5 C5 C4 116.6(2) . . ?
O6 C5 C4 117.4(2) . . ?
C7 C6 C4 117.8(2) . . ?
N1 C7 C6 122.4(2) . . ?
N1 C7 C8 113.4(2) . . ?
C6 C7 C8 124.3(2) . . ?
O4 C8 O3 125.4(2) . . ?
O4 C8 C7 120.2(2) . . ?
O3 C8 C7 114.4(2) . . ?
O7 C9 O8 125.8(2) . . ?
O7 C9 C10 117.6(2) . . ?
O8 C9 C10 116.6(2) . . ?
N2 C10 C11 121.8(2) . . ?
N2 C10 C9 113.8(2) . . ?
C11 C10 C9 124.4(2) . . ?
C12 C11 C10 118.6(2) . . ?
C11 C12 C14 119.1(2) . . ?
C11 C12 C13 121.1(2) . . ?
C14 C12 C13 119.6(2) . . ?
O10 C13 O9 121.0(2) . . ?
O10 C13 C12 119.8(2) . . ?
O9 C13 C12 119.1(2) . . ?
O10 C13 Y1 63.32(12) . 2_546 ?
O9 C13 Y1 58.45(12) . 2_546 ?
C12 C13 Y1 168.32(16) . 2_546 ?
C15 C14 C12 118.6(2) . . ?
N2 C15 C14 122.1(2) . . ?
N2 C15 C16 113.1(2) . . ?
C14 C15 C16 124.7(2) . . ?
O11 C16 O12 125.2(2) . . ?
O11 C16 C15 120.2(2) . . ?
O12 C16 C15 114.6(2) . . ?
C1 O1 Y1 126.39(16) . . ?
C1 O2 Y1 137.33(17) . 2_556 ?
C8 O3 Y1 127.26(15) . . ?
C5 O5 Y2 170.05(17) . . ?
C5 O6 Y2 127.50(15) . 3_676 ?
C9 O7 Y2 150.96(17) . . ?
C9 O8 Y2 124.56(17) . 2_545 ?
C13 O9 Y1 95.51(15) . 2_546 ?
C13 O10 Y1 90.79(14) . 2_546 ?
C16 O12 Y2 126.81(16) . 2_545 ?
C7 N1 C2 119.8(2) . . ?
C7 N1 Y1 119.42(15) . . ?
C2 N1 Y1 119.94(16) . . ?
C15 N2 C10 119.6(2) . . ?
C15 N2 Y2 120.79(15) . 2_545 ?
C10 N2 Y2 119.49(16) . 2_545 ?
loop_
_geom_bond_atom_site_label_1
_geom_bond_atom_site_label_2
_geom_bond_distance
_geom_bond_site_symmetry_2
_geom_bond_publ_flag
Y1 O3 2.3429(18) . ?
Y1 O1 2.3637(17) . ?
Y1 O15 2.372(2) . ?
Y1 O13 2.3792(19) . ?
Y1 O14 2.3923(19) . ?
Y1 O9 2.4495(18) 2_556 ?
Y1 O2 2.4756(18) 2_546 ?
Y1 N1 2.501(2) . ?
Y1 O10 2.5568(17) 2_556 ?
Y1 C13 2.861(2) 2_556 ?
Y2 O7 2.2998(17) . ?
Y2 O16 2.315(2) . ?
Y2 O5 2.3270(17) . ?
Y2 O6 2.3504(17) 3_676 ?
Y2 O12 2.3514(18) 2 ?
Y2 O8 2.3741(18) 2 ?
Y2 O17 2.3939(19) . ?
Y2 N2 2.468(2) 2 ?
C1 O2 1.243(3) . ?
C1 O1 1.280(3) . ?
C1 C2 1.507(3) . ?
C2 N1 1.333(3) . ?
C2 C3 1.387(3) . ?
C3 C4 1.388(4) . ?
C4 C6 1.395(3) . ?
C4 C5 1.512(3) . ?
C5 O5 1.238(3) . ?
C5 O6 1.262(3) . ?
C6 C7 1.386(3) . ?
C7 N1 1.333(3) . ?
C7 C8 1.511(3) . ?
C8 O4 1.223(3) . ?
C8 O3 1.283(3) . ?
C9 O7 1.244(3) . ?
C9 O8 1.257(3) . ?
C9 C10 1.511(3) . ?
C10 N2 1.337(3) . ?
C10 C11 1.392(3) . ?
C11 C12 1.385(4) . ?
C12 C14 1.394(3) . ?
C12 C13 1.506(3) . ?
C13 O10 1.249(3) . ?
C13 O9 1.262(3) . ?
C14 C15 1.384(3) . ?
C15 N2 1.334(3) . ?
C15 C16 1.520(3) . ?
C16 O11 1.235(3) . ?
C16 O12 1.273(3) . ?
loop_
_geom_torsion_atom_site_label_1
_geom_torsion_atom_site_label_2
_geom_torsion_atom_site_label_3
_geom_torsion_atom_site_label_4
_geom_torsion
_geom_torsion_site_symmetry_1
_geom_torsion_site_symmetry_2
_geom_torsion_site_symmetry_3
_geom_torsion_site_symmetry_4
_geom_torsion_publ_flag
O2 C1 C2 N1 165.6(2) . . . . ?
O1 C1 C2 N1 -14.2(3) . . . . ?
O2 C1 C2 C3 -17.0(4) . . . . ?
O1 C1 C2 C3 163.3(2) . . . . ?
N1 C2 C3 C4 -0.3(4) . . . . ?
C1 C2 C3 C4 -177.5(2) . . . . ?
C2 C3 C4 C6 -4.4(3) . . . . ?
C2 C3 C4 C5 173.8(2) . . . . ?
C3 C4 C5 O5 -42.9(3) . . . . ?
C6 C4 C5 O5 135.3(2) . . . . ?
C3 C4 C5 O6 139.7(2) . . . . ?
C6 C4 C5 O6 -42.1(3) . . . . ?
C3 C4 C6 C7 4.9(3) . . . . ?
C5 C4 C6 C7 -173.4(2) . . . . ?
C4 C6 C7 N1 -0.8(4) . . . . ?
C4 C6 C7 C8 177.9(2) . . . . ?
N1 C7 C8 O4 -169.2(2) . . . . ?
C6 C7 C8 O4 12.0(4) . . . . ?
N1 C7 C8 O3 10.5(3) . . . . ?
C6 C7 C8 O3 -168.3(2) . . . . ?
O7 C9 C10 N2 178.9(2) . . . . ?
O8 C9 C10 N2 -1.8(3) . . . . ?
O7 C9 C10 C11 -1.0(4) . . . . ?
O8 C9 C10 C11 178.3(2) . . . . ?
N2 C10 C11 C12 -2.9(4) . . . . ?
C9 C10 C11 C12 176.9(2) . . . . ?
C10 C11 C12 C14 1.6(4) . . . . ?
C10 C11 C12 C13 177.8(2) . . . . ?
C11 C12 C13 O10 167.4(2) . . . . ?
C14 C12 C13 O10 -16.4(3) . . . . ?
C11 C12 C13 O9 -15.6(4) . . . . ?
C14 C12 C13 O9 160.6(2) . . . . ?
C11 C12 C13 Y1 -90.1(9) . . . 2_546 ?
C14 C12 C13 Y1 86.1(9) . . . 2_546 ?
C11 C12 C14 C15 1.4(4) . . . . ?
C13 C12 C14 C15 -174.9(2) . . . . ?
C12 C14 C15 N2 -3.2(4) . . . . ?
C12 C14 C15 C16 177.1(2) . . . . ?
N2 C15 C16 O11 -179.3(2) . . . . ?
C14 C15 C16 O11 0.4(4) . . . . ?
N2 C15 C16 O12 0.9(3) . . . . ?
C14 C15 C16 O12 -179.4(2) . . . . ?
O2 C1 O1 Y1 -169.76(17) . . . . ?
C2 C1 O1 Y1 10.0(3) . . . . ?
O1 C1 O2 Y1 1.3(4) . . . 2_556 ?
C2 C1 O2 Y1 -178.41(15) . . . 2_556 ?
O4 C8 O3 Y1 176.90(19) . . . . ?
C7 C8 O3 Y1 -2.8(3) . . . . ?
O5 C5 O6 Y2 97.8(3) . . . 3_676 ?
C4 C5 O6 Y2 -85.0(2) . . . 3_676 ?
O8 C9 O7 Y2 92.5(4) . . . . ?
C10 C9 O7 Y2 -88.3(4) . . . . ?
O7 C9 O8 Y2 176.76(18) . . . 2_545 ?
C10 C9 O8 Y2 -2.4(3) . . . 2_545 ?
O10 C13 O9 Y1 10.1(2) . . . 2_546 ?
C12 C13 O9 Y1 -166.76(18) . . . 2_546 ?
O9 C13 O10 Y1 -9.7(2) . . . 2_546 ?
C12 C13 O10 Y1 167.21(19) . . . 2_546 ?
O11 C16 O12 Y2 -178.99(17) . . . 2_545 ?
C15 C16 O12 Y2 0.8(3) . . . 2_545 ?
C6 C7 N1 C2 -3.9(3) . . . . ?
C8 C7 N1 C2 177.29(19) . . . . ?
C6 C7 N1 Y1 165.59(18) . . . . ?
C8 C7 N1 Y1 -13.2(3) . . . . ?
C3 C2 N1 C7 4.4(3) . . . . ?
C1 C2 N1 C7 -178.1(2) . . . . ?
C3 C2 N1 Y1 -165.01(18) . . . . ?
C1 C2 N1 Y1 12.5(3) . . . . ?
C14 C15 N2 C10 1.9(4) . . . . ?
C16 C15 N2 C10 -178.38(19) . . . . ?
C14 C15 N2 Y2 178.24(17) . . . 2_545 ?
C16 C15 N2 Y2 -2.1(3) . . . 2_545 ?
C11 C10 N2 C15 1.2(4) . . . . ?
C9 C10 N2 C15 -178.7(2) . . . . ?
C11 C10 N2 Y2 -175.14(18) . . . 2_545 ?
C9 C10 N2 Y2 4.9(3) . . . 2_545 ?
