#------------------------------------------------------------------------------
#$Date: 2020-11-06 14:05:18 +0200 (Fri, 06 Nov 2020) $
#$Revision: 258811 $
#$URL: file:///home/coder/svn-repositories/cod/cif/7/70/56/7705661.cif $
#------------------------------------------------------------------------------
#
# This file is available in the Crystallography Open Database (COD),
# http://www.crystallography.net/
#
# All data on this site have been placed in the public domain by the
# contributors.
#
data_7705661
loop_
_publ_author_name
'Prasad, Thazhe Kootteri'
'Suh, Myunghyun Paik'
_publ_section_title
;
 Synthesis of multifunctional metal-organic frameworks and tuning the
 functionalities with pendant ligands.
;
_journal_issue                   42
_journal_name_full
'Dalton transactions (Cambridge, England : 2003)'
_journal_page_first              15034
_journal_page_last               15040
_journal_paper_doi               10.1039/d0dt03012k
_journal_volume                  49
_journal_year                    2020
_chemical_formula_sum            'C120 H84 N12 O52 Zn16'
_chemical_formula_weight         3571.91
_chemical_properties_physical    Air-sensitive,Moisture-sensitive
_space_group_crystal_system      cubic
_space_group_IT_number           225
_space_group_name_Hall           '-F 4 2 3'
_space_group_name_H-M_alt        'F m -3 m'
_audit_creation_method           SHELXL-2013
_audit_update_record
;
2020-06-22 deposited with the CCDC.	2020-10-06 downloaded from the CCDC.
;
_cell_angle_alpha                90
_cell_angle_beta                 90
_cell_angle_gamma                90
_cell_formula_units_Z            2
_cell_length_a                   30.197(10)
_cell_length_b                   30.197(10)
_cell_length_c                   30.197(10)
_cell_measurement_reflns_used    55774
_cell_measurement_temperature    293(2)
_cell_measurement_theta_max      23.113
_cell_measurement_theta_min      1.150
_cell_volume                     27535(16)
_computing_cell_refinement       HKL3000sm
_computing_data_collection       'ADSC Q210 ADX program'
_computing_data_reduction        HKL3000sm
_computing_molecular_graphics    'Mercury (Bruno, et.al., 2002)'
_computing_publication_material  'WinGX (Farrugia, 2012)'
_computing_structure_refinement  'SHELXL-2013 (Sheldrick, 2013)'
_computing_structure_solution    'SHELXL-2013 (Sheldrick, 2013)'
_diffrn_ambient_temperature      293(2)
_diffrn_measured_fraction_theta_full 0.717
_diffrn_measured_fraction_theta_max 0.865
_diffrn_measurement.details
' 1.00 degrees, 3.0 sec, detector distance 100.00 mm'
_diffrn_measurement_device_type  'ADSC Quantum-210 detector '
_diffrn_measurement_method       'omega scan'
_diffrn_radiation_monochromator  'silicon (111) double crystal monochromator'
_diffrn_radiation_type           synchrotron
_diffrn_radiation_wavelength     0.700
_diffrn_reflns_av_R_equivalents  0.0067
_diffrn_reflns_av_unetI/netI     0.0036
_diffrn_reflns_Laue_measured_fraction_full 0.717
_diffrn_reflns_Laue_measured_fraction_max 0.865
_diffrn_reflns_limit_h_max       33
_diffrn_reflns_limit_h_min       -33
_diffrn_reflns_limit_k_max       23
_diffrn_reflns_limit_k_min       -23
_diffrn_reflns_limit_l_max       22
_diffrn_reflns_limit_l_min       -22
_diffrn_reflns_number            2907
_diffrn_reflns_point_group_measured_fraction_full 0.717
_diffrn_reflns_point_group_measured_fraction_max 0.865
_diffrn_reflns_theta_full        24.835
_diffrn_reflns_theta_max         23.113
_diffrn_reflns_theta_min         1.150
_diffrn_source                   'PLSII 2D bending magnet'
_exptl_absorpt_coefficient_mu    0.705
_exptl_absorpt_correction_T_max  0.490
_exptl_absorpt_correction_T_min  0
_exptl_absorpt_correction_type   multi-scan
_exptl_absorpt_process_details   'HKL3000 Scalepack'
_exptl_crystal_colour            yellow
_exptl_crystal_density_diffrn    0.431
_exptl_crystal_description       cubic
_exptl_crystal_F_000             3568
_exptl_crystal_preparation       Luminescent
_exptl_crystal_recrystallization_method 'Solvothermal synthesis'
_exptl_crystal_size_max          0.2
_exptl_crystal_size_mid          0.2
_exptl_crystal_size_min          0.2
_refine_diff_density_max         0.387
_refine_diff_density_min         -0.276
_refine_diff_density_rms         0.045
_refine_ls_extinction_method     none
_refine_ls_goodness_of_fit_ref   1.344
_refine_ls_hydrogen_treatment    undef
_refine_ls_matrix_type           full
_refine_ls_number_parameters     16
_refine_ls_number_reflns         933
_refine_ls_number_restraints     0
_refine_ls_restrained_S_all      1.344
_refine_ls_R_factor_all          0.1065
_refine_ls_R_factor_gt           0.0988
_refine_ls_shift/su_max          0.000
_refine_ls_shift/su_mean         0.000
_refine_ls_structure_factor_coef Fsqd
_refine_ls_weighting_details
'w=1/[\s^2^(Fo^2^)+(0.2000P)^2^] where P=(Fo^2^+2Fc^2^)/3'
_refine_ls_weighting_scheme      calc
_refine_ls_wR_factor_gt          0.3146
_refine_ls_wR_factor_ref         0.3318
_reflns_Friedel_coverage         0.000
_reflns_number_gt                636
_reflns_number_total             933
_reflns_threshold_expression     'I > 2\s(I)'
_cod_data_source_file            d0dt03012k2.cif
_cod_data_source_block           SNU-170
_cod_depositor_comments
'Adding full bibliography for 7705661--7705665.cif.'
_cod_original_cell_volume        27535(27)
_cod_database_code               7705661
_shelx_space_group_comment
;
The symmetry employed for this shelxl refinement is uniquely defined
by the following loop, which should always be used as a source of
symmetry information in preference to the above space-group names.
They are only intended as comments.
;
_shelxl_version_number           2013-4
_shelx_res_file
;
TITL [Fm-3m]
CELL  0.70000  30.1970  30.1970  30.1970   90.000   90.000   90.000
ZERR    2   0.0100   0.0100   0.0100    0.000    0.000    0.000
LATT   4
SYMM    X, - Y, - Z
SYMM  - X, - Y,   Z
SYMM  - X,   Y, - Z
SYMM  - Y,   X,   Z
SYMM    Y,   X, - Z
SYMM    Y, - X,   Z
SYMM  - Y, - X, - Z
SYMM    Y,   Z,   X
SYMM  - Y, - Z,   X
SYMM    Y, - Z, - X
SYMM  - Y,   Z, - X
SYMM  - Z,   Y,   X
SYMM  - Z, - Y, - X
SYMM    Z, - Y,   X
SYMM    Z,   Y, - X
SYMM    Z,   X,   Y
SYMM  - Z,   X, - Y
SYMM  - Z, - X,   Y
SYMM    Z, - X, - Y
SYMM  - X, - Z, - Y
SYMM  - X,   Z,   Y
SYMM    X, - Z,   Y
SYMM    X,   Z, - Y
SFAC  C    H    N    O    ZN
UNIT  240  168  24   104  32
MERG   2
OMIT     1   7  15
OMIT     1  15  17
OMIT     2   4   4
OMIT     2   6  10
OMIT     4   8  22
OMIT     4   4   8
OMIT     1   5  15
OMIT     1  13  15
OMIT     1   1  15
OMIT     6   6   6
OMIT     0   4   8
OMIT     1  11  17
OMIT     1  15  15
OMIT    10  16  18
OMIT     1  11  19
OMIT     4   6  16
OMIT     9  15  17
OMIT     1  13  19
OMIT     1  19  21
OMIT     0   4  30
OMIT    11  11  15
OMIT     0   2  30
OMIT     1  17  21
OMIT     1   9  15
OMIT     0   4  10
OMIT     4   4  26
OMIT    10  18  22
OMIT     2   6  12
OMIT     6   6  10
OMIT     1   1  17
OMIT    14  14  18
OMIT     2   4  26
OMIT     2   6  28
OMIT     3  15  19
OMIT     2   2  26
OMIT     4   6  26
OMIT    15  17  17
FMAP   2
PLAN    5
ACTA
BOND
L.S.   4
WGHT    0.200000
FVAR       3.02376
ZN    5    0.213140    0.213140    0.213140    10.16667    0.19077    0.19077 =
         0.19077   -0.01179   -0.01179   -0.01179
O1    4    0.223023    0.223023    0.151143    10.50000    0.29392    0.29392 =
         0.19780   -0.02097   -0.02097   -0.01266
O2    4    0.250000    0.250000    0.250000    10.04167    0.15221    0.15221 =
         0.15221    0.00000    0.00000    0.00000
C2    1   10.250000   10.250000   10.081000    10.25000    0.31971
C1    1   10.250000   10.250000   10.132600    10.25000    0.24770
C3    1   10.222400   10.222400   10.057302    10.25000    0.29151
C5    1   10.250000   10.250000   10.000000    10.12500    0.56197
C4    1   10.224600   10.243400   10.000000    10.25000    0.30183
HKLF    4

REM  [Fm-3m]
REM R1 =  0.0988 for     636 Fo > 4sig(Fo)  and  0.1065 for all     933 data
REM     16 parameters refined using      0 restraints

END

WGHT      0.2000      0.0000

REM Highest difference peak  0.387,  deepest hole -0.276,  1-sigma level  0.045
Q1    1   0.0000  0.5000  0.0000  10.02083  0.05    0.39
Q2    1   0.2018  0.2143  0.0000  10.50000  0.05    0.21
Q3    1   0.1818  0.2607  0.1818  10.50000  0.05    0.19
Q4    1   0.2298  0.2776  0.1702  11.00000  0.05    0.16
Q5    1   0.1613  0.2113  0.1613  10.50000  0.05    0.16
;
_shelx_res_checksum              40157
loop_
_space_group_symop_operation_xyz
'x, y, z'
'x, -y, -z'
'-x, -y, z'
'-x, y, -z'
'-y, x, z'
'y, x, -z'
'y, -x, z'
'-y, -x, -z'
'y, z, x'
'-y, -z, x'
'y, -z, -x'
'-y, z, -x'
'-z, y, x'
'-z, -y, -x'
'z, -y, x'
'z, y, -x'
'z, x, y'
'-z, x, -y'
'-z, -x, y'
'z, -x, -y'
'-x, -z, -y'
'-x, z, y'
'x, -z, y'
'x, z, -y'
'x, y+1/2, z+1/2'
'x, -y+1/2, -z+1/2'
'-x, -y+1/2, z+1/2'
'-x, y+1/2, -z+1/2'
'-y, x+1/2, z+1/2'
'y, x+1/2, -z+1/2'
'y, -x+1/2, z+1/2'
'-y, -x+1/2, -z+1/2'
'y, z+1/2, x+1/2'
'-y, -z+1/2, x+1/2'
'y, -z+1/2, -x+1/2'
'-y, z+1/2, -x+1/2'
'-z, y+1/2, x+1/2'
'-z, -y+1/2, -x+1/2'
'z, -y+1/2, x+1/2'
'z, y+1/2, -x+1/2'
'z, x+1/2, y+1/2'
'-z, x+1/2, -y+1/2'
'-z, -x+1/2, y+1/2'
'z, -x+1/2, -y+1/2'
'-x, -z+1/2, -y+1/2'
'-x, z+1/2, y+1/2'
'x, -z+1/2, y+1/2'
'x, z+1/2, -y+1/2'
'x+1/2, y, z+1/2'
'x+1/2, -y, -z+1/2'
'-x+1/2, -y, z+1/2'
'-x+1/2, y, -z+1/2'
'-y+1/2, x, z+1/2'
'y+1/2, x, -z+1/2'
'y+1/2, -x, z+1/2'
'-y+1/2, -x, -z+1/2'
'y+1/2, z, x+1/2'
'-y+1/2, -z, x+1/2'
'y+1/2, -z, -x+1/2'
'-y+1/2, z, -x+1/2'
'-z+1/2, y, x+1/2'
'-z+1/2, -y, -x+1/2'
'z+1/2, -y, x+1/2'
'z+1/2, y, -x+1/2'
'z+1/2, x, y+1/2'
'-z+1/2, x, -y+1/2'
'-z+1/2, -x, y+1/2'
'z+1/2, -x, -y+1/2'
'-x+1/2, -z, -y+1/2'
'-x+1/2, z, y+1/2'
'x+1/2, -z, y+1/2'
'x+1/2, z, -y+1/2'
'x+1/2, y+1/2, z'
'x+1/2, -y+1/2, -z'
'-x+1/2, -y+1/2, z'
'-x+1/2, y+1/2, -z'
'-y+1/2, x+1/2, z'
'y+1/2, x+1/2, -z'
'y+1/2, -x+1/2, z'
'-y+1/2, -x+1/2, -z'
'y+1/2, z+1/2, x'
'-y+1/2, -z+1/2, x'
'y+1/2, -z+1/2, -x'
'-y+1/2, z+1/2, -x'
'-z+1/2, y+1/2, x'
'-z+1/2, -y+1/2, -x'
'z+1/2, -y+1/2, x'
'z+1/2, y+1/2, -x'
'z+1/2, x+1/2, y'
'-z+1/2, x+1/2, -y'
'-z+1/2, -x+1/2, y'
'z+1/2, -x+1/2, -y'
'-x+1/2, -z+1/2, -y'
'-x+1/2, z+1/2, y'
'x+1/2, -z+1/2, y'
'x+1/2, z+1/2, -y'
'-x, -y, -z'
'-x, y, z'
'x, y, -z'
'x, -y, z'
'y, -x, -z'
'-y, -x, z'
'-y, x, -z'
'y, x, z'
'-y, -z, -x'
'y, z, -x'
'-y, z, x'
'y, -z, x'
'z, -y, -x'
'z, y, x'
'-z, y, -x'
'-z, -y, x'
'-z, -x, -y'
'z, -x, y'
'z, x, -y'
'-z, x, y'
'x, z, y'
'x, -z, -y'
'-x, z, -y'
'-x, -z, y'
'-x, -y+1/2, -z+1/2'
'-x, y+1/2, z+1/2'
'x, y+1/2, -z+1/2'
'x, -y+1/2, z+1/2'
'y, -x+1/2, -z+1/2'
'-y, -x+1/2, z+1/2'
'-y, x+1/2, -z+1/2'
'y, x+1/2, z+1/2'
'-y, -z+1/2, -x+1/2'
'y, z+1/2, -x+1/2'
'-y, z+1/2, x+1/2'
'y, -z+1/2, x+1/2'
'z, -y+1/2, -x+1/2'
'z, y+1/2, x+1/2'
'-z, y+1/2, -x+1/2'
'-z, -y+1/2, x+1/2'
'-z, -x+1/2, -y+1/2'
'z, -x+1/2, y+1/2'
'z, x+1/2, -y+1/2'
'-z, x+1/2, y+1/2'
'x, z+1/2, y+1/2'
'x, -z+1/2, -y+1/2'
'-x, z+1/2, -y+1/2'
'-x, -z+1/2, y+1/2'
'-x+1/2, -y, -z+1/2'
'-x+1/2, y, z+1/2'
'x+1/2, y, -z+1/2'
'x+1/2, -y, z+1/2'
'y+1/2, -x, -z+1/2'
'-y+1/2, -x, z+1/2'
'-y+1/2, x, -z+1/2'
'y+1/2, x, z+1/2'
'-y+1/2, -z, -x+1/2'
'y+1/2, z, -x+1/2'
'-y+1/2, z, x+1/2'
'y+1/2, -z, x+1/2'
'z+1/2, -y, -x+1/2'
'z+1/2, y, x+1/2'
'-z+1/2, y, -x+1/2'
'-z+1/2, -y, x+1/2'
'-z+1/2, -x, -y+1/2'
'z+1/2, -x, y+1/2'
'z+1/2, x, -y+1/2'
'-z+1/2, x, y+1/2'
'x+1/2, z, y+1/2'
'x+1/2, -z, -y+1/2'
'-x+1/2, z, -y+1/2'
'-x+1/2, -z, y+1/2'
'-x+1/2, -y+1/2, -z'
'-x+1/2, y+1/2, z'
'x+1/2, y+1/2, -z'
'x+1/2, -y+1/2, z'
'y+1/2, -x+1/2, -z'
'-y+1/2, -x+1/2, z'
'-y+1/2, x+1/2, -z'
'y+1/2, x+1/2, z'
'-y+1/2, -z+1/2, -x'
'y+1/2, z+1/2, -x'
'-y+1/2, z+1/2, x'
'y+1/2, -z+1/2, x'
'z+1/2, -y+1/2, -x'
'z+1/2, y+1/2, x'
'-z+1/2, y+1/2, -x'
'-z+1/2, -y+1/2, x'
'-z+1/2, -x+1/2, -y'
'z+1/2, -x+1/2, y'
'z+1/2, x+1/2, -y'
'-z+1/2, x+1/2, y'
'x+1/2, z+1/2, y'
'x+1/2, -z+1/2, -y'
'-x+1/2, z+1/2, -y'
'-x+1/2, -z+1/2, y'
loop_
_atom_site_label
_atom_site_type_symbol
_atom_site_fract_x
_atom_site_fract_y
_atom_site_fract_z
_atom_site_U_iso_or_equiv
_atom_site_adp_type
_atom_site_occupancy
_atom_site_site_symmetry_order
_atom_site_calc_flag
_atom_site_refinement_flags_posn
_atom_site_refinement_flags_adp
_atom_site_refinement_flags_occupancy
_atom_site_disorder_assembly
_atom_site_disorder_group
Zn Zn 0.21314(2) 0.21314(2) 0.21314(2) 0.1908(11) Uani 1 6 d S T P . .
O1 O 0.22302(16) 0.22302(16) 0.1511(2) 0.262(3) Uani 1 2 d S T P . .
O2 O 0.2500 0.2500 0.2500 0.152(2) Uani 1 24 d S T P . .
C2 C 0.2500 0.2500 0.0810 0.320(7) Uiso 1 4 d S . P . .
C1 C 0.2500 0.2500 0.1326 0.248(4) Uiso 1 4 d S . P . .
C3 C 0.2224 0.2224 0.0573 0.292(9) Uiso 0.5 2 d S . P . .
C5 C 0.2500 0.2500 0.0000 0.56(3) Uiso 1 8 d S . P . .
C4 C 0.2246 0.2434 0.0000 0.302(9) Uiso 0.5 2 d S . P . .
loop_
_atom_site_aniso_label
_atom_site_aniso_U_11
_atom_site_aniso_U_22
_atom_site_aniso_U_33
_atom_site_aniso_U_23
_atom_site_aniso_U_13
_atom_site_aniso_U_12
Zn 0.1908(11) 0.1908(11) 0.1908(11) -0.0118(2) -0.0118(2) -0.0118(2)
O1 0.294(3) 0.294(3) 0.198(3) -0.021(3) -0.021(3) -0.013(3)
O2 0.152(2) 0.152(2) 0.152(2) 0.000 0.000 0.000
loop_
_atom_type_symbol
_atom_type_description
_atom_type_scat_dispersion_real
_atom_type_scat_dispersion_imag
_atom_type_scat_source
C C 0.0033 0.0016 'International Tables Vol C Tables 4.2.6.8 and 6.1.1.4'
H H 0.0000 0.0000 'International Tables Vol C Tables 4.2.6.8 and 6.1.1.4'
N N 0.0061 0.0033 'International Tables Vol C Tables 4.2.6.8 and 6.1.1.4'
O O 0.0106 0.0060 'International Tables Vol C Tables 4.2.6.8 and 6.1.1.4'
Zn Zn 0.2839 1.4301 'International Tables Vol C Tables 4.2.6.8 and 6.1.1.4'
loop_
_geom_angle_atom_site_label_1
_geom_angle_atom_site_label_2
_geom_angle_atom_site_label_3
_geom_angle
_geom_angle_site_symmetry_1
_geom_angle_site_symmetry_3
_geom_angle_publ_flag
O1 Zn O1 106.2(2) 110 9 ?
O1 Zn O1 106.2(2) 110 . ?
O1 Zn O1 106.2(2) 9 . ?
O1 Zn O2 112.6(2) 110 . ?
O1 Zn O2 112.6(2) 9 . ?
O1 Zn O2 112.6(2) . . ?
O1 Zn Zn 77.3(2) 110 26 ?
O1 Zn Zn 125.44(16) 9 26 ?
O1 Zn Zn 125.44(16) . 26 ?
O2 Zn Zn 35.3 . 26 ?
O1 Zn Zn 125.44(16) 110 52 ?
O1 Zn Zn 77.3(2) 9 52 ?
O1 Zn Zn 125.44(16) . 52 ?
O2 Zn Zn 35.3 . 52 ?
Zn Zn Zn 60.0 26 52 ?
O1 Zn Zn 125.44(16) 110 75 ?
O1 Zn Zn 125.44(16) 9 75 ?
O1 Zn Zn 77.3(2) . 75 ?
O2 Zn Zn 35.3 . 75 ?
Zn Zn Zn 60.0 26 75 ?
Zn Zn Zn 60.0 52 75 ?
C1 O1 Zn 128.6(4) . . ?
Zn O2 Zn 109.5 52 26 ?
Zn O2 Zn 109.471(1) 52 75 ?
Zn O2 Zn 109.5 26 75 ?
Zn O2 Zn 109.5 52 . ?
Zn O2 Zn 109.5 26 . ?
Zn O2 Zn 109.5 75 . ?
C3 C2 C3 117.478(1) . 75 ?
C3 C2 C1 121.3 . . ?
C3 C2 C1 121.258(1) 75 . ?
O1 C1 O1 128.2(5) . 75 ?
O1 C1 C2 115.9(3) . . ?
O1 C1 C2 115.9(3) 75 . ?
C2 C3 C4 104.9 . . ?
C2 C3 C4 104.9 . 6 ?
C4 C3 C4 25.1 . 6 ?
C4 C5 C4 180.0 174 6 ?
C4 C5 C4 60.9 174 169 ?
C4 C5 C4 119.1 6 169 ?
C4 C5 C4 119.1 174 . ?
C4 C5 C4 60.9 6 . ?
C4 C5 C4 180.0 169 . ?
C5 C4 C4 59.6 . 6 ?
C5 C4 C4 30.4 . 174 ?
C4 C4 C4 90.0 6 174 ?
C5 C4 C4 0.0 . 169 ?
C4 C4 C4 59.6 6 169 ?
C4 C4 C4 30.4 174 169 ?
C5 C4 C3 97.0 . . ?
C4 C4 C3 77.4 6 . ?
C4 C4 C3 105.6 174 . ?
C4 C4 C3 97.0 169 . ?
C5 C4 C3 97.0 . 99 ?
C4 C4 C3 77.4 6 99 ?
C4 C4 C3 105.6 174 99 ?
C4 C4 C3 97.0 169 99 ?
C3 C4 C3 139.5 . 99 ?
loop_
_geom_bond_atom_site_label_1
_geom_bond_atom_site_label_2
_geom_bond_distance
_geom_bond_site_symmetry_2
_geom_bond_publ_flag
Zn O1 1.919(7) 110 ?
Zn O1 1.919(7) 9 ?
Zn O1 1.919(7) . ?
Zn O2 1.9279(12) . ?
Zn Zn 3.148(2) 26 ?
Zn Zn 3.148(2) 52 ?
Zn Zn 3.148(2) 75 ?
O1 C1 1.281(8) . ?
O2 Zn 1.9278(12) 52 ?
O2 Zn 1.9278(12) 26 ?
O2 Zn 1.9278(12) 75 ?
C2 C3 1.3789(5) . ?
C2 C3 1.3790(5) 75 ?
C2 C1 1.5582(5) . ?
C1 O1 1.281(8) 75 ?
C3 C4 1.8441(6) . ?
C3 C4 1.8441(6) 6 ?
C5 C4 0.7924(3) 174 ?
C5 C4 0.7924(3) 6 ?
C5 C4 0.7924(3) 169 ?
C5 C4 0.7925(3) . ?
C4 C4 0.8028(3) 6 ?
C4 C4 1.3665(5) 174 ?
C4 C4 1.5849(5) 169 ?
C4 C3 1.8442(6) 99 ?
loop_
_platon_squeeze_void_nr
_platon_squeeze_void_average_x
_platon_squeeze_void_average_y
_platon_squeeze_void_average_z
_platon_squeeze_void_volume
_platon_squeeze_void_count_electrons
_platon_squeeze_void_content
1 -0.004 -0.010 -0.005 22822 7166 ' '
