#------------------------------------------------------------------------------
#$Date: 2020-11-06 14:13:04 +0200 (Fri, 06 Nov 2020) $
#$Revision: 258834 $
#$URL: file:///home/coder/svn-repositories/cod/cif/7/70/54/7705429.cif $
#------------------------------------------------------------------------------
#
# This file is available in the Crystallography Open Database (COD),
# http://www.crystallography.net/
#
# All data on this site have been placed in the public domain by the
# contributors.
#
data_7705429
loop_
_publ_author_name
'Mandal, Rajorshi'
'Biradha, Kumar'
_publ_section_title
;
 Photochemical [2 + 2] polymerization of metal-organic gels of a rigid and
 angular diene with silver-salts of diverse anions: selective dye-sorption
 and luminescence by xerogels.
;
_journal_issue                   39
_journal_name_full
'Dalton transactions (Cambridge, England : 2003)'
_journal_page_first              13744
_journal_page_last               13752
_journal_paper_doi               10.1039/d0dt02919j
_journal_volume                  49
_journal_year                    2020
_chemical_formula_sum            'C24 H26 Ag N5 O7'
_chemical_formula_weight         604.37
_space_group_crystal_system      monoclinic
_space_group_IT_number           15
_space_group_name_Hall           '-C 2yc'
_space_group_name_H-M_alt        'C 1 2/c 1'
_atom_sites_solution_hydrogens   geom
_audit_creation_method           SHELXL-2014/7
_audit_update_record
;
2020-08-14 deposited with the CCDC.	2020-09-15 downloaded from the CCDC.
;
_cell_angle_alpha                90
_cell_angle_beta                 93.4275(19)
_cell_angle_gamma                90
_cell_formula_units_Z            8
_cell_length_a                   8.7630(6)
_cell_length_b                   12.9801(9)
_cell_length_c                   43.998(3)
_cell_measurement_reflns_used    4673
_cell_measurement_temperature    293(2)
_cell_measurement_theta_max      25.494
_cell_measurement_theta_min      1.855
_cell_volume                     4995.6(6)
_computing_structure_refinement  'SHELXL-2014/7 (Sheldrick, 2014)'
_diffrn_ambient_temperature      293(2)
_diffrn_measured_fraction_theta_full 0.999
_diffrn_measured_fraction_theta_max 0.999
_diffrn_measurement_device_type  'Bruker APex-2 CCD'
_diffrn_measurement_method       hemisphere
_diffrn_radiation_type           MoK\a
_diffrn_radiation_wavelength     0.71073
_diffrn_reflns_av_R_equivalents  0.0506
_diffrn_reflns_av_unetI/netI     0.0335
_diffrn_reflns_Laue_measured_fraction_full 0.999
_diffrn_reflns_Laue_measured_fraction_max 0.999
_diffrn_reflns_limit_h_max       10
_diffrn_reflns_limit_h_min       -10
_diffrn_reflns_limit_k_max       15
_diffrn_reflns_limit_k_min       -15
_diffrn_reflns_limit_l_max       53
_diffrn_reflns_limit_l_min       -52
_diffrn_reflns_number            29851
_diffrn_reflns_point_group_measured_fraction_full 0.999
_diffrn_reflns_point_group_measured_fraction_max 0.999
_diffrn_reflns_theta_full        25.242
_diffrn_reflns_theta_max         25.494
_diffrn_reflns_theta_min         1.855
_exptl_absorpt_coefficient_mu    0.861
_exptl_absorpt_correction_T_max  0.856
_exptl_absorpt_correction_T_min  0.813
_exptl_absorpt_correction_type   empirical
_exptl_absorpt_process_details   SADABS
_exptl_crystal_colour            white
_exptl_crystal_density_diffrn    1.607
_exptl_crystal_description       needle
_exptl_crystal_F_000             2464
_exptl_crystal_size_max          0.28
_exptl_crystal_size_mid          0.20
_exptl_crystal_size_min          0.18
_refine_diff_density_max         0.740
_refine_diff_density_min         -0.502
_refine_diff_density_rms         0.088
_refine_ls_extinction_method     none
_refine_ls_goodness_of_fit_ref   1.093
_refine_ls_hydrogen_treatment    constr
_refine_ls_matrix_type           full
_refine_ls_number_parameters     361
_refine_ls_number_reflns         4673
_refine_ls_number_restraints     0
_refine_ls_restrained_S_all      1.093
_refine_ls_R_factor_all          0.0484
_refine_ls_R_factor_gt           0.0410
_refine_ls_shift/su_max          0.001
_refine_ls_shift/su_mean         0.000
_refine_ls_structure_factor_coef Fsqd
_refine_ls_weighting_details
'w=1/[\s^2^(Fo^2^)+(0.0516P)^2^+15.6097P] where P=(Fo^2^+2Fc^2^)/3'
_refine_ls_weighting_scheme      calc
_refine_ls_wR_factor_gt          0.1050
_refine_ls_wR_factor_ref         0.1090
_reflns_Friedel_coverage         0.000
_reflns_number_gt                4065
_reflns_number_total             4673
_reflns_threshold_expression     'I > 2\s(I)'
_cod_data_source_file            d0dt02919j2.cif
_cod_data_source_block           rm
_cod_depositor_comments          'Adding full bibliography for 7705429.cif.'
_cod_original_sg_symbol_H-M      'C 2/c'
_cod_database_code               7705429
_shelx_shelxl_version_number     2014/7
_shelx_space_group_comment
;
The symmetry employed for this shelxl refinement is uniquely defined
by the following loop, which should always be used as a source of
symmetry information in preference to the above space-group names.
They are only intended as comments.
;
_shelx_res_file
;

    rm.res created by SHELXL-2014/7


TITL RM in C2/c
CELL 0.71073   8.76300  12.98010  43.99842  90.0000  93.4275  90.0000
ZERR    8.00   0.00060   0.00090   0.00316   0.0000   0.0019   0.0000
LATT  7
SYMM -X, Y, 0.5-Z
SFAC C H N O AG
UNIT 192 208 40 56 8
ACTA
L.S. 10
OMIT 0 51
OMIT 0 0 2
BOND
FMAP 2
PLAN 20
WGHT    0.051600   15.609700
FVAR       0.04499
AG1   5    1.007097    0.628754    0.008193    11.00000    0.02985    0.03231 =
         0.01617   -0.00207   -0.00762   -0.00106
N100  3    0.784405    0.502074    0.053049    11.00000    0.01997    0.03818 =
         0.01714   -0.00009   -0.00319    0.00028
O103  4    0.813706    0.596976    0.053196    11.00000    0.04301    0.03614 =
         0.02992   -0.00195   -0.00017   -0.00734
O102  4    0.760368    0.458087    0.077417    11.00000    0.04249    0.04828 =
         0.02197    0.00613    0.00110   -0.00309
O101  4    0.780872    0.453983    0.028274    11.00000    0.03945    0.04610 =
         0.02278   -0.00845    0.00366    0.00196
N11   3    1.188150    0.655497    0.042425    11.00000    0.03234    0.02244 =
         0.01726   -0.00134   -0.00845   -0.00026
N12   3    1.328050    0.693570    0.150051    11.00000    0.07237    0.02935 =
         0.03160   -0.01175   -0.02597    0.02002
AFIX  43
H12   2    1.334702    0.628452    0.153486    11.00000   -1.20000
AFIX   0
C11   1    1.267971    0.696835    0.094469    11.00000    0.04827    0.01882 =
         0.01891   -0.00146   -0.01472    0.00863
C12   1    1.155983    0.678878    0.071205    11.00000    0.03892    0.02236 =
         0.01499   -0.00036   -0.01059    0.00371
AFIX  43
H12A  2    1.053933    0.683255    0.075776    11.00000   -1.20000
AFIX   0
C13   1    1.334289    0.648160    0.036087    11.00000    0.03391    0.02721 =
         0.01832    0.00007   -0.00537    0.00271
AFIX  43
H13   2    1.357406    0.632938    0.016225    11.00000   -1.20000
AFIX   0
C14   1    1.453327    0.662207    0.057778    11.00000    0.03117    0.02762 =
         0.03465    0.00100   -0.01170   -0.00041
AFIX  43
H14   2    1.554309    0.655603    0.052662    11.00000   -1.20000
AFIX   0
C15   1    1.419163    0.686258    0.087210    11.00000    0.04120    0.02336 =
         0.03481   -0.00312   -0.02492    0.00138
AFIX  43
H15   2    1.497557    0.695364    0.102167    11.00000   -1.20000
AFIX   0
C16   1    1.222167    0.728785    0.125632    11.00000    0.06392    0.03239 =
         0.02154   -0.00874   -0.01906    0.02142
AFIX  23
H16A  2    1.215701    0.803333    0.126395    11.00000   -1.20000
H16B  2    1.121386    0.701398    0.128826    11.00000   -1.20000
AFIX   0
N21   3    2.335175    0.876080    0.471318    11.00000    0.02602    0.02550 =
         0.01542    0.00098   -0.00784   -0.00282
N22   3    2.226895    0.852644    0.364954    11.00000    0.04999    0.02409 =
         0.01367   -0.00291   -0.01034    0.00521
AFIX  43
H22   2    2.241187    0.787382    0.366940    11.00000   -1.20000
AFIX   0
C21   1    2.260152    0.903234    0.418706    11.00000    0.03458    0.01793 =
         0.01662   -0.00099   -0.00540    0.00000
C22   1    2.369536    0.890905    0.442364    11.00000    0.02800    0.01981 =
         0.02275    0.00135   -0.00174   -0.00301
AFIX  43
H22A  2    2.472011    0.892993    0.437986    11.00000   -1.20000
AFIX   0
C23   1    2.186241    0.871802    0.477463    11.00000    0.03294    0.02395 =
         0.02052    0.00105   -0.00291   -0.00097
AFIX  43
H23   2    2.160727    0.861922    0.497470    11.00000   -1.20000
AFIX   0
C24   1    2.070697    0.881661    0.454924    11.00000    0.02646    0.02758 =
         0.02770   -0.00311   -0.00203   -0.00062
AFIX  43
H24   2    1.968869    0.877320    0.459653    11.00000   -1.20000
AFIX   0
C25   1    2.108016    0.897994    0.425365    11.00000    0.03244    0.02621 =
         0.01967   -0.00294   -0.01214    0.00293
AFIX  43
H25   2    2.031432    0.905465    0.409958    11.00000   -1.20000
AFIX   0
C26   1    2.308629    0.920960    0.386706    11.00000    0.04250    0.02746 =
         0.01356   -0.00184   -0.00536   -0.00187
AFIX  23
H26A  2    2.288530    0.992022    0.380936    11.00000   -1.20000
H26B  2    2.417695    0.909027    0.386141    11.00000   -1.20000
AFIX   0
O31   4    2.102765    0.977455    0.337559    11.00000    0.06075    0.02505 =
         0.04681    0.00927   -0.02424   -0.00558
O32   4    1.418391    0.850990    0.163677    11.00000    0.05551    0.03328 =
         0.03681   -0.00008   -0.01944    0.01360
C30   1    1.699792    0.714706    0.236944    11.00000    0.09701    0.03572 =
         0.02986   -0.01236   -0.03698    0.02608
C31   1    1.780483    0.781288    0.256532    11.00000    0.06041    0.03084 =
         0.01945   -0.00268   -0.01193    0.00938
AFIX  43
H31   2    1.771177    0.851859    0.253273    11.00000   -1.20000
AFIX   0
C32   1    1.875491    0.746231    0.281047    11.00000    0.07479    0.03010 =
         0.02708   -0.00981   -0.02394    0.01399
C36A  1    1.602446    0.757530    0.211300    11.00000    0.07394    0.03453 =
         0.02641   -0.00888   -0.02029    0.01979
AFIX  43
H36A  2    1.606306    0.828483    0.208511    11.00000   -1.20000
AFIX   0
C37A  1    1.510608    0.705296    0.191961    11.00000    0.08501    0.02994 =
         0.02863   -0.01101   -0.02678    0.02293
AFIX  43
H37A  2    1.505233    0.634013    0.193742    11.00000   -1.20000
AFIX   0
C38A  1    1.416403    0.757378    0.167611    11.00000    0.05571    0.04117 =
         0.01848   -0.01100   -0.01290    0.02153
C36B  1    1.958038    0.821547    0.300584    11.00000    0.04835    0.02584 =
         0.01932    0.00000   -0.00439    0.00555
AFIX  43
H36B  2    1.937849    0.890579    0.296353    11.00000   -1.20000
AFIX   0
C37B  1    2.058308    0.802288    0.323622    11.00000    0.05498    0.02606 =
         0.02266   -0.00385   -0.00886    0.00662
AFIX  43
H37B  2    2.083315    0.734186    0.328210    11.00000   -1.20000
AFIX   0
C38B  1    2.131699    0.885061    0.342256    11.00000    0.03683    0.02894 =
         0.02050    0.00211   -0.00584   -0.00106
PART 1
C33   1    1.925145    0.643959    0.281131    10.50000    0.04724    0.03431 =
         0.01470    0.00215   -0.01114    0.00317
AFIX  43
H33   2    2.001990    0.620638    0.294931    10.50000   -1.20000
AFIX   0
C34   1    1.854835    0.579407    0.259804    10.50000    0.05783    0.01754 =
         0.04328    0.00536   -0.02359   -0.00348
AFIX  43
H34   2    1.874088    0.509039    0.261116    10.50000   -1.20000
AFIX   0
C35   1    1.757676    0.615280    0.236764    10.50000    0.04646    0.03478 =
         0.02190    0.00339   -0.01180   -0.00434
AFIX  43
H35   2    1.729642    0.571936    0.220549    10.50000   -1.20000
AFIX   0
PART 2
C33'  1    1.850352    0.638759    0.290181    10.50000    0.04503    0.03078 =
         0.01566   -0.00399   -0.00787    0.01206
AFIX  43
H33'  2    1.897433    0.615209    0.308374    10.50000   -1.20000
AFIX   0
C34'  1    1.758087    0.570438    0.272500    10.50000    0.05195    0.02321 =
         0.01751    0.00044   -0.00712    0.00547
AFIX  43
H34'  2    1.754552    0.501167    0.277811    10.50000   -1.20000
AFIX   0
C35'  1    1.672634    0.605705    0.247273    10.50000    0.04201    0.02902 =
         0.02395   -0.00534   -0.01311   -0.00295
AFIX  43
H35'  2    1.600724    0.563735    0.236978    10.50000   -1.20000
AFIX   0
Part 0
O1W   4    2.199306    0.644796    0.381149    11.00000    0.10586    0.03542 =
         0.03983    0.01328   -0.02146   -0.00001
O2W   4    1.229409    1.019490    0.162446    11.00000    0.06163    0.04691 =
         0.08548    0.00186    0.01104    0.00925

HKLF 4

REM  RM in C2/c
REM R1 =  0.0410 for    4065 Fo > 4sig(Fo)  and  0.0484 for all    4673 data
REM    361 parameters refined using      0 restraints

END

WGHT      0.0329     23.8806

REM Highest difference peak  0.740,  deepest hole -0.502,  1-sigma level  0.088
Q1    1   1.2257  1.0671  0.1431  11.00000  0.05    0.74
Q2    1   2.2382  0.6042  0.3666  11.00000  0.05    0.70
Q3    1   2.1978  0.6227  0.4014  11.00000  0.05    0.69
Q4    1   1.1295  1.0014  0.1584  11.00000  0.05    0.53
Q5    1   2.1866  0.9703  0.3256  11.00000  0.05    0.51
Q6    1   1.2657  0.9406  0.1632  11.00000  0.05    0.49
Q7    1   2.3849  0.8605  0.4875  11.00000  0.05    0.46
Q8    1   1.0272  0.6567  0.0301  11.00000  0.05    0.44
Q9    1   2.2281  0.6765  0.3836  11.00000  0.05    0.43
Q10   1   2.1224  0.6373  0.3792  11.00000  0.05    0.41
Q11   1   2.2885  0.8972  0.4035  11.00000  0.05    0.38
Q12   1   1.4017  1.0305  0.1583  11.00000  0.05    0.38
Q13   1   0.9492  0.6916  0.0024  11.00000  0.05    0.36
Q14   1   1.2403  1.0301  0.1697  11.00000  0.05    0.35
Q15   1   0.9874  0.6199 -0.0151  11.00000  0.05    0.34
Q16   1   1.1192  0.6309  0.0335  11.00000  0.05    0.34
Q17   1   1.1812  0.6736  0.0538  11.00000  0.05    0.33
Q18   1   1.0851  0.5955 -0.0140  11.00000  0.05    0.32
Q19   1   1.0588  0.5493  0.0123  11.00000  0.05    0.32
Q20   1   2.3145  0.8794  0.4254  11.00000  0.05    0.31
;
_shelx_res_checksum              96026
loop_
_space_group_symop_operation_xyz
'x, y, z'
'-x, y, -z+1/2'
'x+1/2, y+1/2, z'
'-x+1/2, y+1/2, -z+1/2'
'-x, -y, -z'
'x, -y, z-1/2'
'-x+1/2, -y+1/2, -z'
'x+1/2, -y+1/2, z-1/2'
loop_
_atom_site_label
_atom_site_type_symbol
_atom_site_fract_x
_atom_site_fract_y
_atom_site_fract_z
_atom_site_U_iso_or_equiv
_atom_site_adp_type
_atom_site_occupancy
_atom_site_site_symmetry_order
_atom_site_calc_flag
_atom_site_refinement_flags_posn
_atom_site_refinement_flags_adp
_atom_site_refinement_flags_occupancy
_atom_site_disorder_assembly
_atom_site_disorder_group
Ag1 Ag 1.00710(3) 0.62875(2) 0.00819(2) 0.02647(12) Uani 1 1 d . . . . .
N100 N 0.7844(3) 0.5021(2) 0.05305(6) 0.0253(7) Uani 1 1 d . . . . .
O103 O 0.8137(3) 0.5970(2) 0.05320(6) 0.0365(7) Uani 1 1 d . . . . .
O102 O 0.7604(3) 0.4581(2) 0.07742(6) 0.0376(7) Uani 1 1 d . . . . .
O101 O 0.7809(3) 0.4540(2) 0.02827(6) 0.0360(7) Uani 1 1 d . . . . .
N11 N 1.1882(4) 0.6555(2) 0.04243(7) 0.0244(7) Uani 1 1 d . . . . .
N12 N 1.3281(5) 0.6936(3) 0.15005(8) 0.0456(10) Uani 1 1 d . . . . .
H12 H 1.3347 0.6285 0.1535 0.055 Uiso 1 1 calc R U . . .
C11 C 1.2680(5) 0.6968(3) 0.09447(8) 0.0293(9) Uani 1 1 d . . . . .
C12 C 1.1560(5) 0.6789(3) 0.07120(8) 0.0259(8) Uani 1 1 d . . . . .
H12A H 1.0539 0.6833 0.0758 0.031 Uiso 1 1 calc R U . . .
C13 C 1.3343(5) 0.6482(3) 0.03609(8) 0.0268(8) Uani 1 1 d . . . . .
H13 H 1.3574 0.6329 0.0162 0.032 Uiso 1 1 calc R U . . .
C14 C 1.4533(5) 0.6622(3) 0.05778(9) 0.0317(9) Uani 1 1 d . . . . .
H14 H 1.5543 0.6556 0.0527 0.038 Uiso 1 1 calc R U . . .
C15 C 1.4192(5) 0.6863(3) 0.08721(9) 0.0342(10) Uani 1 1 d . . . . .
H15 H 1.4976 0.6954 0.1022 0.041 Uiso 1 1 calc R U . . .
C16 C 1.2222(6) 0.7288(3) 0.12563(9) 0.0401(11) Uani 1 1 d . . . . .
H16A H 1.2157 0.8033 0.1264 0.048 Uiso 1 1 calc R U . . .
H16B H 1.1214 0.7014 0.1288 0.048 Uiso 1 1 calc R U . . .
N21 N 2.3352(3) 0.8761(2) 0.47132(7) 0.0227(7) Uani 1 1 d . . . . .
N22 N 2.2269(4) 0.8526(2) 0.36495(7) 0.0297(8) Uani 1 1 d . . . . .
H22 H 2.2412 0.7874 0.3669 0.036 Uiso 1 1 calc R U . . .
C21 C 2.2602(4) 0.9032(3) 0.41871(8) 0.0233(8) Uani 1 1 d . . . . .
C22 C 2.3695(4) 0.8909(3) 0.44236(8) 0.0236(8) Uani 1 1 d . . . . .
H22A H 2.4720 0.8930 0.4380 0.028 Uiso 1 1 calc R U . . .
C23 C 2.1862(5) 0.8718(3) 0.47746(8) 0.0260(8) Uani 1 1 d . . . . .
H23 H 2.1607 0.8619 0.4975 0.031 Uiso 1 1 calc R U . . .
C24 C 2.0707(5) 0.8817(3) 0.45492(9) 0.0274(8) Uani 1 1 d . . . . .
H24 H 1.9689 0.8773 0.4597 0.033 Uiso 1 1 calc R U . . .
C25 C 2.1080(5) 0.8980(3) 0.42536(8) 0.0267(8) Uani 1 1 d . . . . .
H25 H 2.0314 0.9055 0.4100 0.032 Uiso 1 1 calc R U . . .
C26 C 2.3086(5) 0.9210(3) 0.38671(8) 0.0281(8) Uani 1 1 d . . . . .
H26A H 2.2885 0.9920 0.3809 0.034 Uiso 1 1 calc R U . . .
H26B H 2.4177 0.9090 0.3861 0.034 Uiso 1 1 calc R U . . .
O31 O 2.1028(4) 0.9775(2) 0.33756(7) 0.0453(8) Uani 1 1 d . . . . .
O32 O 1.4184(4) 0.8510(2) 0.16368(7) 0.0428(8) Uani 1 1 d . . . . .
C30 C 1.6998(7) 0.7147(4) 0.23694(10) 0.0558(15) Uani 1 1 d . . . . .
C31 C 1.7805(5) 0.7813(3) 0.25653(9) 0.0375(10) Uani 1 1 d . . . . .
H31 H 1.7712 0.8519 0.2533 0.045 Uiso 1 1 calc R U . . .
C32 C 1.8755(6) 0.7462(3) 0.28105(10) 0.0451(12) Uani 1 1 d . . . . .
C36A C 1.6024(6) 0.7575(3) 0.21130(10) 0.0459(12) Uani 1 1 d . . . . .
H36A H 1.6063 0.8285 0.2085 0.055 Uiso 1 1 calc R U . . .
C37A C 1.5106(6) 0.7053(3) 0.19196(10) 0.0491(13) Uani 1 1 d . . . . .
H37A H 1.5052 0.6340 0.1937 0.059 Uiso 1 1 calc R U . . .
C38A C 1.4164(5) 0.7574(3) 0.16761(9) 0.0391(11) Uani 1 1 d . . . . .
C36B C 1.9580(5) 0.8215(3) 0.30058(8) 0.0314(9) Uani 1 1 d . . . . .
H36B H 1.9378 0.8906 0.2964 0.038 Uiso 1 1 calc R U . . .
C37B C 2.0583(5) 0.8023(3) 0.32362(9) 0.0350(10) Uani 1 1 d . . . . .
H37B H 2.0833 0.7342 0.3282 0.042 Uiso 1 1 calc R U . . .
C38B C 2.1317(5) 0.8851(3) 0.34226(8) 0.0291(9) Uani 1 1 d . . . . .
C33 C 1.9251(13) 0.6440(7) 0.2811(2) 0.033(2) Uani 0.5 1 d . . P A 1
H33 H 2.0020 0.6206 0.2949 0.039 Uiso 0.5 1 calc R U P A 1
C34 C 1.8548(12) 0.5794(6) 0.2598(2) 0.041(2) Uani 0.5 1 d . . P A 1
H34 H 1.8741 0.5090 0.2611 0.049 Uiso 0.5 1 calc R U P A 1
C35 C 1.7577(12) 0.6153(7) 0.2368(2) 0.035(2) Uani 0.5 1 d . . P A 1
H35 H 1.7296 0.5719 0.2205 0.042 Uiso 0.5 1 calc R U P A 1
C33' C 1.8504(12) 0.6388(7) 0.2902(2) 0.031(2) Uani 0.5 1 d . . P A 2
H33' H 1.8974 0.6152 0.3084 0.037 Uiso 0.5 1 calc R U P A 2
C34' C 1.7581(11) 0.5704(6) 0.27250(17) 0.0313(18) Uani 0.5 1 d . . P A 2
H34' H 1.7546 0.5012 0.2778 0.038 Uiso 0.5 1 calc R U P A 2
C35' C 1.6726(12) 0.6057(6) 0.2473(2) 0.0323(19) Uani 0.5 1 d . . P A 2
H35' H 1.6007 0.5637 0.2370 0.039 Uiso 0.5 1 calc R U P A 2
O1W O 2.1993(5) 0.6448(2) 0.38115(8) 0.0614(11) Uani 1 1 d . . . . .
O2W O 1.2294(4) 1.0195(3) 0.16245(9) 0.0644(10) Uani 1 1 d . . . . .
loop_
_atom_site_aniso_label
_atom_site_aniso_U_11
_atom_site_aniso_U_22
_atom_site_aniso_U_33
_atom_site_aniso_U_23
_atom_site_aniso_U_13
_atom_site_aniso_U_12
Ag1 0.02985(19) 0.03231(18) 0.01617(17) -0.00207(11) -0.00762(11) -0.00106(12)
N100 0.0200(16) 0.0382(19) 0.0171(15) -0.0001(13) -0.0032(12) 0.0003(13)
O103 0.0430(18) 0.0361(16) 0.0299(15) -0.0019(12) -0.0002(13) -0.0073(13)
O102 0.0425(18) 0.0483(17) 0.0220(14) 0.0061(12) 0.0011(12) -0.0031(14)
O101 0.0395(17) 0.0461(17) 0.0228(14) -0.0085(12) 0.0037(12) 0.0020(14)
N11 0.0323(18) 0.0224(15) 0.0173(15) -0.0013(12) -0.0085(13) -0.0003(13)
N12 0.072(3) 0.0294(19) 0.032(2) -0.0117(15) -0.0260(19) 0.0200(18)
C11 0.048(3) 0.0188(18) 0.0189(19) -0.0015(14) -0.0147(17) 0.0086(17)
C12 0.039(2) 0.0224(18) 0.0150(18) -0.0004(14) -0.0106(15) 0.0037(16)
C13 0.034(2) 0.0272(19) 0.0183(18) 0.0001(14) -0.0054(16) 0.0027(16)
C14 0.031(2) 0.0276(19) 0.035(2) 0.0010(17) -0.0117(17) -0.0004(17)
C15 0.041(3) 0.023(2) 0.035(2) -0.0031(16) -0.0249(19) 0.0014(17)
C16 0.064(3) 0.032(2) 0.022(2) -0.0087(17) -0.0191(19) 0.021(2)
N21 0.0260(17) 0.0255(16) 0.0154(15) 0.0010(12) -0.0078(12) -0.0028(13)
N22 0.050(2) 0.0241(16) 0.0137(15) -0.0029(12) -0.0103(14) 0.0052(15)
C21 0.035(2) 0.0179(17) 0.0166(18) -0.0010(13) -0.0054(15) 0.0000(15)
C22 0.028(2) 0.0198(17) 0.0228(19) 0.0013(14) -0.0017(15) -0.0030(15)
C23 0.033(2) 0.0240(18) 0.0205(19) 0.0011(14) -0.0029(16) -0.0010(15)
C24 0.026(2) 0.0276(19) 0.028(2) -0.0031(15) -0.0020(16) -0.0006(16)
C25 0.032(2) 0.0262(19) 0.0197(18) -0.0029(15) -0.0121(15) 0.0029(16)
C26 0.042(2) 0.0275(19) 0.0136(18) -0.0018(14) -0.0054(16) -0.0019(17)
O31 0.061(2) 0.0250(15) 0.0468(18) 0.0093(13) -0.0242(16) -0.0056(14)
O32 0.056(2) 0.0333(17) 0.0368(17) -0.0001(13) -0.0194(15) 0.0136(14)
C30 0.097(4) 0.036(2) 0.030(2) -0.0124(19) -0.037(3) 0.026(3)
C31 0.060(3) 0.031(2) 0.019(2) -0.0027(16) -0.0119(19) 0.009(2)
C32 0.075(3) 0.030(2) 0.027(2) -0.0098(17) -0.024(2) 0.014(2)
C36A 0.074(3) 0.035(2) 0.026(2) -0.0089(18) -0.020(2) 0.020(2)
C37A 0.085(4) 0.030(2) 0.029(2) -0.0110(18) -0.027(2) 0.023(2)
C38A 0.056(3) 0.041(3) 0.018(2) -0.0110(17) -0.0129(19) 0.022(2)
C36B 0.048(3) 0.026(2) 0.0193(19) 0.0000(15) -0.0044(17) 0.0055(18)
C37B 0.055(3) 0.026(2) 0.023(2) -0.0038(16) -0.0089(18) 0.0066(19)
C38B 0.037(2) 0.029(2) 0.0205(19) 0.0021(15) -0.0058(16) -0.0011(17)
C33 0.047(6) 0.034(5) 0.015(5) 0.002(4) -0.011(4) 0.003(5)
C34 0.058(6) 0.018(4) 0.043(6) 0.005(4) -0.024(5) -0.003(4)
C35 0.046(6) 0.035(5) 0.022(5) 0.003(4) -0.012(4) -0.004(4)
C33' 0.045(6) 0.031(5) 0.016(5) -0.004(4) -0.008(4) 0.012(5)
C34' 0.052(6) 0.023(4) 0.018(4) 0.000(3) -0.007(4) 0.005(4)
C35' 0.042(6) 0.029(4) 0.024(5) -0.005(3) -0.013(4) -0.003(4)
O1W 0.106(3) 0.0354(17) 0.0398(19) 0.0133(14) -0.0215(19) 0.0000(18)
O2W 0.062(2) 0.047(2) 0.085(3) 0.0019(19) 0.011(2) 0.0092(18)
loop_
_atom_type_symbol
_atom_type_description
_atom_type_scat_dispersion_real
_atom_type_scat_dispersion_imag
_atom_type_scat_source
C C 0.0033 0.0016 'International Tables Vol C Tables 4.2.6.8 and 6.1.1.4'
H H 0.0000 0.0000 'International Tables Vol C Tables 4.2.6.8 and 6.1.1.4'
N N 0.0061 0.0033 'International Tables Vol C Tables 4.2.6.8 and 6.1.1.4'
O O 0.0106 0.0060 'International Tables Vol C Tables 4.2.6.8 and 6.1.1.4'
Ag Ag -0.8971 1.1015 'International Tables Vol C Tables 4.2.6.8 and 6.1.1.4'
loop_
_geom_angle_atom_site_label_1
_geom_angle_atom_site_label_2
_geom_angle_atom_site_label_3
_geom_angle
_geom_angle_site_symmetry_1
_geom_angle_site_symmetry_3
_geom_angle_publ_flag
N21 Ag1 N11 171.48(11) 8_365 . ?
O102 N100 O103 119.3(3) . . ?
O102 N100 O101 121.6(3) . . ?
O103 N100 O101 119.1(3) . . ?
C13 N11 C12 118.1(3) . . ?
C13 N11 Ag1 121.4(2) . . ?
C12 N11 Ag1 120.5(3) . . ?
C38A N12 C16 123.5(4) . . ?
C15 C11 C12 117.0(4) . . ?
C15 C11 C16 123.1(4) . . ?
C12 C11 C16 119.9(4) . . ?
N11 C12 C11 123.3(4) . . ?
N11 C13 C14 122.8(4) . . ?
C15 C14 C13 118.7(4) . . ?
C14 C15 C11 120.1(3) . . ?
N12 C16 C11 113.1(3) . . ?
C22 N21 C23 118.1(3) . . ?
C22 N21 Ag1 122.3(3) . 8_666 ?
C23 N21 Ag1 119.4(2) . 8_666 ?
C38B N22 C26 124.1(3) . . ?
C22 C21 C25 117.9(3) . . ?
C22 C21 C26 119.9(3) . . ?
C25 C21 C26 122.2(3) . . ?
N21 C22 C21 123.2(4) . . ?
N21 C23 C24 121.9(3) . . ?
C25 C24 C23 119.2(4) . . ?
C24 C25 C21 119.6(3) . . ?
N22 C26 C21 111.3(3) . . ?
C31 C30 C35 114.3(5) . . ?
C31 C30 C36A 119.3(4) . . ?
C35 C30 C36A 122.6(5) . . ?
C31 C30 C35' 118.8(5) . . ?
C36A C30 C35' 119.2(5) . . ?
C30 C31 C32 122.4(4) . . ?
C33 C32 C31 118.8(5) . . ?
C33 C32 C36B 119.3(5) . . ?
C31 C32 C36B 119.1(4) . . ?
C31 C32 C33' 115.3(5) . . ?
C36B C32 C33' 123.3(5) . . ?
C37A C36A C30 126.7(4) . . ?
C36A C37A C38A 121.6(4) . . ?
O32 C38A N12 122.7(4) . . ?
O32 C38A C37A 122.9(4) . . ?
N12 C38A C37A 114.3(4) . . ?
C37B C36B C32 127.2(4) . . ?
C36B C37B C38B 122.3(4) . . ?
O31 C38B N22 122.9(4) . . ?
O31 C38B C37B 122.2(4) . . ?
N22 C38B C37B 114.8(3) . . ?
C34 C33 C32 116.8(8) . . ?
C35 C34 C33 122.2(8) . . ?
C34 C35 C30 121.7(8) . . ?
C34' C33' C32 122.6(7) . . ?
C35' C34' C33' 120.2(8) . . ?
C34' C35' C30 117.7(7) . . ?
loop_
_geom_bond_atom_site_label_1
_geom_bond_atom_site_label_2
_geom_bond_distance
_geom_bond_site_symmetry_2
_geom_bond_publ_flag
Ag1 N21 2.148(3) 8_365 ?
Ag1 N11 2.150(3) . ?
N100 O102 1.244(4) . ?
N100 O103 1.258(4) . ?
N100 O101 1.255(4) . ?
N11 C13 1.330(5) . ?
N11 C12 1.348(5) . ?
N12 C38A 1.346(6) . ?
N12 C16 1.451(5) . ?
C11 C15 1.388(6) . ?
C11 C12 1.395(5) . ?
C11 C16 1.510(5) . ?
C13 C14 1.383(5) . ?
C14 C15 1.382(6) . ?
N21 C22 1.340(5) . ?
N21 C23 1.350(5) . ?
N21 Ag1 2.148(3) 8_666 ?
N22 C38B 1.331(5) . ?
N22 C26 1.461(5) . ?
C21 C22 1.382(5) . ?
C21 C25 1.384(5) . ?
C21 C26 1.512(5) . ?
C23 C24 1.380(5) . ?
C24 C25 1.376(5) . ?
O31 C38B 1.241(5) . ?
O32 C38A 1.228(5) . ?
C30 C31 1.385(6) . ?
C30 C35 1.387(10) . ?
C30 C36A 1.481(6) . ?
C30 C35' 1.509(10) . ?
C31 C32 1.399(6) . ?
C32 C33 1.397(11) . ?
C32 C36B 1.464(6) . ?
C32 C33' 1.472(11) . ?
C36A C37A 1.323(6) . ?
C37A C38A 1.477(6) . ?
C36B C37B 1.325(6) . ?
C37B C38B 1.475(5) . ?
C33 C34 1.376(13) . ?
C34 C35 1.366(12) . ?
C33' C34' 1.404(13) . ?
C34' C35' 1.379(11) . ?
