#------------------------------------------------------------------------------
#$Date: 2021-11-05 02:06:12 +0200 (Fri, 05 Nov 2021) $
#$Revision: 270317 $
#$URL: file:///home/coder/svn-repositories/cod/cif/7/70/87/7708718.cif $
#------------------------------------------------------------------------------
#
# This file is available in the Crystallography Open Database (COD),
# http://www.crystallography.net/
#
# All data on this site have been placed in the public domain by the
# contributors.
#
data_7708718
loop_
_publ_author_name
'P\'o\/lrolniczak, Aleksandra'
'Sobczak, Szymon'
'Nikolayenko, Varvara'
'Barbour, Len'
'Katrusiak, Andrzej'
_publ_section_title
;
 Solvent-controlled elongation and mechanochemical strain in a
 metal-organic framework
;
_journal_name_full               'Dalton Transactions'
_journal_paper_doi               10.1039/D1DT01937F
_journal_year                    2021
_chemical_absolute_configuration unk
_chemical_formula_moiety         'C39 H24 F6 N2 O4 S2 Zn'
_chemical_formula_sum            'C39 H24 F6 N2 O4 S2 Zn'
_chemical_formula_weight         828.09
_chemical_name_common            DMOF
_chemical_name_systematic
1,2-bis(2-ethyl-5-phenyl-3-thienyl)perfluorocyclopentene
_space_group_crystal_system      orthorhombic
_space_group_IT_number           19
_space_group_name_Hall           'P 2ac 2ab'
_space_group_name_H-M_alt        'P 21 21 21'
_atom_sites_solution_hydrogens   geom
_atom_sites_solution_primary     direct
_audit_creation_date             2018-11-13
_audit_creation_method
;
Olex2 1.2
(compiled 2018.05.29 svn.r3508 for OlexSys, GUI svn.r5506)
;
_audit_update_record
;
2019-09-30 deposited with the CCDC.	2021-11-02 downloaded from the CCDC.
;
_cell_angle_alpha                90
_cell_angle_beta                 90
_cell_angle_gamma                90
_cell_formula_units_Z            4
_cell_length_a                   6.9346(16)
_cell_length_b                   25.153(13)
_cell_length_c                   28.98(2)
_cell_measurement_reflns_used    781
_cell_measurement_temperature    293
_cell_measurement_theta_max      15.2620
_cell_measurement_theta_min      3.9300
_cell_volume                     5055(5)
_computing_cell_refinement       'CrysAlisPro 1.171.39.43a (Rigaku OD, 2018)'
_computing_data_collection       'CrysAlisPro 1.171.39.43a (Rigaku OD, 2018)'
_computing_data_reduction        'CrysAlisPro 1.171.39.43a (Rigaku OD, 2018)'
_computing_molecular_graphics    'Olex2 (Dolomanov et al., 2009)'
_computing_publication_material  'Olex2 (Dolomanov et al., 2009)'
_computing_structure_refinement  'ShelXL (Sheldrick, 2015)'
_computing_structure_solution    'ShelXS (Sheldrick, 2008)'
_diffrn_ambient_temperature      293
_diffrn_detector                 'CCD plate'
_diffrn_detector_area_resol_mean 16.2413
_diffrn_detector_type            Eos
_diffrn_measured_fraction_theta_full 0.731
_diffrn_measured_fraction_theta_max 0.730
_diffrn_measurement_details
;
 Data were collected at room temperature and pressure of 0.40(2) GPa
 (400000 kPa).
 Pressure was determined by monitoring the shift of the ruby R1-fluorescence line.

List of Runs (angles in degrees, time in seconds):

  # Type    Start    End  Width  t~exp~   \w     \q     \k     \f   Frames
#--------------------------------------------------------------------------
  1  \f    -35.00  19.75   0.75   35.00   0.00 -30.00   0.00    --    73
  2  \f    140.00 200.00   0.75   35.00   0.00 -30.00   0.00    --    80
  3  \f    160.00 217.00   0.75   35.00   0.00  30.00   0.00    --    76
  4  \f    -20.00  34.75   0.75   35.00   0.00  30.00   0.00    --    73
  5  \w    -24.00  24.00   0.75   35.00    --   30.00  39.46 -12.90   64
  6  \w    -24.00  24.00   0.75   35.00    --   30.00  39.46 167.10   64
  7  \w    -50.00  10.00   0.75   35.00    --  -30.00  39.46 167.10   80
  8  \w    -50.00  10.00   0.75   35.00    --  -30.00  39.46 -12.90   80
  9  \w    -64.00  -8.50   0.75   35.00    --  -30.00  81.40 -28.90   74
 10  \w    -64.00  -8.50   0.75   35.00    --  -30.00  81.40 151.10   74
 11  \w    -19.00   8.00   0.75   35.00    --   30.00  81.40 151.10   36
 12  \w    -19.00   8.00   0.75   35.00    --   30.00  81.40 -28.90   36
 13  \w    -43.00 -21.25   0.75   35.00    --   30.00 134.60 -56.90   29
 14  \w    -43.00 -21.25   0.75   35.00    --   30.00 134.60 123.10   29
 15  \w    -90.00 -36.00   0.75   35.00    --  -30.00 134.60 123.10   72
 16  \w    -90.00 -72.00   0.75   35.00    --  -30.00 134.60 -56.90   24
;
_diffrn_measurement_device       'four-circle diffractometer'
_diffrn_measurement_device_type  'Xcalibur, Eos'
_diffrn_measurement_method       '\w and \f scans'
_diffrn_orient_matrix_type
'CrysAlisPro convention (1999,Acta A55,543-557)'
_diffrn_orient_matrix_UB_11      -0.0105084000
_diffrn_orient_matrix_UB_12      -0.0186997000
_diffrn_orient_matrix_UB_13      -0.0180937000
_diffrn_orient_matrix_UB_21      -0.0598238000
_diffrn_orient_matrix_UB_22      -0.0158472000
_diffrn_orient_matrix_UB_23      0.0143440000
_diffrn_orient_matrix_UB_31      -0.0824748000
_diffrn_orient_matrix_UB_32      0.0139130000
_diffrn_orient_matrix_UB_33      -0.0080538000
_diffrn_radiation_monochromator  graphite
_diffrn_radiation_probe          x-ray
_diffrn_radiation_type           MoK\a
_diffrn_radiation_wavelength     0.71073
_diffrn_reflns_av_R_equivalents  0.2726
_diffrn_reflns_av_unetI/netI     0.1455
_diffrn_reflns_Laue_measured_fraction_full 0.731
_diffrn_reflns_Laue_measured_fraction_max 0.730
_diffrn_reflns_limit_h_max       4
_diffrn_reflns_limit_h_min       -4
_diffrn_reflns_limit_k_max       15
_diffrn_reflns_limit_k_min       -15
_diffrn_reflns_limit_l_max       17
_diffrn_reflns_limit_l_min       -17
_diffrn_reflns_number            8705
_diffrn_reflns_point_group_measured_fraction_full 0.758
_diffrn_reflns_point_group_measured_fraction_max 0.758
_diffrn_reflns_theta_full        13.583
_diffrn_reflns_theta_max         13.583
_diffrn_reflns_theta_min         4.065
_diffrn_source                   'fine-focus sealed X-ray tube'
_diffrn_source_type              'Enhance (Mo) X-ray Source'
_exptl_absorpt_coefficient_mu    0.622
_exptl_absorpt_correction_T_max  0.435
_exptl_absorpt_correction_T_min  0.257
_exptl_absorpt_correction_type   gaussian
_exptl_absorpt_process_details
;
CrysAlisPro 1.171.39.43a (Rigaku Oxford Diffraction, 2018)
Numerical absorption correction based on gaussian integration over
			a multifaceted crystal model (Absorb Angel (2004) J. Appl. Cryst. 37:486-492)
;
_exptl_crystal_colour            'clear light pink'
_exptl_crystal_colour_lustre     clear
_exptl_crystal_colour_modifier   light
_exptl_crystal_colour_primary    pink
_exptl_crystal_density_diffrn    1.088
_exptl_crystal_description       plate
_exptl_crystal_F_000             1680
_exptl_crystal_preparation       'mounted in a diamond-anvil cell '
_exptl_crystal_size_max          0.308
_exptl_crystal_size_mid          0.215
_exptl_crystal_size_min          0.125
_refine_diff_density_max         0.239
_refine_diff_density_min         -0.256
_refine_diff_density_rms         0.057
_refine_ls_abs_structure_details
;
 Flack x determined using 220 quotients [(I+)-(I-)]/[(I+)+(I-)]
 (Parsons, Flack and Wagner, Acta Cryst. B69 (2013) 249-259).
;
_refine_ls_abs_structure_Flack   0.05(6)
_refine_ls_extinction_method     none
_refine_ls_goodness_of_fit_ref   1.397
_refine_ls_hydrogen_treatment    constr
_refine_ls_matrix_type           full
_refine_ls_number_parameters     414
_refine_ls_number_reflns         1171
_refine_ls_number_restraints     485
_refine_ls_restrained_S_all      1.125
_refine_ls_R_factor_all          0.0734
_refine_ls_R_factor_gt           0.1125
_refine_ls_shift/su_max          0
_refine_ls_shift/su_mean         0
_refine_ls_structure_factor_coef Fsqd
_refine_ls_weighting_details
'w=1/[\s^2^(Fo^2^)+(0.2000P)^2^] where P=(Fo^2^+2Fc^2^)/3'
_refine_ls_weighting_scheme      calc
_refine_ls_wR_factor_gt          0.2978
_refine_ls_wR_factor_ref         0.3413
_reflns_Friedel_coverage         0.682
_reflns_Friedel_fraction_full    0.802
_reflns_Friedel_fraction_max     0.802
_reflns_number_gt                814
_reflns_number_total             1171
_reflns_threshold_expression     'I > 2\s(I)'
_cod_data_source_file            d1dt01937f2.cif
_cod_data_source_block           DMOF_0_40_GPa_Gly
_cod_database_code               7708718
_shelx_shelxl_version_number     2017/1
_chemical_oxdiff_formula         C39H25F6N2O4S2Zn
_shelx_space_group_comment
;
The symmetry employed for this shelxl refinement is uniquely defined
by the following loop, which should always be used as a source of
symmetry information in preference to the above space-group names.
They are only intended as comments.
;
_shelx_estimated_absorpt_t_max   0.940
_shelx_estimated_absorpt_t_min   0.746
_exptl_oxdiff_absorpt_process_details
;
Gaussian integration over a grid
of 16 x 16 x 16 points =  4096 total grid points
  Based upon method of Burnham (1966)

 Data corrected for diamond-anvil cell absorption
 Note that exptl_absorpt_correction_tmin and _tmax
 the total correction factors applied to the intensities
 The individual factors are: 
         range of dac transmission factors (min-max)      0.385     0.454
         range of gasket transmission (min-max)           0.665     1.000
         range of P media transmission (min-max)          0.997     0.998

 thickness of diamond anvil 1: 19.500 mm, mu =  0.0202 mm-1
       thickness of platten 1:  0.000 mm, mu =  0.0000 mm-1

 thickness of diamond anvil 2: 19.500 mm, mu =  0.0202 mm-1
       thickness of platten 2:  0.000 mm, mu =  0.0000 mm-1

    Gasket shadowing corrections were made based upon
    Gasket thickness = 280.0 microns, radius = 230.0 microns
    Gasket absorption coeff =        21.00 mm-1
    REFLECTION WAS CONSIDERED TOTALLY OBSCURED IF 
 FRACTION CRYSTAL ILLUMINATED WAS LESS THAN 0.00

    Absorption coeff of pressure medium =   0.01 mm-1
;
_reflns_odcompleteness_completeness 65.63
_reflns_odcompleteness_iscentric 1
_reflns_odcompleteness_theta     15.83
_olex2_refinement_description
;
1. Fixed Uiso
 At 1.2 times of:
  All C(H) groups
 At 1.5 times of:
  All C(H,H,H) groups
2. Restrained distances
 C8-C11
 1.42 with sigma of 0.01
 C15-C16
 1.43 with sigma of 0.01
 C26-C27
 1.45 with sigma of 0.01
 O2-C27 \\sim C27-O1
 with sigma of 0.02
 C36-O4 \\sim O4-O3
 with sigma of 0.02
3. Uiso/Uaniso restraints and constraints
Uanis(C14) \\sim Ueq: with sigma of 0.001 and sigma for terminal atoms of 0.002
Uanis(C14) \\sim Ueq, Uanis(C10) \\sim Ueq, Uanis(C16) \\sim Ueq, Uanis(O1)
\\sim Ueq, Uanis(C8) \\sim Ueq, Uanis(C23) \\sim Ueq, Uanis(C37) \\sim Ueq,
Uanis(C2) \\sim Ueq, Uanis(C24) \\sim Ueq, Uanis(C38) \\sim Ueq, Uanis(C36)
\\sim Ueq: with sigma of 0.001 and sigma for terminal atoms of 0.002
Uanis(C12) \\sim Ueq, Uanis(C13) \\sim Ueq, Uanis(C4) \\sim Ueq, Uanis(C33)
\\sim Ueq, Uanis(C39) \\sim Ueq, Uanis(C32) \\sim Ueq: with sigma of 0.01 and
sigma for terminal atoms of 0.02
Uanis(C30) \\sim Ueq: with sigma of 0.01 and sigma for terminal atoms of 0.02
Uanis(C6) \\sim Ueq: with sigma of 0.01 and sigma for terminal atoms of 0.02
Uanis(C29) \\sim Ueq: with sigma of 0.001 and sigma for terminal atoms of 0.002
Uanis(C34) \\sim Ueq, Uanis(C36) \\sim Ueq: with sigma of 0.001 and sigma for
terminal atoms of 0.002
Uanis(C5) \\sim Ueq: with sigma of 0.001 and sigma for terminal atoms of 0.002
Uanis(Zn01) \\sim Ueq: with sigma of 0.01 and sigma for terminal atoms of 0.02
Uanis(C1) \\sim Ueq: with sigma of 0.001 and sigma for terminal atoms of 0.002
Uanis(C15) \\sim Ueq: with sigma of 0.001 and sigma for terminal atoms of 0.002
Uanis(C18) \\sim Ueq, Uanis(Zn01) \\sim Ueq: with sigma of 0.01 and sigma for
terminal atoms of 0.02
Uanis(O2) \\sim Ueq: with sigma of 0.01 and sigma for terminal atoms of 0.02
Uanis(C9) \\sim Ueq, Uanis(C28) \\sim Ueq: with sigma of 0.001 and sigma for
terminal atoms of 0.002
Uanis(C19) \\sim Ueq: with sigma of 0.01 and sigma for terminal atoms of 0.02
4. Rigid body (RIGU) restrains
 C24, N2, C23, C22, C21, C25
 with sigma for 1-2 distances of 0.004 and sigma for 1-3 distances of 0.004
 C19, C16, C17, C18, S2, C20
 with sigma for 1-2 distances of 0.004 and sigma for 1-3 distances of 0.004
 C14, C13, C12, C11, C15
 with sigma for 1-2 distances of 0.004 and sigma for 1-3 distances of 0.004
 C8, C7, C6, S1, C9, C10
 with sigma for 1-2 distances of 0.004 and sigma for 1-3 distances of 0.004
 C2, C1, N1, C5, C4, C3
 with sigma for 1-2 distances of 0.004 and sigma for 1-3 distances of 0.004
 C32, C31, C30, C29, C28, C27, C26, O2, O1
 with sigma for 1-2 distances of 0.004 and sigma for 1-3 distances of 0.004
 C39, C38, C36, C35, C34, C33, C37, O4, O3
 with sigma for 1-2 distances of 0.004 and sigma for 1-3 distances of 0.004
5.a Aromatic/amide H refined with riding coordinates:
 C17(H17), C7(H7), C32(H32), C31(H31), C29(H29), C28(H28), C2(H2), C1(H1),
 C5(H5), C4(H4), C22(H22), C25(H25), C24(H24), C23(H23), C35(H35), C34(H34),
 C39(H39), C38(H38)
5.b Fitted pentagon refined as free rotating group:
 S2(C18,C17,C16,C19), C15(C14,C13,C12,C11), C9(C8,C7,C6,S1)
5.c Fitted hexagon refined as free rotating group:
 C27(C32,C31,C30,C29,C28), C3(C2,C1,N1,C5,C4), C22(C21,C25,C24,N2,C23),
 C36(C35,C34,C33,C39,C38)
5.d Idealised Me refined as rotating group:
 C20(H20A,H20B,H20C), C10(H10A,H10B,H10C)
;
_shelx_res_file
;
TITL a in P212121 #19
    a.res
    created by SHELXL-2017/1 at 10:39:05 on 13-Nov-2018
REM reset to P212121 #19
CELL 0.71073 6.934583 25.152824 28.980253 90 90 90
ZERR 4 0.001618 0.012799 0.021111 0 0 0
LATT -1
SYMM 0.5-X,-Y,0.5+Z
SYMM 0.5+X,0.5-Y,-Z
SYMM -X,0.5+Y,0.5-Z
SFAC C H F N O S Zn
UNIT 156 96 24 8 16 8 4
DFIX 1.42 0.01 C8 C11
DFIX 1.43 0.01 C15 C16
DFIX 1.45 0.01 C26 C27
SADI O2 C27 C27 O1
SADI C36 O4 O4 O3
RIGU C24 N2 C23 C22 C21 C25
RIGU C19 C16 C17 C18 S2 C20
RIGU C14 C13 C12 C11 C15
RIGU C8 C7 C6 S1 C9 C10
RIGU C2 C1 N1 C5 C4 C3
RIGU C32 C31 C30 C29 C28 C27 C26 O2 O1
RIGU C39 C38 C36 C35 C34 C33 C37 O4 O3
ISOR 0.001 0.002 C14
ISOR 0.001 0.002 C14 C10 C16 O1 C8 C23 C37 C2 C24 C38 C36
ISOR 0.01 0.02 C12 C13 C4 C33 C39 C32
ISOR 0.01 0.02 C30
ISOR 0.01 0.02 C6
ISOR 0.001 0.002 C29
ISOR 0.001 0.002 C34 C36
ISOR 0.001 0.002 C5
ISOR 0.01 0.02 Zn01
ISOR 0.001 0.002 C1
ISOR 0.001 0.002 C15
ISOR 0.01 0.02 C18 Zn01
ISOR 0.01 0.02 O2
ISOR 0.001 0.002 C9 C28
ISOR 0.01 0.02 C19

L.S. 3
PLAN  1
SIZE 0.1 0.5 0.3
TEMP 19.85
FREE S2 C17
FREE S2 C16
FREE C9 C6
FREE S1 C7
FREE S1 C8
BOND
ABIN
fmap 2
acta
SHEL 100 1.51
OMIT 0 6 3
OMIT 0 5 4
OMIT 0 14 8
OMIT 1 3 10
OMIT 2 2 11
OMIT 2 0 9
OMIT 0 4 4
OMIT 1 4 12
OMIT 2 3 14
OMIT -2 -3 -14
OMIT 2 0 8
OMIT 0 7 2
OMIT 3 2 14
OMIT 0 4 5
REM <olex2.extras>
REM <HklSrc "%.\\a.hkl">
REM </olex2.extras>

WGHT    0.200000
FVAR       1.39401
ZN01  7    0.415622    0.454554    0.260748    11.00000    0.11793    0.15426 =
         0.17329    0.01500    0.00373    0.00798
AFIX  56
S2    6   -0.047292    0.490322    0.625668    11.00000    0.14616    0.12244 =
         0.20740   -0.01761    0.05547   -0.01115
C18   1   -0.190066    0.460462    0.649375    11.00000    0.12105    0.12896 =
         0.12515   -0.00032    0.00560   -0.00036
C17   1   -0.147339    0.405677    0.643423    11.00000    0.16991    0.12734 =
         0.13926    0.02544    0.03721    0.00222
AFIX  43
H17   2   -0.217789    0.377383    0.655364    11.00000   -1.20000
AFIX  55
C16   1    0.021841    0.401679    0.616037    11.00000    0.12588    0.12586 =
         0.12591   -0.00014    0.00003    0.00013
C19   1    0.083674    0.453992    0.605063    11.00000    0.12682    0.12940 =
         0.12851    0.00252    0.01429    0.00165
AFIX   0
F2    3    0.063722    0.229987    0.557677    11.00000    0.12416    0.11254 =
         0.21833   -0.00569    0.01503    0.02337
F1    3    0.334198    0.261494    0.541127    11.00000    0.11836    0.11912 =
         0.26907    0.00399    0.00550    0.01782
F4    3    0.229438    0.204882    0.628148    11.00000    0.21248    0.32098 =
         0.07110    0.02527   -0.04520    0.06253
F3    3    0.412750    0.267789    0.623126    11.00000    0.21529    0.24432 =
         0.13287   -0.00010   -0.01100   -0.04612
F6    3   -0.000255    0.279261    0.670126    11.00000    0.17207    0.10801 =
         0.20761    0.00120    0.05207   -0.00723
F5    3    0.234894    0.315475    0.685530    11.00000    0.26168    0.15125 =
         0.17623   -0.00930   -0.02516   -0.00167
AFIX  56
C15   1    0.067966    0.346119    0.611250    11.00000    0.13175    0.13185 =
         0.13172    0.00006   -0.00006   -0.00013
C14   1    0.143705    0.305198    0.639729    11.00000    0.13950    0.13945 =
         0.13953    0.00002    0.00005    0.00008
C13   1    0.195293    0.261789    0.610937    11.00000    0.14412    0.13988 =
         0.14099   -0.00002   -0.00097    0.00056
C12   1    0.151438    0.275880    0.564664    11.00000    0.13800    0.13682 =
         0.13747   -0.00051   -0.00094    0.00064
C11   1    0.072746    0.328000    0.564858    11.00000    0.09281    0.13571 =
         0.14800   -0.02720   -0.02381   -0.00777
AFIX   0
O1    5    0.557675    0.524638    0.264640    11.00000    0.14373    0.14371 =
         0.14375    0.00004   -0.00006    0.00002
O3    5    1.413514    0.905863    0.246868    11.00000    0.22151    0.19425 =
         0.27255    0.05790    0.02707    0.03980
O2    5    0.722409    0.494077    0.326962    11.00000    0.12149    0.16113 =
         0.16853    0.01840   -0.00954   -0.00660
O4    5    1.680150    0.851263    0.268269    11.00000    0.17082    0.18913 =
         0.14886    0.00083   -0.00577    0.00995
C26   1    0.677896    0.535836    0.301845    11.00000    0.09758    0.14589 =
         0.12331   -0.00929    0.03405    0.02030
AFIX  56
C9    1   -0.181413    0.359624    0.505549    11.00000    0.11443    0.11455 =
         0.11460   -0.00008    0.00010   -0.00003
C8    1    0.004618    0.343004    0.520083    11.00000    0.11619    0.11605 =
         0.11610    0.00011   -0.00003    0.00003
C7    1    0.137319    0.355063    0.484263    11.00000    0.09002    0.21286 =
         0.11533    0.00284   -0.01397   -0.01290
AFIX  43
H7    2    0.269199    0.348369    0.484738    11.00000   -1.20000
AFIX  55
C6    1    0.033302    0.379136    0.447591    11.00000    0.10005    0.10608 =
         0.11006   -0.00509    0.00441   -0.00429
S1    6   -0.163685    0.381955    0.460747    11.00000    0.09345    0.16054 =
         0.15315    0.04472    0.02756    0.01827
AFIX  66
C27   1    0.802649    0.581875    0.297308    11.00000    0.16842    0.15822 =
         0.18701    0.01305   -0.02926   -0.02259
C32   1    0.976229    0.588603    0.320572    11.00000    0.14824    0.15273 =
         0.15230    0.00466   -0.00288   -0.00469
AFIX  43
H32   2    1.021747    0.561989    0.340005    11.00000   -1.20000
AFIX  65
C31   1    1.081776    0.635109    0.314792    11.00000    0.15323    0.15663 =
         0.19248    0.01255   -0.02479   -0.01255
AFIX  43
H31   2    1.197913    0.639610    0.330357    11.00000   -1.20000
AFIX  65
C30   1    1.013745    0.674886    0.285748    11.00000    0.15054    0.14847 =
         0.14923   -0.00101    0.00377    0.00068
C29   1    0.840165    0.668159    0.262483    11.00000    0.15777    0.15775 =
         0.15774    0.00008   -0.00011   -0.00006
AFIX  43
H29   2    0.794649    0.694773    0.243051    11.00000   -1.20000
AFIX  65
C28   1    0.734616    0.621654    0.268263    11.00000    0.15441    0.15445 =
         0.15448    0.00002   -0.00004   -0.00010
AFIX  43
H28   2    0.618479    0.617152    0.252698    11.00000   -1.20000
AFIX   0
C37   1    1.472059    0.872775    0.268139    11.00000    0.16545    0.16545 =
         0.16547    0.00002   -0.00003    0.00000
AFIX  66
C3    1    0.150661    0.389936    0.405014    11.00000    0.15608    0.02265 =
         0.17807   -0.01409   -0.00442   -0.02569
C2    1    0.343915    0.380498    0.395268    11.00000    0.16791    0.16793 =
         0.16801    0.00000    0.00008    0.00006
AFIX  43
H2    2    0.422070    0.364007    0.417068    11.00000   -1.20000
AFIX  65
C1    1    0.420357    0.395706    0.352940    11.00000    0.17180    0.17179 =
         0.17179    0.00006   -0.00001    0.00005
AFIX  43
H1    2    0.549657    0.389392    0.346420    11.00000   -1.20000
AFIX  65
N1    4    0.303546    0.420353    0.320358    11.00000    0.15690    0.08259 =
         0.21922    0.03232    0.01597   -0.01120
C5    1    0.110293    0.429792    0.330103    11.00000    0.14986    0.14977 =
         0.14986   -0.00010    0.00004   -0.00005
AFIX  43
H5    2    0.032139    0.446282    0.308303    11.00000   -1.20000
AFIX  65
C4    1    0.033848    0.414583    0.372431    11.00000    0.16319    0.16329 =
         0.15823    0.00390    0.00385    0.00114
AFIX  43
H4    2   -0.095452    0.420898    0.378951    11.00000   -1.20000
AFIX   0
C20   1    0.243312    0.445770    0.580122    11.00000    0.12858    0.16678 =
         0.24217   -0.07808    0.05428   -0.04570
AFIX 137
H20A  2    0.213143    0.448712    0.547893    11.00000   -1.50000
H20B  2    0.292641    0.410857    0.586427    11.00000   -1.50000
H20C  2    0.338674    0.471844    0.588152    11.00000   -1.50000
AFIX  66
C22   1   -0.497794    0.441321    0.694753    11.00000    0.15401    0.09750 =
         0.18005   -0.00588    0.05063    0.01105
AFIX  43
H22   2   -0.478212    0.405159    0.689980    11.00000   -1.20000
AFIX  65
C21   1   -0.364160    0.477940    0.678388    11.00000    0.12806    0.11626 =
         0.12311    0.02246    0.01436    0.01408
C25   1   -0.393428    0.531989    0.685522    11.00000    0.04936    0.11589 =
         0.12406    0.00826   -0.03419   -0.00041
AFIX  43
H25   2   -0.304018    0.556489    0.674572    11.00000   -1.20000
AFIX  65
C24   1   -0.556329    0.549418    0.709021    11.00000    0.11429    0.11438 =
         0.11444   -0.00001    0.00009    0.00003
AFIX  43
H24   2   -0.575911    0.585580    0.713794    11.00000   -1.20000
AFIX  65
N2    4   -0.689964    0.512799    0.725387    11.00000    0.05487    0.11187 =
         0.11092    0.01045   -0.02266    0.01895
C23   1   -0.660699    0.458751    0.718253    11.00000    0.11119    0.11125 =
         0.11125   -0.00004    0.00004    0.00004
AFIX  43
H23   2   -0.750110    0.434250    0.729203    11.00000   -1.20000
AFIX  66
C36   1    1.364749    0.813641    0.272475    11.00000    0.16755    0.16764 =
         0.16761    0.00002   -0.00004    0.00005
C35   1    1.167343    0.819544    0.265920    11.00000    0.17151    0.16151 =
         0.25544   -0.03143   -0.04320   -0.00354
AFIX  43
H35   2    1.116723    0.852618    0.258236    11.00000   -1.20000
AFIX  65
C34   1    1.045595    0.776013    0.270851    11.00000    0.17073    0.17078 =
         0.17079    0.00006    0.00003   -0.00002
AFIX  43
H34   2    0.913517    0.779962    0.266465    11.00000   -1.20000
AFIX  65
C33   1    1.121251    0.726579    0.282336    11.00000    0.16404    0.17219 =
         0.17126   -0.00170    0.00333   -0.00008
C39   1    1.318657    0.720675    0.288890    11.00000    0.16900    0.17194 =
         0.17536   -0.00296    0.00017   -0.00086
AFIX  43
H39   2    1.369275    0.687601    0.296575    11.00000   -1.20000
AFIX  65
C38   1    1.440407    0.764206    0.283960    11.00000    0.16485    0.16488 =
         0.16485   -0.00008    0.00009    0.00002
AFIX  43
H38   2    1.572485    0.760256    0.288346    11.00000   -1.20000
AFIX   0
C10   1   -0.290587    0.353133    0.546881    11.00000    0.12017    0.11999 =
         0.11987    0.00004    0.00022   -0.00013
AFIX 137
H10A  2   -0.229192    0.327205    0.566248    11.00000   -1.50000
H10B  2   -0.418394    0.341346    0.539306    11.00000   -1.50000
H10C  2   -0.297652    0.386479    0.562906    11.00000   -1.50000
AFIX   0
HKLF 4




REM  a in P212121 #19
REM R1 =  0.1125 for     814 Fo > 4sig(Fo)  and  0.1524 for all    1171 data
REM    414 parameters refined using    485 restraints

END

WGHT      0.1807     67.2536

REM Highest difference peak  0.239,  deepest hole -0.256,  1-sigma level  0.057
Q1    1  -0.0400  0.3775  0.6312  11.00000  0.05    0.24
;
_shelx_res_checksum              71875
_shelx_fab_file
;
-4 -8 -1 4.8302 -1.7285
-4 -7 -4 -0.9446 8.3498
-4 -7 -3 -4.9980 -6.6126
-4 -7 -2 3.1809 9.5029
-4 -7 -1 -4.8159 -4.9167
-4 -6 -6 13.8054 -1.4988
-4 -6 -5 -8.4823 -3.4140
-4 -6 -4 5.9610 -4.2836
-4 -6 -3 -4.3085 -4.5915
-4 -6 -2 1.1916 -7.1656
-4 -6 -1 -2.3364 -1.8712
-4 -5 -7 1.1639 5.4295
-4 -5 -6 7.9962 -7.7435
-4 -5 -5 -4.0341 5.6079
-4 -5 -4 3.2090 3.5290
-4 -5 -3 -5.7276 0.7013
-4 -5 -2 2.4499 5.9278
-4 -5 -1 -2.7735 -0.8322
-4 -4 -8 1.3439 3.0221
-4 -4 -7 2.9175 17.9406
-4 -4 -6 -5.2568 -3.8999
-4 -4 -5 -9.6886 4.7858
-4 -4 -4 -10.4593 -10.1432
-4 -4 -3 -15.6483 -7.2346
-4 -4 -2 -9.4854 -10.3493
-4 -4 -1 -7.3007 -4.0329
-4 -3 -8 -8.0761 0.8564
-4 -3 -7 -1.8799 5.7666
-4 -3 -6 -4.1726 -10.4196
-4 -3 -5 0.6143 -3.4016
-4 -3 -4 7.5629 -15.5997
-4 -3 -3 0.8152 -10.0980
-4 -3 -2 4.3681 -11.1317
-4 -3 -1 -0.1497 -9.3945
-4 -2 -9 5.0085 12.2466
-4 -2 -8 -10.4505 -4.6090
-4 -2 -7 11.8437 8.8239
-4 -2 -6 -12.1264 -2.4713
-4 -2 -5 9.7983 8.8218
-4 -2 -4 -5.9852 -1.6564
-4 -2 -3 3.9730 0.8705
-4 -2 -2 -2.8009 -5.8449
-4 -2 -1 0.9742 -11.0942
-4 -1 -9 3.5788 -4.1211
-4 -1 -8 -9.9917 12.6736
-4 -1 -7 3.4775 -3.1074
-4 -1 -6 -7.0983 8.7674
-4 -1 -5 -3.1922 -4.4774
-4 -1 -4 -0.3187 -0.3476
-4 -1 -3 -0.9870 -6.0011
-4 -1 -2 3.6844 -3.2237
-4 -1 -1 1.9914 -5.4144
-3 -12 -4 -5.1703 10.1919
-3 -11 -7 -7.5105 -0.8118
-3 -11 -6 -6.8014 0.5633
-3 -11 -5 -0.6633 -8.5773
-3 -11 -4 -9.1231 3.3016
-3 -11 -3 3.2709 -3.3408
-3 -11 -2 -1.1784 5.5055
-3 -10 -8 1.8491 -4.4740
-3 -10 -7 1.4331 4.9247
-3 -10 -6 6.3692 3.7089
-3 -10 -5 1.1844 1.1195
-3 -10 -4 1.3648 12.1454
-3 -10 -3 -3.7267 8.2356
-3 -10 -2 -4.7562 4.5610
-3 -10 -1 -9.3865 6.9482
-3 -9 -10 -7.2236 -6.9936
-3 -9 -9 -1.1521 5.7021
-3 -9 -8 -4.6539 -3.1200
-3 -9 -7 -4.2827 3.6253
-3 -9 -6 -1.7547 3.7034
-3 -9 -5 -9.3860 -0.3702
-3 -9 -4 -10.5746 4.9982
-3 -9 -3 -3.2425 -1.8207
-3 -9 -2 -16.7079 -3.8268
-3 -9 -1 8.3544 -0.5285
-3 -8 -11 7.8666 -5.6536
-3 -8 -10 -5.5301 0.2722
-3 -8 -9 6.9248 0.2100
-3 -8 -8 -1.6230 2.0572
-3 -8 -7 5.1122 9.2806
-3 -8 -6 4.7689 -0.7769
-3 -8 -5 -4.3601 4.8998
-3 -8 -4 1.5703 4.9245
-3 -8 -3 -10.5194 -9.2778
-3 -8 -2 -3.6040 16.5048
-3 -8 -1 -6.4629 -7.8113
-3 -7 -12 5.6437 5.6002
-3 -7 -11 -0.8394 -1.0378
-3 -7 -10 8.3514 -1.3044
-3 -7 -9 -6.8455 -0.8744
-3 -7 -8 -1.6869 4.4437
-3 -7 -7 -7.7473 5.0546
-3 -7 -6 -8.7248 6.1811
-3 -7 -5 -6.1060 3.3105
-3 -7 -4 3.6654 -5.7558
-3 -7 -3 -14.6105 -2.6385
-3 -7 -2 13.3750 -11.2065
-3 -7 -1 -26.9235 -2.1719
-3 -6 -12 2.5442 0.8650
-3 -6 -11 6.5550 9.4653
-3 -6 -10 0.6687 0.2420
-3 -6 -9 4.6589 14.4362
-3 -6 -8 -2.4344 -6.7181
-3 -6 -7 -7.3070 5.0743
-3 -6 -6 1.3993 -3.0631
-3 -6 -5 -6.2828 6.8360
-3 -6 -4 5.5366 4.1033
-3 -6 -3 -0.8207 22.8324
-3 -6 -2 2.5925 -4.3260
-3 -6 -1 -4.6466 15.3527
-3 -5 -13 0.1958 6.3967
-3 -5 -12 3.1975 0.8884
-3 -5 -11 -6.0753 5.0378
-3 -5 -10 -3.6197 1.3461
-3 -5 -9 1.6968 -0.9948
-3 -5 -8 -1.9574 -6.5673
-3 -5 -7 4.2165 2.7347
-3 -5 -6 2.9622 -10.0041
-3 -5 -5 -9.4132 8.4404
-3 -5 -4 -8.1213 -7.1905
-3 -5 -3 -15.6469 3.2910
-3 -5 -2 -18.1120 -7.7405
-3 -5 -1 -7.6098 -1.0599
-3 -4 -13 -0.0135 2.0129
-3 -4 -12 -8.4002 -5.9417
-3 -4 -11 4.5336 5.3873
-3 -4 -10 -0.7485 -0.3423
-3 -4 -9 4.9949 12.4428
-3 -4 -8 2.7442 9.6354
-3 -4 -7 2.3480 17.0451
-3 -4 -6 -2.1796 0.9363
-3 -4 -5 4.0589 12.4729
-3 -4 -4 1.1483 -6.3386
-3 -4 -3 5.0049 2.5277
-3 -4 -2 6.5356 0.4383
-3 -4 -1 0.3221 -0.9916
-3 -3 -14 2.3251 -7.5186
-3 -3 -13 -2.1615 -6.3360
-3 -3 -12 4.7900 1.4633
-3 -3 -11 3.4746 -0.0179
-3 -3 -10 -1.1792 -0.4713
-3 -3 -9 -8.0067 11.1889
-3 -3 -8 -8.7445 -12.2242
-3 -3 -7 -7.9564 9.6745
-3 -3 -6 -3.4533 -7.5500
-3 -3 -5 -2.4362 5.2196
-3 -3 -4 3.0503 6.7747
-3 -3 -3 -10.6156 7.1955
-3 -3 -2 0.6722 2.6089
-3 -3 -1 -19.3126 4.3867
-3 -2 -14 1.1021 -13.5656
-3 -2 -13 0.4497 3.4523
-3 -2 -12 -0.8712 -1.2949
-3 -2 -11 -0.6011 10.1457
-3 -2 -10 -10.2638 -0.9500
-3 -2 -9 13.1056 8.9286
-3 -2 -8 -15.4935 -4.7420
-3 -2 -7 12.7746 11.0451
-3 -2 -6 -8.7648 -2.0961
-3 -2 -5 -8.9501 18.6082
-3 -2 -4 -1.0388 -1.2160
-3 -2 -3 -12.9303 17.8695
-3 -2 -2 0.3792 -0.9202
-3 -2 -1 5.2242 6.9562
-3 -1 -13 6.7195 -7.2279
-3 -1 -12 -2.9115 -4.1247
-3 -1 -11 1.2672 0.1171
-3 -1 -10 -4.4088 2.2661
-3 -1 -9 0.1935 -0.2795
-3 -1 -8 -6.3962 6.4366
-3 -1 -7 0.4711 -3.8332
-3 -1 -6 -5.2264 -6.9502
-3 -1 -5 -1.9036 -0.2819
-3 -1 -4 -7.2567 -15.8158
-3 -1 -3 -10.0274 4.2821
-3 -1 -2 -11.1229 -1.5458
-3 -1 -1 -19.4523 2.4338
-2 -14 -6 0.7651 -0.7482
-2 -14 -5 1.9404 -6.1493
-2 -14 -4 0.5591 3.6243
-2 -13 -8 0.1232 4.6074
-2 -13 -7 -3.0829 1.4724
-2 -13 -6 1.7085 7.8510
-2 -13 -5 -5.4431 -5.2984
-2 -13 -4 2.8199 5.0685
-2 -12 -10 -5.5086 -5.9391
-2 -12 -9 -1.7772 1.1958
-2 -12 -8 -3.9286 -3.5424
-2 -12 -7 -6.1196 -3.9550
-2 -12 -6 5.9398 -0.8083
-2 -12 -5 -5.9453 -8.6202
-2 -12 -4 11.2944 0.4025
-2 -11 -11 1.5319 -4.4879
-2 -11 -10 -1.5866 4.3356
-2 -11 -9 0.1489 -5.3880
-2 -11 -8 -0.9704 3.7999
-2 -11 -7 -5.0297 4.9977
-2 -11 -6 4.9677 1.2750
-2 -11 -5 -6.8519 18.0697
-2 -11 -4 8.7980 -0.4971
-2 -10 -12 2.8755 -2.2619
-2 -10 -11 -1.4107 0.9764
-2 -10 -10 5.1820 -0.5378
-2 -10 -9 -4.0162 1.2707
-2 -10 -8 -1.7617 2.1895
-2 -10 -7 -4.3922 -1.1859
-2 -10 -6 -21.5410 -0.5780
-2 -10 -5 -2.5367 1.1924
-2 -10 -4 -22.2416 -3.3861
-2 -10 -3 0.8103 11.4988
-2 -9 -13 3.1057 2.7692
-2 -9 -12 -1.0434 -2.0211
-2 -9 -11 1.7825 0.8042
-2 -9 -10 -5.8571 -0.3129
-2 -9 -9 -6.1488 -2.0689
-2 -9 -8 -4.7186 -2.4361
-2 -9 -7 -11.2184 -12.5378
-2 -9 -6 -1.1961 -1.7088
-2 -9 -5 -5.8106 -24.5522
-2 -9 -4 -6.7596 -2.1598
-2 -9 -3 5.5504 -11.9556
-2 -9 -2 -17.1451 -4.4712
-2 -8 -14 -0.3471 1.5724
-2 -8 -13 5.9570 0.5178
-2 -8 -12 1.0267 2.0473
-2 -8 -11 -0.4148 -3.1695
-2 -8 -10 6.0394 -0.8165
-2 -8 -9 3.0001 -2.6575
-2 -8 -8 6.4356 -2.0861
-2 -8 -7 5.2095 -0.7020
-2 -8 -6 7.2353 -2.5282
-2 -8 -5 -3.6410 -6.7191
-2 -8 -4 11.5117 0.4550
-2 -8 -3 -5.0391 -8.0175
-2 -8 -2 9.5974 4.3879
-2 -7 -15 1.3032 8.4825
-2 -7 -14 -4.2981 5.3065
-2 -7 -13 2.1597 0.7562
-2 -7 -12 -2.3945 -0.4663
-2 -7 -11 2.3545 1.1690
-2 -7 -10 -3.9411 0.5407
-2 -7 -9 -2.6919 3.0548
-2 -7 -8 -9.2223 8.9542
-2 -7 -7 -10.2765 -0.3828
-2 -7 -6 -1.3109 1.5361
-2 -7 -5 -9.4211 0.6847
-2 -7 -4 10.0666 -19.0622
-2 -7 -3 -0.2490 5.7737
-2 -7 -2 -2.5891 -21.7942
-2 -7 -1 2.4806 7.1051
-2 -6 -15 2.6061 -4.3221
-2 -6 -14 -3.3643 1.9330
-2 -6 -13 4.6873 -4.7217
-2 -6 -12 3.2601 4.1769
-2 -6 -11 0.5539 -1.6803
-2 -6 -10 2.6248 2.7172
-2 -6 -9 -6.3837 -7.3996
-2 -6 -8 1.3007 -1.4627
-2 -6 -7 -10.5342 -7.2676
-2 -6 -6 -3.1219 -9.8726
-2 -6 -5 0.5559 5.8221
-2 -6 -4 -8.4732 -8.3087
-2 -6 -3 21.5103 5.8863
-2 -6 -2 -2.0342 2.1629
-2 -6 -1 15.5069 -9.9036
-2 -5 -16 -5.3683 9.1006
-2 -5 -15 6.0174 -4.3024
-2 -5 -14 0.3962 12.9096
-2 -5 -13 0.0754 -2.8604
-2 -5 -12 -5.2785 6.1653
-2 -5 -11 -0.7511 -1.9110
-2 -5 -10 -5.7890 -0.8098
-2 -5 -9 -3.6100 -1.3198
-2 -5 -8 0.8061 -6.8349
-2 -5 -7 -3.5293 -2.5636
-2 -5 -6 -1.6856 -15.7565
-2 -5 -5 5.8529 -8.9784
-2 -5 -4 -3.7838 -10.8728
-2 -5 -3 6.7021 -9.2480
-2 -5 -2 5.4993 3.1149
-2 -5 -1 1.1691 0.0582
-2 -4 -15 -0.2249 -5.5597
-2 -4 -14 5.5730 -2.3106
-2 -4 -13 -3.3788 -2.5906
-2 -4 -12 11.9272 -5.9525
-2 -4 -11 -9.8751 -7.9609
-2 -4 -10 9.4943 -3.2572
-2 -4 -9 -8.3600 -8.0143
-2 -4 -8 3.2201 -5.5987
-2 -4 -7 3.8463 -0.6904
-2 -4 -6 0.3801 -1.7540
-2 -4 -5 12.8746 3.2969
-2 -4 -4 -0.1986 6.7654
-2 -4 -3 11.1575 4.6704
-2 -4 -2 2.4502 5.9513
-2 -4 -1 3.9758 7.2124
-2 -3 -14 -3.8286 21.3007
-2 -3 -13 18.6998 4.1634
-2 -3 -12 -12.5095 -5.2415
-2 -3 -11 7.8074 10.6337
-2 -3 -10 -0.2369 -20.2730
-2 -3 -9 4.6846 3.4697
-2 -3 -8 6.9783 -9.9972
-2 -3 -7 7.9012 1.5595
-2 -3 -6 -4.0265 -4.3948
-2 -3 -5 0.6526 -1.7909
-2 -3 -4 -7.5661 -4.7938
-2 -3 -3 -3.4981 -6.2004
-2 -3 -2 -1.5101 0.6034
-2 -3 -1 -0.7687 -0.2817
-2 -2 -12 4.8844 2.7345
-2 -2 -11 17.4074 -26.6615
-2 -2 -10 5.4628 -10.9424
-2 -2 -9 9.2133 -3.9721
-2 -2 -8 4.2914 5.3764
-2 -2 -7 0.4266 5.7780
-2 -2 -6 -4.9131 12.9765
-2 -2 -5 7.8997 -2.2121
-2 -2 -4 -4.0546 4.8572
-2 -2 -3 6.1292 -2.5075
-2 -2 -2 1.6566 3.8520
-2 -2 -1 -0.3520 0.9998
-2 -1 -9 12.7244 18.6073
-2 -1 -8 8.8923 -6.3560
-2 -1 -7 -9.7113 9.7916
-2 -1 -6 -6.6979 -4.2655
-2 -1 -5 -10.8417 -4.6021
-2 -1 -4 -4.2824 -0.2017
-2 -1 -3 -5.8519 -8.5185
-2 -1 -2 0.8063 -2.6725
-2 -1 -1 -3.5201 -0.7746
-1 -15 -7 6.8519 -0.8787
-1 -15 -6 -1.7073 -0.2933
-1 -15 -5 -1.4748 -6.6040
-1 -14 -9 -2.3612 -1.6685
-1 -14 -8 -7.3639 0.3327
-1 -14 -7 -0.0942 1.5329
-1 -14 -6 -1.3823 -0.6531
-1 -14 -5 1.7030 1.0473
-1 -13 -11 3.8424 -1.7014
-1 -13 -10 4.2775 5.4825
-1 -13 -9 3.8969 -3.9584
-1 -13 -8 -0.7085 2.1302
-1 -13 -7 5.0668 -1.7462
-1 -13 -6 -6.0217 1.6046
-1 -13 -5 3.2466 0.6819
-1 -12 -12 5.5881 7.0945
-1 -12 -11 -4.9283 7.7892
-1 -12 -10 6.2171 1.2638
-1 -12 -9 -6.2542 0.0361
-1 -12 -8 0.6444 0.2154
-1 -12 -7 0.4238 -7.5445
-1 -12 -6 -1.8020 -0.4539
-1 -12 -5 2.6362 -6.3980
-1 -12 -4 1.0451 -1.0220
-1 -11 -13 -3.1580 2.8032
-1 -11 -12 -7.7801 5.1532
-1 -11 -11 -3.2680 6.6534
-1 -11 -10 -7.3240 -2.1658
-1 -11 -9 -0.9094 4.2684
-1 -11 -8 0.3686 -2.7683
-1 -11 -7 2.8861 -1.5292
-1 -11 -6 4.5747 6.4713
-1 -11 -5 2.5363 1.0727
-1 -11 -4 5.4306 7.8194
-1 -10 -14 5.0524 3.6851
-1 -10 -13 -6.3732 0.4762
-1 -10 -12 5.7319 0.9278
-1 -10 -11 -2.7801 -4.0477
-1 -10 -10 2.3214 -4.2935
-1 -10 -9 4.4457 -5.5180
-1 -10 -8 0.5425 -3.9665
-1 -10 -7 2.2165 -2.6607
-1 -10 -6 2.5596 2.4793
-1 -10 -5 -4.9460 4.1803
-1 -10 -4 -8.3148 1.7644
-1 -10 -3 -5.2506 6.8651
-1 -9 -15 1.1658 2.4764
-1 -9 -14 -0.3081 2.2768
-1 -9 -13 -0.7691 2.7111
-1 -9 -12 -1.0876 4.0081
-1 -9 -11 0.6866 5.5443
-1 -9 -10 -1.0061 4.9142
-1 -9 -9 4.6930 1.1505
-1 -9 -8 -0.6351 7.3470
-1 -9 -7 0.5292 -0.0247
-1 -9 -6 -1.5145 8.9166
-1 -9 -5 -7.7947 0.1949
-1 -9 -4 -0.2269 4.1232
-1 -9 -3 -15.8849 -11.8578
-1 -8 -16 -1.6604 3.8622
-1 -8 -15 -4.5772 0.4284
-1 -8 -14 7.3274 4.5646
-1 -8 -13 -10.6521 0.1878
-1 -8 -12 8.2260 0.6285
-1 -8 -11 -3.5033 1.5538
-1 -8 -10 4.4040 -0.4892
-1 -8 -9 1.3588 -1.4540
-1 -8 -8 3.5394 -1.4285
-1 -8 -7 -9.8974 -4.7581
-1 -8 -6 2.8893 -3.5546
-1 -8 -5 -16.3723 1.9011
-1 -8 -4 2.2812 -5.1984
-1 -8 -3 -4.2284 10.5894
-1 -8 -2 2.8789 -11.4111
-1 -7 -16 1.7020 1.3782
-1 -7 -15 -4.4019 0.1147
-1 -7 -14 3.9556 -3.1310
-1 -7 -13 -0.6445 6.1899
-1 -7 -12 0.0697 -0.4066
-1 -7 -11 6.4749 7.8987
-1 -7 -10 -5.3892 15.0650
-1 -7 -9 8.1616 2.0821
-1 -7 -8 0.0479 7.8006
-1 -7 -7 0.7384 2.0631
-1 -7 -6 3.4203 -12.4343
-1 -7 -5 -8.7723 5.8336
-1 -7 -4 -3.0010 -7.0858
-1 -7 -3 -11.7368 -1.1878
-1 -7 -2 -5.4160 6.5169
-1 -6 -17 -2.6992 0.3107
-1 -6 -16 2.6520 2.0508
-1 -6 -15 -9.3072 -2.5889
-1 -6 -14 5.5194 -0.3339
-1 -6 -13 -1.9204 -0.6245
-1 -6 -12 0.4839 1.6873
-1 -6 -11 -8.6863 -0.6170
-1 -6 -10 0.3101 12.4697
-1 -6 -9 -18.0416 -0.6699
-1 -6 -8 1.3967 6.3373
-1 -6 -7 -2.1518 3.1819
-1 -6 -6 -5.7985 -12.4120
-1 -6 -5 2.2590 4.4484
-1 -6 -4 -4.4767 -14.1590
-1 -6 -3 -11.8424 2.0305
-1 -6 -2 5.4499 -3.2874
-1 -5 -15 -15.8148 3.3121
-1 -5 -14 17.0217 -3.9868
-1 -5 -13 8.6646 -1.1906
-1 -5 -12 8.1258 3.0449
-1 -5 -11 9.6527 -3.1660
-1 -5 -10 -3.4604 -4.1622
-1 -5 -9 -7.4923 -1.8433
-1 -5 -8 -1.4928 -4.0897
-1 -5 -7 1.5875 -6.7575
-1 -5 -6 3.5445 0.4684
-1 -5 -5 9.9591 -7.8926
-1 -5 -4 4.3252 -8.7958
-1 -5 -3 -5.1800 1.0359
-1 -5 -2 3.3769 -9.8570
-1 -5 -1 -15.7962 3.3570
-1 -4 -14 3.2602 -10.2028
-1 -4 -13 -0.7462 14.8332
-1 -4 -12 12.1598 26.1996
-1 -4 -11 6.8551 -1.4317
-1 -4 -10 9.2046 12.7868
-1 -4 -9 2.9229 -1.8758
-1 -4 -8 4.5380 -10.3360
-1 -4 -7 -6.9270 13.1577
-1 -4 -6 5.2018 -4.3487
-1 -4 -5 -2.9082 15.6483
-1 -4 -4 1.5026 -4.6081
-1 -4 -3 1.8951 7.2819
-1 -4 -2 -2.9497 -10.2647
-1 -3 -12 10.7371 15.4718
-1 -3 -11 -18.8322 14.2387
-1 -3 -10 14.1179 25.4430
-1 -3 -9 5.7943 2.8770
-1 -3 -8 -5.6103 1.7296
-1 -3 -7 14.0973 -7.5138
-1 -3 -6 -14.4993 -15.8992
-1 -3 -5 0.9549 -4.1446
-1 -3 -4 1.4302 -7.3549
-1 -3 -3 -0.7803 -2.3449
-1 -2 -8 11.2262 6.8872
-1 -2 -7 7.7154 -3.1975
-1 -2 -6 8.6289 -10.5294
-1 -2 -5 18.4339 5.6495
-1 -2 -4 -0.2094 -23.5145
-1 -1 -6 1.9227 12.1290
-1 -1 -5 28.7274 -12.1164
-1 -1 -4 -6.0332 7.7950
0 2 6 -3.2838 0.0756
0 3 5 -0.0092 -22.2651
0 3 6 0.0820 -19.1070
0 3 7 0.1017 -4.9499
0 3 8 -0.0173 -10.4295
0 4 4 38.3031 0.1699
0 4 5 38.2951 0.0044
0 4 6 16.2206 0.0599
0 4 7 2.5678 -0.0067
0 4 8 -1.4962 -0.1026
0 4 9 -1.3237 -0.0951
0 4 10 7.0160 -0.0166
0 4 11 -0.3945 0.0047
0 4 12 4.2477 0.0248
0 5 3 -0.0777 37.0026
0 5 4 -0.1355 81.8947
0 5 5 -0.0276 25.8827
0 5 6 -0.0254 9.4640
0 5 7 0.1022 2.6720
0 5 8 0.0000 -23.4566
0 5 9 0.0308 -1.3330
0 5 10 -0.0583 -9.5793
0 5 11 -0.0327 14.4320
0 5 12 -0.0379 -1.9231
0 5 13 0.0586 4.7876
0 5 14 0.0270 -6.2856
0 6 2 -8.4749 0.0565
0 6 3 -95.7012 -0.0734
0 6 4 -11.4077 0.0508
0 6 5 -33.8515 0.0547
0 6 6 -12.6420 0.0423
0 6 7 21.3268 0.0630
0 6 8 1.5611 -0.0393
0 6 9 15.7721 -0.0426
0 6 10 4.7235 -0.0857
0 6 11 -2.7940 0.0021
0 6 12 -6.3689 0.0044
0 6 13 -0.7387 0.0524
0 6 14 -1.5645 0.0049
0 6 15 10.0240 0.0037
0 6 16 6.9227 -0.0604
0 7 2 -0.0127 -43.2110
0 7 3 0.0088 4.9531
0 7 4 -0.0802 -25.8326
0 7 5 -0.0031 -8.1268
0 7 6 -0.0418 12.5731
0 7 7 0.0229 -14.2487
0 7 8 0.0302 9.0896
0 7 9 0.0267 1.0696
0 7 10 -0.0106 -12.7013
0 7 11 -0.0261 5.6269
0 7 12 -0.0274 -8.7179
0 7 13 -0.0221 -5.6997
0 7 14 0.0386 5.0741
0 7 15 0.0017 -2.4511
0 7 16 0.0198 9.2552
0 7 17 -0.0066 6.4585
0 8 2 7.3021 0.0141
0 8 3 -5.5778 -0.0303
0 8 4 -4.6614 0.0049
0 8 5 -16.1958 0.0402
0 8 6 6.5633 0.0073
0 8 7 -12.4913 0.0708
0 8 8 10.4643 -0.0198
0 8 9 9.6530 -0.0221
0 8 10 0.1034 -0.0525
0 8 11 15.5710 -0.0157
0 8 12 0.9188 -0.0065
0 8 13 1.5074 0.0473
0 8 14 5.3827 0.0122
0 8 15 -3.3516 -0.0172
0 8 16 -2.3496 -0.0273
0 9 3 0.0352 -10.2356
0 9 4 -0.0179 -14.3987
0 9 5 -0.0162 -13.8976
0 9 6 -0.0314 -10.6185
0 9 7 -0.0179 0.4666
0 9 8 0.0399 -2.6812
0 9 9 0.0184 3.9852
0 9 10 0.0239 5.7782
0 9 11 -0.0290 -1.5396
0 9 12 -0.0472 5.6697
0 9 13 -0.0385 -1.0882
0 9 14 0.0471 0.2989
0 9 15 0.0216 1.6826
0 9 16 0.0508 -1.6947
0 10 3 5.9290 0.0014
0 10 4 7.8321 -0.0080
0 10 5 2.2438 0.0044
0 10 6 3.9374 -0.0284
0 10 7 -0.8605 0.0294
0 10 8 -4.8061 0.0201
0 10 9 0.6135 0.0029
0 10 10 -3.3372 -0.0152
0 10 11 -1.2693 -0.0529
0 10 12 4.2910 -0.0377
0 10 13 -3.9008 0.0242
0 10 14 1.8227 0.0565
0 10 15 0.0717 0.0465
0 11 4 0.0098 -3.9440
0 11 5 0.0081 -11.7540
0 11 6 -0.0020 -5.7617
0 11 7 -0.0303 -4.0596
0 11 8 -0.0026 -1.7862
0 11 9 -0.0263 -6.7885
0 11 10 0.0181 2.0747
0 11 11 0.0219 -2.4066
0 11 12 -0.0328 -0.9615
0 11 13 -0.0355 3.1511
0 11 14 -0.0300 -2.5699
0 12 4 17.3293 0.0069
0 12 5 9.0089 0.0165
0 12 6 3.0253 -0.0075
0 12 7 2.4253 -0.0154
0 12 8 -0.5974 0.0020
0 12 9 -3.2013 0.0057
0 12 10 -0.6123 0.0166
0 12 11 -2.8870 -0.0170
0 12 12 -3.0586 -0.0190
0 12 13 -0.1998 -0.0285
0 13 5 0.0229 -4.5847
0 13 6 0.0187 -4.0465
0 13 7 -0.0063 7.1802
0 13 8 -0.0050 -1.4301
0 13 9 -0.0548 4.0147
0 13 10 -0.0496 1.7125
0 13 11 0.0232 -5.1266
0 14 5 24.4802 0.0232
0 14 6 -10.5631 0.0401
0 14 7 12.4930 0.0225
0 14 8 -25.6036 -0.0490
0 14 9 -5.1006 -0.0114
0 14 10 -9.0697 0.0038
0 15 6 0.0174 19.6651
0 15 7 0.0311 -16.4040
0 15 8 0.0269 5.4806
1 0 4 21.2329 0.0492
1 1 4 -6.0332 -7.7950
1 1 5 28.7274 12.1164
1 2 4 -0.2094 23.5145
1 2 5 18.4339 -5.6495
1 2 6 8.6289 10.5294
1 2 7 7.7154 3.1975
1 3 2 11.3113 1.3497
1 3 3 -0.7803 2.3449
1 3 4 1.4302 7.3549
1 3 5 0.9549 4.1446
1 3 6 -14.4993 15.8992
1 3 7 14.0973 7.5138
1 3 8 -5.6103 -1.7296
1 3 9 5.7943 -2.8770
1 3 10 14.1179 -25.4430
1 4 2 -2.9497 10.2647
1 4 3 1.8951 -7.2819
1 4 4 1.5026 4.6081
1 4 5 -2.9082 -15.6483
1 4 6 5.2018 4.3487
1 4 7 -6.9270 -13.1577
1 4 8 4.5380 10.3360
1 4 9 2.9229 1.8758
1 4 10 9.2046 -12.7868
1 4 11 6.8551 1.4317
1 4 12 12.1598 -26.1996
1 4 13 -0.7462 -14.8332
1 4 14 3.2602 10.2028
1 5 0 -0.2030 3.0777
1 5 1 -15.7962 -3.3570
1 5 2 3.3769 9.8570
1 5 3 -5.1800 -1.0359
1 5 4 4.3252 8.7958
1 5 5 9.9591 7.8926
1 5 6 3.5445 -0.4684
1 5 7 1.5875 6.7575
1 5 8 -1.4928 4.0897
1 5 9 -7.4923 1.8433
1 5 10 -3.4604 4.1622
1 5 11 9.6527 3.1660
1 5 12 8.1258 -3.0449
1 5 13 8.6646 1.1906
1 5 14 17.0217 3.9868
1 5 15 -15.8148 -3.3121
1 6 1 -11.1467 -0.5067
1 6 2 5.4499 3.2874
1 6 3 -11.8424 -2.0305
1 6 4 -4.4767 14.1590
1 6 5 2.2590 -4.4484
1 6 6 -5.7985 12.4120
1 6 7 -2.1518 -3.1819
1 6 8 1.3967 -6.3373
1 6 9 -18.0416 0.6699
1 6 10 0.3101 -12.4697
1 6 11 -8.6863 0.6170
1 6 12 0.4839 -1.6873
1 6 13 -1.9204 0.6245
1 6 14 5.5194 0.3339
1 6 15 -9.3072 2.5889
1 6 16 2.6520 -2.0508
1 6 17 -2.6992 -0.3107
1 7 1 -9.1302 4.3303
1 7 2 -5.4160 -6.5169
1 7 3 -11.7368 1.1878
1 7 4 -3.0010 7.0858
1 7 5 -8.7723 -5.8336
1 7 6 3.4203 12.4343
1 7 7 0.7384 -2.0631
1 7 8 0.0479 -7.8006
1 7 9 8.1616 -2.0821
1 7 10 -5.3892 -15.0650
1 7 11 6.4749 -7.8987
1 7 12 0.0697 0.4066
1 7 13 -0.6445 -6.1899
1 7 14 3.9556 3.1310
1 7 15 -4.4019 -0.1147
1 7 16 1.7020 -1.3782
1 8 2 2.8789 11.4111
1 8 3 -4.2284 -10.5894
1 8 4 2.2812 5.1984
1 8 5 -16.3723 -1.9011
1 8 6 2.8893 3.5546
1 8 7 -9.8974 4.7581
1 8 8 3.5394 1.4285
1 8 9 1.3588 1.4540
1 8 10 4.4040 0.4892
1 8 11 -3.5033 -1.5538
1 8 12 8.2260 -0.6285
1 8 13 -10.6521 -0.1878
1 8 14 7.3274 -4.5646
1 8 15 -4.5772 -0.4284
1 8 16 -1.6604 -3.8622
1 9 2 2.7712 5.8893
1 9 3 -15.8849 11.8578
1 9 4 -0.2269 -4.1232
1 9 5 -7.7947 -0.1949
1 9 6 -1.5145 -8.9166
1 9 7 0.5292 0.0247
1 9 8 -0.6351 -7.3470
1 9 9 4.6930 -1.1505
1 9 10 -1.0061 -4.9142
1 9 11 0.6866 -5.5443
1 9 12 -1.0876 -4.0081
1 9 13 -0.7691 -2.7111
1 9 14 -0.3081 -2.2768
1 9 15 1.1658 -2.4764
1 10 2 -18.6599 6.5086
1 10 3 -5.2506 -6.8651
1 10 4 -8.3148 -1.7644
1 10 5 -4.9460 -4.1803
1 10 6 2.5596 -2.4793
1 10 7 2.2165 2.6607
1 10 8 0.5425 3.9665
1 10 9 4.4457 5.5180
1 10 10 2.3214 4.2935
1 10 11 -2.7801 4.0477
1 10 12 5.7319 -0.9278
1 10 13 -6.3732 -0.4762
1 10 14 5.0524 -3.6851
1 11 3 -11.6004 -9.3849
1 11 4 5.4306 -7.8194
1 11 5 2.5363 -1.0727
1 11 6 4.5747 -6.4713
1 11 7 2.8861 1.5292
1 11 8 0.3686 2.7683
1 11 9 -0.9094 -4.2684
1 11 10 -7.3240 2.1658
1 11 11 -3.2680 -6.6534
1 11 12 -7.7801 -5.1532
1 11 13 -3.1580 -2.8032
1 12 4 1.0451 1.0220
1 12 5 2.6362 6.3980
1 12 6 -1.8020 0.4539
1 12 7 0.4238 7.5445
1 12 8 0.6444 -0.2154
1 12 9 -6.2542 -0.0361
1 12 10 6.2171 -1.2638
1 12 11 -4.9283 -7.7892
1 12 12 5.5881 -7.0945
1 13 4 -4.0172 -4.0026
1 13 5 3.2466 -0.6819
1 13 6 -6.0217 -1.6046
1 13 7 5.0668 1.7462
1 13 8 -0.7085 -2.1302
1 13 9 3.8969 3.9584
1 13 10 4.2775 -5.4825
1 13 11 3.8424 1.7014
1 14 5 1.7030 -1.0473
1 14 6 -1.3823 0.6531
1 14 7 -0.0942 -1.5329
1 14 8 -7.3639 -0.3327
1 14 9 -2.3612 1.6685
1 15 5 -1.4748 6.6040
1 15 6 -1.7073 0.2933
1 15 7 6.8519 0.8787
2 0 0 0.2224 -0.2179
2 0 1 -0.2209 -2.5295
2 0 2 7.0991 -0.2209
2 0 3 0.1413 4.1587
2 0 4 6.8808 -0.0127
2 0 5 0.2006 10.5698
2 0 6 -10.2217 0.1019
2 0 7 0.0367 -3.4320
2 0 8 -21.9871 -0.1004
2 0 9 -0.0118 -32.4075
2 1 0 2.2532 -0.3764
2 1 1 -3.5201 0.7746
2 1 2 0.8063 2.6725
2 1 3 -5.8519 8.5185
2 1 4 -4.2824 0.2017
2 1 5 -10.8417 4.6021
2 1 6 -6.6979 4.2655
2 1 7 -9.7113 -9.7916
2 1 8 8.8923 6.3560
2 1 9 12.7244 -18.6073
2 1 10 32.1786 -6.6012
2 2 0 2.3416 -0.8071
2 2 1 -0.3520 -0.9998
2 2 2 1.6566 -3.8520
2 2 3 6.1292 2.5075
2 2 4 -4.0546 -4.8572
2 2 5 7.8997 2.2121
2 2 6 -4.9131 -12.9765
2 2 7 0.4266 -5.7780
2 2 8 4.2914 -5.3764
2 2 9 9.2133 3.9721
2 2 10 5.4628 10.9424
2 2 11 17.4074 26.6615
2 2 12 4.8844 -2.7345
2 3 0 0.8521 -1.2157
2 3 1 -0.7687 0.2817
2 3 2 -1.5101 -0.6034
2 3 3 -3.4981 6.2004
2 3 4 -7.5661 4.7938
2 3 5 0.6526 1.7909
2 3 6 -4.0265 4.3948
2 3 7 7.9012 -1.5595
2 3 8 6.9783 9.9972
2 3 9 4.6846 -3.4697
2 3 10 -0.2369 20.2730
2 3 11 7.8074 -10.6337
2 3 12 -12.5095 5.2415
2 3 13 18.6998 -4.1634
2 3 14 -3.8286 -21.3007
2 4 0 4.7889 -0.4506
2 4 1 3.9758 -7.2124
2 4 2 2.4502 -5.9513
2 4 3 11.1575 -4.6704
2 4 4 -0.1986 -6.7654
2 4 5 12.8746 -3.2969
2 4 6 0.3801 1.7540
2 4 7 3.8463 0.6904
2 4 8 3.2201 5.5987
2 4 9 -8.3600 8.0143
2 4 10 9.4943 3.2572
2 4 11 -9.8751 7.9609
2 4 12 11.9272 5.9525
2 4 13 -3.3788 2.5906
2 4 14 5.5730 2.3106
2 4 15 -0.2249 5.5597
2 5 0 12.2690 -1.3385
2 5 1 1.1691 -0.0582
2 5 2 5.4993 -3.1149
2 5 3 6.7021 9.2480
2 5 4 -3.7838 10.8728
2 5 5 5.8529 8.9784
2 5 6 -1.6856 15.7565
2 5 7 -3.5293 2.5636
2 5 8 0.8061 6.8349
2 5 9 -3.6100 1.3198
2 5 10 -5.7890 0.8098
2 5 11 -0.7511 1.9110
2 5 12 -5.2785 -6.1653
2 5 13 0.0754 2.8604
2 5 14 0.3962 -12.9096
2 5 15 6.0174 4.3024
2 5 16 -5.3683 -9.1006
2 6 0 5.0287 0.0463
2 6 1 15.5069 9.9036
2 6 2 -2.0342 -2.1629
2 6 3 21.5103 -5.8863
2 6 4 -8.4732 8.3087
2 6 5 0.5559 -5.8221
2 6 6 -3.1219 9.8726
2 6 7 -10.5342 7.2676
2 6 8 1.3007 1.4627
2 6 9 -6.3837 7.3996
2 6 10 2.6248 -2.7172
2 6 11 0.5539 1.6803
2 6 12 3.2601 -4.1769
2 6 13 4.6873 4.7217
2 6 14 -3.3643 -1.9330
2 6 15 2.6061 4.3221
2 7 0 -16.9002 -1.0597
2 7 1 2.4806 -7.1051
2 7 2 -2.5891 21.7942
2 7 3 -0.2490 -5.7737
2 7 4 10.0666 19.0622
2 7 5 -9.4211 -0.6847
2 7 6 -1.3109 -1.5361
2 7 7 -10.2765 0.3828
2 7 8 -9.2223 -8.9542
2 7 9 -2.6919 -3.0548
2 7 10 -3.9411 -0.5407
2 7 11 2.3545 -1.1690
2 7 12 -2.3945 0.4663
2 7 13 2.1597 -0.7562
2 7 14 -4.2981 -5.3065
2 7 15 1.3032 -8.4825
2 8 0 5.5478 0.3875
2 8 1 -0.4013 -2.3004
2 8 2 9.5974 -4.3879
2 8 3 -5.0391 8.0175
2 8 4 11.5117 -0.4550
2 8 5 -3.6410 6.7191
2 8 6 7.2353 2.5282
2 8 7 5.2095 0.7020
2 8 8 6.4356 2.0861
2 8 9 3.0001 2.6575
2 8 10 6.0394 0.8165
2 8 11 -0.4148 3.1695
2 8 12 1.0267 -2.0473
2 8 13 5.9570 -0.5178
2 8 14 -0.3471 -1.5724
2 9 0 -21.6214 -0.6711
2 9 1 5.4414 -17.6690
2 9 2 -17.1451 4.4712
2 9 3 5.5504 11.9556
2 9 4 -6.7596 2.1598
2 9 5 -5.8106 24.5522
2 9 6 -1.1961 1.7088
2 9 7 -11.2184 12.5378
2 9 8 -4.7186 2.4361
2 9 9 -6.1488 2.0689
2 9 10 -5.8571 0.3129
2 9 11 1.7825 -0.8042
2 9 12 -1.0434 2.0211
2 9 13 3.1057 -2.7692
2 10 1 1.4996 -19.4542
2 10 2 14.9553 2.1134
2 10 3 0.8103 -11.4988
2 10 4 -22.2416 3.3861
2 10 5 -2.5367 -1.1924
2 10 6 -21.5410 0.5780
2 10 7 -4.3922 1.1859
2 10 8 -1.7617 -2.1895
2 10 9 -4.0162 -1.2707
2 10 10 5.1820 0.5378
2 10 11 -1.4107 -0.9764
2 10 12 2.8755 2.2619
2 11 1 1.8108 21.3824
2 11 2 -0.1999 1.4115
2 11 3 -0.6647 -5.9689
2 11 4 8.7980 0.4971
2 11 5 -6.8519 -18.0697
2 11 6 4.9677 -1.2750
2 11 7 -5.0297 -4.9977
2 11 8 -0.9704 -3.7999
2 11 9 0.1489 5.3880
2 11 10 -1.5866 -4.3356
2 11 11 1.5319 4.4879
2 12 2 0.4585 -0.5633
2 12 3 1.7225 0.9313
2 12 4 11.2944 -0.4025
2 12 5 -5.9453 8.6202
2 12 6 5.9398 0.8083
2 12 7 -6.1196 3.9550
2 12 8 -3.9286 3.5424
2 12 9 -1.7772 -1.1958
2 12 10 -5.5086 5.9391
2 13 3 -1.2713 3.6799
2 13 4 2.8199 -5.0685
2 13 5 -5.4431 5.2984
2 13 6 1.7085 -7.8510
2 13 7 -3.0829 -1.4724
2 13 8 0.1232 -4.6074
2 14 3 3.2519 -2.0116
2 14 4 0.5591 -3.6243
2 14 5 1.9404 6.1493
2 14 6 0.7651 0.7482
3 0 1 -0.0989 3.9779
3 0 2 -3.6236 -0.3475
3 0 3 -0.1279 -1.9318
3 0 4 -2.3184 -0.1537
3 0 5 -0.0479 -10.3943
3 0 6 -1.1471 0.1300
3 0 7 -0.1222 -3.8364
3 0 8 -7.6834 0.0898
3 0 9 -0.1449 -2.0737
3 0 10 -10.7325 -0.0220
3 0 11 -0.0465 -2.5316
3 1 0 -1.1717 -10.5446
3 1 1 -19.4523 -2.4338
3 1 2 -11.1229 1.5458
3 1 3 -10.0274 -4.2821
3 1 4 -7.2567 15.8158
3 1 5 -1.9036 0.2819
3 1 6 -5.2264 6.9502
3 1 7 0.4711 3.8332
3 1 8 -6.3962 -6.4366
3 1 9 0.1935 0.2795
3 1 10 -4.4088 -2.2661
3 1 11 1.2672 -0.1171
3 1 12 -2.9115 4.1247
3 1 13 6.7195 7.2279
3 2 0 0.0634 -0.4876
3 2 1 5.2242 -6.9562
3 2 2 0.3792 0.9202
3 2 3 -12.9303 -17.8695
3 2 4 -1.0388 1.2160
3 2 5 -8.9501 -18.6082
3 2 6 -8.7648 2.0961
3 2 7 12.7746 -11.0451
3 2 8 -15.4935 4.7420
3 2 9 13.1056 -8.9286
3 2 10 -10.2638 0.9500
3 2 11 -0.6011 -10.1457
3 2 12 -0.8712 1.2949
3 2 13 0.4497 -3.4523
3 2 14 1.1021 13.5656
3 3 0 -0.7555 6.2392
3 3 1 -19.3126 -4.3867
3 3 2 0.6722 -2.6089
3 3 3 -10.6156 -7.1955
3 3 4 3.0503 -6.7747
3 3 5 -2.4362 -5.2196
3 3 6 -3.4533 7.5500
3 3 7 -7.9564 -9.6745
3 3 8 -8.7445 12.2242
3 3 9 -8.0067 -11.1889
3 3 10 -1.1792 0.4713
3 3 11 3.4746 0.0179
3 3 12 4.7900 -1.4633
3 3 13 -2.1615 6.3360
3 3 14 2.3251 7.5186
3 4 0 -0.0462 -5.5982
3 4 1 0.3221 0.9916
3 4 2 6.5356 -0.4383
3 4 3 5.0049 -2.5277
3 4 4 1.1483 6.3386
3 4 5 4.0589 -12.4729
3 4 6 -2.1796 -0.9363
3 4 7 2.3480 -17.0451
3 4 8 2.7442 -9.6354
3 4 9 4.9949 -12.4428
3 4 10 -0.7485 0.3423
3 4 11 4.5336 -5.3873
3 4 12 -8.4002 5.9417
3 4 13 -0.0135 -2.0129
3 5 0 -0.1137 9.8014
3 5 1 -7.6098 1.0599
3 5 2 -18.1120 7.7405
3 5 3 -15.6469 -3.2910
3 5 4 -8.1213 7.1905
3 5 5 -9.4132 -8.4404
3 5 6 2.9622 10.0041
3 5 7 4.2165 -2.7347
3 5 8 -1.9574 6.5673
3 5 9 1.6968 0.9948
3 5 10 -3.6197 -1.3461
3 5 11 -6.0753 -5.0378
3 5 12 3.1975 -0.8884
3 5 13 0.1958 -6.3967
3 6 0 -0.1663 13.6122
3 6 1 -4.6466 -15.3527
3 6 2 2.5925 4.3260
3 6 3 -0.8207 -22.8324
3 6 4 5.5366 -4.1033
3 6 5 -6.2828 -6.8360
3 6 6 1.3993 3.0631
3 6 7 -7.3070 -5.0743
3 6 8 -2.4344 6.7181
3 6 9 4.6589 -14.4362
3 6 10 0.6687 -0.2420
3 6 11 6.5550 -9.4653
3 6 12 2.5442 -0.8650
3 7 0 0.4811 9.2252
3 7 1 -26.9235 2.1719
3 7 2 13.3750 11.2065
3 7 3 -14.6105 2.6385
3 7 4 3.6654 5.7558
3 7 5 -6.1060 -3.3105
3 7 6 -8.7248 -6.1811
3 7 7 -7.7473 -5.0546
3 7 8 -1.6869 -4.4437
3 7 9 -6.8455 0.8744
3 7 10 8.3514 1.3044
3 7 11 -0.8394 1.0378
3 7 12 5.6437 -5.6002
3 8 0 -0.0733 -21.5221
3 8 1 -6.4629 7.8113
3 8 2 -3.6040 -16.5048
3 8 3 -10.5194 9.2778
3 8 4 1.5703 -4.9245
3 8 5 -4.3601 -4.8998
3 8 6 4.7689 0.7769
3 8 7 5.1122 -9.2806
3 8 8 -1.6230 -2.0572
3 8 9 6.9248 -0.2100
3 8 10 -5.5301 -0.2722
3 8 11 7.8666 5.6536
3 9 0 0.8042 10.4367
3 9 1 8.3544 0.5285
3 9 2 -16.7079 3.8268
3 9 3 -3.2425 1.8207
3 9 4 -10.5746 -4.9982
3 9 5 -9.3860 0.3702
3 9 6 -1.7547 -3.7034
3 9 7 -4.2827 -3.6253
3 9 8 -4.6539 3.1200
3 9 9 -1.1521 -5.7021
3 9 10 -7.2236 6.9936
3 10 0 0.0355 3.9380
3 10 1 -9.3865 -6.9482
3 10 2 -4.7562 -4.5610
3 10 3 -3.7267 -8.2356
3 10 4 1.3648 -12.1454
3 10 5 1.1844 -1.1195
3 10 6 6.3692 -3.7089
3 10 7 1.4331 -4.9247
3 10 8 1.8491 4.4740
3 11 0 0.7770 -6.7167
3 11 1 0.5167 -1.2940
3 11 2 -1.1784 -5.5055
3 11 3 3.2709 3.3408
3 11 4 -9.1231 -3.3016
3 11 5 -0.6633 8.5773
3 11 6 -6.8014 -0.5633
3 11 7 -7.5105 0.8118
3 12 1 13.2118 0.7093
3 12 2 -1.9282 -7.2111
3 12 3 4.7198 -5.3950
3 12 4 -5.1703 -10.1919
4 0 0 1.4541 0.1027
4 0 1 -0.0841 5.6589
4 0 2 1.8614 0.1243
4 0 3 -0.1571 -1.8638
4 0 4 -1.2459 0.1081
4 0 5 -0.0189 -2.0262
4 0 6 -7.2234 0.0234
4 0 7 0.1683 3.2472
4 0 8 -4.3323 -0.0207
4 0 9 0.0827 1.8873
4 1 0 3.9351 -0.1573
4 1 1 1.9914 5.4144
4 1 2 3.6844 3.2237
4 1 3 -0.9870 6.0011
4 1 4 -0.3187 0.3476
4 1 5 -3.1922 4.4774
4 1 6 -7.0983 -8.7674
4 1 7 3.4775 3.1074
4 1 8 -9.9917 -12.6736
4 1 9 3.5788 4.1211
4 2 0 -2.7037 0.3551
4 2 1 0.9742 11.0942
4 2 2 -2.8009 5.8449
4 2 3 3.9730 -0.8705
4 2 4 -5.9852 1.6564
4 2 5 9.7983 -8.8218
4 2 6 -12.1264 2.4713
4 2 7 11.8437 -8.8239
4 2 8 -10.4505 4.6090
4 2 9 5.0085 -12.2466
4 3 0 -2.4994 -0.4532
4 3 1 -0.1497 9.3945
4 3 2 4.3681 11.1317
4 3 3 0.8152 10.0980
4 3 4 7.5629 15.5997
4 3 5 0.6143 3.4016
4 3 6 -4.1726 10.4196
4 3 7 -1.8799 -5.7666
4 3 8 -8.0761 -0.8564
4 4 0 -8.4362 0.0954
4 4 1 -7.3007 4.0329
4 4 2 -9.4854 10.3493
4 4 3 -15.6483 7.2346
4 4 4 -10.4593 10.1432
4 4 5 -9.6886 -4.7858
4 4 6 -5.2568 3.8999
4 4 7 2.9175 -17.9406
4 4 8 1.3439 -3.0221
4 5 0 4.5575 -0.6345
4 5 1 -2.7735 0.8322
4 5 2 2.4499 -5.9278
4 5 3 -5.7276 -0.7013
4 5 4 3.2090 -3.5290
4 5 5 -4.0341 -5.6079
4 5 6 7.9962 7.7435
4 5 7 1.1639 -5.4295
4 6 0 0.6551 -0.0957
4 6 1 -2.3364 1.8712
4 6 2 1.1916 7.1656
4 6 3 -4.3085 4.5915
4 6 4 5.9610 4.2836
4 6 5 -8.4823 3.4140
4 6 6 13.8054 1.4988
4 7 0 7.0088 -0.5574
4 7 1 -4.8159 4.9167
4 7 2 3.1809 -9.5029
4 7 3 -4.9980 6.6126
4 7 4 -0.9446 -8.3498
4 8 0 1.4863 -0.1986
4 8 1 4.8302 1.7285
0 0 0 0.0 0.0
;
_shelx_fab_checksum              69536
_olex2_submission_special_instructions 'No special instructions were received'
_oxdiff_exptl_absorpt_empirical_details
;
Empirical correction (ABSPACK) includes:
- Absorption correction using spherical harmonics
- Frame scaling
- Detector area scaling
- B-factor correction
;
_oxdiff_exptl_absorpt_empirical_full_max 4.226
_oxdiff_exptl_absorpt_empirical_full_min 0.533
loop_
_space_group_symop_operation_xyz
'x, y, z'
'-x+1/2, -y, z+1/2'
'x+1/2, -y+1/2, -z'
'-x, y+1/2, -z+1/2'
loop_
_atom_site_label
_atom_site_type_symbol
_atom_site_fract_x
_atom_site_fract_y
_atom_site_fract_z
_atom_site_U_iso_or_equiv
_atom_site_adp_type
_atom_site_occupancy
_atom_site_site_symmetry_order
_atom_site_calc_flag
_atom_site_refinement_flags_posn
_atom_site_refinement_flags_adp
_atom_site_refinement_flags_occupancy
_atom_site_disorder_assembly
_atom_site_disorder_group
Zn01 Zn 0.4156(17) 0.4546(6) 0.2607(5) 0.148(7) Uani 1 1 d . U . . .
S2 S -0.047(4) 0.4903(11) 0.6257(11) 0.159(14) Uani 1 1 d . U . . .
C18 C -0.190(7) 0.460(2) 0.649(2) 0.13(2) Uani 1 1 d G U . . .
C17 C -0.147(11) 0.4057(17) 0.643(3) 0.15(4) Uani 1 1 d G U . . .
H17 H -0.217789 0.377383 0.655364 0.175 Uiso 1 1 calc R . . . .
C16 C 0.022(11) 0.4017(14) 0.616(3) 0.13(2) Uani 1 1 d DG U . . .
C19 C 0.084(7) 0.454(2) 0.605(2) 0.13(2) Uani 1 1 d G U . . .
F2 F 0.064(7) 0.230(2) 0.558(2) 0.15(2) Uani 1 1 d . . . . .
F1 F 0.334(6) 0.261(2) 0.541(2) 0.17(3) Uani 1 1 d . . . . .
F4 F 0.229(9) 0.205(3) 0.628(2) 0.20(3) Uani 1 1 d . . . . .
F3 F 0.413(10) 0.268(3) 0.623(2) 0.20(3) Uani 1 1 d . . . . .
F6 F 0.000(7) 0.279(2) 0.670(2) 0.16(2) Uani 1 1 d . . . . .
F5 F 0.235(9) 0.315(3) 0.686(2) 0.20(3) Uani 1 1 d . . . . .
C15 C 0.068(9) 0.3461(14) 0.611(3) 0.13(2) Uani 1 1 d D U . . .
C14 C 0.144(11) 0.305(4) 0.6397(15) 0.14(2) Uani 1 1 d G U . . .
C13 C 0.195(11) 0.262(2) 0.611(5) 0.14(2) Uani 1 1 d G U . . .
C12 C 0.151(14) 0.276(4) 0.565(3) 0.14(3) Uani 1 1 d G U . . .
C11 C 0.073(10) 0.328(5) 0.565(2) 0.13(2) Uani 1 1 d DG U . . .
O1 O 0.558(8) 0.525(2) 0.265(2) 0.14(2) Uani 1 1 d D U . . .
O3 O 1.414(11) 0.906(4) 0.247(4) 0.23(4) Uani 1 1 d D U . . .
O2 O 0.722(8) 0.494(3) 0.327(2) 0.15(2) Uani 1 1 d D U . . .
O4 O 1.680(10) 0.851(3) 0.268(2) 0.17(3) Uani 1 1 d D U . . .
C26 C 0.678(11) 0.536(3) 0.302(4) 0.12(2) Uani 1 1 d D U . . .
C9 C -0.181(7) 0.360(2) 0.5055(12) 0.115(16) Uani 1 1 d . U . . .
C8 C 0.005(10) 0.343(3) 0.5201(17) 0.116(17) Uani 1 1 d DG U . . .
C7 C 0.137(5) 0.355(3) 0.484(3) 0.14(3) Uani 1 1 d G U . . .
H7 H 0.269199 0.348369 0.484738 0.167 Uiso 1 1 calc R . . . .
C6 C 0.033(4) 0.379(2) 0.4476(17) 0.105(19) Uani 1 1 d G U . . .
S1 S -0.164(3) 0.3820(11) 0.4607(11) 0.136(12) Uani 1 1 d G U . . .
C27 C 0.803(10) 0.582(2) 0.297(2) 0.17(4) Uani 1 1 d D U . . .
C32 C 0.976(10) 0.589(3) 0.321(2) 0.15(2) Uani 1 1 d G U . . .
H32 H 1.021747 0.561989 0.340005 0.181 Uiso 1 1 calc R . . . .
C31 C 1.082(7) 0.635(3) 0.315(2) 0.17(4) Uani 1 1 d G U . . .
H31 H 1.197913 0.639610 0.330357 0.201 Uiso 1 1 calc R . . . .
C30 C 1.014(10) 0.675(2) 0.286(3) 0.15(2) Uani 1 1 d G U . . .
C29 C 0.840(11) 0.668(2) 0.262(2) 0.16(2) Uani 1 1 d G U . . .
H29 H 0.794649 0.694773 0.243051 0.189 Uiso 1 1 calc R . . . .
C28 C 0.735(8) 0.622(3) 0.268(2) 0.15(2) Uani 1 1 d G U . . .
H28 H 0.618479 0.617152 0.252698 0.185 Uiso 1 1 calc R . . . .
C37 C 1.472(19) 0.873(6) 0.268(5) 0.17(2) Uani 1 1 d . U . . .
C3 C 0.151(12) 0.390(3) 0.4050(19) 0.12(2) Uani 1 1 d . U . . .
C2 C 0.344(11) 0.380(3) 0.395(2) 0.17(2) Uani 1 1 d G U . . .
H2 H 0.422070 0.364007 0.417068 0.202 Uiso 1 1 calc R . . . .
C1 C 0.420(7) 0.396(3) 0.353(3) 0.17(2) Uani 1 1 d G U . . .
H1 H 0.549657 0.389392 0.346420 0.206 Uiso 1 1 calc R . . . .
N1 N 0.304(11) 0.420(2) 0.320(2) 0.15(3) Uani 1 1 d G U . . .
C5 C 0.110(10) 0.430(2) 0.330(2) 0.15(2) Uani 1 1 d G U . . .
H5 H 0.032139 0.446282 0.308303 0.180 Uiso 1 1 calc R . . . .
C4 C 0.034(7) 0.415(3) 0.372(3) 0.16(3) Uani 1 1 d G U . . .
H4 H -0.095452 0.420898 0.378951 0.194 Uiso 1 1 calc R . . . .
C20 C 0.243(11) 0.446(4) 0.580(4) 0.18(4) Uani 1 1 d . U . . .
H20A H 0.213143 0.448712 0.547893 0.269 Uiso 1 1 calc GR . . . .
H20B H 0.292641 0.410857 0.586427 0.269 Uiso 1 1 calc GR . . . .
H20C H 0.338674 0.471844 0.588152 0.269 Uiso 1 1 calc GR . . . .
C22 C -0.498(10) 0.441(2) 0.695(3) 0.14(4) Uani 1 1 d . U . . .
H22 H -0.478212 0.405159 0.689980 0.173 Uiso 1 1 calc R . . . .
C21 C -0.364(7) 0.478(3) 0.678(2) 0.12(3) Uani 1 1 d G U . . .
C25 C -0.393(7) 0.532(3) 0.686(2) 0.10(3) Uani 1 1 d G U . . .
H25 H -0.304018 0.556489 0.674572 0.116 Uiso 1 1 calc R . . . .
C24 C -0.556(9) 0.5494(19) 0.709(2) 0.11(2) Uani 1 1 d G U . . .
H24 H -0.575911 0.585580 0.713794 0.137 Uiso 1 1 calc R . . . .
N2 N -0.690(6) 0.513(3) 0.7254(18) 0.09(2) Uani 1 1 d G U . . .
C23 C -0.661(7) 0.459(2) 0.718(2) 0.11(2) Uani 1 1 d G U . . .
H23 H -0.750110 0.434250 0.729203 0.133 Uiso 1 1 calc R . . . .
C36 C 1.365(11) 0.814(3) 0.272(3) 0.168(19) Uani 1 1 d D U . . .
C35 C 1.167(12) 0.820(3) 0.266(3) 0.20(5) Uani 1 1 d G U . . .
H35 H 1.116723 0.852618 0.258236 0.235 Uiso 1 1 calc R . . . .
C34 C 1.046(7) 0.776(4) 0.271(3) 0.17(2) Uani 1 1 d G U . . .
H34 H 0.913517 0.779962 0.266465 0.205 Uiso 1 1 calc R . . . .
C33 C 1.121(12) 0.727(3) 0.282(3) 0.17(2) Uani 1 1 d G U . . .
C39 C 1.319(13) 0.721(3) 0.289(3) 0.17(2) Uani 1 1 d G U . . .
H39 H 1.369275 0.687601 0.296575 0.207 Uiso 1 1 calc R . . . .
C38 C 1.440(7) 0.764(4) 0.284(3) 0.16(2) Uani 1 1 d G U . . .
H38 H 1.572485 0.760256 0.288346 0.198 Uiso 1 1 calc R . . . .
C10 C -0.291(10) 0.353(3) 0.547(3) 0.120(19) Uani 1 1 d . U . . .
H10A H -0.229192 0.327205 0.566248 0.180 Uiso 1 1 calc GR . . . .
H10B H -0.418394 0.341346 0.539306 0.180 Uiso 1 1 calc GR . . . .
H10C H -0.297652 0.386479 0.562906 0.180 Uiso 1 1 calc GR . . . .
loop_
_atom_site_aniso_label
_atom_site_aniso_U_11
_atom_site_aniso_U_22
_atom_site_aniso_U_33
_atom_site_aniso_U_23
_atom_site_aniso_U_13
_atom_site_aniso_U_12
Zn01 0.118(10) 0.154(14) 0.173(15) 0.015(8) 0.004(9) 0.008(10)
S2 0.15(2) 0.12(2) 0.21(4) -0.018(18) 0.06(2) -0.011(18)
C18 0.12(3) 0.13(3) 0.13(3) 0.000(18) 0.006(18) 0.000(17)
C17 0.17(6) 0.13(3) 0.14(9) 0.03(5) 0.04(5) 0.00(4)
C16 0.13(2) 0.13(2) 0.13(2) 0.000(2) 0.000(2) 0.000(2)
C19 0.13(3) 0.13(2) 0.13(3) 0.003(18) 0.014(18) 0.002(16)
F2 0.12(4) 0.11(7) 0.22(8) -0.01(3) 0.02(4) 0.02(4)
F1 0.12(4) 0.12(7) 0.27(10) 0.00(4) 0.01(4) 0.02(4)
F4 0.21(6) 0.32(11) 0.07(8) 0.03(4) -0.05(4) 0.06(6)
F3 0.22(6) 0.24(10) 0.13(9) 0.00(4) -0.01(5) -0.05(6)
F6 0.17(5) 0.11(6) 0.21(8) 0.00(4) 0.05(5) -0.01(4)
F5 0.26(6) 0.15(7) 0.18(9) -0.01(4) -0.03(5) 0.00(6)
C15 0.13(2) 0.13(2) 0.13(2) 0.000(2) 0.000(2) 0.000(2)
C14 0.14(2) 0.14(2) 0.14(2) 0.000(2) 0.000(2) 0.000(2)
C13 0.14(3) 0.14(3) 0.14(3) 0.000(16) -0.001(18) 0.001(19)
C12 0.14(3) 0.14(3) 0.14(3) -0.001(17) -0.001(18) 0.001(19)
C11 0.09(5) 0.14(5) 0.15(3) -0.03(3) -0.02(5) -0.01(4)
O1 0.14(2) 0.14(2) 0.14(2) 0.000(2) 0.000(2) 0.000(2)
O3 0.22(7) 0.19(5) 0.27(9) 0.06(6) 0.03(7) 0.04(5)
O2 0.12(3) 0.16(3) 0.17(4) 0.02(3) -0.01(3) -0.01(3)
O4 0.17(3) 0.19(8) 0.15(9) 0.00(4) -0.01(4) 0.01(3)
C26 0.10(5) 0.15(5) 0.12(4) -0.01(4) 0.03(4) 0.02(3)
C9 0.114(17) 0.115(17) 0.115(17) 0.000(2) 0.000(2) 0.000(2)
C8 0.116(17) 0.116(17) 0.116(17) 0.000(2) 0.000(2) 0.000(2)
C7 0.09(3) 0.21(11) 0.12(5) 0.00(5) -0.01(3) -0.01(5)
C6 0.10(2) 0.11(3) 0.11(2) -0.005(18) 0.004(17) -0.004(18)
S1 0.093(16) 0.16(3) 0.15(3) 0.045(19) 0.028(15) 0.018(18)
C27 0.17(6) 0.16(5) 0.19(9) 0.01(5) -0.03(5) -0.02(3)
C32 0.15(3) 0.15(3) 0.15(3) 0.005(19) -0.003(18) -0.005(18)
C31 0.15(5) 0.16(5) 0.19(9) 0.01(5) -0.02(5) -0.01(4)
C30 0.15(3) 0.15(3) 0.15(3) -0.001(18) 0.004(18) 0.001(17)
C29 0.16(2) 0.16(2) 0.16(2) 0.000(2) 0.000(2) 0.000(2)
C28 0.15(2) 0.15(2) 0.15(2) 0.000(2) 0.000(2) 0.000(2)
C37 0.17(2) 0.17(2) 0.17(2) 0.000(2) 0.000(2) 0.000(2)
C3 0.16(4) 0.02(8) 0.18(5) -0.01(4) 0.00(3) -0.03(4)
C2 0.17(2) 0.17(2) 0.17(2) 0.000(2) 0.000(2) 0.000(2)
C1 0.17(2) 0.17(2) 0.17(2) 0.000(2) 0.000(2) 0.000(2)
N1 0.16(3) 0.08(7) 0.22(6) 0.03(5) 0.02(3) -0.01(4)
C5 0.15(2) 0.15(2) 0.15(2) 0.000(2) 0.000(2) 0.000(2)
C4 0.16(3) 0.16(3) 0.16(3) 0.004(18) 0.004(16) 0.001(19)
C20 0.13(5) 0.17(8) 0.24(11) -0.08(7) 0.05(6) -0.05(5)
C22 0.15(6) 0.10(5) 0.18(10) -0.01(6) 0.05(6) 0.01(4)
C21 0.13(6) 0.12(6) 0.12(10) 0.02(6) 0.01(5) 0.01(5)
C25 0.05(4) 0.12(5) 0.12(7) 0.01(5) -0.03(3) 0.00(4)
C24 0.11(2) 0.11(2) 0.11(2) 0.000(2) 0.000(2) 0.000(2)
N2 0.05(3) 0.11(3) 0.11(6) 0.01(3) -0.02(3) 0.02(2)
C23 0.11(2) 0.11(2) 0.11(2) 0.000(2) 0.000(2) 0.000(2)
C36 0.168(19) 0.168(19) 0.168(19) 0.000(2) 0.000(2) 0.000(2)
C35 0.17(3) 0.16(4) 0.26(15) -0.03(7) -0.04(6) 0.00(3)
C34 0.17(2) 0.17(2) 0.17(2) 0.000(2) 0.000(2) 0.000(2)
C33 0.16(2) 0.17(3) 0.17(3) -0.002(19) 0.003(19) 0.000(16)
C39 0.17(2) 0.17(2) 0.18(3) -0.003(19) 0.000(19) -0.001(15)
C38 0.16(2) 0.16(2) 0.16(2) 0.000(2) 0.000(2) 0.000(2)
C10 0.120(19) 0.120(19) 0.120(19) 0.000(4) 0.000(4) 0.000(4)
loop_
_atom_type_symbol
_atom_type_description
_atom_type_scat_dispersion_real
_atom_type_scat_dispersion_imag
_atom_type_scat_source
C C 0.0033 0.0016 'International Tables Vol C Tables 4.2.6.8 and 6.1.1.4'
H H 0.0000 0.0000 'International Tables Vol C Tables 4.2.6.8 and 6.1.1.4'
F F 0.0171 0.0103 'International Tables Vol C Tables 4.2.6.8 and 6.1.1.4'
N N 0.0061 0.0033 'International Tables Vol C Tables 4.2.6.8 and 6.1.1.4'
O O 0.0106 0.0060 'International Tables Vol C Tables 4.2.6.8 and 6.1.1.4'
S S 0.1246 0.1234 'International Tables Vol C Tables 4.2.6.8 and 6.1.1.4'
Zn Zn 0.2839 1.4301 'International Tables Vol C Tables 4.2.6.8 and 6.1.1.4'
loop_
_exptl_crystal_face_index_h
_exptl_crystal_face_index_k
_exptl_crystal_face_index_l
_exptl_crystal_face_perp_dist
0 18 35 0.0337
8 -18 14 0.1476
2 -31 18 0.1462
0 -18 -35 0.0323
-2 -11 2 0.0813
5 26 -12 0.1057
-8 18 -14 0.0857
loop_
_geom_angle_atom_site_label_1
_geom_angle_atom_site_label_2
_geom_angle_atom_site_label_3
_geom_angle
_geom_angle_site_symmetry_1
_geom_angle_site_symmetry_3
_geom_angle_publ_flag
O1 Zn01 C37 128(4) . 4_745 ?
O1 Zn01 N1 120(2) . . ?
O1 Zn01 N2 93(10) . 2_464 ?
O3 Zn01 O1 107(3) 4_745 . ?
O3 Zn01 C37 26(4) 4_745 4_745 ?
O3 Zn01 N1 94(4) 4_745 . ?
O3 Zn01 N2 139(10) 4_745 2_464 ?
N1 Zn01 C37 93(4) . 4_745 ?
N2 Zn01 C37 115(10) 2_464 4_745 ?
N2 Zn01 N1 107(10) 2_464 . ?
C18 S2 C19 108.0 . . ?
S2 C18 C17 108.0 . . ?
S2 C18 C21 131(5) . . ?
C17 C18 C21 121(5) . . ?
C18 C17 C16 108.00(9) . . ?
C17 C16 C15 108(6) . . ?
C19 C16 C17 108.0 . . ?
C19 C16 C15 144(6) . . ?
C16 C19 S2 108.0 . . ?
C20 C19 S2 149(7) . . ?
C20 C19 C16 103(7) . . ?
C14 C15 C16 137(9) . . ?
C11 C15 C16 114(9) . . ?
C11 C15 C14 108.0 . . ?
F6 C14 F5 80(4) . . ?
C15 C14 F6 115(6) . . ?
C15 C14 F5 123(9) . . ?
C13 C14 F6 100(7) . . ?
C13 C14 F5 123(9) . . ?
C13 C14 C15 108.0 . . ?
F4 C13 F3 82(5) . . ?
C14 C13 F4 124(10) . . ?
C14 C13 F3 92(7) . . ?
C12 C13 F4 125(10) . . ?
C12 C13 F3 113(6) . . ?
C12 C13 C14 108.0 . . ?
F2 C12 F1 96(6) . . ?
F2 C12 C13 91(10) . . ?
F2 C12 C11 129(9) . . ?
C13 C12 F1 101(9) . . ?
C13 C12 C11 108.0 . . ?
C11 C12 F1 124(8) . . ?
C15 C11 C12 108.0 . . ?
C15 C11 C8 140(10) . . ?
C12 C11 C8 112(10) . . ?
C26 O1 Zn01 121(5) . . ?
C37 O3 Zn01 111(10) . 4_755 ?
O1 C26 C27 117(7) . . ?
O2 C26 O1 114(7) . . ?
O2 C26 C27 123(7) . . ?
S1 C9 C8 108.00(6) . . ?
C10 C9 C8 102(5) . . ?
C10 C9 S1 149(5) . . ?
C9 C8 C11 130(7) . . ?
C9 C8 C7 108.0 . . ?
C7 C8 C11 120(6) . . ?
C8 C7 C6 108.0 . . ?
C7 C6 C3 115(5) . . ?
S1 C6 C7 108.0 . . ?
S1 C6 C3 137(5) . . ?
C9 S1 C6 108.0 . . ?
C32 C27 C26 125(5) . . ?
C32 C27 C28 120.00(6) . . ?
C28 C27 C26 115(5) . . ?
C31 C32 C27 120.0 . . ?
C32 C31 C30 120.00(7) . . ?
C31 C30 C33 120(7) . . ?
C29 C30 C31 120.00(6) . . ?
C29 C30 C33 120(7) . . ?
C30 C29 C28 120.0 . . ?
C29 C28 C27 120.00(6) . . ?
O3 C37 Zn01 43(8) . 4_755 ?
O3 C37 O4 127(10) . . ?
O3 C37 C36 123(10) . . ?
O4 C37 Zn01 90(5) . 4_755 ?
O4 C37 C36 96(8) . . ?
C36 C37 Zn01 163(9) . 4_755 ?
C2 C3 C6 131(7) . . ?
C2 C3 C4 120.0 . . ?
C4 C3 C6 109(7) . . ?
C1 C2 C3 120.0 . . ?
C2 C1 N1 120.00(6) . . ?
C1 N1 Zn01 122(5) . . ?
C1 N1 C5 120.0 . . ?
C5 N1 Zn01 117(5) . . ?
N1 C5 C4 120.0 . . ?
C5 C4 C3 120.00(6) . . ?
C21 C22 C23 120.0 . . ?
C22 C21 C18 121(6) . . ?
C22 C21 C25 120.0 . . ?
C25 C21 C18 118(6) . . ?
C24 C25 C21 120.00(7) . . ?
N2 C24 C25 120.0 . . ?
C24 N2 Zn01 115(4) . 2_465 ?
C23 N2 Zn01 125(4) . 2_465 ?
C23 N2 C24 120.00(6) . . ?
N2 C23 C22 120.00(9) . . ?
C35 C36 C37 110(8) . . ?
C35 C36 C38 120.00(7) . . ?
C38 C36 C37 130(9) . . ?
C34 C35 C36 120.0 . . ?
C35 C34 C33 120.00(7) . . ?
C34 C33 C30 127(8) . . ?
C34 C33 C39 120.00(10) . . ?
C39 C33 C30 113(8) . . ?
C38 C39 C33 120.0 . . ?
C39 C38 C36 120.00(7) . . ?
loop_
_geom_bond_atom_site_label_1
_geom_bond_atom_site_label_2
_geom_bond_distance
_geom_bond_site_symmetry_2
_geom_bond_publ_flag
Zn01 O1 2.02(6) . ?
Zn01 O3 1.72(11) 4_745 ?
Zn01 C37 2.35(12) 4_745 ?
Zn01 N1 2.08(5) . ?
Zn01 N2 2.0(3) 2_464 ?
S2 C18 1.4200 . ?
S2 C19 1.4200 . ?
C18 C17 1.4200 . ?
C18 C21 1.54(5) . ?
C17 C16 1.4200 . ?
C16 C19 1.4200 . ?
C16 C15 1.44(2) . ?
C19 C20 1.34(9) . ?
F2 C12 1.32(8) . ?
F1 C12 1.48(8) . ?
F4 C13 1.53(8) . ?
F3 C13 1.56(10) . ?
F6 C14 1.48(7) . ?
F5 C14 1.49(8) . ?
C15 C14 1.4200 . ?
C15 C11 1.4200 . ?
C14 C13 1.4200 . ?
C13 C12 1.4200 . ?
C12 C11 1.4200 . ?
C11 C8 1.43(2) . ?
O1 C26 1.39(11) . ?
O3 C37 1.11(12) . ?
O2 C26 1.31(9) . ?
O4 C37 1.54(12) . ?
C26 C27 1.45(2) . ?
C9 C8 1.4200 . ?
C9 S1 1.4200 . ?
C9 C10 1.43(8) . ?
C8 C7 1.4200 . ?
C7 C6 1.4200 . ?
C6 S1 1.4200 . ?
C6 C3 1.50(6) . ?
C27 C32 1.3900 . ?
C27 C28 1.3900 . ?
C32 C31 1.3900 . ?
C31 C30 1.3900 . ?
C30 C29 1.3900 . ?
C30 C33 1.50(7) . ?
C29 C28 1.3900 . ?
C37 C36 1.67(13) . ?
C3 C2 1.3900 . ?
C3 C4 1.3900 . ?
C2 C1 1.3900 . ?
C1 N1 1.3900 . ?
N1 C5 1.3900 . ?
C5 C4 1.3900 . ?
C22 C21 1.3900 . ?
C22 C23 1.3900 . ?
C21 C25 1.3900 . ?
C25 C24 1.3900 . ?
C24 N2 1.3900 . ?
N2 C23 1.3900 . ?
C36 C35 1.3900 . ?
C36 C38 1.3900 . ?
C35 C34 1.3900 . ?
C34 C33 1.3900 . ?
C33 C39 1.3900(11) . ?
C39 C38 1.3900 . ?
loop_
_exptl_oxdiff_crystal_face_indexfrac_h
_exptl_oxdiff_crystal_face_indexfrac_k
_exptl_oxdiff_crystal_face_indexfrac_l
_exptl_oxdiff_crystal_face_x
_exptl_oxdiff_crystal_face_y
_exptl_oxdiff_crystal_face_z
0.0074 17.5905 35.1148 -0.9644 0.2245 -0.0387
7.7424 -18.0002 13.7578 0.0063 0.0194 -0.9998
2.1294 -30.7184 18.3607 0.2198 0.6228 -0.7509
0.1438 -17.8258 -35.3813 0.9720 -0.2336 0.0251
-2.0787 -10.8054 2.2584 0.1830 0.3280 0.0029
5.4547 25.8953 -12.3420 -0.3182 -0.9137 0.0098
-7.8086 17.7002 -13.6186 -0.0025 -0.0087 1.0000
