#------------------------------------------------------------------------------
#$Date: 2021-11-05 02:06:12 +0200 (Fri, 05 Nov 2021) $
#$Revision: 270317 $
#$URL: file:///home/coder/svn-repositories/cod/cif/7/70/87/7708725.cif $
#------------------------------------------------------------------------------
#
# This file is available in the Crystallography Open Database (COD),
# http://www.crystallography.net/
#
# All data on this site have been placed in the public domain by the
# contributors.
#
data_7708725
loop_
_publ_author_name
'P\'o\/lrolniczak, Aleksandra'
'Sobczak, Szymon'
'Nikolayenko, Varvara'
'Barbour, Len'
'Katrusiak, Andrzej'
_publ_section_title
;
 Solvent-controlled elongation and mechanochemical strain in a
 metal-organic framework
;
_journal_name_full               'Dalton Transactions'
_journal_paper_doi               10.1039/D1DT01937F
_journal_year                    2021
_chemical_formula_moiety         'C39 H24 F6 N2 O4 S2 Zn'
_chemical_formula_sum            'C39 H24 F6 N2 O4 S2 Zn'
_chemical_formula_weight         828.09
_chemical_name_common            DMOF
_chemical_name_systematic
1,2-bis(2-ethyl-5-phenyl-3-thienyl)perfluorocyclopentene
_space_group_crystal_system      orthorhombic
_space_group_IT_number           19
_space_group_name_Hall           'P 2ac 2ab'
_space_group_name_H-M_alt        'P 21 21 21'
_atom_sites_solution_hydrogens   geom
_atom_sites_solution_primary     direct
_audit_creation_date             2019-02-12
_audit_creation_method
;
Olex2 1.2
(compiled 2018.05.29 svn.r3508 for OlexSys, GUI svn.r5506)
;
_audit_update_record
;
2019-09-30 deposited with the CCDC.	2021-11-02 downloaded from the CCDC.
;
_cell_angle_alpha                90
_cell_angle_beta                 90
_cell_angle_gamma                90
_cell_formula_units_Z            4
_cell_length_a                   7.033(3)
_cell_length_b                   25.167(15)
_cell_length_c                   29.00(4)
_cell_measurement_reflns_used    801
_cell_measurement_temperature    293(2)
_cell_measurement_theta_max      23.7670
_cell_measurement_theta_min      3.9080
_cell_volume                     5133(8)
_computing_cell_refinement       'CrysAlisPro 1.171.38.43 (Rigaku OD, 2015)'
_computing_data_collection       'CrysAlisPro 1.171.38.43 (Rigaku OD, 2015)'
_computing_data_reduction        'CrysAlisPro 1.171.38.43 (Rigaku OD, 2015)'
_computing_molecular_graphics    'Olex2 (Dolomanov et al., 2009)'
_computing_publication_material  'Olex2 (Dolomanov et al., 2009)'
_computing_structure_refinement  'ShelXL (Sheldrick, 2015)'
_computing_structure_solution    'ShelXS (Sheldrick, 2008)'
_diffrn_ambient_temperature      293(2)
_diffrn_detector                 'CCD plate'
_diffrn_detector_area_resol_mean 16.2413
_diffrn_detector_type            Eos
_diffrn_measured_fraction_theta_full 0.156
_diffrn_measured_fraction_theta_max 0.712
_diffrn_measurement_details
;
List of Runs (angles in degrees, time in seconds):

  # Type    Start    End  Width  t~exp~   \w     \q     \k     \f   Frames
#--------------------------------------------------------------------------
  1  \f    -35.00  19.40   0.80   25.00   0.00 -30.00   0.00    --    68
  2  \f    140.00 200.00   0.80   25.00   0.00 -30.00   0.00    --    75
  3  \f    160.00 216.80   0.80   25.00   0.00  30.00   0.00    --    71
  4  \f    -20.00  34.40   0.80   25.00   0.00  30.00   0.00    --    68
  5  \w    -24.00  24.00   0.80   25.00    --   30.00  39.46 -12.90   60
  6  \w    -24.00  24.00   0.80   25.00    --   30.00  39.46 167.10   60
  7  \w    -50.00  10.00   0.80   25.00    --  -30.00  39.46 167.10   75
  8  \w    -50.00  10.00   0.80   25.00    --  -30.00  39.46 -12.90   75
  9  \w    -64.00  -8.00   0.80   25.00    --  -30.00  81.40 -28.90   70
 10  \w    -64.00  -8.00   0.80   25.00    --  -30.00  81.40 151.10   70
 11  \w    -19.00   7.40   0.80   25.00    --   30.00  81.40 151.10   33
 12  \w    -19.00   7.40   0.80   25.00    --   30.00  81.40 -28.90   33
 13  \w    -43.00 -21.40   0.80   25.00    --   30.00 134.60 -56.90   27
 14  \w    -43.00 -21.40   0.80   25.00    --   30.00 134.60 123.10   27
 15  \w    -90.00 -36.40   0.80   25.00    --  -30.00 134.60 123.10   67
 16  \w    -90.00 -36.40   0.80   25.00    --  -30.00 134.60 -56.90   67
;
_diffrn_measurement_device       'four-circle diffractometer'
_diffrn_measurement_device_type  'Xcalibur, Eos'
_diffrn_measurement_method       '\w and \f scans'
_diffrn_orient_matrix_type
'CrysAlisPro convention (1999,Acta A55,543-557)'
_diffrn_orient_matrix_UB_11      -0.0103257000
_diffrn_orient_matrix_UB_12      0.0149540000
_diffrn_orient_matrix_UB_13      0.0205468000
_diffrn_orient_matrix_UB_21      -0.0601772000
_diffrn_orient_matrix_UB_22      0.0184256000
_diffrn_orient_matrix_UB_23      -0.0113824000
_diffrn_orient_matrix_UB_31      -0.0808657000
_diffrn_orient_matrix_UB_32      -0.0154171000
_diffrn_orient_matrix_UB_33      0.0062036000
_diffrn_radiation_monochromator  graphite
_diffrn_radiation_probe          x-ray
_diffrn_radiation_type           MoK\a
_diffrn_radiation_wavelength     0.71073
_diffrn_reflns_av_R_equivalents  0.3847
_diffrn_reflns_av_unetI/netI     0.2012
_diffrn_reflns_Laue_measured_fraction_full 0.156
_diffrn_reflns_Laue_measured_fraction_max 0.712
_diffrn_reflns_limit_h_max       4
_diffrn_reflns_limit_h_min       -4
_diffrn_reflns_limit_k_max       17
_diffrn_reflns_limit_k_min       -17
_diffrn_reflns_limit_l_max       16
_diffrn_reflns_limit_l_min       -16
_diffrn_reflns_number            9017
_diffrn_reflns_point_group_measured_fraction_full 0.151
_diffrn_reflns_point_group_measured_fraction_max 0.739
_diffrn_reflns_theta_full        25.242
_diffrn_reflns_theta_max         14.584
_diffrn_reflns_theta_min         4.034
_diffrn_source                   'fine-focus sealed X-ray tube'
_diffrn_source_type              'Enhance (Mo) X-ray Source'
_exptl_absorpt_coefficient_mu    0.613
_exptl_absorpt_correction_T_max  0.976
_exptl_absorpt_correction_T_min  0.975
_exptl_absorpt_correction_type   gaussian
_exptl_absorpt_process_details
;
CrysAlisPro 1.171.38.43 (Rigaku Oxford Diffraction, 2015)
Numerical absorption correction based on gaussian integration over
			a multifaceted crystal model
Empirical absorption correction using spherical harmonics,
 implemented in SCALE3 ABSPACK scaling algorithm.
;
_exptl_crystal_colour            pink
_exptl_crystal_density_diffrn    1.071
_exptl_crystal_description       plate
_exptl_crystal_F_000             1680
_exptl_crystal_preparation       'mounted in a diamond-anvil cell '
_exptl_crystal_size_max          0.307
_exptl_crystal_size_mid          0.214
_exptl_crystal_size_min          0.126
_refine_diff_density_max         0.246
_refine_diff_density_min         -0.192
_refine_diff_density_rms         0.045
_refine_ls_abs_structure_details
;
 Flack x determined using 163 quotients [(I+)-(I-)]/[(I+)+(I-)]
 (Parsons and Flack (2004), Acta Cryst. A60, s61).
;
_refine_ls_abs_structure_Flack   0.04(8)
_refine_ls_extinction_method     none
_refine_ls_goodness_of_fit_ref   1.180
_refine_ls_hydrogen_treatment    constr
_refine_ls_matrix_type           full
_refine_ls_number_parameters     414
_refine_ls_number_reflns         1405
_refine_ls_number_restraints     781
_refine_ls_restrained_S_all      0.991
_refine_ls_R_factor_all          0.1849
_refine_ls_R_factor_gt           0.1196
_refine_ls_shift/su_max          0.023
_refine_ls_shift/su_mean         0.011
_refine_ls_structure_factor_coef Fsqd
_refine_ls_weighting_details
;
 w=1/[\s^2^(Fo^2^)+(0.2000P)^2^]
 where P=(Fo^2^+2Fc^2^)/3
;
_refine_ls_weighting_scheme      calc
_refine_ls_wR_factor_gt          0.3102
_refine_ls_wR_factor_ref         0.3718
_reflns_Friedel_coverage         0.705
_reflns_Friedel_fraction_full    0.144
_reflns_Friedel_fraction_max     0.782
_reflns_number_gt                693
_reflns_number_total             1405
_reflns_threshold_expression     'I > 2\s(I)'
_cod_data_source_file            d1dt01937f2.cif
_cod_data_source_block           DMOF_0_10_GPa_Gly
_cod_original_cell_volume        5134(9)
_cod_database_code               7708725
_shelx_shelxl_version_number     2017/1
_shelx_space_group_comment
;
The symmetry employed for this shelxl refinement is uniquely defined
by the following loop, which should always be used as a source of
symmetry information in preference to the above space-group names.
They are only intended as comments.
;
_shelx_estimated_absorpt_t_max   0.887
_shelx_estimated_absorpt_t_min   0.862
_shelx_fab_file
;
-4 -10 -4 3.0556 1.2402
-4 -10 -3 0.8955 2.3367
-4 -10 -2 -3.0963 -0.8946
-4 -10 -1 0.9668 4.2446
-4 -9 -6 3.2872 0.2679
-4 -9 -5 0.5923 3.3145
-4 -9 -4 0.3694 0.6878
-4 -9 -3 4.0369 4.3286
-4 -9 -2 -0.8986 1.2328
-4 -9 -1 2.9085 -4.3185
-4 -8 -8 -3.0976 -2.2419
-4 -8 -7 0.9657 4.5425
-4 -8 -6 -4.0847 -1.6813
-4 -8 -5 3.4659 1.8812
-4 -8 -4 -7.6578 2.0048
-4 -8 -3 0.8307 -0.9383
-4 -8 -2 -2.2185 5.5654
-4 -8 -1 -1.2957 -0.3294
-4 -7 -9 2.6691 -7.8752
-4 -7 -8 -2.4454 5.0086
-4 -7 -7 1.3597 -7.2982
-4 -7 -6 -4.3236 7.0023
-4 -7 -5 -0.8345 -4.9037
-4 -7 -4 2.7113 -0.2393
-4 -7 -3 -2.1839 -3.4976
-4 -7 -2 6.1226 -4.8026
-4 -7 -1 -1.7796 4.4620
-4 -6 -10 6.5206 0.4276
-4 -6 -9 -7.9073 0.6307
-4 -6 -8 5.6463 -0.2654
-4 -6 -7 -10.4542 -0.4681
-4 -6 -6 -0.7942 -2.3160
-4 -6 -5 -0.6083 1.5747
-4 -6 -4 0.0396 -0.8527
-4 -6 -3 12.8899 1.5941
-4 -6 -2 -0.9864 2.5796
-4 -6 -1 9.5773 2.2486
-4 -5 -10 -1.9717 -0.7505
-4 -5 -9 0.3360 3.1275
-4 -5 -8 -2.1599 -9.6850
-4 -5 -7 3.4091 -4.0910
-4 -5 -6 0.1006 -6.9235
-4 -5 -5 -1.7212 -6.0603
-4 -5 -4 -0.7164 10.5454
-4 -5 -3 -6.7286 0.4961
-4 -5 -2 1.1926 14.6016
-4 -5 -1 -2.9335 2.4072
-4 -4 -11 -5.2136 -0.7755
-4 -4 -10 -2.6400 2.5778
-4 -4 -9 2.4806 0.0012
-4 -4 -8 -0.3306 2.8885
-4 -4 -7 6.1230 2.6917
-4 -4 -6 4.2228 -0.8844
-4 -4 -5 0.2587 -0.0993
-4 -4 -4 0.6219 -4.4344
-4 -4 -3 -5.7952 -2.4069
-4 -4 -2 -0.9391 -6.5995
-4 -4 -1 -4.3920 -1.4397
-4 -3 -11 -0.8219 -2.5700
-4 -3 -10 2.6325 -3.8640
-4 -3 -9 -3.5790 -3.3162
-4 -3 -8 -3.1301 0.2778
-4 -3 -7 -5.7811 -2.4862
-4 -3 -6 -2.9653 1.7495
-4 -3 -5 0.6932 -3.1074
-4 -3 -4 2.4343 -0.6726
-4 -3 -3 0.6062 1.0702
-4 -3 -2 4.5517 1.7574
-4 -3 -1 -2.2662 8.1547
-4 -2 -12 2.2398 3.3881
-4 -2 -11 4.1059 4.4307
-4 -2 -10 1.9312 -0.2858
-4 -2 -9 3.8374 2.6639
-4 -2 -8 4.3090 -5.1031
-4 -2 -7 4.1829 -1.2839
-4 -2 -6 3.2987 -3.4352
-4 -2 -5 3.0007 -2.1571
-4 -2 -4 1.4439 -3.6905
-4 -2 -3 -0.8531 1.1243
-4 -2 -2 -3.0448 -3.4068
-4 -2 -1 -0.9781 0.6109
-4 -1 -12 -1.9006 1.4358
-4 -1 -11 -4.5418 2.1218
-4 -1 -10 -2.0723 4.6715
-4 -1 -9 0.0421 2.1813
-4 -1 -8 0.0483 5.1043
-4 -1 -7 3.4792 1.6237
-4 -1 -6 0.0800 4.1624
-4 -1 -5 0.6089 1.1190
-4 -1 -4 3.5695 2.7151
-4 -1 -3 1.7787 0.1902
-4 -1 -2 1.8054 -0.2537
-4 -1 -1 2.5921 5.2292
-3 -14 -3 0.4275 -0.8269
-3 -14 -2 -3.0652 -1.2891
-3 -14 -1 1.1468 -1.8847
-3 -13 -6 0.0074 -1.5955
-3 -13 -5 -3.5767 -2.2152
-3 -13 -4 -2.7697 -1.7772
-3 -13 -3 0.6778 -2.8573
-3 -13 -2 -1.1597 0.4061
-3 -13 -1 7.9011 -1.2188
-3 -12 -8 4.4063 -0.8275
-3 -12 -7 0.5020 2.2655
-3 -12 -6 -0.1717 -3.4054
-3 -12 -5 4.5167 -0.1557
-3 -12 -4 -3.7600 -0.7836
-3 -12 -3 3.3711 -2.3920
-3 -12 -2 2.6687 3.0775
-3 -12 -1 -7.0485 -0.8356
-3 -11 -10 2.0169 0.7542
-3 -11 -9 -0.3954 6.0709
-3 -11 -8 -0.0694 -2.6913
-3 -11 -7 0.2862 3.0581
-3 -11 -6 -0.9567 2.5215
-3 -11 -5 0.1722 -4.7651
-3 -11 -4 -1.0295 5.0555
-3 -11 -3 -2.3021 -0.6493
-3 -11 -2 -3.5593 -3.4954
-3 -11 -1 0.1201 2.5442
-3 -10 -11 -0.3195 -3.3643
-3 -10 -10 -2.7463 -2.9120
-3 -10 -9 2.3710 0.3095
-3 -10 -8 -7.0714 -3.3716
-3 -10 -7 4.1272 2.1877
-3 -10 -6 -1.8528 -1.5606
-3 -10 -5 -1.6899 2.3605
-3 -10 -4 2.7274 -4.1365
-3 -10 -3 -6.3409 -1.3984
-3 -10 -2 -3.3321 -6.2129
-3 -10 -1 1.7041 -2.6481
-3 -9 -12 5.5250 -2.1522
-3 -9 -11 3.6036 2.1250
-3 -9 -10 5.1299 -0.2475
-3 -9 -9 7.9722 -3.0560
-3 -9 -8 1.2913 0.9675
-3 -9 -7 3.1694 -5.3582
-3 -9 -6 -4.8239 -2.5808
-3 -9 -5 0.7132 0.6575
-3 -9 -4 -6.2366 -5.8821
-3 -9 -3 8.6569 1.6848
-3 -9 -2 -1.5698 -7.0432
-3 -9 -1 10.8851 -0.1505
-3 -8 -13 0.2649 1.4617
-3 -8 -12 -2.3553 0.9854
-3 -8 -11 -0.4433 3.7580
-3 -8 -10 -2.7278 4.8853
-3 -8 -9 4.1874 -0.2771
-3 -8 -8 -0.0461 3.4381
-3 -8 -7 3.8898 -2.3876
-3 -8 -6 1.1785 -2.3549
-3 -8 -5 2.8445 -3.6811
-3 -8 -4 -2.1710 -0.1243
-3 -8 -3 8.5000 -1.9816
-3 -8 -2 -3.0432 5.1079
-3 -8 -1 6.1698 0.7164
-3 -7 -14 -0.6569 -1.4629
-3 -7 -13 0.4885 2.1824
-3 -7 -12 0.0107 -3.3800
-3 -7 -11 1.1263 -2.7206
-3 -7 -10 5.7639 -0.9650
-3 -7 -9 -2.1107 -1.6235
-3 -7 -8 10.8846 -1.1575
-3 -7 -7 2.3438 0.3102
-3 -7 -6 7.3073 -2.6841
-3 -7 -5 6.9264 -1.3013
-3 -7 -4 -2.8725 0.9557
-3 -7 -3 1.9067 1.1075
-3 -7 -2 -5.6834 5.2868
-3 -7 -1 -0.4158 1.7603
-3 -6 -14 -5.1532 -2.4112
-3 -6 -13 1.8679 -3.8405
-3 -6 -12 -3.3941 0.6156
-3 -6 -11 3.0707 2.1548
-3 -6 -10 -1.5250 0.5416
-3 -6 -9 2.6892 14.1219
-3 -6 -8 0.3570 -5.6704
-3 -6 -7 6.8773 12.4680
-3 -6 -6 0.8144 0.7985
-3 -6 -5 5.3462 2.5984
-3 -6 -4 -2.9995 7.1518
-3 -6 -3 -4.4840 -3.6928
-3 -6 -2 -3.4212 0.7620
-3 -6 -1 -4.0035 -2.8875
-3 -5 -14 2.7127 0.5143
-3 -5 -13 1.9556 -7.6264
-3 -5 -12 1.1490 -0.2645
-3 -5 -11 -1.3928 -1.0079
-3 -5 -10 -4.2904 -3.0629
-3 -5 -9 7.3567 1.0410
-3 -5 -8 -4.2996 1.2395
-3 -5 -7 10.1140 0.0062
-3 -5 -6 3.8569 -1.2246
-3 -5 -5 0.0994 0.4000
-3 -5 -4 4.8744 -7.7814
-3 -5 -3 -3.7051 -3.0789
-3 -5 -2 -3.1221 -0.6397
-3 -5 -1 1.1148 -2.9776
-3 -4 -13 -0.9541 -0.5620
-3 -4 -12 1.7952 0.5274
-3 -4 -11 1.4779 -1.8423
-3 -4 -10 -3.5666 -1.7778
-3 -4 -9 0.4066 1.7280
-3 -4 -8 -3.0438 7.5666
-3 -4 -7 5.6666 12.0518
-3 -4 -6 2.5792 4.3266
-3 -4 -5 15.2747 13.6479
-3 -4 -4 6.6946 -1.3915
-3 -4 -3 7.8522 1.2532
-3 -4 -2 2.6180 -0.6644
-3 -4 -1 -12.7897 -3.2427
-3 -3 -12 -1.8712 -4.7779
-3 -3 -11 1.1805 -1.7937
-3 -3 -10 -2.6158 -3.3417
-3 -3 -9 0.1030 -3.5348
-3 -3 -8 -0.6118 -3.5756
-3 -3 -7 2.4418 5.5821
-3 -3 -6 -3.2620 8.0158
-3 -3 -5 4.3568 11.1952
-3 -3 -4 -2.2227 13.1888
-3 -3 -3 0.9081 8.0196
-3 -3 -2 4.1815 -3.9532
-3 -3 -1 -3.1808 2.8039
-3 -2 -11 2.9822 -6.8864
-3 -2 -10 0.4305 -3.2838
-3 -2 -9 4.8706 1.5814
-3 -2 -8 -4.5899 -3.6598
-3 -2 -7 1.4215 13.0738
-3 -2 -6 -9.5140 8.7009
-3 -2 -5 -3.5122 7.5907
-3 -2 -4 -7.7524 9.0793
-3 -2 -3 1.2904 2.9583
-3 -2 -2 -1.4190 -3.6302
-3 -2 -1 8.3916 3.2635
-3 -1 -10 2.3885 -1.4074
-3 -1 -9 8.7796 0.4127
-3 -1 -8 -9.4326 0.1238
-3 -1 -7 1.1833 -4.4885
-3 -1 -6 -2.2883 1.1090
-3 -1 -5 -8.5555 -0.1438
-3 -1 -4 9.1564 2.9294
-3 -1 -3 -4.8313 7.0253
-3 -1 -2 3.8428 5.7770
-3 -1 -1 5.7813 3.2989
-2 -16 -3 2.7462 -5.0100
-2 -16 -2 -4.0780 4.5541
-2 -15 -7 2.7559 2.9306
-2 -15 -6 -0.3348 0.4312
-2 -15 -5 4.0038 -2.0559
-2 -15 -4 2.7673 0.3284
-2 -15 -3 -1.8393 -2.0575
-2 -15 -2 -2.5911 1.9999
-2 -15 -1 -3.2722 -5.3926
-2 -14 -9 0.6226 0.6665
-2 -14 -8 -4.4188 -4.2886
-2 -14 -7 2.3400 -1.5470
-2 -14 -6 1.6061 3.3964
-2 -14 -5 2.1592 0.0631
-2 -14 -4 3.9716 6.9787
-2 -14 -3 1.3601 -0.0294
-2 -14 -2 0.1779 0.1699
-2 -14 -1 0.5606 -6.8553
-2 -13 -11 2.1564 0.3803
-2 -13 -10 -2.4025 -3.1431
-2 -13 -9 6.7429 -6.3602
-2 -13 -8 -0.5486 -1.5425
-2 -13 -7 3.8501 0.5773
-2 -13 -6 -1.0634 2.0452
-2 -13 -5 -5.8627 6.1708
-2 -13 -4 -1.5675 2.1944
-2 -13 -3 -9.4619 -3.2167
-2 -13 -2 -1.5295 -0.5312
-2 -12 -12 -1.2579 -1.2919
-2 -12 -11 -1.1957 -0.9785
-2 -12 -10 4.7498 0.7383
-2 -12 -9 2.7065 0.6487
-2 -12 -8 5.2132 8.2623
-2 -12 -7 1.5566 -1.1450
-2 -12 -6 0.4643 2.6942
-2 -12 -5 -1.7469 -2.4418
-2 -12 -4 1.3763 -6.8911
-2 -12 -3 0.2195 -4.1555
-2 -12 -2 0.5253 -4.5336
-2 -11 -13 2.3582 -2.4858
-2 -11 -12 -1.7209 -7.4886
-2 -11 -11 0.6627 0.6494
-2 -11 -10 -4.4452 -5.2551
-2 -11 -9 -2.5993 9.4681
-2 -11 -8 -2.4160 -1.8027
-2 -11 -7 -4.3634 4.8585
-2 -11 -6 0.4043 -1.2431
-2 -11 -5 -5.9572 2.2816
-2 -11 -4 1.9201 -3.0928
-2 -11 -3 -5.8707 7.4867
-2 -11 -2 7.4593 -6.5698
-2 -11 -1 -2.6792 -3.2154
-2 -10 -14 2.7651 -0.0026
-2 -10 -13 4.3508 2.6071
-2 -10 -12 2.0872 -0.5029
-2 -10 -11 8.1292 -0.5306
-2 -10 -10 -3.3180 0.8271
-2 -10 -9 3.3808 -5.2746
-2 -10 -8 -1.0473 1.9734
-2 -10 -7 -2.8022 0.2598
-2 -10 -6 0.5504 -0.5538
-2 -10 -5 1.9709 -0.5791
-2 -10 -4 -5.6801 -12.0289
-2 -10 -3 10.5888 -3.8510
-2 -10 -2 -6.6807 -17.7458
-2 -10 -1 6.9121 5.4797
-2 -9 -15 1.1275 1.2371
-2 -9 -14 -4.5182 1.8705
-2 -9 -13 1.8945 2.9288
-2 -9 -12 -5.1507 2.8063
-2 -9 -11 1.9543 2.1752
-2 -9 -10 -4.0301 -4.6260
-2 -9 -9 -5.4720 -0.4350
-2 -9 -8 -3.0754 -4.6695
-2 -9 -7 -12.0213 6.4671
-2 -9 -6 2.3808 -3.7024
-2 -9 -5 -2.6588 5.7242
-2 -9 -4 9.2395 -0.7293
-2 -9 -3 15.1941 -5.9496
-2 -9 -2 10.1978 9.6873
-2 -9 -1 11.5910 -5.5674
-2 -8 -16 1.2476 -0.7200
-2 -8 -15 -0.4989 1.1697
-2 -8 -14 2.1574 -0.4398
-2 -8 -13 -1.3992 -3.1340
-2 -8 -12 -1.7811 3.6504
-2 -8 -11 2.6642 -7.3461
-2 -8 -10 3.8026 2.4587
-2 -8 -9 2.3330 -5.4500
-2 -8 -8 4.9883 -8.9051
-2 -8 -7 -2.1234 -3.9044
-2 -8 -6 -4.1556 -13.8680
-2 -8 -5 -4.0019 5.9640
-2 -8 -4 -7.1938 -1.7079
-2 -8 -3 -0.4225 16.9850
-2 -8 -2 -5.5795 8.1608
-2 -8 -1 1.5187 13.1986
-2 -7 -15 6.8519 7.2489
-2 -7 -14 -0.8373 -2.4563
-2 -7 -13 -0.7120 0.6930
-2 -7 -12 0.1092 -4.1229
-2 -7 -11 -5.9367 -1.5194
-2 -7 -10 4.9923 -3.0121
-2 -7 -9 -1.5010 11.3629
-2 -7 -8 3.4966 -15.6469
-2 -7 -7 6.0466 12.9745
-2 -7 -6 0.8486 -14.9923
-2 -7 -5 7.8795 -2.1414
-2 -7 -4 -0.2357 0.4372
-2 -7 -3 0.3317 -13.0891
-2 -7 -2 -2.0693 0.1640
-2 -7 -1 -2.5536 -15.8680
-2 -6 -14 -1.7179 5.0799
-2 -6 -13 0.7918 4.0811
-2 -6 -12 10.1272 -2.2213
-2 -6 -11 4.7150 2.0405
-2 -6 -10 4.3964 -1.2619
-2 -6 -9 12.9307 -5.9399
-2 -6 -8 -10.1494 8.3820
-2 -6 -7 7.7130 -0.0044
-2 -6 -6 -7.3314 5.5943
-2 -6 -5 -6.0814 9.9717
-2 -6 -4 1.0809 -0.9991
-2 -6 -3 -8.3594 8.9924
-2 -6 -2 8.2481 2.0238
-2 -6 -1 -2.7712 9.4230
-2 -5 -13 3.0259 4.1911
-2 -5 -12 -6.5255 -0.6583
-2 -5 -11 -5.1219 8.0054
-2 -5 -10 4.6140 -0.5693
-2 -5 -9 -11.0502 7.3872
-2 -5 -8 12.0799 -1.6061
-2 -5 -7 -9.3523 0.7958
-2 -5 -6 -0.4599 -18.7622
-2 -5 -5 -3.2816 -5.1338
-2 -5 -4 -5.7852 -26.3948
-2 -5 -3 2.0183 -4.1600
-2 -5 -2 2.3727 -5.4553
-2 -5 -1 1.4124 -1.7736
-2 -4 -12 6.3806 1.9724
-2 -4 -11 5.2693 -7.9255
-2 -4 -10 0.3628 0.6477
-2 -4 -9 6.9980 3.5572
-2 -4 -8 -5.0687 -5.1348
-2 -4 -7 10.6929 8.9524
-2 -4 -6 -4.0434 -0.9816
-2 -4 -5 15.9356 4.2030
-2 -4 -4 5.6746 6.8093
-2 -4 -3 6.7150 9.1705
-2 -4 -2 6.9629 1.4484
-2 -4 -1 -1.1850 20.6622
-2 -3 -10 19.4472 11.9218
-2 -3 -9 -12.4222 -0.1973
-2 -3 -8 5.9065 4.0684
-2 -3 -7 -6.3962 -2.5800
-2 -3 -6 -1.8191 -6.0634
-2 -3 -5 -3.1103 1.9021
-2 -3 -4 0.1550 -6.7686
-2 -3 -3 -4.6377 -1.2843
-2 -3 -2 -3.9478 -9.7029
-2 -3 -1 -1.4573 -0.2616
-2 -2 -8 3.3849 -2.5469
-2 -2 -7 0.6700 7.2670
-2 -2 -6 1.2589 4.2985
-2 -2 -5 7.2842 5.4765
-2 -2 -4 0.3473 2.4858
-2 -2 -3 7.0452 18.3988
-2 -2 -2 4.4984 6.5527
-2 -2 -1 3.5877 9.4501
-2 -1 -7 -9.4554 8.8574
-2 -1 -6 -3.5982 -3.8857
-2 -1 -5 -10.8916 -0.8831
-2 -1 -4 -9.2388 -4.2398
-2 -1 -3 -8.8033 5.1109
-2 -1 -2 -10.9068 -1.5769
-2 -1 -1 -5.0345 8.2173
-1 -17 -4 -3.3741 -0.1720
-1 -17 -3 2.5770 -5.0457
-1 -16 -8 -3.1987 -0.4406
-1 -16 -7 -3.1972 -1.4596
-1 -16 -6 -1.9516 1.9657
-1 -16 -5 -3.9216 -1.7379
-1 -16 -4 3.0060 0.7058
-1 -16 -3 6.7044 -4.5348
-1 -16 -2 6.4640 -1.2146
-1 -15 -10 0.7870 4.8806
-1 -15 -9 2.1139 1.1837
-1 -15 -8 -2.1005 -0.3675
-1 -15 -7 -1.7253 2.2012
-1 -15 -6 -1.7710 -8.7729
-1 -15 -5 -1.1847 3.1245
-1 -15 -4 3.0410 -4.4568
-1 -15 -3 7.2670 4.8829
-1 -15 -2 1.6474 5.9041
-1 -14 -12 -2.1498 -1.1361
-1 -14 -11 -2.2546 -1.5376
-1 -14 -10 -7.6487 4.4079
-1 -14 -9 -6.3716 -2.5638
-1 -14 -8 -8.0737 0.2274
-1 -14 -7 5.3283 -4.9701
-1 -14 -6 -6.2645 -7.3140
-1 -14 -5 9.3165 -0.8193
-1 -14 -4 -3.5938 2.8661
-1 -14 -3 0.0133 3.3806
-1 -14 -2 1.2681 10.3112
-1 -13 -13 2.1503 -1.7285
-1 -13 -12 6.7389 3.3222
-1 -13 -11 -1.5137 -8.9000
-1 -13 -10 1.1354 0.3651
-1 -13 -9 2.7139 -5.3257
-1 -13 -8 2.6237 2.1600
-1 -13 -7 10.0534 0.0993
-1 -13 -6 1.7214 1.7932
-1 -13 -5 7.7141 1.9673
-1 -13 -4 -4.1185 -2.8763
-1 -13 -3 1.4055 5.3662
-1 -13 -2 -0.4406 0.1730
-1 -12 -14 -2.5236 -1.3968
-1 -12 -13 -2.7277 11.0296
-1 -12 -12 9.3723 1.0561
-1 -12 -11 -4.6034 6.1020
-1 -12 -10 7.6988 6.7245
-1 -12 -9 -2.2062 -1.2024
-1 -12 -8 -13.7932 12.8729
-1 -12 -7 -3.2803 -1.6710
-1 -12 -6 -11.7906 11.4882
-1 -12 -5 0.7676 -3.8273
-1 -12 -4 0.0904 8.2313
-1 -12 -3 5.3704 -0.5511
-1 -12 -2 -7.5933 10.4843
-1 -11 -15 2.0336 -4.6437
-1 -11 -14 -8.9318 0.3828
-1 -11 -13 4.2604 6.7086
-1 -11 -12 -9.2492 0.6934
-1 -11 -11 -4.4481 8.4110
-1 -11 -10 -2.7473 0.6977
-1 -11 -9 -18.8241 -11.5732
-1 -11 -8 2.7743 -2.7990
-1 -11 -7 -10.0389 -15.5115
-1 -11 -6 5.3407 -6.6793
-1 -11 -5 -2.4424 -0.3929
-1 -11 -4 2.6491 -7.8595
-1 -11 -3 -13.8540 4.7421
-1 -11 -2 -1.6301 -7.4953
-1 -11 -1 -14.6609 1.1066
-1 -10 -16 -3.3572 -0.8048
-1 -10 -15 0.1730 -7.6370
-1 -10 -14 -3.3755 1.2969
-1 -10 -13 0.0720 -9.7461
-1 -10 -12 -1.5763 -4.8528
-1 -10 -11 -1.9122 -4.6664
-1 -10 -10 5.0203 -15.8477
-1 -10 -9 1.1138 -2.2137
-1 -10 -8 17.9574 -15.1477
-1 -10 -7 7.4755 1.8659
-1 -10 -6 4.4225 -3.1360
-1 -10 -5 11.8052 5.4047
-1 -10 -4 -12.5722 -1.5828
-1 -10 -3 9.1475 -0.2424
-1 -10 -2 0.1515 -3.7653
-1 -10 -1 -0.5073 -2.6152
-1 -9 -16 6.2346 1.5506
-1 -9 -15 2.7887 -8.1484
-1 -9 -14 7.9578 1.7727
-1 -9 -13 9.5379 -3.7640
-1 -9 -12 7.2572 1.4780
-1 -9 -10 9.4075 3.3115
-1 -9 -9 13.5682 12.5170
-1 -9 -8 0.4971 6.1805
-1 -9 -7 7.6259 3.7266
-1 -9 -6 -2.8638 10.1868
-1 -9 -5 3.1280 -1.7107
-1 -9 -4 3.4501 3.2961
-1 -9 -3 -0.4901 -0.9439
-1 -9 -2 0.2639 -14.3456
-1 -9 -1 -10.2042 -0.8419
-1 -8 -15 -5.1427 1.7585
-1 -8 -14 5.3273 2.4822
-1 -8 -13 -2.4077 7.2526
-1 -8 -12 0.9939 8.2588
-1 -8 -11 4.4705 9.6553
-1 -8 -10 1.9817 2.9153
-1 -8 -9 -3.1051 7.4930
-1 -8 -8 -0.5078 1.5006
-1 -8 -7 -7.5635 0.0678
-1 -8 -6 5.4004 9.4692
-1 -8 -5 -7.3297 -1.7027
-1 -8 -4 6.7648 10.6210
-1 -8 -3 -2.9030 -0.0405
-1 -8 -2 -6.8875 1.6965
-1 -8 -1 18.5535 -0.4647
-1 -7 -14 2.0911 -7.9948
-1 -7 -13 4.8805 6.4010
-1 -7 -12 -3.0410 1.6430
-1 -7 -11 6.0294 7.4554
-1 -7 -10 -8.8125 13.0076
-1 -7 -9 11.4036 5.7841
-1 -7 -8 -1.7347 6.1517
-1 -7 -7 -3.2630 9.0480
-1 -7 -6 1.2464 -13.3510
-1 -7 -5 -18.8925 9.0658
-1 -7 -4 1.6612 -16.4616
-1 -7 -3 -12.6177 0.0731
-1 -7 -2 9.7416 -12.8525
-1 -7 -1 -6.7479 -3.2417
-1 -6 -13 9.6151 2.0053
-1 -6 -12 -3.5107 8.9220
-1 -6 -11 -11.7887 4.4110
-1 -6 -10 -1.1483 10.1303
-1 -6 -9 -9.0006 -1.8070
-1 -6 -8 3.7522 7.3286
-1 -6 -7 -2.2470 -6.0895
-1 -6 -6 -1.4041 -5.7634
-1 -6 -5 2.9380 0.5424
-1 -6 -4 -4.5826 -12.7728
-1 -6 -3 16.4530 6.2610
-1 -6 -2 2.9237 -1.7632
-1 -6 -1 10.9666 3.8908
-1 -5 -11 0.6598 2.9771
-1 -5 -10 -5.0759 -2.9566
-1 -5 -9 -8.3702 6.7183
-1 -5 -8 3.8695 -3.9584
-1 -5 -7 -7.8005 7.5986
-1 -5 -6 3.6737 -0.1000
-1 -5 -5 0.1871 -1.3521
-1 -5 -4 -2.9223 -7.3516
-1 -5 -3 -5.7583 -6.3052
-1 -5 -2 -3.2778 -14.8503
-1 -5 -1 -9.7412 -2.0613
-1 -4 -9 -7.9538 -0.8641
-1 -4 -8 2.1668 -5.9156
-1 -4 -7 -4.7791 -0.0621
-1 -4 -6 5.7377 -13.3711
-1 -4 -5 -2.9033 -8.6855
-1 -4 -4 6.6404 -1.2398
-1 -4 -3 -3.9799 -7.9669
-1 -4 -2 9.4505 1.9439
-1 -4 -1 25.8649 -1.1228
-1 -3 -7 5.5179 4.9750
-1 -3 -6 6.7468 -19.0751
-1 -3 -5 -0.4345 8.2535
-1 -3 -4 13.6283 -23.2998
-1 -3 -3 -8.6436 -2.4858
-1 -2 -6 -2.4725 2.8661
-1 -2 -5 10.8823 0.7306
-1 -2 -4 12.2099 -11.2068
-1 -1 -4 1.8847 -5.9616
0 3 5 -0.0707 -15.5049
0 4 5 9.4249 0.1399
0 4 6 9.6019 0.0752
0 4 7 7.3776 -0.0308
0 5 3 -0.1116 29.5470
0 5 4 -0.1178 4.6950
0 5 5 -0.0241 16.2267
0 5 6 -0.0567 -11.5071
0 5 7 0.0592 -21.1728
0 5 8 0.0215 3.6489
0 5 9 0.0316 -9.2539
0 5 10 -0.0212 -14.8103
0 6 1 -39.1264 -0.0246
0 6 2 3.7276 0.1123
0 6 4 -12.3568 -0.0298
0 6 5 -7.3471 -0.0269
0 6 6 8.7863 0.1229
0 6 7 6.1553 0.1091
0 6 9 1.9010 -0.0277
0 6 10 -4.2647 -0.0970
0 6 11 11.0533 -0.0485
0 6 12 -12.1244 0.0618
0 7 1 0.0732 1.3027
0 7 3 -0.0062 3.3380
0 7 4 -0.0870 -12.3983
0 7 5 -0.0379 -10.2680
0 7 6 -0.0714 2.9780
0 7 7 0.0536 1.4435
0 7 8 0.0133 0.9533
0 7 9 0.0195 9.4490
0 7 10 0.0228 3.4034
0 7 11 -0.0222 1.0329
0 7 12 -0.0214 -8.2880
0 8 1 2.5206 -0.0223
0 8 2 8.2330 0.0017
0 8 3 4.6663 -0.0080
0 8 4 -1.4608 0.0551
0 8 5 -9.0356 0.0032
0 8 6 3.0478 -0.0232
0 8 7 -18.7192 0.0726
0 8 8 1.5639 0.0325
0 8 9 -1.5313 0.0380
0 8 10 -5.2233 -0.0207
0 8 11 12.8966 -0.0600
0 8 12 -10.7187 -0.0444
0 8 13 8.2131 0.0336
0 8 14 -9.2321 0.0390
0 9 2 0.0177 4.4122
0 9 3 0.0562 -12.6258
0 9 4 -0.0090 -0.2355
0 9 5 0.0040 -1.2890
0 9 6 -0.0740 -8.9816
0 9 7 -0.0204 1.9875
0 9 8 0.0325 -7.6865
0 9 9 0.0274 -8.6350
0 9 10 0.0418 2.3078
0 9 11 -0.0154 2.8816
0 9 12 -0.0240 3.7182
0 9 13 -0.0101 4.5444
0 9 14 -0.0156 -3.0553
0 9 15 -0.0059 3.4346
0 10 1 -3.2181 0.0069
0 10 2 -3.4131 0.0058
0 10 3 -9.6203 -0.0220
0 10 4 3.7164 -0.0234
0 10 5 -7.5865 0.0314
0 10 6 -1.0788 -0.0025
0 10 7 -4.6519 0.0227
0 10 8 -2.0692 0.0036
0 10 9 -5.3792 0.0248
0 10 10 3.7973 0.0202
0 10 11 4.3969 -0.0048
0 10 12 -1.5155 -0.0314
0 10 13 8.5740 -0.0382
0 10 14 -6.6840 0.0006
0 10 15 3.9298 0.0307
0 10 16 -1.2878 0.0113
0 11 1 0.0307 -2.8293
0 11 2 -0.0023 2.9003
0 11 3 0.0146 3.3397
0 11 4 0.0063 -3.0108
0 11 5 0.0335 -8.2551
0 11 6 -0.0066 -4.3365
0 11 7 -0.0368 -8.2433
0 11 9 -0.0107 0.0111
0 11 10 0.0517 -5.3759
0 11 11 0.0249 -2.0574
0 11 12 -0.0249 10.5650
0 11 13 -0.0227 0.0104
0 11 14 -0.0283 9.2673
0 11 15 0.0054 2.1588
0 11 16 0.0434 4.2082
0 12 2 -0.0110 -0.0046
0 12 3 -5.0710 -0.0023
0 12 4 0.8794 -0.0175
0 12 5 -4.7353 -0.0086
0 12 6 1.5895 -0.0134
0 12 7 0.7398 0.0132
0 12 8 8.7564 0.0078
0 12 9 3.2151 0.0123
0 12 10 6.1655 0.0162
0 12 11 -1.6854 0.0032
0 12 12 3.8677 0.0070
0 12 13 -7.0513 -0.0308
0 12 14 2.9573 -0.0341
0 12 15 -9.0185 0.0260
0 13 2 0.0311 -1.0976
0 13 3 0.0101 -1.7340
0 13 4 -0.0193 5.3156
0 13 5 0.0024 -1.8342
0 13 6 0.0047 -2.4506
0 13 7 0.0124 2.1559
0 13 8 0.0092 -6.2700
0 13 9 -0.0471 2.6950
0 13 10 -0.0188 1.3185
0 13 11 0.0098 1.6383
0 13 12 -0.0125 -0.3016
0 13 13 0.0475 3.0916
0 13 14 -0.0772 -4.6260
0 14 2 -8.6935 0.0026
0 14 3 -2.9247 0.0091
0 14 4 -0.6153 -0.0132
0 14 5 -2.6817 -0.0253
0 14 6 -0.1359 -0.0013
0 14 7 -0.9016 0.0022
0 14 8 -1.3160 -0.0098
0 14 9 2.2092 0.0474
0 14 10 6.7277 0.0125
0 14 11 -3.2323 -0.0032
0 14 12 7.2467 0.0583
0 15 3 0.0517 -5.2160
0 15 4 0.0073 2.0569
0 15 5 -0.0090 0.8071
0 15 6 -0.0151 -0.3293
0 15 7 -0.0105 -3.5126
0 15 8 0.0148 -0.4715
0 15 9 0.0302 -0.7043
0 15 10 -0.0330 -2.9856
0 15 11 -0.0656 7.2493
0 16 3 -6.1361 -0.0025
0 16 4 -4.0193 0.0093
0 16 5 -5.2666 -0.0134
0 16 6 0.8138 -0.0741
0 16 7 0.2267 0.0542
0 16 8 5.0584 -0.0090
0 16 9 -1.2576 0.0836
0 17 3 -0.0074 -4.3236
0 17 4 0.0210 -3.5487
0 17 5 0.1256 -2.8070
0 17 6 0.0043 -1.9181
1 1 4 1.8847 5.9616
1 2 4 12.2099 11.2068
1 2 5 10.8823 -0.7306
1 3 2 4.0905 6.8668
1 3 3 -8.6436 2.4858
1 3 4 13.6283 23.2998
1 3 5 -0.4345 -8.2535
1 3 6 6.7468 19.0751
1 4 1 25.8649 1.1228
1 4 2 9.4505 -1.9439
1 4 3 -3.9799 7.9669
1 4 4 6.6404 1.2398
1 4 5 -2.9033 8.6855
1 4 6 5.7377 13.3711
1 4 7 -4.7791 0.0621
1 4 8 2.1668 5.9156
1 5 0 -0.2867 14.4893
1 5 1 -9.7412 2.0613
1 5 2 -3.2778 14.8503
1 5 3 -5.7583 6.3052
1 5 4 -2.9223 7.3516
1 5 5 0.1871 1.3521
1 5 6 3.6737 0.1000
1 5 7 -7.8005 -7.5986
1 5 8 3.8695 3.9584
1 5 9 -8.3702 -6.7183
1 5 10 -5.0759 2.9566
1 6 0 1.4767 -6.5630
1 6 1 10.9666 -3.8908
1 6 2 2.9237 1.7632
1 6 3 16.4530 -6.2610
1 6 4 -4.5826 12.7728
1 6 5 2.9380 -0.5424
1 6 6 -1.4041 5.7634
1 6 7 -2.2470 6.0895
1 6 8 3.7522 -7.3286
1 6 9 -9.0006 1.8070
1 6 10 -1.1483 -10.1303
1 6 11 -11.7887 -4.4110
1 6 12 -3.5107 -8.9220
1 7 0 0.2794 14.4933
1 7 1 -6.7479 3.2417
1 7 2 9.7416 12.8525
1 7 3 -12.6177 -0.0731
1 7 4 1.6612 16.4616
1 7 5 -18.8925 -9.0658
1 7 6 1.2464 13.3510
1 7 7 -3.2630 -9.0480
1 7 8 -1.7347 -6.1517
1 7 9 11.4036 -5.7841
1 7 10 -8.8125 -13.0076
1 7 11 6.0294 -7.4554
1 7 12 -3.0410 -1.6430
1 7 13 4.8805 -6.4010
1 7 14 2.0911 7.9948
1 8 0 0.9881 3.8847
1 8 1 18.5535 0.4647
1 8 2 -6.8875 -1.6965
1 8 3 -2.9030 0.0405
1 8 4 6.7648 -10.6210
1 8 5 -7.3297 1.7027
1 8 6 5.4004 -9.4692
1 8 7 -7.5635 -0.0678
1 8 8 -0.5078 -1.5006
1 8 9 -3.1051 -7.4930
1 8 10 1.9817 -2.9153
1 8 11 4.4705 -9.6553
1 8 12 0.9939 -8.2588
1 8 13 -2.4077 -7.2526
1 8 14 5.3273 -2.4822
1 8 15 -5.1427 -1.7585
1 9 0 0.6161 22.9302
1 9 1 -10.2042 0.8419
1 9 2 0.2639 14.3456
1 9 3 -0.4901 0.9439
1 9 4 3.4501 -3.2961
1 9 5 3.1280 1.7107
1 9 6 -2.8638 -10.1868
1 9 7 7.6259 -3.7266
1 9 8 0.4971 -6.1805
1 9 9 13.5682 -12.5170
1 9 10 9.4075 -3.3115
1 9 11 13.7063 -7.8223
1 9 12 7.2572 -1.4780
1 9 13 9.5379 3.7640
1 9 14 7.9578 -1.7727
1 9 15 2.7887 8.1484
1 9 16 6.2346 -1.5506
1 10 0 0.3655 1.3142
1 10 1 -0.5073 2.6152
1 10 2 0.1515 3.7653
1 10 3 9.1475 0.2424
1 10 4 -12.5722 1.5828
1 10 5 11.8052 -5.4047
1 10 6 4.4225 3.1360
1 10 7 7.4755 -1.8659
1 10 8 17.9574 15.1477
1 10 9 1.1138 2.2137
1 10 10 5.0203 15.8477
1 10 11 -1.9122 4.6664
1 10 12 -1.5763 4.8528
1 10 13 0.0720 9.7461
1 10 14 -3.3755 -1.2969
1 10 15 0.1730 7.6370
1 10 16 -3.3572 0.8048
1 11 2 -1.6301 7.4953
1 11 3 -13.8540 -4.7421
1 11 4 2.6491 7.8595
1 11 5 -2.4424 0.3929
1 11 6 5.3407 6.6793
1 11 7 -10.0389 15.5115
1 11 8 2.7743 2.7990
1 11 9 -18.8241 11.5732
1 11 10 -2.7473 -0.6977
1 11 11 -4.4481 -8.4110
1 11 12 -9.2492 -0.6934
1 11 13 4.2604 -6.7086
1 11 14 -8.9318 -0.3828
1 11 15 2.0336 4.6437
1 12 1 -2.8755 -2.3222
1 12 3 5.3704 0.5511
1 12 4 0.0904 -8.2313
1 12 5 0.7676 3.8273
1 12 6 -11.7906 -11.4882
1 12 7 -3.2803 1.6710
1 12 8 -13.7932 -12.8729
1 12 9 -2.2062 1.2024
1 12 10 7.6988 -6.7245
1 12 11 -4.6034 -6.1020
1 12 12 9.3723 -1.0561
1 12 13 -2.7277 -11.0296
1 12 14 -2.5236 1.3968
1 13 1 -2.3817 -3.5433
1 13 2 -0.4406 -0.1730
1 13 3 1.4055 -5.3662
1 13 4 -4.1185 2.8763
1 13 5 7.7141 -1.9673
1 13 6 1.7214 -1.7932
1 13 7 10.0534 -0.0993
1 13 8 2.6237 -2.1600
1 13 9 2.7139 5.3257
1 13 10 1.1354 -0.3651
1 13 11 -1.5137 8.9000
1 13 12 6.7389 -3.3222
1 13 13 2.1503 1.7285
1 14 2 1.2681 -10.3112
1 14 3 0.0133 -3.3806
1 14 4 -3.5938 -2.8661
1 14 5 9.3165 0.8193
1 14 6 -6.2645 7.3140
1 14 7 5.3283 4.9701
1 14 8 -8.0737 -0.2274
1 14 9 -6.3716 2.5638
1 14 10 -7.6487 -4.4079
1 14 11 -2.2546 1.5376
1 14 12 -2.1498 1.1361
1 15 2 1.6474 -5.9041
1 15 3 7.2670 -4.8829
1 15 4 3.0410 4.4568
1 15 5 -1.1847 -3.1245
1 15 6 -1.7710 8.7729
1 15 7 -1.7253 -2.2012
1 15 8 -2.1005 0.3675
1 15 9 2.1139 -1.1837
1 15 10 0.7870 -4.8806
1 16 2 6.4640 1.2146
1 16 3 6.7044 4.5348
1 16 4 3.0060 -0.7058
1 16 5 -3.9216 1.7379
1 16 6 -1.9516 -1.9657
1 16 7 -3.1972 1.4596
1 16 8 -3.1987 0.4406
1 17 3 2.5770 5.0457
1 17 4 -3.3741 0.1720
2 0 0 -12.4743 -0.1482
2 0 1 -0.1481 -5.1549
2 0 2 -6.5575 -0.2458
2 0 3 0.0927 9.6796
2 0 4 -0.6917 0.0038
2 0 5 0.1719 -1.2667
2 0 6 -7.9438 0.1222
2 1 0 -3.8185 -0.3303
2 1 1 -5.0345 -8.2173
2 1 2 -10.9068 1.5769
2 1 3 -8.8033 -5.1109
2 1 4 -9.2388 4.2398
2 1 5 -10.8916 0.8831
2 1 6 -3.5982 3.8857
2 1 7 -9.4554 -8.8574
2 1 8 -10.8020 9.7005
2 2 0 7.5699 -0.8034
2 2 1 3.5877 -9.4501
2 2 2 4.4984 -6.5527
2 2 3 7.0452 -18.3988
2 2 4 0.3473 -2.4858
2 2 5 7.2842 -5.4765
2 2 6 1.2589 -4.2985
2 2 7 0.6700 -7.2670
2 2 8 3.3849 2.5469
2 3 0 -9.2424 -1.0499
2 3 1 -1.4573 0.2616
2 3 2 -3.9478 9.7029
2 3 3 -4.6377 1.2843
2 3 4 0.1550 6.7686
2 3 5 -3.1103 -1.9021
2 3 6 -1.8191 6.0634
2 3 7 -6.3962 2.5800
2 3 8 5.9065 -4.0684
2 3 11 -8.7084 -11.1697
2 4 0 1.6910 -0.4980
2 4 1 -1.1850 -20.6622
2 4 2 6.9629 -1.4484
2 4 3 6.7150 -9.1705
2 4 4 5.6746 -6.8093
2 4 5 15.9356 -4.2030
2 4 6 -4.0434 0.9816
2 4 7 10.6929 -8.9524
2 4 8 -5.0687 5.1348
2 4 9 6.9980 -3.5572
2 4 11 5.2693 7.9255
2 4 12 6.3806 -1.9724
2 5 0 5.6262 -1.2335
2 5 1 1.4124 1.7736
2 5 2 2.3727 5.4553
2 5 3 2.0183 4.1600
2 5 4 -5.7852 26.3948
2 5 5 -3.2816 5.1338
2 5 6 -0.4599 18.7622
2 5 7 -9.3523 -0.7958
2 5 8 12.0799 1.6061
2 5 9 -11.0502 -7.3872
2 5 10 4.6140 0.5693
2 5 11 -5.1219 -8.0054
2 5 12 -6.5255 0.6583
2 5 13 3.0259 -4.1911
2 6 0 12.7712 0.0005
2 6 1 -2.7712 -9.4230
2 6 2 8.2481 -2.0238
2 6 3 -8.3594 -8.9924
2 6 4 1.0809 0.9991
2 6 5 -6.0814 -9.9717
2 6 6 -7.3314 -5.5943
2 6 7 7.7130 0.0044
2 6 8 -10.1494 -8.3820
2 6 9 12.9307 5.9399
2 6 10 4.3964 1.2619
2 6 11 4.7150 -2.0405
2 6 12 10.1272 2.2213
2 6 13 0.7918 -4.0811
2 6 14 -1.7179 -5.0799
2 7 0 -2.1441 -1.0520
2 7 1 -2.5536 15.8680
2 7 2 -2.0693 -0.1640
2 7 3 0.3317 13.0891
2 7 4 -0.2357 -0.4372
2 7 5 7.8795 2.1414
2 7 6 0.8486 14.9923
2 7 7 6.0466 -12.9745
2 7 8 3.4966 15.6469
2 7 9 -1.5010 -11.3629
2 7 10 4.9923 3.0121
2 7 11 -5.9367 1.5194
2 7 12 0.1092 4.1229
2 7 13 -0.7120 -0.6930
2 7 14 -0.8373 2.4563
2 7 15 6.8519 -7.2489
2 8 0 -5.6309 0.3066
2 8 1 1.5187 -13.1986
2 8 2 -5.5795 -8.1608
2 8 3 -0.4225 -16.9850
2 8 4 -7.1938 1.7079
2 8 5 -4.0019 -5.9640
2 8 6 -4.1556 13.8680
2 8 7 -2.1234 3.9044
2 8 8 4.9883 8.9051
2 8 9 2.3330 5.4500
2 8 10 3.8026 -2.4587
2 8 11 2.6642 7.3461
2 8 12 -1.7811 -3.6504
2 8 13 -1.3992 3.1340
2 8 14 2.1574 0.4398
2 8 15 -0.4989 -1.1697
2 8 16 1.2476 0.7200
2 9 0 8.3451 -0.7238
2 9 1 11.5910 5.5674
2 9 2 10.1978 -9.6873
2 9 3 15.1941 5.9496
2 9 4 9.2395 0.7293
2 9 5 -2.6588 -5.7242
2 9 6 2.3808 3.7024
2 9 7 -12.0213 -6.4671
2 9 8 -3.0754 4.6695
2 9 9 -5.4720 0.4350
2 9 10 -4.0301 4.6260
2 9 11 1.9543 -2.1752
2 9 12 -5.1507 -2.8063
2 9 13 1.8945 -2.9288
2 9 14 -4.5182 -1.8705
2 9 15 1.1275 -1.2371
2 10 0 -4.4105 0.4221
2 10 1 6.9121 -5.4797
2 10 2 -6.6807 17.7458
2 10 3 10.5888 3.8510
2 10 4 -5.6801 12.0289
2 10 5 1.9709 0.5791
2 10 6 0.5504 0.5538
2 10 7 -2.8022 -0.2598
2 10 8 -1.0473 -1.9734
2 10 9 3.3808 5.2746
2 10 10 -3.3180 -0.8271
2 10 11 8.1292 0.5306
2 10 12 2.0872 0.5029
2 10 13 4.3508 -2.6071
2 10 14 2.7651 0.0026
2 11 0 11.8732 -0.2405
2 11 1 -2.6792 3.2154
2 11 2 7.4593 6.5698
2 11 3 -5.8707 -7.4867
2 11 4 1.9201 3.0928
2 11 5 -5.9572 -2.2816
2 11 6 0.4043 1.2431
2 11 7 -4.3634 -4.8585
2 11 8 -2.4160 1.8027
2 11 9 -2.5993 -9.4681
2 11 10 -4.4452 5.2551
2 11 11 0.6627 -0.6494
2 11 12 -1.7209 7.4886
2 11 13 2.3582 2.4858
2 12 0 -2.6211 0.3376
2 12 1 1.2285 9.5519
2 12 2 0.5253 4.5336
2 12 3 0.2195 4.1555
2 12 4 1.3763 6.8911
2 12 5 -1.7469 2.4418
2 12 6 0.4643 -2.6942
2 12 7 1.5566 1.1450
2 12 8 5.2132 -8.2623
2 12 9 2.7065 -0.6487
2 12 10 4.7498 -0.7383
2 12 11 -1.1957 0.9785
2 12 12 -1.2579 1.2919
2 13 0 -1.6794 0.1780
2 13 1 -4.0734 1.2138
2 13 2 -1.5295 0.5312
2 13 3 -9.4619 3.2167
2 13 4 -1.5675 -2.1944
2 13 5 -5.8627 -6.1708
2 13 6 -1.0634 -2.0452
2 13 7 3.8501 -0.5773
2 13 8 -0.5486 1.5425
2 13 9 6.7429 6.3602
2 13 10 -2.4025 3.1431
2 13 11 2.1564 -0.3803
2 14 1 0.5606 6.8553
2 14 2 0.1779 -0.1699
2 14 3 1.3601 0.0294
2 14 4 3.9716 -6.9787
2 14 5 2.1592 -0.0631
2 14 6 1.6061 -3.3964
2 14 7 2.3400 1.5470
2 14 8 -4.4188 4.2886
2 14 9 0.6226 -0.6665
2 15 1 -3.2722 5.3926
2 15 2 -2.5911 -1.9999
2 15 3 -1.8393 2.0575
2 15 4 2.7673 -0.3284
2 15 5 4.0038 2.0559
2 15 6 -0.3348 -0.4312
2 15 7 2.7559 -2.9306
2 16 1 2.0712 -2.5794
2 16 2 -4.0780 -4.5541
2 16 3 2.7462 5.0100
3 0 1 -0.0991 -3.3772
3 0 2 -10.5194 -0.3605
3 0 3 -0.1028 -19.0256
3 0 4 -10.2250 -0.2435
3 0 5 -0.0420 -17.7017
3 0 6 -1.9360 0.0721
3 0 7 -0.0348 2.1754
3 0 8 1.0119 0.0841
3 0 9 -0.0967 2.2681
3 0 10 -3.4990 -0.0319
3 1 0 -1.0793 -6.0686
3 1 1 5.7813 -3.2989
3 1 2 3.8428 -5.7770
3 1 3 -4.8313 -7.0253
3 1 4 9.1564 -2.9294
3 1 5 -8.5555 0.1438
3 1 6 -2.2883 -1.1090
3 1 7 1.1833 4.4885
3 1 8 -9.4326 -0.1238
3 1 9 8.7796 -0.4127
3 1 10 2.3885 1.4074
3 1 11 2.3011 -1.6853
3 2 0 0.0739 8.6533
3 2 1 8.3916 -3.2635
3 2 2 -1.4190 3.6302
3 2 3 1.2904 -2.9583
3 2 4 -7.7524 -9.0793
3 2 5 -3.5122 -7.5907
3 2 6 -9.5140 -8.7009
3 2 8 -4.5899 3.6598
3 2 9 4.8706 -1.5814
3 2 10 0.4305 3.2838
3 2 11 2.9822 6.8864
3 2 12 1.1794 -1.3546
3 3 0 -0.7322 15.6155
3 3 1 -3.1808 -2.8039
3 3 2 4.1815 3.9532
3 3 3 0.9081 -8.0196
3 3 4 -2.2227 -13.1888
3 3 5 4.3568 -11.1952
3 3 6 -3.2620 -8.0158
3 3 7 2.4418 -5.5821
3 3 8 -0.6118 3.5756
3 3 9 0.1030 3.5348
3 3 10 -2.6158 3.3417
3 3 11 1.1805 1.7937
3 3 12 -1.8712 4.7779
3 4 0 -0.0205 1.8894
3 4 1 -12.7897 3.2427
3 4 2 2.6180 0.6644
3 4 3 7.8522 -1.2532
3 4 4 6.6946 1.3915
3 4 5 15.2747 -13.6479
3 4 6 2.5792 -4.3266
3 4 7 5.6666 -12.0518
3 4 8 -3.0438 -7.5666
3 4 9 0.4066 -1.7280
3 4 10 -3.5666 1.7778
3 4 11 1.4779 1.8423
3 4 12 1.7952 -0.5274
3 4 13 -0.9541 0.5620
3 5 0 -0.1554 -6.5616
3 5 1 1.1148 2.9776
3 5 2 -3.1221 0.6397
3 5 3 -3.7051 3.0789
3 5 4 4.8744 7.7814
3 5 5 0.0994 -0.4000
3 5 6 3.8569 1.2246
3 5 7 10.1140 -0.0062
3 5 8 -4.2996 -1.2395
3 5 9 7.3567 -1.0410
3 5 10 -4.2904 3.0629
3 5 11 -1.3928 1.0079
3 5 12 1.1490 0.2645
3 5 13 1.9556 7.6264
3 5 14 2.7127 -0.5143
3 6 0 -0.1331 3.7228
3 6 1 -4.0035 2.8875
3 6 2 -3.4212 -0.7620
3 6 3 -4.4840 3.6928
3 6 4 -2.9995 -7.1518
3 6 5 5.3462 -2.5984
3 6 6 0.8144 -0.7985
3 6 7 6.8773 -12.4680
3 6 8 0.3570 5.6704
3 6 9 2.6892 -14.1219
3 6 10 -1.5250 -0.5416
3 6 11 3.0707 -2.1548
3 6 12 -3.3941 -0.6156
3 6 13 1.8679 3.8405
3 6 14 -5.1532 2.4112
3 7 0 0.3361 -6.5543
3 7 1 -0.4158 -1.7603
3 7 2 -5.6834 -5.2868
3 7 3 1.9067 -1.1075
3 7 4 -2.8725 -0.9557
3 7 5 6.9264 1.3013
3 7 6 7.3073 2.6841
3 7 7 2.3438 -0.3102
3 7 8 10.8846 1.1575
3 7 9 -2.1107 1.6235
3 7 10 5.7639 0.9650
3 7 11 1.1263 2.7206
3 7 12 0.0107 3.3800
3 7 13 0.4885 -2.1824
3 7 14 -0.6569 1.4629
3 8 0 -0.0505 -6.0393
3 8 1 6.1698 -0.7164
3 8 2 -3.0432 -5.1079
3 8 3 8.5000 1.9816
3 8 4 -2.1710 0.1243
3 8 5 2.8445 3.6811
3 8 6 1.1785 2.3549
3 8 7 3.8898 2.3876
3 8 8 -0.0461 -3.4381
3 8 9 4.1874 0.2771
3 8 10 -2.7278 -4.8853
3 8 11 -0.4433 -3.7580
3 8 12 -2.3553 -0.9854
3 8 13 0.2649 -1.4617
3 9 0 0.6417 7.4068
3 9 1 10.8851 0.1505
3 9 2 -1.5698 7.0432
3 9 3 8.6569 -1.6848
3 9 4 -6.2366 5.8821
3 9 5 0.7132 -0.6575
3 9 6 -4.8239 2.5808
3 9 7 3.1694 5.3582
3 9 8 1.2913 -0.9675
3 9 9 7.9722 3.0560
3 9 10 5.1299 0.2475
3 9 11 3.6036 -2.1250
3 9 12 5.5250 2.1522
3 10 0 0.0124 5.7516
3 10 1 1.7041 2.6481
3 10 2 -3.3321 6.2129
3 10 3 -6.3409 1.3984
3 10 4 2.7274 4.1365
3 10 5 -1.6899 -2.3605
3 10 6 -1.8528 1.5606
3 10 7 4.1272 -2.1877
3 10 8 -7.0714 3.3716
3 10 9 2.3710 -0.3095
3 10 10 -2.7463 2.9120
3 10 11 -0.3195 3.3643
3 11 0 0.6972 10.0122
3 11 1 0.1201 -2.5442
3 11 2 -3.5593 3.4954
3 11 3 -2.3021 0.6493
3 11 4 -1.0295 -5.0555
3 11 5 0.1722 4.7651
3 11 6 -0.9567 -2.5215
3 11 7 0.2862 -3.0581
3 11 8 -0.0694 2.6913
3 11 9 -0.3954 -6.0709
3 11 10 2.0169 -0.7542
3 12 0 0.0009 -4.5153
3 12 1 -7.0485 0.8356
3 12 2 2.6687 -3.0775
3 12 3 3.3711 2.3920
3 12 4 -3.7600 0.7836
3 12 5 4.5167 0.1557
3 12 6 -0.1717 3.4054
3 12 7 0.5020 -2.2655
3 12 8 4.4063 0.8275
3 13 0 0.5244 -1.7719
3 13 1 7.9011 1.2188
3 13 2 -1.1597 -0.4061
3 13 3 0.6778 2.8573
3 13 4 -2.7697 1.7772
3 13 5 -3.5767 2.2152
3 13 6 0.0074 1.5955
3 14 0 -0.0202 4.7394
3 14 1 1.1468 1.8847
3 14 2 -3.0652 1.2891
3 14 3 0.4275 0.8269
4 0 0 -11.8117 0.0104
4 0 1 -0.0835 2.8571
4 0 2 -7.7662 0.0760
4 0 3 -0.1500 -1.2016
4 0 4 1.0613 0.0807
4 0 5 -0.0368 -4.5524
4 0 6 0.5228 0.0107
4 0 7 0.1298 0.1010
4 0 8 -3.4758 0.0223
4 0 9 0.0675 0.4159
4 0 10 -0.5612 0.0146
4 0 11 -0.0479 -1.8746
4 1 0 -3.4375 -0.1195
4 1 1 2.5921 -5.2292
4 1 2 1.8054 0.2537
4 1 3 1.7787 -0.1902
4 1 4 3.5695 -2.7151
4 1 5 0.6089 -1.1190
4 1 6 0.0800 -4.1624
4 1 7 3.4792 -1.6237
4 1 8 0.0483 -5.1043
4 1 9 0.0421 -2.1813
4 1 10 -2.0723 -4.6715
4 1 11 -4.5418 -2.1218
4 1 12 -1.9006 -1.4358
4 2 0 -8.1124 0.3112
4 2 1 -0.9781 -0.6109
4 2 2 -3.0448 3.4068
4 2 3 -0.8531 -1.1243
4 2 4 1.4439 3.6905
4 2 5 3.0007 2.1571
4 2 6 3.2987 3.4352
4 2 7 4.1829 1.2839
4 2 8 4.3090 5.1031
4 2 9 3.8374 -2.6639
4 2 10 1.9312 0.2858
4 2 11 4.1059 -4.4307
4 2 12 2.2398 -3.3881
4 3 0 4.7384 -0.3788
4 3 1 -2.2662 -8.1547
4 3 2 4.5517 -1.7574
4 3 3 0.6062 -1.0702
4 3 4 2.4343 0.6726
4 3 5 0.6932 3.1074
4 3 6 -2.9653 -1.7495
4 3 7 -5.7811 2.4862
4 3 8 -3.1301 -0.2778
4 3 9 -3.5790 3.3162
4 3 10 2.6325 3.8640
4 3 11 -0.8219 2.5700
4 4 0 1.7084 0.1054
4 4 1 -4.3920 1.4397
4 4 2 -0.9391 6.5995
4 4 3 -5.7952 2.4069
4 4 4 0.6219 4.4344
4 4 5 0.2587 0.0993
4 4 6 4.2228 0.8844
4 4 7 6.1230 -2.6917
4 4 8 -0.3306 -2.8885
4 4 9 2.4806 -0.0012
4 4 10 -2.6400 -2.5778
4 4 11 -5.2136 0.7755
4 5 0 4.3165 -0.5515
4 5 1 -2.9335 -2.4072
4 5 2 1.1926 -14.6016
4 5 3 -6.7286 -0.4961
4 5 4 -0.7164 -10.5454
4 5 5 -1.7212 6.0603
4 5 6 0.1006 6.9235
4 5 7 3.4091 4.0910
4 5 8 -2.1599 9.6850
4 5 9 0.3360 -3.1275
4 5 10 -1.9717 0.7505
4 6 0 -4.1124 -0.0460
4 6 1 9.5773 -2.2486
4 6 2 -0.9864 -2.5796
4 6 3 12.8899 -1.5941
4 6 4 0.0396 0.8527
4 6 5 -0.6083 -1.5747
4 6 6 -0.7942 2.3160
4 6 7 -10.4542 0.4681
4 6 8 5.6463 0.2654
4 6 9 -7.9073 -0.6307
4 6 10 6.5206 -0.4276
4 7 0 3.3186 -0.5122
4 7 1 -1.7796 -4.4620
4 7 2 6.1226 4.8026
4 7 3 -2.1839 3.4976
4 7 4 2.7113 0.2393
4 7 5 -0.8345 4.9037
4 7 6 -4.3236 -7.0023
4 7 7 1.3597 7.2982
4 7 8 -2.4454 -5.0086
4 7 9 2.6691 7.8752
4 8 0 3.4975 -0.1506
4 8 1 -1.2957 0.3294
4 8 2 -2.2185 -5.5654
4 8 3 0.8307 0.9383
4 8 4 -7.6578 -2.0048
4 8 5 3.4659 -1.8812
4 8 6 -4.0847 1.6813
4 8 7 0.9657 -4.5425
4 8 8 -3.0976 2.2419
4 9 0 1.9854 -0.2932
4 9 1 2.9085 4.3185
4 9 2 -0.8986 -1.2328
4 9 3 4.0369 -4.3286
4 9 4 0.3694 -0.6878
4 9 5 0.5923 -3.3145
4 9 6 3.2872 -0.2679
4 10 0 -8.3212 -0.2288
4 10 1 0.9668 -4.2446
4 10 2 -3.0963 0.8946
4 10 3 0.8955 -2.3367
4 10 4 3.0556 -1.2402
0 0 0 0.0 0.0
;
loop_
_space_group_symop_operation_xyz
'x, y, z'
'-x+1/2, -y, z+1/2'
'x+1/2, -y+1/2, -z'
'-x, y+1/2, -z+1/2'
loop_
_atom_site_label
_atom_site_type_symbol
_atom_site_fract_x
_atom_site_fract_y
_atom_site_fract_z
_atom_site_U_iso_or_equiv
_atom_site_adp_type
_atom_site_occupancy
_atom_site_site_symmetry_order
_atom_site_calc_flag
_atom_site_refinement_flags_posn
_atom_site_refinement_flags_adp
_atom_site_refinement_flags_occupancy
_atom_site_disorder_assembly
_atom_site_disorder_group
Zn1 Zn 0.4172(14) 0.4573(4) 0.2627(6) 0.232(8) Uani 1 1 d . U . . .
S2 S -0.046(3) 0.4906(8) 0.6230(11) 0.206(13) Uani 1 1 d D U . . .
C18 C -0.208(5) 0.4637(13) 0.641(2) 0.21(2) Uani 1 1 d DG U . . .
C17 C -0.178(7) 0.4083(12) 0.635(2) 0.21(2) Uani 1 1 d G U . . .
H17 H -0.2615 0.3815 0.6440 0.253 Uiso 1 1 calc DR . . . .
C16 C 0.003(7) 0.4009(9) 0.615(2) 0.22(2) Uani 1 1 d DG U . . .
C19 C 0.085(5) 0.4518(11) 0.607(2) 0.21(2) Uani 1 1 d DG U . . .
S1 S -0.168(3) 0.3833(10) 0.4631(11) 0.247(12) Uani 1 1 d D U . . .
C9 C -0.200(5) 0.3576(18) 0.5060(13) 0.24(2) Uani 1 1 d DG U . . .
C8 C -0.022(7) 0.339(2) 0.5226(14) 0.223(18) Uani 1 1 d DG U . . .
C7 C 0.120(4) 0.3532(19) 0.4900(17) 0.216(19) Uani 1 1 d DG U . . .
H7 H 0.2491 0.3458 0.4923 0.259 Uiso 1 1 calc R . . . .
C6 C 0.030(4) 0.3806(18) 0.4532(14) 0.214(17) Uani 1 1 d DG U . . .
O1 O 0.542(6) 0.5254(19) 0.279(3) 0.207(18) Uani 1 1 d . U . . .
N2 N -0.699(5) 0.510(2) 0.719(2) 0.24(3) Uani 1 1 d . U . . .
C23 C -0.670(6) 0.456(2) 0.709(2) 0.24(3) Uani 1 1 d G U . . .
H23 H -0.7584 0.4309 0.7187 0.288 Uiso 1 1 calc R . . . .
C22 C -0.510(7) 0.4402(17) 0.684(2) 0.24(3) Uani 1 1 d G U . . .
H22 H -0.4914 0.4044 0.6778 0.288 Uiso 1 1 calc DR . . . .
C21 C -0.379(5) 0.478(2) 0.6696(17) 0.24(3) Uani 1 1 d DG U . . .
C25 C -0.407(6) 0.531(2) 0.6794(19) 0.22(3) Uani 1 1 d G U . . .
H25 H -0.3193 0.5563 0.6695 0.269 Uiso 1 1 calc R . . . .
C24 C -0.567(7) 0.5471(17) 0.704(2) 0.23(3) Uani 1 1 d G U . . .
H24 H -0.5864 0.5829 0.7104 0.276 Uiso 1 1 calc R . . . .
C26 C 0.692(9) 0.531(2) 0.302(4) 0.19(2) Uani 1 1 d D U . . .
C32 C 0.975(6) 0.5886(18) 0.319(2) 0.22(2) Uani 1 1 d D U . . .
H32 H 1.0216 0.5615 0.3379 0.265 Uiso 1 1 calc R . . . .
C31 C 1.074(5) 0.6361(19) 0.3155(18) 0.20(2) Uani 1 1 d DG U . . .
H31 H 1.1870 0.6409 0.3316 0.246 Uiso 1 1 calc R . . . .
C30 C 1.004(5) 0.6767(15) 0.2877(19) 0.20(2) Uani 1 1 d DG U . . .
C29 C 0.835(6) 0.6696(18) 0.264(2) 0.21(2) Uani 1 1 d DG U . . .
H29 H 0.7885 0.6967 0.2450 0.249 Uiso 1 1 calc R . . . .
C28 C 0.736(5) 0.6220(19) 0.267(2) 0.22(2) Uani 1 1 d DG U . . .
H28 H 0.6231 0.6173 0.2512 0.259 Uiso 1 1 calc R . . . .
C27 C 0.806(6) 0.5815(15) 0.295(2) 0.21(2) Uani 1 1 d DG U . . .
C1 C 0.418(5) 0.393(2) 0.366(2) 0.217(19) Uani 1 1 d . U . . .
H1 H 0.5452 0.3826 0.3630 0.260 Uiso 1 1 calc R . . . .
N1 N 0.336(9) 0.4241(19) 0.3318(16) 0.224(18) Uani 1 1 d G U . . .
C5 C 0.146(9) 0.4391(16) 0.3357(18) 0.22(2) Uani 1 1 d G U . . .
H5 H 0.0905 0.4601 0.3130 0.261 Uiso 1 1 calc R . . . .
C4 C 0.039(5) 0.4226(19) 0.373(2) 0.22(2) Uani 1 1 d G U . . .
H4 H -0.0875 0.4326 0.3760 0.258 Uiso 1 1 calc R . . . .
C3 C 0.122(7) 0.391(2) 0.4072(16) 0.206(18) Uani 1 1 d DG U . . .
C2 C 0.312(7) 0.3761(18) 0.4034(17) 0.213(19) Uani 1 1 d G U . . .
H2 H 0.3673 0.3550 0.4260 0.256 Uiso 1 1 calc R . . . .
C39 C 1.321(7) 0.7194(18) 0.288(3) 0.23(3) Uani 1 1 d . U . . .
H39 H 1.3653 0.6898 0.3042 0.273 Uiso 1 1 calc R . . . .
C38 C 1.443(6) 0.7616(19) 0.279(3) 0.24(3) Uani 1 1 d DG U . . .
H38 H 1.5685 0.7602 0.2889 0.288 Uiso 1 1 calc R . . . .
C36 C 1.376(6) 0.8058(18) 0.255(3) 0.24(2) Uani 1 1 d DG U . . .
C35 C 1.188(7) 0.8078(19) 0.241(3) 0.25(3) Uani 1 1 d DG U . . .
H35 H 1.1441 0.8374 0.2248 0.304 Uiso 1 1 calc R . . . .
C34 C 1.067(6) 0.766(2) 0.250(3) 0.26(3) Uani 1 1 d G U . . .
H34 H 0.9408 0.7670 0.2400 0.307 Uiso 1 1 calc R . . . .
C33 C 1.133(7) 0.721(2) 0.274(3) 0.24(3) Uani 1 1 d DG U . . .
O2 O 0.710(6) 0.494(2) 0.324(3) 0.21(2) Uani 1 1 d . U . . .
F2 F 0.041(8) 0.2309(18) 0.550(2) 0.250(19) Uani 1 1 d . U . . .
F1 F 0.332(7) 0.2617(17) 0.542(2) 0.245(19) Uani 1 1 d . U . . .
C15 C 0.070(8) 0.3451(14) 0.608(4) 0.235(19) Uani 1 1 d D U . . .
C14 C 0.128(11) 0.306(4) 0.6408(17) 0.268(18) Uani 1 1 d DG U . . .
C13 C 0.198(9) 0.2615(19) 0.616(3) 0.261(17) Uani 1 1 d DG U . . .
C12 C 0.184(11) 0.273(3) 0.568(3) 0.250(17) Uani 1 1 d G U . . .
C11 C 0.105(10) 0.325(4) 0.563(2) 0.227(18) Uani 1 1 d DG U . . .
F3 F 0.463(6) 0.2690(17) 0.625(2) 0.27(2) Uani 1 1 d D U . . .
F6 F -0.028(7) 0.2765(19) 0.674(2) 0.31(2) Uani 1 1 d D U . . .
C20 C 0.258(7) 0.461(2) 0.578(2) 0.21(3) Uani 1 1 d D U . . .
H20A H 0.2325 0.4490 0.5466 0.317 Uiso 1 1 calc GR . . . .
H20B H 0.3629 0.4408 0.5899 0.317 Uiso 1 1 calc GR . . . .
H20C H 0.2894 0.4978 0.5773 0.317 Uiso 1 1 calc GR . . . .
C10 C -0.381(9) 0.358(4) 0.533(3) 0.33(4) Uani 1 1 d D U . . .
H10A H -0.4340 0.3229 0.5343 0.490 Uiso 1 1 calc GR . . . .
H10B H -0.4708 0.3818 0.5192 0.490 Uiso 1 1 calc GR . . . .
H10C H -0.3554 0.3699 0.5642 0.490 Uiso 1 1 calc GR . . . .
F5 F 0.234(7) 0.3194(17) 0.690(2) 0.27(2) Uani 1 1 d D U . . .
F4 F 0.177(6) 0.2098(14) 0.6357(19) 0.245(19) Uani 1 1 d D U . . .
C37 C 1.485(7) 0.857(2) 0.261(2) 0.23(3) Uani 1 1 d D U . . .
O3 O 1.392(7) 0.898(2) 0.252(3) 0.23(3) Uani 1 1 d D U . . .
O4 O 1.654(8) 0.8572(18) 0.273(2) 0.19(2) Uani 1 1 d D U . . .
loop_
_atom_site_aniso_label
_atom_site_aniso_U_11
_atom_site_aniso_U_22
_atom_site_aniso_U_33
_atom_site_aniso_U_23
_atom_site_aniso_U_13
_atom_site_aniso_U_12
Zn1 0.169(10) 0.157(10) 0.37(2) 0.038(9) -0.012(10) -0.003(8)
S2 0.138(17) 0.161(18) 0.32(4) -0.015(15) -0.02(2) 0.025(13)
C18 0.14(2) 0.17(3) 0.32(6) -0.04(2) -0.01(3) 0.013(18)
C17 0.16(3) 0.17(2) 0.30(6) -0.04(2) -0.01(3) 0.009(19)
C16 0.17(3) 0.16(2) 0.33(5) -0.015(18) 0.01(3) 0.023(17)
C19 0.15(3) 0.16(2) 0.33(5) 0.00(2) 0.00(3) 0.028(18)
S1 0.167(16) 0.20(2) 0.38(3) 0.067(19) 0.018(19) -0.003(17)
C9 0.19(2) 0.17(4) 0.37(4) 0.05(3) 0.02(2) -0.01(2)
C8 0.19(3) 0.13(3) 0.34(3) 0.02(2) 0.02(2) -0.02(2)
C7 0.18(2) 0.13(4) 0.34(3) 0.01(2) 0.00(2) -0.02(2)
C6 0.16(2) 0.13(3) 0.34(3) 0.02(2) 0.00(2) -0.02(2)
O1 0.14(3) 0.14(2) 0.34(5) 0.04(2) -0.01(3) 0.00(2)
N2 0.15(3) 0.20(4) 0.37(7) -0.08(4) 0.01(4) -0.02(3)
C23 0.16(3) 0.20(4) 0.37(7) -0.07(4) 0.02(4) -0.02(3)
C22 0.17(3) 0.19(4) 0.36(7) -0.08(3) 0.03(4) -0.02(3)
C21 0.15(3) 0.18(3) 0.38(7) -0.07(3) 0.02(4) -0.01(2)
C25 0.13(3) 0.18(3) 0.36(7) -0.07(3) 0.00(4) 0.00(2)
C24 0.14(4) 0.19(4) 0.36(7) -0.08(4) 0.00(4) -0.01(3)
C26 0.13(3) 0.14(3) 0.31(5) 0.02(2) 0.01(3) 0.01(2)
C32 0.15(3) 0.15(3) 0.35(6) 0.04(3) 0.00(3) -0.01(2)
C31 0.14(3) 0.14(3) 0.34(6) 0.02(3) 0.02(3) 0.00(2)
C30 0.15(3) 0.13(3) 0.31(6) 0.01(3) 0.04(3) 0.02(2)
C29 0.16(3) 0.14(3) 0.32(6) 0.01(3) 0.03(3) 0.01(2)
C28 0.16(3) 0.15(3) 0.34(6) 0.03(3) 0.00(3) 0.00(2)
C27 0.14(3) 0.15(3) 0.34(5) 0.02(3) 0.01(3) 0.00(2)
C1 0.18(3) 0.11(4) 0.36(4) 0.04(3) 0.01(3) 0.00(3)
N1 0.18(3) 0.12(3) 0.37(3) 0.04(2) 0.00(2) 0.01(3)
C5 0.18(3) 0.12(4) 0.36(4) 0.03(3) 0.00(3) 0.00(3)
C4 0.18(3) 0.12(4) 0.35(3) 0.02(3) 0.00(2) -0.01(3)
C3 0.17(3) 0.11(3) 0.34(3) 0.02(2) 0.00(2) -0.02(2)
C2 0.17(3) 0.10(4) 0.36(4) 0.03(3) 0.01(2) -0.01(3)
C39 0.17(3) 0.17(3) 0.34(7) 0.05(3) 0.02(3) -0.01(2)
C38 0.19(3) 0.18(3) 0.35(7) 0.06(3) 0.00(3) -0.02(3)
C36 0.20(3) 0.17(3) 0.33(7) 0.05(3) -0.01(4) -0.02(2)
C35 0.21(3) 0.18(3) 0.37(7) 0.06(3) -0.02(4) -0.02(3)
C34 0.20(3) 0.17(4) 0.39(7) 0.06(4) -0.01(4) -0.01(3)
C33 0.18(3) 0.17(3) 0.38(7) 0.05(3) 0.01(3) -0.01(2)
O2 0.14(3) 0.15(3) 0.34(6) 0.03(3) -0.03(3) -0.02(3)
F2 0.28(3) 0.16(3) 0.31(5) 0.00(2) 0.01(3) 0.04(2)
F1 0.26(3) 0.15(3) 0.32(4) -0.01(2) 0.02(3) 0.06(2)
C15 0.22(4) 0.16(2) 0.33(3) -0.005(17) 0.02(2) 0.04(2)
C14 0.30(4) 0.18(3) 0.32(3) -0.008(18) 0.03(2) 0.08(2)
C13 0.29(3) 0.17(3) 0.32(3) -0.005(18) 0.02(2) 0.07(2)
C12 0.27(3) 0.16(3) 0.32(3) -0.009(18) 0.02(2) 0.05(2)
C11 0.20(3) 0.15(3) 0.33(3) -0.003(16) 0.02(2) 0.03(2)
F3 0.28(3) 0.24(4) 0.29(6) -0.05(3) 0.03(3) 0.06(2)
F6 0.34(4) 0.25(4) 0.35(4) 0.01(3) 0.04(3) 0.06(3)
C20 0.14(3) 0.16(5) 0.33(7) 0.02(4) -0.01(4) 0.03(3)
C10 0.22(4) 0.33(9) 0.43(6) 0.08(6) 0.06(4) 0.00(4)
F5 0.32(4) 0.17(4) 0.32(4) 0.00(2) 0.02(3) 0.09(3)
F4 0.26(4) 0.17(3) 0.31(5) -0.01(2) 0.00(3) 0.07(2)
C37 0.22(3) 0.18(3) 0.29(7) 0.07(3) -0.02(4) -0.02(3)
O3 0.22(3) 0.16(3) 0.29(7) 0.05(3) -0.05(4) -0.03(3)
O4 0.21(3) 0.21(4) 0.14(6) 0.08(3) 0.02(3) -0.03(3)
loop_
_atom_type_symbol
_atom_type_description
_atom_type_scat_dispersion_real
_atom_type_scat_dispersion_imag
_atom_type_scat_source
C C 0.0033 0.0016 'International Tables Vol C Tables 4.2.6.8 and 6.1.1.4'
H H 0.0000 0.0000 'International Tables Vol C Tables 4.2.6.8 and 6.1.1.4'
F F 0.0171 0.0103 'International Tables Vol C Tables 4.2.6.8 and 6.1.1.4'
N N 0.0061 0.0033 'International Tables Vol C Tables 4.2.6.8 and 6.1.1.4'
O O 0.0106 0.0060 'International Tables Vol C Tables 4.2.6.8 and 6.1.1.4'
S S 0.1246 0.1234 'International Tables Vol C Tables 4.2.6.8 and 6.1.1.4'
Zn Zn 0.2839 1.4301 'International Tables Vol C Tables 4.2.6.8 and 6.1.1.4'
loop_
_exptl_crystal_face_index_h
_exptl_crystal_face_index_k
_exptl_crystal_face_index_l
_exptl_crystal_face_perp_dist
0 25 47 0.1000
11 0 29 0.1000
11 0 -29 0.1000
0 25 -47 0.1000
-7 41 0 0.1000
0 -25 47 0.1000
7 -41 0 0.1000
0 -25 -47 0.1000
-11 0 -29 0.1000
-11 0 29 0.1000
7 41 0 0.1000
-7 -41 0 0.1000
loop_
_geom_angle_atom_site_label_1
_geom_angle_atom_site_label_2
_geom_angle_atom_site_label_3
_geom_angle
_geom_angle_site_symmetry_1
_geom_angle_site_symmetry_3
_geom_angle_publ_flag
O1 Zn1 N2 97(2) . 2_464 ?
O1 Zn1 N1 103(2) . . ?
O1 Zn1 O3 113(2) . 4_745 ?
N2 Zn1 N1 119(2) 2_464 . ?
O3 Zn1 N2 128(3) 4_745 2_464 ?
O3 Zn1 N1 95(3) 4_745 . ?
C18 S2 C16 72.0 . . ?
C18 S2 C19 108.0 . . ?
C19 S2 C16 36.0 . . ?
S2 C18 C17 108.0 . . ?
S2 C18 C21 137(4) . . ?
C17 C18 C21 114(4) . . ?
C16 C17 C18 108.0 . . ?
C17 C16 S2 72.0 . . ?
C17 C16 C15 117(4) . . ?
C19 C16 S2 36.0 . . ?
C19 C16 C17 108.0 . . ?
C19 C16 C15 135(4) . . ?
C15 C16 S2 170(4) . . ?
S2 C19 C20 127.5(16) . . ?
C16 C19 S2 108.0 . . ?
C16 C19 C20 123.2(16) . . ?
C9 S1 C8 36.0 . . ?
C6 S1 C9 108.0 . . ?
C6 S1 C8 72.0 . . ?
S1 C9 C8 108.0 . . ?
S1 C9 C10 126.4(16) . . ?
C8 C9 C10 124.8(17) . . ?
C9 C8 S1 36.0 . . ?
C9 C8 C7 108.0 . . ?
C9 C8 C11 149(5) . . ?
C7 C8 S1 72.0 . . ?
C7 C8 C11 100(5) . . ?
C11 C8 S1 164(5) . . ?
C6 C7 C8 108.0 . . ?
S1 C6 C3 126.4(16) . . ?
C7 C6 S1 108.0 . . ?
C7 C6 C3 123.8(17) . . ?
C26 O1 Zn1 127(4) . . ?
C23 N2 Zn1 127(3) . 2_465 ?
C23 N2 C24 120.0 . . ?
C24 N2 Zn1 113(3) . 2_465 ?
N2 C23 C22 120.00(7) . . ?
C21 C22 C23 120.0 . . ?
C22 C21 C18 123(4) . . ?
C22 C21 C25 120.0 . . ?
C25 C21 C18 117(4) . . ?
C24 C25 C21 120.00(6) . . ?
C25 C24 N2 120.0 . . ?
O1 C26 C27 119(5) . . ?
O2 C26 O1 107(6) . . ?
O2 C26 C27 134(6) . . ?
C31 C32 C27 120.0 . . ?
C32 C31 C30 120.0 . . ?
C31 C30 C29 120.0 . . ?
C31 C30 C33 119.7(15) . . ?
C29 C30 C33 118.3(15) . . ?
C28 C29 C30 120.0 . . ?
C29 C28 C27 120.0 . . ?
C32 C27 C26 119.9(15) . . ?
C28 C27 C26 120.0(14) . . ?
C28 C27 C32 120.0 . . ?
N1 C1 C2 120.0 . . ?
C1 N1 Zn1 137(4) . . ?
C1 N1 C5 120.0 . . ?
C5 N1 Zn1 102(4) . . ?
C4 C5 N1 120.0 . . ?
C5 C4 C3 120.0 . . ?
C4 C3 C6 123(4) . . ?
C2 C3 C6 116(4) . . ?
C2 C3 C4 120.0 . . ?
C3 C2 C1 120.0 . . ?
C38 C39 C33 120.0 . . ?
C39 C38 C36 120.0 . . ?
C38 C36 C35 120.00(5) . . ?
C38 C36 C37 117.7(16) . . ?
C35 C36 C37 118.7(16) . . ?
C34 C35 C36 120.0 . . ?
C35 C34 C33 120.0 . . ?
C39 C33 C30 118(2) . . ?
C34 C33 C30 122(2) . . ?
C34 C33 C39 120.00(7) . . ?
C14 C15 C16 131(9) . . ?
C11 C15 C16 121(9) . . ?
C11 C15 C14 108.0 . . ?
C15 C14 F6 121(6) . . ?
C15 C14 F5 124(8) . . ?
C13 C14 C15 108.0 . . ?
C13 C14 F6 100(6) . . ?
C13 C14 F5 116(8) . . ?
F5 C14 F6 83(4) . . ?
C14 C13 C12 108.0 . . ?
C14 C13 F3 101(5) . . ?
C14 C13 F4 119(8) . . ?
C12 C13 F3 100(5) . . ?
C12 C13 F4 125(9) . . ?
F4 C13 F3 98(3) . . ?
F1 C12 F2 100(4) . . ?
F1 C12 C13 117(8) . . ?
F1 C12 C11 117(8) . . ?
C13 C12 F2 104(7) . . ?
C11 C12 F2 110(6) . . ?
C11 C12 C13 108.0 . . ?
C15 C11 C8 122(9) . . ?
C12 C11 C8 121(9) . . ?
C12 C11 C15 108.0 . . ?
O3 C37 C36 115(4) . . ?
O3 C37 O4 124(6) . . ?
O4 C37 C36 121(4) . . ?
C37 O3 Zn1 108(4) . 4_755 ?
loop_
_geom_bond_atom_site_label_1
_geom_bond_atom_site_label_2
_geom_bond_distance
_geom_bond_site_symmetry_2
_geom_bond_publ_flag
Zn1 O1 1.99(5) . ?
Zn1 N2 2.16(4) 2_464 ?
Zn1 N1 2.25(4) . ?
Zn1 O3 2.06(5) 4_745 ?
S2 C18 1.4200 . ?
S2 C16 2.2976 . ?
S2 C19 1.4200 . ?
C18 C17 1.4200 . ?
C18 C21 1.51(3) . ?
C17 C16 1.4200 . ?
C16 C19 1.4200 . ?
C16 C15 1.49(2) . ?
C19 C20 1.51(3) . ?
S1 C9 1.4200 . ?
S1 C8 2.2976 . ?
S1 C6 1.4200 . ?
C9 C8 1.4200 . ?
C9 C10 1.51(3) . ?
C8 C7 1.4200 . ?
C8 C11 1.53(3) . ?
C7 C6 1.4200 . ?
C6 C3 1.51(3) . ?
O1 C26 1.25(8) . ?
N2 Zn1 2.17(4) 2_465 ?
N2 C23 1.3900 . ?
N2 C24 1.3900 . ?
C23 C22 1.3900 . ?
C22 C21 1.3900 . ?
C21 C25 1.3900 . ?
C25 C24 1.3900 . ?
C26 C27 1.51(3) . ?
C26 O2 1.14(7) . ?
C32 C31 1.3900 . ?
C32 C27 1.3900 . ?
C31 C30 1.3900 . ?
C30 C29 1.3900 . ?
C30 C33 1.50(3) . ?
C29 C28 1.3900 . ?
C28 C27 1.3900 . ?
C1 N1 1.3900 . ?
C1 C2 1.3900 . ?
N1 C5 1.3900 . ?
C5 C4 1.3900 . ?
C4 C3 1.3900 . ?
C3 C2 1.3900 . ?
C39 C38 1.3900 . ?
C39 C33 1.3900 . ?
C38 C36 1.3900 . ?
C36 C35 1.3900 . ?
C36 C37 1.51(3) . ?
C35 C34 1.3900 . ?
C34 C33 1.3900 . ?
F2 C12 1.55(7) . ?
F1 C12 1.32(7) . ?
C15 C14 1.4200 . ?
C15 C11 1.4200 . ?
C14 C13 1.4200 . ?
C14 F6 1.65(6) . ?
C14 F5 1.64(6) . ?
C13 C12 1.4200 . ?
C13 F3 1.89(7) . ?
C13 F4 1.43(3) . ?
C12 C11 1.4200 . ?
C37 O3 1.23(4) . ?
C37 O4 1.24(4) . ?
O3 Zn1 2.06(5) 4_755 ?
loop_
_smtbx_masks_void_nr
_smtbx_masks_void_average_x
_smtbx_masks_void_average_y
_smtbx_masks_void_average_z
_smtbx_masks_void_volume
_smtbx_masks_void_count_electrons
_smtbx_masks_void_content
1 -0.830 0.250 0.000 894.4 11.2 ?
2 -0.209 -0.250 0.500 894.4 10.5 ?
3 0.175 0.312 0.322 9.6 2.6 ?
4 -0.175 0.813 0.178 9.6 2.6 ?
5 0.325 0.688 0.822 9.6 2.5 ?
6 0.675 0.187 0.678 9.6 2.7 ?
