#------------------------------------------------------------------------------
#$Date: 2021-11-05 02:06:12 +0200 (Fri, 05 Nov 2021) $
#$Revision: 270317 $
#$URL: file:///home/coder/svn-repositories/cod/cif/7/70/87/7708723.cif $
#------------------------------------------------------------------------------
#
# This file is available in the Crystallography Open Database (COD),
# http://www.crystallography.net/
#
# All data on this site have been placed in the public domain by the
# contributors.
#
data_7708723
loop_
_publ_author_name
'P\'o\/lrolniczak, Aleksandra'
'Sobczak, Szymon'
'Nikolayenko, Varvara'
'Barbour, Len'
'Katrusiak, Andrzej'
_publ_section_title
;
 Solvent-controlled elongation and mechanochemical strain in a
 metal-organic framework
;
_journal_name_full               'Dalton Transactions'
_journal_paper_doi               10.1039/D1DT01937F
_journal_year                    2021
_chemical_formula_moiety         'C39 H24 F6 N2 O4 S2 Zn'
_chemical_formula_sum            'C39 H24 F6 N2 O4 S2 Zn'
_chemical_formula_weight         828.09
_chemical_name_common            DMOF
_chemical_name_systematic
1,2-bis(2-ethyl-5-phenyl-3-thienyl)perfluorocyclopentene
_space_group_crystal_system      orthorhombic
_space_group_IT_number           19
_space_group_name_Hall           'P 2ac 2ab'
_space_group_name_H-M_alt        'P 21 21 21'
_atom_sites_solution_hydrogens   geom
_atom_sites_solution_primary     direct
_audit_creation_date             2018-12-04
_audit_creation_method
;
Olex2 1.2
(compiled 2018.05.29 svn.r3508 for OlexSys, GUI svn.r5506)
;
_audit_update_record
;
2019-09-30 deposited with the CCDC.	2021-11-02 downloaded from the CCDC.
;
_cell_angle_alpha                90
_cell_angle_beta                 90
_cell_angle_gamma                90
_cell_formula_units_Z            4
_cell_length_a                   6.638(6)
_cell_length_b                   25.42(3)
_cell_length_c                   28.23(8)
_cell_measurement_reflns_used    211
_cell_measurement_temperature    571(2)
_cell_measurement_theta_max      10.8760
_cell_measurement_theta_min      3.8970
_cell_volume                     4763(15)
_computing_cell_refinement       'CrysAlisPro 1.171.39.43a (Rigaku OD, 2018)'
_computing_data_collection       'CrysAlisPro 1.171.39.43a (Rigaku OD, 2018)'
_computing_data_reduction        'CrysAlisPro 1.171.39.43a (Rigaku OD, 2018)'
_computing_molecular_graphics    'Olex2 (Dolomanov et al., 2009)'
_computing_publication_material  'Olex2 (Dolomanov et al., 2009)'
_computing_structure_refinement  'ShelXL (Sheldrick, 2015)'
_computing_structure_solution    'ShelXS (Sheldrick, 2008)'
_diffrn_ambient_temperature      571.15
_diffrn_detector                 'CCD plate'
_diffrn_detector_area_resol_mean 16.2413
_diffrn_detector_type            Eos
_diffrn_measured_fraction_theta_full 0.077
_diffrn_measured_fraction_theta_max 0.674
_diffrn_measurement_details
;
List of Runs (angles in degrees, time in seconds):

  # Type    Start    End  Width  t~exp~   \w     \q     \k     \f   Frames
#--------------------------------------------------------------------------
  1  \f    -35.00  19.40   0.80   28.00   0.00 -30.00   0.00    --    68
  2  \f    140.00 200.00   0.80   28.00   0.00 -30.00   0.00    --    75
  3  \f    160.00 216.80   0.80   28.00   0.00  30.00   0.00    --    71
  4  \f    -20.00  34.40   0.80   28.00   0.00  30.00   0.00    --    68
  5  \w    -24.00  24.00   0.80   28.00    --   30.00  39.46 -12.90   60
  6  \w    -24.00  24.00   0.80   28.00    --   30.00  39.46 167.10   60
  7  \w    -50.00  10.00   0.80   28.00    --  -30.00  39.46 167.10   75
  8  \w    -50.00  10.00   0.80   28.00    --  -30.00  39.46 -12.90   75
  9  \w    -64.00  -8.00   0.80   28.00    --  -30.00  81.40 -28.90   70
 10  \w    -64.00  -8.00   0.80   28.00    --  -30.00  81.40 151.10   70
 11  \w    -19.00   7.40   0.80   28.00    --   30.00  81.40 151.10   33
 12  \w    -19.00   7.40   0.80   28.00    --   30.00  81.40 -28.90   33
 13  \w    -43.00 -21.40   0.80   28.00    --   30.00 134.60 -56.90   27
 14  \w    -43.00 -21.40   0.80   28.00    --   30.00 134.60 123.10   27
 15  \w    -90.00 -36.40   0.80   28.00    --  -30.00 134.60 123.10   67
 16  \w    -90.00 -36.40   0.80   28.00    --  -30.00 134.60 -56.90   67
;
_diffrn_measurement_device       'four-circle diffractometer'
_diffrn_measurement_device_type  'Xcalibur, Eos'
_diffrn_measurement_method       '\w and \f scans'
_diffrn_orient_matrix_type
'CrysAlisPro convention (1999,Acta A55,543-557)'
_diffrn_orient_matrix_UB_11      0.0110045000
_diffrn_orient_matrix_UB_12      0.0156919000
_diffrn_orient_matrix_UB_13      -0.0204154000
_diffrn_orient_matrix_UB_21      0.0617696000
_diffrn_orient_matrix_UB_22      0.0178011000
_diffrn_orient_matrix_UB_23      0.0130571000
_diffrn_orient_matrix_UB_31      0.0868712000
_diffrn_orient_matrix_UB_32      -0.0146762000
_diffrn_orient_matrix_UB_33      -0.0062928000
_diffrn_radiation_monochromator  graphite
_diffrn_radiation_probe          x-ray
_diffrn_radiation_type           MoK\a
_diffrn_radiation_wavelength     0.71073
_diffrn_reflns_av_R_equivalents  0.3085
_diffrn_reflns_av_unetI/netI     0.1605
_diffrn_reflns_Laue_measured_fraction_full 0.077
_diffrn_reflns_Laue_measured_fraction_max 0.674
_diffrn_reflns_limit_h_max       3
_diffrn_reflns_limit_h_min       -3
_diffrn_reflns_limit_k_max       13
_diffrn_reflns_limit_k_min       -13
_diffrn_reflns_limit_l_max       13
_diffrn_reflns_limit_l_min       -13
_diffrn_reflns_number            4271
_diffrn_reflns_point_group_measured_fraction_full 0.072
_diffrn_reflns_point_group_measured_fraction_max 0.710
_diffrn_reflns_theta_full        25.242
_diffrn_reflns_theta_max         11.443
_diffrn_reflns_theta_min         4.085
_diffrn_source                   'fine-focus sealed X-ray tube'
_diffrn_source_type              'Enhance (Mo) X-ray Source'
_exptl_absorpt_coefficient_mu    0.661
_exptl_absorpt_correction_T_max  0.435
_exptl_absorpt_correction_T_min  0.277
_exptl_absorpt_correction_type   gaussian
_exptl_absorpt_process_details
;
CrysAlisPro 1.171.39.43a (Rigaku Oxford Diffraction, 2018)
Numerical absorption correction based on gaussian integration over
			a multifaceted crystal model (Absorb Angel (2004) J. Appl. Cryst. 37:486-492)
;
_exptl_crystal_colour            pink
_exptl_crystal_density_diffrn    1.155
_exptl_crystal_description       plate
_exptl_crystal_F_000             1680
_exptl_crystal_preparation       'mounted in a diamond-anvil cell '
_exptl_crystal_size_max          0.308
_exptl_crystal_size_mid          0.216
_exptl_crystal_size_min          0.122
_refine_diff_density_max         0.153
_refine_diff_density_min         -0.173
_refine_diff_density_rms         0.043
_refine_ls_abs_structure_details
;
 Flack x determined using 124 quotients [(I+)-(I-)]/[(I+)+(I-)]
 (Parsons and Flack (2004), Acta Cryst. A60, s61).
;
_refine_ls_abs_structure_Flack   -0.14(10)
_refine_ls_extinction_method     none
_refine_ls_goodness_of_fit_ref   1.176
_refine_ls_hydrogen_treatment    constr
_refine_ls_matrix_type           full
_refine_ls_number_parameters     106
_refine_ls_number_reflns         622
_refine_ls_number_restraints     204
_refine_ls_restrained_S_all      1.163
_refine_ls_R_factor_all          0.1569
_refine_ls_R_factor_gt           0.1168
_refine_ls_shift/su_max          0.009
_refine_ls_shift/su_mean         0.072
_refine_ls_structure_factor_coef Fsqd
_refine_ls_weighting_details
;
 w=1/[\s^2^(Fo^2^)+(0.2000P)^2^]
 where P=(Fo^2^+2Fc^2^)/3
;
_refine_ls_weighting_scheme      calc
_refine_ls_wR_factor_gt          0.2985
_refine_ls_wR_factor_ref         0.3456
_reflns_Friedel_coverage         0.646
_reflns_Friedel_fraction_full    0.066
_reflns_Friedel_fraction_max     0.775
_reflns_number_gt                422
_reflns_number_total             622
_reflns_threshold_expression     'I > 2\s(I)'
_cod_data_source_file            d1dt01937f2.cif
_cod_data_source_block           DMOF_1_2_GPa_Gly
_cod_original_cell_volume        4762(16)
_cod_database_code               7708723
_shelx_shelxl_version_number     2017/1
_shelx_space_group_comment
;
The symmetry employed for this shelxl refinement is uniquely defined
by the following loop, which should always be used as a source of
symmetry information in preference to the above space-group names.
They are only intended as comments.
;
_shelx_fab_file
;
-3 -8 -1 3.9341 0.9248
-3 -7 -4 -0.0522 1.0994
-3 -7 -3 -12.0567 -1.6769
-3 -7 -2 -6.6249 7.3209
-3 -7 -1 -14.4206 -2.2960
-3 -6 -6 -3.1416 -1.6108
-3 -6 -5 -1.0819 1.6909
-3 -6 -4 0.0386 0.1318
-3 -6 -3 -6.0273 -3.1049
-3 -6 -2 2.6631 -4.4792
-3 -6 -1 -9.5383 -2.6171
-3 -5 -7 1.5422 0.0316
-3 -5 -6 2.7102 1.1976
-3 -5 -5 -1.0642 -0.5267
-3 -5 -4 2.2131 2.6909
-3 -5 -3 -1.3735 -2.3787
-3 -5 -2 -1.2067 -0.9405
-3 -5 -1 -2.4668 -1.6973
-3 -4 -8 -0.1979 -4.2885
-3 -4 -7 -0.9751 2.9766
-3 -4 -6 -0.2978 4.4755
-3 -4 -5 -7.7619 5.7571
-3 -4 -4 4.2358 8.6430
-3 -4 -3 -5.8501 0.3465
-3 -4 -2 6.1029 0.7232
-3 -4 -1 2.2525 -1.5515
-3 -3 -8 1.9133 2.0525
-3 -3 -7 2.8816 3.5910
-3 -3 -6 3.5882 0.2622
-3 -3 -5 -6.8937 3.6377
-3 -3 -4 -0.3098 -4.9454
-3 -3 -3 -11.7589 4.5199
-3 -3 -2 0.0651 -1.4114
-3 -3 -1 -1.8881 2.7725
-3 -2 -8 -3.3266 6.3825
-3 -2 -7 -6.8142 6.3932
-3 -2 -6 -2.2229 5.8008
-3 -2 -5 -6.5370 5.2807
-3 -2 -4 -1.7457 4.3355
-3 -2 -3 -0.9460 0.1642
-3 -2 -2 -0.4167 -0.4119
-3 -2 -1 5.6736 -1.8605
-3 -1 -9 -3.9626 0.4979
-3 -1 -8 -4.0302 -3.8471
-3 -1 -7 -6.4577 4.6395
-3 -1 -6 6.6167 -9.1056
-3 -1 -5 -13.2345 6.9800
-3 -1 -4 10.8587 -6.5890
-3 -1 -3 -10.2380 1.0128
-3 -1 -2 -0.8943 4.9460
-3 -1 -1 0.8998 -2.3778
-2 -11 -4 5.7717 1.4238
-2 -11 -3 -10.3000 6.5420
-2 -11 -2 -3.3877 5.4840
-2 -10 -7 -4.3694 4.0506
-2 -10 -6 -9.4187 -9.0723
-2 -10 -5 -1.7548 5.0528
-2 -10 -4 -18.9106 -17.2005
-2 -10 -3 1.5862 -8.0645
-2 -10 -2 -0.5989 -11.3309
-2 -9 -8 -3.8500 -7.4209
-2 -9 -7 -3.5884 2.0879
-2 -9 -6 -3.5398 -10.5813
-2 -9 -5 2.2891 -16.0853
-2 -9 -4 6.5885 -2.2599
-2 -9 -3 8.0927 -19.9652
-2 -9 -1 4.8348 5.5364
-2 -8 -9 -1.0099 3.9868
-2 -8 -8 -6.5525 -4.0108
-2 -8 -7 8.3321 -2.2548
-2 -8 -6 3.9984 -15.6437
-2 -8 -5 8.0194 -1.5657
-2 -8 -4 14.8585 -10.0582
-2 -8 -3 -2.9114 8.4735
-2 -8 -2 9.1064 -0.9632
-2 -8 -1 -3.6023 6.2985
-2 -7 -10 -2.3899 -5.5437
-2 -7 -9 -0.9492 4.4655
-2 -7 -8 -0.9168 -10.3241
-2 -7 -7 6.7589 4.1578
-2 -7 -6 4.9114 -2.6960
-2 -7 -5 16.2176 1.7178
-2 -7 -4 7.8270 0.7309
-2 -7 -3 11.5179 5.1809
-2 -7 -2 5.2788 -7.7903
-2 -7 -1 1.7281 7.9519
-2 -6 -11 0.8651 -0.2545
-2 -6 -10 -6.5587 5.9753
-2 -6 -9 13.1523 1.3630
-2 -6 -8 -12.8805 7.4825
-2 -6 -7 11.9251 9.3898
-2 -6 -6 -7.5427 4.1402
-2 -6 -5 5.1082 13.8356
-2 -6 -4 4.1173 6.4974
-2 -6 -3 3.7082 9.8081
-2 -6 -2 1.4352 14.4412
-2 -6 -1 1.5212 9.0990
-2 -5 -11 -9.3214 1.4935
-2 -5 -10 -1.5125 -3.8744
-2 -5 -9 -14.3232 -4.7529
-2 -5 -8 -14.3007 7.2855
-2 -5 -7 -3.6791 -9.8305
-2 -5 -6 -14.4508 6.7902
-2 -5 -5 -2.6581 -3.3485
-2 -5 -4 -1.6146 -5.0873
-2 -5 -3 -9.7840 3.6456
-2 -5 -2 -0.3496 -2.1236
-2 -5 -1 -5.0071 1.0536
-2 -4 -12 -2.8155 -4.2927
-2 -4 -11 11.7576 -2.7219
-2 -4 -9 7.9180 -12.7890
-2 -4 -8 -2.1064 0.8699
-2 -4 -7 -3.8865 -13.9783
-2 -4 -6 2.3272 -1.7803
-2 -4 -5 -8.1202 -0.0712
-2 -4 -4 2.0131 2.3874
-2 -4 -3 4.8327 8.0144
-2 -4 -2 2.2975 1.5559
-2 -4 -1 8.0101 6.0686
-2 -3 -10 16.2786 15.4773
-2 -3 -9 -13.7630 -9.0493
-2 -3 -8 8.9832 2.0720
-2 -3 -7 -11.1460 -2.6710
-2 -3 -6 4.2755 -14.5334
-2 -3 -5 -1.7483 -0.0384
-2 -3 -4 4.6864 -7.9446
-2 -3 -3 -8.5549 -1.0016
-2 -3 -2 -0.2457 0.4287
-2 -3 -1 -9.1443 7.5404
-2 -2 -8 -4.2487 -5.5643
-2 -2 -7 -2.4913 3.9005
-2 -2 -6 -0.5505 -2.5627
-2 -2 -5 5.3564 5.5044
-2 -2 -4 1.1642 -0.4154
-2 -2 -3 4.0786 17.1212
-2 -2 -2 -2.4325 3.1197
-2 -2 -1 -0.7718 6.3558
-2 -1 -7 -3.0910 -13.1758
-2 -1 -6 -3.9271 -9.0676
-2 -1 -5 -4.1468 -11.0717
-2 -1 -4 2.9218 -6.0441
-2 -1 -3 -11.5855 -1.1495
-2 -1 -2 -4.4412 1.0884
-2 -1 -1 -7.1290 1.4148
-1 -13 -4 1.7416 7.5009
-1 -13 -3 1.8210 3.4323
-1 -12 -7 -0.2077 -4.2973
-1 -12 -6 0.0668 -4.9613
-1 -12 -5 -5.8954 0.0366
-1 -12 -4 -5.4231 -14.3860
-1 -12 -3 -10.7104 7.7671
-1 -11 -9 3.3833 -4.4093
-1 -11 -8 5.4030 -0.8421
-1 -11 -7 13.9312 0.9245
-1 -11 -6 3.6390 1.1040
-1 -11 -5 24.8813 -2.0964
-1 -11 -4 -5.4540 -5.3466
-1 -11 -3 21.1870 -12.7795
-1 -10 -10 -0.4119 -1.9303
-1 -10 -9 -1.1521 -3.3222
-1 -10 -8 4.9376 4.8568
-1 -10 -7 1.7783 1.6674
-1 -10 -6 3.1129 13.4289
-1 -10 -5 0.4656 4.3140
-1 -10 -4 -2.5088 7.6301
-1 -10 -3 8.5937 -2.4734
-1 -10 -2 3.7994 -10.3390
-1 -9 -11 2.3256 -2.1840
-1 -9 -10 6.4525 -2.1217
-1 -9 -9 3.6285 -3.3434
-1 -9 -8 1.2949 1.2780
-1 -9 -7 3.3888 -2.1594
-1 -9 -6 -8.0064 4.4431
-1 -9 -5 3.9319 -0.5240
-1 -9 -4 -2.8232 -0.3417
-1 -9 -3 12.6096 -11.2298
-1 -9 -2 2.9198 -0.7960
-1 -8 -12 0.4764 -0.0972
-1 -8 -11 -3.0905 -0.6258
-1 -8 -10 8.9594 -2.7494
-1 -8 -9 -6.2653 -2.0445
-1 -8 -8 7.9312 2.2522
-1 -8 -7 -1.2832 -5.0716
-1 -8 -6 6.6830 0.7344
-1 -8 -5 4.3307 -5.0692
-1 -8 -4 15.2630 -3.3989
-1 -8 -3 9.2682 -1.2333
-1 -8 -2 11.6041 3.3755
-1 -8 -1 24.8964 0.9537
-1 -7 -12 -3.0097 -1.6368
-1 -7 -11 4.0552 0.7138
-1 -7 -10 -2.3170 -7.8304
-1 -7 -9 8.6749 -1.5230
-1 -7 -8 1.3636 -1.2337
-1 -7 -7 5.6788 8.0387
-1 -7 -6 -4.5945 5.6516
-1 -7 -5 6.2233 11.6727
-1 -7 -4 -1.8204 14.1258
-1 -7 -3 8.7381 7.0228
-1 -7 -2 10.3442 18.1687
-1 -7 -1 0.5379 2.5284
-1 -6 -12 2.1087 2.7760
-1 -6 -11 -4.4755 -11.5645
-1 -6 -10 8.3941 7.2827
-1 -6 -9 8.0184 -7.6110
-1 -6 -8 7.1920 7.5539
-1 -6 -7 -1.7975 -11.2471
-1 -6 -6 -4.4893 2.0228
-1 -6 -5 -19.0753 -11.7194
-1 -6 -4 -7.7053 -7.2375
-1 -6 -3 -7.4182 4.3468
-1 -6 -2 1.5500 -6.4406
-1 -6 -1 1.2531 7.6178
-1 -5 -11 -6.3976 5.6899
-1 -5 -10 6.8026 7.1494
-1 -5 -9 -8.7825 2.2636
-1 -5 -8 6.2610 6.2320
-1 -5 -7 -2.7166 -2.1179
-1 -5 -6 8.6388 -0.1345
-1 -5 -5 7.5069 -5.6547
-1 -5 -4 9.3273 -8.2550
-1 -5 -3 4.7789 -7.3150
-1 -5 -2 4.5679 -3.6685
-1 -5 -1 0.4151 -3.7064
-1 -4 -10 1.4949 -11.2203
-1 -4 -9 -19.8785 -0.5733
-1 -4 -8 8.3840 -3.1126
-1 -4 -7 -7.4179 6.0714
-1 -4 -6 6.4780 -6.2414
-1 -4 -5 -6.8337 12.1256
-1 -4 -4 1.3688 -10.6973
-1 -4 -3 -13.3641 15.6214
-1 -4 -2 4.1578 -6.9973
-1 -4 -1 17.0465 7.7238
-1 -3 -8 -18.1783 -7.0356
-1 -3 -7 -0.3978 -6.0294
-1 -3 -6 -29.5027 -11.6372
-1 -3 -5 6.2886 -4.7623
-1 -3 -4 -15.3051 -21.1644
-1 -3 -3 11.9844 -15.1884
-1 -3 -2 -4.3503 2.6047
-1 -2 -6 8.3971 -12.3538
-1 -2 -5 0.8782 -24.4736
-1 -2 -4 12.3160 -13.4055
-1 -2 -3 6.8627 7.5174
-1 -1 -5 23.4911 -19.2836
-1 -1 -4 -17.7695 -9.8215
0 3 5 -0.0305 -1.9171
0 4 5 -11.0240 -0.0251
0 4 7 -7.3867 0.0303
0 5 3 -0.0763 6.2579
0 5 5 -0.0834 16.6742
0 5 6 -0.0167 -40.0038
0 5 7 0.0326 2.6936
0 5 8 -0.0151 2.6350
0 5 9 0.0631 -5.3391
0 5 10 0.0439 6.6352
0 6 3 -47.3080 -0.0395
0 6 4 -7.7404 0.0445
0 6 5 9.4189 -0.0459
0 6 6 -3.9594 0.0280
0 6 7 12.3931 0.0322
0 6 8 5.2390 -0.0261
0 6 9 -13.1123 0.0294
0 6 10 4.9765 -0.0209
0 6 12 5.6122 -0.0113
0 7 1 0.0516 10.4426
0 7 2 0.0046 -33.7058
0 7 3 -0.0213 0.4830
0 7 4 -0.0380 -12.2477
0 7 6 -0.0827 -0.9515
0 7 7 0.0197 -10.6784
0 7 8 -0.0126 -6.4773
0 7 9 0.0138 -4.3837
0 7 10 0.0069 0.1632
0 7 11 -0.0104 -3.6031
0 7 12 0.0871 6.4377
0 7 13 -0.0165 2.6977
0 8 1 -3.4654 0.0128
0 8 2 16.0668 0.0177
0 8 3 -0.9242 -0.0579
0 8 4 -0.2460 0.0423
0 8 5 -2.5462 0.0100
0 8 6 0.8289 0.0148
0 8 7 -8.7017 0.0474
0 8 8 -2.5640 -0.0426
0 8 9 1.9460 -0.0080
0 8 10 -15.8576 -0.0281
0 8 11 12.1101 -0.0548
0 8 12 -5.7359 0.0869
0 9 2 -0.0005 -5.7594
0 9 3 0.0080 -6.9931
0 9 4 -0.0072 -6.3659
0 9 5 -0.0190 -7.5559
0 9 6 -0.0245 -4.5021
0 9 7 0.0152 -17.3067
0 9 8 -0.0705 -5.0272
0 9 10 -0.0034 0.9284
0 9 11 -0.1703 -21.8958
0 9 12 0.1393 6.3107
0 10 2 5.9738 0.0522
0 10 4 1.2285 -0.0319
0 10 5 -5.1291 0.0278
0 10 6 5.3099 0.0012
0 10 7 -2.9064 0.0073
0 10 8 13.8976 0.0101
0 10 9 3.4274 -0.0757
0 10 10 17.2858 -0.1631
0 10 11 5.7915 -0.0653
0 11 2 0.0417 9.6188
0 11 3 0.0382 5.7428
0 11 4 0.0267 -2.0146
0 11 6 -0.0536 -8.5041
0 11 7 -0.0090 -9.0127
0 11 8 -0.0243 -1.0740
0 11 9 0.1806 -5.0883
0 12 3 -1.9034 0.0355
0 12 4 4.1759 -0.0325
0 12 5 7.2637 0.0495
0 12 6 6.4990 -0.0842
0 12 7 6.3929 -0.1147
0 12 8 7.9823 0.1046
0 13 3 -0.0346 -1.0186
0 13 4 0.0220 9.4193
0 13 5 0.0415 0.3077
0 13 6 -0.0279 6.9192
1 1 4 -17.7695 9.8215
1 2 4 12.3160 13.4055
1 2 5 0.8782 24.4736
1 2 6 8.3971 12.3538
1 3 2 -4.3503 -2.6047
1 3 3 11.9844 15.1884
1 3 4 -15.3051 21.1644
1 3 5 6.2886 4.7623
1 3 6 -29.5027 11.6372
1 3 7 -0.3978 6.0294
1 4 1 17.0465 -7.7238
1 4 2 4.1578 6.9973
1 4 3 -13.3641 -15.6214
1 4 4 1.3688 10.6973
1 4 5 -6.8337 -12.1256
1 4 6 6.4780 6.2414
1 4 7 -7.4179 -6.0714
1 4 8 8.3840 3.1126
1 4 9 -19.8785 0.5733
1 5 0 -0.0919 -6.8880
1 5 1 0.4151 3.7064
1 5 2 4.5679 3.6685
1 5 3 4.7789 7.3150
1 5 4 9.3273 8.2550
1 5 5 7.5069 5.6547
1 5 6 8.6388 0.1345
1 5 7 -2.7166 2.1179
1 5 8 6.2610 -6.2320
1 5 9 -8.7825 -2.2636
1 5 10 6.8026 -7.1494
1 6 0 1.1275 0.6901
1 6 1 1.2531 -7.6178
1 6 2 1.5500 6.4406
1 6 3 -7.4182 -4.3468
1 6 4 -7.7053 7.2375
1 6 5 -19.0753 11.7194
1 6 6 -4.4893 -2.0228
1 6 7 -1.7975 11.2471
1 6 8 7.1920 -7.5539
1 6 9 8.0184 7.6110
1 6 10 8.3941 -7.2827
1 6 11 -4.4755 11.5645
1 6 12 2.1087 -2.7760
1 6 13 -3.3031 6.4502
1 7 0 0.4472 -15.3264
1 7 1 0.5379 -2.5284
1 7 2 10.3442 -18.1687
1 7 3 8.7381 -7.0228
1 7 4 -1.8204 -14.1258
1 7 5 6.2233 -11.6727
1 7 6 -4.5945 -5.6516
1 7 7 5.6788 -8.0387
1 7 8 1.3636 1.2337
1 7 9 8.6749 1.5230
1 7 10 -2.3170 7.8304
1 7 11 4.0552 -0.7138
1 7 12 -3.0097 1.6368
1 8 0 0.5331 -9.5819
1 8 1 24.8964 -0.9537
1 8 2 11.6041 -3.3755
1 8 3 9.2682 1.2333
1 8 4 15.2630 3.3989
1 8 5 4.3307 5.0692
1 8 6 6.6830 -0.7344
1 8 7 -1.2832 5.0716
1 8 8 7.9312 -2.2522
1 8 9 -6.2653 2.0445
1 8 10 8.9594 2.7494
1 8 11 -3.0905 0.6258
1 8 12 0.4764 0.0972
1 9 1 26.5321 11.1463
1 9 2 2.9198 0.7960
1 9 3 12.6096 11.2298
1 9 4 -2.8232 0.3417
1 9 5 3.9319 0.5240
1 9 6 -8.0064 -4.4431
1 9 7 3.3888 2.1594
1 9 8 1.2949 -1.2780
1 9 9 3.6285 3.3434
1 9 10 6.4525 2.1217
1 9 11 2.3256 2.1840
1 10 2 3.7994 10.3390
1 10 3 8.5937 2.4734
1 10 4 -2.5088 -7.6301
1 10 5 0.4656 -4.3140
1 10 6 3.1129 -13.4289
1 10 7 1.7783 -1.6674
1 10 8 4.9376 -4.8568
1 10 9 -1.1521 3.3222
1 10 10 -0.4119 1.9303
1 11 1 10.0675 7.7541
1 11 2 -6.5663 19.5604
1 11 3 21.1870 12.7795
1 11 4 -5.4540 5.3466
1 11 5 24.8813 2.0964
1 11 6 3.6390 -1.1040
1 11 7 13.9312 -0.9245
1 11 8 5.4030 0.8421
1 12 3 -10.7104 -7.7671
1 12 4 -5.4231 14.3860
1 12 5 -5.8954 -0.0366
1 12 6 0.0668 4.9613
1 12 7 -0.2077 4.2973
1 13 2 4.3980 -6.3337
1 13 3 1.8210 -3.4323
1 13 4 1.7416 -7.5009
2 0 0 -10.4016 -0.1395
2 0 1 -0.3360 5.9492
2 0 2 2.8814 -0.1772
2 0 3 0.0410 -9.1088
2 0 4 12.9100 0.0097
2 0 5 0.1708 -12.9882
2 0 6 14.2853 0.0799
2 0 7 0.0438 13.9578
2 1 0 -13.4784 -0.2931
2 1 1 -7.1290 -1.4148
2 1 2 -4.4412 -1.0884
2 1 3 -11.5855 1.1495
2 1 4 2.9218 6.0441
2 1 5 -4.1468 11.0717
2 1 6 -3.9271 9.0676
2 1 7 -3.0910 13.1758
2 2 0 -2.0751 -0.6093
2 2 1 -0.7718 -6.3558
2 2 2 -2.4325 -3.1197
2 2 3 4.0786 -17.1212
2 2 4 1.1642 0.4154
2 2 5 5.3564 -5.5044
2 2 6 -0.5505 2.5627
2 2 7 -2.4913 -3.9005
2 2 8 -4.2487 5.5643
2 2 9 -6.6231 -16.8651
2 3 0 -3.8359 -0.8852
2 3 1 -9.1443 -7.5404
2 3 2 -0.2457 -0.4287
2 3 3 -8.5549 1.0016
2 3 4 4.6864 7.9446
2 3 5 -1.7483 0.0384
2 3 6 4.2755 14.5334
2 3 7 -11.1460 2.6710
2 3 8 8.9832 -2.0720
2 3 9 -13.7630 9.0493
2 4 0 2.3893 -0.2621
2 4 1 8.0101 -6.0686
2 4 2 2.2975 -1.5559
2 4 3 4.8327 -8.0144
2 4 4 2.0131 -2.3874
2 4 5 -8.1202 0.0712
2 4 6 2.3272 1.7803
2 4 7 -3.8865 13.9783
2 4 8 -2.1064 -0.8699
2 4 9 7.9180 12.7890
2 4 10 -7.4507 -0.4309
2 4 11 11.7576 2.7219
2 4 12 -2.8155 4.2927
2 5 0 -5.5552 -0.8867
2 5 1 -5.0071 -1.0536
2 5 2 -0.3496 2.1236
2 5 3 -9.7840 -3.6456
2 5 4 -1.6146 5.0873
2 5 5 -2.6581 3.3485
2 5 6 -14.4508 -6.7902
2 5 7 -3.6791 9.8305
2 5 8 -14.3007 -7.2855
2 5 9 -14.3232 4.7529
2 5 10 -1.5125 3.8744
2 5 11 -9.3214 -1.4935
2 6 0 -6.0981 0.1214
2 6 1 1.5212 -9.0990
2 6 2 1.4352 -14.4412
2 6 3 3.7082 -9.8081
2 6 4 4.1173 -6.4974
2 6 5 5.1082 -13.8356
2 6 6 -7.5427 -4.1402
2 6 7 11.9251 -9.3898
2 6 8 -12.8805 -7.4825
2 6 9 13.1523 -1.3630
2 6 10 -6.5587 -5.9753
2 6 11 0.8651 0.2545
2 7 0 2.1527 -0.6122
2 7 1 1.7281 -7.9519
2 7 2 5.2788 7.7903
2 7 3 11.5179 -5.1809
2 7 4 7.8270 -0.7309
2 7 5 16.2176 -1.7178
2 7 6 4.9114 2.6960
2 7 7 6.7589 -4.1578
2 7 8 -0.9168 10.3241
2 7 9 -0.9492 -4.4655
2 7 10 -2.3899 5.5437
2 8 0 2.9852 0.2976
2 8 1 -3.6023 -6.2985
2 8 2 9.1064 0.9632
2 8 3 -2.9114 -8.4735
2 8 4 14.8585 10.0582
2 8 5 8.0194 1.5657
2 8 6 3.9984 15.6437
2 8 7 8.3321 2.2548
2 8 8 -6.5525 4.0108
2 8 9 -1.0099 -3.9868
2 9 0 19.3313 -0.2974
2 9 1 4.8348 -5.5364
2 9 2 15.5101 -7.2087
2 9 3 8.0927 19.9652
2 9 4 6.5885 2.2599
2 9 5 2.2891 16.0853
2 9 6 -3.5398 10.5813
2 9 7 -3.5884 -2.0879
2 9 8 -3.8500 7.4209
2 10 0 14.2824 0.3135
2 10 1 1.2637 19.0260
2 10 2 -0.5989 11.3309
2 10 3 1.5862 8.0645
2 10 4 -18.9106 17.2005
2 10 5 -1.7548 -5.0528
2 10 6 -9.4187 9.0723
2 10 7 -4.3694 -4.0506
2 11 0 -13.4112 0.0957
2 11 1 -3.9956 11.8776
2 11 2 -3.3877 -5.4840
2 11 3 -10.3000 -6.5420
2 11 4 5.7717 -1.4238
2 11 5 -8.8540 -8.0756
3 0 1 -0.0798 0.7014
3 0 2 1.9952 -0.1499
3 0 3 -0.0697 -8.3814
3 0 4 -6.2132 -0.1319
3 0 6 -13.4590 0.0238
3 0 7 -0.0360 -10.0630
3 0 8 -7.0461 0.1419
3 0 9 -0.0656 8.2150
3 1 0 -0.6742 -11.5338
3 1 1 0.8998 2.3778
3 1 2 -0.8943 -4.9460
3 1 3 -10.2380 -1.0128
3 1 4 10.8587 6.5890
3 1 5 -13.2345 -6.9800
3 1 6 6.6167 9.1056
3 1 7 -6.4577 -4.6395
3 1 8 -4.0302 3.8471
3 1 9 -3.9626 -0.4979
3 2 0 0.0500 5.6809
3 2 1 5.6736 1.8605
3 2 2 -0.4167 0.4119
3 2 3 -0.9460 -0.1642
3 2 4 -1.7457 -4.3355
3 2 5 -6.5370 -5.2807
3 2 6 -2.2229 -5.8008
3 2 7 -6.8142 -6.3932
3 2 8 -3.3266 -6.3825
3 3 0 -0.4238 -4.3679
3 3 1 -1.8881 -2.7725
3 3 2 0.0651 1.4114
3 3 3 -11.7589 -4.5199
3 3 4 -0.3098 4.9454
3 3 5 -6.8937 -3.6377
3 3 6 3.5882 -0.2622
3 3 7 2.8816 -3.5910
3 3 8 1.9133 -2.0525
3 4 0 -0.0257 3.4907
3 4 1 2.2525 1.5515
3 4 2 6.1029 -0.7232
3 4 3 -5.8501 -0.3465
3 4 4 4.2358 -8.6430
3 4 5 -7.7619 -5.7571
3 4 6 -0.2978 -4.4755
3 4 7 -0.9751 -2.9766
3 4 8 -0.1979 4.2885
3 5 0 -0.0280 5.2940
3 5 1 -2.4668 1.6973
3 5 2 -1.2067 0.9405
3 5 3 -1.3735 2.3787
3 5 4 2.2131 -2.6909
3 5 5 -1.0642 0.5267
3 5 6 2.7102 -1.1976
3 5 7 1.5422 -0.0316
3 6 0 -0.0663 10.9149
3 6 1 -9.5383 2.6171
3 6 2 2.6631 4.4792
3 6 3 -6.0273 3.1049
3 6 4 0.0386 -0.1318
3 6 5 -1.0819 -1.6909
3 6 6 -3.1416 1.6108
3 7 0 0.2970 -12.1825
3 7 1 -14.4206 2.2960
3 7 2 -6.6249 -7.3209
3 7 3 -12.0567 1.6769
3 7 4 -0.0522 -1.0994
3 7 5 -2.8609 -3.2135
3 8 0 -0.0153 -9.2113
3 8 1 3.9341 -0.9248
3 8 2 0.5866 -9.4974
0 0 0 0.0 0.0
;
loop_
_space_group_symop_operation_xyz
'x, y, z'
'-x+1/2, -y, z+1/2'
'x+1/2, -y+1/2, -z'
'-x, y+1/2, -z+1/2'
loop_
_atom_site_label
_atom_site_type_symbol
_atom_site_fract_x
_atom_site_fract_y
_atom_site_fract_z
_atom_site_U_iso_or_equiv
_atom_site_adp_type
_atom_site_occupancy
_atom_site_site_symmetry_order
_atom_site_calc_flag
_atom_site_refinement_flags_posn
_atom_site_refinement_flags_adp
_atom_site_refinement_flags_occupancy
_atom_site_disorder_assembly
_atom_site_disorder_group
C38 C 1.396(7) 0.7665(19) 0.299(2) 0.240 Uiso 1 1 d D . . . .
H38 H 1.5265 0.7693 0.3105 0.288 Uiso 1 1 calc R . . . .
C36 C 1.304(8) 0.8101(16) 0.278(2) 0.240 Uiso 1 1 d DG . . . .
C35 C 1.109(8) 0.8060(16) 0.260(3) 0.300 Uiso 1 1 d DG . . . .
H35 H 1.0476 0.8351 0.2467 0.360 Uiso 1 1 calc R . . . .
C34 C 1.007(8) 0.7583(17) 0.263(3) 0.37(7) Uiso 1 1 d DG . . . .
H34 H 0.8773 0.7556 0.2509 0.438 Uiso 1 1 calc R . . . .
C33 C 1.100(7) 0.7147(15) 0.283(2) 0.24(5) Uiso 1 1 d DG . . . .
C39 C 1.294(6) 0.7188(17) 0.301(2) 0.240 Uiso 1 1 d DG . . . .
H39 H 1.3561 0.6897 0.3146 0.288 Uiso 1 1 calc DR . . . .
Zn1 Zn 0.415(2) 0.4491(6) 0.2560(7) 0.235(8) Uiso 1 1 d D . . . .
O1 O 0.533(10) 0.509(3) 0.267(3) 0.240 Uiso 1 1 d D . . . .
C2 C 0.359(7) 0.3791(18) 0.3945(16) 0.300 Uiso 1 1 d D . . . .
H2 H 0.4365 0.3606 0.4163 0.360 Uiso 1 1 calc DR . . . .
C1 C 0.444(8) 0.396(2) 0.3521(17) 0.300 Uiso 1 1 d DG . . . .
H1 H 0.5786 0.3885 0.3455 0.360 Uiso 1 1 calc R . . . .
N1 N 0.328(10) 0.4235(17) 0.3195(15) 0.300 Uiso 1 1 d DG . . . .
C5 C 0.127(10) 0.4344(19) 0.3292(15) 0.240 Uiso 1 1 d DG . . . .
H5 H 0.0499 0.4528 0.3074 0.288 Uiso 1 1 calc R . . . .
C4 C 0.042(7) 0.4176(16) 0.3716(15) 0.240 Uiso 1 1 d DG . . . .
H4 H -0.0922 0.4249 0.3782 0.288 Uiso 1 1 calc R . . . .
C3 C 0.158(7) 0.3900(12) 0.4042(12) 0.240 Uiso 1 1 d DG . . . .
C26 C 0.668(10) 0.5233(18) 0.293(3) 0.240 Uiso 1 1 d D . . . .
O2 O 0.756(9) 0.495(3) 0.320(3) 0.27(4) Uiso 1 1 d D . . . .
C30 C 0.994(7) 0.6655(15) 0.286(2) 0.240 Uiso 1 1 d D . . . .
C29 C 0.816(7) 0.6592(17) 0.261(2) 0.240 Uiso 1 1 d DG . . . .
H29 H 0.7650 0.6867 0.2428 0.288 Uiso 1 1 calc R . . . .
C28 C 0.713(7) 0.6116(18) 0.263(2) 0.300 Uiso 1 1 d DG . . . .
H28 H 0.5930 0.6073 0.2462 0.360 Uiso 1 1 calc R . . . .
C27 C 0.788(7) 0.5704(15) 0.290(2) 0.300 Uiso 1 1 d DG . . . .
C32 C 0.967(8) 0.5768(15) 0.315(2) 0.300 Uiso 1 1 d DG . . . .
H32 H 1.0177 0.5492 0.3331 0.360 Uiso 1 1 calc R . . . .
C31 C 1.070(7) 0.6243(16) 0.313(2) 0.300 Uiso 1 1 d DG . . . .
H31 H 1.1897 0.6286 0.3297 0.360 Uiso 1 1 calc DR . . . .
C7 C 0.170(4) 0.349(2) 0.4804(14) 0.240 Uiso 1 1 d D . . . .
H7 H 0.3059 0.3405 0.4766 0.288 Uiso 1 1 calc DR . . . .
C6 C 0.044(5) 0.3729(15) 0.4460(12) 0.240 Uiso 1 1 d DG . . . .
S1 S -0.151(4) 0.3783(9) 0.4659(12) 0.223(14) Uiso 1 1 d DG . . . .
C9 C -0.146(4) 0.3574(14) 0.5126(10) 0.240 Uiso 1 1 d DG . . . .
C8 C 0.053(5) 0.3391(19) 0.5215(12) 0.240 Uiso 1 1 d DG . . . .
C10 C -0.317(7) 0.349(3) 0.543(2) 0.300 Uiso 1 1 d D . . . .
H10A H -0.3595 0.3126 0.5405 0.450 Uiso 1 1 calc GR . . . .
H10B H -0.4251 0.3714 0.5339 0.450 Uiso 1 1 calc GR . . . .
H10C H -0.2795 0.3558 0.5753 0.450 Uiso 1 1 calc GR . . . .
C11 C 0.130(7) 0.323(3) 0.5675(14) 0.200 Uiso 1 1 d D . . . .
C15 C 0.128(9) 0.3462(17) 0.6133(19) 0.22(4) Uiso 1 1 d DG . . . .
C14 C 0.175(12) 0.306(2) 0.6468(13) 0.300 Uiso 1 1 d DG . . . .
C13 C 0.206(12) 0.2586(17) 0.622(3) 0.300 Uiso 1 1 d DG . . . .
C12 C 0.178(10) 0.269(3) 0.573(2) 0.200 Uiso 1 1 d G . . . .
F2 F 0.118(10) 0.223(3) 0.545(3) 0.31(3) Uiso 1 1 d . . . . .
F1 F 0.374(7) 0.2608(16) 0.534(2) 0.19(2) Uiso 1 1 d . . . . .
F4 F 0.250(10) 0.203(2) 0.651(3) 0.33(4) Uiso 1 1 d D . . . .
F3 F 0.435(9) 0.254(2) 0.600(2) 0.27(3) Uiso 1 1 d D . . . .
F6 F 0.008(11) 0.268(3) 0.675(3) 0.33(3) Uiso 1 1 d . . . . .
F5 F 0.301(12) 0.321(3) 0.692(4) 0.40(4) Uiso 1 1 d . . . . .
C19 C 0.103(5) 0.4474(12) 0.6005(13) 0.240 Uiso 1 1 d D . . . .
S2 S -0.020(5) 0.4874(10) 0.6200(11) 0.259(16) Uiso 1 1 d DG . . . .
C18 C -0.174(4) 0.4628(14) 0.6471(11) 0.240 Uiso 1 1 d DG . . . .
C17 C -0.145(6) 0.4075(13) 0.6443(19) 0.240 Uiso 1 1 d DG . . . .
H17 H -0.2242 0.3820 0.6588 0.288 Uiso 1 1 calc DR . . . .
C16 C 0.027(6) 0.3980(10) 0.615(2) 0.240 Uiso 1 1 d DG . . . .
C37 C 1.425(11) 0.858(2) 0.276(3) 0.300 Uiso 1 1 d D . . . .
O3 O 1.341(8) 0.898(2) 0.264(3) 0.22(3) Uiso 1 1 d D . . . .
O4 O 1.587(15) 0.855(3) 0.295(4) 0.52(8) Uiso 1 1 d D . . . .
C20 C 0.298(7) 0.455(2) 0.578(3) 0.19(4) Uiso 1 1 d D . . . .
H20A H 0.3416 0.4223 0.5639 0.290 Uiso 1 1 calc GR . . . .
H20B H 0.3946 0.4665 0.6006 0.290 Uiso 1 1 calc GR . . . .
H20C H 0.2854 0.4810 0.5532 0.290 Uiso 1 1 calc GR . . . .
C23 C -0.643(6) 0.459(2) 0.726(2) 0.200 Uiso 1 1 d D . . . .
H23 H -0.7293 0.4359 0.7409 0.240 Uiso 1 1 calc R . . . .
C22 C -0.484(7) 0.4406(18) 0.699(2) 0.200 Uiso 1 1 d DG . . . .
H22 H -0.4635 0.4046 0.6956 0.240 Uiso 1 1 calc DR . . . .
C21 C -0.354(6) 0.4757(16) 0.6764(19) 0.240 Uiso 1 1 d DG . . . .
C25 C -0.384(7) 0.5296(16) 0.6811(18) 0.240 Uiso 1 1 d DG . . . .
H25 H -0.2976 0.5531 0.6662 0.288 Uiso 1 1 calc R . . . .
C24 C -0.543(7) 0.548(2) 0.708(2) 0.240 Uiso 1 1 d DG . . . .
H24 H -0.5634 0.5844 0.7114 0.288 Uiso 1 1 calc R . . . .
N2 N -0.673(6) 0.513(3) 0.731(2) 0.240 Uiso 1 1 d DG . . . .
loop_
_atom_type_symbol
_atom_type_description
_atom_type_scat_dispersion_real
_atom_type_scat_dispersion_imag
_atom_type_scat_source
C C 0.0033 0.0016 'International Tables Vol C Tables 4.2.6.8 and 6.1.1.4'
H H 0.0000 0.0000 'International Tables Vol C Tables 4.2.6.8 and 6.1.1.4'
F F 0.0171 0.0103 'International Tables Vol C Tables 4.2.6.8 and 6.1.1.4'
N N 0.0061 0.0033 'International Tables Vol C Tables 4.2.6.8 and 6.1.1.4'
O O 0.0106 0.0060 'International Tables Vol C Tables 4.2.6.8 and 6.1.1.4'
S S 0.1246 0.1234 'International Tables Vol C Tables 4.2.6.8 and 6.1.1.4'
Zn Zn 0.2839 1.4301 'International Tables Vol C Tables 4.2.6.8 and 6.1.1.4'
loop_
_exptl_crystal_face_index_h
_exptl_crystal_face_index_k
_exptl_crystal_face_index_l
_exptl_crystal_face_perp_dist
0 -14 37 0.0537
8 -19 -10 0.0680
-7 19 11 0.1476
-2 33 13 0.1452
-5 -27 -8 0.1057
10 41 0 0.1503
0 14 -37 0.0123
loop_
_geom_angle_atom_site_label_1
_geom_angle_atom_site_label_2
_geom_angle_atom_site_label_3
_geom_angle
_geom_angle_site_symmetry_1
_geom_angle_site_symmetry_3
_geom_angle_publ_flag
C36 C38 C39 120.00(10) . . ?
C38 C36 C35 120.00(9) . . ?
C38 C36 C37 116(3) . . ?
C35 C36 C37 124(3) . . ?
C34 C35 C36 120.0 . . ?
C33 C34 C35 120.00(10) . . ?
C34 C33 C39 120.00(8) . . ?
C34 C33 C30 120.1(17) . . ?
C39 C33 C30 119.9(17) . . ?
C33 C39 C38 120.0 . . ?
O1 Zn1 N1 105(3) . . ?
O1 Zn1 O3 104(3) . 4_745 ?
O1 Zn1 N2 91(9) . 2_464 ?
N1 Zn1 O3 104(3) . 4_745 ?
N1 Zn1 N2 104(8) . 2_464 ?
N2 Zn1 O3 143(6) 2_464 4_745 ?
C26 O1 Zn1 135(4) . . ?
C1 C2 C3 120.0 . . ?
N1 C1 C2 120.0 . . ?
C1 N1 Zn1 127(3) . . ?
C1 N1 C5 120.0 . . ?
C5 N1 Zn1 113(3) . . ?
C4 C5 N1 120.0 . . ?
C5 C4 C3 120.0 . . ?
C2 C3 C6 126(2) . . ?
C4 C3 C2 120.0 . . ?
C4 C3 C6 113(2) . . ?
O1 C26 O2 124(4) . . ?
O1 C26 C27 129(5) . . ?
O2 C26 C27 106(5) . . ?
C29 C30 C33 119.4(17) . . ?
C29 C30 C31 120.0 . . ?
C31 C30 C33 120.6(17) . . ?
C30 C29 C28 120.0 . . ?
C27 C28 C29 120.00(9) . . ?
C28 C27 C26 117(2) . . ?
C28 C27 C32 120.00(9) . . ?
C32 C27 C26 123(2) . . ?
C27 C32 C31 120.0 . . ?
C32 C31 C30 120.0 . . ?
C8 C7 C6 108.0 . . ?
C7 C6 C3 112(2) . . ?
S1 C6 C3 139(2) . . ?
S1 C6 C7 108.0 . . ?
C6 S1 C9 108.0 . . ?
C6 S1 C8 72.0 . . ?
C9 S1 C8 36.0 . . ?
S1 C9 C10 126.4(14) . . ?
C8 C9 S1 108.0 . . ?
C8 C9 C10 124.9(14) . . ?
C7 C8 S1 72.0 . . ?
C7 C8 C11 125.8(14) . . ?
C9 C8 C7 108.0 . . ?
C9 C8 S1 36.0 . . ?
C9 C8 C11 125.2(14) . . ?
C11 C8 S1 160(2) . . ?
C15 C11 C8 134(5) . . ?
C12 C11 C8 116(6) . . ?
C12 C11 C15 108.0 . . ?
C11 C15 C16 114(4) . . ?
C14 C15 C11 108.0 . . ?
C14 C15 C16 135(4) . . ?
C15 C14 C13 108.0 . . ?
C15 C14 F6 126(5) . . ?
C15 C14 F5 119(6) . . ?
C13 C14 F6 81(5) . . ?
C13 C14 F5 122(5) . . ?
F5 C14 F6 96(5) . . ?
C14 C13 C12 108.0 . . ?
C14 C13 F4 120(6) . . ?
C14 C13 F3 112(4) . . ?
C12 C13 F4 132(6) . . ?
C12 C13 F3 76(4) . . ?
F3 C13 F4 88(3) . . ?
C11 C12 C13 108.0 . . ?
C11 C12 F2 131(7) . . ?
C11 C12 F1 103(4) . . ?
C13 C12 F2 114(7) . . ?
C13 C12 F1 120(4) . . ?
F2 C12 F1 77(4) . . ?
S2 C19 C20 126.3(13) . . ?
C16 C19 S2 108.0 . . ?
C16 C19 C20 124.6(13) . . ?
C19 S2 C18 108.0 . . ?
S2 C18 C21 141(3) . . ?
C17 C18 S2 108.0 . . ?
C17 C18 C21 111(3) . . ?
C16 C17 C18 108.0 . . ?
C19 C16 C15 128(3) . . ?
C19 C16 C17 108.0 . . ?
C17 C16 C15 123(3) . . ?
O3 C37 C36 117(5) . . ?
O4 C37 C36 114(5) . . ?
O4 C37 O3 127(4) . . ?
C37 O3 Zn1 104(4) . 4_755 ?
C22 C23 N2 120.00(7) . . ?
C23 C22 C21 120.0 . . ?
C22 C21 C18 127(2) . . ?
C25 C21 C18 113(2) . . ?
C25 C21 C22 120.0 . . ?
C21 C25 C24 120.00(8) . . ?
N2 C24 C25 120.0 . . ?
C23 N2 Zn1 128(3) . 2_465 ?
C24 N2 Zn1 111(3) . 2_465 ?
C24 N2 C23 120.0 . . ?
loop_
_geom_bond_atom_site_label_1
_geom_bond_atom_site_label_2
_geom_bond_distance
_geom_bond_site_symmetry_2
_geom_bond_publ_flag
C38 C36 1.3900 . ?
C38 C39 1.3900 . ?
C36 C35 1.3900 . ?
C36 C37 1.46(3) . ?
C35 C34 1.3900 . ?
C34 C33 1.3900 . ?
C33 C39 1.3900 . ?
C33 C30 1.435(18) . ?
Zn1 O1 1.74(7) . ?
Zn1 N1 1.99(4) . ?
Zn1 O3 2.15(6) 4_745 ?
Zn1 N2 2.0(3) 2_464 ?
O1 C26 1.21(4) . ?
C2 C1 1.3900 . ?
C2 C3 1.3900 . ?
C1 N1 1.3900 . ?
N1 C5 1.3900 . ?
C5 C4 1.3900 . ?
C4 C3 1.3900 . ?
C3 C6 1.47(2) . ?
C26 O2 1.21(4) . ?
C26 C27 1.44(2) . ?
C30 C29 1.3900 . ?
C30 C31 1.3900 . ?
C29 C28 1.3900 . ?
C28 C27 1.3900 . ?
C27 C32 1.3900 . ?
C32 C31 1.3900 . ?
C7 C6 1.4200 . ?
C7 C8 1.4200 . ?
C6 S1 1.4200 . ?
S1 C9 1.4200 . ?
S1 C8 2.2976 . ?
C9 C8 1.4200 . ?
C9 C10 1.44(4) . ?
C8 C11 1.45(3) . ?
C11 C15 1.4200 . ?
C11 C12 1.4200 . ?
C15 C14 1.4200 . ?
C15 C16 1.48(2) . ?
C14 C13 1.4200 . ?
C14 F6 1.68(9) . ?
C14 F5 1.56(10) . ?
C13 C12 1.4200 . ?
C13 F4 1.65(5) . ?
C13 F3 1.65(5) . ?
C12 F2 1.46(8) . ?
C12 F1 1.72(7) . ?
C19 S2 1.4200 . ?
C19 C16 1.4200 . ?
C19 C20 1.45(3) . ?
S2 C18 1.4200 . ?
C18 C17 1.4200 . ?
C18 C21 1.49(2) . ?
C17 C16 1.4200 . ?
C37 O3 1.20(4) . ?
C37 O4 1.20(4) . ?
O3 Zn1 2.15(6) 4_755 ?
C23 C22 1.3900 . ?
C23 N2 1.3900 . ?
C22 C21 1.3900 . ?
C21 C25 1.3900 . ?
C25 C24 1.3900 . ?
C24 N2 1.3900 . ?
N2 Zn1 2.00(4) 2_465 ?
loop_
_smtbx_masks_void_nr
_smtbx_masks_void_average_x
_smtbx_masks_void_average_y
_smtbx_masks_void_average_z
_smtbx_masks_void_volume
_smtbx_masks_void_count_electrons
_smtbx_masks_void_content
1 -0.429 0.250 0.000 773.9 27.4 ?
2 -0.527 -0.250 0.500 773.9 26.8 ?
3 0.188 0.300 0.328 6.6 2.3 ?
4 0.312 0.700 0.828 6.6 2.3 ?
5 0.687 0.200 0.672 6.6 2.3 ?
6 0.812 0.800 0.172 6.6 2.3 ?
