#------------------------------------------------------------------------------
#$Date: 2021-11-05 02:06:12 +0200 (Fri, 05 Nov 2021) $
#$Revision: 270317 $
#$URL: file:///home/coder/svn-repositories/cod/cif/7/70/87/7708726.cif $
#------------------------------------------------------------------------------
#
# This file is available in the Crystallography Open Database (COD),
# http://www.crystallography.net/
#
# All data on this site have been placed in the public domain by the
# contributors.
#
data_7708726
loop_
_publ_author_name
'P\'o\/lrolniczak, Aleksandra'
'Sobczak, Szymon'
'Nikolayenko, Varvara'
'Barbour, Len'
'Katrusiak, Andrzej'
_publ_section_title
;
 Solvent-controlled elongation and mechanochemical strain in a
 metal-organic framework
;
_journal_name_full               'Dalton Transactions'
_journal_paper_doi               10.1039/D1DT01937F
_journal_year                    2021
_chemical_formula_moiety         'C39 H24 F6 N2 O4 S2 Zn'
_chemical_formula_sum            'C39 H24 F6 N2 O4 S2 Zn'
_chemical_formula_weight         828.09
_chemical_name_common            DMOF
_chemical_name_systematic
1,2-bis(2-ethyl-5-phenyl-3-thienyl)perfluorocyclopentene
_space_group_crystal_system      orthorhombic
_space_group_IT_number           19
_space_group_name_Hall           'P 2ac 2ab'
_space_group_name_H-M_alt        'P 21 21 21'
_atom_sites_solution_hydrogens   geom
_atom_sites_solution_primary     direct
_audit_creation_date             2019-05-07
_audit_creation_method
;
Olex2 1.2
(compiled 2018.05.29 svn.r3508 for OlexSys, GUI svn.r5506)
;
_audit_update_record
;
2019-09-30 deposited with the CCDC.	2021-11-02 downloaded from the CCDC.
;
_cell_angle_alpha                90
_cell_angle_beta                 90
_cell_angle_gamma                90
_cell_formula_units_Z            4
_cell_length_a                   6.8072(17)
_cell_length_b                   25.266(16)
_cell_length_c                   28.63(3)
_cell_measurement_reflns_used    691
_cell_measurement_temperature    293(2)
_cell_measurement_theta_max      12.8220
_cell_measurement_theta_min      3.8970
_cell_volume                     4924(6)
_computing_cell_refinement       'CrysAlisPro 1.171.39.43a (Rigaku OD, 2018)'
_computing_data_collection       'CrysAlisPro 1.171.39.43a (Rigaku OD, 2018)'
_computing_data_reduction        'CrysAlisPro 1.171.39.43a (Rigaku OD, 2018)'
_computing_molecular_graphics    'Olex2 (Dolomanov et al., 2009)'
_computing_publication_material  'Olex2 (Dolomanov et al., 2009)'
_computing_structure_refinement  'ShelXL (Sheldrick, 2015)'
_computing_structure_solution    'ShelXS (Sheldrick, 2008)'
_diffrn_ambient_temperature      293(2)
_diffrn_detector                 'CCD plate'
_diffrn_detector_area_resol_mean 16.2413
_diffrn_detector_type            Eos
_diffrn_measured_fraction_theta_full 0.166
_diffrn_measured_fraction_theta_max 0.733
_diffrn_measurement_details
;
List of Runs (angles in degrees, time in seconds):

  # Type    Start    End  Width  t~exp~   \w     \q     \k     \f   Frames
#--------------------------------------------------------------------------
  1  \f    -35.00  19.75   0.75   35.00   0.00 -30.00   0.00    --    73
  2  \f    140.00 200.00   0.75   35.00   0.00 -30.00   0.00    --    80
  3  \f    160.00 217.00   0.75   35.00   0.00  30.00   0.00    --    76
  4  \f    -20.00  34.75   0.75   35.00   0.00  30.00   0.00    --    73
  5  \w    -24.00  24.00   0.75   35.00    --   30.00  39.46 -12.90   64
  6  \w    -24.00  24.00   0.75   35.00    --   30.00  39.46 167.10   64
  7  \w    -50.00  10.00   0.75   35.00    --  -30.00  39.46 167.10   80
  8  \w    -50.00  10.00   0.75   35.00    --  -30.00  39.46 -12.90   80
  9  \w    -64.00  -8.50   0.75   35.00    --  -30.00  81.40 -28.90   74
 10  \w    -64.00  -8.50   0.75   35.00    --  -30.00  81.40 151.10   74
 11  \w    -19.00   8.00   0.75   35.00    --   30.00  81.40 151.10   36
 12  \w    -19.00   8.00   0.75   35.00    --   30.00  81.40 -28.90   36
 13  \w    -43.00 -21.25   0.75   35.00    --   30.00 134.60 -56.90   29
 14  \w    -43.00 -21.25   0.75   35.00    --   30.00 134.60 123.10   29
 15  \w    -90.00 -36.00   0.75   35.00    --  -30.00 134.60 123.10   72
 16  \w    -90.00 -36.00   0.75   35.00    --  -30.00 134.60 -56.90   72
;
_diffrn_measurement_device       'four-circle diffractometer'
_diffrn_measurement_device_type  'Xcalibur, Eos'
_diffrn_measurement_method       '\w and \f scans'
_diffrn_orient_matrix_type
'CrysAlisPro convention (1999,Acta A55,543-557)'
_diffrn_orient_matrix_UB_11      -0.0117957000
_diffrn_orient_matrix_UB_12      -0.0189431000
_diffrn_orient_matrix_UB_13      -0.0180272000
_diffrn_orient_matrix_UB_21      -0.0587073000
_diffrn_orient_matrix_UB_22      -0.0157901000
_diffrn_orient_matrix_UB_23      0.0149932000
_diffrn_orient_matrix_UB_31      -0.0853936000
_diffrn_orient_matrix_UB_32      0.0134572000
_diffrn_orient_matrix_UB_33      -0.0078589000
_diffrn_radiation_monochromator  graphite
_diffrn_radiation_probe          x-ray
_diffrn_radiation_type           MoK\a
_diffrn_radiation_wavelength     0.71073
_diffrn_reflns_av_R_equivalents  0.4441
_diffrn_reflns_av_unetI/netI     0.2191
_diffrn_reflns_Laue_measured_fraction_full 0.166
_diffrn_reflns_Laue_measured_fraction_max 0.733
_diffrn_reflns_limit_h_max       4
_diffrn_reflns_limit_h_min       -4
_diffrn_reflns_limit_k_max       16
_diffrn_reflns_limit_k_min       -16
_diffrn_reflns_limit_l_max       18
_diffrn_reflns_limit_l_min       -18
_diffrn_reflns_number            10158
_diffrn_reflns_point_group_measured_fraction_full 0.159
_diffrn_reflns_point_group_measured_fraction_max 0.757
_diffrn_reflns_theta_full        25.242
_diffrn_reflns_theta_max         14.703
_diffrn_reflns_theta_min         4.104
_diffrn_source                   'fine-focus sealed X-ray tube'
_diffrn_source_type              'Enhance (Mo) X-ray Source'
_exptl_absorpt_coefficient_mu    0.639
_exptl_absorpt_correction_T_max  0.434
_exptl_absorpt_correction_T_min  0.254
_exptl_absorpt_correction_type   gaussian
_exptl_absorpt_process_details
;
CrysAlisPro 1.171.39.43a (Rigaku Oxford Diffraction, 2018)
Numerical absorption correction based on gaussian integration over
			a multifaceted crystal model (Absorb Angel (2004) J. Appl. Cryst. 37:486-492)
;
_exptl_crystal_colour            pink
_exptl_crystal_density_diffrn    1.117
_exptl_crystal_description       plate
_exptl_crystal_F_000             1680
_exptl_crystal_preparation       'mounted in a diamond-anvil cell '
_exptl_crystal_size_max          0.308
_exptl_crystal_size_mid          0.216
_exptl_crystal_size_min          0.124
_refine_diff_density_max         0.294
_refine_diff_density_min         -0.189
_refine_diff_density_rms         0.055
_refine_ls_abs_structure_details
;
 Flack x determined using 152 quotients [(I+)-(I-)]/[(I+)+(I-)]
 (Parsons and Flack (2004), Acta Cryst. A60, s61).
;
_refine_ls_abs_structure_Flack   0.01(9)
_refine_ls_extinction_method     none
_refine_ls_goodness_of_fit_ref   1.227
_refine_ls_hydrogen_treatment    constr
_refine_ls_matrix_type           full
_refine_ls_number_parameters     414
_refine_ls_number_reflns         1418
_refine_ls_number_restraints     760
_refine_ls_restrained_S_all      0.982
_refine_ls_R_factor_all          0.2030
_refine_ls_R_factor_gt           0.1273
_refine_ls_shift/su_max          0.031
_refine_ls_shift/su_mean         0.017
_refine_ls_structure_factor_coef Fsqd
_refine_ls_weighting_details
;
 w=1/[\s^2^(Fo^2^)+(0.2000P)^2^]
 where P=(Fo^2^+2Fc^2^)/3
;
_refine_ls_weighting_scheme      calc
_refine_ls_wR_factor_gt          0.3142
_refine_ls_wR_factor_ref         0.3895
_reflns_Friedel_coverage         0.690
_reflns_Friedel_fraction_full    0.150
_reflns_Friedel_fraction_max     0.793
_reflns_number_gt                723
_reflns_number_total             1418
_reflns_threshold_expression     'I > 2\s(I)'
_cod_data_source_file            d1dt01937f2.cif
_cod_data_source_block           DMOF_0_70_GPa_Gly
_cod_database_code               7708726
_shelx_space_group_comment
;
The symmetry employed for this shelxl refinement is uniquely defined
by the following loop, which should always be used as a source of
symmetry information in preference to the above space-group names.
They are only intended as comments.
;
_shelx_fab_file
;
-4 -10 -2 -5.1573 -2.2503
-4 -10 -1 2.0191 -2.7471
-4 -9 -5 1.6220 2.2602
-4 -9 -4 3.6018 8.1010
-4 -9 -3 4.4303 0.5040
-4 -9 -2 11.0733 9.6757
-4 -9 -1 2.7648 -1.7479
-4 -8 -7 -0.2051 -0.0459
-4 -8 -6 -3.2184 2.0978
-4 -8 -5 -4.7002 -0.8759
-4 -8 -4 -4.2559 3.9834
-4 -8 -3 -8.4318 1.3070
-4 -8 -2 -9.7838 3.9723
-4 -8 -1 -4.4915 5.6925
-4 -7 -8 -0.3075 1.5487
-4 -7 -7 -2.4379 -1.5348
-4 -7 -6 3.5913 0.0610
-4 -7 -5 -5.2541 -1.0442
-4 -7 -4 9.5092 2.4460
-4 -7 -3 -4.1938 -5.2585
-4 -7 -2 12.6816 4.2731
-4 -7 -1 -1.3052 -15.1911
-4 -6 -9 -0.1707 -1.4431
-4 -6 -8 -0.9490 0.9713
-4 -6 -7 3.8656 2.3120
-4 -6 -6 2.2461 -2.6867
-4 -6 -5 0.6541 8.9714
-4 -6 -4 2.7602 -1.1274
-4 -6 -3 -8.0359 12.2113
-4 -6 -2 4.1135 2.8589
-4 -6 -1 -5.7651 11.6050
-4 -5 -10 0.3364 -0.2713
-4 -5 -9 -4.4090 -3.9034
-4 -5 -8 -0.0379 4.3987
-4 -5 -7 -2.3054 2.8930
-4 -5 -6 -4.7182 7.6142
-4 -5 -5 -4.0591 11.2505
-4 -5 -4 -6.8333 3.6926
-4 -5 -3 -11.0516 8.6257
-4 -5 -2 -2.5663 -0.4173
-4 -5 -1 -7.2207 0.9893
-4 -4 -10 2.4782 -3.1440
-4 -4 -9 0.1146 1.3883
-4 -4 -8 -0.3923 -3.0441
-4 -4 -7 -1.1664 1.6567
-4 -4 -6 -10.6531 -2.4586
-4 -4 -5 -2.5905 -2.0963
-4 -4 -4 -13.9667 -7.6460
-4 -4 -3 -5.8711 -4.0062
-4 -4 -2 -4.8298 -9.9132
-4 -4 -1 -3.9232 -1.8212
-4 -3 -11 -1.1670 -1.3533
-4 -3 -10 -1.6235 -0.0935
-4 -3 -9 -0.6605 -2.1135
-4 -3 -8 -6.2786 0.1154
-4 -3 -7 -2.1375 -5.2012
-4 -3 -6 -7.7058 3.8570
-4 -3 -5 -4.6475 -5.7614
-4 -3 -4 -1.9452 3.1128
-4 -3 -3 -3.8840 0.1385
-4 -3 -2 2.7603 -1.7648
-4 -3 -1 -1.3115 6.2783
-4 -2 -11 -0.0953 -0.3532
-4 -2 -10 1.4386 -2.7862
-4 -2 -9 5.6594 -3.0752
-4 -2 -8 2.3241 -3.2011
-4 -2 -7 6.5287 -9.2657
-4 -2 -6 1.0441 -7.8380
-4 -2 -5 -1.5687 -11.1027
-4 -2 -4 -4.7653 -13.1901
-4 -2 -3 -5.9164 -6.5167
-4 -2 -2 -9.3039 -10.5572
-4 -2 -1 -2.6129 -2.9086
-4 -1 -11 0.9116 -3.2158
-4 -1 -10 -0.6936 2.7699
-4 -1 -9 1.4327 -5.3260
-4 -1 -8 -0.4517 10.3411
-4 -1 -7 3.2462 -2.1871
-4 -1 -6 6.2927 8.5663
-4 -1 -5 7.8330 0.3436
-4 -1 -4 9.0440 -1.1452
-4 -1 -3 9.1094 -1.6864
-4 -1 -2 2.9940 -5.1849
-4 -1 -1 4.0135 -3.9793
-3 -13 -6 4.6514 -1.8716
-3 -13 -5 -4.2362 0.6264
-3 -12 -8 -1.0915 1.3120
-3 -12 -7 -0.3719 8.4462
-3 -12 -6 -0.0726 -4.0972
-3 -12 -5 4.4630 2.3487
-3 -12 -4 4.2573 -3.9337
-3 -11 -10 -8.4245 -5.0792
-3 -11 -9 0.0437 -0.9503
-3 -11 -8 -12.0760 -7.0645
-3 -11 -7 4.1243 -0.7500
-3 -11 -6 3.4385 -1.4240
-3 -11 -5 0.7448 8.0836
-3 -11 -4 17.9022 7.0810
-3 -10 -11 7.0678 -3.7739
-3 -10 -10 0.7977 2.6885
-3 -10 -9 12.9374 -4.9966
-3 -10 -8 2.8607 5.0121
-3 -10 -7 10.0241 9.0731
-3 -10 -6 -1.8509 2.5728
-3 -10 -5 -0.4362 25.0785
-3 -10 -4 -14.7219 -5.0913
-3 -10 -3 -10.6503 20.2869
-3 -10 -2 -17.6009 -3.5976
-3 -10 -1 -16.2872 5.6592
-3 -9 -12 2.3818 1.7198
-3 -9 -11 -2.5626 0.3723
-3 -9 -10 -4.5833 8.4565
-3 -9 -9 -1.2571 1.0544
-3 -9 -8 -14.5367 10.5480
-3 -9 -7 -3.5859 0.8858
-3 -9 -6 -18.3489 5.2871
-3 -9 -5 -0.7644 0.3211
-3 -9 -4 -13.0873 0.1401
-3 -9 -3 0.0133 1.9577
-3 -9 -2 -4.8046 -2.9212
-3 -9 -1 -8.5668 1.7781
-3 -8 -13 2.8863 7.6044
-3 -8 -12 -0.4572 0.2761
-3 -8 -11 1.9128 1.2621
-3 -8 -10 2.9807 5.6030
-3 -8 -9 -1.1072 -9.0408
-3 -8 -8 8.4882 4.2884
-3 -8 -7 0.7362 -2.1166
-3 -8 -6 6.5915 1.8080
-3 -8 -5 0.1734 6.1998
-3 -8 -4 -9.7264 6.9662
-3 -8 -3 -8.4965 -3.8502
-3 -8 -2 -18.4651 9.0551
-3 -8 -1 -16.3087 -6.4096
-3 -7 -14 -5.2898 -1.1122
-3 -7 -13 0.8421 -2.0036
-3 -7 -12 -8.5302 2.8354
-3 -7 -11 -2.4251 -0.9540
-3 -7 -10 -1.4792 2.5123
-3 -7 -9 -6.8214 9.4874
-3 -7 -8 -5.4937 3.7905
-3 -7 -7 -10.7381 21.4687
-3 -7 -6 -18.5637 6.6235
-3 -7 -5 -17.0067 12.6158
-3 -7 -4 -2.3534 1.3254
-3 -7 -3 -20.3746 -9.7883
-3 -7 -2 20.2836 -7.0807
-3 -7 -1 -17.0712 -9.8949
-3 -6 -14 -1.3840 2.0653
-3 -6 -13 -1.6089 -3.0214
-3 -6 -12 5.3692 6.5085
-3 -6 -11 -2.1827 -0.5211
-3 -6 -10 5.5681 5.7870
-3 -6 -9 2.0044 3.5613
-3 -6 -8 -9.9222 -5.6988
-3 -6 -7 1.2974 -2.2692
-3 -6 -6 -20.8403 -17.6281
-3 -6 -5 -0.5181 -0.9552
-3 -6 -4 -9.7609 -17.3349
-3 -6 -3 -2.9352 16.0923
-3 -6 -2 3.8731 -6.5843
-3 -6 -1 -9.3742 13.0984
-3 -5 -15 1.7701 -4.1693
-3 -5 -14 0.7454 -2.1849
-3 -5 -13 -3.0097 0.4160
-3 -5 -12 -4.6810 -7.3716
-3 -5 -11 -11.2764 9.5484
-3 -5 -10 -9.6102 -2.9724
-3 -5 -9 -6.6636 8.9099
-3 -5 -8 -12.3551 4.1747
-3 -5 -7 4.8569 -1.6216
-3 -5 -6 -11.6064 6.3973
-3 -5 -5 4.2475 -6.1670
-3 -5 -4 -5.1006 4.9324
-3 -5 -3 -3.8490 -0.5163
-3 -5 -2 0.8620 -2.8546
-3 -5 -1 -6.7470 1.7152
-3 -4 -15 -4.8680 3.2891
-3 -4 -14 0.3985 4.4025
-3 -4 -13 -1.6849 -3.7239
-3 -4 -12 -2.0221 -1.1273
-3 -4 -11 5.6939 -6.9020
-3 -4 -10 -3.9600 -5.1700
-3 -4 -9 6.9267 -3.3926
-3 -4 -8 -3.7153 -2.1146
-3 -4 -7 4.7178 -5.2807
-3 -4 -6 -0.4106 -3.7871
-3 -4 -5 3.3881 -2.2360
-3 -4 -4 1.7431 -5.1384
-3 -4 -3 1.8049 12.5242
-3 -4 -2 0.5831 7.0960
-3 -4 -1 0.7508 10.5373
-3 -3 -15 -0.5688 -0.5679
-3 -3 -14 5.1581 -13.0306
-3 -3 -13 -0.6725 -1.9515
-3 -3 -12 7.1400 -8.4590
-3 -3 -11 -1.0191 3.2079
-3 -3 -10 -0.1153 3.6581
-3 -3 -9 -1.1450 8.7829
-3 -3 -8 -5.3342 10.2142
-3 -3 -7 2.8398 11.4911
-3 -3 -6 -0.9667 14.2994
-3 -3 -5 1.1785 13.7241
-3 -3 -4 -0.2856 15.3748
-3 -3 -3 -14.1003 11.5187
-3 -3 -2 -4.4537 6.9659
-3 -3 -1 -29.5756 4.0710
-3 -2 -15 0.5665 6.5560
-3 -2 -14 2.3138 7.4186
-3 -2 -13 3.9237 6.5250
-3 -2 -12 -0.2321 4.9707
-3 -2 -11 2.1518 4.0474
-3 -2 -10 -8.9923 -2.7196
-3 -2 -9 1.1691 1.3257
-3 -2 -8 -15.3105 1.0998
-3 -2 -7 -0.3529 0.2237
-3 -2 -6 -19.5166 3.8044
-3 -2 -5 -6.1856 6.9145
-3 -2 -4 -18.5095 -6.5079
-3 -2 -3 -2.9417 15.6653
-3 -2 -2 -9.6759 -9.7284
-3 -2 -1 10.1443 9.2063
-3 -1 -13 -9.4255 2.6103
-3 -1 -12 4.2361 -6.8886
-3 -1 -11 -1.8627 -4.7582
-3 -1 -10 -2.2364 1.2541
-3 -1 -9 0.9172 -4.8914
-3 -1 -8 -2.7388 9.2130
-3 -1 -7 -5.2772 -3.4104
-3 -1 -6 1.6303 9.1799
-3 -1 -5 -2.8333 -5.6557
-3 -1 -4 -8.7758 7.8270
-3 -1 -3 -2.6189 -2.9191
-3 -1 -2 -18.2335 16.0729
-3 -1 -1 -15.2390 0.3406
-2 -15 -7 -4.0362 2.4575
-2 -15 -6 -2.5651 0.1271
-2 -15 -5 -0.9680 0.7664
-2 -15 -4 2.0558 -4.5518
-2 -14 -9 -1.7812 1.9674
-2 -14 -8 -1.3434 -1.4529
-2 -14 -7 -4.8935 0.4189
-2 -14 -6 -1.1327 -2.1809
-2 -14 -5 1.2471 2.7698
-2 -14 -4 -2.1208 3.8764
-2 -13 -11 -2.5732 0.5568
-2 -13 -10 1.6746 4.1877
-2 -13 -9 -4.3293 3.5566
-2 -13 -8 -0.9125 -3.9171
-2 -13 -7 -4.3548 7.7291
-2 -13 -6 -4.8438 -5.4017
-2 -13 -5 -4.4224 0.8616
-2 -13 -4 -5.9324 3.4337
-2 -12 -12 -1.3664 -2.2863
-2 -12 -11 -3.7038 7.3763
-2 -12 -10 -6.0413 -4.1445
-2 -12 -9 -1.6508 5.6030
-2 -12 -8 -18.7966 -5.0440
-2 -12 -7 4.6960 -3.0550
-2 -12 -6 -16.4244 -4.8197
-2 -12 -5 2.8197 -4.3221
-2 -12 -4 -3.5073 4.2074
-2 -11 -13 0.5566 -3.3724
-2 -11 -12 -5.3627 4.0034
-2 -11 -11 0.4362 -3.1141
-2 -11 -10 -7.1141 -0.4746
-2 -11 -9 0.3242 -11.9014
-2 -11 -8 1.6597 -3.0379
-2 -11 -7 2.5118 -20.3139
-2 -11 -6 2.2954 0.1639
-2 -11 -5 -9.2567 -6.2677
-2 -11 -4 -4.5467 -4.7992
-2 -10 -14 4.0670 0.0008
-2 -10 -13 -4.5514 -0.1314
-2 -10 -12 1.5146 -2.6144
-2 -10 -11 -2.1661 1.1441
-2 -10 -10 -3.1163 -0.6533
-2 -10 -9 5.2984 5.7487
-2 -10 -8 2.4912 7.5627
-2 -10 -7 2.5422 3.7340
-2 -10 -6 -0.8573 0.2751
-2 -10 -5 3.0797 -10.5836
-2 -10 -4 -19.4445 -34.4136
-2 -10 -3 19.1145 -6.0322
-2 -9 -15 -0.4164 -1.1536
-2 -9 -14 -0.5514 0.0719
-2 -9 -13 4.9661 -0.5674
-2 -9 -12 -5.9051 -0.6049
-2 -9 -11 3.3853 -6.1118
-2 -9 -10 -9.3678 1.7993
-2 -9 -9 -11.6780 -6.4256
-2 -9 -8 -4.1515 -4.3170
-2 -9 -7 -13.8583 -2.8485
-2 -9 -6 11.6345 -12.8218
-2 -9 -5 17.9311 -16.8498
-2 -9 -4 19.0746 6.6458
-2 -9 -3 48.2426 -33.9909
-2 -8 -16 3.1189 0.2974
-2 -8 -15 -1.7333 2.6151
-2 -8 -14 1.5799 3.2291
-2 -8 -13 0.3664 -0.2507
-2 -8 -12 2.5114 7.3911
-2 -8 -11 2.3827 -4.7440
-2 -8 -10 0.4095 -2.0254
-2 -8 -9 5.7380 -1.8407
-2 -8 -8 -9.0216 -10.9630
-2 -8 -7 17.2673 9.1286
-2 -8 -6 -6.6645 7.4133
-2 -8 -5 14.4551 17.2277
-2 -8 -4 8.7023 33.9028
-2 -8 -3 -11.1995 11.0453
-2 -8 -2 11.4353 30.9431
-2 -7 -16 -5.6423 -0.8120
-2 -7 -15 -0.3521 -4.6775
-2 -7 -14 -4.3655 -0.5939
-2 -7 -13 -2.4531 -1.4438
-2 -7 -12 2.0225 3.8989
-2 -7 -11 -5.1004 1.4619
-2 -7 -10 3.7993 2.6902
-2 -7 -9 -2.9474 -7.7810
-2 -7 -8 -2.2718 0.7094
-2 -7 -7 -4.6062 -16.4121
-2 -7 -6 -5.0710 4.2985
-2 -7 -5 -13.3378 -12.8251
-2 -7 -4 -0.6588 -0.3545
-2 -7 -3 -14.8636 -9.7565
-2 -7 -2 1.9765 -7.8921
-2 -7 -1 -5.7810 -13.7066
-2 -6 -17 -1.3989 -4.6914
-2 -6 -16 8.9263 -4.0113
-2 -6 -15 3.1134 -4.3218
-2 -6 -14 3.9797 -3.3876
-2 -6 -13 -0.1050 5.1543
-2 -6 -12 -7.4093 -1.5509
-2 -6 -11 -5.7156 14.4016
-2 -6 -10 -6.5886 -6.4917
-2 -6 -9 -3.6386 8.4967
-2 -6 -8 -1.0909 -4.1177
-2 -6 -7 -0.9361 0.5544
-2 -6 -6 1.4070 9.5645
-2 -6 -5 0.4555 8.3664
-2 -6 -4 6.5491 15.9047
-2 -6 -3 4.6691 11.8761
-2 -6 -2 7.5291 9.4045
-2 -6 -1 3.7744 -0.1623
-2 -5 -17 3.4105 5.9918
-2 -5 -16 0.3799 2.4330
-2 -5 -15 10.6551 2.8840
-2 -5 -14 -0.4651 2.0403
-2 -5 -13 6.2753 -9.6188
-2 -5 -12 -10.3541 -9.3259
-2 -5 -11 4.6980 -7.5501
-2 -5 -10 -11.9666 -20.0432
-2 -5 -9 4.9000 -3.9777
-2 -5 -8 2.8919 -25.0677
-2 -5 -7 -11.3610 -15.6549
-2 -5 -6 4.5687 -21.6456
-2 -5 -5 -28.0535 -14.7537
-2 -5 -4 -8.2829 -8.4466
-2 -5 -3 -22.6457 -1.9017
-2 -5 -2 -1.4083 2.1700
-2 -5 -1 -6.8542 -2.2480
-2 -4 -16 -6.2846 -0.4691
-2 -4 -15 0.7682 0.6176
-2 -4 -14 3.2083 0.5429
-2 -4 -13 10.3975 5.6651
-2 -4 -12 2.7868 4.6972
-2 -4 -11 17.9521 6.3084
-2 -4 -10 -10.7834 9.8595
-2 -4 -9 22.4454 10.6067
-2 -4 -8 -0.5014 2.3845
-2 -4 -7 22.9145 13.5533
-2 -4 -6 18.0551 -8.8612
-2 -4 -5 14.1767 4.9571
-2 -4 -4 8.7487 -6.9602
-2 -4 -3 4.9153 0.3067
-2 -4 -2 -3.1212 0.0008
-2 -4 -1 1.1659 8.2311
-2 -3 -14 2.0779 8.6410
-2 -3 -13 12.1417 -3.2010
-2 -3 -12 -11.8414 4.4479
-2 -3 -11 -8.7967 -5.6484
-2 -3 -10 -21.7155 -2.3915
-2 -3 -9 -16.5959 -11.5958
-2 -3 -8 -9.6092 -3.8672
-2 -3 -7 -8.2582 -3.5568
-2 -3 -6 5.6541 -9.0609
-2 -3 -5 -6.7155 -1.7737
-2 -3 -4 4.9715 -7.9345
-2 -3 -3 -10.2125 -8.3820
-2 -3 -2 -0.5263 2.1976
-2 -3 -1 -5.2078 -5.8090
-2 -2 -13 5.1405 9.4415
-2 -2 -12 -2.9276 5.9061
-2 -2 -11 16.0261 -15.8583
-2 -2 -10 -1.5815 -17.8616
-2 -2 -9 6.4761 -15.5360
-2 -2 -8 8.5938 -18.8618
-2 -2 -7 2.6171 12.8549
-2 -2 -6 13.4815 -2.4112
-2 -2 -5 11.5320 19.7813
-2 -2 -4 13.5171 5.5689
-2 -2 -3 4.7743 6.3456
-2 -2 -2 8.1185 3.7996
-2 -2 -1 -2.7614 2.8755
-2 -1 -9 16.6511 7.7849
-2 -1 -8 8.8568 -16.1748
-2 -1 -7 5.8187 11.7576
-2 -1 -6 -9.6284 -12.0918
-2 -1 -5 -13.3279 4.5998
-2 -1 -4 -5.0578 -1.0635
-2 -1 -3 -17.2473 4.1108
-2 -1 -2 0.9577 -2.1171
-2 -1 -1 -7.2622 11.5595
-1 -16 -8 5.8632 0.6914
-1 -16 -7 -6.2220 -2.3573
-1 -16 -6 11.6876 10.5851
-1 -15 -10 -1.3608 7.2345
-1 -15 -9 3.5893 0.1739
-1 -15 -8 1.2867 1.2358
-1 -15 -7 -1.8762 6.4746
-1 -15 -6 1.8475 -3.5269
-1 -15 -5 -10.0207 9.1856
-1 -14 -12 2.1688 -1.4734
-1 -14 -11 -8.9016 -3.2096
-1 -14 -10 10.3602 4.6366
-1 -14 -9 -7.5130 -3.0886
-1 -14 -8 9.9280 3.6522
-1 -14 -7 -2.1309 1.1662
-1 -14 -6 1.5704 -3.2546
-1 -14 -5 -2.2617 2.3786
-1 -13 -13 4.3112 2.7420
-1 -13 -12 1.4913 -2.7250
-1 -13 -11 -0.1563 12.3103
-1 -13 -10 3.4654 2.3758
-1 -13 -9 -0.0260 18.5790
-1 -13 -8 0.7044 4.4575
-1 -13 -7 9.8901 11.2141
-1 -13 -6 -8.4942 -1.1901
-1 -13 -5 5.5201 6.8511
-1 -12 -14 -1.5853 3.6421
-1 -12 -13 3.1612 0.2127
-1 -12 -12 -5.0889 3.5389
-1 -12 -11 -10.2668 1.7007
-1 -12 -10 -8.9723 3.2359
-1 -12 -9 -16.0534 5.2065
-1 -12 -8 -8.4131 12.6384
-1 -12 -7 -2.3801 -3.8205
-1 -12 -6 -4.3036 13.3697
-1 -12 -5 9.1206 -14.2240
-1 -12 -4 -2.7205 -0.3585
-1 -11 -15 2.9440 -2.7580
-1 -11 -14 -1.2590 6.4075
-1 -11 -13 2.7471 -2.6005
-1 -11 -12 -4.1148 -6.0283
-1 -11 -11 1.1145 0.1135
-1 -11 -10 -12.2122 -16.3485
-1 -11 -9 -6.1894 -0.5852
-1 -11 -8 -10.1576 -2.9103
-1 -11 -7 -6.3298 -3.8198
-1 -11 -6 7.6994 13.6200
-1 -11 -5 2.6033 1.5080
-1 -11 -4 4.7015 11.2038
-1 -10 -16 0.5617 0.4613
-1 -10 -15 -3.0414 -3.2591
-1 -10 -14 0.7915 5.1217
-1 -10 -13 2.1205 -6.1119
-1 -10 -12 -3.4225 7.3191
-1 -10 -11 10.3556 -11.0644
-1 -10 -10 -3.4197 -3.4531
-1 -10 -9 5.4954 -11.4504
-1 -10 -8 4.5647 -4.8575
-1 -10 -7 -6.4504 5.1626
-1 -10 -6 1.0202 6.8527
-1 -10 -5 -7.0684 11.8262
-1 -10 -4 -15.2011 0.4227
-1 -10 -3 0.2877 -9.7503
-1 -9 -17 7.6095 -2.2898
-1 -9 -16 6.0234 3.6130
-1 -9 -15 7.4098 -1.4956
-1 -9 -14 4.3840 5.1725
-1 -9 -13 -2.9202 -7.2581
-1 -9 -12 2.2877 3.5712
-1 -9 -11 5.6665 -13.5031
-1 -9 -10 0.1372 3.5221
-1 -9 -9 14.3367 -4.2304
-1 -9 -8 -11.6260 7.7800
-1 -9 -7 -0.4371 1.0940
-1 -9 -6 -19.5397 8.3935
-1 -9 -5 -0.2788 -11.4661
-1 -9 -4 -2.7007 1.8555
-1 -9 -3 16.9843 -16.5779
-1 -8 -17 -4.5129 8.2991
-1 -8 -16 -0.9120 14.0436
-1 -8 -15 -10.0398 2.1527
-1 -8 -14 -0.7432 3.2632
-1 -8 -13 -4.4505 -8.1445
-1 -8 -12 11.9023 0.7175
-1 -8 -11 4.0943 -3.6376
-1 -8 -10 17.2111 12.0533
-1 -8 -9 -2.5156 0.6349
-1 -8 -8 9.2988 1.4189
-1 -8 -7 -13.8962 -4.2985
-1 -8 -6 7.1227 -4.6284
-1 -8 -5 -8.7130 -1.4872
-1 -8 -4 1.5876 15.2870
-1 -8 -3 6.2158 7.3083
-1 -7 -18 -7.3964 -0.7111
-1 -7 -17 -7.3852 3.0902
-1 -7 -16 -4.2704 -7.3389
-1 -7 -15 -1.0860 -3.1416
-1 -7 -14 13.7257 -7.6884
-1 -7 -13 8.3664 -6.1715
-1 -7 -12 9.7063 -3.4226
-1 -7 -11 4.7823 2.4773
-1 -7 -10 -17.0311 -1.3328
-1 -7 -9 6.7372 11.8731
-1 -7 -8 -27.3665 0.2545
-1 -7 -7 10.5530 15.2992
-1 -7 -6 -18.1154 -0.9480
-1 -7 -5 -8.3470 1.8814
-1 -7 -4 -5.7253 -4.9698
-1 -7 -3 -11.2671 -23.9558
-1 -7 -2 2.4674 -2.8284
-1 -6 -17 5.2582 -2.2382
-1 -6 -16 -10.9281 6.8266
-1 -6 -15 1.0879 8.8187
-1 -6 -14 -0.0406 8.8933
-1 -6 -13 4.0041 13.8504
-1 -6 -12 12.0402 3.4118
-1 -6 -11 17.5417 -5.7928
-1 -6 -10 8.0164 5.0750
-1 -6 -9 9.7633 -22.5774
-1 -6 -8 -12.0171 5.6145
-1 -6 -7 -11.8058 -18.7305
-1 -6 -6 -20.8433 -8.6277
-1 -6 -5 -5.9502 -4.9572
-1 -6 -4 2.5298 -12.8921
-1 -6 -3 12.1063 10.3386
-1 -6 -2 22.4930 11.6785
-1 -5 -16 -8.2253 0.9358
-1 -5 -15 -19.2473 -8.6311
-1 -5 -14 -5.6903 -7.9526
-1 -5 -13 6.9122 -0.6480
-1 -5 -12 -1.6841 4.6617
-1 -5 -11 19.1547 9.1157
-1 -5 -10 -4.7079 15.3325
-1 -5 -9 5.8881 4.2535
-1 -5 -8 -10.0653 0.1516
-1 -5 -7 5.5222 -10.9220
-1 -5 -6 -5.4742 -12.2243
-1 -5 -5 8.8891 -12.8297
-1 -5 -4 -5.6653 -4.8694
-1 -5 -3 -5.9259 -0.9514
-1 -5 -2 -11.3946 -1.5018
-1 -5 -1 -20.0955 2.8106
-1 -4 -14 -4.1820 -14.1005
-1 -4 -13 7.8611 4.5543
-1 -4 -12 -0.6626 24.7439
-1 -4 -11 17.0716 -8.9581
-1 -4 -10 2.0015 15.3733
-1 -4 -9 15.0642 -22.0031
-1 -4 -8 -0.4874 -11.8063
-1 -4 -7 -1.6884 -11.1319
-1 -4 -6 -10.7267 -10.2039
-1 -4 -5 -5.7204 5.3517
-1 -4 -4 -8.9538 -7.0458
-1 -4 -3 5.3475 2.7937
-1 -4 -2 3.3473 -12.8607
-1 -3 -12 6.6739 16.2154
-1 -3 -11 -9.7445 1.5749
-1 -3 -9 21.3622 15.3115
-1 -3 -8 6.0447 10.1367
-1 -3 -7 25.6772 -1.4883
-1 -3 -6 -11.2741 -28.4052
-1 -3 -5 1.8793 -27.3368
-1 -3 -4 -8.8702 -17.4791
-1 -3 -3 -0.7154 -17.0732
-1 -2 -8 -22.6218 19.3782
-1 -2 -7 23.8294 -10.7733
-1 -2 -6 -5.5340 -13.4821
-1 -2 -5 25.9434 -5.7259
-1 -2 -4 17.1971 -27.8532
-1 -1 -6 13.9562 17.3700
-1 -1 -5 33.7911 -17.3694
-1 -1 -4 -10.5823 -3.7076
0 2 6 2.4369 0.0994
0 3 5 -0.0240 -29.0523
0 3 6 0.0793 -12.7195
0 3 7 0.1003 -9.3213
0 3 8 0.0158 -17.0496
0 4 4 47.3509 0.1587
0 4 5 39.8316 0.0111
0 4 6 17.2740 0.0779
0 4 7 3.8163 0.0045
0 4 8 -4.6033 -0.0840
0 4 9 -4.0785 -0.1023
0 4 10 5.1159 -0.0388
0 4 11 -23.4311 -0.0150
0 4 12 8.1203 0.0206
0 4 13 -33.4562 0.0607
0 5 3 -0.0725 40.5926
0 5 4 -0.1475 97.4408
0 5 5 -0.0491 17.8342
0 5 6 -0.0353 11.4053
0 5 7 0.0845 -8.3751
0 5 8 0.0252 -19.6175
0 5 9 0.0371 -13.4523
0 5 10 -0.0389 -3.6097
0 5 11 -0.0335 2.0902
0 5 12 -0.0437 0.3844
0 5 13 0.0298 1.5350
0 5 14 0.0255 -7.1274
0 5 15 0.0175 -3.4972
0 6 2 -30.9898 0.0661
0 6 3 -96.1089 -0.0746
0 6 4 -9.4072 0.0492
0 6 5 -32.9710 0.0454
0 6 6 -9.2494 0.0549
0 6 7 21.8530 0.0766
0 6 8 6.6026 -0.0122
0 6 9 14.0048 -0.0476
0 6 10 14.1990 -0.0794
0 6 11 -2.8631 -0.0301
0 6 12 1.6480 -0.0064
0 6 13 1.9674 0.0466
0 6 14 1.3633 0.0087
0 6 15 6.1618 0.0059
0 6 16 2.4855 -0.0387
0 7 2 -0.0198 -37.5708
0 7 3 0.0139 -6.9443
0 7 4 -0.0746 -16.5448
0 7 5 -0.0120 -11.2419
0 7 6 -0.0644 16.2754
0 7 7 0.0124 -15.7282
0 7 8 0.0314 9.6275
0 7 9 0.0376 4.3105
0 7 10 0.0123 -2.1987
0 7 11 -0.0203 7.2596
0 7 12 -0.0505 5.0475
0 7 13 -0.0324 1.4970
0 7 14 0.0208 3.6024
0 7 15 0.0229 6.7814
0 7 16 0.0476 -5.0105
0 7 17 -0.0382 4.1253
0 7 18 -0.0368 -2.5625
0 8 2 5.6157 0.0275
0 8 3 -7.4312 -0.0140
0 8 4 0.1228 0.0127
0 8 5 -19.9872 0.0324
0 8 6 4.8980 0.0126
0 8 7 -11.6575 0.0722
0 8 8 -0.2471 0.0104
0 8 9 3.4641 0.0075
0 8 10 -3.6400 -0.0364
0 8 11 0.2034 -0.0466
0 8 12 0.3298 -0.0339
0 8 13 0.4294 0.0211
0 8 14 -2.0102 0.0281
0 8 15 13.6356 0.0236
0 8 16 -2.4066 -0.0041
0 8 17 11.6930 -0.0977
0 8 18 2.3689 -0.0763
0 9 3 0.0301 -10.6152
0 9 4 -0.0143 -11.9560
0 9 5 -0.0032 -7.4186
0 9 6 -0.0312 -7.9148
0 9 7 -0.0103 -10.7710
0 9 8 0.0124 -7.5998
0 9 9 0.0148 -7.0722
0 9 10 0.0390 -5.8052
0 9 11 0.0046 -0.9946
0 9 12 -0.0279 0.2780
0 9 13 -0.0393 0.3140
0 9 14 -0.0271 11.0675
0 9 15 -0.0126 3.7824
0 9 16 0.0977 13.7065
0 9 17 0.0349 7.4327
0 10 3 12.0495 0.0092
0 10 4 1.2301 -0.0129
0 10 5 -3.7164 0.0239
0 10 6 4.2839 -0.0092
0 10 7 0.2319 0.0252
0 10 8 2.7641 0.0150
0 10 9 10.2709 0.0188
0 10 10 0.1892 0.0031
0 10 11 4.6702 -0.0211
0 10 12 5.1811 -0.0302
0 10 13 -3.8828 -0.0325
0 10 14 3.3431 0.0001
0 10 15 -4.0761 0.0244
0 10 16 -4.2585 0.0475
0 10 17 -0.7985 0.0401
0 11 4 -0.0026 0.3094
0 11 5 0.0043 -7.5896
0 11 6 -0.0035 -8.5552
0 11 7 -0.0142 -4.0284
0 11 8 0.0099 -0.8901
0 11 9 -0.0071 -7.3313
0 11 10 0.0055 2.1407
0 11 11 0.0189 0.6124
0 11 12 -0.0176 -3.3137
0 11 13 -0.0051 9.2060
0 11 14 -0.0192 -0.7608
0 11 15 -0.0505 5.2939
0 11 16 0.0329 5.3527
0 12 4 9.9952 -0.0079
0 12 5 4.5512 0.0089
0 12 6 0.2076 -0.0102
0 12 7 4.7714 0.0157
0 12 8 -0.3852 -0.0045
0 12 9 0.8001 0.0066
0 12 10 1.6759 0.0231
0 12 11 1.0564 -0.0156
0 12 12 -2.7528 -0.0032
0 12 13 2.6215 -0.0178
0 12 14 -3.5648 -0.0724
0 12 15 -2.5631 0.0187
0 13 5 0.0002 -1.4871
0 13 6 -0.0113 -2.5361
0 13 7 0.0039 -8.8504
0 13 8 0.0038 0.0125
0 13 9 -0.0212 -8.8982
0 13 10 -0.0083 -2.6132
0 13 11 -0.0141 -3.3396
0 13 12 -0.0706 -2.4051
0 13 13 0.0737 0.4601
0 13 14 -0.0790 -0.4675
0 14 5 14.9924 0.0045
0 14 6 1.4204 -0.0076
0 14 7 7.9521 0.0327
0 14 8 7.9141 -0.0154
0 14 9 -0.1170 0.0328
0 14 10 6.2490 -0.0011
0 14 11 1.3069 -0.0571
0 14 12 0.4195 0.0663
0 15 6 -0.0216 18.7108
0 15 7 0.0088 -2.3776
0 15 8 -0.0149 4.7967
0 15 9 -0.0295 1.3827
0 15 10 0.0420 -4.0568
0 15 11 -0.0971 -0.9189
0 16 7 -10.4750 0.0406
0 16 8 2.0049 -0.0505
0 16 9 -0.0943 0.1251
1 0 4 11.9227 0.0182
1 1 4 -10.5823 3.7076
1 1 5 33.7911 17.3694
1 1 6 13.9562 -17.3700
1 2 4 17.1971 27.8532
1 2 5 25.9434 5.7259
1 2 6 -5.5340 13.4821
1 2 7 23.8294 10.7733
1 2 8 -22.6218 -19.3782
1 3 2 -0.3370 3.1729
1 3 3 -0.7154 17.0732
1 3 4 -8.8702 17.4791
1 3 5 1.8793 27.3368
1 3 6 -11.2741 28.4052
1 3 7 25.6772 1.4883
1 3 8 6.0447 -10.1367
1 3 9 21.3622 -15.3115
1 3 10 19.4423 -41.5645
1 4 2 3.3473 12.8607
1 4 3 5.3475 -2.7937
1 4 4 -8.9538 7.0458
1 4 5 -5.7204 -5.3517
1 4 6 -10.7267 10.2039
1 4 7 -1.6884 11.1319
1 4 8 -0.4874 11.8063
1 4 9 15.0642 22.0031
1 4 10 2.0015 -15.3733
1 4 11 17.0716 8.9581
1 4 12 -0.6626 -24.7439
1 4 13 7.8611 -4.5543
1 4 14 -4.1820 14.1005
1 5 0 -0.1778 4.3555
1 5 1 -20.0955 -2.8106
1 5 2 -11.3946 1.5018
1 5 3 -5.9259 0.9514
1 5 4 -5.6653 4.8694
1 5 5 8.8891 12.8297
1 5 6 -5.4742 12.2243
1 5 7 5.5222 10.9220
1 5 8 -10.0653 -0.1516
1 5 9 5.8881 -4.2535
1 5 10 -4.7079 -15.3325
1 5 11 19.1547 -9.1157
1 5 12 -1.6841 -4.6617
1 5 13 6.9122 0.6480
1 5 14 -5.6903 7.9526
1 5 15 -19.2473 8.6311
1 5 16 -8.2253 -0.9358
1 6 1 12.2968 -8.8605
1 6 2 22.4930 -11.6785
1 6 3 12.1063 -10.3386
1 6 4 2.5298 12.8921
1 6 5 -5.9502 4.9572
1 6 6 -20.8433 8.6277
1 6 7 -11.8058 18.7305
1 6 8 -12.0171 -5.6145
1 6 9 9.7633 22.5774
1 6 10 8.0164 -5.0750
1 6 11 17.5417 5.7928
1 6 12 12.0402 -3.4118
1 6 13 4.0041 -13.8504
1 6 14 -0.0406 -8.8933
1 6 15 1.0879 -8.8187
1 6 16 -10.9281 -6.8266
1 6 17 5.2582 2.2382
1 7 1 20.3157 18.3729
1 7 2 2.4674 2.8284
1 7 3 -11.2671 23.9558
1 7 4 -5.7253 4.9698
1 7 5 -8.3470 -1.8814
1 7 6 -18.1154 0.9480
1 7 7 10.5530 -15.2992
1 7 8 -27.3665 -0.2545
1 7 9 6.7372 -11.8731
1 7 10 -17.0311 1.3328
1 7 11 4.7823 -2.4773
1 7 12 9.7063 3.4226
1 7 13 8.3664 6.1715
1 7 14 13.7257 7.6884
1 7 15 -1.0860 3.1416
1 7 16 -4.2704 7.3389
1 7 17 -7.3852 -3.0902
1 7 18 -7.3964 0.7111
1 8 2 -8.0146 -8.4796
1 8 3 6.2158 -7.3083
1 8 4 1.5876 -15.2870
1 8 5 -8.7130 1.4872
1 8 6 7.1227 4.6284
1 8 7 -13.8962 4.2985
1 8 8 9.2988 -1.4189
1 8 9 -2.5156 -0.6349
1 8 10 17.2111 -12.0533
1 8 11 4.0943 3.6376
1 8 12 11.9023 -0.7175
1 8 13 -4.4505 8.1445
1 8 14 -0.7432 -3.2632
1 8 15 -10.0398 -2.1527
1 8 16 -0.9120 -14.0436
1 8 17 -4.5129 -8.2991
1 9 2 14.1469 3.4507
1 9 3 16.9843 16.5779
1 9 4 -2.7007 -1.8555
1 9 5 -0.2788 11.4661
1 9 6 -19.5397 -8.3935
1 9 7 -0.4371 -1.0940
1 9 8 -11.6260 -7.7800
1 9 9 14.3367 4.2304
1 9 10 0.1372 -3.5221
1 9 11 5.6665 13.5031
1 9 12 2.2877 -3.5712
1 9 13 -2.9202 7.2581
1 9 14 4.3840 -5.1725
1 9 15 7.4098 1.4956
1 9 16 6.0234 -3.6130
1 9 17 7.6095 2.2898
1 10 3 0.2877 9.7503
1 10 4 -15.2011 -0.4227
1 10 5 -7.0684 -11.8262
1 10 6 1.0202 -6.8527
1 10 7 -6.4504 -5.1626
1 10 8 4.5647 4.8575
1 10 9 5.4954 11.4504
1 10 10 -3.4197 3.4531
1 10 11 10.3556 11.0644
1 10 12 -3.4225 -7.3191
1 10 13 2.1205 6.1119
1 10 14 0.7915 -5.1217
1 10 15 -3.0414 3.2591
1 10 16 0.5617 -0.4613
1 11 3 -4.0148 -10.5423
1 11 4 4.7015 -11.2038
1 11 5 2.6033 -1.5080
1 11 6 7.6994 -13.6200
1 11 7 -6.3298 3.8198
1 11 8 -10.1576 2.9103
1 11 9 -6.1894 0.5852
1 11 10 -12.2122 16.3485
1 11 11 1.1145 -0.1135
1 11 12 -4.1148 6.0283
1 11 13 2.7471 2.6005
1 11 14 -1.2590 -6.4075
1 11 15 2.9440 2.7580
1 12 4 -2.7205 0.3585
1 12 5 9.1206 14.2240
1 12 6 -4.3036 -13.3697
1 12 7 -2.3801 3.8205
1 12 8 -8.4131 -12.6384
1 12 9 -16.0534 -5.2065
1 12 10 -8.9723 -3.2359
1 12 11 -10.2668 -1.7007
1 12 12 -5.0889 -3.5389
1 12 13 3.1612 -0.2127
1 12 14 -1.5853 -3.6421
1 13 4 -10.0836 3.1526
1 13 5 5.5201 -6.8511
1 13 6 -8.4942 1.1901
1 13 7 9.8901 -11.2141
1 13 8 0.7044 -4.4575
1 13 9 -0.0260 -18.5790
1 13 10 3.4654 -2.3758
1 13 11 -0.1563 -12.3103
1 13 12 1.4913 2.7250
1 13 13 4.3112 -2.7420
1 14 5 -2.2617 -2.3786
1 14 6 1.5704 3.2546
1 14 7 -2.1309 -1.1662
1 14 8 9.9280 -3.6522
1 14 9 -7.5130 3.0886
1 14 10 10.3602 -4.6366
1 14 11 -8.9016 3.2096
1 14 12 2.1688 1.4734
1 15 5 -10.0207 -9.1856
1 15 6 1.8475 3.5269
1 15 7 -1.8762 -6.4746
1 15 8 1.2867 -1.2358
1 15 9 3.5893 -0.1739
1 15 10 -1.3608 -7.2345
1 16 6 11.6876 -10.5851
1 16 7 -6.2220 2.3573
1 16 8 5.8632 -0.6914
2 0 0 -21.2703 -0.2216
2 0 1 -0.1838 -3.1375
2 0 2 -8.5523 -0.2157
2 0 3 0.1096 -4.8993
2 0 4 6.3574 -0.0085
2 0 5 0.1669 -1.7297
2 0 6 -2.2295 0.1016
2 0 7 0.0427 -8.6371
2 0 8 -15.4725 -0.1072
2 0 9 0.0154 -24.4401
2 1 0 -0.4877 -0.3847
2 1 1 -7.2622 -11.5595
2 1 2 0.9577 2.1171
2 1 3 -17.2473 -4.1108
2 1 4 -5.0578 1.0635
2 1 5 -13.3279 -4.5998
2 1 6 -9.6284 12.0918
2 1 7 5.8187 -11.7576
2 1 8 8.8568 16.1748
2 1 9 16.6511 -7.7849
2 1 10 22.5075 -4.0014
2 1 11 4.5423 4.0526
2 2 0 3.3634 -0.7586
2 2 1 -2.7614 -2.8755
2 2 2 8.1185 -3.7996
2 2 3 4.7743 -6.3456
2 2 4 13.5171 -5.5689
2 2 5 11.5320 -19.7813
2 2 6 13.4815 2.4112
2 2 7 2.6171 -12.8549
2 2 8 8.5938 18.8618
2 2 9 6.4761 15.5360
2 2 10 -1.5815 17.8616
2 2 11 16.0261 15.8583
2 2 12 -2.9276 -5.9061
2 2 13 5.1405 -9.4415
2 3 0 -1.7508 -1.1924
2 3 1 -5.2078 5.8090
2 3 2 -0.5263 -2.1976
2 3 3 -10.2125 8.3820
2 3 4 4.9715 7.9345
2 3 5 -6.7155 1.7737
2 3 6 5.6541 9.0609
2 3 7 -8.2582 3.5568
2 3 8 -9.6092 3.8672
2 3 9 -16.5959 11.5958
2 3 10 -21.7155 2.3915
2 3 11 -8.7967 5.6484
2 3 12 -11.8414 -4.4479
2 3 13 12.1417 3.2010
2 3 14 2.0779 -8.6410
2 4 0 -3.0455 -0.3380
2 4 1 1.1659 -8.2311
2 4 2 -3.1212 -0.0008
2 4 3 4.9153 -0.3067
2 4 4 8.7487 6.9602
2 4 5 14.1767 -4.9571
2 4 6 18.0551 8.8612
2 4 7 22.9145 -13.5533
2 4 8 -0.5014 -2.3845
2 4 9 22.4454 -10.6067
2 4 10 -10.7834 -9.8595
2 4 11 17.9521 -6.3084
2 4 12 2.7868 -4.6972
2 4 13 10.3975 -5.6651
2 4 14 3.2083 -0.5429
2 4 15 0.7682 -0.6176
2 4 16 -6.2846 0.4691
2 5 0 10.5355 -1.2893
2 5 1 -6.8542 2.2480
2 5 2 -1.4083 -2.1700
2 5 3 -22.6457 1.9017
2 5 4 -8.2829 8.4466
2 5 5 -28.0535 14.7537
2 5 6 4.5687 21.6456
2 5 7 -11.3610 15.6549
2 5 8 2.8919 25.0677
2 5 9 4.9000 3.9777
2 5 10 -11.9666 20.0432
2 5 11 4.6980 7.5501
2 5 12 -10.3541 9.3259
2 5 13 6.2753 9.6188
2 5 14 -0.4651 -2.0403
2 5 15 10.6551 -2.8840
2 5 16 0.3799 -2.4330
2 5 17 3.4105 -5.9918
2 6 0 4.7264 0.2092
2 6 1 3.7744 0.1623
2 6 2 7.5291 -9.4045
2 6 3 4.6691 -11.8761
2 6 4 6.5491 -15.9047
2 6 5 0.4555 -8.3664
2 6 6 1.4070 -9.5645
2 6 7 -0.9361 -0.5544
2 6 8 -1.0909 4.1177
2 6 9 -3.6386 -8.4967
2 6 10 -6.5886 6.4917
2 6 11 -5.7156 -14.4016
2 6 12 -7.4093 1.5509
2 6 13 -0.1050 -5.1543
2 6 14 3.9797 3.3876
2 6 15 3.1134 4.3218
2 6 16 8.9263 4.0113
2 6 17 -1.3989 4.6914
2 7 0 1.5089 -0.9862
2 7 1 -5.7810 13.7066
2 7 2 1.9765 7.8921
2 7 3 -14.8636 9.7565
2 7 4 -0.6588 0.3545
2 7 5 -13.3378 12.8251
2 7 6 -5.0710 -4.2985
2 7 7 -4.6062 16.4121
2 7 8 -2.2718 -0.7094
2 7 9 -2.9474 7.7810
2 7 10 3.7993 -2.6902
2 7 11 -5.1004 -1.4619
2 7 12 2.0225 -3.8989
2 7 13 -2.4531 1.4438
2 7 14 -4.3655 0.5939
2 7 15 -0.3521 4.6775
2 7 16 -5.6423 0.8120
2 8 0 6.3275 0.4925
2 8 1 -13.0158 2.3047
2 8 2 11.4353 -30.9431
2 8 3 -11.1995 -11.0453
2 8 4 8.7023 -33.9028
2 8 5 14.4551 -17.2277
2 8 6 -6.6645 -7.4133
2 8 7 17.2673 -9.1286
2 8 8 -9.0216 10.9630
2 8 9 5.7380 1.8407
2 8 10 0.4095 2.0254
2 8 11 2.3827 4.7440
2 8 12 2.5114 -7.3911
2 8 13 0.3664 0.2507
2 8 14 1.5799 -3.2291
2 8 15 -1.7333 -2.6151
2 8 16 3.1189 -0.2974
2 9 0 -16.2180 -0.5722
2 9 1 27.1670 33.1473
2 9 2 0.0364 -26.6193
2 9 3 48.2426 33.9909
2 9 4 19.0746 -6.6458
2 9 5 17.9311 16.8498
2 9 6 11.6345 12.8218
2 9 7 -13.8583 2.8485
2 9 8 -4.1515 4.3170
2 9 9 -11.6780 6.4256
2 9 10 -9.3678 -1.7993
2 9 11 3.3853 6.1118
2 9 12 -5.9051 0.6049
2 9 13 4.9661 0.5674
2 9 14 -0.5514 -0.0719
2 9 15 -0.4164 1.1536
2 10 1 14.6648 -21.4383
2 10 2 -19.5374 47.3817
2 10 3 19.1145 6.0322
2 10 4 -19.4445 34.4136
2 10 5 3.0797 10.5836
2 10 6 -0.8573 -0.2751
2 10 7 2.5422 -3.7340
2 10 8 2.4912 -7.5627
2 10 9 5.2984 -5.7487
2 10 10 -3.1163 0.6533
2 10 11 -2.1661 -1.1441
2 10 12 1.5146 2.6144
2 10 13 -4.5514 0.1314
2 10 14 4.0670 -0.0008
2 11 1 -20.8150 27.3074
2 11 2 7.2110 11.0247
2 11 3 -31.8263 2.5145
2 11 4 -4.5467 4.7992
2 11 5 -9.2567 6.2677
2 11 6 2.2954 -0.1639
2 11 7 2.5118 20.3139
2 11 8 1.6597 3.0379
2 11 9 0.3242 11.9014
2 11 10 -7.1141 0.4746
2 11 11 0.4362 3.1141
2 11 12 -5.3627 -4.0034
2 11 13 0.5566 3.3724
2 12 2 -19.7753 -11.3929
2 12 3 -5.6092 1.1834
2 12 4 -3.5073 -4.2074
2 12 5 2.8197 4.3221
2 12 6 -16.4244 4.8197
2 12 7 4.6960 3.0550
2 12 8 -18.7966 5.0440
2 12 9 -1.6508 -5.6030
2 12 10 -6.0413 4.1445
2 12 11 -3.7038 -7.3763
2 12 12 -1.3664 2.2863
2 13 3 -3.3594 1.3966
2 13 4 -5.9324 -3.4337
2 13 5 -4.4224 -0.8616
2 13 6 -4.8438 5.4017
2 13 7 -4.3548 -7.7291
2 13 8 -0.9125 3.9171
2 13 9 -4.3293 -3.5566
2 13 10 1.6746 -4.1877
2 13 11 -2.5732 -0.5568
2 14 3 6.1702 -5.7953
2 14 4 -2.1208 -3.8764
2 14 5 1.2471 -2.7698
2 14 6 -1.1327 2.1809
2 14 7 -4.8935 -0.4189
2 14 8 -1.3434 1.4529
2 14 9 -1.7812 -1.9674
2 15 4 2.0558 4.5518
2 15 5 -0.9680 -0.7664
2 15 6 -2.5651 -0.1271
2 15 7 -4.0362 -2.4575
3 0 1 -0.1193 9.6739
3 0 2 -5.7689 -0.3316
3 0 3 -0.1642 9.6284
3 0 4 -5.2179 -0.2279
3 0 5 -0.0442 -5.9498
3 0 6 -7.2956 0.0808
3 0 7 -0.0781 -4.4813
3 0 8 -5.3521 0.1836
3 0 9 -0.1518 2.0047
3 0 10 4.0131 0.0304
3 0 11 -0.0573 -6.3463
3 0 12 2.4328 -0.0703
3 1 0 -1.1426 -22.9027
3 1 1 -15.2390 -0.3406
3 1 2 -18.2335 -16.0729
3 1 3 -2.6189 2.9191
3 1 4 -8.7758 -7.8270
3 1 5 -2.8333 5.6557
3 1 6 1.6303 -9.1799
3 1 7 -5.2772 3.4104
3 1 8 -2.7388 -9.2130
3 1 9 0.9172 4.8914
3 1 10 -2.2364 -1.2541
3 1 11 -1.8627 4.7582
3 1 12 4.2361 6.8886
3 1 13 -9.4255 -2.6103
3 2 0 0.1177 6.1070
3 2 1 10.1443 -9.2063
3 2 2 -9.6759 9.7284
3 2 3 -2.9417 -15.6653
3 2 4 -18.5095 6.5079
3 2 5 -6.1856 -6.9145
3 2 6 -19.5166 -3.8044
3 2 7 -0.3529 -0.2237
3 2 8 -15.3105 -1.0998
3 2 9 1.1691 -1.3257
3 2 10 -8.9923 2.7196
3 2 11 2.1518 -4.0474
3 2 12 -0.2321 -4.9707
3 2 13 3.9237 -6.5250
3 2 14 2.3138 -7.4186
3 2 15 0.5665 -6.5560
3 3 0 -0.7162 -0.1995
3 3 1 -29.5756 -4.0710
3 3 2 -4.4537 -6.9659
3 3 3 -14.1003 -11.5187
3 3 4 -0.2856 -15.3748
3 3 5 1.1785 -13.7241
3 3 6 -0.9667 -14.2994
3 3 7 2.8398 -11.4911
3 3 8 -5.3342 -10.2142
3 3 9 -1.1450 -8.7829
3 3 10 -0.1153 -3.6581
3 3 11 -1.0191 -3.2079
3 3 12 7.1400 8.4590
3 3 13 -0.6725 1.9515
3 3 14 5.1581 13.0306
3 3 15 -0.5688 0.5679
3 4 0 0.0089 -16.8388
3 4 1 0.7508 -10.5373
3 4 2 0.5831 -7.0960
3 4 3 1.8049 -12.5242
3 4 4 1.7431 5.1384
3 4 5 3.3881 2.2360
3 4 6 -0.4106 3.7871
3 4 7 4.7178 5.2807
3 4 8 -3.7153 2.1146
3 4 9 6.9267 3.3926
3 4 10 -3.9600 5.1700
3 4 11 5.6939 6.9020
3 4 12 -2.0221 1.1273
3 4 13 -1.6849 3.7239
3 4 14 0.3985 -4.4025
3 4 15 -4.8680 -3.2891
3 5 0 -0.0634 8.9517
3 5 1 -6.7470 -1.7152
3 5 2 0.8620 2.8546
3 5 3 -3.8490 0.5163
3 5 4 -5.1006 -4.9324
3 5 5 4.2475 6.1670
3 5 6 -11.6064 -6.3973
3 5 7 4.8569 1.6216
3 5 8 -12.3551 -4.1747
3 5 9 -6.6636 -8.9099
3 5 10 -9.6102 2.9724
3 5 11 -11.2764 -9.5484
3 5 12 -4.6810 7.3716
3 5 13 -3.0097 -0.4160
3 5 14 0.7454 2.1849
3 5 15 1.7701 4.1693
3 6 0 -0.1742 0.0478
3 6 1 -9.3742 -13.0984
3 6 2 3.8731 6.5843
3 6 3 -2.9352 -16.0923
3 6 4 -9.7609 17.3349
3 6 5 -0.5181 0.9552
3 6 6 -20.8403 17.6281
3 6 7 1.2974 2.2692
3 6 8 -9.9222 5.6988
3 6 9 2.0044 -3.5613
3 6 10 5.5681 -5.7870
3 6 11 -2.1827 0.5211
3 6 12 5.3692 -6.5085
3 6 13 -1.6089 3.0214
3 6 14 -1.3840 -2.0653
3 7 0 0.5397 10.0488
3 7 1 -17.0712 9.8949
3 7 2 20.2836 7.0807
3 7 3 -20.3746 9.7883
3 7 4 -2.3534 -1.3254
3 7 5 -17.0067 -12.6158
3 7 6 -18.5637 -6.6235
3 7 7 -10.7381 -21.4687
3 7 8 -5.4937 -3.7905
3 7 9 -6.8214 -9.4874
3 7 10 -1.4792 -2.5123
3 7 11 -2.4251 0.9540
3 7 12 -8.5302 -2.8354
3 7 13 0.8421 2.0036
3 7 14 -5.2898 1.1122
3 8 0 -0.1785 -7.1331
3 8 1 -16.3087 6.4096
3 8 2 -18.4651 -9.0551
3 8 3 -8.4965 3.8502
3 8 4 -9.7264 -6.9662
3 8 5 0.1734 -6.1998
3 8 6 6.5915 -1.8080
3 8 7 0.7362 2.1166
3 8 8 8.4882 -4.2884
3 8 9 -1.1072 9.0408
3 8 10 2.9807 -5.6030
3 8 11 1.9128 -1.2621
3 8 12 -0.4572 -0.2761
3 8 13 2.8863 -7.6044
3 9 0 0.8069 4.4379
3 9 1 -8.5668 -1.7781
3 9 2 -4.8046 2.9212
3 9 3 0.0133 -1.9577
3 9 4 -13.0873 -0.1401
3 9 5 -0.7644 -0.3211
3 9 6 -18.3489 -5.2871
3 9 7 -3.5859 -0.8858
3 9 8 -14.5367 -10.5480
3 9 9 -1.2571 -1.0544
3 9 10 -4.5833 -8.4565
3 9 11 -2.5626 -0.3723
3 9 12 2.3818 -1.7198
3 10 0 -0.1274 -1.4357
3 10 1 -16.2872 -5.6592
3 10 2 -17.6009 3.5976
3 10 3 -10.6503 -20.2869
3 10 4 -14.7219 5.0913
3 10 5 -0.4362 -25.0785
3 10 6 -1.8509 -2.5728
3 10 7 10.0241 -9.0731
3 10 8 2.8607 -5.0121
3 10 9 12.9374 4.9966
3 10 10 0.7977 -2.6885
3 10 11 7.0678 3.7739
3 11 0 0.7196 -8.6013
3 11 1 -19.2059 -11.3834
3 11 2 13.0554 -9.6030
3 11 3 -10.6481 -19.1869
3 11 4 17.9022 -7.0810
3 11 5 0.7448 -8.0836
3 11 6 3.4385 1.4240
3 11 7 4.1243 0.7500
3 11 8 -12.0760 7.0645
3 11 9 0.0437 0.9503
3 11 10 -8.4245 5.0792
3 12 1 5.4310 1.1040
3 12 2 6.4340 -6.8655
3 12 3 7.6399 2.1452
3 12 4 4.2573 3.9337
3 12 5 4.4630 -2.3487
3 12 6 -0.0726 4.0972
3 12 7 -0.3719 -8.4462
3 12 8 -1.0915 -1.3120
3 13 1 -9.9792 0.0325
3 13 2 4.1810 7.2344
3 13 3 -10.0176 -0.3522
3 13 4 5.6698 5.7844
3 13 5 -4.2362 -0.6264
3 13 6 4.6514 1.8716
3 14 2 0.1207 -10.3799
4 0 0 -0.5082 0.0680
4 0 1 -0.1025 6.2261
4 0 2 -2.6956 0.1027
4 0 3 -0.1268 -3.5199
4 0 4 -4.8235 0.0799
4 0 5 -0.0255 -5.6916
4 0 6 0.0783 -0.0015
4 0 7 0.1489 2.1876
4 0 8 8.3838 -0.0061
4 0 9 0.1536 4.1847
4 0 10 9.0611 -0.0423
4 0 11 -0.0075 -1.3981
4 1 0 -1.4021 -0.1988
4 1 1 4.0135 3.9793
4 1 2 2.9940 5.1849
4 1 3 9.1094 1.6864
4 1 4 9.0440 1.1452
4 1 5 7.8330 -0.3436
4 1 6 6.2927 -8.5663
4 1 7 3.2462 2.1871
4 1 8 -0.4517 -10.3411
4 1 9 1.4327 5.3260
4 1 10 -0.6936 -2.7699
4 1 11 0.9116 3.2158
4 2 0 -10.1417 0.3095
4 2 1 -2.6129 2.9086
4 2 2 -9.3039 10.5572
4 2 3 -5.9164 6.5167
4 2 4 -4.7653 13.1901
4 2 5 -1.5687 11.1027
4 2 6 1.0441 7.8380
4 2 7 6.5287 9.2657
4 2 8 2.3241 3.2011
4 2 9 5.6594 3.0752
4 2 10 1.4386 2.7862
4 2 11 -0.0953 0.3532
4 3 0 3.4047 -0.4824
4 3 1 -1.3115 -6.2783
4 3 2 2.7603 1.7648
4 3 3 -3.8840 -0.1385
4 3 4 -1.9452 -3.1128
4 3 5 -4.6475 5.7614
4 3 6 -7.7058 -3.8570
4 3 7 -2.1375 5.2012
4 3 8 -6.2786 -0.1154
4 3 9 -0.6605 2.1135
4 3 10 -1.6235 0.0935
4 3 11 -1.1670 1.3533
4 4 0 1.6673 0.0983
4 4 1 -3.9232 1.8212
4 4 2 -4.8298 9.9132
4 4 3 -5.8711 4.0062
4 4 4 -13.9667 7.6460
4 4 5 -2.5905 2.0963
4 4 6 -10.6531 2.4586
4 4 7 -1.1664 -1.6567
4 4 8 -0.3923 3.0441
4 4 9 0.1146 -1.3883
4 4 10 2.4782 3.1440
4 5 0 0.7904 -0.6257
4 5 1 -7.2207 -0.9893
4 5 2 -2.5663 0.4173
4 5 3 -11.0516 -8.6257
4 5 4 -6.8333 -3.6926
4 5 5 -4.0591 -11.2505
4 5 6 -4.7182 -7.6142
4 5 7 -2.3054 -2.8930
4 5 8 -0.0379 -4.3987
4 5 9 -4.4090 3.9034
4 5 10 0.3364 0.2713
4 6 0 5.9407 -0.0356
4 6 1 -5.7651 -11.6050
4 6 2 4.1135 -2.8589
4 6 3 -8.0359 -12.2113
4 6 4 2.7602 1.1274
4 6 5 0.6541 -8.9714
4 6 6 2.2461 2.6867
4 6 7 3.8656 -2.3120
4 6 8 -0.9490 -0.9713
4 6 9 -0.1707 1.4431
4 7 0 13.1023 -0.4870
4 7 1 -1.3052 15.1911
4 7 2 12.6816 -4.2731
4 7 3 -4.1938 5.2585
4 7 4 9.5092 -2.4460
4 7 5 -5.2541 1.0442
4 7 6 3.5913 -0.0610
4 7 7 -2.4379 1.5348
4 7 8 -0.3075 -1.5487
4 8 0 -14.1215 -0.1237
4 8 1 -4.4915 -5.6925
4 8 2 -9.7838 -3.9723
4 8 3 -8.4318 -1.3070
4 8 4 -4.2559 -3.9834
4 8 5 -4.7002 0.8759
4 8 6 -3.2184 -2.0978
4 8 7 -0.2051 0.0459
4 9 0 15.0381 -0.1541
4 9 1 2.7648 1.7479
4 9 2 11.0733 -9.6757
4 9 3 4.4303 -0.5040
4 9 4 3.6018 -8.1010
4 9 5 1.6220 -2.2602
4 10 0 -8.0795 -0.2410
4 10 1 2.0191 2.7471
4 10 2 -5.1573 2.2503
0 0 0 0.0 0.0
;
loop_
_space_group_symop_operation_xyz
'x, y, z'
'-x+1/2, -y, z+1/2'
'x+1/2, -y+1/2, -z'
'-x, y+1/2, -z+1/2'
loop_
_atom_site_label
_atom_site_type_symbol
_atom_site_fract_x
_atom_site_fract_y
_atom_site_fract_z
_atom_site_U_iso_or_equiv
_atom_site_adp_type
_atom_site_occupancy
_atom_site_site_symmetry_order
_atom_site_calc_flag
_atom_site_refinement_flags_posn
_atom_site_refinement_flags_adp
_atom_site_refinement_flags_occupancy
_atom_site_disorder_assembly
_atom_site_disorder_group
Zn1 Zn 0.4176(16) 0.4517(5) 0.2587(5) 0.180(7) Uani 1 1 d . U . . .
S2 S -0.017(4) 0.4880(10) 0.6233(12) 0.195(13) Uani 1 1 d D U . . .
C18 C -0.167(7) 0.4661(19) 0.652(2) 0.19(2) Uani 1 1 d DG U . . .
C17 C -0.155(9) 0.4101(18) 0.649(3) 0.20(2) Uani 1 1 d G U . . .
H17 H -0.2356 0.3860 0.6640 0.235 Uiso 1 1 calc R . . . .
C16 C 0.003(9) 0.3974(10) 0.618(3) 0.186(19) Uani 1 1 d DG U . . .
C19 C 0.088(7) 0.4456(13) 0.603(2) 0.18(2) Uani 1 1 d DG U . . .
S1 S -0.151(3) 0.3815(10) 0.4615(9) 0.151(10) Uani 1 1 d D U . . .
C9 C -0.168(5) 0.360(2) 0.5071(11) 0.148(18) Uani 1 1 d DG U . . .
C8 C 0.020(6) 0.342(2) 0.5210(14) 0.147(17) Uani 1 1 d DG U . . .
C7 C 0.154(4) 0.352(2) 0.4840(17) 0.16(2) Uani 1 1 d DG U . . .
H7 H 0.2869 0.3440 0.4839 0.190 Uiso 1 1 calc R . . . .
C6 C 0.048(3) 0.377(2) 0.4473(13) 0.156(19) Uani 1 1 d DG U . . .
O1 O 0.554(7) 0.529(2) 0.266(3) 0.168(17) Uani 1 1 d D U . . .
N2 N -0.700(6) 0.514(3) 0.716(2) 0.16(2) Uani 1 1 d . U . . .
C23 C -0.669(7) 0.460(3) 0.715(2) 0.16(2) Uani 1 1 d G U . . .
H23 H -0.7619 0.4373 0.7277 0.187 Uiso 1 1 calc R . . . .
C22 C -0.499(9) 0.440(2) 0.695(2) 0.17(2) Uani 1 1 d G U . . .
H22 H -0.4779 0.4034 0.6944 0.209 Uiso 1 1 calc R . . . .
C21 C -0.359(7) 0.474(3) 0.676(2) 0.18(2) Uani 1 1 d DG U . . .
C25 C -0.390(9) 0.528(3) 0.677(2) 0.19(3) Uani 1 1 d G U . . .
H25 H -0.2969 0.5509 0.6645 0.232 Uiso 1 1 calc R . . . .
C24 C -0.560(10) 0.548(2) 0.697(2) 0.18(2) Uani 1 1 d G U . . .
H24 H -0.5810 0.5849 0.6978 0.218 Uiso 1 1 calc R . . . .
C26 C 0.674(11) 0.527(3) 0.301(3) 0.17(2) Uani 1 1 d D U . . .
C32 C 0.967(10) 0.586(3) 0.328(2) 0.17(2) Uani 1 1 d . U . . .
H32 H 1.0106 0.5622 0.3506 0.204 Uiso 1 1 calc R . . . .
C31 C 1.080(6) 0.630(3) 0.316(2) 0.18(2) Uani 1 1 d G U . . .
H31 H 1.1987 0.6357 0.3315 0.218 Uiso 1 1 calc R . . . .
C30 C 1.015(9) 0.665(2) 0.282(3) 0.19(2) Uani 1 1 d DG U . . .
C29 C 0.837(10) 0.656(3) 0.260(2) 0.20(2) Uani 1 1 d G U . . .
H29 H 0.7939 0.6794 0.2369 0.239 Uiso 1 1 calc R . . . .
C28 C 0.725(6) 0.612(3) 0.271(2) 0.20(2) Uani 1 1 d G U . . .
H28 H 0.6058 0.6059 0.2560 0.238 Uiso 1 1 calc R . . . .
C27 C 0.790(9) 0.577(2) 0.305(3) 0.18(2) Uani 1 1 d DG U . . .
C1 C 0.413(6) 0.390(2) 0.349(2) 0.18(2) Uani 1 1 d . U . . .
H1 H 0.5415 0.3801 0.3426 0.214 Uiso 1 1 calc R . . . .
N1 N 0.302(10) 0.416(2) 0.3157(16) 0.169(18) Uani 1 1 d G U . . .
C5 C 0.110(9) 0.431(2) 0.325(2) 0.15(2) Uani 1 1 d G U . . .
H5 H 0.0353 0.4486 0.3031 0.183 Uiso 1 1 calc R . . . .
C4 C 0.028(5) 0.419(2) 0.369(2) 0.155(19) Uani 1 1 d G U . . .
H4 H -0.1007 0.4291 0.3754 0.185 Uiso 1 1 calc R . . . .
C3 C 0.139(7) 0.393(2) 0.4023(16) 0.141(19) Uani 1 1 d DG U . . .
C2 C 0.331(7) 0.378(2) 0.392(2) 0.17(2) Uani 1 1 d G U . . .
H2 H 0.4055 0.3606 0.4148 0.206 Uiso 1 1 calc R . . . .
C39 C 1.325(9) 0.714(2) 0.294(3) 0.19(3) Uani 1 1 d . U . . .
H39 H 1.3834 0.6829 0.3039 0.224 Uiso 1 1 calc R . . . .
C38 C 1.435(5) 0.761(3) 0.293(3) 0.20(3) Uani 1 1 d G U . . .
H38 H 1.5660 0.7604 0.3016 0.244 Uiso 1 1 calc R . . . .
C36 C 1.348(9) 0.808(2) 0.278(3) 0.23(3) Uani 1 1 d DG U . . .
C35 C 1.151(9) 0.808(2) 0.265(3) 0.21(3) Uani 1 1 d G U . . .
H35 H 1.0930 0.8395 0.2550 0.258 Uiso 1 1 calc R . . . .
C34 C 1.042(5) 0.762(3) 0.266(3) 0.21(3) Uani 1 1 d G U . . .
H34 H 0.9103 0.7621 0.2573 0.247 Uiso 1 1 calc R . . . .
C33 C 1.129(9) 0.715(2) 0.281(3) 0.20(3) Uani 1 1 d DG U . . .
O2 O 0.733(8) 0.492(3) 0.331(3) 0.22(3) Uani 1 1 d D U . . .
F1 F 0.057(7) 0.233(2) 0.5551(19) 0.183(16) Uani 1 1 d . U . . .
F2 F 0.355(6) 0.254(2) 0.5427(19) 0.177(16) Uani 1 1 d . U . . .
C15 C 0.084(8) 0.3420(19) 0.612(4) 0.171(16) Uani 1 1 d D U . . .
C14 C 0.158(12) 0.303(4) 0.6431(14) 0.188(14) Uani 1 1 d G U . . .
C13 C 0.229(11) 0.260(2) 0.616(4) 0.192(14) Uani 1 1 d G U . . .
C12 C 0.199(12) 0.272(4) 0.568(3) 0.179(14) Uani 1 1 d G U . . .
C11 C 0.110(10) 0.323(4) 0.566(2) 0.167(16) Uani 1 1 d DG U . . .
F4 F 0.446(9) 0.259(2) 0.630(2) 0.210(18) Uani 1 1 d . U . . .
F5 F 0.012(7) 0.281(2) 0.674(2) 0.188(16) Uani 1 1 d . U . . .
C20 C 0.277(8) 0.448(3) 0.576(3) 0.14(3) Uani 1 1 d D U . . .
H20A H 0.2489 0.4476 0.5427 0.215 Uiso 1 1 calc GR . . . .
H20B H 0.3578 0.4186 0.5837 0.215 Uiso 1 1 calc GR . . . .
H20C H 0.3442 0.4806 0.5832 0.215 Uiso 1 1 calc GR . . . .
C10 C -0.349(8) 0.352(4) 0.535(2) 0.19(3) Uani 1 1 d D U . . .
H10A H -0.3146 0.3379 0.5655 0.280 Uiso 1 1 calc GR . . . .
H10B H -0.4338 0.3268 0.5197 0.280 Uiso 1 1 calc GR . . . .
H10C H -0.4170 0.3847 0.5391 0.280 Uiso 1 1 calc GR . . . .
F6 F 0.254(7) 0.323(2) 0.682(2) 0.174(15) Uani 1 1 d . U . . .
F3 F 0.207(8) 0.211(2) 0.635(2) 0.199(17) Uani 1 1 d . U . . .
C37 C 1.482(18) 0.853(4) 0.265(6) 0.26(3) Uani 1 1 d D U . . .
O3 O 1.376(8) 0.888(4) 0.245(4) 0.29(3) Uani 1 1 d . U . . .
O4 O 1.678(8) 0.851(3) 0.275(3) 0.22(3) Uani 1 1 d . U . . .
loop_
_atom_site_aniso_label
_atom_site_aniso_U_11
_atom_site_aniso_U_22
_atom_site_aniso_U_33
_atom_site_aniso_U_23
_atom_site_aniso_U_13
_atom_site_aniso_U_12
Zn1 0.142(10) 0.172(16) 0.225(17) 0.027(8) -0.006(9) -0.025(9)
S2 0.18(2) 0.15(2) 0.25(4) -0.019(15) 0.07(2) -0.012(18)
C18 0.18(3) 0.15(3) 0.25(5) -0.02(2) 0.06(3) -0.02(2)
C17 0.19(3) 0.15(3) 0.24(5) -0.01(2) 0.06(3) -0.02(2)
C16 0.19(3) 0.15(2) 0.23(4) -0.006(17) 0.05(3) -0.015(19)
C19 0.18(3) 0.15(3) 0.23(4) -0.015(19) 0.06(3) -0.01(2)
S1 0.113(14) 0.13(2) 0.21(2) 0.015(14) 0.043(14) -0.002(15)
C9 0.12(2) 0.12(4) 0.20(3) 0.00(2) 0.037(17) -0.02(2)
C8 0.12(2) 0.12(4) 0.20(2) -0.010(19) 0.032(17) -0.02(2)
C7 0.12(2) 0.15(5) 0.21(3) 0.00(2) 0.031(17) -0.01(2)
C6 0.115(19) 0.15(4) 0.20(2) 0.01(2) 0.033(17) -0.02(2)
O1 0.10(3) 0.16(3) 0.25(4) 0.03(2) 0.00(3) 0.01(2)
N2 0.15(3) 0.15(4) 0.20(6) -0.02(4) 0.03(3) -0.03(3)
C23 0.14(3) 0.15(4) 0.18(6) -0.03(4) 0.01(3) -0.03(3)
C22 0.16(3) 0.16(4) 0.21(6) -0.02(3) 0.03(3) -0.02(3)
C21 0.16(3) 0.15(3) 0.21(6) -0.02(3) 0.04(3) -0.03(2)
C25 0.17(4) 0.15(3) 0.26(6) -0.02(3) 0.07(4) -0.03(2)
C24 0.16(4) 0.15(4) 0.24(6) -0.02(3) 0.06(4) -0.03(3)
C26 0.08(3) 0.19(3) 0.23(5) 0.03(2) 0.01(3) 0.00(2)
C32 0.09(3) 0.19(4) 0.24(5) 0.02(3) 0.02(3) 0.01(3)
C31 0.09(3) 0.19(4) 0.26(5) 0.04(3) 0.00(3) 0.00(2)
C30 0.09(3) 0.20(4) 0.28(5) 0.05(3) 0.00(3) 0.00(3)
C29 0.10(3) 0.22(4) 0.28(5) 0.06(3) -0.01(3) -0.02(3)
C28 0.11(3) 0.21(4) 0.27(5) 0.06(3) -0.01(3) -0.02(3)
C27 0.10(3) 0.19(3) 0.24(5) 0.03(2) 0.01(3) 0.00(2)
C1 0.14(3) 0.18(5) 0.21(3) 0.03(3) 0.04(2) 0.00(3)
N1 0.16(3) 0.14(4) 0.21(3) 0.01(2) 0.02(2) -0.01(2)
C5 0.15(3) 0.12(4) 0.20(3) 0.00(2) 0.01(2) -0.02(3)
C4 0.14(2) 0.13(3) 0.19(2) -0.01(2) 0.011(18) -0.03(2)
C3 0.11(2) 0.12(4) 0.19(2) -0.01(2) 0.022(19) -0.04(2)
C2 0.13(2) 0.17(5) 0.21(3) 0.03(3) 0.03(2) -0.01(3)
C39 0.07(3) 0.20(4) 0.29(7) 0.05(3) -0.01(3) 0.00(3)
C38 0.08(3) 0.21(4) 0.32(7) 0.05(4) -0.02(3) 0.00(3)
C36 0.09(3) 0.22(4) 0.39(7) 0.07(4) -0.04(3) -0.01(3)
C35 0.08(3) 0.21(4) 0.35(8) 0.07(3) -0.03(3) -0.01(3)
C34 0.07(3) 0.21(4) 0.34(7) 0.07(3) -0.02(3) 0.00(3)
C33 0.07(3) 0.21(4) 0.32(7) 0.06(3) -0.02(3) 0.00(3)
O2 0.12(4) 0.22(4) 0.33(6) 0.09(4) -0.05(4) -0.04(3)
F1 0.18(3) 0.16(3) 0.21(4) -0.02(2) 0.02(2) -0.02(2)
F2 0.16(2) 0.15(4) 0.22(3) -0.02(2) 0.00(2) -0.01(2)
C15 0.16(4) 0.14(2) 0.21(2) -0.011(15) 0.019(19) -0.02(2)
C14 0.21(3) 0.14(3) 0.21(2) -0.014(15) 0.002(18) -0.022(19)
C13 0.21(3) 0.15(3) 0.22(3) -0.017(15) -0.001(18) -0.014(19)
C12 0.17(3) 0.15(3) 0.22(3) -0.016(16) 0.006(18) -0.012(19)
C11 0.15(3) 0.14(3) 0.21(2) -0.007(14) 0.022(17) -0.02(2)
F4 0.22(2) 0.18(4) 0.23(4) -0.02(3) -0.01(2) -0.01(2)
F5 0.20(3) 0.15(3) 0.21(3) 0.00(2) -0.01(2) -0.02(2)
C20 0.15(4) 0.12(5) 0.16(6) -0.02(3) 0.01(4) -0.02(3)
C10 0.13(3) 0.18(8) 0.24(5) 0.04(5) 0.06(3) -0.02(3)
F6 0.19(3) 0.12(3) 0.21(3) -0.01(2) 0.00(2) 0.00(2)
F3 0.25(3) 0.15(3) 0.20(4) -0.031(18) -0.02(3) -0.03(2)
C37 0.09(3) 0.23(4) 0.46(8) 0.10(4) -0.04(4) -0.02(3)
O3 0.11(4) 0.24(5) 0.50(8) 0.12(5) -0.04(4) -0.01(3)
O4 0.09(3) 0.22(6) 0.37(9) 0.02(5) -0.02(4) 0.00(3)
loop_
_atom_type_symbol
_atom_type_description
_atom_type_scat_dispersion_real
_atom_type_scat_dispersion_imag
_atom_type_scat_source
C C 0.0033 0.0016 'International Tables Vol C Tables 4.2.6.8 and 6.1.1.4'
H H 0.0000 0.0000 'International Tables Vol C Tables 4.2.6.8 and 6.1.1.4'
F F 0.0171 0.0103 'International Tables Vol C Tables 4.2.6.8 and 6.1.1.4'
N N 0.0061 0.0033 'International Tables Vol C Tables 4.2.6.8 and 6.1.1.4'
O O 0.0106 0.0060 'International Tables Vol C Tables 4.2.6.8 and 6.1.1.4'
S S 0.1246 0.1234 'International Tables Vol C Tables 4.2.6.8 and 6.1.1.4'
Zn Zn 0.2839 1.4301 'International Tables Vol C Tables 4.2.6.8 and 6.1.1.4'
loop_
_exptl_crystal_face_index_h
_exptl_crystal_face_index_k
_exptl_crystal_face_index_l
_exptl_crystal_face_perp_dist
0 18 34 0.0337
8 -18 13 0.1476
2 -31 18 0.1462
0 -18 -35 0.0323
-2 -11 3 0.0813
5 26 -13 0.1057
-8 17 -13 0.0857
loop_
_geom_angle_atom_site_label_1
_geom_angle_atom_site_label_2
_geom_angle_atom_site_label_3
_geom_angle
_geom_angle_site_symmetry_1
_geom_angle_site_symmetry_3
_geom_angle_publ_flag
N2 Zn1 O1 90(3) 2_464 . ?
N2 Zn1 O3 138(3) 2_464 4_745 ?
N1 Zn1 O1 119(2) . . ?
N1 Zn1 N2 112(3) . 2_464 ?
N1 Zn1 O3 88(4) . 4_745 ?
O3 Zn1 O1 114(3) 4_745 . ?
C18 S2 C16 72.0 . . ?
C19 S2 C18 108.0 . . ?
C19 S2 C16 36.0 . . ?
S2 C18 C21 148(5) . . ?
C17 C18 S2 108.0 . . ?
C17 C18 C21 102(5) . . ?
C18 C17 C16 108.00(6) . . ?
C17 C16 S2 72.0 . . ?
C17 C16 C15 124(5) . . ?
C19 C16 S2 36.0 . . ?
C19 C16 C17 108.0 . . ?
C19 C16 C15 127(5) . . ?
C15 C16 S2 162(5) . . ?
S2 C19 C16 108.0 . . ?
S2 C19 C20 127.8(16) . . ?
C16 C19 C20 123.4(16) . . ?
C9 S1 C8 36.0 . . ?
C6 S1 C9 108.0 . . ?
C6 S1 C8 72.0 . . ?
S1 C9 C10 128.3(15) . . ?
C8 C9 S1 108.0 . . ?
C8 C9 C10 123.4(15) . . ?
C9 C8 S1 36.0 . . ?
C9 C8 C7 108.0 . . ?
C9 C8 C11 136(5) . . ?
C7 C8 S1 72.0 . . ?
C7 C8 C11 116(4) . . ?
C11 C8 S1 169(6) . . ?
C8 C7 C6 108.0 . . ?
S1 C6 C7 108.0 . . ?
S1 C6 C3 128.5(15) . . ?
C7 C6 C3 123.4(15) . . ?
C26 O1 Zn1 108(4) . . ?
C23 N2 Zn1 121(4) . 2_465 ?
C23 N2 C24 120.00(6) . . ?
C24 N2 Zn1 117(4) . 2_465 ?
C22 C23 N2 120.00(7) . . ?
C23 C22 C21 120.0 . . ?
C22 C21 C18 134(6) . . ?
C25 C21 C18 106(6) . . ?
C25 C21 C22 120.00(6) . . ?
C21 C25 C24 120.00(9) . . ?
C25 C24 N2 120.0 . . ?
O1 C26 C27 111(6) . . ?
O1 C26 O2 137(7) . . ?
O2 C26 C27 111(6) . . ?
C31 C32 C27 120.0 . . ?
C32 C31 C30 120.00(6) . . ?
C31 C30 C33 113(7) . . ?
C29 C30 C31 120.0 . . ?
C29 C30 C33 125(7) . . ?
C28 C29 C30 120.0 . . ?
C29 C28 C27 120.00(6) . . ?
C32 C27 C26 129(6) . . ?
C28 C27 C26 108(6) . . ?
C28 C27 C32 120.00(7) . . ?
N1 C1 C2 120.0 . . ?
C1 N1 Zn1 124(4) . . ?
C1 N1 C5 120.0 . . ?
C5 N1 Zn1 114(4) . . ?
N1 C5 C4 120.0 . . ?
C3 C4 C5 120.0 . . ?
C4 C3 C6 120(3) . . ?
C2 C3 C6 120(3) . . ?
C2 C3 C4 120.0 . . ?
C3 C2 C1 120.0 . . ?
C38 C39 C33 120.0 . . ?
C39 C38 C36 120.00(6) . . ?
C38 C36 C37 117(8) . . ?
C35 C36 C38 120.0 . . ?
C35 C36 C37 121(8) . . ?
C36 C35 C34 120.0 . . ?
C33 C34 C35 120.00(6) . . ?
C39 C33 C30 119(6) . . ?
C34 C33 C30 121(6) . . ?
C34 C33 C39 120.00(7) . . ?
C14 C15 C16 133(9) . . ?
C11 C15 C16 119(9) . . ?
C11 C15 C14 108.0 . . ?
C15 C14 F5 114(7) . . ?
C13 C14 C15 108.0 . . ?
C13 C14 F5 106(8) . . ?
F6 C14 C15 115(9) . . ?
F6 C14 C13 124(8) . . ?
F6 C14 F5 88(4) . . ?
C14 C13 C12 108.0 . . ?
C14 C13 F4 102(7) . . ?
C12 C13 F4 113(7) . . ?
F3 C13 C14 117(9) . . ?
F3 C13 C12 124(10) . . ?
F3 C13 F4 90(5) . . ?
F2 C12 F1 99(4) . . ?
F2 C12 C13 110(10) . . ?
F2 C12 C11 127(10) . . ?
C13 C12 F1 102(7) . . ?
C13 C12 C11 108.0 . . ?
C11 C12 F1 108(7) . . ?
C15 C11 C8 129(10) . . ?
C15 C11 C12 108.0 . . ?
C12 C11 C8 121(10) . . ?
O3 C37 C36 107(10) . . ?
O3 C37 O4 131(7) . . ?
O4 C37 C36 122(10) . . ?
C37 O3 Zn1 100(5) . 4_755 ?
loop_
_geom_bond_atom_site_label_1
_geom_bond_atom_site_label_2
_geom_bond_distance
_geom_bond_site_symmetry_2
_geom_bond_publ_flag
Zn1 O1 2.18(6) . ?
Zn1 N2 2.10(4) 2_464 ?
Zn1 N1 2.02(4) . ?
Zn1 O3 2.14(8) 4_745 ?
S2 C18 1.4200 . ?
S2 C16 2.2976 . ?
S2 C19 1.4200 . ?
C18 C17 1.4200 . ?
C18 C21 1.49(3) . ?
C17 C16 1.4200 . ?
C16 C19 1.4200 . ?
C16 C15 1.52(3) . ?
C19 C20 1.50(3) . ?
S1 C9 1.4200 . ?
S1 C8 2.2976 . ?
S1 C6 1.4200 . ?
C9 C8 1.4200 . ?
C9 C10 1.49(3) . ?
C8 C7 1.4200 . ?
C8 C11 1.49(3) . ?
C7 C6 1.4200 . ?
C6 C3 1.49(3) . ?
O1 C26 1.29(5) . ?
N2 Zn1 2.10(4) 2_465 ?
N2 C23 1.3900 . ?
N2 C24 1.3900(14) . ?
C23 C22 1.3900 . ?
C22 C21 1.3900 . ?
C21 C25 1.3900 . ?
C25 C24 1.3900 . ?
C26 C27 1.49(3) . ?
C26 O2 1.30(5) . ?
C32 C31 1.3900 . ?
C32 C27 1.3900 . ?
C31 C30 1.3900 . ?
C30 C29 1.3900 . ?
C30 C33 1.48(3) . ?
C29 C28 1.3900 . ?
C28 C27 1.3900 . ?
C1 N1 1.3900 . ?
C1 C2 1.3900 . ?
N1 C5 1.3900 . ?
C5 C4 1.3900 . ?
C4 C3 1.3900 . ?
C3 C2 1.3900 . ?
C39 C38 1.3900 . ?
C39 C33 1.3900 . ?
C38 C36 1.3900 . ?
C36 C35 1.3900 . ?
C36 C37 1.51(4) . ?
C35 C34 1.3900 . ?
C34 C33 1.3900 . ?
F1 C12 1.43(7) . ?
F2 C12 1.37(6) . ?
C15 C14 1.4200 . ?
C15 C11 1.4200 . ?
C14 C13 1.4200 . ?
C14 F5 1.44(7) . ?
C14 F6 1.40(6) . ?
C13 C12 1.4200 . ?
C13 F4 1.53(8) . ?
C13 F3 1.36(7) . ?
C12 C11 1.4200 . ?
C37 O3 1.30(11) . ?
C37 O4 1.36(11) . ?
O3 Zn1 2.14(8) 4_755 ?
loop_
_smtbx_masks_void_nr
_smtbx_masks_void_average_x
_smtbx_masks_void_average_y
_smtbx_masks_void_average_z
_smtbx_masks_void_volume
_smtbx_masks_void_count_electrons
_smtbx_masks_void_content
1 -0.143 0.250 0.000 849.2 29.2 ?
2 -0.888 -0.250 0.500 849.2 28.4 ?
