#------------------------------------------------------------------------------
#$Date: 2021-09-10 02:09:07 +0300 (Fri, 10 Sep 2021) $
#$Revision: 269075 $
#$URL: file:///home/coder/svn-repositories/cod/cif/7/70/82/7708268.cif $
#------------------------------------------------------------------------------
#
# This file is available in the Crystallography Open Database (COD),
# http://www.crystallography.net/
#
# All data on this site have been placed in the public domain by the
# contributors.
#
data_7708268
loop_
_publ_author_name
'Hu, Jun-Jie'
'Li, Yu-Guang'
'Wen, He-Rui'
'Liu, Sui-Jun'
'Peng, Yan'
'Liu, Cai-Ming'
_publ_section_title
;
 Family of Lanthanide Metal-Organic Frameworks Based on Redox-Active
 Tetrathiafulvalene-Dicarboxylic Ligand Showing Slow Relaxation of
 Magnetisation and Electronic Conductivity
;
_journal_name_full               'Dalton Transactions'
_journal_paper_doi               10.1039/D1DT01851E
_journal_year                    2021
_chemical_formula_moiety         'C60 H44 Dy4 N4 O30 S24, 4(C3 H7 N O)'
_chemical_formula_sum            'C72 H74 Dy4 N8 O34 S24'
_chemical_formula_weight         3014.83
_space_group_crystal_system      monoclinic
_space_group_IT_number           14
_space_group_name_Hall           '-P 2yn'
_space_group_name_H-M_alt        'P 1 21/n 1'
_atom_sites_solution_hydrogens   mixed
_audit_creation_date             2020-10-29
_audit_creation_method
;
Olex2 1.3
(compiled 2020.07.31 svn.rc2a77460 for OlexSys, GUI svn.r6145)
;
_audit_update_record
;
2020-11-09 deposited with the CCDC.	2021-09-08 downloaded from the CCDC.
;
_cell_angle_alpha                90
_cell_angle_beta                 103.218(3)
_cell_angle_gamma                90
_cell_formula_units_Z            4
_cell_length_a                   17.6503(5)
_cell_length_b                   23.0251(6)
_cell_length_c                   26.1975(7)
_cell_measurement_reflns_used    13747
_cell_measurement_temperature    293(2)
_cell_measurement_theta_max      28.9710
_cell_measurement_theta_min      3.5760
_cell_volume                     10364.6(5)
_computing_cell_refinement       'CrysAlisPro 1.171.39.46 (Rigaku OD, 2018)'
_computing_data_collection       'CrysAlisPro 1.171.39.46 (Rigaku OD, 2018)'
_computing_data_reduction        'CrysAlisPro 1.171.39.46 (Rigaku OD, 2018)'
_computing_molecular_graphics    'Olex2 1.3 (Dolomanov et al., 2009)'
_computing_publication_material  'Olex2 1.3 (Dolomanov et al., 2009)'
_computing_structure_refinement  'SHELXL 2018/3 (Sheldrick, 2015)'
_computing_structure_solution    'SHELXT 2014/5 (Sheldrick, 2014)'
_diffrn_ambient_temperature      293(2)
_diffrn_measured_fraction_theta_full 0.998
_diffrn_measured_fraction_theta_max 0.845
_diffrn_measurement_device_type
'SuperNova, Single source at offset/far, EosS2'
_diffrn_radiation_type           MoK\a
_diffrn_radiation_wavelength     0.71073
_diffrn_reflns_av_R_equivalents  0.0264
_diffrn_reflns_av_unetI/netI     0.0464
_diffrn_reflns_Laue_measured_fraction_full 0.998
_diffrn_reflns_Laue_measured_fraction_max 0.845
_diffrn_reflns_limit_h_max       24
_diffrn_reflns_limit_h_min       -22
_diffrn_reflns_limit_k_max       28
_diffrn_reflns_limit_k_min       -31
_diffrn_reflns_limit_l_max       15
_diffrn_reflns_limit_l_min       -35
_diffrn_reflns_number            51030
_diffrn_reflns_point_group_measured_fraction_full 0.998
_diffrn_reflns_point_group_measured_fraction_max 0.845
_diffrn_reflns_theta_full        25.242
_diffrn_reflns_theta_max         29.365
_diffrn_reflns_theta_min         3.315
_exptl_absorpt_coefficient_mu    3.416
_exptl_crystal_density_diffrn    1.932
_exptl_crystal_description       block
_exptl_crystal_F_000             5928
_exptl_crystal_size_max          0.24
_exptl_crystal_size_mid          0.22
_exptl_crystal_size_min          0.21
_refine_diff_density_max         3.165
_refine_diff_density_min         -3.070
_refine_diff_density_rms         0.190
_refine_ls_extinction_method     none
_refine_ls_goodness_of_fit_ref   1.049
_refine_ls_hydrogen_treatment    constr
_refine_ls_matrix_type           full
_refine_ls_number_parameters     1297
_refine_ls_number_reflns         24102
_refine_ls_number_restraints     5814
_refine_ls_restrained_S_all      0.994
_refine_ls_R_factor_all          0.0846
_refine_ls_R_factor_gt           0.0539
_refine_ls_shift/su_max          0.004
_refine_ls_shift/su_mean         0.000
_refine_ls_structure_factor_coef Fsqd
_refine_ls_weighting_details
'w=1/[\s^2^(Fo^2^)+(0.0567P)^2^+76.6154P] where P=(Fo^2^+2Fc^2^)/3'
_refine_ls_weighting_scheme      calc
_refine_ls_wR_factor_gt          0.1279
_refine_ls_wR_factor_ref         0.1489
_reflns_Friedel_coverage         0.000
_reflns_number_gt                17037
_reflns_number_total             24102
_reflns_threshold_expression     'I > 2\s(I)'
_cod_data_source_file            d1dt01851e2.cif
_cod_data_source_block           1-Dy
_cod_database_code               7708268
_shelx_shelxl_version_number     2018/3
_shelx_space_group_comment
;
The symmetry employed for this shelxl refinement is uniquely defined
by the following loop, which should always be used as a source of
symmetry information in preference to the above space-group names.
They are only intended as comments.
;
_olex2_refinement_description
;
1. Fixed Uiso
 At 1.2 times of:
  All C(H) groups
 At 1.5 times of:
  All C(H,H,H) groups, All O(H,H) groups
2. Uiso/Uaniso restraints and constraints
C1 \\sim C2 \\sim C3 \\sim C4 \\sim C5 \\sim C6 \\sim C8 \\sim C7 \\sim C9
\\sim C10 \\sim C11 \\sim C12 \\sim C13 \\sim C15 \\sim C14 \\sim C16 \\sim C18
\\sim C17 \\sim C19 \\sim C01K \\sim C01O \\sim C01P \\sim C01Q \\sim C01S
\\sim C01T \\sim C01U \\sim C01V \\sim C01W \\sim C01X \\sim C01Y \\sim C01Z
\\sim C020 \\sim C20 \\sim C021 \\sim C21 \\sim C022 \\sim C023 \\sim C024
\\sim C025 \\sim C026 \\sim C028 \\sim C029 \\sim C02A \\sim C02B \\sim C02C
\\sim C02E \\sim C02F \\sim C02G \\sim C02H \\sim C02I \\sim C02J \\sim C02K
\\sim C02L \\sim C02M \\sim C02O \\sim C02P \\sim C02Q \\sim C02R \\sim C02T
\\sim C02U \\sim C02V \\sim C02X \\sim C02Z \\sim C031 \\sim C032 \\sim C033
\\sim C034 \\sim C035 \\sim C036 \\sim C037 \\sim C03A \\sim C03G: within 10A
with sigma of 0.01 and sigma for terminal atoms of 0.02 within 10A
Uanis(C1) \\sim Ueq, Uanis(O8) \\sim Ueq, Uanis(C14) \\sim Ueq, Uanis(C20)
\\sim Ueq, Uanis(C21) \\sim Ueq: with sigma of 0.01 and sigma for terminal
atoms of 0.02
Uanis(C2) \\sim Ueq, Uanis(C03G) \\sim Ueq, Uanis(C4) \\sim Ueq, Uanis(N7)
\\sim Ueq: with sigma of 0.01 and sigma for terminal atoms of 0.005
Uanis(C5) \\sim Ueq, Uanis(C03A) \\sim Ueq, Uanis(C6) \\sim Ueq, Uanis(N6)
\\sim Ueq: with sigma of 0.01 and sigma for terminal atoms of 0.005
3.a Rotating group:
 O01H(H01A,H01B), O01J(H01C,H01D)
3.b Aromatic/amide H refined with riding coordinates:
 C1(H1), C15(H15), C19(H19), C21(H21), C02B(H02B), C02H(H02H), C02M(H02M),
 C02O(H02O), C02P(H02P), C02R(H02R), C02U(H02U), C02V(H02V), C031(H031),
 C033(H033), C034(H034), C035(H035), C036(H036), C037(H037), C03A(H03A),
 C03G(H03G)
3.c Idealised Me refined as rotating group:
 C2(H2A,H2B,H2C), C3(H3A,H3B,H3C), C4(H4A,H4B,H4C), C5(H5A,H5B,H5C), C6(H6A,
 H6B,H6C), C8(H8A,H8B,H8C), C7(H7A,H7B,H7C), C9(H9A,H9B,H9C), C10(H10A,H10B,
 H10C), C12(H12A,H12B,H12C), C13(H13A,H13B,H13C), C14(H14A,H14B,H14C), C16(H16A,
 H16B,H16C), C18(H18A,H18B,H18C), C17(H17A,H17B,H17C), C20(H20A,H20B,H20C)
;
_shelx_res_file
;
TITL 20190110-WHR-H12.31DY_a.res in P2(1)/n
    20190110-whr-h12.31dy_a.res
    created by SHELXL-2018/3 at 14:23:27 on 29-Oct-2020
REM Old TITL 20190110-WHR-H12 in P2(1)/n
REM SHELXT solution in P2(1)/n
REM R1 0.149, Rweak 0.001, Alpha 0.042, Orientation as input
REM Formula found by SHELXT: C74 N4 O30 S24 Dy4
CELL 0.71073 17.6503 23.0251 26.1975 90 103.218 90
ZERR 4 0.0005 0.0006 0.0007 0 0.003 0
LATT 1
SYMM 0.5-X,0.5+Y,0.5-Z
SFAC C H Dy N O S
UNIT 288 296 16 32 136 96
ISOR 0.01 0.02 C1 O8 C14 C20 C21
ISOR 0.01 0.005 C2 C03G C4 N7
ISOR 0.01 0.005 C5 C03A C6 N6
SIMU 0.01 0.02 10 $C

L.S. 10
PLAN  15
CONF
BOND $H
LIST 6
MORE -1
fmap 2
acta
REM <olex2.extras>
REM <HklSrc "%.\\20190110-WHR-H12.31DY_a.hkl">
REM </olex2.extras>

WGHT    0.056700   76.615395
FVAR       0.07085
DY01  3    0.392107    0.090370    0.751919    11.00000    0.02209    0.02994 =
         0.00870    0.00089    0.00337   -0.00127
C1    1    0.249565    0.407103   -0.102087    11.00000    0.05131    0.05807 =
         0.04267   -0.00200    0.00570    0.00219
AFIX  43
H1    2    0.217994    0.400881   -0.078639    11.00000   -1.20000
AFIX   0

S1    6    0.269659    0.299515    0.441729    11.00000    0.03080    0.05543 =
         0.01741    0.01069    0.00464    0.00987
N1    4    0.760455   -0.008090    0.754051    11.00000    0.07025    0.03230 =
         0.07003    0.00105    0.02898    0.00933
O1    5    0.522329    0.440243    0.298123    11.00000    0.03579    0.08054 =
         0.01467   -0.00541    0.01114    0.01391
DY02  3    0.618901    0.161631    0.749201    11.00000    0.02144    0.03051 =
         0.00881    0.00039    0.00332   -0.00091
N2    4    0.320798    0.398796   -0.088117    11.00000    0.05939    0.05465 =
         0.12279   -0.00421    0.03467    0.00405
C2    1    0.572694    0.670514    0.279553    11.00000    0.08118    0.07723 =
         0.07090   -0.00446    0.00380    0.00391
AFIX 137
H2A   2    0.533769    0.683633    0.297180    11.00000   -1.50000
H2B   2    0.579384    0.698976    0.254167    11.00000   -1.50000
H2C   2    0.621080    0.665070    0.304692    11.00000   -1.50000
AFIX   0
O2    5    0.521638    0.306855    0.317724    11.00000    0.03162    0.04623 =
         0.02107    0.01266   -0.00072    0.00723
DY03  3    0.405821    0.327642    0.255494    11.00000    0.02064    0.02855 =
         0.01033   -0.00007    0.00319    0.00068
C3    1    0.203204    0.265312    0.700011    11.00000    0.06288    0.06293 =
         0.05534    0.00506   -0.00328    0.00619
AFIX 137
H3A   2    0.153973    0.283136    0.699827    11.00000   -1.50000
H3B   2    0.194708    0.228093    0.683154    11.00000   -1.50000
H3C   2    0.232120    0.289617    0.681514    11.00000   -1.50000
AFIX   0
N3    4    0.246273    0.257969    0.753139    11.00000    0.06719    0.03387 =
         0.06333   -0.00030    0.01502    0.01376
O3    5    0.419893    0.227003    0.257323    11.00000    0.07497    0.02967 =
         0.09416   -0.01325    0.01565    0.00517
DY04  3    0.606288    0.427332    0.244810    11.00000    0.02149    0.02735 =
         0.01013   -0.00119    0.00354    0.00035

N4    4    0.837427    0.350559    0.911818    11.00000    0.05878    0.05537 =
         0.08507   -0.00465    0.02345   -0.01271
C4    1    0.480371    0.618490    0.214588    11.00000    0.07189    0.07727 =
         0.06815   -0.00076    0.00290    0.00171
AFIX 137
H4A   2    0.444528    0.645539    0.224065    11.00000   -1.50000
H4B   2    0.457425    0.580479    0.210573    11.00000   -1.50000
H4C   2    0.492120    0.630344    0.182121    11.00000   -1.50000
AFIX   0
O4    5    0.490586    0.317045    0.202590    11.00000    0.03210    0.06737 =
         0.02369   -0.00413    0.01519    0.01016
S005  6    0.253905    0.036737    0.937483    11.00000    0.02583    0.06433 =
         0.02017    0.01628    0.00410   -0.00114

N5    4    0.684582    0.356839    0.591341    11.00000    0.08798    0.05624 =
         0.07080    0.00006    0.01481   -0.00366
O5    5    0.489722    0.446429    0.182546    11.00000    0.03138    0.04771 =
         0.02351    0.00682    0.00091    0.00331
C5    1    0.525145    0.136488    0.280104    11.00000    0.06452    0.06930 =
         0.06174    0.00010    0.00444    0.00394
AFIX 137
H5A   2    0.521957    0.125213    0.314830    11.00000   -1.50000
H5B   2    0.544998    0.175371    0.280842    11.00000   -1.50000
H5C   2    0.559350    0.110484    0.267564    11.00000   -1.50000
AFIX   0
S006  6    0.761311    0.210420    0.563330    11.00000    0.02498    0.07046 =
         0.02131    0.01802    0.00511    0.00174
C6    1    0.424159    0.078939    0.224581    11.00000    0.07285    0.06922 =
         0.06389   -0.00352    0.00478    0.00402
AFIX 137
H6A   2    0.458128    0.065859    0.203088    11.00000   -1.50000
H6B   2    0.371969    0.081736    0.203694    11.00000   -1.50000
H6C   2    0.425581    0.051784    0.252591    11.00000   -1.50000
AFIX   0

O6    5    0.218383    0.424972   -0.150806    11.00000    0.20265    0.06259 =
         0.06300   -0.00561    0.01015    0.01310
N6    4    0.448905    0.134085    0.245745    11.00000    0.08778    0.04147 =
         0.08149   -0.00239   -0.00113    0.00465
S008  6    0.253936    0.554160   -0.058583    11.00000    0.02929    0.06173 =
         0.01523    0.01099    0.00382    0.01116
O8    5    0.300801   -0.079661    0.821638    11.00000    0.24470    0.12873 =
         0.18469    0.02134    0.05654   -0.01074
N8    4    0.327978   -0.106603    0.907717    11.00000    0.10695    0.06571 =
         0.10203    0.00615    0.02836    0.00004
C8    1    0.766652   -0.053155    0.717109    11.00000    0.07822    0.06928 =
         0.06071    0.00008    0.01106    0.00909
AFIX 137
H8A   2    0.818077   -0.052913    0.710710    11.00000   -1.50000
H8B   2    0.729185   -0.046427    0.684804    11.00000   -1.50000
H8C   2    0.756824   -0.090167    0.731185    11.00000   -1.50000
AFIX   0
N7    4    0.548863    0.617192    0.253906    11.00000    0.09166    0.04304 =
         0.09873   -0.00610   -0.00646    0.02474

O7    5    0.708357    0.326681    0.675566    11.00000    0.16139    0.08237 =
         0.08991    0.01842    0.04875   -0.02531
C7    1    0.238836    0.301034    0.791066    11.00000    0.07569    0.06769 =
         0.06010   -0.00177    0.00785    0.00847
AFIX 137
H7A   2    0.251126    0.338532    0.779114    11.00000   -1.50000
H7B   2    0.273996    0.292268    0.823899    11.00000   -1.50000
H7C   2    0.186398    0.301196    0.795631    11.00000   -1.50000
AFIX   0
S009  6    0.426559    0.013460    1.086256    11.00000    0.03504    0.05304 =
         0.02105    0.01608   -0.00104   -0.00751
C9    1    0.800669   -0.013739    0.807788    11.00000    0.06682    0.06274 =
         0.06011    0.00418   -0.00079    0.00496
AFIX 137
H9A   2    0.774395   -0.041701    0.824762    11.00000   -1.50000
H9B   2    0.801567    0.023140    0.825011    11.00000   -1.50000
H9C   2    0.853036   -0.026446    0.809661    11.00000   -1.50000
AFIX   0
S00A  6    0.547955    0.044882    0.575092    11.00000    0.04676    0.05948 =
         0.02192   -0.01643    0.01610   -0.01874
S00B  6    0.465108    0.210409   -0.072632    11.00000    0.04606    0.06552 =
         0.02274   -0.01847    0.01820   -0.02078
S00C  6    0.593525    0.189245    0.522731    11.00000    0.03288    0.07906 =
         0.01716    0.00963   -0.00147   -0.01720
S00D  6    0.440801    0.264541    0.588431    11.00000    0.03895    0.05948 =
         0.02334    0.02094   -0.00255   -0.00696
S00E  6    0.424666    0.554882   -0.020932    11.00000    0.03171    0.07796 =
         0.02343    0.01617   -0.00519   -0.01037
S00F  6    0.417578    0.072023    0.976360    11.00000    0.03803    0.07498 =
         0.01950    0.00914   -0.00235   -0.02126
S00G  6    0.414215    0.510443    0.091108    11.00000    0.03489    0.07301 =
         0.02437    0.02385   -0.00472   -0.00604
S00H  6    0.426826   -0.045455    0.544820    11.00000    0.05157    0.06130 =
         0.02701   -0.02134    0.01291   -0.01890
S00I  6    0.599020    0.245089    0.411698    11.00000    0.03006    0.07802 =
         0.02528    0.02381   -0.00223   -0.00763
S00J  6    0.571954    0.298953    0.076430    11.00000    0.05264    0.06894 =
         0.02336   -0.02177    0.01952   -0.02143
S00K  6    0.441822    0.215495    0.049343    11.00000    0.05104    0.07497 =
         0.02946   -0.02178    0.01615   -0.02447
S00L  6    0.264264   -0.028412    1.052964    11.00000    0.03096    0.08760 =
         0.02991    0.03017   -0.00456   -0.01015
S00M  6    0.443283    0.456851    0.425650    11.00000    0.05186    0.07497 =
         0.02376   -0.01955    0.01733   -0.01847
S00N  6    0.592099    0.296173   -0.043393    11.00000    0.06193    0.07682 =
         0.03001   -0.02660    0.01934   -0.03396
S00O  6    0.440109    0.309889    0.476877    11.00000    0.04005    0.09987 =
         0.02165    0.02327   -0.00784   -0.02654
S00P  6    0.273240    0.235938    0.559150    11.00000    0.03184    0.10076 =
         0.03076    0.03212    0.00183    0.00286
S00Q  6    0.576355    0.537533    0.453087    11.00000    0.05737    0.08465 =
         0.03238   -0.02449    0.01932   -0.02592
S00R  6    0.243790    0.497025    0.057203    11.00000    0.03117    0.10561 =
         0.03203    0.03002    0.00071    0.00549
S00S  6    0.766923    0.270460    0.449380    11.00000    0.02980    0.12212 =
         0.03847    0.04457   -0.00301   -0.00851
O00T  5    0.440092    0.158372    0.704058    11.00000    0.04101    0.03728 =
         0.02030    0.01124    0.00763    0.00071
O00U  5    0.541998    0.210616   -0.202222    11.00000    0.03591    0.03522 =
         0.01865   -0.00256    0.01359   -0.00203
O00V  5    0.467895    0.041107    0.703229    11.00000    0.04064    0.03740 =
         0.02112   -0.00585    0.01208    0.00335
O00W  5    0.520866   -0.039669    1.179333    11.00000    0.03161    0.03704 =
         0.01802    0.00536   -0.00181   -0.00043
O00X  5    0.309305    0.550781   -0.195138    11.00000    0.03016    0.06372 =
         0.01485    0.00334    0.00632   -0.00909
O00Y  5    0.531245    0.211298    0.680536    11.00000    0.02875    0.04390 =
         0.01836    0.00763   -0.00215    0.00326
O00Z  5    0.383170    0.411089    0.205673    11.00000    0.03806    0.04000 =
         0.02877    0.01413    0.00512    0.00844
O010  5    0.444009    0.161646   -0.179376    11.00000    0.02955    0.03496 =
         0.02195   -0.00618    0.00350   -0.00426

C10   1    0.887474    0.345336    0.878093    11.00000    0.07785    0.07887 =
         0.06659    0.00188    0.01496    0.00209
AFIX 137
H10A  2    0.908599    0.382758    0.873038    11.00000   -1.50000
H10B  2    0.859330    0.330417    0.844945    11.00000   -1.50000
H10C  2    0.929055    0.319225    0.893006    11.00000   -1.50000
AFIX   0

O011  5    0.566858    0.090375    0.681793    11.00000    0.03332    0.03551 =
         0.02205   -0.01133    0.00527   -0.00684
C11   1    0.417181    0.438618    0.176192    11.00000    0.03772    0.04669 =
         0.02605    0.00247    0.00910    0.00093
O012  5    0.627044    0.344771    0.295574    11.00000    0.03744    0.04799 =
         0.02674    0.01218    0.00412    0.00381
C12   1    0.869102    0.364321    0.966363    11.00000    0.06888    0.06982 =
         0.06713   -0.00010    0.00834   -0.00576
AFIX 137
H12A  2    0.909326    0.337002    0.980942    11.00000   -1.50000
H12B  2    0.828546    0.362261    0.985254    11.00000   -1.50000
H12C  2    0.890471    0.402840    0.969118    11.00000   -1.50000
AFIX   0

O013  5    0.320564    0.305080    0.303697    11.00000    0.02823    0.06906 =
         0.01902   -0.00047    0.01011   -0.00885
C13   1    0.369575   -0.118540    0.960335    11.00000    0.07925    0.07665 =
         0.06605   -0.00316    0.00405    0.00889
AFIX 137
H13A  2    0.337802   -0.108371    0.984227    11.00000   -1.50000
H13B  2    0.416666   -0.096117    0.968281    11.00000   -1.50000
H13C  2    0.382135   -0.159131    0.963760    11.00000   -1.50000
AFIX   0

O015  5    0.593489    0.353926    0.179698    11.00000    0.04129    0.03932 =
         0.02320   -0.01000    0.01148   -0.00251
C15   1    0.761335    0.341887    0.894611    11.00000    0.05439    0.05564 =
         0.04343    0.00226    0.00763   -0.00294
AFIX  43
H15   2    0.729429    0.346299    0.918108    11.00000   -1.20000
AFIX   0

C14   1    0.377903    0.403303   -0.114045    11.00000    0.07056    0.07532 =
         0.06561   -0.00603    0.01207   -0.00047
AFIX 137
H14A  2    0.403161    0.366373   -0.114008    11.00000   -1.50000
H14B  2    0.415143    0.431669   -0.097140    11.00000   -1.50000
H14C  2    0.356254    0.415092   -0.149534    11.00000   -1.50000
AFIX   0

O016  5    0.431063   -0.094072    1.202639    11.00000    0.04577    0.03498 =
         0.01970    0.01041    0.01093    0.00471
C16   1    0.358187    0.383339   -0.032204    11.00000    0.06956    0.07123 =
         0.06028    0.00127   -0.00001   -0.00011
AFIX 137
H16A  2    0.320201    0.385874   -0.011277    11.00000   -1.50000
H16B  2    0.400031    0.409834   -0.018876    11.00000   -1.50000
H16C  2    0.378175    0.344452   -0.030800    11.00000   -1.50000
AFIX   0

O018  5    0.421208    0.401084    0.321572    11.00000    0.05098    0.04050 =
         0.02396   -0.00993    0.00895    0.00281
C18   1    0.636444    0.371041    0.541632    11.00000    0.06482    0.06819 =
         0.05329   -0.00093   -0.00010    0.00264
AFIX 137
H18A  2    0.629369    0.412365    0.539062    11.00000   -1.50000
H18B  2    0.586772    0.352461    0.537818    11.00000   -1.50000
H18C  2    0.660666    0.357894    0.514429    11.00000   -1.50000
AFIX   0
C17   1    0.766222    0.364398    0.595485    11.00000    0.06044    0.06733 =
         0.05517    0.00337    0.00575   -0.00077
AFIX 137
H17A  2    0.778020    0.356848    0.562105    11.00000   -1.50000
H17B  2    0.794720    0.337882    0.621096    11.00000   -1.50000
H17C  2    0.780706    0.403538    0.606036    11.00000   -1.50000
AFIX   0

O019  5    0.703731    0.171288    0.695342    11.00000    0.03550    0.07558 =
         0.01384    0.00648    0.00871   -0.00698
C19   1    0.659566    0.338056    0.630347    11.00000    0.05082    0.05464 =
         0.03910    0.00109    0.00764   -0.00075
AFIX  43
H19   2    0.606473    0.332329    0.626886    11.00000   -1.20000
AFIX   0

O01B  5    0.210318    0.320594    0.329007    11.00000    0.02506    0.04603 =
         0.02288    0.00672   -0.00125    0.00170
O01C  5    0.199720    0.574006   -0.171354    11.00000    0.02786    0.04696 =
         0.02070    0.00581   -0.00048    0.00307
O01D  5    0.197266    0.044566    0.821521    11.00000    0.02256    0.05571 =
         0.02517    0.01233   -0.00054   -0.00003
O01E  5    0.305211    0.078970    0.804125    11.00000    0.03617    0.07379 =
         0.01767    0.00386    0.00983   -0.01160
O01F  5    0.815384    0.199749    0.679020    11.00000    0.02377    0.05606 =
         0.02278    0.00940   -0.00055    0.00572
O01H  5    0.655274    0.265538    0.752443    11.00000    0.05209    0.04344 =
         0.03000    0.00409    0.00338   -0.01515
AFIX   7
H01A  2    0.674923    0.273515    0.726451    11.00000   -1.50000
H01B  2    0.692053    0.271689    0.779211    11.00000   -1.50000
AFIX   0
O01I  5    0.708677    0.078032    0.766439    11.00000    0.04901    0.03964 =
         0.05058   -0.00477    0.01069    0.00448
O01J  5    0.354303   -0.013718    0.747448    11.00000    0.05991    0.05073 =
         0.03468    0.00092    0.00775   -0.01536
AFIX   7
H01C  2    0.314494   -0.018833    0.761119    11.00000   -1.50000
H01D  2    0.337407   -0.024097    0.715056    11.00000   -1.50000
AFIX   0
C01K  1    0.463128    0.193459    0.674757    11.00000    0.03999    0.04295 =
         0.02383    0.00358    0.00906    0.00200
O01L  5    0.300719    0.173731    0.736332    11.00000    0.05542    0.03682 =
         0.05613   -0.00327    0.01147    0.01730
O01M  5    0.592778    0.528393    0.240675    11.00000    0.08789    0.02595 =
         0.08914   -0.01176    0.01688    0.00392
C01O  1    0.743914    0.188874    0.665208    11.00000    0.03695    0.04432 =
         0.02458    0.00156    0.00909    0.00131
C01P  1    0.500401    0.197190   -0.171420    11.00000    0.03252    0.03963 =
         0.01895   -0.00174    0.01040    0.00167
C01Q  1    0.266643    0.059546    0.834565    11.00000    0.03642    0.04163 =
         0.02191    0.00406    0.00912    0.00250
C01S  1    0.281806    0.310972    0.338234    11.00000    0.03682    0.04459 =
         0.02403    0.00323    0.00953   -0.00116
C01T  1    0.452969   -0.058958    1.172846    11.00000    0.03630    0.03462 =
         0.02087    0.00311    0.00878    0.00343
C01U  1    0.535495    0.321677    0.172145    11.00000    0.03816    0.04775 =
         0.02453   -0.00064    0.01047    0.00377
C01V  1    0.510719    0.055276    0.673266    11.00000    0.03875    0.04540 =
         0.02609    0.00073    0.01094    0.00279
C01W  1    0.269697    0.560974   -0.161824    11.00000    0.03170    0.04247 =
         0.02255    0.00292    0.00699   -0.00489
C01X  1    0.593177    0.316868    0.325300    11.00000    0.03889    0.04534 =
         0.02588    0.00307    0.00863    0.00158
C01Y  1    0.479308    0.434365    0.328704    11.00000    0.03863    0.04852 =
         0.02534   -0.00001    0.01000    0.00479
C01Z  1    0.323929    0.306372    0.393732    11.00000    0.03850    0.04537 =
         0.02392    0.00292    0.00873    0.00048
C020  1    0.395140   -0.038787    1.125219    11.00000    0.03682    0.04143 =
         0.01783    0.00562    0.00698    0.00081

C20   1    0.242122   -0.111659    0.898063    11.00000    0.07755    0.07649 =
         0.07188   -0.00071    0.01336   -0.00146
AFIX 137
H20A  2    0.226242   -0.149305    0.883801    11.00000   -1.50000
H20B  2    0.218287   -0.082242    0.873656    11.00000   -1.50000
H20C  2    0.226252   -0.106705    0.930483    11.00000   -1.50000
AFIX   0

C021  1    0.705675    0.192988    0.608709    11.00000    0.03799    0.04537 =
         0.02533    0.00362    0.01106    0.00116
C21   1    0.355898   -0.089466    0.872358    11.00000    0.05751    0.05885 =
         0.04617    0.00059    0.00647   -0.00133
AFIX  43
H21   2    0.409013   -0.082874    0.876936    11.00000   -1.20000
AFIX   0

C022  1    0.499506    0.468120    0.378531    11.00000    0.03919    0.04816 =
         0.02627   -0.00051    0.01121    0.00225
C023  1    0.310484    0.555924   -0.105735    11.00000    0.03487    0.04400 =
         0.02133   -0.00082    0.00753    0.00007
C024  1    0.515439    0.287808    0.122846    11.00000    0.03723    0.04743 =
         0.02408   -0.00115    0.01154    0.00125
C025  1    0.494232    0.025173    0.621500    11.00000    0.03876    0.04471 =
         0.02491    0.00148    0.01066    0.00255
C026  1    0.405146    0.215729    0.628062    11.00000    0.04008    0.04650 =
         0.02567    0.00402    0.00983    0.00075
C028  1    0.518487    0.227656   -0.119574    11.00000    0.03577    0.04420 =
         0.02187   -0.00222    0.00866    0.00170
C029  1    0.521435    0.255112   -0.022184    11.00000    0.03837    0.04897 =
         0.02440   -0.00255    0.01081   -0.00019
C02A  1    0.367659    0.465345    0.128243    11.00000    0.03810    0.04731 =
         0.02502    0.00294    0.00768    0.00076
C02B  1    0.387889    0.555815   -0.087672    11.00000    0.03727    0.04933 =
         0.02554    0.00269    0.00693   -0.00147
AFIX  43
H02B  2    0.420967    0.556233   -0.110672    11.00000   -1.20000
AFIX   0
C02C  1    0.306290    0.057329    0.890921    11.00000    0.03731    0.04283 =
         0.02300    0.00586    0.01013    0.00177
C02E  1    0.642463    0.292071    0.373985    11.00000    0.03862    0.04754 =
         0.02585    0.00337    0.00812    0.00177
C02F  1    0.340726    0.011040    1.036548    11.00000    0.03667    0.04411 =
         0.02486    0.00662    0.00784    0.00214
C02G  1    0.336783    0.036105    0.990269    11.00000    0.03815    0.04540 =
         0.02346    0.00553    0.00878    0.00023
C02H  1    0.439093   -0.015062    0.606329    11.00000    0.04192    0.04806 =
         0.02832   -0.00030    0.01050    0.00015
AFIX  43
H02H  2    0.407764   -0.026512    0.628645    11.00000   -1.20000
AFIX   0
C02I  1    0.679982    0.216279    0.509734    11.00000    0.03986    0.04817 =
         0.02626    0.00500    0.00757    0.00136
C02J  1    0.330365    0.520409    0.040603    11.00000    0.03921    0.04975 =
         0.02553    0.00265    0.00596    0.00151
C02K  1    0.512613    0.255664    0.026597    11.00000    0.03946    0.04938 =
         0.02553   -0.00234    0.01093    0.00121
C02L  1    0.352358    0.290301    0.493218    11.00000    0.03952    0.04671 =
         0.02574    0.00343    0.00809    0.00134
C02M  1    0.719424    0.038054    0.738689    11.00000    0.04820    0.05159 =
         0.03462    0.00148    0.01041    0.00206
AFIX  43
H02M  2    0.696083    0.040779    0.703154    11.00000   -1.20000
AFIX   0
C02O  1    0.629879    0.183994    0.589406    11.00000    0.03991    0.04924 =
         0.02711    0.00262    0.00999   -0.00085
AFIX  43
H02O  2    0.597230    0.175041    0.611574    11.00000   -1.20000
AFIX   0
C02P  1    0.457285    0.250231    0.109718    11.00000    0.03967    0.05004 =
         0.02626   -0.00169    0.01100   -0.00130
AFIX  43
H02P  2    0.425181    0.242570    0.132548    11.00000   -1.20000
AFIX   0
C02Q  1    0.334248    0.541261   -0.006197    11.00000    0.03814    0.04810 =
         0.02485    0.00143    0.00637    0.00117
C02R  1    0.380184    0.073495    0.909219    11.00000    0.03951    0.04847 =
         0.02522    0.00602    0.01023   -0.00114
AFIX  43
H02R  2    0.410755    0.085233    0.886510    11.00000   -1.20000
AFIX   0
C02T  1    0.494237   -0.000199    0.524676    11.00000    0.04078    0.04803 =
         0.02753    0.00034    0.00853    0.00187
C02U  1    0.322143   -0.056843    1.110096    11.00000    0.04057    0.04724 =
         0.02395    0.01344    0.00665   -0.00316
AFIX  43
H02U  2    0.302326   -0.084197    1.129700    11.00000   -1.20000
AFIX   0
C02V  1    0.576279    0.265364   -0.104740    11.00000    0.03985    0.04911 =
         0.02307   -0.00524    0.01147   -0.00297
AFIX  43
H02V  2    0.607962    0.275039   -0.127355    11.00000   -1.20000
AFIX   0
C02X  1    0.353588    0.267806    0.539985    11.00000    0.04020    0.04709 =
         0.02590    0.00427    0.00772    0.00116
C02Z  1    0.682175    0.240181    0.463717    11.00000    0.04039    0.05011 =
         0.02699    0.00431    0.00746    0.00137

O030  5    0.730622    0.328045    0.848208    11.00000    0.14203    0.06791 =
         0.08168    0.00911   -0.00694   -0.02765
C031  1    0.329741    0.203223    0.614873    11.00000    0.04172    0.04971 =
         0.02731    0.00666    0.00875    0.00081
AFIX  43
H031  2    0.307729    0.177671    0.634879    11.00000   -1.20000
AFIX   0
C032  1    0.504308    0.499298    0.475035    11.00000    0.03967    0.04972 =
         0.02675   -0.00089    0.01032    0.00120
C033  1    0.400224    0.310499    0.410217    11.00000    0.04172    0.05138 =
         0.02857    0.00435    0.00624   -0.00106
AFIX  43
H033  2    0.431853    0.313670    0.386418    11.00000   -1.20000
AFIX   0
C034  1    0.559023    0.503698    0.392307    11.00000    0.04251    0.05238 =
         0.02837   -0.00041    0.01030    0.00002
AFIX  43
H034  2    0.591581    0.510668    0.369634    11.00000   -1.20000
AFIX   0
C035  1    0.718158    0.303040    0.391566    11.00000    0.04163    0.05063 =
         0.02884    0.00609    0.00725   -0.00110
AFIX  43
H035  2    0.744186    0.327642    0.373187    11.00000   -1.20000
AFIX   0
C036  1    0.291402    0.459011    0.112153    11.00000    0.04100    0.05063 =
         0.02845    0.00345    0.00605   -0.00042
AFIX  43
H036  2    0.264096    0.434728    0.129945    11.00000   -1.20000
AFIX   0
C037  1    0.289061    0.211911    0.765219    11.00000    0.04771    0.05162 =
         0.03529    0.00175    0.01036    0.00254
AFIX  43
H037  2    0.313745    0.207816    0.800409    11.00000   -1.20000
AFIX   0
C03A  1    0.403020    0.179843    0.241330    11.00000    0.04520    0.05189 =
         0.03428    0.00088    0.00492    0.00098
AFIX  43
H03A  2    0.351541    0.174261    0.223595    11.00000   -1.20000
AFIX   0
C03G  1    0.599955    0.573397    0.258662    11.00000    0.05049    0.05548 =
         0.03984    0.00077    0.00370    0.00253
AFIX  43
H03G  2    0.648751    0.581090    0.279970    11.00000   -1.20000
AFIX   0
HKLF 4




REM  20190110-WHR-H12.31DY_a.res in P2(1)/n
REM wR2 = 0.1489, GooF = S = 1.049, Restrained GooF = 0.994 for all data
REM R1 = 0.0539 for 17037 Fo > 4sig(Fo) and 0.0846 for all 24102 data
REM 1297 parameters refined using 5814 restraints

END

WGHT      0.0567     76.5831

REM Highest difference peak  3.165,  deepest hole -3.070,  1-sigma level  0.190
Q1    1   0.3954  0.3599  0.2494  11.00000  0.05    3.16
Q2    1   0.6120  0.3945  0.2489  11.00000  0.05    3.13
Q3    1   0.6050  0.1906  0.7425  11.00000  0.05    2.83
Q4    1   0.3961  0.0600  0.7497  11.00000  0.05    2.05
Q5    1   0.4245  0.0713  0.7627  11.00000  0.05    1.83
Q6    1   0.6772  0.1054  0.7560  11.00000  0.05    1.35
Q7    1   0.5400  0.5616  0.2398  11.00000  0.05    1.30
Q8    1   0.2725  0.3877 -0.0594  11.00000  0.05    1.24
Q9    1   0.3389  0.1428  0.7430  11.00000  0.05    1.21
Q10   1   0.2832  0.4232 -0.1426  11.00000  0.05    1.21
Q11   1   0.3166  0.4406  0.2372  11.00000  0.05    1.14
Q12   1   0.1966  0.1919  0.7626  11.00000  0.05    1.02
Q13   1   0.3921  0.3935 -0.0830  11.00000  0.05    1.01
Q14   1   0.8789  0.0014  0.7435  11.00000  0.05    0.98
Q15   1   0.7016  0.5092  0.2588  11.00000  0.05    0.90
;
_shelx_res_checksum              67813
_olex2_submission_special_instructions 'No special instructions were received'
loop_
_space_group_symop_operation_xyz
'x, y, z'
'-x+1/2, y+1/2, -z+1/2'
'-x, -y, -z'
'x-1/2, -y-1/2, z-1/2'
loop_
_atom_site_label
_atom_site_type_symbol
_atom_site_fract_x
_atom_site_fract_y
_atom_site_fract_z
_atom_site_U_iso_or_equiv
_atom_site_adp_type
_atom_site_occupancy
_atom_site_site_symmetry_order
_atom_site_calc_flag
_atom_site_refinement_flags_posn
_atom_site_refinement_flags_adp
_atom_site_refinement_flags_occupancy
_atom_site_disorder_assembly
_atom_site_disorder_group
Dy01 Dy 0.39211(2) 0.09037(2) 0.75192(2) 0.02027(8) Uani 1 1 d . . . . .
C1 C 0.2496(6) 0.4071(4) -0.1021(4) 0.0515(13) Uani 1 1 d . U . . .
H1 H 0.217994 0.400881 -0.078639 0.062 Uiso 1 1 calc R U . . .
S1 S 0.26966(11) 0.29951(10) 0.44173(7) 0.0347(4) Uani 1 1 d . . . . .
N1 N 0.7605(5) -0.0081(3) 0.7541(3) 0.055(2) Uani 1 1 d . . . . .
O1 O 0.5223(3) 0.4402(3) 0.29812(19) 0.0428(15) Uani 1 1 d . . . . .
Dy02 Dy 0.61890(2) 0.16163(2) 0.74920(2) 0.02028(8) Uani 1 1 d . . . . .
N2 N 0.3208(6) 0.3988(4) -0.0881(5) 0.077(3) Uani 1 1 d . . . . .
C2 C 0.5727(7) 0.6705(5) 0.2796(5) 0.079(2) Uani 1 1 d . U . . .
H2A H 0.533769 0.683633 0.297180 0.118 Uiso 1 1 calc R U . . .
H2B H 0.579384 0.698976 0.254167 0.118 Uiso 1 1 calc R U . . .
H2C H 0.621080 0.665070 0.304692 0.118 Uiso 1 1 calc R U . . .
O2 O 0.5216(3) 0.3069(2) 0.31772(19) 0.0341(12) Uani 1 1 d . . . . .
Dy03 Dy 0.40582(2) 0.32764(2) 0.25549(2) 0.01990(8) Uani 1 1 d . . . . .
C3 C 0.2032(6) 0.2653(5) 0.7000(4) 0.0631(19) Uani 1 1 d . U . . .
H3A H 0.153973 0.283136 0.699827 0.095 Uiso 1 1 calc R U . . .
H3B H 0.194708 0.228093 0.683154 0.095 Uiso 1 1 calc R U . . .
H3C H 0.232120 0.289617 0.681514 0.095 Uiso 1 1 calc R U . . .
N3 N 0.2463(5) 0.2580(3) 0.7531(3) 0.055(2) Uani 1 1 d . . . . .
O3 O 0.4199(4) 0.2270(3) 0.2573(3) 0.067(2) Uani 1 1 d . . . . .
Dy04 Dy 0.60629(2) 0.42733(2) 0.24481(2) 0.01967(8) Uani 1 1 d . . . . .
N4 N 0.8374(5) 0.3506(4) 0.9118(4) 0.065(2) Uani 1 1 d . . . . .
C4 C 0.4804(7) 0.6185(5) 0.2146(5) 0.0745(19) Uani 1 1 d . U . . .
H4A H 0.444528 0.645539 0.224065 0.112 Uiso 1 1 calc R U . . .
H4B H 0.457425 0.580479 0.210573 0.112 Uiso 1 1 calc R U . . .
H4C H 0.492120 0.630344 0.182121 0.112 Uiso 1 1 calc R U . . .
O4 O 0.4906(3) 0.3170(3) 0.2026(2) 0.0396(14) Uani 1 1 d . . . . .
S005 S 0.25390(11) 0.03674(10) 0.93748(7) 0.0370(5) Uani 1 1 d . . . . .
N5 N 0.6846(6) 0.3568(4) 0.5913(4) 0.072(3) Uani 1 1 d . . . . .
O5 O 0.4897(3) 0.4464(2) 0.1825(2) 0.0351(12) Uani 1 1 d . . . . .
C5 C 0.5251(6) 0.1365(5) 0.2801(4) 0.0668(18) Uani 1 1 d . U . . .
H5A H 0.521957 0.125213 0.314830 0.100 Uiso 1 1 calc R U . . .
H5B H 0.544998 0.175371 0.280842 0.100 Uiso 1 1 calc R U . . .
H5C H 0.559350 0.110484 0.267564 0.100 Uiso 1 1 calc R U . . .
S006 S 0.76131(11) 0.21042(11) 0.56333(7) 0.0389(5) Uani 1 1 d . . . . .
C6 C 0.4242(7) 0.0789(5) 0.2246(5) 0.070(2) Uani 1 1 d . U . . .
H6A H 0.458128 0.065859 0.203088 0.106 Uiso 1 1 calc R U . . .
H6B H 0.371969 0.081736 0.203694 0.106 Uiso 1 1 calc R U . . .
H6C H 0.425581 0.051784 0.252591 0.106 Uiso 1 1 calc R U . . .
O6 O 0.2184(7) 0.4250(4) -0.1508(4) 0.113(4) Uani 1 1 d . . . . .
N6 N 0.4489(6) 0.1341(4) 0.2457(4) 0.074(3) Uani 1 1 d . U . . .
S008 S 0.25394(11) 0.55416(10) -0.05858(7) 0.0356(5) Uani 1 1 d . . . . .
O8 O 0.3008(10) -0.0797(6) 0.8216(6) 0.185(6) Uani 1 1 d . U . . .
N8 N 0.3280(7) -0.1066(5) 0.9077(5) 0.091(3) Uani 1 1 d . . . . .
C8 C 0.7667(7) -0.0532(5) 0.7171(4) 0.070(2) Uani 1 1 d . U . . .
H8A H 0.818077 -0.052913 0.710710 0.105 Uiso 1 1 calc R U . . .
H8B H 0.729185 -0.046427 0.684804 0.105 Uiso 1 1 calc R U . . .
H8C H 0.756824 -0.090167 0.731185 0.105 Uiso 1 1 calc R U . . .
N7 N 0.5489(6) 0.6172(4) 0.2539(4) 0.082(3) Uani 1 1 d . U . . .
O7 O 0.7084(7) 0.3267(4) 0.6756(4) 0.108(3) Uani 1 1 d . . . . .
C7 C 0.2388(7) 0.3010(5) 0.7911(4) 0.069(2) Uani 1 1 d . U . . .
H7A H 0.251126 0.338532 0.779114 0.104 Uiso 1 1 calc R U . . .
H7B H 0.273996 0.292268 0.823899 0.104 Uiso 1 1 calc R U . . .
H7C H 0.186398 0.301196 0.795631 0.104 Uiso 1 1 calc R U . . .
S009 S 0.42656(11) 0.01346(10) 1.08626(7) 0.0376(5) Uani 1 1 d . . . . .
C9 C 0.8007(6) -0.0137(5) 0.8078(4) 0.066(2) Uani 1 1 d . U . . .
H9A H 0.774395 -0.041701 0.824762 0.099 Uiso 1 1 calc R U . . .
H9B H 0.801567 0.023140 0.825011 0.099 Uiso 1 1 calc R U . . .
H9C H 0.853036 -0.026446 0.809661 0.099 Uiso 1 1 calc R U . . .
S00A S 0.54795(13) 0.04488(10) 0.57509(8) 0.0414(5) Uani 1 1 d . . . . .
S00B S 0.46511(13) 0.21041(11) -0.07263(8) 0.0431(5) Uani 1 1 d . . . . .
S00C S 0.59352(12) 0.18924(12) 0.52273(7) 0.0442(6) Uani 1 1 d . . . . .
S00D S 0.44080(12) 0.26454(10) 0.58843(8) 0.0421(5) Uani 1 1 d . . . . .
S00E S 0.42467(12) 0.55488(12) -0.02093(8) 0.0462(6) Uani 1 1 d . . . . .
S00F S 0.41758(12) 0.07202(11) 0.97636(8) 0.0456(6) Uani 1 1 d . . . . .
S00G S 0.41421(12) 0.51044(11) 0.09111(8) 0.0459(6) Uani 1 1 d . . . . .
S00H S 0.42683(13) -0.04546(11) 0.54482(8) 0.0460(6) Uani 1 1 d . . . . .
S00I S 0.59902(12) 0.24509(11) 0.41170(8) 0.0458(6) Uani 1 1 d . . . . .
S00J S 0.57195(13) 0.29895(11) 0.07643(8) 0.0466(6) Uani 1 1 d . . . . .
S00K S 0.44182(14) 0.21549(12) 0.04934(9) 0.0507(6) Uani 1 1 d . . . . .
S00L S 0.26426(12) -0.02841(12) 1.05296(9) 0.0513(6) Uani 1 1 d . . . . .
S00M S 0.44328(14) 0.45685(12) 0.42565(8) 0.0488(6) Uani 1 1 d . . . . .
S00N S 0.59210(15) 0.29617(12) -0.04339(9) 0.0548(7) Uani 1 1 d . . . . .
S00O S 0.44011(13) 0.30989(13) 0.47688(8) 0.0563(7) Uani 1 1 d . . . . .
S00P S 0.27324(12) 0.23594(13) 0.55915(9) 0.0553(7) Uani 1 1 d . . . . .
S00Q S 0.57636(15) 0.53753(13) 0.45309(9) 0.0567(7) Uani 1 1 d . . . . .
S00R S 0.24379(13) 0.49703(14) 0.05720(9) 0.0573(7) Uani 1 1 d . . . . .
S00S S 0.76692(13) 0.27046(15) 0.44938(10) 0.0652(9) Uani 1 1 d . . . . .
O00T O 0.4401(3) 0.1584(2) 0.70406(19) 0.0328(12) Uani 1 1 d . . . . .
O00U O 0.5420(3) 0.2106(2) -0.20222(18) 0.0287(11) Uani 1 1 d . . . . .
O00V O 0.4679(3) 0.0411(2) 0.70323(19) 0.0322(12) Uani 1 1 d . . . . .
O00W O 0.5209(3) -0.0397(2) 1.17933(18) 0.0301(11) Uani 1 1 d . . . . .
O00X O 0.3093(3) 0.5508(3) -0.19514(19) 0.0361(13) Uani 1 1 d . . . . .
O00Y O 0.5312(3) 0.2113(2) 0.68054(19) 0.0315(12) Uani 1 1 d . . . . .
O00Z O 0.3832(3) 0.4111(2) 0.2057(2) 0.0360(13) Uani 1 1 d . . . . .
O010 O 0.4440(3) 0.1616(2) -0.17938(19) 0.0292(11) Uani 1 1 d . . . . .
C10 C 0.8875(7) 0.3453(5) 0.8781(5) 0.075(2) Uani 1 1 d . U . . .
H10A H 0.908599 0.382758 0.873038 0.112 Uiso 1 1 calc R U . . .
H10B H 0.859330 0.330417 0.844945 0.112 Uiso 1 1 calc R U . . .
H10C H 0.929055 0.319225 0.893006 0.112 Uiso 1 1 calc R U . . .
O011 O 0.5669(3) 0.0904(2) 0.68179(19) 0.0305(11) Uani 1 1 d . . . . .
C11 C 0.4172(5) 0.4386(4) 0.1762(3) 0.0365(10) Uani 1 1 d . U . . .
O012 O 0.6270(3) 0.3448(2) 0.2956(2) 0.0379(13) Uani 1 1 d . . . . .
C12 C 0.8691(7) 0.3643(5) 0.9664(5) 0.070(3) Uani 1 1 d . U . . .
H12A H 0.909326 0.337002 0.980942 0.105 Uiso 1 1 calc R U . . .
H12B H 0.828546 0.362261 0.985254 0.105 Uiso 1 1 calc R U . . .
H12C H 0.890471 0.402840 0.969118 0.105 Uiso 1 1 calc R U . . .
O013 O 0.3206(3) 0.3051(3) 0.30370(19) 0.0380(13) Uani 1 1 d . . . . .
C13 C 0.3696(7) -0.1185(5) 0.9603(5) 0.076(2) Uani 1 1 d . U . . .
H13A H 0.337802 -0.108371 0.984227 0.114 Uiso 1 1 calc R U . . .
H13B H 0.416666 -0.096117 0.968281 0.114 Uiso 1 1 calc R U . . .
H13C H 0.382135 -0.159131 0.963760 0.114 Uiso 1 1 calc R U . . .
O015 O 0.5935(3) 0.3539(2) 0.1797(2) 0.0339(12) Uani 1 1 d . . . . .
C15 C 0.7613(6) 0.3419(4) 0.8946(4) 0.0517(14) Uani 1 1 d . U . . .
H15 H 0.729429 0.346299 0.918108 0.062 Uiso 1 1 calc R U . . .
C14 C 0.3779(7) 0.4033(5) -0.1140(5) 0.071(2) Uani 1 1 d . U . . .
H14A H 0.403161 0.366373 -0.114008 0.107 Uiso 1 1 calc R U . . .
H14B H 0.415143 0.431669 -0.097140 0.107 Uiso 1 1 calc R U . . .
H14C H 0.356254 0.415092 -0.149534 0.107 Uiso 1 1 calc R U . . .
O016 O 0.4311(3) -0.0941(2) 1.20264(19) 0.0329(12) Uani 1 1 d . . . . .
C16 C 0.3582(7) 0.3833(5) -0.0322(4) 0.069(2) Uani 1 1 d . U . . .
H16A H 0.320201 0.385874 -0.011277 0.104 Uiso 1 1 calc R U . . .
H16B H 0.400031 0.409834 -0.018876 0.104 Uiso 1 1 calc R U . . .
H16C H 0.378175 0.344452 -0.030800 0.104 Uiso 1 1 calc R U . . .
O018 O 0.4212(3) 0.4011(2) 0.3216(2) 0.0384(13) Uani 1 1 d . . . . .
C18 C 0.6364(6) 0.3710(5) 0.5416(4) 0.0643(17) Uani 1 1 d . U . . .
H18A H 0.629369 0.412365 0.539062 0.096 Uiso 1 1 calc R U . . .
H18B H 0.586772 0.352461 0.537818 0.096 Uiso 1 1 calc R U . . .
H18C H 0.660666 0.357894 0.514429 0.096 Uiso 1 1 calc R U . . .
C17 C 0.7662(6) 0.3644(5) 0.5955(4) 0.0622(18) Uani 1 1 d . U . . .
H17A H 0.778020 0.356848 0.562105 0.093 Uiso 1 1 calc R U . . .
H17B H 0.794720 0.337882 0.621096 0.093 Uiso 1 1 calc R U . . .
H17C H 0.780706 0.403538 0.606036 0.093 Uiso 1 1 calc R U . . .
O019 O 0.7037(3) 0.1713(3) 0.6953(2) 0.0411(14) Uani 1 1 d . . . . .
C19 C 0.6596(6) 0.3381(4) 0.6303(4) 0.0486(11) Uani 1 1 d . U . . .
H19 H 0.606473 0.332329 0.626886 0.058 Uiso 1 1 calc R U . . .
O01B O 0.2103(3) 0.3206(2) 0.3290(2) 0.0324(12) Uani 1 1 d . . . . .
O01C O 0.1997(3) 0.5740(2) -0.17135(19) 0.0328(12) Uani 1 1 d . . . . .
O01D O 0.1973(3) 0.0446(2) 0.8215(2) 0.0354(13) Uani 1 1 d . . . . .
O01E O 0.3052(3) 0.0790(3) 0.8041(2) 0.0420(15) Uani 1 1 d . . . . .
O01F O 0.8154(3) 0.1997(3) 0.67902(19) 0.0351(13) Uani 1 1 d . . . . .
O01H O 0.6553(3) 0.2655(2) 0.7524(2) 0.0428(14) Uani 1 1 d . . . . .
H01A H 0.674923 0.273515 0.726451 0.064 Uiso 1 1 d R U . . .
H01B H 0.692053 0.271689 0.779211 0.064 Uiso 1 1 d R U . . .
O01I O 0.7087(3) 0.0780(3) 0.7664(3) 0.0465(15) Uani 1 1 d . . . . .
O01J O 0.3543(4) -0.0137(3) 0.7474(2) 0.0489(15) Uani 1 1 d . . . . .
H01C H 0.314494 -0.018833 0.761119 0.073 Uiso 1 1 d R U . . .
H01D H 0.337407 -0.024097 0.715056 0.073 Uiso 1 1 d R U . . .
C01K C 0.4631(5) 0.1935(4) 0.6748(3) 0.0353(10) Uani 1 1 d . U . . .
O01L O 0.3007(4) 0.1737(2) 0.7363(3) 0.0497(16) Uani 1 1 d . . . . .
O01M O 0.5928(4) 0.5284(3) 0.2407(3) 0.068(2) Uani 1 1 d . . . . .
C01O C 0.7439(5) 0.1889(4) 0.6652(3) 0.0350(10) Uani 1 1 d . U . . .
C01P C 0.5004(4) 0.1972(3) -0.1714(3) 0.0296(12) Uani 1 1 d . U . . .
C01Q C 0.2666(4) 0.0595(4) 0.8346(3) 0.0329(11) Uani 1 1 d . U . . .
C01S C 0.2818(5) 0.3110(4) 0.3382(3) 0.0347(9) Uani 1 1 d . U . . .
C01T C 0.4530(4) -0.0590(3) 1.1728(3) 0.0302(13) Uani 1 1 d . U . . .
C01U C 0.5355(5) 0.3217(4) 0.1721(3) 0.0363(10) Uani 1 1 d . U . . .
C01V C 0.5107(5) 0.0553(4) 0.6733(3) 0.0362(10) Uani 1 1 d . U . . .
C01W C 0.2697(4) 0.5610(4) -0.1618(3) 0.0321(12) Uani 1 1 d . U . . .
C01X C 0.5932(5) 0.3169(4) 0.3253(3) 0.0365(10) Uani 1 1 d . U . . .
C01Y C 0.4793(5) 0.4344(4) 0.3287(3) 0.0371(10) Uani 1 1 d . U . . .
C01Z C 0.3239(5) 0.3064(4) 0.3937(3) 0.0357(9) Uani 1 1 d . U . . .
C020 C 0.3951(4) -0.0388(3) 1.1252(3) 0.0319(13) Uani 1 1 d . U . . .
C20 C 0.2421(7) -0.1117(5) 0.8981(5) 0.076(2) Uani 1 1 d . U . . .
H20A H 0.226242 -0.149305 0.883801 0.114 Uiso 1 1 calc R U . . .
H20B H 0.218287 -0.082242 0.873656 0.114 Uiso 1 1 calc R U . . .
H20C H 0.226252 -0.106705 0.930483 0.114 Uiso 1 1 calc R U . . .
C021 C 0.7057(5) 0.1930(4) 0.6087(3) 0.0356(10) Uani 1 1 d . U . . .
C21 C 0.3559(6) -0.0895(5) 0.8724(4) 0.0550(13) Uani 1 1 d . U . . .
H21 H 0.409013 -0.082874 0.876936 0.066 Uiso 1 1 calc R U . . .
C022 C 0.4995(5) 0.4681(4) 0.3785(3) 0.0373(10) Uani 1 1 d . U . . .
C023 C 0.3105(4) 0.5559(4) -0.1057(3) 0.0332(11) Uani 1 1 d . U . . .
C024 C 0.5154(5) 0.2878(4) 0.1228(3) 0.0355(10) Uani 1 1 d . U . . .
C025 C 0.4942(5) 0.0252(4) 0.6215(3) 0.0356(10) Uani 1 1 d . U . . .
C026 C 0.4051(5) 0.2157(4) 0.6281(3) 0.0370(9) Uani 1 1 d . U . . .
C028 C 0.5185(4) 0.2277(4) -0.1196(3) 0.0336(11) Uani 1 1 d . U . . .
C029 C 0.5214(5) 0.2551(4) -0.0222(3) 0.0367(11) Uani 1 1 d . U . . .
C02A C 0.3677(5) 0.4653(4) 0.1282(3) 0.0367(10) Uani 1 1 d . U . . .
C02B C 0.3879(5) 0.5558(4) -0.0877(3) 0.0374(12) Uani 1 1 d . U . . .
H02B H 0.420967 0.556233 -0.110672 0.045 Uiso 1 1 calc R U . . .
C02C C 0.3063(4) 0.0573(4) 0.8909(3) 0.0339(11) Uani 1 1 d . U . . .
C02E C 0.6425(5) 0.2921(4) 0.3740(3) 0.0372(10) Uani 1 1 d . U . . .
C02F C 0.3407(5) 0.0110(4) 1.0365(3) 0.0351(13) Uani 1 1 d . U . . .
C02G C 0.3368(5) 0.0361(4) 0.9903(3) 0.0354(13) Uani 1 1 d . U . . .
C02H C 0.4391(5) -0.0151(4) 0.6063(3) 0.0390(11) Uani 1 1 d . U . . .
H02H H 0.407764 -0.026512 0.628645 0.047 Uiso 1 1 calc R U . . .
C02I C 0.6800(5) 0.2163(4) 0.5097(3) 0.0381(10) Uani 1 1 d . U . . .
C02J C 0.3304(5) 0.5204(4) 0.0406(3) 0.0384(11) Uani 1 1 d . U . . .
C02K C 0.5126(5) 0.2557(4) 0.0266(3) 0.0376(11) Uani 1 1 d . U . . .
C02L C 0.3524(5) 0.2903(4) 0.4932(3) 0.0372(10) Uani 1 1 d . U . . .
C02M C 0.7194(5) 0.0381(4) 0.7387(4) 0.0446(11) Uani 1 1 d . U . . .
H02M H 0.696083 0.040779 0.703154 0.054 Uiso 1 1 calc R U . . .
C02O C 0.6299(5) 0.1840(4) 0.5894(3) 0.0384(10) Uani 1 1 d . U . . .
H02O H 0.597230 0.175041 0.611574 0.046 Uiso 1 1 calc R U . . .
C02P C 0.4573(5) 0.2502(4) 0.1097(3) 0.0381(10) Uani 1 1 d . U . . .
H02P H 0.425181 0.242570 0.132548 0.046 Uiso 1 1 calc R U . . .
C02Q C 0.3342(5) 0.5413(4) -0.0062(3) 0.0372(11) Uani 1 1 d . U . . .
C02R C 0.3802(5) 0.0735(4) 0.9092(3) 0.0373(11) Uani 1 1 d . U . . .
H02R H 0.410755 0.085233 0.886510 0.045 Uiso 1 1 calc R U . . .
C02T C 0.4942(5) -0.0002(4) 0.5247(3) 0.0387(10) Uani 1 1 d . U . . .
C02U C 0.3221(5) -0.0568(4) 1.1101(3) 0.0374(14) Uani 1 1 d . U . . .
H02U H 0.302326 -0.084197 1.129700 0.045 Uiso 1 1 calc R U . . .
C02V C 0.5763(5) 0.2654(4) -0.1047(3) 0.0367(12) Uani 1 1 d . U . . .
H02V H 0.607962 0.275039 -0.127355 0.044 Uiso 1 1 calc R U . . .
C02X C 0.3536(5) 0.2678(4) 0.5400(3) 0.0377(10) Uani 1 1 d . U . . .
C02Z C 0.6822(5) 0.2402(4) 0.4637(3) 0.0392(10) Uani 1 1 d . U . . .
O030 O 0.7306(6) 0.3280(4) 0.8482(4) 0.102(3) Uani 1 1 d . . . . .
C031 C 0.3297(5) 0.2032(4) 0.6149(3) 0.0394(10) Uani 1 1 d . U . . .
H031 H 0.307729 0.177671 0.634879 0.047 Uiso 1 1 calc R U . . .
C032 C 0.5043(5) 0.4993(4) 0.4750(3) 0.0383(10) Uani 1 1 d . U . . .
C033 C 0.4002(5) 0.3105(4) 0.4102(3) 0.0408(10) Uani 1 1 d . U . . .
H033 H 0.431853 0.313670 0.386418 0.049 Uiso 1 1 calc R U . . .
C034 C 0.5590(5) 0.5037(4) 0.3923(3) 0.0407(10) Uani 1 1 d . U . . .
H034 H 0.591581 0.510668 0.369634 0.049 Uiso 1 1 calc R U . . .
C035 C 0.7182(5) 0.3030(4) 0.3916(3) 0.0405(10) Uani 1 1 d . U . . .
H035 H 0.744186 0.327642 0.373187 0.049 Uiso 1 1 calc R U . . .
C036 C 0.2914(5) 0.4590(4) 0.1122(3) 0.0403(10) Uani 1 1 d . U . . .
H036 H 0.264096 0.434728 0.129945 0.048 Uiso 1 1 calc R U . . .
C037 C 0.2891(5) 0.2119(4) 0.7652(4) 0.0447(11) Uani 1 1 d . U . . .
H037 H 0.313745 0.207816 0.800409 0.054 Uiso 1 1 calc R U . . .
C03A C 0.4030(5) 0.1798(4) 0.2413(3) 0.0445(11) Uani 1 1 d . U . . .
H03A H 0.351541 0.174261 0.223595 0.053 Uiso 1 1 calc R U . . .
C03G C 0.6000(6) 0.5734(4) 0.2587(4) 0.0497(11) Uani 1 1 d . U . . .
H03G H 0.648751 0.581090 0.279970 0.060 Uiso 1 1 calc R U . . .
loop_
_atom_site_aniso_label
_atom_site_aniso_U_11
_atom_site_aniso_U_22
_atom_site_aniso_U_33
_atom_site_aniso_U_23
_atom_site_aniso_U_13
_atom_site_aniso_U_12
Dy01 0.02209(16) 0.02994(17) 0.00870(14) 0.00089(12) 0.00337(11) -0.00127(12)
C1 0.051(2) 0.058(2) 0.043(2) -0.002(2) 0.006(2) 0.002(2)
S1 0.0308(9) 0.0554(13) 0.0174(9) 0.0107(8) 0.0046(7) 0.0099(9)
N1 0.070(6) 0.032(4) 0.070(6) 0.001(4) 0.029(5) 0.009(4)
O1 0.036(3) 0.081(4) 0.015(3) -0.005(3) 0.011(2) 0.014(3)
Dy02 0.02144(15) 0.03051(17) 0.00881(14) 0.00039(12) 0.00332(11) -0.00091(12)
N2 0.059(6) 0.055(6) 0.123(10) -0.004(6) 0.035(6) 0.004(5)
C2 0.081(3) 0.077(3) 0.071(3) -0.004(3) 0.004(3) 0.004(3)
O2 0.032(3) 0.046(3) 0.021(3) 0.013(2) -0.001(2) 0.007(2)
Dy03 0.02064(15) 0.02855(17) 0.01033(14) -0.00007(12) 0.00319(11) 0.00068(12)
C3 0.063(4) 0.063(4) 0.055(4) 0.005(3) -0.003(3) 0.006(3)
N3 0.067(5) 0.034(4) 0.063(6) 0.000(4) 0.015(4) 0.014(4)
O3 0.075(5) 0.030(3) 0.094(6) -0.013(4) 0.016(4) 0.005(3)
Dy04 0.02149(15) 0.02735(17) 0.01013(14) -0.00119(12) 0.00354(11) 0.00035(12)
N4 0.059(5) 0.055(5) 0.085(7) -0.005(5) 0.023(5) -0.013(4)
C4 0.072(3) 0.077(3) 0.068(3) -0.001(3) 0.003(3) 0.002(3)
O4 0.032(3) 0.067(4) 0.024(3) -0.004(3) 0.015(2) 0.010(3)
S005 0.0258(9) 0.0643(14) 0.0202(9) 0.0163(9) 0.0041(7) -0.0011(9)
N5 0.088(7) 0.056(6) 0.071(7) 0.000(5) 0.015(6) -0.004(5)
O5 0.031(3) 0.048(3) 0.024(3) 0.007(2) 0.001(2) 0.003(2)
C5 0.065(3) 0.069(3) 0.062(3) 0.000(3) 0.004(3) 0.004(3)
S006 0.0250(9) 0.0705(15) 0.0213(9) 0.0180(9) 0.0051(7) 0.0017(9)
C6 0.073(3) 0.069(3) 0.064(3) -0.004(3) 0.005(3) 0.004(3)
O6 0.203(11) 0.063(6) 0.063(6) -0.006(4) 0.010(7) 0.013(6)
N6 0.088(6) 0.041(4) 0.081(6) -0.002(4) -0.001(5) 0.005(4)
S008 0.0293(9) 0.0617(13) 0.0152(8) 0.0110(9) 0.0038(7) 0.0112(9)
O8 0.245(14) 0.129(10) 0.185(13) 0.021(9) 0.057(11) -0.011(10)
N8 0.107(9) 0.066(7) 0.102(10) 0.006(6) 0.028(7) 0.000(6)
C8 0.078(4) 0.069(4) 0.061(4) 0.000(4) 0.011(4) 0.009(4)
N7 0.092(6) 0.043(5) 0.099(7) -0.006(5) -0.006(5) 0.025(4)
O7 0.161(10) 0.082(7) 0.090(7) 0.018(5) 0.049(7) -0.025(6)
C7 0.076(4) 0.068(4) 0.060(4) -0.002(4) 0.008(4) 0.008(4)
S009 0.0350(10) 0.0530(13) 0.0211(9) 0.0161(9) -0.0010(7) -0.0075(9)
C9 0.067(4) 0.063(4) 0.060(4) 0.004(4) -0.001(3) 0.005(3)
S00A 0.0468(12) 0.0595(14) 0.0219(10) -0.0164(9) 0.0161(8) -0.0187(10)
S00B 0.0461(12) 0.0655(15) 0.0227(10) -0.0185(10) 0.0182(8) -0.0208(11)
S00C 0.0329(10) 0.0791(16) 0.0172(9) 0.0096(10) -0.0015(7) -0.0172(10)
S00D 0.0389(11) 0.0595(14) 0.0233(10) 0.0209(9) -0.0026(8) -0.0070(10)
S00E 0.0317(10) 0.0780(17) 0.0234(10) 0.0162(10) -0.0052(8) -0.0104(10)
S00F 0.0380(11) 0.0750(16) 0.0195(9) 0.0091(10) -0.0024(8) -0.0213(11)
S00G 0.0349(11) 0.0730(16) 0.0244(10) 0.0239(10) -0.0047(8) -0.0060(10)
S00H 0.0516(13) 0.0613(15) 0.0270(11) -0.0213(10) 0.0129(9) -0.0189(11)
S00I 0.0301(10) 0.0780(16) 0.0253(10) 0.0238(11) -0.0022(8) -0.0076(10)
S00J 0.0526(13) 0.0689(16) 0.0234(10) -0.0218(10) 0.0195(9) -0.0214(11)
S00K 0.0510(13) 0.0750(17) 0.0295(11) -0.0218(11) 0.0162(9) -0.0245(12)
S00L 0.0310(10) 0.0876(18) 0.0299(11) 0.0302(12) -0.0046(8) -0.0102(11)
S00M 0.0519(13) 0.0750(17) 0.0238(10) -0.0196(11) 0.0173(9) -0.0185(12)
S00N 0.0619(15) 0.0768(17) 0.0300(11) -0.0266(12) 0.0193(10) -0.0340(13)
S00O 0.0401(12) 0.100(2) 0.0216(10) 0.0233(12) -0.0078(8) -0.0265(12)
S00P 0.0318(11) 0.101(2) 0.0308(11) 0.0321(12) 0.0018(9) 0.0029(12)
S00Q 0.0574(14) 0.0847(19) 0.0324(12) -0.0245(12) 0.0193(10) -0.0259(13)
S00R 0.0312(11) 0.106(2) 0.0320(12) 0.0300(13) 0.0007(9) 0.0055(12)
S00S 0.0298(11) 0.122(2) 0.0385(13) 0.0446(15) -0.0030(9) -0.0085(13)
O00T 0.041(3) 0.037(3) 0.020(3) 0.011(2) 0.008(2) 0.001(2)
O00U 0.036(3) 0.035(3) 0.019(2) -0.003(2) 0.014(2) -0.002(2)
O00V 0.041(3) 0.037(3) 0.021(3) -0.006(2) 0.012(2) 0.003(2)
O00W 0.032(3) 0.037(3) 0.018(2) 0.005(2) -0.002(2) 0.000(2)
O00X 0.030(3) 0.064(4) 0.015(2) 0.003(2) 0.006(2) -0.009(3)
O00Y 0.029(3) 0.044(3) 0.018(2) 0.008(2) -0.002(2) 0.003(2)
O00Z 0.038(3) 0.040(3) 0.029(3) 0.014(2) 0.005(2) 0.008(2)
O010 0.030(3) 0.035(3) 0.022(3) -0.006(2) 0.003(2) -0.004(2)
C10 0.078(5) 0.079(5) 0.067(5) 0.002(4) 0.015(4) 0.002(4)
O011 0.033(3) 0.036(3) 0.022(3) -0.011(2) 0.005(2) -0.007(2)
C11 0.0377(18) 0.0467(18) 0.0261(17) 0.0025(17) 0.0091(16) 0.0009(17)
O012 0.037(3) 0.048(3) 0.027(3) 0.012(3) 0.004(2) 0.004(3)
C12 0.069(5) 0.070(5) 0.067(5) 0.000(5) 0.008(5) -0.006(5)
O013 0.028(3) 0.069(4) 0.019(3) 0.000(3) 0.010(2) -0.009(3)
C13 0.079(5) 0.077(5) 0.066(4) -0.003(4) 0.004(4) 0.009(4)
O015 0.041(3) 0.039(3) 0.023(3) -0.010(2) 0.011(2) -0.003(2)
C15 0.054(3) 0.056(3) 0.043(3) 0.002(3) 0.008(2) -0.003(3)
C14 0.071(4) 0.075(4) 0.066(4) -0.006(4) 0.012(4) 0.000(4)
O016 0.046(3) 0.035(3) 0.020(3) 0.010(2) 0.011(2) 0.005(2)
C16 0.070(4) 0.071(4) 0.060(4) 0.001(3) 0.000(3) 0.000(3)
O018 0.051(3) 0.041(3) 0.024(3) -0.010(2) 0.009(2) 0.003(3)
C18 0.065(3) 0.068(3) 0.053(3) -0.001(3) 0.000(3) 0.003(3)
C17 0.060(3) 0.067(3) 0.055(3) 0.003(3) 0.006(3) -0.001(3)
O019 0.035(3) 0.076(4) 0.014(3) 0.006(3) 0.009(2) -0.007(3)
C19 0.0508(19) 0.0546(19) 0.0391(18) 0.0011(18) 0.0076(18) -0.0007(18)
O01B 0.025(3) 0.046(3) 0.023(3) 0.007(2) -0.001(2) 0.002(2)
O01C 0.028(3) 0.047(3) 0.021(3) 0.006(2) 0.000(2) 0.003(2)
O01D 0.023(3) 0.056(4) 0.025(3) 0.012(3) -0.001(2) 0.000(2)
O01E 0.036(3) 0.074(4) 0.018(3) 0.004(3) 0.010(2) -0.012(3)
O01F 0.024(3) 0.056(4) 0.023(3) 0.009(2) -0.001(2) 0.006(2)
O01H 0.052(4) 0.043(3) 0.030(3) 0.004(3) 0.003(3) -0.015(3)
O01I 0.049(4) 0.040(3) 0.051(4) -0.005(3) 0.011(3) 0.004(3)
O01J 0.060(4) 0.051(4) 0.035(3) 0.001(3) 0.008(3) -0.015(3)
C01K 0.0400(18) 0.0429(18) 0.0238(17) 0.0036(17) 0.0091(16) 0.0020(17)
O01L 0.055(4) 0.037(3) 0.056(4) -0.003(3) 0.011(3) 0.017(3)
O01M 0.088(5) 0.026(3) 0.089(6) -0.012(4) 0.017(4) 0.004(3)
C01O 0.0370(19) 0.044(2) 0.0246(19) 0.0016(18) 0.0091(17) 0.0013(18)
C01P 0.033(2) 0.040(2) 0.019(2) -0.002(2) 0.010(2) 0.002(2)
C01Q 0.036(2) 0.042(2) 0.022(2) 0.0041(19) 0.0091(18) 0.002(2)
C01S 0.0368(17) 0.0446(18) 0.0240(17) 0.0032(17) 0.0095(16) -0.0012(17)
C01T 0.036(3) 0.035(3) 0.021(2) 0.003(2) 0.009(2) 0.003(2)
C01U 0.0382(17) 0.0478(18) 0.0245(17) -0.0006(17) 0.0105(16) 0.0038(17)
C01V 0.0387(19) 0.0454(19) 0.0261(18) 0.0007(18) 0.0109(17) 0.0028(18)
C01W 0.032(2) 0.042(2) 0.023(2) 0.003(2) 0.007(2) -0.005(2)
C01X 0.0389(17) 0.0453(18) 0.0259(17) 0.0031(17) 0.0086(16) 0.0016(17)
C01Y 0.0386(18) 0.0485(19) 0.0253(17) 0.0000(17) 0.0100(16) 0.0048(17)
C01Z 0.0385(17) 0.0454(18) 0.0239(17) 0.0029(16) 0.0087(16) 0.0005(16)
C020 0.037(3) 0.041(3) 0.018(2) 0.006(2) 0.007(2) 0.001(2)
C20 0.078(4) 0.076(4) 0.072(4) -0.001(4) 0.013(4) -0.001(4)
C021 0.0380(18) 0.0454(18) 0.0253(17) 0.0036(17) 0.0111(16) 0.0012(17)
C21 0.058(2) 0.059(2) 0.046(2) 0.001(2) 0.006(2) -0.001(2)
C022 0.0392(18) 0.0482(19) 0.0263(17) -0.0005(17) 0.0112(16) 0.0023(17)
C023 0.035(2) 0.044(2) 0.021(2) -0.001(2) 0.0075(19) 0.000(2)
C024 0.0372(18) 0.0474(19) 0.0241(17) -0.0012(17) 0.0115(16) 0.0012(17)
C025 0.0388(19) 0.0447(19) 0.0249(18) 0.0015(18) 0.0107(17) 0.0026(18)
C026 0.0401(17) 0.0465(18) 0.0257(17) 0.0040(16) 0.0098(16) 0.0008(17)
C028 0.036(2) 0.044(2) 0.022(2) -0.002(2) 0.0087(19) 0.002(2)
C029 0.038(2) 0.049(2) 0.024(2) -0.003(2) 0.0108(19) 0.000(2)
C02A 0.0381(18) 0.0473(19) 0.0250(18) 0.0029(17) 0.0077(17) 0.0008(18)
C02B 0.037(2) 0.049(2) 0.026(2) 0.003(2) 0.0069(19) -0.001(2)
C02C 0.037(2) 0.043(2) 0.023(2) 0.006(2) 0.0101(19) 0.002(2)
C02E 0.0386(17) 0.0475(18) 0.0259(17) 0.0034(17) 0.0081(16) 0.0018(17)
C02F 0.037(3) 0.044(3) 0.025(3) 0.007(2) 0.008(2) 0.002(2)
C02G 0.038(2) 0.045(3) 0.023(2) 0.006(2) 0.009(2) 0.000(2)
C02H 0.042(2) 0.048(2) 0.0283(19) -0.0003(19) 0.0105(18) 0.0001(19)
C02I 0.0399(18) 0.0482(19) 0.0263(18) 0.0050(17) 0.0076(17) 0.0014(18)
C02J 0.039(2) 0.050(2) 0.0255(19) 0.0026(19) 0.0060(18) 0.0015(19)
C02K 0.039(2) 0.049(2) 0.0255(19) -0.0023(19) 0.0109(18) 0.0012(19)
C02L 0.0395(18) 0.0467(18) 0.0257(17) 0.0034(17) 0.0081(16) 0.0013(17)
C02M 0.048(2) 0.052(2) 0.035(2) 0.001(2) 0.0104(19) 0.002(2)
C02O 0.0399(18) 0.0492(18) 0.0271(17) 0.0026(17) 0.0100(16) -0.0009(17)
C02P 0.0397(18) 0.0500(19) 0.0263(18) -0.0017(18) 0.0110(17) -0.0013(18)
C02Q 0.038(2) 0.048(2) 0.025(2) 0.001(2) 0.0064(19) 0.001(2)
C02R 0.040(2) 0.048(2) 0.025(2) 0.006(2) 0.0102(19) -0.001(2)
C02T 0.0408(19) 0.048(2) 0.0275(19) 0.0003(18) 0.0085(17) 0.0019(18)
C02U 0.041(3) 0.047(3) 0.024(3) 0.013(3) 0.007(2) -0.003(3)
C02V 0.040(2) 0.049(2) 0.023(2) -0.005(2) 0.0115(19) -0.003(2)
C02X 0.0402(18) 0.0471(19) 0.0259(18) 0.0043(17) 0.0077(17) 0.0012(17)
C02Z 0.0404(17) 0.0501(18) 0.0270(17) 0.0043(17) 0.0075(16) 0.0014(17)
O030 0.142(9) 0.068(6) 0.082(7) 0.009(5) -0.007(6) -0.028(6)
C031 0.0417(18) 0.0497(19) 0.0273(18) 0.0067(18) 0.0088(17) 0.0008(18)
C032 0.0397(18) 0.0497(19) 0.0268(18) -0.0009(18) 0.0103(17) 0.0012(18)
C033 0.0417(17) 0.0514(18) 0.0286(17) 0.0043(17) 0.0062(16) -0.0011(17)
C034 0.0425(19) 0.0524(19) 0.0284(18) -0.0004(18) 0.0103(17) 0.0000(18)
C035 0.0416(18) 0.0506(18) 0.0288(17) 0.0061(17) 0.0072(17) -0.0011(17)
C036 0.0410(18) 0.0506(19) 0.0284(18) 0.0035(18) 0.0061(17) -0.0004(18)
C037 0.048(2) 0.052(2) 0.035(2) 0.002(2) 0.0104(19) 0.003(2)
C03A 0.0452(18) 0.0519(19) 0.0343(18) 0.0009(18) 0.0049(17) 0.0010(18)
C03G 0.050(2) 0.055(2) 0.0398(19) 0.0008(19) 0.0037(19) 0.0025(19)
loop_
_atom_type_symbol
_atom_type_description
_atom_type_scat_dispersion_real
_atom_type_scat_dispersion_imag
_atom_type_scat_source
C C 0.0033 0.0016 'International Tables Vol C Tables 4.2.6.8 and 6.1.1.4'
H H 0.0000 0.0000 'International Tables Vol C Tables 4.2.6.8 and 6.1.1.4'
Dy Dy -0.1892 4.4098 'International Tables Vol C Tables 4.2.6.8 and 6.1.1.4'
N N 0.0061 0.0033 'International Tables Vol C Tables 4.2.6.8 and 6.1.1.4'
O O 0.0106 0.0060 'International Tables Vol C Tables 4.2.6.8 and 6.1.1.4'
S S 0.1246 0.1234 'International Tables Vol C Tables 4.2.6.8 and 6.1.1.4'
loop_
_geom_angle_atom_site_label_1
_geom_angle_atom_site_label_2
_geom_angle_atom_site_label_3
_geom_angle
_geom_angle_site_symmetry_1
_geom_angle_site_symmetry_3
_geom_angle_publ_flag
O00T Dy01 O00V 72.76(19) . . ?
O00T Dy01 O00W 119.57(18) . 3_657 ?
O00T Dy01 O010 79.70(18) . 1_556 ?
O00T Dy01 O01C 83.37(18) . 2_545 ?
O00T Dy01 O01E 142.0(2) . . ?
O00T Dy01 O01J 139.8(2) . . ?
O00T Dy01 O01L 71.8(2) . . ?
O00V Dy01 O00W 79.92(18) . 3_657 ?
O00V Dy01 O010 124.04(17) . 1_556 ?
O00V Dy01 O01C 78.36(18) . 2_545 ?
O00V Dy01 O01J 71.8(2) . . ?
O00V Dy01 O01L 135.7(2) . . ?
O00W Dy01 O010 72.89(17) 3_657 1_556 ?
O00W Dy01 O01J 71.54(19) 3_657 . ?
O00W Dy01 O01L 141.7(2) 3_657 . ?
O010 Dy01 O01J 137.01(18) 1_556 . ?
O010 Dy01 O01L 73.90(19) 1_556 . ?
O01C Dy01 O00W 141.46(18) 2_545 3_657 ?
O01C Dy01 O010 145.21(18) 2_545 1_556 ?
O01C Dy01 O01J 71.59(19) 2_545 . ?
O01C Dy01 O01L 72.0(2) 2_545 . ?
O01E Dy01 O00V 144.4(2) . . ?
O01E Dy01 O00W 84.07(19) . 3_657 ?
O01E Dy01 O010 80.06(19) . 1_556 ?
O01E Dy01 O01C 95.64(18) . 2_545 ?
O01E Dy01 O01J 73.0(2) . . ?
O01E Dy01 O01L 71.8(2) . . ?
O01L Dy01 O01J 125.6(2) . . ?
N2 C1 H1 120.1 . . ?
N2 C1 O6 119.9(12) . . ?
O6 C1 H1 120.1 . . ?
C01Z S1 C02L 93.9(4) . . ?
C9 N1 C8 119.9(8) . . ?
C02M N1 C8 120.3(9) . . ?
C02M N1 C9 119.7(9) . . ?
C01Y O1 Dy04 165.9(6) . . ?
O00U Dy02 O00Y 79.78(17) 1_556 . ?
O00U Dy02 O011 123.23(17) 1_556 . ?
O00U Dy02 O01B 78.47(17) 1_556 4_666 ?
O00U Dy02 O01H 72.23(19) 1_556 . ?
O00U Dy02 O01I 134.52(19) 1_556 . ?
O00Y Dy02 O011 72.72(18) . . ?
O00Y Dy02 O01H 71.33(18) . . ?
O00Y Dy02 O01I 142.4(2) . . ?
O011 Dy02 O01H 136.85(18) . . ?
O011 Dy02 O01I 74.15(19) . . ?
O016 Dy02 O00U 71.72(18) 3_657 1_556 ?
O016 Dy02 O00Y 118.34(18) 3_657 . ?
O016 Dy02 O011 79.26(18) 3_657 . ?
O016 Dy02 O01B 84.37(18) 3_657 4_666 ?
O016 Dy02 O01H 139.80(19) 3_657 . ?
O016 Dy02 O01I 71.5(2) 3_657 . ?
O019 Dy02 O00U 145.8(2) . 1_556 ?
O019 Dy02 O00Y 83.76(18) . . ?
O019 Dy02 O011 79.03(19) . . ?
O019 Dy02 O016 142.1(2) . 3_657 ?
O019 Dy02 O01B 96.76(18) . 4_666 ?
O019 Dy02 O01H 74.1(2) . . ?
O019 Dy02 O01I 72.9(2) . . ?
O01B Dy02 O00Y 141.15(18) 4_666 . ?
O01B Dy02 O011 145.74(18) 4_666 . ?
O01B Dy02 O01H 71.53(19) 4_666 . ?
O01B Dy02 O01I 72.17(19) 4_666 . ?
O01I Dy02 O01H 126.7(2) . . ?
C1 N2 C14 131.8(12) . . ?
C1 N2 C16 120.8(10) . . ?
C14 N2 C16 107.3(10) . . ?
H2A C2 H2B 109.5 . . ?
H2A C2 H2C 109.5 . . ?
H2B C2 H2C 109.5 . . ?
N7 C2 H2A 109.5 . . ?
N7 C2 H2B 109.5 . . ?
N7 C2 H2C 109.5 . . ?
C01X O2 Dy03 139.1(5) . . ?
O2 Dy03 O018 72.87(19) . . ?
O3 Dy03 O2 73.3(2) . . ?
O3 Dy03 O018 134.0(2) . . ?
O3 Dy03 O01F 78.4(2) . 4_565 ?
O4 Dy03 O2 79.17(19) . . ?
O4 Dy03 O3 79.9(3) . . ?
O4 Dy03 O00Z 78.3(2) . . ?
O4 Dy03 O018 122.4(2) . . ?
O4 Dy03 O01F 82.21(19) . 4_565 ?
O00Z Dy03 O2 124.90(19) . . ?
O00Z Dy03 O3 147.6(2) . . ?
O00Z Dy03 O018 78.3(2) . . ?
O00Z Dy03 O01F 75.2(2) . 4_565 ?
O013 Dy03 O2 98.72(18) . . ?
O013 Dy03 O3 80.8(3) . . ?
O013 Dy03 O4 160.3(2) . . ?
O013 Dy03 O00Z 117.5(2) . . ?
O013 Dy03 O018 74.6(2) . . ?
O013 Dy03 O01F 90.32(18) . 4_565 ?
O01F Dy03 O2 148.30(19) 4_565 . ?
O01F Dy03 O018 138.72(19) 4_565 . ?
H3A C3 H3B 109.5 . . ?
H3A C3 H3C 109.5 . . ?
H3B C3 H3C 109.5 . . ?
N3 C3 H3A 109.5 . . ?
N3 C3 H3B 109.5 . . ?
N3 C3 H3C 109.5 . . ?
C7 N3 C3 118.6(8) . . ?
C037 N3 C3 118.8(8) . . ?
C037 N3 C7 122.5(9) . . ?
C03A O3 Dy03 153.2(7) . . ?
O1 Dy04 O5 79.19(18) . . ?
O1 Dy04 O012 78.1(2) . . ?
O1 Dy04 O015 124.4(2) . . ?
O1 Dy04 O01D 81.56(18) . 4_665 ?
O1 Dy04 O01M 79.9(3) . . ?
O5 Dy04 O015 73.20(19) . . ?
O5 Dy04 O01D 148.81(19) . 4_665 ?
O00X Dy04 O1 159.5(2) 3_665 . ?
O00X Dy04 O5 98.44(18) 3_665 . ?
O00X Dy04 O012 118.7(2) 3_665 . ?
O00X Dy04 O015 73.18(19) 3_665 . ?
O00X Dy04 O01D 91.12(18) 3_665 4_665 ?
O00X Dy04 O01M 79.9(2) 3_665 . ?
O012 Dy04 O5 123.55(19) . . ?
O012 Dy04 O015 78.67(19) . . ?
O012 Dy04 O01D 75.3(2) . 4_665 ?
O012 Dy04 O01M 148.2(2) . . ?
O01D Dy04 O015 137.88(18) 4_665 . ?
O01M Dy04 O5 73.7(2) . . ?
O01M Dy04 O015 133.1(2) . . ?
O01M Dy04 O01D 79.0(2) . 4_665 ?
C10 N4 C12 119.3(10) . . ?
C15 N4 C10 120.7(10) . . ?
C15 N4 C12 120.0(10) . . ?
H4A C4 H4B 109.5 . . ?
H4A C4 H4C 109.5 . . ?
H4B C4 H4C 109.5 . . ?
N7 C4 H4A 109.5 . . ?
N7 C4 H4B 109.5 . . ?
N7 C4 H4C 109.5 . . ?
C01U O4 Dy03 168.8(6) . . ?
C02C S005 C02G 94.2(4) . . ?
C18 N5 C17 115.0(10) . . ?
C19 N5 C18 124.6(11) . . ?
C19 N5 C17 120.4(10) . . ?
C11 O5 Dy04 139.6(5) . . ?
H5A C5 H5B 109.5 . . ?
H5A C5 H5C 109.5 . . ?
H5B C5 H5C 109.5 . . ?
N6 C5 H5A 109.5 . . ?
N6 C5 H5B 109.5 . . ?
N6 C5 H5C 109.5 . . ?
C021 S006 C02I 94.4(4) . . ?
H6A C6 H6B 109.5 . . ?
H6A C6 H6C 109.5 . . ?
H6B C6 H6C 109.5 . . ?
N6 C6 H6A 109.5 . . ?
N6 C6 H6B 109.5 . . ?
N6 C6 H6C 109.5 . . ?
C6 N6 C5 116.1(9) . . ?
C03A N6 C5 119.5(9) . . ?
C03A N6 C6 123.7(10) . . ?
C023 S008 C02Q 93.8(4) . . ?
C13 N8 C20 115.3(11) . . ?
C21 N8 C13 126.2(13) . . ?
C21 N8 C20 118.3(12) . . ?
N1 C8 H8A 109.5 . . ?
N1 C8 H8B 109.5 . . ?
N1 C8 H8C 109.5 . . ?
H8A C8 H8B 109.5 . . ?
H8A C8 H8C 109.5 . . ?
H8B C8 H8C 109.5 . . ?
C4 N7 C2 116.4(9) . . ?
C03G N7 C2 119.2(10) . . ?
C03G N7 C4 122.3(10) . . ?
N3 C7 H7A 109.5 . . ?
N3 C7 H7B 109.5 . . ?
N3 C7 H7C 109.5 . . ?
H7A C7 H7B 109.5 . . ?
H7A C7 H7C 109.5 . . ?
H7B C7 H7C 109.5 . . ?
C020 S009 C02F 94.4(4) . . ?
N1 C9 H9A 109.5 . . ?
N1 C9 H9B 109.5 . . ?
N1 C9 H9C 109.5 . . ?
H9A C9 H9B 109.5 . . ?
H9A C9 H9C 109.5 . . ?
H9B C9 H9C 109.5 . . ?
C025 S00A C02T 94.7(4) . . ?
C028 S00B C029 95.2(4) . . ?
C02O S00C C02I 94.8(4) . . ?
C026 S00D C02X 94.7(4) . . ?
C02B S00E C02Q 94.3(4) . . ?
C02R S00F C02G 94.6(4) . . ?
C02A S00G C02J 94.3(4) . . ?
C02H S00H C02T 95.2(4) . . ?
C02E S00I C02Z 94.6(4) . . ?
C024 S00J C02K 95.4(4) . . ?
C02P S00K C02K 95.2(4) . . ?
C02U S00L C02F 94.1(4) . . ?
C022 S00M C032 94.8(4) . . ?
C02V S00N C029 95.6(4) . . ?
C033 S00O C02L 94.0(4) . . ?
C031 S00P C02X 94.3(4) . . ?
C034 S00Q C032 95.0(4) . . ?
C036 S00R C02J 94.4(4) . . ?
C035 S00S C02Z 94.7(4) . . ?
C01K O00T Dy01 175.4(5) . . ?
C01P O00U Dy02 136.8(5) . 1_554 ?
C01V O00V Dy01 135.9(5) . . ?
C01T O00W Dy01 111.1(4) . 3_657 ?
C01W O00X Dy04 155.0(6) . 3_665 ?
C01K O00Y Dy02 112.1(5) . . ?
C11 O00Z Dy03 136.5(5) . . ?
C01P O010 Dy01 134.4(4) . 1_554 ?
N4 C10 H10A 109.5 . . ?
N4 C10 H10B 109.5 . . ?
N4 C10 H10C 109.5 . . ?
H10A C10 H10B 109.5 . . ?
H10A C10 H10C 109.5 . . ?
H10B C10 H10C 109.5 . . ?
C01V O011 Dy02 135.5(5) . . ?
O5 C11 C02A 115.7(7) . . ?
O00Z C11 O5 127.1(7) . . ?
O00Z C11 C02A 117.2(7) . . ?
C01X O012 Dy04 138.0(5) . . ?
N4 C12 H12A 109.5 . . ?
N4 C12 H12B 109.5 . . ?
N4 C12 H12C 109.5 . . ?
H12A C12 H12B 109.5 . . ?
H12A C12 H12C 109.5 . . ?
H12B C12 H12C 109.5 . . ?
C01S O013 Dy03 157.9(6) . . ?
N8 C13 H13A 109.5 . . ?
N8 C13 H13B 109.5 . . ?
N8 C13 H13C 109.5 . . ?
H13A C13 H13B 109.5 . . ?
H13A C13 H13C 109.5 . . ?
H13B C13 H13C 109.5 . . ?
C01U O015 Dy04 118.6(5) . . ?
N4 C15 H15 118.5 . . ?
O030 C15 N4 123.1(11) . . ?
O030 C15 H15 118.5 . . ?
N2 C14 H14A 109.5 . . ?
N2 C14 H14B 109.5 . . ?
N2 C14 H14C 109.5 . . ?
H14A C14 H14B 109.5 . . ?
H14A C14 H14C 109.5 . . ?
H14B C14 H14C 109.5 . . ?
C01T O016 Dy02 174.4(5) . 3_657 ?
N2 C16 H16A 109.5 . . ?
N2 C16 H16B 109.5 . . ?
N2 C16 H16C 109.5 . . ?
H16A C16 H16B 109.5 . . ?
H16A C16 H16C 109.5 . . ?
H16B C16 H16C 109.5 . . ?
C01Y O018 Dy03 119.4(5) . . ?
N5 C18 H18A 109.5 . . ?
N5 C18 H18B 109.5 . . ?
N5 C18 H18C 109.5 . . ?
H18A C18 H18B 109.5 . . ?
H18A C18 H18C 109.5 . . ?
H18B C18 H18C 109.5 . . ?
N5 C17 H17A 109.5 . . ?
N5 C17 H17B 109.5 . . ?
N5 C17 H17C 109.5 . . ?
H17A C17 H17B 109.5 . . ?
H17A C17 H17C 109.5 . . ?
H17B C17 H17C 109.5 . . ?
C01O O019 Dy02 166.1(6) . . ?
N5 C19 O7 120.7(10) . . ?
N5 C19 H19 119.7 . . ?
O7 C19 H19 119.7 . . ?
C01S O01B Dy02 131.0(5) . 4_565 ?
C01W O01C Dy01 131.5(5) . 2 ?
C01Q O01D Dy04 126.5(5) . 4_566 ?
C01Q O01E Dy01 164.3(6) . . ?
C01O O01F Dy03 129.5(5) . 4_666 ?
Dy02 O01H H01A 109.3 . . ?
Dy02 O01H H01B 109.4 . . ?
H01A O01H H01B 104.4 . . ?
C02M O01I Dy02 131.5(6) . . ?
Dy01 O01J H01C 110.3 . . ?
Dy01 O01J H01D 109.9 . . ?
H01C O01J H01D 103.7 . . ?
O00T C01K O00Y 125.5(7) . . ?
O00T C01K C026 117.9(7) . . ?
O00Y C01K C026 116.6(7) . . ?
C037 O01L Dy01 131.1(6) . . ?
C03G O01M Dy04 152.8(8) . . ?
O019 C01O O01F 124.3(7) . . ?
O019 C01O C021 117.3(7) . . ?
O01F C01O C021 118.2(7) . . ?
O00U C01P O010 127.5(7) . . ?
O00U C01P C028 115.8(7) . . ?
O010 C01P C028 116.6(6) . . ?
O01D C01Q O01E 124.9(7) . . ?
O01D C01Q C02C 118.4(7) . . ?
O01E C01Q C02C 116.6(7) . . ?
O013 C01S C01Z 117.7(7) . . ?
O01B C01S O013 124.8(7) . . ?
O01B C01S C01Z 117.5(7) . . ?
O00W C01T C020 116.9(6) . . ?
O016 C01T O00W 124.7(7) . . ?
O016 C01T C020 118.3(7) . . ?
O4 C01U C024 116.8(7) . . ?
O015 C01U O4 124.6(8) . . ?
O015 C01U C024 118.5(7) . . ?
O00V C01V O011 128.3(7) . . ?
O00V C01V C025 115.4(7) . . ?
O011 C01V C025 116.2(7) . . ?
O00X C01W C023 116.8(7) . . ?
O01C C01W O00X 126.2(7) . . ?
O01C C01W C023 117.0(7) . . ?
O2 C01X O012 126.8(7) . . ?
O2 C01X C02E 115.9(7) . . ?
O012 C01X C02E 117.3(7) . . ?
O1 C01Y O018 125.0(8) . . ?
O1 C01Y C022 116.9(8) . . ?
O018 C01Y C022 118.1(7) . . ?
C01S C01Z S1 118.5(6) . . ?
C033 C01Z S1 117.1(6) . . ?
C033 C01Z C01S 124.2(7) . . ?
C01T C020 S009 117.0(6) . . ?
C02U C020 S009 117.3(6) . . ?
C02U C020 C01T 125.7(7) . . ?
N8 C20 H20A 109.5 . . ?
N8 C20 H20B 109.5 . . ?
N8 C20 H20C 109.5 . . ?
H20A C20 H20B 109.5 . . ?
H20A C20 H20C 109.5 . . ?
H20B C20 H20C 109.5 . . ?
C01O C021 S006 119.6(6) . . ?
C02O C021 S006 116.6(6) . . ?
C02O C021 C01O 123.8(7) . . ?
O8 C21 H21 122.0 . . ?
N8 C21 O8 116.1(12) . . ?
N8 C21 H21 122.0 . . ?
C01Y C022 S00M 118.3(6) . . ?
C034 C022 S00M 116.1(6) . . ?
C034 C022 C01Y 125.5(8) . . ?
C01W C023 S008 118.2(6) . . ?
C02B C023 S008 116.7(6) . . ?
C02B C023 C01W 125.0(7) . . ?
C01U C024 S00J 117.8(6) . . ?
C02P C024 S00J 116.3(6) . . ?
C02P C024 C01U 125.9(7) . . ?
C01V C025 S00A 118.9(6) . . ?
C02H C025 S00A 116.3(6) . . ?
C02H C025 C01V 124.8(7) . . ?
C01K C026 S00D 115.8(6) . . ?
C031 C026 S00D 117.5(6) . . ?
C031 C026 C01K 126.6(8) . . ?
C01P C028 S00B 119.5(6) . . ?
C02V C028 S00B 116.2(6) . . ?
C02V C028 C01P 124.2(7) . . ?
S00N C029 S00B 113.1(4) . . ?
C02K C029 S00B 123.5(7) . . ?
C02K C029 S00N 123.4(7) . . ?
C11 C02A S00G 117.0(6) . . ?
C036 C02A S00G 117.4(6) . . ?
C036 C02A C11 125.5(8) . . ?
S00E C02B H02B 120.8 . . ?
C023 C02B S00E 118.4(6) . . ?
C023 C02B H02B 120.8 . . ?
C01Q C02C S005 119.8(6) . . ?
C02R C02C S005 116.9(6) . . ?
C02R C02C C01Q 123.2(7) . . ?
C01X C02E S00I 118.4(6) . . ?
C035 C02E S00I 117.0(6) . . ?
C035 C02E C01X 124.6(8) . . ?
S009 C02F S00L 114.5(4) . . ?
C02G C02F S009 121.2(6) . . ?
C02G C02F S00L 124.3(6) . . ?
S00F C02G S005 113.5(4) . . ?
C02F C02G S005 125.3(6) . . ?
C02F C02G S00F 121.2(6) . . ?
S00H C02H H02H 120.4 . . ?
C025 C02H S00H 119.1(6) . . ?
C025 C02H H02H 120.4 . . ?
S00C C02I S006 113.8(4) . . ?
C02Z C02I S006 124.3(7) . . ?
C02Z C02I S00C 121.9(6) . . ?
S00G C02J S00R 113.7(4) . . ?
C02Q C02J S00G 121.8(7) . . ?
C02Q C02J S00R 124.5(6) . . ?
S00K C02K S00J 112.9(4) . . ?
C029 C02K S00J 122.3(7) . . ?
C029 C02K S00K 124.8(7) . . ?
S00O C02L S1 113.9(4) . . ?
C02X C02L S1 126.2(7) . . ?
C02X C02L S00O 119.8(6) . . ?
N1 C02M H02M 117.0 . . ?
O01I C02M N1 126.0(9) . . ?
O01I C02M H02M 117.0 . . ?
S00C C02O H02O 120.6 . . ?
C021 C02O S00C 118.9(6) . . ?
C021 C02O H02O 120.6 . . ?
S00K C02P H02P 120.4 . . ?
C024 C02P S00K 119.2(6) . . ?
C024 C02P H02P 120.4 . . ?
S00E C02Q S008 114.2(4) . . ?
C02J C02Q S008 125.2(7) . . ?
C02J C02Q S00E 120.5(6) . . ?
S00F C02R H02R 120.9 . . ?
C02C C02R S00F 118.2(6) . . ?
C02C C02R H02R 120.9 . . ?
S00H C02T S00A 114.1(4) . . ?
C02T C02T S00A 122.4(9) 3_656 . ?
C02T C02T S00H 123.5(9) 3_656 . ?
S00L C02U H02U 120.7 . . ?
C020 C02U S00L 118.7(6) . . ?
C020 C02U H02U 120.7 . . ?
S00N C02V H02V 120.2 . . ?
C028 C02V S00N 119.5(6) . . ?
C028 C02V H02V 120.2 . . ?
S00D C02X S00P 113.8(4) . . ?
C02L C02X S00D 120.7(7) . . ?
C02L C02X S00P 125.4(7) . . ?
S00I C02Z S00S 114.0(4) . . ?
C02I C02Z S00I 122.3(7) . . ?
C02I C02Z S00S 123.8(7) . . ?
S00P C031 H031 120.9 . . ?
C026 C031 S00P 118.2(7) . . ?
C026 C031 H031 120.9 . . ?
S00Q C032 S00M 113.8(4) . . ?
C032 C032 S00M 122.3(9) 3_666 . ?
C032 C032 S00Q 123.9(9) 3_666 . ?
S00O C033 H033 120.7 . . ?
C01Z C033 S00O 118.7(7) . . ?
C01Z C033 H033 120.7 . . ?
S00Q C034 H034 120.2 . . ?
C022 C034 S00Q 119.6(7) . . ?
C022 C034 H034 120.2 . . ?
S00S C035 H035 120.7 . . ?
C02E C035 S00S 118.6(7) . . ?
C02E C035 H035 120.7 . . ?
S00R C036 H036 120.8 . . ?
C02A C036 S00R 118.3(7) . . ?
C02A C036 H036 120.8 . . ?
N3 C037 H037 116.0 . . ?
O01L C037 N3 127.9(9) . . ?
O01L C037 H037 116.0 . . ?
O3 C03A N6 127.3(9) . . ?
O3 C03A H03A 116.4 . . ?
N6 C03A H03A 116.4 . . ?
N7 C03G H03G 115.1 . . ?
O01M C03G N7 129.8(10) . . ?
O01M C03G H03G 115.1 . . ?
loop_
_geom_bond_atom_site_label_1
_geom_bond_atom_site_label_2
_geom_bond_distance
_geom_bond_site_symmetry_2
_geom_bond_publ_flag
Dy01 O00T 2.286(5) . ?
Dy01 O00V 2.342(5) . ?
Dy01 O00W 2.388(5) 3_657 ?
Dy01 O010 2.453(5) 1_556 ?
Dy01 O01C 2.379(5) 2_545 ?
Dy01 O01E 2.292(5) . ?
Dy01 O01J 2.483(6) . ?
Dy01 O01L 2.480(6) . ?
C1 H1 0.9300 . ?
C1 N2 1.241(12) . ?
C1 O6 1.334(12) . ?
S1 C01Z 1.753(8) . ?
S1 C02L 1.759(8) . ?
N1 C8 1.440(13) . ?
N1 C9 1.430(12) . ?
N1 C02M 1.297(11) . ?
O1 Dy04 2.276(5) . ?
O1 C01Y 1.231(9) . ?
Dy02 O00U 2.350(5) 1_556 ?
Dy02 O00Y 2.380(5) . ?
Dy02 O011 2.431(5) . ?
Dy02 O016 2.302(5) 3_657 ?
Dy02 O019 2.291(5) . ?
Dy02 O01B 2.366(5) 4_666 ?
Dy02 O01H 2.474(5) . ?
Dy02 O01I 2.468(6) . ?
N2 C14 1.342(14) . ?
N2 C16 1.505(14) . ?
C2 H2A 0.9600 . ?
C2 H2B 0.9600 . ?
C2 H2C 0.9600 . ?
C2 N7 1.417(14) . ?
O2 Dy03 2.354(5) . ?
O2 C01X 1.254(9) . ?
Dy03 O3 2.330(6) . ?
Dy03 O4 2.273(5) . ?
Dy03 O00Z 2.306(5) . ?
Dy03 O013 2.236(5) . ?
Dy03 O018 2.391(5) . ?
Dy03 O01F 2.345(5) 4_565 ?
C3 H3A 0.9600 . ?
C3 H3B 0.9600 . ?
C3 H3C 0.9600 . ?
C3 N3 1.435(12) . ?
N3 C7 1.431(13) . ?
N3 C037 1.298(11) . ?
O3 C03A 1.177(11) . ?
Dy04 O5 2.356(5) . ?
Dy04 O00X 2.248(5) 3_665 ?
Dy04 O012 2.301(5) . ?
Dy04 O015 2.375(5) . ?
Dy04 O01D 2.358(5) 4_665 ?
Dy04 O01M 2.339(6) . ?
N4 C10 1.390(14) . ?
N4 C12 1.446(14) . ?
N4 C15 1.330(12) . ?
C4 H4A 0.9600 . ?
C4 H4B 0.9600 . ?
C4 H4C 0.9600 . ?
C4 N7 1.398(14) . ?
O4 C01U 1.251(9) . ?
S005 C02C 1.756(8) . ?
S005 C02G 1.768(8) . ?
N5 C18 1.421(13) . ?
N5 C17 1.431(13) . ?
N5 C19 1.278(13) . ?
O5 C11 1.266(9) . ?
C5 H5A 0.9600 . ?
C5 H5B 0.9600 . ?
C5 H5C 0.9600 . ?
C5 N6 1.439(13) . ?
S006 C021 1.753(8) . ?
S006 C02I 1.769(8) . ?
C6 H6A 0.9600 . ?
C6 H6B 0.9600 . ?
C6 H6C 0.9600 . ?
C6 N6 1.414(13) . ?
N6 C03A 1.318(12) . ?
S008 C023 1.757(8) . ?
S008 C02Q 1.758(8) . ?
O8 C21 1.474(17) . ?
N8 C13 1.432(15) . ?
N8 C20 1.483(15) . ?
N8 C21 1.211(14) . ?
C8 H8A 0.9600 . ?
C8 H8B 0.9600 . ?
C8 H8C 0.9600 . ?
N7 C03G 1.339(12) . ?
O7 C19 1.322(13) . ?
C7 H7A 0.9600 . ?
C7 H7B 0.9600 . ?
C7 H7C 0.9600 . ?
S009 C020 1.748(8) . ?
S009 C02F 1.758(8) . ?
C9 H9A 0.9600 . ?
C9 H9B 0.9600 . ?
C9 H9C 0.9600 . ?
S00A C025 1.764(8) . ?
S00A C02T 1.774(9) . ?
S00B C028 1.757(8) . ?
S00B C029 1.787(8) . ?
S00C C02I 1.752(8) . ?
S00C C02O 1.722(8) . ?
S00D C026 1.742(8) . ?
S00D C02X 1.759(8) . ?
S00E C02B 1.720(8) . ?
S00E C02Q 1.754(8) . ?
S00F C02G 1.757(8) . ?
S00F C02R 1.732(8) . ?
S00G C02A 1.751(8) . ?
S00G C02J 1.760(8) . ?
S00H C02H 1.724(8) . ?
S00H C02T 1.751(9) . ?
S00I C02E 1.755(8) . ?
S00I C02Z 1.763(8) . ?
S00J C024 1.759(8) . ?
S00J C02K 1.780(8) . ?
S00K C02K 1.764(8) . ?
S00K C02P 1.737(8) . ?
S00L C02F 1.760(8) . ?
S00L C02U 1.736(8) . ?
S00M C022 1.771(8) . ?
S00M C032 1.775(8) . ?
S00N C029 1.754(8) . ?
S00N C02V 1.720(8) . ?
S00O C02L 1.757(8) . ?
S00O C033 1.727(8) . ?
S00P C02X 1.768(8) . ?
S00P C031 1.740(8) . ?
S00Q C032 1.748(8) . ?
S00Q C034 1.736(8) . ?
S00R C02J 1.766(8) . ?
S00R C036 1.730(8) . ?
S00S C02Z 1.767(9) . ?
S00S C035 1.732(8) . ?
O00T C01K 1.245(9) . ?
O00U C01P 1.248(8) . ?
O00V C01V 1.251(9) . ?
O00W C01T 1.253(9) . ?
O00X C01W 1.259(9) . ?
O00Y C01K 1.247(9) . ?
O00Z C11 1.253(9) . ?
O010 C01P 1.268(9) . ?
C10 H10A 0.9600 . ?
C10 H10B 0.9600 . ?
C10 H10C 0.9600 . ?
O011 C01V 1.258(9) . ?
C11 C02A 1.489(11) . ?
O012 C01X 1.261(9) . ?
C12 H12A 0.9600 . ?
C12 H12B 0.9600 . ?
C12 H12C 0.9600 . ?
O013 C01S 1.260(9) . ?
C13 H13A 0.9600 . ?
C13 H13B 0.9600 . ?
C13 H13C 0.9600 . ?
O015 C01U 1.243(9) . ?
C15 H15 0.9300 . ?
C15 O030 1.254(12) . ?
C14 H14A 0.9600 . ?
C14 H14B 0.9600 . ?
C14 H14C 0.9600 . ?
O016 C01T 1.245(9) . ?
C16 H16A 0.9600 . ?
C16 H16B 0.9600 . ?
C16 H16C 0.9600 . ?
O018 C01Y 1.259(10) . ?
C18 H18A 0.9600 . ?
C18 H18B 0.9600 . ?
C18 H18C 0.9600 . ?
C17 H17A 0.9600 . ?
C17 H17B 0.9600 . ?
C17 H17C 0.9600 . ?
O019 C01O 1.243(9) . ?
C19 H19 0.9300 . ?
O01B C01S 1.249(9) . ?
O01C C01W 1.240(9) . ?
O01D C01Q 1.243(9) . ?
O01E C01Q 1.244(9) . ?
O01F C01O 1.255(9) . ?
O01H H01A 0.8519 . ?
O01H H01B 0.8515 . ?
O01I C02M 1.214(10) . ?
O01J H01C 0.8666 . ?
O01J H01D 0.8663 . ?
C01K C026 1.495(11) . ?
O01L C037 1.208(10) . ?
O01M C03G 1.133(11) . ?
C01O C021 1.483(10) . ?
C01P C028 1.497(10) . ?
C01Q C02C 1.483(10) . ?
C01S C01Z 1.478(10) . ?
C01T C020 1.494(10) . ?
C01U C024 1.481(11) . ?
C01V C025 1.491(11) . ?
C01W C023 1.486(10) . ?
C01X C02E 1.484(11) . ?
C01Y C022 1.491(11) . ?
C01Z C033 1.320(11) . ?
C020 C02U 1.325(11) . ?
C20 H20A 0.9600 . ?
C20 H20B 0.9600 . ?
C20 H20C 0.9600 . ?
C021 C02O 1.334(11) . ?
C21 H21 0.9300 . ?
C022 C034 1.316(11) . ?
C023 C02B 1.340(10) . ?
C024 C02P 1.326(11) . ?
C025 C02H 1.337(11) . ?
C026 C031 1.328(11) . ?
C028 C02V 1.328(11) . ?
C029 C02K 1.322(11) . ?
C02A C036 1.323(11) . ?
C02B H02B 0.9300 . ?
C02C C02R 1.335(11) . ?
C02E C035 1.334(11) . ?
C02F C02G 1.330(10) . ?
C02H H02H 0.9300 . ?
C02I C02Z 1.334(11) . ?
C02J C02Q 1.333(11) . ?
C02L C02X 1.326(11) . ?
C02M H02M 0.9300 . ?
C02O H02O 0.9300 . ?
C02P H02P 0.9300 . ?
C02R H02R 0.9300 . ?
C02T C02T 1.354(15) 3_656 ?
C02U H02U 0.9300 . ?
C02V H02V 0.9300 . ?
C031 H031 0.9300 . ?
C032 C032 1.351(15) 3_666 ?
C033 H033 0.9300 . ?
C034 H034 0.9300 . ?
C035 H035 0.9300 . ?
C036 H036 0.9300 . ?
C037 H037 0.9300 . ?
C03A H03A 0.9300 . ?
C03G H03G 0.9300 . ?
loop_
_geom_torsion_atom_site_label_1
_geom_torsion_atom_site_label_2
_geom_torsion_atom_site_label_3
_geom_torsion_atom_site_label_4
_geom_torsion
_geom_torsion_site_symmetry_1
_geom_torsion_site_symmetry_2
_geom_torsion_site_symmetry_3
_geom_torsion_site_symmetry_4
_geom_torsion_publ_flag
Dy01 O00V C01V O011 53.1(12) . . . . ?
Dy01 O00V C01V C025 -129.0(7) . . . . ?
Dy01 O00W C01T O016 9.3(9) 3_657 . . . ?
Dy01 O00W C01T C020 -169.5(5) 3_657 . . . ?
Dy01 O010 C01P O00U 9.6(12) 1_554 . . . ?
Dy01 O010 C01P C028 -171.7(5) 1_554 . . . ?
Dy01 O01C C01W O00X -3.0(13) 2 . . . ?
Dy01 O01C C01W C023 178.1(5) 2 . . . ?
Dy01 O01E C01Q O01D -107.9(19) . . . . ?
Dy01 O01E C01Q C02C 75(2) . . . . ?
Dy01 O01L C037 N3 171.8(7) . . . . ?
S1 C01Z C033 S00O -0.9(10) . . . . ?
S1 C02L C02X S00D -177.1(5) . . . . ?
S1 C02L C02X S00P 6.0(12) . . . . ?
O1 C01Y C022 S00M -175.5(6) . . . . ?
O1 C01Y C022 C034 0.3(13) . . . . ?
Dy02 O00U C01P O010 -54.6(11) 1_554 . . . ?
Dy02 O00U C01P C028 126.8(6) 1_554 . . . ?
Dy02 O00Y C01K O00T 7.1(10) . . . . ?
Dy02 O00Y C01K C026 -171.8(5) . . . . ?
Dy02 O011 C01V O00V -10.5(14) . . . . ?
Dy02 O011 C01V C025 171.5(5) . . . . ?
Dy02 O019 C01O O01F 105(2) . . . . ?
Dy02 O019 C01O C021 -80(2) . . . . ?
Dy02 O01B C01S O013 -4.8(13) 4_565 . . . ?
Dy02 O01B C01S C01Z 175.0(5) 4_565 . . . ?
Dy02 O01I C02M N1 -169.5(7) . . . . ?
C2 N7 C03G O01M -178.3(12) . . . . ?
O2 C01X C02E S00I 7.2(11) . . . . ?
O2 C01X C02E C035 -172.6(8) . . . . ?
Dy03 O2 C01X O012 -1.6(15) . . . . ?
Dy03 O2 C01X C02E 179.6(5) . . . . ?
Dy03 O3 C03A N6 152.1(12) . . . . ?
Dy03 O4 C01U O015 58(3) . . . . ?
Dy03 O4 C01U C024 -120(3) . . . . ?
Dy03 O00Z C11 O5 -38.0(14) . . . . ?
Dy03 O00Z C11 C02A 142.0(6) . . . . ?
Dy03 O013 C01S O01B 109.2(14) . . . . ?
Dy03 O013 C01S C01Z -70.6(17) . . . . ?
Dy03 O018 C01Y O1 14.7(11) . . . . ?
Dy03 O018 C01Y C022 -163.4(5) . . . . ?
Dy03 O01F C01O O019 16.3(13) 4_666 . . . ?
Dy03 O01F C01O C021 -159.0(5) 4_666 . . . ?
C3 N3 C037 O01L 3.4(16) . . . . ?
Dy04 O1 C01Y O018 -58(3) . . . . ?
Dy04 O1 C01Y C022 120(2) . . . . ?
Dy04 O5 C11 O00Z -4.8(15) . . . . ?
Dy04 O5 C11 C02A 175.2(5) . . . . ?
Dy04 O00X C01W O01C 99.3(13) 3_665 . . . ?
Dy04 O00X C01W C023 -81.8(14) 3_665 . . . ?
Dy04 O012 C01X O2 40.9(14) . . . . ?
Dy04 O012 C01X C02E -140.4(6) . . . . ?
Dy04 O015 C01U O4 -14.5(11) . . . . ?
Dy04 O015 C01U C024 162.9(5) . . . . ?
Dy04 O01D C01Q O01E -19.9(12) 4_566 . . . ?
Dy04 O01D C01Q C02C 156.7(5) 4_566 . . . ?
Dy04 O01M C03G N7 -133.8(14) . . . . ?
C4 N7 C03G O01M -15(2) . . . . ?
O4 C01U C024 S00J 173.9(6) . . . . ?
O4 C01U C024 C02P -4.7(13) . . . . ?
S005 C02C C02R S00F 0.6(10) . . . . ?
O5 C11 C02A S00G -7.0(10) . . . . ?
O5 C11 C02A C036 174.8(8) . . . . ?
C5 N6 C03A O3 10.7(18) . . . . ?
S006 C021 C02O S00C 0.7(10) . . . . ?
S006 C02I C02Z S00I -179.7(5) . . . . ?
S006 C02I C02Z S00S -0.6(12) . . . . ?
C6 N6 C03A O3 -179.0(11) . . . . ?
O6 C1 N2 C14 -1.6(19) . . . . ?
O6 C1 N2 C16 175.0(9) . . . . ?
S008 C023 C02B S00E -0.8(10) . . . . ?
C8 N1 C02M O01I 178.2(9) . . . . ?
C7 N3 C037 O01L -178.3(10) . . . . ?
S009 C020 C02U S00L 0.9(10) . . . . ?
S009 C02F C02G S005 -179.8(5) . . . . ?
S009 C02F C02G S00F 0.8(11) . . . . ?
C9 N1 C02M O01I -2.8(15) . . . . ?
S00A C025 C02H S00H 1.8(10) . . . . ?
S00B C028 C02V S00N -2.6(10) . . . . ?
S00B C029 C02K S00J 177.8(5) . . . . ?
S00B C029 C02K S00K -3.0(12) . . . . ?
S00C C02I C02Z S00I -1.5(12) . . . . ?
S00C C02I C02Z S00S 177.6(5) . . . . ?
S00D C026 C031 S00P 0.5(10) . . . . ?
S00G C02A C036 S00R -1.7(10) . . . . ?
S00G C02J C02Q S008 -178.6(5) . . . . ?
S00G C02J C02Q S00E 4.6(11) . . . . ?
S00I C02E C035 S00S 0.1(10) . . . . ?
S00J C024 C02P S00K 0.2(10) . . . . ?
S00L C02F C02G S005 2.2(12) . . . . ?
S00L C02F C02G S00F -177.2(5) . . . . ?
S00M C022 C034 S00Q -1.6(10) . . . . ?
S00N C029 C02K S00J 0.3(12) . . . . ?
S00N C029 C02K S00K 179.5(5) . . . . ?
S00O C02L C02X S00D 6.9(11) . . . . ?
S00O C02L C02X S00P -170.0(5) . . . . ?
S00R C02J C02Q S008 4.6(12) . . . . ?
S00R C02J C02Q S00E -172.2(5) . . . . ?
O00T C01K C026 S00D -179.8(6) . . . . ?
O00T C01K C026 C031 2.0(13) . . . . ?
O00U C01P C028 S00B -178.2(6) . . . . ?
O00U C01P C028 C02V -2.4(12) . . . . ?
O00V C01V C025 S00A 176.7(6) . . . . ?
O00V C01V C025 C02H -0.9(12) . . . . ?
O00W C01T C020 S009 -4.5(9) . . . . ?
O00W C01T C020 C02U 175.8(8) . . . . ?
O00X C01W C023 S008 -166.5(6) . . . . ?
O00X C01W C023 C02B 17.4(13) . . . . ?
O00Y C01K C026 S00D -0.8(10) . . . . ?
O00Y C01K C026 C031 -178.9(8) . . . . ?
O00Z C11 C02A S00G 173.0(6) . . . . ?
O00Z C11 C02A C036 -5.2(13) . . . . ?
O010 C01P C028 S00B 3.0(10) . . . . ?
O010 C01P C028 C02V 178.8(8) . . . . ?
C10 N4 C15 O030 0.9(16) . . . . ?
O011 C01V C025 S00A -5.1(10) . . . . ?
O011 C01V C025 C02H 177.3(8) . . . . ?
C11 C02A C036 S00R 176.5(7) . . . . ?
O012 C01X C02E S00I -171.7(6) . . . . ?
O012 C01X C02E C035 8.5(13) . . . . ?
C12 N4 C15 O030 -177.7(10) . . . . ?
O013 C01S C01Z S1 -167.2(6) . . . . ?
O013 C01S C01Z C033 17.0(13) . . . . ?
C13 N8 C21 O8 -179.3(12) . . . . ?
O015 C01U C024 S00J -3.8(11) . . . . ?
O015 C01U C024 C02P 177.7(8) . . . . ?
O016 C01T C020 S009 176.6(6) . . . . ?
O016 C01T C020 C02U -3.1(12) . . . . ?
O018 C01Y C022 S00M 2.8(11) . . . . ?
O018 C01Y C022 C034 178.6(8) . . . . ?
C18 N5 C19 O7 -179.0(10) . . . . ?
C17 N5 C19 O7 1.7(16) . . . . ?
O019 C01O C021 S006 -173.6(6) . . . . ?
O019 C01O C021 C02O 6.2(13) . . . . ?
O01B C01S C01Z S1 13.0(11) . . . . ?
O01B C01S C01Z C033 -162.8(9) . . . . ?
O01C C01W C023 S008 12.5(10) . . . . ?
O01C C01W C023 C02B -163.5(8) . . . . ?
O01D C01Q C02C S005 -2.6(11) . . . . ?
O01D C01Q C02C C02R -178.7(8) . . . . ?
O01E C01Q C02C S005 174.3(6) . . . . ?
O01E C01Q C02C C02R -1.8(13) . . . . ?
O01F C01O C021 S006 2.0(11) . . . . ?
O01F C01O C021 C02O -178.2(8) . . . . ?
C01K C026 C031 S00P 178.6(7) . . . . ?
C01O C021 C02O S00C -179.1(7) . . . . ?
C01P C028 C02V S00N -178.6(6) . . . . ?
C01Q C02C C02R S00F 176.9(6) . . . . ?
C01S C01Z C033 S00O 175.0(7) . . . . ?
C01T C020 C02U S00L -179.4(6) . . . . ?
C01U C024 C02P S00K 178.8(7) . . . . ?
C01V C025 C02H S00H 179.5(6) . . . . ?
C01W C023 C02B S00E 175.3(7) . . . . ?
C01X C02E C035 S00S 179.8(7) . . . . ?
C01Y C022 C034 S00Q -177.5(7) . . . . ?
C01Z S1 C02L S00O 14.9(5) . . . . ?
C01Z S1 C02L C02X -161.2(8) . . . . ?
C020 S009 C02F S00L 10.3(5) . . . . ?
C020 S009 C02F C02G -167.9(8) . . . . ?
C20 N8 C21 O8 -4.6(17) . . . . ?
C021 S006 C02I S00C -12.1(6) . . . . ?
C021 S006 C02I C02Z 166.3(8) . . . . ?
C022 S00M C032 S00Q 8.2(6) . . . . ?
C022 S00M C032 C032 -170.9(11) . . . 3_666 ?
C023 S008 C02Q S00E 15.3(5) . . . . ?
C023 S008 C02Q C02J -161.6(8) . . . . ?
C024 S00J C02K S00K -9.8(5) . . . . ?
C024 S00J C02K C029 169.5(8) . . . . ?
C025 S00A C02T S00H -6.5(5) . . . . ?
C025 S00A C02T C02T 174.4(10) . . . 3_656 ?
C026 S00D C02X S00P 11.9(5) . . . . ?
C026 S00D C02X C02L -165.3(8) . . . . ?
C028 S00B C029 S00N 4.6(5) . . . . ?
C028 S00B C029 C02K -173.1(8) . . . . ?
C029 S00B C028 C01P 174.8(6) . . . . ?
C029 S00B C028 C02V -1.4(7) . . . . ?
C029 S00N C02V C028 5.1(8) . . . . ?
C02A S00G C02J S00R 13.0(6) . . . . ?
C02A S00G C02J C02Q -164.1(8) . . . . ?
C02B S00E C02Q S008 -15.7(6) . . . . ?
C02B S00E C02Q C02J 161.4(8) . . . . ?
C02C S005 C02G S00F 15.5(5) . . . . ?
C02C S005 C02G C02F -163.9(8) . . . . ?
C02E S00I C02Z S00S -10.4(6) . . . . ?
C02E S00I C02Z C02I 168.7(8) . . . . ?
C02F S009 C020 C01T 173.5(6) . . . . ?
C02F S009 C020 C02U -6.8(7) . . . . ?
C02F S00L C02U C020 5.5(8) . . . . ?
C02G S005 C02C C01Q 173.8(7) . . . . ?
C02G S005 C02C C02R -9.8(8) . . . . ?
C02G S00F C02R C02C 9.0(8) . . . . ?
C02H S00H C02T S00A 7.3(5) . . . . ?
C02H S00H C02T C02T -173.6(11) . . . 3_656 ?
C02I S006 C021 C01O -173.2(7) . . . . ?
C02I S006 C021 C02O 6.9(8) . . . . ?
C02I S00C C02O C021 -8.1(8) . . . . ?
C02J S00G C02A C11 174.6(7) . . . . ?
C02J S00G C02A C036 -7.0(8) . . . . ?
C02J S00R C036 C02A 9.4(8) . . . . ?
C02K S00J C024 C01U -172.8(7) . . . . ?
C02K S00J C024 C02P 5.9(7) . . . . ?
C02K S00K C02P C024 -6.3(8) . . . . ?
C02L S1 C01Z C01S 175.3(7) . . . . ?
C02L S1 C01Z C033 -8.6(8) . . . . ?
C02L S00O C033 C01Z 9.9(8) . . . . ?
C02O S00C C02I S006 12.4(6) . . . . ?
C02O S00C C02I C02Z -166.1(8) . . . . ?
C02P S00K C02K S00J 9.8(5) . . . . ?
C02P S00K C02K C029 -169.4(8) . . . . ?
C02Q S008 C023 C01W 174.7(7) . . . . ?
C02Q S008 C023 C02B -8.9(8) . . . . ?
C02Q S00E C02B C023 10.0(8) . . . . ?
C02R S00F C02G S005 -15.2(5) . . . . ?
C02R S00F C02G C02F 164.2(8) . . . . ?
C02T S00A C025 C01V -174.9(7) . . . . ?
C02T S00A C025 C02H 2.9(7) . . . . ?
C02T S00H C02H C025 -5.6(8) . . . . ?
C02U S00L C02F S009 -9.9(6) . . . . ?
C02U S00L C02F C02G 168.2(8) . . . . ?
C02V S00N C029 S00B -5.7(5) . . . . ?
C02V S00N C029 C02K 172.1(8) . . . . ?
C02X S00D C026 C01K 174.1(6) . . . . ?
C02X S00D C026 C031 -7.6(8) . . . . ?
C02X S00P C031 C026 6.9(8) . . . . ?
C02Z S00I C02E C01X -173.4(7) . . . . ?
C02Z S00I C02E C035 6.4(8) . . . . ?
C02Z S00S C035 C02E -6.5(8) . . . . ?
C031 S00P C02X S00D -11.7(6) . . . . ?
C031 S00P C02X C02L 165.4(8) . . . . ?
C032 S00M C022 C01Y 172.1(7) . . . . ?
C032 S00M C022 C034 -4.1(8) . . . . ?
C032 S00Q C034 C022 6.5(8) . . . . ?
C033 S00O C02L S1 -15.3(6) . . . . ?
C033 S00O C02L C02X 161.1(8) . . . . ?
C034 S00Q C032 S00M -8.8(6) . . . . ?
C034 S00Q C032 C032 170.2(11) . . . 3_666 ?
C035 S00S C02Z S00I 10.5(6) . . . . ?
C035 S00S C02Z C02I -168.7(8) . . . . ?
C036 S00R C02J S00G -13.7(6) . . . . ?
C036 S00R C02J C02Q 163.3(8) . . . . ?
