#------------------------------------------------------------------------------
#$Date: 2021-11-05 02:06:12 +0200 (Fri, 05 Nov 2021) $
#$Revision: 270317 $
#$URL: file:///home/coder/svn-repositories/cod/cif/7/70/87/7708727.cif $
#------------------------------------------------------------------------------
#
# This file is available in the Crystallography Open Database (COD),
# http://www.crystallography.net/
#
# All data on this site have been placed in the public domain by the
# contributors.
#
data_7708727
loop_
_publ_author_name
'P\'o\/lrolniczak, Aleksandra'
'Sobczak, Szymon'
'Nikolayenko, Varvara'
'Barbour, Len'
'Katrusiak, Andrzej'
_publ_section_title
;
 Solvent-controlled elongation and mechanochemical strain in a
 metal-organic framework
;
_journal_name_full               'Dalton Transactions'
_journal_paper_doi               10.1039/D1DT01937F
_journal_year                    2021
_chemical_formula_moiety         'C39 H24 F6 N2 O4 S2 Zn'
_chemical_formula_sum            'C39 H24 F6 N2 O4 S2 Zn'
_chemical_formula_weight         828.09
_chemical_name_common            DMOF
_chemical_name_systematic
1,2-bis(2-ethyl-5-phenyl-3-thienyl)perfluorocyclopentene
_space_group_crystal_system      orthorhombic
_space_group_IT_number           19
_space_group_name_Hall           'P 2ac 2ab'
_space_group_name_H-M_alt        'P 21 21 21'
_atom_sites_solution_hydrogens   geom
_atom_sites_solution_primary     direct
_audit_creation_date             2018-12-04
_audit_creation_method
;
Olex2 1.2
(compiled 2018.05.29 svn.r3508 for OlexSys, GUI svn.r5506)
;
_audit_update_record
;
2019-09-30 deposited with the CCDC.	2021-11-02 downloaded from the CCDC.
;
_cell_angle_alpha                90
_cell_angle_beta                 90
_cell_angle_gamma                90
_cell_formula_units_Z            4
_cell_length_a                   6.730(2)
_cell_length_b                   25.256(15)
_cell_length_c                   28.79(4)
_cell_measurement_reflns_used    580
_cell_measurement_temperature    293(2)
_cell_measurement_theta_max      25.7310
_cell_measurement_theta_min      3.9510
_cell_volume                     4894(8)
_computing_cell_refinement       'CrysAlisPro 1.171.39.43a (Rigaku OD, 2018)'
_computing_data_collection       'CrysAlisPro 1.171.39.43a (Rigaku OD, 2018)'
_computing_data_reduction        'CrysAlisPro 1.171.39.43a (Rigaku OD, 2018)'
_computing_molecular_graphics    'Olex2 (Dolomanov et al., 2009)'
_computing_publication_material  'Olex2 (Dolomanov et al., 2009)'
_computing_structure_refinement  'ShelXL (Sheldrick, 2015)'
_computing_structure_solution    'ShelXS (Sheldrick, 2008)'
_diffrn_ambient_temperature      293(2)
_diffrn_detector                 'CCD plate'
_diffrn_detector_area_resol_mean 16.2413
_diffrn_detector_type            Eos
_diffrn_measured_fraction_theta_full 0.227
_diffrn_measured_fraction_theta_max 0.647
_diffrn_measurement_details
;
List of Runs (angles in degrees, time in seconds):

  # Type    Start    End  Width  t~exp~   \w     \q     \k     \f   Frames
#--------------------------------------------------------------------------
  1  \f    -35.00  19.75   0.75   30.00   0.00 -30.00   0.00    --    73
  2  \f    140.00 200.00   0.75   30.00   0.00 -30.00   0.00    --    80
  3  \f    160.00 217.00   0.75   30.00   0.00  30.00   0.00    --    76
  4  \f    -20.00  34.75   0.75   30.00   0.00  30.00   0.00    --    73
  5  \w    -24.00  24.00   0.75   30.00    --   30.00  39.46 -12.90   64
  6  \w    -24.00  24.00   0.75   30.00    --   30.00  39.46 167.10   64
  7  \w    -50.00  10.00   0.75   30.00    --  -30.00  39.46 167.10   80
  8  \w    -50.00  10.00   0.75   30.00    --  -30.00  39.46 -12.90   80
  9  \w    -64.00  -8.50   0.75   30.00    --  -30.00  81.40 -28.90   74
 10  \w    -64.00  -8.50   0.75   30.00    --  -30.00  81.40 151.10   74
 11  \w    -19.00   8.00   0.75   30.00    --   30.00  81.40 151.10   36
 12  \w    -19.00   8.00   0.75   30.00    --   30.00  81.40 -28.90   36
 13  \w    -43.00 -21.25   0.75   30.00    --   30.00 134.60 -56.90   29
 14  \w    -43.00 -21.25   0.75   30.00    --   30.00 134.60 123.10   29
 15  \w    -90.00 -36.00   0.75   30.00    --  -30.00 134.60 123.10   72
 16  \w    -90.00 -36.00   0.75   30.00    --  -30.00 134.60 -56.90   72
;
_diffrn_measurement_device       'four-circle diffractometer'
_diffrn_measurement_device_type  'Xcalibur, Eos'
_diffrn_measurement_method       '\w and \f scans'
_diffrn_orient_matrix_type
'CrysAlisPro convention (1999,Acta A55,543-557)'
_diffrn_orient_matrix_UB_11      0.0095136000
_diffrn_orient_matrix_UB_12      -0.0140775000
_diffrn_orient_matrix_UB_13      0.0211885000
_diffrn_orient_matrix_UB_21      0.0564285000
_diffrn_orient_matrix_UB_22      -0.0197367000
_diffrn_orient_matrix_UB_23      -0.0115277000
_diffrn_orient_matrix_UB_31      0.0884556000
_diffrn_orient_matrix_UB_32      0.0141066000
_diffrn_orient_matrix_UB_33      0.0051612000
_diffrn_radiation_monochromator  graphite
_diffrn_radiation_probe          x-ray
_diffrn_radiation_type           MoK\a
_diffrn_radiation_wavelength     0.71073
_diffrn_reflns_av_R_equivalents  0.4867
_diffrn_reflns_av_unetI/netI     0.2520
_diffrn_reflns_Laue_measured_fraction_full 0.227
_diffrn_reflns_Laue_measured_fraction_max 0.647
_diffrn_reflns_limit_h_max       5
_diffrn_reflns_limit_h_min       -5
_diffrn_reflns_limit_k_max       20
_diffrn_reflns_limit_k_min       -20
_diffrn_reflns_limit_l_max       17
_diffrn_reflns_limit_l_min       -17
_diffrn_reflns_number            14627
_diffrn_reflns_point_group_measured_fraction_full 0.224
_diffrn_reflns_point_group_measured_fraction_max 0.671
_diffrn_reflns_theta_full        25.242
_diffrn_reflns_theta_max         17.220
_diffrn_reflns_theta_min         4.127
_diffrn_source                   'fine-focus sealed X-ray tube'
_diffrn_source_type              'Enhance (Mo) X-ray Source'
_exptl_absorpt_coefficient_mu    0.643
_exptl_absorpt_correction_T_max  1.00000
_exptl_absorpt_correction_T_min  0.42048
_exptl_absorpt_correction_type   multi-scan
_exptl_absorpt_process_details
;
CrysAlisPro 1.171.39.43a (Rigaku Oxford Diffraction, 2018)
Empirical absorption correction using spherical harmonics,
 implemented in SCALE3 ABSPACK scaling algorithm.
;
_exptl_crystal_colour            'clear light pink'
_exptl_crystal_colour_lustre     clear
_exptl_crystal_colour_modifier   light
_exptl_crystal_colour_primary    pink
_exptl_crystal_density_diffrn    1.124
_exptl_crystal_description       plate
_exptl_crystal_F_000             1680
_exptl_crystal_size_max          0.308
_exptl_crystal_size_mid          0.216
_exptl_crystal_size_min          0.122
_refine_diff_density_max         0.231
_refine_diff_density_min         -0.200
_refine_diff_density_rms         0.045
_refine_ls_abs_structure_details
;
 Flack x determined using 203 quotients [(I+)-(I-)]/[(I+)+(I-)]
 (Parsons and Flack (2004), Acta Cryst. A60, s61).
;
_refine_ls_abs_structure_Flack   0.08(8)
_refine_ls_extinction_method     none
_refine_ls_goodness_of_fit_ref   1.028
_refine_ls_hydrogen_treatment    constr
_refine_ls_matrix_type           full
_refine_ls_number_parameters     414
_refine_ls_number_reflns         1987
_refine_ls_number_restraints     611
_refine_ls_restrained_S_all      0.914
_refine_ls_R_factor_all          0.2405
_refine_ls_R_factor_gt           0.1161
_refine_ls_shift/su_max          0.000
_refine_ls_shift/su_mean         0.000
_refine_ls_structure_factor_coef Fsqd
_refine_ls_weighting_details
;
 w=1/[\s^2^(Fo^2^)+(0.1691P)^2^+11.3724P]
 where P=(Fo^2^+2Fc^2^)/3
;
_refine_ls_weighting_scheme      calc
_refine_ls_wR_factor_gt          0.2770
_refine_ls_wR_factor_ref         0.3690
_reflns_Friedel_coverage         0.741
_reflns_Friedel_fraction_full    0.221
_reflns_Friedel_fraction_max     0.706
_reflns_number_gt                794
_reflns_number_total             1987
_reflns_threshold_expression     'I > 2\s(I)'
_cod_data_source_file            d1dt01937f2.cif
_cod_data_source_block           DMOF_0_80_GPa_Gly
_cod_original_cell_volume        4893(7)
_cod_database_code               7708727
_shelx_shelxl_version_number     2017/1
_shelx_space_group_comment
;
The symmetry employed for this shelxl refinement is uniquely defined
by the following loop, which should always be used as a source of
symmetry information in preference to the above space-group names.
They are only intended as comments.
;
_shelx_fab_file
;
-5 -9 -3 -4.2083 -0.9651
-5 -9 -2 2.0600 -2.7126
-5 -9 -1 -7.0940 -1.9077
-5 -8 -5 -2.3887 -0.7647
-5 -8 -4 4.5770 -2.6343
-5 -8 -3 3.0429 1.3832
-5 -8 -2 6.3047 5.8418
-5 -8 -1 2.1734 1.7493
-5 -7 -7 -1.0847 -4.8986
-5 -7 -6 0.1799 -6.2374
-5 -7 -5 1.2780 -1.7079
-5 -7 -4 0.6798 0.3638
-5 -7 -3 -6.2938 3.7820
-5 -7 -2 0.0749 2.5408
-5 -7 -1 -10.9133 1.6904
-5 -6 -8 1.0132 -1.7660
-5 -6 -7 8.9291 5.2409
-5 -6 -6 -0.8760 6.4250
-5 -6 -5 1.3487 -1.5483
-5 -6 -4 -0.3690 -0.0775
-5 -6 -3 -2.1455 0.0151
-5 -6 -2 0.9368 0.7202
-5 -6 -1 3.5644 2.8710
-5 -5 -9 3.5589 0.1294
-5 -5 -8 -4.0374 9.6925
-5 -5 -7 -2.1047 -2.4327
-5 -5 -6 0.6296 8.8633
-5 -5 -5 -2.9768 -4.4096
-5 -5 -4 1.2637 -4.8719
-5 -5 -3 -5.8995 -4.2706
-5 -5 -2 0.4061 -8.4389
-5 -5 -1 -9.9777 -0.0210
-5 -4 -9 3.2539 -8.6122
-5 -4 -8 -3.5404 6.4989
-5 -4 -7 -8.1663 -0.8473
-5 -4 -6 3.0719 -0.5285
-5 -4 -5 -5.2400 8.1062
-5 -4 -4 7.4287 -4.1010
-5 -4 -3 8.0116 1.6923
-5 -4 -2 6.3498 -0.4811
-5 -4 -1 11.8555 -2.8967
-5 -3 -9 1.0969 -6.0585
-5 -3 -8 7.0548 6.5154
-5 -3 -7 0.8222 -3.3606
-5 -3 -6 -12.0073 -5.1820
-5 -3 -5 5.4782 2.9924
-5 -3 -4 -7.2694 -2.7302
-5 -3 -3 5.3988 5.6591
-5 -3 -2 -0.0215 1.9077
-5 -3 -1 -7.2436 1.6118
-5 -2 -10 0.6830 0.1520
-5 -2 -9 -8.7814 11.5686
-5 -2 -8 4.1572 -0.0575
-5 -2 -7 -0.0584 -1.7355
-5 -2 -6 -0.5449 4.4081
-5 -2 -5 1.9204 -13.1053
-5 -2 -4 -1.2353 7.8276
-5 -2 -3 0.3182 -4.3896
-5 -2 -2 -0.4096 2.2120
-5 -2 -1 3.9985 2.3551
-5 -1 -10 -4.8777 0.7261
-5 -1 -9 6.5498 -2.0963
-5 -1 -8 2.3648 4.7910
-5 -1 -7 3.3807 -6.5523
-5 -1 -6 5.6518 1.5632
-5 -1 -5 -1.4289 -3.3026
-5 -1 -4 -0.2397 -3.6127
-5 -1 -3 -2.8712 -0.4502
-5 -1 -2 -0.5741 -1.9773
-5 -1 -1 -0.3407 0.3580
-4 -14 -5 0.9578 -3.4333
-4 -14 -4 -2.9003 10.7288
-4 -14 -3 -3.0560 2.6748
-4 -14 -2 -4.1575 -1.0501
-4 -14 -1 -3.0996 2.7785
-4 -13 -7 5.7961 4.3607
-4 -13 -6 1.7202 13.0919
-4 -13 -5 -4.5809 2.4035
-4 -13 -4 -2.9210 -5.6084
-4 -13 -3 -4.1169 0.8528
-4 -13 -2 -5.9560 -5.2983
-4 -13 -1 -1.1395 -7.8394
-4 -12 -9 -6.3900 3.7858
-4 -12 -8 -2.1492 8.7065
-4 -12 -7 -8.6300 -0.7195
-4 -12 -6 -5.0514 10.5999
-4 -12 -5 -0.5917 -0.8459
-4 -12 -4 -5.4763 1.5267
-4 -12 -3 8.0321 1.7338
-4 -12 -2 0.6471 -3.5660
-4 -12 -1 6.0504 -7.1176
-4 -11 -11 4.0243 4.1372
-4 -11 -10 -4.1409 -7.0518
-4 -11 -9 0.6314 0.5392
-4 -11 -8 -0.9291 -4.5489
-4 -11 -7 -5.9914 -1.6172
-4 -11 -6 0.4022 1.7589
-4 -11 -5 -8.2436 2.2577
-4 -11 -4 -9.2001 2.9690
-4 -11 -3 -1.5722 -0.8696
-4 -11 -2 -0.5283 -0.4519
-4 -11 -1 1.8206 -0.0130
-4 -10 -12 -4.0801 -6.6515
-4 -10 -11 6.4427 6.4229
-4 -10 -10 -6.5075 3.1889
-4 -10 -9 6.8336 4.1266
-4 -10 -8 0.8519 1.7913
-4 -10 -7 -4.7825 4.4677
-4 -10 -6 0.8059 -5.8674
-4 -10 -5 -2.3440 -3.2920
-4 -10 -4 -8.8721 -5.1193
-4 -10 -3 4.9381 -12.6035
-4 -10 -2 -4.3763 -2.4804
-4 -10 -1 3.7218 2.2942
-4 -9 -13 14.6406 1.5314
-4 -9 -12 -4.3445 -1.5632
-4 -9 -11 9.8121 -8.4605
-4 -9 -10 -6.1725 3.7056
-4 -9 -9 2.5621 -7.7083
-4 -9 -8 -6.9052 -1.3977
-4 -9 -7 2.7237 2.8313
-4 -9 -6 -2.0336 -4.7483
-4 -9 -5 3.3301 -3.5651
-4 -9 -4 5.1114 4.6254
-4 -9 -3 3.2421 -8.6245
-4 -9 -2 3.8530 5.7338
-4 -9 -1 2.7360 -0.7018
-4 -8 -14 -3.4723 5.6579
-4 -8 -13 3.8894 -0.1849
-4 -8 -12 -3.5165 8.5246
-4 -8 -11 -2.6957 -1.6866
-4 -8 -10 8.4460 1.3259
-4 -8 -9 -3.8914 0.9350
-4 -8 -8 7.5436 1.4618
-4 -8 -7 -0.3516 4.4815
-4 -8 -6 -1.8786 3.0703
-4 -8 -5 -3.8114 -0.4883
-4 -8 -4 5.7985 2.9783
-4 -8 -3 -8.1745 -1.4676
-4 -8 -2 9.7717 2.1046
-4 -8 -1 -5.9889 -2.2980
-4 -7 -14 4.7623 -0.0980
-4 -7 -13 -0.3546 -6.1294
-4 -7 -12 2.3474 -3.0157
-4 -7 -11 5.8380 -4.7811
-4 -7 -10 -1.1207 -5.4918
-4 -7 -9 4.3838 4.5710
-4 -7 -8 -5.6068 -7.9714
-4 -7 -7 -2.1926 2.6276
-4 -7 -6 -5.4853 -2.4943
-4 -7 -5 -5.7921 0.5928
-4 -7 -4 4.4297 -6.4604
-4 -7 -3 -6.0379 6.0648
-4 -7 -2 6.9970 -8.2590
-4 -7 -1 -4.2621 5.8832
-4 -6 -14 0.1528 -8.0396
-4 -6 -13 4.2435 4.9511
-4 -6 -12 9.1751 1.8590
-4 -6 -11 1.8088 6.4602
-4 -6 -10 1.9891 6.3341
-4 -6 -9 2.4952 1.5535
-4 -6 -8 -4.0858 0.2944
-4 -6 -7 4.1926 0.2213
-4 -6 -6 0.7710 -2.1865
-4 -6 -5 -0.1199 5.6787
-4 -6 -4 2.6724 -5.7992
-4 -6 -3 1.8760 3.6046
-4 -6 -2 2.2943 -4.6901
-4 -6 -1 5.1756 -1.3369
-4 -5 -13 -0.1249 6.1891
-4 -5 -12 -4.9040 2.8333
-4 -5 -11 -5.0687 3.3315
-4 -5 -10 -1.3515 -4.0137
-4 -5 -9 0.2824 -4.6262
-4 -5 -8 -2.8680 2.2993
-4 -5 -7 -0.8060 -5.5625
-4 -5 -6 -6.3052 0.0746
-4 -5 -5 -7.2002 6.2235
-4 -5 -4 -5.2252 -1.2771
-4 -5 -3 -3.6502 7.3409
-4 -5 -2 1.7349 2.5600
-4 -5 -1 1.9159 0.5685
-4 -4 -12 -3.6738 -9.6217
-4 -4 -11 -1.1818 0.7569
-4 -4 -10 1.4656 0.2184
-4 -4 -9 -1.7498 6.5137
-4 -4 -8 4.7222 3.9188
-4 -4 -7 -1.3768 0.9920
-4 -4 -6 -0.4581 -6.7323
-4 -4 -5 2.8541 -3.9849
-4 -4 -4 -5.1826 -6.2055
-4 -4 -3 1.1336 -1.0087
-4 -4 -2 2.5620 -1.2843
-4 -4 -1 -2.6885 1.2803
-4 -3 -12 0.8592 -0.1311
-4 -3 -11 0.6017 3.1009
-4 -3 -10 -4.5341 -3.2050
-4 -3 -9 -7.1570 -2.0185
-4 -3 -8 -4.8152 -4.5232
-4 -3 -7 -3.2764 0.9341
-4 -3 -6 1.0062 4.5260
-4 -3 -5 -0.7389 -0.3485
-4 -3 -4 1.8490 7.9285
-4 -3 -3 -4.9339 3.1906
-4 -3 -2 -2.7669 3.1044
-4 -3 -1 -4.6371 9.9541
-4 -2 -11 0.4884 2.9108
-4 -2 -10 -1.7816 -4.3048
-4 -2 -9 5.4222 -0.3252
-4 -2 -8 1.5612 -0.4697
-4 -2 -7 2.8159 2.3835
-4 -2 -6 -0.5727 0.8731
-4 -2 -5 -4.7127 2.8558
-4 -2 -4 -4.7923 -4.3768
-4 -2 -3 -8.0787 -1.4761
-4 -2 -2 -1.7776 -2.1071
-4 -2 -1 -3.3467 -7.5251
-4 -1 -10 -1.5939 1.5173
-4 -1 -9 -3.1862 4.8619
-4 -1 -8 -1.0521 5.7468
-4 -1 -7 -6.3551 1.0080
-4 -1 -6 -0.0872 4.0354
-4 -1 -5 -4.4497 -1.2457
-4 -1 -4 1.4943 -1.5440
-4 -1 -3 -3.9948 -3.8268
-4 -1 -2 1.2818 -3.7764
-4 -1 -1 -2.1771 0.5303
-3 -17 -5 -8.5616 3.5557
-3 -17 -4 -0.7531 3.8727
-3 -16 -8 -4.5576 2.2419
-3 -16 -7 0.7148 0.4267
-3 -16 -6 -5.7760 -1.9584
-3 -16 -5 -0.3344 -4.4614
-3 -16 -4 1.4848 8.0905
-3 -16 -3 -3.4044 -2.7335
-3 -16 -2 1.9108 4.3383
-3 -16 -1 0.9550 -0.8390
-3 -15 -10 -1.0609 1.9335
-3 -15 -9 1.5786 -5.9359
-3 -15 -8 5.7639 4.2518
-3 -15 -7 2.9481 -3.9555
-3 -15 -6 6.6004 -1.0455
-3 -15 -5 -4.7950 -1.0559
-3 -15 -4 2.8543 -1.0797
-3 -15 -3 -10.4574 -0.2446
-3 -15 -2 0.3233 0.6238
-3 -15 -1 -1.3795 1.2795
-3 -14 -12 1.2154 -5.4631
-3 -14 -11 1.8556 3.4943
-3 -14 -10 0.4923 -3.0375
-3 -14 -9 1.9212 6.3018
-3 -14 -8 3.9248 10.0827
-3 -14 -7 0.1918 3.6901
-3 -14 -6 0.1240 6.5338
-3 -14 -5 -1.4146 6.3663
-3 -14 -4 -4.9667 -0.0678
-3 -14 -3 1.0580 5.0394
-3 -14 -2 0.2197 0.5389
-3 -14 -1 -1.2919 -0.3583
-3 -13 -13 4.9827 0.9914
-3 -13 -12 -2.4025 -0.5398
-3 -13 -11 3.0802 -0.0919
-3 -13 -10 -5.5483 5.3077
-3 -13 -9 -7.0069 3.0983
-3 -13 -8 1.4911 1.6323
-3 -13 -7 -4.4790 -0.3427
-3 -13 -6 -0.1208 2.8536
-3 -13 -5 -3.2644 -5.9461
-3 -13 -4 -8.3517 -3.7657
-3 -13 -3 -1.5319 -4.6189
-3 -13 -2 -10.3865 -11.9663
-3 -13 -1 2.0577 -0.7462
-3 -12 -14 4.0195 3.3249
-3 -12 -13 2.3214 1.0544
-3 -12 -12 -3.7437 -0.6545
-3 -12 -11 -2.1030 -3.6079
-3 -12 -10 -6.2884 -2.0021
-3 -12 -9 -4.0016 -0.4920
-3 -12 -8 0.7902 -0.4571
-3 -12 -7 -3.6662 6.2851
-3 -12 -6 4.7865 4.4254
-3 -12 -5 0.5205 -1.3923
-3 -12 -4 2.1217 1.8779
-3 -12 -3 4.8601 -6.9142
-3 -12 -2 2.6522 -1.8673
-3 -12 -1 11.6079 -0.8155
-3 -11 -15 -4.1682 5.1057
-3 -11 -14 -1.8726 1.2953
-3 -11 -13 -6.8257 3.8254
-3 -11 -12 0.8446 -0.0664
-3 -11 -11 4.4247 -9.0878
-3 -11 -10 0.1415 -1.5066
-3 -11 -9 1.3671 -4.3157
-3 -11 -8 -2.8897 -0.8234
-3 -11 -7 -4.6709 3.5196
-3 -11 -6 -3.4434 -2.7103
-3 -11 -5 1.3769 1.0276
-3 -11 -4 -8.2919 -1.0061
-3 -11 -3 4.2280 3.3734
-3 -11 -2 -2.6488 -1.3016
-3 -11 -1 4.3834 2.6821
-3 -10 -16 -6.0759 -7.3363
-3 -10 -15 0.7091 2.2371
-3 -10 -14 -13.6986 -12.8862
-3 -10 -13 1.1768 -1.2974
-3 -10 -12 -1.0795 -0.1795
-3 -10 -11 -1.2728 -4.8964
-3 -10 -10 7.3038 3.3438
-3 -10 -9 -1.0154 0.4144
-3 -10 -8 2.2414 3.0495
-3 -10 -7 0.4671 -4.0276
-3 -10 -6 -0.5402 6.3569
-3 -10 -5 2.5361 -6.4924
-3 -10 -4 -0.7046 2.3262
-3 -10 -3 2.0354 -3.1184
-3 -10 -2 -7.6034 -0.6529
-3 -10 -1 0.7355 -3.1456
-3 -9 -15 7.6567 -9.8426
-3 -9 -14 2.8160 3.0507
-3 -9 -13 6.0127 -7.4426
-3 -9 -12 2.7488 2.6831
-3 -9 -11 1.5124 1.7428
-3 -9 -10 5.3436 -1.7407
-3 -9 -9 -4.1212 2.0613
-3 -9 -8 1.7700 -2.3070
-3 -9 -7 -7.9973 -0.6309
-3 -9 -6 -1.5354 4.4047
-3 -9 -5 0.1859 -0.1787
-3 -9 -4 0.1096 3.8242
-3 -9 -3 6.8845 0.9790
-3 -9 -2 -8.3494 -4.4419
-3 -9 -1 4.9437 1.9089
-3 -8 -15 -4.5684 4.0141
-3 -8 -14 0.4017 1.5325
-3 -8 -13 -2.8568 -2.3395
-3 -8 -12 0.5151 5.6642
-3 -8 -11 -1.7501 2.7185
-3 -8 -10 1.6939 4.1899
-3 -8 -9 -0.0965 0.2260
-3 -8 -8 3.9532 -1.6835
-3 -8 -7 2.6744 -0.1621
-3 -8 -6 6.9875 -3.2104
-3 -8 -5 -3.7014 -3.3450
-3 -8 -4 -4.5284 7.0958
-3 -8 -3 -1.8347 -9.3513
-3 -8 -2 -14.1375 7.7724
-3 -8 -1 4.6996 -3.8561
-3 -7 -14 -0.2461 -0.6258
-3 -7 -13 -1.0805 -2.8823
-3 -7 -12 5.3904 -2.0766
-3 -7 -11 -4.7038 1.1329
-3 -7 -10 1.0736 -1.2200
-3 -7 -9 -1.7543 3.0582
-3 -7 -8 -0.1119 1.4048
-3 -7 -7 1.9490 5.1710
-3 -7 -6 2.5372 5.9519
-3 -7 -5 -3.8456 4.8183
-3 -7 -4 0.8943 5.1947
-3 -7 -3 -3.1748 -10.6897
-3 -7 -2 4.8073 -0.5942
-3 -7 -1 -5.9346 -11.2735
-3 -6 -13 1.2219 -4.0972
-3 -6 -12 6.3204 2.0215
-3 -6 -11 -1.3755 0.3172
-3 -6 -10 0.6031 3.3411
-3 -6 -9 3.6300 2.0583
-3 -6 -8 -1.8290 -1.8839
-3 -6 -7 -4.1152 -0.9695
-3 -6 -6 -4.0467 2.9439
-3 -6 -5 -7.6841 0.7888
-3 -6 -4 -3.2265 0.3836
-3 -6 -3 -6.2027 -0.3014
-3 -6 -2 4.3304 -9.1832
-3 -6 -1 -1.2346 -2.0394
-3 -5 -12 3.1549 0.6843
-3 -5 -11 -0.3774 6.6207
-3 -5 -10 -1.8603 0.1638
-3 -5 -9 0.4445 -2.8146
-3 -5 -8 2.2280 5.1660
-3 -5 -7 -2.1446 -7.2835
-3 -5 -6 0.2721 0.0099
-3 -5 -5 -3.7151 -7.5184
-3 -5 -4 -0.5161 -3.5010
-3 -5 -3 -7.1155 -5.0763
-3 -5 -2 4.5570 2.7389
-3 -5 -1 7.4194 -2.5126
-3 -4 -11 2.1545 -6.7824
-3 -4 -10 -0.8013 -1.3173
-3 -4 -9 -7.5505 0.7043
-3 -4 -8 9.9460 3.5572
-3 -4 -7 -3.1531 1.6203
-3 -4 -6 8.7974 -5.7434
-3 -4 -5 1.7177 -0.7610
-3 -4 -4 6.9597 -9.4886
-3 -4 -3 -0.4183 3.2285
-3 -4 -2 4.0205 -0.4022
-3 -4 -1 -7.2543 2.5393
-3 -3 -10 3.0263 1.3537
-3 -3 -9 2.9242 0.9207
-3 -3 -8 -0.0429 -4.8506
-3 -3 -7 0.3748 3.8780
-3 -3 -6 0.1832 1.0976
-3 -3 -5 0.7027 5.5175
-3 -3 -4 -0.1584 9.0616
-3 -3 -3 3.5550 2.5594
-3 -3 -2 -6.0097 1.0286
-3 -3 -1 -7.0054 2.4768
-3 -2 -10 -2.1859 6.6685
-3 -2 -9 -2.8382 -1.9878
-3 -2 -8 -0.0319 -4.8981
-3 -2 -7 0.7817 4.5525
-3 -2 -6 2.6685 -0.1816
-3 -2 -5 -1.5657 -3.7031
-3 -2 -4 -2.6917 0.2412
-3 -2 -3 -4.7497 -6.4917
-3 -2 -2 -2.3579 -6.8195
-3 -2 -1 2.4732 1.3964
-3 -1 -9 5.0864 -1.1550
-3 -1 -8 -1.0738 -3.0135
-3 -1 -7 4.1096 1.8842
-3 -1 -6 6.4799 3.9862
-3 -1 -5 -0.6112 0.7953
-3 -1 -4 4.0874 2.3052
-3 -1 -3 -1.1117 0.8330
-3 -1 -2 2.6674 4.1108
-3 -1 -1 3.3279 -2.1497
-2 -19 -5 -7.7185 11.3036
-2 -19 -4 6.3005 -2.5991
-2 -18 -9 0.8868 4.8794
-2 -18 -8 -6.8242 -6.4753
-2 -18 -7 -4.4202 -0.1726
-2 -18 -6 -2.3715 -9.0436
-2 -18 -5 0.4179 2.4367
-2 -18 -4 -0.0785 -8.0660
-2 -18 -3 1.7149 3.3712
-2 -17 -11 6.1528 -4.8039
-2 -17 -10 -1.3176 2.8480
-2 -17 -9 8.1389 -0.7924
-2 -17 -8 -1.7092 -7.7641
-2 -17 -7 6.7174 3.0871
-2 -17 -6 2.6340 -5.8668
-2 -17 -5 4.7130 -2.9694
-2 -17 -4 3.7039 2.0187
-2 -17 -3 -2.7729 -0.4511
-2 -16 -13 4.1891 3.9844
-2 -16 -12 8.7006 3.4630
-2 -16 -11 -5.9103 1.1404
-2 -16 -10 6.3654 2.9470
-2 -16 -9 -9.5586 -3.1916
-2 -16 -8 1.1810 0.5430
-2 -16 -7 -0.3329 3.8737
-2 -16 -6 -0.8886 -1.0588
-2 -16 -5 3.4334 8.0722
-2 -16 -4 2.5052 -0.8730
-2 -16 -3 4.5384 1.1154
-2 -16 -2 1.9045 -4.8950
-2 -15 -14 -1.8635 -0.2818
-2 -15 -13 -1.9597 -0.0823
-2 -15 -12 -3.6782 -2.4380
-2 -15 -11 -0.8910 5.5589
-2 -15 -10 -3.6368 -12.7776
-2 -15 -9 5.7343 1.6775
-2 -15 -8 -2.9131 -6.9842
-2 -15 -7 3.2134 -5.0991
-2 -15 -6 -5.1341 7.4803
-2 -15 -5 -0.2669 -3.3737
-2 -15 -4 -3.2795 9.8814
-2 -15 -3 2.4420 -3.2941
-2 -15 -2 3.2754 9.1366
-2 -14 -15 -0.7763 8.5167
-2 -14 -14 2.9247 -0.5666
-2 -14 -13 1.5888 -3.3143
-2 -14 -12 2.5249 1.5386
-2 -14 -11 2.9086 -6.3867
-2 -14 -10 3.2625 4.6999
-2 -14 -9 1.5447 -0.0624
-2 -14 -8 2.2800 0.8082
-2 -14 -7 -6.0871 -0.5131
-2 -14 -6 4.6579 -0.2145
-2 -14 -5 -10.6676 1.5774
-2 -14 -4 3.1366 -1.4563
-2 -14 -3 -6.2296 6.7491
-2 -14 -2 -6.1575 2.2311
-2 -14 -1 -0.3349 0.2769
-2 -13 -16 -7.6077 -5.0196
-2 -13 -15 1.7787 0.2549
-2 -13 -14 -1.4399 1.3270
-2 -13 -13 -2.7505 -2.7742
-2 -13 -12 2.1086 2.1975
-2 -13 -11 0.8011 -0.2224
-2 -13 -10 -3.3913 0.2624
-2 -13 -9 -2.3080 -1.8090
-2 -13 -8 -3.7792 -2.6003
-2 -13 -7 -1.2039 -4.4858
-2 -13 -6 -5.2720 -3.8864
-2 -13 -5 -1.0030 -2.1060
-2 -13 -4 -8.9227 0.9900
-2 -13 -3 -4.4669 -1.8947
-2 -13 -2 0.0119 0.5788
-2 -13 -1 -1.4440 -5.4179
-2 -12 -17 7.0125 0.0876
-2 -12 -16 -9.3483 0.3448
-2 -12 -15 -0.1775 1.3760
-2 -12 -14 2.9191 -0.1315
-2 -12 -13 -4.5756 0.6990
-2 -12 -12 5.1632 1.1392
-2 -12 -11 -0.9972 -0.7178
-2 -12 -10 5.6954 0.6890
-2 -12 -9 0.7298 -1.6023
-2 -12 -8 6.7189 -0.6906
-2 -12 -7 -0.5071 -1.2823
-2 -12 -6 2.4392 -6.2882
-2 -12 -5 1.3990 -2.1595
-2 -12 -4 2.2146 -5.2799
-2 -12 -3 0.4238 -2.9035
-2 -12 -2 -4.2377 -3.1894
-2 -12 -1 -1.2123 11.8991
-2 -11 -16 -0.4835 5.7379
-2 -11 -15 7.9831 -5.6920
-2 -11 -14 -0.1598 -2.5383
-2 -11 -13 -0.5632 -5.3164
-2 -11 -12 -0.7748 0.2572
-2 -11 -11 -5.7763 1.0317
-2 -11 -10 -0.8093 3.8181
-2 -11 -9 -1.7760 3.0574
-2 -11 -8 -7.0773 2.9250
-2 -11 -7 -1.2556 -4.6459
-2 -11 -6 -2.2150 2.4354
-2 -11 -5 0.6222 1.8358
-2 -11 -4 3.1246 -0.2980
-2 -11 -3 -2.3054 10.2088
-2 -11 -2 -3.3936 -2.9653
-2 -11 -1 -4.2538 -9.9462
-2 -10 -15 -4.7807 6.6885
-2 -10 -14 6.1843 -0.6172
-2 -10 -13 -4.2584 8.1579
-2 -10 -12 7.2745 -3.4325
-2 -10 -11 -6.6581 0.4537
-2 -10 -10 -0.5613 0.0452
-2 -10 -9 -3.6351 -1.1652
-2 -10 -8 6.0534 -3.3926
-2 -10 -7 -0.2417 0.0062
-2 -10 -6 4.0337 -2.5653
-2 -10 -5 3.2758 -0.2890
-2 -10 -4 -16.9779 -6.0445
-2 -10 -3 10.4416 7.5770
-2 -10 -2 -7.2349 -13.8227
-2 -10 -1 6.7252 0.2744
-2 -9 -15 5.6610 -1.5042
-2 -9 -14 -7.3691 -7.4065
-2 -9 -13 -2.3829 3.6013
-2 -9 -12 -1.5600 -8.8037
-2 -9 -11 -4.3642 -2.9625
-2 -9 -10 -6.7381 -3.4177
-2 -9 -9 -0.6848 0.2094
-2 -9 -8 -1.2981 0.1044
-2 -9 -7 -2.4058 5.8635
-2 -9 -6 -1.3716 0.4025
-2 -9 -5 -1.0366 -4.8957
-2 -9 -4 -3.1572 4.0622
-2 -9 -3 9.1334 -10.4744
-2 -9 -2 4.0509 11.3887
-2 -9 -1 6.9163 8.2063
-2 -8 -14 -5.2741 -2.1443
-2 -8 -13 3.2090 3.2411
-2 -8 -12 1.4359 -5.3291
-2 -8 -11 5.2649 -0.2315
-2 -8 -10 3.0182 -0.0632
-2 -8 -9 1.2236 -0.1629
-2 -8 -8 -4.7182 5.3679
-2 -8 -7 2.9059 2.4482
-2 -8 -6 -1.8974 1.3569
-2 -8 -5 4.7440 5.9168
-2 -8 -4 4.0338 -3.4222
-2 -8 -3 -4.0620 2.2736
-2 -8 -2 -3.6713 4.4825
-2 -8 -1 -3.5333 8.6627
-2 -7 -13 -0.2996 -6.2966
-2 -7 -12 -4.9035 -0.3159
-2 -7 -11 2.2876 -0.0223
-2 -7 -10 0.6199 2.5635
-2 -7 -9 -9.3725 -3.7395
-2 -7 -8 -6.5064 2.9301
-2 -7 -7 -7.8313 -0.7743
-2 -7 -6 -3.8774 -3.1532
-2 -7 -5 -2.1427 4.8618
-2 -7 -4 -0.7462 -2.4759
-2 -7 -3 1.8093 0.5309
-2 -7 -2 0.4618 -4.3501
-2 -7 -1 4.3382 -4.3680
-2 -6 -12 -1.2558 -2.1091
-2 -6 -11 -1.9486 -4.4477
-2 -6 -10 -1.1206 6.7297
-2 -6 -9 -3.2804 -1.1956
-2 -6 -8 -2.1761 1.8369
-2 -6 -7 0.6628 6.4113
-2 -6 -6 -7.5348 -3.7880
-2 -6 -5 6.5430 5.7370
-2 -6 -4 -4.0340 7.2058
-2 -6 -3 4.0976 4.9626
-2 -6 -2 2.5994 3.9667
-2 -6 -1 -2.1344 7.5217
-2 -5 -11 -4.4166 -5.4094
-2 -5 -10 8.0106 -2.9352
-2 -5 -9 -2.7479 -0.8172
-2 -5 -8 -6.7343 -9.5683
-2 -5 -7 -7.8900 -2.0931
-2 -5 -6 -12.5849 -2.6367
-2 -5 -5 -1.3696 -5.0852
-2 -5 -4 -2.7988 -4.3968
-2 -5 -3 -0.5654 1.3820
-2 -5 -2 3.3403 -4.2941
-2 -5 -1 -5.7638 0.7790
-2 -4 -10 -6.4549 10.3119
-2 -4 -9 3.1083 6.8838
-2 -4 -8 -7.4182 0.7987
-2 -4 -7 5.6571 -2.4137
-2 -4 -6 -4.6266 0.9657
-2 -4 -5 7.2893 -1.9814
-2 -4 -4 -0.9022 3.5712
-2 -4 -3 3.9115 8.9317
-2 -4 -2 3.5711 9.4959
-2 -4 -1 2.9483 9.1201
-2 -3 -9 -10.6458 -4.9418
-2 -3 -8 -4.8435 -3.7939
-2 -3 -7 8.5084 -7.8246
-2 -3 -6 -3.3611 -4.9807
-2 -3 -5 0.4617 -3.2136
-2 -3 -4 0.6117 0.2229
-2 -3 -3 -11.0538 -1.1214
-2 -3 -2 -0.7714 -1.1320
-2 -3 -1 -2.3154 3.0875
-2 -2 -8 -9.0916 9.4189
-2 -2 -7 5.5967 -3.8740
-2 -2 -6 -3.6855 11.2767
-2 -2 -5 1.3849 8.2012
-2 -2 -4 4.0647 8.9054
-2 -2 -3 1.4574 6.4740
-2 -2 -2 -0.2489 0.1564
-2 -2 -1 -0.6147 1.2180
-2 -1 -7 -9.1434 -12.4654
-2 -1 -6 5.9310 -2.4332
-2 -1 -5 -9.6222 -8.9436
-2 -1 -4 -3.1870 -3.2920
-2 -1 -3 -9.3486 5.5655
-2 -1 -2 -6.0055 -1.8164
-2 -1 -1 -5.9941 -0.9094
-1 -20 -6 4.1401 -11.6006
-1 -20 -5 1.2523 2.9595
-1 -19 -9 6.4656 -0.6679
-1 -19 -8 -5.9872 -4.0289
-1 -19 -7 3.6478 6.0406
-1 -19 -6 1.6562 -5.3608
-1 -19 -5 4.5684 3.5752
-1 -19 -4 2.0377 4.8583
-1 -18 -11 0.5941 -7.1095
-1 -18 -10 8.8720 4.3358
-1 -18 -9 0.2377 -9.4251
-1 -18 -8 2.2712 1.5722
-1 -18 -7 6.2479 2.1929
-1 -18 -6 -2.5063 -1.4816
-1 -18 -5 0.0127 3.4906
-1 -18 -4 7.6249 0.2402
-1 -17 -13 4.0811 0.7244
-1 -17 -12 6.7123 4.0449
-1 -17 -11 3.8333 2.9705
-1 -17 -10 10.7740 -2.2866
-1 -17 -9 1.7189 1.4121
-1 -17 -8 7.8738 0.5907
-1 -17 -7 0.5370 1.2794
-1 -17 -6 -0.4416 2.5937
-1 -17 -5 1.4048 1.1649
-1 -17 -4 2.1559 -3.7821
-1 -17 -3 1.6649 7.4525
-1 -16 -14 -3.7792 7.4986
-1 -16 -13 -2.0194 1.9956
-1 -16 -12 0.2685 5.9992
-1 -16 -11 1.7966 1.8639
-1 -16 -10 -0.8909 -2.0235
-1 -16 -9 -0.4688 2.9318
-1 -16 -8 3.0220 -6.3600
-1 -16 -7 -1.6915 -1.2257
-1 -16 -6 5.3958 -3.3163
-1 -16 -5 6.1076 -1.3139
-1 -16 -4 -0.7259 1.2003
-1 -16 -3 10.8745 5.8662
-1 -15 -16 1.6481 -5.4681
-1 -15 -15 -3.1344 -8.2092
-1 -15 -14 -3.5147 -0.8158
-1 -15 -13 -1.0123 -3.6846
-1 -15 -12 0.3720 2.1346
-1 -15 -11 4.1706 -3.9180
-1 -15 -10 6.0237 -5.1585
-1 -15 -9 10.7495 2.7428
-1 -15 -8 7.8892 -7.8311
-1 -15 -7 11.1361 5.0904
-1 -15 -6 8.1152 4.5626
-1 -15 -5 1.9499 -1.2913
-1 -15 -4 -2.0483 11.9595
-1 -15 -3 -3.2962 1.8539
-1 -15 -2 -10.2614 7.6785
-1 -14 -17 3.0607 3.7807
-1 -14 -16 8.8980 -0.8271
-1 -14 -15 1.8038 -3.1917
-1 -14 -14 3.3755 3.2092
-1 -14 -13 0.6185 -4.7213
-1 -14 -12 0.1617 -1.4519
-1 -14 -11 5.8495 -1.1508
-1 -14 -10 2.4362 -0.5018
-1 -14 -9 7.5174 2.3182
-1 -14 -8 -3.5493 2.4260
-1 -14 -7 -0.7636 4.0542
-1 -14 -6 0.2968 1.3613
-1 -14 -5 -7.6362 0.1923
-1 -14 -4 3.6462 -2.1898
-1 -14 -3 -5.2361 -5.6512
-1 -14 -2 -4.7922 -9.3255
-1 -13 -17 5.3119 8.3526
-1 -13 -16 -4.8124 -0.1739
-1 -13 -15 5.1877 3.3326
-1 -13 -14 2.2834 -0.1481
-1 -13 -13 2.1742 -3.0029
-1 -13 -12 2.8716 4.8226
-1 -13 -11 8.0334 2.3411
-1 -13 -10 2.0713 2.9555
-1 -13 -9 8.8835 1.3267
-1 -13 -8 4.1888 -2.4086
-1 -13 -7 3.6226 -4.3503
-1 -13 -6 0.6282 -7.1830
-1 -13 -5 3.0301 -0.4641
-1 -13 -4 -5.7720 -11.6933
-1 -13 -3 -2.6976 -1.0976
-1 -13 -2 -3.4730 -3.7635
-1 -12 -16 -3.1278 8.0422
-1 -12 -15 5.5477 -3.8923
-1 -12 -14 -1.6179 4.0224
-1 -12 -13 -1.9338 2.2722
-1 -12 -12 1.0760 3.1181
-1 -12 -11 -2.6951 -0.2549
-1 -12 -10 -2.9710 1.2286
-1 -12 -9 2.6537 1.9910
-1 -12 -8 -1.8065 3.2336
-1 -12 -7 -1.1923 -4.1834
-1 -12 -6 1.8265 2.1075
-1 -12 -5 5.9883 -14.7331
-1 -12 -4 1.0399 -8.0472
-1 -12 -3 15.0280 -11.0553
-1 -12 -2 -2.8663 -17.5001
-1 -11 -16 6.7754 6.3634
-1 -11 -15 -0.3124 0.0902
-1 -11 -14 -2.9040 2.7804
-1 -11 -13 2.1160 -0.7406
-1 -11 -12 -7.2745 -1.5863
-1 -11 -11 2.2625 0.9436
-1 -11 -10 -2.4953 0.3280
-1 -11 -9 -5.1261 -5.1423
-1 -11 -8 2.5301 -3.2222
-1 -11 -7 -6.4580 -8.9916
-1 -11 -6 12.2586 -8.4773
-1 -11 -5 2.1189 -6.8207
-1 -11 -4 15.6789 -0.0787
-1 -11 -3 6.0767 -6.8668
-1 -11 -2 0.3729 -0.9848
-1 -10 -15 -3.4290 -1.8657
-1 -10 -14 3.6737 2.5085
-1 -10 -13 -1.8130 -5.8526
-1 -10 -12 -0.5886 0.5544
-1 -10 -11 -1.0332 -1.4374
-1 -10 -10 -0.6952 -7.8502
-1 -10 -9 -0.8456 -5.2223
-1 -10 -8 13.4577 -16.6988
-1 -10 -7 2.8160 0.1422
-1 -10 -6 11.4007 -6.0508
-1 -10 -5 4.8454 9.7447
-1 -10 -4 0.0233 2.3704
-1 -10 -3 6.5395 2.7063
-1 -10 -2 4.6311 -14.2309
-1 -10 -1 4.1310 -1.6317
-1 -9 -14 3.9168 -3.4281
-1 -9 -13 2.3371 2.8053
-1 -9 -12 0.6279 -1.0838
-1 -9 -11 -1.8612 -2.8076
-1 -9 -10 -3.1222 -0.2322
-1 -9 -9 9.4523 2.4938
-1 -9 -8 2.5914 -2.2410
-1 -9 -7 6.3246 6.3225
-1 -9 -6 0.4106 1.8140
-1 -9 -5 -7.3769 -6.4030
-1 -9 -4 -7.1940 -3.4562
-1 -9 -3 -3.7127 -7.9071
-1 -9 -2 3.3279 -16.8993
-1 -9 -1 2.7098 -1.7485
-1 -8 -13 1.1370 12.8301
-1 -8 -12 2.2559 -4.6332
-1 -8 -11 0.5640 -2.3166
-1 -8 -10 3.6780 -4.0620
-1 -8 -9 -0.8700 -3.3673
-1 -8 -8 0.8745 -2.7666
-1 -8 -7 -8.0668 -3.2606
-1 -8 -6 0.2319 -5.3006
-1 -8 -5 -2.7824 -7.3624
-1 -8 -4 4.1172 -3.7508
-1 -8 -3 9.9390 0.1766
-1 -8 -2 3.4414 -8.4908
-1 -8 -1 25.3969 2.5237
-1 -7 -12 -13.5699 5.3532
-1 -7 -11 3.8938 -0.4981
-1 -7 -10 -1.2091 7.4120
-1 -7 -9 4.9016 0.4783
-1 -7 -8 4.7471 -0.9944
-1 -7 -7 3.0683 -3.3555
-1 -7 -6 6.0581 -14.7850
-1 -7 -5 -4.5495 -10.0550
-1 -7 -4 9.0916 -8.2836
-1 -7 -3 -11.4756 -6.6591
-1 -7 -2 2.1266 -0.1853
-1 -7 -1 3.1375 -1.3851
-1 -6 -11 -16.5155 -13.0041
-1 -6 -10 1.3373 2.3370
-1 -6 -9 -9.2464 -4.6140
-1 -6 -8 -2.7012 11.8654
-1 -6 -7 5.1380 1.8205
-1 -6 -6 -0.0233 -1.4771
-1 -6 -5 0.7760 2.6935
-1 -6 -4 2.8253 -14.1561
-1 -6 -3 6.1005 10.4616
-1 -6 -2 -3.3189 -1.9540
-1 -6 -1 14.7929 9.4379
-1 -5 -9 -12.9297 -10.0375
-1 -5 -8 -1.5766 -0.3064
-1 -5 -7 -10.3720 -7.5026
-1 -5 -6 4.1661 -3.2864
-1 -5 -5 1.4808 -13.2326
-1 -5 -4 2.2421 -12.4428
-1 -5 -3 6.8533 -17.4477
-1 -5 -2 -13.6491 -7.2484
-1 -5 -1 -10.3289 -6.5194
-1 -4 -8 4.7685 -9.0858
-1 -4 -7 -2.2934 -2.7643
-1 -4 -6 3.7081 -5.7253
-1 -4 -5 3.4342 9.7852
-1 -4 -4 6.2710 0.7908
-1 -4 -3 1.5286 -3.1161
-1 -4 -2 13.0761 0.8799
-1 -4 -1 6.3417 -8.3926
-1 -3 -7 0.2327 -1.7508
-1 -3 -6 -8.2484 -4.9812
-1 -3 -5 13.3428 -7.5773
-1 -3 -4 -5.6473 -26.0868
-1 -3 -3 3.7981 -4.4670
-1 -2 -5 15.0936 -6.4860
-1 -2 -4 12.7598 10.8489
-1 -1 -4 -3.8088 12.3285
0 3 5 0.0126 -0.7220
0 4 5 19.0568 0.1406
0 4 6 6.4342 0.0723
0 4 7 -11.4557 -0.1009
0 5 3 -0.0758 21.0221
0 5 5 -0.0034 20.8016
0 5 6 0.0167 1.1764
0 5 7 0.0616 0.5761
0 5 8 -0.0438 -14.4075
0 5 9 0.0346 -2.5916
0 6 1 -42.3934 -0.0463
0 6 4 -2.8631 0.0348
0 6 5 -23.9891 -0.0161
0 6 6 -5.5254 0.0792
0 6 7 27.0578 0.1243
0 6 8 12.4061 -0.0646
0 6 9 -7.2840 -0.0665
0 6 10 12.3947 -0.0782
0 7 1 0.0970 10.0664
0 7 2 0.0148 -20.1753
0 7 3 0.0027 1.6686
0 7 4 -0.1211 -6.6316
0 7 5 -0.0122 -3.4153
0 7 6 -0.0060 14.2860
0 7 7 0.0600 2.2022
0 7 8 0.0386 7.3728
0 7 9 -0.0286 10.0706
0 7 10 -0.0426 -15.4690
0 7 11 -0.0040 11.4862
0 8 1 -4.4354 -0.0168
0 8 2 21.4396 -0.0091
0 8 3 -2.2742 -0.0289
0 8 4 1.9792 0.0633
0 8 5 -8.7304 0.0918
0 8 6 -2.3979 -0.0282
0 8 7 -11.5823 0.0518
0 8 8 1.5340 0.0186
0 8 9 5.7600 0.0104
0 8 10 -0.5500 -0.0684
0 8 11 8.1779 -0.0318
0 8 12 -7.4768 0.0158
0 9 1 -0.0008 -1.7386
0 9 2 -0.0461 2.8952
0 9 3 0.0643 -12.4802
0 9 4 -0.0032 -3.0025
0 9 5 -0.0023 -14.3633
0 9 6 -0.0013 -6.0256
0 9 7 -0.0261 -4.7115
0 9 8 0.0570 -8.3854
0 9 9 0.0338 1.6505
0 9 10 -0.0068 -1.7365
0 9 11 -0.0414 -1.7458
0 9 12 -0.0195 2.7093
0 9 13 -0.0143 -4.0821
0 10 1 2.4555 0.0047
0 10 2 18.9138 0.0048
0 10 3 -2.2462 -0.0167
0 10 4 16.4206 -0.0338
0 10 5 -1.5416 0.0504
0 10 6 6.2398 0.0215
0 10 7 7.0508 0.0288
0 10 8 -1.2588 -0.0166
0 10 9 3.3736 -0.0117
0 10 10 2.2776 0.0077
0 10 11 -1.9219 -0.0058
0 10 12 2.6384 -0.0184
0 10 13 -0.6175 -0.0053
0 10 14 1.7103 0.0472
0 11 1 0.0365 -7.5178
0 11 2 -0.0124 0.1212
0 11 3 -0.0068 1.3455
0 11 4 -0.0019 2.1679
0 11 5 0.0096 -2.5644
0 11 6 0.0416 0.0390
0 11 7 -0.0338 -5.0484
0 11 8 0.0171 -1.3589
0 11 9 0.0191 -0.0983
0 11 10 0.0190 -4.3976
0 11 11 0.0040 -0.7387
0 11 12 -0.0311 -2.5539
0 11 13 -0.0326 -4.8456
0 11 14 0.0110 2.0115
0 11 15 0.0248 0.2186
0 12 2 12.3609 -0.0135
0 12 3 -0.7171 0.0065
0 12 4 6.1243 -0.0076
0 12 5 -4.3388 -0.0029
0 12 6 -0.4551 0.0017
0 12 7 -3.6842 0.0085
0 12 8 1.6484 0.0117
0 12 9 -1.8135 -0.0187
0 12 10 2.3341 -0.0168
0 12 11 -3.6505 -0.0083
0 12 12 3.9980 0.0172
0 12 13 -6.9813 -0.0098
0 12 14 6.8492 0.0044
0 12 15 -6.9302 0.0163
0 12 16 4.0495 0.0183
0 13 2 -0.0145 2.7618
0 13 3 -0.0071 2.6680
0 13 4 -0.0026 1.9242
0 13 5 -0.0285 2.2415
0 13 6 0.0272 -2.7956
0 13 7 0.0159 -3.2963
0 13 8 0.0079 -7.2709
0 13 9 -0.0117 0.9790
0 13 10 -0.0147 -9.1129
0 13 11 0.0185 1.9511
0 13 12 -0.0069 -9.0946
0 13 13 -0.0075 2.4685
0 13 14 -0.0107 -5.9121
0 13 15 0.0010 2.0250
0 13 16 0.0212 -1.1108
0 13 17 0.0180 -2.7007
0 14 2 9.2230 -0.0181
0 14 3 -5.1597 -0.0028
0 14 4 -4.5585 0.0251
0 14 5 -5.2397 -0.0034
0 14 6 0.8249 -0.0021
0 14 7 0.5909 -0.0043
0 14 8 1.2236 0.0015
0 14 9 5.4656 -0.0039
0 14 10 -1.3572 -0.0030
0 14 11 3.5471 -0.0173
0 14 12 3.1787 -0.0096
0 14 13 -3.1947 0.0139
0 14 14 1.4293 0.0144
0 14 15 -7.8893 -0.0001
0 14 16 -3.3280 -0.0093
0 14 17 -2.0205 0.0127
0 15 3 -0.0086 1.7299
0 15 4 -0.0082 -5.5221
0 15 5 -0.0049 -1.4408
0 15 6 -0.0001 0.0337
0 15 7 -0.0108 1.9046
0 15 8 0.0175 2.3977
0 15 9 0.0242 2.3962
0 15 10 -0.0357 -0.8554
0 15 11 -0.0079 3.1831
0 15 12 -0.0050 -3.6089
0 15 13 -0.0068 0.3336
0 15 14 0.0067 -5.3732
0 15 15 -0.0057 -4.0218
0 15 16 0.0031 -3.2463
0 16 3 4.7981 -0.0194
0 16 4 0.4359 0.0120
0 16 5 3.1200 0.0275
0 16 6 -2.9003 0.0161
0 16 7 -0.7899 -0.0009
0 16 8 -2.7703 -0.0105
0 16 9 0.8003 -0.0040
0 16 10 1.1048 -0.0087
0 16 11 4.1563 0.0094
0 16 12 2.1207 -0.0037
0 16 13 2.4078 -0.0012
0 16 14 5.3941 0.0101
0 16 15 -1.4936 0.0141
0 17 4 -0.0052 9.3409
0 17 5 -0.0093 -8.5571
0 17 6 0.0188 3.8176
0 17 7 0.0088 -2.9591
0 17 8 -0.0104 -1.2477
0 17 9 0.0127 2.9244
0 17 10 0.0036 4.4467
0 17 11 -0.0127 1.9874
0 17 12 -0.0176 8.5500
0 17 14 0.0137 4.7463
0 18 4 7.7808 0.0045
0 18 5 -3.5452 0.0047
0 18 6 7.2148 0.0139
0 18 7 3.9508 0.0254
0 18 8 1.2123 -0.0071
0 18 9 0.8271 -0.0025
0 18 10 -2.2269 -0.0128
0 18 11 -5.1356 -0.0013
0 18 12 -0.2985 0.0107
0 19 5 -0.0123 2.3443
0 19 6 0.0129 0.9530
0 19 7 0.0136 -1.6516
0 19 8 0.0194 -1.8350
0 19 9 0.0057 -1.4001
0 19 10 -0.0035 -3.1765
0 20 5 -0.5472 0.0136
0 20 6 3.2400 0.0019
0 20 7 3.6764 0.0091
1 2 4 12.7598 -10.8489
1 2 5 15.0936 6.4860
1 3 2 10.2116 12.8391
1 3 3 3.7981 4.4670
1 3 4 -5.6473 26.0868
1 3 5 13.3428 7.5773
1 3 6 -8.2484 4.9812
1 4 0 1.5728 -4.1700
1 4 1 6.3417 8.3926
1 4 2 13.0761 -0.8799
1 4 3 1.5286 3.1161
1 4 4 6.2710 -0.7908
1 4 5 3.4342 -9.7852
1 4 6 3.7081 5.7253
1 4 7 -2.2934 2.7643
1 5 0 -0.1253 -6.4719
1 5 1 -10.3289 6.5194
1 5 2 -13.6491 7.2484
1 5 3 6.8533 17.4477
1 5 4 2.2421 12.4428
1 5 5 1.4808 13.2326
1 5 6 4.1661 3.2864
1 5 7 -10.3720 7.5026
1 5 8 -1.5766 0.3064
1 5 9 -12.9297 10.0375
1 6 0 1.5763 -6.0359
1 6 1 14.7929 -9.4379
1 6 2 -3.3189 1.9540
1 6 3 6.1005 -10.4616
1 6 4 2.8253 14.1561
1 6 5 0.7760 -2.6935
1 6 6 -0.0233 1.4771
1 6 7 5.1380 -1.8205
1 6 8 -2.7012 -11.8654
1 6 9 -9.2464 4.6140
1 6 10 1.3373 -2.3370
1 7 0 0.4750 5.6606
1 7 1 3.1375 1.3851
1 7 2 2.1266 0.1853
1 7 3 -11.4756 6.6591
1 7 4 9.0916 8.2836
1 7 5 -4.5495 10.0550
1 7 6 6.0581 14.7850
1 7 7 3.0683 3.3555
1 7 8 4.7471 0.9944
1 7 9 4.9016 -0.4783
1 7 10 -1.2091 -7.4120
1 7 11 3.8938 0.4981
1 7 12 -13.5699 -5.3532
1 8 0 0.8225 13.6404
1 8 1 25.3969 -2.5237
1 8 2 3.4414 8.4908
1 8 3 9.9390 -0.1766
1 8 4 4.1172 3.7508
1 8 5 -2.7824 7.3624
1 8 6 0.2319 5.3006
1 8 7 -8.0668 3.2606
1 8 8 0.8745 2.7666
1 8 9 -0.8700 3.3673
1 8 10 3.6780 4.0620
1 8 11 0.5640 2.3166
1 8 12 2.2559 4.6332
1 8 13 1.1370 -12.8301
1 9 0 0.7088 19.2724
1 9 1 2.7098 1.7485
1 9 2 3.3279 16.8993
1 9 3 -3.7127 7.9071
1 9 4 -7.1940 3.4562
1 9 5 -7.3769 6.4030
1 9 6 0.4106 -1.8140
1 9 7 6.3246 -6.3225
1 9 8 2.5914 2.2410
1 9 9 9.4523 -2.4938
1 9 10 -3.1222 0.2322
1 9 11 -1.8612 2.8076
1 9 12 0.6279 1.0838
1 9 13 2.3371 -2.8053
1 9 14 3.9168 3.4281
1 10 0 0.0682 27.5405
1 10 1 4.1310 1.6317
1 10 2 4.6311 14.2309
1 10 3 6.5395 -2.7063
1 10 4 0.0233 -2.3704
1 10 5 4.8454 -9.7447
1 10 6 11.4007 6.0508
1 10 7 2.8160 -0.1422
1 10 8 13.4577 16.6988
1 10 9 -0.8456 5.2223
1 10 10 -0.6952 7.8502
1 10 11 -1.0332 1.4374
1 10 12 -0.5886 -0.5544
1 10 13 -1.8130 5.8526
1 10 14 3.6737 -2.5085
1 10 15 -3.4290 1.8657
1 11 1 -3.2729 3.2015
1 11 2 0.3729 0.9848
1 11 3 6.0767 6.8668
1 11 4 15.6789 0.0787
1 11 5 2.1189 6.8207
1 11 6 12.2586 8.4773
1 11 7 -6.4580 8.9916
1 11 8 2.5301 3.2222
1 11 9 -5.1261 5.1423
1 11 10 -2.4953 -0.3280
1 11 11 2.2625 -0.9436
1 11 12 -7.2745 1.5863
1 11 13 2.1160 0.7406
1 11 14 -2.9040 -2.7804
1 11 15 -0.3124 -0.0902
1 11 16 6.7754 -6.3634
1 12 1 3.2561 3.1810
1 12 2 -2.8663 17.5001
1 12 3 15.0280 11.0553
1 12 4 1.0399 8.0472
1 12 5 5.9883 14.7331
1 12 6 1.8265 -2.1075
1 12 7 -1.1923 4.1834
1 12 8 -1.8065 -3.2336
1 12 9 2.6537 -1.9910
1 12 10 -2.9710 -1.2286
1 12 11 -2.6951 0.2549
1 12 12 1.0760 -3.1181
1 12 13 -1.9338 -2.2722
1 12 14 -1.6179 -4.0224
1 12 15 5.5477 3.8923
1 12 16 -3.1278 -8.0422
1 12 17 2.8348 13.4089
1 13 1 -5.6601 3.5689
1 13 2 -3.4730 3.7635
1 13 3 -2.6976 1.0976
1 13 4 -5.7720 11.6933
1 13 5 3.0301 0.4641
1 13 6 0.6282 7.1830
1 13 7 3.6226 4.3503
1 13 8 4.1888 2.4086
1 13 9 8.8835 -1.3267
1 13 10 2.0713 -2.9555
1 13 11 8.0334 -2.3411
1 13 12 2.8716 -4.8226
1 13 13 2.1742 3.0029
1 13 14 2.2834 0.1481
1 13 15 5.1877 -3.3326
1 13 16 -4.8124 0.1739
1 13 17 5.3119 -8.3526
1 14 2 -4.7922 9.3255
1 14 3 -5.2361 5.6512
1 14 4 3.6462 2.1898
1 14 5 -7.6362 -0.1923
1 14 6 0.2968 -1.3613
1 14 7 -0.7636 -4.0542
1 14 8 -3.5493 -2.4260
1 14 9 7.5174 -2.3182
1 14 10 2.4362 0.5018
1 14 11 5.8495 1.1508
1 14 12 0.1617 1.4519
1 14 13 0.6185 4.7213
1 14 14 3.3755 -3.2092
1 14 15 1.8038 3.1917
1 14 16 8.8980 0.8271
1 14 17 3.0607 -3.7807
1 15 2 -10.2614 -7.6785
1 15 3 -3.2962 -1.8539
1 15 4 -2.0483 -11.9595
1 15 5 1.9499 1.2913
1 15 6 8.1152 -4.5626
1 15 7 11.1361 -5.0904
1 15 8 7.8892 7.8311
1 15 9 10.7495 -2.7428
1 15 10 6.0237 5.1585
1 15 11 4.1706 3.9180
1 15 12 0.3720 -2.1346
1 15 13 -1.0123 3.6846
1 15 14 -3.5147 0.8158
1 15 15 -3.1344 8.2092
1 15 16 1.6481 5.4681
1 16 3 10.8745 -5.8662
1 16 4 -0.7259 -1.2003
1 16 5 6.1076 1.3139
1 16 6 5.3958 3.3163
1 16 7 -1.6915 1.2257
1 16 8 3.0220 6.3600
1 16 9 -0.4688 -2.9318
1 16 10 -0.8909 2.0235
1 16 11 1.7966 -1.8639
1 16 12 0.2685 -5.9992
1 16 13 -2.0194 -1.9956
1 16 14 -3.7792 -7.4986
1 17 3 1.6649 -7.4525
1 17 4 2.1559 3.7821
1 17 5 1.4048 -1.1649
1 17 7 0.5370 -1.2794
1 17 8 7.8738 -0.5907
1 17 9 1.7189 -1.4121
1 17 10 10.7740 2.2866
1 17 11 3.8333 -2.9705
1 17 12 6.7123 -4.0449
1 17 13 4.0811 -0.7244
1 18 4 7.6249 -0.2402
1 18 5 0.0127 -3.4906
1 18 6 -2.5063 1.4816
1 18 7 6.2479 -2.1929
1 18 8 2.2712 -1.5722
1 18 9 0.2377 9.4251
1 18 10 8.8720 -4.3358
1 18 11 0.5941 7.1095
1 19 4 2.0377 -4.8583
1 19 5 4.5684 -3.5752
1 19 6 1.6562 5.3608
1 19 7 3.6478 -6.0406
1 19 8 -5.9872 4.0289
1 19 9 6.4656 0.6679
1 20 5 1.2523 -2.9595
1 20 6 4.1401 11.6006
2 0 0 1.2208 -0.1876
2 0 1 -0.2898 -3.0883
2 0 2 -2.0340 -0.2269
2 0 3 0.1219 -3.4409
2 0 4 -0.8704 0.1183
2 0 5 0.2027 -5.2255
2 0 6 16.1457 0.0961
2 1 0 8.7659 -0.4490
2 1 1 -5.9941 0.9094
2 1 2 -6.0055 1.8164
2 1 3 -9.3486 -5.5655
2 1 4 -3.1870 3.2920
2 1 5 -9.6222 8.9436
2 1 6 5.9310 2.4332
2 1 7 -9.1434 12.4654
2 2 0 0.2193 -0.7353
2 2 1 -0.6147 -1.2180
2 2 2 -0.2489 -0.1564
2 2 3 1.4574 -6.4740
2 2 4 4.0647 -8.9054
2 2 5 1.3849 -8.2012
2 2 6 -3.6855 -11.2767
2 2 7 5.5967 3.8740
2 2 8 -9.0916 -9.4189
2 3 0 -8.2473 -1.1718
2 3 1 -2.3154 -3.0875
2 3 2 -0.7714 1.1320
2 3 3 -11.0538 1.1214
2 3 4 0.6117 -0.2229
2 3 5 0.4617 3.2136
2 3 6 -3.3611 4.9807
2 3 7 8.5084 7.8246
2 3 8 -4.8435 3.7939
2 4 0 2.0807 -0.3963
2 4 1 2.9483 -9.1201
2 4 2 3.5711 -9.4959
2 4 3 3.9115 -8.9317
2 4 4 -0.9022 -3.5712
2 4 5 7.2893 1.9814
2 4 6 -4.6266 -0.9657
2 4 7 5.6571 2.4137
2 4 8 -7.4182 -0.7987
2 4 9 3.1083 -6.8838
2 4 10 -6.4549 -10.3119
2 5 0 2.5141 -1.2581
2 5 1 -5.7638 -0.7790
2 5 2 3.3403 4.2941
2 5 3 -0.5654 -1.3820
2 5 4 -2.7988 4.3968
2 5 5 -1.3696 5.0852
2 5 6 -12.5849 2.6367
2 5 7 -7.8900 2.0931
2 5 8 -6.7343 9.5683
2 5 9 -2.7479 0.8172
2 5 10 8.0106 2.9352
2 5 11 -4.4166 5.4094
2 6 0 4.3483 0.1346
2 6 1 -2.1344 -7.5217
2 6 2 2.5994 -3.9667
2 6 3 4.0976 -4.9626
2 6 4 -4.0340 -7.2058
2 6 5 6.5430 -5.7370
2 6 6 -7.5348 3.7880
2 6 7 0.6628 -6.4113
2 6 8 -2.1761 -1.8369
2 6 9 -3.2804 1.1956
2 6 10 -1.1206 -6.7297
2 6 11 -1.9486 4.4477
2 6 12 -1.2558 2.1091
2 7 0 6.2966 -0.9271
2 7 1 4.3382 4.3680
2 7 2 0.4618 4.3501
2 7 3 1.8093 -0.5309
2 7 4 -0.7462 2.4759
2 7 5 -2.1427 -4.8618
2 7 6 -3.8774 3.1532
2 7 7 -7.8313 0.7743
2 7 8 -6.5064 -2.9301
2 7 9 -9.3725 3.7395
2 7 10 0.6199 -2.5635
2 7 11 2.2876 0.0223
2 7 13 -0.2996 6.2966
2 8 0 -10.0807 0.3815
2 8 1 -3.5333 -8.6627
2 8 2 -3.6713 -4.4825
2 8 3 -4.0620 -2.2736
2 8 4 4.0338 3.4222
2 8 5 4.7440 -5.9168
2 8 6 -1.8974 -1.3569
2 8 7 2.9059 -2.4482
2 8 8 -4.7182 -5.3679
2 8 9 1.2236 0.1629
2 8 10 3.0182 0.0632
2 8 11 5.2649 0.2315
2 8 12 1.4359 5.3291
2 8 13 3.2090 -3.2411
2 8 14 -5.2741 2.1443
2 9 0 4.7639 -0.4663
2 9 1 6.9163 -8.2063
2 9 2 4.0509 -11.3887
2 9 3 9.1334 10.4744
2 9 4 -3.1572 -4.0622
2 9 5 -1.0366 4.8957
2 9 6 -1.3716 -0.4025
2 9 7 -2.4058 -5.8635
2 9 8 -1.2981 -0.1044
2 9 9 -0.6848 -0.2094
2 9 10 -6.7381 3.4177
2 9 11 -4.3642 2.9625
2 9 12 -1.5600 8.8037
2 9 13 -2.3829 -3.6013
2 9 14 -7.3691 7.4065
2 9 15 5.6610 1.5042
2 10 0 10.0487 0.4109
2 10 1 6.7252 -0.2744
2 10 2 -7.2349 13.8227
2 10 3 10.4416 -7.5770
2 10 4 -16.9779 6.0445
2 10 5 3.2758 0.2890
2 10 6 4.0337 2.5653
2 10 7 -0.2417 -0.0062
2 10 8 6.0534 3.3926
2 10 9 -3.6351 1.1652
2 10 10 -0.5613 -0.0452
2 10 11 -6.6581 -0.4537
2 10 12 7.2745 3.4325
2 10 13 -4.2584 -8.1579
2 10 14 6.1843 0.6172
2 10 15 -4.7807 -6.6885
2 10 16 -1.1772 -7.0048
2 11 0 -4.9308 0.0408
2 11 1 -4.2538 9.9462
2 11 2 -3.3936 2.9653
2 11 3 -2.3054 -10.2088
2 11 4 3.1246 0.2980
2 11 5 0.6222 -1.8358
2 11 6 -2.2150 -2.4354
2 11 7 -1.2556 4.6459
2 11 8 -7.0773 -2.9250
2 11 9 -1.7760 -3.0574
2 11 10 -0.8093 -3.8181
2 11 11 -5.7763 -1.0317
2 11 12 -0.7748 -0.2572
2 11 13 -0.5632 5.3164
2 11 14 -0.1598 2.5383
2 11 15 7.9831 5.6920
2 11 16 -0.4835 -5.7379
2 12 0 -10.7673 0.2398
2 12 1 -1.2123 -11.8991
2 12 2 -4.2377 3.1894
2 12 3 0.4238 2.9035
2 12 4 2.2146 5.2799
2 12 5 1.3990 2.1595
2 12 6 2.4392 6.2882
2 12 7 -0.5071 1.2823
2 12 8 6.7189 0.6906
2 12 9 0.7298 1.6023
2 12 10 5.6954 -0.6890
2 12 11 -0.9972 0.7178
2 12 12 5.1632 -1.1392
2 12 13 -4.5756 -0.6990
2 12 14 2.9191 0.1315
2 12 15 -0.1775 -1.3760
2 12 16 -9.3483 -0.3448
2 12 17 7.0125 -0.0876
2 13 1 -1.4440 5.4179
2 13 2 0.0119 -0.5788
2 13 3 -4.4669 1.8947
2 13 4 -8.9227 -0.9900
2 13 5 -1.0030 2.1060
2 13 6 -5.2720 3.8864
2 13 7 -1.2039 4.4858
2 13 8 -3.7792 2.6003
2 13 9 -2.3080 1.8090
2 13 10 -3.3913 -0.2624
2 13 11 0.8011 0.2224
2 13 12 2.1086 -2.1975
2 13 13 -2.7505 2.7742
2 13 14 -1.4399 -1.3270
2 13 15 1.7787 -0.2549
2 13 16 -7.6077 5.0196
2 14 1 -0.3349 -0.2769
2 14 2 -6.1575 -2.2311
2 14 3 -6.2296 -6.7491
2 14 4 3.1366 1.4563
2 14 5 -10.6676 -1.5774
2 14 6 4.6579 0.2145
2 14 7 -6.0871 0.5131
2 14 8 2.2800 -0.8082
2 14 9 1.5447 0.0624
2 14 10 3.2625 -4.6999
2 14 11 2.9086 6.3867
2 14 12 2.5249 -1.5386
2 14 13 1.5888 3.3143
2 14 14 2.9247 0.5666
2 14 15 -0.7763 -8.5167
2 15 2 3.2754 -9.1366
2 15 3 2.4420 3.2941
2 15 4 -3.2795 -9.8814
2 15 5 -0.2669 3.3737
2 15 6 -5.1341 -7.4803
2 15 7 3.2134 5.0991
2 15 8 -2.9131 6.9842
2 15 9 5.7343 -1.6775
2 15 10 -3.6368 12.7776
2 15 11 -0.8910 -5.5589
2 15 12 -3.6782 2.4380
2 15 13 -1.9597 0.0823
2 15 14 -1.8635 0.2818
2 16 2 1.9045 4.8950
2 16 3 4.5384 -1.1154
2 16 4 2.5052 0.8730
2 16 5 3.4334 -8.0722
2 16 6 -0.8886 1.0588
2 16 7 -0.3329 -3.8737
2 16 8 1.1810 -0.5430
2 16 9 -9.5586 3.1916
2 16 10 6.3654 -2.9470
2 16 11 -5.9103 -1.1404
2 16 12 8.7006 -3.4630
2 16 13 4.1891 -3.9844
2 17 2 0.0811 1.6970
2 17 3 -2.7729 0.4511
2 17 4 3.7039 -2.0187
2 17 5 4.7130 2.9694
2 17 6 2.6340 5.8668
2 17 7 6.7174 -3.0871
2 17 8 -1.7092 7.7641
2 17 9 8.1389 0.7924
2 17 10 -1.3176 -2.8480
2 17 11 6.1528 4.8039
2 18 3 1.7149 -3.3712
2 18 4 -0.0785 8.0660
2 18 5 0.4179 -2.4367
2 18 6 -2.3715 9.0436
2 18 7 -4.4202 0.1726
2 18 8 -6.8242 6.4753
2 18 9 0.8868 -4.8794
2 19 4 6.3005 2.5991
2 19 5 -7.7185 -11.3036
3 0 1 -0.0586 5.4961
3 0 2 -0.1575 -0.3161
3 0 3 -0.1153 -4.2856
3 0 4 -1.6536 -0.1888
3 0 5 -0.0183 -10.6337
3 0 6 -3.7152 0.0570
3 0 7 -0.0735 -1.5420
3 0 8 4.6077 0.0657
3 1 0 -0.9816 -7.0588
3 1 1 3.3279 2.1497
3 1 2 2.6674 -4.1108
3 1 3 -1.1117 -0.8330
3 1 4 4.0874 -2.3052
3 1 5 -0.6112 -0.7953
3 1 6 6.4799 -3.9862
3 1 7 4.1096 -1.8842
3 1 8 -1.0738 3.0135
3 1 9 5.0864 1.1550
3 2 0 0.0182 6.3579
3 2 1 2.4732 -1.3964
3 2 2 -2.3579 6.8195
3 2 3 -4.7497 6.4917
3 2 4 -2.6917 -0.2412
3 2 5 -1.5657 3.7031
3 2 6 2.6685 0.1816
3 2 7 0.7817 -4.5525
3 2 8 -0.0319 4.8981
3 2 9 -2.8382 1.9878
3 2 10 -2.1859 -6.6685
3 3 0 -0.6088 3.9635
3 3 1 -7.0054 -2.4768
3 3 2 -6.0097 -1.0286
3 3 3 3.5550 -2.5594
3 3 4 -0.1584 -9.0616
3 3 5 0.7027 -5.5175
3 3 6 0.1832 -1.0976
3 3 7 0.3748 -3.8780
3 3 8 -0.0429 4.8506
3 3 9 2.9242 -0.9207
3 3 10 3.0263 -1.3537
3 3 11 7.5020 -6.5455
3 4 0 -0.0739 -0.2575
3 4 1 -7.2543 -2.5393
3 4 2 4.0205 0.4022
3 4 3 -0.4183 -3.2285
3 4 4 6.9597 9.4886
3 4 5 1.7177 0.7610
3 4 6 8.7974 5.7434
3 4 7 -3.1531 -1.6203
3 4 8 9.9460 -3.5572
3 4 9 -7.5505 -0.7043
3 4 10 -0.8013 1.3173
3 4 11 2.1545 6.7824
3 4 12 -2.3980 0.9516
3 5 0 -0.0184 -2.5557
3 5 1 7.4194 2.5126
3 5 2 4.5570 -2.7389
3 5 3 -7.1155 5.0763
3 5 4 -0.5161 3.5010
3 5 5 -3.7151 7.5184
3 5 6 0.2721 -0.0099
3 5 7 -2.1446 7.2835
3 5 8 2.2280 -5.1660
3 5 9 0.4445 2.8146
3 5 10 -1.8603 -0.1638
3 5 11 -0.3774 -6.6207
3 5 12 3.1549 -0.6843
3 6 0 -0.1952 7.8186
3 6 1 -1.2346 2.0394
3 6 2 4.3304 9.1832
3 6 3 -6.2027 0.3014
3 6 4 -3.2265 -0.3836
3 6 5 -7.6841 -0.7888
3 6 6 -4.0467 -2.9439
3 6 7 -4.1152 0.9695
3 6 8 -1.8290 1.8839
3 6 9 3.6300 -2.0583
3 6 10 0.6031 -3.3411
3 6 11 -1.3755 -0.3172
3 6 12 6.3204 -2.0215
3 6 13 1.2219 4.0972
3 7 0 0.4594 -0.3623
3 7 1 -5.9346 11.2735
3 7 2 4.8073 0.5942
3 7 3 -3.1748 10.6897
3 7 4 0.8943 -5.1947
3 7 5 -3.8456 -4.8183
3 7 6 2.5372 -5.9519
3 7 7 1.9490 -5.1710
3 7 8 -0.1119 -1.4048
3 7 9 -1.7543 -3.0582
3 7 10 1.0736 1.2200
3 7 11 -4.7038 -1.1329
3 7 12 5.3904 2.0766
3 7 13 -1.0805 2.8823
3 7 14 -0.2461 0.6258
3 8 0 -0.0719 1.2254
3 8 1 4.6996 3.8561
3 8 2 -14.1375 -7.7724
3 8 3 -1.8347 9.3513
3 8 4 -4.5284 -7.0958
3 8 5 -3.7014 3.3450
3 8 6 6.9875 3.2104
3 8 7 2.6744 0.1621
3 8 8 3.9532 1.6835
3 8 9 -0.0965 -0.2260
3 8 10 1.6939 -4.1899
3 8 11 -1.7501 -2.7185
3 8 12 0.5151 -5.6642
3 8 13 -2.8568 2.3395
3 8 14 0.4017 -1.5325
3 8 15 -4.5684 -4.0141
3 9 0 0.6424 10.7715
3 9 1 4.9437 -1.9089
3 9 2 -8.3494 4.4419
3 9 3 6.8845 -0.9790
3 9 4 0.1096 -3.8242
3 9 5 0.1859 0.1787
3 9 6 -1.5354 -4.4047
3 9 7 -7.9973 0.6309
3 9 8 1.7700 2.3070
3 9 9 -4.1212 -2.0613
3 9 10 5.3436 1.7407
3 9 11 1.5124 -1.7428
3 9 12 2.7488 -2.6831
3 9 13 6.0127 7.4426
3 9 14 2.8160 -3.0507
3 9 15 7.6567 9.8426
3 9 16 1.7276 -5.5678
3 10 0 0.0042 -1.7257
3 10 1 0.7355 3.1456
3 10 2 -7.6034 0.6529
3 10 3 2.0354 3.1184
3 10 4 -0.7046 -2.3262
3 10 5 2.5361 6.4924
3 10 6 -0.5402 -6.3569
3 10 7 0.4671 4.0276
3 10 8 2.2414 -3.0495
3 10 9 -1.0154 -0.4144
3 10 10 7.3038 -3.3438
3 10 11 -1.2728 4.8964
3 10 12 -1.0795 0.1795
3 10 13 1.1768 1.2974
3 10 14 -13.6986 12.8862
3 10 15 0.7091 -2.2371
3 10 16 -6.0759 7.3363
3 11 0 0.5617 4.4436
3 11 1 4.3834 -2.6821
3 11 2 -2.6488 1.3016
3 11 3 4.2280 -3.3734
3 11 4 -8.2919 1.0061
3 11 5 1.3769 -1.0276
3 11 6 -3.4434 2.7103
3 11 7 -4.6709 -3.5196
3 11 8 -2.8897 0.8234
3 11 9 1.3671 4.3157
3 11 10 0.1415 1.5066
3 11 11 4.4247 9.0878
3 11 12 0.8446 0.0664
3 11 13 -6.8257 -3.8254
3 11 14 -1.8726 -1.2953
3 11 15 -4.1682 -5.1057
3 12 0 -0.0028 -0.7128
3 12 1 11.6079 0.8155
3 12 2 2.6522 1.8673
3 12 3 4.8601 6.9142
3 12 4 2.1217 -1.8779
3 12 5 0.5205 1.3923
3 12 6 4.7865 -4.4254
3 12 7 -3.6662 -6.2851
3 12 8 0.7902 0.4571
3 12 9 -4.0016 0.4920
3 12 10 -6.2884 2.0021
3 12 11 -2.1030 3.6079
3 12 12 -3.7437 0.6545
3 12 13 2.3214 -1.0544
3 12 14 4.0195 -3.3249
3 13 0 0.2980 10.4079
3 13 1 2.0577 0.7462
3 13 2 -10.3865 11.9663
3 13 3 -1.5319 4.6189
3 13 4 -8.3517 3.7657
3 13 5 -3.2644 5.9461
3 13 6 -0.1208 -2.8536
3 13 7 -4.4790 0.3427
3 13 8 1.4911 -1.6323
3 13 9 -7.0069 -3.0983
3 13 10 -5.5483 -5.3077
3 13 11 3.0802 0.0919
3 13 12 -2.4025 0.5398
3 13 13 4.9827 -0.9914
3 14 0 -0.0250 2.2916
3 14 1 -1.2919 0.3583
3 14 2 0.2197 -0.5389
3 14 3 1.0580 -5.0394
3 14 4 -4.9667 0.0678
3 14 5 -1.4146 -6.3663
3 14 6 0.1240 -6.5338
3 14 7 0.1918 -3.6901
3 14 8 3.9248 -10.0827
3 14 9 1.9212 -6.3018
3 14 10 0.4923 3.0375
3 14 11 1.8556 -3.4943
3 14 12 1.2154 5.4631
3 15 1 -1.3795 -1.2795
3 15 2 0.3233 -0.6238
3 15 3 -10.4574 0.2446
3 15 4 2.8543 1.0797
3 15 5 -4.7950 1.0559
3 15 6 6.6004 1.0455
3 15 7 2.9481 3.9555
3 15 8 5.7639 -4.2518
3 15 9 1.5786 5.9359
3 15 10 -1.0609 -1.9335
3 16 1 0.9550 0.8390
3 16 2 1.9108 -4.3383
3 16 3 -3.4044 2.7335
3 16 4 1.4848 -8.0905
3 16 5 -0.3344 4.4614
3 16 6 -5.7760 1.9584
3 16 7 0.7148 -0.4267
3 16 8 -4.5576 -2.2419
3 17 2 -0.7986 -6.1183
3 17 3 0.4401 -2.2765
3 17 4 -0.7531 -3.8727
3 17 5 -8.5616 -3.5557
4 0 0 1.5102 0.0448
4 0 1 -0.0996 6.9372
4 0 2 2.5927 0.0584
4 0 3 -0.1164 0.4690
4 0 4 3.4523 0.0671
4 0 5 -0.0179 -5.4629
4 0 6 -3.0603 -0.0150
4 0 7 0.0930 -2.6244
4 0 8 -4.4190 -0.0213
4 0 9 0.0463 -0.4860
4 0 10 -9.3094 -0.0210
4 1 0 -1.7558 -0.1202
4 1 1 -2.1771 -0.5303
4 1 2 1.2818 3.7764
4 1 3 -3.9948 3.8268
4 1 4 1.4943 1.5440
4 1 5 -4.4497 1.2457
4 1 6 -0.0872 -4.0354
4 1 7 -6.3551 -1.0080
4 1 8 -1.0521 -5.7468
4 1 9 -3.1862 -4.8619
4 1 10 -1.5939 -1.5173
4 2 0 -1.7760 0.2513
4 2 1 -3.3467 7.5251
4 2 2 -1.7776 2.1071
4 2 3 -8.0787 1.4761
4 2 4 -4.7923 4.3768
4 2 5 -4.7127 -2.8558
4 2 6 -0.5727 -0.8731
4 2 7 2.8159 -2.3835
4 2 8 1.5612 0.4697
4 2 9 5.4222 0.3252
4 2 10 -1.7816 4.3048
4 2 11 0.4884 -2.9108
4 3 0 -3.5684 -0.3410
4 3 1 -4.6371 -9.9541
4 3 2 -2.7669 -3.1044
4 3 3 -4.9339 -3.1906
4 3 4 1.8490 -7.9285
4 3 5 -0.7389 0.3485
4 3 6 1.0062 -4.5260
4 3 7 -3.2764 -0.9341
4 3 8 -4.8152 4.5232
4 3 9 -7.1570 2.0185
4 3 10 -4.5341 3.2050
4 3 11 0.6017 -3.1009
4 3 12 0.8592 0.1311
4 4 0 13.2233 0.0430
4 4 1 -2.6885 -1.2803
4 4 2 2.5620 1.2843
4 4 3 1.1336 1.0087
4 4 4 -5.1826 6.2055
4 4 5 2.8541 3.9849
4 4 6 -0.4581 6.7323
4 4 7 -1.3768 -0.9920
4 4 8 4.7222 -3.9188
4 4 9 -1.7498 -6.5137
4 4 10 1.4656 -0.2184
4 4 11 -1.1818 -0.7569
4 4 12 -3.6738 9.6217
4 4 13 -0.4716 2.6751
4 5 0 5.6856 -0.4316
4 5 1 1.9159 -0.5685
4 5 2 1.7349 -2.5600
4 5 3 -3.6502 -7.3409
4 5 4 -5.2252 1.2771
4 5 5 -7.2002 -6.2235
4 5 6 -6.3052 -0.0746
4 5 7 -0.8060 5.5625
4 5 8 -2.8680 -2.2993
4 5 9 0.2824 4.6262
4 5 10 -1.3515 4.0137
4 5 11 -5.0687 -3.3315
4 5 12 -4.9040 -2.8333
4 5 13 -0.1249 -6.1891
4 6 0 1.7829 -0.1253
4 6 1 5.1756 1.3369
4 6 2 2.2943 4.6901
4 6 3 1.8760 -3.6046
4 6 4 2.6724 5.7992
4 6 5 -0.1199 -5.6787
4 6 6 0.7710 2.1865
4 6 7 4.1926 -0.2213
4 6 8 -4.0858 -0.2944
4 6 9 2.4952 -1.5535
4 6 10 1.9891 -6.3341
4 6 11 1.8088 -6.4602
4 6 12 9.1751 -1.8590
4 6 13 4.2435 -4.9511
4 6 14 0.1528 8.0396
4 7 0 2.3530 -0.3318
4 7 1 -4.2621 -5.8832
4 7 2 6.9970 8.2590
4 7 3 -6.0379 -6.0648
4 7 4 4.4297 6.4604
4 7 5 -5.7921 -0.5928
4 7 6 -5.4853 2.4943
4 7 7 -2.1926 -2.6276
4 7 8 -5.6068 7.9714
4 7 9 4.3838 -4.5710
4 7 10 -1.1207 5.4918
4 7 11 5.8380 4.7811
4 7 12 2.3474 3.0157
4 7 13 -0.3546 6.1294
4 7 14 4.7623 0.0980
4 8 0 4.1930 -0.2008
4 8 1 -5.9889 2.2980
4 8 2 9.7717 -2.1046
4 8 3 -8.1745 1.4676
4 8 4 5.7985 -2.9783
4 8 5 -3.8114 0.4883
4 8 6 -1.8786 -3.0703
4 8 7 -0.3516 -4.4815
4 8 8 7.5436 -1.4618
4 8 9 -3.8914 -0.9350
4 8 10 8.4460 -1.3259
4 8 11 -2.6957 1.6866
4 8 12 -3.5165 -8.5246
4 8 13 3.8894 0.1849
4 8 14 -3.4723 -5.6579
4 9 0 2.6020 -0.1102
4 9 1 2.7360 0.7018
4 9 2 3.8530 -5.7338
4 9 3 3.2421 8.6245
4 9 4 5.1114 -4.6254
4 9 5 3.3301 3.5651
4 9 6 -2.0336 4.7483
4 9 7 2.7237 -2.8313
4 9 8 -6.9052 1.3977
4 9 9 2.5621 7.7083
4 9 10 -6.1725 -3.7056
4 9 11 9.8121 8.4605
4 9 12 -4.3445 1.5632
4 9 13 14.6406 -1.5314
4 10 0 6.9395 -0.2288
4 10 1 3.7218 -2.2942
4 10 2 -4.3763 2.4804
4 10 3 4.9381 12.6035
4 10 4 -8.8721 5.1193
4 10 5 -2.3440 3.2920
4 10 6 0.8059 5.8674
4 10 7 -4.7825 -4.4677
4 10 8 0.8519 -1.7913
4 10 9 6.8336 -4.1266
4 10 10 -6.5075 -3.1889
4 10 11 6.4427 -6.4229
4 10 12 -4.0801 6.6515
4 11 0 9.3710 0.0610
4 11 1 1.8206 0.0130
4 11 2 -0.5283 0.4519
4 11 3 -1.5722 0.8696
4 11 4 -9.2001 -2.9690
4 11 5 -8.2436 -2.2577
4 11 6 0.4022 -1.7589
4 11 7 -5.9914 1.6172
4 11 8 -0.9291 4.5489
4 11 9 0.6314 -0.5392
4 11 10 -4.1409 7.0518
4 11 11 4.0243 -4.1372
4 12 0 3.2256 -0.1773
4 12 1 6.0504 7.1176
4 12 2 0.6471 3.5660
4 12 3 8.0321 -1.7338
4 12 4 -5.4763 -1.5267
4 12 5 -0.5917 0.8459
4 12 6 -5.0514 -10.5999
4 12 7 -8.6300 0.7195
4 12 8 -2.1492 -8.7065
4 12 9 -6.3900 -3.7858
4 13 0 -3.3984 0.1089
4 13 1 -1.1395 7.8394
4 13 2 -5.9560 5.2983
4 13 3 -4.1169 -0.8528
4 13 4 -2.9210 5.6084
4 13 5 -4.5809 -2.4035
4 13 6 1.7202 -13.0919
4 13 7 5.7961 -4.3607
4 14 0 -5.1499 -0.0682
4 14 1 -3.0996 -2.7785
4 14 2 -4.1575 1.0501
4 14 3 -3.0560 -2.6748
4 14 4 -2.9003 -10.7288
4 14 5 0.9578 3.4333
5 0 1 0.0167 3.6658
5 0 2 0.6785 -0.0765
5 0 3 0.0494 4.3677
5 0 4 3.2652 -0.0855
5 0 5 0.0664 0.5424
5 0 6 8.3580 -0.0115
5 0 7 0.0761 -2.1217
5 0 8 9.5688 -0.0041
5 0 9 0.0002 -6.8794
5 0 10 5.6642 -0.0206
5 1 0 -0.0796 -0.6235
5 1 1 -0.3407 -0.3580
5 1 2 -0.5741 1.9773
5 1 3 -2.8712 0.4502
5 1 4 -0.2397 3.6127
5 1 5 -1.4289 3.3026
5 1 6 5.6518 -1.5632
5 1 7 3.3807 6.5523
5 1 8 2.3648 -4.7910
5 1 9 6.5498 2.0963
5 1 10 -4.8777 -0.7261
5 2 0 -0.1658 3.1798
5 2 1 3.9985 -2.3551
5 2 2 -0.4096 -2.2120
5 2 3 0.3182 4.3896
5 2 4 -1.2353 -7.8276
5 2 5 1.9204 13.1053
5 2 6 -0.5449 -4.4081
5 2 7 -0.0584 1.7355
5 2 8 4.1572 0.0575
5 2 9 -8.7814 -11.5686
5 2 10 0.6830 -0.1520
5 3 0 -0.0218 -1.8939
5 3 1 -7.2436 -1.6118
5 3 2 -0.0215 -1.9077
5 3 3 5.3988 -5.6591
5 3 4 -7.2694 2.7302
5 3 5 5.4782 -2.9924
5 3 6 -12.0073 5.1820
5 3 7 0.8222 3.3606
5 3 8 7.0548 -6.5154
5 3 9 1.0969 6.0585
5 4 0 -0.2287 -2.8618
5 4 1 11.8555 2.8967
5 4 2 6.3498 0.4811
5 4 3 8.0116 -1.6923
5 4 4 7.4287 4.1010
5 4 5 -5.2400 -8.1062
5 4 6 3.0719 0.5285
5 4 7 -8.1663 0.8473
5 4 8 -3.5404 -6.4989
5 4 9 3.2539 8.6122
5 5 0 0.0329 3.2778
5 5 1 -9.9777 0.0210
5 5 2 0.4061 8.4389
5 5 3 -5.8995 4.2706
5 5 4 1.2637 4.8719
5 5 5 -2.9768 4.4096
5 5 6 0.6296 -8.8633
5 5 7 -2.1047 2.4327
5 5 8 -4.0374 -9.6925
5 5 9 3.5589 -0.1294
5 6 0 -0.1995 -7.6374
5 6 1 3.5644 -2.8710
5 6 2 0.9368 -0.7202
5 6 3 -2.1455 -0.0151
5 6 4 -0.3690 0.0775
5 6 5 1.3487 1.5483
5 6 6 -0.8760 -6.4250
5 6 7 8.9291 -5.2409
5 6 8 1.0132 1.7660
5 7 0 0.0248 3.2133
5 7 1 -10.9133 -1.6904
5 7 2 0.0749 -2.5408
5 7 3 -6.2938 -3.7820
5 7 4 0.6798 -0.3638
5 7 5 1.2780 1.7079
5 7 6 0.1799 6.2374
5 7 7 -1.0847 4.8986
5 8 0 -0.1174 -4.4046
5 8 1 2.1734 -1.7493
5 8 2 6.3047 -5.8418
5 8 3 3.0429 -1.3832
5 8 4 4.5770 2.6343
5 8 5 -2.3887 0.7647
5 9 0 0.0358 -3.9037
5 9 1 -7.0940 1.9077
5 9 2 2.0600 2.7126
5 9 3 -4.2083 0.9651
0 0 0 0.0 0.0
;
loop_
_space_group_symop_operation_xyz
'x, y, z'
'-x+1/2, -y, z+1/2'
'x+1/2, -y+1/2, -z'
'-x, y+1/2, -z+1/2'
loop_
_atom_site_label
_atom_site_type_symbol
_atom_site_fract_x
_atom_site_fract_y
_atom_site_fract_z
_atom_site_U_iso_or_equiv
_atom_site_adp_type
_atom_site_occupancy
_atom_site_site_symmetry_order
_atom_site_calc_flag
_atom_site_refinement_flags_posn
_atom_site_refinement_flags_adp
_atom_site_refinement_flags_occupancy
_atom_site_disorder_assembly
_atom_site_disorder_group
Zn1 Zn 0.4137(12) 0.4515(3) 0.2572(5) 0.203(6) Uani 1 1 d . U . . .
S2 S -0.024(3) 0.4900(7) 0.6247(11) 0.202(12) Uani 1 1 d . U . . .
C18 C -0.190(5) 0.4625(14) 0.643(2) 0.23(4) Uani 1 1 d DG U . . .
C17 C -0.157(8) 0.4074(12) 0.637(3) 0.22(4) Uani 1 1 d G U . . .
H17 H -0.2419 0.3803 0.6465 0.267 Uiso 1 1 calc R . . . .
C16 C 0.029(8) 0.4008(9) 0.615(3) 0.183(19) Uani 1 1 d DG U . . .
C19 C 0.111(5) 0.4519(14) 0.607(2) 0.23(4) Uani 1 1 d DG U . . .
S1 S -0.166(3) 0.3791(7) 0.4640(9) 0.193(9) Uani 1 1 d D U . . .
C9 C -0.156(4) 0.3572(13) 0.5094(9) 0.158(16) Uani 1 1 d DG U . . .
C8 C 0.042(5) 0.3401(14) 0.5173(13) 0.170(15) Uani 1 1 d DG U . . .
C7 C 0.154(3) 0.3513(14) 0.4767(18) 0.170(18) Uani 1 1 d G U . . .
H7 H 0.2886 0.3442 0.4725 0.204 Uiso 1 1 calc R . . . .
C6 C 0.026(4) 0.3755(14) 0.4438(13) 0.19(2) Uani 1 1 d DG U . . .
O1 O 0.554(6) 0.5207(16) 0.263(3) 0.210(17) Uani 1 1 d . U . . .
N2 N -0.678(6) 0.5207(19) 0.7238(19) 0.19(3) Uani 1 1 d . U . . .
C23 C -0.672(5) 0.4665(18) 0.716(2) 0.19(3) Uani 1 1 d G U . . .
H23 H -0.7747 0.4450 0.7260 0.229 Uiso 1 1 calc R . . . .
C22 C -0.513(7) 0.4445(12) 0.692(2) 0.15(2) Uani 1 1 d G U . . .
H22 H -0.5087 0.4083 0.6862 0.181 Uiso 1 1 calc R . . . .
C21 C -0.359(5) 0.4768(19) 0.6760(19) 0.15(2) Uani 1 1 d DG U . . .
C25 C -0.365(6) 0.5310(17) 0.684(2) 0.17(3) Uani 1 1 d G U . . .
H25 H -0.2623 0.5525 0.6738 0.210 Uiso 1 1 calc R . . . .
C24 C -0.524(7) 0.5530(12) 0.708(2) 0.22(4) Uani 1 1 d G U . . .
H24 H -0.5283 0.5892 0.7137 0.265 Uiso 1 1 calc R . . . .
C26 C 0.669(10) 0.526(2) 0.302(4) 0.184(17) Uani 1 1 d D U . . .
C32 C 0.955(7) 0.5785(16) 0.313(2) 0.19(2) Uani 1 1 d . U . . .
H32 H 0.9977 0.5498 0.3303 0.226 Uiso 1 1 calc R . . . .
C31 C 1.072(5) 0.624(2) 0.3098(19) 0.19(2) Uani 1 1 d G U . . .
H31 H 1.1927 0.6254 0.3255 0.224 Uiso 1 1 calc R . . . .
C30 C 1.009(7) 0.6667(14) 0.283(2) 0.18(2) Uani 1 1 d DG U . . .
C29 C 0.828(7) 0.6644(15) 0.260(2) 0.18(2) Uani 1 1 d G U . . .
H29 H 0.7858 0.6931 0.2424 0.214 Uiso 1 1 calc R . . . .
C28 C 0.711(5) 0.6191(19) 0.263(2) 0.20(2) Uani 1 1 d G U . . .
H28 H 0.5908 0.6175 0.2472 0.244 Uiso 1 1 calc R . . . .
C27 C 0.775(6) 0.5762(14) 0.289(2) 0.191(19) Uani 1 1 d DG U . . .
C1 C 0.423(4) 0.3924(14) 0.3478(16) 0.162(17) Uani 1 1 d . U . . .
H1 H 0.5552 0.3870 0.3396 0.195 Uiso 1 1 calc R . . . .
N1 N 0.296(7) 0.4185(15) 0.3174(13) 0.205(19) Uani 1 1 d G U . . .
C5 C 0.098(6) 0.4266(14) 0.3295(18) 0.17(2) Uani 1 1 d G U . . .
H5 H 0.0132 0.4441 0.3092 0.209 Uiso 1 1 calc R . . . .
C4 C 0.028(4) 0.4086(15) 0.372(2) 0.18(2) Uani 1 1 d G U . . .
H4 H -0.1043 0.4140 0.3802 0.214 Uiso 1 1 calc R . . . .
C3 C 0.155(7) 0.3826(16) 0.4025(13) 0.171(19) Uani 1 1 d DG U . . .
C2 C 0.353(6) 0.3745(14) 0.3903(14) 0.18(2) Uani 1 1 d G U . . .
H2 H 0.4377 0.3570 0.4107 0.218 Uiso 1 1 calc R . . . .
C39 C 1.325(7) 0.7136(14) 0.294(2) 0.15(2) Uani 1 1 d . U . . .
H39 H 1.3749 0.6818 0.3054 0.185 Uiso 1 1 calc R . . . .
C38 C 1.447(4) 0.758(2) 0.292(2) 0.17(2) Uani 1 1 d G U . . .
H38 H 1.5783 0.7558 0.3018 0.204 Uiso 1 1 calc R . . . .
C36 C 1.372(6) 0.8056(15) 0.275(2) 0.17(2) Uani 1 1 d DG U . . .
C35 C 1.175(7) 0.8089(14) 0.261(2) 0.18(2) Uani 1 1 d G U . . .
H35 H 1.1253 0.8408 0.2498 0.215 Uiso 1 1 calc R . . . .
C34 C 1.053(5) 0.765(2) 0.263(2) 0.18(2) Uani 1 1 d G U . . .
H34 H 0.9219 0.7668 0.2534 0.219 Uiso 1 1 calc R . . . .
C33 C 1.128(6) 0.7169(15) 0.280(2) 0.16(2) Uani 1 1 d DG U . . .
O2 O 0.735(6) 0.4879(19) 0.326(2) 0.196(19) Uani 1 1 d . U . . .
C11 C 0.125(7) 0.3193(13) 0.5633(11) 0.185(14) Uani 1 1 d D U . . .
C15 C 0.100(7) 0.3451(12) 0.6067(12) 0.198(15) Uani 1 1 d DG U . . .
C14 C 0.174(10) 0.3112(19) 0.6420(11) 0.228(14) Uani 1 1 d G U . . .
C13 C 0.246(8) 0.2644(16) 0.6203(15) 0.226(13) Uani 1 1 d G U . . .
C12 C 0.216(8) 0.2694(14) 0.5717(14) 0.209(13) Uani 1 1 d DG U . . .
F2 F 0.081(5) 0.2262(13) 0.5599(18) 0.202(15) Uani 1 1 d . U . . .
F1 F 0.355(5) 0.2551(12) 0.5398(17) 0.198(14) Uani 1 1 d . U . . .
F3 F 0.465(6) 0.2605(16) 0.623(2) 0.238(16) Uani 1 1 d . U . . .
F6 F 0.039(7) 0.2811(15) 0.680(2) 0.245(16) Uani 1 1 d . U . . .
C20 C 0.286(7) 0.443(2) 0.575(2) 0.18(3) Uani 1 1 d D U . . .
H20A H 0.3585 0.4126 0.5852 0.270 Uiso 1 1 calc GR . . . .
H20B H 0.3715 0.4738 0.5765 0.270 Uiso 1 1 calc GR . . . .
H20C H 0.2399 0.4383 0.5441 0.270 Uiso 1 1 calc GR . . . .
C10 C -0.323(7) 0.351(3) 0.5431(19) 0.23(3) Uani 1 1 d D U . . .
H10A H -0.2707 0.3440 0.5735 0.350 Uiso 1 1 calc GR . . . .
H10B H -0.4062 0.3220 0.5337 0.350 Uiso 1 1 calc GR . . . .
H10C H -0.4007 0.3829 0.5439 0.350 Uiso 1 1 calc GR . . . .
F5 F 0.287(6) 0.3170(17) 0.687(2) 0.257(16) Uani 1 1 d . U . . .
F4 F 0.230(5) 0.2093(14) 0.6371(19) 0.206(16) Uani 1 1 d . U . . .
C37 C 1.488(7) 0.8565(18) 0.268(4) 0.20(2) Uani 1 1 d D U . . .
O3 O 1.379(6) 0.8987(17) 0.262(2) 0.21(2) Uani 1 1 d D U . . .
O4 O 1.678(7) 0.8529(18) 0.279(2) 0.22(3) Uani 1 1 d D U . . .
loop_
_atom_site_aniso_label
_atom_site_aniso_U_11
_atom_site_aniso_U_22
_atom_site_aniso_U_33
_atom_site_aniso_U_23
_atom_site_aniso_U_13
_atom_site_aniso_U_12
Zn1 0.162(7) 0.154(8) 0.292(18) 0.022(7) 0.005(9) -0.002(6)
S2 0.165(16) 0.163(16) 0.28(4) -0.014(13) 0.026(18) 0.006(11)
C18 0.20(3) 0.17(2) 0.33(8) -0.02(2) 0.06(5) 0.002(17)
C17 0.18(3) 0.16(2) 0.32(9) -0.02(2) 0.04(5) 0.000(17)
C16 0.15(3) 0.152(18) 0.24(4) -0.010(16) 0.00(3) 0.005(15)
C19 0.19(3) 0.16(2) 0.33(8) -0.01(2) 0.05(5) 0.004(17)
S1 0.146(12) 0.152(17) 0.28(3) 0.027(15) 0.006(14) 0.003(12)
C9 0.15(2) 0.06(3) 0.26(3) -0.016(18) -0.004(17) -0.030(18)
C8 0.15(2) 0.09(3) 0.27(3) 0.005(18) 0.001(17) -0.02(2)
C7 0.137(19) 0.11(4) 0.27(3) 0.00(2) -0.003(18) -0.021(19)
C6 0.149(19) 0.15(5) 0.28(3) 0.02(2) 0.001(18) 0.00(2)
O1 0.17(3) 0.16(2) 0.30(4) 0.038(19) -0.04(2) 0.002(18)
N2 0.16(3) 0.14(3) 0.25(8) -0.01(4) 0.02(4) 0.01(2)
C23 0.15(3) 0.15(3) 0.28(8) -0.02(4) 0.02(4) 0.01(3)
C22 0.13(3) 0.13(3) 0.19(6) -0.01(2) -0.02(3) 0.02(2)
C21 0.12(3) 0.14(3) 0.20(6) 0.00(2) -0.03(3) 0.010(18)
C25 0.17(3) 0.14(3) 0.21(7) 0.00(3) 0.00(4) 0.01(2)
C24 0.19(5) 0.16(3) 0.31(10) -0.02(3) 0.05(6) 0.00(2)
C26 0.13(3) 0.14(2) 0.28(4) 0.02(2) -0.01(2) 0.025(18)
C32 0.15(3) 0.15(3) 0.27(5) 0.03(3) -0.01(3) 0.003(19)
C31 0.15(2) 0.15(3) 0.25(6) 0.03(2) -0.02(3) -0.002(19)
C30 0.16(2) 0.14(2) 0.24(6) 0.02(2) -0.02(3) -0.002(18)
C29 0.16(2) 0.14(2) 0.24(5) 0.00(2) -0.02(3) 0.008(18)
C28 0.17(3) 0.15(3) 0.29(5) 0.03(3) -0.04(3) 0.00(2)
C27 0.15(3) 0.14(2) 0.28(5) 0.02(2) -0.02(3) 0.016(18)
C1 0.13(2) 0.08(4) 0.27(3) 0.00(2) -0.01(2) -0.02(2)
N1 0.15(2) 0.17(4) 0.30(3) 0.03(2) 0.00(2) 0.01(2)
C5 0.13(2) 0.12(4) 0.27(3) 0.02(3) -0.01(2) -0.01(2)
C4 0.13(2) 0.13(5) 0.27(3) 0.02(3) -0.01(2) -0.01(2)
C3 0.13(2) 0.12(4) 0.27(3) 0.01(2) -0.01(2) -0.01(2)
C2 0.14(2) 0.13(4) 0.28(3) 0.01(3) -0.01(2) -0.01(2)
C39 0.14(2) 0.13(3) 0.19(6) 0.00(2) -0.01(3) 0.004(17)
C38 0.16(2) 0.14(3) 0.21(6) 0.00(3) -0.01(3) -0.005(17)
C36 0.16(2) 0.13(2) 0.20(6) -0.01(2) -0.02(3) -0.003(17)
C35 0.17(2) 0.14(2) 0.22(6) 0.01(2) -0.02(3) -0.007(17)
C34 0.17(2) 0.15(2) 0.24(6) 0.02(3) -0.03(3) -0.001(17)
C33 0.14(2) 0.14(2) 0.19(6) 0.01(2) -0.01(3) 0.003(16)
O2 0.16(3) 0.14(3) 0.28(5) 0.02(3) -0.02(3) 0.03(2)
C11 0.16(3) 0.133(19) 0.27(2) 0.010(13) 0.011(17) -0.004(17)
C15 0.17(3) 0.154(18) 0.27(3) 0.000(14) 0.010(19) -0.001(17)
C14 0.24(3) 0.17(2) 0.28(3) 0.005(15) 0.000(18) 0.023(17)
C13 0.23(2) 0.17(2) 0.28(3) 0.015(14) -0.002(17) 0.019(16)
C12 0.21(2) 0.15(2) 0.27(3) 0.013(14) 0.008(17) 0.013(15)
F2 0.19(2) 0.14(2) 0.28(4) 0.030(17) -0.01(2) 0.011(17)
F1 0.20(2) 0.13(2) 0.27(3) -0.007(19) 0.01(2) -0.002(17)
F3 0.22(2) 0.20(3) 0.28(4) 0.03(2) 0.003(19) 0.018(17)
F6 0.28(3) 0.17(3) 0.29(3) 0.00(2) 0.02(2) 0.01(2)
C20 0.15(3) 0.15(4) 0.24(6) -0.02(3) -0.01(4) 0.01(2)
C10 0.17(3) 0.24(7) 0.29(4) 0.02(4) 0.01(3) -0.03(3)
F5 0.28(3) 0.20(3) 0.29(3) 0.01(2) -0.02(2) 0.00(2)
F4 0.23(3) 0.15(2) 0.23(4) 0.001(18) 0.02(3) 0.026(17)
C37 0.18(2) 0.15(3) 0.26(7) 0.00(2) -0.01(3) -0.020(19)
O3 0.18(3) 0.13(3) 0.32(7) 0.01(3) -0.02(3) -0.03(2)
O4 0.19(2) 0.19(3) 0.29(8) -0.03(3) -0.02(3) -0.01(2)
loop_
_atom_type_symbol
_atom_type_description
_atom_type_scat_dispersion_real
_atom_type_scat_dispersion_imag
_atom_type_scat_source
C C 0.0033 0.0016 'International Tables Vol C Tables 4.2.6.8 and 6.1.1.4'
H H 0.0000 0.0000 'International Tables Vol C Tables 4.2.6.8 and 6.1.1.4'
F F 0.0171 0.0103 'International Tables Vol C Tables 4.2.6.8 and 6.1.1.4'
N N 0.0061 0.0033 'International Tables Vol C Tables 4.2.6.8 and 6.1.1.4'
O O 0.0106 0.0060 'International Tables Vol C Tables 4.2.6.8 and 6.1.1.4'
S S 0.1246 0.1234 'International Tables Vol C Tables 4.2.6.8 and 6.1.1.4'
Zn Zn 0.2839 1.4301 'International Tables Vol C Tables 4.2.6.8 and 6.1.1.4'
loop_
_geom_angle_atom_site_label_1
_geom_angle_atom_site_label_2
_geom_angle_atom_site_label_3
_geom_angle
_geom_angle_site_symmetry_1
_geom_angle_site_symmetry_3
_geom_angle_publ_flag
O1 Zn1 N1 117(2) . . ?
O1 Zn1 C37 136(2) . 4_745 ?
O1 Zn1 O3 106.1(19) . 4_745 ?
N2 Zn1 O1 97(2) 2_464 . ?
N2 Zn1 N1 104(2) 2_464 . ?
N2 Zn1 C37 113(2) 2_464 4_745 ?
N2 Zn1 O3 131(3) 2_464 4_745 ?
N1 Zn1 C37 88(3) . 4_745 ?
O3 Zn1 N1 103(2) 4_745 . ?
O3 Zn1 C37 29.6(11) 4_745 4_745 ?
C18 S2 C16 72.0 . . ?
C18 S2 C19 108.0 . . ?
C19 S2 C16 36.0 . . ?
S2 C18 C21 135(3) . . ?
C17 C18 S2 108.0 . . ?
C17 C18 C21 115(3) . . ?
C16 C17 C18 108.0 . . ?
C17 C16 S2 72.0 . . ?
C17 C16 C19 108.0 . . ?
C17 C16 C15 117(4) . . ?
C19 C16 S2 36.0 . . ?
C19 C16 C15 135(4) . . ?
C15 C16 S2 170(4) . . ?
S2 C19 C20 145(4) . . ?
C16 C19 S2 108.0 . . ?
C16 C19 C20 106(3) . . ?
C9 S1 C8 36.0 . . ?
C9 S1 C6 108.0 . . ?
C6 S1 C8 72.0 . . ?
S1 C9 C10 127.2(14) . . ?
C8 C9 S1 108.0 . . ?
C8 C9 C10 124.8(14) . . ?
C9 C8 S1 36.0 . . ?
C9 C8 C7 108.0 . . ?
C9 C8 C11 126(3) . . ?
C7 C8 S1 72.0 . . ?
C7 C8 C11 126(3) . . ?
C11 C8 S1 161(3) . . ?
C8 C7 C6 108.0 . . ?
S1 C6 C7 108.0 . . ?
S1 C6 C3 149(3) . . ?
C7 C6 C3 103(3) . . ?
C26 O1 Zn1 116(4) . . ?
C23 N2 Zn1 117(3) . 2_465 ?
C23 N2 C24 120.0 . . ?
C24 N2 Zn1 123(3) . 2_465 ?
N2 C23 C22 120.00(6) . . ?
C23 C22 C21 120.0 . . ?
C22 C21 C18 128(4) . . ?
C25 C21 C18 111(4) . . ?
C25 C21 C22 120.0 . . ?
C24 C25 C21 120.00(6) . . ?
C25 C24 N2 120.0 . . ?
O1 C26 C27 99(6) . . ?
O2 C26 O1 125(7) . . ?
O2 C26 C27 127(8) . . ?
C31 C32 C27 120.0 . . ?
C30 C31 C32 120.0 . . ?
C31 C30 C29 120.00(6) . . ?
C31 C30 C33 122(4) . . ?
C29 C30 C33 118(4) . . ?
C30 C29 C28 120.0 . . ?
C27 C28 C29 120.0 . . ?
C32 C27 C26 110(5) . . ?
C28 C27 C26 130(5) . . ?
C28 C27 C32 120.0 . . ?
N1 C1 C2 120.0 . . ?
C1 N1 Zn1 119(3) . . ?
C5 N1 Zn1 121(3) . . ?
C5 N1 C1 120.0 . . ?
C4 C5 N1 120.0 . . ?
C5 C4 C3 120.0 . . ?
C4 C3 C6 102(4) . . ?
C2 C3 C6 138(4) . . ?
C2 C3 C4 120.0 . . ?
C3 C2 C1 120.0 . . ?
C38 C39 C33 120.0 . . ?
C36 C38 C39 120.00(6) . . ?
C38 C36 C37 126(4) . . ?
C35 C36 C38 120.0 . . ?
C35 C36 C37 113(4) . . ?
C34 C35 C36 120.0 . . ?
C35 C34 C33 120.0 . . ?
C39 C33 C30 116(4) . . ?
C34 C33 C30 124(4) . . ?
C34 C33 C39 120.00(6) . . ?
C15 C11 C8 124.0(18) . . ?
C15 C11 C12 108.0 . . ?
C12 C11 C8 127.5(18) . . ?
C11 C15 C16 127(3) . . ?
C11 C15 C14 108.0 . . ?
C14 C15 C16 124(3) . . ?
C15 C14 F6 125(4) . . ?
C15 C14 F5 137(4) . . ?
C13 C14 C15 108.0 . . ?
C13 C14 F6 96(3) . . ?
C13 C14 F5 107(4) . . ?
F5 C14 F6 75(3) . . ?
C14 C13 C12 108.0 . . ?
C14 C13 F3 112(4) . . ?
C14 C13 F4 128(4) . . ?
C12 C13 F3 101(4) . . ?
C12 C13 F4 113(4) . . ?
F3 C13 F4 90(3) . . ?
C11 C12 C13 108.0 . . ?
C11 C12 F2 111(3) . . ?
C13 C12 F2 105(4) . . ?
F1 C12 C11 115(3) . . ?
F1 C12 C13 123(4) . . ?
F1 C12 F2 94(3) . . ?
C36 C37 Zn1 162(4) . 4_755 ?
O3 C37 Zn1 50(2) . 4_755 ?
O3 C37 C36 115(4) . . ?
O3 C37 O4 129(5) . . ?
O4 C37 Zn1 83(3) . 4_755 ?
O4 C37 C36 114(4) . . ?
C37 O3 Zn1 101(3) . 4_755 ?
loop_
_geom_bond_atom_site_label_1
_geom_bond_atom_site_label_2
_geom_bond_distance
_geom_bond_site_symmetry_2
_geom_bond_publ_flag
Zn1 O1 1.99(4) . ?
Zn1 N2 1.98(3) 2_464 ?
Zn1 N1 2.08(3) . ?
Zn1 C37 2.59(4) 4_745 ?
Zn1 O3 2.01(4) 4_745 ?
S2 C18 1.4200 . ?
S2 C16 2.2976 . ?
S2 C19 1.4200 . ?
C18 C17 1.4200 . ?
C18 C21 1.52(2) . ?
C17 C16 1.4200 . ?
C16 C19 1.4200 . ?
C16 C15 1.50(2) . ?
C19 C20 1.50(3) . ?
S1 C9 1.4200 . ?
S1 C8 2.2976 . ?
S1 C6 1.4200 . ?
C9 C8 1.4200 . ?
C9 C10 1.49(3) . ?
C8 C7 1.4200 . ?
C8 C11 1.53(2) . ?
C7 C6 1.4200 . ?
C6 C3 1.48(2) . ?
O1 C26 1.36(11) . ?
N2 Zn1 1.98(3) 2_465 ?
N2 C23 1.3900 . ?
N2 C24 1.3900(11) . ?
C23 C22 1.3900 . ?
C22 C21 1.3900 . ?
C21 C25 1.3900 . ?
C25 C24 1.3900 . ?
C26 C27 1.50(3) . ?
C26 O2 1.28(7) . ?
C32 C31 1.3900 . ?
C32 C27 1.3900 . ?
C31 C30 1.3900 . ?
C30 C29 1.3900 . ?
C30 C33 1.51(2) . ?
C29 C28 1.3900 . ?
C28 C27 1.3900 . ?
C1 N1 1.3900 . ?
C1 C2 1.3900 . ?
N1 C5 1.3900 . ?
C5 C4 1.3900 . ?
C4 C3 1.3900 . ?
C3 C2 1.3900 . ?
C39 C38 1.3900 . ?
C39 C33 1.3900 . ?
C38 C36 1.3900 . ?
C36 C35 1.3900 . ?
C36 C37 1.52(3) . ?
C35 C34 1.3900 . ?
C34 C33 1.3900 . ?
C11 C15 1.4200 . ?
C11 C12 1.4200 . ?
C15 C14 1.4200 . ?
C14 C13 1.4200 . ?
C14 F6 1.61(6) . ?
C14 F5 1.51(6) . ?
C13 C12 1.4200 . ?
C13 F3 1.47(5) . ?
C13 F4 1.48(5) . ?
C12 F2 1.46(5) . ?
C12 F1 1.36(5) . ?
C37 Zn1 2.59(4) 4_755 ?
C37 O3 1.30(4) . ?
C37 O4 1.31(4) . ?
O3 Zn1 2.01(4) 4_755 ?
loop_
_smtbx_masks_void_nr
_smtbx_masks_void_average_x
_smtbx_masks_void_average_y
_smtbx_masks_void_average_z
_smtbx_masks_void_volume
_smtbx_masks_void_count_electrons
_smtbx_masks_void_content
1 -0.215 0.250 0.000 887.0 40.2 ?
2 -0.122 -0.250 0.500 887.0 39.4 ?
3 0.212 0.296 0.315 13.1 1.5 ?
4 -0.212 0.796 0.185 13.1 1.6 ?
5 0.288 0.704 0.815 13.1 1.4 ?
6 0.712 0.204 0.685 13.1 1.6 ?
