#------------------------------------------------------------------------------
#$Date: 2021-11-05 02:06:12 +0200 (Fri, 05 Nov 2021) $
#$Revision: 270317 $
#$URL: file:///home/coder/svn-repositories/cod/cif/7/70/87/7708722.cif $
#------------------------------------------------------------------------------
#
# This file is available in the Crystallography Open Database (COD),
# http://www.crystallography.net/
#
# All data on this site have been placed in the public domain by the
# contributors.
#
data_7708722
loop_
_publ_author_name
'P\'o\/lrolniczak, Aleksandra'
'Sobczak, Szymon'
'Nikolayenko, Varvara'
'Barbour, Len'
'Katrusiak, Andrzej'
_publ_section_title
;
 Solvent-controlled elongation and mechanochemical strain in a
 metal-organic framework
;
_journal_name_full               'Dalton Transactions'
_journal_paper_doi               10.1039/D1DT01937F
_journal_year                    2021
_chemical_formula_moiety         'C39 H24 F6 N2 O4 S2 Zn'
_chemical_formula_sum            'C39 H24 F6 N2 O4 S2 Zn'
_chemical_formula_weight         828.09
_chemical_name_common            DMOF
_chemical_name_systematic
1,2-bis(2-ethyl-5-phenyl-3-thienyl)perfluorocyclopentene
_space_group_crystal_system      orthorhombic
_space_group_IT_number           19
_space_group_name_Hall           'P 2ac 2ab'
_space_group_name_H-M_alt        'P 21 21 21'
_atom_sites_solution_hydrogens   geom
_atom_sites_solution_primary     direct
_audit_creation_date             2019-05-15
_audit_creation_method
;
Olex2 1.2
(compiled 2018.05.29 svn.r3508 for OlexSys, GUI svn.r5506)
;
_audit_update_record
;
2019-09-30 deposited with the CCDC.	2021-11-02 downloaded from the CCDC.
;
_cell_angle_alpha                90
_cell_angle_beta                 90
_cell_angle_gamma                90
_cell_formula_units_Z            4
_cell_length_a                   6.881(9)
_cell_length_b                   25.14(3)
_cell_length_c                   28.2(3)
_cell_measurement_reflns_used    399
_cell_measurement_temperature    293(2)
_cell_measurement_theta_max      22.828
_cell_measurement_theta_min      8.028
_cell_volume                     4878(5)
_computing_molecular_graphics    'Olex2 (Dolomanov et al., 2009)'
_computing_publication_material  'Olex2 (Dolomanov et al., 2009)'
_computing_structure_refinement  'ShelXL (Sheldrick, 2015)'
_computing_structure_solution    'ShelXS (Sheldrick, 2008)'
_diffrn_ambient_temperature      293(2)
_diffrn_measured_fraction_theta_full 0.049
_diffrn_measured_fraction_theta_max 0.440
_diffrn_measurement_device_type  'multiwire proportional'
_diffrn_measurement_method       'phi and omega scans'
_diffrn_radiation_type           MoK\a
_diffrn_radiation_wavelength     0.71073
_diffrn_reflns_av_R_equivalents  0.8895
_diffrn_reflns_av_unetI/netI     0.3867
_diffrn_reflns_Laue_measured_fraction_full 0.049
_diffrn_reflns_Laue_measured_fraction_max 0.440
_diffrn_reflns_limit_h_max       3
_diffrn_reflns_limit_h_min       -3
_diffrn_reflns_limit_k_max       14
_diffrn_reflns_limit_k_min       -14
_diffrn_reflns_limit_l_max       7
_diffrn_reflns_limit_l_min       -7
_diffrn_reflns_number            4756
_diffrn_reflns_point_group_measured_fraction_full 0.045
_diffrn_reflns_point_group_measured_fraction_max 0.457
_diffrn_reflns_theta_full        25.242
_diffrn_reflns_theta_max         11.414
_diffrn_reflns_theta_min         4.014
_exptl_absorpt_coefficient_mu    0.646
_exptl_crystal_colour            pink
_exptl_crystal_density_diffrn    1.129
_exptl_crystal_description       plate
_exptl_crystal_F_000             1680
_exptl_crystal_size_max          0.232
_exptl_crystal_size_mid          0.183
_exptl_crystal_size_min          0.11
_refine_diff_density_max         0.178
_refine_diff_density_min         -0.181
_refine_diff_density_rms         0.053
_refine_ls_abs_structure_details
;
 Flack x determined using 35 quotients [(I+)-(I-)]/[(I+)+(I-)]
 (Parsons and Flack (2004), Acta Cryst. A60, s61).
;
_refine_ls_abs_structure_Flack   0.0(2)
_refine_ls_extinction_method     none
_refine_ls_goodness_of_fit_ref   1.029
_refine_ls_hydrogen_treatment    constr
_refine_ls_matrix_type           full
_refine_ls_number_parameters     90
_refine_ls_number_reflns         399
_refine_ls_number_restraints     102
_refine_ls_restrained_S_all      0.903
_refine_ls_R_factor_all          0.2365
_refine_ls_R_factor_gt           0.1387
_refine_ls_shift/su_max          0.019
_refine_ls_shift/su_mean         0.014
_refine_ls_structure_factor_coef Fsqd
_refine_ls_weighting_details
;
 w=1/[\s^2^(Fo^2^)+(0.1881P)^2^+98.4140P]
 where P=(Fo^2^+2Fc^2^)/3
;
_refine_ls_weighting_scheme      calc
_refine_ls_wR_factor_gt          0.3305
_refine_ls_wR_factor_ref         0.4268
_reflns_Friedel_coverage         0.629
_reflns_Friedel_fraction_full    0.040
_reflns_Friedel_fraction_max     0.487
_reflns_number_gt                184
_reflns_number_total             399
_reflns_threshold_expression     'I > 2\s(I)'
_cod_data_source_file            d1dt01937f2.cif
_cod_data_source_block           DMOF_0_70_GPa_Daphne
_cod_original_cell_volume        4871(51)
_cod_database_code               7708722
_shelx_space_group_comment
;
The symmetry employed for this shelxl refinement is uniquely defined
by the following loop, which should always be used as a source of
symmetry information in preference to the above space-group names.
They are only intended as comments.
;
_shelx_fab_file
;
-3 -8 -3 -7.0151 23.1652
-3 -8 -2 0.3423 -17.0202
-3 -8 -1 -0.7482 13.4045
-3 -7 -5 -15.8349 2.6059
-3 -7 -4 -22.1103 -19.4370
-3 -7 -3 -13.0546 0.8301
-3 -7 -2 -36.9346 -10.3594
-3 -7 -1 4.1023 -0.4568
-3 -6 -6 3.2287 -11.1666
-3 -6 -5 19.0925 14.6045
-3 -6 -4 0.2275 -15.0365
-3 -6 -3 7.4263 -22.2954
-3 -6 -2 2.3853 -28.1658
-3 -6 -1 -10.1295 -19.1667
-3 -5 -7 12.1376 16.5960
-3 -5 -6 -6.7994 9.0124
-3 -5 -5 1.0397 12.0725
-3 -5 -4 3.7396 -14.5710
-3 -5 -3 5.0213 4.7384
-3 -5 -2 9.3492 -33.2722
-3 -5 -1 34.8208 1.4555
-3 -4 -6 -27.3351 -1.4273
-3 -4 -5 22.5123 18.2727
-3 -4 -4 -9.5779 0.9340
-3 -4 -2 4.3909 4.2395
-3 -4 -1 32.8550 2.7313
-3 -3 -6 16.2520 1.0464
-3 -3 -5 -7.2428 -8.8806
-3 -3 -4 5.8915 35.5725
-3 -3 -3 -10.9301 15.5301
-3 -3 -2 -8.5922 18.5361
-3 -3 -1 2.0656 12.1120
-3 -2 -6 -4.7160 -6.8647
-3 -2 -5 -5.3486 40.1269
-3 -2 -4 -21.2153 1.2581
-3 -2 -3 -11.2529 12.7921
-3 -2 -2 -18.7646 -0.2242
-3 -2 -1 20.0770 -3.3623
-3 -1 -6 27.2368 10.6273
-3 -1 -5 -6.1892 -25.9360
-3 -1 -4 1.2818 -2.5872
-3 -1 -3 -16.6601 -5.8648
-3 -1 -2 -11.6465 4.2430
-3 -1 -1 2.0633 3.4692
-2 -11 -5 12.9585 24.4432
-2 -11 -4 -5.0920 9.4169
-2 -11 -3 3.1638 22.9950
-2 -11 -2 -6.0686 -0.9015
-2 -11 -1 -2.5644 10.6185
-2 -10 -7 20.1384 -4.6787
-2 -10 -6 -13.0876 -0.4024
-2 -10 -5 6.2298 -14.0025
-2 -10 -4 -14.4853 6.3476
-2 -10 -3 2.5304 -16.2268
-2 -10 -2 -0.4281 -0.5233
-2 -10 -1 3.7334 -3.9794
-2 -9 -7 31.7177 1.1423
-2 -9 -6 6.6598 5.9303
-2 -9 -5 16.1631 18.1566
-2 -9 -4 28.6477 -3.7354
-2 -9 -3 1.5892 29.9424
-2 -9 -2 15.2063 -2.5915
-2 -9 -1 0.8092 29.0808
-2 -8 -6 -25.8732 51.1288
-2 -8 -5 21.9870 4.6214
-2 -8 -4 -32.9296 18.5093
-2 -8 -3 13.1670 25.5873
-2 -8 -2 -14.0941 3.7515
-2 -8 -1 4.3472 1.6857
-2 -7 -6 43.2589 17.5135
-2 -7 -5 -29.4663 -19.6268
-2 -7 -4 -4.4180 7.7057
-2 -7 -3 -1.5008 10.0247
-2 -7 -2 -9.5675 1.0743
-2 -7 -1 1.0429 35.1749
-2 -6 -6 27.5782 -13.5037
-2 -6 -5 12.8535 15.6471
-2 -6 -4 -2.6897 9.4906
-2 -6 -3 3.7373 -5.7353
-2 -6 -2 -18.9428 11.7038
-2 -6 -1 -1.5747 1.1748
-2 -5 -5 -16.8746 5.1438
-2 -5 -4 9.7074 2.2350
-2 -5 -3 -10.1544 4.3227
-2 -5 -2 9.1176 -10.6850
-2 -5 -1 -2.7690 4.1189
-2 -4 -5 1.5239 8.3455
-2 -4 -4 6.2313 -0.0456
-2 -4 -3 8.7420 13.3212
-2 -4 -2 4.5087 7.3568
-2 -4 -1 5.6890 14.7009
-2 -3 -5 -7.0412 22.3343
-2 -3 -4 5.6878 5.7534
-2 -3 -3 -1.2276 12.9396
-2 -3 -2 1.7212 -4.8967
-2 -3 -1 -0.0331 22.3820
-2 -2 -5 -28.3066 -3.1702
-2 -2 -4 -3.6142 5.9839
-2 -2 -3 -2.9771 20.1070
-2 -2 -2 -8.4828 19.9312
-2 -2 -1 4.2667 16.8228
-2 -1 -4 4.2525 -21.9588
-2 -1 -3 -18.2386 0.3765
-2 -1 -2 -7.4335 -3.8519
-2 -1 -1 -14.6115 -0.2539
-1 -13 -4 -4.5092 5.7022
-1 -13 -3 4.4178 21.0290
-1 -13 -2 -4.9031 -1.2783
-1 -13 -1 8.4357 12.5153
-1 -12 -6 12.7070 -10.8155
-1 -12 -5 -17.1306 17.4681
-1 -12 -4 3.2167 -27.5181
-1 -12 -3 -14.0623 4.4675
-1 -12 -2 -2.7722 -15.0875
-1 -12 -1 1.7233 -3.3451
-1 -11 -6 -46.4299 -22.4112
-1 -11 -5 40.9010 12.9961
-1 -11 -4 -25.6310 -40.3881
-1 -11 -3 42.3343 32.6148
-1 -11 -2 7.4388 -20.7073
-1 -11 -1 12.0282 21.6659
-1 -10 -6 23.1950 -4.5531
-1 -10 -5 33.1055 -13.8556
-1 -10 -4 -23.8257 17.7417
-1 -10 -3 47.9913 17.2680
-1 -10 -2 -56.6614 23.7349
-1 -10 -1 5.2958 16.3015
-1 -9 -6 -35.2749 -28.4842
-1 -9 -5 35.0828 17.1168
-1 -9 -4 -25.5277 24.4715
-1 -9 -3 -6.1314 -44.8919
-1 -9 -2 -12.9428 10.2075
-1 -9 -1 -42.8036 -36.1940
-1 -8 -5 27.8658 -22.3044
-1 -8 -4 7.8318 4.7651
-1 -8 -3 14.4414 7.9684
-1 -8 -2 37.0904 -17.0821
-1 -8 -1 20.2072 9.5315
-1 -7 -5 20.0695 -37.4804
-1 -7 -4 -13.5407 37.2182
-1 -7 -3 1.3309 20.3866
-1 -7 -2 -2.2403 18.9025
-1 -7 -1 -7.1172 21.9451
-1 -6 -4 8.7111 -2.0197
-1 -6 -3 -21.7989 7.0061
-1 -6 -2 -41.0566 4.0525
-1 -6 -1 15.5733 14.5303
-1 -5 -4 31.9922 3.8758
-1 -5 -3 16.7344 -30.5622
-1 -5 -2 5.3482 1.4432
-1 -5 -1 -39.2041 -28.8358
-1 -4 -4 3.6982 50.4347
-1 -4 -3 -9.6494 26.9853
-1 -4 -2 20.5104 38.2319
-1 -4 -1 -30.0797 11.8173
-1 -3 -3 -53.4374 -3.8201
-1 -3 -2 23.7393 -34.5378
-1 -2 -3 3.5066 68.6961
0 5 1 0.0208 23.9897
0 6 0 46.2074 0.0381
0 6 1 -36.5722 -0.0425
0 6 2 17.5273 0.0734
0 6 3 -130.9344 -0.0575
0 6 4 -6.3946 -0.0038
0 7 1 0.0507 -5.4956
0 7 2 -0.0205 -18.7344
0 7 3 -0.0457 21.3533
0 7 4 -0.0343 -26.6295
0 8 0 76.9243 0.1050
0 8 1 -5.9388 -0.0186
0 8 2 37.9648 -0.0152
0 8 3 -26.5029 -0.0028
0 8 4 -28.4178 -0.0400
0 8 5 -25.0409 0.0250
0 9 1 0.0298 33.3708
0 9 2 0.0264 0.7664
0 9 3 0.0180 -9.8605
0 9 4 -0.0308 -1.2600
0 9 5 -0.0574 -32.8059
0 10 0 14.7587 0.0621
0 10 1 0.4861 0.0734
0 10 2 13.0467 -0.0001
0 10 3 -1.5528 0.0504
0 10 4 7.9892 -0.0744
0 10 5 -13.3378 -0.0940
0 10 6 -15.3784 0.0686
0 11 1 -0.0196 6.4930
0 11 2 -0.1187 28.3399
0 11 3 0.0489 -11.6686
0 11 4 0.0821 20.1808
0 11 5 -0.0455 -14.6144
0 11 6 0.0120 3.2749
0 12 0 10.5867 -0.0091
0 12 1 -29.1410 -0.0415
0 12 2 15.1701 0.0297
0 12 3 -43.7684 0.0669
0 12 4 4.7203 0.0055
0 12 5 -14.8401 0.0869
0 12 6 -11.1996 0.0297
0 13 1 0.0598 14.7034
0 13 2 -0.1098 -33.5647
0 13 3 -0.0209 -3.4130
0 13 4 -0.1819 -21.2598
0 13 5 -0.0627 -20.5391
0 14 0 -11.7628 0.1887
1 3 2 23.7393 34.5378
1 3 3 -53.4374 3.8201
1 4 0 1.3717 -23.8805
1 4 1 -30.0797 -11.8173
1 4 2 20.5104 -38.2319
1 4 3 -9.6494 -26.9853
1 5 0 0.0539 -20.5294
1 5 1 -39.2041 28.8358
1 5 2 5.3482 -1.4432
1 5 3 16.7344 30.5622
1 5 4 31.9922 -3.8758
1 6 0 1.2940 -21.4163
1 6 1 15.5733 -14.5303
1 6 2 -41.0566 -4.0525
1 6 3 -21.7989 -7.0061
1 6 4 8.7111 2.0197
1 7 0 0.5898 7.1183
1 7 1 -7.1172 -21.9451
1 7 2 -2.2403 -18.9025
1 7 3 1.3309 -20.3866
1 7 4 -13.5407 -37.2182
1 7 5 20.0695 37.4804
1 8 0 0.5922 31.0156
1 8 1 20.2072 -9.5315
1 8 2 37.0904 17.0821
1 8 3 14.4414 -7.9684
1 8 4 7.8318 -4.7651
1 8 5 27.8658 22.3044
1 9 0 0.7036 20.9556
1 9 1 -42.8036 36.1940
1 9 2 -12.9428 -10.2075
1 9 3 -6.1314 44.8919
1 9 4 -25.5277 -24.4715
1 9 5 35.0828 -17.1168
1 9 6 -35.2749 28.4842
1 10 0 -0.1052 -21.6650
1 10 1 5.2958 -16.3015
1 10 2 -56.6614 -23.7349
1 10 3 47.9913 -17.2680
1 10 4 -23.8257 -17.7417
1 10 5 33.1055 13.8556
1 10 6 23.1950 4.5531
1 11 0 0.3981 0.2416
1 11 1 12.0282 -21.6659
1 11 2 7.4388 20.7073
1 11 3 42.3343 -32.6148
1 11 4 -25.6310 40.3881
1 11 5 40.9010 -12.9961
1 11 6 -46.4299 22.4112
1 12 0 -0.5178 -0.4998
1 12 1 1.7233 3.3451
1 12 2 -2.7722 15.0875
1 12 3 -14.0623 -4.4675
1 12 4 3.2167 27.5181
1 12 5 -17.1306 -17.4681
1 12 6 12.7070 10.8155
1 13 0 0.1709 5.5211
1 13 1 8.4357 -12.5153
1 13 2 -4.9031 1.2783
1 13 3 4.4178 -21.0290
1 13 4 -4.5092 -5.7022
2 0 0 -1.2283 -0.2290
2 0 1 -0.2693 -2.5054
2 0 2 4.0263 -0.1960
2 0 3 0.0116 -13.5248
2 0 4 -10.6139 -0.0084
2 1 0 -11.0979 -0.3635
2 1 1 -14.6115 0.2539
2 1 2 -7.4335 3.8519
2 1 3 -18.2386 -0.3765
2 1 4 4.2525 21.9588
2 2 0 -9.2862 -0.7695
2 2 1 4.2667 -16.8228
2 2 2 -8.4828 -19.9312
2 2 3 -2.9771 -20.1070
2 2 4 -3.6142 -5.9839
2 2 5 -28.3066 3.1702
2 3 0 -5.8830 -1.1258
2 3 1 -0.0331 -22.3820
2 3 2 1.7212 4.8967
2 3 3 -1.2276 -12.9396
2 3 4 5.6878 -5.7534
2 3 5 -7.0412 -22.3343
2 4 0 10.4611 -0.3022
2 4 1 5.6890 -14.7009
2 4 2 4.5087 -7.3568
2 4 3 8.7420 -13.3212
2 4 4 6.2313 0.0456
2 4 5 1.5239 -8.3455
2 5 0 2.2486 -1.1264
2 5 1 -2.7690 -4.1189
2 5 2 9.1176 10.6850
2 5 3 -10.1544 -4.3227
2 5 4 9.7074 -2.2350
2 5 5 -16.8746 -5.1438
2 6 0 -22.0690 0.2230
2 6 1 -1.5747 -1.1748
2 6 2 -18.9428 -11.7038
2 6 3 3.7373 5.7353
2 6 4 -2.6897 -9.4906
2 6 5 12.8535 -15.6471
2 6 6 27.5782 13.5037
2 7 0 2.6034 -0.7950
2 7 1 1.0429 -35.1749
2 7 2 -9.5675 -1.0743
2 7 3 -1.5008 -10.0247
2 7 4 -4.4180 -7.7057
2 7 5 -29.4663 19.6268
2 8 0 1.1151 0.4752
2 8 1 4.3472 -1.6857
2 8 2 -14.0941 -3.7515
2 8 3 13.1670 -25.5873
2 8 4 -32.9296 -18.5093
2 8 5 21.9870 -4.6214
2 8 6 -25.8732 -51.1288
2 9 0 -3.5952 -0.3388
2 9 1 0.8092 -29.0808
2 9 2 15.2063 2.5915
2 9 3 1.5892 -29.9424
2 9 4 28.6477 3.7354
2 9 5 16.1631 -18.1566
2 9 6 6.6598 -5.9303
2 10 0 7.8139 0.4567
2 10 1 3.7334 3.9794
2 10 2 -0.4281 0.5233
2 10 3 2.5304 16.2268
2 10 4 -14.4853 -6.3476
2 10 5 6.2298 14.0025
2 10 6 -13.0876 0.4024
2 10 7 20.1384 4.6787
2 11 0 -3.9201 0.1955
2 11 1 -2.5644 -10.6185
2 11 2 -6.0686 0.9015
2 11 3 3.1638 -22.9950
2 11 4 -5.0920 -9.4169
2 11 5 12.9585 -24.4432
3 0 1 -0.1042 13.3480
3 0 2 -17.2985 -0.4144
3 0 3 -0.1443 -1.3828
3 0 4 9.9256 -0.1715
3 0 5 -0.0627 -64.0780
3 0 6 34.1961 0.1197
3 1 0 -0.9792 -15.2186
3 1 1 2.0633 -3.4692
3 1 2 -11.6465 -4.2430
3 1 3 -16.6601 5.8648
3 1 4 1.2818 2.5872
3 1 5 -6.1892 25.9360
3 1 6 27.2368 -10.6273
3 2 0 0.1121 3.5100
3 2 1 20.0770 3.3623
3 2 2 -18.7646 0.2242
3 2 3 -11.2529 -12.7921
3 2 4 -21.2153 -1.2581
3 2 5 -5.3486 -40.1269
3 2 6 -4.7160 6.8647
3 3 0 -0.5936 8.5212
3 3 1 2.0656 -12.1120
3 3 2 -8.5922 -18.5361
3 3 3 -10.9301 -15.5301
3 3 4 5.8915 -35.5725
3 3 5 -7.2428 8.8806
3 3 6 16.2520 -1.0464
3 4 0 0.0466 -8.3714
3 4 1 32.8550 -2.7313
3 4 2 4.3909 -4.2395
3 4 4 -9.5779 -0.9340
3 4 5 22.5123 -18.2727
3 4 6 -27.3351 1.4273
3 5 0 0.0513 34.9009
3 5 1 34.8208 -1.4555
3 5 2 9.3492 33.2722
3 5 3 5.0213 -4.7384
3 5 4 3.7396 14.5710
3 5 5 1.0397 -12.0725
3 5 6 -6.7994 -9.0124
3 5 7 12.1376 -16.5960
3 6 0 -0.0498 39.0544
3 6 1 -10.1295 19.1667
3 6 2 2.3853 28.1658
3 6 3 7.4263 22.2954
3 6 4 0.2275 15.0365
3 6 5 19.0925 -14.6045
3 6 6 3.2287 11.1666
3 7 0 0.6453 0.0047
3 7 1 4.1023 0.4568
3 7 2 -36.9346 10.3594
3 7 3 -13.0546 -0.8301
3 7 4 -22.1103 19.4370
3 7 5 -15.8349 -2.6059
3 8 0 -0.0183 30.8231
3 8 1 -0.7482 -13.4045
3 8 2 0.3423 17.0202
3 8 3 -7.0151 -23.1652
0 0 0 0.0 0.0
;
loop_
_space_group_symop_operation_xyz
'x, y, z'
'-x+1/2, -y, z+1/2'
'x+1/2, -y+1/2, -z'
'-x, y+1/2, -z+1/2'
loop_
_atom_site_label
_atom_site_type_symbol
_atom_site_fract_x
_atom_site_fract_y
_atom_site_fract_z
_atom_site_U_iso_or_equiv
_atom_site_adp_type
_atom_site_occupancy
_atom_site_site_symmetry_order
_atom_site_calc_flag
_atom_site_refinement_flags_posn
_atom_site_refinement_flags_adp
_atom_site_refinement_flags_occupancy
_atom_site_disorder_assembly
_atom_site_disorder_group
C37 C 1.471(12) 0.840(3) 0.261(7) 0.150 Uiso 1 1 d D . . . .
C10 C -0.22(3) 0.367(7) 0.542(4) 0.150 Uiso 1 1 d D . . . .
H10A H -0.3498 0.3504 0.5438 0.225 Uiso 1 1 calc GR . . . .
H10B H -0.2376 0.4044 0.5484 0.225 Uiso 1 1 calc GR . . . .
H10C H -0.1398 0.3514 0.5654 0.225 Uiso 1 1 calc GR . . . .
C33 C 1.116(16) 0.703(3) 0.281(10) 0.150 Uiso 1 1 d D . . . .
C39 C 1.308(17) 0.706(4) 0.296(9) 0.150 Uiso 1 1 d DG . . . .
H39 H 1.3661 0.6772 0.3108 0.180 Uiso 1 1 calc R . . . .
C38 C 1.412(15) 0.753(4) 0.289(8) 0.150 Uiso 1 1 d G . . . .
H38 H 1.5399 0.7552 0.2993 0.180 Uiso 1 1 calc R . . . .
C36 C 1.324(15) 0.796(4) 0.267(8) 0.150 Uiso 1 1 d DG . . . .
C35 C 1.133(17) 0.792(3) 0.252(9) 0.150 Uiso 1 1 d G . . . .
H35 H 1.0741 0.8214 0.2367 0.180 Uiso 1 1 calc R . . . .
C34 C 1.029(15) 0.746(3) 0.258(10) 0.150 Uiso 1 1 d DG . . . .
H34 H 0.9003 0.7434 0.2482 0.180 Uiso 1 1 calc R . . . .
C20 C 0.29(2) 0.445(8) 0.558(9) 0.150 Uiso 1 1 d D . . . .
H20A H 0.2945 0.4709 0.5328 0.225 Uiso 1 1 calc GR . . . .
H20B H 0.2869 0.4098 0.5437 0.225 Uiso 1 1 calc GR . . . .
H20C H 0.4079 0.4478 0.5765 0.225 Uiso 1 1 calc GR . . . .
C3 C 0.144(11) 0.377(5) 0.381(4) 0.150 Uiso 1 1 d D . . . .
C2 C 0.343(11) 0.373(4) 0.373(4) 0.150 Uiso 1 1 d DG . . . .
H2 H 0.4211 0.3552 0.3952 0.180 Uiso 1 1 calc R . . . .
C1 C 0.425(9) 0.395(4) 0.333(5) 0.150 Uiso 1 1 d DG . . . .
H1 H 0.5587 0.3928 0.3279 0.180 Uiso 1 1 calc R . . . .
N1 N 0.309(8) 0.422(4) 0.300(5) 0.150 Uiso 1 1 d G . . . .
C5 C 0.110(8) 0.426(4) 0.308(4) 0.150 Uiso 1 1 d DG . . . .
H5 H 0.0316 0.4432 0.2861 0.180 Uiso 1 1 calc R . . . .
C4 C 0.027(9) 0.403(4) 0.348(4) 0.150 Uiso 1 1 d DG . . . .
H4 H -0.1059 0.4056 0.3534 0.180 Uiso 1 1 calc R . . . .
C21 C -0.371(18) 0.483(7) 0.642(9) 0.150 Uiso 1 1 d D . . . .
C25 C -0.41(2) 0.537(6) 0.634(10) 0.150 Uiso 1 1 d G . . . .
H25 H -0.3230 0.5566 0.6145 0.180 Uiso 1 1 calc R . . . .
C24 C -0.56(3) 0.562(4) 0.656(12) 0.150 Uiso 1 1 d G . . . .
H24 H -0.5866 0.5979 0.6503 0.180 Uiso 1 1 calc R . . . .
N2 N -0.69(2) 0.533(8) 0.685(11) 0.150 Uiso 1 1 d G . . . .
C23 C -0.65(2) 0.479(7) 0.693(9) 0.150 Uiso 1 1 d G . . . .
H23 H -0.7341 0.4598 0.7124 0.180 Uiso 1 1 calc R . . . .
C22 C -0.49(3) 0.454(4) 0.671(9) 0.150 Uiso 1 1 d G . . . .
H22 H -0.4706 0.4185 0.6766 0.180 Uiso 1 1 calc R . . . .
O4 O 1.689(16) 0.838(4) 0.279(10) 0.150 Uiso 1 1 d D . . . .
C8 C 0.051(14) 0.347(5) 0.509(4) 0.150 Uiso 1 1 d D . . . .
C7 C 0.181(10) 0.356(4) 0.471(4) 0.150 Uiso 1 1 d DG . . . .
H7 H 0.3149 0.3510 0.4718 0.180 Uiso 1 1 calc R . . . .
C6 C 0.071(8) 0.373(5) 0.431(4) 0.150 Uiso 1 1 d DG . . . .
S1 S -0.128(8) 0.3751(19) 0.445(4) 0.150 Uiso 1 1 d DG . . . .
C9 C -0.140(11) 0.359(5) 0.493(4) 0.150 Uiso 1 1 d DG . . . .
Zn1 Zn 0.421(4) 0.4496(10) 0.241(3) 0.150 Uiso 1 1 d D . . . .
C11 C 0.108(13) 0.319(3) 0.554(4) 0.150 Uiso 1 1 d D . . . .
C15 C 0.079(12) 0.344(2) 0.599(5) 0.150 Uiso 1 1 d DG . . . .
C14 C 0.188(13) 0.316(2) 0.634(4) 0.150 Uiso 1 1 d DG . . . .
C13 C 0.284(10) 0.273(2) 0.611(4) 0.150 Uiso 1 1 d DG . . . .
C12 C 0.234(13) 0.275(3) 0.562(4) 0.150 Uiso 1 1 d DG . . . .
C26 C 0.703(15) 0.506(4) 0.290(7) 0.150 Uiso 1 1 d D . . . .
F6 F 0.020(16) 0.299(3) 0.653(8) 0.150 Uiso 1 1 d D . . . .
O3 O 1.428(19) 0.895(5) 0.236(9) 0.150 Uiso 1 1 d D . . . .
F3 F 0.478(12) 0.278(4) 0.616(5) 0.150 Uiso 1 1 d D . . . .
F4 F 0.232(16) 0.227(3) 0.630(4) 0.150 Uiso 1 1 d D . . . .
O1 O 0.564(19) 0.531(4) 0.265(10) 0.150 Uiso 1 1 d D . . . .
C19 C 0.116(13) 0.453(4) 0.589(7) 0.150 Uiso 1 1 d D . . . .
S2 S -0.045(12) 0.488(2) 0.595(5) 0.150 Uiso 1 1 d DG . . . .
C18 C -0.192(16) 0.459(4) 0.619(7) 0.150 Uiso 1 1 d DG . . . .
C17 C -0.12(2) 0.407(3) 0.628(7) 0.150 Uiso 1 1 d DG . . . .
H17 H -0.1907 0.3800 0.6431 0.180 Uiso 1 1 calc R . . . .
C16 C 0.068(19) 0.403(3) 0.609(8) 0.150 Uiso 1 1 d DG . . . .
F5 F 0.261(16) 0.322(4) 0.678(5) 0.150 Uiso 1 1 d D . . . .
C27 C 0.833(17) 0.551(3) 0.275(9) 0.150 Uiso 1 1 d D . . . .
C32 C 1.015(16) 0.556(3) 0.297(9) 0.150 Uiso 1 1 d DG . . . .
H32 H 1.0711 0.5264 0.3112 0.180 Uiso 1 1 calc R . . . .
C31 C 1.112(17) 0.604(3) 0.296(10) 0.150 Uiso 1 1 d DG . . . .
H31 H 1.2330 0.6074 0.3103 0.180 Uiso 1 1 calc R . . . .
C30 C 1.027(19) 0.648(3) 0.274(9) 0.150 Uiso 1 1 d DG . . . .
C29 C 0.845(19) 0.644(3) 0.253(8) 0.150 Uiso 1 1 d DG . . . .
H29 H 0.7889 0.6729 0.2384 0.180 Uiso 1 1 calc R . . . .
C28 C 0.749(18) 0.595(4) 0.254(8) 0.150 Uiso 1 1 d DG . . . .
H28 H 0.6271 0.5920 0.2393 0.180 Uiso 1 1 calc R . . . .
F1 F 0.369(16) 0.249(4) 0.536(5) 0.150 Uiso 1 1 d D . . . .
O2 O 0.752(17) 0.462(5) 0.315(9) 0.150 Uiso 1 1 d D . . . .
F2 F 0.102(17) 0.236(4) 0.552(5) 0.150 Uiso 1 1 d D . . . .
loop_
_atom_type_symbol
_atom_type_description
_atom_type_scat_dispersion_real
_atom_type_scat_dispersion_imag
_atom_type_scat_source
C C 0.0033 0.0016 'International Tables Vol C Tables 4.2.6.8 and 6.1.1.4'
H H 0.0000 0.0000 'International Tables Vol C Tables 4.2.6.8 and 6.1.1.4'
F F 0.0171 0.0103 'International Tables Vol C Tables 4.2.6.8 and 6.1.1.4'
N N 0.0061 0.0033 'International Tables Vol C Tables 4.2.6.8 and 6.1.1.4'
O O 0.0106 0.0060 'International Tables Vol C Tables 4.2.6.8 and 6.1.1.4'
S S 0.1246 0.1234 'International Tables Vol C Tables 4.2.6.8 and 6.1.1.4'
Zn Zn 0.2839 1.4301 'International Tables Vol C Tables 4.2.6.8 and 6.1.1.4'
loop_
_geom_angle_atom_site_label_1
_geom_angle_atom_site_label_2
_geom_angle_atom_site_label_3
_geom_angle
_geom_angle_site_symmetry_1
_geom_angle_site_symmetry_3
_geom_angle_publ_flag
C36 C37 O4 125(5) . . ?
C36 C37 O3 125(5) . . ?
O3 C37 O4 110(9) . . ?
C39 C33 C34 120.00(15) . . ?
C39 C33 C30 119(3) . . ?
C34 C33 C30 119(3) . . ?
C38 C39 C33 120.00(12) . . ?
C39 C38 C36 120.00(16) . . ?
C38 C36 C37 110(4) . . ?
C35 C36 C37 130(5) . . ?
C35 C36 C38 120.00(14) . . ?
C36 C35 C34 120.0 . . ?
C35 C34 C33 120.00(12) . . ?
C2 C3 C4 120.0 . . ?
C2 C3 C6 118(2) . . ?
C4 C3 C6 117(3) . . ?
C1 C2 C3 120.0 . . ?
N1 C1 C2 120.0(4) . . ?
C1 N1 C5 120.0 . . ?
C1 N1 Zn1 120.3(12) . . ?
C5 N1 Zn1 119.6(12) . . ?
N1 C5 C4 120.0 . . ?
C5 C4 C3 120.0(4) . . ?
C25 C21 C22 120.00(14) . . ?
C25 C21 C18 118(10) . . ?
C22 C21 C18 122(10) . . ?
C21 C25 C24 120.0(3) . . ?
N2 C24 C25 120.0(2) . . ?
C24 N2 Zn1 137(10) . 2_465 ?
C23 N2 C24 120.00(15) . . ?
C23 N2 Zn1 101(10) . 2_465 ?
C22 C23 N2 120.0(2) . . ?
C23 C22 C21 120.0(2) . . ?
C7 C8 S1 72.0 . . ?
C7 C8 C11 123(7) . . ?
C9 C8 C7 108.0 . . ?
C9 C8 S1 36.0 . . ?
C9 C8 C11 127(7) . . ?
C11 C8 S1 161(8) . . ?
C6 C7 C8 108.0(5) . . ?
C7 C6 C3 125(2) . . ?
S1 C6 C3 125(2) . . ?
S1 C6 C7 108.0 . . ?
C6 S1 C8 72.0 . . ?
C6 S1 C9 108.0 . . ?
C9 S1 C8 36.0 . . ?
C8 C9 C10 95(9) . . ?
C8 C9 S1 108.0(2) . . ?
S1 C9 C10 149(10) . . ?
N1 Zn1 N2 112(10) . 2_464 ?
N1 Zn1 O1 104(8) . . ?
N2 Zn1 O1 109(10) 2_464 . ?
O3 Zn1 N1 70(7) 4_745 . ?
O3 Zn1 N2 141(10) 4_745 2_464 ?
O3 Zn1 O1 108(7) 4_745 . ?
C15 C11 C8 119(8) . . ?
C12 C11 C8 131(7) . . ?
C12 C11 C15 108.0 . . ?
C11 C15 C16 128(10) . . ?
C14 C15 C11 108.0 . . ?
C14 C15 C16 113(8) . . ?
C15 C14 C13 108.0 . . ?
F6 C14 C15 89(9) . . ?
F6 C14 C13 110(3) . . ?
F6 C14 F5 88(10) . . ?
F5 C14 C15 141(3) . . ?
F5 C14 C13 110(3) . . ?
C14 C13 C12 108.0 . . ?
F3 C13 C14 110(2) . . ?
F3 C13 C12 111(2) . . ?
F4 C13 C14 111(2) . . ?
F4 C13 C12 111(2) . . ?
F4 C13 F3 106(7) . . ?
C11 C12 C13 108.0 . . ?
F1 C12 C11 136(4) . . ?
F1 C12 C13 110(3) . . ?
F1 C12 F2 90(7) . . ?
F2 C12 C11 97(5) . . ?
F2 C12 C13 109(3) . . ?
O1 C26 C27 86(6) . . ?
O1 C26 O2 147(10) . . ?
O2 C26 C27 128(8) . . ?
C37 O3 Zn1 113(9) . 4_755 ?
C26 O1 Zn1 92(7) . . ?
S2 C19 C20 142(10) . . ?
S2 C19 C16 108.00(17) . . ?
C16 C19 C20 107(10) . . ?
C19 S2 C18 108.00(10) . . ?
C19 S2 C16 36.0 . . ?
C18 S2 C16 72.0 . . ?
S2 C18 C21 126(2) . . ?
S2 C18 C17 108.00(13) . . ?
C17 C18 C21 125(2) . . ?
C16 C17 C18 108.00(14) . . ?
C15 C16 S2 154(10) . . ?
C19 C16 C15 141(10) . . ?
C19 C16 S2 36.0 . . ?
C17 C16 C15 101(9) . . ?
C17 C16 C19 108.00(15) . . ?
C17 C16 S2 72.00(13) . . ?
C32 C27 C26 119(2) . . ?
C32 C27 C28 120.00(17) . . ?
C28 C27 C26 118(2) . . ?
C27 C32 C31 120.0 . . ?
C30 C31 C32 120.00(17) . . ?
C31 C30 C33 120(2) . . ?
C29 C30 C33 119.4(18) . . ?
C29 C30 C31 120.00(17) . . ?
C30 C29 C28 120.0 . . ?
C29 C28 C27 120.00(14) . . ?
loop_
_geom_bond_atom_site_label_1
_geom_bond_atom_site_label_2
_geom_bond_distance
_geom_bond_site_symmetry_2
_geom_bond_publ_flag
C37 C36 1.51(2) . ?
C37 O4 1.58(11) . ?
C37 O3 1.58(11) . ?
C10 C9 1.51(2) . ?
C33 C39 1.390(2) . ?
C33 C34 1.3900 . ?
C33 C30 1.51(2) . ?
C39 C38 1.3900(19) . ?
C38 C36 1.3900 . ?
C36 C35 1.390(3) . ?
C35 C34 1.3900 . ?
C20 C19 1.51(2) . ?
C3 C2 1.3900 . ?
C3 C4 1.3900 . ?
C3 C6 1.51(3) . ?
C2 C1 1.3900 . ?
C1 N1 1.3900 . ?
N1 C5 1.3900 . ?
N1 Zn1 1.96(14) . ?
C5 C4 1.3900 . ?
C21 C25 1.390(2) . ?
C21 C22 1.390(6) . ?
C21 C18 1.51(2) . ?
C25 C24 1.390(3) . ?
C24 N2 1.390(6) . ?
N2 C23 1.3900 . ?
N2 Zn1 2.31(19) 2_465 ?
C23 C22 1.390(3) . ?
C8 C7 1.4200 . ?
C8 S1 2.2976 . ?
C8 C9 1.4200 . ?
C8 C11 1.51(3) . ?
C7 C6 1.4200 . ?
C6 S1 1.4200 . ?
S1 C9 1.4200 . ?
Zn1 N2 2.3(7) 2_464 ?
Zn1 O3 1.83(15) 4_745 ?
Zn1 O1 2.36(13) . ?
C11 C15 1.4200 . ?
C11 C12 1.4200 . ?
C15 C14 1.4200 . ?
C15 C16 1.51(3) . ?
C14 C13 1.4200 . ?
C14 F6 1.36(6) . ?
C14 F5 1.36(6) . ?
C13 C12 1.4200 . ?
C13 F3 1.35(6) . ?
C13 F4 1.35(6) . ?
C12 F1 1.35(6) . ?
C12 F2 1.36(6) . ?
C26 O1 1.34(11) . ?
C26 C27 1.51(2) . ?
C26 O2 1.35(12) . ?
O3 Zn1 1.83(15) 4_755 ?
C19 S2 1.4200 . ?
C19 C16 1.420(3) . ?
S2 C18 1.420(4) . ?
S2 C16 2.2976 . ?
C18 C17 1.4200 . ?
C17 C16 1.420(3) . ?
C27 C32 1.390(3) . ?
C27 C28 1.3900 . ?
C32 C31 1.390(2) . ?
C31 C30 1.3900 . ?
C30 C29 1.390(3) . ?
C29 C28 1.3900 . ?
loop_
_smtbx_masks_void_nr
_smtbx_masks_void_average_x
_smtbx_masks_void_average_y
_smtbx_masks_void_average_z
_smtbx_masks_void_volume
_smtbx_masks_void_count_electrons
_smtbx_masks_void_content
1 -0.371 0.250 0.000 799.3 79.2 ?
2 -0.310 -0.250 0.500 799.3 78.7 ?
3 0.250 0.283 0.312 6.4 0.0 ?
4 0.250 0.717 0.812 6.4 0.0 ?
5 0.750 0.217 0.688 6.4 0.0 ?
6 0.750 0.783 0.188 6.4 0.0 ?
