#------------------------------------------------------------------------------
#$Date: 2022-12-15 01:57:01 +0200 (Thu, 15 Dec 2022) $
#$Revision: 279896 $
#$URL: file:///home/coder/svn-repositories/cod/cif/7/71/19/7711941.cif $
#------------------------------------------------------------------------------
#
# This file is available in the Crystallography Open Database (COD),
# http://www.crystallography.net/
#
# All data on this site have been placed in the public domain by the
# contributors.
#
data_7711941
loop_
_publ_author_name
'Woschko, Dennis'
'Yilmaz, S\"uheyla'
'Jansen, Christian'
'Spie\&s, Alex'
'Oestreich, Robert'
'Matemb Ma Ntep , Tobie Junior J.'
'Janiak, Christoph'
_publ_section_title
;
 Enhanced sorption in an indium-acetylenedicarboxylate metal-organic
 framework with unexpected chains of cis-\m-OH-connected {InO6} octahedra
;
_journal_name_full               'Dalton Transactions'
_journal_paper_doi               10.1039/D2DT03719J
_journal_year                    2023
_chemical_absolute_configuration ad
_chemical_formula_moiety         'C4 H In O5'
_chemical_formula_sum            'C4 H In O5'
_chemical_formula_weight         243.87
_chemical_name_systematic
catena-[acetylenedicarboxylate-\kO:O':O'':O'''-(\m-hydroxido-\kO:O)indium(III)]
_chemical_properties_physical    Moisture-sensitive
_space_group_crystal_system      tetragonal
_space_group_IT_number           95
_space_group_name_Hall           'P 4cw 2c'
_space_group_name_H-M_alt        'P 43 2 2'
_atom_sites_solution_hydrogens   geom
_audit_creation_method           SHELXL-2017/1
_audit_update_record
;
2022-11-17 deposited with the CCDC.	2022-12-14 downloaded from the CCDC.
;
_cell_angle_alpha                90
_cell_angle_beta                 90
_cell_angle_gamma                90
_cell_formula_units_Z            4
_cell_length_a                   9.8015(9)
_cell_length_b                   9.8015(9)
_cell_length_c                   12.7970(14)
_cell_measurement_reflns_used    6150
_cell_measurement_temperature    140(2)
_cell_measurement_theta_max      30.5535
_cell_measurement_theta_min      2.6175
_cell_volume                     1229.4(2)
_computing_cell_refinement       'SAINT (Bruker, 2012)'
_computing_data_collection       'APEX2 (Bruker, 2012)'
_computing_data_reduction        'SAINT (Bruker, 2012)'
_computing_molecular_graphics    'DIAMOND 4.3.1 (Brandenburg, 1999)'
_computing_publication_material  'SHELXL-2017/1 (Sheldrick, 2015b)'
_computing_structure_refinement  'SHELXL-2017/1 (Sheldrick, 2015b)'
_computing_structure_solution    'SHELXT-2015 (Sheldrick 2015a)'
_diffrn_ambient_temperature      140(2)
_diffrn_measured_fraction_theta_full 0.991
_diffrn_measured_fraction_theta_max 0.992
_diffrn_measurement_device_type  'Bruker Kappa APEX-II CCD area detector'
_diffrn_measurement_method       '\w scans, \f scans'
_diffrn_radiation_monochromator  'multilayer mirror'
_diffrn_radiation_source         'microfocus sealed tube'
_diffrn_radiation_type           MoK\a
_diffrn_radiation_wavelength     0.71073
_diffrn_reflns_av_R_equivalents  0.0184
_diffrn_reflns_av_unetI/netI     0.0167
_diffrn_reflns_Laue_measured_fraction_full 0.991
_diffrn_reflns_Laue_measured_fraction_max 0.992
_diffrn_reflns_limit_h_max       11
_diffrn_reflns_limit_h_min       -11
_diffrn_reflns_limit_k_max       14
_diffrn_reflns_limit_k_min       -11
_diffrn_reflns_limit_l_max       18
_diffrn_reflns_limit_l_min       -17
_diffrn_reflns_number            7274
_diffrn_reflns_point_group_measured_fraction_full 0.995
_diffrn_reflns_point_group_measured_fraction_max 0.994
_diffrn_reflns_theta_full        25.242
_diffrn_reflns_theta_max         30.589
_diffrn_reflns_theta_min         2.078
_exptl_absorpt_coefficient_mu    1.900
_exptl_absorpt_correction_T_max  0.6852
_exptl_absorpt_correction_T_min  0.5779
_exptl_absorpt_correction_type   multi-scan
_exptl_absorpt_process_details   '(<i>SADABS</i>; Sheldrick, 1996)'
_exptl_crystal_colour            'clear colourless'
_exptl_crystal_density_diffrn    1.318
_exptl_crystal_density_method    'not measured'
_exptl_crystal_description       octahedral
_exptl_crystal_F_000             456
_exptl_crystal_recrystallization_method
'Re-crystallisation from solvent: ethanol'
_exptl_crystal_size_max          0.241
_exptl_crystal_size_mid          0.218
_exptl_crystal_size_min          0.202
_refine_diff_density_max         0.900
_refine_diff_density_min         -0.238
_refine_diff_density_rms         0.056
_refine_ls_abs_structure_details
;
 Flack x determined using 718 quotients [(I+)-(I-)]/[(I+)+(I-)]
 (Parsons, Flack and Wagner, Acta Cryst. B69 (2013) 249-259).
;
_refine_ls_abs_structure_Flack   -0.009(15)
_refine_ls_extinction_method     none
_refine_ls_goodness_of_fit_ref   1.084
_refine_ls_hydrogen_treatment    constr
_refine_ls_matrix_type           full
_refine_ls_number_parameters     47
_refine_ls_number_reflns         1889
_refine_ls_number_restraints     0
_refine_ls_restrained_S_all      1.084
_refine_ls_R_factor_all          0.0131
_refine_ls_R_factor_gt           0.0127
_refine_ls_shift/su_max          0.000
_refine_ls_shift/su_mean         0.000
_refine_ls_structure_factor_coef Fsqd
_refine_ls_weighting_details
'w=1/[\s^2^(Fo^2^)+(0.0169P)^2^+0.2125P] where P=(Fo^2^+2Fc^2^)/3'
_refine_ls_weighting_scheme      calc
_refine_ls_wR_factor_gt          0.0335
_refine_ls_wR_factor_ref         0.0336
_reflns_Friedel_coverage         0.651
_reflns_Friedel_fraction_full    1.000
_reflns_Friedel_fraction_max     0.996
_reflns_number_gt                1843
_reflns_number_total             1889
_reflns_threshold_expression     'I > 2\s(I)'
_cod_data_source_file            d2dt03719j38.cif
_cod_data_source_block           In-ADC_P4322
_cod_original_cell_volume        1229.4(3)
_cod_database_code               7711941
_shelx_shelxl_version_number     2017/1
_shelx_space_group_comment
;
The symmetry employed for this shelxl refinement is uniquely defined
by the following loop, which should always be used as a source of
symmetry information in preference to the above space-group names.
They are only intended as comments.
;
_shelx_estimated_absorpt_t_min   0.657
_shelx_estimated_absorpt_t_max   0.700
_shelx_res_file
;
TITL In-ADC_P4322.res in P4(3)22
    In-ADC_P4322.res
    created by SHELXL-2017/1 at 14:34:43 on 05-Jul-2022
REM Old TITL DW_DWP_2_14_M1_0m in P4(3)22
REM SHELXT solution in P4(3)22
REM R1 0.063,  Rweak 0.010,  Alpha 0.007,  Orientation as input
REM Flack x =  0.027 ( 0.015 ) from Parsons' quotients
REM Formula found by SHELXT:  C4 In O5
CELL  0.71073   9.8015   9.8015  12.7970   90.000   90.000   90.000
ZERR   4.000   0.0009   0.0009   0.0014    0.000    0.000    0.000
LATT -1
SYMM -X, -Y, 1/2+Z
SYMM -Y, X, 3/4+Z
SYMM Y, -X, 1/4+Z
SYMM -X, Y, -Z
SYMM X, -Y, 1/2-Z
SYMM Y, X, 1/4-Z
SYMM -Y, -X, 3/4-Z
SFAC C IN O H
UNIT 16 4 20 4
LIST 6 ! automatically inserted. Change 6 to 4 for CHECKCIF!!
ACTA
TEMP -133.15
SIZE 0.202 0.218 0.241
OMIT 1 1 2
OMIT 0 1 2
OMIT 0 1 1
OMIT 0 2 2
HTAB
L.S. 30 0   23
BOND $H
FMAP 2
PLAN 20
ABIN
WGHT    0.016900    0.212500
FVAR       0.45757
IN1   2    0.500000    0.380826    0.500000    10.50000    0.01293    0.01347 =
         0.00880    0.00000    0.00052    0.00000
O1    3    0.485191    0.514809    0.375000    10.50000    0.01958    0.01958 =
         0.01209    0.00335    0.00335    0.00711
AFIX  43
H1    4    0.416656    0.583345    0.375000    10.50000   -1.20000
AFIX   0
C1    1    0.556934    0.194224    0.310033    11.00000    0.02586    0.01601 =
         0.01730   -0.00172   -0.00415    0.00085
O3    3    0.628983    0.278887    0.261595    11.00000    0.02768    0.01378 =
         0.02172   -0.00025    0.00228    0.00258
O2    3    0.488405    0.211657    0.391468    11.00000    0.03299    0.01817 =
         0.02018   -0.00527    0.00447   -0.00501
C2    1    0.555865    0.055722    0.267272    11.00000    0.03809    0.01735 =
         0.01873   -0.00161    0.00229   -0.00054
HKLF 4




REM  In-ADC_P4322.res in P4(3)22
REM R1 =  0.0127 for    1843 Fo > 4sig(Fo)  and  0.0131 for all    1889 data
REM     47 parameters refined using      0 restraints

END

WGHT      0.0169      0.2125

REM No hydrogen bonds found for HTAB generation

REM Highest difference peak  0.900,  deepest hole -0.238,  1-sigma level  0.056
Q1    1   0.5000  0.2991  0.5000  10.50000  0.05    0.90
Q2    1   0.4324  0.3803  0.5004  11.00000  0.05    0.61
Q3    1   0.5000  0.4639  0.5000  10.50000  0.05    0.61
Q4    1   0.5000  0.6149  0.5000  10.50000  0.05    0.37
Q5    1   0.6027 -0.0078  0.2713  11.00000  0.05    0.24
Q6    1   0.4153  0.5054  0.3635  11.00000  0.05    0.22
Q7    1   0.7007  0.2421  0.2501  11.00000  0.05    0.21
Q8    1   0.3844  0.2580  0.2529  11.00000  0.05    0.21
Q9    1   0.5055  0.0000  0.2500  10.50000  0.05    0.17
Q10   1   0.5625  0.1047  0.2758  11.00000  0.05    0.16
Q11   1   0.4762  0.4544  0.3719  11.00000  0.05    0.14
Q12   1   0.6283  0.3717  0.3750  10.50000  0.05    0.13
Q13   1   0.3339  0.6384  0.3447  11.00000  0.05    0.13
Q14   1   0.5063  0.3678  0.2557  11.00000  0.05    0.12
Q15   1   0.4085  0.2435  0.3917  11.00000  0.05    0.12
Q16   1   0.4321  0.1411  0.5009  11.00000  0.05    0.12
Q17   1   0.4971  0.0141  0.3565  11.00000  0.05    0.12
Q18   1   0.5595  0.3019  0.2759  11.00000  0.05    0.12
Q19   1   0.4985  0.1443  0.4529  11.00000  0.05    0.11
Q20   1   0.6203  0.3178  0.1477  11.00000  0.05    0.11
;
_shelx_res_checksum              75426
_shelx_fab_file
;
    0    1    0     39.29     -1.10
    1    1    0      0.62     -0.35
    1    2    0     -7.00      0.89
    2    2    0     -0.87      4.42
    2    3    0     -5.49      5.76
    1    3    0      3.09      1.57
    0    3    0      0.43     -0.64
    3    3    0      8.29      3.85
    3    4    0      7.32      0.15
    2    4    0     -2.50      1.49
    1    4    0     -6.19      0.54
    0    4    0      6.88      0.02
    4    4    0     -0.52      0.27
    4    5    0     -1.68      0.10
    3    5    0     -3.07     -0.30
    2    5    0      2.20     -0.56
    0    5    0      2.40      1.07
    5    5    0      1.65     -0.30
    5    6    0     -1.47      0.36
    4    6    0      2.67     -0.33
    3    6    0     -2.27     -0.34
    2    6    0     -2.68     -0.03
    1    6    0      1.18      0.21
    0    6    0      2.48      0.63
    6    6    0     -1.58      0.27
    6    7    0      2.94     -0.11
    5    7    0      0.27      0.16
    4    7    0     -0.59     -0.21
    3    7    0     -0.16     -0.21
    2    7    0     -3.34      0.08
    1    7    0      0.30     -0.04
    0    7    0     -0.39     -0.35
    7    7    0     -1.92      0.11
    7    8    0     -1.78      0.24
    6    8    0      0.55      0.30
    5    8    0      1.29      0.03
    4    8    0     -2.09      0.01
    3    8    0     -0.32     -0.11
    2    8    0      2.33     -0.43
    1    8    0      0.80      0.00
    0    8    0     -2.48     -0.11
    8    8    0      1.15     -0.39
    8    9    0      0.73      0.15
    7    9    0      0.68     -0.09
    6    9    0     -2.16     -0.05
    5    9    0      0.65      0.43
    4    9    0      2.07      0.17
    3    9    0     -1.92      0.11
    2    9    0      0.74     -0.02
    1    9    0      2.09     -0.23
    0    9    0      1.33      0.10
    9    9    0      0.04      0.02
    7   10    0      1.71     -0.15
    6   10    0      0.08     -0.02
    5   10    0     -1.58      0.42
    4   10    0      1.47     -0.05
    3   10    0     -0.08     -0.03
    2   10    0     -0.70      0.35
    1   10    0      0.43     -0.13
    0   10    0     -0.60      0.01
    8   10    0     -0.14      0.32
    9   10    0      0.44      0.11
    7   11    0     -1.14      0.25
    6   11    0      0.84      0.21
    5   11    0     -0.56     -0.28
    4   11    0     -0.16      0.18
    3   11    0      0.52      0.33
    2   11    0     -1.00      0.04
    1   11    0      0.06      0.11
    0   11    0     -0.45      0.08
    8   11    0     -0.56     -0.28
    7   12    0     -0.83      0.03
    6   12    0      0.18     -0.11
    5   12    0      0.55      0.16
    4   12    0      0.00      0.40
    3   12    0     -0.49      0.07
    2   12    0      0.12      0.02
    1   12    0      0.04      0.20
    0   12    0      0.08     -0.08
    5   13    0     -0.07      0.40
    4   13    0      1.37      0.03
    3   13    0     -0.90     -0.15
    2   13    0     -0.67      0.12
    1   13    0     -0.78     -0.01
    0   13    0      1.14      0.01
    1   14    0     -0.24     -0.01
    0   14    0      1.39      0.29
    1    1    1     11.02    -11.25
    1    2    1     17.52    -12.43
    0    2    1      0.03     11.17
    2    2    1      6.16     -4.54
    2    3    1     -0.87     -2.80
    1    3    1     -7.53      1.15
    0    3    1     -0.29     -5.02
    3    3    1      2.69     -4.37
    3    4    1     -0.48      4.05
    2    4    1      3.75     -5.09
    1    4    1     -3.43      2.01
    0    4    1      0.44      0.60
    4    4    1     -1.89      2.93
    4    5    1      3.04     -1.42
    3    5    1     -2.29      3.23
    2    5    1     -0.69     -1.64
    1    5    1      3.54     -3.44
    0    5    1     -0.13      2.89
    5    5    1      0.07      0.08
    5    6    1     -0.92      0.07
    4    6    1      1.31      0.43
    3    6    1      2.32      0.75
    2    6    1     -1.57      0.73
    1    6    1      0.09     -3.56
    0    6    1     -0.55      2.23
    6    6    1      1.99     -2.39
    6    7    1     -0.16     -1.15
    5    7    1      1.22     -1.93
    4    7    1     -0.39      2.20
    3    7    1      2.02      1.85
    2    7    1     -0.05     -2.01
    1    7    1     -2.26     -0.84
    0    7    1     -0.05      4.27
    7    7    1     -1.08      1.55
    7    8    1      0.16     -1.35
    6    8    1     -0.68      2.06
    5    8    1      0.84     -0.62
    4    8    1     -1.27     -1.42
    3    8    1     -2.27      2.63
    2    8    1      0.48     -0.27
    1    8    1      1.21     -0.63
    0    8    1      0.28      0.21
    8    8    1      0.48     -0.53
    8    9    1     -0.14      0.59
    7    9    1      0.66     -1.59
    6    9    1     -0.36      0.20
    5    9    1     -1.28      0.97
    4    9    1      0.81     -1.58
    3    9    1      0.19      0.27
    2    9    1     -0.38      1.06
    1    9    1      0.19     -0.12
    0    9    1      0.04     -0.65
    9    9    1     -0.10      0.03
    9   10    1      0.20     -0.20
    8   10    1     -0.75      0.63
    7   10    1     -0.17      0.21
    6   10    1      1.32     -1.45
    5   10    1      0.05     -0.03
    4   10    1      0.39      0.45
    3   10    1      1.12     -0.39
    2   10    1      0.56      0.61
    1   10    1      0.91      0.09
    0   10    1      0.05     -0.01
    7   11    1     -0.93      0.09
    6   11    1     -0.74      0.15
    5   11    1      0.26     -0.68
    4   11    1     -0.56      0.07
    3   11    1     -0.07      0.40
    2   11    1      0.21     -0.76
    1   11    1     -0.08      0.40
    0   11    1     -0.11      0.48
    8   11    1      0.28     -0.27
    7   12    1     -0.08     -0.24
    6   12    1     -0.42      0.63
    5   12    1      0.51     -0.56
    4   12    1     -0.46     -0.62
    3   12    1     -0.98      0.93
    2   12    1     -0.18     -0.30
    1   12    1     -0.21      1.34
    0   12    1     -0.12      0.05
    5   13    1     -0.46      0.22
    4   13    1     -0.12     -0.16
    3   13    1      0.20     -0.40
    2   13    1     -0.16      0.02
    1   13    1     -0.56      1.08
    0   13    1      0.18      0.07
    0   14    1      0.07     -0.36
    1    2    2     16.09     12.50
    2    2    2      0.64     10.09
    2    3    2     -1.86     -4.88
    1    3    2      1.30      5.97
    0    3    2     -7.25     -0.26
    3    3    2     -0.14      0.74
    3    4    2     -0.05      3.45
    2    4    2     -1.28     -0.01
    1    4    2     -1.27     -6.65
    0    4    2      1.50     -0.04
    4    4    2     -0.52     -5.35
    4    5    2      0.69     -0.34
    3    5    2      0.90     -1.91
    2    5    2     -3.26      2.02
    1    5    2     -3.91     -4.33
    0    5    2      6.02     -0.05
    5    5    2      0.19      3.27
    5    6    2     -0.36      0.24
    4    6    2      0.82      3.53
    3    6    2      0.91     -2.28
    2    6    2     -2.38      0.18
    1    6    2     -1.93      2.78
    0    6    2      2.39     -0.14
    6    6    2     -0.28      1.44
    6    7    2      1.07      2.71
    5    7    2      0.47     -1.60
    4    7    2     -1.00      0.60
    3    7    2      0.02      3.08
    2    7    2      2.03     -1.25
    1    7    2      1.32     -2.47
    0    7    2     -2.75     -0.11
    7    7    2     -0.35      0.96
    7    8    2     -1.25     -2.00
    6    8    2      0.29     -0.13
    5    8    2      2.12      1.80
    4    8    2      0.10     -1.95
    3    8    2     -2.79      0.50
    2    8    2     -0.15      0.70
    1    8    2      0.96     -0.94
    0    8    2     -1.79      0.05
    8    8    2     -0.25      0.36
    8    9    2     -0.33      0.58
    7    9    2      0.06     -0.64
    6    9    2     -0.75     -1.96
    5    9    2     -0.33      1.43
    4    9    2      0.51      0.59
    3    9    2     -1.13     -0.66
    2    9    2     -0.14      0.68
    1    9    2     -0.31      0.59
    0    9    2     -1.31      0.13
    9    9    2     -0.59     -0.89
    9   10    2      0.16     -0.56
    8   10    2     -0.66     -0.25
    7   10    2     -0.86      1.54
    6   10    2     -0.87      0.31
    5   10    2     -0.77     -0.60
    4   10    2      0.74      0.85
    3   10    2      0.33      0.10
    2   10    2     -0.43      0.17
    1   10    2      0.37      0.52
    0   10    2      0.10      0.19
    7   11    2      0.06      0.07
    6   11    2     -0.12      0.77
    5   11    2     -0.18      0.26
    4   11    2      0.71     -0.10
    3   11    2      0.34      0.12
    2   11    2     -0.02     -0.34
    1   11    2      0.97     -0.28
    0   11    2     -0.59      0.09
    8   11    2     -0.06     -0.06
    7   12    2     -0.19     -0.47
    6   12    2     -0.52      0.03
    5   12    2      0.81      0.44
    4   12    2      1.74     -1.24
    3   12    2     -0.78     -0.58
    2   12    2     -0.28     -0.07
    1   12    2      0.35      0.19
    0   12    2      0.19     -0.07
    5   13    2      0.70      0.29
    4   13    2      1.18      0.17
    3   13    2     -0.59      0.23
    2   13    2      0.47     -0.37
    1   13    2     -0.47     -0.48
    0   13    2      0.69      0.04
    0    1    3     -0.35      4.21
    1    1    3     -5.27     -5.50
    1    2    3     -0.93      2.63
    0    2    3     -0.61     32.45
    2    2    3     -8.51     -8.85
    2    3    3      3.22     -1.83
    1    3    3     -3.18     -3.69
    0    3    3     -0.24      7.45
    3    3    3      8.74      8.33
    3    4    3     -0.93     -0.82
    2    4    3      2.44      0.48
    1    4    3     -4.08     -4.18
    0    4    3     -0.12    -11.85
    4    4    3     -0.06      0.09
    4    5    3      2.50      1.09
    3    5    3     -2.38      0.66
    2    5    3      0.60      0.71
    1    5    3      0.92     -0.87
    0    5    3     -0.01     -4.76
    5    5    3     -1.16     -0.90
    5    6    3     -2.58     -1.45
    4    6    3     -1.26      0.80
    3    6    3      2.36      2.48
    2    6    3     -0.10     -5.29
    1    6    3     -0.43     -1.08
    0    6    3      0.08      9.01
    6    6    3      1.56      1.67
    6    7    3      0.73      1.59
    5    7    3      1.63     -0.77
    4    7    3     -3.12     -2.27
    3    7    3     -0.97      2.41
    2    7    3     -0.19     -0.73
    1    7    3      1.44     -2.29
    0    7    3     -0.08      2.12
    7    7    3     -0.85     -0.72
    7    8    3     -0.31     -0.15
    6    8    3     -1.39     -0.84
    5    8    3      2.10      0.79
    4    8    3      1.55     -0.57
    3    8    3     -0.93     -0.54
    2    8    3      0.15      0.45
    1    8    3      1.85     -0.30
    0    8    3     -0.01     -0.76
    8    8    3      1.35      1.05
    8    9    3     -1.24      0.42
    7    9    3      1.13      0.60
    6    9    3      0.59     -0.49
    5    9    3     -0.94      0.05
    4    9    3      0.76      0.73
    3    9    3      0.10     -0.17
    2    9    3      0.67      0.35
    1    9    3      0.51      0.31
    0    9    3      0.06      0.02
    9    9    3     -0.53     -0.89
    9   10    3      0.33      0.03
    8   10    3     -0.25     -0.81
    7   10    3     -0.05     -0.27
    6   10    3      0.43      1.11
    5   10    3     -0.91      0.01
    4   10    3     -0.93      0.12
    3   10    3      0.02      0.44
    2   10    3     -0.13      0.07
    1   10    3     -0.79      0.27
    0   10    3     -0.13      1.30
    8   11    3      0.19      0.10
    7   11    3     -0.59     -0.25
    6   11    3      0.14      0.19
    5   11    3      0.81     -0.52
    4   11    3     -0.07     -0.39
    3   11    3      0.14      1.08
    2   11    3     -0.27      0.15
    1   11    3      0.39      0.37
    0   11    3     -0.02     -0.01
    6   12    3     -0.26     -0.14
    5   12    3     -0.46     -0.35
    4   12    3      0.65     -0.83
    3   12    3      0.89     -0.33
    2   12    3     -0.32     -0.75
    1   12    3     -0.25      0.51
    0   12    3      0.03     -1.00
    4   13    3      0.54     -0.69
    3   13    3     -0.06     -0.70
    2   13    3     -0.03     -0.01
    1   13    3     -0.26      0.22
    0   13    3     -0.17     -0.75
    0    0    4     26.13     -0.07
    0    1    4     10.41      0.02
    1    1    4     -8.11     -2.01
    1    2    4    -10.36     -9.16
    0    2    4      1.22      0.10
    2    2    4     -7.36     -0.34
    2    3    4      5.14      1.69
    1    3    4      3.89     -0.46
    0    3    4     -2.61      0.13
    3    3    4     -3.38     -0.15
    3    4    4     -2.13      4.51
    2    4    4     -0.07      1.79
    1    4    4      3.26      0.38
    0    4    4     -1.11      0.35
    4    4    4      1.88      0.11
    4    5    4      0.79     -1.07
    3    5    4      3.99     -2.87
    2    5    4     -3.74      1.36
    1    5    4      1.26      2.18
    0    5    4      9.11      0.27
    5    5    4     -2.69      0.16
    5    6    4      1.85     -1.00
    4    6    4     -2.61      0.16
    3    6    4      1.43     -0.51
    2    6    4      0.53      0.04
    1    6    4     -1.17     -4.41
    0    6    4      2.50     -0.06
    6    6    4      3.56     -0.03
    6    7    4     -1.60      1.12
    5    7    4      2.59      0.21
    4    7    4     -0.03     -0.91
    3    7    4     -3.17      0.91
    2    7    4      0.10      0.73
    1    7    4     -1.34     -1.65
    0    7    4     -2.93      0.07
    7    7    4     -1.66     -0.24
    7    8    4      0.42     -0.11
    6    8    4     -1.36     -0.30
    5    8    4     -0.33      1.55
    4    8    4      1.73      0.48
    3    8    4     -1.35     -0.13
    2    8    4     -0.31     -1.44
    1    8    4      0.55      0.63
    0    8    4     -0.70      0.10
    8    8    4     -0.17      0.38
    8    9    4     -1.45      0.46
    7    9    4     -0.72      0.59
    6    9    4      1.69     -0.24
    5    9    4     -0.11      0.61
    4    9    4      0.03      0.49
    3    9    4     -0.14     -0.65
    2    9    4      0.29     -0.84
    1    9    4      1.06      0.68
    0    9    4      0.15      0.21
    9    9    4      1.18     -0.12
    9   10    4      1.15      0.07
    8   10    4      0.14     -0.45
    7   10    4     -0.24     -0.51
    6   10    4      0.42     -0.70
    5   10    4      0.39     -0.94
    4   10    4     -0.04     -0.45
    3   10    4     -0.25      0.09
    2   10    4      0.14      0.82
    1   10    4      0.70     -0.73
    0   10    4     -0.88     -0.06
    8   11    4      0.73      0.18
    7   11    4      0.49     -0.74
    6   11    4     -1.31     -0.90
    5   11    4     -0.11     -0.26
    4   11    4      0.65     -0.67
    3   11    4     -0.24      0.01
    2   11    4     -0.33      1.20
    1   11    4      0.30      0.27
    0   11    4     -0.78     -0.25
    6   12    4     -0.07      0.16
    5   12    4      0.29      0.88
    4   12    4      0.23      0.31
    3   12    4     -0.81      0.44
    2   12    4      0.17      0.22
    1   12    4      0.03      0.95
    0   12    4     -0.15      0.29
    4   13    4      0.68      0.05
    3   13    4     -0.96      0.18
    2   13    4      0.07     -0.48
    1   13    4     -0.03      0.12
    0   13    4      0.57      0.36
    0    1    5     -0.31      2.69
    1    1    5     -2.69      3.62
    1    2    5     -2.14     -8.11
    0    2    5     -1.60      0.18
    2    2    5      5.33     -5.59
    2    3    5     -5.27     -1.34
    1    3    5     -2.76     -3.80
    0    3    5     -0.99      5.58
    3    3    5     -1.51      1.88
    3    4    5      0.39     -1.06
    2    4    5     -0.93      6.45
    1    4    5     -0.34      2.28
    0    4    5     -0.11     -0.05
    4    4    5      1.99     -2.27
    4    5    5     -2.40      2.33
    3    5    5     -0.45     -1.48
    2    5    5      2.49     -3.88
    1    5    5     -2.89      0.71
    0    5    5      0.02      1.58
    5    5    5      0.21     -0.45
    5    6    5      1.65     -3.03
    4    6    5     -1.40     -0.46
    3    6    5     -0.24      3.04
    2    6    5      2.35     -2.96
    1    6    5      0.10     -1.94
    0    6    5     -0.11     -0.09
    6    6    5     -0.04      0.27
    6    7    5     -1.48      1.54
    5    7    5     -0.29      1.07
    4    7    5      0.30     -2.50
    3    7    5      0.05      0.93
    2    7    5      0.02      0.18
    1    7    5      2.80     -1.15
    0    7    5     -0.05      0.86
    7    7    5      0.76     -0.87
    7    8    5      0.26     -0.02
    6    8    5     -0.21     -0.62
    5    8    5     -1.05      1.15
    4    8    5     -0.58     -0.12
    3    8    5     -0.88     -0.37
    2    8    5     -1.05      0.06
    1    8    5      0.41     -0.49
    0    8    5      0.03      1.83
    8    8    5     -0.48      0.71
    8    9    5     -0.58     -0.08
    7    9    5     -1.01      0.27
    6    9    5      1.03      0.02
    5    9    5      0.58     -0.34
    4    9    5     -0.60      0.34
    3    9    5     -0.89     -0.43
    2    9    5      0.42     -0.57
    1    9    5     -0.85     -0.34
    0    9    5      0.10      0.90
    9    9    5      0.70     -0.39
    9   10    5     -0.04      0.41
    8   10    5     -0.11     -0.45
    7   10    5     -0.30     -0.58
    6   10    5      0.08      1.04
    5   10    5      0.40     -0.52
    4   10    5      0.26     -0.92
    3   10    5     -0.20     -0.47
    2   10    5      0.23     -0.03
    1   10    5     -0.02     -0.02
    0   10    5     -0.15     -1.00
    7   11    5      0.61      0.35
    6   11    5      0.11      0.18
    5   11    5     -0.48     -0.48
    4   11    5     -0.11     -0.13
    3   11    5      0.02      0.22
    2   11    5     -0.67     -0.20
    1   11    5      0.87      0.33
    0   11    5      0.04     -1.07
    6   12    5      0.04     -0.46
    5   12    5     -0.67     -0.06
    4   12    5      0.48      0.42
    3   12    5      1.00      0.71
    2   12    5     -0.41     -0.05
    1   12    5     -0.03      0.49
    0   12    5      0.13     -0.01
    3   13    5      0.06      0.45
    2   13    5      0.06      0.68
    1   13    5      0.13      0.02
    0   13    5     -0.23     -0.51
    0    1    6      7.14      4.58
    1    1    6      0.38      2.17
    1    2    6     -0.16     -0.37
    0    2    6      6.33      2.58
    2    2    6     -0.57      7.15
    2    3    6      1.87      3.77
    1    3    6     -2.71     -3.61
    0    3    6     -4.12     -0.13
    3    3    6      0.35      0.59
    3    4    6     -0.24     -2.84
    2    4    6     -2.07     -2.05
    1    4    6      1.97      0.42
    0    4    6      1.45     -0.39
    4    4    6      0.40     -0.37
    4    5    6     -0.22      0.20
    3    5    6     -0.72      1.91
    2    5    6     -3.80     -0.80
    1    5    6      0.05     -2.07
    0    5    6      0.25      0.24
    5    5    6     -0.02     -2.64
    5    6    6      0.83      0.27
    4    6    6     -2.15     -3.30
    3    6    6     -0.40     -0.92
    2    6    6      1.28      1.50
    1    6    6     -0.36     -2.08
    0    6    6     -0.45      0.33
    6    6    6      0.08      2.65
    6    7    6      0.47     -0.71
    5    7    6      1.21      1.85
    4    7    6      0.17     -1.17
    3    7    6     -0.49     -2.60
    2    7    6      1.78     -0.66
    1    7    6      0.82     -1.15
    0    7    6      2.24     -0.06
    7    7    6      0.22     -1.54
    7    8    6      0.54     -0.12
    6    8    6      0.32     -1.72
    5    8    6     -0.01     -0.02
    4    8    6      1.39      0.83
    3    8    6     -0.53      0.01
    2    8    6     -0.01     -1.45
    1    8    6      0.19     -0.40
    0    8    6     -0.51     -0.24
    8    8    6      0.05      0.46
    8    9    6     -0.23     -0.13
    7    9    6     -1.07     -0.51
    6    9    6     -0.19     -0.22
    5    9    6      0.34     -0.53
    4    9    6      0.91     -0.12
    3    9    6     -0.93      0.48
    2    9    6     -0.57     -0.23
    1    9    6      0.78     -0.26
    0    9    6     -2.07     -0.03
    9    9    6      0.49      0.29
    8   10    6     -0.61      0.23
    7   10    6     -0.27     -0.76
    6   10    6     -0.48      0.14
    5   10    6     -0.15      0.50
    4   10    6      0.66     -0.01
    3   10    6      0.05     -0.19
    2   10    6     -0.29      0.88
    1   10    6      0.89     -0.18
    0   10    6     -0.85      0.05
    7   11    6      0.24     -0.22
    6   11    6     -0.58     -0.04
    5   11    6      0.01      0.52
    4   11    6      0.64     -0.01
    3   11    6     -0.08     -0.50
    2   11    6     -0.83      0.79
    1   11    6     -0.15      1.01
    0   11    6      0.59     -0.05
    5   12    6     -0.46     -0.50
    4   12    6     -1.12     -0.26
    3   12    6     -0.12      0.14
    2   12    6      1.06     -0.38
    1   12    6     -0.19      0.30
    0   12    6     -0.41      0.06
    2   13    6      0.22      0.12
    1   13    6      0.21      0.58
    0   13    6      0.45      0.01
    0    1    7     -0.23      2.01
    1    1    7     -2.15     -3.38
    1    2    7     -5.17      1.92
    0    2    7     -1.51      4.56
    2    2    7      1.79      0.92
    2    3    7      1.12      1.17
    1    3    7      1.94     -2.40
    0    3    7     -0.91     -1.48
    3    3    7     -2.14     -1.92
    3    4    7      1.01     -0.11
    2    4    7     -0.98      0.66
    1    4    7     -1.19     -2.26
    0    4    7      0.11     -0.66
    4    4    7      1.25      0.72
    4    5    7      0.03      0.09
    3    5    7      1.89      1.36
    2    5    7      1.30      1.26
    1    5    7     -1.48      2.28
    0    5    7      0.16      2.12
    5    5    7     -0.28     -0.39
    5    6    7      1.17      0.85
    4    6    7     -1.38     -0.25
    3    6    7     -2.85      0.08
    2    6    7      0.45     -0.21
    1    6    7      1.04      1.70
    0    6    7     -0.28      0.47
    6    6    7     -0.04      0.02
    6    7    7     -0.17     -0.22
    5    7    7      0.19      0.78
    4    7    7      0.19     -0.66
    3    7    7     -0.90      0.22
    2    7    7     -0.74      0.01
    1    7    7      0.37     -0.70
    0    7    7     -0.15      0.31
    7    7    7      0.13     -0.12
    7    8    7     -0.38      0.22
    6    8    7      1.10      0.04
    5    8    7     -0.28     -0.23
    4    8    7      0.02     -0.60
    3    8    7      0.46      0.75
    2    8    7      0.36      0.77
    1    8    7      1.10     -1.44
    0    8    7      0.10      1.21
    8    8    7     -0.55     -0.40
    8    9    7     -0.16      0.58
    7    9    7     -0.67     -0.34
    6    9    7      0.06      0.30
    5    9    7     -0.25      0.26
    4    9    7      0.31     -0.06
    3    9    7     -0.22      0.05
    2    9    7     -0.01      0.41
    1    9    7      0.62     -0.66
    0    9    7     -0.05     -0.18
    9    9    7     -0.02      0.22
    8   10    7     -0.26      0.53
    7   10    7     -0.34     -0.09
    6   10    7     -0.10      0.38
    5   10    7      0.29      0.05
    4   10    7      0.31      0.18
    3   10    7     -0.50      0.21
    2   10    7     -0.25      0.38
    1   10    7      0.82      0.69
    0   10    7     -0.18     -1.86
    6   11    7     -0.37     -0.24
    5   11    7     -0.59     -0.43
    4   11    7      0.31      0.66
    3   11    7      0.95      0.18
    2   11    7     -0.54     -0.78
    1   11    7     -0.12      1.18
    0   11    7     -0.11      0.35
    4   12    7     -0.42     -0.28
    3   12    7     -0.32      0.13
    2   12    7     -0.40     -0.21
    1   12    7      0.42     -0.22
    0   12    7     -0.01     -0.24
    0    0    8      6.25      0.10
    0    1    8      1.04     -0.14
    1    1    8     -1.64     -1.75
    1    2    8     -0.81     -2.16
    0    2    8     -1.58      0.44
    2    2    8      2.53     -0.79
    2    3    8     -1.48      1.30
    1    3    8      0.78     -0.10
    0    3    8      2.61     -0.20
    3    3    8     -2.09     -0.11
    3    4    8      0.75     -0.79
    2    4    8     -1.10      1.74
    1    4    8      0.26      1.00
    0    4    8     -0.62     -0.48
    4    4    8     -0.34     -0.04
    4    5    8     -0.90     -0.37
    3    5    8      0.92      1.00
    2    5    8      0.74     -0.09
    1    5    8      1.67     -1.58
    0    5    8      0.03     -0.03
    5    5    8      0.27     -0.20
    5    6    8      1.26     -0.53
    4    6    8      0.43     -0.67
    3    6    8     -0.47      0.42
    2    6    8     -0.23     -0.02
    1    6    8     -0.15     -0.42
    0    6    8      0.79      0.23
    6    6    8     -0.17     -0.03
    6    7    8     -0.16     -0.44
    5    7    8      0.35      0.53
    4    7    8      0.41     -0.11
    3    7    8     -0.39     -0.47
    2    7    8      0.32      0.56
    1    7    8     -1.49      0.11
    0    7    8     -0.51      0.06
    7    7    8     -0.07      0.05
    7    8    8     -0.55     -0.21
    6    8    8     -0.49      0.28
    5    8    8      0.09      0.55
    4    8    8      0.43     -0.60
    3    8    8     -0.78     -0.60
    2    8    8     -0.09      0.64
    1    8    8      0.74     -0.42
    0    8    8      0.12      0.16
    8    8    8      0.51     -0.16
    8    9    8     -0.05     -0.18
    7    9    8      0.11     -0.95
    6    9    8      0.10     -0.11
    5    9    8     -0.09      0.21
    4    9    8      0.22     -0.15
    3    9    8     -0.30     -0.49
    2    9    8     -0.49     -0.11
    1    9    8      1.52     -0.48
    0    9    8     -1.19      0.11
    7   10    8      0.21     -0.61
    6   10    8     -0.60      0.01
    5   10    8     -0.25      0.04
    4   10    8      0.90     -0.03
    3   10    8     -0.04     -0.65
    2   10    8     -1.32     -0.38
    1   10    8      0.58      0.20
    0   10    8     -0.14     -0.02
    6   11    8     -0.47      0.08
    5   11    8     -0.51     -0.34
    4   11    8     -0.19     -0.24
    3   11    8      0.21     -0.15
    2   11    8      0.43     -0.40
    1   11    8     -0.39     -0.16
    0   11    8      0.15      0.09
    3   12    8      0.12      0.26
    2   12    8      0.39      0.29
    1   12    8     -0.78      0.37
    0   12    8     -0.40     -0.02
    0    1    9     -0.11      1.26
    1    1    9     -0.56      1.35
    1    2    9      0.05     -2.40
    0    2    9     -0.49     -1.41
    2    2    9      0.98     -0.39
    2    3    9      0.19      2.58
    1    3    9     -1.07      0.26
    0    3    9     -0.76      1.52
    3    3    9     -0.33      0.51
    3    4    9      0.46     -1.28
    2    4    9      0.96     -0.30
    1    4    9     -0.05      0.09
    0    4    9     -0.52      0.55
    4    4    9     -1.61      1.54
    4    5    9     -1.26     -0.31
    3    5    9     -0.47     -0.13
    2    5    9     -0.15     -0.37
    1    5    9      0.58     -1.12
    0    5    9     -0.02     -3.57
    5    5    9      0.11     -0.25
    5    6    9      0.64     -0.27
    4    6    9      1.37     -1.06
    3    6    9     -0.50      0.63
    2    6    9     -0.12     -0.05
    1    6    9      0.64      0.37
    0    6    9      0.01     -0.09
    6    6    9     -0.27      0.30
    6    7    9      0.22      0.07
    5    7    9      0.28     -0.19
    4    7    9      1.20     -0.75
    3    7    9     -0.43      0.40
    2    7    9      0.13      0.59
    1    7    9      0.18     -0.26
    0    7    9     -0.04      1.18
    7    7    9     -0.41      0.46
    7    8    9     -0.19     -0.19
    6    8    9      0.32     -0.07
    5    8    9     -0.23      0.55
    4    8    9      0.35      0.01
    3    8    9     -0.43     -0.83
    2    8    9     -0.72      0.36
    1    8    9      0.40     -1.12
    0    8    9     -0.04      0.37
    8    8    9     -0.27      0.01
    8    9    9      0.05      0.53
    7    9    9     -0.17     -0.55
    6    9    9      0.60     -0.62
    5    9    9      0.40      0.06
    4    9    9      0.23      0.14
    3    9    9     -0.30     -0.42
    2    9    9     -0.54      0.14
    1    9    9      1.80      0.13
    0    9    9     -0.15      0.17
    7   10    9      0.40     -0.30
    6   10    9      0.51     -0.20
    5   10    9     -0.19     -0.13
    4   10    9     -0.10     -0.09
    3   10    9      0.13      0.20
    2   10    9     -0.48     -0.62
    1   10    9      0.77      0.76
    0   10    9      0.01     -0.59
    5   11    9      0.30      0.06
    4   11    9     -0.11      0.17
    3   11    9     -0.69     -0.07
    2   11    9     -0.62     -1.23
    1   11    9      0.28     -0.05
    0   11    9     -0.07     -0.80
    2   12    9     -0.21     -0.04
    1   12    9      0.20      0.10
    0   12    9     -0.11     -0.01
    0    1   10      0.44     -0.19
    1    1   10     -0.07     -0.20
    1    2   10     -0.29     -1.39
    0    2   10      0.02     -0.23
    2    2   10      0.39      0.37
    2    3   10      0.35      0.14
    1    3   10      1.07     -0.54
    0    3   10     -0.47      0.00
    3    3   10     -0.20     -1.93
    3    4   10     -0.59      0.40
    2    4   10     -0.54     -0.25
    1    4   10      1.42     -1.03
    0    4   10     -0.30     -0.53
    4    4   10     -0.01      1.39
    4    5   10     -0.78     -1.09
    3    5   10      0.07      1.29
    2    5   10     -0.89      0.84
    1    5   10     -0.22      0.42
    0    5   10      0.33     -0.40
    5    5   10     -0.22     -0.42
    5    6   10     -0.24      0.84
    4    6   10      0.09     -0.67
    3    6   10      0.38      1.20
    2    6   10     -0.23      0.95
    1    6   10     -0.72      0.40
    0    6   10      1.29     -0.08
    6    6   10     -0.18      0.26
    6    7   10      0.21      0.16
    5    7   10      0.41      0.63
    4    7   10      0.35     -0.21
    3    7   10     -0.08     -0.39
    2    7   10      0.69      0.95
    1    7   10     -0.54      0.20
    0    7   10     -0.19     -0.04
    7    7   10     -0.09     -0.21
    7    8   10     -0.10     -0.74
    6    8   10      0.14     -0.24
    5    8   10      0.24     -0.06
    4    8   10      0.02      0.67
    3    8   10     -0.21     -0.59
    2    8   10     -0.11      0.54
    1    8   10      0.29     -0.15
    0    8   10     -0.60      0.06
    8    8   10     -0.09     -0.64
    7    9   10      0.05     -0.43
    6    9   10     -0.52     -0.36
    5    9   10     -0.42     -0.15
    4    9   10     -0.06      0.44
    3    9   10      0.33     -0.37
    2    9   10     -0.91     -0.22
    1    9   10      1.45     -0.20
    0    9   10      0.95      0.01
    6   10   10     -0.03      0.07
    5   10   10     -0.07      0.22
    4   10   10     -0.13     -0.26
    3   10   10      0.10     -0.30
    2   10   10     -0.55     -0.43
    1   10   10      0.55      0.05
    0   10   10      0.53      0.08
    4   11   10      0.51     -0.02
    3   11   10     -0.14      0.21
    2   11   10     -0.05     -0.28
    1   11   10     -0.36     -0.43
    0   11   10      0.14      0.14
    0    1   11     -0.49      1.25
    1    1   11     -0.77     -0.60
    1    2   11      0.16      0.17
    0    2   11     -0.52      1.08
    2    2   11      1.63      1.62
    2    3   11      0.36     -0.43
    1    3   11      0.99     -1.22
    0    3   11     -0.33     -0.71
    3    3   11     -0.82     -0.84
    3    4   11      0.62      0.04
    2    4   11     -0.83      0.46
    1    4   11     -0.48      0.07
    0    4   11      0.04     -1.21
    4    4   11     -0.58     -0.61
    4    5   11     -0.30     -0.18
    3    5   11      0.67      0.32
    2    5   11      0.22      0.14
    1    5   11     -0.11      0.93
    0    5   11     -0.06      0.21
    5    5   11      0.96      1.07
    5    6   11     -0.29      0.14
    4    6   11      0.28      0.01
    3    6   11     -0.46      0.19
    2    6   11      0.55     -0.28
    1    6   11      0.00     -0.09
    0    6   11     -0.01      0.00
    6    6   11     -0.32     -0.14
    6    7   11      0.39     -0.10
    5    7   11     -0.84      0.01
    4    7   11      0.07      0.13
    3    7   11     -1.54     -0.44
    2    7   11      0.36     -0.11
    1    7   11      0.78     -0.39
    0    7   11     -0.08      0.19
    7    7   11      0.03      0.11
    7    8   11     -0.18     -0.29
    6    8   11      0.39     -0.02
    5    8   11      0.31      0.02
    4    8   11      0.36      0.04
    3    8   11     -0.69      0.18
    2    8   11     -0.24      0.79
    1    8   11      1.09     -0.33
    0    8   11     -0.09      0.15
    6    9   11      0.24     -0.03
    5    9   11      0.25      0.22
    4    9   11     -0.45      0.37
    3    9   11      0.09      0.38
    2    9   11     -0.86      0.02
    1    9   11      0.01     -0.32
    0    9   11     -0.02     -0.49
    5   10   11      0.29      0.37
    4   10   11     -0.29      0.55
    3   10   11      0.06     -0.15
    2   10   11     -0.19     -1.16
    1   10   11      0.12      0.39
    0   10   11     -0.08      0.18
    2   11   11      0.27     -0.14
    1   11   11      0.81      0.62
    0   11   11     -0.01     -0.08
    0    0   12      3.16      0.59
    0    1   12     -0.49      0.44
    1    1   12     -0.33      0.28
    1    2   12      1.07     -1.07
    0    2   12     -1.05     -1.02
    2    2   12      0.47      0.65
    2    3   12     -1.26      0.40
    1    3   12      0.63     -1.59
    0    3   12     -0.29     -2.13
    3    3   12     -0.27      0.41
    3    4   12      0.66     -0.70
    2    4   12      0.09     -0.30
    1    4   12     -0.01     -0.86
    0    4   12     -0.61     -0.60
    4    4   12     -0.71      0.24
    4    5   12      0.14     -1.03
    3    5   12      0.45      0.51
    2    5   12      0.51     -0.22
    1    5   12      0.09     -1.01
    0    5   12      0.44      0.20
    5    5   12     -0.22      0.32
    5    6   12     -0.53      0.34
    4    6   12      0.04     -0.94
    3    6   12     -0.12      0.96
    2    6   12      0.37      0.53
    1    6   12     -0.12      0.57
    0    6   12      0.01      0.13
    6    6   12     -0.35     -0.12
    6    7   12      0.13     -0.01
    5    7   12      0.36     -0.31
    4    7   12     -0.13      0.24
    3    7   12     -0.06      0.57
    2    7   12      0.07      0.47
    1    7   12      0.21      0.09
    0    7   12      0.27      0.06
    7    7   12     -1.01      0.11
    6    8   12     -0.12      0.25
    5    8   12      0.24      0.01
    4    8   12      0.37      0.25
    3    8   12      0.51     -1.06
    2    8   12     -0.51      0.35
    1    8   12      0.16     -0.20
    0    8   12      0.50     -0.15
    5    9   12      0.10      0.69
    4    9   12      0.11      0.50
    3    9   12     -0.20     -0.66
    2    9   12     -0.85      0.22
    1    9   12     -0.20      0.64
    0    9   12     -0.46      0.06
    3   10   12     -0.46      0.67
    2   10   12     -0.27     -0.35
    1   10   12      0.35     -0.24
    0   10   12      0.04      0.12
    0    1   13     -0.34      1.93
    1    1   13      0.98     -0.85
    1    2   13      0.89     -1.04
    0    2   13     -0.77     -0.53
    2    2   13     -0.30      0.61
    2    3   13      0.62      0.70
    1    3   13      0.17      0.81
    0    3   13      0.14     -0.24
    3    3   13      0.67     -0.79
    3    4   13      0.26      0.06
    2    4   13      0.95     -0.36
    1    4   13      0.40      0.55
    0    4   13      0.42     -0.36
    4    4   13     -0.74      0.89
    4    5   13     -1.01     -0.85
    3    5   13     -0.22     -0.32
    2    5   13      0.05      0.61
    1    5   13      0.44      0.09
    0    5   13     -0.06     -1.22
    5    5   13     -0.19      0.34
    5    6   13     -0.42     -0.04
    4    6   13      0.16     -0.05
    3    6   13     -0.15     -0.22
    2    6   13      0.08      0.11
    1    6   13      0.20     -0.02
    0    6   13     -0.25      0.68
    6    6   13      0.90     -0.87
    6    7   13      0.40     -0.42
    5    7   13      0.03      0.02
    4    7   13      0.32      0.06
    3    7   13     -0.73      0.07
    2    7   13      0.32      0.25
    1    7   13     -0.37     -0.10
    0    7   13     -0.15      0.35
    5    8   13      0.44      0.45
    4    8   13     -0.23      0.12
    3    8   13     -0.69     -0.45
    2    8   13      0.20     -0.26
    1    8   13      0.23      0.34
    0    8   13     -0.08      0.27
    4    9   13      0.02      0.36
    3    9   13      0.61     -0.36
    2    9   13      0.06     -0.90
    1    9   13      0.72      0.41
    0    9   13      0.00      1.11
    0    1   14      1.41      0.64
    1    1   14     -0.11     -1.95
    1    2   14      0.19     -0.01
    0    2   14     -0.56     -0.05
    2    2   14     -0.31     -0.15
    2    3   14     -0.33     -0.54
    1    3   14      0.53      0.09
    0    3   14     -0.66     -0.25
    3    3   14      0.25     -0.61
    3    4   14     -0.04      0.90
    2    4   14      0.17      0.70
    1    4   14      0.30     -0.52
    0    4   14     -0.06     -0.29
    4    4   14      0.04     -0.46
    4    5   14      0.31     -0.50
    3    5   14      0.17     -0.02
    2    5   14     -0.05      0.45
    1    5   14     -0.35      0.44
    0    5   14      0.63      0.04
    5    5   14      0.28      1.06
    5    6   14      0.21      0.16
    4    6   14      0.18     -0.17
    3    6   14      0.62      0.20
    2    6   14      0.18     -0.21
    1    6   14     -0.11     -0.05
    0    6   14      0.28     -0.02
    6    6   14      0.06     -0.34
    5    7   14     -0.23     -0.34
    4    7   14     -0.29      0.29
    3    7   14     -0.24      0.75
    2    7   14      0.04      0.62
    1    7   14      0.27     -0.01
    0    7   14     -0.84     -0.12
    4    8   14      0.26      0.51
    3    8   14     -0.48      0.29
    2    8   14     -0.55      0.67
    1    8   14      0.23      0.06
    0    8   14     -0.12     -0.06
    0    9   14      0.65      0.03
    0    1   15     -0.18      0.02
    1    1   15     -0.60     -0.52
    1    2   15      0.82      0.32
    0    2   15     -0.11      1.54
    2    2   15      0.45      0.45
    2    3   15      0.05     -0.53
    1    3   15     -0.09     -0.32
    0    3   15     -0.02     -0.47
    3    3   15      0.06      0.08
    3    4   15      0.10     -1.01
    2    4   15      0.21      0.13
    1    4   15      0.12      0.30
    0    4   15      0.15     -1.35
    4    4   15     -0.84     -0.82
    4    5   15      0.05      0.19
    3    5   15      0.07     -0.37
    2    5   15      0.16      0.51
    1    5   15      0.16      0.58
    0    5   15      0.21      0.01
    5    5   15      0.04      0.09
    5    6   15     -0.59      0.11
    4    6   15     -0.09      0.54
    3    6   15     -0.04      0.47
    2    6   15      0.22      0.31
    1    6   15     -0.12     -0.07
    0    6   15      0.00      0.44
    3    7   15      0.01      0.16
    2    7   15      0.06      0.22
    1    7   15      0.05     -0.03
    0    7   15     -0.07      0.14
    0    8   15     -0.02     -0.44
    0    0   16      0.37      0.00
    0    1   16     -0.33     -0.30
    1    1   16     -0.44     -0.23
    1    2   16      0.55     -0.46
    0    2   16      0.59      0.02
    2    2   16     -0.57     -0.19
    2    3   16      0.14      0.06
    1    3   16      0.13      0.16
    0    3   16     -0.90     -0.07
    3    3   16      0.21     -0.22
    3    4   16      0.19     -0.11
    2    4   16      0.30     -0.22
    1    4   16     -0.32      0.23
    0    4   16     -0.65     -0.15
    4    4   16      0.32      0.01
    4    5   16      0.31     -0.13
    3    5   16      0.37      0.45
    2    5   16     -0.36      0.38
    1    5   16     -0.83      0.34
    0    5   16     -0.37     -0.09
    3    6   16     -0.08      0.50
    2    6   16     -0.59      0.75
    1    6   16     -0.65      0.44
    0    6   16     -0.45      0.12
    0    1   17      0.22      0.19
    1    1   17      0.44     -0.33
    1    2   17     -0.08     -0.77
    0    2   17      0.15     -0.47
    2    2   17      0.12     -0.12
    2    3   17      0.02     -0.20
    1    3   17      0.29     -0.13
    0    3   17     -0.11     -0.09
    3    3   17     -0.22      0.16
    3    4   17      0.21      0.37
    2    4   17      0.09      0.35
    1    4   17     -0.18      0.06
    0    4   17     -0.08     -0.44
    1    5   17      0.00      0.07
    0    5   17      0.07     -0.44
    0    1   18     -0.26     -0.09
    1    1   18     -0.06      0.26
    1    2   18     -0.48      0.24
    0    2   18     -0.99      0.02
    0    2    0    -33.73     -0.41
    1    5    0     -3.14      0.22
    0    1    1     -0.28     44.22
    0    1    2     39.25     -0.02
    1    1    2     -0.45    -15.74
    0    2    2     22.35     -0.51
    0    0    0      0.00      0.00
# SQUEEZE RESULTS (Version = 270519)
# Note: Data are Listed for all Voids in the P1 Unit Cell
# i.e. Centre of Gravity, Solvent Accessible Volume,
# Recovered number of Electrons in the Void and
# Details about the Squeezed Material
loop_
  _platon_squeeze_void_nr
  _platon_squeeze_void_average_x
  _platon_squeeze_void_average_y
  _platon_squeeze_void_average_z
  _platon_squeeze_void_volume
  _platon_squeeze_void_count_electrons
  _platon_squeeze_void_content
   1 -0.007 -0.002 -0.010       739       161 ' '
# Missing Reflections Below sin(th)/lambda = 0.25
loop_
  _platon_missing_refln_index_h
  _platon_missing_refln_index_k
  _platon_missing_refln_index_l
  _platon_missing_refln_theta
    0    2    0     4.158
    0    1    1     2.618
    0    1    2     3.803
    1    1    2     4.335
    0    2    2     5.241
_platon_squeeze_void_probe_radius                  1.20
_platon_squeeze_details
)
TITL In-ADC_P4322.res in P4(3)22
CELL    9.8015    9.8015   12.7970     90.00     90.00     90.00
SPGR P4322
# Solvent Accessible Volume =       735
# Electrons Found in S.A.V. =       158
# Note: Atoms in Void are Labelled as Cxxx and Qxxx for all Others
Q101 0.280 0.687 0.392 !       3.47 eA-3
C102 0.953 0.664 0.723 !       2.20 eA-3
C103 0.190 0.682 0.267 !       2.11 eA-3
C104 0.785 0.557 0.687 !       2.10 eA-3
C105 0.781 1.002 0.480 !       1.67 eA-3
C106 0.834 0.873 0.437 !       1.36 eA-3
C107 0.197 0.841 0.551 !       1.18 eA-3
Q108 0.312 0.500 0.750 !       1.11 eA-3
Q109 0.376 0.565 0.751 !       0.97 eA-3
Q110 0.500 0.469 0.490 !       0.69 eA-3
C111 0.975 0.125 0.350 !       0.65 eA-3
Q112 0.659 0.064 0.645 !       0.58 eA-3
Q113 0.622 0.755 0.745 !       0.55 eA-3
Q114 0.803 0.886 0.017 !       0.54 eA-3
)
;
_shelx_fab_checksum              32272
loop_
_space_group_symop_operation_xyz
'x, y, z'
'-x, -y, z+1/2'
'-y, x, z+3/4'
'y, -x, z+1/4'
'-x, y, -z'
'x, -y, -z+1/2'
'y, x, -z+1/4'
'-y, -x, -z+3/4'
loop_
_atom_site_label
_atom_site_type_symbol
_atom_site_fract_x
_atom_site_fract_y
_atom_site_fract_z
_atom_site_U_iso_or_equiv
_atom_site_adp_type
_atom_site_occupancy
_atom_site_site_symmetry_order
_atom_site_calc_flag
_atom_site_refinement_flags_posn
_atom_site_refinement_flags_adp
_atom_site_refinement_flags_occupancy
_atom_site_disorder_assembly
_atom_site_disorder_group
In1 In 0.500000 0.38083(2) 0.500000 0.01173(5) Uani 1 2 d S T P . .
O1 O 0.48519(14) 0.51481(14) 0.375000 0.0171(4) Uani 1 2 d S T P . .
H1 H 0.416656 0.583345 0.375000 0.020 Uiso 1 2 calc R U P . .
C1 C 0.5569(2) 0.1942(2) 0.31003(14) 0.0197(4) Uani 1 1 d . . . . .
O3 O 0.62898(14) 0.27889(13) 0.26160(10) 0.0211(3) Uani 1 1 d . . . . .
O2 O 0.48841(19) 0.21166(13) 0.39147(10) 0.0238(3) Uani 1 1 d . . . . .
C2 C 0.5559(2) 0.0557(2) 0.26727(14) 0.0247(4) Uani 1 1 d . . . . .
loop_
_atom_site_aniso_label
_atom_site_aniso_U_11
_atom_site_aniso_U_22
_atom_site_aniso_U_33
_atom_site_aniso_U_23
_atom_site_aniso_U_13
_atom_site_aniso_U_12
In1 0.01293(8) 0.01347(8) 0.00880(7) 0.000 0.00052(6) 0.000
O1 0.0196(6) 0.0196(6) 0.0121(6) 0.0034(5) 0.0034(5) 0.0071(8)
C1 0.0259(10) 0.0160(9) 0.0173(8) -0.0017(6) -0.0042(7) 0.0009(7)
O3 0.0277(7) 0.0138(6) 0.0217(6) -0.0003(5) 0.0023(6) 0.0026(5)
O2 0.0330(8) 0.0182(6) 0.0202(6) -0.0053(5) 0.0045(6) -0.0050(6)
C2 0.0381(12) 0.0173(9) 0.0187(9) -0.0016(7) 0.0023(7) -0.0005(7)
loop_
_atom_type_symbol
_atom_type_description
_atom_type_scat_dispersion_real
_atom_type_scat_dispersion_imag
_atom_type_scat_source
C C 0.0033 0.0016 'International Tables Vol C Tables 4.2.6.8 and 6.1.1.4'
In In -0.7276 1.3100 'International Tables Vol C Tables 4.2.6.8 and 6.1.1.4'
O O 0.0106 0.0060 'International Tables Vol C Tables 4.2.6.8 and 6.1.1.4'
H H 0.0000 0.0000 'International Tables Vol C Tables 4.2.6.8 and 6.1.1.4'
loop_
_geom_angle_atom_site_label_1
_geom_angle_atom_site_label_2
_geom_angle_atom_site_label_3
_geom_angle
_geom_angle_site_symmetry_1
_geom_angle_site_symmetry_3
_geom_angle_publ_flag
O1 In1 O1 101.46(6) 4_565 . ?
O1 In1 O2 169.31(4) 4_565 . ?
O1 In1 O2 89.23(5) . . ?
O1 In1 O2 89.23(5) 4_565 5_656 ?
O1 In1 O2 169.31(4) . 5_656 ?
O2 In1 O2 80.09(7) . 5_656 ?
O1 In1 O3 92.58(5) 4_565 4_565 ?
O1 In1 O3 90.62(5) . 4_565 ?
O2 In1 O3 87.57(6) . 4_565 ?
O2 In1 O3 88.55(6) 5_656 4_565 ?
O1 In1 O3 90.62(5) 4_565 8_665 ?
O1 In1 O3 92.58(5) . 8_665 ?
O2 In1 O3 88.55(6) . 8_665 ?
O2 In1 O3 87.57(6) 5_656 8_665 ?
O3 In1 O3 174.93(7) 4_565 8_665 ?
In1 O1 In1 120.39(10) 3_654 . ?
In1 O1 H1 119.8 3_654 . ?
In1 O1 H1 119.8 . . ?
O2 C1 O3 128.58(18) . . ?
O2 C1 C2 115.73(18) . . ?
O3 C1 C2 115.67(17) . . ?
C1 O3 In1 131.96(13) . 3_654 ?
C1 O2 In1 127.61(13) . . ?
C2 C2 C1 179.58(15) 6 . ?
loop_
_geom_bond_atom_site_label_1
_geom_bond_atom_site_label_2
_geom_bond_distance
_geom_bond_site_symmetry_2
_geom_bond_publ_flag
In1 O1 2.0747(10) 4_565 ?
In1 O1 2.0747(10) . ?
In1 O2 2.1659(13) . ?
In1 O2 2.1660(13) 5_656 ?
In1 O3 2.1745(13) 4_565 ?
In1 O3 2.1745(13) 8_665 ?
O1 H1 0.9500 . ?
C1 O2 1.252(2) . ?
C1 O3 1.254(2) . ?
C1 C2 1.464(3) . ?
C2 C2 1.178(4) 6 ?
