#------------------------------------------------------------------------------
#$Date: 2022-12-15 01:57:01 +0200 (Thu, 15 Dec 2022) $
#$Revision: 279896 $
#$URL: file:///home/coder/svn-repositories/cod/cif/7/71/19/7711940.cif $
#------------------------------------------------------------------------------
#
# This file is available in the Crystallography Open Database (COD),
# http://www.crystallography.net/
#
# All data on this site have been placed in the public domain by the
# contributors.
#
data_7711940
loop_
_publ_author_name
'Woschko, Dennis'
'Yilmaz, S\"uheyla'
'Jansen, Christian'
'Spie\&s, Alex'
'Oestreich, Robert'
'Matemb Ma Ntep , Tobie Junior J.'
'Janiak, Christoph'
_publ_section_title
;
 Enhanced sorption in an indium-acetylenedicarboxylate metal-organic
 framework with unexpected chains of cis-\m-OH-connected {InO6} octahedra
;
_journal_name_full               'Dalton Transactions'
_journal_paper_doi               10.1039/D2DT03719J
_journal_year                    2023
_chemical_absolute_configuration ad
_chemical_formula_moiety         'C4 H In O5 + solvent'
_chemical_formula_sum            'C4 H In O5'
_chemical_formula_weight         243.87
_chemical_name_systematic
catena-[acetylenedicarboxylate-\kO:O':O'':O'''-(\m-hydroxido-\kO:O)indium(III)]
_chemical_properties_physical    Moisture-sensitive
_space_group_crystal_system      tetragonal
_space_group_IT_number           91
_space_group_name_Hall           'P 4w 2c'
_space_group_name_H-M_alt        'P 41 2 2'
_atom_sites_solution_hydrogens   geom
_atom_sites_solution_primary     direct
_atom_sites_solution_secondary   difmap
_audit_creation_method           SHELXL-2017/1
_audit_update_record
;
2022-11-17 deposited with the CCDC.	2022-12-14 downloaded from the CCDC.
;
_cell_angle_alpha                90
_cell_angle_beta                 90
_cell_angle_gamma                90
_cell_formula_units_Z            4
_cell_length_a                   9.8021(7)
_cell_length_b                   9.8021(7)
_cell_length_c                   12.8120(10)
_cell_measurement_reflns_used    6739
_cell_measurement_temperature    140(2)
_cell_measurement_theta_max      26.3475
_cell_measurement_theta_min      2.6165
_cell_volume                     1230.99(16)
_computing_cell_refinement       'SAINT (Bruker, 2012)'
_computing_data_collection       'APEX2 (Bruker, 2012)'
_computing_data_reduction        'SAINT (Bruker, 2012)'
_computing_molecular_graphics    'DIAMOND 4.3.1 (Brandenburg, 1999)'
_computing_publication_material  'SHELXL-2017/1 (Sheldrick, 2015b)'
_computing_structure_refinement  'SHELXL-2017/1 (Sheldrick, 2015b)'
_computing_structure_solution    'SHELXT-2015 (Sheldrick 2015a)'
_diffrn_ambient_temperature      140(2)
_diffrn_measured_fraction_theta_full 0.996
_diffrn_measured_fraction_theta_max 0.996
_diffrn_measurement_device_type  'Bruker Kappa APEX-II CCD area detector'
_diffrn_measurement_method       '\w scans, \f scans'
_diffrn_radiation_monochromator  'multilayer mirror'
_diffrn_radiation_source         'microfocus sealed tube'
_diffrn_radiation_type           MoK\a
_diffrn_radiation_wavelength     0.71073
_diffrn_reflns_av_R_equivalents  0.0231
_diffrn_reflns_av_unetI/netI     0.0142
_diffrn_reflns_Laue_measured_fraction_full 0.996
_diffrn_reflns_Laue_measured_fraction_max 0.996
_diffrn_reflns_limit_h_max       11
_diffrn_reflns_limit_h_min       -12
_diffrn_reflns_limit_k_max       12
_diffrn_reflns_limit_k_min       -12
_diffrn_reflns_limit_l_max       12
_diffrn_reflns_limit_l_min       -16
_diffrn_reflns_number            8314
_diffrn_reflns_point_group_measured_fraction_full 0.997
_diffrn_reflns_point_group_measured_fraction_max 0.998
_diffrn_reflns_theta_full        25.242
_diffrn_reflns_theta_max         26.462
_diffrn_reflns_theta_min         2.078
_exptl_absorpt_coefficient_mu    1.897
_exptl_absorpt_correction_T_max  1.0000
_exptl_absorpt_correction_T_min  0.8821
_exptl_absorpt_correction_type   multi-scan
_exptl_absorpt_process_details   '(<i>SADABS</i>; Sheldrick, 1996)'
_exptl_crystal_colour            'clear colourless'
_exptl_crystal_density_diffrn    1.316
_exptl_crystal_density_method    'not measured'
_exptl_crystal_description       octahedral
_exptl_crystal_F_000             456
_exptl_crystal_recrystallization_method
'Re-crystallisation from solvent: ethanol'
_exptl_crystal_size_max          0.308
_exptl_crystal_size_mid          0.184
_exptl_crystal_size_min          0.174
_refine_diff_density_max         0.208
_refine_diff_density_min         -0.301
_refine_diff_density_rms         0.043
_refine_ls_abs_structure_details
;
 Flack x determined using 476 quotients [(I+)-(I-)]/[(I+)+(I-)]
 (Parsons, Flack and Wagner, Acta Cryst. B69 (2013) 249-259).
;
_refine_ls_abs_structure_Flack   -0.017(17)
_refine_ls_extinction_method     none
_refine_ls_goodness_of_fit_ref   1.127
_refine_ls_hydrogen_treatment    constr
_refine_ls_matrix_type           full
_refine_ls_number_parameters     47
_refine_ls_number_reflns         1284
_refine_ls_number_restraints     0
_refine_ls_restrained_S_all      1.127
_refine_ls_R_factor_all          0.0095
_refine_ls_R_factor_gt           0.0094
_refine_ls_shift/su_max          0.001
_refine_ls_shift/su_mean         0.000
_refine_ls_structure_factor_coef Fsqd
_refine_ls_weighting_details
'w=1/[\s^2^(Fo^2^)+(0.0096P)^2^+0.2009P] where P=(Fo^2^+2Fc^2^)/3'
_refine_ls_weighting_scheme      calc
_refine_ls_wR_factor_gt          0.0245
_refine_ls_wR_factor_ref         0.0246
_reflns_Friedel_coverage         0.609
_reflns_Friedel_fraction_full    1.000
_reflns_Friedel_fraction_max     1.000
_reflns_number_gt                1266
_reflns_number_total             1284
_reflns_threshold_expression     'I > 2\s(I)'
_cod_data_source_file            d2dt03719j38.cif
_cod_data_source_block           In-adc_P4122
_cod_original_cell_volume        1231.0(2)
_cod_database_code               7711940
_shelx_shelxl_version_number     2017/1
_shelx_space_group_comment
;
The symmetry employed for this shelxl refinement is uniquely defined
by the following loop, which should always be used as a source of
symmetry information in preference to the above space-group names.
They are only intended as comments.
;
_shelx_estimated_absorpt_t_min   0.593
_shelx_estimated_absorpt_t_max   0.734
_shelx_res_file
;
TITL In-adc_P4122.res in P4(1)22
    In-adc_P4122.res
    created by SHELXL-2017/1 at 14:19:31 on 05-Jul-2022
REM Old TITL In-adc_P4122 in P4(3)22
REM SHELXT solution in P4(1)22
REM R1 0.059,  Rweak 0.009,  Alpha 0.042,  Orientation as input
REM Flack x =  0.025 ( 0.018 ) from Parsons' quotients
REM Formula found by SHELXT:  C4 In O5
CELL  0.71073   9.8021   9.8021  12.8120   90.000   90.000   90.000
ZERR    4.000   0.0007   0.0007   0.0010    0.000    0.000    0.000
LATT -1
SYMM -X, -Y, 1/2+Z
SYMM -Y, X, 1/4+Z
SYMM Y, -X, 3/4+Z
SYMM -X, Y, -Z
SYMM X, -Y, 1/2-Z
SYMM Y, X, 3/4-Z
SYMM -Y, -X, 1/4-Z
SFAC C H IN O
UNIT 16 4 4 20
LIST 6 ! automatically inserted. Change 6 to 4 for CHECKCIF!!
TEMP -133.15
SIZE 0.174 0.184 0.308
L.S. 20 0   34
BOND $H
ACTA
HTAB
OMIT 1 1 2
OMIT 0 1 2
FMAP 2
PLAN 20
ABIN
WGHT    0.009600    0.200900
FVAR       0.51276
IN1   3    0.500000    0.618991    0.500000    10.50000    0.01167    0.01214 =
         0.00819    0.00000    0.00052    0.00000
O1    4    0.485346    0.485346    0.375000    10.50000    0.01840    0.01840 =
         0.01136   -0.00369    0.00369   -0.00759
AFIX  43
H1    2    0.416816    0.416815    0.375001    10.50000   -1.20000
AFIX   0
C1    1    0.556359    0.805635    0.310629    11.00000    0.02468    0.01526 =
         0.01624    0.00249   -0.00277   -0.00031
O2    4    0.488819    0.788398    0.391899    11.00000    0.03266    0.01728 =
         0.01796    0.00431    0.00351    0.00448
C2    1    0.555331    0.943950    0.267101    11.00000    0.03632    0.01725 =
         0.01860    0.00095    0.00396    0.00042
O3    4    0.628433    0.720986    0.261935    11.00000    0.02753    0.01223 =
         0.02082    0.00018    0.00257   -0.00303
HKLF 4




REM  In-adc_P4122.res in P4(1)22
REM R1 =  0.0094 for    1266 Fo > 4sig(Fo)  and  0.0095 for all    1284 data
REM     47 parameters refined using      0 restraints

END

WGHT      0.0096      0.2009

REM No hydrogen bonds found for HTAB generation

REM Highest difference peak  0.208,  deepest hole -0.301,  1-sigma level  0.043
Q1    1   0.6330  0.6330  0.3750  10.50000  0.05    0.21
Q2    1   0.5000  0.8082  0.5000  10.50000  0.05    0.16
Q3    1   0.4766  0.7057  0.4110  11.00000  0.05    0.16
Q4    1   0.3871  0.4988  0.3605  11.00000  0.05    0.15
Q5    1   0.4804  1.0032  0.3531  11.00000  0.05    0.14
Q6    1   0.3970  0.3155  0.3256  11.00000  0.05    0.14
Q7    1   0.6030  1.0000  0.2500  10.50000  0.05    0.12
Q8    1   0.3435  0.3435  0.3750  10.50000  0.05    0.12
Q9    1   0.4248  0.9903  0.3030  11.00000  0.05    0.12
Q10   1   0.5775  1.0135  0.2848  11.00000  0.05    0.11
Q11   1   0.5000  0.6957  0.5000  10.50000  0.05    0.11
Q12   1   0.6443  0.6440  0.1251  11.00000  0.05    0.11
Q13   1   0.4257  0.8758  0.4953  11.00000  0.05    0.10
Q14   1   0.6635  0.7695  0.1757  11.00000  0.05    0.10
Q15   1   0.4955  0.6592  0.3708  11.00000  0.05    0.10
Q16   1   0.2967  0.3998  0.3523  11.00000  0.05    0.10
Q17   1   0.4998  1.0000  0.2500  10.50000  0.05    0.09
Q18   1   0.3233  0.4409  0.3302  11.00000  0.05    0.09
Q19   1   0.6155  0.9991  0.3696  11.00000  0.05    0.09
Q20   1   0.4248  0.8979  0.4074  11.00000  0.05    0.08
;
_shelx_res_checksum              6340
_shelx_fab_file
;
    0    1    0     64.71     -1.53
    1    1    0      4.99     -0.59
    1    2    0     -9.56      0.87
    0    2    0    -37.57      0.79
    2    3    0     -0.88      4.56
    1    3    0      2.80      0.99
    0    3    0     -0.73     -0.13
    3    3    0     11.22      3.75
    3    4    0      5.89      0.39
    2    4    0     -1.05      1.32
    1    4    0     -5.69      0.46
    0    4    0     10.28      0.25
    4    4    0     -1.24      0.15
    4    5    0     -1.43     -0.14
    3    5    0     -2.95      0.03
    2    5    0      3.26     -0.28
    1    5    0     -0.92     -0.23
    0    5    0      4.24      0.94
    5    5    0      2.07     -0.46
    5    6    0     -1.41      0.60
    4    6    0      2.92     -0.62
    3    6    0     -0.96     -0.37
    2    6    0     -3.16      0.65
    1    6    0      2.43     -0.14
    0    6    0      4.70      0.29
    6    6    0     -1.34      0.25
    6    7    0      3.22     -0.61
    5    7    0      0.24      0.17
    4    7    0     -0.48     -0.23
    3    7    0     -0.35     -0.30
    2    7    0     -3.48      0.25
    1    7    0     -0.07     -0.18
    0    7    0      0.83     -0.20
    7    7    0     -2.00     -0.09
    7    8    0     -2.70      0.41
    6    8    0      0.56     -0.06
    5    8    0      1.37      0.01
    4    8    0     -1.51      0.42
    3    8    0     -0.78      0.16
    2    8    0      3.04     -0.69
    1    8    0      0.95      0.14
    0    8    0     -2.86      0.45
    8    8    0     -0.35     -0.43
    8    9    0      0.81      0.21
    7    9    0      0.65      0.07
    6    9    0     -2.24     -0.04
    5    9    0      0.40      0.80
    4    9    0      2.20      0.30
    3    9    0     -2.09      0.21
    2    9    0      0.31      0.06
    1    9    0      2.29     -0.04
    0    9    0      0.35      0.12
    7   10    0      2.66     -0.25
    6   10    0     -0.34      0.07
    5   10    0     -1.34      0.76
    4   10    0      1.39     -0.26
    3   10    0     -0.21     -0.56
    2   10    0     -1.26      0.22
    1   10    0     -0.48     -0.09
    0   10    0     -1.60     -0.04
    5   11    0      0.16     -0.52
    4   11    0     -0.29     -0.19
    3   11    0      0.56      0.17
    2   11    0     -0.16     -0.18
    1   11    0     -0.17     -0.16
    0   11    0     -0.38      0.11
    2   12    0      0.53      0.07
    1   12    0      0.12      0.16
    0   12    0     -0.43     -0.20
    0    1    1     -0.77    -53.71
    1    1    1     12.65     12.52
    1    2    1     18.41     13.26
    0    2    1      0.27    -12.93
    2    2    1      4.10      5.70
    2    3    1      0.26      1.18
    1    3    1     -6.67     -2.73
    0    3    1      0.40      5.27
    3    3    1      5.06      2.85
    3    4    1     -1.11     -3.11
    2    4    1      4.52      3.39
    1    4    1     -3.98     -3.50
    0    4    1     -0.55     -3.75
    4    4    1     -3.57     -2.08
    4    5    1      3.01      0.47
    3    5    1     -3.37     -2.22
    2    5    1     -1.64      0.25
    1    5    1      2.98      3.58
    0    5    1     -0.23     -3.63
    5    5    1      0.57      0.58
    5    6    1     -1.54      0.59
    4    6    1      1.66      0.48
    3    6    1      3.18     -0.78
    2    6    1     -2.67     -2.07
    1    6    1     -1.22      2.39
    0    6    1      0.28     -1.81
    6    6    1      2.01      1.62
    6    7    1     -0.49      0.83
    5    7    1      1.34      1.72
    4    7    1      0.21     -1.84
    3    7    1      3.00     -2.10
    2    7    1      0.37      2.94
    1    7    1     -3.07      0.85
    0    7    1     -0.01     -4.75
    7    7    1     -1.24     -1.07
    7    8    1     -0.06      0.57
    6    8    1     -1.29     -2.15
    5    8    1      0.78      0.86
    4    8    1     -0.79      1.14
    3    8    1     -1.86     -2.08
    2    8    1      0.86      0.61
    1    8    1      1.52      1.41
    0    8    1     -0.13     -0.54
    8    8    1      0.97      0.48
    8    9    1     -0.03     -0.80
    7    9    1      0.80      1.53
    6    9    1     -0.15     -0.60
    5    9    1     -1.46     -0.54
    4    9    1      0.48      1.47
    3    9    1      0.16      0.37
    2    9    1     -0.86     -1.23
    1    9    1      0.84     -0.45
    0    9    1     -0.11     -1.04
    7   10    1      0.28     -0.07
    6   10    1      1.19      0.81
    5   10    1      0.03      0.60
    4   10    1     -0.40      0.12
    3   10    1      0.43      0.73
    2   10    1      0.67     -0.77
    1   10    1      0.96     -0.52
    0   10    1     -0.41     -0.42
    5   11    1      0.27      0.91
    4   11    1     -0.40     -1.02
    3   11    1     -0.48      0.65
    2   11    1      0.01      1.09
    1   11    1     -0.68      0.10
    0   11    1     -0.05     -0.41
    2   12    1     -0.45      0.28
    1   12    1     -0.58      0.39
    0   12    1      0.15      0.49
    1    2    2     17.11    -14.73
    0    2    2     24.42      0.02
    2    2    2     -0.85    -10.69
    2    3    2     -2.12      4.71
    1    3    2      0.95     -7.86
    0    3    2     -4.00      0.22
    3    3    2      0.09      0.03
    3    4    2     -1.51     -4.16
    2    4    2     -2.31     -0.41
    1    4    2     -2.84      6.21
    0    4    2      3.03     -0.12
    4    4    2      0.87      4.38
    4    5    2      0.80      0.08
    3    5    2      0.80      2.22
    2    5    2     -3.73     -3.49
    1    5    2     -3.84      2.89
    0    5    2      5.65      0.23
    5    5    2     -0.34     -2.96
    5    6    2      0.18      0.64
    4    6    2      0.00     -3.86
    3    6    2      1.37      3.14
    2    6    2     -2.48      0.21
    1    6    2     -1.18     -3.65
    0    6    2      2.95     -0.06
    6    6    2      0.24      0.38
    6    7    2      1.41     -1.32
    5    7    2      1.41      3.65
    4    7    2     -0.25     -0.19
    3    7    2     -0.05     -3.91
    2    7    2      2.27      0.69
    1    7    2      1.45      2.05
    0    7    2     -2.08     -0.13
    7    7    2      0.12     -1.14
    7    8    2     -0.47      1.31
    6    8    2      0.85     -0.93
    5    8    2      2.34     -1.56
    4    8    2      0.23      2.55
    3    8    2     -3.08     -0.42
    2    8    2      0.28     -1.99
    1    8    2      1.09     -0.33
    0    8    2     -1.60      0.11
    8    8    2     -0.08     -0.11
    8    9    2     -0.11     -0.97
    7    9    2     -0.10      0.24
    6    9    2     -0.89      0.99
    5    9    2     -0.24     -1.59
    4    9    2      0.08     -0.33
    3    9    2     -1.24      1.19
    2    9    2     -0.48     -0.19
    1    9    2     -0.41     -0.98
    0    9    2     -1.29      0.12
    6   10    2     -1.21      0.41
    5   10    2     -0.32      0.61
    4   10    2      1.24     -0.89
    3   10    2     -0.37     -0.01
    2   10    2     -0.55      0.38
    1   10    2      0.90     -1.33
    0   10    2      0.65      0.04
    5   11    2     -0.55      0.90
    4   11    2      0.55     -0.10
    3   11    2     -0.08     -0.56
    2   11    2      0.18      0.71
    1   11    2      0.70      0.47
    0   11    2     -0.35     -0.21
    2   12    2      0.94      0.14
    1   12    2      0.13      0.09
    0   12    2     -0.54      0.06
    0    1    3      0.57     -4.28
    1    1    3     -3.73      4.36
    1    2    3     -1.29     -2.82
    0    2    3      0.41    -29.54
    2    2    3     -9.23      9.23
    2    3    3      1.91      2.24
    1    3    3     -5.72      4.29
    0    3    3     -0.14     -3.75
    3    3    3      8.22     -8.24
    3    4    3     -1.00      0.52
    2    4    3      2.58     -2.18
    1    4    3     -4.98      4.41
    0    4    3     -0.31     12.75
    4    4    3      0.19      0.02
    4    5    3      1.68     -1.59
    3    5    3     -3.96      1.65
    2    5    3      0.07      0.26
    1    5    3      0.96      0.55
    0    5    3      0.09      3.38
    5    5    3     -0.90      1.40
    5    6    3     -1.53      1.72
    4    6    3     -1.05     -1.51
    3    6    3      2.63     -3.01
    2    6    3     -0.04      5.28
    1    6    3     -0.79      0.44
    0    6    3     -0.01     -9.72
    6    6    3      1.88     -2.54
    6    7    3      0.69     -1.65
    5    7    3      1.10      1.73
    4    7    3     -3.01      2.33
    3    7    3     -0.15     -3.46
    2    7    3     -0.16      0.44
    1    7    3      1.34      2.27
    0    7    3     -0.11     -2.43
    7    7    3     -0.49      0.77
    7    8    3     -0.45      0.17
    6    8    3     -1.78      1.36
    5    8    3      1.91     -0.23
    4    8    3      1.60      0.04
    3    8    3     -0.70      0.31
    2    8    3     -0.29     -0.24
    1    8    3      1.92      0.11
    0    8    3     -0.15     -0.40
    8    8    3      1.51     -1.99
    8    9    3      0.67     -1.10
    7    9    3      1.33     -0.30
    6    9    3      0.00     -0.10
    5    9    3     -0.64     -0.43
    4    9    3      1.05     -0.36
    3    9    3      0.67      0.16
    2    9    3      0.67      0.49
    1    9    3      1.08      0.89
    0    9    3     -0.03      0.51
    6   10    3      0.30     -1.03
    5   10    3     -1.27     -0.07
    4   10    3     -0.20      0.34
    3   10    3      0.37     -0.85
    2   10    3     -1.02     -0.14
    1   10    3     -0.25      0.05
    0   10    3      0.22     -0.86
    4   11    3      0.29     -0.07
    3   11    3      0.39     -0.58
    2   11    3     -0.69     -0.96
    1   11    3      0.30     -0.32
    0   11    3     -0.22      0.65
    1   12    3      0.98      0.26
    0   12    3     -0.17      0.89
    0    0    4     19.70      0.18
    0    1    4     10.49      0.54
    1    1    4     -6.19     -0.30
    1    2    4    -10.26      8.21
    0    2    4      2.33     -0.44
    2    2    4     -7.68      0.28
    2    3    4      5.27     -0.88
    1    3    4      2.89      1.40
    0    3    4     -2.84     -0.24
    3    3    4     -2.94      0.00
    3    4    4     -1.67     -4.46
    2    4    4     -0.01     -3.25
    1    4    4      3.01     -2.23
    0    4    4     -1.01      0.17
    4    4    4      3.19      0.10
    4    5    4      0.62      0.61
    3    5    4      3.32      1.95
    2    5    4     -4.01     -2.06
    1    5    4      1.97     -3.57
    0    5    4     10.10     -0.72
    5    5    4     -2.98      0.61
    5    6    4      2.10      0.21
    4    6    4     -2.60     -0.33
    3    6    4      0.89      0.82
    2    6    4      0.87     -0.35
    1    6    4     -0.42      3.75
    0    6    4      2.84     -0.46
    6    6    4      3.15     -0.18
    6    7    4     -2.21     -1.43
    5    7    4      2.59     -0.31
    4    7    4     -0.12      1.11
    3    7    4     -3.53     -1.56
    2    7    4     -0.39     -1.70
    1    7    4     -1.50      2.02
    0    7    4     -2.92      0.13
    7    7    4     -2.18     -0.21
    7    8    4      0.40     -0.44
    6    8    4     -1.57      0.51
    5    8    4     -0.29     -0.10
    4    8    4      1.45      0.36
    3    8    4     -1.06     -0.26
    2    8    4     -0.68      0.90
    1    8    4      0.52     -0.81
    0    8    4     -0.92     -0.17
    8    8    4     -0.03      0.16
    7    9    4     -0.49      0.01
    6    9    4      1.57      0.90
    5    9    4      0.47     -1.36
    4    9    4      0.25     -0.49
    3    9    4      0.12      0.70
    2    9    4      0.32      0.59
    1    9    4      1.46     -0.30
    0    9    4     -0.03      0.35
    6   10    4     -0.51      0.17
    5   10    4      0.14     -0.44
    4   10    4     -0.05      1.05
    3   10    4     -0.48      0.89
    2   10    4      0.05     -0.21
    1   10    4      0.64      0.94
    0   10    4     -0.56     -0.15
    4   11    4      0.55     -0.10
    3   11    4     -0.46     -0.17
    2   11    4     -0.42      0.17
    1   11    4     -0.03     -0.08
    0   11    4     -0.29     -0.16
    0    1    5      0.68     -0.01
    1    1    5     -2.82     -2.89
    1    2    5     -0.94      6.70
    0    2    5      0.18      0.05
    2    2    5      6.48      5.80
    2    3    5     -4.50      0.65
    1    3    5     -2.23      3.48
    0    3    5     -0.07     -4.84
    3    3    5     -2.20     -1.52
    3    4    5      0.64      1.18
    2    4    5     -1.31     -5.40
    1    4    5     -0.44     -1.86
    0    4    5      0.44      0.02
    4    4    5      2.38      1.46
    4    5    5     -1.89     -1.96
    3    5    5     -0.64      0.88
    2    5    5      2.43      3.85
    1    5    5     -2.72     -0.12
    0    5    5      0.26     -0.80
    5    5    5      0.92      0.70
    5    6    5      1.71      3.98
    4    6    5     -0.96      0.64
    3    6    5     -0.35     -2.88
    2    6    5      2.73      2.85
    1    6    5      0.28      2.21
    0    6    5     -0.28      0.22
    6    6    5      0.10      0.12
    6    7    5     -1.49     -1.77
    5    7    5     -1.25     -1.13
    4    7    5      0.18      2.11
    3    7    5      0.16     -1.23
    2    7    5     -0.38     -1.91
    1    7    5      2.63      0.62
    0    7    5      0.03     -1.11
    7    7    5      0.96      0.60
    7    8    5      0.27      0.09
    6    8    5      0.01      0.33
    5    8    5     -1.35     -0.79
    4    8    5     -1.66      0.18
    3    8    5     -1.17     -0.15
    2    8    5     -1.21      0.05
    1    8    5      0.91      1.15
    0    8    5      0.10     -2.28
    8    8    5     -0.57     -0.49
    7    9    5     -1.16     -0.98
    6    9    5      0.82     -0.15
    5    9    5     -0.01      0.88
    4    9    5     -1.62     -0.40
    3    9    5     -0.66     -0.95
    2    9    5      0.44      0.09
    1    9    5      0.09      0.27
    0    9    5      0.16     -0.55
    6   10    5      0.24     -0.78
    5   10    5     -0.85     -0.75
    4   10    5     -0.11     -0.26
    3   10    5      0.15      0.01
    2   10    5     -0.33      0.31
    1   10    5      0.87     -0.44
    0   10    5      0.25      1.12
    3   11    5      0.18     -0.63
    2   11    5     -0.54      0.14
    1   11    5      1.33     -0.39
    0   11    5     -0.30      0.57
    0    1    6      4.12      0.81
    1    1    6     -0.58     -1.97
    1    2    6      0.29      0.47
    0    2    6      6.55      0.29
    2    2    6      0.58     -7.99
    2    3    6      1.71     -4.78
    1    3    6     -2.51      2.03
    0    3    6     -4.57      0.10
    3    3    6     -0.19     -1.29
    3    4    6     -0.31      1.94
    2    4    6     -2.83      1.27
    1    4    6      1.97     -0.62
    0    4    6      1.77     -0.02
    4    4    6     -0.71      0.31
    4    5    6     -0.58     -0.32
    3    5    6     -1.44     -2.28
    2    5    6     -4.39      0.59
    1    5    6      0.22      1.07
    0    5    6      1.42     -0.19
    5    5    6     -0.29      1.80
    5    6    6      0.15     -1.10
    4    6    6     -2.27      2.91
    3    6    6     -1.16      0.24
    2    6    6      1.13     -2.21
    1    6    6      0.13      1.35
    0    6    6      0.64     -0.01
    6    6    6     -0.04     -3.40
    6    7    6      0.64      0.54
    5    7    6      1.04     -2.90
    4    7    6      0.27     -0.06
    3    7    6      0.25      2.37
    2    7    6      1.25     -0.08
    1    7    6      0.60      0.39
    0    7    6      2.47     -0.05
    7    7    6     -0.11      1.80
    7    8    6     -0.04      0.53
    6    8    6     -0.46      1.93
    5    8    6      0.10      0.05
    4    8    6      1.73     -1.02
    3    8    6      0.10     -0.33
    2    8    6     -0.54      0.68
    1    8    6      0.37      0.52
    0    8    6     -0.61     -0.16
    8    8    6      0.10     -0.04
    7    9    6     -1.34      1.10
    6    9    6     -0.72      0.18
    5    9    6      0.48      0.14
    4    9    6      0.49      1.39
    3    9    6     -1.09      0.01
    2    9    6     -0.51     -1.03
    1    9    6      1.25     -0.47
    0    9    6     -2.41     -0.02
    5   10    6      0.83     -0.48
    4   10    6      0.40      0.06
    3   10    6      0.00     -0.40
    2   10    6     -0.49     -0.47
    1   10    6      0.35      0.67
    0   10    6     -1.14     -0.01
    2   11    6     -1.06      0.14
    1   11    6     -0.28     -0.58
    0   11    6      1.19     -0.09
    3   11    6     -0.70      0.33
    0    1    7     -0.19     -1.95
    1    1    7     -1.76      1.50
    1    2    7     -5.17     -2.00
    0    2    7      0.03     -5.54
    2    2    7      0.67     -0.79
    2    3    7      1.82     -0.41
    1    3    7      2.12      3.66
    0    3    7      0.22      1.97
    3    3    7     -2.35      1.98
    3    4    7      1.32      0.88
    2    4    7      0.43     -0.46
    1    4    7     -1.21      2.72
    0    4    7      0.38      2.65
    4    4    7      0.15      0.20
    4    5    7     -0.12     -0.30
    3    5    7      2.41     -2.84
    2    5    7      1.32     -1.39
    1    5    7     -1.78     -1.92
    0    5    7     -0.05     -2.07
    5    5    7     -1.03      0.14
    5    6    7      1.03     -0.85
    4    6    7     -0.83      0.05
    3    6    7     -2.72     -0.19
    2    6    7      0.22     -0.44
    1    6    7      0.70     -1.70
    0    6    7      0.02     -0.77
    6    6    7      0.40      0.18
    6    7    7      0.75      0.52
    5    7    7      1.05     -0.33
    4    7    7      0.37      0.86
    3    7    7     -0.99      0.50
    2    7    7     -0.25     -0.19
    1    7    7      0.30      0.63
    0    7    7      0.10     -0.84
    7    7    7     -0.26     -0.33
    7    8    7     -0.87     -0.33
    6    8    7      0.98     -0.94
    5    8    7     -0.33      0.03
    4    8    7     -0.05      0.83
    3    8    7      0.59     -0.93
    2    8    7      0.21     -0.99
    1    8    7      1.44      1.82
    0    8    7      0.06     -1.55
    6    9    7      0.02     -0.17
    5    9    7     -0.38     -0.27
    4    9    7      0.54     -0.53
    3    9    7      0.41     -0.22
    2    9    7     -0.83     -0.17
    1    9    7      1.12      0.56
    0    9    7     -0.06     -0.16
    4   10    7      0.32      0.31
    3   10    7      0.41      0.01
    2   10    7     -0.50     -0.22
    1   10    7      1.43     -0.67
    0   10    7     -0.13      2.20
    1   11    7      0.44     -1.07
    0   11    7      0.09     -0.88
    0    0    8      2.20     -0.01
    0    1    8      0.60     -0.15
    1    1    8     -1.20      0.17
    1    2    8     -0.71      1.44
    0    2    8     -1.41      0.28
    2    2    8      1.71     -0.27
    2    3    8     -1.63     -2.03
    1    3    8      1.96     -0.59
    0    3    8      2.50      0.05
    3    3    8     -2.87     -0.10
    3    4    8      0.96      1.42
    2    4    8     -0.49     -1.43
    1    4    8      1.83     -1.27
    0    4    8      0.12     -0.26
    4    4    8      0.17     -0.19
    4    5    8     -1.04      1.51
    3    5    8      0.89     -0.57
    2    5    8      0.30     -0.89
    1    5    8      0.78      1.23
    0    5    8     -0.04      0.15
    5    5    8      0.18     -0.25
    5    6    8      1.71      0.86
    4    6    8      0.59      0.86
    3    6    8     -0.66     -0.66
    2    6    8     -0.42     -0.29
    1    6    8     -0.82     -0.30
    0    6    8      0.15      0.14
    6    6    8     -0.45     -0.04
    6    7    8     -0.67      0.13
    5    7    8      0.73     -0.42
    4    7    8      0.87     -0.08
    3    7    8     -0.38      0.42
    2    7    8      0.18     -0.61
    1    7    8     -1.31     -0.32
    0    7    8     -0.19     -0.07
    7    7    8     -0.59     -0.10
    7    8    8     -0.50      0.39
    6    8    8     -0.10     -0.41
    5    8    8      0.18     -1.35
    4    8    8      0.52      0.74
    3    8    8     -0.37      1.20
    2    8    8     -0.34     -0.92
    1    8    8      0.24      1.42
    0    8    8      0.50      0.24
    5    9    8      0.54     -0.03
    4    9    8      0.18      0.83
    3    9    8     -0.11      0.47
    2    9    8     -0.13     -0.64
    1    9    8      1.48      0.63
    0    9    8     -1.06     -0.26
    3   10    8     -0.83      0.18
    2   10    8     -1.23      0.12
    1   10    8      0.59     -1.03
    0   10    8     -0.05     -0.05
    0    1    9     -0.56     -0.12
    1    1    9     -1.15     -1.27
    1    2    9     -1.23      3.26
    0    2    9     -0.18      1.84
    2    2    9      0.35      0.74
    2    3    9     -0.57     -2.30
    1    3    9     -1.18     -0.24
    0    3    9      0.05     -2.41
    3    3    9     -0.45     -0.58
    3    4    9      0.85      1.23
    2    4    9      1.23      0.08
    1    4    9      0.67     -0.70
    0    4    9     -0.18     -0.40
    4    4    9     -1.49     -1.66
    4    5    9     -1.65      0.03
    3    5    9      0.02      1.20
    2    5    9      0.58      0.49
    1    5    9      0.99      0.31
    0    5    9     -0.31      3.38
    5    5    9     -0.50      0.04
    5    6    9     -0.64      0.72
    4    6    9      0.58      1.62
    3    6    9     -0.74     -0.49
    2    6    9      0.20     -0.29
    1    6    9      1.42      0.00
    0    6    9     -0.01      0.61
    6    6    9     -0.21     -0.25
    6    7    9      0.10      0.27
    5    7    9     -0.19      0.01
    4    7    9      0.28      0.30
    3    7    9     -0.95     -0.70
    2    7    9      0.25     -1.07
    1    7    9      0.17     -0.25
    0    7    9      0.06     -1.18
    7    7    9     -1.06     -0.60
    6    8    9     -0.03     -0.05
    5    8    9     -0.30     -0.71
    4    8    9     -0.08     -1.13
    3    8    9     -0.50      0.77
    2    8    9     -0.58     -0.42
    1    8    9     -0.03      0.85
    0    8    9      0.05     -0.25
    4    9    9      0.79     -0.81
    3    9    9     -0.04      0.90
    2    9    9     -1.39      0.23
    1    9    9      1.69      0.23
    0    9    9     -0.16     -0.76
    1   10    9      0.53     -0.75
    0   10    9     -0.35     -0.21
    0    1   10      0.00     -0.07
    1    1   10      0.54      0.12
    1    2   10     -0.36      2.02
    0    2   10      0.19     -0.08
    2    2   10     -0.36     -0.49
    2    3   10      0.12      0.21
    1    3   10      1.14      1.58
    0    3   10     -0.56     -0.20
    3    3   10      0.03      2.50
    3    4   10     -0.85     -0.20
    2    4   10     -1.06      0.13
    1    4   10      1.12      0.20
    0    4   10     -0.24      0.03
    4    4   10      0.35     -1.09
    4    5   10     -0.70      0.62
    3    5   10      0.49     -1.59
    2    5   10     -0.59     -0.47
    1    5   10     -0.37     -0.68
    0    5   10      0.47      0.19
    5    5   10      0.27      0.57
    5    6   10      0.12     -0.99
    4    6   10     -0.11      0.06
    3    6   10      0.78     -1.34
    2    6   10      0.22     -0.95
    1    6   10     -0.57     -0.68
    0    6   10      1.38      0.08
    6    6   10     -0.04     -0.82
    6    7   10     -0.08     -0.47
    5    7   10      0.79     -0.02
    4    7   10      0.69      0.09
    3    7   10     -0.24     -0.13
    2    7   10      1.31     -0.79
    1    7   10     -0.42      0.05
    0    7   10     -0.65     -0.07
    5    8   10      0.02     -0.06
    4    8   10     -0.27      0.11
    3    8   10     -0.97      0.14
    2    8   10      0.23     -0.72
    1    8   10     -0.14      0.63
    0    8   10     -0.67      0.03
    3    9   10      0.38      0.14
    2    9   10     -0.84      0.92
    1    9   10      0.08      1.34
    0    9   10      0.15     -0.11
    0    1   11      0.19     -1.20
    1    1   11     -0.75      0.84
    1    2   11     -0.55     -0.54
    0    2   11      0.06     -1.35
    2    2   11      1.82     -1.85
    2    3   11      0.22      0.94
    1    3   11      1.27      1.52
    0    3   11     -0.13      0.96
    3    3   11     -1.38      1.35
    3    4   11      0.73      0.64
    2    4   11     -1.13     -0.31
    1    4   11     -0.38     -0.10
    0    4   11     -0.20      0.64
    4    4   11     -0.58      0.62
    4    5   11     -0.18      0.28
    3    5   11      0.35     -0.12
    2    5   11      0.62     -0.73
    1    5   11      0.25     -1.31
    0    5   11      0.06     -0.55
    5    5   11      0.79     -0.37
    5    6   11     -0.58     -0.01
    4    6   11      0.04     -0.47
    3    6   11     -0.99     -0.55
    2    6   11      0.81      0.17
    1    6   11      0.10     -0.36
    0    6   11     -0.03     -0.66
    6    6   11     -0.97      0.80
    5    7   11     -1.08      0.16
    4    7   11      0.16     -0.49
    3    7   11     -0.97     -0.05
    2    7   11      0.58      0.25
    1    7   11      1.25      0.51
    0    7   11     -0.18      0.05
    4    8   11      0.67     -0.32
    3    8   11     -0.29      0.35
    2    8   11     -0.48     -0.88
    1    8   11      1.15     -0.51
    0    8   11     -0.20     -0.47
    0    0   12      4.32      0.36
    0    1   12      0.22      0.18
    1    1   12      0.14     -0.43
    1    2   12      1.08      0.68
    0    2   12     -1.01     -0.09
    2    2   12      0.68      0.13
    2    3   12     -1.68     -0.74
    1    3   12     -0.35      0.23
    0    3   12     -0.68     -0.06
    3    3   12     -0.54      0.02
    3    4   12      0.76      0.32
    2    4   12      0.50      0.13
    1    4   12     -0.47      0.15
    0    4   12     -1.02      0.22
    4    4   12     -1.26     -0.01
    4    5   12      0.13      0.62
    3    5   12      0.03     -1.30
    2    5   12      0.43      0.83
    1    5   12      0.60      0.93
    0    5   12      0.66      0.01
    5    5   12      0.03      0.06
    5    6   12     -1.10      0.40
    4    6   12      0.12      1.03
    3    6   12     -0.50     -0.59
    2    6   12     -0.26      0.18
    1    6   12     -0.35      0.28
    0    6   12     -0.26     -0.17
    4    7   12     -0.92      0.02
    3    7   12     -0.01     -0.65
    2    7   12      0.70     -0.83
    1    7   12      0.45      0.95
    0    7   12      0.77      0.12
    1    8   12      0.30      0.82
    0    8   12      0.35     -0.21
    0    1   13      0.49     -1.98
    1    1   13      1.05      1.66
    1    2   13      0.50      1.20
    0    2   13      0.38      0.78
    2    2   13     -0.38     -0.67
    2    3   13      0.98     -1.12
    1    3   13     -0.35     -1.13
    0    3   13      0.05     -0.16
    3    3   13      0.66      0.80
    3    4   13     -0.09     -0.46
    2    4   13      1.02      0.17
    1    4   13      0.63      0.11
    0    4   13     -0.02      0.20
    4    4   13     -1.25     -1.06
    4    5   13     -0.68      0.98
    3    5   13     -0.65     -0.27
    2    5   13     -0.32     -0.68
    1    5   13      0.40      1.01
    0    5   13      0.05      1.67
    5    5   13     -0.68     -1.10
    4    6   13     -0.07     -0.30
    3    6   13     -0.08      0.61
    2    6   13      0.93      0.46
    1    6   13      0.01      0.18
    0    6   13     -0.09     -0.25
    1    7   13     -0.31     -0.32
    0    7   13     -0.07      0.00
    0    1   14      1.00      1.48
    1    1   14     -0.41      1.69
    1    2   14      0.20     -0.52
    0    2   14     -1.30      0.40
    2    2   14      0.22      0.02
    2    3   14      0.31      0.61
    1    3   14      0.81      0.24
    0    3   14      0.13      0.03
    3    3   14      0.03      0.25
    3    4   14     -0.48     -0.55
    2    4   14     -0.26     -0.28
    1    4   14     -0.32      1.41
    0    4   14     -0.23      0.07
    4    4   14     -0.09      1.09
    3    5   14     -0.85      0.46
    2    5   14     -0.31     -0.30
    1    5   14     -0.19     -0.82
    0    5   14     -0.04      0.01
    0    6   14      1.01      0.07
    0    1   15      0.42     -0.23
    1    1   15     -0.81     -0.06
    1    2   15      0.54     -0.54
    0    2   15      0.48     -1.38
    2    2   15      0.58     -0.33
    2    3   15     -0.34      0.12
    1    3   15     -1.06     -0.27
    0    3   15     -0.06      0.22
    3    3   15     -0.37      0.34
    1    4   15      0.56      0.30
    0    4   15      0.19      1.16
    0    0   16      0.15      0.53
    0    1   16     -0.69     -0.14
    2    2    0      0.51      2.90
    9    9    0      1.17      0.27
    8   10    0      0.20     -0.03
    6   11    0      0.47      0.17
    3   12    0      0.03      0.42
    4   12    0     -1.02      0.22
    9    9    1      0.19     -0.11
    6   11    1     -0.55      1.18
    3   12    1      0.21      0.32
    4   12    1      0.38      0.12
    0    1    2     46.29     -0.06
    1    1    2      0.43     16.15
    7   10    2      0.10     -0.30
    6   11    2     -1.03      0.11
    3   12    2      0.72     -0.37
    4   12    2     -0.44     -0.47
    7   10    3      0.00      0.29
    5   11    3     -0.38     -0.01
    6   11    3      0.01     -0.10
    2   12    3      0.85     -0.33
    3   12    3      0.27     -0.29
    8    9    4     -1.79     -0.55
    7   10    4     -1.19      0.59
    5   11    4      0.18      0.62
    0   12    4      0.78      0.30
    1   12    4     -0.20     -0.49
    2   12    4     -0.99     -0.19
    3   12    4     -1.03     -0.09
    8    9    5     -0.70      0.37
    7   10    5      0.20      0.28
    4   11    5      0.25      0.21
    5   11    5     -0.43      0.07
    0   12    5     -0.28     -0.61
    1   12    5     -0.51     -0.73
    2   12    5     -0.61      0.33
    6   10    6      0.53     -0.24
    4   11    6      0.11      0.01
    8    8    7     -1.24      1.82
    7    9    7     -0.55     -0.23
    5   10    7     -0.41      0.25
    2   11    7     -0.60      0.96
    3   11    7      0.20     -0.09
    6    9    8      0.23     -0.30
    4   10    8     -0.51     -0.02
    5   10    8      0.50      0.34
    0   11    8      0.63      0.24
    1   11    8     -0.53      0.23
    2   11    8     -0.33      0.64
    7    8    9     -1.11     -0.91
    5    9    9     -0.55     -0.44
    2   10    9     -1.14     -0.04
    3   10    9      0.18     -0.81
    4   10    9      0.64     -0.36
    7    7   10      0.04     -1.14
    6    8   10     -0.52     -0.72
    4    9   10     -0.43     -0.44
    0   10   10     -0.46      0.04
    1   10   10      0.02      0.39
    2   10   10     -0.50      0.63
    6    7   11     -0.40     -0.28
    5    8   11     -0.04     -0.08
    0    9   11     -0.14      0.23
    1    9   11      0.61      0.17
    2    9   11     -0.04     -0.63
    3    9   11      0.21     -0.16
    6    6   12     -0.25     -0.09
    5    7   12     -1.03     -0.14
    2    8   12      1.05     -0.15
    3    8   12      1.09     -0.30
    5    6   13     -0.34     -0.73
    2    7   13      0.73      0.02
    3    7   13     -0.09      0.65
    4    7   13     -0.10     -0.70
    0    8   13     -0.02      0.52
    1    8   13      0.66      0.11
    4    5   14     -0.42      1.11
    1    6   14      1.22     -0.38
    2    6   14      0.31      0.04
    3    6   14     -0.79     -0.36
    0    7   14     -0.15      0.00
    2    4   15      0.23     -0.07
    3    4   15     -0.31      0.34
    4    4   15     -0.50      0.43
    0    5   15      0.21      0.06
    1    5   15      1.35      0.47
    2    5   15      0.59      0.40
    1    1   16     -0.52     -0.46
    0    2   16     -0.30      0.17
    1    2   16      0.07     -0.03
    2    2   16     -0.47      0.00
    0    3   16     -1.44      0.10
    1    3   16     -0.79      0.23
    2    3   16     -0.25     -0.02
    0    0    0      0.00      0.00
# SQUEEZE RESULTS (Version = 270519)
# Note: Data are Listed for all Voids in the P1 Unit Cell
# i.e. Centre of Gravity, Solvent Accessible Volume,
# Recovered number of Electrons in the Void and
# Details about the Squeezed Material
loop_
  _platon_squeeze_void_nr
  _platon_squeeze_void_average_x
  _platon_squeeze_void_average_y
  _platon_squeeze_void_average_z
  _platon_squeeze_void_volume
  _platon_squeeze_void_count_electrons
  _platon_squeeze_void_content
   1 -0.007 -0.005 -0.009       741       245 ' '
# Missing Reflections Below sin(th)/lambda = 0.25
loop_
  _platon_missing_refln_index_h
  _platon_missing_refln_index_k
  _platon_missing_refln_index_l
  _platon_missing_refln_theta
    2    2    0     5.886
    0    1    2     3.800
    1    1    2     4.332
_platon_squeeze_void_probe_radius                  1.20
_platon_squeeze_details
)
TITL In-adc P4122.res in P4(1)22
CELL    9.8021    9.8021   12.8120     90.00     90.00     90.00
SPGR P4122
# Solvent Accessible Volume =       738
# Electrons Found in S.A.V. =       243
# Note: Atoms in Void are Labelled as Cxxx and Qxxx for all Others
Q101 0.692 0.282 0.640 !       3.45 eA-3
C102 0.047 0.659 0.225 !       2.29 eA-3
C103 0.689 0.185 0.513 !       2.00 eA-3
C104 0.786 0.432 0.688 !       1.92 eA-3
C105 0.992 0.783 0.734 !       1.86 eA-3
C106 0.829 0.877 0.061 !       1.52 eA-3
C107 0.132 0.992 0.603 !       0.68 eA-3
Q108 0.800 0.878 0.450 !       0.58 eA-3
C109 0.862 0.916 0.388 !       0.54 eA-3
C110 0.066 0.055 0.618 !       0.52 eA-3
)
;
_shelx_fab_checksum              20511
loop_
_space_group_symop_operation_xyz
'x, y, z'
'-x, -y, z+1/2'
'-y, x, z+1/4'
'y, -x, z+3/4'
'-x, y, -z'
'x, -y, -z+1/2'
'y, x, -z+3/4'
'-y, -x, -z+1/4'
loop_
_atom_site_label
_atom_site_type_symbol
_atom_site_fract_x
_atom_site_fract_y
_atom_site_fract_z
_atom_site_U_iso_or_equiv
_atom_site_adp_type
_atom_site_occupancy
_atom_site_site_symmetry_order
_atom_site_calc_flag
_atom_site_refinement_flags_posn
_atom_site_refinement_flags_adp
_atom_site_refinement_flags_occupancy
_atom_site_disorder_assembly
_atom_site_disorder_group
In1 In 0.500000 0.61899(2) 0.500000 0.01067(6) Uani 1 2 d S T P . .
O1 O 0.48535(15) 0.48535(15) 0.375000 0.0160(4) Uani 1 2 d S T P . .
H1 H 0.416816 0.416815 0.375001 0.019 Uiso 1 2 calc R U P . .
C1 C 0.5564(2) 0.8056(2) 0.31063(15) 0.0187(4) Uani 1 1 d . . . . .
O2 O 0.48882(19) 0.78840(13) 0.39190(10) 0.0226(3) Uani 1 1 d . . . . .
C2 C 0.5553(2) 0.9440(2) 0.26710(16) 0.0241(4) Uani 1 1 d . . . . .
O3 O 0.62843(14) 0.72099(12) 0.26194(10) 0.0202(3) Uani 1 1 d . . . . .
loop_
_atom_site_aniso_label
_atom_site_aniso_U_11
_atom_site_aniso_U_22
_atom_site_aniso_U_33
_atom_site_aniso_U_23
_atom_site_aniso_U_13
_atom_site_aniso_U_12
In1 0.01167(9) 0.01214(9) 0.00819(8) 0.000 0.00052(7) 0.000
O1 0.0184(6) 0.0184(6) 0.0114(7) -0.0037(5) 0.0037(5) -0.0076(10)
C1 0.0247(10) 0.0153(9) 0.0162(9) 0.0025(8) -0.0028(8) -0.0003(8)
O2 0.0327(8) 0.0173(6) 0.0180(6) 0.0043(5) 0.0035(7) 0.0045(7)
C2 0.0363(11) 0.0173(8) 0.0186(10) 0.0010(8) 0.0040(9) 0.0004(8)
O3 0.0275(7) 0.0122(6) 0.0208(6) 0.0002(6) 0.0026(7) -0.0030(5)
loop_
_atom_type_symbol
_atom_type_description
_atom_type_scat_dispersion_real
_atom_type_scat_dispersion_imag
_atom_type_scat_source
C C 0.0033 0.0016 'International Tables Vol C Tables 4.2.6.8 and 6.1.1.4'
H H 0.0000 0.0000 'International Tables Vol C Tables 4.2.6.8 and 6.1.1.4'
In In -0.7276 1.3100 'International Tables Vol C Tables 4.2.6.8 and 6.1.1.4'
O O 0.0106 0.0060 'International Tables Vol C Tables 4.2.6.8 and 6.1.1.4'
loop_
_geom_angle_atom_site_label_1
_geom_angle_atom_site_label_2
_geom_angle_atom_site_label_3
_geom_angle
_geom_angle_site_symmetry_1
_geom_angle_site_symmetry_3
_geom_angle_publ_flag
O1 In1 O1 101.66(6) . 3_655 ?
O1 In1 O2 89.25(5) . . ?
O1 In1 O2 169.08(4) 3_655 . ?
O1 In1 O2 169.08(4) . 5_656 ?
O1 In1 O2 89.25(5) 3_655 5_656 ?
O2 In1 O2 79.84(7) . 5_656 ?
O1 In1 O3 92.38(5) . 7 ?
O1 In1 O3 90.70(5) 3_655 7 ?
O2 In1 O3 88.44(6) . 7 ?
O2 In1 O3 87.82(6) 5_656 7 ?
O1 In1 O3 90.70(5) . 3_655 ?
O1 In1 O3 92.38(5) 3_655 3_655 ?
O2 In1 O3 87.82(6) . 3_655 ?
O2 In1 O3 88.44(6) 5_656 3_655 ?
O3 In1 O3 175.12(7) 7 3_655 ?
In1 O1 In1 120.58(10) 4_564 . ?
In1 O1 H1 119.7 4_564 . ?
In1 O1 H1 119.7 . . ?
O2 C1 O3 128.67(18) . . ?
O2 C1 C2 116.09(18) . . ?
O3 C1 C2 115.21(17) . . ?
C1 O2 In1 127.73(13) . . ?
C2 C2 C1 179.3(3) 6_575 . ?
C1 O3 In1 132.03(13) . 4_564 ?
loop_
_geom_bond_atom_site_label_1
_geom_bond_atom_site_label_2
_geom_bond_distance
_geom_bond_site_symmetry_2
_geom_bond_publ_flag
In1 O1 2.0740(10) . ?
In1 O1 2.0740(10) 3_655 ?
In1 O2 2.1651(12) . ?
In1 O2 2.1651(12) 5_656 ?
In1 O3 2.1735(12) 7 ?
In1 O3 2.1735(12) 3_655 ?
O1 H1 0.9500 . ?
C1 O2 1.245(2) . ?
C1 O3 1.256(2) . ?
C1 C2 1.466(3) . ?
C2 C2 1.183(4) 6_575 ?
