#------------------------------------------------------------------------------
#$Date: 2022-09-28 01:50:55 +0300 (Wed, 28 Sep 2022) $
#$Revision: 278229 $
#$URL: file:///home/coder/svn-repositories/cod/cif/7/71/13/7711358.cif $
#------------------------------------------------------------------------------
#
# This file is available in the Crystallography Open Database (COD),
# http://www.crystallography.net/
#
# All data on this site have been placed in the public domain by the
# contributors.
#
data_7711358
loop_
_publ_author_name
'Yan, Yong'
'Zhang, Ningning'
'Fuhrmann, Daniel'
'Merker, Stefan Jens'
'Krautscheid, Harald'
_publ_section_title
;
 A stable lanthanum hydroxamate metal-organic framework with radical
 character and electrical conductivity
;
_journal_name_full               'Dalton Transactions'
_journal_paper_doi               10.1039/D2DT02340G
_journal_year                    2022
_chemical_formula_moiety         'C14 H6 N2 O7 Sm, 1[Cl], 1[C3 H7 N O]'
_chemical_formula_sum            'C17 H13 Cl N3 O8 Sm'
_chemical_formula_weight         573.10
_space_group_crystal_system      monoclinic
_space_group_IT_number           15
_space_group_name_Hall           '-C 2yc'
_space_group_name_H-M_alt        'C 1 2/c 1'
_atom_sites_solution_hydrogens   mixed
_atom_sites_solution_primary     direct
_atom_sites_solution_secondary   difmap
_audit_creation_method
;
Olex2 1.5
(compiled 2022.04.07 svn.rca3783a0 for OlexSys, GUI svn.r6498)
SHELXL-2014/7
;
_audit_update_record
;
2022-09-15 deposited with the CCDC.	2022-09-27 downloaded from the CCDC.
;
_cell_angle_alpha                90
_cell_angle_beta                 95.074(5)
_cell_angle_gamma                90
_cell_formula_units_Z            4
_cell_length_a                   20.5997(12)
_cell_length_b                   12.3311(9)
_cell_length_c                   8.2059(5)
_cell_measurement_reflns_used    13840
_cell_measurement_temperature    180(2)
_cell_measurement_theta_max      71.31
_cell_measurement_theta_min      4.19
_cell_volume                     2076.3(2)
_computing_cell_refinement       'STOE X-AREA'
_computing_data_collection       'STOE X-AREA'
_computing_data_reduction        'STOE X-AREA'
_computing_molecular_graphics    'Olex2 1.5 (Dolomanov et al., 2009)'
_computing_publication_material  'Olex2 1.5 (Dolomanov et al., 2009)'
_computing_structure_refinement  'SHELXL-2014/7 (Sheldrick, 2014)'
_computing_structure_solution    'olex2.solve 1.5 (Bourhis et al., 2015)'
_diffrn_ambient_temperature      180(2)
_diffrn_detector_type            'DECTRIS PILATUS 300K'
_diffrn_measured_fraction_theta_full 0.996
_diffrn_measured_fraction_theta_max 0.976
_diffrn_measurement_device_type  'STOE STADIVARI'
_diffrn_measurement_method       'rotation method, \w scans'
_diffrn_radiation_type           CuK\a
_diffrn_radiation_wavelength     1.54186
_diffrn_reflns_av_R_equivalents  0.0418
_diffrn_reflns_av_unetI/netI     0.0335
_diffrn_reflns_Laue_measured_fraction_full 0.996
_diffrn_reflns_Laue_measured_fraction_max 0.976
_diffrn_reflns_limit_h_max       24
_diffrn_reflns_limit_h_min       -24
_diffrn_reflns_limit_k_max       13
_diffrn_reflns_limit_k_min       -15
_diffrn_reflns_limit_l_max       4
_diffrn_reflns_limit_l_min       -9
_diffrn_reflns_number            6670
_diffrn_reflns_point_group_measured_fraction_full 0.996
_diffrn_reflns_point_group_measured_fraction_max 0.976
_diffrn_reflns_theta_full        67.686
_diffrn_reflns_theta_max         70.969
_diffrn_reflns_theta_min         4.183
_diffrn_source                   'GeniX 3D HF Cu'
_exptl_absorpt_coefficient_mu    22.873
_exptl_absorpt_correction_T_max  1.0000
_exptl_absorpt_correction_T_min  0.2573
_exptl_absorpt_correction_type   multi-scan
_exptl_absorpt_process_details
;
STOE LANA, absorption correction by scaling of reflection intensities.
J. Koziskova, F. Hahn, J. Richter, J. Kozisek, "Comparison of different
absorption corrections on the model structure of tetrakis(\m~2~-acetato)-
diaqua-di-copper(II)", Acta Chimica Slovaca, vol. 9, no. 2, 2016, pp. 136 - 140.
;
_exptl_crystal_colour            brown
_exptl_crystal_density_diffrn    1.833
_exptl_crystal_density_method    'not measured'
_exptl_crystal_description       plate
_exptl_crystal_F_000             1116
_exptl_crystal_size_max          0.102
_exptl_crystal_size_mid          0.074
_exptl_crystal_size_min          0.020
_refine_diff_density_max         1.411
_refine_diff_density_min         -0.885
_refine_diff_density_rms         0.135
_refine_ls_extinction_method     none
_refine_ls_goodness_of_fit_ref   1.060
_refine_ls_hydrogen_treatment    constr
_refine_ls_matrix_type           full
_refine_ls_number_parameters     111
_refine_ls_number_reflns         1953
_refine_ls_number_restraints     0
_refine_ls_restrained_S_all      1.060
_refine_ls_R_factor_all          0.0486
_refine_ls_R_factor_gt           0.0464
_refine_ls_shift/su_max          0.000
_refine_ls_shift/su_mean         0.000
_refine_ls_structure_factor_coef Fsqd
_refine_ls_weighting_details
'w=1/[\s^2^(Fo^2^)+(0.0865P)^2^+8.4712P] where P=(Fo^2^+2Fc^2^)/3'
_refine_ls_weighting_scheme      calc
_refine_ls_wR_factor_gt          0.1237
_refine_ls_wR_factor_ref         0.1256
_reflns_Friedel_coverage         0.000
_reflns_number_gt                1847
_reflns_number_total             1953
_reflns_threshold_expression     'I > 2\s(I)'
_cod_data_source_file            d2dt02340g2.cif
_cod_data_source_block           Sm-ONDI
_cod_original_sg_symbol_H-M      'C 2/c'
_cod_database_code               7711358
_shelx_shelxl_version_number     2014/7
_shelx_space_group_comment
;
The symmetry employed for this shelxl refinement is uniquely defined
by the following loop, which should always be used as a source of
symmetry information in preference to the above space-group names.
They are only intended as comments.
;
_shelx_estimated_absorpt_t_min   0.204
_shelx_estimated_absorpt_t_max   0.658
_platon_squeeze_special_details
;
A solvent mask was calculated and 236 electrons were 
found in a volume of 834\%A^3^ in 1 void per unit cell. 
This is consistent with the presence of 1[Cl] per Formula Unit 
which accounts for 68 electrons per unit cell.
1[C3H7NO] per Formula Unit accounts for 160 electrons per unit cell.
;
_shelx_res_file
;

    sm-neu.res created by SHELXL-2014/7


TITL Sm-ONDI in C2/c: [Sm(ONDI)(H2O)]Cl*DMF
CELL 1.54186 20.5997 12.3311 8.2059 90 95.074 90
ZERR 4 0.0012 0.0009 0.0005 0 0.005 0
LATT 7
SYMM -X,+Y,0.5-Z
SFAC C H N O Sm Cl
UNIT 68 52 12 32 4 4

L.S. 5 0 33
PLAN  4
SIZE 0.102 0.074 0.02
TEMP -93.15
CONF
BOND $H
MORE -1
ABIN
fmap 2 53
acta

WGHT    0.086500    8.471200
FVAR       0.31652
SM1   5    0.500000    0.484346    0.750000    10.50000    0.01790    0.06590 =
         0.02193    0.00000    0.00375    0.00000
C1    1    0.639853    0.379454    0.651425    11.00000    0.02548    0.06763 =
         0.02584    0.00213    0.00170    0.00509
C2    1    0.702867    0.322852    0.649854    11.00000    0.02512    0.07793 =
         0.02912   -0.00484    0.00135    0.00894
C3    1    0.744097    0.317209    0.789970    11.00000    0.03209    0.09732 =
         0.03022   -0.00426   -0.00157    0.02229
AFIX  43
H3    2    0.732437    0.350427    0.887687    11.00000   -1.20000
AFIX   0
C4    1    0.719922    0.277462    0.500558    11.00000    0.02739    0.07344 =
         0.03080   -0.00714    0.00236    0.00705
C5    1    0.679090    0.283236    0.354623    11.00000    0.02422    0.08038 =
         0.02447    0.00031   -0.00049    0.01218
C6    1    0.695823    0.238368    0.211513    11.00000    0.02980    0.08494 =
         0.03260   -0.00832   -0.00184    0.01588
AFIX  43
H6    2    0.667411    0.244473    0.114259    11.00000   -1.20000
AFIX   0
C7    1    0.617501    0.343602    0.355184    11.00000    0.02284    0.06406 =
         0.03088   -0.00086    0.00053    0.00478
N1    3    0.603320    0.386295    0.501531    11.00000    0.02043    0.06622 =
         0.03346    0.00280    0.00414    0.00982
O1    4    0.618042    0.418597    0.773004    11.00000    0.02473    0.08546 =
         0.02877   -0.00416    0.00167    0.01330
O2    4    0.546200    0.442914    0.501082    11.00000    0.02038    0.07804 =
         0.02046    0.00237    0.00046    0.00942
O3    4    0.577833    0.358890    0.232622    11.00000    0.02928    0.07822 =
         0.03032   -0.00304   -0.00278    0.01048
O1W   4    0.500000    0.291031    0.750000    10.50000    0.06239    0.07321 =
         0.07491    0.00000    0.01213    0.00000
AFIX   7
H1WA  2    0.511643    0.244240    0.838468    10.50000   -1.50000
H1WB  2    0.488367    0.244240    0.661532    10.50000   -1.50000
AFIX   0
HKLF 4

REM  Sm-ONDI in C2/c: [Sm(ONDI)(H2O)]Cl*DMF
REM R1 =  0.0464 for    1847 Fo > 4sig(Fo)  and  0.0486 for all    1953 data
REM    111 parameters refined using      0 restraints

END

WGHT      0.0865      8.4715

REM Highest difference peak  1.411,  deepest hole -0.885,  1-sigma level  0.135
Q1    1   0.4735  0.5534  0.7368  11.00000  0.05    1.41
Q2    1   0.5200  0.3859  0.7621  11.00000  0.05    1.05
Q3    1   0.5246  0.2237  0.9253  11.00000  0.05    0.74
Q4    1   0.5650  0.4843  0.7852  11.00000  0.05    0.56
;
_shelx_res_checksum              59338
_shelx_fab_file
;
    4    0    0    -30.73      0.00
    6    0    0     26.52      0.00
    8    0    0      2.55      0.00
   10    0    0     -4.86      0.00
   12    0    0     -3.03      0.00
   14    0    0      1.01      0.00
   16    0    0      2.45      0.00
   18    0    0     -0.59      0.00
   20    0    0      0.87      0.00
   22    0    0      0.82      0.00
   24    0    0     -3.56      0.00
    1    1    0   -134.36      0.00
    3    1    0     44.64      0.00
    5    1    0     -7.90      0.00
    7    1    0    -14.79      0.00
    9    1    0      4.36      0.00
   11    1    0      1.39      0.00
   13    1    0      1.31      0.00
   15    1    0     -3.77      0.00
   17    1    0      0.56      0.00
   19    1    0     -0.51      0.00
   21    1    0      0.03      0.00
   23    1    0      0.82      0.00
    0    2    0     82.75      0.00
    2    2    0    -20.86      0.00
    4    2    0    -27.55      0.00
    6    2    0     15.12      0.00
    8    2    0      1.12      0.00
   10    2    0     -1.29      0.00
   12    2    0      2.86      0.00
   14    2    0      0.81      0.00
   16    2    0      1.96      0.00
   18    2    0     -0.79      0.00
   20    2    0     -0.48      0.00
   22    2    0     -0.65      0.00
   24    2    0     -2.36      0.00
    1    3    0     16.61      0.00
    3    3    0     42.07      0.00
    5    3    0     -1.74      0.00
    7    3    0     -4.04      0.00
    9    3    0      1.57      0.00
   11    3    0     -6.06      0.00
   13    3    0     -0.93      0.00
   15    3    0     -0.64      0.00
   17    3    0     -0.11      0.00
   19    3    0      0.03      0.00
   21    3    0      1.34      0.00
   23    3    0      0.10      0.00
    0    4    0    -19.49      0.00
    2    4    0    -30.63      0.00
    4    4    0     -6.80      0.00
    6    4    0      2.69      0.00
    8    4    0     -2.54      0.00
   10    4    0      2.41      0.00
   12    4    0      5.67      0.00
   14    4    0     -2.84      0.00
   16    4    0      1.08      0.00
   18    4    0      0.01      0.00
   20    4    0      0.00      0.00
   22    4    0      0.11      0.00
   24    4    0     -0.02      0.00
    1    5    0      4.99      0.00
    3    5    0      3.74      0.00
    5    5    0     -4.92      0.00
    7    5    0      3.28      0.00
    9    5    0      3.49      0.00
   11    5    0     -4.47      0.00
   13    5    0     -0.05      0.00
   15    5    0      0.74      0.00
   17    5    0     -0.38      0.00
   19    5    0     -0.55      0.00
   21    5    0     -0.02      0.00
   23    5    0     -0.85      0.00
    0    6    0      9.88      0.00
    2    6    0      5.31      0.00
    4    6    0      6.73      0.00
    6    6    0      0.09      0.00
    8    6    0     -3.71      0.00
   10    6    0     -1.60      0.00
   12    6    0      2.17      0.00
   14    6    0     -0.27      0.00
   16    6    0      0.36      0.00
   18    6    0     -0.31      0.00
   20    6    0      0.10      0.00
   22    6    0      0.17      0.00
    1    7    0     -6.11      0.00
    3    7    0     -6.08      0.00
    5    7    0     -0.62      0.00
    7    7    0     -0.18      0.00
    9    7    0      0.10      0.00
   11    7    0      0.63      0.00
   13    7    0     -0.65      0.00
   15    7    0     -0.35      0.00
   17    7    0      0.69      0.00
   19    7    0      0.15      0.00
   21    7    0      0.76      0.00
    0    8    0     -1.76      0.00
    2    8    0      3.52      0.00
    4    8    0     -0.83      0.00
    6    8    0     -1.71      0.00
    8    8    0      5.04      0.00
   10    8    0      0.62      0.00
   12    8    0     -0.39      0.00
   14    8    0     -0.30      0.00
   16    8    0     -0.36      0.00
   18    8    0     -0.25      0.00
   20    8    0     -0.54      0.00
    1    9    0      2.61      0.00
    3    9    0     -1.02      0.00
    5    9    0      4.84      0.00
    7    9    0     -3.32      0.00
    9    9    0     -2.80      0.00
   11    9    0     -0.62      0.00
   13    9    0      0.95      0.00
   15    9    0      0.18      0.00
   17    9    0      0.34      0.00
   19    9    0     -0.29      0.00
    0   10    0     -5.18      0.00
    2   10    0     -0.24      0.00
    4   10    0     -2.09      0.00
    6   10    0     -0.06      0.00
    8   10    0      1.20      0.00
   10   10    0      0.28      0.00
   12   10    0      0.13      0.00
   14   10    0     -0.08      0.00
   16   10    0      0.00      0.00
   18   10    0     -0.02      0.00
    1   11    0      2.95      0.00
    3   11    0      0.53      0.00
    5   11    0      0.32      0.00
    7   11    0     -0.38      0.00
    9   11    0      1.25      0.00
   11   11    0     -0.15      0.00
   13   11    0      0.37      0.00
   15   11    0     -0.89      0.00
   17   11    0      0.48      0.00
    0   12    0     -1.51      0.00
    2   12    0     -0.86      0.00
    4   12    0     -1.01      0.00
    6   12    0     -0.83      0.00
    8   12    0     -0.33      0.00
   10   12    0      0.20      0.00
   12   12    0     -0.98      0.00
   14   12    0      0.27      0.00
    1   13    0     -1.06      0.00
    3   13    0      0.39      0.00
    5   13    0      3.12      0.00
    7   13    0      0.87      0.00
    9   13    0     -1.18      0.00
   11   13    0     -0.30      0.00
    0   14    0      2.47      0.00
    2   14    0      2.19      0.00
    4   14    0     -1.87      0.00
    6   14    0     -2.40      0.00
    8   14    0      0.60      0.00
    1   15    0     -2.52      0.00
  -23    1    1      0.63      0.00
  -21    1    1      0.06      0.00
  -19    1    1     -0.65      0.00
  -17    1    1     -0.13      0.00
  -15    1    1      1.59      0.00
  -13    1    1      2.31      0.00
  -11    1    1     -1.51      0.00
   -9    1    1     -1.36      0.00
   -7    1    1     -5.55      0.00
   -5    1    1      7.37      0.00
   -3    1    1     34.58      0.00
   -1    1    1    -12.10      0.00
    1    1    1     -6.93      0.00
    3    1    1     26.73      0.00
    5    1    1     10.07      0.00
    7    1    1      3.31      0.00
    9    1    1     -1.72      0.00
   11    1    1     -0.86      0.00
   13    1    1      0.37      0.00
   15    1    1      0.20      0.00
   17    1    1     -0.86      0.00
   19    1    1     -1.36      0.00
   21    1    1     -1.48      0.00
   23    1    1     -1.01      0.00
  -24    2    1     -0.97      0.00
  -22    2    1      0.25      0.00
  -20    2    1      0.31      0.00
  -18    2    1      0.98      0.00
  -16    2    1     -1.48      0.00
  -14    2    1     -2.64      0.00
  -12    2    1     -1.41      0.00
  -10    2    1      2.33      0.00
   -8    2    1      2.27      0.00
   -6    2    1      8.66      0.00
   -4    2    1    -38.17      0.00
   -2    2    1    -27.49      0.00
    0    2    1     33.32      0.00
    2    2    1    -21.57      0.00
    4    2    1    -21.25      0.00
    6    2    1     -3.13      0.00
    8    2    1     -0.57      0.00
   10    2    1      1.46      0.00
   12    2    1     -0.02      0.00
   14    2    1     -0.24      0.00
   16    2    1     -0.01      0.00
   18    2    1      1.96      0.00
   20    2    1      1.08      0.00
   22    2    1      1.83      0.00
   24    2    1      0.18      0.00
  -23    3    1      0.11      0.00
  -21    3    1     -0.46      0.00
  -19    3    1     -0.84      0.00
  -17    3    1      0.79      0.00
  -15    3    1      0.63      0.00
  -13    3    1      2.07      0.00
  -11    3    1     -0.85      0.00
   -9    3    1      0.41      0.00
   -7    3    1     -7.38      0.00
   -5    3    1      3.76      0.00
   -3    3    1     49.24      0.00
   -1    3    1     -9.05      0.00
    1    3    1    -10.35      0.00
    3    3    1     20.23      0.00
    5    3    1     -1.93      0.00
    7    3    1     -2.22      0.00
    9    3    1      0.26      0.00
   11    3    1     -0.10      0.00
   13    3    1      0.32      0.00
   15    3    1      0.68      0.00
   17    3    1     -1.25      0.00
   19    3    1     -1.03      0.00
   21    3    1      0.05      0.00
   23    3    1     -1.05      0.00
  -22    4    1      0.48      0.00
  -20    4    1     -0.16      0.00
  -18    4    1      0.20      0.00
  -16    4    1      0.03      0.00
  -14    4    1      1.15      0.00
  -12    4    1     -0.06      0.00
  -10    4    1      0.68      0.00
   -8    4    1     -0.33      0.00
   -6    4    1     11.43      0.00
   -4    4    1    -20.97      0.00
   -2    4    1    -26.39      0.00
    0    4    1     14.22      0.00
    2    4    1     -9.81      0.00
    4    4    1      1.15      0.00
    6    4    1      7.26      0.00
    8    4    1      2.19      0.00
   10    4    1     -0.65      0.00
   12    4    1      0.14      0.00
   14    4    1     -2.06      0.00
   16    4    1      0.76      0.00
   18    4    1      1.30      0.00
   20    4    1     -0.65      0.00
   22    4    1     -0.38      0.00
  -23    5    1      0.53      0.00
  -21    5    1      0.24      0.00
  -19    5    1      0.23      0.00
  -17    5    1     -0.53      0.00
  -15    5    1     -2.19      0.00
  -13    5    1     -1.63      0.00
  -11    5    1     -1.88      0.00
   -9    5    1      2.13      0.00
   -7    5    1     -5.77      0.00
   -5    5    1     -7.32      0.00
   -3    5    1     24.07      0.00
   -1    5    1      2.35      0.00
    1    5    1      3.07      0.00
    3    5    1      8.17      0.00
    5    5    1     -5.42      0.00
    7    5    1     -2.99      0.00
    9    5    1     -0.43      0.00
   11    5    1     -1.09      0.00
   13    5    1      2.42      0.00
   15    5    1      0.32      0.00
   17    5    1     -0.98      0.00
   19    5    1     -0.42      0.00
   21    5    1      1.26      0.00
   23    5    1     -0.32      0.00
  -22    6    1     -0.07      0.00
  -20    6    1     -0.18      0.00
  -18    6    1      0.30      0.00
  -16    6    1      1.37      0.00
  -14    6    1      2.01      0.00
  -12    6    1      2.11      0.00
  -10    6    1     -0.46      0.00
   -8    6    1     -2.85      0.00
   -6    6    1     12.01      0.00
   -4    6    1     -2.16      0.00
   -2    6    1    -10.39      0.00
    0    6    1      3.23      0.00
    2    6    1    -13.59      0.00
    4    6    1     -0.95      0.00
    6    6    1      1.09      0.00
    8    6    1     -1.34      0.00
   10    6    1      0.39      0.00
   12    6    1     -0.24      0.00
   14    6    1     -1.20      0.00
   16    6    1      0.75      0.00
   18    6    1     -0.45      0.00
   20    6    1      0.08      0.00
   22    6    1     -0.49      0.00
  -21    7    1     -0.55      0.00
  -19    7    1     -0.20      0.00
  -17    7    1     -0.35      0.00
  -15    7    1     -0.78      0.00
  -13    7    1     -1.10      0.00
  -11    7    1     -0.27      0.00
   -9    7    1      3.80      0.00
   -7    7    1     -0.68      0.00
   -5    7    1     -9.53      0.00
   -3    7    1      5.03      0.00
   -1    7    1     -4.09      0.00
    1    7    1      2.94      0.00
    3    7    1      6.14      0.00
    5    7    1     -4.64      0.00
    7    7    1      3.46      0.00
    9    7    1      2.24      0.00
   11    7    1      0.73      0.00
   13    7    1      0.11      0.00
   15    7    1     -0.75      0.00
   17    7    1      1.25      0.00
   19    7    1     -0.19      0.00
   21    7    1      0.32      0.00
  -20    8    1      0.42      0.00
  -18    8    1     -0.04      0.00
  -16    8    1     -0.51      0.00
  -14    8    1      0.33      0.00
  -12    8    1     -1.11      0.00
  -10    8    1     -0.50      0.00
   -8    8    1     -3.45      0.00
   -6    8    1      1.88      0.00
   -4    8    1      2.52      0.00
   -2    8    1      0.49      0.00
    0    8    1      6.24      0.00
    2    8    1     -1.34      0.00
    4    8    1      6.21      0.00
    6    8    1      1.61      0.00
    8    8    1     -2.65      0.00
   10    8    1     -1.90      0.00
   12    8    1     -0.92      0.00
   14    8    1      0.38      0.00
   16    8    1     -0.22      0.00
   18    8    1     -0.25      0.00
   20    8    1      0.15      0.00
  -19    9    1      0.10      0.00
  -17    9    1      0.75      0.00
  -15    9    1      0.65      0.00
  -13    9    1      0.65      0.00
  -11    9    1      0.96      0.00
   -9    9    1     -1.03      0.00
   -7    9    1      2.40      0.00
   -5    9    1      0.24      0.00
   -3    9    1     -0.95      0.00
   -1    9    1     -3.31      0.00
    1    9    1     -5.21      0.00
    3    9    1     -5.04      0.00
    5    9    1     -4.52      0.00
    7    9    1      0.16      0.00
    9    9    1     -0.72      0.00
   11    9    1      1.72      0.00
   13    9    1      0.91      0.00
   15    9    1      0.21      0.00
   17    9    1     -1.00      0.00
   19    9    1     -0.58      0.00
  -18   10    1     -0.33      0.00
  -16   10    1     -1.29      0.00
  -14   10    1      0.04      0.00
  -12   10    1     -0.43      0.00
  -10   10    1      0.72      0.00
   -8   10    1      0.22      0.00
   -6   10    1     -0.89      0.00
   -4   10    1      0.14      0.00
   -2   10    1      1.41      0.00
    0   10    1      2.29      0.00
    2   10    1      5.05      0.00
    4   10    1      1.71      0.00
    6   10    1     -0.02      0.00
    8   10    1      2.04      0.00
   10   10    1      0.14      0.00
   12   10    1     -1.02      0.00
   14   10    1     -0.74      0.00
   16   10    1      1.55      0.00
   18   10    1      1.12      0.00
  -17   11    1      0.86      0.00
  -15   11    1      0.35      0.00
  -13   11    1     -0.93      0.00
  -11   11    1     -0.44      0.00
   -9   11    1      1.86      0.00
   -7   11    1     -0.68      0.00
   -5   11    1     -1.01      0.00
   -3   11    1     -0.90      0.00
   -1   11    1      1.06      0.00
    1   11    1     -1.71      0.00
    3   11    1     -0.31      0.00
    5   11    1      1.95      0.00
    7   11    1     -0.26      0.00
    9   11    1     -0.22      0.00
   11   11    1      1.18      0.00
   13   11    1     -0.70      0.00
   15   11    1     -1.28      0.00
  -14   12    1      1.13      0.00
  -12   12    1      0.61      0.00
  -10   12    1     -1.43      0.00
   -8   12    1     -2.59      0.00
   -6   12    1      2.27      0.00
   -4   12    1      0.17      0.00
   -2   12    1     -1.57      0.00
    0   12    1     -2.02      0.00
    2   12    1      0.25      0.00
    4   12    1     -2.21      0.00
    6   12    1     -0.48      0.00
    8   12    1     -0.63      0.00
   10   12    1     -2.55      0.00
   12   12    1     -0.05      0.00
   14   12    1      2.40      0.00
  -11   13    1      0.89      0.00
   -9   13    1      1.29      0.00
   -7   13    1     -0.39      0.00
   -5   13    1     -0.48      0.00
   -3   13    1      1.55      0.00
   -1   13    1      2.97      0.00
    1   13    1      0.21      0.00
    3   13    1      0.53      0.00
    5   13    1     -0.17      0.00
    7   13    1     -0.06      0.00
    9   13    1      1.33      0.00
   11   13    1      2.79      0.00
   -8   14    1      1.70      0.00
   -6   14    1      0.85      0.00
   -4   14    1     -0.34      0.00
   -2   14    1     -1.22      0.00
    0   14    1     -1.51      0.00
    2   14    1      0.94      0.00
    4   14    1      1.02      0.00
    6   14    1      0.95      0.00
    8   14    1      0.32      0.00
   -1   15    1      0.87      0.00
    1   15    1      0.33      0.00
  -24    0    2      7.89      0.00
  -22    0    2     -1.01      0.00
  -20    0    2     -0.06      0.00
  -18    0    2     -2.30      0.00
  -16    0    2     -1.73      0.00
  -14    0    2      1.17      0.00
  -12    0    2      0.36      0.00
  -10    0    2     -3.15      0.00
   -6    0    2     -0.38      0.00
   -4    0    2     20.22      0.00
   -2    0    2     -2.56      0.00
    0    0    2      5.03      0.00
    2    0    2     27.01      0.00
    4    0    2      5.83      0.00
    6    0    2      8.79      0.00
    8    0    2     -9.09      0.00
   10    0    2     -5.58      0.00
   12    0    2     -1.46      0.00
   14    0    2     -1.72      0.00
   16    0    2     -0.13      0.00
   18    0    2     -0.78      0.00
   20    0    2      1.22      0.00
   22    0    2     -0.25      0.00
   24    0    2      2.47      0.00
  -23    1    2     -1.83      0.00
  -21    1    2      0.36      0.00
  -19    1    2      1.19      0.00
  -17    1    2      1.01      0.00
  -15    1    2      1.00      0.00
  -13    1    2     -2.60      0.00
  -11    1    2      1.86      0.00
   -9    1    2      1.74      0.00
   -7    1    2      2.74      0.00
   -5    1    2     -5.45      0.00
   -3    1    2     -6.05      0.00
   -1    1    2     15.00      0.00
    1    1    2    -15.43      0.00
    3    1    2     -3.74      0.00
    5    1    2     -6.06      0.00
    7    1    2     -0.49      0.00
    9    1    2      6.81      0.00
   11    1    2      0.73      0.00
   13    1    2      1.99      0.00
   15    1    2      0.22      0.00
   17    1    2      0.87      0.00
   19    1    2     -0.26      0.00
   21    1    2      0.38      0.00
   23    1    2      0.05      0.00
  -24    2    2      3.53      0.00
  -22    2    2     -1.04      0.00
  -20    2    2      0.06      0.00
  -18    2    2      0.05      0.00
  -16    2    2      0.40      0.00
  -14    2    2      0.66      0.00
  -12    2    2      2.59      0.00
  -10    2    2     -2.49      0.00
   -8    2    2     -0.67      0.00
   -6    2    2     -2.48      0.00
   -4    2    2     -3.55      0.00
   -2    2    2    -20.64      0.00
    0    2    2    -12.11      0.00
    2    2    2     -7.78      0.00
    4    2    2     -9.72      0.00
    6    2    2      6.45      0.00
    8    2    2     -2.51      0.00
   10    2    2      1.20      0.00
   12    2    2      0.06      0.00
   14    2    2     -0.95      0.00
   16    2    2      0.23      0.00
   18    2    2     -1.11      0.00
   20    2    2     -0.37      0.00
   22    2    2     -1.96      0.00
  -23    3    2      1.86      0.00
  -21    3    2     -0.39      0.00
  -19    3    2      0.12      0.00
  -17    3    2     -2.54      0.00
  -15    3    2     -0.40      0.00
  -13    3    2     -2.30      0.00
  -11    3    2      0.20      0.00
   -9    3    2      2.02      0.00
   -7    3    2     -1.73      0.00
   -5    3    2      3.23      0.00
   -3    3    2     16.58      0.00
   -1    3    2     19.63      0.00
    1    3    2     12.68      0.00
    3    3    2     21.31      0.00
    5    3    2     -1.93      0.00
    7    3    2     -2.66      0.00
    9    3    2      0.75      0.00
   11    3    2     -2.57      0.00
   13    3    2     -0.26      0.00
   15    3    2      0.12      0.00
   17    3    2     -0.05      0.00
   19    3    2      1.13      0.00
   21    3    2      0.78      0.00
   23    3    2      2.10      0.00
  -22    4    2     -0.52      0.00
  -20    4    2      0.44      0.00
  -18    4    2      0.72      0.00
  -16    4    2      2.12      0.00
  -14    4    2      0.39      0.00
  -12    4    2     -0.67      0.00
  -10    4    2     -3.38      0.00
   -8    4    2      0.90      0.00
   -6    4    2      5.79      0.00
   -4    4    2     -2.48      0.00
   -2    4    2     -9.91      0.00
    0    4    2     -1.90      0.00
    2    4    2    -10.84      0.00
    4    4    2     -5.02      0.00
    6    4    2      8.06      0.00
    8    4    2     -3.54      0.00
   10    4    2     -1.29      0.00
   12    4    2      2.31      0.00
   14    4    2     -0.88      0.00
   16    4    2      0.79      0.00
   18    4    2      0.01      0.00
   20    4    2     -0.43      0.00
   22    4    2     -0.05      0.00
  -23    5    2      0.64      0.00
  -21    5    2     -1.34      0.00
  -19    5    2      0.74      0.00
  -17    5    2     -0.29      0.00
  -15    5    2     -0.72      0.00
  -13    5    2      2.44      0.00
  -11    5    2      4.77      0.00
   -9    5    2      3.52      0.00
   -7    5    2     -5.09      0.00
   -5    5    2     -8.48      0.00
   -3    5    2     -0.99      0.00
   -1    5    2     -7.78      0.00
    1    5    2     -9.56      0.00
    3    5    2      0.53      0.00
    5    5    2     -5.79      0.00
    7    5    2     -2.08      0.00
    9    5    2      6.78      0.00
   11    5    2     -0.73      0.00
   13    5    2      0.73      0.00
   15    5    2      1.13      0.00
   17    5    2     -2.19      0.00
   19    5    2      0.32      0.00
   21    5    2     -0.26      0.00
  -22    6    2      1.95      0.00
  -20    6    2     -0.06      0.00
  -18    6    2     -1.25      0.00
  -16    6    2     -0.28      0.00
  -14    6    2     -1.10      0.00
  -12    6    2     -4.35      0.00
  -10    6    2     -5.40      0.00
   -8    6    2     -2.52      0.00
   -6    6    2      7.61      0.00
   -4    6    2      3.11      0.00
   -2    6    2      4.37      0.00
    0    6    2     14.69      0.00
    2    6    2      8.92      0.00
    4    6    2      0.97      0.00
    6    6    2      3.33      0.00
    8    6    2     -2.63      0.00
   10    6    2     -2.31      0.00
   12    6    2      0.30      0.00
   14    6    2     -3.40      0.00
   16    6    2      1.49      0.00
   18    6    2      1.01      0.00
   20    6    2     -0.61      0.00
   22    6    2      0.33      0.00
  -21    7    2     -1.09      0.00
  -19    7    2      0.78      0.00
  -17    7    2      0.33      0.00
  -15    7    2      0.25      0.00
  -13    7    2      1.12      0.00
  -11    7    2      2.17      0.00
   -9    7    2      6.03      0.00
   -7    7    2      0.53      0.00
   -5    7    2     -3.00      0.00
   -3    7    2      5.37      0.00
   -1    7    2     -4.27      0.00
    1    7    2     -6.84      0.00
    3    7    2     -0.59      0.00
    5    7    2      2.24      0.00
    7    7    2     -1.18      0.00
    9    7    2      0.67      0.00
   11    7    2     -1.30      0.00
   13    7    2      2.14      0.00
   15    7    2      0.82      0.00
   17    7    2     -0.94      0.00
   19    7    2     -0.01      0.00
   21    7    2      0.87      0.00
  -20    8    2     -0.05      0.00
  -18    8    2      0.76      0.00
  -16    8    2      0.42      0.00
  -14    8    2      0.33      0.00
  -12    8    2      0.84      0.00
  -10    8    2     -0.72      0.00
   -8    8    2     -6.18      0.00
   -6    8    2      0.66      0.00
   -4    8    2     -4.95      0.00
   -2    8    2     -6.79      0.00
    0    8    2     -0.11      0.00
    2    8    2     -2.06      0.00
    4    8    2     -2.99      0.00
    6    8    2     -1.14      0.00
    8    8    2      1.30      0.00
   10    8    2      1.65      0.00
   12    8    2      0.58      0.00
   14    8    2     -0.26      0.00
   16    8    2     -0.14      0.00
   18    8    2      0.60      0.00
   20    8    2      0.10      0.00
  -19    9    2     -0.65      0.00
  -17    9    2     -1.49      0.00
  -15    9    2     -0.13      0.00
  -13    9    2     -0.30      0.00
  -11    9    2     -1.84      0.00
   -9    9    2      0.39      0.00
   -7    9    2      4.36      0.00
   -5    9    2      0.35      0.00
   -3    9    2      6.60      0.00
   -1    9    2      2.98      0.00
    1    9    2      2.86      0.00
    3    9    2      2.54      0.00
    5    9    2      0.81      0.00
    7    9    2      0.24      0.00
    9    9    2     -1.15      0.00
   11    9    2     -0.89      0.00
   13    9    2     -0.82      0.00
   15    9    2     -0.64      0.00
   17    9    2     -0.30      0.00
   19    9    2     -1.93      0.00
  -16   10    2     -0.05      0.00
  -14   10    2     -0.02      0.00
  -12   10    2     -1.01      0.00
  -10   10    2      3.58      0.00
   -8   10    2     -0.69      0.00
   -6   10    2     -1.53      0.00
   -4   10    2     -1.54      0.00
   -2   10    2     -2.47      0.00
    0   10    2      0.09      0.00
    2   10    2     -1.97      0.00
    4   10    2      0.43      0.00
    6   10    2     -0.31      0.00
    8   10    2     -0.72      0.00
   10   10    2      0.44      0.00
   12   10    2     -0.10      0.00
   14   10    2      0.61      0.00
   16   10    2      0.78      0.00
  -15   11    2      0.49      0.00
  -13   11    2      0.38      0.00
  -11   11    2     -0.44      0.00
   -9   11    2     -3.26      0.00
   -7   11    2      0.17      0.00
   -5   11    2     -0.19      0.00
   -3   11    2      1.48      0.00
   -1   11    2     -0.84      0.00
    1   11    2      0.11      0.00
    3   11    2      0.27      0.00
    5   11    2     -1.15      0.00
    7   11    2      1.37      0.00
    9   11    2      0.67      0.00
   11   11    2     -0.25      0.00
   13   11    2      0.80      0.00
   15   11    2     -0.49      0.00
  -12   12    2      0.26      0.00
  -10   12    2      1.77      0.00
   -8   12    2      0.13      0.00
   -6   12    2      2.09      0.00
   -4   12    2     -0.58      0.00
   -2   12    2     -0.28      0.00
    0   12    2      0.52      0.00
    2   12    2     -0.55      0.00
    4   12    2      0.54      0.00
    6   12    2      0.26      0.00
    8   12    2     -1.60      0.00
   10   12    2      0.18      0.00
   12   12    2      0.54      0.00
  -11   13    2     -1.45      0.00
   -9   13    2      1.34      0.00
   -7   13    2      0.15      0.00
   -5   13    2     -1.88      0.00
   -3   13    2      1.18      0.00
   -1   13    2     -0.40      0.00
    1   13    2     -0.77      0.00
    3   13    2      0.51      0.00
    5   13    2      0.06      0.00
    7   13    2      0.38      0.00
    9   13    2      1.17      0.00
   11   13    2     -1.28      0.00
   -8   14    2     -3.49      0.00
   -6   14    2      0.81      0.00
   -4   14    2     -0.42      0.00
   -2   14    2     -0.81      0.00
    0   14    2      1.56      0.00
    2   14    2      1.27      0.00
    4   14    2     -1.84      0.00
    6   14    2     -0.32      0.00
  -23    1    3      0.31      0.00
  -21    1    3      0.38      0.00
  -19    1    3     -1.27      0.00
  -17    1    3     -0.40      0.00
  -15    1    3     -2.00      0.00
  -13    1    3     -1.23      0.00
  -11    1    3     -1.85      0.00
   -9    1    3     -0.36      0.00
   -7    1    3      2.75      0.00
   -5    1    3     -1.05      0.00
   -3    1    3      2.11      0.00
   -1    1    3      6.16      0.00
    1    1    3      1.26      0.00
    3    1    3      5.22      0.00
    5    1    3      4.12      0.00
    7    1    3      4.20      0.00
    9    1    3      3.07      0.00
   11    1    3     -0.04      0.00
   13    1    3     -1.99      0.00
   15    1    3     -0.64      0.00
   17    1    3      0.79      0.00
   19    1    3      0.18      0.00
   21    1    3      0.33      0.00
   23    1    3     -0.87      0.00
  -22    2    3     -1.38      0.00
  -20    2    3      0.94      0.00
  -18    2    3      0.69      0.00
  -16    2    3      1.18      0.00
  -14    2    3      2.17      0.00
  -12    2    3      2.17      0.00
  -10    2    3      2.03      0.00
   -8    2    3     -2.50      0.00
   -6    2    3     -1.50      0.00
   -4    2    3      3.88      0.00
   -2    2    3     -4.47      0.00
    0    2    3      0.92      0.00
    2    2    3     -0.68      0.00
    4    2    3     -4.65      0.00
    6    2    3     -2.69      0.00
    8    2    3     -2.56      0.00
   10    2    3     -1.18      0.00
   12    2    3     -0.16      0.00
   14    2    3      1.33      0.00
   16    2    3     -1.06      0.00
   18    2    3     -0.25      0.00
   20    2    3     -0.35      0.00
   22    2    3      0.86      0.00
  -23    3    3     -0.09      0.00
  -21    3    3      0.63      0.00
  -19    3    3     -0.35      0.00
  -17    3    3      0.04      0.00
  -15    3    3     -0.14      0.00
  -13    3    3     -1.50      0.00
  -11    3    3     -1.86      0.00
   -9    3    3      1.01      0.00
   -7    3    3      2.39      0.00
   -5    3    3     -3.57      0.00
   -3    3    3     -4.55      0.00
   -1    3    3     -2.50      0.00
    1    3    3     -8.42      0.00
    3    3    3      0.67      0.00
    5    3    3     -2.64      0.00
    7    3    3     -1.39      0.00
    9    3    3     -2.49      0.00
   11    3    3      2.16      0.00
   13    3    3      1.00      0.00
   15    3    3      0.36      0.00
   17    3    3      1.17      0.00
   19    3    3     -0.42      0.00
   21    3    3     -0.56      0.00
  -22    4    3     -0.35      0.00
  -20    4    3     -0.50      0.00
  -18    4    3     -0.71      0.00
  -16    4    3     -0.73      0.00
  -14    4    3     -1.47      0.00
  -12    4    3      1.65      0.00
  -10    4    3     -1.26      0.00
   -8    4    3     -0.85      0.00
   -6    4    3      0.48      0.00
   -4    4    3      6.84      0.00
   -2    4    3      2.36      0.00
    0    4    3      8.17      0.00
    2    4    3      2.34      0.00
    4    4    3      3.46      0.00
    6    4    3      5.73      0.00
    8    4    3      3.30      0.00
   10    4    3      0.91      0.00
   12    4    3     -2.48      0.00
   14    4    3      0.73      0.00
   16    4    3     -1.35      0.00
   18    4    3     -0.16      0.00
   20    4    3      0.54      0.00
   22    4    3      1.49      0.00
  -21    5    3      0.24      0.00
  -19    5    3      0.62      0.00
  -17    5    3      0.40      0.00
  -15    5    3      0.57      0.00
  -13    5    3      0.39      0.00
  -11    5    3     -0.41      0.00
   -9    5    3      1.06      0.00
   -7    5    3     -0.96      0.00
   -5    5    3     -3.83      0.00
   -3    5    3     -2.17      0.00
   -1    5    3      0.28      0.00
    1    5    3     -1.74      0.00
    3    5    3      4.14      0.00
    5    5    3     -6.10      0.00
    7    5    3     -0.96      0.00
    9    5    3      0.45      0.00
   11    5    3      1.13      0.00
   13    5    3     -1.64      0.00
   15    5    3     -0.83      0.00
   17    5    3      1.00      0.00
   19    5    3      0.33      0.00
   21    5    3     -1.32      0.00
  -20    6    3      0.66      0.00
  -18    6    3     -0.37      0.00
  -16    6    3      2.20      0.00
  -14    6    3      0.86      0.00
  -12    6    3      1.13      0.00
  -10    6    3     -0.40      0.00
   -8    6    3      0.90      0.00
   -6    6    3      2.14      0.00
   -4    6    3      3.31      0.00
   -2    6    3     -3.93      0.00
    0    6    3     -0.20      0.00
    2    6    3     -6.46      0.00
    4    6    3     -2.27      0.00
    6    6    3      1.87      0.00
    8    6    3     -4.84      0.00
   10    6    3     -2.24      0.00
   12    6    3      0.97      0.00
   14    6    3      2.37      0.00
   16    6    3      0.17      0.00
   18    6    3     -0.72      0.00
   20    6    3     -0.20      0.00
  -21    7    3     -0.06      0.00
  -19    7    3     -1.59      0.00
  -17    7    3     -0.78      0.00
  -15    7    3     -4.42      0.00
  -13    7    3     -0.83      0.00
  -11    7    3     -1.23      0.00
   -9    7    3      1.21      0.00
   -7    7    3     -0.76      0.00
   -5    7    3     -2.98      0.00
   -3    7    3      0.02      0.00
   -1    7    3      0.85      0.00
    1    7    3     -0.25      0.00
    3    7    3      5.06      0.00
    5    7    3      0.00      0.00
    7    7    3      2.46      0.00
    9    7    3      3.97      0.00
   11    7    3      0.32      0.00
   13    7    3     -0.54      0.00
   15    7    3     -0.91      0.00
   17    7    3     -0.44      0.00
   19    7    3      0.99      0.00
  -20    8    3      1.64      0.00
  -18    8    3      0.37      0.00
  -16    8    3      2.83      0.00
  -14    8    3      0.88      0.00
  -12    8    3      1.14      0.00
  -10    8    3     -0.88      0.00
   -8    8    3     -2.11      0.00
   -6    8    3      0.64      0.00
   -4    8    3      2.78      0.00
   -2    8    3      0.66      0.00
    0    8    3      3.25      0.00
    2    8    3      1.81      0.00
    4    8    3     -0.94      0.00
    6    8    3      0.03      0.00
    8    8    3     -1.26      0.00
   10    8    3     -0.03      0.00
   12    8    3     -0.71      0.00
   14    8    3     -0.61      0.00
   16    8    3      0.39      0.00
   18    8    3      0.12      0.00
  -17    9    3     -0.09      0.00
  -15    9    3     -0.32      0.00
  -13    9    3      2.01      0.00
  -11    9    3     -2.13      0.00
   -9    9    3      1.89      0.00
   -7    9    3      1.45      0.00
   -5    9    3     -1.68      0.00
   -3    9    3     -2.01      0.00
   -1    9    3     -1.11      0.00
    1    9    3     -3.44      0.00
    3    9    3     -2.20      0.00
    5    9    3      0.75      0.00
    7    9    3     -0.84      0.00
    9    9    3     -0.95      0.00
   11    9    3     -0.41      0.00
   13    9    3      1.21      0.00
   15    9    3      1.03      0.00
   17    9    3      0.03      0.00
  -16   10    3      0.34      0.00
  -14   10    3     -3.63      0.00
  -12   10    3      1.13      0.00
  -10   10    3      2.40      0.00
   -8   10    3      0.02      0.00
   -6   10    3     -0.33      0.00
   -4   10    3      1.85      0.00
   -2   10    3     -0.51      0.00
    0   10    3      0.41      0.00
    2   10    3      1.66      0.00
    4   10    3     -0.94      0.00
    6   10    3     -0.44      0.00
    8   10    3      0.51      0.00
   10   10    3      0.67      0.00
   12   10    3     -0.78      0.00
   14   10    3     -0.56      0.00
   16   10    3     -1.69      0.00
  -15   11    3      1.03      0.00
  -13   11    3      1.53      0.00
  -11   11    3     -3.15      0.00
   -9   11    3     -2.89      0.00
   -7   11    3     -0.49      0.00
   -5   11    3      0.15      0.00
   -3   11    3      0.93      0.00
   -1   11    3      0.85      0.00
    1   11    3      0.02      0.00
    3   11    3      1.40      0.00
    5   11    3      1.29      0.00
    7   11    3      0.31      0.00
    9   11    3      0.42      0.00
   11   11    3      0.87      0.00
   13   11    3      0.25      0.00
  -12   12    3      1.12      0.00
  -10   12    3      1.78      0.00
   -8   12    3      2.24      0.00
   -6   12    3     -1.12      0.00
   -4   12    3     -1.85      0.00
   -2   12    3     -1.59      0.00
    0   12    3      0.40      0.00
    2   12    3     -1.47      0.00
    4   12    3     -0.71      0.00
    6   12    3      0.34      0.00
    8   12    3     -0.73      0.00
   10   12    3     -0.56      0.00
   12   12    3     -1.36      0.00
  -11   13    3     -0.46      0.00
   -9   13    3     -0.89      0.00
   -7   13    3     -0.09      0.00
   -5   13    3      2.18      0.00
   -3   13    3      2.21      0.00
   -1   13    3     -0.12      0.00
    1   13    3      0.96      0.00
    3   13    3      0.34      0.00
    5   13    3     -1.10      0.00
    7   13    3     -0.64      0.00
    9   13    3      0.17      0.00
   -6   14    3     -1.04      0.00
   -4   14    3     -1.31      0.00
   -2   14    3     -0.70      0.00
    0   14    3     -0.51      0.00
    2   14    3     -0.83      0.00
    4   14    3      0.32      0.00
  -22    0    4      2.90      0.00
  -20    0    4     -1.64      0.00
  -18    0    4     -1.31      0.00
  -16    0    4     -0.51      0.00
  -14    0    4     -0.86      0.00
  -12    0    4     -6.43      0.00
  -10    0    4     -2.12      0.00
   -8    0    4     10.14      0.00
   -6    0    4      2.27      0.00
   -4    0    4      7.77      0.00
   -2    0    4      6.66      0.00
    0    0    4    -11.26      0.00
    2    0    4      8.39      0.00
    4    0    4      3.83      0.00
    6    0    4      2.39      0.00
   10    0    4      2.60      0.00
   12    0    4      0.26      0.00
   16    0    4     -0.74      0.00
   18    0    4      1.01      0.00
   20    0    4      0.01      0.00
   22    0    4     -0.41      0.00
  -23    1    4     -3.06      0.00
  -21    1    4     -0.21      0.00
  -19    1    4      1.37      0.00
  -17    1    4      0.22      0.00
  -15    1    4      0.88      0.00
  -13    1    4      1.70      0.00
  -11    1    4      6.85      0.00
   -9    1    4     -5.45      0.00
   -7    1    4     -4.49      0.00
   -5    1    4     -1.63      0.00
   -3    1    4     -8.54      0.00
   -1    1    4      5.83      0.00
    1    1    4      2.98      0.00
    3    1    4     -7.07      0.00
    5    1    4     -0.62      0.00
    7    1    4      2.57      0.00
    9    1    4      5.29      0.00
   11    1    4     -4.02      0.00
   13    1    4      0.96      0.00
   15    1    4      0.44      0.00
   17    1    4      0.49      0.00
   19    1    4      0.03      0.00
   21    1    4      0.02      0.00
  -22    2    4     -1.47      0.00
  -20    2    4      1.04      0.00
  -18    2    4     -0.09      0.00
  -16    2    4     -0.67      0.00
  -14    2    4      0.69      0.00
  -12    2    4     -3.22      0.00
  -10    2    4     -1.12      0.00
   -8    2    4      2.65      0.00
   -6    2    4     -0.76      0.00
   -4    2    4      1.63      0.00
   -2    2    4     -0.13      0.00
    0    2    4     -7.86      0.00
    2    2    4      4.02      0.00
    4    2    4     -3.52      0.00
    6    2    4      0.50      0.00
    8    2    4     -7.47      0.00
   10    2    4      0.53      0.00
   12    2    4      1.15      0.00
   14    2    4      0.75      0.00
   16    2    4     -1.09      0.00
   18    2    4     -0.44      0.00
   20    2    4     -1.23      0.00
  -21    3    4      0.38      0.00
  -19    3    4     -2.09      0.00
  -17    3    4      0.67      0.00
  -15    3    4     -0.45      0.00
  -13    3    4     -1.67      0.00
  -11    3    4      2.16      0.00
   -9    3    4     -0.48      0.00
   -7    3    4      1.56      0.00
   -5    3    4     -0.08      0.00
   -3    3    4      0.16      0.00
   -1    3    4      4.05      0.00
    1    3    4     -1.16      0.00
    3    3    4      2.31      0.00
    5    3    4      5.45      0.00
    7    3    4      0.54      0.00
    9    3    4      4.67      0.00
   11    3    4     -0.65      0.00
   13    3    4      0.67      0.00
   15    3    4     -1.25      0.00
   17    3    4     -0.44      0.00
   19    3    4      0.94      0.00
   21    3    4      0.78      0.00
  -22    4    4     -2.67      0.00
  -20    4    4      1.99      0.00
  -18    4    4      0.50      0.00
  -16    4    4     -0.73      0.00
  -14    4    4      2.60      0.00
  -12    4    4      0.79      0.00
  -10    4    4     -0.71      0.00
   -8    4    4      0.01      0.00
   -6    4    4      0.82      0.00
   -4    4    4      2.67      0.00
   -2    4    4      0.44      0.00
    0    4    4      1.45      0.00
    2    4    4      4.30      0.00
    4    4    4     -8.04      0.00
    6    4    4      0.37      0.00
    8    4    4     -1.53      0.00
   10    4    4     -1.51      0.00
   12    4    4     -3.67      0.00
   14    4    4      0.12      0.00
   16    4    4      1.87      0.00
   18    4    4      1.90      0.00
   20    4    4     -1.84      0.00
  -21    5    4     -0.63      0.00
  -19    5    4     -0.31      0.00
  -17    5    4      0.09      0.00
  -15    5    4      0.22      0.00
  -13    5    4     -2.88      0.00
  -11    5    4      0.81      0.00
   -9    5    4     -0.98      0.00
   -7    5    4     -1.09      0.00
   -5    5    4     -3.45      0.00
   -3    5    4     -4.40      0.00
   -1    5    4     -1.67      0.00
    1    5    4     -6.31      0.00
    3    5    4      1.10      0.00
    5    5    4      3.30      0.00
    7    5    4     -1.87      0.00
    9    5    4      1.64      0.00
   11    5    4      2.45      0.00
   13    5    4      3.32      0.00
   15    5    4     -0.67      0.00
   17    5    4     -2.06      0.00
   19    5    4     -0.12      0.00
  -20    6    4     -0.20      0.00
  -18    6    4     -0.50      0.00
  -16    6    4     -0.76      0.00
  -14    6    4      0.28      0.00
  -12    6    4      0.78      0.00
  -10    6    4     -0.31      0.00
   -8    6    4      1.00      0.00
   -6    6    4     -0.40      0.00
   -4    6    4      2.79      0.00
   -2    6    4      1.09      0.00
    0    6    4      1.75      0.00
    2    6    4      1.83      0.00
    4    6    4     -3.27      0.00
    6    6    4      1.65      0.00
    8    6    4     -1.49      0.00
   10    6    4      0.08      0.00
   12    6    4     -1.35      0.00
   14    6    4     -0.62      0.00
   16    6    4     -1.03      0.00
   18    6    4      0.74      0.00
  -19    7    4      1.31      0.00
  -17    7    4      0.76      0.00
  -15    7    4      1.21      0.00
  -13    7    4     -0.05      0.00
  -11    7    4      0.30      0.00
   -9    7    4     -0.43      0.00
   -7    7    4      2.48      0.00
   -5    7    4      2.34      0.00
   -3    7    4      1.74      0.00
   -1    7    4      2.68      0.00
    1    7    4      1.70      0.00
    3    7    4      4.30      0.00
    5    7    4     -0.09      0.00
    7    7    4      0.14      0.00
    9    7    4      0.82      0.00
   11    7    4     -2.02      0.00
   13    7    4     -0.88      0.00
   15    7    4      1.54      0.00
   17    7    4      1.63      0.00
  -18    8    4     -1.29      0.00
  -16    8    4     -1.14      0.00
  -14    8    4     -0.50      0.00
  -12    8    4     -0.59      0.00
  -10    8    4      0.80      0.00
   -8    8    4     -0.86      0.00
   -6    8    4     -2.89      0.00
   -4    8    4     -2.76      0.00
   -2    8    4     -4.35      0.00
    0    8    4     -3.75      0.00
    2    8    4     -4.77      0.00
    4    8    4     -2.59      0.00
    6    8    4      0.99      0.00
    8    8    4     -1.09      0.00
   10    8    4      0.65      0.00
   12    8    4      0.92      0.00
   14    8    4      0.15      0.00
   16    8    4     -2.46      0.00
  -17    9    4      1.43      0.00
  -15    9    4      0.01      0.00
  -13    9    4      0.87      0.00
  -11    9    4     -0.44      0.00
   -9    9    4     -1.40      0.00
   -7    9    4      0.13      0.00
   -5    9    4     -0.62      0.00
   -3    9    4      1.60      0.00
   -1    9    4      3.30      0.00
    1    9    4      2.32      0.00
    3    9    4      1.27      0.00
    5    9    4     -0.07      0.00
    7    9    4     -0.07      0.00
    9    9    4      1.37      0.00
   11    9    4      1.76      0.00
   13    9    4      0.79      0.00
   15    9    4      1.33      0.00
  -16   10    4     -0.02      0.00
  -14   10    4     -0.59      0.00
  -12   10    4     -0.38      0.00
  -10   10    4      1.33      0.00
   -8   10    4      1.00      0.00
   -6   10    4      2.17      0.00
   -4   10    4      2.79      0.00
   -2   10    4     -0.85      0.00
    0   10    4     -1.01      0.00
    2   10    4      1.95      0.00
    4   10    4      1.10      0.00
    6   10    4      0.16      0.00
    8   10    4     -1.07      0.00
   10   10    4     -2.65      0.00
   12   10    4     -2.22      0.00
   14   10    4     -1.10      0.00
  -13   11    4      0.90      0.00
  -11   11    4     -0.58      0.00
   -9   11    4      0.31      0.00
   -7   11    4     -0.14      0.00
   -5   11    4     -2.48      0.00
   -3   11    4     -1.42      0.00
   -1   11    4      0.32      0.00
    1   11    4     -1.83      0.00
    3   11    4     -1.82      0.00
    5   11    4     -0.42      0.00
    7   11    4      0.17      0.00
    9   11    4      1.16      0.00
   11   11    4      0.59      0.00
   13   11    4      0.55      0.00
  -12   12    4      0.54      0.00
  -10   12    4     -1.26      0.00
   -8   12    4     -1.91      0.00
   -6   12    4     -0.29      0.00
   -4   12    4      0.68      0.00
   -2   12    4      0.29      0.00
    0   12    4      1.52      0.00
    2   12    4      0.12      0.00
    4   12    4     -0.31      0.00
    6   12    4      0.63      0.00
    8   12    4     -0.12      0.00
   10   12    4      1.50      0.00
   -7   13    4      1.16      0.00
   -5   13    4      0.46      0.00
   -3   13    4      0.40      0.00
   -1   13    4     -1.76      0.00
    1   13    4     -0.01      0.00
    3   13    4      1.84      0.00
    5   13    4     -0.68      0.00
    7   13    4     -0.11      0.00
  -21    1    5     -0.28      0.00
  -19    1    5      0.22      0.00
  -17    1    5     -0.98      0.00
  -15    1    5     -1.26      0.00
  -13    1    5     -0.94      0.00
  -11    1    5      1.77      0.00
   -9    1    5     -1.13      0.00
   -7    1    5     -2.05      0.00
   -5    1    5      0.88      0.00
   -3    1    5      0.13      0.00
   -1    1    5      3.78      0.00
    1    1    5      2.23      0.00
    3    1    5      1.32      0.00
    5    1    5      2.40      0.00
    7    1    5      1.68      0.00
    9    1    5      0.97      0.00
   11    1    5      0.27      0.00
   13    1    5      1.34      0.00
   15    1    5     -0.64      0.00
   17    1    5     -1.53      0.00
   19    1    5     -0.23      0.00
  -22    2    5      1.66      0.00
  -20    2    5     -0.31      0.00
  -18    2    5      1.07      0.00
  -16    2    5      1.21      0.00
  -14    2    5      1.72      0.00
  -12    2    5     -0.46      0.00
  -10    2    5     -0.95      0.00
   -8    2    5      2.97      0.00
   -6    2    5      0.03      0.00
   -4    2    5     -0.57      0.00
   -2    2    5     -0.64      0.00
    0    2    5     -4.50      0.00
    2    2    5      0.11      0.00
    4    2    5     -2.03      0.00
    6    2    5      0.00      0.00
    8    2    5     -2.15      0.00
   10    2    5      0.60      0.00
   12    2    5     -0.57      0.00
   14    2    5     -0.40      0.00
   16    2    5      1.11      0.00
   18    2    5      0.74      0.00
   20    2    5     -0.15      0.00
  -21    3    5      0.13      0.00
  -19    3    5     -1.15      0.00
  -17    3    5     -0.63      0.00
  -15    3    5     -0.30      0.00
  -13    3    5     -0.41      0.00
  -11    3    5      0.67      0.00
   -9    3    5     -0.71      0.00
   -7    3    5     -0.83      0.00
   -3    3    5     -1.60      0.00
   -1    3    5      0.25      0.00
    1    3    5     -0.24      0.00
    3    3    5     -0.88      0.00
    5    3    5     -1.88      0.00
    7    3    5     -1.51      0.00
    9    3    5      0.60      0.00
   11    3    5     -1.70      0.00
   13    3    5      0.06      0.00
   15    3    5      0.49      0.00
   17    3    5     -0.01      0.00
   19    3    5      0.31      0.00
  -20    4    5      0.84      0.00
  -18    4    5      0.91      0.00
  -16    4    5     -1.08      0.00
  -14    4    5     -0.57      0.00
  -12    4    5     -1.04      0.00
  -10    4    5     -0.17      0.00
   -8    4    5     -0.40      0.00
   -6    4    5     -0.33      0.00
   -4    4    5      0.16      0.00
   -2    4    5      2.59      0.00
    0    4    5      1.22      0.00
    2    4    5      2.78      0.00
    4    4    5      0.23      0.00
    6    4    5      4.15      0.00
    8    4    5      0.03      0.00
   10    4    5      1.29      0.00
   12    4    5      0.35      0.00
   14    4    5     -0.70      0.00
   16    4    5     -1.06      0.00
   18    4    5      0.35      0.00
  -21    5    5      1.25      0.00
  -19    5    5     -1.64      0.00
  -17    5    5      0.91      0.00
  -15    5    5      0.51      0.00
  -13    5    5      1.41      0.00
  -11    5    5      1.92      0.00
   -9    5    5      0.51      0.00
   -7    5    5      0.12      0.00
   -5    5    5     -0.21      0.00
   -3    5    5     -0.82      0.00
   -1    5    5     -0.28      0.00
    1    5    5     -2.67      0.00
    3    5    5     -0.22      0.00
    5    5    5      0.49      0.00
    7    5    5     -1.07      0.00
    9    5    5      0.40      0.00
   11    5    5     -0.33      0.00
   13    5    5      1.52      0.00
   15    5    5      0.84      0.00
   17    5    5     -1.29      0.00
  -20    6    5      0.19      0.00
  -18    6    5      0.51      0.00
  -16    6    5     -0.10      0.00
  -14    6    5      0.80      0.00
  -12    6    5     -2.34      0.00
  -10    6    5     -1.70      0.00
   -8    6    5      0.85      0.00
   -6    6    5      0.77      0.00
   -4    6    5      0.83      0.00
   -2    6    5     -1.10      0.00
    0    6    5     -0.20      0.00
    2    6    5      2.87      0.00
    4    6    5     -2.73      0.00
    6    6    5     -0.91      0.00
    8    6    5     -2.06      0.00
   10    6    5      0.75      0.00
   12    6    5     -1.52      0.00
   14    6    5     -1.01      0.00
   16    6    5      1.27      0.00
   18    6    5      2.78      0.00
  -19    7    5     -0.14      0.00
  -17    7    5      0.00      0.00
  -15    7    5     -1.58      0.00
  -13    7    5     -0.50      0.00
  -11    7    5      2.06      0.00
   -9    7    5     -0.22      0.00
   -7    7    5     -1.90      0.00
   -5    7    5     -1.07      0.00
   -3    7    5     -0.97      0.00
   -1    7    5      0.92      0.00
    1    7    5     -3.10      0.00
    3    7    5     -0.57      0.00
    5    7    5      1.06      0.00
    7    7    5      1.66      0.00
    9    7    5      0.52      0.00
   11    7    5     -1.24      0.00
   13    7    5      1.37      0.00
   15    7    5     -0.41      0.00
  -18    8    5     -0.94      0.00
  -16    8    5     -0.13      0.00
  -14    8    5      1.51      0.00
  -12    8    5     -0.19      0.00
  -10    8    5     -0.80      0.00
   -8    8    5      1.47      0.00
   -6    8    5      1.59      0.00
   -4    8    5      1.32      0.00
   -2    8    5      1.35      0.00
    0    8    5      2.75      0.00
    2    8    5      2.32      0.00
    4    8    5     -0.25      0.00
    6    8    5      1.06      0.00
    8    8    5     -0.83      0.00
   10    8    5      2.11      0.00
   12    8    5      0.13      0.00
   14    8    5     -0.44      0.00
  -17    9    5      2.42      0.00
  -15    9    5     -0.37      0.00
  -13    9    5     -0.08      0.00
  -11    9    5      0.34      0.00
   -9    9    5      0.16      0.00
   -7    9    5     -1.98      0.00
   -5    9    5     -1.04      0.00
   -3    9    5     -0.35      0.00
   -1    9    5     -1.81      0.00
    1    9    5     -2.12      0.00
    3    9    5      1.10      0.00
    5    9    5     -0.17      0.00
    7    9    5     -1.03      0.00
    9    9    5     -0.68      0.00
   11    9    5     -1.02      0.00
   13    9    5      0.24      0.00
  -14   10    5      0.34      0.00
  -12   10    5     -1.13      0.00
  -10   10    5     -0.13      0.00
   -8   10    5      0.96      0.00
   -6   10    5      2.32      0.00
   -4   10    5     -0.32      0.00
   -2   10    5     -1.69      0.00
    0   10    5      0.12      0.00
    2   10    5     -0.51      0.00
    4   10    5     -2.06      0.00
    6   10    5     -0.13      0.00
    8   10    5      0.23      0.00
   10   10    5     -0.59      0.00
   12   10    5      0.26      0.00
  -11   11    5      0.47      0.00
   -9   11    5     -0.65      0.00
   -7   11    5     -2.24      0.00
   -5   11    5     -1.65      0.00
   -3   11    5      1.81      0.00
   -1   11    5      2.94      0.00
    1   11    5     -0.03      0.00
    3   11    5     -0.10      0.00
    5   11    5      1.35      0.00
    7   11    5      0.21      0.00
    9   11    5      1.83      0.00
   -8   12    5      1.36      0.00
   -6   12    5      1.71      0.00
   -4   12    5      0.95      0.00
   -2   12    5     -2.22      0.00
    0   12    5     -0.91      0.00
    2   12    5      2.03      0.00
    4   12    5      1.11      0.00
    6   12    5     -0.07      0.00
   -3   13    5     -0.26      0.00
   -1   13    5      0.98      0.00
    1   13    5     -0.99      0.00
  -20    0    6      2.06      0.00
  -18    0    6     -0.81      0.00
  -16    0    6     -0.44      0.00
  -14    0    6      1.08      0.00
  -12    0    6      2.03      0.00
  -10    0    6      0.68      0.00
   -8    0    6      1.03      0.00
   -6    0    6      0.63      0.00
   -4    0    6      2.90      0.00
    0    0    6     -1.88      0.00
    2    0    6      1.72      0.00
    4    0    6     13.28      0.00
    6    0    6      1.02      0.00
    8    0    6     -0.06      0.00
   10    0    6     -0.15      0.00
   12    0    6      2.91      0.00
   14    0    6      0.53      0.00
   16    0    6     -0.20      0.00
   18    0    6     -0.48      0.00
  -19    1    6     -0.56      0.00
  -17    1    6      0.57      0.00
  -15    1    6     -0.33      0.00
  -13    1    6     -1.47      0.00
  -11    1    6     -0.69      0.00
   -9    1    6     -0.14      0.00
   -7    1    6     -1.09      0.00
   -5    1    6     -0.21      0.00
   -3    1    6     -2.98      0.00
   -1    1    6     -0.59      0.00
    1    1    6      3.78      0.00
    3    1    6     -8.11      0.00
    5    1    6     -5.24      0.00
    7    1    6     -0.04      0.00
    9    1    6     -0.73      0.00
   11    1    6     -2.03      0.00
   13    1    6     -1.19      0.00
   15    1    6     -0.31      0.00
   17    1    6      0.21      0.00
  -20    2    6      1.23      0.00
  -18    2    6      0.42      0.00
  -16    2    6      0.04      0.00
  -14    2    6      0.37      0.00
  -12    2    6      0.15      0.00
  -10    2    6     -1.44      0.00
   -8    2    6      0.86      0.00
   -6    2    6     -0.18      0.00
   -4    2    6     -0.81      0.00
   -2    2    6     -1.12      0.00
    0    2    6     -3.83      0.00
    2    2    6      0.10      0.00
    4    2    6      3.86      0.00
    6    2    6     -0.56      0.00
    8    2    6      2.99      0.00
   10    2    6      1.41      0.00
   12    2    6      1.77      0.00
   14    2    6     -0.33      0.00
   16    2    6      1.13      0.00
   18    2    6      0.69      0.00
  -19    3    6     -0.08      0.00
  -17    3    6     -0.94      0.00
  -15    3    6      0.68      0.00
  -13    3    6      0.50      0.00
  -11    3    6      1.33      0.00
   -9    3    6      0.98      0.00
   -7    3    6     -1.19      0.00
   -5    3    6      1.36      0.00
   -3    3    6      1.36      0.00
   -1    3    6      2.61      0.00
    1    3    6      0.73      0.00
    3    3    6     -1.52      0.00
    5    3    6      1.46      0.00
    7    3    6     -2.15      0.00
    9    3    6     -0.91      0.00
   11    3    6     -0.95      0.00
   13    3    6     -0.10      0.00
   15    3    6     -0.80      0.00
   17    3    6     -1.20      0.00
  -18    4    6      0.66      0.00
  -16    4    6      0.39      0.00
  -14    4    6     -1.59      0.00
  -12    4    6      0.00      0.00
  -10    4    6     -0.74      0.00
   -8    4    6      0.52      0.00
   -6    4    6      0.45      0.00
   -4    4    6     -0.50      0.00
   -2    4    6      0.42      0.00
    0    4    6      1.03      0.00
    2    4    6      2.54      0.00
    4    4    6     -0.54      0.00
    6    4    6      0.42      0.00
    8    4    6      0.67      0.00
   10    4    6     -2.40      0.00
   12    4    6      1.08      0.00
   14    4    6     -0.10      0.00
   16    4    6      1.03      0.00
  -19    5    6      0.81      0.00
  -17    5    6     -1.24      0.00
  -15    5    6      0.55      0.00
  -13    5    6      0.47      0.00
  -11    5    6     -1.41      0.00
   -9    5    6      0.09      0.00
   -7    5    6     -0.85      0.00
   -5    5    6      0.03      0.00
   -3    5    6     -1.19      0.00
   -1    5    6     -2.43      0.00
    1    5    6     -2.87      0.00
    3    5    6     -0.79      0.00
    5    5    6      1.00      0.00
    7    5    6     -1.30      0.00
    9    5    6      2.77      0.00
   11    5    6      0.16      0.00
   13    5    6     -0.66      0.00
   15    5    6      0.72      0.00
  -18    6    6      0.24      0.00
  -16    6    6      0.80      0.00
  -14    6    6     -0.76      0.00
  -12    6    6      0.80      0.00
  -10    6    6      0.54      0.00
   -8    6    6     -0.09      0.00
   -6    6    6      0.15      0.00
   -4    6    6     -0.25      0.00
   -2    6    6      0.93      0.00
    0    6    6      1.54      0.00
    2    6    6      0.44      0.00
    4    6    6     -2.13      0.00
    6    6    6     -0.60      0.00
    8    6    6      0.19      0.00
   10    6    6      0.04      0.00
   12    6    6      2.06      0.00
   14    6    6     -1.51      0.00
   16    6    6     -0.95      0.00
  -17    7    6     -0.44      0.00
  -15    7    6      0.41      0.00
  -13    7    6      0.95      0.00
  -11    7    6      0.33      0.00
   -9    7    6      0.75      0.00
   -7    7    6      0.15      0.00
   -5    7    6      0.50      0.00
   -3    7    6      0.92      0.00
   -1    7    6      0.50      0.00
    1    7    6      0.61      0.00
    3    7    6      1.92      0.00
    5    7    6      2.66      0.00
    7    7    6      0.62      0.00
    9    7    6     -1.32      0.00
   11    7    6     -2.91      0.00
   13    7    6     -0.17      0.00
  -16    8    6      0.00      0.00
  -14    8    6     -1.60      0.00
  -12    8    6     -0.94      0.00
  -10    8    6     -1.39      0.00
   -8    8    6     -0.29      0.00
   -6    8    6     -0.28      0.00
   -4    8    6     -0.40      0.00
   -2    8    6     -0.98      0.00
    0    8    6     -0.71      0.00
    2    8    6     -1.38      0.00
    4    8    6     -1.21      0.00
    6    8    6     -1.86      0.00
    8    8    6     -0.83      0.00
   10    8    6      1.34      0.00
   12    8    6      1.01      0.00
  -13    9    6      0.70      0.00
  -11    9    6      0.13      0.00
   -9    9    6      0.57      0.00
   -7    9    6     -0.14      0.00
   -5    9    6      0.00      0.00
   -3    9    6      0.13      0.00
   -1    9    6     -0.22      0.00
    1    9    6      0.33      0.00
    3    9    6     -0.07      0.00
    5    9    6     -0.70      0.00
    7    9    6      1.24      0.00
    9    9    6      1.73      0.00
   11    9    6      1.08      0.00
  -12   10    6      1.10      0.00
  -10   10    6      0.44      0.00
   -8   10    6      0.01      0.00
   -6   10    6      0.03      0.00
   -4   10    6     -0.22      0.00
   -2   10    6     -0.35      0.00
    0   10    6      0.87      0.00
    2   10    6      0.31      0.00
    4   10    6      1.80      0.00
    6   10    6      1.87      0.00
    8   10    6     -0.66      0.00
   -9   11    6     -0.10      0.00
   -7   11    6      0.33      0.00
   -5   11    6      0.34      0.00
   -3   11    6      1.83      0.00
   -1   11    6      0.60      0.00
    1   11    6     -0.71      0.00
    3   11    6     -0.63      0.00
    5   11    6     -2.09      0.00
   -4   12    6     -1.35      0.00
   -2   12    6     -2.44      0.00
    0   12    6     -0.14      0.00
  -19    1    7      0.69      0.00
  -17    1    7      0.23      0.00
  -15    1    7      0.42      0.00
  -13    1    7      0.19      0.00
  -11    1    7     -0.57      0.00
   -9    1    7     -0.29      0.00
   -7    1    7      1.88      0.00
   -5    1    7      0.73      0.00
   -3    1    7     -1.15      0.00
   -1    1    7      1.28      0.00
    1    1    7      3.26      0.00
    3    1    7      0.92      0.00
    5    1    7      0.64      0.00
    7    1    7      0.16      0.00
    9    1    7      0.25      0.00
   11    1    7      0.00      0.00
   13    1    7     -1.25      0.00
   15    1    7     -2.08      0.00
  -18    2    7     -0.85      0.00
  -16    2    7     -1.19      0.00
  -14    2    7     -0.93      0.00
  -12    2    7     -0.23      0.00
  -10    2    7      0.61      0.00
   -8    2    7     -1.23      0.00
   -6    2    7     -1.69      0.00
   -4    2    7      1.04      0.00
   -2    2    7      0.96      0.00
    0    2    7     -2.14      0.00
    2    2    7     -0.38      0.00
    4    2    7      0.55      0.00
    6    2    7     -0.26      0.00
    8    2    7      1.21      0.00
   10    2    7      0.17      0.00
   12    2    7      0.34      0.00
   14    2    7      1.97      0.00
   16    2    7      2.46      0.00
  -17    3    7      1.32      0.00
  -15    3    7      2.08      0.00
  -13    3    7      0.73      0.00
  -11    3    7      0.52      0.00
   -9    3    7      0.58      0.00
   -7    3    7      0.66      0.00
   -5    3    7     -0.62      0.00
   -3    3    7     -1.15      0.00
   -1    3    7     -0.27      0.00
    1    3    7     -1.80      0.00
    3    3    7     -3.37      0.00
    5    3    7      0.24      0.00
    7    3    7     -1.49      0.00
    9    3    7     -1.93      0.00
   11    3    7     -0.11      0.00
   13    3    7      0.37      0.00
   15    3    7     -1.58      0.00
  -18    4    7      0.07      0.00
  -16    4    7     -2.00      0.00
  -14    4    7     -0.97      0.00
  -12    4    7     -0.72      0.00
  -10    4    7     -0.88      0.00
   -8    4    7     -0.68      0.00
   -6    4    7      1.52      0.00
   -4    4    7      0.33      0.00
   -2    4    7     -0.07      0.00
    0    4    7      0.67      0.00
    2    4    7      4.22      0.00
    4    4    7      0.31      0.00
    6    4    7     -0.94      0.00
    8    4    7      1.74      0.00
   10    4    7      1.10      0.00
   12    4    7     -0.87      0.00
   14    4    7     -0.74      0.00
  -17    5    7     -0.18      0.00
  -15    5    7      0.99      0.00
  -13    5    7     -0.07      0.00
  -11    5    7      0.52      0.00
   -9    5    7      1.08      0.00
   -7    5    7     -0.53      0.00
   -5    5    7     -0.76      0.00
   -3    5    7      0.23      0.00
   -1    5    7      1.55      0.00
    1    5    7     -0.65      0.00
    3    5    7     -0.44      0.00
    5    5    7      2.96      0.00
    7    5    7      0.52      0.00
    9    5    7     -0.40      0.00
   11    5    7     -0.44      0.00
   13    5    7      1.09      0.00
  -16    6    7     -0.01      0.00
  -14    6    7      0.73      0.00
  -12    6    7     -0.02      0.00
  -10    6    7      0.15      0.00
   -8    6    7     -1.11      0.00
   -6    6    7      0.55      0.00
   -4    6    7      0.18      0.00
   -2    6    7     -0.09      0.00
    0    6    7     -2.07      0.00
    2    6    7      0.06      0.00
    4    6    7     -2.65      0.00
    6    6    7     -1.45      0.00
    8    6    7     -0.49      0.00
   10    6    7      0.53      0.00
   12    6    7      0.11      0.00
  -15    7    7     -0.81      0.00
  -13    7    7     -0.85      0.00
  -11    7    7     -0.57      0.00
   -9    7    7     -0.08      0.00
   -7    7    7      0.49      0.00
   -5    7    7     -0.33      0.00
   -3    7    7     -0.84      0.00
   -1    7    7      0.58      0.00
    1    7    7     -0.23      0.00
    3    7    7      0.14      0.00
    5    7    7      0.75      0.00
    7    7    7     -0.22      0.00
    9    7    7     -0.55      0.00
   11    7    7     -0.69      0.00
  -12    8    7      0.39      0.00
  -10    8    7      1.19      0.00
   -8    8    7     -0.14      0.00
   -6    8    7      0.52      0.00
   -4    8    7     -0.41      0.00
   -2    8    7      0.02      0.00
    0    8    7      0.22      0.00
    2    8    7      1.55      0.00
    4    8    7      0.51      0.00
    6    8    7      0.88      0.00
    8    8    7      0.90      0.00
   10    8    7      1.34      0.00
  -11    9    7     -0.58      0.00
   -9    9    7     -0.50      0.00
   -7    9    7     -0.45      0.00
   -5    9    7      0.62      0.00
   -3    9    7      1.78      0.00
   -1    9    7      0.34      0.00
    1    9    7     -0.21      0.00
    3    9    7     -0.43      0.00
    5    9    7     -0.71      0.00
    7    9    7     -0.59      0.00
   -8   10    7     -0.23      0.00
   -6   10    7     -0.01      0.00
   -4   10    7     -2.26      0.00
   -2   10    7     -0.66      0.00
    0   10    7     -0.54      0.00
    2   10    7     -1.01      0.00
    4   10    7     -0.36      0.00
  -16    0    8     -3.74      0.00
  -14    0    8      1.13      0.00
  -12    0    8      1.09      0.00
  -10    0    8     -1.60      0.00
   -8    0    8     -1.02      0.00
   -6    0    8      2.93      0.00
   -4    0    8     -0.17      0.00
   -2    0    8      1.07      0.00
    0    0    8      5.29      0.00
    2    0    8      1.09      0.00
    4    0    8      3.09      0.00
    6    0    8     -0.12      0.00
    8    0    8     -1.79      0.00
   10    0    8      2.43      0.00
  -15    1    8      0.71      0.00
  -13    1    8     -0.90      0.00
  -11    1    8     -0.08      0.00
   -9    1    8      1.75      0.00
   -7    1    8     -0.33      0.00
   -5    1    8     -0.79      0.00
   -3    1    8      0.74      0.00
   -1    1    8     -2.63      0.00
    1    1    8     -1.84      0.00
    3    1    8     -0.72      0.00
    5    1    8     -3.08      0.00
    7    1    8      1.14      0.00
    9    1    8     -0.65      0.00
   11    1    8     -3.35      0.00
   13    1    8     -2.53      0.00
  -16    2    8     -1.71      0.00
  -14    2    8      0.07      0.00
  -12    2    8     -0.16      0.00
  -10    2    8      0.08      0.00
   -8    2    8     -1.20      0.00
   -6    2    8     -2.15      0.00
   -4    2    8     -0.21      0.00
   -2    2    8     -0.23      0.00
    0    2    8     -0.12      0.00
    2    2    8     -1.67      0.00
    4    2    8      1.84      0.00
    8    2    8      0.98      0.00
   10    2    8      1.25      0.00
   12    2    8      2.00      0.00
  -15    3    8     -0.01      0.00
  -13    3    8      0.74      0.00
  -11    3    8     -0.06      0.00
   -9    3    8     -0.36      0.00
   -7    3    8      3.12      0.00
   -5    3    8      1.97      0.00
   -3    3    8     -1.21      0.00
   -1    3    8      1.22      0.00
    1    3    8      1.82      0.00
    3    3    8      1.06      0.00
    5    3    8     -1.81      0.00
    7    3    8     -2.33      0.00
    9    3    8     -1.22      0.00
   11    3    8      0.31      0.00
  -14    4    8     -0.17      0.00
  -12    4    8     -0.34      0.00
  -10    4    8     -0.01      0.00
   -8    4    8     -0.76      0.00
   -6    4    8     -2.46      0.00
   -4    4    8      0.97      0.00
   -2    4    8      0.61      0.00
    0    4    8     -0.74      0.00
    2    4    8      0.22      0.00
    4    4    8      0.04      0.00
    6    4    8      0.77      0.00
    8    4    8      1.90      0.00
   10    4    8     -0.69      0.00
  -13    5    8     -0.17      0.00
  -11    5    8      0.19      0.00
   -9    5    8      0.91      0.00
   -7    5    8     -0.03      0.00
   -5    5    8      0.03      0.00
   -3    5    8     -0.61      0.00
   -1    5    8      0.37      0.00
    1    5    8     -1.54      0.00
    3    5    8     -2.11      0.00
    5    5    8      0.42      0.00
    7    5    8     -0.48      0.00
    9    5    8     -0.33      0.00
  -12    6    8      0.75      0.00
  -10    6    8     -0.68      0.00
   -8    6    8     -0.17      0.00
   -6    6    8      1.33      0.00
   -4    6    8     -0.35      0.00
   -2    6    8     -1.01      0.00
    0    6    8     -0.53      0.00
    2    6    8      2.44      0.00
    4    6    8      1.16      0.00
    6    6    8     -0.47      0.00
    8    6    8      0.18      0.00
  -11    7    8     -0.97      0.00
   -9    7    8      0.60      0.00
   -7    7    8     -0.59      0.00
   -5    7    8     -0.73      0.00
   -3    7    8      0.40      0.00
   -1    7    8      1.91      0.00
    1    7    8      0.65      0.00
    3    7    8     -0.32      0.00
    5    7    8      0.04      0.00
   -8    8    8     -1.11      0.00
   -6    8    8      0.38      0.00
   -4    8    8      1.47      0.00
   -2    8    8     -0.10      0.00
    0    8    8     -1.63      0.00
    2    8    8     -1.71      0.00
    4    8    8     -1.27      0.00
  -11    1    9     -0.47      0.00
   -9    1    9      0.79      0.00
   -7    1    9     -0.52      0.00
   -5    1    9      0.51      0.00
   -3    1    9      3.23      0.00
   -1    1    9      2.24      0.00
    1    1    9      3.69      0.00
    3    1    9      2.81      0.00
    5    1    9     -0.86      0.00
    7    1    9     -3.92      0.00
  -12    2    9     -0.17      0.00
  -10    2    9      0.22      0.00
   -8    2    9     -0.48      0.00
   -6    2    9      1.49      0.00
   -4    2    9     -2.54      0.00
   -2    2    9     -2.72      0.00
    0    2    9     -2.21      0.00
    2    2    9     -3.74      0.00
    4    2    9     -0.39      0.00
    6    2    9      4.49      0.00
  -11    3    9     -0.33      0.00
   -9    3    9     -0.08      0.00
   -7    3    9     -0.55      0.00
   -5    3    9     -0.52      0.00
   -3    3    9      1.58      0.00
   -1    3    9     -0.17      0.00
    1    3    9      0.59      0.00
    3    3    9      1.00      0.00
    5    3    9     -2.77      0.00
  -10    4    9      0.93      0.00
   -8    4    9     -0.20      0.00
   -6    4    9     -0.06      0.00
   -4    4    9      0.31      0.00
   -2    4    9      0.42      0.00
    0    4    9      1.14      0.00
    2    4    9     -0.57      0.00
    4    4    9     -0.37      0.00
    6    4    9      2.42      0.00
   -9    5    9     -0.46      0.00
   -7    5    9      0.92      0.00
   -5    5    9      0.08      0.00
   -3    5    9     -0.74      0.00
   -1    5    9     -0.47      0.00
    1    5    9      0.58      0.00
    3    5    9      2.39      0.00
    5    5    9      1.08      0.00
   -6    6    9     -0.16      0.00
   -4    6    9      0.41      0.00
   -2    6    9      1.00      0.00
    0    6    9     -0.63      0.00
    2    6    9     -1.44      0.00
    2    0    0     40.01      0.00
   25    1    0      3.87      0.00
   13   13    0      0.91      0.00
   10   14    0      1.15      0.00
    3   15    0     -1.28      0.00
  -25    1    1      0.31      0.00
  -24    4    1     -0.78      0.00
   24    4    1      0.55      0.00
   17   11    1     -1.01      0.00
  -13   13    1     -0.21      0.00
   -3   15    1     -1.69      0.00
    3   15    1     -1.33      0.00
   -8    0    2     -1.62      0.00
  -25    1    2     -7.58      0.00
   24    2    2     -1.43      0.00
  -24    4    2     -2.03      0.00
  -18   10    2      1.45      0.00
   18   10    2      2.00      0.00
  -17   11    2     -0.35      0.00
  -14   12    2      0.58      0.00
   14   12    2     -0.65      0.00
    8   14    2     -0.75      0.00
  -24    2    3      1.44      0.00
   23    3    3     -1.22      0.00
  -23    5    3      0.48      0.00
  -22    6    3     -0.54      0.00
  -19    9    3     -1.04      0.00
  -18   10    3     -0.55      0.00
   15   11    3      0.50      0.00
  -14   12    3     -0.80      0.00
    6   14    3      1.05      0.00
  -24    0    4      4.61      0.00
    8    0    4     -7.57      0.00
   14    0    4     -0.92      0.00
   22    2    4      0.54      0.00
  -23    3    4      3.24      0.00
   20    6    4     -0.89      0.00
  -21    7    4     -0.58      0.00
   19    7    4      0.14      0.00
  -20    8    4     -0.32      0.00
   18    8    4     -0.30      0.00
  -15   11    4      0.05      0.00
   -9   13    4      2.51      0.00
  -23    1    5     -1.83      0.00
   -5    3    5      1.09      0.00
  -22    4    5     -1.30      0.00
   19    5    5     -0.86      0.00
   17    7    5     -2.20      0.00
   16    8    5      0.16      0.00
   15    9    5      0.57      0.00
  -13   11    5      1.15      0.00
   11   11    5      0.54      0.00
  -10   12    5      0.33      0.00
    8   12    5     -1.07      0.00
   -5   13    5     -0.75      0.00
    3   13    5     -1.81      0.00
   -2    0    6      5.22      0.00
  -21    1    6     -2.54      0.00
   19    1    6     -0.46      0.00
  -21    3    6     -0.37      0.00
  -20    4    6     -1.23      0.00
   18    4    6      0.26      0.00
   17    5    6     -0.18      0.00
   15    7    6      2.05      0.00
   14    8    6     -0.95      0.00
  -15    9    6      0.65      0.00
   10   10    6     -2.67      0.00
    7   11    6     -2.33      0.00
    2   12    6     -0.19      0.00
  -19    3    7      0.50      0.00
  -14    8    7      1.37      0.00
    9    9    7     -1.59      0.00
    6   10    7      0.37      0.00
   -1   11    7     -0.72      0.00
   12    0    8      4.33      0.00
  -17    1    8      3.87      0.00
    6    2    8      2.31      0.00
   13    3    8      0.22      0.00
   12    4    8     -1.34      0.00
   11    5    8      1.10      0.00
   10    6    8     -0.30      0.00
    7    7    8      0.19      0.00
    6    8    8     -0.06      0.00
   -5    9    8     -1.23      0.00
   -3    9    8     -1.85      0.00
   -1    9    8      0.17      0.00
    1    9    8      0.70      0.00
  -13    1    9      0.17      0.00
    9    1    9     -2.17      0.00
    8    2    9      4.49      0.00
    7    3    9     -4.35      0.00
   -8    6    9     -0.15      0.00
    4    6    9     -2.45      0.00
   -3    7    9     -0.78      0.00
   -1    7    9     -0.78      0.00
   -6    0   10     -0.82      0.00
   -4    0   10     -0.38      0.00
   -2    0   10     -1.83      0.00
    0    0   10      0.09      0.00
    2    0   10      0.33      0.00
   -5    1   10      0.43      0.00
   -3    1   10      0.65      0.00
   -1    1   10      0.72      0.00
    1    1   10     -1.05      0.00
   -4    2   10     -0.16      0.00
   -2    2   10      0.00      0.00
    0    2   10      0.59      0.00
    0    0    0      0.00      0.00
;
_shelx_fab_checksum              6357
loop_
_space_group_symop_operation_xyz
'x, y, z'
'-x, y, -z+1/2'
'x+1/2, y+1/2, z'
'-x+1/2, y+1/2, -z+1/2'
'-x, -y, -z'
'x, -y, z-1/2'
'-x+1/2, -y+1/2, -z'
'x+1/2, -y+1/2, z-1/2'
loop_
_atom_site_label
_atom_site_type_symbol
_atom_site_fract_x
_atom_site_fract_y
_atom_site_fract_z
_atom_site_U_iso_or_equiv
_atom_site_adp_type
_atom_site_occupancy
_atom_site_site_symmetry_order
_atom_site_calc_flag
_atom_site_refinement_flags_posn
_atom_site_refinement_flags_adp
_atom_site_refinement_flags_occupancy
_atom_site_disorder_assembly
_atom_site_disorder_group
Sm1 Sm 0.5000 0.48435(4) 0.7500 0.0351(2) Uani 1 2 d S T P . .
C1 C 0.6399(3) 0.3795(6) 0.6514(7) 0.0397(14) Uani 1 1 d . . . . .
C2 C 0.7029(3) 0.3229(6) 0.6499(8) 0.0441(15) Uani 1 1 d . . . . .
C3 C 0.7441(3) 0.3172(7) 0.7900(8) 0.0535(19) Uani 1 1 d . . . . .
H3 H 0.7324 0.3504 0.8877 0.064 Uiso 1 1 calc R U . . .
C4 C 0.7199(3) 0.2775(6) 0.5006(8) 0.0439(15) Uani 1 1 d . . . . .
C5 C 0.6791(3) 0.2832(6) 0.3546(7) 0.0432(15) Uani 1 1 d . . . . .
C6 C 0.6958(3) 0.2384(7) 0.2115(8) 0.0494(17) Uani 1 1 d . . . . .
H6 H 0.6674 0.2445 0.1143 0.059 Uiso 1 1 calc R U . . .
C7 C 0.6175(3) 0.3436(6) 0.3552(8) 0.0394(13) Uani 1 1 d . . . . .
N1 N 0.6033(2) 0.3863(5) 0.5015(6) 0.0399(12) Uani 1 1 d . . . . .
O1 O 0.6180(2) 0.4186(4) 0.7730(5) 0.0464(11) Uani 1 1 d . . . . .
O2 O 0.54620(19) 0.4429(4) 0.5011(5) 0.0397(9) Uani 1 1 d . . . . .
O3 O 0.5778(2) 0.3589(4) 0.2326(5) 0.0463(11) Uani 1 1 d . . . . .
O1W O 0.5000 0.2910(7) 0.7500 0.070(2) Uani 1 2 d S T P . .
H1WA H 0.5116 0.2442 0.8385 0.105 Uiso 0.5 1 d R U P . .
H1WB H 0.4884 0.2442 0.6615 0.105 Uiso 0.5 1 d R U P . .
loop_
_atom_site_aniso_label
_atom_site_aniso_U_11
_atom_site_aniso_U_22
_atom_site_aniso_U_33
_atom_site_aniso_U_23
_atom_site_aniso_U_13
_atom_site_aniso_U_12
Sm1 0.0179(3) 0.0659(3) 0.0219(3) 0.000 0.00375(16) 0.000
C1 0.025(3) 0.068(4) 0.026(3) 0.002(3) 0.002(2) 0.005(3)
C2 0.025(3) 0.078(4) 0.029(3) -0.005(3) 0.001(2) 0.009(3)
C3 0.032(3) 0.097(5) 0.030(3) -0.004(3) -0.002(3) 0.022(3)
C4 0.027(3) 0.073(4) 0.031(3) -0.007(3) 0.002(2) 0.007(3)
C5 0.024(3) 0.080(4) 0.024(3) 0.000(3) 0.000(2) 0.012(3)
C6 0.030(3) 0.085(5) 0.033(3) -0.008(3) -0.002(3) 0.016(3)
C7 0.023(3) 0.064(4) 0.031(3) -0.001(3) 0.001(2) 0.005(2)
N1 0.020(2) 0.066(3) 0.033(3) 0.003(2) 0.004(2) 0.010(2)
O1 0.025(2) 0.085(3) 0.029(2) -0.004(2) 0.0017(17) 0.013(2)
O2 0.0204(19) 0.078(3) 0.020(2) 0.0024(19) 0.0005(15) 0.009(2)
O3 0.029(2) 0.078(3) 0.030(2) -0.003(2) -0.0028(18) 0.010(2)
O1W 0.062(5) 0.073(5) 0.075(6) 0.000 0.012(4) 0.000
loop_
_atom_type_symbol
_atom_type_description
_atom_type_scat_dispersion_real
_atom_type_scat_dispersion_imag
_atom_type_scat_source
C C 0.0181 0.0091 'International Tables Vol C Tables 4.2.6.8 and 6.1.1.4'
H H 0.0000 0.0000 'International Tables Vol C Tables 4.2.6.8 and 6.1.1.4'
N N 0.0311 0.0180 'International Tables Vol C Tables 4.2.6.8 and 6.1.1.4'
O O 0.0492 0.0322 'International Tables Vol C Tables 4.2.6.8 and 6.1.1.4'
Sm Sm -5.3236 12.2178 'International Tables Vol C Tables 4.2.6.8 and 6.1.1.4'
Cl Cl 0.3639 0.7018 'International Tables Vol C Tables 4.2.6.8 and 6.1.1.4'
loop_
_geom_angle_atom_site_label_1
_geom_angle_atom_site_label_2
_geom_angle_atom_site_label_3
_geom_angle
_geom_angle_site_symmetry_1
_geom_angle_site_symmetry_3
_geom_angle_publ_flag
O2 Sm1 O2 135.5(3) 6_566 5_666 ?
O2 Sm1 O1W 112.26(12) 6_566 . ?
O2 Sm1 O1W 112.26(13) 5_666 . ?
O2 Sm1 O2 131.79(18) 6_566 . ?
O2 Sm1 O2 59.73(17) 5_666 . ?
O1W Sm1 O2 77.62(13) . . ?
O2 Sm1 O2 59.73(17) 6_566 2_656 ?
O2 Sm1 O2 131.79(18) 5_666 2_656 ?
O1W Sm1 O2 77.63(13) . 2_656 ?
O2 Sm1 O2 155.3(3) . 2_656 ?
O2 Sm1 O3 63.29(14) 6_566 6_566 ?
O2 Sm1 O3 82.48(15) 5_666 6_566 ?
O1W Sm1 O3 140.00(11) . 6_566 ?
O2 Sm1 O3 79.16(16) . 6_566 ?
O2 Sm1 O3 121.09(15) 2_656 6_566 ?
O2 Sm1 O3 82.48(15) 6_566 5_666 ?
O2 Sm1 O3 63.29(14) 5_666 5_666 ?
O1W Sm1 O3 140.00(11) . 5_666 ?
O2 Sm1 O3 121.09(15) . 5_666 ?
O2 Sm1 O3 79.16(16) 2_656 5_666 ?
O3 Sm1 O3 80.0(2) 6_566 5_666 ?
O2 Sm1 O1 75.48(14) 6_566 . ?
O2 Sm1 O1 119.42(14) 5_666 . ?
O1W Sm1 O1 71.49(12) . . ?
O2 Sm1 O1 62.98(13) . . ?
O2 Sm1 O1 108.56(15) 2_656 . ?
O3 Sm1 O1 69.02(16) 6_566 . ?
O3 Sm1 O1 147.61(17) 5_666 . ?
O2 Sm1 O1 119.42(14) 6_566 2_656 ?
O2 Sm1 O1 75.48(15) 5_666 2_656 ?
O1W Sm1 O1 71.49(12) . 2_656 ?
O2 Sm1 O1 108.56(15) . 2_656 ?
O2 Sm1 O1 62.98(13) 2_656 2_656 ?
O3 Sm1 O1 147.61(17) 6_566 2_656 ?
O3 Sm1 O1 69.02(16) 5_666 2_656 ?
O1 Sm1 O1 143.0(2) . 2_656 ?
O1 C1 N1 119.2(5) . . ?
O1 C1 C2 125.3(6) . . ?
N1 C1 C2 115.5(5) . . ?
C3 C2 C4 121.5(6) . . ?
C3 C2 C1 119.8(6) . . ?
C4 C2 C1 118.7(6) . . ?
C2 C3 C6 119.7(6) . 7_656 ?
C2 C3 H3 120.2 . . ?
C6 C3 H3 120.2 7_656 . ?
C5 C4 C4 118.6(7) . 7_656 ?
C5 C4 C2 122.8(6) . . ?
C4 C4 C2 118.6(7) 7_656 . ?
C6 C5 C4 122.3(6) . . ?
C6 C5 C7 119.3(5) . . ?
C4 C5 C7 118.4(6) . . ?
C5 C6 C3 119.3(6) . 7_656 ?
C5 C6 H6 120.3 . . ?
C3 C6 H6 120.3 7_656 . ?
O3 C7 N1 118.2(5) . . ?
O3 C7 C5 125.1(6) . . ?
N1 C7 C5 116.7(5) . . ?
C7 N1 O2 116.4(5) . . ?
C7 N1 C1 127.9(5) . . ?
O2 N1 C1 115.6(5) . . ?
C1 O1 Sm1 118.6(4) . . ?
N1 O2 Sm1 118.4(3) . 5_666 ?
N1 O2 Sm1 121.0(3) . . ?
Sm1 O2 Sm1 120.27(17) 5_666 . ?
C7 O3 Sm1 116.3(4) . 5_666 ?
Sm1 O1W H1WA 127.8 . . ?
Sm1 O1W H1WB 127.8 . . ?
H1WA O1W H1WB 104.4 . . ?
loop_
_geom_bond_atom_site_label_1
_geom_bond_atom_site_label_2
_geom_bond_distance
_geom_bond_site_symmetry_2
_geom_bond_publ_flag
Sm1 O2 2.368(4) 6_566 ?
Sm1 O2 2.368(4) 5_666 ?
Sm1 O1W 2.384(9) . ?
Sm1 O2 2.384(4) . ?
Sm1 O2 2.384(4) 2_656 ?
Sm1 O3 2.524(5) 6_566 ?
Sm1 O3 2.524(5) 5_666 ?
Sm1 O1 2.554(4) . ?
Sm1 O1 2.554(4) 2_656 ?
C1 O1 1.229(7) . ?
C1 N1 1.387(8) . ?
C1 C2 1.475(8) . ?
C2 C3 1.369(9) . ?
C2 C4 1.419(9) . ?
C3 C6 1.416(9) 7_656 ?
C3 H3 0.9500 . ?
C4 C5 1.403(9) . ?
C4 C4 1.413(12) 7_656 ?
C5 C6 1.370(9) . ?
C5 C7 1.471(8) . ?
C6 C3 1.416(9) 7_656 ?
C6 H6 0.9500 . ?
C7 O3 1.253(7) . ?
C7 N1 1.366(8) . ?
N1 O2 1.368(6) . ?
O2 Sm1 2.368(4) 5_666 ?
O3 Sm1 2.524(5) 5_666 ?
O1W H1WA 0.9416 . ?
O1W H1WB 0.9416 . ?
loop_
_geom_torsion_atom_site_label_1
_geom_torsion_atom_site_label_2
_geom_torsion_atom_site_label_3
_geom_torsion_atom_site_label_4
_geom_torsion
_geom_torsion_site_symmetry_1
_geom_torsion_site_symmetry_2
_geom_torsion_site_symmetry_3
_geom_torsion_site_symmetry_4
_geom_torsion_publ_flag
O1 C1 C2 C3 -4.4(12) . . . . ?
N1 C1 C2 C3 176.3(7) . . . . ?
O1 C1 C2 C4 177.0(7) . . . . ?
N1 C1 C2 C4 -2.2(10) . . . . ?
C4 C2 C3 C6 -2.3(13) . . . 7_656 ?
C1 C2 C3 C6 179.2(7) . . . 7_656 ?
C3 C2 C4 C5 -179.1(8) . . . . ?
C1 C2 C4 C5 -0.6(11) . . . . ?
C3 C2 C4 C4 2.0(14) . . . 7_656 ?
C1 C2 C4 C4 -179.5(8) . . . 7_656 ?
C4 C4 C5 C6 -0.6(14) 7_656 . . . ?
C2 C4 C5 C6 -179.5(7) . . . . ?
C4 C4 C5 C7 -178.0(8) 7_656 . . . ?
C2 C4 C5 C7 3.1(11) . . . . ?
C4 C5 C6 C3 0.9(12) . . . 7_656 ?
C7 C5 C6 C3 178.3(7) . . . 7_656 ?
C6 C5 C7 O3 -0.5(11) . . . . ?
C4 C5 C7 O3 177.0(7) . . . . ?
C6 C5 C7 N1 179.8(7) . . . . ?
C4 C5 C7 N1 -2.6(10) . . . . ?
O3 C7 N1 O2 -0.1(9) . . . . ?
C5 C7 N1 O2 179.6(6) . . . . ?
O3 C7 N1 C1 180.0(6) . . . . ?
C5 C7 N1 C1 -0.3(10) . . . . ?
O1 C1 N1 C7 -176.5(7) . . . . ?
C2 C1 N1 C7 2.7(10) . . . . ?
O1 C1 N1 O2 3.5(9) . . . . ?
C2 C1 N1 O2 -177.2(6) . . . . ?
N1 C1 O1 Sm1 9.1(8) . . . . ?
C2 C1 O1 Sm1 -170.1(5) . . . . ?
C7 N1 O2 Sm1 -22.2(7) . . . 5_666 ?
C1 N1 O2 Sm1 157.7(4) . . . 5_666 ?
C7 N1 O2 Sm1 164.3(4) . . . . ?
C1 N1 O2 Sm1 -15.7(7) . . . . ?
N1 C7 O3 Sm1 20.5(8) . . . 5_666 ?
C5 C7 O3 Sm1 -159.1(5) . . . 5_666 ?
