#------------------------------------------------------------------------------
#$Date: 2019-11-24 04:12:18 +0200 (Sun, 24 Nov 2019) $
#$Revision: 236652 $
#$URL: file:///home/coder/svn-repositories/cod/cif/8/00/03/8000372.cif $
#------------------------------------------------------------------------------
#
# This file is available in the Crystallography Open Database (COD),
# http://www.crystallography.net/
#
# All data on this site have been placed in the public domain by the
# contributors.
#
data_8000372
loop_
_publ_author_name
'Andrzejewski, Micha\/l'
'Katrusiak, Andrzej'
_publ_section_title
;
 Piezochromic Porous Metal-Organic Framework.
;
_journal_issue                   1
_journal_name_full               'The journal of physical chemistry letters'
_journal_page_first              279
_journal_page_last               284
_journal_paper_doi               10.1021/acs.jpclett.6b02458
_journal_volume                  8
_journal_year                    2017
_chemical_formula_moiety         'C14 H16 Co N2 O5, 2(H)'
_chemical_formula_sum            'C14 H18 Co N2 O5'
_chemical_formula_weight         353.23
_chemical_name_common            AMU1
_chemical_name_systematic
;
Co(1,4-benzenedicarboxylate)(1,4-diazabicyclo[2.2.2]octane)H2O
;
_space_group_crystal_system      triclinic
_space_group_IT_number           1
_space_group_name_Hall           'P 1'
_space_group_name_H-M_alt        'P 1'
_atom_sites_solution_hydrogens   mixed
_atom_sites_solution_primary     direct
_audit_creation_date             2016-07-12
_audit_creation_method
;
Olex2 1.2
(compiled 2016.02.19 svn.r3266 for OlexSys, GUI svn.r5155)
;
_cell_angle_alpha                89.92(2)
_cell_angle_beta                 95.20(6)
_cell_angle_gamma                92.71(2)
_cell_formula_units_Z            1
_cell_length_a                   6.006(2)
_cell_length_b                   7.0672(8)
_cell_length_c                   10.657(6)
_cell_measurement_reflns_used    885
_cell_measurement_temperature    296(2)
_cell_measurement_theta_max      53.774
_cell_measurement_theta_min      9.776
_cell_volume                     450.0(3)
_computing_molecular_graphics    'Olex2 (Dolomanov et al., 2009)'
_computing_publication_material  'Olex2 (Dolomanov et al., 2009)'
_computing_structure_refinement  'ShelXL (Sheldrick, 2015)'
_computing_structure_solution    'ShelXS (Sheldrick, 2008)'
_diffrn_ambient_temperature      293(2)
_diffrn_measured_fraction_theta_full 0.254
_diffrn_measured_fraction_theta_max 0.237
_diffrn_measurement_device_type  'multiwire proportional'
_diffrn_measurement_method       'phi and omega scans'
_diffrn_radiation_monochromator  graphite
_diffrn_radiation_type           MoK\a
_diffrn_radiation_wavelength     0.71073
_diffrn_reflns_av_R_equivalents  0.0774
_diffrn_reflns_av_unetI/netI     0.1111
_diffrn_reflns_Laue_measured_fraction_full 0.254
_diffrn_reflns_Laue_measured_fraction_max 0.237
_diffrn_reflns_limit_h_max       7
_diffrn_reflns_limit_h_min       -7
_diffrn_reflns_limit_k_max       8
_diffrn_reflns_limit_k_min       -8
_diffrn_reflns_limit_l_max       5
_diffrn_reflns_limit_l_min       -5
_diffrn_reflns_number            2359
_diffrn_reflns_point_group_measured_fraction_full 0.254
_diffrn_reflns_point_group_measured_fraction_max 0.237
_diffrn_reflns_theta_full        26.000
_diffrn_reflns_theta_max         26.887
_diffrn_reflns_theta_min         4.888
_exptl_absorpt_coefficient_mu    0.974
_exptl_absorpt_correction_T_max  0.909
_exptl_absorpt_correction_T_min  0.892
_exptl_absorpt_correction_type   multi-scan
_exptl_absorpt_process_details
;
Data were collected and reduced by program CrysAlisPro, 
and SCALE3 ABSPACK was used for absorption correction
;
_exptl_crystal_colour            orange
_exptl_crystal_density_diffrn    1.303
_exptl_crystal_description       plate
_exptl_crystal_F_000             183
_exptl_crystal_size_max          0.3
_exptl_crystal_size_mid          0.1
_exptl_crystal_size_min          0.1
_refine_diff_density_max         1.280
_refine_diff_density_min         -0.960
_refine_diff_density_rms         0.197
_refine_ls_abs_structure_details
;
 Refined as a perfect inversion twin.
;
_refine_ls_abs_structure_Flack   0.5
_refine_ls_extinction_method     none
_refine_ls_goodness_of_fit_ref   1.543
_refine_ls_hydrogen_treatment    constr
_refine_ls_matrix_type           full
_refine_ls_number_parameters     78
_refine_ls_number_reflns         885
_refine_ls_number_restraints     12
_refine_ls_restrained_S_all      1.532
_refine_ls_R_factor_all          0.2342
_refine_ls_R_factor_gt           0.1823
_refine_ls_shift/su_max          0.000
_refine_ls_shift/su_mean         0.000
_refine_ls_structure_factor_coef Fsqd
_refine_ls_weighting_details
'w=1/[\s^2^(Fo^2^)+(0.2000P)^2^] where P=(Fo^2^+2Fc^2^)/3'
_refine_ls_weighting_scheme      calc
_refine_ls_wR_factor_gt          0.3995
_refine_ls_wR_factor_ref         0.4299
_reflns_Friedel_coverage         1.000
_reflns_Friedel_fraction_full    0.254
_reflns_Friedel_fraction_max     0.237
_reflns_number_gt                585
_reflns_number_total             885
_reflns_threshold_expression     'I > 2\s(I)'
_cod_data_source_file            jz6b02458_si_004.cif
_cod_data_source_block           041GPa_P1
_cod_database_code               8000372
_shelx_space_group_comment
;
The symmetry employed for this shelxl refinement is uniquely defined
by the following loop, which should always be used as a source of
symmetry information in preference to the above space-group names.
They are only intended as comments.
;
_olex2_refinement_description
;
1. Fixed Uiso
 At 1.2 times of:
  All C(H) groups, All C(H,H) groups
 At 1.5 times of:
  All O(H,H) groups
2. Restrained distances
 O1-C7
 1.23 with sigma of 0.001
 C7-O2
 1.23 with sigma of 0.001
 O4-C8
 1.23 with sigma of 0.001
 C8-O3
 1.23 with sigma of 0.001
 C4-C8
 1.38 with sigma of 0.001
 C7-C1
 1.38 with sigma of 0.001
 O1-C7
 1.23 with sigma of 0.001
 C7-O2
 1.23 with sigma of 0.001
3.a Rotating group:
 O1W(H1WA,H1WB)
3.b Secondary CH2 refined with riding coordinates:
 C11(H11,H11B), C9(H9A,H9B), C12(H12,H12B), C10(H10A,H10B), C14(H14A,H14B),
 C13(H13A,H13B)
3.c Aromatic/amide H refined with riding coordinates:
 C6(H6), C5(H5), C3(H3), C2(H2)
3.d Fitted hexagon refined as free rotating group:
 C1(C6,C5,C4,C3,C2)
;
_shelx_hkl_file
;
   7   3  -3   36.32   13.79
   7   3  -2   27.92   13.05
   7   3  -1   -5.57    9.36
   7   2  -4    4.63   10.49
   7   2  -3    6.69    9.59
   7   2  -2  -10.87   10.64
   7   2  -2    7.68    8.64
   7   2  -1   26.14   11.60
   7   1  -3    8.83   11.89
   7   1  -2   21.38   11.41
   7   1  -1  -16.53   10.84
   7   0  -4   25.38   12.75
   7   0  -3   -0.17    8.33
   7   0  -3    9.60    9.87
   7   0  -2   18.02    9.61
   7   0  -2   21.59    9.95
   7   0  -1    5.33    9.95
   7   0  -1   10.84    9.69
   7   0   0   21.85    9.64
   7  -1  -3   -1.33    8.84
   7  -1  -3  -21.12   10.57
   7  -1  -2    6.63    9.95
   7  -1  -2   19.63   11.03
   7  -1  -1   -1.63    8.57
   7  -1  -1   16.75   10.70
   7  -1   0    7.23    9.05
   7  -1   0   -0.81    9.70
   7  -2  -3  -19.48   11.02
   6   5  -1  -18.75    9.29
   6   4  -5    1.04   10.32
   6   4  -4    1.58   10.56
   6   4  -4    8.06    7.76
   6   4  -4   14.95    8.79
   6   4  -3    7.68    9.85
   6   4  -3   21.00    9.79
   6   4  -3   19.87    9.90
   6   4  -2   12.28   11.51
   6   4  -2   30.32   10.66
   6   4  -2   -1.99    8.59
   6   4  -1    8.16    7.92
   6   4  -1   26.91   11.46
   6   4  -1   24.85   11.92
   6   3  -4   26.77   11.36
   6   3  -4   43.86   12.39
   6   3  -4   20.05    8.82
   6   3  -3   53.10   13.33
   6   3  -3   35.47   11.20
   6   3  -3   41.27   11.45
   6   3  -2   21.48    8.92
   6   3  -2   22.89   11.40
   6   3  -2    9.40    7.89
   6   3  -1    6.30    7.49
   6   3  -1   16.52    6.89
   6   2  -4   13.36    8.16
   6   2  -4    3.78    8.52
   6   2  -4    9.45    6.82
   6   2  -3   23.63    9.17
   6   2  -3   37.65   12.16
   6   2  -3   23.70    9.69
   6   2  -2    9.87    7.93
   6   2  -2    7.03    7.94
   6   2  -2   -1.29    7.29
   6   2  -1   67.48   14.48
   6   2  -1   51.81   15.14
   6   2   0   15.72    8.67
   6   2   0   10.22    8.87
   6   1  -4   22.99    9.17
   6   1  -4   25.88   10.26
   6   1  -3   42.41   11.74
   6   1  -3   43.75   11.44
   6   1  -2   22.52   10.04
   6   1  -2   26.90    9.69
   6   1  -1   51.63   11.81
   6   1  -1   13.01    7.85
   6   1   0   21.74    9.52
   6   1   0   28.97    9.01
   6   0  -4   43.75   11.55
   6   0  -3   76.41   12.01
   6   0  -3   87.60   14.65
   6   0  -2   40.64   10.87
   6   0  -2   47.65   10.73
   6   0  -1   25.34    8.77
   6   0  -1   46.48   10.81
   6   0   0   44.66   11.74
   6   0   0   27.23    9.29
   6  -1  -4   21.87    8.73
   6  -1  -4   13.91    8.89
   6  -1  -3   33.15   10.68
   6  -1  -3   13.73    8.53
   6  -1  -2   22.96    8.45
   6  -1  -2   39.74   11.23
   6  -1  -1   29.45   10.42
   6  -1  -1   39.13   10.86
   6  -1   0   29.77    9.95
   6  -1   0   25.52    8.73
   6  -2  -3  -19.56    9.06
   6  -2  -3    8.23   10.58
   6  -2  -2    7.48    7.65
   6  -2  -2   12.21    7.36
   6  -2  -1   16.61    8.60
   6  -2  -1    4.06    8.22
   6  -2   0   -9.41    7.99
   6  -2   0    5.61    7.47
   6  -2   1    5.09    8.19
   6  -3  -3    4.08    7.58
   6  -3  -2   13.31    9.39
   6  -3  -1   15.31   10.46
   6  -3   0    7.26    9.39
   6  -3   1    3.09    9.98
   6  -4  -3   15.38   10.34
   6  -4  -2    3.92    9.65
   6  -4  -1   17.19   11.18
   6  -4   0    8.95    8.02
   6  -4   0   -5.48   10.34
   6  -4   1   12.11    9.83
   6  -4   1   10.02    8.81
   5   6  -4   -4.02    8.33
   5   6  -4   24.52   11.63
   5   6  -3   16.54    9.69
   5   6  -3    1.39    8.94
   5   6  -3   16.49   10.49
   5   6  -2   -6.16   10.79
   5   6  -2   13.92   10.91
   5   6  -2   13.86    8.26
   5   6  -1   10.49    9.61
   5   6  -1    4.23    9.53
   5   5  -5   19.93   11.27
   5   5  -5   14.57    9.25
   5   5  -4  -10.68    8.99
   5   5  -4   10.79   10.73
   5   5  -4    5.99    7.55
   5   5  -3   -0.81    8.35
   5   5  -3    5.58    8.27
   5   5  -3    7.70    7.45
   5   5  -2    2.21    8.04
   5   5  -2    5.39    9.48
   5   5  -2    0.51    6.38
   5   5  -1    5.78    7.21
   5   5  -1    8.94    9.38
   5   5  -1  -10.81    8.74
   5   4  -5   -8.77    6.98
   5   4  -5   -1.86    9.13
   5   4  -4    8.96    9.22
   5   4  -4   -1.28    7.09
   5   4  -3   -7.08    7.65
   5   4  -3    6.41    8.10
   5   4  -2   20.78    9.94
   5   4  -2   -3.42    6.63
   5   4  -2    7.16    8.14
   5   4  -1    6.00    7.66
   5   4  -1   11.70    7.90
   5   4  -1   11.40    9.06
   5   4   0   15.83   10.10
   5   4   0   -6.70    7.56
   5   4   0   -2.91    7.81
   5   3  -4   18.31    8.62
   5   3  -4   14.62    8.07
   5   3  -4    5.59    7.56
   5   3  -3   30.42    9.75
   5   3  -3   59.74   12.55
   5   3  -3   35.37    9.32
   5   3  -2   31.53   11.04
   5   3  -2   24.51    9.43
   5   3  -2   37.47    9.54
   5   3  -1   36.01   10.59
   5   3  -1   26.74    9.96
   5   3  -1   23.92    8.86
   5   3   0   17.93    7.27
   5   3   0   29.42    9.92
   5   3   0    3.98    7.52
   5   2  -4   18.64    9.63
   5   2  -4   14.03    6.99
   5   2  -4   15.89    7.81
   5   2  -3   30.20    9.67
   5   2  -3   29.49    8.53
   5   2  -3   20.84    8.24
   5   2  -2   22.72    9.17
   5   2  -2   20.84    8.08
   5   2  -2   25.38    8.67
   5   2  -1    5.77    5.67
   5   2  -1    2.77    6.10
   5   2  -1   17.53    7.46
   5   2   0   20.43    7.66
   5   2   0    9.84    6.57
   5   2   0   13.69    6.80
   5   1  -4    2.76    4.98
   5   1  -4   -6.17    7.44
   5   1  -4    7.11    8.34
   5   1  -3   45.76   10.66
   5   1  -3   32.14    8.03
   5   1  -3   42.00    8.56
   5   1  -3   22.84    6.50
   5   1  -2   26.84    8.90
   5   1  -2   30.81    8.43
   5   1  -2   11.27    6.30
   5   1  -2   38.61    9.68
   5   1  -1    3.95    5.17
   5   1  -1   10.81    6.10
   5   1  -1   14.89    7.16
   5   1  -1   29.00    9.39
   5   1   0    8.41    6.43
   5   1   0    8.91    6.44
   5   1   0   22.29    8.29
   5   1   0   16.34    6.40
   5   0  -4   83.20   12.70
   5   0  -4   95.62   11.99
   5   0  -3  155.81   14.56
   5   0  -3  148.72   14.87
   5   0  -3  163.49   16.47
   5   0  -2  149.63   14.98
   5   0  -2  163.41   15.52
   5   0  -1   50.04   10.83
   5   0  -1   39.06    9.19
   5   0   0   71.79   11.43
   5   0   0   61.29   11.05
   5   0   1   -5.60    6.64
   5   0   1    3.36    6.53
   5  -1  -3   40.43    9.23
   5  -1  -3   41.17    9.57
   5  -1  -2   50.74   11.12
   5  -1  -2   32.18    9.25
   5  -1  -1   17.49    7.83
   5  -1  -1   12.99    7.30
   5  -1   0    4.72    6.58
   5  -1   0   10.78    7.37
   5  -1   1   -1.33    5.94
   5  -1   1    4.15    6.64
   5  -2  -3   22.96    8.95
   5  -2  -3   34.40    8.89
   5  -2  -2    0.91    6.05
   5  -2  -2   24.07    8.29
   5  -2  -1    9.03    6.33
   5  -2  -1   -2.11    7.40
   5  -2   0    5.25    6.38
   5  -2   0   -0.29    6.69
   5  -2   1    6.29    7.89
   5  -2   1    7.73    7.01
   5  -2   1   12.71    7.15
   5  -3  -3   62.87   12.38
   5  -3  -2   31.37    9.73
   5  -3  -2   28.00    8.67
   5  -3  -2   34.88   10.46
   5  -3  -1   10.78    8.50
   5  -3  -1   21.38    9.69
   5  -3  -1   15.84    7.80
   5  -3   0   14.42    7.58
   5  -3   0   11.00    6.06
   5  -3   0   15.45    8.81
   5  -3   1    0.15    6.39
   5  -3   1   -2.41    7.24
   5  -4  -3    7.62    7.20
   5  -4  -3   39.90   11.71
   5  -4  -2   26.66    9.72
   5  -4  -2   12.21    7.27
   5  -4  -2   14.62    7.67
   5  -4  -1   13.32    9.03
   5  -4  -1   -3.42    7.34
   5  -4  -1    8.69    7.68
   5  -4   0   -4.31    7.75
   5  -4   0   10.15    8.46
   5  -4   0  -10.39    8.34
   5  -4   1   -8.47    7.77
   5  -4   1   11.54    8.56
   5  -4   1   -7.27    8.48
   5  -5  -2   15.48    8.83
   5  -5  -2   14.27    9.17
   5  -5  -1   -3.30    7.92
   5  -5  -1  -17.44   10.29
   5  -5  -1   -7.64    8.79
   5  -5   0   -2.39    8.94
   5  -5   0  -12.17   11.20
   5  -5   0   20.13   10.96
   5  -5   1   -1.28    8.33
   5  -5   1   -8.76    9.58
   5  -5   1   13.38    9.10
   4   7  -4    0.81    9.76
   4   7  -4    5.74    8.51
   4   7  -3   -2.82    9.43
   4   7  -3   -2.46    8.90
   4   7  -2    2.37    8.58
   4   7  -2    9.36   11.24
   4   7  -2    1.50    9.48
   4   7  -1   20.94   11.13
   4   7  -1   10.07    8.55
   4   6  -5  -15.68   10.55
   4   6  -4   22.59    9.75
   4   6  -4    8.32    7.79
   4   6  -4    2.72    8.35
   4   6  -3    8.00    8.09
   4   6  -3    8.16    9.47
   4   6  -3   -3.11    7.50
   4   6  -2   13.32    7.95
   4   6  -2   26.71   11.03
   4   6  -2   21.08    9.92
   4   6  -1   14.17    7.75
   4   6  -1    9.12    7.67
   4   6  -1   11.60    9.39
   4   5  -5    9.04    8.76
   4   5  -4    0.32    6.19
   4   5  -4   -1.88    7.51
   4   5  -4  -14.22    9.40
   4   5  -3   -2.89    7.35
   4   5  -3   -0.72    7.43
   4   5  -2   12.81    8.14
   4   5  -2   -3.26    6.85
   4   5  -2    9.94    7.63
   4   5  -1    7.40    8.55
   4   5  -1   13.44    7.60
   4   5  -1    8.00    6.90
   4   5   0    6.42    7.70
   4   5   0   -2.50    7.76
   4   4  -4   10.37    6.68
   4   4  -4    3.02    7.03
   4   4  -4   -1.50    7.07
   4   4  -3    3.57    6.06
   4   4  -3   21.70    8.14
   4   4  -3    5.56    7.62
   4   4  -2   22.65    8.00
   4   4  -2   36.43   10.11
   4   4  -2   30.15    8.51
   4   4  -2   26.27    7.25
   4   4  -1   32.80    8.99
   4   4  -1   15.36    8.64
   4   4  -1   20.30    6.36
   4   4  -1   34.03    8.75
   4   4   0   10.26    6.29
   4   4   0   22.69    8.11
   4   4   0   10.31    7.18
   4   3  -4   32.66    9.36
   4   3  -4   21.13    8.50
   4   3  -4   28.67    7.74
   4   3  -4   32.39    7.97
   4   3  -3   40.34    8.93
   4   3  -3   25.31    7.07
   4   3  -3   24.45    6.96
   4   3  -3   21.46    8.11
   4   3  -2   46.37    8.39
   4   3  -2   39.65    9.48
   4   3  -2   50.53    8.21
   4   3  -2   47.90    9.54
   4   3  -1   43.52    9.45
   4   3  -1   53.70    8.97
   4   3  -1   60.11    9.68
   4   3  -1   46.55    9.65
   4   3   0   49.14    9.19
   4   3   0   54.62    9.26
   4   3   0   31.38    9.27
   4   2  -4   14.14    7.50
   4   2  -4   12.29    6.67
   4   2  -4   10.07    5.51
   4   2  -3   22.32    7.64
   4   2  -3   19.31    6.33
   4   2  -3   19.50    6.35
   4   2  -2   13.81    6.78
   4   2  -2   15.16    6.10
   4   2  -2    9.49    5.55
   4   2  -1   15.22    6.44
   4   2  -1   21.68    7.11
   4   2  -1   22.94    6.44
   4   2   0   26.43    7.22
   4   2   0   32.98    7.36
   4   2   0   13.83    5.82
   4   1  -4    0.87    5.12
   4   1  -4    8.22    4.75
   4   1  -3   21.87    7.48
   4   1  -3    6.70    5.14
   4   1  -3   12.28    4.63
   4   1  -3    7.42    4.45
   4   1  -2   54.09    8.60
   4   1  -2   44.94    8.46
   4   1  -2   52.22    8.78
   4   1  -2   43.84    7.18
   4   1  -1   50.80    7.68
   4   1  -1   55.78    8.96
   4   1  -1   42.22    8.31
   4   1  -1   54.54    8.57
   4   1   0   49.58    8.01
   4   1   0   43.41    8.10
   4   1   0   62.59    8.72
   4   1   0   53.79    8.60
   4   1   1   11.50    5.72
   4   1   1    2.77    4.36
   4   1   1    5.04    5.19
   4   0  -3  170.48   13.21
   4   0  -3  145.42   13.53
   4   0  -3  161.83   12.77
   4   0  -3  147.93   12.90
   4   0  -2   90.43   10.66
   4   0  -2  108.91   11.30
   4   0  -2   97.64   10.06
   4   0  -2  107.07   10.49
   4   0  -1  160.96   13.92
   4   0  -1  190.03   14.12
   4   0  -1  173.41   12.98
   4   0  -1  183.40   13.53
   4   0   0  193.77   13.64
   4   0   0  162.03   12.31
   4   0   0  149.87   13.21
   4   0   0  155.81   13.12
   4   0   1   84.14   10.40
   4   0   1   77.66    9.84
   4   0   1   78.44    8.89
   4  -1  -3   13.80    5.69
   4  -1  -3    5.19    5.65
   4  -1  -2   44.19    8.91
   4  -1  -2   25.61    6.71
   4  -1  -2   34.50    6.25
   4  -1  -1   52.42    8.93
   4  -1  -1   27.42    5.44
   4  -1  -1   36.74    7.32
   4  -1  -1   43.40    6.60
   4  -1   0   48.84    8.68
   4  -1   0   27.39    5.55
   4  -1   0   36.94    6.39
   4  -1   0   49.62    8.68
   4  -1   1   -0.66    4.72
   4  -1   1    1.62    3.90
   4  -1   1   -0.30    5.04
   4  -2  -3    9.21    4.67
   4  -2  -3    8.10    5.39
   4  -2  -3    9.96    5.49
   4  -2  -2   -1.53    4.47
   4  -2  -2    7.52    4.70
   4  -2  -2    7.74    4.29
   4  -2  -2   11.62    6.04
   4  -2  -1   12.62    5.82
   4  -2  -1   22.38    6.98
   4  -2  -1   18.65    5.87
   4  -2  -1   15.52    5.93
   4  -2   0   16.62    6.76
   4  -2   0    6.54    5.12
   4  -2   0   10.39    4.96
   4  -2   0   11.76    4.92
   4  -2   1    8.21    4.61
   4  -2   1    2.96    5.79
   4  -2   1    5.70    5.23
   4  -2   1    8.14    5.94
   4  -3  -3   29.30    7.87
   4  -3  -3   20.13    7.88
   4  -3  -2   41.86    8.26
   4  -3  -2   37.76    9.03
   4  -3  -2   26.25    7.22
   4  -3  -1   28.11    8.86
   4  -3  -1   25.69    6.97
   4  -3  -1   41.62    9.32
   4  -3   0   33.42    8.54
   4  -3   0   47.86    9.98
   4  -3   0   31.71    7.32
   4  -3   1    4.20    5.83
   4  -3   1   12.08    5.84
   4  -3   1    5.22    6.00
   4  -3   2   70.12   10.62
   4  -3   2   77.12   11.61
   4  -4  -3    6.00    6.56
   4  -4  -2   11.05    6.49
   4  -4  -2   22.75    8.48
   4  -4  -1   20.40    7.90
   4  -4  -1   11.96    6.83
   4  -4  -1   21.19    9.02
   4  -4   0   11.94    6.50
   4  -4   0    4.88    6.55
   4  -4   0   18.52    7.78
   4  -4   1   -7.62    5.95
   4  -4   1   -4.44    6.97
   4  -4   1    2.12    6.39
   4  -4   2   22.28    8.32
   4  -4   2   25.51    8.16
   4  -4   2   36.02    9.41
   4  -5  -2  -10.75    8.73
   4  -5  -2   -9.75    7.56
   4  -5  -2    5.38    6.30
   4  -5  -1    1.93    7.69
   4  -5  -1    4.49    7.84
   4  -5  -1    3.46    7.59
   4  -5   0   -3.13    7.91
   4  -5   0    1.40    6.85
   4  -5   0   -9.06    7.54
   4  -5   1   -0.65    6.31
   4  -5   1   10.79    8.88
   4  -5   1   -8.57    8.37
   4  -5   2   24.66    9.21
   4  -5   2   19.20    8.79
   4  -5   2   26.03    8.62
   4  -6  -2    7.92    8.76
   4  -6  -2   16.28    7.37
   4  -6  -1   10.28    8.81
   4  -6  -1    8.04    8.18
   4  -6   0  -10.44    8.50
   4  -6   0   -1.56    8.39
   4  -6   1   10.47    8.20
   4  -6   1   15.93    9.77
   4  -6   2   -4.89    8.14
   4  -6   2   16.91    9.75
   3   7  -4   35.28   11.84
   3   7  -3    2.15    7.32
   3   7  -2    7.02    8.87
   3   7  -1   -5.53    7.88
   3   6  -4   25.02    9.08
   3   6  -4    3.80    5.93
   3   6  -4   17.74    8.70
   3   6  -3   23.18    8.82
   3   6  -3   36.75    9.98
   3   6  -3   15.31    9.17
   3   6  -2   48.69   10.96
   3   6  -2   37.05   10.31
   3   6  -2   47.28   10.93
   3   6  -1   20.84    8.77
   3   6  -1   15.99    8.67
   3   6  -1   25.29    7.91
   3   6   0    8.48    6.10
   3   6   0   23.68    8.66
   3   5  -4   13.09    7.26
   3   5  -4   10.16    6.75
   3   5  -3   12.76    8.20
   3   5  -3    7.91    5.92
   3   5  -3   16.15    7.34
   3   5  -2   16.46    7.06
   3   5  -2   20.06    8.12
   3   5  -2   17.75    7.69
   3   5  -1   -1.32    6.33
   3   5  -1   19.78    7.61
   3   5  -1   10.51    7.29
   3   5   0   12.25    6.09
   3   5   0    3.73    6.83
   3   5   0   17.81    7.39
   3   4  -4   21.37    8.17
   3   4  -4   27.59    8.14
   3   4  -4   28.45    7.96
   3   4  -3   37.90    9.11
   3   4  -3   56.22    9.91
   3   4  -3   44.87    9.45
   3   4  -2  119.26   13.45
   3   4  -2  131.15   14.52
   3   4  -2  162.44   15.50
   3   4  -1   56.28    9.65
   3   4  -1   57.49   10.00
   3   4  -1   70.74   11.14
   3   4   0   49.12    9.70
   3   4   0   53.35    7.18
   3   4   0   48.49    8.88
   3   3  -4   46.10    8.63
   3   3  -4   41.82    7.56
   3   3  -4   42.85    8.48
   3   3  -3   59.05    9.84
   3   3  -3   76.19   10.11
   3   3  -3   66.43    8.99
   3   3  -3   74.39    9.00
   3   3  -2  249.58   16.93
   3   3  -2  247.23   16.94
   3   3  -2  255.43   16.62
   3   3  -2  212.41   13.97
   3   3  -1   75.61   10.03
   3   3  -1   84.71   10.29
   3   3  -1   85.95    9.04
   3   3  -1  101.88   10.41
   3   3   0   95.14   10.46
   3   3   0   94.67   11.27
   3   3   0  113.66   10.10
   3   3   0  109.82   10.72
   3   2  -4   25.27    6.49
   3   2  -4   18.08    5.74
   3   2  -3   29.85    6.46
   3   2  -3   43.30    7.97
   3   2  -3   46.18    7.00
   3   2  -3   41.31    6.74
   3   2  -2  208.48   13.41
   3   2  -2  194.77   10.19
   3   2  -2  193.37   14.35
   3   2  -2  209.26   14.33
   3   2  -2  204.71   13.40
   3   2  -1   68.25    8.64
   3   2  -1   65.63    6.19
   3   2  -1   63.80    8.82
   3   2  -1   65.65    7.84
   3   2  -1   58.43    7.58
   3   2   0   19.34    5.15
   3   2   0   26.83    5.04
   3   2   0   19.95    5.62
   3   2   0   30.24    4.79
   3   2   0   16.25    4.87
   3   2   1   23.30    5.86
   3   2   1   33.14    5.95
   3   1  -3   95.52   10.03
   3   1  -3   94.68    8.26
   3   1  -3   89.90   10.13
   3   1  -3  111.27   10.90
   3   1  -2  585.61   22.32
   3   1  -2  585.18   22.63
   3   1  -2  620.08   23.02
   3   1  -2  600.52   18.90
   3   1  -2  549.21   19.14
   3   1  -1  162.85   11.74
   3   1  -1  156.92   10.17
   3   1  -1  162.06    9.44
   3   1  -1  164.81   11.86
   3   1  -1  157.09   11.52
   3   1   0  205.11   13.12
   3   1   0  173.86   11.07
   3   1   0  156.59   12.10
   3   1   0  167.47   11.81
   3   1   1   31.19    5.63
   3   1   1   33.02    6.54
   3   1   1   29.80    5.63
   3   0  -3  319.70   16.75
   3   0  -3  335.89   16.13
   3   0  -3  319.40   15.58
   3   0  -3  326.72   12.92
   3   0  -2  880.02   24.76
   3   0  -2  926.61   24.65
   3   0  -2  865.41   25.99
   3   0  -2  873.59   25.00
   3   0  -2  912.96   19.73
   3   0  -1  478.64   17.33
   3   0  -1  453.67   13.86
   3   0  -1  456.94   18.54
   3   0  -1  477.18   18.27
   3   0  -1  520.63   18.22
   3   0  -1  503.41   14.47
   3   0   0  238.16   12.38
   3   0   0  244.11   10.63
   3   0   0  233.20   13.15
   3   0   0  238.75   12.59
   3   0   0  246.69   13.91
   3   0   1  372.64   17.40
   3   0   1  380.63   14.09
   3   0   1  390.53   16.87
   3   0   1  365.05   16.99
   3  -1  -3   71.29    7.70
   3  -1  -3  101.62   10.28
   3  -1  -3   76.81    7.80
   3  -1  -3   69.58    8.65
   3  -1  -2  508.01   17.75
   3  -1  -2  457.32   17.38
   3  -1  -2  548.16   22.11
   3  -1  -2  518.41   21.32
   3  -1  -2  458.50   17.04
   3  -1  -1  133.56    9.11
   3  -1  -1  120.78    8.99
   3  -1  -1  124.20    8.48
   3  -1  -1  138.30   11.12
   3  -1  -1  160.09   11.78
   3  -1  -1  149.82    9.71
   3  -1   0  136.47    9.95
   3  -1   0  148.70   11.42
   3  -1   0  187.62   12.35
   3  -1   0  142.20    9.84
   3  -1   0  166.47    9.98
   3  -1   0  146.61    9.37
   3  -1   1   35.65    6.59
   3  -1   1   33.18    5.11
   3  -1   1   44.09    6.79
   3  -1   1   35.61    5.77
   3  -2  -3   46.24    7.18
   3  -2  -3   45.05    7.79
   3  -2  -2  129.12   10.84
   3  -2  -2  133.98   11.89
   3  -2  -2  127.70   10.88
   3  -2  -2  133.32   10.91
   3  -2  -1   46.50    6.52
   3  -2  -1   55.00    6.97
   3  -2  -1   61.44    8.18
   3  -2  -1   63.56    7.66
   3  -2   0   21.50    5.55
   3  -2   0   21.94    5.49
   3  -2   0   13.95    4.41
   3  -2   0   24.34    6.22
   3  -2   1   42.00    6.91
   3  -2   1   55.29    8.49
   3  -2   1   45.63    6.59
   3  -2   1   46.70    7.59
   3  -2   2   27.47    6.87
   3  -3  -2  163.49   14.00
   3  -3  -2  172.81   14.03
   3  -3  -2  159.16   12.90
   3  -3  -1   85.93   10.55
   3  -3  -1   81.51    9.89
   3  -3  -1   78.42   10.18
   3  -3   0  104.86   11.46
   3  -3   0   78.20    9.52
   3  -3   0   97.69   10.81
   3  -3   1   69.33    9.43
   3  -3   1   40.21    6.37
   3  -3   1   54.90    8.96
   3  -3   1   49.28    8.28
   3  -3   2   78.91   10.41
   3  -3   2   65.05    9.04
   3  -3   2   63.58   10.06
   3  -4  -2   99.99   12.41
   3  -4  -2   77.85   10.89
   3  -4  -2   84.16   10.93
   3  -4  -1   63.12    9.90
   3  -4  -1   68.54   10.24
   3  -4  -1   63.36    9.71
   3  -4   0   44.97    8.04
   3  -4   0   37.74    8.49
   3  -4   0   33.21    8.19
   3  -4   0   33.94    8.40
   3  -4   1   37.05    7.92
   3  -4   1   49.10    9.08
   3  -4   1   39.34    8.61
   3  -4   1   30.74    8.27
   3  -4   2   17.02    6.47
   3  -4   2   17.96    7.25
   3  -4   2   15.20    6.98
   3  -5  -2    9.19    6.46
   3  -5  -2   21.78    8.78
   3  -5  -1   13.59    7.19
   3  -5  -1   -2.13    4.98
   3  -5  -1    3.73    6.07
   3  -5   0   16.29    7.10
   3  -5   0   13.84    5.74
   3  -5   0   13.37    7.14
   3  -5   0    1.67    6.67
   3  -5   1    9.33    6.90
   3  -5   1   -4.31    6.38
   3  -5   1   -4.85    7.13
   3  -5   2   19.37    9.01
   3  -5   2   17.42    7.39
   3  -5   2    7.43    7.43
   3  -6  -2   24.37    8.96
   3  -6  -2   28.29    8.70
   3  -6  -1   24.49    8.99
   3  -6  -1   35.55   10.49
   3  -6   0   20.46    9.25
   3  -6   0   23.22    9.31
   3  -6   0   23.52    8.58
   3  -6   1   11.32    7.37
   3  -6   1   12.78    7.91
   3  -6   1   30.18   10.28
   3  -6   2   13.72    8.08
   3  -6   2   15.51    8.31
   3  -6   2    0.37    6.95
   3  -7  -1   13.82    8.92
   3  -7  -1  -10.21    9.11
   3  -7   0    8.02    7.81
   3  -7   0   -3.79    8.85
   3  -7   0    4.08    8.01
   3  -7   1    6.29    9.17
   3  -7   1    9.22    8.66
   3  -7   1   -1.85    8.28
   3  -7   2    3.73    8.39
   3  -7   2   15.14    8.88
   3  -7   2    4.19    8.33
   2   8  -4   -0.16    9.05
   2   8  -3   13.20   10.25
   2   8  -2   -2.30    7.93
   2   8  -2    4.00    7.97
   2   8  -1   13.06    9.32
   2   8  -1   10.22    8.79
   2   7  -4    2.48    7.82
   2   7  -4   25.83   10.22
   2   7  -3   -3.11    7.21
   2   7  -3   -6.13    8.40
   2   7  -2    8.96    7.45
   2   7  -2  -10.74    8.84
   2   7  -1   19.35    9.55
   2   7  -1    5.75    7.20
   2   7   0   -4.29    7.06
   2   6  -4   27.01    9.69
   2   6  -4   19.96    8.84
   2   6  -3    3.53    6.24
   2   6  -3   20.78    8.24
   2   6  -2   21.10    9.13
   2   6  -2   16.01    7.52
   2   6  -1   12.43    6.37
   2   6  -1   26.60    8.38
   2   6   0   15.31    5.55
   2   6   0   11.82    7.67
   2   6   0    6.90   13.49
   2   5  -4   15.71    7.01
   2   5  -4    1.76    6.07
   2   5  -3    8.86    6.01
   2   5  -3    2.94    5.24
   2   5  -3   -8.29    6.87
   2   5  -3   -4.73    5.68
   2   5  -2   13.13    6.22
   2   5  -2   19.64    6.48
   2   5  -2    7.21    6.58
   2   5  -2    3.80    4.77
   2   5  -1   11.36    4.89
   2   5  -1    4.32    4.74
   2   5  -1    4.44    5.24
   2   5  -1   -6.52    5.97
   2   5   0   12.46    6.46
   2   5   0   -2.60    6.20
   2   5   0    1.33    4.84
   2   5   0    5.44    4.82
   2   4  -4   47.70    8.58
   2   4  -4   54.57    9.62
   2   4  -3   50.40    8.13
   2   4  -3   38.18    7.60
   2   4  -3   43.69    7.70
   2   4  -2   59.21    8.93
   2   4  -2   68.99    8.80
   2   4  -2   52.92    7.88
   2   4  -2   74.36   10.01
   2   4  -1   55.37    8.48
   2   4  -1   69.46    9.37
   2   4  -1   64.06    8.02
   2   4  -1   59.78    8.55
   2   4   0   40.85    7.99
   2   4   0   33.40    6.14
   2   4   0   27.60    6.34
   2   4   0   33.06    7.20
   2   4   1   22.74    5.81
   2   3  -3   64.00    8.48
   2   3  -3   69.69    8.78
   2   3  -3   62.29    8.15
   2   3  -2   90.03    7.50
   2   3  -2   81.35    8.89
   2   3  -2   99.00    9.69
   2   3  -2  103.74   10.10
   2   3  -1   61.13    7.81
   2   3  -1   79.74    8.80
   2   3  -1   74.90    7.08
   2   3  -1   64.54    7.52
   2   3  -1   75.79    6.69
   2   3   0   40.29    6.33
   2   3   0   44.04    6.68
   2   3   0   38.35    5.18
   2   3   0   45.63    6.72
   2   3   0   56.55    5.86
   2   3   1   30.64    5.79
   2   2  -3   42.25    6.55
   2   2  -3   40.07    6.26
   2   2  -3   37.70    6.12
   2   2  -2   78.54    7.89
   2   2  -2   77.74    7.30
   2   2  -2   71.66    6.56
   2   2  -2   80.96    7.77
   2   2  -1   22.58    3.29
   2   2  -1   25.88    4.53
   2   2  -1   33.30    5.36
   2   2  -1   26.54    4.08
   2   2  -1   27.80    4.75
   2   2   0   33.73    4.90
   2   2   0   43.36    5.95
   2   2   0   40.37    5.00
   2   2   0   40.56    5.69
   2   1  -2  214.67   10.44
   2   1  -2  192.67    9.28
   2   1  -2  251.61   12.28
   2   1  -2  227.33   11.87
   2   1  -2  220.37   11.17
   2   1  -1  234.17   10.06
   2   1  -1  281.07   12.69
   2   1  -1  255.93   12.10
   2   1  -1  241.46   11.93
   2   1   0  141.32    7.87
   2   1   0  194.66   10.83
   2   1   0  168.12    8.28
   2   1   0  165.62    9.87
   2   0  -2  458.02   14.89
   2   0  -2  458.80   15.79
   2   0  -2  457.14   14.76
   2   0  -2  474.36   15.12
   2   0  -1  166.55    8.30
   2   0  -1  175.52    8.67
   2   0  -1  176.28    8.98
   2   0  -1  168.87    9.03
   2   0   0  542.32   14.93
   2   0   0  544.31   15.71
   2   0   0  528.98   14.94
   2   0   0  523.12   15.72
   2   0   1    4.39    2.46
   2  -1  -2  276.42   11.23
   2  -1  -2  272.69   12.86
   2  -1  -2  233.90   11.14
   2  -1  -1  270.34   11.00
   2  -1  -1  244.90   12.10
   2  -1  -1  253.10   11.24
   2  -1  -1  246.10   10.77
   2  -1   0  202.42   10.80
   2  -1   0  217.25   10.34
   2  -1   0  196.21    9.68
   2  -1   0  177.41    9.40
   2  -1   1   95.99    7.49
   2  -1   1  101.22    7.86
   2  -1   1  115.62    8.03
   2  -1   1  102.71    7.32
   2  -2  -2  129.65    8.23
   2  -2  -2  141.52   10.41
   2  -2  -2  121.93    8.79
   2  -2  -2  138.56    9.85
   2  -2  -1   20.99    4.24
   2  -2  -1   20.01    4.22
   2  -2  -1   24.67    3.91
   2  -2  -1   21.36    3.57
   2  -2  -1   18.32    4.40
   2  -2   0   91.55    6.75
   2  -2   0   89.36    7.88
   2  -2   0   81.90    7.47
   2  -2   0   86.94    7.77
   2  -2   0   86.82    6.40
   2  -2   1    5.47    3.25
   2  -2   1    5.56    2.97
   2  -2   1   10.18    2.96
   2  -2   1    3.86    2.81
   2  -2   1    5.84    2.78
   2  -2   2    9.03    3.09
   2  -2   2   10.99    3.63
   2  -3  -2  174.40   12.09
   2  -3  -2  170.79   11.35
   2  -3  -2  166.91   12.08
   2  -3  -2  164.42   12.16
   2  -3  -1   93.22    8.59
   2  -3  -1   82.89    8.54
   2  -3  -1   96.42    9.42
   2  -3  -1   75.83    8.32
   2  -3   0   62.71    7.99
   2  -3   0   63.66    7.32
   2  -3   0   70.58    8.16
   2  -3   0   69.47    8.36
   2  -3   1   24.27    6.01
   2  -3   1   28.43    5.22
   2  -3   1   21.25    4.75
   2  -3   1   26.47    5.80
   2  -3   2   32.59    6.03
   2  -3   2   39.34    6.35
   2  -3   2   34.78    6.44
   2  -3   2   40.87    6.97
   2  -4  -2  135.75   12.61
   2  -4  -2  146.14   13.33
   2  -4  -2  134.13   11.96
   2  -4  -1   56.18    8.77
   2  -4  -1   78.43   10.08
   2  -4  -1   70.43    8.65
   2  -4  -1   58.89    8.70
   2  -4   0   99.93   10.63
   2  -4   0   90.68    9.49
   2  -4   0   86.80   10.05
   2  -4   0   84.11   10.39
   2  -4   1   20.90    6.07
   2  -4   1   18.21    5.84
   2  -4   1   27.84    6.22
   2  -4   1   23.05    5.97
   2  -4   2   35.99    7.08
   2  -4   2   33.67    7.63
   2  -4   2   34.27    7.03
   2  -4   2   35.37    8.45
   2  -5  -2   20.45    7.73
   2  -5  -2   27.33    7.66
   2  -5  -2   26.10    7.34
   2  -5  -1    5.89    5.78
   2  -5  -1   12.04    6.36
   2  -5  -1    5.20    6.40
   2  -5   0    2.22    5.70
   2  -5   0    5.17    5.67
   2  -5   0    1.54    5.63
   2  -5   1    9.14    6.26
   2  -5   1   -1.92    5.32
   2  -5   1   -2.17    6.18
   2  -5   2    1.98    5.98
   2  -5   2   -6.02    5.90
   2  -5   2    1.40    5.67
   2  -5   3    4.74    6.28
   2  -5   3   12.67    7.17
   2  -6  -2   47.12   10.23
   2  -6  -1   11.83    7.05
   2  -6  -1   14.84    8.18
   2  -6  -1    9.89    6.40
   2  -6   0   21.59    7.59
   2  -6   0   29.71    8.77
   2  -6   0   21.30    8.57
   2  -6   1    4.05    6.53
   2  -6   1   10.36    7.50
   2  -6   1   11.76    7.35
   2  -6   2   10.30    7.94
   2  -6   2   12.00    7.06
   2  -6   2    6.12    6.36
   2  -6   3   14.33    7.00
   2  -6   3   16.59    7.99
   2  -6   3    7.74    6.90
   2  -7  -1   -0.05    8.70
   2  -7  -1   19.05    8.78
   2  -7  -1   11.45    8.27
   2  -7   0   -0.06    7.48
   2  -7   0   -8.22    9.89
   2  -7   0   -5.49    7.32
   2  -7   1   16.00    9.00
   2  -7   1    3.09    6.70
   2  -7   1   10.29    8.42
   2  -7   2   -0.31    7.36
   2  -7   2   -3.67    8.26
   2  -7   3   -1.13    8.80
   2  -7   3   31.82    9.72
   2  -8  -1   -0.49    8.86
   2  -8   0  -12.37   10.11
   2  -8   0  -11.90    9.67
   2  -8   0   15.22   10.06
   2  -8   1   14.94    9.19
   2  -8   1   -3.86    9.72
   2  -8   1   -3.94    8.26
   2  -8   2  -15.75   10.95
   2  -8   2    5.73    8.08
   2  -8   2  -11.96    9.17
   1   8  -4  -15.05   10.23
   1   8  -3    5.76    8.31
   1   8  -3   12.44   10.48
   1   8  -2    8.53    8.90
   1   8  -2   -4.63    8.35
   1   8  -1    2.43    7.42
   1   8  -1    5.20    7.73
   1   7  -4    8.55    7.66
   1   7  -4    1.05    7.58
   1   7  -3   10.43    7.72
   1   7  -3   -0.50    7.09
   1   7  -2   16.14    9.43
   1   7  -2   -5.38    7.93
   1   7  -1   -6.62    8.12
   1   7  -1   19.36    8.42
   1   7   0   26.32    9.71
   1   7   0   22.49    9.29
   1   6  -4   31.37    9.96
   1   6  -3   20.52    8.60
   1   6  -3   17.01    7.52
   1   6  -2   17.14    7.93
   1   6  -2    5.72    6.68
   1   6  -1   18.08    8.34
   1   6  -1    7.10    6.72
   1   6   0   59.45   10.67
   1   6   0   61.03   10.20
   1   5  -4    6.31    6.22
   1   5  -3    0.14    5.58
   1   5  -2   11.35    6.00
   1   5  -2   10.44    6.01
   1   5  -1   41.28    8.51
   1   5  -1   35.32    7.48
   1   5  -1   39.62    6.95
   1   5   0  120.80   12.53
   1   5   0  122.86   10.96
   1   5   0  144.77   14.07
   1   5   1   23.17    5.56
   1   5   1   23.28    7.09
   1   4  -3   32.96    7.37
   1   4  -3   27.93    5.95
   1   4  -2   18.60    5.99
   1   4  -2   15.15    4.27
   1   4  -2   11.73    4.19
   1   4  -1   20.84    5.54
   1   4  -1   18.50    5.26
   1   4  -1   14.26    4.59
   1   4  -1   15.46    4.32
   1   4  -1   13.56    4.00
   1   4  -1   17.68    4.08
   1   4   0  128.83   10.14
   1   4   0  151.05   12.48
   1   4   0  152.87   12.22
   1   4   0  165.15   11.39
   1   4   1   44.70    6.55
   1   4   1   48.58    7.60
   1   4   1   46.85    6.60
   1   3  -3   12.48    4.08
   1   3  -3   14.33    4.00
   1   3  -2   92.32    8.39
   1   3  -2   83.41    8.12
   1   3  -2   84.13    8.40
   1   3  -1  204.42    9.14
   1   3  -1  187.61   10.67
   1   3  -1  206.72   11.59
   1   3  -1  211.62    9.07
   1   3  -1  199.30   11.17
   1   3  -1  209.73   12.38
   1   3   0  505.76   17.50
   1   3   0  571.49   20.18
   1   3   0  563.68   18.80
   1   3   0  579.91   18.65
   1   3   1   89.05    8.27
   1   3   1   67.81    7.00
   1   2  -2   25.20    4.27
   1   2  -2   26.89    4.27
   1   2  -2   21.91    3.64
   1   2  -1  106.15    7.35
   1   2  -1  120.23    7.58
   1   2  -1  115.68    7.37
   1   2   0  493.40   14.96
   1   2   0  489.18   13.88
   1   2   0  491.99   15.64
   1   2   0  474.46   14.81
   1  -2  -1   67.10    5.70
   1  -2  -1   70.57    5.64
   1  -2  -1   63.71    5.72
   1  -2  -1   72.17    6.07
   1  -2   0   84.80    6.39
   1  -2   0   80.42    5.85
   1  -2   0   81.36    6.28
   1  -2   0   79.94    6.18
   1  -2   1  144.36    8.54
   1  -2   1  147.60    7.80
   1  -2   1  139.84    8.31
   1  -2   1  146.66    8.68
   1  -2   2   28.15    4.53
   1  -3  -1   96.18    7.64
   1  -3  -1  102.20    8.86
   1  -3  -1   95.87    8.48
   1  -3  -1   96.20    8.36
   1  -3  -1  107.41    7.16
   1  -3   0  241.13   13.09
   1  -3   0  261.55   11.46
   1  -3   0  275.22   13.90
   1  -3   0  256.11   13.10
   1  -3   0  261.29   11.36
   1  -3   1  105.31    9.61
   1  -3   1   94.10    8.92
   1  -3   1   95.17    7.37
   1  -3   1   93.57    8.64
   1  -3   1   88.97    7.89
   1  -3   2   89.16    8.58
   1  -3   2   68.56    7.83
   1  -3   2   98.91    7.37
   1  -3   2   86.81    8.33
   1  -4  -1   25.78    6.29
   1  -4  -1   16.17    4.66
   1  -4  -1   28.53    5.93
   1  -4  -1   30.21    4.98
   1  -4   0   25.71    6.13
   1  -4   0   25.59    5.75
   1  -4   0   22.60    4.03
   1  -4   0   19.33    5.11
   1  -4   0   23.44    4.64
   1  -4   1   29.16    6.37
   1  -4   1   29.79    6.48
   1  -4   1   33.32    5.83
   1  -4   1   29.14    4.91
   1  -4   1   25.52    5.70
   1  -4   2   29.86    6.92
   1  -4   2   25.07    6.40
   1  -4   2   23.56    5.02
   1  -4   2   31.73    7.24
   1  -4   3   49.79    8.77
   1  -4   3   35.60    6.49
   1  -5  -1   26.06    7.23
   1  -5  -1   17.48    6.83
   1  -5  -1   18.39    6.19
   1  -5   0   24.73    7.11
   1  -5   0   44.40    8.54
   1  -5   0   46.09    8.01
   1  -5   1    6.48    5.43
   1  -5   1    4.07    5.12
   1  -5   1   13.98    5.89
   1  -5   2    0.32    4.51
   1  -5   2    5.68    6.02
   1  -5   2    5.16    5.21
   1  -5   2    3.77    5.35
   1  -5   3   11.17    5.71
   1  -5   3    7.03    6.38
   1  -5   3   16.72    6.58
   1  -6  -1   14.88    7.70
   1  -6  -1   11.38    5.65
   1  -6  -1   11.02    6.69
   1  -6   0   26.40    8.30
   1  -6   0   21.04    6.82
   1  -6   0   22.70    7.52
   1  -6   1   15.09    7.49
   1  -6   1   24.57    9.50
   1  -6   1   21.49    7.69
   1  -6   2    6.71    6.89
   1  -6   2   10.99    7.01
   1  -6   2   13.94    7.37
   1  -6   3    8.31    6.87
   1  -6   3   10.87    7.73
   1  -6   3    9.86    7.26
   1  -7  -1    7.88    7.38
   1  -7  -1   -1.96    6.65
   1  -7   0    6.96    6.83
   1  -7   0   11.22    8.72
   1  -7   0   12.79    6.99
   1  -7   1    5.80    7.56
   1  -7   1   16.26    7.51
   1  -7   1   11.30    7.86
   1  -7   2   -4.24    9.49
   1  -7   2  -15.53    8.94
   1  -7   2   -0.43    6.89
   1  -7   3   12.34    8.47
   1  -7   3   -5.84    6.39
   1  -8   0    6.69    9.38
   1  -8   1   -4.08   10.41
   1  -8   2    7.60    8.73
   1  -8   3  -11.81    9.91
   0   8  -3  -15.59   10.67
   0   8  -2    2.83    7.70
   0   8  -1   27.18   10.90
   0   8   0    5.94    6.83
   0   7  -4    9.95    8.68
   0   7  -4    5.31    7.97
   0   7  -3    1.33    7.24
   0   7  -3   17.21    9.12
   0   7  -2    7.93    7.08
   0   7  -2    6.06    6.51
   0   7  -1   13.74    7.55
   0   7  -1   23.40    8.45
   0   7   0   11.09    6.25
   0   7   0   16.96    7.42
   0   6  -4   27.63    8.92
   0   6  -3    4.39    6.03
   0   6  -3   11.02    6.51
   0   6  -2   23.04    8.04
   0   6  -2    6.49    6.24
   0   6  -1   29.46    8.64
   0   6  -1   24.97    8.42
   0   6  -1   25.21    7.52
   0   6   0   84.28   11.74
   0   6   0   72.53   10.76
   0   6   0   70.28   10.63
   0   6   1    6.26    7.16
   0   5  -3    4.06    4.96
   0   5  -2   24.28    6.24
   0   5  -2    8.85    5.15
   0   5  -2   19.16    6.60
   0   5  -1   69.29    8.80
   0   5  -1   61.47    9.13
   0   5  -1   74.09   10.63
   0   5  -1   80.89    9.81
   0   5   0  155.84   13.74
   0   5   0  178.81   15.13
   0   5   0  166.08   13.18
   0   5   1   75.64    9.81
   0   4  -3   31.39    6.75
   0   4  -2   26.60    5.34
   0   4  -2   11.40    4.61
   0   4  -1   31.82    5.97
   0   4  -1   33.45    5.41
   0   4  -1   28.30    5.73
   0   4  -1   37.88    7.14
   0   4   0  266.32   15.07
   0   4   0  263.02   15.57
   0   4   0  255.01   14.19
   0   4   0  242.13   11.08
   0   4   1   -2.91    2.84
   0   4   1   -1.17    3.71
   0   4   1    2.55    2.35
   0   3  -2  111.78    8.22
   0   3  -2  113.58    9.02
   0   3  -2  104.51    6.83
   0   3  -1  456.20   15.92
   0   3  -1  417.99   13.37
   0   3  -1  433.05   13.05
   0   3  -1  449.39   16.81
   0   3   0 1144.72   26.24
   0   3   0 1150.42   27.90
   0   3   0 1137.75   24.92
   0   3   1  501.68   17.79
   0   3   1  510.24   18.53
   0   2  -1   73.82    5.23
   0   2  -1   64.26    5.15
   0   2   0 2751.25   30.86
   0   2   0 2724.99   33.72
   0   2   0 2739.97   32.53
   0   2   1    2.71    1.68
   0  -2   0 3094.82   35.75
   0  -2   1   60.12    5.20
   0  -2   1   54.79    5.13
   0  -2   2   79.87    6.41
   0  -2   2   82.24    6.45
   0  -3  -1  518.88   18.49
   0  -3  -1  545.41   17.61
   0  -3  -1  540.50   17.92
   0  -3   0 1194.90   27.81
   0  -3   0 1186.42   24.97
   0  -3   0 1138.54   22.70
   0  -3   0 1175.12   23.90
   0  -3   0 1186.89   26.57
   0  -3   1  469.28   18.06
   0  -3   1  461.02   15.84
   0  -3   1  492.27   14.67
   0  -3   1  487.98   15.49
   0  -3   1  451.77   16.80
   0  -3   2  101.65    8.94
   0  -3   2   99.34    6.93
   0  -3   2   96.88    7.23
   0  -3   2   96.48    7.60
   0  -3   2   99.10    8.63
   0  -4  -1    3.10    3.73
   0  -4  -1   -2.80    3.91
   0  -4  -1    0.53    3.33
   0  -4   0  271.03   15.83
   0  -4   0  252.08   13.19
   0  -4   0  274.66   15.23
   0  -4   0  270.46   14.17
   0  -4   1   29.46    5.31
   0  -4   1   25.71    6.02
   0  -4   1   25.19    5.23
   0  -4   1   19.72    5.88
   0  -4   2   24.77    5.87
   0  -4   2   19.51    5.85
   0  -4   2   18.84    4.60
   0  -4   2   18.07    4.78
   0  -4   3   33.36    6.77
   0  -4   3   40.90    7.93
   0  -4   3   25.95    5.30
   0  -5  -1   82.78   10.26
   0  -5  -1   81.01   10.85
   0  -5  -1   96.12   10.18
   0  -5   0  184.49   15.65
   0  -5   0  148.55   12.08
   0  -5   0  176.02   14.54
   0  -5   0  170.86   13.44
   0  -5   1   75.58   10.89
   0  -5   1   76.46    8.87
   0  -5   1   87.74   10.16
   0  -5   1   84.87   10.57
   0  -5   2   23.93    6.23
   0  -5   2   31.76    7.89
   0  -5   2   22.09    6.99
   0  -5   2   23.62    5.75
   0  -5   3   14.26    5.86
   0  -5   3    7.85    6.14
   0  -5   3   16.79    6.07
   0  -6  -1    7.33    5.82
   0  -6  -1   13.21    6.13
   0  -6  -1   15.54    7.61
   0  -6   0   68.02   11.61
   0  -6   0   84.99   10.78
   0  -6   0   83.48   10.90
   0  -6   0   74.03   11.67
   0  -6   1   15.87    7.66
   0  -6   1   19.17    7.07
   0  -6   1   33.49    8.85
   0  -6   2    3.06    6.63
   0  -6   2   27.97    8.84
   0  -6   3   10.67    6.75
   0  -6   3   16.10    7.07
   0  -6   4   24.14    9.24
   0  -7  -1   20.25    9.37
   0  -7  -1   13.35    7.18
   0  -7   0   32.20    9.92
   0  -7   0   27.37    8.79
   0  -7   1    3.22    7.14
   0  -7   1    3.11    8.21
   0  -7   2   12.03    7.82
   0  -7   2    5.51    7.37
   0  -7   3  -13.87    9.03
   0  -7   3  -16.30   10.40
   0  -7   4   23.20    9.92
   0  -8   0    5.40    9.14
   0  -8   1    9.39   10.29
   0  -8   2   18.11   11.34
   0  -8   3   16.13   10.42
  -1   8  -2   20.39   11.56
  -1   8  -1   15.04   11.05
  -1   8   0    4.77    8.12
  -1   7  -3    5.40    6.64
  -1   7  -3   -0.48    7.79
  -1   7  -2    1.56    5.48
  -1   7  -2   -7.84    7.24
  -1   7  -1    2.28    6.33
  -1   7  -1    5.68    7.82
  -1   7  -1   11.88    7.60
  -1   7   0   11.58    6.96
  -1   7   0    4.57    5.94
  -1   7   0   -6.13    7.34
  -1   7   1    6.55    6.32
  -1   6  -2   13.07    6.77
  -1   6  -2    9.32    6.49
  -1   6  -2   15.14    7.18
  -1   6  -1   15.61    7.80
  -1   6  -1   24.70    8.60
  -1   6  -1   15.08    7.57
  -1   6   0   18.45    7.33
  -1   6   0   16.26    7.97
  -1   6   0   15.28    7.76
  -1   6   1   16.67    6.94
  -1   6   1   16.49    6.95
  -1   5  -3    4.93    4.60
  -1   5  -2    6.46    4.16
  -1   5  -2    8.73    5.68
  -1   5  -1   11.51    5.06
  -1   5  -1   19.91    7.61
  -1   5  -1    8.65    4.99
  -1   5  -1   12.53    6.24
  -1   5   0   34.11    7.80
  -1   5   0   35.23    6.38
  -1   5   0   31.36    7.83
  -1   5   1    3.64    5.47
  -1   5   1  -14.33    7.34
  -1   4  -3   37.96    6.63
  -1   4  -2   33.13    6.72
  -1   4  -2   31.46    5.81
  -1   4  -1   36.41    7.00
  -1   4  -1   44.95    5.95
  -1   4  -1   40.27    6.16
  -1   4  -1   33.29    7.10
  -1   4   0   19.57    5.53
  -1   4   0   18.57    4.41
  -1   4   0   18.60    4.76
  -1   4   0   21.02    5.99
  -1   4   1   20.55    5.53
  -1   4   1   21.07    5.32
  -1   3  -2   88.98    7.74
  -1   3  -2   86.02    8.46
  -1   3  -1   98.67    8.92
  -1   3  -1  103.39    8.14
  -1   3  -1   89.29    7.32
  -1   3   0  238.36   13.20
  -1   3   0  233.47   10.60
  -1   3   0  244.55   13.28
  -1   3   1  107.89    9.24
  -1   3   1   91.46    8.63
  -1   2  -1  172.62    9.11
  -1   2  -1  161.95    9.38
  -1   2   0   68.20    5.85
  -1   2   1   64.34    5.49
  -1   2   1   56.81    5.71
  -1   1  -1   70.08    5.31
  -1   1  -1   80.11    5.76
  -1  -1   2   73.77    6.17
  -1  -2   0  476.78   13.66
  -1  -2   0  460.38   14.54
  -1  -2   0  489.41   15.75
  -1  -2   0  460.52   15.00
  -1  -2   1  139.65    7.63
  -1  -2   1  133.55    7.94
  -1  -2   1  138.18    8.46
  -1  -2   1  142.06    8.62
  -1  -2   2   29.93    4.67
  -1  -2   2   27.18    4.75
  -1  -2   2   27.98    4.35
  -1  -2   2   29.53    4.14
  -1  -3  -1  102.40    8.45
  -1  -3  -1  100.63    8.03
  -1  -3  -1  108.11    8.82
  -1  -3   0  556.67   18.61
  -1  -3   0  557.36   18.35
  -1  -3   0  562.68   19.61
  -1  -3   0  569.06   19.95
  -1  -3   0  581.80   14.91
  -1  -3   1  214.54   11.95
  -1  -3   1  199.07   11.00
  -1  -3   1  205.89   11.88
  -1  -3   1  185.11   11.83
  -1  -3   1  196.38    8.71
  -1  -3   2  103.99    9.00
  -1  -3   2  109.68    6.63
  -1  -3   2  105.90    8.61
  -1  -3   2   89.36    8.46
  -1  -3   2   96.07    6.32
  -1  -3   2   95.22    9.93
  -1  -3   3   26.15    5.34
  -1  -3   3   18.18    5.50
  -1  -3   3   24.18    4.98
  -1  -3   3   26.74    3.66
  -1  -4  -1   49.83    7.22
  -1  -4  -1   60.15    7.35
  -1  -4  -1   76.83    7.38
  -1  -4  -1   69.10    8.61
  -1  -4   0  154.29   12.00
  -1  -4   0  144.47   10.55
  -1  -4   0  143.40   11.63
  -1  -4   0  147.71   12.59
  -1  -4   0  157.71    9.73
  -1  -4   1   15.94    5.24
  -1  -4   1   17.65    3.82
  -1  -4   1   26.40    5.29
  -1  -4   1   23.96    4.61
  -1  -4   1   22.60    6.18
  -1  -4   1   22.09    4.89
  -1  -4   2   10.01    4.16
  -1  -4   2   25.81    5.89
  -1  -4   2   11.63    5.73
  -1  -4   2   22.53    6.04
  -1  -4   3   37.15    7.78
  -1  -4   3   40.54    7.17
  -1  -4   3   37.13    6.97
  -1  -4   3   39.08    6.65
  -1  -5  -1   22.13    7.10
  -1  -5  -1   21.85    7.16
  -1  -5   0  133.68   13.49
  -1  -5   0  125.68   13.57
  -1  -5   1   32.98    7.98
  -1  -5   1   38.23    9.03
  -1  -5   2   11.74    5.55
  -1  -5   2   12.99    6.30
  -1  -5   3    7.00    5.99
  -1  -5   3   -8.20    6.59
  -1  -5   4   -2.70    6.27
  -1  -6  -1   45.05   10.40
  -1  -6  -1   31.26    9.29
  -1  -6   0   67.25   11.28
  -1  -6   0   61.44   10.96
  -1  -6   1    6.83    6.42
  -1  -6   1   10.72    7.11
  -1  -6   2   10.58    6.63
  -1  -6   2   14.11    7.84
  -1  -6   3   12.74    8.01
  -1  -6   3    2.21    6.77
  -1  -6   4   13.16    7.60
  -1  -6   4   22.13    9.18
  -1  -7   0   24.93    8.94
  -1  -7   0   25.24   10.11
  -1  -7   1   18.34    8.25
  -1  -7   1    5.70    8.49
  -1  -7   2   11.90    8.69
  -1  -7   2    5.04    7.25
  -1  -7   3  -10.01    8.80
  -1  -7   3   -6.03    7.60
  -1  -7   4   11.10    8.23
  -1  -7   4    6.34    7.36
  -1  -8   0   27.00   10.65
  -1  -8   0   44.97   12.78
  -1  -8   1   -3.77    8.21
  -1  -8   1    4.45    9.56
  -1  -8   2   13.85   10.22
  -1  -8   2    1.36    8.19
  -1  -8   3   -6.09    8.37
  -1  -8   3   -7.94    8.71
  -1  -8   4   -2.88    8.97
  -2   8  -2    7.58    9.11
  -2   8  -1   21.58    9.96
  -2   8  -1   -1.57    7.14
  -2   8   0   24.06   11.37
  -2   8   0   -8.13    8.96
  -2   8   0    7.25    8.90
  -2   8   1    7.54    8.06
  -2   7  -3   -2.48    8.84
  -2   7  -3   19.15    9.53
  -2   7  -2    0.67    8.03
  -2   7  -2    4.74    8.27
  -2   7  -2   -4.97    9.01
  -2   7  -1   13.53    7.51
  -2   7  -1   12.70    9.56
  -2   7  -1    2.00    7.32
  -2   7   0    1.72    8.04
  -2   7   0   11.69    6.67
  -2   7   0   10.17    8.31
  -2   7   1   15.21    8.72
  -2   7   1   11.07    7.09
  -2   6  -2    4.48    6.76
  -2   6  -2   16.50    7.83
  -2   6  -2    7.83    6.38
  -2   6  -1   11.24    7.99
  -2   6  -1   16.64    8.82
  -2   6  -1   34.47   10.12
  -2   6   0   17.24    8.79
  -2   6   0   15.85    8.15
  -2   6   0   27.10    9.35
  -2   6   1   20.74    7.54
  -2   6   1   12.43    6.73
  -2   5  -2   -1.37    4.78
  -2   5  -1   -0.05    5.50
  -2   5  -1    7.05    6.31
  -2   5  -1    2.61    5.26
  -2   5   0    0.31    5.44
  -2   5   0    7.49    5.62
  -2   5   0   -1.29    6.05
  -2   5   1    5.80    7.15
  -2   5   1    5.12    5.07
  -2   4  -2   31.90    7.51
  -2   4  -1    8.32    4.71
  -2   4  -1   20.24    5.80
  -2   4  -1   17.11    5.65
  -2   4   0   85.59   10.05
  -2   4   0   94.39   10.05
  -2   4   0   74.03    9.82
  -2   4   1   62.52    9.20
  -2   4   1   47.99    8.10
  -2   4   2  139.76   12.80
  -2   3  -2   33.05    6.41
  -2   3  -1   24.70    6.24
  -2   3  -1   25.24    5.54
  -2   3   0   72.43    7.92
  -2   3   0   77.92    8.57
  -2   3   1   78.38    7.97
  -2   3   1   98.31    7.36
  -2   3   1   89.97    9.27
  -2   3   2  179.72   12.80
  -2   2  -1    7.46    3.84
  -2   2  -1    3.98    3.00
  -2   2   0   97.30    8.53
  -2   2   0   81.18    6.51
  -2   2   0   90.47    6.71
  -2   2   1   23.23    4.40
  -2   2   1   15.99    3.18
  -2   2   1   19.90    3.82
  -2   2   2  143.28   10.07
  -2   1  -1   84.28    7.03
  -2   1  -1   98.34    8.59
  -2   1  -1   93.30    7.65
  -2   1   0  173.72    9.65
  -2   1   0  194.13   11.39
  -2   1   0  180.94   10.10
  -2   1   1  240.08   10.66
  -2   1   1  246.33   12.12
  -2   0  -1    5.55    2.16
  -2   0  -1    4.05    2.32
  -2   0   0  559.39   16.87
  -2   0   0  580.09   17.68
  -2   0   0  573.71   15.28
  -2   0   0  580.28   16.46
  -2   0   1  204.13   10.51
  -2   0   1  202.87    9.20
  -2   0   1  219.22    9.90
  -2   0   2  533.88   17.67
  -2   0   2  488.47   15.60
  -2   0   2  522.17   16.57
  -2  -1   0  160.92    8.62
  -2  -1   0  162.01   10.23
  -2  -1   0  194.22   10.80
  -2  -1   0  184.29   11.30
  -2  -1   0  192.58    8.96
  -2  -1   1  263.20   10.54
  -2  -1   1  278.51   12.94
  -2  -1   1  298.44   13.07
  -2  -1   1  290.30   13.47
  -2  -1   1  283.31   11.04
  -2  -1   2  259.63   13.05
  -2  -1   2  263.67   13.38
  -2  -1   2  295.12   11.92
  -2  -2  -1    4.75    2.63
  -2  -2   0   34.39    3.94
  -2  -2   0   46.62    5.77
  -2  -2   0   40.39    5.83
  -2  -2   0   39.11    6.11
  -2  -2   0   38.69    5.16
  -2  -2   1   20.07    4.22
  -2  -2   1   24.30    4.59
  -2  -2   1   24.12    4.81
  -2  -2   1   27.43    5.41
  -2  -2   2   76.32    5.80
  -2  -2   2   91.64    7.92
  -2  -2   2   98.66    8.69
  -2  -2   2  106.61    9.34
  -2  -2   2   81.88    7.73
  -2  -2   3   27.80    5.89
  -2  -2   3   32.60    5.56
  -2  -2   3   32.95    5.39
  -2  -3  -1   37.39    6.14
  -2  -3  -1   32.71    6.06
  -2  -3   0   56.69    6.44
  -2  -3   0   58.50    6.47
  -2  -3   0   55.13    7.37
  -2  -3   0   50.82    7.25
  -2  -3   0   51.58    7.63
  -2  -3   1   72.61    7.32
  -2  -3   1   81.15    7.76
  -2  -3   1   77.23    8.75
  -2  -3   1   77.73    8.99
  -2  -3   1   66.94    8.26
  -2  -3   2   91.18    8.25
  -2  -3   2  115.15    8.72
  -2  -3   2   89.46    9.45
  -2  -3   2   98.65   10.28
  -2  -3   2   96.98    9.97
  -2  -3   3   87.17    9.73
  -2  -3   3   69.48    8.68
  -2  -3   3   59.57    8.29
  -2  -3   3   70.03    7.65
  -2  -4  -1   25.77    6.12
  -2  -4  -1   31.06    7.01
  -2  -4   0   27.39    5.63
  -2  -4   0   32.54    7.42
  -2  -4   0   38.53    7.46
  -2  -4   0   30.17    6.81
  -2  -4   1   65.24    8.30
  -2  -4   1   62.66    9.07
  -2  -4   1   63.91    8.62
  -2  -4   1   52.29    8.80
  -2  -4   2   78.84    9.69
  -2  -4   2   75.07    8.91
  -2  -4   2   68.87    9.51
  -2  -4   2   68.35   10.05
  -2  -4   3   48.28    8.76
  -2  -4   3   60.18    9.26
  -2  -4   3   45.95    7.78
  -2  -4   3   53.90    9.56
  -2  -4   4   38.14    8.59
  -2  -4   4   48.38    8.82
  -2  -5   0    9.00    6.10
  -2  -5   0   -0.55    5.40
  -2  -5   0   -9.84    7.27
  -2  -5   1    8.45    6.14
  -2  -5   1    8.35    7.11
  -2  -5   1   -4.10    6.74
  -2  -5   1   10.53    6.32
  -2  -5   2   11.57    6.09
  -2  -5   2    4.63    5.29
  -2  -5   2   19.59    7.63
  -2  -5   2    7.23    6.10
  -2  -5   3   12.12    7.11
  -2  -5   3   -3.80    5.61
  -2  -5   3    8.25    6.15
  -2  -5   3   12.58    6.52
  -2  -5   4    6.57    7.51
  -2  -5   4   12.11    7.60
  -2  -6   0   12.08    6.58
  -2  -6   0   47.31   11.52
  -2  -6   1   43.42    9.92
  -2  -6   1   17.49    8.29
  -2  -6   2   23.81    9.47
  -2  -6   2   19.51    7.52
  -2  -6   3    8.96    8.95
  -2  -6   3   14.13    7.61
  -2  -6   4   25.82    9.39
  -2  -6   4   23.27    8.76
  -2  -7   0   18.51    9.75
  -2  -7   0    6.48    7.49
  -2  -7   1    6.96    7.34
  -2  -7   1   -0.93    9.72
  -2  -7   2   11.34    9.23
  -2  -7   2   13.61    9.38
  -2  -7   3   20.69   10.55
  -2  -7   3    0.39    7.06
  -2  -7   4   14.55    9.50
  -2  -7   4   -5.10    7.53
  -2  -8   1   -2.76    9.05
  -2  -8   1   17.12    9.90
  -2  -8   2    5.58    9.92
  -2  -8   2   -3.42    9.13
  -2  -8   3   -0.18    8.78
  -2  -8   3    4.42    7.97
  -2  -8   4  -18.74    9.17
  -3   7  -2   -5.36    6.67
  -3   7  -2    2.53    7.83
  -3   7  -2    9.41    8.23
  -3   7  -1   -9.99    9.57
  -3   7  -1   -3.66    8.34
  -3   7  -1   -1.24    7.86
  -3   7   0   -0.71    8.20
  -3   7   0   10.21    8.61
  -3   7   0   12.79    9.45
  -3   7   1  -11.19   10.91
  -3   7   1   -8.33    8.55
  -3   6  -2    2.53    7.38
  -3   6  -2   18.12    8.74
  -3   6  -2   17.63    8.08
  -3   6  -1   18.77    9.20
  -3   6  -1   12.81    9.00
  -3   6  -1   15.95    8.63
  -3   6   0   22.57    8.79
  -3   6   0   14.51    7.71
  -3   6   0   15.21    8.14
  -3   6   1   24.64    9.97
  -3   6   1   18.28    8.66
  -3   6   1   22.19    8.09
  -3   5  -2   19.79    8.29
  -3   5  -2   20.55    8.98
  -3   5  -1   -3.09    6.95
  -3   5  -1   13.26    7.17
  -3   5  -1    7.96    6.38
  -3   5   0   12.25    7.63
  -3   5   0    6.69    5.20
  -3   5   0   23.84    7.33
  -3   5   0   25.34    7.49
  -3   5   1   17.99    7.22
  -3   5   1   14.11    7.27
  -3   5   1   14.54    6.39
  -3   5   2   18.35    8.28
  -3   4  -2    7.17    6.11
  -3   4  -2   13.37    6.20
  -3   4  -1   34.72    8.49
  -3   4  -1   47.37    9.34
  -3   4  -1   33.08    7.66
  -3   4   0   36.08    8.04
  -3   4   0   33.23    7.97
  -3   4   0   47.78    9.14
  -3   4   0   45.37    8.13
  -3   4   1   63.11   10.14
  -3   4   1   67.49   10.62
  -3   4   1   54.49    8.80
  -3   4   2   93.84   11.97
  -3   3  -2   63.97   10.11
  -3   3  -2   70.13   10.50
  -3   3  -1   45.97    8.22
  -3   3  -1   65.28    9.84
  -3   3   0   94.93   11.35
  -3   3   0  115.54   12.50
  -3   3   0  106.21    9.71
  -3   3   1   98.94   11.66
  -3   3   1   91.27   10.45
  -3   3   2  169.82   13.49
  -3   2  -1   50.16    7.61
  -3   2  -1   45.02    7.65
  -3   2  -1   54.09    7.37
  -3   2   0   23.10    5.65
  -3   2   0   30.59    7.14
  -3   2   0   21.04    4.89
  -3   2   1   53.81    6.97
  -3   2   1   71.58    8.02
  -3   2   2  145.88   11.78
  -3   2   3   50.92    8.18
  -3   1  -1   42.50    7.35
  -3   1  -1   35.02    6.45
  -3   1  -1   33.67    5.20
  -3   1   0  126.73   10.35
  -3   1   0  132.41   12.00
  -3   1   0  144.84   11.80
  -3   1   0  151.66    9.37
  -3   1   0  149.34    9.77
  -3   1   1  132.25    9.48
  -3   1   1  134.12   11.91
  -3   1   1  130.91   11.36
  -3   1   1  124.22    8.52
  -3   1   1  120.22    8.46
  -3   1   2  454.56   20.57
  -3   1   2  474.31   17.14
  -3   1   2  466.85   17.83
  -3   1   3   99.07   10.24
  -3   1   3   64.30    7.40
  -3   0  -1  434.44   19.28
  -3   0  -1  429.32   19.39
  -3   0  -1  402.87   16.65
  -3   0   0  311.89   15.78
  -3   0   0  287.30   15.70
  -3   0   0  295.96   13.77
  -3   0   0  287.81   14.99
  -3   0   1  490.20   14.37
  -3   0   1  519.23   15.85
  -3   0   1  560.76   21.13
  -3   0   1  525.74   21.17
  -3   0   1  508.20   17.94
  -3   0   1  547.98   19.38
  -3   0   2  912.91   28.14
  -3   0   2  949.08   26.15
  -3   0   2  887.13   24.33
  -3   0   3  362.14   18.59
  -3   0   3  306.86   16.63
  -3  -1  -1   28.14    6.21
  -3  -1  -1   36.35    6.13
  -3  -1   0  183.72   11.95
  -3  -1   0  180.53   13.25
  -3  -1   0  216.38   13.43
  -3  -1   0  197.59   13.59
  -3  -1   0  188.56   10.55
  -3  -1   1  171.01   11.28
  -3  -1   1  168.22   12.59
  -3  -1   1  176.80   12.23
  -3  -1   1  165.77   12.35
  -3  -1   1  186.60   10.02
  -3  -1   2  611.98   23.85
  -3  -1   2  643.69   25.29
  -3  -1   2  637.80   19.25
  -3  -1   3  110.20   11.62
  -3  -1   3  104.74   10.66
  -3  -1   3   90.57   10.57
  -3  -2  -1   48.85    7.38
  -3  -2   0   37.30    6.99
  -3  -2   0   27.74    6.55
  -3  -2   0   31.03    6.73
  -3  -2   0   32.74    5.77
  -3  -2   1   64.74    6.61
  -3  -2   1   84.65    9.17
  -3  -2   1   77.31    8.19
  -3  -2   1   74.65    8.62
  -3  -2   1   77.34    9.81
  -3  -2   2  240.99   15.09
  -3  -2   2  230.80   15.02
  -3  -2   2  212.06   15.33
  -3  -2   2  228.01   13.92
  -3  -2   3   53.86    8.82
  -3  -2   3   33.03    5.86
  -3  -2   3   43.10    7.62
  -3  -2   3   50.88    8.20
  -3  -2   4   19.09    6.70
  -3  -2   4   28.60    7.31
  -3  -3   0  119.57   11.33
  -3  -3   0  109.16   11.91
  -3  -3   0  145.45   14.08
  -3  -3   0  120.84   11.50
  -3  -3   1   98.36   10.21
  -3  -3   1   96.27   11.15
  -3  -3   1  106.78   10.92
  -3  -3   1   92.11   11.45
  -3  -3   2  276.91   16.33
  -3  -3   2  244.84   16.49
  -3  -3   2  252.31   17.31
  -3  -3   2  240.65   15.79
  -3  -3   3   76.63   11.48
  -3  -3   3   76.52   10.35
  -3  -3   3   80.59   10.65
  -3  -3   3   83.78   10.30
  -3  -3   4   43.72    9.77
  -3  -3   4   53.49    8.70
  -3  -3   4   57.31    9.65
  -3  -3   4   62.59    8.90
  -3  -4   0   56.59   10.25
  -3  -4   0   70.56   10.67
  -3  -4   0   59.20    9.82
  -3  -4   1   61.97   10.28
  -3  -4   1   76.82   10.40
  -3  -4   1   69.25    9.97
  -3  -4   2  115.35   14.37
  -3  -4   2  191.15   17.64
  -3  -4   3   56.87   10.36
  -3  -4   3   31.87    8.27
  -3  -4   3   48.71   10.27
  -3  -4   4   21.53    8.34
  -3  -4   4   18.82    6.77
  -3  -4   4   17.30    7.26
  -3  -5   0   22.08    8.43
  -3  -5   0   15.25    8.05
  -3  -5   1   20.20    8.65
  -3  -5   1    4.31    7.86
  -3  -5   1   18.44    8.41
  -3  -5   2   28.42    8.87
  -3  -5   2   26.44    9.27
  -3  -5   2   30.40   10.13
  -3  -5   3    8.84    7.61
  -3  -5   3   11.04    7.64
  -3  -5   3   17.57    8.76
  -3  -5   4    1.75    6.57
  -3  -5   4    9.58    6.60
  -3  -5   4    8.59    8.14
  -3  -6   0   26.10    9.78
  -3  -6   0   21.08    9.63
  -3  -6   1   38.56    9.99
  -3  -6   1   34.46   11.05
  -3  -6   1   35.47   10.64
  -3  -6   2   43.14   11.51
  -3  -6   2   53.42   10.51
  -3  -6   2   52.59   12.94
  -3  -6   3   19.63    9.03
  -3  -6   3   19.74    9.41
  -3  -6   3   26.96    9.78
  -3  -6   4   32.26   10.76
  -3  -6   4   27.60   10.02
  -3  -6   4   19.80   10.43
  -3  -7   1   13.78    9.60
  -3  -7   2   17.74   10.40
  -3  -7   3  -13.29    9.58
  -3  -7   4   14.29   10.66
  -4   6  -2   15.02    9.11
  -4   6  -2   -1.02    8.08
  -4   6  -1   16.39    9.59
  -4   6  -1  -12.67    8.65
  -4   6   0   10.82    9.52
  -4   6   0   -1.85    8.31
  -4   6   1   13.03    8.26
  -4   6   1   21.62    8.90
  -4   6   2   -5.27    8.18
  -4   5  -2   24.03    9.22
  -4   5  -1    0.66    7.48
  -4   5  -1   -1.37    7.62
  -4   5  -1   14.18    9.07
  -4   5   0    1.62    6.74
  -4   5   0   -1.34    5.66
  -4   5   0  -15.86    8.24
  -4   5   1    8.01    8.07
  -4   5   1   -1.48    6.33
  -4   5   1    4.61    7.60
  -4   5   2   -0.46    6.03
  -4   5   2   -1.03    6.80
  -4   4  -1    0.04    5.81
  -4   4  -1   -2.25    7.12
  -4   4   0   10.28    7.41
  -4   4   0   21.87    8.46
  -4   4   0    5.81    6.70
  -4   4   1   19.00    7.16
  -4   4   1    9.01    7.00
  -4   4   1   24.59    9.07
  -4   4   2   10.14    7.20
  -4   4   2   11.71    7.78
  -4   3  -1   -0.32    4.72
  -4   3  -1   13.94    7.81
  -4   3   0   32.36    7.84
  -4   3   0   26.61    7.37
  -4   3   0   37.16    9.22
  -4   3   1   48.27    9.49
  -4   3   1   44.09   10.13
  -4   3   1   41.58   10.79
  -4   3   2   22.79    7.27
  -4   2  -1   -5.11    3.99
  -4   2  -1   -1.90    5.60
  -4   2  -1    0.58    4.15
  -4   2   0    8.77    4.88
  -4   2   0   11.34    6.54
  -4   2   0   17.84    6.57
  -4   2   1   34.24    7.66
  -4   2   1   14.26    5.80
  -4   2   1   10.75    6.05
  -4   2   1   22.19    6.59
  -4   2   2    5.78    4.35
  -4   2   2    3.68    5.36
  -4   2   3    6.12    5.42
  -4   1  -1   -0.99    5.58
  -4   1  -1   -2.97    4.74
  -4   1   0   37.92    7.23
  -4   1   0   42.46    9.02
  -4   1   0   46.61    9.12
  -4   1   1   41.14    6.92
  -4   1   1   35.65    6.16
  -4   1   1   41.43    9.20
  -4   1   1   47.09    9.18
  -4   1   2   30.70    7.62
  -4   1   3   14.62    6.91
  -4   0  -1   74.59   10.04
  -4   0  -1   83.00   11.25
  -4   0  -1   73.82    9.14
  -4   0   0  209.28   15.82
  -4   0   0  205.84   16.23
  -4   0   0  203.89   13.54
  -4   0   0  206.74   15.25
  -4   0   1  224.23   16.23
  -4   0   1  216.33   16.47
  -4   0   1  193.62   13.56
  -4   0   1  200.73   14.91
  -4   0   2   85.02   10.80
  -4   0   2   83.85   11.28
  -4   0   2   94.83   10.81
  -4   0   2   89.53    9.54
  -4   0   3  177.75   15.75
  -4   0   3  169.27   13.79
  -4   0   3  162.08   13.02
  -4  -1  -1   14.08    6.65
  -4  -1  -1    2.15    4.49
  -4  -1   0   59.81    8.86
  -4  -1   0   67.30   10.53
  -4  -1   0   52.14    9.58
  -4  -1   0   51.65    8.50
  -4  -1   1   40.66    7.52
  -4  -1   1   45.72    8.66
  -4  -1   1   54.01    9.16
  -4  -1   1   62.26    9.58
  -4  -1   2   44.42    8.38
  -4  -1   2   37.83    7.36
  -4  -1   2   42.47    8.91
  -4  -1   2   37.81    7.69
  -4  -1   3   22.19    8.00
  -4  -1   3    8.92    4.94
  -4  -1   3   15.57    7.12
  -4  -1   4   -0.64    5.72
  -4  -1   4   12.85    7.33
  -4  -2   0   34.73    7.54
  -4  -2   0   29.61    7.90
  -4  -2   0   36.16    8.52
  -4  -2   1   29.58    8.19
  -4  -2   1   37.05    9.19
  -4  -2   1   21.39    6.01
  -4  -2   2   17.85    7.00
  -4  -2   2   12.22    6.48
  -4  -2   2   19.81    7.00
  -4  -2   3    9.12    6.03
  -4  -2   3    7.82    5.47
  -4  -2   3   22.15    7.99
  -4  -2   4   16.25    7.68
  -4  -2   4   10.45    6.74
  -4  -2   4   22.64    8.34
  -4  -3   0   67.77   11.36
  -4  -3   0   47.46   11.13
  -4  -3   0   54.56   10.40
  -4  -3   0   67.28    9.68
  -4  -3   1   72.50   10.76
  -4  -3   1   54.45   10.39
  -4  -3   1   61.04   10.82
  -4  -3   1   62.57    9.83
  -4  -3   2   40.75    7.77
  -4  -3   2   56.21   10.23
  -4  -3   2   50.26    9.78
  -4  -3   2   51.10   10.93
  -4  -3   3   40.01    8.88
  -4  -3   3   28.51    8.07
  -4  -3   3   42.68    9.01
  -4  -3   3   28.69    9.01
  -4  -3   4   33.29   10.41
  -4  -3   4   39.30    8.77
  -4  -3   4   30.93    7.91
  -4  -3   4   37.60    8.91
  -4  -4   0   15.17    8.44
  -4  -4   0   13.80    7.49
  -4  -4   0   14.21    8.07
  -4  -4   1   39.57    9.28
  -4  -4   1   38.13   11.34
  -4  -4   1   18.35    7.94
  -4  -4   1   41.70   10.14
  -4  -4   2   25.27    8.43
  -4  -4   2   15.67    9.01
  -4  -4   2   42.49   10.00
  -4  -4   3   12.90    7.90
  -4  -4   3   24.73    9.24
  -4  -4   4   -6.11    6.70
  -4  -4   4   -5.77    6.68
  -4  -4   4    1.61    7.73
  -4  -5   0   -7.80    8.90
  -4  -5   0    8.76    7.57
  -4  -5   1   17.99   10.14
  -4  -5   1   13.62    8.00
  -4  -5   1   22.59    9.51
  -4  -5   2   11.61    8.34
  -4  -5   2    8.44    9.11
  -4  -5   2   11.13    7.76
  -4  -5   3    3.84    7.11
  -4  -5   3    2.60    7.45
  -4  -5   3    9.49    9.32
  -4  -5   4   14.15    7.49
  -4  -5   4   11.89    8.28
  -4  -5   4    1.72    8.88
  -4  -5   5   34.00   12.96
  -4  -6   1   51.85   12.41
  -4  -6   1   28.10   10.78
  -4  -6   1   30.72   13.47
  -4  -6   2   16.28   10.50
  -4  -6   2   18.91    8.91
  -4  -6   2   22.12   11.69
  -4  -6   3   26.62   11.44
  -4  -6   3   12.99    7.80
  -4  -6   3   -1.06   11.24
  -4  -6   4   -5.37    9.13
  -4  -6   4   13.93    9.62
  -4  -6   4    9.35   11.34
  -4  -7   1   -4.81    8.64
  -4  -7   1   12.87   12.50
  -4  -7   2    0.21    9.41
  -4  -7   2    6.18    9.25
  -4  -7   2   -4.93   10.65
  -4  -7   3    2.00    8.86
  -4  -7   3   26.64   14.60
  -4  -7   4   -8.96   12.07
  -5   6   1   25.62   12.66
  -5   6   2    5.41   10.01
  -5   5  -1    0.98    8.16
  -5   5  -1   -3.54    7.67
  -5   5  -1   -0.14    9.16
  -5   5   0   13.54    9.84
  -5   5   0    7.31   10.34
  -5   5   0   -6.47    9.17
  -5   5   1   -0.48    8.68
  -5   5   1   -3.91    7.15
  -5   5   1    2.84   10.47
  -5   5   2    7.10    7.34
  -5   5   2   -0.32    8.69
  -5   5   2    9.03   10.02
  -5   4  -1    2.83    7.19
  -5   4  -1    4.57    6.23
  -5   4  -1   10.45    8.26
  -5   4   0    2.67    7.59
  -5   4   0    4.15    7.24
  -5   4   0   -5.69    8.84
  -5   4   1   15.84    8.06
  -5   4   1   19.66    9.12
  -5   4   1    7.63    8.33
  -5   4   2   26.42    9.49
  -5   4   2    3.86    7.53
  -5   4   2   28.51   10.15
  -5   4   3   33.73   11.46
  -5   3  -1    8.14    8.54
  -5   3   0   11.44    7.87
  -5   3   0    8.93    7.60
  -5   3   0   23.59   10.99
  -5   3   1   19.06    7.37
  -5   3   1    2.34    6.17
  -5   3   1   20.01    9.59
  -5   3   2   24.50    7.85
  -5   3   2   26.93    8.82
  -5   3   2   35.94   10.96
  -5   3   3   58.49   12.43
  -5   2  -1    4.37    7.72
  -5   2   0    7.72    6.82
  -5   2   0   -4.23    7.04
  -5   2   1    0.91    7.23
  -5   2   1   -1.86    6.79
  -5   2   2   26.74   10.07
  -5   2   2   25.55    8.35
  -5   2   3   29.87   10.19
  -5   2   3   46.28   11.45
  -5   1  -1   -8.42    8.16
  -5   1   0   13.08    7.79
  -5   1   0   13.39    7.49
  -5   1   1   30.94   10.04
  -5   1   1   14.59    7.08
  -5   1   2   32.81    9.95
  -5   1   2   34.63   10.48
  -5   1   3   32.26    8.51
  -5   1   3   49.93   11.81
  -5   1   4   16.70    7.97
  -5   0   0   40.72    9.57
  -5   0   0   52.05   10.91
  -5   0   1   30.52    9.04
  -5   0   1   50.46   11.38
  -5   0   2  152.14   15.79
  -5   0   2  153.47   16.53
  -5   0   3  158.38   16.90
  -5   0   3  161.41   17.69
  -5   0   3  159.33   14.73
  -5   0   4  105.84   14.79
  -5  -1   0   10.68    7.02
  -5  -1   0   12.45    9.00
  -5  -1   0   14.58    6.81
  -5  -1   1   18.98    7.55
  -5  -1   1   23.67    7.87
  -5  -1   1   15.09    8.20
  -5  -1   1   19.60    7.64
  -5  -1   2   32.18   11.68
  -5  -1   2   35.60    7.64
  -5  -1   2   45.64   11.65
  -5  -1   2   68.37   14.07
  -5  -1   3   38.27    8.67
  -5  -1   3   65.66   11.19
  -5  -1   3   54.34   11.95
  -5  -1   3   48.40   10.92
  -5  -1   4    7.10    6.68
  -5  -1   4   -4.65    7.79
  -5  -1   4    4.53    6.78
  -5  -2   0    9.31    7.91
  -5  -2   0   14.21    8.46
  -5  -2   1    3.14    7.20
  -5  -2   1    7.22    7.09
  -5  -2   1    2.06    6.88
  -5  -2   2   23.26    8.65
  -5  -2   2   25.03    8.85
  -5  -2   2   23.16    8.74
  -5  -2   3   28.82    9.02
  -5  -2   3   24.00    9.67
  -5  -2   3   39.26   10.89
  -5  -2   4   18.07    8.45
  -5  -2   4   10.06    8.08
  -5  -2   4   -3.32    7.98
  -5  -3   0   37.77   11.74
  -5  -3   0   31.82   11.49
  -5  -3   1   33.70   10.58
  -5  -3   1   20.36   10.61
  -5  -3   1   22.36   10.76
  -5  -3   2   32.81   10.72
  -5  -3   2   13.11    8.37
  -5  -3   2   28.38   10.16
  -5  -3   3   41.25   10.69
  -5  -3   3   21.90    8.50
  -5  -3   3   53.30   13.05
  -5  -3   4    4.54    7.12
  -5  -3   4   18.87    8.48
  -5  -3   4   22.72   10.85
  -5  -4   0   21.50    9.29
  -5  -4   1   17.68    8.81
  -5  -4   1   11.05    9.91
  -5  -4   1   11.72    9.00
  -5  -4   2    2.82    8.15
  -5  -4   2   16.63    8.73
  -5  -4   2   23.12   10.67
  -5  -4   3    3.44    7.79
  -5  -4   3   17.29    9.32
  -5  -4   3   -3.08    9.04
  -5  -4   4   -6.19    7.79
  -5  -4   4    8.00   10.06
  -5  -4   5   15.35   10.87
  -5  -4   5   -8.87    9.42
  -5  -5   1   10.73    8.09
  -5  -5   1   -5.82   10.78
  -5  -5   1   -8.98    8.47
  -5  -5   2   14.82   10.37
  -5  -5   2   20.45   11.18
  -5  -5   2   15.35   10.16
  -5  -5   3   -0.58    7.73
  -5  -5   3   14.94   10.01
  -5  -5   3   19.15    9.83
  -5  -5   4   -8.19    9.53
  -5  -5   4   22.98   11.64
  -5  -5   4    0.09   10.01
  -5  -5   5   -6.50    9.31
  -5  -5   5   29.55   12.73
  -5  -6   1   13.21   10.07
  -5  -6   1   -4.61    9.91
  -5  -6   2   -2.03    8.89
  -5  -6   2   16.16   10.45
  -5  -6   2   -3.86   11.02
  -5  -6   3   16.79    9.90
  -5  -6   3   17.05   11.82
  -5  -6   4   -3.53    8.97
  -5  -6   4    7.47   10.06
  -6   4  -1   21.22   10.02
  -6   4   0   12.15    9.32
  -6   4   0   32.32   13.26
  -6   4   1   24.60   10.44
  -6   4   1   25.60   11.81
  -6   4   2   -1.28    9.63
  -6   3  -1   43.72   13.89
  -6   3   0   18.02   10.04
  -6   3   1    5.42   10.07
  -6   3   2   32.08   12.11
  -6   3   3   25.84   12.90
  -6   2   0    4.98    9.20
  -6   2   0   -1.43    7.42
  -6   2   1    9.07    7.87
  -6   2   1    4.32    7.77
  -6   2   2   15.35    9.92
  -6   2   2   14.60    8.75
  -6   2   3  -51.94   15.20
  -6   2   3  -44.45   12.37
  -6   1   0   40.24   11.99
  -6   1   0   34.98   10.98
  -6   1   1   39.53   11.65
  -6   1   1   59.67   14.16
  -6   1   2   31.98   11.21
  -6   1   2   28.21   10.57
  -6   1   3   18.33    9.94
  -6   1   3   12.58   10.17
  -6   1   4   26.78   10.21
  -6   1   4   30.04   11.42
  -6   0   0   40.00   10.56
  -6   0   0   42.54   11.34
  -6   0   1   40.13   11.32
  -6   0   1   36.68   11.21
  -6   0   2   31.91    9.30
  -6   0   2   47.58   11.32
  -6   0   3   81.99   14.02
  -6   0   3   98.44   16.21
  -6   0   4   57.97   13.56
  -6   0   4   64.90   13.47
  -6  -1   0   45.71   13.88
  -6  -1   0   19.26    7.37
  -6  -1   1   34.99    9.98
  -6  -1   1   28.59   10.79
  -6  -1   2   33.78    9.79
  -6  -1   2   43.16   11.26
  -6  -1   3   54.43   11.41
  -6  -1   3   36.43   12.80
  -6  -1   4   19.15    6.75
  -6  -1   4   13.50   10.51
  -6  -2   0   -1.42    8.73
  -6  -2   0   -4.82    8.82
  -6  -2   1    2.82    8.45
  -6  -2   1  -16.87   11.63
  -6  -2   1   -0.52   10.78
  -6  -2   2    1.60    7.32
  -6  -2   2    1.23    8.79
  -6  -2   2   -2.77    7.91
  -6  -2   3   24.64    9.27
  -6  -2   3   49.40   13.93
  -6  -2   3   23.44   11.30
  -6  -2   4   -0.25    7.73
  -6  -2   4   -9.62   10.90
  -6  -2   4   -2.42    9.00
  -6  -3   1    9.34    8.56
  -6  -3   1    4.90    8.27
  -6  -3   1   32.86   11.09
  -6  -3   2   13.82    9.28
  -6  -3   2   15.43   10.42
  -6  -3   2   24.53   11.37
  -6  -3   3   40.33   12.40
  -6  -3   3   33.13   11.91
  -6  -3   3   39.87   12.50
  -6  -3   4   24.03   11.46
  -6  -3   4    3.02    8.86
  -6  -3   4   28.11   13.29
  -6  -4   1    8.45    9.36
  -6  -4   2   25.68   11.71
  -6  -4   2   13.40    9.73
  -6  -4   2   17.58   11.15
  -6  -4   3   19.31   11.62
  -6  -4   3   26.25   11.57
  -6  -4   3   21.09   11.13
  -6  -4   4   16.40   11.37
  -6  -4   4    1.52    9.37
  -6  -4   5    4.24    8.57
  -6  -5   1   15.28   12.07
  -7   2   2    6.76    9.65
  -7   2   3  -19.93   13.10
  -7   1   1   -1.12    8.26
  -7   1   1   11.50   10.11
  -7   1   2    2.02    9.10
  -7   1   2   -3.10   10.26
  -7   1   3    1.95   10.11
  -7   1   3   -0.87   10.10
  -7   0   1   -2.15    8.83
  -7   0   1   16.31   10.70
  -7   0   2   40.90   13.57
  -7   0   2   28.90   12.77
  -7   0   3   15.68   10.92
  -7   0   3   -7.69   11.46
  -7  -1   1   17.08   12.68
  -7  -1   2    7.03   10.84
  -7  -2   1   14.93   11.15
  -7  -2   2   18.70   11.10
  -7  -2   3  -16.50   11.55
  -7  -2   4    6.47    9.07
  -7  -3   1  -16.70   11.01
   0   0   0    0.00    0.00
;
_shelx_hkl_checksum              77755
_olex2_submission_special_instructions 'No special instructions were received'
loop_
_space_group_symop_operation_xyz
'x, y, z'
loop_
_atom_site_label
_atom_site_type_symbol
_atom_site_fract_x
_atom_site_fract_y
_atom_site_fract_z
_atom_site_U_iso_or_equiv
_atom_site_adp_type
_atom_site_occupancy
_atom_site_site_symmetry_order
_atom_site_calc_flag
_atom_site_refinement_flags_posn
Co1 Co 0.002(5) 0.000(4) 0.002(7) 0.043(3) Uiso 1 1 d .
O2 O -0.260(5) 0.019(6) 0.147(3) 0.060(17) Uiso 1 1 d D
N1 N 0.003(10) 0.302(8) -0.002(14) 0.019(13) Uiso 1 1 d .
O1 O 0.075(4) -0.017(5) 0.174(4) 0.026(9) Uiso 1 1 d D
N2 N -0.006(12) 0.666(9) -0.012(16) 0.028(13) Uiso 1 1 d .
O1W O 0.332(8) -0.021(6) -0.029(11) 0.036(11) Uiso 1 1 d .
H1WA H 0.5348 0.1236 -0.0595 0.054 Uiso 1 1 d DGR
H1WB H 0.4609 -0.1252 -0.1305 0.054 Uiso 1 1 d GR
O4 O -0.141(6) -0.009(7) 0.802(4) 0.060(15) Uiso 1 1 d D
C11 C -0.247(9) 0.390(7) -0.020(16) 0.032(13) Uiso 1 1 d .
H11 H -0.3161 0.3585 -0.1036 0.039 Uiso 1 1 calc R
H11B H -0.3392 0.3322 0.0408 0.039 Uiso 1 1 calc R
C8 C -0.293(5) 0.024(7) 0.7212(10) 0.09(3) Uiso 1 1 d D
C9 C 0.097(12) 0.387(9) -0.11(2) 0.039(15) Uiso 1 1 d .
H9A H 0.0117 0.3465 -0.1827 0.046 Uiso 1 1 calc R
H9B H 0.2491 0.3469 -0.1077 0.046 Uiso 1 1 calc R
C12 C -0.239(10) 0.614(8) -0.002(16) 0.034(13) Uiso 1 1 d .
H12 H -0.3337 0.6740 -0.0680 0.041 Uiso 1 1 calc R
H12B H -0.2850 0.6490 0.0792 0.041 Uiso 1 1 calc R
O3 O -0.490(6) 0.055(10) 0.733(13) 0.13(3) Uiso 1 1 d D
C7 C -0.097(2) 0.007(4) 0.2246(10) 0.055(18) Uiso 1 1 d D
C10 C 0.100(11) 0.594(9) -0.095(19) 0.041(16) Uiso 1 1 d .
H10A H 0.2554 0.6402 -0.0813 0.049 Uiso 1 1 calc R
H10B H 0.0420 0.6428 -0.1764 0.049 Uiso 1 1 calc R
C1 C -0.168(6) 0.012(6) 0.3440(13) 0.040(14) Uiso 1 1 d D
C6 C 0.004(5) -0.002(8) 0.439(4) 0.07(2) Uiso 1 1 d G
H6 H 0.1498 -0.0165 0.4189 0.084 Uiso 1 1 calc R
C5 C -0.041(11) 0.005(9) 0.565(3) 0.08(3) Uiso 1 1 d G
H5 H 0.0745 -0.0044 0.6283 0.102 Uiso 1 1 calc R
C4 C -0.259(13) 0.027(8) 0.595(2) 0.07(2) Uiso 1 1 d DG
C3 C -0.431(8) 0.041(6) 0.500(5) 0.06(2) Uiso 1 1 d G
H3 H -0.5767 0.0557 0.5201 0.076 Uiso 1 1 calc R
C2 C -0.386(5) 0.034(6) 0.374(4) 0.09(3) Uiso 1 1 d G
H2 H -0.5014 0.0437 0.3106 0.102 Uiso 1 1 calc R
C14 C 0.150(16) 0.599(11) 0.14(3) 0.07(2) Uiso 1 1 d .
H14A H 0.2991 0.6596 0.1462 0.086 Uiso 1 1 calc R
H14B H 0.0718 0.6324 0.2096 0.086 Uiso 1 1 calc R
C13 C 0.159(13) 0.398(9) 0.13(2) 0.048(17) Uiso 1 1 d .
H13A H 0.1090 0.3395 0.2009 0.058 Uiso 1 1 calc R
H13B H 0.3138 0.3674 0.1208 0.058 Uiso 1 1 calc R
loop_
_atom_type_symbol
_atom_type_description
_atom_type_scat_dispersion_real
_atom_type_scat_dispersion_imag
_atom_type_scat_source
C C 0.0033 0.0016 'International Tables Vol C Tables 4.2.6.8 and 6.1.1.4'
H H 0.0000 0.0000 'International Tables Vol C Tables 4.2.6.8 and 6.1.1.4'
Co Co 0.3494 0.9721 'International Tables Vol C Tables 4.2.6.8 and 6.1.1.4'
N N 0.0061 0.0033 'International Tables Vol C Tables 4.2.6.8 and 6.1.1.4'
O O 0.0106 0.0060 'International Tables Vol C Tables 4.2.6.8 and 6.1.1.4'
loop_
_geom_angle_atom_site_label_1
_geom_angle_atom_site_label_2
_geom_angle_atom_site_label_3
_geom_angle
_geom_angle_site_symmetry_1
_geom_angle_site_symmetry_3
O2 Co1 N2 97(3) . 1_545
O2 Co1 C7 29.3(8) . .
N1 Co1 O2 86(3) . .
N1 Co1 N2 175(6) . 1_545
N1 Co1 O4 90(4) . 1_554
N1 Co1 C7 89(3) . .
O1 Co1 O2 57.3(18) . .
O1 Co1 N1 95(4) . .
O1 Co1 N2 89(4) . 1_545
O1 Co1 O1W 90(3) . .
O1 Co1 O4 169.8(16) . 1_554
O1 Co1 C7 28.1(11) . .
N2 Co1 C7 95(4) 1_545 .
O1W Co1 O2 147(3) . .
O1W Co1 N1 96.5(16) . .
O1W Co1 N2 83.5(18) . 1_545
O1W Co1 O4 98(3) . 1_554
O1W Co1 C7 118(3) . .
O4 Co1 O2 114.5(18) 1_554 .
O4 Co1 N2 86(4) 1_554 1_545
O4 Co1 C7 143.6(16) 1_554 .
C7 O2 Co1 84(3) . .
C11 N1 Co1 115(3) . .
C11 N1 C13 111(8) . .
C9 N1 Co1 115(7) . .
C9 N1 C11 100(7) . .
C9 N1 C13 104(6) . .
C13 N1 Co1 111(5) . .
C7 O1 Co1 107(3) . .
C12 N2 Co1 103(4) . 1_565
C12 N2 C14 108(10) . .
C10 N2 Co1 117(5) . 1_565
C10 N2 C12 121(10) . .
C10 N2 C14 104(7) . .
C14 N2 Co1 103(7) . 1_565
Co1 O1W H1WA 136.0 . .
Co1 O1W H1WB 134.9 . .
H1WA O1W H1WB 74.5 . .
C8 O4 Co1 150(4) . 1_556
N1 C11 H11 109.0 . .
N1 C11 H11B 109.0 . .
H11 C11 H11B 107.8 . .
C12 C11 N1 113(5) . .
C12 C11 H11 109.0 . .
C12 C11 H11B 109.0 . .
O4 C8 C4 121(5) . .
O3 C8 O4 129(7) . .
O3 C8 C4 109(8) . .
N1 C9 H9A 109.5 . .
N1 C9 H9B 109.5 . .
N1 C9 C10 111(10) . .
H9A C9 H9B 108.0 . .
C10 C9 H9A 109.5 . .
C10 C9 H9B 109.5 . .
N2 C12 C11 102(5) . .
N2 C12 H12 111.3 . .
N2 C12 H12B 111.3 . .
C11 C12 H12 111.3 . .
C11 C12 H12B 111.3 . .
H12 C12 H12B 109.2 . .
O2 C7 Co1 67(2) . .
O2 C7 O1 112(3) . .
O2 C7 C1 109(3) . .
O1 C7 Co1 45(2) . .
O1 C7 C1 139(4) . .
C1 C7 Co1 176(2) . .
N2 C10 C9 118(10) . .
N2 C10 H10A 107.8 . .
N2 C10 H10B 107.8 . .
C9 C10 H10A 107.8 . .
C9 C10 H10B 107.8 . .
H10A C10 H10B 107.1 . .
C7 C1 C6 113(3) . .
C7 C1 C2 127(3) . .
C6 C1 C2 120.0 . .
C1 C6 H6 120.0 . .
C5 C6 C1 120.0 . .
C5 C6 H6 120.0 . .
C6 C5 H5 120.0 . .
C6 C5 C4 120.0 . .
C4 C5 H5 120.0 . .
C8 C4 C5 117(5) . .
C8 C4 C3 123(5) . .
C3 C4 C5 120.0 . .
C4 C3 H3 120.0 . .
C4 C3 C2 120.0 . .
C2 C3 H3 120.0 . .
C1 C2 H2 120.0 . .
C3 C2 C1 120.0 . .
C3 C2 H2 120.0 . .
N2 C14 H14A 111.2 . .
N2 C14 H14B 111.2 . .
H14A C14 H14B 109.1 . .
C13 C14 N2 103(10) . .
C13 C14 H14A 111.2 . .
C13 C14 H14B 111.2 . .
N1 C13 H13A 108.5 . .
N1 C13 H13B 108.5 . .
C14 C13 N1 115(10) . .
C14 C13 H13A 108.5 . .
C14 C13 H13B 108.5 . .
H13A C13 H13B 107.5 . .
loop_
_geom_bond_atom_site_label_1
_geom_bond_atom_site_label_2
_geom_bond_distance
_geom_bond_site_symmetry_2
Co1 O2 2.32(6) .
Co1 N1 2.13(4) .
Co1 O1 1.85(8) .
Co1 N2 2.36(6) 1_545
Co1 O1W 2.05(4) .
Co1 O4 2.22(8) 1_554
Co1 C7 2.50(7) .
O2 C7 1.2300(13) .
N1 C11 1.64(7) .
N1 C9 1.40(18) .
N1 C13 1.7(2) .
O1 C7 1.2300(12) .
N2 Co1 2.36(6) 1_565
N2 C12 1.44(7) .
N2 C10 1.27(19) .
N2 C14 1.8(3) .
O1W H1WA 1.6066 .
O1W H1WB 1.5822 .
O4 Co1 2.22(8) 1_556
O4 C8 1.2300(17) .
C11 H11 0.9700 .
C11 H11B 0.9700 .
C11 C12 1.59(8) .
C8 O3 1.2300(16) .
C8 C4 1.3800(17) .
C9 H9A 0.9700 .
C9 H9B 0.9700 .
C9 C10 1.47(10) .
C12 H12 0.9700 .
C12 H12B 0.9700 .
C7 C1 1.3801(17) .
C10 H10A 0.9700 .
C10 H10B 0.9700 .
C1 C6 1.3900 .
C1 C2 1.3900 .
C6 H6 0.9300 .
C6 C5 1.3900 .
C5 H5 0.9300 .
C5 C4 1.3900 .
C4 C3 1.3900 .
C3 H3 0.9300 .
C3 C2 1.3900 .
C2 H2 0.9300 .
C14 H14A 0.9700 .
C14 H14B 0.9700 .
C14 C13 1.43(11) .
C13 H13A 0.9700 .
C13 H13B 0.9700 .
loop_
_geom_torsion_atom_site_label_1
_geom_torsion_atom_site_label_2
_geom_torsion_atom_site_label_3
_geom_torsion_atom_site_label_4
_geom_torsion
_geom_torsion_site_symmetry_1
Co1 O2 C7 O1 -4(3) .
Co1 O2 C7 C1 -180(3) .
Co1 N1 C11 C12 172(8) .
Co1 N1 C9 C10 -177(8) .
Co1 N1 C13 C14 -174(8) .
Co1 O1 C7 O2 5(4) .
Co1 O1 C7 C1 179(5) .
Co1 N2 C12 C11 177(9) 1_565
Co1 N2 C10 C9 180(10) 1_565
Co1 N2 C14 C13 -176(6) 1_565
Co1 O4 C8 O3 -18(13) 1_556
Co1 O4 C8 C4 163(5) 1_556
O2 Co1 O1 C7 -3(3) .
O2 C7 C1 C6 179(4) .
O2 C7 C1 C2 -2(6) .
N1 Co1 O1 C7 78(3) .
N1 C11 C12 N2 16(13) .
N1 C9 C10 N2 -10(18) .
O1 C7 C1 C6 5(7) .
O1 C7 C1 C2 -176(5) .
N2 Co1 O1 C7 -102(3) 1_545
N2 C14 C13 N1 -8(10) .
O1W Co1 O1 C7 175(3) .
O4 Co1 O1 C7 -40(14) 1_554
O4 C8 C4 C5 -4(7) .
O4 C8 C4 C3 172(4) .
C11 N1 C9 C10 59(12) .
C11 N1 C13 C14 -44(12) .
C8 C4 C3 C2 -177(6) .
C9 N1 C11 C12 -65(13) .
C9 N1 C13 C14 62(10) .
C12 N2 C10 C9 -53(18) .
C12 N2 C14 C13 76(11) .
O3 C8 C4 C5 176(5) .
O3 C8 C4 C3 -7(8) .
C7 C1 C6 C5 179(4) .
C7 C1 C2 C3 -178(5) .
C10 N2 C12 C11 43(14) .
C10 N2 C14 C13 -53(7) .
C1 C6 C5 C4 0.0 .
C6 C1 C2 C3 0.0 .
C6 C5 C4 C8 177(5) .
C6 C5 C4 C3 0.0 .
C5 C4 C3 C2 0.0 .
C4 C3 C2 C1 0.0 .
C2 C1 C6 C5 0.0 .
C14 N2 C12 C11 -75(11) .
C14 N2 C10 C9 67(15) .
C13 N1 C11 C12 44(13) .
C13 N1 C9 C10 -55(10) .
