#------------------------------------------------------------------------------
#$Date: 2019-11-24 04:12:18 +0200 (Sun, 24 Nov 2019) $
#$Revision: 236652 $
#$URL: file:///home/coder/svn-repositories/cod/cif/8/00/03/8000369.cif $
#------------------------------------------------------------------------------
#
# This file is available in the Crystallography Open Database (COD),
# http://www.crystallography.net/
#
# All data on this site have been placed in the public domain by the
# contributors.
#
data_8000369
loop_
_publ_author_name
'Andrzejewski, Micha\/l'
'Katrusiak, Andrzej'
_publ_section_title
;
 Piezochromic Porous Metal-Organic Framework.
;
_journal_issue                   1
_journal_name_full               'The journal of physical chemistry letters'
_journal_page_first              279
_journal_page_last               284
_journal_paper_doi               10.1021/acs.jpclett.6b02458
_journal_volume                  8
_journal_year                    2017
_chemical_formula_moiety         'C14 H16 Co N2 O5'
_chemical_formula_sum            'C14 H17 Co N2 O5'
_chemical_formula_weight         352.22
_chemical_name_common            AMU1
_chemical_name_systematic
;
Co(1,4-benzenedicarboxylate)(1,4-diazabicyclo[2.2.2]octane)H2O
;
_space_group_crystal_system      monoclinic
_space_group_IT_number           6
_space_group_name_Hall           'P -2y'
_space_group_name_H-M_alt        'P 1 m 1'
_atom_sites_solution_hydrogens   geom
_atom_sites_solution_primary     direct
_audit_creation_date             2016-07-12
_audit_creation_method
;
Olex2 1.2
(compiled 2016.02.19 svn.r3266 for OlexSys, GUI svn.r5155)
;
_cell_angle_alpha                90
_cell_angle_beta                 95.196(17)
_cell_angle_gamma                90
_cell_formula_units_Z            1
_cell_length_a                   6.0764(7)
_cell_length_b                   7.0959(5)
_cell_length_c                   10.704(4)
_cell_measurement_reflns_used    563
_cell_measurement_temperature    296(2)
_cell_measurement_theta_max      53.622
_cell_measurement_theta_min      9.884
_cell_volume                     459.63(18)
_computing_molecular_graphics    'Olex2 (Dolomanov et al., 2009)'
_computing_publication_material  'Olex2 (Dolomanov et al., 2009)'
_computing_structure_refinement  'ShelXL (Sheldrick, 2015)'
_computing_structure_solution    'ShelXS (Sheldrick, 2008)'
_diffrn_ambient_temperature      296(2)
_diffrn_measured_fraction_theta_full 0.304
_diffrn_measured_fraction_theta_max 0.295
_diffrn_measurement_device_type  'multiwire proportional'
_diffrn_measurement_method       'phi and omega scans'
_diffrn_radiation_monochromator  graphite
_diffrn_radiation_type           MoK\a
_diffrn_radiation_wavelength     0.71073
_diffrn_reflns_av_R_equivalents  0.0423
_diffrn_reflns_av_unetI/netI     0.0414
_diffrn_reflns_Laue_measured_fraction_full 0.304
_diffrn_reflns_Laue_measured_fraction_max 0.295
_diffrn_reflns_limit_h_max       7
_diffrn_reflns_limit_h_min       -7
_diffrn_reflns_limit_k_max       8
_diffrn_reflns_limit_k_min       -8
_diffrn_reflns_limit_l_max       4
_diffrn_reflns_limit_l_min       -4
_diffrn_reflns_number            2325
_diffrn_reflns_point_group_measured_fraction_full 0.302
_diffrn_reflns_point_group_measured_fraction_max 0.293
_diffrn_reflns_theta_full        26.000
_diffrn_reflns_theta_max         26.311
_diffrn_reflns_theta_min         4.942
_exptl_absorpt_coefficient_mu    0.954
_exptl_absorpt_correction_T_max  0.909
_exptl_absorpt_correction_T_min  0.892
_exptl_absorpt_correction_type   multi-scan
_exptl_absorpt_process_details
;
Data were collected and reduced by program CrysAlisPro, 
and SCALE3 ABSPACK was used for absorption correction
;
_exptl_crystal_colour            purple
_exptl_crystal_density_diffrn    1.273
_exptl_crystal_description       plate
_exptl_crystal_F_000             182
_exptl_crystal_size_max          0.3
_exptl_crystal_size_mid          0.1
_exptl_crystal_size_min          0.1
_refine_diff_density_max         2.416
_refine_diff_density_min         -1.125
_refine_diff_density_rms         0.278
_refine_ls_abs_structure_details
;
 Refined as a perfect inversion twin.
;
_refine_ls_abs_structure_Flack   0.5
_refine_ls_extinction_method     none
_refine_ls_goodness_of_fit_ref   2.288
_refine_ls_hydrogen_treatment    constr
_refine_ls_matrix_type           full
_refine_ls_number_parameters     40
_refine_ls_number_reflns         563
_refine_ls_number_restraints     38
_refine_ls_restrained_S_all      3.177
_refine_ls_R_factor_all          0.2213
_refine_ls_R_factor_gt           0.1941
_refine_ls_shift/su_max          0.000
_refine_ls_shift/su_mean         0.000
_refine_ls_structure_factor_coef Fsqd
_refine_ls_weighting_details
'w=1/[\s^2^(Fo^2^)+(0.2000P)^2^] where P=(Fo^2^+2Fc^2^)/3'
_refine_ls_weighting_scheme      calc
_refine_ls_wR_factor_gt          0.4343
_refine_ls_wR_factor_ref         0.4739
_reflns_Friedel_coverage         0.980
_reflns_Friedel_fraction_full    0.300
_reflns_Friedel_fraction_max     0.292
_reflns_number_gt                466
_reflns_number_total             563
_reflns_threshold_expression     'I > 2\s(I)'
_cod_data_source_file            jz6b02458_si_004.cif
_cod_data_source_block           010GPa_Pm_oil
_cod_original_cell_volume        459.62(18)
_cod_database_code               8000369
_shelx_space_group_comment
;
The symmetry employed for this shelxl refinement is uniquely defined
by the following loop, which should always be used as a source of
symmetry information in preference to the above space-group names.
They are only intended as comments.
;
_olex2_refinement_description
;
1. Fixed Uiso
 At 1.2 times of:
  All C(H) groups, All C(H,H) groups
2. Restrained distances
 O2-C7
 1.23 with sigma of 0.001
 C7-O1
 1.23 with sigma of 0.001
 O3-C8
 1.23 with sigma of 0.001
 C8-O4
 1.23 with sigma of 0.001
 C8-C4
 1.48 with sigma of 0.001
 C7-C1
 1.48 with sigma of 0.001
 C1-C6
 1.38 with sigma of 0.001
 C6-C5
 1.38 with sigma of 0.001
 C5-C4
 1.38 with sigma of 0.001
 C4-C3
 1.38 with sigma of 0.001
 C3-C2
 1.38 with sigma of 0.001
 C2-C1
 1.38 with sigma of 0.001
 N1-C9
 1.48 with sigma of 0.001
 N1-C10
 1.48 with sigma of 0.001
 N1-C11
 1.48 with sigma of 0.001
 O3-C4 \\sim C4-O4
 with sigma of 0.02
 C3-C8 \\sim C8-C5
 with sigma of 0.02
 O2-Co1 \\sim Co1-O1
 with sigma of 0.02
3. Restrained planarity
 O1, O4, O2, C7, C4, C3, C2, C1, C6, C5, C8, O3
 with sigma of 0.1
 O1, O4, O2, C7, C4, C3, C2, C1, C6, C5, C8, O3
 with sigma of 0.1
4. Uiso/Uaniso restraints and constraints
Uiso(C7) = Uiso(C1) = Uiso(C2) = Uiso(C3) = Uiso(C4) = Uiso(C8) = Uiso(C5) =
Uiso(C6)
Uiso(O1) = Uiso(O2) = Uiso(O3) = Uiso(O4)
Uiso(C10) = Uiso(C11) = Uiso(C9)
5.a Secondary CH2 refined with riding coordinates:
 C9(H9A,H9B), C10(H10A,H10B), C11(H11A,H11B)
5.b Aromatic/amide H refined with riding coordinates:
 C3(H3), C2(H2), C6(H6), C5(H5)
5.c Fitted hexagon refined as free rotating group:
 C4(C3,C2,C1,C6,C5)
;
_shelx_hkl_file
;
   4   4   3    3.40    0.86
   1   8   1    1.05    1.42
   3   7   2    5.23    1.38
   5   6   2    6.76    1.48
   2   8   1   -0.36    1.49
   2   7   2    2.67    1.18
   4   6   2    5.77    1.22
   1   6   2    6.03    1.06
   2   5   2    1.70    0.90
   1   8   0    3.77    1.47
   3   5   2    4.56    0.97
   1   7   1    2.24    1.14
   1   5   2    4.61    0.90
   2   8   0   -0.03    1.51
   5   6   1    1.39    1.35
   2   7   1    3.36    1.22
   4   6   1    1.52    1.21
   4   7   1    1.53    1.49
   3   7   1    8.81    1.33
   5   5   1   -0.08    1.13
   1   8  -1    3.03    1.57
   2   5   1    0.80    0.91
   4   5   1    0.11    1.06
   1   7   0    7.48    1.23
   2   6   1    7.50    1.12
   5   6   0    3.43    1.62
   2   8  -1    2.53    1.59
   4   4   1    2.62    0.85
   2   7   0    2.50    1.31
   4   7   0    1.62    1.62
   3   7   0    5.12    1.49
   4   6   0    4.29    1.33
   5   5   0    1.99    1.29
   1   8  -2    0.86    1.67
   4   2   1    1.90    0.61
   1   7  -1    2.59    1.25
   2   8  -2    0.35    1.42
   5   6  -1    1.96    1.67
   4   5   0    1.43    1.08
   5   4   0    4.63    1.16
   4   7  -1    2.22    1.79
   2   7  -1    3.92    1.30
   2   5   0    1.57    0.91
   3   7  -1    5.86    1.59
   4   6  -1    6.45    1.58
   5   5  -1    1.69    1.44
   1   7  -2    1.51    1.39
   1   6  -1    6.56    1.05
   2   7  -2    2.07    1.40
   3   7  -2    0.80    1.55
   4   5  -1    3.84    1.31
   5   4  -1    3.35    1.29
   4   6  -2   -0.02    1.63
   2   5  -1    4.16    0.94
   1   7  -3   -0.95    1.21
   1   6  -2    3.54    1.14
   3   6  -2    8.91    1.50
   4   5  -2    0.01    1.49
   0   6  -3    3.15    1.18
   3   5  -2    7.07    1.30
   2   5  -2    5.44    1.10
   1   6  -3   -0.12    1.00
   4   4  -2   -0.19    1.26
   1   5  -2    3.81    0.93
   0   5  -3    2.36    0.89
   1   5  -3    0.03    0.81
   0   4  -3    0.01    0.53
   3   5   3    6.88    1.01
   4   5   3    9.99    1.11
   3   4   3   15.67    0.89
   1   3   2   52.42    0.81
   1   4   2   14.01    0.77
   0   7   1   10.46    1.22
   3   1   2   56.51    0.69
   0   2   1   11.47    0.33
   5   5   2   12.71    1.37
   0   5   1   70.39    1.14
  -1   5   0   40.00    0.93
   4   5   2   11.61    1.13
   0   4   1    4.90    0.60
   2   4   2   16.41    0.83
   0   3   1  411.39    1.64
   2   3   2   21.61    0.68
   3   2   2   23.70    0.67
   4   4   2   11.71    0.94
   2   6   2    8.39    1.09
  -1   4   0   28.48    0.67
   4   3   2   32.37    0.96
   3   4   2   24.68    0.98
  -1   3   0  200.89    1.04
   3   3   2   54.92    0.95
   3   6   2   12.15    1.26
   0   7   0   25.93    1.30
   1   6   1    8.50    1.07
   1   4   1   22.34    0.75
   3   5   1   10.76    1.05
   0   6   0   84.39    1.42
   1   3   1   42.98    0.73
   1   2   1   97.46    0.77
   3   6   1   27.64    1.35
   2   4   1   12.60    0.83
   1   5   1    8.07    0.85
   4   3   1    9.25    0.77
   0   4   0  253.51    1.50
   2   3   1   14.12    0.62
   1   6   0   13.68    1.08
   3   3   1   99.25    1.16
   2   1   1   40.63    0.49
   0   5   0  167.22    1.52
   2   2   1    5.30    0.45
   3   2   1   75.93    0.88
   2   6   0    9.64    1.21
   0   6  -1   10.63    1.10
  -1   4  -1   25.76    0.66
   3   5   0   12.04    1.09
   3   6   0   22.41    1.31
   0   3   0  965.49    2.33
   1   4   0   29.50    0.79
   4   4   0    8.82    0.95
   1   5   0   33.45    1.02
   3   4   0   51.98    1.12
   2   4   0   29.08    0.91
   4   3   0   22.02    0.93
   2   6  -1   12.05    1.24
   3   6  -1   23.14    1.45
   0   6  -2   14.33    1.17
   0   5  -1   71.60    1.13
  -1   3  -1   50.95    0.58
   1   3   0  191.23    1.24
   3   5  -1    9.79    1.21
   3   3   0   74.90    1.11
   0   4  -1    7.38    0.62
   2   3   0   33.28    0.77
   4   2   0   12.19    0.72
   4   4  -1   13.76    1.18
   1   5  -1   10.24    0.95
   2   6  -2   12.17    1.28
   1   2   0  103.15    0.75
   3   4  -1   53.30    1.28
   1   4  -1   10.99    0.71
   3   2   0   28.20    0.67
   2   4  -1   33.00    0.95
   2   2   0   26.91    0.54
   4   3  -1   27.75    1.08
   0   3  -1  403.28    1.56
  -1   4  -2   16.61    0.68
   3   3  -1   82.03    1.17
   3   1   0  103.30    0.84
   2   3  -1   38.44    0.84
   3   4  -2   28.10    1.35
   1   3  -1   65.51    0.85
   4   2  -1   10.76    0.79
   2   1   0   82.05    0.64
   2   4  -2   39.17    1.17
   1   4  -2    5.78    0.71
   0   4  -2   15.90    0.74
   3   2  -1   37.87    0.79
  -1   3  -2   61.00    0.72
   2   2  -1   13.76    0.54
   1   2  -1   48.15    0.58
   2   3  -2   19.09    0.82
   0   3  -2   70.49    0.83
   1   3  -2   22.40    0.69
   3   1  -1  110.88    1.01
  -1  -8  -1    1.46    1.24
  -3  -7  -2    5.19    1.37
  -5  -6  -2    6.84    1.53
  -2  -8  -1    0.21    1.28
  -2  -7  -2    1.64    1.23
  -4  -6  -2    5.44    1.41
  -1  -6  -2    6.15    0.92
  -2  -5  -2    1.10    0.93
  -1  -8   0    3.58    1.35
  -3  -5  -2    5.75    1.16
  -1  -7  -1    3.64    1.10
  -2  -6  -2    6.94    1.15
  -2  -8   0   -0.52    1.24
  -5  -6  -1    1.36    1.43
  -2  -7  -1    4.40    1.19
  -4  -6  -1    0.92    1.31
  -4  -7  -1    2.00    1.45
  -3  -7  -1    7.10    1.39
  -5  -5  -1    0.20    1.36
  -5  -4  -1    2.39    1.17
  -2  -5  -1    2.10    0.89
  -4  -5  -1    0.38    1.13
  -5  -6   0    3.51    1.52
  -2  -8   1    0.59    1.16
  -2  -7   0    2.92    1.09
  -4  -4  -1    1.80    1.04
  -4  -7   0    1.98    1.46
  -3  -7   0    6.44    1.29
  -4  -6   0    5.07    1.34
  -5  -5   0    0.39    1.25
  -4  -2  -1    1.72    0.76
  -1  -7   1    2.61    1.10
  -2  -2  -1    2.93    0.46
  -2  -8   2   -0.42    1.10
  -5  -6   1    3.11    1.51
  -4  -5   0    2.03    1.15
  -5  -4   0    3.86    1.13
  -4  -7   1    4.95    1.43
  -2  -7   1    3.94    1.10
  -2  -5   0    1.34    0.85
  -3  -7   1    5.73    1.28
  -4  -6   1    7.38    1.38
  -5  -3   0    6.94    1.09
  -5  -5   1    1.05    1.24
  -1  -7   2    1.75    1.02
  -2  -7   2    4.75    0.98
  -3  -7   2    4.51    1.14
  -4  -5   1    5.17    1.21
  -5  -4   1    5.19    1.17
  -4  -6   2    1.48    1.34
  -2  -5   1    3.56    0.87
  -1  -7   3    0.60    0.93
  -1  -6   2    4.95    0.90
  -5  -3   1    7.58    1.11
  -4  -5   2    0.21    1.19
  -1  -6   3    1.13    0.74
  -4  -4   2    3.80    1.07
  -1  -5   2    3.87    0.75
   0  -5   3    2.76    0.63
  -1  -5   3    0.16    0.53
   0  -4   3    2.80    0.40
  -4  -5  -3   10.82    1.29
  -3  -4  -3   16.45    1.14
  -1  -3  -2   55.09    0.85
  -1  -4  -2   17.33    0.75
  -3  -1  -2   53.14    0.76
   0  -2  -1   11.59    0.31
  -5  -5  -2   14.92    1.57
  -2  -2  -2    5.43    0.56
  -5  -4  -2   13.72    1.27
  -4  -5  -2   10.50    1.25
   0  -4  -1    6.77    0.55
  -2  -4  -2   19.02    0.95
   0  -3  -1  400.45    1.59
   0  -6  -1    9.40    0.92
  -2  -3  -2   20.28    0.77
  -4  -2  -2   33.83    1.00
  -3  -2  -2   25.75    0.77
  -4  -4  -2   14.85    1.21
   1  -4   0   34.96    0.62
  -1  -5  -2    5.79    0.82
  -3  -4  -2   24.78    1.09
   1  -3   0  202.21    0.97
  -3  -3  -2   57.40    1.14
  -3  -6  -2   13.21    1.30
   0  -5  -1   66.47    1.07
  -1  -6  -1   11.49    1.00
  -1  -4  -1   26.61    0.78
  -1  -7   0    9.25    1.15
   0  -6   0   82.14    1.29
  -3  -5  -1   12.89    1.09
  -2  -6  -1    8.86    1.11
  -1  -3  -1   49.52    0.76
  -1  -2  -1  104.82    0.77
  -3   0  -1  204.32    0.96
  -3  -6  -1   22.00    1.37
  -1  -5  -1    8.31    0.82
  -2  -4  -1   13.13    0.82
  -3  -4  -1   56.70    1.21
  -4  -3  -1    9.02    0.97
   0  -4   0  251.98    1.43
  -2  -3  -1   14.02    0.71
  -1  -6   0   12.89    1.03
   0  -5   0  163.93    1.39
  -2  -1  -1   33.98    0.49
  -3  -2  -1   73.06    0.99
  -2  -6   0    8.64    1.06
   0  -6   1   10.70    0.86
   1  -4   1   23.10    0.56
  -3  -5   0   14.24    1.09
  -3  -6   0   20.71    1.30
   0  -3   0  982.59    2.28
  -1  -4   0   25.89    0.77
  -4  -4   0    8.84    1.09
  -1  -5   0   38.09    1.01
  -1  -6   1    8.90    0.98
  -3  -4   0   45.66    1.17
  -2  -4   0   28.60    0.90
  -4  -3   0   20.70    1.00
  -2  -6   1   12.38    1.12
   0  -5   1   69.38    1.07
   1  -3   1   47.73    0.54
  -1  -3   0  196.33    1.25
  -3  -5   1   11.79    1.20
  -3  -3   0   89.11    1.18
  -2  -3   0   34.91    0.79
   0  -4   1    6.86    0.52
  -4  -2   0   14.40    0.86
  -4  -4   1   12.72    1.13
  -1  -5   1   12.40    0.80
  -3  -6   2   19.99    1.28
  -2  -6   2   13.95    0.99
  -1  -2   0   92.97    0.73
  -3  -4   1   50.86    1.17
  -3  -2   0   32.20    0.80
  -1  -4   1   13.04    0.68
  -2  -4   1   29.81    0.93
  -2  -2   0   26.56    0.61
  -3  -5   2   14.35    1.06
   0  -5   2   12.78    0.77
  -4  -3   1   29.21    1.12
  -2  -5   2    6.97    0.83
   0  -3   1  412.54    1.50
  -3  -3   1   79.37    1.19
  -3  -1   0   99.10    0.93
  -2  -3   1   39.02    0.80
  -1  -3   1   65.38    0.79
  -3  -4   2   53.29    1.21
  -4  -2   1   12.15    0.84
  -2  -1   0   77.74    0.66
  -2  -4   2   45.09    0.97
  -1  -4   2    7.96    0.60
   0  -4   2   14.81    0.59
  -3  -2   1   43.70    0.85
   1  -3   2   58.16    0.62
  -3  -3   2   65.58    1.11
  -2  -2   1   11.24    0.49
  -4  -1   1   20.32    0.77
  -1  -2   1   52.28    0.59
  -2  -3   2   41.48    0.79
   0  -3   2   68.84    0.69
  -1  -3   2   25.33    0.57
  -3  -1   1   92.96    0.91
   1   6   2    5.79    1.06
   3   5   2    6.04    1.05
   2   5   1    1.40    0.86
   4   4   3    2.85    0.86
   1   7   2    2.75    1.18
   2   7   2    1.41    1.20
   3   7   2    6.39    1.42
   1   7   1    2.65    1.09
   2   6   1    6.76    1.09
   2   5   0    1.25    0.87
   4   6   2    5.06    1.30
   1   8   1    1.32    1.32
   2   7   1    2.65    1.18
   5   5   3    5.61    1.18
   4   4   1    2.88    0.83
   4   5   1    0.46    1.04
   2   8   1    0.11    1.46
   4   2   1    1.90    0.59
   4   6   1    0.27    1.27
   1   7   0    8.44    1.18
   3   7   1    8.24    1.37
   1   8   0    1.66    1.43
   2   5  -1    3.28    0.95
   2   7   0    2.49    1.21
   2   8   0   -0.43    1.50
   4   5   0    2.12    1.04
   4   6   0    4.66    1.34
   5   4   1    0.67    1.00
   5   5   1    0.65    1.20
   3   7   0    7.36    1.39
   1   7  -1    2.84    1.15
   2   7  -1    3.52    1.32
   4   5  -1    2.45    1.18
   2   8  -1   -0.19    1.53
   5   6   0    1.96    1.46
   2   5  -2    6.23    1.07
   5   5   0    1.50    1.29
   4   6  -1    4.92    1.37
   3   7  -1    7.25    1.53
   5   3   0    3.57    0.92
   5   4   0    4.07    1.08
   1   6  -2    3.82    1.14
   3   5  -2    5.01    1.08
   1   7  -2    0.21    1.20
   1   5  -2    2.99    0.97
   0   5  -2   10.12    0.98
   2   7  -2    1.58    1.23
   5   6  -1   -0.01    0.93
   0   3  -2    0.68    0.41
   1   2   2   18.79    0.44
   0   2   1    9.90    0.31
  -1   3   1   69.86    0.72
   1   3   2   58.32    0.83
   2   1   2   32.74    0.49
   0   4   2   26.58    0.76
   0   3   1  404.09    1.62
   2   2   2    6.87    0.46
   1   2   1   98.89    0.77
   1   4   2   12.25    0.72
  -1   4   1   10.96    0.60
   3   2   3   20.22    0.66
   2   3   2   22.30    0.74
   3   3   3   46.68    0.99
   0   4   1    5.69    0.61
   1   3   1   44.27    0.75
   0   5   2   10.95    0.84
   2   4   2   17.84    0.85
   3   4   3   16.34    0.96
   1   4   1   20.95    0.78
  -1   3   0  203.23    1.01
   2   2   1    5.24    0.40
   0   6   2   12.47    1.07
   3   2   2   25.66    0.67
   3   5   3    7.88    1.07
   2   1   1   39.59    0.49
   3   3   2   57.50    0.97
   2   3   1   15.39    0.64
   0   3   0  930.44    2.29
   3   1   2   56.79    0.70
   3   4   2   24.62    0.96
   0   5   1   66.46    1.12
   2   4   1   13.30    0.77
  -1   4   0   29.00    0.66
   1   2   0  106.65    0.76
   0   4   0  245.74    1.48
   4   3   3   28.25    0.97
   1   3   0  191.54    1.25
   1   5   1    7.09    0.87
   2   6   2    7.80    1.11
   1   4   0   29.86    0.76
   3   3   1   99.56    1.12
   4   5   3   10.15    1.07
   3   4   1   57.60    1.16
   1   6   1    9.58    1.03
   4   4   2   10.92    0.96
   3   2   1   75.21    0.87
   4   3   2   34.11    0.99
   4   2   2   28.42    0.82
   2   3   0   32.12    0.70
   3   5   1   11.27    1.00
   4   5   2    7.69    1.06
   2   4   0   29.09    0.85
   2   2   0   27.27    0.52
   3   6   2   13.10    1.29
   0   5   0  162.43    1.43
   0   6   0   78.68    1.38
   1   5   0   35.84    1.03
   3   1   1  154.39    0.98
   1   6   0   14.94    1.05
   3   4   0   58.24    1.13
   0   4  -1    6.04    0.59
   0   3  -1  407.40    1.57
   5   4   2   12.34    1.12
   3   3   0   76.14    1.06
   3   6   1   25.89    1.30
   3   5   0   11.09    1.04
   1   4  -1   10.86    0.72
   4   3   1    8.79    0.75
   1   3  -1   64.43    0.82
   2   1   0   80.51    0.63
   2   6   0    9.79    1.14
   5   5   2   13.78    1.66
   3   0   1  207.74    0.97
  -1   3  -1   47.65    0.60
   2   4  -1   32.87    0.91
   3   2   0   29.05    0.68
   0   2  -1   11.37    0.31
   2   3  -1   40.39    0.78
   1   2  -1   50.66    0.60
   0   5  -1   66.90    1.09
   0   6  -1    9.54    1.00
   4   4   0    7.56    0.93
   1   5  -1    9.87    0.86
   3   6   0   21.56    1.34
   1   6  -1    8.49    1.00
  -1   4  -1   24.45    0.65
   3   5  -1   10.95    1.13
   3   4  -1   53.73    1.21
   2   2  -1   13.75    0.52
   4   3   0   19.09    0.87
   2   6  -1   11.94    1.18
   3   3  -1   80.14    1.15
   1   4  -2    5.18    0.77
   3   6  -1   23.78    1.45
   2   4  -2   39.04    1.25
   4   4  -1    8.44    0.99
   3   1   0  111.59    0.93
   4   2   0   12.01    0.74
   1   3  -2   19.55    0.77
   3   2  -1   26.79    0.72
   2   6  -2   14.19    1.32
   4   3  -1    9.97    0.86
   2   8  -2   -0.20    1.27
   5   5  -1   -0.40    0.84
   0   4  -2   11.56    0.73
   3   6  -2    8.93    1.24
   3   7  -2    0.63    1.17
  -2  -5  -2    0.54    0.96
  -3  -5  -3    5.90    1.18
  -1  -6  -2    5.84    0.98
  -3  -5  -2    4.67    1.17
  -2  -5  -1    2.00    0.96
  -4  -4  -3    3.78    1.16
  -1  -7  -2    3.32    1.14
  -2  -6  -2    8.14    1.19
  -2  -7  -2    1.66    1.30
  -3  -7  -2    5.46    1.47
  -1  -7  -1    4.00    1.09
  -5  -5  -3    5.15    1.54
  -2  -5   0    1.55    0.88
  -4  -6  -2    7.83    1.49
  -1  -8  -1    1.48    1.19
  -2  -7  -1    2.27    1.20
  -4  -4  -1    1.57    0.99
  -4  -5  -1    2.14    1.21
  -2  -8  -1    1.13    1.36
  -4  -2  -1    1.33    0.72
  -4  -6  -1    2.05    1.42
  -3  -7  -1    6.66    1.44
  -5  -6  -2    4.89    1.71
  -1  -8   0    1.95    1.24
  -2  -5   1    3.27    0.90
  -2  -7   0    2.47    1.17
  -2  -8   0    0.01    1.33
  -4  -5   0    1.86    1.17
  -4  -6   0    5.37    1.43
  -5  -6  -1    0.23    1.55
  -5  -5  -1   -0.66    1.42
  -3  -7   0    5.44    1.40
  -1  -7   1    3.48    1.01
  -2  -7   1    3.83    1.17
  -1  -8   1    2.24    1.20
  -5  -4   0    4.35    1.14
  -4  -5   1    4.74    1.12
  -5  -6   0    3.91    1.51
  -2  -8   1    0.90    1.25
  -5  -5   0    0.49    1.29
  -4  -6   1    6.83    1.34
  -3  -7   1    7.85    1.36
  -1  -2  -2   25.03    0.50
   0  -2  -1   10.82    0.30
   1  -3  -1   66.11    0.62
  -2  -1  -2   31.91    0.54
  -1  -3  -2   58.85    0.83
   0  -4  -2   19.30    0.63
   0  -3  -1  397.21    1.55
  -3  -1  -3   33.09    0.71
  -2  -2  -2    5.89    0.52
  -1  -2  -1  101.40    0.79
  -1  -4  -2   16.90    0.76
   1  -4  -1   10.11    0.50
  -3  -2  -3   25.47    0.81
  -2  -3  -2   20.10    0.75
  -3  -3  -3   49.84    1.12
   0  -4  -1    6.23    0.52
  -1  -3  -1   46.89    0.75
   0  -5  -2   11.75    0.75
  -2  -4  -2   18.18    0.93
  -3  -4  -3   14.22    1.06
  -1  -4  -1   25.35    0.79
   1  -3   0  200.47    0.96
   0  -6  -2   11.50    0.92
  -3  -2  -2   25.08    0.76
  -2  -1  -1   33.75    0.49
  -3  -3  -2   59.98    1.11
  -2  -3  -1   13.70    0.71
   0  -3   0  938.91    2.25
   1  -5  -1   11.11    0.67
  -3  -1  -2   52.58    0.79
  -3  -4  -2   24.47    1.10
   0  -5  -1   71.62    1.05
   1  -4   0   34.95    0.62
  -2  -4  -1   13.52    0.85
  -1  -2   0   95.62    0.76
   0  -4   0  246.58    1.49
  -4  -3  -3   31.47    1.22
  -1  -3   0  193.88    1.31
  -1  -5  -1    8.55    0.85
   0  -6  -1   10.93    0.92
  -1  -4   0   29.18    0.79
  -3  -3  -1  109.45    1.33
  -4  -5  -3   12.46    1.40
  -3  -4  -1   54.40    1.30
  -1  -6  -1   12.11    1.04
  -4  -4  -2   14.10    1.21
  -3  -2  -1   78.16    1.00
   0  -7  -1   10.34    1.06
  -4  -3  -2   39.55    1.25
  -2  -3   0   33.74    0.80
  -3  -5  -1   11.65    1.17
  -4  -5  -2   11.40    1.34
  -2  -4   0   29.89    0.91
  -2  -2   0   27.91    0.60
  -3  -6  -2   14.24    1.41
   0  -5   0  173.56    1.44
  -2  -6  -1    7.61    1.19
   0  -6   0   84.71    1.31
  -1  -5   0   37.88    1.03
  -3  -1  -1  139.21    1.04
  -1  -6   0   14.51    1.00
  -3  -4   0   50.09    1.19
   0  -4   1    5.67    0.51
   0  -3   1  414.26    1.57
   0  -7   0   21.99    1.14
  -3  -3   0   79.76    1.19
  -3  -6  -1   26.52    1.42
  -3  -5   0   14.62    1.17
  -4  -3  -1    9.28    0.92
  -1  -4   1   12.42    0.67
  -5  -5  -2    9.54    1.58
  -1  -3   1   68.96    0.84
  -1  -7   0    8.57    1.08
   1  -4   1   22.31    0.57
  -2  -1   0   77.74    0.68
  -2  -6   0    9.48    1.11
  -3   0  -1  193.30    1.13
   1  -3   1   44.85    0.55
  -2  -4   1   30.17    0.93
  -3  -2   0   32.56    0.77
   0  -2   1   10.95    0.30
  -2  -3   1   41.74    0.84
  -1  -2   1   53.76    0.61
   0  -5   1   73.34    1.05
   0  -6   1    9.32    0.87
  -4  -4   0    8.53    1.08
  -1  -5   1   11.49    0.81
  -3  -6   0   21.95    1.39
  -1  -6   1    8.26    0.93
  -3  -5   1   13.26    1.14
  -3  -4   1   48.54    1.21
  -2  -2   1   11.82    0.50
  -4  -3   0   21.68    1.02
  -2  -6   1   13.09    1.19
  -3  -3   1   86.10    1.22
  -1  -4   2    7.31    0.60
  -2  -5   2    8.73    0.87
  -3  -6   1   25.67    1.37
  -4  -4   1    9.83    1.04
  -2  -4   2   52.45    1.02
  -3  -1   0  100.20    0.95
  -4  -2   0   15.47    0.82
   0  -6   2   12.08    0.81
  -1  -6   2    4.32    0.87
  -1  -7   2    2.13    0.88
  -1  -5   2    3.93    0.74
   0  -5   2   12.10    0.70
  -3  -2   1   39.18    0.80
  -2  -6   2   16.87    1.08
  -2  -7   2    5.12    0.99
   0  -4   2   14.09    0.56
  -5  -1  -4    2.28    1.39
  -2  -5  -2    0.68    0.79
  -5  -2  -4    4.73    1.38
  -4  -4  -3    3.78    1.20
  -3  -5  -2    7.02    1.14
  -2  -5  -1    1.74    0.79
  -5  -2  -3    7.05    1.38
  -5  -1  -3    2.96    1.28
  -5  -4  -3    3.05    1.32
  -5  -5  -3    4.26    1.59
  -6  -2  -4    8.70    1.64
  -6  -1  -4    9.49    1.81
  -4  -6  -2    6.65    1.45
  -4  -4  -1    1.70    1.05
  -4  -2  -1    1.59    0.89
  -5  -4  -2    9.52    1.41
  -5  -5  -2   10.48    1.52
  -4  -5  -1    0.65    1.18
  -4  -1  -1    2.14    0.80
  -6  -2  -3    7.87    1.52
  -6  -3  -3    9.06    1.74
  -2  -5   0    1.27    0.67
  -4  -7  -2    3.49    1.51
  -4  -6  -1    1.88    1.22
  -5  -3  -1    0.27    1.16
  -6  -4  -2    6.33    1.63
  -5  -2  -1    1.17    1.02
  -5  -4  -1    1.49    1.25
  -5  -5  -1    0.83    1.40
  -5  -1  -1    1.90    1.02
  -6  -2  -2    9.45    1.46
  -4  -5   0    2.80    1.13
  -5   0  -1    2.01    0.93
  -5  -4   0    6.28    1.29
  -4  -6   0    4.14    1.25
  -5  -3   0    6.15    1.17
  -6  -2  -1    8.83    1.43
  -5  -5   0    0.89    1.30
  -2  -5   1    3.33    0.70
  -5  -1   0    6.02    1.02
  -5  -2   0    3.86    1.09
  -5  -6   0    2.30    1.55
  -4  -5   1    4.52    1.09
  -2  -1   1   86.61    0.75
  -7  -2  -1    1.60    1.69
  -5  -4   1    5.20    1.16
  -6  -2   0    6.41    1.28
  -4  -6   1    5.60    1.10
  -5  -5   1    0.10    1.21
  -5  -3   1    7.32    1.09
  -1  -1  -1   47.27    0.46
  -2   1  -2   31.41    0.48
  -2  -1  -2   30.79    0.57
  -2   0  -2   23.85    0.47
  -1  -2  -1  103.54    0.75
  -2  -2  -2    5.50    0.53
  -1  -4  -2   16.03    0.66
  -3   1  -3   37.21    0.79
  -3  -1  -3   33.86    0.84
  -2  -3  -2   22.15    0.75
  -3  -2  -3   24.57    0.91
  -3   0  -3  103.44    1.14
  -1  -3  -1   48.47    0.67
  -3  -3  -3   49.43    1.14
  -2  -4  -2   19.73    0.82
  -4   0  -4   53.83    1.28
  -3  -4  -3   18.73    1.07
  -2  -1  -1   32.52    0.55
  -3  -2  -2   27.41    0.86
  -1  -4  -1   25.14    0.65
  -3  -1  -2   55.77    0.89
  -3  -3  -2   61.05    1.17
  -2  -3  -1   14.64    0.65
  -3   1  -2   57.43    0.78
  -4  -1  -3   12.30    0.95
  -3   0  -2  101.42    1.00
  -4  -2  -3   13.66    1.10
  -4   0  -3   62.40    1.20
  -3  -4  -2   25.69    1.10
  -2   0  -1    3.82    0.30
  -4  -3  -3   30.78    1.33
  -2  -4  -1   12.06    0.79
  -1  -2   0   92.22    0.67
  -3  -2  -1   71.60    1.11
  -3  -3  -1  103.55    1.28
  -4  -2  -2   36.07    1.13
  -4  -1  -2   18.87    0.98
  -1  -3   0  191.83    1.08
  -4  -5  -3   12.71    1.41
  -4  -3  -2   37.74    1.32
  -4  -4  -2   14.79    1.29
  -3  -1  -1  152.82    1.24
  -4   0  -2   94.23    1.28
  -3  -4  -1   55.62    1.24
  -5  -3  -3   18.08    1.41
  -2  -2   0   26.18    0.58
  -4  -5  -2   12.61    1.33
  -1  -4   0   24.63    0.59
  -2  -3   0   32.30    0.72
  -3  -5  -1   12.19    1.05
  -3  -6  -2   13.22    1.28
  -2  -1   0   76.34    0.71
  -4  -3  -1    9.30    0.99
  -3   0  -1  214.49    1.32
  -2  -4   0   27.05    0.74
  -5  -2  -2   31.03    2.32
  -5  -3  -2   40.52    1.48
  -3   1  -1  156.63    1.03
  -5  -1  -2   29.73    1.29
  -3  -3   0   83.54    1.17
  -3  -2   0   34.28    0.78
  -3  -4   0   46.95    1.06
  -5   0  -2   88.82    1.52
  -6  -1  -3   10.10    1.48
  -3  -6  -1   22.93    1.23
  -3  -5   0   13.89    0.94
  -3  -1   0  103.05    1.00
  -4  -3   0   19.37    1.08
  -4  -4   0    9.88    1.10
  -6  -3  -2   14.43    1.62
  -4   0  -1   15.55    0.77
  -4  -2   0   12.76    0.87
  -2   0   0  113.84    0.72
  -6  -1  -2   13.25    1.39
  -2  -3   1   37.44    0.73
  -6  -4  -1   10.84    1.64
  -2  -2   1   11.00    0.47
  -2  -4   1   29.34    0.79
  -1  -3   1   61.43    0.67
  -3  -3   1   83.13    1.18
  -6  -3  -1   17.50    1.54
  -4  -1   0   16.64    0.81
  -3  -4   1   53.14    1.07
  -1  -4   1   11.36    0.51
  -3  -6   0   22.05    1.17
  -1  -2   1   48.84    0.52
  -3  -2   1   40.10    0.88
  -3   0   0  136.41    1.07
  -3  -5   1   15.65    0.94
  -6  -1  -1   18.94    1.44
  -4  -3   1   29.03    1.15
  -4  -4   1   12.11    1.08
  -6  -4   0   11.58    1.64
  -4  -2   1   11.73    0.92
  -6  -3   0   10.61    1.50
  -3   1   0  108.19    0.97
  -5   0   0   15.11    0.99
  -3  -1   1   99.89    1.05
  -4   0   0   49.53    1.01
  -6  -1   0   14.77    1.25
  -5  -2   1    1.81    1.00
  -4  -1   1   15.69    0.85
   2   5   2    0.98    0.73
   1   6   2    4.94    0.97
  -2   7   1    4.17    1.19
   1   7   2    3.37    1.09
  -1   7   1    2.68    1.11
  -2   5   0    1.97    0.78
   2   5   1    0.81    0.71
  -1   8   1    1.39    1.28
   0   8   1    4.55    1.27
   2   7   2    2.89    1.08
  -2   7   0    2.46    1.15
   1   7   1    3.75    1.07
   1   8   1    1.17    1.27
   2   5   0    0.89    0.71
  -2   8   0   -0.50    1.33
  -2   5  -1    1.50    0.78
  -1   8   0    3.39    1.28
  -2   6  -1    6.52    0.99
   2   7   1    3.81    1.05
   2   8   1   -0.47    1.29
   1   7   0    7.67    1.14
  -2   7  -1    3.39    1.15
   1   8   0    2.79    1.29
  -1   7  -1    3.58    1.09
  -2   8  -1    0.70    1.45
  -1   8  -1    2.44    1.31
   2   8   0   -0.47    1.35
   0   8  -1    6.51    1.35
   2   7   0    3.24    1.09
   2   5  -1    3.96    0.77
   1   7  -1    3.55    1.12
  -2   5  -2    0.48    0.80
  -1   6  -2    6.78    1.05
  -1   5  -2    5.20    0.86
   3   7   0    5.64    1.16
  -2   7  -2    2.32    1.22
  -1   7  -2    2.34    1.18
   1   8  -1    0.88    1.30
   0   5  -2   10.27    1.03
  -1   8  -2   -0.64    1.36
   0   7  -2    3.43    1.18
  -2   8  -2    0.60    1.52
   0   8  -2    1.36    1.34
   2   7  -1    4.86    1.16
   1   6  -2    3.84    1.02
   2   8  -1   -0.07    1.34
   3   5  -1    3.59    0.78
   1   7  -2    2.19    1.14
   3   7  -1    2.98    1.00
   1   5  -2    3.71    0.82
   2   5  -2    2.45    0.67
   1   8  -2    1.18    1.50
  -2   6  -3    2.30    0.95
  -1   6  -3    4.51    1.13
  -1   7  -3    0.53    1.04
  -2   7  -3   -0.05    1.04
  -1   8  -3   -0.22    1.06
  -2   5  -3    0.70    0.80
  -1   5  -3    0.66    0.84
   0   8  -3   -0.52    0.94
  -2   8  -3   -0.40    1.05
   0   7  -3    0.16    0.95
  -1   2  -2    1.07    0.23
   0   6  -3    2.67    0.92
   2   2   2    6.77    0.35
  -2   3   1   41.03    0.70
  -1   3   1   66.51    0.77
  -3   3   1   81.40    0.96
   1   2   1   99.68    0.67
   0   3   1  408.11    1.63
   1   4   2   13.82    0.65
   0   4   2   21.37    0.68
   2   3   2   23.34    0.59
  -2   2   0   27.23    0.44
  -1   2   0   98.49    0.68
   1   3   1   48.00    0.67
   0   4   1    5.38    0.57
   0   5   2   10.49    0.83
  -2   4   1   30.00    0.82
  -1   4   1   11.74    0.65
   2   4   2   20.82    0.74
  -3   4   1   55.25    0.99
  -2   3   0   35.95    0.64
  -1   3   0  202.59    1.20
   1   4   1   22.23    0.69
   0   6   2   11.38    1.01
  -1   5   1   11.67    0.84
  -3   5   1   13.64    1.01
   0   3   0 1000.00    2.49
   2   2   1    5.65    0.29
   2   3   1   14.00    0.50
   0   5   1   69.34    1.16
  -2   6   1   13.02    1.09
   0   4   0  256.28    1.55
  -1   6   1    9.05    0.99
   2   4   1   14.05    0.63
  -2   4   0   26.77    0.75
   1   2   0  103.37    0.67
   1   3   0  194.70    1.15
  -1   4   0   26.47    0.72
   1   5   1    7.89    0.78
   1   4   0   30.95    0.73
  -1   5   0   37.01    0.96
   2   6   2    8.65    0.98
   0   7   1   10.56    1.13
  -2   6   0    7.61    1.05
   1   6   1   11.43    0.97
  -1   6   0   14.50    1.00
   0   5   0  167.67    1.51
  -1   3  -1   48.51    0.71
  -2   3  -1   14.63    0.53
   0   6   0   86.20    1.39
  -1   7   0    8.19    1.12
  -1   2  -1  107.79    0.70
   0   4  -1    5.90    0.58
   0   3  -1  398.88    1.65
   2   4   0   30.22    0.71
  -2   2  -1    2.82    0.31
   2   3   0   30.36    0.59
   0   7   0   23.51    1.21
   1   5   0   39.42    0.95
   2   6   1    8.03    0.95
  -2   4  -1   10.97    0.69
  -1   5  -1    9.19    0.79
   1   6   0   15.80    1.01
  -1   4  -1   26.77    0.74
   0   2  -1   11.23    0.32
  -1   6  -1   10.78    1.00
   1   4  -1   10.45    0.62
   0   8   0   20.95    1.42
   0   5  -1   68.70    1.14
   1   3  -1   63.72    0.76
   0   6  -1   10.28    0.96
   2   2   0   26.38    0.42
   0   7  -1    9.91    1.16
   2   6   0    8.79    0.94
   3   5   0   11.43    0.79
   1   5  -1   10.74    0.79
   1   6  -1    8.51    0.99
   3   6   0   21.83    1.08
   2   4  -1   30.36    0.80
  -2   6  -2    8.61    1.08
   1   2  -1   51.55    0.56
  -1   3  -2   60.41    0.85
  -2   4  -2   18.38    0.82
  -1   4  -2   16.80    0.75
   0   6  -2   11.77    1.07
   2   3  -1   36.66    0.67
   0   3  -2   77.96    0.92
   1   4  -2    5.47    0.63
   2   6  -1   12.92    1.07
   0   4  -2   15.98    0.75
   3   6  -1   10.82    1.03
  -2   3  -2   21.26    0.65
   1   3  -2   13.71    0.52
   3   4  -1   10.32    0.58
   2   4  -2    0.44    0.41
   2   7  -2    1.08    0.93
   0   5  -3    1.03    0.72
   2   6  -2    6.72    0.93
  -1   4  -3    0.58    0.53
   1   7  -3   -0.41    0.73
   1   6  -3    0.25    0.67
   0   4  -3   -0.18    0.43
  -2  -5  -2    0.81    0.78
  -1  -8  -1    1.30    1.15
   1  -7  -1    3.51    0.92
   2  -5  -1    3.09    0.61
  -2  -8  -1    1.56    1.18
  -1  -6  -2    5.74    0.93
   2  -7   0    3.40    0.90
   1  -8   0    3.53    1.09
   2  -8   1    0.17    1.12
  -1  -7  -1    3.96    1.06
  -2  -7  -1    3.96    1.07
  -1  -8   0    2.97    1.19
  -2  -8   0   -0.04    1.20
   1  -8   1    1.36    1.14
   2  -7   1    3.29    0.95
   2  -8   2    0.93    1.21
  -3  -7   0    5.28    1.16
  -2  -5  -1    1.35    0.78
   2  -5   0    1.33    0.64
  -3  -8   1    1.96    1.28
   0  -8   1    4.69    1.14
  -1  -7   0    6.28    1.04
  -1  -8   1    2.22    1.13
  -2  -7   0    2.36    1.03
   1  -7   1    3.16    0.96
   1  -8   2    0.46    1.13
  -2  -8   1    0.10    1.15
   2  -7   2    3.06    1.04
   2  -8   3   -0.40    1.29
  -3  -7   1    4.96    1.15
   0  -8   2    1.95    1.06
  -3  -8   2    1.15    1.22
   2  -5   1    0.75    0.61
  -1  -8   2    0.56    1.05
   1  -8   3   -0.36    1.23
   1  -7   2    3.27    1.06
  -2  -8   2    0.46    1.07
  -1  -7   1    2.45    0.98
  -2  -5   0    1.47    0.76
   2  -7   3    2.12    1.10
  -2  -7   1    3.51    1.06
   0  -8   3    1.00    1.02
   0  -7   2    3.22    1.03
  -1  -8   3    0.00    0.90
   1  -7   3    2.09    1.09
  -1  -7   2    2.63    0.98
   2  -5   2    1.23    0.71
  -3  -7   2    7.19    1.16
  -2  -7   2    5.77    1.03
   0  -7   3    3.60    1.01
  -2  -5   1    3.31    0.80
  -1  -7   3    0.64    0.86
   2  -6   4    1.56    1.11
   2  -5   3    3.89    0.79
   1  -5   2    5.35    0.77
  -1  -6   2    4.41    0.89
   0  -6   3    6.17    0.86
  -1  -6   3    2.74    0.73
   2  -5   4    1.21    0.84
   1  -5   3    3.43    0.77
  -1  -5   2    4.21    0.72
   0  -5   3    3.37    0.64
  -1  -5   3    0.13    0.52
   0  -4  -2   32.22    0.75
  -2  -4  -2   17.55    0.72
  -1  -4  -2   16.21    0.69
   0  -6  -2   12.44    0.95
   2  -2   0   26.85    0.39
  -2  -6  -2    8.30    0.97
   1  -3  -1   66.06    0.73
   0  -5  -2   10.38    0.80
   1  -4  -1   11.67    0.59
   0  -7  -1   10.28    1.04
   1  -6  -1    7.01    0.88
  -1  -5  -2    5.29    0.77
   0  -2  -1   11.42    0.30
   0  -8   0   18.62    1.29
   2  -3   0   32.40    0.55
   1  -7   0    9.49    1.01
   1  -5  -1   11.62    0.74
   0  -6  -1   10.19    0.95
   0  -3  -1  395.52    1.59
   0  -4  -1    6.08    0.57
  -1  -2  -1  101.91    0.69
  -2  -2  -1    2.99    0.33
  -1  -6  -1   11.76    0.98
  -2  -6  -1    9.46    0.99
   0  -7   0   22.61    1.15
  -1  -4  -1   25.40    0.73
  -2  -4  -1   10.59    0.67
   1  -6   0   17.15    0.94
  -1  -3  -1   47.41    0.68
   0  -5  -1   67.64    1.13
  -2  -3  -1   14.07    0.54
   2  -4   0   29.74    0.68
   2  -6   1    7.49    0.83
  -3  -6   0   21.84    1.08
  -1  -5  -1    9.12    0.84
   0  -6   0   82.15    1.31
   1  -5   0   39.42    0.89
   0  -7   1   10.72    1.04
   1  -3   0  203.29    1.12
  -3  -5   0   14.13    0.88
   1  -2   0  108.46    0.66
  -1  -6   0   13.54    0.95
   1  -6   1   10.38    0.88
  -2  -6   0    8.89    0.97
   2  -6   2   10.05    0.93
   0  -4   0  253.05    1.52
   1  -4   0   33.23    0.70
   0  -5   0  161.58    1.44
  -3  -4   0   44.93    0.95
   2  -3   1   14.75    0.47
   2  -4   1   13.99    0.59
   0  -6   1   11.45    0.91
  -1  -4   0   25.89    0.75
  -2  -4   0   29.54    0.80
  -1  -5   0   38.93    0.98
   2  -2   1    5.53    0.28
   0  -3   0  995.11    2.48
   1  -5   1    8.43    0.71
   1  -6   2    6.82    0.93
   2  -6   3    7.79    1.01
  -1  -6   1    8.75    0.96
  -3  -6   1   22.75    1.20
  -2  -6   1   12.10    1.06
  -3  -5   1   13.92    1.00
  -1  -3   0  200.24    1.22
  -2  -3   0   34.05    0.67
   0  -6   2   12.73    0.96
   0  -5   1   69.40    1.11
   1  -6   3   10.73    1.06
   1  -4   1   23.85    0.67
   2  -4   2   21.22    0.70
   1  -3   1   45.06    0.65
  -3  -6   2   24.05    1.19
  -1  -5   1   12.52    0.82
  -2  -6   2   18.96    1.02
  -3  -4   1   51.57    1.02
  -1  -2   0   93.06    0.67
  -2  -2   0   27.27    0.48
  -1  -4   1   12.16    0.66
  -2  -4   1   30.97    0.83
  -3  -5   2   14.91    0.97
   0  -5   2   11.69    0.80
  -2  -5   2    8.51    0.80
   0  -4   1    5.43    0.56
   0  -3   1  410.66    1.62
   2  -4   3   12.03    0.74
   2  -3   2   24.86    0.58
   1  -4   2   15.26    0.67
   1  -2   1  100.97    0.66
  -1  -3   1   65.80    0.76
  -2  -3   1   38.09    0.70
  -3  -4   2   58.63    1.05
  -1  -4   2    6.31    0.56
   2  -2   2    6.93    0.34
  -2  -4   2   45.05    0.84
   1  -3   2   59.93    0.76
   0  -4   2   17.13    0.65
   1  -4   3   22.76    0.73
   2  -3   3   12.70    0.56
   0  -2   1   10.38    0.30
  -3  -2   1   41.77    0.63
   0  -3   2   74.99    0.80
   0  -4   3    3.42    0.45
  -3  -3   2   53.07    0.82
  -1  -2   1   51.72    0.53
  -2  -2   1   11.07    0.37
  -1  -3   2   24.11    0.52
  -2  -3   2   25.77    0.56
   1  -3   3    6.77    0.45
   1  -2   2   19.86    0.41
   5   5   3    5.31    1.23
   7   2   3    0.01    1.27
   4   7   2    0.64    1.20
   6   4   3    6.34    1.38
   4   4   3    3.42    1.01
   4   6   2    5.84    1.38
   5   4   3    2.44    1.22
   5   6   2    5.11    1.53
   6   2   3    7.01    1.21
   3   5   2    6.47    1.08
   5   1   3    3.88    0.93
   5   5   2    9.61    1.78
   7   2   2    1.84    1.40
   6   4   2    7.51    1.44
   5   6   1    0.48    1.58
   2   5   1    0.98    0.86
   4   6   1    0.93    1.38
   5   5   1    0.46    1.46
   4   5   1    1.02    1.16
   7   2   1    0.77    1.48
   5   6   0    1.87    1.74
   4   6   0    4.01    1.39
   5   4   1    0.50    1.15
   4   4   1    2.53    1.06
   2   5   0    1.18    0.87
   5   3   1    1.87    1.03
   5   5   0    0.51    1.42
   6   4   0    9.66    1.60
   5   6  -1   -1.31    1.84
   7   2   0    1.51    1.61
   4   5   0    1.46    1.24
   5   2   1    0.33    0.90
   4   6  -1    1.99    1.47
   5   1   1    0.63    0.84
   5   4   0    5.45    1.30
   4   2   1    2.84    0.80
   5   0   1    1.33    0.78
   6   2   0    5.49    1.30
   5   5  -1    2.19    1.65
   6   4  -1    1.13    1.71
   4   1   1    2.74    0.66
   4   5  -1    2.43    1.31
   2   5  -1    3.22    0.88
   4   6  -2    0.40    1.53
   5   2   0    4.73    1.02
   6   3  -1    0.55    1.51
   5   4  -1    3.60    1.47
   4   5  -2    0.58    1.42
   5   3  -1    5.70    1.32
   3   5  -2    6.56    1.24
   5   2  -1    2.92    1.09
   4   4  -2   -0.16    1.37
   5   1  -1    6.69    1.04
   3   4   3   16.55    0.96
   3   6   2   12.17    1.14
   3   3   3   48.26    1.09
   3   1   3   30.62    0.75
   3   2   3   23.62    0.83
   6   3   3   12.49    1.34
   2   4   2   19.43    0.88
   4   3   3   29.60    1.15
   5   3   3   15.40    1.24
   4   2   3   13.50    0.97
   6   1   3    9.66    1.11
   5   2   3    8.28    1.06
   2   0   2   30.59    0.50
   4   0   3   55.90    0.94
   4   1   3   10.09    0.79
   1   4   1   23.27    0.73
   2   3   2   23.76    0.79
   4   5   2   11.81    1.31
   2   2   2    6.65    0.57
   3   4   2   24.00    1.09
   2   1   2   37.04    0.64
   3  -1   2   60.43    0.72
   5   4   2   14.38    1.31
   4   4   2   12.41    1.13
   6   3   2   14.18    1.40
   1   3   1   43.50    0.71
   6   2   2    9.70    1.21
   3   3   2   59.02    1.14
   5   3   2   39.45    1.33
   4   3   2   36.62    1.20
   6   1   2   16.76    1.18
   3   5   1   12.52    1.07
   5   2   2   37.06    1.30
   3   2   2   26.36    0.80
   3   0   2  104.62    0.96
   1   2   1   96.23    0.73
   3   6   1   29.97    1.43
   4   2   2   29.18    1.03
   2   4   1   13.11    0.81
   6   4   1   11.64    1.53
   3   1   2   58.80    0.89
   5   1   2   32.81    1.08
   4   1   2   15.61    0.82
   5   0   2   91.47    1.29
   4   0   2   87.33    1.09
   6   3   1   17.74    1.41
   3   4   1   60.15    1.22
   6   2   1   14.00    1.27
   2   3   1   15.31    0.67
   1   4   0   31.24    0.72
   6   1   1   18.57    1.22
   3   6   0   22.66    1.36
   3   5   0   10.82    1.08
   3   3   1   99.59    1.21
   4   3   1    8.60    0.95
   2   2   1    5.08    0.48
   6   3   0   14.82    1.42
   3   2   1   75.61    0.98
   2   4   0   30.00    0.85
   4   4   0    8.65    1.11
   2   1   1   40.60    0.55
   3   4   0   54.48    1.22
   1   3   0  193.22    1.10
   6   1   0   20.68    1.31
   2   0   1    4.74    0.28
   5   3   0    8.03    1.12
   3   1   1  160.08    1.16
   4   0   1   16.40    0.69
   3   5  -1   11.97    1.17
   3   0   1  209.43    1.18
   4   3   0   20.24    1.04
   2   3   0   33.08    0.76
   3   3   0   79.35    1.15
   5   1   0    6.15    0.94
   4   4  -1   11.91    1.28
   5   0   0   15.82    0.92
   1   4  -1   11.04    0.62
   4   2   0   13.08    0.88
   1   2   0   98.60    0.68
   3   4  -1   54.06    1.23
   2   4  -1   33.09    0.90
   3   2   0   30.65    0.80
   2   2   0   26.94    0.58
   2   5  -2    7.36    0.94
   4   1   0   17.64    0.80
   4   3  -1   26.19    1.23
   3   3  -1   82.89    1.26
   4   0   0   48.29    0.89
   3   1   0  107.28    1.01
   3  -1   0  110.82    0.83
   4   2  -1   10.59    0.96
   3   4  -2   34.09    1.35
   2   3  -1   39.07    0.81
   2   1   0   81.15    0.70
   1   3  -1   65.37    0.74
   5   0  -1   10.22    1.00
   3   0   0  130.82    0.97
   2   4  -2   43.75    1.10
   3   2  -1   39.26    0.88
   1   4  -2    6.43    0.64
   4   1  -1   22.64    0.93
   4  -1  -1   22.41    0.77
   2   0   0  107.70    0.68
   2   2  -1   12.35    0.51
   4   0  -1   44.02    0.97
   3   1  -1  110.82    1.12
   2   3  -2   23.90    0.88
   1   2  -1   50.98    0.56
   1   3  -2   17.49    0.65
   3  -1  -1   85.90    0.90
   2   1  -1   97.49    0.84
   3   0  -1  162.57    1.21
   5  -2   4    0.46    0.62
   4   3   3    4.33    0.77
   6  -2   4    0.75    0.76
   6  -1   4    5.46    0.95
   4   0   4    1.87    0.64
   5   1   4   -0.02    0.79
   6   1   4    3.12    0.96
   4  -1   4    0.30    0.54
   3   2   3    3.03    0.54
   5  -1   4    0.31    0.73
   6   2   3    8.08    1.22
   5   1   3    4.53    1.02
   7   1   2    4.90    1.45
   7  -2   2    0.63    1.30
   6   2   2    7.83    1.27
   7  -1   2    3.19    1.41
   7   0   2    4.87    1.42
   7   2   1    0.03    1.53
   5   3   1    1.60    1.05
   7  -2   1    0.67    1.34
   7   1   1    0.79    1.46
   7  -1   1    2.07    1.41
   7   3   0   -0.34    1.73
   7   0   1    2.15    1.42
   5   2   1    0.78    0.97
   7   2   0    1.69    1.59
   5   1   1    1.47    0.93
   7   1   0    3.00    1.56
   4   2   1    2.75    0.79
   6   2   0    6.22    1.29
   7   0   0    6.77    1.53
   5   0   1    0.81    0.91
   5   3   0    7.48    1.14
   6  -2   0    6.37    1.15
   4   1   1    3.73    0.74
   5  -1   1    1.16    0.87
   6   3  -1   -0.25    1.46
   5   2   0    5.65    1.03
   5   1   0    5.11    1.00
   4  -1   1    3.69    0.68
   5  -2   0    4.40    0.91
   5   3  -1    5.60    1.20
   5  -1   0    5.43    0.94
   5   2  -1    3.86    1.12
   5   1  -1    5.43    1.12
   5  -1  -1    5.76    1.02
   2  -3   2   12.51    0.41
   5   3   3   12.67    1.07
   6   3   3    9.46    1.23
   5   0   4   11.43    0.97
   4  -3   3   34.65    0.88
   6   0   4    9.51    1.08
   4   2   3   13.20    0.89
   2   2   2    6.04    0.48
   5  -3   3   16.16    0.96
   5   2   3    7.44    1.08
   3   1   3   30.26    0.78
   3  -2   3   23.94    0.68
   4  -2   3   13.60    0.82
   6  -2   3    7.55    1.11
   4   1   3    9.49    0.88
   3   3   2   63.74    1.03
   5  -2   3    8.43    0.94
   3   0   3  107.76    1.14
   3  -1   3   36.43    0.78
   6  -1   3    8.38    1.16
   6   1   3    9.49    1.21
   6   3   2   16.46    1.46
   4   3   2   37.41    1.11
   5   3   2   42.36    1.37
   4   0   3   57.34    1.13
   2   1   2   34.64    0.58
   6   0   3   19.70    1.27
   3  -3   2   60.11    0.88
   5   0   3   34.26    1.18
   2   3   1   14.78    0.58
   4  -1   3   11.09    0.83
   2  -2   2    8.03    0.48
   6  -3   2   14.87    1.19
   5  -1   3    4.43    0.95
   3   2   2   25.27    0.79
   2   0   2   27.96    0.53
   4   2   2   29.97    1.02
   5   2   2   37.46    1.34
   4  -3   2   36.32    0.94
   5  -3   2   40.93    1.15
   2  -1   2   36.45    0.58
   6  -2   2    9.78    1.12
   6   1   2   14.29    1.25
   6  -1   2   14.55    1.21
   6   3   1   16.23    1.44
   5  -2   2   36.58    1.09
   4   1   2   16.33    0.87
   5   1   2   31.96    1.15
   4  -2   2   28.55    0.87
   3   1   2   55.97    0.88
   6   0   2   21.40    1.27
   3   3   1   99.48    1.09
   6   2   1   13.45    1.29
   5   0   2   87.11    1.39
   6  -3   1   18.71    1.22
   4   0   2   85.30    1.17
   3  -2   2   26.88    0.69
   2  -3   1   15.52    0.45
   3   0   2  106.52    1.04
   2   2   1    5.47    0.43
   4   3   1    8.74    0.91
   3  -1   2   57.21    0.83
   5  -1   2   32.28    1.09
   4  -1   2   15.81    0.80
   6  -2   1   10.89    1.14
   6   1   1   19.70    1.28
   5  -3   1    1.76    0.86
   6  -1   1   19.43    1.22
   6   3   0   11.25    1.45
   3  -3   1   94.83    0.92
   4  -3   1    8.88    0.74
   6   0   1   29.77    1.32
   5  -2   1    0.41    0.83
   3   2   1   73.00    0.92
   2  -2   1    5.52    0.36
   2   1   1   39.56    0.54
   6  -3   0   13.14    1.18
   4  -2   1    2.51    0.67
   2   3   0   31.69    0.58
   6   1   0   19.67    1.35
   6  -1   0   20.52    1.28
   4   3   0   18.35    0.94
   3   3   0   80.67    0.98
   5  -3   0    7.25    0.95
   2   0   1    4.73    0.32
   6   0   0   17.70    1.31
   4   0   1   16.91    0.79
   3   0   1  208.33    1.29
   2  -1   1   41.06    0.51
   3  -2   1   73.54    0.83
   3  -1   1  151.70    1.10
   4  -3   0   19.52    0.83
   4   2   0   11.51    0.84
   5   0   0   15.48    1.02
   2   2   0   26.83    0.50
   3   2   0   29.61    0.72
   4  -2   0   12.74    0.79
   3  -3   0   80.13    0.88
   4   3  -1   25.82    1.14
   4   1   0   16.15    0.84
   2  -3   0   32.95    0.51
   3  -2   0   31.53    0.65
   4   0   0   45.62    0.96
   3   1   0  105.72    0.99
   3   3  -1   84.92    1.06
   4  -1   0   16.88    0.80
   4   2  -1   10.69    0.93
   2   1   0   78.71    0.65
   4  -3  -1   27.32    0.90
   2  -2   0   27.31    0.45
   5   0  -1    9.86    1.12
   3   0   0  129.07    1.04
   2   3  -1   39.14    0.65
   4  -2  -1   10.82    0.78
   3  -1   0  109.13    0.96
   4   1  -1   22.40    0.95
   3   2  -1   37.49    0.80
   2   0   0  106.26    0.71
   3  -3  -1   80.79    0.92
   4   0  -1   43.11    1.04
   4  -1  -1   23.19    0.88
   2  -1   0   82.16    0.64
   3  -2  -1   40.01    0.73
   3   1  -1   99.75    1.03
   2   2  -1   12.71    0.43
   2  -3  -1   37.86    0.56
   3  -1  -1  113.96    1.03
   2   1  -1   91.12    0.74
   2  -8   0   -0.18    1.08
   4  -6   0    2.25    0.99
   3  -7   0    6.30    1.09
   1  -8   0    3.46    1.09
   5  -6   1   -0.63    1.09
   4  -5   0    1.63    0.82
   2  -7   0    2.56    0.97
   2  -5  -1    3.13    0.76
   5  -5   1    0.56    0.86
   5  -4   1    0.24    0.75
   4  -7   1   -0.28    1.13
   2  -8   1    0.06    1.10
   1  -8   1    2.61    1.02
   5  -6   2    6.67    1.17
   4  -5   1    0.90    0.82
   2  -7   1    1.88    0.98
   2  -8   2    0.04    1.12
   4  -4   1    3.17    0.76
   3  -7   2    5.21    1.15
   1  -7   1    3.20    0.93
   2  -5   0    1.05    0.74
   5  -6   3    2.20    1.13
   1  -8   2    0.61    1.00
   5  -5   3    5.05    1.04
   2  -7   2    2.27    1.07
   1  -8   3    0.45    0.93
   1  -7   2    1.84    0.96
   4  -6   3    3.71    1.16
   2  -5   1    1.53    0.74
   0  -7   2    4.20    0.90
   3  -7   3    4.78    1.26
   2  -7   3    0.90    1.05
   4  -6   4    1.02    1.06
   1  -7   3    2.66    0.92
   1  -6   2    5.65    0.86
   3  -7   4    1.19    1.26
   2  -7   4    0.45    1.18
   0  -7   3    2.73    0.80
   2  -5   2    1.68    0.76
   4  -4   3    4.01    0.80
   4  -5   4    2.94    0.90
   3  -6   4    2.27    1.08
   2  -6   4    4.34    1.15
   2  -5   3    3.55    0.88
   3  -5   4    6.63    0.99
   2  -5   4    1.61    0.92
   1  -5   3    3.17    0.78
  -1  -5   2    3.98    0.62
   0  -5   3    2.51    0.62
  -1  -5   3   -0.09    0.45
   2  -2  -1   12.48    0.41
   4  -2   0   13.74    0.59
  -1  -3  -1   48.39    0.55
   3  -5  -1   11.50    0.87
   2  -6  -1   12.75    0.98
  -1  -4  -1   24.17    0.57
   1  -2  -1   50.02    0.53
   2  -3  -1   41.59    0.74
   3  -1   0  107.01    0.79
   3  -4  -1   54.27    1.01
   1  -6  -1    8.60    0.87
   0  -6  -1    9.77    0.88
   3  -3  -1   82.05    0.99
   0  -3  -1  399.01    1.47
   1  -3  -1   69.48    0.76
   3  -6   0   22.93    1.09
   0  -4  -1    6.13    0.50
   4  -4   0    9.44    0.79
   0  -7   0   24.37    1.06
   1  -7   0    8.82    0.99
   4  -3   0   20.87    0.74
   1  -5  -1   11.59    0.80
   2  -4  -1   32.15    0.83
   0  -5  -1   70.89    1.02
   3  -5   0   10.78    0.85
   1  -4  -1   10.18    0.60
   5  -5   2   13.10    1.05
   3  -6   1   22.74    1.09
   1  -6   0   17.81    0.94
   3  -4   0   45.81    0.98
   2  -1   0   84.25    0.60
   0  -6   0   80.24    1.28
   0  -7   1   11.64    0.97
   3  -3   0   82.79    0.97
   4  -3   1    9.38    0.69
   2  -2   0   27.61    0.53
   4  -6   2    6.37    1.10
   3  -5   1   10.96    0.89
   2  -6   1    8.03    0.98
   4  -2   1    2.92    0.53
   1  -5   0   41.50    0.94
   3  -6   2   11.03    1.13
   2  -4   0   28.71    0.79
  -1  -4   0   25.64    0.58
   4  -5   2   11.51    1.00
   1  -6   1   10.20    0.92
   0  -4   0  244.12    1.42
   0  -5   0  176.56    1.42
   3  -4   1   56.82    1.07
   1  -3   0  211.42    1.23
   3  -2   1   70.71    0.78
   2  -3   0   33.99    0.69
   0  -6   1   10.26    0.82
   3  -5   2    5.70    0.86
   2  -6   2    9.00    0.99
   1  -2   0  105.58    0.71
   4  -4   2   13.85    0.83
   1  -4   0   33.98    0.79
   3  -3   1   96.32    1.03
   0  -3   0  984.34    2.24
  -1  -3   0  200.44    0.95
   4  -5   3   12.31    1.06
   4  -3   2   37.21    0.89
   1  -5   1    8.57    0.71
   2  -4   1   14.24    0.68
  -1  -5   1   11.99    0.63
   3  -4   2   26.95    0.86
   3  -6   3   12.17    1.15
   2  -6   3    7.72    1.02
   0  -6   2   12.20    0.85
   0  -5   1   69.39    1.03
   2  -2   1    5.21    0.35
   3  -3   2   58.53    0.89
   2  -3   1   15.10    0.54
   1  -6   3    8.05    0.94
   4  -3   3   31.98    0.94
   3  -2   2   25.31    0.62
   1  -4   1   21.40    0.68
   3  -5   3    8.32    0.97
   1  -5   2    5.30    0.74
   2  -1   1   39.90    0.44
   2  -4   2   20.40    0.79
   1  -3   1   46.38    0.68
  -1  -4   1   11.77    0.54
   3  -1   2   56.05    0.66
   0  -6   3    7.34    0.78
   3  -3   3   53.41    0.94
   0  -5   2   12.82    0.76
   3  -4   3   20.79    0.92
   0  -4   1    5.77    0.54
   4  -3   4   12.49    0.86
   0  -3   1  403.60    1.50
   2  -4   3   12.89    0.80
   2  -3   2   23.83    0.66
   1  -2   1   99.27    0.71
   1  -4   2   14.90    0.68
   3  -2   3   24.67    0.68
   3  -4   4    8.50    0.82
   2  -2   2    7.38    0.43
  -1  -3   1   66.45    0.62
   1  -3   2   59.14    0.81
  -1  -4   2    7.69    0.46
   0  -4   2   16.75    0.62
   2  -3   3   12.58    0.63
   1  -4   3   23.77    0.80
   3  -1   3   34.78    0.62
   3  -3   4   13.58    0.71
   0  -2   1   10.37    0.28
   2  -1   2   34.51    0.48
   0  -3   2   79.25    0.80
   2  -2   3    4.23    0.38
   0  -4   3    4.86    0.48
   1  -3   3    9.69    0.53
   1  -2   2   22.07    0.47
  -1  -3   2   11.35    0.36
  -5   4   0    2.50    0.99
  -2   2  -1    2.45    0.41
  -1   7   1    3.55    0.96
  -5   5   0   -0.60    1.18
  -2   6   0    6.86    1.10
  -4   6   0    1.88    1.29
  -3   7   0    2.08    1.28
  -2   7   0    2.68    1.04
  -4   4  -1    2.67    0.86
  -4   5  -1    0.14    1.02
  -2   5  -1    1.39    0.78
  -5   5  -1   -0.96    1.16
  -2   8   0    0.44    1.24
  -1   8   0    4.91    1.20
  -5   6  -1    0.42    1.39
  -3   7  -1    1.99    1.36
  -2   7  -1    2.34    1.08
  -3   5  -2    6.90    1.00
  -4   6  -2    3.46    1.44
  -1   7  -1    4.01    1.02
  -2   8  -1    1.66    1.31
  -2   5  -2    0.14    0.83
  -3   7  -2    1.69    1.38
  -1   8  -1    2.33    1.29
  -2   7  -2    2.83    1.22
  -1   6  -2    5.85    0.99
  -4   6  -3    2.24    1.59
  -1   7  -2    4.71    1.22
  -3   7  -3    0.99    1.66
  -5   5  -3    2.96    1.64
  -2   5  -3    1.44    1.14
  -2   6  -3    8.85    1.35
   0   7  -2    3.69    1.17
  -4   4  -3    4.24    1.20
  -1   8  -2    0.07    1.54
  -2   7  -3    3.04    1.46
  -1   6  -3    7.16    1.24
  -1   5  -3    2.33    1.00
  -4   6  -4   -0.52    1.47
  -1   7  -3    0.28    1.26
  -3   6  -4    0.14    1.38
   0   4   0  259.27    1.40
  -3   2  -1   72.02    0.87
   0   6   1   10.49    0.84
  -1   5   0   38.94    0.92
  -1   3  -1   50.59    0.72
  -1   2  -1  106.01    0.77
  -2   1  -1   34.90    0.48
  -1   6   0   14.59    0.91
  -3   3  -1   93.81    1.11
   1   3   0  198.93    0.92
  -4   3  -1   10.40    0.82
  -2   4  -1   12.14    0.73
  -2   3  -1   13.64    0.61
  -3   5  -1   11.80    0.96
   1   4   0   31.99    0.57
   0   5   0  170.59    1.41
  -4   2  -1    1.13    0.64
  -1   7   0    8.54    1.04
  -5   4  -1    0.99    1.05
   0   3  -1  401.92    1.55
  -2   6  -1    7.84    1.00
   0   4  -1    6.56    0.51
  -1   4  -1   26.35    0.71
   0   6   0   91.47    1.28
  -1   5  -1    9.35    0.74
  -1   6  -1   11.84    0.96
   0   2  -1   10.89    0.28
  -3   4  -2   22.72    1.03
  -4   5  -2    4.09    1.18
  -3   3  -2   61.79    1.06
  -4   4  -2   14.13    1.05
  -2   2  -2    5.85    0.54
  -2   4  -2   18.95    0.85
  -5   5  -2    6.92    1.45
  -4   2  -2   30.57    0.96
  -1   3  -2   59.88    0.87
  -2   6  -2    8.45    1.10
   0   5  -1   72.27    1.05
   0   7  -1   12.76    1.17
  -2   3  -2   22.17    0.72
   0   6  -1    9.72    0.86
  -4   3  -2   37.55    1.11
  -1   5  -2    6.17    0.81
   1   5  -1   12.32    0.71
  -1   4  -2   18.22    0.74
   1   4  -1   11.85    0.54
  -1   2  -2   26.65    0.56
  -3   1  -2   62.30    0.87
   0   4  -2   18.45    0.69
  -3   6  -3    5.97    1.46
  -4   5  -3    6.75    1.45
  -3   5  -3    5.14    1.25
  -3   3  -3   54.72    1.32
   1   3  -1   69.77    0.77
  -2   1  -2   31.30    0.62
   0   3  -2   64.99    0.89
  -2   4  -3   12.52    1.07
  -3   4  -3   19.59    1.24
   0   5  -2   17.15    0.91
   0   6  -2   14.74    1.06
  -3   2  -3    7.22    0.79
  -2   3  -3   10.17    0.83
  -1   3  -3    1.62    0.61
  -4   3  -3   33.62    1.34
  -1   4  -3   20.12    0.96
  -4   5  -4    0.40    1.36
  -3   5  -4   -0.10    1.30
  -1   8  -3    0.30    1.21
  -5  -1  -3    4.33    1.15
  -5  -2  -3    7.94    1.20
  -5   2  -3    8.83    1.35
  -6  -1  -4   11.03    1.65
  -6   2  -4    6.06    1.74
  -6  -2  -4    7.86    1.47
  -4  -2  -1    1.77    0.81
  -4  -1  -1    3.00    0.78
  -6   1  -3    8.23    1.54
  -6  -1  -3    9.77    1.52
  -6  -2  -3    7.77    1.41
  -6   2  -3    7.01    1.65
  -6  -3  -3   10.23    1.57
  -4   1  -1    2.47    0.80
  -6   3  -3   12.66    1.82
  -5  -1  -1    2.18    1.00
  -5   0  -1    1.97    1.04
  -5  -2  -1    0.57    0.99
  -6  -2  -2    7.68    1.36
  -6   2  -2    8.45    1.42
  -5   1  -1    2.31    0.99
  -5  -3  -1    1.73    1.08
  -5  -1   0    6.70    0.98
  -5  -2   0    4.73    0.98
  -5   1   0    5.94    1.00
  -5   2   0    6.16    1.06
  -7   1  -1    0.83    1.66
  -7   0  -1    3.45    1.58
  -2  -1   1   85.14    0.69
  -6  -2   0    6.60    1.29
  -2   2  -1    3.05    0.39
  -4  -1  -2   18.20    0.91
  -4   0  -2   86.84    1.31
  -4   3  -3   34.76    1.32
  -3  -2  -1   76.37    0.95
  -3   3  -2   60.74    1.02
  -4  -2  -2   35.24    1.08
  -4   1  -2   17.90    0.96
  -5   0  -3   36.47    1.42
  -3   0  -1  210.60    1.36
  -4   2  -2   32.90    1.05
  -5   1  -3    3.76    1.26
  -6   1  -4   12.43    1.86
  -4  -3  -2   37.10    1.13
  -6   0  -4   19.35    1.88
  -5  -3  -3   16.33    1.28
  -3   2  -1   72.64    0.93
  -2  -1   0   75.75    0.65
  -5   3  -3   18.66    1.49
  -5  -1  -2   34.69    1.33
  -5   0  -2   86.40    1.57
  -5  -2  -2   36.67    1.52
  -2  -2   0   25.61    0.46
  -5   1  -2   31.36    1.32
  -6   0  -3   20.65    1.69
  -5   2  -2   37.66    1.38
  -4  -3  -1    9.72    0.88
  -4   0  -1   14.92    0.89
  -2   0   0  110.52    0.76
  -5  -3  -2   39.98    1.39
  -2   1   0   76.61    0.67
  -4   2  -1    1.43    0.81
  -3  -2   0   34.72    0.71
  -3  -1   0   98.46    1.00
  -3   3  -1   97.64    1.08
  -6   1  -2   12.72    1.50
  -5   3  -2   42.27    1.50
  -6  -1  -2   16.31    1.39
  -2  -3   0   31.51    0.52
  -6   0  -2   23.23    1.49
  -3   0   0  142.36    1.13
  -3  -3   0   79.94    0.96
  -5   2  -1    0.77    1.00
  -4   3  -1    8.79    0.95
  -4  -2   0   15.15    0.84
  -6  -3  -2   15.85    1.50
  -4  -1   0   17.66    0.85
  -2   2   0   26.92    0.50
  -3   2   0   33.99    0.75
  -4   0   0   47.07    1.06
  -4  -3   0   21.75    0.88
  -6   1  -1   21.07    1.39
  -6   3  -2   17.98    1.69
  -3   1   0  102.78    1.00
  -6  -1  -1   22.02    1.39
  -6  -2  -1   12.70    1.34
  -5   3  -1    1.83    1.13
  -4   2   0   11.85    0.97
  -5   0   0   12.74    1.07
  -6  -3  -1   18.37    1.45
  -5  -3   0    8.10    1.05
  -4   1   0   16.41    0.84
  -6   3  -1   17.80    1.65
  -6   1   0   18.13    1.45
  -3  -1   1   97.20    0.97
  -3   3   0   90.24    1.09
  -3  -2   1   41.90    0.75
  -6  -1   0   22.45    1.37
  -4   3   0   23.17    1.04
  -6   0   0   16.15    1.29
  -4  -2   1   11.68    0.80
  -4  -1   1   21.44    0.85
  -3   0   1  165.84    1.26
  -6  -3   0   13.33    1.43
  -4   0   1   43.52    1.03
  -5  -1   1    7.65    1.08
  -2   0   1   52.28    0.58
  -4   1   1   22.50    0.94
  -3   1   1  106.44    1.07
  -2   5  -2    0.36    0.86
  -6   1  -4   10.86    1.59
  -6   2  -4    9.77    1.70
  -4   6  -4   -0.30    2.27
  -4   5  -3   11.97    1.59
  -5   5  -4    0.68    1.82
  -6   3  -4   16.69    1.68
  -3   5  -2    6.32    1.09
  -5   4  -3    2.19    1.47
  -6   2  -3    8.40    1.52
  -4   6  -3    3.74    1.91
  -5   5  -3    6.79    1.70
  -2   5  -1    1.44    0.81
  -4   1  -1    3.27    0.75
  -4  -1  -1    3.15    0.58
  -4   4  -1    1.97    1.01
  -6   2  -2    9.56    1.31
  -5   5  -2    8.71    1.57
  -4   6  -2    8.12    1.59
  -7   1  -3    2.56    1.63
  -4   5  -1    2.02    1.15
  -6   4  -2    7.18    1.56
  -5   1  -1    2.16    0.95
  -5   0  -1    1.94    0.87
  -5   5  -1    0.32    1.35
  -7   1  -2    3.82    1.64
  -2   5   0    2.26    0.77
  -5   3   0    7.24    1.14
  -5   4   0    3.98    1.19
  -4   5   0    1.81    1.06
  -5   6  -1    1.14    1.63
  -4   2  -2   32.25    1.03
  -4  -1  -2   17.66    0.73
  -3   4  -2   25.60    1.03
  -1   4  -1   23.35    0.64
  -4   3  -2   38.20    1.20
  -3   0  -1  216.91    1.21
  -5   1  -3    3.82    1.06
  -5   3  -3   17.63    1.42
  -3  -1  -1  151.47    0.98
  -5   0  -3   36.57    1.17
  -3   3  -1   93.47    1.16
  -2   4  -1   12.41    0.72
  -4   4  -2   14.27    1.18
  -1   2   0   94.06    0.62
  -3   2  -1   74.56    0.95
  -5   2  -2   40.48    1.33
  -4   2  -1    1.83    0.81
  -6   1  -3   10.02    1.37
  -3   4  -1   58.82    1.13
  -2   2   0   27.85    0.55
  -5   3  -2   40.73    1.46
  -4   3  -1    9.04    0.98
  -4   5  -2   11.17    1.36
  -5   1  -2   33.60    1.18
  -6   3  -3   14.77    1.64
  -4   0  -1   15.77    0.76
  -1   3   0  202.28    1.03
  -5   0  -2   93.26    1.41
  -5   4  -2   12.72    1.36
  -2   3   0   33.68    0.70
  -2   0   0  106.71    0.66
  -2   1   0   79.42    0.67
  -3   5  -1   13.56    1.03
  -5   2  -1    0.69    0.96
  -6   1  -2   16.08    1.31
  -3   3   0   87.27    1.13
  -6   3  -2   16.96    1.47
  -5   3  -1    1.99    1.08
  -2   4   0   26.23    0.79
  -3   1   0  100.33    0.96
  -3   0   0  141.78    1.01
  -1   4   0   28.07    0.63
  -5   4  -1    1.06    1.22
  -3   4   0   49.72    1.09
  -3   2   0   35.67    0.77
  -4   3   0   18.99    1.01
  -6   2  -1   13.20    1.30
  -3  -1   0  103.80    0.78
  -6   1  -1   19.76    1.35
  -4   4   0    9.04    1.06
  -6   3  -1   19.00    1.39
  -5   2   0    7.99    1.04
  -3   5   0   13.65    1.02
  -6   4  -1   11.58    1.54
  -5   1   0    7.09    0.93
  -5   0   0   15.22    0.91
  -3   2   1   40.14    0.79
  -5   0  -1    1.33    0.77
  -4   6   0    1.27    1.14
  -4   4  -1    0.80    0.81
  -5   2  -1    0.93    0.85
  -4   5  -1    0.70    0.96
  -4  -1  -1    2.74    0.56
  -5   5  -1    0.05    1.09
  -5   6  -1    0.31    1.38
  -7   2  -1    1.93    1.41
  -2   5  -1    0.80    0.58
  -6   4  -2    6.11    1.37
  -5   4  -3    2.78    1.15
  -5   5  -3    1.91    1.36
  -4   4  -3    3.95    0.99
  -6   2  -3    6.49    1.29
  -2   5  -2    1.18    0.67
  -4   6  -3    1.59    1.26
  -3   5  -3    3.34    0.99
  -5   4  -4   -0.55    1.22
  -2   3  -1   14.70    0.52
  -6   4   0   11.85    1.28
  -4   0  -1   15.32    0.69
  -2   0  -1    3.32    0.26
  -4   3  -1    9.25    0.82
  -5   3  -1    0.94    0.90
  -5   4  -1    1.84    0.97
  -1   2  -1  103.07    0.68
  -3   4  -1   55.03    1.02
  -1   3  -1   48.28    0.57
  -1   1  -1   46.55    0.41
  -6   4  -1   10.62    1.28
  -6   2  -1   13.70    1.14
  -3   5  -1   11.73    0.86
  -3   2  -2   27.33    0.74
  -2   4  -1   10.82    0.60
  -4   1  -2   18.54    0.82
  -1   4  -1   25.09    0.56
  -6   1  -1   18.21    1.18
  -3   1  -2   51.25    0.84
  -5   1  -2   33.39    1.06
  -4   4  -2   15.44    1.01
  -5   4  -2   13.42    1.18
  -4   3  -2   39.71    1.06
  -5   3  -2   39.89    1.26
  -2   2  -2    5.70    0.47
  -4   0  -2   93.00    1.10
  -5   5  -2    3.98    1.25
  -5   0  -2   94.94    1.33
  -5   2  -2   39.78    1.17
  -6   3  -2   14.04    1.37
  -4   2  -2   33.20    1.00
  -3   3  -2   56.05    1.01
  -3   0  -2  106.63    0.97
  -3   4  -2   25.48    0.91
  -6   2  -2    8.79    1.21
  -2   1  -2   31.63    0.56
  -4   6  -2    3.48    1.25
  -3   5  -2    6.41    0.86
  -6   1  -2   12.93    1.18
  -2   3  -2   21.88    0.62
  -5   1  -3    4.61    1.01
  -4   1  -3   13.40    0.90
  -3   2  -3   26.00    0.87
  -5   3  -3   19.52    1.22
  -2   4  -2   20.39    0.70
  -6   3  -3   13.44    1.47
  -4   5  -3    4.71    1.17
  -4   3  -3   35.57    1.17
  -2   0  -2   23.03    0.46
  -5   2  -3    9.03    1.10
  -1   3  -2   60.63    0.75
  -3   1  -3   36.87    0.84
  -3  -1  -2   56.69    0.76
  -4   2  -3   14.67    0.96
  -5   0  -3   37.66    1.25
  -1   4  -2   18.94    0.61
  -1   2  -2   24.15    0.47
  -3   4  -3   19.17    1.02
  -4   0  -3   61.41    1.15
  -3   3  -3   55.22    1.12
   0   3  -1  400.22    1.27
  -6   1  -3    9.82    1.31
  -2   2  -3    3.14    0.48
  -3   6  -3    4.63    1.05
  -5   3  -4    9.96    1.28
  -6   3  -4    7.38    1.47
  -4   4  -4    1.98    1.03
  -4   3  -4   16.23    1.14
  -5   2  -4    3.73    1.13
  -2   3  -3    9.81    0.63
  -2   4  -3    9.18    0.75
   6  -2   0    6.04    0.88
   5  -5   0    0.98    0.97
   4  -5   0    1.66    0.92
   5  -6   1    0.10    1.08
   5  -4   0    5.37    0.92
   7  -2   2    2.81    1.04
   2  -5   0    1.19    0.65
   5  -2   0    4.90    0.75
   5  -5   1    0.13    1.01
   4  -5   1    0.27    0.84
   5  -6   2    5.53    1.27
   5   0   1    0.99    0.64
   6  -4   2    6.94    1.09
   5  -1   1    1.26    0.69
   4  -4   1    2.52    0.81
   6  -4   3    7.41    1.14
   4  -6   2    4.34    1.10
   2  -5   1    0.88    0.64
   4  -1   1    3.71    0.55
   5  -5   3    4.34    1.06
   4  -6   3    2.53    1.10
   6  -3   4    5.14    1.00
   5  -4   3    2.38    0.99
   6  -2   4    3.23    0.99
   5  -5   4    1.29    1.04
   6  -1   4    5.00    0.92
   4  -6   4    0.71    1.09
   2  -5   2    1.14    0.68
   5  -4   4    0.64    0.96
   4  -4   3    4.34    0.94
   4  -5   4    3.24    1.04
   5  -1   4    0.30    0.74
   3  -6   4    3.10    1.07
   5  -2   4    2.52    0.89
   2  -5   3    3.62    0.80
   3  -5   4    4.48    0.99
   2  -5   4    1.86    0.85
   4  -1   4    0.84    0.63
   4   0   4    1.72    0.60
   1  -3   3    2.21    0.36
   2  -1   3    0.18    0.29
   2  -1  -1   90.38    0.69
   3  -1  -1  104.48    0.92
   3  -4  -1   52.69    1.01
   5   0   0   16.61    0.74
   6  -3   0   12.07    1.04
   2  -2  -1   13.42    0.44
   3  -2  -1   38.15    0.73
   4   1   0   18.23    0.54
   4  -3  -1   25.40    0.90
   5  -1   0    5.66    0.73
   4  -2  -1   10.28    0.67
   3  -3  -1   78.40    1.02
   3  -5   0   10.89    0.84
   6  -4   1   11.91    1.11
   3   1   0  105.82    0.76
   4   0   0   46.50    0.75
   4  -4   0   10.31    0.89
   2  -3  -1   39.24    0.71
   5  -3   0    7.11    0.91
   6  -3   1   17.74    1.05
   6  -1   1   18.67    0.94
   6  -2   1   12.36    0.98
   3  -6   1   22.90    1.00
   4  -1   0   18.28    0.67
   4  -3   0   21.17    0.83
   3  -4   0   49.38    0.96
   5  -4   1    0.51    0.92
   3   0   0  130.84    0.89
   6  -3   2   17.44    1.10
   4  -2   0   12.59    0.68
   3  -5   1   10.00    0.82
   3  -2   0   31.02    0.66
   3  -1   0  105.86    0.88
   6  -2   2   10.75    0.97
   6  -1   2   13.94    0.95
   5  -3   1    2.18    0.82
   2  -4   0   31.19    0.72
   4   1   1    3.18    0.46
   5  -2   1    0.68    0.71
   3  -3   0   80.23    0.98
   3  -6   2   11.89    0.95
   1  -3   0  202.48    1.00
   2   0   0  107.75    0.62
   1  -4   0   32.41    0.59
   5  -4   2   14.26    1.01
   6  -3   3   14.49    1.07
   2  -2   0   25.92    0.49
   4   0   1   18.02    0.59
   4  -3   1    8.84    0.78
   2  -1   0   78.96    0.62
   5   0   2   89.09    1.12
   6  -2   3    7.64    0.99
   5  -1   2   30.96    0.91
   6  -1   3    9.79    0.91
   3  -4   1   57.16    0.98
   5  -3   2   40.92    1.12
   2  -3   0   32.50    0.62
   1  -2   0  108.49    0.64
   4  -2   1    2.53    0.63
   3  -5   2    6.25    0.82
   5  -2   2   39.22    0.98
   3  -3   1   90.97    1.03
   4  -4   2   12.48    0.87
   3  -2   1   71.99    0.88
   2  -4   1   13.74    0.62
   5  -3   3   17.07    1.04
   5  -1   3    4.80    0.77
   5   0   3   35.39    0.91
   3  -1   1  151.98    1.05
   3   0   1  209.76    1.10
   3  -4   2   26.06    0.87
   5  -2   3    8.35    0.89
   4  -1   2   15.36    0.69
   4   0   2   79.31    0.92
   4  -3   2   33.67    0.96
   5  -3   4    9.19    0.93
   4  -2   2   31.00    0.82
   1  -4   1   22.28    0.56
   2  -3   1   13.54    0.55
   2  -2   1    5.24    0.41
   5   0   4   11.84    0.82
   3  -3   2   57.41    0.92
   3  -5   3    8.00    0.91
   1  -3   1   46.92    0.59
   2  -4   2   20.84    0.74
   4  -3   3   29.22    1.04
   3  -2   2   25.91    0.67
   4  -1   3   11.62    0.72
   2  -1   1   41.47    0.51
   4   0   3   61.28    0.92
   4  -2   3   14.33    0.83
   3  -1   2   58.29    0.77
   2   0   1    5.07    0.25
   3  -4   3   19.08    0.93
   3   1   2   57.61    0.64
   3   0   2  105.58    0.87
   4  -3   4   15.11    0.98
   2  -4   3   12.19    0.75
   2  -3   2   24.25    0.67
   1  -2   1   98.15    0.65
   4  -2   4    6.53    0.80
   1  -4   2   15.22    0.59
   3  -2   3   25.34    0.73
   3  -3   3   50.78    1.02
   3  -4   4    8.42    0.87
   2  -2   2    7.68    0.46
   3  -1   3   34.75    0.71
   1  -3   2   59.97    0.72
   2  -3   3   13.12    0.63
   3   0   3  107.86    0.97
   3  -3   4   15.36    0.74
   2  -1   2   36.12    0.53
   3   1   3   32.43    0.58
   1  -4   3   22.86    0.70
   2  -2   3    5.68    0.42
   2   0   2   29.00    0.44
   1  -2   2   20.88    0.41
   2   1   2   34.73    0.43
   0  -3   2   68.28    0.66
   2  -5   3    0.78    0.40
   5  -5   4    0.92    0.74
   4  -1   4    0.44    0.50
   6  -2   4    2.73    0.81
   6  -3   4    8.49    0.90
   5  -2   4    3.23    0.77
   5  -4   4    0.79    0.75
   5  -1   4    0.06    0.61
   7  -1   3    2.10    1.15
   4  -6   3    3.47    0.83
   5  -5   3    5.96    1.05
   6  -4   3    5.91    1.21
   4  -4   3    3.09    0.86
   5  -4   3    1.97    0.97
   2  -5   2    1.44    0.68
   7  -1   2    3.25    1.35
   4  -6   2    6.16    1.01
   7  -2   2    1.49    1.33
   5  -6   2    4.29    1.18
   6  -4   2    5.58    1.20
   7  -1   1    1.82    1.42
   7  -2   1    0.42    1.37
   5  -6   1    0.37    1.16
   2  -5   1    0.51    0.61
   5  -5   1   -0.45    1.02
   4  -5   1    0.72    0.86
   4  -6   0    4.99    1.00
   4  -4   1    2.77    0.83
   5   0   1    1.17    0.80
   4   1   1    3.64    0.61
   5  -5   0    0.76    1.07
   5  -1   1    1.14    0.85
   4  -5   0    1.79    0.89
   6  -2   0    7.20    1.16
   2  -5   0    0.60    0.59
   5  -4   0    4.92    1.02
   4  -1   1    3.10    0.67
   5  -2   0    4.31    0.95
   5  -1   0    5.62    0.91
   2  -5  -1    3.57    0.62
   5  -1  -1    6.19    0.95
   3  -3   4    4.03    0.49
   4  -2   4    6.42    0.69
   4  -3   4   11.98    0.79
   2  -4   3    7.11    0.52
   5  -3   4    7.70    0.89
   2  -3   3   11.12    0.53
   1  -1   2    3.69    0.17
   1  -4   2   14.83    0.48
   3  -5   3    8.11    0.78
   4   0   3   59.37    1.00
   3   0   3   29.33    0.61
   5   0   3   36.67    1.04
   2  -2   3    4.75    0.40
   4  -5   3   11.27    0.93
   6  -1   3    9.16    1.05
   3  -4   3   18.77    0.86
   3  -3   3   48.71    0.96
   6  -2   3    7.28    1.11
   6  -3   3   13.46    1.23
   1  -2   2   21.70    0.40
   5  -2   3    7.02    0.96
   4  -2   3   12.96    0.85
   5  -3   3   14.95    1.05
   1  -3   2   61.95    0.71
   4  -3   3   28.47    1.00
   4   1   2   13.99    0.70
   4  -1   3    9.83    0.79
   3  -1   3   33.73    0.75
   5  -1   3    4.45    0.91
   2   0   2   29.09    0.47
   3   1   2   58.21    0.75
   2  -4   2   20.93    0.71
   3  -2   3   25.00    0.79
   3  -5   2    6.46    0.81
   5  -5   2   11.46    1.14
   4  -5   2    9.79    0.97
   2  -3   2   24.55    0.65
   6  -1   2   14.65    1.17
   6  -3   2   14.98    1.23
   6  -2   2    8.90    1.15
   4   0   2   84.17    1.07
   5   0   2   89.58    1.29
   5  -4   2   14.37    1.09
   3  -4   2   25.99    0.87
   4  -4   2   13.04    0.90
   5  -3   2   37.30    1.17
   2  -1   2   35.80    0.56
   1  -4   1   23.69    0.56
   5  -2   2   36.63    1.10
   3  -3   2   56.51    0.95
   4  -3   2   34.96    0.98
   3   0   2  103.33    0.94
   4  -2   2   29.71    0.94
   2  -2   2    7.61    0.50
   5  -1   2   31.50    1.04
   6  -4   1   10.20    1.23
   4  -1   2   14.67    0.79
   3  -5   1   10.80    0.79
   6  -3   1   16.55    1.25
   6  -1   1   18.15    1.17
   6  -2   1   13.17    1.14
   3  -1   2   56.83    0.83
   5  -4   1    0.84    0.97
   2  -4   1   13.86    0.61
   3  -2   2   24.30    0.71
   5  -3   1    1.57    0.93
   3  -4   1   55.25    0.96
   5  -2   1    0.27    0.88
   2  -3   1   13.85    0.53
   1  -3   1   47.12    0.57
   4  -3   1   10.27    0.81
   3   1   1  159.22    0.96
   3  -3   1   91.73    1.03
   6  -3   0   12.25    1.22
   4  -2   1    2.70    0.73
   1  -2   1   98.94    0.65
   6  -1   0   18.90    1.25
   3  -5   0   11.40    0.81
   2   0   1    4.92    0.28
   4   0   1   16.10    0.71
   5  -3   0    7.01    1.03
   3   0   1  205.99    1.16
   1  -4   0   32.34    0.58
   4  -4   0    8.67    0.88
   2  -1   1   39.71    0.52
   2  -2   1    5.55    0.40
   3  -4   0   49.53    0.94
   5   0   0   16.97    0.92
   3  -2   1   68.76    0.87
   2  -4   0   27.65    0.68
   4  -3   0   20.13    0.92
   4  -2   0   12.81    0.89
   3  -3   0   81.06    1.01
   3  -5  -1   10.37    0.83
   1  -3   0  197.62    0.97
   4   1   0   17.82    0.69
   2  -3   0   31.60    0.61
   4  -4  -1   12.33    0.95
   4   0   0   47.97    0.88
   4  -1   0   16.77    0.77
   3   1   0  106.35    0.81
   3  -4  -1   52.62    0.99
   4  -3  -1   24.35    0.96
   1  -2   0  107.90    0.63
   5   0  -1   10.49    0.96
   2  -4  -1   32.16    0.72
   3  -2   0   31.47    0.71
   3   0   0  127.42    0.93
   4  -2  -1   10.53    0.81
   3  -1   0  105.60    0.94
   1  -4  -1   10.59    0.46
   3  -3  -1   78.08    1.03
   2  -2   0   26.32    0.51
   4   1  -1   22.42    0.78
   2   0   0  106.06    0.65
   2  -1   0   80.31    0.65
   2  -3  -1   40.20    0.67
   4   0  -1   42.35    0.91
   1  -3  -1   66.61    0.64
   3  -2  -1   40.18    0.75
   2  -2  -1   12.72    0.42
   3   1  -1  112.69    0.90
   3  -1  -1  103.95    0.98
   3   0  -1  151.40    1.06
   0   0   0    0.00    0.00
;
_shelx_hkl_checksum              46369
_olex2_submission_special_instructions 'No special instructions were received'
loop_
_space_group_symop_operation_xyz
'x, y, z'
'x, -y, z'
loop_
_atom_site_label
_atom_site_type_symbol
_atom_site_fract_x
_atom_site_fract_y
_atom_site_fract_z
_atom_site_U_iso_or_equiv
_atom_site_adp_type
_atom_site_occupancy
_atom_site_site_symmetry_order
_atom_site_calc_flag
_atom_site_refinement_flags_posn
_atom_site_refinement_flags_adp
_atom_site_refinement_flags_occupancy
Co1 Co 0.016(3) 0.0000 -0.011(4) 0.037(3) Uiso 1 2 d DS T P
O1 O 0.097(3) 0.0000 0.194(5) 0.059(7) Uiso 1 2 d DS T P
O4 O -0.104(6) 0.0000 0.793(4) 0.059(7) Uiso 1 2 d DS T P
O2 O -0.255(6) 0.0000 0.114(3) 0.059(7) Uiso 1 2 d DS T P
C7 C -0.105(3) 0.0000 0.1987(14) 0.063(7) Uiso 1 2 d DS T P
N1 N 0.011(4) 0.314(3) -0.006(3) 0.037(7) Uiso 1 1 d D . .
C4 C -0.230(3) 0.0000 0.5836(13) 0.063(7) Uiso 1 2 d DS T P
C3 C -0.409(4) 0.0000(5) 0.4930(18) 0.063(7) Uiso 1 2 d DGS T P
H3 H -0.5526 0.0000 0.5169 0.076 Uiso 1 2 calc RS T P
C2 C -0.374(6) 0.0000(7) 0.3665(15) 0.063(7) Uiso 1 2 d DGS T P
H2 H -0.4935 0.0000 0.3058 0.076 Uiso 1 2 calc RS T P
C1 C -0.160(7) 0.0000(7) 0.3307(16) 0.063(7) Uiso 1 2 d DGS T P
C6 C 0.019(5) 0.0000(7) 0.421(3) 0.063(7) Uiso 1 2 d DGS T P
H6 H 0.1626 0.0000 0.3974 0.076 Uiso 1 2 calc RS T P
C5 C -0.016(3) 0.0000(5) 0.548(2) 0.063(7) Uiso 1 2 d DGS T P
H5 H 0.1035 0.0000 0.6085 0.076 Uiso 1 2 calc RS T P
O1W O 0.356(5) 0.0000 -0.029(8) 0.021(5) Uiso 1 2 d S T P
C8 C -0.270(2) 0.0000 0.7180(12) 0.063(7) Uiso 1 2 d DS T P
O3 O -0.466(4) 0.0000 0.739(5) 0.059(7) Uiso 1 2 d DS T P
C9 C 0.119(7) 0.394(7) -0.112(4) 0.058(9) Uiso 1 1 d D . .
H9A H 0.2700 0.3489 -0.1088 0.070 Uiso 1 1 calc R . .
H9B H 0.0422 0.3489 -0.1904 0.070 Uiso 1 1 calc R . .
C10 C -0.214(5) 0.395(6) -0.021(14) 0.058(9) Uiso 1 1 d D . .
H10A H -0.2966 0.3500 0.0470 0.070 Uiso 1 1 calc R . .
H10B H -0.2896 0.3500 -0.0990 0.070 Uiso 1 1 calc R . .
C11 C 0.140(7) 0.399(6) 0.104(4) 0.058(9) Uiso 1 1 d D . .
H11A H 0.0810 0.3550 0.1797 0.070 Uiso 1 1 calc R . .
H11B H 0.2918 0.3550 0.1057 0.070 Uiso 1 1 calc R . .
loop_
_atom_type_symbol
_atom_type_description
_atom_type_scat_dispersion_real
_atom_type_scat_dispersion_imag
_atom_type_scat_source
C C 0.0033 0.0016 'International Tables Vol C Tables 4.2.6.8 and 6.1.1.4'
H H 0.0000 0.0000 'International Tables Vol C Tables 4.2.6.8 and 6.1.1.4'
Co Co 0.3494 0.9721 'International Tables Vol C Tables 4.2.6.8 and 6.1.1.4'
N N 0.0061 0.0033 'International Tables Vol C Tables 4.2.6.8 and 6.1.1.4'
O O 0.0106 0.0060 'International Tables Vol C Tables 4.2.6.8 and 6.1.1.4'
loop_
_geom_angle_atom_site_label_1
_geom_angle_atom_site_label_2
_geom_angle_atom_site_label_3
_geom_angle
_geom_angle_site_symmetry_1
_geom_angle_site_symmetry_3
O1 Co1 O2 60.8(13) . .
O1 Co1 C7 30.4(7) . .
O1 Co1 N1 88.8(13) . .
O1 Co1 N1 88.8(13) . 2
O4 Co1 O1 173.1(19) 1_554 .
O4 Co1 O2 112.3(18) 1_554 .
O4 Co1 C7 142.7(17) 1_554 .
O4 Co1 N1 91.0(12) 1_554 .
O4 Co1 N1 91.0(12) 1_554 2
O4 Co1 O1W 99(2) 1_554 .
O2 Co1 C7 30.4(7) . .
O2 Co1 N1 88.5(12) . 2
O2 Co1 N1 88.5(12) . .
N1 Co1 C7 88.4(14) . .
N1 Co1 C7 88.4(14) 2 .
N1 Co1 N1 177(3) 2 .
O1W Co1 O1 87.8(19) . .
O1W Co1 O2 148.6(17) . .
O1W Co1 C7 118.2(17) . .
O1W Co1 N1 91.1(8) . .
O1W Co1 N1 91.1(8) . 2
C7 O1 Co1 85(3) . .
C8 O4 Co1 145(4) . 1_556
C7 O2 Co1 84(2) . .
O1 C7 Co1 65(3) . .
O1 C7 O2 130(5) . .
O1 C7 C1 110(4) . .
O2 C7 Co1 65(2) . .
O2 C7 C1 119(3) . .
C1 C7 Co1 175(2) . .
C9 N1 Co1 111(3) . .
C9 N1 C10 104(6) . .
C9 N1 C11 102(3) . .
C10 N1 Co1 114(2) . .
C10 N1 C11 110(5) . .
C11 N1 Co1 115(3) . .
C3 C4 C5 120.0 . .
C3 C4 C8 119.5(10) . .
C5 C4 C8 120.5(10) . .
C4 C3 H3 120.0 . .
C2 C3 C4 120.0 . .
C2 C3 H3 120.0 . .
C3 C2 H2 120.0 . .
C1 C2 C3 120.0 . .
C1 C2 H2 120.0 . .
C2 C1 C7 124(2) . .
C2 C1 C6 120.0 . .
C6 C1 C7 116(2) . .
C1 C6 H6 120.0 . .
C1 C6 C5 120.0 . .
C5 C6 H6 120.0 . .
C4 C5 H5 120.0 . .
C6 C5 C4 120.0 . .
C6 C5 H5 120.0 . .
O4 C8 C4 116(3) . .
O4 C8 O3 129(5) . .
O3 C8 C4 115(3) . .
N1 C9 H9A 109.1 . .
N1 C9 H9B 109.1 . .
C9 C9 N1 113(2) 2_565 .
C9 C9 H9A 109.1 2_565 .
C9 C9 H9B 109.1 2_565 .
H9A C9 H9B 107.8 . .
N1 C10 C10 113(2) . 2_565
N1 C10 H10A 109.0 . .
N1 C10 H10B 109.0 . .
C10 C10 H10A 109.0 2_565 .
C10 C10 H10B 109.0 2_565 .
H10A C10 H10B 107.8 . .
N1 C11 H11A 108.7 . .
N1 C11 H11B 108.7 . .
C11 C11 N1 114(2) 2_565 .
C11 C11 H11A 108.7 2_565 .
C11 C11 H11B 108.7 2_565 .
H11A C11 H11B 107.6 . .
loop_
_geom_bond_atom_site_label_1
_geom_bond_atom_site_label_2
_geom_bond_distance
_geom_bond_site_symmetry_2
Co1 O1 2.20(6) .
Co1 O4 2.17(5) 1_554
Co1 O2 2.21(6) .
Co1 C7 2.42(5) .
Co1 N1 2.23(2) .
Co1 N1 2.23(2) 2
Co1 O1W 2.09(3) .
O1 C7 1.2300(15) .
O4 Co1 2.17(5) 1_556
O4 C8 1.2300(15) .
O2 C7 1.2301(15) .
C7 C1 1.4800(16) .
N1 C9 1.4800(15) .
N1 C10 1.4800(15) .
N1 C11 1.4800(15) .
C4 C3 1.3900 .
C4 C5 1.3900 .
C4 C8 1.4800(16) .
C3 H3 0.9300 .
C3 C2 1.3900 .
C2 H2 0.9300 .
C2 C1 1.3900 .
C1 C6 1.3900 .
C6 H6 0.9300 .
C6 C5 1.3900 .
C5 H5 0.9300 .
C8 O3 1.2300(15) .
C9 C9 1.51(10) 2_565
C9 H9A 0.9700 .
C9 H9B 0.9700 .
C10 C10 1.50(9) 2_565
C10 H10A 0.9700 .
C10 H10B 0.9700 .
C11 C11 1.44(9) 2_565
C11 H11A 0.9700 .
C11 H11B 0.9700 .
loop_
_geom_torsion_atom_site_label_1
_geom_torsion_atom_site_label_2
_geom_torsion_atom_site_label_3
_geom_torsion_atom_site_label_4
_geom_torsion
_geom_torsion_site_symmetry_1
_geom_torsion_site_symmetry_4
Co1 O1 C7 O2 0.000(1) . .
Co1 O1 C7 C1 180.0(2) . .
Co1 O4 C8 C4 180.000(6) 1_556 .
Co1 O4 C8 O3 0.000(13) 1_556 .
Co1 O2 C7 O1 0.000(3) . .
Co1 O2 C7 C1 180.0(2) . .
Co1 N1 C9 C9 -179.9(8) . 2_565
Co1 N1 C10 C10 -178.5(15) . 2_565
Co1 N1 C11 C11 178.4(12) . 2_565
O1 C7 C1 C2 180.0(2) . .
O1 C7 C1 C6 0.0(3) . .
O2 C7 C1 C2 0.0(3) . .
O2 C7 C1 C6 180.00(17) . .
C7 C1 C6 C5 180.0(3) . .
C4 C3 C2 C1 0.0 . .
C3 C4 C5 C6 0.0 . .
C3 C4 C8 O4 180.00(18) . .
C3 C4 C8 O3 0.00(18) . .
C3 C2 C1 C7 180.0(3) . .
C3 C2 C1 C6 0.0 . .
C2 C1 C6 C5 0.0 . .
C1 C6 C5 C4 0.0 . .
C5 C4 C3 C2 0.0 . .
C5 C4 C8 O4 0.00(18) . .
C5 C4 C8 O3 180.00(18) . .
C8 C4 C3 C2 180.00(11) . .
C8 C4 C5 C6 180.00(11) . .
C9 N1 C10 C10 -58(4) . 2_565
C9 N1 C11 C11 58(3) . 2_565
C10 N1 C9 C9 58(4) . 2_565
C10 N1 C11 C11 -52(5) . 2_565
C11 N1 C9 C9 -57(2) . 2_565
C11 N1 C10 C10 51(5) . 2_565
