#------------------------------------------------------------------------------
#$Date: 2019-11-24 04:12:18 +0200 (Sun, 24 Nov 2019) $
#$Revision: 236652 $
#$URL: file:///home/coder/svn-repositories/cod/cif/8/00/03/8000370.cif $
#------------------------------------------------------------------------------
#
# This file is available in the Crystallography Open Database (COD),
# http://www.crystallography.net/
#
# All data on this site have been placed in the public domain by the
# contributors.
#
data_8000370
loop_
_publ_author_name
'Andrzejewski, Micha\/l'
'Katrusiak, Andrzej'
_publ_section_title
;
 Piezochromic Porous Metal-Organic Framework.
;
_journal_issue                   1
_journal_name_full               'The journal of physical chemistry letters'
_journal_page_first              279
_journal_page_last               284
_journal_paper_doi               10.1021/acs.jpclett.6b02458
_journal_volume                  8
_journal_year                    2017
_chemical_formula_moiety         'C14 H18 Co N2 O5'
_chemical_formula_sum            'C14 H18 Co N2 O5'
_chemical_formula_weight         353.23
_chemical_name_common            AMU1
_chemical_name_systematic
;
Co(1,4-benzenedicarboxylate)(1,4-diazabicyclo[2.2.2]octane)H2O
;
_space_group_crystal_system      monoclinic
_space_group_IT_number           6
_space_group_name_Hall           'P -2y'
_space_group_name_H-M_alt        'P 1 m 1'
_atom_sites_solution_hydrogens   mixed
_atom_sites_solution_primary     direct
_audit_creation_date             2016-07-12
_audit_creation_method
;
Olex2 1.2
(compiled 2016.02.19 svn.r3266 for OlexSys, GUI svn.r5155)
;
_cell_angle_alpha                90
_cell_angle_beta                 95.28(3)
_cell_angle_gamma                90
_cell_formula_units_Z            1
_cell_length_a                   6.0655(6)
_cell_length_b                   7.0740(6)
_cell_length_c                   10.725(11)
_cell_measurement_reflns_used    590
_cell_measurement_temperature    296(2)
_cell_measurement_theta_max      52.736
_cell_measurement_theta_min      9.906
_cell_volume                     458.2(5)
_computing_molecular_graphics    'Olex2 (Dolomanov et al., 2009)'
_computing_publication_material  'Olex2 (Dolomanov et al., 2009)'
_computing_structure_refinement  'ShelXL (Sheldrick, 2015)'
_computing_structure_solution    'ShelXS (Sheldrick, 2008)'
_diffrn_ambient_temperature      296(2)
_diffrn_measured_fraction_theta_full 0.319
_diffrn_measured_fraction_theta_max 0.311
_diffrn_measurement_device_type  'multiwire proportional'
_diffrn_measurement_method       'phi and omega scans'
_diffrn_radiation_monochromator  graphite
_diffrn_radiation_type           MoK\a
_diffrn_radiation_wavelength     0.71073
_diffrn_reflns_av_R_equivalents  0.0680
_diffrn_reflns_av_unetI/netI     0.0803
_diffrn_reflns_Laue_measured_fraction_full 0.319
_diffrn_reflns_Laue_measured_fraction_max 0.311
_diffrn_reflns_limit_h_max       7
_diffrn_reflns_limit_h_min       -7
_diffrn_reflns_limit_k_max       8
_diffrn_reflns_limit_k_min       -8
_diffrn_reflns_limit_l_max       4
_diffrn_reflns_limit_l_min       -4
_diffrn_reflns_number            2438
_diffrn_reflns_point_group_measured_fraction_full 0.317
_diffrn_reflns_point_group_measured_fraction_max 0.309
_diffrn_reflns_theta_full        26.000
_diffrn_reflns_theta_max         26.368
_diffrn_reflns_theta_min         4.953
_exptl_absorpt_coefficient_mu    0.957
_exptl_absorpt_correction_T_max  0.909
_exptl_absorpt_correction_T_min  0.892
_exptl_absorpt_correction_type   multi-scan
_exptl_absorpt_process_details
;
Data were collected and reduced by program CrysAlisPro, 
and SCALE3 ABSPACK was used for absorption correction
;
_exptl_crystal_colour            purple
_exptl_crystal_density_diffrn    1.280
_exptl_crystal_description       plate
_exptl_crystal_F_000             183
_exptl_crystal_size_max          0.3
_exptl_crystal_size_mid          0.1
_exptl_crystal_size_min          0.1
_refine_diff_density_max         1.836
_refine_diff_density_min         -0.640
_refine_diff_density_rms         0.243
_refine_ls_abs_structure_details
;
 Refined as a perfect inversion twin.
;
_refine_ls_abs_structure_Flack   0.5
_refine_ls_extinction_method     none
_refine_ls_goodness_of_fit_ref   1.793
_refine_ls_hydrogen_treatment    constr
_refine_ls_matrix_type           full
_refine_ls_number_parameters     42
_refine_ls_number_reflns         590
_refine_ls_number_restraints     24
_refine_ls_restrained_S_all      121.078
_refine_ls_R_factor_all          0.1978
_refine_ls_R_factor_gt           0.1710
_refine_ls_shift/su_max          0.001
_refine_ls_shift/su_mean         0.000
_refine_ls_structure_factor_coef Fsqd
_refine_ls_weighting_details
'w=1/[\s^2^(Fo^2^)+(0.2000P)^2^] where P=(Fo^2^+2Fc^2^)/3'
_refine_ls_weighting_scheme      calc
_refine_ls_wR_factor_gt          0.3964
_refine_ls_wR_factor_ref         0.4412
_reflns_Friedel_coverage         0.978
_reflns_Friedel_fraction_full    0.315
_reflns_Friedel_fraction_max     0.306
_reflns_number_gt                485
_reflns_number_total             590
_reflns_threshold_expression     'I > 2\s(I)'
_cod_data_source_file            jz6b02458_si_004.cif
_cod_data_source_block           018GPa_Pm
_cod_database_code               8000370
_shelx_space_group_comment
;
The symmetry employed for this shelxl refinement is uniquely defined
by the following loop, which should always be used as a source of
symmetry information in preference to the above space-group names.
They are only intended as comments.
;
_olex2_refinement_description
;
1. Fixed Uiso
 At 1.2 times of:
  All C(H,H) groups, H3 of C3, H6 of C6, H5 of C5, H2 of C2
 At 1.5 times of:
  All O(H) groups, H1WB of C11
2. Restrained distances
 C7-C1
 1.48 with sigma of 0.002
 N1-C9
 1.48 with sigma of 0.002
 N1-C10
 1.48 with sigma of 0.002
 N1-C11
 1.48 with sigma of 0.002
 H1WA-H1WA
 1.66 with sigma of 0.001
 H1WA-O1W
 0.97 with sigma of 0.001
 O1W-H1WA
 0.97 with sigma of 0.001
 H1WB-H1WA
 1.66 with sigma of 0.002
 O1W_$2-H1WA_$2
 0.97 with sigma of 0.002
 O1-Co1 \\sim Co1-O2
 with sigma of 0.02
 C6-C7 \\sim C7-C2
 with sigma of 0.02
 C5-C8 \\sim C8-C3
 with sigma of 0.02
 C5-C8 \\sim C8-C3
 with sigma of 0.02
 O4-C4 \\sim C4-O3
 with sigma of 0.02
3. Restrained planarity
 O1, O4, O2, C7, C4, C3, C2, C1, C6, C5, C8, O3
 with sigma of 0.1
4. Uiso/Uaniso restraints and constraints
Uiso(O2) = Uiso(O1) = Uiso(O4) = Uiso(O3)
Uiso(C4) = Uiso(C3) = Uiso(C2) = Uiso(C1) = Uiso(C6) = Uiso(C5) = Uiso(C8) =
Uiso(C7)
5. Others
 Fixed Sof: H1WA(0.5) H1WB(0.5)
 Fixed X: H1WB(0.48137)
 Fixed Y: H1WB(-0.003541)
 Fixed Z: H1WB(0.086459)
6.a Secondary CH2 refined with riding coordinates:
 C9(H9A,H9B), C10(H10A,H10B), C11(H11A,H11B)
6.b Aromatic/amide H refined with riding coordinates:
 C3(H3), C2(H2), C6(H6), C5(H5)
6.c Fitted hexagon refined as free rotating group:
 C4(C3,C2,C1,C6,C5)
6.d Tetrahedral OH refined with riding coordinates:
 O1W(H1WA)
;
_shelx_hkl_file
;
   0  -2   0 5235.58   68.63
   0  -2   0 5338.12   69.01
   0   2  -1   22.84    4.52
   0  -2  -1   23.16    4.86
   0   2   1   36.89    7.72
   0  -2  -1   21.24    4.91
   0  -2  -1   24.99    4.92
   0   2   1   28.84    6.48
   0  -2   1   29.74    5.17
   0  -2   1   27.03    4.93
   0   3   0 2493.82   54.77
   0   3   0 2558.58   61.37
   0  -3   0 2491.42   56.21
   0  -3   0 2434.39   59.17
   0  -3   0 2501.51   59.94
   0   3   0 2470.40   51.49
   0  -3   0 2518.77   51.06
   0  -3   1  948.45   36.67
   0  -3   1  985.09   37.30
   0   3   1 1062.94   50.23
   0  -3   1  942.47   34.31
   0  -3  -1 1071.45   41.25
   0   3   1  876.50   34.87
   0   3  -1 1011.69   37.89
   0   3   1  999.02   46.24
   0   3  -1  996.66   34.93
   0  -3  -1 1008.41   34.79
   0  -3  -1  981.29   37.04
   0  -3   1  964.47   32.68
   0  -3  -1 1049.87   39.75
   0  -3  -1  984.02   32.97
   0  -3  -2  184.08   17.96
   0  -3  -2  211.81   18.00
   0  -3  -2  185.70   18.95
   0   3   2  126.31   18.45
   0  -3  -2  190.86   18.71
   0   3   2  113.40   19.39
   0  -4   0  644.28   30.15
   0  -4   0  657.28   35.90
   0   4   0  629.87   32.39
   0  -4   0  612.02   29.15
   0  -4   0  654.88   36.21
   0  -4   0  588.45   32.25
   0   4   0  642.69   36.00
   0   4   0  656.86   31.28
   0   4  -1    8.88    3.49
   0   4   1   17.06    7.53
   0  -4  -1   13.39    4.25
   0  -4   1   20.05    6.56
   0   4   1   15.66    5.42
   0   4  -1   14.72    4.96
   0  -4  -1   11.57    4.81
   0  -4  -1   12.44    4.95
   0  -4   1   21.41    6.01
   0  -4  -1   10.92    4.07
   0  -4   1   20.37    6.41
   0   4   1   18.73    6.88
   0   4  -1   14.57    5.55
   0  -4   1   15.38    4.66
   0   4   1   20.58    6.07
   0  -4  -1   12.48    5.16
   0  -4  -2   13.10    4.48
   0   4   2   30.17    9.82
   0  -4  -2   46.75    9.30
   0  -4  -2   42.16   10.00
   0  -4  -2   44.24   10.04
   0  -4  -2   40.18    9.22
   0   4   2   31.52   10.64
   0  -4  -3   26.38    7.78
   0  -4  -3   38.23   10.13
   0   4   3    3.82    4.78
   0  -4  -3   36.45    9.65
   0  -4  -3   37.82   10.30
   0   5   0  415.47   32.96
   0  -5   0  465.41   29.09
   0   5   0  441.49   36.92
   0  -5   0  446.53   34.52
   0  -5   0  448.03   31.54
   0   5   0  404.06   29.28
   0  -5   0  455.98   34.59
   0  -5  -1  175.75   21.77
   0  -5  -1  178.52   22.35
   0  -5  -1  187.87   20.91
   0   5   1  158.10   20.79
   0  -5   1  185.44   20.10
   0   5   1  177.68   26.93
   0   5   1  167.65   24.12
   0  -5   1  176.10   21.09
   0  -5   1  166.31   17.57
   0   5  -1  171.77   20.84
   0  -5   1  172.24   21.10
   0  -5  -2   34.32    9.23
   0  -5  -2   37.31   10.55
   0   5   2   19.94    7.14
   0  -5  -2   32.30    9.24
   0   5   2   22.98    7.43
   0  -5  -3   13.84    7.02
   0  -5  -3   18.56    7.37
   0   5   3    8.09    8.31
   0  -5  -3   11.61    5.69
   0   5   3    1.22    3.00
   0  -6   0  245.36   28.57
   0   6   0  201.31   28.12
   0  -6   0  236.78   28.17
   0   6   0  204.67   25.95
   0  -6   0  227.22   25.46
   0   6   1   24.36   11.33
   0  -6  -1   17.92    7.07
   0  -6  -1   24.11    8.69
   0  -6   1   29.17    8.71
   0  -6   1   24.06    8.97
   0   6  -1   24.45    8.75
   0   6   1   21.74    7.98
   0   6   1   19.18    9.50
   0  -6   1   35.52   10.76
   0  -6  -2   34.39   11.12
   0  -6  -2   40.13   10.65
   0  -6  -2   36.04   11.18
   0   6   2   21.55    9.52
   0   6   2   23.20    8.99
   0   6   2   15.13   10.01
   0   6   3   12.99   10.81
   0   6   3    1.10    2.97
   0  -6  -3   26.76    9.10
   0  -6  -3   36.77   12.06
   0  -6  -3   40.51   12.51
   0   7   0   55.93   16.66
   0   7   0   57.49   16.83
   0  -7   0   66.83   16.06
   0  -7   0   62.28   13.93
   0   7   0   52.87   13.89
   0  -7   0   68.23   16.61
   0  -7  -1   34.46   12.39
   0  -7  -1   26.46   10.55
   0   7  -1   26.76   11.18
   0  -7  -1   28.68    9.81
   0   7  -1   30.10   10.88
   0   7   1   23.67   11.80
   0   7   1   23.11    9.99
   0   7   1   25.20   11.57
   0  -7   1   31.97   11.24
   0  -7   1   27.93   10.11
   0   7   2    0.34    2.73
   0  -7  -2   13.37    7.29
   0   7   2    6.47    5.34
   0   7   2    7.92    7.53
   0  -7  -2   11.32    5.48
   0  -7  -2    5.07    4.17
   0   7   3    6.60    7.57
   0   7   3    0.62    4.10
   0  -7  -3   18.59    8.38
   0  -7  -3   17.68    9.43
   0  -7  -3   17.68    8.25
   0   7   3    0.54    5.08
   0  -8   0   57.48   16.65
   0  -8   0   43.97   13.18
   0   8   0   32.51   11.96
   0   8   0   45.40   16.64
   0  -8   0   56.67   16.76
   0   8   0   45.55   17.41
   0  -8  -1   15.76    9.04
   0  -8   1    9.53    6.23
   0  -8  -1   16.48    8.97
   0   8   1    6.61    7.01
   0   8   1    5.62    7.09
   0   8   1   11.91    8.04
   0  -8  -1   20.31   10.19
   0   8  -1    9.28    4.50
   0   8   2    8.08   12.18
   0  -8  -2    9.80    7.83
   0   8   2    9.45    6.21
   0   8   2   -0.51    4.81
   0  -8  -2    8.39    7.91
   0  -8  -2   -0.55    4.18
   0   8   3    1.99    6.79
   0   8   3    9.90   10.25
   0   8   3   -3.35    3.88
   0  -8  -3    1.25    2.28
   0  -8  -3    4.08    2.57
   0  -8  -3    2.09    4.38
  -1   1  -1  174.38   12.86
  -1   1  -1  163.40   11.48
  -1  -2   1  199.66   15.14
   1  -2  -1  224.31   16.36
   1  -2  -1  212.85   15.95
  -1   2   1  195.20   20.14
   1  -2  -1  210.19   15.67
  -1   2   1  174.38   15.65
   1   2   0  379.33   21.47
  -1  -2   0  448.55   22.68
   1  -2   0  417.31   19.91
  -1   2   0  466.40   22.85
  -1  -2   0  472.65   23.73
   1  -2   0  394.90   19.95
  -1   2   0  461.31   24.24
   1   2   0  418.07   18.38
   1  -2   0  412.73   20.88
  -1  -2  -1  377.65   21.91
   1  -2   1  431.94   21.31
   1   2   1  447.23   26.35
   1   2   1  477.74   28.32
   1  -2   1  419.38   19.39
   1  -2   1  420.65   20.22
  -1   2  -1  388.86   21.24
  -1  -2  -1  388.19   18.75
  -1  -2  -1  415.87   23.36
   1  -2   1  444.84   20.80
   1   2   1  442.90   25.53
  -1   2  -1  437.75   23.00
  -1   2  -1  409.99   20.52
  -1  -2  -2   81.61   11.26
  -1  -2  -2   68.31    9.30
   1   2   2   61.39   12.18
   1   2   2   67.33    9.22
  -1  -2  -2   77.36   11.13
   1   2   2   79.22   12.47
  -1  -2  -2   79.95    9.80
   1  -3  -2  199.93   19.91
   1  -3  -2  163.54   18.19
   1  -3  -2  141.45   15.61
   1  -3  -2  179.03   18.17
   1  -3  -1  244.94   15.91
  -1   3   1  228.86   21.18
  -1   3   1  263.61   20.25
   1  -3  -1  299.62   21.74
   1  -3  -1  281.62   20.52
  -1   3   1  275.45   26.87
   1   3  -1  242.37   19.13
  -1  -3   1  259.15   17.26
  -1  -3   1  282.13   18.51
  -1  -3   1  293.08   24.37
  -1  -3   1  221.58   17.90
   1  -3  -1  297.44   20.12
  -1  -3   1  217.67   18.20
   1  -3  -1  287.37   21.71
  -1   3   0  881.56   36.61
  -1   3   0  827.24   36.58
  -1  -3   0  888.38   32.16
  -1  -3   0  832.43   32.81
  -1  -3   0  885.31   37.82
   1  -3   0  871.67   31.08
   1  -3   0  857.24   34.99
  -1  -3   0  931.43   30.49
  -1   3   0  849.12   33.69
   1   3   0  894.26   34.39
   1   3   0  828.28   36.40
   1  -3   0  818.28   33.80
  -1  -3   0  829.94   36.97
  -1   3   0  846.59   38.19
   1  -3   0  852.77   31.84
   1  -3   0  870.16   36.57
  -1  -3  -1  214.14   17.18
  -1  -3  -1  212.96   18.81
   1  -3   1  195.98   16.81
   1   3   1  208.19   21.71
  -1   3  -1  204.61   18.54
   1  -3   1  205.25   15.53
  -1  -3  -1  188.97   17.95
  -1  -3  -1  207.38   16.24
  -1  -3  -1  201.56   14.06
   1  -3   1  188.89   14.78
   1  -3   1  194.73   16.94
   1   3   1  220.13   22.07
  -1   3  -1  206.12   17.57
   1   3   1  180.41   13.48
   1  -3   1  196.60   16.04
  -1   3  -1  168.30   15.33
   1   3   1  178.22   14.13
   1   3   1  216.15   19.96
   1   3   2  199.95   23.97
   1   3   2  177.60   15.68
  -1  -3  -2  243.19   18.44
   1   3   2  201.35   21.28
  -1  -3  -2  218.66   18.86
   1  -3   2  209.01   17.94
  -1  -3  -2  190.71   17.50
  -1  -3  -2  252.77   22.38
   1   3   2  136.02   20.34
  -1  -3  -2  243.33   22.28
  -1  -3  -3   71.38   12.21
  -1  -3  -3   88.53   14.25
  -1  -3  -3  110.55   16.59
   1  -4  -3   36.17    9.95
   1  -4  -3   64.59   13.86
   1  -4  -3   68.16   13.77
   1  -4  -2   28.79    8.33
   1  -4  -2   30.93    7.82
   1  -4  -2   30.52    8.26
   1  -4  -2   35.51    8.86
  -1   4   2   11.07    5.13
  -1   4   2   16.18    8.65
  -1  -4   1   44.62    9.97
  -1  -4   1   45.59    7.06
  -1  -4   1   39.63    8.75
   1  -4  -1   54.00   10.48
   1  -4  -1   58.09   10.50
  -1   4   1   37.38    9.64
   1   4  -1   50.15    9.41
   1  -4  -1   59.99   11.37
  -1  -4   1   38.67    7.96
   1   4  -1   56.53    9.98
   1  -4  -1   56.12   10.32
  -1   4   1   42.06   12.23
   1   4   0  121.01   14.81
   1   4   0  123.98   15.99
   1  -4   0  121.35   14.62
  -1   4   0  130.42   16.83
   1  -4   0  125.19   15.22
   1  -4   0  115.66   14.21
  -1  -4   0  131.39   15.72
  -1   4   0  141.73   17.28
  -1  -4   0  143.86   17.96
   1  -4   0  122.41   16.14
  -1  -4   0  152.16   16.17
  -1   4   0  133.32   17.17
  -1  -4   0  149.54   17.30
   1   4   1   98.39   14.07
  -1   4  -1   87.14   13.40
   1  -4   1   90.05   12.73
  -1  -4  -1  101.32   15.29
  -1  -4  -1  100.89   13.89
   1  -4   1  113.26   14.16
  -1  -4  -1  110.65   15.34
   1  -4   1  123.40   12.90
  -1  -4  -1  101.59   13.49
   1  -4   1  105.72   14.50
   1   4   1   93.99   16.73
  -1   4  -1  105.52   14.90
   1   4   1  101.43   15.07
   1  -4   1  111.72   13.59
   1   4   1  111.81   17.79
   1   4   2   58.46   13.92
   1  -4   2   70.07   11.45
  -1  -4  -2   69.04   12.63
  -1  -4  -2   61.68   12.48
   1  -4   2   58.68   10.38
  -1  -4  -2   61.07   11.09
  -1  -4  -2   63.54   11.43
   1   4   2   56.05   12.27
   1   4   2   51.39   13.42
   1  -4   2   66.74   11.59
   1  -4   2   71.82   10.39
  -1  -4  -3  138.38   19.87
  -1  -4  -3  111.84   16.58
  -1  -4  -3  124.11   19.01
   1  -5  -3    0.67    2.51
   1  -5  -3   -1.15    1.28
  -1   5   3   -0.80    4.01
   1  -5  -3    2.28    3.44
   1  -5  -2   23.14    7.82
   1  -5  -2   17.55    6.56
  -1   5   2    7.23    5.40
   1  -5  -2   19.27    8.06
  -1   5   2    3.55    2.44
   1  -5  -2   19.75    7.32
  -1   5   1   39.40   10.72
   1  -5  -1   49.18   10.98
   1   5  -1   49.82   10.77
  -1  -5   1   45.61   10.49
  -1   5   1   35.14   10.44
   1  -5  -1   55.74   11.21
  -1  -5   1   53.33   12.34
  -1   5   1   33.18    9.42
  -1  -5   1   48.68   10.00
   1   5  -1   51.86   11.14
  -1   5   1   41.52   13.03
   1  -5  -1   50.49   10.63
   1  -5  -1   56.43   12.63
  -1  -5   0  179.75   23.06
   1  -5   0  181.29   22.02
   1  -5   0  167.51   19.76
   1  -5   0  165.10   19.45
   1   5   0  166.16   20.16
  -1   5   0  167.13   21.48
  -1   5   0  157.45   20.88
   1  -5   0  165.42   18.92
  -1   5   0  135.81   19.35
   1   5   0  171.88   20.83
  -1  -5   0  173.18   20.30
  -1  -5   0  168.53   19.05
  -1  -5   0  175.60   21.00
  -1  -5  -1   40.08    9.47
   1  -5   1   36.15    8.83
  -1  -5  -1   35.95    9.19
   1   5   1   39.39   10.46
   1  -5   1   36.16    8.82
   1  -5   1   38.95    9.99
   1  -5   1   44.30   10.03
   1   5   1   37.12   11.65
   1   5   1   40.67   10.34
   1   5   1   32.29   10.93
  -1   5  -1   36.24    9.96
  -1  -5  -1   38.94   11.06
  -1  -5  -1   39.55    9.79
  -1   5  -1   32.56    9.57
  -1  -5  -2   23.62    8.62
  -1  -5  -2   23.00    8.08
   1  -5   2   23.31    7.16
   1  -5   2   26.63    8.58
   1   5   2   15.45    7.18
  -1  -5  -2   25.39    7.81
   1  -5   2   25.70    7.54
  -1  -5  -2   27.13    8.24
   1   5   2   15.17    7.54
   1   5   2   22.68   10.36
   1   5   3   -1.25    3.64
  -1  -5  -3   11.69    6.88
   1   5   3   10.65    8.17
  -1  -5  -3   18.10    8.23
  -1  -5  -3   11.46    5.84
  -1  -5  -3   17.21    7.36
   1  -6  -3   32.57   11.25
  -1   6   3    5.88    2.24
   1  -6  -3   26.21    2.56
   1  -6  -3   38.58   11.56
   1  -6  -2   26.74    8.97
  -1   6   2   15.55    6.80
   1  -6  -2   25.61    8.95
  -1   6   2    8.48    4.89
   1  -6  -2   22.42    8.84
   1  -6  -2   23.06    8.97
  -1   6   2   14.76    9.89
  -1   6   1   32.60   10.55
  -1  -6   1   42.57   12.55
   1  -6  -1   41.82   12.36
  -1   6   1   30.99   12.91
   1  -6  -1   39.08   10.26
  -1  -6   1   40.02   10.30
  -1   6   1   27.52   10.17
   1  -6  -1   44.94   11.81
   1  -6  -1   46.29   11.88
  -1  -6   1   36.31   10.45
  -1   6   1   30.64   11.67
   1   6   0   60.38   16.36
   1  -6   0   73.66   14.92
  -1   6   0   63.56   14.97
  -1  -6   0   70.50   14.98
   1  -6   0   59.94   12.46
  -1   6   0   71.77   18.88
   1  -6   0   66.57   15.19
   1  -6   0   66.93   13.97
  -1   6   0   56.82   13.02
  -1  -6   0   80.41   14.32
   1   6   0   53.02   12.31
  -1   6   0   58.47   13.51
  -1  -6   0   64.48   14.85
   1   6   1   48.40   12.37
  -1   6  -1   40.36   11.59
   1   6   1   48.60   15.26
  -1  -6  -1   55.09   13.92
   1   6   1   48.14   14.73
  -1  -6  -1   55.57   12.74
  -1   6  -1   39.86   11.46
   1  -6   1   53.36   12.53
   1  -6   1   47.45   12.67
  -1  -6  -1   54.92   13.06
   1  -6   1   47.26   11.20
  -1  -6  -2   30.45    9.17
   1   6   2   22.29   10.22
  -1  -6  -2   22.68    8.77
   1   6   2   15.26    7.66
  -1  -6  -2   32.66   10.88
   1  -6   2   25.71    8.51
   1   6   2   16.43   10.39
   1   6   3   22.95   11.38
  -1  -6  -3   57.57   15.78
  -1  -6  -3   53.13   14.10
  -1  -6  -3   60.13   14.18
   1   6   3   13.08    7.66
  -1  -6  -4   35.06   13.28
  -1  -6  -4   43.52   12.66
   1  -7  -3    8.07    4.83
  -1   7   3    2.95    6.72
   1  -7  -3   13.43    7.56
  -1   7   2    5.94    7.06
   1  -7  -2   15.64    8.02
  -1   7   2   12.86   10.53
   1  -7  -2   16.00    8.57
  -1  -7   1   20.28    7.91
  -1   7   1   15.48    9.86
  -1   7   1   18.61    9.63
   1   7  -1   13.91    7.62
  -1  -7   1   15.05    7.07
   1  -7  -1   14.16    6.80
  -1  -7   1   26.61   11.09
   1  -7  -1   12.88    7.01
   1   7   0   30.18   10.83
  -1  -7   0   38.24   12.32
  -1  -7   0   52.64   14.56
   1  -7   0   35.46   12.83
  -1   7   0   39.65   14.93
  -1  -7   0   39.07   11.14
   1  -7   0   39.68   11.83
   1   7   0   38.90   13.98
   1   7   0   31.28   12.60
  -1   7   0   29.99   11.66
   1  -7   1   18.61    8.00
   1   7   1   15.34    8.53
   1   7   1   18.31    9.49
  -1  -7  -1   16.06    7.56
   1   7   1   12.34    9.04
  -1  -7  -1   18.43    8.95
   1  -7   1   19.59    9.80
  -1  -7  -1   14.64    8.45
  -1   7  -1   10.68    4.12
   1   7   2    3.92    3.72
  -1  -7  -2   18.15    9.56
  -1  -7  -2   15.56    7.77
   1   7   2    6.56    5.68
   1   7   2   10.32    6.36
  -1  -7  -2   23.68   10.44
   1   7   3    1.72    4.98
  -1  -7  -3   16.06    8.93
   1   7   3    2.92    4.98
   1   7   3    5.29    4.20
  -1  -7  -3   15.06    7.23
  -1  -7  -3   21.79    9.44
  -1  -7  -4    4.03    4.32
  -1  -7  -4    5.19    3.94
   1  -8  -3    0.01    5.11
  -1   8   3    6.65    7.59
   1  -8  -3    1.35    1.42
   1  -8  -2    1.54    2.64
   1  -8  -2    0.03    2.75
  -1   8   2   -0.85    4.64
  -1   8   2    1.51    8.93
  -1   8   1    5.65    7.03
  -1   8   1   12.28   13.41
   1  -8  -1   10.04    8.06
   1  -8  -1    8.80    4.80
  -1   8   0   16.44    9.53
  -1  -8   0   18.80    9.82
   1   8   0   16.13    8.33
   1   8   0   23.38   13.23
   1   8   0   12.78   11.31
   1  -8   0   19.96    9.75
   1  -8   0   16.33    8.59
  -1   8   0   20.14   12.07
  -1  -8   0   21.01    9.35
  -1  -8   0   13.16    7.46
  -1  -8  -1   11.05    8.32
  -1  -8  -1   14.87    9.01
  -1  -8  -1   14.63    7.98
   1  -8   1    8.66    4.68
  -1   8  -1    9.42   10.11
   1   8   1    6.63    3.10
   1   8   1    8.62    4.87
   1  -8   1   16.90    8.09
   1   8   1   -0.82    6.74
   1   8   2   -0.42    6.55
   1   8   2   -8.48    8.15
  -1  -8  -2   14.86   11.01
  -1  -8  -2    1.73    2.12
  -1  -8  -2    7.63    7.23
   1   8   2   -4.46    9.61
   1   8   3    1.59    4.54
  -1  -8  -3    4.58    4.09
  -1  -8  -3    5.21    6.22
  -1  -8  -3    1.26    4.82
   1   8   3   -3.98    4.19
   2   0  -1  160.76   13.90
   2   0  -1  144.78   13.78
  -2   0   1  106.60   12.95
   2   0  -1  151.31   13.79
  -2   0   1  112.40   13.03
   2   0   0  506.37   25.43
   2   0   0  483.93   25.08
   2   0   0  516.56   23.77
  -2   0   0  522.88   28.29
  -2   0   0  474.59   25.89
  -2   0   0  446.47   20.85
  -2   0   0  470.71   26.71
   2   0   0  493.65   24.91
   2   0   1   15.63    4.75
  -2   0  -1   24.03    4.27
  -2   0  -1   25.71    5.71
   2   0   1   16.94    4.66
   2   0   1   20.52    5.42
  -2   0  -1   21.43    5.84
  -2   0  -1   21.31    4.76
  -2   0  -1   23.19    5.86
   2   0   1   16.16    4.65
   2   0   2   92.95   12.52
  -2   0  -2  123.70   13.51
   2   0   2   84.58   11.85
   2   0   2   87.01   10.82
  -2   0  -2  112.81   13.23
  -2   0  -2  119.46   14.31
  -2   0  -2  100.73   11.59
   2  -1  -1  273.70   17.98
  -2   1   1  202.25   17.35
   2   1  -1  273.52   18.89
   2  -1  -1  271.76   19.23
  -2  -1   1  306.49   20.10
  -2  -1   1  254.77   20.45
   2  -1  -1  311.46   21.07
  -2  -1   1  236.11   19.83
  -2  -1   0  340.58   23.41
   2  -1   0  324.31   19.40
   2   1   0  326.53   21.00
  -2  -1   0  433.18   23.49
  -2  -1   0  319.60   16.76
  -2   1   0  401.62   26.77
  -2   1   0  347.14   21.31
   2   1   0  274.31   17.84
   2  -1   0  351.37   22.26
   2   1   0  323.90   21.47
  -2   1   0  335.42   21.62
   2  -1   0  324.97   19.64
  -2  -1   0  383.87   24.66
  -2  -1   0  332.38   21.15
  -2   1  -1  179.21   14.58
  -2   1  -1  171.06   15.13
   2   1   1  146.71   14.71
   2   1   1  149.77   15.43
   2   1   1  150.40   15.09
  -2   1  -1  184.98   17.42
  -2  -1  -1  204.23   15.21
  -2  -1  -1  164.38   12.38
  -2  -1  -1  168.92   15.42
  -2  -1  -1  195.28   17.64
   2  -1   1  167.69   15.17
   2   1   1  141.53   15.75
   2  -1   1  154.33   14.99
   2   1   1  149.81   13.05
  -2   1  -1  168.19   16.00
   2  -1   1  145.45   14.33
  -2  -1  -1  177.45   16.76
   2  -1   1  149.55   12.74
   2  -1   2  102.31   13.10
   2   1   2  133.59   15.06
   2  -1   2  125.76   12.53
   2   1   2  114.87   14.47
   2   1   2  124.02   12.05
  -2   1  -2  156.99   16.39
  -2  -1  -2  128.48   14.64
  -2   1  -2  135.88   14.10
   2  -1   2  118.68   13.17
  -2  -1  -2  148.65   15.97
   2  -1   2  142.91   14.58
  -2  -1  -2  149.33   16.17
   2   1   2  114.59   16.28
  -2  -1  -2  139.09   13.24
  -2  -1  -2  109.52   11.78
  -2   2   1   47.04   10.53
   2  -2  -1   45.27    7.17
  -2  -2   1   44.07    8.01
   2  -2  -1   44.75    8.60
   2  -2  -1   44.43    7.78
  -2   2   1   33.59    8.80
  -2  -2   1   49.35    9.18
   2  -2  -1   45.08    8.44
  -2   2   1   33.10    6.91
  -2  -2   1   50.13    9.37
   2  -2  -1   45.56    7.44
   2   2  -1   30.91    6.56
   2   2   0   97.98   12.65
  -2   2   0  140.24   15.82
   2  -2   0  117.17   13.47
   2  -2   0  133.73   12.67
   2   2   0  111.16   14.07
   2   2   0  109.88   12.46
   2  -2   0  120.86   11.27
  -2   2   0  112.84   12.16
   2  -2   0  119.93   11.82
  -2  -2   0  154.10   12.80
  -2  -2   0  116.32   14.35
  -2  -2   0  114.54   14.32
  -2  -2   0  106.13   11.91
  -2   2   0  112.91   11.57
   2  -2   0  118.02   11.10
   2  -2   0  116.76   13.07
  -2  -2   0  128.84   14.86
  -2   2   0  118.14   15.36
  -2   2  -1   22.39    4.79
  -2  -2  -1   27.34    4.95
   2   2   1   14.24    5.64
  -2  -2  -1   24.75    6.83
  -2  -2  -1   23.08    5.62
   2  -2   1   15.62    4.56
   2  -2   1   11.25    3.35
  -2   2  -1   24.77    6.27
  -2   2  -1   24.46    6.78
  -2  -2  -1   27.80    7.06
  -2  -2  -1   23.62    6.35
   2  -2   1   14.91    4.31
   2  -2   1   12.74    4.45
  -2   2  -1   16.34    4.87
   2  -2   1   14.02    3.71
  -2   2  -1   20.63    4.99
   2   2   1   14.22    5.33
   2   2   1   12.92    4.16
   2   2   1   13.12    5.03
   2   2   1   11.84    3.65
   2  -2   1   11.49    3.88
   2   2   2   23.46    7.64
   2   2   2   23.25    8.35
  -2   2  -2   30.99    8.02
   2   2   2   21.62    6.13
  -2   2  -2   32.38    7.49
  -2  -2  -2   27.32    6.88
   2  -2   2   19.87    5.91
  -2  -2  -2   30.61    5.62
   2   2   2   22.88    7.05
  -2   2  -2   30.27    6.56
   2  -2   2   26.30    6.06
  -2  -2  -2   35.26    8.91
  -2  -2  -2   33.79    7.99
  -2  -2  -2   27.40    7.37
   2  -2   2   20.97    5.88
   2   2   2   19.07    4.70
   2  -2   2   24.49    5.12
   2   2   3    2.25    3.00
  -2  -2  -3   21.90    6.65
   2   2   3    5.56    3.21
  -2  -2  -3   27.63    7.42
  -2  -2  -3   26.61    7.94
   2  -3  -2  258.67   20.57
  -2   3   2   83.40   15.48
   2  -3  -2  261.56   23.66
   2  -3  -2  263.36   24.40
   2  -3  -2  262.32   23.46
   2   3  -1  142.00   14.48
   2  -3  -1  175.76   17.66
   2  -3  -1  158.42   16.35
   2  -3  -1  170.73   13.78
  -2  -3   1  155.97   17.24
  -2   3   1  131.43   18.14
  -2  -3   1  159.92   13.45
   2  -3  -1  172.71   18.56
   2   3  -1  144.30   17.07
  -2  -3   1  173.75   17.86
   2  -3  -1  153.66   16.33
  -2   3   1  140.03   20.66
  -2  -3   1  141.00   17.24
  -2  -3   0  130.42   12.57
  -2   3   0  127.91   14.82
   2   3   0  142.58   12.74
  -2  -3   0  134.56   16.68
   2  -3   0  157.24   15.51
   2   3   0  141.69   14.90
  -2  -3   0  142.11   16.24
   2  -3   0  149.21   15.50
  -2  -3   0  167.93   16.83
  -2   3   0  136.99   17.26
  -2   3   0  125.55   16.76
   2  -3   0  145.59   16.36
  -2  -3   0  146.10   12.67
   2   3   0   96.27   12.81
   2  -3   0  154.43   16.33
   2   3   0  138.34   17.48
  -2  -3   0  155.43   18.43
   2   3   1   49.02    9.56
  -2   3  -1   66.64   10.34
   2   3   1   64.15   12.64
   2   3   1   60.25    9.93
   2   3   1   54.97   12.50
  -2   3  -1   63.03   11.60
  -2  -3  -1   59.61   10.71
   2   3   1   67.50   11.89
  -2   3  -1   57.30   11.29
   2  -3   1   62.32    9.70
  -2  -3  -1   63.54    8.70
   2  -3   1   64.97   10.62
   2   3   1   67.56    9.13
  -2  -3  -1   67.85   10.83
   2  -3   1   60.19    9.20
  -2   3  -1   62.46    8.25
  -2  -3  -1   52.61    8.01
  -2  -3  -1   76.68   12.86
  -2  -3  -1   69.27   12.58
   2  -3   1   59.16   10.18
   2   3   2   78.02   11.77
   2   3   2   85.13   15.73
  -2  -3  -2  102.09   14.72
  -2   3  -2   95.30   14.62
   2  -3   2   87.81   12.55
  -2  -3  -2  102.60   11.73
  -2   3  -2  100.71   14.57
  -2   3  -2   86.50   10.46
   2  -3   2   92.76   12.93
  -2  -3  -2  100.44   13.34
  -2  -3  -2  115.45   15.31
   2  -3   2   79.49   10.86
   2   3   2   79.79   12.81
  -2  -3  -2  102.76   15.97
  -2  -3  -2   57.41    9.50
   2   3   2   75.80   15.67
  -2  -3  -3   53.29   11.07
   2   3   3   14.69    7.24
  -2  -3  -3   51.58   11.35
   2   3   3   28.77    8.27
  -2  -3  -3   54.28   12.11
  -2  -3  -3   52.23    9.31
   2   3   3   30.48   10.46
  -2   4   2   99.40   16.92
   2  -4  -2  256.87   25.52
   2  -4  -2  232.61   23.94
  -2   4   2  113.46   23.38
   2  -4  -2  231.72   24.32
   2  -4  -1  123.69   17.08
  -2   4   1  111.38   17.18
  -2  -4   1  109.86   16.86
  -2  -4   1  123.74   17.90
  -2  -4   1  109.78   13.02
   2  -4  -1  132.42   17.28
   2  -4  -1  136.76   15.81
   2  -4  -1  136.14   17.28
  -2   4   1  117.89   21.10
   2   4  -1  116.68   17.05
  -2   4   0  114.66   16.20
  -2   4   0  113.74   17.57
   2  -4   0  119.99   15.02
  -2  -4   0  140.18   18.80
  -2  -4   0  135.82   19.39
  -2   4   0  114.36   16.43
   2   4   0  120.86   17.63
   2  -4   0  124.53   16.68
   2  -4   0  122.53   16.12
   2  -4   0  124.84   16.12
  -2  -4   0  135.22   14.57
   2   4   0  118.53   14.04
  -2  -4   0  129.01   14.95
  -2   4   0  135.06   21.28
   2   4   1   54.27    9.91
   2   4   1   54.11   12.42
  -2   4  -1   52.49   11.77
  -2  -4  -1   59.63   10.20
   2   4   1   51.80   13.18
  -2   4  -1   54.72   11.14
   2  -4   1   52.67   10.55
   2   4   1   56.68   12.53
  -2  -4  -1   61.59   13.00
   2  -4   1   50.43   10.03
   2  -4   1   57.24   10.52
  -2   4  -1   59.35   11.39
  -2  -4  -1   56.09    9.52
  -2  -4  -1   57.88   12.26
   2  -4   1   52.39   10.71
  -2   4  -2   79.46   14.45
  -2  -4  -2   73.87   11.87
   2   4   2   65.46   15.88
  -2  -4  -2   89.07   15.93
   2  -4   2   73.18   12.00
   2  -4   2   76.47   13.19
   2   4   2   79.02   15.88
   2  -4   2   74.12   12.60
  -2  -4  -2   91.55   13.18
   2   4   2   50.29   13.81
  -2  -4  -2   96.46   16.69
   2  -4   2   80.96   12.96
   2   4   3   22.90    8.34
  -2  -4  -3   42.92   11.34
   2   4   3   22.41   10.19
  -2  -4  -3   49.19   12.59
  -2  -4  -3   48.92   10.46
   2  -5  -3    5.29    4.35
   2  -5  -3    6.10    5.12
   2  -5  -2   40.39   11.20
  -2   5   2   12.12    9.12
   2  -5  -2   39.07   10.87
   2  -5  -2   42.92   11.54
  -2  -5   1   11.75    5.09
  -2   5   1   13.66    8.50
  -2   5   1    9.54    5.54
   2   5  -1   15.28    6.47
   2  -5  -1   18.98    7.12
   2  -5  -1   17.97    7.18
  -2   5   1   12.27    6.19
  -2  -5   1   13.98    6.80
   2  -5  -1   17.75    7.01
  -2   5   0    5.01    4.67
  -2   5   0    4.14    4.25
  -2   5   0    4.72    4.48
  -2  -5   0    8.13    4.87
   2   5   0    6.51    4.31
  -2  -5   0   11.48    6.21
   2  -5   0    5.61    3.45
  -2  -5   0    9.06    5.31
  -2  -5   0    6.97    4.33
   2  -5   0    6.97    4.65
   2  -5   0    9.04    4.81
   2   5   0    7.57    4.89
   2   5   1    5.81    3.26
  -2   5  -1    5.74    4.63
   2   5   1    4.54    3.22
  -2  -5  -1    4.28    3.98
   2  -5   1    3.42    3.54
   2  -5   1    3.89    3.39
  -2   5  -1    1.00    2.52
   2   5   1    5.44    4.76
   2   5   1    6.72    4.98
  -2  -5  -1    3.61    3.39
   2  -5   1    7.88    5.12
  -2  -5  -1    4.23    3.43
  -2  -5  -1    5.22    4.10
  -2  -5  -2    8.66    5.24
   2  -5   2    2.19    2.59
  -2   5  -2    3.20    1.33
   2   5   2    4.20    5.32
   2   5   2    6.34    4.90
   2  -5   2    1.70    2.95
   2  -5   2    6.44    4.44
  -2  -5  -2    9.72    6.59
  -2  -5  -2    7.44    5.18
   2   5   2    1.95    5.41
   2   5   3    3.18    2.40
  -2  -5  -3   14.16    7.03
   2   5   3    6.57    5.16
  -2  -5  -3   20.67    8.68
  -2  -5  -4   31.50   11.04
  -2  -5  -4   17.28    8.62
   2  -6  -3   57.06   14.96
   2  -6  -3   47.05   14.46
  -2   6   2   42.66   13.46
   2  -6  -2   95.70   19.18
   2  -6  -2   94.43   17.63
   2  -6  -2   86.36   17.23
  -2   6   2   40.41   16.29
  -2   6   1   39.82   12.38
  -2   6   1   38.55   12.58
   2   6  -1   56.92   13.85
  -2  -6   1   56.51   14.59
   2  -6  -1   53.57   12.78
   2  -6  -1   51.41   12.24
  -2  -6   1   57.19   12.19
  -2   6   1   47.46   16.91
   2  -6  -1   55.60   14.34
  -2   6   0   44.23   14.64
   2   6   0   49.72   15.01
  -2  -6   0   46.22   12.73
  -2   6   0   34.22   12.09
   2  -6   0   42.55   11.43
   2   6   0   39.64   10.68
  -2   6   0   44.05   12.71
  -2  -6   0   44.21   11.28
   2   6   0   35.88   12.82
   2   6   0   39.62   12.07
  -2  -6   0   39.90   11.89
  -2  -6   0   49.86   11.35
   2  -6   0   41.07   11.86
   2  -6   0   45.23   12.59
   2   6   1   32.08   13.08
  -2   6  -1   30.59    9.76
  -2   6  -1   35.52   12.01
  -2  -6  -1   35.79   10.27
   2   6   1   35.77   12.96
   2   6   1   32.95   11.82
   2  -6   1   32.58   10.61
  -2  -6  -1   33.53   11.68
  -2  -6  -1   38.83   13.28
   2  -6   1   38.02   10.75
   2  -6   1   32.13   10.32
   2   6   2   34.97   12.31
   2   6   2   22.37   12.08
  -2  -6  -2   38.26   12.91
   2  -6   2   35.22   10.17
   2  -6   2   36.26   10.55
  -2  -6  -2   42.13   13.57
   2   6   3    9.99    7.36
   2   6   3   20.94   10.86
  -2  -6  -3   41.19   13.27
  -2  -6  -3   34.64   11.98
  -2  -6  -4   50.62   15.50
  -2  -6  -4   50.66   14.80
   2  -7  -3   20.74   10.00
   2  -7  -3   13.29    8.12
  -2   7   2    5.49    4.17
  -2   7   2    8.45    7.17
   2  -7  -2   29.66   10.49
   2  -7  -2   38.87   12.27
   2  -7  -2   25.76   10.96
  -2   7   2    8.22    9.25
  -2   7   1    6.86    6.18
   2  -7  -1   21.78    9.33
   2  -7  -1   25.15    9.97
   2  -7  -1   28.84   12.10
  -2   7   1   14.37    9.02
  -2   7   1   15.61    8.79
  -2   7   0    3.52    3.14
   2   7   0   17.41   10.59
  -2   7   0   17.00    9.02
  -2   7   0    8.72    6.35
  -2  -7   0   10.41    3.92
   2   7   0    9.12    7.41
   2  -7   0    9.45    5.77
  -2  -7   0   15.14    8.87
   2  -7   0    4.34    3.54
   2  -7   0   12.53    7.34
  -2   7  -1   15.13    9.49
   2  -7   1   12.15    5.80
  -2  -7  -1   16.48    8.90
  -2   7  -1   11.44    6.58
   2   7   1    8.20    7.21
   2  -7   1   12.69    7.95
   2  -7   1    9.83    4.85
  -2   7  -1    9.41    5.17
   2   7   2    7.49    7.92
  -2  -7  -2   22.17   10.93
   2   7   3    3.25    6.53
  -2  -7  -3   18.31   10.02
  -2  -7  -4    7.43    6.02
   2  -8  -3    0.40    2.93
   2  -8  -3   -1.95    3.87
   2  -8  -2    1.91    2.89
   2  -8  -2    2.62    2.80
   2  -8  -1    2.46    4.81
   2  -8  -1   -5.45    4.75
  -2   8   1   -9.77   12.16
   2   8   0   -1.20    4.19
  -2  -8   0    7.71    7.95
   2  -8   0    6.51    6.52
   2  -8   0   -0.98    3.61
  -2   8   0   -1.70    5.39
  -2   8  -1    0.56    5.41
  -2  -8  -1    6.17    6.40
   2  -8   1    5.38    5.53
   2  -8   1   -6.65    8.69
  -2  -8  -2    2.38    5.51
   3   0  -1  484.91   27.22
   3   0  -1  430.36   28.86
  -3   0   1  319.93   28.54
   3   0  -1  364.96   26.79
   3   0  -1  428.99   29.09
  -3   0   1  283.29   25.88
  -3   0   1  337.09   27.80
   3   0   0  320.88   25.49
   3   0   0  272.95   24.10
  -3   0   0  288.10   25.05
  -3   0   0  243.37   22.98
   3   0   0  223.07   17.67
   3   0   0  301.57   24.54
  -3   0   0  264.05   24.74
  -3   0   0  249.95   19.12
   3   0   0  329.77   23.96
   3   0   1  414.82   29.44
  -3   0  -1  377.94   20.83
   3   0   1  393.59   28.97
  -3   0  -1  401.81   28.97
   3   0   1  354.76   20.60
   3   0   1  384.30   27.38
  -3   0  -1  356.65   28.80
  -3   0  -1  355.98   23.48
  -3   0  -1  339.46   27.37
   3   0   1  378.45   29.07
   3   0   2  207.68   23.69
  -3   0  -2  262.34   23.89
   3   0   2  239.41   16.79
   3   0   2  237.37   21.75
  -3   0  -2  248.22   24.61
  -3   0  -2  241.29   23.48
   3   0   2  267.72   24.79
   3   0   2  226.23   23.37
  -3   0  -2  226.63   19.73
   3   0   3  276.45   27.39
  -3   0  -3  213.66   22.16
   3   0   3  249.66   17.58
   3   0   3  272.45   23.72
  -3   0  -3  320.22   27.63
   3   0   3  293.21   27.16
  -3   0  -3  286.67   23.88
   3  -1  -1  269.48   17.94
   3   1  -1  241.46   21.11
   3  -1  -1  237.42   21.01
   3   1  -1  211.96   20.45
  -3   1   1  175.21   19.90
   3   1  -1  244.97   22.83
  -3   1   1  179.05   22.74
  -3  -1   1  194.35   21.19
   3  -1  -1  230.08   20.29
   3  -1  -1  189.56   19.04
   3  -1  -1  244.17   22.54
  -3  -1   1  194.55   21.34
  -3  -1   1  216.72   19.92
  -3  -1   1  180.16   21.21
  -3   1   1  177.36   19.70
   3  -1   0  336.20   21.88
   3   1   0  302.78   24.89
   3  -1   0  331.70   24.66
   3  -1   0  325.67   25.75
   3   1   0  309.00   25.38
   3   1   0  285.15   24.46
  -3  -1   0  272.68   17.20
  -3   1   0  301.99   27.33
  -3  -1   0  379.75   27.69
   3  -1   0  288.96   21.76
  -3  -1   0  316.08   26.62
   3  -1   0  317.70   25.86
   3   1   0  258.24   21.79
  -3   1   0  282.23   24.88
  -3  -1   0  288.93   23.24
  -3   1   0  269.10   17.23
  -3   1   0  292.49   24.84
  -3  -1   0  332.73   28.59
   3   1   1   68.90   12.83
   3  -1   1   60.94   10.53
  -3   1  -1   68.14   10.59
   3  -1   1   72.01   12.57
   3   1   1   69.57   12.41
   3   1   1   63.42   10.88
   3  -1   1   75.91   12.48
  -3  -1  -1   60.90    8.21
  -3   1  -1   71.47   12.78
  -3  -1  -1   75.78   11.73
   3  -1   1   70.84   10.20
  -3   1  -1   63.96   11.51
   3   1   1   66.87   10.86
  -3   1  -1   66.41   11.92
  -3  -1  -1   71.92   12.91
  -3  -1  -1   77.28   13.22
  -3  -1  -1   60.39   10.77
  -3   1  -1   68.90    8.93
   3  -1   1   68.11   11.41
   3   1   1   62.59   12.08
   3   1   2  145.27   20.62
   3  -1   2  154.98   19.38
  -3   1  -2  150.81   15.59
   3   1   2  156.91   19.29
  -3  -1  -2  148.73   13.73
  -3  -1  -2  165.60   17.77
  -3   1  -2  170.63   20.35
   3  -1   2  153.11   15.30
   3   1   2  144.67   18.91
   3  -1   2  158.17   18.19
   3   1   2  146.93   16.64
  -3   1  -2  144.83   18.40
  -3   1  -2  137.57   16.97
  -3  -1  -2  166.59   20.09
  -3  -1  -2  153.01   19.42
   3  -1   2  165.59   18.88
  -3   1  -2  153.08   14.35
  -3  -1  -2  144.89   17.49
   3   1   3  100.41   16.56
  -3  -1  -3  101.21   12.61
  -3   1  -3  103.72   16.55
   3  -1   3   92.46   12.05
   3  -1   3   96.24   14.70
   3   1   3   93.27   13.39
  -3   1  -3  107.45   15.38
  -3  -1  -3  116.06   17.55
  -3  -1  -3  111.76   16.82
   3  -1   3  115.92   16.58
   3   1   3   96.11   16.27
  -3   1  -3   80.39   11.45
  -3  -1  -3   98.20   14.88
   3  -2  -2   47.65    9.43
  -3  -2   1   82.78   14.52
   3   2  -1  134.68   17.06
   3   2  -1  114.83   15.32
  -3   2   1   90.78   16.65
  -3  -2   1  117.11   15.31
   3  -2  -1  139.45   16.70
   3  -2  -1  140.10   17.13
   3  -2  -1  131.73   17.00
   3  -2  -1   30.48    7.23
  -3   2   1   70.58   12.26
  -3  -2   1  124.82   17.72
   3  -2  -1  145.87   13.81
  -3  -2   1  122.84   16.54
  -3  -2   0   55.15   11.23
   3   2   0   59.15   11.80
  -3   2   0   53.24   10.52
   3  -2   0   66.35   11.52
   3   2   0   59.59   11.33
   3  -2   0   62.67   10.44
   3   2   0   56.73   11.70
  -3  -2   0   54.74   11.75
  -3   2   0   51.34    8.02
  -3  -2   0   51.79    9.10
  -3   2   0   51.12   11.67
  -3  -2   0   65.65   10.49
   3  -2   0   59.04   10.54
   3  -2   0   61.42   11.62
   3   2   0   32.28    6.98
  -3   2   0   45.32    9.91
   3  -2   0   62.51    9.17
   3  -2   0   58.41    8.14
  -3  -2   0   53.98   10.98
  -3   2   0   50.28    9.85
  -3   2   0   47.04   10.33
   3   2   1   89.00   15.11
   3  -2   1  106.09   15.24
   3   2   1   95.23   14.77
   3   2   1   98.53   15.12
  -3   2  -1   88.52   13.46
  -3  -2  -1   81.93   11.67
  -3   2  -1   85.96   15.08
  -3  -2  -1   97.21   12.23
   3  -2   1   87.63   12.72
   3  -2   1   94.67   10.49
   3   2   1   97.37   16.23
   3  -2   1   94.43   14.71
   3   2   1   79.08   11.82
  -3   2  -1   59.79   11.62
  -3  -2  -1   88.13   14.90
  -3   2  -1   78.89   12.14
  -3  -2  -1   83.70   14.86
  -3  -2  -1   84.22   14.11
   3  -2   1   86.69    9.68
   3  -2   1   96.83   13.38
   3   2   2   49.51   12.93
   3  -2   2   42.81   10.84
  -3   2  -2   59.42   11.03
   3   2   2   50.11   11.00
   3   2   2   46.54   11.94
   3  -2   2   57.28   10.53
  -3  -2  -2   48.47    9.20
  -3  -2  -2   54.51    9.42
  -3   2  -2   59.93   12.79
   3  -2   2   53.27   10.00
   3  -2   2   50.78   10.84
  -3   2  -2   40.27    9.98
   3   2   2   47.64    9.16
  -3   2  -2   51.85   10.38
  -3  -2  -2   61.38   12.47
  -3  -2  -2   65.61   13.87
  -3  -2  -2   55.68   11.97
   3   2   2   45.97   11.28
   3   2   3   69.27   15.75
   3   2   3   78.41   14.48
  -3  -2  -3   81.39   12.72
  -3   2  -3   68.48   14.14
   3  -2   3   76.97   12.62
   3  -2   3   73.96   13.31
   3   2   3   69.35   11.39
  -3   2  -3   83.59   13.28
  -3  -2  -3   89.75   15.65
  -3  -2  -3   97.16   16.95
   3  -2   3   82.80   13.54
   3   2   3   77.72   15.00
  -3  -2  -3   87.76   15.24
   3  -3  -2  470.85   35.25
   3  -3  -2  441.30   30.35
   3   3  -1  184.76   22.17
   3  -3  -1  214.43   19.89
   3   3  -1  170.13   19.52
  -3   3   1  114.36   18.80
   3  -3  -1  200.97   22.08
  -3   3   1  101.93   19.42
   3  -3  -1  206.07   21.88
   3  -3  -1  196.96   20.52
  -3  -3   1  140.63   18.90
  -3  -3   1  162.93   20.94
  -3   3   0  198.48   18.60
   3   3   0  223.78   25.08
  -3   3   0  199.90   23.25
  -3  -3   0  207.15   20.99
   3   3   0  209.56   22.96
  -3   3   0  197.24   24.02
   3  -3   0  247.30   23.80
   3   3   0  216.78   22.02
   3  -3   0  269.74   25.54
  -3  -3   0  251.23   25.02
   3  -3   0  260.47   21.59
   3  -3   0  259.39   20.75
  -3  -3   0  221.19   24.70
  -3  -3   0  223.08   26.12
  -3   3   0  231.86   26.33
  -3   3  -1  100.22   12.99
  -3   3  -1  100.25   16.34
   3   3   1  122.94   16.86
   3   3   1  106.18   16.62
   3   3   1  118.38   18.56
  -3  -3  -1  102.58   15.18
  -3   3  -1  107.45   17.95
   3   3   1  108.81   18.35
  -3  -3  -1   98.99   17.04
   3  -3   1  114.53   15.99
   3  -3   1  106.44   16.13
  -3  -3  -1  113.60   16.79
   3  -3   1  123.11   14.17
  -3  -3  -1  120.80   18.67
   3  -3   1  105.03   13.20
   3   3   2  145.72   23.42
   3   3   2  153.69   20.06
  -3   3  -2  168.75   20.92
   3   3   2  127.43   21.73
  -3  -3  -2  147.31   18.47
  -3   3  -2  156.63   21.76
   3  -3   2  146.17   15.04
   3  -3   2  136.99   17.55
   3  -3   2  149.04   19.39
  -3  -3  -2  165.21   20.56
  -3  -3  -2  174.00   22.70
  -3  -3  -2  154.53   21.47
   3   3   2  132.76   19.44
   3   3   3  122.39   18.11
   3   3   3  111.65   21.20
   3   3   3   56.56   14.98
  -3  -3  -3  134.16   18.71
   3  -3   3  126.56   17.22
   3  -3   3  129.88   18.38
  -3  -3  -3  153.54   19.91
  -3   3  -3  132.26   16.33
  -3  -3  -3  165.83   22.62
   3   3   3  106.47   18.32
  -3  -3  -3  160.98   22.75
  -3  -3  -4   67.87   13.94
  -3  -3  -4  104.18   18.51
  -3  -3  -4   88.15   17.09
   3  -4  -2  262.14   27.90
   3  -4  -2  283.40   28.80
   3  -4  -2  279.27   26.84
   3   4  -1  141.47   20.86
  -3  -4   1  141.49   19.76
  -3  -4   1  166.37   20.78
  -3   4   1   98.28   18.67
   3  -4  -1  158.61   21.19
   3  -4  -1  161.69   19.78
   3  -4  -1  163.51   20.28
   3  -4  -1  147.55   19.01
  -3  -4   1  139.59   20.96
  -3   4   1   96.14   19.95
  -3   4   0   93.57   14.62
   3   4   0  122.72   20.09
  -3   4   0   92.15   17.34
  -3  -4   0  109.95   17.33
  -3   4   0   86.57   16.35
   3   4   0   60.62   13.32
   3  -4   0  107.38   16.62
   3  -4   0  117.20   17.35
  -3  -4   0  136.70   18.85
   3  -4   0  115.68   16.05
   3  -4   0  121.66   16.47
  -3  -4   0  124.69   20.19
  -3   4   0  118.28   20.29
  -3   4  -1   79.66   13.46
   3   4   1   77.08   16.47
  -3   4  -1   74.94   15.09
   3   4   1   75.15   16.75
   3   4   1   66.92   14.39
  -3  -4  -1   81.52   15.33
  -3   4  -1   69.55   15.43
   3  -4   1   83.50   14.23
   3  -4   1   96.85   15.53
  -3  -4  -1   87.14   14.85
   3  -4   1   87.68   13.61
  -3  -4  -1   94.63   17.57
   3  -4   1   88.24   13.51
  -3   4  -2   55.01   13.14
   3   4   2   39.33   11.84
   3   4   2   43.56   12.43
   3   4   2   33.48   11.57
  -3  -4  -2   52.36   12.62
   3  -4   2   50.91   11.62
  -3   4  -2   35.68   11.33
   3  -4   2   53.79   10.42
   3  -4   2   52.59   12.11
  -3  -4  -2   56.17   12.46
  -3  -4  -2   59.96   14.65
   3   4   3   42.37   13.67
   3   4   3   33.22   13.31
   3   4   3   39.33   11.84
  -3  -4  -3   55.28   13.21
  -3  -4  -3   57.02   14.58
   3   4   4   -0.96    3.88
  -3  -4  -4   48.77   12.48
   3   4   4   -3.36    4.37
  -3  -4  -4   47.59   13.19
   3  -5  -2   57.62   13.91
   3  -5  -2   58.22   13.93
   3  -5  -2   61.35   14.07
  -3   5   1    6.37    3.56
  -3   5   1   12.46    7.20
   3   5  -1   33.06   10.71
  -3  -5   1   27.91    9.71
   3  -5  -1   37.40   10.55
   3  -5  -1   38.10   10.86
   3  -5  -1   40.61   11.30
  -3   5   1   20.26   10.89
  -3   5   0   33.33   12.45
  -3  -5   0   34.69   11.32
  -3   5   0   30.57    9.46
  -3   5   0   24.41    9.87
   3   5   0   40.65   12.82
   3   5   0   38.80   11.99
  -3  -5   0   35.42   11.59
   3  -5   0   39.15   10.99
   3  -5   0   40.92   10.39
   3  -5   0   43.51   11.28
  -3   5  -1    9.37    6.32
  -3   5  -1    7.09    4.14
  -3   5  -1    7.05    5.47
   3   5   1   13.01    6.41
   3   5   1   14.17    8.35
  -3  -5  -1   11.75    6.24
   3  -5   1   17.08    6.81
   3  -5   1   12.56    5.76
   3  -5   1   12.36    5.78
  -3  -5  -1   14.78    7.83
  -3   5  -2   15.17    7.69
   3   5   2   14.39    6.85
   3   5   2   13.28    9.34
  -3  -5  -2   12.33    7.07
   3  -5   2   11.22    5.23
   3  -5   2   16.28    5.88
  -3  -5  -2   18.44    9.77
   3   5   3   17.11    7.79
   3   5   3   14.34   10.19
  -3  -5  -3   16.79    8.00
  -3  -5  -3   30.96   11.07
  -3  -5  -4   49.20   14.35
  -3  -5  -4   53.07   15.96
  -3   6   2   25.55   10.18
  -3   6   2   30.71   11.86
   3  -6  -2   87.65   17.97
   3  -6  -2   91.79   18.85
   3  -6  -2  100.88   19.58
  -3   6   2   27.83   13.01
  -3   6   1   33.57   10.92
  -3   6   1   37.97   13.40
   3  -6  -1   69.87   15.75
   3  -6  -1   75.58   16.48
   3  -6  -1   72.96   17.02
  -3   6   1   45.85   16.22
  -3   6   0   49.92   17.06
  -3  -6   0   55.18   15.87
  -3   6   0   31.35   10.58
  -3   6   0   39.25   12.58
   3   6   0   51.12   15.80
   3   6   0   51.05   14.48
  -3  -6   0   48.36   14.11
   3  -6   0   60.80   15.36
   3  -6   0   54.90   13.39
   3  -6   0   51.17   13.70
  -3   6  -1   54.91   17.06
  -3   6  -1   38.79   11.69
  -3   6  -1   35.94   12.52
   3  -6   1   48.09   12.53
   3   6   1   38.69   13.53
   3   6   1   46.73   15.60
  -3  -6  -1   49.96   15.07
   3  -6   1   47.76   13.48
   3  -6   1   41.29   10.98
  -3  -6  -1   52.89   15.09
  -3   6  -2   24.10    9.96
   3   6   2   27.54   10.69
   3   6   2   29.21   13.06
  -3  -6  -2   31.33   11.47
   3  -6   2   38.91   11.63
   3  -6   2   26.08    9.48
  -3  -6  -2   29.63   10.99
   3   6   3   20.13   10.63
   3   6   3   25.47   13.03
  -3  -6  -3   32.32   13.30
  -3  -6  -3   43.23   15.26
   3   6   4   -3.64    7.61
  -3  -6  -4   31.53   12.02
  -3  -6  -4   32.25   13.65
  -3   7   2    2.66    5.53
  -3   7   2    2.12    3.21
   3  -7  -2   34.61   11.89
   3  -7  -2   32.02   12.26
   3  -7  -2   43.32   14.69
  -3   7   2   13.40   12.39
  -3   7   1    7.66    7.06
  -3   7   1    7.90    5.66
   3  -7  -1   22.34    9.76
   3  -7  -1   18.40    9.14
   3  -7  -1   18.58    8.39
  -3   7   1   14.43    9.89
  -3   7   0   14.41    7.76
  -3   7   0   13.80   11.66
   3   7   0   23.68   13.82
  -3  -7   0   18.75    9.99
   3  -7   0   22.67   10.15
   3  -7   0   18.40    9.07
   3  -7   0   13.19    6.80
  -3   7   0   21.91   14.54
  -3   7  -1   10.17    6.12
  -3   7  -1    3.13    3.91
  -3   7  -1   15.63    9.29
   3  -7   1   10.73    6.65
   3   7   1    4.74    3.54
  -3  -7  -1   17.08   10.13
   3  -7   1   11.84    6.96
   3  -7   1   18.94    9.42
   3   7   2   16.49   12.01
  -3  -7  -2   22.71   12.61
   3  -7   2   17.27    8.11
   3   7   3   -0.84    2.08
   3   7   3    4.36    5.72
  -3  -7  -4   28.88   14.31
   3  -8  -2    0.55    1.58
   3  -8  -1    8.58    7.89
   3  -8   0    5.03    4.95
   3  -8   0   -1.91    4.84
   4   0  -1  196.21   20.74
   4   0  -1  169.99   21.48
   4   0  -1  180.62   21.76
  -4   0   1  107.48   18.47
   4   0  -1  162.00   20.79
  -4   0   1  104.77   17.96
  -4   0   1  113.71   18.77
   4   0   0  270.39   25.35
   4   0   0  245.86   26.15
   4   0   0  270.98   27.18
  -4   0   0  206.57   24.72
   4   0   0  201.23   23.76
  -4   0   0  181.50   23.46
  -4   0   0  192.59   19.66
  -4   0   0  189.81   23.95
   4   0   1   76.29   14.84
   4   0   1   75.72   15.04
   4   0   1   83.11   15.60
  -4   0  -1   85.39   15.34
   4   0   1   75.34   14.38
  -4   0  -1   80.84   16.06
  -4   0  -1   89.93   16.54
  -4   0  -1   73.94   12.36
   4   0   2  345.68   34.48
   4   0   2  402.29   35.88
  -4   0  -2  413.42   34.27
   4   0   2  366.02   31.78
  -4   0  -2  368.90   34.58
  -4   0  -2  358.30   33.47
  -4   0  -2  368.70   28.12
   4   0   2  432.19   35.77
   4   0   3  190.58   25.95
  -4   0  -3  261.87   27.88
   4   0   3  201.27   23.79
  -4   0  -3  232.37   28.19
  -4   0  -3  235.78   27.33
   4   0   3  238.65   27.85
  -4   0  -3  229.04   23.15
   4   0   4   15.61    7.13
  -4   0  -4  184.49   24.80
   4   1  -1   95.08   15.85
   4  -1  -1   93.17   15.19
   4   1  -1   81.04   14.80
  -4   1   1   60.26   14.60
  -4  -1   1   68.77   13.38
   4   1  -1   88.93   15.87
   4  -1  -1   97.92   15.68
   4  -1  -1   36.47    9.46
   4  -1  -1   93.82   16.00
  -4   1   1   46.46   12.41
  -4  -1   1   74.04   15.20
  -4  -1   1   71.93   13.42
  -4  -1   1   71.94   15.42
  -4   1   1   60.84   13.18
   4   1   0   84.77   15.54
  -4   1   0   71.80   12.18
   4  -1   0   85.19   15.51
   4   1   0   67.93   13.61
   4  -1   0   92.27   15.23
   4   1   0   93.97   16.50
  -4   1   0   71.65   15.14
  -4  -1   0   85.44   15.04
   4  -1   0   66.57   12.08
   4  -1   0   79.93   15.02
   4   1   0   65.79   12.92
  -4   1   0   68.56   14.50
  -4  -1   0   74.16   15.54
  -4  -1   0   73.18   13.39
  -4   1   0   72.03   14.55
  -4  -1   0   73.50   15.35
  -4   1  -1   15.65    6.46
  -4  -1  -1   15.48    7.52
  -4   1  -1   17.33    5.44
   4  -1   1   14.86    6.27
   4   1   1   11.95    6.03
   4   1   1   17.48    7.32
   4  -1   1   15.42    6.84
   4   1   1   17.61    7.56
   4  -1   1   15.47    5.70
  -4   1  -1   10.49    5.75
  -4  -1  -1   17.74    6.09
   4  -1   1   17.05    7.01
   4   1   1   15.38    6.19
  -4   1  -1   15.52    7.22
  -4  -1  -1   15.62    7.26
  -4  -1  -1   19.12    7.23
   4   1   2   74.73   17.06
  -4   1  -2   74.55   12.14
   4  -1   2   77.95   15.80
   4   1   2   76.53   15.68
  -4  -1  -2   73.93   13.45
  -4   1  -2   82.80   16.04
   4  -1   2   78.48   12.36
   4  -1   2   80.53   14.99
   4   1   2   84.94   14.78
  -4   1  -2   75.16   15.48
  -4  -1  -2   83.01   16.45
  -4   1  -2   62.24   13.46
  -4  -1  -2   74.73   15.76
  -4  -1  -2   71.81   13.80
   4  -1   2   78.81   14.89
   4   1   2   82.79   16.39
  -4  -1  -3   42.35   11.89
   4   1   3   43.59   12.91
   4  -1   3   46.25   12.62
  -4  -1  -3   51.00   11.88
  -4   1  -3   49.42   12.78
   4   1   3   45.23   12.38
   4  -1   3   54.71   10.16
  -4   1  -3   42.08   11.81
   4  -1   3   51.12   12.07
   4   1   3   49.65   11.44
  -4  -1  -3   51.51   13.33
  -4   1  -3   50.39   12.64
   4   1   3   41.36   11.51
   4  -1   3   61.84   13.30
  -4  -1  -3   42.69   11.02
  -4  -1  -4   11.21    6.25
   4   1   4    0.33    3.28
   4   1   4    2.67    3.10
  -4  -1  -4    9.80    5.87
  -4   2   1   30.19    9.94
  -4  -2   1   42.39   11.51
  -4  -2   1   38.50   10.06
   4   2  -1   47.27   11.87
   4  -2  -1   45.74   12.42
   4   2  -1   45.45   11.17
   4  -2  -1   45.77   11.24
  -4  -2   1   32.54   10.82
  -4   2   1   25.70    9.94
  -4  -2   1   37.30    9.33
   4  -2  -1   51.20   12.06
  -4  -2   0   53.08   11.79
   4   2   0   66.60   14.20
  -4   2   0   46.81   10.91
   4  -2   0   78.19   15.02
   4   2   0   62.25   13.17
   4  -2   0   65.80   12.55
   4   2   0   64.32   14.33
  -4   2   0   46.02   11.31
   4  -2   0   68.79   13.08
  -4   2   0   47.82   12.80
   4  -2   0   71.82   14.80
   4   2   0   43.00   10.41
  -4   2   0   49.20   12.63
  -4  -2   0   62.68   13.49
  -4  -2   0   52.80   13.82
  -4   2  -1   14.19    6.40
  -4   2  -1   10.26    4.87
  -4  -2  -1   13.91    6.00
   4   2   1    9.89    6.44
   4  -2   1    2.45    2.27
   4  -2   1    7.99    5.46
   4   2   1    8.00    5.43
   4   2   1   10.64    6.14
   4  -2   1    6.59    3.80
  -4   2  -1   13.75    6.61
   4  -2   1    2.91    2.37
  -4   2  -1    9.82    5.76
  -4  -2  -1   11.81    5.85
  -4  -2  -1    7.87    4.78
   4   2   2  136.06   21.55
   4  -2   2  147.15   22.46
   4   2   2  149.88   24.56
  -4   2  -2  143.88   18.74
   4   2   2  144.73   21.55
  -4   2  -2  140.84   21.94
   4  -2   2  144.09   18.34
   4  -2   2  153.46   21.46
  -4   2  -2  102.01   16.91
  -4  -2  -2  137.03   21.35
  -4   2  -2  173.64   24.27
  -4  -2  -2  149.91   22.98
  -4  -2  -2  143.31   21.09
   4  -2   2  155.77   20.42
  -4  -2  -3   58.92   14.33
   4   2   3   53.74   13.87
   4   2   3   54.68   16.24
  -4   2  -3   56.21   14.61
   4  -2   3   58.22   11.69
   4  -2   3   62.19   14.21
  -4  -2  -3   62.41   14.34
  -4   2  -3   68.25   14.15
   4   2   3   40.91   12.51
   4  -2   3   69.19   14.47
  -4  -2  -3   49.64   12.47
   4   2   4   16.62    8.17
  -4  -2  -4   63.54   15.51
  -4  -2  -4   50.94   13.55
   4  -3  -2   46.38   12.20
  -4   3   2    8.93    6.31
   4   3  -1  115.80   19.78
   4   3  -1  119.00   18.58
   4  -3  -1  132.71   20.05
  -4   3   1   62.93   15.57
   4  -3  -1  112.36   18.39
  -4  -3   1  101.92   18.59
  -4  -3   1   98.98   18.12
   4   3   0   88.83   17.59
  -4   3   0   76.12   15.61
   4   3   0  101.25   17.47
  -4  -3   0   82.07   13.94
   4   3   0   81.29   16.18
  -4   3   0   70.16   16.41
   4  -3   0  105.86   17.40
   4  -3   0  101.81   17.77
  -4  -3   0   91.06   17.28
  -4  -3   0   88.69   17.40
  -4  -3   0   87.65   19.38
  -4   3  -1   44.24   11.54
   4   3   1   39.84   10.96
  -4  -3  -1   37.07   11.70
   4   3   1   37.19   11.41
  -4  -3  -1   41.82    9.53
   4   3   1   44.42   11.70
  -4   3  -1   39.32   12.35
   4  -3   1   37.99    9.84
   4  -3   1   43.40   11.54
   4   3   1   44.74   12.25
  -4  -3  -1   45.69   12.04
  -4  -3  -1   37.65   10.75
   4   3   2  134.54   22.15
   4   3   2  150.39   25.56
  -4   3  -2  151.37   21.50
   4   3   2  164.07   23.43
  -4  -3  -2  153.56   19.74
  -4   3  -2  133.50   22.65
   4  -3   2  165.65   20.81
   4  -3   2  158.77   22.46
  -4  -3  -2  172.05   24.31
  -4  -3  -2  190.39   27.67
  -4  -3  -2  157.45   23.92
   4   3   3  123.13   24.51
   4   3   3  117.04   20.33
  -4   3  -3  126.12   22.84
   4  -3   3  137.52   19.73
   4  -3   3  146.38   22.12
  -4  -3  -3  151.23   22.87
  -4  -3  -3  149.39   24.71
  -4  -3  -3  139.76   22.72
   4   3   3   93.61   19.49
  -4  -3  -4   91.20   19.35
   4   3   4   16.28    7.85
  -4  -3  -4   76.81   17.34
   4  -4  -2   37.42   11.03
  -4   4   2    9.02    5.50
  -4  -4   1   54.42   13.75
  -4  -4   1   47.20   13.56
  -4   4   1   28.68   10.15
   4   4  -1   54.80   14.28
   4  -4  -1   54.43   13.69
   4   4  -1   55.02   12.59
  -4   4   1   26.32   10.96
   4  -4  -1   50.72   12.45
  -4  -4   0   44.27   12.95
  -4   4   0   30.58   10.66
   4   4   0   45.80   13.23
   4   4   0   44.52   13.46
   4   4   0   29.76   10.63
  -4  -4   0   38.37   10.23
   4   4   0   44.88   11.71
  -4   4   0   22.70   10.63
   4  -4   0   46.30   12.55
  -4  -4   0   32.84   11.52
   4  -4   0   50.40   12.92
  -4  -4   0   45.81   12.18
  -4   4  -1   16.79    8.33
   4   4   1    6.84    5.82
   4   4   1   13.03    7.11
  -4  -4  -1   12.59    7.59
  -4  -4  -1   16.99    7.24
   4   4   1   13.22    7.12
   4   4   1   13.03    6.16
  -4   4  -1    5.22    4.82
   4  -4   1    9.11    5.71
   4  -4   1    7.70    5.16
  -4  -4  -1   13.79    6.75
  -4  -4  -1   12.05    5.90
   4   4   2   60.76   14.42
  -4   4  -2   58.53   14.49
  -4  -4  -2   69.00   16.58
   4   4   2   52.90   15.57
   4   4   2   48.35   15.20
  -4  -4  -2   60.26   13.34
   4  -4   2   64.38   14.13
  -4   4  -2   49.55   14.90
   4   4   2   48.42   13.23
   4  -4   2   72.57   15.70
  -4  -4  -2   72.27   17.83
  -4  -4  -2   57.40   13.74
   4   4   3   11.02    4.64
   4   4   3    6.92    6.14
   4   4   3    9.67    8.09
  -4  -4  -3   16.35    7.20
   4  -4   3   16.58    7.60
  -4  -4  -3   17.39    7.77
   4  -4   3   18.14    7.77
  -4  -4  -3   18.37    9.16
   4   4   4    2.57    5.86
  -4  -4  -4   11.06    6.38
   4   4   4    6.57    5.64
  -4  -4  -4   11.04    7.53
  -4   5   2   -0.25    3.02
   4  -5  -2   14.65    7.24
  -4   5   1   12.48    8.56
  -4   5   1    9.48    7.11
   4  -5  -1   25.43    9.66
  -4  -5   0    7.95    4.64
  -4   5   0    9.05    6.14
   4   5   0   14.48    7.15
   4   5   0    9.28    6.34
  -4  -5   0   11.80    7.02
  -4   5   0    2.49    1.97
   4  -5   0    6.95    4.88
   4  -5   0   13.23    7.15
  -4  -5  -1   -2.60    2.80
  -4   5  -1    2.01    2.25
   4   5   1   -0.23    4.17
   4   5   1    6.71    5.86
  -4  -5  -1    3.92    4.01
  -4   5  -1   -3.69    4.88
   4  -5   1   10.32    6.63
   4  -5   1    4.76    4.31
  -4   5  -2   41.91   13.50
   4   5   2   40.35   13.51
   4   5   2   31.75   12.45
  -4  -5  -2   49.85   13.64
  -4   5  -2   44.36   15.14
   4  -5   2   52.12   13.48
   4  -5   2   60.03   14.81
  -4  -5  -2   54.51   16.26
   4   5   3   42.16   15.71
   4   5   3   28.61   12.37
  -4  -5  -3   53.94   14.94
  -4  -5  -3   52.29   16.31
   4   5   4    3.99    5.26
  -4  -5  -4   21.75    9.33
  -4  -5  -4   29.69   12.69
  -4   6   2    7.14    3.34
  -4   6   2    8.00    7.25
   4  -6  -2   27.60   10.78
   4  -6  -2   15.69    7.68
  -4   6   1   13.06    8.87
   4  -6  -1   29.53   10.34
  -4  -6   0   25.20   10.92
  -4   6   0   14.06    6.01
   4   6   0   33.20   13.05
   4   6   0   22.64   11.79
  -4  -6   0   27.78   11.71
   4  -6   0   28.11   10.09
  -4  -6  -1   12.43    9.80
  -4   6  -1   10.48    7.15
   4   6   1   17.96   10.04
   4   6   1    7.94    7.09
  -4  -6  -1   11.41    8.45
   4  -6   1    5.44    4.59
  -4   6  -2   42.03   13.81
   4   6   2   27.66   12.71
   4   6   2   34.65   15.48
  -4  -6  -2   35.24   13.20
   4  -6   2   34.62   12.64
  -4  -6  -2   27.29   12.02
   4   6   3   12.45    7.44
   4   6   3    8.38    7.13
  -4  -6  -3   15.71    8.88
  -4  -6  -3   20.52   10.95
  -4  -6  -4   16.83   10.00
  -4  -6  -4   10.38    9.72
  -4   7   2   -3.38    5.29
   4  -7  -2   11.37    8.09
   4  -7  -2    7.03    5.67
  -4   7   1   -0.45    2.92
   4  -7  -1   15.64    8.62
   4  -7  -1   14.91    8.26
   4   7   0    4.65    7.75
   4  -7   0    1.40    4.89
  -4  -7  -1    2.80    5.98
   4   7   1    0.23    5.93
  -4  -7  -1   14.07    8.78
   4  -7   1   11.64    6.61
  -4  -7  -2   22.52   13.17
   4   7   2    7.22    8.21
  -4  -7  -2   15.14   10.00
  -4  -7  -3   20.65   12.79
  -5   0   1   21.35    8.39
   5   0  -1   47.79   12.78
  -5   0   1   27.41   11.03
   5   0  -1   43.26   12.49
  -5   0   1   28.04   10.25
   5   0  -1   33.62   10.64
   5   0   0   67.23   15.48
   5   0   0   68.22   16.50
  -5   0   0   46.44   13.75
  -5   0   0   65.10   15.66
   5   0   0   56.22   13.39
  -5   0   0   45.92   13.54
  -5   0  -1    6.36    3.21
   5   0   1    9.63    6.08
  -5   0  -1    7.02    4.63
   5   0   1    8.91    5.87
   5   0   1    5.66    4.56
  -5   0  -1    4.24    5.04
   5   0   2  397.66   38.83
   5   0   2  394.54   40.09
  -5   0  -2  434.55   39.44
   5   0   2  353.07   35.19
  -5   0  -2  352.87   38.25
  -5   0  -2  410.28   40.97
   5   0   3  127.35   23.34
  -5   0  -3  175.50   25.33
  -5   0  -3  163.40   26.02
   5   0   3  150.05   23.33
  -5   0  -3  148.75   24.79
   5   0   3  160.93   25.28
   5   0   4    3.90    5.57
  -5   0  -4   95.38   19.74
   5   0   4   75.03   17.96
  -5   1   1   14.41    7.88
  -5  -1   1   21.69    8.64
   5   1  -1   38.21   11.15
   5  -1  -1   32.57   10.87
  -5  -1   1   18.50    8.84
   5   1  -1   20.34    9.10
  -5   1   1   15.00    7.58
  -5  -1   1   24.10    9.04
  -5   1   1   14.96    7.60
   5  -1  -1   25.28   10.01
  -5  -1   0   17.64    7.21
  -5  -1   0   20.63    7.93
   5  -1   0   27.75    9.52
   5   1   0   27.87    9.94
  -5   1   0   18.96    8.45
  -5  -1   0   21.27   10.46
   5  -1   0   21.39    8.18
   5   1   0   25.78    8.62
  -5   1   0   20.77    9.15
  -5  -1   0   28.87    9.82
   5  -1   0   30.62   10.94
   5   1   0   22.75    8.62
   5   1   0   28.46   10.23
  -5   1   0   17.09    8.10
  -5   1  -1    6.77    5.89
   5   1   1   12.03    7.36
  -5  -1  -1   10.10    7.03
   5  -1   1   19.61    8.57
   5   1   1    8.41    6.77
  -5  -1  -1    5.99    4.36
  -5   1  -1    3.21    4.41
   5  -1   1   12.50    7.84
   5   1   1   10.61    7.11
   5  -1   1    9.62    6.44
   5   1   1   13.42    7.51
  -5   1  -1   12.21    8.04
  -5  -1  -1    8.11    5.61
  -5  -1  -1    5.91    4.76
   5  -1   2  145.15   22.58
   5   1   2  120.48   22.71
   5   1   2  141.42   23.79
   5  -1   2  159.26   25.93
   5   1   2  136.24   23.36
  -5  -1  -2  174.27   23.65
  -5   1  -2  161.81   25.11
   5  -1   2  121.37   21.08
   5   1   2  123.55   20.14
  -5   1  -2  130.37   22.82
  -5  -1  -2  147.51   24.74
  -5   1  -2  143.31   23.18
  -5  -1  -2  125.97   23.24
  -5  -1  -2  150.15   21.83
  -5   1  -3   16.46    8.26
  -5  -1  -3   20.44    9.70
   5   1   3   15.32    8.71
   5  -1   3   20.20   10.46
   5   1   3   12.43    6.72
  -5  -1  -3   19.06    7.97
  -5   1  -3   19.23    8.70
   5  -1   3   20.08    9.09
   5   1   3   12.82    5.84
  -5   1  -3   13.38    7.81
  -5  -1  -3   24.34   10.75
   5  -1   3   20.04    9.15
  -5  -1  -3   20.87    9.08
   5   1   3   20.36    8.90
  -5   1  -4    5.07    5.43
  -5  -1  -4    0.48    4.54
   5   1   4   -0.01    4.72
   5   1   4    3.30    4.06
   5  -1   4    7.14    4.01
   5   1   4    3.61    2.85
  -5  -1  -4    0.01    4.12
  -5   2   1    0.91    2.36
  -5  -2   1    2.70    3.16
   5   2  -1   17.90   10.25
   5  -2  -1   13.61    7.67
   5   2  -1   13.46    6.47
   5  -2  -1    9.33    5.20
  -5   2   1    7.67    3.97
   5  -2  -1   10.48    6.30
  -5  -2   0   18.32    8.04
  -5   2   0   21.09    8.10
   5   2   0   19.42    8.71
   5   2   0   21.60   10.34
  -5  -2   0   17.03    9.18
  -5   2   0   10.21    5.79
   5  -2   0   14.58    7.49
   5  -2   0   18.92    9.88
   5   2   0   18.23    8.46
   5  -2   0   20.81    8.83
  -5   2   0   17.52    8.33
   5  -2   0   15.87    7.18
  -5   2   0    9.67    7.17
  -5  -2   0   17.41    8.69
   5  -2   1    7.22    5.74
   5   2   1    1.58    2.22
  -5   2  -1    1.62    1.65
   5   2   1    3.08    3.78
  -5   2  -1   -2.49    4.47
  -5  -2  -1    2.64    4.98
   5  -2   1    4.04    3.41
   5   2   1    6.35    3.01
  -5   2  -1    0.62    3.67
   5  -2   1    5.77    3.09
   5  -2   1   10.39    6.57
  -5   2  -1    0.14    2.99
  -5  -2  -1    1.85    2.64
  -5  -2  -1    1.41    2.84
   5   2   2  157.37   27.18
   5  -2   2  172.22   26.93
   5  -2   2  182.97   25.24
   5   2   2  155.78   24.98
   5   2   2  127.04   23.71
  -5   2  -2  179.24   27.95
   5  -2   2  164.29   21.42
  -5   2  -2  138.78   24.03
   5  -2   2  168.57   25.15
  -5  -2  -2  184.28   27.77
  -5   2  -2  172.55   25.20
  -5  -2  -2  186.48   29.34
  -5  -2  -2  177.77   25.87
   5   2   3   39.57   11.44
  -5   2  -3   41.50   12.10
  -5  -2  -3   33.79   12.43
   5   2   3   29.30   12.88
   5  -2   3   14.11    8.44
   5   2   3   37.39   12.47
  -5   2  -3   34.05   11.94
   5  -2   3   34.44   11.38
  -5  -2  -3   44.66   13.32
  -5  -2  -3   32.24   10.98
   5  -2   3   36.77   12.04
  -5   2  -4    7.98    5.19
  -5  -2  -4   21.56   10.02
   5   2   4    8.89    6.37
   5  -2   4   18.24    8.75
   5   2   4   12.76    6.41
  -5  -2  -4   13.73    6.53
  -5   3   1   11.23    6.45
   5  -3  -1   33.52   10.19
  -5   3   1   27.01   12.38
   5  -3  -1   29.32    9.88
  -5  -3   0   26.43    9.82
  -5   3   0   17.72    7.33
   5   3   0   35.78   12.90
  -5  -3   0   27.55   10.96
   5   3   0   24.96   10.42
   5   3   0   25.16    9.05
  -5   3   0   20.25    8.26
   5  -3   0   38.02   11.06
   5  -3   0   37.65   12.07
  -5  -3   0   35.66   12.84
  -5  -3  -1    3.16    3.29
  -5   3  -1    5.39    6.19
   5   3   1    9.11    7.06
   5   3   1    4.51    3.68
  -5  -3  -1    2.26    4.88
   5   3   1    5.46    5.15
  -5   3  -1    5.77    5.30
   5  -3   1    9.81    5.81
   5  -3   1   11.82    7.63
  -5  -3  -1    4.75    2.46
   5   3   2  168.63   29.86
  -5   3  -2  162.79   23.72
   5   3   2  165.54   26.23
   5   3   2  162.19   26.72
  -5   3  -2  168.36   28.21
   5  -3   2  186.81   24.89
   5  -3   2  185.60   27.08
  -5  -3  -2  204.63   29.74
  -5  -3  -2  181.13   27.44
  -5  -3  -2  199.44   31.73
  -5  -3  -3   80.76   19.65
   5   3   3   56.23   18.20
   5   3   3   50.70   15.73
  -5   3  -3   81.98   20.14
   5   3   3   61.55   16.62
   5  -3   3   75.21   15.36
  -5  -3  -3   84.21   19.07
   5  -3   3   84.61   18.12
  -5  -3  -3   81.47   18.55
   5   3   4    2.18    4.64
   5   3   4   -1.79    7.46
  -5  -3  -4   47.88   15.55
  -5  -3  -4   51.49   15.16
   5   3   4   17.64   10.51
  -5   4   1   12.89    7.78
  -5   4   1    5.89    4.64
   5  -4  -1   22.14    9.39
   5  -4  -1   27.65   10.57
  -5  -4   0   34.14   12.93
  -5   4   0   11.21    6.61
   5   4   0   18.26    9.28
   5   4   0   25.27   10.42
  -5   4   0   17.30    8.06
   5  -4   0   22.60    9.72
  -5  -4   0   14.72    8.15
   5  -4   0   27.75   10.88
  -5  -4   0   22.68    9.36
  -5  -4  -1    9.67    8.05
   5   4   1   -1.13    5.05
  -5   4  -1   10.25    6.84
   5   4   1   12.82    8.83
   5   4   1    6.53    4.43
  -5  -4  -1    2.92    6.33
  -5   4  -1    7.78    6.25
   5  -4   1    5.09    3.73
   5  -4   1   10.91    7.43
  -5  -4  -1    3.59    4.72
  -5   4  -2   66.96   16.16
   5   4   2   34.76   13.12
   5   4   2   49.20   15.80
  -5  -4  -2   66.15   19.85
   5   4   2   54.73   14.45
  -5   4  -2   47.02   15.67
   5  -4   2   56.44   13.67
   5  -4   2   73.92   17.73
  -5  -4  -2   75.23   18.39
  -5  -4  -2   94.50   22.96
  -5  -4  -3   10.39    6.07
   5   4   3    8.61    6.51
  -5   4  -3    3.94    1.77
   5   4   3    8.97    5.20
   5   4   3    8.98    6.51
   5  -4   3    9.30    6.39
   5  -4   3   16.34    9.93
  -5  -4  -3   15.00    8.86
  -5  -4  -3   12.17    9.20
  -5  -4  -4    7.14    6.73
   5   4   4   -3.88    3.78
   5   4   4   -0.66    3.06
  -5  -4  -4    2.91    6.14
  -5   5   2   -0.32    3.55
  -5   5   1    6.01    6.62
  -5   5   1    6.71    6.32
   5  -5  -1    4.79    2.86
   5  -5  -1   10.45    7.21
  -5  -5   0    2.30    3.78
  -5   5   0    9.08    7.58
   5   5   0   14.21   11.26
  -5   5   0    6.45    4.86
   5  -5   0    1.20    2.58
   5  -5   0   14.51    8.63
  -5  -5  -1    4.48    3.27
  -5   5  -1   11.66   10.01
   5   5   1    6.29    9.90
  -5   5  -1    4.22    2.61
   5  -5   1   -2.47    1.84
   5  -5   1   -4.84    5.45
  -5   5  -2   46.83   14.55
   5   5   2   49.69   17.85
  -5   5  -2   39.53   14.89
   5  -5   2   45.80   13.46
   5  -5   2   56.15   15.94
  -5  -5  -2   59.66   18.38
   5   5   3   19.45   13.14
  -5  -5  -3   31.86   12.76
   5   5   4    3.70    4.27
  -5  -5  -4   18.81   10.48
   5  -6  -1   20.11    8.05
   5   6   0   13.54   10.34
   5  -6   0   25.94   10.82
  -5  -6  -1    1.47    3.95
   5   6   1   -2.40    5.02
  -5  -6  -1    0.36    2.04
   5   6   2   26.61   15.02
  -6   0   1   18.66    8.45
  -6   0   1   31.72   12.29
   6   0   0   37.41   12.76
  -6   0   0   31.28   12.56
   6   0   0   31.16   12.04
  -6   0   0   25.87   10.07
   6   0   0   28.90   11.95
  -6   0   0   16.54    7.46
  -6   0  -1   56.05   17.19
   6   0   1   62.11   16.83
   6   0   1   77.76   19.38
  -6   0  -1   59.15   15.70
   6   0   1   50.82   14.07
  -6   0  -1   41.87   13.55
  -6   0  -2   56.27   17.15
   6   0   2   67.30   18.48
  -6   0  -2   70.30   17.32
   6   0   2   60.06   17.15
   6   0   2   62.66   17.02
  -6   0  -2   55.07   16.48
  -6   0  -3   50.24   16.20
   6   0   3   62.79   16.99
   6   0   3   40.74   13.72
  -6   0  -3   47.01   12.57
   6   0   3   34.37   11.35
  -6   0  -3   46.49   13.35
   6   0   4   58.84   18.38
   6   0   4    5.29    6.82
  -6   0  -4   65.29   18.89
   6  -1  -1   81.50   18.40
  -6   1   1   25.88   11.08
   6  -1  -1   71.44   17.35
  -6   1   1   19.87   10.03
   6   1   0   58.05   16.41
  -6  -1   0   30.46   13.06
   6  -1   0   61.20   15.92
  -6   1   0   44.03   14.58
   6   1   0   62.88   17.91
  -6   1   0   33.82   12.39
  -6  -1   0   26.40    9.15
   6  -1   0   58.34   14.96
   6  -1   0   52.39   15.23
   6   1   0   36.94   11.89
  -6   1   0   21.13   10.12
  -6  -1   0   37.08   13.36
  -6   1  -1   44.73   14.59
  -6  -1  -1   44.35   16.17
   6  -1   1   65.66   17.34
   6   1   1   49.96   15.50
   6  -1   1   49.62   13.43
  -6  -1  -1   54.94   14.96
  -6   1  -1   50.14   15.16
   6   1   1   60.04   16.13
   6  -1   1   53.59   15.44
   6   1   1   53.48   14.63
  -6   1  -1   35.58   13.03
  -6  -1  -1   44.08   14.09
  -6   1  -2   38.12   14.04
  -6  -1  -2   54.17   16.66
   6  -1   2   45.44   14.40
   6   1   2   35.92   13.32
  -6  -1  -2   57.65   14.97
  -6   1  -2   46.96   14.33
   6  -1   2   38.01   12.72
   6   1   2   38.07   14.16
   6  -1   2   49.05   14.88
  -6   1  -2   37.06   13.91
  -6  -1  -2   41.62   14.31
  -6   1  -3   26.03   10.62
  -6  -1  -3   31.96   13.31
   6  -1   3   35.83   12.00
   6  -1   3   38.85   14.59
   6   1   3   28.61   11.88
   6   1   3   40.58   15.46
  -6   1  -3   26.29   10.45
   6  -1   3   28.29   12.15
  -6   1  -3   28.99   11.87
  -6  -1  -3   33.21   12.10
   6  -1   4   33.05   13.63
   6   1   4   30.73   12.41
  -6   1  -4   42.85   13.67
  -6  -1  -4   44.61   16.08
   6   1   4    9.45    7.42
   6  -2  -1   29.50   12.17
  -6   2   1    3.79    2.58
   6  -2  -1   27.06   11.92
  -6   2   1    2.90    3.02
  -6  -2   0   21.20   10.27
   6   2   0   21.82    9.51
   6  -2   0   29.51   13.07
   6   2   0   16.18    9.18
  -6  -2   0   10.59    7.16
  -6   2   0   18.48    9.82
  -6   2   0   12.50    9.38
   6  -2   0   13.21    7.10
   6   2   0   17.72   10.98
  -6   2   0   11.29    4.76
  -6  -2   0   13.00    8.67
  -6  -2  -1   28.09   10.76
   6   2   1   33.41   12.51
  -6   2  -1   21.27    9.40
  -6  -2  -1   21.34   10.62
   6  -2   1   30.31   10.38
   6   2   1   23.99   10.05
  -6   2  -1   16.99    9.09
   6   2   1   20.62   11.00
   6  -2   1   15.92    8.09
  -6   2  -1   11.16    7.40
  -6  -2  -1   17.98    7.87
   6   2   2   21.45   10.51
  -6   2  -2   18.79    9.47
  -6  -2  -2   36.41   14.67
   6  -2   2   33.45   11.20
   6   2   2   25.94   11.03
  -6   2  -2   38.11   13.68
   6  -2   2   27.53   11.59
  -6   2  -2   20.51    9.83
  -6  -2  -2   29.19   12.15
   6   2   2   25.65   10.52
  -6  -2  -2   32.35   11.62
   6   2   3   16.01   10.18
  -6   2  -3   40.72   14.16
  -6  -2  -3   31.77   13.56
   6  -2   3    7.93    7.16
   6   2   3   21.04   10.99
   6   2   3   10.76    9.08
  -6   2  -3   15.41    9.30
   6  -2   3   22.09    9.93
  -6  -2  -3   26.47   11.75
  -6  -2  -3   22.05    8.48
  -6  -2  -4   34.86   15.13
   6   2   4   25.62   12.94
   6   2   4   15.47    9.27
  -6  -2  -4   28.16   11.03
  -6   3   1   21.20    8.65
  -6   3   1   13.28    7.58
   6  -3  -1   35.48   13.77
  -6  -3   0   25.55   11.03
  -6   3   0   16.00    8.25
   6   3   0   25.37   11.18
   6   3   0   31.26   11.88
  -6   3   0   21.66   11.43
   6  -3   0   29.74   11.58
  -6  -3   0   20.44   12.24
   6  -3   0   28.55   11.12
  -6  -3   0   29.90   12.68
  -6  -3  -1   39.32   13.82
   6   3   1   49.41   17.62
   6   3   1   24.13   10.71
   6   3   1   33.26   13.05
  -6  -3  -1   36.63   14.68
  -6   3  -1   34.50   12.71
   6  -3   1   41.20   14.17
  -6  -3  -1   29.48   11.86
   6   3   2   39.18   14.91
   6   3   2   30.88   12.36
  -6  -3  -2   49.62   17.60
   6   3   2   39.95   13.61
  -6   3  -2   35.67   13.75
   6  -3   2   56.59   16.61
  -6  -3  -2   46.37   14.95
  -6  -3  -2   51.78   16.20
   6   3   3   29.53   13.65
  -6  -3  -3   46.51   16.50
   6   3   3   41.25   14.86
  -6   3  -3   41.90   15.11
   6   3   3   23.79   12.37
   6  -3   3   46.46   15.63
  -6  -3  -3   42.89   13.93
  -6  -3  -3   37.77   13.85
  -6  -3  -4   48.41   17.98
   6   3   4   18.36   10.73
  -6  -3  -4   41.52   14.28
  -6   4   1    8.32    3.74
  -6   4   1    7.53    8.53
   6  -4  -1   29.47   12.32
   6  -4  -1   34.62   12.82
  -6  -4   0   26.47   12.60
  -6   4   0   17.32    8.97
   6   4   0   36.51   13.60
   6   4   0   25.45   10.58
  -6   4   0    4.27    3.56
   6  -4   0   31.63   12.14
   6  -4   0   26.39   10.81
  -6  -4   0   27.11   10.60
  -6  -4  -1   21.53   12.26
  -6   4  -1   14.17    6.26
   6   4   1   44.73   15.66
   6   4   1   21.12    9.96
   6   4   1   20.40    9.57
  -6   4  -1   24.98   11.72
  -6  -4  -1   25.99   15.12
   6  -4   1   25.26    9.32
   6  -4   1   30.00   11.83
  -6  -4  -1   22.63   10.77
  -6  -4  -2   20.28    8.80
  -6   4  -2    9.26    3.75
   6   4   2   17.63    9.38
   6   4   2   18.06   10.32
  -6  -4  -2   19.03   10.69
  -6   4  -2   18.25   11.38
   6  -4   2   19.37    9.38
   6  -4   2   19.02    9.45
  -6  -4  -2   27.88   12.98
   6   4   2   14.51   10.28
   6   4   3   11.86    9.94
  -6  -4  -3   20.17   12.08
   6   4   3   15.24    9.01
   6  -4   3   14.90    7.65
   6  -4   3   23.25   10.80
  -6  -4  -3   18.93   10.44
  -6  -4  -3   27.45   13.71
  -6  -4  -4   -3.54    6.88
   6   4   4    1.89    7.10
   6  -5  -1    0.37    3.17
   6  -5   0    5.23    6.06
   6  -5   0    2.29    5.91
   6  -5   1    6.66    6.30
   7   0   0   33.57   12.70
  -7   0   0   25.99   11.47
  -7   0   0   30.49   14.37
   7   0   0   35.02   13.34
  -7   0   0   14.52   10.19
   7   0   1    7.55    7.94
  -7   0  -1    9.29    5.98
  -7   0  -1   15.22    8.40
   7   0   1    8.05    6.78
   7   0   1   18.55   10.40
  -7   0  -1    3.21    4.66
  -7   0  -2   33.34   14.97
   7   0   2   17.24   12.42
  -7   0  -2   10.70    5.91
   7   0   2   25.83   12.27
  -7   0  -2   16.54    9.96
  -7   0  -3   18.27   10.97
   7   0   3   15.23    9.30
   7   0   3   14.74   12.46
   7  -1   0   30.95   13.77
   7   1   0   32.15   12.73
  -7   1   0   15.63    8.31
  -7  -1   0   21.55   12.46
   7  -1   0   17.79    9.40
  -7   1   0    6.03    6.52
  -7  -1   0    9.41    5.15
   7  -1   1    4.16    5.74
  -7  -1  -1    6.84    8.77
  -7   1  -1    8.70    8.74
  -7   1  -1    4.43    3.80
   7  -1   1   11.26    7.61
   7   1   1   -1.12    4.93
  -7   1  -1   -5.98    8.93
   7  -1   1    9.52    7.61
   7  -1   2   17.07   10.39
  -7   1  -2   16.83   10.53
  -7  -1  -2   12.94    8.09
   7  -1   2   22.80   11.38
   7   1   2   15.63    7.87
   7  -1   2   11.40    7.05
  -7   1  -2    8.06    4.64
   7  -1   3    7.53    6.40
   7  -2   0   27.35   13.28
   7  -2   0   23.20   11.11
   7  -2   1   13.48    9.69
  -7  -2  -1   -0.45    5.41
  -7   2  -1   -4.39    7.38
   7  -2   1    0.58    6.04
   7  -2   2   14.37   10.06
  -7   2  -2   18.74   12.60
  -7   2  -3    5.21    6.89
   0   0   0    0.00    0.00
;
_shelx_hkl_checksum              894
_olex2_submission_special_instructions 'No special instructions were received'
loop_
_space_group_symop_operation_xyz
'x, y, z'
'x, -y, z'
loop_
_atom_site_label
_atom_site_type_symbol
_atom_site_fract_x
_atom_site_fract_y
_atom_site_fract_z
_atom_site_U_iso_or_equiv
_atom_site_adp_type
_atom_site_occupancy
_atom_site_site_symmetry_order
_atom_site_calc_flag
_atom_site_refinement_flags_posn
_atom_site_refinement_flags_adp
_atom_site_refinement_flags_occupancy
Co1 Co 0.016(2) 0.0000 -0.001(4) 0.039(3) Uiso 1 2 d DS T P
O1 O 0.100(8) 0.0000 0.208(8) 0.051(6) Uiso 1 2 d DS T P
O4 O -0.101(9) 0.0000 0.803(7) 0.051(6) Uiso 1 2 d DS T P
O2 O -0.260(7) 0.0000 0.126(9) 0.051(6) Uiso 1 2 d DS T P
C7 C -0.108(6) 0.0000 0.212(5) 0.041(5) Uiso 1 2 d DS T P
N1 N 0.008(3) 0.318(3) -0.014(3) 0.027(6) Uiso 1 1 d D . .
C4 C -0.228(5) 0.0000 0.597(5) 0.041(5) Uiso 1 2 d DS T P
C3 C -0.406(4) 0.0000(7) 0.505(5) 0.041(5) Uiso 1 2 d DGS T P
H3 H -0.5504 0.0000 0.5286 0.050 Uiso 1 2 calc RS T P
C2 C -0.369(4) 0.0000(10) 0.380(5) 0.041(5) Uiso 1 2 d DGS T P
H2 H -0.4880 0.0000 0.3184 0.050 Uiso 1 2 calc RS T P
C1 C -0.154(4) 0.0000(9) 0.345(5) 0.041(5) Uiso 1 2 d DGS T P
C6 C 0.024(4) 0.0000(10) 0.436(5) 0.041(5) Uiso 1 2 d DGS T P
H6 H 0.1684 0.0000 0.4133 0.050 Uiso 1 2 calc RS T P
C5 C -0.013(4) 0.0000(7) 0.562(5) 0.041(5) Uiso 1 2 d DGS T P
H5 H 0.1061 0.0000 0.6235 0.050 Uiso 1 2 calc RS T P
O1W O 0.351(6) 0.0000 0.0070(9) 0.048(11) Uiso 1 2 d DS T P
H1WA H 0.3899 -0.0031 -0.0643 0.073 Uiso 1 2 calc DR . .
C8 C -0.262(8) 0.0000 0.714(18) 0.041(5) Uiso 1 2 d DS T P
O3 O -0.477(7) 0.0000 0.742(7) 0.051(6) Uiso 1 2 d DS T P
C9 C 0.118(6) 0.392(6) -0.122(4) 0.050(11) Uiso 1 1 d D . .
H9A H 0.0409 0.3458 -0.1989 0.060 Uiso 1 1 calc R . .
H9B H 0.2692 0.3458 -0.1169 0.060 Uiso 1 1 calc R . .
C10 C -0.222(4) 0.390(4) -0.018(9) 0.035(9) Uiso 1 1 d D . .
H10A H -0.2913 0.3436 0.0538 0.042 Uiso 1 1 calc R . .
H10B H -0.3063 0.3436 -0.0933 0.042 Uiso 1 1 calc R . .
C11 C 0.155(7) 0.394(5) 0.092(4) 0.038(9) Uiso 1 1 d D . .
H11A H 0.3050 0.3487 0.0862 0.045 Uiso 1 1 calc R . .
H11B H 0.1064 0.3487 0.1703 0.045 Uiso 1 1 calc R . .
H1WB H 0.4814 -0.0035 0.0865 0.057 Uiso 1 2 d DR . .
loop_
_atom_type_symbol
_atom_type_description
_atom_type_scat_dispersion_real
_atom_type_scat_dispersion_imag
_atom_type_scat_source
C C 0.0033 0.0016 'International Tables Vol C Tables 4.2.6.8 and 6.1.1.4'
H H 0.0000 0.0000 'International Tables Vol C Tables 4.2.6.8 and 6.1.1.4'
Co Co 0.3494 0.9721 'International Tables Vol C Tables 4.2.6.8 and 6.1.1.4'
N N 0.0061 0.0033 'International Tables Vol C Tables 4.2.6.8 and 6.1.1.4'
O O 0.0106 0.0060 'International Tables Vol C Tables 4.2.6.8 and 6.1.1.4'
loop_
_geom_angle_atom_site_label_1
_geom_angle_atom_site_label_2
_geom_angle_atom_site_label_3
_geom_angle
_geom_angle_site_symmetry_1
_geom_angle_site_symmetry_3
Co1 Co1 O1 0(10) 2 .
Co1 Co1 O4 0(10) 2 1_554
Co1 Co1 O2 0(10) 2 .
Co1 Co1 N1 0(10) 2 2
Co1 Co1 N1 0(10) 2 .
Co1 Co1 O1W 0(10) 2 .
O1 Co1 O2 61(2) . .
O1 Co1 N1 93.6(12) . 2
O1 Co1 N1 93.6(12) . .
O4 Co1 O1 174(2) 1_554 .
O4 Co1 O2 113(2) 1_554 .
O4 Co1 N1 86.4(12) 1_554 .
O4 Co1 N1 86.4(12) 1_554 2
O2 Co1 N1 91.4(11) . .
O2 Co1 N1 91.4(11) . 2
N1 Co1 N1 173(2) 2 .
O1W Co1 O1 80.0(17) . .
O1W Co1 O4 106(2) . 1_554
O1W Co1 O2 141(2) . .
O1W Co1 N1 91.1(7) . .
O1W Co1 N1 91.1(7) . 2
Co1 O1 Co1 0.0(6) 2 .
C7 O1 Co1 84(4) . 2
C7 O1 Co1 84(4) . .
C8 O4 Co1 151(8) . 1_556
Co1 O2 Co1 0.0(17) 2 .
C7 O2 Co1 84(3) . 2
C7 O2 Co1 84(3) . .
O1 C7 C1 108(4) . .
O2 C7 O1 131(8) . .
O2 C7 C1 121(5) . .
Co1 N1 Co1 0.0(18) 2 .
C9 N1 Co1 113(2) . .
C9 N1 Co1 113(2) . 2
C10 N1 Co1 111.0(18) . 2
C10 N1 Co1 111.0(18) . .
C10 N1 C9 110(4) . .
C11 N1 Co1 108(2) . .
C11 N1 Co1 108(2) . 2
C11 N1 C9 101(3) . .
C11 N1 C10 114(3) . .
C3 C4 C5 120.0 . .
C8 C4 C3 120.2(12) . .
C8 C4 C5 119.8(12) . .
C4 C3 H3 120.0 . .
C2 C3 C4 120.0 . .
C2 C3 H3 120.0 . .
C3 C2 H2 120.0 . .
C1 C2 C3 120.0 . .
C1 C2 H2 120.0 . .
C2 C1 C7 121.5(11) . .
C6 C1 C7 118.5(11) . .
C6 C1 C2 120.0 . .
C1 C6 H6 120.0 . .
C1 C6 C5 120.0 . .
C5 C6 H6 120.0 . .
C4 C5 H5 120.0 . .
C6 C5 C4 120.0 . .
C6 C5 H5 120.0 . .
Co1 O1W Co1 0(2) 2 .
Co1 O1W H1WA 109.5 2 .
Co1 O1W H1WA 109.5 . .
Co1 O1W H1WB 132(2) 2 .
Co1 O1W H1WB 132(2) . .
H1WA O1W H1WB 118.1 . .
O4 C8 O3 121(10) . .
C4 C8 O4 122(8) . .
C4 C8 O3 117(8) . .
N1 C9 C9 110.5(19) . 2_565
N1 C9 H9A 109.5 . .
N1 C9 H9B 109.5 . .
C9 C9 H9A 109.5 2_565 .
C9 C9 H9B 109.5 2_565 .
H9A C9 H9B 108.1 . .
N1 C10 C10 110.0(15) . 2_565
N1 C10 H10A 109.7 . .
N1 C10 H10B 109.7 . .
C10 C10 H10A 109.7 2_565 .
C10 C10 H10B 109.7 2_565 .
H10A C10 H10B 108.2 . .
N1 C11 C11 111.3(16) . 2_565
N1 C11 H11A 109.4 . .
N1 C11 H11B 109.4 . .
C11 C11 H11A 109.4 2_565 .
C11 C11 H11B 109.4 2_565 .
H11A C11 H11B 108.0 . .
loop_
_geom_bond_atom_site_label_1
_geom_bond_atom_site_label_2
_geom_bond_distance
_geom_bond_site_symmetry_2
Co1 Co1 0.0000 2
Co1 O1 2.25(7) .
Co1 O4 2.16(7) 1_554
Co1 O2 2.25(7) .
Co1 N1 2.256(19) .
Co1 N1 2.256(19) 2
Co1 O1W 2.03(4) .
O1 Co1 2.25(7) 2
O1 C7 1.26(6) .
O4 Co1 2.16(7) 1_556
O4 C8 1.30(11) .
O2 Co1 2.25(7) 2
O2 C7 1.24(7) .
C7 C1 1.480(3) .
N1 Co1 2.256(19) 2
N1 C9 1.480(3) .
N1 C10 1.480(3) .
N1 C11 1.480(3) .
C4 C3 1.3900 .
C4 C5 1.3900 .
C4 C8 1.3(2) .
C3 H3 0.9300 .
C3 C2 1.3900 .
C2 H2 0.9300 .
C2 C1 1.3900 .
C1 C6 1.3900 .
C6 H6 0.9300 .
C6 C5 1.3900 .
C5 H5 0.9300 .
O1W Co1 2.03(4) 2
O1W H1WA 0.8200 .
O1W H1WB 1.108(17) .
C8 O3 1.37(10) .
C9 C9 1.53(9) 2_565
C9 H9A 0.9700 .
C9 H9B 0.9700 .
C10 C10 1.56(6) 2_565
C10 H10A 0.9700 .
C10 H10B 0.9700 .
C11 C11 1.50(7) 2_565
C11 H11A 0.9700 .
C11 H11B 0.9700 .
loop_
_geom_torsion_atom_site_label_1
_geom_torsion_atom_site_label_2
_geom_torsion_atom_site_label_3
_geom_torsion_atom_site_label_4
_geom_torsion
_geom_torsion_site_symmetry_1
_geom_torsion_site_symmetry_4
Co1 O1 C7 O2 0.000(4) . .
Co1 O1 C7 O2 0.000(4) 2 .
Co1 O1 C7 C1 180.0(3) 2 .
Co1 O1 C7 C1 180.0(3) . .
Co1 O4 C8 C4 180.00(3) 1_556 .
Co1 O4 C8 O3 0.00(5) 1_556 .
Co1 O2 C7 O1 0.000(5) . .
Co1 O2 C7 O1 0.000(5) 2 .
Co1 O2 C7 C1 180.0(3) 2 .
Co1 O2 C7 C1 180.0(3) . .
Co1 N1 C9 C9 -177.0(9) 2 2_565
Co1 N1 C9 C9 -177.0(9) . 2_565
Co1 N1 C10 C10 176.3(14) . 2_565
Co1 N1 C10 C10 176.3(14) 2 2_565
Co1 N1 C11 C11 -178.7(11) 2 2_565
Co1 N1 C11 C11 -178.7(11) . 2_565
O1 C7 C1 C2 180.0(3) . .
O1 C7 C1 C6 0.0(4) . .
O2 C7 C1 C2 0.0(5) . .
O2 C7 C1 C6 180.0(2) . .
C7 C1 C6 C5 180.0(4) . .
C4 C3 C2 C1 0.0 . .
C3 C4 C5 C6 0.0 . .
C3 C4 C8 O4 180.0(2) . .
C3 C4 C8 O3 0.0(2) . .
C3 C2 C1 C7 180.0(5) . .
C3 C2 C1 C6 0.0 . .
C2 C1 C6 C5 0.0 . .
C1 C6 C5 C4 0.0 . .
C5 C4 C3 C2 0.0 . .
C5 C4 C8 O4 0.0(2) . .
C5 C4 C8 O3 180.0(2) . .
C8 C4 C3 C2 180.00(16) . .
C8 C4 C5 C6 180.00(16) . .
C9 N1 C10 C10 -58(3) . 2_565
C9 N1 C11 C11 63(2) . 2_565
C10 N1 C9 C9 58(3) . 2_565
C10 N1 C11 C11 -55(3) . 2_565
C11 N1 C9 C9 -62(2) . 2_565
C11 N1 C10 C10 54(3) . 2_565
