#------------------------------------------------------------------------------
#$Date: 2019-11-24 04:12:18 +0200 (Sun, 24 Nov 2019) $
#$Revision: 236652 $
#$URL: file:///home/coder/svn-repositories/cod/cif/8/00/03/8000385.cif $
#------------------------------------------------------------------------------
#
# This file is available in the Crystallography Open Database (COD),
# http://www.crystallography.net/
#
# All data on this site have been placed in the public domain by the
# contributors.
#
data_8000385
loop_
_publ_author_name
'Andrzejewski, Micha\/l'
'Katrusiak, Andrzej'
_publ_section_title
;
 Piezochromic Porous Metal-Organic Framework.
;
_journal_issue                   1
_journal_name_full               'The journal of physical chemistry letters'
_journal_page_first              279
_journal_page_last               284
_journal_paper_doi               10.1021/acs.jpclett.6b02458
_journal_volume                  8
_journal_year                    2017
_chemical_formula_moiety         'C14 H18 Co N2 O5'
_chemical_formula_sum            'C14 H18 Co N2 O5'
_chemical_formula_weight         353.23
_chemical_name_common            AMU1
_chemical_name_systematic
;
Co(1,4-benzenedicarboxylate)(1,4-diazabicyclo[2.2.2]octane)H2O
;
_space_group_crystal_system      triclinic
_space_group_IT_number           1
_space_group_name_Hall           'P 1'
_space_group_name_H-M_alt        'P 1'
_atom_sites_solution_hydrogens   mixed
_atom_sites_solution_primary     direct
_audit_creation_date             2016-07-12
_audit_creation_method
;
Olex2 1.2
(compiled 2016.02.19 svn.r3266 for OlexSys, GUI svn.r5155)
;
_cell_angle_alpha                87.770(13)
_cell_angle_beta                 99.60(2)
_cell_angle_gamma                94.788(11)
_cell_formula_units_Z            1
_cell_length_a                   5.6089(11)
_cell_length_b                   6.9221(6)
_cell_length_c                   10.434(3)
_cell_measurement_reflns_used    766
_cell_measurement_temperature    296(2)
_cell_measurement_theta_max      60.506
_cell_measurement_theta_min      5.908
_cell_volume                     397.91(14)
_computing_molecular_graphics    'Olex2 (Dolomanov et al., 2009)'
_computing_publication_material  'Olex2 (Dolomanov et al., 2009)'
_computing_structure_refinement  'ShelXL (Sheldrick, 2015)'
_computing_structure_solution    'ShelXS (Sheldrick, 2008)'
_diffrn_ambient_temperature      296(2)
_diffrn_measured_fraction_theta_full 0.231
_diffrn_measured_fraction_theta_max 0.165
_diffrn_measurement_device_type  'multiwire proportional'
_diffrn_measurement_method       'phi and omega scans'
_diffrn_radiation_monochromator  graphite
_diffrn_radiation_type           MoK\a
_diffrn_radiation_wavelength     0.71073
_diffrn_reflns_av_R_equivalents  0.0322
_diffrn_reflns_av_unetI/netI     0.0377
_diffrn_reflns_Laue_measured_fraction_full 0.231
_diffrn_reflns_Laue_measured_fraction_max 0.165
_diffrn_reflns_limit_h_max       7
_diffrn_reflns_limit_h_min       -7
_diffrn_reflns_limit_k_max       8
_diffrn_reflns_limit_k_min       -8
_diffrn_reflns_limit_l_max       7
_diffrn_reflns_limit_l_min       -8
_diffrn_reflns_number            2320
_diffrn_reflns_point_group_measured_fraction_full 0.231
_diffrn_reflns_point_group_measured_fraction_max 0.165
_diffrn_reflns_theta_full        26.000
_diffrn_reflns_theta_max         30.253
_diffrn_reflns_theta_min         2.954
_exptl_absorpt_coefficient_mu    1.102
_exptl_absorpt_correction_T_max  0.909
_exptl_absorpt_correction_T_min  0.892
_exptl_absorpt_correction_type   multi-scan
_exptl_absorpt_process_details
;
Data were collected and reduced by program CrysAlisPro, 
and SCALE3 ABSPACK was used for absorption correction
;
_exptl_crystal_colour            yellow
_exptl_crystal_density_diffrn    1.474
_exptl_crystal_description       plate
_exptl_crystal_F_000             183
_exptl_crystal_size_max          0.3
_exptl_crystal_size_mid          0.1
_exptl_crystal_size_min          0.1
_refine_diff_density_max         2.121
_refine_diff_density_min         -1.249
_refine_diff_density_rms         0.305
_refine_ls_abs_structure_details
;
 Refined as a perfect inversion twin.
;
_refine_ls_abs_structure_Flack   0.5
_refine_ls_extinction_method     none
_refine_ls_goodness_of_fit_ref   2.180
_refine_ls_hydrogen_treatment    constr
_refine_ls_matrix_type           full
_refine_ls_number_parameters     74
_refine_ls_number_reflns         766
_refine_ls_number_restraints     28
_refine_ls_restrained_S_all      3.557
_refine_ls_R_factor_all          0.1897
_refine_ls_R_factor_gt           0.1866
_refine_ls_shift/su_max          0.000
_refine_ls_shift/su_mean         0.000
_refine_ls_structure_factor_coef Fsqd
_refine_ls_weighting_details
'w=1/[\s^2^(Fo^2^)+(0.2000P)^2^] where P=(Fo^2^+2Fc^2^)/3'
_refine_ls_weighting_scheme      calc
_refine_ls_wR_factor_gt          0.4297
_refine_ls_wR_factor_ref         0.4330
_reflns_Friedel_coverage         1.000
_reflns_Friedel_fraction_full    0.231
_reflns_Friedel_fraction_max     0.165
_reflns_number_gt                737
_reflns_number_total             766
_reflns_threshold_expression     'I > 2\s(I)'
_cod_data_source_file            jz6b02458_si_004.cif
_cod_data_source_block           315GPa_P1
_cod_original_cell_volume        397.90(15)
_cod_database_code               8000385
_shelx_space_group_comment
;
The symmetry employed for this shelxl refinement is uniquely defined
by the following loop, which should always be used as a source of
symmetry information in preference to the above space-group names.
They are only intended as comments.
;
_olex2_refinement_description
;
1. Fixed Uiso
 At 1.2 times of:
  All C(H) groups, All C(H,H) groups
 At 1.5 times of:
  All O(H,H) groups
2. Restrained distances
 O3-C8
 1.23 with sigma of 0.002
 C8-O4
 1.23 with sigma of 0.002
 O2-C7
 1.23 with sigma of 0.002
 C7-O1
 1.23 with sigma of 0.002
 C7-C1
 1.48 with sigma of 0.002
 C4-C8
 1.48 with sigma of 0.002
 C4-C5
 1.36 with sigma of 0.002
 C5-C6
 1.36 with sigma of 0.002
 C6-C1
 1.36 with sigma of 0.002
 C1-C2
 1.36 with sigma of 0.002
 C2-C3
 1.36 with sigma of 0.002
 C3-C4
 1.36 with sigma of 0.002
 C9-N1
 1.46 with sigma of 0.002
 N1-C11
 1.46 with sigma of 0.002
 N1-C13
 1.46 with sigma of 0.002
 C10-N2
 1.46 with sigma of 0.002
 N2-C12
 1.46 with sigma of 0.002
 N2-C14
 1.46 with sigma of 0.002
 C10-C9
 1.52 with sigma of 0.002
 C12-C11
 1.52 with sigma of 0.002
 C14-C13
 1.52 with sigma of 0.002
 O4-O3
 2.16 with sigma of 0.002
 O1-O2
 2.16 with sigma of 0.002
 O3-C4 \\sim C4-O4
 with sigma of 0.02
 O2-C1 \\sim C1-O1
 with sigma of 0.02
3. Uiso/Uaniso restraints and constraints
Uiso(O1) = Uiso(O2) = Uiso(O4) = Uiso(O3)
Uiso(N1) = Uiso(N2)
4.a Rotating group:
 O1W(H1WA,H1WB)
4.b Secondary CH2 refined with riding coordinates:
 C11(H11A,H11B), C9(H9A,H9B), C12(H12A,H12B), C14(H14A,H14B), C10(H10A,H10B),
 C13(H13A,H13B)
4.c Aromatic/amide H refined with riding coordinates:
 C6(H6), C2(H2), C3(H3), C5(H5)
4.d Fitted hexagon refined as free rotating group:
 C6(C1,C2,C3,C4,C5)
;
_shelx_hkl_file
;
   0  -1  -1 4505.49  130.58   2
   0  -1  -1 4113.42  132.41   4
   0   1   1 4131.27  107.42   9
   0   1   1 4429.24  128.80   3
   0   1   1 4111.00  125.93   1
   0   1   1 4168.02  122.33   8
   0  -1   019038.91  243.86   2
   0   2   2 3799.19  170.29   8
   0   2   2 3851.01  173.72   3
   0   2   2 3791.51  172.05   1
   0  -2  -2 4201.23  185.95   2
   0  -2  -2 4261.20  194.90   4
   0   2   1  674.00   56.07   6
   0   2   1  687.78   73.31   3
   0  -2  -1  967.17   64.27   7
   0  -2  -1 1074.70   82.96   5
   0  -2  -1  986.25   82.36   2
   0  -2  -1  971.84   86.27   4
   0   2   1  673.50   74.82   1
   0   2   1  578.41   61.03   8
   0   2   1  644.49   52.11   9
   0  -2   098070.99  818.23   4
   0   2   097869.63  587.77   9
   0  -2   095510.28  741.65   5
   0  -2   097622.69  650.62   7
   0  -2   097881.50  595.16  12
   0   2   097525.19  727.10   8
   0  -2   098219.79  796.67   2
   0   2   099999.00  799.26   3
   0   2   097317.26  832.50   1
   0   2   098648.59  658.86   6
   0   3   3 1085.74  124.61   1
   0   3   3  976.09  110.17   8
   0   3   3 1206.96  128.32   3
   0  -3  -3 1143.57  125.94   4
   0  -3  -3 1252.31  129.49   2
   0  -3  -3 1048.60  111.70   5
   0  -3  -2 2796.01  139.98   7
   0   3   2 2639.08  138.97   9
   0   3   2 3228.50  198.61   1
   0  -3  -2 2840.46  175.93   5
   0   3   2 2990.00  179.98   8
   0  -3  -2 2918.36  178.19   2
   0  -3  -2 3317.82  203.46   4
   0   3   2 3216.95  156.46   6
   0   3   2 3217.82  195.19   3
   0   3   129321.12  414.69   9
   0   3   130470.59  444.05   6
   0   3   130558.14  562.17   3
   0  -3  -129960.40  313.40  10
   0  -3  -128951.46  547.82   2
   0  -3  -128739.93  435.93   7
   0   3   131183.85  588.26   1
   0   3   129823.47  507.26   8
   0  -3  -129319.64  512.01   5
   0  -3  -129049.60  576.33   4
   0  -3  -129826.44  415.16  12
   0  -3   043247.03  668.36   2
   0   3   044372.55  701.03   1
   0  -3   043804.49  549.25   7
   0   3   042069.15  554.14   6
   0   3   043530.42  598.65   8
   0   3   045263.00  485.26   9
   0  -3   045129.89  693.60   4
   0  -3   044959.68  626.38   5
   0  -3   044839.50  401.92  10
   0   3   044636.65  666.77   3
   0   4   3 1758.38  175.51   3
   0   4   3 1714.08  132.61   6
   0   4   3 1367.03  157.13   1
   0  -4  -3 1704.14  168.12   2
   0  -4  -3 1863.78  168.61   5
   0   4   3 1539.37  160.58   8
   0  -4  -3 1935.48  195.29   4
   0  -4  -2  904.13  114.56   5
   0  -4  -2  835.84   92.84   7
   0   4   2  612.37   95.68   8
   0   4   2  684.17  119.21   1
   0   4   2  755.18   87.27   6
   0   4   2  701.92   82.80   9
   0  -4  -2  804.53   88.62  12
   0  -4  -2  711.47  110.93   2
   0   4   2  636.02  105.53   3
   0  -4  -2  740.05  115.74   4
   0   4   1  419.61   89.02   3
   0   4   1  601.38   72.56   9
   0   4   1  568.68   78.06   6
   0  -4  -1  504.79   92.81   2
   0   4   1  490.86   81.98   8
   0   4   1  529.71  103.18   1
   0  -4  -1  657.73   77.82  12
   0  -4  -1  524.33   74.79   7
   0  -4  -1  542.88   95.21   4
   0  -4  -1  465.88   86.60   5
   0  -4   0 3617.56  234.59   4
   0   4   0 3748.44  211.42   8
   0   4   0 3793.89  198.66   6
   0   4   0 4003.16  236.59   3
   0  -4   0 3674.40  138.78  10
   0   4   0 3580.40  239.21   1
   0  -4   0 3699.61  189.82   7
   0   4   0 4079.84  174.15   9
   0  -4   0 3818.13  234.24   2
   0  -4   0 3500.93  207.26   5
   0   5   4   96.00   72.08   8
   0  -5  -4  154.03   79.56   2
   0  -5  -4  164.61   76.76   5
   0   5   4  219.51  100.85   3
   0  -5  -4  251.14  103.61   4
   0   5   4  134.82   85.11   1
   0   5   3  307.68   71.90   6
   0  -5  -3  381.66  109.35   5
   0   5   3  273.13   91.77   1
   0  -5  -3  230.04   85.65   2
   0  -5  -3  280.63   99.03   4
   0   5   3  305.44   94.14   8
   0   5   3  202.91   96.62   3
   0   5   2  252.25   88.47   1
   0  -5  -2  449.71  110.00   4
   0  -5  -2  294.42   90.01   5
   0  -5  -2  364.94  107.29   2
   0   5   2  243.15   86.57   3
   0   5   2  127.79   50.46   6
   0   5   2  230.16   76.93   8
   0  -5  -2  299.50   67.17   7
   0  -5  -1 3865.95  263.77   2
   0   5   1 4253.70  254.23   8
   0   5   1 4290.39  290.98   1
   0  -5  -1 3861.50  211.98   7
   0  -5  -1 3782.63  271.99   4
   0   5   1 4329.18  234.95   6
   0   5   1 4372.97  281.02   3
   0  -5  -1 4150.39  255.30   5
   0  -5   0 8395.39  361.57   5
   0  -5   0 8833.85  331.89   7
   0  -5   0 8573.84  400.59   2
   0   5   0 8489.99  356.62   8
   0   5   0 9260.51  415.93   3
   0   5   0 8486.72  417.86   1
   0  -5   0 8906.96  418.25   4
   0   6   4 2263.63  251.73   3
   0  -6  -4 2214.03  241.29   2
   0   6   4 2115.62  228.49   8
   0  -6  -4 2383.41  240.11   5
   0  -6  -4 2389.13  255.93   4
   0   6   4 2087.49  247.15   1
   0  -6  -3 1038.61  158.62   5
   0  -6  -3 1083.17  177.75   2
   0   6   3  824.74  141.00   8
   0   6   3 1019.92  173.68   3
   0  -6  -3  981.38  175.85   4
   0   6   3  545.44  134.66   1
   0  -6  -2  895.58  217.16   2
   0   6   1 1611.47  223.53   1
   0  -6  -1 2082.94  224.48   4
   0  -6  -1 1870.75  195.02   5
   0   6   1 2139.01  187.40   6
   0  -6  -1 1770.95  163.00   7
   0  -6  -1 1914.11  212.32   2
   0   6   1 2067.56  209.70   8
   0   6   1 1976.25  223.54   3
   0  -6   0 2007.14  180.94   7
   0  -6   0 2265.53  244.82   4
   0   6   0 2076.50  244.00   1
   0   6   0 2055.29  202.25   8
   0  -6   0 2017.25  220.98   2
   0   6   0 2113.91  233.98   3
   0   7   4 1149.21  219.21   1
   0   7   4 1292.40  218.62   3
   0  -7  -4 1536.93  238.79   2
   0  -7  -4 1339.37  225.86   4
   0   7   4 1199.17  187.62   8
   0  -7  -4 1578.76  218.66   5
   0  -7  -3  808.91  168.86   5
   0   7   3  678.30  163.59   3
   0  -7  -3  860.24  186.61   4
   0   7   3  672.12  153.11   8
   0  -7  -3  576.23  156.33   2
   0   7   3  642.22  178.32   1
   0   7   2  400.55  139.09   3
   0   7   2  690.40  148.72   8
   0  -7  -2  610.75  145.52   2
   0   7   2  519.44  163.18   1
   0  -7  -2  392.90  131.64   5
   0  -7  -2  419.21  136.16   4
   0   7   1  795.97  174.18   1
   0  -7  -1  532.12  149.91   2
   0   7   1  627.81  167.78   3
   0  -7  -1  565.02  125.48   5
   0   7   1  575.11  133.30   8
   0  -7  -1  487.29  153.59   4
   0   8   4  319.44  138.65   8
   0  -8  -4  129.65  110.41   2
   0  -8  -4  148.09  116.98   4
   0  -8  -4  150.17  126.64   5
   0   8   4  226.92  167.02   1
   0   8   4  355.84  148.38   3
   0   8   3   57.82  115.58   1
   0  -8  -3 -100.03  132.90   4
   0   8   3  -14.44  101.57   8
   0  -8  -3  -71.65  122.02   2
   0  -8  -3  238.35  124.58   5
   0   8   3  -73.92  117.19   3
   0   8   2   15.80  131.38   1
   0  -8  -2   16.74  117.20   2
   0   8   2  -48.17  105.59   8
   0  -8  -2  169.56  136.07   4
   0   8   2   43.35  113.69   3
   0  -8  -2   44.79   90.62   5
   0  -8  -1  840.27  195.37   4
   0   8   1  856.76  208.85   3
   0  -8  -1  490.27  149.39   2
   0   8   1  920.87  213.20   1
   1  -8  -3  152.41  140.42   4
  -1   8   3  138.51  142.38   3
   1  -8  -3   71.34  117.05   5
  -1   8   3  252.18  159.12   1
  -1   8   3  111.91  112.88   8
   1  -8  -3   66.60  104.04   2
   1  -8  -4   21.10  113.45   5
  -1   8   4  176.72  146.53   1
   1  -8  -4  210.06  140.63   4
  -1   8   4  101.69  116.26   8
  -1   8   4  230.23  130.10   3
   1  -8  -4  311.77  152.03   2
  -1   8   5  743.86  192.73   3
   1  -8  -5  529.08  156.82   5
   1  -8  -5  721.85  220.59   4
   1  -7  -2  931.76  174.66   5
  -1   7   2 1274.52  202.61   3
  -1   7   2 1256.41  228.80   1
  -1   7   2 1246.74  196.04   8
   1  -7  -2 1072.95  189.53   4
   1  -7  -2 1202.21  195.34   2
   1  -7  -3  453.16  143.70   4
   1  -7  -3  519.55  150.95   2
   1  -7  -3  449.78  152.38   5
  -1   7   3  409.40  133.93   3
  -1   7   3  479.28  163.77   1
  -1   7   3  262.96  115.86   8
  -1   7   4  704.29  161.82   8
  -1   7   4  903.96  170.09   3
   1  -7  -4 1006.38  198.98   5
  -1   7   4  737.31  163.03   1
   1  -7  -4  771.75  164.33   4
   1  -7  -4  760.62  173.29   2
   1  -7  -5 1038.71  192.58   5
   1  -7  -5 1184.31  224.71   4
  -1   7   5  862.57  180.47   3
  -1   7   5 1032.42  180.24   8
  -1   6   1 1424.90  204.89   3
  -1   6   1 1424.07  211.83   1
   1  -6  -1 1128.89  176.64   4
   1  -6  -1 1074.30  170.64   5
  -1   6   1 1378.77  187.96   8
   1  -6  -1  958.03  160.06   2
  -1   6   2 2976.82  287.74   1
   1  -6  -2 2943.88  254.89   2
  -1   6   2 2560.59  246.61   3
   1  -6  -2 2521.65  251.43   4
   1  -6  -2 2809.81  247.49   5
  -1   6   2 2861.23  261.14   8
  -1   6   3 1065.71  163.88   3
   1  -6  -3 1217.73  186.63   5
  -1   6   3 1242.50  191.28   1
   1  -6  -3 1425.79  192.37   2
   1  -6  -3 1370.89  191.77   4
  -1   6   3 1230.33  176.20   8
   1  -6  -4 1642.81  210.84   5
   1  -6  -4 1444.36  200.25   2
   1  -6  -4 1457.40  193.38   4
  -1   6   4 1468.67  195.75   3
  -1   6   4 1380.83  190.95   8
  -1   6   4 1465.86  203.44   1
  -1   6   5 3318.75  292.25   3
   1  -6  -5 3065.42  284.62   5
   1  -6  -5 3375.30  318.58   4
  -1   6   5 3373.84  301.62   8
   1  -5  -1  261.94  102.48   4
  -1   5   1  300.50   73.31   9
  -1   5   1  330.08  100.97   8
   1  -5  -1  314.56   93.74   2
   1  -5  -1  316.94  104.01   5
  -1   5   1  323.48   99.28   3
  -1   5   1  354.07  113.84   1
  -1   5   2  873.26  128.46   3
   1  -5  -2 1058.93  150.08   4
  -1   5   2  889.60  145.65   1
   1  -5  -2 1199.65  161.04   5
   1  -5  -2  968.65  139.74   2
   1  -5  -2 1105.18  137.29  12
  -1   5   2 1006.02  126.03   9
  -1   5   2  980.60  144.57   8
   1  -5  -3   80.04  123.15   4
   1  -5  -3  184.31   66.65  12
  -1   5   3  278.43  104.60   8
  -1   5   3  387.02   99.66   9
   1  -5  -3 -158.30  122.97   5
  -1   5   3  362.11  136.21   1
   1  -5  -3   30.10   67.16   2
  -1   5   3  449.13  111.17   3
  -1   5   4 1101.55  145.76   9
  -1   5   4 1010.26  156.60   3
   1  -5  -4  826.61  133.55  12
  -1   5   4  762.84  140.12   1
  -1   5   4  875.46  149.06   8
   1  -5  -4  831.35  149.02   4
   1  -5  -4  798.71  136.03   2
   1  -5  -4  782.92  137.85   5
   1  -5  -5 1859.51  212.46   5
  -1   5   5 2468.81  237.44   3
  -1   5   5 2398.18  238.22   8
   1  -5  -5 2019.41  231.13   4
   1  -4  -1 2012.59  170.25   5
   1  -4  -1 1978.09  169.12   2
  -1   4   1 2265.98  162.81   9
   1  -4  -1 2016.17  125.21   7
   1  -4  -1 2223.10  158.92  12
  -1   4   1 2209.94  178.36   8
   1  -4  -1 2064.49  177.53   4
  -1   4   1 2455.62  189.45   3
  -1   4   1 2524.11  207.67   1
  -1   4   2 2281.16  181.12   3
   1  -4  -2 2363.97  185.56   2
  -1   4   2 2375.82  138.22   6
   1  -4  -2 2831.88  150.13   7
  -1   4   2 2325.75  197.68   1
   1  -4  -2 2715.83  198.84   5
  -1   4   2 2164.11  177.38   8
   1  -4  -2 2816.30  181.73  12
   1  -4  -2 2680.09  200.61   4
  -1   4   2 2459.18  170.59   9
  -1   4   3 1447.90  155.47   8
  -1   4   3 1717.14  147.60   9
   1  -4  -3 1698.34  164.39   5
   1  -4  -3 1600.57  156.46   2
   1  -4  -3 1846.78  173.68   4
   1  -4  -3 2023.24  163.56  12
  -1   4   3 1511.06  153.01   3
  -1   4   3 1640.60  171.21   1
   1  -4  -4 3059.44  219.65   2
  -1   4   4 2769.35  216.90   1
  -1   4   4 3248.97  235.09   3
  -1   4   4 2725.24  203.98   9
  -1   4   4 3122.31  240.29   8
   1  -4  -4 3179.51  234.50   4
   1  -4  -4 3258.66  236.12   5
  -1   4   5 4976.99  291.42   3
   1  -4  -5 5136.45  310.86   5
   1  -3   012371.67  367.60   5
  -1   3   012444.61  390.79   1
  -1   3   011978.78  365.65   8
   1  -3   012409.84  358.63   2
  -1   3   1 3551.83  194.12   8
  -1   3   1 3537.14  189.09   3
   1  -3  -1 3513.95  133.26   7
  -1   3   1 3382.87  201.39   1
  -1   3   1 3676.12  144.59  16
   1  -3  -1 4049.55  215.65   5
   1  -3  -1 3724.85  192.28  12
  -1   3   1 3412.52  178.45   9
   1  -3  -1 3611.24  194.14   2
   1  -3  -1 3332.66  198.07   4
   1  -3  -2 3985.27  192.39  12
  -1   3   2 3191.36  175.78   9
  -1   3   2 3382.96  184.53   3
   1  -3  -2 3215.10  118.82   7
  -1   3   2 3123.73  134.80  16
   1  -3  -2 3739.62  204.69   5
  -1   3   2 3386.14  148.51  15
   1  -3  -2 3500.28  196.23   4
  -1   3   2 3684.13  204.77   1
  -1   3   2 3355.04  193.79   8
   1  -3  -2 3587.60  151.62  14
   1  -3  -2 3729.43  146.51  13
   1  -3  -2 3431.79  188.06   2
  -1   3   2 3489.70  126.40   6
   1  -3  -3 1572.97  138.71   5
   1  -3  -3 1484.08  126.90   2
  -1   3   3 1876.08  150.54   1
  -1   3   3 1658.17  136.87   3
  -1   3   3 2214.15  131.53  15
  -1   3   3 1908.35  161.39   8
  -1   3   3 1807.24  138.23   9
   1  -3  -3 1747.60  144.11   4
  -1   3   3 2037.63   97.63   6
  -1   3   4 4428.92  242.09   9
  -1   3   4 4623.27  162.90   6
  -1   3   4 4624.40  245.35   3
  -1   3   4 4122.77  246.37   8
   1  -3  -4 4637.39  249.98   4
  -1   3   4 4299.48  196.93  15
   1  -3  -4 4214.65  241.12   5
   1  -2   0 2221.51  133.62   5
  -1   2   0 1795.31  120.29   8
  -1   2   1 2464.08  129.12   9
  -1   2   1 2504.01  120.02  15
   1  -2  -1 2130.41  120.17   2
   1  -2  -1 2020.35  102.29  13
  -1   2   1 2628.99  113.60  16
  -1   2   1 2587.08  137.96   8
   1  -2  -1 2187.11   76.52   7
  -1   2   1 2498.99  136.41   1
   1  -2  -1 2411.77  131.11  12
  -1   2   1 2553.06  126.56   3
   1  -2  -1 2086.48  127.56   5
   1  -2  -1 2097.33  118.74   4
   1  -2  -2  471.92   60.27   2
  -1   2   2  280.09   38.65  16
  -1   2   2  286.81   52.79   8
   1  -2  -2  425.66   52.70  14
  -1   2   2  257.22   43.02  15
  -1   2   2  305.40   50.58   3
   1  -2  -2  413.38   63.16   5
  -1   2   2  269.68   47.56   9
   1  -2  -2  503.23   61.49   4
  -1   2   2  230.98   45.46   1
  -1   2   3  459.34   60.85  15
   1  -2  -3  722.19   83.07   4
   1  -2  -3  575.09   71.94   2
  -1   2   3  343.93   60.83   9
  -1   2   3  353.18   57.49   1
  -1   2   3  469.61   62.89   3
   1  -2  -3  650.05   80.43   5
  -1   2   3  328.44   65.32   8
   1  -1  -1 2678.27  117.61  12
  -1   1   1 3337.77  132.31  15
   1  -1  -1 2919.86  117.89  13
  -1   1   1 3541.61  133.68   9
   1  -1  -1 2702.22   94.64   2
  -1   1   1 3403.96  110.62   1
  -1   1   1 3297.32  122.88   8
  -1   1   1 3548.77  130.50  16
   1  -1  -1 2769.03  112.88   5
  -1   1   2  697.95   64.10  16
   1  -1  -2  946.50   78.81  14
   1  -1  -2  894.57   56.85   2
  -1   1   2  683.92   65.98   8
  -1   1   2  717.69   69.78  15
  -1   1   2  847.95   58.49   3
  -1   1   2  770.51   72.51   9
   1  -1  -2  986.45   62.33   4
  -1   1   2  750.42   54.37   1
  -1   1   2  746.74   45.28  10
   1  -1  -2 1038.39   73.97   5
  -1   1   3 9026.44  270.39  15
  -1   1   3 8803.86  260.82   9
  -1   0   152811.18  463.26  16
  -1   0   152268.98  485.15  15
  -1   0   151644.11  417.97  10
  -1   0   152392.55  411.75   9
  -1   0   229040.28  415.35  15
   1   0  -230212.64  419.88  14
   1   0  -229295.27  363.82  11
  -1   0   229709.23  362.67   9
  -1   0   229927.34  396.77  16
   1   1   0 5857.08  162.02   6
   1   1   0 5536.57  145.61   3
  -1  -1   0 6116.46  159.56  10
  -1  -1   0 6022.48  137.65  16
   1   1   0 5753.56  155.87   1
  -1  -1   0 6386.94  159.09   4
  -1  -1   0 6352.52  157.56   2
  -1  -1   0 6124.47  162.50  15
  -1  -1   0 6270.41  166.06   7
   1   1  -1 4892.29  143.82  14
  -1  -1   1 5395.75  149.19   7
  -1  -1   1 5661.91  157.45  10
  -1  -1   1 5341.76  145.18  16
  -1  -1   1 5673.50  136.62   2
   1   1  -1 4767.39  149.66  11
   1   1  -1 4390.45  133.51   6
  -1  -1   1 5743.49  152.62  15
   1   1  -1 4781.95  131.68   1
   1   1  -2 1872.96  111.44  11
  -1  -2  -123653.05  444.43   4
   1   2   124657.11  442.61   1
  -1  -2  -123869.67  403.87   7
   1   2   124185.50  413.95   3
  -1  -2  -123397.64  423.11   2
  -1  -2   060186.18  632.83   2
  -1  -2   059757.59  486.39   5
   1   2   058735.73  495.06   8
   1   2   059035.23  620.69   6
  -1  -2   059184.24  665.54   4
   1   2   058942.39  670.13   3
  -1  -2   061072.18  618.26   7
  -1  -2   060971.71  567.93  10
   1   2   059269.02  669.64   1
   1   2  -1 3438.96  142.82  11
  -1  -2   1 2567.33   97.51  15
   1   2  -1 3083.90  142.44   6
   1   2  -1 3177.86  156.10   1
   1   2  -1 3124.38  104.14   8
  -1  -2   1 2476.06  116.19  10
  -1  -2   1 2517.43  134.29   4
  -1  -2   1 2519.76  127.55   2
   1   2  -1 3244.80  148.57   3
  -1  -2   1 2211.04  118.07   7
   1   2  -2 3611.73  164.37   6
  -1  -2   2 3889.82  167.09  10
  -1  -2   2 3905.51  165.56   7
  -1  -3  -2 4779.89  241.72   2
  -1  -3  -2 5351.26  237.86   7
   1   3   2 5378.47  219.08   6
   1   3   2 5175.81  258.19   1
  -1  -3  -2 4816.03  260.20   4
   1   3   2 5654.43  258.04   3
   1   3   1 5239.51  244.45   3
   1   3   1 4930.66  248.42   1
  -1  -3  -1 4429.65  182.09   5
  -1  -3  -1 4329.34  217.60   2
   1   3   1 4806.09  199.33   8
  -1  -3  -1 4834.22  187.88  10
  -1  -3  -1 4280.85  194.68   7
   1   3   1 5254.86  222.29   6
  -1  -3  -1 4689.85  239.10   4
  -1  -3   032254.89  458.70  10
   1   3   031191.90  595.45   1
  -1  -3   031116.02  548.77   2
   1   3   031413.19  520.74   6
  -1  -3   031336.25  464.63   5
   1   3   032513.06  456.11  11
   1   3   031769.29  575.72   3
   1   3   030770.94  460.03   8
  -1  -3   031420.18  589.07   4
  -1  -3   031688.53  518.40   7
   1   3  -120710.89  430.98   6
  -1  -3   120670.24  378.94   5
  -1  -3   121102.53  379.59  10
   1   3  -120576.42  482.33   1
   1   3  -120726.89  461.41   3
   1   3  -120533.16  356.85   8
  -1  -3   120284.30  456.06   2
  -1  -3   121602.74  485.30   4
   1   3  -120974.25  399.78  11
  -1  -3   120694.74  419.52   7
  -1  -3   121022.39  276.99  15
   1   3  -2 3160.61  180.94   6
  -1  -3   2 2966.39  168.95   7
  -1  -3   2 2951.30  179.77   2
   1   3  -2 3254.17  203.01   1
   1   4   2 3121.08  226.20   1
  -1  -4  -2 2924.65  219.68   2
   1   4   2 3104.95  215.07   3
  -1  -4  -2 2786.37  185.04   5
  -1  -4  -2 2905.19  224.44   4
  -1  -4  -2 2954.11  188.41   7
   1   4   2 3226.51  203.94   8
   1   4   2 2963.33  180.92   6
   1   4   1 5207.40  240.68   8
   1   4   1 5591.03  251.54   6
  -1  -4  -1 5030.98  216.16  10
  -1  -4  -1 4504.85  221.34   5
  -1  -4  -1 4341.28  255.72   2
  -1  -4  -1 4736.69  235.16   7
   1   4   1 5492.10  297.54   1
  -1  -4  -1 4593.26  275.82   4
   1   4   1 5934.26  214.78  11
   1   4   1 5301.72  284.12   3
  -1  -4   019688.30  468.17   7
  -1  -4   019480.79  394.29  10
   1   4   018399.64  525.38   1
   1   4   018317.37  513.16   3
  -1  -4   019446.20  541.83   4
  -1  -4   019520.17  443.65   5
   1   4   019965.65  389.32  11
   1   4   019110.09  433.95   8
  -1  -4   018872.52  498.76   2
   1   4   018477.36  454.14   6
   1   4  -1  101.39   37.96   8
   1   4  -1  136.88   62.38   1
  -1  -4   1   61.15   42.85   5
  -1  -4   1   31.16   29.84  10
  -1  -4   1   90.75   57.03   2
   1   4  -1  167.38   65.66   3
   1   4  -1  144.27   54.53   6
  -1  -4   1  178.41   75.87   4
  -1  -4   1   50.06   37.13   7
   1   5   3  703.79  138.96   3
  -1  -5  -3  968.51  158.41   4
   1   5   3  853.63  126.32   6
  -1  -5  -3  824.96  141.54   2
   1   5   3  774.08  143.82   1
  -1  -5  -3  752.04  123.25   5
   1   5   2  689.94  111.58   8
  -1  -5  -2  423.89   88.92   7
  -1  -5  -2  643.35  121.08   2
  -1  -5  -2  544.90  125.11   4
   1   5   2  721.66  108.92   6
  -1  -5  -2  657.75  105.90   5
   1   5   2  797.25  135.49   3
   1   5   2  568.40  126.24   1
  -1  -5  -1 1858.14  185.69   2
  -1  -5  -1 2021.94  174.00   7
   1   5   1 1934.63  171.17   8
  -1  -5  -1 2093.97  173.80   5
  -1  -5  -1 1775.73  196.73   4
   1   5   1 1987.86  198.30   3
   1   5   1 2302.39  223.99   1
   1   5   1 2209.47  179.98   6
  -1  -5   0 7477.15  314.00   5
   1   5   0 7741.95  379.02   3
  -1  -5   0 8366.14  342.09   7
  -1  -5   0 7784.85  387.58   4
   1   5   0 7796.96  324.78   8
  -1  -5   0 7874.54  367.61   2
   1   5   0 7881.49  395.02   1
   1   5   0 8225.38  342.62   6
  -1  -5   1 6185.03  300.78   7
   1   5  -1 6111.08  312.14   6
   1   5  -1 5991.38  274.40   8
   1   5  -1 6424.67  349.85   3
  -1  -5   1 5716.81  326.69   2
  -1  -5   1 6260.62  357.56   4
   1   5  -1 5977.84  349.29   1
  -1  -6  -3 1853.37  227.80   2
  -1  -6  -3 1903.97  210.69   5
   1   6   3 2038.42  234.73   3
   1   6   3 1988.20  241.48   1
  -1  -6  -3 2235.35  258.65   4
   1   6   3 2220.32  204.62   6
   1   6   2 1828.99  184.16   6
  -1  -6  -2 1263.32  181.39   2
  -1  -6  -2 1502.23  171.66   5
   1   6   2 1190.80  187.89   1
   1   6   2 1675.86  186.73   8
  -1  -6  -2 1199.84  193.60   4
   1   6   2 1645.33  199.23   3
  -1  -6  -2 1372.60  161.74   7
   1   6   1  870.25  136.72   6
   1   6   1  661.23  156.83   1
   1   6   1  750.71  123.37   8
  -1  -6  -1  573.49  135.46   2
   1   6   1  655.83  135.95   3
  -1  -6  -1  693.67  126.93   5
  -1  -6  -1  544.05  140.47   4
  -1  -6  -1  703.23  115.73   7
   1   6   0 7277.84  426.41   1
   1   6   0 8095.70  386.35   6
  -1  -6   0 7013.91  349.74   7
   1   6   0 7287.25  417.88   3
  -1  -6   0 6751.84  334.83   5
  -1  -6   0 6898.09  409.22   4
   1   6   0 7588.13  360.46   8
  -1  -6   0 6635.64  390.79   2
   1   6  -1 1209.05  190.48   1
  -1  -6   1 1338.92  167.45   7
   1   6  -1 1113.87  176.89   3
  -1  -6   1 1114.96  179.31   4
   1   6  -1  984.48  130.45   8
  -1  -6   1 1161.35  174.36   2
  -1  -7  -3 1417.84  219.57   4
   1   7   3 1311.86  219.14   1
  -1  -7  -3 1303.15  214.17   2
   1   7   3 1590.06  216.31   3
  -1  -7  -3 1525.71  221.94   5
  -1  -7  -2  298.01   89.66   7
   1   7   2  516.37  116.88   6
  -1  -7  -2  390.67  122.97   2
   1   7   2  461.99  137.52   3
  -1  -7  -2  399.84  137.31   4
   1   7   2  439.75  145.96   1
   1   7   2  554.59  128.86   8
  -1  -7  -2  526.39  138.26   5
  -1  -7  -1 1399.96  170.89   7
   1   7   1 1204.38  172.93   8
   1   7   1 1547.44  188.63   6
  -1  -7  -1 1242.54  192.83   2
   1   7   1 1969.46  259.49   1
  -1  -7  -1 1380.38  179.07   5
   1   7   1 1472.47  213.75   3
  -1  -7  -1 1475.77  228.39   4
   1   7   0 2018.78  267.17   1
  -1  -7   0 1679.36  231.76   2
   1   7   0 1923.14  248.15   3
   1   7   0 1667.29  200.22   6
  -1  -7   0 1646.35  233.16   4
   1   7   0 1878.17  214.79   8
  -1  -7   0 1564.86  192.77   7
  -1  -8  -3   68.76  146.14   5
   1   8   3  151.92  138.11   3
   1   8   3   86.58  121.79   1
  -1  -8  -3  384.92  146.41   2
  -1  -8  -3  344.59  173.71   4
   1   8   2  -39.33  132.44   3
  -1  -8  -2    9.24  110.40   2
   1   8   2  132.21  108.72   1
  -1  -8  -2   79.08  129.49   4
   1   8   1  622.15  183.28   3
   1   8   1  587.08  196.15   1
  -1  -8  -1  704.07  187.87   2
  -1  -8  -1  659.47  179.63   4
   1   8   0 2395.15  306.26   3
  -1  -8   0 2124.45  296.00   4
   1   8   0 1865.06  300.49   1
  -1  -8   0 1845.23  267.85   2
   2  -7  -3  949.24  182.53   2
  -2   7   3  996.83  217.27   1
   2  -7  -3 1171.70  207.47   5
  -2   7   3 1406.23  228.81   8
  -2   7   4  570.26  165.40   8
   2  -7  -4  461.95  147.39   5
   2  -7  -5 1170.83  223.00   5
  -2   7   5 1253.09  229.83   8
  -2   7   6  124.56  105.01   8
   2  -7  -6  341.36  161.95   5
   2  -6  -2 4384.98  324.67   2
  -2   6   2 4458.20  354.47   1
   2  -6  -2 4521.55  334.43   5
  -2   6   2 5171.49  337.32   9
  -2   6   2 4741.48  359.35   8
  -2   6   3 2857.59  278.25   3
   2  -6  -3 2390.32  250.80   5
   2  -6  -3 2362.95  226.07  12
  -2   6   3 2405.79  260.33   1
   2  -6  -3 2278.19  245.02   2
   2  -6  -3 2137.62  237.49   4
  -2   6   3 2193.91  233.73   9
  -2   6   3 2486.36  270.05   8
  -2   6   4 2289.04  249.80   3
   2  -6  -4 2719.45  268.10   5
   2  -6  -4 2760.44  264.19  12
  -2   6   4 2464.59  260.31   1
  -2   6   4 2651.07  243.71   9
   2  -6  -4 2122.01  235.48   4
  -2   6   4 2375.31  260.64   8
   2  -6  -4 2822.04  283.55   2
   2  -6  -5  961.04  175.43  12
   2  -6  -5  744.51  170.78   5
  -2   6   5  623.79  135.77   9
  -2   6   5  884.64  176.90   8
   2  -6  -6  347.01  106.67  12
   2  -6  -6  642.91  150.52   5
  -2   6   6  523.67  135.01   8
   2  -5  -2 1636.69  170.34  12
   2  -5  -2 1769.96  193.10   5
  -2   5   2 1798.71  190.38   9
  -2   5   2 1795.50  200.27   8
   2  -5  -2 1613.15  178.34   2
  -2   5   2 1900.05  214.68   1
  -2   5   3 1283.81  168.63   3
   2  -5  -3 1363.94  167.08  12
   2  -5  -3  902.06  143.45   2
  -2   5   3 1098.97  165.23   1
   2  -5  -3 1036.43  148.18   4
   2  -5  -3 1217.82  171.09   5
  -2   5   3 1137.07  159.46   9
  -2   5   3 1259.69  172.44   8
  -2   5   4  446.32  104.56   1
   2  -5  -4  304.46  104.46  12
  -2   5   4  442.89  110.36   9
   2  -5  -4  389.11  112.14   2
  -2   5   4  419.96  112.10   3
   2  -5  -4  287.02  105.71   5
  -2   5   4  449.53  117.60   8
   2  -5  -4  388.29  105.26   4
   2  -5  -5  735.82  134.41   4
  -2   5   5 1041.79  173.50   8
   2  -5  -5  700.62  141.88   5
   2  -5  -5  721.34  131.13   2
  -2   5   5 1027.49  167.45   9
   2  -5  -5  922.88  154.37  12
  -2   5   5  922.33  149.64   3
   2  -5  -6  287.07  123.60   5
  -2   5   6  288.12  106.60   8
   2  -4  -1 3524.89  250.77   5
  -2   4   1 3566.20  252.34   1
  -2   4   1 3648.80  238.68   9
  -2   4   1 3822.97  256.19   8
   2  -4  -1 3487.43  235.18   2
  -2   4   1 4040.44  210.88  16
   2  -4  -211854.52  431.90   5
  -2   4   211819.25  409.66   3
  -2   4   211866.82  440.19   1
  -2   4   212563.14  440.76   9
   2  -4  -212436.36  433.50   4
  -2   4   211113.42  432.56   8
   2  -4  -211587.18  402.64   2
   2  -4  -213008.15  452.77  12
   2  -4  -3 4147.27  264.60   5
  -2   4   3 4462.05  269.41   1
  -2   4   3 4753.25  277.06   9
  -2   4   3 4733.24  284.68   8
   2  -4  -3 4530.56  263.04   4
   2  -4  -3 4821.35  277.47  12
  -2   4   3 4739.07  261.78   3
   2  -4  -3 4683.55  268.81   2
   2  -4  -4 1950.39  171.44   2
  -2   4   4 2324.38  185.86   3
   2  -4  -4 2187.45  201.44   5
  -2   4   4 1884.06  172.58   1
  -2   4   4 1833.05  184.01   9
   2  -4  -4 2105.45  188.18   4
  -2   4   4 2379.00  214.06   8
   2  -4  -4 2209.15  197.58  12
  -2   4   5 1864.41  184.38   3
   2  -4  -5 2544.71  234.26   5
  -2   4   5 2356.49  213.87   9
   2  -4  -5 2616.99  215.60   4
  -2   3   1 5280.69  257.63   9
   2  -3  -1 5593.53  242.69   2
  -2   3   1 5469.02  271.06   8
  -2   3   1 5548.02  265.89   1
  -2   3   1 5385.91  239.00  16
   2  -3  -1 5783.79  272.98  12
   2  -3  -1 5456.07  262.98   5
  -2   3   218607.68  480.04   9
  -2   3   218710.56  437.50   3
   2  -3  -218454.47  415.75  13
   2  -3  -219880.95  502.13  12
   2  -3  -218823.58  490.86   5
  -2   3   219078.46  481.76  15
  -2   3   218716.37  460.28   1
   2  -3  -218090.70  441.82   4
  -2   3   217716.78  470.78   8
   2  -3  -220001.71  460.37   2
  -2   3   218846.43  429.15  16
   2  -3  -3 6895.82  288.52  14
  -2   3   3 6065.21  258.88   1
   2  -3  -3 6163.35  293.23   5
  -2   3   3 6780.47  261.97   3
  -2   3   3 6183.16  292.90   9
   2  -3  -3 6430.84  262.14   4
  -2   3   3 6419.61  298.94   8
   2  -3  -3 6533.01  264.58  13
  -2   3   3 6257.05  248.55  16
   2  -3  -3 6356.53  289.69  12
  -2   3   3 6629.66  275.56  15
   2  -3  -3 5798.96  237.08   2
   2  -3  -4 4732.39  226.26   2
  -2   3   4 4832.92  233.67  16
  -2   3   4 5578.44  245.93   3
   2  -3  -4 4666.09  251.38   5
  -2   3   4 5145.31  274.49   9
  -2   3   4 5408.32  287.02   8
   2  -3  -4 4925.66  237.51   4
  -2   3   4 4938.59  244.11   1
   2  -3  -4 4989.90  250.03  14
  -2   3   4 5631.58  277.10  15
   2  -3  -5 4404.29  264.17   5
  -2   3   5 4371.10  274.05   9
  -2   3   5 4233.16  228.91   3
  -2   3   5 4721.24  278.00   8
   2  -3  -5 3860.38  223.41   4
  -2   3   5 4568.78  255.62  15
   2  -2  -1  950.09  106.59  12
  -2   2   1 1279.78  107.69   1
  -2   2   1 1078.19  108.77   9
   2  -2  -1  727.79   87.07   5
   2  -2  -1  798.37   73.31   2
  -2   2   1 1273.43  116.34   8
  -2   2   1 1276.06  108.92  16
   2  -2  -212696.27  346.98  13
   2  -2  -213057.92  366.59  12
  -2   2   212612.63  358.39  15
   2  -2  -212991.87  356.22   5
  -2   2   212499.40  295.97   3
  -2   2   211438.38  345.17   9
  -2   2   212082.17  336.61  16
   2  -2  -212562.22  308.11   4
  -2   2   212678.72  343.28   8
   2  -2  -212577.80  290.03   2
  -2   2   212177.13  292.73   1
   2  -2  -3 2215.43  165.37  14
   2  -2  -3 2324.99  124.51   2
  -2   2   3 2635.92  131.93   3
   2  -2  -3 2357.76  112.09  11
  -2   2   3 2401.30  103.73  10
  -2   2   3 2188.72  124.92   1
   2  -2  -3 2559.38  162.09   5
  -2   2   3 2327.43  170.26   9
  -2   2   3 2692.68  168.74   8
   2  -2  -3 2456.43  130.93   4
  -2   2   3 2480.15  154.28  16
  -2   2   3 2609.63  171.48  15
   2  -2  -4  314.70   63.75   5
  -2   2   4  354.14   66.73  16
  -2   2   4  416.37   82.08   8
  -2   2   4  488.50   55.84  10
   2  -2  -4  329.95   75.62  14
  -2   2   4  429.92   89.36   9
  -2   2   4  592.60   72.79   3
  -2   2   4  477.61   84.22  15
   2  -2  -4  305.41   58.28   4
  -2   2   5 5324.59  277.01  15
  -2   2   5 5359.16  195.28  10
  -2   2   5 5780.56  229.25   3
   2  -2  -5 4993.78  260.36   5
  -2   2   5 4963.11  280.15   9
   2  -2  -5 5904.92  258.76   4
  -2   1   112920.74  347.98  15
  -2   1   111820.25  321.46   9
   2  -1  -112383.58  334.27  12
  -2   1   112186.92  283.75   8
  -2   1   112294.43  319.78  16
   2  -1  -111665.12  330.15  13
  -2   1   227318.51  490.61  16
  -2   1   227137.92  513.42  15
   2  -1  -225937.15  417.19   5
  -2   1   226245.13  389.38  10
  -2   1   227029.18  477.80   9
  -2   1   226325.89  419.50   8
   2  -1  -224604.12  466.59  12
   2  -1  -3 5902.29  257.73  14
  -2   1   3 6806.42  206.08  10
  -2   1   3 6068.54  253.20  16
   2  -1  -3 6635.96  219.31   5
  -2   1   3 6268.27  248.81   9
  -2   1   3 6018.02  220.23   8
   2  -1  -3 6194.36  195.60  11
  -2   1   3 7094.88  274.56  15
  -2   1   414115.40  323.29  10
   2  -1  -412266.30  409.74  14
  -2   1   413399.77  263.41   3
   2  -1  -414076.97  331.76   5
  -2   1   413470.14  386.97   9
   2  -1  -413124.92  274.83   4
  -2   1   412231.94  407.06  15
  -2   1   413788.53  396.12  16
  -2   0   1 4460.40  182.44  16
   2   0  -1 4996.98  178.85  12
   2   0  -1 4999.36  202.14  13
  -2   0   1 4397.02  158.70   9
  -2   0   1 4828.94  132.64   8
  -2   0   1 4276.91  172.02  10
  -2   0   1 4246.02  188.05  15
   2   0  -227286.08  319.92   6
  -2   0   225378.42  485.74  15
  -2   0   224629.56  453.98  16
  -2   0   225336.88  414.74  10
   2   0  -227244.53  313.07   5
  -2   0   225896.03  411.92   9
  -2   0   226831.63  313.00   8
  -2   0   225326.91  302.79   7
   2   0  -316610.23  420.22  14
   2   0  -315565.43  342.30  11
  -2   0   315975.24  341.25  10
   2   0  -316600.93  272.97   5
  -2   0   317854.74  372.19   9
  -2   0   316501.41  394.29  16
  -2   0   317249.76  257.16   7
  -2   0   316398.97  411.50  15
  -2   0   412868.06  400.50  15
  -2   0   411734.17  321.62  10
   2   0  -411930.81  374.65  14
  -2   0   412624.01  376.72  16
  -2  -1   0 9408.23  276.17  10
  -2  -1   0 9147.41  266.60  16
   2   1  -1 6784.71  216.67   6
   2   1  -1 7191.66  172.09   3
  -2  -1   1 7457.50  242.95  10
  -2  -1   1 7196.70  175.22   9
  -2  -1   1 7424.35  233.38  16
  -2  -1   1 7572.87  179.05   4
   2   1  -1 7662.85  245.62  13
  -2  -1   1 8420.25  226.47   7
   2   1  -1 7037.26  186.24  12
  -2  -1   1 7704.61  251.15  15
   2   1  -211965.00  207.24   1
  -2  -1   211642.08  323.47  15
   2   1  -210373.59  296.53  11
  -2  -1   211897.64  309.12  16
  -2  -1   211190.64  304.74  10
  -2  -1   210826.42  234.59   9
  -2  -1   212070.18  197.04   2
   2   1  -210340.61  259.63   6
  -2  -1   212267.11  269.81   7
   2   1  -3 8438.67  305.73  14
   2   1  -3 9245.40  286.74  11
  -2  -1   3 9196.63  274.09  10
   2   1  -3 9423.05  261.14   6
  -2  -1   3 9536.51  243.24   7
  -2  -1   3 9385.99  293.07  16
  -2  -1   3 9685.22  306.95  15
  -2  -2   0  190.95   47.50   7
  -2  -2   0  213.52   46.85   4
  -2  -2   0  224.36   43.63  16
  -2  -2   0  266.11   81.34  10
   2   2   0  146.87   47.61   6
  -2  -2   0  277.85   51.24   2
   2   2   0  143.53   41.78   3
   2   2   0  118.67   39.76   1
   2   2  -1 1250.06  100.00  13
  -2  -2   1 1626.45  113.94  15
  -2  -2   1 1591.43  115.38   7
   2   2  -1 1320.22   99.72   3
   2   2  -1 1457.48  109.34   1
  -2  -2   1 1723.30  108.91   2
  -2  -2   1 1656.54  123.07  10
  -2  -2   1 1533.11  109.49   4
   2   2  -1 1365.44  112.24   6
  -2  -2   1 1614.39  106.73  16
   2   2  -2 4967.20  206.21   6
   2   2  -2 5403.50  216.68  14
   2   2  -2 5083.78  222.23  11
  -2  -2   2 5198.01  213.74  10
  -2  -2   2 5218.14  198.63   4
  -2  -2   2 5537.89  189.80   2
   2   2  -2 5276.98  195.55   1
  -2  -2   2 5348.25  207.37  16
  -2  -2   2 5580.03  209.69   7
  -2  -2   2 5410.84  212.20  15
   2   2  -2 4524.67  182.59   3
  -2  -2   3 5671.59  230.36   7
   2   2  -3 5372.05  231.90   6
   2   2  -3 5602.83  249.01  11
  -2  -2   3 5615.04  238.14  10
  -2  -2   3 5511.12  200.85   2
   2   2  -3 6123.03  227.30   1
  -2  -2   3 5660.02  237.42  15
  -2  -3  -1 3207.79  211.88   4
  -2  -3  -1 3003.63  191.23   2
   2   3   1 2989.58  184.47   3
   2   3   1 2948.86  181.41   6
  -2  -3  -1 2876.81  134.57  16
   2   3   1 3251.22  220.41   1
  -2  -3  -1 3102.28  195.28   7
   2   3   0 1656.44  146.07   3
   2   3   0 1751.85  141.63   6
  -2  -3   0 1715.52  137.60  10
   2   3   0 1572.87  140.02   1
  -2  -3   0 1571.49   94.64   5
  -2  -3   0 1590.57  133.65   7
  -2  -3   0 1660.75  148.22   4
  -2  -3   0 1781.24  102.00  16
  -2  -3   0 1632.12  134.94   2
   2   3  -1 2318.40  131.34  14
   2   3  -1 2227.30  156.50   3
   2   3  -1 2521.84  170.55  11
  -2  -3   1 2282.26  104.01   5
  -2  -3   1 2315.52  153.76  10
   2   3  -1 2227.19  124.42  13
  -2  -3   1 2527.03  171.41   4
   2   3  -1 2355.77  108.38   8
  -2  -3   1 2506.24  129.93  16
  -2  -3   1 2369.67  152.18   2
   2   3  -1 2519.23  171.03   6
  -2  -3   1 2272.15  154.14   7
   2   3  -1 2448.99  169.78   1
  -2  -3   1 2647.74  141.62  15
   2   3  -2 4455.76  226.60   6
   2   3  -2 4520.36  222.31  11
  -2  -3   2 4887.00  225.81  10
   2   3  -2 4419.51  224.36   3
  -2  -3   2 4589.13  216.33   7
  -2  -3   2 4414.49  229.55   4
   2   3  -2 4299.65  133.97   8
  -2  -3   2 4289.54  206.33   2
   2   3  -2 4683.41  231.12   1
  -2  -3   2 4736.74  194.77  15
   2   3  -3 5378.85  265.73   6
  -2  -3   3 5381.21  255.81  10
  -2  -3   3 5767.23  263.80   7
  -2  -3   3 5406.09  243.13   2
   2   3  -3 5554.00  262.51   1
   2   3  -3 5869.63  286.75  11
  -2  -3   3 5921.16  251.83  15
   2   4   1 6875.47  291.89   6
  -2  -4  -1 6610.76  318.59   2
   2   4   1 7545.66  330.02   3
  -2  -4  -1 6635.77  250.33   5
   2   4   1 6961.19  336.40   1
  -2  -4  -1 6286.67  321.76   4
  -2  -4  -1 6748.91  306.22   7
  -2  -4   0 4855.77  255.14   7
   2   4   0 4538.61  250.29   6
   2   4   0 4686.90  272.40   3
   2   4   0 4611.81  237.14  11
   2   4   0 4218.40  265.50   1
  -2  -4   0 5136.01  242.99  10
  -2  -4   0 5272.94  213.26   5
   2   4   0 4226.76  196.74   8
  -2  -4   0 5092.13  283.16   4
  -2  -4   0 4781.12  262.12   2
   2   4  -1 2732.74  207.20   1
   2   4  -1 2460.31  189.62   6
   2   4  -1 2696.11  200.94   3
   2   4  -1 2700.29  182.93  11
  -2  -4   1 2658.34  144.79   5
  -2  -4   1 2711.99  177.58  10
  -2  -4   1 2829.37  207.14   4
   2   4  -1 2650.10  140.37   8
  -2  -4   1 2537.84  185.16   2
  -2  -4   1 2705.93  189.23   7
   2   4  -2 6058.83  306.80   3
   2   4  -2 6435.87  302.41   6
   2   4  -2 5821.32  279.95  11
  -2  -4   2 6619.85  289.98  10
  -2  -4   2 6306.76  322.16   4
  -2  -4   2 6171.49  297.44   2
   2   4  -2 6243.93  315.55   1
  -2  -4   2 6241.11  288.08   7
   2   4  -3 4359.85  266.01   6
  -2  -4   3 4008.63  235.98  10
  -2  -4   3 4655.70  267.96   2
   2   4  -3 4520.32  273.96   1
  -2  -4   3 4146.10  249.71   7
  -2  -5  -2  510.57  144.66   4
  -2  -5  -2  609.10  124.61   7
   2   5   2  326.62   97.34   6
   2   5   2  457.81  127.06   1
  -2  -5  -2  519.89  119.19   2
   2   5   2  309.30   90.51   3
  -2  -5  -2  499.78  109.46   5
  -2  -5  -1  538.13  122.60   4
  -2  -5  -1  514.40  103.18   7
   2   5   1  672.26  110.19   6
   2   5   1  573.20  132.93   1
   2   5   1  540.79   92.89  11
  -2  -5  -1  546.13  115.66   2
   2   5   1  627.56  119.08   3
  -2  -5  -1  541.97   96.92   5
  -2  -5   0  272.48   81.38   7
  -2  -5   0  483.70  108.97   2
  -2  -5   0  403.60  111.27   4
   2   5   0  275.80   94.01   6
   2   5   0  320.94   92.30  11
   2   5   0  253.37   98.25   1
  -2  -5   0  311.54   75.32  10
   2   5   0  144.03   92.08   3
   2   5  -1  274.52   97.69   1
  -2  -5   1  444.27   98.16   2
   2   5  -1  372.12   98.70   6
   2   5  -1  452.38   96.89  11
  -2  -5   1  523.43  118.35   4
  -2  -5   1  396.55   89.19  10
   2   5  -1  489.18  116.33   3
  -2  -5   1  528.91  104.68   7
  -2  -5   2  655.80  119.67   2
   2   5  -2  853.28  142.97   6
   2   5  -2  588.47  121.29   3
  -2  -5   2  844.31  127.12  10
   2   5  -2  645.69  134.31   1
  -2  -5   2  610.45  119.90   4
  -2  -5   2  876.65  128.45   7
  -2  -6  -2 1523.08  230.68   4
  -2  -6  -2 1727.54  219.81   2
   2   6   2 1829.13  195.37   6
  -2  -6  -2 1927.16  217.19   7
   2   6   2 1437.95  186.83   3
   2   6   2 2093.38  247.18   1
   2   6   1 3754.50  268.31   6
   2   6   1 3569.59  280.74   3
  -2  -6  -1 3490.14  262.74   7
   2   6   1 3646.23  304.63   1
  -2  -6  -1 3527.83  297.66   4
  -2  -6  -1 3415.85  280.85   2
   2   6   0 3571.58  267.61   6
  -2  -6   0 3925.35  294.86   2
   2   6   0 3682.54  303.10   3
  -2  -6   0 3819.45  276.87   7
  -2  -6   0 4121.88  320.74   4
   2   6   0 3321.36  295.60   1
   2   6  -1 1184.88  175.92   1
  -2  -6   1 1155.84  168.56   2
   2   6  -1 1139.21  168.93   6
   2   6  -1 1064.32  170.60   3
  -2  -6   1 1174.64  162.31   7
  -2  -6   1 1081.90  176.04   4
   2   6  -2 1723.80  207.05   6
   2   6  -2 1683.63  220.31   1
  -2  -6   2 1867.13  240.10   4
  -2  -6   2 1646.31  202.16   2
  -2  -6   2 1684.43  192.83   7
   2   6  -2 1659.40  215.10   3
  -2  -7  -2 1204.18  197.07   7
   2   7   2  734.45  174.08   1
   2   7   2  913.51  153.00   6
  -2  -7  -2  916.35  175.42   2
   2   7   2  918.41  174.30   3
  -2  -7  -2 1092.04  218.52   4
  -2  -7  -1  356.34  120.77   7
  -2  -7  -1  452.27  142.33   2
   2   7   1  396.89  125.59   1
   2   7   1  457.00  129.31   3
   2   7   1  528.26  129.36   6
  -2  -7  -1  217.32  111.55   4
   2   7   0  959.95  172.77   6
  -2  -7   0  754.27  154.00   2
   2   7   0 1109.52  196.95   3
   2   7   0  800.47  190.54   1
  -2  -7   0  962.61  158.81   7
  -2  -7   0  844.82  175.47   4
  -2  -7   1  925.75  160.73   7
   2   7  -1  892.86  189.89   1
  -2  -7   1  961.43  187.46   4
  -2  -7   1 1076.05  181.81   2
   2   7  -1  766.11  161.60   6
   2   7  -1 1081.10  196.69   3
  -2  -8  -2  406.93  175.81   4
   2   8   2   99.33   94.27   6
   2   8   2    1.33  126.98   1
   2   8   2 -104.47  117.73   3
  -2  -8  -2  302.16  150.57   2
  -2  -8  -1  241.77  112.32   7
   2   8   1  714.07  177.13   6
   2   8   1  650.15  190.22   1
  -2  -8  -1  186.91  134.27   4
   2   8   1  554.03  159.38   3
  -2  -8  -1  384.20  154.72   2
  -2  -8   0  999.32  187.00   7
  -2  -8   0 1067.25  232.55   4
  -2  -8   0 1000.81  210.49   2
   2   8   0  864.88  202.85   3
   2   8   0 1012.12  196.12   6
   2   8   0  630.26  174.78   1
   3  -7  -4   12.17  127.24   5
  -3   7   4  344.64  169.29   8
   3  -7  -5  355.52  156.40   5
  -3   7   5  167.45  123.17   9
  -3   7   5  180.82  149.35   8
   3  -7  -5  191.99  126.95  12
   3  -7  -6  842.75  192.29  12
  -3   7   6  926.84  225.22   9
  -3   6   3 1369.65  217.04   8
   3  -6  -4  280.24  128.24  12
   3  -6  -4  424.48  135.69   5
  -3   6   4  378.90  137.90   9
  -3   6   4  590.71  150.98   8
  -3   6   5  427.79  136.68   8
   3  -6  -5  527.41  157.69  12
   3  -6  -5  305.40  120.78   5
  -3   6   5  471.23  160.93   9
   3  -6  -6  928.72  190.99  12
   3  -6  -6  943.88  200.71   5
  -3   6   6  688.61  164.77   9
  -3   6   6  874.88  189.71   8
   3  -5  -3  749.19  141.81  12
   3  -5  -3  618.01  142.31   5
  -3   5   3  704.06  151.24   9
  -3   5   3  721.85  149.68   8
   3  -5  -4  253.53  115.25  12
   3  -5  -4  337.38  113.75   5
  -3   5   4  402.03  140.39   9
  -3   5   4  363.86  120.33   8
   3  -5  -5 1370.65  194.10  12
  -3   5   5 1154.96  180.67   8
   3  -5  -5 1175.80  180.18   5
  -3   5   5 1205.30  190.66   9
   3  -5  -6 2301.82  257.24  12
   3  -5  -6 1819.65  226.75   5
  -3   5   6 2036.51  246.54   9
  -3   5   6 1649.62  222.76   8
  -3   4   2 3936.81  256.20  16
   3  -4  -2 3604.01  255.25  12
  -3   4   2 3567.07  278.43   9
  -3   4   2 3596.38  265.04   8
   3  -4  -3 1059.36  160.20  12
   3  -4  -3  914.99  143.47   5
  -3   4   3 1045.36  157.24   9
  -3   4   3 1015.76  147.06   8
  -3   4   3  932.88  133.12  16
   3  -4  -4 1144.91  167.99  12
  -3   4   4 1468.44  183.54   9
   3  -4  -4  955.51  147.34   5
  -3   4   4 1248.46  171.03   8
  -3   4   4 1197.35  149.58  15
   3  -4  -5  706.72  134.90  12
   3  -4  -5  528.53  124.33   5
  -3   4   5  330.89  111.27   9
  -3   4   5  394.65  111.33   8
   3  -4  -6 1308.21  187.88  12
  -3   4   6  978.82  158.96   8
   3  -4  -6 1005.40  159.37   5
  -3   4   6  855.89  159.62   9
   3  -3  -2 5823.59  319.08  12
   3  -3  -2 5809.11  301.98   5
  -3   3   2 4967.29  290.52   9
  -3   3   2 5281.01  289.69   8
  -3   3   2 5361.79  296.96  16
   3  -3  -3 6070.78  306.23  13
   3  -3  -3 6506.64  334.24  12
  -3   3   3 5839.53  310.83  15
   3  -3  -3 5785.21  300.77   5
  -3   3   3 5880.84  318.95   9
  -3   3   3 6047.17  305.70   8
  -3   3   3 5828.62  299.57  16
   3  -3  -4 2778.48  232.13  14
   3  -3  -4 2691.13  221.32  13
   3  -3  -4 3126.31  236.87   5
  -3   3   4 2451.09  219.84   9
  -3   3   4 2400.89  202.36   8
   3  -3  -4 2897.14  232.31  12
  -3   3   4 2490.72  215.46  15
  -3   3   4 2282.07  193.76  16
   3  -3  -5 3980.92  273.45  12
   3  -3  -5 4278.24  276.13   5
  -3   3   5 3827.97  278.67   9
  -3   3   5 4107.29  266.73   8
  -3   3   5 3628.47  253.12  16
   3  -3  -5 4284.47  292.13  14
  -3   3   5 4291.85  280.59  15
   3  -3  -6 2682.68  229.40   5
  -3   3   6 2004.47  217.92   9
  -3   3   6 1927.54  192.13   8
  -3   3   6 2416.51  223.52  15
   3  -2  -2 3743.08  229.45  13
   3  -2  -2 4043.13  256.53  12
  -3   2   2 4186.04  246.91  16
  -3   2   2 3558.99  230.63   9
  -3   2   2 3693.03  209.25   8
  -3   2   2 4351.47  263.18  15
   3  -2  -3 2438.54  199.32  13
   3  -2  -3 2019.34  182.03  12
   3  -2  -3 2057.67  136.20  11
   3  -2  -3 2187.77  166.80   5
  -3   2   3 1875.54  116.09  10
  -3   2   3 2186.66  184.67   9
  -3   2   3 2440.13  170.36   8
  -3   2   3 2011.97  175.40  16
  -3   2   3 2186.30  193.51  15
   3  -2  -4 3256.41  246.48  14
   3  -2  -4 3020.75  222.01  12
   3  -2  -4 2995.38  198.32   5
  -3   2   4 2998.71  225.72   9
  -3   2   4 2945.87  195.22   8
  -3   2   4 2845.04  213.43  16
  -3   2   4 2918.70  224.47  15
   3  -2  -5  434.69  103.84  14
  -3   2   5  477.63  104.41  16
   3  -2  -5  607.55  111.68   5
  -3   2   5  411.00  100.68   9
  -3   2   5  390.29   82.72   8
  -3   2   5  514.76  114.70  15
   3  -2  -6 1663.53  164.44   5
  -3   2   6 1310.79  174.67   9
  -3   2   6 1163.27  167.17  15
   3  -1  -214482.56  446.51  13
   3  -1  -217841.82  465.98  12
   3  -1  -215026.41  258.88   6
  -3   1   216431.74  388.65  10
  -3   1   216696.78  435.09   9
  -3   1   217589.56  380.29   8
  -3   1   217600.24  475.45  16
  -3   1   216483.73  484.03  15
   3  -1  -3 9807.46  382.81  13
   3  -1  -310374.90  358.46  12
   3  -1  -3 9353.27  308.20  11
   3  -1  -310179.62  301.32   5
  -3   1   310209.85  308.68  10
  -3   1   3 9598.66  363.52   9
  -3   1   3 9836.96  293.94   8
  -3   1   310167.71  370.76  16
  -3   1   3 9740.23  385.58  15
   3  -1  -4  779.64  125.60  14
  -3   1   4  695.20  117.20  15
   3  -1  -4  697.97   91.57  11
   3  -1  -4  854.69   95.01   5
  -3   1   4  632.78   83.50  10
  -3   1   4  690.24  106.78   9
  -3   1   4  718.08   93.57   8
  -3   1   4  615.37  109.11  16
   3  -1  -5 1207.52  159.71  14
  -3   1   5  916.65  149.12  15
  -3   1   5 1080.74  117.66  10
   3  -1  -5 1375.37  124.77   5
  -3   1   5  963.76  126.53   9
  -3   1   5  917.58  133.23  16
   3   0  -117888.53  465.06  13
  -3   0   116195.53  391.56   9
  -3   0   116312.21  448.20  16
  -3   0   115654.64  468.53  15
   3   0  -233595.13  653.21  13
   3   0  -231408.31  551.92  12
   3   0  -235146.05  458.76   6
  -3   0   231114.75  561.90  10
  -3   0   231644.86  533.01   9
  -3   0   234038.97  404.20   8
  -3   0   229558.31  593.23  16
  -3   0   231020.85  644.85  15
   3   0  -320676.28  343.72   6
   3   0  -320014.81  446.47  12
   3   0  -320483.24  480.14  11
  -3   0   320782.62  515.33  16
   3   0  -320859.92  340.64   5
  -3   0   318990.35  441.50  10
  -3   0   321079.51  464.90   9
  -3   0   320719.60  338.99   8
  -3   0   318502.08  516.48  15
  -3   0   319375.21  324.27   7
   3   0  -414706.58  477.55  14
   3   0  -413566.80  396.68  11
  -3   0   413871.77  404.44  10
   3   0  -414617.17  301.18   5
  -3   0   413796.88  280.53   7
  -3   0   413534.51  392.29   9
  -3   0   413703.13  441.41  16
  -3   0   413663.18  465.36  15
  -3   0   5 7445.02  348.90  16
  -3   0   5 7984.74  322.93  10
   3   0  -5 7830.62  247.77   5
  -3   0   5 8072.25  335.66   9
   3   0  -5 8280.85  378.42  14
  -3   0   5 7712.70  371.09  15
  -3  -1   1 5571.19  179.71   4
   3   1  -1 6114.79  272.51  13
   3   1  -1 5552.47  227.99   6
   3   1  -1 5676.85  172.38   3
  -3  -1   1 5589.63  256.09  10
  -3  -1   1 5634.42  280.19  15
  -3  -1   1 5521.89  201.92   9
  -3  -1   1 5442.12  261.32  16
   3   1  -220318.72  287.05   3
   3   1  -222631.39  432.94  12
   3   1  -222448.89  426.47   6
  -3  -1   222473.69  504.22  10
  -3  -1   223196.27  420.24   9
  -3  -1   222345.46  506.29  16
  -3  -1   223106.61  549.57  15
  -3  -1   223347.82  427.50   7
   3   1  -222614.22  529.97  13
  -3  -1   3 7996.99  251.95   7
   3   1  -3 7537.50  339.32  14
   3   1  -3 7934.35  264.23   6
  -3  -1   3 7955.57  314.99  16
   3   1  -3 7761.52  257.46  12
   3   1  -3 7970.43  313.38  11
  -3  -1   3 8438.61  316.29  10
  -3  -1   3 7738.44  256.33   9
  -3  -1   3 7940.20  331.79  15
   3   1  -4 2278.23  196.79  14
  -3  -1   4 2651.35  149.00   7
  -3  -1   4 2557.09  190.60  16
   3   1  -4 2217.72  175.74  11
  -3  -1   4 2381.73  175.73  10
  -3  -1   4 2838.15  172.95   9
  -3  -1   4 2398.05  193.33  15
   3   1  -5 1307.53  156.19  14
  -3  -1   5 1142.26  135.35  10
  -3  -1   5 1123.08  106.24   7
  -3  -1   5  956.68  131.90  16
  -3  -1   5 1063.57  150.22  15
   3   2   0 2995.02  181.33   6
  -3  -2   0 3094.39  198.01  10
  -3  -2   0 3317.04  192.83  16
   3   2  -1 1170.89  121.36  13
  -3  -2   1  798.24  103.53  15
   3   2  -1 1205.69  104.31   3
  -3  -2   1  816.33  107.19  10
  -3  -2   1  811.93   65.62   9
   3   2  -1 1110.24  117.59   6
  -3  -2   1  827.27   89.17   4
  -3  -2   1  769.30  102.09  16
  -3  -2   1  883.82  104.40   7
  -3  -2   210141.43  263.66   2
   3   2  -2 9195.21  330.43  13
   3   2  -2 9380.42  240.25  12
   3   2  -2 9768.67  271.05   3
   3   2  -2 9314.73  308.07   6
  -3  -2   2 9980.51  350.42  10
  -3  -2   2 9782.53  234.18   9
   3   2  -2 9649.61  259.31   1
  -3  -2   2 9432.63  265.40   4
  -3  -2   2 9280.18  319.73  16
  -3  -2   2 9539.39  321.69   7
  -3  -2   2 9597.21  345.57  15
  -3  -2   3 5530.32  237.41   7
   3   2  -3 5281.35  279.45  14
   3   2  -3 5093.91  239.34   6
   3   2  -3 5049.08  181.24  12
   3   2  -3 5209.18  265.65  11
  -3  -2   3 5335.13  264.86  10
  -3  -2   3 5283.36  259.30  16
  -3  -2   3 5042.22  257.81  15
   3   2  -4 2131.15  187.09  14
  -3  -2   4 1867.17  146.58   7
   3   2  -4 2008.76  163.59   6
   3   2  -4 1977.61  178.28  11
  -3  -2   4 1726.96  166.75  15
  -3  -2   4 1917.23  171.59  10
  -3  -2   4 2051.42  175.55  16
  -3  -3   0 3637.73  224.03   7
   3   3   0 3787.44  236.51   6
   3   3   0 4066.51  226.88   3
  -3  -3   0 3496.59  192.41  16
  -3  -3   0 3731.65  231.48  10
  -3  -3   0 3448.01  217.99   4
  -3  -3   1 5437.40  245.90   2
   3   3  -1 6407.27  263.57  13
   3   3  -1 6532.71  303.22   6
   3   3  -1 5939.30  260.98   3
  -3  -3   1 5633.25  283.47  10
  -3  -3   1 5184.57  254.52  15
   3   3  -1 5786.16  260.82   1
  -3  -3   1 5856.02  266.78   4
  -3  -3   1 5424.30  236.98  16
  -3  -3   1 5397.95  263.14   7
   3   3  -2 9898.98  355.86  14
   3   3  -2 8610.62  315.59  13
   3   3  -2 9703.30  327.52   3
   3   3  -2 9662.39  352.64   6
   3   3  -210268.54  392.58  11
   3   3  -2 9576.91  334.12   1
  -3  -3   2 8242.42  330.33  10
  -3  -3   2 9364.63  335.27  15
  -3  -3   2 9626.57  325.18  16
  -3  -3   2 9119.09  320.98   4
  -3  -3   2 8265.65  319.10   7
  -3  -3   2 9065.74  304.14   2
   3   3  -3 4677.45  226.88   1
   3   3  -3 4640.21  257.28  14
  -3  -3   3 4618.33  249.63  15
   3   3  -3 4697.37  262.87   6
  -3  -3   3 4914.74  251.41  16
   3   3  -3 4805.98  272.56  11
  -3  -3   3 4648.31  260.03  10
  -3  -3   3 4793.31  216.51   2
  -3  -3   3 4608.50  238.54   7
   3   3  -4 9820.09  386.00   6
   3   3  -4 9838.09  410.22  11
  -3  -3   4 9344.17  398.76  10
  -3  -3   4 9998.16  378.13   7
  -3  -3   4 9820.28  394.14  15
  -3  -4   0 3961.95  253.32   2
   3   4   0 3382.47  235.50   6
   3   4   0 3800.56  254.61   3
  -3  -4   0 3739.26  243.77  10
  -3  -4   0 3852.49  262.54   4
   3   4   0 3521.54  255.66   1
  -3  -4   0 3548.99  244.42   7
   3   4  -1 3324.09  239.83   6
   3   4  -1 3192.15  226.54   3
   3   4  -1 3772.82  253.89  11
  -3  -4   1 3688.73  239.22  10
   3   4  -1 3157.77  227.87   1
  -3  -4   1 3485.06  242.29   4
  -3  -4   1 3431.96  234.01   7
  -3  -4   1 3496.97  228.81   2
   3   4  -2 6944.23  316.85   3
   3   4  -2 7092.80  338.86   6
   3   4  -2 7344.72  335.97   1
   3   4  -2 7438.57  345.26  11
  -3  -4   2 6868.16  319.39  10
  -3  -4   2 7120.06  327.94   4
  -3  -4   2 6789.76  303.87   2
  -3  -4   2 6711.84  311.84   7
   3   4  -3 5644.51  314.14   6
   3   4  -3 6430.35  333.68  11
  -3  -4   3 6226.43  324.12  10
  -3  -4   3 6058.70  292.08   2
  -3  -4   3 5928.15  306.98   7
   3   4  -3 6135.09  309.52   1
  -3  -4   4 4310.65  287.47  10
  -3  -4   4 4443.61  267.02   2
   3   4  -4 4804.54  292.88   1
  -3  -4   4 4255.39  277.96   7
  -3  -4   4 4285.26  267.71  15
  -3  -5  -1  596.05  148.26   4
  -3  -5  -1  526.76  112.46   7
   3   5   1  758.90  135.55   6
   3   5   1  710.47  131.56   3
  -3  -5   0  358.39  107.25   4
  -3  -5   0  364.84  100.58   7
   3   5   0  574.80  118.37   6
   3   5   0  508.51  108.23  11
  -3  -5   0  342.45   97.73  10
  -3  -5   0  158.33   73.26   2
   3   5   0  509.97  121.15   3
   3   5   0  459.58  120.75   1
   3   5  -1 1353.26  172.73   6
   3   5  -1 1238.69  150.60  11
  -3  -5   1  958.45  140.44   2
  -3  -5   1  863.25  139.43  10
   3   5  -1 1272.47  166.05   3
   3   5  -1 1124.00  157.01   1
  -3  -5   1 1067.54  149.09   7
  -3  -5   1  983.08  156.51   4
  -3  -5   2  886.94  134.66   7
   3   5  -2 1023.53  159.06   1
  -3  -5   2  636.28  112.91   2
   3   5  -2  916.98  148.81   6
   3   5  -2  888.01  134.64  11
   3   5  -2  868.38  136.88   3
  -3  -5   2  859.77  129.49  10
  -3  -5   2  699.98  131.00   4
  -3  -5   3 1016.15  155.81   7
  -3  -5   3 1046.64  146.54   2
   3   5  -3  894.83  160.88   6
   3   5  -3 1101.61  159.36  11
  -3  -5   3  943.88  146.03  10
   3   5  -3  985.43  159.51   1
  -3  -6  -1 3698.61  294.28   2
   3   6   1 3352.54  267.04   6
   3   6   1 3260.34  282.25   3
  -3  -6  -1 3834.48  336.35   4
   3   6   1 3780.02  340.40   1
  -3  -6  -1 4028.00  315.44   7
  -3  -6   0  633.31  133.07   7
   3   6   0  633.24  128.44   6
  -3  -6   0  670.95  147.43   2
   3   6   0  744.68  150.41   3
   3   6   0  635.45  144.97   1
  -3  -6   0  703.64  157.92   4
   3   6  -1 2605.27  265.02   3
   3   6  -1 2471.33  246.49   6
   3   6  -1 2281.66  246.95   1
  -3  -6   1 2718.03  273.37   4
  -3  -6   1 2017.24  210.46   7
  -3  -6   1 2390.04  232.40   2
   3   6  -2 2544.07  268.32   6
   3   6  -2 2432.31  261.40   1
   3   6  -2 2748.64  261.03  11
  -3  -6   2 2666.02  234.15  10
   3   6  -2 2587.12  261.56   3
  -3  -6   2 2772.25  276.65   4
  -3  -6   2 2803.98  261.37   2
  -3  -6   2 2361.68  234.47   7
   3   6  -3 2926.69  288.83   1
   3   6  -3 3267.84  305.11   6
  -3  -6   3 3257.88  269.00  10
  -3  -6   3 2596.28  247.25   2
  -3  -6   3 2939.74  264.01   7
  -3  -7  -1 1197.15  199.45   7
   3   7   1  985.26  213.05   1
   3   7   1 1489.84  208.48   6
   3   7   1  963.39  180.79   3
  -3  -7  -1 1037.45  194.11   2
  -3  -7  -1 1405.45  246.55   4
  -3  -7   0  134.62  100.55   7
   3   7   0 -108.31  165.72   6
  -3  -7   0  105.23  103.55   2
  -3  -7   1  727.16  156.58   7
   3   7  -1  620.88  151.73   6
  -3  -7   1  772.97  165.99   2
   3   7  -1  866.50  191.80   3
   3   7  -1  926.27  189.85   1
  -3  -7   1  658.94  168.08   4
  -3  -7   2 1441.23  208.79   7
   3   7  -2 1476.80  226.88   6
  -3  -7   2 1696.23  227.90   2
   3   7  -2 1507.74  230.43   3
   3   7  -2 1413.52  233.95   1
  -3  -7   2 1700.09  250.64   4
  -3  -8  -1 1023.47  231.21   7
   3   8   1  947.07  194.92   6
   3   8   1  790.00  215.47   1
   3   8   1  919.65  193.61   3
  -3  -8  -1  679.23  196.12   2
  -3  -8  -1  770.55  227.03   4
  -3  -8   0   74.11   98.92   7
   3   8   0 -129.18  118.38   6
   3   8   0    0.98  104.58   3
  -3  -8   0  -21.77  114.70   2
   3   8   0  168.04  126.45   1
  -3  -8   0  -41.89  123.06   4
  -3  -8   1  346.06  131.51   7
   3   8  -1  435.93  143.88   6
   3   8  -1  466.73  169.03   3
  -3  -8   1  315.16  144.38   2
  -3  -8   1  282.45  148.61   4
   3   8  -1  332.95  148.84   1
   4  -6  -5  374.71  144.95  12
   4  -6  -5  423.66  148.21   5
  -4   6   5  729.44  192.96   9
  -4   6   5  497.92  169.89   8
   4  -6  -6  260.88  128.20   5
  -4   6   6  359.10  151.11   9
  -4   6   6  419.14  165.69   8
   4  -6  -7  764.22  203.39   5
   4  -5  -4  531.95  134.29  12
  -4   5   4  624.34  178.85   9
  -4   5   4  820.79  177.20   8
   4  -5  -5  809.52  171.12  12
   4  -5  -5  528.27  150.90   5
  -4   5   5  702.11  167.29   9
  -4   5   5  680.44  158.43   8
   4  -5  -6 1484.52  234.93  12
   4  -5  -6 1202.18  200.79   5
  -4   5   6 1666.10  250.74   9
  -4   5   6 1396.31  220.18   8
   4  -5  -7 1625.52  251.20  12
   4  -5  -7 1558.19  231.77   5
  -4   5   7 1847.98  261.67   9
  -4   5   7 1781.92  239.39   8
   4  -4  -4  -25.48   92.52  14
   4  -4  -4   74.51   90.03  12
   4  -4  -4   55.03   81.23   5
  -4   4   4  285.63  117.71   9
  -4   4   4  249.39  103.75   8
  -4   4   4  149.24   93.76  16
  -4   4   5  240.68   91.73  15
   4  -4  -5  171.33  101.65  12
   4  -4  -5  169.77  101.75   5
  -4   4   5  312.93  113.02   9
  -4   4   5  424.76  132.94   8
   4  -4  -6  499.67  138.30  12
   4  -4  -6  381.81  125.99   5
  -4   4   6  427.14  135.02   9
  -4   4   6  358.84  120.97   8
   4  -4  -7  908.04  190.67  12
   4  -4  -7  632.67  140.50   5
  -4   4   7  963.09  184.59   9
   4  -3  -3 2455.16  235.54  12
  -4   3   3 2528.03  238.27   9
  -4   3   3 2615.12  225.09   8
  -4   3   3 2555.43  236.42  16
   4  -3  -4 1968.75  212.97  13
   4  -3  -4 2028.04  221.64  12
   4  -3  -4 2027.90  200.16   5
  -4   3   4 1671.34  204.81   9
  -4   3   4 1869.97  194.99   8
  -4   3   4 1362.33  180.40  16
  -4   3   4 1921.73  214.78  15
   4  -3  -5 1304.21  181.62  14
   4  -3  -5 1249.55  180.15  13
   4  -3  -5 1035.87  178.39  12
   4  -3  -5 1226.24  161.91   5
  -4   3   5 1231.36  180.92   9
  -4   3   5 1240.86  159.70   8
  -4   3   5 1367.93  184.06  16
  -4   3   5 1273.59  179.97  15
   4  -3  -6 5641.54  388.31  14
   4  -3  -6 5445.45  354.85  13
   4  -3  -6 6094.48  385.35  12
   4  -3  -6 6393.68  361.30   5
  -4   3   6 5872.05  389.59   9
  -4   3   6 5652.77  343.86   8
  -4   3   6 5452.87  354.46  16
  -4   3   6 5274.97  368.29  15
   4  -3  -7 3001.19  280.14  12
  -4   3   7 3174.11  297.14   9
  -4   3   7 3084.45  297.27  15
   4  -2  -3 1890.72  197.76  13
   4  -2  -3 2114.48  213.40  12
  -4   2   3 1774.57  191.79   9
  -4   2   3 1664.96  164.45   8
  -4   2   3 1770.51  192.09  16
  -4   2   3 1735.60  209.24  15
   4  -2  -4 1389.17  179.49  13
   4  -2  -4 1568.48  186.66  12
   4  -2  -4 1353.25  150.59   5
  -4   2   4 1815.05  195.87   9
  -4   2   4 1934.40  169.34   8
  -4   2   4 1680.88  192.51  16
  -4   2   4 1722.90  197.84  15
   4  -2  -5 1354.12  197.37  14
   4  -2  -5 1169.27  177.00  13
   4  -2  -5 1456.47  182.85  12
  -4   2   5 1126.68  167.51   9
  -4   2   5 1224.24  177.24  16
  -4   2   5 1086.37  167.31  15
   4  -2  -6 3960.81  331.32  14
   4  -2  -6 3900.10  292.43  12
  -4   2   6 3885.98  300.03   9
  -4   2   6 2909.11  272.42  16
  -4   2   6 3703.82  312.93  15
  -4   2   7 1210.84  204.97  15
  -4   2   7 1086.73  180.77   9
   4  -1  -2 1754.66  177.82  13
  -4   1   2 1936.31  181.00   9
  -4   1   2 1850.37  195.69  16
  -4   1   2 1979.48  216.21  15
   4  -1  -3  799.77  140.25  13
   4  -1  -3  639.06  114.21  12
  -4   1   3  947.93  120.73  10
  -4   1   3  857.28  123.42   9
  -4   1   3  854.54  142.37  16
  -4   1   3  908.14  139.50  15
   4  -1  -4  265.69   96.14  13
   4  -1  -4  307.09   93.37  12
   4  -1  -4  338.52   99.00  11
  -4   1   4  131.30   65.33  10
  -4   1   4  201.09   81.15   9
  -4   1   4   84.06   73.81  16
  -4   1   4  194.64   93.88  15
   4  -1  -5  861.14  160.58  14
   4  -1  -5  790.93  127.92  12
   4  -1  -5  850.26  119.34  11
  -4   1   5 1298.91  140.73  10
  -4   1   5 1208.41  161.47   9
  -4   1   5 1394.40  175.91  16
  -4   1   5 1263.44  186.45  15
   4  -1  -6 5152.88  364.82  14
  -4   1   6 4294.41  259.54  10
  -4   1   6 4679.48  317.59   9
  -4   1   6 4649.73  322.60  16
  -4   1   6 4361.65  339.39  15
   4   0  -2 3609.31  253.12  13
  -4   0   2 3543.94  229.38  10
  -4   0   2 3142.78  203.22   9
  -4   0   2 3770.25  255.83  16
  -4   0   2 3719.70  267.35  15
   4   0  -3 5329.00  312.66  13
   4   0  -3 5634.80  276.81  12
  -4   0   3 4628.68  257.26  10
  -4   0   3 5231.20  261.29   9
  -4   0   3 4984.82  289.89  16
  -4   0   3 5108.88  309.43  15
   4   0  -4 9496.34  433.81  14
   4   0  -4 9731.68  426.34  13
   4   0  -4 8958.04  353.75  12
   4   0  -4 9491.00  387.71  11
  -4   0   4 9015.82  359.55  10
  -4   0   4 9539.09  370.58   9
  -4   0   4 9650.46  410.61  16
  -4   0   4 8986.28  420.92  15
   4   0  -5 9749.30  464.44  14
   4   0  -5 8868.53  362.10  12
   4   0  -510017.68  404.22  11
  -4   0   5 9095.48  378.63  10
  -4   0   5 9845.08  393.41   9
  -4   0   5 8973.64  420.26  16
  -4   0   5 9197.48  451.53  15
   4   0  -616788.09  637.29  14
  -4   0   616444.12  541.20  10
  -4   0   615828.94  592.06  16
  -4   0   616003.49  628.19  15
  -4  -1   2 1005.48  143.11  15
   4   1  -2 1189.72  148.65  13
   4   1  -2  977.36  106.91   6
  -4  -1   2  997.88  136.50  10
  -4  -1   2 1159.83  120.90   9
  -4  -1   2 1298.58  154.63  16
   4   1  -3 2267.17  205.69  13
   4   1  -3 2674.41  179.78   6
   4   1  -3 2425.50  170.72  12
   4   1  -3 2395.26  201.46  11
  -4  -1   3 2689.80  207.09  10
  -4  -1   3 2930.65  186.58   9
  -4  -1   3 2601.96  210.17  16
  -4  -1   3 2752.52  229.62  15
  -4  -1   3 2953.37  175.92   7
   4   1  -4  327.65  110.66  14
   4   1  -4  326.78   76.85  12
   4   1  -4  202.48   74.44  11
  -4  -1   4  195.25   70.03  10
  -4  -1   4  265.80   69.30   9
  -4  -1   4  378.20  102.07  16
  -4  -1   4  320.82   90.33  15
   4   1  -5  783.99  145.24  14
   4   1  -5  812.70  110.66  12
   4   1  -5  736.33  127.12  11
  -4  -1   5 1077.27  143.18  10
  -4  -1   5 1079.49  126.29   9
  -4  -1   5 1141.82  164.02  16
  -4  -1   5 1103.67  162.41  15
   4   1  -6 5127.66  353.28  14
  -4  -1   6 4782.75  311.92  10
  -4  -1   6 4372.52  309.41  16
  -4  -1   6 4608.94  343.62  15
   4   2  -1 2704.91  200.68   6
  -4  -2   1 2534.30  214.55  10
  -4  -2   1 2390.80  216.30  16
  -4  -2   2  759.55  132.40  15
   4   2  -2  661.09  115.01  13
   4   2  -2  604.43  100.83   6
  -4  -2   2  741.62  123.61  10
  -4  -2   2  871.24  130.88  16
  -4  -2   2  807.46  109.02   7
  -4  -2   3  599.18   96.55   7
   4   2  -3  593.04  127.50  14
   4   2  -3  384.00   95.05  13
   4   2  -3  664.35  102.45   6
   4   2  -3  616.96  113.66  11
  -4  -2   3  501.43   99.59  10
  -4  -2   3  331.41   73.27  16
  -4  -2   3  669.60  124.55  15
   4   2  -4 1405.41  187.06  14
   4   2  -4 1485.89  159.65   6
   4   2  -4 1187.37  152.97  11
  -4  -2   4 1529.04  162.69  10
  -4  -2   4 1518.46  172.70  16
  -4  -2   4 1552.27  152.88   7
  -4  -2   4 1476.35  178.93  15
   4   2  -5  507.87  130.63  14
   4   2  -5  544.87  115.22  11
  -4  -2   5  466.69  107.49  10
  -4  -2   5  393.67  102.16  16
  -4  -2   5  378.35  111.64  15
  -4  -2   5  495.67   92.93   7
   4   3  -1 4246.13  265.72   6
  -4  -3   1 4137.10  281.16  10
  -4  -3   1 3818.88  250.27  16
  -4  -3   1 4130.02  264.76   7
   4   3  -2 2379.40  196.19  13
   4   3  -2 2304.98  192.89   6
   4   3  -2 2784.50  250.36  11
  -4  -3   2 2224.67  201.21  10
  -4  -3   2 2278.36  186.01  16
  -4  -3   2 2266.26  203.69  15
  -4  -3   2 2339.70  193.76   7
   4   3  -3 3834.84  268.34  14
   4   3  -3 3483.45  248.42  13
   4   3  -3 3480.99  229.91   6
   4   3  -3 3462.23  265.59  11
  -4  -3   3 3281.17  241.22  10
  -4  -3   3 3758.53  243.71  16
  -4  -3   3 3823.48  241.71   7
  -4  -3   3 3630.15  252.39  15
   4   3  -4 1566.81  190.26  14
   4   3  -4 1994.21  203.08   6
   4   3  -4 1751.10  196.51  11
  -4  -3   4 1367.73  170.45  10
  -4  -3   4 1674.13  179.48  16
  -4  -3   4 1985.42  178.41   7
  -4  -3   4 1985.12  198.71  15
   4   3  -5 2647.38  256.93  11
  -4  -3   5 3167.22  272.05  10
  -4  -3   5 2949.85  228.33   7
  -4  -3   5 2858.46  260.38  15
   4   4  -1 2130.58  211.90   6
  -4  -4   1 1683.72  189.24  10
  -4  -4   1 1595.95  180.64   7
   4   4  -2 2666.33  230.30   6
   4   4  -2 3104.93  260.31  11
  -4  -4   2 2467.34  226.65  10
  -4  -4   2 2458.80  207.51   7
   4   4  -3 1186.28  160.41   6
   4   4  -3 1385.33  183.31  11
  -4  -4   3 1190.65  157.78  10
  -4  -4   3 1335.92  154.68   7
   4   4  -4  558.24  127.82   6
   4   4  -4  541.89  140.79  11
  -4  -4   4  628.97  129.29  10
  -4  -4   4  500.03  113.19   7
   4   4  -5  -22.55   93.70  11
  -4  -4   5    0.97   85.80  10
  -4  -4   5  157.12   90.23   7
  -4  -5   0  686.55  136.30   4
  -4  -5   0  617.00  138.55   7
   4   5   0  618.78  123.72   6
   4   5   0  495.13  118.94   3
  -4  -5   1 1113.07  166.63   7
   4   5  -1 1345.84  188.86   6
   4   5  -1 1008.35  156.52  11
  -4  -5   1 1037.80  167.11  10
  -4  -5   2  435.07  107.72   7
   4   5  -2  860.74  159.53   6
   4   5  -2  522.06  131.94  11
  -4  -5   2  573.04  131.08  10
  -4  -5   3  422.30  115.37   7
   4   5  -3  502.56  129.70   6
   4   5  -3  560.51  140.14  11
  -4  -5   3  611.02  134.51  10
  -4  -5   4  716.97  141.61   7
   4   5  -4  628.65  147.13   6
   4   5  -4 1079.99  193.36  11
  -4  -5   4  682.72  148.41  10
  -4  -6   0 1546.80  214.61   7
   4   6   0 1503.16  200.10   6
   4   6   0 1129.43  174.39   3
  -4  -6   0 1369.52  202.50   4
  -4  -6   1 1230.26  186.36   7
   4   6  -1 1417.98  193.18   6
   4   6  -1 1503.26  182.68  11
  -4  -6   1 1551.15  201.76  10
   4   6  -2 1946.47  241.56   6
   4   6  -2 1902.99  212.39  11
  -4  -6   2 1692.45  211.25  10
  -4  -6   2 1513.04  202.46   7
  -4  -6   3  904.34  171.84   7
   4   6  -3 1343.84  217.81   6
   4   6  -3  947.96  175.29  11
  -4  -6   3 1150.41  185.98  10
  -4  -7   0  835.02  205.85   7
   4   7   0  683.92  169.42   6
  -4  -7   1  716.52  157.85   7
   4   7  -1  713.45  163.65   6
   4   7  -1  862.96  190.69   1
  -4  -7   2  946.52  184.50   7
   4   7  -2 1206.85  206.68   6
  -4  -7   3  533.29  161.45   7
   4   7  -3  638.45  180.60   6
   4   8  -1  560.27  198.85   1
  -4  -8   1  375.78  160.73   2
   5  -5  -6  429.60  152.21  12
   5  -4  -5 1006.13  202.12  14
   5  -4  -5  907.84  184.50  12
  -5   4   5 1396.33  233.57   9
  -5   4   5 1153.40  209.90  16
   5  -4  -6  618.90  191.48  12
  -5   4   6  392.99  150.27   9
   5  -4  -7 1020.68  209.02  12
  -5   4   7 1245.63  242.39   9
   5  -3  -4 2575.21  260.55  12
  -5   3   4 2232.32  262.00   9
  -5   3   4 2135.67  252.77  16
   5  -3  -5 2680.11  320.72  14
   5  -3  -5 2553.04  277.80  13
   5  -3  -5 3415.49  323.08  12
  -5   3   5 2597.49  277.53   9
  -5   3   5 2134.10  257.22  16
  -5   3   5 2556.16  301.86  15
   5  -3  -6 1586.23  240.98  14
   5  -3  -6 2271.96  267.28  13
   5  -3  -6 1976.27  266.19  12
  -5   3   6 1822.17  258.36   9
  -5   3   6 1462.06  222.63  16
  -5   3   6 1593.35  226.65  15
   5  -3  -7 2444.30  301.77  14
   5  -3  -7 2895.04  317.02  13
   5  -3  -7 2957.57  304.90  12
  -5   3   7 2562.13  299.94   9
  -5   3   7 2599.88  291.67  16
  -5   3   7 2748.07  303.26  15
  -5   2   4  908.58  175.88  15
   5  -2  -4 1100.03  182.62  13
   5  -2  -4  960.45  169.25  12
  -5   2   4  927.85  168.07   9
  -5   2   4 1043.15  174.69  16
   5  -2  -5 2847.03  323.16  14
   5  -2  -5 2629.69  275.54  13
   5  -2  -5 2478.30  259.27  12
  -5   2   5 2226.89  241.28   9
  -5   2   5 2204.70  249.89  16
  -5   2   5 2209.43  250.40  15
   5  -2  -6  626.21  179.82  14
   5  -2  -6  694.90  161.09  13
   5  -2  -6  937.24  184.61  12
  -5   2   6  418.12  132.78   9
  -5   2   6  698.79  171.24  16
  -5   2   6  705.60  160.69  15
   5  -2  -7 1612.84  255.87  14
   5  -2  -7 1503.09  218.65  13
   5  -2  -7 1532.03  221.18  12
  -5   2   7 1723.95  237.30   9
  -5   2   7 1596.61  235.68  16
  -5   2   7 1639.73  249.20  15
   5  -1  -3 2970.54  267.86  13
  -5   1   3 3688.86  289.12   9
  -5   1   3 3348.22  287.38  16
  -5   1   3 3651.66  328.42  15
   5  -1  -4 2249.28  256.88  13
   5  -1  -4 2650.25  244.42  12
   5  -1  -4 2801.01  253.23  11
  -5   1   4 2561.69  240.59   9
  -5   1   4 2131.38  228.48  16
  -5   1   4 2085.02  239.95  15
   5  -1  -5  293.71  118.55  14
   5  -1  -5  288.13  113.67  13
   5  -1  -5  180.06   98.12  12
  -5   1   5  227.14   92.25   9
  -5   1   5  130.09  100.28  16
  -5   1   5  282.13  121.42  15
   5  -1  -6 1923.28  274.68  14
   5  -1  -6 1833.29  234.36  13
   5  -1  -6 1492.37  201.87  12
  -5   1   6 1765.76  215.47   9
  -5   1   6 1671.43  226.30  16
  -5   1   6 1614.34  230.96  15
   5  -1  -7 1834.10  264.17  14
   5  -1  -7 1994.99  255.13  13
   5  -1  -7 1874.58  222.02  12
  -5   1   7 2038.97  246.37   9
  -5   1   7 2095.36  255.74  16
  -5   1   7 1943.83  260.34  15
   5   0  -312162.80  516.35  13
  -5   0   313176.47  483.56   9
  -5   0   312933.05  544.14  16
  -5   0   311288.01  539.98  15
   5   0  -4 2414.86  247.31  13
   5   0  -4 2371.11  214.54  12
   5   0  -4 2767.29  255.13  11
  -5   0   4 2261.66  212.36  10
  -5   0   4 2601.83  217.32   9
  -5   0   4 2563.76  241.72  16
  -5   0   4 2289.78  249.38  15
   5   0  -5 6615.57  422.91  14
   5   0  -5 6684.12  412.75  13
   5   0  -5 6208.85  343.89  12
   5   0  -5 7811.99  420.05  11
  -5   0   5 6633.31  354.94  10
  -5   0   5 7113.61  373.22   9
  -5   0   5 6434.13  388.68  16
  -5   0   5 6488.16  416.38  15
   5   0  -6 8372.52  493.33  14
   5   0  -6 9308.84  500.22  13
   5   0  -610231.21  446.11  12
   5   0  -610160.86  485.78  11
  -5   0   6 8788.30  422.35  10
  -5   0   610528.17  468.86   9
  -5   0   6 9100.16  481.72  16
  -5   0   6 9044.93  510.27  15
   5   0  -7 6578.16  442.74  14
   5   0  -7 7041.33  410.17  12
  -5   0   7 6140.79  366.47  10
  -5   0   7 6592.82  434.21  16
  -5   0   7 6490.00  457.62  15
   5   1  -3 2252.14  243.18  13
  -5  -1   3 2139.95  215.34  10
  -5  -1   3 1786.07  209.96  16
  -5  -1   3 1995.82  223.25  15
   5   1  -4 2951.04  279.02  14
   5   1  -4 2625.21  264.57  13
   5   1  -4 2774.60  244.45  11
  -5  -1   4 2409.31  229.14  10
  -5  -1   4 2768.22  255.01  16
  -5  -1   4 2630.68  255.92  15
   5   1  -5  326.64  121.07  14
   5   1  -5  393.72  129.25  13
   5   1  -5  336.99  110.99  11
  -5  -1   5  615.77  132.94  10
  -5  -1   5  629.44  133.79  16
  -5  -1   5  567.15  133.29  15
   5   1  -6 5326.86  397.24  14
   5   1  -6 5958.53  391.98  11
  -5  -1   6 5347.99  347.86  10
  -5  -1   6 4548.87  347.98  16
  -5  -1   6 5479.66  392.02  15
   5   2  -2  472.09  104.89   6
  -5  -2   2  300.49  113.87  10
  -5  -2   2  559.84  126.48  16
   5   2  -3 2874.29  263.00  13
   5   2  -3 2136.81  231.02  11
  -5  -2   3 2323.08  233.55  10
  -5  -2   3 2311.51  229.28  16
  -5  -2   3 2327.64  242.28  15
   5   2  -4  120.87  110.46  14
   5   2  -4  117.03   85.57  13
   5   2  -4  225.34   96.14  11
  -5  -2   4  371.20  118.61  10
  -5  -2   4  325.68  105.28  16
  -5  -2   4  221.24   94.73  15
   5   2  -5  581.20  155.07  14
   5   2  -5  520.16  143.74  13
   5   2  -5  589.46  135.00  11
  -5  -2   5  624.04  137.28  10
  -5  -2   5  824.03  153.84  16
  -5  -2   5  610.37  143.74  15
   5   2  -6 4498.38  375.46  14
   5   2  -6 4906.96  370.52  11
  -5  -2   6 3747.55  304.54  10
  -5  -2   6 4246.83  333.80  16
  -5  -2   6 4669.90  370.27  15
   5   3  -2 1203.35  149.28   6
  -5  -3   2 1557.06  198.48  10
  -5  -3   2 1423.69  177.37  16
  -5  -3   3 1267.70  184.70  15
   5   3  -3 1396.60  202.19  14
   5   3  -3 1424.76  185.44  13
   5   3  -3 1226.05  159.04   6
   5   3  -3 1347.91  194.63  11
  -5  -3   3 1365.64  186.70  10
  -5  -3   3 1620.17  196.19  16
  -5  -3   3 1711.82  189.43   7
   5   3  -4 3363.07  299.69  14
   5   3  -4 3364.45  285.99  13
   5   3  -4 3253.57  261.49   6
   5   3  -4 2863.27  265.26  11
  -5  -3   4 3268.86  273.35  10
  -5  -3   4 3094.01  265.38  16
  -5  -3   4 3173.26  275.47  15
  -5  -3   4 3227.71  246.40   7
   5   3  -5 2169.77  252.43  14
   5   3  -5 1791.62  218.01  13
   5   3  -5 1715.92  216.27  11
  -5  -3   5 2391.52  242.16  10
  -5  -3   5 2324.08  243.62  16
  -5  -3   5 2046.84  243.19  15
   5   3  -610031.29  553.08  11
  -5  -3   6 9626.91  508.04  10
  -5  -3   6 9137.02  521.80  15
  -5  -4   2  887.39  152.70   7
   5   4  -2  789.56  141.56   6
   5   4  -2 1201.56  196.93  11
  -5  -4   2  780.71  153.90  10
   5   4  -3 1769.94  232.51  11
   5   4  -3 1237.66  171.09   6
  -5  -4   3 1158.54  183.51  10
  -5  -4   3 1382.94  182.17   7
  -5  -4   4  524.60  123.23   7
   5   4  -4  295.00  109.21   6
   5   4  -4  301.96  122.56  11
  -5  -4   4  520.28  135.69  10
  -5  -4   5  179.90   95.50   7
   5   4  -5  454.58  125.83   6
   5   4  -5  185.78  126.31  11
  -5  -4   5  288.44  130.17  10
  -5  -5   2  310.46  118.00   7
   5   5  -2  213.42  117.61   6
   5   5  -2    8.52   89.46  11
  -5  -5   2  249.84  108.05  10
  -5  -5   3  628.23  130.62   7
   5   5  -3  504.52  137.71   6
   5   5  -3  339.28  123.42  11
  -5  -5   3  283.80  102.13  10
  -5  -5   4  406.86  122.28   7
   5   5  -4  161.61  109.84   6
   5   5  -4  273.56  110.32  11
  -5  -5   4  538.98  147.10  10
  -5  -5   5 1103.49  196.42   7
   5   5  -5 1007.71  228.75  11
  -5  -5   5  967.81  176.90  10
  -5  -6   2  749.70  167.50   7
   5   6  -2  581.25  151.65   6
   5   6  -2  731.42  148.58  11
  -5  -6   2  788.86  175.40  10
  -5  -6   3  584.13  149.04   7
   5   6  -3  614.17  182.67   6
   5   6  -3  725.23  155.60  11
  -5  -6   3  410.25  137.57  10
  -5  -6   4  550.73  148.39   7
   5   6  -4  486.54  143.31   6
   5   6  -4  368.95  135.75  11
  -5  -6   4  522.42  154.47  10
   5   7  -3  409.27  154.59  11
  -5  -7   3  633.89  185.37  10
   6  -3  -6  927.75  244.32  14
   6  -3  -6  688.34  177.27  12
  -6   3   6  363.80  152.89   9
  -6   3   6  536.58  174.96  16
  -6   3   7  491.73  164.59  15
   6  -3  -7  697.14  228.18  14
   6  -3  -7  681.52  193.22  13
   6  -3  -7  419.97  167.15  12
  -6   3   7  465.80  165.39  16
  -6   2   5  234.72  128.63   9
  -6   2   5  320.47  145.70  16
  -6   2   6  392.59  142.49  15
   6  -2  -6  566.16  185.71  14
   6  -2  -6  515.26  159.77  13
   6  -2  -6  351.29  146.03  12
  -6   2   6  369.35  139.13   9
  -6   2   6  494.27  166.14  16
   6  -2  -7   76.64  144.06  14
   6  -2  -7  323.92  158.22  13
   6  -2  -7  337.39  165.07  12
  -6   2   7  -29.68   96.82   9
  -6   2   7  425.72  167.30  16
  -6   2   7  303.31  152.31  15
   6  -2  -8  570.92  209.81  14
   6  -2  -8  333.59  138.20  13
   6  -2  -8  622.24  187.84  12
  -6   1   5 1244.70  231.48  15
   6  -1  -5 1267.95  230.16  14
   6  -1  -5 1234.45  215.08  13
  -6   1   5 1550.23  216.40   9
  -6   1   5 1221.46  221.12  16
   6  -1  -6 1162.54  239.35  14
   6  -1  -6  800.11  188.62  13
   6  -1  -6  985.29  182.92  12
  -6   1   6  894.62  177.21   9
  -6   1   6 1001.87  212.45  16
  -6   1   6  942.01  218.66  15
   6  -1  -7  869.14  236.96  14
   6  -1  -7  703.47  181.79  13
   6  -1  -7 1157.91  232.06  12
  -6   1   7 1162.99  214.41   9
  -6   1   7  851.23  192.31  16
  -6   1   7  797.36  197.10  15
   6   0  -4 2014.87  245.83  13
  -6   0   4 2507.49  293.65  16
  -6   0   4 2450.32  300.60  15
   6   0  -5 1648.14  229.30  14
   6   0  -5 1801.78  253.26  13
   6   0  -5 2151.41  262.54  11
  -6   0   5 1712.27  209.62  10
  -6   0   5 1625.40  225.63  16
  -6   0   5 1825.89  259.87  15
   6   0  -6 1762.15  271.27  14
   6   0  -6 1505.10  241.18  13
  -6   0   6  958.99  164.90  10
  -6   0   6 1272.02  216.93  16
  -6   0   6 1109.27  208.74  15
   6   0  -7 1435.57  248.48  14
   6   0  -7 1414.09  238.95  13
  -6   0   7  983.38  198.71  16
  -6   0   7  959.84  209.60  15
  -6  -1   4 1637.77  236.16  15
   6   1  -4 2110.70  266.96  14
   6   1  -4 1644.18  224.14  13
   6   1  -4 1813.99  221.84  11
  -6  -1   4 1702.27  220.66  10
  -6  -1   4 2308.94  268.09  16
  -6  -1   5 1384.68  221.96  15
   6   1  -5 1353.65  214.25  14
   6   1  -5 1520.44  230.84  13
   6   1  -5 1596.55  230.23  11
  -6  -1   5 1711.00  232.58  10
  -6  -1   5 1541.31  221.46  16
   6   1  -6  786.50  176.40  14
   6   1  -6 1061.34  208.93  13
   6   1  -6 1181.81  209.48  11
  -6  -1   6  765.94  165.38  10
  -6  -1   6  979.07  188.07  16
  -6  -1   6  731.61  168.86  15
   6   1  -7  574.25  176.50  14
   6   1  -7  958.29  214.08  13
  -6  -1   7  966.04  187.23  10
  -6  -1   7  738.87  172.62  16
  -6  -1   7  788.81  184.14  15
  -6  -2   4  407.44  143.85  15
   6   2  -4  413.86  145.37  14
   6   2  -4  548.67  145.94  13
   6   2  -4  562.58  156.16  11
  -6  -2   4  637.98  155.52  10
  -6  -2   4  543.53  154.61  16
   6   2  -5  392.57  151.81  14
   6   2  -5  472.88  141.59  13
   6   2  -5  271.21  105.33  11
  -6  -2   5  518.91  149.09  10
  -6  -2   5  354.18  133.88  16
  -6  -2   5  378.41  136.23  15
   6   2  -6  340.82  161.35  14
   6   2  -6  162.65  107.10  13
   6   2  -6  282.60  128.67  11
  -6  -2   6   14.86   91.66  10
  -6  -2   6  153.39  111.02  16
  -6  -2   6  173.19  120.09  15
   6   2  -7  556.01  176.69  13
  -6  -2   7  483.79  160.47  10
  -6  -2   7  460.21  162.70  15
   6   3  -3 1586.84  221.74  11
  -6  -3   3 1444.61  215.54  10
   6   3  -4 2567.77  299.66  14
   6   3  -4 2338.70  263.43  13
   6   3  -4 2121.97  256.77  11
  -6  -3   4 2651.94  282.60  10
  -6  -3   4 2688.14  278.26  16
  -6  -3   4 2715.95  309.17  15
  -6  -3   5  598.37  158.61  15
   6   3  -5  747.38  183.20  14
   6   3  -5  861.33  180.46  13
   6   3  -5  468.80  135.98  11
  -6  -3   5  453.65  136.72  10
  -6  -3   5  559.27  147.15  16
   6   3  -6 1700.51  249.74  14
   6   3  -6 1692.23  263.66  13
   6   3  -6 1949.72  257.45  11
  -6  -3   6 1920.16  255.45  10
  -6  -3   6 1733.40  248.78  16
  -6  -3   6 1898.06  280.48  15
   6   4  -3 3168.30  313.92  11
  -6  -4   3 3005.26  300.65  10
   6   4  -4 1143.90  203.36  11
  -6  -4   4 1060.96  193.79  10
   6   4  -5  536.66  140.16  11
  -6  -4   5  287.35  104.95  10
   6   4  -6 1561.80  265.31  11
  -6  -4   6 1444.65  252.84  10
   6   5  -3  148.73  106.48   6
   6   5  -3  429.96  153.82  11
  -6  -5   3  186.37  115.87  10
  -6  -5   4  712.85  167.93   7
   6   5  -4  599.85  165.38   6
   6   5  -4  734.50  188.56  11
  -6  -5   4  607.07  164.58  10
  -6  -5   5   78.19  106.55   7
   6   5  -5  140.35  124.34  11
   7   1  -6  982.02  202.81  11
  -7  -1   6  875.66  205.54  10
   7   1  -7  351.75  196.00  11
   7   2  -6  -47.86  114.73  11
   0   0   0    0.00    0.00   0
;
_shelx_hkl_checksum              98274
_olex2_submission_special_instructions 'No special instructions were received'
loop_
_space_group_symop_operation_xyz
'x, y, z'
loop_
_atom_site_label
_atom_site_type_symbol
_atom_site_fract_x
_atom_site_fract_y
_atom_site_fract_z
_atom_site_U_iso_or_equiv
_atom_site_adp_type
_atom_site_occupancy
_atom_site_site_symmetry_order
_atom_site_calc_flag
_atom_site_refinement_flags_posn
Co1 Co -0.002(5) 0.001(2) -0.002(5) 0.0153(19) Uiso 1 1 d .
N1 N -0.017(6) 0.315(4) -0.006(4) 0.007(4) Uiso 1 1 d D
N2 N 0.011(6) 0.674(5) 0.014(4) 0.007(4) Uiso 1 1 d D
O4 O -0.190(7) -0.014(6) 0.820(3) 0.040(6) Uiso 1 1 d D
C11 C -0.231(7) 0.412(4) 0.010(8) 0.013(9) Uiso 1 1 d D
H11A H -0.2551 0.3873 0.0990 0.016 Uiso 1 1 calc R
H11B H -0.3683 0.3459 -0.0447 0.016 Uiso 1 1 calc R
C8 C -0.340(5) 0.050(5) 0.732(3) 0.013(10) Uiso 1 1 d D
C9 C 0.059(10) 0.379(4) -0.129(5) 0.014(9) Uiso 1 1 d D
H9A H -0.0711 0.3664 -0.2031 0.017 Uiso 1 1 calc R
H9B H 0.1994 0.3174 -0.1461 0.017 Uiso 1 1 calc R
C12 C -0.251(6) 0.628(4) -0.017(8) 0.017(10) Uiso 1 1 d D
H12A H -0.3163 0.6585 -0.1072 0.020 Uiso 1 1 calc R
H12B H -0.3400 0.6869 0.0408 0.020 Uiso 1 1 calc R
O3 O -0.526(6) 0.119(5) 0.753(4) 0.040(6) Uiso 1 1 d D
C7 C -0.094(5) 0.011(7) 0.223(3) 0.032(14) Uiso 1 1 d D
C14 C 0.181(9) 0.598(4) 0.121(5) 0.018(11) Uiso 1 1 d D
H14A H 0.1347 0.6235 0.2040 0.021 Uiso 1 1 calc R
H14B H 0.3442 0.6567 0.1198 0.021 Uiso 1 1 calc R
C10 C 0.119(10) 0.587(5) -0.086(7) 0.015(10) Uiso 1 1 d D
H10A H 0.2933 0.6011 -0.0571 0.018 Uiso 1 1 calc R
H10B H 0.0865 0.6687 -0.1633 0.018 Uiso 1 1 calc R
C13 C 0.171(7) 0.381(4) 0.101(5) 0.021(10) Uiso 1 1 d D
H13A H 0.3268 0.3477 0.0837 0.025 Uiso 1 1 calc R
H13B H 0.1402 0.3125 0.1801 0.025 Uiso 1 1 calc R
C6 C 0.003(5) -0.030(4) 0.464(3) 0.021(12) Uiso 1 1 d D
H6 H 0.1504 -0.0754 0.4558 0.025 Uiso 1 1 calc R
C1 C -0.156(6) 0.024(4) 0.354(3) 0.029(12) Uiso 1 1 d DG
C2 C -0.377(6) 0.092(5) 0.367(3) 0.035(14) Uiso 1 1 d DG
H2 H -0.4833 0.1285 0.2932 0.042 Uiso 1 1 calc R
C3 C -0.439(5) 0.107(4) 0.489(4) 0.021(11) Uiso 1 1 d DG
H3 H -0.5870 0.1522 0.4978 0.025 Uiso 1 1 calc R
C4 C -0.280(6) 0.053(4) 0.599(3) 0.027(12) Uiso 1 1 d DG
C5 C -0.059(6) -0.016(5) 0.587(3) 0.023(11) Uiso 1 1 d DG
H5 H 0.0468 -0.0517 0.6605 0.028 Uiso 1 1 calc R
O1 O 0.118(5) -0.008(5) 0.211(4) 0.040(6) Uiso 1 1 d D
O2 O -0.253(7) 0.039(7) 0.129(3) 0.040(6) Uiso 1 1 d D
O1W O 0.343(15) -0.032(7) -0.045(14) 0.018(8) Uiso 1 1 d .
H1WA H 0.4025 -0.1612 -0.0381 0.027 Uiso 1 1 d GR
H1WB H 0.4730 0.0417 0.0082 0.027 Uiso 1 1 d GR
loop_
_atom_type_symbol
_atom_type_description
_atom_type_scat_dispersion_real
_atom_type_scat_dispersion_imag
_atom_type_scat_source
C C 0.0033 0.0016 'International Tables Vol C Tables 4.2.6.8 and 6.1.1.4'
H H 0.0000 0.0000 'International Tables Vol C Tables 4.2.6.8 and 6.1.1.4'
Co Co 0.3494 0.9721 'International Tables Vol C Tables 4.2.6.8 and 6.1.1.4'
N N 0.0061 0.0033 'International Tables Vol C Tables 4.2.6.8 and 6.1.1.4'
O O 0.0106 0.0060 'International Tables Vol C Tables 4.2.6.8 and 6.1.1.4'
loop_
_geom_angle_atom_site_label_1
_geom_angle_atom_site_label_2
_geom_angle_atom_site_label_3
_geom_angle
_geom_angle_site_symmetry_1
_geom_angle_site_symmetry_3
N1 Co1 N2 177(3) . 1_545
N1 Co1 O1 92.0(18) . .
O4 Co1 N1 91(3) 1_554 .
O4 Co1 N2 92.0(18) 1_554 1_545
O4 Co1 O1 165.1(13) 1_554 .
O4 Co1 O2 107(2) 1_554 .
O4 Co1 O1W 99(4) 1_554 .
O1 Co1 N2 85(2) . 1_545
O2 Co1 N1 77.4(16) . .
O2 Co1 N2 99.9(17) . 1_545
O2 Co1 O1 59.1(11) . .
O1W Co1 N1 102.9(14) . .
O1W Co1 N2 78.7(15) . 1_545
O1W Co1 O1 94(4) . .
O1W Co1 O2 153(4) . .
C11 N1 Co1 124(2) . .
C9 N1 Co1 104(2) . .
C9 N1 C11 109(4) . .
C9 N1 C13 109(4) . .
C13 N1 Co1 104(3) . .
C13 N1 C11 105(4) . .
C12 N2 Co1 96(2) . 1_565
C12 N2 C14 128(4) . .
C12 N2 C10 107(3) . .
C14 N2 Co1 117(2) . 1_565
C14 N2 C10 94(5) . .
C10 N2 Co1 116(3) . 1_565
C8 O4 Co1 151(3) . 1_556
N1 C11 H11A 106.7 . .
N1 C11 H11B 106.7 . .
N1 C11 C12 123(3) . .
H11A C11 H11B 106.6 . .
C12 C11 H11A 106.7 . .
C12 C11 H11B 106.7 . .
O4 C8 C4 116.6(12) . .
O3 C8 O4 122.8(5) . .
O3 C8 C4 120.5(12) . .
N1 C9 H9A 113.1 . .
N1 C9 H9B 113.1 . .
N1 C9 C10 93(3) . .
H9A C9 H9B 110.5 . .
C10 C9 H9A 113.1 . .
C10 C9 H9B 113.1 . .
N2 C12 C11 94(3) . .
N2 C12 H12A 113.0 . .
N2 C12 H12B 113.0 . .
C11 C12 H12A 113.0 . .
C11 C12 H12B 113.0 . .
H12A C12 H12B 110.4 . .
O1 C7 C1 119.0(13) . .
O2 C7 C1 117.8(14) . .
O2 C7 O1 122.8(5) . .
N2 C14 H14A 110.6 . .
N2 C14 H14B 110.6 . .
N2 C14 C13 106(4) . .
H14A C14 H14B 108.7 . .
C13 C14 H14A 110.6 . .
C13 C14 H14B 110.6 . .
N2 C10 C9 124(3) . .
N2 C10 H10A 106.3 . .
N2 C10 H10B 106.3 . .
C9 C10 H10A 106.3 . .
C9 C10 H10B 106.3 . .
H10A C10 H10B 106.4 . .
N1 C13 C14 113(4) . .
N1 C13 H13A 108.9 . .
N1 C13 H13B 108.9 . .
C14 C13 H13A 108.9 . .
C14 C13 H13B 108.9 . .
H13A C13 H13B 107.8 . .
C1 C6 H6 120.0 . .
C1 C6 C5 120.0 . .
C5 C6 H6 120.0 . .
C6 C1 C7 121(2) . .
C6 C1 C2 120.0 . .
C2 C1 C7 119(2) . .
C1 C2 H2 120.0 . .
C1 C2 C3 120.0 . .
C3 C2 H2 120.0 . .
C2 C3 H3 120.0 . .
C4 C3 C2 120.0 . .
C4 C3 H3 120.0 . .
C3 C4 C8 123(2) . .
C3 C4 C5 120.0 . .
C5 C4 C8 117(2) . .
C6 C5 H5 120.0 . .
C4 C5 C6 120.0 . .
C4 C5 H5 120.0 . .
C7 O1 Co1 87.5(17) . .
C7 O2 Co1 90(2) . .
Co1 O1W H1WA 118.9 . .
Co1 O1W H1WB 115.1 . .
H1WA O1W H1WB 101.5 . .
loop_
_geom_bond_atom_site_label_1
_geom_bond_atom_site_label_2
_geom_bond_distance
_geom_bond_site_symmetry_2
Co1 N1 2.18(3) .
Co1 N2 2.26(4) 1_545
Co1 O4 1.97(6) 1_554
Co1 O1 2.22(7) .
Co1 O2 2.16(4) .
Co1 O1W 2.08(4) .
N1 C11 1.460(3) .
N1 C9 1.460(3) .
N1 C13 1.460(3) .
N2 Co1 2.26(4) 1_565
N2 C12 1.460(3) .
N2 C14 1.460(3) .
N2 C10 1.460(3) .
O4 Co1 1.97(6) 1_556
O4 C8 1.230(3) .
C11 H11A 0.9700 .
C11 H11B 0.9700 .
C11 C12 1.520(3) .
C8 O3 1.230(3) .
C8 C4 1.481(3) .
C9 H9A 0.9700 .
C9 H9B 0.9700 .
C9 C10 1.520(3) .
C12 H12A 0.9700 .
C12 H12B 0.9700 .
C7 C1 1.480(3) .
C7 O1 1.230(3) .
C7 O2 1.230(3) .
C14 H14A 0.9700 .
C14 H14B 0.9700 .
C14 C13 1.520(3) .
C10 H10A 0.9700 .
C10 H10B 0.9700 .
C13 H13A 0.9700 .
C13 H13B 0.9700 .
C6 H6 0.9300 .
C6 C1 1.3900 .
C6 C5 1.3900 .
C1 C2 1.3900 .
C2 H2 0.9300 .
C2 C3 1.3900 .
C3 H3 0.9300 .
C3 C4 1.3900 .
C4 C5 1.3900 .
C5 H5 0.9300 .
O1W H1WA 0.9799 .
O1W H1WB 0.9610 .
loop_
_geom_torsion_atom_site_label_1
_geom_torsion_atom_site_label_2
_geom_torsion_atom_site_label_3
_geom_torsion_atom_site_label_4
_geom_torsion
_geom_torsion_site_symmetry_1
Co1 N1 C11 C12 -169(5) .
Co1 N1 C9 C10 -161(4) .
Co1 N1 C13 C14 -177(3) .
Co1 N2 C12 C11 -174(4) 1_565
Co1 N2 C14 C13 -174(2) 1_565
Co1 N2 C10 C9 -154(6) 1_565
Co1 O4 C8 O3 -39(10) 1_556
Co1 O4 C8 C4 137(5) 1_556
N1 C11 C12 N2 -28(7) .
N1 C9 C10 N2 -25(7) .
N2 C14 C13 N1 -6(4) .
O4 C8 C4 C3 175(3) .
O4 C8 C4 C5 -1(5) .
C11 N1 C9 C10 64(5) .
C11 N1 C13 C14 -45(5) .
C8 C4 C5 C6 176(3) .
C9 N1 C11 C12 -45(7) .
C9 N1 C13 C14 73(4) .
C12 N2 C14 C13 62(5) .
C12 N2 C10 C9 -48(8) .
O3 C8 C4 C3 -9(5) .
O3 C8 C4 C5 176(3) .
C7 C1 C2 C3 -180(3) .
C14 N2 C12 C11 -42(6) .
C14 N2 C10 C9 84(7) .
C10 N2 C12 C11 67(5) .
C10 N2 C14 C13 -53(3) .
C13 N1 C11 C12 72(7) .
C13 N1 C9 C10 -50(4) .
C6 C1 C2 C3 0.0 .
C1 C7 O1 Co1 -178(4) .
C1 C7 O2 Co1 178(4) .
C1 C6 C5 C4 0.0 .
C1 C2 C3 C4 0.0 .
C2 C3 C4 C8 -176(3) .
C2 C3 C4 C5 0.0 .
C3 C4 C5 C6 0.0 .
C5 C6 C1 C7 180(3) .
C5 C6 C1 C2 0.0 .
O1 C7 C1 C6 -15(6) .
O1 C7 C1 C2 164(4) .
O1 C7 O2 Co1 6(7) .
O2 C7 C1 C6 172(5) .
O2 C7 C1 C2 -9(7) .
O2 C7 O1 Co1 -6(6) .
