#------------------------------------------------------------------------------
#$Date: 2019-11-24 04:12:18 +0200 (Sun, 24 Nov 2019) $
#$Revision: 236652 $
#$URL: file:///home/coder/svn-repositories/cod/cif/8/00/03/8000377.cif $
#------------------------------------------------------------------------------
#
# This file is available in the Crystallography Open Database (COD),
# http://www.crystallography.net/
#
# All data on this site have been placed in the public domain by the
# contributors.
#
data_8000377
loop_
_publ_author_name
'Andrzejewski, Micha\/l'
'Katrusiak, Andrzej'
_publ_section_title
;
 Piezochromic Porous Metal-Organic Framework.
;
_journal_issue                   1
_journal_name_full               'The journal of physical chemistry letters'
_journal_page_first              279
_journal_page_last               284
_journal_paper_doi               10.1021/acs.jpclett.6b02458
_journal_volume                  8
_journal_year                    2017
_chemical_formula_moiety         'C14 H18 Co N2 O5'
_chemical_formula_sum            'C14 H18 Co N2 O5'
_chemical_formula_weight         353.23
_chemical_name_common            AMU1
_chemical_name_systematic
;
Co(1,4-benzenedicarboxylate)(1,4-diazabicyclo[2.2.2]octane)H2O
;
_space_group_crystal_system      triclinic
_space_group_IT_number           1
_space_group_name_Hall           'P 1'
_space_group_name_H-M_alt        'P 1'
_atom_sites_solution_hydrogens   mixed
_atom_sites_solution_primary     direct
_audit_creation_date             2016-07-12
_audit_creation_method
;
Olex2 1.2
(compiled 2016.02.19 svn.r3266 for OlexSys, GUI svn.r5155)
;
_cell_angle_alpha                90.36(3)
_cell_angle_beta                 96.55(3)
_cell_angle_gamma                94.743(19)
_cell_formula_units_Z            1
_cell_length_a                   5.8752(14)
_cell_length_b                   7.0561(16)
_cell_length_c                   10.609(3)
_cell_measurement_reflns_used    787
_cell_measurement_temperature    296(2)
_cell_measurement_theta_max      55.514
_cell_measurement_theta_min      9.88
_cell_volume                     435.38(19)
_computing_molecular_graphics    'Olex2 (Dolomanov et al., 2009)'
_computing_publication_material  'Olex2 (Dolomanov et al., 2009)'
_computing_structure_refinement  'ShelXL (Sheldrick, 2015)'
_computing_structure_solution    'ShelXS (Sheldrick, 2008)'
_diffrn_ambient_temperature      296(2)
_diffrn_measured_fraction_theta_full 0.230
_diffrn_measured_fraction_theta_max 0.198
_diffrn_measurement_device_type  'multiwire proportional'
_diffrn_measurement_method       'phi and omega scans'
_diffrn_radiation_monochromator  graphite
_diffrn_radiation_type           MoK\a
_diffrn_radiation_wavelength     0.71073
_diffrn_reflns_av_R_equivalents  0.0902
_diffrn_reflns_av_unetI/netI     0.1342
_diffrn_reflns_Laue_measured_fraction_full 0.230
_diffrn_reflns_Laue_measured_fraction_max 0.198
_diffrn_reflns_limit_h_max       7
_diffrn_reflns_limit_h_min       -7
_diffrn_reflns_limit_k_max       8
_diffrn_reflns_limit_k_min       -8
_diffrn_reflns_limit_l_max       4
_diffrn_reflns_limit_l_min       -4
_diffrn_reflns_number            2095
_diffrn_reflns_point_group_measured_fraction_full 0.230
_diffrn_reflns_point_group_measured_fraction_max 0.198
_diffrn_reflns_theta_full        26.000
_diffrn_reflns_theta_max         27.757
_diffrn_reflns_theta_min         4.940
_exptl_absorpt_coefficient_mu    1.007
_exptl_absorpt_correction_T_max  0.904
_exptl_absorpt_correction_T_min  0.886
_exptl_absorpt_correction_type   multi-scan
_exptl_absorpt_process_details
;
Data were collected and reduced by program CrysAlisPro, 
and SCALE3 ABSPACK was used for absorption correction
;
_exptl_crystal_colour            orange/yellow
_exptl_crystal_density_diffrn    1.347
_exptl_crystal_description       plate
_exptl_crystal_F_000             183
_exptl_crystal_size_max          0.3
_exptl_crystal_size_mid          0.1
_exptl_crystal_size_min          0.1
_refine_diff_density_max         0.914
_refine_diff_density_min         -0.672
_refine_diff_density_rms         0.184
_refine_ls_abs_structure_details
;
 Refined as a perfect inversion twin.
;
_refine_ls_abs_structure_Flack   0.5
_refine_ls_extinction_method     none
_refine_ls_goodness_of_fit_ref   1.442
_refine_ls_hydrogen_treatment    constr
_refine_ls_matrix_type           full
_refine_ls_number_parameters     65
_refine_ls_number_reflns         787
_refine_ls_number_restraints     29
_refine_ls_restrained_S_all      1.419
_refine_ls_R_factor_all          0.2381
_refine_ls_R_factor_gt           0.1850
_refine_ls_shift/su_max          0.000
_refine_ls_shift/su_mean         0.000
_refine_ls_structure_factor_coef Fsqd
_refine_ls_weighting_details
'w=1/[\s^2^(Fo^2^)+(0.2000P)^2^] where P=(Fo^2^+2Fc^2^)/3'
_refine_ls_weighting_scheme      calc
_refine_ls_wR_factor_gt          0.3976
_refine_ls_wR_factor_ref         0.4300
_reflns_Friedel_coverage         1.000
_reflns_Friedel_fraction_full    0.230
_reflns_Friedel_fraction_max     0.198
_reflns_number_gt                460
_reflns_number_total             787
_reflns_threshold_expression     'I > 2\s(I)'
_cod_data_source_file            jz6b02458_si_004.cif
_cod_data_source_block           090GPa_P1
_cod_original_cell_volume        435.4(2)
_cod_database_code               8000377
_shelx_space_group_comment
;
The symmetry employed for this shelxl refinement is uniquely defined
by the following loop, which should always be used as a source of
symmetry information in preference to the above space-group names.
They are only intended as comments.
;
_olex2_refinement_description
;
1. Fixed Uiso
 At 1.2 times of:
  All C(H) groups, All C(H,H) groups
 At 1.5 times of:
  All O(H,H) groups
2. Restrained distances
 O2-C7
 1.23 with sigma of 0.002
 O1-C7
 1.23 with sigma of 0.002
 O2-O1
 2.16 with sigma of 0.002
 C7-C1
 1.48 with sigma of 0.002
 N2-C10
 1.48 with sigma of 0.002
 N2-C12
 1.48 with sigma of 0.002
 N2-C14
 1.48 with sigma of 0.002
 C9-N1
 1.48 with sigma of 0.002
 N1-C11
 1.48 with sigma of 0.002
 N1-C13
 1.48 with sigma of 0.002
 C10-C9
 1.52 with sigma of 0.002
 C12-C11
 1.52 with sigma of 0.002
 C14-C13
 1.52 with sigma of 0.002
 C8-O4
 1.23 with sigma of 0.002
 C4-C8
 1.48 with sigma of 0.002
 C8-O3
 1.23 with sigma of 0.02
 C8-O4
 1.23 with sigma of 0.02
 O4-O3
 2.163 with sigma of 0.002
3. Restrained planarity
 C7, C5, C4, C3, C2, C1, C6, O1, C8, O2, O4
 with sigma of 0.1
4. Uiso/Uaniso restraints and constraints
Uiso(C5) = Uiso(C4) = Uiso(C3) = Uiso(C2) = Uiso(C1) = Uiso(C6)
Uiso(C13) = Uiso(C14) = Uiso(C11) = Uiso(C12) = Uiso(C9) = Uiso(C10)
Uiso(O4) = Uiso(O2) = Uiso(O1) = Uiso(O3)
5.a Rotating group:
 O1W(H1WA,H1WB)
5.b Secondary CH2 refined with riding coordinates:
 C11(H11A,H11B), C9(H9A,H9B), C12(H12A,H12), C10(H10A,H10B), C14(H14A,H14B),
 C13(H13A,H13B)
5.c Aromatic/amide H refined with riding coordinates:
 C5(H5), C3(H3), C2(H2), C6(H6)
5.d Fitted hexagon refined as free rotating group:
 C5(C4,C3,C2,C1,C6)
;
_shelx_hkl_file
;
   7   1   1   18.47   11.91
   7   1   2   -3.69   10.89
   7   1   2   -6.92    9.21
   7   1   3  -14.25   11.91
   7   0   1   -1.11    9.15
   7   0   1   -2.40   10.00
   7   0   2    1.53   10.15
   7   0   2    2.12   10.67
   7   0   3   32.32   14.27
   7   0   3    1.06    9.57
   7  -1   1  -14.04   11.38
   7  -1   2   -0.43    9.65
   7  -2   3   16.47   13.11
   7  -3   2   16.21   11.42
   7  -3   3    8.27   10.39
   6   3   0    7.82   11.71
   6   3   1   23.38   15.11
   6   3   2   43.29   15.69
   6   3   3    1.86   10.22
   6   2   0    4.05    8.86
   6   2   1    9.15    9.04
   6   2   1    5.68   11.13
   6   2   2    7.67    8.93
   6   2   2   16.12   11.14
   6   2   3   11.47   10.88
   6   2   3    8.28   10.11
   6   1   0   13.07    9.09
   6   1   0    9.10   10.48
   6   1   1    7.99   10.08
   6   1   1   20.04   10.67
   6   1   2   18.94   10.73
   6   1   2    9.41    8.97
   6   1   3   10.92    9.44
   6   1   3   24.03   10.55
   6   1   4    8.88   10.05
   6   0   0   17.54   10.14
   6   0   0   36.88   12.69
   6   0   1   20.13   14.24
   6   0   1   32.55   12.26
   6   0   2   36.69   13.78
   6   0   2   36.32   11.98
   6   0   3   24.91   11.90
   6   0   3   22.47   11.71
   6   0   4   55.51   16.34
   6  -1   0   -6.91    8.65
   6  -1   1   23.61   11.18
   6  -1   2    3.71    8.61
   6  -1   3   12.96   12.06
   6  -1   4    1.22    8.86
   6  -1   4    9.45    8.49
   6  -2   1   22.14   10.86
   6  -2   1    8.80    8.71
   6  -2   1    8.06    8.63
   6  -2   2    5.07    7.08
   6  -2   2   18.04   11.53
   6  -2   2   10.14   10.40
   6  -2   3   28.47   13.16
   6  -2   3   13.46    6.76
   6  -2   3    4.47    8.67
   6  -2   4    3.33    8.47
   6  -2   4    0.97    8.27
   6  -2   4    5.51    6.96
   6  -3   1   18.57   11.30
   6  -3   1   21.97   10.50
   6  -3   1    5.33   10.37
   6  -3   2    3.84    8.30
   6  -3   2   26.52   12.50
   6  -3   2   19.84   10.39
   6  -3   3   19.82   11.84
   6  -3   3   28.25   10.24
   6  -3   3   17.03   10.84
   6  -3   4    6.53   11.79
   6  -3   4   -9.16    9.56
   6  -3   4   20.48   12.28
   6  -4   1    4.52    8.30
   6  -4   1   -2.41    9.63
   6  -4   2   15.91   12.25
   6  -4   2   26.48   14.29
   6  -4   2   24.89   14.21
   6  -4   3   12.93   11.82
   6  -4   3    0.82    7.47
   6  -4   3   26.71   16.01
   6  -4   4   34.67   13.96
   6  -4   4    8.07    8.74
   6  -4   4   17.97   15.62
   6  -5   2    0.19   10.32
   5   5  -1    5.77   11.08
   5   5  -1   21.93   13.83
   5   5  -1   14.17   12.10
   5   5   0   23.04   13.59
   5   5   0   13.87   10.34
   5   5   0   -3.50   12.64
   5   5   1   -3.73   10.87
   5   5   1   12.18   10.33
   5   5   1   16.62   14.11
   5   5   2    8.21   11.91
   5   5   2   27.79   12.92
   5   4  -1    6.13   10.64
   5   4  -1  -11.92    9.27
   5   4   0    3.91   11.65
   5   4   0    6.55    8.38
   5   4   0    5.47   10.23
   5   4   1   14.57   18.95
   5   4   1    9.91    9.38
   5   4   2    3.04    8.32
   5   4   2   -0.19    8.65
   5   4   2   12.25   11.77
   5   4   3   14.36   11.25
   5   4   3    6.61    9.31
   5   3  -1    7.49    9.13
   5   3  -1   13.66    8.88
   5   3   0   18.29   10.47
   5   3   0   -1.25    8.12
   5   3   0  -10.26    9.84
   5   3   1   11.80   11.21
   5   3   1    5.98    7.82
   5   3   1    4.58    7.63
   5   3   2   -2.25    9.47
   5   3   2   23.67   11.02
   5   3   3   64.51   15.74
   5   2  -1    5.87    8.14
   5   2  -1   -5.22    8.88
   5   2   0    1.03    7.88
   5   2   0    2.43    7.32
   5   2   1    2.33    7.03
   5   2   1    2.39    8.07
   5   2   2    5.08    6.16
   5   2   2   17.33   10.59
   5   2   3   58.33   13.68
   5   2   3   39.97   12.06
   5   1   0   14.85    9.05
   5   1   0    9.28    7.68
   5   1   1    3.20    6.40
   5   1   1    3.78    9.25
   5   1   2   24.20    9.58
   5   1   2   26.78    9.94
   5   1   3   19.00    9.17
   5   1   3   32.12   10.68
   5   0   0   27.52   10.95
   5   0   0   28.67   10.61
   5   0   1   34.50   11.10
   5   0   1   30.27    9.97
   5   0   2   43.09   11.93
   5   0   2  104.55   18.41
   5   0   3  124.74   18.39
   5   0   3  118.44   17.76
   5   0   4   75.11   15.60
   5  -1   0    8.99    7.24
   5  -1   0   15.59    7.43
   5  -1   0   -2.52    6.43
   5  -1   1   -0.43    8.06
   5  -1   1   10.05    7.16
   5  -1   1   -0.67    5.47
   5  -1   1   18.64    8.69
   5  -1   2  124.56   18.16
   5  -1   2  108.29   19.99
   5  -1   2  103.52   16.98
   5  -1   3   13.18    8.58
   5  -1   3   15.21    8.29
   5  -1   3   11.07    7.11
   5  -1   3    0.56    5.87
   5  -1   4    3.79    6.66
   5  -1   4   11.14    8.30
   5  -1   4   13.06    8.26
   5  -2   0   -3.96    7.57
   5  -2   0   22.46   11.44
   5  -2   0   16.22    8.35
   5  -2   1   15.54    8.60
   5  -2   1    5.98    7.12
   5  -2   1    4.30    6.70
   5  -2   2    8.24    6.98
   5  -2   2    5.35    8.71
   5  -2   2   14.57    8.05
   5  -2   3   19.37    7.91
   5  -2   3   21.00    9.91
   5  -2   3   22.97    8.91
   5  -2   4   -2.77    9.15
   5  -2   4    0.14    9.20
   5  -2   4   10.53    7.90
   5  -3   0    9.43    6.76
   5  -3   0   32.61   11.95
   5  -3   0   14.05    8.63
   5  -3   1    0.53    9.21
   5  -3   1   15.01    9.89
   5  -3   1   11.97    9.47
   5  -3   2   17.13    9.62
   5  -3   2    6.16    7.80
   5  -3   2   14.30    7.67
   5  -3   3   44.57   11.85
   5  -3   3   25.02   10.06
   5  -3   3   12.45    9.97
   5  -3   4   30.05   12.68
   5  -3   4    7.01    8.47
   5  -3   4   23.17   10.22
   5  -4   1   27.72    9.62
   5  -4   1   18.24   10.12
   5  -4   2   -0.04    6.52
   5  -4   2   18.72   10.09
   5  -4   2   12.57    8.63
   5  -4   3    6.07    9.04
   5  -4   3   13.80    8.55
   5  -4   3    6.19    8.34
   5  -4   4   11.30   11.03
   5  -4   4  -15.68    9.17
   5  -4   4   13.30    8.65
   5  -5   1   18.47   11.42
   5  -5   1   -9.08    8.35
   5  -5   2   17.19   11.29
   5  -5   2   16.07   10.24
   5  -5   2    3.22    6.95
   5  -5   3   -4.25    7.54
   5  -5   3   -0.69    8.65
   5  -5   3   -0.29    9.31
   5  -5   4    4.67    9.30
   5  -5   4   22.92   13.00
   5  -5   4    0.33    7.34
   5  -6   1    5.45    8.53
   5  -6   2   12.38   11.40
   5  -6   2    4.59   10.84
   5  -6   2   -7.83   10.76
   5  -6   3   16.63   11.06
   5  -6   3   -1.23    9.28
   5  -6   3  -10.88   11.56
   5  -6   4    5.59    8.88
   5  -6   4    0.79   10.57
   4   6  -1  -15.62   13.87
   4   6  -1    9.42   12.27
   4   6   0    9.57   13.46
   4   6   0   -8.02   10.82
   4   6   1   10.15   13.46
   4   6   1    5.50    9.30
   4   6   2   -0.90   13.02
   4   6   2    9.04   11.05
   4   5  -1   -2.72    9.89
   4   5  -1   -3.30   10.10
   4   5  -1   20.07    9.95
   4   5   0   -0.30    8.77
   4   5   0    7.86    9.63
   4   5   0  -15.74   10.65
   4   5   1   -7.73    9.35
   4   5   1  -11.31    8.46
   4   5   1   17.60   12.53
   4   5   2    3.86    9.63
   4   5   2    2.31   10.20
   4   5   2   -3.16    9.56
   4   4  -1  -18.65   10.70
   4   4  -1   10.60    9.66
   4   4  -1    4.04    8.20
   4   4   0   11.94    8.65
   4   4   0   -3.97    9.49
   4   4   0    4.58    7.88
   4   4   1   -1.74    9.63
   4   4   1    7.52    7.08
   4   4   1    9.18   10.02
   4   4   2   25.04    9.10
   4   4   2   -1.94    7.23
   4   4   2   20.55   12.20
   4   4   3   16.66    9.46
   4   3  -1    3.92    6.72
   4   3  -1   -2.05    8.17
   4   3  -1    1.10    6.94
   4   3   0   23.72   11.15
   4   3   0   15.18    8.94
   4   3   0   15.95    9.35
   4   3   1   12.00    7.68
   4   3   1    0.81    8.44
   4   3   2   21.12    9.25
   4   3   2   20.64    9.73
   4   3   2   23.86    8.73
   4   3   3    4.33    6.71
   4   3   3   24.59   10.90
   4   2  -1    1.04    5.72
   4   2  -1    3.03    7.17
   4   2  -1   -2.77    5.28
   4   2   0    3.38    6.48
   4   2   0   12.68    6.48
   4   2   0    7.67    7.16
   4   2   0    6.21    6.87
   4   2   1    3.59    6.36
   4   2   1    4.32    5.34
   4   2   1    6.34    5.75
   4   2   1   10.20    7.74
   4   2   2    6.95    5.71
   4   2   2    1.58    5.46
   4   2   2    6.79    5.48
   4   2   2   20.42    9.81
   4   2   3   26.78    9.76
   4   2   3   16.81    8.38
   4   2   3    2.45    5.03
   4   1  -1    2.53    4.88
   4   1  -1    7.71    7.76
   4   1  -1    3.30    5.63
   4   1   0   14.96    6.66
   4   1   0   26.29    8.64
   4   1   0    3.44    5.05
   4   1   0   16.82    6.76
   4   1   1   16.63    7.98
   4   1   1   29.90    8.49
   4   1   1   13.92    7.25
   4   1   2   15.27    6.97
   4   1   2   32.28    9.72
   4   1   3   -2.17    5.99
   4   1   3    1.22    5.55
   4   0  -1   55.44   10.72
   4   0  -1   60.75    9.47
   4   0  -1   53.72   11.27
   4   0   0   96.18   13.60
   4   0   0   88.37   13.40
   4   0   0   86.03   11.66
   4   0   0   83.23   11.09
   4   0   1  128.61   13.17
   4   0   1  155.81   17.22
   4   0   1  116.28   13.16
   4   0   1  121.68   15.98
   4   0   2   74.14   10.92
   4   0   2   57.80   11.01
   4   0   2   57.43    9.51
   4   0   2   54.77   11.34
   4   0   3  101.56   12.14
   4   0   3  122.91   13.97
   4   0   3  122.82   15.82
   4   0   3  118.04   15.25
   4  -1   0   15.57    5.18
   4  -1   0   26.16    8.95
   4  -1   0   27.72    7.75
   4  -1   0   35.74    8.35
   4  -1   1   21.27    7.80
   4  -1   1   52.95    9.96
   4  -1   1   35.77    9.19
   4  -1   1   38.73    8.73
   4  -1   2   20.94    8.36
   4  -1   2    6.33    4.36
   4  -1   2   13.21    8.34
   4  -1   3   16.09    7.24
   4  -1   3   27.73    9.27
   4  -1   3   18.39    6.97
   4  -1   3   17.85    6.66
   4  -1   4    2.08    5.00
   4  -1   4   11.80    7.16
   4  -2   0   14.06    8.76
   4  -2   0    0.01    7.34
   4  -2   0   11.05    6.47
   4  -2   1   36.47   10.15
   4  -2   1   28.04    8.97
   4  -2   1   31.05    8.76
   4  -2   2   17.34    6.42
   4  -2   2   13.34    5.39
   4  -2   2   12.89    6.94
   4  -2   3   11.06    6.84
   4  -2   3   14.85    7.36
   4  -2   3   13.74    7.29
   4  -2   4   29.85    8.81
   4  -2   4   18.46    7.04
   4  -2   4   10.00    7.12
   4  -3   0   38.52    9.99
   4  -3   0   39.78   10.59
   4  -3   0   32.27   10.19
   4  -3   1   54.10   11.24
   4  -3   1   56.76   12.39
   4  -3   1   47.09   10.63
   4  -3   1   42.04   10.81
   4  -3   2   43.12   10.89
   4  -3   2   38.51   10.78
   4  -3   2   35.91   10.20
   4  -3   2   36.07   10.06
   4  -3   3   33.75   10.84
   4  -3   3   39.95    9.95
   4  -3   3   52.37   11.21
   4  -3   3   30.73    9.73
   4  -3   4   57.62   12.92
   4  -3   4   23.08    9.51
   4  -3   4   35.25   10.68
   4  -3   4   37.33   10.90
   4  -4   0   11.84    7.25
   4  -4   0   10.44    7.28
   4  -4   0   16.37    8.93
   4  -4   1   19.79    9.96
   4  -4   1   16.69    7.60
   4  -4   1   31.61    9.30
   4  -4   1   17.37    7.47
   4  -4   2   46.01   12.09
   4  -4   2   38.20   10.36
   4  -4   2   37.65   10.30
   4  -4   2   46.86   12.97
   4  -4   3   14.20    8.16
   4  -4   3    6.77    8.02
   4  -4   3    5.16    7.71
   4  -4   4    1.06    7.44
   4  -4   4    4.53    7.33
   4  -4   4    4.48    8.06
   4  -5   0   -1.11    7.76
   4  -5   1   29.50   10.57
   4  -5   1   23.55   11.30
   4  -5   1   14.77    8.56
   4  -5   2   11.12    8.24
   4  -5   2   11.27    7.39
   4  -5   2    4.82    8.02
   4  -5   3    9.39    9.69
   4  -5   3    3.28    9.04
   4  -5   3    8.25    8.36
   4  -5   4   13.95    7.99
   4  -5   4    5.11   10.17
   4  -5   4    4.10    8.72
   4  -6   1   16.34   12.53
   4  -6   1   18.36    9.15
   4  -6   1   11.94   10.10
   4  -6   2    7.72    9.64
   4  -6   2   19.68   12.01
   4  -6   2   24.45   11.05
   4  -6   3   19.85    8.95
   4  -6   3   16.42   12.43
   4  -6   4   27.11   11.93
   4  -6   4    2.81    9.59
   4  -6   4   35.68   14.85
   4  -7   1    6.30   10.08
   4  -7   1    6.42    9.78
   4  -7   2   36.85   12.76
   4  -7   2   20.70   13.24
   4  -7   2   18.33   16.76
   4  -7   3   -1.75    8.08
   4  -7   3   10.98   10.97
   4  -7   4   -0.09    8.07
   3   7  -2   24.98   15.45
   3   7  -2   10.37   13.27
   3   7  -1    1.39   10.75
   3   7  -1   11.59   12.97
   3   7   0    7.12   11.20
   3   7   0    8.23   11.50
   3   7   1    1.98   14.57
   3   7   1    3.52   11.65
   3   6  -2   18.94   10.73
   3   6  -2   22.64   14.82
   3   6  -1   -0.58    9.17
   3   6  -1    7.43    8.94
   3   6   0   -9.70    9.41
   3   6   0   46.77   14.99
   3   6   1   27.73   13.64
   3   6   1   41.68   14.30
   3   6   2   25.45   12.70
   3   6   2    4.52    9.23
   3   5  -2   23.17   10.46
   3   5  -2    3.67    8.94
   3   5  -1    5.46    8.21
   3   5  -1    7.42    9.68
   3   5   0    1.72    7.71
   3   5   0    4.63    8.90
   3   5   0   16.46    9.00
   3   5   1   -3.07    8.33
   3   5   1    9.25    7.45
   3   5   2  -12.86   10.36
   3   5   2    1.36    7.43
   3   4  -2   22.28    9.95
   3   4  -2   23.74    9.25
   3   4  -2    8.16    8.04
   3   4  -1   21.33   10.53
   3   4  -1   18.29    9.24
   3   4  -1   17.49    8.86
   3   4   0   23.64    9.18
   3   4   0   22.21    8.61
   3   4   0   24.24    9.83
   3   4   1   58.05   13.40
   3   4   1   52.06   12.24
   3   4   1   47.80   12.33
   3   4   2   66.85   15.25
   3   4   2   59.91   13.26
   3   4   2   52.59   13.50
   3   3  -2   69.27   13.25
   3   3  -2   66.38   12.65
   3   3  -1   33.03   10.25
   3   3  -1   38.82    9.66
   3   3  -1   40.50   10.89
   3   3   0   75.45   13.61
   3   3   0   79.10   14.28
   3   3   0   82.25   13.60
   3   3   1   78.19   13.17
   3   3   1   91.28   14.79
   3   3   1   98.92   15.56
   3   3   2   82.05   12.93
   3   3   2   85.63   14.68
   3   3   2   94.15   14.27
   3   2  -1   26.41    6.55
   3   2  -1   28.21    8.81
   3   2  -1   25.31    8.26
   3   2  -1   29.89    7.36
   3   2   0   24.51    6.90
   3   2   0   24.09    6.90
   3   2   0   35.16    7.89
   3   2   0   21.16    8.58
   3   2   1   51.16   10.09
   3   2   1   31.80    7.57
   3   2   1   44.93    9.66
   3   2   1   39.64    8.00
   3   2   2   99.00   12.75
   3   2   2   91.53   12.25
   3   2   2   98.80   13.61
   3   2   2   82.56   10.98
   3   2   3   31.33    8.79
   3   2   3   36.77    9.95
   3   1  -1   72.55   11.22
   3   1  -1   59.54    9.14
   3   1  -1   72.06   11.03
   3   1  -1   41.11    6.23
   3   1   0   56.72    6.58
   3   1   0   64.18   10.56
   3   1   0   42.88    5.68
   3   1   0   59.84    8.80
   3   1   0   50.98    8.90
   3   1   0   62.01    9.21
   3   1   1   84.29    9.86
   3   1   1  109.01   13.16
   3   1   1   89.94    8.51
   3   1   1  101.15    9.29
   3   1   1  117.03   12.47
   3   1   1   92.92   10.52
   3   1   2  285.23   18.07
   3   1   2  304.49   19.40
   3   1   2  317.62   22.04
   3   1   2  310.25   19.88
   3   1   2  323.08   16.80
   3   1   3   98.96   11.31
   3   1   3  100.57   12.46
   3   1   3   97.26   10.06
   3   1   3   87.41   10.80
   3   0  -1  276.40   19.38
   3   0  -1  261.82   16.20
   3   0  -1  293.23   20.29
   3   0   0  245.79   15.56
   3   0   0  228.82   17.09
   3   0   0  256.94   15.22
   3   0   0  267.05   18.85
   3   0   0  250.41   15.89
   3   0   1  317.47   15.47
   3   0   1  313.60   17.20
   3   0   1  324.88   20.43
   3   0   1  299.08   14.91
   3   0   1  337.50   20.99
   3   0   1  308.58   17.21
   3   0   2  725.02   27.18
   3   0   2  734.51   27.25
   3   0   2  635.14   23.13
   3   0   2  748.60   31.08
   3   0   2  720.17   23.17
   3   0   2  732.59   31.29
   3   0   3  244.55   18.28
   3   0   3  223.89   13.72
   3   0   3  250.27   16.94
   3   0   3  238.70   18.37
   3  -1   0   55.34    7.94
   3  -1   0   73.59   10.78
   3  -1   0   52.08    8.06
   3  -1   0   61.22    8.23
   3  -1   1  140.27   12.20
   3  -1   1  136.54   12.90
   3  -1   1  126.20   13.48
   3  -1   1  145.15   12.47
   3  -1   1  150.70   13.45
   3  -1   2  385.06   21.66
   3  -1   2  368.92   22.55
   3  -1   2  387.87   20.66
   3  -1   2  401.87   22.49
   3  -1   2  420.40   20.08
   3  -1   3   97.27   11.36
   3  -1   3   95.02   11.45
   3  -1   3  108.02   10.85
   3  -1   3   96.20   12.06
   3  -2   0   56.52    7.83
   3  -2   0   35.51    7.48
   3  -2   0   39.04    8.08
   3  -2   0   63.48   10.92
   3  -2   0   49.03    8.52
   3  -2   1   24.43    5.85
   3  -2   1   33.98    8.00
   3  -2   1   30.99    5.85
   3  -2   1   28.25    7.79
   3  -2   1   32.19    6.97
   3  -2   2  204.49   17.46
   3  -2   2  187.02   13.14
   3  -2   2  207.41   17.11
   3  -2   2  216.36   17.14
   3  -2   2  202.56   16.93
   3  -2   3   49.80    9.95
   3  -2   3   39.01    8.29
   3  -2   3   31.47    7.90
   3  -2   3   29.46    7.18
   3  -3   0   63.78   11.40
   3  -3   0   81.81   12.41
   3  -3   0   66.16   10.80
   3  -3   0   65.30   10.52
   3  -3   1  103.95   14.36
   3  -3   1  118.02   15.00
   3  -3   1  123.95   14.10
   3  -3   1  100.68   13.22
   3  -3   2  210.84   19.49
   3  -3   2  212.73   18.87
   3  -3   2  204.15   17.33
   3  -3   2  207.38   19.86
   3  -3   3   64.94   10.36
   3  -3   3   77.44   12.61
   3  -3   3   81.31   12.45
   3  -3   3   74.88   11.61
   3  -3   4   64.75   11.19
   3  -3   4   82.33   13.93
   3  -4   0   82.85   14.95
   3  -4   0   91.92   13.57
   3  -4   0   48.10   10.44
   3  -4   1   43.96   10.34
   3  -4   1   67.31   12.02
   3  -4   1   73.49   14.52
   3  -4   2   98.12   16.93
   3  -4   3   72.71   14.57
   3  -4   3   55.81   11.82
   3  -4   3   46.45   10.24
   3  -4   4   38.13    9.16
   3  -4   4   31.61    9.30
   3  -4   4   39.11    9.88
   3  -5   0   10.53    8.24
   3  -5   0    0.54    5.80
   3  -5   0    1.99    5.87
   3  -5   1    4.87    6.89
   3  -5   1   20.55    9.40
   3  -5   1   -2.21    7.08
   3  -5   2   20.74    9.68
   3  -5   2   55.41   13.97
   3  -5   2   30.73   11.04
   3  -5   3   13.91    8.01
   3  -5   3    8.64    5.90
   3  -5   3   14.29    8.82
   3  -5   4   14.22   10.77
   3  -5   4   20.98    7.28
   3  -5   4   27.42   10.61
   3  -6   0   26.05   12.31
   3  -6   0    8.98    7.84
   3  -6   1   37.51   13.01
   3  -6   1   15.33    7.38
   3  -6   1   37.85   11.12
   3  -6   2   41.22   11.27
   3  -6   2   48.96   14.12
   3  -6   2   43.48   13.53
   3  -6   3   22.68    9.89
   3  -6   3   28.96   11.01
   3  -6   4   22.82   10.83
   3  -6   4   12.19    6.44
   3  -6   4   13.70    8.37
   3  -7   1   17.65   11.54
   3  -7   2   46.06   15.75
   3  -7   3    8.85   10.80
   3  -7   4   14.31   12.38
   2   8  -2  -12.62   13.81
   2   8  -1  -27.26   15.96
   2   8  -1    3.71   11.02
   2   8   0  -12.03   10.61
   2   8   0    8.79   11.22
   2   7  -2  -11.03   11.43
   2   7  -2    0.47   11.29
   2   7  -2   11.28   12.41
   2   7  -1   10.07   12.79
   2   7  -1   20.07   13.76
   2   7  -1    3.94    9.99
   2   7   0  -20.22    9.61
   2   7   0   -7.94    9.27
   2   7   1   15.79   12.14
   2   7   1    7.66    9.07
   2   7   1   11.50    9.39
   2   6  -2   30.81   11.25
   2   6  -2   13.35   11.05
   2   6  -2   21.05   10.00
   2   6  -1   25.46   11.59
   2   6  -1   28.16   11.96
   2   6  -1   27.02   10.96
   2   6   0   26.12   12.37
   2   6   0   23.05   11.20
   2   6   0   16.04   10.55
   2   6   1   19.50   11.74
   2   6   1   24.40   11.98
   2   6   1   28.68   11.43
   2   5  -2   13.33    9.62
   2   5  -2    7.60    7.88
   2   5  -2    1.21    8.01
   2   5  -1   10.06    8.31
   2   5  -1   -6.74    7.94
   2   5  -1    4.26    7.93
   2   5   0   -5.13    7.87
   2   5   0    2.37    6.74
   2   5   0    5.39    7.50
   2   5   1    2.09    7.85
   2   5   1   -0.27    7.09
   2   5   1   -1.14    5.90
   2   5   2   18.68    8.42
   2   5   2   18.56    7.41
   2   5   2   29.14    8.09
   2   4  -2   23.15    6.23
   2   4  -2   28.78    8.49
   2   4  -2   46.44   10.72
   2   4  -2   40.30   11.00
   2   4  -1    8.35    6.64
   2   4  -1   10.64    6.04
   2   4  -1   10.82    6.23
   2   4  -1    9.49    6.14
   2   4   0  106.82   13.90
   2   4   0   92.64   12.94
   2   4   0   83.59   12.66
   2   4   0   96.85   14.54
   2   4   1   54.96   11.69
   2   4   1   50.28    9.49
   2   4   1   41.21    8.33
   2   4   1   67.38   13.09
   2   4   2  202.97   18.53
   2   4   2  179.25   20.18
   2   4   2  172.45   18.80
   2   3  -2   11.97    6.85
   2   3  -2   19.72    6.54
   2   3  -2   15.33    6.37
   2   3  -1   28.02    7.50
   2   3  -1   27.33    7.91
   2   3  -1   32.08    7.68
   2   3  -1   29.54    8.33
   2   3   0   36.72    7.98
   2   3   0   28.98    7.34
   2   3   0   24.63    7.20
   2   3   0   32.15    8.30
   2   3   1   65.35   10.55
   2   3   1   99.90   12.93
   2   3   1   90.55   11.04
   2   3   1   86.23   11.66
   2   3   2  222.33   19.15
   2   3   2  213.78   16.90
   2   3   2  218.01   17.98
   2   3   2  212.94   18.71
   2   2  -1   27.66    6.00
   2   2  -1   18.91    6.37
   2   2  -1   24.40    5.31
   2   2  -1   20.53    4.93
   2   2  -1    8.11    4.38
   2   2   0  121.99    9.95
   2   2   0  127.85   10.20
   2   2   0  116.98   11.49
   2   2   0  123.89   12.26
   2   2   0  106.19   11.61
   2   2   1   15.14    5.25
   2   2   1    5.79    3.63
   2   2   1   15.16    4.03
   2   2   1   17.93    5.04
   2   2   1   14.79    4.13
   2   2   2  178.17   15.35
   2   2   2  177.82   14.93
   2   2   2  173.49   12.36
   2   2   2  184.44   15.32
   2   1  -1   71.02    8.90
   2   1  -1   61.59    7.53
   2   1  -1   64.10    8.06
   2   1  -1   61.63    7.86
   2   1   0  155.10   11.13
   2   1   0  140.07   11.06
   2   1   0  141.67   12.12
   2   1   0  143.34   10.78
   2   1   1  225.00   14.65
   2   1   1  222.12   13.24
   2   1   1  206.06   13.23
   2   1   1  226.27   13.71
   2   1   2  275.60   12.81
   2   1   2  306.38   16.20
   2   1   2  283.99   17.16
   2   1   2  289.86   16.02
   2   1   2  287.82   15.85
   2   0  -1   25.61    5.26
   2   0   0  564.14   18.79
   2   0   0  545.42   20.94
   2   0   0  523.63   20.88
   2   0   0  552.60   17.68
   2   0   1   78.17    7.86
   2   0   1   78.08    7.04
   2   0   1   71.30    7.89
   2   0   1   77.62    7.11
   2   0   2  428.96   17.09
   2   0   2  418.83   17.52
   2   0   2  417.91   18.78
   2   0   2  437.57   19.44
   2  -1   0  142.75   10.89
   2  -1   0  145.59    9.57
   2  -1   0  131.15    9.91
   2  -1   0  152.12   11.34
   2  -1   0  123.93   10.35
   2  -1   1  166.93   11.68
   2  -1   1  156.49   10.78
   2  -1   1  162.48   11.69
   2  -1   1  153.47   10.96
   2  -1   2  169.75   11.36
   2  -1   2  171.14   12.04
   2  -1   2  171.72   12.58
   2  -1   2  138.44    9.79
   2  -1   2  162.02   11.88
   2  -2   0   11.89    4.28
   2  -2   0    7.27    3.81
   2  -2   0    7.70    4.40
   2  -2   0   11.26    3.97
   2  -2   1   36.86    6.40
   2  -2   1   34.59    5.18
   2  -2   1   35.02    6.44
   2  -2   1   40.50    6.96
   2  -2   1   37.99    6.05
   2  -2   2   52.57    7.66
   2  -2   2   66.59    8.86
   2  -2   2   54.01    7.20
   2  -2   2   57.10    8.27
   2  -2   3   48.56    8.35
   2  -2   3   47.71    7.60
   2  -2   3   50.94    8.55
   2  -3   0   48.07    7.78
   2  -3   0   35.92    8.19
   2  -3   0   46.42    7.91
   2  -3   0   55.00    7.31
   2  -3   0   39.95    7.48
   2  -3   1   55.65    8.38
   2  -3   1   55.50    8.58
   2  -3   1   61.11    9.13
   2  -3   1   61.38    7.83
   2  -3   1   61.06    9.96
   2  -3   2   76.03    9.90
   2  -3   2   83.26   12.04
   2  -3   2   69.76    9.89
   2  -3   2   69.14    8.27
   2  -3   3   66.87    9.70
   2  -3   3   74.92   11.54
   2  -3   3   80.48   11.19
   2  -4   0   39.95    8.00
   2  -4   0   37.42    7.83
   2  -4   0   51.97   10.95
   2  -4   0   43.37    9.38
   2  -4   1   76.00   12.80
   2  -4   1   76.33   11.47
   2  -4   1   57.47   10.24
   2  -4   1   69.19   10.51
   2  -4   2   65.70   12.17
   2  -4   2   50.01   10.84
   2  -4   2   54.51    9.75
   2  -4   2   48.17    9.62
   2  -4   3   47.12   10.10
   2  -4   3   45.17    9.18
   2  -4   3   52.27   10.53
   2  -4   4   60.23   12.10
   2  -4   4   65.92   11.41
   2  -5   0    6.79    4.78
   2  -5   0    5.24    7.50
   2  -5   0   10.29    6.52
   2  -5   0   25.72    9.57
   2  -5   1    3.86    6.27
   2  -5   1    4.95    5.64
   2  -5   1   17.42    8.53
   2  -5   1    2.07    4.44
   2  -5   2   -0.90    5.85
   2  -5   2   12.74    5.28
   2  -5   2   10.30    8.30
   2  -5   2   14.55    8.41
   2  -5   3    7.77   13.25
   2  -5   3    0.38    4.61
   2  -5   3   22.30   12.07
   2  -5   3   29.16   16.82
   2  -5   4   -2.49    7.11
   2  -5   4   10.17    7.70
   2  -6   0   16.79    9.05
   2  -6   0   28.65   10.08
   2  -6   1   16.47    7.99
   2  -6   1   23.27   10.25
   2  -6   2    9.09    7.78
   2  -6   2   -0.73    6.68
   2  -6   3   18.45    9.77
   2  -6   3   13.57   10.85
   2  -6   4   18.07    8.59
   2  -6   4   22.59   11.26
   2  -7   0   19.11   12.65
   2  -7   1    5.02    7.70
   2  -7   1    0.44    8.48
   2  -7   2   11.84   11.06
   2  -7   2   -4.68    8.28
   2  -7   3    5.08   12.46
   2  -7   3   -0.25    8.77
   2  -7   4   -1.02    8.76
   2  -7   4   23.79   12.75
   2  -8   1    1.19   10.03
   2  -8   1   17.74   12.93
   2  -8   2   16.09   12.70
   2  -8   2   25.08   12.77
   2  -8   3   13.58   12.81
   2  -8   4   12.65   14.30
   1   8  -2   -5.29   11.27
   1   8  -1   -7.38   12.71
   1   8   0    9.89   14.62
   1   8   0   -5.02   11.70
   1   7  -3   -1.47    9.60
   1   7  -3  -11.45    8.94
   1   7  -2    7.70    9.99
   1   7  -2   11.42   10.13
   1   7  -2    6.72   10.50
   1   7  -1   21.34   13.39
   1   7  -1   13.94    9.21
   1   7  -1    7.20    9.79
   1   7   0    2.67    8.79
   1   7   0   11.48   11.82
   1   7   0   12.86    8.71
   1   7   1    8.17    9.07
   1   7   1   12.47   11.42
   1   6  -3   11.66    9.59
   1   6  -3   -0.02    8.26
   1   6  -3   14.56   12.22
   1   6  -2    1.89    8.01
   1   6  -2    7.34    8.62
   1   6  -1    3.01    8.76
   1   6  -1    2.24    8.86
   1   6   0    9.15    8.44
   1   6   0   18.82    9.39
   1   6   0    4.69    7.51
   1   6   1   21.55    9.03
   1   6   1    1.47    7.43
   1   6   1   31.48   13.30
   1   5  -3   -3.28    8.05
   1   5  -3    9.95    8.03
   1   5  -2   -8.03    7.67
   1   5  -2   -0.97    6.76
   1   5  -1   10.03    6.58
   1   5  -1    4.05    6.52
   1   5  -1   18.89   12.54
   1   5   0   22.03    9.28
   1   5   0   32.17   10.08
   1   5   0   28.71    9.52
   1   5   1  470.42   33.77
   1   4  -2   44.53   10.03
   1   4  -2   30.85    8.14
   1   4  -2   49.80   10.96
   1   4  -1   25.84    6.54
   1   4  -1   23.73    8.16
   1   4  -1   13.59    4.91
   1   4  -1   15.76    5.16
   1   4  -1   11.45    6.06
   1   4   0   16.63    6.52
   1   4   0   13.18    5.58
   1   4   0   13.07    6.09
   1   4   0   17.67    6.81
   1   4   0   13.95    4.43
   1   4   1   16.65    4.78
   1   4   1   23.52    6.97
   1   4   1   31.59    6.17
   1   4   1   41.05    9.04
   1   3  -2   68.50   10.29
   1   3  -2   56.60    8.97
   1   3  -2   56.61    7.48
   1   3  -2   53.07    8.77
   1   3  -1   68.03    8.08
   1   3  -1   83.48   10.69
   1   3  -1   68.78   10.41
   1   3  -1   79.94    8.89
   1   3  -1   79.69    9.85
   1   3   0  167.33   11.14
   1   3   0  154.95   14.39
   1   3   0  157.89   11.71
   1   3   0  163.78   14.07
   1   3   0  177.26   15.30
   1   3   1   87.93    8.31
   1   3   1   84.09   10.35
   1   3   1  104.67   11.82
   1   3   1   73.01   10.10
   1   3   1   82.34    8.71
   1   2  -1   56.40    7.52
   1   2  -1   69.73    7.21
   1   2  -1   64.71    7.71
   1   2  -1   63.69    8.06
   1   2   0   16.72    4.48
   1   2   0   14.54    4.51
   1   2   0   11.03    3.07
   1   2   0   17.03    4.25
   1   2   1   48.12    6.93
   1   2   1   52.75    6.41
   1   2   1   55.12    6.80
   1   2   1   45.43    5.93
   1  -2   0 1005.69   28.88
   1  -2   0  938.49   25.47
   1  -2   0  957.12   24.03
   1  -2   0  940.48   24.68
   1  -2   1  101.64    9.33
   1  -2   1  100.55    8.06
   1  -2   1  101.50    8.12
   1  -2   2   46.88    5.80
   1  -2   2   46.18    6.54
   1  -2   2   48.27    6.14
   1  -3  -1  117.58   12.67
   1  -3   0  614.32   22.97
   1  -3   0  685.74   28.67
   1  -3   0  662.99   26.97
   1  -3   0  642.95   22.87
   1  -3   1  269.32   13.18
   1  -3   1  295.68   13.68
   1  -3   1  325.64   19.92
   1  -3   1  312.01   16.65
   1  -3   1  296.19   18.19
   1  -3   1  288.77   15.50
   1  -3   2   54.99    7.19
   1  -3   2   57.06    8.87
   1  -3   2   64.09    7.58
   1  -3   3   25.00    7.06
   1  -3   3   17.52    5.23
   1  -4  -1   42.82    7.92
   1  -4  -1   67.62    8.59
   1  -4  -1   78.65   12.15
   1  -4   0  323.14   22.97
   1  -4   0  306.26   18.61
   1  -4   0  327.22   23.51
   1  -4   0  282.53   17.32
   1  -4   1   16.14    4.41
   1  -4   1    9.92    4.46
   1  -4   1   13.51    6.22
   1  -4   1    9.49    4.43
   1  -4   1   15.69    6.43
   1  -4   1   11.14    4.62
   1  -4   2   30.90    8.19
   1  -4   2   19.55    5.13
   1  -4   2   19.64    5.81
   1  -4   3   29.63    8.54
   1  -4   3   18.47    6.00
   1  -5  -1   36.73    8.06
   1  -5  -1   33.27    7.88
   1  -5  -1   22.48    5.35
   1  -5   0  196.74   20.75
   1  -5   0  159.93   18.82
   1  -5   1   67.69   12.86
   1  -5   1   59.15   11.54
   1  -5   2    5.59    6.30
   1  -5   2   -0.75    5.97
   1  -5   3   -0.20    7.25
   1  -6   0  142.95   20.89
   1  -6   0  136.22   20.21
   1  -6   1    3.25    6.68
   1  -6   1    4.50    7.84
   1  -6   2    1.41    6.69
   1  -6   2    9.03    7.01
   1  -6   3    6.61    8.74
   1  -6   3    0.24    7.30
   1  -6   4   -5.35    7.41
   1  -7   0   45.69   14.74
   1  -7   0   34.88   14.57
   1  -7   1   24.71   13.25
   1  -7   1   -2.10    8.82
   1  -7   2   19.13   11.33
   1  -7   2    5.11    8.13
   1  -7   3    8.55    8.15
   1  -7   3    9.25   10.83
   1  -7   4   -0.22    8.04
   1  -7   4   29.39   14.04
   1  -8   0   -5.18   13.03
   1  -8   1    5.55   10.90
   1  -8   1    3.49   10.36
   1  -8   2   17.31   13.11
   1  -8   2   21.53   11.98
   1  -8   3    5.14   10.77
   1  -8   3   -3.69   10.15
   0   8  -3    5.31   11.27
   0   8  -2   43.19   15.87
   0   8  -1   18.08   11.41
   0   8   0    8.45   11.19
   0   7  -3   30.47   11.76
   0   7  -2   -1.66   10.04
   0   7  -1   26.52   11.91
   0   7   0   24.51   10.78
   0   7   1    5.08    8.16
   0   6  -3    1.23    6.70
   0   6  -3   24.35   11.09
   0   6  -2   31.46   11.56
   0   6  -2   16.06    9.39
   0   6  -1   23.61    9.33
   0   6  -1   34.84   10.62
   0   6  -1   21.12    7.79
   0   6   0   36.35    9.64
   0   6   0   51.17   13.70
   0   6   0   62.27   14.63
   0   6   0   44.87   14.03
   0   6   1   13.34    7.98
   0   6   1   16.81    8.92
   0   6   1   28.99   11.16
   0   5  -3   14.60    5.48
   0   5  -3   33.65   10.23
   0   5  -3   26.84    8.75
   0   5  -2   12.92    8.04
   0   5  -2   19.60    6.98
   0   5  -2   20.33    6.67
   0   5  -2    9.99    6.99
   0   5  -1   68.36   10.87
   0   5  -1   81.38   12.64
   0   5  -1   67.44   11.99
   0   5  -1   81.68   14.29
   0   5   0  128.05   15.08
   0   5   0  139.68   16.06
   0   5   0  169.65   18.79
   0   5   0  125.50   16.24
   0   5   1   96.43   13.52
   0   5   1  122.46   16.37
   0   5   1  104.91   13.19
   0   4  -3   40.23    8.91
   0   4  -3   44.44    8.85
   0   4  -2   27.05    7.48
   0   4  -2   31.62    7.07
   0   4  -2   17.81    7.72
   0   4  -2   24.65    6.63
   0   4  -1   48.63    9.08
   0   4  -1   26.36    6.07
   0   4  -1   32.89    7.94
   0   4  -1   30.06    6.57
   0   4   0  172.80   15.15
   0   4   0  159.25   14.61
   0   4   0  169.99   15.92
   0   4   0  176.83   15.77
   0   4   1    4.04    4.11
   0   4   1    6.43    4.31
   0   4   1    4.66    4.74
   0   3  -2   93.82   10.07
   0   3  -2  114.46   11.36
   0   3  -2  118.85   12.72
   0   3  -2  110.42    9.09
   0   3  -2  106.17   10.40
   0   3  -1  416.78   19.86
   0   3  -1  435.45   19.85
   0   3  -1  413.54   21.83
   0   3  -1  452.22   16.30
   0   3  -1  443.89   19.70
   0   3   0 1045.66   30.52
   0   3   0 1020.42   30.21
   0   3   0  987.50   32.99
   0   3   0 1062.09   30.57
   0   3   1  641.38   24.01
   0   3   1  597.10   26.42
   0   3   1  546.44   22.80
   0   2  -2   62.03    7.02
   0   2  -1   84.99    7.06
   0   2  -1   89.87    8.23
   0   2   0 2497.59   40.84
   0  -2  -1   12.47    3.65
   0  -2   0 2370.19   38.57
   0  -2   0 2461.90   37.70
   0  -2   0 2456.77   41.63
   0  -2   1  116.82    8.39
   0  -2   1  113.44    8.86
   0  -3  -1  561.04   24.37
   0  -3  -1  567.40   26.02
   0  -3   0  969.97   33.52
   0  -3   0 1038.38   32.30
   0  -3   0  992.64   30.62
   0  -3   1  429.58   19.89
   0  -3   1  417.12   20.74
   0  -3   2  113.97   10.60
   0  -3   2  135.67   12.42
   0  -3   2  130.07    9.47
   0  -4  -1    7.31    5.05
   0  -4  -1    2.68    4.13
   0  -4   0  154.32   14.92
   0  -4   0  187.69   16.60
   0  -4   0  174.37   17.05
   0  -4   1   39.02    8.21
   0  -4   1   40.45    7.56
   0  -4   1   48.83    9.01
   0  -4   1   36.92    8.29
   0  -4   2   39.49    7.78
   0  -4   2   33.10    8.13
   0  -4   3   41.94    9.25
   0  -5  -1   89.14   13.99
   0  -5   0  137.17   16.81
   0  -5   0  147.43   17.46
   0  -5   0  153.90   18.78
   0  -5   1   68.30   12.17
   0  -5   1   74.16   12.45
   0  -5   1   79.87   12.67
   0  -5   1   61.77   12.60
   0  -5   2   26.46    8.44
   0  -5   2   21.09    9.17
   0  -5   3   37.17    9.69
   0  -6  -1   37.57   13.34
   0  -6   0   49.73   12.99
   0  -6   0   41.01   12.18
   0  -6   0   20.90    9.78
   0  -6   1   38.74   12.12
   0  -6   1   22.27    8.62
   0  -6   1   34.05   10.96
   0  -6   1   43.64   12.85
   0  -6   2   36.21   11.30
   0  -6   2   24.56   10.77
   0  -6   3   20.34   10.01
   0  -7  -1   -8.90   12.70
   0  -7   0   26.60   13.32
   0  -7   1   11.08   11.96
   0  -7   2    5.75   10.08
   0  -7   3   14.23   11.75
   0  -8   0    8.25   15.42
   0  -8   1   20.41   12.56
   0  -8   2    1.05    9.64
  -1   8  -3   -5.30   11.41
  -1   8  -3    0.45   10.84
  -1   8  -2   23.73   12.29
  -1   8  -2   17.34   12.24
  -1   8  -1   19.51   11.35
  -1   8  -1   17.89   11.15
  -1   8   0   41.76   15.00
  -1   8   0   26.82   13.71
  -1   7  -3    5.92    9.47
  -1   7  -3   21.21   10.30
  -1   7  -2   12.49   11.63
  -1   7  -2    6.17    9.77
  -1   7  -1    9.45   11.07
  -1   7  -1   18.10   12.02
  -1   7   0   32.35   13.17
  -1   7   0   45.32   15.10
  -1   6  -3   26.62   11.28
  -1   6  -3    7.57    7.97
  -1   6  -2   15.87   10.43
  -1   6  -2    2.40    6.51
  -1   6  -1   11.95    9.56
  -1   6  -1   -4.97    6.75
  -1   6   0  142.07   19.46
  -1   6   0  138.09   18.69
  -1   5  -3    3.47    7.99
  -1   5  -3    0.03    5.97
  -1   5  -2    0.09    7.02
  -1   5  -2   -2.27    5.67
  -1   5  -1   65.31   12.76
  -1   5  -1   53.30   11.09
  -1   5   0  179.95   19.48
  -1   5   0  157.92   18.60
  -1   5   1   34.07    9.53
  -1   5   1   37.37    9.54
  -1   4  -3   30.19    7.02
  -1   4  -3   25.81    7.72
  -1   4  -3   38.76    8.77
  -1   4  -2   27.50    6.40
  -1   4  -2   21.43    6.46
  -1   4  -2   26.81    6.61
  -1   4  -2   17.53    5.15
  -1   4  -2   30.86    8.13
  -1   4  -1   11.24    4.19
  -1   4  -1   23.98    5.49
  -1   4  -1   26.06    6.76
  -1   4  -1    9.91    4.63
  -1   4  -1   30.51    6.30
  -1   4  -1   17.62    6.39
  -1   4   0  327.92   22.06
  -1   4   0  343.16   18.35
  -1   4   0  304.17   20.90
  -1   4   0  331.01   20.26
  -1   4   0  320.56   18.50
  -1   4   1   81.51   11.71
  -1   4   1   76.52    9.35
  -1   4   1   93.26   12.84
  -1   4   1   83.56   10.46
  -1   3  -3   16.16    4.74
  -1   3  -3   34.22    7.81
  -1   3  -2   68.04    9.74
  -1   3  -2   61.77    7.99
  -1   3  -2   53.02    7.79
  -1   3  -2   67.93    5.80
  -1   3  -2   60.90    9.03
  -1   3  -2   75.06    6.98
  -1   3  -1  277.12   17.48
  -1   3  -1  295.60   18.07
  -1   3  -1  285.87   13.45
  -1   3  -1  313.02   17.28
  -1   3  -1  304.42   16.04
  -1   3   0  632.72   26.21
  -1   3   0  645.22   20.61
  -1   3   0  684.44   24.08
  -1   3   0  675.81   25.23
  -1   3   1  144.92   13.23
  -1   3   1  115.01   11.80
  -1   2  -2   51.79    6.87
  -1   2  -2   60.04    7.12
  -1   2  -2   61.71    7.25
  -1   2  -2   56.20    6.39
  -1   2  -1  120.78    9.59
  -1   2  -1  118.35    9.01
  -1   2  -1  117.63    8.86
  -1   2  -1  121.98    9.36
  -1   2   0  905.89   25.78
  -1   2   0  917.07   24.54
  -1   2   0  916.03   24.17
  -1   2   0  937.60   25.87
  -1  -1   1   36.80    4.97
  -1  -1   1   42.45    5.10
  -1  -2  -1   43.60    6.68
  -1  -2  -1   49.93    6.55
  -1  -2   0   12.81    3.64
  -1  -2   1   72.60    7.37
  -1  -2   1   71.33    8.35
  -1  -3  -1   67.04    9.62
  -1  -3  -1   70.16    9.59
  -1  -3   0  170.61   12.12
  -1  -3   0  195.07   13.43
  -1  -3   0  172.95   15.16
  -1  -3   0  145.28   13.54
  -1  -3   1   82.25    8.77
  -1  -3   1   79.67   10.69
  -1  -3   1   79.57    8.96
  -1  -3   2   57.55    9.15
  -1  -3   2   50.93    8.13
  -1  -4  -1   32.38    9.52
  -1  -4  -1   26.98    7.47
  -1  -4   0   18.12    7.57
  -1  -4   0   24.27    5.59
  -1  -4   0   22.17    5.50
  -1  -4   0   13.30    6.19
  -1  -4   1   15.79    7.22
  -1  -4   1   15.56    4.62
  -1  -4   1   21.18    5.45
  -1  -4   2   61.53   11.39
  -1  -4   2   48.77    8.62
  -1  -5   0   10.63    7.01
  -1  -5   0   13.36    8.03
  -1  -5   1    1.52    5.86
  -1  -5   1   15.62    6.65
  -1  -5   1   -1.17    8.18
  -1  -5   2   12.73    7.69
  -1  -6  -1   12.36    8.25
  -1  -6  -1    9.78    7.82
  -1  -6   0   36.44   11.54
  -1  -6   0    9.25    8.60
  -1  -6   0   25.77   11.18
  -1  -6   1    5.07    7.26
  -1  -6   1    4.98    7.46
  -1  -6   1    0.02    9.21
  -1  -6   2   17.16    9.73
  -1  -6   2    9.82    8.78
  -1  -6   2   25.51   10.91
  -1  -7  -1    7.86    9.62
  -1  -7   0    8.33   10.50
  -1  -7   0   -2.07    8.62
  -1  -7   1   16.20   11.60
  -1  -7   1    3.19    9.40
  -1  -7   1    2.79    9.85
  -1  -7   2    0.49    8.16
  -1  -7   2    2.05    8.26
  -1  -7   2   16.84   12.22
  -1  -7   3    7.46    9.52
  -1  -7   3    7.19   10.00
  -1  -8   0  -15.18   12.36
  -1  -8   1  -15.01   11.09
  -2   8  -4  -11.01   12.44
  -2   8  -3   13.86   13.67
  -2   8  -3    3.81    9.95
  -2   8  -2   10.91   13.93
  -2   8  -2   -8.56   10.34
  -2   8  -1   -8.62   10.40
  -2   8  -1   -1.98    8.80
  -2   7  -4   20.40   12.50
  -2   7  -3    7.54    8.95
  -2   7  -3    0.48    8.30
  -2   7  -2   28.74   12.67
  -2   7  -2   21.25   10.65
  -2   7  -1  -14.17    9.95
  -2   7  -1    6.64    8.54
  -2   7   0   11.25    8.53
  -2   7   0   39.50   14.23
  -2   6  -4   32.87   11.67
  -2   6  -3   41.30   12.99
  -2   6  -3   23.25   10.23
  -2   6  -2    1.87    9.03
  -2   6  -2   26.24    9.27
  -2   6  -1   47.90   13.66
  -2   6  -1    1.82    7.00
  -2   6   0   23.70   10.41
  -2   6   0   22.82   10.69
  -2   5  -4   -0.77    6.20
  -2   5  -4    2.29    8.99
  -2   5  -3    9.07    6.46
  -2   5  -3    9.26    7.83
  -2   5  -3   -3.70    6.53
  -2   5  -3    1.02    5.45
  -2   5  -2    4.40    6.35
  -2   5  -2    4.59    5.12
  -2   5  -2    5.56    6.12
  -2   5  -2   16.57    8.31
  -2   5  -1   14.74    6.65
  -2   5  -1   10.11    6.95
  -2   5  -1    3.83    5.25
  -2   5  -1    7.39    7.16
  -2   5   0    3.17    5.46
  -2   5   0   -0.15    7.04
  -2   5   0    3.17    5.87
  -2   4  -4   72.18   12.96
  -2   4  -4   44.99    9.57
  -2   4  -3   80.41   12.46
  -2   4  -3   68.86   11.97
  -2   4  -3   73.32   12.69
  -2   4  -3   71.28   11.40
  -2   4  -2   58.99   11.40
  -2   4  -2   37.90    8.44
  -2   4  -2   51.27   10.18
  -2   4  -2   41.95    8.83
  -2   4  -1   80.11   12.68
  -2   4  -1   69.24   10.87
  -2   4  -1   63.26   10.35
  -2   4  -1   61.96   10.56
  -2   4   0   46.51    9.54
  -2   4   0   36.28    9.14
  -2   4   0   39.52    9.19
  -2   4   0   34.17    8.24
  -2   3  -3   74.89   10.21
  -2   3  -3   77.45   11.05
  -2   3  -3   73.65    9.89
  -2   3  -3   64.76    8.32
  -2   3  -2   57.96    9.21
  -2   3  -2   66.15    8.62
  -2   3  -2   81.30    8.85
  -2   3  -2   63.23    8.90
  -2   3  -2   81.78   10.74
  -2   3  -1   65.53    9.88
  -2   3  -1   61.98    9.71
  -2   3  -1   61.14    9.55
  -2   3  -1   57.09    8.12
  -2   3  -1   58.22    7.24
  -2   3   0   41.25    7.29
  -2   3   0   32.87    6.96
  -2   3   0   47.14    8.25
  -2   3   0   43.66    7.44
  -2   2  -3   48.65    8.60
  -2   2  -3   22.02    4.74
  -2   2  -3   48.10    8.09
  -2   2  -2   62.95    8.39
  -2   2  -2   59.73    8.32
  -2   2  -2   57.49    8.02
  -2   2  -2   33.92    5.78
  -2   2  -2   60.87    7.70
  -2   2  -1   32.27    6.07
  -2   2  -1   31.45    5.95
  -2   2  -1   35.95    6.60
  -2   2  -1   26.14    5.08
  -2   2   0   12.16    4.90
  -2   2   0    7.50    3.64
  -2   2   0    5.80    2.70
  -2   2   0    6.32    3.24
  -2   1  -2  155.73   10.58
  -2   1  -2  148.67   11.48
  -2   1  -2  176.23   12.99
  -2   1  -2  159.34   12.21
  -2   1  -1  143.00    9.45
  -2   1  -1  153.98    9.90
  -2   1  -1  155.55   11.22
  -2   1  -1  161.97   11.53
  -2   1  -1  146.45   11.33
  -2   1   0  117.73    8.73
  -2   1   0  110.50    8.69
  -2   1   0  126.57   10.27
  -2   1   0  134.52   10.36
  -2   1   0  129.35   10.78
  -2   0  -2  426.56   19.12
  -2   0  -2  422.26   18.13
  -2   0  -2  439.59   17.75
  -2   0  -1   85.76    8.61
  -2   0  -1   88.80    7.83
  -2   0  -1   79.51    7.07
  -2   0   0  546.97   21.67
  -2   0   0  565.30   20.88
  -2   0   0  541.56   17.94
  -2   0   0  601.77   20.31
  -2   0   1   13.62    2.64
  -2  -1  -2  272.35   12.81
  -2  -1  -1  184.69   12.64
  -2  -1  -1  185.50   12.46
  -2  -1   0  116.85   10.21
  -2  -1   0  131.11   11.44
  -2  -1   0  129.55   10.20
  -2  -1   1   61.05    7.58
  -2  -1   1   59.26    8.12
  -2  -1   1   48.71    5.85
  -2  -2  -2  194.48   15.15
  -2  -2  -1   11.62    4.00
  -2  -2  -1    4.61    2.43
  -2  -2  -1   14.15    4.24
  -2  -2   0   95.60   11.15
  -2  -2   0  117.04   12.05
  -2  -2   0  106.91    8.95
  -2  -2   1    9.00    3.99
  -2  -2   1   18.71    5.33
  -2  -3  -2  216.33   18.00
  -2  -3  -2  235.01   14.63
  -2  -3  -1  109.40   13.39
  -2  -3  -1   79.47   10.93
  -2  -3   0   21.79    7.12
  -2  -3   0   33.66    7.98
  -2  -3   0   30.60    7.19
  -2  -3   1   27.91    7.57
  -2  -3   1   26.44    7.06
  -2  -3   2   18.87    7.30
  -2  -4  -2  198.18   20.35
  -2  -4  -1   42.70    9.88
  -2  -4  -1   24.73    7.70
  -2  -4   0   84.90   13.61
  -2  -4   0   92.64   15.27
  -2  -4   0   97.08   13.32
  -2  -4   0   83.88   14.16
  -2  -4   1   10.70    7.10
  -2  -4   1    8.89    6.21
  -2  -4   2   22.63    8.42
  -2  -5  -2   19.99    7.63
  -2  -5  -1    0.61    7.27
  -2  -5  -1    5.73    8.89
  -2  -5   0    0.48    5.91
  -2  -5   0    4.43    6.30
  -2  -5   0    4.65    7.01
  -2  -5   1    6.27    6.67
  -2  -5   1   20.44    9.58
  -2  -5   1   -3.01    7.16
  -2  -5   2    6.51    7.79
  -2  -6  -1   22.75    9.25
  -2  -6  -1    6.88    8.33
  -2  -6   0   21.12    8.83
  -2  -6   0   47.94   13.06
  -2  -6   0   39.18   13.30
  -2  -6   1   10.98    8.37
  -2  -6   1   33.03   15.37
  -2  -6   1   25.86   11.54
  -2  -6   2   20.76   11.67
  -2  -6   2    5.43    7.85
  -2  -6   2   22.38   10.64
  -2  -7  -1    8.49    8.37
  -2  -7  -1    8.40   11.07
  -2  -7  -1   36.22   14.29
  -2  -7   0   -9.02   10.84
  -2  -7   0   -3.75    8.22
  -2  -7   0   15.75   11.77
  -2  -7   1   10.45    8.14
  -2  -7   1    7.47   11.09
  -2  -7   1    6.33    9.03
  -2  -7   2   -3.02    9.40
  -2  -7   2   -4.24    9.43
  -2  -7   2   -0.22    9.43
  -3   7  -4   -1.13    8.97
  -3   7  -3   23.57   13.20
  -3   7  -2   46.44   14.61
  -3   7  -1    8.28   10.17
  -3   6  -4   35.19   12.55
  -3   6  -4   25.72   10.82
  -3   6  -4   27.61    9.82
  -3   6  -3   13.18   11.51
  -3   6  -3   52.16   16.27
  -3   6  -3   45.22   12.65
  -3   6  -2   51.64   14.99
  -3   6  -2   31.03   10.55
  -3   6  -2   40.50   12.40
  -3   6  -1   29.42   11.70
  -3   6  -1   22.64    9.56
  -3   6  -1    6.52    7.79
  -3   6   0   28.06   12.19
  -3   6   0   28.27   12.09
  -3   5  -4   25.18   11.82
  -3   5  -4   19.56    7.69
  -3   5  -4   19.36    8.97
  -3   5  -3    7.59    7.67
  -3   5  -3   21.57    8.84
  -3   5  -3   16.54    8.86
  -3   5  -2   37.51   10.99
  -3   5  -2   12.17    9.93
  -3   5  -1  -10.48   10.00
  -3   5  -1   -7.61    6.32
  -3   5   0   12.22    7.98
  -3   5   0   10.70    8.16
  -3   4  -4   40.19   11.29
  -3   4  -4   37.81    9.83
  -3   4  -4   27.90    9.13
  -3   4  -3   54.38   11.57
  -3   4  -3   75.14   13.01
  -3   4  -3   66.60   12.32
  -3   4  -2  189.32   21.73
  -3   4  -1   34.89    9.91
  -3   4  -1   58.16   11.41
  -3   4  -1   60.32   11.80
  -3   4   0   74.50   12.51
  -3   4   0   99.85   14.04
  -3   4   0   62.94   12.59
  -3   3  -4   55.05   10.86
  -3   3  -4   76.62   11.94
  -3   3  -4   62.96   10.50
  -3   3  -3   88.60   13.31
  -3   3  -3   74.00   11.24
  -3   3  -3   69.07   10.31
  -3   3  -3   99.00   13.69
  -3   3  -2  210.98   19.06
  -3   3  -2  209.88   18.05
  -3   3  -2  208.22   19.94
  -3   3  -2  201.44   19.01
  -3   3  -1  105.99   13.70
  -3   3  -1  108.84   12.36
  -3   3  -1  112.70   15.16
  -3   3  -1  100.51   12.89
  -3   3   0   57.31   10.19
  -3   3   0   65.17   10.03
  -3   3   0   64.73   10.56
  -3   3   0   87.60   13.65
  -3   2  -3   32.41    8.40
  -3   2  -3   29.59    7.29
  -3   2  -3   34.17    7.89
  -3   2  -3   51.87    9.41
  -3   2  -2  216.06   16.53
  -3   2  -2  205.08   16.67
  -3   2  -2  223.76   19.09
  -3   2  -2  208.32   17.15
  -3   2  -1   30.79    7.05
  -3   2  -1   37.67    7.54
  -3   2  -1   40.60    8.58
  -3   2  -1   36.88    6.32
  -3   2  -1   35.32    8.04
  -3   2   0   43.63    8.42
  -3   2   0   34.13    7.55
  -3   2   0   34.28    6.59
  -3   2   0   35.51    7.37
  -3   1  -3   91.03   12.04
  -3   1  -3   95.14   11.67
  -3   1  -3   80.96   10.35
  -3   1  -2  350.12   18.32
  -3   1  -2  341.80   21.37
  -3   1  -2  373.93   22.29
  -3   1  -2  393.91   22.08
  -3   1  -1  144.15   11.06
  -3   1  -1  132.10   12.79
  -3   1  -1  121.21   13.36
  -3   1  -1  131.94   13.11
  -3   1  -1  129.46   12.70
  -3   1   0   48.97    8.26
  -3   1   0   67.49    9.17
  -3   1   0   61.54    7.06
  -3   1   0   59.63    8.43
  -3   1   0   69.42   10.38
  -3   0  -3  253.42   18.87
  -3   0  -3  299.20   19.21
  -3   0  -2  744.49   30.95
  -3   0  -2  726.08   28.19
  -3   0  -2  707.39   26.72
  -3   0  -1  332.05   15.87
  -3   0  -1  338.92   17.40
  -3   0  -1  358.85   22.22
  -3   0  -1  351.07   21.53
  -3   0  -1  366.89   19.43
  -3   0  -1  334.85   18.66
  -3   0   0  252.24   18.94
  -3   0   0  242.70   17.88
  -3   0   0  275.20   17.41
  -3   0   0  249.87   15.66
  -3   0   1  297.48   20.76
  -3   0   1  298.63   19.67
  -3   0   1  282.74   16.87
  -3  -1  -3  109.59   12.54
  -3  -1  -3   94.71   10.30
  -3  -1  -2  274.48   17.58
  -3  -1  -2  281.52   19.19
  -3  -1  -2  304.37   16.87
  -3  -1  -1   81.47    9.78
  -3  -1  -1  100.54   11.06
  -3  -1  -1  100.65   13.06
  -3  -1  -1   96.64   11.64
  -3  -1  -1  100.42    9.69
  -3  -1  -1   60.73    7.47
  -3  -1   0   46.96    8.17
  -3  -1   0   57.51   10.65
  -3  -1   0   63.14    9.21
  -3  -1   0   66.99    7.69
  -3  -1   1   38.76    8.66
  -3  -1   1   56.27    8.97
  -3  -1   1   69.26    8.14
  -3  -2  -3   26.05    6.87
  -3  -2  -2   97.92   12.17
  -3  -2  -2   82.65   10.46
  -3  -2  -1   57.71   10.20
  -3  -2  -1   45.46   10.91
  -3  -2  -1   48.75    8.19
  -3  -2   0   30.14    8.00
  -3  -2   0   39.04    9.46
  -3  -2   0   29.59    6.32
  -3  -2   1   32.59    8.50
  -3  -2   1   44.60   11.03
  -3  -3  -2   97.96   15.21
  -3  -3  -1   86.26   15.88
  -3  -3  -1   85.33   15.00
  -3  -3   0  102.45   15.67
  -3  -3   0   88.19   15.46
  -3  -3   1   31.43    9.08
  -3  -3   1   39.13   10.37
  -3  -4  -2   62.93   12.73
  -3  -4  -1   42.22   11.34
  -3  -4  -1   55.60   12.51
  -3  -4   0   34.98   10.15
  -3  -4   0   21.78    8.81
  -3  -4   0   43.57   12.62
  -3  -4   1   19.74    8.23
  -3  -4   1   17.47    9.31
  -3  -4   2   29.37   10.75
  -3  -5  -2    3.18    6.98
  -3  -5  -1   -4.51    8.57
  -3  -5  -1   13.10    9.48
  -3  -5  -1   -0.17    7.56
  -3  -5   0   30.96   11.65
  -3  -5   0    1.99    7.19
  -3  -5   0   33.70   12.20
  -3  -5   1    4.51    9.21
  -3  -5   1   -3.94    7.65
  -3  -5   2   27.08   11.89
  -3  -5   2   23.30   11.24
  -3  -6  -1   19.74   11.29
  -3  -6  -1   29.52   12.69
  -3  -6   0   19.68   11.33
  -3  -6   0   16.13   11.28
  -3  -6   1   12.45   11.08
  -3  -6   1   11.93    9.45
  -3  -6   2   20.03   11.91
  -3  -6   2   20.07   11.46
  -3  -6   2   10.70   11.09
  -3  -7  -1   21.60   13.75
  -3  -7  -1    4.61   10.23
  -3  -7   0    5.72   12.38
  -3  -7   0   11.41   12.88
  -3  -7   1    9.25   11.85
  -3  -7   1    4.03   11.18
  -3  -7   2    7.32   12.14
  -4   7  -4    5.61   12.05
  -4   7  -4   -5.33   12.54
  -4   7  -3   -3.38   10.60
  -4   7  -3   18.24   12.17
  -4   7  -2   33.31   14.83
  -4   7  -2    8.07   10.18
  -4   7  -1   15.15   13.94
  -4   7  -1   13.46   11.27
  -4   6  -4  -25.38   10.78
  -4   6  -4  -26.19   13.17
  -4   6  -4    2.64    9.63
  -4   6  -3   -9.76   10.76
  -4   6  -3    1.88    8.69
  -4   6  -2   28.35   11.28
  -4   6  -2   19.59   10.81
  -4   6  -2   11.55   10.77
  -4   6  -1   28.68   15.17
  -4   6  -1   15.14   14.34
  -4   6  -1    9.82    8.24
  -4   5  -4    0.17    8.14
  -4   5  -4   -1.12    9.48
  -4   5  -4    1.75    8.00
  -4   5  -3    3.73    8.40
  -4   5  -3   21.39   10.63
  -4   5  -3    8.48    9.14
  -4   5  -2   -1.46    7.70
  -4   5  -2   -1.67    8.34
  -4   5  -2   17.33   10.14
  -4   5  -1   22.58   10.26
  -4   5  -1    7.94    6.76
  -4   5  -1   15.35   11.33
  -4   5   0   13.76    9.49
  -4   5   0    7.40    8.43
  -4   4  -4   -0.40    8.34
  -4   4  -4    4.11    7.55
  -4   4  -4    9.62    8.23
  -4   4  -3   -0.32    9.11
  -4   4  -3    9.85    8.46
  -4   4  -3   13.92    8.26
  -4   4  -2   29.68   11.35
  -4   4  -2   28.12   10.77
  -4   4  -2   35.01   12.07
  -4   4  -1   14.07    7.34
  -4   4  -1   33.28    9.30
  -4   4  -1   25.25    9.95
  -4   4  -1   22.89    8.52
  -4   4   0   15.30    9.27
  -4   4   0   10.03    7.24
  -4   4   0   17.20    9.69
  -4   3  -4   39.97   10.56
  -4   3  -4   27.84    9.50
  -4   3  -4   22.68    9.04
  -4   3  -3   13.14    9.04
  -4   3  -3   19.74    7.48
  -4   3  -3   29.33    9.59
  -4   3  -2   55.12   12.95
  -4   3  -2   34.95    9.35
  -4   3  -2   40.64   10.78
  -4   3  -2   41.07   10.39
  -4   3  -1   63.42   14.14
  -4   3  -1   69.94   12.33
  -4   3  -1   46.30   11.14
  -4   3  -1   44.16   11.34
  -4   3   0   40.42   10.19
  -4   3   0   27.60    9.63
  -4   3   0   41.19   10.33
  -4   3   0   43.27   11.14
  -4   2  -4    3.20    6.98
  -4   2  -4   13.26    7.82
  -4   2  -4    8.75    7.17
  -4   2  -3    8.12    7.16
  -4   2  -3   16.08    7.35
  -4   2  -3   11.27    6.93
  -4   2  -2   18.40    8.28
  -4   2  -2   17.03    7.39
  -4   2  -2   20.26    8.66
  -4   2  -1   27.56    8.25
  -4   2  -1   19.95    7.62
  -4   2  -1   33.74    9.71
  -4   2   0    6.25    5.40
  -4   2   0    7.19    6.64
  -4   2   0   -1.31    5.15
  -4   1  -4    8.75    6.29
  -4   1  -4    9.70    7.62
  -4   1  -3    5.69    5.24
  -4   1  -3   15.39    4.73
  -4   1  -3   13.17    6.70
  -4   1  -2   23.00    8.10
  -4   1  -2   22.17    6.86
  -4   1  -2   18.48    7.15
  -4   1  -2   14.14    6.07
  -4   1  -1   40.80    9.67
  -4   1  -1   30.07    8.04
  -4   1  -1   41.79    9.79
  -4   1  -1   32.15    9.36
  -4   1   0   32.95    7.43
  -4   1   0   14.63    6.73
  -4   1   0   27.76    8.61
  -4   1   0   18.96    6.67
  -4   0  -3  137.40   16.61
  -4   0  -3  120.04   14.48
  -4   0  -3  138.54   14.31
  -4   0  -2   60.43   10.75
  -4   0  -2   49.10   11.10
  -4   0  -2   62.64    9.89
  -4   0  -2   54.25   11.14
  -4   0  -1  135.57   17.75
  -4   0  -1  142.19   16.89
  -4   0  -1  139.31   15.15
  -4   0  -1  129.19   13.67
  -4   0   0  103.27   14.64
  -4   0   0   92.99   14.34
  -4   0   0   91.71   11.78
  -4   0   1   48.83    9.64
  -4   0   1   60.09    9.65
  -4  -1  -3    7.10    7.71
  -4  -1  -2   11.59    7.43
  -4  -1  -2   10.52    6.06
  -4  -1  -1   26.17    7.39
  -4  -1  -1   19.66    6.77
  -4  -1  -1   21.75    8.16
  -4  -1  -1   34.20    8.55
  -4  -1   0   21.12    7.34
  -4  -1   0   15.78    7.29
  -4  -1   0   23.68    8.85
  -4  -1   1    7.24    6.93
  -4  -1   1   -6.89    6.59
  -4  -2  -3   11.73    8.48
  -4  -2  -2   11.06    6.59
  -4  -2  -2    2.66    6.66
  -4  -2  -2    7.88    6.07
  -4  -2  -1    4.76    5.35
  -4  -2  -1   12.73    8.03
  -4  -2  -1   23.10    9.60
  -4  -2  -1    7.36    5.97
  -4  -2   0    1.55    5.46
  -4  -2   0   15.76    8.64
  -4  -2   0   -4.34    6.16
  -4  -2   1   -7.14    8.42
  -4  -3  -2   41.44   11.28
  -4  -3  -2   39.35   12.60
  -4  -3  -1   22.70   10.49
  -4  -3  -1   13.83    8.06
  -4  -3  -1    7.66    8.89
  -4  -3   0   16.57    8.18
  -4  -3   0   15.45    7.99
  -4  -3   0   36.86   12.52
  -4  -3   1    9.25    6.65
  -4  -3   1   -8.59    9.46
  -4  -4  -2    5.43    7.85
  -4  -4  -2    4.41    9.72
  -4  -4  -1   -4.91    8.15
  -4  -4  -1    0.17    7.23
  -4  -4  -1   11.14    8.55
  -4  -4   0   14.67    9.20
  -4  -4   0    5.81    8.72
  -4  -4   0    6.77    8.13
  -4  -4   1    1.11    8.03
  -4  -4   1  -10.64    8.94
  -4  -5  -2   -5.85    9.71
  -4  -5  -2   -2.87    9.08
  -4  -5  -2    9.64   10.62
  -4  -5  -1  -12.34   10.91
  -4  -5  -1   -1.32    8.00
  -4  -5  -1   10.12    8.58
  -4  -5   0   -4.84    9.74
  -4  -5   0    0.41    7.81
  -4  -5   0   10.56    9.16
  -4  -5   1   18.89   10.89
  -4  -5   1   -4.62    8.54
  -4  -5   1    9.36   10.20
  -4  -6  -2   12.57    9.94
  -4  -6  -2   10.83   11.47
  -4  -6  -1   -9.21    9.46
  -4  -6  -1   14.62   12.04
  -4  -6   0    8.53   11.82
  -4  -6   0   -8.68    9.04
  -4  -6   1    0.53    8.95
  -4  -6   1   -4.16    9.01
  -5   6  -4  -23.40   14.13
  -5   6  -4  -28.75   12.06
  -5   6  -3    6.40    9.77
  -5   6  -3   15.85   12.21
  -5   6  -3    7.08    8.78
  -5   6  -2    6.13   11.84
  -5   6  -2    7.88    9.00
  -5   6  -2   -7.93   11.39
  -5   6  -1   23.90   12.05
  -5   6  -1   12.42   10.98
  -5   5  -4   12.58    9.83
  -5   5  -4   26.03   11.98
  -5   5  -4    2.96    7.92
  -5   5  -3   11.82   10.88
  -5   5  -3   16.16   13.12
  -5   5  -3   10.27   12.33
  -5   5  -2   -6.41   10.99
  -5   5  -2   10.45    9.00
  -5   5  -2   -4.99   10.06
  -5   5  -1   -9.80   10.47
  -5   5  -1    9.87    8.63
  -5   5  -1   -9.40   11.88
  -5   4  -4  -19.33    9.96
  -5   4  -4    2.01    6.89
  -5   4  -3    6.39    9.49
  -5   4  -3   -2.65    7.48
  -5   4  -3   12.89    9.69
  -5   4  -2   15.46   10.38
  -5   4  -2   -4.56    7.27
  -5   4  -1   -0.11    7.06
  -5   4  -1   23.92   10.57
  -5   4  -1   14.40    9.59
  -5   3  -4   27.41   11.63
  -5   3  -4   30.59   11.27
  -5   3  -4   27.11   10.66
  -5   3  -3   11.72    9.07
  -5   3  -3   13.46    7.43
  -5   3  -3   23.65   10.61
  -5   3  -2   26.83   10.54
  -5   3  -2   15.66    8.39
  -5   3  -2    4.16    8.78
  -5   3  -1   11.81    8.44
  -5   3  -1    6.62    9.11
  -5   3  -1   29.32   12.02
  -5   3   0   84.67   17.42
  -5   2  -4    0.90    8.40
  -5   2  -4    3.71    7.91
  -5   2  -4   -9.02    8.95
  -5   2  -3   14.55    8.03
  -5   2  -3   15.44    8.31
  -5   2  -3   24.70   10.21
  -5   2  -2   15.02    9.28
  -5   2  -2    3.62    6.47
  -5   2  -2   12.09    8.23
  -5   2  -1   -4.56    7.91
  -5   2  -1    1.84    8.08
  -5   2  -1    4.37    6.79
  -5   2   0   10.28    7.04
  -5   2   0    1.35    6.68
  -5   1  -4   11.17    8.00
  -5   1  -4    6.93    9.31
  -5   1  -3   10.14    8.88
  -5   1  -3   13.71    9.12
  -5   1  -3   25.52    8.75
  -5   1  -3   18.71   10.64
  -5   1  -2   19.57    9.74
  -5   1  -2   17.69    8.24
  -5   1  -2   18.52   10.00
  -5   1  -2   25.04    9.99
  -5   1  -1   -0.51    5.54
  -5   1  -1   12.44    7.79
  -5   1  -1    6.25    7.80
  -5   1  -1   16.21    9.65
  -5   1   0    2.72    6.35
  -5   1   0   -1.60    6.54
  -5   0  -4   46.79   13.66
  -5   0  -3  160.53   23.11
  -5   0  -3  150.46   20.59
  -5   0  -2   74.48   15.93
  -5   0  -2   46.49   12.66
  -5   0  -1   12.34    8.91
  -5   0  -1   23.86    9.02
  -5   0   0   25.70   10.17
  -5   0   0   28.63   12.66
  -5  -1  -4    7.56    7.80
  -5  -1  -3   22.31   10.71
  -5  -1  -3   35.00   11.33
  -5  -1  -2   13.63    9.42
  -5  -1  -2   20.66    9.23
  -5  -1  -1    0.66    7.37
  -5  -1  -1   12.74    8.24
  -5  -1   0   14.22    9.10
  -5  -1   0   15.18    9.33
  -5  -2  -3   18.61    9.44
  -5  -2  -3   42.50   12.24
  -5  -2  -2   21.24   10.08
  -5  -2  -2   13.66    7.99
  -5  -2  -1   -8.73    9.37
  -5  -2  -1    5.49    7.06
  -5  -2   0   20.13   12.81
  -5  -2   0   -5.77    8.35
  -5  -2   1    4.97    8.08
  -5  -3  -3   29.43   11.33
  -5  -3  -3   32.80   14.82
  -5  -3  -2   -5.46    7.35
  -5  -3  -2    8.38    9.73
  -5  -3  -1   -2.02    8.12
  -5  -3  -1   -0.74    7.87
  -5  -3  -1   -9.85    9.68
  -5  -3   0    3.34    7.42
  -5  -3   0    0.59    8.10
  -5  -3   0    7.00    8.33
  -5  -3   1    0.55    8.49
  -5  -4  -3   12.85    9.30
  -5  -4  -3   15.94   11.49
  -5  -4  -2   14.12    8.29
  -5  -4  -2    4.32    8.13
  -5  -4  -2   26.64   11.55
  -5  -4  -1   19.04   12.81
  -5  -4  -1    5.46    7.88
  -5  -4  -1   -0.24    8.78
  -5  -4   0    7.11    8.32
  -5  -4   0    5.76    8.36
  -5  -4   0   16.33   13.08
  -5  -4   1   13.46    9.68
  -5  -4   1   -4.34    9.12
  -5  -5  -2   11.37   10.75
  -5  -5  -2   -5.07   11.21
  -5  -5  -2   -2.40    9.74
  -5  -5  -1  -12.60   11.70
  -5  -5  -1  -16.53   14.24
  -5  -5  -1  -11.20   13.99
  -5  -5   0  -17.18   14.06
  -5  -5   0   12.97   10.85
  -5  -5   0   13.57   10.04
  -5  -5   1    5.58   12.23
  -6   5  -2  -14.28   11.81
  -6   4  -4   13.73   12.54
  -6   4  -4    2.79    8.28
  -6   4  -4   14.66   11.11
  -6   4  -3   38.40   15.96
  -6   4  -3   10.67    8.70
  -6   4  -3   20.59   12.75
  -6   4  -2   30.81   12.60
  -6   4  -2   -2.23    8.95
  -6   4  -2   25.17   13.64
  -6   4  -1   35.12   14.92
  -6   3  -4  -16.37   13.26
  -6   3  -4   -5.48    8.82
  -6   3  -4    5.26    8.90
  -6   3  -3   21.47   11.85
  -6   3  -3   22.25   11.49
  -6   3  -3   24.65   13.66
  -6   3  -2   18.67   11.07
  -6   3  -2   -2.48    9.25
  -6   3  -2    0.03    8.77
  -6   3  -1    1.13    7.71
  -6   3  -1    5.83   11.23
  -6   2  -4   11.46    9.28
  -6   2  -4   -5.04    9.47
  -6   2  -3   15.64   10.02
  -6   2  -3   13.54    8.90
  -6   2  -3    3.57    8.98
  -6   2  -2    0.37    7.27
  -6   2  -2    9.13   11.50
  -6   2  -2    0.71    8.13
  -6   2  -1   -0.79    7.09
  -6   2  -1    5.49    8.71
  -6   1  -4   28.29   13.87
  -6   1  -3    3.87    9.12
  -6   1  -2    6.94    9.28
  -6   1  -1   29.94   12.41
  -6   1   0    7.09    7.83
  -6   0  -4   44.21   15.03
  -6   0  -4   33.90   13.78
  -6   0  -3   29.35   14.16
  -6   0  -3   33.25   14.00
  -6   0  -2   33.61   13.68
  -6   0  -2   34.18   12.96
  -6   0  -1   32.46   14.11
  -6   0  -1   11.04   11.69
  -6   0   0   25.87   11.28
  -6  -1  -4   31.47   13.80
  -6  -1  -4   11.75    9.74
  -6  -1  -3   22.03   14.02
  -6  -1  -3   -5.14    8.54
  -6  -1  -2   15.88   10.84
  -6  -1  -2   19.17   11.20
  -6  -1  -1   29.54   13.75
  -6  -1  -1    6.32    9.78
  -6  -1   0    8.49    9.75
  -6  -1   0   10.12    9.65
  -6  -2  -3   11.10   11.48
  -6  -2  -3   14.14   10.54
  -6  -2  -2   22.20   12.48
  -6  -2  -2    8.25    8.79
  -6  -2  -1    0.61    9.45
  -6  -2  -1   24.64   11.46
  -6  -2   0    7.43   11.15
  -6  -3  -3    3.34   10.66
  -6  -3  -2   14.52   13.01
  -6  -3  -1    4.00   14.85
  -6  -3   0   36.49   16.80
  -7   2  -4   -7.83   10.99
  -7   2  -3   38.31   14.87
  -7   0  -3   26.90   13.58
  -7   0  -2    3.21   10.15
   0   0   0    0.00    0.00
;
_shelx_hkl_checksum              16492
_olex2_submission_special_instructions 'No special instructions were received'
loop_
_space_group_symop_operation_xyz
'x, y, z'
loop_
_atom_site_label
_atom_site_type_symbol
_atom_site_fract_x
_atom_site_fract_y
_atom_site_fract_z
_atom_site_U_iso_or_equiv
_atom_site_adp_type
_atom_site_occupancy
_atom_site_site_symmetry_order
_atom_site_calc_flag
_atom_site_refinement_flags_posn
Co1 Co 0.000(3) 0.000(2) 0.000(5) 0.044(3) Uiso 1 1 d .
O1W O 0.334(6) 0.019(5) 0.033(11) 0.020(9) Uiso 1 1 d .
H1WA H 0.4141 0.1276 0.0872 0.029 Uiso 1 1 d GR
H1WB H 0.4169 0.0321 -0.0424 0.029 Uiso 1 1 d GR
C7 C -0.115(5) -0.015(3) 0.793(3) 0.021(13) Uiso 1 1 d D
C5 C -0.049(6) 0.017(4) 0.446(3) 0.043(7) Uiso 1 1 d .
H5 H 0.0670 0.0449 0.3948 0.052 Uiso 1 1 calc R
C4 C -0.274(7) -0.029(3) 0.391(3) 0.043(7) Uiso 1 1 d DG
C3 C -0.448(5) -0.071(4) 0.467(4) 0.043(7) Uiso 1 1 d G
H3 H -0.5980 -0.1011 0.4307 0.052 Uiso 1 1 calc R
C2 C -0.397(6) -0.068(5) 0.599(4) 0.043(7) Uiso 1 1 d G
H2 H -0.5139 -0.0962 0.6498 0.052 Uiso 1 1 calc R
C1 C -0.173(7) -0.023(4) 0.654(3) 0.043(7) Uiso 1 1 d DG
C6 C 0.001(5) 0.020(4) 0.577(4) 0.043(7) Uiso 1 1 d G
H6 H 0.1510 0.0498 0.6139 0.052 Uiso 1 1 calc R
O1 O 0.089(4) 0.025(5) 0.831(5) 0.046(7) Uiso 1 1 d D
C8 C -0.306(7) -0.027(5) 0.251(3) 0.047(19) Uiso 1 1 d D
O2 O -0.263(5) -0.047(5) 0.865(5) 0.046(7) Uiso 1 1 d D
O4 O -0.146(5) 0.011(5) 0.187(5) 0.046(7) Uiso 1 1 d D
N1 N 0.016(5) 0.319(5) -0.001(4) 0.015(11) Uiso 1 1 d D
N2 N 0.007(5) 0.699(4) 0.015(4) 0.013(12) Uiso 1 1 d D
C11 C -0.221(6) 0.377(5) 0.000(14) 0.040(7) Uiso 1 1 d D
H11A H -0.2865 0.3235 0.0727 0.047 Uiso 1 1 calc R
H11B H -0.3152 0.3266 -0.0762 0.047 Uiso 1 1 calc R
C9 C 0.116(9) 0.405(4) -0.111(5) 0.040(7) Uiso 1 1 d D
H9A H 0.0205 0.3682 -0.1897 0.047 Uiso 1 1 calc R
H9B H 0.2692 0.3654 -0.1160 0.047 Uiso 1 1 calc R
C12 C -0.222(6) 0.592(4) 0.004(16) 0.040(7) Uiso 1 1 d D
H12A H -0.3114 0.6315 -0.0727 0.047 Uiso 1 1 calc R
H12 H -0.2998 0.6271 0.0752 0.047 Uiso 1 1 calc R
C10 C 0.124(9) 0.618(5) -0.087(6) 0.040(7) Uiso 1 1 d D
H10A H 0.2846 0.6643 -0.0717 0.047 Uiso 1 1 calc R
H10B H 0.0628 0.6736 -0.1661 0.047 Uiso 1 1 calc R
C14 C 0.081(10) 0.613(4) 0.138(5) 0.040(7) Uiso 1 1 d D
H14A H -0.0259 0.6393 0.1977 0.047 Uiso 1 1 calc R
H14B H 0.2313 0.6724 0.1710 0.047 Uiso 1 1 calc R
C13 C 0.094(10) 0.400(4) 0.128(5) 0.040(7) Uiso 1 1 d D
H13A H 0.2519 0.3709 0.1512 0.047 Uiso 1 1 calc R
H13B H 0.0008 0.3376 0.1876 0.047 Uiso 1 1 calc R
O3 O -0.497(5) -0.088(6) 0.209(7) 0.046(7) Uiso 1 1 d D
loop_
_atom_type_symbol
_atom_type_description
_atom_type_scat_dispersion_real
_atom_type_scat_dispersion_imag
_atom_type_scat_source
C C 0.0033 0.0016 'International Tables Vol C Tables 4.2.6.8 and 6.1.1.4'
H H 0.0000 0.0000 'International Tables Vol C Tables 4.2.6.8 and 6.1.1.4'
Co Co 0.3494 0.9721 'International Tables Vol C Tables 4.2.6.8 and 6.1.1.4'
N N 0.0061 0.0033 'International Tables Vol C Tables 4.2.6.8 and 6.1.1.4'
O O 0.0106 0.0060 'International Tables Vol C Tables 4.2.6.8 and 6.1.1.4'
loop_
_geom_angle_atom_site_label_1
_geom_angle_atom_site_label_2
_geom_angle_atom_site_label_3
_geom_angle
_geom_angle_site_symmetry_1
_geom_angle_site_symmetry_3
O1W Co1 C7 111(3) . 1_554
O1W Co1 O2 144(4) . 1_554
O1W Co1 O4 108(4) . .
O1W Co1 N1 88.7(14) . .
O1W Co1 N2 87.6(13) . 1_545
C7 Co1 O4 140.4(15) 1_554 .
C7 Co1 N1 91.4(19) 1_554 .
O1 Co1 O1W 78(3) 1_554 .
O1 Co1 C7 33.6(10) 1_554 1_554
O1 Co1 O2 67.1(18) 1_554 1_554
O1 Co1 O4 170.1(15) 1_554 .
O1 Co1 N1 85(2) 1_554 .
O1 Co1 N2 98(3) 1_554 1_545
O2 Co1 C7 33.5(9) 1_554 1_554
O2 Co1 O4 107.4(17) 1_554 .
O2 Co1 N1 97.2(16) 1_554 .
O2 Co1 N2 87.8(17) 1_554 1_545
N1 Co1 O4 88(2) . .
N2 Co1 C7 93(2) 1_545 1_554
N2 Co1 O4 90(2) 1_545 .
N2 Co1 N1 175(3) 1_545 .
Co1 O1W H1WA 118.8 . .
Co1 O1W H1WB 115.7 . .
H1WA O1W H1WB 100.3 . .
C1 C7 Co1 176(3) . 1_556
O1 C7 Co1 60(2) . 1_556
O1 C7 C1 116(3) . .
O2 C7 Co1 63(2) . 1_556
O2 C7 C1 121(3) . .
O2 C7 O1 122.8(5) . .
C4 C5 H5 120.0 . .
C4 C5 C6 120.0 . .
C6 C5 H5 120.0 . .
C5 C4 C3 120.0 . .
C5 C4 C8 115(3) . .
C3 C4 C8 125(3) . .
C4 C3 H3 120.0 . .
C4 C3 C2 120.0 . .
C2 C3 H3 120.0 . .
C3 C2 H2 120.0 . .
C1 C2 C3 120.0 . .
C1 C2 H2 120.0 . .
C2 C1 C7 121(3) . .
C2 C1 C6 120.0 . .
C6 C1 C7 119(3) . .
C5 C6 H6 120.0 . .
C1 C6 C5 120.0 . .
C1 C6 H6 120.0 . .
C7 O1 Co1 87(2) . 1_556
O4 C8 C4 123(4) . .
O3 C8 C4 112(4) . .
O3 C8 O4 125(3) . .
C7 O2 Co1 84(2) . 1_556
C8 O4 Co1 149(4) . .
C11 N1 Co1 108(2) . .
C9 N1 Co1 114(3) . .
C9 N1 C11 109(6) . .
C9 N1 C13 119(4) . .
C13 N1 Co1 111(3) . .
C13 N1 C11 94(6) . .
C12 N2 Co1 115(2) . 1_565
C10 N2 Co1 112(3) . 1_565
C10 N2 C12 104(7) . .
C10 N2 C14 110(4) . .
C14 N2 Co1 120(3) . 1_565
C14 N2 C12 93(6) . .
N1 C11 H11A 109.4 . .
N1 C11 H11B 109.4 . .
N1 C11 C12 111(4) . .
H11A C11 H11B 108.0 . .
C12 C11 H11A 109.4 . .
C12 C11 H11B 109.4 . .
N1 C9 H9A 110.9 . .
N1 C9 H9B 110.9 . .
N1 C9 C10 104(4) . .
H9A C9 H9B 108.9 . .
C10 C9 H9A 110.9 . .
C10 C9 H9B 110.9 . .
N2 C12 C11 115(3) . .
N2 C12 H12A 108.4 . .
N2 C12 H12 108.4 . .
C11 C12 H12A 108.4 . .
C11 C12 H12 108.4 . .
H12A C12 H12 107.5 . .
N2 C10 C9 122(4) . .
N2 C10 H10A 106.8 . .
N2 C10 H10B 106.8 . .
C9 C10 H10A 106.8 . .
C9 C10 H10B 106.8 . .
H10A C10 H10B 106.7 . .
N2 C14 H14A 109.1 . .
N2 C14 H14B 109.1 . .
N2 C14 C13 113(4) . .
H14A C14 H14B 107.8 . .
C13 C14 H14A 109.1 . .
C13 C14 H14B 109.1 . .
N1 C13 C14 114(4) . .
N1 C13 H13A 108.8 . .
N1 C13 H13B 108.8 . .
C14 C13 H13A 108.8 . .
C14 C13 H13B 108.8 . .
H13A C13 H13B 107.7 . .
loop_
_geom_bond_atom_site_label_1
_geom_bond_atom_site_label_2
_geom_bond_distance
_geom_bond_site_symmetry_2
Co1 O1W 1.95(3) .
Co1 C7 2.22(6) 1_554
Co1 O1 1.92(8) 1_554
Co1 O2 1.99(5) 1_554
Co1 O4 2.26(8) .
Co1 N1 2.25(4) .
Co1 N2 2.13(3) 1_545
O1W H1WA 1.0110 .
O1W H1WB 0.9814 .
C7 Co1 2.22(6) 1_556
C7 C1 1.480(3) .
C7 O1 1.230(3) .
C7 O2 1.230(3) .
C5 H5 0.9300 .
C5 C4 1.3900 .
C5 C6 1.3900 .
C4 C3 1.3900 .
C4 C8 1.480(3) .
C3 H3 0.9300 .
C3 C2 1.3900 .
C2 H2 0.9300 .
C2 C1 1.3900 .
C1 C6 1.3900 .
C6 H6 0.9300 .
O1 Co1 1.92(8) 1_556
C8 O4 1.230(3) .
C8 O3 1.21(3) .
O2 Co1 1.99(5) 1_556
N1 C11 1.480(3) .
N1 C9 1.480(3) .
N1 C13 1.480(3) .
N2 Co1 2.13(3) 1_565
N2 C12 1.480(3) .
N2 C10 1.480(3) .
N2 C14 1.480(3) .
C11 H11A 0.9700 .
C11 H11B 0.9700 .
C11 C12 1.520(3) .
C9 H9A 0.9700 .
C9 H9B 0.9700 .
C9 C10 1.520(3) .
C12 H12A 0.9700 .
C12 H12 0.9700 .
C10 H10A 0.9700 .
C10 H10B 0.9700 .
C14 H14A 0.9700 .
C14 H14B 0.9700 .
C14 C13 1.520(3) .
C13 H13A 0.9700 .
C13 H13B 0.9700 .
loop_
_geom_torsion_atom_site_label_1
_geom_torsion_atom_site_label_2
_geom_torsion_atom_site_label_3
_geom_torsion_atom_site_label_4
_geom_torsion
_geom_torsion_site_symmetry_1
_geom_torsion_site_symmetry_4
Co1 N1 C11 C12 178(9) . .
Co1 N1 C9 C10 -176(3) . .
Co1 N1 C13 C14 -173(4) . .
Co1 N2 C12 C11 173(9) 1_565 .
Co1 N2 C10 C9 -169(4) 1_565 .
Co1 N2 C14 C13 -175(4) 1_565 .
C7 C1 C6 C5 -179.0(12) . .
C5 C4 C3 C2 0.0 . .
C5 C4 C8 O4 0(3) . .
C5 C4 C8 O3 172(3) . .
C4 C5 C6 C1 0.0 . .
C4 C3 C2 C1 0.0 . .
C4 C8 O4 Co1 161(3) . .
C3 C4 C8 O4 -180(2) . .
C3 C4 C8 O3 -8(3) . .
C3 C2 C1 C7 179.0(12) . .
C3 C2 C1 C6 0.0 . .
C2 C1 C6 C5 0.0 . .
C1 C7 O1 Co1 -179.8(14) . 1_556
C1 C7 O2 Co1 179.8(15) . 1_556
C6 C5 C4 C3 0.0 . .
C6 C5 C4 C8 180.0(13) . .
O1 C7 C1 C2 179.4(14) . .
O1 C7 C1 C6 -1.5(18) . .
O1 C7 O2 Co1 0(2) . 1_556
C8 C4 C3 C2 -180.0(14) . .
O2 C7 C1 C2 -0.9(17) . .
O2 C7 C1 C6 178.2(14) . .
O2 C7 O1 Co1 1(2) . 1_556
N1 C11 C12 N2 -4(17) . .
N1 C9 C10 N2 -10(6) . .
N2 C14 C13 N1 -4(7) . .
C11 N1 C9 C10 63(7) . .
C11 N1 C13 C14 -62(6) . .
C9 N1 C11 C12 -58(12) . .
C9 N1 C13 C14 52(6) . .
C12 N2 C10 C9 -45(7) . .
C12 N2 C14 C13 64(7) . .
C10 N2 C12 C11 51(13) . .
C10 N2 C14 C13 -43(6) . .
C14 N2 C12 C11 -61(12) . .
C14 N2 C10 C9 54(6) . .
C13 N1 C11 C12 65(11) . .
C13 N1 C9 C10 -43(5) . .
O3 C8 O4 Co1 -9(7) . .
