#------------------------------------------------------------------------------
#$Date: 2019-11-24 04:12:18 +0200 (Sun, 24 Nov 2019) $
#$Revision: 236652 $
#$URL: file:///home/coder/svn-repositories/cod/cif/8/00/03/8000357.cif $
#------------------------------------------------------------------------------
#
# This file is available in the Crystallography Open Database (COD),
# http://www.crystallography.net/
#
# All data on this site have been placed in the public domain by the
# contributors.
#
data_8000357
loop_
_publ_author_name
'Andrzejewski, Micha\/l'
'Katrusiak, Andrzej'
_publ_section_title
;
 Piezochromic Porous Metal-Organic Framework.
;
_journal_issue                   1
_journal_name_full               'The journal of physical chemistry letters'
_journal_page_first              279
_journal_page_last               284
_journal_paper_doi               10.1021/acs.jpclett.6b02458
_journal_volume                  8
_journal_year                    2017
_chemical_formula_moiety         'C14 H18 Co N2 O5'
_chemical_formula_sum            'C14 H18 Co N2 O5'
_chemical_formula_weight         353.23
_chemical_name_common            AMU1
_chemical_name_systematic
;
Co(1,4-benzenedicarboxylate)(1,4-diazabicyclo[2.2.2]octane)H2O
;
_space_group_crystal_system      monoclinic
_space_group_IT_number           6
_space_group_name_Hall           'P -2y'
_space_group_name_H-M_alt        'P 1 m 1'
_atom_sites_solution_hydrogens   mixed
_atom_sites_solution_primary     direct
_audit_creation_date             2016-07-12
_audit_creation_method
;
Olex2 1.2
(compiled 2016.02.19 svn.r3266 for OlexSys, GUI svn.r5155)
;
_cell_angle_alpha                90
_cell_angle_beta                 95.094(7)
_cell_angle_gamma                90
_cell_formula_units_Z            1
_cell_length_a                   6.1054(5)
_cell_length_b                   7.0878(8)
_cell_length_c                   10.6638(6)
_cell_measurement_reflns_used    1388
_cell_measurement_temperature    296(2)
_cell_measurement_theta_max      53.28
_cell_measurement_theta_min      7.42
_cell_volume                     459.64(7)
_computing_molecular_graphics    'Olex2 (Dolomanov et al., 2009)'
_computing_publication_material  'Olex2 (Dolomanov et al., 2009)'
_computing_structure_refinement  'ShelXL (Sheldrick, 2015)'
_computing_structure_solution    'ShelXS (Sheldrick, 2008)'
_diffrn_ambient_temperature      296(2)
_diffrn_measured_fraction_theta_full 0.735
_diffrn_measured_fraction_theta_max 0.703
_diffrn_measurement_device_type  'multiwire proportional'
_diffrn_measurement_method       'phi and omega scans'
_diffrn_radiation_monochromator  graphite
_diffrn_radiation_type           MoK\a
_diffrn_radiation_wavelength     0.71073
_diffrn_reflns_av_R_equivalents  0.0494
_diffrn_reflns_av_unetI/netI     0.0750
_diffrn_reflns_Laue_measured_fraction_full 0.735
_diffrn_reflns_Laue_measured_fraction_max 0.703
_diffrn_reflns_limit_h_max       7
_diffrn_reflns_limit_h_min       -7
_diffrn_reflns_limit_k_max       8
_diffrn_reflns_limit_k_min       -8
_diffrn_reflns_limit_l_max       13
_diffrn_reflns_limit_l_min       -13
_diffrn_reflns_number            3404
_diffrn_reflns_point_group_measured_fraction_full 0.738
_diffrn_reflns_point_group_measured_fraction_max 0.705
_diffrn_reflns_theta_full        25.242
_diffrn_reflns_theta_max         26.642
_diffrn_reflns_theta_min         3.710
_exptl_absorpt_coefficient_mu    0.954
_exptl_absorpt_correction_T_max  0.909
_exptl_absorpt_correction_T_min  0.892
_exptl_absorpt_correction_type   multi-scan
_exptl_absorpt_process_details
;
Data were collected and reduced by program CrysAlisPro, 
and SCALE3 ABSPACK was used for absorption correction
;
_exptl_crystal_colour            purple
_exptl_crystal_density_diffrn    1.276
_exptl_crystal_description       plates
_exptl_crystal_F_000             183
_exptl_crystal_size_max          0.3
_exptl_crystal_size_mid          0.1
_exptl_crystal_size_min          0.1
_refine_diff_density_max         0.768
_refine_diff_density_min         -0.707
_refine_diff_density_rms         0.109
_refine_ls_abs_structure_details
;
 Refined as a perfect inversion twin.
;
_refine_ls_abs_structure_Flack   0.5
_refine_ls_extinction_method     none
_refine_ls_goodness_of_fit_ref   1.116
_refine_ls_hydrogen_treatment    mixed
_refine_ls_matrix_type           full
_refine_ls_number_parameters     123
_refine_ls_number_reflns         1388
_refine_ls_number_restraints     83
_refine_ls_restrained_S_all      1.094
_refine_ls_R_factor_all          0.0786
_refine_ls_R_factor_gt           0.0680
_refine_ls_shift/su_max          0.000
_refine_ls_shift/su_mean         0.000
_refine_ls_structure_factor_coef Fsqd
_refine_ls_weighting_details
'w=1/[\s^2^(Fo^2^)+(0.0961P)^2^+0.6977P] where P=(Fo^2^+2Fc^2^)/3'
_refine_ls_weighting_scheme      calc
_refine_ls_wR_factor_gt          0.1663
_refine_ls_wR_factor_ref         0.1719
_reflns_Friedel_coverage         1.000
_reflns_Friedel_fraction_full    0.741
_reflns_Friedel_fraction_max     0.708
_reflns_number_gt                1222
_reflns_number_total             1388
_reflns_threshold_expression     'I > 2\s(I)'
_cod_data_source_file            jz6b02458_si_004.cif
_cod_data_source_block           296K_01MPa_oil
_cod_database_code               8000357
_shelx_space_group_comment
;
The symmetry employed for this shelxl refinement is uniquely defined
by the following loop, which should always be used as a source of
symmetry information in preference to the above space-group names.
They are only intended as comments.
;
_olex2_refinement_description
;
1. Fixed Uiso
 At 1.2 times of:
  All C(H) groups, All C(H,H) groups
2. Restrained distances
 O1W-H1WA
 0.88 with sigma of 0.02
 H1WB-H1WA
 1.44 with sigma of 0.02
 O1W-H1WB
 0.88 with sigma of 0.02
3. Uiso/Uaniso restraints and constraints
Uanis(O1W) \\sim Ueq: with sigma of 0.001 and sigma for terminal atoms of 0.002
Uanis(O1) \\sim Ueq, Uanis(C7) \\sim Ueq, Uanis(O2) \\sim Ueq, Uanis(C1) \\sim
Ueq, Uanis(C6) \\sim Ueq, Uanis(C2) \\sim Ueq, Uanis(C3) \\sim Ueq, Uanis(C4)
\\sim Ueq, Uanis(C5) \\sim Ueq, Uanis(C8) \\sim Ueq, Uanis(O4) \\sim Ueq,
Uanis(O3) \\sim Ueq: with sigma of 0.001 and sigma for terminal atoms of 0.002
4. Others
 Fixed X: H1WA(0.434969) H1WB(0.381301)
 Fixed Y: H1WA(0) H1WB(0)
 Fixed Z: H1WA(1.039149) H1WB(0.904909)
5.a Secondary CH2 refined with riding coordinates:
 C10(H10A,H10B), C9(H9A,H9B), C11(H11A,H11B)
5.b Aromatic/amide H refined with riding coordinates:
 C6(H6), C5(H5), C3(H3), C2(H2)
;
_shelx_hkl_file
;
  -7  -2  -2    4.47    3.75
  -7  -2  -1    1.21    2.75
  -7  -2   0   16.80    3.10
  -7  -1  -3    7.62    3.98
  -7  -1  -2   14.90    2.96
  -7  -1  -1    5.91    2.78
  -7  -1   0   23.64    3.37
  -7   0  -3   10.35    3.92
  -7   0  -2   18.99    4.24
  -7   0  -1    5.99    4.09
  -7   0   0   29.78    4.46
  -7   0   1   11.66    3.81
  -7   0   2   24.60    4.51
  -7   0   3    4.24    4.02
  -7   0   4    7.53    4.25
  -7   0   5   11.48    4.47
  -7   1   1   12.69    2.92
  -7   1   2   18.71    3.11
  -7   1   3    5.88    2.84
  -7   1   4    9.70    3.15
  -7   1   5   13.34    4.67
  -7   2   1    4.48    2.91
  -7   2   2   11.81    3.02
  -7   2   3    2.82    2.86
  -7   2   4    3.62    4.40
  -7   3   1   10.17    4.25
  -7   3   2   19.84    4.37
  -7   3   3    7.44    4.13
  -6  -5  -2    4.65    3.07
  -6  -5  -1    1.09    1.65
  -6  -5   0    0.16    2.86
  -6  -4  -4   14.86    3.45
  -6  -4  -3   12.73    3.83
  -6  -4  -2   13.50    3.14
  -6  -4  -1    8.18    3.18
  -6  -4   0   14.59    5.91
  -6  -3  -5    8.22    2.81
  -6  -3  -4   25.74    3.70
  -6  -3  -3   26.22    3.48
  -6  -3  -2   20.68    3.25
  -6  -3  -1   17.51    2.63
  -6  -3   0   10.39    3.51
  -6  -2  -6    6.57    3.59
  -6  -2  -5    5.15    2.80
  -6  -2  -4   16.56    2.74
  -6  -2  -3    9.31    4.60
  -6  -2  -2   20.33    2.26
  -6  -2  -1    7.53    1.48
  -6  -2   0   12.51    2.06
  -6  -1  -6   20.49    4.10
  -6  -1  -5    3.45    5.79
  -6  -1  -4   22.60    4.14
  -6  -1  -3   22.26    4.97
  -6  -1  -2   36.23    6.22
  -6  -1  -1   13.33    5.01
  -6  -1   0   23.27    2.28
  -6   0  -5   17.52    2.71
  -6   0  -4   43.72    4.12
  -6   0  -3   39.15    3.97
  -6   0  -2   39.46    3.87
  -6   0  -1   10.61    1.33
  -6   0   0    1.28    1.05
  -6   0   1   15.98    2.40
  -6   0   2   27.48    3.66
  -6   0   3   66.75    4.38
  -6   0   4   16.64    2.59
  -6   0   5   29.44    3.24
  -6   1   1   24.93    2.22
  -6   1   2   22.73    1.97
  -6   1   3   28.23    2.26
  -6   1   4    8.61    1.89
  -6   1   5   11.64    2.68
  -6   2   1   11.65    4.57
  -6   2   2   16.07    2.19
  -6   2   3   35.66    2.84
  -6   2   4    1.92    0.82
  -6   2   5    0.05    3.75
  -6   2   6    1.90    1.43
  -6   3   1   16.42    2.79
  -6   3   2   25.31    2.58
  -6   3   3   38.18    2.82
  -6   3   4   13.31    2.92
  -6   3   5   11.49    2.43
  -6   3   6    0.03    4.80
  -6   3   7   14.77    3.40
  -6   4   1   16.85    3.28
  -6   4   2   23.79    2.68
  -6   4   3   26.17    3.98
  -6   4   4    2.22    1.29
  -6   4   5    3.27    2.82
  -6   4   6    5.89    2.57
  -6   5   1    3.43    2.51
  -5  -6  -2   20.02    4.49
  -5  -6  -1    0.20    2.82
  -5  -6   0   12.68    2.85
  -5  -5  -5    3.50    3.80
  -5  -5  -4    7.33    3.81
  -5  -5  -3   17.88    3.99
  -5  -5  -2   45.73    3.19
  -5  -5  -1    2.03    2.31
  -5  -5   0    4.61    2.39
  -5  -4  -6    3.70    2.54
  -5  -4  -5    1.40    2.28
  -5  -4  -4    3.50    2.24
  -5  -4  -3   10.17    1.94
  -5  -4  -2   43.67    4.10
  -5  -4  -1    3.24    2.26
  -5  -4   0   16.61    2.47
  -5  -3  -7   22.42    2.87
  -5  -3  -6   13.03    3.78
  -5  -3  -5   14.61    3.55
  -5  -3  -4   28.59    3.82
  -5  -3  -3   51.22    2.97
  -5  -3  -2  115.46    3.82
  -5  -3  -1    1.83    2.18
  -5  -3   0   24.96    3.58
  -5  -2  -8    7.21    3.70
  -5  -2  -7   12.84    2.47
  -5  -2  -6    6.89    3.04
  -5  -2  -5    8.21    3.09
  -5  -2  -4   14.43    2.29
  -5  -2  -3   24.03    2.43
  -5  -2  -2   94.15    3.49
  -5  -2  -1    3.14    2.09
  -5  -2   0    8.78    2.34
  -5  -1  -8   23.32    3.83
  -5  -1  -6    3.63    3.19
  -5  -1  -5    5.47    1.98
  -5  -1  -4    3.36    2.13
  -5  -1  -3   15.36    2.24
  -5  -1  -2   86.79    3.33
  -5  -1  -1    9.15    2.32
  -5  -1   0   21.65    2.29
  -5   0  -5   26.70    3.60
  -5   0  -4   60.42    4.51
  -5   0  -3   86.65    4.86
  -5   0  -2  206.49    6.61
  -5   0  -1    0.48    2.93
  -5   0   0   36.97    3.81
  -5   0   1   35.23    3.48
  -5   0   2   87.18    4.67
  -5   0   3   99.13    4.67
  -5   0   4   52.62    4.09
  -5   0   5   96.07    3.31
  -5   0   6  117.54    5.40
  -5   0   7   46.56    4.05
  -5   0   8   26.92    3.63
  -5   0   9   20.84    3.57
  -5   0  10   28.76    4.11
  -5   1   1   15.00    2.30
  -5   1   2   44.97    2.70
  -5   1   3   32.41    2.58
  -5   1   4    3.73    1.67
  -5   1   5   12.94    2.16
  -5   1   6   34.30    2.03
  -5   1   7   16.02    3.44
  -5   1   8   12.82    2.26
  -5   1   9   12.03    2.38
  -5   1  10   15.59    2.62
  -5   2   1    9.49    2.20
  -5   2   2   34.04    2.68
  -5   2   3   40.13    2.13
  -5   2   4    9.38    1.75
  -5   2   5   25.49    2.41
  -5   2   6   45.58    5.06
  -5   2   7   14.53    3.15
  -5   2   8   12.62    2.62
  -5   2   9    4.71    3.33
  -5   3   1   27.46    2.55
  -5   3   2   49.77    3.33
  -5   3   3   62.05    2.44
  -5   3   4   26.00    3.14
  -5   3   5   47.02    2.97
  -5   3   6   60.18    3.18
  -5   3   7   26.16    2.72
  -5   3   8   17.58    3.58
  -5   3   9   16.83    3.66
  -5   4   1   14.76    2.38
  -5   4   2   22.98    2.49
  -5   4   3   22.39    4.19
  -5   4   4    1.30    2.03
  -5   4   5    5.39    2.13
  -5   4   6   13.08    2.49
  -5   4   7    7.56    2.39
  -5   4   8    6.78    2.56
  -5   5   1    3.49    2.38
  -5   5   2   10.30    4.08
  -5   5   3   21.60    4.34
  -5   5   4    9.21    3.93
  -5   5   5   17.46    4.60
  -5   5   6   21.06    4.70
  -5   5   7    4.50    2.57
  -5   6   1   10.00    2.76
  -5   6   2   13.80    4.63
  -5   6   3   16.65    4.49
  -4  -7  -2   13.69    4.27
  -4  -7  -1    4.15    4.00
  -4  -7   0    3.21    2.62
  -4  -6  -6    4.73    3.70
  -4  -6  -5    4.83    3.55
  -4  -6  -4    7.05    3.79
  -4  -6  -3   10.61    3.50
  -4  -6  -2   25.40    3.88
  -4  -6  -1   10.41    2.42
  -4  -6   0   20.20    2.87
  -4  -5  -7   11.91    3.05
  -4  -5  -6    0.85    2.48
  -4  -5  -5   11.04    2.53
  -4  -5  -4   28.15    2.60
  -4  -5  -3   26.34    3.99
  -4  -5  -2   34.77    2.79
  -4  -5  -1    1.16    2.09
  -4  -5   0   11.90    2.12
  -4  -4  -8   19.41    3.47
  -4  -4  -7   26.28    2.79
  -4  -4  -6    0.41    2.17
  -4  -4  -5    1.56    2.15
  -4  -4  -4    6.08    2.90
  -4  -4  -3   13.16    2.03
  -4  -4  -2   34.79    2.09
  -4  -4  -1    9.49    2.26
  -4  -4   0   25.03    4.13
  -4  -3  -9   36.89    4.60
  -4  -3  -8   32.68    4.12
  -4  -3  -7   57.68    3.16
  -4  -3  -6   14.33    2.38
  -4  -3  -5   36.47    3.79
  -4  -3  -4   66.21    5.09
  -4  -3  -3   78.64    3.12
  -4  -3  -2  106.56    3.26
  -4  -3  -1   28.53    2.34
  -4  -3   0   66.95    2.68
  -4  -2 -10    9.04    3.66
  -4  -2  -9   26.51    3.98
  -4  -2  -8   15.21    3.47
  -4  -2  -7   37.28    2.60
  -4  -2  -6    0.80    2.75
  -4  -2  -5   20.77    2.97
  -4  -2  -4   36.12    2.47
  -4  -2  -3   42.61    2.31
  -4  -2  -2   62.97    2.85
  -4  -2  -1    5.44    1.78
  -4  -2   0   31.11    2.18
  -4  -1 -10    7.00    2.52
  -4  -1  -9   40.51    2.90
  -4  -1  -8   30.55    3.73
  -4  -1  -6    0.79    2.51
  -4  -1  -5    2.99    1.86
  -4  -1  -4   12.57    2.42
  -4  -1  -3   21.89    2.85
  -4  -1  -2   47.34    2.28
  -4  -1  -1   12.12    1.78
  -4  -1   0   48.51    2.31
  -4   0 -10   18.71    3.99
  -4   0  -9   56.06    4.33
  -4   0  -5   78.67    3.99
  -4   0  -4  147.71    5.11
  -4   0  -3  167.80    4.98
  -4   0  -2  186.16    5.53
  -4   0  -1   46.87    3.31
  -4   0   0  114.77    4.49
  -4   0   1  106.30    4.13
  -4   0   2   76.07    3.56
  -4   0   3  100.66    4.11
  -4   0   4   85.88    3.12
  -4   0   5  138.94    4.32
  -4   0   6  128.72    5.30
  -4   0   7  131.56    5.00
  -4   0   8   38.75    3.76
  -4   0   9   19.12    3.29
  -4   0  10    9.04    3.02
  -4   0  11    7.64    2.99
  -4   1   1   51.27    2.41
  -4   1   2   33.13    1.81
  -4   1   3   14.20    1.51
  -4   1   4    1.61    1.40
  -4   1   5   10.57    1.54
  -4   1   6   24.77    1.71
  -4   1   7   78.96    3.11
  -4   1   8   27.85    2.29
  -4   1   9   23.85    3.08
  -4   1  10   10.74    2.13
  -4   1  11    7.04    3.08
  -4   2   1   27.92    2.08
  -4   2   2   22.74    1.58
  -4   2   3   22.62    1.63
  -4   2   4   15.16    1.64
  -4   2   5   24.14    2.09
  -4   2   6   40.40    2.24
  -4   2   7   68.43    4.73
  -4   2   8   15.17    2.76
  -4   2   9    6.45    2.73
  -4   2  10    4.40    2.77
  -4   3   1   71.21    2.21
  -4   3   2   50.68    1.99
  -4   3   3   48.13    2.74
  -4   3   4   40.70    2.47
  -4   3   5   43.49    2.75
  -4   3   6   65.91    2.88
  -4   3   7   76.06    3.10
  -4   3   8   29.30    3.55
  -4   3   9   16.44    3.00
  -4   3  10    9.68    3.07
  -4   4   1   38.03    4.14
  -4   4   2   26.82    2.46
  -4   4   3   14.42    4.86
  -4   4   4    0.44    1.83
  -4   4   5    1.49    1.44
  -4   4   6   12.15    1.70
  -4   4   7   42.14    2.85
  -4   4   8   19.64    2.43
  -4   4   9   12.84    3.23
  -4   5   1    9.04    2.22
  -4   5   2    6.15    3.42
  -4   5   3   14.50    3.59
  -4   5   4   14.16    3.69
  -4   5   5   24.85    4.05
  -4   5   6   30.51    2.68
  -4   5   7   24.91    2.05
  -4   5   8    4.09    1.80
  -4   6   1   26.72    2.71
  -4   6   2   24.68    4.17
  -4   6   3    9.33    3.78
  -4   6   4    5.14    3.85
  -4   6   5    5.17    4.01
  -4   6   6    8.64    4.45
  -4   7   1    8.87    4.13
  -4   7   2   13.71    4.42
  -4   7   3    9.52    4.43
  -2  -8  -3    0.64    3.82
  -2  -8  -2    0.26    4.00
  -2  -8  -1    0.65    3.76
  -2  -7  -7    5.66    3.70
  -2  -7  -6   12.76    4.18
  -2  -7  -5   12.46    3.99
  -2  -7  -4   16.76    4.06
  -2  -7  -3    8.37    3.45
  -2  -7  -2   11.36    3.46
  -2  -7  -1    9.71    3.52
  -2  -7   0   12.14    2.34
  -2  -6  -8    1.61    2.54
  -2  -6  -7   11.94    2.42
  -2  -6  -6   19.78    2.57
  -2  -6  -5   36.47    2.62
  -2  -6  -4   58.64    4.57
  -2  -6  -3   17.76    3.45
  -2  -6  -2   36.44    3.71
  -2  -6  -1   26.83    2.43
  -2  -6   0   37.07    2.59
  -2  -5  -9   13.46    2.71
  -2  -5  -8    9.39    2.24
  -2  -5  -7    4.34    2.08
  -2  -5  -6    5.20    1.94
  -2  -5  -5   12.07    2.57
  -2  -5  -4   28.18    2.34
  -2  -5  -3    6.42    1.77
  -2  -5  -2    2.65    1.79
  -2  -5  -1    3.18    1.71
  -2  -5   0    6.79    1.71
  -2  -4 -10   22.31    2.82
  -2  -4  -9   40.62    2.91
  -2  -4  -8    0.22    1.90
  -2  -4  -7   11.81    2.02
  -2  -4  -6   27.53    2.40
  -2  -4  -5   73.61    3.24
  -2  -4  -4  117.85    3.38
  -2  -4  -3   22.31    3.09
  -2  -4  -2   53.54    1.78
  -2  -4  -1   41.19    1.64
  -2  -4   0   77.62    4.73
  -2  -3 -11   15.30    2.64
  -2  -3 -10   34.28    2.70
  -2  -3  -9   65.33    3.31
  -2  -3  -8    6.92    2.42
  -2  -3  -7   23.90    2.35
  -2  -3  -6   38.40    2.16
  -2  -3  -5  108.43    3.18
  -2  -3  -4  198.66    3.71
  -2  -3  -3   31.62    1.41
  -2  -3  -2   63.42    1.67
  -2  -3  -1   34.20    1.32
  -2  -3   0   91.97    1.38
  -2  -2 -12    2.66    2.38
  -2  -2 -11    7.06    2.08
  -2  -2 -10   21.16    3.19
  -2  -2  -9   50.62    2.25
  -2  -2  -8   14.57    1.67
  -2  -2  -7    4.56    1.33
  -2  -2  -6    7.19    1.39
  -2  -2  -5   57.34    1.69
  -2  -2  -4  134.49    1.75
  -2  -2  -3   12.07    1.19
  -2  -2  -2   16.44    1.05
  -2  -2  -1    3.05    0.97
  -2  -2   0   35.75    1.20
  -2  -1 -12    8.97    2.59
  -2  -1 -11   15.23    1.69
  -2  -1 -10   29.68    1.72
  -2  -1  -9   84.81    2.46
  -2  -1  -8    3.86    1.29
  -2  -1  -7    8.72    1.13
  -2  -1  -6   31.49    1.22
  -2  -1  -5  167.82    2.34
  -2  -1  -4  305.21    3.11
  -2  -1  -3    4.05    0.83
  -2  -1  -2   64.74    1.51
  -2  -1  -1   74.05    1.52
  -2  -1   0  219.88    2.13
  -2   0 -12    5.56    2.50
  -2   0 -11   16.93    6.79
  -2   0 -10   42.20    2.78
  -2   0  -9   98.78    2.69
  -2   0  -8   35.22    1.69
  -2   0  -7   27.94    1.75
  -2   0  -6   42.77    2.68
  -2   0  -5  186.46    5.19
  -2   0  -4  353.12    4.09
  -2   0  -3   57.06    2.21
  -2   0  -2   66.72    2.02
  -2   0  -1    6.45    1.75
  -2   0   0  167.06    6.98
  -2   0   1  105.83    1.90
  -2   0   2  261.56    5.36
  -2   0   3  148.77    2.25
  -2   0   4  170.00    1.99
  -2   0   5  251.12    3.80
  -2   0   6  161.58    3.07
  -2   0   7  100.08    3.76
  -2   0   8   49.25    6.47
  -2   0   9   52.77    4.78
  -2   0  10   63.17    4.15
  -2   0  11   41.21    3.80
  -2   0  12   46.86    4.23
  -2   1   1  220.44    2.65
  -2   1   2  226.41    2.48
  -2   1   3   94.77    1.54
  -2   1   4  139.97    1.27
  -2   1   5   84.32    1.71
  -2   1   6   60.21    1.58
  -2   1   7   54.54    2.09
  -2   1   8   40.80    1.76
  -2   1   9   31.72    2.11
  -2   1  10   42.16    2.73
  -2   1  11   48.32    3.07
  -2   1  12   36.09    3.94
  -2   1  13   13.74    3.80
  -2   2   1   42.23    0.97
  -2   2   2  105.48    1.99
  -2   2   3   45.13    0.89
  -2   2   4   46.99    1.11
  -2   2   5   64.82    1.64
  -2   2   6   56.41    1.62
  -2   2   7   36.46    2.12
  -2   2   8   19.22    2.81
  -2   2   9   14.47    1.99
  -2   2  10   18.74    2.40
  -2   2  11   25.62    2.75
  -2   2  12   24.93    2.78
  -2   3   1   89.65    1.59
  -2   3   2  159.30    2.13
  -2   3   3   77.55    1.73
  -2   3   4   93.80    2.09
  -2   3   5  108.80    2.23
  -2   3   6  102.21    2.52
  -2   3   7   66.74    1.95
  -2   3   8   38.13    1.86
  -2   3   9   29.10    2.03
  -2   3  10   33.36    2.70
  -2   3  11   39.54    3.13
  -2   3  12   24.89    4.72
  -2   4   1   95.61    2.57
  -2   4   2  123.91    2.32
  -2   4   3   58.31    2.17
  -2   4   4   58.06    2.52
  -2   4   5   39.48    1.91
  -2   4   6   40.00    2.51
  -2   4   7   41.76    1.76
  -2   4   8   26.58    1.71
  -2   4   9   20.57    1.80
  -2   4  10   22.44    2.11
  -2   4  11   28.48    5.43
  -2   5   1    4.66    1.71
  -2   5   2   27.79    1.91
  -2   5   3   10.42    2.93
  -2   5   4   11.65    3.34
  -2   5   5   37.12    1.90
  -2   5   6   27.73    1.99
  -2   5   7   13.58    1.56
  -2   5   8    3.48    1.55
  -2   5   9    3.51    1.60
  -2   5  10    7.10    1.85
  -2   6   1   39.76    2.46
  -2   6   2   56.62    4.29
  -2   6   3   31.37    3.90
  -2   6   4   34.37    4.14
  -2   6   5   28.16    2.59
  -2   6   6   24.95    2.19
  -2   6   7   29.68    2.63
  -2   6   8   15.24    1.97
  -2   6   9   15.19    3.49
  -2   7   1   11.25    3.56
  -2   7   2   16.93    3.80
  -2   7   3   10.34    3.59
  -2   7   4    8.57    3.64
  -2   7   5   12.43    3.34
  -2   7   6    9.91    2.45
  -1  -8  -4    2.61    3.85
  -1  -8  -3    0.11    3.93
  -1  -8  -2    1.66    3.77
  -1  -8  -1    3.42    3.80
  -1  -7  -7    6.91    2.87
  -1  -7  -6   13.78    2.64
  -1  -7  -5   15.40    3.90
  -1  -7  -4   19.17    3.90
  -1  -7  -3    9.59    3.73
  -1  -7  -2   10.86    3.45
  -1  -7  -1   13.12    3.38
  -1  -7   0   30.72    2.68
  -1  -6  -9   20.51    2.97
  -1  -6  -8    6.85    2.01
  -1  -6  -7   11.01    2.39
  -1  -6  -6   31.24    2.65
  -1  -6  -5   51.86    2.95
  -1  -6  -4   66.99    2.92
  -1  -6  -3   29.93    3.73
  -1  -6  -2   23.05    3.40
  -1  -6  -1   22.97    2.00
  -1  -6   0   49.78    2.19
  -1  -5 -10   27.30    2.91
  -1  -5  -9   46.44    2.40
  -1  -5  -8    8.74    1.84
  -1  -5  -7   11.42    2.01
  -1  -5  -6   12.19    2.75
  -1  -5  -5    9.40    2.04
  -1  -5  -4    9.11    1.79
  -1  -5  -3    5.41    1.55
  -1  -5  -2   10.51    1.17
  -1  -5  -1   38.15    1.59
  -1  -5   0   83.84    3.14
  -1  -4 -11   28.15    2.91
  -1  -4 -10   25.39    2.59
  -1  -4  -9   32.76    3.14
  -1  -4  -8   16.35    1.78
  -1  -4  -7   18.96    2.25
  -1  -4  -6   50.78    2.48
  -1  -4  -5   94.34    3.12
  -1  -4  -4  122.73    3.10
  -1  -4  -3   71.45    2.55
  -1  -4  -2   48.62    1.24
  -1  -4  -1   29.48    1.35
  -1  -4   0   98.47    1.85
  -1  -3 -12   15.12    3.70
  -1  -3 -11   49.09    8.07
  -1  -3 -10   64.37    3.33
  -1  -3  -9  110.56    3.40
  -1  -3  -8   38.83    3.13
  -1  -3  -7   63.87    2.50
  -1  -3  -6   78.61    2.82
  -1  -3  -5  108.96    2.56
  -1  -3  -4  125.10    2.43
  -1  -3  -3   90.60    1.85
  -1  -3  -2   96.45    1.53
  -1  -3  -1  204.89    1.44
  -1  -3   0  421.92    3.85
  -1  -2 -12    9.01    3.12
  -1  -2 -11   43.14    2.56
  -1  -2 -10   48.36    2.24
  -1  -2  -9   78.51    2.46
  -1  -2  -8   31.01    1.63
  -1  -2  -7   38.32    1.41
  -1  -2  -6   46.54    1.23
  -1  -2  -5   61.80    1.49
  -1  -2  -4   54.95    1.24
  -1  -2  -3   33.96    1.20
  -1  -2  -2   72.79    1.13
  -1  -2  -1   93.31    1.87
  -1  -2   0  181.03    3.01
  -1  -1 -13    0.34    3.09
  -1  -1 -12   17.88    1.86
  -1  -1 -11   54.91    2.50
  -1  -1 -10   40.43    1.78
  -1  -1  -9   58.67    1.83
  -1  -1  -8   49.44    1.65
  -1  -1  -7   41.39    1.25
  -1  -1  -6   84.91    2.12
  -1  -1  -5  188.15    1.83
  -1  -1  -4  229.58    1.85
  -1  -1  -3  180.65    1.44
  -1  -1  -2  228.51    2.43
  -1  -1  -1   64.46    5.91
  -1  -1   0   92.70   60.51
  -1   0 -12   17.56    2.60
  -1   0 -11   82.10    8.31
  -1   0 -10  115.88    5.47
  -1   0  -9  203.34    4.92
  -1   0  -8   61.68    2.29
  -1   0  -7  147.74    4.19
  -1   0  -6  126.19    1.90
  -1   0  -5  138.33    2.16
  -1   0  -4  186.70    1.88
  -1   0  -3  245.93    5.54
  -1   0   2  150.21   11.90
  -1   0   3   40.87    1.25
  -1   0   4    2.53    0.60
  -1   0   5  464.95    6.55
  -1   0   6  210.17    2.59
  -1   0   7  153.88    3.56
  -1   0   8   41.80    3.07
  -1   0   9   73.04    4.21
  -1   0  10   28.09    3.01
  -1   0  11   61.51    4.17
  -1   1   1   16.68    3.19
  -1   1   2   49.37    1.36
  -1   1   3  242.94    1.62
  -1   1   4  176.45    1.90
  -1   1   5  282.54    3.15
  -1   1   6   83.05    2.08
  -1   1   7   51.08    1.63
  -1   1   8    0.02    1.20
  -1   1   9   12.48    1.81
  -1   1  10    6.54    4.85
  -1   1  11   32.88    3.26
  -1   1  12   11.95    3.06
  -1   1  13   19.06    3.53
  -1   2   1   51.97    2.45
  -1   2   2   17.19    0.94
  -1   2   3   42.21    1.15
  -1   2   4   21.00    0.84
  -1   2   5  158.76    2.66
  -1   2   6   51.88    1.45
  -1   2   7   38.40    2.19
  -1   2   8    0.50    3.43
  -1   2   9   14.65    2.22
  -1   2  10    3.28    3.36
  -1   2  11   24.48    2.66
  -1   2  12   12.55    3.73
  -1   3   1  204.09    3.39
  -1   3   2   86.58    1.78
  -1   3   3   34.96    1.23
  -1   3   4   27.04    1.72
  -1   3   5  233.91    3.06
  -1   3   6   97.56    2.84
  -1   3   7   76.88    2.74
  -1   3   8   24.99    2.27
  -1   3   9   34.69    3.21
  -1   3  10   16.60    2.55
  -1   3  11   40.18    2.98
  -1   3  12   21.96    4.10
  -1   4   1   14.87    1.69
  -1   4   2   18.99    1.24
  -1   4   3   44.95    3.22
  -1   4   4   61.17    2.47
  -1   4   5  119.63    2.71
  -1   4   6   41.66    2.38
  -1   4   7   22.06    2.30
  -1   4   8    3.97    1.82
  -1   4   9    6.96    3.06
  -1   4  10    0.64    2.71
  -1   4  11   13.19    2.13
  -1   5   1   41.68    2.11
  -1   5   2    8.96    1.67
  -1   5   3    0.13    2.64
  -1   5   4    0.24    1.81
  -1   5   5   47.73    2.57
  -1   5   6   20.75    2.72
  -1   5   7   15.53    2.18
  -1   5   8    7.98    2.84
  -1   5   9   14.23    2.27
  -1   5  10    4.13    2.39
  -1   6   1   25.37    1.97
  -1   6   4   25.31    2.53
  -1   6   5   64.80    3.05
  -1   6   6   27.32    2.56
  -1   6   7   14.05    3.29
  -1   6   8    5.78    2.19
  -1   6   9    9.19    1.92
  -1   7   1   14.68    3.50
  -1   7   3    3.33    2.60
  -1   7   4    4.41    2.07
  -1   7   5   25.90    2.55
  -1   7   6    9.03    2.29
  -1   7   7    6.45    2.33
  -1   8   1    6.70    3.56
  -1   8   2    4.75    3.75
  -1   8   3    1.71    3.44
  -1   8   4    0.50    2.04
  -1   8   5    7.95    4.04
   1  -8  -4    2.79    3.81
   1  -8  -3    0.00    3.69
   1  -8  -2    1.30    3.54
   1  -8  -1    4.64    3.65
   1  -7  -7    4.17    2.69
   1  -7  -6   13.16    2.69
   1  -7  -5   23.56    2.69
   1  -7  -4    8.40    3.70
   1  -7  -3   10.88    3.09
   1  -7  -2    8.80    3.07
   1  -7  -1   15.17    2.20
   1  -6  -9    7.26    2.74
   1  -6  -8    5.09    3.46
   1  -6  -7   12.72    2.43
   1  -6  -6   29.39    2.71
   1  -6  -5   62.52    3.14
   1  -6  -4   30.37    2.48
   1  -6  -3   20.97    2.15
   1  -6  -2   17.32    3.19
   1  -6  -1   23.88    2.47
   1  -5 -10    0.88    3.10
   1  -5  -9   11.59    2.41
   1  -5  -8    8.89    2.20
   1  -5  -7   12.52    2.10
   1  -5  -6   14.92    2.83
   1  -5  -5   39.00    3.33
   1  -5  -4    1.73    1.55
   1  -5  -3    0.43    1.45
   1  -5  -2   11.37    1.60
   1  -5  -1   41.41    1.66
   1  -4 -11   15.87    2.79
   1  -4 -10    0.64    2.07
   1  -4  -9    2.82    1.98
   1  -4  -8    0.73    1.49
   1  -4  -7   22.25    2.51
   1  -4  -6   41.92    3.48
   1  -4  -5  122.35    3.80
   1  -4  -4   72.75    2.49
   1  -4  -3   55.70    2.17
   1  -4  -2   24.10    1.49
   1  -4  -1   16.12    1.39
   1  -3 -12   17.51    1.86
   1  -3 -11   40.65    1.94
   1  -3 -10   14.99    2.28
   1  -3  -9   34.99    2.35
   1  -3  -8   26.11    5.18
   1  -3  -7   72.16    2.74
   1  -3  -6   98.02    2.87
   1  -3  -5  222.07    2.91
   1  -3  -4   29.74    1.68
   1  -3  -3   43.38    1.18
   1  -3  -2   88.43    1.58
   1  -3  -1  205.61    1.68
   1  -2 -12    7.91    1.81
   1  -2 -11   24.11    1.74
   1  -2 -10    4.96    1.31
   1  -2  -9   15.02    1.50
   1  -2  -8    4.57    1.53
   1  -2  -7   40.76    2.21
   1  -2  -6   43.76    2.01
   1  -2  -5  149.72    2.51
   1  -2  -4   27.66    0.98
   1  -2  -3   56.25    1.13
   1  -2  -2   21.93    0.95
   1  -2  -1   57.50    1.63
   1  -1 -12   13.35    1.65
   1  -1 -11   28.03    1.54
   1  -1 -10    3.01    1.12
   1  -1  -9    7.38    0.96
   1  -1  -8    0.55    0.87
   1  -1  -7   46.90    1.16
   1  -1  -6   93.79    2.02
   1  -1  -5  273.45    1.67
   1  -1  -4  195.44    1.69
   1  -1  -3  264.80    1.63
   1  -1  -2   60.38    1.19
   1  -1  -1   19.91    1.53
   1   0 -12   24.66    2.76
   1   0 -11   66.44    2.63
   1   0 -10   30.79    1.86
   1   0  -9   68.17    3.01
   1   0  -8   43.10    1.72
   1   0  -7  157.21    2.78
   1   0  -6  203.32    2.16
   1   0  -5  449.58    3.01
   1   0  -4    2.56    0.58
   1   0  -3   48.03    1.04
   1   0  -2  174.57    6.23
   1   0  -1  271.16  465.97
   1   0   3  222.13    3.64
   1   0   4  167.36    3.53
   1   0   5  135.49    7.78
   1   0   6  121.09    2.78
   1   0   7  146.26    3.62
   1   0   8   52.97    3.71
   1   1   0  119.72   68.22
   1   1   1   80.85    2.71
   1   1   2  244.38    1.85
   1   1   3  181.97    1.85
   1   1   4  247.27    3.01
   1   1   5  196.42    2.15
   1   1   6   92.03    1.92
   1   1   7   47.45    1.59
   1   1   8   33.62    2.88
   1   1   9   61.84    3.86
   1   1  10   40.63    3.91
   1   2   0  164.61    3.36
   1   2   1  108.83    2.04
   1   2   2   82.22    1.20
   1   2   3   32.50    1.23
   1   2   4   55.86    1.76
   1   2   5   62.82    1.41
   1   2   6   46.28    1.47
   1   2   7   35.61    2.16
   1   2   8   22.07    2.57
   1   2   9   77.02    3.67
   1   2  10   55.02    4.91
   1   2  11   44.73    4.37
   1   3   0  413.00    3.96
   1   3   1  205.95    2.05
   1   3   2   99.26    1.67
   1   3   3   82.56    1.62
   1   3   4  125.34    1.97
   1   3   5  110.22    2.30
   1   3   6   71.43    3.29
   1   3   7   60.55    2.76
   1   3   8   25.48    2.24
   1   3   9  104.59    2.98
   1   3  10   68.54    3.71
   1   3  11   49.58    3.55
   1   3  12   13.43    3.93
   1   4   0   82.91    1.48
   1   4   1   35.74    2.10
   1   4   2   57.24    1.79
   1   4   3   73.87    1.86
   1   4   4  135.55    2.59
   1   4   5  103.66    3.18
   1   4   6   54.08    2.49
   1   4   7   19.60    2.45
   1   4   8   10.71    2.27
   1   4   9   23.46    2.49
   1   4  10   23.99    2.57
   1   4  11   33.02    3.39
   1   5   0   83.19    3.00
   1   5   1   40.82    1.57
   1   5   2   11.95    1.68
   1   5   3    4.13    1.60
   1   5   4    7.92    1.77
   1   5   5   10.91    1.93
   1   5   6   11.02    2.04
   1   5   7   14.32    2.05
   1   5   8    4.20    2.36
   1   5   9   41.08    3.01
   1   5  10   29.35    2.78
   1   6   0   40.76    2.55
   1   6   1   20.68    3.79
   1   6   2   24.00    1.74
   1   6   3   32.19    2.35
   1   6   4   61.42    2.87
   1   6   5   49.52    5.21
   1   6   6   34.85    2.59
   1   6   7   13.26    3.50
   1   6   8    5.60    3.85
   1   6   9   21.06    4.63
   1   7   0   22.78    3.75
   1   7   1   17.88    3.51
   1   7   2    9.48    3.56
   1   7   3    8.13    3.21
   1   7   4   20.28    3.45
   1   7   5   16.53    2.39
   1   7   6   13.94    2.48
   1   7   7    8.12    2.52
   1   8   0   11.05    3.85
   1   8   1    6.67    3.75
   1   8   2    2.22    3.71
   1   8   3    0.11    4.00
   1   8   5    2.41    3.75
   2  -8  -4    5.74    3.93
   2  -8  -3    3.04    3.72
   2  -8  -2    3.78    3.80
   2  -7  -7   16.50    4.25
   2  -7  -6   14.92    4.07
   2  -7  -5   12.99    3.39
   2  -7  -4   15.13    2.53
   2  -7  -3   11.62    3.45
   2  -7  -2   19.48    3.52
   2  -7  -1   15.19    2.49
   2  -6  -9   11.47    4.24
   2  -6  -8   18.64    3.89
   2  -6  -7   31.73    3.92
   2  -6  -6   28.93    4.62
   2  -6  -5   27.15    2.63
   2  -6  -4   33.46    2.69
   2  -6  -3   31.41    3.96
   2  -6  -2   58.21    2.89
   2  -6  -1   39.80    2.65
   2  -5 -10    5.46    3.58
   2  -5  -9    4.56    3.10
   2  -5  -8    5.50    2.99
   2  -5  -7   13.86    3.24
   2  -5  -6   23.99    2.42
   2  -5  -5   27.89    2.32
   2  -5  -4    7.36    2.03
   2  -5  -3    6.82    1.81
   2  -5  -2   25.22    3.81
   2  -5  -1    7.16    1.52
   2  -4 -11   29.81    2.96
   2  -4 -10   20.95    3.65
   2  -4  -9   20.34    3.37
   2  -4  -8   23.90    3.30
   2  -4  -7   38.36    2.49
   2  -4  -6   38.17    2.41
   2  -4  -5   38.16    2.39
   2  -4  -4   62.92    2.73
   2  -4  -3   57.70    2.36
   2  -4  -2  122.34    3.20
   2  -4  -1   89.63    2.11
   2  -3 -12   30.72    2.46
   2  -3 -11   35.82    2.33
   2  -3 -10   37.88    2.17
   2  -3  -9   29.18    2.47
   2  -3  -8   37.42    2.24
   2  -3  -7   68.61    2.23
   2  -3  -6   95.50    2.41
   2  -3  -5  105.76    2.10
   2  -3  -4   90.01    1.93
   2  -3  -3   80.27    2.33
   2  -3  -2  162.11    4.01
   2  -3  -1   90.50    1.75
   2  -2 -12   22.30    2.53
   2  -2 -11   24.96    2.60
   2  -2 -10   29.01    2.02
   2  -2  -9   17.73    1.37
   2  -2  -8   20.40    1.51
   2  -2  -7   35.12    2.10
   2  -2  -6   48.28    1.40
   2  -2  -5   56.03    1.33
   2  -2  -4   46.59    1.05
   2  -2  -3   39.57    1.01
   2  -2  -2  108.17    2.54
   2  -2  -1   39.98    0.76
   2  -1 -12   31.93    1.96
   2  -1 -11   39.94    1.92
   2  -1 -10   36.05    1.75
   2  -1  -9   30.98    1.59
   2  -1  -8   41.03    1.42
   2  -1  -7   51.91    1.50
   2  -1  -6   54.45    1.18
   2  -1  -5   88.76    1.29
   2  -1  -4  146.31    1.45
   2  -1  -3   96.58    1.38
   2  -1  -2  235.36    2.94
   2  -1  -1  204.86    1.89
   2   0 -13   27.03    3.97
   2   0 -12   43.06    2.97
   2   0 -11   44.72    2.87
   2   0 -10   62.98    3.05
   2   0  -9   48.66    2.35
   2   0  -8   56.09    2.99
   2   0  -7   96.20    2.88
   2   0  -6  160.71    2.47
   2   0  -5  235.83    2.85
   2   0  -4  167.28    2.51
   2   0  -3  139.40    1.40
   2   0  -2  273.82    3.40
   2   0  -1  117.99    4.26
   2   0   0  175.61    2.57
   2   0   1    5.75    1.15
   2   0   2   63.18    1.99
   2   0   3   44.24    4.97
   2   0   4  343.46    4.43
   2   0   5  174.14    4.77
   2   0   6   43.38    2.77
   2   0   7   30.23    2.33
   2   0   8   40.96    2.59
   2   0   9   93.87    4.71
   2   1   0  209.61    1.70
   2   1   1   62.15    1.09
   2   1   2   60.20    1.26
   2   1   3    7.60    0.84
   2   1   4  303.97    3.18
   2   1   5  167.28    2.52
   2   1   6   31.46    1.46
   2   1   7    7.48    1.56
   2   1   8    7.50    2.86
   2   1   9   79.57    3.83
   2   1  10   30.42    3.60
   2   2   0   34.95    0.96
   2   2   1    1.40    0.63
   2   2   2   10.99    0.91
   2   2   3    5.20    0.90
   2   2   4  126.80    1.95
   2   2   5   51.43    1.47
   2   2   6    7.90    1.27
   2   2   7    8.35    1.91
   2   2   8   20.22    2.67
   2   2   9   50.55    3.26
   2   2  10   17.97    3.54
   2   2  11    6.85    3.44
   2   2  12    3.71    3.82
   2   3   0   96.09    1.31
   2   3   1   31.31    1.07
   2   3   2   55.94    1.96
   2   3   3   28.70    3.28
   2   3   4  188.89    2.84
   2   3   5  103.34    2.26
   2   3   6   38.69    1.75
   2   3   7   23.03    2.19
   2   3   8   12.31    2.01
   2   3   9   59.92    3.25
   2   3  10   33.00    3.24
   2   3  11   15.76    4.14
   2   4   0   74.34    1.89
   2   4   1   33.58    1.31
   2   4   2   51.23    1.34
   2   4   3   24.48    1.25
   2   4   4  121.02    3.34
   2   4   5   72.40    3.91
   2   4   6   28.46    2.52
   2   4   7    6.91    1.99
   2   4   8    0.08    2.00
   2   4   9   34.10    3.21
   2   4  10   23.32    2.86
   2   4  11   11.90    5.91
   2   5   0   10.37    1.41
   2   5   1    6.04    1.80
   2   5   2    1.85    1.32
   2   5   3    4.64    1.94
   2   5   4   22.89    3.20
   2   5   5    9.42    1.53
   2   5   6    0.67    2.02
   2   5   7    0.16    2.25
   2   5   8    9.90    2.19
   2   5   9   12.98    2.56
   2   5  10   10.31    4.71
   2   6   0   28.98    2.51
   2   6   1   26.07    2.41
   2   6   2   28.33    3.74
   2   6   3   20.09    2.50
   2   6   4   57.48    4.25
   2   6   5   40.67    3.81
   2   6   6   20.19    3.84
   2   6   7    5.23    3.37
   2   6   8    1.90    3.68
   2   6   9   19.60    4.82
   2   7   0    8.31    2.34
   2   7   1   13.67    3.71
   2   7   2   10.45    3.68
   2   7   3    1.91    3.42
   2   7   4   21.66    2.68
   2   7   5   14.99    4.75
   2   7   6    7.39    3.66
   2   8   0    0.15    3.81
   2   8   1    3.99    3.81
   2   8   2    0.11    3.91
   3  -2  -2  204.51    4.01
   3  -2  -1   37.42    2.46
   3  -1  -6   14.42    1.89
   3  -1  -4   34.51    2.17
   3  -1  -3   60.11    2.41
   3  -1  -1   92.76    2.47
   3   0  -3  141.27   26.82
   3   2   0   46.56    2.02
   3   2   1   53.44    2.44
   3   2   2   39.01    1.74
   4  -7  -4    6.13    3.84
   4  -7  -3    7.76    2.90
   4  -7  -2   12.07    4.16
   4  -7  -1   11.80    3.89
   4  -6  -6   12.90    2.94
   4  -6  -5    4.19    2.55
   4  -6  -4    3.48    2.36
   4  -6  -3   10.98    2.56
   4  -6  -2   21.98    2.71
   4  -6  -1   30.50    2.79
   4  -5  -8    3.80    2.67
   4  -5  -7   19.43    2.80
   4  -5  -6   32.56    2.88
   4  -5  -5   18.65    2.60
   4  -5  -4   16.56    2.49
   4  -5  -3   13.06    3.25
   4  -5  -2    8.88    2.22
   4  -5  -1   10.84    3.55
   4  -4  -9   13.76    2.72
   4  -4  -8   16.20    2.51
   4  -4  -7   31.78    3.12
   4  -4  -6   14.74    2.41
   4  -4  -5    5.04    1.95
   4  -4  -4    4.74    2.04
   4  -4  -3   13.33    2.23
   4  -4  -2   25.46    2.88
   4  -4  -1   34.25    2.02
   4  -3 -10    9.88    2.52
   4  -3  -9   17.85    2.49
   4  -3  -8   26.15    2.68
   4  -3  -7   71.65    2.56
   4  -3  -5   53.07    4.05
   4  -3  -4   40.90    3.48
   4  -3  -3   47.97    2.70
   4  -3  -2   44.30    2.36
   4  -3  -1   76.86    3.84
   4  -2 -10    6.11    3.08
   4  -2  -9   10.72    2.19
   4  -2  -8   14.57    2.19
   4  -2  -7   54.21    2.95
   4  -2  -6   52.22    1.96
   4  -2  -5   32.87    1.75
   4  -2  -4   16.28    1.96
   4  -2  -3   22.21    2.37
   4  -2  -2   18.44    1.47
   4  -2  -1   33.30    2.23
   4  -1 -11    1.38    2.92
   4  -1 -10    8.45    3.04
   4  -1  -9   23.05    2.30
   4  -1  -8   26.54    2.95
   4  -1  -7   72.34    2.28
   4  -1  -6   35.41    1.82
   4  -1  -5   17.14    1.63
   4  -1  -4    1.81    0.96
   4  -1  -3   16.08    1.00
   4  -1  -2   28.79    1.90
   4  -1  -1   55.42    2.66
   4   0 -11    8.90    3.11
   4   0 -10   13.35    3.12
   4   0  -9   24.06    3.33
   4   0  -8   36.15    3.64
   4   0  -7  126.42    5.07
   4   0  -6  139.70    3.85
   4   0  -5  138.80    2.57
   4   0  -4   95.68    6.36
   4   0  -3  103.92    3.58
   4   0  -2   79.86    3.66
   4   0  -1  112.17    3.90
   4   0   0  130.58    4.26
   4   0   1   52.23    6.06
   4   0   2  204.58    4.34
   4   0   3  167.43    3.90
   4   0   4  168.19    4.51
   4   0   5   83.29    3.48
   4   0   6   19.27    2.94
   4   0   7   76.55    3.66
   4   0   8   38.30    4.49
   4   0   9   49.97    3.67
   4   0  10    9.35    3.48
   4   1   0   55.46    4.34
   4   1   1   12.91    1.15
   4   1   2   55.84    1.77
   4   1   3   23.25    1.73
   4   1   4   18.08    1.86
   4   1   5    4.56    2.12
   4   1   6    0.25    1.59
   4   1   7   40.67    2.38
   4   1   8   29.31    2.20
   4   1   9   43.73    2.53
   4   1  10    8.63    2.55
   4   2   0   39.26    2.45
   4   2   1    4.22    2.57
   4   2   2   68.40    4.10
   4   2   3   45.93    2.25
   4   2   4   37.85    3.02
   4   2   5   17.44    1.70
   4   2   6    2.07    1.69
   4   2   7   35.77    2.07
   4   2   8   16.53    2.06
   4   2   9   27.02    2.81
   4   2  10    5.46    6.18
   4   3   0   74.48    2.30
   4   3   1   26.76    4.40
   4   3   2  107.76    3.49
   4   3   3   82.10    3.59
   4   3   4   64.10    2.65
   4   3   5   40.00    5.10
   4   3   6   10.37    2.21
   4   3   7   57.83    2.54
   4   3   8   27.98    4.11
   4   3   9   32.99    3.87
   4   4   0   22.37    3.22
   4   4   1    4.86    1.73
   4   4   2   33.06    1.83
   4   4   3   14.34    1.53
   4   4   4    6.79    1.53
   4   4   5    2.44    1.83
   4   4   6    0.55    1.88
   4   4   7   27.75    2.44
   4   4   8   23.65    3.81
   4   5   0   15.60    3.05
   4   5   1    0.57    2.70
   4   5   2   36.97    1.97
   4   5   3   30.67    2.33
   4   5   4   24.78    1.80
   4   5   5   12.96    2.20
   4   5   6    1.82    2.04
   4   5   7   20.96    4.42
   4   6   0   19.51    3.70
   4   6   1    6.65    3.17
   4   6   2   25.72    2.41
   4   6   3   11.48    2.27
   4   6   4    4.73    5.22
   4   6   5    5.59    2.22
   4   6   6    1.76    3.76
   4   7   0    8.63    3.80
   4   7   1    2.60    3.51
   4   7   2   11.01    4.25
   4   7   3    9.52    3.44
   5  -6  -4    5.56    4.15
   5  -6  -3   17.67    7.75
   5  -6  -2   15.76    3.27
   5  -6  -1   11.49    4.08
   5  -5  -7    8.27    4.02
   5  -5  -6   24.03    3.11
   5  -5  -5   15.62    2.92
   5  -5  -4    9.09    2.52
   5  -5  -3   22.82    2.85
   5  -5  -2    9.90    3.61
   5  -5  -1    1.58    3.06
   5  -4  -8   10.22    2.65
   5  -4  -7    9.01    2.07
   5  -4  -6   14.78    2.56
   5  -4  -5    4.62    2.25
   5  -4  -4    2.63    2.27
   5  -4  -3   22.83    2.63
   5  -4  -2   25.38    3.56
   5  -4  -1   14.34    2.19
   5  -3  -9   16.92    2.73
   5  -3  -8   16.89    2.55
   5  -3  -7   25.67    2.73
   5  -3  -6   56.53    3.11
   5  -3  -5   46.84    2.75
   5  -3  -4   26.11    2.47
   5  -3  -3   59.67    2.38
   5  -3  -2   42.75    7.95
   5  -3  -1   22.46    2.18
   5  -2  -9   11.08    2.34
   5  -2  -8   12.92    2.24
   5  -2  -7   16.84    1.82
   5  -2  -6   41.76    2.21
   5  -2  -5   28.80    1.92
   5  -2  -4   10.99    1.73
   5  -2  -3   35.27    2.34
   5  -2  -2   29.74    1.82
   5  -2  -1    6.96    1.41
   5  -1 -10   14.03    3.42
   5  -1  -9   14.73    3.24
   5  -1  -8    9.29    2.16
   5  -1  -7   12.99    1.89
   5  -1  -6   30.52    2.31
   5  -1  -5   11.63    1.38
   5  -1  -4    1.68    1.85
   5  -1  -3   29.29    1.87
   5  -1  -2   45.96    1.90
   5  -1  -1   18.32    1.82
   5   0 -10   19.88    3.68
   5   0  -9   14.31    3.24
   5   0  -8   22.21    3.33
   5   0  -7   45.28    3.03
   5   0  -6  132.65    3.93
   5   0  -5   98.27    6.03
   5   0  -4   60.05    3.95
   5   0  -3  101.95    4.65
   5   0  -2   88.17    4.48
   5   0  -1   32.79    3.22
   5   0   0   33.92    2.50
   5   0   1    1.08    1.98
   5   0   2  200.72    4.69
   5   0   3   91.75    6.70
   5   0   4   59.16    5.48
   5   0   5   23.44    2.90
   5   0   6   13.28    3.33
   5   0   7   24.25    3.16
   5   0   8   15.05    3.13
   5   1   0   22.08    1.50
   5   1   1   15.12    1.46
   5   1   2   84.07    2.17
   5   1   3   12.29    1.66
   5   1   4    4.76    1.66
   5   1   5    4.79    1.72
   5   1   6    7.71    1.90
   5   1   7   16.99    2.10
   5   1   8   15.65    2.20
   5   2   0    8.01    1.46
   5   2   1    5.17    1.44
   5   2   2   84.84    2.92
   5   2   3   22.60    2.24
   5   2   4   13.06    1.76
   5   2   5    7.00    1.76
   5   2   6    6.57    1.82
   5   2   7    9.82    2.07
   5   2   8    7.32    2.17
   5   3   0   23.68    1.90
   5   3   1    3.66    1.78
   5   3   2  106.26    2.68
   5   3   3   44.92    2.54
   5   3   4   33.74    2.56
   5   3   5   13.71    3.38
   5   3   6   10.37    2.93
   5   3   7   22.94    3.21
   5   4   0   14.20    4.16
   5   4   1    4.91    1.98
   5   4   2   36.76    2.45
   5   4   3    7.62    1.65
   5   4   4    3.91    1.65
   5   4   5    3.59    1.73
   5   4   6    3.84    2.16
   5   5   0    1.44    3.16
   5   5   1    0.36    2.05
   5   5   2   29.65    2.69
   5   5   3   16.12    2.30
   5   5   4   12.26    2.33
   5   5   5    5.70    2.98
   5   6   0   14.98    4.05
   5   6   1    7.02    3.88
   5   6   2   23.34    4.43
   5   6   3    8.11    3.90
   6  -4  -6    7.91    2.39
   6  -4  -5    9.33    3.10
   6  -4  -3   19.89    3.18
   6  -4  -2   19.13    2.62
   6  -4  -1   24.15    3.16
   6  -3  -6   15.24    2.65
   6  -3  -5   13.80    3.85
   6  -3  -4    5.17    1.68
   6  -3  -2   19.67    3.52
   6  -3  -1   18.38    2.17
   6  -2  -7    8.23    2.88
   6  -2  -6    9.72    2.22
   6  -2  -5    8.64    2.42
   6  -2  -4   10.29    1.49
   6  -2  -3   17.95    2.63
   6  -2  -2   10.58    1.65
   6  -2  -1    9.95    1.60
   6  -1  -9   19.12    3.81
   6  -1  -8    5.95    1.93
   6  -1  -7   13.00    2.49
   6  -1  -6    6.51    1.84
   6  -1  -5   11.12    1.68
   6  -1  -4   13.27    5.85
   6  -1  -3   29.08    2.09
   6  -1  -2   27.90    2.64
   6  -1  -1   30.41    2.99
   6   0  -8    4.26    2.27
   6   0  -7   10.97    2.29
   6   0  -6    9.92    1.98
   6   0  -5   20.35    2.46
   6   0  -4   26.58    3.03
   6   0  -3   43.10    3.39
   6   0   0   19.75    2.11
   6   0   2   47.32    4.47
   6   0   3   41.34    4.51
   6   0   4   49.57    4.97
   6   0   5   21.45    3.81
   6   0   6   25.56    4.47
   6   1   0   30.35    8.41
   6   1   1   31.92    4.54
   6   1   2   29.98    4.16
   6   1   3   21.96    3.32
   6   1   4   23.02    2.51
   6   1   5   12.22    3.54
   6   1   6   18.40    3.25
   6   2   0    8.09    1.16
   6   2   1   22.79    2.58
   6   2   2   18.23    2.03
   6   2   3   11.22    2.16
   6   2   4   21.88    2.68
   6   2   5    6.46    1.92
   6   3   0   12.96    5.02
   6   3   1   22.60    5.13
   6   3   2   28.08    3.00
   6   3   3   25.10    4.33
   6   3   4   34.23    2.64
   6   3   5    9.94    8.20
   6   4   0   11.02    5.17
   6   4   1   17.96    2.89
   6   4   2   15.59    3.03
   6   4   3   13.07    3.31
   6   4   4   14.72    3.54
   7  -3  -4    7.27    3.67
   7  -3  -3    8.59    4.05
   7  -3  -2   23.97    4.36
   7  -3  -1    9.58    3.45
   7  -2  -3    3.97    3.26
   7  -2  -2   13.68    2.04
   7  -2  -1    3.86    2.22
   7  -1  -4   11.90    2.41
   7  -1  -3   11.51    2.14
   7  -1  -2   29.66    5.29
   7  -1  -1    9.31    1.94
   7   0  -4    7.90    3.19
   7   0  -3    5.14    3.11
   7   0  -2   34.60    4.01
   7   0  -1   19.84    3.42
   7   0   0   35.12    4.04
   7   0   1    5.83    3.00
   7   0   2   18.87    5.30
   7   0   3   21.05    4.24
   7   1   0   26.15    2.36
   7   1   1    5.49    2.12
   7   1   2   12.41    2.43
   7   1   3    5.46    2.49
   7   2   0   20.25    2.70
   7   2   1    2.75    2.46
   7   2   2    8.27    4.02
   7   2   3    5.67    3.28
   7   3   0   20.85    3.89
   0   0   0    0.00    0.00
;
_shelx_hkl_checksum              47554
_olex2_submission_special_instructions 'No special instructions were received'
loop_
_space_group_symop_operation_xyz
'x, y, z'
'x, -y, z'
loop_
_atom_site_label
_atom_site_type_symbol
_atom_site_fract_x
_atom_site_fract_y
_atom_site_fract_z
_atom_site_U_iso_or_equiv
_atom_site_adp_type
_atom_site_occupancy
_atom_site_site_symmetry_order
_atom_site_calc_flag
_atom_site_refinement_flags_posn
_atom_site_refinement_flags_adp
_atom_site_refinement_flags_occupancy
Co1 Co -0.01161(8) 0.0000 1.00716(8) 0.0221(6) Uani 1 2 d S T P
O3 O -0.503(3) 0.0000 0.7796(19) 0.065(5) Uani 1 2 d S TU P
O2 O -0.2926(18) 0.0000 0.1363(12) 0.031(3) Uani 1 2 d S TU P
O1W O 0.324(2) 0.0000 0.9781(14) 0.040(3) Uani 1 2 d DS TU P
C6 C -0.008(3) 0.0000 0.450(2) 0.026(4) Uani 1 2 d S TU P
H6 H 0.1356 0.0000 0.4267 0.031 Uiso 1 2 calc RS T P
C7 C -0.144(2) 0.0000 0.2247(16) 0.022(3) Uani 1 2 d S TU P
N7 N -0.016(2) 0.3158(11) 1.0052(14) 0.0218(18) Uani 1 1 d . . .
C1 C -0.188(2) 0.0000 0.3574(14) 0.020(3) Uani 1 2 d S TU P
C5 C -0.049(4) 0.0000 0.580(2) 0.044(6) Uani 1 2 d S TU P
H5 H 0.0666 0.0000 0.6427 0.053 Uiso 1 2 calc RS T P
O1 O 0.0577(17) 0.0000 0.2013(9) 0.010(2) Uani 1 2 d S TU P
O4 O -0.156(2) 0.0000 0.8284(12) 0.026(3) Uani 1 2 d S TU P
C10 C -0.245(2) 0.3948(19) 1.0023(15) 0.036(3) Uani 1 1 d . . .
H10A H -0.3309 0.3498 0.9274 0.043 Uiso 1 1 calc R . .
H10B H -0.3137 0.3498 1.0751 0.043 Uiso 1 1 calc R . .
C9 C 0.089(2) 0.394(2) 0.8923(12) 0.038(3) Uani 1 1 d . . .
H9A H 0.2389 0.3483 0.8938 0.045 Uiso 1 1 calc R . .
H9B H 0.0087 0.3483 0.8156 0.045 Uiso 1 1 calc R . .
C3 C -0.429(3) 0.0000 0.5196(18) 0.032(3) Uani 1 2 d S TU P
H3 H -0.5717 0.0000 0.5435 0.038 Uiso 1 2 calc RS T P
C11 C 0.117(2) 0.3958(17) 1.1150(11) 0.034(3) Uani 1 1 d . . .
H11A H 0.2675 0.3510 1.1148 0.041 Uiso 1 1 calc R . .
H11B H 0.0602 0.3510 1.1916 0.041 Uiso 1 1 calc R . .
C8 C -0.296(3) 0.0000 0.7531(17) 0.027(3) Uani 1 2 d S TU P
C2 C -0.405(3) 0.0000 0.396(2) 0.040(4) Uani 1 2 d S TU P
H2 H -0.5263 0.0000 0.3372 0.048 Uiso 1 2 calc RS T P
C4 C -0.266(2) 0.0000 0.6108(16) 0.025(3) Uani 1 2 d S TU P
H1WA H 0.4350 0.0000 1.0392 0.00(3) Uiso 1 2 d DS T P
H1WB H 0.3813 0.0000 0.9049 2(7) Uiso 1 2 d DS T P
loop_
_atom_site_aniso_label
_atom_site_aniso_U_11
_atom_site_aniso_U_22
_atom_site_aniso_U_33
_atom_site_aniso_U_23
_atom_site_aniso_U_13
_atom_site_aniso_U_12
Co1 0.0225(8) 0.0330(12) 0.0107(8) 0.000 0.0019(6) 0.000
O3 0.065(5) 0.068(5) 0.062(5) 0.000 0.007(3) 0.000
O2 0.031(3) 0.032(3) 0.030(3) 0.000 0.0035(15) 0.000
O1W 0.045(4) 0.040(4) 0.035(4) 0.000 0.000(3) 0.000
C6 0.026(4) 0.027(4) 0.026(4) 0.000 0.0019(15) 0.000
C7 0.022(4) 0.022(4) 0.022(4) 0.000 0.0017(15) 0.000
N7 0.020(3) 0.021(5) 0.023(4) 0.006(6) -0.003(3) 0.016(6)
C1 0.020(3) 0.020(3) 0.020(3) 0.000 0.0026(15) 0.000
C5 0.044(6) 0.044(6) 0.043(6) 0.000 0.0034(16) 0.000
O1 0.010(2) 0.011(2) 0.009(2) 0.000 0.0007(14) 0.000
O4 0.027(3) 0.026(3) 0.025(3) 0.000 0.0025(15) 0.000
C10 0.019(5) 0.030(7) 0.060(8) 0.007(6) 0.008(5) 0.003(6)
C9 0.055(7) 0.037(9) 0.023(6) -0.004(5) 0.016(5) 0.016(6)
C3 0.032(4) 0.033(4) 0.031(4) 0.000 0.0028(15) 0.000
C11 0.061(7) 0.013(6) 0.026(6) 0.003(5) -0.012(5) 0.002(6)
C8 0.027(4) 0.027(4) 0.027(4) 0.000 0.0026(15) 0.000
C2 0.040(5) 0.040(5) 0.040(5) 0.000 0.0023(15) 0.000
C4 0.025(4) 0.025(4) 0.025(4) 0.000 0.0026(15) 0.000
loop_
_atom_type_symbol
_atom_type_description
_atom_type_scat_dispersion_real
_atom_type_scat_dispersion_imag
_atom_type_scat_source
C C 0.0033 0.0016 'International Tables Vol C Tables 4.2.6.8 and 6.1.1.4'
H H 0.0000 0.0000 'International Tables Vol C Tables 4.2.6.8 and 6.1.1.4'
Co Co 0.3494 0.9721 'International Tables Vol C Tables 4.2.6.8 and 6.1.1.4'
N N 0.0061 0.0033 'International Tables Vol C Tables 4.2.6.8 and 6.1.1.4'
O O 0.0106 0.0060 'International Tables Vol C Tables 4.2.6.8 and 6.1.1.4'
loop_
_geom_angle_atom_site_label_1
_geom_angle_atom_site_label_2
_geom_angle_atom_site_label_3
_geom_angle
_geom_angle_site_symmetry_1
_geom_angle_site_symmetry_3
O1W Co1 O2 151.7(4) . 1_556
O1W Co1 N7 90.6(4) . 2
O1W Co1 N7 90.6(4) . .
N7 Co1 O2 89.8(4) 2 1_556
N7 Co1 O2 89.8(4) . 1_556
N7 Co1 N7 178.3(7) 2 .
O1 Co1 O2 59.9(5) 1_556 1_556
O1 Co1 O1W 91.8(5) 1_556 .
O1 Co1 N7 90.6(4) 1_556 .
O1 Co1 N7 90.6(4) 1_556 2
O4 Co1 O2 106.2(5) . 1_556
O4 Co1 O1W 102.1(5) . .
O4 Co1 N7 89.3(4) . .
O4 Co1 N7 89.3(4) . 2
O4 Co1 O1 166.1(4) . 1_556
C7 O2 Co1 85.5(9) . 1_554
Co1 O1W H1WA 125.3(12) . .
Co1 O1W H1WB 126.9(11) . .
H1WA O1W H1WB 107.8(13) . .
C1 C6 H6 120.6 . .
C1 C6 C5 118.7(16) . .
C5 C6 H6 120.6 . .
O2 C7 C1 123.2(14) . .
O2 C7 O1 120.0(15) . .
O1 C7 C1 116.8(15) . .
C10 N7 Co1 112.6(9) . .
C10 N7 C9 107.8(10) . .
C9 N7 Co1 111.4(8) . .
C11 N7 Co1 111.7(8) . .
C11 N7 C10 108.6(11) . .
C11 N7 C9 104.3(12) . .
C6 C1 C7 118.4(13) . .
C6 C1 C2 119.1(16) . .
C2 C1 C7 122.5(17) . .
C6 C5 H5 120.5 . .
C4 C5 C6 119(2) . .
C4 C5 H5 120.5 . .
C7 O1 Co1 94.5(10) . 1_554
C8 O4 Co1 156.0(13) . .
N7 C10 H10A 109.2 . .
N7 C10 H10B 109.2 . .
C10 C10 N7 111.9(7) 2_565 .
C10 C10 H10A 109.2 2_565 .
C10 C10 H10B 109.2 2_565 .
H10A C10 H10B 107.9 . .
N7 C9 H9A 109.4 . .
N7 C9 H9B 109.4 . .
C9 C9 N7 111.3(6) 2_565 .
C9 C9 H9A 109.4 2_565 .
C9 C9 H9B 109.4 2_565 .
H9A C9 H9B 108.0 . .
C2 C3 H3 117.3 . .
C4 C3 H3 117.3 . .
C4 C3 C2 125.3(18) . .
N7 C11 C11 112.5(6) . 2_565
N7 C11 H11A 109.1 . .
N7 C11 H11B 109.1 . .
C11 C11 H11A 109.1 2_565 .
C11 C11 H11B 109.1 2_565 .
H11A C11 H11B 107.8 . .
O3 C8 C4 114.4(16) . .
O4 C8 O3 122.2(17) . .
O4 C8 C4 123.4(15) . .
C1 C2 H2 120.8 . .
C3 C2 C1 118(2) . .
C3 C2 H2 120.8 . .
C5 C4 C8 115.8(17) . .
C3 C4 C5 119.5(18) . .
C3 C4 C8 124.7(15) . .
loop_
_geom_bond_atom_site_label_1
_geom_bond_atom_site_label_2
_geom_bond_distance
_geom_bond_site_symmetry_2
Co1 O2 2.294(12) 1_556
Co1 O1W 2.098(12) .
Co1 N7 2.239(8) .
Co1 N7 2.239(8) 2
Co1 O1 2.076(10) 1_556
Co1 O4 2.028(13) .
O3 C8 1.32(2) .
O2 Co1 2.294(12) 1_554
O2 C7 1.25(2) .
O1W H1WA 0.898(13) .
O1W H1WB 0.884(14) .
C6 H6 0.9300 .
C6 C1 1.41(2) .
C6 C5 1.43(2) .
C7 C1 1.46(2) .
C7 O1 1.281(19) .
N7 C10 1.501(17) .
N7 C9 1.52(2) .
N7 C11 1.479(18) .
C1 C2 1.42(2) .
C5 H5 0.9300 .
C5 C4 1.39(3) .
O1 Co1 2.076(10) 1_554
O4 C8 1.12(2) .
C10 C10 1.49(3) 2_565
C10 H10A 0.9700 .
C10 H10B 0.9700 .
C9 C9 1.51(3) 2_565
C9 H9A 0.9700 .
C9 H9B 0.9700 .
C3 H3 0.9300 .
C3 C2 1.34(3) .
C3 C4 1.33(2) .
C11 C11 1.48(2) 2_565
C11 H11A 0.9700 .
C11 H11B 0.9700 .
C8 C4 1.55(2) .
C2 H2 0.9300 .
loop_
_geom_torsion_atom_site_label_1
_geom_torsion_atom_site_label_2
_geom_torsion_atom_site_label_3
_geom_torsion_atom_site_label_4
_geom_torsion
_geom_torsion_site_symmetry_1
_geom_torsion_site_symmetry_4
Co1 O2 C7 C1 180.000(2) 1_554 .
Co1 O2 C7 O1 0.000(1) 1_554 .
Co1 N7 C10 C10 179.4(4) . 2_565
Co1 N7 C9 C9 -179.1(4) . 2_565
Co1 N7 C11 C11 179.7(4) . 2_565
Co1 O4 C8 O3 0.000(19) . .
Co1 O4 C8 C4 180.000(10) . .
O3 C8 C4 C5 180.000(8) . .
O3 C8 C4 C3 0.000(7) . .
O2 C7 C1 C6 180.000(3) . .
O2 C7 C1 C2 0.000(4) . .
O2 C7 O1 Co1 0.000(1) . 1_554
C6 C1 C2 C3 0.000(5) . .
C6 C5 C4 C3 0.000(6) . .
C6 C5 C4 C8 180.000(6) . .
C7 C1 C2 C3 180.000(4) . .
C1 C6 C5 C4 0.000(7) . .
C1 C7 O1 Co1 180.000(2) . 1_554
C5 C6 C1 C7 180.000(4) . .
C5 C6 C1 C2 0.000(5) . .
O1 C7 C1 C6 0.000(3) . .
O1 C7 C1 C2 180.000(3) . .
O4 C8 C4 C5 0.000(9) . .
O4 C8 C4 C3 180.000(8) . .
C10 N7 C9 C9 56.9(10) . 2_565
C10 N7 C11 C11 -55.5(11) . 2_565
C9 N7 C10 C10 -57.3(10) . 2_565
C9 N7 C11 C11 59.2(9) . 2_565
C11 N7 C10 C10 55.1(11) . 2_565
C11 N7 C9 C9 -58.4(9) . 2_565
C2 C3 C4 C5 0.000(7) . .
C2 C3 C4 C8 180.000(5) . .
C4 C3 C2 C1 0.000(7) . .
loop_
_smtbx_masks_void_nr
_smtbx_masks_void_average_x
_smtbx_masks_void_average_y
_smtbx_masks_void_average_z
_smtbx_masks_void_volume
_smtbx_masks_void_count_electrons
1 -0.523 0.500 0.506 143.2 8.6
