#------------------------------------------------------------------------------
#$Date: 2019-11-24 04:12:18 +0200 (Sun, 24 Nov 2019) $
#$Revision: 236652 $
#$URL: file:///home/coder/svn-repositories/cod/cif/8/00/03/8000381.cif $
#------------------------------------------------------------------------------
#
# This file is available in the Crystallography Open Database (COD),
# http://www.crystallography.net/
#
# All data on this site have been placed in the public domain by the
# contributors.
#
data_8000381
loop_
_publ_author_name
'Andrzejewski, Micha\/l'
'Katrusiak, Andrzej'
_publ_section_title
;
 Piezochromic Porous Metal-Organic Framework.
;
_journal_issue                   1
_journal_name_full               'The journal of physical chemistry letters'
_journal_page_first              279
_journal_page_last               284
_journal_paper_doi               10.1021/acs.jpclett.6b02458
_journal_volume                  8
_journal_year                    2017
_chemical_formula_moiety         'C14 H18 Co N2 O5'
_chemical_formula_sum            'C14 H18 Co N2 O5'
_chemical_formula_weight         353.23
_chemical_name_common            AMU1
_chemical_name_systematic
;
Co(1,4-benzenedicarboxylate)(1,4-diazabicyclo[2.2.2]octane)H2O
;
_space_group_crystal_system      triclinic
_space_group_IT_number           1
_space_group_name_Hall           'P 1'
_space_group_name_H-M_alt        'P 1'
_atom_sites_solution_hydrogens   mixed
_atom_sites_solution_primary     direct
_audit_creation_date             2016-07-12
_audit_creation_method
;
Olex2 1.2
(compiled 2016.02.19 svn.r3266 for OlexSys, GUI svn.r5155)
;
_cell_angle_alpha                89.56(5)
_cell_angle_beta                 97.77(5)
_cell_angle_gamma                95.04(3)
_cell_formula_units_Z            1
_cell_length_a                   5.730(2)
_cell_length_b                   6.986(3)
_cell_length_c                   10.533(9)
_cell_measurement_reflns_used    765
_cell_measurement_temperature    296(2)
_cell_measurement_theta_max      52.556
_cell_measurement_theta_min      9.678
_cell_volume                     416.1(4)
_computing_molecular_graphics    'Olex2 (Dolomanov et al., 2009)'
_computing_publication_material  'Olex2 (Dolomanov et al., 2009)'
_computing_structure_refinement  'ShelXL (Sheldrick, 2015)'
_computing_structure_solution    'ShelXS (Sheldrick, 2008)'
_diffrn_ambient_temperature      296(2)
_diffrn_measured_fraction_theta_full 0.251
_diffrn_measured_fraction_theta_max 0.246
_diffrn_measurement_device_type  'multiwire proportional'
_diffrn_measurement_method       'phi and omega scans'
_diffrn_radiation_monochromator  graphite
_diffrn_radiation_type           MoK\a
_diffrn_radiation_wavelength     0.71073
_diffrn_reflns_av_R_equivalents  0.3015
_diffrn_reflns_av_unetI/netI     0.2382
_diffrn_reflns_Laue_measured_fraction_full 0.251
_diffrn_reflns_Laue_measured_fraction_max 0.246
_diffrn_reflns_limit_h_max       7
_diffrn_reflns_limit_h_min       -6
_diffrn_reflns_limit_k_max       8
_diffrn_reflns_limit_k_min       -8
_diffrn_reflns_limit_l_max       5
_diffrn_reflns_limit_l_min       -5
_diffrn_reflns_number            1882
_diffrn_reflns_point_group_measured_fraction_full 0.251
_diffrn_reflns_point_group_measured_fraction_max 0.246
_diffrn_reflns_theta_full        26.000
_diffrn_reflns_theta_max         26.278
_diffrn_reflns_theta_min         4.839
_exptl_absorpt_coefficient_mu    1.053
_exptl_absorpt_correction_T_max  0.900
_exptl_absorpt_correction_T_min  0.881
_exptl_absorpt_correction_type   multi-scan
_exptl_absorpt_process_details
;
Data were collected and reduced by program CrysAlisPro, 
and SCALE3 ABSPACK was used for absorption correction
;
_exptl_crystal_colour            yellow
_exptl_crystal_density_diffrn    1.409
_exptl_crystal_description       plate
_exptl_crystal_F_000             183
_exptl_crystal_size_max          0.3
_exptl_crystal_size_mid          0.1
_exptl_crystal_size_min          0.1
_refine_diff_density_max         1.253
_refine_diff_density_min         -1.114
_refine_diff_density_rms         0.275
_refine_ls_abs_structure_details
;
 Refined as a perfect inversion twin.
;
_refine_ls_abs_structure_Flack   0.5
_refine_ls_extinction_method     none
_refine_ls_goodness_of_fit_ref   1.825
_refine_ls_hydrogen_treatment    constr
_refine_ls_matrix_type           full
_refine_ls_number_parameters     65
_refine_ls_number_reflns         765
_refine_ls_number_restraints     37
_refine_ls_restrained_S_all      2.333
_refine_ls_R_factor_all          0.3017
_refine_ls_R_factor_gt           0.2494
_refine_ls_shift/su_max          0.000
_refine_ls_shift/su_mean         0.000
_refine_ls_structure_factor_coef Fsqd
_refine_ls_weighting_details
'w=1/[\s^2^(Fo^2^)+(0.2000P)^2^] where P=(Fo^2^+2Fc^2^)/3'
_refine_ls_weighting_scheme      calc
_refine_ls_wR_factor_gt          0.5072
_refine_ls_wR_factor_ref         0.5613
_reflns_Friedel_coverage         1.000
_reflns_Friedel_fraction_full    0.251
_reflns_Friedel_fraction_max     0.246
_reflns_number_gt                450
_reflns_number_total             765
_reflns_threshold_expression     'I > 2\s(I)'
_cod_data_source_file            jz6b02458_si_004.cif
_cod_data_source_block           179GPa_P1
_cod_original_cell_volume        416.2(4)
_cod_database_code               8000381
_shelx_space_group_comment
;
The symmetry employed for this shelxl refinement is uniquely defined
by the following loop, which should always be used as a source of
symmetry information in preference to the above space-group names.
They are only intended as comments.
;
_olex2_refinement_description
;
1. Fixed Uiso
 At 1.2 times of:
  All C(H) groups, All C(H,H) groups
 At 1.5 times of:
  All O(H,H) groups
2. Restrained distances
 O2-C7
 1.23 with sigma of 0.002
 C7-O1
 1.23 with sigma of 0.002
 O3-C8
 1.23 with sigma of 0.002
 C7-C1
 1.48 with sigma of 0.002
 C4-C8
 1.48 with sigma of 0.002
 C3-C4
 1.38 with sigma of 0.002
 C4-C5
 1.38 with sigma of 0.002
 C5-C6
 1.42 with sigma of 0.002
 C2-C3
 1.42 with sigma of 0.002
 C2-C1
 1.38 with sigma of 0.002
 C1-C6
 1.38 with sigma of 0.002
 N1-C9
 1.48 with sigma of 0.002
 N1-C11
 1.48 with sigma of 0.002
 N1-C13
 1.48 with sigma of 0.002
 C12-N2
 1.48 with sigma of 0.002
 C14-N2
 1.48 with sigma of 0.002
 C10-N2
 1.48 with sigma of 0.002
 C9-C10
 1.52 with sigma of 0.002
 C11-C12
 1.52 with sigma of 0.002
 C13-C14
 1.52 with sigma of 0.002
 N1-N2
 2.65 with sigma of 0.002
 O3-O4
 2.16 with sigma of 0.002
 Co1_$2-O4_$3
 2.15 with sigma of 0.02
 C9-C13 \\sim C13-C11
 with sigma of 0.02
 C14-C10 \\sim C10-C12
 with sigma of 0.02
 O3-C4 \\sim C4-O4
 with sigma of 0.02
 C3-C8 \\sim C8-C5
 with sigma of 0.02
3. Restrained planarity
 O1, C8, O3, C7, C6, C1, C3, C4, C5, O2
 with sigma of 0.1
4. Uiso/Uaniso restraints and constraints
Uiso(C10) = Uiso(C9) = Uiso(C14) = Uiso(C13) = Uiso(C12) = Uiso(C11)
Uiso(C8) = Uiso(C4) = Uiso(C3) = Uiso(C2) = Uiso(C5) = Uiso(C6) = Uiso(C7) =
Uiso(C1)
Uiso(N2) = Uiso(N1)
5.a Rotating group:
 O1W(H1WA,H1WB)
5.b Secondary CH2 refined with riding coordinates:
 C11(H11,H11B), C9(H9A,H9B), C12(H12A,H12B), C14(H14A,H14B), C10(H10A,H10B),
 C13(H13A,H13B)
5.c Aromatic/amide H refined with riding coordinates:
 C6(H6), C2(H2), C3(H3), C5(H5)
5.d Fitted hexagon refined as free rotating group:
 C6(C1,C2,C3,C4,C5)
;
_shelx_hkl_file
;
   4   2   2  570.26   26.76
   3   1   2  120.23   16.48
   4   1   2  299.10   23.74
   2   4   1  222.08   21.56
   3   4   1   52.99   19.55
   2   3   1  854.88   21.03
   3   3   1  206.16   20.36
   4   3   1   51.14   24.18
   5   3   1   96.12   29.47
   6   3   1    3.98   36.48
   2   2   1  473.50   19.54
   3   2   1   46.28   17.41
   4   2   1   20.02   21.93
   5   2   1   10.53   28.06
   6   2   1   19.78   34.84
   2   1   1  503.76   22.67
   3   1   1  401.32   17.79
   4   1   1   21.92   19.91
   5   1   1   10.13   26.18
   3   0   1  854.26   20.21
   3  -1   1  219.98   15.68
   3   6   0   43.64   24.57
   1   5   0   37.12   14.58
   3   5   0   53.63   22.11
   4   5   0   -2.85   25.46
   5   5   0   31.01   30.32
   0   4   0  103.21   15.68
   1   4   0   48.68   13.61
   2   4   0   76.60   20.27
   3   4   0  104.69   21.91
   4   4   0   22.60   24.79
   5   4   0    8.45   30.38
   1   3   0  727.61   16.21
   3   3   0  280.82   22.34
   4   3   0  145.05   24.44
   5   3   0   38.58   29.49
   6   3   0   43.14   36.00
   1   2   0   37.34    7.98
   2   2   0  340.77   15.23
   3   2   0  202.98   18.10
   4   2   0   38.82   21.75
   5   2   0   12.24   26.64
   6   2   0   30.96   33.71
   3   1   0   99.75   16.74
   4   1   0   46.67   20.89
   5   1   0   63.71   27.78
   2   0   0  -69.90   26.59
   3   0   0  916.29   23.23
   4   0   0  391.26   22.61
   3  -1   0   10.01   15.32
   3   7  -1   -1.57   25.97
   2   6  -1   37.69   22.79
   3   6  -1   56.29   24.95
   4   6  -1   20.65   30.08
   1   5  -1   16.66   14.44
   2   5  -1   41.93   18.16
   3   5  -1   23.32   22.31
   4   5  -1    6.03   10.03
   5   5  -1   15.15   30.55
   0   4  -1  -13.19   11.25
   1   4  -1  127.99   13.78
   3   4  -1  170.87   22.82
   4   4  -1   13.72   18.85
   5   4  -1   21.15   31.12
   0   3  -1   77.37   31.24
   1   3  -1  225.75   13.37
   2   3  -1  379.37   17.86
   3   3  -1  309.27   23.66
   4   3  -1    0.64    3.78
   5   3  -1   28.72   28.39
   6   3  -1   69.54   36.40
   1   2  -1  229.51    9.28
   2   2  -1  228.49   15.21
   3   2  -1  270.60   18.57
   4   2  -1   21.86   19.04
   5   2  -1   10.24   27.26
   6   2  -1   -1.49   33.17
   2   1  -1  188.55   24.19
   3   1  -1  453.83   19.00
   4   1  -1   40.43   19.84
   5   1  -1    5.11   26.89
   2   6  -2   60.26   24.99
   3   6  -2   49.98   25.84
   4   6  -2    7.27   27.95
   1   5  -2   41.10   15.64
   2   5  -2  121.17   19.62
   3   5  -2   28.82   22.60
   4   5  -2   17.24   26.22
   5   5  -2   -1.54   31.31
   1   4  -2  120.98   14.02
   2   4  -2  937.91   23.91
   3   4  -2  206.90   22.91
   4   4  -2   35.68   24.70
   5   4  -2   24.16   32.01
   1   3  -2  199.53   14.20
   2   3  -2 1123.37   26.09
   3   3  -2  301.63   23.01
   4   3  -2  191.72   26.17
   5   3  -2   17.39   29.12
   6   3  -2  102.38   35.89
   1   2  -2   60.82    8.93
   2   2  -2  986.10   22.16
   3   2  -2  350.74   20.74
   4   2  -2    7.58   23.38
   5   2  -2   10.09   27.10
   6   2  -2   31.49   33.40
   2   1  -2 1896.56   25.15
   3   1  -2  406.97   31.14
   4   1  -2   50.17   22.09
   5   1  -2   37.89   28.07
   4   0  -2   80.36   24.06
   3   6  -3   31.56   25.17
   4   6  -3   90.50   31.80
   2   5  -3   39.61   19.73
   3   5  -3    6.42   22.91
   4   5  -3   32.16   28.53
   5   5  -3   36.68   32.37
   1   4  -3  177.33   15.45
   2   4  -3  332.82   21.42
   3   4  -3   86.38   22.21
   4   4  -3   61.15   27.15
   5   4  -3   73.38   31.14
   1   3  -3  161.54   13.12
   2   3  -3  435.94   19.43
   3   3  -3  326.07   24.41
   4   3  -3   91.77   25.79
   5   3  -3  183.32   31.65
   6   3  -3   51.68   34.28
   2   2  -3  294.68   15.84
   3   2  -3  131.43   20.04
   4   2  -3   77.33   23.72
   5   2  -3  232.81   31.12
   3   6  -4   10.99   24.92
   4   6  -4    3.33   28.77
   2   5  -4   25.66   19.64
   3   5  -4   19.63   23.47
   4   5  -4   50.06   28.78
   3   4  -4   56.02   21.94
   4   4  -4  144.24   27.08
   5   4  -4   60.84   30.47
   4   3  -4  237.67   29.70
  -4  -4   4   24.18   30.68
  -3  -4   4   -5.00   26.45
  -4  -5   4   41.58   33.95
  -3  -5   4   20.81   27.27
  -2  -5   4   21.02   24.23
  -4  -6   4   10.46   34.61
  -5  -2   3  212.75   35.15
  -4  -2   3   87.75   26.76
  -3  -2   3  170.71   21.85
  -2  -2   3  283.11   18.49
  -6  -3   3   24.65   38.17
  -5  -3   3  209.86   35.61
  -4  -3   3   97.43   29.12
  -3  -3   3  418.49   26.48
  -2  -3   3  245.66   23.35
  -1  -3   3   93.32   15.52
  -5  -4   3   45.03   35.70
  -4  -4   3  156.64   30.99
  -3  -4   3   16.94   25.75
  -2  -4   3  467.60   23.69
  -1  -4   3   47.44   18.12
  -5  -5   3   15.79   38.00
  -4  -5   3   71.42   31.07
  -3  -5   3   34.61   26.79
  -2  -5   3   28.10   23.59
  -4  -6   3  126.35   35.65
  -3  -6   3   47.16   29.12
  -6  -1   2  103.49   36.79
  -5  -1   2   96.76   30.72
  -4  -1   2   94.37   24.63
  -3  -1   2 1362.81   28.69
  -2  -1   2 1381.02   27.37
  -6  -2   2   32.54   37.90
  -5  -2   2   16.02   30.84
  -4  -2   2   71.04   25.83
  -3  -2   2  437.25   22.13
  -2  -2   2 1150.65   22.46
  -1  -2   2   29.18    9.79
  -6  -3   2   61.16   38.65
  -5  -3   2   40.90   33.47
  -4  -3   2  180.35   29.72
  -3  -3   2  374.82   25.16
  -2  -3   2 1360.33   27.21
  -1  -3   2   80.67   16.62
   0  -3   2   -8.79   18.58
  -5  -4   2   43.78   35.28
  -4  -4   2   29.44   29.64
  -3  -4   2  179.01   28.22
  -2  -4   2  390.08   30.19
  -1  -4   2   94.43   16.78
  -5  -5   2   28.93   35.79
  -4  -5   2   10.08   30.47
  -3  -5   2   10.48   26.64
  -2  -5   2   60.63   24.28
  -4  -6   2   16.35   32.16
  -3  -6   2   44.17   29.38
  -5   0   1   11.24   28.62
  -6  -1   1   29.37   40.55
  -5  -1   1    7.49   28.93
  -4  -1   1  113.68   21.54
  -3  -1   1  343.96   21.14
  -6  -2   1    0.32   39.95
  -5  -2   1   11.33   30.40
  -4  -2   1   -2.09   25.62
  -3  -2   1  147.38   20.58
  -2  -2   1  370.20   16.69
  -6  -3   1   32.58   37.07
  -5  -3   1   -2.58   32.14
  -4  -3   1   43.92   20.96
  -3  -3   1  419.78   25.63
  -2  -3   1  177.34   20.87
  -5  -4   1   37.42   35.16
  -4  -4   1   28.21   24.56
  -3  -4   1  224.44   26.53
  -2  -4   1   95.78   23.97
  -1  -4   1  131.29   15.79
   0  -4   1   28.56   12.62
  -5  -5   1   13.13   36.11
  -4  -5   1    3.21   15.87
  -3  -5   1   22.30   26.71
  -2  -5   1   17.31   20.95
  -1  -5   1   15.86   17.33
  -4  -6   1   -4.30   33.72
  -3  -6   1   65.89   29.76
  -3   1   0   39.50   16.36
  -3   0   0  584.52   24.58
  -5  -1   0   46.30   30.66
  -4  -1   0   32.75   23.98
  -3  -1   0  167.99   18.05
  -6  -2   0   28.65   37.79
  -5  -2   0   14.15   31.43
  -4  -2   0   35.96   24.05
  -3  -2   0  164.89   19.30
  -1  -2   0   67.39    8.19
  -6  -3   0   70.26   40.59
  -5  -3   0   71.43   34.07
  -4  -3   0  110.34   28.62
  -3  -3   0  327.88   23.05
  -5  -4   0   20.72   35.11
  -4  -4   0   30.30   28.14
  -3  -4   0   91.35   24.65
  -1  -4   0   94.81   13.94
  -5  -5   0   66.39   36.63
  -4  -5   0   25.38   28.62
  -3  -5   0   12.12   25.73
  -1  -5   0   43.46   16.95
  -3  -6   0   44.34   28.68
  -3   1  -1  284.83   16.74
  -4   0  -1  -28.31   27.71
  -3   0  -1  592.32   21.00
  -5  -1  -1   -3.81   30.24
  -4  -1  -1    0.32   22.42
  -3  -1  -1  301.74   18.62
  -2  -1  -1  807.11   18.83
  -6  -2  -1   12.51   38.82
  -5  -2  -1   22.95   32.01
  -4  -2  -1   35.56   24.43
  -3  -2  -1   43.68   18.16
  -2  -2  -1  468.92   17.46
  -6  -3  -1   85.28   41.40
  -5  -3  -1   30.59   33.70
  -4  -3  -1   65.87   27.35
  -3  -3  -1  137.41   21.93
  -3  -4  -1   48.12   22.62
  -3   1  -2  101.88   14.77
  -3   0  -2 1081.50   21.07
  -5  -1  -2  174.93   31.15
  -4  -1  -2  348.57   25.15
  -3  -1  -2   65.02   15.68
  -4  -2  -2  433.56   28.50
   3   3   1  177.29   20.95
   4   3   1   38.57   24.24
   2   2   1  419.56   18.04
   3   2   1   55.16   16.70
   4   2   1   12.62   20.41
   5   2   1   28.67   25.32
   2   1   1  974.12   16.57
   3   1   1  325.63   15.69
   4   1   1    6.81   16.98
   5   1   1   12.09   22.52
   4   0   1  357.45   17.65
   3   5   0   11.35   26.48
   4   5   0    5.13   27.44
   1   4   0   38.16   15.08
   3   4   0  101.92   25.21
   4   4   0   15.13   26.54
   5   4   0   36.64   33.13
   1   3   0  798.31   17.83
   3   3   0  344.35   23.84
   4   3   0   96.65   27.38
   5   3   0   57.85   30.07
   6   3   0   41.08   34.39
   1   2   0   34.83    9.35
   3   2   0  193.05   19.26
   4   2   0   26.10   23.08
   5   2   0    9.84   26.59
   6   2   0    0.97   31.98
   1   1   0  124.43    8.51
   3   1   0  169.50   16.79
   4   1   0   94.05   21.03
   5   1   0   22.46   24.90
   3   0   0  918.42   21.66
   4   0   0   34.97   22.81
   3  -1   0   13.00   13.75
   4   6  -1   18.54   25.34
   2   5  -1   57.82   22.45
   3   5  -1   36.65   27.74
   4   5  -1   25.90   14.72
   0   4  -1    7.02   12.21
   1   4  -1  172.05   16.42
   2   4  -1   21.30   22.34
   3   4  -1  175.75   28.95
   4   4  -1   55.46   32.48
   5   4  -1   16.97   35.32
   0   3  -1  345.99   35.29
   1   3  -1  351.85   16.86
   3   3  -1  379.21   28.18
   4   3  -1   82.56   22.16
   5   3  -1   33.84   32.86
   6   3  -1   26.80   35.52
   1   2  -1  127.24   12.29
   2   2  -1  334.93   17.62
   3   2  -1  239.95   21.77
   4   2  -1   24.50   18.73
   5   2  -1   21.43   30.38
   6   2  -1   27.62   31.56
   1   1  -1  242.61    9.68
   3   1  -1   48.86   23.68
   4   1  -1  105.29   20.41
   5   1  -1   23.14   27.92
   6   1  -1   41.29   35.25
   3   0  -1 1021.53   24.30
   5   0  -1   18.27   25.59
   3  -1  -1  -28.82   20.70
   3   6  -2  102.81   31.98
   4   6  -2   24.52   35.76
   2   5  -2   34.01   27.76
   3   5  -2   29.87   30.78
   4   5  -2   40.07   34.13
   1   4  -2   54.77   19.22
   2   4  -2  564.47   33.17
   3   4  -2  280.49   30.60
   4   4  -2   29.62   33.07
   5   4  -2   12.14   39.16
   0   3  -2  145.37   18.92
   1   3  -2  297.34   17.18
   2   3  -2  952.41   33.17
   3   3  -2  277.95   28.43
   4   3  -2  125.80   32.28
   5   3  -2   43.90   35.43
   6   3  -2   62.58   40.80
   2   2  -2 1149.04   25.64
   3   2  -2  328.35   24.98
   4   2  -2   75.22   27.15
   5   2  -2   -6.42   32.50
   6   2  -2    8.38   32.72
   2   1  -2  801.89   35.32
   3   1  -2 1426.39   28.84
   4   1  -2  142.28   25.32
   5   1  -2   22.37   31.02
   6   1  -2  200.78   35.86
   3   0  -2 2601.58   36.39
   4   0  -2  -39.53   28.61
   5   0  -2   20.92   29.92
   4  -1  -2   14.07   21.43
   3   6  -3   31.22   35.24
   4   6  -3  170.93   39.85
   2   5  -3   37.95   27.96
   3   5  -3   -8.75   30.82
   4   5  -3   51.97   36.25
   1   4  -3   99.23   20.71
   2   4  -3  312.25   28.17
   3   4  -3   56.46   29.84
   4   4  -3  107.15   35.59
   5   4  -3   54.44   39.31
   0   3  -3  218.42   21.11
   1   3  -3  145.52   16.97
   2   3  -3  381.99   25.24
   3   3  -3  294.57   30.91
   4   3  -3  158.30   32.90
   5   3  -3  165.05   38.30
   6   3  -3   43.15   43.10
   2   2  -3  355.08   21.18
   3   2  -3  151.98   24.34
   4   2  -3   38.64   30.94
   5   2  -3  301.46   37.24
   6   2  -3   29.22   40.55
   4   1  -3   39.09   25.20
   5   1  -3  145.12   34.29
   4   6  -4   16.44   42.15
   2   5  -4   29.58   27.83
   3   5  -4   19.51   32.11
   4   5  -4   74.35   40.05
   1   4  -4  220.41   22.95
   2   4  -4  317.09   28.02
   3   4  -4   48.23   30.46
   4   4  -4   80.31   36.05
   5   4  -4   66.75   41.64
   3   3  -4  226.01   29.15
   4   3  -4  232.10   38.56
  -4  -3   4  324.22   37.47
  -3  -3   4  221.98   27.89
  -5  -4   4   68.89   39.50
  -4  -4   4   58.82   35.98
  -3  -4   4   96.14   29.79
  -2  -4   4  191.50   26.28
  -1  -4   4  216.04   21.77
  -4  -5   4   64.53   39.39
  -3  -5   4   42.28   32.45
  -2  -5   4   11.82   27.82
  -4  -6   4   23.47   41.68
  -3  -6   4   13.49   35.64
  -5  -1   3  168.06   32.53
  -4  -1   3   65.91   24.55
  -6  -2   3   15.26   37.95
  -5  -2   3  249.11   34.02
  -4  -2   3   61.51   29.32
  -3  -2   3  177.49   22.45
  -2  -2   3  311.51   19.20
  -6  -3   3   62.20   40.50
  -5  -3   3  228.84   36.01
  -4  -3   3  158.32   31.67
  -3  -3   3  318.50   29.74
  -2  -3   3  212.71   24.71
  -5  -4   3   87.47   38.81
  -4  -4   3   84.70   33.87
  -3  -4   3   50.24   29.25
  -2  -4   3  201.63   28.27
  -1  -4   3   28.62   20.18
  -4  -5   3   45.59   36.04
  -3  -5   3    1.44   30.48
  -2  -5   3   34.55   26.86
  -4  -6   3  168.24   41.33
  -3  -6   3    4.53   33.85
  -4   1   2   34.12   20.85
  -5   0   2   77.08   27.37
  -4   0   2   69.40   25.82
  -3   0   2 2373.39   30.95
  -6  -1   2  138.39   34.54
  -5  -1   2   71.82   29.16
  -4  -1   2  100.78   23.98
  -3  -1   2 1374.96   26.89
  -2  -1   2 1425.81   27.80
  -6  -2   2   36.35   34.78
  -5  -2   2   19.88   30.53
  -4  -2   2   70.27   26.20
  -3  -2   2  341.44   23.66
  -2  -2   2 1034.38   24.20
  -6  -3   2   52.95   37.54
  -5  -3   2   29.46   34.34
  -4  -3   2  143.24   30.40
  -3  -3   2  328.99   26.72
  -2  -3   2  748.05   32.63
  -1  -3   2  300.72   16.26
  -5  -4   2    0.69   36.65
  -4  -4   2   47.87   32.55
  -3  -4   2  228.23   28.78
  -2  -4   2  381.43   32.42
  -1  -4   2   13.18   17.96
  -4  -5   2   18.18   33.00
  -3  -5   2   34.72   29.52
  -2  -5   2   17.43   26.87
  -4  -6   2   16.05   36.96
  -3  -6   2   83.25   32.87
  -2  -6   2  280.36   31.01
  -3   1   1    4.23   18.47
  -3   0   1  898.80   20.76
  -5  -1   1    0.58   26.15
  -4  -1   1  180.44   20.38
  -3  -1   1  286.32   20.02
  -1  -1   1  297.75    9.39
  -6  -2   1   29.63   31.18
  -5  -2   1   20.04   27.52
  -4  -2   1   10.93   18.27
  -3  -2   1  182.82   20.23
  -2  -2   1  384.61   16.93
  -1  -2   1   76.31   12.17
  -6  -3   1   54.46   35.60
  -5  -3   1   20.38   31.38
  -4  -3   1  102.73   25.55
  -3  -3   1  348.31   26.60
  -2  -3   1  410.68   20.24
  -1  -3   1  313.26   16.08
  -5  -4   1   -6.65   34.13
  -4  -4   1    3.13    9.76
  -3  -4   1  128.71   27.79
  -2  -4   1  -12.96   27.08
  -1  -4   1  173.43   16.45
   0  -4   1    3.17   12.33
  -4  -5   1   19.33   38.55
  -3  -5   1   15.95   27.18
  -2  -5   1   36.05   23.34
  -1  -5   1    6.91   18.26
  -3   1   0   40.56   13.03
  -4   0   0   79.82   22.01
  -3   0   0  945.75   18.46
  -5  -1   0   27.43   23.94
  -4  -1   0   87.67   19.81
  -3  -1   0  176.53   15.94
  -1  -1   0  171.21    7.67
  -6  -2   0   54.10   30.68
  -5  -2   0   18.55   26.36
  -4  -2   0   40.98   21.91
  -3  -2   0  166.56   18.27
  -1  -2   0   28.93    8.83
  -6  -3   0   31.48   34.02
  -5  -3   0   14.56   30.46
  -4  -3   0   91.75   27.21
  -3  -3   0  259.85   23.36
  -1  -3   0  650.26   17.76
  -5  -4   0   28.48   33.31
  -4  -4   0   28.71   27.88
  -3  -4   0   79.14   25.67
  -2  -4   0   24.84   13.95
  -3   0  -1  463.79   16.09
  -5  -1  -1   -3.58   21.78
  -4  -1  -1   15.58   17.15
  -3  -1  -1  306.37   15.28
  -2  -1  -1 1045.79   15.87
  -4  -2  -1   25.99   20.96
  -3  -2  -1   55.99   16.65
  -2  -2  -1  449.75   17.79
  -3  -3   4  122.55   26.71
  -5  -1   3  147.76   34.20
  -4  -1   3   24.07   26.73
  -6  -2   3   45.37   39.22
  -5  -2   3  236.15   36.88
  -4  -2   3  105.86   27.61
  -3  -2   3  180.64   22.76
  -6  -3   3   72.67   42.12
  -5  -3   3  174.19   35.54
  -4  -3   3  113.33   29.73
  -3  -3   3  314.21   26.71
  -2  -3   3  425.30   21.24
  -6   1   2  105.31   36.80
  -5   1   2   93.59   29.64
  -6   0   2   73.91   37.74
  -5   0   2   92.63   31.76
  -3   0   2 2419.96   34.47
  -6  -1   2   92.96   38.57
  -5  -1   2  117.48   32.32
  -4  -1   2   58.88   25.49
  -3  -1   2 1123.76   31.65
  -6  -2   2   14.08   34.67
  -5  -2   2   24.79   31.09
  -4  -2   2   82.92   26.40
  -3  -2   2  363.01   22.53
  -2  -2   2  953.53   24.04
  -6  -3   2   46.93   41.02
  -5  -3   2   59.20   33.49
  -4  -3   2  158.86   29.57
  -3  -3   2  232.48   24.41
  -2  -3   2 1069.03   27.08
  -4   3   1   25.52   22.51
  -6   2   1   34.16   31.32
  -5   2   1   10.13   27.07
  -4   2   1   94.05   22.72
  -6   1   1   71.28   34.73
  -5   1   1   98.87   28.57
  -4   1   1   37.23   26.38
  -3   1   1  390.09   21.68
  -6   0   1  114.29   36.33
  -5   0   1   24.48   29.08
  -3   0   1  690.80   26.33
  -6  -1   1   75.24   38.19
  -5  -1   1   24.98   29.73
  -4  -1   1  142.41   19.78
  -3  -1   1  468.97   20.60
  -6  -2   1   32.50   36.57
  -5  -2   1   15.25   30.57
  -4  -2   1    7.56   16.61
  -3  -2   1  179.88   19.10
  -2  -2   1  337.62   15.67
  -6  -3   1   27.63   37.46
  -5  -3   1   11.18   31.77
  -4  -3   1   74.01   22.36
  -3  -3   1  351.58   24.99
  -2  -3   1  314.12   18.95
  -1  -3   1   -7.43   14.53
  -3   3   0   71.24   16.62
  -2   3   0  122.35   13.10
  -6   2   0   13.43   31.24
  -5   2   0   23.85   25.58
  -4   2   0   55.25   18.94
  -3   2   0    0.49   16.99
  -2   2   0   51.27   10.50
  -6   1   0   63.33   32.73
  -5   1   0   -7.31   26.16
  -4   1   0   32.67   21.37
  -3   1   0  217.11   16.18
  -2   1   0  126.58   21.30
  -6   0   0  119.70   35.15
  -5   0   0  106.26   29.22
  -4   0   0  462.94   25.57
  -3   0   0 1061.91   22.27
  -6  -1   0   79.87   37.14
  -5  -1   0   78.80   29.92
  -4  -1   0   87.64   23.43
  -3  -1   0  178.47   17.81
  -6  -2   0   62.56   37.94
  -5  -2   0    0.82   31.08
  -4  -2   0   25.49   24.65
  -3  -2   0  224.00   19.06
  -1  -2   0   29.05    7.88
  -6  -3   0   42.44   40.63
  -5  -3   0   93.70   33.74
  -4  -3   0  140.09   28.95
  -3  -3   0  330.05   23.88
  -2  -3   0  -45.30   19.91
  -6   2  -1   84.31   30.55
  -4   2  -1   31.54   19.38
  -3   2  -1   27.90   13.65
  -2   2  -1   45.64   10.62
  -6   1  -1   50.02   32.90
  -5   1  -1    7.64   25.06
  -4   1  -1   36.11   20.28
  -3   1  -1  340.52   16.29
  -6   0  -1   66.15   36.17
  -5   0  -1   81.92   29.33
  -4   0  -1  198.36   26.48
  -3   0  -1  714.40   20.67
  -6  -1  -1   65.23   35.91
  -5  -1  -1   26.24   30.01
  -4  -1  -1   25.37   22.42
  -3  -1  -1  406.77   19.33
  -2  -1  -1  736.41   23.59
  -6  -2  -1    6.54   35.89
  -5  -2  -1   -0.65   31.68
  -4  -2  -1   87.38   25.12
  -3  -2  -1   58.96   18.90
  -6   2  -2   25.47   30.17
  -5   2  -2  277.01   25.98
  -4   2  -2  100.15   20.58
  -3   2  -2  117.26   15.23
  -2   2  -2  112.80   11.78
  -6   1  -2   38.70   32.33
  -5   1  -2  246.55   27.43
  -4   1  -2  189.55   22.07
  -3   1  -2  176.95   15.47
  -6   0  -2   65.25   33.86
  -5   0  -2  635.32   35.94
  -4   0  -2 1520.23   33.12
  -3   0  -2  843.80   25.07
  -5  -1  -2  170.81   30.97
  -4  -1  -2  326.50   26.68
  -3  -1  -2   89.63   17.74
   0   5   0 -107.47   22.56
   1   5   0   20.36   15.99
   2   5   0   12.34   16.40
   3   5   0   20.17   19.50
   0   4   0 -112.80   18.25
   1   4   0  107.31   13.53
   3   4   0   76.28   17.89
   4   4   0   11.48   16.50
   1   3   0  666.83   15.40
   3   3   0  187.45   17.03
   3   2   0  189.47   11.77
   3   1   0   22.28   10.22
   2   7  -1   29.19   25.61
   0   6  -1  -13.75   21.57
   1   6  -1   27.06   20.89
   2   6  -1  158.24   23.58
   3   6  -1   39.48   24.85
   4   6  -1    4.56   13.11
  -1   5  -1   37.57   14.58
   0   5  -1  152.53   21.28
   1   5  -1   17.17   17.08
   2   5  -1   69.17   19.37
   3   5  -1   28.67   22.15
   0   4  -1   62.71   13.51
   1   4  -1   88.38   15.56
   2   4  -1  207.19   20.91
   3   4  -1  173.81   20.84
   4   4  -1   18.95   20.79
   1   3  -1  288.31   14.19
   2   3  -1  227.96   17.25
   3   3  -1  371.77   19.73
   4   3  -1   40.62   17.38
   3   2  -1  216.55   14.02
   3   1  -1   15.04   15.05
   1   8  -2    2.15   26.47
   0   7  -2   56.73   22.74
   1   7  -2   57.69   25.18
   2   7  -2  103.90   28.08
   0   6  -2   44.98   20.99
   1   6  -2   67.72   23.96
   2   6  -2   92.64   28.64
   3   6  -2   73.77   26.76
   4   6  -2   14.64   27.73
  -1   5  -2   10.85   15.32
   0   5  -2   45.72   18.19
   1   5  -2   38.14   19.41
   2   5  -2   86.38   23.35
   3   5  -2   31.65   23.33
   4   5  -2   12.51   24.26
  -1   4  -2   17.49   13.94
   0   4  -2   -0.56   16.29
   1   4  -2   73.44   17.25
   2   4  -2  795.81   25.70
   3   4  -2  160.48   23.50
   4   4  -2   31.00   22.56
  -1   3  -2   47.88   15.29
   1   3  -2  262.09   15.09
   2   3  -2 1345.09   24.32
   3   3  -2  351.59   20.72
   4   3  -2  102.78   21.69
   2   2  -2  926.64   21.07
   3   2  -2  140.49   18.51
   3   1  -2  -27.51   26.93
   0   7  -3   40.94   24.59
   1   7  -3    3.94   26.52
   2   7  -3   73.10   29.63
   0   6  -3   28.32   22.44
   1   6  -3   93.00   25.18
   2   6  -3   76.25   28.29
   3   6  -3   30.29   28.60
   4   6  -3   30.77   32.16
   0   5  -3   -7.78   20.09
   1   5  -3   10.38   20.44
   2   5  -3   53.47   23.61
   3   5  -3    5.65   24.28
   4   5  -3   26.55   28.55
   5   5  -3   26.33   31.18
   0   4  -3   81.71   17.32
   1   4  -3   86.40   18.79
   2   4  -3  398.19   22.86
   3   4  -3   95.74   23.45
   4   4  -3  104.74   25.11
   0   3  -3  -11.15   21.73
   1   3  -3  162.30   15.31
   2   3  -3  473.54   20.42
   3   3  -3  364.93   22.85
   4   3  -3  115.88   23.12
   2   2  -3  147.51   17.12
   3   2  -3  106.66   18.81
   4   2  -3   53.09   20.20
   0   7  -4   32.50   27.27
   1   7  -4   15.80   28.72
   2   7  -4   51.11   30.83
   0   6  -4  158.77   25.19
   1   6  -4   71.74   26.13
   2   6  -4  134.94   27.79
   3   6  -4   20.82   28.77
   0   5  -4    7.90   19.60
   1   5  -4   18.77   22.36
   2   5  -4   14.98   24.59
   3   5  -4   28.30   27.24
   4   5  -4  111.99   30.82
   5   5  -4    7.36   34.07
   0   4  -4  179.14   22.25
   1   4  -4  256.69   21.21
   2   4  -4   79.86   25.72
   3   4  -4   42.71   24.13
   4   4  -4   40.51   26.79
   3   3  -4  138.16   24.17
   1   7  -5   36.01   29.15
   2   7  -5   16.79   31.70
   0   6  -5  156.52   27.44
   1   6  -5  120.66   27.63
   2   6  -5  118.46   29.59
   3   6  -5   20.52   30.75
   0   5  -5   86.54   25.40
   1   5  -5  220.00   26.75
  -2  -6   5   84.74   35.65
  -1  -6   5  133.66   33.20
  -2  -7   5   43.85   37.18
  -1  -7   5   74.89   34.94
  -3  -4   4   47.17   29.64
  -2  -4   4  171.44   27.98
  -1  -4   4  216.55   24.94
  -4  -5   4   36.83   37.11
  -3  -5   4   -3.84   32.39
  -2  -5   4   31.17   30.04
  -1  -5   4    3.29   27.31
   0  -5   4    1.87   23.78
  -4  -6   4   -6.88   38.38
  -3  -6   4   -0.39   36.07
  -2  -6   4  106.20   34.16
  -1  -6   4   75.91   31.15
   0  -6   4   81.01   31.40
  -2  -7   4   43.64   35.78
  -1  -7   4   48.68   33.02
   0  -7   4   17.50   33.17
  -1  -8   4    2.10   37.08
  -3  -2   3  222.99   21.90
  -2  -2   3  154.49   20.28
  -4  -3   3   57.56   29.72
  -3  -3   3  316.24   29.45
  -2  -3   3  519.27   24.69
  -1  -3   3  192.60   18.60
  -4  -4   3   81.45   33.71
  -3  -4   3   14.05   30.00
  -2  -4   3  458.75   27.99
  -1  -4   3  153.46   22.61
   0  -4   3    7.84   21.75
   1  -4   3  432.63   22.55
  -4  -5   3   66.52   35.42
  -3  -5   3   35.70   31.27
  -2  -5   3   43.39   29.26
  -1  -5   3    4.35   25.25
   0  -5   3   77.34   23.97
  -4  -6   3   24.58   40.47
  -3  -6   3   30.69   35.52
  -2  -6   3   76.70   33.72
  -1  -6   3    4.28   30.05
   0  -6   3   47.85   27.74
  -3  -7   3   -0.33   38.07
  -2  -7   3   94.01   34.94
  -1  -7   3   20.00   32.08
   0  -7   3   83.21   30.73
  -1  -8   3   18.01   35.60
  -3  -2   2  283.23   24.51
  -2  -2   2 1224.08   24.31
  -1  -2   2   40.51   11.50
  -4  -3   2  106.38   30.91
  -3  -3   2  292.14   27.91
  -2  -3   2  877.41   32.14
  -1  -3   2  173.18   19.11
  -4  -4   2   75.83   31.78
  -3  -4   2  181.22   30.44
  -2  -4   2 1116.39   30.59
  -1  -4   2   60.36   21.57
   0  -4   2  181.52   18.82
   1  -4   2  129.41   17.93
  -4  -5   2   13.66   34.08
  -3  -5   2   12.65   30.42
  -2  -5   2  197.93   28.80
  -1  -5   2   30.73   23.81
   0  -5   2   43.67   22.17
   1  -5   2   -1.26   21.01
  -4  -6   2    6.99   36.79
  -3  -6   2   59.02   34.52
  -2  -6   2  331.77   33.89
  -1  -6   2   88.46   29.37
   0  -6   2   61.61   26.06
  -3  -7   2   45.47   36.53
  -2  -7   2   15.94   35.16
  -1  -7   2   71.19   30.81
   0  -7   2   31.14   28.84
  -1  -8   2    1.66   33.26
  -3  -1   1  345.21   19.32
  -3  -2   1  177.31   20.11
  -2  -2   1  379.19   17.77
  -4  -3   1   29.72   19.50
  -3  -3   1  304.34   26.96
  -2  -3   1  404.96   21.69
  -1  -3   1  212.25   19.55
  -4  -4   1    3.57   21.93
  -3  -4   1  181.40   28.90
  -2  -4   1  511.50   26.13
  -1  -4   1   93.34   21.03
   0  -4   1   62.38   17.30
   1  -4   1   -6.01   20.29
  -4  -5   1    8.34   19.21
  -3  -5   1   16.35   30.22
  -2  -5   1   18.69   24.52
  -1  -5   1    2.30   22.17
   0  -5   1   58.04   28.52
   1  -5   1   32.65   22.10
  -4  -6   1   -2.55   36.84
  -3  -6   1   19.18   34.12
  -2  -6   1   36.16   31.19
  -1  -6   1   23.15   26.40
   0  -6   1  210.54   26.63
  -2  -7   1   47.67   33.25
  -1  -7   1   29.22   29.52
   0  -7   1   40.30   30.08
  -3  -1   0  129.19   16.70
  -3  -2   0   73.84   19.96
  -1  -2   0   91.35    9.17
  -3  -3   0  338.54   24.87
  -1  -3   0  538.90   21.38
   1  -3   0 1979.73   25.50
  -4  -4   0   -0.48   29.71
  -3  -4   0  113.24   27.69
  -1  -4   0  111.69   17.81
   0  -4   0  134.83   25.47
   1  -4   0  899.35   25.54
  -4  -5   0    1.86   35.15
  -3  -5   0    5.72   29.15
  -2  -5   0    9.76   18.74
  -1  -5   0   42.97   22.15
   0  -5   0  137.53   36.37
   1  -5   0  478.51   24.83
  -3  -6   0   24.49   31.69
  -2  -6   0  150.32   31.21
  -1  -6   0   21.48   27.16
   0  -6   0  131.74   26.45
  -3  -1  -1  248.60   17.74
  -2  -1  -1 1006.46   15.39
  -3  -2  -1   93.93   17.50
  -2  -2  -1  105.38   19.53
  -3  -3  -1  172.92   22.45
  -3  -4  -1   18.08   24.81
  -2  -4  -1  459.89   24.43
   3  -1   3  132.49   19.09
   4  -1   3   13.20   22.91
   5  -1   3    8.69   30.97
   2  -2   3   86.95   12.48
   3  -2   3  104.81   17.96
   4  -2   3  166.99   25.51
   5  -2   3   12.73   31.20
   4   2   2  234.91   26.98
   3   1   2   28.76   17.25
   4   1   2  248.43   26.13
   5   1   2   95.99   30.84
   6   1   2   59.98   36.32
   3   0   2 1005.94   24.59
   4   0   2 1254.83   36.56
   5   0   2  852.80   36.25
   6   0   2    9.47   38.15
   2  -1   2   54.36   16.54
   3  -1   2   93.12   17.53
   4  -1   2  206.36   24.57
   5  -1   2  204.83   33.37
   6  -1   2   46.46   38.87
   4  -2   2   47.76   25.92
   5  -2   2  274.58   32.78
   6  -2   2   38.70   38.58
   3   4   1   13.65   17.41
   2   3   1  783.82   17.31
   3   3   1  184.19   18.20
   4   3   1   70.80   23.33
   5   3   1   32.74   30.21
   6   3   1   41.35   34.67
   2   2   1  518.49   15.94
   3   2   1   94.37   16.13
   4   2   1   57.08   22.42
   5   2   1    5.58   29.61
   6   2   1   32.90   34.06
   2   1   1 1024.26   17.85
   3   1   1  179.58   18.93
   4   1   1   -7.33   20.83
   5   1   1   -7.69   29.85
   6   1   1   15.65   36.67
   2   0   1 1281.82   19.54
   3   0   1  583.53   23.78
   5   0   1   36.42   31.37
   6   0   1   -5.02   38.87
   2  -1   1  766.57   14.55
   3  -1   1  118.15   20.27
   4  -1   1   40.83   22.13
   5  -1   1  -17.58   29.47
   6  -1   1   46.43   36.50
   3  -2   1   19.59   17.50
   4  -2   1   22.15   24.03
   5  -2   1   73.59   30.67
   6  -2   1   54.93   37.19
   4   4   0   20.49   22.81
   5   4   0   41.57   28.29
   3   3   0  307.00   19.60
   4   3   0   62.94   24.01
   5   3   0   53.34   28.55
   6   3   0   78.93   35.01
   3   2   0  164.54   17.56
   4   2   0   18.90   22.17
   5   2   0   -1.10   27.30
   6   2   0   33.26   34.86
   3   1   0  118.28   17.03
   4   1   0   87.83   22.04
   5   1   0   63.27   30.25
   6   1   0    9.85   35.75
   3   0   0  796.01   24.91
   4   0   0  131.67   27.34
   5   0   0   43.32   30.82
   6   0   0   47.30   37.34
   3  -1   0  158.17   17.67
   4  -1   0  110.66   23.25
   5  -1   0   13.68   29.20
   6  -1   0   33.27   36.18
   2  -2   0   75.96   10.73
   3  -2   0   90.81   19.51
   4  -2   0   19.57   22.30
   5  -2   0   -3.60   28.92
   6  -2   0  -11.94   36.08
   7  -2   0   13.75   43.50
   6   4  -1    4.13   30.68
   3   3  -1  242.67   21.59
   4   3  -1   24.52   19.69
   5   3  -1   12.50   27.34
   6   3  -1   55.00   32.85
   3   2  -1  173.59   17.70
   4   2  -1    7.66   19.59
   5   2  -1   18.00   27.52
   6   2  -1   45.12   32.68
   3   1  -1  328.77   19.39
   4   1  -1  120.29   19.10
   5   1  -1   11.24   27.86
   6   1  -1   76.81   36.38
   3   0  -1  527.72   26.78
   4   0  -1  -92.11   32.42
   5   0  -1    9.49   28.74
   6   0  -1  131.94   35.69
   3  -1  -1  550.42   20.28
   4  -1  -1   90.41   22.91
   5  -1  -1   16.95   28.36
   6  -1  -1  101.98   36.67
   3  -2  -1  112.48   15.54
   4  -2  -1   76.30   23.38
   2   3  -2  695.29   22.79
   3   3  -2  385.64   19.40
   4   3  -2  157.76   23.73
   5   3  -2   53.09   27.09
   6   3  -2   34.97   32.62
   2   2  -2  962.23   18.80
   3   2  -2  257.75   18.64
   4   2  -2   19.36   21.01
   5   2  -2   -1.14   26.17
   6   2  -2   33.78   33.65
   2   1  -2 1749.76   21.68
   3   1  -2 1377.19   25.23
   4   1  -2  127.43   21.96
   5   1  -2   41.44   28.31
   6   1  -2  129.16   35.67
   3   0  -2 2360.24   30.81
   4   0  -2  -35.97   27.47
   5   0  -2   89.97   28.53
   6   0  -2   69.33   35.32
   4  -1  -2   57.69   23.01
   5  -1  -2   78.73   29.73
   3   3  -3  319.59   19.17
   4   3  -3   98.93   21.85
   5   3  -3   87.66   27.94
   6   3  -3   63.31   30.65
   3   2  -3  199.21   16.41
   4   2  -3   61.88   20.99
   5   2  -3  137.17   29.55
   5   1  -3  153.25   27.83
   2  -3   4 1520.82   40.90
   3  -3   4  749.06   43.36
   4  -3   4  107.62   51.08
   5  -3   4   34.93   53.16
   2  -4   4  228.57   40.94
   3  -4   4   58.57   42.49
   4  -4   4   29.88   45.71
   5  -4   4   -9.05   52.67
   4  -5   4   34.60   50.07
   5  -5   4   82.56   59.11
   3  -1   3  442.00   33.66
   4  -1   3    9.41   38.27
   5  -1   3  -28.96   47.77
   6  -1   3   52.57   54.77
   2  -2   3   96.11   25.75
   3  -2   3   27.02   33.46
   4  -2   3  194.29   42.65
   5  -2   3   33.98   48.66
   6  -2   3   86.70   55.82
   1  -3   3  290.72   29.11
   2  -3   3  694.30   32.93
   3  -3   3  236.33   37.84
   4  -3   3  223.91   46.66
   5  -3   3  140.84   51.60
   6  -3   3   95.13   60.12
   2  -4   3   78.68   34.80
   3  -4   3   97.61   36.90
   4  -4   3   40.90   43.57
   5  -4   3    5.04   52.52
   4  -5   3   62.31   48.25
   5  -5   3   86.32   57.55
   3   1   2  -53.58   28.49
   5   1   2  165.46   40.46
   4   0   2  500.48   58.15
   5   0   2  503.64   53.54
   6   0   2   48.37   49.91
   3  -1   2  260.74   29.28
   4  -1   2   44.44   40.27
   5  -1   2  327.68   46.12
   6  -1   2    5.30   52.01
   1  -2   2  337.06   16.21
   2  -2   2   93.69   26.40
   3  -2   2  267.68   31.71
   4  -2   2   85.14   39.48
   5  -2   2  403.50   47.36
   6  -2   2   38.62   53.25
   1  -3   2  160.37   26.19
   2  -3   2  687.06   27.30
   3  -3   2  365.27   34.04
   4  -3   2  446.48   43.60
   5  -3   2  547.28   53.33
   6  -3   2  139.39   56.85
   2  -4   2   80.78   30.62
   3  -4   2  133.30   37.19
   4  -4   2   55.63   42.13
   5  -4   2  133.58   50.92
   6  -4   2   82.49   61.60
   4  -5   2   69.18   46.41
   5  -5   2   80.74   57.25
   3   2   1   40.01   22.90
   3   1   1  315.59   26.91
   4   1   1    7.18   28.08
   5   1   1   20.07   35.85
   2   0   1  -73.96   37.18
   3   0   1  603.20   34.96
   4   0   1  -17.28   36.83
   5   0   1  118.80   39.05
   6   0   1   34.33   46.79
   2  -1   1   35.74   28.69
   3  -1   1  474.02   28.36
   4  -1   1   70.14   31.47
   5  -1   1   -6.28   38.95
   6  -1   1   23.21   47.44
   1  -2   1 2808.48   26.55
   2  -2   1   45.31   21.69
   3  -2   1   86.62   26.81
   4  -2   1  113.80   35.28
   5  -2   1   42.24   43.24
   6  -2   1   13.91   50.61
   2  -3   1  120.21   28.20
   3  -3   1  224.79   32.81
   4  -3   1  -14.57   43.14
   5  -3   1   38.76   46.12
   6  -3   1   79.27   53.51
   2  -4   1  520.41   31.93
   3  -4   1   25.25   34.71
   4  -4   1   11.41   41.92
   5  -4   1  -26.95   47.40
   6  -4   1    1.73   54.77
   3  -5   1    5.36   34.50
   4  -5   1   97.01   42.89
   5  -5   1    9.39   49.04
   3   1   0   63.84   21.00
   4   1   0   90.59   26.25
   3   0   0  240.60   34.18
   4   0   0  221.99   32.98
   5   0   0   83.15   36.99
   6   0   0   30.04   44.19
   3  -1   0   89.64   24.50
   4  -1   0  134.33   30.82
   5  -1   0   17.91   36.92
   6  -1   0   48.33   44.69
   7  -1   0   29.90   51.34
   2  -2   0   46.13   17.05
   3  -2   0   76.85   27.92
   4  -2   0   86.46   31.78
   5  -2   0   25.68   40.21
   6  -2   0  -14.33   47.42
   2  -3   0   28.64   24.99
   3  -3   0   78.12   32.15
   4  -3   0  428.56   37.37
   5  -3   0  -17.58   43.91
   6  -3   0   49.55   50.91
   4  -4   0   84.66   39.32
   5  -4   0  -11.85   45.16
   6  -4   0   11.41   52.85
   3   1  -1  471.98   20.47
   4   1  -1    2.68   11.02
   3   0  -1  300.82   31.91
   4   0  -1   91.14   34.83
   6   0  -1  112.73   40.00
   3  -1  -1  688.74   24.73
   4  -1  -1  247.67   28.00
   5  -1  -1   11.87   33.95
   6  -1  -1   66.92   43.79
   2  -2  -1  199.12   16.94
   3  -2  -1  103.68   22.95
   4  -2  -1  233.77   30.03
   5  -2  -1   -7.48   37.44
   6  -2  -1   16.81   43.36
   3  -3  -1  361.97   32.59
   4  -3  -1  164.84   36.37
   4   1  -2   76.56   21.59
   5   0  -2   60.61   31.01
   4  -1  -2   14.80   26.88
  -1  -6   5  133.34   43.11
   0  -6   5  295.65   45.36
   1  -6   5  367.71   43.52
  -1  -7   5  128.55   45.01
   0  -7   5  143.98   48.77
   1  -7   5  111.11   48.38
   2  -7   5  100.12   47.37
   0  -4   4  -79.20   38.84
   1  -4   4  555.98   40.61
   2  -4   4  392.33   39.19
  -2  -5   4   42.74   36.38
  -1  -5   4   35.42   34.24
   0  -5   4  -20.65   33.97
   1  -5   4   48.73   35.55
   2  -5   4   36.62   38.17
  -2  -6   4   73.07   43.28
  -1  -6   4   44.78   39.97
   0  -6   4  112.74   43.35
   1  -6   4  127.91   42.67
   2  -6   4  323.40   43.87
   3  -6   4  113.03   45.57
  -2  -7   4   49.96   45.98
  -1  -7   4   18.93   42.77
   0  -7   4   22.37   45.08
   1  -7   4   47.13   46.06
   2  -7   4   93.93   47.61
   3  -7   4   34.37   49.79
  -2  -3   3  312.30   30.23
  -1  -3   3  221.92   22.89
   0  -3   3  134.92   31.87
   2  -3   3   32.37   34.18
  -2  -4   3  350.61   35.46
  -1  -4   3  107.82   29.04
   0  -4   3   73.98   30.06
   1  -4   3  370.97   34.63
   2  -4   3  516.94   34.25
  -2  -5   3   90.06   34.81
  -1  -5   3   12.85   32.21
   0  -5   3   71.44   32.37
   1  -5   3    6.29   34.16
   2  -5   3   45.01   34.80
   3  -5   3   -7.26   37.01
  -2  -6   3  151.15   40.76
  -1  -6   3   78.03   37.44
   0  -6   3   55.16   38.69
   1  -6   3   49.18   40.46
   2  -6   3  181.00   41.96
   3  -6   3   69.58   41.82
  -1  -7   3   20.66   41.11
   0  -7   3   65.49   41.13
   1  -7   3  191.40   44.02
   2  -7   3   68.15   43.35
   3  -7   3   54.10   46.43
  -1  -8   3   -7.20   45.06
   0  -8   3   41.58   44.78
  -2  -2   2 1057.09   28.46
  -1  -2   2   38.30   13.68
   0  -2   2   93.37   25.11
   1  -2   2  347.38   16.88
  -2  -3   2  193.01   41.32
   1  -3   2  848.64   26.22
   2  -3   2  496.06   27.40
  -2  -4   2  291.46   42.90
  -1  -4   2   78.79   26.33
   0  -4   2  139.38   26.52
   1  -4   2  234.68   25.95
   3  -4   2  163.96   33.60
  -2  -5   2  132.58   33.56
  -1  -5   2   30.72   29.65
   0  -5   2   66.07   29.53
   1  -5   2   62.91   31.19
   2  -5   2    8.02   30.64
   3  -5   2   11.93   34.26
  -2  -6   2  323.21   41.60
  -1  -6   2   28.99   37.45
   0  -6   2  103.09   35.96
   1  -6   2  112.51   36.29
   2  -6   2   20.50   37.91
   3  -6   2   88.76   40.83
  -1  -7   2   44.42   40.22
   0  -7   2    7.58   39.23
   1  -7   2   64.24   41.62
   2  -7   2   33.82   41.02
   3  -7   2   33.79   43.65
  -1  -8   2   26.50   43.15
   0  -8   2   21.17   42.18
   1  -8   2    8.42   43.43
   2  -8   2   26.08   45.61
  -2  -2   1   70.21   19.87
   0  -2   1  155.06   15.64
   1  -2   1 2111.11   31.78
   2  -2   1  173.43   17.59
  -2  -3   1   66.55   26.41
  -1  -3   1  408.61   21.78
   1  -3   1  590.24   21.78
  -2  -4   1  344.23   30.70
  -1  -4   1  177.83   21.20
   0  -4   1   23.10   19.75
   1  -4   1  262.00   23.52
   2  -4   1  218.26   32.39
   3  -4   1   -9.99   30.78
  -2  -5   1   32.41   29.45
  -1  -5   1    1.16   26.76
   1  -5   1  105.40   26.95
   2  -5   1   17.57   29.66
   3  -5   1   21.85   33.14
  -2  -6   1  -14.24   40.15
  -1  -6   1   -5.64   34.05
   0  -6   1   62.70   35.86
   1  -6   1   28.27   33.74
   2  -6   1  149.42   38.38
   3  -6   1   57.27   41.15
  -1  -7   1   51.12   37.99
   0  -7   1  161.08   38.80
   1  -7   1  116.16   39.33
   2  -7   1   36.84   39.68
   3  -7   1   80.71   44.95
  -1  -2   0   67.35    6.82
   1  -2   0 4084.42   24.21
   2  -2   0   37.60   10.19
  -2  -3   0  124.09   17.76
   1  -3   0 1813.29   29.34
   2  -3   0   26.02   16.70
   3  -3   0  184.16   22.06
  -2  -4   0 -124.38   26.44
  -1  -4   0   20.13   16.32
   1  -4   0 1243.97   26.96
   2  -4   0  258.70   20.62
   3  -4   0  301.76   25.61
  -2  -5   0   17.09   20.79
  -1  -5   0   48.10   22.60
   0  -5   0   67.62   17.56
   1  -5   0  365.44   27.60
   2  -5   0    9.16   24.08
   3  -5   0   16.58   27.24
   0  -6   0   -0.08   30.64
   2  -6   0  204.90   29.97
   3  -3  -1  369.60   15.53
  -2   5   0    6.65   14.46
  -2   4   0  267.19   14.05
  -1   4   0   10.06   24.75
   0   4   0 -163.63   18.06
   1   4   0   85.76   11.18
  -2   3   0    2.58    9.82
  -2   2   0   45.17    6.17
  -1   2   0 3947.42   20.35
   1   2   0   59.55    5.34
  -2   7  -1   -9.73   23.95
  -1   7  -1   15.50   23.58
   0   7  -1   -2.39   24.51
  -3   6  -1   28.82   21.84
  -2   6  -1   23.93   22.82
  -1   6  -1   13.08   20.60
   0   6  -1   39.19   22.71
   1   6  -1   37.99   20.05
  -3   5  -1    2.57   17.34
  -2   5  -1    0.91   17.55
  -1   5  -1   36.09   19.35
   1   5  -1    4.13   16.27
   2   5  -1   14.14   15.90
  -3   4  -1    7.01   15.06
  -2   4  -1   55.10   20.24
   0   4  -1   67.34   14.51
   1   4  -1   27.35   15.50
   2   4  -1   24.32   15.92
  -2   3  -1   -2.03   16.28
  -1   3  -1  160.17   17.42
   1   3  -1  261.17   13.94
   2   3  -1  117.30   13.98
   2   2  -1  -19.44   12.08
  -1   8  -2    1.62   27.55
   0   8  -2   21.72   26.74
   1   8  -2   -8.22   27.38
  -3   7  -2   33.56   25.58
  -2   7  -2   37.54   25.28
  -1   7  -2  149.78   26.77
   0   7  -2   52.82   25.38
   1   7  -2   19.68   25.80
  -3   6  -2   43.64   23.43
  -2   6  -2   38.47   23.84
  -1   6  -2   37.79   23.69
   0   6  -2   26.12   23.72
   1   6  -2   75.74   23.97
  -3   5  -2   12.43   20.33
  -2   5  -2   23.03   20.16
  -1   5  -2    3.50   20.94
   0   5  -2   51.36   20.51
   1   5  -2   54.87   20.21
   2   5  -2   44.33   21.00
  -3   4  -2  149.89   19.70
  -2   4  -2   29.52   21.65
  -1   4  -2  110.07   18.07
   1   4  -2  137.80   17.81
   2   4  -2  925.59   22.52
  -3   7  -3   64.37   28.16
  -2   7  -3   45.69   28.92
  -1   7  -3   45.44   30.12
   0   7  -3   55.03   29.38
   1   7  -3   17.96   26.79
   2   7  -3   77.21   28.02
  -3   6  -3   45.21   27.00
  -2   6  -3  108.70   28.26
  -1   6  -3   21.17   27.78
   0   6  -3   29.13   26.75
   1   6  -3   20.98   25.83
   2   6  -3    9.36   27.93
  -3   5  -3    8.67   24.22
  -2   5  -3   31.36   25.50
  -1   5  -3   -4.47   24.41
   0   5  -3   -7.93   24.39
   1   5  -3   -3.85   22.66
   2   5  -3   77.15   23.68
  -3   7  -4   66.66   33.39
  -2   7  -4  119.35   32.53
  -1   7  -4   21.09   32.24
   0   7  -4   24.49   32.12
   1   7  -4   60.27   31.21
   2   7  -4   34.71   31.74
  -3   6  -4   76.68   31.34
  -2   6  -4   43.44   33.85
  -1   6  -4   97.64   31.31
   0   6  -4  200.29   30.91
   1   6  -4   46.49   30.21
   2   6  -4  142.66   29.01
  -3   5  -4  142.46   29.42
  -3   7  -5   73.88   36.08
  -2   7  -5   47.67   34.50
  -1   7  -5   99.95   36.49
   0   7  -5   95.29   36.97
   1   7  -5   90.08   33.87
   2   7  -5    6.85   34.13
  -3   6  -5   11.86   35.69
   2   6  -5  130.14   33.04
  -6   3   1   41.91   34.04
  -6   2   1   50.59   33.18
  -6   1   1   65.38   33.65
  -6   0   1   80.76   34.12
  -5   0   1   19.47   26.95
  -4  -1   1   36.01   16.31
  -6   4   0   50.12   34.83
  -5   4   0   -7.84   27.69
  -6   3   0   52.31   35.44
  -5   3   0   23.43   27.49
  -6   2   0   13.97   33.77
  -5   2   0    6.51   27.50
  -6   1   0   45.61   34.34
  -5   1   0   10.22   26.74
  -4   1   0  111.86   21.08
  -6   0   0   58.37   34.53
  -5   0   0   88.87   28.43
  -4   0   0  397.75   22.90
  -3   0   0  862.79   20.52
  -4  -1   0   61.00   20.45
  -3  -1   0  179.83   15.31
  -5   6  -1    6.82   29.91
  -5   5  -1    5.25   29.72
  -4   5  -1   43.78   24.70
  -3   5  -1   -1.51   19.11
  -6   4  -1   21.25   34.87
  -5   4  -1   -2.82   28.03
  -4   4  -1   25.35   24.04
  -6   3  -1   29.94   35.56
  -5   3  -1   -0.64   28.11
  -4   3  -1   99.44   25.44
  -3   3  -1  115.04   18.69
  -6   2  -1   51.25   34.28
  -4   2  -1   77.23   22.07
  -3   2  -1   17.46   16.24
  -6   1  -1   20.02   34.73
  -5   1  -1  -13.92   27.71
  -4   1  -1   84.20   21.67
  -3   1  -1  303.76   17.35
  -2   1  -1  736.34   14.87
  -1   1  -1   35.69    8.05
  -6   0  -1   30.94   35.21
  -5   0  -1   81.14   29.53
  -3   0  -1  527.83   21.32
  -5  -1  -1   25.31   26.74
  -4  -1  -1   29.90   20.00
  -3  -1  -1  321.25   17.70
  -5   5  -2   47.20   31.38
  -4   5  -2    0.63   24.97
  -5   4  -2   65.36   30.00
  -4   4  -2  242.11   26.16
  -3   4  -2  134.02   20.48
  -2   4  -2   82.45   16.66
  -6   3  -2   81.81   35.27
  -5   3  -2  334.33   31.28
  -4   3  -2   27.50   27.74
  -2   3  -2   73.83   17.85
  -6   2  -2   14.56   35.19
  -5   2  -2  185.33   31.42
  -4   2  -2  186.01   23.94
  -3   2  -2  114.47   19.28
  -1   2  -2  -28.25   10.94
  -6   1  -2   61.22   34.17
  -5   1  -2  181.90   31.29
  -4   1  -2  217.23   23.73
  -3   1  -2  117.60   17.65
  -5   0  -2  472.73   36.32
  -4   0  -2 1491.40   32.48
  -3   0  -2 1090.96   23.23
  -5   5  -3    7.17   30.78
  -4   5  -3   83.88   25.99
  -5   4  -3    2.66   29.85
  -4   4  -3   29.49   24.82
  -3   4  -3   56.43   20.03
  -2   4  -3  132.01   18.82
  -5   3  -3  146.64   30.57
  -4   3  -3   46.20   27.93
  -3   3  -3   60.88   21.48
  -5   2  -3    1.12   28.52
  -4   2  -3  103.37   25.00
  -3   2  -3  114.96   18.80
  -2   2  -3   70.12   14.46
  -5   3   0   -5.66   31.53
  -4   6  -1   20.69   33.87
  -5   5  -1   -2.98   36.86
  -5   4  -1  -13.44   34.44
  -5   3  -1   22.32   33.07
  -4   3  -1  323.69   28.71
  -4   2  -1   90.01   24.10
  -3   2  -1   34.47   18.12
  -3   1  -1  100.00   20.25
  -2   1  -1  -10.47   21.29
  -1   1  -1   86.13    9.68
  -2   8  -2   41.34   32.84
  -3   7  -2   19.25   33.22
  -2   7  -2    9.84   29.77
  -4   6  -2   58.43   35.15
  -3   6  -2   20.73   30.68
  -2   6  -2   52.94   27.15
  -1   6  -2   67.00   24.00
  -5   5  -2   46.44   40.30
  -4   5  -2   59.11   32.49
  -3   5  -2   -2.15   27.62
  -2   5  -2    6.52   24.12
  -1   5  -2   25.23   21.09
   0   5  -2   21.73   19.21
  -5   4  -2    7.78   36.44
  -4   4  -2   20.37   30.43
  -3   4  -2   16.85   28.30
  -2   4  -2  177.55   22.87
  -1   4  -2  128.55   18.25
   0   4  -2   36.18   16.97
  -5   3  -2  419.53   36.59
  -4   3  -2  353.80   31.02
  -3   3  -2  341.39   24.72
  -2   3  -2   49.63   23.83
  -1   3  -2   40.76   21.44
   0   3  -2  -43.16   21.66
  -4   2  -2  221.70   25.86
  -3   2  -2  253.64   21.33
  -1   2  -2  267.63   12.79
   0   2  -2  -48.12   18.17
  -3   1  -2   94.11   18.83
  -2   8  -3  -12.07   34.24
  -3   7  -3   56.38   33.94
  -2   7  -3   56.37   31.47
  -4   6  -3    6.87   35.20
  -3   6  -3   39.62   31.11
  -2   6  -3  107.63   29.57
  -1   6  -3   73.26   26.76
  -5   5  -3   32.12   37.97
  -4   5  -3   29.35   34.62
  -3   5  -3   -1.59   29.13
  -2   5  -3   58.93   26.76
  -1   5  -3   67.37   24.24
   0   5  -3   50.01   21.03
  -5   4  -3   -2.81   36.80
  -4   4  -3   97.29   30.75
  -3   4  -3   34.08   27.21
  -2   4  -3  259.79   25.84
  -1   4  -3   59.61   24.30
   0   4  -3   -2.00   19.42
  -4   3  -3  149.04   32.88
  -3   3  -3  251.26   25.45
  -2   3  -3  626.67   23.94
  -1   3  -3   -7.67   24.71
  -2   2  -3   18.94   18.34
  -3   7  -4   23.89   35.61
  -2   7  -4   10.19   32.86
  -4   6  -4   14.04   36.23
  -3   6  -4   19.31   33.91
  -2   6  -4   39.23   31.85
  -1   6  -4   38.40   28.54
  -4   5  -4   27.82   34.20
  -3   5  -4   53.08   33.14
  -2   5  -4  108.17   28.25
  -1   5  -4   14.02   24.45
  -3   4  -4   94.05   30.15
  -2   4  -4  198.67   30.24
  -3   5   0   14.67   24.60
  -2   5   0    9.36   20.32
  -4   4   0   60.29   25.66
  -3   4   0  115.03   24.74
  -2   4   0   56.27   23.01
  -1   4   0 1255.17   26.09
  -5   3   0    5.57   24.31
  -4   3   0  175.39   23.33
  -3   3   0  109.60   21.26
  -2   3   0  161.97   17.87
  -1   3   0 1969.37   30.38
  -4   2   0   30.46   18.71
  -3   2   0  171.60   16.46
  -2   2   0  108.97   11.63
  -3   1   0  162.02   14.15
  -3   0   0  845.08   15.68
  -4   6  -1   65.34   33.57
  -3   6  -1   97.00   32.21
  -2   6  -1   78.74   28.94
  -1   6  -1   16.01   23.56
  -5   5  -1   19.07   33.26
  -4   5  -1   52.44   30.71
  -3   5  -1   -2.74   27.89
  -2   5  -1    1.65   24.44
  -1   5  -1  128.17   22.29
  -5   4  -1   37.84   29.55
  -4   4  -1   57.69   28.59
  -3   4  -1   10.33   26.35
  -1   4  -1   20.51   21.23
   0   4  -1  105.61   14.70
  -5   3  -1  -10.07   28.51
  -4   3  -1   79.01   29.17
  -3   3  -1   36.02   25.27
  -2   3  -1  120.55   22.76
  -1   3  -1   90.85   22.05
   0   3  -1  221.42   43.19
  -4   2  -1    2.70   22.96
  -3   7  -2   39.58   35.91
  -2   7  -2   21.59   32.87
  -4   6  -2   45.27   38.01
  -3   6  -2   -9.98   34.58
  -2   6  -2   52.08   31.31
  -1   6  -2   33.94   26.78
  -5   5  -2   24.24   39.36
  -4   5  -2   33.83   35.15
  -3   5  -2   10.58   30.40
  -2   5  -2    3.86   26.81
  -1   5  -2   28.55   23.44
   0   5  -2   18.63   20.49
  -5   4  -2   47.24   34.44
  -4   4  -2   75.47   33.69
  -3   4  -2  156.13   30.01
   0   4  -2   13.59   19.10
  -4   3  -2  214.22   34.11
  -2   8  -3   17.20   37.75
  -3   7  -3    2.36   39.04
  -2   7  -3   25.94   37.60
  -4   6  -3   35.33   39.61
  -3   6  -3   50.47   36.21
  -2   6  -3  140.82   35.13
  -1   6  -3   60.76   30.43
  -5   5  -3   36.61   41.61
  -4   5  -3   80.60   39.48
  -3   5  -3   -4.85   33.82
   0   5  -3   12.14   24.23
  -5   4  -3   12.20   38.22
  -5   3  -3   48.61   36.83
  -3   7  -4   40.43   43.42
  -2   7  -4   75.26   39.66
  -4   6  -4    6.24   42.51
  -3   6  -4  167.76   41.06
  -2   6  -4   45.74   39.76
  -1   6  -4   42.81   35.73
  -5   5  -4   14.22   45.78
  -5   4  -4   21.55   41.90
  -2   7  -5   20.73   41.59
   1  -4   4  500.74   30.47
   2  -4   4  525.31   30.90
   3  -4   4  160.96   31.94
   1  -5   4    9.46   26.72
   2  -5   4   -1.11   31.90
   3  -5   4   57.94   35.54
   4  -5   4   41.46   37.00
   1  -6   4   48.12   31.20
   2  -6   4  132.28   35.16
   3  -6   4  200.26   36.27
   4  -6   4   22.49   38.52
   2  -7   4   61.67   36.37
   3  -7   4   55.12   37.35
   2  -2   3   48.96   19.62
   0  -3   3  147.92   23.39
   1  -3   3  763.57   22.93
   2  -3   3  532.51   26.35
   3  -3   3  257.03   28.53
   4  -3   3   94.10   36.08
   0  -4   3  103.87   20.57
   1  -4   3  537.28   24.87
   2  -4   3  430.96   27.56
   3  -4   3   82.11   29.90
   4  -4   3   49.23   33.43
   5  -4   3   25.21   37.34
   0  -5   3   18.75   23.28
   1  -5   3   31.68   25.70
   2  -5   3   23.71   28.35
   3  -5   3   13.29   31.95
   4  -5   3   35.71   37.66
   5  -5   3   29.82   41.98
   1  -6   3   37.49   28.90
   2  -6   3   27.85   32.84
   3  -6   3   37.71   34.19
   4  -6   3   17.50   38.29
   2  -7   3   53.05   33.51
   3  -7   3  346.96   38.49
   2  -8   3  -17.20   36.29
   3  -1   2  167.58   20.42
   0  -2   2  450.16   16.60
   1  -2   2  232.49   14.41
   2  -2   2  109.86   20.07
   3  -2   2  303.59   22.94
   4  -2   2  243.19   28.40
  -1  -3   2   27.72   16.05
   0  -3   2  437.10   20.47
   1  -3   2  526.05   21.54
   2  -3   2  211.87   24.32
   3  -3   2  352.14   27.07
   4  -3   2  433.61   34.23
   5  -3   2  425.58   39.58
   0  -4   2   38.97   18.36
   1  -4   2  103.88   20.58
   2  -4   2  235.49   24.80
   3  -4   2   44.56   30.60
   4  -4   2   58.16   32.03
   5  -4   2   70.72   37.87
   0  -5   2   25.02   20.94
   1  -5   2   15.34   23.23
   2  -5   2    5.42   25.33
   3  -5   2   15.37   29.27
   4  -5   2   85.03   34.76
   5  -5   2   92.81   41.67
   1  -6   2   71.10   26.95
   2  -6   2   55.99   29.68
   3  -6   2   55.54   33.26
   4  -6   2   62.54   37.25
   5  -6   2    0.99   41.75
   2  -7   2   19.32   32.39
   3  -7   2    4.55   35.63
   2  -8   2    1.73   35.05
   2  -1   1   53.04   21.85
   3  -1   1   22.02   22.28
   1  -2   1 2417.64   22.34
   2  -2   1   75.19   16.51
   3  -2   1   -7.01   20.95
   4  -2   1  109.00   26.52
   0  -3   1 1501.99   35.75
   1  -3   1  650.01   17.69
   2  -3   1  331.96   20.21
   3  -3   1  129.09   25.66
   4  -3   1  333.70   31.48
   5  -3   1   10.09   33.06
   0  -4   1   19.14   15.56
   1  -4   1  382.19   19.18
   2  -4   1  133.46   26.25
   3  -4   1   49.39   26.55
   4  -4   1    7.11   32.20
   5  -4   1   13.28   35.49
   0  -5   1  -22.14   25.56
   1  -5   1   64.76   22.70
   2  -5   1   18.35   23.77
   3  -5   1   19.01   28.35
   4  -5   1   18.43   33.35
   5  -5   1   21.68   39.09
   6  -5   1   40.08   46.30
   1  -6   1   21.66   23.97
   2  -6   1  161.91   28.68
   3  -6   1   19.41   33.21
   4  -6   1   18.79   36.89
   5  -6   1   33.30   42.12
   1  -7   1    1.48   29.12
   2  -7   1   34.56   30.27
   3  -7   1   70.90   34.20
   4  -7   1   49.76   38.09
   3  -1   0  218.22   17.13
   1  -2   0 3403.80   35.37
   2  -2   0   64.41   12.33
   3  -2   0  187.22   20.46
   4  -2   0    6.24   23.80
   1  -3   0 2638.30   29.68
   2  -3   0  295.08   18.49
   3  -3   0   95.42   24.53
   4  -3   0  282.51   28.31
   0  -4   0  370.04   15.48
   1  -4   0  487.48   31.66
   2  -4   0   94.54   22.96
   3  -4   0  161.74   27.82
   4  -4   0   63.99   29.76
   5  -4   0  -17.34   33.87
   1  -5   0  497.49   25.56
   2  -5   0   34.52   22.04
   3  -5   0   -4.50   28.40
   4  -5   0    8.44   30.58
   2  -6   0   37.56   28.89
   3  -1  -1  138.55   20.93
   2  -2  -1   69.61   11.56
   3  -2  -1   96.96   16.96
   4  -2  -1  149.19   23.65
   2  -3  -1  101.21   16.84
   3  -3  -1  429.75   23.86
   4  -3  -1  262.98   26.19
   1  -5   5  118.21   38.96
   1  -6   5  158.40   42.46
   2  -6   5   38.60   45.63
   3  -6   5  209.80   51.02
   2  -7   5   79.49   47.68
   2  -3   4 1409.40   46.67
   3  -3   4  796.99   45.17
   4  -3   4  118.66   45.82
   5  -3   4   58.61   46.61
   0  -4   4  167.35   36.42
   1  -4   4  824.11   37.71
   2  -4   4  637.50   41.49
   3  -4   4  202.74   43.01
   4  -4   4   25.00   43.29
   5  -4   4    4.94   47.67
   1  -5   4   19.60   33.48
   2  -5   4  108.68   38.91
   3  -5   4   43.71   44.91
   4  -5   4    7.91   47.43
   5  -5   4   50.76   51.87
   1  -6   4   68.63   40.31
   2  -6   4   26.87   46.38
   3  -6   4   96.46   46.56
   4  -6   4   11.27   49.74
   2  -7   4   96.58   46.48
   3  -7   4   69.44   50.92
   4  -1   3   13.05   32.80
   1  -2   3  153.48   25.15
   2  -2   3  155.59   26.66
   3  -2   3  208.00   33.86
   4  -2   3  122.72   38.51
  -1  -3   3   57.81   21.10
   0  -3   3  132.01   31.84
   1  -3   3  573.22   33.40
   2  -3   3  277.32   36.40
   3  -3   3  199.81   37.10
   4  -3   3  517.56   40.23
   5  -3   3   85.98   43.50
   0  -4   3  112.35   26.50
   1  -4   3  615.41   32.32
   2  -4   3  211.26   36.38
   3  -4   3   99.72   36.30
   4  -4   3   46.62   40.78
   5  -4   3   -3.34   44.23
   0  -5   3   67.90   28.75
   1  -5   3   42.83   32.79
   2  -5   3   89.95   35.52
   3  -5   3   76.67   40.05
   4  -5   3   46.94   46.20
   5  -5   3   31.55   50.83
   1  -6   3  144.70   35.67
   2  -6   3  118.55   41.24
   3  -6   3  119.87   43.65
   4  -6   3   24.43   47.45
   2  -7   3   69.82   43.89
   3  -7   3   34.69   46.18
   3   0   2  289.56   40.23
   2  -1   2  -38.07   30.35
   3  -1   2  308.79   25.21
   4  -1   2   35.10   31.29
   1  -2   2  243.73   20.27
   3  -2   2  222.38   28.51
   4  -2   2   62.41   32.44
  -1  -3   2   39.50   17.09
   0  -3   2  -68.26   27.77
   1  -3   2  439.53   28.50
   2  -3   2  537.72   26.93
   3  -3   2  297.06   32.24
   4  -3   2  123.77   39.95
   5  -3   2  396.36   42.01
   0  -4   2  110.22   20.95
   1  -4   2  142.13   23.76
   2  -4   2  374.51   31.03
   3  -4   2  113.85   36.37
   4  -4   2    9.97   37.76
   5  -4   2   66.82   43.85
   0  -5   2    5.56   24.75
   1  -5   2   11.47   28.76
   2  -5   2   14.86   30.67
   3  -5   2    6.44   35.07
   4  -5   2   34.08   42.40
   5  -5   2   31.66   49.40
   1  -6   2    3.75   32.44
   2  -6   2   93.65   36.04
   3  -6   2   57.26   41.79
   4  -6   2   55.19   44.71
   2  -7   2  -19.75   39.77
   3  -7   2   15.77   43.05
   3   0   1    5.25   28.72
   3  -1   1   -8.33   23.75
   1  -2   1 2733.32   25.83
   2  -2   1  172.50   18.79
   3  -2   1  119.11   21.93
   4  -2   1   72.65   26.90
   1  -3   1  332.68   24.07
   2  -3   1  115.86   26.12
   3  -3   1  154.29   28.74
   4  -3   1  267.12   33.00
   5  -3   1    6.98   34.00
   0  -4   1   90.10   17.85
   1  -4   1  404.77   24.81
   2  -4   1  658.47   29.38
   3  -4   1   28.18   31.36
   4  -4   1  136.61   34.38
   5  -4   1  -13.75   36.27
   1  -5   1   55.91   28.25
   2  -5   1   23.56   29.67
   3  -5   1   15.55   33.53
   4  -5   1   94.55   38.25
   5  -5   1   12.05   41.19
   1  -6   1   22.17   28.45
   2  -6   1   83.47   36.44
   3  -6   1   66.70   39.96
   4  -6   1   21.84   41.38
   3  -1   0  238.29   16.26
   1  -2   0 3647.59   38.92
   2  -2   0   79.46   14.16
   3  -2   0   67.11   21.37
   4  -2   0   14.51   22.62
   2  -3   0  342.74   19.70
   3  -3   0   75.75   26.18
   4  -3   0  271.90   28.47
   5  -3   0   19.71   29.57
   2  -4   0  446.68   24.28
   3  -4   0  202.62   30.17
   4  -4   0    1.26   32.34
   5  -4   0  -19.19   32.21
   2  -5   0   11.37   24.71
   3  -2  -1   40.80   15.38
   0   0   0    0.00    0.00
;
_shelx_hkl_checksum              67538
_olex2_submission_special_instructions 'No special instructions were received'
loop_
_space_group_symop_operation_xyz
'x, y, z'
loop_
_atom_site_label
_atom_site_type_symbol
_atom_site_fract_x
_atom_site_fract_y
_atom_site_fract_z
_atom_site_U_iso_or_equiv
_atom_site_adp_type
_atom_site_occupancy
_atom_site_site_symmetry_order
_atom_site_calc_flag
_atom_site_refinement_flags_posn
Co1 Co -0.001(4) -0.006(4) -0.013(6) 0.026(3) Uiso 1 1 d D
O2 O -0.276(8) -0.056(6) 0.115(6) 0.031(14) Uiso 1 1 d D
N1 N -0.010(6) 0.309(5) -0.017(5) 0.015(7) Uiso 1 1 d D
O1 O 0.113(6) 0.003(6) 0.194(12) 0.021(12) Uiso 1 1 d D
N2 N -0.004(6) 0.688(5) -0.017(5) 0.015(7) Uiso 1 1 d D
O1W O 0.341(10) 0.049(11) -0.02(2) 0.036(15) Uiso 1 1 d .
H1WA H 0.5249 0.0862 0.0701 0.054 Uiso 1 1 d GR
H1WB H 0.4722 0.1843 -0.0814 0.054 Uiso 1 1 d GR
C11 C -0.240(8) 0.381(8) 0.000(13) 0.067(15) Uiso 1 1 d D
H11 H -0.2630 0.3722 0.0892 0.081 Uiso 1 1 calc R
H11B H -0.3670 0.3022 -0.0500 0.081 Uiso 1 1 calc R
C8 C -0.316(6) -0.090(5) 0.713(4) 0.035(8) Uiso 1 1 d D
C9 C 0.083(15) 0.392(6) -0.131(6) 0.067(15) Uiso 1 1 d D
H9A H -0.0165 0.3428 -0.2079 0.081 Uiso 1 1 calc R
H9B H 0.2412 0.3535 -0.1337 0.081 Uiso 1 1 calc R
C12 C -0.245(6) 0.589(8) -0.044(15) 0.067(15) Uiso 1 1 d D
H12A H -0.3005 0.5927 -0.1350 0.081 Uiso 1 1 calc R
H12B H -0.3527 0.6529 0.0012 0.081 Uiso 1 1 calc R
O3 O -0.530(6) -0.125(7) 0.713(9) 0.07(2) Uiso 1 1 d D
C7 C -0.101(6) -0.031(5) 0.196(4) 0.035(8) Uiso 1 1 d D
C14 C 0.165(14) 0.609(7) 0.084(7) 0.067(15) Uiso 1 1 d D
H14A H 0.1385 0.6591 0.1656 0.081 Uiso 1 1 calc R
H14B H 0.3238 0.6573 0.0696 0.081 Uiso 1 1 calc R
C10 C 0.090(13) 0.610(6) -0.128(6) 0.067(15) Uiso 1 1 d D
H10A H 0.2529 0.6625 -0.1271 0.081 Uiso 1 1 calc R
H10B H 0.0006 0.6523 -0.2064 0.081 Uiso 1 1 calc R
C13 C 0.156(11) 0.391(6) 0.093(7) 0.067(15) Uiso 1 1 d D
H13A H 0.3126 0.3494 0.0900 0.081 Uiso 1 1 calc R
H13B H 0.1038 0.3491 0.1729 0.081 Uiso 1 1 calc R
C6 C 0.019(7) -0.022(6) 0.429(4) 0.035(8) Uiso 1 1 d D
H6 H 0.1741 0.0040 0.4126 0.042 Uiso 1 1 calc R
C1 C -0.164(8) -0.048(4) 0.328(4) 0.035(8) Uiso 1 1 d DG
C2 C -0.395(8) -0.087(6) 0.353(4) 0.035(8) Uiso 1 1 d DG
H2 H -0.5177 -0.1047 0.2850 0.042 Uiso 1 1 calc R
C3 C -0.444(6) -0.101(6) 0.478(5) 0.035(8) Uiso 1 1 d DG
H3 H -0.5991 -0.1272 0.4947 0.042 Uiso 1 1 calc R
C4 C -0.261(5) -0.075(5) 0.579(4) 0.035(8) Uiso 1 1 d DG
C5 C -0.030(5) -0.036(6) 0.555(4) 0.035(8) Uiso 1 1 d DG
H5 H 0.0928 -0.0185 0.6223 0.042 Uiso 1 1 calc R
O4 O -0.168(8) -0.043(10) 0.792(6) 0.05(2) Uiso 1 1 d D
loop_
_atom_type_symbol
_atom_type_description
_atom_type_scat_dispersion_real
_atom_type_scat_dispersion_imag
_atom_type_scat_source
C C 0.0033 0.0016 'International Tables Vol C Tables 4.2.6.8 and 6.1.1.4'
H H 0.0000 0.0000 'International Tables Vol C Tables 4.2.6.8 and 6.1.1.4'
Co Co 0.3494 0.9721 'International Tables Vol C Tables 4.2.6.8 and 6.1.1.4'
N N 0.0061 0.0033 'International Tables Vol C Tables 4.2.6.8 and 6.1.1.4'
O O 0.0106 0.0060 'International Tables Vol C Tables 4.2.6.8 and 6.1.1.4'
loop_
_geom_angle_atom_site_label_1
_geom_angle_atom_site_label_2
_geom_angle_atom_site_label_3
_geom_angle
_geom_angle_site_symmetry_1
_geom_angle_site_symmetry_3
N1 Co1 O2 95(2) . .
O1 Co1 O2 62.3(19) . .
O1 Co1 N1 90(3) . .
N2 Co1 O2 85(2) 1_545 .
N2 Co1 N1 177(4) 1_545 .
N2 Co1 O1 92(2) 1_545 .
N2 Co1 O4 84(3) 1_545 1_554
O1W Co1 O2 144(6) . .
O1W Co1 N1 85(2) . .
O1W Co1 O1 82(6) . .
O1W Co1 N2 96(3) . 1_545
O1W Co1 O4 107(6) . 1_554
O4 Co1 O2 108(2) 1_554 .
O4 Co1 N1 94(3) 1_554 .
O4 Co1 O1 170.2(18) 1_554 .
C7 O2 Co1 81(4) . .
C11 N1 Co1 116(3) . .
C11 N1 C9 112(6) . .
C11 N1 C13 105(4) . .
C9 N1 Co1 111(3) . .
C9 N1 C13 104(4) . .
C13 N1 Co1 108(3) . .
C7 O1 Co1 82(6) . .
C12 N2 Co1 114(4) . 1_565
C14 N2 Co1 114(3) . 1_565
C14 N2 C12 118(5) . .
C14 N2 C10 97(5) . .
C10 N2 Co1 115(3) . 1_565
C10 N2 C12 97(5) . .
Co1 O1W H1WA 134.4 . .
Co1 O1W H1WB 133.0 . .
H1WA O1W H1WB 79.8 . .
N1 C11 H11 109.6 . .
N1 C11 H11B 109.6 . .
N1 C11 C12 110(5) . .
H11 C11 H11B 108.1 . .
C12 C11 H11 109.6 . .
C12 C11 H11B 109.6 . .
O3 C8 C4 110(5) . .
O4 C8 O3 132(7) . .
O4 C8 C4 117(2) . .
N1 C9 H9A 109.6 . .
N1 C9 H9B 109.6 . .
N1 C9 C10 110(5) . .
H9A C9 H9B 108.1 . .
C10 C9 H9A 109.6 . .
C10 C9 H9B 109.6 . .
N2 C12 C11 110(5) . .
N2 C12 H12A 109.8 . .
N2 C12 H12B 109.8 . .
C11 C12 H12A 109.8 . .
C11 C12 H12B 109.8 . .
H12A C12 H12B 108.2 . .
O2 C7 O1 135(7) . .
O2 C7 C1 112(5) . .
O1 C7 C1 113(7) . .
N2 C14 H14A 108.2 . .
N2 C14 H14B 108.2 . .
N2 C14 C13 116(5) . .
H14A C14 H14B 107.3 . .
C13 C14 H14A 108.2 . .
C13 C14 H14B 108.2 . .
N2 C10 C9 114(5) . .
N2 C10 H10A 108.6 . .
N2 C10 H10B 108.6 . .
C9 C10 H10A 108.6 . .
C9 C10 H10B 108.6 . .
H10A C10 H10B 107.6 . .
N1 C13 C14 108(5) . .
N1 C13 H13A 110.0 . .
N1 C13 H13B 110.0 . .
C14 C13 H13A 110.0 . .
C14 C13 H13B 110.0 . .
H13A C13 H13B 108.4 . .
C1 C6 H6 120.0 . .
C1 C6 C5 120.0 . .
C5 C6 H6 120.0 . .
C6 C1 C7 117(3) . .
C6 C1 C2 120.0 . .
C2 C1 C7 123(3) . .
C1 C2 H2 120.0 . .
C3 C2 C1 120.0 . .
C3 C2 H2 120.0 . .
C2 C3 H3 120.0 . .
C4 C3 C2 120.0 . .
C4 C3 H3 120.0 . .
C3 C4 C8 119.3(11) . .
C3 C4 C5 120.0 . .
C5 C4 C8 120.7(11) . .
C6 C5 H5 120.0 . .
C4 C5 C6 120.0 . .
C4 C5 H5 120.0 . .
C8 O4 Co1 155(3) . 1_556
loop_
_geom_bond_atom_site_label_1
_geom_bond_atom_site_label_2
_geom_bond_distance
_geom_bond_site_symmetry_2
Co1 O2 2.21(7) .
Co1 N1 2.21(5) .
Co1 O1 2.19(14) .
Co1 N2 2.13(5) 1_545
Co1 O1W 1.97(6) .
Co1 O4 2.16(3) 1_554
O2 C7 1.230(3) .
N1 C11 1.480(3) .
N1 C9 1.480(3) .
N1 C13 1.480(3) .
O1 C7 1.230(3) .
N2 Co1 2.13(5) 1_565
N2 C12 1.480(3) .
N2 C14 1.480(3) .
N2 C10 1.480(3) .
O1W H1WA 1.3104 .
O1W H1WB 1.3854 .
C11 H11 0.9700 .
C11 H11B 0.9700 .
C11 C12 1.520(3) .
C8 O3 1.230(3) .
C8 C4 1.480(3) .
C8 O4 1.13(6) .
C9 H9A 0.9700 .
C9 H9B 0.9700 .
C9 C10 1.520(3) .
C12 H12A 0.9700 .
C12 H12B 0.9700 .
C7 C1 1.480(3) .
C14 H14A 0.9700 .
C14 H14B 0.9700 .
C14 C13 1.520(3) .
C10 H10A 0.9700 .
C10 H10B 0.9700 .
C13 H13A 0.9700 .
C13 H13B 0.9700 .
C6 H6 0.9300 .
C6 C1 1.3900 .
C6 C5 1.3900 .
C1 C2 1.3900 .
C2 H2 0.9300 .
C2 C3 1.3900 .
C3 H3 0.9300 .
C3 C4 1.3900 .
C4 C5 1.3900 .
C5 H5 0.9300 .
O4 Co1 2.16(3) 1_556
loop_
_geom_torsion_atom_site_label_1
_geom_torsion_atom_site_label_2
_geom_torsion_atom_site_label_3
_geom_torsion_atom_site_label_4
_geom_torsion
_geom_torsion_site_symmetry_1
_geom_torsion_site_symmetry_4
Co1 O2 C7 O1 0(3) . .
Co1 O2 C7 C1 -179(2) . .
Co1 N1 C11 C12 -163(8) . .
Co1 N1 C9 C10 -176(5) . .
Co1 N1 C13 C14 175(6) . .
Co1 O1 C7 O2 0(3) . .
Co1 O1 C7 C1 179(2) . .
Co1 N2 C12 C11 -160(9) 1_565 .
Co1 N2 C14 C13 175(6) 1_565 .
Co1 N2 C10 C9 -179(5) 1_565 .
O2 C7 C1 C6 -179.8(16) . .
O2 C7 C1 C2 0(2) . .
N1 C11 C12 N2 -33(15) . .
N1 C9 C10 N2 -2(9) . .
O1 C7 C1 C6 1(2) . .
O1 C7 C1 C2 -179.7(11) . .
N2 C14 C13 N1 7(10) . .
C11 N1 C9 C10 53(10) . .
C11 N1 C13 C14 -60(6) . .
C8 C4 C5 C6 179.9(12) . .
C9 N1 C11 C12 -35(13) . .
C9 N1 C13 C14 57(6) . .
C12 N2 C14 C13 38(14) . .
C12 N2 C10 C9 -59(6) . .
O3 C8 C4 C3 -0.3(11) . .
O3 C8 C4 C5 179.8(7) . .
O3 C8 O4 Co1 22(15) . 1_556
C7 C1 C2 C3 -179.6(17) . .
C14 N2 C12 C11 -23(16) . .
C14 N2 C10 C9 60(7) . .
C10 N2 C12 C11 78(10) . .
C10 N2 C14 C13 -64(8) . .
C13 N1 C11 C12 78(10) . .
C13 N1 C9 C10 -60(7) . .
C6 C1 C2 C3 0.0 . .
C1 C6 C5 C4 0.0 . .
C1 C2 C3 C4 0.0 . .
C2 C3 C4 C8 -179.9(12) . .
C2 C3 C4 C5 0.0 . .
C3 C4 C5 C6 0.0 . .
C4 C8 O4 Co1 -172(10) . 1_556
C5 C6 C1 C7 179.6(16) . .
C5 C6 C1 C2 0.0 . .
O4 C8 C4 C3 -169(5) . .
O4 C8 C4 C5 11(5) . .
