#------------------------------------------------------------------------------
#$Date: 2019-11-24 04:12:18 +0200 (Sun, 24 Nov 2019) $
#$Revision: 236652 $
#$URL: file:///home/coder/svn-repositories/cod/cif/8/00/03/8000356.cif $
#------------------------------------------------------------------------------
#
# This file is available in the Crystallography Open Database (COD),
# http://www.crystallography.net/
#
# All data on this site have been placed in the public domain by the
# contributors.
#
data_8000356
loop_
_publ_author_name
'Andrzejewski, Micha\/l'
'Katrusiak, Andrzej'
_publ_section_title
;
 Piezochromic Porous Metal-Organic Framework.
;
_journal_issue                   1
_journal_name_full               'The journal of physical chemistry letters'
_journal_page_first              279
_journal_page_last               284
_journal_paper_doi               10.1021/acs.jpclett.6b02458
_journal_volume                  8
_journal_year                    2017
_chemical_formula_moiety         'C14 H18 Co N2 O5'
_chemical_formula_sum            'C14 H18 Co N2 O5'
_chemical_formula_weight         353.23
_chemical_name_common            AMU1
_chemical_name_systematic
;
Co(1,4-benzenedicarboxylate)(1,4-diazabicyclo[2.2.2]octane)H2O
;
_space_group_crystal_system      monoclinic
_space_group_IT_number           6
_space_group_name_Hall           'P -2y'
_space_group_name_H-M_alt        'P 1 m 1'
_atom_sites_solution_hydrogens   mixed
_atom_sites_solution_primary     direct
_audit_creation_date             2016-07-11
_audit_creation_method
;
Olex2 1.2
(compiled 2016.02.19 svn.r3266 for OlexSys, GUI svn.r5155)
;
_cell_angle_alpha                90
_cell_angle_beta                 95.017(2)
_cell_angle_gamma                90
_cell_formula_units_Z            1
_cell_length_a                   6.1071(2)
_cell_length_b                   7.0985(2)
_cell_length_c                   10.6748(2)
_cell_measurement_reflns_used    2162
_cell_measurement_temperature    296(2)
_cell_measurement_theta_max      53.99
_cell_measurement_theta_min      5.74
_cell_volume                     460.99(2)
_computing_molecular_graphics    'Olex2 (Dolomanov et al., 2009)'
_computing_publication_material  'Olex2 (Dolomanov et al., 2009)'
_computing_structure_refinement  'ShelXL (Sheldrick, 2015)'
_computing_structure_solution    'ShelXS (Sheldrick, 2008)'
_diffrn_ambient_temperature      296(2)
_diffrn_measured_fraction_theta_full 0.999
_diffrn_measured_fraction_theta_max 0.999
_diffrn_measurement_device_type  'multiwire proportional'
_diffrn_measurement_method       'phi and omega scans'
_diffrn_radiation_monochromator  graphite
_diffrn_radiation_type           MoK\a
_diffrn_radiation_wavelength     0.71073
_diffrn_reflns_av_R_equivalents  0.0376
_diffrn_reflns_av_unetI/netI     0.0528
_diffrn_reflns_Laue_measured_fraction_full 0.999
_diffrn_reflns_Laue_measured_fraction_max 0.999
_diffrn_reflns_limit_h_max       8
_diffrn_reflns_limit_h_min       -8
_diffrn_reflns_limit_k_max       9
_diffrn_reflns_limit_k_min       -9
_diffrn_reflns_limit_l_max       13
_diffrn_reflns_limit_l_min       -13
_diffrn_reflns_number            7141
_diffrn_reflns_point_group_measured_fraction_full 0.999
_diffrn_reflns_point_group_measured_fraction_max 0.999
_diffrn_reflns_theta_full        26.000
_diffrn_reflns_theta_max         26.997
_diffrn_reflns_theta_min         2.870
_exptl_absorpt_coefficient_mu    0.951
_exptl_absorpt_correction_T_max  0.909
_exptl_absorpt_correction_T_min  0.892
_exptl_absorpt_correction_type   multi-scan
_exptl_absorpt_process_details
;
Data were collected and reduced by program CrysAlisPro, 
and SCALE3 ABSPACK was used for absorption correction
;
_exptl_crystal_colour            purple
_exptl_crystal_density_diffrn    1.272
_exptl_crystal_description       plate
_exptl_crystal_F_000             183
_exptl_crystal_size_max          0.3
_exptl_crystal_size_mid          0.1
_exptl_crystal_size_min          0.1
_refine_diff_density_max         1.021
_refine_diff_density_min         -0.946
_refine_diff_density_rms         0.126
_refine_ls_abs_structure_details
;
 Refined as a perfect inversion twin.
;
_refine_ls_abs_structure_Flack   0.5
_refine_ls_goodness_of_fit_ref   1.055
_refine_ls_hydrogen_treatment    mixed
_refine_ls_matrix_type           full
_refine_ls_number_parameters     124
_refine_ls_number_reflns         2162
_refine_ls_number_restraints     90
_refine_ls_restrained_S_all      1.063
_refine_ls_R_factor_all          0.0527
_refine_ls_R_factor_gt           0.0501
_refine_ls_shift/su_max          0.000
_refine_ls_shift/su_mean         0.000
_refine_ls_structure_factor_coef Fsqd
_refine_ls_weighting_details
'w=1/[\s^2^(Fo^2^)+(0.0774P)^2^+0.3888P] where P=(Fo^2^+2Fc^2^)/3'
_refine_ls_weighting_scheme      calc
_refine_ls_wR_factor_gt          0.1293
_refine_ls_wR_factor_ref         0.1316
_reflns_Friedel_coverage         0.992
_reflns_Friedel_fraction_full    0.999
_reflns_Friedel_fraction_max     0.999
_reflns_number_gt                2057
_reflns_number_total             2162
_reflns_threshold_expression     'I > 2\s(I)'
_cod_data_source_file            jz6b02458_si_004.cif
_cod_data_source_block           296K_01MPa
_cod_database_code               8000356
_shelx_space_group_comment
;
The symmetry employed for this shelxl refinement is uniquely defined
by the following loop, which should always be used as a source of
symmetry information in preference to the above space-group names.
They are only intended as comments.
;
_olex2_refinement_description
;
1. Fixed Uiso
 At 1.2 times of:
  All C(H) groups, All C(H,H) groups
 At 1.5 times of:
  All O(H) groups
2. Restrained distances
 O1W-H1WA
 0.88 with sigma of 0.02
 H1WB-O1W
 0.88 with sigma of 0.02
 H1WB-H1WA
 1.44 with sigma of 0.02
 H1WB-O1W
 0.88 with sigma of 0.02
3. Uiso/Uaniso restraints and constraints
Uanis(O3) \\sim Ueq, Uanis(C8) \\sim Ueq, Uanis(O4) \\sim Ueq, Uanis(C4) \\sim
Ueq, Uanis(C3) \\sim Ueq, Uanis(C5) \\sim Ueq, Uanis(C6) \\sim Ueq, Uanis(C1)
\\sim Ueq, Uanis(C2) \\sim Ueq, Uanis(O2) \\sim Ueq, Uanis(C7) \\sim Ueq,
Uanis(O1) \\sim Ueq: with sigma of 0.001 and sigma for terminal atoms of 0.002
Uanis(O1) \\sim Ueq, Uanis(C7) \\sim Ueq, Uanis(O2) \\sim Ueq, Uanis(C1) \\sim
Ueq, Uanis(C6) \\sim Ueq, Uanis(C5) \\sim Ueq, Uanis(C4) \\sim Ueq, Uanis(C8)
\\sim Ueq, Uanis(O4) \\sim Ueq, Uanis(O3) \\sim Ueq, Uanis(C3) \\sim Ueq,
Uanis(C2) \\sim Ueq: with sigma of 0.001 and sigma for terminal atoms of 0.002
Uanis(O1W) \\sim Ueq: with sigma of 0.001 and sigma for terminal atoms of 0.002
Uanis(N1) \\sim Ueq: with sigma of 0.001 and sigma for terminal atoms of 0.002
4. Others
 Fixed Sof: H1WA(0.5)
5.a Secondary CH2 refined with riding coordinates:
 C9(H9A,H9B), C10(H10A,H10B), C11(H11A,H11B)
5.b Aromatic/amide H refined with riding coordinates:
 C6(H6), C2(H2), C5(H5), C3(H3)
5.c Tetrahedral OH refined with riding coordinates:
 O1W(H1WA)
;
_shelx_hkl_file
;
  -7  -3  -2    3.41    0.62
  -7  -3  -1    2.67    0.55
  -7  -3   0    6.19    1.28
  -7  -2  -4    3.24    0.56
  -7  -2  -3    1.91    0.36
  -7  -2  -2    2.32    0.44
  -7  -2  -1    0.87    0.41
  -7  -2   0    4.07    0.66
  -7  -1  -4    3.86    0.72
  -7  -1  -3    2.00    0.32
  -7  -1  -2    3.30    0.59
  -7  -1  -1    1.25    0.41
  -7  -1   0    8.41    0.88
  -7   0  -4    7.07    1.18
  -7   0  -3    4.27    0.81
  -7   0  -2    4.97    0.99
  -7   0  -1    2.74    0.75
  -7   0   0    8.64    0.92
  -7   0   1    4.07    0.96
  -7   0   2    7.67    1.27
  -7   0   3    1.63    0.71
  -7   0   4    2.35    0.76
  -7   0   5    3.45    0.97
  -7   0   6    3.00    1.00
  -7   1   1    3.54    0.65
  -7   1   2    5.55    0.77
  -7   1   3    1.03    0.44
  -7   1   4    2.26    0.47
  -7   1   5    3.61    0.54
  -7   1   6    3.44    0.60
  -7   2   1    1.59    0.48
  -7   2   2    3.65    0.65
  -7   2   3    0.29    0.35
  -7   2   4    1.06    0.44
  -7   2   5    0.91    1.20
  -7   3   1    2.80    0.59
  -7   3   2    4.10    0.69
  -7   3   3    1.84    0.54
  -7   3   4    2.76    0.72
  -7   4   1    3.61    0.87
  -6  -5  -3    2.22    0.49
  -6  -5  -2    1.51    0.41
  -6  -5  -1    1.07    0.35
  -6  -5   0    0.24    0.32
  -6  -4  -5    2.89    0.56
  -6  -4  -4    4.41    0.96
  -6  -4  -3    4.35    0.65
  -6  -4  -2    4.61    0.83
  -6  -4  -1    6.26    0.85
  -6  -4   0    6.48    0.73
  -6  -3  -6    3.56    0.88
  -6  -3  -5    4.67    0.56
  -6  -3  -4   10.02    0.70
  -6  -3  -3    9.83    0.69
  -6  -3  -2    9.76    0.73
  -6  -3  -1    9.88    0.70
  -6  -3   0    6.40    0.78
  -6  -2  -7    2.85    0.83
  -6  -2  -6    2.56    0.56
  -6  -2  -5    2.78    0.42
  -6  -2  -4    6.30    0.56
  -6  -2  -3    5.30    0.96
  -6  -2  -2    5.74    0.66
  -6  -2  -1    6.38    0.74
  -6  -2   0    3.92    0.79
  -6  -1  -7    7.12    0.89
  -6  -1  -6    6.19    0.79
  -6  -1  -5    3.93    1.10
  -6  -1  -4    7.10    0.92
  -6  -1  -3    6.81    0.70
  -6  -1  -2    8.27    0.83
  -6  -1  -1   12.05    1.41
  -6  -1   0   12.94    1.35
  -6   0  -7    3.35    0.86
  -6   0  -6    6.05    1.15
  -6   0  -5    5.26    1.06
  -6   0  -4   14.38    1.00
  -6   0  -3   13.68    1.37
  -6   0  -2   16.04    1.45
  -6   0  -1   12.50    1.47
  -6   0   0    6.46    1.03
  -6   0   1    8.08    1.14
  -6   0   2   12.09    1.36
  -6   0   3   24.25    2.17
  -6   0   4   14.92    1.58
  -6   0   5   12.40    1.48
  -6   0   6    6.89    1.16
  -6   0   7    7.75    1.21
  -6   0   8    3.49    0.93
  -6   0   9    5.97    1.11
  -6   1   1   14.04    1.10
  -6   1   2   11.80    0.83
  -6   1   3   13.27    1.03
  -6   1   4    7.67    0.84
  -6   1   5    5.15    0.73
  -6   1   6    4.56    0.82
  -6   1   7    7.79    0.89
  -6   1   8    4.80    0.88
  -6   1   9    6.73    0.82
  -6   2   1    5.33    0.70
  -6   2   2    5.43    0.68
  -6   2   3   11.09    1.04
  -6   2   4    5.71    0.73
  -6   2   5    4.13    0.84
  -6   2   6    2.66    0.57
  -6   2   7    3.20    0.60
  -6   2   8    2.45    0.90
  -6   2   9    4.24    0.74
  -6   3   1    8.45    0.86
  -6   3   2   10.49    1.00
  -6   3   3   15.91    1.19
  -6   3   4    9.21    1.87
  -6   3   5    7.83    0.86
  -6   3   6    5.77    0.79
  -6   3   7    6.46    1.60
  -6   3   8    3.28    0.63
  -6   4   1    8.99    0.94
  -6   4   2    8.52    0.90
  -6   4   3    8.22    0.94
  -6   4   4    4.68    0.69
  -6   4   5    2.33    0.59
  -6   4   6    2.90    0.60
  -6   4   7    4.59    1.05
  -6   5   1    1.21    0.41
  -6   5   2    2.38    0.58
  -6   5   3    5.04    0.80
  -6   5   4    1.51    0.49
  -5  -6  -4    1.40    0.60
  -5  -6  -3    3.48    0.60
  -5  -6  -2    7.50    0.88
  -5  -6  -1    0.62    0.40
  -5  -6   0    4.22    0.67
  -5  -5  -6    0.80    0.38
  -5  -5  -5    2.09    0.61
  -5  -5  -4    5.02    0.98
  -5  -5  -3    6.16    0.71
  -5  -5  -2   11.80    1.00
  -5  -5  -1    0.04    0.25
  -5  -5   0    0.37    0.45
  -5  -4  -7    4.16    0.65
  -5  -4  -6    1.05    0.29
  -5  -4  -5    0.99    0.32
  -5  -4  -4    0.72    0.25
  -5  -4  -3    2.39    0.35
  -5  -4  -2   12.54    0.75
  -5  -4  -1    1.90    0.26
  -5  -4   0    5.80    1.67
  -5  -3  -8    4.11    0.67
  -5  -3  -7    6.20    0.79
  -5  -3  -6    3.37    0.47
  -5  -3  -5    4.83    0.51
  -5  -3  -4   10.41    0.67
  -5  -3  -3   16.63    0.85
  -5  -3  -2   38.68    1.34
  -5  -3  -1    1.03    0.26
  -5  -3   0    8.25    0.78
  -5  -2  -9    1.89    0.77
  -5  -2  -8    2.46    0.58
  -5  -2  -7    3.39    0.64
  -5  -2  -6    2.27    0.32
  -5  -2  -5    1.89    0.28
  -5  -2  -4    3.89    0.43
  -5  -2  -3    8.74    0.60
  -5  -2  -2   31.24    1.49
  -5  -2  -1    0.54    0.34
  -5  -2   0    3.30    0.56
  -5  -1  -9    4.17    0.77
  -5  -1  -8    5.48    1.27
  -5  -1  -7    6.09    0.77
  -5  -1  -6    3.47    0.59
  -5  -1  -5    1.31    0.18
  -5  -1  -4    1.84    0.32
  -5  -1  -3    4.29    0.53
  -5  -1  -2   30.07    1.37
  -5  -1  -1    3.33    0.56
  -5  -1   0    6.76    0.64
  -5   0  -9    3.20    0.86
  -5   0  -8    3.96    0.99
  -5   0  -7    7.83    1.33
  -5   0  -6    5.07    0.98
  -5   0  -5    8.15    1.29
  -5   0  -4   20.40    1.20
  -5   0  -3   30.30    1.91
  -5   0  -2   71.93    3.50
  -5   0  -1    2.93    0.58
  -5   0   0   10.50    1.35
  -5   0   1   10.87    1.15
  -5   0   2   29.31    2.10
  -5   0   3   31.72    2.12
  -5   0   4   15.55    1.54
  -5   0   5   34.09    2.22
  -5   0   6   38.97    2.63
  -5   0   7   14.89    1.50
  -5   0   8    7.02    1.06
  -5   0   9    6.24    1.07
  -5   0  10    8.28    1.47
  -5   0  11   17.29    2.49
  -5   1   1    6.09    0.67
  -5   1   2   15.25    1.03
  -5   1   3    9.14    0.85
  -5   1   4    0.76    0.33
  -5   1   5    3.62    0.89
  -5   1   6    9.81    1.18
  -5   1   7    3.75    0.65
  -5   1   8    3.61    0.43
  -5   1   9    4.72    0.57
  -5   1  10    7.14    0.80
  -5   1  11   11.31    1.47
  -5   2   1    3.17    0.79
  -5   2   2   11.28    0.95
  -5   2   3   12.41    0.94
  -5   2   4    2.11    0.51
  -5   2   5    7.97    0.76
  -5   2   6   13.51    1.46
  -5   2   7    5.00    0.65
  -5   2   8    3.23    0.87
  -5   2   9    3.25    0.59
  -5   2  10    3.99    0.63
  -5   3   1    6.72    0.75
  -5   3   2   17.29    1.12
  -5   3   3   20.09    1.30
  -5   3   4    8.30    0.80
  -5   3   5   15.45    1.19
  -5   3   6   21.02    1.67
  -5   3   7    9.88    0.96
  -5   3   8    5.75    0.73
  -5   3   9    6.61    0.78
  -5   3  10    6.03    0.79
  -5   4   1    4.94    0.88
  -5   4   2    6.65    0.76
  -5   4   3    6.13    0.74
  -5   4   4    0.21    0.33
  -5   4   5    2.34    0.49
  -5   4   6    4.24    0.68
  -5   4   7    2.30    0.62
  -5   4   8    2.82    0.59
  -5   4   9    3.40    0.66
  -5   5   1    1.00    0.64
  -5   5   2    3.70    0.59
  -5   5   3    6.47    0.83
  -5   5   4    2.38    0.56
  -5   5   5    5.91    0.79
  -5   5   6    7.50    0.86
  -5   5   7    2.11    0.60
  -5   5   8    1.89    0.74
  -5   6   1    4.41    0.75
  -5   6   2    6.25    0.81
  -5   6   3    6.74    0.83
  -5   6   4    1.01    0.43
  -5   6   5    2.40    0.55
  -5   6   6    3.35    0.91
  -4  -7  -4    1.92    0.35
  -4  -7  -3    3.95    0.52
  -4  -7  -2    4.16    0.68
  -4  -7  -1    0.41    0.37
  -4  -7   0    1.35    0.89
  -4  -6  -6    0.22    0.34
  -4  -6  -5    1.84    0.34
  -4  -6  -4    2.11    0.45
  -4  -6  -3    4.78    0.48
  -4  -6  -2    7.38    0.65
  -4  -6  -1    2.19    0.34
  -4  -6   0    5.92    0.73
  -4  -5  -8    2.23    0.68
  -4  -5  -7    5.03    0.73
  -4  -5  -6    1.06    0.38
  -4  -5  -5    4.79    0.67
  -4  -5  -4    8.00    0.72
  -4  -5  -3   10.72    0.92
  -4  -5  -2   13.96    0.90
  -4  -5  -1    0.44    0.31
  -4  -5   0    3.61    0.32
  -4  -4  -9    6.79    1.07
  -4  -4  -8    7.09    0.85
  -4  -4  -7    8.53    0.66
  -4  -4  -6    0.21    0.24
  -4  -4  -5    0.96    0.20
  -4  -4  -4    2.51    0.43
  -4  -4  -3    4.80    0.56
  -4  -4  -2   12.39    0.71
  -4  -4  -1    1.79    0.30
  -4  -4   0    8.99    0.58
  -4  -3 -10    2.99    1.51
  -4  -3  -9   10.52    1.15
  -4  -3  -8    9.90    0.93
  -4  -3  -7   17.88    0.96
  -4  -3  -6    3.75    0.39
  -4  -3  -5   12.71    0.64
  -4  -3  -4   21.55    0.86
  -4  -3  -3   27.14    1.04
  -4  -3  -2   32.14    1.08
  -4  -3  -1    8.98    0.57
  -4  -3   0   20.01    1.04
  -4  -2 -10    2.52    0.54
  -4  -2  -9    9.05    0.98
  -4  -2  -8    7.18    0.83
  -4  -2  -7   12.31    1.63
  -4  -2  -6    0.94    0.22
  -4  -2  -5    5.10    0.35
  -4  -2  -4   12.47    0.82
  -4  -2  -3   15.21    0.51
  -4  -2  -2   24.61    0.80
  -4  -2  -1    1.84    0.14
  -4  -2   0   12.69    0.54
  -4  -1 -10    3.36    0.69
  -4  -1  -9   14.94    1.19
  -4  -1  -8   11.31    0.97
  -4  -1  -7   14.15    1.12
  -4  -1  -6    0.34    0.18
  -4  -1  -5    2.12    0.33
  -4  -1  -4    5.42    0.36
  -4  -1  -3    8.36    0.59
  -4  -1  -2   17.99    0.51
  -4  -1  -1    2.62    0.23
  -4  -1   0   17.44    0.48
  -4   0 -10    4.05    0.96
  -4   0  -9   18.12    1.91
  -4   0  -8   11.97    1.50
  -4   0  -7   24.48    1.94
  -4   0  -6    9.21    0.92
  -4   0  -5   26.14    2.11
  -4   0  -4   51.14    1.92
  -4   0  -3   58.18    2.12
  -4   0  -2   64.94    3.15
  -4   0  -1   18.03    1.28
  -4   0   0   39.24    2.30
  -4   0   1   33.21    1.93
  -4   0   2   22.56    0.92
  -4   0   3   27.94    1.06
  -4   0   4   32.19    1.24
  -4   0   5   39.14    2.15
  -4   0   6   42.63    2.53
  -4   0   7   40.46    2.27
  -4   0   8   16.90    1.50
  -4   0   9    6.55    1.01
  -4   0  10    4.47    0.49
  -4   0  11    3.24    0.58
  -4   0  12   16.02    2.51
  -4   1   1   18.27    1.00
  -4   1   2   11.06    1.16
  -4   1   3    4.76    0.44
  -4   1   4    1.05    0.28
  -4   1   5    4.02    0.86
  -4   1   6   11.57    1.12
  -4   1   7   23.37    1.02
  -4   1   8    8.50    0.56
  -4   1   9    6.68    0.45
  -4   1  10    3.55    0.38
  -4   1  11    1.22    0.31
  -4   1  12    6.27    1.20
  -4   2   1    9.57    0.73
  -4   2   2    5.85    0.60
  -4   2   3    5.10    0.33
  -4   2   4    5.43    0.43
  -4   2   5    8.45    0.47
  -4   2   6   16.90    1.03
  -4   2   7   19.54    0.80
  -4   2   8    5.46    0.50
  -4   2   9    2.78    0.34
  -4   2  10    1.08    0.30
  -4   2  11    0.50    0.26
  -4   3   1   22.52    1.28
  -4   3   2   16.60    0.60
  -4   3   3   15.44    1.06
  -4   3   4   13.08    0.95
  -4   3   5   15.97    1.01
  -4   3   6   23.24    1.10
  -4   3   7   21.11    1.26
  -4   3   8    7.91    0.81
  -4   3   9    5.72    0.67
  -4   3  10    3.20    0.54
  -4   3  11    3.29    0.79
  -4   4   1   10.52    0.58
  -4   4   2    9.15    0.82
  -4   4   3    2.65    0.44
  -4   4   4    0.87    0.39
  -4   4   5    1.19    0.37
  -4   4   6    4.96    0.71
  -4   4   7   11.52    1.01
  -4   4   8    4.46    0.93
  -4   4   9    4.19    0.65
  -4   4  10    2.31    0.96
  -4   5   1    2.96    0.60
  -4   5   2    2.36    0.54
  -4   5   3    2.97    0.56
  -4   5   4    3.21    0.56
  -4   5   5    6.35    0.79
  -4   5   6    8.81    0.96
  -4   5   7    6.50    0.75
  -4   5   8    0.75    0.78
  -4   5   9    0.06    0.62
  -4   6   1    6.98    0.83
  -4   6   2    7.06    0.78
  -4   6   3    3.91    0.70
  -4   6   4    1.38    0.50
  -4   6   5    1.50    0.43
  -4   6   6    4.26    0.65
  -4   6   7    5.81    0.83
  -4   6   8    3.36    0.61
  -4   7   1    2.93    0.62
  -4   7   2    3.06    0.58
  -4   7   3    1.80    0.64
  -4   7   4    1.68    0.80
  -4   7   5    1.76    0.56
  -3  -8  -3    1.20    0.41
  -3  -8  -2    0.71    0.29
  -3  -8  -1    1.23    0.47
  -3  -8   0    1.47    0.48
  -3  -7  -6    2.25    0.50
  -3  -7  -5    3.53    0.56
  -3  -7  -4    4.43    0.54
  -3  -7  -3    2.94    0.52
  -3  -7  -2    2.42    0.39
  -3  -7  -1    2.44    0.48
  -3  -7   0    4.45    0.49
  -3  -6  -8    5.49    0.69
  -3  -6  -7    4.22    0.57
  -3  -6  -6    4.89    0.84
  -3  -6  -5    6.65    0.63
  -3  -6  -4    8.23    0.54
  -3  -6  -3    6.81    0.59
  -3  -6  -2    7.34    0.61
  -3  -6  -1    9.12    0.70
  -3  -6   0   12.91    0.73
  -3  -5  -9    2.02    0.44
  -3  -5  -8    5.76    0.84
  -3  -5  -7    4.21    0.68
  -3  -5  -6    3.73    0.50
  -3  -5  -5    6.32    0.41
  -3  -5  -4   11.08    0.71
  -3  -5  -3    4.48    0.34
  -3  -5  -2    2.39    0.29
  -3  -5  -1    5.57    0.42
  -3  -5   0    6.55    0.74
  -3  -4 -10    3.64    1.12
  -3  -4  -9    8.14    0.90
  -3  -4  -8    8.43    0.56
  -3  -4  -7    6.07    0.63
  -3  -4  -6    6.66    0.49
  -3  -4  -5   10.46    0.55
  -3  -4  -4   16.36    0.75
  -3  -4  -3   12.20    0.48
  -3  -4  -2   12.89    0.42
  -3  -4  -1   13.40    0.55
  -3  -4   0   24.61    0.57
  -3  -3 -11    4.51    0.85
  -3  -3 -10    5.38    0.75
  -3  -3  -9    8.40    0.86
  -3  -3  -8   13.07    0.83
  -3  -3  -7   13.50    0.66
  -3  -3  -6   16.04    0.82
  -3  -3  -5   25.64    0.78
  -3  -3  -4   44.76    1.26
  -3  -3  -3   29.09    0.98
  -3  -3  -2   26.62    0.74
  -3  -3  -1   26.48    0.66
  -3  -3   0   39.69    1.23
  -3  -2 -11    3.87    0.68
  -3  -2 -10    2.48    0.53
  -3  -2  -9    5.26    0.75
  -3  -2  -8    8.92    0.76
  -3  -2  -7    9.17    0.67
  -3  -2  -6    9.51    0.28
  -3  -2  -5   14.58    0.51
  -3  -2  -4   30.70    1.00
  -3  -2  -3   16.77    0.56
  -3  -2  -2   13.90    0.40
  -3  -2  -1   12.85    0.54
  -3  -2   0   16.79    0.54
  -3  -1 -11    5.60    0.82
  -3  -1 -10    4.94    0.77
  -3  -1  -9   11.98    1.32
  -3  -1  -8   13.94    1.28
  -3  -1  -7   11.08    0.52
  -3  -1  -6   12.63    0.46
  -3  -1  -5   14.58    0.39
  -3  -1  -4   30.88    0.72
  -3  -1  -3   21.71    0.50
  -3  -1  -2   23.25    0.74
  -3  -1  -1   19.70    0.41
  -3  -1   0   45.64    1.02
  -3   0 -11    6.77    1.18
  -3   0 -10    5.28    0.95
  -3   0  -9   11.85    1.61
  -3   0  -8   22.30    1.69
  -3   0  -7   21.69    1.99
  -3   0  -6   25.36    0.89
  -3   0  -5   42.14    1.52
  -3   0  -4   89.59    2.47
  -3   0  -3   58.76    2.39
  -3   0  -2   49.54    1.12
  -3   0  -1   57.05    1.86
  -3   0   0   70.70    1.55
  -3   0   1   76.51    2.28
  -3   0   2  166.57    6.81
  -3   0   3   50.92    1.55
  -3   0   4   28.94    1.62
  -3   0   5   31.40    1.85
  -3   0   6   20.56    0.98
  -3   0   7   91.93    2.80
  -3   0   8   12.82    0.76
  -3   0   9   11.21    1.35
  -3   0  10    8.69    0.68
  -3   0  11    8.28    0.84
  -3   0  12   11.10    1.05
  -3   1   1   59.93    1.11
  -3   1   2  160.09    2.87
  -3   1   3   28.41    0.84
  -3   1   4    8.73    0.66
  -3   1   5    7.51    0.48
  -3   1   6    5.06    0.37
  -3   1   7   64.29    1.28
  -3   1   8   11.33    0.54
  -3   1   9   12.01    0.52
  -3   1  10   11.97    0.56
  -3   1  11    9.49    0.90
  -3   1  12    8.46    0.65
  -3   2   1   20.93    0.96
  -3   2   2   74.76    1.11
  -3   2   3   15.63    0.54
  -3   2   4    5.39    0.29
  -3   2   5    6.86    0.37
  -3   2   6    3.73    0.29
  -3   2   7   47.75    1.31
  -3   2   8    5.50    0.39
  -3   2   9    4.76    0.38
  -3   2  10    4.41    0.37
  -3   2  11    3.96    0.39
  -3   2  12    5.53    0.81
  -3   3   1   43.05    0.88
  -3   3   2   86.24    1.59
  -3   3   3   30.27    0.93
  -3   3   4   18.49    0.51
  -3   3   5   17.76    0.95
  -3   3   6   11.65    0.52
  -3   3   7   52.62    1.25
  -3   3   8   11.59    0.64
  -3   3   9    9.12    0.51
  -3   3  10    7.77    0.50
  -3   3  11    6.30    0.82
  -3   3  12    8.40    0.84
  -3   4   1   26.74    0.63
  -3   4   2   54.02    1.08
  -3   4   3   15.22    0.65
  -3   4   4    7.59    0.47
  -3   4   5    5.48    0.39
  -3   4   6    2.87    0.33
  -3   4   7   30.72    1.12
  -3   4   8    8.36    0.58
  -3   4   9    8.02    0.62
  -3   4  10    6.37    1.07
  -3   4  11    5.66    0.95
  -3   5   1    6.33    0.48
  -3   5   2   10.60    0.64
  -3   5   3    3.57    0.56
  -3   5   4    3.63    0.61
  -3   5   5    2.86    0.48
  -3   5   6    2.02    0.43
  -3   5   7   12.50    1.67
  -3   5   8    1.40    0.45
  -3   5   9    2.62    0.41
  -3   6   1   13.16    0.96
  -3   6   2   21.45    1.31
  -3   6   3    9.36    0.92
  -3   6   4    6.28    1.31
  -3   6   5    4.59    0.71
  -3   6   6    3.45    0.57
  -3   6   7   15.37    1.19
  -3   6   8    5.03    0.97
  -3   6   9    5.37    1.13
  -3   7   1    4.61    0.71
  -3   7   2    7.92    0.87
  -3   7   3    4.31    0.65
  -3   7   4    3.05    0.73
  -3   7   5    1.61    0.43
  -3   7   6    1.80    0.52
  -3   7   7    7.29    0.81
  -3   8   1    1.53    1.19
  -3   8   2    1.57    0.46
  -3   8   3    0.16    0.37
  -3   8   4    1.21    0.60
  -2  -8  -5    0.13    0.28
  -2  -8  -4    0.85    0.32
  -2  -8  -3    0.26    0.23
  -2  -8  -2    0.10    0.22
  -2  -8  -1    0.26    0.32
  -2  -8   0    0.20    0.21
  -2  -7  -7    1.33    0.47
  -2  -7  -6    2.92    0.54
  -2  -7  -5    3.55    0.63
  -2  -7  -4    6.03    0.46
  -2  -7  -3    1.51    0.31
  -2  -7  -2    3.00    0.41
  -2  -7  -1    2.71    0.44
  -2  -7   0    3.11    0.41
  -2  -6  -9    7.43    1.22
  -2  -6  -8    0.07    0.32
  -2  -6  -7    2.05    0.32
  -2  -6  -6    6.27    0.50
  -2  -6  -5   12.18    0.48
  -2  -6  -4   18.72    0.60
  -2  -6  -3    5.90    0.40
  -2  -6  -2    8.96    0.43
  -2  -6  -1    7.02    0.44
  -2  -6   0    8.65    0.47
  -2  -5 -10    3.29    0.52
  -2  -5  -9    5.30    0.56
  -2  -5  -8    3.38    0.40
  -2  -5  -7    1.03    0.31
  -2  -5  -6    0.72    0.22
  -2  -5  -5    3.06    0.23
  -2  -5  -4    7.76    0.33
  -2  -5  -3    1.58    0.18
  -2  -5  -2    0.19    0.11
  -2  -5  -1    0.13    0.12
  -2  -5   0    2.78    0.14
  -2  -4 -11    4.60    0.66
  -2  -4 -10    7.92    0.93
  -2  -4  -9   13.66    1.02
  -2  -4  -8    0.01    0.20
  -2  -4  -7    2.63    0.46
  -2  -4  -6    8.46    0.42
  -2  -4  -5   24.58    0.62
  -2  -4  -4   41.35    0.92
  -2  -4  -3    7.26    0.30
  -2  -4  -2   15.31    0.40
  -2  -4  -1    9.51    0.27
  -2  -4   0   21.09    0.60
  -2  -3 -12    2.53    0.64
  -2  -3 -11    5.32    0.80
  -2  -3 -10   11.05    0.93
  -2  -3  -9   21.34    1.40
  -2  -3  -8    3.79    0.33
  -2  -3  -7    7.53    0.42
  -2  -3  -6   11.36    0.36
  -2  -3  -5   34.59    0.72
  -2  -3  -4   61.21    1.03
  -2  -3  -3    9.41    0.29
  -2  -3  -2   17.71    0.62
  -2  -3  -1    8.83    0.29
  -2  -3   0   33.40    0.54
  -2  -2 -12    0.29    0.50
  -2  -2 -11    1.73    0.49
  -2  -2 -10    5.79    0.80
  -2  -2  -9   18.12    1.32
  -2  -2  -8    4.29    0.43
  -2  -2  -7    2.71    0.19
  -2  -2  -6    3.51    0.20
  -2  -2  -5   19.21    0.36
  -2  -2  -4   41.39    0.69
  -2  -2  -3    1.49    0.19
  -2  -2  -2    4.82    0.20
  -2  -2  -1    1.82    0.18
  -2  -2   0   15.85    0.57
  -2  -1 -12    4.45    0.72
  -2  -1 -11    5.67    1.08
  -2  -1 -10    9.46    0.85
  -2  -1  -9   23.17    1.60
  -2  -1  -8    1.23    0.54
  -2  -1  -7    2.11    0.23
  -2  -1  -6    9.33    0.19
  -2  -1  -5   50.01    0.85
  -2  -1  -4   92.36    1.54
  -2  -1  -3    5.18    0.19
  -2  -1  -2   22.05    0.41
  -2  -1  -1   20.64    0.44
  -2  -1   0   66.36    0.80
  -2   0 -12    2.02    0.78
  -2   0 -11    4.48    0.94
  -2   0 -10   14.03    1.68
  -2   0  -9   33.64    2.27
  -2   0  -8   11.46    1.12
  -2   0  -7    8.86    0.44
  -2   0  -6   12.99    0.92
  -2   0  -5   61.11    1.24
  -2   0  -4  118.57    2.01
  -2   0  -3   19.90    0.60
  -2   0  -2   19.35    0.58
  -2   0  -1    5.42    0.21
  -2   0   0   76.77    1.64
  -2   0   1   35.93    1.03
  -2   0   2   77.31    1.52
  -2   0   3   42.13    1.01
  -2   0   4   63.52    1.92
  -2   0   5   66.24    2.29
  -2   0   6   48.86    1.57
  -2   0   7   31.43    1.15
  -2   0   8   21.25    0.98
  -2   0   9   14.96    0.72
  -2   0  10   16.52    0.92
  -2   0  11   14.38    1.16
  -2   0  12   14.43    1.17
  -2   0  13   10.30    1.01
  -2   1   1   58.34    0.95
  -2   1   2   82.10    1.30
  -2   1   3   34.00    0.74
  -2   1   4   39.97    0.72
  -2   1   5   23.50    0.56
  -2   1   6   18.46    0.61
  -2   1   7   16.53    0.61
  -2   1   8   13.37    0.45
  -2   1   9   11.49    0.56
  -2   1  10   12.95    0.56
  -2   1  11   13.85    0.77
  -2   1  12   11.12    0.73
  -2   1  13    6.36    0.60
  -2   2   1   12.03    0.35
  -2   2   2   33.32    0.56
  -2   2   3   11.20    0.28
  -2   2   4   13.89    0.47
  -2   2   5   17.63    0.71
  -2   2   6   16.58    0.49
  -2   2   7   11.57    0.46
  -2   2   8    7.54    0.46
  -2   2   9    5.15    0.30
  -2   2  10    7.59    0.55
  -2   2  11    8.09    0.77
  -2   2  12    7.20    0.61
  -2   2  13    4.22    0.66
  -2   3   1   26.61    0.74
  -2   3   2   50.43    1.14
  -2   3   3   25.34    0.69
  -2   3   4   30.92    0.69
  -2   3   5   31.48    0.68
  -2   3   6   29.35    0.92
  -2   3   7   21.64    0.77
  -2   3   8   12.53    0.49
  -2   3   9    9.96    0.53
  -2   3  10   12.44    0.68
  -2   3  11   12.84    0.86
  -2   3  12   10.47    0.74
  -2   4   1   24.17    0.46
  -2   4   2   39.29    0.93
  -2   4   3   18.69    0.66
  -2   4   4   21.26    0.63
  -2   4   5   11.04    0.51
  -2   4   6   13.29    0.71
  -2   4   7   13.16    0.68
  -2   4   8    8.64    0.53
  -2   4   9    6.87    0.43
  -2   4  10    8.19    0.68
  -2   4  11    9.70    0.71
  -2   5   1    2.13    0.24
  -2   5   2    8.14    0.35
  -2   5   3    2.19    0.29
  -2   5   4    3.18    0.34
  -2   5   5    8.38    0.62
  -2   5   6    8.57    0.58
  -2   5   7    4.57    0.44
  -2   5   8    1.61    0.30
  -2   5   9    1.29    0.62
  -2   5  10    2.47    0.71
  -2   5  11    2.39    0.70
  -2   6   1   11.18    0.53
  -2   6   2   16.91    0.80
  -2   6   3    9.77    0.87
  -2   6   4   13.08    0.97
  -2   6   5    8.41    0.85
  -2   6   6    9.44    0.86
  -2   6   7    8.86    0.85
  -2   6   8    5.41    0.68
  -2   6   9    4.45    0.94
  -2   7   1    4.50    0.50
  -2   7   2    7.02    1.03
  -2   7   3    4.38    0.68
  -2   7   4    3.22    0.56
  -2   7   5    3.26    0.63
  -2   7   6    3.42    0.60
  -2   7   7    3.55    0.61
  -2   7   8    2.19    0.79
  -2   8   1    0.27    1.00
  -2   8   2    1.01    0.48
  -2   8   3    0.21    0.31
  -2   8   4    0.52    0.38
  -2   8   5    1.54    0.54
  -1  -8  -6    0.56    0.38
  -1  -8  -5    0.57    0.38
  -1  -8  -4    0.53    0.22
  -1  -8  -3    0.28    0.29
  -1  -8  -2    0.33    0.25
  -1  -8  -1    1.73    0.37
  -1  -8   0    3.83    0.61
  -1  -7  -8    0.81    0.48
  -1  -7  -7    2.21    0.45
  -1  -7  -6    3.81    0.43
  -1  -7  -5    4.89    0.38
  -1  -7  -4    5.92    0.43
  -1  -7  -3    3.13    0.30
  -1  -7  -2    3.04    0.39
  -1  -7  -1    4.72    0.37
  -1  -7   0    8.23    0.55
  -1  -6  -9    6.88    0.68
  -1  -6  -8    1.18    0.34
  -1  -6  -7    4.53    0.45
  -1  -6  -6    9.95    0.45
  -1  -6  -5   16.83    0.59
  -1  -6  -4   18.75    0.61
  -1  -6  -3   10.20    0.41
  -1  -6  -2    7.54    0.35
  -1  -6  -1    9.40    0.44
  -1  -6   0   15.19    0.61
  -1  -5 -11    3.58    0.84
  -1  -5 -10    8.37    0.87
  -1  -5  -9   13.21    0.96
  -1  -5  -8    2.30    0.40
  -1  -5  -7    3.24    0.27
  -1  -5  -6    2.93    0.24
  -1  -5  -5    3.41    0.22
  -1  -5  -4    3.29    0.22
  -1  -5  -3    1.64    0.17
  -1  -5  -2    3.55    0.30
  -1  -5  -1   12.95    0.36
  -1  -5   0   26.78    0.67
  -1  -4 -11    9.82    1.26
  -1  -4 -10    8.57    0.83
  -1  -4  -9    9.96    0.99
  -1  -4  -8    2.17    0.41
  -1  -4  -7    6.62    0.55
  -1  -4  -6   17.31    0.53
  -1  -4  -5   35.74    0.85
  -1  -4  -4   41.22    0.82
  -1  -4  -3   24.12    0.58
  -1  -4  -2   19.49    0.37
  -1  -4  -1   11.67    0.50
  -1  -4   0   23.62    0.46
  -1  -3 -12    4.37    0.70
  -1  -3 -11   14.87    1.21
  -1  -3 -10   22.26    1.42
  -1  -3  -9   35.98    1.51
  -1  -3  -8   11.37    0.73
  -1  -3  -7   22.16    0.64
  -1  -3  -6   26.34    0.60
  -1  -3  -5   35.36    0.81
  -1  -3  -4   35.86    0.71
  -1  -3  -3   27.79    0.49
  -1  -3  -2   35.91    0.66
  -1  -3  -1   62.54    0.56
  -1  -3   0  122.61    2.00
  -1  -2 -12    2.42    0.58
  -1  -2 -11   14.49    1.13
  -1  -2 -10   16.62    1.09
  -1  -2  -9   23.48    1.12
  -1  -2  -8    6.02    0.55
  -1  -2  -7   11.14    0.70
  -1  -2  -6   13.58    0.43
  -1  -2  -5   20.09    0.44
  -1  -2  -4   18.89    0.39
  -1  -2  -3   11.41    0.24
  -1  -2  -2   28.84    0.33
  -1  -2  -1   40.58    0.99
  -1  -2   0   70.31    0.68
  -1  -1 -13    1.08    0.88
  -1  -1 -12    5.97    0.80
  -1  -1 -11   18.71    1.31
  -1  -1 -10   13.59    1.96
  -1  -1  -9   17.47    1.09
  -1  -1  -8    6.17    1.25
  -1  -1  -7   13.33    0.84
  -1  -1  -6   31.43    1.52
  -1  -1  -5   72.87    1.22
  -1  -1  -4   89.36    1.57
  -1  -1  -3   53.95    0.65
  -1  -1  -2   70.94    0.89
  -1  -1  -1   53.42    0.47
  -1  -1   0   73.00    1.06
  -1   0 -13    0.28    0.61
  -1   0 -12    4.47    1.06
  -1   0 -11   27.83    2.32
  -1   0 -10   33.09    2.19
  -1   0  -9   64.27    3.42
  -1   0  -8   27.53    1.70
  -1   0  -7   49.54    2.77
  -1   0  -6   40.70    1.86
  -1   0  -5   39.70    2.26
  -1   0  -4   45.44    1.08
  -1   0  -3   54.59    0.94
  -1   0  -2   80.13    1.60
  -1   0  -1  208.13    4.53
  -1   0   0  369.44    4.31
  -1   0   1  209.46    4.83
  -1   0   2   77.44    1.36
  -1   0   3    9.12    0.42
  -1   0   4    3.80    0.19
  -1   0   5  144.44    3.79
  -1   0   6   57.19    1.79
  -1   0   7   50.43    1.43
  -1   0   8   13.24    0.53
  -1   0   9   22.03    0.96
  -1   0  10   10.93    0.85
  -1   0  11   20.18    1.37
  -1   0  12    7.09    0.86
  -1   0  13    6.28    1.41
  -1   1   1    3.49    0.15
  -1   1   2   20.43    0.40
  -1   1   3   77.77    1.57
  -1   1   4   67.94    1.55
  -1   1   5   79.30    1.24
  -1   1   6   27.41    0.72
  -1   1   7   14.81    0.55
  -1   1   8    0.35    0.18
  -1   1   9    2.38    0.16
  -1   1  10    0.66    0.25
  -1   1  11    9.00    0.64
  -1   1  12    5.51    0.54
  -1   1  13    5.46    0.54
  -1   2   1   20.66    0.58
  -1   2   2   10.00    0.19
  -1   2   3   17.10    0.36
  -1   2   4    9.48    0.32
  -1   2   5   48.85    1.12
  -1   2   6   14.97    0.50
  -1   2   7   14.19    0.52
  -1   2   8    1.45    0.16
  -1   2   9    5.04    0.37
  -1   2  10    1.09    0.18
  -1   2  11    8.36    0.63
  -1   2  12    3.26    0.42
  -1   2  13    3.18    0.86
  -1   3   1   68.05    0.91
  -1   3   2   27.15    0.86
  -1   3   3   12.27    0.39
  -1   3   4   11.15    0.56
  -1   3   5   73.62    1.16
  -1   3   6   31.56    0.81
  -1   3   7   23.77    0.68
  -1   3   8    7.98    0.46
  -1   3   9   11.38    0.56
  -1   3  10    4.48    0.60
  -1   3  11   12.08    0.73
  -1   3  12    5.62    0.52
  -1   4   1    5.72    0.37
  -1   4   2    7.39    0.76
  -1   4   3   19.27    0.60
  -1   4   4   24.16    1.00
  -1   4   5   36.16    1.22
  -1   4   6   13.56    0.67
  -1   4   7    6.46    0.51
  -1   4   8    0.45    0.20
  -1   4   9    1.70    0.32
  -1   4  10    0.63    0.31
  -1   4  11    4.69    0.55
  -1   4  12    3.27    0.59
  -1   5   1   12.66    0.47
  -1   5   2    3.18    0.42
  -1   5   3    0.00    0.17
  -1   5   4    0.22    0.22
  -1   5   5   16.01    0.71
  -1   5   6    4.75    0.46
  -1   5   7    3.69    0.38
  -1   5   8    2.32    0.51
  -1   5   9    4.31    0.53
  -1   5  10    1.98    0.49
  -1   5  11    3.15    0.86
  -1   6   1    7.75    0.56
  -1   6   2    4.67    0.49
  -1   6   3    6.18    0.52
  -1   6   4    9.19    0.63
  -1   6   5   18.56    0.90
  -1   6   6    8.77    0.62
  -1   6   7    4.07    0.46
  -1   6   8    2.30    0.47
  -1   6   9    3.10    0.90
  -1   6  10    1.94    0.65
  -1   7   1    4.01    0.36
  -1   7   2    2.98    0.38
  -1   7   3    2.27    0.35
  -1   7   4    2.82    0.62
  -1   7   5    7.34    1.49
  -1   7   6    3.86    0.65
  -1   7   7    1.12    0.64
  -1   7   8    1.82    0.77
  -1   8   1    1.42    0.48
  -1   8   2    0.32    0.35
  -1   8   3    0.10    0.33
  -1   8   4    0.07    0.38
  -1   8   5    2.63    0.90
  -1   8   6    0.77    0.48
   0  -9  -1    0.06    0.51
   0  -8  -6    1.33    0.35
   0  -8  -5    2.26    0.38
   0  -8  -4    0.27    0.27
   0  -8  -3    0.23    0.26
   0  -8  -2    1.30    0.32
   0  -8  -1    3.66    0.44
   0  -7  -8    3.29    0.45
   0  -7  -7    2.54    0.50
   0  -7  -6    4.76    0.43
   0  -7  -5    9.01    0.59
   0  -7  -4    3.84    0.40
   0  -7  -3    2.16    0.34
   0  -7  -2    2.83    0.33
   0  -7  -1    5.04    0.49
   0  -6 -10    2.76    0.55
   0  -6  -9    2.50    0.40
   0  -6  -8    3.98    0.43
   0  -6  -7    4.56    0.40
   0  -6  -6    9.71    0.62
   0  -6  -5   20.89    0.73
   0  -6  -4   11.46    0.54
   0  -6  -3    5.97    0.37
   0  -6  -2    6.21    0.41
   0  -6  -1    8.00    0.32
   0  -5 -11    2.54    0.60
   0  -5 -10    6.00    0.72
   0  -5  -9    8.24    0.58
   0  -5  -8   12.00    0.52
   0  -5  -7    6.09    0.42
   0  -5  -6    5.70    0.33
   0  -5  -5   11.40    0.47
   0  -5  -4    1.77    0.17
   0  -5  -3    1.87    0.17
   0  -5  -2    9.10    0.25
   0  -5  -1   23.09    0.72
   0  -4 -12    2.73    0.58
   0  -4 -11    4.72    0.65
   0  -4 -10    3.21    0.46
   0  -4  -9    2.53    0.36
   0  -4  -8    4.31    0.52
   0  -4  -7    5.06    0.34
   0  -4  -6   15.61    0.66
   0  -4  -5   51.10    0.91
   0  -4  -4   22.95    0.54
   0  -4  -3    7.63    0.26
   0  -4  -2    4.15    0.26
   0  -4  -1    0.62    0.20
   0  -3 -12    4.46    0.70
   0  -3 -11   10.63    0.99
   0  -3 -10   14.75    0.78
   0  -3  -9   20.56    1.35
   0  -3  -8   31.99    1.01
   0  -3  -7   23.40    0.99
   0  -3  -6   30.46    0.76
   0  -3  -5   81.91    1.50
   0  -3  -4   31.78    0.61
   0  -3  -3   18.14    0.37
   0  -3  -2   54.81    0.48
   0  -3  -1  101.31    1.94
   0  -2 -13    5.80    0.86
   0  -2 -12    2.69    0.73
   0  -2 -11    5.01    0.50
   0  -2 -10    8.63    0.70
   0  -2  -9   13.03    0.79
   0  -2  -8   18.46    1.27
   0  -2  -7   10.52    0.49
   0  -2  -6   14.93    0.62
   0  -2  -5   74.50    1.29
   0  -2  -4   16.83    0.48
   0  -2  -3    4.07    0.14
   0  -2  -2   11.75    0.39
   0  -2  -1   10.08    0.14
   0  -1 -13    9.36    1.03
   0  -1 -12    4.99    0.79
   0  -1 -11    4.98    0.70
   0  -1 -10    5.93    0.81
   0  -1  -9    5.02    0.78
   0  -1  -8    8.82    0.61
   0  -1  -7    6.09    0.75
   0  -1  -6   21.06    1.14
   0  -1  -5  139.98    3.85
   0  -1  -4   54.70    0.93
   0  -1  -3    6.84    0.21
   0  -1  -2    1.04    0.15
   0  -1  -1   14.27    0.25
   0   0 -13    7.86    1.35
   0   0 -12    5.56    1.08
   0   0 -11   14.91    1.58
   0   0 -10   24.77    2.31
   0   0  -9   45.68    2.40
   0   0  -8   67.19    3.69
   0   0  -7   46.11    2.15
   0   0  -6   47.12    2.71
   0   0  -5  164.30    5.35
   0   0  -4   49.16    1.37
   0   0  -3   23.51    0.90
   0   0  -2  169.65   10.85
   0   0   2  170.06    5.46
   0   0   3   22.60    0.57
   0   0   4   48.96    0.89
   0   0   5  168.27    2.49
   0   0   6   51.16    1.17
   0   0   7   46.04    0.83
   0   0   8   72.86    1.55
   0   0   9   52.63    1.81
   0   0  10   28.27    1.74
   0   0  11   12.38    1.05
   0   0  12    6.70    1.30
   0   0  13   10.28    1.09
   0   1   0  468.26    2.45
   0   1   1   14.10    0.30
   0   1   2    1.68    0.14
   0   1   3    5.21    0.18
   0   1   4   54.77    0.80
   0   1   5  153.16    2.14
   0   1   6   22.64    0.53
   0   1   7    6.27    0.29
   0   1   8    9.46    0.20
   0   1   9    5.23    0.44
   0   1  10    4.71    0.50
   0   1  11    4.96    0.48
   0   1  12    4.66    0.62
   0   1  13   11.91    0.83
   0   2   0  585.49    9.16
   0   2   1   12.77    0.14
   0   2   2   12.03    0.51
   0   2   3    2.65    0.15
   0   2   4   16.63    0.41
   0   2   5   74.38    1.90
   0   2   6   14.99    0.61
   0   2   7   10.72    0.32
   0   2   8   21.15    0.68
   0   2   9   13.30    0.48
   0   2  10    8.12    0.65
   0   2  11    5.45    0.49
   0   2  12    2.41    0.41
   0   2  13    6.73    0.66
   0   3   0  651.15    4.30
   0   3   1  101.15    2.04
   0   3   2   53.32    0.74
   0   3   3   17.84    0.66
   0   3   4   32.36    0.89
   0   3   5   82.36    2.61
   0   3   6   30.50    0.80
   0   3   7   23.40    1.01
   0   3   8   35.17    1.48
   0   3   9   23.61    0.92
   0   3  10   14.81    0.63
   0   3  11   10.75    0.73
   0   3  12    5.85    0.54
   0   4   0   73.81    1.76
   0   4   1    0.72    0.16
   0   4   2    3.98    0.39
   0   4   3    7.57    0.45
   0   4   4   22.55    0.86
   0   4   5   56.10    2.24
   0   4   6   15.42    0.73
   0   4   7    4.82    0.32
   0   4   8    4.30    0.55
   0   4   9    1.67    0.25
   0   4  10    2.87    0.42
   0   4  11    3.73    0.49
   0   4  12    3.49    0.58
   0   5   0  114.83    1.36
   0   5   1   22.36    0.71
   0   5   2    8.71    0.30
   0   5   3    2.62    0.36
   0   5   4    2.33    0.35
   0   5   5   12.13    0.84
   0   5   6    5.50    0.49
   0   5   7    5.70    0.51
   0   5   8   12.58    0.89
   0   5   9    9.07    0.75
   0   5  10    6.16    0.57
   0   5  11    3.65    0.71
   0   6   0   36.72    1.06
   0   6   1    7.76    0.34
   0   6   2    5.39    0.53
   0   6   3    6.66    0.53
   0   6   4   10.25    0.79
   0   6   5   21.70    1.11
   0   6   6    9.40    0.81
   0   6   7    3.96    0.54
   0   6   8    6.11    0.76
   0   6   9    1.79    0.44
   0   6  10    2.42    0.80
   0   7   0   17.48    0.73
   0   7   1    4.69    0.55
   0   7   2    2.97    0.37
   0   7   3    2.99    0.51
   0   7   4    4.48    0.81
   0   7   5    8.85    0.81
   0   7   6    4.67    0.54
   0   7   7    2.40    0.54
   0   7   8    3.25    0.54
   0   8   0   11.52    0.87
   0   8   1    3.83    0.45
   0   8   2    0.76    0.31
   0   8   3    0.19    0.34
   0   8   4    0.21    0.31
   0   8   5    1.08    0.43
   0   8   6    0.75    0.67
   0   9   0    1.36    0.40
   0   9   1    1.38    0.81
   1  -8  -6    1.15    0.44
   1  -8  -5    3.20    0.44
   1  -8  -4    0.02    0.30
   1  -8  -3    0.06    0.26
   1  -8  -2    0.49    0.43
   1  -8  -1    1.35    0.46
   1  -7  -8    1.48    0.34
   1  -7  -7    2.04    0.34
   1  -7  -6    2.73    0.40
   1  -7  -5    7.79    0.65
   1  -7  -4    2.40    0.39
   1  -7  -3    1.73    0.29
   1  -7  -2    2.66    0.31
   1  -7  -1    4.80    0.38
   1  -6 -10    1.02    0.28
   1  -6  -9    2.65    0.39
   1  -6  -8    1.96    0.31
   1  -6  -7    4.55    0.45
   1  -6  -6    7.88    0.55
   1  -6  -5   18.84    0.82
   1  -6  -4    8.73    0.55
   1  -6  -3    5.65    0.44
   1  -6  -2    4.53    0.35
   1  -6  -1    7.53    0.50
   1  -5 -11    2.58    0.49
   1  -5 -10    1.03    0.30
   1  -5  -9    4.03    0.38
   1  -5  -8    2.00    0.32
   1  -5  -7    5.08    0.42
   1  -5  -6    5.26    0.35
   1  -5  -5   18.49    0.54
   1  -5  -4    0.29    0.15
   1  -5  -3    0.00    0.17
   1  -5  -2    2.27    0.29
   1  -5  -1   13.52    0.46
   1  -4 -12    2.42    1.47
   1  -4 -11    5.53    0.48
   1  -4 -10    0.77    0.21
   1  -4  -9    2.06    0.33
   1  -4  -8    0.53    0.16
   1  -4  -7    5.86    0.44
   1  -4  -6   11.97    0.50
   1  -4  -5   33.55    0.79
   1  -4  -4   20.38    0.47
   1  -4  -3   15.56    0.60
   1  -4  -2    6.46    0.24
   1  -4  -1    5.50    0.35
   1  -3 -12    6.82    0.60
   1  -3 -11   12.46    0.80
   1  -3 -10    4.73    0.54
   1  -3  -9   10.92    0.63
   1  -3  -8    6.64    0.51
   1  -3  -7   24.88    0.67
   1  -3  -6   32.18    0.80
   1  -3  -5   75.10    1.28
   1  -3  -4    9.37    0.43
   1  -3  -3   10.06    0.22
   1  -3  -2   26.55    0.56
   1  -3  -1   67.23    1.02
   1  -2 -13    4.00    0.68
   1  -2 -12    4.05    0.63
   1  -2 -11    7.98    0.86
   1  -2 -10    1.64    0.36
   1  -2  -9    4.17    0.64
   1  -2  -8    0.64    0.26
   1  -2  -7   14.19    0.63
   1  -2  -6   16.59    0.64
   1  -2  -5   51.87    1.15
   1  -2  -4    7.16    0.24
   1  -2  -3   13.46    0.33
   1  -2  -2    8.19    0.15
   1  -2  -1   19.04    0.53
   1  -1 -13    5.20    0.75
   1  -1 -12    3.81    0.65
   1  -1 -11    9.44    0.90
   1  -1 -10    1.21    0.39
   1  -1  -9    4.75    0.65
   1  -1  -8    0.05    0.11
   1  -1  -7   14.86    0.57
   1  -1  -6   26.45    0.91
   1  -1  -5   82.19    1.39
   1  -1  -4   59.40    1.21
   1  -1  -3   69.81    0.99
   1  -1  -2   16.49    0.38
   1  -1  -1    3.78    0.17
   1   0 -13    6.60    1.27
   1   0 -12    9.08    1.31
   1   0 -11   20.12    1.91
   1   0 -10    8.90    1.03
   1   0  -9   22.68    1.96
   1   0  -8   11.24    1.00
   1   0  -7   49.42    1.68
   1   0  -6   61.34    3.02
   1   0  -5  150.50    3.45
   1   0  -4    3.87    0.17
   1   0  -3    7.40    0.39
   1   0  -2   77.61    1.15
   1   0  -1  211.17    4.86
   1   0   0  381.82    4.32
   1   0   1  202.56    5.26
   1   0   2   76.64    1.40
   1   0   3   57.77    0.96
   1   0   4   49.92    1.12
   1   0   5   42.18    0.90
   1   0   6   38.68    0.84
   1   0   7   45.81    1.90
   1   0   8   30.22    1.78
   1   0   9   64.09    3.31
   1   0  10   36.96    2.51
   1   0  11   25.35    1.57
   1   0  12    6.45    0.82
   1   0  13    1.43    0.55
   1   1   0   78.36    1.16
   1   1   1   46.94    0.41
   1   1   2   63.87    0.88
   1   1   3   52.79    0.90
   1   1   4   81.88    1.41
   1   1   5   65.45    1.10
   1   1   6   28.96    0.86
   1   1   7   12.27    0.48
   1   1   8    8.04    0.52
   1   1   9   16.54    0.75
   1   1  10   13.55    0.84
   1   1  11   18.62    0.92
   1   1  12    6.46    0.57
   1   1  13    1.53    0.33
   1   2   0   77.51    1.05
   1   2   1   36.83    0.97
   1   2   2   23.65    0.35
   1   2   3   11.79    0.31
   1   2   4   19.00    0.67
   1   2   5   18.64    0.61
   1   2   6   11.90    0.48
   1   2   7   10.24    0.67
   1   2   8    8.26    0.51
   1   2   9   25.03    0.93
   1   2  10   15.79    0.75
   1   2  11   12.73    0.77
   1   2  12    3.10    0.42
   1   3   0  125.78    2.71
   1   3   1   59.89    0.66
   1   3   2   34.32    0.77
   1   3   3   29.48    0.64
   1   3   4   37.73    0.99
   1   3   5   33.92    1.30
   1   3   6   25.34    2.49
   1   3   7   23.09    1.04
   1   3   8   12.90    0.81
   1   3   9   35.96    0.94
   1   3  10   23.39    1.05
   1   3  11   16.09    0.91
   1   3  12    4.33    0.61
   1   4   0   26.14    0.60
   1   4   1   10.44    0.52
   1   4   2   16.44    0.41
   1   4   3   22.42    0.63
   1   4   4   38.46    1.03
   1   4   5   33.91    0.98
   1   4   6   15.39    0.91
   1   4   7    5.67    0.71
   1   4   8    3.72    0.62
   1   4   9    9.31    0.68
   1   4  10    9.36    0.73
   1   4  11    9.70    0.80
   1   5   0   28.54    0.88
   1   5   1   11.89    0.32
   1   5   2    2.73    0.26
   1   5   3    2.50    0.22
   1   5   4    3.60    0.36
   1   5   5    3.83    0.43
   1   5   6    2.86    0.75
   1   5   7    3.18    0.47
   1   5   8    2.25    0.52
   1   5   9   11.78    0.67
   1   5  10    7.78    0.73
   1   5  11    4.26    0.74
   1   6   0   16.74    0.64
   1   6   1    8.61    0.53
   1   6   2    6.67    0.39
   1   6   3    9.60    0.66
   1   6   4   16.90    1.16
   1   6   5   15.30    1.00
   1   6   6    8.66    1.13
   1   6   7    3.42    0.85
   1   6   8    2.34    0.78
   1   6   9    6.01    0.67
   1   7   0    8.54    0.85
   1   7   1    4.47    0.46
   1   7   2    2.66    0.41
   1   7   3    3.23    0.43
   1   7   4    6.00    1.01
   1   7   5    5.01    0.90
   1   7   6    2.52    0.75
   1   7   7    1.16    0.52
   1   7   8    0.84    0.45
   1   8   0    4.11    0.83
   1   8   1    1.77    0.74
   1   8   2    0.71    0.37
   1   8   3    0.05    0.32
   1   8   4    1.10    0.56
   1   8   5    0.41    0.43
   1   8   6    0.88    0.51
   2  -8  -5    2.03    0.43
   2  -8  -4    0.24    0.37
   2  -8  -3    0.61    0.30
   2  -8  -2    0.90    0.41
   2  -8  -1    0.73    0.34
   2  -7  -8    1.92    0.43
   2  -7  -7    3.90    0.44
   2  -7  -6    4.00    0.45
   2  -7  -5    3.52    0.43
   2  -7  -4    4.13    0.42
   2  -7  -3    4.00    0.42
   2  -7  -2    7.25    0.52
   2  -7  -1    5.39    0.51
   2  -6  -9    4.89    0.50
   2  -6  -8    5.05    0.48
   2  -6  -7    8.71    0.62
   2  -6  -6    9.82    0.62
   2  -6  -5    8.88    0.60
   2  -6  -4   10.94    0.60
   2  -6  -3    9.80    0.60
   2  -6  -2   16.66    0.78
   2  -6  -1   12.11    0.71
   2  -5 -11    2.78    0.93
   2  -5 -10    1.57    0.29
   2  -5  -9    0.99    0.29
   2  -5  -8    1.38    0.30
   2  -5  -7    3.97    0.40
   2  -5  -6   10.31    0.72
   2  -5  -5   11.82    0.61
   2  -5  -4    4.41    0.41
   2  -5  -3    2.78    0.25
   2  -5  -2    7.75    0.30
   2  -5  -1    2.06    0.26
   2  -4 -11    9.81    0.78
   2  -4 -10    6.68    0.55
   2  -4  -9    7.76    0.45
   2  -4  -8    8.43    0.49
   2  -4  -7   12.25    0.53
   2  -4  -6   13.42    0.43
   2  -4  -5   12.03    0.40
   2  -4  -4   19.60    0.51
   2  -4  -3   18.75    0.48
   2  -4  -2   40.54    0.80
   2  -4  -1   27.74    0.56
   2  -3 -12    9.65    0.68
   2  -3 -11   12.67    0.73
   2  -3 -10   10.32    0.62
   2  -3  -9    9.50    0.62
   2  -3  -8   12.33    0.52
   2  -3  -7   21.13    0.80
   2  -3  -6   32.11    0.76
   2  -3  -5   34.37    0.58
   2  -3  -4   32.53    0.58
   2  -3  -3   25.90    0.53
   2  -3  -2   49.79    0.83
   2  -3  -1   25.26    0.64
   2  -2 -13    5.66    0.72
   2  -2 -12    8.05    0.76
   2  -2 -11    9.75    0.71
   2  -2 -10    6.41    0.61
   2  -2  -9    6.70    0.47
   2  -2  -8    6.94    0.60
   2  -2  -7   12.26    0.61
   2  -2  -6   18.26    0.59
   2  -2  -5   20.44    1.04
   2  -2  -4   15.24    0.42
   2  -2  -3   13.75    0.33
   2  -2  -2   34.48    0.57
   2  -2  -1   12.83    0.36
   2  -1 -13    5.92    0.81
   2  -1 -12   10.57    0.99
   2  -1 -11   13.22    1.05
   2  -1 -10   10.59    0.86
   2  -1  -9   11.75    1.01
   2  -1  -8   14.21    0.80
   2  -1  -7   17.58    0.82
   2  -1  -6   20.01    0.82
   2  -1  -5   23.50    0.64
   2  -1  -4   38.47    0.65
   2  -1  -3   33.61    0.68
   2  -1  -2   81.13    1.07
   2  -1  -1   63.77    0.80
   2   0 -13   13.06    1.62
   2   0 -12   13.81    1.60
   2   0 -11   12.05    1.51
   2   0 -10   14.28    1.69
   2   0  -9   12.36    1.13
   2   0  -8   18.98    1.74
   2   0  -7   34.36    1.84
   2   0  -6   54.73    2.37
   2   0  -5   76.58    2.26
   2   0  -4   63.49    1.18
   2   0  -3   47.08    1.01
   2   0  -2   76.48    1.34
   2   0  -1   33.83    0.86
   2   0   0   74.69    2.18
   2   0   1    6.59    0.22
   2   0   2   20.96    0.48
   2   0   3   24.38    0.80
   2   0   4  119.51    2.96
   2   0   5   66.19    1.43
   2   0   6   14.46    0.68
   2   0   7    7.89    0.27
   2   0   8    8.42    0.65
   2   0   9   32.04    3.42
   2   0  10   13.11    1.12
   2   0  11    5.71    0.73
   2   0  12    2.61    0.57
   2   1   0   69.47    0.83
   2   1   1   24.50    0.51
   2   1   2   23.08    0.47
   2   1   3    4.01    0.15
   2   1   4   97.71    1.43
   2   1   5   47.43    0.87
   2   1   6    8.86    0.19
   2   1   7    1.95    0.29
   2   1   8    0.67    0.31
   2   1   9   24.42    1.30
   2   1  10   10.26    0.61
   2   1  11    5.28    0.52
   2   1  12    3.81    0.47
   2   2   0   16.99    0.54
   2   2   1    3.32    0.16
   2   2   2    5.83    0.19
   2   2   3    3.07    0.24
   2   2   4   43.08    0.98
   2   2   5   21.10    0.74
   2   2   6    3.26    0.42
   2   2   7    1.29    0.24
   2   2   8    3.35    0.41
   2   2   9   16.24    0.74
   2   2  10    6.30    0.57
   2   2  11    1.76    0.33
   2   2  12    1.13    0.29
   2   3   0   33.45    0.84
   2   3   1    9.50    0.47
   2   3   2   19.57    0.45
   2   3   3   11.52    0.32
   2   3   4   65.36    1.17
   2   3   5   35.00    1.05
   2   3   6   12.04    0.76
   2   3   7    7.08    0.59
   2   3   8    2.07    0.30
   2   3   9   23.37    1.18
   2   3  10   11.41    0.77
   2   3  11    4.64    0.57
   2   3  12    2.86    0.99
   2   4   0   22.75    0.90
   2   4   1   10.80    0.64
   2   4   2   15.83    0.74
   2   4   3    7.48    0.42
   2   4   4   40.21    1.27
   2   4   5   22.77    0.74
   2   4   6    7.47    0.60
   2   4   7    3.64    0.44
   2   4   8    0.01    0.19
   2   4   9   13.07    0.81
   2   4  10    6.83    0.71
   2   4  11    4.22    0.53
   2   5   0    2.35    0.26
   2   5   1    0.04    0.22
   2   5   2    0.41    0.24
   2   5   3    2.67    0.35
   2   5   4    9.07    1.14
   2   5   5    4.47    0.59
   2   5   6    0.77    0.20
   2   5   7    0.78    0.30
   2   5   8    1.61    0.31
   2   5   9    4.72    0.56
   2   5  10    2.25    0.40
   2   6   0   10.18    0.65
   2   6   1    6.96    0.56
   2   6   2    8.97    0.59
   2   6   3    6.18    0.90
   2   6   4   18.66    1.18
   2   6   5   12.60    1.31
   2   6   6    6.44    0.80
   2   6   7    2.74    0.53
   2   6   8    0.24    0.60
   2   6   9    5.83    1.10
   2   7   0    3.21    0.61
   2   7   1    2.86    0.40
   2   7   2    3.04    0.53
   2   7   3    2.04    0.48
   2   7   4    7.35    0.79
   2   7   5    5.84    1.09
   2   7   6    2.97    0.55
   2   7   7    0.46    0.49
   2   8   0    0.04    0.62
   2   8   1    0.02    0.41
   2   8   2    0.06    0.49
   2   8   3    0.37    0.41
   2   8   4    0.89    0.42
   2   8   5    0.60    0.57
   3  -8  -4    0.13    0.30
   3  -8  -3    0.62    0.38
   3  -8  -2    1.65    0.45
   3  -8  -1    0.70    0.40
   3  -7  -7    7.90    0.61
   3  -7  -6    1.53    0.36
   3  -7  -5    2.16    0.34
   3  -7  -4    3.20    0.42
   3  -7  -3    3.58    0.49
   3  -7  -2    8.32    0.69
   3  -7  -1    3.80    0.48
   3  -6  -9    5.07    0.63
   3  -6  -8    5.20    0.53
   3  -6  -7   13.55    1.09
   3  -6  -6    2.57    0.35
   3  -6  -5    3.51    0.46
   3  -6  -4    6.20    0.50
   3  -6  -3    9.24    0.71
   3  -6  -2   21.80    1.02
   3  -6  -1   13.61    0.85
   3  -5 -10    0.69    0.28
   3  -5  -9    1.44    0.27
   3  -5  -8    1.44    0.35
   3  -5  -7   13.63    0.75
   3  -5  -6    1.35    0.27
   3  -5  -5    2.73    0.39
   3  -5  -4    2.97    0.37
   3  -5  -3    3.74    0.37
   3  -5  -2   11.45    0.75
   3  -5  -1    4.82    0.47
   3  -4 -11    5.15    0.48
   3  -4 -10    7.45    0.60
   3  -4  -9    7.73    0.59
   3  -4  -8    8.26    0.55
   3  -4  -7   29.02    1.11
   3  -4  -6    2.66    0.34
   3  -4  -5    4.60    0.42
   3  -4  -4    7.27    0.38
   3  -4  -3   15.74    0.52
   3  -4  -2   55.54    1.92
   3  -4  -1   27.10    1.09
   3  -3 -12    8.62    0.77
   3  -3 -11    6.34    0.55
   3  -3 -10    7.27    0.54
   3  -3  -9    8.62    0.47
   3  -3  -8   10.02    0.58
   3  -3  -7   54.63    1.19
   3  -3  -6   11.49    0.50
   3  -3  -5   17.68    0.47
   3  -3  -4   17.49    0.50
   3  -3  -3   30.80    0.61
   3  -3  -2   89.44    1.79
   3  -3  -1   40.09    1.16
   3  -2 -12    5.64    0.64
   3  -2 -11    4.18    0.40
   3  -2 -10    3.96    0.40
   3  -2  -9    4.50    0.46
   3  -2  -8    4.90    0.40
   3  -2  -7   46.56    1.50
   3  -2  -6    3.72    0.30
   3  -2  -5    6.23    0.30
   3  -2  -4    5.36    0.25
   3  -2  -3   14.39    0.44
   3  -2  -2   77.82    1.05
   3  -2  -1   18.52    0.71
   3  -1 -12    7.13    0.67
   3  -1 -11    9.63    0.75
   3  -1 -10   11.86    0.63
   3  -1  -9   11.65    0.58
   3  -1  -8   10.43    0.50
   3  -1  -7   64.20    1.28
   3  -1  -6    4.44    0.26
   3  -1  -5    7.77    0.38
   3  -1  -4    7.77    0.36
   3  -1  -3   27.45    0.59
   3  -1  -2  162.28    2.48
   3  -1  -1   61.03    1.09
   3   0 -12   11.55    1.05
   3   0 -11    7.37    1.46
   3   0 -10    6.97    0.82
   3   0  -9    9.90    0.74
   3   0  -8   11.39    0.91
   3   0  -7   91.13    2.61
   3   0  -6   21.70    0.85
   3   0  -5   32.47    1.12
   3   0  -4   28.94    1.07
   3   0  -3   51.73    1.35
   3   0  -2  170.14    2.96
   3   0  -1   69.31    2.21
   3   0   0   63.49    1.49
   3   0   1   49.78    1.43
   3   0   2   50.32    1.06
   3   0   3   62.59    1.57
   3   0   4   93.65    3.72
   3   0   5   42.00    1.31
   3   0   6   26.41    0.93
   3   0   7   22.13    1.36
   3   0   8   17.47    1.01
   3   0   9   11.09    1.86
   3   0  10    6.15    0.68
   3   0  11    8.32    0.89
   3   0  12    4.32    1.16
   3   1   0   45.55    1.04
   3   1   1   19.82    0.47
   3   1   2   23.51    0.61
   3   1   3   21.01    0.62
   3   1   4   33.75    0.74
   3   1   5   15.92    0.51
   3   1   6   13.52    0.61
   3   1   7   11.60    0.63
   3   1   8   12.79    0.74
   3   1   9   12.25    0.67
   3   1  10    6.19    0.58
   3   1  11    5.05    0.53
   3   2   0   15.29    0.34
   3   2   1   11.08    0.43
   3   2   2   13.02    0.33
   3   2   3   15.44    0.49
   3   2   4   33.72    0.89
   3   2   5   14.26    0.61
   3   2   6    9.35    0.50
   3   2   7    8.17    0.69
   3   2   8    8.28    0.57
   3   2   9    5.60    0.59
   3   2  10    3.24    0.49
   3   2  11    3.01    0.64
   3   3   0   38.24    1.32
   3   3   1   24.21    0.51
   3   3   2   25.59    0.59
   3   3   3   28.55    0.62
   3   3   4   44.53    0.97
   3   3   5   25.44    0.78
   3   3   6   16.87    0.89
   3   3   7   12.09    0.62
   3   3   8   12.54    0.85
   3   3   9    9.41    0.70
   3   3  10    6.06    0.64
   3   3  11    4.66    0.68
   3   4   0   25.85    0.97
   3   4   1   13.93    0.94
   3   4   2   13.02    0.46
   3   4   3   11.73    0.38
   3   4   4   15.82    0.56
   3   4   5    9.73    0.53
   3   4   6    8.45    0.53
   3   4   7    6.51    0.64
   3   4   8    9.31    0.61
   3   4   9    8.91    0.74
   3   4  10    5.92    0.62
   3   5   0    5.59    0.65
   3   5   1    4.06    0.67
   3   5   2    2.31    0.40
   3   5   3    3.97    0.42
   3   5   4   11.66    0.73
   3   5   5    8.15    0.75
   3   5   6    2.54    0.60
   3   5   7    6.04    0.99
   3   5   8    3.86    1.04
   3   5   9    1.72    0.63
   3   6   0   13.22    0.77
   3   6   1    9.74    0.74
   3   6   2    8.29    0.60
   3   6   3    6.85    0.61
   3   6   4    9.57    0.69
   3   6   5    7.69    0.85
   3   6   6    5.22    0.96
   3   6   7    3.68    1.05
   3   6   8    6.04    1.14
   3   7   0    3.39    0.43
   3   7   1    3.15    0.43
   3   7   2    3.31    0.45
   3   7   3    2.37    0.39
   3   7   4    4.14    0.71
   3   7   5    4.23    0.66
   3   7   6    3.10    0.92
   3   8   0    0.84    0.40
   3   8   1    0.70    0.47
   3   8   2    0.59    0.39
   3   8   3    0.03    0.39
   4  -7  -5    1.55    0.49
   4  -7  -4    0.82    0.24
   4  -7  -3    2.30    0.56
   4  -7  -2    3.54    0.48
   4  -7  -1    2.41    0.44
   4  -6  -8    4.33    0.71
   4  -6  -7    6.87    0.62
   4  -6  -6    3.28    0.42
   4  -6  -5    1.45    0.33
   4  -6  -4    1.15    0.37
   4  -6  -3    3.34    0.44
   4  -6  -2    7.02    0.88
   4  -6  -1    7.32    0.67
   4  -5  -9    0.39    0.23
   4  -5  -8    1.32    0.31
   4  -5  -7    8.02    0.97
   4  -5  -6    8.85    0.62
   4  -5  -5    5.01    0.48
   4  -5  -4    4.59    0.53
   4  -5  -3    3.56    0.56
   4  -5  -2    3.07    0.46
   4  -5  -1    2.57    0.45
   4  -4 -10    2.15    0.39
   4  -4  -9    4.95    0.51
   4  -4  -8    5.06    0.46
   4  -4  -7   13.92    0.78
   4  -4  -6    3.60    0.42
   4  -4  -5    0.75    0.22
   4  -4  -4    0.53    0.27
   4  -4  -3    3.76    0.40
   4  -4  -2    9.25    0.65
   4  -4  -1   12.10    0.72
   4  -3 -11    2.57    0.48
   4  -3 -10    2.27    0.35
   4  -3  -9    5.47    0.48
   4  -3  -8    7.81    0.60
   4  -3  -7   24.68    0.80
   4  -3  -6   22.22    0.70
   4  -3  -5   14.36    0.60
   4  -3  -4   12.83    0.42
   4  -3  -3   14.85    0.99
   4  -3  -2   17.00    0.63
   4  -3  -1   21.48    0.80
   4  -2 -11    0.31    0.24
   4  -2 -10    0.50    0.27
   4  -2  -9    3.22    0.36
   4  -2  -8    4.70    0.36
   4  -2  -7   22.31    0.86
   4  -2  -6   13.11    0.62
   4  -2  -5    7.51    0.40
   4  -2  -4    4.57    0.33
   4  -2  -3    5.87    0.24
   4  -2  -2    6.44    0.23
   4  -2  -1    9.42    0.34
   4  -1 -12    7.57    0.94
   4  -1 -11    0.59    0.58
   4  -1 -10    2.42    0.48
   4  -1  -9    7.14    0.70
   4  -1  -8    8.83    0.54
   4  -1  -7   26.86    0.89
   4  -1  -6    6.97    0.39
   4  -1  -5    3.16    0.35
   4  -1  -4    1.31    0.17
   4  -1  -3    5.47    0.27
   4  -1  -2   13.34    0.41
   4  -1  -1   17.92    0.53
   4   0 -12   16.78    1.79
   4   0 -11    1.65    0.70
   4   0 -10    2.33    0.69
   4   0  -9    6.82    1.07
   4   0  -8   12.98    1.36
   4   0  -7   40.97    2.29
   4   0  -6   44.56    1.72
   4   0  -5   38.47    1.38
   4   0  -4   33.29    1.67
   4   0  -3   29.60    1.59
   4   0  -2   22.28    0.94
   4   0  -1   31.49    1.18
   4   0   0   38.15    1.16
   4   0   1   16.99    0.62
   4   0   2   61.90    1.63
   4   0   3   55.95    1.22
   4   0   4   49.68    2.76
   4   0   5   25.78    1.68
   4   0   6    8.47    1.13
   4   0   7   23.16    1.83
   4   0   8   12.54    1.46
   4   0   9   15.03    1.71
   4   0  10    3.83    0.84
   4   0  11    8.52    1.45
   4   1   0   16.97    0.49
   4   1   1    3.77    0.25
   4   1   2   16.78    0.39
   4   1   3    6.41    0.45
   4   1   4    4.68    0.28
   4   1   5    1.44    0.41
   4   1   6    0.87    0.31
   4   1   7   14.09    0.86
   4   1   8    9.58    0.69
   4   1   9   14.26    0.91
   4   1  10    2.19    0.45
   4   2   0   10.85    0.42
   4   2   1    2.83    0.22
   4   2   2   21.92    0.64
   4   2   3   15.07    0.60
   4   2   4   11.68    0.58
   4   2   5    4.75    0.31
   4   2   6    0.53    0.25
   4   2   7   10.78    0.67
   4   2   8    5.38    0.56
   4   2   9    7.68    0.69
   4   2  10    1.31    0.29
   4   3   0   20.48    0.83
   4   3   1    8.46    0.37
   4   3   2   33.90    0.88
   4   3   3   24.87    0.84
   4   3   4   20.79    0.71
   4   3   5   11.00    0.56
   4   3   6    4.55    0.40
   4   3   7   16.33    0.91
   4   3   8   10.55    0.71
   4   3   9   11.36    0.80
   4   3  10    3.31    0.88
   4   4   0    7.56    0.62
   4   4   1    2.64    0.39
   4   4   2   10.48    0.73
   4   4   3    4.33    0.45
   4   4   4    1.42    0.36
   4   4   5    0.91    0.30
   4   4   6    0.24    0.31
   4   4   7    9.53    1.37
   4   4   8    6.57    1.22
   4   4   9    8.04    1.37
   4   5   0    3.41    0.37
   4   5   1    0.27    0.27
   4   5   2   10.77    0.69
   4   5   3   10.15    0.75
   4   5   4    6.81    0.59
   4   5   5    5.13    0.70
   4   5   6    1.18    0.35
   4   5   7    6.98    1.30
   4   6   0    5.34    0.55
   4   6   1    2.01    0.43
   4   6   2    7.66    0.69
   4   6   3    4.03    0.57
   4   6   4    1.52    0.37
   4   6   5    1.27    0.41
   4   6   6    0.83    0.61
   4   7   0    1.61    0.35
   4   7   1    0.69    0.34
   4   7   2    4.12    0.55
   4   7   3    3.54    0.51
   4   7   4    1.66    0.41
   5  -6  -6    4.79    1.10
   5  -6  -5    2.52    0.46
   5  -6  -4    1.28    0.37
   5  -6  -3    5.18    0.61
   5  -6  -2    4.57    0.56
   5  -6  -1    2.98    0.50
   5  -5  -7    3.42    0.58
   5  -5  -6    7.14    0.67
   5  -5  -5    6.33    0.65
   5  -5  -4    3.00    0.46
   5  -5  -3    7.69    0.71
   5  -5  -2    4.00    0.46
   5  -5  -1    1.63    0.37
   5  -4  -9    2.91    0.89
   5  -4  -8    4.01    0.54
   5  -4  -7    3.97    0.51
   5  -4  -6    4.65    0.57
   5  -4  -5    1.53    0.33
   5  -4  -4    0.34    0.26
   5  -4  -3    6.19    1.00
   5  -4  -2    8.16    0.66
   5  -4  -1    4.33    0.49
   5  -3 -10    5.06    1.09
   5  -3  -9    4.83    0.57
   5  -3  -8    7.69    0.69
   5  -3  -7    9.92    0.99
   5  -3  -6   20.67    1.07
   5  -3  -5   15.97    0.95
   5  -3  -4    7.67    0.47
   5  -3  -3   19.99    0.82
   5  -3  -2   16.88    0.70
   5  -3  -1    8.10    0.50
   5  -2 -10    2.88    0.55
   5  -2  -9    2.98    0.38
   5  -2  -8    4.28    0.44
   5  -2  -7    5.74    0.45
   5  -2  -6   13.68    0.71
   5  -2  -5    8.86    0.50
   5  -2  -4    2.68    0.34
   5  -2  -3   12.14    0.58
   5  -2  -2   11.73    0.61
   5  -2  -1    3.73    0.31
   5  -1 -11    9.31    0.79
   5  -1 -10    4.88    0.56
   5  -1  -9    4.74    0.43
   5  -1  -8    4.61    0.40
   5  -1  -7    5.26    0.43
   5  -1  -6   10.12    0.52
   5  -1  -5    4.13    0.37
   5  -1  -4    0.30    0.14
   5  -1  -3   10.38    0.47
   5  -1  -2   15.50    0.55
   5  -1  -1    5.74    0.34
   5   0 -11   14.22    1.15
   5   0 -10    8.28    0.84
   5   0  -9    7.59    0.77
   5   0  -8    8.81    0.79
   5   0  -7   15.31    0.99
   5   0  -6   39.70    1.75
   5   0  -5   31.57    1.34
   5   0  -4   15.54    1.21
   5   0  -3   32.80    1.31
   5   0  -2   30.15    1.28
   5   0  -1   11.61    0.69
   5   0   0   11.43    0.68
   5   0   1    1.81    0.20
   5   0   2   75.40    1.83
   5   0   3   34.68    1.50
   5   0   4   21.35    1.72
   5   0   5    7.94    1.08
   5   0   6    5.86    0.96
   5   0   7    9.09    1.31
   5   0   8    5.76    1.08
   5   0   9    2.65    0.68
   5   1   0    6.62    0.39
   5   1   1    2.33    0.18
   5   1   2   29.76    0.69
   5   1   3    4.37    0.33
   5   1   4    1.04    0.32
   5   1   5    0.77    0.24
   5   1   6    1.99    0.43
   5   1   7    6.63    1.13
   5   1   8    4.89    0.67
   5   1   9    3.01    0.63
   5   2   0    4.03    0.30
   5   2   1    0.37    0.16
   5   2   2   32.43    0.98
   5   2   3    8.30    0.47
   5   2   4    4.50    0.45
   5   2   5    1.18    0.35
   5   2   6    1.27    0.32
   5   2   7    4.00    0.62
   5   2   8    2.47    0.81
   5   2   9    1.63    0.43
   5   3   0    7.59    0.58
   5   3   1    0.84    0.24
   5   3   2   38.66    1.57
   5   3   3   16.83    0.88
   5   3   4   10.90    0.69
   5   3   5    4.95    0.92
   5   3   6    3.43    0.90
   5   3   7    6.80    1.19
   5   3   8    5.11    1.16
   5   4   0    5.17    0.53
   5   4   1    0.97    0.25
   5   4   2   14.04    0.84
   5   4   3    2.44    0.39
   5   4   4    0.60    0.39
   5   4   5    0.47    0.44
   5   4   6    1.00    0.61
   5   4   7    4.84    1.10
   5   5   0    1.11    0.35
   5   5   1    0.15    0.26
   5   5   2   13.21    0.86
   5   5   3    6.46    0.61
   5   5   4    3.01    0.46
   5   5   5    1.57    0.64
   5   5   6    0.37    0.38
   5   6   0    3.38    0.47
   5   6   1    1.09    0.32
   5   6   2    6.51    0.67
   5   6   3    3.39    0.47
   5   6   4    1.96    0.49
   6  -5  -5    1.03    0.52
   6  -5  -4    0.77    0.51
   6  -5  -3    4.59    0.54
   6  -5  -2    2.17    0.43
   6  -5  -1    0.63    0.34
   6  -4  -7    4.18    0.99
   6  -4  -6    2.84    0.44
   6  -4  -5    3.83    0.57
   6  -4  -4    3.74    0.50
   6  -4  -3    7.72    0.70
   6  -4  -2    6.98    0.65
   6  -4  -1    7.98    0.71
   6  -3  -8    3.23    0.61
   6  -3  -7    6.97    0.67
   6  -3  -6    5.20    0.59
   6  -3  -5    7.06    0.63
   6  -3  -4    9.00    0.74
   6  -3  -3   16.47    0.93
   6  -3  -2    9.77    0.73
   6  -3  -1    8.16    0.53
   6  -2  -9    3.40    1.14
   6  -2  -8    1.37    0.38
   6  -2  -7    4.40    0.58
   6  -2  -6    1.72    0.30
   6  -2  -5    3.69    0.45
   6  -2  -4    5.30    0.44
   6  -2  -3   11.87    0.67
   6  -2  -2    5.34    0.43
   6  -2  -1    4.27    0.39
   6  -1  -9    7.42    0.65
   6  -1  -8    4.23    0.51
   6  -1  -7    6.78    0.88
   6  -1  -6    3.01    0.40
   6  -1  -5    5.38    0.47
   6  -1  -4    7.26    0.52
   6  -1  -3   14.75    0.68
   6  -1  -2   11.34    0.62
   6  -1  -1   12.61    0.66
   6   0  -9    6.45    1.13
   6   0  -8    3.16    0.86
   6   0  -7    9.69    1.27
   6   0  -6    6.57    0.66
   6   0  -5   11.19    0.83
   6   0  -4   13.86    0.89
   6   0  -3   25.31    1.30
   6   0  -2   13.39    1.00
   6   0  -1    7.95    0.55
   6   0   0    7.70    0.52
   6   0   1   12.98    1.03
   6   0   2   18.30    1.03
   6   0   3   14.80    1.39
   6   0   4   13.98    1.35
   6   0   5    7.56    1.11
   6   0   6    5.34    0.95
   6   0   7    4.15    0.90
   6   1   0   11.67    0.51
   6   1   1   11.29    0.52
   6   1   2    9.79    0.59
   6   1   3    6.15    0.52
   6   1   4    7.07    0.72
   6   1   5    4.69    0.61
   6   1   6    7.46    0.78
   6   1   7    4.97    0.80
   6   2   0    3.73    0.36
   6   2   1    5.45    0.51
   6   2   2    8.35    0.79
   6   2   3    5.52    0.70
   6   2   4    6.68    0.77
   6   2   5    2.73    0.79
   6   2   6    3.48    0.86
   6   2   7    1.79    0.63
   6   3   0    6.22    0.59
   6   3   1    8.33    0.64
   6   3   2   11.07    0.76
   6   3   3   10.02    0.92
   6   3   4    9.02    0.90
   6   3   5    4.12    0.64
   6   3   6    4.46    1.02
   6   4   0    7.51    0.61
   6   4   1    6.38    0.67
   6   4   2    5.85    0.58
   6   4   3    7.07    1.42
   6   4   4    4.94    0.75
   6   4   5    3.36    0.92
   6   5   0    0.71    0.32
   6   5   1    0.96    0.29
   6   5   2    3.66    0.50
   6   5   3    2.04    0.56
   7  -4  -1    2.09    0.41
   7  -3  -5    3.00    1.06
   7  -3  -4    2.95    0.45
   7  -3  -3    1.61    0.55
   7  -3  -2    4.83    0.55
   7  -3  -1    3.38    0.62
   7  -2  -6    0.46    0.29
   7  -2  -5    0.95    0.35
   7  -2  -4    0.84    0.29
   7  -2  -3    0.53    0.21
   7  -2  -2    2.44    0.34
   7  -2  -1    1.03    0.24
   7  -1  -6    2.50    0.57
   7  -1  -5    2.99    0.44
   7  -1  -4    2.82    0.45
   7  -1  -3    1.45    0.32
   7  -1  -2    5.67    0.65
   7  -1  -1    3.01    0.76
   7   0  -7    1.90    0.71
   7   0  -6    1.87    0.72
   7   0  -5    3.55    0.86
   7   0  -4    2.93    0.54
   7   0  -3    1.66    0.40
   7   0  -2    6.21    0.71
   7   0  -1    3.89    0.87
   7   0   0    7.34    1.17
   7   0   1    1.52    0.59
   7   0   2    4.01    0.98
   7   1   0    6.02    0.74
   7   1   1    1.82    0.47
   7   1   2    3.34    0.92
   7   1   3    2.07    0.57
   7   1   4    5.32    1.04
   7   2   0    3.89    0.46
   7   2   1    0.93    0.40
   7   2   2    2.25    0.74
   7   2   3    0.75    0.33
   7   2   4    2.25    0.72
   7   3   0    6.28    0.78
   7   3   1    2.88    0.53
   7   3   2    3.26    0.84
   0   0   0    0.00    0.00
;
_shelx_hkl_checksum              60686
_olex2_submission_special_instructions 'No special instructions were received'
loop_
_space_group_symop_operation_xyz
'x, y, z'
'x, -y, z'
loop_
_atom_site_label
_atom_site_type_symbol
_atom_site_fract_x
_atom_site_fract_y
_atom_site_fract_z
_atom_site_U_iso_or_equiv
_atom_site_adp_type
_atom_site_occupancy
_atom_site_site_symmetry_order
_atom_site_calc_flag
_atom_site_refinement_flags_posn
_atom_site_refinement_flags_adp
_atom_site_refinement_flags_occupancy
Co1 Co 0.00005(10) 0.0000 0.00002(9) 0.0206(3) Uani 1 2 d S T P
O1 O 0.0674(12) 0.0000 0.1946(6) 0.0254(15) Uani 1 2 d S TU P
O4 O -0.1310(13) 0.0000 0.8200(7) 0.0302(16) Uani 1 2 d S TU P
O2 O -0.2773(11) 0.0000 0.1322(6) 0.0335(15) Uani 1 2 d S TU P
C7 C -0.1274(14) 0.0000 0.2214(9) 0.0270(18) Uani 1 2 d S TU P
C6 C 0.002(2) 0.0000 0.4433(12) 0.034(3) Uani 1 2 d S TU P
H6 H 0.1444 0.0000 0.4194 0.041 Uiso 1 2 calc RS T P
N1 N -0.0039(15) 0.3159(5) -0.0043(9) 0.0218(8) Uani 1 1 d . U .
C4 C -0.2498(16) 0.0000 0.6065(9) 0.031(2) Uani 1 2 d S TU P
C2 C -0.3882(17) 0.0000 0.3883(10) 0.039(2) Uani 1 2 d S TU P
H2 H -0.5073 0.0000 0.3277 0.047 Uiso 1 2 calc RS T P
C1 C -0.1777(15) 0.0000 0.3540(9) 0.0294(19) Uani 1 2 d S TU P
O1W O 0.3346(10) 0.0000 -0.0218(6) 0.0289(13) Uani 1 2 d DS TU P
H1WA H 0.3534 -0.0017 -0.0969 0.043 Uiso 1 2 calc DR . .
C5 C -0.038(3) 0.0000 0.5697(16) 0.056(4) Uani 1 2 d S TU P
H5 H 0.0799 0.0000 0.6308 0.067 Uiso 1 2 calc RS T P
C8 C -0.2913(16) 0.0000 0.7455(9) 0.032(2) Uani 1 2 d S TU P
C3 C -0.4210(17) 0.0000 0.5168(10) 0.037(2) Uani 1 2 d S TU P
H3 H -0.5637 0.0000 0.5410 0.044 Uiso 1 2 calc RS T P
O3 O -0.4837(18) 0.0000 0.7704(10) 0.072(3) Uani 1 2 d S TU P
H1WB H 0.454(8) 0.0000 0.031(4) 0.108 Uiso 1 2 d DRS T P
C9 C 0.0941(13) 0.3906(11) -0.1184(6) 0.0363(16) Uani 1 1 d . . .
H9A H 0.0100 0.3449 -0.1936 0.044 Uiso 1 1 calc R . .
H9B H 0.2437 0.3449 -0.1194 0.044 Uiso 1 1 calc R . .
C10 C -0.2264(11) 0.3916(9) -0.0054(8) 0.0354(15) Uani 1 1 d . . .
H10A H -0.2936 0.3465 0.0679 0.043 Uiso 1 1 calc R . .
H10B H -0.3138 0.3465 -0.0796 0.043 Uiso 1 1 calc R . .
C11 C 0.1301(13) 0.3927(9) 0.1070(6) 0.0351(16) Uani 1 1 d . . .
H11A H 0.2800 0.3475 0.1068 0.042 Uiso 1 1 calc R . .
H11B H 0.0717 0.3475 0.1831 0.042 Uiso 1 1 calc R . .
loop_
_atom_site_aniso_label
_atom_site_aniso_U_11
_atom_site_aniso_U_22
_atom_site_aniso_U_33
_atom_site_aniso_U_23
_atom_site_aniso_U_13
_atom_site_aniso_U_12
Co1 0.0188(5) 0.0332(5) 0.0099(4) 0.000 0.0017(3) 0.000
O1 0.0247(19) 0.0271(19) 0.0245(19) 0.000 0.0033(13) 0.000
O4 0.031(2) 0.030(2) 0.029(2) 0.000 0.0009(14) 0.000
O2 0.0340(19) 0.0353(19) 0.0311(19) 0.000 0.0032(13) 0.000
C7 0.027(2) 0.028(2) 0.026(2) 0.000 0.0026(14) 0.000
C6 0.033(3) 0.036(3) 0.034(3) 0.000 0.0023(14) 0.000
N1 0.0221(13) 0.0217(13) 0.0214(13) 0.0004(14) 0.0016(11) 0.0002(14)
C4 0.031(2) 0.032(2) 0.031(2) 0.000 0.0037(14) 0.000
C2 0.038(3) 0.040(3) 0.038(3) 0.000 0.0026(14) 0.000
C1 0.030(2) 0.030(2) 0.029(2) 0.000 0.0043(14) 0.000
O1W 0.028(2) 0.035(2) 0.024(2) 0.000 0.0044(19) 0.000
C5 0.055(4) 0.058(4) 0.055(4) 0.000 0.0045(15) 0.000
C8 0.032(2) 0.034(2) 0.031(2) 0.000 0.0032(14) 0.000
C3 0.036(2) 0.039(2) 0.036(2) 0.000 0.0034(14) 0.000
O3 0.068(4) 0.084(4) 0.065(4) 0.000 0.010(3) 0.000
C9 0.049(4) 0.034(4) 0.028(3) 0.002(3) 0.018(3) 0.001(3)
C10 0.026(3) 0.026(3) 0.055(4) -0.002(3) 0.008(3) 0.000(3)
C11 0.050(4) 0.023(3) 0.028(3) 0.000(2) -0.019(3) 0.003(3)
loop_
_atom_type_symbol
_atom_type_description
_atom_type_scat_dispersion_real
_atom_type_scat_dispersion_imag
_atom_type_scat_source
C C 0.0033 0.0016 'International Tables Vol C Tables 4.2.6.8 and 6.1.1.4'
H H 0.0000 0.0000 'International Tables Vol C Tables 4.2.6.8 and 6.1.1.4'
Co Co 0.3494 0.9721 'International Tables Vol C Tables 4.2.6.8 and 6.1.1.4'
N N 0.0061 0.0033 'International Tables Vol C Tables 4.2.6.8 and 6.1.1.4'
O O 0.0106 0.0060 'International Tables Vol C Tables 4.2.6.8 and 6.1.1.4'
loop_
_geom_angle_atom_site_label_1
_geom_angle_atom_site_label_2
_geom_angle_atom_site_label_3
_geom_angle
_geom_angle_site_symmetry_1
_geom_angle_site_symmetry_3
O1 Co1 O2 58.6(3) . .
O1 Co1 N1 91.2(2) . 2
O1 Co1 N1 91.2(2) . .
O4 Co1 O1 168.0(3) 1_554 .
O4 Co1 O2 109.4(3) 1_554 .
O4 Co1 N1 88.7(2) 1_554 .
O4 Co1 N1 88.7(2) 1_554 2
O4 Co1 O1W 101.9(3) 1_554 .
N1 Co1 O2 90.3(2) . .
N1 Co1 O2 90.3(2) 2 .
N1 Co1 N1 177.5(5) . 2
O1W Co1 O1 90.1(3) . .
O1W Co1 O2 148.7(2) . .
O1W Co1 N1 90.4(2) . .
O1W Co1 N1 90.4(2) . 2
C7 O1 Co1 96.9(6) . .
C8 O4 Co1 149.3(7) . 1_556
C7 O2 Co1 86.5(5) . .
O1 C7 O2 118.1(8) . .
O1 C7 C1 120.2(8) . .
O2 C7 C1 121.8(8) . .
C1 C6 H6 120.9 . .
C5 C6 H6 120.9 . .
C5 C6 C1 118.1(11) . .
C9 N1 Co1 111.4(5) . .
C10 N1 Co1 112.1(5) . .
C10 N1 C9 107.5(6) . .
C10 N1 C11 108.6(7) . .
C11 N1 Co1 110.3(5) . .
C11 N1 C9 106.8(7) . .
C5 C4 C8 121.0(10) . .
C3 C4 C5 118.8(11) . .
C3 C4 C8 120.2(9) . .
C1 C2 H2 120.7 . .
C1 C2 C3 118.6(10) . .
C3 C2 H2 120.7 . .
C6 C1 C7 116.2(9) . .
C2 C1 C7 122.4(9) . .
C2 C1 C6 121.3(9) . .
Co1 O1W H1WA 109.5 . .
Co1 O1W H1WB 134(4) . .
H1WA O1W H1WB 116.3 . .
C6 C5 H5 119.2 . .
C4 C5 C6 121.5(12) . .
C4 C5 H5 119.2 . .
O4 C8 C4 116.5(9) . .
O4 C8 O3 126.5(10) . .
O3 C8 C4 117.0(9) . .
C4 C3 C2 121.5(10) . .
C4 C3 H3 119.2 . .
C2 C3 H3 119.2 . .
N1 C9 C9 110.7(3) . 2_565
N1 C9 H9A 109.5 . .
N1 C9 H9B 109.5 . .
C9 C9 H9A 109.5 2_565 .
C9 C9 H9B 109.5 2_565 .
H9A C9 H9B 108.1 . .
N1 C10 C10 111.6(3) . 2_565
N1 C10 H10A 109.3 . .
N1 C10 H10B 109.3 . .
C10 C10 H10A 109.3 2_565 .
C10 C10 H10B 109.3 2_565 .
H10A C10 H10B 108.0 . .
N1 C11 C11 111.5(3) . 2_565
N1 C11 H11A 109.3 . .
N1 C11 H11B 109.3 . .
C11 C11 H11A 109.3 2_565 .
C11 C11 H11B 109.3 2_565 .
H11A C11 H11B 108.0 . .
loop_
_geom_bond_atom_site_label_1
_geom_bond_atom_site_label_2
_geom_bond_distance
_geom_bond_site_symmetry_2
Co1 O1 2.082(7) .
Co1 O4 2.017(7) 1_554
Co1 O2 2.297(7) .
Co1 N1 2.243(4) 2
Co1 N1 2.243(4) .
Co1 O1W 2.076(6) .
O1 C7 1.247(11) .
O4 Co1 2.017(7) 1_556
O4 C8 1.206(12) .
O2 C7 1.261(11) .
C7 C1 1.475(13) .
C6 H6 0.9300 .
C6 C1 1.387(15) .
C6 C5 1.392(16) .
N1 C9 1.500(11) .
N1 C10 1.460(11) .
N1 C11 1.486(10) .
C4 C5 1.382(18) .
C4 C8 1.528(13) .
C4 C3 1.354(14) .
C2 H2 0.9300 .
C2 C1 1.367(14) .
C2 C3 1.404(14) .
O1W H1WA 0.8200 .
O1W H1WB 0.88(2) .
C5 H5 0.9300 .
C8 O3 1.227(14) .
C3 H3 0.9300 .
C9 C9 1.554(15) 2_565
C9 H9A 0.9700 .
C9 H9B 0.9700 .
C10 C10 1.539(13) 2_565
C10 H10A 0.9700 .
C10 H10B 0.9700 .
C11 C11 1.524(13) 2_565
C11 H11A 0.9700 .
C11 H11B 0.9700 .
loop_
_geom_torsion_atom_site_label_1
_geom_torsion_atom_site_label_2
_geom_torsion_atom_site_label_3
_geom_torsion_atom_site_label_4
_geom_torsion
_geom_torsion_site_symmetry_1
_geom_torsion_site_symmetry_4
Co1 O1 C7 O2 0.000(1) . .
Co1 O1 C7 C1 180.000(1) . .
Co1 O4 C8 C4 180.000(4) 1_556 .
Co1 O4 C8 O3 0.000(8) 1_556 .
Co1 O2 C7 O1 0.000(1) . .
Co1 O2 C7 C1 180.000(1) . .
Co1 N1 C9 C9 -178.9(3) . 2_565
Co1 N1 C10 C10 178.8(3) . 2_565
Co1 N1 C11 C11 -179.8(3) . 2_565
O1 C7 C1 C6 0.000(2) . .
O1 C7 C1 C2 180.000(2) . .
O2 C7 C1 C6 180.000(2) . .
O2 C7 C1 C2 0.000(2) . .
C1 C6 C5 C4 0.000(4) . .
C1 C2 C3 C4 0.000(3) . .
C5 C6 C1 C7 180.000(3) . .
C5 C6 C1 C2 0.000(3) . .
C5 C4 C8 O4 0.000(4) . .
C5 C4 C8 O3 180.000(4) . .
C5 C4 C3 C2 0.000(4) . .
C8 C4 C5 C6 180.000(3) . .
C8 C4 C3 C2 180.000(3) . .
C3 C4 C5 C6 0.000(4) . .
C3 C4 C8 O4 180.000(3) . .
C3 C4 C8 O3 0.000(4) . .
C3 C2 C1 C7 180.000(2) . .
C3 C2 C1 C6 0.000(3) . .
C9 N1 C10 C10 -58.5(6) . 2_565
C9 N1 C11 C11 59.0(6) . 2_565
C10 N1 C9 C9 57.9(6) . 2_565
C10 N1 C11 C11 -56.6(6) . 2_565
C11 N1 C9 C9 -58.5(6) . 2_565
C11 N1 C10 C10 56.7(6) . 2_565
loop_
_smtbx_masks_void_nr
_smtbx_masks_void_average_x
_smtbx_masks_void_average_y
_smtbx_masks_void_average_z
_smtbx_masks_void_volume
_smtbx_masks_void_count_electrons
1 -0.674 0.500 0.496 145.2 52.5
