#------------------------------------------------------------------------------
#$Date: 2019-11-24 04:12:18 +0200 (Sun, 24 Nov 2019) $
#$Revision: 236652 $
#$URL: file:///home/coder/svn-repositories/cod/cif/8/00/03/8000387.cif $
#------------------------------------------------------------------------------
#
# This file is available in the Crystallography Open Database (COD),
# http://www.crystallography.net/
#
# All data on this site have been placed in the public domain by the
# contributors.
#
data_8000387
loop_
_publ_author_name
'Andrzejewski, Micha\/l'
'Katrusiak, Andrzej'
_publ_section_title
;
 Piezochromic Porous Metal-Organic Framework.
;
_journal_issue                   1
_journal_name_full               'The journal of physical chemistry letters'
_journal_page_first              279
_journal_page_last               284
_journal_paper_doi               10.1021/acs.jpclett.6b02458
_journal_volume                  8
_journal_year                    2017
_chemical_formula_moiety         'C14 H18 Co N2 O5'
_chemical_formula_sum            'C14 H18 Co N2 O5'
_chemical_formula_weight         353.23
_chemical_name_common            AMU1
_chemical_name_systematic
;
Co(1,4-benzenedicarboxylate)(1,4-diazabicyclo[2.2.2]octane)H2O
;
_space_group_crystal_system      monoclinic
_space_group_IT_number           6
_space_group_name_Hall           'P -2y'
_space_group_name_H-M_alt        'P 1 m 1'
_atom_sites_solution_hydrogens   mixed
_atom_sites_solution_primary     direct
_audit_creation_date             2016-09-20
_audit_creation_method
;
Olex2 1.2
(compiled 2016.09.09 svn.r3337 for OlexSys, GUI svn.r5227)
;
_cell_angle_alpha                90
_cell_angle_beta                 94.83(15)
_cell_angle_gamma                90
_cell_formula_units_Z            1
_cell_length_a                   6.115(5)
_cell_length_b                   7.1238(11)
_cell_length_c                   10.661(19)
_cell_measurement_reflns_used    1825
_cell_measurement_temperature    296(2)
_cell_measurement_theta_max      51.538
_cell_measurement_theta_min      11.31
_cell_volume                     462.8(9)
_computing_molecular_graphics    'Olex2 (Dolomanov et al., 2009)'
_computing_publication_material  'Olex2 (Dolomanov et al., 2009)'
_computing_structure_refinement  'ShelXL (Sheldrick, 2015)'
_computing_structure_solution    'ShelXS (Sheldrick, 2008)'
_diffrn_ambient_temperature      296(2)
_diffrn_measured_fraction_theta_full 0.300
_diffrn_measured_fraction_theta_max 0.300
_diffrn_measurement_device_type  'multiwire proportional'
_diffrn_measurement_method       'phi and omega scans'
_diffrn_radiation_monochromator  graphite
_diffrn_radiation_type           MoK\a
_diffrn_radiation_wavelength     0.71073
_diffrn_reflns_av_R_equivalents  0.1177
_diffrn_reflns_av_unetI/netI     0.1166
_diffrn_reflns_Laue_measured_fraction_full 0.300
_diffrn_reflns_Laue_measured_fraction_max 0.300
_diffrn_reflns_limit_h_max       6
_diffrn_reflns_limit_h_min       -7
_diffrn_reflns_limit_k_max       8
_diffrn_reflns_limit_k_min       -8
_diffrn_reflns_limit_l_max       8
_diffrn_reflns_limit_l_min       -8
_diffrn_reflns_number            1825
_diffrn_reflns_point_group_measured_fraction_full 0.298
_diffrn_reflns_point_group_measured_fraction_max 0.298
_diffrn_reflns_theta_full        25.769
_diffrn_reflns_theta_max         25.769
_diffrn_reflns_theta_min         5.655
_exptl_absorpt_coefficient_mu    0.947
_exptl_absorpt_correction_T_max  0.910
_exptl_absorpt_correction_T_min  0.797
_exptl_absorpt_correction_type   multi-scan
_exptl_absorpt_process_details
;
Data were collected and reduced by program CrysAlisPro, 
and SCALE3 ABSPACK was used for absorption correction
;
_exptl_crystal_colour            purple
_exptl_crystal_density_diffrn    1.267
_exptl_crystal_description       plate
_exptl_crystal_F_000             183
_exptl_crystal_size_max          0.3
_exptl_crystal_size_mid          0.2
_exptl_crystal_size_min          0.1
_refine_diff_density_max         1.343
_refine_diff_density_min         -1.160
_refine_diff_density_rms         0.260
_refine_ls_abs_structure_details
;
 Refined as a perfect inversion twin.
;
_refine_ls_extinction_method     none
_refine_ls_goodness_of_fit_ref   1.501
_refine_ls_hydrogen_treatment    constr
_refine_ls_matrix_type           full
_refine_ls_number_parameters     42
_refine_ls_number_reflns         542
_refine_ls_number_restraints     27
_refine_ls_restrained_S_all      1.476
_refine_ls_R_factor_all          0.2117
_refine_ls_R_factor_gt           0.1667
_refine_ls_shift/su_max          0.000
_refine_ls_shift/su_mean         0.000
_refine_ls_structure_factor_coef Fsqd
_refine_ls_weighting_details
'w=1/[\s^2^(Fo^2^)+(0.2000P)^2^] where P=(Fo^2^+2Fc^2^)/3'
_refine_ls_weighting_scheme      calc
_refine_ls_wR_factor_gt          0.3775
_refine_ls_wR_factor_ref         0.4331
_reflns_Friedel_coverage         0.976
_reflns_Friedel_fraction_full    0.296
_reflns_Friedel_fraction_max     0.296
_reflns_number_gt                344
_reflns_number_total             542
_reflns_threshold_expression     'I > 2\s(I)'
_cod_data_source_file            jz6b02458_si_004.cif
_cod_data_source_block           005gpa
_cod_database_code               8000387
_shelx_space_group_comment
;
The symmetry employed for this shelxl refinement is uniquely defined
by the following loop, which should always be used as a source of
symmetry information in preference to the above space-group names.
They are only intended as comments.
;
_olex2_refinement_description
;
1. Fixed Uiso
 At 1.2 times of:
  All C(H,H) groups, H6 of C6, H5 of C5, H4 of C4, H2 of C2
 At 1.5 times of:
  All O(H) groups, H1WB of C11
2. Restrained distances
 C3-C8
 1.35 with sigma of 0.02
 O2-C7
 1.28 with sigma of 0.02
 O1-C7
 1.28 with sigma of 0.02
 C8-O3
 1.28 with sigma of 0.02
 C8-O4
 1.28 with sigma of 0.02
 C7-C1
 1.48 with sigma of 0.001
 O3-O4
 2.16 with sigma of 0.001
 C11-N1
 1.43 with sigma of 0.001
 O1W-H1WA
 0.96 with sigma of 0.001
 C4-C8 \\sim C8-C5
 with sigma of 0.02
 O2-C1 \\sim C1-O1
 with sigma of 0.02
 C2-C7 \\sim C7-C6
 with sigma of 0.02
 C9-C11 \\sim C11-C10
 with sigma of 0.02
3. Restrained planarity
 C1, C6, C2, C4, C3, C5
 with sigma of 0.1
 O1, O4, O2, C7, C1, C6, C5, C3, C4, C2, C8, O3
 with sigma of 0.1
4. Uiso/Uaniso restraints and constraints
Uiso(C7) = Uiso(C1) = Uiso(C6) = Uiso(C5) = Uiso(C8) = Uiso(C3) = Uiso(C4) =
Uiso(C2)
Uiso(O1) = Uiso(O2) = Uiso(O3) = Uiso(O4)
5. Others
 Fixed X: H1WA(0.42746) H1WB(0.42746)
 Fixed Y: H1WA(0) H1WB(0)
 Fixed Z: H1WA(-0.0929) H1WB(0.062901)
6.a Secondary CH2 refined with riding coordinates:
 C9(H9A,H9B), C10(H10A,H10B), C11(H11A,H11B)
6.b Aromatic/amide H refined with riding coordinates:
 C6(H6), C5(H5), C4(H4), C2(H2)
6.c Fitted hexagon refined as free rotating group:
 C1(C6,C5,C3,C4,C2)
;
_shelx_shelxl_version_number     2014/7
_olex2_submission_special_instructions 'No special instructions were received'
loop_
_space_group_symop_operation_xyz
'x, y, z'
'x, -y, z'
loop_
_atom_site_label
_atom_site_type_symbol
_atom_site_fract_x
_atom_site_fract_y
_atom_site_fract_z
_atom_site_U_iso_or_equiv
_atom_site_adp_type
_atom_site_occupancy
_atom_site_site_symmetry_order
_atom_site_calc_flag
_atom_site_refinement_flags_posn
_atom_site_refinement_flags_adp
_atom_site_refinement_flags_occupancy
Co1 Co -0.004(4) 0.0000 -0.002(4) 0.050(3) Uiso 1 2 d S T P
O1 O 0.080(8) 0.0000 0.201(8) 0.053(6) Uiso 1 2 d DS T P
O4 O -0.135(5) 0.0000 0.824(5) 0.053(6) Uiso 1 2 d DS T P
O2 O -0.260(6) 0.0000 0.135(4) 0.053(6) Uiso 1 2 d DS T P
C7 C -0.122(4) 0.0000 0.2282(19) 0.050(7) Uiso 1 2 d DS T P
N1 N -0.029(7) 0.311(4) -0.027(4) 0.049(8) Uiso 1 1 d D . .
C1 C -0.170(4) 0.0000 0.3620(19) 0.050(7) Uiso 1 2 d DS T P
C6 C 0.004(4) 0.0000(7) 0.455(2) 0.050(7) Uiso 1 2 d DGS T P
H6 H 0.1477 0.0000 0.4321 0.060 Uiso 1 2 calc RS T P
C5 C -0.037(4) 0.0000(10) 0.581(2) 0.050(7) Uiso 1 2 d DGS T P
H5 H 0.0799 0.0000 0.6430 0.060 Uiso 1 2 calc RS T P
C3 C -0.251(5) 0.0000(9) 0.6146(19) 0.050(7) Uiso 1 2 d DGS T P
C4 C -0.425(4) 0.0000(10) 0.522(2) 0.050(7) Uiso 1 2 d DGS T P
H4 H -0.5690 0.0000 0.5445 0.060 Uiso 1 2 calc RS T P
C2 C -0.385(3) 0.0000(7) 0.396(2) 0.050(7) Uiso 1 2 d DGS T P
H2 H -0.5012 0.0000 0.3336 0.060 Uiso 1 2 calc RS T P
O1W O 0.337(6) 0.0000 -0.024(3) 0.036(10) Uiso 1 2 d DS T P
H1WA H 0.4275 0.0000 -0.0929 0.054 Uiso 1 2 d DRS T P
C8 C -0.292(6) 0.0000 0.737(3) 0.050(7) Uiso 1 2 d DS T P
O3 O -0.485(5) 0.0000 0.774(5) 0.053(6) Uiso 1 2 d DS T P
C9 C 0.082(10) 0.383(6) -0.129(8) 0.044(13) Uiso 1 1 d D . .
H9A H 0.0109 0.3381 -0.2081 0.052 Uiso 1 1 calc R . .
H9B H 0.2325 0.3381 -0.1223 0.052 Uiso 1 1 calc R . .
C10 C -0.240(9) 0.388(5) -0.013(9) 0.046(11) Uiso 1 1 d D . .
H10A H -0.2909 0.3437 0.0655 0.055 Uiso 1 1 calc R . .
H10B H -0.3422 0.3437 -0.0810 0.055 Uiso 1 1 calc R . .
C11 C 0.104(7) 0.359(7) 0.085(4) 0.08(2) Uiso 1 1 d D . .
H11A H 0.2518 0.3098 0.0827 0.095 Uiso 1 1 calc R . .
H11B H 0.0412 0.3098 0.1589 0.095 Uiso 1 1 calc R . .
H1WB H 0.4275 0.0000 0.0629 0.118 Uiso 1 2 d RS T P
loop_
_atom_type_symbol
_atom_type_description
_atom_type_scat_dispersion_real
_atom_type_scat_dispersion_imag
_atom_type_scat_source
C C 0.0033 0.0016 'International Tables Vol C Tables 4.2.6.8 and 6.1.1.4'
H H 0.0000 0.0000 'International Tables Vol C Tables 4.2.6.8 and 6.1.1.4'
Co Co 0.3494 0.9721 'International Tables Vol C Tables 4.2.6.8 and 6.1.1.4'
N N 0.0061 0.0033 'International Tables Vol C Tables 4.2.6.8 and 6.1.1.4'
O O 0.0106 0.0060 'International Tables Vol C Tables 4.2.6.8 and 6.1.1.4'
loop_
_geom_angle_atom_site_label_1
_geom_angle_atom_site_label_2
_geom_angle_atom_site_label_3
_geom_angle
_geom_angle_site_symmetry_1
_geom_angle_site_symmetry_3
O1 Co1 O2 57.8(13) . .
O1 Co1 N1 97.2(15) . 2
O1 Co1 N1 97.2(15) . .
O4 Co1 O1 169.5(17) 1_554 .
O4 Co1 O2 112(2) 1_554 .
O4 Co1 N1 82.5(15) 1_554 2
O4 Co1 N1 82.5(15) 1_554 .
O4 Co1 O1W 103.1(16) 1_554 .
O2 Co1 N1 92.0(11) . 2
O2 Co1 N1 92.0(11) . .
N1 Co1 N1 165(3) . 2
O1W Co1 O1 87.4(17) . .
O1W Co1 O2 145(2) . .
O1W Co1 N1 92.5(12) . 2
O1W Co1 N1 92.5(12) . .
C7 O1 Co1 94(5) . .
C8 O4 Co1 156(3) . 1_556
C7 O2 Co1 93(3) . .
O1 C7 C1 119(4) . .
O2 C7 O1 115(5) . .
O2 C7 C1 126(3) . .
C9 N1 Co1 115(3) . .
C9 N1 C11 106(4) . .
C10 N1 Co1 115(3) . .
C10 N1 C9 116(5) . .
C10 N1 C11 106(5) . .
C11 N1 Co1 96(3) . .
C6 C1 C7 118.9(10) . .
C6 C1 C2 120.0 . .
C2 C1 C7 121.1(10) . .
C1 C6 H6 120.0 . .
C1 C6 C5 120.0 . .
C5 C6 H6 120.0 . .
C6 C5 H5 120.0 . .
C3 C5 C6 120.0 . .
C3 C5 H5 120.0 . .
C4 C3 C5 120.0 . .
C8 C3 C5 120.3(12) . .
C8 C3 C4 119.7(12) . .
C3 C4 H4 120.0 . .
C3 C4 C2 120.0 . .
C2 C4 H4 120.0 . .
C1 C2 H2 120.0 . .
C4 C2 C1 120.0 . .
C4 C2 H2 120.0 . .
Co1 O1W H1WA 136(4) . .
Co1 O1W H1WB 111.3(11) . .
H1WA O1W H1WB 113(4) . .
O4 C8 C3 121(3) . .
O4 C8 O3 115(3) . .
O3 C8 C3 124(3) . .
N1 C9 C9 111(2) . 2_565
N1 C9 H9A 109.4 . .
N1 C9 H9B 109.4 . .
C9 C9 H9A 109.4 2_565 .
C9 C9 H9B 109.4 2_565 .
H9A C9 H9B 108.0 . .
N1 C10 C10 113(2) . 2_565
N1 C10 H10A 109.0 . .
N1 C10 H10B 109.0 . .
C10 C10 H10A 109.0 2_565 .
C10 C10 H10B 109.0 2_565 .
H10A C10 H10B 107.8 . .
N1 C11 C11 104(3) . 2_565
N1 C11 H11A 111.0 . .
N1 C11 H11B 111.0 . .
C11 C11 H11A 111.0 2_565 .
C11 C11 H11B 111.0 2_565 .
H11A C11 H11B 109.0 . .
loop_
_geom_bond_atom_site_label_1
_geom_bond_atom_site_label_2
_geom_bond_distance
_geom_bond_site_symmetry_2
Co1 O1 2.19(9) .
Co1 O4 1.96(6) 1_554
Co1 O2 2.23(4) .
Co1 N1 2.23(3) 2
Co1 N1 2.23(3) .
Co1 O1W 2.12(4) .
O1 C7 1.29(3) .
O4 Co1 1.96(6) 1_556
O4 C8 1.28(3) .
O2 C7 1.25(3) .
C7 C1 1.480(3) .
N1 C9 1.43(6) .
N1 C10 1.42(6) .
N1 C11 1.430(3) .
C1 C6 1.3900 .
C1 C2 1.3900 .
C6 H6 0.9300 .
C6 C5 1.3900 .
C5 H5 0.9300 .
C5 C3 1.3900 .
C3 C4 1.3900 .
C3 C8 1.34(3) .
C4 H4 0.9300 .
C4 C2 1.3900 .
C2 H2 0.9300 .
O1W H1WA 0.960(2) .
O1W H1WB 1.03(4) .
C8 O3 1.28(3) .
C9 C9 1.66(9) 2_565
C9 H9A 0.9700 .
C9 H9B 0.9700 .
C10 C10 1.59(7) 2_565
C10 H10A 0.9700 .
C10 H10B 0.9700 .
C11 C11 2.02(11) 2_565
C11 H11A 0.9700 .
C11 H11B 0.9700 .
loop_
_geom_torsion_atom_site_label_1
_geom_torsion_atom_site_label_2
_geom_torsion_atom_site_label_3
_geom_torsion_atom_site_label_4
_geom_torsion
_geom_torsion_site_symmetry_1
_geom_torsion_site_symmetry_4
Co1 O1 C7 O2 0.000(2) . .
Co1 O1 C7 C1 180.000(3) . .
Co1 O4 C8 C3 180.0(3) 1_556 .
Co1 O4 C8 O3 0.00(2) 1_556 .
Co1 O2 C7 O1 0.000(5) . .
Co1 O2 C7 C1 180.000(3) . .
Co1 N1 C9 C9 -172.7(18) . 2_565
Co1 N1 C10 C10 172.1(18) . 2_565
Co1 N1 C11 C11 -179.3(9) . 2_565
O1 C7 C1 C6 0.0(3) . .
O1 C7 C1 C2 180.0(3) . .
O2 C7 C1 C6 180.0(3) . .
O2 C7 C1 C2 0.0(3) . .
C7 C1 C6 C5 180.00(16) . .
C7 C1 C2 C4 180.00(16) . .
C1 C6 C5 C3 0.0 . .
C6 C1 C2 C4 0.0 . .
C6 C5 C3 C4 0.0 . .
C6 C5 C3 C8 180.0(5) . .
C5 C3 C4 C2 0.0 . .
C5 C3 C8 O4 0.0(5) . .
C5 C3 C8 O3 180.0(2) . .
C3 C4 C2 C1 0.0 . .
C4 C3 C8 O4 180.0(2) . .
C4 C3 C8 O3 0.0(5) . .
C2 C1 C6 C5 0.0 . .
C8 C3 C4 C2 180.0(5) . .
C9 N1 C10 C10 -50(7) . 2_565
C9 N1 C11 C11 63(3) . 2_565
C10 N1 C9 C9 49(6) . 2_565
C10 N1 C11 C11 -61(3) . 2_565
C11 N1 C9 C9 -68(3) . 2_565
C11 N1 C10 C10 67(4) . 2_565
