#------------------------------------------------------------------------------
#$Date: 2019-11-24 04:12:18 +0200 (Sun, 24 Nov 2019) $
#$Revision: 236652 $
#$URL: file:///home/coder/svn-repositories/cod/cif/8/00/03/8000380.cif $
#------------------------------------------------------------------------------
#
# This file is available in the Crystallography Open Database (COD),
# http://www.crystallography.net/
#
# All data on this site have been placed in the public domain by the
# contributors.
#
data_8000380
loop_
_publ_author_name
'Andrzejewski, Micha\/l'
'Katrusiak, Andrzej'
_publ_section_title
;
 Piezochromic Porous Metal-Organic Framework.
;
_journal_issue                   1
_journal_name_full               'The journal of physical chemistry letters'
_journal_page_first              279
_journal_page_last               284
_journal_paper_doi               10.1021/acs.jpclett.6b02458
_journal_volume                  8
_journal_year                    2017
_chemical_formula_moiety         'C14 H18 Co N2 O5'
_chemical_formula_sum            'C14 H18 Co N2 O5'
_chemical_formula_weight         353.23
_chemical_name_common            AMU1
_chemical_name_systematic
;
Co(1,4-benzenedicarboxylate)(1,4-diazabicyclo[2.2.2]octane)H2O
;
_space_group_crystal_system      triclinic
_space_group_IT_number           1
_space_group_name_Hall           'P 1'
_space_group_name_H-M_alt        'P 1'
_atom_sites_solution_hydrogens   mixed
_atom_sites_solution_primary     direct
_audit_creation_date             2016-07-12
_audit_creation_method
;
Olex2 1.2
(compiled 2016.02.19 svn.r3266 for OlexSys, GUI svn.r5155)
;
_cell_angle_alpha                90.32(3)
_cell_angle_beta                 97.38(3)
_cell_angle_gamma                95.055(15)
_cell_formula_units_Z            1
_cell_length_a                   5.7562(10)
_cell_length_b                   6.9942(13)
_cell_length_c                   10.529(4)
_cell_measurement_reflns_used    708
_cell_measurement_temperature    296(2)
_cell_measurement_theta_max      52.386
_cell_measurement_theta_min      9.654
_cell_volume                     418.69(19)
_computing_molecular_graphics    'Olex2 (Dolomanov et al., 2009)'
_computing_publication_material  'Olex2 (Dolomanov et al., 2009)'
_computing_structure_refinement  'ShelXL (Sheldrick, 2015)'
_computing_structure_solution    'ShelXS (Sheldrick, 2008)'
_diffrn_ambient_temperature      296(2)
_diffrn_measured_fraction_theta_full 0.227
_diffrn_measured_fraction_theta_max 0.223
_diffrn_measurement_device_type  'multiwire proportional'
_diffrn_measurement_method       'phi and omega scans'
_diffrn_radiation_monochromator  graphite
_diffrn_radiation_type           MoK\a
_diffrn_radiation_wavelength     0.71073
_diffrn_reflns_av_R_equivalents  0.0689
_diffrn_reflns_av_unetI/netI     0.1105
_diffrn_reflns_Laue_measured_fraction_full 0.227
_diffrn_reflns_Laue_measured_fraction_max 0.223
_diffrn_reflns_limit_h_max       6
_diffrn_reflns_limit_h_min       -7
_diffrn_reflns_limit_k_max       8
_diffrn_reflns_limit_k_min       -8
_diffrn_reflns_limit_l_max       4
_diffrn_reflns_limit_l_min       -5
_diffrn_reflns_number            1924
_diffrn_reflns_point_group_measured_fraction_full 0.227
_diffrn_reflns_point_group_measured_fraction_max 0.223
_diffrn_reflns_theta_full        26.000
_diffrn_reflns_theta_max         26.193
_diffrn_reflns_theta_min         4.827
_exptl_absorpt_coefficient_mu    1.047
_exptl_absorpt_correction_T_max  0.901
_exptl_absorpt_correction_T_min  0.882
_exptl_absorpt_correction_type   multi-scan
_exptl_absorpt_process_details
;
Data were collected and reduced by program CrysAlisPro, 
and SCALE3 ABSPACK was used for absorption correction
;
_exptl_crystal_colour            yellow
_exptl_crystal_density_diffrn    1.401
_exptl_crystal_description       plate
_exptl_crystal_F_000             183
_exptl_crystal_size_max          0.3
_exptl_crystal_size_mid          0.1
_exptl_crystal_size_min          0.1
_refine_diff_density_max         1.254
_refine_diff_density_min         -0.636
_refine_diff_density_rms         0.156
_refine_ls_abs_structure_details
;
 Refined as a perfect inversion twin.
;
_refine_ls_abs_structure_Flack   0.5
_refine_ls_extinction_method     none
_refine_ls_goodness_of_fit_ref   1.309
_refine_ls_hydrogen_treatment    constr
_refine_ls_matrix_type           full
_refine_ls_number_parameters     69
_refine_ls_number_reflns         708
_refine_ls_number_restraints     22
_refine_ls_restrained_S_all      1.294
_refine_ls_R_factor_all          0.1760
_refine_ls_R_factor_gt           0.1385
_refine_ls_shift/su_max          0.000
_refine_ls_shift/su_mean         0.000
_refine_ls_structure_factor_coef Fsqd
_refine_ls_weighting_details
'w=1/[\s^2^(Fo^2^)+(0.2000P)^2^] where P=(Fo^2^+2Fc^2^)/3'
_refine_ls_weighting_scheme      calc
_refine_ls_wR_factor_gt          0.3299
_refine_ls_wR_factor_ref         0.3563
_reflns_Friedel_coverage         1.000
_reflns_Friedel_fraction_full    0.227
_reflns_Friedel_fraction_max     0.223
_reflns_number_gt                465
_reflns_number_total             708
_reflns_threshold_expression     'I > 2\s(I)'
_cod_data_source_file            jz6b02458_si_004.cif
_cod_data_source_block           157GPa_P1
_cod_database_code               8000380
_shelx_space_group_comment
;
The symmetry employed for this shelxl refinement is uniquely defined
by the following loop, which should always be used as a source of
symmetry information in preference to the above space-group names.
They are only intended as comments.
;
_olex2_refinement_description
;
1. Fixed Uiso
 At 1.2 times of:
  All C(H) groups, All C(H,H) groups
 At 1.5 times of:
  All O(H,H) groups
2. Restrained distances
 O3-C8
 1.25 with sigma of 0.002
 C8-C4
 1.48 with sigma of 0.02
 C1-C7
 1.48 with sigma of 0.02
 O2-C7
 1.25 with sigma of 0.002
 C7-O1
 1.25 with sigma of 0.002
 C9-N1
 1.48 with sigma of 0.02
 C11-N1
 1.48 with sigma of 0.02
 N1-C13
 1.48 with sigma of 0.02
 C12-C11
 1.52 with sigma of 0.02
 C10-C9
 1.52 with sigma of 0.02
 C14-C13
 1.52 with sigma of 0.02
 N2-C14
 1.48 with sigma of 0.02
 N2-C12
 1.48 with sigma of 0.002
 N2-C10
 1.48 with sigma of 0.002
 O1-O2
 2.163 with sigma of 0.02
 C14-C12
 2.36 with sigma of 0.002
 C14-C10
 2.36 with sigma of 0.002
 O4-O3
 2.16 with sigma of 0.002
 O4-C8 \\sim C8-O3
 with sigma of 0.02
3. Uiso/Uaniso restraints and constraints
Uiso(C5) = Uiso(C6) = Uiso(C1) = Uiso(C2) = Uiso(C3) = Uiso(C4)
Uiso(N1) = Uiso(N2)
Uiso(O4) = Uiso(O3) = Uiso(O2) = Uiso(O1)
4.a Rotating group:
 O1W(H1WA,H1WB)
4.b Secondary CH2 refined with riding coordinates:
 C11(H11A,H11B), C9(H9A,H9B), C12(H12A,H12B), C14(H14A,H14B), C10(H10A,H10B),
 C13(H13A,H13B)
4.c Aromatic/amide H refined with riding coordinates:
 C6(H6), C2(H2), C3(H3), C5(H5)
4.d Fitted hexagon refined as free rotating group:
 C6(C1,C2,C3,C4,C5)
;
_shelx_hkl_file
;
   1  -4   2   79.35   11.94
   1  -2   1  921.30   13.26
   2  -2   1   36.51    9.35
   3  -2   1   60.12   13.77
   1  -3   1  304.42   11.76
   2  -3   1  115.54   13.19
   3  -3   1  163.57   17.53
   1  -4   1  183.49   12.81
   2  -4   1  209.97   16.53
   3  -4   1   39.96   18.98
   2  -5   1   13.44   17.78
   3  -5   1   17.25   20.78
   3  -6   1  111.55   24.52
   3   1   0  133.76    9.71
   2  -1   0  396.25   10.64
   3  -1   0  118.97   12.75
   4  -1   0   69.81   16.05
   5  -1   0   51.05   20.29
   1  -2   0 2643.23   20.15
   2  -2   0    7.92    9.13
   3  -2   0  128.27   13.85
   4  -2   0   40.73   17.83
   5  -2   0   40.68   21.39
   1  -3   0 1741.58   19.34
   2  -3   0  118.63   12.70
   3  -3   0  150.86   16.67
   4  -3   0  114.87   20.27
   5  -3   0   38.34   23.04
   1  -4   0 1006.80   18.86
   2  -4   0  161.18   16.18
   3  -4   0  237.44   19.82
   4  -4   0   82.69   21.91
   5  -4   0   25.88   26.09
   2  -5   0   57.61   18.19
   3  -5   0   26.11   20.94
   4  -5   0   18.49   25.05
   5  -5   0  -12.45   26.64
   3  -6   0   20.31   23.65
   4  -6   0   58.55   27.14
   5  -6   0   -6.67   30.77
   4  -7   0    7.77   16.02
   3   1  -1  234.61   10.55
   2  -1  -1  375.01   10.70
   3  -1  -1  326.34   13.82
   4  -1  -1  133.10   16.38
   5  -1  -1    8.62   19.18
   1  -2  -1  199.48    8.21
   2  -2  -1  111.45   10.63
   3  -2  -1   54.92   13.15
   4  -2  -1   82.49   18.16
   5  -2  -1   17.80   21.28
   6  -2  -1   19.32   25.04
   1  -3  -1  769.02   14.80
   2  -3  -1  149.60   13.08
   3  -3  -1  261.34   17.50
   4  -3  -1  164.54   20.43
   5  -3  -1   39.73   23.81
   6  -3  -1   13.40   27.26
   1  -4  -1   16.74   11.53
   2  -4  -1  161.52   16.00
   3  -4  -1  202.39   19.57
   4  -4  -1   75.93   22.23
   5  -4  -1   27.04   27.02
   6  -4  -1   31.00   29.71
   2  -5  -1  -64.04   22.34
   3  -5  -1   35.46   21.62
   4  -5  -1   21.45   24.21
   5  -5  -1    9.88   26.91
   3  -6  -1  111.45   24.74
   4  -6  -1   25.70   27.24
   5  -6  -1   30.92   31.29
   3   1  -2  692.62   13.25
   2  -1  -2  374.32   11.31
   3  -1  -2 1026.48   19.30
   4  -1  -2   52.17   15.39
   5  -1  -2  119.00   20.04
   2  -2  -2  164.38   11.24
   3  -2  -2  544.31   17.77
   4  -2  -2   63.64   18.36
   5  -2  -2   25.87   21.13
   6  -2  -2   23.55   25.46
   2  -3  -2  189.52   14.35
   3  -3  -2  552.90   20.83
   4  -3  -2  128.41   21.78
   5  -3  -2  125.28   23.90
   6  -3  -2   41.33   27.96
   2  -4  -2  185.52   16.77
   3  -4  -2  432.25   22.25
   5  -4  -2   28.70   25.71
   6  -4  -2   52.35   30.88
   2  -5  -2   39.56   17.95
   3  -5  -2   38.70   22.13
   4  -5  -2   41.82   24.65
   5  -5  -2   14.30   28.88
   3  -6  -2  143.85   24.63
   4  -6  -2  101.97   27.18
   5  -6  -2  -13.89   29.22
   3  -1  -3  261.91   14.19
   4  -1  -3   55.59   16.14
   5  -1  -3   55.83   19.61
   3  -2  -3  144.08   15.73
   4  -2  -3   53.96   17.82
   5  -2  -3   89.97   22.34
   6  -2  -3   89.23   25.45
   3  -3  -3  238.31   19.13
   4  -3  -3  151.72   20.67
   5  -3  -3   76.10   24.50
   3  -4  -3  203.44   20.16
   4  -4  -3   51.48   23.57
   5  -4  -3   63.07   27.43
   6  -4  -3   80.08   30.93
   3  -5  -3   19.83   22.04
   4  -5  -3   44.83   24.81
   5  -5  -3   17.15   29.69
   4  -6  -3   31.27   26.92
   5  -6  -3   27.90   31.14
   4  -2  -4   45.39   17.76
   5  -2  -4    0.41   20.79
   6  -2  -4   14.93   25.30
   4  -3  -4   71.91   21.37
   5  -3  -4   82.60   25.38
   6  -3  -4  -10.53   27.77
   4  -4  -4   -4.64   22.45
   5  -4  -4   13.33   25.38
   6  -4  -4   44.01   29.58
   5  -5  -4   61.28   29.05
  -5   5   4    6.80   30.87
  -6   4   4   12.75   33.37
  -5   4   4  -14.82   28.75
  -6   3   4   38.17   31.59
  -5   3   4  130.79   27.32
  -4   3   4   79.40   23.70
  -5   2   4   -3.43   24.07
  -5   6   3   25.96   33.56
  -4   6   3   39.01   29.22
  -5   5   3   28.92   30.70
  -4   5   3   -1.16   27.23
  -3   5   3   59.31   22.91
  -6   4   3   55.53   33.35
  -5   4   3   31.78   28.90
  -4   4   3   25.79   24.41
  -3   4   3  194.48   21.93
  -5   3   3   52.71   27.33
  -4   3   3  139.97   24.11
  -3   3   3  217.43   19.45
  -5   2   3  109.33   25.44
  -4   2   3   20.58   20.38
  -3   2   3  121.15   16.43
  -5   1   3   67.29   23.39
  -4   1   3   37.80   17.85
  -3   1   3  279.46   15.47
  -4   7   2   11.18   25.73
  -3   7   2   77.12   23.21
  -5   6   2   28.76   33.70
  -4   6   2   94.57   29.64
  -3   6   2  113.85   26.88
  -2   6   2   40.72   21.62
  -5   5   2   26.37   30.99
  -4   5   2   51.24   27.19
  -3   5   2   78.09   23.95
  -2   5   2   12.54   19.00
  -6   4   2   55.38   33.51
  -5   4   2   28.32   28.22
  -4   4   2  134.11   25.90
  -3   4   2  407.12   24.25
  -2   4   2  172.15   18.00
  -6   3   2   50.33   31.47
  -5   3   2   58.97   27.23
  -4   3   2   81.30   23.08
  -3   3   2  516.87   22.10
  -2   3   2  232.88   15.88
  -6   2   2   34.20   29.55
  -5   2   2   -5.83   24.48
  -4   2   2   25.14   20.84
  -3   2   2  530.40   19.22
  -2   2   2  177.86   12.74
  -5   1   2   75.77   23.64
  -4   1   2   37.35   18.24
  -3   1   2  958.50   20.01
  -2   1   2  450.60   12.61
  -4   7   1   -1.79   32.48
  -5   6   1   35.85   34.39
  -4   6   1   75.64   29.99
  -3   6   1  113.83   27.54
  -2   6   1   64.66   22.67
  -5   5   1   -5.05   31.15
  -4   5   1   13.06   27.91
  -3   5   1   44.77   23.76
  -2   5   1   16.18   19.39
  -1   5   1  140.25   16.80
  -6   4   1    0.48   34.10
  -5   4   1   40.38   28.95
  -4   4   1  129.37   26.01
  -3   4   1  184.84   21.84
  -2   4   1  180.96   17.70
  -1   4   1   41.17   12.15
  -6   3   1   42.04   31.53
  -5   3   1    1.47   26.47
  -4   3   1  180.64   24.01
  -3   3   1  323.01   20.07
  -2   3   1  162.00   15.03
  -1   3   1  770.25   15.51
  -6   2   1   18.89   28.61
  -5   2   1   16.58   24.25
  -4   2   1   94.00   21.39
  -3   2   1   77.85   15.31
  -2   2   1  104.83   11.40
  -1   2   1  260.68    9.36
  -5   1   1    6.71   22.54
  -4   1   1  143.43   19.19
  -3   1   1  336.38   15.49
  -2   1   1  367.60   11.39
  -3  -1   1  271.18   11.89
  -4   7   0   51.81   31.73
  -5   6   0    7.51   33.33
  -4   6   0   87.14   30.78
  -3   6   0   84.96   27.02
  -2   6   0  128.17   22.69
  -5   5   0    7.92   31.74
  -4   5   0   12.56   27.74
  -3   5   0   37.22   23.98
  -2   5   0   27.77   19.63
  -1   5   0  455.99   19.31
  -5   4   0   24.62   29.27
  -4   4   0   82.86   25.26
  -3   4   0  241.00   22.18
  -2   4   0  191.94   18.02
  -1   4   0  962.62   18.84
   0   4   0  311.34   11.76
  -5   3   0   57.22   27.24
  -4   3   0  165.96   23.44
  -3   3   0  183.06   18.69
  -2   3   0  114.31   14.22
  -1   3   0 1645.53   19.63
  -5   2   0   -4.45   24.68
  -4   2   0   24.96   19.49
  -3   2   0  151.65   16.34
  -2   2   0   -1.28    9.89
  -1   2   0 2612.38   20.45
  -5   1   0   34.72   22.09
  -4   1   0  111.35   17.76
  -3   1   0  136.57   13.81
  -2   1   0  402.68   11.33
  -3  -1   0  124.18   10.85
  -3   6  -1   74.05   26.37
  -3   5  -1   -3.60   23.67
  -2   5  -1   16.11   19.11
  -3   4  -1   61.16   20.54
  -2   4  -1  210.50   17.83
  -3   3  -1  176.41   18.61
  -2   3  -1  105.60   13.87
  -1   3  -1  335.64   12.66
  -3   2  -1   61.58   15.35
  -2   2  -1   18.87   10.47
  -1   2  -1  969.21   13.71
  -1   4  -2   94.29   13.76
   1  -2   1  955.10   13.88
   2  -2   1   26.31   10.85
   3  -2   1   77.25   15.71
   0  -3   1 1563.02   15.39
   1  -3   1  354.68   12.25
   2  -3   1   99.14   13.32
   3  -3   1  159.65   17.79
   1  -4   1  160.28   13.19
   2  -4   1  198.63   17.20
   3  -4   1   68.67   19.09
   2  -5   1   24.34   17.64
   3  -5   1   28.63   22.21
   2  -1   0  414.38   11.06
   3  -1   0  138.48   13.12
   4  -1   0   60.13   16.22
   1  -2   0 2828.21   20.89
   2  -2   0    7.56    9.35
   3  -2   0  164.35   15.34
   4  -2   0   16.01   19.22
   5  -2   0    6.11   22.17
   0  -3   0 2338.91   17.64
   1  -3   0 1666.53   19.51
   2  -3   0  116.49   13.01
   3  -3   0  186.12   18.09
   4  -3   0  146.87   21.72
   5  -3   0   29.88   24.72
   1  -4   0  950.32   19.05
   2  -4   0  195.32   16.34
   3  -4   0  263.58   22.60
   4  -4   0   67.12   23.81
   5  -4   0   -1.59   29.08
   1  -5   0  504.87   18.77
   2  -5   0   27.92   18.74
   3  -5   0    5.08   22.84
   4  -5   0   34.24   25.70
   5  -5   0   30.25   30.36
   2  -6   0  120.06   22.23
   3  -6   0   47.71   25.55
   4  -6   0   77.15   29.48
   5  -6   0    9.40   32.78
   4  -7   0   23.83   27.91
   3   1  -1  246.86   10.47
   2  -1  -1  362.24   11.05
   3  -1  -1  323.57   14.86
   4  -1  -1  140.34   17.11
   5  -1  -1   13.35   20.11
   1  -2  -1  202.82    8.58
   2  -2  -1  104.56   10.23
   3  -2  -1   45.30   13.72
   4  -2  -1   90.25   19.16
   5  -2  -1   32.23   23.28
   6  -2  -1   12.69   28.02
   0  -3  -1 1084.44   13.65
   1  -3  -1  776.89   14.84
   2  -3  -1  141.37   13.70
   3  -3  -1  259.03   19.66
   4  -3  -1  145.84   23.75
   5  -3  -1   24.71   24.84
   6  -3  -1   30.22   31.02
   0  -4  -1  107.51   10.53
   1  -4  -1   43.84   11.98
   2  -4  -1  196.54   17.03
   3  -4  -1  188.45   21.97
   4  -4  -1   78.98   25.27
   5  -4  -1   44.21   27.09
   6  -4  -1   33.09   31.73
   1  -5  -1  190.68   15.96
   2  -5  -1   38.22   18.15
   3  -5  -1   23.07   22.89
   4  -5  -1   33.73   27.11
   5  -5  -1    9.00   30.54
   2  -6  -1   64.33   22.24
   3  -6  -1  138.34   27.00
   4  -6  -1   47.00   29.08
   5  -6  -1   40.06   35.18
   2  -1  -2  440.84   11.60
   3  -1  -2  931.82   19.24
   4  -1  -2   43.91   16.94
   5  -1  -2  124.78   21.25
   1  -2  -2  130.57    7.99
   2  -2  -2  139.74   11.48
   3  -2  -2  477.79   18.33
   4  -2  -2   52.49   18.79
   5  -2  -2   25.05   23.12
   6  -2  -2   33.26   27.19
   1  -3  -2  141.62   10.94
   2  -3  -2  183.75   14.72
   3  -3  -2  512.93   20.77
   4  -3  -2  121.88   23.27
   5  -3  -2   21.31   26.14
   6  -3  -2   57.43   30.17
   2  -4  -2  190.71   16.74
   3  -4  -2  381.56   22.33
   4  -4  -2  191.45   24.99
   5  -4  -2    4.02   26.97
   6  -4  -2   59.96   33.62
   1  -5  -2   19.89   15.83
   2  -5  -2   27.99   18.88
   3  -5  -2   69.38   22.48
   4  -5  -2   34.36   26.15
   5  -5  -2   11.58   30.73
   2  -6  -2   68.97   22.04
   3  -6  -2  149.18   27.16
   4  -6  -2  112.08   30.28
   5  -6  -2   21.81   33.84
   3  -1  -3  282.46   15.06
   4  -1  -3   72.22   16.99
   5  -1  -3   34.83   21.29
   3  -2  -3  162.03   16.04
   4  -2  -3   34.53   19.08
   5  -2  -3   94.67   24.10
   6  -2  -3   50.91   28.23
   3  -3  -3  247.35   18.39
   4  -3  -3  140.69   22.06
   5  -3  -3   64.49   25.47
   2  -4  -3  184.85   17.30
   3  -4  -3  203.12   22.22
   4  -4  -3   18.33   25.15
   5  -4  -3   73.09   28.85
   6  -4  -3   77.73   35.24
   2  -5  -3    3.00   18.75
   3  -5  -3   15.65   23.02
   4  -5  -3   32.21   26.07
   5  -5  -3   30.54   31.81
   3  -6  -3  108.48   27.06
   4  -6  -3    1.98   28.30
   4  -1  -4   22.60   16.97
   4  -2  -4   51.85   20.01
   5  -2  -4   11.30   23.77
   4  -3  -4  111.82   23.66
   5  -3  -4  106.75   26.19
   6  -3  -4   56.51   30.84
   4  -4  -4   -1.17   25.44
   5  -4  -4   48.97   27.36
   6  -4  -4   10.51   33.21
   5  -5  -4   35.62   32.71
  -5   5   4   22.81   35.77
  -6   4   4   21.27   36.65
  -5   4   4   42.13   30.98
  -4   4   4   13.34   29.05
  -6   3   4   48.89   35.39
  -5   3   4  119.47   30.13
  -4   3   4   26.23   26.07
  -6   2   4   40.09   32.21
  -5   2   4    7.83   26.91
  -4   2   4   52.77   21.81
  -5   1   4   51.45   25.42
  -4   7   3  -31.34   37.18
  -4   6   3   31.72   32.39
  -3   6   3  103.22   29.53
  -5   5   3   23.32   34.60
  -4   5   3   25.44   28.57
  -3   5   3   20.00   24.66
  -2   5   3   21.11   20.78
  -6   4   3  100.80   38.42
  -5   4   3   27.30   31.42
  -4   4   3   11.62   27.74
  -3   4   3  185.52   24.19
  -2   4   3  188.10   18.94
  -5   3   3   64.63   28.64
  -4   3   3  135.73   24.48
  -3   3   3  186.86   19.83
  -2   3   3  133.11   17.30
  -6   2   3   42.59   31.28
  -5   2   3  112.20   26.56
  -4   2   3   28.45   21.29
  -3   2   3  149.63   17.32
  -5   1   3   89.59   23.88
  -4   1   3   72.70   18.37
  -3   1   3  257.54   16.14
  -4   7   2   39.76   25.95
  -5   6   2   42.46   35.10
  -4   6   2   74.70   32.22
  -3   6   2  152.31   28.86
  -5   5   2   20.06   33.24
  -4   5   2   54.10   28.90
  -3   5   2   73.35   24.69
  -2   5   2   25.03   20.56
  -6   4   2   -4.96   35.24
  -5   4   2   34.34   29.72
  -4   4   2  132.34   26.97
  -3   4   2  391.46   24.73
  -2   4   2  182.54   18.74
  -6   3   2  -17.64   33.12
  -5   3   2   44.94   29.11
  -4   3   2  111.62   25.55
  -3   3   2  532.93   22.17
  -2   3   2  190.66   16.06
  -1   3   2  165.14   12.37
  -6   2   2   24.40   29.39
  -5   2   2    4.32   25.34
  -4   2   2   42.99   20.61
  -3   2   2  521.60   19.98
  -2   2   2  173.55   12.55
  -1   2   2  155.92    8.50
  -5   1   2   94.83   22.84
  -4   1   2   52.76   18.20
  -3   1   2  985.72   20.39
  -2   1   2  439.36   12.35
  -3  -1   2  774.36   15.00
  -5   6   1   53.42   36.37
  -4   6   1   50.91   30.91
  -3   6   1  104.62   28.22
  -5   5   1   -3.13   32.00
  -4   5   1   67.76   29.90
  -3   5   1   28.44   25.25
  -2   5   1  115.40   21.93
  -6   4   1   42.33   33.50
  -5   4   1    4.90   28.57
  -4   4   1   90.54   27.48
  -3   4   1  166.62   23.23
  -2   4   1  190.04   18.90
  -1   4   1   36.31   12.83
  -6   3   1   -0.36   32.80
  -5   3   1   44.22   27.13
  -4   3   1  130.19   25.25
  -3   3   1  342.63   21.46
  -2   3   1  137.99   15.05
  -1   3   1  803.15   15.69
   0   3   1 1045.80   13.73
  -5   2   1   28.77   24.52
  -4   2   1   76.60   20.51
  -3   2   1   67.94   15.29
  -2   2   1   97.20   11.20
  -1   2   1  234.33    9.51
  -5   1   1   22.64   21.78
  -4   1   1  157.07   18.25
  -3   1   1  350.24   15.87
  -2   1   1  337.70   11.27
  -3  -1   1  237.04   10.57
  -4   6   0   44.63   30.92
  -3   6   0   61.03   26.39
  -4   5   0   39.58   27.22
  -3   5   0   27.53   23.29
  -2   5   0    0.24   20.50
  -5   4   0   13.25   30.20
  -4   4   0   39.30   24.85
  -3   4   0  218.90   23.08
  -2   4   0  157.15   17.49
  -1   4   0  945.83   19.65
  -4   3   0  156.36   22.85
  -3   3   0  188.94   18.86
  -2   3   0  124.03   14.17
  -1   3   0 1612.64   19.73
   0   3   0 2452.57   18.40
  -4   2   0   28.21   20.22
  -3   2   0  151.85   16.01
  -2   2   0    2.97   10.14
  -1   2   0 2628.13   20.43
  -4   1   0   53.82   17.01
  -3   1   0  126.48   13.59
  -2   1   0  361.88   11.13
  -2   5  -1   13.41   18.32
  -3   4  -1   37.07   19.97
  -2   4  -1  201.98   18.06
  -1   4  -1  198.10   13.66
  -3   3  -1  123.00   18.56
  -2   3  -1   99.77   14.53
  -1   3  -1  328.56   12.31
  -2   2  -1   18.21   11.05
  -1   2  -1  969.58   13.86
  -4   4   4    4.35   25.96
  -3   7   3   44.50   24.68
  -5   6   3   29.60   36.69
  -4   6   3   59.92   31.88
  -3   6   3  111.20   32.14
  -4   5   3   21.42   27.72
  -3   5   3   25.54   24.91
  -2   5   3    0.20   21.79
  -4   4   3   11.86   25.28
  -3   4   3  189.40   24.12
  -2   4   3  168.75   21.17
  -3   3   3  197.33   18.30
  -2   3   3  221.91   16.03
  -3   2   3  163.46   14.86
  -3   1   3  257.94   12.21
  -2   8   2   10.25   35.21
  -4   7   2   45.19   31.42
  -3   7   2   38.63   22.87
  -2   7   2   15.88   21.09
  -1   7   2   -0.14   28.79
  -5   6   2   18.12   35.32
  -4   6   2   77.30   33.45
  -3   6   2  119.30   31.56
  -2   6   2   70.01   27.22
  -1   6   2   13.89   24.42
   0   6   2   92.50   25.77
  -4   5   2   50.76   28.04
  -3   5   2   30.34   26.30
  -2   5   2    9.33   22.08
  -1   5   2   13.61   21.44
   0   5   2   64.66   20.16
  -4   4   2   69.33   24.53
  -3   4   2  461.31   25.12
  -2   4   2  152.24   18.69
   0   4   2  123.45   15.46
  -4   3   2  118.72   20.06
  -3   3   2  545.88   20.47
  -2   3   2  198.52   15.90
  -1   3   2  150.23   12.83
  -3   2   2  531.44   16.71
  -2   2   2  163.79   11.40
  -3   1   2 1000.30   16.27
  -2   1   2  433.80   10.57
  -2   8   1   10.27   34.82
  -1   8   1   -4.67   32.81
  -4   7   1   98.05   38.56
  -3   7   1    3.80    6.06
  -2   7   1    4.27   14.05
  -1   7   1   11.70   15.07
   0   7   1   29.72   21.70
  -5   6   1   46.21   33.67
  -4   6   1   64.54   31.41
  -3   6   1  144.09   32.06
  -2   6   1  114.33   30.39
  -1   6   1   29.86   24.53
   0   6   1  102.83   24.16
  -4   5   1   15.63   26.58
  -3   5   1   47.31   24.37
  -2   5   1  110.58   23.57
  -1   5   1  175.22   20.83
   0   5   1  228.91   21.19
   1   5   1    4.04   17.87
  -4   4   1   97.13   23.32
  -3   4   1  168.52   22.32
  -2   4   1  186.46   20.54
  -1   4   1   45.28   16.15
   0   4   1   74.72   15.21
  -4   3   1  170.45   19.43
  -3   3   1  317.35   18.41
  -2   3   1  137.93   14.48
  -1   3   1  787.95   17.46
   0   3   1 1021.24   17.46
  -3   2   1   62.52   12.76
  -2   2   1   93.02   10.35
  -1   2   1  236.54    9.69
  -3   1   1  336.79   11.28
  -2   1   1  346.75    9.01
  -2   8   0   20.42   34.47
  -1   8   0   98.74   34.25
  -4   7   0   -1.35   37.12
  -3   7   0   20.50   39.29
  -2   7   0   48.35   26.75
  -1   7   0  126.34   27.74
   0   7   0   82.54   22.33
  -4   6   0   49.64   30.41
  -3   6   0   62.86   27.92
  -2   6   0  167.32   28.83
  -1   6   0  429.70   28.97
   0   6   0  118.73   23.92
  -4   5   0   64.64   26.38
  -3   5   0   17.60   25.82
  -2   5   0  -31.86   24.00
  -1   5   0  496.55   23.89
   0   5   0  424.47   22.31
  -4   4   0   48.91   22.10
  -3   4   0  217.53   22.50
  -2   4   0  146.84   19.08
  -1   4   0  981.89   22.33
   0   4   0  371.43   16.72
   1   4   0   82.48   13.39
  -4   3   0  106.52   18.75
  -3   3   0  196.89   17.03
  -2   3   0  116.86   14.71
  -1   3   0 1584.50   21.38
   0   3   0 2415.20   23.19
   1   3   0  479.61   12.62
  -3   2   0  149.42   12.91
  -2   2   0    2.92    9.48
  -1   2   0 2586.46   21.38
   0   2   0 5505.78   26.29
  -2   1   0  369.47    8.92
  -2   8  -1   20.08   35.87
  -1   8  -1   37.13   33.55
  -3   7  -1   46.39   28.97
  -2   7  -1  133.53   28.88
  -1   7  -1   87.74   23.95
   0   7  -1   36.77   19.64
  -3   6  -1   44.78   30.10
  -2   6  -1  125.09   26.68
  -1   6  -1   77.07   25.66
   0   6  -1   93.12   23.13
  -3   5  -1   11.47   24.87
  -2   5  -1   10.14   21.72
  -1   5  -1  144.69   21.87
   0   5  -1  296.27   19.96
  -3   4  -1   29.14   20.29
  -2   4  -1  191.16   18.37
  -1   4  -1  214.78   16.45
   0   4  -1    7.94   13.93
   1   4  -1  110.89   13.74
  -2   3  -1  115.80   14.94
  -1   3  -1  346.14   14.32
   0   3  -1 1678.01   19.85
   1   3  -1  190.23   10.52
  -2   2  -1   11.49    9.11
  -1   2  -1  971.32   14.49
   0   2  -1   21.48    6.45
  -1   7  -2   18.29   19.67
  -2   6  -2   17.32   26.73
  -1   6  -2   48.67   24.96
   0   6  -2   -4.79   21.35
  -1   5  -2   33.10   19.57
   0   5  -2   42.44   17.69
  -1   4  -2   93.77   16.75
   0   4  -2    8.32   13.56
   1   4  -2   56.98   12.16
   2   2   0  225.98    9.97
   3   2   0  103.37   12.31
   2   1   0  398.22   10.42
   3   1   0  115.52   12.65
   4   1   0   30.66   17.30
   2  -1   0  408.78   11.33
   3  -1   0  130.42   13.84
   4  -1   0   74.51   18.15
   5  -1   0   14.28   22.07
   2  -2   0    6.21    8.41
   3  -2   0  159.54   14.30
   4  -2   0   30.64   17.42
   5  -2   0    8.17   22.23
   2  -3   0  126.63   10.19
   3  -3   0  183.90   15.24
   4  -3   0  124.32   19.49
   5  -3   0   36.82   23.22
   4  -4   0   49.51   19.89
   2   2  -1   37.60    8.99
   3   2  -1   96.42   12.71
   4   2  -1   12.90   17.20
   5   2  -1    5.99   21.37
   2   1  -1  509.23   11.53
   3   1  -1  257.89   14.52
   4   1  -1   62.16   18.30
   5   1  -1   28.50   22.11
   6   1  -1   57.95   27.66
   2  -1  -1  394.90   11.19
   3  -1  -1  328.88   15.37
   4  -1  -1  116.22   18.78
   5  -1  -1    9.31   23.87
   6  -1  -1   95.35   27.56
   2  -2  -1   95.94    9.63
   3  -2  -1   55.92   13.31
   4  -2  -1   97.30   20.42
   5  -2  -1    6.32   24.75
   6  -2  -1   18.16   27.85
   1  -3  -1  798.72   11.43
   2  -3  -1  135.18   10.89
   3  -3  -1  283.73   16.33
   4  -3  -1  173.13   20.98
   5  -3  -1   30.07   24.11
   6  -3  -1   25.66   28.87
   3  -4  -1  209.39   16.70
   4  -4  -1  111.87   20.74
   5  -4  -1   49.69   25.80
   6  -4  -1   41.60   29.96
   2   2  -2  488.52   12.60
   3   2  -2  224.50   14.91
   4   2  -2   16.92   18.93
   5   2  -2   24.86   22.29
   2   1  -2  871.30   14.29
   3   1  -2  739.88   18.58
   4   1  -2   53.92   17.97
   5   1  -2   34.57   22.78
   6   1  -2   91.40   28.45
   2  -1  -2  391.71   11.63
   3  -1  -2  968.17   20.75
   4  -1  -2   68.69   17.98
   5  -1  -2   95.62   23.63
   6  -1  -2   82.99   28.29
   2  -2  -2  159.48   10.77
   3  -2  -2  522.27   17.79
   4  -2  -2   72.08   20.37
   5  -2  -2   15.75   25.78
   6  -2  -2   25.89   28.09
   2  -3  -2  202.12   11.99
   3  -3  -2  532.35   19.06
   4  -3  -2  138.75   21.25
   5  -3  -2   75.85   24.94
   6  -3  -2   42.93   29.35
   3  -4  -2  418.01   19.21
   4  -4  -2  123.80   22.21
   5  -4  -2   23.74   25.51
   6  -4  -2   95.22   31.31
   3   2  -3  106.68   14.31
   4   2  -3   86.37   18.71
   5   2  -3  100.17   24.97
   3   1  -3  287.57   15.46
   4   1  -3    4.47   18.35
   5   1  -3   87.80   24.79
   6   1  -3   36.59   29.19
   3  -1  -3  234.09   15.58
   4  -1  -3   69.99   19.90
   5  -1  -3   60.74   25.11
   6  -1  -3   90.07   29.83
   3  -2  -3  145.81   15.98
   4  -2  -3   25.25   21.09
   5  -2  -3   83.95   26.60
   6  -2  -3   72.14   31.23
   3  -3  -3  208.34   17.41
   4  -3  -3  118.86   21.53
   5  -3  -3   39.91   25.97
   3  -4  -3  197.39   18.24
   4  -4  -3   56.54   22.04
   5  -4  -3   70.94   26.28
   6  -4  -3   39.93   32.65
   4   2  -4   18.78   19.36
   5   2  -4   44.96   24.37
   4   1  -4   28.38   19.01
   5   1  -4   35.37   24.29
   6   1  -4   34.66   29.44
   5  -1  -4   49.95   25.10
   6  -1  -4   46.65   29.38
   5  -2  -4   21.60   26.62
   6  -2  -4   14.90   31.04
   4  -3  -4   72.68   22.11
   5  -3  -4  157.73   28.13
   6  -3  -4    0.87   33.55
   4  -4  -4   24.47   22.91
   5  -4  -4  -11.15   26.86
   6  -4  -4   29.66   33.76
  -6   3   4   13.55   32.27
  -5   3   4   83.43   27.07
  -6   2   4   37.22   31.07
  -5   2   4   13.11   25.72
  -4   2   4   47.46   21.22
  -6   1   4   41.91   31.38
  -5   1   4   41.99   26.66
  -4   1   4  -25.10   20.27
  -6  -1   4   37.59   30.32
  -5  -1   4   18.72   24.46
  -5  -2   4   33.97   23.82
  -6   4   3   94.20   33.21
  -5   4   3   33.96   26.06
  -4   4   3    2.33   22.36
  -5   3   3   58.37   27.85
  -4   3   3  167.51   22.38
  -3   3   3  195.94   17.26
  -6   2   3   56.06   31.07
  -5   2   3  112.72   27.54
  -4   2   3   49.02   20.49
  -3   2   3  155.77   16.21
  -6   1   3   60.45   30.89
  -5   1   3    8.14   25.69
  -4   1   3   78.09   20.76
  -3   1   3  267.33   17.02
  -6  -1   3   53.77   29.83
  -5  -1   3  105.27   25.45
  -4  -1   3    7.34   19.83
  -3  -1   3  294.01   16.49
  -5  -2   3  131.75   25.63
  -4  -2   3   49.07   19.20
  -3  -2   3   75.92   13.57
  -6   4   2   27.57   32.43
  -5   4   2   21.80   25.63
  -4   4   2  111.75   21.63
  -3   4   2  401.35   20.08
  -6   3   2   42.11   32.09
  -5   3   2   67.43   26.88
  -4   3   2  118.95   22.09
  -3   3   2  536.57   19.60
  -2   3   2  161.65   11.76
  -6   2   2   16.54   31.02
  -5   2   2    6.64   26.12
  -4   2   2   68.49   21.43
  -3   2   2  508.92   19.00
  -2   2   2  145.52   11.34
  -6   1   2   59.29   31.54
  -5   1   2  129.37   26.36
  -4   1   2   65.12   20.21
  -3   1   2 1049.76   22.46
  -2   1   2  450.68   12.84
  -7  -1   2   14.82   36.76
  -6  -1   2   96.43   30.58
  -5  -1   2   84.97   24.90
  -4  -1   2   74.20   19.76
  -3  -1   2  681.00   19.33
  -2  -1   2  854.26   14.98
  -5  -2   2   18.40   23.82
  -4  -2   2   55.31   20.77
  -3  -2   2  200.80   15.14
  -2  -2   2  479.97   14.07
  -6   4   1   27.73   32.33
  -5   4   1   71.97   26.24
  -4   4   1  126.69   21.95
  -3   4   1  162.61   16.84
  -6   3   1   10.10   31.68
  -5   3   1  -13.41   26.51
  -4   3   1  153.90   22.00
  -3   3   1  279.31   17.37
  -2   3   1  145.32   11.27
  -6   2   1    7.95   29.74
  -5   2   1   25.44   25.60
  -4   2   1   90.98   21.27
  -3   2   1   57.18   14.63
  -2   2   1   89.39   10.20
  -6   1   1   91.24   30.95
  -5   1   1   10.99   25.56
  -4   1   1  133.21   20.69
  -3   1   1  331.47   16.69
  -2   1   1  355.60   11.54
  -6  -1   1   66.38   29.49
  -5  -1   1   16.81   24.15
  -4  -1   1   85.56   19.50
  -3  -1   1  275.41   15.56
  -2  -1   1  516.50   12.37
  -5  -2   1   -4.17   23.50
  -4  -2   1   15.55   19.59
  -3  -2   1  125.38   14.49
  -2  -2   1   32.48    9.07
  -5   4   0    1.76   26.76
  -4   4   0   57.23   22.59
  -3   4   0  251.13   18.80
  -5   3   0   35.59   25.79
  -4   3   0  168.09   21.60
  -3   3   0  193.29   16.84
  -2   3   0  110.68   11.63
  -5   2   0   14.44   25.20
  -4   2   0   23.76   19.79
  -3   2   0  143.03   15.13
  -2   2   0    0.10    8.93
  -5   1   0   18.91   24.85
  -4   1   0   98.43   19.60
  -3   1   0  128.28   14.30
  -2   1   0  381.00   11.19
  -5  -1   0   50.15   23.78
  -4  -1   0   32.55   18.49
  -3  -1   0  127.90   14.36
  -2  -1   0  418.96   11.28
  -4  -2   0   16.59   19.35
  -3  -2   0  146.52   14.51
  -2  -2   0  269.53   11.18
  -3   3  -1  107.02   15.75
  -2   3  -1  112.52   12.09
  -3   2  -1   65.97   14.42
  -2   2  -1   22.37    8.88
  -1  -4   3  106.21   12.40
  -1  -3   2  170.89   10.00
   0  -3   2  224.59   11.38
  -1  -4   2   78.56   13.22
   0  -4   2   41.71   12.67
   1  -4   2   90.75   14.69
   0  -5   2   37.03   16.89
   1  -5   2   35.64   17.78
   0  -6   2   35.64   20.57
   1  -6   2   44.15   22.34
   2  -6   2    6.62   24.40
   1  -7   2    1.41    7.37
   1  -8   2   40.74   29.98
   0  -2   1   31.08    5.92
   1  -2   1  912.70   13.74
   2  -2   1   38.45    9.10
   3  -2   1   49.47   11.91
  -1  -3   1  179.57   10.80
   0  -3   1 1664.88   19.48
   1  -3   1  319.36   13.35
   2  -3   1  127.22   12.96
   3  -3   1  138.52   16.29
  -1  -4   1   95.78   12.12
   0  -4   1   21.07   12.38
   1  -4   1  193.07   15.86
   2  -4   1  186.39   17.61
   3  -4   1   45.81   18.61
   0  -5   1  289.94   19.81
   1  -5   1  120.38   19.39
   2  -5   1   31.65   20.58
   3  -5   1   11.98   21.96
   0  -6   1  100.50   21.15
   1  -6   1   40.47   22.21
   2  -6   1  104.57   25.58
   3  -6   1  105.13   27.31
   0  -7   1   49.08   21.63
   1  -7   1   44.15   18.10
   2  -7   1    7.86   10.61
   1  -8   1   37.31   30.70
   2  -8   1   -5.08   31.57
   2  -1   0  409.43    9.07
   3  -1   0  135.09    9.47
   1  -2   0 2681.83   21.12
   2  -2   0    1.87    8.59
   3  -2   0  138.43   12.41
  -1  -3   0  446.33   12.58
   0  -3   0 2391.63   23.02
   1  -3   0 1665.94   21.61
   2  -3   0  117.25   13.49
   3  -3   0  166.00   15.95
   4  -3   0  140.05   17.84
  -1  -4   0   92.87   12.97
   0  -4   0  346.00   15.68
   1  -4   0 1022.94   22.42
   2  -4   0  183.47   17.50
   3  -4   0  234.56   20.16
   4  -4   0   72.18   21.13
   0  -5   0  416.02   21.17
   1  -5   0  490.96   22.80
   2  -5   0   43.16   21.39
   3  -5   0    0.81   22.96
   4  -5   0   33.82   25.18
   5  -5   0   19.33   26.45
   0  -6   0  131.61   22.05
   1  -6   0  346.04   26.67
   2  -6   0  129.44   25.89
   3  -6   0   34.68   26.47
   4  -6   0   42.42   28.79
   5  -6   0   -0.42   30.83
   0  -7   0   78.99   19.64
   4  -7   0   30.67   34.59
   1  -8   0   94.74   30.89
   2  -8   0   66.86   32.29
   2  -1  -1  371.35    8.79
   3  -1  -1  335.77   11.33
   0  -2  -1  283.93    8.72
   1  -2  -1  173.79    8.94
   2  -2  -1   98.15    9.70
   3  -2  -1   61.18   11.29
   0  -3  -1 1124.38   17.82
   1  -3  -1  777.47   17.06
   2  -3  -1  135.71   13.87
   3  -3  -1  300.80   17.58
   4  -3  -1  159.42   18.25
   0  -4  -1  110.28   14.33
   1  -4  -1   45.01   14.48
   2  -4  -1  202.20   18.28
   3  -4  -1  179.63   19.94
   4  -4  -1   77.40   21.70
   0  -5  -1  232.16   19.31
   1  -5  -1  154.33   20.08
   2  -5  -1   84.53   24.56
   3  -5  -1   47.75   23.63
   4  -5  -1   50.01   25.08
   0  -6  -1  137.42   21.84
   1  -6  -1   32.04   22.45
   2  -6  -1   44.63   25.34
   3  -6  -1  101.05   27.41
   4  -6  -1   53.20   28.71
   5  -6  -1   46.70   30.63
   0  -7  -1   37.73   14.82
   1  -7  -1   69.25   19.55
   1  -8  -1   27.88   30.16
   2  -8  -1    5.52   31.45
   2  -1  -2  408.29    9.62
   3  -1  -2  924.45   15.28
   1  -2  -2  117.28    8.72
   2  -2  -2  150.44   10.83
   3  -2  -2  533.17   16.05
   1  -3  -2  128.37   12.97
   2  -3  -2  222.36   14.81
   3  -3  -2  528.61   20.09
   4  -3  -2  135.78   17.84
   1  -4  -2   53.77   15.27
   2  -4  -2  203.57   18.17
   3  -4  -2  395.38   22.35
   1  -5  -2    4.10   18.93
   2  -5  -2    9.40   21.29
   3  -5  -2   84.13   23.41
   4  -5  -2   29.55   25.18
   1  -6  -2   55.58   23.08
   2  -6  -2   54.04   25.14
   3  -6  -2  116.24   28.14
   4  -6  -2   72.46   28.73
   5  -6  -2    8.78   29.84
   2  -8  -2    5.89   30.58
   3  -3  -3  224.08   16.31
   4  -3  -3  141.39   18.27
   2  -4  -3  181.71   18.09
   3  -4  -3  194.10   20.64
   4  -4  -3   32.51   20.40
   2  -5  -3    3.68   20.15
   3  -5  -3   41.00   23.03
   4  -5  -3   39.21   24.98
   3  -6  -3  142.37   27.91
   4  -6  -3   47.13   27.49
   5  -6  -3   27.63   29.64
  -2  -2   3  112.32   10.45
  -2  -3   3  209.06   15.23
  -2  -4   3  203.30   18.47
  -1  -4   3   83.42   16.00
  -2  -5   3   18.51   21.07
  -1  -5   3   -9.05   20.71
  -2  -6   3   88.06   25.66
  -1  -6   3   60.13   24.70
  -2  -7   3   12.18   12.84
  -1  -7   3   -4.39   29.89
  -1  -8   3    3.71   32.92
  -2  -2   2  508.66   13.41
  -1  -2   2   44.75    7.60
  -2  -3   2  713.80   18.43
  -1  -3   2  148.92   12.64
   0  -3   2  224.28   12.49
  -2  -4   2  586.82   20.59
  -1  -4   2   47.86   16.40
   0  -4   2   29.53   14.26
   1  -4   2   68.47   14.60
  -2  -5   2   97.79   21.38
  -1  -5   2    2.43   19.41
   0  -5   2   16.92   19.24
   1  -5   2   29.18   19.62
  -2  -6   2  206.50   26.69
  -1  -6   2   78.11   24.11
   0  -6   2    7.26   22.51
   1  -6   2   40.26   24.55
   2  -6   2   33.50   24.22
  -2  -7   2  102.33   30.78
  -1  -7   2   42.48   22.03
  -1  -8   2   -2.07   32.06
   0  -8   2   20.11   30.73
   1  -8   2   -5.50   31.94
  -2  -2   1   27.55    9.09
  -1  -2   1  120.32    7.91
   0  -2   1   36.17    6.71
   1  -2   1  916.47   13.08
  -2  -3   1  253.70   14.94
  -1  -3   1  196.84   13.38
   0  -3   1 1628.84   21.17
   1  -3   1  334.84   13.27
   2  -3   1  113.18   11.17
  -2  -4   1  143.59   16.90
  -1  -4   1  117.64   15.90
   0  -4   1   22.31   14.63
   1  -4   1  177.40   15.72
   2  -4   1  204.96   16.40
  -3  -5   1   26.92   20.59
  -2  -5   1   15.69   20.45
  -1  -5   1   18.53   19.31
   0  -5   1  321.76   20.73
   1  -5   1  146.55   19.10
   2  -5   1   11.68   17.97
  -3  -6   1   85.64   24.61
  -2  -6   1  132.28   26.03
  -1  -6   1   58.11   23.62
   0  -6   1   91.66   24.16
   1  -6   1   13.75   23.22
   2  -6   1  100.62   23.63
   0  -7   1   58.35   19.82
   1  -7   1   75.56   22.89
   2  -7   1   12.37   13.79
  -1  -8   1  -13.21   31.00
   0  -8   1   31.51   30.45
   1  -8   1   21.42   32.14
   2  -8   1   15.67   31.77
  -2  -2   0  244.28   10.78
  -1  -2   0   46.86    7.65
   0  -2   0 5443.84   27.61
   1  -2   0 2647.13   19.06
  -2  -3   0   48.52   11.47
  -1  -3   0  452.02   15.53
   0  -3   0 2481.35   24.45
   1  -3   0 1686.85   20.68
   2  -3   0  118.30   11.38
  -2  -4   0  283.49   19.02
  -1  -4   0   84.69   15.41
   0  -4   0  330.11   16.73
   1  -4   0 1029.84   21.07
   2  -4   0  186.22   14.89
  -2  -5   0   -8.01   20.42
  -1  -5   0   71.56   19.59
   0  -5   0  383.68   21.89
   1  -5   0  474.31   21.61
   2  -5   0   52.79   19.66
  -2  -6   0  104.43   25.50
  -1  -6   0   67.56   23.52
   0  -6   0   93.26   23.71
   1  -6   0  379.28   26.26
   2  -6   0  141.85   24.89
  -2  -7   0   -4.84   27.96
   0  -7   0   73.67   18.57
  -1  -8   0    5.57   30.15
   0  -8   0   41.30   31.61
   1  -8   0   72.55   30.37
   2  -8   0   39.22   29.31
   0  -2  -1  239.29    8.38
   1  -2  -1  204.54    7.50
  -1  -3  -1  166.26   12.77
   0  -3  -1 1057.69   17.82
   1  -3  -1  794.89   15.91
   2  -3  -1  144.37   10.93
  -1  -4  -1   32.71   14.59
   0  -4  -1  123.43   15.26
   1  -4  -1   22.13   14.27
   2  -4  -1  231.29   15.18
  -1  -5  -1   15.17   19.51
   0  -5  -1  223.68   20.48
   1  -5  -1  200.16   19.67
   2  -5  -1  -21.06   22.72
  -1  -6  -1   28.62   23.09
   0  -6  -1   81.50   24.34
   1  -6  -1    8.39   23.05
   2  -6  -1   64.06   23.44
   1  -7  -1   10.86   11.73
   2  -7  -1    2.45    5.27
   0  -8  -1   17.27   29.23
   1  -8  -1    0.65   30.23
   2  -8  -1   15.29   28.37
   1  -3  -2  136.78   10.87
   2  -3  -2  203.62   10.82
   0  -4  -2  125.44   14.71
   1  -4  -2   50.93   13.16
   2  -4  -2  178.74   14.75
   0  -5  -2   52.40   19.08
   1  -5  -2   28.22   17.94
   2  -5  -2   30.80   16.11
   1  -6  -2   24.72   21.78
   2  -6  -2   64.31   21.18
   2  -7  -2   -1.14   25.61
  -5   1   4   24.51   22.14
  -6  -1   4   15.93   29.44
  -5  -1   4   31.54   25.14
  -4  -1   4   19.10   20.58
  -6  -2   4    1.35   30.57
  -5  -2   4   -3.05   27.05
  -4  -2   4   38.26   21.60
  -6  -3   4   58.91   32.98
  -5  -3   4   67.38   28.27
  -4  -3   4   86.99   24.40
  -5  -4   4   52.72   30.06
  -4  -4   4    1.22   25.90
  -5  -5   4  -19.24   32.67
  -5   1   3   40.39   20.95
  -4   1   3   40.08   16.72
  -3   1   3  263.32   13.71
  -6  -1   3   37.04   29.28
  -5  -1   3  102.10   25.63
  -4  -1   3   12.08   20.37
  -3  -1   3  341.43   17.72
  -2  -1   3  196.91   11.99
  -6  -2   3   16.46   31.51
  -5  -2   3  123.77   28.32
  -4  -2   3  114.45   22.75
  -3  -2   3  122.05   17.61
  -2  -2   3   87.77   12.64
  -6  -3   3  131.12   36.30
  -5  -3   3  142.40   29.65
  -4  -3   3   77.85   24.08
  -3  -3   3  273.38   20.20
  -2  -3   3  205.39   15.25
  -5  -4   3   45.99   30.97
  -4  -4   3   94.82   25.63
  -3  -4   3   49.86   20.67
  -5  -5   3   12.88   31.69
  -4  -5   3   23.06   26.28
  -3   2   2  477.97   14.30
  -6   1   2   88.96   26.88
  -5   1   2   93.07   21.87
  -4   1   2   47.86   16.41
  -3   1   2 1005.06   19.07
  -2   1   2  413.26   10.37
  -6  -1   2  100.04   30.60
  -5  -1   2   84.96   25.23
  -4  -1   2   61.15   19.62
  -3  -1   2  673.91   20.05
  -2  -1   2  887.51   16.30
  -6  -2   2   52.67   31.50
  -5  -2   2   45.26   26.18
  -4  -2   2   -0.43   23.16
  -3  -2   2  231.87   18.19
  -2  -2   2  564.78   16.86
  -6  -3   2   24.46   34.35
  -5  -3   2   59.72   28.36
  -4  -3   2  127.59   24.61
  -3  -3   2  280.31   20.90
  -2  -3   2  749.29   18.96
  -1  -3   2  141.79   10.13
  -5  -4   2   32.23   30.51
  -4  -4   2   31.51   24.71
  -3  -4   2  150.43   21.08
  -2  -4   2  579.59   20.84
  -5  -5   2   28.12   30.64
  -4  -5   2   11.99   25.80
  -3   2   1   49.30   10.99
  -6   1   1   84.74   27.87
  -5   1   1   24.28   22.58
  -4   1   1  150.78   17.94
  -3   1   1  339.53   14.24
  -2   1   1  369.23    9.46
  -6  -1   1   78.33   30.81
  -5  -1   1   32.27   24.81
  -4  -1   1   81.05   20.63
  -3  -1   1  246.30   16.23
  -2  -1   1  387.72   14.45
  -6  -2   1   43.52   31.47
  -5  -2   1   -0.07   26.50
  -4  -2   1   24.37   21.49
  -3  -2   1  139.66   16.97
  -2  -2   1   33.72   11.87
  -1  -2   1  126.12    8.16
  -6  -3   1   35.26   33.45
  -5  -3   1   20.12   27.91
  -4  -3   1   51.91   23.92
  -3  -3   1  330.21   20.95
  -2  -3   1  245.41   15.45
  -1  -3   1  182.11   10.82
  -5  -4   1   59.66   30.46
  -4  -4   1   36.68   24.26
  -3  -4   1  148.48   21.09
  -2  -4   1  128.86   16.08
  -1  -4   1   91.33   12.03
  -5  -5   1   23.28   32.26
  -4  -5   1   30.87   26.63
  -3   2   0  179.44   12.11
  -5   1   0   48.09   21.90
  -4   1   0   67.30   16.52
  -3   1   0  136.40   12.58
  -2   1   0  397.88    9.81
  -5  -1   0   57.15   25.12
  -4  -1   0    9.88   19.68
  -3  -1   0  127.65   14.99
  -2  -1   0  396.21   12.04
  -5  -2   0   23.70   26.06
  -4  -2   0    5.24   20.50
  -3  -2   0  169.79   16.93
  -2  -2   0  235.42   12.93
  -1  -2   0   47.04    6.80
  -4  -3   0   32.53   23.70
  -3  -3   0  286.59   20.11
  -2  -3   0   68.90   13.80
  -1  -3   0  470.25   12.44
  -4  -4   0   33.03   24.65
  -3  -4   0  118.46   20.81
  -2  -4   0  280.76   17.31
  -1  -4   0   78.34   12.32
  -4  -5   0    0.24   25.77
  -2  -2  -1   62.03   11.89
  -2  -3  -1  123.16   13.31
  -1  -3  -1  212.15   10.99
  -2  -4  -1   39.89   15.37
   2   4   0  239.96   16.84
   3   4   0  130.47   20.51
   4   4   0    0.89   23.51
   1   3   0  467.53   12.61
   2   3   0   73.09   13.57
   3   3   0  201.75   18.92
   4   3   0   39.44   22.22
   1   2   0   54.27    6.86
   2   2   0  260.29   13.26
   3   2   0  116.71   17.18
   4   2   0   21.50   21.75
   2   1   0  433.65   12.86
   3   1   0  105.31   14.99
   4   1   0   33.38   18.25
   5   1   0   21.90   23.67
   2  -1   0  399.10    9.45
   3  -1   0  119.54   11.43
   4  -1   0   62.19   15.50
   4   5  -1   23.07   25.69
   1   4  -1  128.37   12.76
   2   4  -1  202.97   17.13
   3   4  -1  164.38   21.87
   4   4  -1   25.91   24.62
   5   4  -1   -1.89   28.54
   2   3  -1  238.05   15.47
   3   3  -1  247.11   20.07
   4   3  -1   58.83   24.03
   5   3  -1   15.65   28.09
   6   3  -1   10.44   33.22
   2   2  -1   49.98   12.62
   3   2  -1  106.48   17.75
   4   2  -1   18.75   20.24
   5   2  -1   16.68   26.96
   6   2  -1   18.82   29.82
   3   1  -1  266.22   16.82
   4   1  -1   95.58   20.33
   5   1  -1   18.47   23.22
   6   1  -1   90.69   30.86
   3  -1  -1  340.32   13.90
   4  -1  -1  164.11   17.38
   5  -1  -1  -10.13   20.17
   3  -2  -1   44.79   10.07
   4   5  -2   14.19   27.52
   5   5  -2  -12.78   32.22
   2   4  -2  512.12   20.78
   3   4  -2  180.82   22.46
   4   4  -2   20.38   25.81
   5   4  -2   66.73   31.05
   3   3  -2  242.52   21.53
   4   3  -2  100.82   25.21
   5   3  -2   31.67   28.38
   6   3  -2   29.90   34.67
   3   2  -2  240.93   17.80
   4   2  -2   62.54   23.48
   5   2  -2   14.53   25.80
   6   2  -2   20.10   32.79
   4   1  -2   50.18   20.31
   5   1  -2   53.05   26.37
   6   1  -2  121.45   31.39
   4  -1  -2   64.58   17.00
   5  -1  -2   87.76   22.48
   6  -1  -2   42.10   26.52
   4   5  -3   51.28   28.27
   5   5  -3   15.45   34.05
   4   4  -3   79.51   26.53
   5   4  -3   56.62   32.16
   4   3  -3   67.39   25.91
   5   3  -3  143.00   29.95
   4   2  -3   50.35   22.15
   5   2  -3  142.80   30.30
   6   2  -3   -1.33   31.27
   5   1  -3  115.15   26.00
   6   1  -3   35.44   30.46
   5  -1  -3   38.89   23.22
   4   5  -4    2.10   29.72
   5   5  -4   21.13   34.60
   4   4  -4   -9.89   26.91
   5   4  -4   34.09   33.09
   5   3  -4   54.26   29.75
   5   2  -4   51.92   27.63
   6   2  -4   44.04   32.55
   5   1  -4   38.48   26.59
   6   1  -4   26.63   32.03
   5  -1  -4   29.59   23.73
   6   2  -5   -1.00   35.74
   6   1  -5   41.17   31.93
  -2   8   2   35.48   36.04
  -2   7   2   86.10   26.77
  -1   7   2   10.64   20.51
  -2   6   2   68.94   26.23
  -2   8   1  -19.90   33.82
  -1   8   1   18.06   34.25
   0   8   1    2.77   36.58
  -2   7   1   21.37   52.88
  -1   7   1   64.67   26.91
   0   7   1   61.89   24.70
   1   7   1    9.52   24.62
  -2   6   1   54.60   25.72
  -1   6   1   58.57   26.88
  -2   5   1  -43.38   23.16
  -1   5   1  182.10   21.40
  -2   4   1  175.76   16.79
  -2   3   1  155.18   11.94
  -2   2   1   98.81    7.48
  -2   8   0   28.78   34.74
  -1   8   0   81.82   34.86
   0   8   0   12.23   36.57
  -2   7   0   45.37   26.22
  -1   7   0   91.38   22.77
   0   7   0  135.63   23.66
   1   7   0   41.74   25.36
   2   7   0    4.27   16.39
  -2   6   0  140.82   25.78
  -1   6   0  457.89   28.15
   0   6   0  154.90   26.29
   1   6   0  109.95   28.68
   2   6   0   91.84   29.83
  -2   5   0   11.53   20.01
  -1   5   0  451.12   22.91
   0   5   0  361.07   22.80
   1   5   0   72.52   23.42
   3   5   0   24.85   25.01
  -2   4   0  160.27   15.82
  -1   4   0  947.63   22.41
   0   4   0  319.97   17.97
  -2   3   0  116.17   11.40
  -1   3   0 1703.21   21.13
  -2   2   0    4.20    5.84
  -1   2   0 2613.18   19.35
  -2   8  -1   13.83   33.21
  -1   8  -1    0.83   35.26
   0   8  -1   20.15   34.74
  -2   7  -1  181.98   28.04
  -1   7  -1   61.02   26.62
   0   7  -1   47.38   25.19
   2   7  -1   28.08   19.49
   3   7  -1   26.94   28.73
  -2   6  -1  145.24   24.36
  -1   6  -1   61.32   25.92
   0   6  -1   83.41   27.56
   1   6  -1   71.93   28.31
   2   6  -1  139.21   29.33
  -2   5  -1   46.34   18.80
  -1   5  -1  107.77   21.23
   0   5  -1  294.16   22.30
   1   5  -1   31.13   23.35
   2   5  -1   18.50   23.32
   3   5  -1   40.83   24.63
  -2   4  -1  181.27   15.91
  -1   4  -1  184.20   16.76
   0   4  -1   11.41   15.78
   1   4  -1  130.24   17.17
   2   4  -1  167.82   19.96
  -1   3  -1  348.07   13.59
   0   3  -1 1653.65   21.38
   1   3  -1  196.13   15.23
   2   3  -1  205.92   15.00
  -1   2  -1  972.98   13.03
   0   2  -1   19.01    6.62
   1   2  -1  143.63    8.96
   2   2  -1   41.80   10.04
  -1   8  -2   17.78   32.51
   0   8  -2   47.40   33.70
  -1   7  -2   53.57   25.11
   0   7  -2   -5.38   28.51
   1   7  -2   53.92   25.36
   2   7  -2  130.75   26.34
  -1   6  -2   75.31   25.55
   0   6  -2   15.49   23.98
   1   6  -2  115.35   26.14
   2   6  -2  152.05   28.79
  -1   5  -2   57.78   20.17
   0   5  -2   21.29   21.43
   1   5  -2   13.61   22.95
   2   5  -2  121.33   23.05
  -1   4  -2   67.54   14.79
   0   4  -2   30.21   15.42
   1   4  -2   81.31   18.32
   2   4  -2  584.22   22.76
   0   3  -2  214.01   12.41
   1   3  -2  156.39   14.03
   2   3  -2  710.46   18.07
   1   2  -2   30.42    7.57
   2   2  -2  492.06   13.87
   1   7  -3   41.25   33.36
   2   7  -3   42.63   23.97
   1   6  -3   94.01   27.75
   2   6  -3  102.07   27.42
   1   5  -3   30.53   22.49
   2   5  -3   17.10   22.22
   1   4  -3   46.61   17.29
   2   4  -3  198.29   18.85
   1   7   1   38.23   27.56
   1   7   0  -29.59   30.54
   2   7   0   12.15   29.85
   3   7   0   32.74   25.76
   1   6   0   80.99   24.47
   0   5   0  387.90   20.04
  -1   4   0  906.31   15.86
  -1   3   0 1624.50   15.46
   1   7  -1   40.62   29.14
   2   7  -1   21.02   17.37
   3   7  -1    8.79   14.32
   0   6  -1   86.08   21.54
   1   6  -1   45.75   23.99
   2   6  -1   83.00   29.05
   3   6  -1   63.20   30.41
   4   6  -1   35.25   35.90
   0   5  -1  286.01   18.62
   1   5  -1   -1.39   19.31
   2   5  -1   40.38   23.80
   3   5  -1   28.22   26.73
   4   5  -1   -3.16   29.09
   5   5  -1   34.17   36.03
   0   4  -1   14.82   12.53
   1   4  -1  146.12   16.99
   2   4  -1  192.03   21.95
   4   4  -1   38.07   26.41
   5   4  -1   46.04   32.14
   0   3  -1 1692.66   19.60
   1   3  -1  187.52   14.43
   5   3  -1   -3.01   27.99
   0   2  -1   10.07    5.67
   1   2  -1  139.20    9.73
   1   1  -1  159.86    6.49
   1   7  -2   22.61   23.09
   3   7  -2  -56.68   36.95
   1   6  -2  119.25   25.20
   2   6  -2  209.06   28.24
   3   6  -2   93.71   30.32
   4   6  -2  125.15   34.60
   0   5  -2   18.57   15.73
   1   5  -2   20.96   19.85
   2   5  -2   65.32   24.42
   3   5  -2   62.95   27.48
   4   5  -2  -12.95   30.51
   5   5  -2    7.27   34.44
   0   4  -2   16.95   12.38
   1   4  -2   28.67   15.65
   2   4  -2  532.69   23.74
   3   4  -2  176.15   23.94
   4   4  -2   32.60   26.01
   5   4  -2   32.55   31.35
   1   3  -2  132.67   13.73
   2   3  -2  703.21   21.00
   3   3  -2  275.07   22.56
   4   3  -2  132.30   25.31
   5   3  -2   62.16   27.25
   1   2  -2   28.54    8.22
   2   2  -2  545.63   17.04
   3   2  -2  266.54   18.45
   4   2  -2   23.96   22.88
   2   1  -2  867.83   14.92
   3   1  -2  798.39   18.28
   4   1  -2   75.81   16.49
   2   7  -3   76.01   32.75
   2   6  -3  126.38   27.19
   3   6  -3   22.42   31.55
   2   5  -3   51.66   23.75
   3   5  -3   19.63   27.56
   4   5  -3   42.49   31.95
   5   5  -3   57.53   36.21
   2   4  -3  200.98   22.42
   3   4  -3   60.06   23.28
   4   4  -3   25.21   27.45
   5   4  -3   77.41   32.08
   2   3  -3  216.44   18.42
   3   3  -3  249.08   22.28
   4   3  -3   32.82   23.22
   5   3  -3  126.77   28.14
   2   2  -3   93.73   12.37
   3   2  -3  111.31   17.03
   4   2  -3  -17.44   22.01
   3   1  -3  312.39   14.73
   3   5  -4   -3.19   27.90
   4   5  -4   11.77   29.09
   3   4  -4   29.64   23.62
   4   4  -4    1.01   27.92
   5   4  -4   26.74   29.62
   4   3  -4   70.71   24.34
   5   3  -4   39.17   27.16
   0   5   1  216.93   17.81
   1   5   1    7.70   19.88
   2   5   1    4.12   23.58
   0   4   1   85.29   13.04
   1   4   1   64.05   16.79
   2   4   1   53.39   20.19
   0   3   1 1054.58   16.31
   1   3   1  171.21   14.42
   2   3   1   96.15   15.84
   0   2   1  223.42    7.47
   1   2   1  131.17    9.29
   1   7   0   20.76   14.38
   2   7   0   21.96   27.62
   1   6   0   80.19   24.71
   2   6   0   96.48   28.98
   3   6   0   59.99   30.14
   0   5   0  397.13   19.94
   1   5   0   61.10   20.62
   2   5   0   -0.73   24.17
   3   5   0   30.83   26.95
  -1   4   0  936.46   16.71
   0   4   0  335.17   15.35
   1   4   0   78.21   16.80
   2   4   0  287.01   21.61
   3   4   0  159.24   25.03
   4   4   0    2.94   26.01
   0   3   0 2453.10   22.45
   1   3   0  508.33   16.69
   2   3   0   84.23   15.30
   3   3   0  227.90   21.02
   1   2   0   34.75    8.23
   2   2   0  267.22   14.05
   3   2   0  123.09   16.27
   1   1   0  159.28    6.25
   2   1   0  404.21   11.57
   3   1   0  121.08   12.84
   1   7  -1   47.02   28.11
   2   7  -1  -20.80   32.94
   3   7  -1  -11.09   36.25
   1   6  -1   48.98   25.05
   2   6  -1  107.23   29.41
   3   6  -1   88.93   31.40
   4   6  -1   30.93   34.31
   1   5  -1   13.78   21.12
   2   5  -1   42.57   24.73
   3   5  -1   41.43   27.80
   4   5  -1   25.49   30.19
   2   4  -1  144.59   20.57
   3   4  -1  176.40   25.36
   4   4  -1   36.62   26.65
   5   4  -1   51.93   30.33
   2   3  -1  250.80   17.69
   3   3  -1  287.67   21.79
   4   3  -1   57.32   23.93
   5   3  -1    0.63   25.93
   3   2  -1  123.12   16.16
   4   2  -1   29.38   18.69
   3   1  -1  234.57   13.61
   4   1  -1   91.20   17.10
   1   7  -2   33.66   24.62
   2   7  -2   60.16   37.53
   3   7  -2   63.28   28.57
   1   6  -2   94.98   26.51
   2   6  -2  209.13   30.77
   3   6  -2  106.01   32.30
   4   6  -2  129.88   36.34
   2   5  -2   51.80   25.26
   3   5  -2   23.75   27.98
   4   5  -2   14.69   30.55
   5   5  -2   -6.21   34.67
   3   4  -2  189.52   25.11
   4   4  -2   34.90   27.71
   5   4  -2   18.21   31.38
   3   3  -2  291.91   21.61
   4   3  -2   96.80   24.80
   5   3  -2   41.56   27.48
   4   2  -2    1.14   21.23
   4   1  -2   82.15   17.20
   2   7  -3   45.82   30.18
   3   6  -3   28.19   32.44
   4   5  -3   18.98   31.17
   5   5  -3   74.39   36.00
   4   4  -3   49.29   28.43
   5   4  -3   67.60   33.03
   4   3  -3   79.38   24.97
   5   3  -3  149.88   29.87
   4   5  -4    0.97   32.16
   5   4  -4   44.43   32.34
   5   3  -4   78.42   29.58
  -4  -2   4   29.66   17.68
  -5  -3   4   59.72   25.18
  -4  -3   4  104.11   22.82
  -3  -3   4  129.44   18.71
  -5  -4   4   48.56   27.16
  -4  -4   4   20.07   24.48
  -3  -4   4   43.08   22.53
  -5  -5   4    8.21   31.32
  -4  -5   4   26.23   26.92
  -3  -5   4   17.13   23.99
  -4  -1   3   10.65   15.38
  -3  -1   3  292.48   14.51
  -4  -2   3   58.38   19.48
  -3  -2   3   94.29   16.09
  -2  -2   3   97.96   11.82
  -5  -3   3   87.42   25.81
  -4  -3   3   56.06   21.83
  -3  -3   3  224.77   20.79
  -2  -3   3  211.52   16.45
  -5  -4   3   33.17   29.78
  -4  -4   3   71.71   25.99
  -3  -4   3   78.15   22.72
  -2  -4   3  210.79   19.53
  -5  -5   3   17.85   30.76
  -4  -5   3    6.40   26.97
  -3  -5   3   11.92   24.83
  -2  -5   3   52.30   21.28
  -1  -5   3    1.76   17.18
  -4  -6   3   50.61   31.18
  -3  -6   3   61.30   27.60
  -2  -6   3   89.53   25.41
  -2  -7   3   77.60   25.83
  -4  -1   2   66.84   16.00
  -3  -1   2  738.46   17.24
  -2  -1   2  862.75   14.50
  -4  -2   2   -4.06   20.65
  -3  -2   2  229.20   16.64
  -2  -2   2  537.11   16.69
  -1  -2   2   44.28    7.95
  -5  -3   2   52.17   24.91
  -4  -3   2  127.76   22.47
  -3  -3   2  243.25   19.84
  -2  -3   2  733.92   20.39
  -1  -3   2  156.18   12.83
  -5  -4   2   42.69   27.48
  -4  -4   2   22.74   24.86
  -3  -4   2  182.93   22.89
  -2  -4   2  565.17   22.70
  -1  -4   2   64.57   16.02
   0  -4   2   23.66   11.04
  -5  -5   2  -22.06   30.01
  -4  -5   2   18.71   27.76
  -3  -5   2   88.32   25.05
  -2  -5   2   84.74   21.92
  -1  -5   2   26.37   18.27
   0  -5   2   29.13   15.27
  -4  -6   2   25.25   31.47
  -3  -6   2   89.03   28.63
  -2  -6   2  224.39   26.59
  -1  -6   2  108.05   23.00
  -3  -7   2   49.80   28.31
  -2  -7   2   77.36   28.10
  -1  -7   2   -7.36   26.03
  -2  -8   2    3.01   31.60
  -4  -1   1   96.34   16.55
  -3  -1   1  253.59   13.33
  -2  -1   1  498.02   12.02
  -4  -2   1   36.74   18.87
  -3  -2   1  104.95   15.49
  -2  -2   1   29.61   11.50
  -1  -2   1  121.98    8.85
  -5  -3   1   10.57   24.85
  -4  -3   1   34.17   22.60
  -3  -3   1  284.58   20.37
  -2  -3   1  236.54   16.41
  -1  -3   1  174.49   13.44
   0  -3   1 1621.50   18.74
  -5  -4   1   62.10   28.23
  -4  -4   1   28.25   24.91
  -3  -4   1  155.78   22.88
  -2  -4   1  150.94   19.18
  -1  -4   1  101.98   15.81
   0  -4   1   20.66   11.16
  -5  -5   1   -7.16   30.75
  -4  -5   1  -16.20   28.00
  -3  -5   1   46.49   25.00
  -2  -5   1   67.63   21.94
  -1  -5   1   25.70   18.85
   0  -5   1  280.69   16.75
  -4  -6   1   30.34   30.82
  -3  -6   1   74.74   28.92
  -2  -6   1   80.66   25.09
  -1  -6   1   56.49   22.32
  -2  -7   1   35.81   20.01
  -1  -7   1    8.06   12.28
  -2  -8   1   11.10   32.15
  -4  -1   0   33.76   15.77
  -3  -1   0  121.78   12.31
  -2  -1   0  384.00   10.61
  -4  -2   0   16.19   18.87
  -3  -2   0  121.88   15.45
  -2  -2   0  265.05   13.03
  -1  -2   0   48.03    7.80
  -4  -3   0   78.96   22.10
  -3  -3   0  253.77   20.08
  -2  -3   0   70.28   14.49
  -1  -3   0  458.17   15.14
   0  -3   0 2393.69   21.59
  -4  -4   0   26.00   25.51
  -3  -4   0  109.48   21.63
  -2  -4   0  244.40   19.58
  -1  -4   0   85.85   14.90
   0  -4   0  337.14   14.12
   1  -4   0  985.55   15.98
  -4  -5   0   -3.02   27.86
  -3  -5   0   56.66   25.22
  -2  -5   0   43.76   21.42
  -1  -5   0   58.84   19.28
   0  -5   0  365.56   18.62
  -3  -6   0   82.47   28.00
  -2  -6   0  106.45   25.29
  -1  -6   0   70.42   22.32
  -3  -7   0   55.18   27.82
  -1  -7   0   26.47   15.52
  -2  -8   0    7.28   31.98
  -2  -2  -1   82.38   11.78
  -1  -2  -1  134.22    8.45
  -2  -3  -1  100.48   14.33
  -1  -3  -1  199.72   13.03
   0  -3  -1 1108.68   15.65
  -2  -4  -1   50.33   17.19
  -1  -4  -1   52.31   14.13
   0  -4  -1  131.00   12.12
  -2  -5  -1    0.13   21.73
  -1  -5  -1    2.48   18.28
   0  -5  -1  222.44   16.88
  -2  -6  -1   73.27   25.06
  -1  -6  -1   14.88   22.17
   0  -4  -2  127.29   11.84
   0  -5  -2   88.50   16.59
  -4  -2   4   33.12   18.82
  -3  -2   4   70.21   16.39
  -5  -3   4   98.72   25.64
  -4  -3   4   82.79   22.91
  -3  -3   4  116.39   20.26
  -5  -4   4   26.89   27.74
  -4  -4   4    5.54   25.51
  -3  -4   4   51.27   22.65
  -5  -5   4   20.48   32.40
  -4  -5   4   14.79   28.08
  -3  -5   4   26.49   25.70
  -4  -6   4   16.93   30.73
  -3  -6   4   23.60   29.72
  -3  -1   3  296.66   14.30
  -4  -2   3   65.88   19.31
  -3  -2   3   82.79   15.88
  -2  -2   3   93.46   12.42
  -5  -3   3  140.36   25.80
  -4  -3   3   73.55   22.26
  -3  -3   3  270.79   20.64
  -2  -3   3  222.06   17.00
  -5  -4   3   22.81   28.25
  -4  -4   3   91.71   25.49
  -3  -4   3   67.46   22.85
  -2  -4   3  191.01   20.22
  -1  -4   3   81.27   16.45
  -5  -5   3   41.36   30.84
  -4  -5   3    8.03   28.20
  -3  -5   3   22.18   25.65
  -2  -5   3   42.80   22.85
  -1  -5   3    2.67   19.30
  -4  -6   3   40.08   31.03
  -3  -6   3   73.55   28.90
  -2  -6   3  102.75   26.95
  -1  -6   3   31.95   24.00
  -3  -7   3   71.95   33.84
  -4  -1   2   46.52   14.49
  -3  -1   2  715.14   16.70
  -2  -1   2  896.18   14.66
  -4  -2   2  -31.45   21.15
  -3  -2   2  231.82   16.64
  -2  -2   2  491.93   15.96
  -1  -2   2   29.50    8.33
  -5  -3   2   41.16   24.84
  -4  -3   2  125.72   21.81
  -3  -3   2  267.75   20.25
  -2  -3   2  734.16   20.50
  -1  -3   2  165.81   13.06
   0  -3   2  214.38   11.22
  -5  -4   2   29.01   26.94
  -4  -4   2   21.75   23.88
  -3  -4   2  161.61   22.34
  -2  -4   2  596.34   22.77
  -1  -4   2   50.90   15.83
   0  -4   2   42.92   12.55
   1  -4   2   70.65   11.73
  -5  -5   2   -3.20   29.96
  -4  -5   2   25.59   27.52
  -3  -5   2   28.58   24.91
  -2  -5   2   76.32   22.73
  -1  -5   2   47.51   19.33
   0  -5   2    7.82   16.24
  -4  -6   2   26.66   30.64
  -3  -6   2   75.85   28.46
  -2  -6   2  181.47   27.22
  -1  -6   2   98.95   23.01
   0  -6   2   14.65   19.95
  -2  -7   2  -36.06   33.45
  -4  -1   1   61.19   14.92
  -3  -1   1  254.17   13.35
  -2  -1   1  504.76   11.91
  -4  -2   1    6.88   17.45
  -3  -2   1  129.53   14.67
  -2  -2   1   23.84   11.88
  -1  -2   1  124.50    8.88
   0  -2   1   34.97    6.13
  -5  -3   1   18.11   23.07
  -4  -3   1   22.30   20.87
  -3  -3   1  316.96   20.18
  -2  -3   1  274.11   16.58
  -1  -3   1  187.20   13.77
   0  -3   1 1623.75   19.09
   1  -3   1  298.13    9.65
  -5  -4   1   20.89   26.19
  -4  -4   1   19.10   24.05
  -3  -4   1  165.94   22.51
  -2  -4   1  181.51   19.02
  -1  -4   1   78.51   16.00
   0  -4   1   28.83   12.54
   1  -4   1  175.90   12.19
  -5  -5   1  -15.90   28.71
  -4  -5   1    8.20   25.81
  -3  -5   1   40.08   24.29
  -2  -5   1   38.88   21.96
  -1  -5   1    7.78   18.35
   0  -5   1  260.88   18.80
  -4  -6   1   35.06   29.81
  -3  -6   1   79.18   28.71
  -2  -6   1   95.32   26.42
  -1  -6   1   71.95   22.59
   0  -6   1  103.90   20.80
  -3  -7   1   21.92   18.79
  -1  -7   1   -4.55   25.86
  -2  -8   1    5.95   32.03
  -3  -1   0  125.86   11.35
  -2  -1   0  364.71   10.77
  -3  -2   0  130.62   14.65
  -2  -2   0  252.49   13.31
  -1  -2   0   44.08    7.69
  -4  -3   0   37.13   19.89
  -3  -3   0  265.69   19.54
  -2  -3   0   47.79   14.26
  -1  -3   0  447.27   15.30
   0  -3   0 2474.56   21.98
  -4  -4   0   17.39   23.17
  -3  -4   0  115.10   21.90
  -2  -4   0  332.09   20.53
  -1  -4   0   92.49   15.16
   0  -4   0  320.39   14.43
   1  -4   0  923.97   16.45
  -3  -5   0   46.70   24.42
  -2  -5   0   10.94   20.86
  -1  -5   0   42.55   18.94
   0  -5   0  375.06   19.19
  -3  -6   0   51.34   27.06
  -2  -6   0   95.31   25.19
  -1  -6   0   73.98   22.60
  -1  -7   0   -4.29   25.12
  -1  -2  -1  146.36    8.63
  -2  -3  -1   93.47   14.16
  -1  -3  -1  180.12   12.80
   0  -3  -1 1063.11   15.96
  -2  -4  -1   45.95   16.72
  -1  -4  -1   31.23   14.78
   0  -4  -1  119.24   12.36
   1  -4  -1   22.12    9.03
  -2  -5  -1   13.81   20.35
  -1  -5  -1    2.50   17.61
   0  -5  -1  212.49   16.68
  -1  -6  -1   15.73   20.99
   0   0   0    0.00    0.00
;
_shelx_hkl_checksum              90018
_olex2_submission_special_instructions 'No special instructions were received'
loop_
_space_group_symop_operation_xyz
'x, y, z'
loop_
_atom_site_label
_atom_site_type_symbol
_atom_site_fract_x
_atom_site_fract_y
_atom_site_fract_z
_atom_site_U_iso_or_equiv
_atom_site_adp_type
_atom_site_occupancy
_atom_site_site_symmetry_order
_atom_site_calc_flag
_atom_site_refinement_flags_posn
Co1 Co -0.003(4) 0.0000(18) -0.008(5) 0.031(3) Uiso 1 1 d .
O2 O -0.275(6) -0.039(6) 0.105(6) 0.046(7) Uiso 1 1 d D
N1 N 0.003(7) 0.323(5) -0.002(9) 0.019(5) Uiso 1 1 d D
O1 O 0.095(5) 0.007(5) 0.187(8) 0.046(7) Uiso 1 1 d D
N2 N -0.006(4) 0.684(4) -0.014(3) 0.019(5) Uiso 1 1 d D
O1W O 0.333(7) 0.024(4) -0.049(11) 0.018(8) Uiso 1 1 d .
H1WA H 0.3547 0.1080 -0.1181 0.027 Uiso 1 1 d GR
H1WB H 0.4434 0.0711 0.0187 0.027 Uiso 1 1 d GR
C11 C -0.242(8) 0.372(4) -0.001(16) 0.027(12) Uiso 1 1 d D
H11A H -0.3057 0.3149 0.0728 0.032 Uiso 1 1 calc R
H11B H -0.3400 0.3224 -0.0778 0.032 Uiso 1 1 calc R
C8 C -0.327(6) -0.043(6) 0.713(6) 0.027(13) Uiso 1 1 d D
C9 C 0.087(9) 0.396(4) -0.123(10) 0.008(9) Uiso 1 1 d D
H9A H -0.0100 0.3335 -0.1958 0.010 Uiso 1 1 calc R
H9B H 0.2477 0.3651 -0.1246 0.010 Uiso 1 1 calc R
C12 C -0.239(4) 0.589(4) 0.007(8) 0.026(12) Uiso 1 1 d D
H12A H -0.3583 0.6311 -0.0580 0.031 Uiso 1 1 calc R
H12B H -0.2759 0.6270 0.0898 0.031 Uiso 1 1 calc R
O3 O -0.532(5) -0.096(5) 0.733(7) 0.046(7) Uiso 1 1 d D
C7 C -0.119(5) -0.017(5) 0.199(5) 0.016(10) Uiso 1 1 d D
C14 C 0.162(6) 0.624(4) 0.094(3) 0.041(15) Uiso 1 1 d D
H14A H 0.1212 0.6764 0.1732 0.050 Uiso 1 1 calc R
H14B H 0.3179 0.6806 0.0833 0.050 Uiso 1 1 calc R
C10 C 0.077(6) 0.615(3) -0.131(3) 0.026(12) Uiso 1 1 d D
H10A H 0.2318 0.6768 -0.1392 0.031 Uiso 1 1 calc R
H10B H -0.0296 0.6452 -0.2059 0.031 Uiso 1 1 calc R
C13 C 0.169(9) 0.410(4) 0.107(10) 0.026(13) Uiso 1 1 d D
H13A H 0.3266 0.3735 0.1030 0.031 Uiso 1 1 calc R
H13B H 0.1198 0.3678 0.1881 0.031 Uiso 1 1 calc R
C6 C -0.004(6) 0.029(5) 0.427(6) 0.032(6) Uiso 1 1 d .
H6 H 0.1470 0.0690 0.4090 0.038 Uiso 1 1 calc R
C1 C -0.183(8) -0.020(5) 0.328(6) 0.032(6) Uiso 1 1 d DG
C2 C -0.408(7) -0.079(5) 0.355(6) 0.032(6) Uiso 1 1 d G
H2 H -0.5276 -0.1123 0.2883 0.038 Uiso 1 1 calc R
C3 C -0.454(6) -0.089(4) 0.481(6) 0.032(6) Uiso 1 1 d G
H3 H -0.6043 -0.1286 0.4992 0.038 Uiso 1 1 calc R
C4 C -0.275(8) -0.040(5) 0.580(6) 0.032(6) Uiso 1 1 d DG
C5 C -0.050(7) 0.020(4) 0.553(6) 0.032(6) Uiso 1 1 d G
H5 H 0.0703 0.0527 0.6199 0.038 Uiso 1 1 calc R
O4 O -0.171(6) -0.005(5) 0.804(7) 0.046(7) Uiso 1 1 d D
loop_
_atom_type_symbol
_atom_type_description
_atom_type_scat_dispersion_real
_atom_type_scat_dispersion_imag
_atom_type_scat_source
C C 0.0033 0.0016 'International Tables Vol C Tables 4.2.6.8 and 6.1.1.4'
H H 0.0000 0.0000 'International Tables Vol C Tables 4.2.6.8 and 6.1.1.4'
Co Co 0.3494 0.9721 'International Tables Vol C Tables 4.2.6.8 and 6.1.1.4'
N N 0.0061 0.0033 'International Tables Vol C Tables 4.2.6.8 and 6.1.1.4'
O O 0.0106 0.0060 'International Tables Vol C Tables 4.2.6.8 and 6.1.1.4'
loop_
_geom_angle_atom_site_label_1
_geom_angle_atom_site_label_2
_geom_angle_atom_site_label_3
_geom_angle
_geom_angle_site_symmetry_1
_geom_angle_site_symmetry_3
O2 Co1 N1 93.6(19) . .
O2 Co1 N2 86.7(16) . 1_545
O2 Co1 O4 104.9(18) . 1_554
O1 Co1 O2 63.8(15) . .
O1 Co1 N1 89(3) . .
O1 Co1 N2 91(2) . 1_545
O1 Co1 O4 168.4(17) . 1_554
N2 Co1 N1 179.7(16) 1_545 .
O1W Co1 O2 157(3) . .
O1W Co1 N1 89.8(12) . .
O1W Co1 O1 94(3) . .
O1W Co1 N2 89.9(11) . 1_545
O1W Co1 O4 97(3) . 1_554
O4 Co1 N1 90(3) 1_554 .
O4 Co1 N2 90(2) 1_554 1_545
C7 O2 Co1 86(3) . .
C11 N1 Co1 108(2) . .
C11 N1 C9 109(7) . .
C11 N1 C13 113(7) . .
C9 N1 Co1 108(3) . .
C9 N1 C13 108(4) . .
C13 N1 Co1 112(3) . .
C7 O1 Co1 88(3) . .
C12 N2 Co1 111.9(19) . 1_565
C14 N2 Co1 109(3) . 1_565
C14 N2 C12 105.7(13) . .
C14 N2 C10 105.7(13) . .
C10 N2 Co1 112(2) . 1_565
C10 N2 C12 113(5) . .
Co1 O1W H1WA 112.5 . .
Co1 O1W H1WB 113.7 . .
H1WA O1W H1WB 105.4 . .
N1 C11 H11A 110.1 . .
N1 C11 H11B 110.1 . .
N1 C11 C12 108(3) . .
H11A C11 H11B 108.4 . .
C12 C11 H11A 110.1 . .
C12 C11 H11B 110.1 . .
O3 C8 C4 118(3) . .
O4 C8 O3 121(2) . .
O4 C8 C4 121(3) . .
N1 C9 H9A 109.5 . .
N1 C9 H9B 109.5 . .
N1 C9 C10 111(4) . .
H9A C9 H9B 108.1 . .
C10 C9 H9A 109.5 . .
C10 C9 H9B 109.5 . .
N2 C12 C11 112(3) . .
N2 C12 H12A 109.3 . .
N2 C12 H12B 109.3 . .
C11 C12 H12A 109.3 . .
C11 C12 H12B 109.3 . .
H12A C12 H12B 107.9 . .
O2 C7 O1 122(3) . .
O2 C7 C1 120(3) . .
O1 C7 C1 118(4) . .
N2 C14 H14A 108.6 . .
N2 C14 H14B 108.6 . .
N2 C14 C13 115(4) . .
H14A C14 H14B 107.5 . .
C13 C14 H14A 108.6 . .
C13 C14 H14B 108.6 . .
N2 C10 C9 108(4) . .
N2 C10 H10A 110.0 . .
N2 C10 H10B 110.0 . .
C9 C10 H10A 110.0 . .
C9 C10 H10B 110.0 . .
H10A C10 H10B 108.4 . .
N1 C13 C14 106(4) . .
N1 C13 H13A 110.6 . .
N1 C13 H13B 110.6 . .
C14 C13 H13A 110.6 . .
C14 C13 H13B 110.6 . .
H13A C13 H13B 108.8 . .
C1 C6 H6 120.0 . .
C1 C6 C5 120.0 . .
C5 C6 H6 120.0 . .
C6 C1 C7 117(3) . .
C2 C1 C7 123(3) . .
C2 C1 C6 120.0 . .
C1 C2 H2 120.0 . .
C3 C2 C1 120.0 . .
C3 C2 H2 120.0 . .
C2 C3 H3 120.0 . .
C2 C3 C4 120.0 . .
C4 C3 H3 120.0 . .
C3 C4 C8 120(3) . .
C5 C4 C8 120(3) . .
C5 C4 C3 120.0 . .
C6 C5 H5 120.0 . .
C4 C5 C6 120.0 . .
C4 C5 H5 120.0 . .
C8 O4 Co1 158(3) . 1_556
loop_
_geom_bond_atom_site_label_1
_geom_bond_atom_site_label_2
_geom_bond_distance
_geom_bond_site_symmetry_2
Co1 O2 2.08(5) .
Co1 N1 2.26(4) .
Co1 O1 2.06(9) .
Co1 N2 2.21(3) 1_545
Co1 O1W 2.03(3) .
Co1 O4 2.09(7) 1_554
O2 C7 1.250(3) .
N1 C11 1.48(3) .
N1 C9 1.49(3) .
N1 C13 1.49(3) .
O1 C7 1.250(3) .
N2 Co1 2.21(3) 1_565
N2 C12 1.480(3) .
N2 C14 1.48(3) .
N2 C10 1.480(3) .
O1W H1WA 0.9498 .
O1W H1WB 0.9309 .
C11 H11A 0.9700 .
C11 H11B 0.9700 .
C11 C12 1.52(3) .
C8 O3 1.249(3) .
C8 C4 1.47(3) .
C8 O4 1.24(3) .
C9 H9A 0.9700 .
C9 H9B 0.9700 .
C9 C10 1.54(3) .
C12 H12A 0.9700 .
C12 H12B 0.9700 .
C7 C1 1.45(3) .
C14 H14A 0.9700 .
C14 H14B 0.9700 .
C14 C13 1.51(3) .
C10 H10A 0.9700 .
C10 H10B 0.9700 .
C13 H13A 0.9700 .
C13 H13B 0.9700 .
C6 H6 0.9300 .
C6 C1 1.3900 .
C6 C5 1.3900 .
C1 C2 1.3900 .
C2 H2 0.9300 .
C2 C3 1.3900 .
C3 H3 0.9300 .
C3 C4 1.3900 .
C4 C5 1.3900 .
C5 H5 0.9300 .
O4 Co1 2.09(7) 1_556
loop_
_geom_torsion_atom_site_label_1
_geom_torsion_atom_site_label_2
_geom_torsion_atom_site_label_3
_geom_torsion_atom_site_label_4
_geom_torsion
_geom_torsion_site_symmetry_1
_geom_torsion_site_symmetry_4
Co1 O2 C7 O1 -2(4) . .
Co1 O2 C7 C1 178(3) . .
Co1 N1 C11 C12 179(7) . .
Co1 N1 C9 C10 175(4) . .
Co1 N1 C13 C14 177(4) . .
Co1 O1 C7 O2 2(4) . .
Co1 O1 C7 C1 -178(3) . .
Co1 N2 C12 C11 179(7) 1_565 .
Co1 N2 C14 C13 177(4) 1_565 .
Co1 N2 C10 C9 176(4) 1_565 .
O2 C7 C1 C6 -172(3) . .
O2 C7 C1 C2 12(5) . .
N1 C11 C12 N2 10(12) . .
N1 C9 C10 N2 2(4) . .
O1 C7 C1 C6 8(4) . .
O1 C7 C1 C2 -168(3) . .
N2 C14 C13 N1 3(4) . .
C11 N1 C9 C10 59(6) . .
C11 N1 C13 C14 -61(6) . .
C8 C4 C5 C6 -178(3) . .
C9 N1 C11 C12 -65(10) . .
C9 N1 C13 C14 59(4) . .
C12 N2 C14 C13 57(4) . .
C12 N2 C10 C9 -57(4) . .
O3 C8 C4 C3 2(5) . .
O3 C8 C4 C5 179(3) . .
O3 C8 O4 Co1 18(12) . 1_556
C7 C1 C2 C3 176(3) . .
C14 N2 C12 C11 -63(8) . .
C14 N2 C10 C9 58(4) . .
C10 N2 C12 C11 52(7) . .
C10 N2 C14 C13 -63(4) . .
C13 N1 C11 C12 54(11) . .
C13 N1 C9 C10 -64(4) . .
C6 C1 C2 C3 0.0 . .
C1 C6 C5 C4 0.0 . .
C1 C2 C3 C4 0.0 . .
C2 C3 C4 C8 178(3) . .
C2 C3 C4 C5 0.0 . .
C3 C4 C5 C6 0.0 . .
C4 C8 O4 Co1 -158(7) . 1_556
C5 C6 C1 C7 -176(3) . .
C5 C6 C1 C2 0.0 . .
O4 C8 C4 C3 178(3) . .
O4 C8 C4 C5 -4(5) . .
