#------------------------------------------------------------------------------
#$Date: 2019-11-24 04:12:18 +0200 (Sun, 24 Nov 2019) $
#$Revision: 236652 $
#$URL: file:///home/coder/svn-repositories/cod/cif/8/00/03/8000360.cif $
#------------------------------------------------------------------------------
#
# This file is available in the Crystallography Open Database (COD),
# http://www.crystallography.net/
#
# All data on this site have been placed in the public domain by the
# contributors.
#
data_8000360
loop_
_publ_author_name
'Andrzejewski, Micha\/l'
'Katrusiak, Andrzej'
_publ_section_title
;
 Piezochromic Porous Metal-Organic Framework.
;
_journal_issue                   1
_journal_name_full               'The journal of physical chemistry letters'
_journal_page_first              279
_journal_page_last               284
_journal_paper_doi               10.1021/acs.jpclett.6b02458
_journal_volume                  8
_journal_year                    2017
_chemical_formula_moiety         'C14 H18 Co N2 O5'
_chemical_formula_sum            'C14 H18 Co N2 O5'
_chemical_formula_weight         353.23
_chemical_name_common            AMU1
_chemical_name_systematic
;
Co(1,4-benzenedicarboxylate)(1,4-diazabicyclo[2.2.2]octane)H2O
;
_space_group_crystal_system      monoclinic
_space_group_IT_number           6
_space_group_name_Hall           'P -2y'
_space_group_name_H-M_alt        'P 1 m 1'
_atom_sites_solution_hydrogens   mixed
_atom_sites_solution_primary     direct
_audit_creation_date             2016-07-12
_audit_creation_method
;
Olex2 1.2
(compiled 2016.02.19 svn.r3266 for OlexSys, GUI svn.r5155)
;
_cell_angle_alpha                90
_cell_angle_beta                 95.116(2)
_cell_angle_gamma                90
_cell_formula_units_Z            1
_cell_length_a                   6.09470(10)
_cell_length_b                   7.09440(10)
_cell_length_c                   10.6845(2)
_cell_measurement_reflns_used    1614
_cell_measurement_temperature    230(2)
_cell_measurement_theta_max      146.486
_cell_measurement_theta_min      8.302
_cell_volume                     460.139(13)
_computing_molecular_graphics    'Olex2 (Dolomanov et al., 2009)'
_computing_publication_material  'Olex2 (Dolomanov et al., 2009)'
_computing_structure_refinement  'ShelXL (Sheldrick, 2015)'
_computing_structure_solution    'ShelXS (Sheldrick, 2008)'
_diffrn_ambient_temperature      230(2)
_diffrn_measured_fraction_theta_full 0.997
_diffrn_measured_fraction_theta_max 0.973
_diffrn_measurement_device_type  'multiwire proportional'
_diffrn_measurement_method       'phi and omega scans'
_diffrn_radiation_monochromator  graphite
_diffrn_radiation_wavelength     1.5405
_diffrn_reflns_av_R_equivalents  0.0371
_diffrn_reflns_av_unetI/netI     0.0306
_diffrn_reflns_Laue_measured_fraction_full 0.997
_diffrn_reflns_Laue_measured_fraction_max 0.973
_diffrn_reflns_limit_h_max       6
_diffrn_reflns_limit_h_min       -7
_diffrn_reflns_limit_k_max       8
_diffrn_reflns_limit_k_min       -8
_diffrn_reflns_limit_l_max       12
_diffrn_reflns_limit_l_min       -13
_diffrn_reflns_number            4380
_diffrn_reflns_point_group_measured_fraction_full 0.997
_diffrn_reflns_point_group_measured_fraction_max 0.974
_diffrn_reflns_theta_full        67.563
_diffrn_reflns_theta_max         73.243
_diffrn_reflns_theta_min         4.151
_exptl_absorpt_coefficient_mu    7.506
_exptl_absorpt_correction_T_max  0.472
_exptl_absorpt_correction_T_min  0.467
_exptl_absorpt_correction_type   multi-scan
_exptl_absorpt_process_details
;
Data were collected and reduced by program CrysAlisPro, 
and SCALE3 ABSPACK was used for absorption correction
;
_exptl_crystal_colour            purple
_exptl_crystal_density_diffrn    1.275
_exptl_crystal_description       plate
_exptl_crystal_F_000             183
_exptl_crystal_size_max          0.3
_exptl_crystal_size_mid          0.1
_exptl_crystal_size_min          0.1
_refine_diff_density_max         0.769
_refine_diff_density_min         -0.801
_refine_diff_density_rms         0.142
_refine_ls_abs_structure_details
;
 Refined as a perfect inversion twin.
;
_refine_ls_abs_structure_Flack   0.5
_refine_ls_extinction_method     none
_refine_ls_goodness_of_fit_ref   1.068
_refine_ls_hydrogen_treatment    mixed
_refine_ls_matrix_type           full
_refine_ls_number_parameters     123
_refine_ls_number_reflns         1614
_refine_ls_number_restraints     96
_refine_ls_restrained_S_all      1.055
_refine_ls_R_factor_all          0.1043
_refine_ls_R_factor_gt           0.1013
_refine_ls_shift/su_max          0.000
_refine_ls_shift/su_mean         0.000
_refine_ls_structure_factor_coef Fsqd
_refine_ls_weighting_details
'w=1/[\s^2^(Fo^2^)+(0.1567P)^2^+3.7286P] where P=(Fo^2^+2Fc^2^)/3'
_refine_ls_weighting_scheme      calc
_refine_ls_wR_factor_gt          0.2647
_refine_ls_wR_factor_ref         0.2689
_reflns_Friedel_coverage         0.993
_reflns_Friedel_fraction_full    0.998
_reflns_Friedel_fraction_max     0.974
_reflns_number_gt                1573
_reflns_number_total             1614
_reflns_threshold_expression     'I > 2\s(I)'
_cod_data_source_file            jz6b02458_si_004.cif
_cod_data_source_block           230K_Pm
_cod_database_code               8000360
_shelx_space_group_comment
;
The symmetry employed for this shelxl refinement is uniquely defined
by the following loop, which should always be used as a source of
symmetry information in preference to the above space-group names.
They are only intended as comments.
;
_olex2_refinement_description
;
1. Fixed Uiso
 At 1.2 times of:
  All C(H,H) groups, H2 of C2, H5 of C5, H3 of C3, H6 of C6
 At 1.5 times of:
  All O(H) groups, H1WB of C10
2. Restrained distances
 O1W-H1WA
 0.97 with sigma of 0.02
 H1WB-O1W
 0.97 with sigma of 0.02
 O2_$2-H1WB
 1.8 with sigma of 0.02
 H1WB-H1WA
 1.66 with sigma of 0.02
3. Uiso/Uaniso restraints and constraints
Uanis(C6) \\sim Ueq, Uanis(O2) \\sim Ueq, Uanis(O1) \\sim Ueq, Uanis(O4) \\sim
Ueq, Uanis(C7) \\sim Ueq, Uanis(C4) \\sim Ueq, Uanis(C2) \\sim Ueq, Uanis(C5)
\\sim Ueq, Uanis(C1) \\sim Ueq, Uanis(C8) \\sim Ueq, Uanis(C3) \\sim Ueq,
Uanis(O3) \\sim Ueq: with sigma of 0.001 and sigma for terminal atoms of 0.002
Uanis(C9) \\sim Ueq, Uanis(C11) \\sim Ueq: with sigma of 0.001 and sigma for
terminal atoms of 0.002
Uanis(O1W) \\sim Ueq: with sigma of 0.001 and sigma for terminal atoms of 0.002
4.a Secondary CH2 refined with riding coordinates:
 C11(H11A,H11B), C9(H9A,H9), C10(H10A,H10B)
4.b Aromatic/amide H refined with riding coordinates:
 C6(H6), C2(H2), C5(H5), C3(H3)
4.c Tetrahedral OH refined with riding coordinates:
 O1W(H1WA)
;
_shelx_hkl_file
;
  -7  -2  -1    2.36    0.32
  -7  -2   0    9.25    0.58
  -7  -1  -2    3.54    0.42
  -7  -1  -1    3.35    0.33
  -7  -1   0   14.39    0.64
  -7   0  -2   14.11    0.69
  -7   0  -1    5.98    0.59
  -7   0   0   12.67    1.03
  -7   0   1    6.44    0.69
  -7   0   2   12.07    0.95
  -7   0   3    1.89    0.44
  -7   0   4    1.70    0.49
  -7   1   1    5.18    0.46
  -7   1   2    8.89    0.56
  -7   1   3    0.94    0.24
  -7   1   4    4.14    0.40
  -7   2   1    1.20    0.44
  -7   2   2    3.17    0.54
  -7   2   3    1.04    0.29
  -7   2   4    1.08    0.29
  -7   3   1    3.72    0.39
  -7   3   2    5.71    0.51
  -7   3   3    1.41    0.28
  -6  -5  -1    1.07    0.26
  -6  -5   0    0.66    0.24
  -6  -4  -4    6.74    0.49
  -6  -4  -3    5.25    0.57
  -6  -4  -2    6.64    0.60
  -6  -4  -1   11.55    0.94
  -6  -4   0   19.57    0.71
  -6  -3  -4   18.13    1.04
  -6  -3  -3   17.43    1.03
  -6  -3  -2   13.77    1.06
  -6  -3  -1   16.64    1.09
  -6  -3   0    9.53    0.84
  -6  -2  -4   15.25    0.99
  -6  -2  -3    8.54    0.87
  -6  -2  -2    6.48    0.45
  -6  -2  -1   10.65    0.75
  -6  -2   0    9.82    0.51
  -6  -1  -4   15.55    1.21
  -6  -1  -3    8.17    0.60
  -6  -1  -2    8.47    0.61
  -6  -1  -1   20.09    0.88
  -6  -1   0   35.21    1.21
  -6   0  -3   26.23    1.31
  -6   0  -2   20.74    1.06
  -6   0  -1   23.09    1.05
  -6   0   0    9.05    1.14
  -6   0   1   11.42    1.33
  -6   0   2   20.41    1.33
  -6   0   3   44.62    2.07
  -6   0   4   29.72    1.60
  -6   0   5   22.25    1.01
  -6   0   6   14.60    1.13
  -6   0   7    8.33    0.97
  -6   0   8    3.94    0.61
  -6   1   1   35.35    1.29
  -6   1   2   27.37    1.20
  -6   1   3   23.14    0.69
  -6   1   4   14.33    0.75
  -6   1   5   10.69    0.61
  -6   1   6    8.76    0.59
  -6   1   7    8.23    0.60
  -6   1   8    3.98    0.48
  -6   2   1   10.82    0.60
  -6   2   2   10.90    0.42
  -6   2   3   18.12    0.59
  -6   2   4    5.96    0.71
  -6   2   5    5.18    0.55
  -6   2   6    6.23    0.70
  -6   2   7    3.91    0.55
  -6   2   8    1.82    0.44
  -6   3   1   14.04    0.73
  -6   3   2   14.99    0.64
  -6   3   3   20.32    0.79
  -6   3   4   11.31    0.67
  -6   3   5   11.58    0.82
  -6   3   6   13.82    0.70
  -6   4   1   20.58    0.81
  -6   4   2   15.99    0.71
  -6   4   3    9.91    0.58
  -6   4   4    6.03    0.58
  -6   4   5    6.14    0.48
  -6   5   1    0.85    0.26
  -6   5   2    1.08    0.32
  -6   5   3    5.16    0.34
  -5  -6  -2    8.16    0.57
  -5  -6  -1    3.25    0.36
  -5  -6   0    4.95    0.55
  -5  -5  -5    2.53    0.29
  -5  -5  -4    5.43    0.50
  -5  -5  -3    7.83    0.76
  -5  -5  -2   19.60    0.72
  -5  -5  -1    0.03    0.21
  -5  -5   0    0.18    0.15
  -5  -4  -7    4.12    0.28
  -5  -4  -6    5.26    0.56
  -5  -4  -5    5.08    0.36
  -5  -4  -4    2.38    0.32
  -5  -4  -3    1.17    0.43
  -5  -4  -2   12.47    0.93
  -5  -4  -1    3.18    0.35
  -5  -4   0    7.08    0.48
  -5  -3  -8    3.45    0.42
  -5  -3  -7    2.80    0.49
  -5  -3  -6    6.85    0.42
  -5  -3  -5    6.32    0.59
  -5  -3  -4   16.66    0.98
  -5  -3  -3   28.26    1.11
  -5  -3  -2   68.27    1.71
  -5  -3  -1    6.04    0.29
  -5  -3   0    7.63    0.51
  -5  -2  -8    1.56    0.40
  -5  -2  -7    1.37    0.39
  -5  -2  -6    8.86    0.44
  -5  -2  -5    7.48    0.57
  -5  -2  -4    7.28    0.60
  -5  -2  -3    9.81    0.65
  -5  -2  -2   52.25    1.17
  -5  -2  -1    3.41    0.41
  -5  -2   0    2.27    0.31
  -5  -1  -9    9.30    0.55
  -5  -1  -8   10.16    0.51
  -5  -1  -7    6.51    0.63
  -5  -1  -6   15.01    0.65
  -5  -1  -5   10.15    0.39
  -5  -1  -4    4.26    0.29
  -5  -1  -3    1.70    0.36
  -5  -1  -2   43.01    1.06
  -5  -1  -1    8.38    0.47
  -5  -1   0   12.90    0.35
  -5   0  -8    3.22    0.68
  -5   0  -7    3.41    1.09
  -5   0  -6   13.27    1.15
  -5   0  -5   12.07    1.07
  -5   0  -4   36.88    1.99
  -5   0  -3   61.91    1.70
  -5   0  -2  155.88    3.55
  -5   0  -1   11.87    0.70
  -5   0   0    8.77    0.71
  -5   0   1   13.97    0.85
  -5   0   2   47.11    1.21
  -5   0   3   54.92    1.44
  -5   0   4   30.53    1.96
  -5   0   5   60.23    2.25
  -5   0   6   68.26    2.87
  -5   0   7   22.89    1.51
  -5   0   8   10.29    0.95
  -5   0   9    7.83    0.74
  -5   0  10    6.95    0.71
  -5   1   1    8.06    0.38
  -5   1   2   24.41    0.67
  -5   1   3   17.26    0.67
  -5   1   4    1.37    0.27
  -5   1   5    6.22    0.40
  -5   1   6   12.47    0.62
  -5   1   7    8.49    0.52
  -5   1   8    2.17    0.40
  -5   1   9    3.28    0.42
  -5   1  10    6.86    0.72
  -5   2   1    3.31    0.25
  -5   2   2   11.91    0.57
  -5   2   3   19.55    0.54
  -5   2   4    3.32    0.28
  -5   2   5   12.42    0.46
  -5   2   6   21.17    0.86
  -5   2   7    8.20    0.38
  -5   2   8    3.39    0.54
  -5   2   9    2.45    0.44
  -5   2  10    3.70    0.44
  -5   3   1   11.05    0.57
  -5   3   2   26.17    0.75
  -5   3   3   36.37    0.88
  -5   3   4   10.45    0.53
  -5   3   5   26.23    0.78
  -5   3   6   33.78    0.77
  -5   3   7   10.10    0.71
  -5   3   8    8.55    0.69
  -5   3   9    6.63    0.54
  -5   4   1    8.28    0.51
  -5   4   2   11.37    0.50
  -5   4   3   11.10    0.52
  -5   4   4    0.34    0.28
  -5   4   5    4.26    0.28
  -5   4   6    4.90    0.40
  -5   4   7    3.54    0.39
  -5   5   1    0.84    0.20
  -5   5   2    2.28    0.23
  -5   5   3    9.16    0.48
  -5   5   4    2.37    0.33
  -5   5   5    9.24    0.76
  -5   5   6   11.56    0.72
  -5   5   7    4.56    0.29
  -5   6   1    4.54    0.61
  -5   6   2    5.44    0.48
  -5   6   3    7.05    0.50
  -5   6   4    1.04    0.29
  -5   6   5    2.80    0.30
  -4  -7  -3    5.31    0.46
  -4  -7  -2    7.48    0.60
  -4  -7  -1    0.87    0.35
  -4  -7   0    3.77    0.24
  -4  -6  -6    0.63    0.21
  -4  -6  -5    2.03    0.22
  -4  -6  -4    2.76    0.35
  -4  -6  -3    7.26    0.45
  -4  -6  -2   13.17    0.70
  -4  -6  -1    1.95    0.36
  -4  -6   0    8.30    0.47
  -4  -5  -7   10.09    0.64
  -4  -5  -6    3.57    0.28
  -4  -5  -5    7.54    0.56
  -4  -5  -4    9.62    0.53
  -4  -5  -3   21.20    0.88
  -4  -5  -2   24.02    0.60
  -4  -5  -1    3.80    0.35
  -4  -5   0   10.10    0.38
  -4  -4  -8   11.23    0.42
  -4  -4  -7   15.23    0.63
  -4  -4  -6    0.58    0.25
  -4  -4  -5    1.91    0.24
  -4  -4  -4    5.98    0.47
  -4  -4  -3    7.71    0.41
  -4  -4  -2   20.54    0.72
  -4  -4  -1    0.59    0.22
  -4  -4   0    9.73    0.70
  -4  -3  -9   21.01    0.50
  -4  -3  -8   19.08    0.60
  -4  -3  -7   29.41    0.90
  -4  -3  -6    5.50    0.36
  -4  -3  -5   17.90    0.81
  -4  -3  -4   33.01    1.04
  -4  -3  -3   49.26    1.14
  -4  -3  -2   75.62    1.32
  -4  -3  -1   11.44    0.42
  -4  -3   0   43.57    0.85
  -4  -2 -10    6.62    0.29
  -4  -2  -8   12.92    0.73
  -4  -2  -7   24.11    0.66
  -4  -2  -6    5.99    0.43
  -4  -2  -5    8.60    0.48
  -4  -2  -4   23.26    0.95
  -4  -2  -3   32.16    0.65
  -4  -2  -2   54.10    1.37
  -4  -2  -1    0.91    0.15
  -4  -2   0   29.74    0.72
  -4  -1 -10    6.28    0.52
  -4  -1  -9   26.28    1.00
  -4  -1  -8   17.72    0.73
  -4  -1  -7   32.06    1.01
  -4  -1  -6    2.71    0.27
  -4  -1  -5    5.29    0.47
  -4  -1  -4   11.77    0.38
  -4  -1  -3   25.53    0.58
  -4  -1  -2   37.01    1.04
  -4  -1   0   26.44    0.91
  -4   0 -10    9.80    0.67
  -4   0  -9   41.85    1.67
  -4   0  -8   26.69    1.82
  -4   0  -7   50.23    2.02
  -4   0  -6   15.29    0.81
  -4   0  -5   49.45    1.20
  -4   0  -4   93.03    3.53
  -4   0  -3  122.15    2.61
  -4   0  -1   27.21    0.88
  -4   0   0   84.16    1.53
  -4   0   1   54.94    1.40
  -4   0   2   27.83    2.03
  -4   0   3   43.82    1.18
  -4   0   4   54.77    1.50
  -4   0   5  121.97    1.65
  -4   0   6   53.84    3.18
  -4   0   7   67.15    2.48
  -4   0   8   16.37    1.50
  -4   0   9    5.19    1.07
  -4   0  10    2.10    0.89
  -4   0  11    0.49    0.55
  -4   1   1   30.58    1.39
  -4   1   2   19.96    0.53
  -4   1   3    9.61    0.25
  -4   1   4    0.11    0.16
  -4   1   5   10.96    0.56
  -4   1   6    4.45    0.66
  -4   1   7   35.78    0.97
  -4   1   8    9.52    0.53
  -4   1   9    9.68    0.60
  -4   1  10    1.82    0.50
  -4   1  11    2.36    0.43
  -4   2   1   15.28    0.53
  -4   2   2    8.74    0.27
  -4   2   3    7.41    0.30
  -4   2   4    2.59    0.44
  -4   2   5   11.45    0.51
  -4   2   6   18.28    0.97
  -4   2   7   32.56    0.74
  -4   2   8    3.86    0.39
  -4   2   9    3.04    0.33
  -4   2  10    0.71    0.64
  -4   2  11    1.55    0.44
  -4   3   1   37.99    0.83
  -4   3   2   20.13    0.62
  -4   3   3   19.77    0.64
  -4   3   4   17.11    0.59
  -4   3   5   30.28    0.86
  -4   3   6   52.77    0.92
  -4   3   7   43.36    0.66
  -4   3   8    9.73    0.54
  -4   3   9    5.12    0.36
  -4   3  10    1.37    0.69
  -4   4   1   15.08    0.72
  -4   4   2   15.92    0.58
  -4   4   3    7.83    0.35
  -4   4   4    0.50    0.31
  -4   4   5    1.33    0.39
  -4   4   6    1.91    0.59
  -4   4   7   11.46    0.58
  -4   4   8    3.31    0.30
  -4   4   9    4.37    0.38
  -4   5   1    2.42    0.55
  -4   5   2    0.90    0.36
  -4   5   3    4.30    0.49
  -4   5   4    5.43    0.40
  -4   5   5    9.08    0.77
  -4   5   6    8.36    0.60
  -4   5   7   13.79    0.36
  -4   5   8    2.46    0.31
  -4   6   1    9.34    0.45
  -4   6   2    8.64    0.41
  -4   6   3    5.33    0.35
  -4   6   4    0.06    0.33
  -4   6   5    3.07    0.49
  -4   6   6    5.50    0.66
  -4   6   7    5.71    0.37
  -4   7   1    4.41    0.38
  -4   7   2    3.08    0.43
  -4   7   3    2.70    0.22
  -4   7   4    0.52    0.18
  -3  -8   0    4.27    0.25
  -3  -7  -5    4.76    0.25
  -3  -7  -4    6.77    0.36
  -3  -7  -3    4.67    0.41
  -3  -7  -2    3.92    0.44
  -3  -7  -1    2.91    0.42
  -3  -7   0    5.05    0.56
  -3  -6  -7    5.20    0.37
  -3  -6  -6    3.47    0.42
  -3  -6  -5   12.81    0.78
  -3  -6  -4   12.15    1.08
  -3  -6  -3   12.05    0.69
  -3  -6  -2   12.96    0.56
  -3  -6  -1   12.31    0.61
  -3  -6   0   17.36    0.69
  -3  -5  -9    6.29    0.35
  -3  -5  -8    8.18    0.61
  -3  -5  -7   19.76    0.76
  -3  -5  -6    1.50    0.57
  -3  -5  -5    5.33    0.93
  -3  -5  -4   10.09    1.25
  -3  -5  -3    4.01    0.35
  -3  -5  -2    5.80    0.43
  -3  -5  -1   15.52    0.46
  -3  -5   0   24.87    0.79
  -3  -4 -10    3.79    0.38
  -3  -4  -9    9.69    0.40
  -3  -4  -8   11.66    0.46
  -3  -4  -7    6.92    0.94
  -3  -4  -6    5.28    0.63
  -3  -4  -5   19.13    1.24
  -3  -4  -4   20.72    1.29
  -3  -4  -3   22.05    0.61
  -3  -4  -2   22.28    0.44
  -3  -4  -1   19.84    0.50
  -3  -4   0   26.71    0.68
  -3  -3 -10    9.52    0.40
  -3  -3  -9   15.83    0.52
  -3  -3  -8   21.95    0.99
  -3  -3  -7   25.72    1.16
  -3  -3  -6   20.79    1.74
  -3  -3  -5   52.83    1.19
  -3  -3  -4   85.10    1.97
  -3  -3  -3   56.54    1.06
  -3  -3  -2   45.54    2.52
  -3  -3  -1   56.68    1.13
  -3  -3   0   82.83    2.16
  -3  -2 -11    5.23    0.46
  -3  -2  -9    8.96    0.63
  -3  -2  -8   20.95    0.57
  -3  -2  -7   24.94    1.22
  -3  -2  -6    8.54    0.43
  -3  -2  -5   19.96    1.19
  -3  -2  -4   46.32    1.23
  -3  -2  -3   28.73    1.18
  -3  -2  -2   20.68    0.79
  -3  -2  -1   35.51    1.29
  -3  -2   0   35.56    0.69
  -3  -1 -11   10.42    0.55
  -3  -1 -10    5.54    0.52
  -3  -1  -9   12.21    0.62
  -3  -1  -8   26.11    0.93
  -3  -1  -7   19.26    0.57
  -3  -1  -6   15.43    1.64
  -3  -1  -5   26.82    0.49
  -3  -1  -4   46.70    2.41
  -3  -1  -3   44.56    1.11
  -3  -1  -2   47.08    1.35
  -3  -1  -1   36.59    0.63
  -3  -1   0   62.84    3.17
  -3   0 -10   10.97    0.80
  -3   0  -9   24.50    1.72
  -3   0  -8   47.08    1.29
  -3   0  -7   58.47    1.68
  -3   0  -6   45.24    1.64
  -3   0  -5   73.07    1.49
  -3   0  -3  113.18    2.72
  -3   0  -2  104.19    1.47
  -3   0  -1  113.67    4.10
  -3   0   0  188.46    6.81
  -3   0   2  330.80    3.60
  -3   0   3  101.36    2.22
  -3   0   4   53.72    1.63
  -3   0   5   62.18    1.83
  -3   0   6   42.20    1.91
  -3   0   7  145.73    4.26
  -3   0   8   11.52    1.06
  -3   0   9   20.76    1.82
  -3   0  10   10.49    1.36
  -3   0  11    5.25    0.94
  -3   0  12    8.46    0.72
  -3   1   1  110.80    1.76
  -3   1   2  354.17    2.61
  -3   1   3   59.56    0.86
  -3   1   4   25.31    1.67
  -3   1   5    4.62    0.53
  -3   1   6   10.70    0.47
  -3   1   7  108.76    1.55
  -3   1   8   24.37    0.66
  -3   1   9   22.84    0.55
  -3   1  10   15.11    0.86
  -3   1  11   15.22    1.05
  -3   1  12    7.81    0.71
  -3   2   1   40.96    0.91
  -3   2   2  157.50    2.98
  -3   2   3   31.11    2.24
  -3   2   4    4.89    0.71
  -3   2   5    4.59    0.43
  -3   2   6    8.57    0.36
  -3   2   7   90.67    1.50
  -3   2   8    8.06    0.41
  -3   2   9    4.37    0.56
  -3   2  10    1.36    0.47
  -3   2  11    5.23    0.60
  -3   2  12    6.48    0.56
  -3   3   1   86.64    1.49
  -3   3   2  172.32    3.12
  -3   3   3   54.17    1.24
  -3   3   4   36.01    0.76
  -3   3   5   30.54    0.69
  -3   3   6   22.36    0.72
  -3   3   7   89.68    3.95
  -3   3   8   11.54    0.80
  -3   3   9   16.80    0.57
  -3   3  10    6.23    0.50
  -3   3  11    4.75    0.80
  -3   4   1   47.06    0.90
  -3   4   2  109.94    1.22
  -3   4   3   30.48    0.61
  -3   4   4   11.83    0.44
  -3   4   5    2.61    0.45
  -3   4   6    4.39    0.39
  -3   4   7   49.84    3.75
  -3   4   8   15.23    0.49
  -3   4   9   13.93    0.48
  -3   4  10    6.00    0.45
  -3   5   1    9.23    0.74
  -3   5   2   16.69    0.82
  -3   5   3    3.65    0.38
  -3   5   4    5.13    0.38
  -3   5   5    1.25    0.35
  -3   5   6    3.02    0.33
  -3   5   7   20.20    1.14
  -3   5   8    0.36    0.36
  -3   5   9    1.48    0.42
  -3   5  10    1.80    0.25
  -3   6   1   24.93    0.84
  -3   6   2   40.98    0.97
  -3   6   3   13.47    0.68
  -3   6   4    8.73    0.54
  -3   6   5    2.90    0.45
  -3   6   6    4.85    0.32
  -3   6   7   23.43    0.76
  -3   6   8    7.17    0.46
  -3   7   1    6.37    0.56
  -3   7   2   12.03    0.73
  -3   7   3    5.04    0.46
  -3   7   4    6.25    0.42
  -3   7   5    2.35    0.41
  -3   7   6    2.92    0.38
  -3   8   1    1.52    0.26
  -3   8   2    2.05    0.29
  -2  -8  -2    0.33    0.23
  -2  -8  -1    0.29    0.21
  -2  -8   0    0.59    0.19
  -2  -7  -6    3.46    0.26
  -2  -7  -5    7.00    0.41
  -2  -7  -4    8.16    0.50
  -2  -7  -3    1.53    0.23
  -2  -7  -2    1.45    0.29
  -2  -7  -1    0.78    0.34
  -2  -7   0    1.76    0.35
  -2  -6  -8    1.02    0.14
  -2  -6  -7    0.97    0.35
  -2  -6  -6    8.36    0.94
  -2  -6  -5   23.63    1.16
  -2  -6  -4   29.12    0.87
  -2  -6  -3   10.42    0.56
  -2  -6  -2   10.51    0.63
  -2  -6  -1    7.46    0.51
  -2  -6   0    9.23    0.48
  -2  -5 -10    7.04    0.35
  -2  -5  -9    4.25    0.35
  -2  -5  -8   13.53    0.63
  -2  -5  -7   10.32    0.69
  -2  -5  -6    1.27    0.39
  -2  -5  -5    0.56    0.69
  -2  -5  -4    6.88    0.67
  -2  -5  -3    1.91    0.23
  -2  -5  -2    0.61    0.13
  -2  -5  -1    3.16    0.21
  -2  -5   0    4.61    0.22
  -2  -4 -10    5.21    0.51
  -2  -4  -9    9.81    0.48
  -2  -4  -8    0.65    0.26
  -2  -4  -7    2.47    0.34
  -2  -4  -6   16.44    0.87
  -2  -4  -5   51.30    1.08
  -2  -4  -4   79.44    1.60
  -2  -4  -3   13.89    0.40
  -2  -4  -2   17.51    1.05
  -2  -4  -1    5.70    0.40
  -2  -4   0   29.49    0.73
  -2  -3 -11    5.57    0.35
  -2  -3 -10   19.27    0.55
  -2  -3  -9   29.66    0.94
  -2  -3  -8   19.49    0.70
  -2  -3  -7    8.95    0.89
  -2  -3  -6   12.94    0.63
  -2  -3  -5   64.95    1.32
  -2  -3  -4  127.87    3.25
  -2  -3  -3   10.24    0.30
  -2  -3  -2   22.35    1.13
  -2  -3  -1    7.79    0.51
  -2  -3   0   65.45    2.24
  -2  -2 -11    4.54    0.26
  -2  -2 -10   14.37    0.55
  -2  -2  -9   20.43    0.78
  -2  -2  -8   26.19    0.64
  -2  -2  -7   15.70    0.33
  -2  -2  -6    6.82    0.36
  -2  -2  -5   22.84    1.36
  -2  -2  -4   63.73    1.31
  -2  -2  -3    0.59    0.41
  -2  -2  -2    0.90    0.19
  -2  -2  -1    0.85    0.25
  -2  -2   0   21.71    1.65
  -2  -1 -11    6.46    0.48
  -2  -1 -10    5.74    0.47
  -2  -1  -9   21.90    1.11
  -2  -1  -8    8.25    0.58
  -2  -1  -7    2.62    0.34
  -2  -1  -4  156.65    5.01
  -2  -1  -3   45.82    0.33
  -2  -1  -2   19.24    0.69
  -2  -1  -1   26.15    1.44
  -2  -1   0  111.06    2.22
  -2   0 -11    7.98    0.60
  -2   0 -10   21.21    1.07
  -2   0  -9   40.55    1.63
  -2   0  -8   72.42    1.30
  -2   0  -7   15.84    0.52
  -2   0  -4  273.54    3.27
  -2   0  -3   26.42    1.25
  -2   0  -2   12.17    1.26
  -2   0   0  124.84    1.92
  -2   0   2  161.75    2.04
  -2   0   4   96.46    2.02
  -2   0   5  167.19    3.12
  -2   0   6  103.87    2.17
  -2   0   7   58.52    1.38
  -2   0   8   25.08    1.16
  -2   0   9   15.79    0.99
  -2   0  10   21.47    2.12
  -2   0  11   16.63    1.38
  -2   0  12   21.81    1.00
  -2   1   1  138.30    2.82
  -2   1   2  159.33    0.74
  -2   1   3   63.92    2.99
  -2   1   4   56.75    4.20
  -2   1   5   50.46    0.87
  -2   1   6   33.31    1.07
  -2   1   7   29.30    0.76
  -2   1   8   24.02    0.40
  -2   1   9   11.07    0.66
  -2   1  10   17.85    1.40
  -2   1  11   23.59    1.32
  -2   1  12   18.21    1.02
  -2   2   1   21.29    0.35
  -2   2   2   52.42    2.18
  -2   2   3   23.69    0.32
  -2   2   4   21.56    0.51
  -2   2   5   38.44    0.75
  -2   2   6   21.01    0.99
  -2   2   7   12.73    0.49
  -2   2   8   12.60    0.54
  -2   2   9    4.21    0.35
  -2   2  10    7.76    0.75
  -2   2  11   12.63    1.00
  -2   2  12   13.72    0.75
  -2   3   1   42.24    1.26
  -2   3   2   89.49    2.20
  -2   3   3   42.84    1.12
  -2   3   4   45.71    1.09
  -2   3   5   59.45    0.81
  -2   3   6   53.86    0.89
  -2   3   7   33.49    1.22
  -2   3   8   24.67    0.63
  -2   3   9   12.70    0.75
  -2   3  10    6.91    0.94
  -2   3  11   15.38    0.74
  -2   3  12   13.82    0.79
  -2   4   1   51.85    1.11
  -2   4   2   83.33    4.41
  -2   4   3   32.03    0.87
  -2   4   4   35.61    0.81
  -2   4   5   16.20    0.55
  -2   4   6   25.18    0.47
  -2   4   7   21.44    0.91
  -2   4   8   13.57    0.52
  -2   4   9    7.45    0.36
  -2   4  10    8.88    0.58
  -2   4  11   15.95    0.56
  -2   5   1    3.00    0.25
  -2   5   2   14.24    0.50
  -2   5   3    4.38    0.20
  -2   5   4    1.36    0.30
  -2   5   5   15.23    0.49
  -2   5   6    9.53    0.52
  -2   5   7    4.19    0.38
  -2   5   8    1.79    0.25
  -2   5   9    0.42    0.27
  -2   5  10    1.86    0.75
  -2   6   1   17.17    0.60
  -2   6   2   31.28    0.82
  -2   6   3   15.86    0.77
  -2   6   4   17.40    0.80
  -2   6   5   13.13    0.55
  -2   6   6   13.41    0.48
  -2   6   7   12.26    0.74
  -2   6   8    7.88    0.56
  -2   6   9    1.71    0.31
  -2   7   1    6.40    0.45
  -2   7   2   12.06    0.71
  -2   7   3    6.50    0.42
  -2   7   4    2.41    0.37
  -2   7   5    5.40    0.32
  -2   7   6    4.45    0.43
  -2   7   7    4.31    0.43
  -2   8   1    1.00    0.24
  -2   8   2    0.90    0.30
  -2   8   3    1.13    0.16
  -2   8   4    0.22    0.21
  -1  -8  -5    1.06    0.21
  -1  -8  -4    0.51    0.20
  -1  -8  -3    0.12    0.20
  -1  -8  -2    1.46    0.27
  -1  -8  -1    3.53    0.53
  -1  -8   0    4.82    0.43
  -1  -7  -7    3.17    0.27
  -1  -7  -6    6.63    0.65
  -1  -7  -5    6.58    0.57
  -1  -7  -4   11.62    0.76
  -1  -7  -3    4.84    0.41
  -1  -7  -2    6.45    0.39
  -1  -7  -1    7.13    0.40
  -1  -7   0   12.81    0.54
  -1  -6  -9    9.24    0.47
  -1  -6  -8    0.63    0.35
  -1  -6  -6   14.41    1.13
  -1  -6  -5   29.20    1.55
  -1  -6  -4   38.72    1.82
  -1  -6  -3   13.81    0.95
  -1  -6  -2   15.31    0.70
  -1  -6  -1   16.19    0.95
  -1  -6   0   24.37    0.61
  -1  -5 -10   14.06    0.81
  -1  -5  -9   24.85    0.57
  -1  -5  -8    0.42    0.46
  -1  -5  -7    5.71    0.39
  -1  -5  -6    4.09    0.44
  -1  -5  -5    3.63    0.56
  -1  -5  -4    4.28    0.33
  -1  -5  -3    0.05    0.16
  -1  -5  -2    7.42    0.36
  -1  -5  -1   27.54    0.90
  -1  -5   0   41.29    1.32
  -1  -4 -11   16.91    0.68
  -1  -4 -10   18.46    0.54
  -1  -4  -9   18.51    0.82
  -1  -4  -8    1.33    0.43
  -1  -4  -7   14.43    0.70
  -1  -4  -6   32.75    0.72
  -1  -4  -5   72.78    1.44
  -1  -4  -4   87.43    3.26
  -1  -4  -3   48.41    2.49
  -1  -4  -2   49.55    1.28
  -1  -4  -1   28.86    1.17
  -1  -4   0   35.13    0.57
  -1  -3 -12    3.65    0.49
  -1  -3 -11   26.35    0.92
  -1  -3 -10   45.33    1.05
  -1  -3  -9   70.58    1.69
  -1  -3  -7   34.23    0.70
  -1  -3  -6   42.83    0.92
  -1  -3  -5   62.54    1.56
  -1  -3  -4   71.92    2.57
  -1  -3  -3   32.85    1.21
  -1  -3  -2   64.89    2.12
  -1  -3  -1  140.11    2.97
  -1  -3   0  222.08    4.89
  -1  -2 -12    6.25    0.32
  -1  -2 -11   20.99    1.06
  -1  -2  -8    0.51    0.55
  -1  -2  -7   23.71    0.68
  -1  -2  -6   29.75    0.82
  -1  -2  -5   47.77    1.52
  -1  -2  -4   36.34    0.73
  -1  -2  -3    8.63    0.70
  -1  -2  -2   79.45    1.41
  -1  -2  -1  105.07    3.19
  -1  -2   0  124.37    2.07
  -1  -1 -12   14.85    0.77
  -1  -1 -11   41.58    1.23
  -1  -1 -10   36.67    1.92
  -1  -1  -9   52.31    1.31
  -1  -1  -8    6.25    0.50
  -1  -1  -7   41.33    1.56
  -1  -1  -6   63.35    1.54
  -1  -1  -5  198.05    4.53
  -1  -1  -4  231.85    5.46
  -1  -1  -3   83.15    1.40
  -1  -1  -2  160.38    5.13
  -1  -1  -1  142.16    2.57
  -1  -1   0  136.17    3.83
  -1   0 -12    2.18    0.60
  -1   0 -11   51.79    2.04
  -1   0 -10   80.93    2.71
  -1   0  -9  148.14    2.66
  -1   0  -8    5.32    1.33
  -1   0  -7   69.05    2.51
  -1   0  -6   63.89    1.49
  -1   0  -5   82.38    1.57
  -1   0  -4   87.73    4.22
  -1   0  -3   55.73    0.98
  -1   0  -2  131.91    1.19
  -1   0   0  766.33    2.45
  -1   0   1  445.83    2.80
  -1   0   2  182.43    5.43
  -1   0   3   12.85    0.39
  -1   0   4    1.67    0.11
  -1   0   5  271.53   11.21
  -1   0   6   97.92    4.39
  -1   0   7   82.31    6.14
  -1   0   8   31.64    0.89
  -1   0   9   35.49    2.18
  -1   0  10   11.11    0.82
  -1   0  11   20.04    1.25
  -1   0  12    9.93    0.80
  -1   1   1    7.24    0.27
  -1   1   2   47.45    3.75
  -1   1   3  190.66    5.35
  -1   1   4  150.98    4.08
  -1   1   5  156.44    4.25
  -1   1   6   50.40    1.62
  -1   1   7   16.76    0.65
  -1   1   8    7.21    0.31
  -1   1   9    2.18    0.19
  -1   1  10    3.38    0.26
  -1   1  11    8.07    0.63
  -1   1  12    9.72    0.76
  -1   2   1   45.30    1.38
  -1   2   2   14.73    0.49
  -1   2   3   43.99    0.95
  -1   2   4    8.38    0.56
  -1   2   5   95.55    2.49
  -1   2   6   22.61    0.61
  -1   2   7   17.03    0.51
  -1   2   8    5.67    0.26
  -1   2   9    4.14    0.39
  -1   2  10    5.39    0.18
  -1   2  11    9.64    1.11
  -1   2  12    5.60    0.53
  -1   3   1  124.60    3.13
  -1   3   2   52.83    1.08
  -1   3   3   28.96    0.42
  -1   3   4    9.92    0.63
  -1   3   5  121.48    2.66
  -1   3   6   62.62    0.80
  -1   3   7   44.31    0.71
  -1   3   8   14.67    0.57
  -1   3   9   12.24    0.56
  -1   3  10    5.14    0.50
  -1   3  11   13.88    1.02
  -1   3  12    7.99    0.67
  -1   4   1   14.80    0.60
  -1   4   2   13.20    0.48
  -1   4   3   49.95    1.17
  -1   4   4   43.40    1.32
  -1   4   5   58.79    1.19
  -1   4   6   19.52    0.52
  -1   4   7   11.08    0.51
  -1   4   8    2.85    0.18
  -1   4   9    1.78    0.27
  -1   4  10    2.50    0.16
  -1   4  11    4.73    0.44
  -1   5   1   18.12    0.37
  -1   5   2    1.48    0.29
  -1   5   3    1.23    0.20
  -1   5   4    0.97    0.17
  -1   5   5   29.96    0.56
  -1   5   6    5.90    0.37
  -1   5   7    5.32    0.34
  -1   5   8    1.10    0.31
  -1   5   9    2.60    0.36
  -1   5  10    3.71    0.47
  -1   6   1   11.48    0.57
  -1   6   2    6.38    0.46
  -1   6   3    7.73    0.65
  -1   6   4   19.71    0.77
  -1   6   5   33.53    1.35
  -1   6   6   15.08    0.55
  -1   6   7    7.39    0.39
  -1   6   8    1.46    0.26
  -1   6   9    1.97    0.72
  -1   7   1    6.47    0.34
  -1   7   2    3.40    0.52
  -1   7   3    1.14    0.46
  -1   7   4    2.11    0.47
  -1   7   5    6.82    0.77
  -1   7   6    4.43    0.59
  -1   7   7    3.35    0.40
  -1   8   1    1.90    0.49
  -1   8   2    0.09    0.38
  -1   8   3    0.47    0.31
  -1   8   4    0.59    0.25
  -1   8   5    2.87    0.31
   0  -8  -5    2.06    0.24
   0  -8  -4    0.51    0.21
   0  -8  -3    0.76    0.24
   0  -8  -2    1.39    0.34
   0  -8  -1    4.83    0.50
   0  -7  -8    2.88    0.32
   0  -7  -7    2.56    0.29
   0  -7  -6    6.75    0.45
   0  -7  -5   13.27    0.74
   0  -7  -4    5.86    0.51
   0  -7  -3    3.16    0.46
   0  -7  -2    5.27    0.53
   0  -7  -1    6.74    0.61
   0  -6  -9    3.99    0.40
   0  -6  -8    2.29    0.57
   0  -6  -7    5.22    0.44
   0  -6  -6   11.43    0.82
   0  -6  -5   31.36    1.63
   0  -6  -4   16.62    0.90
   0  -6  -3    7.98    0.68
   0  -6  -2    7.61    1.11
   0  -6  -1   19.92    1.12
   0  -5 -10    8.08    0.68
   0  -5  -9    9.61    1.10
   0  -5  -7    5.53    0.71
   0  -5  -6    8.52    0.52
   0  -5  -5   15.73    0.65
   0  -5  -4    2.33    0.21
   0  -5  -3    5.07    0.29
   0  -5  -2   13.48    0.48
   0  -5  -1   46.70    1.16
   0  -4 -11    5.15    0.41
   0  -4 -10    9.99    0.80
   0  -4  -7    7.42    0.42
   0  -4  -6   23.68    0.55
   0  -4  -5   97.25    0.89
   0  -4  -4   38.74    0.75
   0  -4  -3   11.02    0.83
   0  -4  -2    6.05    0.45
   0  -4  -1   11.25    0.60
   0  -3 -12    5.96    0.36
   0  -3 -11   16.76    0.77
   0  -3 -10   28.83    1.05
   0  -3  -9   39.55    2.23
   0  -3  -7   33.27    1.48
   0  -3  -6   48.41    1.29
   0  -3  -5  145.99    3.58
   0  -3  -4   55.02    0.92
   0  -3  -3   20.32    1.43
   0  -3  -2   88.42    0.82
   0  -3  -1  209.87    8.32
   0  -2 -12    6.35    0.37
   0  -2 -11   10.92    0.67
   0  -2 -10   15.59    0.99
   0  -2  -9   25.55    0.83
   0  -2  -8   20.57    1.39
   0  -2  -7   24.85    0.45
   0  -2  -6   26.93    1.10
   0  -2  -5  127.52    1.42
   0  -2  -4   33.83    0.57
   0  -2  -3   22.69    0.93
   0  -2  -2   20.86    0.81
   0  -2  -1   30.30    0.42
   0  -1 -13    3.11    0.59
   0  -1 -12    4.95    0.48
   0  -1 -11    8.21    0.66
   0  -1 -10   22.82    1.06
   0  -1  -9   11.73    0.91
   0  -1  -8    3.85    0.31
   0  -1  -7   10.94    0.63
   0  -1  -6   40.04    0.75
   0  -1  -5  297.64    1.99
   0  -1  -4  109.73    2.22
   0  -1  -3   29.41    0.81
   0  -1  -2   16.66    0.51
   0  -1  -1   54.57    0.66
   0   0 -13    1.40    0.58
   0   0 -12    8.92    0.77
   0   0 -11   28.88    1.44
   0   0 -10   66.77    2.61
   0   0  -9   98.70    2.71
   0   0  -8  122.19    2.87
   0   0  -7   82.91    2.02
   0   0  -6   94.18    8.83
   0   0  -5  327.22    2.71
   0   0  -4   81.00    2.20
   0   0  -3   29.77    2.49
   0   0  -2  302.43    2.04
   0   0  -1  801.51    7.34
   0   0   1  817.95   16.47
   0   0   2  304.32    3.07
   0   0   3   23.60    2.70
   0   0   4   83.47    1.17
   0   0   5  325.52    3.81
   0   0   6  102.42    8.64
   0   0   7   81.42    2.08
   0   0   8  120.16    4.25
   0   0   9  110.07    2.89
   0   0  10   67.82    2.55
   0   0  11   29.50    1.79
   0   0  12    9.17    0.52
   0   1   0 1069.22    7.64
   0   1   1   53.75    0.43
   0   1   2    7.51    0.24
   0   1   3    9.60    0.15
   0   1   4  113.57    1.81
   0   1   5  320.21    6.82
   0   1   6   38.73    0.63
   0   1   7   11.48    0.52
   0   1   8    3.69    0.38
   0   1   9   10.15    0.65
   0   1  10    8.66    0.29
   0   1  11    3.97    0.49
   0   1  12    4.28    0.37
   0   2   1   34.37    0.30
   0   2   2   21.08    0.44
   0   2   3    7.05    0.07
   0   2   4   30.64    0.61
   0   2   5  148.12    1.50
   0   2   6   31.31    0.62
   0   2   7   24.49    0.30
   0   2   8   30.91    1.01
   0   2   9   27.00    0.48
   0   2  10   13.48    0.68
   0   2  11    5.77    0.72
   0   2  12    4.99    0.50
   0   3   0 1429.30   31.17
   0   3   1  203.12    7.80
   0   3   2   82.81    1.25
   0   3   3   18.66    0.78
   0   3   4   58.58    1.12
   0   3   5  162.17    3.72
   0   3   6   50.02    0.73
   0   3   7   37.08    0.66
   0   3   8   47.59    0.95
   0   3   9   44.84    1.78
   0   3  10   27.73    0.75
   0   3  11   18.48    1.41
   0   3  12    9.10    0.66
   0   4   0  142.31    5.32
   0   4   1    5.17    0.38
   0   4   2    6.33    0.39
   0   4   3   10.26    0.41
   0   4   4   40.58    2.01
   0   4   5  109.04    1.98
   0   4   6   25.82    0.61
   0   4   7    7.12    0.31
   0   4   8    0.57    0.60
   0   4   9    6.21    0.20
   0   4  10    5.81    0.35
   0   4  11    2.97    0.33
   0   5   0  232.63    3.39
   0   5   1   45.08    1.32
   0   5   2    8.53    0.31
   0   5   3    5.78    0.25
   0   5   4    3.71    0.23
   0   5   5   19.18    0.57
   0   5   6    7.14    0.41
   0   5   7    7.37    0.48
   0   5   8   11.51    0.65
   0   5   9   12.26    1.67
   0   5  10    8.49    0.67
   0   6   0   72.31    2.09
   0   6   1   12.63    0.39
   0   6   2    7.42    0.76
   0   6   3    9.56    0.54
   0   6   4   19.14    0.75
   0   6   5   37.24    1.45
   0   6   6   12.78    0.61
   0   6   7    6.32    0.43
   0   6   8    7.45    0.56
   0   6   9    4.27    0.37
   0   7   0   32.91    1.02
   0   7   1    5.42    0.73
   0   7   2    3.76    0.59
   0   7   3    4.23    0.81
   0   7   4    7.00    0.77
   0   7   5   14.89    0.75
   0   7   6    6.60    0.68
   0   7   7    3.99    0.55
   0   8   0   23.73    0.91
   0   8   1    3.47    0.52
   0   8   2    1.24    0.40
   0   8   3    1.16    0.36
   0   8   4    0.84    0.33
   0   8   5    2.73    0.38
   1  -8  -5    5.85    0.40
   1  -8  -4    0.81    0.23
   1  -8  -3    0.50    0.24
   1  -8  -2    0.08    0.25
   1  -8  -1    1.50    0.37
   1  -7  -7    3.01    0.36
   1  -7  -6    4.36    0.43
   1  -7  -5    7.90    0.84
   1  -7  -4    0.62    0.65
   1  -7  -3    0.11    0.36
   1  -7  -2    1.01    0.57
   1  -7  -1    8.80    0.90
   1  -6  -9    1.60    0.35
   1  -6  -6   12.41    0.97
   1  -6  -5   31.35    1.53
   1  -6  -1    9.88    0.77
   1  -5 -10    1.35    0.29
   1  -5  -9    1.42    0.55
   1  -5  -4    2.07    0.25
   1  -5  -3    1.17    0.20
   1  -5  -2    1.30    0.22
   1  -5  -1   20.15    0.58
   1  -4 -11    3.71    0.53
   1  -4 -10    7.26    0.55
   1  -4  -9    3.22    0.74
   1  -4  -8    5.16    0.58
   1  -4  -7    7.91    0.93
   1  -4  -6   15.12    0.51
   1  -4  -5   55.02    2.49
   1  -4  -4   19.34    1.17
   1  -4  -3   21.81    0.82
   1  -4  -2    3.59    0.37
   1  -4  -1    8.73    0.31
   1  -3 -12    6.22    0.39
   1  -3 -11   13.32    0.76
   1  -3 -10    3.18    0.85
   1  -3  -9   10.96    0.80
   1  -3  -7   46.28    2.21
   1  -3  -6   60.13    0.88
   1  -3  -5  159.84    2.64
   1  -3  -4    2.46    0.65
   1  -3  -3   12.29    0.31
   1  -3  -2   42.05    0.55
   1  -3  -1  125.25    2.22
   1  -2 -12    7.46    0.37
   1  -2 -11   10.23    0.71
   1  -2  -9    3.77    0.72
   1  -2  -8    3.37    0.21
   1  -2  -7   18.82    0.70
   1  -2  -6   38.48    1.16
   1  -2  -5  115.38    2.38
   1  -2  -4    4.46    0.78
   1  -2  -3   18.62    0.49
   1  -2  -2    6.16    0.24
   1  -2  -1   32.04    0.41
   1  -1 -12    5.50    0.39
   1  -1 -11    9.66    0.80
   1  -1 -10    8.23    0.70
   1  -1  -8    1.77    0.17
   1  -1  -7   21.23    0.99
   1  -1  -6   33.57    1.17
   1  -1  -5  176.27    5.62
   1  -1  -4  103.34    1.86
   1  -1  -3  130.67    3.06
   1  -1  -2   23.69    1.13
   1  -1  -1   20.69    1.74
   1   0 -13    7.79    0.53
   1   0 -12   11.45    0.87
   1   0 -11   18.03    1.68
   1   0 -10   10.24    1.07
   1   0  -9   32.01    2.75
   1   0  -8   18.03    0.68
   1   0  -6  131.82    4.80
   1   0  -5  341.42    8.35
   1   0  -4    6.42    0.35
   1   0  -3    2.32    0.25
   1   0  -2  178.34    2.95
   1   0  -1  419.82    2.92
   1   0   0  707.75    2.18
   1   0   1  410.34   34.29
   1   0   2  132.05    1.14
   1   0   3   92.20    1.71
   1   0   4  122.74    1.70
   1   0   5   79.67    1.34
   1   0   6   64.72    1.90
   1   0   7   68.14    1.94
   1   0   8   12.83    1.32
   1   0  11   47.07    1.93
   1   0  12    5.20    0.79
   1   1   0  166.99    3.93
   1   1   1  102.82    1.22
   1   1   2  130.32    1.99
   1   1   3   80.44    0.77
   1   1   4  187.34    1.38
   1   1   5  141.98    1.31
   1   1   6   40.68    2.24
   1   1   7   24.85    0.43
   1   1   8   23.83    0.78
   1   1   9   33.21    0.94
   1   1  10   25.12    0.86
   1   1  11   29.96    1.03
   1   1  12   11.92    0.40
   1   2   0  174.13    6.38
   1   2   1   72.87    1.34
   1   2   2   42.08    0.32
   1   2   3    8.23    0.42
   1   2   4   32.14    1.47
   1   2   5   30.55    1.18
   1   2   6   17.28    0.42
   1   2   7   16.75    0.45
   1   2   8   10.81    1.24
   1   2   9   41.90    1.43
   1   2  10   23.79    0.59
   1   2  11   16.31    1.22
   1   2  12    5.62    0.32
   1   3   0  227.36    4.11
   1   3   1  111.78    1.36
   1   3   2   53.24    1.97
   1   3   3   49.17    1.62
   1   3   4   66.42    2.61
   1   3   5   62.92    1.28
   1   3   6   38.91    0.79
   1   3   7   31.99    0.67
   1   3   8    5.16    0.79
   1   3   9   64.96    1.48
   1   3  10   45.64    1.01
   1   3  11   22.72    1.12
   1   3  12    5.51    0.55
   1   4   0   64.42    2.38
   1   4   1   12.23    0.73
   1   4   2   22.75    0.43
   1   4   3   36.18    0.73
   1   4   4   66.27    2.07
   1   4   5   56.96    2.00
   1   4   6   21.66    0.64
   1   4   7    8.21    0.56
   1   4   8   11.29    0.97
   1   4   9   15.88    0.94
   1   4  10   14.55    0.85
   1   4  11   13.84    0.80
   1   5   0   49.40    1.26
   1   5   1   18.95    0.32
   1   5   2    2.59    0.24
   1   5   3    3.86    0.37
   1   5   4    4.29    0.31
   1   5   5    9.91    0.50
   1   5   6    4.15    0.43
   1   5   7    4.39    0.35
   1   5   8    2.06    0.55
   1   5   9   23.65    0.61
   1   5  10   13.12    0.78
   1   6   0   38.76    1.24
   1   6   1   10.95    0.84
   1   6   2    9.86    0.60
   1   6   3   11.65    0.86
   1   6   4   30.30    1.30
   1   6   5   25.08    1.16
   1   6   6   12.25    0.50
   1   6   7    4.25    0.33
   1   6   8    2.32    0.47
   1   6   9    9.24    0.44
   1   7   0   16.36    1.34
   1   7   1    4.81    0.39
   1   7   3    4.80    0.47
   1   7   4    8.90    0.61
   1   7   5    6.49    0.53
   1   7   6    4.60    0.40
   1   7   7    2.08    0.34
   1   8   0    7.20    0.77
   1   8   2    0.64    0.25
   1   8   3    1.15    0.32
   1   8   4    0.64    0.27
   2  -8  -4    1.68    0.29
   2  -8  -3    3.02    0.33
   2  -8  -2    0.55    0.36
   2  -8  -1    0.67    0.35
   2  -7  -6    6.33    0.50
   2  -7  -5    8.82    0.61
   2  -7  -4    2.21    0.45
   2  -7  -3    5.63    0.72
   2  -7  -2   11.40    0.69
   2  -7  -1    9.01    0.64
   2  -6  -6   12.87    0.90
   2  -6  -5   14.31    1.11
   2  -6  -4   13.18    0.85
   2  -6  -3   13.41    0.86
   2  -6  -2   32.93    1.24
   2  -6  -1   23.99    1.05
   2  -5  -8    1.07    0.38
   2  -5  -3   10.79    0.39
   2  -5  -2    9.87    0.41
   2  -5  -1    2.77    0.29
   2  -4  -8   14.99    0.79
   2  -4  -7   20.13    1.27
   2  -4  -6   26.43    0.74
   2  -4  -5   19.68    0.69
   2  -4  -4   21.78    0.74
   2  -4  -3   27.80    0.88
   2  -4  -2   74.90    1.11
   2  -4  -1   72.00    1.21
   2  -3 -11   15.29    0.89
   2  -3  -8   23.37    0.81
   2  -3  -7   33.40    2.28
   2  -3  -6   71.28    1.66
   2  -3  -5   81.81    1.40
   2  -3  -4   59.61    1.16
   2  -3  -3   51.49    1.20
   2  -3  -2   76.11    1.82
   2  -3  -1   43.16    0.89
   2  -2 -11   20.27    0.69
   2  -2 -10    1.68    0.79
   2  -2  -9    4.76    0.76
   2  -2  -8   10.47    0.75
   2  -2  -7   21.53    0.96
   2  -2  -6   42.21    1.18
   2  -2  -5   76.73    1.55
   2  -2  -4   22.49    0.47
   2  -2  -3   42.57    0.55
   2  -2  -2   51.54    0.92
   2  -2  -1   34.40    0.53
   2  -1 -11   30.63    0.87
   2  -1 -10   14.45    0.74
   2  -1  -9   13.84    1.47
   2  -1  -6   44.49    1.47
   2  -1  -5   37.28    0.74
   2  -1  -4   52.50    1.35
   2  -1  -3   62.00    2.45
   2  -1  -2  156.73    1.16
   2  -1  -1  177.40    3.61
   2   0 -11   20.56    1.32
   2   0 -10    8.36    1.39
   2   0  -8   26.23    2.42
   2   0  -6  130.70    2.60
   2   0  -5  197.41    3.67
   2   0  -4  112.69    2.40
   2   0  -3   89.49    1.14
   2   0  -2  157.60    2.28
   2   0  -1   52.08    1.61
   2   0   0  120.57    1.43
   2   0   1    3.13    0.36
   2   0   2   24.38    1.14
   2   0   3   61.65    2.46
   2   0   4  277.79    4.73
   2   0   5  127.26    3.65
   2   0   6   14.70    0.99
   2   0   7    9.48    0.41
   2   0   8   30.87    0.59
   2   0   9   39.94    2.29
   2   0  10   20.41    1.55
   2   0  11    9.55    0.69
   2   0  12    1.82    0.47
   2   1   0  125.90    3.01
   2   1   1   47.57    5.83
   2   1   2   29.95    1.38
   2   1   3   21.32    0.12
   2   1   4  163.26    2.70
   2   1   5  111.54    1.65
   2   1   6   18.78    0.37
   2   1   7    2.40    0.33
   2   1   8    2.29    0.68
   2   1  11    6.09    0.50
   2   1  12    6.54    0.27
   2   2   0   24.48    1.28
   2   2   1   11.87    0.64
   2   2   2    8.34    0.30
   2   2   3   11.62    1.10
   2   2   4   67.78    1.71
   2   2   5   33.35    1.25
   2   2   6    3.27    0.30
   2   2   7    5.04    0.13
   2   2   8    7.95    0.67
   2   2   9   24.04    1.02
   2   2  10   13.61    0.46
   2   2  11    3.16    0.38
   2   2  12    1.19    0.21
   2   3   0   60.21    0.55
   2   3   1   11.88    0.75
   2   3   2   34.04    0.84
   2   3   3   30.04    0.62
   2   3   4  146.88    2.26
   2   3   5   67.13    1.55
   2   3   6   16.75    0.55
   2   3   7    8.17    0.64
   2   3   8    5.02    0.23
   2   3   9   36.24    1.30
   2   3  10   21.50    0.55
   2   3  11    6.66    0.52
   2   4   0   46.88    2.04
   2   4   1   14.38    0.62
   2   4   2   18.06    1.27
   2   4   3   14.02    0.52
   2   4   4   68.64    1.14
   2   4   5   45.27    0.79
   2   4   6   11.27    1.25
   2   4   7    3.70    0.48
   2   4   8    0.43    0.27
   2   4  10    8.96    0.89
   2   5   0    2.12    0.18
   2   5   1    0.49    0.26
   2   5   2    3.94    0.50
   2   5   3   10.64    0.52
   2   5   4   17.44    1.80
   2   5   5    2.68    0.52
   2   5   6    1.79    0.32
   2   5   7    2.66    0.23
   2   5   8    4.83    0.40
   2   5   9    3.88    0.46
   2   5  10    4.64    0.27
   2   6   0   15.42    0.96
   2   6   1    9.58    0.83
   2   6   2   11.15    0.79
   2   6   3   12.29    0.75
   2   6   4   28.99    1.94
   2   6   5   20.55    0.67
   2   6   6    8.25    0.43
   2   6   7    1.59    0.31
   2   6   8    2.20    0.22
   2   7   1    0.88    0.73
   2   7   2    1.63    0.44
   2   7   3    2.68    0.42
   2   7   4    8.94    0.59
   2   7   5    5.71    0.43
   2   7   6    3.15    0.29
   3  -8  -2    1.36    0.27
   3  -8  -1    0.09    0.24
   3  -7  -5    1.08    0.27
   3  -7  -4    5.20    0.50
   3  -7  -3    6.93    0.73
   3  -7  -2   14.51    1.13
   3  -7  -1    6.64    0.84
   3  -6  -5    1.11    0.71
   3  -6  -4    8.74    1.01
   3  -6  -1   28.05    1.72
   3  -5  -3    4.61    0.92
   3  -5  -2   16.47    1.51
   3  -4  -3   31.21    1.05
   3  -4  -1   54.41    1.53
   3  -3  -6   14.69    1.30
   3  -3  -5   28.32    1.19
   3  -3  -3   53.06    1.32
   3  -3  -2  169.24    3.03
   3  -3  -1   69.86    1.78
   3  -2  -7   89.00    2.35
   3  -2  -5    3.03    0.50
   3  -2  -4    4.08    0.41
   3  -2  -3   21.77    1.08
   3  -2  -2  163.27    2.23
   3  -2  -1   28.38    1.39
   3  -1  -7  109.70    7.86
   3  -1  -6    4.17    0.64
   3  -1  -5    2.46    0.88
   3  -1  -4    7.61    0.50
   3  -1  -3   62.43    1.23
   3  -1  -2  384.33   15.31
   3  -1  -1  117.97    1.89
   3   0  -7  146.29    4.48
   3   0  -5   51.49    1.82
   3   0  -4   50.11    1.65
   3   0  -3   85.78    2.16
   3   0  -2  327.60    3.66
   3   0  -1  124.91    1.53
   3   0   0  134.47    3.34
   3   0   2   92.42    1.58
   3   0   3  108.02    1.85
   3   0   4  169.63    2.64
   3   0   5   83.95    1.97
   3   0   6   58.34    1.18
   3   0   9   15.44    1.40
   3   0  10   14.20    0.90
   3   0  11   10.53    0.75
   3   1   0   63.10    3.22
   3   1   1   37.20    0.44
   3   1   2   46.06    1.51
   3   1   3   45.74    0.82
   3   1   4   63.30    2.07
   3   1   5   40.48    0.97
   3   1   6   21.94    0.84
   3   1   7   24.64    1.43
   3   1   8   31.82    1.88
   3   1   9   20.60    0.78
   3   1  10   12.91    0.71
   3   1  11    8.65    0.38
   3   2   0   25.06    0.41
   3   2   1   16.37    0.69
   3   2   2   17.11    0.46
   3   2   3   24.75    0.68
   3   2   4   70.85    2.63
   3   2   5   21.71    1.00
   3   2   6   14.16    0.59
   3   2   7   18.19    1.42
   3   2   8   12.94    0.54
   3   2   9    7.66    0.51
   3   2  10    5.65    0.34
   3   3   0   67.20    1.62
   3   3   1   43.55    1.14
   3   3   2   47.07    1.37
   3   3   3   56.26    1.25
   3   3   4   98.16    1.53
   3   3   5   59.64    1.42
   3   3   6   23.56    1.61
   3   3   7   20.98    0.82
   3   3   8   21.20    1.48
   3   3   9   17.30    1.01
   3   3  10   13.20    0.69
   3   4   0   37.80    1.37
   3   4   1   24.39    0.91
   3   4   2   27.28    0.75
   3   4   3   16.97    0.58
   3   4   4   28.67    1.67
   3   4   5   19.63    1.25
   3   4   6   12.32    1.45
   3   4   7    9.20    0.79
   3   4   8   17.79    1.03
   3   4  10    9.85    0.55
   3   5   3    4.09    0.85
   3   5   4   15.19    0.81
   3   5   5    9.99    0.64
   3   5   6    1.49    0.43
   3   5   7    8.27    0.26
   3   5   9    3.01    0.16
   3   6   1   15.52    1.44
   3   6   2   13.74    1.08
   3   6   3   10.92    1.13
   3   6   4   14.95    1.02
   3   6   5   13.83    0.65
   3   6   6    7.11    0.52
   3   6   7    6.19    0.59
   3   7   0    5.04    0.79
   3   7   1    3.90    0.70
   3   7   2    3.58    0.64
   3   7   3    3.97    0.56
   3   7   4    6.06    0.48
   4  -7  -4    0.64    0.29
   4  -7  -3    2.68    0.42
   4  -7  -2    6.55    0.61
   4  -7  -1    4.12    0.55
   4  -6  -6    1.29    0.47
   4  -6  -5    0.98    0.38
   4  -6  -4    0.10    0.45
   4  -6  -1   11.57    1.17
   4  -5  -8    3.66    0.42
   4  -5  -4    5.89    0.85
   4  -5  -3    3.07    0.85
   4  -4  -1   16.78    1.40
   4  -3  -4   16.88    1.01
   4  -3  -3   18.98    1.59
   4  -3  -2   27.38    0.78
   4  -3  -1   27.64    0.94
   4  -2  -3   15.17    0.75
   4  -2  -2   19.37    0.63
   4  -2  -1    8.19    0.67
   4  -1  -6    2.51    0.87
   4  -1  -5    1.30    0.41
   4  -1  -4    1.66    0.40
   4  -1  -2   43.73    1.35
   4  -1  -1   25.46    0.77
   4   0  -2   29.22    1.44
   4   0  -1   38.23    1.36
   4   0   0   58.90    3.00
   4   0   1   34.37    1.02
   4   0   2  135.99    3.67
   4   0   3  129.38    4.94
   4   0   4   89.90    3.26
   4   0   5   56.57    1.65
   4   0   7   45.21    2.16
   4   0   8   17.72    1.49
   4   0   9   34.58    1.41
   4   0  10    6.82    0.54
   4   1   0   27.59    1.53
   4   1   1    0.67    0.36
   4   1   2   25.51    0.64
   4   1   3    8.83    0.47
   4   1   4    5.76    0.33
   4   1   7   30.43    1.26
   4   1   8   17.58    0.90
   4   1   9   23.68    0.89
   4   1  10    3.18    0.26
   4   2   0   12.88    0.73
   4   2   1   11.58    0.63
   4   2   2   38.59    1.26
   4   2   3   27.07    0.68
   4   2   4   14.28    0.69
   4   2   7   20.39    0.87
   4   2   8    8.27    0.51
   4   2   9   14.93    0.47
   4   2  10    1.72    0.21
   4   3   0   37.26    0.92
   4   3   1   11.00    0.60
   4   3   2   73.19    1.29
   4   3   3   44.42    1.83
   4   3   4   34.19    1.60
   4   3   7   29.47    1.69
   4   3   8   18.45    0.75
   4   3   9   19.05    0.86
   4   4   0    8.28    1.11
   4   4   1    6.05    0.96
   4   4   4    1.01    0.46
   4   4   5    3.11    0.46
   4   4   6    0.58    0.31
   4   4   7   18.09    1.04
   4   5   2   20.05    1.25
   4   5   3   16.78    1.21
   4   5   4    9.60    0.67
   4   5   5    4.37    0.44
   4   5   6    1.99    0.21
   4   6   0    8.26    0.95
   4   6   1    5.11    0.75
   4   6   2   11.11    0.99
   4   6   3    6.37    0.67
   4   6   4    1.71    0.43
   4   6   5    1.98    0.21
   4   7   0    3.66    0.45
   4   7   1    1.10    0.37
   4   7   2    6.58    0.53
   4   7   3    4.34    0.40
   5  -6  -5    1.88    0.29
   5  -6  -4    2.05    0.41
   5  -6  -3    8.87    0.65
   5  -6  -2    6.89    0.66
   5  -6  -1    3.42    0.57
   5  -5  -7   10.48    0.54
   5  -5  -6   10.63    0.78
   5  -5  -5    9.99    0.87
   5  -5  -4    4.45    0.66
   5  -4  -8    5.33    0.57
   5  -4  -7    9.19    0.72
   5  -4  -6    5.70    0.86
   5  -4  -5    3.46    0.51
   5  -4  -4    1.91    0.58
   5  -4  -3   11.83    1.02
   5  -4  -2   12.20    1.13
   5  -1  -2   22.38    0.86
   5  -1  -1    7.64    0.61
   5   0  -3   59.26    2.06
   5   0   1    6.46    0.43
   5   0   6    6.74    0.84
   5   0   7    8.63    1.42
   5   0   8    7.26    0.89
   5   0   9    4.29    0.36
   5   1   0   11.01    0.46
   5   1   7   11.53    0.76
   5   1   8    9.80    0.84
   5   1   9    3.56    0.35
   5   2   7    4.67    0.89
   5   2   8    3.18    0.36
   5   3   6    2.72    0.57
   5   3   7    6.87    0.92
   5   3   8    5.21    0.48
   5   4   0    5.91    0.82
   5   4   2   20.30    1.48
   5   4   3    0.81    0.50
   5   5   1    2.63    0.55
   5   5   2   28.63    1.24
   5   5   3    9.93    0.78
   5   5   4    3.75    0.37
   5   6   0    4.12    0.53
   5   6   1    1.23    0.29
   5   6   2   12.11    0.72
   6  -4  -5    5.16    0.43
   6  -4  -4    4.08    0.47
   6  -4  -3   13.28    0.87
   6  -4  -2   12.35    0.78
   6  -3  -6    6.96    0.50
   6  -3  -5   10.56    0.74
   6  -3  -4   10.60    0.92
   6  -2  -7    4.14    0.44
   6   0   5   10.43    1.03
   6   0   6    8.44    0.78
   6   1   4   12.96    1.03
   6   1   5   11.07    0.67
   6   1   6   12.91    0.86
   6   2   6    4.87    0.51
   6   3   5    7.28    0.76
   0   0   0    0.00    0.00
;
_shelx_hkl_checksum              29060
_olex2_submission_special_instructions 'No special instructions were received'
loop_
_space_group_symop_operation_xyz
'x, y, z'
'x, -y, z'
loop_
_atom_site_label
_atom_site_type_symbol
_atom_site_fract_x
_atom_site_fract_y
_atom_site_fract_z
_atom_site_U_iso_or_equiv
_atom_site_adp_type
_atom_site_occupancy
_atom_site_site_symmetry_order
_atom_site_calc_flag
_atom_site_refinement_flags_posn
_atom_site_refinement_flags_adp
_atom_site_refinement_flags_occupancy
Co1 Co 0.0003(3) 0.0000 0.0021(3) 0.0249(7) Uani 1 2 d S T P
C6 C 0.005(4) 0.0000 0.437(2) 0.032(5) Uani 1 2 d S TU P
H6 H 0.1487 0.0000 0.4135 0.039 Uiso 1 2 calc RS T P
O2 O -0.281(2) 0.0000 0.1275(13) 0.035(3) Uani 1 2 d DS TU P
O1 O 0.065(2) 0.0000 0.1903(12) 0.024(3) Uani 1 2 d S TU P
O4 O -0.141(2) 0.0000 0.8149(12) 0.024(3) Uani 1 2 d S TU P
C7 C -0.133(3) 0.0000 0.2171(18) 0.029(4) Uani 1 2 d S TU P
C4 C -0.260(3) 0.0000 0.5882(18) 0.029(4) Uani 1 2 d S TU P
C2 C -0.407(6) 0.0000 0.377(3) 0.068(8) Uani 1 2 d S TU P
H2 H -0.5296 0.0000 0.3191 0.081 Uiso 1 2 calc RS T P
C5 C -0.042(8) 0.0000 0.563(5) 0.098(13) Uani 1 2 d S TU P
H5 H 0.0709 0.0000 0.6281 0.117 Uiso 1 2 calc RS T P
C1 C -0.186(4) 0.0000 0.344(2) 0.037(4) Uani 1 2 d S TU P
C8 C -0.295(4) 0.0000 0.736(2) 0.049(6) Uani 1 2 d S TU P
C3 C -0.418(4) 0.0000 0.509(3) 0.054(6) Uani 1 2 d S TU P
H3 H -0.5581 0.0000 0.5372 0.064 Uiso 1 2 calc RS T P
O3 O -0.500(5) 0.0000 0.761(3) 0.102(9) Uani 1 2 d S TU P
O1W O 0.332(2) 0.0000 -0.0227(11) 0.026(3) Uani 1 2 d DS TU P
H1WA H 0.3486 0.0000 -0.0981 0.039 Uiso 1 2 calc DRS T P
N1 N 0.000(3) 0.3161(13) -0.0102(14) 0.025(2) Uani 1 1 d . . .
C11 C 0.133(2) 0.3950(18) 0.1027(12) 0.031(3) Uani 1 1 d . U .
H11A H 0.0729 0.3499 0.1783 0.037 Uiso 1 1 calc R . .
H11B H 0.2833 0.3499 0.1037 0.037 Uiso 1 1 calc R . .
C9 C 0.086(2) 0.3890(19) -0.1232(13) 0.031(3) Uani 1 1 d . U .
H9A H -0.0038 0.3434 -0.1966 0.037 Uiso 1 1 calc R . .
H9 H 0.2349 0.3434 -0.1279 0.037 Uiso 1 1 calc R . .
C10 C -0.230(2) 0.3951(19) -0.0082(15) 0.036(3) Uani 1 1 d . . .
H10A H -0.3207 0.3500 -0.0812 0.043 Uiso 1 1 calc R . .
H10B H -0.2935 0.3500 0.0662 0.043 Uiso 1 1 calc R . .
H1WB H 0.442(6) 0.0000 0.051(3) 0.054 Uiso 1 2 d DRS T P
loop_
_atom_site_aniso_label
_atom_site_aniso_U_11
_atom_site_aniso_U_22
_atom_site_aniso_U_33
_atom_site_aniso_U_23
_atom_site_aniso_U_13
_atom_site_aniso_U_12
Co1 0.0198(12) 0.0402(14) 0.0140(10) 0.000 -0.0020(8) 0.000
C6 0.032(5) 0.033(5) 0.032(5) 0.000 0.0026(14) 0.000
O2 0.035(3) 0.036(3) 0.035(3) 0.000 0.0031(14) 0.000
O1 0.024(3) 0.024(3) 0.023(3) 0.000 0.0017(13) 0.000
O4 0.024(3) 0.024(3) 0.024(3) 0.000 0.0014(13) 0.000
C7 0.029(4) 0.029(4) 0.029(4) 0.000 0.0028(14) 0.000
C4 0.028(4) 0.029(4) 0.029(4) 0.000 0.0025(14) 0.000
C2 0.068(8) 0.068(8) 0.068(8) 0.000 0.0058(15) 0.000
C5 0.098(14) 0.098(14) 0.098(14) 0.000 0.0087(18) 0.000
C1 0.037(5) 0.037(5) 0.037(5) 0.000 0.0035(14) 0.000
C8 0.049(6) 0.049(6) 0.049(6) 0.000 0.0043(14) 0.000
C3 0.054(6) 0.054(6) 0.053(6) 0.000 0.0046(15) 0.000
O3 0.101(9) 0.103(9) 0.101(9) 0.000 0.009(3) 0.000
O1W 0.025(3) 0.028(3) 0.024(3) 0.000 0.001(2) 0.000
N1 0.027(5) 0.023(4) 0.024(6) -0.005(5) 0.000(4) 0.013(5)
C11 0.030(3) 0.031(3) 0.030(3) 0.0002(13) 0.0017(13) -0.0002(13)
C9 0.031(3) 0.031(3) 0.030(3) -0.0002(13) 0.0031(13) 0.0000(13)
C10 0.017(6) 0.037(8) 0.055(9) 0.006(7) 0.006(6) 0.000(5)
loop_
_atom_type_symbol
_atom_type_description
_atom_type_scat_dispersion_real
_atom_type_scat_dispersion_imag
_atom_type_scat_source
C C 0.0181 0.0091 'International Tables Vol C Tables 4.2.6.8 and 6.1.1.4'
H H 0.0000 0.0000 'International Tables Vol C Tables 4.2.6.8 and 6.1.1.4'
Co Co -2.3653 3.6143 'International Tables Vol C Tables 4.2.6.8 and 6.1.1.4'
N N 0.0311 0.0180 'International Tables Vol C Tables 4.2.6.8 and 6.1.1.4'
O O 0.0492 0.0322 'International Tables Vol C Tables 4.2.6.8 and 6.1.1.4'
loop_
_geom_angle_atom_site_label_1
_geom_angle_atom_site_label_2
_geom_angle_atom_site_label_3
_geom_angle
_geom_angle_site_symmetry_1
_geom_angle_site_symmetry_3
O1 Co1 O2 60.2(5) . .
O1 Co1 O4 167.2(5) . 1_554
O1 Co1 O1W 91.2(5) . .
O1 Co1 N1 93.3(4) . .
O1 Co1 N1 93.3(4) . 2
O4 Co1 O2 107.0(5) 1_554 .
O4 Co1 N1 86.9(4) 1_554 2
O4 Co1 N1 86.9(4) 1_554 .
O1W Co1 O2 151.4(5) . .
O1W Co1 O4 101.6(5) . 1_554
O1W Co1 N1 89.4(4) . 2
O1W Co1 N1 89.4(4) . .
N1 Co1 O2 92.1(4) . .
N1 Co1 O2 92.1(4) 2 .
N1 Co1 N1 173.3(8) . 2
C5 C6 H6 122.2 . .
C5 C6 C1 116(2) . .
C1 C6 H6 122.2 . .
C7 O2 Co1 85.3(12) 2 .
C7 O2 Co1 85.3(12) . .
C7 O2 C7 0.0(13) 2 .
C7 O1 Co1 96.9(12) 2 .
C7 O1 Co1 96.9(12) . .
C7 O1 C7 0.0(17) 2 .
C8 O4 Co1 153.1(16) . 1_556
O2 C7 C1 121.0(19) . .
O1 C7 O2 117.6(18) . .
O1 C7 C1 121.4(19) . .
C7 C7 O2 0(10) 2 .
C7 C7 O1 0(10) 2 .
C7 C7 C1 0(10) 2 .
C5 C4 C8 114(3) . .
C3 C4 C5 125(3) . .
C3 C4 C8 121(2) . .
C1 C2 H2 123.9 . .
C3 C2 H2 123.9 . .
C3 C2 C1 112(3) . .
C6 C5 H5 121.1 . .
C4 C5 C6 118(3) . .
C4 C5 H5 121.1 . .
C7 C1 C6 114.0(19) 2 .
C7 C1 C6 114.0(19) . .
C7 C1 C7 0.0(4) 2 .
C2 C1 C6 123(2) . .
C2 C1 C7 123(2) . 2
C2 C1 C7 123(2) . .
O4 C8 C4 122(2) . .
O4 C8 O3 124(3) . .
O3 C8 C4 114(2) . .
C4 C3 C2 126(3) . .
C4 C3 H3 117.1 . .
C2 C3 H3 117.1 . .
Co1 O1W H1WA 109.5 . .
Co1 O1W H1WB 120(3) . .
H1WA O1W H1WB 130.6 . .
C11 N1 Co1 109.1(9) . .
C11 N1 C10 106.6(11) . .
C9 N1 Co1 113.9(9) . .
C9 N1 C11 109.0(12) . .
C9 N1 C10 106.5(11) . .
C10 N1 Co1 111.5(9) . .
N1 C11 H11A 109.2 . .
N1 C11 H11B 109.2 . .
C11 C11 N1 111.9(7) 2_565 .
C11 C11 H11A 109.2 2_565 .
C11 C11 H11B 109.2 2_565 .
H11A C11 H11B 107.9 . .
N1 C9 C9 110.8(7) . 2_565
N1 C9 H9A 109.5 . .
N1 C9 H9 109.5 . .
C9 C9 H9A 109.5 2_565 .
C9 C9 H9 109.5 2_565 .
H9A C9 H9 108.1 . .
N1 C10 H10A 109.3 . .
N1 C10 H10B 109.3 . .
C10 C10 N1 111.8(7) 2_565 .
C10 C10 H10A 109.3 2_565 .
C10 C10 H10B 109.3 2_565 .
H10A C10 H10B 107.9 . .
loop_
_geom_bond_atom_site_label_1
_geom_bond_atom_site_label_2
_geom_bond_distance
_geom_bond_site_symmetry_2
Co1 O2 2.269(15) .
Co1 O1 2.014(12) .
Co1 O4 2.107(13) 1_554
Co1 O1W 2.063(13) .
Co1 N1 2.247(9) 2
Co1 N1 2.247(9) .
C6 H6 0.9300 .
C6 C5 1.41(4) .
C6 C1 1.46(3) .
O2 C7 1.26(2) .
O2 C7 1.26(2) 2
O1 C7 1.26(2) 2
O1 C7 1.26(2) .
O4 Co1 2.107(13) 1_556
O4 C8 1.20(3) .
C7 C7 0.00(6) 2
C7 C1 1.43(3) .
C4 C5 1.38(5) .
C4 C8 1.62(3) .
C4 C3 1.23(3) .
C2 H2 0.9300 .
C2 C1 1.42(4) .
C2 C3 1.41(4) .
C5 H5 0.9300 .
C1 C7 1.43(3) 2
C8 O3 1.30(4) .
C3 H3 0.9300 .
O1W H1WA 0.8200 .
O1W H1WB 0.990(18) .
N1 C11 1.501(19) .
N1 C9 1.45(2) .
N1 C10 1.508(19) .
C11 C11 1.49(3) 2_565
C11 H11A 0.9700 .
C11 H11B 0.9700 .
C9 C9 1.57(3) 2_565
C9 H9A 0.9700 .
C9 H9 0.9700 .
C10 C10 1.49(3) 2_565
C10 H10A 0.9700 .
C10 H10B 0.9700 .
loop_
_geom_torsion_atom_site_label_1
_geom_torsion_atom_site_label_2
_geom_torsion_atom_site_label_3
_geom_torsion_atom_site_label_4
_geom_torsion
_geom_torsion_site_symmetry_1
_geom_torsion_site_symmetry_4
Co1 O2 C7 O1 0.000(1) . .
Co1 O2 C7 C7 0(100) . 2
Co1 O2 C7 C1 180.000(3) . .
Co1 O1 C7 O2 0.000(2) . .
Co1 O1 C7 C7 0(5) . 2
Co1 O1 C7 C1 180.000(3) . .
Co1 O4 C8 C4 180.000(11) 1_556 .
Co1 O4 C8 O3 0.00(2) 1_556 .
Co1 N1 C11 C11 -178.0(4) . 2_565
Co1 N1 C9 C9 -178.5(5) . 2_565
Co1 N1 C10 C10 176.4(4) . 2_565
O2 C7 C1 C6 180.000(4) . .
O2 C7 C1 C7 0(100) . 2
O2 C7 C1 C2 0.000(6) . .
O1 C7 C1 C6 0.000(4) . .
O1 C7 C1 C7 0(100) . 2
O1 C7 C1 C2 180.000(5) . .
C7 O2 C7 O1 0(100) 2 .
C7 O2 C7 C1 0(100) 2 .
C7 O1 C7 O2 0(100) 2 .
C7 O1 C7 C1 0(100) 2 .
C7 C7 C1 C6 0(100) 2 .
C7 C7 C1 C2 0(2) 2 .
C5 C6 C1 C7 180.000(5) . .
C5 C6 C1 C7 180.000(5) . 2
C5 C6 C1 C2 0.000(7) . .
C5 C4 C8 O4 0.000(8) . .
C5 C4 C8 O3 180.000(10) . .
C5 C4 C3 C2 0.000(11) . .
C1 C6 C5 C4 0.000(9) . .
C1 C2 C3 C4 0.000(7) . .
C8 C4 C5 C6 180.000(6) . .
C8 C4 C3 C2 180.000(6) . .
C3 C4 C5 C6 0.000(14) . .
C3 C4 C8 O4 180.000(6) . .
C3 C4 C8 O3 0.000(11) . .
C3 C2 C1 C6 0.000(7) . .
C3 C2 C1 C7 180.000(6) . 2
C3 C2 C1 C7 180.000(6) . .
C11 N1 C9 C9 -56.5(10) . 2_565
C11 N1 C10 C10 57.5(11) . 2_565
C9 N1 C11 C11 57.1(11) . 2_565
C9 N1 C10 C10 -58.8(10) . 2_565
C10 N1 C11 C11 -57.5(11) . 2_565
C10 N1 C9 C9 58.2(10) . 2_565
loop_
_smtbx_masks_void_nr
_smtbx_masks_void_average_x
_smtbx_masks_void_average_y
_smtbx_masks_void_average_z
_smtbx_masks_void_volume
_smtbx_masks_void_count_electrons
1 -0.034 0.500 0.493 142.4 62.4
