#------------------------------------------------------------------------------
#$Date: 2019-11-24 04:12:18 +0200 (Sun, 24 Nov 2019) $
#$Revision: 236652 $
#$URL: file:///home/coder/svn-repositories/cod/cif/8/00/03/8000376.cif $
#------------------------------------------------------------------------------
#
# This file is available in the Crystallography Open Database (COD),
# http://www.crystallography.net/
#
# All data on this site have been placed in the public domain by the
# contributors.
#
data_8000376
loop_
_publ_author_name
'Andrzejewski, Micha\/l'
'Katrusiak, Andrzej'
_publ_section_title
;
 Piezochromic Porous Metal-Organic Framework.
;
_journal_issue                   1
_journal_name_full               'The journal of physical chemistry letters'
_journal_page_first              279
_journal_page_last               284
_journal_paper_doi               10.1021/acs.jpclett.6b02458
_journal_volume                  8
_journal_year                    2017
_chemical_formula_moiety         'C14 H18 Co N2 O5'
_chemical_formula_sum            'C14 H18 Co N2 O5'
_chemical_formula_weight         353.23
_chemical_name_common            AMU1
_chemical_name_systematic
;
Co(1,4-benzenedicarboxylate)(1,4-diazabicyclo[2.2.2]octane)H2O
;
_space_group_crystal_system      triclinic
_space_group_IT_number           1
_space_group_name_Hall           'P 1'
_space_group_name_H-M_alt        'P 1'
_atom_sites_solution_hydrogens   mixed
_atom_sites_solution_primary     direct
_audit_creation_date             2016-07-12
_audit_creation_method
;
Olex2 1.2
(compiled 2016.02.19 svn.r3266 for OlexSys, GUI svn.r5155)
;
_cell_angle_alpha                90.369(11)
_cell_angle_beta                 96.279(12)
_cell_angle_gamma                94.712(4)
_cell_formula_units_Z            1
_cell_length_a                   5.9012(3)
_cell_length_b                   7.0666(3)
_cell_length_c                   10.625(3)
_cell_measurement_reflns_used    991
_cell_measurement_temperature    296(2)
_cell_measurement_theta_max      55.834
_cell_measurement_theta_min      5.786
_cell_volume                     438.88(13)
_computing_molecular_graphics    'Olex2 (Dolomanov et al., 2009)'
_computing_publication_material  'Olex2 (Dolomanov et al., 2009)'
_computing_structure_refinement  'ShelXL (Sheldrick, 2015)'
_computing_structure_solution    'ShelXS (Sheldrick, 2008)'
_diffrn_ambient_temperature      296(2)
_diffrn_measured_fraction_theta_full 0.270
_diffrn_measured_fraction_theta_max 0.246
_diffrn_measurement_device_type  'multiwire proportional'
_diffrn_measurement_method       'phi and omega scans'
_diffrn_radiation_monochromator  graphite
_diffrn_radiation_type           MoK\a
_diffrn_radiation_wavelength     0.71073
_diffrn_reflns_av_R_equivalents  0.2092
_diffrn_reflns_av_unetI/netI     0.1740
_diffrn_reflns_Laue_measured_fraction_full 0.270
_diffrn_reflns_Laue_measured_fraction_max 0.246
_diffrn_reflns_limit_h_max       7
_diffrn_reflns_limit_h_min       -7
_diffrn_reflns_limit_k_max       9
_diffrn_reflns_limit_k_min       -9
_diffrn_reflns_limit_l_max       3
_diffrn_reflns_limit_l_min       -3
_diffrn_reflns_number            2827
_diffrn_reflns_point_group_measured_fraction_full 0.270
_diffrn_reflns_point_group_measured_fraction_max 0.246
_diffrn_reflns_theta_full        26.000
_diffrn_reflns_theta_max         27.917
_diffrn_reflns_theta_min         2.893
_exptl_absorpt_coefficient_mu    0.999
_exptl_absorpt_correction_T_max  0.909
_exptl_absorpt_correction_T_min  0.892
_exptl_absorpt_correction_type   multi-scan
_exptl_absorpt_process_details
;
Data were collected and reduced by program CrysAlisPro, 
and SCALE3 ABSPACK was used for absorption correction
;
_exptl_crystal_colour            orange/yellow
_exptl_crystal_density_diffrn    1.337
_exptl_crystal_description       plate
_exptl_crystal_F_000             183
_exptl_crystal_size_max          0.3
_exptl_crystal_size_mid          0.1
_exptl_crystal_size_min          0.1
_refine_diff_density_max         1.752
_refine_diff_density_min         -1.695
_refine_diff_density_rms         0.289
_refine_ls_abs_structure_details
;
 Refined as a perfect inversion twin.
;
_refine_ls_abs_structure_Flack   0.5
_refine_ls_extinction_method     none
_refine_ls_goodness_of_fit_ref   2.143
_refine_ls_hydrogen_treatment    constr
_refine_ls_matrix_type           full
_refine_ls_number_parameters     64
_refine_ls_number_reflns         991
_refine_ls_number_restraints     48
_refine_ls_restrained_S_all      2.529
_refine_ls_R_factor_all          0.2813
_refine_ls_R_factor_gt           0.2116
_refine_ls_shift/su_max          0.000
_refine_ls_shift/su_mean         0.000
_refine_ls_structure_factor_coef Fsqd
_refine_ls_weighting_details
'w=1/[\s^2^(Fo^2^)+(0.2000P)^2^] where P=(Fo^2^+2Fc^2^)/3'
_refine_ls_weighting_scheme      calc
_refine_ls_wR_factor_gt          0.4565
_refine_ls_wR_factor_ref         0.5278
_reflns_Friedel_coverage         1.000
_reflns_Friedel_fraction_full    0.270
_reflns_Friedel_fraction_max     0.246
_reflns_number_gt                662
_reflns_number_total             991
_reflns_threshold_expression     'I > 2\s(I)'
_cod_data_source_file            jz6b02458_si_004.cif
_cod_data_source_block           075GPa_P1
_cod_original_cell_volume        438.86(13)
_cod_database_code               8000376
_shelx_space_group_comment
;
The symmetry employed for this shelxl refinement is uniquely defined
by the following loop, which should always be used as a source of
symmetry information in preference to the above space-group names.
They are only intended as comments.
;
_olex2_refinement_description
;
1. Fixed Uiso
 At 1.2 times of:
  All C(H) groups, All C(H,H) groups
 At 1.5 times of:
  All O(H,H) groups
2. Restrained distances
 O2-C7
 1.25 with sigma of 0.002
 C8-C4
 1.48 with sigma of 0.002
 C1-C7
 1.48 with sigma of 0.002
 C4-C5
 1.38 with sigma of 0.002
 C5-C6
 1.38 with sigma of 0.002
 C6-C1
 1.38 with sigma of 0.002
 C1-C2
 1.38 with sigma of 0.002
 C2-C3
 1.38 with sigma of 0.002
 C3-C4
 1.38 with sigma of 0.002
 C9-N1
 1.46 with sigma of 0.002
 N1-C13
 1.46 with sigma of 0.002
 N1-C11
 1.46 with sigma of 0.002
 C12-N2
 1.46 with sigma of 0.002
 N2-C14
 1.46 with sigma of 0.002
 N2-C10
 1.46 with sigma of 0.002
 C9-C10
 1.52 with sigma of 0.002
 C13-C14
 1.52 with sigma of 0.002
 C11-C12
 1.52 with sigma of 0.002
 O2_$1-C7_$1
 1.25 with sigma of 0.002
 O1_$2-C7_$1
 1.25 with sigma of 0.002
 O4-C8
 1.25 with sigma of 0.002
 O3-C8
 1.25 with sigma of 0.002
 O3-O4
 2.16 with sigma of 0.002
 N1-C9
 1.48 with sigma of 0.002
 N1-C11
 1.48 with sigma of 0.002
 N1-C13
 1.48 with sigma of 0.002
 N2-C14
 1.48 with sigma of 0.002
 N2-C12
 1.48 with sigma of 0.002
 C10-N2
 1.48 with sigma of 0.002
 C9-C10
 1.52 with sigma of 0.002
 C14-C13
 1.52 with sigma of 0.002
 C12-C11
 1.52 with sigma of 0.002
 O1_$2-O2_$1
 2.16 with sigma of 0.002
 C5_$3-C8_$3 \\sim C8_$3-C3_$3
 with sigma of 0.02
 O1_$2-Co1_$2 \\sim Co1_$2-O2_$1
 with sigma of 0.02
 C14-C12 \\sim C12-C10
 with sigma of 0.02
 C9-C13 \\sim C13-C11
 with sigma of 0.02
3. Restrained planarity
 O2, C7, C1, C6, C5, C4, C3, C8, O4, O3, C2
 with sigma of 0.1
4. Uiso/Uaniso restraints and constraints
Uiso(C3) = Uiso(C6) = Uiso(C1) = Uiso(C2) = Uiso(C4) = Uiso(C5) = Uiso(C8)
Uiso(O3) = Uiso(O4) = Uiso(O2) = Uiso(O1)
Uiso(C9) = Uiso(C10) = Uiso(C14) = Uiso(C13) = Uiso(C12) = Uiso(C11)
5.a Rotating group:
 O1W(H1WA,H1WB)
5.b Secondary CH2 refined with riding coordinates:
 C11(H11,H11B), C9(H9A,H9B), C12(H12A,H12), C10(H10A,H10B), C14(H14A,H14B),
 C13(H13A,H13B)
5.c Aromatic/amide H refined with riding coordinates:
 C6(H6), C2(H2), C3(H3), C5(H5)
5.d Fitted hexagon refined as free rotating group:
 C6(C1,C2,C3,C4,C5)
;
_shelx_hkl_file
;
   5   0   2  -60.67   14.01
   7  -1   1    3.35   10.01
   5  -3   1    3.90    6.07
   7   0   1    2.56   12.18
   5   4   1   20.91    8.55
   7   1   1    4.26   11.28
   7  -3   0   24.32   12.46
   6  -2   1   35.08   10.32
   4   4   1    2.54    8.25
   6   3   1   14.53   11.15
   6  -1   1   87.12   15.46
   5  -2   1   10.08   12.00
   7  -2   0   30.36   18.67
   6   0   1  -26.58   17.81
   6   2   1    8.65   16.26
   6   4   0   57.79   19.41
   6   1   1   26.42   17.89
   5   3   1   59.58   15.53
   7  -1   0   12.21   21.39
   5  -1   1   17.63   14.68
   7   0   0   -2.46   22.37
   7   2   0   18.12   22.66
   7   1   0   43.98   23.25
   7  -3  -1   36.61   24.69
   5   4   0   45.97   19.78
   5   1   1   19.96   17.38
   6  -2   0   43.49   19.18
   5  -3   0   72.01   17.79
   4  -1   1   18.02   13.53
   6   3   0   42.74   22.71
   7  -2  -1    5.23   25.23
   2   0   1  -12.89    6.01
   4   0   1 -126.01   15.03
   6  -1   0   83.50   20.08
   6   4  -1   23.74   25.03
   4   1   1    8.16   12.51
   4   4   0   34.34   16.56
   6   0   0  -78.13   21.24
   6   2   0    8.32   23.69
   3   0   1  528.16   20.37
   7  -1  -1   34.45   25.69
   6   1   0   76.60   21.54
   6  -3  -1   92.75   22.13
   5  -2   0   28.21   16.92
   7   0  -1  -19.48   25.20
   7   2  -1   -4.37   27.50
   7   1  -1   -1.90   25.70
   7  -3  -2   46.71   27.38
   5   3   0   33.00   20.87
   5  -1   0   65.64   17.48
   6  -2  -1   21.70   21.19
   5   4  -1   41.52   21.05
   5   2   0    1.77   18.93
   7  -2  -2   48.44   25.77
   4  -2   0   57.84   13.52
   5   1   0   60.41   18.39
   6   3  -1   47.74   24.06
   6   4  -2   81.77   26.22
   5  -3  -1   69.63   18.87
   7  -1  -2   39.36   26.89
   6   0  -1   94.10   22.49
   7   0  -2   11.35   27.16
   6   2  -1   21.95   24.34
   7   2  -2    5.08   28.75
   7   1  -2    7.32   26.01
   6  -3  -2   91.43   22.98
   4   2   0   50.02   14.57
   4   4  -1   76.92   17.65
   5  -2  -1   36.10   17.21
   5   3  -1   51.25   20.65
   6  -2  -2   70.83   22.61
   5   4  -2   61.60   21.95
   5  -1  -1   36.85   18.63
   6   3  -2   87.24   25.97
   5   2  -1    1.79   20.25
   6  -1  -2  105.37   23.49
   5   1  -1   24.27   18.66
   6   0  -2    0.77   23.57
   6   2  -2   20.68   24.08
   6   1  -2  104.97   23.17
   6  -2  -3  102.44   23.68
   5  -2  -2   62.30   18.09
   4   4  -2   87.24   18.68
   6  -1  -3  145.31   24.27
   6   0  -3 -109.44   23.63
   5   2  -2   22.14   21.52
   4  -2  -2   71.10   13.74
   4   2  -2   47.46   15.75
   4  -2  -3   79.61   14.66
   4  -1  -3   52.84   14.07
   4   1  -3   25.85   14.44
   3   1   2   80.98    5.97
   4   2   2  107.09    8.48
   5   1   2  101.00    9.77
   4  -3   1   54.23    6.81
   4   1   2  213.71    9.95
   1   1   1   63.13    2.70
   3   4   1  104.49    7.96
   2   3   1  133.93    7.23
   6  -3   0   50.15   17.53
   3  -2   1  146.60    9.20
   4  -2   1   82.24   11.33
   2  -1   1  252.52    7.46
   3   3   1  224.18   12.49
   4   3   1   15.81   13.67
   2   2   1   83.13    7.93
   3  -1   1  222.58   11.08
   4   2   1    3.88   14.05
   2  -3   0  128.60    7.12
   3   2   1  199.69   11.84
   2   1   1  286.92    8.90
   4  -3   0  247.60   15.73
   3  -3   0  358.34   12.19
   3   1   1  263.99   12.52
   3   4   0  198.63   14.48
   2   4   0  499.70   12.61
   1  -2   0 2358.20   11.17
   6  -1  -1  186.75   23.20
   4   3   0  136.76   16.90
   6   1  -1  104.18   22.66
   3  -2   0  224.20   11.38
   4  -1   0  198.26   15.04
   1   3   0  754.75    9.28
   2  -2   0   47.84    6.48
   3   3   0  504.45   15.66
   4   1   0  130.83   15.52
   4  -3  -1  290.11   16.39
   2   3   0  192.40    9.79
   3  -1   0  334.54   12.29
   3   2   0  158.53   11.73
   3   4  -1  297.05   15.34
   5  -3  -2  141.48   20.28
   3   1   0  301.26   13.23
   6  -3  -3  186.85   25.69
   2  -1   0  560.74    9.56
   4  -2  -1  190.27   14.85
   3  -3  -1  497.69   13.50
   2   2   0  553.51   11.18
   1  -1   0  710.63    6.63
   4   3  -1  114.17   17.20
   4  -1  -1  186.37   15.37
   1   2   0   61.68    4.36
   2   4  -1  263.45   11.42
   5   3  -2   57.30   22.23
   2   1   0  621.64   10.57
   4   2  -1   75.04   15.36
   5  -1  -2  140.89   18.41
   4   1  -1  154.85   14.72
   6   1  -3   32.39   24.68
   5   1  -2   87.33   20.46
   4  -3  -2  215.84   16.19
   2  -3  -1  272.17    8.59
   3  -2  -1  165.15   10.95
   5  -3  -3  116.13   20.32
   3   3  -1  473.33   15.65
   1   1   0  349.16    5.86
   3   4  -2  326.17   16.31
   5  -2  -3  136.95   18.86
   3  -1  -1  634.70   14.38
   4   3  -2  192.95   17.95
   3   2  -1  233.69   12.79
   5  -1  -3  114.54   18.71
   3   1  -1  487.45   13.82
   5   2  -3  168.09   21.27
   4  -1  -2   92.89   13.49
   5   1  -3  171.24   19.99
   4   1  -2   81.02   14.21
   3  -3  -2  921.61   16.54
   2  -2  -1  141.78    6.98
   2   3  -1  464.78   11.99
   4  -3  -3  210.16   16.62
   2   4  -2  966.48   15.99
   3   3  -2  528.63   16.38
   3  -2  -2  905.19   15.69
   2  -1  -1  636.03    9.92
   2   2  -1   48.13    7.73
   1   3  -1  376.64    7.83
   2   1  -1  955.14   12.30
   3  -1  -2 1698.74   19.60
   3   2  -2  527.79   15.00
   3   1  -2 1367.22   18.99
   2   3  -2 1033.37   15.20
   2  -3  -2  339.31    9.01
   1   4  -2  134.83    7.80
   1   2  -1  203.47    5.70
   2  -2  -2  237.40    7.84
   1  -2  -1  437.74    5.36
   2   2  -2  822.49   13.04
   2  -1  -2  709.44   10.88
   2   1  -2 1310.30   14.68
  -4  -1  -2    2.18    7.79
  -1  -1  -1   -0.64    1.79
  -7   3   0    5.50   13.47
  -6   2  -1    3.74   11.73
  -4  -4  -1   -4.03   13.01
  -6  -3  -1   -2.90   13.88
  -3  -4  -1   -2.25    8.70
  -6   1  -1  -11.20   21.41
  -5   2  -1   -2.98   15.81
  -7   2   0  -14.35   25.47
  -6  -2  -1   -8.63   21.51
  -6   0  -1   36.95   23.28
  -6  -4   0   32.81   30.08
  -2  -3  -1   16.43    8.65
  -6  -1  -1   12.75   24.90
  -6   3   0   34.07   22.41
  -4   2  -1   54.67   15.39
  -5  -3  -1    7.77   19.88
  -7   1   0   11.43   28.67
  -5   1  -1    6.62   20.28
  -7   0   0   71.90   31.48
  -7  -2   0   17.00   33.08
  -7  -1   0   36.65   32.98
  -7   3   1   54.37   29.40
  -5  -2  -1   24.34   23.62
  -5   0  -1  139.19   18.86
  -5  -4   0   49.68   24.65
  -5  -1  -1    3.27   18.71
  -6   2   0   23.47   24.52
  -5   3   0   53.89   19.38
  -4   1  -1   25.71   13.88
  -6  -3   0   37.80   29.04
  -4  -2  -1   -5.84   16.64
  -2   0  -1  158.92    7.16
  -7   2   1   32.62   29.60
  -4   0  -1  357.66   17.58
  -6   1   0   69.78   24.00
  -4  -1  -1    6.76   15.17
  -6  -4   1   57.06   31.61
  -6   0   0  189.52   25.42
  -4  -4   0   26.57   19.55
  -6  -2   0   32.76   25.96
  -3   0  -1 1425.16   20.74
  -7   1   1   -4.15   27.53
  -6  -1   0   84.93   26.95
  -6   3   1   50.30   22.75
  -7   0   1   28.10   27.26
  -5   2   0    8.51   17.58
  -7  -2   1    5.81   32.68
  -7  -1   1   17.08   30.93
  -7   3   2   23.44   29.30
  -5  -3   0   76.30   23.08
  -5   1   0   43.58   19.23
  -6   2   1   33.30   20.80
  -5  -4   1   52.25   23.25
  -5  -2   0   16.88   19.48
  -7   2   2   16.60   29.23
  -5   0   0  164.54   19.69
  -4   2   0   43.58   13.69
  -5  -1   0   37.54   20.17
  -6  -3   1   66.13   30.25
  -6  -4   2   71.86   30.54
  -5   3   1   60.94   17.74
  -7   1   2   62.66   28.97
  -6   0   1  151.84   21.14
  -7   0   2   49.46   26.66
  -6  -2   1   35.55   24.06
  -7  -2   2   -8.33   30.08
  -6  -1   1  123.97   24.77
  -7  -1   2   49.37   29.25
  -6   3   2   75.32   21.48
  -4  -2   0   37.49   15.40
  -4  -4   1   54.68   18.45
  -4   0   0  373.37   17.26
  -5   2   1   42.33   15.82
  -5  -3   1   29.11   21.37
  -6   2   2   57.78   21.52
  -5  -4   2   83.53   22.99
  -5   1   1   37.68   17.19
  -6  -3   2   81.08   28.30
  -5  -2   1   16.81   19.09
  -5   0   1  135.26   17.99
  -5  -1   1   28.58   16.11
  -6   0   2  207.43   21.30
  -6  -2   2   61.26   23.10
  -3   0   0  595.25   16.58
  -6  -1   2  107.00   23.72
  -6   2   3  100.83   20.83
  -5   2   2   63.20   16.46
  -4  -4   2   77.06   17.60
  -2   0   0 3651.09   17.42
  -6   1   3  144.52   20.98
  -4   0   1  687.34   17.18
  -6   0   3  178.50   24.81
  -5  -2   2   79.30   18.69
  -5   0   2  382.64   20.58
  -3   0   1  396.76   17.96
  -5   0   3  520.47   25.41
  -4   0   2  258.40   15.46
  -4   1   3   79.68   14.39
  -4   0   3  737.61   18.33
  -2   0   1  522.37    7.55
  -4  -1   3   17.46   13.10
  -3   0   2 3681.06   26.00
  -2   0   2 2632.39   17.71
  -3   2  -1   35.51    9.69
  -2   1  -1  191.96    8.31
  -3  -3  -1  152.33   14.88
  -4  -3  -1   11.16   18.71
  -2  -2  -1   69.28    9.65
  -3   1  -1  171.81   12.08
  -2   3   0  113.07    6.70
  -3  -2  -1  152.03   13.77
  -2  -1  -1  262.85    9.33
  -4   3   0  203.48   15.89
  -3   3   0  274.76   12.00
  -3  -1  -1  224.27   13.89
  -3  -4   0  163.49   15.60
  -2  -4   0  392.73   13.15
  -1   2   0 2569.48   12.02
  -6   1   1  134.50   22.39
  -4  -3   0  110.92   17.63
  -3   2   0  204.41   10.84
  -4   1   0  151.27   13.75
  -1  -3   0  712.37    9.74
  -2   2   0   49.36    5.66
  -3  -3   0  396.03   15.37
  -4  -1   0  125.55   14.75
  -4   3   1  251.74   14.75
  -2  -3   0  171.81    9.47
  -3   1   0  331.77   11.70
  -6   1   2  102.30   21.05
  -3  -2   0  138.62   11.52
  -3  -4   1  273.21   15.15
  -5   3   2  144.37   17.29
  -3  -1   0  271.90   11.06
  -6   3   3  206.59   21.91
  -2   1   0  567.50    9.10
  -4   2   1  141.91   12.73
  -3   3   1  444.01   11.67
  -2  -2   0  514.15   10.72
  -1   1   0  713.10    6.51
  -4  -3   1  100.71   15.77
  -4   1   1  180.51   12.37
  -1  -2   0   63.56    3.99
  -2  -4   1  282.68   11.11
  -5  -3   2  120.61   20.07
  -2  -1   0  577.10   10.14
  -4  -2   1   54.06   14.11
  -5   1   2  142.54   17.13
  -4  -1   1  134.27   13.99
  -6  -1   3   69.45   21.33
  -5  -1   2  122.41   16.95
  -4   3   2  231.10   13.83
  -2   3   1  245.14    6.94
  -3   2   1  134.44    9.14
  -5   3   3  127.65   16.60
  -3  -3   1  437.57   14.53
  -1  -1   0  353.97    5.57
  -3  -4   2  323.54   16.09
  -5   2   3  130.07   16.84
  -3   1   1  614.94   12.69
  -4   2   2   98.37   12.60
  -4  -3   2  178.34   17.14
  -3  -2   1  197.07   11.09
  -5   1   3   88.60   16.70
  -3  -1   1  464.57   13.15
  -5  -2   3  226.21   21.46
  -4   1   2  125.07   13.41
  -5  -1   3  168.59   20.50
  -4  -2   2   51.63   14.71
  -4  -1   2   79.07   13.99
  -3   3   2  881.54   14.52
  -2   2   1  154.99    6.29
  -2  -3   1  429.15   10.96
  -4   3   3  227.51   14.58
  -2  -4   2  947.04   15.76
  -4   2   3  101.97   13.37
  -3  -3   2  519.06   16.14
  -3   2   2  911.39   15.30
  -2   1   1  658.75    9.65
  -2  -2   1   69.92    7.55
  -1  -3   1  397.89    8.01
  -2  -1   1  916.99   12.06
  -3   1   2 1652.49   19.19
  -3  -2   2  528.46   15.08
  -3  -1   2 1354.59   19.33
  -2  -3   2  987.31   15.32
  -2   3   2  309.71    8.30
  -1  -4   2  117.53    8.11
  -1  -2   1  237.34    5.83
  -2   2   2  248.95    7.81
  -1   2   1  393.02    5.08
  -2  -2   2  830.57   13.73
  -2   1   2  704.55   10.92
  -2  -1   2 1251.24   15.16
   3  -2   2   21.73    7.39
   4   0   2 1402.47   16.43
   3   0   1 1667.87   18.59
   5   0   2  729.48   18.08
   2   0   0 4702.73   19.32
   4  -1   1   19.96   13.32
   4   1   1   11.27   13.62
   5  -2   2   46.95   14.80
   4  -2   1   88.25   13.86
   5   2   2   37.02   15.09
   3   0   0 1973.80   17.46
   5  -1   1   29.73   17.33
   5   3   2    3.29   15.33
   5   1   1   40.79   17.09
   5  -2   1   11.73   16.98
   4   4   2    7.25   14.23
   5   2   1   41.23   18.28
   4  -2   0   58.60   14.35
   5  -3   1   19.93   17.58
   6  -1   1   75.16   20.76
   6   1   1   39.37   19.94
   4   2   0   53.33   14.76
   5   3   1  102.41   18.69
   5  -1   0   52.63   18.70
   6  -2   1   38.54   20.05
   5   1   0   53.91   19.24
   6   2   1   20.88   20.45
   5  -2   0   26.63   18.39
   4   4   1   12.82   15.18
   5   2   0    3.74   18.93
   6  -3   1   92.46   21.82
   3   0  -1 3280.28   20.71
   7  -1   1   -6.81   22.34
   6   3   1   11.24   20.64
   7   1   1    8.23   22.80
   6  -1   0   82.15   22.59
   5  -3   0   67.02   19.24
   6   1   0   89.71   23.10
   7  -2   1   -2.84   22.92
   2   0  -1  475.91    9.08
   6  -2   0   43.32   22.42
   5   3   0   79.58   19.86
   7   2   1  -13.65   22.75
   5   4   1   30.90   17.77
   6   2   0   33.04   23.18
   5  -1  -1   34.99   18.86
   5   1  -1   28.99   19.52
   6  -3   0   38.83   22.40
   7   3   1   10.08   22.89
   7  -1   0   46.77   26.16
   5  -2  -1   45.22   19.26
   7   1   0   38.58   25.66
   6   3   0   78.26   23.27
   4   4   0   41.37   16.60
   5   2  -1   16.71   19.97
   6   4   1   -2.84   20.44
   7  -2   0   42.27   26.07
   7   2   0   37.08   24.53
   6  -2  -1   27.18   22.14
   5   4   0   83.20   20.11
   5  -3  -1   70.75   20.03
   6   2  -1   47.64   23.52
   7  -3   0   27.63   25.77
   5   3  -1   71.75   21.55
   7   3   0   43.40   25.38
   7  -1  -1   22.00   25.81
   7   1  -1   14.65   25.79
   5   0  -2 1017.63   22.63
   6  -3  -1   71.46   23.05
   4  -1  -2  103.70   15.62
   6   4   0   63.32   22.96
   6   3  -1   89.03   24.36
   7  -2  -1   21.95   27.02
   7   2  -1   12.71   26.10
   6   0  -2  392.21   24.31
   5  -2  -2   70.00   18.77
   6  -1  -2   99.52   23.51
   6   1  -2  150.83   24.46
   5   2  -2   86.99   20.85
   4  -2  -2   90.48   14.67
   4   4  -1   58.71   17.07
   7  -3  -1   42.44   27.24
   5   4  -1   48.37   20.69
   7   3  -1   22.48   26.68
   6  -2  -2   50.34   23.07
   6   2  -2   60.13   24.03
   7  -1  -2   22.58   27.51
   7   1  -2   23.03   26.93
   6   4  -1   54.22   24.06
   7  -2  -2   36.72   26.57
   7   2  -2    1.87   26.46
   6  -3  -2   78.13   22.33
   6   3  -2   71.10   23.91
   5   0  -3 1733.11   25.61
   6  -1  -3  136.78   22.29
   7   3  -2   37.34   28.05
   7  -3  -2   49.26   27.21
   2   0  -2 2307.52   18.58
   4   0  -3 1369.83   19.77
   1   2   1  308.56    6.24
   3  -1   2   56.31    7.41
   2  -1   1  263.29    7.72
   3   1   2   98.43    8.38
   2   3   2   69.49    7.11
   2   1   1  300.70    8.59
   2  -2   1   33.44    6.44
   3   2   2   86.81    9.38
   3  -3   2  142.20    9.69
   2   2   1   77.90    7.73
   4  -1   2  138.69   11.97
   2  -3   1  198.65    8.24
   3  -1   1  190.94   10.71
   4   1   2  170.99   12.31
   4  -2   2   59.37   11.23
   3   3   2  294.26   12.07
   1   3   1  379.45    7.84
   3   1   1  250.84   11.65
   3  -2   1  170.25   11.02
   4   2   2  177.41   13.76
   4  -3   2  254.37   14.31
   3   2   1  174.52   11.71
   2   4   2  142.58    9.21
   2   3   1  153.10    9.45
   5  -1   2  111.15   15.14
   3  -3   1  181.65   11.41
   2  -1   0  599.88   10.00
   5   1   2   77.60   15.71
   4   3   2  231.41   15.34
   1   1   0  369.79    5.98
   2   1   0  568.68   10.51
   2  -2   0   47.68    6.66
   3   3   1  220.11   12.93
   3   4   2   85.41   11.91
   4   2   1   -1.20   13.53
   3  -1   0  345.73   12.45
   4  -3   1  138.17   15.78
   3   1   0  318.48   13.27
   3  -2   0  232.25   11.42
   2   2   0  479.91   11.04
   4   3   1    9.91   14.80
   4  -1   0  174.97   15.61
   3   2   0  166.46   12.33
   1   2   0   62.68    4.36
   4   1   0  123.85   14.85
   2   4   1   55.90    9.14
   3  -3   0  365.58   12.50
   2  -3   0  211.44    8.02
   3   4   1  125.83   13.71
   4  -3   0  283.17   16.93
   3   3   0  494.66   15.55
   4   3   0  112.03   16.77
   2   3   0  190.73    9.86
   3  -1  -1  631.25   15.06
   4  -1  -1  196.94   16.09
   3   1  -1  488.51   14.68
   4   1  -1  144.11   15.62
   4  -2  -1  181.67   15.89
   3  -2  -1  160.91   11.28
   2  -1  -1  621.62   10.26
   4   2  -1   58.87   15.64
   1   3   0  743.41    9.46
   2   1  -1  936.72   12.65
   3   4   0  178.62   13.56
   3   2  -1  241.52   13.34
   2   4   0  493.82   12.65
   6  -1  -1  184.24   24.18
   6   1  -1  149.19   23.73
   4  -3  -1  278.44   17.34
   4   3  -1  102.44   16.79
   2  -2  -1  147.67    7.19
   3  -3  -1  491.78   14.04
   2   2  -1   50.38    8.24
   3   3  -1  496.54   15.63
   5  -1  -2  167.08   20.32
   4   1  -2   91.48   15.62
   5   1  -2  139.84   20.56
   3  -1  -2 1686.18   20.85
   4   2  -2   37.03   15.55
   3   1  -2 1369.71   19.99
   3   4  -1  270.63   14.32
   5  -3  -2  124.09   19.18
   5   3  -2  108.01   21.32
   3  -2  -2  855.31   16.08
   3   2  -2  511.76   15.34
   4  -3  -2  224.70   16.52
   4   3  -2  176.17   18.06
   2   3  -1  441.05   11.72
   5   1  -3  209.41   22.09
   5  -1  -3  126.15   19.62
   6   1  -3   95.78   24.06
   1   1  -1  171.87    5.33
   3   3  -2  514.59   16.15
  -3   1  -2   -1.08   12.08
  -3  -1  -2   -4.95   13.71
  -3   2  -2   -4.58   11.83
  -2  -3  -2   -0.96   12.07
  -3  -2  -2   -4.48   15.49
  -3   3  -2    3.61   12.42
  -4   0  -2   -7.61   16.31
  -4   1  -2  -14.32   18.48
  -3   0  -1 1188.72   21.15
  -4  -1  -2    9.11   18.12
  -4   2  -2    2.10   18.29
  -3  -3  -2    7.99   17.05
  -4  -2  -2    2.80   21.09
  -4   3  -2  -12.33   17.02
  -5   0  -2  -14.40   23.04
  -4   0  -1    4.07   18.67
  -5   1  -2    7.95   21.04
  -4   1  -1   15.62   16.36
  -5  -1  -2   -0.99   22.98
  -4  -3  -2    3.29   21.85
  -4  -1  -1   20.98   17.81
  -5   2  -2   -6.64   21.43
  -4   2  -1   70.26   16.20
  -5  -2  -2  -15.02   24.56
  -3  -4  -2    5.14   18.78
  -4  -2  -1    5.88   17.77
  -5   0  -1    0.24   23.07
  -5   1  -1    4.87   21.86
  -5  -3  -2   17.25   25.94
  -5  -1  -1   13.07   22.50
  -5   2  -1    6.96   21.37
  -4   0   0 -258.56   18.42
  -4  -4  -2  -12.41   23.58
  -4   2   0   44.90   14.36
  -5   3  -1    9.75   20.70
  -6   0  -1  -13.67   26.26
  -6   1  -1   22.91   27.27
  -6  -1  -1    8.39   28.26
  -4  -2   0   34.49   16.81
  -3  -4  -1  109.90   18.61
  -5   0   0  -37.70   21.61
  -5  -3  -1   37.69   27.36
  -5   1   0   43.82   20.30
  -6   2  -1    9.56   26.00
  -5  -1   0    4.24   22.15
  -5  -4  -2    0.79   28.30
  -6  -2  -1  -21.83   31.63
  -5   2   0   38.72   18.99
  -4  -4  -1  -14.98   22.78
  -5  -2   0    0.42   22.61
  -6   3  -1  -21.49   26.24
  -7   0  -1    2.04   31.72
  -6   0   0  -45.08   26.75
  -7   1  -1   11.13   33.03
  -6  -3  -1    1.16   32.13
  -6   1   0   46.00   25.36
  -7  -1  -1    9.00   34.07
  -5   3   0   70.72   20.15
  -6  -1   0   22.20   28.61
  -7   2  -1   -4.17   32.00
  -6   2   0   50.54   25.12
  -5  -3   0   36.88   24.73
  -7  -2  -1   -2.69   35.37
  -5  -4  -1   19.95   28.98
  -6  -2   0   11.53   29.81
  -5   0   1 -125.82   20.71
  -5   1   1   39.94   18.62
  -5  -1   1   24.66   20.62
  -7   0   0  -37.61   33.47
  -6   3   0   38.05   24.71
  -7  -3  -1   14.93   36.86
  -7   1   0   19.23   32.17
  -5   2   1   38.67   18.47
  -7  -1   0    2.11   35.00
  -6  -3   0   55.80   30.68
  -4  -4   0   24.77   21.40
  -5  -2   1    7.54   20.90
  -6   0   1  -18.24   23.65
  -6  -4  -1  -13.75   34.48
  -7   2   0   13.60   31.83
  -7  -2   0    5.50   36.62
  -6   2   1   27.53   23.13
  -5  -4   0   21.64   27.39
  -5   3   1   75.27   19.15
  -6  -2   1   19.42   26.40
  -7   3   0   13.59   30.93
  -5  -3   1   17.31   23.47
  -7  -3   0   26.26   37.54
  -7   0   1  -12.87   28.70
  -7   1   1  -15.22   29.71
  -7  -1   1   -5.74   31.41
  -5   0   2 -148.89   22.39
  -6   3   1   60.74   23.48
  -6  -4   0   36.16   34.46
  -6  -3   1   34.21   29.24
  -7   2   1   -3.18   30.16
  -7  -2   1    2.42   33.56
  -6   0   2  -74.48   25.11
  -5   2   2   70.74   18.04
  -6   1   2   90.60   23.99
  -6  -1   2   93.06   23.66
  -5  -2   2   46.94   21.28
  -4  -4   1   61.13   20.48
  -7   3   1   33.31   29.53
  -5  -4   1   33.06   25.37
  -7  -3   1   22.00   37.47
  -6   2   2   50.86   21.92
  -6  -2   2   30.67   25.38
  -7   0   2  -24.79   29.67
  -7   1   2   23.57   29.04
  -7  -1   2   15.25   29.34
  -6  -4   1   24.84   33.15
  -7   2   2   11.68   27.59
  -7  -2   2   12.33   32.12
  -6   3   2   52.48   22.90
  -6  -3   2   29.80   28.25
  -5   0   3 -291.05   25.22
  -6   0   3  -50.76   25.78
  -5  -1   3  159.62   21.21
  -1  -2  -1  236.34    7.91
  -2   1  -1  229.46    9.90
  -2  -1  -1  234.76   10.73
  -2   2  -1   46.74    8.45
  -2  -2  -1   78.48   10.56
  -2   3  -1  189.61    9.28
  -3   1  -1  191.57   13.09
  -3  -1  -1  197.82   14.29
  -1  -3  -1  373.47    9.55
  -3   2  -1  119.34   12.12
  -3  -2  -1  146.37   15.38
  -2  -4  -2   77.05   15.49
  -2  -3  -1  125.54   11.40
  -3   3  -1  192.42   12.70
  -2   1   0  597.25    9.97
  -1  -1   0  346.06    6.13
  -2  -1   0  622.43   11.15
  -2   2   0   47.43    6.54
  -3  -3  -1  178.89   16.47
  -3   1   0  334.55   12.39
  -4   3  -1  139.00   17.05
  -3  -1   0  284.17   13.72
  -3   2   0  231.30   11.26
  -2  -2   0  522.65   11.87
  -4  -3  -1   12.84   21.10
  -4   1   0  160.59   16.24
  -3  -2   0  137.21   13.18
  -1  -2   0   75.11    4.46
  -4  -1   0  112.01   16.15
  -2  -4  -1   52.15   12.86
  -3   3   0  347.30   12.17
  -2   3   0  213.92    7.78
  -4   3   0  234.07   16.51
  -3  -3   0  420.68   16.80
  -4  -3   0  114.96   20.30
  -2  -3   0  183.64   10.46
  -3   1   1  634.30   14.48
  -3  -1   1  506.91   14.65
  -4   1   1  170.42   15.33
  -4  -1   1  137.90   16.01
  -4   2   1  131.39   14.72
  -3   2   1  138.08   10.41
  -2   1   1  667.19   10.32
  -4  -2   1   66.89   16.02
  -2  -1   1  914.71   12.51
  -1  -3   0  724.33    9.76
  -3  -4   0  170.21   17.02
  -3  -2   1  205.14   13.19
  -6   1   1  135.47   25.05
  -2  -4   0  479.61   14.05
  -4   3   1  277.34   15.99
  -6  -1   1   99.07   25.93
  -4  -3   1  104.49   18.55
  -2   2   1  146.52    7.02
  -3   3   1  446.89   12.58
  -2  -2   1   58.92    8.27
  -3  -3   1  402.07   15.81
  -4   1   2  134.12   15.07
  -5   1   2  149.30   19.39
  -4  -1   2   93.04   15.86
  -5  -1   2  125.46   19.77
  -4   2   2  103.80   14.20
  -3   1   2 1711.59   20.67
  -4  -2   2   42.07   15.75
  -3  -1   2 1338.06   19.71
  -3  -4   1  252.62   16.82
  -5   3   2  140.40   18.93
  -5  -3   2  104.87   23.72
  -3   2   2  908.67   16.30
  -3  -2   2  505.15   15.44
  -4   3   2  227.04   15.65
  -2   3   1  211.40    7.67
  -2  -3   1  394.13   12.30
  -5   1   3  106.57   19.26
  -7   3   2   34.03   28.27
  -1  -1   1  222.78    5.40
  -3  -2  -2    3.60   13.98
  -4   0  -2   -2.17   14.14
  -4   1  -2    4.10   13.42
  -3   0  -1  726.62   17.92
  -2  -2  -1   78.60   11.76
  -4  -1  -2   -2.67   16.98
  -3  -3  -2    0.45   17.91
  -4  -2  -2    6.49   19.81
  -2  -4  -2   96.08   18.42
  -5   0  -2  -12.85   18.72
  -4  -3  -2   -5.06   23.06
  -4   0  -1  147.11   15.79
  -2   0   0 2243.78   16.94
   0  -5  -2   71.45   16.00
  -5  -1  -2  -17.99   22.12
  -1  -5  -2    7.03   17.98
  -4  -1  -1    3.52   14.83
  -4   1  -1   22.01   12.93
  -3  -4  -2   -0.21   22.70
  -5  -2  -2    3.81   23.25
  -2  -5  -2    9.81   22.28
  -4  -2  -1   -1.79   18.73
  -2  -4  -1   61.25   16.44
  -3   0   0  400.32   15.67
  -5  -3  -2   11.08   25.25
  -3  -5  -2   10.81   24.20
  -4  -4  -2   -3.19   23.84
  -5   0  -1   54.99   18.66
  -5  -1  -1   17.12   20.44
  -3  -4  -1   95.65   20.74
  -2  -6  -2   25.71   25.71
  -4  -5  -2    6.96   27.25
  -1  -5  -1   27.18   15.21
  -2  -5  -1   26.02   18.66
  -4   0   0  319.62   15.76
  -5  -3  -1   29.07   25.40
  -3  -6  -2    0.82   28.86
  -5  -4  -2    2.93   30.99
  -4  -2   0   13.73   17.28
  -4  -4  -1    2.97   24.58
  -3  -5  -1   24.10   22.30
  -6  -1  -1    1.23   25.42
  -4  -6  -2    4.31   34.34
  -6  -2  -1   13.03   27.37
  -5  -1   0   18.18   20.32
  -4  -5  -1    3.15   27.65
  -5  -2   0   24.25   22.15
  -5   0   0   62.94   17.28
  -6  -3  -1   -2.40   30.62
  -5  -4  -1   11.60   30.68
  -2  -6  -1   91.96   23.96
  -3  -7  -2   -5.25   34.73
  -3  -6  -1   32.96   27.45
  -5  -3   0   22.72   23.45
  -4  -4   0   35.43   21.56
  -2  -5   0   21.77   17.52
  -5  -5  -1  -13.02   32.27
  -3  -5   0   80.47   25.12
  -4  -6  -1   20.68   32.81
  -6  -1   0   60.55   24.29
  -1  -5   0   83.63   14.60
  -7  -2  -1  -24.91   34.89
  -6  -2   0   11.88   28.64
  -3   0   1  440.57   17.16
  -6  -4  -1   14.18   36.86
  -4  -5   0   21.68   25.15
  -7  -3  -1  -11.20   36.60
  -6  -3   0   38.78   30.95
  -5  -4   0   64.38   29.81
  -4   0   1  704.88   16.60
  -5  -6  -1  -17.13   40.29
  -3  -7  -1  -16.52   33.61
  -5  -2   1   18.32   21.20
  -2   0   1  279.65    7.44
  -5  -1   1   21.55   19.22
  -3  -6   0   89.23   26.36
  -4  -7  -1  -10.11   40.63
  -5  -3   1   15.92   24.45
  -5  -5   0    3.82   30.69
  -4  -4   1   59.79   22.57
  -4  -6   0   29.10   32.99
  -5   0   1   72.65   16.94
  -7  -2   0   -2.16   32.89
  -6  -4   0   13.85   34.52
  -6  -5   0   10.32   44.52
  -7  -3   0  -23.10   36.23
  -3  -5   1   77.38   22.50
  -6  -2   1   25.65   25.94
  -5  -6   0   31.90   41.75
  -2  -5   1   26.58   17.45
  -4  -5   1   -0.09   23.94
  -6  -3   1   63.59   27.78
  -5  -4   1   30.83   27.55
  -3  -7   0   30.62   33.87
  -4  -7   0   -9.16   38.88
  -5  -5   1   12.72   30.05
  -3  -6   1  170.94   27.87
  -5  -2   2   37.23   22.20
  -4  -6   1   33.49   31.41
  -6  -4   1   18.85   35.37
  -6  -5   1   -2.34   37.71
  -7  -2   1   23.50   31.54
  -7  -3   1   30.32   37.31
  -4  -4   2   66.67   22.68
  -1  -5   1   59.38   13.59
  -5  -6   1    9.48   39.98
  -6  -2   2   47.56   26.12
  -5  -4   2   69.76   26.18
  -6  -3   2   49.69   29.93
  -4   0   2  464.24   13.65
  -4  -5   2   47.16   25.82
  -3  -5   2   45.57   21.60
  -6  -1   2   90.00   24.18
  -4  -7   1    4.18   37.76
  -3  -7   1   51.97   32.19
  -5  -5   2   18.96   32.39
  -3   0   2 4478.43   25.50
  -6  -4   2   42.47   34.38
  -6  -5   2   28.28   40.13
  -4  -6   2   41.00   32.07
  -7  -3   2   48.50   35.02
  -7  -2   2    2.44   30.54
  -5  -6   2   42.69   38.81
  -1  -2  -1  247.76    8.65
  -2  -1  -1  232.68    9.85
   1  -4  -2  102.67   10.05
   0  -4  -2   96.13   12.21
  -3   1  -1  187.86    9.99
  -1  -4  -2  135.40   15.31
  -3  -1  -1  190.84   12.49
  -1  -3  -1  338.12   12.60
   0  -3  -1 1633.75   15.96
  -3   2  -1  125.50    8.31
  -2  -3  -1  126.64   12.92
  -3  -2  -1  139.89   13.88
  -1  -1   0  362.36    6.90
  -2  -1   0  563.17   11.03
  -3  -3  -1  162.84   17.93
  -2   1   0  599.63    7.64
  -1  -4  -1   89.92   12.74
   0  -4  -1  151.23    9.77
  -2  -2   0  498.27   12.06
  -1  -2   0   79.22    5.84
  -3  -1   0  259.48   12.25
  -4  -3  -1   13.10   21.29
  -3  -2   0  132.72   13.08
  -3   1   0  338.83    9.86
  -2  -3   0  173.51   13.02
  -4  -1   0  102.38   14.49
  -3  -3   0  358.79   18.65
  -1  -3   0  731.76   13.47
   0  -5  -1  320.05   14.45
  -4  -3   0   85.50   19.75
  -4   1   0  170.60   12.60
  -2  -4   0  486.32   18.18
  -1  -4   0   82.93   11.28
  -3  -4   0  171.85   20.55
   0  -3   0 4114.20   20.30
  -3   2   0  223.55    7.18
  -3  -1   1  441.02   13.40
  -3  -2   1  201.79   13.19
  -2  -1   1  981.90   12.68
  -4  -2   1   58.70   15.18
  -4  -1   1  132.54   14.23
  -2  -2   1   56.93    9.57
  -3  -3   1  420.35   17.04
  -4  -3   1   80.15   20.77
   0  -4   0  781.30   12.37
  -2  -3   1  443.39   14.73
  -3  -4   1  267.80   20.18
  -2  -4   1  294.51   16.35
  -2  -6   0  170.60   23.44
  -4   1   1  186.68   11.55
  -6  -1   1  127.15   23.98
  -3   1   1  618.33   10.71
   0  -5   0  697.87   14.85
  -1  -4   1  177.00   11.99
  -1  -2   1  251.43    7.88
  -4  -2   2   32.14   15.11
  -4  -3   2  195.05   21.24
  -1  -1   1  269.45    6.64
  -1  -3   1  381.73   11.81
  -3  -2   2  521.57   16.67
  -4  -1   2   87.31   13.81
  -5  -3   2   93.22   24.66
  -3  -3   2  544.75   19.95
  -3  -4   2  322.49   19.90
  -5  -1   2  128.08   19.47
  -2  -6   1  155.29   22.40
  -3  -1   2 1388.14   19.58
  -2  -4   2  939.59   20.97
  -2  -2   2  750.61   15.39
  -2  -3   2 1086.82   19.31
  -2   1   1  614.55    7.37
  -2  -5   2  143.79   18.88
  -3  -6   2  172.37   26.06
  -2  -1   2 1356.21   16.06
   2  -5   2   11.77   12.47
   0  -4   1   15.70    5.85
   3  -5   2   14.95   15.52
   5   0   2 -385.15   16.05
   4  -1   1   16.15   12.46
   2   0   0-3771.31   17.58
   3  -4   1   83.99   14.47
   5  -2   2   44.65   15.33
   4  -2   1   73.51   13.82
   5   1   2   50.52   13.66
   4   1   1   10.80   11.17
   4  -3   1  112.12   17.54
   2  -5   1   36.75   14.33
   3  -5   1   24.62   16.89
   5  -1   1   28.69   16.61
   5   0   1 -190.90   15.81
   5  -2   1    6.72   17.53
   4  -5   1   32.52   19.79
   5  -3   1   22.65   17.91
   5  -4   1    6.30   20.56
   4  -2   0   56.23   15.58
   5   1   1   31.28   14.92
   3  -6   1   97.30   19.18
   5  -5   1   55.43   24.22
   6  -1   1   73.05   19.08
   6  -2   1   53.90   19.31
   4  -6   1   97.01   22.13
   5  -1   0   46.27   18.46
   6  -4   1   53.76   23.46
   5  -2   0   20.74   19.61
   6  -3   1   87.86   22.26
   3  -5   0   74.60   17.54
   5   0   0 -216.94   17.36
   5  -3   0   65.41   20.80
   5  -4   0   35.06   21.96
   4  -5   0   59.67   20.48
   5  -6   1   19.84   23.99
   6  -5   1    0.99   24.45
   5  -5   0   22.54   23.55
   5   1   0   46.63   15.15
   6  -2   0   28.11   21.60
   7  -1   1    0.36   20.01
   7  -2   1    1.22   21.52
   6  -1   0   72.74   20.23
   6  -4   0   57.12   25.25
   6  -3   0   48.22   22.22
   7  -3   1   21.47   23.45
   6   0   0 -300.42   20.06
   3  -6   0  130.71   19.37
   4  -6   0   65.91   22.10
   5  -2  -1   30.94   19.69
   5  -1  -1   37.91   18.05
   6  -5   0   12.30   26.18
   5  -3  -1   58.60   20.49
   5  -6   0   13.20   24.54
   5  -4  -1   75.96   23.16
   7  -4   0   51.67   26.60
   5   0  -1 -220.17   17.49
   7  -2   0   25.24   24.99
   4  -5  -1   67.10   20.65
   7  -1   0   49.39   23.15
   7  -3   0   25.79   25.38
   3  -5  -1   72.78   17.13
   6  -6   0   53.68   27.45
   6  -2  -1   48.78   21.23
   5  -5  -1   17.70   23.44
   6  -4  -1   55.03   26.03
   6  -3  -1   52.94   24.41
   6  -5  -1    6.34   26.32
   4  -2  -2   89.04   15.40
   5   1  -1   50.97   15.70
   5  -6  -1  105.25   25.77
   5  -2  -2   56.51   18.62
   7  -4  -1   46.34   28.52
   7  -2  -1   23.01   25.90
   7  -3  -1   50.71   27.90
   2  -5  -1   27.88   12.95
   5  -4  -2   52.22   23.20
   7  -1  -1    9.82   23.86
   6  -6  -1   41.26   29.37
   6  -2  -2   53.62   23.07
   6  -4  -2  101.53   25.66
   6  -3  -2   83.81   23.90
   7   0  -1  -18.67   21.22
   5  -5  -2   45.51   25.85
   4  -5  -2   66.61   20.94
   5   0  -2 -564.01   20.05
   6  -5  -2   40.93   26.65
   7  -4  -2   69.80   28.43
   6   0  -2 -296.45   21.30
   7  -2  -2   27.19   26.00
   7  -3  -2   61.81   28.70
   5  -6  -2   30.15   25.07
   7  -1  -2   29.56   23.95
   6  -6  -2   75.74   29.89
   4  -2  -3   78.99   14.52
   5  -4  -3   62.31   21.06
   6  -2  -3  100.85   23.14
   7   0  -2 -145.42   23.01
   3   2   2   71.42    6.72
   2  -4   2  106.79   10.71
   1  -3   1  525.71   10.05
   2  -2   1   30.52    7.46
   2   2   1   74.52    4.89
   3  -3   2  249.95   12.33
   4  -1   2  120.97   11.38
   3  -4   2  149.03   13.94
   3  -1   1  209.22   10.60
   4   1   2  203.20   11.37
   2  -3   1  196.03   10.58
   4  -2   2   57.67   12.16
   3   1   1  226.86    9.42
   3  -2   1  166.13   11.28
   1  -4   1  373.37   11.15
   1  -1   0  762.70    8.04
   4  -3   2  272.73   15.65
   2  -4   1  242.79   12.68
   4  -4   2   32.61   14.86
   3  -3   1  177.38   13.63
   2  -1   0  544.24   10.31
   5  -1   2  110.42   14.40
   1  -2   0 3958.50   19.35
   3   2   1  192.33    8.79
   2  -2   0   53.39    8.40
   3  -1   0  358.11   12.63
   4  -4   1   90.64   18.86
   2  -3   0  206.07   11.18
   3  -2   0  217.33   12.52
   2   1   0  566.98    8.63
   1  -3   0 2789.66   18.53
   3  -3   0  383.76   15.64
   4  -1   0  182.50   15.23
   3   1   0  300.52   10.77
   2  -4   0  149.40   12.79
   3  -4   0  429.32   18.11
   4  -3   0  266.15   18.17
   4  -4   0   74.74   18.97
   4   1   0  112.79   12.85
   2  -5   0   38.97   13.27
   3  -2  -1  170.20   12.27
   1  -4   0 1353.11   15.47
   3  -1  -1  632.22   15.17
   2  -2  -1  143.49    8.79
   3  -3  -1  487.73   16.84
   2  -1  -1  680.92   11.14
   4  -2  -1  159.19   17.05
   4  -1  -1  177.74   15.04
   3   2   0  160.14    8.54
   4  -3  -1  288.22   19.73
   2  -3  -1  261.98   11.45
   2   2   0  489.11    7.46
   3  -4  -1  283.55   16.96
   4  -4  -1  193.10   20.47
   2  -4  -1  308.40   13.61
   6  -1  -1  180.63   21.71
   4   1  -1  139.45   12.77
   1  -2  -1  495.95    8.29
   3   1  -1  477.63   12.10
   4  -3  -2  211.68   18.41
   1  -1  -1  160.80    4.92
   1  -3  -1 1165.15   13.46
   4  -6  -1  131.67   22.98
   3  -2  -2  926.34   17.61
   4  -1  -2  116.05   14.25
   5  -3  -2  139.67   21.27
   3  -3  -2  915.95   19.47
   4  -4  -2  207.77   20.48
   5  -1  -2  165.65   19.11
   3  -1  -2 1626.00   21.03
   0  -4   0  752.45    8.76
   3  -4  -2  717.72   20.26
   6  -1  -2  117.65   21.90
   1  -4  -1  100.51    8.57
   2   1  -1  866.87   10.14
   2  -2  -2  246.07   10.38
   2  -3  -2  359.84   12.29
   4   2  -1   69.65   10.80
   3  -5  -2  116.39   18.09
   4  -6  -2  163.36   23.24
   2  -1  -2  702.13   11.62
   5  -3  -3  127.59   20.97
   5  -2  -3  118.56   20.44
   4  -3  -3  211.32   18.72
   5   1  -2  136.45   16.47
   6  -3  -3  197.00   25.08
   6  -4  -3  101.39   25.07
   4   1  -2   84.21   11.75
   5  -1  -3  114.08   18.05
   4  -4  -3   48.51   18.32
   3   2  -1  194.20    8.64
   2  -4  -2  241.27   13.06
  -6   1  -1   -4.13   23.61
  -3   5  -1   -0.06   13.88
  -6   3  -1  -14.73   30.18
  -4   5  -1   -8.61   20.76
  -4  -1  -1    0.19   11.60
  -6   2  -1   -6.60   29.41
  -3  -1  -1   21.72    8.74
  -5   0  -1  -70.14   21.84
  -7   1   0   26.23   35.97
  -5   6   0   21.43   28.63
  -5   4  -1   -5.54   25.29
  -7   3   0    2.17   40.07
  -7   2   0   25.69   36.55
  -6   5   0    2.12   32.15
  -5   3  -1   -3.91   27.33
  -5   1  -1   -3.02   24.10
  -3   6   0   92.97   19.02
  -4   4  -1   65.48   21.60
  -4   6   0   41.51   22.93
  -3   4  -1   85.30   16.59
  -5   2  -1   -4.99   26.36
  -2   0  -1  -67.98    7.60
  -4   0  -1 -287.89   19.28
  -6   6   1   70.70   33.43
  -6   0   0 -100.83   27.83
  -4   3  -1  143.19   21.36
  -3   0  -1-1553.31   22.35
  -5   5   0    7.71   26.74
  -6   4   0   47.98   32.02
  -4   1  -1   17.75   16.55
  -7   0   1  -35.33   32.05
  -4   2  -1   77.43   20.22
  -6   3   0   53.37   31.37
  -6   1   0   63.65   29.18
  -6   2   0   32.65   28.08
  -7   3   1   43.76   36.42
  -7   1   1   55.69   34.26
  -4   5   0   56.60   20.94
  -5  -1   0   57.74   18.70
  -5   6   1   50.23   26.11
  -7   2   1   36.00   33.19
  -3   5   0   40.26   16.28
  -6   5   1   10.70   29.84
  -5   4   0   20.33   25.83
  -5   0   0 -190.16   21.52
  -6   6   2   55.84   30.98
  -5   3   0   87.78   22.89
  -5   1   0   44.47   20.79
  -5   2   0   17.38   20.90
  -6   4   1   79.54   27.64
  -6   0   1 -115.27   25.10
  -7   0   2  -57.79   32.85
  -5   5   1    7.45   24.39
  -6   3   1   66.21   27.77
  -7   3   2   53.08   33.59
  -7   1   2   37.61   30.98
  -6   2   1   29.80   25.55
  -7   2   2   13.80   31.55
  -5   6   2   16.32   23.62
  -6   5   2   35.65   27.61
  -4   0   0 -447.74   17.77
  -4   5   1   45.82   18.93
  -4   2   0   41.16   16.71
  -5   4   1   89.93   21.45
  -5  -1   1   36.66   16.64
  -3   5   1   46.02   14.88
  -5   3   1   91.37   21.39
  -6   4   2  116.86   27.31
  -6   3   2   95.68   23.74
  -2   5   1   28.42   11.09
  -5   0   1 -209.32   18.40
  -5   5   2   22.45   21.43
  -5   2   1   34.99   20.35
  -6   0   2  -94.16   23.43
  -5   1   1   42.70   17.86
  -3   0   0-1403.61   16.45
  -6   2   2   70.39   24.28
  -6   1   2  112.71   24.33
  -4   5   2   37.96   16.90
  -4   6   3   26.94   17.06
  -5   4   2   45.41   20.39
  -6   4   3   84.44   25.17
  -5   3   2  137.86   20.99
  -5   5   3   37.85   19.40
  -4   0   1 -625.17   17.54
  -6   2   3   93.18   22.81
  -6   0   3 -405.20   24.55
  -5   2   2   62.26   19.12
  -6   1   3  147.07   24.16
  -5   0   2 -271.39   20.78
  -2   5   2   43.54   11.25
  -5   4   3   58.54   18.60
  -4   5   3   41.40   17.32
  -4   2   2   99.32   15.31
  -3   0   1-1879.31   18.06
  -5   0   3 -976.07   25.66
  -3   5   3   44.63   13.47
  -2   5   3   17.18   11.18
  -4   1   3   74.86   14.76
  -4   0   3 -654.16   18.61
  -3   0   2-3354.68   25.33
  -2   4  -1   84.69   11.92
  -1   2  -1   46.08    4.89
   0   3   0 2697.04   13.66
  -2   3  -1  167.60   12.29
  -3   3  -1  214.03   16.83
  -2   1  -1  337.98   10.81
  -2   2  -1   45.62    8.93
  -2   5   0   37.99   12.53
  -3   1  -1  245.98   14.43
  -3   2  -1  152.55   13.72
  -2  -2   0  471.40    8.28
  -1   4   0 1320.48   16.14
  -3  -2   0  134.80    9.00
  -4   6   1   91.46   21.94
  -3   6   1  166.42   18.00
  -4   4   0   99.18   20.26
  -4  -1   0  127.94   13.89
  -3   4   0  430.92   17.70
  -2   4   0  187.68   11.87
  -6   1   1  173.55   26.05
  -4   3   0  257.61   19.64
  -4   1   0  200.26   15.84
  -3   3   0  388.88   15.20
  -4   6   2  128.31   20.16
  -3  -1   0  303.12   10.84
  -1   3   0 2735.53   18.90
  -2   3   0  216.84   10.34
  -3   2   0  247.92   12.65
  -4   4   1  154.59   18.79
  -3   1   0  378.57   12.58
  -2  -1   0  631.71    8.65
  -2   2   0   50.31    7.19
  -4   3   1  250.49   17.54
  -1   2   0 3961.45   19.54
  -3   4   1  307.93   15.47
  -6   3   3  197.61   24.50
   0   4   1  175.12    5.34
  -2   1   0  597.82   10.72
  -4  -1   1  144.37   12.14
  -4   2   1  150.56   14.84
  -4   1   1  193.43   14.14
  -2   4   1  323.26   12.10
  -3   5   2  113.22   14.49
  -5  -1   2  140.42   17.12
  -5   1   2  153.77   19.62
  -3   3   1  477.25   15.24
  -1   4   1   65.06    6.83
  -1   1   0  809.78    8.23
  -4   4   2  189.68   16.92
  -4   3   2  206.61   17.06
  -3   2   1  129.06   11.33
  -5   3   3  108.95   20.29
  -3  -2   1  207.24    8.79
  -2   3   1  267.82   10.49
  -3   1   1  669.26   14.46
  -5   2   3  132.17   20.16
  -3   4   2  692.74   17.96
  -3  -1   1  483.84   11.60
  -5   1   3  128.13   19.15
  -4  -2   2   58.06   12.31
  -5  -1   3  188.52   20.60
  -4   1   2  120.92   14.92
  -4   4   3   58.88   16.05
  -4  -1   2   95.73   13.07
  -3   3   2  912.24   18.01
  -1   3   1 1105.93   12.53
  -2   2   1  169.97    8.63
  -4   3   3  199.18   16.89
  -2   4   2  256.98   11.79
  -4   2   3   77.96   15.52
  -2  -2   1   64.44    5.41
  -3   2   2  899.20   16.96
  -2   1   1  691.72   10.93
  -3   4   3  190.61   14.61
   0   3   1 1694.02   10.27
  -3   1   2 1666.18   20.47
  -2   3   2  321.48   10.76
  -1   4   2   84.13    7.80
  -3   3   3  338.82   13.65
  -1   2   1  411.68    7.25
  -2  -1   1  931.63   10.27
  -3  -1   2 1414.55   17.26
  -3  -2   2  484.06   11.98
   0   4   2  131.21    5.88
  -2   2   2  235.03    9.33
  -1   3   2  245.48    7.74
  -1   1   1  212.93    4.98
  -2   1   2  668.88   11.49
   3   6   2    1.68    4.44
   5   2   2    0.64    5.04
   0   2   1   -0.01    0.67
   4   5   2   10.70    6.69
   2   2   2    7.42    3.00
   5   3   2    1.52    6.32
   6   1   1   -1.39    6.97
   5   0   1   36.08    5.68
   3   5   2   24.46    6.48
   4   4   2   46.07    8.38
   2   5   2    1.04    3.88
   4   7   1   11.98    7.78
   6   4   1   15.09   11.20
   3   7   1    2.42    8.31
   6   2   1   10.49    9.24
   5   5   1   27.91   13.33
   4   0   1  202.13   10.78
   4   6   1    7.88   13.02
   2   0   1   52.70    3.94
   7   2   0   34.33   13.09
   5   1   1   35.05   10.99
   5   4   1   38.16   15.05
   3   0   1  848.59   16.91
   3   6   1   43.25   13.41
   4   5   1   -3.21   14.82
   4   7   0   17.17   18.41
   5   6   0   49.26   21.79
   6   4   0   94.74   22.38
   5   3   1   88.34   16.21
   6   1   0   83.15   17.37
   4   1   1   -0.66   11.48
   4   4   1   -0.18   15.98
   3   5   1    9.95   15.16
   3   7   0   36.47   20.21
   1   5   1   34.47   10.04
   5   5   0   24.11   22.65
   2   5   1   26.77   13.01
   6   2   0   49.30   20.24
   5   0   0  103.72   15.78
   4   6   0   26.26   21.44
   7   2  -1   -2.81   24.25
   6   3   0   81.62   21.88
   5   4   0   68.15   21.15
   2   4   1   60.93   11.66
   5   6  -1   22.99   26.98
   4   7  -1    2.50   25.21
   3   6   0  116.60   20.04
   6   4  -1   60.19   26.18
   4   5   0   19.99   20.45
   5   1   0   57.73   16.83
   5   2   0   19.61   19.25
   3   7  -1   43.73   23.45
   5   3   0   65.21   20.95
   4   0   0  402.11   15.49
   5   5  -1   13.38   24.08
   4   4   0   37.93   19.82
   7   2  -2   -1.27   26.62
   4   6  -1   28.63   23.53
   3   5   0   99.94   20.59
   6   2  -1   16.94   22.55
   6   3  -1   98.23   25.52
   5   6  -2   43.78   30.45
   5   4  -1   84.47   22.44
   6   4  -2   89.69   27.30
   2   5   0   36.78   14.85
   5   0  -1  282.28   16.86
   1   5   0   96.40   13.55
   4   5  -1   13.36   20.76
   4   2   0   40.84   14.59
   3   0   0 1180.74   15.89
   5   5  -2   21.37   25.22
   3   7  -2   58.07   25.87
   5   1  -1   45.07   17.56
   4   6  -2   46.63   24.95
   6   1  -2  118.70   22.22
   5   3  -1   52.21   21.45
   5   2  -1   21.62   19.49
   6   3  -2  108.23   25.45
   4   4  -1   74.13   20.71
   6   2  -2   81.38   23.69
   3   5  -1   73.35   18.32
   5   4  -2  114.25   24.75
   2   0   0 2383.64   16.49
   4   5  -2   46.99   22.14
   4   0  -1  744.91   16.94
   2   5  -1   35.43   15.71
   5   3  -2  111.79   22.20
   4   4  -2   66.41   20.50
   1   5  -1   40.24   12.59
   5   2  -2   55.93   20.19
   3   5  -2   69.90   20.58
   3   0  -1 1774.81   18.50
   5   0  -3 1449.41   22.41
   4   0  -2  471.51   14.60
   4   2  -2   42.07   16.55
   1   5  -2   59.63   14.02
   0   5  -2   54.34   11.96
   4   1  -3    5.03   14.05
   4   0  -3 1203.64   16.77
   2   0  -1  247.35    7.90
   4  -1  -3   56.49   11.94
   3   0  -2 4458.76   24.27
   4   2   2   63.51    7.24
   3   2   2   63.97    6.15
   2   3   2   55.23    5.34
   3   4   2   64.96    8.12
   4   3   2  241.86   11.55
   2   4   2   70.55    6.28
   3   3   2  276.81   10.24
   6   3   1   24.97   10.87
   0   3   1 1178.85   11.49
   0   5   1   39.08    3.60
   2   6   1  104.57   13.44
   1   1   1  128.09    4.66
   0   4   1  143.97    5.70
   4  -1   0  166.40   10.65
   4   2   1   -5.59   13.76
   3   1   1  254.02   11.83
   3   4   1  110.95   14.75
   2   1   1  296.67    8.57
   4   3   1    5.46   16.17
   1   2   1  310.69    7.69
   1   3   1  372.63   10.52
   1   4   1   88.76    9.26
   3   2   1  189.46   12.79
   3   3   1  198.43   14.07
   2   2   1   82.42    8.99
   2   3   1  131.09   10.61
   3  -1   0  339.69    9.78
   2   6   0  160.96   18.79
   6   1  -1  148.13   21.49
   2  -1   0  467.11    7.08
   0   5   0  679.12   14.34
   4   1   0  138.10   14.74
   3   4   0  193.71   16.88
   3   6  -1  146.32   21.98
   4   3   0  144.93   18.64
   2   4   0  487.82   15.99
   2   6  -1  152.35   19.67
   4  -1  -1  198.65   11.24
   3   3   0  450.28   16.65
   1   4   0   96.58    9.83
   3   1   0  317.53   12.81
   0   4   0  765.22   11.94
   3  -2  -1  176.11    7.70
   3   2   0  147.23   12.85
   3   6  -2  129.51   22.82
   2   3   0  172.60   11.26
   0   3   0 4164.74   20.07
   3   4  -1  268.47   18.20
   4   3  -1  109.30   17.86
   6   1  -3   66.46   22.23
   4   1  -1  137.64   14.43
   2   1   0  581.05   10.50
   2   2   0  499.85   12.46
   1   3   0  765.58   12.68
   4   2  -1   67.57   15.44
   2   6  -2  376.26   22.77
   5   1  -2  141.97   18.69
   0   5  -1  480.68   13.84
   2   4  -1  263.26   15.06
   1   2   0   62.19    5.59
   3  -1  -1  629.65   11.53
   3   3  -1  466.62   18.09
   1   1   0  359.47    6.60
   3   4  -2  316.31   20.36
   2   5  -2  159.29   18.35
   3   2  -1  247.30   14.25
   4   3  -2  191.66   20.31
   1   4  -1  161.65   11.19
   4  -1  -2  106.90   11.68
   3   1  -1  491.36   14.64
   5   2  -3  226.73   22.56
   5   1  -3  213.40   20.24
   4   1  -2   88.93   14.69
   0   4  -1   24.01    8.03
   2   3  -1  440.21   14.00
   2   4  -2  894.63   20.79
   3   3  -2  521.37   19.11
   2   2  -1   50.39    8.96
   3   2  -2  504.66   15.78
   2   1  -1  999.04   13.03
   1   3  -1  379.71   10.93
   1   4  -2  147.08   11.79
   2  -1  -1  673.66    7.88
   3   1  -2 1366.98   18.71
   3  -2  -2  965.19   11.67
   3  -1  -2 1640.73   16.05
   2   3  -2 1033.83   18.36
   1   2  -1  209.99    7.08
   0   4  -2   83.02    9.40
   0   3  -1 2576.18   16.86
   2   2  -2  806.68   14.72
   1   3  -2  266.02   10.79
   2   1  -2 1415.47   15.64
   1   1  -1  196.58    5.64
  -1   3  -1  477.99    6.47
   0   2  -1   39.90    3.42
   3   4   2    6.71    6.29
   3   5   2   32.10    8.49
   2   7   2   -0.88   10.02
   4   7   1   -0.50   10.89
   0   7   2   27.02    8.24
   0   9   1   16.98   11.24
   1   7   2   11.28   10.08
   2   6   2   48.22   11.27
   4   6   1    0.33   12.67
   3   0   0  102.05    5.41
   2   5   2    3.36    9.24
   4   5   1   -2.69   12.22
   5   6   0   38.09   16.78
   4   4   1    0.04   10.77
   1   5   2   14.62    9.99
   2   8   1    7.98   18.10
   3   7   1   34.63   18.62
   5   5   0   19.92   16.65
   0   8   1   85.39   18.54
   5   4   0   65.78   15.86
   1   8   1   21.05   20.95
   3   6   1   41.85   18.36
  -1   7   1   70.56   16.12
   4   7   0   11.94   20.96
   0   9   0   -7.65   26.95
   2   7   1   88.73   22.19
  -2   5   1   25.99    7.23
   3   5   1   -7.69   17.23
   0   7   1  122.76   20.90
   1   7   1   51.73   21.90
   4   6   0   21.26   22.46
   5   6  -1   64.98   25.18
   2   8   0   -0.80   27.25
   3   7   0   61.87   24.14
   4   5   0   20.83   19.00
   2   5   1   24.34   14.62
   5   5  -1   10.97   21.71
   0   8   0   78.15   24.50
   1   8   0   19.81   26.37
   4   4   0   40.24   16.74
   4   7  -1   15.21   24.67
   2   0   0-1220.93   12.01
   0   9  -1    4.40   30.47
   5   4  -1   64.42   19.68
   4   2   0   48.79   12.08
   3   6   0   90.04   21.40
   1   5   1   44.84   13.44
   2   7   0   62.04   22.85
  -1   7   0  200.89   19.30
   4   6  -1   33.38   22.59
   1   7   0   53.61   21.81
   2   8  -1   10.17   27.31
   0   7   0  145.36   21.88
   3   7  -1   75.04   25.93
   1   8  -1   22.98   26.31
   4   5  -1    1.74   19.65
   0   8  -1   45.90   26.05
   5   5  -2   16.68   24.61
   2   5   0   35.98   15.44
   2   7  -1   56.90   25.95
   4   4  -1   62.48   19.53
   5   4  -2   93.58   21.92
   4   6  -2   44.47   25.55
   1   7  -1   56.20   22.91
   3   7  -2   45.32   27.43
  -1   7  -1   91.08   19.88
   1   5   0   99.53   15.82
   0   7  -1  100.76   21.77
   3   5  -1   83.98   19.40
   4   5  -2   44.17   22.66
   2   7  -2  103.66   27.35
   2   5  -1   52.85   16.55
   4   4  -2   73.01   20.07
   1   7  -2  107.33   24.30
  -1   7  -2   23.47   21.73
   0   7  -2   39.90   22.99
   3   5  -2   56.76   20.03
   1   5  -1   37.27   15.32
   3   0  -1 -760.30   12.88
   0   6  -2   51.10   19.24
   1   5  -2   51.35   16.24
   0   5  -2   71.82   15.54
  -2   4  -2   41.58    9.67
   2   0  -1  -22.84    5.53
   3   0  -2-2127.97   18.71
  -1   2   1   22.96    1.75
   1   3   2  135.17    6.73
   2   3   2   22.97    5.15
   2   1   1   95.20    4.44
   1   1   1   87.30    3.55
   2   4   2  125.81    9.68
   0   6   2   77.98   10.64
   1   6   2   94.88   12.61
   0   4   2  112.31    7.75
   1   4   2  232.22   10.82
   0   5   2  105.20    9.57
   4   3   1   11.09    8.51
   3   2   1  216.56   10.08
  -2   4   1  122.18    5.77
   3   4   1  145.53   15.02
   2   6   1  123.15   19.83
  -1   3   1 1086.49   13.42
  -1   6   1   30.06   14.52
   3   3   1  246.75   14.16
   0   2   1  428.39    7.83
   2   2   1   85.68    8.40
   1   6   1   41.16   18.54
   0   6   1  172.78   17.99
   2   4   1   56.57   12.58
  -1   5   1  266.38   13.97
   1   2   1  331.61    7.99
   2   3   1  145.07   10.47
   0   5   1  349.92   16.09
  -1   4   1   64.11    8.53
   0   3   1 1754.62   17.48
   1   4   1   92.73   11.77
   4   3   0  124.29   15.39
   1   3   1  393.10   11.70
   0   4   1  202.31   11.34
   3   5   0  113.75   19.52
   3   1   0  341.05    9.82
   2   6   0  159.74   21.13
   3   4   0  162.13   15.79
   1   6   0  122.82   18.78
  -1   6   0  683.90   20.99
   3   6  -1  161.99   23.55
   0   6   0  237.33   19.12
   3   2   0  152.13   10.96
   3   3   0  458.75   15.71
  -2   3   0  197.96    6.71
   2   4   0  459.62   16.41
   4   1  -1  161.64   10.81
  -1   5   0  795.13   17.51
   2   6  -1  170.85   23.02
   0   5   0  654.90   18.09
  -2   4   0  176.04    9.08
   2   1   0  584.73    9.04
   4   2  -1   64.80   12.83
   4   3  -1  113.17   16.06
   1   4   0  106.41   11.97
   3   6  -2  119.32   23.71
   1   6  -1   76.04   20.73
   3   4  -1  269.72   18.48
   2   3   0  181.64   11.83
   0   4   0  621.13   14.54
   2   2   0  492.55   11.77
  -1   4   0 1420.19   17.58
  -1   6  -1   80.64   17.30
   0   6  -1  144.10   19.42
  -1   3   0 2777.34   19.00
   2   6  -2  371.91   25.21
   1   3   0  741.36   13.63
   0   3   0 3954.98   24.59
   2   4  -1  260.56   15.94
   3   3  -1  447.92   16.49
   1   2   0   64.49    5.89
   1   1   0  363.18    6.28
   0   5  -1  491.87   18.08
   1   6  -2  159.16   21.77
  -1   5  -1  190.81   14.10
  -1   2   0 4056.44   16.91
   3   2  -1  257.87   12.03
   3   4  -2  298.40   19.32
   4   3  -2  199.56   17.95
   3   1  -1  479.12   11.07
   2   5  -2  126.74   20.02
  -1   6  -2  104.24   19.38
   1   4  -1  165.47   13.58
   4   2  -2   36.79   12.61
   4   1  -2   94.73   10.66
   0   4  -1   23.23   10.43
   2   3  -1  461.66   14.65
  -2   4  -1  261.61   10.89
   0   1   0 1722.90    8.99
  -1   4  -1  311.18   11.83
   2   4  -2  943.76   21.78
   3   3  -2  548.66   17.84
  -1   5  -2   82.13   14.92
   2   2  -1   48.23    8.34
   1   3  -1  389.62   12.07
   1   4  -2  136.38   14.00
  -2   3  -1  197.07    7.34
   3   2  -2  502.49   13.93
   2   1  -1  966.30   10.94
   0   3  -1 2749.86   21.51
  -1   3  -1  564.31   10.50
   0   4  -2   90.27   11.79
   2   3  -2 1077.11   18.49
  -1   4  -2  128.77   11.47
   3   1  -2 1335.77   15.72
   1   2  -1  224.82    7.69
   1   3  -2  299.60   11.82
   2   2  -2  850.11   14.37
   0   2  -1   47.47    4.60
   1   1  -1  186.24    5.27
  -2   5  -2   -1.23   11.83
  -2   4  -2    7.92   10.63
  -5   3  -1    0.86   18.48
  -2   9   0    2.06   25.45
   0   6  -1   34.45   14.94
  -1   7  -1   40.67   17.78
  -5   5  -1  -18.26   25.75
  -3   7  -1   32.10   23.47
  -4   2  -1   85.96   16.01
  -2   7  -1   12.75   20.06
  -5   4  -1    0.05   22.31
  -4   6  -1   91.29   24.38
  -6   5   0    6.16   30.01
  -3   8   0   17.36   26.32
  -4   5  -1   35.47   22.70
  -3   6  -1  119.70   21.40
  -2   8   0   49.30   25.08
  -6   4   0   58.51   27.16
   0   4  -1   21.75    9.15
  -2   9   1   -0.21   27.69
  -5   6   0    4.68   28.03
  -4   7   0   41.43   26.63
  -5   2   0   27.35   18.22
  -3   5  -1   20.02   17.86
  -6   6   1   21.50   31.62
  -2   5  -1   42.90   15.33
  -1   7   0  194.91   20.93
  -5   3   0  101.06   21.31
  -5   5   0   19.05   25.13
  -3   4  -1   82.64   16.74
  -3   7   0  119.50   36.32
  -2   7   0  108.42   20.93
  -4   6   0   85.16   24.99
  -6   5   1    7.45   28.87
  -3   8   1   -5.50   25.60
  -5   4   0   43.51   23.54
  -3   0   0 -696.89   14.50
  -2   8   1   10.34   22.25
  -2   9   2   -2.68   25.58
  -5   6   1   66.50   28.50
  -6   4   1   70.02   27.36
  -4   7   1   63.00   26.38
  -4   5   0   45.49   22.24
  -4   2   0   56.51   17.94
  -3   7   1   89.23   24.46
  -3   5   0   38.40   18.00
  -5   5   1   18.05   24.32
  -3   8   2   -2.71   24.24
  -1   7   1   86.88   18.36
  -2   7   1   34.45   19.21
  -6   5   2   25.92   28.21
  -5   2   1   69.57   17.52
  -2   8   2    5.72   20.46
  -5   3   1   90.63   20.56
  -5   6   2    7.95   26.22
  -4   7   2   76.68   25.36
  -5   4   1   86.61   22.64
  -2   0   0-1191.57   14.65
  -6   4   2   94.96   26.24
  -4   5   1   58.19   21.09
  -3   7   2  126.24   23.03
  -5   5   2   18.79   24.16
  -4   6   2  143.94   24.89
  -2   7   2   40.63   19.20
  -1   7   2   17.39   16.12
  -4   7   3   18.39   23.65
  -5   6   3   11.55   24.91
  -3   5   1   52.39   18.28
  -5   4   2   47.41   20.66
  -2   5   1   33.98   14.49
  -5   2   2   69.62   17.50
  -3   7   3    7.39   20.69
  -4   5   2   48.12   20.51
  -5   5   3   24.06   22.10
  -4   6   3   39.86   21.09
  -2   7   3   -5.18   16.74
  -1   6   2   55.68   14.34
  -5   4   3   44.03   20.13
  -4   5   3   34.71   19.24
  -1   4   1   65.63   10.12
  -2   5   2   37.38   14.29
  -3   0   1 -453.31   14.37
  -2   6   3   27.93   16.46
  -4   2   2   78.44   14.53
  -1   5   2   22.85   11.81
  -2   5   3   12.09   13.39
  -1   5   3   -3.01   10.66
  -3   0   2-1753.56   21.49
  -1   1  -1   49.49    4.31
  -3   1  -1  125.55    9.83
  -2   1  -1  321.22    9.13
   0   2  -1   23.07    3.35
   0   5  -1  461.18   16.71
  -1   6  -1   72.28   17.90
  -4   3  -1  165.27   20.36
  -2   6  -1  150.63   19.89
  -4   4  -1   99.02   21.30
  -3   2  -1  154.01   12.93
   0   3  -1 2386.30   19.34
  -1   5  -1  188.31   14.97
  -1   2  -1 1508.68   15.28
  -3   3  -1  237.58   16.39
  -2   2  -1   41.50    9.07
  -1   4  -1  332.85   13.50
  -2   4  -1  258.56   14.88
  -1   3  -1  527.72   12.78
   0   6   0  280.08   17.86
  -2   3  -1  198.41   12.05
  -4   1   0  205.37   13.81
  -3   6   0  112.49   21.63
   1   4   0   94.97    7.86
  -1   6   0  834.76   23.37
  -2   6   0  157.07   19.16
  -4   3   0  268.57   20.35
  -4   4   0   96.29   20.75
   0   5   0  771.71   17.19
  -4   6   1  115.89   24.35
  -2   5   0   51.69   14.88
  -1   5   0  737.48   18.80
  -3   1   0  390.08   12.14
  -3   4   0  460.14   19.49
  -3   6   1  168.06   21.07
  -3   3   0  403.75   16.92
  -3   2   0  259.62   13.34
   0   4   0  796.06   14.23
   0   6   1  183.34   15.77
   1   3   0  752.41    9.60
  -2   4   0  196.43   13.83
  -2   6   1  146.24   18.26
  -1   6   1   21.59   15.17
  -1   4   0 1400.14   19.61
   1   2   0   59.99    2.99
  -2   3   0  219.91   11.85
  -4   4   1  170.17   20.15
  -4   3   1  254.58   18.34
  -4   1   1  221.26   13.14
   0   3   0 4256.63   23.16
  -2   1   0  647.34   10.54
  -4   2   1  149.61   15.04
  -2   2   0   51.27    8.39
  -5   3   2  147.11   19.99
  -1   3   0 2662.47   21.87
  -6   4   3   97.02   25.33
  -3   6   2  227.76   22.23
   0   5   1  333.64   13.75
  -1   5   1  239.41   14.00
  -3   4   1  284.38   17.68
  -2   6   2   80.23   17.29
  -1   2   0 3916.58   21.81
   0   6   2  109.19   13.22
  -3   3   1  474.03   15.98
  -1   1   0  812.72    8.65
   1   4   1   81.79    7.40
  -3   5   2   97.71   17.70
  -2   4   1  293.44   14.45
  -4   4   2  213.85   19.34
  -3   6   3  102.54   19.13
  -3  -1   1  442.13    6.68
  -5   3   3  120.53   19.62
  -4   3   2  225.88   17.58
  -3   2   1  148.04   11.31
   0   4   1  188.63    9.38
  -3   1   1  684.01   13.57
  -5   2   3  102.95   17.45
  -2   3   1  253.35   12.18
  -3   4   2  662.02   19.88
  -3   3   2  861.04   18.84
  -1   3   1 1111.71   15.19
  -2   2   1  167.31    9.03
  -4   3   3  180.28   16.73
  -2   4   2  221.82   14.05
   1   3   1  353.61    7.43
   0   3   1 1650.36   14.91
  -3   2   2  904.86   16.65
  -4   2   3   85.39   13.91
  -1   4   2   95.47   10.47
  -3   4   3  200.19   15.98
  -2   1   1  714.38   10.53
  -2   3   2  307.84   12.07
   0   4   2  123.79    9.07
   1   4   2  210.14    8.31
  -1   2   1  360.32    8.06
  -4   1   3   77.92   12.55
  -3   3   3  259.18   13.27
  -3   1   2 1682.89   18.45
  -2   4   3   91.87   11.46
  -1   3   2  232.20   10.01
  -2   2   2  245.50    9.61
   0   2   1  434.09    6.87
   0   3   2  348.44    8.50
  -1   1   1  195.67    5.17
  -2   1   2  638.23   10.17
   1   2   1  294.97    4.67
  -3  -1   2 1356.64   11.99
   5  -4   1   -8.94   18.16
   5  -2   1   -1.61   13.81
   5  -3   1   21.52   15.91
   3  -5   0   51.04   20.50
   3   0   0-1284.47   12.01
   2  -7   1   68.92   22.10
   5  -5   1   71.65   21.19
   4  -2   0   52.64   12.72
   3  -7   1   82.53   25.73
   1  -7   1  105.04   21.51
   4  -5   0   47.69   21.31
   2  -6   0  120.66   22.18
   5  -6   1    3.18   23.43
   4  -7   1   23.66   24.70
   6  -4   1   20.97   19.23
   5  -4   0   30.73   19.21
   4  -6   0   84.29   24.78
   6  -5   1  -16.29   22.04
   3  -8   1   24.63   28.55
   5  -7   1   21.82   25.69
   5  -5   0   26.65   21.89
   5  -3   0   60.91   17.70
   2  -7   0   82.04   23.99
   4  -8   1    4.24   28.89
   3  -7   0   27.74   27.30
   5  -2   0   19.03   15.00
   2  -5  -1   38.74   18.08
   3  -5  -1   69.49   20.05
   5  -6   0   10.87   25.87
   4  -7   0   41.14   27.51
   1  -7   0  203.51   23.97
   4  -5  -1   67.89   21.89
   6  -4   0   68.07   20.99
   6  -5   0   17.49   24.05
   5  -7   0   18.65   29.34
   3  -8   0   21.93   31.07
   2  -8   0   18.53   27.95
   5  -4  -1   76.00   20.75
   6  -6   0   22.83   25.94
   5  -5  -1   22.63   22.91
   3  -7  -1  106.45   28.00
   2  -7  -1   55.40   26.17
   5  -6  -1   62.36   26.75
   4  -7  -1   77.42   28.53
   5  -3  -1   74.08   18.07
   5  -7  -1   46.32   29.28
   2  -9   0   47.98   34.11
   5  -2  -1   27.76   14.56
   1  -7  -1  101.12   24.07
   6  -4  -1   90.20   22.49
   6  -5  -1  -10.14   25.41
   3  -8  -1   25.21   32.84
   2  -5  -2   53.61   20.59
   4  -5  -2   56.45   22.30
   4  -8  -1   -7.76   33.96
   6  -6  -1   29.11   29.88
   4  -6  -2  169.40   27.91
   5  -5  -2   -3.82   26.27
   5  -4  -2   21.77   21.27
   3  -7  -2  141.36   30.55
   5  -6  -2   40.77   27.56
   4  -7  -2   88.05   32.89
   2  -7  -2   84.86   29.30
   1  -5  -2   27.17   18.26
   4  -2  -2   75.32   12.78
   5  -7  -2    9.01   31.13
   1  -6  -2   78.23   23.22
   2  -9  -1   -7.70   39.59
   5  -3  -2  117.17   18.60
   6  -5  -2   19.52   25.03
   4  -8  -2  -36.23   36.26
   3  -8  -2   25.52   35.71
   6  -6  -2   74.00   31.03
   6  -4  -2   88.41   22.78
   3  -5  -3   47.19   24.23
   4  -5  -3   54.45   23.83
   2  -8  -2   -4.81   33.42
   1  -7  -2   29.49   25.89
   4  -6  -3   49.34   29.17
   5  -2  -2   41.27   14.38
   5  -5  -3   25.15   24.09
   5  -6  -3   30.97   27.26
   4  -7  -3   27.88   30.53
   2  -5  -3   21.65   25.82
   3  -4   0  414.17   18.75
   2  -5   0   48.63   16.97
   1  -5   0  835.42   21.08
   4  -4   0   85.32   18.31
   0  -4   0  846.30   15.67
   4  -3   0  247.01   17.04
   4  -1   0  172.39   11.51
   3  -6   0  126.49   22.88
   1  -6   0  686.89   24.68
   0  -5   0  719.62   18.69
   2  -3  -1  295.36   13.49
   2  -2  -1  144.24    8.75
   2  -4  -1  353.42   17.79
   3  -3  -1  489.39   17.00
   3  -4  -1  288.78   18.01
  -1  -3   0  760.42    9.95
   1  -3  -1 1277.64   17.96
   3  -2  -1  147.29   11.64
   1  -2  -1  525.00   10.15
   0  -6   0  256.09   19.81
   4  -4  -1  178.57   20.72
  -1  -4   0  100.58    8.77
   1  -4  -1   97.04   13.58
   4  -3  -1  271.09   18.12
   2  -1  -1  585.40    9.56
   1  -5  -1  315.23   18.37
   3  -6  -1  183.96   26.71
   2  -6  -1  176.83   23.12
   4  -2  -1  155.80   13.60
   3  -1  -1  542.39   11.89
   4  -6  -1  119.48   25.46
   1  -6  -1   27.87   20.68
   0  -3  -1 1718.90   17.20
   1  -1  -1  144.86    5.24
   4  -1  -1  187.70   11.54
   3  -4  -2  696.24   22.17
   3  -5  -2  134.05   22.65
   3  -3  -2  870.77   19.67
   4  -4  -2  179.48   21.78
   2  -4  -2  263.77   17.52
   2  -3  -2  365.60   14.62
   0  -5  -1  367.94   17.26
   3  -6  -2  289.34   30.01
   0  -4  -1  164.27   11.88
   0  -2  -1  377.56    7.69
   4  -3  -2  198.24   17.70
   2  -6  -2  117.57   25.55
   0  -6  -1  178.63   19.66
   3  -2  -2  757.30   15.98
   2  -2  -2  210.97    9.99
   1  -3  -2  365.14   16.62
   1  -4  -2  118.54   14.73
   3  -4  -3  235.74   18.88
   4  -4  -3   51.25   19.08
   3  -6  -3  169.28   30.07
  -3  -6  -2    8.51   30.86
  -4  -5  -2  -18.00   28.09
  -1  -7  -2    6.78   31.14
   0  -7  -2   -9.37   29.47
  -1  -6  -1   41.81   23.97
  -2  -7  -2   12.03   32.63
  -3  -5  -1   22.36   23.74
   0  -6  -1  146.44   23.54
  -2  -6  -1   91.20   25.58
   1  -7  -2   28.44   28.06
  -4  -6  -2   -3.13   32.42
  -3  -7  -2   -8.61   34.62
  -4  -4  -1    6.99   22.06
  -1  -5   0   92.59   17.90
  -3   0   0   51.27   10.48
  -3  -6  -1   19.43   28.85
  -2  -5   0   29.14   18.91
  -1  -8  -2  -18.70   36.83
  -4  -5  -1  -15.49   26.58
  -4  -2   0   38.28   12.04
  -1  -7  -1   28.62   27.63
  -2  -8  -2  -14.12   38.20
   0  -8  -2   19.05   34.58
  -5  -4  -1   -5.09   24.35
  -2  -7  -1    1.53   29.89
   0  -7  -1   53.56   26.35
  -3  -5   0   39.64   23.50
  -4  -6  -1   34.16   31.02
  -3  -7  -1  -15.58   32.16
  -2  -6   0  152.44   24.56
   1  -7  -1   84.24   24.40
  -4  -4   0   23.02   21.21
  -3  -6   0   78.29   26.24
  -1  -8  -1  -25.45   33.94
  -2  -8  -1    6.24   35.68
  -5  -5  -1   26.77   29.75
  -4  -7  -1   10.63   36.49
  -4  -5   0   25.16   24.20
   0  -9  -2  -27.35   46.15
   0  -8  -1   37.41   31.07
  -1  -7   0   18.08   25.59
  -2  -7   0   35.00   28.08
  -3  -8  -1   10.28   40.02
  -1  -5   1   45.59   15.93
  -5  -6  -1  -19.12   34.95
  -2  -5   1   31.10   17.83
  -5  -4   0   40.44   24.14
   0  -7   0   53.04   24.54
  -3  -7   0   13.86   30.12
  -4  -6   0    8.82   30.20
  -3  -5   1   65.15   21.70
  -1  -9  -1   41.15   43.16
  -2  -8   0   74.66   33.73
  -1  -8   0   11.63   30.35
  -4  -7   0    0.04   33.69
  -5  -5   0   -5.19   27.38
  -3  -6   1  136.86   25.44
   0  -9  -1   37.10   40.16
   1  -7   0  163.22   22.27
  -4  -4   1   76.46   19.68
  -5  -6   0   23.35   33.81
   0  -8   0   91.08   27.37
  -4  -5   1   10.27   22.73
  -2  -7   1   37.24   26.79
  -1  -7   1   41.97   23.99
  -3  -7   1   51.30   29.07
  -4  -6   1   20.56   27.42
  -5  -4   1   56.06   21.64
  -1  -9   0   -4.82   38.74
   0  -7   1   44.71   21.05
  -4  -7   1   -5.97   32.23
  -1  -5   2   44.54   15.95
  -1  -8   1   -3.54   27.92
  -3  -8   1  -18.75   36.51
  -3  -5   2   57.24   20.39
   0  -9   0   30.02   35.13
  -5  -5   1   40.60   25.60
  -1  -6   2  109.47   20.43
  -5  -6   1   28.55   32.84
   0  -8   1   91.90   24.66
  -2  -7   2   73.27   27.46
  -4  -5   2   38.01   22.61
   0  -5   2   53.67   14.03
  -3  -7   2   45.52   29.68
   1  -7   1   84.52   19.09
  -4  -4   2   80.38   18.90
  -1  -7   2   39.53   22.79
  -4  -6   2   43.19   26.72
  -1  -9   1   11.84   35.90
  -2  -3   0  176.79   12.81
   1  -5  -1  301.01   17.71
  -3  -2   0  142.68   10.93
  -3  -1   0  267.78    9.61
   0  -3   0 4212.90   26.31
  -1  -4   0   94.08   13.54
   2  -4  -1  354.17   13.27
  -3  -3   0  360.01   16.30
   0  -4   0  838.63   17.15
  -2  -4   0  474.29   18.26
   1  -6  -1   31.11   19.74
   1  -3   0 2762.69   19.20
   1  -2   0 3684.25   15.93
   0  -5   0  709.33   20.51
  -3  -4   0  152.76   18.53
  -4  -3   0  115.44   17.60
   1  -4   0 1357.97   17.88
  -4  -1   0  109.18   10.43
  -1  -6   0  102.01   22.05
   0  -6   0  260.27   21.96
   1  -5   0  800.10   19.45
  -2  -3   1  449.66   13.85
  -2  -2   1   59.45    8.21
  -1  -4   1  168.42   13.15
  -2  -4   1  264.38   15.87
  -3  -3   1  434.48   16.17
  -1  -3   1  385.79   12.33
  -3  -2   1  210.44   11.22
  -1  -2   1  241.51    7.56
   1  -6   0  663.20   23.42
   0  -4   1   16.41   10.77
  -3  -4   1  264.68   18.59
   0  -5   1  463.81   17.83
  -4  -3   1   96.50   15.56
  -2  -6   1  133.11   22.88
  -1  -6   1   92.36   20.46
  -2  -1   1  925.31   10.69
  -4  -2   1   57.18   12.22
  -3  -1   1  438.14   10.01
   0  -6   1  140.21   19.08
   0  -3   1 2441.55   20.21
   2  -4   0  143.98    9.33
  -1  -1   1  257.69    5.70
  -2  -4   2  877.49   21.06
   1  -5   1  171.63   13.36
   1  -4   1  334.04   11.62
  -2  -5   2  152.94   18.65
  -1  -4   2  112.35   13.22
  -3  -3   2  496.33   16.48
   0  -2   1   21.16    4.51
  -3  -4   2  300.37   18.91
   1  -6   1   65.88   17.28
  -2  -3   2 1025.14   18.23
   2  -3   0  177.71    6.69
  -2  -6   2  364.18   25.28
  -4  -1   1  122.53    9.82
  -3  -6   2  144.17   25.52
   1  -3   1  509.71   10.35
  -4  -3   2  182.41   16.26
  -3  -2   2  486.69   13.15
  -1  -3   2  258.79   12.33
  -2  -2   2  759.98   14.00
   3  -5  -1   68.54   21.18
   0  -8  -2   25.15   29.59
   3  -7  -2   79.24   29.80
   1  -8  -2   14.45   28.91
   0  -7  -1   54.12   25.08
   4  -6  -2  225.11   35.28
  -2  -6  -1   81.00   23.40
  -1  -8  -2   38.80   29.94
   1  -7  -1   25.24   24.23
   2  -8  -2   12.24   29.23
  -1  -7  -1    7.26   26.22
   2  -7  -1   25.17   24.24
   3  -8  -2   45.56   35.05
   4  -7  -2   67.77   38.93
   0  -9  -2   18.21   34.45
  -2  -7  -1   37.98   26.64
   0  -8  -1   38.49   30.02
   1  -9  -2  -13.91   35.04
   1  -8  -1   -6.35   29.53
  -2  -5   0   22.80   15.84
   3  -7  -1   81.34   29.50
  -1  -8  -1    5.73   29.88
   0  -7   0   87.12   27.00
   2  -8  -1   32.12   29.48
   1  -7   0  130.03   24.33
   3  -5   0   73.75   19.43
  -1  -7   0    8.18   23.96
  -2  -8  -1   13.41   30.17
   4  -8  -2   44.96   47.04
   2  -7   0   70.52   23.82
   0  -9  -1   -1.22   36.04
   1  -9  -1    9.13   37.04
   3  -8  -1   52.04   35.33
  -1  -9  -1   23.77   35.32
   0  -8   0   82.04   30.15
   4  -7  -1   37.22   33.56
  -1  -5   1   51.28   14.82
   1  -8   0  175.32   28.68
   0  -6   1  123.75   20.08
  -2  -7   0   24.04   24.58
   2  -9  -1   24.64   37.28
  -1  -8   0    1.80   27.31
   2  -5   1   39.73   16.07
   3  -7   0   -4.11   28.47
   2  -8   0   47.58   30.17
   0  -7   1   72.70   22.38
   1  -7   1  107.81   24.06
  -2  -8   0    0.47   28.12
   0  -9   0   14.25   31.83
   4  -8  -1   15.49   39.07
   1  -9   0   17.88   32.52
  -1  -7   1   44.53   21.80
  -2  -5   1   35.42   14.66
   4  -6   0   77.89   24.14
  -1  -9   0   44.28   33.74
   2  -7   1   43.48   24.36
   3  -8   0    8.63   31.03
   2  -9   0   33.24   38.44
   0  -8   1   48.05   25.59
   1  -8   1   45.08   27.92
   3  -5   1   32.21   16.73
   3  -6   1  110.86   21.67
   4  -7   0   44.43   27.68
  -1  -8   1   12.10   26.16
  -2  -7   1   41.80   23.45
   3  -4   1   85.45   13.51
   0  -5   2   47.45   13.38
   2  -8   1   35.93   26.55
   0  -6   2   48.24   17.97
   3  -7   1   40.39   24.44
   0  -9   1   -3.34   30.70
   1  -9   1   19.33   30.67
  -2  -8   1   25.41   25.90
   4  -8   0    3.55   33.35
  -1  -5   2   39.96   13.60
   0  -7   2   31.53   20.65
  -1  -9   1   29.41   29.65
   1  -7   2  -15.51   23.85
   1  -4   0 1424.28   20.65
  -2  -3   0  179.58   10.24
  -1  -4   0   87.18   12.27
   0  -5   0  704.21   20.50
   1  -5   0  760.31   21.37
   2  -4   0  143.75   14.00
  -1  -5   0   95.29   17.30
   3  -6  -1  175.12   25.85
   2  -5   0   27.17   17.27
   0  -6   0  213.45   22.47
   2  -3   0  220.57   11.52
   1  -6   0  617.95   24.60
  -2  -4   0  462.30   15.92
   2  -2   0   54.21    7.10
  -1  -6   0  112.49   22.37
   2  -6   0  104.28   22.03
   3  -4   0  437.64   18.12
   0  -4   1   16.95   10.21
   4  -6  -1  137.96   29.81
   1  -4   1  363.79   14.66
   0  -3   1 2525.33   21.40
  -2  -6   0  143.51   22.21
  -1  -3   1  399.73   11.17
   0  -5   1  468.74   19.37
   1  -5   1  172.88   17.17
   3  -6   0  135.41   23.67
  -1  -4   1  170.21   12.56
   1  -6   1   78.98   21.00
   1  -3   1  541.06   12.94
   0  -2   1   23.94    4.78
   2  -4   1  239.97   14.22
  -1  -6   1   91.59   19.53
  -1  -2   1  233.89    6.60
   3  -3   0  373.64   14.01
   2  -6   1  178.49   21.14
  -2  -3   1  357.86   10.72
   1  -2   1 1410.88   13.30
  -2  -4   1  241.75   13.25
  -2  -6   1  126.21   19.27
   2  -3   1  175.09   10.91
   3  -2   0  215.64    9.08
   1  -5   2   81.21   14.61
   1  -6   2   93.59   20.65
   0  -4   2   64.00   10.31
   1  -4   2  123.15   11.71
  -1  -6   2  129.28   17.43
  -2  -2   1   44.23    5.78
   3  -8   1    4.04   29.88
   2  -9   1   24.89   33.83
  -1  -4   2   94.96   10.72
   3  -5   0   53.33   18.24
   4  -6   1   85.84   21.29
   1  -8   1   62.73   24.71
   2  -8   1   34.98   25.94
   0  -8   1   62.54   26.15
   1  -7   0  176.37   23.58
   4  -7   1   23.14   23.38
   3  -8   1    1.22   25.75
   2  -7   0   94.72   24.16
  -2  -7   1   66.90   22.62
   0  -7   0  120.38   24.42
  -1  -8   1   13.73   28.72
   1  -9   1   12.74   28.72
   3  -7   0   17.72   25.01
   2  -5  -1   47.50   17.57
   2  -9   1    5.85   31.86
  -2  -5   0   20.04   18.12
  -1  -7   0   40.60   25.24
   0  -9   1   11.26   29.52
   1  -8   0  246.36   30.31
   4  -6   0  105.44   23.93
   2  -8   0   25.62   27.49
   0  -8   0   80.18   31.04
  -2  -8   1   17.79   26.89
  -1  -9   1    9.64   32.70
   3  -5  -1   61.20   22.04
   3  -8   0   11.25   30.68
   4  -7   0   52.19   26.95
   1  -7  -1   46.85   28.02
  -1  -5  -1   39.05   18.96
  -1  -8   0   23.26   29.66
   2  -7  -1   32.90   24.48
   1  -9   0   40.44   35.49
   0  -7  -1   81.83   29.28
  -2  -7   0   62.00   27.13
   2  -9   0   38.18   33.54
   0  -9   0    8.67   36.30
   3  -7  -1   85.52   29.65
   1  -8  -1    6.83   31.41
  -1  -7  -1   15.94   30.23
   0  -8  -1   53.64   30.13
  -1  -9   0   40.05   35.04
  -2  -8   0    6.78   31.72
   1  -5  -2   23.94   20.47
   3  -8  -1   11.14   34.01
   1  -6  -2   72.52   24.76
   2  -5  -2   52.16   22.50
   0  -5  -2   83.19   20.86
   2  -6  -2   74.82   27.34
   4  -7  -1   37.58   31.04
   1  -9  -1    7.01   41.88
   0  -6  -2   64.78   26.97
   2  -9  -1   15.54   42.07
  -2  -6  -1  112.65   26.24
  -1  -8  -1    2.17   34.01
  -2  -5  -1   31.92   21.07
   1  -7  -2   26.96   26.76
   2  -7  -2   42.99   31.88
   0  -9  -1   23.63   41.61
   0  -7  -2   29.66   29.20
  -2  -7  -1   46.58   31.22
  -2  -4  -1   62.16   15.59
   3  -7  -2  106.93   37.33
   2  -8  -2   14.93   38.47
  -1  -6  -2   76.98   26.70
  -1  -9  -1   19.41   37.21
  -1  -5  -2   22.46   21.68
   0  -8  -2   19.59   36.45
  -2  -8  -1    8.37   32.30
  -1  -7  -2    0.65   29.77
   3  -8  -2   24.73   42.27
   1  -9  -2    2.65   42.37
   4  -6  -2   45.26   28.70
   4  -7  -2   12.70   30.89
  -1  -8  -2   -9.24   31.68
   0  -9  -2   12.27   38.52
   4  -5  -2   -1.46   20.89
   2  -6  -3    5.30   25.45
   1  -5  -3   11.08   19.27
   1  -7  -3    1.70   26.73
   1  -6   0  659.83   24.88
  -2  -6   1  108.49   20.92
   2  -6   0  124.75   19.80
  -2  -3   0  188.92   11.61
   3  -6   0  139.66   22.54
  -1  -6   0  130.34   22.08
   1  -4  -1  114.29   14.47
   1  -3  -1 1200.60   18.08
  -2  -2   0  506.40    9.60
   0  -3  -1 1813.03   20.52
   1  -5  -1  281.88   18.56
   2  -4  -1  330.77   16.12
   0  -4  -1  166.07   14.17
   0  -5  -1  374.52   21.68
   2  -3  -1  288.85   12.91
   1  -2  -1  447.30    9.82
   1  -6  -1   29.58   23.88
   2  -6  -1  184.50   24.30
  -2  -6   0  202.18   24.11
   0  -6  -1  164.50   25.81
   0  -2  -1  361.23    8.60
   3  -4  -1  319.95   19.04
  -1  -3  -1  364.70   14.66
   3  -6  -1  186.96   25.71
  -1  -4  -1  112.83   14.78
  -1  -6  -1   68.00   24.05
   2  -2  -1  145.27    8.88
   3  -3  -1  506.75   16.08
   4  -6  -1  138.11   28.25
   1  -4  -2   98.83   14.44
  -1  -2  -1  250.41    8.53
   2  -4  -2  252.49   20.16
   0  -4  -2  100.98   16.63
   3  -6  -2  290.79   33.31
   3  -5  -2  136.63   27.42
   1  -3  -2  358.39   18.93
  -2  -3  -1  122.98   11.00
   0  -3  -2  324.29   15.58
   3  -4  -2  709.74   25.89
   2  -3  -2  345.72   17.23
   3  -2  -1  108.99    7.83
   1  -1  -1   84.10    4.33
  -1  -4  -2  137.14   16.54
  -1   8  -1   41.69   27.16
   0   8  -1   82.87   26.59
  -3   5  -1   25.70   20.86
  -2   7  -1   22.11   22.51
  -3   8   0   -8.18   31.86
   1   7  -1   40.40   22.12
   2   8   0   35.10   22.79
  -1   7  -1   43.67   22.14
   0   7  -1   56.85   24.27
   2   5  -1   25.38   12.50
  -2   8   0   47.17   27.26
  -2   5  -1   32.94   15.31
   1   8   0   26.93   25.27
  -4   7   1   46.71   32.13
  -1   8   0  250.62   28.91
   2   7   0   45.34   18.83
   0   8   0   97.53   27.84
   1   5  -1   53.87   14.38
  -3   8   1   -3.24   29.95
  -2   7   0  130.59   23.01
  -4   8   2   34.79   34.36
   1   7   0   42.54   23.11
  -1   7   0  259.62   24.59
  -3   5   0   56.65   19.30
   0   7   0  151.78   24.29
  -2   8   1   17.69   25.89
   1   8   1    1.61   26.42
  -3   7   1   93.92   26.88
  -1   8   1   34.91   25.57
   0   8   1   36.35   26.04
  -4   7   2  152.29   31.04
   2   7   1   54.80   20.59
  -3   8   2   -7.50   28.36
   2   5   0   40.55   13.35
   2   8   2    1.35   23.39
  -2   7   1   41.30   22.19
   1   7   1   55.48   22.77
  -2   8   2   12.81   24.15
   1   8   2   25.82   24.83
  -1   7   1  108.85   22.77
  -4   6   2  195.30   29.75
   0   7   1   84.11   22.42
  -1   8   2   11.40   24.58
  -3   7   2  155.63   27.31
   0   8   2    2.14   24.56
   2   7   2   18.45   19.76
  -3   5   1   56.30   19.49
  -2   7   2   65.14   21.24
  -4   5   2   72.88   23.34
   1   7   2   20.56   21.06
   2   5   1   20.24   14.11
  -1   7   2   23.90   19.99
   0   7   2   38.18   21.05
  -3   7   3   49.81   24.23
  -2   5   1   26.75   15.39
  -4   6   3   71.77   26.66
   2   6   2   38.34   16.68
   1   5   1   38.47   14.88
  -2   7   3   16.94   21.32
   1   6   2  110.74   18.39
  -1   6   2   70.98   18.92
   0   6   2  104.76   18.41
  -4   5   3   78.39   22.62
   2   5   2    2.92   12.81
  -1   4   1   66.54   10.79
  -2   5   2   47.04   15.73
  -2   6   3   65.14   19.06
  -2   5   3   27.53   15.65
  -1   5   3   -0.54   12.67
  -2   4   3   70.20   11.67
  -3   6  -1  135.34   25.36
  -4   6   0  111.98   31.14
   2   6  -1  135.82   16.83
  -2   3  -1  213.34   11.51
  -1   2  -1 1443.02   13.44
  -2   6  -1  164.39   20.28
   1   2  -1  225.30    6.69
  -3   2   0  208.37    8.08
   2   4  -1  218.72   11.23
   2   3  -1  432.22   10.43
   1   6  -1   85.06   18.98
  -1   6  -1   77.44   18.98
   0   2  -1   42.83    4.42
  -2   4  -1  240.99   14.07
   0   6  -1  155.75   20.71
  -3   6   0  157.30   23.62
  -1   5  -1  201.10   15.65
  -1   3  -1  512.54   11.64
   1   3  -1  382.98   10.42
   0   5  -1  512.92   19.27
   1   4  -1  145.91   11.24
  -1   4  -1  292.56   12.96
  -2   1   0  608.62    6.95
  -3   3   0  365.57   13.41
  -4   6   1  154.77   29.64
   0   3  -1 2525.31   20.80
   0   4  -1   23.14    9.81
   2   6   0  164.87   17.81
  -2   6   0  159.68   19.84
  -3   4   0  550.11   20.12
   1   6   0  130.61   20.07
  -1   6   0  878.88   25.18
   0   6   0  251.02   21.09
  -2   5   0   43.67   14.88
  -3   6   1  196.77   23.68
   2   4   0  424.24   13.08
  -2   2   0   48.10    5.91
  -1   5   0  757.83   19.76
  -2   4   0  172.87   13.26
  -2   3   0  227.43   10.93
   2   6   1  126.55   18.51
   0   5   0  722.75   19.58
  -2   6   1  140.56   19.15
  -1   4   0 1406.44   20.25
   1   4   0   94.30   11.06
   1   6   1   36.82   18.93
   2   3   0  178.21    9.08
  -1   6   1   22.36   18.48
   0   4   0  756.31   15.97
   0   6   1  192.24   19.70
  -3   6   2  277.43   25.00
   2   2   0  509.19    8.12
  -1   3   0 2713.74   22.04
  -3   4   1  300.31   17.38
  -3   3   1  509.88   14.10
   1   3   0  770.04   12.63
  -1   1   0  735.62    6.69
  -3   1   1  757.25    9.30
  -1   2   0 3935.92   20.92
   0   3   0 4145.54   25.51
  -3   2   1  146.32    9.04
  -2   6   2   91.82   19.29
  -1   5   1  256.28   16.10
   0   5   1  340.36   17.52
   1   2   0   62.73    5.03
  -3   5   2  128.95   20.88
   2   4   1   64.38   11.47
  -2   4   1  318.28   15.34
  -3   6   3  159.91   24.01
   1   1   0  319.07    4.86
   1   4   1   86.10   11.25
   0   1   0 1722.69    9.07
   0   4   1  187.02   12.61
  -3   4   2  766.74   21.19
  -3   3   2  904.41   16.80
  -1   3   1 1167.45   15.59
  -2   2   1  165.75    7.68
   2   4   2  146.15   10.66
  -2   4   2  256.18   14.43
   1   3   1  357.97   10.21
   0   3   1 1677.14   17.52
  -1   4   2   92.54   11.00
   1   4   2  220.34   11.21
   0   4   2  139.07   10.57
  -3   4   3  215.91   16.05
  -3   2   2  957.85   13.56
  -2   3   2  328.14   11.69
   2   2   1   78.31    5.64
  -1   2   1  393.44    7.78
  -2   1   1  744.13    8.08
  -3   3   3  161.80   10.64
   2   3   2   24.40    6.19
   1   2   1  280.74    6.34
   0   2   1  420.16    7.57
  -1   3   2  216.94    9.79
   1   3   2   73.78    6.36
   0   3   2  345.82    9.29
  -2   2   2  222.90    7.83
  -3   1   2 1647.90   13.07
  -2   8   2   22.28   14.67
  -1   8   2   13.47   16.01
  -3   7   2  106.70   17.82
   2   7   1   80.63   16.90
   0   7   2   64.52   16.28
  -2   7   2   51.11   17.04
  -1   7   2   24.43   16.52
   1   8   1   38.25   23.07
  -4   7   1   72.77   29.53
   2   5   1   21.27   12.72
  -1   6   2   70.04   15.64
  -3   8   1   23.80   27.63
  -2   5   2   36.11   13.05
  -1   5   2   16.44   11.67
   0   8   1   71.84   27.07
   2   8   0    6.86   26.76
   1   7   1   70.04   22.20
  -2   8   1    6.47   24.40
  -4   8   0   13.80   37.28
  -1   8   1   38.14   25.12
  -3   7   1  108.16   25.17
   2   7   0   65.56   21.26
   0   7   1  126.52   22.75
  -2   7   1   51.67   21.41
   1   5   1   32.15   14.18
   1   8   0   27.72   28.55
  -1   7   1   70.17   20.81
  -3   8   0   17.54   29.82
  -4   7   0   67.44   32.18
  -3   5   1   58.70   18.21
   2   8  -1    9.03   28.22
  -2   8   0   44.51   26.91
  -1   8   0  285.82   28.83
   1   7   0   44.24   24.99
  -4   6   0   70.12   25.56
  -3   7   0   31.26   24.24
   2   5   0   33.91   14.58
  -2   5   1   43.42   14.35
   0   7   0  163.52   25.91
  -3   8  -1    0.92   28.72
   1   8  -1    1.18   31.38
   2   7  -1   82.72   24.69
  -1   4   1   65.40   10.34
  -2   7   0  106.25   22.54
  -4   7  -1   -3.25   26.42
  -1   7   0  267.98   23.92
  -2   8  -1   35.93   26.92
   0   8  -1   79.05   30.66
  -1   8  -1   29.22   28.13
   1   5   0   94.33   16.80
   1   7  -1   49.10   24.80
  -3   7  -1   55.82   24.16
  -4   6  -1   11.26   20.59
  -3   5   0   40.67   16.65
   0   7  -1   89.33   26.01
  -2   7  -1   19.38   21.83
   2   7  -2  153.85   25.14
  -1   7  -1   96.00   23.88
   2   5  -1   41.29   14.42
  -3   6  -1   98.43   20.03
   1   7  -2   95.91   26.48
  -2   6  -1  125.88   19.36
   0   7  -2   56.08   25.46
   1   5  -1   48.28   15.21
  -1   7  -2   41.33   23.40
  -3   5  -1   10.63   15.55
  -2   5  -1   26.11   13.74
  -2   6  -2   15.09   17.88
   0   6  -2   53.70   20.58
  -1   6  -2   88.45   20.62
  -3   5  -2   -2.33   14.70
   1   5  -2   64.51   15.98
  -2   5  -2    7.92   14.03
   0   5  -2   55.38   15.83
  -3   4  -2    0.16   13.13
  -3   3  -2    1.32   10.54
   1   4   2  183.66    8.91
  -2   3   2  283.95    8.79
   1   6   2  110.59   14.03
   0   3   2  414.49    9.56
  -1   3   2  245.35    8.13
  -3   2   1   88.55    5.70
  -3   4   2  651.54   16.88
  -3   6   2  286.11   18.90
   0   4   2  132.73    9.97
  -3   5   2  132.20   14.63
   2   6   1  110.66   17.09
   0   6   2  126.83   16.63
   0   5   2  125.32   13.46
   2   4   1   73.95   10.02
  -1   4   2   82.47    9.30
  -2   6   2   93.48   15.97
  -2   4   2  238.40   12.01
   2   3   1  145.36    7.19
  -4   6   1  126.53   26.61
   1   2   1  315.19    6.85
   1   6   1   62.80   19.08
  -3   3   1  467.91   15.20
  -2   2   1  186.63    8.38
  -3   6   1  218.74   23.12
   1   4   1   98.59   11.01
   0   6   1  182.28   20.54
   2   6   0  143.98   20.17
   0   2   1  399.79    7.33
   0   8   0   93.39   29.71
  -2   6   1  139.91   19.06
  -1   2   1  412.42    7.68
   1   3   1  369.78   10.75
  -1   6   1   15.36   16.34
  -3   1   0  220.69    5.67
   0   5   1  355.74   17.42
  -3   4   1  326.30   18.42
  -2   3   1  300.03   11.47
   0   4   1  201.81   11.94
  -1   5   1  260.22   15.16
  -1   3   1 1147.10   15.09
   0   3   1 1674.56   17.28
  -2   4   1  328.88   14.42
   1   6   0  128.39   21.09
   2   4   0  475.45   14.12
  -3   6   0  136.81   21.68
   0   6   0  279.33   22.28
   2   6  -1  144.12   20.24
  -2   6   0  147.00   19.50
   2   2   0  492.78    8.56
  -1   6   0  699.72   24.36
  -3   2   0  196.93    8.38
   2   3   0  176.85    9.36
  -3   3   0  327.24   12.07
   0   5   0  729.59   20.46
   1   4   0   99.59   11.25
  -2   5   0   51.08   14.58
  -1   5   0  773.40   19.97
  -3   4   0  412.44   16.64
   1   6  -1   85.33   21.14
   0   4   0  752.67   16.16
   0   6  -1  160.97   20.72
  -2   4   0  204.71   12.74
   2   6  -2  344.74   21.86
  -1   4   0 1404.86   19.93
  -1   6  -1   75.19   19.06
  -2   3   0  210.15    9.74
   1   3   0  755.58   12.67
   2   4  -1  226.57   12.73
   1   1   0  359.71    4.76
  -2   1   0  607.42    6.94
  -2   2   0   46.79    5.50
   1   2   0   65.86    4.96
  -1   3   0 2672.74   21.51
   0   3   0 4178.85   25.50
   1   6  -2  158.80   21.96
   0   5  -1  395.10   20.41
  -1   5  -1  180.24   15.17
   2   5  -2  151.39   16.46
  -1   2   0 3823.77   20.36
   1   4  -1  146.24   12.16
  -3   4  -1   59.92   12.40
  -3   3  -1  193.44   11.90
   0   4  -1   20.07   10.29
  -1   1   0  782.22    6.87
  -2   4  -1  241.13   13.06
   2   3  -1  433.89   11.19
   0   1   0 1738.69    8.94
  -1   4  -1  273.99   12.94
   2   4  -2  868.77   17.84
  -1   5  -2   56.26   15.33
  -3   2  -1  125.89    8.39
  -2   3  -1  186.35   10.19
   1   3  -1  402.36   11.58
   2   2  -1   47.38    6.31
  -1   3  -1  540.08   12.00
   1   4  -2  154.08   12.89
   0   3  -1 2647.71   21.35
  -2   4  -2   36.25   11.56
   0   4  -2   91.80   12.10
  -1   4  -2  105.58   11.85
  -3   1  -1  204.83    6.60
  -2   2  -1   45.34    6.48
   2   3  -2 1086.57   15.75
   1   2  -1  253.38    7.16
   3   2  -2  551.83   10.60
  -1   2  -1 1397.52   13.52
   0   2  -1   47.99    4.59
   1   3  -2  312.20   11.96
   2   1  -1  937.37    7.29
   0   0   0    0.00    0.00
;
_shelx_hkl_checksum              68847
_olex2_submission_special_instructions 'No special instructions were received'
loop_
_space_group_symop_operation_xyz
'x, y, z'
loop_
_atom_site_label
_atom_site_type_symbol
_atom_site_fract_x
_atom_site_fract_y
_atom_site_fract_z
_atom_site_U_iso_or_equiv
_atom_site_adp_type
_atom_site_occupancy
_atom_site_site_symmetry_order
_atom_site_calc_flag
_atom_site_refinement_flags_posn
Co1 Co 0.000(3) 0.000(2) 0.001(5) 0.027(3) Uiso 1 1 d D
O1W O 0.341(7) 0.018(7) -0.063(14) 0.045(14) Uiso 1 1 d .
H1WA H 0.4974 0.0734 -0.0010 0.067 Uiso 1 1 d GR
H1WB H 0.3714 0.1085 -0.1419 0.067 Uiso 1 1 d GR
C8 C -0.262(6) -0.021(9) -0.255(3) 0.069(10) Uiso 1 1 d D
C6 C 0.000(7) 0.031(4) -0.561(4) 0.069(10) Uiso 1 1 d D
H6 H 0.1435 0.0604 -0.5885 0.083 Uiso 1 1 calc R
C1 C -0.188(9) -0.017(4) -0.649(3) 0.069(10) Uiso 1 1 d DG
C2 C -0.402(7) -0.061(4) -0.609(4) 0.069(10) Uiso 1 1 d DG
H2 H -0.5280 -0.0935 -0.6678 0.083 Uiso 1 1 calc R
C3 C -0.428(7) -0.056(5) -0.480(5) 0.069(10) Uiso 1 1 d DG
H3 H -0.5709 -0.0855 -0.4534 0.083 Uiso 1 1 calc R
C4 C -0.239(9) -0.008(6) -0.393(3) 0.069(10) Uiso 1 1 d DG
C5 C -0.025(7) 0.036(6) -0.433(4) 0.069(10) Uiso 1 1 d DG
H5 H 0.1006 0.0685 -0.3741 0.083 Uiso 1 1 calc R
C7 C -0.157(5) -0.016(4) -0.786(3) 0.07(3) Uiso 1 1 d D
O2 O -0.290(4) -0.042(5) -0.885(4) 0.033(6) Uiso 1 1 d D
N1 N -0.002(4) 0.324(5) 0.011(3) 0.024(14) Uiso 1 1 d D
N2 N -0.004(4) 0.698(5) -0.001(3) 0.025(14) Uiso 1 1 d D
C11 C -0.238(4) 0.375(4) 0.013(11) 0.034(7) Uiso 1 1 d D
H11 H -0.2971 0.3348 0.0913 0.041 Uiso 1 1 calc R
H11B H -0.3369 0.3153 -0.0576 0.041 Uiso 1 1 calc R
C9 C 0.100(8) 0.396(4) -0.101(4) 0.034(7) Uiso 1 1 d D
H9A H 0.0132 0.3393 -0.1771 0.041 Uiso 1 1 calc R
H9B H 0.2556 0.3607 -0.0984 0.041 Uiso 1 1 calc R
C12 C -0.227(5) 0.590(4) 0.003(6) 0.034(7) Uiso 1 1 d D
H12A H -0.3242 0.6194 -0.0728 0.041 Uiso 1 1 calc R
H12 H -0.2951 0.6385 0.0745 0.041 Uiso 1 1 calc R
C10 C 0.098(8) 0.611(4) -0.105(5) 0.034(7) Uiso 1 1 d D
H10A H 0.2543 0.6652 -0.1044 0.041 Uiso 1 1 calc R
H10B H 0.0150 0.6440 -0.1848 0.041 Uiso 1 1 calc R
C14 C 0.150(8) 0.620(4) 0.100(6) 0.034(7) Uiso 1 1 d D
H14A H 0.1269 0.6828 0.1782 0.041 Uiso 1 1 calc R
H14B H 0.3051 0.6581 0.0828 0.041 Uiso 1 1 calc R
C13 C 0.137(7) 0.408(4) 0.124(5) 0.034(7) Uiso 1 1 d D
H13A H 0.2883 0.3620 0.1331 0.041 Uiso 1 1 calc R
H13B H 0.0646 0.3783 0.2001 0.041 Uiso 1 1 calc R
O1 O 0.054(4) 0.000(6) 0.208(3) 0.033(6) Uiso 1 1 d D
O4 O -0.102(5) -0.001(6) -0.168(5) 0.033(6) Uiso 1 1 d D
O3 O -0.464(4) -0.041(5) -0.229(6) 0.033(6) Uiso 1 1 d D
loop_
_atom_type_symbol
_atom_type_description
_atom_type_scat_dispersion_real
_atom_type_scat_dispersion_imag
_atom_type_scat_source
C C 0.0033 0.0016 'International Tables Vol C Tables 4.2.6.8 and 6.1.1.4'
H H 0.0000 0.0000 'International Tables Vol C Tables 4.2.6.8 and 6.1.1.4'
Co Co 0.3494 0.9721 'International Tables Vol C Tables 4.2.6.8 and 6.1.1.4'
N N 0.0061 0.0033 'International Tables Vol C Tables 4.2.6.8 and 6.1.1.4'
O O 0.0106 0.0060 'International Tables Vol C Tables 4.2.6.8 and 6.1.1.4'
loop_
_geom_angle_atom_site_label_1
_geom_angle_atom_site_label_2
_geom_angle_atom_site_label_3
_geom_angle
_geom_angle_site_symmetry_1
_geom_angle_site_symmetry_3
O1W Co1 O2 164(4) . 1_556
O1W Co1 N1 92.4(15) . .
O2 Co1 N1 92.2(16) 1_556 .
N2 Co1 O1W 89.4(16) 1_545 .
N2 Co1 O2 85.6(15) 1_545 1_556
N2 Co1 N1 178(3) 1_545 .
N2 Co1 O1 90(2) 1_545 .
O1 Co1 O1W 106(4) . .
O1 Co1 O2 58.9(13) . 1_556
O1 Co1 N1 88(2) . .
O4 Co1 O1W 85(4) . .
O4 Co1 O2 110.5(14) . 1_556
O4 Co1 N1 91(2) . .
O4 Co1 N2 91(2) . 1_545
O4 Co1 O1 169.3(18) . .
Co1 O1W H1WA 122.7 . .
Co1 O1W H1WB 117.7 . .
H1WA O1W H1WB 95.6 . .
O4 C8 C4 126(4) . .
O3 C8 C4 114(4) . .
O3 C8 O4 119.5(4) . .
C1 C6 H6 120.0 . .
C1 C6 C5 120.0 . .
C5 C6 H6 120.0 . .
C6 C1 C7 119(3) . .
C2 C1 C6 120.0 . .
C2 C1 C7 121(3) . .
C1 C2 H2 120.0 . .
C1 C2 C3 120.0 . .
C3 C2 H2 120.0 . .
C2 C3 H3 120.0 . .
C4 C3 C2 120.0 . .
C4 C3 H3 120.0 . .
C3 C4 C8 120(3) . .
C3 C4 C5 120.0 . .
C5 C4 C8 120(3) . .
C6 C5 H5 120.0 . .
C4 C5 C6 120.0 . .
C4 C5 H5 120.0 . .
O2 C7 C1 134(3) . .
O2 C7 O1 119.4(4) . 1_554
O1 C7 C1 106(3) 1_554 .
C7 O2 Co1 90.3(10) . 1_554
C11 N1 Co1 110(2) . .
C11 N1 C13 108(3) . .
C9 N1 Co1 106(3) . .
C9 N1 C11 112(6) . .
C9 N1 C13 108(3) . .
C13 N1 Co1 113(3) . .
C12 N2 Co1 117(2) . 1_565
C10 N2 Co1 117(3) . 1_565
C10 N2 C12 105(3) . .
C14 N2 Co1 115(2) . 1_565
C14 N2 C12 105(3) . .
C14 N2 C10 95(4) . .
N1 C11 H11 110.6 . .
N1 C11 H11B 110.6 . .
N1 C11 C12 106(3) . .
H11 C11 H11B 108.7 . .
C12 C11 H11 110.6 . .
C12 C11 H11B 110.6 . .
N1 C9 H9A 109.7 . .
N1 C9 H9B 109.7 . .
N1 C9 C10 110(4) . .
H9A C9 H9B 108.2 . .
C10 C9 H9A 109.7 . .
C10 C9 H9B 109.7 . .
N2 C12 C11 119(3) . .
N2 C12 H12A 107.5 . .
N2 C12 H12 107.5 . .
C11 C12 H12A 107.5 . .
C11 C12 H12 107.5 . .
H12A C12 H12 107.0 . .
N2 C10 C9 115(4) . .
N2 C10 H10A 108.4 . .
N2 C10 H10B 108.4 . .
C9 C10 H10A 108.4 . .
C9 C10 H10B 108.4 . .
H10A C10 H10B 107.5 . .
N2 C14 H14A 107.2 . .
N2 C14 H14B 107.2 . .
N2 C14 C13 121(4) . .
H14A C14 H14B 106.8 . .
C13 C14 H14A 107.2 . .
C13 C14 H14B 107.2 . .
N1 C13 C14 104(4) . .
N1 C13 H13A 111.0 . .
N1 C13 H13B 111.0 . .
C14 C13 H13A 111.0 . .
C14 C13 H13B 111.0 . .
H13A C13 H13B 109.0 . .
C7 O1 Co1 91.0(9) 1_556 .
C8 O4 Co1 150(4) . .
loop_
_geom_bond_atom_site_label_1
_geom_bond_atom_site_label_2
_geom_bond_distance
_geom_bond_site_symmetry_2
Co1 O1W 2.19(7) .
Co1 O2 2.20(4) 1_556
Co1 N1 2.29(4) .
Co1 N2 2.13(4) 1_545
Co1 O1 2.19(5) .
Co1 O4 1.83(7) .
O1W H1WA 1.1122 .
O1W H1WB 1.0841 .
C8 C4 1.480(3) .
C8 O4 1.250(3) .
C8 O3 1.250(3) .
C6 H6 0.9300 .
C6 C1 1.3900 .
C6 C5 1.3900 .
C1 C2 1.3900 .
C1 C7 1.480(3) .
C2 H2 0.9300 .
C2 C3 1.3900 .
C3 H3 0.9300 .
C3 C4 1.3900 .
C4 C5 1.3900 .
C5 H5 0.9300 .
C7 O2 1.250(2) .
C7 O1 1.250(3) 1_554
O2 Co1 2.20(4) 1_554
N1 C11 1.470(2) .
N1 C9 1.470(2) .
N1 C13 1.470(2) .
N2 Co1 2.13(4) 1_565
N2 C12 1.470(2) .
N2 C10 1.470(2) .
N2 C14 1.470(2) .
C11 H11 0.9700 .
C11 H11B 0.9700 .
C11 C12 1.520(2) .
C9 H9A 0.9700 .
C9 H9B 0.9700 .
C9 C10 1.520(2) .
C12 H12A 0.9700 .
C12 H12 0.9700 .
C10 H10A 0.9700 .
C10 H10B 0.9700 .
C14 H14A 0.9700 .
C14 H14B 0.9700 .
C14 C13 1.520(2) .
C13 H13A 0.9700 .
C13 H13B 0.9700 .
O1 C7 1.250(3) 1_556
loop_
_geom_torsion_atom_site_label_1
_geom_torsion_atom_site_label_2
_geom_torsion_atom_site_label_3
_geom_torsion_atom_site_label_4
_geom_torsion
_geom_torsion_site_symmetry_1
_geom_torsion_site_symmetry_4
Co1 N1 C11 C12 -173(5) . .
Co1 N1 C9 C10 178(3) . .
Co1 N1 C13 C14 169(4) . .
Co1 N2 C12 C11 -175(6) 1_565 .
Co1 N2 C10 C9 178(4) 1_565 .
Co1 N2 C14 C13 170(5) 1_565 .
O1W Co1 O4 C8 171(9) . .
C8 C4 C5 C6 174(4) . .
C6 C1 C2 C3 0.0 . .
C6 C1 C7 O2 -175(2) . .
C6 C1 C7 O1 11(3) . 1_554
C1 C6 C5 C4 0.0 . .
C1 C2 C3 C4 0.0 . .
C1 C7 O2 Co1 -179.5(18) . 1_554
C2 C1 C7 O2 3(2) . .
C2 C1 C7 O1 -171(3) . 1_554
C2 C3 C4 C8 -174(4) . .
C2 C3 C4 C5 0.0 . .
C3 C4 C5 C6 0.0 . .
C4 C8 O4 Co1 -178(5) . .
C5 C6 C1 C2 0.0 . .
C5 C6 C1 C7 178.4(13) . .
C7 C1 C2 C3 -178.4(13) . .
O2 Co1 O4 C8 -4(9) 1_556 .
N1 Co1 O4 C8 -97(8) . .
N1 C11 C12 N2 -2(9) . .
N1 C9 C10 N2 -1(5) . .
N2 Co1 O4 C8 81(8) 1_545 .
N2 C14 C13 N1 14(6) . .
C11 N1 C9 C10 59(6) . .
C11 N1 C13 C14 -69(4) . .
C9 N1 C11 C12 -56(8) . .
C9 N1 C13 C14 53(4) . .
C12 N2 C10 C9 -50(5) . .
C12 N2 C14 C13 40(6) . .
C10 N2 C12 C11 54(6) . .
C10 N2 C14 C13 -68(5) . .
C14 N2 C12 C11 -46(7) . .
C14 N2 C10 C9 57(5) . .
C13 N1 C11 C12 64(7) . .
C13 N1 C9 C10 -61(4) . .
O1 Co1 O4 C8 -11(18) . .
O1 C7 O2 Co1 -6(3) 1_554 1_554
O4 C8 C4 C3 172(5) . .
O4 C8 C4 C5 -2(8) . .
O3 C8 C4 C3 -13(7) . .
O3 C8 C4 C5 173(4) . .
O3 C8 O4 Co1 7(12) . .
