#------------------------------------------------------------------------------
#$Date: 2019-11-24 04:12:18 +0200 (Sun, 24 Nov 2019) $
#$Revision: 236652 $
#$URL: file:///home/coder/svn-repositories/cod/cif/8/00/03/8000375.cif $
#------------------------------------------------------------------------------
#
# This file is available in the Crystallography Open Database (COD),
# http://www.crystallography.net/
#
# All data on this site have been placed in the public domain by the
# contributors.
#
data_8000375
loop_
_publ_author_name
'Andrzejewski, Micha\/l'
'Katrusiak, Andrzej'
_publ_section_title
;
 Piezochromic Porous Metal-Organic Framework.
;
_journal_issue                   1
_journal_name_full               'The journal of physical chemistry letters'
_journal_page_first              279
_journal_page_last               284
_journal_paper_doi               10.1021/acs.jpclett.6b02458
_journal_volume                  8
_journal_year                    2017
_chemical_formula_moiety         'C14 H18 Co N2 O5'
_chemical_formula_sum            'C14 H18 Co N2 O5'
_chemical_formula_weight         353.23
_chemical_name_common            AMU1
_chemical_name_systematic
;
Co(1,4-benzenedicarboxylate)(1,4-diazabicyclo[2.2.2]octane)H2O
;
_space_group_crystal_system      triclinic
_space_group_IT_number           1
_space_group_name_Hall           'P 1'
_space_group_name_H-M_alt        'P 1'
_atom_sites_solution_hydrogens   mixed
_atom_sites_solution_primary     direct
_audit_creation_date             2016-07-12
_audit_creation_method
;
Olex2 1.2
(compiled 2016.02.19 svn.r3266 for OlexSys, GUI svn.r5155)
;
_cell_angle_alpha                90.00(9)
_cell_angle_beta                 95.21(17)
_cell_angle_gamma                92.76(6)
_cell_formula_units_Z            1
_cell_length_a                   5.958(6)
_cell_length_b                   7.069(3)
_cell_length_c                   10.669(6)
_cell_measurement_reflns_used    833
_cell_measurement_temperature    296(2)
_cell_measurement_theta_max      51.936
_cell_measurement_theta_min      9.806
_cell_volume                     447.0(6)
_computing_molecular_graphics    'Olex2 (Dolomanov et al., 2009)'
_computing_publication_material  'Olex2 (Dolomanov et al., 2009)'
_computing_structure_refinement  'ShelXL (Sheldrick, 2015)'
_computing_structure_solution    'ShelXS (Sheldrick, 2008)'
_diffrn_ambient_temperature      296(2)
_diffrn_measured_fraction_theta_full 0.254
_diffrn_measured_fraction_theta_max 0.254
_diffrn_measurement_device_type  'multiwire proportional'
_diffrn_measurement_method       'phi and omega scans'
_diffrn_radiation_monochromator  graphite
_diffrn_radiation_type           MoK\a
_diffrn_radiation_wavelength     0.71073
_diffrn_reflns_av_R_equivalents  0.0646
_diffrn_reflns_av_unetI/netI     0.0854
_diffrn_reflns_Laue_measured_fraction_full 0.254
_diffrn_reflns_Laue_measured_fraction_max 0.254
_diffrn_reflns_limit_h_max       6
_diffrn_reflns_limit_h_min       -7
_diffrn_reflns_limit_k_max       8
_diffrn_reflns_limit_k_min       -8
_diffrn_reflns_limit_l_max       4
_diffrn_reflns_limit_l_min       -4
_diffrn_reflns_number            2035
_diffrn_reflns_point_group_measured_fraction_full 0.254
_diffrn_reflns_point_group_measured_fraction_max 0.254
_diffrn_reflns_theta_full        25.968
_diffrn_reflns_theta_max         25.968
_diffrn_reflns_theta_min         4.903
_exptl_absorpt_coefficient_mu    0.981
_exptl_absorpt_correction_T_max  0.909
_exptl_absorpt_correction_T_min  0.892
_exptl_absorpt_correction_type   multi-scan
_exptl_absorpt_process_details
;
Data were collected and reduced by program CrysAlisPro, 
and SCALE3 ABSPACK was used for absorption correction
;
_exptl_crystal_colour            orange/yellow
_exptl_crystal_density_diffrn    1.312
_exptl_crystal_description       plate
_exptl_crystal_F_000             183
_exptl_crystal_size_max          0.3
_exptl_crystal_size_mid          0.1
_exptl_crystal_size_min          0.1
_refine_diff_density_max         1.241
_refine_diff_density_min         -0.586
_refine_diff_density_rms         0.213
_refine_ls_abs_structure_details
;
 Refined as a perfect inversion twin.
;
_refine_ls_abs_structure_Flack   0.5
_refine_ls_extinction_method     none
_refine_ls_goodness_of_fit_ref   2.044
_refine_ls_hydrogen_treatment    constr
_refine_ls_matrix_type           full
_refine_ls_number_parameters     71
_refine_ls_number_reflns         833
_refine_ls_number_restraints     38
_refine_ls_restrained_S_all      2.631
_refine_ls_R_factor_all          0.3178
_refine_ls_R_factor_gt           0.2571
_refine_ls_shift/su_max          0.000
_refine_ls_shift/su_mean         0.000
_refine_ls_structure_factor_coef Fsqd
_refine_ls_weighting_details
'w=1/[\s^2^(Fo^2^)+(0.2000P)^2^] where P=(Fo^2^+2Fc^2^)/3'
_refine_ls_weighting_scheme      calc
_refine_ls_wR_factor_gt          0.5378
_refine_ls_wR_factor_ref         0.5806
_reflns_Friedel_coverage         1.000
_reflns_Friedel_fraction_full    0.254
_reflns_Friedel_fraction_max     0.254
_reflns_number_gt                474
_reflns_number_total             833
_reflns_threshold_expression     'I > 2\s(I)'
_cod_data_source_file            jz6b02458_si_004.cif
_cod_data_source_block           065GPa_P1_oil
_cod_database_code               8000375
_shelx_space_group_comment
;
The symmetry employed for this shelxl refinement is uniquely defined
by the following loop, which should always be used as a source of
symmetry information in preference to the above space-group names.
They are only intended as comments.
;
_olex2_refinement_description
;
1. Fixed Uiso
 At 1.2 times of:
  All C(H) groups, All C(H,H) groups
 At 1.5 times of:
  All O(H,H) groups
2. Restrained distances
 O2-C7
 1.23 with sigma of 0.001
 C7-O1
 1.23 with sigma of 0.001
 O3-C8
 1.23 with sigma of 0.001
 C8-O4
 1.23 with sigma of 0.001
 C7-C1
 1.48 with sigma of 0.001
 C4-C8
 1.48 with sigma of 0.001
 C1-C6
 1.38 with sigma of 0.001
 C6-C5
 1.38 with sigma of 0.001
 C5-C4
 1.38 with sigma of 0.001
 C4-C3
 1.38 with sigma of 0.001
 C3-C2
 1.38 with sigma of 0.001
 C2-C1
 1.38 with sigma of 0.001
 N1-C9
 1.48 with sigma of 0.001
 N1-C13
 1.48 with sigma of 0.001
 N1-C11
 1.48 with sigma of 0.001
 C12-N2
 1.48 with sigma of 0.001
 N2-C10
 1.48 with sigma of 0.001
 N2-C14
 1.48 with sigma of 0.001
 C12-C11
 1.52 with sigma of 0.001
 C10-C9
 1.52 with sigma of 0.001
 C14-C13
 1.52 with sigma of 0.001
 O2-Co1 \\sim Co1-O1
 with sigma of 0.02
 O4-C4 \\sim C4-O3
 with sigma of 0.02
 O2-C1 \\sim C1-O1
 with sigma of 0.02
 C2-C7 \\sim C7-C6
 with sigma of 0.02
 C10-C14 \\sim C14-C12
 with sigma of 0.02
3. Restrained planarity
 O2, O1, O4, C8, O3, C7, C6, C1, C2, C3, C4, C5
 with sigma of 0.1
4. Uiso/Uaniso restraints and constraints
Uiso(C6) = Uiso(C1) = Uiso(C2) = Uiso(C3) = Uiso(C4) = Uiso(C5) = Uiso(C7) =
Uiso(C8)
5.a Rotating group:
 O1W(H1WA,H1WB)
5.b Secondary CH2 refined with riding coordinates:
 C11(H11A,H11B), C9(H9A,H9B), C12(H12A,H12B), C10(H10A,H10B), C14(H14A,H14B),
 C13(H13A,H13B)
5.c Aromatic/amide H refined with riding coordinates:
 C6(H6), C2(H2), C3(H3), C5(H5)
5.d Fitted hexagon refined as free rotating group:
 C6(C1,C2,C3,C4,C5)
;
_shelx_hkl_file
;
  -7   1  -1    7.45    8.79
  -7   2  -2    1.88    6.72
  -7   2  -1   15.18   10.63
  -7   2  -1    4.53    3.60
  -7   2  -1   11.91    6.51
  -6  -4   0    3.23    8.04
  -6  -3  -3    0.91    5.12
  -6  -3  -3    9.00    9.90
  -6  -3  -2    1.05    6.91
  -6  -3  -2   28.51   15.73
  -6  -3  -1   11.73   12.08
  -6  -3  -1    9.61   11.25
  -6  -3   0   16.89   10.75
  -6  -3   0   16.58   14.10
  -6  -2  -4   -3.12    3.45
  -6  -2  -3    7.15    5.58
  -6  -2  -3   -2.63    5.49
  -6  -2  -2    5.18    8.83
  -6  -2  -2    9.14    8.60
  -6  -2  -1   31.15   16.47
  -6  -2  -1   14.51   14.12
  -6  -2   0   13.46    7.92
  -6  -2   0    2.56    9.22
  -6  -1  -4    3.20    4.26
  -6  -1  -3    5.47    7.73
  -6  -1  -2   11.37    7.59
  -6  -1  -2    8.57    6.87
  -6  -1  -1   14.78    8.88
  -6  -1  -1    7.97    3.89
  -6  -1   0   19.17    9.79
  -6  -1   0   15.80   12.29
  -6   0  -4    5.73    7.29
  -6   0  -3    6.16    7.76
  -6   0  -2   13.64    9.95
  -6   0  -1   41.32   15.46
  -6   0   0   18.35   13.69
  -6   1  -4    6.89    3.64
  -6   1  -4    2.23   12.57
  -6   1  -3    3.11    4.36
  -6   1  -3   26.41   12.63
  -6   1  -3   31.80   11.33
  -6   1  -2   36.89   12.34
  -6   1  -2   12.11    6.73
  -6   1  -2   31.94   13.26
  -6   1  -1   38.71   14.05
  -6   1  -1   61.51   15.24
  -6   1  -1   35.85   11.23
  -6   1   0   26.24   10.34
  -6   1   0   28.09   12.87
  -6   2  -4    9.92    8.64
  -6   2  -4    4.53    4.96
  -6   2  -4    3.35   12.53
  -6   2  -3   27.93   10.47
  -6   2  -3   16.52    9.90
  -6   2  -3    6.68    5.94
  -6   2  -2   32.35   11.51
  -6   2  -2   34.56   12.82
  -6   2  -2   15.39    8.11
  -6   2  -1   22.80   11.19
  -6   2  -1   30.39   11.88
  -6   2  -1   18.66    8.70
  -6   2   0   13.78    8.64
  -6   2   0   18.35    9.04
  -6   2   0   28.41   12.14
  -6   3  -4   19.14   13.93
  -6   3  -4   28.07   13.60
  -6   3  -3   33.05   13.69
  -6   3  -3   29.28   11.98
  -6   3  -2   43.32   14.85
  -6   3  -2   40.92   13.32
  -6   3  -1   35.28   14.11
  -6   3  -1   60.36   17.27
  -6   3  -1   42.94   13.36
  -6   3   0   23.64    9.13
  -6   3   0   31.21   12.41
  -6   3   0   29.64   11.54
  -6   4  -3    8.39   12.03
  -6   4  -3   15.53   10.77
  -6   4  -2   10.25    9.09
  -6   4  -2   37.34   13.90
  -6   4  -1   26.12   12.36
  -6   4  -1    7.60    4.51
  -6   4   0   17.75    7.79
  -5  -5  -3    2.15    7.93
  -5  -5  -3   -0.18    8.08
  -5  -5  -2   12.89   11.56
  -5  -5  -2   -2.81    6.41
  -5  -5  -1    8.49   10.07
  -5  -5  -1    2.89    3.59
  -5  -5   0   10.88   12.10
  -5  -5   0   15.29   10.90
  -5  -5   0    1.02    8.31
  -5  -5   1   -1.52    5.83
  -5  -5   1   -1.21    7.82
  -5  -4  -3   -1.76    8.53
  -5  -4  -2    7.87   10.30
  -5  -4  -1    6.48   11.85
  -5  -4  -1    9.46    6.40
  -5  -4   0    4.41    9.87
  -5  -4   0    4.60    4.86
  -5  -4   1    1.04    3.10
  -5  -3  -3   13.18   11.04
  -5  -3  -3   16.77   12.27
  -5  -3  -2   22.60   17.11
  -5  -3  -2   53.19   17.25
  -5  -3  -1    9.64    9.75
  -5  -3  -1   11.02    7.96
  -5  -3   0   13.30   10.57
  -5  -3   0    9.36    8.63
  -5  -3   1   11.88    9.54
  -5  -3   1    0.90    4.45
  -5  -2  -4    2.26    3.65
  -5  -2  -3    5.87    7.00
  -5  -2  -3   12.64    8.40
  -5  -2  -2   14.20    9.97
  -5  -2  -2   38.62   11.85
  -5  -2  -1   -1.23    3.89
  -5  -2  -1   -5.36    6.07
  -5  -2   0    0.15    5.62
  -5  -2   0    4.96    6.69
  -5  -1  -4   -5.35    4.62
  -5  -1  -3    3.74    5.26
  -5  -1  -3    7.07    4.20
  -5  -1  -2   54.19   16.45
  -5  -1  -2   48.08   15.34
  -5  -1  -1    2.46    2.32
  -5  -1  -1   12.07    8.38
  -5  -1   0    4.04    2.72
  -5  -1   0    0.76    3.01
  -5  -1   1    3.41    4.98
  -5  -1   1    0.13    4.35
  -5   0  -4   27.03   11.12
  -5   0  -3  104.85   20.99
  -5   0  -3   63.10   16.07
  -5   0  -2  281.77   28.09
  -5   0  -2  257.21   29.91
  -5   0  -1   20.38    8.84
  -5   0  -1   18.70    8.11
  -5   0  -1   14.13    6.23
  -5   0  -1   15.74    7.12
  -5   0   0   59.96   14.51
  -5   0   0   45.90   13.67
  -5   0   0   45.41   11.73
  -5   0   0   38.42   12.43
  -5   0   1   44.72   12.77
  -5   0   1   28.35   10.59
  -5   0   1   36.32   12.17
  -5   1  -4   -3.92    6.25
  -5   1  -4    3.72    6.08
  -5   1  -4    1.26    3.06
  -5   1  -3   20.37   10.21
  -5   1  -3    7.49    5.23
  -5   1  -3   12.64    7.76
  -5   1  -2   75.17   16.02
  -5   1  -2   87.26   15.73
  -5   1  -2   71.58   14.93
  -5   1  -1   -6.93    7.30
  -5   1  -1    7.69    6.78
  -5   1  -1    3.55    6.66
  -5   1   0   19.47    8.60
  -5   1   0   22.70    9.49
  -5   1   0   15.56    7.56
  -5   1   1   24.20   11.13
  -5   1   1   15.65    8.49
  -5   2  -4    1.75    2.53
  -5   2  -4    8.75    9.75
  -5   2  -4    8.12    6.23
  -5   2  -3   10.72    7.00
  -5   2  -3    8.36    4.61
  -5   2  -3   19.14    9.53
  -5   2  -2   98.55   18.59
  -5   2  -2   83.32   16.70
  -5   2  -2  109.25   19.34
  -5   2  -1    4.97    7.10
  -5   2  -1   -1.59    3.69
  -5   2  -1   -4.23    4.39
  -5   2   0   10.31    6.91
  -5   2   0   16.92    7.09
  -5   2   0    9.71    6.24
  -5   3  -4   21.09    7.44
  -5   3  -4   14.48    6.48
  -5   3  -3   24.50   10.27
  -5   3  -3   34.33   11.75
  -5   3  -2  103.88   19.88
  -5   3  -2   80.50   18.37
  -5   3  -2  104.00   19.05
  -5   3  -1   -3.06    6.28
  -5   3  -1   -8.99    7.94
  -5   3  -1    3.48    4.10
  -5   3   0    5.84    4.02
  -5   3   0   14.18    6.92
  -5   4  -4   -4.20    8.84
  -5   4  -4   17.44   10.91
  -5   4  -3    3.06    4.25
  -5   4  -3   -8.35    9.17
  -5   4  -2    8.20    3.18
  -5   4  -2   15.33    9.23
  -5   4  -1   -6.91    5.37
  -5   4  -1   -7.33    8.08
  -5   4   0    9.94    5.98
  -5   4   0    3.48    2.75
  -5   5  -4   11.26   20.58
  -5   5  -4   -3.13    8.44
  -5   5  -3   13.09    6.05
  -5   5  -3    3.32    5.33
  -5   5  -2   27.08   11.35
  -5   5  -2   16.47    8.87
  -5   5  -2   -2.07    5.60
  -5   5  -1    0.75    3.24
  -5   5  -1    0.75    5.79
  -5   5  -1   -1.87    3.75
  -5   5   0   -6.44    7.79
  -5   5   0    2.44    4.83
  -5   6  -3    2.29    4.89
  -5   6  -3   22.39   15.27
  -5   6  -3   -5.80   11.35
  -5   6  -2   -0.67    3.86
  -5   6  -2   -6.26    8.40
  -5   6  -1   -2.87    4.40
  -5   6  -1   -0.99    4.40
  -5   6  -1  -11.81   11.01
  -5   6   0   11.36    7.24
  -4  -6  -3   -6.37    8.58
  -4  -6  -2   15.00   11.05
  -4  -6  -2    2.66    4.86
  -4  -6  -2    5.49    6.60
  -4  -6  -1   14.74    8.71
  -4  -6  -1   15.03   10.50
  -4  -6  -1   -5.83   12.19
  -4  -6   0    1.09    7.80
  -4  -6   0   14.69   10.84
  -4  -6   0    8.80    5.01
  -4  -6   1   -2.20    8.63
  -4  -6   1    7.59    7.80
  -4  -6   1    2.60    5.06
  -4  -5  -3    3.96    8.12
  -4  -5  -3   -7.21    6.72
  -4  -5  -3    7.89    7.47
  -4  -5  -2   20.69   13.25
  -4  -5  -2   31.12   14.33
  -4  -5  -2   21.81   11.87
  -4  -5  -1   -8.20   10.97
  -4  -5  -1   11.26    9.66
  -4  -5  -1    8.05    8.44
  -4  -5   0    3.87    5.67
  -4  -5   0   -1.30    4.93
  -4  -5   0    0.00    4.20
  -4  -5   1    8.74    6.34
  -4  -5   1   -4.25    6.50
  -4  -5   1   -2.64    2.96
  -4  -4  -3    7.37    7.49
  -4  -4  -3   -0.10    3.99
  -4  -4  -3    3.59    4.03
  -4  -4  -2   14.91    9.39
  -4  -4  -2   18.69   10.78
  -4  -4  -2   19.17   10.04
  -4  -4  -1    3.46    7.05
  -4  -4  -1    7.88    7.59
  -4  -4  -1   -0.74    2.38
  -4  -4   0   16.75    8.62
  -4  -4   0   10.79    6.10
  -4  -4   0   15.20    6.15
  -4  -4   1   16.05    8.43
  -4  -4   1   14.38    6.84
  -4  -4   1    4.00    6.34
  -4  -3  -3   12.46    9.15
  -4  -3  -3    5.93    5.75
  -4  -3  -2  113.41   21.47
  -4  -3  -1   -0.49    2.85
  -4  -3  -1    5.12    4.64
  -4  -3  -1    4.61    6.38
  -4  -3  -1    7.73    6.79
  -4  -3   0   13.72   10.46
  -4  -3   0   22.40    9.71
  -4  -3   0   40.58   12.69
  -4  -3   0   32.91   10.68
  -4  -3   1   17.18    8.55
  -4  -3   1   13.58   10.11
  -4  -3   1   22.13    8.81
  -4  -3   1   28.88    9.99
  -4  -2  -3   24.01    9.51
  -4  -2  -3   11.16    8.00
  -4  -2  -2   48.70   14.61
  -4  -2  -2   46.92   13.68
  -4  -2  -1   -0.03    4.25
  -4  -2  -1    0.83    3.69
  -4  -2  -1    0.94    2.11
  -4  -2   0    8.58    5.94
  -4  -2   0    6.62    5.76
  -4  -2   0    8.95    6.01
  -4  -2   1   11.02    7.79
  -4  -2   1    7.99    6.69
  -4  -2   1    8.94    4.09
  -4  -1  -4   -0.61    4.52
  -4  -1  -3    2.16    4.11
  -4  -1  -3    6.80    6.98
  -4  -1  -2   54.14   12.42
  -4  -1  -2   55.72   12.81
  -4  -1  -1    3.57    4.69
  -4  -1   0   44.57   11.17
  -4  -1   0   36.74    9.70
  -4  -1   1   31.86    9.89
  -4  -1   1   39.16   10.98
  -4  -1   1   40.86    9.37
  -4   0  -4   16.93    6.17
  -4   0  -4   19.92    7.61
  -4   0  -3  228.19   21.95
  -4   0  -3  229.74   24.66
  -4   0  -3  215.44   22.59
  -4   0  -2  260.96   23.80
  -4   0  -2  242.52   24.21
  -4   0  -2  252.44   22.92
  -4   0  -2  270.29   25.37
  -4   0  -1   69.75   13.16
  -4   0  -1   79.06   13.59
  -4   0  -1   65.53   11.62
  -4   0  -1   72.83   12.01
  -4   0   0   99.75   14.51
  -4   0   0  119.24   15.31
  -4   0   0  120.10   15.90
  -4   0   0  107.44   16.27
  -4   0   1  142.48   17.32
  -4   0   1  145.15   18.95
  -4   0   1  151.48   18.30
  -4   1  -4    2.09    2.84
  -4   1  -4    2.72    1.36
  -4   1  -3   11.22    5.57
  -4   1  -3   14.62    6.54
  -4   1  -3    5.70    5.10
  -4   1  -2   53.75   11.42
  -4   1  -2   66.91   12.09
  -4   1  -2   56.49   11.36
  -4   1  -1   10.38    5.20
  -4   1  -1    7.95    3.78
  -4   1  -1    6.26    3.68
  -4   1   0   59.27   11.85
  -4   1   0   58.30   11.83
  -4   1   0   64.91   12.23
  -4   1   1   51.43   10.58
  -4   1   1   46.93    9.84
  -4   1   1   51.57    9.61
  -4   2  -4    2.38    5.04
  -4   2  -4   -0.89    6.08
  -4   2  -3   71.25   13.94
  -4   2  -3   65.52   13.37
  -4   2  -3   46.83   11.93
  -4   2  -2   30.12   10.05
  -4   2  -2   36.61   10.23
  -4   2  -2   37.25    8.90
  -4   2  -1    9.43    4.54
  -4   2  -1   23.03    9.27
  -4   2  -1   16.37    6.25
  -4   2   0   25.52    9.51
  -4   2   0   21.42   11.04
  -4   2   0   12.88    7.39
  -4   2   1   36.97    9.30
  -4   2   1   31.03    8.70
  -4   2   1   43.41   10.50
  -4   3  -4   39.76   10.62
  -4   3  -4   29.46   12.03
  -4   3  -3   61.78   14.29
  -4   3  -3   75.24   15.79
  -4   3  -3   66.16   14.85
  -4   3  -2  109.22   16.09
  -4   3  -2   89.38   16.87
  -4   3  -2   81.60   15.79
  -4   3  -2   86.04   15.35
  -4   3  -1   35.08   10.20
  -4   3  -1   45.28   11.95
  -4   3  -1   45.15   13.32
  -4   3  -1   48.40   11.70
  -4   3   0   83.64   15.89
  -4   3   0   64.55   13.11
  -4   3   0   93.94   15.51
  -4   3   1   78.38   13.73
  -4   3   1   51.06   12.31
  -4   3   1   74.19   14.33
  -4   4  -4   -3.91    8.42
  -4   4  -4  -12.84   16.34
  -4   4  -4   -5.97   12.55
  -4   4  -3   23.11    9.02
  -4   4  -3   26.99   11.97
  -4   4  -3   34.12   11.98
  -4   4  -2   12.28    6.39
  -4   4  -2   14.01    8.28
  -4   4  -2   14.26    7.98
  -4   4  -1   28.87   11.65
  -4   4  -1   25.65    9.52
  -4   4  -1   17.71    5.83
  -4   4   0   43.39   13.18
  -4   4   0   26.64   11.54
  -4   4   0   21.37    8.22
  -4   4   1   51.49   12.56
  -4   5  -4    1.84    9.57
  -4   5  -4    4.64    7.31
  -4   5  -4    4.61    6.73
  -4   5  -3   11.70    6.55
  -4   5  -3   29.07   11.44
  -4   5  -3   24.39   11.23
  -4   5  -2   16.90    6.75
  -4   5  -2   25.28   11.31
  -4   5  -2   23.32    9.30
  -4   5  -1    5.91    6.29
  -4   5  -1    6.41    5.10
  -4   5  -1    8.58    5.76
  -4   5   0   14.69    7.30
  -4   5   0   -0.11    4.01
  -4   5   0    9.60    7.30
  -4   6  -4   -2.79    7.35
  -4   6  -4   11.04   13.84
  -4   6  -3   15.10   12.73
  -4   6  -3   -0.83    4.02
  -4   6  -3   23.86   12.23
  -4   6  -2    4.98    7.55
  -4   6  -2    5.65    6.81
  -4   6  -2   -0.07    3.92
  -4   6  -1   12.08   11.28
  -4   6  -1    9.75   11.73
  -4   6  -1   32.02   11.88
  -4   6   0   19.18    9.32
  -4   6   0   23.02   11.61
  -4   6   0   -6.69    7.54
  -4   7  -2  -30.87   22.19
  -4   7  -1   -8.38    3.61
  -4   7   0   -6.14    5.14
  -3  -7  -2  -11.07   10.91
  -3  -7  -2   -5.22   10.14
  -3  -7  -1   -2.86    7.07
  -3  -7  -1   -1.69    3.92
  -3  -7   0    3.98    8.79
  -3  -7   0   56.55   18.44
  -3  -7   1    3.76    7.17
  -3  -7   1    4.97    6.09
  -3  -7   2   -2.39    7.26
  -3  -6  -3   -9.55    7.86
  -3  -6  -3   -9.68    7.88
  -3  -6  -2   -1.52    6.94
  -3  -6  -2   -9.97   12.25
  -3  -6  -1   32.40   12.97
  -3  -6  -1   12.24    7.77
  -3  -6   0    9.86    7.00
  -3  -6   0   -7.26    9.30
  -3  -6   1    0.60    6.40
  -3  -6   1    2.93    4.27
  -3  -6   2    5.92    3.99
  -3  -6   2   14.33   10.30
  -3  -5  -3    9.15    6.69
  -3  -5  -3    4.95    5.14
  -3  -5  -3    9.03    5.63
  -3  -5  -2    9.82    8.41
  -3  -5  -2    2.91    2.94
  -3  -5  -1   13.47    8.74
  -3  -5  -1   14.21    7.23
  -3  -5  -1    2.75    3.22
  -3  -5   0    7.93    4.12
  -3  -5   0   12.97    7.65
  -3  -5   0   20.97    7.93
  -3  -5   1    8.73    3.86
  -3  -5   1    9.92    5.15
  -3  -5   2   -1.59    3.17
  -3  -5   2    4.53    4.12
  -3  -4  -3   28.13   10.67
  -3  -4  -3   12.34    6.54
  -3  -4  -3   27.03   11.66
  -3  -4  -2   25.42   11.01
  -3  -4  -2   31.35    9.76
  -3  -4  -2   30.55   12.36
  -3  -4  -1   63.45   16.36
  -3  -4  -1   85.33   19.26
  -3  -4  -1   82.23   15.27
  -3  -4   0   65.68   15.88
  -3  -4   0   90.98   16.13
  -3  -4   0   66.70   15.21
  -3  -4   1   79.19   17.16
  -3  -4   1   92.30   20.62
  -3  -4   1   88.22   15.47
  -3  -4   2   37.72   14.17
  -3  -4   2   40.53   11.62
  -3  -3  -3   98.68   19.28
  -3  -3  -3   92.92   15.99
  -3  -3  -2  159.75   25.51
  -3  -3  -2  141.07   19.76
  -3  -3  -2  139.80   23.68
  -3  -3  -2  138.09   20.07
  -3  -3  -1  170.60   23.12
  -3  -3  -1  154.92   19.17
  -3  -3  -1  131.75   16.98
  -3  -3   0  205.53   24.14
  -3  -3   0  181.21   18.51
  -3  -3   0  197.01   25.88
  -3  -3   0  168.00   19.87
  -3  -3   1  203.14   28.13
  -3  -3   1  190.41   19.46
  -3  -3   1  207.10   24.94
  -3  -3   1  189.43   21.73
  -3  -2  -3   38.29   10.07
  -3  -2  -3   57.32   13.19
  -3  -2  -3   24.01    9.96
  -3  -2  -2   47.45   12.55
  -3  -2  -2   53.80   11.69
  -3  -2  -2   51.22   14.15
  -3  -2  -2   53.21   12.28
  -3  -2  -1  161.17   17.69
  -3  -2  -1  157.99   19.78
  -3  -2  -1  150.80   19.47
  -3  -2  -1  165.04   17.73
  -3  -2   0   59.87   12.14
  -3  -2   0   71.65   12.17
  -3  -2   0   66.23   13.40
  -3  -2   0   67.82   11.54
  -3  -2   1   79.64   13.17
  -3  -2   1   85.83   13.03
  -3  -2   1   88.54   14.70
  -3  -1  -3   85.95   12.39
  -3  -1  -3   76.57   13.96
  -3  -1  -3   53.97   10.52
  -3  -1  -2  124.29   15.26
  -3  -1  -2  143.48   15.99
  -3  -1  -2  171.56   14.90
  -3  -1  -2  150.23   16.61
  -3  -1  -2   96.65   12.72
  -3  -1  -2  138.67   19.00
  -3  -1  -1  358.27   21.13
  -3  -1  -1  422.55   22.43
  -3  -1  -1  373.20   24.39
  -3  -1  -1  349.92   24.99
  -3  -1   0  248.01   17.51
  -3  -1   0  226.37   20.36
  -3  -1   0  241.81   20.00
  -3  -1   1  245.12   21.63
  -3  -1   1  271.26   18.98
  -3  -1   1  263.49   22.77
  -3   0  -3  402.16   28.47
  -3   0  -3  372.70   29.39
  -3   0  -2  366.82   26.71
  -3   0  -2  358.73   25.03
  -3   0  -2  365.36   23.29
  -3   0  -2  382.82   26.10
  -3   0  -1  836.03   34.76
  -3   0  -1  859.12   38.89
  -3   0  -1  850.85   34.35
  -3   0  -1  835.05   34.52
  -3   0   0  466.72   25.98
  -3   0   0  496.27   26.42
  -3   0   0  499.46   29.70
  -3   0   0  484.53   26.99
  -3   0   1  513.53   27.11
  -3   0   1  533.88   30.45
  -3   0   1  537.76   30.94
  -3   1  -3  126.18   18.00
  -3   1  -3  104.18   15.46
  -3   1  -3   81.26   13.53
  -3   1  -2  164.56   16.98
  -3   1  -2  154.63   14.14
  -3   1  -2  179.72   16.92
  -3   1  -2  164.90   16.67
  -3   1  -1  378.79   21.59
  -3   1  -1  434.83   26.15
  -3   1  -1  452.50   27.34
  -3   1  -1  452.35   26.83
  -3   1   0  299.61   21.80
  -3   1   0  313.06   22.04
  -3   1   0  324.99   22.78
  -3   1   0  304.88   18.14
  -3   1   1  314.01   21.61
  -3   1   1  297.49   21.64
  -3   1   1  322.69   22.11
  -3   1   1  282.53   20.20
  -3   2  -3   60.30   12.08
  -3   2  -3   54.80   12.41
  -3   2  -3   68.89   14.51
  -3   2  -3   48.36   10.98
  -3   2  -2   69.44   11.35
  -3   2  -2   61.62   11.67
  -3   2  -2   70.81   11.17
  -3   2  -2   68.40   11.99
  -3   2  -1  242.52   20.92
  -3   2  -1  250.61   22.19
  -3   2  -1  234.76   19.99
  -3   2  -1  226.95   19.63
  -3   2   0   81.47   12.17
  -3   2   0  104.56   13.59
  -3   2   0  110.30   14.67
  -3   2   0  112.50   14.41
  -3   2   1   97.72   12.90
  -3   2   1  102.93   13.10
  -3   2   1   96.47   12.82
  -3   3  -4   37.10   20.05
  -3   3  -4   50.22   24.05
  -3   3  -3  126.97   18.24
  -3   3  -3  142.08   20.63
  -3   3  -3  141.17   20.92
  -3   3  -2  155.82   18.28
  -3   3  -2  159.69   19.75
  -3   3  -2  156.96   19.37
  -3   3  -1  264.81   24.01
  -3   3  -1  241.93   23.25
  -3   3  -1  254.79   25.49
  -3   3   0  210.13   21.40
  -3   3   0  257.62   24.97
  -3   3   0  250.34   20.90
  -3   3   0  263.82   24.09
  -3   3   1  214.87   20.22
  -3   3   1  226.14   18.80
  -3   3   1  225.26   21.52
  -3   4  -4    9.49    7.22
  -3   4  -4   47.22   20.45
  -3   4  -3   60.62   15.69
  -3   4  -3   54.57   13.38
  -3   4  -3   36.54   11.65
  -3   4  -2   79.70   14.20
  -3   4  -2   91.28   16.36
  -3   4  -2   48.74   12.79
  -3   4  -1  175.00   21.07
  -3   4  -1  136.55   20.55
  -3   4  -1  186.70   24.06
  -3   4   0  157.96   22.26
  -3   4   0  204.67   24.47
  -3   4   0  215.62   22.49
  -3   4   1  153.52   19.65
  -3   4   1  106.67   16.45
  -3   4   1  158.23   18.34
  -3   5  -4   12.02    9.73
  -3   5  -4  -15.79   12.62
  -3   5  -3   12.88    8.32
  -3   5  -3   17.79    9.69
  -3   5  -3   10.49    5.65
  -3   5  -2   10.35    4.29
  -3   5  -2    6.42    3.69
  -3   5  -2   12.43    5.86
  -3   5  -1   40.09   11.62
  -3   5  -1   40.13   13.51
  -3   5  -1   13.92    7.24
  -3   5   0   30.95   10.63
  -3   5   0   27.20   11.37
  -3   5   0   10.42    6.42
  -3   5   1   27.12    8.52
  -3   5   1    8.49    5.74
  -3   6  -4    3.07    3.81
  -3   6  -4   -0.20    5.53
  -3   6  -3    4.95    4.44
  -3   6  -2   32.05   17.39
  -3   6  -1   24.36    8.02
  -3   6   0    4.59    7.70
  -3   6   1   -3.15    2.60
  -3   7  -4    7.87    7.70
  -3   7  -3  -10.42   10.52
  -3   7  -2   -8.41    8.44
  -3   7  -1   12.13    7.62
  -3   7   0    1.63    4.50
  -2  -8   0   23.67   16.15
  -2  -8   0    3.90    7.63
  -2  -8   1   -0.46    6.07
  -2  -8   2   11.41   10.97
  -2  -7  -2    9.39   10.14
  -2  -7  -2   -0.87   11.57
  -2  -7  -2   -3.18   11.25
  -2  -7  -1  -10.66    9.69
  -2  -7  -1    5.35    6.23
  -2  -7  -1   -4.17    6.52
  -2  -7   0   -0.80    4.18
  -2  -7   0   -5.66    8.31
  -2  -7   0   -8.30    9.54
  -2  -7   1   -0.32    4.98
  -2  -7   1   -0.29    4.92
  -2  -7   1   10.68    8.52
  -2  -7   2    7.54    6.42
  -2  -7   2    9.92    8.36
  -2  -7   2    9.27    9.43
  -2  -6  -2   -4.16    5.94
  -2  -6  -2    8.58    6.88
  -2  -6  -2   -4.61    6.36
  -2  -6  -1    3.77    9.18
  -2  -6  -1   -2.06    5.37
  -2  -6  -1   15.61    9.78
  -2  -6   0    7.33    5.00
  -2  -6   0   -1.18    6.04
  -2  -6   0    7.94    4.23
  -2  -6   1    9.52    5.46
  -2  -6   1   42.45   20.97
  -2  -6   2   14.72    9.22
  -2  -6   2   16.96    9.65
  -2  -6   2   39.84   14.87
  -2  -5  -3   -2.47    6.02
  -2  -5  -2    1.60    2.35
  -2  -5  -2   -1.47    6.00
  -2  -5  -2    0.18    4.18
  -2  -5  -2   -5.07    6.03
  -2  -5  -1    4.83    6.11
  -2  -5  -1    4.78    5.84
  -2  -5  -1    1.45    4.72
  -2  -5  -1    5.33    6.81
  -2  -5   0    6.39    3.24
  -2  -5   0    6.74    5.27
  -2  -5   0    3.73    5.96
  -2  -5   0    5.95    4.73
  -2  -5   1   -4.98    6.10
  -2  -5   1    3.43    4.10
  -2  -5   1    2.69    3.53
  -2  -5   1    3.89    1.91
  -2  -5   2   10.63    5.55
  -2  -5   2    5.25    4.53
  -2  -5   2   -0.48    4.93
  -2  -4  -3    3.60    4.05
  -2  -4  -3    3.85    3.15
  -2  -4  -2   11.25    5.16
  -2  -4  -2   46.84   12.66
  -2  -4  -2   56.28   12.78
  -2  -4  -2   19.93    7.20
  -2  -4  -1   26.16    9.18
  -2  -4  -1   20.11    9.72
  -2  -4  -1   27.95    9.87
  -2  -4  -1   20.84    9.53
  -2  -4   0   81.94   14.74
  -2  -4   0  114.92   19.55
  -2  -4   0  136.06   16.53
  -2  -4   1   61.38   14.32
  -2  -4   1   36.24    9.54
  -2  -4   1   70.96   12.38
  -2  -4   2  166.54   20.23
  -2  -4   2  155.84   23.65
  -2  -3  -3   24.06    8.05
  -2  -3  -2   16.58    6.04
  -2  -3  -2   63.47   12.39
  -2  -3  -2   38.76   10.70
  -2  -3  -2   45.44   10.73
  -2  -3  -1   31.70    7.68
  -2  -3  -1   23.32    8.15
  -2  -3  -1   40.47    9.36
  -2  -3  -1   33.84    9.83
  -2  -3  -1   21.11    6.10
  -2  -3   0   66.83   12.60
  -2  -3   0   72.27   11.15
  -2  -3   0   83.80   14.43
  -2  -3   0   66.90    9.46
  -2  -3   0   63.93   10.86
  -2  -3   1  128.28   20.09
  -2  -3   1  121.98   12.23
  -2  -3   1  123.95   14.97
  -2  -3   1  122.46   17.19
  -2  -2  -2   14.05    4.24
  -2  -2  -2   16.38    7.15
  -2  -2  -2   27.02    6.39
  -2  -2  -2   10.72    1.56
  -2  -2  -2   24.95    8.33
  -2  -2  -1   11.10    4.64
  -2  -2  -1    9.21    3.32
  -2  -2  -1   23.90    5.71
  -2  -2  -1   11.31    4.20
  -2  -2  -1   13.00    5.59
  -2  -2   0  184.61   19.17
  -2  -2   0  175.57   17.06
  -2  -2   0  156.74   13.10
  -2  -2   0  145.31   14.76
  -2  -2   1   19.80    6.32
  -2  -2   1   21.49    7.35
  -2  -2   1   22.32    4.77
  -2  -2   1   24.14    6.15
  -2  -1  -2   64.26   11.03
  -2  -1  -2   47.01    8.20
  -2  -1  -1  138.86   13.58
  -2  -1  -1  127.97   12.43
  -2  -1  -1  116.41   11.55
  -2  -1  -1  126.47   13.12
  -2  -1   0  185.99   16.62
  -2  -1   0  207.89   15.20
  -2  -1   0  215.22   15.62
  -2  -1   0  216.83   16.11
  -2  -1   1  385.54   22.00
  -2  -1   1  375.65   23.17
  -2   0  -2  135.14   13.56
  -2   0  -2  150.71   14.59
  -2   0  -1    7.28    2.49
  -2   0  -1    7.25    2.46
  -2   0  -1    6.12    2.47
  -2   0  -1    7.96    2.73
  -2   0   0  668.73   24.59
  -2   0   0  663.66   27.49
  -2   0   0  698.59   25.29
  -2   0   0  676.30   24.25
  -2   1  -3    0.10    7.08
  -2   1  -2  106.29   11.82
  -2   1  -2   82.22   10.46
  -2   1  -2  108.06   12.81
  -2   1  -1  142.58   11.93
  -2   1  -1  139.18   11.65
  -2   1  -1  123.13   10.84
  -2   1  -1  140.91   12.42
  -2   1   0  211.46   14.28
  -2   1   0  199.84   14.08
  -2   1   0  206.64   14.66
  -2   1   1  287.93   18.37
  -2   2  -3   13.25    7.11
  -2   2  -3    7.55    5.25
  -2   2  -2   26.77    8.32
  -2   2  -2   35.95    9.38
  -2   2  -1   15.97    4.83
  -2   2  -1   14.48    4.87
  -2   2  -1   17.34    4.85
  -2   2  -1   13.22    4.00
  -2   2   0   35.87    7.69
  -2   2   0   41.94    6.39
  -2   2   0   40.18    7.38
  -2   2   1   47.82    8.18
  -2   2   1   45.94    7.51
  -2   3  -3   48.86   13.76
  -2   3  -3   85.64   17.95
  -2   3  -3   58.97   13.84
  -2   3  -3   53.70   11.10
  -2   3  -2   82.14   12.68
  -2   3  -2   80.57   12.47
  -2   3  -2   74.71   12.94
  -2   3  -1   60.23    9.62
  -2   3  -1   59.35   11.12
  -2   3  -1   68.63   10.99
  -2   3   0   75.86   11.56
  -2   3   0   61.80   11.09
  -2   3   0   78.26   11.02
  -2   3   1  101.65   13.18
  -2   4  -3   44.09   15.89
  -2   4  -3   58.11   12.01
  -2   4  -3   60.02   12.82
  -2   4  -3   33.02   10.53
  -2   4  -2   35.95    8.70
  -2   4  -2   37.32    9.11
  -2   4  -2   27.20    8.10
  -2   4  -2   37.84    8.96
  -2   4  -1   64.52   11.97
  -2   4  -1   65.79   10.75
  -2   4  -1   44.95   10.85
  -2   4  -1   82.67   13.33
  -2   4   0   62.82   11.10
  -2   4   0   44.29   10.20
  -2   4   0   44.96   10.18
  -2   4   0   58.35    9.96
  -2   4   1  109.69   17.27
  -2   4   1  106.19   14.88
  -2   4   1   69.15   11.92
  -2   4   1   98.88   12.53
  -2   5  -4   -3.96    5.13
  -2   5  -3    6.40    3.54
  -2   5  -3    3.57    2.70
  -2   5  -3    5.56    4.17
  -2   5  -2    5.90    5.64
  -2   5  -2    4.30    3.57
  -2   5  -2    3.49    3.62
  -2   5  -2    6.35    5.51
  -2   5  -1   10.50    6.86
  -2   5  -1    1.24    4.20
  -2   5  -1   17.14    7.81
  -2   5   0   10.77    4.28
  -2   5   0    7.79    6.43
  -2   5   0    1.33    4.22
  -2   5   1   13.82    5.82
  -2   5   1   -0.47    1.83
  -2   6  -4   -3.72    5.78
  -2   6  -3    5.19    2.66
  -2   6  -3    1.39    3.21
  -2   6  -2   11.18    8.53
  -2   6  -2    7.89    5.15
  -2   6  -1    8.96    2.82
  -2   6  -1   24.19    7.53
  -2   6   1   23.46   10.86
  -2   6   1   -1.73    2.29
  -2   7  -3  -10.27    8.26
  -2   7  -3    5.07    4.67
  -2   7  -2   -7.36    7.61
  -2   7  -2    1.16    4.70
  -2   7  -1    0.17    4.94
  -2   7  -1    5.80    4.34
  -2   7   0    8.53    8.45
  -2   7   0   -0.95    4.63
  -2   7   1   -1.45    5.40
  -2   8  -3    7.62    9.51
  -2   8  -3    7.70    7.78
  -2   8  -2  -15.99   12.72
  -2   8  -2    6.47    7.21
  -2   8  -1   -2.10    5.44
  -2   8  -1   -8.27   10.41
  -2   8   0  -13.36   11.82
  -2   8   0   -1.63    6.37
  -1  -8  -1   -5.99   10.05
  -1  -8  -1    4.68    6.53
  -1  -8  -1   -3.87    6.41
  -1  -8   0   33.40   23.09
  -1  -8   0    7.95   25.26
  -1  -8   1   -5.67    7.96
  -1  -8   1    0.59    4.66
  -1  -8   2    5.21    7.05
  -1  -7  -2    0.40    3.34
  -1  -7  -2    2.34    3.89
  -1  -7  -2    8.78    8.44
  -1  -7  -1   14.45   10.06
  -1  -7  -1   -1.20    3.56
  -1  -7  -1   13.15    9.30
  -1  -7   0   -2.66    6.57
  -1  -7   0    5.55    4.87
  -1  -7   0    2.81    4.33
  -1  -7   1    9.21    4.83
  -1  -7   1    6.64    7.03
  -1  -7   1   12.14    8.90
  -1  -7   2   -1.20    3.35
  -1  -7   2    3.34    3.71
  -1  -7   2    2.69    5.58
  -1  -6  -2   23.25    7.01
  -1  -6  -2   12.93    8.31
  -1  -6  -2   14.49    8.98
  -1  -6  -1    5.97    5.83
  -1  -6  -1   13.13    6.48
  -1  -6  -1   10.78    8.20
  -1  -6   0    2.13    5.38
  -1  -6   0   10.64    3.02
  -1  -6   0   11.13    7.33
  -1  -6   1   10.27    5.64
  -1  -6   1    4.10    2.98
  -1  -6   2   11.71    5.69
  -1  -6   2   18.68    9.20
  -1  -6   2    5.45    3.50
  -1  -6   3   -7.05    7.74
  -1  -5  -2    2.49    3.39
  -1  -5  -2    9.33    5.86
  -1  -5  -2    0.49    3.22
  -1  -5  -1    0.37    3.48
  -1  -5  -1    7.27    5.64
  -1  -5  -1    3.02    2.62
  -1  -5   0   19.78    8.77
  -1  -5   0   17.34    7.87
  -1  -5   0   16.29    7.76
  -1  -5   1    7.13    2.90
  -1  -5   1    5.34    2.51
  -1  -5   1    2.56    2.02
  -1  -5   2    3.58    3.45
  -1  -5   2    5.78    4.64
  -1  -5   2    8.71    5.60
  -1  -4  -2   29.65    9.37
  -1  -4  -2   56.64   11.83
  -1  -4  -2   33.33    8.90
  -1  -4  -1   35.87    9.29
  -1  -4  -1   21.57    7.51
  -1  -4  -1   34.59   10.24
  -1  -4  -1   29.54    9.03
  -1  -4   0   19.90    6.06
  -1  -4   0   11.24    4.95
  -1  -4   0   14.25    6.76
  -1  -4   0   21.56    7.59
  -1  -4   0   14.05    6.38
  -1  -4   1   45.51   11.01
  -1  -4   1   33.22    9.41
  -1  -4   1   27.57    9.22
  -1  -4   1   30.47    8.61
  -1  -4   1   43.83    8.03
  -1  -4   2   18.84    6.74
  -1  -4   2   25.81    9.61
  -1  -4   2   11.24    6.97
  -1  -4   2   23.47    6.28
  -1  -3  -2  111.00   14.66
  -1  -3  -1  162.92   18.22
  -1  -3  -1  126.97   16.54
  -1  -3   0  247.02   17.51
  -1  -3   1  150.76   18.58
  -1  -3   1  138.68   12.99
  -1  -3   2   40.06   10.05
  -1  -3   2   25.92    8.42
  -1  -3   2   25.24    7.10
  -1  -2  -1  152.15   13.08
  -1  -2  -1  148.87   15.36
  -1  -2  -1  125.71   11.84
  -1  -2   0   48.96    7.09
  -1  -2   1   89.20    9.42
  -1  -2   1   92.31   12.18
  -1   2  -2   85.46   13.20
  -1   2  -2   69.21   11.55
  -1   2  -1  591.25   25.86
  -1   2  -1  526.67   23.40
  -1   2  -1  544.05   26.16
  -1   2   0 1191.01   31.27
  -1   2   0 1225.19   34.17
  -1   2   0 1183.99   34.42
  -1   3  -3    2.87    5.51
  -1   3  -2  213.61   23.40
  -1   3  -2  202.98   19.76
  -1   3  -2  213.53   20.85
  -1   3  -1  160.26   12.99
  -1   3  -1  176.62   15.26
  -1   3  -1  204.71   18.41
  -1   3  -1  185.72   17.68
  -1   3   0 1097.25   40.96
  -1   3   0 1053.09   35.58
  -1   3   0 1053.94   31.74
  -1   3   1  370.53   23.68
  -1   3   1  371.05   25.54
  -1   4  -3   42.52    9.28
  -1   4  -3   46.24   11.31
  -1   4  -2   26.96   11.70
  -1   4  -2   34.11    8.03
  -1   4  -2   29.47    7.60
  -1   4  -2   27.68    8.51
  -1   4  -1   96.27   11.88
  -1   4  -1   79.18   13.53
  -1   4  -1   87.83   14.02
  -1   4   0  439.95   23.83
  -1   4   0  432.48   28.05
  -1   4   0  481.09   27.26
  -1   4   0  423.51   30.83
  -1   4   0  439.41   30.78
  -1   4   1   25.17    4.89
  -1   4   1   23.10    6.34
  -1   4   1   24.54    8.17
  -1   4   1   21.12    6.96
  -1   5  -3    6.52    4.93
  -1   5  -3    5.16    3.45
  -1   5  -2    4.26    2.99
  -1   5  -2   12.99    5.68
  -1   5  -1   35.78   10.54
  -1   5  -1   43.14   10.29
  -1   5   0  231.65   26.67
  -1   5   0  239.27   25.85
  -1   5   1   70.41   12.99
  -1   5   1   61.28   13.79
  -1   5   1   66.08   12.80
  -1   6  -3   10.09    5.61
  -1   6  -3    7.33    2.27
  -1   6  -2    9.80    2.30
  -1   6  -2   20.46    7.65
  -1   6  -1   15.12    6.51
  -1   6  -1    9.66    3.26
  -1   6   0  105.38   20.56
  -1   6   1    2.90    7.10
  -1   6   1    2.78    4.35
  -1   7  -3    3.20    4.55
  -1   7  -3    6.60    4.80
  -1   7  -2    6.51    5.13
  -1   7  -2   10.76    5.43
  -1   7  -1   14.93    9.97
  -1   7  -1   15.52    9.11
  -1   7   0   35.43   13.14
  -1   7   0   28.95   10.64
  -1   7   1    5.57    4.12
  -1   7   1    9.40    5.23
  -1   8  -3    4.18    4.62
  -1   8  -3   -2.56    2.49
  -1   8  -2   -0.90    8.12
  -1   8  -2   -2.93    5.05
  -1   8  -1    9.87    4.33
  -1   8  -1    3.87    6.91
  -1   8   0    1.44    7.39
  -1   8   0   40.24   13.32
  -1   8   1   -6.29    9.16
   0  -8  -1   30.30   11.47
   0  -8   0   50.06   14.21
   0  -8   1   25.61   12.14
   0  -8   2    1.59    3.86
   0  -7  -2   14.41    8.53
   0  -7  -1   55.80   15.28
   0  -7  -1   43.14   15.56
   0  -7   0   93.56   20.01
   0  -7   0   99.76   25.81
   0  -7   1   47.66   13.10
   0  -7   2   19.22    8.80
   0  -7   3    0.91    4.05
   0  -6  -2   39.44   10.84
   0  -6  -2   34.87   10.66
   0  -6  -1  111.54   25.10
   0  -6  -1  102.94   20.82
   0  -6  -1  105.21   19.96
   0  -6  -1  106.25   20.13
   0  -6   0  292.09   39.02
   0  -6   0  269.64   31.00
   0  -6   0  239.39   30.34
   0  -6   0  303.35   34.13
   0  -6   1   73.44   17.92
   0  -6   1   98.96   19.19
   0  -6   1   77.67   15.27
   0  -6   1  111.95   20.16
   0  -6   2   44.25   13.29
   0  -6   2   24.00    8.55
   0  -6   2   26.38    8.89
   0  -6   3   16.09    7.27
   0  -6   3    7.80    5.55
   0  -5  -2   36.74    9.93
   0  -5  -2   38.35   10.11
   0  -5  -1  312.37   35.69
   0  -5  -1  322.68   31.93
   0  -5  -1  301.02   31.07
   0  -5   0  656.42   49.92
   0  -5   0  654.15   43.20
   0  -5   0  629.99   43.29
   0  -5   0  630.90   41.79
   0  -5   1  285.48   29.24
   0  -5   1  296.52   27.86
   0  -5   1  296.67   29.05
   0  -5   1  326.75   30.40
   0  -5   2   43.67   12.25
   0  -5   2   46.24   12.52
   0  -5   3   -3.11    4.82
   0  -5   3    4.46    2.97
   0  -4  -1   73.79   13.26
   0  -4  -1   75.38   13.18
   0  -4  -1   68.67   13.79
   0  -4   0  805.99   46.35
   0  -4   0  864.91   44.15
   0  -4   0  859.14   42.80
   0  -4   0  797.14   39.13
   0  -4   1   58.02   11.04
   0  -4   1   60.27   10.96
   0  -4   1   61.13   11.63
   0  -4   1   60.02   11.45
   0  -4   2   51.77   12.15
   0  -4   2   55.56   11.01
   0  -4   2   61.46   14.74
   0  -4   2   50.00   10.59
   0  -3  -1 1729.99   60.12
   0  -3  -1 1699.88   52.03
   0  -3  -1 1746.28   54.17
   0  -3   0 4018.23   81.50
   0  -3   0 3985.94   79.41
   0  -3   0 3987.91   80.28
   0  -3   1 1983.83   56.71
   0  -3   1 1971.27   57.58
   0  -3   1 1953.59   57.18
   0  -3   1 1983.96   56.07
   0  -3   2  253.73   28.28
   0  -3   2  302.10   23.17
   0  -3   2  272.20   23.02
   0  -2  -1  193.77   16.68
   0  -2  -1  185.39   15.20
   0  -2   0 9930.17   98.51
   0  -2   0 9290.41   94.34
   0  -2   1  155.20   13.96
   0  -2   1  134.14   11.52
   0   2  -1  148.64   12.98
   0   2  -1  143.16   12.21
   0   2  -1  171.67   14.27
   0   2   0 9376.83   94.32
   0   2   1  207.56   14.98
   0   3  -2  294.23   22.83
   0   3  -2  286.91   21.55
   0   3  -2  283.95   21.33
   0   3  -1 1958.66   56.64
   0   3  -1 1979.18   52.53
   0   3  -1 2001.80   53.96
   0   3  -1 1950.46   56.50
   0   3   0 3978.94   78.51
   0   3   0 4015.35   78.00
   0   3   0 3867.80   80.58
   0   3   0 4065.71   70.34
   0   3   1 1727.57   54.20
   0   3   1 1743.43   54.26
   0   3   1 1738.30   52.86
   0   3   1 1753.09   47.19
   0   4  -3   10.46    4.73
   0   4  -3   14.68    5.46
   0   4  -2   55.55   11.19
   0   4  -2   56.53   10.36
   0   4  -2   41.82    9.94
   0   4  -1   59.32   11.22
   0   4  -1   54.71   10.41
   0   4  -1   63.88   11.77
   0   4  -1   69.09   12.55
   0   4   0  804.03   41.33
   0   4   0  772.16   43.30
   0   4   0  812.97   44.40
   0   4   0  750.61   37.48
   0   4   1   84.86   14.42
   0   4   1   66.17   13.67
   0   4   1   79.79   13.28
   0   4   1   65.18   11.69
   0   5  -3    9.66    5.02
   0   5  -3   10.29    5.37
   0   5  -3   10.83    5.22
   0   5  -2   37.53    9.34
   0   5  -2   51.14   12.43
   0   5  -2   47.15   10.99
   0   5  -1  266.73   26.65
   0   5  -1  269.43   29.80
   0   5  -1  304.39   26.41
   0   5  -1  305.85   29.64
   0   5   0  657.49   43.77
   0   5   0  598.88   45.59
   0   5   0  582.73   41.54
   0   5   0  629.49   40.15
   0   5   1  328.53   32.77
   0   5   1  304.52   30.91
   0   5   1  278.96   29.42
   0   5   1  284.97   25.62
   0   5   2   46.19   13.21
   0   5   2   45.61   12.49
   0   6  -3   19.39    7.17
   0   6  -3   20.93    7.35
   0   6  -2   30.47    9.28
   0   6  -2   29.18    8.68
   0   6  -2   41.56   12.01
   0   6  -1   86.74   18.29
   0   6  -1   61.89   13.43
   0   6  -1  103.05   17.55
   0   6  -1   87.73   18.43
   0   6   0  230.15   32.61
   0   6   0  263.01   32.40
   0   6   0  268.22   28.81
   0   6   0  270.00   32.12
   0   6   1   90.88   19.62
   0   6   1   89.91   19.50
   0   6   1  103.05   17.42
   0   6   2   45.89   15.34
   0   6   2   38.96   12.66
   0   7  -3    9.14    7.05
   0   7  -3    9.26    5.73
   0   7  -2    7.25    7.46
   0   7  -2   13.24    7.48
   0   7  -1   29.14   10.84
   0   7   0   82.74   20.02
   0   7   0   75.15   18.46
   0   7   1   58.38   17.55
   0   7   1   67.52   18.58
   0   7   2    8.61    9.01
   0   8  -3   -8.12    9.36
   0   8  -2    0.96    2.62
   0   8  -1   22.62   10.86
   0   8   0   44.26   16.02
   0   8   1   29.03   13.85
   1  -8  -1   -6.09    5.08
   1  -8  -1   -0.71    3.13
   1  -8   0   33.31   14.24
   1  -8   0   33.72   14.14
   1  -8   1    7.29   10.76
   1  -8   1    5.75    7.17
   1  -8   2   -3.12    6.49
   1  -8   2    4.45    7.75
   1  -8   3   -2.08    3.64
   1  -7  -1   14.47    6.82
   1  -7  -1   -5.31    7.90
   1  -7   0   26.88    9.17
   1  -7   0   33.89   11.78
   1  -7   1    2.07    4.64
   1  -7   1   11.73    7.69
   1  -7   2   -0.09    3.00
   1  -7   2   -2.69    4.50
   1  -7   3    3.55    5.30
   1  -7   3   16.88   11.77
   1  -6  -1    0.12    2.78
   1  -6   0  133.29   22.59
   1  -6   1   13.49    7.92
   1  -6   1   12.84    6.91
   1  -6   2   15.23    6.78
   1  -6   2    6.50    3.85
   1  -6   3   -2.20    3.56
   1  -6   3    8.92    6.91
   1  -5  -1   57.58   13.23
   1  -5   0  237.46   26.65
   1  -5   1   35.65    9.17
   1  -5   1   46.65   10.37
   1  -5   2   24.72    9.23
   1  -5   2   12.89    5.05
   1  -5   3    6.35    5.13
   1  -5   3   13.00    8.62
   1  -4  -1   28.27    8.57
   1  -4  -1   28.25    6.82
   1  -4   0  385.19   29.38
   1  -4   0  398.52   27.00
   1  -4   1   80.85   11.35
   1  -4   1   88.75   12.63
   1  -4   1  101.69   14.57
   1  -4   2   39.52   10.20
   1  -4   2   34.22    7.84
   1  -4   2   24.34    6.91
   1  -4   2   39.55   10.69
   1  -3  -1  382.86   24.37
   1  -3   0 1103.56   41.56
   1  -3   0 1057.13   36.76
   1  -3   1  168.37   14.87
   1  -3   1  181.93   16.60
   1  -2   0 1196.21   33.01
   1  -2   0 1219.59   34.07
   1  -2   1  559.77   24.41
   1  -2   2  102.64   14.95
   1  -2   2   75.50   11.00
   1  -1   1  138.96   11.58
   1   2   1  161.35   14.75
   1   3  -2   44.00    9.72
   1   3  -2   14.11    5.12
   1   3  -1  122.43   14.16
   1   3  -1  130.86   16.10
   1   3   0  220.51   21.68
   1   3   0  204.03   17.99
   1   3   1  128.79   16.97
   1   3   2   70.80   10.11
   1   4  -2   23.41    8.33
   1   4  -2   24.21    7.45
   1   4  -2   22.94    7.03
   1   4  -2   15.59    6.25
   1   4  -1   29.43    8.65
   1   4  -1   31.35    8.65
   1   4  -1   27.74    7.84
   1   4  -1   18.57    5.52
   1   4  -1   29.75   10.63
   1   4   0   13.22    5.78
   1   4   0    8.66    2.47
   1   4   0   12.00    6.40
   1   4   0   16.62    6.42
   1   4   0   12.76    5.80
   1   4   1   19.61    6.12
   1   4   1   29.31    9.11
   1   4   1   26.72    8.06
   1   4   1   11.20    3.54
   1   4   1   38.18    8.43
   1   4   2   40.10   11.16
   1   4   2   28.01    7.09
   1   4   2   50.09   10.34
   1   4   2   36.32    9.70
   1   5  -2    4.65    4.01
   1   5  -2    9.90    5.65
   1   5  -2    9.87    5.90
   1   5  -2    3.84    2.94
   1   5  -1    3.48    4.44
   1   5  -1   11.93    7.20
   1   5  -1   10.21    5.28
   1   5   0    5.42    3.07
   1   5   0   19.82    6.37
   1   5   0   19.99    9.19
   1   5   1    7.22    5.17
   1   5   1   15.64    8.41
   1   5   1    3.91    3.15
   1   5   2    2.60    5.37
   1   5   2   -0.31    2.20
   1   5   2    5.53    4.05
   1   6  -3    3.52    3.01
   1   6  -3    2.93    3.42
   1   6  -2   18.06    7.85
   1   6  -2    7.71    7.14
   1   6  -2   17.01    8.45
   1   6  -1   17.21    8.76
   1   6  -1   18.93    8.39
   1   6  -1   11.50    7.73
   1   6   0    8.01    4.60
   1   6   0    8.90    5.10
   1   6   0    2.50    3.20
   1   6   1    0.22    3.42
   1   6   1    7.64    5.86
   1   6   1    7.94    8.00
   1   6   2   21.21   12.02
   1   6   2   19.15   10.11
   1   6   2   13.29    7.42
   1   7  -3   -4.80    7.53
   1   7  -2    5.64    4.84
   1   7  -2    2.10    2.86
   1   7  -1   10.36    9.24
   1   7  -1    5.14    5.11
   1   7  -1    2.39    5.99
   1   7   0   10.74   10.09
   1   7   0    6.03    8.46
   1   7   0   -0.95    3.26
   1   7   1    9.67   10.03
   1   7   1   -0.36    4.14
   1   7   1    8.17    6.18
   1   7   2   16.21   14.34
   1   7   2    9.99    9.83
   1   7   2    3.84    5.77
   1   8  -2   -2.33    3.65
   1   8  -1    1.66    5.80
   1   8  -1    6.31    6.62
   1   8   1   12.87   11.39
   1   8   1    0.95    4.76
   1   8   1    0.69    4.66
   2  -8   0    3.40    3.12
   2  -8   0   -3.96    6.50
   2  -8   1   -8.17   10.06
   2  -8   1   -7.82    7.91
   2  -8   2    5.41    3.36
   2  -7  -1   -4.69    3.72
   2  -7  -1    7.00    6.42
   2  -7   0   -5.92    7.77
   2  -7   0   20.49   11.33
   2  -7   1   -3.28    7.54
   2  -7   1   -4.41    5.89
   2  -7   2   -5.32    7.63
   2  -7   2   -5.58    8.82
   2  -7   3    3.43    4.32
   2  -7   3    1.66    7.06
   2  -6  -1   30.63   10.51
   2  -6   1   11.63    7.01
   2  -6   1   20.79    7.87
   2  -6   2   10.52    4.85
   2  -6   2    5.63    5.23
   2  -6   3   -2.12    4.26
   2  -6   3   -7.64    9.27
   2  -5  -1    8.07    5.86
   2  -5   0    8.03    7.67
   2  -5   1    4.41    3.63
   2  -5   1   10.41    7.30
   2  -5   1    6.95    6.41
   2  -5   1   21.56    9.44
   2  -5   2   -5.58    7.44
   2  -5   2   -2.27    4.11
   2  -5   2    0.49    3.23
   2  -5   2    2.58    4.43
   2  -5   3    1.65    5.45
   2  -5   3   18.71   10.50
   2  -4  -1   98.46   15.13
   2  -4   0   26.32    7.64
   2  -4   0   37.97    9.58
   2  -4   1   40.15    9.82
   2  -4   1   35.63    9.52
   2  -4   1   25.07    8.03
   2  -4   2   14.76    6.02
   2  -4   2   22.20    7.37
   2  -4   2   24.67    8.11
   2  -4   3   13.35    7.61
   2  -4   3   52.82   12.40
   2  -3  -1  124.84   14.92
   2  -3   0   47.73    8.84
   2  -3   0   76.27   11.53
   2  -3   1   33.42    7.15
   2  -3   1   52.14    7.83
   2  -3   1   61.49   10.89
   2  -3   1   55.78   10.83
   2  -3   2   91.95   14.33
   2  -3   3   29.36   10.49
   2  -3   3   59.17   15.13
   2  -2  -1   29.95    7.46
   2  -2   0   29.96    5.73
   2  -2   0   32.04    5.34
   2  -2   0   40.79    7.03
   2  -2   1    6.63    1.85
   2  -2   1    6.57    3.10
   2  -2   1    4.70    2.03
   2  -2   2   20.61    7.91
   2  -2   3    6.75    3.98
   2  -1   0  188.34   14.96
   2  -1   0  192.83   14.99
   2  -1   2  114.54   14.30
   2  -1   2  107.91   10.68
   2   0  -1  119.10   12.22
   2   0   0  713.21   26.91
   2   0   0  693.18   27.86
   2   0   0  699.92   28.69
   2   0   1    2.97    1.82
   2   0   1    1.92    1.01
   2   1  -1  368.52   21.62
   2   1  -1  387.56   24.99
   2   1   0  203.27   15.02
   2   1   0  197.07   16.73
   2   1   0  202.92   14.99
   2   1   0  211.37   17.38
   2   1   1  134.67   13.34
   2   2  -1   24.76    7.01
   2   2  -1   17.56    5.03
   2   2  -1   24.80    6.04
   2   2  -1   25.54    7.96
   2   2   0  151.17   13.33
   2   2   0  153.24   15.26
   2   2   0  148.59   15.16
   2   2   0  164.15   17.76
   2   2   1    3.36    2.50
   2   2   1    5.13    2.27
   2   2   2    9.87    6.75
   2   2   2    9.43    2.78
   2   2   2    2.35    4.00
   2   3  -2  123.56   17.18
   2   3  -2  163.46   20.51
   2   3  -1  107.26   14.54
   2   3  -1  150.63   18.77
   2   3  -1  121.13   17.28
   2   3  -1  128.25   18.58
   2   3   0   55.36   10.80
   2   3   0   53.58    9.93
   2   3   0   79.55   12.00
   2   3   0   78.20   13.97
   2   3   1   26.25    8.60
   2   3   1   12.60    4.19
   2   3   1   19.38    6.61
   2   3   1   23.84    5.15
   2   3   1   24.34    6.13
   2   3   2   41.10   10.12
   2   3   2    6.25    3.89
   2   3   2   18.65    5.35
   2   3   2   29.92    8.23
   2   3   3   21.78    7.39
   2   3   3    8.74    3.83
   2   4  -2  159.66   21.45
   2   4  -1   48.69   10.61
   2   4  -1   85.07   16.13
   2   4  -1   61.24   13.38
   2   4  -1   53.14   11.95
   2   4   0   65.55   13.07
   2   4   0   93.33   14.34
   2   4   0  142.26   17.88
   2   4   0  115.67   17.96
   2   4   1   21.43    7.49
   2   4   1    6.61    2.83
   2   4   1   10.87    5.19
   2   4   1   16.25    5.19
   2   4   2   22.18    7.88
   2   4   2   12.85    5.93
   2   4   2    7.01    4.00
   2   4   2   23.48    7.98
   2   4   3    3.58    3.87
   2   4   3    4.79    4.16
   2   4   3   -2.50    5.18
   2   5  -2   18.55    7.94
   2   5  -2   15.59    7.95
   2   5  -2   29.00   10.10
   2   5  -1   16.19    8.59
   2   5  -1    7.61    4.03
   2   5  -1    0.62    3.38
   2   5  -1   14.42    5.73
   2   5   0    3.35    2.39
   2   5   0    6.86    2.57
   2   5   0    4.79    4.07
   2   5   0    9.59    4.96
   2   5   1    5.05    7.85
   2   5   1    0.29    4.38
   2   5   1   -2.25    4.92
   2   5   1    0.57    4.22
   2   5   2    2.36    4.57
   2   5   2   -6.05    5.06
   2   5   2    0.40    3.95
   2   5   2   -6.80    4.65
   2   5   3    1.82    3.05
   2   5   3    0.97    2.35
   2   6  -2   31.66   13.41
   2   6  -2   24.51   11.32
   2   6  -1  -11.67   11.52
   2   6  -1   19.72   10.21
   2   6  -1    5.82   13.05
   2   6   0   22.27   10.32
   2   6   0   14.69    7.17
   2   6   0   12.00    6.76
   2   6   1    0.62    4.42
   2   6   1    2.06    5.00
   2   6   1    7.51    4.25
   2   6   2    1.35    5.37
   2   6   2   -0.01    4.23
   2   6   2    7.84    7.71
   2   7  -2    3.29    3.80
   2   7  -2    6.01    6.12
   2   7  -1   10.45    6.96
   2   7  -1    2.45    5.22
   2   7  -1    4.76    8.22
   2   7   0   -1.46    3.36
   2   7   0    5.68    8.85
   2   7   0    2.28    4.67
   2   7   1    5.99    5.75
   2   7   1    6.96    7.21
   2   7   1   13.47   11.56
   2   7   2   19.57   12.56
   2   7   2    5.14    5.42
   2   7   2    8.33    8.28
   2   8  -2  -10.40    7.69
   2   8  -2   -2.46    7.08
   2   8  -1    0.06    3.21
   2   8  -1    5.20    7.33
   2   8   0  -23.46   17.24
   2   8   0    0.31    8.33
   2   8   1   -6.51    8.40
   2   8   1    1.55    5.09
   3  -7   0    3.55    5.19
   3  -7   1   -7.24    4.81
   3  -7   2    2.61    9.18
   3  -7   3    1.68   12.62
   3  -6   0   -4.32   12.89
   3  -6   1    5.29    5.12
   3  -6   2   -1.78   15.03
   3  -6   3    2.43    6.08
   3  -5   0    9.00    4.01
   3  -5   0    2.08    5.35
   3  -5   1   -0.21    5.54
   3  -5   1    3.89    8.08
   3  -5   1   13.96    8.79
   3  -5   2   -0.83    3.70
   3  -5   2   -7.66    7.91
   3  -5   2    4.82    5.90
   3  -5   3   -0.82    4.29
   3  -5   3   12.26    9.99
   3  -4   0   25.48    8.77
   3  -4   1   23.78   11.30
   3  -4   1   62.25   10.58
   3  -4   2    1.03    5.81
   3  -4   2   64.05   14.23
   3  -4   3   -1.32    4.83
   3  -4   3   33.13    8.69
   3  -3   1  134.04   17.61
   3  -3   1  261.79   24.62
   3  -3   2  129.17   16.88
   3  -3   2  175.30   22.00
   3  -3   3    7.97    9.24
   3  -3   3  140.37   23.41
   3  -2  -1   73.01   12.50
   3  -2   0   77.30   12.62
   3  -2   0   85.26   11.74
   3  -2   1  175.54   19.30
   3  -2   1  255.63   21.54
   3  -2   2   35.47    9.24
   3  -2   2   68.80   13.03
   3  -2   3   38.15   10.62
   3  -2   3    8.81    9.30
   3  -1   0  283.23   22.65
   3  -1   0  278.01   23.15
   3  -1   2  165.23   16.30
   3  -1   3   84.96   12.69
   3   0  -1  567.84   31.84
   3   0   0  530.36   29.09
   3   0   0  502.11   30.16
   3   0   0  470.79   30.45
   3   0   1  870.90   36.61
   3   0   1  863.58   39.78
   3   0   1  836.31   39.28
   3   0   2  379.83   28.74
   3   0   2  359.62   26.68
   3   0   3  351.05   30.52
   3   1  -1  255.06   21.09
   3   1  -1  218.50   21.95
   3   1  -1  227.84   20.83
   3   1   0  244.03   20.32
   3   1   0  235.07   23.20
   3   1   0  228.84   21.61
   3   1   0  202.35   17.18
   3   1   1  339.37   21.99
   3   1   1  394.46   23.26
   3   1   1  380.44   25.62
   3   1   1  357.35   27.33
   3   1   1  321.36   25.06
   3   1   2  140.21   16.24
   3   1   2  145.20   16.81
   3   2  -1   94.55   13.26
   3   2  -1   99.79   15.70
   3   2  -1   98.76   15.84
   3   2   0   79.58   11.74
   3   2   0   85.92   13.80
   3   2   0  100.74   16.34
   3   2   0   77.97   12.45
   3   2   1  191.54   22.60
   3   2   1  167.56   18.53
   3   2   1  153.76   16.82
   3   2   1  180.40   20.38
   3   2   2   73.27   14.44
   3   2   2   58.06   12.20
   3   2   2   61.71   12.90
   3   2   3   74.61   14.72
   3   2   3   39.15   10.96
   3   3  -1  223.98   25.24
   3   3  -1  206.01   26.41
   3   3  -1  202.54   24.42
   3   3   0  203.97   23.64
   3   3   0  160.99   18.07
   3   3   0  198.45   22.90
   3   3   0  239.70   27.13
   3   3   1  194.55   24.67
   3   3   1  166.23   21.05
   3   3   1  131.98   16.28
   3   3   1  154.08   20.23
   3   3   2  166.97   25.67
   3   3   2  138.75   19.59
   3   3   2  129.19   19.69
   3   3   3   64.88   12.83
   3   3   3   63.92   13.21
   3   4  -2   47.97   11.34
   3   4  -2   47.12   13.00
   3   4  -1   36.85    7.50
   3   4  -1   95.55   17.37
   3   4  -1   98.06   19.21
   3   4  -1   73.42   16.48
   3   4   0   59.74   13.84
   3   4   0   76.10   15.08
   3   4   0   67.43   14.93
   3   4   1   85.77   18.90
   3   4   1   64.26   13.98
   3   4   1   75.06   14.70
   3   4   2   34.55   12.50
   3   4   2   25.57    9.41
   3   4   2   26.29    8.61
   3   4   3   18.12    9.07
   3   4   3   17.16    6.43
   3   4   3    9.12    4.57
   3   5  -2    1.21    4.69
   3   5  -2    3.13    2.22
   3   5  -1   21.99   18.65
   3   5  -1   30.00   10.24
   3   5  -1   33.96   11.23
   3   5   0   20.48    8.36
   3   5   0   14.56    6.90
   3   5   0   24.80    7.76
   3   5   1    8.78    5.08
   3   5   1   11.77    4.84
   3   5   1   14.18    9.23
   3   5   2   16.23    7.90
   3   5   2    6.10    4.18
   3   5   2   15.23    7.61
   3   5   3    9.67    6.19
   3   5   3   11.47    4.77
   3   5   3    4.83    5.25
   3   6  -2   10.55    8.75
   3   6  -2   10.26    6.00
   3   6  -1   27.37   12.28
   3   6  -1   18.44    8.25
   3   6  -1    9.91    4.62
   3   6   0   26.36   12.63
   3   6   0   16.74    8.07
   3   6   0   32.30   11.42
   3   6   1   34.79   12.53
   3   6   1   13.91    8.54
   3   6   1   21.00    9.24
   3   6   2   15.58    9.01
   3   6   2    6.43    5.65
   3   6   2   12.64    7.56
   3   6   3    3.80    5.97
   3   6   3   -6.18    7.74
   3   7  -2    5.49    4.94
   3   7  -2   -2.89    7.69
   3   7  -1    6.33    7.09
   3   7  -1    1.02    4.11
   3   7  -1   12.35   10.30
   3   7   0    4.98    8.51
   3   7   0    2.69    8.88
   3   7   1    5.43    6.91
   3   7   1    2.09    4.63
   3   7   2    4.70    7.23
   3   7   2   -1.29    4.97
   4  -7   0   -4.67   11.20
   4  -6   0   -1.07    6.56
   4  -6   0   -6.63    6.51
   4  -6   1   15.40   23.22
   4  -6   2    0.86    2.76
   4  -6   2   -6.50    8.14
   4  -6   2   -1.60    5.83
   4  -6   3   -6.23   10.98
   4  -6   3    1.56    6.84
   4  -6   3    2.56   10.63
   4  -6   4  -12.46   12.18
   4  -5   0   -1.98    3.72
   4  -5   0    6.00    9.41
   4  -5   1    1.27    3.04
   4  -5   1    0.52    4.51
   4  -5   1    9.70   11.11
   4  -5   2   -4.02    4.34
   4  -5   2  -11.95   12.95
   4  -5   2    4.89    8.95
   4  -5   3   -2.99    6.29
   4  -5   3   -7.77   11.42
   4  -5   3   14.39   12.49
   4  -4   0  -11.73   10.43
   4  -4   1   -3.81    8.28
   4  -4   1   -5.07    7.01
   4  -4   1    5.12    7.60
   4  -4   2   -0.39    4.33
   4  -4   2    3.83    5.84
   4  -4   2    3.56    6.53
   4  -4   3   -8.31    7.76
   4  -4   3   23.99   16.01
   4  -3   0    3.66    5.42
   4  -3   0   28.04    9.79
   4  -3   1    0.16    7.24
   4  -3   1   17.48    5.55
   4  -3   2    0.19    4.32
   4  -3   2   25.51    9.18
   4  -3   3   13.81    8.79
   4  -3   3   46.07   15.07
   4  -3   4   -0.63    7.91
   4  -2   1    8.34    4.19
   4  -2   1   13.72    7.29
   4  -2   1   12.93    6.45
   4  -2   2   16.80    6.28
   4  -2   2   31.43    9.04
   4  -2   2   23.14    9.78
   4  -2   3   43.47   12.23
   4  -1  -1   35.46    9.47
   4  -1   0   63.05   12.27
   4  -1   0   60.69   13.68
   4  -1   1    1.39    2.93
   4  -1   1   -1.95    3.59
   4  -1   2   54.98   12.28
   4  -1   2   45.75   11.83
   4  -1   3    9.14    6.56
   4   0  -1  146.42   19.20
   4   0   0  126.27   17.60
   4   0   0  107.51   16.39
   4   0   1   60.89   13.13
   4   0   1   63.88   12.31
   4   0   1   66.01   13.42
   4   0   1   72.98   14.33
   4   0   2  227.10   25.75
   4   0   2  258.74   25.68
   4   0   2  218.24   24.93
   4   0   2  269.46   25.66
   4   0   3  249.78   30.29
   4   0   3  220.49   26.03
   4   0   4   92.46   20.91
   4   1  -1   32.25    8.99
   4   1  -1   13.10    6.17
   4   1   0   36.98    9.83
   4   1   0   42.52   10.72
   4   1   1    8.20    9.40
   4   1   2   41.90   11.59
   4   1   2   41.88   11.23
   4   1   3   14.67    8.54
   4   1   4    0.38    5.11
   4   2  -1   23.41    8.49
   4   2  -1   12.17    6.46
   4   2  -1    8.37    7.99
   4   2   0   17.22    7.96
   4   2   0    9.40    5.60
   4   2   0    5.94    5.07
   4   2   0    5.76    5.86
   4   2   1    2.34    3.29
   4   2   1    0.97    2.76
   4   2   1    2.08    4.00
   4   2   2   32.56   11.47
   4   2   2   66.84   15.77
   4   2   3   10.37    8.23
   4   2   4   -3.09    4.96
   4   3  -1   26.54   10.37
   4   3  -1   28.66   10.52
   4   3   0   20.90    8.86
   4   3   0   34.90   11.37
   4   3   0   14.94    4.98
   4   3   0   31.89   12.15
   4   3   1    1.66    2.27
   4   3   1    1.92    3.20
   4   3   1    5.54    3.81
   4   3   1    6.05    5.25
   4   3   2  138.00   22.98
   4   3   2  105.49   19.13
   4   3   2   29.69   11.15
   4   3   2   68.47   18.27
   4   3   3   16.75    6.13
   4   3   3   11.46    6.91
   4   4  -1    8.30    4.65
   4   4   0   20.41    9.42
   4   4   0   13.52    8.12
   4   4   0   17.07    9.72
   4   4   1   10.04    7.99
   4   4   1    6.15    9.25
   4   4   1   -1.47    5.32
   4   4   2   20.71    9.90
   4   4   2   10.21    4.38
   4   4   2    7.97    4.16
   4   4   3   13.07    8.50
   4   4   3    0.38    3.81
   4   4   3    3.72    4.39
   4   5  -1    8.11    7.15
   4   5  -1    8.47    6.57
   4   5  -1    5.80    5.02
   4   5   0    7.42    8.41
   4   5   0    2.91    4.42
   4   5   0   -5.69    7.24
   4   5   1    9.93    8.31
   4   5   1   -5.70   10.16
   4   5   1    1.48    6.04
   4   5   2   18.49    9.71
   4   5   2    9.97    5.90
   4   5   2   -0.24    3.40
   4   5   3    6.06    3.85
   4   5   3   -1.22    3.51
   4   5   3    5.23    4.24
   4   6  -1   -4.77    6.39
   4   6   0   -2.52    3.57
   4   6   0    1.37    6.35
   4   6   1   -7.86    6.95
   4   6   1    7.85   11.37
   4   6   1  -19.76   12.50
   4   6   2  -14.84   10.89
   4   6   2   -2.20    7.11
   4   6   2  -12.23    9.15
   4   6   3   -3.61    8.82
   4   6   3    4.80    5.37
   5  -6   0  -10.13   14.46
   5  -6   1   -0.11    8.56
   5  -6   1    7.33    6.96
   5  -6   1  -10.59   12.12
   5  -6   2   -2.40   12.00
   5  -6   2  -14.38   11.55
   5  -5   0    4.70    7.29
   5  -5   0    3.81    8.52
   5  -5   1   -4.04    7.48
   5  -5   1    1.28    6.46
   5  -5   1   -2.74    5.85
   5  -5   2   -3.67   11.58
   5  -5   2   -8.04   11.93
   5  -5   2   10.56   12.84
   5  -5   3   -1.14    7.78
   5  -5   3  -10.95   16.23
   5  -5   3    6.65   10.73
   5  -5   4  -14.60   11.97
   5  -4   0   -5.56   10.12
   5  -4   0   11.66    8.05
   5  -4   1   -0.04    6.72
   5  -4   1  -10.13    8.68
   5  -4   2   -8.53    8.48
   5  -4   2  -15.91   13.16
   5  -4   3    2.93    3.69
   5  -4   3   -0.01    6.86
   5  -4   4    1.12    3.74
   5  -4   4  -11.05   10.87
   5  -3   0   -3.51    7.32
   5  -3   1   -1.03    5.55
   5  -3   1   -2.96    2.71
   5  -3   2   31.91   10.83
   5  -3   2   55.02   13.46
   5  -3   3    0.52    4.70
   5  -3   3    9.47    8.18
   5  -3   3   20.54    7.89
   5  -3   4    1.20    4.60
   5  -3   4   12.86    6.64
   5  -2   0   38.34   11.53
   5  -2   0   22.17    8.59
   5  -2   1   -1.32    4.49
   5  -2   1   -0.87    2.51
   5  -2   1   -0.62    3.37
   5  -2   2   43.00   14.31
   5  -2   2   46.39   12.31
   5  -2   2   62.67   15.54
   5  -2   3    9.05    3.76
   5  -2   3   17.55    7.91
   5  -2   3   11.97    8.96
   5  -2   4    4.78    6.04
   5  -2   4   14.35    9.27
   5  -1   0   10.10    5.02
   5  -1   0    7.46    5.65
   5  -1   1   -0.51    5.06
   5  -1   1   -0.88    5.10
   5  -1   1   -0.64    4.11
   5  -1   2   57.80   15.69
   5  -1   2   78.27   17.22
   5  -1   2   61.18   15.82
   5  -1   3   13.28    8.66
   5  -1   3    7.43    5.63
   5  -1   3    8.69    4.72
   5   0   0   36.86   12.14
   5   0   0   14.74    8.06
   5   0   1   15.31    8.13
   5   0   1   13.04    6.82
   5   0   1   14.61    7.69
   5   0   1    7.08    5.79
   5   0   2  233.55   30.44
   5   0   2  209.47   29.58
   5   0   3   62.94   16.86
   5   0   3   61.59   15.83
   5   1   0    4.59    2.43
   5   1   0   -2.87    8.39
   5   1   1   -1.42    4.73
   5   1   1   10.38    7.81
   5   1   2   47.18   12.39
   5   1   2   51.44   14.44
   5   1   3   -0.96    5.66
   5   1   3    2.78    3.87
   5   1   4    8.64    8.98
   5   2   0    3.43    4.35
   5   2   0    7.03    8.60
   5   2   1    5.80    5.45
   5   2   1    1.09    4.67
   5   2   2   19.28    8.07
   5   2   2   44.56   10.23
   5   2   3   -4.94    5.92
   5   2   3   13.53    9.13
   5   2   4   -9.37    7.30
   5   2   4    6.37   10.16
   5   3  -1    1.72    5.58
   5   3   0   -1.96    5.78
   5   3   0    9.38   10.67
   5   3   1    3.83    5.41
   5   3   1    6.47    5.59
   5   3   2   -3.50    7.00
   5   3   2   22.67   10.80
   5   3   3   -5.34    8.20
   5   3   3    8.03    7.11
   5   3   4    2.58    4.13
   5   4  -1    5.70    4.66
   5   4  -1    5.50    2.90
   5   4   0   -1.47    2.92
   5   4   0    3.73    3.44
   5   4   1   -9.47    9.49
   5   4   1    8.55   11.64
   5   4   2   -0.98    7.48
   5   4   3   -1.92    7.55
   5   5  -1   -3.71    4.40
   5   5   0   10.07   10.77
   5   5   0    5.11    8.34
   5   5   0   -4.52    7.90
   5   5   1   10.70    6.50
   5   5   1    6.10    5.26
   5   5   2   -3.28    4.12
   5   5   2   -7.48    4.93
   6  -4   1    2.56    5.96
   6  -4   1   -6.47    9.02
   6  -4   2   -2.30    3.97
   6  -4   2  -10.42    9.57
   6  -3   1   -0.76    7.14
   6  -3   1  -12.96   10.97
   6  -3   1   -5.28    7.94
   6  -3   2   -1.13    7.18
   6  -3   2    0.92    5.17
   6  -3   2    7.38    7.03
   6  -3   3   -2.99    7.21
   6  -3   3    0.97    5.23
   6  -3   4   -2.75    8.10
   6  -3   4   -2.89    7.09
   6  -2   1   -0.10    3.30
   6  -2   1    6.57    6.34
   6  -2   1    5.81    5.41
   6  -2   2    0.85    6.14
   6  -2   2   12.70    7.58
   6  -2   2    8.88    7.30
   6  -2   3   11.60    9.01
   6  -2   3   11.01    6.69
   6  -2   3    4.63    7.35
   6  -2   4   13.14    8.64
   6  -2   4   -7.72    8.41
   6  -1   0   23.96   12.15
   6  -1   1   38.21   14.18
   6  -1   1   35.47   14.17
   6  -1   1   40.92   17.45
   6  -1   2   19.99   10.75
   6  -1   2   28.33   11.10
   6  -1   2   10.39    8.72
   6  -1   3   20.54   12.76
   6  -1   3   10.79    8.16
   6  -1   3   10.08    8.86
   6  -1   4   28.78   15.64
   6  -1   4   10.95   10.71
   6   0   0   36.25   12.66
   6   0   1   64.96   18.08
   6   0   2   30.91   12.46
   6   0   3   23.62   13.09
   6   0   4   43.49   18.27
   6   1   0   28.97   11.49
   6   1   1   18.44    9.59
   6   1   1   19.22   10.33
   6   1   2   11.43    8.56
   6   1   2    9.48    7.03
   6   1   3   -0.55    4.82
   6   1   4   10.48   10.10
   6   2   0   13.05    7.64
   6   2   0   14.60   11.95
   6   2   1   28.46   12.90
   6   2   1   33.09   15.50
   6   2   2    5.32    6.54
   6   2   2    1.04    5.80
   6   2   3   10.84    8.67
   6   2   3   14.55   11.60
   6   2   4   -0.22    4.60
   6   2   4    8.98   10.83
   6   3   0   -3.54    7.65
   6   3   1    8.23    5.83
   6   3   1   14.71   12.28
   6   3   2    2.69    6.61
   6   3   2   19.00   14.38
   6   3   3   -6.45    5.87
   6   3   3   13.93   11.86
   0   0   0    0.00    0.00
;
_shelx_hkl_checksum              8188
_olex2_submission_special_instructions 'No special instructions were received'
loop_
_space_group_symop_operation_xyz
'x, y, z'
loop_
_atom_site_label
_atom_site_type_symbol
_atom_site_fract_x
_atom_site_fract_y
_atom_site_fract_z
_atom_site_U_iso_or_equiv
_atom_site_adp_type
_atom_site_occupancy
_atom_site_site_symmetry_order
_atom_site_calc_flag
_atom_site_refinement_flags_posn
Co1 Co 0.007(3) 0.008(2) -0.004(5) 0.095(5) Uiso 1 1 d D
O2 O -0.265(6) -0.030(5) 0.137(3) 0.090(16) Uiso 1 1 d D
N1 N -0.001(4) 0.321(5) 0.007(3) 0.070(17) Uiso 1 1 d D
O1 O 0.080(4) 0.013(4) 0.209(5) 0.083(14) Uiso 1 1 d D
N2 N 0.002(4) 0.696(5) -0.006(3) 0.068(16) Uiso 1 1 d D
O1W O 0.341(5) 0.011(4) -0.037(10) 0.023(7) Uiso 1 1 d .
H1WA H 0.4190 0.0310 0.0338 0.034 Uiso 1 1 d GR
H1WB H 0.3730 0.0995 -0.0878 0.034 Uiso 1 1 d GR
O4 O -0.199(7) -0.002(4) 0.834(3) 0.083(14) Uiso 1 1 d D
C11 C -0.239(5) 0.371(4) 0.010(13) 0.10(3) Uiso 1 1 d D
H11A H -0.2985 0.3312 0.0879 0.121 Uiso 1 1 calc R
H11B H -0.3342 0.3160 -0.0608 0.121 Uiso 1 1 calc R
C8 C -0.335(4) -0.021(4) 0.7404(19) 0.093(8) Uiso 1 1 d D
C9 C 0.115(9) 0.397(4) -0.101(4) 0.08(2) Uiso 1 1 d D
H9A H 0.0350 0.3482 -0.1790 0.095 Uiso 1 1 calc R
H9B H 0.2665 0.3520 -0.0962 0.095 Uiso 1 1 calc R
C12 C -0.214(5) 0.585(4) 0.000(11) 0.09(2) Uiso 1 1 d D
H12A H -0.3094 0.6193 -0.0737 0.109 Uiso 1 1 calc R
H12B H -0.2818 0.6345 0.0721 0.109 Uiso 1 1 calc R
O3 O -0.529(5) -0.043(6) 0.771(6) 0.13(2) Uiso 1 1 d D
C7 C -0.121(3) -0.010(3) 0.2266(18) 0.093(8) Uiso 1 1 d D
C10 C 0.126(9) 0.612(4) -0.104(4) 0.10(3) Uiso 1 1 d D
H10A H 0.2824 0.6574 -0.0935 0.117 Uiso 1 1 calc R
H10B H 0.0625 0.6532 -0.1863 0.117 Uiso 1 1 calc R
C6 C -0.006(4) 0.010(3) 0.454(2) 0.093(8) Uiso 1 1 d D
H6 H 0.1428 0.0270 0.4350 0.112 Uiso 1 1 calc R
C1 C -0.179(4) -0.013(3) 0.3585(18) 0.093(8) Uiso 1 1 d DG
C2 C -0.401(4) -0.039(4) 0.388(3) 0.093(8) Uiso 1 1 d DG
H2 H -0.5172 -0.0546 0.3234 0.112 Uiso 1 1 calc R
C3 C -0.450(5) -0.041(4) 0.513(3) 0.093(8) Uiso 1 1 d DG
H3 H -0.5988 -0.0582 0.5319 0.112 Uiso 1 1 calc R
C4 C -0.277(6) -0.018(3) 0.608(2) 0.093(8) Uiso 1 1 d DG
C5 C -0.055(6) 0.008(3) 0.5794(18) 0.093(8) Uiso 1 1 d DG
H5 H 0.0612 0.0234 0.6436 0.112 Uiso 1 1 calc R
C14 C 0.131(8) 0.618(4) 0.106(4) 0.11(3) Uiso 1 1 d D
H14A H 0.0724 0.6680 0.1804 0.134 Uiso 1 1 calc R
H14B H 0.2865 0.6658 0.1064 0.134 Uiso 1 1 calc R
C13 C 0.132(12) 0.404(4) 0.119(4) 0.15(4) Uiso 1 1 d D
H13A H 0.2856 0.3623 0.1236 0.176 Uiso 1 1 calc R
H13B H 0.0654 0.3638 0.1948 0.176 Uiso 1 1 calc R
loop_
_atom_type_symbol
_atom_type_description
_atom_type_scat_dispersion_real
_atom_type_scat_dispersion_imag
_atom_type_scat_source
C C 0.0033 0.0016 'International Tables Vol C Tables 4.2.6.8 and 6.1.1.4'
H H 0.0000 0.0000 'International Tables Vol C Tables 4.2.6.8 and 6.1.1.4'
Co Co 0.3494 0.9721 'International Tables Vol C Tables 4.2.6.8 and 6.1.1.4'
N N 0.0061 0.0033 'International Tables Vol C Tables 4.2.6.8 and 6.1.1.4'
O O 0.0106 0.0060 'International Tables Vol C Tables 4.2.6.8 and 6.1.1.4'
loop_
_geom_angle_atom_site_label_1
_geom_angle_atom_site_label_2
_geom_angle_atom_site_label_3
_geom_angle
_geom_angle_site_symmetry_1
_geom_angle_site_symmetry_3
N1 Co1 O2 91.9(18) . .
N1 Co1 O1 87.1(19) . .
O1 Co1 O2 55.5(14) . .
N2 Co1 O2 85.1(16) 1_545 .
N2 Co1 N1 177(3) 1_545 .
N2 Co1 O1 90.8(18) 1_545 .
O1W Co1 O2 149(2) . .
O1W Co1 N1 94.0(12) . .
O1W Co1 O1 94(2) . .
O1W Co1 N2 88.4(12) . 1_545
O4 Co1 O2 98.8(15) 1_554 .
O4 Co1 N1 92.1(14) 1_554 .
O4 Co1 O1 154(2) 1_554 .
O4 Co1 N2 88.8(18) 1_554 1_545
O4 Co1 O1W 112(2) 1_554 .
C7 O2 Co1 91(2) . .
C11 N1 Co1 108(2) . .
C11 N1 C9 116(6) . .
C11 N1 C13 109(6) . .
C9 N1 Co1 107(2) . .
C13 N1 Co1 113(2) . .
C13 N1 C9 105(4) . .
C7 O1 Co1 93(3) . .
C12 N2 Co1 120(2) . 1_565
C12 N2 C10 108(5) . .
C12 N2 C14 99(3) . .
C10 N2 Co1 115(2) . 1_565
C10 N2 C14 99(3) . .
C14 N2 Co1 113(2) . 1_565
Co1 O1W H1WA 107.7 . .
Co1 O1W H1WB 111.0 . .
H1WA O1W H1WB 109.1 . .
C8 O4 Co1 174(3) . 1_556
N1 C11 H11A 111.7 . .
N1 C11 H11B 111.7 . .
N1 C11 C12 100(3) . .
H11A C11 H11B 109.5 . .
C12 C11 H11A 111.7 . .
C12 C11 H11B 111.7 . .
O4 C8 C4 125(2) . .
O3 C8 O4 111(4) . .
O3 C8 C4 124(3) . .
N1 C9 H9A 109.1 . .
N1 C9 H9B 109.1 . .
N1 C9 C10 112(3) . .
H9A C9 H9B 107.9 . .
C10 C9 H9A 109.1 . .
C10 C9 H9B 109.1 . .
N2 C12 C11 125(3) . .
N2 C12 H12A 106.0 . .
N2 C12 H12B 106.0 . .
C11 C12 H12A 106.0 . .
C11 C12 H12B 106.0 . .
H12A C12 H12B 106.3 . .
O2 C7 O1 120(4) . .
O2 C7 C1 122(2) . .
O1 C7 C1 118(2) . .
N2 C10 C9 113(3) . .
N2 C10 H10A 109.1 . .
N2 C10 H10B 109.1 . .
C9 C10 H10A 109.1 . .
C9 C10 H10B 109.1 . .
H10A C10 H10B 107.8 . .
C1 C6 H6 120.0 . .
C1 C6 C5 120.0 . .
C5 C6 H6 120.0 . .
C6 C1 C7 118.4(10) . .
C2 C1 C7 121.6(10) . .
C2 C1 C6 120.0 . .
C1 C2 H2 120.0 . .
C1 C2 C3 120.0 . .
C3 C2 H2 120.0 . .
C2 C3 H3 120.0 . .
C2 C3 C4 120.0 . .
C4 C3 H3 120.0 . .
C3 C4 C8 119(2) . .
C3 C4 C5 120.0 . .
C5 C4 C8 121(2) . .
C6 C5 H5 120.0 . .
C4 C5 C6 120.0 . .
C4 C5 H5 120.0 . .
N2 C14 H14A 107.9 . .
N2 C14 H14B 107.9 . .
N2 C14 C13 118(3) . .
H14A C14 H14B 107.2 . .
C13 C14 H14A 107.9 . .
C13 C14 H14B 107.9 . .
N1 C13 C14 107(3) . .
N1 C13 H13A 110.3 . .
N1 C13 H13B 110.3 . .
C14 C13 H13A 110.3 . .
C14 C13 H13B 110.3 . .
H13A C13 H13B 108.5 . .
loop_
_geom_bond_atom_site_label_1
_geom_bond_atom_site_label_2
_geom_bond_distance
_geom_bond_site_symmetry_2
Co1 O2 2.31(6) .
Co1 N1 2.21(4) .
Co1 O1 2.27(6) .
Co1 N2 2.21(4) 1_545
Co1 O1W 2.05(4) .
Co1 O4 2.03(5) 1_554
O2 C7 1.230(3) .
N1 C11 1.480(2) .
N1 C9 1.480(2) .
N1 C13 1.480(3) .
O1 C7 1.230(2) .
N2 Co1 2.21(4) 1_565
N2 C12 1.480(2) .
N2 C10 1.480(2) .
N2 C14 1.480(3) .
O1W H1WA 0.8546 .
O1W H1WB 0.8551 .
O4 Co1 2.03(5) 1_556
O4 C8 1.230(3) .
C11 H11A 0.9700 .
C11 H11B 0.9700 .
C11 C12 1.5200(17) .
C8 O3 1.230(2) .
C8 C4 1.4800(19) .
C9 H9A 0.9700 .
C9 H9B 0.9700 .
C9 C10 1.5200(16) .
C12 H12A 0.9700 .
C12 H12B 0.9700 .
C7 C1 1.480(2) .
C10 H10A 0.9700 .
C10 H10B 0.9700 .
C6 H6 0.9300 .
C6 C1 1.3900 .
C6 C5 1.3900 .
C1 C2 1.3900 .
C2 H2 0.9300 .
C2 C3 1.3900 .
C3 H3 0.9300 .
C3 C4 1.3900 .
C4 C5 1.3900 .
C5 H5 0.9300 .
C14 H14A 0.9700 .
C14 H14B 0.9700 .
C14 C13 1.5200(16) .
C13 H13A 0.9700 .
C13 H13B 0.9700 .
loop_
_geom_torsion_atom_site_label_1
_geom_torsion_atom_site_label_2
_geom_torsion_atom_site_label_3
_geom_torsion_atom_site_label_4
_geom_torsion
_geom_torsion_site_symmetry_1
Co1 O2 C7 O1 -2.1(13) .
Co1 O2 C7 C1 178.5(13) .
Co1 N1 C11 C12 -173(7) .
Co1 N1 C9 C10 -179(4) .
Co1 N1 C13 C14 174(4) .
Co1 O1 C7 O2 2.1(14) .
Co1 O1 C7 C1 -178.4(13) .
Co1 N2 C12 C11 -175(9) 1_565
Co1 N2 C10 C9 -180(3) 1_565
Co1 N2 C14 C13 177(5) 1_565
O2 C7 C1 C6 179.8(6) .
O2 C7 C1 C2 -0.4(11) .
N1 C11 C12 N2 -2(14) .
N1 C9 C10 N2 -5(6) .
O1 C7 C1 C6 0.4(10) .
O1 C7 C1 C2 -179.8(6) .
N2 C14 C13 N1 2(7) .
O4 C8 C4 C3 -179.9(7) .
O4 C8 C4 C5 0.2(12) .
C11 N1 C9 C10 61(6) .
C11 N1 C13 C14 -66(7) .
C8 C4 C5 C6 179.9(7) .
C9 N1 C11 C12 -54(10) .
C9 N1 C13 C14 58(6) .
C12 N2 C10 C9 -42(7) .
C12 N2 C14 C13 49(5) .
O3 C8 C4 C3 -0.3(13) .
O3 C8 C4 C5 179.8(8) .
C7 C1 C2 C3 -179.8(7) .
C10 N2 C12 C11 50(13) .
C10 N2 C14 C13 -61(6) .
C6 C1 C2 C3 0.0 .
C1 C6 C5 C4 0.0 .
C1 C2 C3 C4 0.0 .
C2 C3 C4 C8 -179.9(7) .
C2 C3 C4 C5 0.0 .
C3 C4 C5 C6 0.0 .
C5 C6 C1 C7 179.8(7) .
C5 C6 C1 C2 0.0 .
C14 N2 C12 C11 -52(11) .
C14 N2 C10 C9 60(5) .
C13 N1 C11 C12 63(9) .
C13 N1 C9 C10 -59(5) .
