#------------------------------------------------------------------------------
#$Date: 2019-11-24 04:12:18 +0200 (Sun, 24 Nov 2019) $
#$Revision: 236652 $
#$URL: file:///home/coder/svn-repositories/cod/cif/8/00/03/8000386.cif $
#------------------------------------------------------------------------------
#
# This file is available in the Crystallography Open Database (COD),
# http://www.crystallography.net/
#
# All data on this site have been placed in the public domain by the
# contributors.
#
data_8000386
loop_
_publ_author_name
'Andrzejewski, Micha\/l'
'Katrusiak, Andrzej'
_publ_section_title
;
 Piezochromic Porous Metal-Organic Framework.
;
_journal_issue                   1
_journal_name_full               'The journal of physical chemistry letters'
_journal_page_first              279
_journal_page_last               284
_journal_paper_doi               10.1021/acs.jpclett.6b02458
_journal_volume                  8
_journal_year                    2017
_chemical_formula_moiety         'C14 H18 Co N2 O5'
_chemical_formula_sum            'C14 H18 Co N2 O5'
_chemical_formula_weight         353.23
_chemical_name_common            AMU1
_chemical_name_systematic
;
Co(1,4-benzenedicarboxylate)(1,4-diazabicyclo[2.2.2]octane)H2O
;
_space_group_crystal_system      triclinic
_space_group_IT_number           1
_space_group_name_Hall           'P 1'
_space_group_name_H-M_alt        'P 1'
_atom_sites_solution_hydrogens   mixed
_atom_sites_solution_primary     direct
_audit_creation_date             2016-07-12
_audit_creation_method
;
Olex2 1.2
(compiled 2016.02.19 svn.r3266 for OlexSys, GUI svn.r5155)
;
_cell_angle_alpha                87.263(18)
_cell_angle_beta                 100.31(4)
_cell_angle_gamma                94.672(19)
_cell_formula_units_Z            1
_cell_length_a                   5.571(3)
_cell_length_b                   6.8976(8)
_cell_length_c                   10.411(4)
_cell_measurement_reflns_used    703
_cell_measurement_temperature    296(2)
_cell_measurement_theta_max      56.392
_cell_measurement_theta_min      9.18
_cell_volume                     392.1(3)
_computing_molecular_graphics    'Olex2 (Dolomanov et al., 2009)'
_computing_publication_material  'Olex2 (Dolomanov et al., 2009)'
_computing_structure_refinement  'ShelXL (Sheldrick, 2015)'
_computing_structure_solution    'ShelXS (Sheldrick, 2008)'
_diffrn_ambient_temperature      296(2)
_diffrn_measured_fraction_theta_full 0.232
_diffrn_measured_fraction_theta_max 0.194
_diffrn_measurement_device_type  'multiwire proportional'
_diffrn_measurement_method       'phi and omega scans'
_diffrn_radiation_monochromator  graphite
_diffrn_radiation_type           MoK\a
_diffrn_radiation_wavelength     0.71073
_diffrn_reflns_av_R_equivalents  0.0420
_diffrn_reflns_av_unetI/netI     0.0429
_diffrn_reflns_Laue_measured_fraction_full 0.232
_diffrn_reflns_Laue_measured_fraction_max 0.194
_diffrn_reflns_limit_h_max       6
_diffrn_reflns_limit_h_min       -6
_diffrn_reflns_limit_k_max       8
_diffrn_reflns_limit_k_min       -8
_diffrn_reflns_limit_l_max       7
_diffrn_reflns_limit_l_min       -7
_diffrn_reflns_number            1897
_diffrn_reflns_point_group_measured_fraction_full 0.232
_diffrn_reflns_point_group_measured_fraction_max 0.194
_diffrn_reflns_theta_full        26.000
_diffrn_reflns_theta_max         28.196
_diffrn_reflns_theta_min         4.590
_exptl_absorpt_coefficient_mu    1.118
_exptl_absorpt_correction_T_max  0.894
_exptl_absorpt_correction_T_min  0.874
_exptl_absorpt_correction_type   multi-scan
_exptl_absorpt_process_details
;
Data were collected and reduced by program CrysAlisPro, 
and SCALE3 ABSPACK was used for absorption correction
;
_exptl_crystal_colour            yellow
_exptl_crystal_density_diffrn    1.496
_exptl_crystal_description       plate
_exptl_crystal_F_000             183
_exptl_crystal_size_max          0.3
_exptl_crystal_size_mid          0.1
_exptl_crystal_size_min          0.1
_refine_diff_density_max         1.821
_refine_diff_density_min         -0.860
_refine_diff_density_rms         0.222
_refine_ls_abs_structure_details
;
 Refined as a perfect inversion twin.
;
_refine_ls_abs_structure_Flack   0.5
_refine_ls_extinction_method     none
_refine_ls_goodness_of_fit_ref   1.948
_refine_ls_hydrogen_treatment    constr
_refine_ls_matrix_type           full
_refine_ls_number_parameters     68
_refine_ls_number_reflns         703
_refine_ls_number_restraints     36
_refine_ls_restrained_S_all      3.257
_refine_ls_R_factor_all          0.1677
_refine_ls_R_factor_gt           0.1595
_refine_ls_shift/su_max          0.000
_refine_ls_shift/su_mean         0.000
_refine_ls_structure_factor_coef Fsqd
_refine_ls_weighting_details
'w=1/[\s^2^(Fo^2^)+(0.2000P)^2^] where P=(Fo^2^+2Fc^2^)/3'
_refine_ls_weighting_scheme      calc
_refine_ls_wR_factor_gt          0.3833
_refine_ls_wR_factor_ref         0.3966
_reflns_Friedel_coverage         1.000
_reflns_Friedel_fraction_full    0.232
_reflns_Friedel_fraction_max     0.194
_reflns_number_gt                652
_reflns_number_total             703
_reflns_threshold_expression     'I > 2\s(I)'
_cod_data_source_file            jz6b02458_si_004.cif
_cod_data_source_block           359GPa_P1
_cod_original_cell_volume        392.1(2)
_cod_database_code               8000386
_shelx_space_group_comment
;
The symmetry employed for this shelxl refinement is uniquely defined
by the following loop, which should always be used as a source of
symmetry information in preference to the above space-group names.
They are only intended as comments.
;
_olex2_refinement_description
;
1. Fixed Uiso
 At 1.2 times of:
  All C(H) groups, All C(H,H) groups
 At 1.5 times of:
  All O(H,H) groups
2. Restrained distances
 O4-C8
 1.23 with sigma of 0.002
 C8-O3
 1.23 with sigma of 0.002
 O1-C7
 1.23 with sigma of 0.002
 C7-O2
 1.23 with sigma of 0.002
 C8-C4
 1.48 with sigma of 0.002
 C1-C7
 1.48 with sigma of 0.002
 C4-C5
 1.36 with sigma of 0.002
 C5-C6
 1.36 with sigma of 0.002
 C6-C1
 1.36 with sigma of 0.002
 C1-C2
 1.36 with sigma of 0.002
 C2-C3
 1.36 with sigma of 0.002
 C3-C4
 1.36 with sigma of 0.002
 N1-C9
 1.48 with sigma of 0.002
 N1-C13
 1.48 with sigma of 0.002
 N1-C11
 1.48 with sigma of 0.002
 N2-C12
 1.48 with sigma of 0.002
 C10-N2
 1.48 with sigma of 0.002
 N2-C14
 1.48 with sigma of 0.002
 C13-C14
 1.52 with sigma of 0.002
 C11-C12
 1.52 with sigma of 0.002
 C9-C10
 1.52 with sigma of 0.002
 O3-C4 \\sim C4-O4
 with sigma of 0.02
 O2-C1 \\sim C1-O1
 with sigma of 0.02
 C2-C7 \\sim C7-C6
 with sigma of 0.02
3. Restrained planarity
 O4, C8, O3, C7, C6, C1, C2, C3, C4, C5, O1, O2
 with sigma of 0.1
4. Uiso/Uaniso restraints and constraints
Uiso(C6) = Uiso(C1) = Uiso(C2) = Uiso(C3) = Uiso(C4) = Uiso(C5)
Uiso(C8) = Uiso(C7)
Uiso(N2) = Uiso(N1)
Uiso(O4) = Uiso(O3) = Uiso(O2) = Uiso(O1)
5.a Rotating group:
 O1W(H1WA,H1WB)
5.b Secondary CH2 refined with riding coordinates:
 C11(H11A,H11B), C9(H9A,H9B), C12(H12A,H12B), C14(H14A,H14B), C10(H10A,H10B),
 C13(H13A,H13B)
5.c Aromatic/amide H refined with riding coordinates:
 C6(H6), C2(H2), C3(H3), C5(H5)
5.d Fitted hexagon refined as free rotating group:
 C6(C1,C2,C3,C4,C5)
;
_shelx_hkl_file
;
   3   6  -3  250.27   16.40
   2   5  -3   28.70   12.00
   2   4  -3  410.36   12.00
   2   2  -3  418.66    8.10
   3   7  -2  137.79   17.80
   2   7  -2   15.00   15.20
   3   6  -2  220.08   16.40
   2   6  -2  154.58   16.00
   3   5  -2   85.89   12.40
   2   5  -2   62.49   12.70
   1   5  -2   28.30   12.20
   3   4  -2  615.64   13.20
   2   4  -2  552.54   12.60
   1   4  -2   74.89    9.40
   2   8  -1   17.20   20.80
   3   7  -1   36.80   16.60
   2   7  -1   92.99   18.00
   1   7  -1  182.08   17.50
   3   6  -1  235.78   16.70
   2   6  -1   88.29   15.60
   1   6  -1  143.99   15.60
   3   5  -1  140.99   13.30
   2   5  -1   34.00   12.20
   1   5  -1  599.54   15.90
   0   5  -1  772.02   17.10
   3   4  -1  297.07   11.30
   2   4  -1  247.58   10.70
   1   4  -1    6.10    8.90
   0   4  -1  267.37   10.60
   2   3  -1  185.98    8.40
   0   3  -1 2949.21   19.20
   2   8   0   83.09   21.40
   1   8   0  197.98   22.00
   3   7   0  -18.90   19.60
   2   7   0   57.29   15.50
   1   7   0  132.19   17.20
   0   7   0  196.18   17.80
   3   6   0   59.79   15.70
   2   6   0  360.26   17.70
   1   6   0  720.73   19.70
   0   6   0  217.08   16.40
   3   5   0   63.19   12.10
   2   5   0   16.70   12.40
   1   5   0  766.62   16.90
   0   5   0  736.43   16.50
  -1   5   0  141.39   12.90
   3   4   0  321.97   11.50
   2   4   0  397.26   12.10
   1   4   0 1685.53   18.50
   0   4   0  331.37   11.00
  -1   4   0  260.37   10.70
   1   3   0 2712.33   19.20
   0   3   0 3890.71   22.80
  -1   3   0 1275.67   14.00
   2   2   0   21.20    4.70
   0   2   0 8935.11   27.00
   1   8   1   78.69   21.20
   0   8   1   79.49   20.50
   3   7   1  128.69   19.00
   2   7   1   75.09   18.10
   1   7   1  132.69   18.20
   0   7   1   44.80   17.30
  -1   7   1   57.09   17.70
   3   6   1  396.76   17.50
   2   6   1  447.76   17.80
   1   6   1   89.29   15.60
   0   6   1  211.88   16.20
  -1   6   1  131.19   15.70
   2   5   1   79.59   12.60
   1   5   1  210.58   13.50
   0   5   1  387.26   14.50
  -1   5   1   33.60   12.30
  -2   5   1  123.79   13.20
   2   4   1  794.52   14.60
   1   4   1  589.04   12.90
   0   4   1   35.10    9.20
  -1   4   1  258.47   10.60
  -2   4   1  397.66   12.60
   1   3   1  427.46   10.40
   0   3   1 2676.13   19.30
  -1   3   1  334.87    9.90
  -2   3   1  507.85   10.80
   1   2   1 2505.75   15.20
   0   2   1   69.09    4.50
  -1   2   1  237.28    5.80
  -2   2   1  114.79    6.20
   1   8   2    2.10   20.10
   0   8   2   13.40   20.30
  -1   8   2   17.80   21.20
   2   7   2  115.49   19.10
   1   7   2   62.89   17.30
   0   7   2   22.30   15.40
  -1   7   2   96.89   17.00
   2   6   2  137.49   16.20
   1   6   2  128.69   16.00
   0   6   2   31.60   14.90
  -1   6   2  279.47   16.70
   2   5   2   44.10   12.90
   1   5   2   56.29   12.80
   0   5   2   17.50   12.20
  -1   5   2   95.59   12.80
  -2   5   2  171.18   14.00
   1   4   2  353.06   12.00
   0   4   2   70.19    9.80
  -1   4   2  231.68   10.80
  -2   4   2 1255.67   16.80
   1   3   2  527.25   10.50
   0   3   2  249.48    9.20
  -1   3   2  311.37    9.10
  -2   3   2 2003.80   16.10
   0   2   2  370.26    7.00
  -1   2   2   24.40    4.10
   0   8   3   52.69   20.80
  -1   8   3    6.30   20.80
   1   7   3  172.28   18.70
   0   7   3   83.99   18.30
  -1   7   3   38.00   14.90
   1   6   3  202.38   16.60
   0   6   3  103.29   15.70
  -1   6   3  158.58   15.50
   1   5   3   58.99   12.80
   0   5   3   15.40   12.30
  -1   5   3    4.00   13.10
   0   4   3  174.68   10.60
  -1   4   3  164.28   10.50
   0   3   3   93.39    7.70
  -1   3   3  183.68    7.80
  -2   3   3  570.54   11.10
  -1   2   3   36.00    4.90
  -2   2   3  181.78    6.30
  -1   8   4    3.60   20.40
   0   7   4  162.08   18.90
  -1   7   4  135.29   18.10
   0   6   4  225.38   16.80
  -1   6   4  159.48   15.90
   0   5   4   21.10   12.60
  -1   5   4  107.19   13.10
  -1   4   4  289.17   11.50
  -1   7   5  137.89   19.10
   1  -4  -4  300.37   12.20
   1  -5  -4   73.79   13.90
   1  -6  -4  110.19   17.00
   0  -6  -4  215.78   17.20
   1  -7  -4   97.59   17.80
   0  -7  -4  145.99   18.70
   2  -2  -3  223.68    6.50
   1  -2  -3   52.79    5.20
   2  -3  -3  634.04   11.20
   1  -3  -3  137.69    8.50
   0  -3  -3  125.59    8.50
   2  -4  -3  392.76   12.40
   1  -4  -3  163.48   10.80
   0  -4  -3  173.48   11.20
   2  -5  -3  100.09   13.20
   1  -5  -3   27.10   11.70
   0  -5  -3   20.70   12.70
  -1  -5  -3   72.99   12.90
   2  -6  -3  208.38   16.30
   1  -6  -3  125.79   16.30
   0  -6  -3  105.29   15.80
  -1  -6  -3  198.78   17.30
   1  -7  -3   46.70   17.20
   0  -7  -3   42.90   18.00
  -1  -7  -3  187.08   19.80
   2  -2  -2 1233.58   10.80
   1  -2  -2   37.30    4.70
   0  -2  -2  351.76    7.10
   2  -3  -2 1685.53   15.80
   1  -3  -2  324.57    8.80
   0  -3  -2  239.38    9.20
  -1  -3  -2  473.95   10.20
   2  -4  -2 1182.58   16.10
   1  -4  -2  251.57   11.00
   0  -4  -2   70.99    9.40
  -1  -4  -2  321.07   11.80
   2  -5  -2  135.59   13.90
   1  -5  -2   80.19   13.00
   0  -5  -2   29.40   12.20
  -1  -5  -2   31.90   12.30
  -2  -5  -2   43.60   12.60
   2  -6  -2  429.96   17.40
   1  -6  -2  266.47   16.50
   0  -6  -2   56.09   15.00
  -1  -6  -2  136.59   17.00
  -2  -6  -2  168.38   15.80
   2  -7  -2  144.59   18.60
   1  -7  -2  114.69   19.60
   0  -7  -2   76.49   16.60
  -1  -7  -2   34.70   17.40
  -2  -7  -2   91.99   18.00
   1  -8  -2   22.10   20.30
   0  -8  -2   16.60   19.80
  -1  -8  -2   22.60   19.70
   2  -2  -1   49.60    6.10
   1  -2  -1  169.08    5.80
   0  -2  -1  103.99    4.40
  -1  -2  -1 2513.45   14.70
   2  -3  -1  485.85    9.70
   1  -3  -1  313.37    9.20
   0  -3  -1 2681.23   18.50
  -1  -3  -1  422.96   10.30
  -2  -3  -1  303.97    9.60
   2  -4  -1  332.17   11.60
   1  -4  -1  183.08   10.60
   0  -4  -1   46.40    9.60
  -1  -4  -1  405.96   11.90
  -2  -4  -1  695.33   14.00
   2  -5  -1  136.99   12.50
   1  -5  -1   23.50   11.70
   0  -5  -1  326.97   13.90
  -1  -5  -1  167.38   13.20
  -2  -5  -1   34.60   12.50
   1  -6  -1  108.49   15.30
   0  -6  -1  152.78   15.50
  -1  -6  -1   45.70   14.90
  -2  -6  -1  305.97   17.70
  -3  -6  -1  330.57   16.80
   1  -7  -1   71.49   17.80
   0  -7  -1   41.30   17.20
  -1  -7  -1  145.39   18.30
  -2  -7  -1   16.80   15.50
   0  -8  -1   37.70   19.50
  -1  -8  -1   24.90   19.90
  -2  -8  -1    9.80   20.60
   0  -2   0 8965.60   24.80
  -1  -2   0 5795.12   19.80
  -2  -2   0   13.00    5.00
   1  -3   0 1065.99   13.40
   0  -3   0 4131.19   21.00
  -1  -3   0 2817.02   18.50
  -2  -3   0  147.79    7.80
   1  -4   0  294.17   10.70
   0  -4   0  298.47   10.40
  -1  -4   0 1698.03   17.90
  -2  -4   0  484.95   12.50
  -3  -4   0  325.77   11.80
   1  -5   0  126.99   12.30
   0  -5   0  767.62   16.40
  -1  -5   0  653.93   16.20
  -2  -5   0    5.50   12.50
  -3  -5   0   23.80   12.50
   0  -6   0  173.68   16.00
  -1  -6   0  592.14   17.90
  -2  -6   0  333.47   17.20
  -3  -6   0   64.69   15.00
   0  -7   0  197.78   19.70
  -1  -7   0  157.98   17.40
  -2  -7   0   98.69   17.80
  -3  -7   0    6.50    9.80
  -1  -8   0  155.98   21.70
  -2  -8   0   64.39   21.00
  -3  -8   0    2.50   20.20
  -1  -2   1  175.08    5.50
  -2  -2   1  113.29    5.40
   0  -3   1 3025.40   18.90
  -1  -3   1 2153.38   15.90
  -2  -3   1  209.08    7.90
   0  -4   1  304.07   10.60
  -1  -4   1    6.60    8.80
  -2  -4   1  253.07   10.50
  -3  -4   1  330.87   11.90
   0  -5   1  651.03   15.50
  -1  -5   1  591.64   15.50
  -2  -5   1   44.10   11.50
  -3  -5   1  106.89   12.20
  -1  -6   1  115.49   15.00
  -2  -6   1   82.69   14.00
  -3  -6   1  213.28   16.70
  -1  -7   1  213.48   18.90
  -2  -7   1  118.29   18.40
  -3  -7   1   77.49   18.10
  -2  -8   1  -11.60   20.00
  -2  -2   2  495.75    7.40
  -1  -3   2  310.77    9.10
  -2  -3   2  424.16    9.20
  -1  -4   2   82.39    8.70
  -2  -4   2  598.44   12.60
  -1  -5   2   45.60   11.00
  -2  -5   2   52.49   11.70
  -2  -6   2  172.38   15.90
  -2  -7   2   69.39   16.80
  -2  -3   3  482.35   10.00
  -2  -4   3  358.56   11.70
  -2  -5   3   43.00   11.80
   2   6  -2  146.49   17.00
   2   5  -2   77.09   13.60
   2   4  -2  549.74   14.90
   1   4  -2   67.59    9.90
   2   3  -2  392.06    9.70
   1   3  -2  310.97    9.40
   2   8  -1    8.90   22.70
   3   7  -1   84.49   18.90
   2   7  -1   94.19   18.70
   1   7  -1  159.88   17.90
   3   6  -1  259.67   18.40
   2   6  -1   93.49   17.70
   1   6  -1  142.39   17.30
   3   5  -1  178.78   16.30
   2   5  -1   36.80   14.40
   1   5  -1  628.34   16.80
   0   5  -1  707.23   16.90
   3   4  -1  304.97   13.40
   2   4  -1  244.28   12.60
   1   4  -1   13.30    9.80
   0   4  -1  270.77   11.40
   2   3  -1  176.28    8.80
   1   3  -1 2266.87   17.10
   0   3  -1 2949.00   20.50
   1   8   0  218.78   23.80
   3   7   0  -29.30   22.20
   2   7   0   91.89   18.20
   1   7   0  114.39   18.10
   0   7   0  171.18   18.30
   3   6   0   75.09   18.30
   2   6   0  405.66   19.90
   1   6   0  724.13   20.60
   0   6   0  186.08   17.70
   3   5   0   54.39   14.70
   2   5   0   44.40   14.20
   1   5   0  769.02   18.00
   0   5   0  833.52   17.50
   3   4   0  354.56   14.10
   2   4   0  361.86   13.50
   1   4   0 1973.20   19.40
   0   4   0  349.57   11.60
  -1   4   0  295.67   11.10
   3   3   0  387.16   11.70
   2   3   0  164.98    9.20
   1   3   0 2744.73   19.80
   0   3   0 3938.61   23.10
  -1   3   0 1277.17   13.90
   1   2   0 5488.65   23.10
   0   2   0 8691.23   27.30
   0   8   1   49.90   21.50
   3   7   1  151.08   22.80
   2   7   1   73.39   20.00
   1   7   1  140.29   19.40
   0   7   1   35.80   17.00
   3   6   1  415.16   20.30
   2   6   1  431.46   19.80
   1   6   1   72.49   16.90
   0   6   1  238.38   17.70
  -1   6   1  135.19   16.20
   3   5   1   63.39   15.10
   2   5   1   71.89   14.40
   1   5   1  167.78   14.40
   0   5   1  454.45   15.60
  -1   5   1   23.30   12.50
   3   4   1  172.38   14.00
   2   4   1  889.01   16.40
   1   4   1  551.74   13.50
   0   4   1   54.79    9.80
  -1   4   1  234.98   11.40
   2   3   1  345.67   10.20
   1   3   1  453.95   11.30
   0   3   1 2783.92   19.40
  -1   3   1  357.96   10.00
   1   2   1 2533.05   15.20
   0   2   1   65.29    4.30
  -1   2   1  262.17    6.10
   2   7   2  115.59   20.40
   1   7   2   70.19   19.80
   0   7   2   51.89   14.90
  -1   7   2   99.59   19.40
   2   6   2  170.58   18.80
   1   6   2  134.49   17.70
   0   6   2   40.40   17.20
  -1   6   2  282.67   17.30
  -2   6   2  494.45   19.40
   2   5   2   68.89   15.20
   1   5   2   68.79   14.00
   0   5   2   10.40   13.00
  -1   5   2   82.29   13.60
  -2   5   2  153.88   13.80
   2   4   2  175.98   12.70
   1   4   2  371.46   12.90
   0   4   2   64.09   10.00
  -1   4   2  256.07   11.70
  -2   4   2 1300.67   17.40
   1   3   2  548.35   10.90
   0   3   2  226.68    9.60
  -1   3   2  348.37    8.80
  -2   3   2 1778.62   16.70
   0   2   2  328.87    6.90
  -1   2   2   25.00    4.70
  -2   2   2 1163.88   11.20
   1   7   3  161.08   20.20
   0   7   3   90.99   18.70
  -1   7   3   14.20   17.60
   1   6   3  220.08   18.10
   0   6   3   87.99   16.70
  -1   6   3  150.88   16.40
  -2   6   3  214.98   18.20
   0   5   3   27.50   13.50
  -1   5   3   48.00   12.90
  -2   5   3   96.39   13.50
   0   4   3  185.48   11.00
  -1   4   3  145.29   10.80
  -2   4   3  451.15   13.40
   0   3   3  101.29    7.90
  -1   3   3  196.08    8.50
  -2   3   3  622.84   11.80
  -2   2   3  240.58    6.50
   0   7   4  168.58   20.10
  -1   7   4   96.09   18.80
   0   6   4  251.47   18.10
  -1   6   4  173.98   17.00
   0   5   4   44.40   14.20
  -1   5   4   97.69   13.90
  -1   4   4  321.67   13.30
  -1   3   4  413.06   10.10
  -1   7   5  105.89   20.20
  -1   6   5  307.17   18.60
  -1   5   5  191.58   15.70
   1  -5  -5  195.18   15.70
   1  -6  -5  331.17   19.10
   1  -7  -5   73.69   19.40
   1  -3  -4  428.66   11.00
   1  -4  -4  302.27   13.40
   1  -5  -4   76.99   14.00
   1  -6  -4  180.88   16.80
   0  -6  -4  212.28   17.70
   1  -7  -4   71.79   18.60
   0  -7  -4  150.38   20.00
   2  -2  -3  239.78    6.90
   1  -2  -3   58.19    5.30
   2  -3  -3  633.64   11.70
   1  -3  -3  160.18    8.60
   0  -3  -3  114.39    8.60
   1  -4  -3  149.99   11.50
   0  -4  -3  193.78   11.50
   1  -5  -3   21.30   13.40
   0  -5  -3   25.60   13.60
   1  -6  -3  129.59   16.70
   0  -6  -3  107.99   16.50
  -1  -6  -3  174.58   17.60
   1  -7  -3   32.30   19.00
   0  -7  -3   59.89   18.70
  -1  -7  -3  169.58   20.10
   2  -2  -2 1130.19   11.90
   1  -2  -2   51.89    5.10
   0  -2  -2  362.76    7.30
   2  -3  -2 1686.83   17.20
   1  -3  -2  375.36    9.40
   0  -3  -2  224.58    9.80
  -1  -3  -2  476.65   10.90
   2  -4  -2 1349.07   18.70
   1  -4  -2  227.68   12.30
   0  -4  -2   66.79   10.50
  -1  -4  -2  312.07   12.70
  -2  -4  -2  228.88   13.00
   2  -5  -2  160.58   16.00
   1  -5  -2   93.99   14.70
   0  -5  -2   17.40   13.10
  -1  -5  -2   52.29   13.60
  -2  -5  -2   57.59   14.80
   1  -6  -2  288.37   18.50
   0  -6  -2   45.80   16.80
  -1  -6  -2  126.19   17.00
  -2  -6  -2  194.68   18.00
   1  -7  -2  109.49   20.90
   0  -7  -2   78.79   17.50
  -1  -7  -2   44.50   19.30
  -2  -7  -2  108.09   20.70
   1  -2  -1  223.88    6.20
   0  -2  -1   97.99    4.90
  -1  -2  -1 2503.45   15.70
   1  -3  -1  322.17   10.40
   0  -3  -1 2678.73   18.80
  -1  -3  -1  414.36   10.70
  -2  -3  -1  318.17   10.30
   1  -4  -1  198.08   12.10
   0  -4  -1   40.80   10.00
  -1  -4  -1  454.35   12.80
  -2  -4  -1  744.53   15.50
  -3  -4  -1  174.48   13.60
   1  -5  -1   18.90   14.00
   0  -5  -1  354.26   15.00
  -1  -5  -1  150.78   14.00
  -2  -5  -1   35.30   13.60
  -3  -5  -1   78.59   14.80
   1  -6  -1  120.99   17.80
   0  -6  -1  177.88   17.80
  -1  -6  -1   65.99   16.20
  -2  -6  -1  372.06   18.80
  -3  -6  -1  344.77   19.20
   0  -7  -1    9.80   13.10
  -1  -7  -1  179.38   21.10
  -2  -7  -1   49.70   19.90
  -3  -7  -1  104.39   22.60
   0  -8  -1   67.69   23.10
   0  -2   0 8882.71   26.80
  -1  -2   0 5623.54   22.30
  -2  -2   0   42.10    5.50
  -3  -2   0  288.07    8.30
   0  -3   0 4021.20   23.20
  -2  -3   0  133.99    8.80
  -3  -3   0  314.57   10.90
   0  -4   0  337.67   12.00
  -1  -4   0 1903.01   19.20
  -2  -4   0  477.15   13.70
  -3  -4   0  320.77   13.30
   0  -5   0  848.92   18.50
  -1  -5   0  760.52   18.00
  -2  -5   0   35.60   13.20
  -3  -5   0   31.90   13.40
   0  -6   0  231.68   19.10
  -1  -6   0  644.44   20.90
  -2  -6   0  376.46   19.50
  -3  -6   0   57.69   16.80
  -1  -7   0  136.59   21.00
  -2  -7   0   97.09   19.30
  -1  -8   0  177.78   24.70
  -2  -2   1  117.69    5.90
  -1  -3   1 2111.69   17.00
  -1  -4   1    5.00   10.10
  -2  -4   1  250.37   12.00
  -3  -4   1  308.67   13.10
  -1  -5   1  698.13   18.10
  -2  -5   1   28.40   14.30
  -3  -5   1  106.99   15.00
  -1  -6   1  145.39   18.10
  -2  -6   1   98.99   18.00
  -3  -6   1  256.17   18.70
  -2  -7   1  144.59   22.40
  -3  -7   1   77.49   21.30
  -2  -4   2  654.13   15.10
  -2  -5   2   73.69   14.00
  -3  -5   2   79.09   14.70
  -2  -6   2  139.49   17.90
  -3  -6   2  247.78   20.60
   4  -5  -7  212.38   22.30
   3  -2  -6  129.99   12.20
   3  -3  -6  225.88   14.10
   3  -4  -6   99.09   16.20
   4  -5  -6  152.88   22.20
   3  -5  -6  209.48   19.30
   2  -5  -6    1.30   15.60
   3  -6  -6  102.89   22.30
   2  -6  -6   55.99   18.70
   3  -2  -5   68.49   10.30
   2  -2  -5  429.16   11.20
   3  -3  -5  366.06   15.30
   2  -3  -5  363.86   13.30
   4  -4  -5   51.69   16.60
   3  -4  -5   54.99   15.30
   2  -4  -5  203.18   14.20
   4  -5  -5   95.79   20.50
   3  -5  -5  146.09   18.20
   2  -5  -5   89.39   16.00
   1  -5  -5  205.98   15.80
   3  -6  -5   43.60   20.80
   2  -6  -5   84.89   18.10
   1  -6  -5  315.87   18.90
   1  -7  -5  103.49   19.50
   3  -1  -4   78.39    7.50
   2  -1  -4 1237.78   12.30
   3  -2  -4  283.07   11.10
   3  -3  -4  270.37   14.10
   2  -3  -4  472.35   13.20
   1  -3  -4  438.46   11.50
   4  -4  -4   11.10   16.60
   3  -4  -4  106.69   15.30
   2  -4  -4  215.18   14.00
   1  -4  -4  328.17   13.40
   4  -5  -4   39.40   20.20
   3  -5  -4   44.00   17.90
   2  -5  -4   48.90   15.90
   1  -5  -4   82.89   14.40
   0  -5  -4   26.50   12.80
   3  -6  -4   55.19   21.00
   2  -6  -4  278.57   20.90
   1  -6  -4  131.89   18.00
   0  -6  -4  260.77   16.80
   1  -7  -4   75.09   19.80
   0  -7  -4  124.19   19.90
   3  -1  -3  944.31   12.20
   2  -1  -3  613.04    8.80
   3  -2  -3  186.28   10.80
   2  -2  -3  224.18    8.40
   1  -2  -3   55.89    6.10
   3  -3  -3  605.74   16.40
   2  -3  -3  665.23   13.40
   1  -3  -3  177.98    9.20
   0  -3  -3  127.59    7.90
   3  -4  -3   54.19   15.80
   2  -4  -3  449.26   15.30
   1  -4  -3  188.28   11.70
   0  -4  -3  179.28   10.70
   3  -5  -3   74.89   17.60
   2  -5  -3  128.79   16.60
   1  -5  -3   24.80   14.20
   0  -5  -3   17.20   12.00
   3  -6  -3  147.49   20.30
   2  -6  -3  216.48   20.30
   1  -6  -3  158.58   18.30
   0  -6  -3  118.79   16.50
  -1  -6  -3  210.18   15.80
   2  -7  -3   93.99   19.70
   1  -7  -3   12.40   12.00
   0  -7  -3   60.19   18.60
   0  -8  -3   12.90   22.50
   3  -1  -2 1479.85   14.60
   2  -1  -2 2445.16   14.70
   1  -1  -2   95.69    4.10
   3  -2  -2  358.56   11.60
   2  -2  -2 1310.67   14.90
   1  -2  -2   47.40    5.50
   3  -3  -2  598.64   15.70
   2  -3  -2 2001.40   20.00
   1  -3  -2  352.36   10.00
   0  -3  -2  261.97    8.90
  -1  -3  -2  435.96    9.10
   3  -4  -2  318.47   16.90
   2  -4  -2 1230.78   20.30
   1  -4  -2  245.88   12.40
   0  -4  -2   65.69    9.30
  -1  -4  -2  317.97   10.70
   3  -5  -2  100.09   18.40
   2  -5  -2  153.98   17.00
   1  -5  -2  117.39   15.00
   0  -5  -2   15.80   11.50
  -1  -5  -2   30.70   10.90
   2  -6  -2  489.45   21.80
   1  -6  -2  338.67   19.40
   0  -6  -2   40.70   15.80
  -1  -6  -2  155.78   14.50
   2  -7  -2  123.19   22.00
   1  -7  -2  134.59   19.20
   0  -7  -2   61.99   16.80
   0  -8  -2   17.80   20.60
   2  -1  -1 1050.99   10.40
   2  -2  -1   63.49    9.10
   1  -2  -1  211.08    6.70
   0  -2  -1   83.09    4.60
   2  -3  -1  560.64   13.60
   1  -3  -1  313.97   11.40
   0  -3  -1 2732.73   17.20
  -1  -3  -1  401.06    8.70
  -2  -3  -1  241.78    7.20
   2  -4  -1  358.06   15.00
   1  -4  -1  211.88   12.10
   0  -4  -1   61.39    9.00
  -1  -4  -1  455.95   10.60
   2  -5  -1  146.29   16.70
   1  -5  -1   15.30   14.00
   0  -5  -1  363.36   14.50
  -1  -5  -1  174.58   11.60
   1  -6  -1  102.59   16.80
   0  -6  -1  177.78   16.00
  -1  -6  -1   55.39   14.40
   1  -7  -1  102.69   20.00
   0  -7  -1   45.00   17.30
   1  -2   0  267.47    7.00
   0  -2   0 8582.04   27.00
   1  -3   0 1335.67   15.80
   0  -3   0 3915.11   23.90
  -1  -3   0 2886.31   16.00
   1  -4   0  312.17   12.60
   0  -4   0  290.97   11.00
  -1  -4   0 1925.01   17.50
   1  -5   0  129.69   14.10
   0  -5   0  860.11   16.80
  -1  -5   0  867.51   16.00
   0  -6   0  213.58   16.10
  -1  -3   1 2081.99   14.60
  -1  -4   1    4.70    7.30
  -1  -5   1  606.24   14.40
   4   6  -4   87.19   19.70
   5   5  -4   34.10   19.00
   4   5  -4   83.39   16.80
   4   4  -4   47.10   15.20
   3   4  -4  413.36   15.40
   4   3  -4  179.08   13.10
   3   3  -4  908.71   15.90
   3   2  -4  206.58   10.00
   4   6  -3  107.69   19.00
   3   6  -3  282.87   19.00
   5   5  -3   40.20   18.30
   4   5  -3   49.99   16.40
   3   5  -3   68.29   14.80
   2   5  -3   43.10   13.20
   5   4  -3  159.88   17.70
   4   4  -3  126.59   15.00
   3   4  -3  538.25   15.80
   2   4  -3  425.56   13.50
   4   3  -3  337.97   14.30
   3   3  -3  467.45   13.00
   2   3  -3  524.55   11.50
   4   2  -3   48.70    9.90
   3   2  -3  495.65   10.90
   2   2  -3  507.45   10.20
   3   1  -3  675.23    9.80
   3   7  -2  100.69   15.80
   4   6  -2  204.48   19.90
   3   6  -2  197.08   18.20
   2   6  -2  126.99   15.70
   5   5  -2   -5.00   18.60
   4   5  -2   54.19   16.70
   3   5  -2   80.09   14.70
   2   5  -2   84.19   13.00
   5   4  -2   68.09   18.20
   4   4  -2  269.37   16.90
   3   4  -2  597.44   16.10
   2   4  -2  575.44   13.80
   1   4  -2   69.59    8.80
   4   3  -2  241.18   14.20
   3   3  -2  861.71   15.90
   2   3  -2  400.56   10.60
   1   3  -2  330.67    9.20
   4   2  -2   50.99   10.80
   3   2  -2  866.31   13.10
   2   2  -2  468.65    9.40
   1   2  -2  362.46    7.00
   3   1  -2 1945.01   14.70
   2   1  -2  978.20    9.10
   2   8  -1    9.60   19.50
   3   7  -1   63.49   17.00
   2   7  -1   78.69   14.70
   4   6  -1  160.88   20.20
   3   6  -1  234.38   18.20
   2   6  -1  108.69   15.30
   1   6  -1  134.39   14.10
   5   5  -1   43.20   19.50
   4   5  -1  123.99   17.90
   3   5  -1  123.49   15.80
   2   5  -1   33.90   12.80
   1   5  -1  618.44   14.50
   5   4  -1  206.98   17.90
   4   4  -1  202.98   15.90
   3   4  -1  316.17   14.90
   2   4  -1  244.38   12.00
   1   4  -1    8.80    7.70
   4   3  -1  467.15   15.20
   3   3  -1  562.54   13.80
   2   3  -1  196.38    9.90
   1   3  -1 2106.69   15.80
   4   2  -1  268.27   12.50
   3   2  -1  128.89    8.50
   2   2  -1  107.49    6.60
   1   2  -1  265.07    6.00
   3   1  -1  473.45    9.30
   2   1  -1  580.84    7.70
   2   8   0   82.89   20.40
   3   7   0   17.20   12.00
   2   7   0   36.80   10.50
   1   7   0   68.79   12.30
   4   6   0  177.98   21.10
   3   6   0   63.99   17.90
   2   6   0  281.37   16.80
   1   6   0  623.54   17.00
   4   5   0   56.69   17.20
   3   5   0   51.29   15.40
   2   5   0   -6.80   13.40
   1   5   0  680.53   14.40
   0   5   0  693.43   13.30
   3   4   0  345.57   14.70
   2   4   0  432.56   13.10
   1   4   0 1702.93   17.40
   0   4   0  344.17    9.00
   3   3   0  356.96   12.70
   2   3   0  166.58    9.10
   1   3   0 2949.10   18.30
   0   3   0 4205.98   18.70
   3   2   0  254.37   10.10
   1   2   0 5723.93   20.60
   0   2   0 8930.11   22.00
   2   8   1   38.70   19.90
   3   7   1   90.69   18.20
   2   7   1   29.70   13.70
   1   7   1  123.19   15.00
   3   6   1  408.86   20.50
   2   6   1  433.26   18.30
   1   6   1   69.59   13.00
   2   5   1   62.69   13.30
   1   5   1  193.28   12.10
   0   5   1  331.67   10.70
   3   4   1  174.88   13.70
   2   4   1  861.51   15.60
   1   4   1  524.65   11.90
   0   4   1   46.40    7.20
   2   3   1  337.47   10.30
   1   3   1  445.06   10.10
   0   3   1 2520.65   16.80
   0   2   1   51.19    3.60
   2   8   2   24.50   20.40
   2   7   2   70.39   16.30
   2   6   2  171.68   16.20
   1   6   2  152.68   14.70
   1   5   2   52.49   11.20
   0   5   2   -3.20    9.00
   2   4   2  227.58   12.30
   1   4   2  323.27   11.20
   0   4   2   57.09    7.70
   1   3   2  510.85   10.20
   0   3   2  254.97    7.60
  -1   3   2  272.17    6.10
   1   6   3  209.08   14.70
   1   5   3   91.09   12.20
   0   4   3  146.79    8.40
   1  -3  -2  268.37    6.70
   0  -3  -2  264.27    7.90
  -1  -3  -2  485.65   10.70
   0  -4  -2   94.69    8.20
  -1  -4  -2  283.87   11.60
  -2  -4  -2  231.08   12.20
   0  -5  -2   25.80    9.60
  -1  -5  -2   52.09   11.70
  -1  -6  -2  154.98   14.30
  -2  -6  -2  233.38   16.70
  -2  -7  -2  105.19   17.50
  -2  -8  -2  157.48   21.40
  -1  -2  -1 2544.25   15.20
   1  -3  -1  285.77    7.40
   0  -3  -1 2672.03   16.20
  -1  -3  -1  438.36   10.00
  -2  -3  -1  291.17   10.40
   0  -4  -1   40.20    7.80
  -1  -4  -1  495.75   11.90
  -2  -4  -1  737.63   15.50
  -3  -4  -1  189.08   13.60
   0  -5  -1  358.26   12.30
  -1  -5  -1  172.08   12.50
  -2  -5  -1   46.00   13.00
  -3  -5  -1   59.89   14.40
  -1  -6  -1   52.19   13.10
  -2  -6  -1  376.16   17.40
  -3  -6  -1  366.56   18.90
  -1  -7  -1  127.49   16.70
  -2  -7  -1   28.50   17.30
  -3  -7  -1  127.19   19.90
  -2  -8  -1   27.70   20.10
  -2  -1   0  823.52    9.00
  -1  -2   0 5405.46   21.70
  -2  -2   0   12.80    6.10
  -3  -2   0  319.07    9.90
   1  -3   0 1139.79   10.90
   0  -3   0 4040.10   19.80
  -1  -3   0 3074.29   18.50
  -2  -3   0  170.38    9.10
  -3  -3   0  323.37   12.20
   1  -4   0  297.67    8.50
   0  -4   0  273.47    9.10
  -1  -4   0 1896.41   18.00
  -2  -4   0  484.35   13.30
  -3  -4   0  356.96   14.40
  -4  -4   0  285.67   15.90
   0  -5   0  802.72   14.50
  -1  -5   0  732.43   15.70
  -2  -5   0   -0.30   13.00
  -3  -5   0   18.60   14.30
  -4  -5   0   63.89   15.90
   0  -6   0  144.89   12.60
  -1  -6   0  625.34   18.20
  -2  -6   0  394.36   17.70
  -3  -6   0   56.89   16.60
  -4  -6   0  179.38   19.10
  -1  -7   0  150.38   15.50
  -2  -7   0   84.49   16.40
  -3  -7   0   -9.30   19.00
  -2  -8   0   82.49   19.80
  -2  -1   1  748.73    8.10
  -3  -1   1  438.26    8.80
  -1  -2   1  227.08    5.90
  -2  -2   1  145.59    6.70
  -3  -2   1   73.89    7.70
   0  -3   1 2984.20   17.40
  -1  -3   1 2075.79   15.70
  -2  -3   1  219.88    9.30
  -3  -3   1  574.64   13.40
  -4  -3   1  395.66   13.90
   0  -4   1  318.37    9.20
  -1  -4   1    2.50    8.20
  -2  -4   1  270.37   11.80
  -3  -4   1  320.97   13.40
  -4  -4   1  197.68   15.10
   0  -5   1  674.13   14.40
  -1  -5   1  608.54   14.80
  -2  -5   1   39.40   12.80
  -3  -5   1  111.89   14.70
  -4  -5   1   83.79   15.90
  -1  -6   1  142.39   14.40
  -2  -6   1   80.59   15.80
  -3  -6   1  247.78   18.20
  -4  -6   1  156.08   18.90
  -1  -7   1  224.78   16.50
  -2  -7   1  105.39   17.30
  -3  -7   1   71.69   18.20
  -4  -7   1  106.09   20.60
  -2  -8   1   15.00   18.70
  -2  -1   2 1004.00    9.00
  -3  -1   2 1963.90   14.30
  -1  -2   2  393.76    7.10
  -2  -2   2  554.44    9.10
  -3  -2   2  893.81   12.50
  -4  -2   2   72.39   10.10
  -1  -3   2  287.67    8.90
  -2  -3   2  466.05   10.80
  -3  -3   2  848.72   14.40
  -4  -3   2  226.38   12.80
  -1  -4   2   71.79    8.90
  -2  -4   2  651.83   14.30
  -3  -4   2  709.53   15.80
  -4  -4   2  251.27   15.00
  -5  -4   2   96.49   15.20
  -1  -5   2   48.90   10.80
  -2  -5   2   83.29   12.90
  -3  -5   2   78.89   14.40
  -4  -5   2   45.30   15.20
  -5  -5   2    0.30   16.80
  -2  -6   2  114.89   15.20
  -3  -6   2  261.67   18.30
  -4  -6   2  155.98   18.70
  -5  -6   2   60.19   19.30
  -2  -7   2   70.99   17.40
  -3  -7   2  149.88   18.40
  -4  -7   2   90.49   20.30
  -2  -1   3  841.92    8.70
  -3  -1   3  712.43    9.70
  -2  -2   3  553.84    9.90
  -3  -2   3  460.65   10.60
  -2  -3   3  538.35   11.00
  -3  -3   3  440.76   12.20
  -4  -3   3  339.67   13.20
  -2  -4   3  426.06   13.00
  -3  -4   3  603.74   15.50
  -4  -4   3  136.19   14.00
  -5  -4   3  124.39   15.70
  -2  -5   3   30.30   12.80
  -3  -5   3   60.29   14.00
  -4  -5   3   38.80   15.20
  -5  -5   3   44.40   17.30
  -3  -6   3  292.27   18.20
  -4  -6   3  102.49   18.00
  -5  -6   3   91.49   20.30
  -3  -7   3  162.38   17.70
  -3  -1   4  234.48    7.80
  -3  -2   4  187.68    9.20
  -3  -3   4  937.41   15.20
  -4  -3   4  183.38   12.20
  -3  -4   4  417.66   14.40
  -4  -4   4   69.89   13.30
  -3  -5   4  457.25   17.60
  -4  -5   4   96.99   15.40
  -5  -5   4   26.10   16.40
  -4  -6   4  127.89   19.30
  -5  -6   4   66.49   19.70
  -4  -3   5  267.97   13.10
  -4  -4   5   -6.20   13.50
  -5  -5   5   74.29   18.00
   1   5  -2   36.60   10.40
   1   4  -2   67.09    8.00
   1   3  -2  294.87    7.80
   1   5  -1  549.15   14.00
   0   5  -1  626.64   15.80
   1   4  -1   11.20    7.50
   0   4  -1  263.37   10.00
   1   3  -1 2075.29   14.70
   0   3  -1 3021.90   18.80
   0   6   0  173.68   15.20
   1   5   0  726.23   14.30
   0   5   0  704.33   16.90
  -1   5   0  124.89   12.90
   1   4   0 1681.73   17.00
   0   4   0  301.07   10.60
  -1   4   0  274.67   11.60
   1   3   0 2860.31   16.10
   0   3   0 4093.29   22.20
  -1   3   0 1083.99   14.90
   0   2   0 9999.00   26.20
  -1   2   0  214.18    6.30
   0   8   1   66.39   20.20
   0   7   1   19.40   15.20
  -1   7   1   47.90   17.30
   1   6   1   75.89   13.50
   0   6   1  173.68   15.50
  -1   6   1  135.29   16.00
   1   5   1  187.38   11.20
   0   5   1  319.57   14.00
  -1   5   1   28.40   12.80
  -2   5   1  112.89   14.70
   1   4   1  522.45   11.40
   0   4   1   51.29    8.80
  -1   4   1  236.08   11.70
  -2   4   1  409.86   13.90
   1   3   1  405.56    8.80
   0   3   1 2605.74   18.10
  -1   3   1  284.77   10.90
  -2   3   1  517.95   12.40
   0   2   1   63.99    4.30
  -1   2   1  238.78    6.60
  -2   2   1   12.60    8.50
  -3   2   1  364.06   10.40
  -2   1   1 1164.28   10.10
  -3   1   1  463.15    8.90
   0   8   2   -8.80   20.40
  -1   8   2   36.00   21.80
   0   7   2   34.80   16.60
  -1   7   2  112.79   18.40
  -2   7   2  111.69   18.20
   1   6   2  156.28   14.80
   0   6   2   25.60   14.80
  -1   6   2  270.27   18.30
  -2   6   2  446.96   20.60
   1   5   2   63.89   10.90
   0   5   2   12.10   11.60
  -1   5   2   75.49   13.90
  -2   5   2  153.08   15.80
  -3   5   2   74.59   15.70
   1   4   2  332.37   10.40
   0   4   2   65.89    9.60
  -1   4   2  226.68   12.20
  -2   4   2 1190.18   18.90
  -3   4   2  332.37   15.70
   0   3   2  254.57    9.50
  -1   3   2  312.27   10.50
  -2   3   2 1949.90   18.70
  -3   3   2  546.75   14.00
  -4   3   2  232.18   13.90
   0   2   2  326.37    6.60
  -1   2   2   26.00    5.30
  -2   2   2 1289.57   13.90
  -3   2   2  363.76   10.20
  -1   1   2   72.59    3.60
  -2   1   2 2437.66   14.40
  -3   1   2 1555.74   13.30
   0   8   3   21.70   20.20
   0   7   3   54.09   16.60
  -1   7   3   27.80   17.00
  -2   7   3   67.89   17.50
   0   6   3   79.39   15.60
  -1   6   3  131.19   16.80
  -2   6   3  208.98   19.30
  -3   6   3  121.49   19.60
   0   5   3   13.00   12.20
  -1   5   3   35.00   14.10
  -2   5   3  117.49   16.00
  -3   5   3   57.09   16.10
  -4   5   3  150.18   18.10
   0   4   3  150.48   10.40
  -1   4   3  138.39   11.90
  -2   4   3  441.46   15.60
  -3   4   3   86.19   15.00
  -4   4   3  274.77   16.90
   0   3   3  109.19    7.70
  -1   3   3  172.38    9.50
  -2   3   3  641.94   14.10
  -3   3   3  543.85   14.80
  -1   2   3   33.80    6.00
  -2   2   3  252.27    8.80
  -3   2   3  214.08   10.30
  -2   1   3  648.14    8.70
  -3   1   3  867.21   11.00
   0   7   4   73.99   16.90
  -1   7   4   63.29   17.40
   0   6   4  191.48   16.40
  -1   6   4  129.89   17.60
  -2   6   4  264.17   19.50
  -3   6   4   33.20   19.00
  -4   6   4   15.90   20.90
   0   5   4   -5.00   12.40
  -1   5   4   92.79   15.10
  -2   5   4   36.10   15.20
  -3   5   4   38.30   16.70
  -4   5   4   22.70   18.00
  -1   4   4  312.27   13.50
  -2   4   4  195.18   14.30
  -3   4   4  125.49   14.70
  -4   4   4   23.30   14.60
  -1   3   4  405.96   11.70
  -2   3   4  518.95   13.40
  -3   3   4  239.88   13.30
  -2   2   4   30.50    7.50
  -3   2   4  275.97   11.20
  -3   1   4   63.49    6.80
  -1   7   5   53.39   17.20
  -2   7   5   49.20   18.00
  -1   6   5  299.37   19.10
  -2   6   5   75.99   18.10
  -3   6   5   32.20   18.80
  -4   6   5   60.49   21.80
  -1   5   5  199.58   15.80
  -2   5   5   99.49   15.80
  -3   5   5   93.09   17.20
  -4   5   5   73.99   18.30
  -2   4   5  205.18   14.40
  -3   4   5   45.20   14.60
  -2   3   5  440.06   13.10
  -3   3   5  410.36   14.30
  -3   2   5   62.09    9.60
  -3   6   6   51.49   20.00
  -3   5   6  135.99   17.90
  -4   5   6  127.19   19.60
  -3   4   6  121.39   15.10
   0   4  -1  261.47    8.20
  -1   5   0  153.18   10.90
   0   4   0  341.77    8.50
  -1   4   0  290.47   10.10
   0   3   0 3976.40   18.50
  -1   3   0 1132.69   14.20
  -1   5   1   26.70   11.00
  -2   5   1  107.69   13.40
   0   4   1   54.29    6.60
  -1   4   1  253.57   10.40
  -2   4   1  353.36   13.60
   0   3   1 2622.44   14.40
  -1   3   1  337.07    9.70
  -2   3   1  518.55   12.20
  -1   2   1  230.28    6.60
  -2   2   1  111.19    8.70
  -3   2   1  356.26   12.00
  -2   1   1 1211.98   11.70
  -3   1   1  446.96   11.00
  -3  -1   1  504.25    8.70
  -1   5   2   97.49   12.20
  -2   5   2  158.78   14.30
  -3   5   2   70.89   15.90
   0   4   2   50.89    7.00
  -1   4   2  195.68   10.40
  -2   4   2 1194.38   18.60
  -3   4   2  391.16   16.20
   0   3   2  252.87    7.00
  -1   3   2  315.97    9.40
  -2   3   2 1835.92   19.40
  -3   3   2  488.55   14.90
  -4   3   2  216.38   15.90
  -1   2   2   19.10    5.20
  -2   2   2 1201.98   14.60
  -3   2   2  376.36   12.40
  -4   2   2  108.59   13.20
  -1   1   2   72.49    3.90
  -2   1   2 2428.36   16.30
  -3   1   2 1499.75   16.40
  -4   1   2  163.58   12.30
  -3  -1   2 2028.80   14.10
  -3   6   3  152.38   18.60
  -1   5   3   34.40   11.50
  -2   5   3  106.09   14.50
  -3   5   3   66.89   16.80
  -4   5   3  161.98   19.20
  -1   4   3  164.18   10.50
  -2   4   3  461.45   14.70
  -3   4   3  104.19   15.20
  -4   4   3  272.77   18.30
  -1   3   3  162.78    8.80
  -2   3   3  633.64   13.60
  -3   3   3  543.55   15.80
  -4   3   3  272.07   16.40
  -1   2   3   25.00    5.70
  -2   2   3  252.67    9.50
  -3   2   3  196.48   11.60
  -4   2   3  159.58   13.90
  -5   2   3  384.96   17.90
  -1   1   3  733.03    8.40
  -2   1   3  624.04   10.10
  -3   1   3  964.40   14.00
  -4   1   3   92.49   12.10
  -5   1   3  250.67   15.10
  -3  -1   3  702.43   10.10
  -3   6   4   36.70   19.00
  -4   6   4   17.80   20.70
  -1   5   4   79.09   12.00
  -2   5   4   38.90   13.70
  -3   5   4   12.10   16.10
  -4   5   4   14.20   19.80
  -1   4   4  254.77   11.00
  -2   4   4  195.08   13.40
  -3   4   4  122.39   15.00
  -4   4   4   17.40   16.60
  -5   4   4  165.08   19.90
  -1   3   4  394.96   10.30
  -2   3   4  510.75   13.70
  -3   3   4  202.38   14.10
  -4   3   4  177.98   16.50
  -5   3   4  188.18   18.50
  -2   2   4   27.30    8.70
  -3   2   4  278.57   12.90
  -4   2   4  140.89   15.50
  -5   2   4  153.68   16.80
  -2   1   4 1272.67   13.80
  -3   1   4   52.49    9.80
  -4   1   4    3.00   11.80
  -5   1   4  237.08   15.60
  -3  -1   4  233.18    7.30
  -3   6   5    0.80   17.50
  -2   5   5  105.39   14.30
  -3   5   5  113.99   17.40
  -4   5   5   70.09   19.10
  -2   4   5  226.08   14.30
  -3   4   5   30.60   15.10
  -4   4   5    3.80   17.00
  -5   4   5   90.29   20.60
  -2   3   5  393.66   13.60
  -3   3   5  398.76   16.30
  -4   3   5  133.79   16.60
  -5   3   5  237.18   20.10
  -2   2   5  454.35   11.90
  -3   2   5   74.69   11.70
  -4   2   5  118.99   14.50
  -5   2   5  220.28   18.40
  -6   2   5   30.40   19.10
  -3   1   5  109.79   10.70
  -4   1   5  115.69   12.80
  -5   1   5   26.70   14.50
  -3   6   6   53.49   19.10
  -3   5   6  146.59   18.10
  -4   5   6  107.59   19.80
  -3   4   6   96.59   16.00
  -4   4   6   13.30   17.40
  -5   4   6   29.70   20.20
  -3   3   6  156.78   15.00
  -4   3   6  408.76   19.30
  -5   3   6  121.19   19.80
  -3   2   6  106.59   12.50
  -4   2   6  370.56   17.30
  -5   2   6   48.30   17.20
  -6   2   6   29.20   20.00
  -4   1   6  393.66   15.30
  -5   1   6  148.09   15.60
  -4   3   7  288.57   18.60
  -5   3   7  280.07   20.30
  -5   2   7  120.79   17.90
  -5   1   7  182.88   15.50
  -1  -2  -1 2423.36   13.40
  -1  -3  -1  437.06    8.00
  -2  -3  -1  311.47    9.50
  -2  -4  -1  802.22   12.90
  -2  -1   0  906.61   10.00
  -1  -2   0 5779.32   20.00
  -2  -2   0   29.10    6.20
  -3  -2   0  307.37   10.90
  -1  -3   0 2581.84   17.10
  -2  -3   0  167.08    8.20
  -3  -3   0  391.56   12.50
  -1  -4   0 1850.71   15.10
  -2  -4   0  554.54   12.10
  -3  -4   0  359.96   13.90
  -3  -5   0   38.60   12.40
  -2  -1   1  717.53    9.10
  -3  -1   1  498.25   10.70
  -4  -1   1  425.16   13.30
  -1  -2   1  228.68    5.50
  -2  -2   1  141.99    6.80
  -3  -2   1   83.79    9.00
  -4  -2   1  227.68   13.00
  -1  -3   1 2095.99   14.30
  -2  -3   1  238.18    8.70
  -3  -3   1  570.24   13.90
  -4  -3   1  450.35   15.40
  -1  -4   1   -4.90    6.80
  -2  -4   1  256.47   10.40
  -3  -4   1  327.07   13.70
  -4  -4   1  196.18   15.20
  -5  -4   1  139.79   17.60
  -2  -5   1   52.99   10.40
  -3  -5   1  124.29   13.40
  -4  -5   1  112.59   15.40
  -5  -5   1   33.80   18.00
  -4  -6   1  156.18   17.80
  -2   1   2 2358.36   12.40
  -3   1   2 1497.65   13.90
  -2  -1   2 1012.00   10.30
  -3  -1   2 1998.50   17.30
  -4  -1   2   98.99   11.40
  -5  -1   2  232.58   14.90
  -2  -2   2  541.65    9.40
  -3  -2   2  895.91   13.70
  -4  -2   2   70.39   12.50
  -5  -2   2   40.30   14.30
  -1  -3   2  296.47    7.60
  -2  -3   2  422.36   10.30
  -3  -3   2  914.01   15.50
  -4  -3   2  228.78   14.70
  -5  -3   2  160.98   16.70
  -1  -4   2   59.19    7.20
  -2  -4   2  663.23   12.60
  -3  -4   2  671.63   15.30
  -4  -4   2  283.97   15.80
  -5  -4   2  131.49   17.50
  -2  -5   2   71.29   10.70
  -3  -5   2   80.59   13.00
  -4  -5   2   44.20   15.60
  -5  -5   2   12.60   17.10
  -4  -6   2  195.98   17.40
  -5  -6   2   60.49   19.90
  -2   1   3  632.04    7.60
  -3   1   3  926.21   11.80
  -2  -1   3  806.62    9.90
  -3  -1   3  698.73   11.90
  -4  -1   3  242.18   12.40
  -5  -1   3  203.48   14.70
  -2  -2   3  543.65   10.50
  -3  -2   3  520.05   12.00
  -4  -2   3   65.59   11.90
  -5  -2   3  250.17   16.20
  -6  -2   3  179.68   18.10
  -2  -3   3  445.96   10.90
  -3  -3   3  448.96   13.20
  -4  -3   3  356.66   15.10
  -5  -3   3  136.69   17.10
  -6  -3   3  169.08   19.90
  -2  -4   3  411.56   11.90
  -3  -4   3  592.34   15.00
  -4  -4   3  145.09   15.20
  -5  -4   3  124.79   17.60
  -6  -4   3  339.77   22.00
  -2  -5   3   40.10   11.10
  -3  -5   3   71.99   13.70
  -4  -5   3   27.30   16.10
  -5  -5   3   36.70   19.00
  -3  -6   3  320.87   16.10
  -4  -6   3  129.69   17.70
  -5  -6   3   59.69   19.40
  -2   1   4 1244.58   10.50
  -3   1   4   62.59    7.10
  -3  -1   4  231.98    9.90
  -4  -1   4   33.60   11.00
  -5  -1   4  272.97   14.90
  -6  -1   4  177.18   17.70
  -3  -2   4  205.18   10.50
  -4  -2   4  138.89   12.50
  -5  -2   4   33.90   14.60
  -6  -2   4   57.29   17.10
  -3  -3   4  950.50   15.90
  -4  -3   4  198.58   14.30
  -5  -3   4  284.77   18.50
  -6  -3   4  219.98   19.90
  -3  -4   4  416.76   14.60
  -4  -4   4   63.49   14.60
  -5  -4   4   35.90   17.60
  -6  -4   4   82.99   20.20
  -3  -5   4  451.35   16.20
  -4  -5   4  102.39   15.80
  -5  -5   4   34.90   18.90
  -4  -6   4  168.28   18.70
  -5  -6   4   74.09   20.60
  -3  -1   5   96.09    9.00
  -4  -1   5   93.19   11.30
  -5  -1   5   71.29   14.60
  -6  -1   5   93.49   17.30
  -4  -2   5   33.50   12.00
  -5  -2   5   43.30   15.20
  -6  -2   5   46.90   17.40
  -4  -3   5  293.87   14.90
  -5  -3   5  214.68   17.40
  -6  -3   5   29.40   19.00
  -4  -4   5   12.60   14.30
  -5  -4   5   27.60   17.40
  -5  -5   5  107.09   18.80
  -4  -1   6  359.96   14.10
  -5  -1   6  473.25   17.20
  -4  -2   6  114.79   13.60
  -5  -2   6  373.56   17.30
  -6  -2   6   15.60   17.30
  -5  -3   6  810.92   21.30
  -6  -3   6  178.58   20.50
  -5  -4   6  113.29   17.90
  -5  -1   7   95.09   14.20
  -6  -2   7   63.79   18.40
   5   3  -6  908.61   23.40
   6   2  -6   20.10   18.90
   5   2  -6  432.26   19.20
   5   1  -6  519.75   17.90
   5   5  -5   47.50   18.50
   5   4  -5   -2.70   18.30
   4   4  -5   -2.60   14.30
   6   3  -5   64.29   21.10
   5   3  -5  230.58   18.40
   4   3  -5  300.57   16.00
   6   2  -5   27.80   19.60
   5   2  -5   45.30   16.80
   4   2  -5   40.90   13.00
   6   1  -5  121.49   19.10
   5   1  -5   43.10   14.60
   4   1  -5   81.09   12.20
   5   5  -4   33.70   19.20
   4   5  -4  101.49   15.80
   5   4  -4   45.40   18.20
   4   4  -4   58.79   15.20
   3   4  -4  417.26   14.80
   6   3  -4  269.47   21.60
   5   3  -4  319.27   19.10
   4   3  -4  196.68   15.40
   3   3  -4  975.00   17.00
   6   2  -4   64.79   19.00
   5   2  -4   20.20   15.40
   4   2  -4  131.09   13.50
   3   2  -4  191.88   11.00
   6   1  -4  200.28   20.00
   5   1  -4  295.57   16.30
   4   1  -4   19.50   12.00
   3   1  -4  219.88   10.20
   3  -1  -4   71.49    7.70
   4   6  -3  105.09   17.20
   5   5  -3   26.70   18.80
   4   5  -3   50.99   16.20
   3   5  -3   95.49   12.90
   5   4  -3  191.68   18.90
   4   4  -3  104.79   15.30
   3   4  -3  632.14   15.40
   6   3  -3  161.88   20.40
   5   3  -3  125.49   18.00
   4   3  -3  365.76   15.80
   3   3  -3  458.15   13.50
   2   3  -3  518.15   11.20
   6   2  -3  138.19   19.60
   5   2  -3  251.17   17.30
   4   2  -3   49.50   13.10
   3   2  -3  547.55   12.70
   2   2  -3  534.15   10.90
   6   1  -3  213.38   19.10
   5   1  -3  201.58   15.80
   4   1  -3  212.68   12.80
   3   1  -3  712.93   12.80
   2   1  -3  841.42   10.50
   3  -1  -3  955.50   11.90
   2  -1  -3  572.84    7.80
   5   6  -2   74.49   21.00
   4   6  -2  206.08   19.00
   5   5  -2   24.80   19.20
   4   5  -2   70.19   16.60
   3   5  -2  112.59   13.50
   2   5  -2   57.49    9.70
   5   4  -2  130.49   18.70
   4   4  -2  264.57   16.00
   3   4  -2  658.93   15.80
   2   4  -2  597.74   12.60
   4   3  -2  236.68   15.00
   3   3  -2  978.30   16.00
   2   3  -2  453.65   10.40
   3   2  -2  898.51   14.50
   2   2  -2  525.55    9.70
   2   1  -2  995.40   10.80
   1   1  -2  145.69    3.90
   5   6  -1  109.19   21.50
   4   6  -1  176.58   17.80
   5   5  -1   33.00   19.90
   4   5  -1  140.79   17.00
   3   5  -1  154.08   13.90
   5   4  -1  176.68   19.20
   4   4  -1  226.18   16.20
   3   4  -1  346.47   13.80
   2   4  -1  251.57   10.10
   1   4  -1    6.70    5.30
   2   3  -1  204.78    8.90
   1   3  -1 2106.19   13.60
   1   2  -1  285.17    5.70
   3   5   0   47.20   12.80
   2   4   0  448.46   11.10
   1   4   0 1735.13   13.80
   1   3   0 2740.83   17.00
   5  -1  -7  152.18   18.40
   5  -2  -7  110.79   19.70
   5  -3  -7  253.17   21.90
   4  -3  -7  279.07   19.20
   4  -4  -7   75.49   18.60
   5  -1  -6   17.90   18.00
   6  -2  -6   30.20   21.00
   5  -2  -6   30.80   18.20
   4  -2  -6  390.76   17.90
   5  -3  -6  204.08   20.30
   4  -3  -6  554.14   20.40
   4  -4  -6   26.00   18.40
   4  -5  -6  152.38   20.00
   3  -5  -6  211.88   17.70
   3  -6  -6   68.69   19.40
   5  -1  -5   50.49   16.70
   4  -1  -5   66.99   13.10
   6  -2  -5    7.60   20.80
   5  -2  -5  191.48   20.10
   4  -2  -5  138.49   15.70
   5  -3  -5  297.67   21.70
   4  -3  -5  113.29   16.40
   3  -3  -5  384.96   16.00
   5  -4  -5  120.59   20.20
   4  -4  -5   50.39   17.70
   3  -4  -5   54.99   15.40
   4  -5  -5   76.59   18.70
   3  -5  -5  147.69   17.60
   2  -5  -5   77.49   15.10
   3  -6  -5   51.99   18.50
   5  -1  -4  229.58   16.80
   4  -1  -4   11.80   12.70
   5  -2  -4  154.68   17.50
   4  -2  -4  147.29   15.40
   3  -2  -4  281.07   12.80
   5  -3  -4  220.38   19.50
   4  -3  -4  209.88   17.90
   3  -3  -4  282.07   15.00
   5  -4  -4  167.78   20.70
   4  -4  -4   17.90   17.10
   3  -4  -4  114.89   15.20
   2  -4  -4  246.18   13.00
   4  -5  -4   42.10   19.60
   3  -5  -4   22.40   16.90
   2  -5  -4   25.80   13.30
   3  -6  -4   20.80   17.80
   3   1  -3  751.52   10.70
   5  -1  -3  275.67   16.40
   4  -1  -3   64.79   12.00
   3  -1  -3  889.71   14.20
   4  -2  -3  216.28   14.70
   3  -2  -3  207.58   11.80
   4  -3  -3  287.27   16.80
   3  -3  -3  598.04   16.80
   2  -3  -3  685.23   13.60
   4  -4  -3  261.97   19.00
   3  -4  -3   59.29   15.30
   2  -4  -3  421.76   14.60
   1  -4  -3  186.68   10.80
   3  -5  -3   58.29   15.80
   2  -5  -3  121.09   14.70
   1  -5  -3   15.60   11.70
   3  -6  -3  153.48   17.20
   3   1  -2 1959.10   14.90
   4  -1  -2  182.38   12.00
   3  -1  -2 1486.25   16.50
   2  -1  -2 2414.96   15.90
   4  -2  -2  107.49   13.40
   3  -2  -2  348.27   12.80
   2  -2  -2 1252.27   15.00
   3  -3  -2  538.45   14.90
   2  -3  -2 1835.82   19.20
   1  -3  -2  394.06    9.10
   3  -4  -2  341.37   15.20
   2  -4  -2 1144.59   17.80
   1  -4  -2  315.87   10.30
   0  -4  -2   81.49    7.20
   2  -5  -2  183.88   14.50
   1  -5  -2   74.59   11.10
   3  -1  -1  484.45   11.30
   2  -1  -1 1055.29   11.60
   1  -1  -1  275.97    4.80
   3  -2  -1  406.76   12.10
   2  -2  -1   95.79    8.50
   1  -2  -1  179.08    6.10
   2  -3  -1  544.85   11.90
   1  -3  -1  353.16    9.60
   0  -3  -1 2583.84   15.50
   2  -4  -1  349.77   12.90
   1  -4  -1  181.48    9.20
   0  -4  -1   51.89    6.30
   1  -5  -1   19.60    9.80
   1  -1   0  267.17    4.50
   1  -2   0  250.17    6.00
   0  -3   0 4066.49   16.60
   6   2  -7   47.30   20.00
   5  -1  -7  159.78   17.40
   5  -2  -7  133.69   18.10
   5  -3  -7  231.08   18.40
   6   3  -6  150.18   21.20
   6   2  -6    6.20   18.30
   6   1  -6   79.29   19.00
   5   1  -6  489.15   19.20
   6  -1  -6   35.90   19.90
   5  -1  -6  128.29   16.90
   5  -2  -6   37.50   16.60
   5  -3  -6  128.39   17.50
   4  -3  -6  555.44   18.00
   6   3  -5   15.00   18.80
   5   3  -5  194.88   17.20
   6   2  -5   16.50   19.30
   6   1  -5  106.19   18.70
   5   1  -5   34.70   15.20
   6  -1  -5   84.39   19.20
   5  -1  -5   15.50   16.00
   6  -2  -5   25.40   19.80
   5  -2  -5  178.28   16.90
   4  -2  -5  129.29   13.30
   5  -3  -5  224.78   18.70
   4  -3  -5   99.49   14.30
   5   3  -4  331.37   18.20
   6   2  -4   28.00   18.90
   5   2  -4   22.30   14.80
   6   1  -4  200.58   19.30
   5   1  -4  262.57   17.10
   5  -1  -4  248.48   16.70
   4  -1  -4    9.10   12.40
   5  -2  -4  137.99   16.50
   4  -2  -4  159.28   13.30
   4  -3  -4  218.38   14.00
   3  -3  -4  268.97   11.70
   4   3  -3  358.26   14.70
   5   2  -3  250.77   16.90
   4   2  -3   55.59   12.30
   5   1  -3  191.38   15.80
   4   1  -3  205.88   12.80
   5  -1  -3  303.67   16.70
   4  -1  -3   80.69   11.70
   3  -1  -3  907.31   14.10
   4  -2  -3  195.38   13.20
   3  -2  -3  206.28   10.50
   4  -3  -3  258.77   14.10
   3  -3  -3  629.34   12.90
   2  -3  -3  583.14   11.60
   4   3  -2  232.18   12.70
   3   3  -2  923.91   13.70
   4   2  -2   52.09   11.30
   3   2  -2  896.71   12.80
   4   1  -2  102.09   12.10
   3   1  -2 1988.40   17.30
   4  -1  -2  177.58   12.20
   3  -1  -2 1453.55   15.80
   3  -2  -2  365.46   11.20
   2  -2  -2 1290.27   13.00
   2  -3  -2 1815.62   15.70
   1  -3  -2  314.47    6.50
   3   3  -1  536.85   12.20
   2   3  -1  172.08    6.70
   3   2  -1  131.59    8.40
   2   2  -1  123.29    5.40
   3   1  -1  500.75   10.70
   2   1  -1  691.03    8.40
   3  -1  -1  491.75   11.20
   2  -1  -1 1119.39   10.90
   2  -2  -1   77.19    6.60
   1  -2  -1  205.98    4.40
   5  -1  -7  174.68   16.60
   5  -2  -7  124.99   17.20
   6   3  -6  150.08   19.10
   6   2  -6   14.80   17.50
   5   2  -6  439.86   17.40
   6   1  -6   86.99   18.70
   5   1  -6  506.95   18.60
   6  -1  -6   75.59   19.00
   5  -1  -6  134.59   16.80
   4  -1  -6  468.45   16.10
   5  -2  -6   51.39   16.00
   4  -2  -6  377.56   15.90
   5  -3  -6  192.78   17.50
   6   3  -5   37.20   18.50
   5   3  -5  236.58   16.00
   6   2  -5   40.90   17.70
   5   2  -5   20.60   14.80
   4   2  -5   48.20   11.40
   6   1  -5  140.69   19.00
   5   1  -5   36.60   14.90
   4   1  -5   95.59   11.90
   6  -1  -5   99.49   18.80
   5  -1  -5   22.20   15.80
   4  -1  -5   83.19   13.00
   3  -1  -5  126.09   10.10
   6  -2  -5   20.60   19.10
   5  -2  -5  237.18   17.30
   4  -2  -5  133.39   13.70
   3  -2  -5   67.09   10.00
   5  -3  -5  251.07   17.90
   4  -3  -5  130.89   14.30
   3  -3  -5  380.36   13.10
   6   3  -4  257.77   20.00
   5   3  -4  326.47   16.50
   4   3  -4  161.78   12.20
   6   2  -4   56.39   18.40
   5   2  -4    8.20   14.10
   4   2  -4  136.79   11.90
   3   2  -4  219.08    9.30
   6   1  -4  208.58   19.40
   5   1  -4  271.57   16.70
   4   1  -4   25.10   11.10
   3   1  -4  203.18    9.50
   5  -1  -4  223.78   16.60
   4  -1  -4   20.10   12.70
   3  -1  -4   78.99    9.10
   2  -1  -4 1215.68   12.60
   5  -2  -4  153.58   16.90
   4  -2  -4  168.78   14.20
   3  -2  -4  303.87   11.50
   2  -2  -4   15.50    6.20
   5  -3  -4  194.78   17.80
   4  -3  -4  191.88   14.50
   3  -3  -4  265.07   11.50
   2  -3  -4  493.85    9.90
   5   3  -3  147.79   15.30
   4   3  -3  367.36   13.00
   3   3  -3  473.45   10.50
   6   2  -3  124.49   18.50
   5   2  -3  261.37   16.00
   4   2  -3  120.19   11.50
   3   2  -3  536.85   10.90
   3   1  -3  730.03   12.30
   2   1  -3  816.02    9.70
   2  -1  -3  611.44    9.40
   2  -2  -3  250.17    8.10
   2  -3  -3  688.53   10.60
   4   3  -2  213.18   12.20
   3   3  -2  934.21   12.80
   2   2  -2  522.35    7.90
   2   1  -2 1023.10   10.10
   1  -1  -2   92.79    3.30
   1  -2  -2   44.00    3.60
   1  -3  -2  286.77    6.20
   2   3  -1  179.58    6.00
  -2  -1   0  835.52    9.30
  -2   2   1   83.19    7.10
  -2   1   1 1150.58   11.10
  -3   1   1  491.25   11.10
  -2  -1   1  725.33    8.40
  -3  -1   1  465.05   10.70
  -2  -2   1  128.99    5.80
  -3  -2   1   81.19    8.20
  -4  -2   1  226.18   12.50
  -2  -3   1  223.08    6.70
  -3  -3   1  620.34   11.50
  -2   3   2 1719.73   16.30
  -2   2   2 1206.88   12.20
  -3   2   2  393.56   11.00
  -2   1   2 2438.36   14.90
  -3   1   2 1500.65   15.60
  -4   1   2  141.39   12.50
  -2  -1   2  979.70   10.00
  -3  -1   2 1971.30   16.90
  -4  -1   2   79.19   11.30
  -5  -1   2  240.88   15.30
  -2  -2   2  531.75    8.20
  -3  -2   2  912.41   12.80
  -4  -2   2   64.89   11.80
  -5  -2   2   34.70   14.40
  -2  -3   2  474.25    8.30
  -3  -3   2  914.71   13.00
  -4  -3   2  217.68   13.00
  -5  -3   2  117.69   15.20
  -2   3   3  591.34   11.30
  -3   3   3  603.54   13.70
  -4   3   3  273.37   14.70
  -1   2   3   35.60    4.30
  -2   2   3  229.88    7.80
  -3   2   3  201.38   10.30
  -4   2   3  195.88   13.70
  -2   1   3  624.94    9.30
  -3   1   3  939.71   13.80
  -4   1   3   81.49   11.80
  -5   1   3  253.37   15.80
  -2  -1   3  783.02    9.70
  -3  -1   3  683.03   12.10
  -4  -1   3  254.07   13.10
  -5  -1   3  209.98   15.30
  -2  -2   3  526.95    9.10
  -3  -2   3  527.45   11.00
  -4  -2   3   57.59   12.00
  -5  -2   3  200.68   15.40
  -6  -2   3  135.19   17.70
  -2  -3   3  535.15    9.10
  -3  -3   3  472.05   11.70
  -4  -3   3  385.56   13.30
  -5  -3   3  164.18   15.20
  -2   3   4  546.05   10.70
  -3   3   4  230.18   12.20
  -4   3   4  196.48   14.40
  -5   3   4  184.08   16.50
  -2   2   4   24.90    7.20
  -3   2   4  279.07   11.30
  -4   2   4  182.68   14.40
  -2   1   4 1204.18   12.50
  -3   1   4   49.00    9.40
  -4   1   4   -0.10   12.20
  -5   1   4  210.58   15.90
  -3  -1   4  229.58   10.20
  -4  -1   4   27.80   11.50
  -5  -1   4  266.67   16.60
  -6  -1   4  150.38   18.10
  -3  -2   4  171.08   10.00
  -4  -2   4  148.99   12.90
  -5  -2   4   21.90   15.10
  -6  -2   4   25.10   17.80
  -3  -3   4  962.70   14.30
  -4  -3   4  189.88   13.30
  -5  -3   4  299.37   16.50
  -6  -3   4  216.48   19.50
  -3   3   5  388.86   12.70
  -4   3   5  129.09   13.40
  -5   3   5  241.68   17.50
  -2   2   5  433.26    9.80
  -3   2   5   36.90   10.20
  -4   2   5  130.59   13.00
  -5   2   5  219.18   16.70
  -6   2   5   33.50   18.70
  -3   1   5   82.29   10.20
  -4   1   5  125.49   13.60
  -5   1   5   24.70   15.70
  -6   1   5  116.99   18.60
  -3  -1   5   80.69    9.80
  -4  -1   5  105.29   12.80
  -5  -1   5   48.50   15.30
  -6  -1   5  113.39   18.00
  -4  -2   5   28.60   11.80
  -5  -2   5   55.89   15.50
  -6  -2   5   51.19   17.80
  -4  -3   5  261.47   13.40
  -5  -3   5  216.38   16.00
  -6  -3   5   60.69   19.40
  -3   2   6  107.39   11.30
  -4   2   6  354.16   15.70
  -5   2   6   38.80   16.80
  -6   2   6   58.69   19.80
  -4   1   6  380.16   14.90
  -5   1   6  136.49   16.20
  -6   1   6   48.50   19.10
  -4  -1   6  363.76   15.10
  -5  -1   6  430.96   17.40
  -6  -1   6   79.09   18.70
  -4  -2   6  155.48   13.70
  -5  -2   6  333.47   17.50
  -6  -2   6   28.10   18.20
  -5  -3   6  822.02   20.70
  -6  -3   6  177.58   19.30
  -4   2   7   82.19   14.20
  -5   2   7  123.79   18.00
  -5   1   7  148.79   16.80
  -6   1   7   61.69   18.60
  -5  -1   7   90.29   15.30
  -6  -1   7   34.20   17.70
  -6  -2   7   38.10   17.90
  -2  -1   0  825.12    9.10
  -2  -2   0   27.70    5.00
  -3  -2   0  329.47    9.40
  -2   3   1  491.25   10.80
  -2   2   1  115.69    7.60
  -3   2   1  342.87   10.90
  -2   1   1 1137.59   11.20
  -3   1   1  432.26   11.00
  -2  -1   1  723.53    8.50
  -3  -1   1  479.75   10.70
  -4  -1   1  427.56   13.00
  -2  -2   1  156.48    5.60
  -3  -2   1   76.19    7.70
  -4  -2   1  241.88   12.20
  -2  -3   1  202.18    6.20
  -3  -3   1  545.45   11.00
  -1   3   2  335.97    6.60
  -2   3   2 1866.01   15.50
  -3   3   2  548.05   13.50
  -4   3   2  205.18   14.50
  -2   2   2 1245.08   13.20
  -3   2   2  341.97   11.30
  -4   2   2  116.49   12.90
  -2   1   2 2441.86   15.50
  -3   1   2 1495.65   16.20
  -4   1   2  153.88   12.70
  -2  -1   2 1006.60   10.10
  -3  -1   2 1914.41   16.90
  -4  -1   2  110.39   11.20
  -5  -1   2  227.88   15.90
  -2  -2   2  556.44    8.10
  -3  -2   2  939.31   12.40
  -4  -2   2   73.49   11.10
  -5  -2   2   43.40   13.50
  -3  -3   2  930.21   12.80
  -4  -3   2  218.38   12.70
  -2   3   3  535.55   11.60
  -3   3   3  545.15   14.00
  -4   3   3  288.67   15.40
  -2   2   3  209.18    7.90
  -3   2   3  188.38   10.60
  -4   2   3  182.78   13.80
  -5   2   3  403.76   17.80
  -2   1   3  636.04   10.00
  -3   1   3  901.41   14.20
  -4   1   3   88.79   12.30
  -5   1   3  235.18   16.40
  -2  -1   3  759.42    9.90
  -3  -1   3  743.23   12.60
  -4  -1   3  266.07   13.20
  -5  -1   3  193.28   15.60
  -6  -1   3  149.88   18.10
  -3  -2   3  543.65   11.40
  -4  -2   3  251.37   12.60
  -5  -2   3  237.18   15.30
  -6  -2   3  122.79   17.80
  -3  -3   3  468.05   11.30
  -4  -3   3  346.67   13.80
  -2   3   4  431.36   11.20
  -3   3   4  245.58   12.70
  -4   3   4  155.68   15.10
  -5   3   4  184.78   17.90
  -2   2   4   38.60    7.10
  -3   2   4  270.17   11.90
  -4   2   4  166.58   14.70
  -5   2   4  129.29   16.80
  -6   2   4   30.10   19.50
  -2   1   4 1237.28   13.50
  -3   1   4   62.29    9.80
  -4   1   4   13.70   12.50
  -5   1   4  223.08   17.30
  -6   1   4   64.79   18.70
  -3  -1   4  233.98   10.50
  -4  -1   4   24.40   12.00
  -5  -1   4  283.47   16.40
  -6  -1   4  220.48   19.00
  -3  -2   4  196.18    9.70
  -4  -2   4  139.89   12.20
  -5  -2   4   40.30   14.40
  -6  -2   4   44.80   17.10
  -4  -3   4  203.08   12.40
  -5  -3   4  317.37   16.50
  -3   3   5  402.26   14.10
  -4   3   5  119.99   14.50
  -5   3   5  207.08   19.10
  -6   3   5   50.59   21.20
  -3   2   5   58.09   11.20
  -4   2   5  104.29   14.30
  -5   2   5  220.88   18.30
  -6   2   5   48.10   19.90
  -3   1   5  105.79   11.20
  -4   1   5  121.99   14.40
  -5   1   5   40.30   16.00
  -6   1   5  102.89   19.60
  -3  -1   5   85.99    9.90
  -4  -1   5   93.99   12.90
  -5  -1   5   56.39   15.30
  -6  -1   5  131.19   18.60
  -5  -2   5   50.09   15.20
  -6  -2   5   38.60   17.20
  -5  -3   5  270.97   15.90
  -4   3   6  467.15   18.10
  -5   3   6  142.89   19.50
  -4   2   6  340.47   16.40
  -5   2   6   51.79   17.80
  -6   2   6   38.60   20.90
  -4   1   6  385.06   16.80
  -5   1   6  125.49   17.50
  -6   1   6   83.99   19.80
  -4  -1   6  369.86   16.00
  -5  -1   6  476.25   19.00
  -6  -1   6   51.19   18.30
  -5  -2   6  403.16   17.50
  -6  -2   6    0.50   18.00
  -6  -3   6  154.28   19.30
  -5   3   7  220.38   19.80
  -5   2   7  160.08   18.60
  -5   1   7  172.88   18.30
   0   0   0    0.00    0.00
;
_shelx_hkl_checksum              22479
_olex2_submission_special_instructions 'No special instructions were received'
loop_
_space_group_symop_operation_xyz
'x, y, z'
loop_
_atom_site_label
_atom_site_type_symbol
_atom_site_fract_x
_atom_site_fract_y
_atom_site_fract_z
_atom_site_U_iso_or_equiv
_atom_site_adp_type
_atom_site_occupancy
_atom_site_site_symmetry_order
_atom_site_calc_flag
_atom_site_refinement_flags_posn
Co1 Co -0.003(4) -0.0005(16) -0.006(3) 0.015(2) Uiso 1 1 d .
N1 N -0.018(5) 0.316(4) 0.003(4) 0.007(5) Uiso 1 1 d D
N2 N 0.010(6) 0.675(4) 0.016(4) 0.007(5) Uiso 1 1 d D
O4 O -0.175(6) -0.019(4) 0.817(4) 0.035(6) Uiso 1 1 d D
C11 C -0.240(7) 0.412(4) 0.016(7) 0.004(8) Uiso 1 1 d D
H11A H -0.2630 0.3911 0.1059 0.004 Uiso 1 1 calc R
H11B H -0.3775 0.3438 -0.0379 0.004 Uiso 1 1 calc R
C8 C -0.337(5) 0.048(3) 0.734(3) 0.016(7) Uiso 1 1 d D
C9 C 0.064(8) 0.375(3) -0.122(5) 0.004(8) Uiso 1 1 d D
H9A H -0.0637 0.3526 -0.1976 0.004 Uiso 1 1 calc R
H9B H 0.2110 0.3164 -0.1325 0.004 Uiso 1 1 calc R
C12 C -0.257(5) 0.628(4) -0.017(8) 0.023(11) Uiso 1 1 d D
H12A H -0.3223 0.6551 -0.1084 0.028 Uiso 1 1 calc R
H12B H -0.3483 0.6912 0.0383 0.028 Uiso 1 1 calc R
O3 O -0.529(7) 0.117(5) 0.744(8) 0.035(6) Uiso 1 1 d D
C7 C -0.098(5) 0.010(5) 0.223(3) 0.016(7) Uiso 1 1 d D
C14 C 0.185(7) 0.593(3) 0.125(5) 0.013(9) Uiso 1 1 d D
H14A H 0.1380 0.6177 0.2081 0.015 Uiso 1 1 calc R
H14B H 0.3479 0.6545 0.1250 0.015 Uiso 1 1 calc R
C10 C 0.110(10) 0.589(4) -0.088(6) 0.014(10) Uiso 1 1 d D
H10A H 0.2858 0.6151 -0.0687 0.017 Uiso 1 1 calc R
H10B H 0.0533 0.6627 -0.1682 0.017 Uiso 1 1 calc R
C13 C 0.185(6) 0.375(4) 0.109(5) 0.012(9) Uiso 1 1 d D
H13A H 0.3397 0.3444 0.0880 0.014 Uiso 1 1 calc R
H13B H 0.1628 0.3057 0.1900 0.014 Uiso 1 1 calc R
C6 C -0.002(5) -0.037(4) 0.464(3) 0.032(5) Uiso 1 1 d D
H6 H 0.1437 -0.0867 0.4558 0.038 Uiso 1 1 calc R
C1 C -0.160(5) 0.027(4) 0.354(3) 0.032(5) Uiso 1 1 d DG
C2 C -0.378(5) 0.102(4) 0.367(4) 0.032(5) Uiso 1 1 d DG
H2 H -0.4838 0.1443 0.2936 0.038 Uiso 1 1 calc R
C3 C -0.439(5) 0.113(4) 0.490(4) 0.032(5) Uiso 1 1 d DG
H3 H -0.5852 0.1632 0.4990 0.038 Uiso 1 1 calc R
C4 C -0.281(7) 0.050(4) 0.600(3) 0.032(5) Uiso 1 1 d DG
C5 C -0.063(6) -0.025(4) 0.588(3) 0.032(5) Uiso 1 1 d DG
H5 H 0.0423 -0.0678 0.6612 0.038 Uiso 1 1 calc R
O1 O 0.116(6) -0.017(5) 0.220(7) 0.035(6) Uiso 1 1 d D
O2 O -0.264(7) 0.040(5) 0.131(4) 0.035(6) Uiso 1 1 d D
O1W O 0.329(13) -0.035(5) -0.059(13) 0.013(7) Uiso 1 1 d .
H1WA H 0.4543 0.0009 0.0039 0.020 Uiso 1 1 d GR
H1WB H 0.3483 0.0396 -0.1304 0.020 Uiso 1 1 d GR
loop_
_atom_type_symbol
_atom_type_description
_atom_type_scat_dispersion_real
_atom_type_scat_dispersion_imag
_atom_type_scat_source
C C 0.0033 0.0016 'International Tables Vol C Tables 4.2.6.8 and 6.1.1.4'
H H 0.0000 0.0000 'International Tables Vol C Tables 4.2.6.8 and 6.1.1.4'
Co Co 0.3494 0.9721 'International Tables Vol C Tables 4.2.6.8 and 6.1.1.4'
N N 0.0061 0.0033 'International Tables Vol C Tables 4.2.6.8 and 6.1.1.4'
O O 0.0106 0.0060 'International Tables Vol C Tables 4.2.6.8 and 6.1.1.4'
loop_
_geom_angle_atom_site_label_1
_geom_angle_atom_site_label_2
_geom_angle_atom_site_label_3
_geom_angle
_geom_angle_site_symmetry_1
_geom_angle_site_symmetry_3
N1 Co1 N2 172(2) . 1_545
N1 Co1 O1 89.2(16) . .
N1 Co1 O2 74.6(13) . .
N2 Co1 O1 82.7(17) 1_545 .
N2 Co1 O2 98.7(12) 1_545 .
O4 Co1 N1 95(2) 1_554 .
O4 Co1 N2 91.8(15) 1_554 1_545
O4 Co1 O1 165.9(12) 1_554 .
O4 Co1 O2 110.7(18) 1_554 .
O4 Co1 O1W 93(4) 1_554 .
O2 Co1 O1 57.8(9) . .
O1W Co1 N1 104.7(10) . .
O1W Co1 N2 79.2(14) . 1_545
O1W Co1 O1 99(4) . .
O1W Co1 O2 157(4) . .
C11 N1 Co1 124.2(19) . .
C9 N1 Co1 98.7(19) . .
C9 N1 C11 111(3) . .
C9 N1 C13 107(4) . .
C13 N1 Co1 105(2) . .
C13 N1 C11 110(4) . .
C12 N2 Co1 96(2) . 1_565
C12 N2 C14 128(4) . .
C12 N2 C10 104(3) . .
C14 N2 Co1 119(2) . 1_565
C14 N2 C10 96(4) . .
C10 N2 Co1 114(2) . 1_565
C8 O4 Co1 145(3) . 1_556
N1 C11 H11A 107.2 . .
N1 C11 H11B 107.2 . .
N1 C11 C12 121(3) . .
H11A C11 H11B 106.8 . .
C12 C11 H11A 107.2 . .
C12 C11 H11B 107.2 . .
O4 C8 O3 132(5) . .
O4 C8 C4 113(3) . .
O3 C8 C4 115(3) . .
N1 C9 H9A 113.0 . .
N1 C9 H9B 113.0 . .
N1 C9 C10 94(3) . .
H9A C9 H9B 110.4 . .
C10 C9 H9A 113.0 . .
C10 C9 H9B 113.0 . .
N2 C12 C11 94(2) . .
N2 C12 H12A 112.9 . .
N2 C12 H12B 112.9 . .
C11 C12 H12A 112.9 . .
C11 C12 H12B 112.9 . .
H12A C12 H12B 110.4 . .
O1 C7 C1 116(3) . .
O2 C7 C1 115(2) . .
O2 C7 O1 128(5) . .
N2 C14 H14A 109.9 . .
N2 C14 H14B 109.9 . .
N2 C14 C13 109(4) . .
H14A C14 H14B 108.3 . .
C13 C14 H14A 109.9 . .
C13 C14 H14B 109.9 . .
N2 C10 C9 124(3) . .
N2 C10 H10A 106.4 . .
N2 C10 H10B 106.4 . .
C9 C10 H10A 106.4 . .
C9 C10 H10B 106.4 . .
H10A C10 H10B 106.5 . .
N1 C13 C14 108(3) . .
N1 C13 H13A 110.0 . .
N1 C13 H13B 110.0 . .
C14 C13 H13A 110.0 . .
C14 C13 H13B 110.0 . .
H13A C13 H13B 108.4 . .
C1 C6 H6 120.0 . .
C1 C6 C5 120.0 . .
C5 C6 H6 120.0 . .
C6 C1 C7 119.9(11) . .
C6 C1 C2 120.0 . .
C2 C1 C7 120.1(11) . .
C1 C2 H2 120.0 . .
C1 C2 C3 120.0 . .
C3 C2 H2 120.0 . .
C2 C3 H3 120.0 . .
C2 C3 C4 120.0 . .
C4 C3 H3 120.0 . .
C3 C4 C8 124(2) . .
C3 C4 C5 120.0 . .
C5 C4 C8 116(2) . .
C6 C5 H5 120.0 . .
C4 C5 C6 120.0 . .
C4 C5 H5 120.0 . .
C7 O1 Co1 85(3) . .
C7 O2 Co1 88(2) . .
Co1 O1W H1WA 111.8 . .
Co1 O1W H1WB 110.8 . .
H1WA O1W H1WB 106.6 . .
loop_
_geom_bond_atom_site_label_1
_geom_bond_atom_site_label_2
_geom_bond_distance
_geom_bond_site_symmetry_2
Co1 N1 2.20(3) .
Co1 N2 2.24(4) 1_545
Co1 O4 1.92(5) 1_554
Co1 O1 2.33(8) .
Co1 O2 2.26(4) .
Co1 O1W 2.06(3) .
N1 C11 1.480(3) .
N1 C9 1.480(3) .
N1 C13 1.480(3) .
N2 Co1 2.24(4) 1_565
N2 C12 1.480(3) .
N2 C14 1.480(3) .
N2 C10 1.480(3) .
O4 Co1 1.92(5) 1_556
O4 C8 1.230(3) .
C11 H11A 0.9700 .
C11 H11B 0.9700 .
C11 C12 1.520(3) .
C8 O3 1.230(3) .
C8 C4 1.480(3) .
C9 H9A 0.9700 .
C9 H9B 0.9700 .
C9 C10 1.520(3) .
C12 H12A 0.9700 .
C12 H12B 0.9700 .
C7 C1 1.480(3) .
C7 O1 1.230(3) .
C7 O2 1.230(3) .
C14 H14A 0.9700 .
C14 H14B 0.9700 .
C14 C13 1.520(3) .
C10 H10A 0.9700 .
C10 H10B 0.9700 .
C13 H13A 0.9700 .
C13 H13B 0.9700 .
C6 H6 0.9300 .
C6 C1 1.3900 .
C6 C5 1.3900 .
C1 C2 1.3900 .
C2 H2 0.9300 .
C2 C3 1.3900 .
C3 H3 0.9300 .
C3 C4 1.3900 .
C4 C5 1.3900 .
C5 H5 0.9300 .
O1W H1WA 0.8946 .
O1W H1WB 0.8996 .
loop_
_geom_torsion_atom_site_label_1
_geom_torsion_atom_site_label_2
_geom_torsion_atom_site_label_3
_geom_torsion_atom_site_label_4
_geom_torsion
_geom_torsion_site_symmetry_1
Co1 N1 C11 C12 -162(4) .
Co1 N1 C9 C10 -166(4) .
Co1 N1 C13 C14 -178(3) .
Co1 N2 C12 C11 -173(4) 1_565
Co1 N2 C14 C13 -172(2) 1_565
Co1 N2 C10 C9 -159(5) 1_565
Co1 O4 C8 O3 -33(4) 1_556
Co1 O4 C8 C4 145(4) 1_556
N1 C11 C12 N2 -29(6) .
N1 C9 C10 N2 -17(6) .
N2 C14 C13 N1 -9(4) .
O4 C8 C4 C3 178.1(16) .
O4 C8 C4 C5 1(2) .
C11 N1 C9 C10 62(4) .
C11 N1 C13 C14 -43(4) .
C8 C4 C5 C6 177(2) .
C9 N1 C11 C12 -45(6) .
C9 N1 C13 C14 77(3) .
C12 N2 C14 C13 62(5) .
C12 N2 C10 C9 -56(7) .
O3 C8 C4 C3 -3(2) .
O3 C8 C4 C5 179.3(14) .
C7 C1 C2 C3 179(3) .
C14 N2 C12 C11 -39(6) .
C14 N2 C10 C9 76(6) .
C10 N2 C12 C11 70(4) .
C10 N2 C14 C13 -52(3) .
C13 N1 C11 C12 73(6) .
C13 N1 C9 C10 -58(4) .
C6 C1 C2 C3 0.0 .
C1 C7 O1 Co1 -177(3) .
C1 C7 O2 Co1 177(3) .
C1 C6 C5 C4 0.0 .
C1 C2 C3 C4 0.0 .
C2 C3 C4 C8 -177(2) .
C2 C3 C4 C5 0.0 .
C3 C4 C5 C6 0.0 .
C5 C6 C1 C7 -179(3) .
C5 C6 C1 C2 0.0 .
O1 C7 C1 C6 -16(4) .
O1 C7 C1 C2 165(3) .
O1 C7 O2 Co1 3(5) .
O2 C7 C1 C6 169(3) .
O2 C7 C1 C2 -10(5) .
O2 C7 O1 Co1 -3(5) .
