#------------------------------------------------------------------------------
#$Date: 2019-11-24 04:12:18 +0200 (Sun, 24 Nov 2019) $
#$Revision: 236652 $
#$URL: file:///home/coder/svn-repositories/cod/cif/8/00/03/8000384.cif $
#------------------------------------------------------------------------------
#
# This file is available in the Crystallography Open Database (COD),
# http://www.crystallography.net/
#
# All data on this site have been placed in the public domain by the
# contributors.
#
data_8000384
loop_
_publ_author_name
'Andrzejewski, Micha\/l'
'Katrusiak, Andrzej'
_publ_section_title
;
 Piezochromic Porous Metal-Organic Framework.
;
_journal_issue                   1
_journal_name_full               'The journal of physical chemistry letters'
_journal_page_first              279
_journal_page_last               284
_journal_paper_doi               10.1021/acs.jpclett.6b02458
_journal_volume                  8
_journal_year                    2017
_chemical_formula_moiety         'C14 H18 Co N2 O5'
_chemical_formula_sum            'C14 H18 Co N2 O5'
_chemical_formula_weight         353.23
_chemical_name_common            AMU1
_chemical_name_systematic
;
Co(1,4-benzenedicarboxylate)(1,4-diazabicyclo[2.2.2]octane)H2O
;
_space_group_crystal_system      triclinic
_space_group_IT_number           1
_space_group_name_Hall           'P 1'
_space_group_name_H-M_alt        'P 1'
_atom_sites_solution_hydrogens   mixed
_atom_sites_solution_primary     direct
_audit_creation_date             2016-07-12
_audit_creation_method
;
Olex2 1.2
(compiled 2016.02.19 svn.r3266 for OlexSys, GUI svn.r5155)
;
_cell_angle_alpha                88.69(4)
_cell_angle_beta                 98.80(6)
_cell_angle_gamma                94.70(5)
_cell_formula_units_Z            1
_cell_length_a                   5.639(4)
_cell_length_b                   6.945(3)
_cell_length_c                   10.465(6)
_cell_measurement_reflns_used    744
_cell_measurement_temperature    296(2)
_cell_measurement_theta_max      52.696
_cell_measurement_theta_min      9.892
_cell_volume                     403.6(4)
_computing_molecular_graphics    'Olex2 (Dolomanov et al., 2009)'
_computing_publication_material  'Olex2 (Dolomanov et al., 2009)'
_computing_structure_refinement  'ShelXL (Sheldrick, 2015)'
_computing_structure_solution    'ShelXS (Sheldrick, 2008)'
_diffrn_ambient_temperature      296(2)
_diffrn_measured_fraction_theta_full 0.266
_diffrn_measured_fraction_theta_max 0.243
_diffrn_measurement_device_type  'multiwire proportional'
_diffrn_measurement_method       'phi and omega scans'
_diffrn_radiation_monochromator  graphite
_diffrn_radiation_type           MoK\a
_diffrn_radiation_wavelength     0.71073
_diffrn_reflns_av_R_equivalents  0.1202
_diffrn_reflns_av_unetI/netI     0.1177
_diffrn_reflns_Laue_measured_fraction_full 0.266
_diffrn_reflns_Laue_measured_fraction_max 0.243
_diffrn_reflns_limit_h_max       3
_diffrn_reflns_limit_h_min       -3
_diffrn_reflns_limit_k_max       8
_diffrn_reflns_limit_k_min       -8
_diffrn_reflns_limit_l_max       11
_diffrn_reflns_limit_l_min       -11
_diffrn_reflns_number            1886
_diffrn_reflns_point_group_measured_fraction_full 0.266
_diffrn_reflns_point_group_measured_fraction_max 0.243
_diffrn_reflns_theta_full        25.242
_diffrn_reflns_theta_max         26.348
_diffrn_reflns_theta_min         4.946
_exptl_absorpt_coefficient_mu    1.086
_exptl_absorpt_correction_T_max  0.909
_exptl_absorpt_correction_T_min  0.892
_exptl_absorpt_correction_type   multi-scan
_exptl_absorpt_process_details
;
Data were collected and reduced by program CrysAlisPro, 
and SCALE3 ABSPACK was used for absorption correction
;
_exptl_crystal_colour            yellow
_exptl_crystal_density_diffrn    1.453
_exptl_crystal_description       plate
_exptl_crystal_F_000             183
_exptl_crystal_size_max          0.3
_exptl_crystal_size_mid          0.1
_exptl_crystal_size_min          0.1
_refine_diff_density_max         1.193
_refine_diff_density_min         -0.878
_refine_diff_density_rms         0.288
_refine_ls_abs_structure_details
;
 Refined as a perfect inversion twin.
;
_refine_ls_abs_structure_Flack   0.5
_refine_ls_extinction_method     none
_refine_ls_goodness_of_fit_ref   1.871
_refine_ls_hydrogen_treatment    mixed
_refine_ls_matrix_type           full
_refine_ls_number_parameters     64
_refine_ls_number_reflns         744
_refine_ls_number_restraints     42
_refine_ls_restrained_S_all      318.306
_refine_ls_R_factor_all          0.2381
_refine_ls_R_factor_gt           0.2052
_refine_ls_shift/su_max          0.000
_refine_ls_shift/su_mean         0.000
_refine_ls_structure_factor_coef Fsqd
_refine_ls_weighting_details
'w=1/[\s^2^(Fo^2^)+(0.2000P)^2^] where P=(Fo^2^+2Fc^2^)/3'
_refine_ls_weighting_scheme      calc
_refine_ls_wR_factor_gt          0.4536
_refine_ls_wR_factor_ref         0.4837
_reflns_Friedel_coverage         1.000
_reflns_Friedel_fraction_full    0.266
_reflns_Friedel_fraction_max     0.243
_reflns_number_gt                527
_reflns_number_total             744
_reflns_threshold_expression     'I > 2\s(I)'
_cod_data_source_file            jz6b02458_si_004.cif
_cod_data_source_block           271GPa_P1
_cod_database_code               8000384
_shelx_space_group_comment
;
The symmetry employed for this shelxl refinement is uniquely defined
by the following loop, which should always be used as a source of
symmetry information in preference to the above space-group names.
They are only intended as comments.
;
_olex2_refinement_description
;
1. Fixed Uiso
 At 1.2 times of:
  All C(H) groups, All C(H,H) groups
2. Restrained distances
 O2-C7
 1.23 with sigma of 0.002
 C7-O1
 1.23 with sigma of 0.002
 O3-C8
 1.23 with sigma of 0.002
 C7-C1
 1.48 with sigma of 0.002
 C4-C8
 1.48 with sigma of 0.002
 C4-C5
 1.36 with sigma of 0.002
 C5-C6
 1.36 with sigma of 0.002
 C6-C1
 1.36 with sigma of 0.002
 C1-C2
 1.36 with sigma of 0.002
 C2-C3
 1.36 with sigma of 0.002
 C3-C4
 1.36 with sigma of 0.002
 N1-C11
 1.48 with sigma of 0.002
 N1-C13
 1.48 with sigma of 0.002
 C9-N1
 1.48 with sigma of 0.002
 C10-N2
 1.48 with sigma of 0.002
 C12-N2
 1.48 with sigma of 0.002
 N2-C14
 1.48 with sigma of 0.002
 C10-C9
 1.52 with sigma of 0.002
 C12-C11
 1.52 with sigma of 0.002
 C14-C13
 1.52 with sigma of 0.002
 Co1-O1W
 2 with sigma of 0.02
 C9-C13
 2.3 with sigma of 0.002
 O3-O4
 2.16 with sigma of 0.002
 H1WA-O1W
 0.97 with sigma of 0.02
 O1W-H1WB
 0.97 with sigma of 0.02
 H1WA-H1WB
 1.66 with sigma of 0.0001
 O2-C1 \\sim C1-O1
 with sigma of 0.02
 C2-C7 \\sim C7-C6
 with sigma of 0.02
 C3-C8 \\sim C8-C5
 with sigma of 0.02
 C10-C12 \\sim C12-C14
 with sigma of 0.02
 C9-C11 \\sim C11-C13
 with sigma of 0.02
3. Restrained planarity
 C8, O3, C7, C6, C1, C2, C3, C4, C5, O1, O2
 with sigma of 0.1
4. Uiso/Uaniso restraints and constraints
Uiso(N2) = Uiso(N1)
Uiso(O3) = Uiso(O2) = Uiso(O1)
Uiso(C10) = Uiso(C12) = Uiso(C9) = Uiso(C11) = Uiso(C13) = Uiso(C14)
Uiso(C8) = Uiso(C4) = Uiso(C3) = Uiso(C2) = Uiso(C1) = Uiso(C5) = Uiso(C6) =
Uiso(C7)
5. Others
 Fixed X: H1WA(0.4623) H1WB(0.3969)
 Fixed Y: H1WA(0.0023) H1WB(-0.0172)
 Fixed Z: H1WA(0.0244) H1WB(-0.0877)
6.a Secondary CH2 refined with riding coordinates:
 C11(H11A,H11B), C9(H9A,H9B), C12(H12A,H12B), C14(H14A,H14B), C10(H10A,H10B),
 C13(H13A,H13B)
6.b Aromatic/amide H refined with riding coordinates:
 C6(H6), C2(H2), C3(H3), C5(H5)
6.c Fitted hexagon refined as free rotating group:
 C6(C1,C2,C3,C4,C5)
;
_shelx_hkl_file
;
   1  -3   0   37.81    0.80
   0  -3   0  343.91    1.37
   1  -4   0    8.55    0.78
   0  -4   0   26.56    0.79
   1  -1   1    7.68    0.32
   1  -2   1   12.06    0.49
   2  -3   1   86.49    1.16
   1  -3   1   12.36    0.74
   0  -3   1  226.23    1.44
   2  -4   1   53.67    1.28
   1  -4   1    3.56    0.86
   0  -4   1   12.16    0.83
   2  -5   1    6.52    1.31
   1  -1   2   27.20    0.52
   2  -2   2   17.37    0.77
   1  -2   2   10.38    0.55
   0  -2   2   42.36    0.71
   2  -3   2   27.66    1.02
   1  -3   2    5.39    0.69
   0  -3   2   53.12    0.96
   2  -4   2   26.56    1.24
   1  -4   2    9.54    1.00
   0  -4   2   16.03    0.94
   2  -5   2    3.95    1.33
   1  -5   2   -0.42    1.24
   0  -5   2    9.02    1.13
   1  -1   3   21.73    0.56
   2  -2   3    7.74    0.81
   1  -2   3    0.65    0.62
   0  -2   3    5.21    0.59
   2  -3   3   30.83    1.14
   1  -3   3    8.03    0.83
   0  -3   3   55.45    1.10
   3  -4   3    0.49    1.35
   2  -4   3   15.05    1.30
   1  -4   3    9.80    1.04
   0  -4   3   12.59    1.15
   3  -5   3    5.18    1.57
   2  -5   3    2.18    1.40
   1  -5   3   -1.41    1.21
   0  -5   3    7.83    1.31
   2  -6   3    6.52    1.71
   1   1   4   15.49    0.59
   2  -1   4   47.06    0.94
   1  -1   4   87.13    0.96
   0  -1   4   64.31    0.85
   2  -2   4   32.97    1.04
   1  -2   4   23.93    0.83
   0  -2   4   15.88    0.83
   3  -3   4    7.65    1.30
   2  -3   4   40.41    1.26
   1  -3   4   50.01    1.14
   0  -3   4   11.66    0.99
   3  -4   4    3.40    1.49
   2  -4   4   22.04    1.41
   1  -4   4   28.89    1.25
   0  -4   4   26.97    1.33
   3  -5   4    0.20    1.65
   2  -5   4    5.31    1.55
   1  -5   4    5.17    1.38
   3  -6   4    1.91    1.88
   2  -6   4   14.20    1.83
   1  -6   4    9.82    1.69
   1   1   5   19.39    0.59
   0   1   5   -1.41    1.02
   1  -1   5   25.74    0.83
   0  -1   5   99.71    1.17
   3  -2   5    0.69    1.14
   2  -2   5    8.86    1.03
   1  -2   5   14.22    0.91
   3  -3   5    7.91    1.38
   2  -3   5   24.01    1.36
   1  -3   5   16.45    1.13
   3  -4   5    0.75    1.50
   2  -4   5    8.55    1.45
   1  -4   5   21.72    1.33
   3  -5   5    0.36    1.73
   2  -5   5    5.19    1.64
   1  -5   5    1.44    1.44
   3  -6   5   -0.09    2.04
   2  -6   5    2.32    1.88
   1  -6   5    5.91    1.75
   2  -7   5    1.30    2.27
   3  -1   6    1.56    1.07
   1  -1   6    6.40    0.84
   3  -2   6    1.75    1.24
   2  -2   6   10.80    1.18
   1  -2   6    1.37    0.95
   3  -3   6    2.01    1.41
   2  -3   6   32.15    1.43
   1  -3   6    7.91    1.19
   3  -4   6    2.80    1.62
   2  -4   6   26.88    1.61
   1  -4   6    4.13    1.40
   3  -5   6    0.85    1.82
   2  -5   6   10.77    1.79
   1  -5   6    1.75    1.51
   2  -6   6   14.39    2.05
   1  -6   6    5.71    1.79
   3  -1   7    6.91    1.19
   2  -1   7    5.65    1.08
   1  -1   7    1.20    0.88
   3  -2   7    6.16    1.32
   2  -2   7    6.92    1.19
   1  -2   7    0.44    1.06
   3  -3   7   10.73    1.55
   2  -3   7    5.47    1.37
   1  -3   7    2.61    1.28
   3  -4   7    4.40    1.75
   2  -4   7    8.66    1.58
   1  -4   7    1.27    1.50
   3  -5   7    2.96    1.97
   2  -5   7    2.38    1.84
   1  -5   7   -0.20    1.57
   2  -6   7    4.74    2.16
   3  -1   8    2.25    1.25
   2  -1   8    6.25    1.16
   3  -2   8    3.66    1.40
   2  -2   8    3.45    1.24
   1  -2   8   -0.13    1.14
   3  -3   8   10.33    1.70
   2  -3   8    7.80    1.48
   1  -3   8    2.35    1.34
   3  -4   8    3.43    1.84
   2  -4   8    5.33    1.64
   1  -4   8    1.39    1.46
   2  -5   8    1.38    1.92
   3  -2   9    3.55    1.49
   2  -2   9    5.51    1.40
   1  -2   9   14.02    1.28
   3  -3   9   13.00    1.76
   2  -3   9   10.35    1.61
   2  -4   9    6.64    1.77
   3  -2  10    0.86    1.61
   2  -2  10    2.31    1.54
   2  -3  10    4.22    1.67
  -2   3 -11    5.56    1.77
  -2   3 -10    6.11    1.70
  -2   4  -9    4.27    1.80
  -2   3  -9    5.03    1.60
  -3   3  -9    2.63    1.71
  -1   2  -9   10.53    1.31
  -2   2  -9    3.25    1.38
  -3   2  -9    0.70    1.53
  -2   5  -8    1.76    1.82
  -1   4  -8    1.33    1.46
  -2   4  -8    4.36    1.66
  -3   4  -8    4.21    1.75
  -1   3  -8    1.35    1.32
  -2   3  -8    4.38    1.49
  -3   3  -8    3.05    1.62
  -1   2  -8    0.25    1.13
  -2   2  -8    0.29    1.32
  -3   2  -8   -0.03    1.43
  -2   1  -8    3.32    1.16
  -2   6  -7    0.70    2.01
  -1   5  -7   -0.64    1.57
  -2   5  -7    2.84    1.73
  -3   5  -7    1.95    1.86
  -1   4  -7   -1.14    1.41
  -2   4  -7    5.82    1.57
  -3   4  -7    6.75    1.71
  -1   3  -7    1.51    1.23
  -2   3  -7    2.70    1.40
  -3   3  -7    8.05    1.50
  -1   2  -7    1.34    1.06
  -2   2  -7   -0.17    1.28
  -3   2  -7    6.81    1.32
  -1   1  -7    0.33    0.84
  -2   1  -7    2.45    1.08
  -3   1  -7    4.11    1.18
  -1   6  -6    7.74    1.69
  -2   6  -6   12.04    1.90
  -1   5  -6    0.16    1.51
  -2   5  -6   11.47    1.66
  -3   5  -6   -0.64    1.70
  -1   4  -6    3.37    1.31
  -2   4  -6   22.60    1.62
  -3   4  -6    3.29    1.57
  -1   3  -6    6.79    1.14
  -2   3  -6   17.49    1.46
  -3   3  -6    0.64    1.38
  -1   2  -6    1.62    0.93
  -2   2  -6    2.33    1.31
  -3   2  -6    2.39    1.24
  -1   1  -6    6.93    0.85
  -2   1  -6    4.36    0.99
  -3   1  -6    2.97    1.09
  -1   7  -5    3.91    1.88
  -2   7  -5    4.00    2.10
  -1   6  -5    8.67    1.64
  -2   6  -5    2.52    1.78
  -3   6  -5    2.66    1.82
  -1   5  -5   -0.67    1.40
  -2   5  -5    5.06    1.53
  -3   5  -5    1.93    1.65
  -1   4  -5   16.20    1.31
  -2   4  -5    6.42    1.36
  -3   4  -5    0.26    1.44
  -1   3  -5   13.75    1.11
  -2   3  -5   26.68    1.31
  -3   3  -5   11.49    1.34
  -1   2  -5   17.75    0.90
  -2   2  -5    6.60    1.02
  -3   2  -5    0.46    1.13
  -1   1  -5   18.66    0.89
   0  -1  -5   53.25    0.83
  -1  -1  -5    3.02    0.69
  -2   7  -4    4.78    1.94
  -1   6  -4    5.94    1.61
  -2   6  -4    7.19    1.75
  -3   6  -4   -1.08    1.73
  -1   5  -4    4.95    1.31
  -2   5  -4    4.69    1.47
  -3   5  -4    2.70    1.51
   0   4  -4   27.41    1.11
  -1   4  -4   28.41    1.21
  -2   4  -4   19.61    1.34
  -3   4  -4    3.49    1.42
   0   3  -4   14.52    0.84
  -1   3  -4   44.78    1.13
  -2   3  -4   39.71    1.24
  -3   3  -4    6.50    1.26
   0   2  -4   19.08    0.75
  -1   2  -4   16.73    0.86
  -2   2  -4   33.88    1.02
   0   1  -4   53.06    0.85
  -1   1  -4   89.52    0.99
  -2   1  -4   42.85    1.03
   0   6  -3    6.46    1.30
  -1   6  -3    4.17    1.38
  -2   6  -3   10.62    1.64
   0   5  -3    6.10    1.12
  -1   5  -3    1.30    1.19
  -2   5  -3    3.64    1.36
   0   4  -3   11.17    0.93
  -1   4  -3    7.01    1.00
  -2   4  -3   16.00    1.19
   0   3  -3   53.84    0.94
  -1   3  -3   10.28    0.82
  -2   3  -3   34.78    1.14
   0   2  -3    7.25    0.54
  -1   2  -3    0.31    0.60
  -2   2  -3    7.51    0.81
  -1   1  -3   12.16    0.65
  -2   6  -2    6.92    1.54
   0   5  -2    8.48    1.04
  -1   5  -2   -0.19    1.06
  -2   5  -2    5.39    1.25
   0   4  -2   13.87    0.84
  -1   4  -2    9.27    0.91
  -2   4  -2   30.87    1.17
   0   3  -2   43.30    0.84
  -1   3  -2    7.13    0.71
  -2   3  -2   27.91    1.00
   0   2  -2   42.96    0.64
  -1   2  -2   12.20    0.56
  -1   1  -2   29.60    0.52
  -1   5  -1    1.78    0.97
  -2   5  -1    9.88    1.12
   0   4  -1    9.99    0.73
  -1   4  -1    4.41    0.78
  -2   4  -1   64.05    1.23
   0   3  -1  254.11    1.31
  -1   3  -1   11.89    0.69
  -2   3  -1   83.29    1.16
   0   2  -1   24.03    0.45
  -1   2  -1   12.82    0.48
  -1   1  -1    4.97    0.31
   0   4   0   27.56    0.74
   0   3   0  339.75    1.44
  -1   2   0    5.01    0.38
   2  -4  -1   30.16    0.95
   1  -3   0   40.25    0.77
   0  -3   0  326.68    1.52
   2  -4   0   28.75    1.04
   1  -4   0    8.53    0.78
   1  -1   1    7.39    0.33
   1  -2   1   12.21    0.52
   0  -2   1   31.63    0.58
   2  -3   1   87.23    1.15
   1  -3   1   10.95    0.76
   0  -3   1  241.69    1.44
   2  -4   1   59.26    1.24
   1  -4   1    3.64    0.84
   0  -4   1   10.94    0.88
   2  -5   1    9.25    1.27
   1  -5   1    1.07    1.14
   1  -1   2   29.04    0.56
   0  -1   2   11.61    0.43
   2  -2   2   13.16    0.84
   1  -2   2   12.48    0.61
   0  -2   2   48.43    0.79
   2  -3   2   28.78    1.06
   1  -3   2    5.85    0.79
   0  -3   2   49.13    1.02
   2  -4   2   27.07    1.23
   1  -4   2   10.42    1.05
   0  -4   2   15.40    1.04
   2  -5   2    4.01    1.34
   1  -5   2   -0.50    1.29
   2  -6   2    4.32    1.70
   1  -1   3   23.86    0.69
   0  -1   3   21.84    0.76
   1  -2   3    0.35    0.73
   0  -2   3    7.95    0.71
   2  -3   3   37.67    1.19
   1  -3   3    9.90    0.93
   0  -3   3   58.03    1.21
   3  -4   3   12.15    1.56
   2  -4   3   13.22    1.36
   1  -4   3    9.09    1.17
   3  -5   3    6.17    1.68
   2  -5   3    3.12    1.47
   1  -5   3    0.27    1.37
   3  -6   3    0.78    1.91
   2  -6   3    9.77    1.89
   1  -6   3    6.96    1.79
   1   1   4   22.29    0.76
   2  -1   4   47.65    1.10
   1  -1   4   77.05    1.25
   2  -2   4   32.24    1.13
   1  -2   4   26.70    1.01
   0  -2   4   18.99    1.05
   3  -3   4    9.52    1.46
   2  -3   4   40.18    1.36
   1  -3   4   54.58    1.30
   3  -4   4    2.52    1.59
   2  -4   4   19.11    1.53
   1  -4   4   35.34    1.51
   3  -5   4    4.37    1.82
   2  -5   4    3.66    1.62
   1  -5   4    6.07    1.72
   3  -6   4    0.36    2.09
   2  -6   4   12.50    2.03
   1  -6   4   11.17    1.95
   2  -7   4    5.02    2.43
   1   1   5   20.44    0.98
   1  -1   5   38.37    1.10
   3  -2   5   -1.00    1.34
   2  -2   5    7.40    1.21
   1  -2   5   20.15    1.23
   3  -3   5    9.32    1.59
   2  -3   5   27.42    1.49
   1  -3   5   19.91    1.41
   3  -4   5    0.63    1.63
   2  -4   5    4.04    1.64
   1  -4   5   19.73    1.62
   3  -5   5    0.77    1.92
   2  -5   5    3.66    1.89
   1  -5   5    0.17    1.81
   2  -6   5    0.68    2.16
   1  -6   5    6.43    2.04
   3   0   6    5.76    1.32
   2   0   6   11.00    1.18
   3  -1   6    2.87    1.37
   2  -1   6   13.63    1.25
   1  -1   6    8.09    1.25
   3  -2   6    3.17    1.54
   2  -2   6   10.10    1.59
   1  -2   6    1.17    1.36
   3  -3   6    1.12    1.67
   2  -3   6   35.42    1.79
   1  -3   6    8.70    1.68
   3  -4   6    1.41    1.84
   2  -4   6   29.37    1.96
   1  -4   6    6.54    1.86
   3  -5   6   -0.24    2.13
   2  -5   6   14.12    2.10
   1  -5   6    0.57    1.92
   2  -6   6   16.29    2.47
   3  -1   7    5.18    1.61
   2  -1   7    6.95    1.48
   1  -1   7    0.72    1.45
   3  -2   7    3.59    1.74
   2  -2   7    9.24    1.63
   1  -2   7    0.75    1.63
   3  -3   7   10.44    1.92
   2  -3   7    4.04    1.84
   1  -3   7    2.50    1.88
   3  -4   7    5.01    2.07
   2  -4   7    7.69    2.08
   1  -4   7   -2.23    2.00
   2  -5   7    7.39    2.42
   2  -1   8   10.64    1.76
   3  -2   8    0.95    1.94
   2  -2   8    4.01    1.83
   1  -2   8    1.12    1.76
   3  -3   8    3.14    2.18
   2  -3   8    8.26    2.06
   1  -3   8    1.17    2.01
   3  -4   8    3.44    2.43
   2  -4   8    4.07    2.35
   2  -5   8    0.46    2.58
   3  -2   9    2.35    2.37
   2  -2   9    7.85    2.23
   3  -3   9    2.54    2.48
   2  -3   9    7.67    2.48
   2  -4   9   10.16    2.65
   2  -3  10    5.79    2.68
  -3   2 -10   -1.79    2.38
  -2   4  -9    6.97    2.25
  -2   3  -9    7.00    2.14
  -3   3  -9    0.81    2.25
  -2   2  -9    7.14    1.96
  -3   2  -9   12.27    2.22
  -2   5  -8    1.47    2.17
  -2   4  -8    3.34    2.04
  -2   3  -8    7.55    1.89
  -3   3  -8    2.62    2.05
  -2   2  -8    4.25    1.73
  -3   2  -8    1.93    1.90
  -2   1  -8    6.89    1.63
  -3   1  -8    3.10    1.77
  -2   5  -7    0.99    1.97
  -1   4  -7    1.02    1.77
  -2   4  -7    7.87    1.82
  -3   4  -7    5.17    2.06
  -1   3  -7    3.41    1.60
  -2   3  -7    7.10    1.74
  -3   3  -7   12.68    1.90
  -1   2  -7    1.35    1.45
  -2   2  -7    7.57    1.57
  -3   2  -7    3.67    1.73
  -1   1  -7    0.04    1.33
  -2   1  -7    3.31    1.39
  -3   1  -7    6.65    1.62
  -2   6  -6   16.11    2.13
  -1   5  -6    1.29    1.69
  -2   5  -6   10.97    1.87
  -3   5  -6    0.30    1.97
  -1   4  -6    4.26    1.60
  -2   4  -6   24.06    1.86
  -3   4  -6    2.50    1.84
  -1   3  -6    8.09    1.46
  -2   3  -6   28.77    1.69
  -3   3  -6    2.41    1.69
  -1   2  -6    2.15    1.21
  -2   2  -6   10.05    1.44
  -3   2  -6    3.02    1.47
  -1   1  -6    7.91    1.17
  -2   1  -6   10.77    1.22
  -3   1  -6    2.86    1.34
  -2   0  -6    7.22    1.26
  -3   0  -6    5.24    1.32
  -2   7  -5    2.69    2.14
  -2   6  -5    0.25    1.83
  -3   6  -5    2.18    2.03
  -1   5  -5    0.55    1.54
  -2   5  -5    5.02    1.68
  -3   5  -5    1.75    1.83
  -1   4  -5   19.45    1.43
  -2   4  -5    6.11    1.48
  -3   4  -5    0.20    1.68
  -1   3  -5   20.29    1.28
  -2   3  -5   26.30    1.52
  -3   3  -5    9.66    1.49
  -1   2  -5   14.15    1.17
  -2   2  -5    6.80    1.23
  -3   2  -5    1.94    1.32
  -1   1  -5   37.05    1.05
  -2   1  -5   10.90    1.09
  -1  -1  -5    0.48    0.98
  -1   6  -4   10.20    1.60
  -2   6  -4   11.01    1.75
  -3   6  -4    1.93    1.90
  -1   5  -4    5.79    1.40
  -2   5  -4    4.72    1.55
  -3   5  -4    2.48    1.70
  -1   4  -4   30.52    1.33
  -2   4  -4   19.76    1.46
  -3   4  -4    6.16    1.53
  -1   3  -4   51.94    1.24
  -2   3  -4   41.69    1.39
  -3   3  -4    7.29    1.35
  -1   2  -4   27.43    0.97
  -2   2  -4   33.92    1.14
  -1   1  -4   55.52    1.35
  -2   1  -4   50.38    1.08
  -1  -1  -4    4.55    0.85
  -1   6  -3    3.10    1.43
  -2   6  -3    7.20    1.66
  -3   6  -3    0.83    1.74
  -1   5  -3    2.82    1.20
  -2   5  -3    5.92    1.39
  -3   5  -3    7.19    1.60
  -1   4  -3    7.78    1.06
  -2   4  -3   14.40    1.31
  -3   4  -3   -1.82    1.38
  -1   3  -3   11.77    0.90
  -2   3  -3   38.36    1.19
   0   2  -3    6.44    0.63
  -1   2  -3    0.43    0.71
  -2   2  -3    7.46    0.87
   0   1  -3   29.67    0.65
  -1   1  -3   21.35    0.69
  -1   5  -2    0.08    1.11
  -2   5  -2    4.09    1.27
  -1   4  -2   12.33    0.97
  -2   4  -2   28.06    1.20
   0   3  -2   45.07    0.89
  -1   3  -2    7.05    0.75
  -2   3  -2   27.74    1.00
   0   2  -2   45.77    0.73
  -1   2  -2   11.86    0.59
  -2   2  -2   16.10    0.76
   0   1  -2    9.07    0.37
  -1   1  -2   26.04    0.57
  -2   5  -1    7.48    1.21
  -1   4  -1    5.11    0.82
  -2   4  -1   61.66    1.22
   0   3  -1  249.42    1.39
  -1   3  -1   12.58    0.69
  -2   3  -1   92.03    1.14
   0   2  -1   22.73    0.49
  -1   2  -1   12.45    0.48
  -1   1  -1    5.32    0.30
  -1   4   0    8.41    0.73
  -2   4   0   33.30    1.00
   0   3   0  332.88    1.48
  -1   3   0   38.83    0.71
  -1   2   0    5.92    0.36
  -2   4   1   36.41    0.91
  -1   3   1   10.38    0.53
  -2   6  -7    1.57    5.15
  -2   5  -7    0.48    4.42
  -2   6  -6    3.54    4.69
  -1   5  -6    1.03    3.92
  -2   5  -6    0.19    4.22
  -3   5  -6   -1.47    4.47
  -1   4  -6    2.16    3.48
  -2   4  -6    2.68    3.61
  -1   3  -6   -0.34    2.86
  -1   7  -5    0.30    4.88
  -1   6  -5    5.81    4.28
  -2   6  -5    0.51    4.46
  -3   6  -5    1.16    4.84
  -1   5  -5   -0.82    3.74
  -2   5  -5   -0.90    3.76
  -3   5  -5   -1.39    4.15
  -1   4  -5    8.80    3.17
  -2   4  -5   -0.24    3.22
  -3   4  -5    1.57    3.55
  -1   3  -5    1.48    2.54
  -2   3  -5    7.20    2.88
  -3   3  -5   -0.98    3.15
  -1   2  -5    1.73    2.03
  -2   2  -5    5.22    2.24
  -1   7  -4    9.56    4.58
  -1   6  -4   15.32    4.07
  -2   6  -4    3.54    4.21
  -3   6  -4   -0.74    4.51
  -1   5  -4    4.98    3.43
  -2   5  -4    0.66    3.61
  -3   5  -4    1.84    3.92
  -1   4  -4    5.17    2.81
  -2   4  -4   11.54    3.03
  -3   4  -4    0.38    3.33
  -1   3  -4    5.43    2.34
  -2   3  -4    8.37    2.42
  -3   3  -4    1.58    2.75
  -1   2  -4    9.35    1.82
  -1   1  -4   10.54    1.44
  -2   1  -4   -0.65    1.59
  -1   7  -3    6.28    4.34
  -1   6  -3    9.93    3.89
  -2   6  -3    3.41    3.97
  -3   6  -3   -0.76    4.27
   0   5  -3    6.11    3.10
  -1   5  -3    2.25    3.19
  -2   5  -3    4.27    3.49
  -3   5  -3    3.56    3.68
   0   4  -3   17.00    2.60
  -1   4  -3   11.83    2.58
  -2   4  -3   10.98    2.86
  -3   4  -3    0.51    3.08
   0   3  -3   11.68    2.04
  -1   3  -3    2.46    1.98
   0   2  -3    4.33    1.43
  -1   2  -3    0.16    1.44
  -1   1  -3    6.62    1.01
  -1   7  -2    0.75    4.11
  -2   7  -2    8.93    4.50
   0   6  -2   10.53    3.46
  -1   6  -2    3.42    3.58
  -2   6  -2    1.13    3.78
  -3   6  -2    2.73    4.19
   0   5  -2    7.17    2.97
  -1   5  -2   -4.44    3.09
  -2   5  -2   -1.07    3.22
   0   4  -2   17.18    2.34
  -1   4  -2   13.12    2.47
  -2   4  -2   18.70    2.64
  -1   3  -2    0.30    1.70
  -2   3  -2   38.87    2.20
  -1   2  -2   12.18    1.25
  -1   8  -1    7.54    4.62
   0   7  -1    6.08    3.87
  -1   7  -1   12.09    3.98
  -2   7  -1   10.55    4.34
   0   6  -1   23.66    3.50
  -1   6  -1    2.97    3.38
  -2   6  -1   10.43    3.61
   0   5  -1   71.47    3.08
  -1   5  -1   -1.46    2.79
  -2   5  -1    5.89    3.03
  -1   4  -1   12.98    2.18
  -2   4  -1   47.04    2.59
  -1   2  -1    8.50    1.06
  -1   8   0    3.01    4.41
   0   7   0   13.60    3.75
  -1   7   0    6.46    3.77
  -2   7   0    9.32    4.11
   0   6   0   20.77    3.17
  -1   6   0    9.84    3.26
  -2   6   0    9.74    3.48
  -1   5   0   12.05    2.65
  -2   5   0    5.82    2.86
  -1   4   0   14.14    2.03
  -2   4   0   23.32    2.32
  -1   8   1   -0.32    4.27
   0   7   1    7.78    3.49
  -1   7   1    4.88    3.71
  -2   7   1    2.54    4.01
   0   6   1   17.16    3.06
  -1   6   1    8.24    3.07
  -2   6   1    7.26    3.37
  -1   5   1    2.38    2.40
  -2   5   1    2.83    2.71
   0   4   1   10.69    1.78
  -1   4   1   15.23    1.89
  -2   7   2    5.20    3.71
  -1   6   2   13.42    2.93
  -2   6   2   19.74    3.30
   0   5   2    0.39    2.12
  -1   5   2    0.50    2.44
  -2   5   2    3.29    2.62
   0   4   2    6.65    1.61
  -1   4   2   11.32    1.81
  -1   5   3    1.44    2.29
  -1   4   3    6.98    1.76
   1  -2   1   11.79    0.45
   1  -3   1   10.85    0.56
   1  -1   2   30.69    0.61
   1  -2   2   11.73    0.52
   2  -3   2   28.94    0.93
   1  -3   2    5.57    0.56
   1   2   3    9.38    0.65
   1   1   3   57.11    0.84
   1  -1   3   21.66    0.70
   0  -1   3   24.56    0.55
   2  -2   3    6.92    0.85
   1  -2   3    0.33    0.60
   2  -3   3   25.55    1.13
   1  -3   3    8.60    0.70
   2   2   4    9.25    1.01
   1   2   4   22.51    0.81
   0   1   4   40.78    0.95
   1  -1   4   92.71    1.16
   0  -1   4   53.70    0.89
   2  -2   4   24.36    1.19
   1  -2   4   24.05    0.85
   3  -3   4    8.51    1.41
   2  -3   4   38.76    1.18
   1  -3   4   41.26    1.04
   1   2   5    4.87    0.84
   2   1   5    1.79    1.06
   1   1   5   24.41    1.00
   0   1   5   63.31    1.31
   2  -1   5   23.37    1.17
   1  -1   5   31.96    1.09
   3  -2   5    0.79    1.36
   2  -2   5    7.06    1.19
   1  -2   5   19.81    0.98
   3  -3   5    8.02    1.50
   2  -3   5   22.03    1.29
   1  -3   5   11.42    1.09
   1  -4   5   18.85    1.13
   2   2   6    2.35    1.25
   1   2   6    2.47    1.05
   2   1   6    3.71    1.09
   1   1   6    7.52    1.08
   3   0   6    9.49    1.39
   2   0   6   12.72    1.31
   3  -1   6    0.02    1.45
   2  -1   6    6.83    1.34
   1  -1   6    7.53    1.11
   3  -2   6    1.50    1.53
   2  -2   6    1.30    1.45
   1  -2   6    1.84    1.14
   3  -3   6    0.83    1.54
   2  -3   6   25.19    1.57
   1  -3   6   10.29    1.15
   2  -4   6   22.17    1.59
   1  -4   6    2.92    1.25
   3   2   7    1.52    1.61
   2   2   7   -0.16    1.40
   1   2   7    1.02    1.30
   3   1   7   -2.41    1.79
   2   1   7    2.20    1.47
   1   1   7    0.85    1.10
   3   0   7   10.78    1.77
   2   0   7   13.96    1.36
   1   0   7   13.25    1.26
   3  -1   7    9.61    1.66
   2  -1   7    5.80    1.46
   1  -1   7    0.71    1.24
   3  -2   7    4.02    1.64
   2  -2   7   13.52    1.57
   1  -2   7    0.53    1.30
   3  -3   7    5.64    1.71
   2  -3   7    3.93    1.55
   1  -3   7    1.60    1.40
   3  -4   7    3.66    1.88
   2  -4   7    5.40    1.65
   2   2   8    1.96    1.65
   1   2   8    6.69    1.47
   3   1   8    2.11    1.67
   2   1   8    4.09    1.62
   1   1   8    1.65    1.41
   3   0   8    0.70    1.02
   2   0   8   14.12    1.77
   1   0   8    3.41    1.16
   3  -1   8    4.43    1.71
   2  -1   8    6.04    1.66
   3  -2   8    0.73    1.79
   2  -2   8    2.66    1.69
   1  -2   8    0.13    1.50
   3  -3   8    3.98    1.93
   2  -3   8    7.17    1.71
   1  -3   8    0.95    1.50
   3  -4   8    3.15    2.07
   2  -4   8    3.64    1.81
   3   2   9    0.77    1.90
   2   2   9    5.60    1.88
   1   2   9    4.34    1.78
   3   1   9   -0.31    1.94
   2   1   9   10.63    1.66
   1   1   9    1.30    0.95
   3   0   9    2.19    1.63
   2   0   9    8.95    2.18
   3  -1   9    3.09    2.08
   2  -1   9    9.20    1.90
   1  -1   9    7.24    1.71
   3  -2   9    3.25    2.08
   2  -2   9    3.98    1.86
   1  -2   9   10.46    1.80
   3  -3   9    2.19    2.23
   2  -3   9    9.60    1.89
   2  -4   9    6.45    1.95
   3   2  10    1.19    2.24
   3   1  10   -0.41    2.19
   2   1  10    3.70    2.16
   1   1  10   -1.51    1.87
   3   0  10    1.72    2.12
   2   0  10    1.63    1.56
   2  -1  10    3.03    1.98
   2  -2  10    0.85    2.04
   2  -3  10    6.01    2.12
   2   1  11    1.68    1.92
   2   0  11    6.09    2.64
  -2   1 -11    3.75    2.11
  -2   0 -11    2.64    2.17
  -2  -1 -11   -3.62    2.09
  -2   4 -10    7.69    2.49
  -2   3 -10    3.45    2.23
  -2   2 -10    3.37    2.12
  -2   1 -10    1.77    1.90
  -3   1 -10   -0.25    2.32
  -2   0 -10    6.12    2.12
  -3   0 -10   -0.26    2.32
  -1  -1 -10    1.96    1.18
  -2  -1 -10    1.02    1.71
  -3  -1 -10   -0.07    2.22
  -2   4  -9    8.64    2.34
  -2   3  -9    4.83    2.16
  -3   3  -9    2.82    2.51
  -1   2  -9   13.21    2.06
  -2   2  -9    2.82    1.91
  -3   2  -9    3.85    2.42
  -1   1  -9    4.37    1.86
  -2   1  -9    5.52    1.89
  -3   1  -9    2.78    2.22
  -3   0  -9    2.34    2.38
  -1  -1  -9    3.65    1.17
  -2  -1  -9    2.48    1.31
  -3  -1  -9    3.10    1.85
  -1  -2  -9    5.16    1.60
  -2  -2  -9    7.00    1.76
  -1   4  -8    3.06    1.99
  -2   4  -8    2.79    2.08
  -3   4  -8    1.83    2.62
  -1   3  -8    1.20    1.86
  -2   3  -8    6.38    1.95
  -3   3  -8    2.40    2.33
  -1   2  -8    0.74    1.69
  -2   2  -8    2.77    1.75
  -3   2  -8    1.17    2.22
  -2   1  -8    5.82    1.77
  -3   1  -8    5.97    2.06
  -3   0  -8    4.53    2.10
  -1  -1  -8    2.36    1.21
  -2  -1  -8    0.35    0.77
  -3  -1  -8    0.17    0.64
  -1  -2  -8    7.17    1.43
  -2  -2  -8    0.01    1.52
  -1   4  -7   -0.49    1.87
  -2   4  -7    7.67    1.92
  -3   4  -7    7.52    2.36
  -1   3  -7    2.67    1.76
  -2   3  -7    3.12    1.81
  -3   3  -7    6.65    2.29
  -1   2  -7    1.78    1.57
  -2   2  -7    3.30    1.71
  -3   2  -7    6.06    2.06
  -1   1  -7   -0.39    1.38
  -2   1  -7    2.40    1.57
  -3   1  -7    6.09    2.04
  -3   0  -7   10.42    1.81
   0  -1  -7    4.09    1.39
  -1  -1  -7    2.25    1.16
  -2  -1  -7    3.77    1.35
   0  -2  -7    4.41    1.18
  -1  -2  -7    1.53    1.21
  -2  -2  -7   -0.12    1.45
  -1   4  -6    4.52    1.72
  -2   4  -6   21.00    2.03
  -1   3  -6    9.89    1.58
  -2   3  -6   32.68    1.73
  -3   3  -6    4.34    1.94
  -1   2  -6    2.25    1.35
  -2   2  -6    1.63    1.69
  -3   2  -6    3.13    1.83
  -1   1  -6   13.85    1.30
  -2   1  -6    9.01    1.34
  -3   1  -6    2.48    1.69
  -3   0  -6   15.36    2.09
   0  -1  -6    6.96    1.12
  -1  -1  -6    1.99    1.00
  -2  -1  -6   -0.91    1.36
  -1  -2  -6    2.83    0.98
  -2  -2  -6   -0.27    1.31
  -1   4  -5   24.19    1.59
  -1   3  -5   16.31    1.48
  -2   3  -5   28.71    1.70
  -3   3  -5   12.20    1.84
  -1   2  -5   24.69    1.22
  -2   2  -5    8.96    1.39
  -3   2  -5    0.62    1.68
  -1   1  -5   36.11    1.32
  -2   1  -5   12.93    1.37
  -1  -1  -5   28.22    1.11
  -2  -1  -5    3.61    1.24
   0  -2  -5   50.21    1.02
  -1  -2  -5    3.06    0.84
  -2  -2  -5    4.41    1.19
   0   4  -4   36.67    1.48
   0   3  -4   18.21    1.20
  -1   3  -4   63.99    1.41
  -2   3  -4   39.19    1.55
   0   2  -4   19.31    1.10
  -1   2  -4   22.27    1.16
  -2   2  -4   40.02    1.31
   0   1  -4   45.99    1.47
  -1   1  -4   41.86    1.74
  -2   1  -4   43.68    1.46
  -1  -1  -4   23.68    1.04
  -2  -1  -4   88.62    1.44
  -1  -2  -4   17.99    0.89
   0   3  -3   87.46    1.29
  -1   3  -3   11.56    0.94
   0   2  -3   10.53    0.72
  -1   2  -3    0.00    0.75
  -2   2  -3    6.89    1.07
   0   1  -3   40.12    0.80
  -1   1  -3   21.08    0.84
  -1  -1  -3   70.22    0.85
   0   3  -2   75.44    1.09
  -1   3  -2    7.97    0.73
  -1   2  -2   12.57    0.63
  -1   1  -2   35.79    0.66
  -1  -1  -2   38.52    0.80
   1  -5  -3    0.95    1.02
   1  -3  -2   12.49    0.67
   0  -3  -2   27.03    0.79
   1  -4  -2    9.37    0.91
   0  -4  -2    8.18    0.90
  -1  -4  -2    9.12    0.99
   1  -5  -2    2.96    1.17
   0  -5  -2    1.83    1.19
   1  -6  -2    9.19    1.45
   1  -2  -1    7.91    0.44
   1  -3  -1   12.35    0.81
   0  -3  -1  210.49    1.34
   1  -4  -1    7.08    0.92
   0  -4  -1    5.21    0.94
   2  -5  -1    6.41    1.29
   1  -5  -1    0.85    1.23
   0  -5  -1   26.65    1.32
  -1  -5  -1    8.61    1.32
   2  -6  -1   10.53    1.66
   1  -6  -1    2.76    1.54
   0  -6  -1   10.64    1.63
   2  -7  -1    6.36    1.85
   1  -7  -1    2.63    1.78
   2  -8  -1    0.86    2.15
   1  -2   0    6.80    0.46
   0  -2   0  984.81    2.32
   2  -3   0   22.60    0.87
   1  -3   0   43.37    0.97
   0  -3   0  340.45    1.78
   2  -4   0   33.38    1.23
   1  -4   0   10.33    0.99
   0  -4   0   25.39    1.11
   2  -5   0    5.45    1.34
   1  -5   0    5.79    1.35
   0  -5   0   51.00    1.53
   2  -6   0   13.27    1.74
   1  -6   0    7.99    1.68
   0  -6   0    9.27    1.68
   2  -7   0    5.38    2.00
   1  -7   0    2.46    1.82
   0  -7   0   12.85    2.06
   1  -8   0    1.79    2.10
   0  -8   0   10.20    2.38
   1  -2   1   12.67    0.56
   0  -2   1   33.50    0.64
   2  -3   1   84.70    1.19
   1  -3   1   14.60    0.91
   0  -3   1  250.30    1.67
   2  -4   1   63.47    1.41
   1  -4   1    4.56    1.10
   0  -4   1   14.27    1.13
   2  -5   1    8.47    1.39
   1  -5   1    1.17    1.42
   0  -5   1   35.94    1.60
   2  -6   1   22.17    1.83
   1  -6   1    1.80    1.66
   0  -6   1   15.33    1.84
   2  -7   1   10.58    2.06
   1  -7   1    4.12    2.03
   0  -7   1    6.94    2.13
   1  -8   1    1.56    2.20
   1  -1   2   28.50    0.49
   2  -2   2   14.09    0.71
   1  -2   2   13.14    0.63
   2  -3   2   31.06    0.96
   1  -3   2    7.18    0.84
   0  -3   2   53.30    1.15
   2  -4   2   26.15    1.23
   1  -4   2   10.65    1.21
   0  -4   2   18.69    1.20
   2  -5   2    4.46    1.42
   1  -5   2   -0.46    1.58
   0  -5   2   10.80    1.51
   2  -6   2    7.57    1.84
   1  -6   2    3.37    1.72
   0  -6   2   10.00    1.82
   2  -7   2    1.89    2.16
   1  -7   2    0.95    2.02
   0  -7   2    6.56    2.04
   1  -8   2   -2.75    2.43
   1  -1   3   20.69    0.54
   2  -2   3    6.63    0.69
   1  -2   3    0.91    0.62
   0  -2   3    5.96    0.67
   2  -3   3   34.07    1.08
   1  -3   3    9.51    0.84
   0  -3   3   55.77    1.15
   2  -4   3   16.65    1.32
   1  -4   3    9.18    1.20
   0  -4   3   11.49    1.20
   3  -5   3    6.19    1.56
   2  -5   3    2.55    1.44
   1  -5   3    0.95    1.47
   0  -5   3    9.12    1.61
   3  -6   3    1.66    1.79
   2  -6   3   10.82    1.85
   1  -6   3    5.56    1.78
   0  -6   3    1.02    1.82
   1  -7   3    0.15    2.15
   1  -1   4   55.09    1.03
   2  -2   4   33.41    0.86
   1  -2   4   21.40    0.84
   0  -2   4   16.45    0.85
   2  -3   4   39.20    1.17
   1  -3   4   52.67    1.17
   0  -3   4   13.24    1.05
   3  -4   4    3.26    1.24
   2  -4   4   20.53    1.39
   1  -4   4   33.02    1.39
   0  -4   4   33.92    1.44
   3  -5   4    3.09    1.46
   2  -5   4    4.01    1.59
   1  -5   4    5.87    1.70
   3  -6   4    1.34    1.84
   2  -6   4   11.39    1.93
   1  -6   4   15.07    2.05
   2  -7   4    5.34    2.11
   1  -7   4    2.71    2.17
   1  -1   5   33.62    0.75
   2  -2   5    5.65    0.83
   1  -2   5   15.42    0.86
   2  -3   5   22.31    1.20
   1  -3   5   14.71    1.09
   3  -4   5    0.44    1.23
   2  -4   5    4.04    1.34
   1  -4   5   20.43    1.46
   3  -5   5    2.17    1.47
   2  -5   5    2.92    1.63
   1  -5   5    1.55    1.64
   3  -6   5    1.38    1.86
   2  -6   5    0.67    1.94
   1  -6   5    9.30    2.01
   1  -7   5    4.36    2.31
   1  -3   6   10.65    1.14
   2  -4   6   25.75    1.44
   1  -4   6    3.77    1.42
   3  -5   6    0.76    1.56
   2  -5   6   10.90    1.60
   1  -5   6    2.44    1.76
   3  -6   6    5.29    2.01
   2  -6   6   10.37    1.97
   1  -6   6    5.80    2.10
   1  -4   7   -2.36    1.51
   2  -5   7    2.89    1.67
   1  -5   7    1.47    1.64
   2  -6   7    3.56    2.05
   0  -4  -6    6.04    1.16
   0  -5  -6    1.27    1.45
   0  -6  -6    3.35    1.73
   0  -7  -6    1.61    2.12
   0  -3  -5   46.81    1.10
   0  -4  -5   29.10    1.29
  -1  -4  -5   14.62    1.27
   1  -5  -5    6.96    1.43
   0  -5  -5    8.52    1.48
  -1  -5  -5    8.33    1.52
   1  -6  -5    5.64    1.80
   0  -6  -5    6.42    1.81
  -1  -6  -5    9.13    1.89
   1  -7  -5    1.66    2.05
   0  -7  -5    4.29    2.35
  -1  -7  -5    9.62    2.16
  -1  -2  -4   12.31    0.80
   0  -3  -4    7.59    0.83
  -1  -3  -4   21.18    0.97
   1  -4  -4    9.62    1.16
   0  -4  -4   13.21    1.22
  -1  -4  -4   25.93    1.35
   1  -5  -4    1.99    1.36
   0  -5  -4   11.48    1.48
  -1  -5  -4    3.55    1.50
   1  -6  -4   16.90    1.82
   0  -6  -4    8.26    1.83
  -1  -6  -4    1.74    1.92
   1  -7  -4    3.24    1.99
   0  -7  -4    7.29    2.19
  -1  -7  -4    6.61    2.17
   0  -2  -3    3.44    0.51
  -1  -2  -3    9.43    0.66
   1  -3  -3    5.79    0.81
  -1  -3  -3   30.55    1.00
   1  -4  -3    3.53    1.10
   0  -4  -3    8.69    1.14
  -1  -4  -3   26.42    1.30
   1  -5  -3    1.97    1.39
   0  -5  -3   -0.55    1.52
  -1  -5  -3    2.59    1.54
   1  -6  -3    7.05    1.77
   0  -6  -3    3.83    1.73
  -1  -6  -3    6.09    1.92
   1  -7  -3    1.52    2.01
   0  -7  -3    4.24    2.11
  -1  -7  -3    3.40    2.21
   0  -8  -3   -1.85    2.45
   0  -2  -2   31.10    0.67
   1  -3  -2   10.82    0.78
   0  -3  -2   29.10    0.92
  -1  -3  -2   23.14    0.98
   1  -4  -2    7.65    1.05
   0  -4  -2    8.66    1.11
  -1  -4  -2    9.90    1.22
   1  -5  -2    2.65    1.37
   0  -5  -2    2.57    1.42
  -1  -5  -2    2.76    1.50
   2  -6  -2   19.35    1.81
   1  -6  -2    8.17    1.67
   0  -6  -2    2.71    1.74
  -1  -6  -2    5.19    1.93
   2  -7  -2    4.47    2.03
   1  -7  -2    4.19    2.02
   0  -7  -2    3.38    2.01
   1  -8  -2    3.50    2.37
   0  -8  -2    4.19    2.44
   1  -2  -1    8.05    0.46
   1  -3  -1   10.73    0.83
   0  -3  -1  197.61    1.52
  -1  -3  -1   24.44    0.98
   1  -4  -1    7.47    1.04
   0  -4  -1    5.79    1.12
  -1  -4  -1   21.94    1.24
   2  -5  -1    6.80    1.31
   1  -5  -1    0.85    1.28
   0  -5  -1   24.44    1.56
  -1  -5  -1    8.75    1.58
   2  -6  -1   13.17    1.67
   1  -6  -1    2.86    1.62
   0  -6  -1   13.20    1.77
   2  -7  -1    4.07    1.98
   1  -7  -1    4.21    1.96
   0  -7  -1    5.18    2.13
   1  -8  -1    0.58    2.27
   0  -8  -1    5.05    2.50
   1  -2   0    7.64    0.45
   0  -2   0 1000.00    2.38
   1  -3   0   43.38    0.92
   0  -3   0  327.73    1.81
   2  -4   0   30.80    1.10
   1  -4   0    9.04    1.03
   0  -4   0   26.94    1.24
   2  -5   0    5.62    1.26
   1  -5   0    5.89    1.33
   0  -5   0   47.09    1.71
   2  -6   0   13.95    1.63
   1  -6   0    7.38    1.65
   0  -6   0    8.50    1.88
   2  -7   0    5.85    1.91
   1  -7   0    0.76    1.97
   0  -7   0    8.04    2.18
   1  -8   0   -0.03    2.27
   0  -8   0    9.64    2.40
   1  -2   1   12.07    0.45
   0  -2   1   35.31    0.63
   1  -3   1   12.92    0.79
   0  -3   1  235.14    1.64
   2  -4   1   53.64    1.22
   1  -4   1    4.51    0.97
   0  -4   1   13.03    1.09
   2  -5   1    8.80    1.26
   1  -5   1    2.66    1.28
   0  -5   1   38.11    1.62
   2  -6   1   19.12    1.61
   1  -6   1    3.49    1.61
   0  -6   1   18.45    1.89
   2  -7   1    9.43    1.92
   1  -7   1    6.42    2.00
   0  -7   1    9.14    2.17
   2  -8   1    1.59    2.23
   1  -8   1   -1.31    2.29
   1  -2   2   11.96    0.46
   1  -3   2    7.02    0.70
   0  -3   2   53.27    1.09
   1  -4   2   11.35    1.02
   0  -4   2   19.25    1.14
   2  -5   2    4.81    1.20
   1  -5   2   -0.76    1.32
   0  -5   2   10.29    1.40
   1  -6   2    5.41    1.63
   0  -6   2   10.30    1.83
   1  -7   2    1.95    1.89
   0  -7   2    6.07    2.12
   1  -8   2    0.85    2.34
   1  -3   3    7.81    0.71
   0  -3   3   59.09    1.13
   1  -4   3   10.21    0.99
   0  -4   3   10.61    1.17
   1  -5   3    1.49    1.28
   0  -5   3   10.05    1.44
   1  -6   3    3.76    1.63
   0  -6   3    5.19    1.79
   0  -4   4   30.72    1.30
  -2   0 -11   -0.02    1.93
  -2  -1 -11    1.52    2.02
  -1  -2 -11    5.57    1.77
  -1  -3 -11    5.84    1.89
  -2   0 -10    3.23    1.90
  -3   0 -10    0.27    1.05
  -1  -1 -10    5.06    1.42
  -2  -1 -10    1.72    1.45
  -3  -1 -10   -0.26    1.99
  -1  -2 -10    1.90    1.68
  -2  -2 -10    0.48    1.87
  -1  -3 -10    2.52    1.74
  -2  -3 -10   -1.78    1.99
  -1  -4 -10    0.75    1.77
  -1  -5 -10    0.91    1.90
  -1   1  -9    9.65    1.49
  -2   0  -9    9.09    2.21
  -3   0  -9    2.41    2.48
  -1  -1  -9    6.77    1.20
  -2  -1  -9    8.56    1.47
  -3  -1  -9   -1.98    1.88
  -1  -2  -9    4.26    1.64
  -2  -2  -9    7.13    1.77
  -3  -2  -9    0.18    1.88
  -1  -3  -9   12.66    1.67
  -2  -3  -9    5.54    1.92
  -3  -3  -9    1.39    1.97
   0  -4  -9    2.84    1.49
  -1  -4  -9    0.17    1.66
  -2  -4  -9    5.22    1.86
  -1  -5  -9    2.96    1.78
  -2  -5  -9    0.98    1.93
  -2   1  -8    5.06    1.55
  -3   0  -8    4.56    2.09
  -1  -1  -8    0.01    0.11
  -2  -1  -8    1.13    1.25
  -3  -1  -8    1.89    1.21
  -1  -2  -8    6.40    1.40
  -2  -2  -8    0.13    1.56
   0  -3  -8   12.44    1.41
  -1  -3  -8    7.04    1.51
  -2  -3  -8    0.49    1.61
   0  -4  -8    2.17    1.38
  -1  -4  -8    3.14    1.53
  -2  -4  -8    1.07    1.67
  -1  -5  -8    1.32    1.61
  -2  -5  -8    0.01    1.74
  -1   1  -7    0.37    1.09
  -2   1  -7    6.54    1.38
   0  -1  -7    7.38    0.97
  -1  -1  -7    0.44    0.84
  -2  -1  -7    3.10    1.47
   0  -2  -7    6.62    1.07
  -1  -2  -7    1.69    1.26
  -2  -2  -7   -0.75    1.41
   0  -3  -7   18.24    1.24
  -1  -3  -7    4.80    1.33
  -2  -3  -7    3.88    1.56
   0  -4  -7    1.26    1.25
  -1  -4  -7    1.18    1.39
  -2  -4  -7    1.97    1.56
  -1  -5  -7    1.55    1.50
  -2  -5  -7    1.22    1.61
  -1   1  -6    7.18    1.02
  -2   1  -6    5.56    1.22
   0  -1  -6    2.19    0.83
  -1  -1  -6    4.44    1.00
  -2  -1  -6    1.64    1.01
   0  -2  -6    9.32    0.96
  -1  -2  -6    2.24    1.10
  -2  -2  -6    0.76    1.30
  -1  -3  -6    5.51    1.21
  -2  -3  -6    2.29    1.38
   0  -4  -6    9.09    1.19
  -1  -4  -6    1.66    1.27
  -2  -4  -6    0.98    1.47
  -1  -5  -6    0.64    1.36
  -1   2  -5   18.18    0.87
  -1   1  -5   33.82    0.98
  -2   1  -5    7.52    1.12
   0  -1  -5   56.97    1.20
  -1  -1  -5   27.39    1.05
  -2  -1  -5   -0.11    1.17
   0  -2  -5   26.01    1.02
  -1  -2  -5    5.42    0.94
  -2  -2  -5    4.69    1.23
   0  -3  -5   45.51    1.24
  -1  -3  -5   17.16    1.11
  -2  -3  -5    5.86    1.30
   0  -4  -5   26.60    1.16
  -1  -4  -5    7.89    1.21
  -2  -4  -5    8.94    1.40
  -1   2  -4   21.32    0.79
   0  -1  -4   47.93    0.80
  -1  -1  -4   22.86    0.99
   0  -2  -4    9.50    0.78
  -1  -2  -4   17.77    0.96
  -2  -2  -4    8.12    1.16
   1  -3  -4   10.90    0.65
   0  -3  -4    8.62    0.81
  -1  -3  -4   19.10    0.98
  -2  -3  -4   20.17    1.27
   0  -4  -4   21.51    0.99
  -1  -4  -4   18.74    1.15
  -1   1  -3   24.01    0.64
  -1  -1  -3   62.19    0.88
  -1  -2  -3   12.60    0.71
   1  -3  -3    4.40    0.52
  -1  -3  -3   24.02    0.93
   0  -4  -3    8.58    0.81
  -1  -4  -3   17.15    1.02
  -1  -1  -2   53.10    0.70
   0  -2  -2   24.75    0.62
  -1  -2  -2   10.65    0.57
   1  -3  -2   10.43    0.47
   0  -3  -2   24.46    0.76
  -1  -3  -2   18.37    0.78
   0   3   2   24.94    0.84
   0   2   2   23.07    0.62
   0   4   3    9.67    0.88
   1  -2   3    0.40    0.40
   0   4   4   26.05    1.08
   0   3   4   12.85    0.85
   0   2   4   17.25    0.77
   0   1   4   37.08    0.88
   1  -1   4   82.71    0.92
   1  -2   4   20.98    0.56
   1   4   5   12.47    1.42
   0   4   5   31.79    1.25
   1   3   5   13.80    1.24
   0   3   5   53.89    1.29
   1   2   5    3.80    1.01
   0   2   5   33.82    0.98
   1   1   5   29.11    1.02
   1  -1   5   19.15    0.86
   1  -2   5   14.60    0.63
   1   5   6    1.58    1.55
   1   4   6    3.07    1.43
   0   4   6    9.40    1.26
   1   3   6    5.72    1.29
   0   3   6   18.61    1.20
   1   2   6    2.81    1.13
   0   2   6    8.61    0.99
   1   1   6    6.56    1.00
   0   1   6    7.77    0.86
   2  -1   6    8.10    1.08
   1  -1   6    5.99    0.82
   2   5   7    0.58    1.90
   1   5   7    0.17    1.78
   2   4   7    1.65    1.85
   1   4   7    0.39    1.61
   0   4   7    3.29    1.41
   2   3   7    4.09    1.70
   1   3   7    7.75    1.45
   0   3   7   23.28    1.32
   1   2   7    4.39    1.33
   0   2   7    5.44    1.10
   2   1   7    7.73    1.34
   1   1   7    0.26    1.13
   0   1   7    1.10    0.96
   2  -1   7    6.76    1.13
   1  -1   7   -0.16    0.89
   2   5   8    1.46    2.04
   1   5   8    1.54    1.90
   2   4   8    1.44    1.88
   1   4   8    2.59    1.71
   0   4   8    2.17    1.55
   2   3   8    0.70    1.75
   1   3   8    6.21    1.62
   0   3   8   20.63    1.46
   2   2   8    2.51    1.63
   1   2   8    7.60    1.48
   0   2   8   21.45    1.44
   3   1   8    2.76    1.60
   2   1   8    0.35    0.81
   1   1   8    1.14    1.25
   3   0   8    4.15    1.96
   2   0   8    9.06    1.12
   2  -1   8    8.91    1.33
   1   5   9    4.69    2.06
   2   4   9    6.06    2.13
   1   4   9    2.39    1.89
   3   3   9    0.74    2.08
   2   3   9    7.35    2.01
   1   3   9   11.66    1.79
   3   2   9    0.37    1.94
   2   2   9    4.76    1.82
   1   2   9   10.52    1.65
   3   1   9   -0.87    1.80
   2   1   9   -0.63    1.80
   1   1   9   -1.59    1.58
   3   0   9    2.97    1.80
   2   0   9   13.11    1.67
   1   0   9   34.17    1.49
   1   4  10    0.60    2.03
   2   3  10    2.55    2.30
   1   3  10    1.25    1.91
   2   2  10    2.94    1.94
   1   2  10    1.76    1.69
   3   1  10    0.00    1.98
   2   1  10   -0.03    1.80
   1   1  10    3.44    1.42
   3   0  10   -1.01    1.95
   2   0  10    7.27    1.65
   1   2  11   -2.15    1.83
   2   1  11   -0.89    1.96
   2   0  11    4.03    1.94
  -1   6  -3    5.41    1.32
  -1   5  -3    1.41    1.06
  -1   4  -3    5.94    0.82
  -1   2  -3    0.06    0.40
  -1   8  -2    0.09    1.81
  -1   7  -2   -0.10    1.49
  -1   6  -2    1.57    1.28
   0   5  -2    6.43    1.06
  -1   5  -2   -0.71    1.04
  -2   5  -2    3.28    1.02
   0   3  -2   46.38    0.87
  -1   3  -2    4.77    0.54
  -1   8  -1    2.03    1.73
   0   7  -1    1.48    1.59
  -1   7  -1    4.72    1.51
  -2   7  -1    7.74    1.58
   0   6  -1   15.11    1.33
  -1   6  -1    2.08    1.20
  -2   6  -1   24.08    1.32
   0   5  -1   33.90    1.22
  -1   5  -1    3.63    0.96
  -2   5  -1    8.33    1.03
   0   4  -1   11.18    0.85
  -1   4  -1    4.37    0.71
   0   3  -1  242.99    1.41
   0   2  -1   22.42    0.48
  -1   8   0    1.63    1.79
   0   7   0    8.47    1.49
  -1   7   0    1.13    1.36
  -2   7   0    5.52    1.47
   0   6   0   10.83    1.33
  -1   6   0    3.99    1.11
  -2   6   0   17.15    1.27
   0   5   0   42.12    1.23
  -1   5   0    2.66    0.92
   0   4   0   30.02    0.92
   0   3   0  347.54    1.52
   0   2   0  846.97    1.83
   0   8   1    1.94    1.78
   0   7   1    3.40    1.47
  -1   7   1    0.15    1.38
  -2   7   1    4.05    1.43
   0   6   1   10.52    1.27
  -1   6   1    2.78    1.16
  -2   6   1   14.30    1.27
   1   5   1    5.09    1.15
   0   5   1   27.03    1.15
  -1   5   1   -0.08    0.91
   0   4   1    7.64    0.75
   0   3   1  202.45    1.23
   0   7   2    2.52    1.50
  -1   7   2    2.96    1.36
  -2   7   2    7.08    1.43
   1   6   2    2.95    1.29
   0   6   2    4.52    1.27
  -1   6   2    3.82    1.17
   1   5   2    1.92    1.10
   0   5   2    4.31    0.93
   0   4   2    9.22    0.75
   1   3   2   22.15    0.76
   0   3   2   33.23    0.71
   0   7   3    4.45    1.53
  -1   7   3    0.26    1.35
   1   6   3    6.39    1.32
   0   6   3    0.92    1.26
  -1   6   3    3.02    1.20
   1   5   3    0.56    1.08
   0   5   3    2.28    0.99
   1   4   3   20.52    0.99
   0   4   3    8.68    0.80
   1   3   3   24.57    0.81
   1   2   3    9.01    0.59
   1   7   4    0.33    1.52
   0   7   4   13.93    1.63
  -1   7   4    1.33    1.31
   1   6   4    5.70    1.37
   0   6   4    7.61    1.28
  -1   6   4    3.43    1.14
   1   5   4    1.94    1.14
   0   5   4    3.04    0.93
   1   4   4   27.14    1.03
   0   4   4   18.51    0.87
   1   3   4   13.06    0.76
   1   2   4   20.33    0.65
   1   7   5    1.55    1.61
   0   7   5   13.64    1.76
  -1   7   5    1.13    1.34
   1   6   5    6.69    1.35
   0   6   5    5.33    1.17
  -1   6   5    6.17    1.17
   1   5   5    5.40    1.16
   0   5   5    7.55    0.99
   1   4   5    8.95    0.96
   0   4   5   20.88    0.92
   0   7   6    1.37    1.52
  -1   7   6    0.57    1.43
   0   6   6    4.08    1.23
   0   5   6    1.52    1.00
   0   4   6    6.80    0.88
   0   5   0   45.08    1.17
   0   4   0   31.55    0.87
   0   3   0  332.31    1.69
   0   2   0  896.22    1.97
   0   6   1   10.68    1.30
   0   4   1    8.65    0.77
   0   3   1  214.52    1.19
   0   6   2    4.31    1.27
   1   5   2    0.40    1.13
   0   5   2    3.48    1.06
   1   4   2    7.00    0.98
   0   7   3    3.64    1.60
   1   6   3    3.32    1.48
   0   6   3    3.14    1.31
  -1   6   3    1.79    1.21
   1   5   3    0.65    1.20
   0   5   3    0.33    1.15
   1   4   3   16.73    1.12
   0   4   3    9.19    0.85
   1   3   3   27.70    0.93
   1   2   3   10.74    0.70
   1   1   3   50.46    0.80
   0   8   4   -0.50    1.97
   0   7   4   40.08    1.97
  -1   7   4    1.31    1.54
   1   6   4    3.45    1.55
   0   6   4    8.67    1.46
   1   5   4    2.06    1.33
   0   5   4    9.41    1.10
   1   4   4   26.12    1.20
   1   3   4   15.69    0.98
   1   2   4   16.50    0.77
   1   1   4   26.14    0.77
   1   7   5    3.58    1.81
   0   7   5   -1.70    1.94
  -1   7   5    2.27    1.51
   1   6   5    6.16    1.57
   0   6   5    8.94    1.50
   1   5   5    3.46    1.38
   0   5   5    5.51    1.18
   1   4   5    8.25    1.22
   2   3   5    8.88    1.28
   1   3   5   10.27    1.07
   2   2   5    6.72    1.16
   1   2   5    4.55    0.75
   0   7   6    1.90    1.80
  -1   7   6    2.45    1.65
   1   6   6    2.01    1.63
   0   6   6    3.60    1.53
   1   5   6    1.18    1.44
   0   5   6    1.79    1.24
   2   4   6    2.57    1.48
   1   4   6    2.26    1.26
   2   3   6    4.65    1.35
   1   3   6    4.35    1.00
   2   2   6    1.37    1.20
   1   2   6    2.91    0.87
   1   6   7    0.35    1.70
   0   6   7    0.83    1.51
   2   5   7   -0.90    1.67
   1   5   7    1.74    1.54
   2   4   7    0.88    1.54
   1   4   7   -0.85    1.32
   2   3   7    3.30    1.44
   1   3   7    5.35    1.12
   1   2   7    2.12    1.00
   0   6   8   -0.80    1.57
   2   5   8    0.18    1.80
   1   5   8    1.92    1.60
   0   5   8    1.35    1.41
   2   4   8    2.76    1.61
   1   4   8    2.50    1.40
   2   3   8    1.82    1.54
   1   3   8    5.99    1.21
   1   2   8    4.53    1.11
   1   5   9    4.74    1.73
   0   5   9    3.81    1.50
   2   4   9    4.37    1.80
   1   4   9    0.60    1.52
   1   3   9   11.34    1.35
   1   4  10    0.85    1.63
  -1   4   0    6.86    0.58
  -1   4   1    6.44    0.62
  -1   3   1   10.01    0.52
   0   6   2    3.96    1.30
  -1   5   2    1.69    0.91
  -1   4   2    4.69    0.70
  -1   3   2    9.10    0.55
   0   7   3    1.34    1.52
   0   6   3    4.58    1.42
  -1   6   3    2.71    1.24
   0   5   3    3.37    1.20
  -1   5   3   -0.01    0.96
   0   4   3    9.25    0.97
  -1   4   3    2.58    0.79
  -1   3   3    3.78    0.55
   0   1   3   21.39    0.44
   1   7   4    7.21    1.82
   0   7   4    7.01    1.61
   0   6   4    9.61    1.50
  -1   6   4    2.32    1.29
  -1   5   4    2.10    1.04
   0   4   4   23.62    1.14
  -1   4   4    6.93    0.88
   0   3   4   13.53    0.81
   0   2   4   14.13    0.63
   0   1   4   45.22    0.65
   1   7   5    6.09    1.90
   0   7   5    2.40    1.81
   1   6   5    7.16    1.72
   0   6   5    7.43    1.46
   0   5   5    7.06    1.36
  -1   5   5    3.94    1.14
   0   4   5   24.81    1.17
   0   3   5   54.88    1.08
   0   2   5   31.23    0.79
   1   1   5   19.58    0.69
   0   7   6    3.27    1.86
   1   6   6    0.61    1.58
   0   6   6    4.83    1.62
   1   5   6    0.13    1.46
   0   5   6    0.83    1.36
   1   4   6    2.22    1.26
   0   4   6    7.13    1.14
   1   3   6    7.48    1.06
   0   3   6   20.55    0.99
   1   2   6    2.63    0.80
   1   1   6    4.12    0.67
   2   6   7    3.05    1.93
   1   6   7    3.66    1.77
   0   6   7    0.99    1.62
   2   5   7    0.85    1.68
   1   5   7    2.41    1.49
   0   5   7    1.64    1.42
   1   4   7    0.55    1.22
   0   4   7    1.54    1.21
   2   3   7    2.43    1.30
   1   3   7    5.17    1.05
   0   3   7   19.06    1.11
   2   2   7   -0.83    1.02
   1   2   7    3.04    0.87
   1   1   7    1.79    0.70
   0   6   8    1.05    1.59
   2   5   8    0.00    1.64
   1   5   8    2.36    1.55
   0   5   8    3.95    1.46
   2   4   8    0.64    1.51
   1   4   8    1.62    1.41
   0   4   8    3.54    1.27
   2   3   8   -0.52    1.34
   1   3   8    4.66    1.15
   1   2   8    5.15    1.01
   1   5   9    3.07    1.62
   2   4   9    5.26    1.62
   1   4   9    1.49    1.45
   1   3   9    9.58    1.34
   1   4  10    1.75    1.47
  -1  -4 -11    3.22    1.78
  -1  -3 -10    3.17    1.54
  -1  -4 -10    1.70    1.65
   0  -3  -9   18.33    1.30
  -1  -3  -9   14.23    1.44
   0  -4  -9    1.69    1.37
  -1  -4  -9    0.56    1.55
  -2  -4  -9    6.23    1.83
   0  -5  -9    3.56    1.55
  -1  -5  -9    4.38    1.75
  -2  -5  -9    1.53    1.89
  -1  -2  -8    6.56    1.18
   0  -3  -8   15.05    1.25
  -1  -3  -8    8.18    1.31
  -2  -3  -8    0.68    1.49
   0  -4  -8    2.97    1.30
  -1  -4  -8    2.74    1.46
  -2  -4  -8   -0.24    1.62
   0  -5  -8    3.11    1.44
  -1  -5  -8    0.88    1.61
  -2  -5  -8   -0.32    1.76
   0  -6  -8    0.26    1.68
  -1  -6  -8    2.48    1.84
   0  -1  -7    4.44    0.74
  -1  -1  -7    0.21    0.76
   0  -2  -7    3.71    0.92
  -1  -2  -7    2.62    1.04
  -2  -2  -7    0.16    1.24
   0  -3  -7   13.16    1.16
  -1  -3  -7    8.01    1.22
  -2  -3  -7    3.31    1.44
   0  -4  -7    1.81    1.23
  -1  -4  -7    0.89    1.37
  -2  -4  -7    0.12    1.55
   0  -5  -7    1.67    1.37
  -1  -5  -7    2.45    1.51
  -2  -5  -7    1.49    1.69
   0  -6  -7    0.69    1.59
  -1  -6  -7   -0.99    1.75
   0  -1  -6    4.72    0.70
  -1  -1  -6    3.60    0.82
  -1  -2  -6    2.51    0.94
  -2  -2  -6    0.62    1.13
  -1  -3  -6    8.25    1.10
  -2  -3  -6    1.94    1.33
   0  -4  -6    8.61    1.15
  -1  -4  -6    1.66    1.31
  -2  -4  -6    0.46    1.50
   1  -5  -6    4.30    1.23
   0  -5  -6    0.11    1.31
  -1  -5  -6    0.24    1.43
  -2  -5  -6    1.53    1.60
   1  -6  -6    2.10    1.44
   0  -6  -6    4.16    1.52
  -1  -6  -6    0.74    1.65
   1  -7  -6    2.69    1.67
   0  -7  -6    1.56    1.72
  -1  -7  -6   -0.43    1.86
   0  -1  -5   49.74    1.04
  -1  -1  -5   23.17    0.84
   0  -2  -5   37.55    0.87
  -1  -2  -5    3.68    0.84
  -2  -2  -5   10.14    1.11
   0  -3  -5   45.13    1.19
  -1  -3  -5   13.65    1.12
  -2  -3  -5   10.09    1.28
   1  -4  -5    9.58    1.05
   0  -4  -5   28.59    1.17
  -1  -4  -5    9.66    1.24
  -2  -4  -5    7.94    1.53
   1  -5  -5    6.24    1.16
   0  -5  -5    5.08    1.29
  -1  -5  -5    5.57    1.45
   1  -6  -5    6.20    1.37
   0  -6  -5    6.91    1.47
  -1  -6  -5    9.18    1.62
   1  -7  -5    1.93    1.59
   0  -7  -5    1.53    1.80
  -1  -7  -5    6.70    1.79
   0  -2  -4   13.57    0.69
  -1  -2  -4   20.12    0.88
   1  -3  -4    8.85    0.74
   0  -3  -4   10.90    0.81
  -1  -3  -4   18.60    1.01
  -2  -3  -4   23.31    1.32
   1  -4  -4    6.59    0.92
   0  -4  -4   16.05    1.09
  -1  -4  -4   22.27    1.25
   1  -5  -4    1.11    1.08
  -1  -5  -4    1.58    1.36
   1  -6  -4    4.42    1.27
   0  -6  -4    8.20    1.44
  -1  -6  -4    3.90    1.54
   0  -7  -4    4.43    1.73
  -1  -1  -3   59.21    0.80
   0  -2  -3    5.01    0.51
  -1  -2  -3   11.10    0.71
   1  -3  -3    4.30    0.63
  -1  -3  -3   27.49    0.99
   1  -4  -3    4.68    0.82
   0  -4  -3    7.32    0.92
  -1  -4  -3   18.37    1.19
   1  -5  -3   -0.19    0.97
   0  -5  -3   -0.27    1.25
  -1  -5  -3    3.01    1.25
   1  -6  -3    3.22    1.22
   0  -6  -3    3.15    1.34
  -1  -6  -3    6.72    1.45
   0  -7  -3    3.47    1.52
  -1  -1  -2   55.33    0.70
   0  -2  -2   31.59    0.61
  -1  -2  -2    9.23    0.65
   1  -3  -2   10.53    0.58
  -1  -3  -2   22.95    0.89
   1  -4  -2    5.84    0.75
   0  -4  -2   12.34    0.85
  -1  -4  -2    6.15    1.02
   1  -5  -2    1.97    0.97
   0  -5  -2    0.99    1.03
  -1  -5  -2    3.62    1.17
   0  -6  -2    2.96    1.31
   1  -3  -1   10.35    0.57
   0  -3  -1  212.37    1.27
   1  -4  -1    4.46    0.68
   0  -4  -1    7.64    0.81
   1  -3   0   36.49    0.65
   0  -3   0  331.96    1.57
   1  -4   0    8.50    0.66
   0  -4   0   23.40    0.85
  -1  -4 -10    2.58    1.49
  -1  -3  -9   11.64    1.34
  -1  -4  -9    0.45    1.43
  -2  -4  -9    5.89    1.63
  -1  -5  -9    5.28    1.64
  -2  -5  -9    1.66    1.79
  -1  -2  -8    9.30    1.03
  -1  -3  -8    5.84    1.22
  -2  -3  -8    0.61    1.29
   0  -4  -8    1.74    1.27
  -1  -4  -8    4.50    1.37
  -2  -4  -8   -0.04    1.49
   0  -5  -8    2.82    1.46
  -1  -5  -8    2.26    1.56
  -2  -5  -8   -0.25    1.66
   0  -6  -8    0.73    1.66
  -1  -6  -8    3.42    1.80
  -1  -2  -7    2.14    0.92
   0  -3  -7   15.23    1.09
  -1  -3  -7    7.37    1.16
  -2  -3  -7    1.98    1.27
   0  -4  -7    2.38    1.23
  -1  -4  -7    1.68    1.36
  -2  -4  -7    0.68    1.46
   0  -5  -7    3.80    1.40
  -1  -5  -7    5.66    1.54
  -2  -5  -7    0.19    1.64
   0  -6  -7    1.16    1.63
  -1  -6  -7    1.69    1.76
  -2  -6  -7    2.96    1.90
  -1  -1  -6    2.23    0.66
   0  -2  -6    7.37    0.77
  -1  -2  -6    1.77    0.86
  -2  -2  -6   -0.07    1.03
  -1  -3  -6   10.15    1.11
  -2  -3  -6    2.07    1.23
   0  -4  -6    7.37    1.18
  -1  -4  -6    3.07    1.30
  -2  -4  -6    1.77    1.45
   0  -5  -6    1.67    1.35
  -1  -5  -6    1.32    1.50
  -2  -5  -6   -0.28    1.62
   0  -6  -6    3.21    1.58
  -1  -6  -6    0.85    1.70
   0  -7  -6    0.16    1.78
  -1  -7  -6    1.65    1.93
  -1  -1  -5   16.60    0.77
  -2  -1  -5    3.37    0.81
   0  -2  -5   28.92    0.87
  -1  -2  -5    4.69    0.78
  -2  -2  -5    7.53    1.02
   0  -3  -5   54.80    1.13
  -1  -3  -5   15.57    1.12
  -2  -3  -5    8.85    1.21
   1  -4  -5    9.51    1.03
   0  -4  -5   25.08    1.24
  -1  -4  -5   10.96    1.31
  -2  -4  -5    9.84    1.51
   1  -5  -5    5.68    1.15
   0  -5  -5    7.38    1.36
  -1  -5  -5    7.45    1.51
  -2  -5  -5    0.72    1.59
   0  -6  -5    7.49    1.58
  -1  -6  -5    5.67    1.74
  -1  -7  -5    4.03    1.93
   0  -1  -4   48.51    0.66
  -1  -2  -4   24.48    0.84
  -2  -2  -4   13.17    0.96
   1  -3  -4    9.27    0.73
   0  -3  -4    7.76    0.82
  -1  -3  -4   18.61    1.01
  -2  -3  -4   22.20    1.32
   1  -4  -4    9.17    0.90
   0  -4  -4   15.29    1.14
  -1  -4  -4   22.77    1.31
  -2  -4  -4   18.01    1.45
   1  -5  -4    0.59    1.07
  -1  -5  -4    4.43    1.40
   1  -6  -4    3.08    1.31
   0  -6  -4   10.83    1.53
  -1  -6  -4    5.50    1.70
   1  -7  -4    3.95    1.47
   0  -7  -4   11.03    1.85
  -1  -7  -4    2.95    1.90
   0  -8  -4    1.64    1.98
  -1  -1  -3   59.91    0.79
  -1  -2  -3   13.17    0.72
   1  -3  -3    5.28    0.60
  -1  -3  -3   26.43    1.06
   1  -4  -3    3.67    0.82
   0  -4  -3    6.15    0.99
  -1  -4  -3   23.16    1.26
   1  -5  -3    1.08    0.98
   0  -5  -3    3.18    1.25
  -1  -5  -3    1.81    1.37
   1  -6  -3    2.18    1.22
   0  -6  -3    2.72    1.40
  -1  -6  -3    6.56    1.61
   0  -7  -3    2.65    1.59
  -1  -7  -3    0.79    1.82
  -1  -1  -2   53.54    0.71
   0  -2  -2   30.87    0.61
  -1  -2  -2   12.89    0.68
   0  -3  -2   32.12    0.83
  -1  -3  -2   23.43    1.02
   1  -4  -2    6.12    0.71
   0  -4  -2    5.82    0.95
  -1  -4  -2   11.25    1.10
   1  -5  -2    0.96    0.93
   0  -5  -2    3.97    1.09
  -1  -5  -2    1.65    1.31
   0  -6  -2    2.19    1.37
  -1  -6  -2    4.63    1.59
   0  -3  -1  204.95    1.33
  -1  -3  -1   23.70    0.94
   1  -4  -1    5.49    0.64
   0  -4  -1    5.45    0.82
  -1  -4  -1   16.63    1.15
   1  -5  -1    1.05    0.84
   0  -5  -1   25.66    1.18
  -1  -5  -1    6.40    1.32
   0  -6  -1   10.10    1.30
   0  -3   0  341.68    1.56
   0  -4   0   25.17    0.92
   0  -5   0   39.40    1.22
   0  -3   1  231.80    1.44
   0  -4   1   13.37    0.82
   0   0   0    0.00    0.00
;
_shelx_hkl_checksum              12151
_olex2_submission_special_instructions 'No special instructions were received'
loop_
_space_group_symop_operation_xyz
'x, y, z'
loop_
_atom_site_label
_atom_site_type_symbol
_atom_site_fract_x
_atom_site_fract_y
_atom_site_fract_z
_atom_site_U_iso_or_equiv
_atom_site_adp_type
_atom_site_occupancy
_atom_site_site_symmetry_order
_atom_site_calc_flag
_atom_site_refinement_flags_posn
Co1 Co -0.051(6) -0.006(3) -0.033(2) 0.032(3) Uiso 1 1 d D
N1 N -0.062(6) 0.319(6) -0.029(2) 0.033(8) Uiso 1 1 d D
N2 N -0.045(9) 0.698(6) -0.042(3) 0.033(8) Uiso 1 1 d D
C11 C -0.284(9) 0.415(5) -0.020(5) 0.051(9) Uiso 1 1 d D
H11A H -0.3200 0.3895 0.0673 0.061 Uiso 1 1 calc R
H11B H -0.4131 0.3479 -0.0780 0.061 Uiso 1 1 calc R
C8 C -0.337(8) 0.058(6) 0.700(3) 0.055(8) Uiso 1 1 d D
C9 C 0.037(10) 0.372(4) -0.150(3) 0.051(9) Uiso 1 1 d D
H9A H -0.0641 0.3155 -0.2252 0.061 Uiso 1 1 calc R
H9B H 0.1994 0.3342 -0.1458 0.061 Uiso 1 1 calc R
C12 C -0.302(10) 0.630(5) -0.045(7) 0.051(9) Uiso 1 1 d D
H12A H -0.3952 0.6539 -0.1292 0.061 Uiso 1 1 calc R
H12B H -0.3712 0.6899 0.0212 0.061 Uiso 1 1 calc R
O3 O -0.541(8) 0.105(7) 0.705(6) 0.087(13) Uiso 1 1 d D
C7 C -0.124(8) 0.012(5) 0.183(2) 0.055(8) Uiso 1 1 d D
C14 C 0.081(17) 0.594(6) 0.070(6) 0.051(9) Uiso 1 1 d D
H14A H -0.0124 0.6054 0.1396 0.061 Uiso 1 1 calc R
H14B H 0.2330 0.6688 0.0955 0.061 Uiso 1 1 calc R
C10 C 0.030(13) 0.590(5) -0.148(4) 0.051(9) Uiso 1 1 d D
H10A H 0.1907 0.6439 -0.1569 0.061 Uiso 1 1 calc R
H10B H -0.0739 0.6246 -0.2264 0.061 Uiso 1 1 calc R
C13 C 0.140(9) 0.384(5) 0.072(3) 0.051(9) Uiso 1 1 d D
H13A H 0.2957 0.3693 0.0460 0.061 Uiso 1 1 calc R
H13B H 0.1299 0.3209 0.1544 0.061 Uiso 1 1 calc R
C6 C -0.010(7) -0.016(6) 0.420(3) 0.055(8) Uiso 1 1 d D
H6 H 0.1402 -0.0509 0.4065 0.067 Uiso 1 1 calc R
C1 C -0.182(7) 0.025(4) 0.316(2) 0.055(8) Uiso 1 1 d DG
C2 C -0.406(7) 0.076(6) 0.336(3) 0.055(8) Uiso 1 1 d DG
H2 H -0.5218 0.1038 0.2665 0.067 Uiso 1 1 calc R
C3 C -0.457(7) 0.087(6) 0.462(3) 0.055(8) Uiso 1 1 d DG
H3 H -0.6072 0.1222 0.4756 0.067 Uiso 1 1 calc R
C4 C -0.285(7) 0.047(4) 0.566(3) 0.055(8) Uiso 1 1 d DG
C5 C -0.061(7) -0.005(6) 0.546(2) 0.055(8) Uiso 1 1 d DG
H5 H 0.0548 -0.0325 0.6156 0.067 Uiso 1 1 calc R
O1 O 0.074(8) -0.032(7) 0.164(6) 0.087(13) Uiso 1 1 d D
O2 O -0.266(15) 0.042(7) 0.085(4) 0.087(13) Uiso 1 1 d D
O1W O 0.305(4) -0.042(5) -0.015(3) 0.014(8) Uiso 1 1 d D
O4 O -0.201(9) -0.014(6) 0.771(5) 0.029(10) Uiso 1 1 d D
H1WA H 0.4623 0.0023 0.0244 0.00(18) Uiso 1 1 d D
H1WB H 0.3969 -0.0172 -0.0877 0.00(18) Uiso 1 1 d D
loop_
_atom_type_symbol
_atom_type_description
_atom_type_scat_dispersion_real
_atom_type_scat_dispersion_imag
_atom_type_scat_source
C C 0.0033 0.0016 'International Tables Vol C Tables 4.2.6.8 and 6.1.1.4'
H H 0.0000 0.0000 'International Tables Vol C Tables 4.2.6.8 and 6.1.1.4'
Co Co 0.3494 0.9721 'International Tables Vol C Tables 4.2.6.8 and 6.1.1.4'
N N 0.0061 0.0033 'International Tables Vol C Tables 4.2.6.8 and 6.1.1.4'
O O 0.0106 0.0060 'International Tables Vol C Tables 4.2.6.8 and 6.1.1.4'
loop_
_geom_angle_atom_site_label_1
_geom_angle_atom_site_label_2
_geom_angle_atom_site_label_3
_geom_angle
_geom_angle_site_symmetry_1
_geom_angle_site_symmetry_3
N2 Co1 N1 178.1(14) 1_545 .
N2 Co1 O1 87.1(17) 1_545 .
N2 Co1 O4 86.7(14) 1_545 1_554
O1 Co1 N1 94.8(16) . .
O1 Co1 O4 173(3) . 1_554
O2 Co1 N1 74(2) . .
O2 Co1 N2 107(2) . 1_545
O2 Co1 O1 62.5(12) . .
O2 Co1 O1W 134.9(15) . .
O2 Co1 O4 116(2) . 1_554
O1W Co1 N1 103.5(17) . .
O1W Co1 N2 77.0(17) . 1_545
O1W Co1 O1 73.1(15) . .
O1W Co1 O4 109(2) . 1_554
O4 Co1 N1 91.4(13) 1_554 .
C11 N1 Co1 123(3) . .
C11 N1 C13 112(3) . .
C9 N1 Co1 100(3) . .
C9 N1 C11 113(3) . .
C9 N1 C13 102.0(3) . .
C13 N1 Co1 104(2) . .
C12 N2 Co1 103(3) . 1_565
C12 N2 C14 104(4) . .
C12 N2 C10 104(4) . .
C14 N2 Co1 119(3) . 1_565
C10 N2 Co1 126(3) . 1_565
C10 N2 C14 99(4) . .
N1 C11 H11A 106.8 . .
N1 C11 H11B 106.8 . .
N1 C11 C12 122(5) . .
H11A C11 H11B 106.7 . .
C12 C11 H11A 106.8 . .
C12 C11 H11B 106.8 . .
O3 C8 C4 113(4) . .
O4 C8 O3 133(4) . .
O4 C8 C4 111(3) . .
N1 C9 H9A 111.8 . .
N1 C9 H9B 111.8 . .
N1 C9 C10 100(4) . .
H9A C9 H9B 109.5 . .
C10 C9 H9A 111.8 . .
C10 C9 H9B 111.8 . .
N2 C12 C11 101(5) . .
N2 C12 H12A 111.5 . .
N2 C12 H12B 111.5 . .
C11 C12 H12A 111.5 . .
C11 C12 H12B 111.5 . .
H12A C12 H12B 109.3 . .
O1 C7 C1 121(3) . .
O2 C7 C1 124(4) . .
O2 C7 O1 115(7) . .
N2 C14 H14A 105.9 . .
N2 C14 H14B 105.9 . .
N2 C14 C13 126(4) . .
H14A C14 H14B 106.2 . .
C13 C14 H14A 105.9 . .
C13 C14 H14B 105.9 . .
N2 C10 C9 124(4) . .
N2 C10 H10A 106.2 . .
N2 C10 H10B 106.2 . .
C9 C10 H10A 106.2 . .
C9 C10 H10B 106.2 . .
H10A C10 H10B 106.4 . .
N1 C13 C14 96(4) . .
N1 C13 H13A 112.6 . .
N1 C13 H13B 112.6 . .
C14 C13 H13A 112.6 . .
C14 C13 H13B 112.6 . .
H13A C13 H13B 110.1 . .
C1 C6 H6 120.0 . .
C1 C6 C5 120.0 . .
C5 C6 H6 120.0 . .
C6 C1 C7 119.2(11) . .
C6 C1 C2 120.0 . .
C2 C1 C7 120.8(11) . .
C1 C2 H2 120.0 . .
C1 C2 C3 120.0 . .
C3 C2 H2 120.0 . .
C2 C3 H3 120.0 . .
C4 C3 C2 120.0 . .
C4 C3 H3 120.0 . .
C3 C4 C8 120.4(11) . .
C3 C4 C5 120.0 . .
C5 C4 C8 119.6(11) . .
C6 C5 H5 120.0 . .
C4 C5 C6 120.0 . .
C4 C5 H5 120.0 . .
C7 O1 Co1 87(4) . .
C7 O2 Co1 96(5) . .
Co1 O1W H1WA 146(3) . .
Co1 O1W H1WB 122(2) . .
H1WA O1W H1WB 75.3(18) . .
C8 O4 Co1 140(3) . 1_556
loop_
_geom_bond_atom_site_label_1
_geom_bond_atom_site_label_2
_geom_bond_distance
_geom_bond_site_symmetry_2
Co1 N1 2.26(5) .
Co1 N2 2.07(4) 1_545
Co1 O1 2.08(7) .
Co1 O2 1.91(9) .
Co1 O1W 2.03(3) .
Co1 O4 2.10(4) 1_554
N1 C11 1.480(3) .
N1 C9 1.480(3) .
N1 C13 1.480(3) .
N2 Co1 2.07(4) 1_565
N2 C12 1.480(3) .
N2 C14 1.480(3) .
N2 C10 1.480(3) .
C11 H11A 0.9700 .
C11 H11B 0.9700 .
C11 C12 1.520(3) .
C8 O3 1.230(3) .
C8 C4 1.480(3) .
C8 O4 1.12(4) .
C9 H9A 0.9700 .
C9 H9B 0.9700 .
C9 C10 1.520(3) .
C12 H12A 0.9700 .
C12 H12B 0.9700 .
C7 C1 1.480(3) .
C7 O1 1.230(3) .
C7 O2 1.230(3) .
C14 H14A 0.9700 .
C14 H14B 0.9700 .
C14 C13 1.520(3) .
C10 H10A 0.9700 .
C10 H10B 0.9700 .
C13 H13A 0.9700 .
C13 H13B 0.9700 .
C6 H6 0.9300 .
C6 C1 1.3900 .
C6 C5 1.3900 .
C1 C2 1.3900 .
C2 H2 0.9300 .
C2 C3 1.3900 .
C3 H3 0.9300 .
C3 C4 1.3900 .
C4 C5 1.3900 .
C5 H5 0.9300 .
O1W H1WA 0.95(2) .
O1W H1WB 0.99(3) .
O4 Co1 2.10(4) 1_556
loop_
_geom_torsion_atom_site_label_1
_geom_torsion_atom_site_label_2
_geom_torsion_atom_site_label_3
_geom_torsion_atom_site_label_4
_geom_torsion
_geom_torsion_site_symmetry_1
_geom_torsion_site_symmetry_4
Co1 N1 C11 C12 -167(4) . .
Co1 N1 C9 C10 -180(4) . .
Co1 N1 C13 C14 -173(5) . .
Co1 N2 C12 C11 -167(4) 1_565 .
Co1 N2 C14 C13 -169(7) 1_565 .
Co1 N2 C10 C9 179(5) 1_565 .
N1 C11 C12 N2 -15(6) . .
N1 C9 C10 N2 4(7) . .
N2 C14 C13 N1 -28(10) . .
C11 N1 C9 C10 48(4) . .
C11 N1 C13 C14 -38(5) . .
C8 C4 C5 C6 -180.0(13) . .
C9 N1 C11 C12 -48(5) . .
C9 N1 C13 C14 83(6) . .
C12 N2 C14 C13 78(9) . .
C12 N2 C10 C9 -64(6) . .
O3 C8 C4 C3 0.2(11) . .
O3 C8 C4 C5 -179.8(7) . .
O3 C8 O4 Co1 -44(9) . 1_556
C7 C1 C2 C3 179.9(13) . .
C14 N2 C12 C11 -43(5) . .
C14 N2 C10 C9 43(9) . .
C10 N2 C12 C11 61(4) . .
C10 N2 C14 C13 -29(12) . .
C13 N1 C11 C12 67(4) . .
C13 N1 C9 C10 -73(5) . .
C6 C1 C2 C3 0.0 . .
C1 C7 O1 Co1 180(2) . .
C1 C7 O2 Co1 -180(2) . .
C1 C6 C5 C4 0.0 . .
C1 C2 C3 C4 0.0 . .
C2 C3 C4 C8 180.0(13) . .
C2 C3 C4 C5 0.0 . .
C3 C4 C5 C6 0.0 . .
C4 C8 O4 Co1 155(5) . 1_556
C5 C6 C1 C7 -180.0(12) . .
C5 C6 C1 C2 0.0 . .
O1 C7 C1 C6 -0.8(17) . .
O1 C7 C1 C2 179.2(14) . .
O1 C7 O2 Co1 0(2) . .
O2 C7 C1 C6 178.9(14) . .
O2 C7 C1 C2 -1.0(17) . .
O2 C7 O1 Co1 0(2) . .
O4 C8 C4 C3 166(4) . .
O4 C8 C4 C5 -14(4) . .
