#------------------------------------------------------------------------------
#$Date: 2019-11-24 04:12:18 +0200 (Sun, 24 Nov 2019) $
#$Revision: 236652 $
#$URL: file:///home/coder/svn-repositories/cod/cif/8/00/03/8000371.cif $
#------------------------------------------------------------------------------
#
# This file is available in the Crystallography Open Database (COD),
# http://www.crystallography.net/
#
# All data on this site have been placed in the public domain by the
# contributors.
#
data_8000371
loop_
_publ_author_name
'Andrzejewski, Micha\/l'
'Katrusiak, Andrzej'
_publ_section_title
;
 Piezochromic Porous Metal-Organic Framework.
;
_journal_issue                   1
_journal_name_full               'The journal of physical chemistry letters'
_journal_page_first              279
_journal_page_last               284
_journal_paper_doi               10.1021/acs.jpclett.6b02458
_journal_volume                  8
_journal_year                    2017
_chemical_formula_moiety         'C14 H18 Co N2 O5'
_chemical_formula_sum            'C14 H16 Co N2 O5'
_chemical_formula_weight         351.22
_chemical_name_common            AMU1
_chemical_name_systematic
;
Co(1,4-benzenedicarboxylate)(1,4-diazabicyclo[2.2.2]octane)H2O
;
_space_group_crystal_system      monoclinic
_space_group_IT_number           6
_space_group_name_Hall           'P -2y'
_space_group_name_H-M_alt        'P 1 m 1'
_atom_sites_solution_hydrogens   mixed
_atom_sites_solution_primary     direct
_audit_creation_date             2016-07-12
_audit_creation_method
;
Olex2 1.2
(compiled 2016.02.19 svn.r3266 for OlexSys, GUI svn.r5155)
;
_cell_angle_alpha                90
_cell_angle_beta                 95.19(3)
_cell_angle_gamma                90
_cell_formula_units_Z            1
_cell_length_a                   6.0509(6)
_cell_length_b                   7.0817(7)
_cell_length_c                   10.657(10)
_cell_measurement_reflns_used    612
_cell_measurement_temperature    296(2)
_cell_measurement_theta_max      52.054
_cell_measurement_theta_min      9.432
_cell_volume                     454.8(4)
_computing_molecular_graphics    'Olex2 (Dolomanov et al., 2009)'
_computing_publication_material  'Olex2 (Dolomanov et al., 2009)'
_computing_structure_refinement  'ShelXL (Sheldrick, 2015)'
_computing_structure_solution    'ShelXS (Sheldrick, 2008)'
_diffrn_ambient_temperature      296(2)
_diffrn_measured_fraction_theta_full 0.329
_diffrn_measured_fraction_theta_max 0.329
_diffrn_measurement_device_type  'multiwire proportional'
_diffrn_measurement_method       'phi and omega scans'
_diffrn_radiation_monochromator  graphite
_diffrn_radiation_type           MoK\a
_diffrn_radiation_wavelength     0.71073
_diffrn_reflns_av_R_equivalents  0.0463
_diffrn_reflns_av_unetI/netI     0.0609
_diffrn_reflns_Laue_measured_fraction_full 0.329
_diffrn_reflns_Laue_measured_fraction_max 0.329
_diffrn_reflns_limit_h_max       7
_diffrn_reflns_limit_h_min       -7
_diffrn_reflns_limit_k_max       8
_diffrn_reflns_limit_k_min       -8
_diffrn_reflns_limit_l_max       4
_diffrn_reflns_limit_l_min       -4
_diffrn_reflns_number            2306
_diffrn_reflns_point_group_measured_fraction_full 0.326
_diffrn_reflns_point_group_measured_fraction_max 0.327
_diffrn_reflns_theta_full        26.000
_diffrn_reflns_theta_max         26.027
_diffrn_reflns_theta_min         4.716
_exptl_absorpt_coefficient_mu    0.964
_exptl_absorpt_correction_T_max  0.908
_exptl_absorpt_correction_T_min  0.891
_exptl_absorpt_correction_type   multi-scan
_exptl_absorpt_process_details
;
Data were collected and reduced by program CrysAlisPro, 
and SCALE3 ABSPACK was used for absorption correction
;
_exptl_crystal_colour            purple
_exptl_crystal_density_diffrn    1.282
_exptl_crystal_description       plate
_exptl_crystal_F_000             183
_exptl_crystal_size_max          0.3
_exptl_crystal_size_mid          0.1
_exptl_crystal_size_min          0.1
_refine_diff_density_max         1.753
_refine_diff_density_min         -0.966
_refine_diff_density_rms         0.253
_refine_ls_abs_structure_details
;
 Refined as a perfect inversion twin.
;
_refine_ls_abs_structure_Flack   0.5
_refine_ls_extinction_method     none
_refine_ls_goodness_of_fit_ref   1.396
_refine_ls_hydrogen_treatment    constr
_refine_ls_matrix_type           full
_refine_ls_number_parameters     50
_refine_ls_number_reflns         612
_refine_ls_number_restraints     17
_refine_ls_restrained_S_all      1.841
_refine_ls_R_factor_all          0.1567
_refine_ls_R_factor_gt           0.1323
_refine_ls_shift/su_max          0.000
_refine_ls_shift/su_mean         0.000
_refine_ls_structure_factor_coef Fsqd
_refine_ls_weighting_details
'w=1/[\s^2^(Fo^2^)+(0.2000P)^2^] where P=(Fo^2^+2Fc^2^)/3'
_refine_ls_weighting_scheme      calc
_refine_ls_wR_factor_gt          0.3184
_refine_ls_wR_factor_ref         0.3363
_reflns_Friedel_coverage         0.978
_reflns_Friedel_fraction_full    0.324
_reflns_Friedel_fraction_max     0.325
_reflns_number_gt                486
_reflns_number_total             612
_reflns_threshold_expression     'I > 2\s(I)'
_cod_data_source_file            jz6b02458_si_004.cif
_cod_data_source_block           029GPa_Pm
_cod_database_code               8000371
_shelx_space_group_comment
;
The symmetry employed for this shelxl refinement is uniquely defined
by the following loop, which should always be used as a source of
symmetry information in preference to the above space-group names.
They are only intended as comments.
;
_olex2_refinement_description
;
1. Fixed Uiso
 At 1.2 times of:
  All C(H) groups, All C(H,H) groups
 At 1.5 times of:
  All O(H,H) groups
2. Restrained distances
 C7-C1
 1.28 with sigma of 0.02
 C7-C1
 1.5 with sigma of 0.02
 C4-C8
 1.5 with sigma of 0.02
 O3-O4
 2.16 with sigma of 0.002
 H1WA-H1WB
 1.66 with sigma of 0.001
 O1W-H1WB
 0.97 with sigma of 0.001
 O2-C1 \\sim C1-O1
 with sigma of 0.02
 C2-C7 \\sim C7-C6
 with sigma of 0.02
 O3-C4 \\sim C4-O4
 with sigma of 0.02
3. Restrained planarity
 O1, O2, C7, C3, C2, C1, C6, C5, C4
 with sigma of 0.1
4. Uiso/Uaniso restraints and constraints
Uiso(O3) = Uiso(O4) = Uiso(O2) = Uiso(O1)
5. Others
 Fixed X: H1WA(0.46616) H1WB(0.42578)
 Fixed Y: H1WA(0) H1WB(0)
 Fixed Z: H1WA(0.03514)
6.a Secondary CH2 refined with riding coordinates:
 C9(H9A,H9B), C10(H10A,H10B), C11(H11A,H11B)
6.b Aromatic/amide H refined with riding coordinates:
 C3(H3), C2(H2), C6(H6), C5(H5)
6.c Fitted hexagon refined as free rotating group:
 C3(C2,C1,C6,C5,C4)
;
_shelx_hkl_file
;
   0  -8   0   27.36   10.71
   0  -8  -1    1.30    8.27
   0  -8  -2    4.79    8.87
   0  -8  -3   19.22   10.04
   0  -7   0   27.87    8.48
   0  -7   0   20.00    7.99
   0  -7  -1   41.65   10.35
   0  -7  -1   37.58    9.45
   0  -7  -2    7.39    7.88
   0  -7  -2   14.31    9.17
   0  -7  -3   -1.61    7.10
   0  -7  -3   28.75    8.85
   0  -6   0  190.67   15.81
   0  -6   0  174.16   14.47
   0  -6   1   25.40    7.88
   0  -6  -1   14.51    7.00
   0  -6   1   34.91    7.69
   0  -6  -1   13.27    7.09
   0  -6   1   22.80    7.90
   0  -6  -2   38.59    8.56
   0  -6  -2   28.97    7.82
   0  -6  -3   32.20    8.68
   0  -6  -3   24.98    7.35
   0  -5   0  388.35   19.25
   0  -5   0  425.07   17.93
   0  -5   0  423.80   17.46
   0  -5   0  415.45   18.90
   0  -5  -1  173.90   12.95
   0  -5   1  184.06   14.30
   0  -5   1  181.05   12.90
   0  -5  -1  167.66   11.59
   0  -5  -1  170.68   13.16
   0  -5  -1  177.97   11.57
   0  -5   1  169.65   12.32
   0  -5  -2   40.30    6.58
   0  -5  -2   30.86    6.56
   0  -5  -2   36.63    6.43
   0  -5  -2   31.14    6.72
   0  -5  -3   11.50    5.69
   0  -5  -3   14.76    6.52
   0  -5  -3   11.50    4.91
   0  -4   0  578.91   20.43
   0  -4   0  638.45   20.36
   0  -4   0  587.04   18.11
   0  -4   0  652.56   16.47
   0  -4   0  625.23   18.44
   0  -4  -1    8.99    3.57
   0  -4  -1    8.39    2.76
   0  -4   1   13.44    3.45
   0  -4   1   17.76    4.36
   0  -4   1   14.35    4.38
   0  -4  -1   12.63    5.09
   0  -4   1   23.70    5.29
   0  -4  -1   12.42    4.40
   0  -4  -1   15.85    4.12
   0  -4  -1   13.25    3.26
   0  -4  -2   38.08    6.26
   0  -4  -2   43.50    5.47
   0  -4  -2   37.09    4.54
   0  -4  -2   38.34    6.24
   0  -4  -2   47.45    6.05
   0  -4  -3   35.53    6.40
   0  -4  -3   34.50    5.51
   0  -4  -3   38.96    6.45
   0  -3   0 2566.06   34.41
   0  -3   0 2533.51   31.59
   0  -3   0 2540.61   28.28
   0  -3   0 2534.43   36.10
   0  -3   0 2534.51   32.01
   0  -3  -1 1076.51   22.68
   0  -3  -1 1056.59   23.56
   0  -3  -1 1106.41   18.26
   0  -3   1 1067.17   23.25
   0  -3  -1 1089.44   20.30
   0  -3   1 1016.57   24.47
   0  -3   1 1077.33   22.24
   0  -3  -1 1085.87   20.93
   0  -3  -2  191.51    8.43
   0  -3  -2  213.41   11.22
   0  -3  -2  179.69    9.10
   0  -3  -2  213.84   10.94
   0  -3  -2  216.19    9.69
   0  -2   0 6160.72   44.78
   0  -2  -1   24.73    3.19
   0  -2  -1   20.74    2.91
   0  -2  -2  155.97    8.06
   0  -2  -2  163.60    8.46
   0   2   0 6114.28   45.18
   0   2   0 6081.73   43.16
   0   2   0 6131.58   40.20
   0   2   1   33.36    3.18
   0   2  -1   28.27    3.67
   0   2   1   31.08    3.36
   0   3   0 2553.89   32.39
   0   3   0 2492.37   29.09
   0   3   0 2583.47   35.23
   0   3   0 2572.97   36.36
   0   3   0 2499.64   27.71
   0   3  -1  976.29   24.30
   0   3   1 1083.45   23.09
   0   3  -1 1061.70   24.72
   0   3   1 1064.74   18.40
   0   3   1 1064.17   20.19
   0   3   1 1099.96   18.45
   0   3   2  194.51    9.38
   0   3   2  193.34    8.44
   0   3   2  192.40   10.18
   0   4   0  630.95   21.34
   0   4   0  608.45   18.84
   0   4   0  610.32   20.34
   0   4   0  615.59   16.06
   0   4   1   24.17    6.13
   0   4   1   18.97    3.58
   0   4  -1   11.86    3.04
   0   4   1   22.60    4.62
   0   4   1   21.85    4.40
   0   4  -1    6.92    3.77
   0   4   1   21.64    4.91
   0   4  -1    7.93    4.22
   0   4   1   16.39    3.46
   0   4   2   41.07    5.36
   0   4   2   33.51    5.93
   0   4   3   46.85    6.97
   0   5   0  415.66   19.32
   0   5   0  406.95   17.72
   0   5   0  418.04   20.17
   0   5   1  172.93   11.50
   0   5   1  182.40   13.71
   0   5  -1  194.43   14.75
   0   5   1  183.06   12.25
   0   5   1  187.90   13.31
   0   5   2   29.94    7.49
   0   5   2   31.00    6.57
   0   5   2   36.45    6.05
   0   5   3   10.93    5.43
   0   6   0  204.54   16.66
   0   6   0  192.51   15.15
   0   6   1   33.04    8.66
   0   6   1   17.55    6.68
   0   6  -1   31.35    8.63
   0   6   2   32.94    8.82
   0   6   2   31.41    8.08
   0   6   3   20.63    8.52
   0   6   3   27.68    6.94
   0   7   0   14.74    8.11
   0   7   0  122.31   15.75
   0   7   1   26.88    8.37
   0   7   1   18.14    8.57
   0   7   2   20.87    9.02
   0   7   2   -0.18    7.09
   0   7   3  -12.96   10.88
   0   7   3  -25.63   10.68
   0   7   4    1.49    8.36
   0   8   0   64.96   13.31
   0   8   1   12.42    8.67
   0   8   2    7.65    7.98
   0   8   3   11.67    9.47
   1  -8  -3   -8.25    9.02
   1  -8  -3    0.53    9.73
   1  -8  -2    7.86    9.41
   1  -8  -2    3.20    8.23
   1  -8  -1   10.48    9.81
   1  -8  -1    4.91    8.50
  -1  -8   0    4.41    9.64
  -1  -8  -1   10.97   10.11
  -1  -8  -2   20.78    9.30
  -1  -8  -3    8.89   10.31
   1  -7  -4   19.50    8.38
   1  -7  -4    2.41    7.57
   1  -7  -3    5.63    7.57
   1  -7  -3   10.91    8.38
   1  -7  -2   14.47    8.84
   1  -7  -2   23.76    9.66
  -1  -7   1   10.86    7.34
   1  -7  -1   21.40    8.67
   1  -7  -1   13.28    8.19
  -1  -7   1   15.21    8.71
   1  -7   0   26.27    8.54
  -1  -7   0   28.37    9.60
  -1  -7   0   22.88    7.85
   1  -7   0   33.56    9.41
  -1  -7   0   45.42    8.72
  -1  -7  -1   13.15    7.58
  -1  -7  -1   17.77    8.63
  -1  -7  -2   -0.20    6.17
  -1  -7  -2    9.15    7.77
  -1  -7  -3    3.41    7.67
   1  -6  -4   37.26    8.74
   1  -6  -4   36.51    9.54
   1  -6  -3   32.03    8.62
   1  -6  -3   38.09    9.75
   1  -6  -2   28.51    8.97
   1  -6  -2   17.41    7.42
  -1  -6   1   39.01    8.34
   1  -6  -1   35.25    8.78
  -1  -6   1   39.71    9.43
   1  -6  -1   31.08    8.55
  -1  -6   0   65.07    9.93
   1  -6   0   68.15   10.39
  -1  -6   0   64.48   10.16
  -1  -6   0   63.10    9.42
   1  -6   0   59.07   10.52
  -1  -6  -1   44.66    9.37
  -1  -6  -1   37.37    7.85
  -1  -6  -1   41.86    8.04
  -1  -6  -2   13.84    5.55
  -1  -6  -2   26.40    7.59
  -1  -6  -2   15.93    7.03
  -1  -6  -3   56.55   10.30
  -1  -6  -3   26.04    7.50
  -1  -6  -3   44.19    8.49
   1  -5  -4   11.41    6.45
   1  -5  -3    6.34    5.84
   1  -5  -3   -2.69    5.08
   1  -5  -3   -3.23    5.32
   1  -5  -2   17.53    6.16
   1  -5  -2   10.83    5.65
   1  -5  -2   17.79    5.64
   1  -5  -1   46.44    7.84
  -1  -5   1   47.53    7.23
  -1  -5   1   66.00    9.04
  -1  -5   1   44.00    6.81
   1  -5  -1   44.90    8.33
  -1  -5   1   47.10    8.09
   1  -5  -1   50.75    6.91
  -1  -5   0  164.57   11.30
  -1  -5   0  153.67   11.80
   1  -5   0  162.80   11.26
  -1  -5   0  167.12   12.51
  -1  -5   0  157.87   12.84
   1  -5   0  136.81   11.88
   1  -5   0  158.61   13.11
  -1  -5  -1   35.32    6.46
   1  -5   1   43.26    7.50
   1  -5   1   31.37    6.36
  -1  -5  -1   28.31    6.12
   1  -5   1   46.93    8.12
  -1  -5  -1   32.99    7.36
  -1  -5  -1   29.79    6.59
  -1  -5  -2   23.30    6.45
  -1  -5  -2   27.23    6.74
  -1  -5  -2   30.01    6.29
  -1  -5  -2   20.79    6.91
  -1  -5  -3   11.69    5.50
  -1  -5  -3    7.21    4.38
  -1  -5  -3   14.15    6.06
   1  -4  -3   83.72    8.85
   1  -4  -3   96.79    8.58
   1  -4  -3   92.31    8.20
   1  -4  -3   91.89    9.85
   1  -4  -2   29.97    5.90
   1  -4  -2   36.42    5.88
   1  -4  -2   25.85    5.39
   1  -4  -2   33.97    5.38
   1  -4  -1   44.30    5.86
   1  -4  -1   48.58    6.66
  -1  -4   1   44.90    6.40
  -1  -4   1   41.31    5.60
   1  -4  -1   44.44    5.48
  -1  -4   1   48.79    6.93
  -1  -4   1   37.95    6.05
   1  -4  -1   43.74    6.70
   1  -4   0  127.45    7.95
  -1  -4   0  135.19    8.98
   1  -4   0  135.46   10.45
  -1  -4   0  136.39    9.80
   1  -4   0  122.25    8.92
   1  -4   0  117.05    9.57
  -1  -4   0  141.19   10.21
   1  -4   0  124.46    8.99
  -1  -4   0  133.54    8.07
  -1  -4   0  150.88   10.94
  -1  -4  -1   95.30    8.60
   1  -4   1  105.36    9.60
   1  -4   1   99.84    8.01
   1  -4   1  114.15   10.06
  -1  -4  -1   94.01    8.28
  -1  -4  -1   92.33    7.62
  -1  -4  -1   93.51    9.09
  -1  -4  -2   51.29    7.30
  -1  -4  -2   55.41    6.75
  -1  -4  -2   58.49    7.22
  -1  -4  -2   53.49    6.82
  -1  -4  -3  106.90    9.57
  -1  -4  -3  125.56   10.94
   1  -3  -3   55.11    6.82
   1  -3  -3   56.14    4.71
   1  -3  -3   51.29    5.82
   1  -3  -2  181.23    7.51
   1  -3  -2  183.30    9.95
   1  -3  -2  172.79    9.62
   1  -3  -2  193.09   10.55
   1  -3  -2  177.34   10.73
   1  -3  -1  289.52   11.87
   1  -3  -1  286.34   13.13
   1  -3  -1  299.02    9.13
   1  -3  -1  272.67   11.45
  -1  -3   1  316.29   11.35
   1  -3  -1  294.89   12.19
  -1  -3   1  288.20   12.43
  -1  -3   1  311.54   13.20
  -1  -3   1  289.16   12.79
  -1  -3   0  869.65   17.92
   1  -3   0  875.55   22.32
  -1  -3   0  878.14   17.96
  -1  -3   0  847.49   20.81
   1  -3   0  852.12   21.04
  -1  -3   0  849.67   21.16
  -1  -3   0  847.20   20.72
   1  -3   0  877.78   20.81
   1  -3   0  833.14   20.19
   1  -3   0  847.16   16.11
  -1  -3  -1  186.14   10.29
  -1  -3  -1  216.06    9.53
  -1  -3  -1  216.76   11.13
  -1  -3  -1  213.60    9.15
   1  -3   1  210.75   11.36
  -1  -3  -1  193.25   10.60
  -1  -3  -2  214.01   11.12
  -1  -3  -2  215.73   11.29
  -1  -3  -2  227.85   11.98
  -1  -3  -2  228.79    9.91
   1  -2  -2   48.35    4.81
   1  -2  -2   38.80    4.25
   1  -2  -2   43.58    4.47
   1  -2  -2   43.94    4.85
   1  -2  -1  214.23    8.78
   1  -2  -1  226.40    8.52
  -1  -2   1  215.89    8.69
   1  -2  -1  213.78    8.90
  -1  -2   1  214.66    9.09
   1  -2  -1  200.62    8.85
  -1  -2   1  204.30    8.98
  -1  -2   1  211.90    8.96
   1  -2   0  433.89   12.45
  -1  -2   0  450.42   11.53
  -1  -2   0  450.77   12.71
   1  -2   0  424.32   12.06
  -1  -2   0  445.19   12.91
   1  -2   0  415.82   12.49
   1  -2   0  411.69   12.74
  -1  -2   0  461.78   12.62
  -1  -2  -1  427.81   13.04
  -1  -2  -1  422.65   12.74
  -1  -2  -1  426.66   12.93
  -1  -2  -1  426.60   11.58
   1  -1  -1   25.33    2.65
   1   1   1  197.47    7.58
  -1   2   2   26.65    4.06
  -1   2   2   28.02    3.87
  -1   2   2   28.35    3.80
  -1   2   1  192.35    9.00
  -1   2   1  212.85    8.91
   1   2  -1  224.72    9.58
  -1   2   1  212.35    8.86
   1   2  -1  211.81    9.40
  -1   2   0  461.50   13.09
  -1   2   0  470.87   12.39
  -1   2   0  455.17   13.74
   1   2   0  422.57   12.27
  -1   2   0  457.33   13.17
   1   2   1  450.69   13.02
   1   2   1  456.56   12.06
  -1   3   3   40.81    5.63
  -1   3   3   48.69    6.29
  -1   3   2  171.66    9.88
  -1   3   2  156.21   10.04
  -1   3   2  160.57    9.46
  -1   3   1  289.97    8.62
   1   3  -1  297.59   12.95
  -1   3   1  298.43   12.56
   1   3  -1  301.52   13.52
  -1   3   1  286.79    9.17
  -1   3   1  288.51   12.04
  -1   3   1  307.05   13.42
  -1   3   1  308.64   12.40
   1   3   0  847.70   18.37
  -1   3   0  868.74   20.97
   1   3   0  854.06   21.58
   1   3   0  839.25   21.49
  -1   3   0  888.66   20.96
  -1   3   0  874.80   20.79
  -1   3   0  886.87   22.52
  -1   3  -1  180.83   11.66
   1   3   1  206.75   10.73
   1   3   1  205.43    8.98
   1   3   1  203.77    9.26
   1   3   2  226.72   10.44
   1   3   2  233.87   11.75
  -1   4   3   75.18    7.60
  -1   4   3   77.06    9.09
  -1   4   3   73.14    7.82
  -1   4   2   29.20    6.25
  -1   4   2   19.63    4.58
  -1   4   2   15.35    4.00
  -1   4   1   45.24    6.51
  -1   4   1   48.99    6.97
   1   4  -1   45.03    6.67
  -1   4   1   40.09    5.64
  -1   4   1   43.97    5.83
   1   4  -1   37.95    6.14
  -1   4   0  139.82   10.27
  -1   4   0  135.81   10.53
  -1   4   0  139.01    9.87
   1   4   0  122.62    8.62
  -1   4   0  134.43    9.41
   1   4   0  115.45    9.59
   1   4   0  116.07    9.88
   1   4   0  119.70    7.56
   1   4   1  101.81    9.51
   1   4   1   97.59    7.78
   1   4   1   97.10    8.73
  -1   4  -1   76.58    7.55
  -1   4  -1   93.76    9.53
   1   4   2   65.69    7.72
   1   4   2   78.37    7.64
   1   4   3  132.03   10.41
  -1   5   4   10.47    6.54
  -1   5   3   -1.85    3.84
  -1   5   3   -1.74    5.61
  -1   5   2   12.37    5.10
  -1   5   2   18.98    6.28
  -1   5   2   13.39    4.49
  -1   5   1   51.16    6.99
   1   5  -1   55.38    8.37
  -1   5   1   51.01    7.73
   1   5  -1   55.30    8.54
  -1   5   1   48.26    8.30
  -1   5   0  177.42   12.42
   1   5   0  141.12   11.92
  -1   5   0  164.27   13.42
  -1   5   0  169.11   11.37
  -1   5   0  161.97   12.89
   1   5   0  158.97   12.33
   1   5   0  166.19   11.88
   1   5   1   42.16    7.54
   1   5   1   37.73    6.86
   1   5   1   28.49    6.86
  -1   5  -1   37.25    6.58
   1   5   1   42.74    7.07
   1   5   2   18.79    5.17
   1   5   2   26.13    6.02
   1   5   3   12.92    5.87
  -1   6   4   44.55    9.23
  -1   6   3   20.88    7.32
  -1   6   3   23.26    8.05
  -1   6   2   28.57    8.47
  -1   6   2    4.98    6.04
   1   6  -1   21.90    7.76
  -1   6   1   34.52    8.89
  -1   6   1   35.81    8.72
  -1   6   0   73.74   10.72
   1   6   0   53.22    9.51
   1   6   0   56.08    8.96
  -1   6   0   57.70   10.13
   1   6   1   55.27    9.63
   1   6   1   30.67    7.31
   1   6   1   44.15    8.90
   1   6   2   29.37    7.67
   1   6   2   11.06    7.95
   1   6   2   28.94    7.62
  -1   7   4   16.87    9.18
  -1   7   4   14.82    7.99
  -1   7   3    8.37    8.08
  -1   7   3   13.44    7.79
  -1   7   2    8.61    8.11
  -1   7   2   25.91    9.10
   1   7  -1   17.57    8.13
  -1   7   1   13.82    8.44
  -1   7   1   16.95    8.48
  -1   7   0   37.44    9.90
   1   7   0   42.38   10.19
  -1   7   0   42.95   10.72
   1   7   0   29.27    8.41
   1   7   0   41.94   10.72
   1   7   1   32.70   10.15
   1   7   1   12.72    6.42
   1   7   2   21.27    8.21
   1   7   2   13.05    7.42
   1   7   3    1.42    7.27
  -1   8   4   -8.64   10.06
  -1   8   3    1.12    8.55
  -1   8   3   10.21   10.02
  -1   8   2    2.24    8.23
  -1   8   2    5.70    8.80
  -1   8   1    6.66    8.93
  -1   8   1    2.33    8.57
   1   8   0   32.15   10.63
   1   8   1   18.28    9.93
   1   8   2    4.96    7.88
   2  -8  -3   -5.82   10.11
   2  -8  -3   -0.91    9.62
   2  -8  -2   13.48    9.38
   2  -8  -2    8.55    8.12
   2  -8  -1   21.99   10.74
   2  -8  -1    2.46    9.24
  -2  -8   0   12.44   10.75
  -2  -8   0  -10.68    8.73
  -2  -8   0   27.57   10.60
  -2  -8  -1   -3.62    9.03
  -2  -8  -1   -8.11    9.86
  -2  -8  -1    9.11    9.66
  -2  -8  -2  -10.67   10.09
  -2  -8  -2  -16.33   10.11
   2  -7  -4   10.78    8.89
   2  -7  -3   13.00    7.97
   2  -7  -3   17.06    9.35
   2  -7  -2   23.16    9.22
   2  -7  -2   30.90    9.30
   2  -7  -1   10.61    8.30
  -2  -7   1   14.48    8.35
  -2  -7   1   16.12    8.53
   2  -7  -1   17.25    8.69
  -2  -7   0   16.49    8.27
   2  -7   0   13.26    6.97
  -2  -7   0   11.76    8.42
  -2  -7   0   18.24    7.88
   2  -7   0   11.00    7.73
  -2  -7  -1   16.89    7.68
  -2  -7  -1   16.18    8.52
  -2  -7  -1   12.16    8.16
  -2  -7  -2    8.90    7.60
  -2  -7  -2    4.72    7.46
  -2  -7  -2   -0.49    7.71
  -2  -7  -3    5.63    6.74
  -2  -7  -3   15.81    9.77
  -2  -7  -3   19.49    9.62
   2  -6  -4   51.12   11.08
   2  -6  -3   35.62    9.06
   2  -6  -3   46.92    9.43
   2  -6  -2   79.58   10.91
   2  -6  -2   66.77   11.68
   2  -6  -2   68.47   10.17
  -2  -6   1   43.16    9.26
  -2  -6   1   63.46   10.22
  -2  -6   1   52.67   10.34
   2  -6  -1   61.86   11.44
   2  -6  -1   59.77   10.17
   2  -6  -1   60.27    9.60
  -2  -6   0   46.01    8.82
  -2  -6   0   39.16    8.94
  -2  -6   0   53.19    9.85
   2  -6   0   36.66    9.63
   2  -6   0   30.29    7.63
  -2  -6  -1   35.84    8.98
  -2  -6  -1   42.23    9.48
  -2  -6  -1   27.14    8.41
  -2  -6  -2   30.74    8.73
  -2  -6  -2   29.26    8.60
  -2  -6  -2   27.19    7.77
  -2  -6  -3   17.38    6.51
  -2  -6  -3   26.31    8.00
  -2  -6  -3   34.86    9.38
   2  -5  -4   21.93    7.88
   2  -5  -4   15.08    6.61
   2  -5  -3   18.81    6.21
   2  -5  -3   16.24    6.16
   2  -5  -3   12.82    5.53
   2  -5  -3    4.26    5.95
   2  -5  -2   41.68    7.99
   2  -5  -2   40.17    7.37
   2  -5  -2   36.66    7.39
  -2  -5   2   32.55    8.12
   2  -5  -2   28.18    7.77
  -2  -5   2   28.47    6.76
  -2  -5   1   11.57    5.51
   2  -5  -1   20.00    7.34
   2  -5  -1   22.56    7.16
  -2  -5   1   17.15    6.63
   2  -5  -1   20.75    6.63
  -2  -5   1   14.86    6.09
   2  -5  -1   13.66    5.77
   2  -5   0   11.01    6.73
  -2  -5   0   10.62    5.51
   2  -5   0   11.52    6.19
   2  -5   0   12.65    6.04
  -2  -5   0    4.35    5.36
  -2  -5   0    3.82    5.37
  -2  -5  -1    2.03    5.38
  -2  -5  -1   -9.55    6.44
  -2  -5  -1    4.39    5.81
  -2  -5  -2   -2.48    5.77
  -2  -5  -2    5.81    5.38
  -2  -5  -2    0.10    5.54
  -2  -5  -3   11.58    6.33
  -2  -5  -3   11.68    6.59
   2  -4  -4   94.98   10.86
   2  -4  -4  110.87   10.38
   2  -4  -3   99.79   11.02
   2  -4  -3  106.21    9.48
   2  -4  -3   86.38    9.58
   2  -4  -3  104.93   10.12
  -2  -4   2  223.59   13.87
   2  -4  -2  218.42   14.46
  -2  -4   2  210.08   13.72
   2  -4  -2  236.81   14.15
   2  -4  -2  213.28   13.37
   2  -4  -2  232.29   13.05
  -2  -4   2  228.01   14.49
  -2  -4   1  117.76   10.06
   2  -4  -1  124.78    9.91
   2  -4  -1  120.95   10.32
  -2  -4   1  151.83   10.44
   2  -4  -1  126.88   10.48
  -2  -4   1  144.14   11.18
  -2  -4   1  130.04   10.77
   2  -4  -1  127.33   11.09
  -2  -4   0  125.68    9.21
  -2  -4   0  118.68   10.49
   2  -4   0  123.37   10.61
   2  -4   0  124.88    9.84
  -2  -4   0  133.31   10.58
   2  -4   0  105.65   10.50
  -2  -4   0  119.87   10.55
   2  -4   0  108.46    9.94
  -2  -4  -1   58.43    6.82
  -2  -4  -1   55.01    7.15
  -2  -4  -1   55.56    7.73
  -2  -4  -1   58.36    8.24
  -2  -4  -2   75.61    8.95
  -2  -4  -2   70.13    8.48
  -2  -4  -2   91.57    8.61
  -2  -4  -2   76.45    9.06
   2  -3  -3  152.43   11.16
   2  -3  -3  162.24    9.55
   2  -3  -3  145.77   10.54
   2  -3  -3  155.35   11.31
   2  -3  -2  280.88   12.19
   2  -3  -2  290.76   14.10
   2  -3  -2  281.13   11.94
  -2  -3   2  271.31   13.75
  -2  -3   2  280.52   13.73
   2  -3  -2  300.86   14.37
  -2  -3   2  287.72   13.36
   2  -3  -2  288.33   14.41
  -2  -3   1  176.02   10.87
  -2  -3   1  169.27    9.80
   2  -3  -1  176.04    9.49
   2  -3  -1  175.78    9.50
   2  -3  -1  167.57   10.87
  -2  -3   1  163.34   10.61
  -2  -3   1  171.52   10.17
   2  -3  -1  167.46   10.85
   2  -3  -1  158.94   10.96
   2  -3   0  143.84    8.76
  -2  -3   0  146.88    9.40
  -2  -3   0  134.77    9.03
   2  -3   0  152.24    8.87
  -2  -3   0  147.95   10.01
  -2  -3   0  125.75    9.38
   2  -3   0  137.23    9.99
   2  -3   0  125.78    9.38
   2  -3   0  131.62    9.80
  -2  -3  -1   63.78    7.42
  -2  -3  -1   48.64    6.40
  -2  -3  -1   59.68    6.60
  -2  -3  -1   57.29    6.21
  -2  -3  -2  103.39    8.72
  -2  -3  -2  107.84    8.38
  -2  -3  -2   93.73    8.79
  -2  -3  -2   91.97    8.61
   2  -2  -3   47.22    6.11
   2  -2  -3   49.38    5.39
   2  -2  -3   39.53    5.54
   2  -2  -3   44.63    5.75
   2  -2  -2  217.56   10.25
   2  -2  -2  202.20   10.69
  -2  -2   2  221.13    9.74
   2  -2  -2  203.79    8.36
  -2  -2   2  217.94   11.34
   2  -2  -2  215.28   11.17
  -2  -2   2  206.00   10.80
  -2  -2   2  213.43   10.89
   2  -2  -2  206.64   10.70
   2  -2  -1   48.07    5.56
   2  -2  -1   62.15    6.36
  -2  -2   1   49.75    5.27
  -2  -2   1   56.68    4.77
   2  -2  -1   55.38    5.47
  -2  -2   1   54.24    5.48
  -2  -2   1   56.05    4.76
   2  -2  -1   48.81    5.48
  -2  -2   1   59.64    5.94
   2  -2   0  122.33    8.01
  -2  -2   0  117.96    6.89
  -2  -2   0  118.96    8.04
   2  -2   0  117.19    6.24
  -2  -2   0  120.84    6.56
   2  -2   0  114.46    8.29
   2  -2   0  111.63    8.14
   2  -2   0  124.20    7.69
  -2  -2   0  111.22    7.62
  -2  -2   0  118.20    7.84
  -2  -2  -1   20.26    4.28
  -2  -2  -1   20.85    3.66
  -2  -2  -1   24.26    3.70
  -2  -2  -1   19.21    4.02
  -2  -2  -1   23.12    3.43
   2  -1  -2  495.23   15.16
   2  -1  -2  482.07   13.75
  -2  -1   2  483.91   15.37
   2  -1  -2  486.70   14.93
  -2  -1   2  474.38   13.57
  -2  -1   2  452.50   14.29
   2  -1  -2  484.19   15.07
   2  -1  -1  390.99   10.75
  -2  -1   1  398.09   11.94
  -2  -1   1  420.23   13.35
  -2  -1   1  378.30   11.88
   2  -1  -1  377.43   12.67
   2  -1  -1  384.43   12.34
   2  -1  -1  381.11   12.57
  -2  -1   1  406.98   11.87
   2  -1  -1  393.75   11.32
   2  -1   0  325.64   10.20
   2  -1   0  323.58   11.82
  -2  -1   0  351.83   11.33
  -2  -1   0  364.18   12.45
  -2  -1   0  348.06   11.15
   2  -1   0  343.73   12.24
  -2  -1   0  363.65   11.64
   2  -1   0  328.70   11.95
   2  -1   0  346.67   10.81
  -2  -1  -1  171.33    9.05
  -2  -1  -1  186.44    8.53
  -2  -1  -1  178.16    8.49
  -2  -1  -1  166.16    8.28
   2   0  -2  480.26   13.55
  -2   0   2  456.81   13.18
  -2   0   2  468.45   13.38
   2   0  -2  458.89   14.35
  -2   0   2  455.87   13.69
   2   0  -2  457.33   13.13
  -2   0   2  475.87   14.41
  -2   0   1  194.41    7.87
   2   0  -1  232.51    9.63
  -2   0   1  201.67    8.62
  -2   0   1  196.77    7.96
  -2   0   1  197.44    8.96
   2   0  -1  229.41    8.48
   2   0  -1  227.98    8.58
   2   0   0  500.55   13.98
   2   0   0  471.31   13.14
  -2   0   0  486.99   13.43
  -2   0   0  483.15   13.63
   2   0   0  492.84   12.47
  -2   0   0  488.72   12.54
   2   0   0  496.98   12.50
   2   0   1   14.43    2.84
  -2   0  -1   20.29    3.28
  -2   1   2  483.66   14.97
  -2   1   2  472.28   13.15
  -2   1   2  471.62   14.80
  -2   1   2  451.32   12.63
  -2   1   2  464.55   14.76
  -2   1   1  414.93   13.12
   2   1  -1  376.92   11.63
  -2   1   1  417.89   13.16
  -2   1   1  416.35   13.21
   2   1  -1  373.12   11.93
  -2   1   1  424.87   11.60
  -2   1   0  349.02   12.26
   2   1   0  320.12   10.61
   2   1   0  325.28   11.80
   2   1   0  332.05   11.15
  -2   1   0  356.38   10.67
  -2   1   0  362.02   12.24
  -2   1   0  364.21   12.41
  -2   1   0  337.85   10.73
   2   1   1  142.11    7.63
   2   1   1  147.75    8.41
   2   1   1  154.58    8.09
  -2   2   3   60.38    6.55
  -2   2   3   55.49    6.60
  -2   2   3   60.30    6.39
  -2   2   2  209.13   10.90
  -2   2   2  218.96   11.33
  -2   2   2  215.32   10.82
  -2   2   2  219.76   10.29
   2   2  -2  221.13   11.54
  -2   2   1   57.67    5.63
   2   2  -1   50.22    4.72
  -2   2   1   50.75    4.06
  -2   2   1   53.51    5.78
   2   2  -1   55.12    5.67
   2   2  -1   50.07    4.68
  -2   2   1   58.02    6.13
  -2   2   1   52.89    5.17
  -2   2   0  107.67    7.64
   2   2   0  111.24    7.69
  -2   2   0  109.91    8.16
  -2   2   0  108.81    7.91
   2   2   0  118.98    6.55
   2   2   0  113.05    6.77
  -2   2   0  120.17    7.59
   2   2   1   10.96    3.41
   2   2   1    7.36    2.48
  -2   3   3  160.77   11.19
  -2   3   3  140.11   10.63
  -2   3   3  141.11   10.40
   2   3  -2  275.40   14.50
  -2   3   2  294.71   14.42
  -2   3   2  279.28   13.91
  -2   3   2  276.72   14.02
  -2   3   2  293.85   12.31
   2   3  -1  174.21   11.13
  -2   3   1  179.53   11.23
  -2   3   1  160.62    8.81
   2   3  -1  155.79    7.58
   2   3  -1  154.61    9.74
  -2   3   1  170.88    9.12
  -2   3   1  163.45   10.88
  -2   3   1  162.82   10.87
  -2   3   0  129.91    9.92
   2   3   0  138.59    9.44
  -2   3   0  152.44    9.77
  -2   3   0  144.38    8.71
  -2   3   0  122.36    9.54
   2   3   0  135.09    9.30
  -2   3   0  126.78    9.67
   2   3   1   66.07    7.32
   2   3   1   59.48    6.56
   2   3   2   85.18    8.22
  -2   4   4  109.08   11.08
  -2   4   4  110.77   10.59
  -2   4   3   96.89    9.53
  -2   4   3   82.04    9.23
  -2   4   3   89.24    9.75
   2   4  -2  241.76   14.91
  -2   4   2  215.48   13.36
  -2   4   2  222.51   13.67
  -2   4   2  225.12   14.41
  -2   4   2  223.96   13.15
  -2   4   1  136.53   11.02
  -2   4   1  150.05   12.16
   2   4  -1  122.07   10.85
   2   4  -1  144.25   11.41
  -2   4   1  132.81    9.70
  -2   4   1  144.36   10.98
   2   4   0  112.98   10.43
  -2   4   0  120.98   10.48
  -2   4   0  118.49   11.04
   2   4   0  134.99    9.95
  -2   4   0  138.99   10.86
   2   4   0  111.98    9.99
  -2   4   0  123.22   10.69
   2   4   1   51.56    7.65
   2   4   1   52.92    6.38
   2   4   1   48.29    6.92
   2   4   2   77.06    8.79
  -2   5   4   27.86    8.50
  -2   5   4   15.96    6.14
  -2   5   3    9.14    5.38
  -2   5   3   19.53    7.83
  -2   5   3    9.32    5.13
  -2   5   3   12.88    5.98
  -2   5   2   32.75    6.96
  -2   5   2   32.89    8.65
  -2   5   2   30.01    6.60
  -2   5   2   36.05    7.24
   2   5  -1    9.54    5.60
  -2   5   1    9.53    5.65
  -2   5   1   22.52    6.59
  -2   5   1    9.19    5.18
   2   5  -1   13.51    5.41
  -2   5   1   18.68    6.69
  -2   5   0    4.86    4.71
  -2   5   0    2.12    4.80
  -2   5   0    6.35    5.23
  -2   5   0   14.18    6.12
   2   5   0    9.31    5.64
   2   5   0    4.30    5.49
   2   5   0    4.09    5.32
   2   5   1    3.70    5.58
   2   5   1   -1.16    5.95
   2   5   1    3.92    5.44
   2   5   2   -2.86    5.45
  -2   6   4   53.88    9.81
  -2   6   4   39.16   10.61
  -2   6   3   44.20   10.30
  -2   6   3   53.37    9.50
  -2   6   3   39.77    8.11
  -2   6   2   71.09   11.56
  -2   6   2   88.44   11.18
  -2   6   2   80.59   10.45
  -2   6   1   33.74    9.55
   2   6  -1   44.14    9.67
  -2   6   1   65.28   10.31
   2   6  -1   49.07    9.77
  -2   6   1   60.82    9.30
  -2   6   0   20.43    8.63
  -2   6   0   34.72    9.56
   2   6   0   17.87    7.32
   2   6   0   21.66    7.71
   2   6   0   31.60    8.32
   2   6   1   33.67    8.81
   2   6   1   21.83    8.16
   2   6   1   42.00    9.06
   2   6   2   42.70    8.52
   2   6   2   24.04    8.48
   2   6   2   40.42    9.67
  -2   7   4    7.54    9.02
  -2   7   4    7.74    7.34
  -2   7   3   14.61    9.33
  -2   7   3   12.01    7.36
  -2   7   2   16.68    9.52
  -2   7   2   22.47    8.75
  -2   7   1   20.11    8.38
   2   7  -1   17.22    8.22
  -2   7   1   21.89    7.85
   2   7   0    4.09    7.03
   2   7   0    6.68    7.33
   2   7   0    9.70    7.78
  -2   7   0   -6.40    7.98
   2   7   1   18.23    7.75
   2   7   1   19.42    8.05
   2   7   1    4.02    6.77
   2   7   2    5.14    7.76
   2   7   2    4.20    7.08
   2   7   2   14.66    8.98
   2   7   3   13.41    9.77
   2   7   3    4.36    8.52
  -2   8   3   -9.49    8.71
  -2   8   2    4.71    7.87
   2   8   0   -7.13    9.48
   2   8   0    4.83    8.94
   2   8   0   -7.08    9.10
   2   8   1   -2.95    9.59
   2   8   1   14.84    9.79
   2   8   1  -11.58    9.40
   2   8   2    8.09    9.02
   2   8   2  -12.73   10.62
  -3  -8   0   11.79    9.74
   3  -7  -4    2.41    9.80
   3  -7  -3   10.33   10.37
   3  -7  -2   34.36   10.90
   3  -7  -1   18.62    8.52
  -3  -7   1    3.09    7.62
  -3  -7   1   17.23    8.85
  -3  -7   1   36.02   11.04
  -3  -7   0   18.49    9.44
  -3  -7   0   15.65    8.49
  -3  -7   0   24.55    9.60
  -3  -7  -1   12.69    7.19
  -3  -7  -1    7.01    8.00
  -3  -7  -1    6.32    8.02
  -3  -7  -2   11.05    7.40
  -3  -7  -2    6.33    7.76
  -3  -7  -2   15.45    8.83
   3  -6  -4   24.61    9.90
   3  -6  -4   27.73    9.34
   3  -6  -4   20.76    8.15
   3  -6  -3   32.04    9.25
   3  -6  -3   38.93    9.68
   3  -6  -3   44.65   10.38
   3  -6  -2   71.56   12.12
   3  -6  -2   89.13   12.46
   3  -6  -2   80.36   12.07
  -3  -6   2   91.77   12.78
   3  -6  -1   49.79   10.71
   3  -6  -1   48.77   10.09
  -3  -6   1   52.90   11.10
  -3  -6   1   55.74   10.54
   3  -6  -1   69.65   10.95
  -3  -6   1   69.53   11.26
   3  -6   0   35.05    9.00
  -3  -6   0   44.03   10.16
   3  -6   0   36.14    9.22
  -3  -6   0   45.40   10.00
  -3  -6   0   46.50   10.54
  -3  -6  -1   53.98   10.32
  -3  -6  -1   38.34    8.88
  -3  -6  -1   39.67    9.49
  -3  -6  -2    7.58    7.14
  -3  -6  -2   13.18    7.19
  -3  -6  -2   23.39    8.10
   3  -5  -4   14.88    7.39
   3  -5  -4   13.82    7.21
   3  -5  -4   26.57    8.32
   3  -5  -3   10.52    7.43
   3  -5  -3   16.07    7.44
   3  -5  -3   16.96    8.43
   3  -5  -2   55.45    9.80
  -3  -5   2   63.61    9.67
   3  -5  -2   49.95   10.25
  -3  -5   2   45.19    9.07
  -3  -5   2   40.34    8.63
   3  -5  -2   57.85    9.77
   3  -5  -1   21.71    7.23
   3  -5  -1   34.65    8.49
  -3  -5   1   18.34    6.57
  -3  -5   1   24.12    7.12
  -3  -5   1   27.45    7.01
   3  -5  -1   38.64    8.53
  -3  -5   1   26.65    8.37
   3  -5   0   45.29    8.40
   3  -5   0   29.39    8.77
  -3  -5   0   35.27    8.41
  -3  -5   0   26.22    7.47
  -3  -5   0   30.37    7.24
  -3  -5   0   29.75    7.01
  -3  -5  -1    7.53    5.25
  -3  -5  -1    9.09    6.74
  -3  -5  -1   12.53    5.68
  -3  -5  -2   19.24    7.46
  -3  -5  -2    9.30    6.51
  -3  -5  -2    8.50    6.26
   3  -4  -4   29.09    7.74
   3  -4  -4   38.55    8.15
   3  -4  -4   39.17    8.29
   3  -4  -3   96.53   10.71
   3  -4  -3   78.44   10.10
   3  -4  -3   72.03    9.78
   3  -4  -2  198.41   14.67
   3  -4  -2  228.37   15.46
  -3  -4   2  264.05   14.75
  -3  -4   2  266.60   16.01
  -3  -4   2  238.47   15.73
   3  -4  -2  253.80   16.34
  -3  -4   2  252.17   15.98
   3  -4  -1  138.61   12.57
  -3  -4   1  157.11   12.15
  -3  -4   1  167.79   11.81
   3  -4  -1  151.18   12.90
  -3  -4   1  155.94   12.60
   3  -4  -1  125.58   11.86
  -3  -4   1  152.95   12.43
  -3  -4   0  109.82    9.89
  -3  -4   0  114.37   10.37
   3  -4   0  103.55   11.12
   3  -4   0  113.36   11.29
  -3  -4   0  119.67   11.50
   3  -4   0   94.62   10.34
  -3  -4   0   85.71   10.04
  -3  -4  -1   80.01   10.01
  -3  -4  -1   85.69    9.01
  -3  -4  -1   88.65    9.96
  -3  -4  -1   87.28   10.35
  -3  -4  -2   47.92    8.02
  -3  -4  -2   44.69    7.77
  -3  -4  -2   43.72    8.17
   3  -3  -4  104.76   10.76
   3  -3  -4   98.10    9.55
   3  -3  -4  101.71   10.89
   3  -3  -3  144.74   11.94
   3  -3  -3  152.19   11.52
   3  -3  -3  161.86   12.96
   3  -3  -3  164.55   12.88
   3  -3  -2  474.59   19.57
  -3  -3   2  477.70   16.71
   3  -3  -2  480.72   18.58
   3  -3  -2  491.18   20.46
  -3  -3   2  558.20   21.64
   3  -3  -2  472.94   19.74
  -3  -3   2  511.05   20.68
  -3  -3   2  447.27   18.99
  -3  -3   1  176.36   10.12
   3  -3  -1  201.43   12.64
  -3  -3   1  189.98   12.34
  -3  -3   1  176.39   12.13
   3  -3  -1  184.77   13.01
   3  -3  -1  202.92   13.40
  -3  -3   1  184.67   12.36
   3  -3  -1  182.67   12.29
  -3  -3   0  228.39   11.86
   3  -3   0  223.66   13.00
  -3  -3   0  232.85   13.75
   3  -3   0  219.67   14.39
   3  -3   0  250.58   14.99
  -3  -3   0  209.60   13.40
  -3  -3   0  225.59   13.70
   3  -3   0  223.76   13.77
  -3  -3  -1   99.44    9.91
  -3  -3  -1   96.56    8.18
  -3  -3  -1  132.73   10.83
  -3  -3  -1   99.25   10.03
  -3  -3  -2  154.64   11.84
  -3  -3  -2  147.92   11.48
  -3  -3  -2  157.01   12.01
   3  -2  -3  104.67    8.95
   3  -2  -3   95.77    8.69
   3  -2  -3  105.82    9.60
   3  -2  -3  105.92    9.92
   3  -2  -2  371.55   15.23
   3  -2  -2  371.76   16.23
  -3  -2   2  399.41   16.95
   3  -2  -2  357.07   16.48
  -3  -2   2  407.12   16.16
   3  -2  -2  381.80   16.80
  -3  -2   2  384.16   16.00
  -3  -2   2  382.43   15.62
   3  -2  -1  142.85    7.99
   3  -2  -1  134.68    9.90
  -3  -2   1  130.23    9.90
  -3  -2   1  128.57    8.96
   3  -2  -1  141.80   10.47
   3  -2  -1  131.01   10.14
  -3  -2   1  132.65    9.42
  -3  -2   1  124.49    9.07
   3  -2  -1  136.49    9.34
   3  -2   0   65.68    6.69
  -3  -2   0   51.58    6.49
   3  -2   0   52.44    6.87
  -3  -2   0   53.36    5.20
   3  -2   0   66.66    7.30
  -3  -2   0   47.54    6.55
  -3  -2   0   56.71    6.05
   3  -2   0   50.83    6.87
  -3  -2   0   48.59    6.00
  -3  -2  -1   78.12    7.78
  -3  -2  -1   91.55    8.97
  -3  -2  -1   79.20    7.27
  -3  -2  -1   80.21    7.70
   3  -1  -3  150.68   10.99
  -3  -1   3  156.61   11.19
   3  -1  -3  146.77   10.25
   3  -1  -3  150.89   10.59
  -3  -1   2  985.17   20.24
   3  -1  -2  949.58   25.07
  -3  -1   2  952.74   24.84
   3  -1  -2  988.84   24.81
  -3  -1   2  995.58   24.65
   3  -1  -2  927.93   20.86
  -3  -1   2  957.05   21.82
   3  -1  -2  957.81   24.28
  -3  -1   2  977.00   21.45
  -3  -1   1  263.05   10.22
   3  -1  -1  264.79   11.51
  -3  -1   1  257.11    9.90
   3  -1  -1  250.41   12.93
  -3  -1   1  251.66   12.60
  -3  -1   1  256.02   11.32
   3  -1  -1  257.88   10.33
  -3  -1   1  265.97   12.66
   3  -1  -1  242.08   12.34
   3  -1  -1  250.70   12.42
  -3  -1   1  261.01   11.26
  -3  -1   0  312.19   11.59
   3  -1   0  296.41   12.47
   3  -1   0  289.24   13.90
  -3  -1   0  297.45   12.24
  -3  -1   0  311.67   14.06
  -3  -1   0  286.52   13.20
   3  -1   0  286.01   13.53
   3  -1   0  298.89   13.68
  -3  -1   0  309.09   10.82
   3  -1   0  284.03   11.07
  -3  -1   0  327.42   12.88
   3  -1   1   59.84    6.84
  -3  -1  -1   70.20    7.72
   3  -1   1   54.53    6.28
  -3  -1  -1   70.54    5.63
  -3  -1  -1   68.74    7.12
  -3  -1  -1   60.03    6.27
  -3   0   3  356.09   11.98
  -3   0   3  360.98   14.73
   3   0  -3  333.41   15.54
  -3   0   3  355.33   16.01
   3   0  -3  342.47   14.41
  -3   0   2  913.80   21.78
  -3   0   2  880.16   21.14
   3   0  -2  920.59   24.30
  -3   0   2  917.74   22.76
  -3   0   2  857.20   23.11
   3   0  -2  895.30   21.39
  -3   0   2  928.24   17.46
   3   0  -2  863.18   21.76
  -3   0   1  505.15   15.57
   3   0  -1  520.59   13.26
  -3   0   1  451.22   14.78
   3   0  -1  510.18   17.07
   3   0  -1  523.50   13.53
   3   0  -1  491.18   17.39
  -3   0   1  474.82   16.24
  -3   0   1  491.11   12.99
  -3   0   1  476.66   16.98
   3   0  -1  500.11   15.66
  -3   0   1  485.82   13.02
   3   0  -1  476.65   15.16
  -3   0   0  265.87   11.88
   3   0   0  304.63   13.46
   3   0   0  305.86   13.89
  -3   0   0  260.42   12.61
  -3   0   0  280.26   10.15
  -3   0   0  264.70   13.01
   3   0   0  297.58   12.14
   3   0   0  294.84   12.18
  -3   0   0  257.05   11.55
   3   0   1  388.73   15.37
   3   0   1  398.66   16.13
  -3   0  -1  325.95   14.82
   3   0   1  366.62   14.24
  -3   0  -1  387.38   14.63
  -3   0  -1  360.44   15.50
  -3   0  -1  376.93   12.88
  -3   1   3  155.35    9.02
  -3   1   3  146.27   10.38
  -3   1   3  147.96   10.38
   3   1  -3  165.93   11.04
  -3   1   3  153.21   10.88
   3   1  -2  965.51   22.62
  -3   1   2  993.85   24.69
  -3   1   2  999.21   20.73
  -3   1   2  954.32   24.31
   3   1  -2  982.79   25.01
  -3   1   2  972.40   22.13
  -3   1   2  992.38   25.51
   3   1  -2  951.91   20.19
  -3   1   1  261.76   10.56
  -3   1   1  259.25   12.50
   3   1  -1  242.06   12.34
  -3   1   1  252.42   11.21
   3   1  -1  268.14   11.47
  -3   1   1  248.29   12.87
   3   1  -1  257.82    9.91
   3   1  -1  238.85    9.69
  -3   1   1  272.80   12.86
  -3   1   0  310.67   13.95
   3   1   0  293.60   12.15
   3   1   0  310.76   14.21
   3   1   0  296.86   13.35
  -3   1   0  304.45   12.92
  -3   1   0  289.57   13.83
   3   1   0  269.30   10.20
   3   1   0  289.85   10.44
  -3   1   0  304.48   13.86
   3   1   1   65.43    7.28
   3   1   1   70.34    7.05
   3   1   1   64.81    5.45
  -3   1  -1   57.86    7.40
  -3   1  -1   70.07    7.33
  -3   2   3   98.65    8.63
  -3   2   3   89.84    8.97
  -3   2   3   97.97    9.47
  -3   2   3   96.82    8.96
  -3   2   2  375.93   15.05
   3   2  -2  364.46   15.89
  -3   2   2  403.46   17.31
   3   2  -2  393.98   15.85
  -3   2   2  370.14   16.15
  -3   2   2  378.53   17.00
   3   2  -1  128.50    9.64
  -3   2   1  139.95    9.35
  -3   2   1  130.58   10.11
   3   2  -1  151.59    9.65
  -3   2   1  136.66    7.88
  -3   2   1  130.07    9.82
  -3   2   1  128.23   10.10
   3   2   0   56.23    6.66
  -3   2   0   56.23    6.51
   3   2   0   62.75    7.49
   3   2   0   57.30    5.24
  -3   2   0   54.85    7.02
  -3   2   0   56.34    7.44
   3   2   0   61.44    6.44
  -3   2   0   52.23    5.64
  -3   2   0   48.94    6.60
   3   2   1   96.06    8.48
   3   2   1  108.05    9.67
   3   2   1   94.49    7.66
  -3   3   4   93.44    9.52
  -3   3   4  100.76   10.32
  -3   3   3  161.13   12.61
  -3   3   3  167.88   12.52
  -3   3   3  154.19   12.28
  -3   3   3  175.42   11.95
   3   3  -2  445.40   19.64
  -3   3   2  473.36   20.36
  -3   3   2  483.55   19.35
  -3   3   2  497.03   20.86
   3   3  -2  473.44   16.94
  -3   3   2  481.57   18.56
   3   3  -1  199.02   13.34
  -3   3   1  192.91   12.42
  -3   3   1  175.11   12.70
   3   3  -1  203.76   11.67
  -3   3   1  188.51   12.08
  -3   3   1  187.89   13.06
  -3   3   0  239.67   14.13
   3   3   0  249.33   14.25
  -3   3   0  228.85   14.75
   3   3   0  225.53   14.05
   3   3   0  252.63   12.62
  -3   3   0  227.84   13.35
  -3   3   0  203.27   14.19
   3   3   1  112.01   10.17
   3   3   1  108.48   10.11
   3   3   2  142.97   11.39
   3   3   2  144.43   11.78
  -3   4   4   39.44    8.66
  -3   4   4   16.07    6.66
  -3   4   4   26.99    7.38
  -3   4   3   99.41   11.45
  -3   4   3   94.68   10.76
  -3   4   3   91.44   11.01
   3   4  -2  254.56   16.63
  -3   4   2  244.33   16.03
  -3   4   2  248.07   16.50
  -3   4   2  223.01   15.17
   3   4  -1  132.69   12.20
  -3   4   1  148.15   12.91
  -3   4   1  160.83   13.39
   3   4  -1  148.88   12.02
   3   4  -1  147.14   11.81
  -3   4   1  143.98   12.81
   3   4   0   93.56   10.88
   3   4   0  116.34   11.64
  -3   4   0  128.98   12.50
  -3   4   0  103.32   11.41
  -3   4   0  116.96   11.98
   3   4   0  116.07   10.67
   3   4   0   98.88    9.57
  -3   4   0   97.19    9.62
   3   4   1   82.02    9.98
   3   4   1   83.54    9.64
   3   4   1   90.63    9.64
   3   4   2   48.90    7.12
   3   4   2   46.04    8.50
  -3   5   4   20.04    6.53
  -3   5   4   19.44    8.02
  -3   5   4   17.34    7.54
  -3   5   3   14.66    7.02
  -3   5   3    9.28    6.30
  -3   5   3   14.32    6.20
   3   5  -2   33.37    7.93
  -3   5   2   54.33    9.03
  -3   5   2   49.72   10.23
  -3   5   2   45.31    8.93
   3   5  -1   37.52    8.85
   3   5  -1   37.89    7.92
  -3   5   1   23.57    7.79
   3   5  -1   37.28    7.73
  -3   5   1   24.01    7.77
  -3   5   1   26.48    8.00
   3   5   0   43.04    9.23
   3   5   0   39.29    7.85
  -3   5   0   21.05    7.75
  -3   5   0   37.89    8.80
   3   5   0   41.70    8.36
   3   5   0   38.25    9.11
  -3   5   0   23.08    8.63
   3   5   1   12.58    7.35
   3   5   1   14.06    6.25
   3   5   1    9.80    5.85
   3   5   2   15.51    6.39
   3   5   2   20.08    7.07
  -3   6   4   17.59    9.19
  -3   6   4   28.16    9.07
  -3   6   4   23.89    8.46
  -3   6   3   39.78    8.97
  -3   6   3   45.95   10.58
  -3   6   3   54.70   10.38
  -3   6   2   72.46   12.39
  -3   6   2   71.00   10.96
  -3   6   2   83.85   12.57
   3   6  -1   76.14   11.50
   3   6  -1   66.11   11.27
  -3   6   1   61.00   11.45
   3   6  -1   71.04   11.30
  -3   6   1   80.26   12.26
  -3   6   1   54.87    9.92
   3   6   0   54.32   10.85
   3   6   0   42.90    9.65
  -3   6   0   43.92    9.81
   3   6   0   44.02    9.52
  -3   6   0   64.91   11.76
   3   6   1   33.58    9.54
   3   6   1   33.56    9.08
   3   6   1   52.59   10.00
   3   6   2   21.52    8.24
   3   6   2   21.15    8.61
   3   6   2   33.80   10.89
  -3   7   4   21.81   10.68
  -3   7   3   11.72    9.05
  -3   7   2   50.82   12.38
  -3   7   1   13.21    8.15
   3   7  -1   10.14    7.94
   3   7  -1   -1.10    8.48
   3   7  -1   22.01    9.75
  -3   7   1   16.37    9.55
   3   7   0   14.52    7.44
   3   7   0    2.21    6.85
   3   7   1    2.71    7.87
   3   7   1    8.98    8.21
   3   7   1   29.45   10.39
   3   7   2   18.36   10.64
   3   7   2   18.75    9.44
   3   7   2    5.49    7.64
   4  -7  -4   -8.21    8.68
   4  -7  -3   18.59   10.16
   4  -7  -2   10.73    9.57
   4  -7  -2   13.07   10.32
   4  -7  -2   19.41   10.76
   4  -7  -1   -3.59    9.06
  -4  -7   1    7.96    9.26
  -4  -7   1   25.75   10.67
  -4  -7   0   -5.15    9.68
  -4  -7   0   14.68    9.74
  -4  -7  -1    2.19    9.91
   4  -6  -4    9.21    9.56
   4  -6  -4    8.43    8.86
   4  -6  -4  -11.90    9.61
   4  -6  -3   13.31    8.93
   4  -6  -3   21.56    9.20
   4  -6  -3    8.55    9.13
   4  -6  -2   18.11    9.84
   4  -6  -2   19.17    9.24
  -4  -6   2   13.91    7.16
   4  -6  -2   46.15   11.73
  -4  -6   2   19.22    8.95
   4  -6  -1   34.54   10.71
   4  -6  -1   29.92    8.90
   4  -6  -1   19.42    8.88
  -4  -6   1   32.02   10.01
  -4  -6   1   35.75   10.24
  -4  -6   0   23.75    8.75
  -4  -6   0   11.66    8.37
  -4  -6  -1   25.99    9.63
  -4  -6  -1   19.76    9.01
  -4  -6  -2   26.24    9.92
  -4  -6  -2   22.54    9.35
   4  -5  -4    4.20    7.72
   4  -5  -4   18.87    9.19
   4  -5  -4   31.59    9.84
   4  -5  -3   21.09    8.52
   4  -5  -3   30.75    9.83
   4  -5  -3   20.80    8.89
   4  -5  -2   17.24    8.83
   4  -5  -2   10.24    8.01
  -4  -5   2    7.55    5.98
  -4  -5   2    3.30    6.27
  -4  -5   2   13.92    7.58
   4  -5  -2    2.56    8.08
   4  -5  -1   15.29    8.67
   4  -5  -1   15.11    7.60
  -4  -5   1    0.34    5.95
  -4  -5   1   33.87    8.85
   4  -5  -1    8.81    7.31
  -4  -5   1   24.30    8.76
  -4  -5   0   -1.49    6.72
   4  -5   0    9.58    7.75
   4  -5   0    6.08    7.18
  -4  -5   0   16.65    7.38
  -4  -5   0   15.71    8.01
  -4  -5  -1   11.19    7.03
  -4  -5  -1   -0.92    6.10
  -4  -5  -1   16.06    7.88
  -4  -5  -2   36.15    7.97
  -4  -5  -2   51.70   10.03
  -4  -5  -2   30.69    9.35
   4  -4  -4    8.34    7.19
   4  -4  -4   -1.28    5.77
   4  -4  -4   -4.17    7.06
   4  -4  -3    9.92    7.53
   4  -4  -3   11.26    7.13
   4  -4  -3   11.27    7.61
   4  -4  -2   49.21    9.48
   4  -4  -2   50.28    9.43
   4  -4  -2   42.38    8.26
  -4  -4   2   35.66    8.17
  -4  -4   2   37.16    8.21
  -4  -4   2   39.66    8.81
   4  -4  -2   36.10    8.51
   4  -4  -1   40.56    8.19
   4  -4  -1   50.19   10.05
   4  -4  -1   61.46    9.02
  -4  -4   1   66.86    9.85
  -4  -4   1   56.48    9.65
   4  -4  -1   40.37    9.16
  -4  -4   1   39.22    8.86
   4  -4   0   28.35    7.45
   4  -4   0   38.00    8.87
  -4  -4   0   35.69    7.73
   4  -4   0   47.84    9.56
  -4  -4   0   44.30    8.97
  -4  -4   0   43.68    8.54
  -4  -4  -1    9.20    5.54
  -4  -4  -1   15.98    6.48
  -4  -4  -1    7.10    6.58
  -4  -4  -2   55.17    9.58
  -4  -4  -2   29.37    7.45
  -4  -4  -2   59.13    9.72
   4  -3  -4   75.92   11.09
   4  -3  -4   51.21    8.91
   4  -3  -4   64.78    9.78
   4  -3  -3   66.20    9.82
   4  -3  -3   73.50    9.32
   4  -3  -3   74.94   10.74
   4  -3  -3   85.23   10.30
  -4  -3   3   68.68   10.34
  -4  -3   3   64.58    8.84
   4  -3  -2   63.11    9.75
   4  -3  -2   74.24    9.38
   4  -3  -2   78.79   10.72
   4  -3  -2   79.28    9.99
  -4  -3   2   82.36   10.26
  -4  -3   2   69.16    9.46
  -4  -3   2   84.84    9.81
   4  -3  -1  115.49   11.59
  -4  -3   1  107.99   11.26
   4  -3  -1  134.79   13.29
   4  -3  -1  111.95   12.25
  -4  -3   1  115.98   11.24
   4  -3  -1  137.74   11.96
  -4  -3   1  102.36   10.18
  -4  -3   0   80.68    9.50
   4  -3   0   92.18    9.95
   4  -3   0   94.14   11.44
   4  -3   0  101.18   10.61
  -4  -3   0   80.78   10.04
  -4  -3   0   85.66    9.82
   4  -3   0   73.90    9.90
  -4  -3  -1   39.87    7.45
  -4  -3  -1   36.14    7.98
  -4  -3  -1   31.44    7.44
  -4  -3  -2  158.84   14.73
  -4  -3  -2  135.80   12.84
   4  -2  -4   30.74    7.10
   4  -2  -4   19.79    6.34
   4  -2  -4   28.63    7.57
   4  -2  -3   34.59    7.48
   4  -2  -3   30.13    7.20
  -4  -2   3   26.94    6.77
   4  -2  -3   27.35    7.51
  -4  -2   3   32.55    6.24
   4  -2  -2   28.88    7.12
   4  -2  -2   25.92    6.80
  -4  -2   2   25.96    6.23
   4  -2  -2   34.81    7.51
  -4  -2   2   34.72    6.20
  -4  -2   2   34.97    6.95
  -4  -2   2   24.19    5.64
   4  -2  -1   45.39    8.18
  -4  -2   1   47.07    7.51
   4  -2  -1   37.82    7.29
  -4  -2   1   48.34    7.81
  -4  -2   1   39.57    6.53
  -4  -2   1   49.25    7.18
   4  -2  -1   45.20    7.86
  -4  -2   0   57.61    7.61
   4  -2   0   55.28    8.47
   4  -2   0   64.66    8.68
  -4  -2   0   60.04    8.55
  -4  -2   0   66.91    8.22
  -4  -2   0   45.20    6.83
   4  -2   0   65.18    8.75
  -4  -2  -1   17.75    5.72
  -4  -2  -1    8.74    5.16
  -4  -2  -1    8.56    5.22
  -4  -2  -1    9.68    5.35
   4  -1  -4    4.60    4.71
   4  -1  -4    6.83    5.75
   4  -1  -3   27.14    6.47
   4  -1  -3   24.51    6.51
  -4  -1   3   23.60    5.85
   4  -1  -3   25.20    6.82
  -4  -1   3   25.85    6.28
   4  -1  -2   58.32    8.04
   4  -1  -2   56.60    7.29
   4  -1  -2   59.85    8.15
  -4  -1   2   62.45    8.19
   4  -1  -2   51.62    7.78
  -4  -1   2   72.58    7.42
  -4  -1   2   70.12    8.55
  -4  -1   2   71.90    7.17
   4  -1  -1  100.66    9.25
  -4  -1   1   87.27    8.04
   4  -1  -1   90.30    9.98
  -4  -1   1   87.43    9.24
  -4  -1   1   95.67    9.75
   4  -1  -1   95.06    9.64
   4  -1  -1  103.09   10.11
  -4  -1   1   84.60    7.55
   4  -1   0   71.68    8.65
   4  -1   0   79.87    8.19
   4  -1   0   66.15    8.84
  -4  -1   0   71.36    8.74
  -4  -1   0   73.25    8.89
  -4  -1   0   71.53    7.38
   4  -1   0   70.43    8.27
  -4  -1   0   80.56    7.72
   4  -1   1   12.85    5.43
   4  -1   1   15.39    5.31
  -4  -1  -1   14.27    5.21
  -4  -1  -1   18.61    5.66
  -4  -1  -1   19.41    4.98
  -4   0   3  160.61   11.23
  -4   0   3  159.69   11.39
   4   0  -3  141.93   12.09
  -4   0   3  166.14   12.21
  -4   0   3  163.69   12.90
   4   0  -3  163.25   11.43
   4   0  -3  140.82   10.87
   4   0  -2  115.28   10.27
  -4   0   2  108.72    9.50
  -4   0   2  100.79    8.82
   4   0  -2  100.73   10.36
  -4   0   2  103.77    9.67
  -4   0   2  106.66   10.08
   4   0  -2   98.76    8.81
   4   0  -2  106.83    9.41
  -4   0   1  184.03   11.82
   4   0  -1  195.51   12.87
  -4   0   1  186.91   11.43
   4   0  -1  198.92   13.59
  -4   0   1  176.22   12.22
  -4   0   1  169.63   12.50
   4   0  -1  193.92   11.95
   4   0  -1  187.56   11.59
  -4   0   0  228.46   13.25
   4   0   0  222.43   13.62
   4   0   0  242.50   15.01
  -4   0   0  187.13   12.84
  -4   0   0  199.93   13.60
   4   0   0  213.91   12.26
   4   0   0  233.74   12.77
  -4   0   0  215.16   12.41
   4   0   1   64.55    7.26
   4   0   1   73.26    8.39
   4   0   1   74.68    8.75
  -4   0  -1   74.30    8.83
  -4   0  -1   83.53    8.38
  -4   0  -1   67.05    8.71
  -4   1   4    8.20    5.76
  -4   1   4    4.35    4.76
  -4   1   3   23.10    6.20
  -4   1   3   22.21    5.50
  -4   1   3   18.46    5.09
  -4   1   3   30.17    5.77
   4   1  -3   22.08    6.31
   4   1  -2   60.99    7.11
  -4   1   2   67.49    7.95
  -4   1   2   60.40    7.74
  -4   1   2   73.68    7.78
   4   1  -2   59.57    8.56
  -4   1   2   63.66    8.86
   4   1  -1   93.71    8.34
   4   1  -1   94.23    8.26
   4   1  -1  108.66   10.67
  -4   1   1   89.54    9.19
   4   1  -1   88.56    9.38
  -4   1   1   93.59    8.78
  -4   1   1   89.29    9.20
  -4   1   1   91.55    9.50
   4   1   0   72.47    7.31
  -4   1   0   81.73    8.99
   4   1   0   88.31    9.59
  -4   1   0   76.62    8.48
   4   1   0   90.67    9.58
  -4   1   0   79.46    8.21
  -4   1   0   73.34    8.89
   4   1   1    8.38    5.15
   4   1   1    9.69    4.76
  -4   1  -1   17.87    5.52
  -4   1  -1    7.80    5.11
  -4   2   4   17.97    5.79
  -4   2   4   29.56    7.43
  -4   2   4   31.76    7.27
  -4   2   3   33.41    7.07
  -4   2   3   35.89    7.50
   4   2  -3   29.51    7.02
  -4   2   3   34.81    7.02
  -4   2   2   29.85    6.73
   4   2  -2   27.52    6.05
  -4   2   2   23.77    6.52
   4   2  -2   31.46    6.41
  -4   2   2   26.46    6.53
   4   2  -1   53.41    7.83
   4   2  -1   54.49    7.35
   4   2  -1   62.77    9.07
  -4   2   1   34.83    6.97
  -4   2   1   38.07    7.16
   4   2  -1   43.52    7.21
  -4   2   1   42.49    7.31
   4   2   0   65.93    7.99
   4   2   0   64.38    9.32
  -4   2   0   59.04    8.66
  -4   2   0   51.44    8.22
   4   2   0   64.33    8.02
  -4   2   0   48.29    7.80
   4   2   1    6.97    4.25
   4   2   1    4.96    5.13
   4   2   1   10.11    4.29
  -4   3   4   66.90    9.45
  -4   3   4   68.40   10.49
  -4   3   4   80.13   11.64
  -4   3   4   53.63    9.68
  -4   3   3   90.72    9.75
  -4   3   3   86.32   10.97
  -4   3   3   70.11    9.82
  -4   3   3   70.96    9.19
   4   3  -2   80.93    9.91
  -4   3   2   76.88    9.21
  -4   3   2   82.50   10.88
  -4   3   2   96.14   10.73
  -4   3   2   78.79   10.19
  -4   3   1  107.82   11.75
   4   3  -1  124.87   11.63
   4   3  -1  103.07   11.04
  -4   3   1  117.19   12.50
  -4   3   1  109.81   10.58
   4   3  -1  130.63   12.61
  -4   3   1  118.60   11.57
   4   3   0   80.55    9.83
   4   3   0   89.25   10.00
   4   3   0   94.94   11.14
  -4   3   0   89.41   11.29
  -4   3   0   78.76   10.91
  -4   3   0   80.97    9.99
   4   3   1   44.44    7.89
   4   3   1   39.53    8.58
  -4   4   4    3.64    6.25
  -4   4   4   -4.26    6.13
  -4   4   4   -0.80    6.11
  -4   4   3    4.73    6.09
  -4   4   3    8.40    6.99
  -4   4   3   10.03    5.80
  -4   4   2   47.19    9.43
   4   4  -2   39.88    8.76
  -4   4   2   46.31    8.40
  -4   4   2   36.60    8.36
  -4   4   2   53.08    8.85
   4   4  -1   59.75    9.80
   4   4  -1   50.92    9.39
   4   4  -1   47.49    9.12
  -4   4   1   47.66    8.70
  -4   4   1   33.15    8.12
  -4   4   1   56.03    9.95
  -4   4   1   56.75    8.94
   4   4   0   35.73    8.89
   4   4   0   46.95    9.18
   4   4   0   44.32    8.55
  -4   4   0   41.00    9.36
  -4   4   0   31.42    8.66
  -4   4   0   39.30    8.29
   4   4   1  -12.13    7.27
   4   4   1   12.09    6.24
   4   4   2   64.04   10.53
  -4   5   4   10.70    7.82
  -4   5   4   18.66    9.03
  -4   5   4   19.67    9.63
  -4   5   3   26.59    8.47
  -4   5   3   17.19    7.36
  -4   5   3   13.83    6.87
   4   5  -2   14.40    7.07
  -4   5   2   13.65    8.05
   4   5  -2   14.95    7.81
  -4   5   2   13.18    7.43
  -4   5   2   19.14    8.05
   4   5  -1   20.77    8.40
   4   5  -1   22.06    8.28
   4   5  -1   11.23    6.61
  -4   5   1   13.54    7.62
  -4   5   1   14.84    7.77
  -4   5   1   35.46   10.11
   4   5   0   11.53    7.72
   4   5   0   16.01    8.11
   4   5   0    5.76    6.19
  -4   5   0   14.09    7.40
   4   5   1   10.03    7.72
   4   5   1    9.74    7.47
   4   5   1   -3.66    6.68
   4   5   2   58.35   11.09
  -4   6   4   12.20    8.17
  -4   6   4   -5.72    8.72
  -4   6   4   -0.94    7.89
  -4   6   3    9.23    8.38
  -4   6   3   -7.45   10.35
  -4   6   3   13.71    8.96
  -4   6   2   23.20    8.87
  -4   6   2   12.20    8.50
  -4   6   2   23.84   10.89
   4   6  -1   44.04   11.35
   4   6  -1   27.50    9.36
  -4   6   1   23.84    9.79
  -4   6   1   33.18   10.60
  -4   6   1   35.80   10.16
   4   6   0   27.50    9.95
   4   6   0   40.77   11.07
   4   6   1   12.42    9.26
   4   6   1    5.01    7.82
   4   6   2   26.22   10.87
   4   6   2   35.08   10.42
  -4   7   4  -12.98   10.02
  -4   7   3   16.43   11.09
  -4   7   3   21.77    9.80
  -4   7   2    7.86   10.06
  -4   7   2    2.86    7.99
   5  -6  -4   16.35    9.96
   5  -6  -3   12.52   10.03
   5  -6  -3   11.02   10.65
   5  -6  -2   13.82    9.66
   5  -6  -2   12.66    8.42
  -5  -6   2   25.23    9.59
  -5  -6   2   11.99    9.57
  -5  -6   1   20.61    9.75
  -5  -6   1   29.75   10.38
  -5  -6   0    1.73    8.13
  -5  -6   0   18.53   10.26
  -5  -6  -1  -56.32   13.11
  -5  -6  -1   13.87   10.06
   5  -5  -4   21.76   10.67
   5  -5  -4    7.83    7.75
   5  -5  -4    7.74    9.25
   5  -5  -3   34.44    9.13
   5  -5  -3   21.96    9.07
   5  -5  -3   23.81   11.14
   5  -5  -2   25.16   10.43
   5  -5  -2   -6.80    8.63
  -5  -5   2   10.92    6.86
  -5  -5   2    7.12    7.35
   5  -5  -2   37.32   11.40
  -5  -5   2    3.04    7.83
   5  -5  -1   14.75    8.04
   5  -5  -1    6.82    8.46
  -5  -5   1   -3.60    8.14
   5  -5  -1    5.42    7.49
  -5  -5   1    2.37    8.23
  -5  -5   1    9.53    8.24
  -5  -5   0   -7.35    7.58
  -5  -5   0    6.87    7.58
  -5  -5   0    0.31    7.58
  -5  -5  -1   13.05    8.14
  -5  -5  -1   20.33    9.50
   5  -4  -4    1.09    7.82
   5  -4  -4    8.88    8.24
   5  -4  -3   43.70   11.13
   5  -4  -3   29.42    9.38
   5  -4  -3   21.04    8.62
   5  -4  -2   31.03    9.70
   5  -4  -2   40.98    9.51
  -5  -4   2   20.73    8.18
  -5  -4   2   16.89    7.51
   5  -4  -2   46.13   10.38
  -5  -4   2   34.88    8.76
   5  -4  -1    7.91    8.22
   5  -4  -1   25.40    8.53
  -5  -4   1   20.68    8.47
  -5  -4   1   10.45    7.50
   5  -4  -1   15.31    8.23
  -5  -4   1   22.39    8.13
  -5  -4   0    9.42    6.48
  -5  -4   0   28.56    8.53
  -5  -4   0   17.01    7.28
  -5  -4  -1    0.89    5.94
  -5  -4  -1    4.17    6.76
  -5  -4  -1    6.12    7.38
   5  -3  -4   34.80    9.26
   5  -3  -4   49.02   10.42
   5  -3  -4   24.67    8.53
   5  -3  -3  114.17   14.20
   5  -3  -3  100.60   13.32
   5  -3  -3  102.01   13.58
  -5  -3   3  100.34   12.72
  -5  -3   3  108.63   12.01
   5  -3  -2   66.06   11.35
   5  -3  -2   68.23   10.97
  -5  -3   2   65.61   10.76
  -5  -3   2   65.14   10.10
  -5  -3   2   69.59    9.67
   5  -3  -2   46.53    9.90
  -5  -3   1   35.38    8.02
   5  -3  -1   49.93   10.51
   5  -3  -1   36.31    9.27
  -5  -3   1   32.28    8.01
  -5  -3   1   46.17    9.26
   5  -3  -1   37.73    8.95
  -5  -3   0   43.83    8.62
   5  -3   0   42.70   10.50
  -5  -3   0   31.19    8.43
  -5  -3   0   35.20    8.32
  -5  -3  -1    7.89    5.52
  -5  -3  -1    3.30    6.56
  -5  -3  -1   16.62    6.68
   5  -2  -4   20.82    8.35
   5  -2  -4   21.08    7.65
   5  -2  -4    3.66    7.10
   5  -2  -3   65.28   10.50
   5  -2  -3   47.43    9.62
   5  -2  -3   72.42   11.17
  -5  -2   3   58.78   10.05
  -5  -2   3   54.76    9.57
   5  -2  -2   51.18    9.79
   5  -2  -2   50.59    9.40
   5  -2  -2   50.20    9.62
  -5  -2   2   43.96    9.02
  -5  -2   2   59.10    9.57
   5  -2  -1   11.21    6.78
   5  -2  -1   10.29    7.14
  -5  -2   1    9.66    5.96
  -5  -2   1    4.91    5.24
   5  -2  -1   17.09    7.54
   5  -2   0   18.02    7.58
   5  -2   0   10.53    6.27
  -5  -2   0   25.09    8.03
  -5  -2   0   20.44    7.05
  -5  -2   0   41.23    7.85
  -5  -2  -1   -1.05    6.38
  -5  -2  -1    6.45    6.09
  -5  -2  -1    1.02    5.46
   5  -1  -4   -6.98    6.80
   5  -1  -4    9.30    8.22
   5  -1  -3   63.55   10.31
   5  -1  -3   70.73    9.77
   5  -1  -3   56.41    9.00
  -5  -1   3   54.14    9.42
   5  -1  -3   75.97   11.93
  -5  -1   3   45.11    8.49
   5  -1  -2   92.33   12.10
   5  -1  -2   59.75    9.21
   5  -1  -2   46.74    8.93
  -5  -1   2   66.18    9.91
   5  -1  -2   81.50   11.26
  -5  -1   2   91.28   10.95
   5  -1  -1   39.15    8.23
   5  -1  -1   49.97    8.66
   5  -1  -1   39.69    9.14
  -5  -1   1   33.88    8.05
  -5  -1   1   33.72    8.07
   5  -1  -1   25.15    7.15
   5  -1   0   17.01    6.71
   5  -1   0   32.05    7.06
   5  -1   0   33.09    8.30
  -5  -1   0   20.64    6.68
  -5  -1   0   28.28    8.02
  -5  -1  -1    4.80    5.64
  -5  -1  -1    6.70    6.01
  -5   0   4   92.22   10.75
   5   0  -4   78.13   11.59
  -5   0   4  112.65   13.32
   5   0  -3  174.70   14.48
  -5   0   3  175.59   13.22
   5   0  -3  169.11   15.45
  -5   0   3  158.22   13.56
  -5   0   3  163.24   14.30
   5   0  -3  166.53   13.06
   5   0  -2  150.69   14.08
   5   0  -2  158.09   14.55
  -5   0   2  165.41   13.77
  -5   0   2  159.28   14.45
   5   0  -2  159.13   12.69
   5   0  -1   49.65    8.70
  -5   0   1   43.34    7.68
   5   0  -1   41.08    8.16
  -5   0   1   43.24    8.74
   5   0   0   65.13    9.28
   5   0   0   59.87   10.06
  -5   0   0   67.19    9.75
  -5   0   0   67.39   10.09
  -5   0  -1   -1.20    5.80
  -5   0  -1    8.84    6.66
  -5   1   4    0.40    5.68
  -5   1   4    6.53    6.47
  -5   1   3   69.97   10.16
  -5   1   3   60.84    9.71
  -5   1   3   76.87    9.71
   5   1  -3   53.70   10.20
  -5   1   3   58.46    9.81
   5   1  -2   65.97   10.71
  -5   1   2   66.03    9.42
  -5   1   2   69.72    9.75
  -5   1   2   62.54    8.22
   5   1  -2   71.75   10.43
  -5   1   2   71.85   10.82
   5   1  -1   28.99    7.83
  -5   1   1   20.78    6.40
  -5   1   1   22.93    6.49
   5   1  -1   32.69    7.99
  -5   1   1   25.25    7.07
  -5   1   1   27.94    8.44
   5   1   0   22.78    7.45
  -5   1   0   32.89    8.26
  -5   1   0   22.05    7.22
   5   1   0   13.71    6.23
  -5   1   0   35.72    7.57
  -5   1   0   17.76    7.18
   5   1   1    5.26    5.00
  -5   2   4   14.84    6.55
  -5   2   4   21.75    8.00
  -5   2   4   12.91    6.72
  -5   2   3   67.93   10.80
  -5   2   3   45.10    8.45
   5   2  -3   47.63    9.19
  -5   2   3   54.20    9.83
  -5   2   2   51.64    9.56
   5   2  -2   70.47   11.45
  -5   2   2   43.71    8.46
   5   2  -2   51.09    9.49
  -5   2   2   72.53   10.64
   5   2  -1    3.31    6.29
  -5   2   1   15.26    7.12
   5   2  -1   -1.54    7.15
  -5   2   1   17.91    7.27
  -5   2   1    5.74    5.76
   5   2   0   10.28    4.69
   5   2   0   21.93    7.70
  -5   2   0   29.68    8.27
  -5   2   0   26.29    7.56
   5   2   0   28.57    7.69
  -5   2   0   29.61    8.36
   5   2   1   -1.71    6.63
  -5   3   4   24.08    7.38
  -5   3   4   27.67    8.58
  -5   3   3  123.79   14.68
  -5   3   3  107.55   13.52
  -5   3   3   84.27   11.90
   5   3  -2   71.25   11.11
  -5   3   2   68.95   10.46
   5   3  -2   71.26   10.25
   5   3  -2   53.62   10.24
  -5   3   2   73.61   11.80
  -5   3   2   73.80   11.12
   5   3  -1   40.94    9.50
   5   3  -1   36.08    8.65
   5   3  -1   39.51    9.63
  -5   3   1   27.20    8.47
  -5   3   1   33.71    8.71
  -5   3   1   25.73    8.33
   5   3   0   12.66    7.31
   5   3   0   30.55    7.62
   5   3   0   32.48    9.24
  -5   3   0   27.76    9.07
  -5   3   0   16.61    8.15
  -5   3   0   38.30    9.28
   5   3   1    6.99    7.57
  -5   4   4    1.74    7.26
  -5   4   4    4.75    6.68
  -5   4   4   15.25    7.36
   5   4  -3   32.78    9.35
  -5   4   3   26.43    9.90
  -5   4   3   28.60    9.19
  -5   4   3   51.09   10.55
   5   4  -2   45.84   10.32
  -5   4   2   26.55    9.28
   5   4  -2   40.00    8.94
   5   4  -2   24.45    9.47
  -5   4   2   19.49    8.52
  -5   4   2   26.85    7.99
   5   4  -1   27.46    8.83
   5   4  -1   26.75    8.66
   5   4  -1   41.78   10.61
  -5   4   1   21.92    9.36
  -5   4   1   26.18    8.95
  -5   4   1   13.62    7.24
   5   4   0   25.25    8.32
   5   4   0   22.35    8.26
   5   4   0   25.44    8.77
   5   4   1    3.97    7.04
   5   4   1    7.10    6.99
   5   4   1    8.99    7.41
  -5   5   4   18.35    9.96
  -5   5   4   13.72    8.32
  -5   5   4    5.88    7.40
  -5   5   3   40.21   10.43
  -5   5   3   26.68   10.26
  -5   5   3   43.62   10.91
   5   5  -2    7.05    7.69
   5   5  -2   15.08    8.80
  -5   5   2    5.88    8.20
   5   5  -2    7.69    7.85
  -5   5   2   10.01    7.56
  -5   5   2   23.56    9.79
   5   5  -1   12.70    8.93
   5   5  -1   -1.25    7.70
   5   5  -1  -14.78    9.46
  -5   5   1   20.33    9.56
  -5   5   1    6.53    7.83
   5   5   0   -5.14    8.06
   5   5   0    8.57    8.82
   5   5   0   12.59    9.29
   5   5   1    3.66    8.51
   5   5   1    3.51    8.32
   5   5   1   -4.45    7.38
  -5   6   3   25.60   10.38
  -5   6   3   19.27   11.05
  -5   6   2   -1.54    8.38
  -5   6   2    7.96    8.66
  -6  -5   2   14.51    8.58
  -6  -5   2    8.33    7.94
  -6  -5   1  -13.39    9.95
  -6  -5   1    0.79    7.69
  -6  -5   1    6.24    8.72
  -6  -5   0   11.14    8.60
  -6  -5   0    5.42    9.64
  -6  -5   0    5.34    8.89
   6  -4  -4    9.97    9.21
   6  -4  -4    9.76    9.06
   6  -4  -3   44.49   12.23
   6  -4  -3   46.18   12.36
  -6  -4   3   52.85   12.38
   6  -4  -3   34.93   11.03
   6  -4  -2   27.01   10.94
   6  -4  -2   20.22    8.80
  -6  -4   2   38.04   10.39
  -6  -4   2   39.78   10.46
   6  -4  -2   37.74   11.99
   6  -4  -1   54.80   12.89
  -6  -4   1   47.80   12.48
  -6  -4   1   34.86    9.59
  -6  -4   0   29.58    9.53
  -6  -4   0   35.60   10.93
  -6  -4   0   41.58   10.80
  -6  -4  -1   23.05   10.06
  -6  -4  -1   13.43    8.71
   6  -3  -4   42.46   11.27
   6  -3  -4   50.76   11.73
   6  -3  -4   40.56   11.60
   6  -3  -3   55.12   12.20
   6  -3  -3   87.59   14.64
  -6  -3   3   49.38   10.95
   6  -3  -3   58.44   12.72
   6  -3  -2   52.72   11.60
   6  -3  -2   48.64   11.78
  -6  -3   2   52.60   11.99
   6  -3  -2   36.77   10.22
   6  -3  -1   32.96   10.29
   6  -3  -1   30.02    9.90
  -6  -3   1   29.40    9.26
   6  -3  -1   31.80   10.02
  -6  -3   0   26.54    9.33
  -6  -3  -1   42.48   11.32
   6  -2  -4   -2.97    8.64
   6  -2  -4   16.19    8.21
   6  -2  -4   14.24    9.97
   6  -2  -3   55.71   11.35
   6  -2  -3   28.89    9.39
  -6  -2   3   60.55   11.05
  -6  -2   3   37.55    9.10
   6  -2  -3   42.73   11.11
   6  -2  -2   37.58   10.52
   6  -2  -2   23.31   10.34
  -6  -2   2   22.19    8.61
  -6  -2   2   39.13   10.00
   6  -2  -2   18.77    7.58
   6  -2  -1   20.75    7.82
   6  -2  -1   -1.69    9.89
  -6  -2   1   35.40    9.51
  -6  -2   1   21.70    8.43
   6  -2  -1   24.76    8.08
  -6  -2   0   22.84    8.22
  -6  -2   0   25.35    9.20
   6  -1  -4   10.98    8.35
   6  -1  -3   81.02   12.31
   6  -1  -3   61.18   12.46
  -6  -1   3   65.31   11.44
  -6  -1   3   65.22   11.72
   6  -1  -2   47.76    9.57
   6  -1  -2   58.14   11.35
  -6  -1   2   54.20    9.65
  -6  -1   2   40.13    9.42
   6  -1  -1   67.73   11.02
   6  -1  -1   69.04   11.69
  -6  -1   1   53.55   10.26
  -6  -1   1   79.57   11.93
   6  -1   0   64.56   10.48
   6  -1   0   69.62   11.73
  -6  -1   0   28.14    8.42
  -6  -1   0   42.36   10.43
   6   0  -4   55.51   11.32
   6   0  -4   41.85   11.22
  -6   0   4   59.57   11.60
   6   0  -3  117.12   14.16
   6   0  -3  114.78   14.69
  -6   0   3  114.64   13.32
  -6   0   3  105.92   14.29
   6   0  -2   30.51    8.59
   6   0  -2   49.43   10.90
  -6   0   2   50.05    9.88
  -6   0   2   52.51   10.41
   6   0  -1   43.22    9.47
   6   0  -1   55.07   11.18
  -6   0   1   53.56   10.06
  -6   0   1   28.31    9.27
   6   0   0   26.35    7.87
   6   0   0   38.96    9.56
  -6   0   0   32.69    8.60
  -6   0   0   41.28    9.88
  -6   1   4   19.06    7.47
   6   1  -4   46.15   11.27
  -6   1   4   41.28   10.40
   6   1  -3   51.29   10.58
  -6   1   3   67.26   10.74
   6   1  -3   55.74   12.03
  -6   1   3   57.77   11.05
   6   1  -2   75.99   12.26
  -6   1   2   51.90   10.19
   6   1  -2   55.78   11.47
  -6   1   2   47.47   10.63
   6   1  -1   76.97   11.98
  -6   1   1   85.48   12.28
   6   1  -1   89.27   12.77
  -6   1   1   66.54   11.39
   6   1   0   52.66   10.30
   6   1   0   57.65   10.70
  -6   1   0   43.47    9.01
  -6   1   0   41.33    9.87
  -6   2   4   26.55    8.73
  -6   2   4   14.10    7.09
  -6   2   4   32.87   10.72
   6   2  -3   45.79   11.55
  -6   2   3   47.05   10.02
  -6   2   3   64.15   11.27
   6   2  -3   41.58   10.04
  -6   2   3   68.10   11.73
   6   2  -2   31.08    9.74
  -6   2   2   33.90    9.52
  -6   2   2   36.94    8.87
   6   2  -2   28.37    8.74
  -6   2   2   24.54    9.22
   6   2  -1   39.13   10.45
   6   2  -1   48.02   10.84
  -6   2   1   55.93   12.10
  -6   2   1   20.29    9.20
   6   2   0   26.68   10.17
   6   2   0   11.93    6.62
  -6   2   0   15.99    9.15
  -6   3   4   48.39   11.77
  -6   3   4   41.14    9.59
  -6   3   4   39.27   10.79
  -6   3   3   59.16   11.59
   6   3  -3   56.01   12.77
  -6   3   3   62.27   11.96
  -6   3   3   62.59   12.10
   6   3  -2   42.01   10.69
  -6   3   2   40.37    9.58
  -6   3   2   41.23   10.03
  -6   3   2   44.39   10.63
   6   3  -1   29.93    9.25
  -6   3   1   30.94   10.04
  -6   3   1   37.14   11.09
  -6   3   1   14.72    8.22
   6   3   0   15.25    7.46
   6   3   1   33.07    9.68
  -6   4   4   25.20    9.47
  -6   4   4    2.93    8.75
  -6   4   3   27.21   10.52
   6   4  -3   37.06   11.64
  -6   4   3   62.41   13.86
  -6   4   3   36.60   10.79
   6   4  -2   53.66   11.71
   6   4  -2   61.97   13.01
  -6   4   2   25.71   10.04
  -6   4   2   26.33   10.00
  -6   4   2   26.86   10.18
   6   4  -1   39.09   10.53
   6   4  -1   43.81   12.04
  -6   4   1   33.15   11.72
  -6   4   1   33.42   11.26
  -6   4   1   35.63   11.26
   6   4   0   49.14   11.82
   6   4   0   40.62   11.42
   6   4   0   24.42    8.85
   6   4   1   13.66    9.63
   6   4   1   33.95   10.63
   7  -2  -4   -1.70    7.45
   7  -2  -3    3.67    9.11
  -7  -2   3    3.60    8.30
  -7  -2   3    3.09    8.53
   7  -2  -2   15.35   10.11
  -7  -2   2   -0.20    8.02
  -7  -2   2   23.65   11.13
   7  -2  -1    8.97    8.52
  -7  -2   1   -0.63    7.50
  -7  -2   0   34.02   11.08
  -7  -1   3   16.38    9.58
  -7  -1   3    8.01    8.36
   7  -1  -2   19.20    9.32
  -7  -1   2   17.62    8.50
  -7  -1   2   19.56    9.59
   7  -1  -1    9.18    9.42
  -7  -1   1    1.36    7.83
  -7  -1   1   16.45    9.93
  -7  -1   0   18.85    7.90
  -7  -1   0   22.59   10.12
  -7   0   4    2.21    9.20
   7   0  -3   12.90    8.03
   7   0  -3   11.58   10.86
  -7   0   3   10.85    8.05
  -7   0   3    5.57    8.98
   7   0  -2   35.84   11.42
   7   0  -2   41.17   12.32
  -7   0   2   10.06    7.94
  -7   0   2   16.64    8.58
   7   0  -1   19.81    9.03
   7   0  -1   22.69   10.09
  -7   0   1   40.56   10.61
  -7   0   1   46.39   11.98
  -7   1   4   -6.46    8.20
   7   1  -3   -2.64   10.38
   7   1  -3  -14.74   10.93
  -7   1   3    3.06   16.80
   7   1  -2   21.60    9.60
   7   1  -2   35.29   11.85
  -7   1   2   16.32    9.88
   7   1  -1    3.53    7.80
   7   1  -1   16.16    9.46
  -7   1   1   11.34    8.53
  -7   2   4   13.02   10.78
  -7   2   3   13.80    9.90
   7   2  -3    0.52    9.53
  -7   2   2   25.79   10.50
   7   2  -2    5.16    9.15
  -7   2   2   -1.37    8.40
   7   2  -1    9.21    9.10
  -7   2   1    3.77   10.02
  -7   3   2    9.25    8.63
   0   0   0    0.00    0.00
;
_shelx_hkl_checksum              44334
_olex2_submission_special_instructions 'No special instructions were received'
loop_
_space_group_symop_operation_xyz
'x, y, z'
'x, -y, z'
loop_
_atom_site_label
_atom_site_type_symbol
_atom_site_fract_x
_atom_site_fract_y
_atom_site_fract_z
_atom_site_U_iso_or_equiv
_atom_site_adp_type
_atom_site_occupancy
_atom_site_site_symmetry_order
_atom_site_calc_flag
_atom_site_refinement_flags_posn
_atom_site_refinement_flags_adp
_atom_site_refinement_flags_occupancy
Co1 Co 0.010(4) 0.0000 -0.023(6) 0.0330(19) Uiso 1 2 d S T P
O1 O 0.087(8) 0.0000 0.161(11) 0.049(5) Uiso 1 2 d DS T P
O2 O -0.268(7) 0.0000 0.098(9) 0.049(5) Uiso 1 2 d DS T P
C7 C -0.121(9) 0.0000 0.194(9) 0.052(15) Uiso 1 2 d DS T P
N1 N 0.004(8) 0.313(2) -0.026(13) 0.033(5) Uiso 1 1 d . . .
O1W O 0.34547(2) 0.0000 -0.04921(2) 0.033(7) Uiso 1 2 d DS T P
C3 C -0.420(6) 0.0000 0.481(9) 0.061(15) Uiso 1 2 d S T P
H3 H -0.5646 0.0000 0.5044 0.073 Uiso 1 2 calc RS T P
C2 C -0.381(6) 0.000(7) 0.355(9) 0.057(16) Uiso 1 2 d DGS T P
H2 H -0.5004 0.0000 0.2931 0.069 Uiso 1 2 calc RS T P
C1 C -0.165(6) 0.000(9) 0.320(9) 0.033(10) Uiso 1 2 d DGS T P
C6 C 0.012(5) 0.000(9) 0.413(9) 0.065(19) Uiso 1 2 d DGS T P
H6 H 0.1571 0.0000 0.3897 0.078 Uiso 1 2 calc RS T P
C5 C -0.026(6) 0.000(9) 0.539(9) 0.08(2) Uiso 1 2 d GS T P
H5 H 0.0929 0.0000 0.6010 0.092 Uiso 1 2 calc RS T P
C4 C -0.242(7) 0.000(7) 0.574(9) 0.027(9) Uiso 1 2 d DGS T P
C9 C 0.111(7) 0.395(5) -0.133(10) 0.050(10) Uiso 1 1 d . . .
H9A H 0.0335 0.3504 -0.2114 0.060 Uiso 1 1 calc R . .
H9B H 0.2631 0.3504 -0.1305 0.060 Uiso 1 1 calc R . .
C10 C -0.222(7) 0.394(4) -0.031(10) 0.039(8) Uiso 1 1 d . . .
H10A H -0.2945 0.3492 0.0407 0.046 Uiso 1 1 calc R . .
H10B H -0.3070 0.3492 -0.1069 0.046 Uiso 1 1 calc R . .
C11 C 0.146(7) 0.394(5) 0.092(11) 0.052(9) Uiso 1 1 d . . .
H11A H 0.0859 0.3486 0.1681 0.063 Uiso 1 1 calc R . .
H11B H 0.2970 0.3486 0.0927 0.063 Uiso 1 1 calc R . .
C8 C -0.271(10) 0.0000 0.712(9) 0.061(16) Uiso 1 2 d DS T P
O4 O -0.115(7) 0.0000 0.796(9) 0.049(5) Uiso 1 2 d DS T P
O3 O -0.470(7) 0.0000 0.751(10) 0.049(5) Uiso 1 2 d DS T P
H1WA H 0.4662 0.0000 0.0351 0.074 Uiso 1 2 d DRS T P
H1WB H 0.4258 0.0000 -0.12229(11) 0.074 Uiso 1 2 d DRS T P
loop_
_atom_type_symbol
_atom_type_description
_atom_type_scat_dispersion_real
_atom_type_scat_dispersion_imag
_atom_type_scat_source
C C 0.0033 0.0016 'International Tables Vol C Tables 4.2.6.8 and 6.1.1.4'
H H 0.0000 0.0000 'International Tables Vol C Tables 4.2.6.8 and 6.1.1.4'
Co Co 0.3494 0.9721 'International Tables Vol C Tables 4.2.6.8 and 6.1.1.4'
N N 0.0061 0.0033 'International Tables Vol C Tables 4.2.6.8 and 6.1.1.4'
O O 0.0106 0.0060 'International Tables Vol C Tables 4.2.6.8 and 6.1.1.4'
loop_
_geom_angle_atom_site_label_1
_geom_angle_atom_site_label_2
_geom_angle_atom_site_label_3
_geom_angle
_geom_angle_site_symmetry_1
_geom_angle_site_symmetry_3
O1 Co1 O2 63(2) . .
O1 Co1 N1 91(3) . 2
O1 Co1 N1 91(3) . .
O1 Co1 O1W 89(2) . .
O1 Co1 O4 171.4(15) . 1_554
O2 Co1 N1 90(2) . 2
O2 Co1 N1 90(2) . .
N1 Co1 N1 178(4) . 2
O1W Co1 O2 152(2) . .
O1W Co1 N1 90.7(12) . .
O1W Co1 N1 90.7(12) . 2
O4 Co1 O2 108.6(18) 1_554 .
O4 Co1 N1 89(3) 1_554 2
O4 Co1 N1 89(3) 1_554 .
O4 Co1 O1W 99(2) 1_554 .
C7 O1 Co1 97(5) 2 .
C7 O1 Co1 97(5) . .
C7 O1 C7 0(8) 2 .
C7 O2 Co1 87(3) . .
C7 O2 Co1 87(3) 2 .
C7 O2 C7 0(6) 2 .
O1 C7 C1 121(5) . .
O2 C7 O1 113(7) . .
O2 C7 C1 126(3) . .
C7 C7 O1 0(10) 2 .
C7 C7 O2 0(10) 2 .
C7 C7 C1 0(10) 2 .
C9 N1 Co1 113(5) . .
C9 N1 C11 104(4) . .
C10 N1 Co1 114(2) . .
C10 N1 C9 107(6) . .
C10 N1 C11 109(7) . .
C11 N1 Co1 110(5) . .
Co1 O1W H1WA 118.2(19) . .
Co1 O1W H1WB 133.4(19) . .
H1WA O1W H1WB 108.41(6) . .
C2 C3 H3 120.0 . .
C2 C3 C4 120.0 . .
C4 C3 H3 120.0 . .
C3 C2 H2 120.0 . .
C3 C2 C1 120.0 . .
C1 C2 H2 120.0 . .
C7 C1 C7 0.0(16) 2 .
C2 C1 C7 121.3(11) . .
C2 C1 C7 121.3(11) . 2
C6 C1 C7 118.7(11) . 2
C6 C1 C7 118.7(11) . .
C6 C1 C2 120.0 . .
C1 C6 H6 120.0 . .
C1 C6 C5 120.0 . .
C5 C6 H6 120.0 . .
C6 C5 H5 120.0 . .
C4 C5 C6 120.0 . .
C4 C5 H5 120.0 . .
C3 C4 C8 123(3) . .
C5 C4 C3 120.0 . .
C5 C4 C8 117(3) . .
N1 C9 C9 113(2) . 2_565
N1 C9 H9A 109.0 . .
N1 C9 H9B 109.0 . .
C9 C9 H9A 109.0 2_565 .
C9 C9 H9B 109.0 2_565 .
H9A C9 H9B 107.8 . .
N1 C10 C10 112.6(14) . 2_565
N1 C10 H10A 109.1 . .
N1 C10 H10B 109.1 . .
C10 C10 H10A 109.1 2_565 .
C10 C10 H10B 109.1 2_565 .
H10A C10 H10B 107.8 . .
N1 C11 H11A 109.3 . .
N1 C11 H11B 109.3 . .
C11 C11 N1 111(3) 2_565 .
C11 C11 H11A 109.3 2_565 .
C11 C11 H11B 109.3 2_565 .
H11A C11 H11B 108.0 . .
O4 C8 C4 124(5) . .
O4 C8 O3 116(7) . .
O3 C8 C4 120(5) . .
C8 O4 Co1 153(4) . 1_556
loop_
_geom_bond_atom_site_label_1
_geom_bond_atom_site_label_2
_geom_bond_distance
_geom_bond_site_symmetry_2
Co1 O1 1.97(9) .
Co1 O2 2.21(4) .
Co1 N1 2.221(15) 2
Co1 N1 2.220(15) .
Co1 O1W 2.07(3) .
Co1 O4 2.01(6) 1_554
O1 C7 1.34(6) .
O1 C7 1.34(6) 2
O2 C7 1.29(6) 2
O2 C7 1.29(6) .
C7 C7 0.0(2) 2
C7 C1 1.40(2) .
N1 C9 1.48(13) .
N1 C10 1.48(5) .
N1 C11 1.56(14) .
O1W H1WA 1.1057(7) .
O1W H1WB 0.9546(12) .
C3 H3 0.9300 .
C3 C2 1.3900 .
C3 C4 1.3900 .
C2 H2 0.9300 .
C2 C1 1.3900 .
C1 C7 1.40(2) 2
C1 C6 1.3900 .
C6 H6 0.9300 .
C6 C5 1.3900 .
C5 H5 0.9300 .
C5 C4 1.3900 .
C4 C8 1.50(3) .
C9 C9 1.49(8) 2_565
C9 H9A 0.9700 .
C9 H9B 0.9700 .
C10 C10 1.50(5) 2_565
C10 H10A 0.9700 .
C10 H10B 0.9700 .
C11 C11 1.50(7) 2_565
C11 H11A 0.9700 .
C11 H11B 0.9700 .
C8 O4 1.24(7) .
C8 O3 1.31(6) .
O4 Co1 2.01(6) 1_556
loop_
_geom_torsion_atom_site_label_1
_geom_torsion_atom_site_label_2
_geom_torsion_atom_site_label_3
_geom_torsion_atom_site_label_4
_geom_torsion
_geom_torsion_site_symmetry_1
_geom_torsion_site_symmetry_4
Co1 O1 C7 O2 0.000(3) . .
Co1 O1 C7 C7 0(11) . 2
Co1 O1 C7 C1 180(3) . .
Co1 O2 C7 O1 0.000(4) . .
Co1 O2 C7 C7 0(100) . 2
Co1 O2 C7 C1 180(3) . .
Co1 N1 C9 C9 -178.8(19) . 2_565
Co1 N1 C10 C10 179(3) . 2_565
Co1 N1 C11 C11 179.6(19) . 2_565
O1 C7 C1 C7 0(100) . 2
O1 C7 C1 C2 180.0(15) . .
O1 C7 C1 C6 0(5) . .
O2 C7 C1 C7 0(100) . 2
O2 C7 C1 C2 0(5) . .
O2 C7 C1 C6 180(2) . .
C7 O1 C7 O2 0(100) 2 .
C7 O1 C7 C1 0(100) 2 .
C7 O2 C7 O1 0(100) 2 .
C7 O2 C7 C1 0(100) 2 .
C7 C7 C1 C2 0(10) 2 .
C7 C7 C1 C6 0(100) 2 .
C7 C1 C6 C5 180(5) 2 .
C7 C1 C6 C5 180(5) . .
C3 C2 C1 C7 180(5) . 2
C3 C2 C1 C7 180(5) . .
C3 C2 C1 C6 0.0 . .
C3 C4 C8 O4 180(2) . .
C3 C4 C8 O3 0(5) . .
C2 C3 C4 C5 0.0 . .
C2 C3 C4 C8 180(5) . .
C2 C1 C6 C5 0.0 . .
C1 C6 C5 C4 0.0 . .
C6 C5 C4 C3 0.0 . .
C6 C5 C4 C8 180(4) . .
C5 C4 C8 O4 0(2) . .
C5 C4 C8 O3 180.0(15) . .
C4 C3 C2 C1 0.0 . .
C4 C8 O4 Co1 180(2) . 1_556
C9 N1 C10 C10 -56(7) . 2_565
C9 N1 C11 C11 58(3) . 2_565
C10 N1 C9 C9 56(6) . 2_565
C10 N1 C11 C11 -55(6) . 2_565
C11 N1 C9 C9 -59(3) . 2_565
C11 N1 C10 C10 56(7) . 2_565
O3 C8 O4 Co1 0.00(2) . 1_556
