#------------------------------------------------------------------------------
#$Date: 2019-11-24 04:12:18 +0200 (Sun, 24 Nov 2019) $
#$Revision: 236652 $
#$URL: file:///home/coder/svn-repositories/cod/cif/8/00/03/8000359.cif $
#------------------------------------------------------------------------------
#
# This file is available in the Crystallography Open Database (COD),
# http://www.crystallography.net/
#
# All data on this site have been placed in the public domain by the
# contributors.
#
data_8000359
loop_
_publ_author_name
'Andrzejewski, Micha\/l'
'Katrusiak, Andrzej'
_publ_section_title
;
 Piezochromic Porous Metal-Organic Framework.
;
_journal_issue                   1
_journal_name_full               'The journal of physical chemistry letters'
_journal_page_first              279
_journal_page_last               284
_journal_paper_doi               10.1021/acs.jpclett.6b02458
_journal_volume                  8
_journal_year                    2017
_chemical_formula_moiety         'C14 H18 Co N2 O5'
_chemical_formula_sum            'C14 H18 Co N2 O5'
_chemical_formula_weight         353.23
_chemical_name_common            AMU1
_chemical_name_systematic
;
Co(1,4-benzenedicarboxylate)(1,4-diazabicyclo[2.2.2]octane)H2O
;
_space_group_crystal_system      monoclinic
_space_group_IT_number           6
_space_group_name_Hall           'P -2y'
_space_group_name_H-M_alt        'P 1 m 1'
_atom_sites_solution_hydrogens   mixed
_atom_sites_solution_primary     direct
_audit_creation_date             2016-07-12
_audit_creation_method
;
Olex2 1.2
(compiled 2016.02.19 svn.r3266 for OlexSys, GUI svn.r5155)
;
_cell_angle_alpha                90
_cell_angle_beta                 95.090(2)
_cell_angle_gamma                90
_cell_formula_units_Z            1
_cell_length_a                   6.0947(2)
_cell_length_b                   7.0901(2)
_cell_length_c                   10.6768(2)
_cell_measurement_reflns_used    2375
_cell_measurement_temperature    250(2)
_cell_measurement_theta_max      58.21
_cell_measurement_theta_min      5.75
_cell_volume                     459.55(2)
_computing_molecular_graphics    'Olex2 (Dolomanov et al., 2009)'
_computing_publication_material  'Olex2 (Dolomanov et al., 2009)'
_computing_structure_refinement  'ShelXL (Sheldrick, 2015)'
_computing_structure_solution    'ShelXS (Sheldrick, 2008)'
_diffrn_ambient_temperature      250(2)
_diffrn_measured_fraction_theta_full 0.999
_diffrn_measured_fraction_theta_max 0.932
_diffrn_measurement_device_type  'multiwire proportional'
_diffrn_measurement_method       'phi and omega scans'
_diffrn_radiation_monochromator  graphite
_diffrn_radiation_type           MoK\a
_diffrn_radiation_wavelength     0.71073
_diffrn_reflns_av_R_equivalents  0.0396
_diffrn_reflns_av_unetI/netI     0.0530
_diffrn_reflns_Laue_measured_fraction_full 0.999
_diffrn_reflns_Laue_measured_fraction_max 0.932
_diffrn_reflns_limit_h_max       8
_diffrn_reflns_limit_h_min       -8
_diffrn_reflns_limit_k_max       9
_diffrn_reflns_limit_k_min       -9
_diffrn_reflns_limit_l_max       13
_diffrn_reflns_limit_l_min       -13
_diffrn_reflns_number            7095
_diffrn_reflns_point_group_measured_fraction_full 0.999
_diffrn_reflns_point_group_measured_fraction_max 0.932
_diffrn_reflns_theta_full        26.000
_diffrn_reflns_theta_max         29.103
_diffrn_reflns_theta_min         2.873
_exptl_absorpt_coefficient_mu    0.954
_exptl_absorpt_correction_T_max  0.909
_exptl_absorpt_correction_T_min  0.892
_exptl_absorpt_correction_type   multi-scan
_exptl_absorpt_process_details
;
Data were collected and reduced by program CrysAlisPro, 
and SCALE3 ABSPACK was used for absorption correction
;
_exptl_crystal_colour            purple
_exptl_crystal_density_diffrn    1.276
_exptl_crystal_description       plate
_exptl_crystal_F_000             183
_exptl_crystal_size_max          0.3
_exptl_crystal_size_mid          0.1
_exptl_crystal_size_min          0.1
_refine_diff_density_max         1.117
_refine_diff_density_min         -0.880
_refine_diff_density_rms         0.115
_refine_ls_abs_structure_details
;
 Refined as a perfect inversion twin.
;
_refine_ls_abs_structure_Flack   0.5
_refine_ls_extinction_method     none
_refine_ls_goodness_of_fit_ref   1.093
_refine_ls_hydrogen_treatment    constr
_refine_ls_matrix_type           full
_refine_ls_number_parameters     122
_refine_ls_number_reflns         2375
_refine_ls_number_restraints     53
_refine_ls_restrained_S_all      5.220
_refine_ls_R_factor_all          0.0539
_refine_ls_R_factor_gt           0.0511
_refine_ls_shift/su_max          0.000
_refine_ls_shift/su_mean         0.000
_refine_ls_structure_factor_coef Fsqd
_refine_ls_weighting_details
'w=1/[\s^2^(Fo^2^)+(0.0759P)^2^+0.2230P] where P=(Fo^2^+2Fc^2^)/3'
_refine_ls_weighting_scheme      calc
_refine_ls_wR_factor_gt          0.1306
_refine_ls_wR_factor_ref         0.1326
_reflns_Friedel_coverage         0.993
_reflns_Friedel_fraction_full    0.999
_reflns_Friedel_fraction_max     0.932
_reflns_number_gt                2228
_reflns_number_total             2375
_reflns_threshold_expression     'I > 2\s(I)'
_cod_data_source_file            jz6b02458_si_004.cif
_cod_data_source_block           250K_Pm
_cod_database_code               8000359
_shelx_space_group_comment
;
The symmetry employed for this shelxl refinement is uniquely defined
by the following loop, which should always be used as a source of
symmetry information in preference to the above space-group names.
They are only intended as comments.
;
_olex2_refinement_description
;
1. Fixed Uiso
 At 1.2 times of:
  All C(H) groups, All C(H,H) groups
 At 1.5 times of:
  All O(H,H) groups
2. Restrained distances
 H1WB-O1W
 0.96 with sigma of 0.001
 H1WA-H1WB
 1.44 with sigma of 0.02
 H1WA-O1W
 0.96 with sigma of 0.001
3. Uiso/Uaniso restraints and constraints
Uanis(O1) \\sim Ueq, Uanis(C1) \\sim Ueq, Uanis(C2) \\sim Ueq, Uanis(C3) \\sim
Ueq, Uanis(C4) \\sim Ueq, Uanis(C5) \\sim Ueq, Uanis(C6) \\sim Ueq: with sigma
of 0.001 and sigma for terminal atoms of 0.002
Uanis(O3) \\sim Ueq: with sigma of 0.001 and sigma for terminal atoms of 0.002
4. Others
 Fixed Sof: H1WA(0.5) H1WB(0.5)
5.a Rotating group:
 O1W(H1WA,H1WB)
5.b Secondary CH2 refined with riding coordinates:
 C9(H9A,H9B), C10(H10A,H10B), C11(H11A,H11B)
5.c Aromatic/amide H refined with riding coordinates:
 C3(H3), C2(H2), C6(H6), C5(H5)
;
_shelx_hkl_file
;
  -8  -1   0    2.98    1.02
  -8   0   1    3.07    1.03
  -8   0   2    4.19    0.83
  -8   0   3    4.02    0.92
  -8   1   1    0.47    0.40
  -8   1   2    1.08    0.58
  -8   1   3    1.51    0.59
  -8   1   4    2.23    0.72
  -7  -4  -2    2.46    0.72
  -7  -4  -1    1.79    0.61
  -7  -4   0    5.66    1.05
  -7  -3  -4    5.48    1.07
  -7  -3  -3    2.03    0.59
  -7  -3  -2    3.96    0.90
  -7  -3  -1    2.51    0.62
  -7  -3   0    8.23    0.87
  -7  -2  -5    0.33    0.41
  -7  -2  -4    3.29    0.90
  -7  -2  -3    1.61    0.49
  -7  -2  -2    2.34    0.50
  -7  -2  -1    0.67    0.51
  -7  -2   0    4.70    0.53
  -7  -1  -6    3.26    0.87
  -7  -1  -5    1.77    0.55
  -7  -1  -4    5.79    1.05
  -7  -1  -3    3.10    0.75
  -7  -1  -2    4.37    1.04
  -7  -1  -1    1.93    0.43
  -7  -1   0    6.77    0.76
  -7   0  -2    5.17    1.10
  -7   0  -1    2.59    0.80
  -7   0   0    9.76    1.29
  -7   0   1    4.97    0.93
  -7   0   2    8.15    1.05
  -7   0   3    2.80    0.51
  -7   0   4    3.02    0.53
  -7   0   5    4.26    0.78
  -7   0   6    2.27    0.87
  -7   0   7    1.87    0.67
  -7   0   8    3.89    0.88
  -7   1   1    2.24    0.56
  -7   1   2    5.17    0.52
  -7   1   3    2.15    0.34
  -7   1   4    3.13    0.46
  -7   1   5    3.46    0.52
  -7   1   6    2.68    0.45
  -7   1   7    2.52    0.43
  -7   2   1    1.21    0.24
  -7   2   2    3.35    0.38
  -7   2   3    0.62    0.20
  -7   2   4    1.06    0.41
  -7   2   5    0.97    0.31
  -7   2   6    0.72    0.30
  -7   2   7    0.53    0.43
  -7   3   1    2.72    0.40
  -7   3   2    5.37    0.57
  -7   3   3    1.90    0.40
  -7   3   4    2.98    0.44
  -7   3   5    3.58    0.58
  -7   3   6    2.13    0.79
  -7   3   7    1.65    0.55
  -7   4   1    1.76    0.52
  -7   4   2    3.89    0.83
  -7   4   3    1.46    0.43
  -7   4   4    2.90    0.83
  -7   5   1    0.09    0.46
  -6  -6  -2    5.92    1.05
  -6  -6  -1    4.67    1.02
  -6  -6   0    3.59    0.83
  -6  -5  -3    3.54    0.64
  -6  -5  -2    3.76    0.51
  -6  -5  -1    0.94    0.34
  -6  -5   0    0.43    0.27
  -6  -4  -5    2.74    0.88
  -6  -4  -4    5.50    0.75
  -6  -4  -3    5.59    0.75
  -6  -4  -2    6.46    0.61
  -6  -4  -1    6.02    0.61
  -6  -4   0    7.75    0.63
  -6  -3  -6    4.52    0.95
  -6  -3  -5    5.24    0.70
  -6  -3  -4   10.53    1.28
  -6  -3  -3    9.43    0.89
  -6  -3  -2   11.36    0.74
  -6  -3  -1    8.21    0.63
  -6  -3   0    6.14    0.58
  -6  -2  -7    3.68    0.85
  -6  -2  -6    3.24    0.83
  -6  -2  -5    2.77    0.75
  -6  -2  -4    6.99    0.76
  -6  -2  -3    5.57    0.70
  -6  -2  -2    7.10    0.73
  -6  -2  -1    5.20    0.50
  -6  -2   0    3.90    0.33
  -6  -1  -8    4.57    0.95
  -6  -1  -7    6.14    0.73
  -6  -1  -6    6.45    1.59
  -6  -1  -5    5.16    0.62
  -6  -1  -4    8.15    0.74
  -6  -1  -3    7.36    0.58
  -6  -1  -2   11.18    0.62
  -6  -1  -1   11.74    0.52
  -6  -1   0   12.93    0.56
  -6   0  -8    3.89    0.91
  -6   0  -7    4.88    0.94
  -6   0  -6    6.61    1.02
  -6   0  -5    7.72    1.04
  -6   0  -4   15.10    1.45
  -6   0  -3   15.80    1.39
  -6   0  -2   19.15    1.05
  -6   0  -1   12.49    0.89
  -6   0   0    8.24    0.54
  -6   0   1    8.81    0.56
  -6   0   2   12.92    0.68
  -6   0   3   26.54    2.04
  -6   0   4   13.72    0.85
  -6   0   5   12.09    0.90
  -6   0   6    6.36    0.62
  -6   0   7   10.82    1.29
  -6   0   8    3.72    0.88
  -6   0   9    7.74    1.42
  -6   0  10    3.85    0.78
  -6   1   1   13.12    0.66
  -6   1   2   12.12    0.64
  -6   1   3   16.75    0.71
  -6   1   4    7.44    0.53
  -6   1   5    5.67    0.43
  -6   1   6    3.38    0.59
  -6   1   7    7.71    0.63
  -6   1   8    4.99    0.53
  -6   1   9    7.67    0.68
  -6   1  10    2.67    0.54
  -6   2   1    4.78    0.42
  -6   2   2    6.60    0.44
  -6   2   3   12.83    0.70
  -6   2   4    5.09    0.41
  -6   2   5    4.04    0.40
  -6   2   6    2.06    0.29
  -6   2   7    4.82    0.55
  -6   2   8    1.54    0.35
  -6   2   9    4.52    0.71
  -6   2  10    1.70    0.59
  -6   3   1    8.00    0.52
  -6   3   2   10.95    0.78
  -6   3   3   17.77    0.95
  -6   3   4    9.55    0.75
  -6   3   5    8.66    0.69
  -6   3   6    6.55    0.65
  -6   3   7    7.68    0.69
  -6   3   8    2.97    0.58
  -6   3   9    6.79    1.18
  -6   4   1    9.43    0.73
  -6   4   2    8.80    0.72
  -6   4   3    8.08    0.73
  -6   4   4    4.25    0.51
  -6   4   5    4.03    0.52
  -6   4   6    3.39    0.49
  -6   4   7    5.47    1.04
  -6   5   1    0.66    0.29
  -6   5   2    2.63    0.45
  -6   5   3    6.18    0.59
  -6   5   4    1.38    0.36
  -6   5   5    1.58    0.70
  -6   6   1    3.93    0.91
  -5  -7  -3    2.72    0.83
  -5  -7  -2    5.50    0.71
  -5  -7  -1    0.20    0.47
  -5  -7   0    1.72    0.67
  -5  -6  -4    1.50    0.36
  -5  -6  -3    2.66    0.52
  -5  -6  -2    9.60    0.77
  -5  -6  -1    1.15    0.29
  -5  -6   0    3.55    0.48
  -5  -5  -6    0.89    0.57
  -5  -5  -5    1.84    0.69
  -5  -5  -4    4.06    0.50
  -5  -5  -3    7.06    0.64
  -5  -5  -2   14.38    0.88
  -5  -5  -1    0.29    0.34
  -5  -5   0    0.87    0.30
  -5  -4  -7    3.95    0.95
  -5  -4  -6    1.15    0.55
  -5  -4  -5    1.03    0.56
  -5  -4  -4    0.77    0.32
  -5  -4  -3    2.35    0.36
  -5  -4  -2   15.13    0.87
  -5  -4  -1    1.22    0.25
  -5  -4   0    5.37    0.52
  -5  -3  -8    6.09    1.08
  -5  -3  -7    7.12    1.21
  -5  -3  -6    3.27    0.86
  -5  -3  -5    5.80    0.97
  -5  -3  -4   11.34    0.69
  -5  -3  -3   18.68    0.93
  -5  -3  -2   43.35    1.56
  -5  -3  -1    1.37    0.30
  -5  -3   0    7.35    0.68
  -5  -2 -10    1.29    0.63
  -5  -2  -9    1.88    1.02
  -5  -2  -8    2.76    0.54
  -5  -2  -7    4.62    0.63
  -5  -2  -6    1.37    0.31
  -5  -2  -5    1.55    0.34
  -5  -2  -4    4.56    0.46
  -5  -2  -3    9.27    0.48
  -5  -2  -2   35.24    1.07
  -5  -2  -1    0.26    0.14
  -5  -2   0    3.51    0.30
  -5  -1 -10    1.23    0.49
  -5  -1  -9    3.42    0.63
  -5  -1  -8    5.81    0.68
  -5  -1  -7    8.29    0.78
  -5  -1  -6    2.58    0.49
  -5  -1  -5    0.94    0.26
  -5  -1  -4    1.23    0.30
  -5  -1  -3    5.13    0.36
  -5  -1  -2   32.59    0.71
  -5  -1  -1    2.17    0.16
  -5  -1   0    6.34    0.40
  -5   0 -10    4.27    1.07
  -5   0  -9    3.27    0.74
  -5   0  -8    6.40    1.10
  -5   0  -7   11.12    1.37
  -5   0  -6    4.49    0.76
  -5   0  -5    8.14    1.10
  -5   0  -4   21.91    1.75
  -5   0  -3   34.71    1.53
  -5   0  -2   79.70    2.07
  -5   0  -1    1.70    0.18
  -5   0   0   10.36    0.68
  -5   0   1   11.33    0.67
  -5   0   2   31.62    2.09
  -5   0   3   34.60    1.33
  -5   0   4   17.65    1.08
  -5   0   5   34.18    1.36
  -5   0   6   42.39    1.82
  -5   0   7   17.25    1.05
  -5   0   8   10.51    0.86
  -5   0   9    8.89    1.30
  -5   0  10    8.41    0.88
  -5   0  11   16.83    1.22
  -5   0  12    9.34    1.31
  -5   1   1    5.79    0.37
  -5   1   2   15.26    0.54
  -5   1   3   10.25    0.53
  -5   1   4    0.46    0.12
  -5   1   5    4.17    0.38
  -5   1   6   10.75    0.52
  -5   1   7    5.14    0.41
  -5   1   8    4.51    0.39
  -5   1   9    4.48    0.42
  -5   1  10    5.03    0.53
  -5   1  11    9.49    0.79
  -5   1  12    1.51    0.62
  -5   2   1    3.82    0.29
  -5   2   2   12.54    0.64
  -5   2   3   13.04    0.57
  -5   2   4    2.57    0.43
  -5   2   5    8.57    0.48
  -5   2   6   14.88    0.76
  -5   2   7    5.87    0.44
  -5   2   8    5.16    0.46
  -5   2   9    3.25    0.38
  -5   2  10    4.18    0.68
  -5   2  11    8.63    1.31
  -5   3   1    7.32    0.48
  -5   3   2   17.49    0.69
  -5   3   3   21.77    0.87
  -5   3   4    8.62    0.48
  -5   3   5   15.92    0.96
  -5   3   6   22.41    1.09
  -5   3   7   10.04    0.78
  -5   3   8    7.75    0.70
  -5   3   9    5.88    0.65
  -5   3  10    4.93    0.99
  -5   4   1    4.88    0.52
  -5   4   2    8.72    0.65
  -5   4   3    6.29    0.54
  -5   4   4    0.55    0.32
  -5   4   5    1.57    0.30
  -5   4   6    5.49    0.59
  -5   4   7    3.22    0.45
  -5   4   8    3.28    0.62
  -5   4   9    3.03    0.78
  -5   5   1    1.73    0.38
  -5   5   2    3.89    0.46
  -5   5   3    7.82    0.71
  -5   5   4    2.88    0.41
  -5   5   5    6.52    0.66
  -5   5   6    8.50    0.73
  -5   5   7    3.36    0.54
  -5   5   9    1.60    0.62
  -5   6   1    3.45    0.52
  -5   6   2    4.30    0.54
  -5   6   3    5.80    0.57
  -5   6   4    1.63    0.41
  -5   6   5    2.85    0.41
  -5   7   1    1.87    0.67
  -5   7   2    2.72    0.72
  -5   7   3    4.50    1.05
  -4  -7  -5    0.90    0.46
  -4  -7  -4    1.86    0.46
  -4  -7  -3    3.45    0.51
  -4  -7  -2    5.12    0.53
  -4  -7  -1    1.10    0.33
  -4  -7   0    2.83    0.60
  -4  -6  -6    0.92    0.56
  -4  -6  -5    0.99    0.41
  -4  -6  -4    1.86    0.36
  -4  -6  -3    4.64    0.49
  -4  -6  -2    7.34    0.79
  -4  -6  -1    3.55    0.69
  -4  -6   0    5.97    0.61
  -4  -5  -7    5.75    1.15
  -4  -5  -6    0.88    0.33
  -4  -5  -5    4.05    0.62
  -4  -5  -4    8.22    0.62
  -4  -5  -3   10.92    0.77
  -4  -5  -2   12.01    0.72
  -4  -5  -1    0.37    0.39
  -4  -5   0    3.96    0.48
  -4  -4  -9    9.80    1.45
  -4  -4  -8    7.79    1.27
  -4  -4  -7   10.10    1.33
  -4  -4  -6    0.24    0.25
  -4  -4  -5    1.16    0.28
  -4  -4  -4    1.65    0.33
  -4  -4  -3    3.95    0.41
  -4  -4  -2   10.60    0.72
  -4  -4  -1    2.58    0.46
  -4  -4   0    8.03    0.60
  -4  -3 -11    6.34    1.20
  -4  -3 -10    3.32    0.78
  -4  -3  -9   12.05    1.00
  -4  -3  -8   10.70    0.74
  -4  -3  -7   18.07    0.94
  -4  -3  -6    4.11    0.37
  -4  -3  -5   11.28    0.58
  -4  -3  -4   20.87    0.63
  -4  -3  -3   25.28    0.85
  -4  -3  -2   34.33    0.97
  -4  -3  -1    8.56    0.37
  -4  -3   0   19.88    0.85
  -4  -2 -11    3.89    0.69
  -4  -2 -10    1.91    0.39
  -4  -2  -9    8.58    0.68
  -4  -2  -8    6.73    0.60
  -4  -2  -7   11.12    0.67
  -4  -2  -6    0.49    0.31
  -4  -2  -5    5.39    0.37
  -4  -2  -4   12.11    0.61
  -4  -2  -3   16.00    0.56
  -4  -2  -2   23.42    0.66
  -4  -2  -1    2.84    0.26
  -4  -2   0   10.82    0.41
  -4  -1 -11    3.61    0.58
  -4  -1 -10    2.37    0.45
  -4  -1  -9   15.08    0.94
  -4  -1  -8    9.88    0.67
  -4  -1  -7   13.55    0.86
  -4  -1  -6    0.15    0.34
  -4  -1  -5    1.44    0.38
  -4  -1  -4    4.81    0.30
  -4  -1  -3    6.84    0.48
  -4  -1  -2   17.72    0.41
  -4  -1  -1    3.19    0.22
  -4  -1   0   17.23    0.51
  -4   0 -11    9.51    1.66
  -4   0 -10    6.04    0.96
  -4   0  -9   17.45    1.79
  -4   0  -8   12.42    1.47
  -4   0  -7   22.12    1.73
  -4   0  -6    8.05    1.19
  -4   0  -5   27.27    1.70
  -4   0  -4   52.33    2.80
  -4   0  -3   57.45    1.34
  -4   0  -2   63.27    1.73
  -4   0  -1   16.39    0.62
  -4   0   0   37.61    1.19
  -4   0   1   30.99    1.23
  -4   0   2   22.60    0.90
  -4   0   3   29.81    1.23
  -4   0   4   33.32    1.88
  -4   0   5   39.33    1.44
  -4   0   6   46.63    1.85
  -4   0   7   42.70    2.42
  -4   0   8   11.88    1.25
  -4   0   9    5.58    0.98
  -4   0  10    2.46    0.70
  -4   0  11    2.29    0.62
  -4   0  12   18.45    1.91
  -4   1   1   17.87    0.52
  -4   1   2   12.96    0.42
  -4   1   3    5.74    0.26
  -4   1   4    1.29    0.18
  -4   1   5    2.67    0.32
  -4   1   6    7.71    0.39
  -4   1   7   28.16    0.89
  -4   1   8    9.83    0.59
  -4   1   9    8.61    0.77
  -4   1  10    2.52    0.58
  -4   1  11    0.82    0.42
  -4   1  12    8.13    0.97
  -4   1  13    1.49    0.58
  -4   2   1    9.66    0.34
  -4   2   2    6.52    0.22
  -4   2   3    6.51    0.27
  -4   2   4    4.79    0.25
  -4   2   5    7.26    0.41
  -4   2   6   14.19    0.62
  -4   2   7   23.07    0.99
  -4   2   8    5.39    0.38
  -4   2   9    2.91    0.33
  -4   2  10    0.49    0.25
  -4   2  11    0.15    0.28
  -4   3   1   21.46    0.86
  -4   3   2   16.78    0.65
  -4   3   3   16.28    0.67
  -4   3   4   13.29    0.44
  -4   3   5   14.45    0.59
  -4   3   6   22.69    0.72
  -4   3   7   25.31    0.79
  -4   3   8    8.94    0.62
  -4   3   9    5.42    0.46
  -4   3  10    2.10    0.34
  -4   3  11    1.90    0.41
  -4   4   1   11.48    0.75
  -4   4   2   10.18    0.65
  -4   4   3    3.75    0.42
  -4   4   4    0.41    0.23
  -4   4   5    0.71    0.24
  -4   4   6    3.82    0.42
  -4   4   7   13.17    0.76
  -4   4   8    5.88    0.48
  -4   4   9    5.66    0.54
  -4   4  10    2.36    0.39
  -4   5   1    3.31    0.47
  -4   5   2    3.52    0.58
  -4   5   3    4.11    0.47
  -4   5   4    4.29    0.48
  -4   5   5    5.36    0.50
  -4   5   6    8.89    0.59
  -4   5   7    8.19    0.59
  -4   5   8    1.10    0.31
  -4   5   9    0.35    0.30
  -4   5  10    0.55    0.60
  -4   6   1    8.18    0.67
  -4   6   2    7.13    0.64
  -4   6   3    3.66    0.45
  -4   6   4    0.95    0.31
  -4   6   5    1.12    0.30
  -4   6   6    3.31    0.43
  -4   6   7    8.02    0.65
  -4   6   8    3.59    0.58
  -4   7   1    3.41    0.49
  -4   7   2    3.60    0.48
  -4   7   3    2.67    0.46
  -4   7   4    1.10    0.34
  -4   7   5    1.07    0.40
  -4   7   6    2.13    0.70
  -4   8   2    0.56    0.48
  -4   8   3    0.71    0.43
  -4   8   4    0.91    0.55
  -3  -8  -3    1.28    0.58
  -3  -8  -2    0.30    0.29
  -3  -8  -1    0.74    0.40
  -3  -8   0    0.66    0.40
  -3  -7  -6    3.85    0.98
  -3  -7  -5    5.16    1.11
  -3  -7  -4    5.10    0.76
  -3  -7  -3    3.06    0.44
  -3  -7  -2    3.24    0.40
  -3  -7  -1    3.31    0.41
  -3  -7   0    4.74    0.52
  -3  -6  -8    5.99    1.06
  -3  -6  -7    3.19    0.96
  -3  -6  -6    5.82    1.05
  -3  -6  -5    8.07    0.83
  -3  -6  -4    9.77    0.71
  -3  -6  -3    6.89    0.58
  -3  -6  -2    8.02    0.58
  -3  -6  -1   10.51    0.76
  -3  -6   0   14.93    0.79
  -3  -5  -9    2.28    0.78
  -3  -5  -8    4.44    1.07
  -3  -5  -7    4.21    0.78
  -3  -5  -6    4.14    0.95
  -3  -5  -5    7.26    0.73
  -3  -5  -4   12.00    0.72
  -3  -5  -3    4.99    0.47
  -3  -5  -2    2.40    0.39
  -3  -5  -1    4.63    0.35
  -3  -5   0    5.78    0.69
  -3  -4 -11    3.03    0.74
  -3  -4 -10    5.42    0.60
  -3  -4  -9    9.86    0.75
  -3  -4  -8    9.26    0.59
  -3  -4  -7    6.84    0.63
  -3  -4  -6    8.63    0.54
  -3  -4  -5   10.33    0.54
  -3  -4  -4   16.12    0.57
  -3  -4  -3   12.10    0.38
  -3  -4  -2   12.26    0.44
  -3  -4  -1   13.08    0.79
  -3  -4   0   24.39    0.93
  -3  -3 -12    4.20    0.99
  -3  -3 -11    6.15    1.03
  -3  -3 -10    6.70    0.62
  -3  -3  -9    9.72    0.69
  -3  -3  -8   12.99    0.87
  -3  -3  -7   12.65    0.64
  -3  -3  -6   17.08    0.89
  -3  -3  -5   27.08    0.81
  -3  -3  -4   45.27    0.84
  -3  -3  -3   29.31    0.65
  -3  -3  -2   25.06    0.60
  -3  -3  -1   24.39    0.56
  -3  -3   0   38.10    1.35
  -3  -2 -12    1.69    0.65
  -3  -2 -11    3.33    0.51
  -3  -2 -10    3.34    0.44
  -3  -2  -9    5.53    0.59
  -3  -2  -8    8.83    0.55
  -3  -2  -7    9.08    0.71
  -3  -2  -6   10.47    0.52
  -3  -2  -5   14.52    0.59
  -3  -2  -4   32.75    1.09
  -3  -2  -3   15.99    0.49
  -3  -2  -2   12.77    0.33
  -3  -2  -1   11.04    0.44
  -3  -2   0   15.14    0.32
  -3  -1 -12    1.47    0.53
  -3  -1 -11    5.13    0.52
  -3  -1 -10    6.74    0.56
  -3  -1  -9   13.77    0.66
  -3  -1  -8   13.69    1.05
  -3  -1  -7   11.99    0.61
  -3  -1  -6   12.42    0.78
  -3  -1  -5   15.48    0.52
  -3  -1  -4   33.14    0.71
  -3  -1  -3   20.98    0.64
  -3  -1  -2   23.11    0.63
  -3  -1  -1   18.47    0.42
  -3  -1   0   42.08    1.06
  -3   0 -12    4.35    1.07
  -3   0 -11    8.07    0.88
  -3   0 -10    6.38    1.71
  -3   0  -9   12.52    1.07
  -3   0  -8   20.24    1.06
  -3   0  -7   22.25    1.39
  -3   0  -6   25.45    0.81
  -3   0  -5   42.67    1.31
  -3   0  -4   87.87    3.91
  -3   0  -3   60.55    1.62
  -3   0  -2   51.25    1.10
  -3   0  -1   49.46    1.51
  -3   0   0   60.61    1.48
  -3   0   1   70.24    2.31
  -3   0   2  169.13    3.18
  -3   0   3   52.28    1.41
  -3   0   4   27.87    1.09
  -3   0   5   31.55    1.09
  -3   0   6   21.54    0.89
  -3   0   7   90.82    2.82
  -3   0   8   12.02    0.60
  -3   0   9   10.06    0.96
  -3   0  10    7.69    0.83
  -3   0  11    7.24    1.96
  -3   0  12   11.61    1.04
  -3   0  13    4.34    0.67
  -3   1   1   58.79    0.92
  -3   1   2  160.39    2.68
  -3   1   3   28.90    0.62
  -3   1   4    7.04    0.31
  -3   1   5    6.35    0.43
  -3   1   6    3.66    0.24
  -3   1   7   64.23    1.29
  -3   1   8   11.46    0.54
  -3   1   9   12.39    0.59
  -3   1  10   12.02    0.61
  -3   1  11    7.90    0.69
  -3   1  12    7.83    0.68
  -3   1  13    0.95    0.40
  -3   2   1   17.69    0.56
  -3   2   2   76.70    1.10
  -3   2   3   15.09    0.44
  -3   2   4    4.96    0.25
  -3   2   5    5.92    0.27
  -3   2   6    3.20    0.27
  -3   2   7   47.83    1.56
  -3   2   8    4.76    0.36
  -3   2   9    4.29    0.47
  -3   2  10    4.54    0.41
  -3   2  11    4.11    0.36
  -3   2  12    6.64    0.64
  -3   2  13    1.18    0.54
  -3   3   1   38.82    1.15
  -3   3   2   87.22    1.91
  -3   3   3   31.51    0.64
  -3   3   4   17.18    0.49
  -3   3   5   17.37    0.47
  -3   3   6   10.76    0.49
  -3   3   7   53.22    1.19
  -3   3   8   10.29    0.57
  -3   3   9    8.34    0.46
  -3   3  10    7.30    0.50
  -3   3  11    6.30    0.55
  -3   3  12    8.31    0.73
  -3   4   1   28.45    1.12
  -3   4   2   58.96    1.62
  -3   4   3   15.80    0.68
  -3   4   4    6.70    0.30
  -3   4   5    4.36    0.37
  -3   4   6    2.37    0.30
  -3   4   7   30.83    1.15
  -3   4   8    9.54    0.60
  -3   4   9    8.20    0.58
  -3   4  10    7.95    0.62
  -3   4  11    5.68    0.51
  -3   4  12    6.07    0.77
  -3   5   1    5.39    0.63
  -3   5   2   11.84    0.76
  -3   5   3    4.21    0.43
  -3   5   4    3.27    0.36
  -3   5   5    3.37    0.37
  -3   5   6    1.58    0.28
  -3   5   7   13.02    0.71
  -3   5   8    1.39    0.36
  -3   5   9    2.07    0.34
  -3   5  10    0.69    0.32
  -3   5  11    0.56    0.45
  -3   6   1   14.96    0.89
  -3   6   2   23.83    1.07
  -3   6   3   10.70    0.75
  -3   6   4    5.96    0.50
  -3   6   5    4.17    0.47
  -3   6   6    3.53    0.39
  -3   6   7   16.07    0.89
  -3   6   8    5.78    0.54
  -3   6   9    4.71    0.56
  -3   7   1    5.37    0.53
  -3   7   2    8.47    0.69
  -3   7   3    5.01    0.52
  -3   7   4    2.57    0.36
  -3   7   5    1.85    0.33
  -3   7   6    1.93    0.35
  -3   7   7    8.65    0.63
  -3   7   8    2.54    0.85
  -3   8   1    0.80    0.34
  -3   8   2    2.01    0.45
  -3   8   3    0.98    0.71
  -3   8   4    0.91    0.35
  -3   8   5    1.00    0.56
  -3   8   6    0.76    0.53
  -2  -9  -2    3.10    0.77
  -2  -9  -1    1.63    0.74
  -2  -9   0    1.70    0.65
  -2  -8  -6    0.36    0.49
  -2  -8  -5    0.78    0.55
  -2  -8  -4    1.13    0.43
  -2  -8  -3    0.50    0.82
  -2  -8  -2    0.03    0.31
  -2  -8  -1    0.08    0.34
  -2  -8   0    0.25    0.29
  -2  -7  -8    0.72    0.51
  -2  -7  -7    0.55    0.51
  -2  -7  -6    2.40    0.45
  -2  -7  -5    4.02    0.90
  -2  -7  -4    7.11    1.57
  -2  -7  -3    1.96    0.50
  -2  -7  -2    3.40    0.49
  -2  -7  -1    2.40    0.39
  -2  -7   0    3.62    0.59
  -2  -6  -9    6.92    1.17
  -2  -6  -8    0.04    0.36
  -2  -6  -7    1.59    0.52
  -2  -6  -6    7.08    0.82
  -2  -6  -5   11.97    0.94
  -2  -6  -4   18.71    1.41
  -2  -6  -3    5.43    0.52
  -2  -6  -2    9.05    0.58
  -2  -6  -1    7.29    0.58
  -2  -6   0   10.30    0.64
  -2  -5 -11    0.36    0.53
  -2  -5 -10    2.63    0.40
  -2  -5  -9    4.95    0.55
  -2  -5  -8    2.18    0.34
  -2  -5  -7    0.72    0.38
  -2  -5  -6    0.84    0.34
  -2  -5  -5    3.39    0.41
  -2  -5  -4    9.91    1.18
  -2  -5  -3    2.37    0.42
  -2  -5  -2    0.33    0.24
  -2  -5  -1    0.08    0.23
  -2  -5   0    2.57    0.23
  -2  -4 -12    4.00    1.01
  -2  -4 -11    4.60    0.49
  -2  -4 -10    7.77    0.89
  -2  -4  -9   13.43    0.82
  -2  -4  -8    0.08    0.25
  -2  -4  -7    2.76    0.41
  -2  -4  -6    8.17    0.78
  -2  -4  -5   23.27    0.75
  -2  -4  -4   41.42    1.28
  -2  -4  -3    7.98    0.45
  -2  -4  -2   16.22    0.71
  -2  -4  -1   10.68    0.59
  -2  -4   0   22.53    0.90
  -2  -3 -12    2.99    0.85
  -2  -3 -11    4.30    0.66
  -2  -3 -10   11.65    0.74
  -2  -3  -9   23.04    1.19
  -2  -3  -8    1.70    0.29
  -2  -3  -7    5.91    0.57
  -2  -3  -6   11.07    0.70
  -2  -3  -5   34.79    1.06
  -2  -3  -4   65.26    1.26
  -2  -3  -3   11.84    0.30
  -2  -3  -2   18.08    0.45
  -2  -3  -1    8.69    0.45
  -2  -3   0   32.93    0.74
  -2  -2 -12    0.65    0.22
  -2  -2 -11    1.61    0.32
  -2  -2 -10    6.75    0.57
  -2  -2  -9   17.58    0.80
  -2  -2  -8    3.47    0.36
  -2  -2  -7    1.83    0.27
  -2  -2  -6    2.63    0.41
  -2  -2  -5   20.21    0.73
  -2  -2  -4   42.16    0.96
  -2  -2  -3    2.13    0.20
  -2  -2  -2    5.28    0.17
  -2  -2  -1    2.53    0.15
  -2  -2   0   16.32    0.88
  -2  -1 -12    3.79    0.46
  -2  -1 -11    4.63    0.47
  -2  -1 -10   10.38    0.59
  -2  -1  -9   25.34    1.17
  -2  -1  -8    0.71    0.44
  -2  -1  -7    1.98    0.37
  -2  -1  -6    7.75    0.18
  -2  -1  -5   46.76    1.57
  -2  -1  -4   95.06    1.56
  -2  -1  -3    4.37    0.16
  -2  -1  -2   22.10    0.48
  -2  -1  -1   23.25    0.52
  -2  -1   0   70.42    1.33
  -2   0 -12    1.82    0.45
  -2   0 -11    4.66    0.65
  -2   0 -10   13.09    1.12
  -2   0  -9   34.07    1.51
  -2   0  -8    8.62    0.71
  -2   0  -7    7.72    0.28
  -2   0  -6   13.77    0.67
  -2   0  -5   65.76    1.50
  -2   0  -4  125.06    2.24
  -2   0  -3   23.80    0.82
  -2   0  -2   19.35    0.48
  -2   0  -1    5.02    0.20
  -2   0   0   75.03    1.76
  -2   0   1   31.93    0.82
  -2   0   2   74.79    1.56
  -2   0   3   45.38    0.87
  -2   0   4   60.84    1.16
  -2   0   5   75.60    2.51
  -2   0   6   53.81    2.25
  -2   0   7   33.74    1.88
  -2   0   8   18.69    1.80
  -2   0   9   12.78    1.15
  -2   0  10   14.67    1.64
  -2   0  11   15.48    1.70
  -2   0  12   15.48    1.69
  -2   0  13   12.31    1.56
  -2   1   1   61.57    0.99
  -2   1   2   79.40    1.09
  -2   1   3   33.90    0.69
  -2   1   4   38.42    0.69
  -2   1   5   23.53    0.59
  -2   1   6   19.90    0.89
  -2   1   7   18.28    0.87
  -2   1   8   14.62    0.80
  -2   1   9   12.06    1.10
  -2   1  10   11.82    0.88
  -2   1  11   15.48    1.11
  -2   1  12   12.29    1.06
  -2   1  13    4.73    0.85
  -2   2   1   12.31    0.33
  -2   2   2   32.68    0.60
  -2   2   3   13.33    0.38
  -2   2   4   14.78    0.40
  -2   2   5   21.71    0.84
  -2   2   6   19.04    0.68
  -2   2   7   11.77    0.62
  -2   2   8    7.37    0.61
  -2   2   9    5.72    0.41
  -2   2  10    6.70    0.63
  -2   2  11    8.98    0.68
  -2   2  12    8.95    0.71
  -2   2  13    5.14    0.79
  -2   3   1   25.26    0.65
  -2   3   2   49.88    1.05
  -2   3   3   25.89    0.55
  -2   3   4   31.59    0.61
  -2   3   5   34.00    0.56
  -2   3   6   32.63    0.81
  -2   3   7   21.30    0.80
  -2   3   8   12.32    0.60
  -2   3   9    9.39    0.63
  -2   3  10   11.18    0.62
  -2   3  11   12.44    0.70
  -2   3  12   11.18    0.73
  -2   3  13    8.15    0.81
  -2   4   1   26.42    0.56
  -2   4   2   40.99    0.83
  -2   4   3   17.93    0.48
  -2   4   4   19.92    0.51
  -2   4   5   12.26    0.43
  -2   4   6   13.91    0.42
  -2   4   7   12.90    0.55
  -2   4   8    8.41    0.50
  -2   4   9    7.61    0.43
  -2   4  10    7.79    0.56
  -2   4  11   10.21    0.79
  -2   4  12    8.55    0.87
  -2   5   1    2.05    0.25
  -2   5   2    7.48    0.30
  -2   5   3    2.93    0.24
  -2   5   4    4.81    0.42
  -2   5   5   11.40    0.58
  -2   5   6   10.43    0.62
  -2   5   7    4.47    0.41
  -2   5   8    1.47    0.28
  -2   5   9    1.30    0.29
  -2   5  10    2.00    0.35
  -2   5  11    2.95    0.57
  -2   5  12    2.92    0.75
  -2   6   1   12.00    0.70
  -2   6   2   16.92    0.77
  -2   6   3    9.45    0.58
  -2   6   4   11.36    0.61
  -2   6   5    9.49    0.61
  -2   6   6    9.89    0.61
  -2   6   7    8.89    0.61
  -2   6   8    5.08    0.49
  -2   6   9    4.85    0.47
  -2   6  10    5.38    0.74
  -2   6  11    7.10    1.18
  -2   7   1    4.99    0.58
  -2   7   2    6.74    0.49
  -2   7   3    3.53    0.59
  -2   7   4    4.10    0.40
  -2   7   5    4.09    0.43
  -2   7   6    4.60    0.46
  -2   7   7    4.39    0.47
  -2   7   8    2.36    0.50
  -2   7   9    1.90    0.49
  -2   8   1    0.54    0.47
  -2   8   2    1.52    0.55
  -2   8   3    0.53    0.31
  -2   8   4    0.53    0.28
  -2   8   5    2.39    0.56
  -2   8   6    3.23    0.81
  -2   9   1    2.42    0.70
  -2   9   2    3.60    0.94
  -1  -9  -5    4.06    0.88
  -1  -9  -4    5.02    0.99
  -1  -9  -3    3.40    0.88
  -1  -9  -2    0.57    0.39
  -1  -9  -1    0.80    0.53
  -1  -9   0    2.25    0.77
  -1  -8  -7    0.56    0.43
  -1  -8  -6    0.39    0.40
  -1  -8  -5    0.33    0.43
  -1  -8  -4    0.02    0.39
  -1  -8  -3    0.24    0.34
  -1  -8  -2    0.11    0.44
  -1  -8  -1    2.02    0.53
  -1  -8   0    4.49    0.61
  -1  -7  -9    4.83    0.68
  -1  -7  -8    2.09    0.74
  -1  -7  -7    2.06    0.60
  -1  -7  -6    2.69    0.78
  -1  -7  -5    7.11    1.03
  -1  -7  -4    6.27    0.73
  -1  -7  -3    3.34    0.41
  -1  -7  -2    2.65    0.42
  -1  -7  -1    4.75    0.44
  -1  -7   0    9.45    0.84
  -1  -6 -10    7.46    0.68
  -1  -6  -9    6.71    0.67
  -1  -6  -8    3.71    0.79
  -1  -6  -7    4.99    0.97
  -1  -6  -6    9.70    1.14
  -1  -6  -5   17.19    1.13
  -1  -6  -4   19.15    0.92
  -1  -6  -3    9.21    0.65
  -1  -6  -2    7.02    0.39
  -1  -6  -1    8.37    0.54
  -1  -6   0   16.05    0.66
  -1  -5 -11    3.64    0.50
  -1  -5 -10    8.72    0.92
  -1  -5  -9   13.26    0.81
  -1  -5  -8    3.10    0.91
  -1  -5  -7    3.26    0.44
  -1  -5  -6    2.61    0.69
  -1  -5  -5    3.78    0.41
  -1  -5  -4    3.51    0.37
  -1  -5  -3    2.84    0.24
  -1  -5  -2    3.07    0.27
  -1  -5  -1   10.38    0.40
  -1  -5   0   28.70    0.87
  -1  -4 -12    6.70    0.71
  -1  -4 -11    9.71    0.79
  -1  -4 -10    9.10    0.68
  -1  -4  -9    9.53    0.69
  -1  -4  -8    3.87    0.81
  -1  -4  -7    5.24    0.68
  -1  -4  -6   14.73    1.27
  -1  -4  -5   33.15    0.98
  -1  -4  -4   40.43    1.08
  -1  -4  -3   22.68    0.64
  -1  -4  -2   16.52    0.41
  -1  -4  -1    8.69    0.68
  -1  -4   0   26.54    0.65
  -1  -3 -12    5.13    0.61
  -1  -3 -11   16.12    0.88
  -1  -3 -10   23.06    1.07
  -1  -3  -9   36.17    0.94
  -1  -3  -8   13.79    0.80
  -1  -3  -7   22.09    1.59
  -1  -3  -6   25.28    1.32
  -1  -3  -5   34.11    1.70
  -1  -3  -4   39.11    1.10
  -1  -3  -3   28.94    0.60
  -1  -3  -2   32.60    0.73
  -1  -3  -1   58.38    0.65
  -1  -3   0  124.88    2.17
  -1  -2 -12    2.65    0.40
  -1  -2 -11   13.62    0.79
  -1  -2 -10   15.75    0.71
  -1  -2  -9   25.64    0.95
  -1  -2  -8    7.73    0.49
  -1  -2  -7    9.50    0.63
  -1  -2  -6   11.79    0.46
  -1  -2  -5   17.74    0.62
  -1  -2  -4   18.30    0.65
  -1  -2  -3   11.12    0.31
  -1  -2  -2   23.28    0.33
  -1  -2  -1   37.15    1.03
  -1  -2   0   76.48    1.04
  -1  -1 -13    1.69    0.48
  -1  -1 -12    7.86    0.62
  -1  -1 -11   19.83    0.94
  -1  -1 -10   13.15    0.81
  -1  -1  -9   17.89    0.75
  -1  -1  -8    9.93    0.58
  -1  -1  -7   12.27    0.42
  -1  -1  -6   29.59    0.89
  -1  -1  -5   65.70    1.15
  -1  -1  -4   81.13    2.65
  -1  -1  -3   48.78    0.88
  -1  -1  -2   60.19    0.94
  -1  -1  -1   44.67    0.42
  -1  -1   0   74.76    1.15
  -1   0 -13    1.62    0.50
  -1   0 -12    7.20    0.84
  -1   0 -11   27.61    1.63
  -1   0 -10   37.28    1.67
  -1   0  -9   67.40    2.58
  -1   0  -8   29.76    1.22
  -1   0  -7   43.55    1.86
  -1   0  -6   37.26    0.78
  -1   0  -5   40.76    1.31
  -1   0  -4   46.13    1.00
  -1   0  -3   55.82    0.96
  -1   0  -2   80.37    1.32
  -1   0  -1  197.90    4.90
  -1   0   0  364.17    4.69
  -1   0   1  214.80    5.17
  -1   0   2   76.29    1.25
  -1   0   3    7.52    0.37
  -1   0   4    3.77    0.19
  -1   0   5  152.88    3.65
  -1   0   6   59.47    1.93
  -1   0   7   51.16    1.71
  -1   0   8   11.30    0.94
  -1   0   9   20.65    1.96
  -1   0  10   10.94    1.15
  -1   0  11   20.88    1.97
  -1   0  12    7.58    1.21
  -1   0  13    8.84    1.39
  -1   1   1    7.45    0.17
  -1   1   2   15.81    0.37
  -1   1   3   67.36    1.01
  -1   1   4   60.40    1.38
  -1   1   5   81.08    1.51
  -1   1   6   25.90    0.91
  -1   1   7   14.05    0.58
  -1   1   8    0.16    0.24
  -1   1   9    4.11    0.46
  -1   1  10    1.15    0.34
  -1   1  11    7.25    0.80
  -1   1  12    3.72    0.65
  -1   1  13    5.84    0.78
  -1   2   1   20.97    0.51
  -1   2   2    7.56    0.17
  -1   2   3   12.35    0.33
  -1   2   4    7.18    0.20
  -1   2   5   51.62    1.33
  -1   2   6   16.53    0.93
  -1   2   7   13.34    0.90
  -1   2   8    0.95    0.24
  -1   2   9    4.79    0.69
  -1   2  10    1.14    0.42
  -1   2  11    7.51    0.82
  -1   2  12    3.11    0.57
  -1   2  13    3.77    0.65
  -1   3   1   66.85    0.89
  -1   3   2   26.19    0.55
  -1   3   3   10.33    0.21
  -1   3   4    8.52    0.41
  -1   3   5   72.55    1.35
  -1   3   6   30.14    0.93
  -1   3   7   25.16    0.68
  -1   3   8    6.90    0.53
  -1   3   9   10.79    0.61
  -1   3  10    4.94    0.55
  -1   3  11   12.61    0.80
  -1   3  12    6.21    0.60
  -1   3  13    5.62    0.74
  -1   4   1    5.22    0.33
  -1   4   2    5.94    0.29
  -1   4   3   15.61    0.46
  -1   4   4   20.07    0.49
  -1   4   5   34.23    0.81
  -1   4   6   12.34    0.51
  -1   4   7    6.46    0.44
  -1   4   8    0.63    0.17
  -1   4   9    1.64    0.31
  -1   4  10    0.66    0.21
  -1   4  11    4.69    0.57
  -1   4  12    3.03    0.50
  -1   5   1   12.76    0.45
  -1   5   2    2.78    0.29
  -1   5   3    0.05    0.14
  -1   5   4    0.29    0.11
  -1   5   5   18.82    0.58
  -1   5   6    5.87    0.35
  -1   5   7    5.32    0.42
  -1   5   8    2.66    0.37
  -1   5   9    3.61    0.35
  -1   5  10    1.51    0.32
  -1   5  11    2.46    0.46
  -1   6   1    7.46    0.47
  -1   6   2    4.44    0.36
  -1   6   3    5.55    0.41
  -1   6   4    8.64    0.61
  -1   6   5   19.43    1.02
  -1   6   6    9.05    0.62
  -1   6   7    3.90    0.42
  -1   6   8    2.84    0.33
  -1   6   9    1.89    0.37
  -1   6  10    1.25    0.27
  -1   7   1    4.09    0.35
  -1   7   2    2.30    0.32
  -1   7   3    2.04    0.25
  -1   7   4    2.70    0.38
  -1   7   5    8.31    0.54
  -1   7   6    3.52    0.40
  -1   7   7    1.72    0.30
  -1   7   8    1.97    0.34
  -1   7   9    0.99    0.34
  -1   8   1    1.97    0.70
  -1   8   2    0.51    0.25
  -1   8   3    0.10    0.25
  -1   8   4    0.16    0.27
  -1   8   5    3.23    0.75
  -1   8   6    1.42    0.45
  -1   8   7    0.61    0.32
  -1   8   8    1.06    0.59
  -1   9   1    0.24    0.40
  -1   9   2    0.31    0.43
  -1   9   3    0.93    0.49
  -1   9   4    2.43    0.73
  -1   9   5    3.44    0.85
   0  -9  -4    3.28    0.89
   0  -9  -3    1.12    0.62
   0  -9  -2    1.32    0.49
   0  -9  -1    0.47    0.50
   0  -8  -6    1.01    0.64
   0  -8  -5    1.20    0.49
   0  -8  -4    0.38    0.33
   0  -8  -3    0.38    0.39
   0  -8  -2    1.05    0.34
   0  -8  -1    3.82    0.44
   0  -7  -9    2.83    0.85
   0  -7  -8    4.30    0.60
   0  -7  -7    2.57    0.81
   0  -7  -6    5.68    0.62
   0  -7  -5    9.55    0.83
   0  -7  -4    4.71    0.53
   0  -7  -3    2.78    0.49
   0  -7  -2    3.13    0.38
   0  -7  -1    5.13    0.57
   0  -6 -11    3.77    0.94
   0  -6 -10    2.38    0.85
   0  -6  -9    3.22    0.51
   0  -6  -8    5.38    0.72
   0  -6  -7    4.05    0.52
   0  -6  -6   10.97    0.85
   0  -6  -5   21.58    1.12
   0  -6  -4   10.71    1.17
   0  -6  -3    6.43    0.51
   0  -6  -2    5.70    0.54
   0  -6  -1    7.44    0.31
   0  -5 -12    0.87    0.61
   0  -5 -11    3.02    0.58
   0  -5 -10    6.81    0.58
   0  -5  -9   10.10    0.79
   0  -5  -8   14.80    0.92
   0  -5  -7    5.57    0.53
   0  -5  -6    5.83    0.52
   0  -5  -5   12.42    1.01
   0  -5  -4    1.67    0.30
   0  -5  -3    2.03    0.32
   0  -5  -2    8.99    0.29
   0  -5  -1   22.72    0.74
   0  -4 -12    3.98    0.57
   0  -4 -11    3.73    0.50
   0  -4 -10    2.84    0.41
   0  -4  -9    2.02    0.30
   0  -4  -8    5.10    0.58
   0  -4  -7    4.44    0.29
   0  -4  -6   15.63    1.00
   0  -4  -5   50.21    1.34
   0  -4  -4   22.92    0.87
   0  -4  -3    7.23    0.44
   0  -4  -2    3.95    0.31
   0  -4  -1    0.69    0.17
   0  -3 -12    6.11    0.75
   0  -3 -11   11.04    0.72
   0  -3 -10   15.58    0.64
   0  -3  -9   23.65    0.97
   0  -3  -8   35.18    0.95
   0  -3  -7   22.55    0.73
   0  -3  -6   30.11    0.80
   0  -3  -5   76.50    2.87
   0  -3  -4   32.32    1.03
   0  -3  -3   16.80    0.87
   0  -3  -2   51.00    0.75
   0  -3  -1   98.12    2.18
   0  -2 -13    6.60    0.61
   0  -2 -12    3.04    0.40
   0  -2 -11    4.84    0.45
   0  -2 -10    8.31    0.65
   0  -2  -9   12.99    0.46
   0  -2  -8   21.19    0.71
   0  -2  -7    9.79    0.30
   0  -2  -6   14.73    0.52
   0  -2  -5   69.84    1.33
   0  -2  -4   16.36    0.42
   0  -2  -3    2.63    0.14
   0  -2  -2   10.13    0.77
   0  -2  -1   11.89    0.15
   0  -1 -13   13.48    0.83
   0  -1 -12    4.90    0.57
   0  -1 -11    4.53    0.46
   0  -1 -10    4.85    0.36
   0  -1  -9    5.13    0.43
   0  -1  -8    9.81    0.19
   0  -1  -7    6.31    0.36
   0  -1  -6   21.15    0.37
   0  -1  -5  140.19    2.43
   0  -1  -4   53.81    0.83
   0  -1  -3    6.40    0.18
   0  -1  -2    1.30    0.15
   0  -1  -1   14.46    0.30
   0   0 -13   10.13    1.04
   0   0 -12    6.91    0.82
   0   0 -11   13.86    1.35
   0   0 -10   30.03    1.79
   0   0  -9   51.53    3.79
   0   0  -8   74.39    1.69
   0   0  -7   45.66    0.82
   0   0  -6   48.19    1.22
   0   0  -5  158.35    2.57
   0   0  -4   46.87    0.87
   0   0  -3   22.36    0.60
   0   0  -2  150.95    4.35
   0   0   2  139.21    6.16
   0   0   3   24.92    1.33
   0   0   4   48.67    2.19
   0   0   5  152.19    5.42
   0   0   6   44.29    2.78
   0   0   7   44.45    2.06
   0   0   8   70.13    3.92
   0   0   9   54.69    2.70
   0   0  10   32.07    2.55
   0   0  11   15.97    1.67
   0   0  12    4.78    0.96
   0   0  13   11.59    1.58
   0   1   0  449.48    3.23
   0   1   1   14.80    0.24
   0   1   2    0.92    0.18
   0   1   3    8.40    0.21
   0   1   4   52.69    0.95
   0   1   5  142.50    9.70
   0   1   6   20.84    1.09
   0   1   7    5.96    0.73
   0   1   8    9.28    0.59
   0   1   9    4.60    0.76
   0   1  10    6.03    0.56
   0   1  11    5.42    0.70
   0   1  12    5.43    0.75
   0   1  13    9.93    1.03
   0   2   0  566.29   10.33
   0   2   1    9.05    0.15
   0   2   2    9.96    0.44
   0   2   3    4.13    0.13
   0   2   4   16.60    0.52
   0   2   5   72.43    1.58
   0   2   6   14.36    0.52
   0   2   7   10.05    0.46
   0   2   8   19.47    1.04
   0   2   9   12.64    0.58
   0   2  10    8.68    0.72
   0   2  11    5.65    0.51
   0   2  12    2.34    0.59
   0   2  13    5.18    0.80
   0   3   0  641.93    4.88
   0   3   1   98.46    2.06
   0   3   2   52.64    0.49
   0   3   3   17.21    0.36
   0   3   4   30.78    0.84
   0   3   5   81.54    1.73
   0   3   6   30.67    0.77
   0   3   7   21.38    0.97
   0   3   8   31.27    1.00
   0   3   9   21.03    1.08
   0   3  10   15.43    0.79
   0   3  11   11.38    1.01
   0   3  12    5.83    0.76
   0   3  13    6.97    1.20
   0   4   0   73.78    1.89
   0   4   1    0.63    0.24
   0   4   2    4.10    0.26
   0   4   3    7.74    0.26
   0   4   4   22.91    0.55
   0   4   5   51.34    0.88
   0   4   6   15.40    1.04
   0   4   7    4.84    0.32
   0   4   8    4.17    0.51
   0   4   9    1.99    0.26
   0   4  10    3.77    0.48
   0   4  11    4.24    0.63
   0   4  12    2.96    0.57
   0   4  13    5.44    0.98
   0   5   0  116.86    1.43
   0   5   1   22.52    0.74
   0   5   2    9.17    0.25
   0   5   3    1.84    0.17
   0   5   4    1.79    0.17
   0   5   5   11.45    0.47
   0   5   6    5.90    0.34
   0   5   7    6.09    0.41
   0   5   8   12.05    0.51
   0   5   9    9.00    0.62
   0   5  10    6.54    0.75
   0   5  11    4.17    0.66
   0   6   0   37.50    1.15
   0   6   1    8.63    0.33
   0   6   2    5.68    0.39
   0   6   3    5.96    0.37
   0   6   4   10.16    0.51
   0   6   5   21.36    0.74
   0   6   6    9.63    0.61
   0   6   7    4.38    0.49
   0   6   8    4.16    0.44
   0   6   9    2.27    0.36
   0   6  10    3.36    0.75
   0   6  11    3.08    0.84
   0   7   0   18.45    0.72
   0   7   1    5.10    0.49
   0   7   2    2.80    0.30
   0   7   3    3.05    0.38
   0   7   4    4.35    0.60
   0   7   5    9.03    0.59
   0   7   6    5.09    0.48
   0   7   7    3.13    0.40
   0   7   8    3.84    0.47
   0   7   9    2.41    0.74
   0   8   0   13.80    0.90
   0   8   1    4.86    0.42
   0   8   2    1.04    0.29
   0   8   3    0.25    0.20
   0   8   4    0.44    0.26
   0   8   5    1.32    0.32
   0   8   6    1.10    0.31
   0   8   7    0.88    0.52
   0   8   8    2.14    0.75
   0   9   0    1.57    0.43
   0   9   1    0.06    0.39
   0   9   2    0.09    0.35
   0   9   3    0.65    0.54
   0   9   4    3.17    0.80
   0   9   5    3.76    0.86
   1  -9  -5    4.14    0.92
   1  -9  -4    2.85    0.82
   1  -9  -3    1.62    0.66
   1  -9  -2    0.95    0.66
   1  -8  -6    0.64    0.45
   1  -8  -5    2.60    0.70
   1  -8  -4    0.09    0.34
   1  -8  -3    0.41    0.37
   1  -8  -2    0.74    0.32
   1  -8  -1    1.89    0.52
   1  -7  -9    1.86    0.70
   1  -7  -8    2.22    0.78
   1  -7  -7    2.85    0.84
   1  -7  -6    3.68    0.58
   1  -7  -5    8.33    0.80
   1  -7  -4    3.37    0.72
   1  -7  -3    2.70    0.34
   1  -7  -2    2.21    0.42
   1  -7  -1    3.91    0.36
   1  -6 -11    2.97    0.80
   1  -6 -10    0.88    0.45
   1  -6  -9    2.22    0.79
   1  -6  -8    2.14    0.38
   1  -6  -7    5.18    0.50
   1  -6  -6    9.09    0.63
   1  -6  -5   19.26    0.93
   1  -6  -4    9.60    1.94
   1  -6  -3    6.44    0.50
   1  -6  -2    4.57    0.47
   1  -6  -1    7.64    0.47
   1  -5 -12    1.09    0.45
   1  -5 -11    2.33    0.70
   1  -5 -10    1.04    0.45
   1  -5  -9    4.02    0.49
   1  -5  -8    2.72    0.76
   1  -5  -7    4.28    0.40
   1  -5  -6    4.82    0.42
   1  -5  -5   15.81    1.03
   1  -5  -4    0.19    0.20
   1  -5  -3    0.06    0.16
   1  -5  -2    3.20    0.41
   1  -5  -1   12.79    0.48
   1  -4 -13    4.64    0.98
   1  -4 -12    3.46    0.53
   1  -4 -11    4.85    0.55
   1  -4 -10    0.99    0.19
   1  -4  -9    1.71    0.31
   1  -4  -8    0.52    0.14
   1  -4  -7    6.42    0.49
   1  -4  -6   12.98    0.65
   1  -4  -5   36.08    1.22
   1  -4  -4   24.35    0.80
   1  -4  -3   19.30    0.60
   1  -4  -2    6.67    0.44
   1  -4  -1    5.62    0.35
   1  -3 -13    6.20    0.79
   1  -3 -12    6.97    0.58
   1  -3 -11   13.36    0.75
   1  -3 -10    6.04    0.51
   1  -3  -9   12.26    0.56
   1  -3  -8    8.39    0.47
   1  -3  -7   24.92    0.69
   1  -3  -6   31.46    0.80
   1  -3  -5   71.08    1.23
   1  -3  -4    9.91    0.51
   1  -3  -3   12.23    0.49
   1  -3  -2   27.55    0.76
   1  -3  -1   64.79    0.96
   1  -2 -13    3.88    0.52
   1  -2 -12    3.92    0.43
   1  -2 -11    7.74    0.60
   1  -2 -10    1.45    0.19
   1  -2  -9    5.03    0.38
   1  -2  -8    1.42    0.14
   1  -2  -7   13.73    0.52
   1  -2  -6   14.13    0.56
   1  -2  -5   48.77    0.99
   1  -2  -4   10.25    0.27
   1  -2  -3   15.25    0.35
   1  -2  -2    9.32    0.19
   1  -2  -1   22.46    0.76
   1  -1 -13    6.96    0.59
   1  -1 -12    5.36    0.53
   1  -1 -11    8.66    0.70
   1  -1 -10    0.71    0.30
   1  -1  -9    2.66    0.16
   1  -1  -8    0.44    0.17
   1  -1  -7   14.75    0.46
   1  -1  -6   26.98    0.72
   1  -1  -5   79.43    1.36
   1  -1  -4   66.07    2.18
   1  -1  -3   74.98    1.58
   1  -1  -2   19.74    0.39
   1  -1  -1    5.77    0.15
   1   0 -13    7.72    0.90
   1   0 -12    8.59    1.62
   1   0 -11   20.41    1.36
   1   0 -10   11.06    0.85
   1   0  -9   22.67    1.34
   1   0  -8   13.14    0.50
   1   0  -7   47.70    1.41
   1   0  -6   57.37    1.61
   1   0  -5  146.33    3.62
   1   0  -4    3.03    0.17
   1   0  -3    9.15    0.40
   1   0  -2   73.27    1.46
   1   0  -1  219.47    5.15
   1   0   0  352.80    4.68
   1   0   1  209.56    4.90
   1   0   2   81.52    2.19
   1   0   3   54.63    1.78
   1   0   4   41.57    1.18
   1   0   5   43.42    2.31
   1   0   6   39.77    1.81
   1   0   7   45.87    2.69
   1   0   8   26.33    1.66
   1   0   9   68.00    3.71
   1   0  10   36.92    2.38
   1   0  11   29.39    2.37
   1   0  12    4.93    1.02
   1   0  13    0.50    0.41
   1   1   0   69.94    1.11
   1   1   1   51.24    0.46
   1   1   2   69.89    0.96
   1   1   3   52.39    0.70
   1   1   4   85.52    2.76
   1   1   5   75.44    1.30
   1   1   6   31.70    1.19
   1   1   7   13.58    0.94
   1   1   8    7.00    0.81
   1   1   9   16.68    1.04
   1   1  10   13.04    1.64
   1   1  11   19.15    1.32
   1   1  12    7.33    0.85
   1   1  13    0.96    0.53
   1   2   0   69.58    0.73
   1   2   1   40.89    1.11
   1   2   2   27.26    0.33
   1   2   3   10.70    0.23
   1   2   4   18.30    0.36
   1   2   5   20.29    0.46
   1   2   6   13.44    0.47
   1   2   7   10.63    0.67
   1   2   8    6.27    0.79
   1   2   9   24.25    1.16
   1   2  10   16.90    1.06
   1   2  11   14.91    1.18
   1   2  12    2.88    0.61
   1   2  13    0.01    0.53
   1   3   0  121.54    2.18
   1   3   1   60.65    0.56
   1   3   2   34.41    0.69
   1   3   3   26.75    0.49
   1   3   4   35.20    0.81
   1   3   5   34.97    0.65
   1   3   6   26.67    0.63
   1   3   7   22.21    0.65
   1   3   8   10.97    0.67
   1   3   9   37.66    1.55
   1   3  10   23.48    1.51
   1   3  11   19.08    1.84
   1   3  12    3.86    0.67
   1   3  13    0.29    0.55
   1   4   0   23.75    0.52
   1   4   1   11.10    0.51
   1   4   2   19.79    0.36
   1   4   3   24.02    0.59
   1   4   4   42.28    0.94
   1   4   5   36.01    0.87
   1   4   6   17.01    0.52
   1   4   7    6.82    0.48
   1   4   8    2.49    0.36
   1   4   9   11.19    1.04
   1   4  10    9.35    0.81
   1   4  11   11.52    1.12
   1   4  12    5.08    0.77
   1   5   0   26.79    0.67
   1   5   1   12.48    0.34
   1   5   2    3.79    0.30
   1   5   3    2.02    0.18
   1   5   4    3.53    0.22
   1   5   5    3.20    0.20
   1   5   6    2.82    0.24
   1   5   7    3.01    0.26
   1   5   8    2.06    0.46
   1   5   9   13.57    0.95
   1   5  10    8.63    0.89
   1   5  11    3.93    0.85
   1   6   0   15.14    0.64
   1   6   1    9.30    0.44
   1   6   2    7.68    0.34
   1   6   3    9.91    0.41
   1   6   4   19.08    0.61
   1   6   5   16.84    0.54
   1   6   6   10.18    0.49
   1   6   7    4.09    0.41
   1   6   8    1.69    0.31
   1   6   9    7.55    0.68
   1   6  10    5.25    0.67
   1   6  11    5.42    1.04
   1   7   0    8.20    0.53
   1   7   1    5.44    0.36
   1   7   2    3.15    0.41
   1   7   3    3.34    0.30
   1   7   4    6.78    0.60
   1   7   5    5.09    0.38
   1   7   6    3.62    0.42
   1   7   7    1.84    0.33
   1   7   8    1.17    0.51
   1   8   0    4.90    0.46
   1   8   1    2.45    0.40
   1   8   2    0.23    0.21
   1   8   3    0.15    0.22
   1   8   4    0.60    0.20
   1   8   5    0.54    0.29
   1   8   6    0.10    0.47
   1   9   0    1.35    0.64
   1   9   1    1.24    0.37
   1   9   2    1.15    0.31
   1   9   3    2.20    0.44
   2  -8  -6    1.03    0.45
   2  -8  -5    1.57    0.61
   2  -8  -4    0.51    0.36
   2  -8  -3    0.60    0.37
   2  -8  -2    1.27    0.47
   2  -8  -1    0.39    0.36
   2  -7  -8    2.81    0.82
   2  -7  -7    5.10    0.70
   2  -7  -6    4.82    0.70
   2  -7  -5    3.58    0.58
   2  -7  -4    3.63    0.57
   2  -7  -3    3.91    0.64
   2  -7  -2    8.93    0.87
   2  -7  -1    4.87    0.52
   2  -6 -11    6.50    1.14
   2  -6 -10    5.71    1.11
   2  -6  -9    3.71    0.86
   2  -6  -8    5.20    0.66
   2  -6  -7    9.52    0.86
   2  -6  -6    8.88    0.82
   2  -6  -5    7.60    0.80
   2  -6  -4   11.52    0.90
   2  -6  -3    9.47    0.84
   2  -6  -2   16.71    0.74
   2  -6  -1   10.89    0.53
   2  -5 -11    2.10    0.68
   2  -5 -10    1.93    0.63
   2  -5  -9    1.15    0.54
   2  -5  -8    1.63    0.27
   2  -5  -7    4.97    0.44
   2  -5  -6    8.64    0.59
   2  -5  -5    9.57    0.53
   2  -5  -4    3.01    0.34
   2  -5  -3    2.47    0.25
   2  -5  -2    7.76    0.35
   2  -5  -1    2.01    0.24
   2  -4 -12    6.53    0.76
   2  -4 -11    9.71    0.73
   2  -4 -10    7.65    0.63
   2  -4  -9    7.16    0.44
   2  -4  -8    7.95    0.50
   2  -4  -7   13.05    0.58
   2  -4  -6   14.21    0.64
   2  -4  -5   12.45    0.53
   2  -4  -4   21.87    0.64
   2  -4  -3   18.89    0.67
   2  -4  -2   38.97    0.96
   2  -4  -1   24.64    0.47
   2  -3 -13    6.50    0.79
   2  -3 -12   10.12    0.82
   2  -3 -11   12.53    0.82
   2  -3 -10   12.71    0.64
   2  -3  -9   10.42    0.56
   2  -3  -8   12.82    0.48
   2  -3  -7   21.88    0.77
   2  -3  -6   30.04    0.99
   2  -3  -5   32.33    0.67
   2  -3  -4   30.73    0.85
   2  -3  -3   24.15    0.70
   2  -3  -2   49.49    0.85
   2  -3  -1   25.82    0.68
   2  -2 -13    5.96    0.77
   2  -2 -12    8.32    0.72
   2  -2 -11    9.43    0.63
   2  -2 -10    8.13    0.58
   2  -2  -9    6.13    0.51
   2  -2  -8    7.37    0.45
   2  -2  -7   11.39    0.46
   2  -2  -6   17.10    0.47
   2  -2  -5   17.53    0.76
   2  -2  -4   13.38    0.39
   2  -2  -3   11.58    0.29
   2  -2  -2   33.34    0.83
   2  -2  -1   11.66    0.32
   2  -1 -13    7.04    0.62
   2  -1 -12   12.10    0.75
   2  -1 -11   14.25    0.76
   2  -1 -10   12.66    0.59
   2  -1  -9   11.76    0.58
   2  -1  -8   13.61    0.44
   2  -1  -7   17.10    0.60
   2  -1  -6   19.13    0.67
   2  -1  -5   23.97    0.52
   2  -1  -4   37.29    0.82
   2  -1  -3   33.50    1.15
   2  -1  -2   80.39    1.60
   2  -1  -1   55.53    1.06
   2   0 -13   11.15    1.04
   2   0 -12   16.08    1.21
   2   0 -11   16.72    1.24
   2   0 -10   18.10    0.92
   2   0  -9   14.63    0.75
   2   0  -8   19.81    0.99
   2   0  -7   31.02    1.18
   2   0  -6   47.88    1.56
   2   0  -5   69.72    2.55
   2   0  -4   60.50    4.28
   2   0  -3   42.42    1.03
   2   0  -2   74.70    1.63
   2   0  -1   35.34    0.95
   2   0   0   79.71    2.54
   2   0   1    4.00    0.19
   2   0   2   16.88    0.50
   2   0   3   19.26    0.56
   2   0   4  115.10    2.08
   2   0   5   61.78    1.34
   2   0   6   13.07    0.62
   2   0   7    8.00    0.60
   2   0   8   10.26    1.12
   2   0   9   30.74    2.09
   2   0  10   13.40    1.67
   2   0  11    4.62    0.94
   2   0  12    3.63    0.92
   2   1   0   66.90    0.80
   2   1   1   19.44    0.45
   2   1   2   21.14    0.42
   2   1   3    5.86    0.18
   2   1   4   95.11    1.69
   2   1   5   47.11    1.44
   2   1   6    8.93    0.18
   2   1   7    2.01    0.22
   2   1   8    1.30    0.29
   2   1   9   21.46    2.28
   2   1  10    9.17    0.82
   2   1  11    4.81    0.71
   2   1  12    4.61    0.86
   2   2   0   16.81    0.60
   2   2   1    1.24    0.17
   2   2   2    4.16    0.18
   2   2   3    1.01    0.19
   2   2   4   42.02    0.70
   2   2   5   17.97    0.36
   2   2   6    3.29    0.29
   2   2   7    2.22    0.12
   2   2   8    5.19    0.43
   2   2   9   17.13    1.05
   2   2  10    5.60    0.77
   2   2  11    1.44    0.44
   2   2  12    1.33    0.46
   2   3   0   32.02    0.70
   2   3   1    7.63    0.28
   2   3   2   16.84    0.54
   2   3   3    9.71    0.26
   2   3   4   63.21    1.12
   2   3   5   34.50    0.74
   2   3   6   11.70    0.35
   2   3   7    7.12    0.58
   2   3   8    2.70    0.37
   2   3   9   21.65    2.90
   2   3  10   10.49    0.87
   2   3  11    4.70    1.23
   2   3  12    1.66    0.47
   2   4   0   21.17    0.47
   2   4   1    9.16    0.27
   2   4   2   14.84    0.40
   2   4   3    7.71    0.32
   2   4   4   41.69    0.95
   2   4   5   24.38    0.70
   2   4   6    8.86    0.42
   2   4   7    2.70    0.41
   2   4   8    0.00    0.18
   2   4   9   15.41    1.71
   2   4  10    8.61    1.00
   2   4  11    4.90    0.65
   2   4  12    2.95    0.78
   2   5   0    3.25    0.15
   2   5   1    0.14    0.11
   2   5   2    0.36    0.13
   2   5   3    1.38    0.17
   2   5   4    8.25    0.34
   2   5   5    3.20    0.31
   2   5   6    1.03    0.22
   2   5   7    1.17    0.30
   2   5   8    3.12    0.38
   2   5   9    5.05    0.54
   2   5  10    3.06    0.52
   2   5  11    0.53    0.34
   2   6   0    8.81    0.54
   2   6   1    6.54    0.44
   2   6   2    9.18    0.43
   2   6   3    5.59    0.39
   2   6   4   18.50    0.59
   2   6   5   11.86    0.47
   2   6   6    6.70    0.51
   2   6   7    2.83    0.32
   2   6   8    0.45    0.33
   2   6   9    7.70    1.25
   2   7   0    2.94    0.39
   2   7   1    2.35    0.41
   2   7   2    3.60    0.45
   2   7   3    1.47    0.29
   2   7   4    7.02    0.49
   2   7   5    4.15    0.64
   2   7   6    3.80    0.60
   2   7   7    2.07    0.57
   2   7   8    0.09    0.42
   2   8   0    0.41    0.41
   2   8   1    0.11    0.24
   2   8   2    0.15    0.25
   2   8   3    0.33    0.23
   2   8   4    1.27    0.33
   2   8   5    0.25    0.30
   2   9   1    1.46    0.47
   2   9   2    2.08    0.48
   2   9   3    1.72    0.47
   3  -8  -6    0.25    0.43
   3  -8  -5    0.41    0.53
   3  -8  -4    0.68    0.52
   3  -8  -3    1.04    0.54
   3  -8  -2    1.11    0.36
   3  -8  -1    1.11    0.61
   3  -7  -7    6.33    1.09
   3  -7  -6    1.64    0.51
   3  -7  -5    1.69    1.20
   3  -7  -4    2.88    0.57
   3  -7  -3    4.12    0.63
   3  -7  -2    8.20    0.90
   3  -7  -1    3.92    0.72
   3  -6  -9    8.08    1.27
   3  -6  -8    6.37    0.75
   3  -6  -7   14.41    1.19
   3  -6  -6    3.43    0.56
   3  -6  -5    3.97    0.61
   3  -6  -4    5.90    0.72
   3  -6  -3    9.76    0.91
   3  -6  -2   21.41    1.30
   3  -6  -1   15.19    0.85
   3  -5 -11    0.52    0.45
   3  -5 -10    1.24    0.60
   3  -5  -9    2.33    0.99
   3  -5  -8    1.95    0.54
   3  -5  -7   13.50    1.00
   3  -5  -6    2.20    0.47
   3  -5  -5    3.23    0.51
   3  -5  -4    3.76    0.57
   3  -5  -3    4.13    0.55
   3  -5  -2   11.91    0.68
   3  -5  -1    6.84    0.51
   3  -4 -11    4.51    0.89
   3  -4 -10    7.58    1.16
   3  -4  -9   10.08    0.67
   3  -4  -8    8.95    0.60
   3  -4  -7   29.88    1.00
   3  -4  -6    2.95    0.32
   3  -4  -5    4.91    0.35
   3  -4  -4    6.73    0.36
   3  -4  -3   16.12    0.78
   3  -4  -2   55.58    1.15
   3  -4  -1   27.19    0.65
   3  -3 -13    2.13    0.67
   3  -3 -12    9.77    0.91
   3  -3 -11    5.97    0.58
   3  -3 -10    7.66    0.58
   3  -3  -9    9.17    0.51
   3  -3  -8   11.39    0.63
   3  -3  -7   54.42    1.31
   3  -3  -6   11.72    0.52
   3  -3  -5   18.31    0.62
   3  -3  -4   19.01    0.51
   3  -3  -3   30.47    1.42
   3  -3  -2   86.36    1.56
   3  -3  -1   42.02    0.89
   3  -2 -13    1.14    0.41
   3  -2 -12    6.56    0.68
   3  -2 -11    4.70    0.39
   3  -2 -10    5.12    0.38
   3  -2  -9    5.25    0.39
   3  -2  -8    5.99    0.35
   3  -2  -7   46.17    1.33
   3  -2  -6    3.57    0.27
   3  -2  -5    6.16    0.33
   3  -2  -4    5.07    0.34
   3  -2  -3   16.31    0.54
   3  -2  -2   74.57    1.40
   3  -2  -1   20.30    0.86
   3  -1 -13    0.92    0.32
   3  -1 -12    7.82    0.60
   3  -1 -11    9.17    0.65
   3  -1 -10   12.05    0.66
   3  -1  -9   12.03    0.52
   3  -1  -8   11.47    0.56
   3  -1  -7   62.17    1.26
   3  -1  -6    4.92    0.35
   3  -1  -5    6.78    0.43
   3  -1  -4    8.90    0.86
   3  -1  -3   28.95    0.88
   3  -1  -2  159.00    3.08
   3  -1  -1   57.66    1.08
   3   0 -13    4.59    0.67
   3   0 -12   11.77    1.07
   3   0 -11    8.36    0.80
   3   0 -10    9.42    0.69
   3   0  -9   12.14    0.91
   3   0  -8   13.76    0.73
   3   0  -7   88.92    2.97
   3   0  -6   20.27    0.96
   3   0  -5   30.60    1.80
   3   0  -4   30.63    1.70
   3   0  -3   53.08    1.66
   3   0  -2  168.35    3.88
   3   0  -1   76.72    3.20
   3   0   0   68.56    1.55
   3   0   1   51.42    4.09
   3   0   2   49.64    1.16
   3   0   3   58.26    2.45
   3   0   4   91.73    3.29
   3   0   5   40.67    2.04
   3   0   6   25.59    0.89
   3   0   7   24.43    2.12
   3   0   8   19.72    1.55
   3   0   9   10.67    1.48
   3   0  10    7.64    1.22
   3   0  11   10.46    1.47
   3   1   0   43.65    1.06
   3   1   1   19.02    0.38
   3   1   2   23.53    0.85
   3   1   3   20.98    0.51
   3   1   4   31.61    0.70
   3   1   5   14.42    0.41
   3   1   6   12.98    0.47
   3   1   7   12.15    0.54
   3   1   8   14.75    1.35
   3   1   9   10.13    0.83
   3   1  10    6.02    0.80
   3   1  11    5.83    0.81
   3   2   0   15.57    0.58
   3   2   1   12.42    0.55
   3   2   2   13.75    0.40
   3   2   3   16.21    0.54
   3   2   4   31.48    1.08
   3   2   5   14.71    0.50
   3   2   6    9.29    0.28
   3   2   7    9.24    0.67
   3   2   8    9.89    0.75
   3   2   9    6.69    0.83
   3   2  10    2.67    0.82
   3   2  11    3.52    0.68
   3   3   0   38.93    1.28
   3   3   1   26.23    0.72
   3   3   2   25.90    0.76
   3   3   3   29.40    1.01
   3   3   4   44.02    1.27
   3   3   5   25.12    0.79
   3   3   6   16.84    0.70
   3   3   7   13.68    0.66
   3   3   8   12.99    0.84
   3   3   9   10.22    0.90
   3   3  10    6.45    0.78
   3   3  11    5.33    0.77
   3   4   0   23.64    0.57
   3   4   1   12.67    0.55
   3   4   2   12.42    0.44
   3   4   3   12.93    0.48
   3   4   4   15.40    0.73
   3   4   5   10.34    0.55
   3   4   6    7.23    0.52
   3   4   7    6.95    0.65
   3   4   8    8.81    0.58
   3   4   9    8.78    0.90
   3   4  10    4.97    1.47
   3   4  11    3.27    0.61
   3   5   0    6.85    0.58
   3   5   1    5.78    0.39
   3   5   2    2.92    0.30
   3   5   3    5.03    0.42
   3   5   4   11.88    0.64
   3   5   5    6.77    0.43
   3   5   6    3.01    0.42
   3   5   7    5.46    0.45
   3   5   8    5.88    0.62
   3   5   9    2.06    0.46
   3   5  10    0.82    0.36
   3   6   0   13.04    0.72
   3   6   1    9.29    0.71
   3   6   2    7.89    0.57
   3   6   3    6.84    0.58
   3   6   4    9.65    0.59
   3   6   5    7.12    0.69
   3   6   6    4.87    0.51
   3   6   7    3.86    0.67
   3   6   8    5.12    0.65
   3   7   0    4.04    0.49
   3   7   1    3.74    0.44
   3   7   2    3.54    0.44
   3   7   3    3.22    0.44
   3   7   4    5.10    0.57
   3   7   5    4.11    0.61
   3   7   6    2.43    0.56
   3   7   7    1.90    0.67
   3   8   0    1.86    0.49
   3   8   1    0.95    0.44
   3   8   2    0.48    0.24
   3   8   3    0.21    0.28
   3   8   4    1.40    0.44
   3   8   5    1.28    0.63
   4  -7  -7    4.17    0.95
   4  -7  -6    3.92    0.91
   4  -7  -5    1.45    0.69
   4  -7  -4    1.53    0.46
   4  -7  -3    1.96    0.49
   4  -7  -2    3.27    0.61
   4  -7  -1    3.29    0.62
   4  -6  -8    3.82    0.81
   4  -6  -7    7.33    0.89
   4  -6  -6    4.46    0.67
   4  -6  -5    1.18    0.71
   4  -6  -4    1.59    0.48
   4  -6  -3    3.37    0.59
   4  -6  -2    7.23    0.81
   4  -6  -1    8.42    0.90
   4  -5 -10    0.11    0.57
   4  -5  -9    0.49    0.32
   4  -5  -8    1.36    0.47
   4  -5  -7    7.08    0.77
   4  -5  -6   10.27    1.16
   4  -5  -5    6.34    0.78
   4  -5  -4    3.74    0.58
   4  -5  -3    3.28    0.68
   4  -5  -2    2.50    0.51
   4  -5  -1    3.45    0.60
   4  -4 -11    1.25    0.62
   4  -4 -10    1.65    0.44
   4  -4  -9    4.91    0.71
   4  -4  -8    5.77    1.29
   4  -4  -7   13.32    1.07
   4  -4  -6    4.98    0.92
   4  -4  -5    1.13    0.42
   4  -4  -4    0.84    0.38
   4  -4  -3    3.76    0.61
   4  -4  -2    7.47    0.73
   4  -4  -1   11.84    0.63
   4  -3 -11    2.99    0.78
   4  -3 -10    3.75    0.79
   4  -3  -9    5.30    0.61
   4  -3  -8    9.51    0.90
   4  -3  -7   22.00    1.26
   4  -3  -6   23.72    0.89
   4  -3  -5   17.08    0.74
   4  -3  -4   13.01    0.57
   4  -3  -3   15.75    1.03
   4  -3  -2   15.36    0.66
   4  -3  -1   21.60    1.22
   4  -2 -11    0.53    0.28
   4  -2 -10    0.97    0.23
   4  -2  -9    2.93    0.34
   4  -2  -8    5.68    0.38
   4  -2  -7   19.55    0.83
   4  -2  -6   15.94    0.98
   4  -2  -5    8.37    0.59
   4  -2  -4    5.72    0.41
   4  -2  -3    6.27    0.39
   4  -2  -2    6.28    0.60
   4  -2  -1    9.51    0.47
   4  -1 -13    1.03    0.71
   4  -1 -12    6.83    0.86
   4  -1 -11    0.92    0.32
   4  -1 -10    3.09    0.34
   4  -1  -9    7.28    0.48
   4  -1  -8    9.35    0.56
   4  -1  -7   23.05    1.36
   4  -1  -6   10.67    0.73
   4  -1  -5    3.88    0.89
   4  -1  -4    0.97    0.39
   4  -1  -3    4.46    0.48
   4  -1  -2   10.15    1.18
   4  -1  -1   17.41    0.94
   4   0 -12   17.94    1.99
   4   0 -11    4.19    0.56
   4   0 -10    4.51    0.52
   4   0  -9    7.46    1.02
   4   0  -8   14.99    1.36
   4   0  -7   42.75    2.44
   4   0  -6   52.15    2.84
   4   0  -5   42.92    2.28
   4   0  -4   34.64    1.27
   4   0  -3   27.56    1.13
   4   0  -2   24.09    1.09
   4   0  -1   35.86    2.06
   4   0   0   40.17    2.29
   4   0   1   15.49    1.21
   4   0   2   61.57    3.20
   4   0   3   58.76    2.45
   4   0   4   52.83    1.94
   4   0   5   27.90    1.13
   4   0   6    7.58    0.70
   4   0   7   24.44    1.91
   4   0   8   13.33    1.60
   4   0   9   22.52    2.07
   4   0  10    5.73    0.96
   4   1   0   16.76    0.49
   4   1   1    2.64    0.21
   4   1   2   18.67    0.54
   4   1   3    9.36    0.59
   4   1   4    5.49    0.37
   4   1   5    2.21    0.30
   4   1   6    0.11    0.27
   4   1   7   13.55    1.12
   4   1   8   11.08    1.32
   4   1   9   15.03    1.21
   4   1  10    3.39    1.00
   4   2   0   12.18    0.52
   4   2   1    1.73    0.14
   4   2   2   25.28    0.79
   4   2   3   15.92    0.54
   4   2   4   13.44    0.70
   4   2   5    5.07    0.32
   4   2   6    0.64    0.25
   4   2   7   12.81    0.95
   4   2   8    6.70    0.78
   4   2   9   11.05    1.01
   4   2  10    2.37    0.54
   4   3   0   20.65    1.10
   4   3   1    9.43    0.56
   4   3   2   34.46    1.15
   4   3   3   26.31    1.02
   4   3   4   22.20    0.88
   4   3   5   12.38    0.63
   4   3   6    3.82    0.38
   4   3   7   18.95    0.98
   4   3   8   11.79    1.02
   4   3   9   10.35    1.04
   4   3  10    4.44    0.67
   4   4   0    8.73    0.55
   4   4   1    1.91    0.30
   4   4   2   12.95    0.72
   4   4   3    5.13    0.42
   4   4   4    2.23    0.35
   4   4   5    0.70    0.16
   4   4   6    0.12    0.21
   4   4   7    9.48    0.67
   4   4   8    7.84    1.00
   4   4   9    6.38    0.81
   4   4  10    2.28    0.70
   4   5   0    4.42    0.35
   4   5   1    0.55    0.23
   4   5   2   13.36    0.72
   4   5   3   11.91    1.13
   4   5   4    8.44    0.73
   4   5   5    4.71    0.68
   4   5   6    1.13    0.38
   4   5   7    5.03    0.69
   4   5   8    2.48    0.73
   4   5   9    1.87    0.67
   4   6   0    7.41    0.83
   4   6   1    2.60    0.37
   4   6   2    8.43    0.69
   4   6   3    4.26    0.44
   4   6   4    2.01    0.41
   4   6   5    1.38    0.36
   4   6   6    0.53    0.38
   4   6   7    5.35    0.69
   4   6   8    4.92    1.04
   4   7   0    2.37    0.56
   4   7   1    0.81    0.43
   4   7   2    5.35    0.69
   4   7   3    3.90    0.51
   4   7   4    1.50    0.33
   4   7   5    1.37    0.77
   4   7   6    0.58    0.56
   4   8   0    0.93    0.60
   4   8   1    0.02    0.58
   4   8   2    2.23    0.72
   5  -7  -1    2.18    0.80
   5  -6  -6    5.14    1.09
   5  -6  -5    2.16    0.44
   5  -6  -4    0.57    0.43
   5  -6  -3    7.38    1.61
   5  -6  -2    5.04    0.72
   5  -6  -1    4.26    1.19
   5  -5  -9    1.54    0.66
   5  -5  -8    2.17    0.68
   5  -5  -7    2.55    1.10
   5  -5  -6    9.09    0.94
   5  -5  -5    6.49    0.83
   5  -5  -4    3.54    0.71
   5  -5  -3    7.55    0.89
   5  -5  -2    3.94    0.61
   5  -5  -1    1.05    0.43
   5  -4 -10    4.34    1.02
   5  -4  -9    3.72    0.57
   5  -4  -8    2.58    0.58
   5  -4  -7    2.93    0.64
   5  -4  -6    4.42    0.81
   5  -4  -5    2.47    0.49
   5  -4  -4    0.34    0.34
   5  -4  -3    8.57    0.81
   5  -4  -2    8.34    0.83
   5  -4  -1    6.54    0.76
   5  -3 -11    9.76    1.41
   5  -3 -10    6.26    0.74
   5  -3  -9    4.63    0.68
   5  -3  -8    5.52    1.02
   5  -3  -7   11.14    1.02
   5  -3  -6   23.02    1.36
   5  -3  -5   15.85    1.78
   5  -3  -4    8.00    0.85
   5  -3  -3   18.75    1.46
   5  -3  -2   15.77    1.07
   5  -3  -1    7.54    0.76
   5  -2 -11    8.85    0.90
   5  -2 -10    3.93    0.64
   5  -2  -9    2.88    0.53
   5  -2  -8    3.58    0.58
   5  -2  -7    5.29    0.63
   5  -2  -6   14.06    1.91
   5  -2  -5    8.00    0.73
   5  -2  -4    2.89    0.58
   5  -2  -3   12.63    0.88
   5  -2  -2   10.53    0.94
   5  -2  -1    2.95    0.41
   5  -1 -11   11.33    1.41
   5  -1 -10    6.03    0.70
   5  -1  -9    4.50    0.50
   5  -1  -8    4.26    0.46
   5  -1  -7    4.57    0.62
   5  -1  -6    9.63    1.17
   5  -1  -5    3.55    0.63
   5  -1  -4    0.55    0.25
   5  -1  -3    9.59    0.89
   5  -1  -2   15.39    1.03
   5  -1  -1    6.36    0.68
   5   0 -12    6.71    1.21
   5   0 -11   18.48    2.98
   5   0 -10    8.36    0.87
   5   0  -9    6.42    1.01
   5   0  -8    7.28    1.09
   5   0  -7   15.51    1.53
   5   0  -6   40.82    2.75
   5   0  -5   32.98    2.12
   5   0  -4   17.52    1.74
   5   0  -3   31.92    2.07
   5   0  -2   28.18    2.07
   5   0  -1   10.27    1.09
   5   0   0    8.77    1.31
   5   0   1    2.21    0.47
   5   0   2   78.06    3.89
   5   0   3   38.84    2.13
   5   0   4   20.93    2.56
   5   0   5    9.01    0.78
   5   0   6    7.22    1.06
   5   0   7    9.80    1.39
   5   0   8    6.27    1.14
   5   0   9    3.86    0.88
   5   1   0    7.23    0.61
   5   1   2   31.01    1.36
   5   1   3    4.14    0.68
   5   1   4    1.55    0.28
   5   1   5    1.54    0.18
   5   1   6    2.91    0.56
   5   1   7    6.12    0.74
   5   1   8    5.83    0.74
   5   1   9    3.76    0.72
   5   2   0    2.46    0.53
   5   2   1    0.57    0.35
   5   2   2   33.68    1.64
   5   2   3    9.32    1.02
   5   2   4    4.28    0.44
   5   2   5    1.96    0.27
   5   2   6    2.74    0.60
   5   2   7    3.02    0.57
   5   2   8    2.68    0.65
   5   2   9    2.34    0.72
   5   3   0    7.12    1.21
   5   3   1    1.24    0.29
   5   3   2   41.95    1.40
   5   3   3   16.69    0.88
   5   3   4   10.37    0.65
   5   3   5    4.94    0.49
   5   3   6    3.44    0.51
   5   3   7    6.27    0.78
   5   3   8    4.56    0.67
   5   3   9    4.22    1.05
   5   4   0    6.13    0.71
   5   4   1    2.59    0.38
   5   4   2   14.45    0.80
   5   4   3    3.05    0.37
   5   4   4    0.91    0.24
   5   4   5    1.14    0.29
   5   4   6    1.66    0.30
   5   4   7    4.55    0.66
   5   4   8    4.17    0.90
   5   4   9    3.99    0.90
   5   5   0    0.28    0.35
   5   5   1    0.13    0.31
   5   5   2   12.44    1.10
   5   5   3    6.38    0.73
   5   5   4    4.35    0.94
   5   5   5    1.79    0.47
   5   5   6    0.59    0.46
   5   5   7    1.11    0.58
   5   6   0    5.01    0.71
   5   6   1    0.83    0.36
   5   6   2    8.49    0.89
   5   6   3    3.47    0.57
   5   6   4    1.71    0.68
   5   6   5    0.98    0.40
   5   6   6    1.18    0.63
   5   7   0    1.64    0.64
   5   7   1    0.31    0.50
   5   7   2    5.11    0.97
   5   7   4    1.85    0.72
   6  -5  -4    1.70    0.48
   6  -5  -3    3.96    0.60
   6  -5  -2    2.50    0.58
   6  -5  -1    1.36    0.41
   6  -4  -7    4.98    1.06
   6  -4  -6    4.29    0.71
   6  -4  -5    4.73    0.82
   6  -4  -4    4.56    0.67
   6  -4  -3    8.77    0.98
   6  -4  -2    9.98    0.97
   6  -4  -1    9.97    0.95
   6  -3  -9    5.83    1.10
   6  -3  -8    3.59    0.66
   6  -3  -7    6.20    0.79
   6  -3  -6    5.82    0.82
   6  -3  -5    9.19    0.90
   6  -3  -4    9.67    0.98
   6  -3  -3   16.68    1.19
   6  -3  -2   11.42    1.36
   6  -3  -1    9.55    0.90
   6  -2  -9    4.03    0.71
   6  -2  -8    1.83    0.66
   6  -2  -7    3.21    0.62
   6  -2  -6    3.37    0.55
   6  -2  -5    4.92    0.80
   6  -2  -4    5.89    0.70
   6  -2  -3   12.36    1.08
   6  -2  -2    6.54    0.70
   6  -2  -1    5.21    0.69
   6  -1 -10    6.02    1.13
   6  -1  -9    8.24    0.90
   6  -1  -8    4.35    0.65
   6  -1  -7    7.02    1.04
   6  -1  -6    3.40    0.58
   6  -1  -5    6.28    0.98
   6  -1  -4    8.95    0.91
   6  -1  -3   14.05    1.04
   6  -1  -2   13.04    0.86
   6  -1  -1   16.47    1.64
   6   0 -11    9.11    1.40
   6   0 -10    5.10    0.84
   6   0  -9    8.61    1.54
   6   0  -8    4.16    0.96
   6   0  -7    8.42    1.23
   6   0  -6    8.65    1.22
   6   0  -5   11.75    1.50
   6   0  -4   16.10    1.56
   6   0  -3   24.43    2.14
   6   0  -2   14.03    1.45
   6   0  -1    9.48    1.21
   6   0   0    8.46    1.16
   6   0   1   13.10    1.44
   6   0   2   15.95    1.47
   6   0   3   12.97    1.30
   6   0   4   14.19    1.03
   6   0   5    5.54    1.02
   6   0   6    6.26    1.09
   6   0   7    4.49    1.03
   6   1   0   14.14    1.44
   6   1   1   12.36    1.05
   6   1   2    9.00    0.86
   6   1   3    7.57    0.75
   6   1   4    8.87    0.65
   6   1   5    4.36    0.64
   6   1   6    6.69    0.94
   6   1   7    6.17    0.79
   6   2   0    3.83    0.60
   6   2   1    5.74    0.71
   6   2   2    7.69    0.78
   6   2   3    5.44    0.53
   6   2   4    7.31    0.60
   6   2   5    2.75    0.50
   6   2   6    3.41    0.58
   6   2   7    3.01    0.80
   6   3   0    7.15    0.81
   6   3   1    9.34    0.67
   6   3   2   10.77    0.73
   6   3   3    9.63    0.68
   6   3   4   10.91    0.76
   6   3   5    4.31    0.50
   6   3   6    6.36    0.80
   6   3   7    5.14    1.07
   6   4   0    9.84    0.91
   6   4   1    8.53    0.89
   6   4   2    6.83    0.78
   6   4   3    5.50    0.70
   6   4   4    6.54    1.04
   6   4   5    2.07    0.54
   6   5   0    0.33    0.34
   6   5   1    0.77    0.52
   6   5   2    2.37    0.51
   6   5   3    2.41    0.51
   6   5   4    2.87    0.93
   6   5   5    0.16    0.54
   6   6   0    4.86    0.98
   6   6   1    4.62    1.07
   6   6   2    3.24    0.82
   7  -4  -1    2.75    0.94
   7  -3  -4    3.45    0.92
   7  -3  -3    1.88    0.62
   7  -3  -2    5.53    0.76
   7  -3  -1    3.35    0.61
   7  -2  -5    2.55    0.58
   7  -2  -4    0.53    0.74
   7  -2  -3    0.31    0.35
   7  -2  -2    3.07    0.62
   7  -2  -1    1.56    0.45
   7  -1  -6    3.21    0.73
   7  -1  -5    3.74    0.56
   7  -1  -4    3.08    0.50
   7  -1  -3    1.34    0.45
   7  -1  -2    5.59    0.75
   7  -1  -1    3.11    0.57
   7   0  -6    2.20    1.01
   7   0  -5    3.46    0.75
   7   0  -4    4.25    0.94
   7   0  -3    2.45    0.78
   7   0  -2    6.89    1.21
   7   0  -1    4.13    0.89
   7   0   0    9.28    0.90
   7   0   1    3.04    0.79
   7   0   2    6.61    1.15
   7   0   3    4.99    0.89
   7   0   4    6.04    1.03
   7   1   0    7.35    0.81
   7   1   1    1.59    0.43
   7   1   2    4.29    0.67
   7   1   3    2.80    0.43
   7   1   4    3.85    0.70
   7   1   5    1.24    0.50
   7   2   0    4.74    0.72
   7   2   1    1.05    0.36
   7   2   2    2.34    0.42
   7   2   3    1.34    0.39
   7   2   4    2.35    0.53
   7   2   5    1.46    0.48
   7   3   0    7.06    0.83
   7   3   1    3.21    0.68
   7   3   2    3.71    0.64
   7   3   3    3.10    0.51
   7   3   4    3.98    0.92
   7   4   0    6.28    1.12
   7   4   1    2.18    0.66
   7   4   2    2.77    0.74
   8   0   1    5.06    1.13
   8   0   2    4.54    1.00
   8   1   1    2.17    0.66
   8   1   2    2.47    0.54
   0   0   0    0.00    0.00
;
_shelx_hkl_checksum              3890
_shelx_shelxl_version_number     2014/7
_olex2_submission_special_instructions 'No special instructions were received'
loop_
_space_group_symop_operation_xyz
'x, y, z'
'x, -y, z'
loop_
_atom_site_label
_atom_site_type_symbol
_atom_site_fract_x
_atom_site_fract_y
_atom_site_fract_z
_atom_site_U_iso_or_equiv
_atom_site_adp_type
_atom_site_occupancy
_atom_site_site_symmetry_order
_atom_site_calc_flag
_atom_site_refinement_flags_posn
_atom_site_refinement_flags_adp
_atom_site_refinement_flags_occupancy
Co1 Co 0.00000(8) 0.0000 0.00000(7) 0.0185(3) Uani 1 2 d S T P
O1 O 0.0704(12) 0.0000 0.1948(7) 0.0226(15) Uani 1 2 d S TU P
O2 O -0.2769(10) 0.0000 0.1309(5) 0.0307(14) Uani 1 2 d S T P
N1 N -0.0046(15) 0.3155(5) -0.0059(8) 0.0199(8) Uani 1 1 d . . .
C7 C -0.1268(13) 0.0000 0.2212(7) 0.0239(16) Uani 1 2 d S T P
C1 C -0.1757(13) 0.0000 0.3542(8) 0.0248(16) Uani 1 2 d S TU P
C9 C 0.0961(12) 0.3904(9) -0.1179(6) 0.0325(14) Uani 1 1 d . . .
H9A H 0.0139 0.3448 -0.1938 0.039 Uiso 1 1 calc R . .
H9B H 0.2463 0.3448 -0.1175 0.039 Uiso 1 1 calc R . .
C10 C -0.2282(10) 0.3914(8) -0.0062(7) 0.0326(13) Uani 1 1 d . . .
H10A H -0.2945 0.3461 0.0675 0.039 Uiso 1 1 calc R . .
H10B H -0.3167 0.3461 -0.0801 0.039 Uiso 1 1 calc R . .
C3 C -0.4223(16) 0.0000 0.5162(10) 0.037(2) Uani 1 2 d S TU P
H3 H -0.5652 0.0000 0.5404 0.044 Uiso 1 2 calc RS T P
C2 C -0.3906(17) 0.0000 0.3876(10) 0.040(2) Uani 1 2 d S TU P
H2 H -0.5097 0.0000 0.3268 0.048 Uiso 1 2 calc RS T P
C6 C 0.0028(18) 0.0000 0.4422(10) 0.031(2) Uani 1 2 d S TU P
H6 H 0.1461 0.0000 0.4187 0.037 Uiso 1 2 calc RS T P
O4 O -0.1315(13) 0.0000 0.8202(7) 0.0290(16) Uani 1 2 d S T P
C4 C -0.2507(14) 0.0000 0.6063(8) 0.0276(17) Uani 1 2 d S TU P
C8 C -0.2911(14) 0.0000 0.7456(8) 0.0322(19) Uani 1 2 d S T P
O3 O -0.4853(17) 0.0000 0.7688(10) 0.071(3) Uani 1 2 d S TU P
C5 C -0.041(3) 0.0000 0.5718(15) 0.055(4) Uani 1 2 d S TU P
H5 H 0.0764 0.0000 0.6337 0.066 Uiso 1 2 calc RS T P
C11 C 0.1299(12) 0.3911(8) 0.1071(6) 0.0319(14) Uani 1 1 d . . .
H11A H 0.2800 0.3455 0.1074 0.038 Uiso 1 1 calc R . .
H11B H 0.0702 0.3455 0.1827 0.038 Uiso 1 1 calc R . .
O1W O 0.3335(9) 0.0000 -0.0225(5) 0.0281(13) Uani 1 2 d DS T P
H1WA H 0.4051 0.0176 0.0370 0.042 Uiso 0.5 1 d DGR . .
H1WB H 0.3560 0.0171 -0.1009 0.042 Uiso 0.5 1 d DGR . .
loop_
_atom_site_aniso_label
_atom_site_aniso_U_11
_atom_site_aniso_U_22
_atom_site_aniso_U_33
_atom_site_aniso_U_23
_atom_site_aniso_U_13
_atom_site_aniso_U_12
Co1 0.0159(4) 0.0307(5) 0.0091(4) 0.000 0.0015(3) 0.000
O1 0.0217(19) 0.0242(18) 0.0218(19) 0.000 0.0026(13) 0.000
O2 0.032(3) 0.044(4) 0.016(3) 0.000 0.003(2) 0.000
N1 0.0209(17) 0.0222(17) 0.0164(18) -0.001(3) -0.0001(14) -0.001(3)
C7 0.024(4) 0.032(4) 0.016(3) 0.000 0.004(3) 0.000
C1 0.025(2) 0.0256(19) 0.024(2) 0.000 0.0038(13) 0.000
C9 0.045(4) 0.028(3) 0.026(3) 0.001(2) 0.016(3) 0.005(3)
C10 0.025(3) 0.025(3) 0.049(4) -0.004(3) 0.007(3) -0.001(2)
C3 0.036(2) 0.039(2) 0.036(2) 0.000 0.0038(14) 0.000
C2 0.039(2) 0.042(3) 0.039(2) 0.000 0.0028(14) 0.000
C6 0.029(3) 0.033(3) 0.030(2) 0.000 0.0018(14) 0.000
O4 0.031(4) 0.034(3) 0.020(3) 0.000 -0.006(3) 0.000
C4 0.027(2) 0.029(2) 0.027(2) 0.000 0.0036(13) 0.000
C8 0.029(4) 0.052(5) 0.016(4) 0.000 0.008(3) 0.000
O3 0.066(3) 0.083(4) 0.063(3) 0.000 0.010(3) 0.000
C5 0.054(4) 0.056(4) 0.054(4) 0.000 0.0042(14) 0.000
C11 0.048(4) 0.021(3) 0.024(3) 0.001(2) -0.015(3) -0.001(3)
O1W 0.024(3) 0.047(4) 0.014(3) 0.000 0.003(2) 0.000
loop_
_atom_type_symbol
_atom_type_description
_atom_type_scat_dispersion_real
_atom_type_scat_dispersion_imag
_atom_type_scat_source
C C 0.0033 0.0016 'International Tables Vol C Tables 4.2.6.8 and 6.1.1.4'
H H 0.0000 0.0000 'International Tables Vol C Tables 4.2.6.8 and 6.1.1.4'
Co Co 0.3494 0.9721 'International Tables Vol C Tables 4.2.6.8 and 6.1.1.4'
N N 0.0061 0.0033 'International Tables Vol C Tables 4.2.6.8 and 6.1.1.4'
O O 0.0106 0.0060 'International Tables Vol C Tables 4.2.6.8 and 6.1.1.4'
loop_
_geom_angle_atom_site_label_1
_geom_angle_atom_site_label_2
_geom_angle_atom_site_label_3
_geom_angle
_geom_angle_site_symmetry_1
_geom_angle_site_symmetry_3
O1 Co1 O2 59.2(2) . .
O1 Co1 N1 91.7(2) . .
O1 Co1 N1 91.7(2) . 2
N1 Co1 O2 90.5(2) 2 .
N1 Co1 O2 90.5(2) . .
N1 Co1 N1 176.6(4) 2 .
O4 Co1 O1 168.5(3) 1_554 .
O4 Co1 O2 109.3(3) 1_554 .
O4 Co1 N1 88.3(2) 1_554 2
O4 Co1 N1 88.3(2) 1_554 .
O4 Co1 O1W 101.6(3) 1_554 .
O1W Co1 O1 89.9(3) . .
O1W Co1 O2 149.1(2) . .
O1W Co1 N1 90.4(2) . .
O1W Co1 N1 90.4(2) . 2
C7 O1 Co1 96.1(6) . .
C7 O2 Co1 86.7(5) . .
C9 N1 Co1 111.9(5) . .
C9 N1 C11 106.5(6) . .
C10 N1 Co1 112.1(4) . .
C10 N1 C9 108.5(6) . .
C10 N1 C11 108.3(6) . .
C11 N1 Co1 109.3(4) . .
O1 C7 O2 118.0(7) . .
O1 C7 C1 119.6(8) . .
O2 C7 C1 122.5(7) . .
C2 C1 C7 121.5(8) . .
C6 C1 C7 116.3(8) . .
C6 C1 C2 122.2(8) . .
N1 C9 C9 110.9(3) . 2_565
N1 C9 H9A 109.5 . .
N1 C9 H9B 109.5 . .
C9 C9 H9A 109.5 2_565 .
C9 C9 H9B 109.5 2_565 .
H9A C9 H9B 108.1 . .
N1 C10 C10 111.5(3) . 2_565
N1 C10 H10A 109.3 . .
N1 C10 H10B 109.3 . .
C10 C10 H10A 109.3 2_565 .
C10 C10 H10B 109.3 2_565 .
H10A C10 H10B 108.0 . .
C2 C3 H3 119.0 . .
C4 C3 H3 119.0 . .
C4 C3 C2 122.0(9) . .
C1 C2 C3 117.8(9) . .
C1 C2 H2 121.1 . .
C3 C2 H2 121.1 . .
C1 C6 H6 121.4 . .
C1 C6 C5 117.2(10) . .
C5 C6 H6 121.4 . .
C8 O4 Co1 149.6(7) . 1_556
C3 C4 C8 120.6(8) . .
C3 C4 C5 119.4(11) . .
C5 C4 C8 120.0(10) . .
O4 C8 C4 117.0(8) . .
O4 C8 O3 127.1(9) . .
O3 C8 C4 115.9(8) . .
C6 C5 H5 119.3 . .
C4 C5 C6 121.5(11) . .
C4 C5 H5 119.3 . .
N1 C11 C11 111.0(3) . 2_565
N1 C11 H11A 109.4 . .
N1 C11 H11B 109.4 . .
C11 C11 H11A 109.4 2_565 .
C11 C11 H11B 109.4 2_565 .
H11A C11 H11B 108.0 . .
Co1 O1W H1WA 113.9 . .
Co1 O1W H1WB 110.7 . .
H1WA O1W H1WB 131.7 . .
loop_
_geom_bond_atom_site_label_1
_geom_bond_atom_site_label_2
_geom_bond_distance
_geom_bond_site_symmetry_2
Co1 O1 2.086(7) .
Co1 O2 2.285(6) .
Co1 N1 2.238(4) 2
Co1 N1 2.238(4) .
Co1 O4 2.013(7) 1_554
Co1 O1W 2.068(6) .
O1 C7 1.259(10) .
O2 C7 1.268(10) .
N1 C9 1.490(11) .
N1 C10 1.465(10) .
N1 C11 1.496(9) .
C7 C1 1.477(11) .
C1 C2 1.388(13) .
C1 C6 1.373(13) .
C9 C9 1.554(13) 2_565
C9 H9A 0.9700 .
C9 H9B 0.9700 .
C10 C10 1.540(12) 2_565
C10 H10A 0.9700 .
C10 H10B 0.9700 .
C3 H3 0.9300 .
C3 C2 1.403(14) .
C3 C4 1.357(13) .
C2 H2 0.9300 .
C6 H6 0.9300 .
C6 C5 1.432(15) .
O4 Co1 2.013(7) 1_556
O4 C8 1.202(11) .
C4 C8 1.529(11) .
C4 C5 1.361(17) .
C8 O3 1.230(13) .
C5 H5 0.9300 .
C11 C11 1.545(11) 2_565
C11 H11A 0.9700 .
C11 H11B 0.9700 .
O1W H1WA 0.7491 .
O1W H1WB 0.8682 .
loop_
_geom_torsion_atom_site_label_1
_geom_torsion_atom_site_label_2
_geom_torsion_atom_site_label_3
_geom_torsion_atom_site_label_4
_geom_torsion
_geom_torsion_site_symmetry_1
_geom_torsion_site_symmetry_4
Co1 O1 C7 O2 0.000(1) . .
Co1 O1 C7 C1 180.000(1) . .
Co1 O2 C7 O1 0.000(1) . .
Co1 O2 C7 C1 180.000(1) . .
Co1 N1 C9 C9 -178.6(2) . 2_565
Co1 N1 C10 C10 178.3(2) . 2_565
Co1 N1 C11 C11 -179.7(2) . 2_565
Co1 O4 C8 C4 180.000(4) 1_556 .
Co1 O4 C8 O3 0.000(8) 1_556 .
O1 C7 C1 C2 180.000(2) . .
O1 C7 C1 C6 0.000(2) . .
O2 C7 C1 C2 0.000(2) . .
O2 C7 C1 C6 180.000(2) . .
C7 C1 C2 C3 180.000(2) . .
C7 C1 C6 C5 180.000(3) . .
C1 C6 C5 C4 0.000(3) . .
C9 N1 C10 C10 -57.6(5) . 2_565
C9 N1 C11 C11 59.2(5) . 2_565
C10 N1 C9 C9 57.2(5) . 2_565
C10 N1 C11 C11 -57.2(6) . 2_565
C3 C4 C8 O4 180.000(3) . .
C3 C4 C8 O3 0.000(4) . .
C3 C4 C5 C6 0.000(4) . .
C2 C1 C6 C5 0.000(3) . .
C2 C3 C4 C8 180.000(3) . .
C2 C3 C4 C5 0.000(4) . .
C6 C1 C2 C3 0.000(3) . .
C4 C3 C2 C1 0.000(3) . .
C8 C4 C5 C6 180.000(3) . .
C5 C4 C8 O4 0.000(4) . .
C5 C4 C8 O3 180.000(4) . .
C11 N1 C9 C9 -59.1(5) . 2_565
C11 N1 C10 C10 57.6(6) . 2_565
loop_
_smtbx_masks_void_nr
_smtbx_masks_void_average_x
_smtbx_masks_void_average_y
_smtbx_masks_void_average_z
_smtbx_masks_void_volume
_smtbx_masks_void_count_electrons
1 -0.736 0.500 0.496 144.7 56.6
