#------------------------------------------------------------------------------
#$Date: 2019-11-24 04:12:18 +0200 (Sun, 24 Nov 2019) $
#$Revision: 236652 $
#$URL: file:///home/coder/svn-repositories/cod/cif/8/00/03/8000374.cif $
#------------------------------------------------------------------------------
#
# This file is available in the Crystallography Open Database (COD),
# http://www.crystallography.net/
#
# All data on this site have been placed in the public domain by the
# contributors.
#
data_8000374
loop_
_publ_author_name
'Andrzejewski, Micha\/l'
'Katrusiak, Andrzej'
_publ_section_title
;
 Piezochromic Porous Metal-Organic Framework.
;
_journal_issue                   1
_journal_name_full               'The journal of physical chemistry letters'
_journal_page_first              279
_journal_page_last               284
_journal_paper_doi               10.1021/acs.jpclett.6b02458
_journal_volume                  8
_journal_year                    2017
_chemical_formula_moiety         'C14 H18 Co N2 O5'
_chemical_formula_sum            'C14 H18 Co N2 O5'
_chemical_formula_weight         353.23
_chemical_name_common            AMU1
_chemical_name_systematic
;
Co(1,4-benzenedicarboxylate)(1,4-diazabicyclo[2.2.2]octane)H2O
;
_space_group_crystal_system      triclinic
_space_group_IT_number           1
_space_group_name_Hall           'P 1'
_space_group_name_H-M_alt        'P 1'
_atom_sites_solution_hydrogens   mixed
_atom_sites_solution_primary     direct
_audit_creation_date             2016-07-12
_audit_creation_method
;
Olex2 1.2
(compiled 2016.02.19 svn.r3266 for OlexSys, GUI svn.r5155)
;
_cell_angle_alpha                90.27(4)
_cell_angle_beta                 95.74(6)
_cell_angle_gamma                94.245(16)
_cell_formula_units_Z            1
_cell_length_a                   5.9454(12)
_cell_length_b                   7.058(2)
_cell_length_c                   10.616(5)
_cell_measurement_reflns_used    669
_cell_measurement_temperature    296(2)
_cell_measurement_theta_max      53.188
_cell_measurement_theta_min      10.4
_cell_volume                     442.0(3)
_computing_molecular_graphics    'Olex2 (Dolomanov et al., 2009)'
_computing_publication_material  'Olex2 (Dolomanov et al., 2009)'
_computing_structure_refinement  'ShelXL (Sheldrick, 2015)'
_computing_structure_solution    'ShelXS (Sheldrick, 2008)'
_diffrn_ambient_temperature      296(2)
_diffrn_measured_fraction_theta_full 0.195
_diffrn_measured_fraction_theta_max 0.186
_diffrn_measurement_device_type  'multiwire proportional'
_diffrn_measurement_method       'phi and omega scans'
_diffrn_radiation_monochromator  graphite
_diffrn_radiation_type           MoK\a
_diffrn_radiation_wavelength     0.71073
_diffrn_reflns_av_R_equivalents  0.0418
_diffrn_reflns_av_unetI/netI     0.0593
_diffrn_reflns_Laue_measured_fraction_full 0.195
_diffrn_reflns_Laue_measured_fraction_max 0.186
_diffrn_reflns_limit_h_max       7
_diffrn_reflns_limit_h_min       -7
_diffrn_reflns_limit_k_max       8
_diffrn_reflns_limit_k_min       -8
_diffrn_reflns_limit_l_max       3
_diffrn_reflns_limit_l_min       -4
_diffrn_reflns_number            1852
_diffrn_reflns_point_group_measured_fraction_full 0.195
_diffrn_reflns_point_group_measured_fraction_max 0.186
_diffrn_reflns_theta_full        26.000
_diffrn_reflns_theta_max         26.594
_diffrn_reflns_theta_min         5.200
_exptl_absorpt_coefficient_mu    0.992
_exptl_absorpt_correction_T_max  0.906
_exptl_absorpt_correction_T_min  0.888
_exptl_absorpt_correction_type   multi-scan
_exptl_absorpt_process_details
;
Data were collected and reduced by program CrysAlisPro, 
and SCALE3 ABSPACK was used for absorption correction
;
_exptl_crystal_colour            orange/yellow
_exptl_crystal_density_diffrn    1.327
_exptl_crystal_description       plate
_exptl_crystal_F_000             183
_exptl_crystal_size_max          0.3
_exptl_crystal_size_mid          0.1
_exptl_crystal_size_min          0.1
_refine_diff_density_max         0.915
_refine_diff_density_min         -0.603
_refine_diff_density_rms         0.152
_refine_ls_abs_structure_details
;
 Refined as a perfect inversion twin.
;
_refine_ls_abs_structure_Flack   0.5
_refine_ls_extinction_method     none
_refine_ls_goodness_of_fit_ref   1.349
_refine_ls_hydrogen_treatment    mixed
_refine_ls_matrix_type           full
_refine_ls_number_parameters     78
_refine_ls_number_reflns         669
_refine_ls_number_restraints     26
_refine_ls_restrained_S_all      1.322
_refine_ls_R_factor_all          0.1399
_refine_ls_R_factor_gt           0.1241
_refine_ls_shift/su_max          0.000
_refine_ls_shift/su_mean         0.000
_refine_ls_structure_factor_coef Fsqd
_refine_ls_weighting_details
'w=1/[\s^2^(Fo^2^)+(0.2000P)^2^] where P=(Fo^2^+2Fc^2^)/3'
_refine_ls_weighting_scheme      calc
_refine_ls_wR_factor_gt          0.2996
_refine_ls_wR_factor_ref         0.3149
_reflns_Friedel_coverage         1.000
_reflns_Friedel_fraction_full    0.195
_reflns_Friedel_fraction_max     0.186
_reflns_number_gt                558
_reflns_number_total             669
_reflns_threshold_expression     'I > 2\s(I)'
_cod_data_source_file            jz6b02458_si_004.cif
_cod_data_source_block           060GPa_P1
_cod_database_code               8000374
_shelx_space_group_comment
;
The symmetry employed for this shelxl refinement is uniquely defined
by the following loop, which should always be used as a source of
symmetry information in preference to the above space-group names.
They are only intended as comments.
;
_olex2_refinement_description
;
1. Fixed Uiso
 At 1.2 times of:
  All C(H,H) groups, H6 of C6, H2 of C2, H5 of C5, H3 of C3
 At 1.5 times of:
  All O(H) groups, H1WB of C13
2. Restrained distances
 C8-C4
 1.48 with sigma of 0.002
 C1-C7
 1.48 with sigma of 0.002
 O3-C8
 1.25 with sigma of 0.002
 C8-O4
 1.25 with sigma of 0.002
 O2-C7
 1.25 with sigma of 0.002
 O3-O4
 2.16 with sigma of 0.002
 O1-C7
 1.23 with sigma of 0.02
 C7-O2
 1.23 with sigma of 0.02
 O1-O2
 2.16 with sigma of 0.02
 O1-O2
 2.163 with sigma of 0.002
 N1-C11
 1.48 with sigma of 0.002
 N1-C9
 1.48 with sigma of 0.002
 N1-C13
 1.48 with sigma of 0.002
 C12-N2
 1.48 with sigma of 0.002
 N2-C10
 1.48 with sigma of 0.002
 N2-C14
 1.48 with sigma of 0.002
 C11-C12
 1.52 with sigma of 0.002
 C9-C10
 1.52 with sigma of 0.002
 C13-C14
 1.52 with sigma of 0.002
 C7-O1
 1.25 with sigma of 0.002
 O2-C7
 1.25 with sigma of 0.002
 O1W-H1WB
 0.97 with sigma of 0.001
 H1WB_$2-O3_$3
 1.9 with sigma of 0.001
3. Uiso/Uaniso restraints and constraints
Uiso(O2) = Uiso(O1) = Uiso(O4) = Uiso(O3)
4.a Secondary CH2 refined with riding coordinates:
 C11(H11A,H11B), C9(H9A,H9B), C12(H12A,H12B), C10(H10A,H10B), C14(H14A,H14B),
 C13(H13A,H13B)
4.b Aromatic/amide H refined with riding coordinates:
 C6(H6), C2(H2), C3(H3), C5(H5)
4.c Fitted hexagon refined as free rotating group:
 C6(C1,C2,C3,C4,C5)
4.d Idealised tetrahedral OH refined as rotating group:
 O1W(H1WA)
;
_shelx_hkl_file
;
  -1  -5   2  199.83  143.33   0
   0  -4   2  841.29   96.02   0
  -3  -6   1  494.77  223.06   0
  -2  -6   1  983.00  204.85   0
  -3  -5   1    9.98  195.25   0
  -2  -5   1  152.24  167.94   0
  -1  -5   1  219.01  140.88   0
  -3  -4   1 1627.75  182.75   0
  -2  -4   1  745.68  145.49   0
  -1  -4   1  967.23  119.51   0
   0  -4   1 1481.95  103.73   0
  -4  -3   1  132.70  187.27   0
  -3  -3   1 2149.45  169.89   0
  -1  -3   1 3337.78  116.85   0
   0  -3   116446.85  156.45   0
  -3  -2   1 1910.24  141.37   0
  -2  -2   1  561.54   92.20   0
  -1  -2   1 3445.43   89.22   0
  -3  -1   1 1821.46  112.68   0
  -2  -1   1 3507.38  100.38   0
  -3  -7   0  384.97  251.74   0
  -4  -6   0  263.66  258.37   0
  -3  -6   0  978.34  223.46   0
  -2  -6   0 1662.07  211.40   0
  -5  -5   0  -74.27  263.78   0
  -4  -5   0  227.49  218.36   0
  -3  -5   0 1014.02  211.16   0
  -2  -5   0  370.51  167.61   0
  -1  -5   0 1173.07  150.98   0
  -5  -4   0  571.49  229.32   0
  -4  -4   0  157.82  211.39   0
  -3  -4   0 1750.10  184.51   0
  -2  -4   0 5098.39  186.51   0
  -1  -4   0  480.58  118.91   0
   0  -4   010049.61  159.05   0
  -5  -3   0  687.04  216.95   0
  -4  -3   0 1530.04  185.02   0
  -3  -3   0 4493.16  186.58   0
  -2  -3   0 2178.97  131.46   0
  -1  -3   0 7671.09  147.79   0
   0  -3   044226.90  240.58   0
  -5  -2   0  149.63  193.36   0
  -4  -2   0  553.00  154.40   0
  -3  -2   0  960.71  128.64   0
  -2  -2   0 4688.92  128.05   0
  -1  -2   0 1157.07   70.89   0
  -5  -1   0 1050.46  171.61   0
  -4  -1   0 1398.39  146.52   0
  -3  -1   0 3392.38  130.13   0
  -2  -1   0 5230.98  109.17   0
  -4   0   0 2660.69  116.34   0
  -3   1   0 4507.30   99.89   0
  -3  -7  -1  496.71  254.51   0
  -4  -6  -1  325.72  248.90   0
  -3  -6  -1 1844.66  235.52   0
  -2  -6  -1 1354.86  209.20   0
  -5  -5  -1 -124.88  268.34   0
  -4  -5  -1  155.70  214.43   0
  -3  -5  -1  732.41  204.76   0
  -2  -5  -1  -33.00  177.76   0
  -1  -5  -1  481.60  150.04   0
  -6  -4  -1  365.30  274.49   0
  -5  -4  -1  637.75  243.98   0
  -4  -4  -1  679.92  224.57   0
  -3  -4  -1 2645.26  193.99   0
  -2  -4  -1 2558.43  168.64   0
  -1  -4  -1 1486.34  126.55   0
   0  -4  -1   97.75   87.09   0
  -6  -3  -1  590.00  249.50   0
  -5  -3  -1  480.42  218.37   0
  -4  -3  -1 1187.51  190.47   0
  -3  -3  -1 3838.14  177.31   0
  -2  -3  -1 4052.16  148.21   0
  -1  -3  -1 4129.50  127.73   0
   0  -3  -122510.60  189.82   0
  -6  -2  -1  329.70  220.81   0
  -5  -2  -1  158.15  187.45   0
  -4  -2  -1  685.10  158.25   0
  -3  -2  -1 2063.16  144.56   0
  -2  -2  -1  590.98   96.54   0
  -1  -2  -1 2368.62   84.21   0
  -5  -1  -1  360.15  159.03   0
  -4  -1  -1 1306.34  137.39   0
  -3  -1  -1 4103.76  136.00   0
  -2  -1  -1 8866.87  132.10   0
  -3   1  -1 5820.80  104.66   0
  -3  -7  -2  390.94  260.50   0
  -4  -6  -2  463.59  272.23   0
  -3  -6  -2 1552.80  244.68   0
  -2  -6  -2 3570.98  230.43   0
  -5  -5  -2  501.75  251.01   0
  -4  -5  -2   41.27  225.39   0
  -3  -5  -2  611.18  204.59   0
  -2  -5  -2 1515.16  187.01   0
  -6  -4  -2  577.93  271.57   0
  -5  -4  -2  695.29  242.00   0
  -4  -4  -2  925.46  227.82   0
  -3  -4  -2 3151.62  210.55   0
  -2  -4  -2 8446.34  220.11   0
  -6  -3  -2 1041.48  272.16   0
  -5  -3  -2 1259.89  221.38   0
  -4  -3  -2 1826.38  193.41   0
  -3  -3  -2 6011.08  207.63   0
  -2  -3  -2 7935.90  181.52   0
  -1  -3  -2 2367.48  115.57   0
  -6  -2  -2  610.11  225.62   0
  -5  -2  -2 1052.50  205.37   0
  -4  -2  -2  422.49  156.18   0
  -3  -2  -2 5532.21  170.28   0
  -2  -2  -2 6115.90  151.58   0
  -5  -1  -2 1218.80  171.17   0
  -4  -1  -2  982.09  135.87   0
  -3  -1  -214220.07  206.29   0
  -2  -1  -210834.90  154.13   0
  -5  -5  -3 1368.70  280.60   0
  -4  -5  -3  311.04  239.22   0
  -6  -4  -3  428.60  287.68   0
  -5  -4  -3 1011.77  241.09   0
  -4  -4  -3  475.57  212.80   0
  -3  -4  -3 1388.91  202.29   0
  -6  -3  -3 1086.24  262.79   0
  -5  -3  -3 2913.22  243.87   0
  -4  -3  -3 1074.75  193.81   0
  -3  -3  -3 3750.34  182.12   0
  -6  -2  -3  362.69  224.33   0
  -5  -2  -3 1816.43  211.91   0
  -4  -2  -3  929.12  171.07   0
  -3  -2  -3 1905.72  140.31   0
  -5  -1  -3 2217.58  177.56   0
  -4  -1  -3  -32.97  133.25   0
   4   1   3  176.24  139.04   1
   5   1   3 2304.04  191.82   1
   3   2   3 2212.38  156.46   1
   4   2   3  600.14  177.76   1
   5   2   3 1588.22  223.47   1
   3   3   3 3636.11  197.44   1
   4   3   3  970.59  211.35   1
   5   3   3 2807.99  264.31   1
   6   3   3  267.81  279.39   1
   3   4   3 1549.44  193.55   1
   4   4   3  459.67  219.96   1
   5   4   3  896.24  263.41   1
   6   4   3  201.77  292.05   1
   4   5   3  649.78  236.25   1
   5   5   3 1258.26  279.35   1
   2   1   211021.20  154.32   1
   3   1   214375.47  210.57   1
   4   1   2  814.24  151.95   1
   5   1   2 1266.21  186.45   1
   2   2   2 6942.93  162.50   1
   3   2   2 5463.46  182.27   1
   4   2   2  385.73  186.30   1
   5   2   2  850.95  216.49   1
   2   3   2 8630.93  198.21   1
   3   3   2 5413.77  207.81   1
   4   3   2 1614.76  214.07   1
   5   3   2 1391.14  255.07   1
   6   3   2  848.96  287.32   1
   2   4   2 7870.87  215.94   1
   3   4   2 3185.41  219.95   1
   4   4   2  775.26  228.71   1
   5   4   2  999.45  252.77   1
   6   4   2  781.33  309.65   1
   2   5   2 1174.04  192.40   1
   3   5   2  619.53  230.03   1
   4   5   2  297.87  257.00   1
   5   5   2  296.49  287.78   1
   2   6   2 3237.42  230.72   1
   3   6   2  944.39  238.30   1
   4   6   2  603.41  263.37   1
   3  -1   1 5758.06  112.86   1
   2   1   1 8551.71  139.03   1
   3   1   1 4754.17  147.19   1
   4   1   1 1181.50  159.56   1
   5   1   1  811.52  190.43   1
   1   2   1 2138.66   82.24   1
   2   2   1  413.37   97.48   1
   3   2   1 2412.25  154.64   1
   4   2   1  766.85  191.32   1
   5   2   1  438.73  220.23   1
   6   2   1  403.59  254.96   1
   0   3   122981.09  187.69   1
   1   3   1 4036.39  130.93   1
   2   3   1 4177.12  164.47   1
   3   3   1 4224.10  193.51   1
   4   3   1 1575.75  211.15   1
   5   3   1  799.56  259.72   1
   6   3   1  600.67  284.45   1
   1   4   1  989.57  129.29   1
   2   4   1 2609.53  173.34   1
   3   4   1 2634.77  221.39   1
   4   4   1  655.93  229.74   1
   5   4   1  502.43  258.57   1
   6   4   1  248.43  297.51   1
   1   5   1  524.17  146.54   1
   2   5   1  106.89  178.74   1
   3   5   1  828.36  216.97   1
   4   5   1   69.67  252.26   1
   5   5   1  224.87  276.56   1
   2   6   1 1267.94  214.87   1
   3   6   1 1699.20  258.27   1
   4   6   1  270.91  273.98   1
   3   7   1  564.23  263.97   1
   3  -1   0 4414.85  109.21   1
   4   0   0 2656.56  125.72   1
   2   1   0 5362.69  118.59   1
   3   1   0 3818.50  142.08   1
   4   1   0 1725.81  160.41   1
   5   1   0 1126.15  183.38   1
   1   2   0  943.41   71.07   1
   2   2   0 5075.69  142.37   1
   3   2   0 1052.58  150.45   1
   4   2   0  427.47  174.15   1
   5   2   0  139.44  226.29   1
   0   3   044009.50  247.66   1
   1   3   0 7703.03  156.36   1
   2   3   0 2079.78  148.37   1
   3   3   0 4247.65  206.71   1
   4   3   0 1530.70  222.69   1
   5   3   0  638.16  239.11   1
   0   4   0 9183.88  152.45   1
   1   4   0  647.00  122.28   1
   2   4   0 4408.74  189.17   1
   3   4   0 1622.48  202.91   1
   4   4   0  233.65  228.39   1
   5   4   0  448.19  261.48   1
   1   5   0 1234.36  159.43   1
   2   5   0  206.80  189.93   1
   3   5   0  989.07  224.99   1
   4   5   0  169.64  253.15   1
   5   5   0   -8.09  289.23   1
   2   6   0 1412.92  224.36   1
   3   6   0  815.26  247.50   1
   4   6   0   99.82  272.22   1
   3   7   0  286.47  277.09   1
   2   1  -1 3274.70  100.86   1
   1   2  -1 3846.26  100.81   1
   2   2  -1  308.90  107.98   1
   3   2  -1 2269.56  152.28   1
   0   3  -115997.86  162.10   1
   1   3  -1 3412.28  126.79   1
   3   3  -1 2219.61  190.74   1
   4   3  -1  122.77  197.38   1
   0   4  -1 1752.44  106.42   1
   1   4  -1  806.48  130.57   1
   2   4  -1  715.34  171.21   1
   3   4  -1 1182.62  215.79   1
   1   5  -1  391.40  151.82   1
   2   5  -1  206.34  188.03   1
   3   5  -1  -87.54  227.98   1
   2   6  -1  880.64  215.47   1
   3   6  -1  707.14  249.98   1
   0   4  -2 1090.59  109.22   1
   1   5  -2  197.63  154.41   1
  -2  -6   1  997.43  201.29   2
  -3  -5   1   56.03  195.36   2
  -2  -5   1   75.21  169.69   2
  -1  -5   1  243.45  142.28   2
  -3  -4   1 1658.50  201.63   2
  -2  -4   1  824.15  148.48   2
  -1  -4   1 1152.13  119.22   2
   0  -4   1 1313.01   99.91   2
  -3  -3   1 2160.64  163.19   2
  -1  -3   1 3356.40  123.89   2
   0  -3   116179.15  159.95   2
  -3  -2   1 1986.37  148.58   2
  -2  -2   1  608.13  104.51   2
  -1  -2   1 3658.43   96.63   2
  -3  -7   0  414.60  275.50   2
  -4  -6   0  111.49  270.73   2
  -3  -6   0  910.55  242.56   2
  -2  -6   0 1545.00  215.84   2
  -5  -5   0   -1.91  270.85   2
  -4  -5   0   67.58  243.62   2
  -3  -5   0  877.23  224.72   2
  -2  -5   0  256.24  175.28   2
  -1  -5   0  951.86  153.22   2
  -5  -4   0  473.54  233.38   2
  -4  -4   0  155.41  224.75   2
  -3  -4   0 1690.00  192.93   2
  -2  -4   0 5077.04  197.78   2
  -1  -4   0  748.74  120.06   2
   0  -4   0 9872.72  158.68   2
  -5  -3   0  552.59  233.85   2
  -4  -3   0 1410.79  201.02   2
  -3  -3   0 4522.84  197.60   2
  -2  -3   0 2149.04  131.59   2
  -1  -3   0 7928.34  155.04   2
   0  -3   043187.01  244.66   2
  -5  -2   0  169.15  204.40   2
  -4  -2   0  306.67  168.67   2
  -3  -2   0  750.68  127.49   2
  -2  -2   0 4791.21  129.19   2
  -1  -2   0 1098.16   75.30   2
  -4  -1   0 1370.77  143.87   2
  -3  -1   0 3683.88  132.92   2
  -2  -1   0 5294.49  115.83   2
  -4   0   0 3189.40  129.33   2
  -3  -7  -1  387.11  268.55   2
  -4  -6  -1  726.10  278.85   2
  -3  -6  -1 1496.62  247.34   2
  -2  -6  -1 1376.10  225.87   2
  -5  -5  -1    2.89  259.81   2
  -4  -5  -1   82.12  251.08   2
  -3  -5  -1  520.27  209.17   2
  -2  -5  -1  226.56  178.85   2
  -1  -5  -1  680.20  150.12   2
  -5  -4  -1  517.83  240.08   2
  -4  -4  -1  619.50  231.80   2
  -3  -4  -1 2657.80  216.44   2
  -2  -4  -1 2680.65  178.66   2
  -1  -4  -1 1415.83  127.20   2
   0  -4  -1  127.73   94.68   2
  -6  -3  -1  546.46  261.06   2
  -5  -3  -1  644.62  222.63   2
  -4  -3  -1 1447.10  198.58   2
  -3  -3  -1 3836.72  195.89   2
  -2  -3  -1 3906.40  148.59   2
  -1  -3  -1 3967.81  131.69   2
   0  -3  -123066.69  188.71   2
   1  -3  -1 4893.49   81.92   2
  -6  -2  -1  133.09  241.15   2
  -5  -2  -1  310.17  195.15   2
  -3  -2  -1 2310.76  145.82   2
  -2  -2  -1  494.04  103.36   2
  -1  -2  -1 2182.59   80.52   2
  -5  -1  -1  337.30  165.89   2
  -4  -1  -1 1272.82  148.42   2
  -3  -1  -1 4523.97  147.35   2
  -2  -1  -1 8998.66  140.37   2
  -1  -1  -1 1703.72   56.92   2
  -3   1  -1 5975.14  110.42   2
  -3  -7  -2  804.63  276.09   2
  -2  -7  -2  979.39  257.45   2
  -4  -6  -2  486.51  287.10   2
  -3  -6  -2 1398.70  245.80   2
  -2  -6  -2 3420.94  244.78   2
  -5  -5  -2  407.23  281.15   2
  -4  -5  -2  411.57  264.63   2
  -3  -5  -2  496.44  227.07   2
  -2  -5  -2 1421.43  188.46   2
  -1  -5  -2  336.84  152.81   2
  -5  -4  -2  687.11  267.65   2
  -4  -4  -2  859.52  225.21   2
  -3  -4  -2 3095.41  218.24   2
  -2  -4  -2 7833.29  212.20   2
  -6  -3  -2  779.11  291.91   2
  -5  -3  -2 1398.33  252.97   2
  -4  -3  -2 1814.61  225.99   2
  -3  -3  -2 5766.80  213.05   2
  -2  -3  -2 8284.83  185.91   2
  -1  -3  -2 2084.41  117.97   2
  -6  -2  -2  508.19  245.27   2
  -5  -2  -2 1281.45  215.19   2
  -4  -2  -2  461.41  181.94   2
  -3  -2  -2 4931.70  176.71   2
  -2  -2  -2 6367.49  151.11   2
  -5  -1  -2  926.99  183.56   2
  -4  -1  -2  855.99  150.00   2
  -3  -1  -214623.77  212.01   2
  -2  -1  -210749.70  153.81   2
  -3   1  -216224.15  167.13   2
  -5  -5  -3  801.08  280.74   2
  -4  -5  -3  801.05  243.78   2
  -3  -5  -3  281.42  220.88   2
  -5  -4  -3 1088.34  258.43   2
  -4  -4  -3  650.85  217.04   2
  -3  -4  -3 1174.13  216.54   2
  -6  -3  -3 -486.87  293.09   2
  -5  -3  -3 3136.59  273.73   2
  -4  -3  -3 1200.75  224.04   2
  -3  -3  -3 3732.38  200.46   2
  -5  -2  -3 1776.30  223.14   2
  -4  -2  -3  703.56  189.09   2
  -3  -2  -3 1645.92  151.26   2
  -5  -1  -3 2045.07  199.19   2
  -4  -1  -3  -72.37  152.11   2
  -3  -1  -3 3589.69  147.95   2
   3   1   3 3361.20  148.44   3
   5   1   3 2259.09  218.89   3
   3   2   3 1891.94  160.38   3
   4   2   3  702.53  203.47   3
   5   2   3 1713.21  233.41   3
   6   2   3  835.77  287.15   3
   3   3   3 3730.95  215.67   3
   4   3   3 1154.06  238.66   3
   5   3   3 2766.92  292.51   3
   6   3   3  -10.80  314.86   3
   4   4   3  613.78  230.05   3
   5   4   3 1071.11  273.81   3
   3   5   3  170.46  217.94   3
   4   5   3  296.20  247.83   3
   5   5   3 1016.37  297.94   3
   3  -1   216457.35  171.31   3
   2   1   211109.50  159.21   3
   3   1   213460.58  215.80   3
   4   1   2  844.83  152.96   3
   5   1   2  939.33  198.41   3
   2   2   2 6802.40  158.10   3
   3   2   2 5190.56  184.58   3
   4   2   2  472.70  194.08   3
   5   2   2 1314.19  239.84   3
   6   2   2  377.06  274.67   3
   1   3   2 2221.35  124.02   3
   2   3   2 8245.03  189.23   3
   3   3   2 5744.11  223.22   3
   4   3   2 1533.42  234.61   3
   5   3   2 1037.57  278.17   3
   6   3   2 1433.84  347.33   3
   1   4   2  971.79  137.31   3
   2   4   2 7980.46  219.39   3
   3   4   2 3088.04  228.98   3
   4   4   2  638.61  235.18   3
   5   4   2  813.54  291.39   3
   1   5   2  292.81  158.06   3
   2   5   2 1485.47  195.94   3
   3   5   2  116.77  235.19   3
   4   5   2  373.29  280.22   3
   5   5   2  399.33  306.52   3
   2   6   2 3308.49  243.25   3
   3   6   2 1099.31  251.81   3
   4   6   2  748.17  308.52   3
   3   7   2  517.10  291.41   3
   3  -1   1 5769.15  113.52   3
   1   1   1 1185.92   53.74   3
   2   1   1 8922.80  144.83   3
   3   1   1 4431.63  153.99   3
   4   1   1 1527.34  163.00   3
   5   1   1  519.04  196.12   3
   1   2   1 2183.31   81.10   3
   2   2   1  479.46  110.03   3
   3   2   1 2531.03  154.24   3
   4   2   1 1885.28  208.03   3
   5   2   1  132.79  207.85   3
   6   2   1   41.37  268.48   3
   0   3   123407.79  193.46   3
   1   3   1 3478.98  138.11   3
   2   3   1 3650.01  151.70   3
   3   3   1 4068.34  206.41   3
   4   3   1 1223.61  208.96   3
   5   3   1  629.55  240.69   3
   6   3   1  602.27  289.70   3
   1   4   1 1163.80  135.30   3
   2   4   1 2232.39  186.76   3
   3   4   1 2586.28  233.94   3
   4   4   1  893.00  253.79   3
   5   4   1  753.69  266.71   3
   1   5   1  619.21  158.57   3
   2   5   1  403.65  191.94   3
   3   5   1  760.11  225.47   3
   4   5   1   16.22  272.48   3
   5   5   1  -12.30  278.79   3
   2   6   1  927.00  238.05   3
   3   6   1 1475.25  269.77   3
   4   6   1  422.60  295.42   3
   3   7   1  450.13  279.90   3
   4   0   0 2020.80  107.29   3
   2   1   0 5176.79  118.93   3
   3   1   0 3823.48  139.88   3
   4   1   0 1453.74  159.27   3
   1   2   0  975.59   76.93   3
   2   2   0 4710.68  134.72   3
   3   2   0 1187.79  136.92   3
   4   2   0  350.92  181.71   3
   5   2   0  190.90  229.71   3
   0   3   044474.40  250.24   3
   1   3   0 7351.27  155.91   3
   2   3   0 2450.72  141.69   3
   3   3   0 4597.38  211.16   3
   4   3   0 1496.85  220.46   3
   5   3   0  189.07  266.84   3
   0   4   0 9144.55  156.79   3
   1   4   0  621.98  125.22   3
   2   4   0 4704.81  205.73   3
   3   4   0 1475.15  206.04   3
   4   4   0  195.36  249.09   3
   5   4   0  466.50  261.68   3
   1   5   0 1010.46  164.30   3
   2   5   0  181.34  183.12   3
   3   5   0 1171.31  247.36   3
   4   5   0   -8.21  266.53   3
   5   5   0  -23.36  310.84   3
   2   6   0 1458.81  221.43   3
   3   6   0  823.96  257.85   3
   4   6   0  150.64  300.75   3
   3   7   0  373.96  293.50   3
   1   2  -1 3826.78  103.84   3
   2   2  -1  483.68  111.89   3
   3   2  -1 2233.19  164.94   3
   0   3  -116350.55  165.03   3
   1   3  -1 2935.34  129.84   3
   3   3  -1 1970.22  173.67   3
   0   4  -1 1778.51  106.64   3
   1   4  -1  936.11  123.64   3
   2   4  -1  571.62  152.68   3
   3   4  -1 1219.97  219.27   3
   1   5  -1  510.81  151.53   3
   2   5  -1   -0.46  174.07   3
   3   5  -1   72.56  210.43   3
   2   6  -1  874.69  213.67   3
   3   2   3 1788.56  131.39   4
   3   3   3 3287.93  185.66   4
   3   4   3 1793.46  203.81   4
   4   4   3  177.77  220.69   4
   3   5   3  286.89  233.50   4
   4   5   3  364.22  253.49   4
   3   1   214222.37  171.51   4
   2   2   2 6901.08  146.73   4
   3   2   2 5423.40  155.72   4
   1   3   2 2565.01  131.90   4
   2   3   2 9353.64  192.27   4
   3   3   2 5722.08  196.40   4
   1   4   2 1153.52  148.52   4
   2   4   2 7974.24  224.76   4
   3   4   2 3567.82  213.80   4
   4   4   2  597.29  222.82   4
   1   5   2  486.81  194.59   4
   2   5   2 1483.76  228.46   4
   3   5   2  771.67  240.05   4
   4   5   2  321.80  237.99   4
   0   6   2  494.80  211.61   4
   1   6   2 1036.07  248.51   4
   2   6   2 3063.05  278.03   4
   3   6   2 1240.99  278.02   4
   4   6   2  442.97  289.18   4
   1   7   2  315.31  283.81   4
   2   7   2  939.26  304.07   4
   3   7   2  674.72  294.07   4
   2   1   1 9166.95  119.52   4
   3   1   1 4405.62  116.55   4
   1   2   1 2175.74   85.03   4
   2   2   1  606.50   98.07   4
   3   2   1 2502.31  132.16   4
  -1   3   1 4641.37  113.97   4
   0   3   123061.49  221.08   4
   1   3   1 4046.69  144.48   4
   2   3   1 4200.24  164.76   4
   3   3   1 4140.37  183.34   4
  -2   4   1 1847.35  126.92   4
  -1   4   1 2903.69  138.91   4
   0   4   1   42.11  129.74   4
   1   4   1 1266.67  145.21   4
   2   4   1 2021.75  176.14   4
   3   4   1 2487.26  203.01   4
   4   4   1  506.14  215.77   4
  -1   5   1 1482.84  172.54   4
   0   5   1 4111.73  198.26   4
   1   5   1  513.77  200.30   4
   2   5   1  339.68  201.68   4
   3   5   1  797.37  238.30   4
   4   5   1   14.37  230.58   4
  -1   6   1  789.67  200.42   4
   0   6   1 1094.83  213.70   4
   1   6   1  895.60  241.82   4
   2   6   1 1081.73  244.40   4
   3   6   1 1551.05  280.72   4
   4   6   1  185.37  275.71   4
  -1   7   1  743.07  241.32   4
   0   7   1  505.72  259.59   4
   1   7   1  284.93  256.44   4
   2   7   1  326.00  271.82   4
   3   7   1  568.85  287.42   4
   0   8   1  255.18  189.26   4
   1   8   1   28.06  377.50   4
   2   1   0 4985.62   94.05   4
   0   2   098391.21  347.50   4
   1   2   0  863.12   77.56   4
   2   2   0 4931.67  126.26   4
   3   2   0 1330.34  115.86   4
  -2   3   0 2042.04   88.31   4
  -1   3   026299.06  216.51   4
   0   3   043246.91  296.33   4
   1   3   0 7824.10  177.33   4
   2   3   0 2417.82  143.13   4
   3   3   0 4364.67  180.86   4
  -1   4   012498.19  199.88   4
   0   4   0 8590.88  199.20   4
   1   4   0  580.87  137.08   4
   2   4   0 4450.48  195.57   4
   3   4   0 1664.31  192.23   4
   4   4   0  554.26  205.67   4
  -1   5   0 7523.76  212.34   4
   0   5   0 7205.46  230.29   4
   1   5   0  848.41  187.86   4
   2   5   0  311.55  196.77   4
   3   5   0  864.33  221.34   4
   4   5   0  177.49  228.99   4
  -1   6   0 4813.96  235.38   4
   0   6   0 2633.81  224.75   4
   1   6   0  957.15  242.54   4
   2   6   0 1621.15  268.05   4
   3   6   0  985.50  263.34   4
   4   6   0  326.67  272.93   4
  -1   7   0 1496.55  243.99   4
   0   7   0 1220.21  243.99   4
   1   7   0  212.28  263.71   4
   2   7   0  -33.42  280.25   4
   3   7   0   80.83  299.54   4
   0   8   0  907.31  209.26   4
   1   8   0  251.13  305.90   4
   0   2  -1 3730.72   88.77   4
   1   2  -1 3610.08   99.31   4
   2   2  -1  403.13   91.22   4
  -2   3  -1 2657.60   87.17   4
  -1   3  -110109.11  146.12   4
   0   3  -116471.65  194.07   4
   1   3  -1 3535.15  143.66   4
  -1   4  -1  699.22  115.41   4
   0   4  -1 2030.22  135.15   4
   1   4  -1  950.27  143.15   4
   2   4  -1  859.32  176.59   4
   3   4  -1 1369.95  199.19   4
  -1   5  -1 2203.34  164.84   4
   0   5  -1 3215.49  198.70   4
   1   5  -1  259.91  174.37   4
   2   5  -1  -25.91  187.79   4
   3   5  -1 -162.15  218.88   4
  -1   6  -1  171.00  183.02   4
   0   6  -1 1654.73  213.07   4
   1   6  -1  606.78  214.25   4
   2   6  -1  929.80  256.99   4
   3   6  -1  444.73  247.09   4
  -1   7  -1  657.75  221.33   4
   0   7  -1  773.23  238.96   4
   1   7  -1  153.38  266.14   4
   2   7  -1  414.21  288.98   4
   0   8  -1  476.42  215.37   4
   1   8  -1  124.17  220.48   4
  -1   4  -2  746.61  113.28   4
   0   4  -2 1055.79  133.46   4
   0   5  -2  892.42  176.06   4
   1   5  -2   74.74  172.33   4
  -1   6  -2 1038.10  193.02   4
   0   6  -2  859.59  201.60   4
   1   6  -2  949.32  237.66   4
  -3  -2   1 2025.81  135.17   5
  -3  -1   1 1731.07  126.77   5
  -2  -1   1 3383.41   98.48   5
  -4  -4   0  243.82  187.16   5
  -3  -4   0 1958.18  160.33   5
  -5  -3   0  505.14  215.76   5
  -4  -3   0 1610.65  188.57   5
  -3  -3   0 4696.56  170.74   5
  -2  -3   0 2167.94  113.02   5
  -1  -3   0 7533.13  111.09   5
  -5  -2   0  430.64  202.73   5
  -4  -2   0  447.58  174.04   5
  -3  -2   0 1069.19  127.83   5
  -2  -2   0 5048.97  124.89   5
  -1  -2   0  962.88   57.01   5
  -6  -1   0  710.59  208.50   5
  -5  -1   0 1583.26  197.75   5
  -4  -1   0 1119.30  158.05   5
  -3  -1   0 3924.77  143.54   5
  -2  -1   0 5151.14  110.16   5
  -5   0   0 1421.98  183.24   5
  -5   1   0  372.72  181.16   5
  -4   1   0 1695.02  148.32   5
  -3   1   0 4214.99  132.08   5
  -2   1   0 4778.99   93.87   5
  -4   2   0  557.78  128.77   5
  -3   2   0 1589.31  103.01   5
  -2   2   0  678.43   60.34   5
  -6  -4  -1  707.13  281.61   5
  -5  -4  -1  400.22  233.53   5
  -4  -4  -1  705.80  198.25   5
  -3  -4  -1 2787.31  170.31   5
  -6  -3  -1  600.62  266.34   5
  -5  -3  -1  352.96  222.89   5
  -4  -3  -1  947.93  196.15   5
  -3  -3  -1 3907.97  169.56   5
  -2  -3  -1 4291.08  133.53   5
  -1  -3  -1 4279.79   98.06   5
  -6  -2  -1  549.15  247.42   5
  -5  -2  -1  192.12  211.30   5
  -3  -2  -1 1974.42  145.25   5
  -2  -2  -1  612.46   89.74   5
  -1  -2  -1 2174.04   68.02   5
  -6  -1  -1 1215.26  237.91   5
  -5  -1  -1  451.34  192.01   5
  -4  -1  -1 1174.62  161.56   5
  -3  -1  -1 4581.20  153.73   5
  -2  -1  -1 8908.32  138.90   5
  -6   0  -1  850.98  212.64   5
  -6   1  -1 1525.30  232.75   5
  -5   1  -1  473.34  188.02   5
  -4   1  -1 1415.14  151.26   5
  -3   1  -1 5845.47  144.29   5
  -2   1  -1 6611.25  108.16   5
  -6   2  -1  105.89  208.77   5
  -5   2  -1  229.91  174.49   5
  -4   2  -1 1241.50  141.65   5
  -3   2  -1 1756.49  107.19   5
  -2   2  -1 1238.22   66.19   5
  -6  -4  -2  334.26  290.41   5
  -5  -4  -2  707.40  235.13   5
  -4  -4  -2  705.36  204.51   5
  -3  -4  -2 3475.76  185.88   5
  -6  -3  -2 -175.45  303.17   5
  -5  -3  -2 1243.85  236.74   5
  -4  -3  -2 1774.98  202.77   5
  -3  -3  -2 5719.52  187.60   5
  -2  -3  -2 8867.75  166.64   5
  -6  -2  -2  392.49  267.94   5
  -5  -2  -2 1473.37  232.92   5
  -4  -2  -2  519.60  175.10   5
  -3  -2  -2 5496.21  176.86   5
  -2  -2  -2 6973.30  144.63   5
  -6  -1  -2  998.60  265.34   5
  -5  -1  -2 1200.87  202.10   5
  -4  -1  -2  986.87  169.78   5
  -3  -1  -213563.18  220.05   5
  -2  -1  -210870.00  153.79   5
  -6   0  -2  925.20  203.51   5
  -7   1  -2  358.59  276.64   5
  -6   1  -2  694.20  233.51   5
  -5   1  -2 1162.34  197.28   5
  -4   1  -2 1366.99  155.69   5
  -3   1  -215674.06  207.07   5
  -6   2  -2  602.23  220.60   5
  -5   2  -2  615.82  185.38   5
  -4   2  -2  671.86  144.41   5
  -3   2  -2 8761.20  163.38   5
  -6  -4  -3  372.38  300.96   5
  -5  -4  -3  738.33  255.11   5
  -4  -4  -3  575.79  210.17   5
  -3  -4  -3 1434.56  178.23   5
  -6  -3  -3  523.72  290.18   5
  -4  -3  -3 1017.95  203.62   5
  -3  -3  -3 3403.16  181.18   5
  -6  -2  -3  170.18  263.92   5
  -5  -2  -3 1826.96  235.47   5
  -4  -2  -3  646.19  193.42   5
  -3  -2  -3 1654.16  149.41   5
  -5  -1  -3 1880.55  224.13   5
  -3  -1  -3 3759.31  156.28   5
  -7   1  -3  157.72  280.81   5
  -6   1  -3 1222.73  246.01   5
  -5   1  -3 1333.77  204.35   5
  -3   1  -3 3040.05  138.97   5
  -5   2  -3  758.43  196.26   5
  -4   2  -3  689.97  149.57   5
  -3   2  -3 1476.70  118.49   5
   5  -2   3  875.64  193.81   6
   4  -1   3  483.11  151.60   6
   5  -1   3 1529.24  209.35   6
   6  -1   3 1762.93  246.96   6
   7  -1   3  225.90  292.43   6
   7   0   3  327.44  228.58   6
   3   1   3 3858.07  155.55   6
   4   1   3  267.84  167.48   6
   5   1   3 1858.81  219.89   6
   6   1   3  964.11  253.47   6
   3   2   3 1473.75  142.32   6
   4   2   3  725.36  192.51   6
   5   2   3 1910.67  238.37   6
   6   2   3  492.36  275.27   6
   4   3   3  907.04  198.57   6
   5   3   3 2968.84  265.11   6
   6   3   3  565.79  285.82   6
   3  -2   2 9063.42  168.08   6
   4  -2   2 1039.71  155.75   6
   5  -2   2 1069.13  196.70   6
   2  -1   2 6133.73  112.12   6
   3  -1   215705.06  213.60   6
   4  -1   2 1243.52  161.16   6
   5  -1   2 1213.15  211.76   6
   6  -1   2  945.41  244.80   6
   7  -1   2  640.68  292.43   6
   6   0   2  913.50  185.38   6
   7   0   2  582.75  232.96   6
   2   1   211112.00  161.98   6
   3   1   213824.08  221.71   6
   4   1   2  898.90  165.28   6
   5   1   2 1280.78  216.77   6
   6   1   2 1039.63  261.51   6
   7   1   2  487.41  303.75   6
   2   2   2 7417.30  149.65   6
   3   2   2 5498.79  176.50   6
   4   2   2  814.51  190.55   6
   5   2   2  996.21  235.66   6
   6   2   2  625.51  279.60   6
   2   3   2 8567.69  170.35   6
   3   3   2 5452.94  189.61   6
   4   3   2 1533.32  210.83   6
   5   3   2 1088.62  257.23   6
   6   3   2 -469.53  315.32   6
   3   4   2 3171.41  181.85   6
   4   4   2  484.14  205.39   6
   5   4   2  646.94  241.50   6
   6   4   2  613.65  295.79   6
   2  -2   1 1097.58   66.14   6
   3  -2   1 2181.44  120.36   6
   4  -2   1 1526.12  157.15   6
   5  -2   1  311.83  189.08   6
   6  -2   1  104.40  237.04   6
   2  -1   1 6560.55  110.32   6
   3  -1   1 5907.21  152.13   6
   4  -1   1 1392.96  168.68   6
   5  -1   1  490.82  205.42   6
   6  -1   1 1963.61  256.27   6
   7  -1   1  142.61  294.28   6
   6   0   1 1004.14  225.28   6
   7   0   1  157.42  217.77   6
   2   1   1 8916.21  140.33   6
   3   1   1 4423.99  163.29   6
   4   1   1 1035.21  177.81   6
   5   1   1  370.10  212.72   6
   6   1   1 1472.81  255.15   6
   7   1   1  213.85  373.09   6
   2   2   1  526.28   94.52   6
   3   2   1 2477.00  150.26   6
   4   2   1  202.31  207.94   6
   5   2   1  -31.80  233.10   6
   6   2   1  597.54  270.10   6
   1   3   1 3586.20   95.54   6
   2   3   1 3895.08  135.42   6
   3   3   1 4085.49  180.12   6
   4   3   1 1903.23  202.62   6
   5   3   1  805.07  242.58   6
   6   3   1  643.66  306.37   6
   3   4   1 2607.61  180.99   6
   4   4   1  567.70  213.61   6
   5   4   1  373.72  243.66   6
   6   4   1  374.90  299.56   6
   3  -2   0 1792.96  116.48   6
   4  -2   0  614.15  152.26   6
   5  -2   0  281.13  190.85   6
   2  -1   0 4499.20   97.31   6
   3  -1   0 4904.87  143.15   6
   4  -1   0 1985.10  166.60   6
   5  -1   0  553.72  201.41   6
   5   0   0  631.98  158.98   6
   2   1   0 5295.84  117.28   6
   3   1   0 3794.90  144.64   6
   4   1   0 1596.91  169.45   6
   5   1   0  602.64  191.08   6
   6   1   0 1209.67  278.81   6
   2   2   0 4968.37  129.25   6
   3   2   0 1264.77  146.89   6
   4   2   0  513.85  181.16   6
   5   2   0  141.56  222.77   6
   1   3   0 7157.27  119.89   6
   2   3   0 2241.04  121.76   6
   3   3   0 4460.08  184.42   6
   4   3   0 1312.11  205.24   6
   5   3   0  421.77  237.63   6
   3   4   0 1457.86  174.08   6
   4   4   0   70.28  206.39   6
   5   4   0  434.43  257.01   6
   2   1  -1 3094.44  100.19   6
   3   1  -1 1741.71  134.72   6
   1   2  -1 3787.04   83.05   6
   2   2  -1  564.55   91.60   6
   3   2  -1 2069.50  152.74   6
   1   3  -1 3626.31   97.48   6
   3   3  -1 1991.94  167.76   6
   4   3  -1   37.64  190.71   6
   3   4  -1 1474.22  176.10   6
  -1  -6   2  598.89  218.12   7
   0  -6   2  716.50  189.85   7
   1  -6   2  530.27  182.58   7
  -1  -5   2  191.41  154.17   7
   0  -5   2  852.47  156.24   7
   0  -4   2  945.83  122.85   7
   1  -4   2  934.99  113.78   7
   1  -3   2 3003.00  105.93   7
   2  -3   2 3430.22   98.27   7
  -1  -8   1  207.97  227.33   7
   0  -8   1  330.10  208.83   7
  -2  -7   1  224.73  239.90   7
  -1  -7   1   19.77  245.67   7
   0  -7   1  718.57  214.00   7
  -3  -6   1  686.61  235.55   7
  -2  -6   1  788.04  229.90   7
  -1  -6   1  597.09  197.01   7
   0  -6   1 1333.33  205.60   7
   1  -6   1  430.92  177.21   7
  -3  -5   1  234.33  204.29   7
  -2  -5   1  -49.56  184.21   7
  -1  -5   1  200.87  162.48   7
   0  -5   1 3358.69  182.08   7
   1  -5   1 2194.97  157.73   7
  -3  -4   1 1523.11  183.60   7
  -2  -4   1  484.56  154.32   7
  -1  -4   1 1003.58  128.55   7
   0  -4   1 1451.72  131.60   7
   1  -4   1  960.82  111.14   7
  -4  -3   1   53.24  152.93   7
  -3  -3   1 1988.14  153.87   7
  -1  -3   1 3416.37  124.89   7
   0  -3   116286.95  187.74   7
   1  -3   110248.01  144.19   7
   2  -3   1 2784.56   87.84   7
  -3  -2   1 2171.61  120.29   7
  -2  -2   1  591.97   83.62   7
  -1  -2   1 3468.88   92.06   7
   0  -2   1 3077.98   78.72   7
  -1  -8   0  108.10  169.63   7
   0  -8   0 1128.42  202.58   7
  -3  -7   0  550.95  254.68   7
  -2  -7   0  484.64  254.57   7
  -1  -7   0  575.89  233.47   7
   0  -7   0 1389.89  223.58   7
   1  -7   0 1624.22  220.16   7
  -4  -6   0  248.14  245.97   7
  -3  -6   0  934.72  243.31   7
  -2  -6   0 1725.96  234.75   7
  -1  -6   0 1182.03  209.16   7
   0  -6   0 2986.91  211.73   7
   1  -6   0 5756.71  219.58   7
  -4  -5   0  131.95  208.75   7
  -3  -5   0  947.96  202.23   7
  -2  -5   0  233.24  178.76   7
  -1  -5   0 1257.29  176.85   7
   0  -5   0 7454.14  215.02   7
   1  -5   0 7504.91  199.70   7
  -4  -4   0  429.57  184.45   7
  -3  -4   0 1661.58  172.26   7
  -2  -4   0 5280.11  197.60   7
  -1  -4   0  449.89  143.14   7
   0  -4   0 9761.64  194.13   7
   1  -4   011207.80  184.97   7
  -3  -3   0 4262.72  167.17   7
  -2  -3   0 2223.27  128.19   7
  -1  -3   0 7762.85  163.28   7
   0  -3   043558.51  288.87   7
   1  -3   025169.07  207.80   7
  -3  -2   0 1028.24  106.12   7
  -2  -2   0 4929.96  122.72   7
  -1  -2   0 1100.72   67.91   7
   0  -2   099310.01  339.53   7
  -3  -1   0 3832.59  100.33   7
  -2  -1   0 5390.32   92.86   7
  -1  -8  -1  321.40  226.95   7
  -3  -7  -1  437.10  247.15   7
  -2  -7  -1  451.35  235.58   7
  -1  -7  -1  168.84  239.90   7
   0  -7  -1  950.07  215.25   7
  -4  -6  -1  516.51  245.85   7
  -3  -6  -1 1435.63  247.46   7
  -2  -6  -1  957.50  233.59   7
  -1  -6  -1  940.02  194.54   7
   0  -6  -1  984.35  192.91   7
   1  -6  -1 1073.31  174.79   7
  -4  -5  -1    3.86  203.94   7
  -3  -5  -1  733.38  208.32   7
  -2  -5  -1  365.03  183.77   7
  -1  -5  -1  377.28  162.73   7
   0  -5  -1 4427.05  187.46   7
   1  -5  -1 1547.72  149.19   7
  -4  -4  -1  979.72  191.00   7
  -3  -4  -1 2579.43  187.14   7
  -2  -4  -1 2335.50  174.02   7
  -1  -4  -1 1382.44  148.34   7
   0  -4  -1   27.70  113.33   7
   1  -4  -1 3299.21  126.75   7
  -3  -3  -1 3606.20  159.76   7
  -2  -3  -1 4174.53  150.40   7
  -1  -3  -1 3962.77  129.47   7
   0  -3  -123336.79  219.24   7
  -3  -2  -1 2292.99  115.29   7
  -2  -2  -1  584.19   82.54   7
  -1  -2  -1 2158.57   85.64   7
   0  -2  -1  135.60   49.77   7
  -3  -1  -1 4526.24  109.68   7
  -3  -7  -2  686.52  260.33   7
  -2  -7  -2 1235.70  243.58   7
  -4  -6  -2  208.31  245.12   7
  -3  -6  -2 1093.15  223.33   7
  -2  -6  -2 3384.68  249.96   7
  -1  -6  -2  801.13  210.36   7
  -4  -5  -2  577.96  201.38   7
  -3  -5  -2  455.35  193.35   7
  -2  -5  -2 1263.60  199.15   7
  -1  -5  -2  486.01  160.39   7
  -4  -4  -2  578.12  182.48   7
  -3  -4  -2 3127.93  186.83   7
  -2  -4  -2 8031.26  217.03   7
  -1  -4  -2 1044.77  143.08   7
  -3  -3  -2 5707.05  177.46   7
  -2  -3  -2 8518.52  176.90   7
  -1  -3  -2 2331.52  111.93   7
  -3  -2  -2 5303.96  137.59   7
  -2  -2  -2 6809.34  136.65   7
   2  -6   3 1121.06  216.08   8
   3  -6   3 1409.94  234.21   8
   2  -5   3  163.87  160.29   8
   3  -5   3  268.65  178.77   8
   2  -4   3 2697.32  165.92   8
   3  -4   3 2127.90  162.50   8
   3  -3   3 3301.18  143.52   8
   3  -2   3 1371.33   98.69   8
   1  -8   2  159.31  184.90   8
   2  -8   2  287.25  218.02   8
   1  -7   2  305.30  228.54   8
   2  -7   2  314.93  248.27   8
   3  -7   2  628.91  268.88   8
  -1  -6   2  673.92  186.97   8
   0  -6   2  826.29  184.97   8
   1  -6   2  730.59  184.63   8
   2  -6   2  620.77  220.89   8
   3  -6   2 2427.05  240.66   8
  -1  -5   2  -37.45  152.13   8
   0  -5   2 1111.43  151.69   8
   2  -5   2  356.45  162.31   8
   3  -5   2 1186.99  195.13   8
   0  -4   2 1029.38  127.80   8
   1  -4   2 1070.80  132.45   8
   2  -4   2 2323.18  159.14   8
   3  -4   2 7305.51  198.83   8
   1  -3   2 3109.48  119.08   8
   2  -3   2 3354.38  124.94   8
   3  -3   2 9123.36  179.23   8
   2  -2   2 2461.09   92.21   8
   3  -2   2 8869.96  144.85   8
  -1  -8   1  102.64  207.58   8
   0  -8   1  435.46  216.67   8
   1  -8   1  313.90  190.46   8
   2  -8   1  -16.56  250.98   8
  -1  -7   1  113.82  214.50   8
   0  -7   1  619.62  232.97   8
   1  -7   1  423.92  239.59   8
   2  -7   1  350.92  218.60   8
   3  -7   1  -26.49  251.20   8
  -1  -6   1  672.60  185.92   8
   0  -6   1 1365.46  193.53   8
   1  -6   1  252.04  203.83   8
   2  -6   1 1473.77  201.80   8
   3  -6   1 1409.95  207.71   8
  -2  -5   1  -78.08  146.86   8
  -1  -5   1  470.34  150.39   8
   0  -5   1 3168.14  179.96   8
   1  -5   1 2166.48  180.29   8
   2  -5   1  134.99  175.86   8
   3  -5   1  143.89  181.84   8
  -2  -4   1  844.38  125.74   8
  -1  -4   1  953.47  126.73   8
   0  -4   1 1555.65  131.48   8
   1  -4   1  967.61  133.23   8
   2  -4   1 2609.67  167.63   8
   3  -4   1 3106.56  165.20   8
  -1  -3   1 3260.41  111.01   8
   0  -3   116548.85  191.63   8
   1  -3   1 9759.05  163.70   8
   2  -3   1 2753.89  117.09   8
   3  -3   1 4349.14  144.16   8
  -2  -2   1  463.13   61.36   8
  -1  -2   1 3497.62   82.08   8
   0  -2   1 2958.06   76.09   8
   1  -2   1 4917.77   96.97   8
   2  -2   1 1073.31   74.99   8
   3  -2   1 2189.07   92.69   8
  -1  -8   0 -121.33  237.25   8
   0  -8   0 1129.91  207.40   8
   1  -8   0 1396.28  214.46   8
  -1  -7   0  411.53  213.50   8
   0  -7   0 1476.48  239.26   8
   1  -7   0 1803.23  248.71   8
   2  -7   0  617.22  221.06   8
   3  -7   0  323.31  218.47   8
  -1  -6   0  865.18  190.61   8
   0  -6   0 3053.13  225.19   8
   1  -6   0 5702.82  238.50   8
   2  -6   0  809.30  188.53   8
   3  -6   0 1400.21  204.05   8
  -1  -5   0 1192.52  156.12   8
   0  -5   0 7629.78  220.15   8
   1  -5   0 7071.59  222.60   8
   2  -5   0  205.83  165.94   8
   3  -5   0  435.87  171.38   8
  -2  -4   0 5154.20  157.15   8
  -1  -4   0  219.84  121.73   8
   0  -4   0 9556.89  193.58   8
   1  -4   011120.20  212.66   8
   2  -4   0 1094.07  137.51   8
   3  -4   0 3171.38  156.64   8
  -2  -3   0 2353.44  104.38   8
  -1  -3   0 7987.36  140.73   8
   0  -3   042913.51  284.98   8
   1  -3   025828.87  238.64   8
   2  -3   0 1925.81  111.41   8
   3  -3   0 4447.27  136.10   8
   0  -2   099999.00  341.23   8
   1  -2   028680.54  197.20   8
   2  -2   0  827.26   70.36   8
  -1  -8  -1  385.37  274.74   8
   0  -8  -1  279.20  195.07   8
  -1  -7  -1  320.31  195.25   8
   0  -7  -1  654.83  210.95   8
   1  -7  -1  821.69  209.27   8
   2  -7  -1  177.28  214.93   8
  -1  -6  -1  961.42  181.97   8
   0  -6  -1 1189.65  194.14   8
   1  -6  -1  383.51  200.82   8
   2  -6  -1 1447.36  212.48   8
  -1  -5  -1  610.67  142.99   8
   0  -5  -1 4635.65  182.16   8
   1  -5  -1 1738.93  170.33   8
   2  -5  -1  485.32  166.87   8
  -2  -4  -1 2714.91  134.96   8
  -1  -4  -1 1291.22  121.40   8
   0  -4  -1   77.01  117.25   8
   1  -4  -1 3146.73  143.78   8
   2  -4  -1 2007.64  135.56   8
  -2  -3  -1 4237.60  114.63   8
  -1  -3  -1 3895.71  114.70   8
   0  -3  -123028.19  218.23   8
   1  -3  -1 4774.06  128.23   8
  -1  -2  -1 2189.52   66.00   8
   0  -2  -1  142.73   45.51   8
   1  -2  -112442.59  138.83   8
  -1  -5  -2  243.13  137.91   8
   5  -5   3  146.97  225.35   9
   6  -5   3  827.61  265.46   9
   4  -4   3  709.67  177.68   9
   5  -4   3  591.54  207.83   9
   6  -4   3 1024.98  251.83   9
   3  -3   3 3763.90  159.31   9
   4  -3   3 1721.28  191.86   9
   5  -3   3 1734.68  215.45   9
   6  -3   3 2140.48  268.22   9
   3  -2   3 1491.91  140.28   9
   4  -2   3  982.94  159.03   9
   5  -2   3 1035.52  206.77   9
   6  -2   3 1076.48  256.43   9
   3  -1   3 3730.46  142.52   9
   4  -1   3  510.23  153.40   9
   5  -1   3 1288.88  192.25   9
   6  -1   3 1444.96  251.27   9
   7  -1   3   60.85  268.67   9
   7   0   3  458.83  245.38   9
   5   1   3 2024.47  179.60   9
   6   1   3  505.09  181.07   9
   4  -5   2  638.03  185.25   9
   5  -5   2   -6.69  214.90   9
   6  -5   2  147.71  264.71   9
   2  -4   2 2416.11  121.87   9
   3  -4   2 7080.54  193.76   9
   4  -4   2 1704.92  188.39   9
   5  -4   2  347.41  209.11   9
   6  -4   2 1081.13  265.87   9
   2  -3   2 3331.65  122.02   9
   3  -3   2 9262.10  201.34   9
   4  -3   2 2178.13  195.31   9
   5  -3   2 1293.84  230.63   9
   6  -3   2 2603.24  273.24   9
   2  -2   2 2177.49  113.59   9
   3  -2   2 8741.22  183.94   9
   4  -2   2 1313.84  163.06   9
   5  -2   2  628.79  207.55   9
   6  -2   2  720.61  233.15   9
   7  -2   2  414.43  269.03   9
   2  -1   2 6409.19  117.72   9
   3  -1   216297.35  222.63   9
   4  -1   2 1008.63  167.03   9
   5  -1   2 1378.76  197.81   9
   6  -1   2  869.55  225.35   9
   7  -1   2  323.44  264.21   9
   6   0   2  959.45  180.39   9
   7   0   2  470.83  226.36   9
   4   1   2  823.97  132.31   9
   5   1   2 1118.02  171.45   9
   6   1   2 1426.95  219.70   9
   3   2   2 4967.21  126.19   9
   4  -5   1  597.35  187.83   9
   5  -5   1  201.00  221.18   9
   6  -5   1   82.22  263.15   9
   2  -4   1 3879.36  138.84   9
   3  -4   1 2684.99  162.76   9
   4  -4   1 1636.10  196.51   9
   5  -4   1  679.01  227.35   9
   6  -4   1  660.00  268.88   9
   1  -3   1 9707.27  121.14   9
   2  -3   1 2685.14  113.60   9
   3  -3   1 4460.72  161.88   9
   4  -3   1 2339.37  186.61   9
   5  -3   1  729.50  225.64   9
   6  -3   1  677.90  264.07   9
   2  -2   1 1111.50   86.26   9
   3  -2   1 2166.20  127.30   9
   4  -2   1 1527.40  179.17   9
   5  -2   1  396.34  202.16   9
   6  -2   1  454.52  230.42   9
   7  -2   1   69.05  274.57   9
   2  -1   1 6233.62  115.26   9
   3  -1   1 5827.93  158.96   9
   4  -1   1 1619.02  169.38   9
   5  -1   1  411.66  195.99   9
   6  -1   1 1712.66  248.14   9
   7  -1   1   64.44  262.46   9
   6   0   1  492.44  161.99   9
   7   0   1  337.13  209.05   9
   2   1   1 8665.40  117.57   9
   3   1   1 4408.52  130.63   9
   4   1   1 1191.21  142.03   9
   5   1   1  459.52  177.99   9
   6   1   1 1418.16  211.00   9
   3   2   1 2271.61  104.64   9
   4  -5   0  365.77  197.13   9
   2  -4   0 1247.54  110.14   9
   3  -4   0 3825.17  169.39   9
   4  -4   0  622.00  183.77   9
   5  -4   0  360.66  219.22   9
   1  -3   026093.17  179.15   9
   2  -3   0 1828.70  105.50   9
   3  -3   0 4478.61  164.25   9
   4  -3   0 2446.93  187.14   9
   5  -3   0  688.39  224.12   9
   2  -2   0  838.06   85.65   9
   3  -2   0 1576.74  129.08   9
   4  -2   0  569.11  171.31   9
   5  -2   0  106.75  210.06   9
   2  -1   0 4457.47  105.61   9
   3  -1   0 4547.90  150.31   9
   4  -1   0 1951.72  158.38   9
   5  -1   0  318.25  203.33   9
   4   0   0 2333.88  125.07   9
   5   0   0  686.54  145.06   9
   2   1   0 4866.76   94.14   9
   3   1   0 3567.42  123.06   9
   4   1   0 1482.07  142.72   9
   5   1   0  428.20  160.32   9
   3   2   0 1088.71   98.99   9
   2  -4  -1 2005.80  123.15   9
   3  -4  -1  917.78  150.62   9
   1  -3  -1 4903.09   97.54   9
   2  -3  -1 1709.05  103.79   9
   3  -3  -1 1649.46  136.59   9
   2  -2  -1  208.38   73.38   9
   3  -2  -1 1724.79  135.22   9
   3   1  -1 1680.29  107.70   9
   3   2  -1 2331.71  111.59   9
  -3  -2   0  886.50   86.90  10
  -2  -2   0 4485.65   81.77  10
  -4  -1   0 1430.70  131.53  10
  -3  -1   0 3921.32  122.58  10
  -2  -1   0 5517.38   92.69  10
  -5   0   0  973.26  144.04  10
  -4   0   0 3053.62  137.94  10
  -5   1   0  330.81  197.89  10
  -4   1   0 1671.26  168.21  10
  -3   1   0 4767.26  144.62  10
  -2   1   0 4772.46   97.45  10
  -5   2   0  314.96  207.73  10
  -4   2   0  580.23  147.35  10
  -3   2   0 1659.79  136.88  10
  -2   2   0  812.31   82.51  10
  -5   3   0  802.40  223.40  10
  -4   3   0 2770.72  198.27  10
  -3   3   0 4130.16  156.36  10
  -2   3   0 1899.20  101.82  10
  -1   3   025263.87  177.78  10
  -5   4   0  296.76  189.57  10
  -4   4   0  589.04  191.69  10
  -3   4   0 4051.03  172.18  10
  -2   4   0 1516.76  108.79  10
  -3  -2  -1 2106.94  102.76  10
  -2  -2  -1  552.66   60.47  10
  -6  -1  -1 1352.01  210.46  10
  -5  -1  -1  398.54  151.75  10
  -4  -1  -1 1149.97  136.48  10
  -3  -1  -1 4571.53  125.73  10
  -6   0  -1 1018.78  201.13  10
  -5   0  -1 1176.22  151.46  10
  -7   1  -1   46.48  275.61  10
  -6   1  -1 1366.18  243.19  10
  -5   1  -1  310.67  183.15  10
  -4   1  -1 1606.88  152.10  10
  -3   1  -1 6186.21  157.70  10
  -6   2  -1  536.31  229.40  10
  -5   2  -1  302.75  180.46  10
  -4   2  -1 1255.73  174.51  10
  -3   2  -1 1853.09  137.19  10
  -6   3  -1  721.12  249.80  10
  -5   3  -1  681.20  230.62  10
  -4   3  -1 2343.62  180.39  10
  -3   3  -1 4283.53  160.23  10
  -2   3  -1 2757.60  111.83  10
  -6   4  -1  481.71  261.66  10
  -5   4  -1  792.24  226.24  10
  -4   4  -1 1328.81  204.34  10
  -3   4  -1 2938.15  167.75  10
  -2   4  -1 2981.02  130.05  10
  -6   5  -1  259.83  257.86  10
  -5   5  -1  189.57  207.81  10
  -4   5  -1  486.40  183.17  10
  -6  -1  -2  948.29  206.36  10
  -5  -1  -2  882.00  179.55  10
  -7   0  -2  457.24  205.99  10
  -7   1  -2  523.94  286.76  10
  -6   1  -2  829.63  222.51  10
  -5   1  -2 1646.85  220.71  10
  -4   1  -2 1288.03  174.91  10
  -6   2  -2  507.14  257.99  10
  -5   2  -2  734.56  180.75  10
  -4   2  -2  783.02  155.24  10
  -6   3  -2 1027.58  289.77  10
  -5   3  -2 1389.17  216.45  10
  -4   3  -2 2312.45  205.62  10
  -6   4  -2 1210.71  269.41  10
  -5   4  -2  466.10  222.62  10
  -4   4  -2 2246.52  213.16  10
  -3   4  -2 7066.48  204.86  10
  -6   5  -2  110.50  260.17  10
  -5   5  -2  282.71  231.04  10
  -4   5  -2  777.96  210.93  10
  -6  -1  -3  821.69  213.67  10
  -5  -1  -3 2457.39  190.37  10
  -7   1  -3 -120.94  297.55  10
  -6   1  -3 1430.16  261.21  10
  -6   2  -3  690.19  250.99  10
  -5   2  -3  792.49  233.41  10
  -6   3  -3 2017.21  285.26  10
  -5   3  -3 1495.24  246.51  10
  -6   4  -3  702.33  282.29  10
  -5   4  -3  476.59  230.74  10
  -6   5  -3 1041.65  275.15  10
  -5   5  -3  459.30  229.59  10
  -4   5  -3  401.48  214.66  10
  -6   2  -4  508.45  263.85  10
   1   7   2  393.75  245.42  11
   2   2   1  468.52   63.49  11
   2   3   1 4292.06  119.44  11
   2   4   1 2203.71  143.49  11
   1   5   1  429.71  168.46  11
   1   6   1 1141.40  213.43  11
  -2   7   1   -1.02  266.01  11
  -1   7   1  247.42  259.33  11
   0   7   1  647.12  249.84  11
   1   7   1  350.52  243.42  11
  -1   8   1  538.03  267.04  11
   0   8   1  253.70  171.07  11
   1   8   1  116.03  277.30  11
   1   2   0  838.06   59.28  11
   1   3   0 7712.92  147.10  11
   2   3   0 2494.78  106.39  11
   0   4   0 9655.72  201.77  11
   1   4   0  579.58  126.48  11
   2   4   0 4838.54  156.50  11
  -3   5   0  481.00  196.31  11
  -1   5   0 7807.56  231.01  11
   0   5   0 7678.10  230.86  11
   1   5   0 1587.64  180.20  11
  -3   6   0 1119.46  246.59  11
  -2   6   0  989.40  226.95  11
  -1   6   0 5434.88  265.12  11
   0   6   0 2789.01  238.82  11
   1   6   0  892.53  207.00  11
  -3   7   0  170.98  277.65  11
  -2   7   0  510.86  265.13  11
  -1   7   0 1846.81  269.05  11
   0   7   0 1058.16  248.66  11
   1   7   0  272.05  234.91  11
  -1   8   0 1371.87  242.44  11
   0   8   0  857.73  201.49  11
   1   8   0  231.52  244.20  11
  -3   2  -1 1973.76   98.34  11
  -2   2  -1 1187.18   78.97  11
  -1   2  -1 4221.73   95.83  11
   0   2  -1 3795.98   89.35  11
  -3   3  -1 3965.59  149.48  11
  -2   3  -1 2750.38  128.86  11
  -1   3  -110318.91  171.59  11
   0   3  -116501.25  198.68  11
   1   3  -1 3465.57  119.38  11
  -3   4  -1 2998.77  176.75  11
  -2   4  -1 2881.17  165.58  11
  -1   4  -1  783.18  137.88  11
   0   4  -1 2038.99  146.03  11
   1   4  -1  971.36  123.97  11
  -3   5  -1  348.29  191.27  11
  -2   5  -1  300.09  191.81  11
  -1   5  -1 2260.32  187.93  11
   0   5  -1 3132.06  192.00  11
   1   5  -1  364.88  160.09  11
  -3   6  -1 1794.22  248.33  11
  -2   6  -1 1471.21  227.19  11
  -1   6  -1  185.33  212.67  11
   0   6  -1 1447.08  223.11  11
   1   6  -1  648.94  203.17  11
  -4   7  -1  623.41  277.60  11
  -3   7  -1  976.51  284.79  11
  -2   7  -1  550.13  264.94  11
  -1   7  -1  887.31  245.39  11
   0   7  -1 1022.28  248.62  11
   1   7  -1  151.24  233.13  11
  -2   8  -1  203.80  255.46  11
  -1   8  -1  472.15  227.20  11
   0   8  -1  249.20  198.69  11
   1   8  -1  284.66  245.43  11
  -2   2  -2 1991.13   91.63  11
  -3   3  -2 9141.73  180.77  11
  -2   3  -2 3224.34  133.51  11
  -1   3  -2 2611.75  130.86  11
  -3   4  -2 6768.87  204.59  11
  -2   4  -2 2167.01  159.31  11
  -1   4  -2  763.82  133.42  11
   0   4  -2  888.55  130.73  11
  -3   5  -2 1054.52  201.71  11
  -2   5  -2  125.31  183.04  11
   0   5  -2  914.26  171.62  11
  -3   6  -2 2873.96  249.69  11
  -2   6  -2  911.13  236.46  11
  -1   6  -2 1182.61  225.07  11
   0   6  -2  927.22  212.64  11
  -3   7  -2 1315.27  287.47  11
  -2   7  -2  549.90  253.61  11
  -1   7  -2   53.24  256.79  11
   0   7  -2 1712.33  248.65  11
  -2   8  -2  254.81  336.32  11
  -1   8  -2  419.23  308.29  11
   0   4   0 9503.41  154.09  12
  -1   5   0 7500.49  197.46  12
  -4   6   0  937.38  260.33  12
  -2   6   0 1242.49  204.15  12
  -1   6   0 6045.70  223.14  12
  -4   7   0  596.72  277.07  12
  -3   7   0  264.24  245.25  12
  -2   7   0  183.10  234.57  12
  -4   1  -1 1493.66  133.01  12
  -2   1  -1 7157.10  111.38  12
  -5   2  -1  344.18  175.73  12
  -4   2  -1 1471.74  160.08  12
  -1   2  -1 4166.51   95.21  12
   0   2  -1 3721.18   71.73  12
  -5   3  -1 1055.94  208.88  12
  -4   3  -1 2594.36  188.59  12
  -2   3  -1 2805.95  136.41  12
  -1   3  -1 9949.16  154.99  12
   0   3  -116116.55  159.76  12
  -6   4  -1  766.38  260.75  12
  -5   4  -1  747.37  234.83  12
  -4   4  -1 1772.57  205.58  12
  -3   4  -1 2727.18  194.47  12
  -2   4  -1 3315.44  163.31  12
  -1   4  -1  724.92  117.15  12
   0   4  -1 1970.86  102.33  12
  -6   5  -1  144.50  287.70  12
  -5   5  -1   62.76  252.65  12
  -4   5  -1  768.79  214.64  12
  -3   5  -1  526.92  194.67  12
  -2   5  -1  304.37  169.28  12
  -1   5  -1 2159.28  156.61  12
  -5   6  -1  587.32  286.23  12
  -4   6  -1 1206.67  259.67  12
  -3   6  -1 1924.31  242.09  12
  -2   6  -1 1759.77  202.90  12
  -1   6  -1   68.60  165.78  12
  -4   7  -1  314.29  269.55  12
  -3   7  -1  839.26  259.15  12
  -2   7  -1  325.76  223.52  12
  -4   1  -2 1530.10  129.38  12
  -3   1  -215855.16  192.56  12
  -2   1  -2 6182.54  111.50  12
  -5   2  -2  524.87  183.50  12
  -4   2  -2 2209.33  166.59  12
  -3   2  -2 8557.62  180.73  12
  -2   2  -2 2120.54  109.80  12
  -5   3  -2 1582.04  214.39  12
  -4   3  -2 2593.79  198.11  12
  -3   3  -2 9140.53  211.18  12
  -2   3  -2 3336.81  134.93  12
  -1   3  -2 2359.42  112.22  12
  -6   4  -2 1022.89  255.14  12
  -5   4  -2  159.44  222.81  12
  -4   4  -2 1928.31  209.25  12
  -3   4  -2 6933.42  229.03  12
  -2   4  -2 2278.77  158.69  12
  -1   4  -2  842.03  116.37  12
  -6   5  -2  114.71  274.64  12
  -5   5  -2  418.37  250.71  12
  -4   5  -2  391.81  224.68  12
  -3   5  -2 1365.35  215.15  12
  -2   5  -2  177.57  172.01  12
  -5   6  -2  -93.77  263.43  12
  -4   6  -2  923.36  256.89  12
  -3   6  -2 2275.28  251.22  12
  -2   6  -2  936.38  206.41  12
  -4   7  -2  946.22  290.25  12
  -3   7  -2 1122.24  265.71  12
  -2   7  -2  509.43  216.92  12
  -5   2  -3  950.54  184.14  12
  -4   2  -3  663.29  155.91  12
  -3   2  -3 1271.65  127.87  12
  -5   3  -3 1600.82  210.73  12
  -4   3  -3 1934.74  187.97  12
  -3   3  -3 2992.29  164.92  12
  -6   4  -3  735.46  257.29  12
  -5   4  -3  579.11  221.58  12
  -4   4  -3  339.72  193.13  12
  -3   4  -3 1929.03  196.90  12
  -5   5  -3  556.50  243.30  12
  -4   5  -3  334.72  228.28  12
  -3   5  -3  287.74  203.34  12
  -5   6  -3  150.16  287.30  12
  -4   6  -3  415.88  263.09  12
  -3   6  -3 1347.55  231.56  12
  -2   2   1  501.10   84.36  13
  -1   2   111852.79  138.84  13
  -3   3   1 1394.65  153.45  13
  -2   3   1 1717.38  128.79  13
  -1   3   1 4568.17  123.58  13
   0   3   123197.09  184.39  13
  -3   4   1 1080.00  172.46  13
  -2   4   1 1919.66  155.82  13
  -1   4   1 2926.86  140.31  13
   0   4   1   85.27   89.02  13
  -3   5   1  146.58  196.81  13
  -2   5   1  292.23  169.67  13
  -1   5   1 1327.72  154.23  13
  -2   6   1 1349.96  210.00  13
  -3   1   0 4703.85  127.16  13
  -2   1   0 4890.91   98.59  13
  -4   2   0  646.30  144.59  13
  -3   2   0 1771.25  125.68  13
  -2   2   0  752.05   88.30  13
  -1   2   030491.23  204.72  13
  -4   3   0 2386.39  188.26  13
  -3   3   0 4055.23  170.22  13
  -2   3   0 2140.24  131.18  13
  -1   3   025110.07  223.42  13
   0   3   042888.21  242.18  13
  -5   4   0  643.20  224.28  13
  -4   4   0  616.71  201.68  13
  -3   4   0 4240.19  203.39  13
  -2   4   0 1521.16  154.65  13
  -1   4   011886.89  195.81  13
   0   4   0 9554.79  158.84  13
  -5   5   0  258.10  243.11  13
  -4   5   0  634.02  229.39  13
  -3   5   0  600.93  206.09  13
  -2   5   0   14.76  185.87  13
  -1   5   0 7642.32  202.36  13
  -4   6   0  633.17  262.08  13
  -3   6   0 1471.09  235.97  13
  -2   6   0  767.12  210.52  13
  -1   6   0 5798.07  220.92  13
  -4   7   0  559.76  280.59  13
  -3   7   0  115.05  255.12  13
  -2   7   0  743.83  233.37  13
  -4   1  -1 1324.85  126.39  13
  -3   1  -1 6099.03  136.20  13
  -5   2  -1  598.39  169.90  13
  -4   2  -1 1320.22  153.33  13
  -3   2  -1 1779.99  130.56  13
  -6   3  -1  889.78  246.51  13
  -5   3  -1  723.73  207.97  13
  -4   3  -1 2639.78  194.15  13
  -3   3  -1 4485.98  176.97  13
  -6   4  -1  848.05  259.31  13
  -5   4  -1  687.64  233.02  13
  -4   4  -1 1655.92  219.14  13
  -3   4  -1 2593.69  192.12  13
  -6   5  -1   56.69  281.61  13
  -5   5  -1  181.82  252.26  13
  -4   5  -1  632.50  235.41  13
  -3   5  -1  796.58  214.57  13
  -2   5  -1  746.04  194.77  13
  -5   6  -1  474.50  288.98  13
  -4   6  -1  937.73  268.15  13
  -3   6  -1 1629.07  244.48  13
  -2   6  -1 1808.88  220.50  13
  -1   6  -1  306.56  178.64  13
  -4   7  -1  437.82  285.45  13
  -3   7  -1  568.62  267.01  13
  -2   7  -1  452.73  240.36  13
  -4   1  -2 1364.07  131.51  13
  -5   2  -2  993.28  178.46  13
  -5   3  -2 1224.37  218.22  13
  -4   3  -2 2457.53  201.74  13
  -6   4  -2  832.00  271.72  13
  -5   4  -2  519.07  230.85  13
  -4   4  -2 1587.92  222.61  13
  -5   5  -2  167.07  250.05  13
  -4   5  -2 1010.71  243.08  13
  -5   6  -2  191.67  287.99  13
  -4   6  -2 1351.97  261.84  13
  -3   6  -2 2314.03  252.59  13
  -4   7  -2  857.03  291.37  13
  -3   7  -2  911.38  276.21  13
  -2   7  -2  419.19  238.26  13
  -3   8  -2 -182.10  314.22  13
  -5   3  -3 1710.22  226.16  13
  -6   4  -3 1206.71  276.60  13
  -5   4  -3  375.75  242.83  13
  -5   5  -3  697.77  274.88  13
  -5   6  -3  313.71  296.03  13
  -4   6  -3  392.85  273.49  13
  -3   7  -3  696.69  288.06  13
   4  -6   3  171.29  237.15  14
   5  -6   3  450.85  260.03  14
   3  -5   3  539.03  188.84  14
   4  -5   3  393.68  217.52  14
   5  -5   3  377.49  231.44  14
   6  -5   3  420.78  269.90  14
   3  -4   3 2246.50  186.31  14
   4  -4   3  630.96  198.41  14
   5  -4   3  652.15  215.57  14
   6  -4   3  515.12  240.21  14
   3  -3   3 3495.69  165.33  14
   4  -3   3 1798.35  177.52  14
   5  -3   3 1528.04  202.95  14
   3  -2   3 1494.24  125.00  14
   4  -2   3  876.13  150.27  14
   5  -2   3  952.74  169.75  14
   3  -8   2  683.20  370.34  14
   2  -7   2  505.74  199.96  14
   3  -7   2 1408.66  240.66  14
   4  -7   2  625.04  262.58  14
   2  -6   2  790.58  186.88  14
   3  -6   2 2373.11  236.85  14
   4  -6   2 1343.75  245.43  14
   5  -6   2  249.77  253.48  14
   2  -5   2  486.37  163.30  14
   3  -5   2  913.77  200.74  14
   4  -5   2  470.58  215.81  14
   5  -5   2  178.88  236.55  14
   6  -5   2  338.50  265.98  14
   1  -4   2  948.41  110.74  14
   2  -4   2 2425.73  150.07  14
   3  -4   2 7053.94  223.67  14
   4  -4   2 1811.54  200.68  14
   5  -4   2  279.22  215.48  14
   6  -4   2 1422.79  254.59  14
   1  -3   2 2936.37  116.66  14
   2  -3   2 3494.90  137.25  14
   3  -3   2 8661.49  206.04  14
   4  -3   2 2573.86  188.94  14
   5  -3   2 1082.63  205.13  14
   2  -2   2 1985.05  112.67  14
   3  -2   2 8671.68  176.98  14
   4  -2   2 1032.83  148.61  14
   5  -2   2  692.28  173.10  14
   2  -1   2 5907.02  108.16  14
   3  -1   216153.45  192.46  14
   4  -1   2 1140.97  126.71  14
   2  -7   1  437.77  207.02  14
   3  -7   1  636.44  234.72  14
   4  -7   1  406.89  252.96  14
   1  -6   1  372.50  156.80  14
   2  -6   1 1545.72  189.73  14
   3  -6   1 1810.60  219.21  14
   4  -6   1 1245.86  240.54  14
   5  -6   1  613.06  265.34  14
   1  -5   1 2196.07  150.98  14
   2  -5   1  262.02  176.30  14
   3  -5   1  820.09  189.05  14
   4  -5   1  579.16  209.68  14
   5  -5   1  284.74  238.52  14
   6  -5   1  116.28  262.04  14
   0  -4   1 1535.65   92.50  14
   1  -4   1 1030.44  110.48  14
   3  -4   1 2832.65  190.04  14
   4  -4   1 1545.78  203.85  14
   5  -4   1  716.00  214.72  14
   6  -4   1  554.65  250.01  14
   0  -3   116342.55  157.45  14
   1  -3   1 9935.39  152.79  14
   2  -3   1 2807.69  131.72  14
   3  -3   1 4501.60  170.34  14
   4  -3   1 2780.49  187.93  14
   5  -3   1  679.35  198.31  14
   6  -3   1  621.94  226.81  14
   1  -2   1 4661.39   96.17  14
   2  -2   1  933.71   89.14  14
   3  -2   1 2076.01  130.77  14
   4  -2   1 1523.47  153.96  14
   5  -2   1  346.76  171.23  14
   2  -1   1 6200.66  106.76  14
   3  -1   1 5908.09  137.55  14
   4  -1   1 1591.09  135.63  14
   2  -7   0  541.02  209.40  14
   3  -7   0  275.49  225.30  14
   4  -7   0  360.55  254.70  14
   1  -6   0 5628.67  207.27  14
   2  -6   0  633.98  188.26  14
   3  -6   0 1160.63  216.86  14
   4  -6   0  946.99  245.49  14
   1  -5   0 7610.63  192.21  14
   2  -5   0  301.52  165.45  14
   3  -5   0  605.73  183.05  14
   4  -5   0  565.47  210.20  14
   5  -5   0   88.61  234.47  14
   0  -4   0 9991.73  154.49  14
   1  -4   011658.40  189.44  14
   2  -4   0 1054.58  138.45  14
   3  -4   0 3589.65  194.75  14
   4  -4   0  618.36  200.48  14
   5  -4   0  320.87  223.62  14
   0  -3   043900.80  240.45  14
   1  -3   025605.17  221.21  14
   2  -3   0 1833.73  124.29  14
   3  -3   0 4229.81  170.96  14
   4  -3   0 2569.93  185.32  14
   5  -3   0  700.94  200.88  14
   1  -2   028844.54  198.05  14
   2  -2   0  850.13   89.09  14
   3  -2   0 1741.19  121.83  14
   4  -2   0  812.40  146.79  14
   5  -2   0   56.98  177.88  14
   2  -1   0 4143.36   91.89  14
   3  -1   0 4507.12  128.91  14
   4  -1   0 1923.72  135.58  14
   1  -6  -1 1111.30  174.55  14
   2  -6  -1 1657.53  195.26  14
   1  -5  -1 1701.77  145.76  14
   2  -5  -1  448.63  162.47  14
   3  -5  -1  253.00  185.73  14
   0  -4  -1   65.29   83.59  14
   1  -4  -1 3286.39  135.45  14
   2  -4  -1 1910.08  151.02  14
   3  -4  -1 1098.87  167.75  14
   0  -3  -123867.99  182.20  14
   1  -3  -1 4457.37  114.87  14
   2  -3  -1 1856.04  119.08  14
   3  -3  -1 1499.79  148.50  14
   1  -2  -112459.19  136.85  14
   2  -2  -1   89.47   81.89  14
   3  -2  -1 1754.98  123.00  14
   3  -7   3  622.02  248.33  15
   4  -7   3  240.19  256.23  15
   2  -6   3  820.92  206.20  15
   3  -6   3 1273.28  228.12  15
   4  -6   3  469.28  254.54  15
   5  -6   3  213.05  269.55  15
   2  -5   3   44.78  157.05  15
   3  -5   3  259.70  204.56  15
   4  -5   3  459.54  226.02  15
   5  -5   3  229.55  246.33  15
   6  -5   3  919.49  270.35  15
   2  -4   3 2463.83  155.99  15
   3  -4   3 1897.95  185.65  15
   4  -4   3  758.20  199.80  15
   5  -4   3  451.48  212.71  15
   6  -4   3 1093.70  252.79  15
   3  -3   3 3541.91  167.45  15
   4  -3   3 1650.63  188.16  15
   5  -3   3 1283.24  210.16  15
   3  -2   3 1575.90  125.98  15
   4  -2   3 1106.31  152.82  15
   5  -2   3  825.73  176.57  15
   3  -1   3 3458.41  122.69  15
   4  -1   3  311.67  122.62  15
   2  -7   2  545.96  217.42  15
   3  -7   2 1382.67  267.72  15
   4  -7   2  673.13  274.45  15
   1  -6   2  676.97  173.64  15
   2  -6   2  979.67  190.98  15
   3  -6   2 2467.90  246.53  15
   4  -6   2 1504.38  251.53  15
   5  -6   2  398.80  263.58  15
   0  -5   2  960.23  131.56  15
   2  -5   2  346.93  169.10  15
   3  -5   2 1387.44  195.47  15
   4  -5   2  429.23  221.40  15
   5  -5   2  203.32  225.26  15
   6  -5   2  117.59  252.94  15
   0  -4   2 1001.06  104.49  15
   1  -4   2  973.38  115.73  15
   2  -4   2 2313.21  158.06  15
   3  -4   2 7378.60  223.92  15
   4  -4   2 1724.45  213.94  15
   5  -4   2  494.30  204.26  15
   6  -4   2  617.37  236.52  15
   1  -3   2 2805.23  115.58  15
   2  -3   2 3347.57  136.25  15
   3  -3   2 9025.29  202.39  15
   4  -3   2 2299.57  187.53  15
   5  -3   2 1361.52  197.96  15
   2  -2   2 3017.45  106.79  15
   3  -2   2 8705.88  178.92  15
   4  -2   2  575.93  141.57  15
   5  -2   2  700.01  168.93  15
   2  -1   2 6264.14  107.79  15
   3  -1   216144.45  193.03  15
   4  -1   2 1406.81  131.14  15
   2  -7   1  546.60  216.64  15
   3  -7   1 1261.05  243.26  15
   4  -7   1  390.45  263.44  15
   1  -6   1  413.70  166.96  15
   2  -6   1 1384.62  201.12  15
   3  -6   1 1729.13  222.18  15
   4  -6   1 1351.95  245.07  15
   5  -6   1  785.29  267.95  15
   1  -5   1 2477.41  159.91  15
   2  -5   1  243.94  174.86  15
   3  -5   1  426.95  189.10  15
   4  -5   1  607.50  223.29  15
   5  -5   1 -165.91  233.86  15
   6  -5   1  -62.55  243.03  15
   0  -4   1 1373.17  103.06  15
   1  -4   1 1096.35  119.16  15
   3  -4   1 3014.68  180.47  15
   4  -4   1 1787.95  209.45  15
   5  -4   1  717.08  217.77  15
   6  -4   1  764.07  233.81  15
   0  -3   116400.75  160.10  15
   1  -3   1 9715.64  155.04  15
   2  -3   1 2849.20  131.71  15
   3  -3   1 4298.80  172.59  15
   4  -3   1 2666.16  187.14  15
   5  -3   1  925.04  196.32  15
   1  -2   1 4546.50   90.89  15
   2  -2   1 1053.38   87.28  15
   3  -2   1 1986.45  127.85  15
   4  -2   1 1730.27  146.43  15
   5  -2   1  474.41  158.15  15
   2  -1   1 6299.32  106.15  15
   3  -1   1 5945.03  132.69  15
   4  -1   1 1515.09  129.00  15
   2  -7   0  882.65  208.66  15
   3  -7   0  271.41  223.06  15
   1  -6   0 5640.25  207.84  15
   2  -6   0  912.79  186.94  15
   3  -6   0  905.44  225.96  15
   4  -6   0  661.19  232.14  15
   1  -5   0 7858.01  197.17  15
   2  -5   0  218.53  165.70  15
   3  -5   0  955.37  188.40  15
   4  -5   0  553.62  213.67  15
   0  -4   0 9776.22  155.86  15
   1  -4   011300.70  190.61  15
   2  -4   0 1295.80  146.10  15
   3  -4   0 3815.86  183.27  15
   4  -4   0  632.63  184.65  15
   0  -3   043847.01  243.73  15
   1  -3   024927.68  224.82  15
   2  -3   0 1822.58  128.56  15
   3  -3   0 4581.22  166.25  15
   4  -3   0 2613.61  187.58  15
   1  -2   029350.44  201.16  15
   2  -2   0  932.18   86.29  15
   3  -2   0 1728.34  118.84  15
   4  -2   0  753.76  137.10  15
   2  -1   0 4600.36   94.34  15
   3  -1   0 4165.72  118.69  15
   1  -6  -1 1177.26  161.82  15
   2  -6  -1 1516.40  183.34  15
   1  -5  -1 1589.44  144.13  15
   2  -5  -1  471.25  163.21  15
   3  -5  -1  240.03  184.40  15
   0  -4  -1   56.57   81.02  15
   1  -4  -1 3353.32  132.28  15
   2  -4  -1 1982.33  140.44  15
   3  -4  -1  925.57  151.93  15
   0  -3  -122849.49  182.69  15
   1  -3  -1 4541.81  116.60  15
   2  -3  -1 1690.06  122.11  15
   3  -3  -1 1835.02  144.72  15
   1  -2  -112730.09  139.29  15
   2  -2  -1  250.14   75.05  15
   0   0   0    0.00    0.00   0
;
_shelx_hkl_checksum              86746
_shelx_shelxl_version_number     2014/7
_olex2_submission_special_instructions 'No special instructions were received'
loop_
_space_group_symop_operation_xyz
'x, y, z'
loop_
_atom_site_label
_atom_site_type_symbol
_atom_site_fract_x
_atom_site_fract_y
_atom_site_fract_z
_atom_site_U_iso_or_equiv
_atom_site_adp_type
_atom_site_occupancy
_atom_site_site_symmetry_order
_atom_site_calc_flag
_atom_site_refinement_flags_posn
Co1 Co -0.0003(19) 0.0007(15) 0.001(4) 0.028(2) Uiso 1 1 d .
O1W O -0.343(4) -0.021(4) -0.007(5) 0.020(7) Uiso 1 1 d D
H1WA H -0.3955 -0.0790 -0.0721 0.029 Uiso 1 1 calc GR
C8 C 0.130(3) 0.009(4) 0.199(2) 0.016(9) Uiso 1 1 d D
C6 C 0.042(5) -0.006(5) 0.543(3) 0.044(17) Uiso 1 1 d .
H6 H -0.0783 -0.0257 0.5930 0.053 Uiso 1 1 calc R
C1 C 0.262(5) 0.024(4) 0.601(2) 0.023(11) Uiso 1 1 d DG
C2 C 0.442(4) 0.053(3) 0.527(3) 0.034(12) Uiso 1 1 d G
H2 H 0.5892 0.0727 0.5651 0.041 Uiso 1 1 calc R
C3 C 0.400(5) 0.053(4) 0.396(3) 0.015(9) Uiso 1 1 d G
H3 H 0.5203 0.0723 0.3461 0.018 Uiso 1 1 calc R
C4 C 0.180(5) 0.023(5) 0.338(2) 0.028(10) Uiso 1 1 d DG
C5 C 0.000(4) -0.006(6) 0.412(3) 0.041(15) Uiso 1 1 d G
H5 H -0.1472 -0.0261 0.3740 0.049 Uiso 1 1 calc R
O4 O -0.075(3) -0.019(5) 0.159(4) 0.037(5) Uiso 1 1 d D
C7 C 0.306(5) 0.026(5) 0.740(2) 0.030(11) Uiso 1 1 d D
O2 O 0.486(3) 0.079(4) 0.806(5) 0.037(5) Uiso 1 1 d D
O3 O 0.276(4) 0.030(4) 0.122(3) 0.037(5) Uiso 1 1 d D
O1 O 0.127(4) -0.006(5) 0.792(5) 0.037(5) Uiso 1 1 d D
N1 N 0.000(4) 0.678(4) -0.021(5) 0.013(9) Uiso 1 1 d D
N2 N 0.001(4) 0.312(5) -0.029(5) 0.027(11) Uiso 1 1 d D
C11 C 0.236(4) 0.621(3) -0.006(12) 0.011(8) Uiso 1 1 d D
H11A H 0.3123 0.6711 0.0739 0.013 Uiso 1 1 calc R
H11B H 0.3178 0.6720 -0.0739 0.013 Uiso 1 1 calc R
C9 C -0.138(7) 0.599(3) 0.078(6) 0.024(10) Uiso 1 1 d D
H9A H -0.2892 0.6434 0.0664 0.029 Uiso 1 1 calc R
H9B H -0.0681 0.6382 0.1613 0.029 Uiso 1 1 calc R
C12 C 0.232(5) 0.405(3) -0.007(13) 0.015(9) Uiso 1 1 d D
H12A H 0.3210 0.3653 -0.0728 0.018 Uiso 1 1 calc R
H12B H 0.3034 0.3639 0.0736 0.018 Uiso 1 1 calc R
C10 C -0.147(7) 0.385(4) 0.062(6) 0.019(9) Uiso 1 1 d D
H10A H -0.1061 0.3306 0.1441 0.023 Uiso 1 1 calc R
H10B H -0.3022 0.3391 0.0351 0.023 Uiso 1 1 calc R
C14 C -0.074(8) 0.389(4) -0.154(6) 0.038(13) Uiso 1 1 d D
H14A H -0.2181 0.3240 -0.1865 0.045 Uiso 1 1 calc R
H14B H 0.0360 0.3645 -0.2129 0.045 Uiso 1 1 calc R
C13 C -0.099(9) 0.601(4) -0.146(6) 0.042(13) Uiso 1 1 d D
H13A H -0.0229 0.6648 -0.2126 0.050 Uiso 1 1 calc R
H13B H -0.2583 0.6246 -0.1588 0.050 Uiso 1 1 calc R
H1WB H -0.452(6) 0.032(15) 0.042(5) 0.063 Uiso 1 1 d DR
loop_
_atom_type_symbol
_atom_type_description
_atom_type_scat_dispersion_real
_atom_type_scat_dispersion_imag
_atom_type_scat_source
C C 0.0033 0.0016 'International Tables Vol C Tables 4.2.6.8 and 6.1.1.4'
H H 0.0000 0.0000 'International Tables Vol C Tables 4.2.6.8 and 6.1.1.4'
Co Co 0.3494 0.9721 'International Tables Vol C Tables 4.2.6.8 and 6.1.1.4'
N N 0.0061 0.0033 'International Tables Vol C Tables 4.2.6.8 and 6.1.1.4'
O O 0.0106 0.0060 'International Tables Vol C Tables 4.2.6.8 and 6.1.1.4'
loop_
_geom_angle_atom_site_label_1
_geom_angle_atom_site_label_2
_geom_angle_atom_site_label_3
_geom_angle
_geom_angle_site_symmetry_3
O1W Co1 N1 90.3(10) 1_545
O1W Co1 N2 90.7(11) .
O4 Co1 O1W 72.5(19) .
O4 Co1 O3 70.0(16) .
O4 Co1 N1 92(2) 1_545
O4 Co1 N2 102(2) .
O3 Co1 O1W 142(3) .
O3 Co1 N1 95.6(14) 1_545
O3 Co1 N2 92.4(14) .
N2 Co1 N1 166(3) 1_545
Co1 O1W H1WA 109.5 .
Co1 O1W H1WB 134(4) .
H1WA O1W H1WB 115.9 .
O4 C8 C4 116(2) .
O3 C8 C4 125(2) .
O3 C8 O4 119.6(5) .
C1 C6 H6 120.0 .
C1 C6 C5 120.0 .
C5 C6 H6 120.0 .
C6 C1 C2 120.0 .
C6 C1 C7 120(2) .
C2 C1 C7 120(2) .
C1 C2 H2 120.0 .
C3 C2 C1 120.0 .
C3 C2 H2 120.0 .
C2 C3 H3 120.0 .
C4 C3 C2 120.0 .
C4 C3 H3 120.0 .
C3 C4 C8 122(2) .
C3 C4 C5 120.0 .
C5 C4 C8 118(2) .
C6 C5 H5 120.0 .
C4 C5 C6 120.0 .
C4 C5 H5 120.0 .
C8 O4 Co1 89.5(15) .
O2 C7 C1 128(3) .
O2 C7 O1 119.8(4) .
O1 C7 C1 112(3) .
C8 O3 Co1 80.8(19) .
C11 N1 Co1 109.8(18) 1_565
C9 N1 Co1 105(2) 1_565
C9 N1 C11 113(6) .
C9 N1 C13 109(3) .
C13 N1 Co1 115(2) 1_565
C13 N1 C11 106(5) .
C12 N2 Co1 111(2) .
C12 N2 C10 111(6) .
C12 N2 C14 100(6) .
C10 N2 Co1 106(2) .
C10 N2 C14 107(4) .
C14 N2 Co1 121(3) .
N1 C11 H11A 109.8 .
N1 C11 H11B 109.8 .
N1 C11 C12 109(2) .
H11A C11 H11B 108.3 .
C12 C11 H11A 109.8 .
C12 C11 H11B 109.8 .
N1 C9 H9A 110.6 .
N1 C9 H9B 110.6 .
N1 C9 C10 106(4) .
H9A C9 H9B 108.7 .
C10 C9 H9A 110.6 .
C10 C9 H9B 110.6 .
N2 C12 C11 113(2) .
N2 C12 H12A 109.0 .
N2 C12 H12B 109.0 .
C11 C12 H12A 109.0 .
C11 C12 H12B 109.0 .
H12A C12 H12B 107.8 .
N2 C10 C9 116(4) .
N2 C10 H10A 108.2 .
N2 C10 H10B 108.2 .
C9 C10 H10A 108.2 .
C9 C10 H10B 108.2 .
H10A C10 H10B 107.4 .
N2 C14 H14A 109.4 .
N2 C14 H14B 109.4 .
N2 C14 C13 111(4) .
H14A C14 H14B 108.0 .
C13 C14 H14A 109.4 .
C13 C14 H14B 109.4 .
N1 C13 C14 110(4) .
N1 C13 H13A 109.6 .
N1 C13 H13B 109.6 .
C14 C13 H13A 109.6 .
C14 C13 H13B 109.6 .
H13A C13 H13B 108.1 .
loop_
_geom_bond_atom_site_label_1
_geom_bond_atom_site_label_2
_geom_bond_distance
_geom_bond_site_symmetry_2
Co1 O1W 2.02(3) .
Co1 O4 1.78(6) .
Co1 O3 1.98(4) .
Co1 N1 2.29(3) 1_545
Co1 N2 2.22(3) .
O1W H1WA 0.8200 .
O1W H1WB 0.9700(17) .
C8 C4 1.480(3) .
C8 O4 1.250(3) .
C8 O3 1.250(3) .
C6 H6 0.9300 .
C6 C1 1.3900 .
C6 C5 1.3900 .
C1 C2 1.3900 .
C1 C7 1.480(3) .
C2 H2 0.9300 .
C2 C3 1.3900 .
C3 H3 0.9300 .
C3 C4 1.3900 .
C4 C5 1.3900 .
C5 H5 0.9300 .
C7 O2 1.250(2) .
C7 O1 1.250(3) .
N1 Co1 2.29(3) 1_565
N1 C11 1.480(3) .
N1 C9 1.480(3) .
N1 C13 1.480(3) .
N2 C12 1.480(3) .
N2 C10 1.480(3) .
N2 C14 1.480(3) .
C11 H11A 0.9700 .
C11 H11B 0.9700 .
C11 C12 1.520(3) .
C9 H9A 0.9700 .
C9 H9B 0.9700 .
C9 C10 1.520(3) .
C12 H12A 0.9700 .
C12 H12B 0.9700 .
C10 H10A 0.9700 .
C10 H10B 0.9700 .
C14 H14A 0.9700 .
C14 H14B 0.9700 .
C14 C13 1.520(3) .
C13 H13A 0.9700 .
C13 H13B 0.9700 .
loop_
_geom_torsion_atom_site_label_1
_geom_torsion_atom_site_label_2
_geom_torsion_atom_site_label_3
_geom_torsion_atom_site_label_4
_geom_torsion
_geom_torsion_site_symmetry_1
Co1 N1 C11 C12 174(8) 1_565
Co1 N1 C9 C10 178(3) 1_565
Co1 N1 C13 C14 176(4) 1_565
Co1 N2 C12 C11 -171(8) .
Co1 N2 C10 C9 169(4) .
Co1 N2 C14 C13 170(4) .
O1W Co1 O4 C8 -174(2) .
C8 C4 C5 C6 176(3) .
C6 C1 C2 C3 0.0 .
C6 C1 C7 O2 -168(3) .
C6 C1 C7 O1 2(4) .
C1 C6 C5 C4 0.0 .
C1 C2 C3 C4 0.0 .
C2 C1 C7 O2 11(6) .
C2 C1 C7 O1 -179(2) .
C2 C3 C4 C8 -176(3) .
C2 C3 C4 C5 0.0 .
C3 C4 C5 C6 0.0 .
C4 C8 O4 Co1 176(3) .
C4 C8 O3 Co1 -176(3) .
C5 C6 C1 C2 0.0 .
C5 C6 C1 C7 179(3) .
O4 C8 C4 C3 179(3) .
O4 C8 C4 C5 4(4) .
O4 C8 O3 Co1 2(3) .
C7 C1 C2 C3 -179(3) .
O3 Co1 O4 C8 1(2) .
O3 C8 C4 C3 -3(5) .
O3 C8 C4 C5 -179(3) .
O3 C8 O4 Co1 -2(4) .
N1 Co1 O4 C8 96(2) 1_545
N1 C11 C12 N2 3(14) .
N1 C9 C10 N2 8(5) .
N2 Co1 O4 C8 -87(2) .
N2 C14 C13 N1 11(6) .
C11 N1 C9 C10 -62(5) .
C11 N1 C13 C14 54(6) .
C9 N1 C11 C12 58(10) .
C9 N1 C13 C14 -67(5) .
C12 N2 C10 C9 47(7) .
C12 N2 C14 C13 -67(6) .
C10 N2 C12 C11 -53(12) .
C10 N2 C14 C13 48(5) .
C14 N2 C12 C11 60(11) .
C14 N2 C10 C9 -61(4) .
C13 N1 C11 C12 -62(10) .
C13 N1 C9 C10 55(4) .
