#------------------------------------------------------------------------------
#$Date: 2019-11-24 04:12:18 +0200 (Sun, 24 Nov 2019) $
#$Revision: 236652 $
#$URL: file:///home/coder/svn-repositories/cod/cif/8/00/03/8000382.cif $
#------------------------------------------------------------------------------
#
# This file is available in the Crystallography Open Database (COD),
# http://www.crystallography.net/
#
# All data on this site have been placed in the public domain by the
# contributors.
#
data_8000382
loop_
_publ_author_name
'Andrzejewski, Micha\/l'
'Katrusiak, Andrzej'
_publ_section_title
;
 Piezochromic Porous Metal-Organic Framework.
;
_journal_issue                   1
_journal_name_full               'The journal of physical chemistry letters'
_journal_page_first              279
_journal_page_last               284
_journal_paper_doi               10.1021/acs.jpclett.6b02458
_journal_volume                  8
_journal_year                    2017
_chemical_formula_moiety         'C14 H18 Co N2 O5'
_chemical_formula_sum            'C14 H18 Co N2 O5'
_chemical_formula_weight         353.23
_chemical_name_common            AMU1
_chemical_name_systematic
;
Co(1,4-benzenedicarboxylate)(1,4-diazabicyclo[2.2.2]octane)H2O
;
_space_group_crystal_system      triclinic
_space_group_IT_number           1
_space_group_name_Hall           'P 1'
_space_group_name_H-M_alt        'P 1'
_atom_sites_solution_hydrogens   mixed
_atom_sites_solution_primary     direct
_audit_creation_date             2016-07-12
_audit_creation_method
;
Olex2 1.2
(compiled 2016.02.19 svn.r3266 for OlexSys, GUI svn.r5155)
;
_cell_angle_alpha                89.95(3)
_cell_angle_beta                 97.84(4)
_cell_angle_gamma                94.966(12)
_cell_formula_units_Z            1
_cell_length_a                   5.7216(11)
_cell_length_b                   6.9763(8)
_cell_length_c                   10.501(12)
_cell_measurement_reflns_used    732
_cell_measurement_temperature    296(2)
_cell_measurement_theta_max      52.894
_cell_measurement_theta_min      9.342
_cell_volume                     413.7(5)
_computing_molecular_graphics    'Olex2 (Dolomanov et al., 2009)'
_computing_publication_material  'Olex2 (Dolomanov et al., 2009)'
_computing_structure_refinement  'ShelXL (Sheldrick, 2015)'
_computing_structure_solution    'ShelXS (Sheldrick, 2008)'
_diffrn_ambient_temperature      296(2)
_diffrn_measured_fraction_theta_full 0.234
_diffrn_measured_fraction_theta_max 0.225
_diffrn_measurement_device_type  'multiwire proportional'
_diffrn_measurement_method       'phi and omega scans'
_diffrn_radiation_monochromator  graphite
_diffrn_radiation_type           MoK\a
_diffrn_radiation_wavelength     0.71073
_diffrn_reflns_av_R_equivalents  0.1708
_diffrn_reflns_av_unetI/netI     0.1446
_diffrn_reflns_Laue_measured_fraction_full 0.234
_diffrn_reflns_Laue_measured_fraction_max 0.225
_diffrn_reflns_limit_h_max       6
_diffrn_reflns_limit_h_min       -6
_diffrn_reflns_limit_k_max       8
_diffrn_reflns_limit_k_min       -8
_diffrn_reflns_limit_l_max       4
_diffrn_reflns_limit_l_min       -3
_diffrn_reflns_number            1759
_diffrn_reflns_point_group_measured_fraction_full 0.234
_diffrn_reflns_point_group_measured_fraction_max 0.225
_diffrn_reflns_theta_full        26.000
_diffrn_reflns_theta_max         26.447
_diffrn_reflns_theta_min         4.671
_exptl_absorpt_coefficient_mu    1.060
_exptl_absorpt_correction_T_max  0.909
_exptl_absorpt_correction_T_min  0.892
_exptl_absorpt_correction_type   multi-scan
_exptl_absorpt_process_details
;
Data were collected and reduced by program CrysAlisPro, 
and SCALE3 ABSPACK was used for absorption correction
;
_exptl_crystal_colour            yellow
_exptl_crystal_density_diffrn    1.418
_exptl_crystal_description       plate
_exptl_crystal_F_000             183
_exptl_crystal_size_max          0.3
_exptl_crystal_size_mid          0.1
_exptl_crystal_size_min          0.1
_refine_diff_density_max         1.518
_refine_diff_density_min         -1.011
_refine_diff_density_rms         0.297
_refine_ls_abs_structure_details
;
 Refined as a perfect inversion twin.
;
_refine_ls_abs_structure_Flack   0.5
_refine_ls_extinction_method     none
_refine_ls_goodness_of_fit_ref   2.268
_refine_ls_hydrogen_treatment    constr
_refine_ls_matrix_type           full
_refine_ls_number_parameters     59
_refine_ls_number_reflns         732
_refine_ls_number_restraints     46
_refine_ls_restrained_S_all      3.721
_refine_ls_R_factor_all          0.2971
_refine_ls_R_factor_gt           0.2433
_refine_ls_shift/su_max          0.000
_refine_ls_shift/su_mean         0.000
_refine_ls_structure_factor_coef Fsqd
_refine_ls_weighting_details
'w=1/[\s^2^(Fo^2^)+(0.2000P)^2^] where P=(Fo^2^+2Fc^2^)/3'
_refine_ls_weighting_scheme      calc
_refine_ls_wR_factor_gt          0.5368
_refine_ls_wR_factor_ref         0.5804
_reflns_Friedel_coverage         1.000
_reflns_Friedel_fraction_full    0.234
_reflns_Friedel_fraction_max     0.225
_reflns_number_gt                489
_reflns_number_total             732
_reflns_threshold_expression     'I > 2\s(I)'
_cod_data_source_file            jz6b02458_si_004.cif
_cod_data_source_block           203GPa_P1
_cod_database_code               8000382
_shelx_space_group_comment
;
The symmetry employed for this shelxl refinement is uniquely defined
by the following loop, which should always be used as a source of
symmetry information in preference to the above space-group names.
They are only intended as comments.
;
_olex2_refinement_description
;
1. Fixed Uiso
 At 1.2 times of:
  All C(H) groups, All C(H,H) groups
 At 1.5 times of:
  All O(H) groups
2. Restrained distances
 C8-C1
 1.48 with sigma of 0.002
 C4-C3
 1.36 with sigma of 0.002
 C3-C2
 1.36 with sigma of 0.002
 C2-C1
 1.36 with sigma of 0.002
 C1-C6
 1.36 with sigma of 0.002
 C6-C5
 1.36 with sigma of 0.002
 C5-C4
 1.36 with sigma of 0.002
 N1-C9
 1.48 with sigma of 0.002
 N1-C13
 1.48 with sigma of 0.002
 N1-C11
 1.48 with sigma of 0.002
 C10-N2
 1.48 with sigma of 0.002
 C12-N2
 1.48 with sigma of 0.002
 N2-C14
 1.48 with sigma of 0.002
 C14-C13
 1.52 with sigma of 0.002
 C10-C9
 1.52 with sigma of 0.002
 C12-C11
 1.52 with sigma of 0.002
 O3-C7
 1.23 with sigma of 0.002
 O2-C8
 1.23 with sigma of 0.002
 C4-C7
 1.34 with sigma of 0.002
 O1_$2-Co01
 2.1 with sigma of 0.02
 O1-O2
 2.16 with sigma of 0.002
 C10-C12
 2.5 with sigma of 0.02
 O4-O3
 2.16 with sigma of 0.02
 O1W-O4
 2.7 with sigma of 0.02
 O1W_$3-O2_$4
 2.1 with sigma of 0.02
 C2-C8 \\sim C8-C6
 with sigma of 0.02
 O4-C4 \\sim C4-O3
 with sigma of 0.02
 O4-Co01 \\sim Co01-O3
 with sigma of 0.02
 C5-C7 \\sim C7-C3
 with sigma of 0.02
 O1-C1 \\sim C1-O2
 with sigma of 0.02
 O1-C1 \\sim C1-O2
 with sigma of 0.02
3. Restrained planarity
 C8, C6, C1, C2, C3, C4, C5
 with sigma of 0.1
 C8, C6, C1, C2, C3, C4, C5, C7, O4, O3, O2, O1
 with sigma of 0.1
4. Uiso/Uaniso restraints and constraints
Uiso(C4) = Uiso(C5) = Uiso(C3) = Uiso(C2) = Uiso(C1) = Uiso(C6) = Uiso(C8)
Uiso(O3) = Uiso(O4)
Uiso(N1) = Uiso(N2) = Uiso(C9) = Uiso(C12) = Uiso(C14) = Uiso(C10) = Uiso(C13)
= Uiso(C11)
Uiso(O1) = Uiso(O2) = Uiso(O3) = Uiso(O4)
Uiso(C6) = Uiso(C1) = Uiso(C2) = Uiso(C3) = Uiso(C4) = Uiso(C5) = Uiso(C8) =
Uiso(C7)
5. Others
 Fixed Uiso: O1W(0.0241)
 Fixed X: H1WA(0.39922) H1WB(0.49922)
 Fixed Y: H1WA(-0.053541) H1WB(-0.053541)
 Fixed Z: H1WA(-0.06268) H1WB(0.07268)
6.a Secondary CH2 refined with riding coordinates:
 C11(H11A,H11B), C9(H9A,H9B), C12(H12A,H12B), C14(H14A,H14B), C10(H10A,H10B),
 C13(H13A,H13B)
6.b Aromatic/amide H refined with riding coordinates:
 C6(H6), C2(H2), C3(H3), C5(H5)
6.c Fitted hexagon refined as free rotating group:
 C6(C1,C2,C3,C4,C5)
;
_shelx_hkl_file
;
   2   4   3  154.34   18.31
   2   5   3   46.70   20.95
   1   5   3    0.98   17.91
   2   6   3   57.62   24.86
   1   6   3   25.98   22.12
   2   4   2  520.61   19.56
   1   4   2   54.36   13.59
   0   4   2   51.69   12.70
  -1   4   2   62.27   12.32
  -2   4   2   59.23   13.05
   2   5   2   47.15   19.99
   1   5   2   19.41   18.69
   0   5   2   10.19   17.43
  -1   5   2    4.03   16.17
  -2   5   2   -1.48   15.57
   2   6   2   68.96   25.72
   1   6   2   37.65   21.85
   0   6   2   38.43   21.70
  -1   6   2   18.90   18.70
  -2   6   2    2.51   20.09
   2   7   2    3.74   22.57
   1   7   2   12.21   22.16
   0   7   2   23.05   20.93
  -1   7   2   26.79   22.89
   1   8   2    5.53   28.94
   0   8   2   10.16   25.87
  -1   8   2   18.56   25.86
   2   3   1  174.98   13.99
   0   3   1  114.76   22.37
   2   4   1  143.63   17.17
   1   4   1   21.87   15.30
   0   4   1   43.91   12.87
  -2   4   1   61.90   14.58
   2   5   1   14.86   18.88
   1   5   1   -3.89   17.60
   0   5   1  207.67   19.81
  -1   5   1   58.08   16.25
  -2   5   1   44.78   16.33
   2   6   1   32.99   23.08
   1   6   1    5.61   21.39
   0   6   1    9.46   22.51
  -1   6   1  -20.36   19.12
  -2   6   1   54.69   20.33
   2   7   1   15.41   22.99
   1   7   1   -9.36   25.10
   0   7   1   12.08   17.85
  -1   7   1   -7.44   23.42
  -2   7   1   -9.39   21.56
   1   8   1   -0.02   29.08
   0   8   1   19.42   25.93
  -1   8   1   -5.80   26.21
  -2   8   1    6.61   25.34
   1   2   0   58.18    6.89
   2   3   0   73.49   12.29
  -2   3   0   52.61   11.24
   1   4   0   57.77   14.58
   0   4   0  235.12   16.33
  -2   4   0  105.97   14.17
   2   5   0   27.97   19.74
   1   5   0   21.22   17.98
  -1   5   0  -45.26   17.40
  -2   5   0    0.44   15.44
   2   6   0   49.84   22.88
   1   6   0   19.53   20.95
   0   6   0  130.91   21.95
  -1   6   0  133.28   21.50
  -2   6   0   39.12   19.02
   2   7   0   -6.45   26.72
   1   7   0   16.24   24.19
   0   7   0   28.21   18.08
  -1   7   0   25.98   23.05
  -2   7   0   12.51   18.56
   1   8   0   -3.50   28.13
   0   8   0   18.82   26.36
  -1   8   0   -9.59   25.17
  -2   8   0   12.86   26.17
   0   2  -1  198.54    7.05
   0   3  -1 2205.32   19.33
  -2   3  -1   -1.92   10.45
   1   4  -1   39.64   13.78
   0   4  -1   78.85   13.30
  -1   4  -1   10.57   11.51
  -2   4  -1   70.13   13.81
   2   5  -1   26.47   18.62
   1   5  -1   -0.49   18.02
   0   5  -1  -42.03   17.58
  -1   5  -1  -36.57   17.43
  -2   5  -1   -1.56   15.28
   2   6  -1   98.07   24.32
   1   6  -1   34.33   22.51
   0   6  -1   43.06   21.54
  -1   6  -1   -9.74   19.91
  -2   6  -1   36.32   19.49
   2   7  -1   18.45   22.56
   1   7  -1    2.02   18.79
   0   7  -1    7.40   21.13
  -1   7  -1  -23.52   23.44
  -2   7  -1    9.95   20.50
   1   8  -1  105.23   27.75
   0   8  -1   36.99   27.34
  -1   8  -1   10.72   26.57
  -2   8  -1   11.77   26.47
   0   3  -2  124.41   12.68
  -1   3  -2   45.78    9.37
   1   4  -2   91.99   14.36
   0   4  -2   31.60   13.13
  -1   4  -2    9.00   12.36
   1   5  -2   11.90   17.86
   0   5  -2   14.38   17.27
  -1   5  -2   14.31   16.38
  -2   5  -2   -6.74   15.56
   1   6  -2  -13.71   20.72
   0   6  -2   11.57   20.08
  -1   6  -2   -4.29   19.46
  -2   6  -2   20.96   20.11
   0   7  -2    4.11   37.92
  -1   7  -2   -3.53   21.93
  -2   7  -2    4.15   36.98
   0   8  -2   -2.80   27.12
  -1   8  -2    6.43   26.59
  -2   8  -2    7.90   25.86
   1  -8   2   15.59   21.43
   2  -7   2   30.05   18.24
   0  -7   2   38.08   19.59
   2  -6   2   68.76   17.40
   1  -6   2   15.93   17.12
   0  -6   2   76.45   17.56
  -1  -6   2   25.44   17.85
   2  -5   2   24.04   14.05
   1  -5   2    4.11   13.52
   0  -5   2   92.62   14.04
  -1  -5   2   -4.53   13.59
   2  -4   2  118.72   13.24
   1  -4   2   36.62   10.58
  -1  -4   2  126.41   11.34
   0  -3   2  294.32    9.29
   2  -8   1  -26.24   22.36
   1  -8   1    8.07   21.80
   0  -8   1   -0.07   22.14
  -1  -8   1   20.95   23.22
   2  -7   1   86.87   19.04
   1  -7   1   98.45   20.50
   0  -7   1  157.74   18.58
  -1  -7   1   42.43   19.44
  -2  -7   1  -13.47   22.70
   2  -6   1   18.78   17.87
   1  -6   1   -8.02   17.34
   0  -6   1    6.76   19.03
  -1  -6   1   -2.35   17.36
  -2  -6   1  182.66   18.60
   2  -5   1   33.05   14.01
   1  -5   1  144.17   14.83
   0  -5   1  269.28   15.73
  -1  -5   1    2.67   14.04
  -2  -5   1   27.36   14.95
   2  -4   1  125.03   14.02
   1  -4   1   18.34   10.41
   0  -4   1   72.04   11.37
  -1  -4   1   32.68   11.02
   0  -2   1  174.16    6.73
  -1  -2   1  133.88    5.72
   2  -8   0   14.20   22.61
   1  -8   0  150.49   23.87
   0  -8   0    5.50   23.46
  -1  -8   0  -10.04   22.38
   2  -7   0   33.97   20.08
   0  -7   0  114.78   21.13
  -1  -7   0   43.62   20.90
  -2  -7   0   33.32   11.79
  -3  -7   0   19.02   20.57
   2  -6   0  -13.77   18.75
   1  -6   0   46.63   21.85
   0  -6   0   23.20   18.11
  -1  -6   0    6.37   18.83
  -2  -6   0   14.97   19.69
  -3  -6   0   29.79   19.03
   2  -5   0   35.04   14.07
  -1  -5   0   41.44   14.25
  -2  -5   0   23.11   15.43
  -3  -5   0   19.82   15.58
   0  -4   0  302.95   12.26
  -1  -4   0   56.95   11.70
  -2  -4   0   35.61   15.47
  -3  -4   0   91.17   12.85
  -2  -3   0   27.21    9.91
  -1  -2   0   48.22    5.35
  -2  -2   0  228.23    7.83
   2  -8  -1    6.82   22.30
   1  -8  -1   27.24   22.07
   0  -8  -1   26.13   22.74
  -1  -8  -1   20.72   22.72
   2  -7  -1  112.00   18.68
   1  -7  -1  128.26   19.89
   0  -7  -1  125.98   18.32
  -1  -7  -1   38.81   15.94
  -2  -7  -1   55.65   22.67
  -3  -7  -1   63.05   20.58
   2  -6  -1   89.00   17.05
   1  -6  -1   11.75   16.16
   0  -6  -1  125.30   17.89
  -1  -6  -1   37.87   18.06
  -2  -6  -1  102.76   19.64
  -3  -6  -1    5.13   20.74
   2  -5  -1   -2.46   13.58
   1  -5  -1  100.13   14.00
   0  -5  -1  300.36   15.34
  -1  -5  -1    0.73   14.28
  -2  -5  -1   37.70   15.81
  -3  -5  -1   32.94   16.07
   1  -4  -1  137.03   11.10
   0  -4  -1   16.68   11.07
  -1  -4  -1   97.02   11.56
  -2  -4  -1  166.27   13.33
  -3  -4  -1   64.38   14.70
   2  -3  -1   69.81    9.54
   1  -3  -1  251.67    9.32
  -2  -3  -1  163.27   11.02
  -1  -2  -1  122.21    5.96
   1  -8  -2   21.71   21.55
   0  -8  -2    5.75   22.38
  -1  -8  -2   20.91   23.25
   1  -7  -2   18.97   18.89
   0  -7  -2   -9.87   19.90
  -1  -7  -2   -0.38   22.09
  -2  -7  -2   -6.58   23.85
  -3  -7  -2   53.68   20.57
   2  -6  -2   44.19   16.56
   1  -6  -2   29.06   16.54
   0  -6  -2   35.65   17.08
  -1  -6  -2   53.05   19.03
  -2  -6  -2  132.74   20.90
  -3  -6  -2  117.40   21.17
   2  -5  -2   22.41   13.66
   1  -5  -2   37.08   13.44
   0  -5  -2   61.62   14.37
  -1  -5  -2   41.82   14.53
  -2  -5  -2   88.69   16.42
  -3  -5  -2   52.69   16.87
   1  -4  -2   99.19   10.70
   0  -4  -2   15.80   10.75
  -1  -4  -2   81.60   12.01
  -2  -4  -2  619.94   15.86
  -3  -4  -2   96.27   14.60
   0  -3  -2  252.00    9.21
  -2  -2  -2  449.55   11.34
  -1  -6  -3   11.69   19.34
  -2  -6  -3  124.70   19.96
  -3  -6  -3   14.92   20.87
  -1  -5  -3  -14.52   14.82
  -2  -5  -3   34.06   16.37
  -3  -5  -3    9.59   17.70
  -2  -4  -3  273.72   14.68
  -3  -4  -3   66.01   15.07
  -2  -3  -3  280.30   11.16
   1   3   2  122.65    9.03
   3   4   2  105.49   14.72
   2   4   2  469.11   16.64
   1   4   2   76.76   11.83
   0   4   2   69.22   11.12
   3   5   2    3.86   17.48
   2   5   2   63.24   16.91
   1   5   2   34.57   15.49
   0   5   2    4.31   14.43
  -1   5   2   29.02   13.65
   3   6   2  112.35   22.17
   2   6   2  159.27   22.63
   1   6   2   36.99   19.91
   0   6   2   11.75   17.30
  -1   6   2   -6.37   17.17
   3   7   2   32.80   23.98
   2   7   2   92.98   19.13
   1   7   2   49.43   22.57
   0   7   2   10.63   10.98
  -1   7   2   15.77   18.59
   0   8   2    8.12   23.36
   1   3   1  158.25   10.10
   0   3   1  910.42   17.72
  -1   3   1  237.45    8.83
   3   4   1   84.05   15.73
   1   4   1   53.47   12.71
   0   4   1    8.86   11.05
  -2   4   1  117.71   12.54
   3   5   1   31.78   19.00
   2   5   1    5.11   17.36
   1   5   1   10.74   15.27
   0   5   1  172.98   17.12
  -1   5   1  112.61   13.79
  -2   5   1   22.10   12.66
   3   6   1  -30.86   23.79
   2   6   1   82.40   21.11
   1   6   1   -7.70   19.50
   0   6   1   89.13   18.39
  -1   6   1   -4.95   17.11
  -2   6   1  159.57   17.32
   3   7   1  127.60   27.07
   2   7   1   15.46   17.54
   1   7   1   12.86   22.16
   0   7   1   54.03   15.14
  -1   7   1  140.82   20.43
  -2   7   1   -0.53   19.69
   0   8   1   11.68   23.82
  -1   8   1    4.84   22.71
  -2   8   1    6.29   22.05
   2   2   0  267.68    8.79
   1   2   0   33.11    5.62
   2   3   0  180.73   11.10
   1   3   0  488.19   11.93
   0   3   0 2295.34   16.81
   3   4   0  111.87   16.10
   2   4   0  208.74   15.35
   1   4   0   86.18   12.12
   0   4   0  258.99   12.26
  -1   4   0  798.67   14.50
  -2   4   0   80.35   11.28
   3   5   0   36.25   19.78
   2   5   0   -3.46   16.90
   1   5   0   28.67   15.83
  -2   5   0   11.81   12.85
   3   6   0   84.63   23.98
   2   6   0   54.65   21.98
   1   6   0   70.14   19.43
   0   6   0   26.07   19.22
  -1   6   0  325.70   19.02
  -2   6   0  148.98   16.93
   3   7   0   22.06   19.63
   2   7   0  -25.97   25.49
   1   7   0   89.55   21.60
   0   7   0   81.12   19.01
  -1   7   0   14.86   15.76
  -2   7   0   21.00   16.23
   0   8   0   30.81   23.95
  -1   8   0  126.55   23.97
  -2   8   0   28.59   22.74
   1   3  -1  178.07   10.17
  -1   3  -1  730.16   10.71
   3   4  -1   51.64   16.39
   1   4  -1   73.79   12.09
   0   4  -1   39.96   11.62
  -1   4  -1   18.79   10.09
   3   5  -1    3.91   20.19
   2   5  -1   26.12   18.23
   1   5  -1    8.87   15.52
   0   5  -1  143.73   16.25
  -1   5  -1  141.61   14.34
  -2   5  -1   -2.19   13.10
   3   6  -1    5.05   24.07
   2   6  -1  188.21   22.34
   1   6  -1    6.98   19.80
   0   6  -1   83.11   18.46
  -1   6  -1   -6.97   16.59
  -2   6  -1   49.65   17.42
   2   7  -1   69.53   16.79
   1   7  -1   -7.72   23.17
   0   7  -1  101.38   18.89
  -1   7  -1   90.39   19.96
  -2   7  -1   16.22   11.43
   0   8  -1   38.86   24.16
  -1   8  -1   64.22   23.28
  -2   8  -1   -3.87   22.24
  -2   3  -2   87.44    9.35
   1   4  -2  140.74   12.83
   0   4  -2  120.16   11.23
   1   5  -2    2.08   15.48
   0   5  -2   51.07   14.54
  -1   5  -2   -2.16   13.10
  -2   5  -2   21.60   13.26
   1   6  -2   29.04   20.36
   0   6  -2   56.81   17.76
  -1   6  -2  -21.33   16.89
  -2   6  -2   92.31   17.22
   0   7  -2   11.83   16.78
  -1   7  -2    2.19   13.46
  -2   7  -2   53.44   17.85
   0   8  -2   12.82   24.01
  -1   8  -2    6.94   22.85
  -2   8  -2   -0.76   22.35
  -2   6  -3   51.12   16.13
   2  -6   3   90.77   19.35
   2  -8   2   -2.29   25.57
   1  -8   2   -6.57   25.58
   0  -8   2   10.98   27.03
   2  -7   2   84.60   19.25
   1  -7   2    2.85   20.24
   0  -7   2   64.93   25.73
   2  -6   2   94.63   20.05
   1  -6   2  -14.33   19.02
   0  -6   2   67.59   20.33
  -1  -6   2   52.55   22.47
   2  -5   2    2.85   15.30
   1  -5   2   -0.55   14.98
   0  -5   2   72.21   16.35
  -1  -5   2    6.40   17.62
   0  -4   2  164.51   13.09
  -1  -4   2  170.63   14.44
   2  -3   2  107.69   10.59
   2  -2   2   70.02    7.21
   2  -8   1   13.04   26.18
   1  -8   1   63.22   27.11
   0  -8   1   27.07   26.86
   2  -7   1   13.78   10.74
   1  -7   1  116.93   23.16
   0  -7   1  108.38   21.39
  -1  -7   1  -23.69   26.32
  -2  -7   1   92.24   18.64
   2  -6   1   27.86   19.47
   1  -6   1   16.63   19.16
   0  -6   1   29.14   21.03
  -1  -6   1   31.61   21.64
  -2  -6   1  197.76   24.32
   2  -5   1   -4.19   14.79
   1  -5   1  185.77   15.96
   0  -5   1  177.30   18.00
  -1  -5   1   14.06   17.22
  -2  -5   1   29.80   19.71
   2  -4   1  117.26   12.50
   1  -4   1   20.25   11.52
   0  -4   1   49.96   13.22
  -1  -4   1   48.33   13.66
  -2  -4   1  145.18   16.73
  -1  -3   1  174.75   11.43
   2  -2   1   82.56    6.03
   0  -2   1  186.24    7.65
   2  -8   0   35.60   25.83
   1  -8   0  220.76   27.74
   0  -8   0   30.85   27.52
   2  -7   0   43.67   20.25
   1  -7   0  -65.69   26.40
   0  -7   0   44.02   18.57
  -1  -7   0  116.64   24.69
  -2  -7   0  -21.90   28.33
   2  -6   0  159.59   19.81
   1  -6   0  380.28   21.80
   0  -6   0    5.63   21.49
  -1  -6   0   91.43   21.30
  -2  -6   0  -55.66   24.85
   2  -5   0   21.66   15.01
   1  -5   0  524.13   18.66
   0  -5   0  213.02   19.41
  -1  -5   0   41.73   17.44
  -2  -5   0    1.88   19.03
   2  -4   0   50.01   13.46
   1  -4   0  940.52   16.42
   0  -4   0  268.72   13.55
  -1  -4   0  101.70   13.53
  -2  -4   0  268.41   16.62
  -2  -3   0  157.29   11.77
  -1  -2   0   48.18    6.33
  -2  -2   0  297.64    9.59
   1  -8  -1    0.74   25.77
   0  -8  -1    0.31   27.16
   1  -7  -1  146.31   22.38
   0  -7  -1  100.79   19.35
  -1  -7  -1   23.10   24.67
  -2  -7  -1   68.76   25.26
   2  -6  -1   82.86   19.66
   1  -6  -1  -10.02   19.31
   0  -6  -1  136.60   21.06
  -1  -6  -1   -1.46   21.62
  -2  -6  -1   88.58   23.23
   2  -5  -1   -5.33   14.52
   1  -5  -1  123.83   16.11
   0  -5  -1  164.39   19.32
  -1  -5  -1    1.28   17.05
  -2  -5  -1    6.17   19.31
   2  -4  -1  126.63   13.91
   1  -4  -1  150.93   12.62
   0  -4  -1    3.33   12.61
  -1  -4  -1   93.02   13.90
  -2  -4  -1  176.94   16.49
   1  -3  -1  255.79    9.75
   0  -3  -1  634.94   19.61
  -1  -3  -1  161.99   10.84
  -2  -3  -1  273.22   11.86
  -2  -2  -1   14.97    8.28
  -1  -7  -2   30.32   24.92
  -2  -7  -2   38.05   19.15
   0  -6  -2   25.77   19.61
  -1  -6  -2   38.69   21.54
  -2  -6  -2  200.10   23.82
   0  -5  -2   22.07   15.98
  -1  -5  -2   37.53   16.88
  -2  -5  -2   50.58   18.70
   0  -4  -2   45.25   12.33
  -1  -4  -2   90.42   13.17
  -2  -4  -2  477.66   17.82
  -1  -3  -2  158.94   10.01
   0  -6   2   56.23   17.45
  -1  -6   2   -6.17   20.48
   0  -5   2   33.24   14.38
  -1  -5   2   -2.92   16.82
   0  -4   2   85.94   11.60
  -1  -4   2  135.47   14.15
  -1  -7   1  -18.04   22.95
  -2  -7   1  -21.21   27.84
   0  -6   1   96.62   16.60
  -1  -6   1   27.03   18.97
  -2  -6   1   48.50   23.20
  -3  -6   1   27.38   26.46
   0  -5   1   37.67   14.92
  -1  -5   1    7.28   15.76
  -2  -5   1   38.14   19.69
  -3  -5   1   -5.81   22.36
  -4  -5   1   17.99   26.59
   1  -4   1   15.13    8.44
   0  -4   1  109.79   10.85
  -1  -4   1   45.14   12.79
  -3  -4   1   17.50   19.98
  -4  -4   1   30.88   23.67
   1  -3   1  702.14    9.20
  -1  -3   1  198.49   11.58
  -3  -3   1  165.55   17.10
  -4  -3   1   64.52   20.91
  -5  -3   1   58.89   24.38
  -4  -2   1   91.96   17.63
  -3  -1   1  229.62   12.00
  -3   0   1  789.60   12.67
  -1  -7   0   59.96   20.03
  -2  -7   0   24.26   14.50
   0  -6   0  112.22   17.02
  -1  -6   0   49.27   19.04
  -2  -6   0  167.79   22.62
  -3  -6   0   91.46   26.22
  -4  -6   0   47.53   29.35
   0  -5   0  383.08   15.08
  -1  -5   0   61.03   15.55
  -2  -5   0   12.35   19.18
  -3  -5   0   26.09   22.42
  -4  -5   0   11.24   25.86
  -5  -5   0    0.47   30.75
   1  -4   0  860.07   11.75
   0  -4   0  272.19   11.15
  -1  -4   0   81.46   12.48
  -2  -4   0  265.78   16.80
  -3  -4   0  109.53   19.44
  -4  -4   0   44.95   22.57
   1  -3   0 1196.22   11.76
  -1  -3   0  493.35   12.29
  -3  -3   0  248.15   16.99
  -4  -3   0  168.44   20.35
  -5  -3   0   27.84   22.87
   0  -2   0 5206.72   18.92
  -1  -2   0   55.39    6.43
  -2  -2   0  238.58   11.38
  -3  -2   0  168.08   13.33
  -4  -2   0   54.37   16.05
  -2  -1   0 1045.02   11.60
  -3  -1   0  120.75   10.19
  -3   0   0 1032.85   11.83
  -1  -7  -1  -20.86   20.96
  -2  -7  -1   79.19   23.59
   0  -6  -1  100.91   16.19
  -1  -6  -1  -14.15   18.18
  -2  -6  -1   64.47   21.60
  -3  -6  -1   97.08   24.58
  -4  -6  -1   26.41   28.11
   0  -5  -1   67.61   14.83
  -1  -5  -1    9.74   14.44
  -2  -5  -1   22.97   18.91
  -3  -5  -1  -48.58   22.72
  -4  -5  -1    9.61   23.83
  -5  -5  -1   -3.15   27.64
   0  -4  -1   30.39    9.36
  -1  -4  -1   79.72   12.57
  -2  -4  -1  122.33   17.54
  -3  -4  -1  153.59   19.26
  -4  -4  -1   14.26   21.77
  -5  -4  -1   57.91   24.23
  -1  -3  -1  174.13   10.65
  -2  -3  -1  240.55   13.44
  -3  -3  -1  193.71   17.45
  -4  -3  -1   39.54   19.37
  -5  -3  -1   30.89   20.44
  -3  -2  -1  166.68   12.67
  -4  -2  -1   24.95   15.42
  -1  -1  -1  106.74    4.04
  -2  -1  -1 1008.33   10.64
  -3  -1  -1  245.68   10.07
  -3   0  -1  875.87    9.97
  -1  -7  -2   44.60   19.28
  -2  -7  -2   86.73   22.75
  -1  -6  -2   53.00   18.78
  -2  -6  -2  235.49   21.74
  -3  -6  -2    4.87   24.57
  -4  -6  -2   22.76   26.95
  -1  -5  -2   43.57   14.93
  -2  -5  -2   49.75   18.50
  -3  -5  -2   54.26   20.75
  -4  -5  -2   31.69   23.73
  -5  -5  -2   -0.87   27.40
  -1  -4  -2   71.26   12.22
  -2  -4  -2  575.55   17.70
  -3  -4  -2  109.10   18.21
  -4  -4  -2   16.84   20.61
  -5  -4  -2   -8.87   24.27
  -1  -3  -2  168.70    9.85
  -2  -3  -2  745.42   15.56
  -3  -3  -2  213.20   15.45
  -4  -3  -2   62.27   18.64
  -5  -3  -2  -10.06   20.49
  -1  -2  -2   25.42    6.10
  -2  -2  -2  537.24   12.43
  -3  -2  -2  236.52   12.08
  -4  -2  -2   48.12   14.55
  -3  -1  -2  657.38   11.50
  -2  -6  -3   89.93   20.44
  -3  -6  -3   33.97   22.91
  -4  -6  -3   85.72   27.39
  -2  -5  -3   41.93   17.74
  -3  -5  -3   15.86   20.03
  -4  -5  -3   25.28   22.89
  -5  -5  -3   11.00   26.76
  -2  -4  -3  138.23   16.72
  -3  -4  -3   25.69   17.55
  -4  -4  -3   82.50   20.58
  -5  -4  -3   59.24   23.05
  -3  -3  -3  232.16   15.03
  -4  -3  -3  103.76   17.05
   0   4   2   40.86   10.80
  -1   4   2   68.57   12.05
   0   5   2   24.83   14.12
  -1   5   2   19.13   15.33
  -2   5   2   12.31   16.22
   0   6   2   26.52   17.84
  -1   6   2   38.17   18.58
  -2   6   2   53.90   19.99
  -1   3   1  267.76   10.68
  -3   3   1  103.67   12.58
   1   4   1  118.87   10.86
   0   4   1   67.88   11.85
  -1   4   1  173.96   12.79
  -2   4   1   96.75   16.47
  -3   4   1   48.68   15.17
   1   5   1   -0.94   13.88
   0   5   1  312.44   16.54
  -1   5   1  -17.67   16.89
  -2   5   1   21.25   17.17
  -3   5   1   27.06   17.75
  -4   5   1   20.02   19.19
   0   6   1   52.97   20.07
  -1   6   1   14.64   19.47
  -2   6   1  179.19   21.17
  -3   6   1  101.88   21.56
  -4   6   1   19.32   22.33
   0   7   1  145.77   19.99
  -1   7   1   50.62   22.53
  -2   7   1   64.54   19.26
  -3   7   1  -34.42   25.44
  -1   8   1   15.61   25.99
  -3   1   0   91.31    6.79
  -3   2   0  139.16    9.88
  -3   3   0  135.92   12.91
  -4   3   0  157.12   15.45
   1   4   0   82.45   11.56
  -3   4   0  201.94   16.12
  -4   4   0  161.93   17.63
   1   5   0   20.91   15.43
  -2   5   0   -5.76   17.19
  -3   5   0    7.78   18.52
  -4   5   0   35.52   19.67
   0   6   0   47.81   20.96
  -1   6   0  202.41   23.10
  -2   6   0  102.72   21.49
  -3   6   0   16.82   21.79
  -4   6   0  140.81   23.11
  -5   6   0    7.44   24.01
   0   7   0  137.78   21.71
  -1   7   0   92.80   16.95
  -3   7   0   -0.21   25.04
  -1   8   0  160.09   26.98
  -2   8   0   22.60   26.38
  -3   1  -1  259.39    8.90
  -2   2  -1   79.76    7.88
  -3   2  -1   46.91    9.86
  -1   3  -1  724.48   12.47
  -3   3  -1  242.95   13.91
   1   4  -1   54.65   11.64
  -1   4  -1   19.13   12.36
  -3   4  -1  158.19   16.45
   1   5  -1    5.38   15.53
  -1   5  -1   46.13   17.83
  -2   5  -1   11.96   17.56
  -3   5  -1    5.09   18.95
  -4   5  -1   66.90   20.68
   0   6  -1   92.97   20.52
  -1   6  -1   -4.51   19.88
  -2   6  -1   47.21   22.03
  -3   6  -1   94.86   22.29
  -4   6  -1   11.41   23.67
  -5   6  -1   44.75   25.47
   0   7  -1  107.24   17.94
  -1   7  -1   45.94   19.47
  -3   7  -1   78.51   19.76
  -1   8  -1   51.04   27.42
  -2   8  -1   21.87   26.90
  -3   1  -2  870.89   11.14
  -3   2  -2  416.40   11.89
  -3   3  -2  430.27   14.72
  -4   3  -2  132.41   17.21
   1   4  -2  116.43   11.79
  -3   4  -2  389.18   17.27
  -4   4  -2  154.33   18.33
   1   5  -2   15.87   15.21
   0   5  -2   17.71   15.71
  -1   5  -2   14.11   15.67
  -2   5  -2   31.09   17.26
  -3   5  -2   27.25   18.85
  -4   5  -2   27.10   21.08
   0   6  -2  119.20   19.82
  -1   6  -2   44.87   19.56
  -2   6  -2  171.24   21.36
  -3   6  -2   63.91   22.23
  -4   6  -2   95.69   24.03
  -5   6  -2  -10.03   25.25
   0   7  -2   30.41   28.19
  -1   7  -2   -4.63   23.15
  -3   7  -2  -48.04   26.74
  -1   8  -2   -3.19   27.22
  -3   2  -3  143.20    9.97
  -3   3  -3  169.81   13.22
  -4   3  -3  134.48   17.42
  -3   4  -3  154.09   16.01
  -4   4  -3   72.65   18.32
  -2   5  -3    9.46   16.51
  -3   5  -3  183.56   19.43
  -4   5  -3   43.09   20.63
  -2   6  -3   11.99   20.39
  -3   6  -3  -29.57   22.81
  -4   6  -3   79.73   23.47
  -5   6  -3   37.08   26.06
   4  -6   3   62.13   20.56
   3  -6   3   89.94   18.95
   4  -5   3   35.71   18.36
   3  -5   3   14.45   16.64
   2  -5   3   11.84   14.66
   3  -4   3  170.68   14.55
   2  -8   2    3.93   21.71
   4  -7   2   73.74   26.27
   3  -7   2   30.48   12.88
   2  -7   2   91.63   21.56
   1  -7   2  -11.17   17.88
   4  -6   2   47.95   21.90
   3  -6   2    4.68   20.73
   2  -6   2   51.17   18.67
   1  -6   2   21.11   16.47
   0  -6   2   69.50   14.53
   4  -5   2   33.13   18.49
   3  -5   2   41.03   17.38
   2  -5   2    6.53   15.31
   1  -5   2    2.50   13.45
   0  -5   2   17.53   11.91
   4  -4   2  138.59   16.75
   1  -4   2   31.08   10.69
   4  -3   2   92.92   16.04
   3  -3   2  448.29   13.98
   2  -3   2  267.04   11.11
   3  -2   2  434.17   10.80
   2  -2   2  180.23    7.93
   2  -8   1   28.81   22.66
   1  -8   1   -2.00   21.95
   4  -7   1   30.16   19.08
   3  -7   1   47.22   20.65
   2  -7   1    9.16   10.14
   1  -7   1   60.98   14.34
   0  -7   1   16.84   19.82
   4  -6   1   37.35   22.20
   3  -6   1   63.20   21.41
   2  -6   1  136.52   20.36
   1  -6   1  -12.66   17.32
   0  -6   1  120.32   16.81
   4  -5   1    3.19   20.45
   3  -5   1   18.08   18.09
   2  -5   1   24.67   16.27
   0  -5   1   -2.08   14.83
  -1  -5   1    3.80   10.37
   4  -4   1  162.99   18.01
   3  -4   1  122.18   16.57
   2  -4   1   -8.88   15.92
   1  -4   1    0.07   11.17
  -1  -4   1   19.18    8.11
   3  -3   1  246.56   14.06
   0  -3   1 2132.53   15.44
   3  -2   1   34.21    9.96
   3  -1   1  309.27    8.70
   2  -8   0    2.55   23.83
   1  -8   0  154.28   24.13
   4  -7   0   22.17   13.07
   3  -7   0   15.46   13.96
   2  -7   0   64.61   21.66
   1  -7   0   55.59   18.97
   4  -6   0   44.01   23.33
   3  -6   0   40.80   21.13
   2  -6   0  227.89   20.57
   0  -6   0  109.38   17.18
   4  -5   0   33.26   20.44
   3  -5   0   -6.59   18.01
   2  -5   0   15.45   16.15
   1  -5   0   28.92   18.59
  -1  -5   0   53.27   12.24
   4  -4   0  155.53   18.80
   1  -4   0  830.25   16.29
   0  -4   0  106.88   13.19
  -1  -4   0   66.63    9.75
   3  -3   0  139.20   13.37
   3  -2   0  115.17   10.73
   3  -1   0  124.49    8.68
   2  -8  -1  -11.82   24.52
   1  -8  -1   14.86   22.65
   4  -7  -1   55.93   19.57
   3  -7  -1   52.90   15.22
   2  -7  -1   40.03   18.46
   1  -7  -1   73.01   16.34
   0  -7  -1   16.51   14.36
   4  -6  -1   56.01   21.98
   3  -6  -1  125.95   21.23
   2  -6  -1   90.84   20.52
   1  -6  -1   24.13   18.26
   0  -6  -1   62.43   17.12
   4  -5  -1   34.64   19.89
   3  -5  -1   -3.12   18.19
   2  -5  -1   -3.61   16.19
   1  -5  -1   41.77   15.86
  -1  -5  -1    4.45   12.87
   4  -4  -1   43.80   18.14
   3  -4  -1   36.56   15.59
   1  -4  -1  136.55   12.22
   0  -4  -1   69.43   11.46
  -1  -4  -1   79.03   10.44
   4  -3  -1  164.27   17.08
   3  -3  -1  158.67   12.93
   2  -3  -1   60.73   12.44
   0  -3  -1 1941.48   18.20
   3  -2  -1   49.13    9.88
   3  -1  -1  216.08    8.81
   1  -8  -2   24.61   22.61
   1  -7  -2    6.12   13.18
   0  -7  -2   38.35   14.39
   2  -6  -2   77.33   18.88
   1  -6  -2   48.00   18.01
   0  -6  -2   48.98   17.51
   2  -5  -2    7.37   15.86
   1  -5  -2   24.69   14.22
   0  -5  -2   78.26   14.15
  -1  -5  -2   33.76   13.55
   1  -4  -2   73.96   11.43
   0  -4  -2   76.91   10.40
  -1  -4  -2   69.21   10.44
  -1  -5  -3   18.04   13.01
   3   1   3  280.09   10.41
   4   2   3   61.89   14.96
   3   2   3  110.54   12.06
   4   3   3   87.15   18.42
   3   3   3  223.81   15.49
   2   3   3  214.73   12.63
   5   4   3  164.26   25.43
   4   4   3   66.68   20.87
   3   4   3   63.17   17.17
   5   5   3   28.64   27.83
   4   5   3   62.47   24.41
   3   5   3   31.04   19.92
   2   5   3   21.13   17.18
   1   5   3    0.11   13.68
   4   6   3   93.27   27.01
   3   6   3   18.47   23.10
   2   6   3   55.24   20.53
   1   6   3   22.26   17.65
   3   7   3   20.13   20.12
   3   0   2 1812.12   13.41
   3   1   2  703.73   12.28
   2   1   2  947.96   10.54
   4   2   2   54.44   15.11
   3   2   2  203.83   12.34
   2   2   2  537.56   11.60
   1   2   2   16.91    5.68
   4   3   2  184.85   19.16
   3   3   2  222.24   15.52
   5   4   2  -24.34   25.27
   4   4   2   24.37   20.50
   3   4   2   30.62   18.24
   1   4   2   49.12   11.44
   0   4   2   74.43    9.23
  -1   4   2   57.80    7.68
   5   5   2    2.82   27.40
   4   5   2   29.16   22.77
   3   5   2   14.82   21.01
   2   5   2   77.09   17.75
   1   5   2   45.93   13.94
   0   5   2   51.19   12.10
   4   6   2   42.12   27.41
   3   6   2   67.77   23.70
   2   6   2  253.13   21.58
   1   6   2   50.16   17.52
   0   6   2    7.25   14.62
   3   7   2   72.50   26.13
   2   7   2  181.21   21.33
   1   7   2   17.69   19.41
   3   0   1  851.16   10.62
   3   1   1  247.34   10.48
   2   1   1 1007.73   10.39
   4   2   1   57.79   15.36
   3   2   1  141.32   12.30
   4   3   1  121.18   18.79
   3   3   1  322.60   16.11
   2   3   1  229.37   12.22
   5   4   1   57.57   25.40
   4   4   1   20.81   21.32
   3   4   1   90.16   18.49
   2   4   1  -44.65   17.74
   1   4   1  100.52   11.53
   0   4   1   12.87    9.18
  -1   4   1  141.12    8.55
   5   5   1   10.53   28.34
   4   5   1   20.10   23.57
   3   5   1   24.62   21.11
   2   5   1   25.46   17.62
   1   5   1   18.96   13.95
   0   5   1  305.95   13.98
   4   6   1   35.65   26.66
   3   6   1  -47.41   25.61
   2   6   1    3.29   22.05
   1   6   1   29.60   18.01
   0   6   1   20.39   16.30
   3   7   1    7.18   19.15
   2   7   1   58.56   24.30
   1   7   1   33.26   18.07
   3   0   0 1020.54   11.72
   3   1   0  119.58    9.81
   2   1   0 1140.31   11.47
   4   2   0   86.40   15.81
   3   2   0  116.09   12.49
   2   2   0  296.62   10.90
   1   2   0   41.30    6.22
   3   3   0  245.01   16.18
   5   4   0   62.57   25.70
   4   4   0   66.64   21.89
   3   4   0  114.05   18.62
   2   4   0  134.55   18.74
   1   4   0   44.30   12.16
   0   4   0   -1.73   13.55
  -1   4   0  819.65   12.05
   5   5   0    2.10   27.97
   4   5   0    3.94   24.26
   3   5   0    8.10   21.00
   2   5   0   34.66   18.25
   1   5   0   57.03   15.42
   4   6   0   -6.73   28.24
   3   6   0  113.84   25.08
   2   6   0   96.19   22.03
   1   6   0   26.61   18.76
   0   6   0   20.87   16.64
   3   7   0  -25.63   28.44
   2   7   0   34.23   19.72
   1   7   0   46.71   22.23
   3   2  -1   61.22   12.84
   3   3  -1  172.13   17.10
  -1   3  -1  542.45   11.44
   4   4  -1   66.42   22.20
   3   4  -1   62.25   19.39
   1   4  -1   65.96   13.49
   0   4  -1   53.65   11.86
  -1   4  -1   22.91    9.46
   4   5  -1   23.73   25.24
   3   5  -1   10.76   22.04
   2   5  -1   82.27   19.45
   1   5  -1   10.92   16.18
   0   5  -1  274.92   15.71
   3   6  -1    5.49   24.50
   2   6  -1   53.93   23.59
   1   6  -1   11.89   19.84
   0   6  -1    7.71   18.11
   2   7  -1  134.79   22.86
   1   7  -1   -8.30   22.36
   1   4  -2  172.20   14.61
   6   1   4   67.52   25.10
   5   1   4   11.46   20.25
   3  -2   3  151.45    9.27
   5  -1   3   44.75   16.53
   4  -1   3  112.62   12.88
   3  -1   3  235.79   10.07
   5   0   3  720.74   21.66
   3   0   3  884.02   14.65
   6   1   3   90.39   25.44
   5   1   3  120.37   20.07
   4   1   3   31.51   15.47
   3   1   3  278.81   13.01
   6   2   3   42.18   27.51
   5   2   3  169.81   22.79
   4   2   3   68.62   17.71
   3   2   3  129.24   13.52
   6   3   3   92.44   29.23
   5   3   3  145.32   24.72
   4   3   3  116.38   19.65
   3   3   3  221.44   15.87
   5   4   3  109.51   26.64
   4   4   3   88.21   21.67
   3   4   3   54.62   17.34
   5   5   3   50.18   28.36
   4   5   3   44.14   23.23
   3   5   3   -1.70   18.28
   3  -2   2  353.86   10.03
   5  -1   2   72.50   17.53
   4  -1   2  147.95   13.36
   3  -1   2  863.49   12.49
   5   0   2  152.52   18.82
   3   0   2 1880.71   17.28
   6   1   2  268.98   26.93
   5   1   2   35.12   19.97
   4   1   2   95.78   15.62
   3   1   2  707.28   14.27
   2   1   2  898.77   11.52
   6   2   2   74.70   26.86
   5   2   2  -22.78   21.51
   4   2   2   50.79   17.28
   3   2   2  205.11   13.69
   2   2   2  515.83   12.64
   6   3   2  111.50   29.74
   5   3   2   48.15   24.29
   4   3   2  174.77   20.28
   3   3   2  263.39   15.66
   1   3   2  123.23    8.76
   5   4   2   33.03   26.02
   4   4   2   42.61   21.02
   3   4   2  142.06   17.49
   1   4   2   59.81    9.49
   5   5   2    3.76   27.22
   4   5   2   21.31   22.99
   3   5   2   37.22   18.73
   3  -2   1   28.77    8.30
   5  -1   1   17.53   17.07
   4  -1   1  345.50   14.42
   3  -1   1  293.22   10.21
   5   0   1   60.58   18.51
   3   0   1  857.91   13.77
   6   1   1  248.03   25.45
   5   1   1  -10.09   20.38
   4   1   1  142.03   16.93
   3   1   1  232.96   12.23
   2   1   1 1024.23   11.56
   6   2   1   67.80   27.06
   5   2   1    8.78   21.73
   4   2   1   21.35   17.80
   3   2   1  129.38   13.32
   1   2   1  131.24    6.03
   6   3   1   57.99   29.46
   5   3   1   -0.82   24.35
   4   3   1  118.93   20.57
   3   3   1  294.98   16.41
   1   3   1  171.86    8.61
   5   4   1   40.78   25.51
   4   4   1   23.78   21.08
   3   4   1  152.78   17.96
   2   4   1  124.57   14.91
   1   4   1   92.82    9.51
   5   5   1  -22.14   27.58
   4   5   1   10.18   22.70
   3   5   1   32.61   18.87
   3  -2   0  137.70    9.68
   5  -1   0   22.93   17.54
   4  -1   0  123.31   14.16
   3  -1   0  107.55    9.65
   5   0   0  161.16   19.68
   3   0   0  919.86   14.85
   6   1   0   65.41   26.06
   5   1   0   15.16   20.68
   4   1   0  123.80   17.17
   3   1   0  117.51   12.10
   2   1   0 1164.39   12.68
   6   2   0   18.12   26.90
   5   2   0   -2.07   22.09
   4   2   0   80.74   18.74
   3   2   0  149.69   14.08
   2   2   0  238.36   11.51
   1   2   0   45.73    5.80
   6   3   0   72.79   28.93
   5   3   0   69.15   24.22
   4   3   0  180.04   21.01
   3   3   0  152.78   16.83
   1   3   0  484.01   10.60
   5   4   0   89.21   26.98
   4   4   0   61.48   21.57
   3   4   0  108.39   17.95
   1   4   0   75.06    9.96
   5   5   0   12.32   27.59
   4   5   0   27.12   22.69
   3   5   0    2.52   18.63
   3   0  -1  766.23   15.49
   4   1  -1   37.74   17.11
   3   1  -1  262.88   13.98
   2   1  -1 1495.46   15.33
   5   2  -1   50.37   22.98
   4   2  -1   92.27   18.81
   3   2  -1   80.93   14.77
   1   2  -1  139.86    7.23
   4   3  -1   87.46   21.22
   3   3  -1  156.10   17.08
   1   3  -1  184.46   10.13
   4   4  -1  119.90   22.66
   3   4  -1   26.34   18.07
   1   4  -1   48.20   10.54
   3   5  -1   27.07   18.78
   5  -6   3   25.30   23.07
   5  -5   3    6.93   22.37
   4  -5   3    5.68   19.82
   6  -4   3   71.11   24.87
   5  -4   3   27.41   21.21
   4  -4   3   95.64   18.20
   3  -4   3  165.91   15.43
   6  -3   3  109.06   23.78
   5  -3   3   39.25   19.64
   3  -3   3  159.58   13.70
   6  -2   3   76.78   21.37
   5  -2   3   63.53   18.46
   4  -2   3   95.03   14.62
   3  -2   3  145.22   11.38
   5  -1   3   39.24   15.49
   4  -1   3  112.73   12.34
   4  -7   2   14.04   23.41
   5  -6   2  -20.16   23.79
   4  -6   2   11.21   22.07
   3  -6   2   21.63   19.58
   5  -5   2   11.33   22.97
   4  -5   2   60.09   20.23
   3  -5   2   14.42   17.29
   2  -5   2   19.72   13.25
   6  -4   2  109.55   25.86
   5  -4   2    7.50   21.54
   4  -4   2   58.95   19.77
   3  -4   2  359.83   16.97
   2  -4   2   31.81   14.29
   6  -3   2  104.45   24.36
   5  -3   2   54.85   20.41
   4  -3   2   66.01   19.01
   3  -3   2  458.06   15.73
   6  -2   2   49.25   22.81
   5  -2   2   19.94   18.26
   4  -2   2   37.95   15.98
   3  -2   2  447.98   13.60
   5  -1   2   84.87   17.25
   4  -1   2  142.03   14.07
   3  -1   2  902.83   13.97
   2  -1   2  518.73    8.60
   3   0   2 1741.63   14.97
   4  -7   1   57.68   17.26
   5  -6   1   20.44   25.20
   4  -6   1   41.24   21.52
   3  -6   1   -3.14   19.95
   5  -5   1   52.47   23.77
   4  -5   1   24.73   20.70
   3  -5   1   14.32   17.47
   2  -5   1   17.74   14.07
   6  -4   1  117.96   26.23
   5  -4   1   -2.62   22.24
   4  -4   1  156.15   19.85
   3  -4   1  151.61   16.13
   2  -4   1  150.90   12.82
   1  -4   1   22.98    9.01
   6  -3   1   77.36   24.96
   5  -3   1   31.65   20.75
   3  -3   1  258.36   14.68
   1  -3   1  709.50   10.65
   6  -2   1   44.94   23.37
   4  -2   1  193.28   16.33
   3  -2   1   41.69   11.59
   2  -2   1   96.94    8.42
   1  -2   1  149.80    6.19
   5  -1   1   11.31   17.90
   4  -1   1  325.17   15.41
   3  -1   1  289.51   11.45
   3   0   1  872.45   12.37
   3   1   1  194.85    8.13
   4  -7   0   -3.51   23.14
   5  -6   0    4.47   24.17
   4  -6   0   37.23   22.08
   3  -6   0   42.59   19.14
   5  -5   0  -10.18   23.39
   4  -5   0   51.03   20.34
   3  -5   0   17.00   17.16
   2  -5   0   21.08   14.40
   6  -4   0   82.84   26.42
   5  -4   0    5.78   21.63
   4  -4   0  120.21   19.66
   3  -4   0  199.47   16.28
   1  -4   0  737.16   13.78
   6  -3   0  131.38   26.21
   5  -3   0   26.31   20.92
   4  -3   0  179.38   18.08
   3  -3   0  111.71   13.89
   2  -3   0   49.39   11.60
   1  -3   0 1331.88   12.98
   6  -2   0   94.85   24.62
   5  -2   0   -1.86   19.26
   4  -2   0   71.55   15.27
   3  -2   0  129.07   12.15
   2  -2   0   54.39    8.04
   1  -2   0 2490.88   13.88
   5  -1   0   37.22   18.01
   4  -1   0  143.37   14.15
   3  -1   0  120.02   10.51
   3   0   0  985.41   12.96
   3   1   0  122.03    8.59
   4  -6  -1   24.30   21.81
   3  -6  -1   24.12   19.50
   5  -5  -1   -2.92   23.03
   4  -5  -1   12.95   19.62
   3  -5  -1   -3.87   16.34
   2  -5  -1    3.47   13.40
   5  -4  -1    3.39   20.87
   4  -4  -1   49.61   18.86
   3  -4  -1   31.79   15.03
   2  -4  -1   57.30   13.74
   1  -4  -1  121.88   10.06
   5  -3  -1    7.42   20.20
   3  -3  -1  158.11   13.93
   1  -3  -1  263.58    8.74
   5  -2  -1    1.53   19.86
   4  -2  -1   82.44   15.98
   3  -2  -1   32.16   11.72
   1  -2  -1  816.23    9.50
   4  -1  -1  137.96   15.02
   3  -1  -1  184.40   11.38
   3   0  -1  744.99   12.99
   3   1  -1  270.97   10.07
   2  -5  -2   20.56   13.78
   2  -4  -2  116.63   13.24
   1  -4  -2   70.23    9.63
  -1   1   1   96.33    3.69
  -3   1   1  177.99    9.79
  -1   2   1  880.87    9.70
  -3   2   1   62.82   10.55
  -4   2   1   73.09   13.91
  -1   3   1  265.88    8.86
  -5   3   1  -17.40   18.11
  -1   4   1  159.81   10.30
  -2   4   1   73.72   13.82
  -3   4   1   51.97   14.72
  -4   4   1   55.75   17.81
  -5   4   1  -20.67   19.24
  -2   5   1   14.12   13.77
  -3   5   1   -1.95   16.09
  -4   5   1    3.58   18.57
  -3   6   1   16.07   19.63
  -4   6   1   23.44   20.68
  -3  -1   0   81.29    6.42
  -3   0   0  978.30   12.63
  -3   1   0  122.07    9.79
  -4   1   0  104.66   13.32
  -5   1   0   10.94   15.23
  -1   2   0 2456.21   14.09
  -2   2   0   60.06    7.98
  -4   2   0   48.17   14.61
  -5   2   0   16.00   17.03
  -6   2   0   55.13   19.77
  -1   3   0 1274.92   14.25
  -2   3   0   26.46   11.70
  -4   3   0  100.77   17.83
  -5   3   0   29.64   19.14
  -6   3   0  131.97   21.84
  -1   4   0  813.11   14.54
  -2   4   0  206.67   12.84
  -3   4   0  181.15   16.19
  -4   4   0   20.05   18.44
  -5   4   0   25.78   20.36
  -6   4   0   56.44   23.20
  -2   5   0    0.63   14.41
  -3   5   0   31.25   17.06
  -4   5   0   30.86   19.42
  -5   5   0   -5.93   21.24
  -3   6   0   12.14   19.64
  -4   6   0    7.28   21.79
  -4   7   0  -32.60   22.76
  -3  -1  -1  221.61    8.06
  -3   0  -1  939.62   12.38
  -3   1  -1  276.24   10.75
  -4   1  -1  347.69   14.42
  -5   1  -1   17.55   16.03
  -3   2  -1   33.86   10.96
  -6   2  -1   58.99   21.17
  -3   3  -1   91.27   14.91
  -5   3  -1  -13.24   20.02
  -6   3  -1   88.89   22.85
  -2   4  -1    1.66   13.76
  -3   4  -1  157.34   15.46
  -4   4  -1   97.78   19.22
  -5   4  -1   -0.70   21.33
  -6   4  -1  143.26   25.34
  -2   5  -1    2.17   14.13
  -3   5  -1   36.60   17.16
  -4   5  -1   32.99   19.50
  -5   5  -1   32.31   23.11
  -3   6  -1   97.27   19.51
  -4   6  -1   64.33   21.76
  -5   6  -1   44.11   24.53
  -4   7  -1   62.25   17.61
  -5   1  -2   56.28   16.64
  -5   2  -2    9.90   17.80
  -6   2  -2   50.57   21.88
  -5   3  -2   37.94   19.83
  -6   3  -2   20.65   23.62
  -4   4  -2  149.01   17.55
  -5   4  -2    6.97   20.08
  -6   4  -2   97.72   24.57
  -3   5  -2   -3.88   16.41
  -4   5  -2   31.29   19.44
  -5   5  -2   31.88   22.70
  -3   6  -2   -7.13   20.23
  -4   6  -2   47.81   21.54
  -5   6  -2   13.03   23.69
  -4   7  -2  -19.71   24.33
  -5   1  -3   72.22   17.06
  -6   2  -3   48.69   22.28
  -5   3  -3   17.11   19.11
  -6   3  -3  105.44   24.08
  -5   4  -3   34.82   20.16
  -6   4  -3   59.61   24.40
  -5   5  -3    9.19   21.61
  -4   6  -3   29.71   20.83
  -4  -5   1   72.30   25.77
  -3  -5   0   17.72   19.85
  -4  -5   0   12.65   24.54
  -5  -5   0   28.00   30.52
  -1  -4   0   58.36    9.75
  -3  -4   0  107.84   18.12
  -4  -4   0   31.03   23.09
  -5  -4   0  288.38   29.99
  -4  -3   0  216.57   22.12
  -5  -3   0   47.85   26.40
  -5  -2   0   -4.07   23.59
  -6  -2   0   37.02   28.52
  -5  -1   0   15.26   21.50
  -6  -1   0  104.30   27.32
  -5   1   0   20.39   17.99
  -3  -5  -1   17.18   18.96
  -4  -5  -1    2.45   22.85
  -5  -5  -1   28.57   29.45
  -1  -4  -1   97.81    9.38
  -2  -4  -1    6.62   15.55
  -3  -4  -1  135.47   18.56
  -4  -4  -1   29.22   21.84
  -5  -4  -1   17.32   27.33
  -1  -3  -1  164.99    8.39
  -2  -3  -1   88.65   12.90
  -3  -3  -1  306.83   16.58
  -4  -3  -1   53.35   20.86
  -5  -3  -1   -6.60   25.67
  -6  -3  -1  151.95   30.82
  -1  -2  -1  103.95    6.08
  -3  -2  -1  128.56   13.82
  -4  -2  -1   49.94   18.10
  -5  -2  -1    4.07   22.82
  -6  -2  -1   33.18   29.15
  -1  -1  -1  107.37    4.38
  -2  -1  -1  993.93   11.74
  -3  -1  -1  226.84   12.28
  -4  -1  -1  232.33   17.17
  -5  -1  -1   17.31   20.77
  -6  -1  -1  199.85   27.67
  -3   0  -1  947.54   14.18
  -5   0  -1   50.85   18.67
  -3   1  -1  277.09    9.77
  -4   1  -1  278.24   14.72
  -5   1  -1   14.20   16.35
  -3   2  -1   46.17    7.50
  -3  -5  -2  -16.82   18.87
  -4  -5  -2   17.73   22.67
  -5  -5  -2   -4.58   28.53
  -2  -4  -2  549.55   15.26
  -3  -4  -2   56.76   17.68
  -4  -4  -2   21.13   21.58
  -5  -4  -2   12.97   26.92
  -2  -3  -2  483.84   15.72
  -3  -3  -2  224.04   15.71
  -4  -3  -2  213.59   20.40
  -5  -3  -2   41.64   23.89
  -6  -3  -2  115.65   30.17
  -2  -2  -2  675.67   13.02
  -3  -2  -2  216.33   13.87
  -4  -2  -2   81.39   17.81
  -5  -2  -2   -3.03   22.30
  -6  -2  -2  100.47   27.74
  -2  -1  -2  957.28   12.21
  -3  -1  -2  680.09   14.60
  -4  -1  -2  107.60   16.06
  -5  -1  -2   64.08   20.44
  -3   0  -2 1761.44   17.54
  -5   0  -2  137.00   18.62
  -3   1  -2  869.52   12.89
  -4   1  -2  136.41   12.68
  -5   1  -2   53.31   16.56
  -4  -5  -3   20.75   22.89
  -5  -5  -3   -0.73   28.50
  -3  -4  -3   -2.92   17.31
  -4  -4  -3   89.37   21.92
  -5  -4  -3  107.65   26.18
  -3  -3  -3  225.32   16.53
  -4  -3  -3  121.00   20.25
  -5  -3  -3   80.70   24.96
  -3  -2  -3  104.19   13.48
  -4  -2  -3   52.87   17.69
  -5  -2  -3  174.62   23.49
  -6  -2  -3   59.92   27.05
  -3  -1  -3  329.44   13.33
  -4  -1  -3    7.94   15.67
  -5  -1  -3   71.97   20.85
  -6  -1  -3   97.07   25.54
  -5   0  -3  623.32   21.62
  -5   1  -3   65.20   16.34
  -6  -2   0   48.11   26.73
  -6  -1   0   96.90   27.52
  -6   1   0  111.62   26.27
  -6   2   0   55.87   25.71
  -6   3   0  129.48   25.20
  -5   4   0   20.94   19.19
  -6   4   0   54.69   25.23
  -3  -2  -1  138.77   10.99
  -4  -2  -1   20.37   15.16
  -5  -2  -1   17.20   20.66
  -6  -2  -1   40.57   25.51
  -2  -1  -1  995.49   10.76
  -3  -1  -1  237.63   11.57
  -4  -1  -1  303.89   16.37
  -5  -1  -1    7.21   20.45
  -6  -1  -1  224.08   27.08
  -3   0  -1  960.11   15.35
  -5   0  -1   40.13   19.65
  -3   1  -1  279.13   11.92
  -4   1  -1  310.01   16.27
  -5   1  -1    1.28   20.08
  -6   1  -1  194.22   25.53
  -2   2  -1   58.82    6.99
  -3   2  -1   56.59   10.36
  -6   2  -1   97.40   23.05
  -2   3  -1   49.68    8.26
  -3   3  -1  251.05   12.56
  -5   3  -1   17.85   18.92
  -6   3  -1   41.95   23.38
  -5   4  -1   66.16   19.17
  -6   4  -1  145.93   23.76
  -3  -2  -2  192.51   11.05
  -4  -2  -2   61.43   14.87
  -5  -2  -2   11.07   19.67
  -6  -2  -2   68.04   25.63
  -2  -1  -2  915.39   10.68
  -3  -1  -2  576.82   12.79
  -4  -1  -2  131.74   15.10
  -5  -1  -2   52.89   19.04
  -3   0  -2 1889.28   18.44
  -5   0  -2  113.34   20.51
  -2   1  -2  466.95    9.08
  -3   1  -2  911.10   14.83
  -4   1  -2  153.32   15.69
  -5   1  -2   11.24   19.16
  -6   1  -2  245.23   24.95
  -2   2  -2   85.10    8.34
  -3   2  -2  400.56   12.76
  -4   2  -2   98.39   14.59
  -5   2  -2   34.99   18.53
  -6   2  -2   56.10   22.49
  -3   3  -2  431.25   13.76
  -4   3  -2   99.32   16.90
  -5   3  -2   45.42   20.05
  -6   3  -2   39.10   23.55
  -5   4  -2   20.12   19.38
  -6   4  -2   52.95   24.81
  -5  -2  -3  181.71   20.70
  -4  -1  -3   14.21   13.81
  -5  -1  -3   87.85   20.19
  -6  -1  -3  100.89   26.00
  -5   0  -3  751.12   22.58
  -4   1  -3   73.48   14.38
  -5   1  -3   67.83   20.30
  -6   1  -3  132.65   25.23
  -4   2  -3   76.60   16.00
  -5   2  -3   63.02   20.85
  -6   2  -3   45.92   23.34
  -5   3  -3   43.03   18.89
  -6   3  -3  105.64   23.86
  -3  -1   1  222.57   11.53
  -4  -1   1    6.64   14.39
  -3   0   1  776.75   14.35
  -3   1   1  195.76   12.03
  -4   1   1   77.75   14.81
  -3   2   1   51.02   10.94
  -4   2   1   68.91   15.47
  -2  -2   0  250.65    8.22
  -3  -2   0  109.04   11.05
  -4  -2   0   62.68   14.38
  -5  -2   0    3.63   18.06
  -2  -1   0 1073.04   11.46
  -3  -1   0  108.78   10.45
  -4  -1   0   98.59   14.72
  -5  -1   0   35.96   18.41
  -6  -1   0   78.59   22.70
  -3   0   0 1050.99   14.80
  -5   0   0   79.38   18.97
  -3   1   0  126.77   10.32
  -4   1   0  126.62   14.97
  -5   1   0   -2.45   19.28
  -6   1   0  119.62   23.53
  -2   2   0   43.05    6.93
  -3   2   0  144.75   10.72
  -4   2   0   35.62   14.12
  -5   2   0   15.68   18.82
  -6   2   0   37.76   22.65
  -2   3   0   63.29    8.59
  -4   3   0  185.19   15.62
  -5   3   0   17.53   19.03
  -6   3   0   61.60   23.04
  -4   4   0   69.73   16.34
  -5   4   0   18.91   19.06
  -3  -2  -1  142.32   11.39
  -4  -2  -1   38.74   14.57
  -5  -2  -1    7.75   18.60
  -6  -2  -1   43.68   24.43
  -4  -1  -1   75.47   16.66
  -5  -1  -1   34.68   18.31
  -6  -1  -1  261.04   24.85
  -5   0  -1   78.44   19.24
  -4   1  -1  354.42   15.92
  -5   1  -1   24.48   17.25
  -6   1  -1  177.43   24.17
  -6   2  -1   43.59   21.97
  -4   3  -1  278.61   16.77
  -5   3  -1   18.58   19.01
  -6   3  -1   70.15   21.96
  -4   4  -1   70.62   16.29
  -5   4  -1    6.89   19.51
  -6   4  -1   36.42   24.07
  -5  -2  -2    7.87   19.41
  -6  -2  -2   57.61   24.22
  -5  -1  -2   60.29   19.99
  -6  -1  -2  176.79   25.74
  -5   0  -2  165.59   19.12
  -6   1  -2  243.69   24.18
  -5   2  -2   -7.60   18.10
  -6   2  -2   69.33   22.55
  -5   3  -2   60.72   19.13
  -6   3  -2   60.76   22.48
  -4   4  -2   89.00   16.16
  -5   4  -2   20.13   18.77
  -6   4  -2   65.69   23.83
  -6  -2  -3   50.41   25.77
  -6  -1  -3   82.99   25.20
  -6   1  -3  137.70   23.76
  -6   2  -3   69.98   23.42
  -6   3  -3  122.55   24.26
  -6   4  -3  122.74   23.94
   6  -4   3   69.69   23.53
   6  -3   3   94.69   23.51
   5  -3   3   29.72   19.21
   6  -2   3   70.22   21.94
   5  -2   3   71.08   20.01
   4  -2   3   37.52   13.90
   6  -1   3  107.30   23.88
   5  -1   3   68.50   19.33
   4  -1   3   85.84   14.15
   3  -1   3  222.83   11.15
   5   0   3  740.57   21.85
   3   0   3  861.71   14.72
   6   1   3   83.37   23.52
   5   1   3   63.07   18.04
   4   1   3   23.36   13.98
   5   2   3  191.98   18.76
   6  -4   2  114.99   23.49
   5  -4   2   20.41   18.44
   4  -4   2  181.74   15.38
   6  -3   2   54.67   23.58
   5  -3   2   17.82   18.72
   3  -3   2  472.01   13.22
   6  -2   2   84.70   22.28
   5  -2   2   14.35   17.82
   4  -2   2   45.58   15.22
   3  -2   2  453.09   13.08
   2  -2   2  165.89    7.97
   6  -1   2  216.24   23.47
   5  -1   2   38.65   17.76
   4  -1   2  132.11   15.22
   3  -1   2  858.91   14.65
   2  -1   2  477.32    9.11
   5   0   2  175.00   19.88
   3   0   2 1783.96   17.62
   6   1   2  201.21   25.80
   5   1   2   44.74   18.85
   4   1   2   90.98   14.41
   3   1   2  697.96   13.13
   2   1   2  901.40   10.39
   6   2   2   69.17   23.64
   5   2   2    0.06   18.45
   4   2   2   37.40   14.09
   3   2   2  195.04   10.39
   6  -4   1   75.15   23.83
   5  -4   1   -3.96   19.27
   6  -3   1   94.11   22.66
   5  -3   1   41.35   17.94
   4  -3   1  188.59   16.23
   2  -3   1   27.97    8.51
   6  -2   1   62.14   21.80
   4  -2   1  113.17   15.57
   3  -2   1   38.46   10.63
   2  -2   1   83.67    7.35
   6  -1   1  201.88   24.11
   5  -1   1   10.84   19.12
   4  -1   1  272.41   16.32
   3  -1   1  280.56   11.91
   2  -1   1  570.37    9.07
   5   0   1  107.04   18.87
   3   0   1  850.20   14.47
   6   1   1  190.81   25.22
   5   1   1    5.22   19.48
   4   1   1  390.11   15.79
   3   1   1  214.85   10.87
   2   1   1 1049.62   10.47
   6   2   1   41.69   24.04
   5   2   1   22.50   18.23
   4   2   1   24.78   14.65
   6  -4   0   17.69   22.64
   5  -4   0   14.07   18.72
   4  -4   0  103.82   15.44
   6  -3   0   98.68   23.06
   5  -3   0   24.54   18.30
   3  -3   0  116.72   11.61
   2  -3   0    1.61    8.67
   6  -2   0  103.86   24.48
   5  -2   0    0.39   19.83
   4  -2   0   29.72   14.84
   3  -2   0  147.93   11.51
   6  -1   0   80.44   25.55
   5  -1   0   20.08   20.18
   4  -1   0  140.05   15.80
   3  -1   0   98.00   10.35
   5   0   0  142.62   20.60
   3   0   0  924.81   15.23
   6   1   0   92.05   26.05
   5   1   0   29.13   20.47
   4   1   0   86.24   16.08
   3   1   0  105.95   11.18
   2   1   0 1150.95   11.31
   6   2   0   50.54   25.70
   5   2   0    3.07   20.47
   4   2   0   67.16   15.66
   3   2   0   97.66   11.13
   2   2   0  266.26    8.40
   5  -4  -1   -0.34   18.65
   4  -4  -1   43.41   15.72
   5  -3  -1    8.14   19.62
   4  -3  -1   84.56   16.37
   3  -3  -1  120.48   12.19
   5  -2  -1   -2.27   19.49
   4  -2  -1   66.73   14.93
   3  -2  -1   42.73   10.61
   2  -2  -1   65.57    7.76
   4  -1  -1  105.75   15.57
   3  -1  -1  223.97   12.05
   5   0  -1  269.85   21.11
   3   0  -1  747.60   14.36
   5   1  -1   21.31   21.26
   4   1  -1   50.16   15.99
   3   1  -1  263.43   12.71
   5   2  -1    1.96   21.36
   4   2  -1   85.16   16.35
   3   2  -1   68.93   11.68
   6  -1   4   56.85   24.42
   6   1   4  113.93   25.28
   5   1   4   47.73   20.18
   6  -4   3   97.06   23.64
   5  -4   3   25.99   19.20
   6  -3   3  109.53   23.60
   5  -3   3   31.30   18.82
   3  -3   3  170.81   12.07
   6  -2   3   30.86   23.60
   5  -2   3   90.29   19.18
   4  -2   3   96.26   14.70
   3  -2   3  136.57   11.36
   6  -1   3   99.67   23.98
   5  -1   3   37.52   18.65
   4  -1   3  107.26   15.30
   3  -1   3  231.34   11.21
   5   0   3  694.63   22.60
   3   0   3  873.24   14.94
   6   1   3  102.39   25.73
   5   1   3   65.11   20.84
   4   1   3   33.28   15.43
   3   1   3  265.62   12.14
   6   2   3   32.75   25.05
   5   2   3  166.21   21.50
   4   2   3   68.58   16.01
   3   2   3  103.92   11.67
   6  -4   2  117.59   24.32
   5  -4   2    5.49   19.09
   6  -3   2   40.07   23.74
   5  -3   2   70.12   19.58
   4  -3   2   79.38   17.52
   3  -3   2  435.56   13.49
   2  -3   2   53.10    9.43
   6  -2   2   62.31   23.34
   5  -2   2   12.25   18.82
   4  -2   2   65.88   15.42
   3  -2   2  442.16   12.74
   2  -2   2  155.61    7.51
   6  -1   2  216.07   24.84
   5  -1   2   65.87   19.85
   4  -1   2  140.16   14.60
   3  -1   2  861.77   14.70
   2  -1   2  512.98    8.99
   5   0   2  174.37   19.91
   3   0   2 1763.45   18.12
   6   1   2  151.00   27.16
   5   1   2   80.59   20.28
   4   1   2  113.96   15.69
   3   1   2  665.23   14.04
   2   1   2  917.42   10.86
   6   2   2   55.03   24.83
   5   2   2    7.94   19.61
   4   2   2   64.92   15.89
   3   2   2  184.89   12.14
   2   2   2  533.17   10.53
   6  -4   1   61.61   24.18
   5  -4   1   22.88   19.63
   6  -3   1   63.96   23.43
   5  -3   1    0.00   19.71
   4  -3   1  140.42   18.78
   3  -3   1  212.65   13.24
   2  -3   1   85.03    8.74
   6  -2   1   33.76   23.58
   4  -2   1  189.63   16.00
   3  -2   1   37.73   10.77
   6  -1   1  212.62   25.06
   5  -1   1   31.83   18.73
   4  -1   1  314.66   16.30
   3  -1   1  305.17   11.70
   5   0   1   67.63   19.83
   3   0   1  844.37   14.56
   6   1   1  184.63   25.91
   5   1   1    3.87   19.08
   4   1   1  211.46   15.95
   3   1   1  227.14   11.80
   2   1   1 1069.27   10.97
   6   2   1   76.75   24.53
   5   2   1   -0.65   19.37
   4   2   1   38.29   15.24
   3   2   1  103.20   11.56
   5  -4   0   28.11   19.64
   6  -3   0  123.42   24.59
   5  -3   0   17.18   19.68
   4  -3   0  158.81   17.36
   3  -3   0  162.55   12.55
   6  -2   0   98.60   24.58
   5  -2   0   -5.78   20.08
   4  -2   0   95.15   15.54
   3  -2   0  154.59   11.74
   2  -2   0   75.12    7.45
   6  -1   0  135.91   25.15
   5  -1   0    1.39   20.35
   4  -1   0  117.99   16.24
   3  -1   0  129.84   11.07
   5   0   0   67.95   20.53
   3   0   0  958.48   15.28
   6   1   0  114.27   24.72
   5   1   0   29.08   20.17
   4   1   0  147.26   15.94
   3   1   0  106.50   11.06
   2   1   0 1147.75   11.60
   5   2   0    7.25   19.38
   4   2   0   45.48   15.31
   3   2   0  152.74   11.27
   4  -2  -1  102.75   16.92
   3  -2  -1   68.66   12.04
   4  -1  -1  127.93   16.37
   3  -1  -1  229.02   12.96
   5   0  -1  208.46   21.80
   3   0  -1  724.71   15.26
   4   1  -1   48.04   15.39
   3   1  -1  246.35   12.12
   0   0   0    0.00    0.00
;
_shelx_hkl_checksum              59843
_olex2_submission_special_instructions 'No special instructions were received'
loop_
_space_group_symop_operation_xyz
'x, y, z'
loop_
_atom_site_label
_atom_site_type_symbol
_atom_site_fract_x
_atom_site_fract_y
_atom_site_fract_z
_atom_site_U_iso_or_equiv
_atom_site_adp_type
_atom_site_occupancy
_atom_site_site_symmetry_order
_atom_site_calc_flag
_atom_site_refinement_flags_posn
Co01 Co 0.009(4) 0.015(3) -0.016(5) 0.024(4) Uiso 1 1 d D
N1 N 0.031(7) 0.316(6) 0.009(5) 0.020(7) Uiso 1 1 d D
N2 N 0.021(6) 0.696(6) -0.014(5) 0.020(7) Uiso 1 1 d D
O1W O 0.344(10) 0.048(7) 0.017(7) 0.024 Uiso 1 1 d D
H1WA H 0.3992 -0.0535 -0.0627 0.036 Uiso 1 1 d R
C11 C -0.209(7) 0.384(5) -0.02(2) 0.020(7) Uiso 1 1 d D
H11A H -0.2945 0.3398 0.0544 0.025 Uiso 1 1 calc R
H11B H -0.2907 0.3229 -0.0936 0.025 Uiso 1 1 calc R
C9 C 0.155(11) 0.418(5) -0.090(7) 0.020(7) Uiso 1 1 d D
H9A H 0.0861 0.3599 -0.1718 0.025 Uiso 1 1 calc R
H9B H 0.3175 0.3841 -0.0748 0.025 Uiso 1 1 calc R
C12 C -0.222(7) 0.600(5) -0.027(10) 0.020(7) Uiso 1 1 d D
H12A H -0.3072 0.6291 -0.1107 0.025 Uiso 1 1 calc R
H12B H -0.3068 0.6466 0.0387 0.025 Uiso 1 1 calc R
C8 C -0.306(6) -0.031(6) -0.798(4) 0.042(10) Uiso 1 1 d D
C14 C 0.089(13) 0.630(5) 0.119(5) 0.020(7) Uiso 1 1 d D
H14A H -0.0156 0.6813 0.1739 0.025 Uiso 1 1 calc R
H14B H 0.2484 0.6850 0.1495 0.025 Uiso 1 1 calc R
C10 C 0.168(10) 0.634(5) -0.109(7) 0.020(7) Uiso 1 1 d D
H10A H 0.3298 0.6919 -0.0911 0.025 Uiso 1 1 calc R
H10B H 0.1025 0.6662 -0.1959 0.025 Uiso 1 1 calc R
C13 C 0.080(12) 0.413(4) 0.136(6) 0.020(7) Uiso 1 1 d D
H13A H 0.2300 0.3789 0.1807 0.025 Uiso 1 1 calc R
H13B H -0.0433 0.3718 0.1875 0.025 Uiso 1 1 calc R
C6 C -0.017(5) 0.027(6) -0.599(4) 0.042(10) Uiso 1 1 d D
H6 H 0.1018 0.0538 -0.6499 0.050 Uiso 1 1 calc R
C1 C -0.249(5) -0.022(4) -0.656(4) 0.042(10) Uiso 1 1 d DG
C2 C -0.427(5) -0.062(6) -0.580(5) 0.042(10) Uiso 1 1 d DG
H2 H -0.5820 -0.0943 -0.6180 0.050 Uiso 1 1 calc R
C3 C -0.374(6) -0.054(7) -0.447(5) 0.042(10) Uiso 1 1 d DG
H3 H -0.4933 -0.0813 -0.3957 0.050 Uiso 1 1 calc R
C4 C -0.143(7) -0.006(6) -0.390(4) 0.042(10) Uiso 1 1 d DG
C5 C 0.036(6) 0.035(6) -0.466(4) 0.042(10) Uiso 1 1 d DG
H5 H 0.1905 0.0668 -0.4276 0.050 Uiso 1 1 calc R
C7 C -0.087(9) 0.005(8) -0.262(4) 0.042(10) Uiso 1 1 d D
O4 O 0.111(6) 0.033(7) -0.222(6) 0.041(10) Uiso 1 1 d D
O3 O -0.257(5) -0.019(7) -0.201(6) 0.041(10) Uiso 1 1 d D
O2 O -0.520(6) -0.076(7) -0.811(7) 0.041(10) Uiso 1 1 d D
O1 O -0.162(7) 0.006(8) -0.846(6) 0.041(10) Uiso 1 1 d D
H1WB H 0.4992 -0.0535 0.0727 0.061 Uiso 1 1 d R
loop_
_atom_type_symbol
_atom_type_description
_atom_type_scat_dispersion_real
_atom_type_scat_dispersion_imag
_atom_type_scat_source
C C 0.0033 0.0016 'International Tables Vol C Tables 4.2.6.8 and 6.1.1.4'
H H 0.0000 0.0000 'International Tables Vol C Tables 4.2.6.8 and 6.1.1.4'
Co Co 0.3494 0.9721 'International Tables Vol C Tables 4.2.6.8 and 6.1.1.4'
N N 0.0061 0.0033 'International Tables Vol C Tables 4.2.6.8 and 6.1.1.4'
O O 0.0106 0.0060 'International Tables Vol C Tables 4.2.6.8 and 6.1.1.4'
loop_
_geom_angle_atom_site_label_1
_geom_angle_atom_site_label_2
_geom_angle_atom_site_label_3
_geom_angle
_geom_angle_site_symmetry_1
_geom_angle_site_symmetry_3
N1 Co01 N2 171(3) . 1_545
N1 Co01 O4 94(3) . .
N1 Co01 O3 100(2) . .
N1 Co01 O1 85(3) . 1_556
N2 Co01 O4 92(2) 1_545 .
N2 Co01 O3 89(2) 1_545 .
O1W Co01 N1 84.2(19) . .
O1W Co01 N2 90.3(17) . 1_545
O1W Co01 O4 78.1(17) . .
O1W Co01 O3 133(3) . .
O1W Co01 O1 114(2) . 1_556
O3 Co01 O4 55.4(14) . .
O1 Co01 N2 91(3) 1_556 1_545
O1 Co01 O4 167.5(16) 1_556 .
O1 Co01 O3 112.5(16) 1_556 .
C11 N1 Co01 110(3) . .
C9 N1 Co01 112(3) . .
C9 N1 C11 103(8) . .
C13 N1 Co01 124(4) . .
C13 N1 C11 92(8) . .
C13 N1 C9 113(5) . .
C12 N2 Co01 110(3) . 1_565
C14 N2 Co01 110(3) . 1_565
C14 N2 C12 95(6) . .
C14 N2 C10 115(5) . .
C10 N2 Co01 111(3) . 1_565
C10 N2 C12 115(2) . .
Co01 O1W H1WA 102(3) . .
Co01 O1W H1WB 133(4) . .
H1WA O1W H1WB 73(3) . .
N1 C11 H11A 108.2 . .
N1 C11 H11B 108.2 . .
N1 C11 C12 117(4) . .
H11A C11 H11B 107.3 . .
C12 C11 H11A 108.1 . .
C12 C11 H11B 108.2 . .
N1 C9 H9A 106.3 . .
N1 C9 H9B 106.3 . .
N1 C9 C10 124(5) . .
H9A C9 H9B 106.4 . .
C10 C9 H9A 106.3 . .
C10 C9 H9B 106.3 . .
N2 C12 C11 109(4) . .
N2 C12 H12A 109.9 . .
N2 C12 H12B 109.9 . .
C11 C12 H12A 109.9 . .
C11 C12 H12B 109.9 . .
H12A C12 H12B 108.3 . .
O2 C8 C1 101(4) . .
O1 C8 C1 114(3) . .
O1 C8 O2 144(6) . .
N2 C14 H14A 108.4 . .
N2 C14 H14B 108.4 . .
N2 C14 C13 115(5) . .
H14A C14 H14B 107.5 . .
C13 C14 H14A 108.4 . .
C13 C14 H14B 108.4 . .
N2 C10 C9 102(5) . .
N2 C10 H10A 111.4 . .
N2 C10 H10B 111.4 . .
C9 C10 H10A 111.4 . .
C9 C10 H10B 111.4 . .
H10A C10 H10B 109.3 . .
N1 C13 C14 110(5) . .
N1 C13 H13A 109.7 . .
N1 C13 H13B 109.7 . .
C14 C13 H13A 109.7 . .
C14 C13 H13B 109.7 . .
H13A C13 H13B 108.2 . .
C1 C6 H6 120.0 . .
C1 C6 C5 120.0 . .
C5 C6 H6 120.0 . .
C6 C1 C8 120.1(11) . .
C2 C1 C8 119.9(11) . .
C2 C1 C6 120.0 . .
C1 C2 H2 120.0 . .
C3 C2 C1 120.0 . .
C3 C2 H2 120.0 . .
C2 C3 H3 120.0 . .
C2 C3 C4 120.0 . .
C4 C3 H3 120.0 . .
C5 C4 C3 120.0 . .
C7 C4 C3 121.3(11) . .
C7 C4 C5 118.7(11) . .
C6 C5 H5 120.0 . .
C4 C5 C6 120.0 . .
C4 C5 H5 120.0 . .
O4 C7 C4 117(2) . .
O4 C7 O3 128(6) . .
O3 C7 C4 115(4) . .
C7 O4 Co01 89(2) . .
C7 O3 Co01 88(3) . .
C8 O1 Co01 152(4) . 1_554
loop_
_geom_bond_atom_site_label_1
_geom_bond_atom_site_label_2
_geom_bond_distance
_geom_bond_site_symmetry_2
Co01 N1 2.11(5) .
Co01 N2 2.23(5) 1_545
Co01 O1W 1.90(6) .
Co01 O4 2.31(5) .
Co01 O3 2.30(5) .
Co01 O1 2.15(3) 1_556
N1 C11 1.480(3) .
N1 C9 1.480(3) .
N1 C13 1.480(3) .
N2 Co01 2.23(5) 1_565
N2 C12 1.480(3) .
N2 C14 1.480(3) .
N2 C10 1.480(3) .
O1W H1WA 1.19(7) .
O1W H1WB 1.26(5) .
C11 H11A 0.9700 .
C11 H11B 0.9700 .
C11 C12 1.520(3) .
C9 H9A 0.9700 .
C9 H9B 0.9700 .
C9 C10 1.520(3) .
C12 H12A 0.9700 .
C12 H12B 0.9700 .
C8 C1 1.480(3) .
C8 O2 1.230(3) .
C8 O1 1.04(4) .
C14 H14A 0.9700 .
C14 H14B 0.9700 .
C14 C13 1.520(3) .
C10 H10A 0.9700 .
C10 H10B 0.9700 .
C13 H13A 0.9700 .
C13 H13B 0.9700 .
C6 H6 0.9300 .
C6 C1 1.3900 .
C6 C5 1.3900 .
C1 C2 1.3900 .
C2 H2 0.9300 .
C2 C3 1.3900 .
C3 H3 0.9300 .
C3 C4 1.3900 .
C4 C5 1.3900 .
C4 C7 1.340(3) .
C5 H5 0.9300 .
C7 O4 1.15(6) .
C7 O3 1.230(3) .
O1 Co01 2.15(3) 1_554
loop_
_geom_torsion_atom_site_label_1
_geom_torsion_atom_site_label_2
_geom_torsion_atom_site_label_3
_geom_torsion_atom_site_label_4
_geom_torsion
_geom_torsion_site_symmetry_1
_geom_torsion_site_symmetry_4
Co01 N1 C11 C12 -168(11) . .
Co01 N1 C9 C10 171(5) . .
Co01 N1 C13 C14 179(5) . .
Co01 N2 C12 C11 -176(11) 1_565 .
Co01 N2 C14 C13 174(5) 1_565 .
Co01 N2 C10 C9 179(4) 1_565 .
N1 C11 C12 N2 1(18) . .
N1 C9 C10 N2 -3(7) . .
N2 C14 C13 N1 7(8) . .
C11 N1 C9 C10 53(10) . .
C11 N1 C13 C14 -66(7) . .
C9 N1 C11 C12 -49(17) . .
C9 N1 C13 C14 39(7) . .
C12 N2 C14 C13 61(6) . .
C12 N2 C10 C9 -56(6) . .
C8 C1 C2 C3 179.7(8) . .
C14 N2 C12 C11 -62(11) . .
C14 N2 C10 C9 53(5) . .
C10 N2 C12 C11 59(11) . .
C10 N2 C14 C13 -60(7) . .
C13 N1 C11 C12 65(15) . .
C13 N1 C9 C10 -45(8) . .
C6 C1 C2 C3 0.0 . .
C1 C8 O1 Co01 164(7) . 1_554
C1 C6 C5 C4 0.0 . .
C1 C2 C3 C4 0.0 . .
C2 C3 C4 C5 0.0 . .
C2 C3 C4 C7 179(4) . .
C3 C4 C5 C6 0.0 . .
C3 C4 C7 O4 175(4) . .
C3 C4 C7 O3 -5(7) . .
C4 C7 O4 Co01 -179(4) . .
C4 C7 O3 Co01 179(4) . .
C5 C6 C1 C8 -179.7(8) . .
C5 C6 C1 C2 0.0 . .
C5 C4 C7 O4 -6(7) . .
C5 C4 C7 O3 175(4) . .
C7 C4 C5 C6 -179(4) . .
O4 C7 O3 Co01 -1(7) . .
O3 C7 O4 Co01 1(7) . .
O2 C8 C1 C6 -180(3) . .
O2 C8 C1 C2 0(3) . .
O2 C8 O1 Co01 -20(13) . 1_554
O1 C8 C1 C6 -2(4) . .
O1 C8 C1 C2 178(4) . .
