#------------------------------------------------------------------------------
#$Date: 2019-11-24 04:12:18 +0200 (Sun, 24 Nov 2019) $
#$Revision: 236652 $
#$URL: file:///home/coder/svn-repositories/cod/cif/8/00/03/8000378.cif $
#------------------------------------------------------------------------------
#
# This file is available in the Crystallography Open Database (COD),
# http://www.crystallography.net/
#
# All data on this site have been placed in the public domain by the
# contributors.
#
data_8000378
loop_
_publ_author_name
'Andrzejewski, Micha\/l'
'Katrusiak, Andrzej'
_publ_section_title
;
 Piezochromic Porous Metal-Organic Framework.
;
_journal_issue                   1
_journal_name_full               'The journal of physical chemistry letters'
_journal_page_first              279
_journal_page_last               284
_journal_paper_doi               10.1021/acs.jpclett.6b02458
_journal_volume                  8
_journal_year                    2017
_chemical_formula_moiety         'C14 H16 Co N2 O5'
_chemical_formula_sum            'C14 H18 Co N2 O5'
_chemical_formula_weight         353.23
_chemical_name_common            AMU1
_chemical_name_systematic
;
Co(1,4-benzenedicarboxylate)(1,4-diazabicyclo[2.2.2]octane)H2O
;
_space_group_crystal_system      triclinic
_space_group_IT_number           1
_space_group_name_Hall           'P 1'
_space_group_name_H-M_alt        'P 1'
_atom_sites_solution_hydrogens   mixed
_atom_sites_solution_primary     direct
_audit_creation_date             2016-07-12
_audit_creation_method
;
Olex2 1.2
(compiled 2016.02.19 svn.r3266 for OlexSys, GUI svn.r5155)
;
_cell_angle_alpha                90.43(2)
_cell_angle_beta                 96.62(2)
_cell_angle_gamma                94.933(16)
_cell_formula_units_Z            1
_cell_length_a                   5.8426(11)
_cell_length_b                   7.0452(14)
_cell_length_c                   10.585(3)
_cell_measurement_reflns_used    838
_cell_measurement_temperature    296(2)
_cell_measurement_theta_max      55.836
_cell_measurement_theta_min      8.734
_cell_volume                     431.13(17)
_computing_molecular_graphics    'Olex2 (Dolomanov et al., 2009)'
_computing_publication_material  'Olex2 (Dolomanov et al., 2009)'
_computing_structure_refinement  'ShelXL (Sheldrick, 2015)'
_computing_structure_solution    'ShelXS (Sheldrick, 2008)'
_diffrn_ambient_temperature      296(2)
_diffrn_measured_fraction_theta_full 0.249
_diffrn_measured_fraction_theta_max 0.211
_diffrn_measurement_device_type  'multiwire proportional'
_diffrn_measurement_method       'phi and omega scans'
_diffrn_radiation_monochromator  graphite
_diffrn_radiation_type           MoK\a
_diffrn_radiation_wavelength     0.71073
_diffrn_reflns_av_R_equivalents  0.0660
_diffrn_reflns_av_unetI/netI     0.0997
_diffrn_reflns_Laue_measured_fraction_full 0.249
_diffrn_reflns_Laue_measured_fraction_max 0.211
_diffrn_reflns_limit_h_max       7
_diffrn_reflns_limit_h_min       -7
_diffrn_reflns_limit_k_max       8
_diffrn_reflns_limit_k_min       -8
_diffrn_reflns_limit_l_max       6
_diffrn_reflns_limit_l_min       -6
_diffrn_reflns_number            2307
_diffrn_reflns_point_group_measured_fraction_full 0.249
_diffrn_reflns_point_group_measured_fraction_max 0.211
_diffrn_reflns_theta_full        26.000
_diffrn_reflns_theta_max         27.918
_diffrn_reflns_theta_min         4.367
_exptl_absorpt_coefficient_mu    1.017
_exptl_absorpt_correction_T_max  0.909
_exptl_absorpt_correction_T_min  0.892
_exptl_absorpt_correction_type   multi-scan
_exptl_absorpt_process_details
;
Data were collected and reduced by program CrysAlisPro, 
and SCALE3 ABSPACK was used for absorption correction
;
_exptl_crystal_colour            orange/yellow
_exptl_crystal_density_diffrn    1.361
_exptl_crystal_description       plate
_exptl_crystal_F_000             183
_exptl_crystal_size_max          0.3
_exptl_crystal_size_mid          0.1
_exptl_crystal_size_min          0.1
_refine_diff_density_max         1.713
_refine_diff_density_min         -0.759
_refine_diff_density_rms         0.254
_refine_ls_abs_structure_details
;
 Refined as a perfect inversion twin.
;
_refine_ls_abs_structure_Flack   0.5
_refine_ls_extinction_method     none
_refine_ls_goodness_of_fit_ref   1.995
_refine_ls_hydrogen_treatment    constr
_refine_ls_matrix_type           full
_refine_ls_number_parameters     64
_refine_ls_number_reflns         838
_refine_ls_number_restraints     39
_refine_ls_restrained_S_all      18.667
_refine_ls_R_factor_all          0.2539
_refine_ls_R_factor_gt           0.1898
_refine_ls_shift/su_max          0.000
_refine_ls_shift/su_mean         0.000
_refine_ls_structure_factor_coef Fsqd
_refine_ls_weighting_details
'w=1/[\s^2^(Fo^2^)+(0.2000P)^2^] where P=(Fo^2^+2Fc^2^)/3'
_refine_ls_weighting_scheme      calc
_refine_ls_wR_factor_gt          0.4138
_refine_ls_wR_factor_ref         0.5033
_reflns_Friedel_coverage         1.000
_reflns_Friedel_fraction_full    0.249
_reflns_Friedel_fraction_max     0.211
_reflns_number_gt                597
_reflns_number_total             838
_reflns_threshold_expression     'I > 2\s(I)'
_cod_data_source_file            jz6b02458_si_004.cif
_cod_data_source_block           101GPa_P1
_cod_original_cell_volume        431.11(17)
_cod_database_code               8000378
_shelx_space_group_comment
;
The symmetry employed for this shelxl refinement is uniquely defined
by the following loop, which should always be used as a source of
symmetry information in preference to the above space-group names.
They are only intended as comments.
;
_olex2_refinement_description
;
1. Fixed Uiso
 At 1.2 times of:
  All C(H) groups, All C(H,H) groups
 At 1.5 times of:
  All O(H,H) groups
2. Restrained distances
 N2-C12
 1.48 with sigma of 0.002
 N2-C14
 1.48 with sigma of 0.002
 C10-N2
 1.48 with sigma of 0.002
 C9-N1
 1.48 with sigma of 0.002
 C11-N1
 1.48 with sigma of 0.002
 N1-C13
 1.48 with sigma of 0.002
 C9-C10
 1.52 with sigma of 0.002
 C11-C12
 1.52 with sigma of 0.002
 C13-C14
 1.52 with sigma of 0.002
 O4-C8
 1.23 with sigma of 0.002
 C8-O3
 1.23 with sigma of 0.002
 O1-C7
 1.23 with sigma of 0.002
 C7-O2
 1.23 with sigma of 0.002
 C8-C4
 1.34 with sigma of 0.002
 C1-C7
 1.34 with sigma of 0.002
 C5-C4
 1.38 with sigma of 0.002
 C5-C6
 1.38 with sigma of 0.002
 C6-C1
 1.38 with sigma of 0.002
 C1-C2
 1.38 with sigma of 0.002
 C2-C3
 1.38 with sigma of 0.002
 C3-C4
 1.38 with sigma of 0.002
 O3-O4
 2.16 with sigma of 0.002
 O2-O1
 2.16 with sigma of 0.002
 H1WB-O1W
 0.97 with sigma of 0.001
 O3-C4 \\sim C4-O4
 with sigma of 0.02
 O2-C1 \\sim C1-O1
 with sigma of 0.02
 C2-C7 \\sim C7-C6
 with sigma of 0.02
3. Restrained planarity
 C8, C6, C1, C2, C3, C4, C5, C7, O2, O1, O4, O3
 with sigma of 0.1
4. Uiso/Uaniso restraints and constraints
Uiso(C14) = Uiso(C13) = Uiso(C9) = Uiso(C10) = Uiso(C11) = Uiso(C12)
Uiso(N2) = Uiso(N1)
Uiso(O3) = Uiso(O4) = Uiso(O2) = Uiso(O1)
Uiso(C6) = Uiso(C1) = Uiso(C2) = Uiso(C3) = Uiso(C4) = Uiso(C5)
5.a Rotating group:
 O1W(H1WA,H1WB)
5.b Secondary CH2 refined with riding coordinates:
 C11(H11A,H11B), C9(H9A,H9B), C12(H12A,H12B), C10(H10A,H10B), C14(H14A,H14B)
5.c Aromatic/amide H refined with riding coordinates:
 C6(H6), C2(H2), C3(H3), C5(H5)
5.d Fitted hexagon refined as free rotating group:
 C6(C1,C2,C3,C4,C5)
;
_shelx_hkl_file
;
  -7   0   4   -5.76   34.43
  -6  -4   4    5.34   35.01
  -6  -4   4   29.62   45.74
  -6  -4   3  150.08   56.20
  -6  -4   3   64.90   40.08
  -6  -4   3   46.27   37.95
  -6  -4   2  110.70   45.10
  -6  -4   2  169.25   62.82
  -6  -4   2   40.56   37.41
  -6  -4   1   97.78   45.05
  -6  -4   1   26.47   43.23
  -6  -4   1   -6.24   31.70
  -6  -4   0   52.20   38.70
  -6  -3   4   61.27   36.24
  -6  -3   4  155.37   57.32
  -6  -3   4   76.86   41.79
  -6  -3   3  132.20   45.47
  -6  -3   3  118.49   44.09
  -6  -3   3  224.54   62.66
  -6  -3   2   94.90   43.23
  -6  -3   2  119.18   50.22
  -6  -3   2   90.04   41.68
  -6  -3   1   47.61   37.89
  -6  -3   1   82.41   45.15
  -6  -3   1   57.54   38.64
  -6  -2   5   37.89   39.60
  -6  -2   4   32.40   32.66
  -6  -2   4   81.39   46.86
  -6  -2   3   60.10   39.23
  -6  -2   3   91.64   44.67
  -6  -2   3   83.85   44.89
  -6  -2   2    5.07   34.53
  -6  -2   2   67.78   39.28
  -6  -2   2  -40.30   35.01
  -6  -2   1   27.54   27.86
  -6  -2   1   -7.26   29.94
  -6  -1   5   96.82   45.26
  -6  -1   4  113.74   40.30
  -6  -1   3  117.58   39.28
  -6  -1   2  124.84   42.27
  -6  -1   1   15.00   26.58
  -6   0   5   89.56   35.23
  -6   0   5   94.26   41.95
  -6   0   4  130.07   42.75
  -6   0   4  180.13   38.80
  -6   0   3  125.69   31.81
  -6   0   3  138.77   44.83
  -6   0   2  -32.29   22.04
  -6   0   2   61.75   36.35
  -6   1   6   13.72   31.06
  -6   1   6  -21.56   36.61
  -6   1   5   37.04   34.16
  -6   1   5  105.41   37.68
  -6   1   4   78.46   39.44
  -6   1   4   29.52   30.90
  -6   1   3   99.33   35.87
  -6   1   3   13.66   34.11
  -6   1   2   18.79   21.78
  -6   1   2  -34.21   24.55
  -6   2   5   19.16   29.46
  -6   2   5   21.03   33.36
  -6   2   4   28.23   30.48
  -6   2   4   34.32   32.24
  -6   2   3   26.15   26.53
  -6   2   3    0.59   25.19
  -6   2   2    1.81   16.39
  -6   3   3    9.07   23.59
  -5  -6   2    2.51   38.38
  -5  -6   2   18.79   43.23
  -5  -6   1   66.66   48.09
  -5  -6   1   62.93   40.67
  -5  -6   0   47.93   37.84
  -5  -6   0  -24.87   37.95
  -5  -6   0   34.91   40.62
  -5  -6  -1    0.37   40.40
  -5  -6  -1    8.43   38.00
  -5  -6  -1   78.03   43.87
  -5  -5   3   60.79   45.47
  -5  -5   3   45.10   33.73
  -5  -5   2   43.45   40.40
  -5  -5   2   23.86   42.43
  -5  -5   1   44.99   43.55
  -5  -5   1    9.98   39.60
  -5  -5   0    1.17   36.72
  -5  -5   0   32.34   44.25
  -5  -5  -1   -4.43   39.44
  -5  -5  -1    5.39   35.81
  -5  -5  -1    9.71   29.89
  -5  -4   3   61.54   37.41
  -5  -4   3   42.81   33.14
  -5  -4   3   -1.97   35.81
  -5  -4   2   36.40   41.52
  -5  -4   2   44.03   32.34
  -5  -4   2  -17.08   27.33
  -5  -4   1  100.93   42.91
  -5  -4   1   62.87   43.45
  -5  -4   1   67.89   29.89
  -5  -4   0    6.35   32.61
  -5  -4   0  -28.07   36.08
  -5  -3   3   83.26   35.65
  -5  -3   3  109.47   39.98
  -5  -3   3  150.78   49.85
  -5  -3   2   67.68   32.88
  -5  -3   2  100.98   35.81
  -5  -3   2   61.86   40.56
  -5  -3   1   47.45   28.18
  -5  -3   1   77.23   35.17
  -5  -3   1   90.73   42.70
  -5  -3   0   12.28   24.02
  -5  -3   0   -4.43   33.46
  -5  -2   4   12.65   30.10
  -5  -2   4  -28.50   31.76
  -5  -2   3  121.10   36.40
  -5  -2   3  178.80   42.97
  -5  -2   3  202.28   44.19
  -5  -2   2   36.24   27.54
  -5  -2   2    7.90   26.58
  -5  -2   2   46.97   35.44
  -5  -2   1   31.17   28.66
  -5  -2   1   -7.47   32.72
  -5  -2   0    4.86   22.10
  -5  -2   0  -12.54   26.69
  -5  -1   5  -14.25   21.03
  -5  -1   4   65.76   25.09
  -5  -1   4   63.57   31.28
  -5  -1   4   69.28   34.80
  -5  -1   3  163.86   42.27
  -5  -1   3   84.65   27.22
  -5  -1   3   98.10   30.85
  -5  -1   2  136.31   37.95
  -5  -1   2  106.37   33.04
  -5  -1   2  154.19   30.10
  -5  -1   2  116.67   37.15
  -5  -1   1   38.64   28.18
  -5  -1   1   11.48   24.50
  -5  -1   1   -7.69   13.56
  -5  -1   0    2.19   17.93
  -5   0   5  287.95   42.54
  -5   0   4  127.45   34.21
  -5   0   4  158.30   39.55
  -5   0   3  487.83   49.58
  -5   0   3  481.37   56.90
  -5   0   2  194.38   33.79
  -5   0   2  194.28   40.99
  -5   0   1   22.31   28.61
  -5   0   1    0.59   14.41
  -5   1   6   73.01   30.90
  -5   1   5  -61.49   36.77
  -5   1   5   39.60   27.81
  -5   1   4   19.16   26.69
  -5   1   4   66.93   32.40
  -5   1   3  203.67   36.03
  -5   1   3  166.36   39.23
  -5   1   2  111.87   35.33
  -5   1   2  121.85   30.00
  -5   1   1   -4.64   15.00
  -5   1   1   -5.76   16.81
  -5   2   6   38.86   30.96
  -5   2   5  114.97   35.76
  -5   2   5   52.79   28.29
  -5   2   4   62.23   33.09
  -5   2   4   45.69   25.83
  -5   2   3  225.45   40.51
  -5   2   3  191.29   39.23
  -5   2   2  -15.58   21.08
  -5   2   2   45.79   27.38
  -5   3   6  106.91   32.98
  -5   3   6  183.76   44.30
  -5   3   5  138.66   33.52
  -5   3   5  124.41   37.20
  -5   3   5  151.31   31.54
  -5   3   4   71.79   25.30
  -5   3   4   93.24   29.36
  -5   3   4   70.88   32.61
  -5   3   3  273.86   46.27
  -5   3   3  249.41   38.70
  -5   3   3  222.46   34.91
  -5   3   2   26.69   33.95
  -5   3   2   17.77   18.20
  -5   4   6    7.05   23.54
  -5   4   6   15.69   31.12
  -5   4   6   20.17   31.49
  -5   4   5   31.12   28.93
  -5   4   5   29.57   28.45
  -5   4   5   25.19   24.39
  -5   4   4   97.14   34.80
  -5   4   4  105.63   30.48
  -5   4   4   40.08   32.34
  -5   4   3    3.79   20.98
  -5   4   3   49.42   28.87
  -5   4   3   14.94   23.06
  -5   4   2  -39.92   23.22
  -5   5   4   34.21   27.38
  -5   5   4  -20.28   32.24
  -5   5   4   63.89   34.21
  -5   5   3  -10.09   17.61
  -5   5   3   26.15   20.55
  -5   5   3  -14.52   24.55
  -4  -7   1   27.17   38.70
  -4  -7   1   69.28   47.82
  -4  -7   1   53.69   35.23
  -4  -7   0    3.15   35.12
  -4  -7   0  -10.73   41.10
  -4  -7   0  -21.35   41.74
  -4  -7  -1   40.30   47.07
  -4  -7  -1   18.84   44.35
  -4  -7  -1  -42.43   46.65
  -4  -7  -2  -21.62   39.55
  -4  -6   2  125.85   44.51
  -4  -6   1   14.89   32.29
  -4  -6   1   52.09   45.79
  -4  -6   1   63.14   37.04
  -4  -6   0   25.89   44.41
  -4  -6   0   29.52   34.53
  -4  -6   0   77.28   39.23
  -4  -6  -1   51.50   39.34
  -4  -6  -1   58.55   40.83
  -4  -6  -1  119.77   43.07
  -4  -6  -2   63.67   42.97
  -4  -6  -2  104.13   45.05
  -4  -5   2   81.07   33.62
  -4  -5   2   22.90   29.78
  -4  -5   1   21.51   34.21
  -4  -5   1   17.29   28.66
  -4  -5   1   42.16   37.36
  -4  -5   0   73.49   37.52
  -4  -5   0   35.97   32.24
  -4  -5   0   63.35   34.69
  -4  -5  -1   31.54   29.57
  -4  -5  -1   39.18   32.02
  -4  -5  -1    6.94   32.50
  -4  -4   3   49.05   31.81
  -4  -4   2  222.57   38.54
  -4  -4   2  158.30   39.07
  -4  -4   2  158.41   34.53
  -4  -4   1  122.12   31.12
  -4  -4   1  115.29   32.93
  -4  -4   1  149.71   40.72
  -4  -4   1  151.74   46.11
  -4  -4   0  145.12   40.94
  -4  -4   0   89.19   39.71
  -4  -4   0   66.18   27.70
  -4  -4  -1   88.44   38.96
  -4  -3   3  188.41   36.88
  -4  -3   2  198.92   34.75
  -4  -3   2  229.29   44.30
  -4  -3   1  224.97   33.62
  -4  -3   1  283.89   53.21
  -4  -3   1  229.93   37.36
  -4  -3   1  234.79   42.54
  -4  -3   0  226.51   35.65
  -4  -3   0  214.40   35.12
  -4  -3   0  189.42   46.27
  -4  -3  -1  145.12   41.52
  -4  -2   3   71.20   25.89
  -4  -2   2   69.92   26.37
  -4  -2   2   73.55   27.01
  -4  -2   2   95.48   30.90
  -4  -2   1  130.34   30.90
  -4  -2   1  132.31   36.93
  -4  -2   0   17.93   19.48
  -4  -2   0   61.81   30.69
  -4  -1   4   27.11   17.88
  -4  -1   3   91.64   22.58
  -4  -1   3  108.29   27.81
  -4  -1   2  119.61   33.84
  -4  -1   2   65.33   23.00
  -4  -1   2  111.60   21.24
  -4  -1   2   89.24   24.66
  -4  -1   1  175.81   24.77
  -4  -1   1  220.80   39.71
  -4  -1   1  138.72   31.49
  -4  -1   0   -0.53   18.73
  -4  -1   0   98.21   27.86
  -4   0   5  505.60   46.86
  -4   0   4  298.19   34.96
  -4   0   3  335.40   35.01
  -4   0   3  289.60   41.42
  -4   0   3  406.06   43.93
  -4   0   2  164.44   27.38
  -4   0   2  201.54   34.75
  -4   0   2  188.51   34.32
  -4   0   2  179.33   27.33
  -4   0   1  291.47   37.79
  -4   0   1  174.26   29.78
  -4   0   1  317.20   33.73
  -4   0   0    8.17   15.91
  -4   1   5    2.72   19.91
  -4   1   4   10.03   12.49
  -4   1   4   48.41   23.64
  -4   1   3   19.85   14.57
  -4   1   3   38.54   14.57
  -4   1   3   15.37   18.79
  -4   1   3   19.75   22.31
  -4   1   2   94.74   19.05
  -4   1   2   98.85   26.69
  -4   1   2   95.91   19.59
  -4   1   2   68.58   23.11
  -4   1   1   84.76   26.31
  -4   1   1  140.32   26.95
  -4   1   1  116.35   18.84
  -4   2   5   93.19   22.90
  -4   2   5  108.29   27.06
  -4   2   5   94.36   28.77
  -4   2   4   26.15   21.19
  -4   2   4   32.02   17.40
  -4   2   4   33.79   25.35
  -4   2   4   13.24   17.56
  -4   2   3   66.56   24.23
  -4   2   3   64.10   23.11
  -4   2   3   96.39   21.08
  -4   2   3  148.32   27.70
  -4   2   2   50.70   23.00
  -4   2   2   57.91   24.28
  -4   2   2   38.48   16.17
  -4   2   2   42.00   19.21
  -4   2   1   28.29   20.92
  -4   2   1   40.67   18.63
  -4   3   6  299.69   45.15
  -4   3   6  361.55   44.25
  -4   3   5   81.55   25.25
  -4   3   5   63.51   28.23
  -4   3   5   90.20   26.85
  -4   3   4  163.53   36.51
  -4   3   4  123.40   24.77
  -4   3   4  170.90   32.72
  -4   3   3   92.87   23.43
  -4   3   3   57.80   24.55
  -4   3   3  113.15   28.45
  -4   3   2  192.78   32.40
  -4   3   2  151.85   34.00
  -4   3   2  182.64   28.18
  -4   3   1   30.74   19.11
  -4   3   1   -1.12   16.12
  -4   4   6   24.87   23.80
  -4   4   6   -6.19   26.69
  -4   4   6   23.27   26.10
  -4   4   5    3.26   25.19
  -4   4   5   43.34   31.70
  -4   4   5   17.77   22.42
  -4   4   4   19.27   25.62
  -4   4   4    4.96   22.63
  -4   4   4   46.70   30.42
  -4   4   3  111.44   32.82
  -4   4   3   92.39   30.21
  -4   4   3   86.84   26.90
  -4   4   2    2.62   18.63
  -4   4   2    0.37   19.91
  -4   5   6   66.24   32.45
  -4   5   6   88.44   35.01
  -4   5   6   77.71   33.09
  -4   5   5   75.90   34.43
  -4   5   5   85.13   31.33
  -4   5   5  117.79   35.92
  -4   5   4   22.52   24.60
  -4   5   4   25.46   26.90
  -4   5   4   28.45   26.15
  -4   5   3   12.17   21.99
  -4   5   3   57.22   30.16
  -4   5   3   83.05   34.11
  -4   5   2   -4.54   16.07
  -4   5   2   -3.74   20.92
  -4   6   4   22.74   32.50
  -4   6   3   25.19   26.37
  -4   6   3   67.30   31.76
  -3  -7   1   71.68   38.38
  -3  -7   0   72.80   43.07
  -3  -7  -1   81.66   43.50
  -3  -7  -2  112.94   51.45
  -3  -7  -3  129.06   46.22
  -3  -6   1  170.79   41.63
  -3  -6   1  180.13   44.25
  -3  -6   0  110.75   39.07
  -3  -6   0  132.15   43.82
  -3  -6   0   48.30   30.80
  -3  -6  -1  112.67   38.16
  -3  -6  -1  104.61   42.27
  -3  -6  -1  122.06   39.76
  -3  -6  -2   -0.11   31.33
  -3  -6  -2   97.41   41.58
  -3  -6  -2   42.97   38.64
  -3  -6  -3  -42.86   31.60
  -3  -5   2   83.53   30.74
  -3  -5   2  108.45   35.33
  -3  -5   1   64.74   30.80
  -3  -5   1   62.77   29.68
  -3  -5   0   34.75   30.64
  -3  -5   0   59.94   35.55
  -3  -5   0  -43.66   30.69
  -3  -5  -1   55.83   33.36
  -3  -5  -1   -0.21   24.60
  -3  -5  -1  -22.26   27.75
  -3  -5  -2   34.48   30.90
  -3  -4   2  570.45   52.09
  -3  -4   2  520.65   54.81
  -3  -4   1  271.88   38.32
  -3  -4   1  292.70   43.55
  -3  -4   0  358.77   53.43
  -3  -4   0  335.56   40.94
  -3  -4   0  443.37   49.90
  -3  -4  -1   77.23   32.77
  -3  -4  -2  -11.85   25.41
  -3  -3   3  266.49   37.47
  -3  -3   2  848.52   61.86
  -3  -3   2  767.02   51.45
  -3  -3   1  465.36   40.51
  -3  -3   1  400.14   43.61
  -3  -3   1  416.15   38.75
  -3  -3   0  303.00   45.37
  -3  -3   0  271.19   33.89
  -3  -3   0  240.55   29.84
  -3  -3  -1   -7.05   10.51
  -3  -3  -1  178.69   36.29
  -3  -2   3  183.28   30.80
  -3  -2   3  206.77   22.90
  -3  -2   2  962.53   42.00
  -3  -2   2  773.05   43.50
  -3  -2   2  857.76   56.74
  -3  -2   1   94.68   18.15
  -3  -2   1  114.91   23.27
  -3  -2   1  119.29   15.69
  -3  -2   0  201.38   28.23
  -3  -2   0  243.33   36.29
  -3  -2  -1   75.20   25.78
  -3  -2  -1    5.02    9.87
  -3  -1   3  402.97   31.38
  -3  -1   3  455.11   39.23
  -3  -1   2 1611.38   49.85
  -3  -1   2 1781.70   72.59
  -3  -1   2 1773.48   59.83
  -3  -1   1  696.68   51.24
  -3  -1   1  567.30   30.74
  -3  -1   1  606.05   34.11
  -3  -1   1  624.04   44.83
  -3  -1   0  228.65   27.54
  -3  -1   0  246.90   34.43
  -3   0   4  550.70   32.88
  -3   0   4  469.84   38.48
  -3   0   3  649.55   41.58
  -3   0   3  695.45   31.92
  -3   0   3  671.91   41.20
  -3   0   3  633.64   32.34
  -3   0   2 1895.86   66.56
  -3   0   2 1848.63   66.13
  -3   0   2 1906.91   52.47
  -3   0   2 1907.02   77.71
  -3   0   2 1930.23   49.10
  -3   0   1  891.06   51.99
  -3   0   1  850.55   33.73
  -3   0   1  748.88   30.16
  -3   0   1  764.46   48.94
  -3   0   1  844.79   43.66
  -3   0   0  453.51   39.28
  -3   0   0  426.50   23.64
  -3   1   4   42.54   18.09
  -3   1   4   38.11   12.22
  -3   1   4   39.39   14.78
  -3   1   3  464.08   30.64
  -3   1   3  461.89   37.09
  -3   1   3  485.80   33.30
  -3   1   2 1321.94   59.88
  -3   1   2 1324.45   47.72
  -3   1   2 1401.68   50.70
  -3   1   2 1449.98   58.55
  -3   1   2 1426.07   52.84
  -3   1   2 1378.84   63.78
  -3   1   1  466.91   30.80
  -3   1   1  418.92   36.56
  -3   1   1  398.54   33.79
  -3   1   1  445.98   28.07
  -3   1   0    0.91    8.27
  -3   1   0    8.17    9.82
  -3   1   0   -5.98    8.06
  -3   2   5   42.65   22.52
  -3   2   5   38.54   20.44
  -3   2   4  136.47   27.43
  -3   2   4  121.85   20.98
  -3   2   4  110.16   23.16
  -3   2   3  165.40   25.83
  -3   2   3  179.81   27.17
  -3   2   3  168.18   25.41
  -3   2   3  130.98   20.07
  -3   2   2  418.71   37.84
  -3   2   2  463.06   36.19
  -3   2   2  477.79   33.79
  -3   2   2  459.01   39.12
  -3   2   1  199.45   25.03
  -3   2   1  178.37   26.26
  -3   2   1  194.33   22.26
  -3   3   5  173.73   30.85
  -3   3   5  203.78   32.45
  -3   3   5  172.07   26.58
  -3   3   4  191.24   32.56
  -3   3   4  194.17   30.21
  -3   3   4  183.92   27.75
  -3   3   3  493.97   46.54
  -3   3   3  516.06   45.85
  -3   3   3  386.69   35.12
  -3   3   2  499.09   39.28
  -3   3   2  460.56   40.62
  -3   3   2  417.75   40.83
  -3   3   2  446.14   36.67
  -3   3   1  418.39   38.48
  -3   3   1  376.07   34.69
  -3   3   1  317.84   30.69
  -3   3   1  255.82   32.18
  -3   4   6   71.36   27.75
  -3   4   6   37.95   24.50
  -3   4   6   22.52   18.95
  -3   4   5   14.36   19.91
  -3   4   5   18.79   22.74
  -3   4   5   68.74   27.27
  -3   4   4   92.87   27.06
  -3   4   4   67.41   23.80
  -3   4   4   72.53   26.10
  -3   4   3  107.33   27.65
  -3   4   3  132.31   27.22
  -3   4   3   92.07   27.22
  -3   4   3  124.25   27.49
  -3   4   2  271.94   36.56
  -3   4   2  303.80   37.09
  -3   4   2  306.57   37.04
  -3   4   2  233.93   34.21
  -3   4   1   21.51   18.31
  -3   4   1    7.47   15.69
  -3   4   1   -7.90    9.34
  -3   4   1   13.61   16.49
  -3   5   6   76.86   27.06
  -3   5   6   78.62   32.02
  -3   5   5   39.39   24.23
  -3   5   5   73.55   28.71
  -3   5   5   33.89   23.59
  -3   5   4   10.46   21.56
  -3   5   4   65.28   25.09
  -3   5   4   58.82   26.69
  -3   5   4   16.81   26.10
  -3   5   3   16.55   23.59
  -3   5   3   62.61   28.29
  -3   5   3   20.39   21.72
  -3   5   3    2.62   21.30
  -3   5   2   45.15   22.74
  -3   5   2   33.79   23.96
  -3   5   2   -7.31   13.40
  -3   5   2   -4.11   22.58
  -3   5   1  -12.76   19.16
  -3   5   1   -1.97   18.20
  -3   6   6   25.67   24.87
  -3   6   6   52.57   34.96
  -3   6   5    7.31   22.52
  -3   6   5   33.73   29.25
  -3   6   4   26.42   28.29
  -3   6   4   34.48   27.75
  -3   6   4  -16.07   27.38
  -3   6   3   24.55   27.33
  -3   6   3  -10.30   26.53
  -3   6   3   51.18   29.73
  -3   6   2  -15.42   21.40
  -3   6   2   20.76   23.70
  -3   6   2  -42.75   26.26
  -3   7   5    1.92   29.41
  -3   7   4   -3.84   28.71
  -3   7   4  -53.96   38.48
  -3   7   3  -38.22   28.02
  -3   7   3  -23.75   33.04
  -2  -8   0   28.50   37.15
  -2  -8  -1  107.97   43.87
  -2  -8  -1   19.48   27.33
  -2  -8  -2  -43.71   30.53
  -2  -8  -3  -23.48   30.37
  -2  -7   0   67.62   26.90
  -2  -7   0   85.24   38.75
  -2  -7  -1   24.60   37.20
  -2  -7  -1   31.86   21.30
  -2  -7  -2   31.60   26.37
  -2  -7  -2   35.39   36.40
  -2  -7  -3   51.77   34.48
  -2  -7  -3   65.86   31.70
  -2  -7  -4  -42.75   44.51
  -2  -7  -4   -8.86   26.37
  -2  -6   1  141.28   35.87
  -2  -6   0  123.88   37.79
  -2  -6   0  196.63   37.79
  -2  -6   0  167.27   33.46
  -2  -6  -1  101.04   35.07
  -2  -6  -1  142.19   30.90
  -2  -6  -2   92.50   35.23
  -2  -6  -2   35.12   20.87
  -2  -6  -3  143.09   30.90
  -2  -6  -3  133.59   39.98
  -2  -5   1    6.94   13.72
  -2  -5   1   -0.16   21.83
  -2  -5   1   12.49   22.63
  -2  -5   0   33.20   23.75
  -2  -5   0   70.88   19.85
  -2  -5   0   91.85   28.55
  -2  -5  -1   46.06   28.39
  -2  -5  -1   43.39   29.25
  -2  -5  -1   25.83   22.84
  -2  -5  -1   42.16   19.91
  -2  -5  -2  -13.34   25.25
  -2  -5  -2   12.28   21.72
  -2  -5  -2   13.40   18.15
  -2  -5  -3   86.68   26.15
  -2  -4   2  181.90   31.86
  -2  -4   1  275.94   26.47
  -2  -4   1  270.44   37.47
  -2  -4   1  276.15   37.04
  -2  -4   0  194.76   31.54
  -2  -4   0  207.62   24.50
  -2  -4   0  192.62   31.22
  -2  -4  -1  276.74   41.15
  -2  -4  -1  258.33   36.51
  -2  -4  -1  299.05   29.25
  -2  -4  -2   50.01   22.63
  -2  -4  -2   97.99   20.17
  -2  -4  -3   -3.95   13.13
  -2  -3   2  312.98   35.60
  -2  -3   2  328.19   33.57
  -2  -3   1  238.58   30.58
  -2  -3   1  232.76   28.77
  -2  -3   1  211.84   19.16
  -2  -3   0  168.61   25.99
  -2  -3   0  203.03   22.31
  -2  -3   0  201.22   19.32
  -2  -3  -1  191.77   31.22
  -2  -3  -1  146.78   18.68
  -2  -3  -2  163.16   20.50
  -2  -3  -2  -12.12   15.96
  -2  -2   2  227.32   27.70
  -2  -2   2  210.66   22.20
  -2  -2   1  157.88   20.34
  -2  -2   1  158.14   23.64
  -2  -2   0    6.30    8.70
  -2  -2   0   31.81    7.74
  -2  -2   0   28.87   15.42
  -2  -2  -1   49.58   15.91
  -2  -2  -1   43.34    9.82
  -2  -1   2  697.48   39.44
  -2  -1   2  718.19   31.97
  -2  -1   1  682.43   28.34
  -2  -1   1  608.35   28.13
  -2  -1   0  633.80   35.33
  -2  -1   0  785.70   44.83
  -2  -1   0  593.24   25.41
  -2  -1  -1  -11.26    9.71
  -2   0   3  690.22   30.64
  -2   0   2 1167.96   32.93
  -2   0   2 1117.68   42.43
  -2   0   2 1135.72   42.75
  -2   0   2 1240.44   36.35
  -2   0   1  196.04   17.72
  -2   0   1  211.73   21.40
  -2   0   1  224.97   21.72
  -2   0   0 1292.75   43.23
  -2   0   0 1314.58   50.70
  -2   0   0 1174.63   49.48
  -2   1   3  333.95   23.16
  -2   1   3  326.38   27.01
  -2   1   3  281.97   23.16
  -2   1   2 1446.03   52.89
  -2   1   2 1456.50   47.13
  -2   1   2 1475.28   44.73
  -2   1   1  965.52   37.04
  -2   1   1 1003.36   42.32
  -2   1   1 1016.70   45.05
  -2   1   1  982.22   34.75
  -2   1   0    3.68    3.63
  -2   1   0   -0.75    6.14
  -2   2   4   80.54   16.33
  -2   2   4   75.20   18.73
  -2   2   4   57.06   15.26
  -2   2   3  180.61   23.22
  -2   2   3  159.91   21.24
  -2   2   3  156.49   18.68
  -2   2   3  190.27   21.56
  -2   2   2  889.62   40.94
  -2   2   2  959.54   47.13
  -2   2   2  874.73   44.30
  -2   2   2  897.41   42.91
  -2   2   2  955.70   42.70
  -2   2   1   93.83   16.28
  -2   2   1  134.55   21.46
  -2   2   1   87.59   17.35
  -2   2   1  112.56   18.04
  -2   2   1  169.09   20.07
  -2   2   0   -6.40    7.26
  -2   2   0    3.58    7.21
  -2   2   0  -12.49    7.69
  -2   2   0   -3.79    6.78
  -2   3   5  367.95   34.69
  -2   3   5  340.47   35.92
  -2   3   5  401.69   38.59
  -2   3   4  410.97   34.69
  -2   3   4  402.70   36.83
  -2   3   4  323.39   32.61
  -2   3   4  365.55   35.07
  -2   3   3  339.45   29.78
  -2   3   3  337.42   32.72
  -2   3   3  364.64   33.14
  -2   3   3  335.45   32.29
  -2   3   2 1140.90   55.24
  -2   3   2 1158.03   54.71
  -2   3   2 1142.61   55.19
  -2   3   2 1148.59   51.45
  -2   3   1  361.71   31.49
  -2   3   1  434.46   35.55
  -2   3   1  412.52   33.95
  -2   3   1  426.40   32.13
  -2   3   0   -4.86    7.74
  -2   3   0   -2.03    8.97
  -2   3   0   -9.87   10.41
  -2   4   5  204.47   30.64
  -2   4   5  196.73   31.38
  -2   4   5  173.36   31.17
  -2   4   5  167.06   29.30
  -2   4   4  134.07   25.89
  -2   4   4  135.35   28.50
  -2   4   4  142.72   25.73
  -2   4   4  147.31   28.23
  -2   4   3  317.36   33.20
  -2   4   3  265.32   33.95
  -2   4   3  309.67   35.92
  -2   4   3  287.04   37.15
  -2   4   2  868.32   54.97
  -2   4   2  831.98   50.33
  -2   4   2  860.53   55.67
  -2   4   2  965.52   54.01
  -2   4   1  292.32   34.69
  -2   4   1  256.35   33.36
  -2   4   1  281.01   31.28
  -2   5   5   49.32   25.73
  -2   5   5   99.49   27.38
  -2   5   5   81.18   29.14
  -2   5   4   53.21   26.31
  -2   5   4   18.84   21.19
  -2   5   4   34.69   21.51
  -2   5   3   60.52   28.39
  -2   5   3   66.72   28.66
  -2   5   3   92.76   25.03
  -2   5   2  146.62   30.53
  -2   5   2  138.45   26.90
  -2   5   2  125.32   30.90
  -2   5   1   57.11   20.60
  -2   5   1   18.41   21.35
  -2   6   6   58.07   30.53
  -2   6   5   57.27   28.23
  -2   6   5   77.12   27.27
  -2   6   5   77.44   31.17
  -2   6   4  139.57   38.59
  -2   6   4  111.44   31.01
  -2   6   4  115.61   33.46
  -2   6   3  145.17   32.98
  -2   6   3  167.32   38.64
  -2   6   3  134.02   30.85
  -2   6   2  388.98   47.40
  -2   6   2  280.10   39.02
  -2   6   2  324.13   48.20
  -2   6   1   -9.13   23.27
  -2   6   1  -13.82   19.85
  -2   7   5   38.05   28.77
  -2   7   5   62.50   35.17
  -2   7   5   38.38   25.09
  -2   7   4   28.13   28.23
  -2   7   4   27.97   26.69
  -2   7   4   32.61   33.14
  -2   7   3   74.67   30.69
  -2   7   3   85.29   34.59
  -2   7   3   95.59   37.09
  -2   7   2   12.54   16.44
  -2   7   2   35.60   23.32
  -2   7   2   22.36   28.18
  -2   8   3  -18.47   29.52
  -1  -8  -1   54.76   34.00
  -1  -8  -1   31.49   33.89
  -1  -8  -2   48.14   38.96
  -1  -8  -2  -18.84   29.41
  -1  -8  -3  -40.94   43.02
  -1  -8  -3    2.67   28.98
  -1  -8  -4  -44.67   41.58
  -1  -7   0  156.12   34.64
  -1  -7   0  151.31   42.00
  -1  -7  -1  163.80   43.77
  -1  -7  -1   81.29   27.81
  -1  -7  -2  -35.65   34.64
  -1  -7  -2   40.94   24.98
  -1  -7  -3   55.35   32.56
  -1  -7  -3  103.38   33.52
  -1  -7  -4   56.52   37.95
  -1  -7  -4   51.83   26.05
  -1  -6   0  492.21   57.16
  -1  -6   0  537.41   49.26
  -1  -6  -1   87.64   32.18
  -1  -6  -1   53.11   26.05
  -1  -6  -2   96.44   28.98
  -1  -6  -2  118.17   35.97
  -1  -6  -3  130.92   40.88
  -1  -6  -3   97.57   28.71
  -1  -6  -4  110.48   31.76
  -1  -5   1  231.75   38.22
  -1  -5   0  610.64   46.01
  -1  -5   0  713.28   58.28
  -1  -5  -1  177.73   34.75
  -1  -5  -1  153.71   27.33
  -1  -5  -2   94.68   29.57
  -1  -5  -2   51.93   22.31
  -1  -5  -3   37.95   20.98
  -1  -5  -4   -9.45   17.40
  -1  -4   1   55.61   11.64
  -1  -4   1   40.72   17.99
  -1  -4   1   49.80   15.48
  -1  -4   0 1394.42   63.83
  -1  -4   0 1347.40   69.12
  -1  -4   0 1376.22   58.92
  -1  -4   0 1457.40   45.74
  -1  -4  -1  324.56   36.35
  -1  -4  -1  267.72   29.25
  -1  -4  -1  281.06   34.37
  -1  -4  -1  271.35   28.50
  -1  -4  -1  273.16   23.16
  -1  -4  -1  279.35   21.67
  -1  -4  -2  114.86   15.75
  -1  -4  -2  131.78   22.90
  -1  -4  -2  108.77   22.47
  -1  -4  -2  102.48   16.33
  -1  -4  -3  322.96   27.22
  -1  -4  -3  293.34   31.65
  -1  -3   1 1121.47   45.53
  -1  -3   1 1025.67   53.11
  -1  -3   1 1192.25   54.28
  -1  -3   0 2642.66   79.31
  -1  -3   0 2661.23   81.77
  -1  -3   0 2562.86   48.52
  -1  -3   0 2406.43   50.60
  -1  -3   0 2564.36   66.50
  -1  -3  -1  503.31   32.45
  -1  -3  -1  485.21   22.74
  -1  -3  -1  549.74   25.89
  -1  -3  -1  539.33   40.40
  -1  -3  -2  493.97   33.20
  -1  -3  -2  507.79   27.43
  -1  -2   1  402.11   28.02
  -1  -2   1  358.40   26.26
  -1  -2   1  340.79   19.27
  -1  -2   0 4358.81   68.26
  -1  -2   0 4280.83   85.66
  -1  -2  -1 1623.29   59.62
  -1  -2  -1 1561.00   44.30
  -1  -1  -1   12.92    8.11
  -1   1   2   97.62   10.83
  -1   1   2   99.01   11.69
  -1   1   1  258.17   16.60
  -1   1   1  259.55   16.44
  -1   1   0  251.81   16.49
  -1   2   3   51.02   10.83
  -1   2   3   51.45   12.12
  -1   2   3   54.97   12.81
  -1   2   2   48.41   10.19
  -1   2   2   52.79   11.90
  -1   2   2   53.59   11.96
  -1   2   2   49.80   10.67
  -1   2   1  209.01   17.93
  -1   2   1  220.70   19.16
  -1   2   1  224.81   19.64
  -1   2   1  226.35   18.25
  -1   2   0   54.44   10.03
  -1   2   0    0.91    3.74
  -1   2   0   67.89   11.42
  -1   2   0   54.76   10.41
  -1   3   4  216.85   23.80
  -1   3   4  233.19   24.23
  -1   3   4  218.56   26.26
  -1   3   4  217.07   27.43
  -1   3   3  159.37   19.64
  -1   3   3  141.87   21.83
  -1   3   3  138.82   18.79
  -1   3   3  130.28   20.92
  -1   3   3  128.95   17.72
  -1   3   2  244.02   22.10
  -1   3   2  216.00   23.80
  -1   3   2  235.70   22.68
  -1   3   2  218.40   25.25
  -1   3   2  238.04   23.06
  -1   3   1  341.05   26.58
  -1   3   1  306.31   25.57
  -1   3   1  329.04   28.55
  -1   3   1  314.05   30.00
  -1   3   1  336.89   26.74
  -1   3   0  625.90   36.61
  -1   3   0  717.44   42.00
  -1   3   0  684.24   35.76
  -1   3   0  707.46   38.00
  -1   4   4  181.09   25.83
  -1   4   4  169.19   25.78
  -1   4   4  161.77   29.20
  -1   4   3  148.11   23.06
  -1   4   3  158.78   22.15
  -1   4   3  167.06   24.77
  -1   4   3  149.23   22.84
  -1   4   3  150.73   27.22
  -1   4   2  104.29   17.93
  -1   4   2  119.13   20.12
  -1   4   2  135.99   21.78
  -1   4   2   81.39   20.34
  -1   4   2  133.11   22.52
  -1   4   1  202.44   24.44
  -1   4   1  158.14   23.91
  -1   4   1  166.26   24.34
  -1   4   1  181.57   27.65
  -1   4   0   47.45   15.58
  -1   4   0   56.63   16.81
  -1   4   0   54.49   17.99
  -1   5   5  160.92   31.22
  -1   5   5  106.69   29.30
  -1   5   5  135.99   26.95
  -1   5   4   41.36   20.60
  -1   5   4   25.46   19.37
  -1   5   4    2.13   20.12
  -1   5   3   14.78   16.87
  -1   5   3    3.42   19.05
  -1   5   3   48.78   25.73
  -1   5   2   35.97   18.20
  -1   5   2   12.33   19.48
  -1   5   2   56.31   20.50
  -1   5   1   32.66   17.67
  -1   5   1   32.34   15.69
  -1   5   1   53.32   22.95
  -1   5   1   20.55   20.34
  -1   5   0    0.37   13.08
  -1   5   0   10.57   17.24
  -1   5   0   -9.87   17.67
  -1   6   5  151.85   36.13
  -1   6   5  192.30   32.88
  -1   6   5  141.17   34.27
  -1   6   4   83.32   28.82
  -1   6   4  130.60   36.08
  -1   6   4   79.58   24.82
  -1   6   3   78.08   24.98
  -1   6   3   91.00   30.58
  -1   6   3   95.32   34.48
  -1   6   2  130.55   29.03
  -1   6   2  145.87   30.64
  -1   6   2  123.72   33.73
  -1   6   1   42.59   27.75
  -1   6   1  -19.53   19.64
  -1   7   5   86.04   31.49
  -1   7   5    1.65   28.55
  -1   7   5   77.98   29.41
  -1   7   4   65.70   26.63
  -1   7   4   28.45   26.85
  -1   7   4   41.36   31.70
  -1   7   3    4.80   22.95
  -1   7   3   37.73   22.36
  -1   7   3    8.49   29.68
  -1   7   2   40.78   22.15
  -1   7   2  100.50   29.62
  -1   7   2   27.91   32.24
  -1   7   1  -22.42   23.22
  -1   7   1  -12.28   25.99
  -1   8   3  -24.60   33.68
  -1   8   2    3.15   31.28
   0  -8  -1   52.15   32.82
   0  -8  -2   12.92   29.30
   0  -8  -3   73.87   36.35
   0  -7  -1  -31.01   35.07
   0  -7  -1  -42.75   30.26
   0  -7  -2   44.03   32.61
   0  -7  -2   18.52   24.50
   0  -7  -3   46.06   32.18
   0  -7  -3   43.39   26.95
   0  -7  -4   66.66   32.13
   0  -7  -5   25.19   30.16
   0  -6   0  179.92   28.07
   0  -6   0  166.95   32.08
   0  -6  -1   90.41   23.59
   0  -6  -1  130.87   32.29
   0  -6  -1  103.81   27.91
   0  -6  -2   42.43   20.66
   0  -6  -2   48.52   29.52
   0  -6  -2   64.26   25.14
   0  -6  -3   61.22   30.05
   0  -6  -3   67.57   21.30
   0  -6  -3   57.48   24.98
   0  -6  -4  108.24   31.49
   0  -6  -4  102.32   24.44
   0  -6  -4  125.59   33.57
   0  -6  -5   18.15   24.55
   0  -5   0  578.30   50.54
   0  -5   0  526.74   44.25
   0  -5   0  499.78   36.72
   0  -5  -1  368.43   41.31
   0  -5  -1  415.83   40.62
   0  -5  -1  401.58   36.45
   0  -5  -1  409.80   34.37
   0  -5  -2   50.22   16.71
   0  -5  -2   60.31   24.28
   0  -5  -2   72.05   19.85
   0  -5  -2   38.00   20.12
   0  -5  -3   19.21   23.91
   0  -5  -3   21.14   14.09
   0  -5  -3   -0.05   19.00
   0  -5  -3   51.34   19.85
   0  -5  -4    8.65   11.26
   0  -5  -4   -0.80   19.59
   0  -5  -4  -11.90   18.41
   0  -4   0  584.06   43.66
   0  -4   0  604.56   40.83
   0  -4   0  585.29   34.96
   0  -4   0  531.06   34.64
   0  -4  -1   39.71   18.52
   0  -4  -1   27.06   14.57
   0  -4  -1   24.71   12.92
   0  -4  -1   21.94   11.96
   0  -4  -2   54.28   13.50
   0  -4  -2   73.71   19.75
   0  -4  -2   91.96   18.52
   0  -4  -2   57.80   17.56
   0  -4  -3   61.75   17.83
   0  -4  -3   76.80   20.07
   0  -4  -3   60.90   14.94
   0  -4  -4  162.25   23.22
   0  -4  -4  153.50   27.49
   0  -3   0 3964.97   94.63
   0  -3   0 3936.36   85.50
   0  -3   0 4015.52   73.97
   0  -3   0 4052.82   79.21
   0  -3  -1 2660.96   60.69
   0  -3  -1 2786.76   77.55
   0  -3  -1 2682.15   72.96
   0  -3  -1 2678.42   61.49
   0  -3  -1 2783.29   66.61
   0  -3  -2  355.73   28.93
   0  -3  -2  375.80   26.47
   0  -3  -2  365.34   24.66
   0  -3  -3  112.99   16.76
   0  -3  -3  105.89   15.85
   0  -3  -3  106.64   18.52
   0  -2   0 9986.67  118.70
   0  -2   0 9999.00  108.13
   0  -2   0 9983.52  100.13
   0  -2  -1   49.90    8.75
   0  -2  -1   57.80    8.65
   0  -2  -1   55.61    9.93
   0  -2  -2  417.27   26.37
   0  -2  -2  408.89   23.80
   0  -2  -2  405.69   21.72
   0   2   2  415.19   22.74
   0   2   2  383.86   23.54
   0   2   2  387.06   24.93
   0   2   2  375.91   25.99
   0   2   1   31.17    7.69
   0   2   1   30.00    9.71
   0   2   1    9.77    7.37
   0   2   0 9875.76   98.47
   0   2   0 9667.18  117.15
   0   2   0 9898.66  114.59
   0   3   3   89.56   15.32
   0   3   3   86.94   14.78
   0   3   3   79.85   16.60
   0   3   3  114.43   20.76
   0   3   3  100.07   15.05
   0   3   2  337.69   19.80
   0   3   2  318.42   24.34
   0   3   2  333.90   28.82
   0   3   2  338.97   23.43
   0   3   2  304.49   28.45
   0   3   1 2725.01   65.06
   0   3   1 2667.74   76.48
   0   3   1 2748.39   75.63
   0   3   1 2746.25   60.85
   0   3   0 3994.38   79.42
   0   3   0 4187.27   95.70
   0   3   0 4104.38   92.66
   0   3   0 4217.16   74.08
   0   3   0 3965.35   84.44
   0   4   4  153.66   28.39
   0   4   4  166.52   24.44
   0   4   3   40.62   14.20
   0   4   3   43.34   15.05
   0   4   3   44.19   17.19
   0   4   3   80.11   22.20
   0   4   2   56.95   15.00
   0   4   2   51.67   14.36
   0   4   2   61.81   18.25
   0   4   2   38.70   17.77
   0   4   1   33.20   13.93
   0   4   1   10.89    9.66
   0   4   1   34.85   16.65
   0   4   1   37.04   17.99
   0   4   0  586.04   39.76
   0   4   0  652.91   45.26
   0   4   0  680.61   46.22
   0   4   0  643.20   35.55
   0   5   4  -10.67   20.17
   0   5   4    0.48   17.77
   0   5   4  -30.16   22.52
   0   5   4   11.69   14.04
   0   5   3   24.77   17.88
   0   5   3   -9.87   19.00
   0   5   3    0.37   13.08
   0   5   3  -12.81   19.69
   0   5   2   45.53   16.01
   0   5   2   21.99   18.31
   0   5   2   29.36   22.20
   0   5   2   35.07   14.68
   0   5   1  472.30   38.27
   0   5   1  428.37   44.35
   0   5   1  417.59   44.03
   0   5   1  398.80   32.88
   0   5   0  516.81   48.68
   0   5   0  568.96   49.48
   0   5   0  502.08   37.52
   0   6   5  188.62   36.56
   0   6   5  182.96   39.71
   0   6   4  159.53   38.16
   0   6   4  103.54   27.70
   0   6   4  140.53   33.57
   0   6   3   50.92   22.63
   0   6   3   53.85   28.98
   0   6   3   64.90   29.20
   0   6   2   31.17   21.40
   0   6   2   25.46   23.22
   0   6   2   23.80   25.35
   0   6   1   42.32   20.39
   0   6   1  103.97   30.90
   0   6   1   79.85   29.57
   0   6   0   71.41   28.23
   0   6   0   92.66   29.41
   0   7   5  141.06   41.31
   0   7   4  -34.91   28.45
   0   7   3  102.21   34.16
   0   7   3   41.15   28.29
   0   7   2   48.20   29.57
   0   7   2   24.02   27.81
   0   7   1   36.67   30.85
   0   7   1  -21.83   30.48
   0   8   4  -38.22   30.96
   0   8   3    4.64   32.34
   0   8   2   14.73   33.62
   0   8   1   -2.78   28.66
   0   8   1   55.83   34.80
   1  -7  -1  118.22   40.24
   1  -7  -1   34.48   22.90
   1  -7  -2   35.12   19.16
   1  -7  -2   59.40   28.34
   1  -7  -2   96.12   30.26
   1  -7  -3    7.21   23.27
   1  -7  -3   -2.83   23.22
   1  -7  -3   51.45   30.53
   1  -7  -4   30.74   24.44
   1  -7  -4   42.27   29.03
   1  -7  -4   69.38   29.41
   1  -7  -5   28.18   27.59
   1  -7  -5    9.98   19.16
   1  -7  -5   51.08   28.55
   1  -6  -1   56.09   20.82
   1  -6  -1   85.93   27.59
   1  -6  -2  120.89   26.37
   1  -6  -2  129.11   30.32
   1  -6  -2  124.63   31.60
   1  -6  -3  100.98   27.33
   1  -6  -3   99.91   31.38
   1  -6  -3   40.46   23.11
   1  -6  -4  105.20   24.71
   1  -6  -4   77.60   29.62
   1  -6  -4   91.21   30.05
   1  -6  -5  161.83   40.24
   1  -6  -5  118.70   28.39
   1  -6  -5  202.98   44.62
   1  -5   0   70.93   21.72
   1  -5   0   89.56   20.17
   1  -5  -1   50.70   18.89
   1  -5  -1   48.09   20.23
   1  -5  -1   25.62   19.00
   1  -5  -1   49.10   19.32
   1  -5  -2   63.09   19.16
   1  -5  -2   47.93   22.04
   1  -5  -2   69.06   22.31
   1  -5  -3   23.96   19.32
   1  -5  -3    0.05   15.00
   1  -5  -3   -8.01   19.11
   1  -5  -4   13.40   15.16
   1  -5  -4   -5.34   20.17
   1  -5  -4   42.81   21.83
   1  -5  -5  102.58   24.12
   1  -5  -5  145.28   32.08
   1  -5  -5  152.91   30.85
   1  -4   0   92.07   20.39
   1  -4   0   88.07   16.60
   1  -4   0   82.14   16.65
   1  -4  -1  140.10   23.48
   1  -4  -1  169.30   24.66
   1  -4  -1  116.62   17.72
   1  -4  -1  143.47   23.11
   1  -4  -1  134.13   20.07
   1  -4  -2  146.99   19.75
   1  -4  -2  129.86   22.63
   1  -4  -2  123.61   21.94
   1  -4  -2  130.87   23.22
   1  -4  -2  124.25   21.14
   1  -4  -3  143.57   20.87
   1  -4  -3  160.17   22.84
   1  -4  -3  165.46   24.28
   1  -4  -3  146.56   25.25
   1  -4  -3  160.65   24.82
   1  -4  -4  232.60   30.26
   1  -4  -4  222.51   30.85
   1  -4  -4  249.52   28.71
   1  -3   0  679.28   38.80
   1  -3   0  668.60   35.12
   1  -3   0  734.52   40.14
   1  -3   0  673.19   33.79
   1  -3  -1  339.77   26.42
   1  -3  -1  300.76   27.11
   1  -3  -1  331.39   26.42
   1  -3  -1  351.41   28.66
   1  -3  -1  308.92   24.28
   1  -3  -2  240.23   24.87
   1  -3  -2  263.61   24.02
   1  -3  -2  286.29   23.86
   1  -3  -2  206.87   22.31
   1  -3  -2  260.67   24.66
   1  -3  -3  147.15   21.35
   1  -3  -3  143.31   18.73
   1  -3  -3  130.28   19.32
   1  -3  -3  125.21   19.43
   1  -3  -4  252.40   27.06
   1  -3  -4  289.98   29.14
   1  -3  -4  221.87   24.39
   1  -2   0   55.88    9.66
   1  -2   0   55.40   10.51
   1  -2   0   48.84    9.87
   1  -2   0   47.98    9.45
   1  -2  -1  199.78   17.72
   1  -2  -1  191.66   17.19
   1  -2  -1  189.21   16.97
   1  -2  -1  228.76   19.75
   1  -2  -2   62.07   11.90
   1  -2  -2   81.50   13.08
   1  -2  -2   79.95   12.33
   1  -2  -2   57.16   11.37
   1  -2  -3  111.92   15.91
   1  -2  -3   87.05   13.98
   1  -2  -3   83.74   13.34
   1  -2  -3   74.94   13.24
   1  -1  -1  206.29   15.05
   1  -1  -2  124.73   13.13
   1  -1  -2  138.18   13.40
   1  -1  -2  139.04   12.76
   1   2   2  149.71   18.31
   1   2   1 1687.17   56.58
   1   2   1 1635.19   56.63
   1   2   1 1695.55   54.39
   1   2   1 1586.03   48.41
   1   2   0 4154.93   88.71
   1   2   0 4073.80   87.53
   1   2   0 4262.74   84.01
   1   2  -1  481.05   28.98
   1   2  -1  454.79   31.60
   1   2  -1  455.81   31.01
   1   3   2  554.33   39.92
   1   3   2  542.11   27.43
   1   3   2  540.24   38.05
   1   3   2  580.00   40.19
   1   3   2  521.03   35.71
   1   3   1  507.15   36.77
   1   3   1  581.23   26.15
   1   3   1  501.97   37.36
   1   3   1  577.18   38.96
   1   3   1  509.87   34.64
   1   3   1  526.15   23.32
   1   3   0 2525.56   51.93
   1   3   0 2508.10   78.78
   1   3   0 2823.80   82.30
   1   3   0 2654.93   72.37
   1   3   0 2667.31   84.33
   1   3  -1 1275.24   57.16
   1   3  -1 1065.06   47.40
   1   3  -1 1177.99   57.38
   1   3  -1  969.68   52.84
   1   4   3  413.32   30.26
   1   4   3  381.67   37.79
   1   4   3  302.68   36.56
   1   4   3  321.36   35.28
   1   4   2  146.88   16.65
   1   4   2  145.60   19.11
   1   4   2  123.34   25.14
   1   4   2  127.19   23.64
   1   4   2  106.59   22.42
   1   4   2   92.76   20.55
   1   4   1  341.32   25.14
   1   4   1  353.92   34.05
   1   4   1  315.06   33.57
   1   4   1  315.17   34.69
   1   4   1  351.51   34.32
   1   4   1  334.33   23.27
   1   4   0 1487.93   67.78
   1   4   0 1310.04   67.36
   1   4   0 1361.70   62.77
   1   4   0 1296.86   42.81
   1   4   0 1319.17   66.08
   1   4  -1   85.93   13.34
   1   4  -1   83.53   22.26
   1   4  -1   82.46   22.68
   1   4  -1   93.78   19.75
   1   5   4   11.80   18.57
   1   5   4   54.87   26.90
   1   5   3   46.97   23.43
   1   5   3   28.71   21.88
   1   5   2   85.18   26.58
   1   5   2   77.39   24.18
   1   5   1  185.15   34.00
   1   5   1  197.11   31.44
   1   5   0  622.97   48.46
   1   5   0  685.10   56.95
   1   5   0  689.69   53.16
   1   5   0  702.23   54.39
   1   5  -1  243.33   36.08
   1   5  -1  205.22   32.40
   1   5  -1  214.19   36.03
   1   6   4  152.27   36.93
   1   6   4  139.89   35.92
   1   6   3   44.25   25.51
   1   6   3   75.58   30.48
   1   6   2  126.92   33.46
   1   6   2  108.56   34.21
   1   6   1   31.92   26.95
   1   6   1   94.74   28.13
   1   6   0  559.46   60.74
   1   6   0  575.52   55.88
   1   6  -1   -9.23   24.39
   1   6  -1   -0.69   17.61
   1   7   4  130.23   39.18
   1   7   4   72.69   33.57
   1   7   3   70.88   35.12
   1   7   3   53.91   35.60
   1   7   2   29.36   28.34
   1   7   2   56.36   30.90
   1   7   1   58.55   34.16
   1   7   1   77.82   35.71
   1   7   0   -6.56   26.63
   1   7   0  151.58   37.79
   1   8   4   37.20   32.56
   1   8   4   48.14   35.92
   1   8   3   43.87   32.13
   1   8   3   45.47   35.81
   1   8   2   29.20   32.34
   1   8   2   -1.97   33.84
   1   8   1    1.60   33.46
   1   8   1   74.08   36.35
   2  -7  -2  127.51   33.09
   2  -7  -2   53.53   29.03
   2  -7  -3   93.08   29.62
   2  -7  -3   45.15   27.22
   2  -7  -3  120.04   38.59
   2  -7  -4   18.15   23.16
   2  -7  -4   45.79   32.72
   2  -7  -4    5.98   28.66
   2  -7  -5   42.16   32.50
   2  -7  -5   86.04   30.26
   2  -7  -5   50.33   33.25
   2  -6  -1   63.57   23.96
   2  -6  -2  299.05   40.46
   2  -6  -2  304.23   44.09
   2  -6  -2  267.45   40.88
   2  -6  -3  193.69   35.07
   2  -6  -3  223.21   38.80
   2  -6  -3  122.12   34.16
   2  -6  -4  121.53   30.58
   2  -6  -4  147.79   34.85
   2  -6  -4  113.26   33.09
   2  -6  -5   66.88   27.97
   2  -6  -5   77.92   32.72
   2  -6  -5   60.47   30.58
   2  -6  -6   12.12   28.50
   2  -6  -6    8.81   24.44
   2  -5  -1   34.75   20.66
   2  -5  -1   71.89   24.23
   2  -5  -1   29.41   17.83
   2  -5  -2  128.10   28.29
   2  -5  -2  146.14   28.07
   2  -5  -2  136.05   30.80
   2  -5  -3   44.09   18.89
   2  -5  -3   70.19   25.46
   2  -5  -3   20.28   21.67
   2  -5  -4  -47.98   27.54
   2  -5  -4   28.66   19.21
   2  -5  -4  -14.25   26.90
   2  -5  -5   53.80   22.15
   2  -5  -5   67.04   27.06
   2  -5  -5   91.69   29.73
   2  -4  -1  245.94   30.58
   2  -4  -1  249.84   32.66
   2  -4  -1  233.24   28.34
   2  -4  -1  188.62   26.26
   2  -4  -2  782.45   49.69
   2  -4  -2  788.53   49.48
   2  -4  -2  860.64   56.31
   2  -4  -2  934.67   53.27
   2  -4  -3  280.05   31.97
   2  -4  -3  276.79   33.20
   2  -4  -3  300.33   33.84
   2  -4  -3  294.99   35.55
   2  -4  -4  132.69   27.91
   2  -4  -4  130.12   24.23
   2  -4  -4  142.83   25.09
   2  -4  -4  179.12   29.52
   2  -4  -5  160.76   31.01
   2  -4  -5  160.60   27.17
   2  -4  -5  166.15   30.64
   2  -3   0  111.71   20.12
   2  -3   0  165.72   21.51
   2  -3  -1  341.27   26.53
   2  -3  -1  446.68   32.66
   2  -3  -1  391.33   32.72
   2  -3  -1  396.03   31.01
   2  -3  -1  434.67   35.97
   2  -3  -2 1057.32   49.64
   2  -3  -2 1138.18   52.25
   2  -3  -2 1173.14   56.95
   2  -3  -2 1122.97   54.71
   2  -3  -3  349.22   30.32
   2  -3  -3  377.35   34.59
   2  -3  -3  329.47   30.90
   2  -3  -3  296.75   30.37
   2  -3  -4  403.98   35.01
   2  -3  -4  404.83   36.13
   2  -3  -4  363.68   35.23
   2  -3  -4  407.40   34.53
   2  -3  -5  258.27   31.38
   2  -3  -5  247.65   29.84
   2  -3  -5  301.34   35.01
   2  -2   0  436.75   27.49
   2  -2   0  424.96   30.48
   2  -2  -1   70.83   16.23
   2  -2  -1   80.70   12.81
   2  -2  -1   75.31   17.93
   2  -2  -1   76.22   16.49
   2  -2  -1   83.05   16.87
   2  -2  -2  863.79   41.31
   2  -2  -2  894.26   38.43
   2  -2  -2  908.94   43.29
   2  -2  -2  955.64   46.38
   2  -2  -2  849.48   45.37
   2  -2  -3  162.52   22.15
   2  -2  -3  162.89   21.88
   2  -2  -3  158.20   19.69
   2  -2  -3  174.58   19.11
   2  -2  -3  146.94   18.79
   2  -2  -4   71.57   16.60
   2  -2  -4   58.55   15.91
   2  -2  -4   61.75   15.91
   2  -2  -4   51.02   12.92
   2  -1   0  515.48   31.70
   2  -1   0  526.20   26.95
   2  -1   0  514.46   30.80
   2  -1  -1  887.17   40.08
   2  -1  -1  874.94   34.05
   2  -1  -1  928.48   36.67
   2  -1  -1  897.63   40.19
   2  -1  -2 1379.16   50.92
   2  -1  -2 1449.61   37.47
   2  -1  -2 1505.01   45.74
   2  -1  -2 1450.46   48.09
   2  -1  -2 1399.28   51.83
   2  -1  -3  299.26   26.26
   2  -1  -3  307.91   25.57
   2  -1  -3  313.46   24.34
   2  -1  -3  305.03   22.95
   2   0   0 1476.56   51.83
   2   0   0 1296.54   50.06
   2   0   0 1463.54   45.10
   2   0   0 1409.10   50.70
   2   0  -1  221.12   20.28
   2   0  -1  215.04   21.56
   2   0  -1  203.40   19.91
   2   0  -1  207.57   14.36
   2   0  -1  235.37   19.43
   2   0  -2 1114.48   44.41
   2   0  -2 1172.34   48.14
   2   0  -2 1291.36   37.52
   2   0  -2 1256.19   47.72
   2   0  -2 1334.06   47.29
   2   0  -3  723.74   40.46
   2   0  -3  565.27   28.82
   2   0  -3  727.47   37.89
   2   1   1  234.57   25.25
   2   1   1  253.41   26.05
   2   1   0  589.50   32.88
   2   1   0  573.07   28.39
   2   1   0  650.67   38.70
   2   1   0  589.24   37.09
   2   1  -1  600.87   34.11
   2   1  -1  617.79   38.27
   2   1  -1  619.29   27.59
   2   1  -1  629.85   38.54
   2   1  -2  742.10   39.12
   2   1  -2  702.23   31.70
   2   1  -2  760.72   43.45
   2   1  -2  735.85   41.74
   2   2   1   25.41   13.66
   2   2   1   24.55   13.50
   2   2   1   35.23   10.41
   2   2   1   43.13   13.45
   2   2   0   32.29   15.21
   2   2   0   17.83   10.51
   2   2   0   19.05   11.10
   2   2   0   22.79   14.25
   2   2  -1  144.37   19.00
   2   2  -1  172.98   20.17
   2   2  -1  135.14   22.95
   2   2  -1  110.43   21.78
   2   2  -2  215.63   23.16
   2   2  -2  221.28   28.39
   2   2  -2  234.36   23.54
   2   2  -2  238.26   29.68
   2   3   2  179.60   21.40
   2   3   2  199.72   27.81
   2   3   2  191.08   29.89
   2   3   2  207.94   30.58
   2   3   1  169.19   20.34
   2   3   1  170.05   25.41
   2   3   1  200.31   21.88
   2   3   1  176.40   27.59
   2   3   1  177.31   28.07
   2   3   0  160.44   27.86
   2   3   0  183.50   19.75
   2   3   0  189.95   26.31
   2   3   0  198.33   20.92
   2   3   0  189.42   28.77
   2   3  -1  228.54   23.22
   2   3  -1  245.36   33.36
   2   3  -1  251.39   28.93
   2   3  -1  235.48   21.67
   2   3  -1  208.96   29.41
   2   3  -2  320.50   32.98
   2   3  -2  301.77   24.23
   2   3  -2  314.21   38.00
   2   3  -2  320.13   36.24
   2   4   3  203.62   33.04
   2   4   3  231.16   36.45
   2   4   2   87.37   26.69
   2   4   2  105.30   27.11
   2   4   2  125.27   24.02
   2   4   2  122.06   27.65
   2   4   1  226.89   35.81
   2   4   1  253.31   35.23
   2   4   1  307.70   38.48
   2   4   1  302.73   31.49
   2   4   0  195.40   32.61
   2   4   0  180.08   29.73
   2   4   0  152.81   24.87
   2   4   0  152.22   31.44
   2   4  -1  285.39   38.38
   2   4  -1  266.97   34.27
   2   4  -1  299.00   29.73
   2   4  -1  235.80   35.76
   2   4  -2  203.56   30.74
   2   4  -2  215.09   36.08
   2   5   3   60.20   26.10
   2   5   3   90.31   27.59
   2   5   3   88.28   25.62
   2   5   2   -1.76   21.78
   2   5   2   16.55   23.75
   2   5   2   11.42   22.10
   2   5   2   31.28   18.52
   2   5   1   31.28   24.23
   2   5   1    5.39   16.44
   2   5   1   37.04   24.28
   2   5   1   38.64   23.70
   2   5   0   18.52   20.17
   2   5   0   42.48   25.67
   2   5   0   70.99   26.21
   2   5   0   29.78   20.07
   2   5  -1   31.92   22.58
   2   5  -1   33.25   24.07
   2   5  -1   45.26   23.64
   2   5  -1   54.23   23.86
   2   6   3   82.25   32.08
   2   6   3  134.02   33.52
   2   6   2   70.93   31.06
   2   6   2   42.00   21.78
   2   6   1  204.95   42.54
   2   6   1  194.86   35.55
   2   6   0  176.29   43.55
   2   6   0  167.11   37.15
   2   6   0  116.94   38.86
   2   6  -1   71.79   32.56
   2   6  -1  141.12   37.47
   2   6  -1  139.68   32.93
   2   7   4   99.27   37.41
   2   7   3    3.20   27.81
   2   7   3  107.49   35.28
   2   7   2   10.94   29.52
   2   7   2   37.36   28.07
   2   7   1   21.88   27.86
   2   7   1   77.87   31.70
   2   7   0   51.88   31.01
   2   7   0   98.05   33.46
   2   7  -1  -14.78   30.64
   2   7  -1    6.99   23.11
   2   8   3   -9.23   33.57
   2   8   3    0.64   30.16
   2   8   2   -9.07   32.72
   2   8   2    8.97   31.49
   2   8   1    3.10   33.09
   2   8   1   52.73   32.66
   2   8   0  -36.61   32.08
   2   8   0   39.98   33.20
   3  -7  -3   23.70   26.42
   3  -7  -3   61.97   29.89
   3  -7  -3   36.56   29.68
   3  -7  -4    9.23   25.46
   3  -7  -4    4.86   26.63
   3  -7  -5   19.16   31.70
   3  -6  -2  168.23   35.12
   3  -6  -3   72.05   27.75
   3  -6  -3   76.32   29.14
   3  -6  -3   55.13   30.21
   3  -6  -4   30.26   27.38
   3  -6  -4   26.90   26.26
   3  -6  -4    3.26   23.86
   3  -6  -5   66.93   30.26
   3  -6  -5   32.98   27.75
   3  -6  -5   54.28   30.42
   3  -6  -6   68.26   29.46
   3  -6  -6   74.88   33.89
   3  -5  -1   54.28   22.95
   3  -5  -1   42.65   21.72
   3  -5  -2   27.75   19.37
   3  -5  -2   81.29   28.34
   3  -5  -2   23.86   23.32
   3  -5  -2   40.24   22.04
   3  -5  -3   14.30   20.82
   3  -5  -3   18.84   20.01
   3  -5  -3   24.23   21.40
   3  -5  -3  -14.84   24.28
   3  -5  -4   81.07   23.86
   3  -5  -4   69.12   26.74
   3  -5  -4   -3.74   20.55
   3  -5  -4   15.58   24.07
   3  -5  -5  106.53   28.45
   3  -5  -5   73.44   29.25
   3  -5  -5   61.97   28.77
   3  -5  -6   75.79   28.18
   3  -5  -6  119.08   35.01
   3  -4  -1  193.10   31.54
   3  -4  -1  235.16   32.34
   3  -4  -2  241.78   30.05
   3  -4  -2  246.48   36.29
   3  -4  -2  231.43   31.65
   3  -4  -2  238.15   34.91
   3  -4  -3  103.97   24.93
   3  -4  -3  109.15   26.79
   3  -4  -3  127.35   24.77
   3  -4  -3  121.69   26.95
   3  -4  -4   48.52   23.16
   3  -4  -4   60.85   23.06
   3  -4  -4   99.86   27.97
   3  -4  -5   17.56   18.68
   3  -4  -5   38.38   20.34
   3  -4  -5   28.29   22.79
   3  -4  -6   49.00   25.41
   3  -4  -6   46.86   20.71
   3  -3  -1  444.17   37.63
   3  -3  -1  383.81   34.85
   3  -3  -1  441.07   39.34
   3  -3  -1  401.58   39.60
   3  -3  -2  419.35   36.13
   3  -3  -2  431.52   39.55
   3  -3  -2  438.51   41.84
   3  -3  -3  421.33   40.67
   3  -3  -3  387.86   37.20
   3  -3  -3  383.27   39.55
   3  -3  -4  227.10   33.09
   3  -3  -4  231.43   30.00
   3  -3  -4  196.89   28.55
   3  -3  -5  250.27   34.27
   3  -3  -5  191.66   32.45
   3  -3  -5  210.18   29.94
   3  -2   0  138.82   19.27
   3  -2   0  186.38   24.98
   3  -2  -1  212.37   28.39
   3  -2  -1  215.95   27.54
   3  -2  -1  232.81   27.01
   3  -2  -1  183.55   22.26
   3  -2  -2  440.91   37.20
   3  -2  -2  474.49   33.84
   3  -2  -2  492.95   36.93
   3  -2  -2  413.32   37.15
   3  -2  -3  217.28   29.84
   3  -2  -3  174.00   22.84
   3  -2  -3  171.65   26.63
   3  -2  -3  188.78   24.71
   3  -2  -4  177.25   26.47
   3  -2  -4  133.97   25.57
   3  -2  -4  144.85   22.58
   3  -2  -4  126.17   23.22
   3  -2  -5   49.96   18.09
   3  -2  -5   62.29   22.74
   3  -2  -5   36.35   14.04
   3  -1   0  241.09   28.13
   3  -1   0  264.62   27.49
   3  -1   0  235.48   21.24
   3  -1   0  227.42   25.09
   3  -1  -1  414.65   35.55
   3  -1  -1  426.82   34.27
   3  -1  -1  423.73   27.59
   3  -1  -1  447.80   29.62
   3  -1  -1  455.81   33.09
   3  -1  -2 1375.42   63.09
   3  -1  -2 1319.65   51.40
   3  -1  -2 1339.23   48.78
   3  -1  -2 1274.76   51.18
   3  -1  -2 1191.28   57.38
   3  -1  -2 1358.98   53.59
   3  -1  -3  498.93   39.92
   3  -1  -3  472.99   33.30
   3  -1  -3  474.43   31.33
   3  -1  -3  427.84   37.09
   3  -1  -4   47.61   15.91
   3  -1  -4   60.15   17.72
   3  -1  -4   44.30   16.01
   3  -1  -4   56.20   14.62
   3   0   0  610.80   42.06
   3   0   0  674.74   29.09
   3   0   0  706.44   46.75
   3   0   0  686.22   38.22
   3   0  -1  901.26   50.65
   3   0  -1  836.30   33.68
   3   0  -1  959.91   34.69
   3   0  -1  911.61   50.28
   3   0  -1  887.33   44.57
   3   0  -1  853.49   48.52
   3   0  -2 1892.07   74.24
   3   0  -2 1871.84   53.32
   3   0  -2 1893.30   50.28
   3   0  -2 1962.26   71.41
   3   0  -2 1798.08   65.76
   3   0  -2 1878.78   70.67
   3   0  -3  771.08   49.85
   3   0  -3  766.06   45.15
   3   0  -3  752.61   36.19
   3   0  -3  806.63   48.62
   3   0  -3  690.49   32.66
   3   0  -3  746.79   45.37
   3   0  -4  537.31   43.82
   3   0  -4  608.02   35.33
   3   0  -4  563.94   42.97
   3   0  -4  541.52   40.08
   3   1   1  236.92   27.49
   3   1   1  253.68   32.24
   3   1   0  225.93   26.58
   3   1   0  281.06   23.11
   3   1   0  254.06   30.64
   3   1   0  253.25   31.49
   3   1  -1  580.00   42.81
   3   1  -1  563.62   33.73
   3   1  -1  608.99   31.65
   3   1  -1  580.54   44.57
   3   1  -1  610.05   44.83
   3   1  -2 1664.92   70.45
   3   1  -2 1719.30   51.24
   3   1  -2 1672.66   73.71
   3   1  -2 1667.75   58.98
   3   1  -2 1705.32   74.30
   3   1  -3  448.01   39.66
   3   1  -3  413.32   31.97
   3   1  -3  496.21   43.23
   3   1  -3  373.82   37.09
   3   2   1  124.20   21.67
   3   2   1  130.50   26.53
   3   2   1  121.80   25.14
   3   2   0  204.15   26.74
   3   2   0  197.00   24.82
   3   2   0  257.31   34.91
   3   2   0  225.13   20.17
   3   2   0  216.05   31.92
   3   2  -1  113.74   15.85
   3   2  -1  185.47   30.96
   3   2  -1  123.45   22.74
   3   2  -1  131.78   20.12
   3   2  -1  154.89   29.09
   3   2  -2  853.17   52.15
   3   2  -2  954.26   47.93
   3   2  -2  823.71   58.82
   3   2  -2  858.24   58.82
   3   2  -2  817.09   39.39
   3   2  -3  232.12   33.95
   3   2  -3  216.91   30.10
   3   2  -3  216.69   25.30
   3   2  -3  176.50   30.26
   3   3   2  241.46   29.52
   3   3   2  216.32   35.49
   3   3   2  299.48   40.30
   3   3   1  209.12   28.13
   3   3   1  204.04   29.03
   3   3   1  190.06   34.59
   3   3   1  223.42   37.20
   3   3   0  303.27   32.02
   3   3   0  291.36   40.67
   3   3   0  311.48   34.59
   3   3   0  294.19   40.88
   3   3  -1  417.00   38.75
   3   3  -1  469.58   40.51
   3   3  -1  406.92   46.70
   3   3  -1  427.46   46.49
   3   3  -2  737.29   51.72
   3   3  -2  846.87   52.31
   3   3  -2  801.13   64.21
   3   3  -2  791.73   63.09
   3   3  -3  284.10   40.94
   3   3  -3  347.35   36.03
   3   3  -3  325.95   44.09
   3   4   2  194.60   34.00
   3   4   2  164.92   36.45
   3   4   2  157.82   35.81
   3   4   1   74.83   25.41
   3   4   1   51.77   26.69
   3   4   1   49.74   27.70
   3   4   0  356.37   42.75
   3   4   0  294.51   44.99
   3   4   0  365.44   47.34
   3   4  -1  260.89   36.29
   3   4  -1  247.76   42.81
   3   4  -1  252.08   42.16
   3   4  -2  590.14   52.73
   3   4  -2  488.52   56.90
   3   4  -2  648.43   61.17
   3   5   2   44.94   24.71
   3   5   2   41.52   30.32
   3   5   2   36.83   26.21
   3   5   1   13.72   23.59
   3   5   1   35.92   29.62
   3   5   1   30.85   23.54
   3   5   0   27.81   23.32
   3   5   0   47.02   31.17
   3   5   0    2.94   31.70
   3   5  -1   74.40   31.33
   3   5  -1   74.78   32.29
   3   5  -1   66.98   36.67
   3   5  -2  120.46   35.92
   3   5  -2   73.07   36.83
   3   5  -2   79.10   32.34
   3   6   3   99.11   33.41
   3   6   2  121.05   36.93
   3   6   2   64.15   32.56
   3   6   2   35.60   31.44
   3   6   1  143.41   39.71
   3   6   1   58.18   28.87
   3   6   1   73.87   34.43
   3   6   0   77.02   34.43
   3   6   0  138.93   37.47
   3   6   0   71.20   38.86
   3   6  -1  136.47   39.92
   3   6  -1  168.18   41.42
   3   6  -1   83.64   35.97
   3   6  -2   34.37   26.31
   3   6  -2   23.48   31.44
   3   7   3   35.55   34.91
   3   7   2   29.14   35.28
   3   7   1   50.28   35.65
   3   7   0   -3.74   32.02
   3   7  -1   84.22   36.72
   3   7  -1   52.95   36.67
   4  -6  -3   51.34   27.22
   4  -6  -4   74.08   29.89
   4  -6  -5   -0.75   25.41
   4  -5  -2   11.32   22.04
   4  -5  -2   41.79   25.30
   4  -5  -3   37.20   25.30
   4  -5  -3  118.59   34.69
   4  -5  -3   53.37   29.25
   4  -5  -4    0.32   25.19
   4  -5  -4   46.43   26.53
   4  -5  -4   48.36   33.04
   4  -5  -5   71.63   27.59
   4  -5  -5   32.72   27.43
   4  -5  -5  106.27   40.67
   4  -5  -6   97.46   34.43
   4  -5  -6   94.84   32.61
   4  -5  -6  100.61   39.02
   4  -4  -2   70.67   24.55
   4  -4  -2   79.37   27.22
   4  -4  -2   61.38   26.95
   4  -4  -3  100.34   29.03
   4  -4  -3  134.34   34.16
   4  -4  -3   78.51   28.18
   4  -4  -4   29.94   28.23
   4  -4  -4  -16.65   21.56
   4  -4  -4   -1.17   24.55
   4  -4  -5   13.02   22.47
   4  -4  -5   17.83   22.20
   4  -4  -5   17.88   25.62
   4  -4  -6   -0.59   25.62
   4  -4  -6   32.61   22.63
   4  -4  -6   24.71   28.55
   4  -3  -1   73.76   26.05
   4  -3  -1   46.70   18.47
   4  -3  -2  165.35   32.34
   4  -3  -2  212.64   33.52
   4  -3  -2  195.61   30.00
   4  -3  -3   90.09   23.22
   4  -3  -3  101.68   28.45
   4  -3  -3   87.64   27.01
   4  -3  -4  156.33   33.04
   4  -3  -4  139.30   27.49
   4  -3  -4  124.52   27.54
   4  -3  -5   48.09   24.07
   4  -3  -5   76.11   23.54
   4  -3  -5   98.69   27.86
   4  -3  -6  330.01   43.66
   4  -3  -6  369.82   47.98
   4  -2  -1    6.99   18.25
   4  -2  -1   73.39   19.43
   4  -2  -1   44.51   21.78
   4  -2  -2   20.07   20.34
   4  -2  -2   27.27   15.80
   4  -2  -2   54.28   23.48
   4  -2  -2   57.75   17.93
   4  -2  -3   68.16   20.23
   4  -2  -3  107.76   27.75
   4  -2  -3  112.40   25.89
   4  -2  -3   81.71   24.98
   4  -2  -4   46.54   24.55
   4  -2  -4   46.33   17.72
   4  -2  -4    9.77   18.79
   4  -2  -4    9.07   18.68
   4  -2  -5  115.98   28.39
   4  -2  -5  137.70   28.61
   4  -2  -5  144.59   26.10
   4  -2  -5  157.34   29.84
   4  -1  -1  115.23   26.26
   4  -1  -1  130.98   18.79
   4  -1  -1  116.51   24.60
   4  -1  -2  100.98   17.72
   4  -1  -2  101.14   26.26
   4  -1  -2  108.77   19.75
   4  -1  -2   87.53   23.00
   4  -1  -3    7.10   17.67
   4  -1  -3   18.15   13.18
   4  -1  -3   17.19   22.15
   4  -1  -3   25.78   15.96
   4  -1  -4   25.67   18.84
   4  -1  -4   45.85   20.34
   4  -1  -4   44.19   16.12
   4  -1  -4   41.04   17.29
   4  -1  -5  -33.84   18.20
   4  -1  -5  -18.57   20.82
   4  -1  -5   32.34   21.51
   4   0   0  250.00   34.75
   4   0   0  237.94   28.29
   4   0   0  238.63   33.95
   4   0  -1  375.75   40.94
   4   0  -1  349.91   38.96
   4   0  -1  348.58   34.53
   4   0  -1  359.47   39.55
   4   0  -2  184.78   32.34
   4   0  -2  175.33   28.02
   4   0  -2  187.13   30.10
   4   0  -2  163.96   26.47
   4   0  -3  309.62   38.05
   4   0  -3  340.04   35.71
   4   0  -3  322.53   36.45
   4   0  -4  213.33   31.33
   4   0  -4  220.06   35.65
   4   0  -5  555.45   51.88
   4   1   0  137.97   28.77
   4   1   0  164.71   31.81
   4   1   0  146.14   32.88
   4   1   0  154.03   22.04
   4   1  -1  180.03   31.65
   4   1  -1  219.95   34.53
   4   1  -1  223.47   36.24
   4   1  -1  172.55   23.43
   4   1  -2   94.79   20.28
   4   1  -2   86.94   25.67
   4   1  -2   75.84   28.13
   4   1  -2   86.52   23.86
   4   1  -3   70.08   26.74
   4   1  -3   77.82   19.96
   4   1  -3   56.52   22.36
   4   1  -3   86.84   25.30
   4   1  -4   55.24   20.01
   4   1  -4   13.45   14.94
   4   1  -4   29.14   19.59
   4   1  -4   31.44   22.42
   4   2   1   52.47   21.67
   4   2   1  107.49   29.36
   4   2   1   71.63   28.61
   4   2   0   47.72   22.95
   4   2   0   55.51   25.51
   4   2   0   61.49   26.95
   4   2  -1  163.75   30.37
   4   2  -1  145.65   31.97
   4   2  -1  195.45   36.67
   4   2  -2   86.57   26.21
   4   2  -2  112.40   32.66
   4   2  -2   52.25   25.35
   4   2  -3   68.85   24.28
   4   2  -3   60.90   22.74
   4   2  -4   40.19   22.63
   4   2  -4   79.79   27.97
   4   2  -4   67.89   29.20
   4   3   1  171.70   31.65
   4   3   1   93.83   31.54
   4   3   1  177.36   40.30
   4   3   0  221.07   34.21
   4   3   0  206.29   30.58
   4   3   0  245.36   45.21
   4   3   0  220.22   43.50
   4   3  -1  264.89   37.63
   4   3  -1  342.65   38.64
   4   3  -1  269.91   46.11
   4   3  -1  294.78   47.18
   4   3  -2  169.57   30.64
   4   3  -2  157.45   42.00
   4   3  -2  161.19   38.32
   4   3  -3  208.42   41.74
   4   3  -3  232.33   36.08
   4   3  -3  236.02   46.38
   4   4   2   47.45   33.09
   4   4   1  118.06   30.10
   4   4   1   66.40   32.02
   4   4   1  113.15   39.28
   4   4   0  111.98   31.70
   4   4   0  109.73   37.25
   4   4   0  107.28   38.80
   4   4  -1  139.52   32.61
   4   4  -1  161.77   42.81
   4   4  -1  122.22   40.30
   4   4  -2  191.61   43.50
   4   4  -2  216.80   34.80
   4   4  -2  175.65   34.37
   4   4  -2  172.66   43.50
   4   4  -3    5.07   26.42
   4   4  -3   64.05   26.90
   4   4  -3   65.49   34.85
   4   5   2   78.46   29.41
   4   5   2  143.73   42.54
   4   5   2   79.05   41.90
   4   5   1   33.09   26.26
   4   5   1   55.19   35.17
   4   5   1   -1.49   29.30
   4   5   0   45.42   29.20
   4   5   0   46.43   31.81
   4   5   0   92.71   37.89
   4   5  -1   62.50   28.45
   4   5  -1   79.21   39.60
   4   5  -1   75.47   33.46
   4   5  -2   51.24   35.33
   4   5  -2   68.80   28.61
   4   5  -2   44.67   36.72
   4   5  -3   53.00   29.14
   4   5  -3   24.12   34.00
   4   6   2   19.80   31.65
   4   6   2   69.12   39.34
   4   6   2   58.12   40.88
   4   6   1   63.73   33.79
   4   6   1   58.34   41.15
   4   6   1   31.81   32.77
   4   6   0   88.97   32.50
   4   6   0   94.04   41.20
   4   6   0   58.71   37.15
   4   6  -1   38.27   33.04
   4   6  -1   92.71   32.40
   4   6  -1   51.61   39.39
   4   6  -2  115.66   38.64
   4   6  -2  114.16   38.05
   4   6  -2  147.42   52.20
   4   7   2   54.49   37.52
   4   7   2  -31.17   31.33
   4   7   1   35.60   30.85
   4   7   1  -20.34   38.64
   4   7   1   85.02   41.79
   4   7   0  -38.75   39.44
   4   7   0   74.51   42.22
   4   7   0   57.96   39.55
   4   7  -1   30.53   34.53
   4   7  -1  104.98   40.51
   4   7  -1  -25.57   37.52
   5  -5  -3   57.54   37.52
   5  -5  -3   80.17   31.22
   5  -5  -4   10.94   28.71
   5  -5  -4  -23.38   25.94
   5  -5  -5   56.20   33.36
   5  -5  -5   51.50   27.11
   5  -4  -2   79.58   34.43
   5  -4  -2   84.33   30.21
   5  -4  -3   97.03   28.93
   5  -4  -3   95.27   31.70
   5  -4  -3   75.15   32.24
   5  -4  -4  111.07   36.19
   5  -4  -4   48.09   26.95
   5  -4  -4   82.30   34.53
   5  -4  -5   46.01   31.44
   5  -4  -5   43.98   27.54
   5  -4  -5  118.86   36.67
   5  -4  -6   27.54   29.46
   5  -4  -6   74.19   30.53
   5  -4  -6   -9.98   30.10
   5  -3  -2   51.72   31.54
   5  -3  -2  126.28   29.57
   5  -3  -3  246.80   37.25
   5  -3  -3  304.81   42.00
   5  -3  -3  251.33   42.97
   5  -3  -4  138.45   36.72
   5  -3  -4  102.26   26.26
   5  -3  -4  120.41   29.09
   5  -3  -5  153.93   38.96
   5  -3  -5  124.79   30.53
   5  -3  -5  189.63   38.96
   5  -3  -6   54.76   34.96
   5  -3  -6  105.73   32.72
   5  -2  -1    1.71   22.10
   5  -2  -1   16.33   21.83
   5  -2  -2   56.04   30.96
   5  -2  -2   68.58   30.21
   5  -2  -3  248.34   42.54
   5  -2  -3  225.13   41.47
   5  -2  -4   20.07   25.67
   5  -2  -4   22.36   27.97
   5  -2  -5  103.92   33.84
   5  -2  -5  102.74   29.57
   5  -2  -6   59.19   31.28
   5  -1  -1   40.46   34.59
   5  -1  -1   34.43   27.11
   5  -1  -2  114.54   33.25
   5  -1  -2  177.36   34.32
   5  -1  -3  235.48   38.96
   5  -1  -3  188.09   39.07
   5  -1  -4   87.16   28.29
   5  -1  -4   67.73   28.39
   5  -1  -5  -22.26   24.55
   5  -1  -5   28.23   22.42
   5   0  -1   88.97   30.74
   5   0  -1   63.78   23.96
   5   0  -2  153.55   35.71
   5   0  -2  161.40   31.06
   5   0  -3  554.55   58.12
   5   0  -3  525.14   49.37
   5   0  -4  124.36   31.38
   5   0  -4   90.63   31.28
   5   0  -5  317.46   42.32
   5   0  -5  324.88   46.27
   5   1   0  -11.69   25.35
   5   1   0   18.84   29.78
   5   1  -1   31.86   25.89
   5   1  -1   68.16   28.39
   5   1  -1   69.49   32.77
   5   1  -1   22.26   18.25
   5   1  -2  149.28   28.02
   5   1  -2  137.76   35.12
   5   1  -2  136.21   34.48
   5   1  -2  143.57   33.84
   5   1  -3  147.20   31.28
   5   1  -3  135.99   38.11
   5   1  -3  107.39   32.40
   5   1  -3  109.79   33.73
   5   1  -4   20.28   24.34
   5   1  -4   26.79   20.60
   5   1  -4   44.94   25.73
   5   1  -5   42.32   27.49
   5   2   0   17.88   22.15
   5   2   0   35.01   28.18
   5   2   0   53.32   30.96
   5   2  -1   25.67   24.07
   5   2  -1   15.05   25.57
   5   2  -1   47.13   28.98
   5   2  -2   37.25   24.82
   5   2  -2   35.23   29.09
   5   2  -2   64.26   28.98
   5   2  -3  225.50   42.97
   5   2  -3  142.45   37.68
   5   2  -3  139.68   38.05
   5   2  -4   -7.26   26.53
   5   2  -4    7.26   23.22
   5   2  -4    6.08   30.37
   5   3   1  107.60   74.94
   5   3   0   33.52   27.54
   5   3   0   27.70   30.42
   5   3   0   43.93   30.05
   5   3  -1   62.23   28.66
   5   3  -1   96.18   35.81
   5   3  -1  102.58   41.47
   5   3  -2  185.36   39.87
   5   3  -2  142.13   42.48
   5   3  -2   93.19   35.33
   5   3  -3  111.34   39.92
   5   3  -3   91.37   31.92
   5   3  -3  134.34   42.91
   5   3  -4  120.78   37.63
   5   3  -4  186.27   38.32
   5   3  -4  150.89   43.34
   5   4   1  -17.19   30.37
   5   4   1   10.25   30.96
   5   4   0  -63.46   41.63
   5   4   0    5.82   32.77
   5   4  -1  100.66   31.70
   5   4  -1   18.63   32.02
   5   4  -1   99.38   40.94
   5   4  -2   55.99   29.03
   5   4  -2  -21.19   35.44
   5   4  -2   12.97   28.55
   5   4  -3   78.19   38.91
   5   4  -3   60.69   28.77
   5   4  -3  -12.12   35.97
   5   5   1   69.38   43.34
   5   5   1  -16.76   35.97
   5   5   0   13.98   35.17
   5   5   0   88.65   42.27
   5   5  -1   38.91   40.03
   5   5  -1  -36.29   33.89
   5   5  -2   38.75   40.08
   5   5  -2    4.59   40.56
   5   5  -3   64.95   39.76
   5   5  -3   32.56   37.20
   5   6   1   14.25   30.64
   5   6   1    3.95   36.83
   5   6   1   -7.26   37.15
   5   6   0   92.44   39.66
   5   6   0  177.47   54.12
   5   6  -1  -36.93   44.03
   5   6  -1   94.31   39.76
   5   6  -1   65.49   41.79
   5   6  -2   -2.03   38.54
   5   6  -2  -23.96   40.46
   6  -3  -3   35.65   30.69
   6  -3  -4   76.64   37.47
   6  -3  -5   34.43   34.69
   6  -2  -2   80.27   35.23
   6  -2  -2   45.63   31.86
   6  -2  -3   -6.94   27.38
   6  -2  -3   19.43   28.82
   6  -2  -4   64.31   35.49
   6  -2  -4   43.50   32.24
   6  -2  -5    2.62   28.61
   6  -2  -6   39.82   31.60
   6  -1  -2  138.24   39.44
   6  -1  -2  153.18   38.05
   6  -1  -3   95.96   34.05
   6  -1  -3   40.24   28.87
   6  -1  -4   62.71   33.68
   6  -1  -4   61.11   31.81
   6  -1  -5   76.91   32.08
   6  -1  -5   30.80   27.33
   6  -1  -6   77.02   31.76
   6   0  -1   78.83   32.93
   6   0  -1  105.09   30.26
   6   0  -2  136.37   38.32
   6   0  -2  133.38   34.37
   6   0  -3  106.32   30.69
   6   0  -3  154.30   43.82
   6   0  -4  116.57   33.73
   6   0  -4  127.83   38.75
   6   0  -5   74.67   29.73
   6   0  -5   84.81   37.73
   6   1  -1  140.48   40.72
   6   1  -2  145.23   40.19
   6   1  -3  106.53   36.61
   6   1  -4   14.09   30.85
   6   1  -5   89.51   36.51
   6   2  -1   13.24   28.18
   6   2  -1   57.00   33.30
   6   2  -1   55.61   37.15
   6   2  -2    8.54   27.70
   6   2  -2   39.82   35.01
   6   2  -2   74.08   37.09
   6   2  -3  104.02   39.76
   6   2  -3  100.18   36.83
   6   2  -3   84.12   37.68
   6   2  -4   70.93   37.63
   6   2  -4   39.98   32.77
   6   2  -5   73.12   35.17
   6   3   0   26.90   29.89
   6   3   0  129.96   44.73
   6   3  -1   81.98   37.63
   6   3  -1   61.59   36.93
   6   3  -1   51.77   39.76
   6   3  -2   67.78   35.28
   6   3  -2   57.54   36.83
   6   3  -2   27.27   36.13
   6   3  -3  175.44   49.16
   6   3  -3  170.74   45.10
   6   3  -3  147.52   51.40
   6   3  -4  106.59   40.30
   6   3  -4   93.78   36.08
   6   3  -4   92.66   40.30
   6   4   0   57.86   41.36
   6   4   0   64.21   45.42
   6   4  -1  100.98   39.39
   6   4  -1   43.55   35.28
   6   4  -1  125.80   47.61
   6   4  -2  123.02   42.11
   6   4  -2   84.70   44.83
   6   4  -2  105.20   45.90
   6   4  -3   26.74   35.44
   6   4  -3   93.46   39.50
   6   4  -3   74.35   42.16
   6   4  -4   54.44   34.48
   6   4  -4   47.40   40.40
   6   5  -1   19.75   45.42
   7  -1  -3  -17.19   29.89
   7   0  -2  535.01   91.00
   7   0  -5   27.22   29.89
   7   1  -2   96.28   42.54
   7   3  -2   63.09   43.34
   7   3  -3  -37.15   47.72
   0   0   0    0.00    0.00
;
_shelx_hkl_checksum              44549
_olex2_submission_special_instructions 'No special instructions were received'
loop_
_space_group_symop_operation_xyz
'x, y, z'
loop_
_atom_site_label
_atom_site_type_symbol
_atom_site_fract_x
_atom_site_fract_y
_atom_site_fract_z
_atom_site_U_iso_or_equiv
_atom_site_adp_type
_atom_site_occupancy
_atom_site_site_symmetry_order
_atom_site_calc_flag
_atom_site_refinement_flags_posn
Co1 Co 0.999(4) 0.995(3) 1.004(5) 0.029(3) Uiso 1 1 d .
O1W O 0.665(9) 1.025(7) 1.053(13) 0.014(9) Uiso 1 1 d D
H1WA H 0.5382 1.1389 1.0126 0.021 Uiso 1 1 d GR
H1WB H 0.6136 1.0570 1.1613 0.021 Uiso 1 1 d DGR
C8 C 1.327(5) 0.948(4) 0.283(3) 0.041(19) Uiso 1 1 d D
C6 C 0.996(5) 1.011(4) 0.546(3) 0.048(9) Uiso 1 1 d D
H6 H 0.8478 1.0399 0.5594 0.057 Uiso 1 1 calc R
C1 C 1.156(5) 0.977(3) 0.649(3) 0.048(9) Uiso 1 1 d DG
C2 C 1.377(5) 0.934(5) 0.629(3) 0.048(9) Uiso 1 1 d DG
H2 H 1.4849 0.9117 0.6974 0.057 Uiso 1 1 calc R
C3 C 1.437(6) 0.925(5) 0.505(4) 0.048(9) Uiso 1 1 d DG
H3 H 1.5848 0.8959 0.4919 0.057 Uiso 1 1 calc R
C4 C 1.276(7) 0.958(4) 0.403(3) 0.048(9) Uiso 1 1 d DG
C5 C 1.055(6) 1.002(5) 0.423(3) 0.048(9) Uiso 1 1 d DG
H5 H 0.9477 1.0241 0.3539 0.057 Uiso 1 1 calc R
C7 C 1.096(5) 0.987(5) 0.767(3) 0.04(2) Uiso 1 1 d D
O2 O 1.242(6) 0.958(5) 0.857(3) 0.051(9) Uiso 1 1 d D
N1 N 0.992(6) 0.314(6) 1.001(5) 0.021(7) Uiso 1 1 d D
N2 N 1.002(6) 0.683(6) 1.001(5) 0.021(7) Uiso 1 1 d D
C11 C 1.235(8) 0.381(6) 0.989(13) 0.043(9) Uiso 1 1 d D
H11A H 1.2895 0.3242 0.9155 0.052 Uiso 1 1 calc R
H11B H 1.3376 0.3566 1.0648 0.052 Uiso 1 1 calc R
C9 C 0.910(12) 0.396(5) 1.115(6) 0.043(9) Uiso 1 1 d D
H9A H 1.0057 0.3568 1.1902 0.052 Uiso 1 1 calc R
H9B H 0.7532 0.3420 1.1210 0.052 Uiso 1 1 calc R
C12 C 1.210(9) 0.593(6) 0.972(12) 0.043(9) Uiso 1 1 d D
H12A H 1.3409 0.6596 1.0235 0.052 Uiso 1 1 calc R
H12B H 1.2293 0.6200 0.8842 0.052 Uiso 1 1 calc R
C10 C 0.913(12) 0.612(5) 1.119(6) 0.043(9) Uiso 1 1 d D
H10A H 0.7584 0.6493 1.1228 0.052 Uiso 1 1 calc R
H10B H 1.0125 0.6641 1.1926 0.052 Uiso 1 1 calc R
C14 C 0.826(10) 0.615(5) 0.894(6) 0.043(9) Uiso 1 1 d D
H14A H 0.8597 0.6715 0.8145 0.052 Uiso 1 1 calc R
H14B H 0.6717 0.6421 0.9107 0.052 Uiso 1 1 calc R
C13 C 0.854(11) 0.403(5) 0.896(6) 0.043(9) Uiso 1 1 d D
O1 O 0.899(5) 1.025(5) 0.781(4) 0.051(9) Uiso 1 1 d D
O4 O 1.173(7) 0.976(6) 0.197(4) 0.051(9) Uiso 1 1 d D
O3 O 1.519(5) 0.906(6) 0.262(4) 0.051(9) Uiso 1 1 d D
loop_
_atom_type_symbol
_atom_type_description
_atom_type_scat_dispersion_real
_atom_type_scat_dispersion_imag
_atom_type_scat_source
C C 0.0033 0.0016 'International Tables Vol C Tables 4.2.6.8 and 6.1.1.4'
H H 0.0000 0.0000 'International Tables Vol C Tables 4.2.6.8 and 6.1.1.4'
Co Co 0.3494 0.9721 'International Tables Vol C Tables 4.2.6.8 and 6.1.1.4'
N N 0.0061 0.0033 'International Tables Vol C Tables 4.2.6.8 and 6.1.1.4'
O O 0.0106 0.0060 'International Tables Vol C Tables 4.2.6.8 and 6.1.1.4'
loop_
_geom_angle_atom_site_label_1
_geom_angle_atom_site_label_2
_geom_angle_atom_site_label_3
_geom_angle
_geom_angle_site_symmetry_1
_geom_angle_site_symmetry_3
O1W Co1 O2 150(3) . .
O1W Co1 N1 78.9(17) . 1_565
O1W Co1 N2 101.0(16) . .
O1W Co1 O1 95(4) . .
O1W Co1 O4 98(4) . 1_556
O2 Co1 O1 55.4(12) . .
N1 Co1 O2 99.6(19) 1_565 .
N1 Co1 O1 82(2) 1_565 .
N2 Co1 O2 79.5(17) . .
N2 Co1 N1 178(3) . 1_565
N2 Co1 O1 96(2) . .
O4 Co1 O2 111.7(18) 1_556 .
O4 Co1 N1 97(2) 1_556 1_565
O4 Co1 N2 84(2) 1_556 .
O4 Co1 O1 166.6(14) 1_556 .
Co1 O1W H1WA 126.8 . .
Co1 O1W H1WB 126.0 . .
H1WA O1W H1WB 89.0 . .
O4 C8 C4 117.6(13) . .
O3 C8 C4 119.5(13) . .
O3 C8 O4 122.8(5) . .
C1 C6 H6 120.0 . .
C1 C6 C5 120.0 . .
C5 C6 H6 120.0 . .
C2 C1 C6 120.0 . .
C7 C1 C6 119.3(11) . .
C7 C1 C2 120.7(11) . .
C1 C2 H2 120.0 . .
C1 C2 C3 120.0 . .
C3 C2 H2 120.0 . .
C2 C3 H3 120.0 . .
C4 C3 C2 120.0 . .
C4 C3 H3 120.0 . .
C8 C4 C3 122(2) . .
C8 C4 C5 118(2) . .
C3 C4 C5 120.0 . .
C6 C5 H5 120.0 . .
C4 C5 C6 120.0 . .
C4 C5 H5 120.0 . .
O2 C7 C1 118.3(12) . .
O2 C7 O1 122.8(5) . .
O1 C7 C1 118.9(12) . .
C7 O2 Co1 94(2) . .
C11 N1 Co1 103(3) . 1_545
C11 N1 C9 112(6) . .
C11 N1 C13 105(7) . .
C9 N1 Co1 114(3) . 1_545
C13 N1 Co1 120(3) . 1_545
C13 N1 C9 103(5) . .
C12 N2 Co1 121(3) . .
C10 N2 Co1 107(3) . .
C10 N2 C12 113(6) . .
C10 N2 C14 106(5) . .
C14 N2 Co1 105(3) . .
C14 N2 C12 103(5) . .
N1 C11 H11A 111.8 . .
N1 C11 H11B 111.8 . .
N1 C11 C12 100(4) . .
H11A C11 H11B 109.6 . .
C12 C11 H11A 111.8 . .
C12 C11 H11B 111.8 . .
N1 C9 H9A 108.5 . .
N1 C9 H9B 108.5 . .
N1 C9 C10 115(4) . .
H9A C9 H9B 107.5 . .
C10 C9 H9A 108.5 . .
C10 C9 H9B 108.5 . .
N2 C12 C11 123(4) . .
N2 C12 H12A 106.6 . .
N2 C12 H12B 106.6 . .
C11 C12 H12A 106.6 . .
C11 C12 H12B 106.6 . .
H12A C12 H12B 106.6 . .
N2 C10 C9 108(5) . .
N2 C10 H10A 110.2 . .
N2 C10 H10B 110.2 . .
C9 C10 H10A 110.2 . .
C9 C10 H10B 110.2 . .
H10A C10 H10B 108.5 . .
N2 C14 H14A 111.6 . .
N2 C14 H14B 111.6 . .
N2 C14 C13 101(4) . .
H14A C14 H14B 109.4 . .
C13 C14 H14A 111.6 . .
C13 C14 H14B 111.6 . .
N1 C13 C14 122(5) . .
C7 O1 Co1 87.9(15) . .
C8 O4 Co1 159(3) . 1_554
loop_
_geom_bond_atom_site_label_1
_geom_bond_atom_site_label_2
_geom_bond_distance
_geom_bond_site_symmetry_2
Co1 O1W 2.10(3) .
Co1 O2 2.26(4) .
Co1 N1 2.25(5) 1_565
Co1 N2 2.20(5) .
Co1 O1 2.38(7) .
Co1 O4 2.18(6) 1_556
O1W H1WA 1.1851 .
O1W H1WB 1.2458 .
C8 C4 1.340(3) .
C8 O4 1.230(3) .
C8 O3 1.230(3) .
C6 H6 0.9300 .
C6 C1 1.3900 .
C6 C5 1.3900 .
C1 C2 1.3900 .
C1 C7 1.340(3) .
C2 H2 0.9300 .
C2 C3 1.3900 .
C3 H3 0.9300 .
C3 C4 1.3900 .
C4 C5 1.3900 .
C5 H5 0.9300 .
C7 O2 1.230(3) .
C7 O1 1.230(3) .
N1 Co1 2.25(5) 1_545
N1 C11 1.480(3) .
N1 C9 1.480(3) .
N1 C13 1.480(3) .
N2 C12 1.480(3) .
N2 C10 1.480(3) .
N2 C14 1.480(3) .
C11 H11A 0.9700 .
C11 H11B 0.9700 .
C11 C12 1.520(3) .
C9 H9A 0.9700 .
C9 H9B 0.9700 .
C9 C10 1.520(3) .
C12 H12A 0.9700 .
C12 H12B 0.9700 .
C10 H10A 0.9700 .
C10 H10B 0.9700 .
C14 H14A 0.9700 .
C14 H14B 0.9700 .
C14 C13 1.520(3) .
O4 Co1 2.18(6) 1_554
loop_
_geom_torsion_atom_site_label_1
_geom_torsion_atom_site_label_2
_geom_torsion_atom_site_label_3
_geom_torsion_atom_site_label_4
_geom_torsion
_geom_torsion_site_symmetry_1
_geom_torsion_site_symmetry_4
Co1 N1 C11 C12 174(6) 1_545 .
Co1 N1 C9 C10 177(5) 1_545 .
Co1 N1 C13 C14 175(4) 1_545 .
Co1 N2 C12 C11 170(7) . .
Co1 N2 C10 C9 179(5) . .
Co1 N2 C14 C13 177(4) . .
C8 C4 C5 C6 179.0(13) . .
C6 C1 C2 C3 0.0 . .
C6 C1 C7 O2 -179(2) . .
C6 C1 C7 O1 0(3) . .
C1 C6 C5 C4 0.0 . .
C1 C2 C3 C4 0.0 . .
C1 C7 O2 Co1 -179(2) . .
C1 C7 O1 Co1 179(2) . .
C2 C1 C7 O2 1(3) . .
C2 C1 C7 O1 -180(2) . .
C2 C3 C4 C8 -178.9(13) . .
C2 C3 C4 C5 0.0 . .
C3 C4 C5 C6 0.0 . .
C4 C8 O4 Co1 -174(6) . 1_554
C5 C6 C1 C2 0.0 . .
C5 C6 C1 C7 -179.9(15) . .
C7 C1 C2 C3 179.9(15) . .
O2 C7 O1 Co1 -2(3) . .
N1 C11 C12 N2 14(12) . .
N1 C9 C10 N2 0(8) . .
N2 C14 C13 N1 11(7) . .
C11 N1 C9 C10 61(9) . .
C11 N1 C13 C14 -70(7) . .
C9 N1 C11 C12 -63(9) . .
C9 N1 C13 C14 47(6) . .
C12 N2 C10 C9 -46(8) . .
C12 N2 C14 C13 49(6) . .
C10 N2 C12 C11 41(11) . .
C10 N2 C14 C13 -70(5) . .
C14 N2 C12 C11 -73(10) . .
C14 N2 C10 C9 67(6) . .
C13 N1 C11 C12 48(8) . .
C13 N1 C9 C10 -51(7) . .
O1 C7 O2 Co1 2(3) . .
O4 C8 C4 C3 178.7(15) . .
O4 C8 C4 C5 -0.3(19) . .
O3 C8 C4 C3 0.4(18) . .
O3 C8 C4 C5 -178.5(15) . .
O3 C8 O4 Co1 4(7) . 1_554
