#------------------------------------------------------------------------------
#$Date: 2019-11-24 04:12:18 +0200 (Sun, 24 Nov 2019) $
#$Revision: 236652 $
#$URL: file:///home/coder/svn-repositories/cod/cif/8/00/03/8000358.cif $
#------------------------------------------------------------------------------
#
# This file is available in the Crystallography Open Database (COD),
# http://www.crystallography.net/
#
# All data on this site have been placed in the public domain by the
# contributors.
#
data_8000358
loop_
_publ_author_name
'Andrzejewski, Micha\/l'
'Katrusiak, Andrzej'
_publ_section_title
;
 Piezochromic Porous Metal-Organic Framework.
;
_journal_issue                   1
_journal_name_full               'The journal of physical chemistry letters'
_journal_page_first              279
_journal_page_last               284
_journal_paper_doi               10.1021/acs.jpclett.6b02458
_journal_volume                  8
_journal_year                    2017
_chemical_formula_moiety         'C14 H18 Co N2 O5'
_chemical_formula_sum            'C14 H18 Co N2 O5'
_chemical_formula_weight         353.23
_chemical_name_common            AMU1
_chemical_name_systematic
;
Co(1,4-benzenedicarboxylate)(1,4-diazabicyclo[2.2.2]octane)H2O
;
_space_group_crystal_system      monoclinic
_space_group_IT_number           6
_space_group_name_Hall           'P -2y'
_space_group_name_H-M_alt        'P 1 m 1'
_atom_sites_solution_hydrogens   mixed
_atom_sites_solution_primary     iterative
_audit_creation_date             2016-07-11
_audit_creation_method
;
Olex2 1.2
(compiled 2016.02.19 svn.r3266 for OlexSys, GUI svn.r5155)
;
_cell_angle_alpha                90
_cell_angle_beta                 95.052(2)
_cell_angle_gamma                90
_cell_formula_units_Z            1
_cell_length_a                   6.1006(2)
_cell_length_b                   7.0942(2)
_cell_length_c                   10.6767(2)
_cell_measurement_reflns_used    2382
_cell_measurement_temperature    273
_cell_measurement_theta_max      58.17
_cell_measurement_theta_min      5.74
_cell_volume                     460.28(2)
_computing_molecular_graphics    'Olex2 (Dolomanov et al., 2009)'
_computing_publication_material  'Olex2 (Dolomanov et al., 2009)'
_computing_structure_refinement  'ShelXL (Sheldrick, 2015)'
_computing_structure_solution    'olex2.solve (Bourhis et al., 2015)'
_diffrn_ambient_temperature      273
_diffrn_measured_fraction_theta_full 0.999
_diffrn_measured_fraction_theta_max 0.938
_diffrn_measurement_device_type  'multiwire proportional'
_diffrn_measurement_method       'phi and omega scans'
_diffrn_radiation_monochromator  graphite
_diffrn_radiation_type           MoK\a
_diffrn_radiation_wavelength     0.71073
_diffrn_reflns_av_R_equivalents  0.0397
_diffrn_reflns_av_unetI/netI     0.0539
_diffrn_reflns_Laue_measured_fraction_full 0.999
_diffrn_reflns_Laue_measured_fraction_max 0.938
_diffrn_reflns_limit_h_max       8
_diffrn_reflns_limit_h_min       -8
_diffrn_reflns_limit_k_max       9
_diffrn_reflns_limit_k_min       -9
_diffrn_reflns_limit_l_max       13
_diffrn_reflns_limit_l_min       -13
_diffrn_reflns_number            7131
_diffrn_reflns_point_group_measured_fraction_full 0.999
_diffrn_reflns_point_group_measured_fraction_max 0.938
_diffrn_reflns_theta_full        25.242
_diffrn_reflns_theta_max         29.085
_diffrn_reflns_theta_min         2.871
_exptl_absorpt_coefficient_mu    0.952
_exptl_absorpt_correction_T_max  0.909
_exptl_absorpt_correction_T_min  0.892
_exptl_absorpt_correction_type   multi-scan
_exptl_absorpt_process_details
;
Data were collected and reduced by program CrysAlisPro, 
and SCALE3 ABSPACK was used for absorption correction
;
_exptl_crystal_colour            purple
_exptl_crystal_density_diffrn    1.274
_exptl_crystal_description       plate
_exptl_crystal_F_000             183
_exptl_crystal_size_max          0.3
_exptl_crystal_size_mid          0.1
_exptl_crystal_size_min          0.1
_refine_diff_density_max         1.148
_refine_diff_density_min         -0.779
_refine_diff_density_rms         0.110
_refine_ls_abs_structure_details
;
 Refined as a perfect inversion twin.
;
_refine_ls_abs_structure_Flack   0.5
_refine_ls_extinction_method     none
_refine_ls_goodness_of_fit_ref   1.064
_refine_ls_hydrogen_treatment    mixed
_refine_ls_matrix_type           full
_refine_ls_number_parameters     125
_refine_ls_number_reflns         2382
_refine_ls_number_restraints     47
_refine_ls_restrained_S_all      1.079
_refine_ls_R_factor_all          0.0536
_refine_ls_R_factor_gt           0.0498
_refine_ls_shift/su_max          0.000
_refine_ls_shift/su_mean         0.000
_refine_ls_structure_factor_coef Fsqd
_refine_ls_weighting_details
'w=1/[\s^2^(Fo^2^)+(0.0735P)^2^+0.2419P] where P=(Fo^2^+2Fc^2^)/3'
_refine_ls_weighting_scheme      calc
_refine_ls_wR_factor_gt          0.1254
_refine_ls_wR_factor_ref         0.1286
_reflns_Friedel_coverage         0.993
_reflns_Friedel_fraction_full    0.999
_reflns_Friedel_fraction_max     0.938
_reflns_number_gt                2227
_reflns_number_total             2382
_reflns_threshold_expression     'I > 2\s(I)'
_cod_data_source_file            jz6b02458_si_004.cif
_cod_data_source_block           273K_Pm
_cod_database_code               8000358
_shelx_space_group_comment
;
The symmetry employed for this shelxl refinement is uniquely defined
by the following loop, which should always be used as a source of
symmetry information in preference to the above space-group names.
They are only intended as comments.
;
_olex2_refinement_description
;
1. Fixed Uiso
 At 1.2 times of:
  All C(H) groups, All C(H,H) groups
2. Restrained distances
 O1W-H1WA
 0.96 with sigma of 0.02
 H1WB-H1WA
 1.66 with sigma of 0.02
 O1W-H1WB
 0.97 with sigma of 0.02
3. Uiso/Uaniso restraints and constraints
Uanis(O3) \\sim Ueq: with sigma of 0.001 and sigma for terminal atoms of 0.002
Uanis(C6) \\sim Ueq, Uanis(C1) \\sim Ueq, Uanis(C2) \\sim Ueq, Uanis(C3) \\sim
Ueq, Uanis(C4) \\sim Ueq, Uanis(C5) \\sim Ueq: with sigma of 0.001 and sigma
for terminal atoms of 0.002
4. Others
 Fixed X: H1WB(0.421281)
 Fixed Y: H1WB(0)
 Fixed Z: H1WB(0.06267)
5.a Secondary CH2 refined with riding coordinates:
 C10(H10A,H10B), C9(H9A,H9B), C11(H11A,H11B)
5.b Aromatic/amide H refined with riding coordinates:
 C6(H6), C2(H2), C5(H5), C3(H3)
;
_shelx_hkl_file
;
  -8  -1   0    2.48    0.82
  -8   0   1    3.03    0.98
  -8   0   2    4.57    0.99
  -8   0   3    3.76    0.87
  -8   0   4    3.25    0.94
  -8   1   1    0.12    0.43
  -8   1   2    0.85    0.56
  -8   1   3    1.27    0.62
  -8   1   4    1.99    0.61
  -7  -5   0    1.27    0.61
  -7  -4  -2    4.21    1.01
  -7  -4  -1    3.06    0.90
  -7  -4   0    5.19    1.11
  -7  -3  -4    3.94    0.87
  -7  -3  -3    3.00    0.78
  -7  -3  -2    3.81    0.83
  -7  -3  -1    1.96    0.53
  -7  -3   0    6.11    0.76
  -7  -2  -5    0.06    0.54
  -7  -2  -4    1.79    0.68
  -7  -2  -3    0.97    0.36
  -7  -2  -2    2.19    0.70
  -7  -2  -1    0.30    0.31
  -7  -2   0    3.93    0.64
  -7  -1  -6    2.94    0.93
  -7  -1  -5    0.48    0.44
  -7  -1  -4    4.58    1.05
  -7  -1  -3    2.29    0.69
  -7  -1  -2    3.32    0.89
  -7  -1  -1    1.72    0.51
  -7  -1   0    7.75    0.82
  -7   0  -2    5.52    1.18
  -7   0  -1    2.44    0.70
  -7   0   0    9.05    1.29
  -7   0   1    3.82    0.85
  -7   0   2    7.04    0.76
  -7   0   3    2.40    0.51
  -7   0   4    2.38    0.47
  -7   0   5    2.46    0.69
  -7   0   6    1.21    0.64
  -7   0   7    1.91    0.69
  -7   0   8    3.41    0.85
  -7   1   1    2.72    0.54
  -7   1   2    5.70    0.58
  -7   1   3    1.76    0.37
  -7   1   4    2.60    0.62
  -7   1   5    3.42    0.45
  -7   1   6    2.51    0.69
  -7   1   7    3.34    0.51
  -7   2   1    1.45    0.28
  -7   2   2    2.56    0.34
  -7   2   3    0.37    0.19
  -7   2   4    0.91    0.31
  -7   2   5    1.21    0.35
  -7   2   6    0.47    0.26
  -7   2   7    0.64    0.44
  -7   3   1    3.79    0.55
  -7   3   2    4.73    0.56
  -7   3   3    1.98    0.41
  -7   3   4    3.14    0.46
  -7   3   5    3.74    0.80
  -7   3   6    1.72    0.62
  -7   3   7    1.83    0.76
  -7   4   1    2.69    0.51
  -7   4   2    3.41    0.63
  -7   4   3    1.63    0.47
  -7   4   4    2.71    0.78
  -7   5   1    0.30    0.49
  -6  -6  -2    3.75    0.90
  -6  -6  -1    3.04    0.80
  -6  -6   0    4.10    0.93
  -6  -5  -3    2.11    0.59
  -6  -5  -2    2.76    0.49
  -6  -5  -1    0.87    0.34
  -6  -5   0    0.41    0.29
  -6  -4  -5    2.81    0.78
  -6  -4  -4    5.71    0.84
  -6  -4  -3    5.47    0.81
  -6  -4  -2    7.32    0.62
  -6  -4  -1    6.08    0.62
  -6  -4   0    6.89    0.61
  -6  -3  -6    6.44    1.19
  -6  -3  -5    5.68    0.99
  -6  -3  -4   11.50    0.99
  -6  -3  -3    9.80    0.96
  -6  -3  -2   12.31    0.79
  -6  -3  -1    8.52    0.65
  -6  -3   0    6.49    0.62
  -6  -2  -7    2.50    0.84
  -6  -2  -6    4.41    1.01
  -6  -2  -5    2.45    0.69
  -6  -2  -4    6.49    0.96
  -6  -2  -3    6.07    0.71
  -6  -2  -2    7.97    0.79
  -6  -2  -1    6.04    0.54
  -6  -2   0    4.32    0.37
  -6  -1  -8    3.97    0.85
  -6  -1  -7    5.51    0.73
  -6  -1  -6    6.61    0.74
  -6  -1  -5    4.22    0.59
  -6  -1  -4    8.68    1.05
  -6  -1  -3    6.73    0.59
  -6  -1  -2   11.18    0.62
  -6  -1  -1   11.83    0.54
  -6  -1   0   12.74    0.55
  -6   0  -8    2.91    0.87
  -6   0  -7    5.38    0.94
  -6   0  -6    7.02    1.13
  -6   0  -5    7.45    1.05
  -6   0  -4   15.68    1.45
  -6   0  -3   14.67    1.41
  -6   0  -2   19.21    1.05
  -6   0  -1   13.15    1.04
  -6   0   0    7.72    0.51
  -6   0   1    7.86    0.53
  -6   0   2   13.58    1.09
  -6   0   3   26.18    1.31
  -6   0   4   14.86    1.21
  -6   0   5   12.03    0.91
  -6   0   6    7.41    0.66
  -6   0   7    9.60    1.27
  -6   0   8    3.33    0.87
  -6   0   9    6.69    1.24
  -6   0  10    4.13    0.84
  -6   1   1   13.27    0.68
  -6   1   2   11.38    0.60
  -6   1   3   15.85    0.73
  -6   1   4    7.92    0.55
  -6   1   5    5.08    0.43
  -6   1   6    3.80    0.46
  -6   1   7    8.02    0.64
  -6   1   8    4.75    0.51
  -6   1   9    7.37    0.67
  -6   1  10    3.57    0.62
  -6   2   1    4.95    0.42
  -6   2   2    5.56    0.46
  -6   2   3   13.09    0.70
  -6   2   4    5.66    0.44
  -6   2   5    4.27    0.42
  -6   2   6    2.74    0.36
  -6   2   7    5.60    0.60
  -6   2   8    2.29    0.42
  -6   2   9    4.62    0.72
  -6   2  10    2.10    0.74
  -6   3   1    7.94    0.52
  -6   3   2   10.25    0.75
  -6   3   3   17.23    0.96
  -6   3   4    9.02    0.74
  -6   3   5    7.91    0.87
  -6   3   6    5.32    0.58
  -6   3   7    7.40    0.71
  -6   3   8    3.93    0.65
  -6   3   9    6.38    1.16
  -6   4   1    8.38    0.77
  -6   4   2    8.68    1.03
  -6   4   3    9.16    0.99
  -6   4   4    3.94    0.52
  -6   4   5    3.68    0.62
  -6   4   6    2.59    0.46
  -6   4   7    4.79    1.00
  -6   5   1    1.12    0.33
  -6   5   2    2.20    0.47
  -6   5   3    5.71    0.82
  -6   5   4    1.73    0.41
  -6   5   5    1.92    0.78
  -6   6   1    4.60    1.10
  -5  -7  -4    0.57    0.53
  -5  -7  -3    2.74    0.90
  -5  -7  -2    5.25    0.70
  -5  -7  -1    0.02    0.34
  -5  -7   0    2.08    0.72
  -5  -6  -4    1.14    0.36
  -5  -6  -3    3.91    0.53
  -5  -6  -2    9.34    0.78
  -5  -6  -1    1.06    0.35
  -5  -6   0    3.40    0.47
  -5  -5  -6    0.65    0.54
  -5  -5  -5    1.67    0.64
  -5  -5  -4    4.06    0.55
  -5  -5  -3    7.48    1.08
  -5  -5  -2   15.35    0.94
  -5  -5  -1    0.31    0.30
  -5  -5   0    0.98    0.34
  -5  -4  -7    6.14    1.18
  -5  -4  -6    0.75    0.55
  -5  -4  -5    0.44    0.56
  -5  -4  -4    1.15    0.30
  -5  -4  -3    2.84    0.52
  -5  -4  -2   15.27    0.89
  -5  -4  -1    0.75    0.33
  -5  -4   0    5.19    0.49
  -5  -3  -8    4.15    0.99
  -5  -3  -7    7.27    1.30
  -5  -3  -6    2.47    0.77
  -5  -3  -5    7.23    1.04
  -5  -3  -4   11.20    0.77
  -5  -3  -3   16.36    0.88
  -5  -3  -2   42.80    2.01
  -5  -3  -1    1.17    0.29
  -5  -3   0    8.09    0.61
  -5  -2 -10    1.12    0.57
  -5  -2  -9    1.56    0.50
  -5  -2  -8    3.07    0.56
  -5  -2  -7    4.38    0.60
  -5  -2  -6    1.91    0.39
  -5  -2  -5    1.49    0.46
  -5  -2  -4    4.86    0.46
  -5  -2  -3    9.27    0.48
  -5  -2  -2   35.25    1.08
  -5  -2  -1    0.31    0.17
  -5  -2   0    3.64    0.31
  -5  -1 -10    2.13    0.75
  -5  -1  -9    4.30    0.70
  -5  -1  -8    5.30    0.70
  -5  -1  -7    7.21    0.76
  -5  -1  -6    2.18    0.48
  -5  -1  -5    1.09    0.29
  -5  -1  -4    1.18    0.36
  -5  -1  -3    4.84    0.35
  -5  -1  -2   32.13    0.74
  -5  -1  -1    2.24    0.18
  -5  -1   0    6.57    0.32
  -5   0 -10    4.52    1.04
  -5   0  -9    3.69    0.87
  -5   0  -8    5.86    1.03
  -5   0  -7    9.80    1.36
  -5   0  -6    5.20    0.87
  -5   0  -5    8.64    1.14
  -5   0  -4   23.00    1.87
  -5   0  -3   37.01    1.60
  -5   0  -2   78.30    2.10
  -5   0  -1    1.69    0.20
  -5   0   0   11.23    0.73
  -5   0   1   12.78    0.70
  -5   0   2   31.73    1.39
  -5   0   3   35.99    1.43
  -5   0   4   17.44    1.05
  -5   0   5   36.15    1.48
  -5   0   6   41.90    1.87
  -5   0   7   17.83    1.05
  -5   0   8   10.08    0.84
  -5   0   9    8.45    1.53
  -5   0  10    7.91    0.81
  -5   0  11   14.83    1.19
  -5   0  12   10.37    1.34
  -5   1   1    6.16    0.36
  -5   1   2   16.10    0.59
  -5   1   3   11.07    0.49
  -5   1   4    0.37    0.14
  -5   1   5    4.19    0.38
  -5   1   6    9.52    0.49
  -5   1   7    5.64    0.45
  -5   1   8    5.08    0.42
  -5   1   9    5.11    0.50
  -5   1  10    5.82    0.59
  -5   1  11   10.39    0.84
  -5   1  12    2.15    0.77
  -5   2   1    3.56    0.30
  -5   2   2   12.85    0.64
  -5   2   3   12.95    0.60
  -5   2   4    2.79    0.37
  -5   2   5    8.62    0.71
  -5   2   6   15.60    0.78
  -5   2   7    6.33    0.47
  -5   2   8    5.12    0.46
  -5   2   9    3.72    0.42
  -5   2  10    3.85    0.64
  -5   2  11    8.75    1.33
  -5   3   1    7.99    0.49
  -5   3   2   17.49    0.73
  -5   3   3   21.00    0.87
  -5   3   4    8.91    0.49
  -5   3   5   16.12    0.99
  -5   3   6   22.43    1.11
  -5   3   7   10.75    0.92
  -5   3   8    7.31    0.69
  -5   3   9    5.40    0.61
  -5   3  10    6.26    1.16
  -5   4   1    4.22    0.57
  -5   4   2    8.51    0.65
  -5   4   3    7.41    0.75
  -5   4   4    0.56    0.35
  -5   4   5    1.26    0.34
  -5   4   6    4.59    0.55
  -5   4   7    3.53    0.51
  -5   4   8    5.24    0.59
  -5   4   9    3.95    0.93
  -5   5   1    1.78    0.38
  -5   5   2    4.25    0.61
  -5   5   3    7.18    0.70
  -5   5   4    2.98    0.42
  -5   5   5    5.92    0.66
  -5   5   6    7.96    0.69
  -5   5   7    3.36    0.52
  -5   5   9    1.31    0.59
  -5   6   1    3.22    0.49
  -5   6   2    4.53    0.56
  -5   6   3    6.00    0.62
  -5   6   4    1.12    0.41
  -5   6   5    3.16    0.48
  -5   7   1    1.68    0.72
  -5   7   2    2.87    0.82
  -5   7   3    4.43    1.04
  -4  -7  -5    1.35    0.67
  -4  -7  -4    2.08    0.48
  -4  -7  -3    3.95    0.53
  -4  -7  -2    4.97    0.59
  -4  -7  -1    0.42    0.35
  -4  -7   0    1.88    0.41
  -4  -6  -6    0.41    0.42
  -4  -6  -5    1.01    0.45
  -4  -6  -4    2.13    0.46
  -4  -6  -3    5.47    0.73
  -4  -6  -2    7.94    0.68
  -4  -6  -1    3.20    0.46
  -4  -6   0    5.77    0.58
  -4  -5  -7    6.02    1.26
  -4  -5  -6    1.33    0.45
  -4  -5  -5    4.49    0.66
  -4  -5  -4    8.37    0.63
  -4  -5  -3   10.52    0.77
  -4  -5  -2   12.04    0.73
  -4  -5  -1    0.20    0.29
  -4  -5   0    3.90    0.38
  -4  -4  -9   10.33    1.49
  -4  -4  -8    8.45    1.35
  -4  -4  -7   10.15    1.39
  -4  -4  -6    0.22    0.25
  -4  -4  -5    1.12    0.58
  -4  -4  -4    1.58    0.35
  -4  -4  -3    4.67    0.45
  -4  -4  -2   11.48    0.89
  -4  -4  -1    2.59    0.51
  -4  -4   0    8.65    0.67
  -4  -3 -11    5.88    1.13
  -4  -3 -10    4.63    0.92
  -4  -3  -9   10.39    0.78
  -4  -3  -8    9.82    0.71
  -4  -3  -7   18.69    1.19
  -4  -3  -6    4.24    0.38
  -4  -3  -5   12.55    0.65
  -4  -3  -4   22.70    0.66
  -4  -3  -3   27.42    0.93
  -4  -3  -2   34.64    1.21
  -4  -3  -1    8.70    0.39
  -4  -3   0   21.04    0.87
  -4  -2 -11    3.59    0.66
  -4  -2 -10    2.09    0.40
  -4  -2  -9    9.77    0.77
  -4  -2  -8    6.65    0.58
  -4  -2  -7   12.93    0.72
  -4  -2  -6    0.55    0.30
  -4  -2  -5    5.80    0.34
  -4  -2  -4   13.02    0.64
  -4  -2  -3   16.87    0.56
  -4  -2  -2   23.38    0.69
  -4  -2  -1    2.89    0.24
  -4  -2   0   11.34    0.44
  -4  -1 -11    4.02    0.64
  -4  -1 -10    2.64    0.44
  -4  -1  -9   14.83    0.95
  -4  -1  -8   10.37    0.86
  -4  -1  -7   14.31    1.11
  -4  -1  -6    0.23    0.36
  -4  -1  -5    1.63    0.43
  -4  -1  -4    5.23    0.30
  -4  -1  -3    7.17    0.45
  -4  -1  -2   17.52    0.43
  -4  -1  -1    3.39    0.23
  -4  -1   0   18.24    0.53
  -4   0 -11   10.31    1.72
  -4   0 -10    6.82    1.19
  -4   0  -9   19.42    1.85
  -4   0  -8   13.39    1.50
  -4   0  -7   23.74    1.87
  -4   0  -6    7.95    1.21
  -4   0  -5   28.37    1.80
  -4   0  -4   54.44    3.08
  -4   0  -3   58.71    1.40
  -4   0  -2   64.02    1.84
  -4   0  -1   16.45    0.62
  -4   0   0   39.55    1.27
  -4   0   1   34.37    1.32
  -4   0   2   23.90    1.01
  -4   0   3   30.04    1.45
  -4   0   4   31.87    1.44
  -4   0   5   39.95    1.48
  -4   0   6   47.28    1.84
  -4   0   7   48.14    2.67
  -4   0   8   14.28    1.36
  -4   0   9    7.04    1.08
  -4   0  10    2.54    0.74
  -4   0  11    1.16    0.61
  -4   0  12   17.72    1.78
  -4   1   1   18.04    0.54
  -4   1   2   13.74    0.44
  -4   1   3    5.83    0.28
  -4   1   4    1.33    0.19
  -4   1   5    3.17    0.34
  -4   1   6    7.33    0.41
  -4   1   7   28.75    0.95
  -4   1   8   10.60    0.57
  -4   1   9    9.51    0.81
  -4   1  10    2.02    0.45
  -4   1  11    0.52    0.68
  -4   1  12    8.85    1.00
  -4   1  13    0.12    0.50
  -4   2   1    9.76    0.36
  -4   2   2    7.11    0.24
  -4   2   3    6.70    0.26
  -4   2   4    5.21    0.28
  -4   2   5    7.60    0.43
  -4   2   6   14.03    0.66
  -4   2   7   23.03    0.94
  -4   2   8    5.67    0.40
  -4   2   9    2.98    0.35
  -4   2  10    0.39    0.24
  -4   2  11    0.32    0.24
  -4   3   1   21.45    0.79
  -4   3   2   17.32    0.67
  -4   3   3   16.03    0.67
  -4   3   4   13.77    0.47
  -4   3   5   15.43    0.63
  -4   3   6   23.91    0.88
  -4   3   7   26.74    0.94
  -4   3   8    9.13    0.62
  -4   3   9    5.30    0.46
  -4   3  10    2.31    0.41
  -4   3  11    2.55    0.46
  -4   4   1   11.77    0.74
  -4   4   2    9.64    0.66
  -4   4   3    3.52    0.53
  -4   4   4    0.51    0.24
  -4   4   5    0.71    0.23
  -4   4   6    4.02    0.47
  -4   4   7   15.27    0.82
  -4   4   8    6.22    0.51
  -4   4   9    4.97    0.52
  -4   4  10    2.33    0.36
  -4   5   1    2.71    0.43
  -4   5   2    3.50    0.46
  -4   5   3    3.70    0.62
  -4   5   4    4.73    0.81
  -4   5   5    5.78    0.52
  -4   5   6    9.17    0.61
  -4   5   7    7.54    0.59
  -4   5   8    1.46    0.38
  -4   5   9    0.12    0.27
  -4   5  10    0.04    0.43
  -4   6   1    8.34    0.80
  -4   6   2    7.35    0.67
  -4   6   3    4.53    0.49
  -4   6   4    1.12    0.38
  -4   6   5    1.22    0.30
  -4   6   6    3.96    0.47
  -4   6   7    6.96    0.73
  -4   6   8    5.34    0.76
  -4   7   1    3.29    0.50
  -4   7   2    2.56    0.47
  -4   7   3    3.09    0.48
  -4   7   4    0.88    0.28
  -4   7   5    1.72    0.56
  -4   7   6    3.13    0.86
  -4   8   2    0.14    0.44
  -4   8   3    1.48    0.84
  -4   8   4    0.40    0.52
  -3  -8  -3    0.68    0.58
  -3  -8  -2    0.63    0.41
  -3  -8  -1    1.10    0.50
  -3  -8   0    0.52    0.39
  -3  -7  -6    2.90    0.92
  -3  -7  -5    4.11    0.67
  -3  -7  -4    5.06    0.77
  -3  -7  -3    3.60    0.44
  -3  -7  -2    3.48    0.51
  -3  -7  -1    3.32    0.43
  -3  -7   0    4.14    0.49
  -3  -6  -8    5.94    1.12
  -3  -6  -7    5.53    1.16
  -3  -6  -6    5.99    1.11
  -3  -6  -5    7.30    0.84
  -3  -6  -4   10.62    0.74
  -3  -6  -3    6.65    0.60
  -3  -6  -2    7.61    0.57
  -3  -6  -1   10.66    0.81
  -3  -6   0   15.17    0.86
  -3  -5  -9    1.50    0.67
  -3  -5  -8    4.48    1.08
  -3  -5  -7    4.39    0.86
  -3  -5  -6    3.99    0.69
  -3  -5  -5    7.86    0.76
  -3  -5  -4   11.98    0.74
  -3  -5  -3    4.23    0.45
  -3  -5  -2    3.04    0.43
  -3  -5  -1    4.70    0.45
  -3  -5   0    5.42    0.58
  -3  -4 -11    2.42    1.06
  -3  -4 -10    5.50    0.63
  -3  -4  -9   10.02    0.75
  -3  -4  -8    9.61    0.63
  -3  -4  -7    7.73    0.67
  -3  -4  -6    8.94    0.55
  -3  -4  -5   11.03    0.56
  -3  -4  -4   16.60    0.59
  -3  -4  -3   11.95    0.39
  -3  -4  -2   13.63    0.48
  -3  -4  -1   14.37    0.83
  -3  -4   0   25.60    1.00
  -3  -3 -12    4.57    1.11
  -3  -3 -11    6.39    0.82
  -3  -3 -10    6.77    0.66
  -3  -3  -9    8.64    1.07
  -3  -3  -8   13.75    0.90
  -3  -3  -7   13.39    0.66
  -3  -3  -6   17.61    0.93
  -3  -3  -5   27.38    0.85
  -3  -3  -4   46.68    1.06
  -3  -3  -3   29.55    0.67
  -3  -3  -2   27.05    0.65
  -3  -3  -1   25.92    0.56
  -3  -3   0   38.37    1.44
  -3  -2 -12    1.76    0.53
  -3  -2 -11    3.60    0.54
  -3  -2 -10    3.33    0.47
  -3  -2  -9    7.34    1.08
  -3  -2  -8    9.54    0.61
  -3  -2  -7    8.95    0.74
  -3  -2  -6   10.73    0.54
  -3  -2  -5   15.60    0.63
  -3  -2  -4   35.20    0.99
  -3  -2  -3   17.00    0.53
  -3  -2  -2   12.94    0.34
  -3  -2  -1   11.74    0.46
  -3  -2   0   15.15    0.37
  -3  -1 -12    1.79    0.59
  -3  -1 -11    5.34    0.53
  -3  -1 -10    7.14    0.61
  -3  -1  -9   13.29    0.90
  -3  -1  -8   15.34    0.82
  -3  -1  -7   12.75    0.65
  -3  -1  -6   13.83    0.84
  -3  -1  -5   16.74    0.55
  -3  -1  -4   33.54    0.76
  -3  -1  -3   22.11    0.68
  -3  -1  -2   24.13    0.67
  -3  -1  -1   20.36    0.47
  -3  -1   0   46.82    1.19
  -3   0 -12    4.91    1.30
  -3   0 -11    8.64    0.97
  -3   0 -10    6.60    0.88
  -3   0  -9   12.05    1.94
  -3   0  -8   19.78    1.08
  -3   0  -7   21.60    1.40
  -3   0  -6   26.71    0.85
  -3   0  -5   45.21    1.47
  -3   0  -4   96.14    4.38
  -3   0  -3   64.84    1.87
  -3   0  -2   51.50    1.93
  -3   0  -1   52.44    1.68
  -3   0   0   66.82    1.68
  -3   0   1   73.23    2.60
  -3   0   2  176.68    3.54
  -3   0   3   52.57    1.52
  -3   0   4   29.06    1.10
  -3   0   5   32.66    1.20
  -3   0   6   21.68    0.89
  -3   0   7   93.80    4.70
  -3   0   8   11.91    0.66
  -3   0   9   10.48    0.90
  -3   0  10    8.53    0.90
  -3   0  11    8.95    0.83
  -3   0  12   11.10    1.39
  -3   0  13    4.27    0.68
  -3   1   1   63.39    1.03
  -3   1   2  170.39    3.04
  -3   1   3   29.86    0.64
  -3   1   4    7.74    0.34
  -3   1   5    7.29    0.38
  -3   1   6    4.51    0.27
  -3   1   7   66.34    1.43
  -3   1   8   11.87    0.55
  -3   1   9   12.30    0.60
  -3   1  10   12.45    0.64
  -3   1  11    9.82    0.78
  -3   1  12    8.45    0.73
  -3   1  13    1.01    0.39
  -3   2   1   18.94    0.77
  -3   2   2   80.63    1.20
  -3   2   3   15.56    0.47
  -3   2   4    5.46    0.26
  -3   2   5    6.50    0.30
  -3   2   6    3.64    0.30
  -3   2   7   49.62    1.68
  -3   2   8    4.83    0.37
  -3   2   9    4.50    0.49
  -3   2  10    3.94    0.40
  -3   2  11    4.34    0.40
  -3   2  12    5.88    0.62
  -3   2  13    2.01    0.47
  -3   3   1   41.43    1.22
  -3   3   2   92.30    2.07
  -3   3   3   31.70    0.66
  -3   3   4   18.21    0.52
  -3   3   5   17.87    0.49
  -3   3   6   11.55    0.57
  -3   3   7   56.75    1.29
  -3   3   8   10.85    0.59
  -3   3   9    8.82    0.47
  -3   3  10    7.47    0.66
  -3   3  11    6.10    0.53
  -3   3  12    9.19    0.74
  -3   4   1   28.64    1.15
  -3   4   2   58.96    1.69
  -3   4   3   16.23    0.55
  -3   4   4    7.06    0.31
  -3   4   5    5.26    0.44
  -3   4   6    2.84    0.35
  -3   4   7   31.65    1.22
  -3   4   8    9.15    0.59
  -3   4   9    8.77    0.63
  -3   4  10    8.20    0.62
  -3   4  11    6.11    0.55
  -3   4  12    6.22    0.82
  -3   5   1    5.27    0.50
  -3   5   2   12.31    0.79
  -3   5   3    4.16    0.40
  -3   5   4    3.60    0.38
  -3   5   5    3.53    0.39
  -3   5   6    1.47    0.30
  -3   5   7   13.80    0.75
  -3   5   8    1.10    0.33
  -3   5   9    1.55    0.37
  -3   5  10    0.48    0.29
  -3   5  11    0.30    0.35
  -3   6   1   16.33    0.92
  -3   6   2   24.84    1.06
  -3   6   3   10.26    1.01
  -3   6   4    6.50    0.51
  -3   6   5    4.19    0.46
  -3   6   6    3.34    0.40
  -3   6   7   15.85    0.87
  -3   6   8    6.87    0.61
  -3   6   9    6.52    0.91
  -3   7   1    4.42    0.50
  -3   7   2    9.07    0.72
  -3   7   3    3.84    0.51
  -3   7   4    3.61    0.43
  -3   7   5    1.30    0.54
  -3   7   6    1.72    0.37
  -3   7   7    7.65    0.62
  -3   7   8    2.45    0.82
  -3   8   1    0.77    0.60
  -3   8   2    1.42    0.51
  -3   8   3    0.03    0.50
  -3   8   4    0.45    0.37
  -3   8   5    0.01    0.51
  -3   8   6    0.75    0.60
  -2  -9  -2    2.77    0.80
  -2  -9  -1    1.91    0.79
  -2  -9   0    2.60    0.86
  -2  -8  -6    0.37    0.49
  -2  -8  -5    0.62    0.63
  -2  -8  -4    2.40    0.57
  -2  -8  -3    0.25    0.37
  -2  -8  -2    0.06    0.35
  -2  -8  -1    0.06    0.35
  -2  -8   0    0.11    0.33
  -2  -7  -8    0.05    0.51
  -2  -7  -7    1.09    0.67
  -2  -7  -6    2.85    0.54
  -2  -7  -5    3.75    0.99
  -2  -7  -4    6.92    1.42
  -2  -7  -3    1.61    0.45
  -2  -7  -2    3.42    0.54
  -2  -7  -1    2.87    0.47
  -2  -7   0    4.03    0.44
  -2  -6  -9    7.93    1.25
  -2  -6  -8    0.10    0.60
  -2  -6  -7    3.84    0.94
  -2  -6  -6    6.39    0.79
  -2  -6  -5   13.44    1.02
  -2  -6  -4   21.48    1.46
  -2  -6  -3    6.43    0.58
  -2  -6  -2    9.58    0.62
  -2  -6  -1    8.37    0.59
  -2  -6   0   10.55    0.66
  -2  -5 -11    0.92    0.45
  -2  -5 -10    2.63    0.41
  -2  -5  -9    5.13    0.59
  -2  -5  -8    3.12    0.40
  -2  -5  -7    0.87    0.39
  -2  -5  -6    0.98    0.22
  -2  -5  -5    4.39    0.59
  -2  -5  -4    9.88    0.84
  -2  -5  -3    2.13    0.37
  -2  -5  -2    0.79    0.27
  -2  -5  -1    0.03    0.30
  -2  -5   0    3.10    0.29
  -2  -4 -12    3.61    0.95
  -2  -4 -11    4.29    0.65
  -2  -4 -10    7.42    0.72
  -2  -4  -9   14.31    0.90
  -2  -4  -8    0.01    0.23
  -2  -4  -7    2.97    0.44
  -2  -4  -6    8.58    0.63
  -2  -4  -5   23.53    0.78
  -2  -4  -4   42.36    1.35
  -2  -4  -3    7.83    0.44
  -2  -4  -2   16.74    0.77
  -2  -4  -1   11.44    0.63
  -2  -4   0   23.96    0.94
  -2  -3 -12    2.87    0.62
  -2  -3 -11    5.55    0.63
  -2  -3 -10   10.63    0.75
  -2  -3  -9   23.68    1.23
  -2  -3  -8    1.77    0.30
  -2  -3  -7    6.70    0.60
  -2  -3  -6   12.35    0.65
  -2  -3  -5   36.40    1.13
  -2  -3  -4   66.22    1.34
  -2  -3  -3   12.11    0.32
  -2  -3  -2   20.20    0.53
  -2  -3  -1    9.01    0.47
  -2  -3   0   34.17    0.80
  -2  -2 -12    1.20    0.33
  -2  -2 -11    1.81    0.35
  -2  -2 -10    6.28    0.68
  -2  -2  -9   17.62    0.76
  -2  -2  -8    3.59    0.38
  -2  -2  -7    1.53    0.28
  -2  -2  -6    2.99    0.43
  -2  -2  -5   21.46    1.14
  -2  -2  -4   44.36    1.07
  -2  -2  -3    2.49    0.22
  -2  -2  -2    5.76    0.19
  -2  -2  -1    3.02    0.17
  -2  -2   0   17.98    0.59
  -2  -1 -12    4.39    0.49
  -2  -1 -11    5.09    0.54
  -2  -1 -10    9.95    0.59
  -2  -1  -9   25.90    1.17
  -2  -1  -8    0.90    0.32
  -2  -1  -7    1.88    0.29
  -2  -1  -6    8.30    0.19
  -2  -1  -5   49.80    1.17
  -2  -1  -4   98.79    1.70
  -2  -1  -3    4.32    0.14
  -2  -1  -2   22.22    0.51
  -2  -1  -1   26.04    0.60
  -2  -1   0   73.57    0.94
  -2   0 -12    3.07    0.68
  -2   0 -11    5.93    0.71
  -2   0 -10   15.05    1.21
  -2   0  -9   34.62    1.96
  -2   0  -8    8.75    0.71
  -2   0  -7    7.33    0.27
  -2   0  -6   13.99    0.70
  -2   0  -5   69.08    1.68
  -2   0  -4  126.63    2.62
  -2   0  -3   27.64    0.88
  -2   0  -2   20.73    0.53
  -2   0  -1    5.35    0.21
  -2   0   0   79.16    1.95
  -2   0   1   34.42    0.92
  -2   0   2   80.70    1.59
  -2   0   3   49.13    0.97
  -2   0   4   64.55    1.33
  -2   0   5   80.84    2.84
  -2   0   6   59.22    2.54
  -2   0   7   35.28    2.01
  -2   0   8   22.55    1.95
  -2   0   9   14.41    1.24
  -2   0  10   16.36    1.78
  -2   0  11   14.83    1.67
  -2   0  12   14.73    1.66
  -2   0  13   10.95    1.47
  -2   1   1   64.08    0.96
  -2   1   2   82.19    1.23
  -2   1   3   35.88    0.76
  -2   1   4   40.90    0.85
  -2   1   5   23.63    0.65
  -2   1   6   20.62    0.90
  -2   1   7   17.86    0.83
  -2   1   8   14.79    0.84
  -2   1   9   11.13    1.02
  -2   1  10   12.84    1.40
  -2   1  11   15.27    1.11
  -2   1  12   10.80    1.01
  -2   1  13    7.19    0.93
  -2   2   1   13.61    0.37
  -2   2   2   35.20    0.67
  -2   2   3   14.27    0.32
  -2   2   4   15.53    0.43
  -2   2   5   23.56    1.00
  -2   2   6   20.47    0.63
  -2   2   7   13.28    0.65
  -2   2   8    7.77    0.64
  -2   2   9    6.27    0.44
  -2   2  10    6.50    0.62
  -2   2  11    9.90    0.74
  -2   2  12    8.02    0.69
  -2   2  13    5.66    0.77
  -2   3   1   26.25    0.73
  -2   3   2   52.15    0.93
  -2   3   3   26.69    0.59
  -2   3   4   33.76    0.67
  -2   3   5   36.09    0.66
  -2   3   6   33.52    0.85
  -2   3   7   23.20    0.86
  -2   3   8   13.16    0.54
  -2   3   9    9.75    0.66
  -2   3  10   11.52    0.63
  -2   3  11   12.08    0.71
  -2   3  12   10.85    0.73
  -2   3  13    8.02    0.69
  -2   4   1   28.71    0.60
  -2   4   2   41.15    0.89
  -2   4   3   19.55    0.51
  -2   4   4   20.87    0.64
  -2   4   5   13.75    0.48
  -2   4   6   13.81    0.45
  -2   4   7   12.86    0.55
  -2   4   8    8.41    0.51
  -2   4   9    8.73    0.47
  -2   4  10    7.58    0.58
  -2   4  11   10.42    0.83
  -2   4  12    7.11    1.65
  -2   5   1    2.52    0.27
  -2   5   2    8.18    0.31
  -2   5   3    2.87    0.25
  -2   5   4    4.43    0.41
  -2   5   5   12.47    0.63
  -2   5   6   11.53    0.67
  -2   5   7    4.91    0.47
  -2   5   8    2.18    0.34
  -2   5   9    1.25    0.31
  -2   5  10    1.74    0.33
  -2   5  11    2.74    0.54
  -2   5  12    3.51    0.93
  -2   6   1   11.89    0.72
  -2   6   2   18.91    0.82
  -2   6   3    9.70    0.59
  -2   6   4   12.34    0.66
  -2   6   5    9.42    0.62
  -2   6   6    9.75    0.61
  -2   6   7    9.57    0.64
  -2   6   8    5.41    0.53
  -2   6   9    3.98    0.53
  -2   6  10    4.51    0.66
  -2   6  11    7.63    1.32
  -2   7   1    5.24    0.52
  -2   7   2    7.81    0.56
  -2   7   3    3.73    0.41
  -2   7   4    3.90    0.41
  -2   7   5    4.17    0.44
  -2   7   6    4.20    0.48
  -2   7   7    4.74    0.48
  -2   7   8    1.98    0.41
  -2   7   9    1.13    0.39
  -2   8   1    0.52    0.39
  -2   8   2    1.18    0.55
  -2   8   3    0.53    0.28
  -2   8   4    0.82    0.37
  -2   8   5    2.78    0.51
  -2   8   6    1.35    0.45
  -2   8   7    1.65    0.73
  -2   9   1    3.52    0.96
  -2   9   2    3.42    0.82
  -1  -9  -5    4.80    1.11
  -1  -9  -4    5.78    1.06
  -1  -9  -3    2.43    0.80
  -1  -9  -2    1.08    0.65
  -1  -9  -1    1.39    0.65
  -1  -9   0    1.22    0.61
  -1  -8  -7    0.62    0.54
  -1  -8  -6    0.16    0.38
  -1  -8  -5    0.74    0.48
  -1  -8  -4    0.16    0.45
  -1  -8  -3    0.01    0.36
  -1  -8  -2    0.50    0.35
  -1  -8  -1    2.39    0.55
  -1  -8   0    4.68    0.92
  -1  -7  -9    4.26    0.64
  -1  -7  -8    1.70    0.69
  -1  -7  -7    2.21    0.67
  -1  -7  -6    3.51    0.84
  -1  -7  -5    4.95    0.89
  -1  -7  -4    5.66    1.13
  -1  -7  -3    3.13    0.43
  -1  -7  -2    2.61    0.41
  -1  -7  -1    4.28    0.47
  -1  -7   0    8.85    0.84
  -1  -6 -10    6.39    0.66
  -1  -6  -9    6.64    0.72
  -1  -6  -8    2.68    0.75
  -1  -6  -7    2.99    0.84
  -1  -6  -6   10.22    1.19
  -1  -6  -5   16.90    1.06
  -1  -6  -4   19.55    0.94
  -1  -6  -3    8.98    0.67
  -1  -6  -2    6.80    0.45
  -1  -6  -1    8.79    0.55
  -1  -6   0   18.17    0.70
  -1  -5 -11    3.41    0.65
  -1  -5 -10    7.41    0.71
  -1  -5  -9   13.43    0.80
  -1  -5  -8    3.31    0.62
  -1  -5  -7    3.32    0.48
  -1  -5  -6    3.54    0.80
  -1  -5  -5    3.75    0.44
  -1  -5  -4    3.02    0.34
  -1  -5  -3    3.00    0.23
  -1  -5  -2    3.50    0.32
  -1  -5  -1   11.80    0.31
  -1  -5   0   29.74    0.92
  -1  -4 -12    5.65    0.62
  -1  -4 -11    9.78    0.92
  -1  -4 -10    8.55    0.70
  -1  -4  -9    9.58    0.69
  -1  -4  -8    4.14    0.66
  -1  -4  -7    5.97    1.10
  -1  -4  -6   16.64    1.34
  -1  -4  -5   33.70    1.01
  -1  -4  -4   41.36    1.25
  -1  -4  -3   22.83    0.67
  -1  -4  -2   17.79    0.44
  -1  -4  -1    9.37    0.54
  -1  -4   0   28.82    0.65
  -1  -3 -12    5.02    0.57
  -1  -3 -11   17.14    0.91
  -1  -3 -10   23.77    1.08
  -1  -3  -9   36.83    0.99
  -1  -3  -8   14.42    1.00
  -1  -3  -7   24.80    1.33
  -1  -3  -6   27.46    1.39
  -1  -3  -5   34.12    2.79
  -1  -3  -4   38.66    1.39
  -1  -3  -3   30.87    0.60
  -1  -3  -2   35.48    0.88
  -1  -3  -1   62.79    0.74
  -1  -3   0  130.11    2.95
  -1  -2 -12    2.66    0.43
  -1  -2 -11   14.56    0.87
  -1  -2 -10   16.90    0.76
  -1  -2  -9   25.19    1.17
  -1  -2  -8    9.05    0.54
  -1  -2  -7   10.08    0.80
  -1  -2  -6   12.34    0.48
  -1  -2  -5   19.29    0.66
  -1  -2  -4   19.06    0.70
  -1  -2  -3   11.79    0.32
  -1  -2  -2   25.32    0.37
  -1  -2  -1   39.47    1.15
  -1  -2   0   79.17    1.23
  -1  -1 -13    1.21    0.34
  -1  -1 -12    7.35    0.58
  -1  -1 -11   19.08    0.97
  -1  -1 -10   13.91    0.87
  -1  -1  -9   16.74    0.95
  -1  -1  -8   10.40    0.73
  -1  -1  -7   12.00    0.38
  -1  -1  -6   30.15    0.95
  -1  -1  -5   69.64    1.41
  -1  -1  -4   84.51    1.63
  -1  -1  -3   52.61    0.90
  -1  -1  -2   65.26    1.05
  -1  -1  -1   48.43    0.46
  -1  -1   0   80.21    1.51
  -1   0 -13    1.12    0.48
  -1   0 -12    5.92    1.56
  -1   0 -11   26.96    1.61
  -1   0 -10   36.47    1.63
  -1   0  -9   70.03    3.81
  -1   0  -8   30.62    1.35
  -1   0  -7   45.30    2.83
  -1   0  -6   40.82    0.84
  -1   0  -5   43.02    1.41
  -1   0  -4   46.84    1.54
  -1   0  -3   59.25    1.15
  -1   0  -2   82.76    1.50
  -1   0  -1  209.38    5.70
  -1   0   0  391.36    5.41
  -1   0   1  223.50    6.07
  -1   0   2   81.69    1.44
  -1   0   3    8.28    0.41
  -1   0   4    3.74    0.18
  -1   0   5  157.91    4.08
  -1   0   6   60.34    2.03
  -1   0   7   52.19    1.83
  -1   0   8   10.43    0.98
  -1   0   9   19.65    1.97
  -1   0  10   10.36    1.14
  -1   0  11   21.34    2.01
  -1   0  12    6.22    1.12
  -1   0  13    6.85    1.21
  -1   1   1    5.43    0.18
  -1   1   2   16.16    0.41
  -1   1   3   70.51    1.16
  -1   1   4   63.29    1.43
  -1   1   5   85.73    1.64
  -1   1   6   28.38    1.00
  -1   1   7   15.00    0.60
  -1   1   8    0.15    0.19
  -1   1   9    3.49    0.46
  -1   1  10    1.02    0.44
  -1   1  11    9.17    0.92
  -1   1  12    3.76    0.78
  -1   1  13    5.87    0.81
  -1   2   1   20.27    0.58
  -1   2   2    8.79    0.16
  -1   2   3   13.41    0.35
  -1   2   4    7.37    0.24
  -1   2   5   52.18    1.23
  -1   2   6   17.90    1.07
  -1   2   7   13.37    0.64
  -1   2   8    0.56    0.28
  -1   2   9    4.25    0.69
  -1   2  10    1.24    0.35
  -1   2  11    8.14    0.87
  -1   2  12    3.67    0.59
  -1   2  13    3.18    1.33
  -1   3   1   70.60    0.98
  -1   3   2   28.03    0.61
  -1   3   3   10.78    0.23
  -1   3   4    8.86    0.43
  -1   3   5   77.09    1.64
  -1   3   6   32.41    0.84
  -1   3   7   25.61    0.71
  -1   3   8    7.02    0.54
  -1   3   9   11.71    0.66
  -1   3  10    5.42    0.59
  -1   3  11   13.47    0.82
  -1   3  12    6.66    0.63
  -1   3  13    6.30    0.83
  -1   4   1    5.71    0.38
  -1   4   2    6.19    0.25
  -1   4   3   16.28    0.63
  -1   4   4   21.31    0.50
  -1   4   5   36.51    0.89
  -1   4   6   12.85    0.52
  -1   4   7    6.81    0.46
  -1   4   8    0.63    0.18
  -1   4   9    2.24    0.36
  -1   4  10    1.26    0.24
  -1   4  11    5.19    0.48
  -1   4  12    2.87    0.66
  -1   5   1   13.44    0.47
  -1   5   2    3.02    0.32
  -1   5   3    0.11    0.18
  -1   5   4    0.19    0.13
  -1   5   5   18.73    0.57
  -1   5   6    6.33    0.36
  -1   5   7    4.84    0.43
  -1   5   8    2.55    0.35
  -1   5   9    3.91    0.38
  -1   5  10    0.91    0.30
  -1   5  11    2.97    0.56
  -1   6   1    7.80    0.50
  -1   6   2    4.83    0.38
  -1   6   3    6.40    0.47
  -1   6   4    9.39    0.93
  -1   6   5   19.25    0.86
  -1   6   6    9.73    0.67
  -1   6   7    4.97    0.47
  -1   6   8    2.71    0.34
  -1   6   9    2.35    0.41
  -1   6  10    1.15    0.31
  -1   7   1    4.16    0.40
  -1   7   2    2.56    0.33
  -1   7   3    2.33    0.28
  -1   7   4    2.99    0.40
  -1   7   5    8.25    0.55
  -1   7   6    3.81    0.42
  -1   7   7    1.82    0.35
  -1   7   8    2.14    0.38
  -1   7   9    1.49    0.37
  -1   8   1    2.25    0.50
  -1   8   2    0.39    0.31
  -1   8   3    0.20    0.41
  -1   8   4    0.10    0.30
  -1   8   5    2.78    0.43
  -1   8   6    1.39    0.49
  -1   8   7    0.51    0.39
  -1   8   8    0.81    0.53
  -1   9   1    0.88    0.65
  -1   9   2    1.43    0.66
  -1   9   3    1.79    0.66
  -1   9   4    2.23    0.79
  -1   9   5    4.52    1.02
   0  -9  -4    1.36    0.57
   0  -9  -3    0.80    0.61
   0  -9  -2    0.69    0.49
   0  -9  -1    0.07    0.53
   0  -8  -6    1.03    0.69
   0  -8  -5    1.72    0.58
   0  -8  -4    0.27    0.33
   0  -8  -3    0.25    0.31
   0  -8  -2    0.90    0.29
   0  -8  -1    3.99    0.46
   0  -7  -9    2.11    0.76
   0  -7  -8    4.00    0.92
   0  -7  -7    2.59    0.53
   0  -7  -6    4.20    0.53
   0  -7  -5    9.62    0.83
   0  -7  -4    4.18    0.55
   0  -7  -3    4.04    0.60
   0  -7  -2    2.64    0.36
   0  -7  -1    5.03    0.58
   0  -6 -11    3.61    0.88
   0  -6 -10    3.28    0.63
   0  -6  -9    3.04    0.51
   0  -6  -8    5.35    0.71
   0  -6  -7    4.51    0.56
   0  -6  -6   10.32    0.84
   0  -6  -5   24.51    1.20
   0  -6  -4   10.60    0.82
   0  -6  -3    7.66    0.53
   0  -6  -2    5.95    0.57
   0  -6  -1    8.56    0.33
   0  -5 -12    0.94    0.65
   0  -5 -11    3.52    0.67
   0  -5 -10    6.86    0.60
   0  -5  -9    9.41    0.78
   0  -5  -8   15.96    0.97
   0  -5  -7    6.66    0.56
   0  -5  -6    5.80    0.51
   0  -5  -5   12.40    0.85
   0  -5  -4    2.78    0.50
   0  -5  -3    2.24    0.35
   0  -5  -2    9.80    0.30
   0  -5  -1   22.93    0.79
   0  -4 -12    3.77    0.58
   0  -4 -11    3.85    0.52
   0  -4 -10    3.54    0.43
   0  -4  -9    1.89    0.28
   0  -4  -8    5.20    0.60
   0  -4  -7    4.97    0.31
   0  -4  -6   16.51    0.77
   0  -4  -5   56.59    2.60
   0  -4  -4   23.71    0.91
   0  -4  -3    7.63    0.59
   0  -4  -2    4.30    0.32
   0  -4  -1    0.66    0.16
   0  -3 -12    5.80    0.55
   0  -3 -11   11.25    0.73
   0  -3 -10   15.69    0.67
   0  -3  -9   24.82    0.95
   0  -3  -8   36.30    1.00
   0  -3  -7   25.58    0.81
   0  -3  -6   32.74    0.87
   0  -3  -5   84.87    2.84
   0  -3  -4   31.63    0.96
   0  -3  -3   17.35    0.67
   0  -3  -2   56.00    0.97
   0  -3  -1  105.24    2.47
   0  -2 -13    6.62    0.66
   0  -2 -12    2.46    0.43
   0  -2 -11    5.39    0.51
   0  -2 -10    8.59    0.68
   0  -2  -9   13.68    0.48
   0  -2  -8   20.80    0.73
   0  -2  -7   10.81    0.32
   0  -2  -6   16.24    0.56
   0  -2  -5   77.87    1.51
   0  -2  -4   16.19    0.42
   0  -2  -3    2.61    0.16
   0  -2  -2   10.76    0.56
   0  -2  -1   12.56    0.15
   0  -1 -13   11.95    0.81
   0  -1 -12    5.11    0.51
   0  -1 -11    5.19    0.49
   0  -1 -10    4.60    0.37
   0  -1  -9    5.42    0.47
   0  -1  -8   10.14    0.20
   0  -1  -7    6.82    0.31
   0  -1  -6   22.88    0.41
   0  -1  -5  150.73    3.06
   0  -1  -4   57.50    0.91
   0  -1  -3    6.72    0.19
   0  -1  -2    1.26    0.15
   0  -1  -1   12.82    0.34
   0   0 -13   10.16    1.19
   0   0 -12    6.17    0.89
   0   0 -11   14.90    1.16
   0   0 -10   27.96    3.43
   0   0  -9   54.12    2.06
   0   0  -8   74.84    1.79
   0   0  -7   48.16    0.93
   0   0  -6   51.79    1.34
   0   0  -5  169.46    2.95
   0   0  -4   49.59    0.99
   0   0  -3   23.16    0.65
   0   0  -2  152.92    4.78
   0   0   2  156.41   10.69
   0   0   3   24.58    1.00
   0   0   4   51.22    1.80
   0   0   5  161.59    6.15
   0   0   6   50.25    3.03
   0   0   8   72.27    4.10
   0   0   9   54.86    2.73
   0   0  10   31.68    2.60
   0   0  11   16.96    1.71
   0   0  12    5.62    1.20
   0   0  13    7.62    1.49
   0   1   0  492.38    3.67
   0   1   1   13.65    0.27
   0   1   2    0.95    0.16
   0   1   3    8.81    0.25
   0   1   4   56.07    1.06
   0   1   5  146.42    6.92
   0   1   6   22.43    0.91
   0   1   7    6.08    0.74
   0   1   8    8.41    0.60
   0   1   9    5.46    0.84
   0   1  10    6.93    0.63
   0   1  11    5.39    0.71
   0   1  12    5.38    0.74
   0   1  13   10.26    1.08
   0   2   0  586.13   11.13
   0   2   1    9.27    0.15
   0   2   2   10.38    0.43
   0   2   3    3.98    0.14
   0   2   4   17.28    0.46
   0   2   5   71.72    1.43
   0   2   6   15.12    0.56
   0   2   7   10.45    0.48
   0   2   8   21.10    1.40
   0   2   9   13.52    0.81
   0   2  10    8.61    0.72
   0   2  11    5.21    0.53
   0   2  12    3.21    0.60
   0   2  13    5.26    0.82
   0   3   0  666.76    5.34
   0   3   1  104.44    2.33
   0   3   2   57.37    0.54
   0   3   3   18.40    0.38
   0   3   4   32.85    0.67
   0   3   5   84.21    2.38
   0   3   6   32.53    0.83
   0   3   7   22.93    1.05
   0   3   8   34.34    1.09
   0   3   9   24.24    1.15
   0   3  10   17.12    0.87
   0   3  11   10.84    1.01
   0   3  12    6.51    0.81
   0   3  13    7.29    1.24
   0   4   0   74.61    2.04
   0   4   1    0.48    0.20
   0   4   2    4.55    0.27
   0   4   3    8.01    0.29
   0   4   4   23.07    0.57
   0   4   5   53.03    0.95
   0   4   6   16.14    0.69
   0   4   7    5.55    0.38
   0   4   8    4.33    0.64
   0   4   9    2.57    0.31
   0   4  10    3.31    0.45
   0   4  11    4.58    1.24
   0   4  12    3.80    0.97
   0   4  13    5.94    1.01
   0   5   0  120.00    1.57
   0   5   1   24.69    0.80
   0   5   2    9.81    0.25
   0   5   3    2.36    0.26
   0   5   4    1.77    0.17
   0   5   5   12.19    0.49
   0   5   6    5.96    0.34
   0   5   7    6.14    0.44
   0   5   8   12.07    0.52
   0   5   9    9.24    0.63
   0   5  10    7.25    0.79
   0   5  11    3.79    0.70
   0   6   0   40.30    1.24
   0   6   1    9.76    0.36
   0   6   2    6.13    0.42
   0   6   3    7.14    0.39
   0   6   4   10.76    0.55
   0   6   5   22.48    0.78
   0   6   6   10.20    0.64
   0   6   7    4.47    0.46
   0   6   8    4.43    0.46
   0   6   9    2.10    0.38
   0   6  10    3.40    0.63
   0   6  11    3.82    0.92
   0   7   0   18.17    0.74
   0   7   1    5.60    0.53
   0   7   2    2.80    0.33
   0   7   3    3.23    0.41
   0   7   4    4.03    0.33
   0   7   5    9.69    0.61
   0   7   6    5.30    0.45
   0   7   7    2.76    0.38
   0   7   8    3.87    0.51
   0   7   9    2.30    0.55
   0   8   0   12.14    0.89
   0   8   1    4.00    0.41
   0   8   2    0.91    0.28
   0   8   3    0.52    0.27
   0   8   4    0.30    0.50
   0   8   5    1.83    0.39
   0   8   6    1.38    0.37
   0   8   7    0.92    0.59
   0   8   8    2.18    0.70
   0   9   0    1.80    0.48
   0   9   1    1.00    0.68
   0   9   2    0.09    0.41
   0   9   3    1.02    0.58
   0   9   4    3.08    0.83
   0   9   5    3.98    0.95
   1  -9  -5    3.36    0.90
   1  -9  -4    2.66    0.88
   1  -9  -3    1.67    0.63
   1  -9  -2    0.65    0.61
   1  -8  -6    0.69    0.55
   1  -8  -5    2.60    0.58
   1  -8  -4    0.03    0.33
   1  -8  -3    0.12    0.39
   1  -8  -2    1.17    0.44
   1  -8  -1    2.12    0.53
   1  -7  -9    1.69    0.65
   1  -7  -8    1.87    0.88
   1  -7  -7    2.38    0.80
   1  -7  -6    3.54    0.60
   1  -7  -5    7.10    0.76
   1  -7  -4    2.86    0.61
   1  -7  -3    2.56    0.36
   1  -7  -2    2.67    0.40
   1  -7  -1    4.21    0.38
   1  -6 -11    3.60    0.89
   1  -6 -10    1.26    0.56
   1  -6  -9    2.93    0.91
   1  -6  -8    2.70    0.48
   1  -6  -7    4.52    0.47
   1  -6  -6    9.43    0.64
   1  -6  -5   19.74    0.96
   1  -6  -4    9.95    0.66
   1  -6  -3    7.21    0.55
   1  -6  -2    5.65    0.52
   1  -6  -1    8.20    0.71
   1  -5 -12    1.19    0.57
   1  -5 -11    2.27    0.79
   1  -5 -10    1.60    0.46
   1  -5  -9    3.91    0.51
   1  -5  -8    2.58    0.52
   1  -5  -7    4.78    0.44
   1  -5  -6    4.42    0.42
   1  -5  -5   16.99    0.75
   1  -5  -4    0.03    0.20
   1  -5  -3    0.10    0.20
   1  -5  -2    3.07    0.60
   1  -5  -1   13.38    0.50
   1  -4 -13    4.42    0.99
   1  -4 -12    3.07    0.53
   1  -4 -11    4.92    0.57
   1  -4 -10    0.83    0.24
   1  -4  -9    2.09    0.36
   1  -4  -8    0.62    0.17
   1  -4  -7    6.52    0.50
   1  -4  -6   14.26    0.72
   1  -4  -5   38.73    1.33
   1  -4  -4   23.28    0.87
   1  -4  -3   20.60    0.73
   1  -4  -2    8.00    0.48
   1  -4  -1    6.16    0.38
   1  -3 -13    6.46    1.39
   1  -3 -12    6.00    0.55
   1  -3 -11   13.13    0.74
   1  -3 -10    6.18    0.54
   1  -3  -9   11.79    0.55
   1  -3  -8    8.10    0.51
   1  -3  -7   25.69    0.72
   1  -3  -6   32.78    0.85
   1  -3  -5   74.88    1.31
   1  -3  -4   10.24    0.53
   1  -3  -3   12.64    0.38
   1  -3  -2   30.11    0.84
   1  -3  -1   69.06    1.05
   1  -2 -13    4.01    0.56
   1  -2 -12    3.09    0.45
   1  -2 -11    8.04    0.63
   1  -2 -10    1.58    0.21
   1  -2  -9    5.00    0.39
   1  -2  -8    1.30    0.14
   1  -2  -7   14.42    0.55
   1  -2  -6   15.16    0.61
   1  -2  -5   52.26    1.12
   1  -2  -4    9.78    0.29
   1  -2  -3   17.33    0.38
   1  -2  -2   10.51    0.19
   1  -2  -1   21.23    0.59
   1  -1 -13    6.48    0.60
   1  -1 -12    5.20    0.60
   1  -1 -11    8.61    0.63
   1  -1 -10    0.84    0.31
   1  -1  -9    2.62    0.17
   1  -1  -8    0.49    0.19
   1  -1  -7   15.65    0.56
   1  -1  -6   28.95    1.00
   1  -1  -5   85.89    1.69
   1  -1  -4   67.36    1.33
   1  -1  -3   78.73    1.19
   1  -1  -2   19.84    0.42
   1  -1  -1    4.64    0.16
   1   0 -13    6.88    0.94
   1   0 -12    8.58    0.96
   1   0 -11   21.89    1.46
   1   0 -10   11.84    0.88
   1   0  -9   23.04    1.03
   1   0  -8   13.19    0.53
   1   0  -7   49.57    1.51
   1   0  -6   59.14    1.68
   1   0  -5  146.98    4.04
   1   0  -4    3.61    0.19
   1   0  -3   10.14    0.44
   1   0  -2   79.74    1.64
   1   0  -1  218.06    6.05
   1   0   0  376.50    5.41
   1   0   1  223.53    8.54
   1   0   2   86.57    1.30
   1   0   3   56.02    1.24
   1   0   4   43.91    1.66
   1   0   5   44.44    2.46
   1   0   6   41.45    1.92
   1   0   7   50.94    2.87
   1   0   8   26.39    1.80
   1   0   9   64.43    3.70
   1   0  10   38.50    2.36
   1   0  11   29.02    2.36
   1   0  12    5.18    1.15
   1   0  13    0.26    0.60
   1   1   0   75.00    1.23
   1   1   1   55.01    0.52
   1   1   2   72.13    1.07
   1   1   3   55.09    0.82
   1   1   4   91.19    1.80
   1   1   5   75.13    1.55
   1   1   6   33.18    2.16
   1   1   7   13.27    1.18
   1   1   8    7.44    1.23
   1   1   9   18.11    1.09
   1   1  10   13.76    1.23
   1   1  11   20.36    1.41
   1   1  12    6.13    0.77
   1   1  13    0.86    0.61
   1   2   0   72.79    0.81
   1   2   1   42.92    0.97
   1   2   2   29.48    0.34
   1   2   3   11.31    0.25
   1   2   4   19.35    0.47
   1   2   5   21.24    0.49
   1   2   6   14.65    0.44
   1   2   7   11.24    0.71
   1   2   8    6.04    0.57
   1   2   9   25.32    1.18
   1   2  10   18.25    1.12
   1   2  11   13.07    1.53
   1   2  12    1.78    1.05
   1   2  13    0.02    0.57
   1   3   0  128.57    2.39
   1   3   1   64.21    0.63
   1   3   2   37.27    0.76
   1   3   3   28.69    0.62
   1   3   4   38.21    0.78
   1   3   5   36.47    0.78
   1   3   6   27.34    0.66
   1   3   7   22.91    0.68
   1   3   8   11.77    0.65
   1   3   9   37.58    1.61
   1   3  10   25.64    1.54
   1   3  11   17.74    1.29
   1   3  12    4.25    0.76
   1   3  13    0.19    0.51
   1   4   0   24.43    0.51
   1   4   1   11.69    0.53
   1   4   2   19.68    0.38
   1   4   3   25.98    0.63
   1   4   4   43.54    0.90
   1   4   5   36.74    0.90
   1   4   6   17.67    0.55
   1   4   7    6.82    0.48
   1   4   8    2.36    0.45
   1   4   9   11.45    1.07
   1   4  10    9.46    0.86
   1   4  11   10.03    0.99
   1   4  12    5.61    0.81
   1   5   0   28.41    0.73
   1   5   1   13.36    0.37
   1   5   2    4.09    0.31
   1   5   3    1.78    0.17
   1   5   4    3.43    0.24
   1   5   5    3.28    0.21
   1   5   6    3.24    0.25
   1   5   7    3.57    0.33
   1   5   8    1.95    0.40
   1   5   9   14.26    1.97
   1   5  10    9.29    0.91
   1   5  11    4.04    0.92
   1   6   0   16.55    0.67
   1   6   1    9.27    0.45
   1   6   2    8.65    0.41
   1   6   3   10.52    0.44
   1   6   4   20.08    0.63
   1   6   5   16.95    0.61
   1   6   6   10.35    0.50
   1   6   7    4.38    0.46
   1   6   8    2.02    0.36
   1   6   9    7.34    0.71
   1   6  10    6.28    0.77
   1   6  11    5.61    1.08
   1   7   0    8.69    0.64
   1   7   1    5.06    0.40
   1   7   2    3.78    0.39
   1   7   3    3.63    0.31
   1   7   4    7.27    0.48
   1   7   5    5.94    0.41
   1   7   6    3.93    0.53
   1   7   7    1.78    0.60
   1   7   8    1.11    0.61
   1   8   0    4.01    0.45
   1   8   1    1.52    0.36
   1   8   2    0.33    0.23
   1   8   3    0.24    0.26
   1   8   4    0.56    0.25
   1   8   5    0.58    0.44
   1   8   6    1.67    0.94
   1   9   0    1.72    0.70
   1   9   1    0.84    0.34
   1   9   2    1.62    0.41
   1   9   3    2.51    0.45
   1   9   4    3.96    0.93
   2  -8  -6    1.86    0.52
   2  -8  -5    0.88    0.57
   2  -8  -4    0.14    0.33
   2  -8  -3    0.43    0.53
   2  -8  -2    1.48    0.50
   2  -8  -1    0.58    0.38
   2  -7  -8    3.67    1.01
   2  -7  -7    4.81    0.68
   2  -7  -6    3.46    0.65
   2  -7  -5    3.36    0.60
   2  -7  -4    4.30    0.63
   2  -7  -3    4.52    0.69
   2  -7  -2    7.02    0.82
   2  -7  -1    4.24    0.57
   2  -6 -11    6.69    1.28
   2  -6 -10    6.64    1.12
   2  -6  -9    4.19    0.91
   2  -6  -8    4.91    0.69
   2  -6  -7    9.02    0.86
   2  -6  -6    8.43    0.79
   2  -6  -5    8.49    0.84
   2  -6  -4   11.79    1.15
   2  -6  -3   11.13    0.92
   2  -6  -2   17.28    0.82
   2  -6  -1   11.14    0.55
   2  -5 -11    3.40    0.79
   2  -5 -10    2.58    0.79
   2  -5  -9    1.51    0.64
   2  -5  -8    1.34    0.26
   2  -5  -7    4.78    0.46
   2  -5  -6    8.65    0.61
   2  -5  -5    9.37    0.56
   2  -5  -4    3.45    0.36
   2  -5  -3    2.55    0.27
   2  -5  -2    8.79    0.37
   2  -5  -1    2.14    0.25
   2  -4 -12    7.99    1.73
   2  -4 -11   10.20    0.98
   2  -4 -10    8.41    0.85
   2  -4  -9    7.38    0.44
   2  -4  -8    7.96    0.52
   2  -4  -7   13.71    0.90
   2  -4  -6   15.06    0.69
   2  -4  -5   12.42    0.53
   2  -4  -4   22.37    0.67
   2  -4  -3   19.21    0.81
   2  -4  -2   41.77    1.05
   2  -4  -1   25.53    0.51
   2  -3 -13    7.26    0.85
   2  -3 -12   10.78    0.86
   2  -3 -11   14.09    0.89
   2  -3 -10   12.47    0.64
   2  -3  -9   10.80    0.58
   2  -3  -8   13.18    0.50
   2  -3  -7   23.09    0.81
   2  -3  -6   32.30    1.04
   2  -3  -5   33.89    0.73
   2  -3  -4   31.13    0.75
   2  -3  -3   27.04    0.93
   2  -3  -2   51.60    0.95
   2  -3  -1   26.89    0.74
   2  -2 -13    6.13    0.80
   2  -2 -12    8.55    0.65
   2  -2 -11    9.13    0.64
   2  -2 -10    9.17    0.60
   2  -2  -9    5.99    0.41
   2  -2  -8    8.22    0.48
   2  -2  -7   12.05    0.48
   2  -2  -6   17.81    0.51
   2  -2  -5   18.32    0.79
   2  -2  -4   14.30    0.44
   2  -2  -3   11.95    0.38
   2  -2  -2   35.54    0.94
   2  -2  -1   11.57    0.35
   2  -1 -13    6.47    0.63
   2  -1 -12   12.38    0.76
   2  -1 -11   14.26    0.95
   2  -1 -10   13.01    0.57
   2  -1  -9   11.87    0.59
   2  -1  -8   13.65    0.45
   2  -1  -7   16.53    0.61
   2  -1  -6   18.93    0.66
   2  -1  -5   26.12    0.59
   2  -1  -4   40.75    1.45
   2  -1  -3   35.80    0.83
   2  -1  -2   86.55    1.50
   2  -1  -1   58.54    1.12
   2   0 -13   12.80    1.10
   2   0 -12   14.51    1.18
   2   0 -11   15.17    1.19
   2   0 -10   19.55    0.99
   2   0  -9   16.20    0.69
   2   0  -8   22.24    1.05
   2   0  -7   32.99    2.44
   2   0  -6   51.69    1.64
   2   0  -5   71.15    2.73
   2   0  -4   62.39    2.02
   2   0  -3   43.96    1.15
   2   0  -2   79.97    1.81
   2   0  -1   38.28    0.94
   2   0   0   81.89    1.96
   2   0   1    4.60    0.23
   2   0   2   18.27    0.62
   2   0   3   20.77    0.62
   2   0   4  125.64    2.49
   2   0   5   66.17    1.67
   2   0   6   12.43    0.57
   2   0   7    8.74    0.40
   2   0   9   33.02    2.37
   2   0  10   13.51    1.69
   2   0  11    4.42    0.95
   2   0  12    2.18    0.90
   2   1   0   69.83    0.91
   2   1   1   20.45    0.49
   2   1   2   22.23    0.45
   2   1   3    5.78    0.21
   2   1   4  102.35    2.15
   2   1   5   51.94    0.98
   2   1   6    9.20    0.19
   2   1   7    2.40    0.22
   2   1   8    1.49    0.77
   2   1   9   23.80    1.63
   2   1  10   10.08    0.87
   2   1  11    4.25    0.74
   2   1  12    4.90    0.74
   2   2   0   17.61    0.64
   2   2   1    1.55    0.19
   2   2   2    4.96    0.20
   2   2   3    1.06    0.20
   2   2   4   44.11    1.13
   2   2   5   20.34    0.40
   2   2   6    3.44    0.21
   2   2   7    2.63    0.15
   2   2   8    5.40    0.50
   2   2   9   17.48    1.11
   2   2  10    6.30    0.83
   2   2  11    2.29    0.52
   2   2  12    1.17    0.47
   2   3   0   33.97    0.60
   2   3   1    8.83    0.31
   2   3   2   18.19    0.57
   2   3   3    9.61    0.28
   2   3   4   66.66    1.20
   2   3   5   36.85    0.81
   2   3   6   12.21    0.37
   2   3   7    7.56    0.44
   2   3   8    3.33    0.35
   2   3   9   22.10    1.44
   2   3  10   12.14    1.03
   2   3  11    5.94    0.82
   2   3  12    2.69    0.73
   2   4   0   22.93    0.51
   2   4   1    9.92    0.29
   2   4   2   15.70    0.42
   2   4   3    7.05    0.31
   2   4   4   42.95    0.99
   2   4   5   25.75    0.74
   2   4   6    9.52    0.43
   2   4   7    3.32    0.38
   2   4   8    0.11    0.21
   2   4   9   13.04    1.04
   2   4  10    6.50    1.17
   2   4  11    5.36    0.89
   2   4  12    2.94    0.88
   2   5   0    3.32    0.16
   2   5   1    0.14    0.13
   2   5   2    0.39    0.13
   2   5   3    1.35    0.20
   2   5   4    8.86    0.36
   2   5   5    3.44    0.25
   2   5   6    0.81    0.34
   2   5   7    1.37    0.54
   2   5   8    3.31    0.38
   2   5   9    5.53    0.58
   2   5  10    3.60    0.54
   2   5  11    0.80    0.41
   2   6   0    9.74    0.50
   2   6   1    6.88    0.43
   2   6   2    9.24    0.44
   2   6   3    5.74    0.40
   2   6   4   19.83    0.62
   2   6   5   12.30    0.49
   2   6   6    6.63    0.51
   2   6   7    2.95    0.35
   2   6   8    0.34    0.41
   2   6   9    6.87    1.20
   2   7   0    3.02    0.42
   2   7   1    3.01    0.47
   2   7   2    3.58    0.82
   2   7   3    2.03    0.48
   2   7   4    6.86    0.51
   2   7   5    4.61    0.73
   2   7   6    2.61    0.57
   2   7   7    1.99    0.74
   2   7   8    0.73    0.47
   2   8   0    0.60    0.26
   2   8   1    0.13    0.28
   2   8   2    0.05    0.25
   2   8   3    0.03    0.23
   2   8   4    0.99    0.32
   2   8   5    0.80    0.38
   2   9   1    1.97    0.68
   2   9   2    2.16    0.81
   2   9   3    2.44    0.58
   3  -8  -6    0.01    0.57
   3  -8  -5    2.00    0.83
   3  -8  -4    1.59    0.76
   3  -8  -3    0.83    0.44
   3  -8  -2    1.81    0.47
   3  -8  -1    1.02    0.50
   3  -7  -7    6.76    1.37
   3  -7  -6    1.53    0.50
   3  -7  -5    2.03    0.54
   3  -7  -4    2.97    0.58
   3  -7  -3    3.62    0.63
   3  -7  -2    8.48    1.35
   3  -7  -1    5.77    0.71
   3  -6  -9    5.08    1.11
   3  -6  -8    6.48    0.79
   3  -6  -7   16.48    1.42
   3  -6  -6    3.18    0.55
   3  -6  -5    3.98    0.67
   3  -6  -4    7.52    0.81
   3  -6  -3    9.44    0.95
   3  -6  -2   21.43    1.61
   3  -6  -1   14.03    0.82
   3  -5 -11    0.80    0.55
   3  -5 -10    2.15    0.75
   3  -5  -9    2.78    0.68
   3  -5  -8    2.42    0.57
   3  -5  -7   14.14    1.03
   3  -5  -6    2.24    0.48
   3  -5  -5    3.76    0.57
   3  -5  -4    3.64    0.57
   3  -5  -3    4.38    0.63
   3  -5  -2   12.20    0.76
   3  -5  -1    6.73    0.60
   3  -4 -11    4.21    0.84
   3  -4 -10    8.63    1.21
   3  -4  -9    9.31    0.66
   3  -4  -8    8.47    0.58
   3  -4  -7   32.01    1.28
   3  -4  -6    3.19    0.33
   3  -4  -5    5.61    0.40
   3  -4  -4    7.71    0.51
   3  -4  -3   16.87    0.69
   3  -4  -2   58.25    1.25
   3  -4  -1   28.58    0.70
   3  -3 -13    3.33    0.89
   3  -3 -12   10.11    0.93
   3  -3 -11    6.89    0.62
   3  -3 -10    8.28    0.54
   3  -3  -9   10.13    0.53
   3  -3  -8   11.20    0.64
   3  -3  -7   56.85    1.38
   3  -3  -6   12.94    0.56
   3  -3  -5   19.58    0.66
   3  -3  -4   18.90    0.53
   3  -3  -3   32.53    1.25
   3  -3  -2   89.90    1.76
   3  -3  -1   45.04    0.96
   3  -2 -13    0.70    0.36
   3  -2 -12    6.13    0.74
   3  -2 -11    3.81    0.38
   3  -2 -10    4.72    0.38
   3  -2  -9    4.99    0.39
   3  -2  -8    5.89    0.35
   3  -2  -7   49.40    1.45
   3  -2  -6    4.36    0.31
   3  -2  -5    6.54    0.35
   3  -2  -4    5.63    0.31
   3  -2  -3   16.23    0.57
   3  -2  -2   78.44    1.91
   3  -2  -1   21.30    0.94
   3  -1 -13    0.95    0.35
   3  -1 -12    8.82    0.65
   3  -1 -11   10.49    0.70
   3  -1 -10   12.96    0.57
   3  -1  -9   12.73    0.54
   3  -1  -8   11.54    0.56
   3  -1  -7   67.01    1.39
   3  -1  -6    4.92    0.37
   3  -1  -5    7.38    0.52
   3  -1  -4    9.43    0.68
   3  -1  -3   29.52    0.90
   3  -1  -2  166.03    3.48
   3  -1  -1   60.24    1.19
   3   0 -13    3.99    1.02
   3   0 -12   11.96    1.51
   3   0 -11    8.44    0.83
   3   0 -10    8.99    0.68
   3   0  -9   12.37    1.00
   3   0  -8   14.78    0.81
   3   0  -7   95.51    3.18
   3   0  -6   22.41    1.03
   3   0  -5   30.69    1.93
   3   0  -4   28.42    1.66
   3   0  -3   52.76    3.37
   3   0  -2  172.43    4.89
   3   0  -1   80.48    2.66
   3   0   0   73.14    1.89
   3   0   1   57.87    2.14
   3   0   2   52.67    1.23
   3   0   3   65.59    2.81
   3   0   4   97.56    5.94
   3   0   5   45.48    2.31
   3   0   6   29.03    0.98
   3   0   7   26.09    2.19
   3   0   8   21.45    1.66
   3   0   9   11.90    1.58
   3   0  10    6.53    1.05
   3   0  11    8.66    1.39
   3   1   0   45.50    1.17
   3   1   1   21.33    0.43
   3   1   2   24.14    0.78
   3   1   3   23.07    0.54
   3   1   4   33.76    0.77
   3   1   5   14.94    0.42
   3   1   6   13.38    0.50
   3   1   7   11.98    0.54
   3   1   8   13.95    1.16
   3   1   9   14.35    1.03
   3   1  10    5.47    0.81
   3   1  11    6.26    0.84
   3   2   0   17.56    0.55
   3   2   1   13.58    0.59
   3   2   2   14.29    0.41
   3   2   3   17.22    0.59
   3   2   4   31.25    1.11
   3   2   5   15.03    0.52
   3   2   6    9.63    0.29
   3   2   7    9.86    0.71
   3   2   8   11.51    0.86
   3   2   9    6.30    0.80
   3   2  10    2.95    0.61
   3   2  11    2.83    0.62
   3   3   0   42.30    1.71
   3   3   1   28.40    0.70
   3   3   2   26.27    0.81
   3   3   3   31.08    1.04
   3   3   4   44.91    1.34
   3   3   5   26.13    0.83
   3   3   6   17.17    0.73
   3   3   7   14.18    0.67
   3   3   8   14.40    0.88
   3   3   9   11.16    0.96
   3   3  10    5.56    1.00
   3   3  11    5.38    0.73
   3   4   0   25.10    0.62
   3   4   1   14.15    0.60
   3   4   2   13.09    0.47
   3   4   3   12.35    0.53
   3   4   4   15.95    0.75
   3   4   5   11.30    0.58
   3   4   6    7.90    0.58
   3   4   7    6.63    0.71
   3   4   8    9.08    0.60
   3   4   9    8.12    0.89
   3   4  10    4.67    0.73
   3   4  11    3.89    0.73
   3   5   0    6.80    0.60
   3   5   1    6.35    0.41
   3   5   2    3.07    0.31
   3   5   3    5.08    0.37
   3   5   4   11.92    0.65
   3   5   5    6.72    0.44
   3   5   6    2.92    0.44
   3   5   7    5.17    0.45
   3   5   8    5.92    0.62
   3   5   9    2.79    0.53
   3   5  10    1.11    0.49
   3   6   0   13.82    0.80
   3   6   1   10.01    0.73
   3   6   2    8.86    0.61
   3   6   3    7.65    0.63
   3   6   4    9.16    0.57
   3   6   5    8.32    0.68
   3   6   6    5.42    0.76
   3   6   7    4.47    0.56
   3   6   8    5.02    0.64
   3   7   0    5.00    0.61
   3   7   1    4.07    0.51
   3   7   2    3.44    0.49
   3   7   3    3.34    0.42
   3   7   4    5.36    0.57
   3   7   5    5.03    1.28
   3   7   6    2.54    0.55
   3   7   7    2.28    0.84
   3   7   8    2.34    0.82
   3   8   0    1.65    0.50
   3   8   1    0.51    0.42
   3   8   2    0.37    0.28
   3   8   3    0.77    0.42
   3   8   4    2.06    0.68
   3   8   5    1.64    0.74
   4  -7  -7    2.79    0.79
   4  -7  -6    2.92    0.84
   4  -7  -5    1.82    0.77
   4  -7  -4    1.60    0.82
   4  -7  -3    4.03    0.83
   4  -7  -2    2.71    0.68
   4  -7  -1    2.96    0.60
   4  -6  -8    3.52    0.59
   4  -6  -7    5.88    1.00
   4  -6  -6    3.65    0.66
   4  -6  -5    2.24    0.49
   4  -6  -4    0.89    0.46
   4  -6  -3    3.50    0.58
   4  -6  -2    5.75    0.79
   4  -6  -1    8.30    0.86
   4  -5 -10    0.69    0.71
   4  -5  -9    0.47    0.35
   4  -5  -8    1.11    0.63
   4  -5  -7    6.69    1.29
   4  -5  -6   10.07    0.90
   4  -5  -5    6.03    0.79
   4  -5  -4    3.50    0.57
   4  -5  -3    4.27    0.66
   4  -5  -2    2.17    0.49
   4  -5  -1    4.08    0.66
   4  -4 -11    1.89    0.83
   4  -4 -10    2.66    0.48
   4  -4  -9    4.52    1.15
   4  -4  -8    4.94    0.66
   4  -4  -7   11.52    1.03
   4  -4  -6    4.39    0.90
   4  -4  -5    1.52    0.44
   4  -4  -4    0.53    0.35
   4  -4  -3    3.59    0.92
   4  -4  -2    9.27    0.83
   4  -4  -1   10.94    0.65
   4  -3 -11    2.02    0.65
   4  -3 -10    3.75    0.65
   4  -3  -9    6.52    1.02
   4  -3  -8    9.34    0.89
   4  -3  -7   25.02    1.80
   4  -3  -6   24.06    2.70
   4  -3  -5   17.35    0.78
   4  -3  -4   13.00    0.55
   4  -3  -3   15.31    1.06
   4  -3  -2   16.67    0.66
   4  -3  -1   22.70    1.27
   4  -2 -11    0.48    0.51
   4  -2 -10    1.15    0.25
   4  -2  -9    2.97    0.38
   4  -2  -8    4.97    0.37
   4  -2  -7   21.61    0.90
   4  -2  -6   16.15    0.89
   4  -2  -5    9.51    0.51
   4  -2  -4    5.80    0.43
   4  -2  -3    5.69    0.41
   4  -2  -2    6.04    0.61
   4  -2  -1   10.33    0.87
   4  -1 -13    2.18    0.48
   4  -1 -12    5.73    0.84
   4  -1 -11    1.02    0.33
   4  -1 -10    3.47    0.37
   4  -1  -9    8.14    0.50
   4  -1  -8    9.62    0.58
   4  -1  -7   25.73    1.94
   4  -1  -6    9.71    0.76
   4  -1  -4    1.23    0.41
   4  -1  -3    5.05    0.29
   4  -1  -2   11.89    0.88
   4  -1  -1   19.84    1.04
   4   0 -12   14.61    1.61
   4   0 -11    3.28    0.60
   4   0 -10    3.95    0.49
   4   0  -9    8.48    1.11
   4   0  -8   16.61    1.43
   4   0  -7   43.57    2.58
   4   0  -6   46.97    2.73
   4   0  -5   39.69    2.26
   4   0  -4   35.67    1.36
   4   0  -3   29.05    1.18
   4   0  -2   24.74    0.99
   4   0  -1   36.15    2.12
   4   0   0   41.62    2.46
   4   0   1   17.57    1.28
   4   0   2   68.18    3.46
   4   0   3   61.78    2.38
   4   0   4   57.55    4.55
   4   0   5   28.44    1.17
   4   0   6    7.67    0.71
   4   0   7   26.29    2.02
   4   0   8   13.00    1.57
   4   0   9   17.72    1.80
   4   0  10    4.89    1.11
   4   1   0   16.91    0.50
   4   1   1    2.90    0.23
   4   1   2   18.87    0.56
   4   1   3    9.02    0.77
   4   1   4    5.54    0.37
   4   1   5    2.39    0.30
   4   1   6    0.15    0.21
   4   1   7   14.82    1.20
   4   1   8   10.44    0.95
   4   1   9   15.60    1.25
   4   1  10    3.32    0.64
   4   2   0   13.31    0.52
   4   2   1    1.65    0.15
   4   2   2   26.20    0.98
   4   2   3   16.83    0.55
   4   2   4   14.85    0.78
   4   2   5    6.53    0.41
   4   2   6    1.14    0.35
   4   2   7   13.99    0.98
   4   2   8    7.22    0.81
   4   2   9    8.11    1.41
   4   2  10    2.37    0.56
   4   3   0   21.87    1.12
   4   3   1    9.39    0.58
   4   3   2   34.94    1.18
   4   3   3   27.93    1.12
   4   3   4   23.67    0.90
   4   3   5   13.33    0.68
   4   3   6    3.97    0.40
   4   3   7   19.82    1.01
   4   3   8   11.02    1.01
   4   3   9   11.67    1.10
   4   3  10    4.29    0.68
   4   4   0    8.72    0.59
   4   4   1    2.21    0.31
   4   4   2   12.33    0.72
   4   4   3    4.85    0.40
   4   4   4    2.71    0.39
   4   4   5    0.96    0.20
   4   4   6    0.11    0.25
   4   4   7    9.93    0.77
   4   4   8    7.46    0.90
   4   4   9    7.20    0.84
   4   4  10    3.54    1.03
   4   5   0    3.90    0.34
   4   5   1    0.43    0.27
   4   5   2   12.30    0.89
   4   5   3   11.06    0.93
   4   5   4    8.14    0.71
   4   5   5    4.28    0.67
   4   5   6    0.89    0.35
   4   5   7    5.64    0.76
   4   5   8    3.01    0.79
   4   5   9    2.34    0.91
   4   6   0    7.17    0.81
   4   6   1    2.12    0.35
   4   6   2    8.42    0.67
   4   6   3    4.39    0.47
   4   6   4    2.31    0.41
   4   6   5    1.48    0.34
   4   6   6    0.68    0.42
   4   6   7    4.78    0.64
   4   6   8    4.45    0.99
   4   7   0    1.63    0.49
   4   7   1    1.02    0.42
   4   7   2    4.23    0.70
   4   7   3    3.74    0.51
   4   7   4    2.33    0.41
   4   7   5    1.69    0.51
   4   7   6    0.64    0.48
   4   8   0    0.74    0.58
   4   8   1    0.17    0.60
   4   8   2    2.26    0.76
   5  -7  -1    1.29    0.72
   5  -6  -6    5.21    1.19
   5  -6  -5    2.20    0.50
   5  -6  -4    1.54    0.57
   5  -6  -3    6.13    0.80
   5  -6  -2    6.05    0.79
   5  -6  -1    4.75    0.75
   5  -5  -9    2.01    0.78
   5  -5  -8    2.72    0.88
   5  -5  -7    2.52    0.60
   5  -5  -6    8.54    0.92
   5  -5  -5    6.03    1.27
   5  -5  -4    2.71    0.55
   5  -5  -3    7.09    1.14
   5  -5  -2    3.00    0.61
   5  -5  -1    0.92    0.39
   5  -4 -10    3.84    0.95
   5  -4  -9    3.27    0.62
   5  -4  -8    2.97    0.60
   5  -4  -7    2.70    0.81
   5  -4  -6    5.53    0.74
   5  -4  -5    2.17    0.48
   5  -4  -4    0.24    0.41
   5  -4  -3    5.95    0.76
   5  -4  -2    7.27    0.77
   5  -4  -1    5.80    0.74
   5  -3 -11   11.42    1.57
   5  -3 -10    6.34    0.78
   5  -3  -9    5.48    0.74
   5  -3  -8    7.73    0.86
   5  -3  -7    9.32    0.93
   5  -3  -6   22.31    1.39
   5  -3  -5   15.84    1.24
   5  -3  -4    8.36    0.76
   5  -3  -3   21.12    1.38
   5  -3  -2   17.67    1.17
   5  -3  -1    8.11    0.82
   5  -2 -11    8.95    0.91
   5  -2 -10    3.80    0.64
   5  -2  -9    2.16    0.50
   5  -2  -8    3.59    0.63
   5  -2  -7    5.53    0.70
   5  -2  -6   13.88    1.13
   5  -2  -5    8.84    0.77
   5  -2  -4    2.48    0.58
   5  -2  -3   14.70    1.00
   5  -2  -2   11.72    0.96
   5  -2  -1    4.03    0.59
   5  -1 -11   11.53    1.51
   5  -1 -10    7.05    0.85
   5  -1  -9    5.18    0.62
   5  -1  -8    3.36    0.43
   5  -1  -7    3.81    0.59
   5  -1  -6   10.35    0.83
   5  -1  -5    3.42    0.64
   5  -1  -4    0.25    0.27
   5  -1  -3    9.99    0.89
   5  -1  -2   17.32    1.11
   5  -1  -1    5.84    0.70
   5   0 -12    8.82    1.30
   5   0 -11   17.07    1.30
   5   0 -10    9.57    1.30
   5   0  -9    7.69    1.14
   5   0  -8    6.80    1.04
   5   0  -7   17.42    1.60
   5   0  -6   43.15    2.91
   5   0  -5   34.49    2.30
   5   0  -4   16.36    1.66
   5   0  -3   36.60    2.33
   5   0  -2   32.45    2.25
   5   0  -1    9.35    1.05
   5   0   0    9.28    1.39
   5   0   1    2.34    0.54
   5   0   2   79.46    3.97
   5   0   3   37.28    2.16
   5   0   4   22.81    1.34
   5   0   5    9.71    0.79
   5   0   6    5.45    0.98
   5   0   7    8.14    1.38
   5   0   8    4.07    0.93
   5   0   9    2.29    0.81
   5   1   0    7.04    0.86
   5   1   1    3.80    0.59
   5   1   2   30.27    1.42
   5   1   3    5.16    0.59
   5   1   4    1.77    0.34
   5   1   5    1.79    0.21
   5   1   6    4.24    0.67
   5   1   7    6.19    0.90
   5   1   8    5.99    0.79
   5   1   9    3.71    0.69
   5   2   0    2.94    0.57
   5   2   1    0.85    0.41
   5   2   2   33.68    1.64
   5   2   3    8.73    0.60
   5   2   4    3.97    0.43
   5   2   5    2.20    0.31
   5   2   6    1.89    0.37
   5   2   7    3.75    0.62
   5   2   8    2.63    0.62
   5   2   9    2.74    0.96
   5   3   0    8.02    0.78
   5   3   1    1.26    0.29
   5   3   2   41.94    1.45
   5   3   3   16.82    0.87
   5   3   4   10.29    0.69
   5   3   5    5.00    0.49
   5   3   6    3.72    0.49
   5   3   7    6.37    0.84
   5   3   8    4.83    0.74
   5   3   9    2.68    0.82
   5   4   0    6.14    0.97
   5   4   1    2.23    0.32
   5   4   2   15.33    0.84
   5   4   3    2.46    0.35
   5   4   4    0.92    0.26
   5   4   5    1.59    0.36
   5   4   6    1.72    0.35
   5   4   7    3.51    0.61
   5   4   8    4.51    0.98
   5   4   9    3.15    0.88
   5   5   0    0.78    0.44
   5   5   1    0.05    0.31
   5   5   2   12.79    1.05
   5   5   3    7.03    0.75
   5   5   4    4.27    1.00
   5   5   5    1.95    0.54
   5   5   6    0.62    0.48
   5   5   7    0.62    0.53
   5   6   0    5.41    0.74
   5   6   1    1.01    0.45
   5   6   2    7.22    0.85
   5   6   3    3.18    0.57
   5   6   4    1.87    0.71
   5   6   5    1.08    0.39
   5   6   6    1.47    0.69
   5   7   0    0.59    0.55
   5   7   1    1.35    0.76
   5   7   2    4.10    0.88
   5   7   4    1.40    0.62
   6  -5  -4    1.59    0.51
   6  -5  -3    4.41    0.65
   6  -5  -2    2.11    0.61
   6  -5  -1    0.55    0.36
   6  -4  -7    4.71    1.05
   6  -4  -6    2.88    0.68
   6  -4  -5    3.27    0.64
   6  -4  -4    4.26    0.70
   6  -4  -3    8.78    0.99
   6  -4  -2    9.49    0.95
   6  -4  -1   10.64    1.01
   6  -3  -9    6.70    1.23
   6  -3  -8    3.65    0.68
   6  -3  -7    6.67    0.85
   6  -3  -6    6.49    1.28
   6  -3  -5    8.66    1.40
   6  -3  -4    9.11    1.08
   6  -3  -3   15.68    1.20
   6  -3  -2    9.91    0.96
   6  -3  -1    9.64    0.91
   6  -2  -9    5.11    0.83
   6  -2  -8    2.53    1.97
   6  -2  -7    4.09    0.68
   6  -2  -6    2.61    0.55
   6  -2  -5    4.01    0.68
   6  -2  -4    5.90    0.73
   6  -2  -3   11.11    1.04
   6  -2  -2    7.31    0.81
   6  -2  -1    4.91    0.74
   6  -1 -10    4.12    0.68
   6  -1  -9    9.14    1.00
   6  -1  -8    5.78    0.74
   6  -1  -7    7.69    0.85
   6  -1  -6    3.48    0.64
   6  -1  -5    4.77    1.00
   6  -1  -4    7.80    0.87
   6  -1  -3   14.74    1.12
   6  -1  -2   13.89    0.85
   6  -1  -1   14.99    2.12
   6   0 -11    7.25    1.21
   6   0 -10    4.23    0.87
   6   0  -9    8.31    1.45
   6   0  -8    4.66    1.06
   6   0  -7   10.08    1.41
   6   0  -6    8.61    1.20
   6   0  -5   10.10    1.43
   6   0  -4   15.71    1.64
   6   0  -3   26.64    2.21
   6   0  -2   12.94    1.48
   6   0  -1    8.92    1.21
   6   0   0    7.02    1.07
   6   0   1   12.10    1.45
   6   0   2   16.67    1.49
   6   0   3   13.56    1.40
   6   0   4   17.16    1.12
   6   0   5    8.01    1.24
   6   0   6    7.02    1.28
   6   0   7    3.55    0.83
   6   1   0   13.20    1.01
   6   1   1   13.39    1.02
   6   1   2    7.97    1.15
   6   1   3    6.70    0.58
   6   1   4    8.20    0.64
   6   1   5    5.00    0.72
   6   1   6    7.48    0.92
   6   1   7    6.52    0.90
   6   2   0    5.02    0.64
   6   2   1    6.27    0.76
   6   2   2    7.12    0.77
   6   2   3    5.12    0.52
   6   2   4    7.22    0.61
   6   2   5    2.53    0.40
   6   2   6    3.01    0.62
   6   2   7    3.39    0.92
   6   3   0    7.25    0.83
   6   3   1   10.10    0.71
   6   3   2   10.89    0.76
   6   3   3   11.03    0.73
   6   3   4   10.90    0.72
   6   3   5    4.63    0.57
   6   3   6    5.18    0.74
   6   3   7    4.56    1.02
   6   4   0    8.25    0.85
   6   4   1    8.33    0.89
   6   4   2    5.83    0.69
   6   4   3    5.34    0.73
   6   4   4    4.59    1.03
   6   4   5    2.64    0.49
   6   5   0    0.10    0.72
   6   5   1    1.23    0.47
   6   5   2    2.59    0.59
   6   5   3    2.57    0.57
   6   5   4    2.18    0.69
   6   5   5    0.37    0.58
   6   6   0    3.80    0.92
   6   6   1    4.56    1.02
   6   6   2    3.53    0.91
   7  -4  -1    1.95    0.81
   7  -3  -4    3.09    0.64
   7  -3  -3    1.66    0.53
   7  -3  -2    4.99    0.77
   7  -3  -1    3.33    0.66
   7  -2  -5    1.82    0.59
   7  -2  -4    0.92    0.44
   7  -2  -3    0.62    0.39
   7  -2  -2    3.22    0.76
   7  -2  -1    1.07    0.48
   7  -1  -6    3.33    0.67
   7  -1  -5    3.77    0.67
   7  -1  -4    3.06    0.52
   7  -1  -3    1.85    0.52
   7  -1  -2    5.52    0.80
   7  -1  -1    3.37    0.63
   7   0  -6    2.96    0.99
   7   0  -5    4.40    1.03
   7   0  -4    3.61    0.87
   7   0  -3    3.77    1.01
   7   0  -2    9.62    1.43
   7   0  -1    4.09    0.99
   7   0   0    9.91    0.96
   7   0   1    3.36    0.78
   7   0   2    5.41    1.09
   7   0   3    4.98    0.87
   7   0   4    7.66    1.16
   7   1   0    7.46    0.89
   7   1   1    1.80    0.50
   7   1   2    4.46    0.68
   7   1   3    2.47    0.41
   7   1   4    4.33    0.80
   7   1   5    1.53    0.62
   7   2   0    4.53    1.07
   7   2   1    0.78    0.37
   7   2   2    2.16    0.45
   7   2   3    1.95    0.38
   7   2   4    3.31    0.57
   7   2   5    1.72    0.73
   7   3   0    7.54    0.87
   7   3   1    2.75    0.55
   7   3   2    4.81    1.63
   7   3   3    2.32    0.53
   7   3   4    4.63    0.68
   7   3   5    1.60    0.73
   7   4   0    5.32    1.11
   7   4   1    2.36    0.56
   7   4   2    2.93    0.64
   7   4   3    1.78    0.69
   8   0   0    8.14    1.30
   8   0   1    5.15    1.12
   8   0   2    2.89    0.71
   8   1   1    1.86    0.65
   8   1   2    1.71    0.50
   0   0   0    0.00    0.00
;
_shelx_hkl_checksum              26662
_olex2_submission_special_instructions 'No special instructions were received'
loop_
_space_group_symop_operation_xyz
'x, y, z'
'x, -y, z'
loop_
_atom_site_label
_atom_site_type_symbol
_atom_site_fract_x
_atom_site_fract_y
_atom_site_fract_z
_atom_site_U_iso_or_equiv
_atom_site_adp_type
_atom_site_occupancy
_atom_site_site_symmetry_order
_atom_site_calc_flag
_atom_site_refinement_flags_posn
_atom_site_refinement_flags_adp
_atom_site_refinement_flags_occupancy
Co1 Co 0.00028(8) 0.0000 0.00446(7) 0.0195(3) Uani 1 2 d S T P
C6 C 0.0027(18) 0.0000 0.4467(11) 0.034(2) Uani 1 2 d S TU P
H6 H 0.1455 0.0000 0.4226 0.040 Uiso 1 2 calc RS T P
O2 O -0.2783(10) 0.0000 0.1356(5) 0.0324(14) Uani 1 2 d S T P
O1 O 0.0694(12) 0.0000 0.1988(7) 0.0260(16) Uani 1 2 d S T P
N1 N -0.0045(15) 0.3161(5) -0.0011(8) 0.0211(8) Uani 1 1 d . . .
O4 O -0.1298(13) 0.0000 0.8248(7) 0.0297(17) Uani 1 2 d S T P
C7 C -0.1271(14) 0.0000 0.2249(7) 0.0274(17) Uani 1 2 d S T P
C10 C -0.2268(10) 0.3909(8) -0.0018(7) 0.0352(14) Uani 1 1 d . . .
H10A H -0.2933 0.3456 0.0718 0.042 Uiso 1 1 calc R . .
H10B H -0.3147 0.3456 -0.0758 0.042 Uiso 1 1 calc R . .
C4 C -0.2483(14) 0.0000 0.6112(8) 0.0282(17) Uani 1 2 d S TU P
C2 C -0.3904(16) 0.0000 0.3928(10) 0.039(2) Uani 1 2 d S TU P
H2 H -0.5098 0.0000 0.3323 0.047 Uiso 1 2 calc RS T P
C5 C -0.038(2) 0.0000 0.5753(14) 0.053(4) Uani 1 2 d S TU P
H5 H 0.0804 0.0000 0.6366 0.064 Uiso 1 2 calc RS T P
C1 C -0.1751(13) 0.0000 0.3588(8) 0.0259(16) Uani 1 2 d S TU P
C8 C -0.2918(13) 0.0000 0.7501(7) 0.0327(19) Uani 1 2 d S T P
C3 C -0.4207(16) 0.0000 0.5210(10) 0.039(2) Uani 1 2 d S TU P
H3 H -0.5632 0.0000 0.5456 0.047 Uiso 1 2 calc RS T P
O3 O -0.4856(16) 0.0000 0.7733(9) 0.070(3) Uani 1 2 d S TU P
C9 C 0.0942(11) 0.3905(9) -0.1133(6) 0.0329(14) Uani 1 1 d . . .
H9A H 0.0111 0.3449 -0.1889 0.039 Uiso 1 1 calc R . .
H9B H 0.2441 0.3449 -0.1136 0.039 Uiso 1 1 calc R . .
C11 C 0.1296(12) 0.3916(8) 0.1116(6) 0.0340(14) Uani 1 1 d . . .
H11A H 0.2796 0.3461 0.1118 0.041 Uiso 1 1 calc R . .
H11B H 0.0701 0.3461 0.1872 0.041 Uiso 1 1 calc R . .
O1W O 0.3351(9) 0.0000 -0.0172(5) 0.0288(13) Uani 1 2 d DS T P
H1WA H 0.409(12) 0.0000 -0.093(3) 0.10(6) Uiso 1 2 d DS T P
H1WB H 0.4213 0.0000 0.0627 2(2) Uiso 1 2 d DS T P
loop_
_atom_site_aniso_label
_atom_site_aniso_U_11
_atom_site_aniso_U_22
_atom_site_aniso_U_33
_atom_site_aniso_U_23
_atom_site_aniso_U_13
_atom_site_aniso_U_12
Co1 0.0175(4) 0.0311(5) 0.0098(4) 0.000 0.0016(3) 0.000
C6 0.032(3) 0.036(3) 0.033(3) 0.000 0.0020(14) 0.000
O2 0.036(3) 0.046(4) 0.015(3) 0.000 0.003(2) 0.000
O1 0.021(3) 0.040(4) 0.017(3) 0.000 0.004(2) 0.000
N1 0.0225(17) 0.0228(17) 0.0178(18) -0.002(3) 0.0004(14) 0.001(3)
O4 0.034(4) 0.030(3) 0.024(4) 0.000 -0.004(3) 0.000
C7 0.031(4) 0.033(4) 0.018(4) 0.000 0.005(3) 0.000
C10 0.024(3) 0.029(3) 0.054(4) -0.005(3) 0.009(3) -0.001(2)
C4 0.028(2) 0.029(2) 0.028(2) 0.000 0.0035(13) 0.000
C2 0.038(2) 0.041(2) 0.038(2) 0.000 0.0022(14) 0.000
C5 0.052(4) 0.055(4) 0.052(4) 0.000 0.0039(14) 0.000
C1 0.026(2) 0.0268(19) 0.025(2) 0.000 0.0041(13) 0.000
C8 0.025(4) 0.058(6) 0.016(4) 0.000 0.005(3) 0.000
C3 0.038(2) 0.042(2) 0.038(2) 0.000 0.0038(14) 0.000
O3 0.066(3) 0.083(3) 0.061(3) 0.000 0.011(2) 0.000
C9 0.046(4) 0.033(3) 0.023(3) 0.000(2) 0.015(3) 0.004(3)
C11 0.049(4) 0.025(3) 0.025(3) 0.001(2) -0.015(3) 0.000(3)
O1W 0.023(3) 0.046(4) 0.018(3) 0.000 0.005(2) 0.000
loop_
_atom_type_symbol
_atom_type_description
_atom_type_scat_dispersion_real
_atom_type_scat_dispersion_imag
_atom_type_scat_source
C C 0.0033 0.0016 'International Tables Vol C Tables 4.2.6.8 and 6.1.1.4'
H H 0.0000 0.0000 'International Tables Vol C Tables 4.2.6.8 and 6.1.1.4'
Co Co 0.3494 0.9721 'International Tables Vol C Tables 4.2.6.8 and 6.1.1.4'
N N 0.0061 0.0033 'International Tables Vol C Tables 4.2.6.8 and 6.1.1.4'
O O 0.0106 0.0060 'International Tables Vol C Tables 4.2.6.8 and 6.1.1.4'
loop_
_geom_angle_atom_site_label_1
_geom_angle_atom_site_label_2
_geom_angle_atom_site_label_3
_geom_angle
_geom_angle_site_symmetry_1
_geom_angle_site_symmetry_3
O1 Co1 O2 59.2(2) . .
O1 Co1 N1 91.6(2) . 2
O1 Co1 N1 91.6(2) . .
N1 Co1 O2 90.4(2) . .
N1 Co1 O2 90.4(2) 2 .
N1 Co1 N1 176.7(4) . 2
O4 Co1 O2 109.3(3) 1_554 .
O4 Co1 O1 168.5(3) 1_554 .
O4 Co1 N1 88.4(2) 1_554 .
O4 Co1 N1 88.4(2) 1_554 2
O4 Co1 O1W 101.7(3) 1_554 .
O1W Co1 O2 149.0(2) . .
O1W Co1 O1 89.8(3) . .
O1W Co1 N1 90.4(2) . 2
O1W Co1 N1 90.4(2) . .
C5 C6 H6 121.0 . .
C1 C6 H6 121.0 . .
C1 C6 C5 117.9(9) . .
C7 O2 Co1 86.0(5) . .
C7 O1 Co1 96.2(6) . .
C10 N1 Co1 112.0(4) . .
C10 N1 C9 108.1(6) . .
C10 N1 C11 108.5(6) . .
C9 N1 Co1 111.8(4) . .
C9 N1 C11 106.9(6) . .
C11 N1 Co1 109.4(4) . .
C8 O4 Co1 149.0(7) . 1_556
O2 C7 C1 122.2(7) . .
O1 C7 O2 118.7(8) . .
O1 C7 C1 119.1(8) . .
N1 C10 C10 111.4(3) . 2_565
N1 C10 H10A 109.4 . .
N1 C10 H10B 109.4 . .
C10 C10 H10A 109.4 2_565 .
C10 C10 H10B 109.4 2_565 .
H10A C10 H10B 108.0 . .
C5 C4 C8 121.1(9) . .
C3 C4 C5 119.1(10) . .
C3 C4 C8 119.8(8) . .
C1 C2 H2 121.2 . .
C1 C2 C3 117.6(9) . .
C3 C2 H2 121.2 . .
C6 C5 H5 119.4 . .
C4 C5 C6 121.2(11) . .
C4 C5 H5 119.4 . .
C6 C1 C7 116.6(8) . .
C6 C1 C2 122.0(8) . .
C2 C1 C7 121.4(8) . .
O4 C8 C4 115.9(8) . .
O4 C8 O3 127.6(9) . .
O3 C8 C4 116.6(8) . .
C4 C3 C2 122.1(9) . .
C4 C3 H3 118.9 . .
C2 C3 H3 118.9 . .
N1 C9 C9 110.8(3) . 2_565
N1 C9 H9A 109.5 . .
N1 C9 H9B 109.5 . .
C9 C9 H9A 109.5 2_565 .
C9 C9 H9B 109.5 2_565 .
H9A C9 H9B 108.1 . .
N1 C11 C11 111.0(3) . 2_565
N1 C11 H11A 109.4 . .
N1 C11 H11B 109.4 . .
C11 C11 H11A 109.4 2_565 .
C11 C11 H11B 109.4 2_565 .
H11A C11 H11B 108.0 . .
Co1 O1W H1WA 129(4) . .
Co1 O1W H1WB 111.5(4) . .
H1WA O1W H1WB 119(4) . .
loop_
_geom_bond_atom_site_label_1
_geom_bond_atom_site_label_2
_geom_bond_distance
_geom_bond_site_symmetry_2
Co1 O2 2.295(6) .
Co1 O1 2.081(8) .
Co1 N1 2.244(4) 2
Co1 N1 2.244(4) .
Co1 O4 2.011(8) 1_554
Co1 O1W 2.076(5) .
C6 H6 0.9300 .
C6 C5 1.417(14) .
C6 C1 1.370(14) .
O2 C7 1.267(10) .
O1 C7 1.255(10) .
N1 C10 1.456(10) .
N1 C9 1.484(10) .
N1 C11 1.494(10) .
O4 Co1 2.011(8) 1_556
O4 C8 1.214(12) .
C7 C1 1.485(11) .
C10 C10 1.547(12) 2_565
C10 H10A 0.9700 .
C10 H10B 0.9700 .
C4 C5 1.371(16) .
C4 C8 1.530(11) .
C4 C3 1.362(13) .
C2 H2 0.9300 .
C2 C1 1.393(13) .
C2 C3 1.397(13) .
C5 H5 0.9300 .
C8 O3 1.229(12) .
C3 H3 0.9300 .
C9 C9 1.553(13) 2_565
C9 H9A 0.9700 .
C9 H9B 0.9700 .
C11 C11 1.538(11) 2_565
C11 H11A 0.9700 .
C11 H11B 0.9700 .
O1W H1WA 0.96(3) .
O1W H1WB 0.962(6) .
loop_
_geom_torsion_atom_site_label_1
_geom_torsion_atom_site_label_2
_geom_torsion_atom_site_label_3
_geom_torsion_atom_site_label_4
_geom_torsion
_geom_torsion_site_symmetry_1
_geom_torsion_site_symmetry_4
Co1 O2 C7 O1 0.000(1) . .
Co1 O2 C7 C1 180.000(1) . .
Co1 O1 C7 O2 0.000(1) . .
Co1 O1 C7 C1 180.000(1) . .
Co1 N1 C10 C10 178.4(2) . 2_565
Co1 N1 C9 C9 -178.6(2) . 2_565
Co1 N1 C11 C11 -179.7(2) . 2_565
Co1 O4 C8 C4 180.000(4) 1_556 .
Co1 O4 C8 O3 0.000(7) 1_556 .
O2 C7 C1 C6 180.000(2) . .
O2 C7 C1 C2 0.000(2) . .
O1 C7 C1 C6 0.000(2) . .
O1 C7 C1 C2 180.000(2) . .
C10 N1 C9 C9 57.7(5) . 2_565
C10 N1 C11 C11 -57.3(6) . 2_565
C5 C6 C1 C7 180.000(2) . .
C5 C6 C1 C2 0.000(3) . .
C5 C4 C8 O4 0.000(3) . .
C5 C4 C8 O3 180.000(4) . .
C5 C4 C3 C2 0.000(3) . .
C1 C6 C5 C4 0.000(3) . .
C1 C2 C3 C4 0.000(3) . .
C8 C4 C5 C6 180.000(3) . .
C8 C4 C3 C2 180.000(3) . .
C3 C4 C5 C6 0.000(4) . .
C3 C4 C8 O4 180.000(3) . .
C3 C4 C8 O3 0.000(4) . .
C3 C2 C1 C6 0.000(3) . .
C3 C2 C1 C7 180.000(2) . .
C9 N1 C10 C10 -58.0(5) . 2_565
C9 N1 C11 C11 59.0(5) . 2_565
C11 N1 C10 C10 57.5(6) . 2_565
C11 N1 C9 C9 -58.9(5) . 2_565
loop_
_smtbx_masks_void_nr
_smtbx_masks_void_average_x
_smtbx_masks_void_average_y
_smtbx_masks_void_average_z
_smtbx_masks_void_volume
_smtbx_masks_void_count_electrons
1 -0.144 0.500 0.501 144.9 54.3
