#------------------------------------------------------------------------------
#$Date: 2019-11-24 04:12:18 +0200 (Sun, 24 Nov 2019) $
#$Revision: 236652 $
#$URL: file:///home/coder/svn-repositories/cod/cif/8/00/03/8000379.cif $
#------------------------------------------------------------------------------
#
# This file is available in the Crystallography Open Database (COD),
# http://www.crystallography.net/
#
# All data on this site have been placed in the public domain by the
# contributors.
#
data_8000379
loop_
_publ_author_name
'Andrzejewski, Micha\/l'
'Katrusiak, Andrzej'
_publ_section_title
;
 Piezochromic Porous Metal-Organic Framework.
;
_journal_issue                   1
_journal_name_full               'The journal of physical chemistry letters'
_journal_page_first              279
_journal_page_last               284
_journal_paper_doi               10.1021/acs.jpclett.6b02458
_journal_volume                  8
_journal_year                    2017
_chemical_formula_moiety         'C14 H18 Co N2 O5'
_chemical_formula_sum            'C14 H18 Co N2 O5'
_chemical_formula_weight         353.23
_chemical_name_common            AMU1
_chemical_name_systematic
;
Co(1,4-benzenedicarboxylate)(1,4-diazabicyclo[2.2.2]octane)H2O
;
_space_group_crystal_system      triclinic
_space_group_IT_number           1
_space_group_name_Hall           'P 1'
_space_group_name_H-M_alt        'P 1'
_atom_sites_solution_hydrogens   mixed
_atom_sites_solution_primary     direct
_audit_creation_date             2016-07-12
_audit_creation_method
;
Olex2 1.2
(compiled 2016.02.19 svn.r3266 for OlexSys, GUI svn.r5155)
;
_cell_angle_alpha                90.42(2)
_cell_angle_beta                 96.96(3)
_cell_angle_gamma                95.048(12)
_cell_formula_units_Z            1
_cell_length_a                   5.8059(11)
_cell_length_b                   7.0187(7)
_cell_length_c                   10.556(3)
_cell_measurement_reflns_used    911
_cell_measurement_temperature    296(2)
_cell_measurement_theta_max      56.208
_cell_measurement_theta_min      5.828
_cell_volume                     425.26(15)
_computing_molecular_graphics    'Olex2 (Dolomanov et al., 2009)'
_computing_publication_material  'Olex2 (Dolomanov et al., 2009)'
_computing_structure_refinement  'ShelXL (Sheldrick, 2015)'
_computing_structure_solution    'ShelXS (Sheldrick, 2008)'
_diffrn_ambient_temperature      296(2)
_diffrn_measured_fraction_theta_full 0.255
_diffrn_measured_fraction_theta_max 0.225
_diffrn_measurement_device_type  'multiwire proportional'
_diffrn_measurement_method       'phi and omega scans'
_diffrn_radiation_monochromator  graphite
_diffrn_radiation_type           MoK\a
_diffrn_radiation_wavelength     0.71073
_diffrn_reflns_av_R_equivalents  0.1040
_diffrn_reflns_av_unetI/netI     0.1433
_diffrn_reflns_Laue_measured_fraction_full 0.255
_diffrn_reflns_Laue_measured_fraction_max 0.225
_diffrn_reflns_limit_h_max       7
_diffrn_reflns_limit_h_min       -7
_diffrn_reflns_limit_k_max       9
_diffrn_reflns_limit_k_min       -9
_diffrn_reflns_limit_l_max       4
_diffrn_reflns_limit_l_min       -4
_diffrn_reflns_number            2728
_diffrn_reflns_point_group_measured_fraction_full 0.255
_diffrn_reflns_point_group_measured_fraction_max 0.225
_diffrn_reflns_theta_full        26.000
_diffrn_reflns_theta_max         28.104
_diffrn_reflns_theta_min         2.914
_exptl_absorpt_coefficient_mu    1.031
_exptl_absorpt_correction_T_max  0.902
_exptl_absorpt_correction_T_min  0.884
_exptl_absorpt_correction_type   multi-scan
_exptl_absorpt_process_details
;
Data were collected and reduced by program CrysAlisPro, 
and SCALE3 ABSPACK was used for absorption correction
;
_exptl_crystal_colour            orange/yellow
_exptl_crystal_density_diffrn    1.379
_exptl_crystal_description       plate
_exptl_crystal_F_000             183
_exptl_crystal_size_max          0.3
_exptl_crystal_size_mid          0.1
_exptl_crystal_size_min          0.1
_refine_diff_density_max         1.381
_refine_diff_density_min         -0.709
_refine_diff_density_rms         0.221
_refine_ls_abs_structure_details
;
 Refined as a perfect inversion twin.
;
_refine_ls_abs_structure_Flack   0.5
_refine_ls_extinction_method     none
_refine_ls_goodness_of_fit_ref   1.521
_refine_ls_hydrogen_treatment    constr
_refine_ls_matrix_type           full
_refine_ls_number_parameters     68
_refine_ls_number_reflns         911
_refine_ls_number_restraints     37
_refine_ls_restrained_S_all      1.622
_refine_ls_R_factor_all          0.2303
_refine_ls_R_factor_gt           0.1713
_refine_ls_shift/su_max          0.000
_refine_ls_shift/su_mean         0.000
_refine_ls_structure_factor_coef Fsqd
_refine_ls_weighting_details
'w=1/[\s^2^(Fo^2^)+(0.2000P)^2^] where P=(Fo^2^+2Fc^2^)/3'
_refine_ls_weighting_scheme      calc
_refine_ls_wR_factor_gt          0.3955
_refine_ls_wR_factor_ref         0.4355
_reflns_Friedel_coverage         1.000
_reflns_Friedel_fraction_full    0.255
_reflns_Friedel_fraction_max     0.225
_reflns_number_gt                530
_reflns_number_total             911
_reflns_threshold_expression     'I > 2\s(I)'
_cod_data_source_file            jz6b02458_si_004.cif
_cod_data_source_block           121GPa_P1
_cod_original_cell_volume        425.26(14)
_cod_database_code               8000379
_shelx_space_group_comment
;
The symmetry employed for this shelxl refinement is uniquely defined
by the following loop, which should always be used as a source of
symmetry information in preference to the above space-group names.
They are only intended as comments.
;
_olex2_refinement_description
;
1. Fixed Uiso
 At 1.2 times of:
  All C(H) groups, All C(H,H) groups
 At 1.5 times of:
  All O(H,H) groups
2. Restrained distances
 C8-O4
 1.23 with sigma of 0.002
 C8-O3
 1.23 with sigma of 0.002
 O1-C7
 1.23 with sigma of 0.002
 O2-C7
 1.23 with sigma of 0.002
 C4-C8
 1.48 with sigma of 0.002
 C7-C1
 1.48 with sigma of 0.002
 C5-C4
 1.38 with sigma of 0.002
 C5-C6
 1.38 with sigma of 0.002
 C6-C1
 1.38 with sigma of 0.002
 C1-C2
 1.38 with sigma of 0.002
 C2-C3
 1.38 with sigma of 0.002
 C3-C4
 1.38 with sigma of 0.002
 C10-N2
 1.48 with sigma of 0.002
 N2-C14
 1.48 with sigma of 0.002
 N2-C12
 1.48 with sigma of 0.002
 C9-N1
 1.48 with sigma of 0.002
 C13-N1
 1.48 with sigma of 0.002
 N1-C11
 1.48 with sigma of 0.002
 C10-C9
 1.52 with sigma of 0.002
 C14-C13
 1.52 with sigma of 0.002
 C12-C11
 1.52 with sigma of 0.002
 O4-O3
 2.16 with sigma of 0.002
 O1-O2
 2.16 with sigma of 0.002
 O4-C4 \\sim C4-O3
 with sigma of 0.02
 O1-C1 \\sim C1-O2
 with sigma of 0.02
3. Restrained planarity
 C8, C6, C1, C2, C3, C4, C5, C7, O2, O1, O4, O3
 with sigma of 0.1
4. Uiso/Uaniso restraints and constraints
Uiso(C6) = Uiso(C1) = Uiso(C2) = Uiso(C3) = Uiso(C4) = Uiso(C5)
Uiso(O3) = Uiso(O4) = Uiso(O1) = Uiso(O2)
Uiso(C7) = Uiso(C8)
Uiso(N2) = Uiso(N1)
5.a Rotating group:
 O1W(H1WA,H1WB)
5.b Secondary CH2 refined with riding coordinates:
 C11(H11A,H11B), C9(H9A,H9B), C12(H12A,H12B), C10(H10A,H10B), C14(H14A,H14B),
 C13(H13A,H13B)
5.c Aromatic/amide H refined with riding coordinates:
 C6(H6), C2(H2), C3(H3), C5(H5)
5.d Fitted hexagon refined as free rotating group:
 C6(C1,C2,C3,C4,C5)
;
_shelx_hkl_file
;
  -4  -1  -1   -8.99    5.35
  -3  -1  -1   85.68    4.71
  -4   1  -1   21.11    5.50
  -3   1  -1   83.78    4.95
  -2   1  -1   52.82    3.30
  -4   2  -1    4.02    5.67
  -3   2  -1   29.87    4.38
  -4  -3   0   41.15    6.75
  -3  -3   0   95.52    5.92
  -2  -3   0   30.13    3.71
  -5  -2   0   15.26    7.78
  -4  -2   0   11.00    6.28
  -3  -2   0   44.53    5.12
  -2  -2   0  130.30    4.42
  -1  -2   0   12.34    1.84
  -6  -1   0   10.60    9.10
  -5  -1   0    0.32    8.12
  -4  -1   0   20.77    6.19
  -3  -1   0   57.72    4.66
  -2  -1   0  145.49    3.64
  -1  -1   0   57.71    1.77
  -6   1   0   43.70    9.33
  -5   1   0   20.07    7.85
  -4   1   0   41.65    6.12
  -3   1   0   53.62    4.58
  -2   1   0  146.51    3.59
  -1   1   0  125.11    2.09
  -6   2   0   12.72    9.15
  -5   2   0    0.46    7.36
  -4   2   0   12.12    6.32
  -3   2   0   49.25    4.82
  -2   2   0    4.44    2.44
  -1   2   0  906.26    6.03
  -5   3   0   24.81    8.04
  -4   3   0   71.68    7.06
  -3   3   0   76.43    5.47
  -2   3   0   42.44    3.78
  -4   4   0   32.48    6.52
  -3   4   0  120.85    5.51
  -6  -3   1   30.94   10.07
  -5  -3   1    9.11    8.59
  -4  -3   1   23.60    7.29
  -3  -3   1  106.21    5.60
  -2  -3   1   89.06    3.72
  -1  -3   1   64.61    2.53
  -7  -2   1  -18.64   11.19
  -6  -2   1    3.85   10.03
  -5  -2   1    6.61    8.42
  -4  -2   1    5.93    6.16
  -3  -2   1   44.95    4.40
  -2  -2   1   12.02    2.78
  -1  -2   1   42.27    1.76
  -7  -1   1   25.36   11.07
  -6  -1   1   43.21   10.42
  -5  -1   1    8.83    7.36
  -4  -1   1   26.94    5.73
  -3  -1   1   85.30    4.57
  -2  -1   1  194.35    3.91
  -1  -1   1   37.36    1.76
  -7   1   1   13.43   12.14
  -6   1   1   36.34   11.11
  -5   1   1    5.24    7.41
  -4   1   1   54.03    6.01
  -3   1   1  130.84    4.81
  -2   1   1  135.55    3.47
  -1   1   1   45.47    1.66
  -7   2   1   14.92   11.84
  -6   2   1    2.57   10.26
  -5   2   1   11.43    7.66
  -4   2   1   41.46    5.95
  -3   2   1   32.32    3.92
  -2   2   1   30.17    2.71
  -1   2   1   84.28    2.33
  -7   3   1    8.76   11.24
  -5   3   1   15.92    8.68
  -4   3   1   72.37    6.83
  -3   3   1  100.83    5.18
  -2   3   1   58.26    3.12
  -6   4   1   33.95   10.10
  -5   4   1   34.45    8.96
  -4   4   1   36.78    7.48
  -3   4   1   74.09    5.32
  -7  -3   2   44.89   11.98
  -6  -3   2   19.41   11.20
  -5  -3   2   17.25    8.56
  -4  -3   2   27.28    6.84
  -3  -3   2   90.51    5.23
  -2  -3   2  229.02    4.79
  -1  -3   2   27.54    2.81
  -7  -2   2   -0.60   12.47
  -6  -2   2   18.25   10.51
  -5  -2   2    3.91    7.73
  -4  -2   2   11.44    5.96
  -3  -2   2   89.26    4.85
  -2  -2   2  180.90    4.60
  -7  -1   2   14.53   12.64
  -6  -1   2   25.84   10.12
  -5  -1   2   42.10    7.97
  -4  -1   2   14.01    5.27
  -3  -1   2  272.00    6.22
  -2  -1   2  310.09    5.01
  -7   1   2   11.22   13.09
  -6   1   2   26.60   10.10
  -5   1   2   37.95    7.47
  -4   1   2   34.80    5.23
  -3   1   2  362.83    6.90
  -2   1   2  158.77    4.17
  -7   2   2   -4.21   12.93
  -6   2   2    5.51   10.18
  -5   2   2    7.67    6.98
  -4   2   2   19.50    5.70
  -3   2   2  193.09    5.70
  -2   2   2   57.75    3.22
  -7   3   2   14.95   12.49
  -6   3   2   28.98   10.29
  -5   3   2   27.99    8.16
  -4   3   2   46.35    6.08
  -3   3   2  199.07    5.74
  -2   3   2   80.45    3.65
  -7   4   2   10.71   12.69
  -6   4   2   28.74   10.95
  -5   4   2    8.39    8.02
  -4   4   2   47.49    6.37
  -3   4   2  137.20    5.71
  -6  -3   3   -4.26   10.26
  -5  -3   3   53.10    8.78
  -4  -3   3   15.05    6.37
  -3  -3   3   77.17    5.26
  -2  -3   3   56.23    3.75
  -7  -2   3    4.40   12.63
  -6  -2   3   -4.10    9.56
  -5  -2   3   63.91    8.25
  -4  -2   3   15.34    6.24
  -3  -2   3   38.34    4.52
  -7  -1   3   -5.56   12.17
  -6  -1   3   12.60    9.53
  -5  -1   3   34.61    7.56
  -4  -1   3    2.14    5.55
  -3  -1   3  100.57    5.01
  -7   1   3    0.15   11.82
  -6   1   3   31.17    9.02
  -5   1   3   24.44    7.17
  -4   1   3   15.04    5.57
  -3   1   3   92.95    5.00
  -7   2   3    0.57   12.49
  -6   2   3   12.13    9.66
  -5   2   3   26.95    7.41
  -4   2   3    7.71    5.74
  -3   2   3   50.30    4.71
  -7   3   3    6.90   13.26
  -6   3   3   34.66   10.51
  -5   3   3   21.56    7.68
  -4   3   3   44.95    6.16
  -3   3   3   82.85    5.30
  -7   4   3    4.63   13.41
  -6   4   3   20.05   10.31
  -5   4   3    9.29    7.81
  -4   4   3   12.54    6.07
  -3   4   3   58.29    5.25
  -6  -3   4   -4.35    9.86
  -5  -3   4    7.33    7.80
  -4  -3   4    6.14    6.09
  -7  -2   4    3.79   12.31
  -6  -2   4   16.69    9.04
  -5  -2   4   16.98    7.42
  -4  -2   4    2.57    5.72
  -7  -1   4    8.86   10.75
  -6  -1   4   19.06    9.63
  -5  -1   4    4.59    7.46
  -4  -1   4    9.67    5.39
  -7   1   4    7.96   11.67
  -6   1   4   22.20    9.18
  -5   1   4   11.30    7.20
  -7   2   4   10.45   11.22
  -6   2   4   21.93    9.00
  -5   2   4   -7.82    7.14
  -6   3   4    5.24    9.65
  -5   3   4   21.00    7.72
   5  -3  -4   36.66    7.07
   6  -3  -4   19.75    8.27
   5  -2  -4    4.06    6.24
   6  -2  -4   12.17    8.18
   7  -2  -4    4.37    9.87
   5  -1  -4    4.60    6.21
   6  -1  -4   15.32    7.65
   7  -1  -4   -1.69    9.66
   4   1  -4   -2.74    4.67
   5   1  -4   11.84    6.01
   6   1  -4   12.69    7.50
   7   1  -4    0.90    9.52
   4   2  -4   -1.00    4.64
   5   2  -4    0.52    5.91
   6   2  -4   -0.85    7.56
   7   2  -4    2.19    9.26
   4   3  -4   -0.61    4.82
   5   3  -4   -1.68    6.28
   6   3  -4  -12.72    8.53
   4  -4  -3    4.00    5.81
   5  -4  -3   12.95    7.19
   6  -4  -3   23.20    8.93
   7  -4  -3   -1.96   12.35
   3  -3  -3   66.47    4.66
   4  -3  -3   39.47    5.81
   5  -3  -3   20.86    7.21
   6  -3  -3   32.33    8.89
   7  -3  -3    2.95   11.37
   3  -2  -3   40.51    4.18
   4  -2  -3    9.52    4.91
   5  -2  -3   24.55    7.17
   6  -2  -3   16.72    8.32
   7  -2  -3    5.92   10.79
   3  -1  -3   81.92    4.20
   4  -1  -3   16.06    5.19
   5  -1  -3   13.72    7.09
   6  -1  -3   12.62    8.36
   7  -1  -3    4.33   10.58
   3   1  -3   93.89    4.61
   4   1  -3    2.10    4.65
   5   1  -3   31.51    7.00
   6   1  -3   17.22    7.82
   7   1  -3   -5.82   10.08
   3   2  -3   30.65    4.20
   4   2  -3   21.47    5.20
   5   2  -3   53.95    7.20
   6   2  -3    3.50    8.48
   7   2  -3   -2.55   11.12
   2   3  -3   23.40    2.96
   3   3  -3   75.00    4.91
   4   3  -3   28.99    5.62
   5   3  -3   49.27    7.40
   6   3  -3    8.66    9.16
   3  -4  -2  149.86    5.40
   4  -4  -2   37.06    6.09
   5  -4  -2   13.17    7.42
   6  -4  -2   14.56   10.10
   7  -4  -2   15.77   13.69
   2  -3  -2   65.62    3.44
   3  -3  -2  179.70    5.52
   4  -3  -2   38.63    5.78
   5  -3  -2   20.56    7.49
   6  -3  -2    5.49    9.81
   7  -3  -2    7.86   12.49
   2  -2  -2   49.52    3.03
   3  -2  -2  182.82    5.40
   4  -2  -2   18.95    5.27
   5  -2  -2   -1.80    6.81
   6  -2  -2   17.91    9.57
   7  -2  -2   16.94   12.25
   2  -1  -2  144.93    3.62
   3  -1  -2  353.40    6.50
   5  -1  -2   30.87    6.93
   6  -1  -2   19.11    8.56
   7  -1  -2   17.35   11.05
   2   1  -2  278.79    4.73
   3   1  -2  259.11    5.97
   4   1  -2   16.18    5.34
   5   1  -2   24.72    6.74
   6   1  -2   18.73    9.26
   7   1  -2    9.88   12.18
   2   2  -2  171.90    4.16
   3   2  -2   91.86    4.49
   4   2  -2    3.24    5.06
   5   2  -2   10.46    6.67
   6   2  -2    9.10    9.07
   7   2  -2    3.72   11.75
   1   3  -2   11.82    2.49
   2   3  -2  204.08    4.63
   3   3  -2   83.45    4.78
   4   3  -2   37.14    5.94
   5   3  -2   27.50    7.87
   6   3  -2   20.57    9.74
   7   3  -2    9.36   13.19
   3  -4  -1   65.16    5.01
   4  -4  -1   26.02    6.56
   5  -4  -1   10.10    8.77
   6  -4  -1    8.31   11.58
   1  -3  -1  224.17    3.46
   2  -3  -1   55.20    3.14
   3  -3  -1  105.52    4.94
   4  -3  -1   52.01    6.24
   5  -3  -1    8.32    8.06
   7  -3  -1   25.76   14.80
   1  -2  -1   83.45    2.04
   2  -2  -1   36.52    2.74
   3  -2  -1   17.03    3.97
   4  -2  -1   23.08    5.27
   5  -2  -1    8.55    7.76
   6  -2  -1    5.09    9.88
   7  -2  -1   -5.61   13.53
   1  -1  -1   55.21    1.66
   2  -1  -1  139.27    3.39
   3  -1  -1  130.25    4.84
   4  -1  -1   33.37    5.56
   5  -1  -1    6.36    7.71
   6  -1  -1   32.05    9.75
   7  -1  -1    3.09   12.41
   1   1  -1   51.08    1.84
   2   1  -1  193.51    3.85
   3   1  -1   89.00    4.43
   4   1  -1   36.07    5.59
   5   1  -1    4.53    7.56
   6   1  -1   25.29   10.04
   7   1  -1   -2.93   12.94
   1   2  -1   36.67    1.90
   2   2  -1    9.36    2.58
   3   2  -1   40.52    4.05
   4   2  -1   11.84    5.77
   5   2  -1    8.79    7.90
   6   2  -1    8.08   10.15
   7   2  -1   14.75   13.14
   1   3  -1   70.98    2.31
   2   3  -1   75.42    3.66
   3   3  -1   91.12    5.21
   4   3  -1   11.08    6.19
   5   3  -1   11.58    8.21
   6   3  -1    9.06   10.40
   3  -4   0   69.27    6.10
   4  -4   0   13.16    7.24
   5  -4   0    9.24    9.82
   1  -3   0  440.87    4.41
   2  -3   0   42.16    3.39
   3  -3   0   69.85    5.15
   4  -3   0   59.46    6.99
   5  -3   0   15.29    9.24
   6  -3   0   28.45   12.34
   1  -2   0  919.59    5.02
   2  -2   0    1.91    2.25
   3  -2   0   55.55    4.41
   4  -2   0    8.60    5.76
   5  -2   0    8.51    8.88
   6  -2   0    1.53   10.30
   1  -1   0  141.23    2.08
   2  -1   0  146.94    3.40
   3  -1   0   51.76    4.28
   4  -1   0   38.03    5.84
   5  -1   0   14.72    8.15
   6  -1   0   -1.02   10.35
   1   1   0   64.18    1.73
   2   1   0  140.58    3.63
   3   1   0   48.30    4.50
   4   1   0   18.11    5.88
   5   1   0   23.27    8.30
   6   1   0   27.00   11.00
   1   2   0   11.23    1.59
   2   2   0   98.90    3.81
   3   2   0   39.00    4.61
   4   2   0  -14.54    7.02
   5   2   0   -3.72    8.63
   2   3   0   32.66    3.93
   3   3   0   90.54    6.28
   4   3   0   26.58    7.47
   3  -2   1   29.21    4.74
   4  -2   1   21.17    6.72
   2  -1   1   57.64    3.40
   3  -1   1   57.75    5.18
   4  -1   1   35.85    6.70
   2   1   1   43.93    3.77
   3   1   1   76.03    5.65
   4   1   1    8.42    6.65
  -4  -3  -1    5.53    5.65
  -3  -3  -1   48.28    4.78
  -2  -3  -1   25.42    3.21
  -1  -3  -1   69.16    2.81
  -4  -2  -1    2.86    5.31
  -3  -2  -1   32.75    4.03
  -4  -1  -1    2.63    4.93
  -3  -1  -1   62.73    4.17
  -2  -1  -1   45.80    2.60
  -5   1  -1    5.19    6.70
  -4   1  -1    7.99    4.81
  -3   1  -1   63.71    4.19
  -2   1  -1   53.49    2.60
  -5   2  -1    1.75    7.19
  -4   2  -1   16.13    5.36
  -3   2  -1   30.31    4.13
  -5   3  -1   -1.85    7.38
  -4   3  -1   39.02    6.13
  -3   3  -1   45.82    4.69
  -2   3  -1   35.82    3.25
  -1   3  -1  125.85    2.60
  -5   4  -1   -1.96    7.43
  -4   4  -1   24.68    6.34
  -3   4  -1    7.44    4.76
  -5  -3   0    5.85    7.27
  -4  -3   0   15.17    6.35
  -3  -3   0   89.53    5.36
  -2  -3   0   26.78    3.38
  -1  -3   0  106.75    3.44
  -6  -2   0    7.03    7.99
  -5  -2   0    7.31    6.92
  -4  -2   0   -0.16    6.09
  -3  -2   0   33.57    4.36
  -2  -2   0   94.02    3.72
  -1  -2   0    8.12    1.58
  -6  -1   0   11.69    7.94
  -5  -1   0    8.99    6.46
  -4  -1   0   12.94    5.07
  -3  -1   0   47.34    4.09
  -2  -1   0  129.69    3.40
  -1  -1   0   55.30    1.66
  -6   1   0   12.13    8.82
  -5   1   0    4.27    6.97
  -4   1   0   33.45    5.12
  -3   1   0   46.79    3.98
  -2   1   0  127.44    3.21
  -1   1   0  117.79    1.95
  -6   2   0    2.98    8.43
  -5   2   0    3.94    7.20
  -4   2   0    7.84    5.13
  -3   2   0   51.17    4.13
  -2   2   0    4.67    2.25
  -1   2   0  875.21    4.90
  -6   3   0    5.46    9.87
  -5   3   0    9.25    7.74
  -4   3   0   52.58    6.08
  -3   3   0   61.92    4.53
  -2   3   0   37.32    2.96
  -6   4   0   19.40    9.77
  -5   4   0    7.04    7.75
  -4   4   0   15.81    5.93
  -3   4   0   83.25    4.96
  -6  -3   1   38.81    9.11
  -5  -3   1   -0.95    7.11
  -4  -3   1   25.13    6.36
  -3  -3   1  102.51    5.52
  -2  -3   1  102.82    4.02
  -7  -2   1   -4.23    9.56
  -6  -2   1   -0.48    8.49
  -5  -2   1   -1.19    6.67
  -4  -2   1    7.31    6.29
  -3  -2   1   50.82    4.54
  -2  -2   1    9.43    2.99
  -1  -2   1   39.62    1.80
  -7  -1   1    3.21    9.47
  -6  -1   1   18.23    8.29
  -5  -1   1    3.67    6.45
  -4  -1   1   22.84    5.60
  -3  -1   1   95.85    4.71
  -2  -1   1  201.73    4.19
  -1  -1   1   38.71    1.94
  -7   1   1    3.11    9.79
  -6   1   1   30.96    8.58
  -5   1   1    9.46    6.58
  -4   1   1   43.01    5.41
  -3   1   1  119.16    4.83
  -2   1   1  136.62    3.40
  -1   1   1   43.66    1.58
  -7   2   1    4.34   10.53
  -6   2   1    8.69    8.76
  -5   2   1   -0.99    6.66
  -4   2   1   40.10    5.21
  -3   2   1   18.57    3.84
  -2   2   1   32.88    2.65
  -7   3   1   15.87   10.96
  -5   3   1   11.35    7.58
  -4   3   1   69.71    5.88
  -3   3   1   95.25    4.79
  -2   3   1   56.48    2.99
  -7   4   1    9.70   11.16
  -6   4   1   24.37    9.62
  -5   4   1   19.97    7.66
  -4   4   1   34.72    5.94
  -3   4   1   60.95    4.48
  -7  -3   2   -1.03    9.88
  -6  -3   2   15.71    8.54
  -5  -3   2   20.99    7.32
  -4  -3   2   45.11    6.69
  -3  -3   2   85.99    5.53
  -7  -2   2    8.86    9.51
  -6  -2   2   13.39    8.43
  -5  -2   2    7.29    7.06
  -4  -2   2   12.64    5.97
  -3  -2   2   78.05    5.19
  -2  -2   2  176.65    4.98
  -7  -1   2    3.99    9.35
  -6  -1   2   21.47    8.26
  -5  -1   2   21.32    6.95
  -4  -1   2   12.46    5.35
  -3  -1   2  272.18    6.34
  -2  -1   2  304.30    5.21
  -7   1   2   10.99    9.63
  -6   1   2   27.61    8.15
  -5   1   2   30.35    6.84
  -3   1   2  362.96    6.79
  -2   1   2  164.83    3.95
  -7   2   2    8.70    9.96
  -6   2   2   10.43    7.96
  -5   2   2   10.60    6.48
  -4   2   2   16.94    5.04
  -3   2   2  190.81    5.42
  -2   2   2   53.79    2.50
  -7   3   2    0.86   10.52
  -6   3   2   18.02    8.97
  -5   3   2   27.72    7.16
  -4   3   2   50.18    5.57
  -3   3   2  186.13    5.43
  -7   4   2   14.34   10.83
  -6   4   2   24.56    8.89
  -5   4   2   14.67    6.77
  -4   4   2   43.85    5.68
  -7  -3   3   33.00    8.99
  -6  -3   3    8.08    8.24
  -5  -3   3   32.55    7.52
  -4  -3   3   41.44    5.52
  -7  -2   3    4.90    9.14
  -6  -2   3    1.41    8.09
  -5  -2   3   56.73    7.21
  -4  -2   3   16.97    6.28
  -3  -2   3   40.87    4.00
  -7  -1   3    8.10    8.80
  -6  -1   3    3.98    7.53
  -5  -1   3   32.61    6.77
  -4  -1   3    0.70    5.27
  -3  -1   3  123.17    5.22
  -7   1   3    7.22    9.11
  -6   1   3   23.38    8.10
  -5   1   3   11.50    6.37
  -4   1   3   16.62    4.99
  -3   1   3  104.41    4.47
  -7   2   3    1.28    9.08
  -6   2   3   19.13    7.79
  -5   2   3   33.68    6.56
  -4   2   3   15.63    5.03
  -3   2   3   -6.27    3.10
  -7   3   3    7.75    9.53
  -6   3   3   34.13    8.46
  -5   3   3   18.85    6.71
  -4   3   3   48.98    4.67
  -7   4   3    0.36    8.36
  -6   4   3   20.73    7.17
  -6  -2   4   -3.36    6.44
  -7  -1   4    8.87    7.50
  -6  -1   4   39.20    6.79
  -5  -1   4   22.35    5.59
  -7   1   4   23.60    7.40
  -6   1   4   30.15    6.68
  -5   1   4   25.15    5.56
  -7   2   4   -6.95    7.36
  -6   2   4    1.66    6.61
   5  -1  -4  -14.65    6.10
   6  -1  -4    5.17    6.92
   7  -1  -4  -12.72    8.57
   5   1  -4  -10.00    6.63
   6   1  -4    1.91    7.47
   4  -3  -3   21.42    5.38
   5  -3  -3   11.92    6.80
   6  -3  -3   28.91    8.10
   7  -3  -3   -2.43    9.45
   4  -2  -3   10.40    5.26
   5  -2  -3   28.77    6.50
   6  -2  -3   23.41    8.03
   7  -2  -3    8.90   10.33
   3  -1  -3   81.70    4.45
   4  -1  -3   21.73    5.34
   5  -1  -3   23.90    6.50
   6  -1  -3   16.35    8.58
   7  -1  -3   11.21   10.23
   3   1  -3   93.73    4.88
   4   1  -3    3.85    5.41
   5   1  -3   49.90    7.28
   6   1  -3    5.87    8.43
   7   1  -3    7.92    9.55
   4   2  -3   18.80    5.89
   5   2  -3   58.76    7.34
   6   2  -3   12.35    8.77
   7   2  -3    2.60   10.28
   4   3  -3   13.17    5.92
   5   3  -3   48.05    8.04
   6   3  -3    0.65    9.03
   7   3  -3    3.25    9.76
   4  -4  -2   40.37    5.83
   5  -4  -2   13.44    6.85
   6  -4  -2   12.72    8.97
   7  -4  -2   15.61   11.35
   3  -3  -2  186.09    5.46
   4  -3  -2   45.64    5.85
   5  -3  -2   12.09    7.32
   6  -3  -2   29.48    9.40
   7  -3  -2   12.35   11.30
   2  -2  -2   43.86    2.83
   3  -2  -2  180.68    5.50
   4  -2  -2   18.40    5.72
   5  -2  -2   13.04    7.19
   6  -2  -2   10.48    8.73
   7  -2  -2    7.11   11.39
   2  -1  -2  152.79    3.74
   3  -1  -2  357.19    6.91
   4  -1  -2   33.97    5.21
   5  -1  -2   33.11    7.53
   6  -1  -2   18.77    9.00
   7  -1  -2    7.49   10.81
   2   1  -2  295.95    5.10
   3   1  -2  284.74    6.43
   4   1  -2   10.22    5.49
   5   1  -2   13.69    7.90
   6   1  -2   26.64    9.70
   7   1  -2   -1.38   11.25
   2   2  -2  177.98    4.66
   3   2  -2   86.90    5.20
   4   2  -2   14.61    6.02
   5   2  -2   11.11    7.84
   6   2  -2    4.83    9.88
   7   2  -2   -2.09   11.25
   3   3  -2   88.08    5.37
   4   3  -2   38.70    6.58
   5   3  -2   22.74    7.87
   6   3  -2   21.37    9.98
   7   3  -2    5.74   11.48
   3  -4  -1   56.80    4.74
   4  -4  -1   39.32    6.48
   5  -4  -1   19.74    7.98
   6  -4  -1    4.12   10.18
   7  -4  -1   -1.55   12.70
   2  -3  -1   46.82    3.20
   3  -3  -1  110.55    5.27
   4  -3  -1   46.22    6.48
   5  -3  -1   14.87    7.92
   7  -3  -1    4.00   13.15
   2  -2  -1   36.93    2.92
   3  -2  -1   25.95    4.03
   4  -2  -1   26.21    5.92
   5  -2  -1    6.49    7.93
   6  -2  -1    9.67    9.92
   7  -2  -1   -0.58   12.70
   1  -1  -1   54.48    1.77
   2  -1  -1  145.42    3.67
   3  -1  -1  122.94    5.31
   4  -1  -1   44.82    6.13
   5  -1  -1    3.69    7.60
   6  -1  -1   13.48    9.95
   7  -1  -1    3.96   12.20
   1   1  -1   49.95    1.96
   2   1  -1  200.59    4.36
   3   1  -1   99.27    5.01
   4   1  -1   30.30    6.34
   5   1  -1    5.08    7.34
   6   1  -1   23.03   10.52
   7   1  -1  -11.22   12.28
   1   2  -1   46.38    1.86
   2   2  -1   13.73    3.15
   3   2  -1   41.13    4.70
   4   2  -1    7.35    6.34
   5   2  -1    5.48    8.10
   6   2  -1    7.95   10.40
   7   2  -1   11.98   12.39
   2   3  -1   91.26    3.91
   3   3  -1   97.44    5.71
   4   3  -1   16.00    6.90
   5   3  -1   13.47    8.58
   6   3  -1   -0.53   10.31
   3  -4   0   84.45    5.64
   4  -4   0   25.76    7.03
   5  -4   0    5.84    8.58
   6  -4   0    0.53   11.43
   2  -3   0   41.42    3.38
   3  -3   0   52.36    5.16
   4  -3   0   55.33    7.38
   5  -3   0   11.65    9.23
   6  -3   0   10.39   11.66
   1  -2   0  893.11    5.29
   2  -2   0    3.30    2.56
   3  -2   0   49.46    4.73
   4  -2   0    8.41    6.26
   5  -2   0   12.18    8.86
   6  -2   0    3.30   11.11
   1  -1   0  142.28    2.21
   2  -1   0  133.57    3.63
   3  -1   0   57.00    4.91
   4  -1   0   27.05    6.40
   5  -1   0    6.66    8.76
   6  -1   0   16.74   11.01
   1   1   0   64.90    1.87
   2   1   0  148.90    3.85
   3   1   0   51.27    4.75
   4   1   0   17.37    5.90
   5   1   0    3.37    8.23
   6   1   0   10.84   10.52
   1   2   0    6.08    1.67
   2   2   0  105.44    3.94
   3   2   0   37.04    5.02
   4   2   0   -0.16    6.89
   5   2   0   11.33    8.41
   6   2   0   11.79   10.62
   2   3   0   32.44    3.60
   3   3   0  100.71    5.95
   4   3   0   28.59    7.22
   5   3   0   17.53    9.14
   3  -4   1   17.89    5.51
   4  -4   1   18.75    7.85
   5  -4   1    4.52    9.58
   1  -3   1   95.68    2.68
   2  -3   1   29.35    3.58
   3  -3   1   39.71    5.31
   4  -3   1   26.98    7.72
   5  -3   1    9.15    9.70
   3  -2   1   21.23    4.97
   4  -2   1   13.90    7.11
   5  -2   1   -3.17    9.40
   2  -1   1   49.55    3.14
   3  -1   1   63.43    5.22
   4  -1   1    1.78    6.34
   5  -1   1   14.10    8.97
   2   1   1   56.97    3.21
   3   1   1   71.84    5.12
   4   1   1   -4.20    6.82
   3   2   1   29.21    4.80
   4   2   1    0.71    6.91
   1   3   1   80.89    3.15
   2   3   1   30.28    3.80
   3   3   1   49.35    5.69
   4   3   1   12.96    7.12
   5  -4  -4   -3.36    6.32
   6  -4  -4    2.61    8.28
   5  -3  -4   20.64    6.90
   6  -3  -4   25.47    7.99
   5  -2  -4    5.04    6.00
   6  -2  -4    6.11    7.24
   4  -6  -3    0.17    6.91
   5  -6  -3    0.80    8.76
   4  -5  -3    7.72    7.01
   5  -5  -3   11.79    8.82
   6  -5  -3    7.34   10.54
   3  -4  -3   46.84    5.86
   4  -4  -3    6.71    7.12
   5  -4  -3    9.14    8.00
   6  -4  -3   21.28    9.72
   3  -3  -3   62.07    5.69
   4  -3  -3   37.42    6.71
   5  -3  -3   16.59    7.74
   6  -3  -3   32.67    9.47
   7  -3  -3    8.22   10.77
   3  -2  -3   44.97    4.87
   4  -2  -3    9.67    5.89
   5  -2  -3   21.26    7.47
   6  -2  -3   18.51    8.68
   7  -2  -3   -1.77   10.30
   3  -1  -3   88.58    4.77
   4  -1  -3   21.81    5.23
   5  -1  -3   15.14    6.74
   6  -1  -3   32.21    8.30
   7  -1  -3    0.96    9.85
   4  -7  -2    7.40    8.59
   5  -7  -2    6.26    7.55
   3  -6  -2   32.65    7.51
   4  -6  -2   18.70    8.60
   5  -6  -2    2.76    9.56
   6  -6  -2    0.84   12.40
   2  -5  -2    4.44    5.22
   3  -5  -2   17.17    6.47
   4  -5  -2    3.71    7.56
   5  -5  -2    8.18    9.32
   6  -5  -2   11.36   11.67
   2  -4  -2   63.85    5.16
   3  -4  -2  137.99    7.05
   4  -4  -2   47.26    7.67
   5  -4  -2    5.82    8.63
   6  -4  -2   16.12   11.26
   2  -3  -2   64.12    4.67
   3  -3  -2  182.94    6.64
   4  -3  -2   43.78    6.90
   5  -3  -2   27.66    8.33
   6  -3  -2   11.18   10.29
   7  -3  -2   14.02   11.91
   2  -2  -2   62.26    3.76
   3  -2  -2  192.58    6.13
   4  -2  -2   14.21    5.80
   5  -2  -2    4.68    7.46
   6  -2  -2    9.63    9.38
   7  -2  -2   20.24   11.16
   2  -1  -2  149.16    4.27
   3  -1  -2  373.26    7.03
   4  -1  -2   44.33    5.70
   5  -1  -2   34.69    7.39
   6  -1  -2    8.30    8.91
   7  -1  -2   10.97   10.84
   3   1  -2  303.58    5.61
   4   1  -2   19.36    4.55
   4  -7  -1    9.29    9.50
   5  -7  -1   -1.06   11.31
   3  -6  -1   23.61    8.03
   4  -6  -1   25.32    9.07
   5  -6  -1   19.61   11.12
   6  -6  -1    7.71   13.17
   1  -5  -1   53.15    4.62
   2  -5  -1    4.34    5.67
   3  -5  -1    3.85    6.96
   4  -5  -1   11.09    8.38
   5  -5  -1   -2.30   10.35
   6  -5  -1    4.71   12.71
   1  -4  -1    4.64    3.56
   2  -4  -1   68.09    5.32
   3  -4  -1   57.04    6.77
   4  -4  -1   17.62    7.93
   5  -4  -1    8.92    9.54
   6  -4  -1   12.86   11.73
   1  -3  -1  289.71    5.32
   2  -3  -1   51.29    4.33
   3  -3  -1   93.03    6.04
   4  -3  -1   64.28    7.04
   5  -3  -1   13.83    8.65
   7  -3  -1   12.15   13.29
   1  -2  -1   88.78    2.82
   2  -2  -1   41.41    3.49
   3  -2  -1   20.68    4.51
   4  -2  -1   31.05    6.19
   5  -2  -1    5.91    8.08
   6  -2  -1    6.50   10.10
   7  -2  -1    0.58   12.49
   1  -1  -1   61.97    2.11
   2  -1  -1  131.57    3.71
   3  -1  -1  133.08    5.05
   4  -1  -1   39.63    5.82
   5  -1  -1    6.14    7.42
   6  -1  -1   28.22    9.53
   7  -1  -1    0.93   11.32
   2   1  -1  163.79    3.74
   3   1  -1   96.82    4.20
   4   1  -1   26.23    5.18
   3   2  -1   24.84    3.43
   4  -7   0   17.09   10.71
   5  -7   0    8.76   10.11
   3  -6   0   21.22    8.29
   4  -6   0    5.00    9.72
   5  -6   0    2.69   11.66
   6  -6   0   14.61   15.27
   1  -5   0  165.98    5.87
   2  -5   0    8.22    5.94
   3  -5   0   -0.18    7.29
   4  -5   0   12.73    8.92
   5  -5   0   14.61   10.99
   6  -5   0    6.04   14.38
   0  -4   0  120.19    3.42
   1  -4   0  345.15    6.10
   2  -4   0   48.81    5.17
   3  -4   0   89.29    6.96
   4  -4   0   15.28    8.39
   5  -4   0    7.70    9.96
   6  -4   0   13.49   13.21
   0  -3   0  790.53    6.34
   1  -3   0  570.01    6.49
   2  -3   0   39.04    4.24
   3  -3   0   65.89    5.93
   4  -3   0   39.85    7.61
   5  -3   0    1.49    9.35
   6  -3   0   17.71   12.22
   1  -2   0  929.17    6.70
   2  -2   0    1.81    2.94
   3  -2   0   46.67    5.01
   4  -2   0    5.55    6.36
   5  -2   0    6.51    8.51
   6  -2   0    3.72   10.81
   1  -1   0  139.25    2.44
   2  -1   0  131.48    3.72
   3  -1   0   44.13    4.67
   4  -1   0   28.06    5.90
   5  -1   0    7.20    7.82
   6  -1   0   11.93   10.18
   2   1   0  153.36    2.98
   3   1   0   48.71    3.87
   4   1   0   17.10    5.12
   2   2   0   44.47    2.77
   3   2   0   27.28    3.52
   3  -6   1   18.86    8.97
   4  -6   1    3.17   10.44
   1  -5   1   28.82    4.99
   2  -5   1    5.32    6.19
   3  -5   1    9.02    7.73
   4  -5   1    7.30    9.72
   5  -5   1    7.50   11.80
   0  -4   1    0.42    2.78
   1  -4   1   51.23    4.35
   2  -4   1   48.33    5.59
   3  -4   1   14.01    7.04
   4  -4   1    5.22    8.93
   5  -4   1    6.00   10.61
   0  -3   1  539.98    4.72
   1  -3   1  109.08    3.82
   2  -3   1   27.58    4.30
   3  -3   1   35.87    6.21
   4  -3   1   22.17    7.86
   5  -3   1   -0.69    9.92
   3  -2   1   18.45    5.09
   4  -2   1    6.51    7.18
   5  -2   1   -2.15    9.34
   3  -1   1   37.57    4.92
   4  -1   1    2.98    6.19
   5  -1   1    6.52    8.43
   4   1   1    3.37    5.26
   1  -5   2   18.76    5.13
   2  -5   2   19.61    6.51
   0  -4   2    7.29    3.07
   2  -4   2    9.01    5.43
  -1  -5  -2   -0.38    4.90
  -3  -6  -1    7.83    8.19
  -3  -5  -1    0.44    7.05
  -2  -5  -1    3.85    5.95
  -1  -5  -1    5.84    4.95
  -4  -4  -1    2.69    6.89
  -3  -4  -1   15.31    6.13
  -2  -4  -1   28.97    5.14
  -1  -4  -1   13.73    3.96
   0  -4  -1   32.05    3.20
  -4  -3  -1    4.93    6.11
  -3  -3  -1   48.26    5.46
  -2  -3  -1   33.44    4.05
  -1  -3  -1   71.00    4.05
  -4  -2  -1    1.11    5.41
  -4  -1  -1   -4.71    4.97
  -3  -1  -1   63.47    4.07
  -5   1  -1   13.79    5.57
  -4   1  -1    0.79    4.16
  -4   2  -1    8.74    4.29
  -4  -6   0    6.59    9.38
  -3  -6   0   30.07    8.34
  -5  -5   0    5.95    9.63
  -4  -5   0    0.87    8.39
  -3  -5   0   13.66    7.63
  -2  -5   0    6.04    6.34
  -1  -5   0   18.31    5.23
  -5  -4   0   12.16    8.97
  -4  -4   0    8.18    7.45
  -3  -4   0   51.26    6.49
  -2  -4   0   92.29    6.00
  -1  -4   0   19.86    4.18
   0  -4   0  132.94    3.95
  -6  -3   0   11.98    9.09
  -5  -3   0   16.39    8.08
  -4  -3   0   17.76    6.96
  -3  -3   0   81.33    6.19
  -2  -3   0   25.98    4.20
  -1  -3   0  166.70    4.66
   0  -3   0  711.87    7.09
  -6  -2   0    5.58    9.12
  -5  -2   0    4.08    7.33
  -4  -2   0    7.70    5.97
  -3  -2   0   36.84    4.43
  -2  -2   0   99.00    4.01
  -1  -2   0   14.53    2.03
  -6  -1   0    8.87    8.16
  -5  -1   0    5.54    6.75
  -4  -1   0   17.22    4.98
  -3  -1   0   47.65    4.17
  -2  -1   0  125.80    3.43
  -1  -1   0   49.64    1.93
  -5   1   0   10.13    6.01
  -4   1   0   23.26    4.52
  -3   1   0   54.21    3.38
  -2   1   0  118.25    2.54
  -4   2   0    6.73    4.28
  -3   2   0   41.96    3.04
  -4  -7   1   -0.91   10.23
  -5  -6   1   10.68   11.05
  -4  -6   1   12.30    9.33
  -3  -6   1   28.69    8.55
  -2  -6   1   20.46    7.18
  -5  -5   1    7.98    9.70
  -4  -5   1    0.89    8.15
  -3  -5   1   22.96    7.79
  -2  -5   1    3.44    6.40
  -1  -5   1   10.57    4.74
  -6  -4   1    3.88   10.26
  -5  -4   1   19.67    8.63
  -4  -4   1    5.50    7.50
  -3  -4   1   49.14    7.06
  -2  -4   1   42.07    5.89
  -1  -4   1   35.69    4.17
  -6  -3   1   64.20    9.72
  -5  -3   1    5.75    7.85
  -4  -3   1    8.15    6.84
  -3  -3   1  100.27    6.43
  -2  -3   1   95.24    5.21
  -1  -3   1   72.21    4.29
   0  -3   1    3.79    1.38
  -7  -2   1   -1.24    9.95
  -6  -2   1    4.75    8.53
  -5  -2   1    8.70    7.25
  -4  -2   1    2.49    6.54
  -3  -2   1   49.50    5.03
  -2  -2   1    9.24    3.56
  -1  -2   1   44.70    2.68
  -7  -1   1   -0.04    9.93
  -6  -1   1   25.67    8.43
  -5  -1   1    3.08    6.62
  -4  -1   1   28.42    5.50
  -3  -1   1  101.52    4.79
  -2  -1   1  197.79    4.24
  -1  -1   1   41.55    2.19
  -5   1   1    7.10    6.01
  -4   1   1   50.62    4.84
  -3   1   1  141.90    4.25
  -2   1   1  127.65    2.88
  -3   2   1   23.87    2.91
  -4  -7   2   13.87    8.23
  -5  -6   2   13.41   11.27
  -4  -6   2    9.20    9.39
  -3  -6   2   10.40    8.42
  -2  -6   2   61.10    7.70
  -5  -5   2    5.70    9.51
  -4  -5   2   33.60    8.70
  -3  -5   2   12.96    7.47
  -2  -5   2   31.08    6.65
  -6  -4   2    7.85   10.32
  -5  -4   2   16.80    8.55
  -4  -4   2    4.16    7.66
  -3  -4   2   61.58    6.86
  -2  -4   2  190.14    7.44
  -1  -4   2   24.41    3.65
  -6  -3   2    8.27    9.47
  -5  -3   2    6.16    7.76
  -4  -3   2   37.05    7.17
  -3  -3   2   87.56    6.51
  -2  -3   2  230.56    6.64
  -1  -3   2   42.57    3.92
  -7  -2   2   -2.55    9.92
  -6  -2   2   17.79    8.57
  -5  -2   2    2.85    7.14
  -4  -2   2    9.31    6.16
  -3  -2   2   83.93    5.55
  -2  -2   2  187.24    5.75
  -1  -2   2    6.23    1.84
  -7  -1   2    8.78    9.84
  -6  -1   2   25.57    8.27
  -5  -1   2   22.06    7.00
  -4  -1   2   16.11    5.20
  -3  -1   2  267.83    6.53
  -2  -1   2  311.47    5.48
  -5   1   2   31.46    6.19
  -3   1   2  346.65    5.97
  -5  -6   3    3.20   11.24
  -4  -6   3    7.41    9.34
  -3  -6   3    4.75    5.31
  -5  -5   3   31.42    9.63
  -4  -5   3   22.89    8.36
  -3  -5   3   -1.87    7.47
  -6  -4   3   13.71   10.06
  -5  -4   3   17.14    8.80
  -4  -4   3   12.66    7.80
  -3  -4   3   31.99    7.31
  -2  -4   3    3.62    3.43
  -6  -3   3    5.31    9.18
  -5  -3   3   40.95    8.58
  -4  -3   3   12.38    6.74
  -3  -3   3   81.33    6.41
  -2  -3   3   12.92    3.91
  -7  -2   3   16.46   10.17
  -6  -2   3    5.56    8.32
  -5  -2   3   54.19    7.94
  -4  -2   3   12.46    6.66
  -3  -2   3   40.68    5.15
  -2  -2   3   -1.45    2.56
  -7  -1   3   16.80    9.36
  -6  -1   3    4.06    8.10
  -5  -1   3   33.55    7.24
  -4  -1   3    1.83    5.13
  -3  -1   3  112.37    5.28
  -5   1   3   12.99    4.88
  -6  -4   4   13.23    7.98
  -5  -4   4   10.61    6.81
  -4  -4   4    9.22    5.09
  -5  -3   4   11.89    7.47
  -4  -3   4   13.96    5.54
  -7  -2   4    1.49    6.72
  -6  -2   4    4.15    7.15
  -5  -2   4   -3.07    6.70
  -4  -2   4    7.92    4.31
  -6  -1   4    0.41    5.82
  -5  -1   4    5.35    4.85
   5  -1  -4    6.14    6.34
   4   1  -4   -6.83    5.26
   5   1  -4   13.74    6.96
   6   1  -4   14.04    8.66
   7   1  -4   -3.11   10.89
   4   2  -4    6.59    5.61
   5   2  -4    6.33    7.44
   6   2  -4    7.56    8.91
   7   2  -4   -1.27   10.90
   4   3  -4    3.80    5.98
   5   3  -4   11.48    7.89
   6   3  -4    4.52   10.24
   4   4  -4    7.18    6.74
   5   4  -4    3.76    8.33
   6   4  -4    8.85   10.08
   4   5  -4   -1.36    7.56
   5   5  -4    5.63    9.39
   3  -2  -3   48.60    3.37
   3  -1  -3   81.07    3.93
   4  -1  -3   17.80    4.77
   5  -1  -3   16.49    6.51
   3   1  -3   86.04    4.81
   4   1  -3    6.98    5.55
   5   1  -3   28.97    7.67
   6   1  -3   23.22    9.37
   7   1  -3    1.10   11.09
   2   2  -3    2.12    2.80
   3   2  -3   31.05    4.85
   4   2  -3   10.38    6.68
   5   2  -3   38.90    8.45
   6   2  -3   12.55   10.01
   7   2  -3    4.22   11.87
   2   3  -3   38.20    4.29
   3   3  -3   76.84    5.91
   4   3  -3   15.09    7.15
   5   3  -3   52.01    8.72
   6   3  -3    9.47   10.56
   1   4  -3    4.67    3.47
   2   4  -3   58.27    5.26
   3   4  -3   30.83    6.46
   4   4  -3   17.56    7.81
   5   4  -3   20.17    9.27
   6   4  -3   13.20   11.44
   1   5  -3   -1.51    4.61
   2   5  -3   -1.16    5.91
   3   5  -3    4.75    7.36
   4   5  -3   12.27    8.70
   5   5  -3   21.73    9.94
   2   6  -3   18.92    7.05
   3   6  -3   13.14    8.05
   4   6  -3    9.07    9.44
   5   6  -3   -1.38   11.65
   4   7  -3    4.49   14.50
   2  -2  -2   50.02    2.20
   3  -2  -2  191.83    4.38
   2  -1  -2  147.56    3.20
   3  -1  -2  347.33    6.03
   5  -1  -2   33.20    6.75
   2   1  -2  275.13    5.01
   3   1  -2  261.41    6.43
   4   1  -2   16.55    5.61
   5   1  -2   16.08    7.80
   6   1  -2   10.71    9.73
   7   1  -2    8.23   11.83
   1   2  -2    9.14    1.89
   2   2  -2  168.60    5.05
   3   2  -2   71.68    5.24
   4   2  -2   10.43    6.84
   5   2  -2    2.74    8.08
   6   2  -2   12.19   10.57
   7   2  -2    1.54   12.61
   1   3  -2   49.72    3.54
   2   3  -2  209.51    6.02
   3   3  -2   96.39    6.38
   4   3  -2   37.51    7.39
   5   3  -2   20.65    9.23
   6   3  -2   25.34   11.12
   0   4  -2   11.98    2.94
   1   4  -2   20.42    3.88
   2   4  -2  178.87    6.73
   3   4  -2   54.23    6.83
   4   4  -2    6.53    8.07
   5   4  -2   14.18    9.61
   6   4  -2   19.24   11.99
   1   5  -2   13.16    4.95
   2   5  -2   30.68    6.44
   3   5  -2    5.32    7.33
   4   5  -2   22.46    9.16
   5   5  -2    7.51   10.13
   2   6  -2   70.01    8.08
   3   6  -2   26.54    8.92
   4   6  -2    7.51   10.00
   5   6  -2   20.75   12.50
   4   7  -2   16.37   12.26
   2  -2  -1    2.88    2.09
   3  -2  -1   13.72    3.20
   2  -1  -1  137.19    2.91
   3  -1  -1  138.34    4.46
   4  -1  -1   40.12    5.39
   5  -1  -1    1.93    7.05
   1   1  -1   52.88    2.18
   2   1  -1  186.45    4.21
   3   1  -1   92.73    5.02
   4   1  -1   31.14    5.81
   5   1  -1    1.92    8.16
   6   1  -1   31.62   10.49
   7   1  -1   14.98   12.52
   0   2  -1    5.11    1.24
   1   2  -1   46.01    2.55
   2   2  -1   11.38    3.40
   3   2  -1   31.48    4.96
   4   2  -1   -7.32    7.84
   5   2  -1   -1.14    8.92
   6   2  -1    8.31   10.80
   7   2  -1   14.59   13.08
   0   3  -1  573.49    5.23
   1   3  -1   59.42    3.75
   2   3  -1   89.42    4.78
   3   3  -1   90.27    6.39
   4   3  -1   19.82    7.68
   5   3  -1    4.60    9.01
   6   3  -1   24.44   11.38
   0   4  -1    1.85    2.81
   1   4  -1   37.62    4.01
   2   4  -1   53.52    5.35
   3   4  -1   64.86    6.93
   4   4  -1   11.45    8.10
   5   4  -1   15.14   10.09
   6   4  -1   15.98   12.81
   1   5  -1    7.57    4.79
   2   5  -1    3.75    6.00
   3   5  -1   16.96    7.82
   4   5  -1    6.01    9.14
   5   5  -1   -8.50   10.43
   2   6  -1   27.07    8.02
   3   6  -1   36.41    9.00
   4   6  -1    1.25   10.40
   5   6  -1    6.57   12.65
   4   7  -1    6.34   14.19
   2  -1   0  158.01    3.34
   3  -1   0   56.97    4.34
   4  -1   0   29.29    5.59
   1   1   0   57.17    2.04
   2   1   0  151.20    4.01
   3   1   0   60.30    4.75
   4   1   0   18.43    6.40
   5   1   0   25.78    9.04
   0   2   0 1996.76    7.02
   1   2   0   10.59    2.04
   2   2   0  100.79    4.37
   3   2   0   43.05    5.26
   4   2   0    3.21    7.82
   5   2   0    8.92    9.20
   6   2   0   37.87   11.44
   0   3   0  819.47    6.51
   1   3   0  167.80    4.47
   2   3   0   22.07    4.36
   3   3   0   91.28    6.73
   4   3   0   21.42    8.20
   5   3   0   12.16   10.13
   6   3   0   26.75   12.26
   0   4   0  152.00    4.16
   1   4   0   29.95    4.14
   2   4   0  112.43    6.28
   3   4   0   45.16    7.00
   4   4   0    1.62    8.34
   5   4   0   -1.52   10.41
   1   5   0   18.10    5.50
   2   5   0    1.78    6.42
   3   5   0   15.26    7.99
   4   5   0    7.64    9.23
   5   5   0   30.95   11.51
   2   6   0   43.00    8.27
   3   6   0   11.11    9.16
   4   6   0   32.69   11.01
   2   1   1   57.29    3.60
   3   1   1   63.34    5.46
   4   1   1   13.91    6.38
   1   2   1   48.72    2.85
   2   2   1   23.82    4.34
   3   2   1   42.58    5.44
   4   2   1    5.66    7.32
   1   3   1   68.64    4.58
   2   3   1   37.15    4.81
   3   3   1   47.32    6.68
   4   3   1   16.26    8.23
   1   4   1   23.65    4.33
   2   4   1   13.36    5.53
   3   4   1   24.19    7.11
  -4   1  -1   12.84    2.79
  -3   1  -1   53.61    4.00
  -2   1  -1   43.18    2.77
  -4   2  -1   -6.38    4.90
  -3   2  -1   41.43    3.82
  -2   2  -1    4.98    2.59
  -1   2  -1  362.85    4.80
  -5   3  -1   34.61    4.33
  -4   3  -1   38.12    5.74
  -3   3  -1   53.74    4.93
  -2   3  -1   40.92    3.76
  -1   3  -1  140.87    3.77
  -5   4  -1   17.01    4.31
  -4   4  -1   10.97    6.22
  -3   4  -1   34.98    5.04
  -2   4  -1   78.93    4.66
  -1   4  -1   70.68    3.94
  -4   5  -1    2.62    5.91
  -3   5  -1   -2.58    5.49
  -2   5  -1   -3.86    4.61
  -3   6  -1   55.33    4.63
  -3  -1   0   40.57    3.21
  -2  -1   0  139.48    2.83
  -5   1   0   33.26    5.78
  -4   1   0   32.93    4.63
  -3   1   0   52.14    3.64
  -2   1   0  118.45    3.06
  -1   1   0  122.95    2.13
  -6   2   0    2.39    6.62
  -5   2   0   -2.18    6.56
  -4   2   0    9.62    4.88
  -3   2   0   47.86    4.13
  -2   2   0    0.69    2.35
  -1   2   0  852.42    6.18
  -6   3   0  -13.46    8.51
  -5   3   0   12.48    7.14
  -4   3   0   51.18    6.14
  -3   3   0   61.43    4.80
  -2   3   0   34.48    3.55
  -1   3   0  547.76    5.76
   0   3   0  830.95    5.18
  -6   4   0  -15.52    8.60
  -5   4   0    2.97    7.96
  -4   4   0   12.83    6.47
  -3   4   0   84.83    5.72
  -2   4   0   39.07    4.26
  -1   4   0  315.43    5.34
   0   4   0  137.11    3.23
  -6   5   0    5.51    7.72
  -5   5   0   16.18    8.19
  -4   5   0   21.71    7.59
  -3   5   0    5.20    5.98
  -2   5   0   13.69    4.93
  -1   5   0  157.49    5.38
  -5   6   0   -3.86    8.45
  -4   6   0   34.08    7.96
  -3   6   0   20.79    7.00
  -4   7   0  -11.55    8.11
  -3  -2   1   35.11    3.02
  -2  -2   1    3.12    1.53
  -4  -1   1   26.98    4.15
  -3  -1   1   81.37    3.50
  -2  -1   1  186.25    2.90
  -6   1   1   35.04    7.78
  -5   1   1    7.36    6.14
  -4   1   1   40.22    4.88
  -3   1   1  129.25    4.55
  -2   1   1  123.06    3.45
  -1   1   1   47.67    1.83
  -7   2   1  -17.76    8.18
  -6   2   1   -0.17    8.26
  -5   2   1   10.62    6.56
  -4   2   1   30.82    5.38
  -3   2   1   27.62    3.99
  -2   2   1   33.94    2.95
  -1   2   1  101.87    2.77
  -7   3   1  -15.51   10.46
  -5   3   1   22.04    7.29
  -4   3   1   47.16    6.41
  -3   3   1  103.78    5.58
  -2   3   1   48.61    3.92
  -1   3   1  283.68    4.63
   0   3   1  387.46    4.41
  -6   4   1   15.98    9.99
  -5   4   1   19.41    8.04
  -4   4   1   35.18    6.93
  -3   4   1   57.71    5.74
  -2   4   1   60.33    4.58
  -1   4   1   13.89    3.26
   0   4   1   21.57    2.81
  -6   5   1  -12.68   10.44
  -5   5   1    5.23    8.66
  -4   5   1    5.71    7.40
  -3   5   1    5.97    5.82
  -2   5   1    7.33    4.74
  -1   5   1   49.50    4.43
  -5   6   1   16.16    9.36
  -4   6   1   33.31    8.17
  -3   6   1   36.33    7.15
  -5   7   1   11.27    7.43
  -4   7   1   15.57    8.17
  -3  -2   2   78.81    3.34
  -2  -2   2   98.87    3.60
  -4  -1   2   20.54    3.97
  -3  -1   2  278.82    4.98
  -2  -1   2  276.45    4.49
  -7   1   2   25.05    8.90
  -6   1   2   18.55    7.80
  -5   1   2   29.93    6.42
  -4   1   2   31.76    4.89
  -3   1   2  365.13    6.61
  -2   1   2  165.15    4.11
  -7   2   2   -1.01    9.73
  -6   2   2   13.93    8.08
  -5   2   2    4.16    6.43
  -4   2   2   14.81    5.19
  -3   2   2  170.71    5.90
  -2   2   2   55.60    3.61
  -7   3   2    8.75   11.09
  -6   3   2   23.54    8.68
  -5   3   2   16.36    7.70
  -4   3   2   41.86    6.45
  -3   3   2  181.78    6.56
  -2   3   2   72.27    4.28
  -1   3   2   55.47    3.64
  -6   4   2   15.71    9.24
  -5   4   2    6.41    7.53
  -4   4   2   41.17    6.90
  -3   4   2  131.96    6.60
  -2   4   2   49.87    4.88
  -1   4   2   17.25    3.77
  -6   5   2   12.38   10.39
  -5   5   2    7.63    8.55
  -4   5   2    2.15    7.22
  -3   5   2   20.88    6.27
  -2   5   2    8.08    5.11
  -1   5   2    0.40    4.00
  -5   6   2    9.88    8.89
  -4   6   2   25.68    7.99
  -3   6   2   47.74    7.15
  -2   6   2   12.89    6.00
  -5   7   2    3.80   11.75
  -4   7   2    8.15    6.41
  -3  -2   3   20.57    3.42
  -4  -1   3    3.60    4.14
  -3  -1   3   87.49    4.48
  -7   1   3   -3.27    9.20
  -6   1   3   30.58    7.86
  -5   1   3   23.60    6.73
  -4   1   3   13.17    5.03
  -3   1   3  113.73    4.87
  -7   2   3    3.64    9.23
  -6   2   3   15.48    8.57
  -5   2   3   26.82    7.17
  -4   2   3   11.68    5.72
  -3   2   3   45.37    4.99
  -7   3   3    2.94   10.77
  -6   3   3   20.59    9.66
  -5   3   3   25.68    7.71
  -4   3   3   32.74    6.43
  -3   3   3   82.73    5.81
  -6   4   3   33.21    9.46
  -5   4   3   12.38    8.26
  -4   4   3    5.41    6.95
  -3   4   3   67.92    6.44
  -2   4   3   43.07    5.11
  -6   5   3   16.31   10.31
  -5   5   3    6.86    8.54
  -4   5   3    3.27    7.51
  -3   5   3    7.67    6.22
  -2   5   3    6.81    5.23
  -5   6   3    7.10    8.90
  -4   6   3   12.41    8.13
  -3   6   3   31.49    7.42
  -2   6   3   10.86    5.83
  -5   7   3   -6.29   10.23
  -4  -1   4    4.82    4.35
  -7   1   4    5.56    8.98
  -6   1   4    7.41    7.78
  -5   1   4    1.25    6.72
  -7   2   4    1.44    9.62
  -6   2   4    7.83    8.27
  -5   2   4    0.85    7.04
  -7   3   4   -2.39   10.15
  -6   3   4   12.91    9.06
  -5   3   4   37.23    8.04
  -6   4   4    8.54    9.36
  -5   4   4   -1.83    7.80
  -1   4  -2   20.95    2.44
   0   4  -2   -3.75    1.87
  -2   5  -2    0.47    2.62
  -1   5  -2   20.88    2.96
   0   5  -2    2.24    2.19
  -2   6  -2    0.07    3.37
  -1   6  -2   13.15    3.48
  -2   2  -1    1.95    2.41
  -1   2  -1  363.63    4.85
   0   2  -1    4.49    1.46
  -3   3  -1   37.76    4.44
  -2   3  -1   40.24    3.83
  -1   3  -1  118.44    4.02
   0   3  -1  577.38    6.27
   1   3  -1   74.73    3.18
  -4   4  -1   10.54    3.31
  -3   4  -1   24.85    5.07
  -2   4  -1   63.02    4.95
  -1   4  -1   79.11    4.44
   0   4  -1    2.13    3.30
   1   4  -1   44.18    3.51
  -4   5  -1   23.92    3.85
  -3   5  -1   20.97    6.06
  -2   5  -1    3.39    5.59
  -1   5  -1   45.11    5.24
   0   5  -1  111.40    5.47
   1   5  -1    4.34    4.15
  -4   6  -1   22.79    4.75
  -3   6  -1   28.06    7.42
  -2   6  -1   42.12    7.13
  -1   6  -1   10.46    6.24
   0   6  -1   24.19    6.27
  -3   7  -1   -6.86    7.52
  -2   7  -1   17.26    7.57
  -1   7  -1   32.97    6.22
   0   7  -1   22.91    6.89
  -3   8  -1    2.94    5.57
  -2   8  -1    0.94    6.69
  -1   8  -1    0.84    6.95
  -3   1   0   53.42    3.15
  -2   1   0  128.70    2.89
  -1   1   0  123.89    2.06
  -4   2   0    1.31    3.40
  -3   2   0   56.87    3.78
  -2   2   0    3.25    2.32
  -1   2   0  854.17    6.60
   0   2   0 1992.48    8.35
   1   2   0   10.99    1.26
  -4   3   0   65.73    5.56
  -3   3   0   67.26    4.71
  -2   3   0   42.02    3.68
  -1   3   0  552.73    6.61
   0   3   0  838.51    7.08
   1   3   0  143.39    3.51
   2   3   0   12.15    2.16
  -5   4   0   13.36    4.12
  -4   4   0   11.68    6.60
  -3   4   0   82.23    6.19
  -2   4   0   48.80    4.73
  -1   4   0  310.44    6.33
   0   4   0  127.55    4.45
   1   4   0   21.64    3.23
  -5   5   0   -2.54    5.73
  -4   5   0    3.84    7.79
  -3   5   0    3.95    6.80
  -2   5   0    0.69    5.49
  -1   5   0  166.90    6.47
   0   5   0  126.84    5.81
   1   5   0   14.65    4.17
  -5   6   0   10.67    6.29
  -4   6   0   29.66    8.68
  -3   6   0   21.14    8.01
  -2   6   0   32.27    7.02
  -1   6   0  130.54    7.84
   0   6   0   48.87    6.48
  -5   7   0   13.61    6.48
  -4   7   0   22.15    9.24
  -3   7   0    8.51    9.19
  -2   7   0   17.73    6.55
  -1   7   0   19.92    6.82
   0   7   0    2.01    3.43
  -3   8   0   23.91    9.84
  -2   8   0    8.21    9.26
  -1   8   0   29.74    9.19
  -1   9   0   11.55    9.03
  -4   1   1   42.78    3.87
  -3   1   1  125.57    3.73
  -2   1   1  127.35    2.89
  -1   1   1   47.41    1.76
  -4   2   1   31.40    4.65
  -3   2   1   28.62    3.53
  -2   2   1   29.48    2.83
  -1   2   1  102.98    2.92
   0   2   1   84.12    2.51
  -5   3   1   22.39    6.43
  -4   3   1   59.45    5.72
  -3   3   1  102.74    5.16
  -2   3   1   54.01    3.97
  -1   3   1  277.25    5.18
   0   3   1  399.47    5.48
   1   3   1   64.55    3.38
   2   3   1   23.01    2.86
  -5   4   1   15.35    7.60
  -4   4   1   34.47    6.71
  -3   4   1   55.00    6.05
  -2   4   1   66.68    4.91
  -1   4   1   17.03    3.92
   0   4   1   24.20    3.73
   1   4   1   14.00    3.50
  -6   5   1    0.85    5.62
  -5   5   1    7.39    8.46
  -4   5   1   10.74    7.77
  -3   5   1    4.05    6.50
  -2   5   1    3.49    5.54
  -1   5   1   54.75    5.48
   0   5   1   73.05    5.33
   1   5   1    3.72    4.35
  -6   6   1   18.14    6.78
  -5   6   1   12.02    9.82
  -4   6   1   20.73    8.98
  -3   6   1   36.35    8.03
  -2   6   1   28.82    7.12
  -1   6   1    6.77    6.15
   0   6   1   34.27    6.22
  -5   7   1   17.33    8.48
  -4   7   1   24.05    8.93
  -3   7   1   23.57    8.26
  -2   7   1    2.26    4.82
  -1   7   1   18.35    6.74
   0   7   1   16.21    5.68
  -3   8   1    0.06    8.71
  -2   8   1   10.04    9.23
  -1   8   1    8.73    8.49
  -1   9   1    4.78    9.86
  -4   1   2   27.25    3.78
  -3   1   2  360.19    5.51
  -2   1   2  165.03    3.69
  -4   2   2   16.74    4.46
  -3   2   2  186.71    5.06
  -2   2   2   54.71    3.44
  -5   3   2   35.75    6.77
  -4   3   2   47.89    5.79
  -3   3   2  180.48    6.04
  -2   3   2   71.85    4.43
  -1   3   2   52.90    4.05
  -5   4   2   14.43    7.25
  -4   4   2   43.99    6.82
  -3   4   2  137.27    6.71
  -2   4   2   55.27    4.98
  -1   4   2   13.43    4.38
   0   4   2   31.20    3.92
  -6   5   2   14.95    9.58
  -5   5   2    0.03    8.15
  -4   5   2    1.21    7.36
  -3   5   2   22.10    6.90
  -2   5   2   10.06    5.65
  -1   5   2    0.15    4.97
   0   5   2   22.14    4.90
   1   5   2    2.90    4.48
  -6   6   2   20.49   10.55
  -5   6   2    4.32    9.49
  -4   6   2   28.82    8.62
  -3   6   2   46.88    8.02
  -2   6   2   11.86    6.84
  -1   6   2    7.21    6.25
   0   6   2   20.87    6.14
  -5   7   2    5.75    7.05
  -4   7   2   25.48    9.25
  -3   7   2   14.54    7.40
  -2   7   2   17.95    7.52
  -1   7   2    1.51    4.74
   0   7   2   30.94    6.52
  -3   8   2    5.42   10.07
  -2   8   2   -0.51    8.88
  -1   8   2    8.30    7.99
  -4   1   3   11.58    3.91
  -3   1   3   86.35    4.26
  -4   2   3   10.19    4.70
  -3   2   3   48.17    4.37
  -5   3   3   23.09    6.68
  -4   3   3   49.85    5.97
  -3   3   3   67.29    5.42
  -5   4   3   10.54    7.55
  -4   4   3   12.64    6.65
  -3   4   3   69.51    6.31
  -2   4   3   57.15    5.33
  -6   5   3   10.63    9.78
  -5   5   3    9.26    8.39
  -4   5   3   15.51    7.69
  -3   5   3   18.59    6.59
  -2   5   3   -4.72    5.84
  -6   6   3   17.23   10.94
  -5   6   3    6.35    9.71
  -4   6   3   12.50    8.61
  -3   6   3   33.84    7.82
  -2   6   3   12.32    6.90
  -5   7   3   20.70   10.64
  -4   7   3   -0.92    9.47
  -3   7   3   14.44    6.52
  -5   3   4   17.24    6.82
   4   1  -4   -1.11    4.00
   4   2  -4    4.56    4.80
   4   3  -4    6.65    6.29
   5   3  -4   10.27    7.07
   4   4  -4    3.23    6.98
   5   4  -4    4.59    8.18
   4   5  -4    8.74    7.88
   3   1  -3   72.32    3.95
   4   1  -3   12.49    4.64
   2   2  -3    7.15    2.41
   3   2  -3   40.41    4.35
   4   2  -3   16.98    5.86
   2   3  -3   42.77    4.15
   3   3  -3   80.67    5.78
   4   3  -3   25.92    6.94
   5   3  -3   51.92    8.20
   1   4  -3    8.17    4.06
   2   4  -3   45.33    5.80
   3   4  -3   28.81    6.79
   4   4  -3   22.39    7.89
   5   4  -3   23.93    9.04
   1   5  -3   -2.63    5.76
   2   5  -3    9.36    6.65
   3   5  -3    7.59    7.85
   4   5  -3   14.85    8.91
   5   5  -3   15.43   10.00
   1   6  -3    9.57    7.04
   2   6  -3   20.59    7.91
   3   6  -3   20.96    9.03
   4   6  -3   17.05   10.31
   5   6  -3   11.08   11.00
   1   7  -3   -2.54    8.24
   2   7  -3    3.00    8.41
   3   7  -3    7.89    7.62
   3  -1  -2  320.68    3.78
   2   1  -2  279.50    4.53
   3   1  -2  271.11    5.62
   4   1  -2   11.69    4.82
   1   2  -2    4.42    1.99
   2   2  -2  169.23    5.00
   3   2  -2   93.04    5.09
   4   2  -2    7.95    6.09
   0   3  -2   60.40    3.09
   1   3  -2   55.06    3.98
   2   3  -2  227.15    6.21
   3   3  -2   90.64    6.28
   4   3  -2   39.21    7.45
   5   3  -2   21.26    7.87
  -1   4  -2   23.82    3.78
   0   4  -2   11.57    3.99
   1   4  -2   22.11    4.95
   2   4  -2  171.59    7.20
   3   4  -2   54.24    7.11
   4   4  -2   12.95    8.02
   5   4  -2   22.68    9.09
  -1   5  -2   10.04    5.34
   0   5  -2    7.33    5.54
   1   5  -2   13.78    6.11
   2   5  -2   31.24    7.08
   3   5  -2   10.49    8.24
   4   5  -2   30.73    9.07
   5   5  -2    3.43   10.08
  -1   6  -2   19.23    6.49
   0   6  -2   15.02    7.10
   1   6  -2   27.85    7.69
   2   6  -2   63.23    9.01
   3   6  -2   21.48    9.69
   4   6  -2    7.96   10.20
   5   6  -2   14.21   11.28
   0   7  -2    7.12    8.76
   1   7  -2   12.07    7.77
   2   7  -2   10.01    8.84
   3   7  -2    4.06    8.38
   4   7  -2   -1.11   11.36
   0   8  -2    5.63    9.73
   1   8  -2   -0.34   10.00
   2   8  -2    5.73   11.19
   1   1  -1   54.25    2.09
   2   1  -1  198.97    3.92
   3   1  -1   94.12    4.46
   4   1  -1   22.10    4.83
   0   2  -1    5.37    1.68
   1   2  -1   48.79    2.66
   2   2  -1   14.58    3.42
   3   2  -1   34.78    4.77
   4   2  -1    6.80    6.76
  -2   3  -1   35.84    2.72
  -1   3  -1  113.22    3.62
   0   3  -1  551.64    6.60
   1   3  -1   70.05    4.32
   2   3  -1   86.90    4.90
   3   3  -1   99.45    6.42
   4   3  -1    9.62    7.19
   5   3  -1   -6.17    7.98
  -2   4  -1   68.82    4.06
  -1   4  -1   82.40    4.32
   0   4  -1    2.97    3.88
   1   4  -1   34.16    4.77
   2   4  -1   52.83    5.76
   3   4  -1   46.78    7.28
   4   4  -1    9.15    7.95
   5   4  -1    8.46    9.00
  -1   5  -1   46.02    5.39
   0   5  -1  105.71    6.15
   1   5  -1    0.40    5.80
   2   5  -1    7.23    6.74
   3   5  -1   10.38    8.04
   4   5  -1    2.00    8.61
   5   5  -1    3.64    9.73
  -1   6  -1    5.70    6.77
   0   6  -1   22.71    7.49
   1   6  -1   20.57    7.44
   2   6  -1   24.76    8.78
   3   6  -1   28.05    9.38
   4   6  -1    6.04   10.09
   5   6  -1   16.88   11.05
   0   7  -1   16.40    8.40
   1   7  -1   10.33    7.68
   2   7  -1   14.95    8.47
   3   7  -1   -6.23   10.68
   4   7  -1  -13.28   11.12
   0   8  -1   25.86   10.01
   1   8  -1    1.48   10.22
   2   8  -1    2.62   11.52
   1   9  -1    3.82   12.45
   1   1   0   60.11    2.19
   2   1   0  156.94    3.84
   3   1   0   46.84    4.07
  -1   2   0  882.32    4.90
   0   2   0 2002.64    9.07
   1   2   0   11.60    2.24
   2   2   0  111.36    4.41
   3   2   0   42.49    4.92
   4   2   0    9.92    5.94
  -2   3   0   -5.64    2.55
  -1   3   0  502.55    5.88
   0   3   0  832.54    7.67
   1   3   0  162.75    5.09
   2   3   0   31.79    4.59
   3   3   0  104.94    6.52
   4   3   0   10.20    7.32
  -1   4   0  297.70    5.85
   0   4   0  136.00    5.16
   1   4   0   23.15    4.73
   2   4   0  103.95    6.29
   3   4   0   36.11    7.18
   4   4   0   -0.47    8.29
  -1   5   0  163.83    6.35
   0   5   0  138.50    6.64
   1   5   0   22.21    5.94
   2   5   0    2.81    6.55
   3   5   0    7.41    8.22
   4   5   0   -4.50    8.80
  -1   6   0  128.98    7.90
   1   6   0   24.34    7.59
   2   6   0   31.19    8.56
   3   6   0   22.33    9.30
   4   6   0   11.93    9.81
   0   7   0   -6.84    9.36
   1   7   0    9.56    8.73
   3   7   0   -1.28   10.21
   0   8   0   10.12   10.23
   1   8   0   -4.05    9.92
   2   8   0    2.71   10.96
   1   9   0    3.61   12.02
   0   2   1   83.94    2.54
   1   2   1   55.38    3.06
   2   2   1   30.70    4.13
  -1   3   1  246.23    4.46
   0   3   1  361.82    6.04
   1   3   1   69.82    4.57
   2   3   1   33.17    4.81
   3   3   1   60.00    6.18
  -1   4   1   16.79    3.36
   0   4   1   27.99    4.03
   1   4   1   15.63    4.71
   2   4   1   -1.64    5.65
   3   4   1   19.53    7.07
  -1   5   1   52.55    5.12
   0   5   1   74.86    5.59
   1   5   1    3.95    5.65
   2   5   1   10.96    6.69
   3   5   1    5.98    7.82
  -1   6   1    5.41    5.86
   0   6   1   24.61    6.72
   1   6   1    6.88    6.87
   2   6   1   24.42    8.09
   0   7   1   29.40    6.95
   1   7   1   23.02    8.12
   2   7   1   -2.72    9.44
  -1  -8  -1    7.14    9.27
   0  -8  -1   16.82    8.59
  -2  -7  -1   27.70   11.68
  -1  -7  -1    4.99    5.35
   0  -7  -1    9.13    5.73
   1  -6  -1    4.97    6.10
   1  -5  -1   61.73    5.29
   2  -3  -1   42.02    2.35
  -1  -9   0    4.86   11.50
  -2  -8   0    6.44   10.98
  -1  -8   0    3.67    9.46
   0  -8   0   14.73    9.06
  -4  -7   0    2.70   10.91
  -3  -7   0    6.35    7.25
  -1  -7   0   11.09    7.26
   0  -7   0   22.45    6.54
  -4  -6   0    9.00    9.47
  -3  -6   0   25.58    8.78
  -2  -6   0   25.03    8.42
  -1  -6   0   20.43    7.56
   1  -6   0  129.79    7.97
  -5  -5   0    7.05    8.52
  -4  -5   0    7.69    8.08
  -3  -5   0   14.79    7.39
  -1  -5   0   14.82    6.16
   0  -5   0  141.53    6.69
   1  -5   0  170.92    6.32
  -5  -4   0    5.06    7.58
  -4  -4   0    3.70    6.75
   0  -4   0  136.33    5.33
   1  -4   0  323.72    6.26
  -5  -3   0   17.25    6.78
   1  -3   0  581.84    5.93
   1  -2   0  892.60    5.17
  -1  -9   1   -2.44   11.72
  -2  -8   1    4.60   10.90
  -1  -8   1    1.97    9.74
   0  -8   1    5.15    9.37
  -4  -7   1    4.30   10.82
  -3  -7   1   13.49   13.59
  -2  -7   1    8.55   13.04
  -1  -7   1   -2.57    8.49
   0  -7   1   11.47    7.25
  -5  -6   1   -3.60   10.33
  -4  -6   1   12.32    9.69
  -3  -6   1   28.73    8.54
  -2  -6   1   31.64    8.03
  -1  -6   1    9.12    7.13
   0  -6   1   28.80    7.39
   1  -6   1    8.64    6.63
  -5  -5   1    4.79    8.57
  -4  -5   1    1.21    7.69
  -3  -5   1   14.74    7.34
  -2  -5   1   10.97    6.65
  -1  -5   1    6.05    5.99
   0  -5   1  104.58    6.50
   1  -5   1   29.35    5.52
  -5  -4   1   13.54    7.54
  -4  -4   1   11.61    7.08
  -3  -4   1   52.86    6.44
  -2  -4   1   51.63    5.69
  -1  -4   1   40.52    4.70
   0  -4   1    9.98    4.09
   1  -4   1   52.80    4.32
  -5  -3   1    1.79    6.71
  -4  -3   1   10.50    5.95
  -3  -3   1   99.97    5.71
  -2  -3   1   93.38    4.91
  -1  -3   1   61.17    4.45
   0  -3   1  574.96    7.17
  -4  -2   1   -7.66    5.67
  -3  -2   1   45.63    4.17
  -2  -2   1    7.05    3.07
  -1  -2   1   40.24    2.69
   0  -2   1   11.00    1.77
  -4  -1   1   28.00    4.11
  -3  -1   1   88.37    3.97
  -2  -1   1  188.98    3.68
  -1  -1   1   37.80    1.93
  -1  -9   2  -26.51    9.14
  -2  -8   2    2.58   11.13
  -1  -8   2   31.34    9.78
  -4  -7   2    7.94   15.12
  -3  -7   2   -0.22   10.01
  -2  -7   2   27.31    8.90
  -1  -7   2   20.97    9.16
   0  -7   2   14.41    8.51
  -5  -6   2   14.95   10.64
  -4  -6   2    4.62    9.50
  -3  -6   2   27.18    8.80
  -2  -6   2   77.78    8.93
  -1  -6   2   30.94    7.95
   0  -6   2   25.13    6.62
  -5  -5   2    3.58    8.85
  -4  -5   2   19.35    8.29
  -3  -5   2    4.92    7.44
  -2  -5   2   30.59    7.01
  -1  -5   2   13.28    6.43
   0  -5   2   10.22    5.79
  -5  -4   2   25.13    7.99
  -4  -4   2   13.40    7.15
  -3  -4   2   47.87    6.94
  -2  -4   2  153.67    7.70
  -1  -4   2   32.25    5.02
   0  -4   2   22.28    4.14
  -5  -3   2   20.90    7.13
  -4  -3   2   33.94    6.55
  -3  -3   2   84.86    5.96
  -2  -3   2  222.34    6.56
  -1  -3   2   50.67    4.54
   0  -3   2   -4.94    2.64
  -4  -2   2    2.84    5.35
  -3  -2   2   90.97    4.86
  -2  -2   2  176.83    5.46
  -1  -2   2   10.59    2.51
  -4  -1   2   23.41    4.47
  -3  -1   2  286.60    5.89
  -2  -1   2  271.68    4.95
  -4  -7   3   49.91    9.43
  -3  -7   3   20.62    7.20
  -2  -7   3   36.78    8.66
  -5  -6   3   40.26    9.68
  -4  -6   3    3.13    9.54
  -3  -6   3    3.78    9.45
  -2  -6   3   45.18    8.55
  -1  -6   3  -11.40    6.57
  -5  -5   3   34.58    8.90
  -4  -5   3   13.67    8.37
  -3  -5   3    2.19    8.03
  -2  -5   3    6.83    7.42
  -1  -5   3   -3.89    6.03
  -5  -4   3   32.95    8.38
  -4  -4   3    9.74    7.71
  -3  -4   3   13.80    7.17
  -2  -4   3   48.59    6.30
  -5  -3   3   69.54    7.27
  -4  -3   3    5.40    6.58
  -3  -3   3   63.48    6.22
  -2  -3   3   82.04    4.67
  -4  -2   3   10.41    4.69
  -3  -2   3    7.52    3.72
   3  -7  -3    1.85    3.75
   4  -7  -3    3.57    6.10
   5  -7  -3    7.23   10.21
   3  -6  -3   26.76    7.41
   4  -6  -3    5.45    7.83
   5  -6  -3    7.59    8.86
   2  -5  -3   -0.03    5.58
   3  -5  -3   10.65    6.48
   4  -5  -3    7.56    7.07
   5  -5  -3   10.25    8.04
   2  -4  -3   46.52    5.30
   3  -4  -3   63.22    6.12
   4  -4  -3   10.76    6.36
   5  -4  -3    7.79    7.13
   3  -3  -3   68.96    5.24
   4  -3  -3   44.41    5.90
   5  -3  -3   13.49    6.47
   2  -8  -2    1.27    8.71
   3  -8  -2   -0.48    9.63
   1  -7  -2   -2.64    6.82
   2  -7  -2    3.98   10.94
   3  -7  -2    5.32    4.93
   4  -7  -2   15.15    9.21
   5  -7  -2    6.75   12.28
   1  -6  -2   16.85    6.43
   2  -6  -2   28.05    6.94
   3  -6  -2   37.86    8.15
   4  -6  -2   32.04    9.07
   5  -6  -2   10.02    9.76
   6  -6  -2    6.14   11.45
   1  -5  -2    0.25    5.34
   2  -5  -2   11.05    5.95
   3  -5  -2   16.88    6.88
   4  -5  -2    3.15    7.49
   5  -5  -2    1.64    8.72
   6  -5  -2    7.29    9.88
   1  -4  -2   15.19    4.34
   2  -4  -2   64.49    5.34
   3  -4  -2  121.57    6.67
   4  -4  -2   43.77    7.02
   5  -4  -2    3.95    7.55
   1  -3  -2   49.49    3.98
   2  -3  -2   71.16    4.68
   3  -3  -2  160.33    6.15
   4  -3  -2   35.76    5.94
   5  -3  -2   21.94    7.09
   1  -2  -2   50.57    2.73
   2  -2  -2   59.09    3.48
   3  -2  -2  187.34    5.46
   4  -2  -2   23.55    4.68
   3  -1  -2  351.15    5.59
   4  -1  -2   44.43    4.02
   2  -9  -1    7.64   10.95
   1  -8  -1    1.73    8.39
   2  -8  -1    6.89    9.12
   3  -8  -1   10.12   10.75
   0  -7  -1   10.27    5.70
   1  -7  -1   28.96    6.52
   2  -7  -1    3.25    9.20
   3  -7  -1    4.46    7.09
   4  -7  -1    4.25   14.31
   5  -7  -1   12.01   12.41
   0  -6  -1   21.49    6.30
   1  -6  -1    0.84    6.38
   2  -6  -1   20.40    7.42
   3  -6  -1   24.06    8.50
   4  -6  -1   20.85    9.37
   5  -6  -1    5.25   11.00
   6  -6  -1   14.94   12.88
   0  -5  -1   83.84    5.55
   1  -5  -1   62.61    5.93
   2  -5  -1    5.28    5.76
   3  -5  -1    9.77    7.02
   4  -5  -1    5.13    8.11
   5  -5  -1    5.38    9.44
   6  -5  -1    3.42   11.14
   0  -4  -1   34.99    4.25
   1  -4  -1   12.67    4.22
   2  -4  -1   70.35    5.21
   3  -4  -1   67.56    6.12
   4  -4  -1   31.37    7.32
   5  -4  -1   19.78    8.39
   0  -3  -1  274.76    6.67
   1  -3  -1  264.06    5.39
   2  -3  -1   48.88    4.30
   3  -3  -1   91.58    5.50
   4  -3  -1   51.80    6.27
   5  -3  -1    8.77    7.43
   0  -2  -1   98.71    2.77
   1  -2  -1   81.11    2.91
   2  -2  -1   32.96    3.04
   3  -2  -1   19.85    3.76
   4  -2  -1   31.94    4.94
   1  -1  -1   55.10    1.91
   2  -1  -1  136.42    3.16
   3  -1  -1  129.45    3.96
   4  -1  -1   34.50    4.27
   2  -9   0    0.95   11.74
   1  -8   0   33.42    9.50
   2  -8   0   14.00    9.95
   3  -8   0    4.64   11.10
   0  -7   0    4.36    4.83
   1  -7   0   19.55    7.42
   2  -7   0   13.03    9.36
   3  -7   0   -0.78    9.70
   4  -7   0   -1.82   11.49
   5  -7   0    3.14    9.90
   0  -6   0   40.01    7.03
   1  -6   0  117.65    8.04
   2  -6   0   38.31    8.01
   3  -6   0   25.52    8.75
   4  -6   0   13.36   10.07
   5  -6   0    5.64   11.89
  -1  -5   0   19.75    4.66
   0  -5   0  137.75    6.28
   1  -5   0  147.75    6.85
   2  -5   0    4.81    6.28
   3  -5   0   -4.26    7.43
   4  -5   0   -0.16    9.02
   5  -5   0   -0.68   10.44
   6  -5   0    3.83   12.49
  -1  -4   0   18.98    3.74
   0  -4   0  133.80    5.04
   1  -4   0  311.92    6.62
   4  -4   0   23.20    7.70
   5  -4   0   -1.32    8.67
  -1  -3   0  150.52    4.15
   0  -3   0  843.29    7.46
   5  -3   0   13.17    7.74
  -1  -2   0    7.51    1.50
   2  -9   1    6.14   11.94
   1  -8   1   12.70    9.53
   2  -8   1    0.21    9.89
   3  -8   1    6.34   11.82
   0  -7   1   21.58    7.36
   1  -7   1   11.73    8.41
   2  -7   1    2.02    6.77
   3  -7   1   16.68   10.60
   4  -7   1    8.52   13.73
   0  -6   1   29.94    6.83
   1  -6   1   13.55    7.21
   4  -6   1    1.65   10.71
  -1  -5   1    1.74    4.76
   0  -5   1   81.51    5.94
  -1  -4   1   33.00    3.78
  -2  -3   1    3.13    2.90
   1  -8   2    5.95    9.58
   0  -7   2   -3.82    8.11
   1  -8  -2   -1.53    8.07
   2  -8  -2   -0.58    8.52
   0  -7  -2   15.78    6.68
   1  -7  -2    7.10    8.58
   2  -7  -2    7.11    5.62
   3  -7  -2   14.05    7.05
   1  -6  -2    6.13    6.11
   2  -6  -2   18.24    6.36
   3  -6  -2   33.34    6.80
   0  -5  -2   24.21    5.05
   1  -5  -2    2.67    4.76
   2  -5  -2    7.59    4.97
   3  -5  -2   16.05    5.31
   0  -4  -2   38.92    4.34
   1  -4  -2   16.74    3.83
   2  -4  -2   49.23    4.28
   3  -4  -2  127.87    5.49
   1  -3  -2   29.36    3.42
   2  -3  -2   53.51    3.58
   1  -9  -1    3.99    9.76
   2  -9  -1   -4.02   10.74
  -1  -8  -1    2.19    8.22
   0  -8  -1    7.89    8.04
   1  -8  -1    1.60    8.42
   2  -8  -1   -1.74    8.94
   3  -8  -1   10.41    9.91
  -1  -7  -1    5.64    7.04
   0  -7  -1   16.37    6.66
   1  -7  -1   17.79    6.30
   2  -7  -1   -3.95    7.62
   3  -7  -1   12.00    7.84
  -2  -6  -1   11.27    6.86
  -1  -6  -1    9.50    6.26
   0  -6  -1   28.69    6.52
   1  -6  -1   -2.03    6.31
   2  -6  -1   22.30    6.69
   3  -6  -1   40.68    7.28
  -2  -5  -1   -0.71    5.49
  -1  -5  -1    4.79    5.29
   0  -5  -1   71.38    5.80
   1  -5  -1   41.79    5.45
   2  -5  -1    6.49    5.12
   3  -5  -1    2.83    5.55
  -2  -4  -1    9.91    4.74
  -1  -4  -1   11.81    4.26
   0  -4  -1   34.71    4.18
   1  -4  -1    9.34    3.73
   2  -4  -1   57.23    4.43
   3  -4  -1   49.38    4.88
  -1  -3  -1   75.11    4.09
   0  -3  -1  267.45    6.42
   1  -3  -1  260.46    4.87
   2  -3  -1   47.65    3.39
   3  -3  -1   85.77    4.20
  -1  -2  -1   53.12    2.58
   0  -2  -1   99.21    2.70
   1  -2  -1   81.04    2.50
   2  -2  -1   29.49    2.31
   3  -2  -1   17.41    2.28
   0  -9   0    9.30   10.13
   1  -9   0   -7.99   10.27
   2  -9   0   -2.35   11.18
  -2  -8   0  -14.51    8.92
  -1  -8   0    1.91    8.50
   0  -8   0   16.72    8.71
   1  -8   0   29.93    9.72
   2  -8   0    6.74    9.93
   3  -8   0    5.94   10.38
  -1  -7   0   13.36    5.87
   0  -7   0   23.40    7.03
   1  -7   0   40.75    7.94
   2  -7   0   15.31    7.99
   3  -7   0   15.81    9.57
  -3  -6   0   12.53    7.05
  -2  -6   0   16.43    7.29
  -1  -6   0   18.31    6.68
   0  -6   0   49.85    6.80
   1  -6   0  120.09    7.91
   2  -6   0   38.67    7.18
   3  -6   0   15.24    7.85
  -3  -5   0   16.18    6.21
  -2  -5   0    8.32    5.57
  -1  -5   0   15.23    5.54
   0  -5   0  120.18    6.24
   1  -5   0  145.01    6.26
   3  -5   0    2.06    5.96
  -3  -4   0   38.41    5.21
  -2  -4   0   98.27    5.54
  -1  -4   0   24.44    4.31
  -2  -3   0   27.93    3.59
  -1  -3   0  160.67    4.58
  -2  -2   0   97.04    3.33
  -1  -2   0   11.50    1.98
   1  -9   1   -5.98   11.49
  -2  -8   1    8.30    9.77
  -1  -8   1   -3.59    9.41
   0  -8   1    2.04    9.02
   1  -8   1   -0.78    9.83
   2  -8   1    0.97   10.62
   3  -8   1    5.48   11.06
  -2  -7   1   19.87    8.55
  -1  -7   1    7.41    7.64
   0  -7   1   20.03    7.47
   1  -7   1   12.96    8.23
   3  -7   1    9.55   10.51
  -3  -6   1   11.65    7.10
  -2  -6   1   30.60    7.23
  -1  -6   1   19.16    6.59
  -3  -5   1   14.46    6.20
  -2  -5   1   10.38    5.73
  -3  -4   1   54.95    5.49
  -2  -4   1   47.76    5.12
  -3  -3   1  105.20    4.84
  -3  -2   1   20.75    3.27
  -2  -8   2    2.60    9.94
  -1  -8   2    0.99    9.59
   0  -8   2    6.93    9.41
  -2  -7   2   17.25    7.29
  -2  -6   2   60.23    7.81
  -3  -5   2    7.96    6.36
  -3  -4   2   45.50    5.69
   2  -8  -2   -4.98   10.09
   3  -8  -2   -0.40   11.19
   3  -7  -2   15.91    8.08
   3  -6  -2   49.89    8.66
   1  -9  -1    4.24   12.21
   2  -9  -1   13.84   13.53
  -1  -8  -1    1.48   11.54
   0  -8  -1    0.60   10.89
   1  -8  -1    6.82   10.99
   2  -8  -1   -4.22   10.43
   3  -8  -1    2.01   12.03
   1  -7  -1   13.51    9.77
   2  -7  -1   19.65   10.72
   3  -7  -1   11.50   11.96
   2  -6  -1   24.20    8.14
   3  -6  -1   49.35    8.87
   3  -5  -1    3.05    7.27
   3  -4  -1   66.90    6.13
   3  -3  -1  108.87    5.05
   3  -2  -1   17.64    2.97
   0  -9   0    1.67   13.88
   1  -9   0   41.70   14.81
   2  -9   0   29.74   14.20
  -2  -8   0   18.16   12.29
  -1  -8   0    5.70   11.61
   0  -8   0   12.43   12.13
   1  -8   0   33.31   11.99
   2  -8   0    8.35   11.94
   3  -8   0    4.55   11.92
  -1  -7   0   17.20    9.81
   0  -7   0   15.37    9.21
   1  -7   0   51.01    9.55
   2  -7   0   16.26    9.09
   3  -7   0    5.51    7.69
  -3  -6   0   28.10    8.47
  -2  -6   0   32.54    8.59
   1  -6   0  171.59   10.03
   2  -6   0   49.85    9.21
   3  -6   0   11.88    9.22
  -3  -5   0   18.06    7.03
   1  -5   0  180.03    8.09
   2  -5   0   -2.57    7.99
   3  -5   0   -3.50    7.60
   2  -4   0   50.48    5.90
   3  -4   0  100.71    6.66
   2  -3   0   52.46    4.19
   3  -3   0   60.78    4.62
   2  -2   0    5.52    2.39
   1  -9   1   12.64   14.61
  -2  -8   1    4.56   11.96
  -1  -8   1   -1.32   11.38
   0  -8   1   20.74   12.04
   1  -8   1   11.56   11.28
   2  -8   1   -2.12   11.87
  -2  -7   1    5.81    7.67
  -1  -7   1    0.81    3.72
   0  -7   1   33.62   10.07
   1  -7   1   14.33    9.72
   2  -7   1    8.85   10.98
  -3  -6   1   35.15    8.56
  -2  -6   1   42.12    8.61
  -1  -6   1   26.33    8.53
   0  -6   1   31.31    8.97
   1  -6   1   18.79    8.31
   2  -6   1   58.30    8.97
   3  -6   1  -12.11    8.50
  -3  -5   1   27.90    6.90
  -2  -5   1    8.39    6.47
  -1  -5   1    4.71    6.23
   0  -5   1  103.71    7.40
   1  -5   1   43.44    7.28
   2  -5   1    9.20    7.85
  -3  -4   1   56.66    5.83
  -2  -4   1   61.88    5.47
  -1  -4   1   43.49    5.16
   0  -4   1    3.39    4.54
   1  -4   1   72.27    5.55
   2  -4   1   77.06    6.46
  -3  -3   1  113.26    5.21
  -2  -3   1  104.07    4.47
  -1  -3   1   76.32    4.39
   0  -3   1  623.12    7.99
   1  -3   1  117.84    4.71
   2  -3   1   38.59    4.42
  -3  -2   1   57.04    3.59
  -2  -2   1   13.23    2.78
  -1  -2   1   49.13    2.67
   0  -2   1    9.49    2.13
   1  -2   1  309.65    5.44
  -1  -1   1   43.95    1.98
  -2  -8   2    7.66   12.50
  -1  -8   2   -1.43   12.51
   0  -8   2    6.41   12.57
  -2  -7   2   39.99   12.03
  -1  -7   2   29.46    9.93
   0  -7   2    9.71   11.67
   1  -7   2    8.04    8.93
  -2  -6   2   79.52    9.22
  -1  -6   2   28.15    8.50
   0  -6   2   10.73    9.24
   1  -6   2   11.78    9.02
  -3  -5   2   15.05    7.53
  -2  -5   2   29.80    7.16
  -1  -5   2   13.05    6.51
   0  -5   2   16.54    6.86
   1  -5   2    6.39    7.48
  -3  -4   2   46.81    6.48
  -2  -4   2  170.71    7.56
  -1  -4   2   22.70    5.47
   0  -4   2   15.09    5.41
   1  -4   2   25.14    5.58
  -3  -3   2   63.86    5.44
  -2  -3   2  239.38    6.54
  -1  -3   2   54.02    5.09
   0  -3   2   71.24    5.03
  -1  -6   3  -18.10    8.33
   2   3  -3   34.78    3.00
   3   3  -3   68.96    4.46
   1   4  -3    3.48    3.40
   2   4  -3   56.69    4.54
   3   4  -3   24.13    5.06
   1   5  -3    6.81    5.22
   2   5  -3    5.03    5.80
   3   5  -3    2.53    6.03
   1   6  -3    5.74    6.56
   2   6  -3    8.61    6.81
   1   7  -3    4.19    8.27
   2   7  -3   -0.01    8.26
   1   2  -2    1.84    1.57
   2   2  -2  161.21    3.82
   3   2  -2   77.52    3.40
   0   3  -2   72.16    3.30
   1   3  -2   47.71    3.45
   2   3  -2  224.77    5.29
   3   3  -2   83.66    4.63
  -2   4  -2   -1.45    4.02
  -1   4  -2   19.24    4.21
   0   4  -2   16.18    3.83
   1   4  -2   26.80    4.36
   2   4  -2  189.72    6.29
   3   4  -2   53.46    5.30
  -2   5  -2    2.39    5.18
  -1   5  -2   13.88    5.48
   0   5  -2   10.96    5.34
   1   5  -2    4.25    5.55
   2   5  -2   34.32    6.00
   3   5  -2    6.50    5.95
  -2   6  -2   -0.44    6.97
  -1   6  -2   18.19    7.00
   0   6  -2    5.19    6.93
   1   6  -2   28.31    7.07
  -2   7  -2    0.16    2.05
  -1   7  -2   13.80    7.41
   0   7  -2   -2.18    8.22
   1   7  -2    8.71    5.21
   2   7  -2   -0.76    8.72
  -1   8  -2   -2.92    9.44
   0   8  -2    4.75    9.33
   1   8  -2   11.35    9.23
   2   8  -2    3.46    9.12
   1   1  -1   48.30    1.60
   2   1  -1  127.34    2.87
  -3   2  -1   40.21    2.95
  -2   2  -1   13.06    2.11
  -1   2  -1  360.33    4.62
   0   2  -1    4.81    1.57
   1   2  -1   49.65    2.30
   2   2  -1   13.81    2.49
   3   2  -1   24.83    2.87
  -3   3  -1   47.02    4.26
  -2   3  -1   41.66    3.64
  -1   3  -1  116.74    4.00
   0   3  -1  561.53    6.84
   1   3  -1   75.30    3.88
   2   3  -1   81.72    4.22
   3   3  -1   74.63    4.57
  -3   4  -1   15.93    4.90
  -2   4  -1   63.76    5.05
  -1   4  -1   72.01    4.90
   0   4  -1    5.42    3.73
   1   4  -1   33.53    4.41
   2   4  -1   52.93    4.95
   3   4  -1   44.57    5.26
  -3   5  -1    5.88    6.25
  -2   5  -1    8.83    6.05
  -1   5  -1   43.36    5.88
   0   5  -1   82.17    6.27
   1   5  -1    6.10    5.50
   2   5  -1   14.33    5.67
   3   5  -1   13.55    6.09
  -3   6  -1   16.91    8.04
  -2   6  -1   55.23    7.63
  -1   6  -1   13.98    6.92
   0   6  -1   36.38    7.18
   1   6  -1   21.10    6.96
   2   6  -1   19.75    7.28
   3   6  -1   24.75    7.21
  -3   7  -1    0.80    3.34
  -2   7  -1   10.37    7.57
  -1   7  -1    6.93    6.09
   0   7  -1   10.81    6.75
   1   7  -1    6.71    6.88
   2   7  -1    3.96    5.53
  -3   8  -1   -2.84   10.39
  -2   8  -1    7.87    9.84
  -1   8  -1   10.47    9.98
   0   8  -1    5.74    9.70
   1   8  -1    7.61    9.05
   2   8  -1    5.55    9.30
  -1   1   0  127.09    1.79
   0   1   0  360.78    2.91
   1   1   0   55.74    1.75
  -3   2   0   55.89    2.78
  -2   2   0    3.49    1.95
  -1   2   0  905.28    6.52
   0   2   0 2077.21    9.81
   1   2   0   13.80    1.90
   2   2   0   92.85    3.38
  -3   3   0   47.96    3.72
  -2   3   0   42.93    3.27
  -1   3   0  554.40    6.62
   0   3   0  802.48    7.94
   1   3   0  164.79    4.72
   2   3   0   28.88    3.64
  -3   4   0   81.96    5.33
  -2   4   0   35.35    4.29
  -1   4   0  302.75    6.51
   0   4   0  129.47    5.30
   1   4   0   27.17    4.18
   2   4   0   98.68    5.56
  -3   5   0    5.79    5.95
  -2   5   0    9.57    6.29
  -1   5   0  156.47    6.79
   0   5   0  118.01    6.58
   1   5   0   14.02    5.52
   2   5   0    6.53    5.70
  -3   6   0   26.60    7.30
  -2   6   0   40.71    7.20
  -1   6   0  136.03    7.87
   1   6   0   28.59    6.80
   2   6   0   22.29    7.18
  -3   7   0   11.49    8.55
  -2   7   0    7.09    6.63
  -1   7   0   34.46    7.17
   0   7   0   33.49    6.99
   1   7   0   14.78    6.69
  -3   8   0    0.42   11.86
  -2   8   0    9.36    9.96
  -1   8   0   45.16    9.68
   0   8   0   11.48    8.85
   1   8   0   -4.06    9.02
  -3   2   1    6.78    2.38
  -2   2   1   33.62    2.22
  -1   2   1   98.05    2.67
   0   2   1   88.18    2.67
  -3   3   1   98.24    3.97
  -2   3   1   47.21    3.27
  -1   3   1  281.88    5.26
   0   3   1  378.80    6.12
   1   3   1   67.86    4.01
  -3   4   1   61.18    4.55
  -2   4   1   53.96    4.43
  -1   4   1   18.10    3.83
   0   4   1   30.91    4.07
   1   4   1   15.97    4.18
  -3   5   1    5.78    5.36
  -2   5   1   -7.15    5.59
  -1   5   1   56.93    5.28
   0   5   1   71.68    5.75
   1   5   1    3.26    5.30
  -3   6   1   32.36    7.04
  -2   6   1   37.28    6.48
  -1   6   1    6.63    6.21
   0   6   1   33.69    6.59
   1   6   1    8.36    6.63
  -3   7   1    9.17    6.25
  -2   7   1   16.48    6.78
  -1   7   1   10.41    5.09
   0   7   1   -5.80    7.64
   1   7   1    0.79    2.04
  -3   8   1    1.92    9.27
  -2   8   1    8.50    8.70
  -1   8   1    4.67    8.94
   0   8   1    8.52    8.66
  -2   4   2   57.99    4.26
  -1   4   2   28.93    3.87
  -3   5   2   17.59    4.95
  -2   5   2    8.58    4.89
  -1   5   2    4.12    4.56
   0   5   2   14.67    5.07
  -3   6   2   40.45    6.64
  -2   6   2   16.53    5.82
  -1   6   2   14.43    5.97
  -2   7   2   -3.10    7.13
   0   3  -2   66.38    3.06
   1   3  -2   58.91    3.14
   2   3  -2  249.33    4.83
   0   4  -2    8.73    3.05
   1   4  -2   20.51    3.52
   2   4  -2  185.15    5.44
   3   4  -2   74.79    4.10
  -1   5  -2    6.56    3.54
   0   5  -2   12.61    4.01
   1   5  -2    3.76    4.48
   2   5  -2   30.57    4.74
   3   5  -2   15.60    4.46
  -1   6  -2   15.41    4.42
   0   6  -2    2.76    5.45
   1   6  -2   33.51    5.81
   2   6  -2   70.88    6.23
   3   6  -2   49.85    5.17
   0   7  -2   12.39    4.11
   1   7  -2    5.34    3.18
   0   8  -2   -1.68    5.37
   1   8  -2    8.58    5.26
   2   8  -2   -2.40    5.96
   1   1  -1   44.43    1.46
   2   1  -1  174.13    2.40
  -1   2  -1  349.24    4.21
   0   2  -1    5.63    1.40
   1   2  -1   47.21    2.03
   2   2  -1    4.74    2.22
   3   2  -1   33.69    2.71
  -1   3  -1  113.72    3.71
   0   3  -1  548.85    6.53
   1   3  -1   69.35    3.49
   2   3  -1   81.10    3.60
   3   3  -1   82.81    4.27
  -2   4  -1   71.33    3.99
  -1   4  -1   68.39    4.22
   0   4  -1    4.20    3.24
   1   4  -1   34.86    3.74
   2   4  -1   47.86    4.31
   3   4  -1   53.86    4.85
  -2   5  -1    9.62    4.44
  -1   5  -1   35.74    5.08
   0   5  -1  100.11    5.74
   1   5  -1    6.14    4.37
   2   5  -1    6.92    4.92
   3   5  -1   13.47    5.24
  -2   6  -1   37.81    6.35
  -1   6  -1    5.60    6.07
   0   6  -1   32.47    5.86
   1   6  -1    6.26    6.06
   2   6  -1   28.92    6.52
   3   6  -1   28.32    6.74
  -2   7  -1    6.18    3.14
  -1   7  -1   14.84    6.11
   0   7  -1   15.74    6.37
   1   7  -1    1.83    3.65
   2   7  -1   16.46    7.49
  -1   8  -1    1.61    8.09
   0   8  -1   12.17    7.55
   1   8  -1   -1.26    7.89
   2   8  -1    5.27    8.17
  -1   1   0  120.39    1.69
   1   1   0   54.44    1.61
   2   1   0   79.61    2.64
   3   1   0   41.35    1.92
  -2   2   0    5.17    1.62
  -1   2   0  862.35    6.22
   0   2   0 1989.40    9.13
   1   2   0   12.81    1.68
   2   2   0   93.59    3.02
   3   2   0   29.78    2.80
  -3   3   0   47.99    2.79
  -2   3   0   35.46    2.98
  -1   3   0  535.25    6.43
   0   3   0  803.54    7.52
   1   3   0  154.93    4.30
   2   3   0   21.84    3.23
   3   3   0   80.11    4.32
  -3   4   0   81.06    4.54
  -2   4   0   41.37    4.13
  -1   4   0  294.60    6.27
   0   4   0  123.33    4.99
   1   4   0   22.99    3.89
   2   4   0   91.40    4.85
   3   4   0   39.57    4.75
  -3   5   0   10.71    4.78
  -2   5   0    0.64    4.95
  -1   5   0  146.91    6.33
   0   5   0  128.37    6.34
   1   5   0   20.14    4.88
   2   5   0    7.05    5.14
   3   5   0   10.52    5.60
  -3   6   0   19.07    6.36
  -2   6   0   37.78    6.17
  -1   6   0  133.17    7.70
   0   6   0   45.68    7.23
   1   6   0   39.46    6.45
   2   6   0   33.02    6.54
   3   6   0   12.53    6.65
  -3   7   0  -10.89    6.62
  -2   7   0   11.31    6.15
  -1   7   0   21.33    6.03
   0   7   0   31.29    6.46
   1   7   0   10.29    5.90
  -3   8   0   20.50    6.90
  -2   8   0    7.51    7.84
  -1   8   0   34.40    8.34
   0   8   0   19.48    8.59
   1   8   0    0.44    7.99
   2   8   0   -5.57    8.36
  -3   2   1   17.41    2.23
  -2   2   1   24.29    2.17
  -1   2   1   99.05    2.59
   0   2   1   88.96    2.63
   1   2   1   57.41    2.50
   2   2   1   23.15    2.68
   3   2   1   19.63    3.26
  -3   3   1  113.92    3.98
  -2   3   1   52.14    3.23
  -1   3   1  272.26    4.97
   0   3   1  391.69    5.84
   1   3   1   68.75    3.81
   2   3   1   43.04    3.61
   3   3   1   50.08    4.38
  -3   4   1   63.05    4.44
  -2   4   1   64.09    4.30
  -1   4   1   16.35    3.60
   0   4   1   28.16    3.77
   1   4   1   18.42    4.06
   2   4   1   12.22    4.35
   3   4   1   23.12    4.79
  -3   5   1    8.56    5.40
  -2   5   1    5.88    5.16
  -1   5   1   50.88    5.41
   0   5   1   66.07    5.75
   1   5   1    4.39    4.93
   2   5   1    5.46    5.25
   3   5   1    2.97    5.66
  -3   6   1   36.02    6.96
  -2   6   1   28.94    6.82
  -1   6   1    3.46    6.15
   0   6   1   42.01    6.35
   1   6   1    5.06    6.11
   2   6   1   24.68    6.64
   3   6   1    0.42    6.60
  -3   7   1    8.43    6.09
  -2   7   1    4.20    4.44
  -1   7   1    9.59    5.89
   0   7   1   10.17    5.50
   1   7   1    2.51    5.38
   2   7   1   12.64    6.06
  -3   8   1   -7.84    8.34
  -2   8   1   -2.04    8.89
  -1   8   1   10.56    8.42
   0   8   1    5.14    8.61
   1   8   1   -1.27    7.86
  -3   2   2  197.02    3.60
  -2   2   2   44.04    2.75
  -3   3   2  188.75    4.76
  -2   3   2   76.55    3.76
  -1   3   2   54.13    3.49
  -3   4   2  129.51    5.63
  -2   4   2   52.60    4.41
  -1   4   2   21.01    3.92
   0   4   2   33.44    3.89
  -3   5   2   17.33    5.65
  -2   5   2    9.56    5.15
  -1   5   2    4.71    4.81
   0   5   2   15.00    5.19
   1   5   2    3.77    5.20
  -3   6   2   51.56    7.16
  -2   6   2   14.85    6.57
  -1   6   2    7.57    6.48
   0   6   2   -9.48    7.28
   1   6   2   15.88    6.46
  -3   7   2   34.12    8.44
  -2   7   2    4.99    5.12
  -1   7   2    0.15    1.08
   0   7   2   24.38    6.61
  -3   8   2    2.42    8.92
  -2   8   2    2.58    8.86
  -1   8   2    4.68    7.97
  -3   2   3   28.06    3.12
  -3   3   3   82.23    4.41
  -3   4   3   65.13    4.89
  -2   4   3   49.23    4.74
  -3   5   3    6.40    5.50
  -2   5   3    5.99    5.14
  -3   6   3   30.58    6.97
  -2   6   3    6.99    6.52
   0   0   0    0.00    0.00
;
_shelx_hkl_checksum              13188
_olex2_submission_special_instructions 'No special instructions were received'
loop_
_space_group_symop_operation_xyz
'x, y, z'
loop_
_atom_site_label
_atom_site_type_symbol
_atom_site_fract_x
_atom_site_fract_y
_atom_site_fract_z
_atom_site_U_iso_or_equiv
_atom_site_adp_type
_atom_site_occupancy
_atom_site_site_symmetry_order
_atom_site_calc_flag
_atom_site_refinement_flags_posn
_atom_site_refinement_flags_adp
Co1 Co 0.000(2) 0.0000(15) 0.000(4) 0.033(3) Uiso 1 1 d . .
O1W O 0.343(6) 0.016(5) -0.025(11) 0.006(7) Uiso 1 1 d . .
H1WA H 0.3529 0.0448 -0.1023 0.009 Uiso 1 1 d R U
H1WB H 0.4210 0.1019 0.0239 0.009 Uiso 1 1 d R U
C8 C -0.314(4) -0.032(3) 0.731(3) 0.024(8) Uiso 1 1 d D .
C6 C 0.000(4) 0.018(3) 0.441(3) 0.028(5) Uiso 1 1 d DG .
H6 H 0.1505 0.0487 0.4212 0.034 Uiso 1 1 calc R U
C1 C -0.181(5) -0.025(2) 0.343(3) 0.028(5) Uiso 1 1 d DG .
C2 C -0.407(4) -0.070(3) 0.373(3) 0.028(5) Uiso 1 1 d DG .
H2 H -0.5278 -0.0994 0.3074 0.034 Uiso 1 1 calc R U
C3 C -0.451(4) -0.072(3) 0.499(4) 0.028(5) Uiso 1 1 d DG .
H3 H -0.6014 -0.1027 0.5186 0.034 Uiso 1 1 calc R U
C4 C -0.270(6) -0.029(3) 0.596(3) 0.028(5) Uiso 1 1 d DG .
C5 C -0.044(5) 0.016(3) 0.567(3) 0.028(5) Uiso 1 1 d DG .
H5 H 0.0769 0.0454 0.6324 0.034 Uiso 1 1 calc R U
C7 C -0.107(4) -0.018(4) 0.214(3) 0.024(8) Uiso 1 1 d D .
O2 O -0.255(5) -0.043(4) 0.121(3) 0.037(6) Uiso 1 1 d D .
N1 N -0.005(5) 0.311(4) -0.010(5) 0.020(6) Uiso 1 1 d D .
N2 N -0.018(5) 0.682(4) -0.024(5) 0.020(6) Uiso 1 1 d D .
C11 C -0.243(5) 0.368(4) -0.005(13) 0.034(14) Uiso 1 1 d D .
H11A H -0.3107 0.3039 0.0643 0.041 Uiso 1 1 calc R U
H11B H -0.3401 0.3309 -0.0842 0.041 Uiso 1 1 calc R U
C9 C 0.102(7) 0.394(3) -0.120(6) 0.012(10) Uiso 1 1 d D .
H9A H 0.0210 0.3339 -0.1981 0.014 Uiso 1 1 calc R U
H9B H 0.2628 0.3629 -0.1136 0.014 Uiso 1 1 calc R U
C12 C -0.233(7) 0.584(3) 0.015(9) 0.025(12) Uiso 1 1 d D .
H12A H -0.3677 0.6316 -0.0344 0.030 Uiso 1 1 calc R U
H12B H -0.2409 0.6121 0.1042 0.030 Uiso 1 1 calc R U
C10 C 0.097(8) 0.609(3) -0.130(6) 0.026(12) Uiso 1 1 d D .
H10A H 0.2549 0.6694 -0.1257 0.031 Uiso 1 1 calc R U
H10B H 0.0129 0.6402 -0.2112 0.031 Uiso 1 1 calc R U
C14 C 0.166(8) 0.622(4) 0.073(7) 0.035(15) Uiso 1 1 d D .
H14A H 0.1534 0.6860 0.1532 0.042 Uiso 1 1 calc R U
H14B H 0.3163 0.6643 0.0472 0.042 Uiso 1 1 calc R U
C13 C 0.157(8) 0.408(4) 0.095(6) 0.025(12) Uiso 1 1 d D .
H13A H 0.3107 0.3641 0.0955 0.030 Uiso 1 1 calc R U
H13B H 0.1018 0.3782 0.1762 0.030 Uiso 1 1 calc R U
O1 O 0.102(4) 0.019(4) 0.205(4) 0.037(6) Uiso 1 1 d D .
O4 O -0.149(5) 0.009(4) 0.814(4) 0.037(6) Uiso 1 1 d D .
O3 O -0.514(4) -0.074(4) 0.756(4) 0.037(6) Uiso 1 1 d D .
loop_
_atom_type_symbol
_atom_type_description
_atom_type_scat_dispersion_real
_atom_type_scat_dispersion_imag
_atom_type_scat_source
C C 0.0033 0.0016 'International Tables Vol C Tables 4.2.6.8 and 6.1.1.4'
H H 0.0000 0.0000 'International Tables Vol C Tables 4.2.6.8 and 6.1.1.4'
Co Co 0.3494 0.9721 'International Tables Vol C Tables 4.2.6.8 and 6.1.1.4'
N N 0.0061 0.0033 'International Tables Vol C Tables 4.2.6.8 and 6.1.1.4'
O O 0.0106 0.0060 'International Tables Vol C Tables 4.2.6.8 and 6.1.1.4'
loop_
_geom_angle_atom_site_label_1
_geom_angle_atom_site_label_2
_geom_angle_atom_site_label_3
_geom_angle
_geom_angle_site_symmetry_1
_geom_angle_site_symmetry_3
O1W Co1 O2 149(3) . .
O1W Co1 N1 91.7(10) . .
O1W Co1 N2 89.4(12) . 1_545
O1W Co1 O1 89(3) . .
O1W Co1 O4 100(3) . 1_554
O2 Co1 N1 96.5(14) . .
O2 Co1 N2 87.5(14) . 1_545
O2 Co1 O1 61.1(12) . .
N1 Co1 N2 170(3) . 1_545
O1 Co1 N1 91(2) . .
O1 Co1 N2 98(2) . 1_545
O4 Co1 O2 110.3(12) 1_554 .
O4 Co1 N1 82.9(19) 1_554 .
O4 Co1 N2 88(2) 1_554 1_545
O4 Co1 O1 169.0(13) 1_554 .
Co1 O1W H1WA 107.6 . .
Co1 O1W H1WB 111.0 . .
H1WA O1W H1WB 109.4 . .
O4 C8 C4 118.1(12) . .
O3 C8 C4 119.0(12) . .
O3 C8 O4 122.9(5) . .
C1 C6 H6 120.0 . .
C1 C6 C5 120.0 . .
C5 C6 H6 120.0 . .
C6 C1 C7 113.6(19) . .
C2 C1 C6 120.0 . .
C2 C1 C7 126.4(19) . .
C1 C2 H2 120.0 . .
C1 C2 C3 120.0 . .
C3 C2 H2 120.0 . .
C2 C3 H3 120.0 . .
C4 C3 C2 120.0 . .
C4 C3 H3 120.0 . .
C3 C4 C8 120(2) . .
C5 C4 C8 120(2) . .
C5 C4 C3 120.0 . .
C6 C5 H5 120.0 . .
C4 C5 C6 120.0 . .
C4 C5 H5 120.0 . .
O2 C7 C1 118.9(12) . .
O2 C7 O1 122.9(5) . .
O1 C7 C1 118.2(12) . .
C7 O2 Co1 90.3(18) . .
C11 N1 Co1 111(2) . .
C11 N1 C9 112(6) . .
C11 N1 C13 110(5) . .
C9 N1 Co1 113(2) . .
C13 N1 Co1 111(2) . .
C13 N1 C9 99(4) . .
C12 N2 Co1 113(2) . 1_565
C10 N2 Co1 117(2) . 1_565
C10 N2 C12 122(4) . .
C14 N2 Co1 105(3) . 1_565
C14 N2 C12 103(4) . .
C14 N2 C10 92(4) . .
N1 C11 H11A 109.7 . .
N1 C11 H11B 109.7 . .
N1 C11 C12 110(3) . .
H11A C11 H11B 108.2 . .
C12 C11 H11A 109.7 . .
C12 C11 H11B 109.7 . .
N1 C9 H9A 108.8 . .
N1 C9 H9B 108.8 . .
N1 C9 C10 114(4) . .
H9A C9 H9B 107.7 . .
C10 C9 H9A 108.8 . .
C10 C9 H9B 108.8 . .
N2 C12 C11 112(3) . .
N2 C12 H12A 109.3 . .
N2 C12 H12B 109.3 . .
C11 C12 H12A 109.3 . .
C11 C12 H12B 109.3 . .
H12A C12 H12B 107.9 . .
N2 C10 C9 110(3) . .
N2 C10 H10A 109.7 . .
N2 C10 H10B 109.7 . .
C9 C10 H10A 109.7 . .
C9 C10 H10B 109.7 . .
H10A C10 H10B 108.2 . .
N2 C14 H14A 108.5 . .
N2 C14 H14B 108.5 . .
N2 C14 C13 115(4) . .
H14A C14 H14B 107.5 . .
C13 C14 H14A 108.5 . .
C13 C14 H14B 108.5 . .
N1 C13 C14 108(4) . .
N1 C13 H13A 110.1 . .
N1 C13 H13B 110.1 . .
C14 C13 H13A 110.1 . .
C14 C13 H13B 110.1 . .
H13A C13 H13B 108.4 . .
C7 O1 Co1 85.7(13) . .
C8 O4 Co1 150(2) . 1_556
loop_
_geom_bond_atom_site_label_1
_geom_bond_atom_site_label_2
_geom_bond_distance
_geom_bond_site_symmetry_2
Co1 O1W 2.03(2) .
Co1 O2 2.07(4) .
Co1 N1 2.19(3) .
Co1 N2 2.23(3) 1_545
Co1 O1 2.17(6) .
Co1 O4 2.05(5) 1_554
O1W H1WA 0.8506 .
O1W H1WB 0.8508 .
C8 C4 1.480(3) .
C8 O4 1.230(3) .
C8 O3 1.229(3) .
C6 H6 0.9300 .
C6 C1 1.3900 .
C6 C5 1.3900 .
C1 C2 1.3900 .
C1 C7 1.480(3) .
C2 H2 0.9300 .
C2 C3 1.3900 .
C3 H3 0.9300 .
C3 C4 1.3900 .
C4 C5 1.3900 .
C5 H5 0.9300 .
C7 O2 1.230(3) .
C7 O1 1.230(3) .
N1 C11 1.480(3) .
N1 C9 1.480(3) .
N1 C13 1.480(3) .
N2 Co1 2.23(3) 1_565
N2 C12 1.480(3) .
N2 C10 1.480(3) .
N2 C14 1.480(3) .
C11 H11A 0.9700 .
C11 H11B 0.9700 .
C11 C12 1.520(3) .
C9 H9A 0.9700 .
C9 H9B 0.9700 .
C9 C10 1.520(3) .
C12 H12A 0.9700 .
C12 H12B 0.9700 .
C10 H10A 0.9700 .
C10 H10B 0.9700 .
C14 H14A 0.9700 .
C14 H14B 0.9700 .
C14 C13 1.520(3) .
C13 H13A 0.9700 .
C13 H13B 0.9700 .
O4 Co1 2.05(5) 1_556
loop_
_geom_torsion_atom_site_label_1
_geom_torsion_atom_site_label_2
_geom_torsion_atom_site_label_3
_geom_torsion_atom_site_label_4
_geom_torsion
_geom_torsion_site_symmetry_1
_geom_torsion_site_symmetry_4
Co1 N1 C11 C12 169(6) . .
Co1 N1 C9 C10 179(4) . .
Co1 N1 C13 C14 174(4) . .
Co1 N2 C12 C11 179(6) 1_565 .
Co1 N2 C10 C9 171(4) 1_565 .
Co1 N2 C14 C13 168(5) 1_565 .
C8 C4 C5 C6 179.6(11) . .
C6 C1 C2 C3 0.0 . .
C6 C1 C7 O2 -175.9(19) . .
C6 C1 C7 O1 2(2) . .
C1 C6 C5 C4 0.0 . .
C1 C2 C3 C4 0.0 . .
C1 C7 O2 Co1 178.2(17) . .
C1 C7 O1 Co1 -178.2(18) . .
C2 C1 C7 O2 5(3) . .
C2 C1 C7 O1 -177.8(16) . .
C2 C3 C4 C8 -179.6(11) . .
C2 C3 C4 C5 0.0 . .
C3 C4 C5 C6 0.0 . .
C4 C8 O4 Co1 -159(3) . 1_556
C5 C6 C1 C2 0.0 . .
C5 C6 C1 C7 -179.7(12) . .
C7 C1 C2 C3 179.6(13) . .
O2 C7 O1 Co1 -1(3) . .
N1 C11 C12 N2 21(11) . .
N1 C9 C10 N2 0(5) . .
N2 C14 C13 N1 13(6) . .
C11 N1 C9 C10 52(6) . .
C11 N1 C13 C14 -64(6) . .
C9 N1 C11 C12 -64(9) . .
C9 N1 C13 C14 54(4) . .
C12 N2 C10 C9 -43(6) . .
C12 N2 C14 C13 50(6) . .
C10 N2 C12 C11 32(9) . .
C10 N2 C14 C13 -74(5) . .
C14 N2 C12 C11 -69(8) . .
C14 N2 C10 C9 63(4) . .
C13 N1 C11 C12 46(10) . .
C13 N1 C9 C10 -63(4) . .
O1 C7 O2 Co1 1(3) . .
O4 C8 C4 C3 -179.3(13) . .
O4 C8 C4 C5 1.1(17) . .
O3 C8 C4 C3 0.4(16) . .
O3 C8 C4 C5 -179.2(13) . .
O3 C8 O4 Co1 21(4) . 1_556
