#------------------------------------------------------------------------------
#$Date: 2019-11-24 04:12:18 +0200 (Sun, 24 Nov 2019) $
#$Revision: 236652 $
#$URL: file:///home/coder/svn-repositories/cod/cif/8/00/03/8000373.cif $
#------------------------------------------------------------------------------
#
# This file is available in the Crystallography Open Database (COD),
# http://www.crystallography.net/
#
# All data on this site have been placed in the public domain by the
# contributors.
#
data_8000373
loop_
_publ_author_name
'Andrzejewski, Micha\/l'
'Katrusiak, Andrzej'
_publ_section_title
;
 Piezochromic Porous Metal-Organic Framework.
;
_journal_issue                   1
_journal_name_full               'The journal of physical chemistry letters'
_journal_page_first              279
_journal_page_last               284
_journal_paper_doi               10.1021/acs.jpclett.6b02458
_journal_volume                  8
_journal_year                    2017
_chemical_formula_moiety         'C14 H18 Co N2 O5'
_chemical_formula_sum            'C14 H18 Co N2 O5'
_chemical_formula_weight         353.23
_chemical_name_common            AMU1
_chemical_name_systematic
;
Co(1,4-benzenedicarboxylate)(1,4-diazabicyclo[2.2.2]octane)H2O
;
_space_group_crystal_system      triclinic
_space_group_IT_number           1
_space_group_name_Hall           'P 1'
_space_group_name_H-M_alt        'P 1'
_atom_sites_solution_hydrogens   mixed
_atom_sites_solution_primary     direct
_audit_creation_date             2016-07-12
_audit_creation_method
;
Olex2 1.2
(compiled 2016.02.19 svn.r3266 for OlexSys, GUI svn.r5155)
;
_cell_angle_alpha                90.03(4)
_cell_angle_beta                 95.46(3)
_cell_angle_gamma                93.21(2)
_cell_formula_units_Z            1
_cell_length_a                   5.9847(14)
_cell_length_b                   7.0514(17)
_cell_length_c                   10.628(5)
_cell_measurement_reflns_used    773
_cell_measurement_temperature    296(2)
_cell_measurement_theta_max      53.302
_cell_measurement_theta_min      9.782
_cell_volume                     445.8(3)
_computing_molecular_graphics    'Olex2 (Dolomanov et al., 2009)'
_computing_publication_material  'Olex2 (Dolomanov et al., 2009)'
_computing_structure_refinement  'ShelXL (Sheldrick, 2015)'
_computing_structure_solution    'ShelXS (Sheldrick, 2008)'
_diffrn_ambient_temperature      296(2)
_diffrn_measured_fraction_theta_full 0.230
_diffrn_measured_fraction_theta_max 0.226
_diffrn_measurement_device_type  'multiwire proportional'
_diffrn_measurement_method       'phi and omega scans'
_diffrn_radiation_monochromator  graphite
_diffrn_radiation_type           MoK\a
_diffrn_radiation_wavelength     0.71073
_diffrn_reflns_av_R_equivalents  0.0891
_diffrn_reflns_av_unetI/netI     0.1522
_diffrn_reflns_Laue_measured_fraction_full 0.230
_diffrn_reflns_Laue_measured_fraction_max 0.226
_diffrn_reflns_limit_h_max       7
_diffrn_reflns_limit_h_min       -7
_diffrn_reflns_limit_k_max       8
_diffrn_reflns_limit_k_min       -8
_diffrn_reflns_limit_l_max       4
_diffrn_reflns_limit_l_min       -4
_diffrn_reflns_number            2046
_diffrn_reflns_point_group_measured_fraction_full 0.230
_diffrn_reflns_point_group_measured_fraction_max 0.226
_diffrn_reflns_theta_full        26.000
_diffrn_reflns_theta_max         26.151
_diffrn_reflns_theta_min         4.891
_exptl_absorpt_coefficient_mu    0.983
_exptl_absorpt_correction_T_max  0.906
_exptl_absorpt_correction_T_min  0.889
_exptl_absorpt_correction_type   multi-scan
_exptl_absorpt_process_details
;
Data were collected and reduced by program CrysAlisPro, 
and SCALE3 ABSPACK was used for absorption correction
;
_exptl_crystal_colour            orange/yellow
_exptl_crystal_density_diffrn    1.316
_exptl_crystal_description       plate
_exptl_crystal_F_000             183
_exptl_crystal_size_max          0.3
_exptl_crystal_size_mid          0.1
_exptl_crystal_size_min          0.1
_refine_diff_density_max         0.901
_refine_diff_density_min         -0.568
_refine_diff_density_rms         0.159
_refine_ls_abs_structure_details
;
 Refined as a perfect inversion twin.
;
_refine_ls_abs_structure_Flack   0.5
_refine_ls_extinction_method     none
_refine_ls_goodness_of_fit_ref   1.307
_refine_ls_hydrogen_treatment    constr
_refine_ls_matrix_type           full
_refine_ls_number_parameters     70
_refine_ls_number_reflns         773
_refine_ls_number_restraints     29
_refine_ls_restrained_S_all      1.284
_refine_ls_R_factor_all          0.1964
_refine_ls_R_factor_gt           0.1497
_refine_ls_shift/su_max          0.000
_refine_ls_shift/su_mean         0.000
_refine_ls_structure_factor_coef Fsqd
_refine_ls_weighting_details
'w=1/[\s^2^(Fo^2^)+(0.2000P)^2^] where P=(Fo^2^+2Fc^2^)/3'
_refine_ls_weighting_scheme      calc
_refine_ls_wR_factor_gt          0.3563
_refine_ls_wR_factor_ref         0.3821
_reflns_Friedel_coverage         1.000
_reflns_Friedel_fraction_full    0.230
_reflns_Friedel_fraction_max     0.226
_reflns_number_gt                448
_reflns_number_total             773
_reflns_threshold_expression     'I > 2\s(I)'
_cod_data_source_file            jz6b02458_si_004.cif
_cod_data_source_block           052GPa_P1
_cod_database_code               8000373
_shelx_space_group_comment
;
The symmetry employed for this shelxl refinement is uniquely defined
by the following loop, which should always be used as a source of
symmetry information in preference to the above space-group names.
They are only intended as comments.
;
_olex2_refinement_description
;
1. Fixed Uiso
 At 1.2 times of:
  All C(H) groups, All C(H,H) groups
 At 1.5 times of:
  All O(H,H) groups
2. Restrained distances
 O1-C7
 1.21 with sigma of 0.02
 O2-C7
 1.21 with sigma of 0.02
 C8-O4
 1.21 with sigma of 0.02
 C8-O3
 1.21 with sigma of 0.02
 C4-C8
 1.48 with sigma of 0.002
 C7-C1
 1.48 with sigma of 0.002
 O4-O3
 2.16 with sigma of 0.002
 O1-O2
 2.16 with sigma of 0.002
 N1-C11
 1.48 with sigma of 0.002
 N1-C13
 1.48 with sigma of 0.002
 N1-C9
 1.48 with sigma of 0.002
 C12-N2
 1.48 with sigma of 0.002
 N2-C10
 1.48 with sigma of 0.002
 N2-C14
 1.48 with sigma of 0.002
 C11-C12
 1.52 with sigma of 0.002
 C9-C10
 1.52 with sigma of 0.002
 C13-C14
 1.52 with sigma of 0.002
3. Restrained planarity
 O2, O1, O4, C8, O3, C7, C6, C1, C2, C3, C4, C5
 with sigma of 0.1
4. Uiso/Uaniso restraints and constraints
Uiso(O2) = Uiso(O1) = Uiso(O3) = Uiso(O4)
Uiso(C2) = Uiso(C3) = Uiso(C4) = Uiso(C5) = Uiso(C6) = Uiso(C1)
5.a Rotating group:
 O1W(H1WA,H1WB)
5.b Secondary CH2 refined with riding coordinates:
 C11(H11A,H11B), C9(H9A,H9B), C12(H12A,H12B), C10(H10A,H10B), C14(H14A,H14B),
 C13(H13A,H13B)
5.c Aromatic/amide H refined with riding coordinates:
 C6(H6), C2(H2), C3(H3), C5(H5)
5.d Fitted hexagon refined as free rotating group:
 C6(C1,C2,C3,C4,C5)
;
_shelx_hkl_file
;
   6  -1   4   17.01   22.91
   5  -1   4    4.66   21.06
   4  -1   4   29.26   18.22
   6  -2   4   15.34   27.69
   5  -2   4   -2.43   24.92
   4  -2   4   45.64   19.64
   6  -3   4   24.33   29.34
   5  -3   4   18.60   22.51
   4  -3   4   63.44   20.56
   3  -3   4  214.26   18.06
   5  -4   4   15.00   26.21
   4  -4   4  -13.06   21.19
   3  -4   4  107.45   19.06
   2  -4   4  114.81   14.92
   5  -5   4   12.18   25.04
   4   2   3   32.83   16.66
   3   2   3   58.53   12.79
   6   1   3    1.49   18.51
   5   1   3   21.37   21.15
   4   1   3   15.50   15.73
   3   1   3   76.30   12.39
   6  -1   3   31.59   23.53
   5  -1   3   23.56   22.49
   4  -1   3   23.01   17.07
   3  -1   3  102.58   12.88
   6  -2   3    5.17   26.96
   5  -2   3    6.10   20.83
   4  -2   3   70.14   18.94
   3  -2   3   46.63   13.76
   2  -2   3   29.74    9.40
   6  -3   3   33.78   27.76
   5  -3   3   46.17   24.77
   4  -3   3  112.08   20.67
   3  -3   3  111.02   15.26
   2  -3   3   34.64   11.39
   1  -3   3  146.41    9.32
   6  -4   3   18.80   26.49
   5  -4   3    5.96   22.38
   4  -4   3   33.90   19.73
   3  -4   3   27.99   15.99
   2  -4   3   46.04   12.59
   5  -5   3   19.25   24.65
   3   2   2   32.05   11.41
   2   2   2   36.85    8.06
   6   1   2    9.83   17.53
   5   1   2  100.21   20.09
   4   1   2   88.67   15.90
   3   1   2  115.37   12.79
   2   1   2   79.45    7.72
   6  -1   2   28.36   24.49
   5  -1   2  115.31   21.24
   4  -1   2   89.00   16.88
   3  -1   2  125.53   13.93
   2  -1   2  104.97    9.43
   6  -2   2   14.27   23.49
   5  -2   2  126.51   24.40
   4  -2   2   83.18   18.72
   3  -2   2   46.37   12.82
   2  -2   2   19.29   10.04
   1  -2   2   52.84    5.90
   6  -3   2   14.77   26.64
   5  -3   2  109.95   21.94
   4  -3   2   53.57   20.94
   3  -3   2  120.32   14.62
   2  -3   2   87.53   11.07
   6  -4   2   54.86   28.22
   5  -4   2   25.53   22.61
   4  -4   2   26.69   18.92
   3  -4   2   55.96   15.58
   2  -4   2   55.60   11.65
   6  -5   2    0.12   26.91
   5  -5   2   18.54   23.61
   3   2   1   87.56   11.21
   2   2   1   12.84    6.91
   6   1   1   33.59   20.65
   5   1   1   -8.59   19.49
   4   1   1    6.85   13.91
   3   1   1   54.87   10.83
   2   1   1  153.88    7.79
   7  -1   1   25.92   28.51
   6  -1   1   23.11   21.45
   5  -1   1  -19.33   20.60
   4  -1   1    1.54   14.83
   3  -1   1   57.96   10.82
   2  -1   1  151.83    8.50
   6  -2   1   20.53   23.29
   5  -2   1    9.41   20.76
   4  -2   1   20.69   15.22
   3  -2   1   55.30   12.29
   2  -2   1   21.05    8.84
   6  -3   1   50.72   25.83
   5  -3   1   -6.03   20.26
   4  -3   1   63.19   16.90
   3  -3   1   56.59   13.66
   2  -3   1   70.21    9.92
   1  -3   1  165.33    7.91
   6  -4   1   12.33   24.01
   5  -4   1    7.91   20.11
   4  -4   1   12.50   18.13
   3  -4   1   41.44   14.35
   2  -4   1   57.37   10.40
   5  -5   1  -12.98   20.92
   3   2   0   43.17    9.41
   6   1   0   35.62   21.76
   5   1   0   -2.70   18.18
   4   1   0   47.95   13.39
   3   1   0  218.35   11.56
   2   1   0  261.90    8.11
   6  -1   0   40.91   22.13
   5  -1   0   10.16   17.46
   4  -1   0   99.02   15.39
   3  -1   0  236.09   12.05
   2  -1   0  209.04    8.71
   6  -2   0   13.45   23.75
   5  -2   0   15.66   20.36
   4  -2   0   16.56   15.93
   3  -2   0   43.55   12.62
   2  -2   0   59.09    7.69
   5  -3   0   16.19   20.28
   4  -3   0   72.81   16.94
   3  -3   0  168.23   14.29
   2  -3   0   55.72    9.07
   4  -4   0   18.16   16.05
   3  -4   0  104.16   13.85
   4   1  -1   69.07   12.27
   3   1  -1  182.76   10.41
   4  -1  -1   50.57   13.52
   3  -1  -1  234.35   11.37
  -3   2   1   87.57   10.38
  -3   1   1  207.07   11.18
  -4   1   1   54.26   10.98
  -3  -1   1  159.34    9.04
  -3   4   0  122.11   12.48
  -2   3   0   81.93    8.22
  -3   3   0  202.38   13.25
  -4   3   0  102.11   16.39
  -5   3   0   14.51   18.69
  -2   2   0   52.59    6.82
  -3   2   0   54.40   10.63
  -4   2   0   45.68   12.55
  -5   2   0   32.07   18.10
  -6   2   0    6.63   17.80
  -2   1   0  202.03    7.48
  -3   1   0  260.47   12.49
  -4   1   0   72.57   13.70
  -5   1   0   29.11   14.18
  -6   1   0   35.32   17.46
  -2  -1   0  272.61    7.59
  -3  -1   0  219.98   10.56
  -4  -1   0   64.81   11.86
  -5  -1   0   10.25   12.76
  -6  -1   0   43.11   15.42
  -2  -2   0  156.61    6.45
  -3  -2   0   45.26    7.81
  -4  -2   0   32.52   10.62
  -2   4  -1   66.73    9.57
  -3   4  -1   61.46   12.47
  -4   4  -1   10.87   16.45
  -5   4  -1   -0.70   18.23
  -6   4  -1   19.49   22.16
  -1   3  -1  174.35    7.55
  -2   3  -1   65.35    8.92
  -3   3  -1   64.58   11.25
  -4   3  -1   18.40   17.19
  -5   3  -1    9.35   16.37
  -6   3  -1   21.78   19.33
  -2   2  -1   15.98    7.42
  -3   2  -1   77.44   11.85
  -4   2  -1   32.99   15.34
  -5   2  -1    5.56   15.21
  -6   2  -1   18.45   21.48
  -2   1  -1  126.94    7.34
  -3   1  -1   47.55   10.28
  -4   1  -1    3.95   12.36
  -5   1  -1   19.44   14.81
  -6   1  -1   53.17   17.50
  -7   1  -1   12.21   17.84
  -2  -1  -1  120.27    6.88
  -3  -1  -1   63.72    9.35
  -4  -1  -1    9.38   11.45
  -5  -1  -1    8.57   14.00
  -6  -1  -1   25.31   16.76
  -7  -1  -1   -4.41   19.80
  -2  -2  -1    9.84    5.71
  -3  -2  -1   95.64    9.27
  -4  -2  -1    3.04   10.99
  -6   5  -2   10.73   22.59
  -3   4  -2   59.98   14.27
  -4   4  -2   24.10   17.47
  -5   4  -2   38.18   20.43
  -6   4  -2   38.49   23.80
  -1   3  -2  215.91    8.97
  -2   3  -2   93.82    9.95
  -3   3  -2  121.88   13.89
  -4   3  -2   -1.80   20.22
  -5   3  -2  136.30   20.57
  -6   3  -2   56.12   20.53
  -1   2  -2   61.39    5.53
  -2   2  -2   12.17    7.59
  -3   2  -2   40.54   12.22
  -4   2  -2   74.63   16.05
  -5   2  -2  155.94   19.62
  -6   2  -2   14.92   22.35
  -2   1  -2  114.95    8.11
  -3   1  -2  138.19   10.93
  -4   1  -2   80.35   14.86
  -5   1  -2  123.19   18.80
  -6   1  -2   31.31   19.17
  -3  -1  -2  143.68   10.36
  -4  -1  -2   71.75   13.10
  -5  -1  -2  113.89   15.88
  -6  -1  -2   17.36   14.87
  -7  -1  -2   28.96   21.94
  -2  -2  -2   14.75    6.29
  -3  -2  -2   46.48    9.18
  -4  -2  -2  138.65   14.00
  -3   4  -3   41.92   14.83
  -4   4  -3   34.47   17.10
  -5   4  -3   -6.93   20.64
  -6   4  -3   18.03   24.79
  -1   3  -3  163.86    8.41
  -2   3  -3   49.48    9.47
  -3   3  -3  114.41   13.76
  -4   3  -3   79.45   18.42
  -5   3  -3   74.82   18.49
  -6   3  -3   22.22   23.14
  -2   2  -3   15.57    8.59
  -3   2  -3   64.82   11.59
  -4   2  -3   67.76   14.65
  -5   2  -3   -1.53   19.99
  -6   2  -3   14.69   19.94
  -3   1  -3  100.15   12.27
  -4   1  -3   42.99   15.14
  -5   1  -3   13.01   16.39
  -6   1  -3   28.95   19.67
  -3  -1  -3   85.33   10.88
  -4  -1  -3   27.49   12.62
  -5  -1  -3    0.99    7.17
  -6  -1  -3   15.73   16.36
  -3  -2  -3   78.66   10.23
  -4  -2  -3   51.18   13.30
  -3   4  -4  106.82   16.21
  -4   4  -4   16.42   18.17
  -5   4  -4    3.99   19.44
  -6   4  -4   -4.97   26.03
  -3   3  -4  163.44   16.74
  -4   3  -4   70.10   16.66
  -5   3  -4   21.73   21.29
  -6   3  -4   33.12   21.98
  -4   2  -4   32.22   17.98
  -5   2  -4   12.79   19.41
  -6   2  -4   12.06   20.40
  -4   1  -4   37.31   13.55
  -5   1  -4  -11.70   18.91
  -6   1  -4   51.56   19.97
   6  -1   4   43.46   26.58
   5  -1   4   -0.28   22.98
   4  -1   4   -3.18   19.08
   6  -2   4    8.71   28.35
   5  -2   4    6.71   20.25
   4  -2   4   30.82   20.34
   6  -3   4   31.81   29.54
   5  -3   4   26.28   21.20
   4  -3   4   80.64   21.75
   5  -4   4   10.29   23.06
   4  -4   4    6.70   19.77
   6   1   3   20.74   20.98
   5   1   3   24.63   20.23
   4   1   3   41.28   14.33
   6  -1   3   29.97   24.23
   5  -1   3   17.71   18.65
   4  -1   3   24.72   17.11
   3  -1   3   91.08   13.30
   6  -2   3   23.91   28.79
   5  -2   3    2.73   19.47
   4  -2   3   69.12   19.00
   3  -2   3   75.83   13.09
   2  -2   3   17.48    9.67
   6  -3   3   41.40   29.46
   5  -3   3   23.52   23.25
   4  -3   3   74.81   21.85
   3  -3   3  128.03   15.78
   2  -3   3   39.59   11.36
   6  -4   3   32.17   30.68
   5  -4   3    8.47   25.34
   4  -4   3   41.82   19.06
   3  -4   3   10.56   15.47
   4   2   2  104.74   16.52
   3   2   2   33.43    9.83
   7   1   2   10.17   20.09
   6   1   2   24.71   21.21
   5   1   2  119.07   17.79
   4   1   2   75.28   15.06
   6  -1   2   22.56   19.97
   5  -1   2  128.11   21.54
   4  -1   2   90.49   16.94
   3  -1   2  138.23   13.19
   2  -1   2  121.86    9.35
   6  -2   2   14.33   27.38
   5  -2   2  133.77   24.24
   4  -2   2   44.32   20.31
   3  -2   2   36.42   13.72
   2  -2   2   21.57    8.78
   1  -2   2   48.59    5.65
   6  -3   2   33.71   30.06
   5  -3   2  155.42   24.09
   4  -3   2   60.26   21.02
   3  -3   2  143.82   14.40
   2  -3   2  108.59   10.74
   1  -3   2  160.06    8.96
   6  -4   2   -8.71   29.87
   5  -4   2   58.41   24.93
   4  -4   2   31.10   18.23
   3  -4   2   53.59   16.33
   4   2   1   12.88   14.44
   3   2   1   88.54   10.47
   2   2   1    6.81    6.03
   7   1   1   18.39   29.63
   6   1   1   14.47   16.54
   5   1   1  -12.78   18.92
   4   1   1   21.72   15.07
   3   1   1   48.43   10.62
   2   1   1  158.39    7.57
   6  -1   1   54.84   24.77
   5  -1   1   12.02   16.93
   4  -1   1    4.16   11.32
   3  -1   1   51.99   10.22
   2  -1   1  131.33    7.44
   6  -2   1   20.07   22.98
   5  -2   1    6.22   22.48
   4  -2   1   19.40   18.53
   3  -2   1   47.82   14.27
   2  -2   1   21.45    8.86
   1  -2   1  416.78    8.44
   6  -3   1    4.25   29.06
   5  -3   1    6.79   19.40
   4  -3   1   55.06   20.28
   3  -3   1   57.63   12.90
   2  -3   1   72.04   10.49
   1  -3   1  173.82    7.93
   6  -4   1   17.17   27.03
   5  -4   1  -20.89   23.02
   4  -4   1   16.71   20.04
   3  -4   1   54.99   14.38
   6  -5   1   42.34   31.85
   4   2   0   25.24   14.09
   3   2   0   27.31    9.85
   2   2   0  164.98    7.45
   6   1   0   36.99   21.25
   5   1   0   18.00   18.59
   4   1   0   72.06   12.98
   3   1   0  213.37   10.75
   2   1   0  255.53    7.81
   6  -1   0   40.16   23.67
   5  -1   0    4.55   15.22
   4  -1   0   97.31   14.53
   3  -1   0  279.11   12.83
   2  -1   0  217.76    7.74
   6  -2   0    1.52   25.81
   5  -2   0    6.90   20.95
   4  -2   0   32.12   13.91
   3  -2   0   54.48   13.03
   2  -2   0   47.81    7.36
   5  -3   0   29.42   23.40
   4  -3   0  100.58   19.54
   3  -3   0  172.38   15.49
   2  -3   0   98.84   10.08
   1  -3   0  974.75   12.57
   5  -4   0   20.93   22.61
   4  -4   0    8.68   18.45
   3  -4   0  108.73   15.03
   2  -4   0   53.60   10.91
   3   2  -1   83.16    9.60
   5   1  -1   15.39   15.55
   4   1  -1   70.53   13.45
   3   1  -1  194.98   10.53
   2   1  -1  348.34    8.60
   3  -1  -1  237.25   12.14
   4  -2  -1   60.95   15.80
   3  -2  -1  109.14   12.51
   3  -3  -1  131.00   12.67
   2  -3  -1  100.20    9.92
   2  -4  -1   93.98   11.12
  -2   4   1  106.87   10.17
  -2   3   1  108.34    9.51
  -3   3   1  156.97   11.42
  -3   2   1  100.48   11.05
  -4   2   1   47.60   14.09
  -3   1   1  206.80   11.16
  -2  -1   1  312.67    8.30
  -3  -1   1  205.99   10.02
  -4  -1   1   57.41   11.97
  -5  -1   1   26.44   14.45
  -3  -2   1  110.04    8.85
  -4   5   0   12.24   16.22
  -2   4   0   39.05    9.62
  -3   4   0  142.30   13.05
  -4   4   0   25.69   15.04
  -5   4   0    7.71   19.46
  -1   3   0  986.95   12.60
  -2   3   0   87.86    8.72
  -3   3   0  194.32   14.32
  -4   3   0   92.97   17.32
  -5   3   0   12.84   20.11
  -1   2   0  815.69   10.39
  -2   2   0   56.95    6.84
  -3   2   0   42.88   11.06
  -4   2   0   56.86   11.91
  -5   2   0    3.26   17.83
  -6   2   0   -2.78   21.83
  -2   1   0  194.18    7.24
  -3   1   0  254.40   11.57
  -4   1   0   84.27   13.04
  -5   1   0   24.63   15.73
  -6   1   0   48.16   19.69
  -2  -1   0  244.01    7.42
  -3  -1   0  214.66    9.89
  -4  -1   0   66.93   10.77
  -5  -1   0    8.86   14.84
  -6  -1   0   30.36   16.46
  -2  -2   0  157.57    6.40
  -3  -2   0   52.34    8.45
  -5   5  -1  -17.78   20.99
  -2   4  -1   61.57    9.85
  -3   4  -1   57.39   12.28
  -4   4  -1   30.35   17.55
  -5   4  -1   17.49   19.97
  -6   4  -1   10.71   23.27
  -1   3  -1  179.19    7.13
  -2   3  -1   73.81    8.75
  -3   3  -1   77.23   11.21
  -4   3  -1   63.30   16.93
  -5   3  -1   20.91   17.02
  -6   3  -1   58.65   24.35
  -1   2  -1  474.55    8.35
  -2   2  -1    3.84    6.93
  -3   2  -1   55.60   12.42
  -4   2  -1   22.92   15.41
  -5   2  -1    4.68   18.88
  -6   2  -1   22.71   17.72
  -2   1  -1  115.98    6.63
  -3   1  -1   54.56    8.66
  -4   1  -1    5.90   11.42
  -5   1  -1    5.46   11.95
  -6   1  -1   51.41   19.97
  -2  -1  -1  130.75    6.12
  -3  -1  -1   55.92    8.96
  -4  -1  -1   59.80   11.94
  -5  -1  -1   -2.33   14.19
  -6  -1  -1   32.45   14.47
  -2  -2  -1    5.35    4.74
  -3  -2  -1   91.77    8.82
  -4  -2  -1    2.41   11.27
  -5   5  -2   24.25   22.24
  -2   4  -2   29.44    9.15
  -3   4  -2   43.25   13.77
  -4   4  -2   32.46   14.61
  -5   4  -2   79.97   21.81
  -6   4  -2  -18.90   25.56
  -2   3  -2  106.61    9.09
  -3   3  -2  143.98   11.81
  -4   3  -2  134.50   16.17
  -5   3  -2  162.62   19.69
  -6   3  -2   40.26   25.48
  -2   2  -2    8.93    7.38
  -3   2  -2   43.22   10.93
  -4   2  -2   78.88   17.32
  -5   2  -2  163.66   20.48
  -6   2  -2   21.47   21.26
  -2   1  -2  122.49    8.42
  -3   1  -2  135.14   11.56
  -4   1  -2   79.30   14.35
  -5   1  -2  110.62   17.72
  -6   1  -2   29.89   19.00
  -3  -1  -2  145.34    9.98
  -4  -1  -2   92.75   11.98
  -5  -1  -2  124.00   13.90
  -6  -1  -2    2.02    8.53
  -4  -2  -2  114.89   13.30
  -5   5  -3   34.74   19.01
  -3   4  -3   22.96   12.27
  -4   4  -3   40.89   14.92
  -5   4  -3   11.31   20.65
  -6   4  -3   28.17   24.30
  -3   3  -3  123.65   12.71
  -4   3  -3   62.37   18.29
  -5   3  -3   35.74   18.60
  -6   3  -3   62.46   24.54
  -3   2  -3   70.00   10.82
  -4   2  -3   24.25   14.59
  -5   2  -3    1.57   14.98
  -6   2  -3   28.79   23.18
  -3   1  -3  103.71   11.56
  -4   1  -3   21.69   12.96
  -5   1  -3   23.80   14.93
  -6   1  -3   75.72   21.95
  -5  -1  -3   12.69   14.54
  -6  -1  -3   12.79   18.25
  -5   3  -4   23.18   16.09
  -6   3  -4    6.17   23.23
  -5   2  -4   11.06   15.05
  -6   2  -4    5.78   23.26
  -2  -3   2  299.89   11.45
  -3  -3   2  234.79   14.53
  -4  -3   2   32.01   15.81
  -3  -4   2  111.45   14.92
  -4  -4   2    6.70   17.59
  -3   1   1  187.14   10.95
  -3  -1   1  194.66   12.19
  -4  -1   1   63.68   15.02
  -5  -1   1   23.78   19.30
  -1  -2   1  107.02    5.40
  -3  -2   1  103.47   11.72
  -4  -2   1  116.20   15.90
  -5  -2   1   17.96   19.13
  -6  -2   1    5.05   23.59
  -1  -3   1  164.91    7.68
  -2  -3   1  149.52   10.46
  -3  -3   1  162.15   14.22
  -4  -3   1   56.26   16.55
  -5  -3   1   20.42   19.86
  -6  -3   1   31.34   24.41
  -3  -4   1  105.98   14.85
  -4  -4   1   18.53   17.74
  -5  -4   1   26.23   21.67
  -6  -4   1   26.20   25.24
  -2   2   0   59.14    5.78
  -3   2   0   53.56    9.26
  -4   2   0   47.39   12.90
  -5   2   0    7.01   17.57
  -6   2   0   30.84   21.06
  -2   1   0  197.54    7.30
  -3   1   0  237.95   11.10
  -4   1   0   65.69   13.11
  -5   1   0   18.42   16.94
  -6   1   0   24.89   17.45
  -2  -1   0  274.12    9.50
  -3  -1   0  234.62   11.79
  -4  -1   0   69.21   14.41
  -5  -1   0   25.96   17.40
  -6  -1   0   39.41   21.41
  -1  -2   0   73.11    4.95
  -2  -2   0  161.94    9.38
  -3  -2   0   31.43   12.23
  -4  -2   0   37.51   15.09
  -5  -2   0   10.09   19.62
  -6  -2   0    0.44   22.21
  -1  -3   0  362.58    9.04
  -2  -3   0  110.16    9.75
  -3  -3   0  202.65   14.48
  -4  -3   0   49.82   16.42
  -5  -3   0    7.06   21.22
  -6  -3   0   36.40   24.79
  -3  -4   0   66.84   14.16
  -4  -4   0   14.67   17.17
  -5  -4   0   -2.85   21.22
  -6  -4   0   -0.17   24.95
  -2   2  -1    8.02    5.01
  -3   2  -1   72.97    9.81
  -4   2  -1   32.90   12.94
  -5   2  -1    4.20   16.78
  -2   1  -1  144.10    6.85
  -3   1  -1   48.78    9.14
  -4   1  -1   -1.21   13.38
  -5   1  -1    7.95   14.69
  -6   1  -1   56.38   19.50
  -7   1  -1    4.09   28.12
  -1  -1  -1   90.80    5.12
  -2  -1  -1  143.02    8.35
  -3  -1  -1   64.19   11.50
  -4  -1  -1   74.02   15.32
  -5  -1  -1  -21.19   21.02
  -6  -1  -1    6.39   14.48
  -2  -2  -1    4.10    8.57
  -3  -2  -1  104.79   12.87
  -4  -2  -1   15.66   16.60
  -5  -2  -1   -2.30   20.71
  -6  -2  -1   27.48   22.63
  -2  -3  -1   41.02    8.84
  -3  -3  -1   68.78   13.12
  -4  -3  -1   24.11   16.11
  -5  -3  -1    5.92   19.43
  -6  -3  -1   25.36   25.32
  -2  -4  -1   28.51    9.28
  -3  -4  -1   66.40   14.18
  -4  -4  -1   13.13   17.44
  -5  -4  -1    9.47   20.06
  -6  -4  -1   38.14   25.82
  -2   2  -2   13.04    5.85
  -3   2  -2   45.86    9.04
  -4   2  -2   88.25   13.43
  -5   2  -2  153.40   19.07
  -2   1  -2  118.72    7.01
  -3   1  -2  129.61   10.16
  -4   1  -2   98.04   12.70
  -5   1  -2  126.93   16.47
  -6   1  -2   25.16   20.05
  -2  -1  -2   92.05    8.05
  -3  -1  -2  130.95   12.12
  -4  -1  -2   92.12   15.72
  -5  -1  -2  115.40   17.76
  -6  -1  -2   15.29   18.10
  -2  -2  -2   10.12    8.09
  -3  -2  -2   40.14   12.66
  -4  -2  -2  148.10   17.41
  -5  -2  -2  107.69   21.88
  -6  -2  -2   14.79   22.45
  -3  -3  -2  149.56   13.71
  -4  -3  -2  172.43   18.55
  -5  -3  -2  107.98   21.96
  -6  -3  -2   27.50   23.18
  -3  -4  -2   27.61   13.20
  -4  -4  -2   44.32   17.60
  -5  -4  -2   34.59   20.36
  -4   2  -3   53.70   13.56
  -3   1  -3  110.05   10.16
  -4   1  -3   17.86   10.67
  -5   1  -3   37.87   16.00
  -6   1  -3   20.00   17.84
  -3  -1  -3   67.21    9.75
  -4  -1  -3   12.77   11.83
  -5  -1  -3    3.58   11.61
  -6  -1  -3   -0.96   22.71
  -3  -2  -3   70.25   12.46
  -4  -2  -3   43.45   16.84
  -5  -2  -3   21.17   19.81
  -6  -2  -3  -11.57   22.26
  -4  -3  -3   79.35   17.99
  -5  -3  -3   47.95   19.15
  -6  -3  -3   28.92   24.75
   5  -3   4   31.01   20.36
   4  -3   4   64.54   18.85
   3  -3   4  173.67   15.36
   5  -4   4   -2.73   22.26
   4  -4   4  -13.76   18.47
   3  -4   4   70.44   18.63
   5  -5   4   -0.70   25.99
   4  -5   4   29.92   20.34
   3  -5   4   60.73   18.51
   4  -6   4   -0.90   23.05
   3  -6   4   30.66   19.58
   3  -7   4   15.29   21.15
   4  -1   3   12.20   12.05
   3  -1   3   99.23    9.61
   5  -2   3   26.39   17.37
   4  -2   3   56.96   17.08
   3  -2   3   40.30   12.33
   2  -2   3   21.22    9.02
   6  -3   3   39.71   22.14
   5  -3   3   84.52   21.43
   4  -3   3   93.99   17.50
   3  -3   3  115.85   16.04
   2  -3   3   47.14   12.40
   1  -3   3  158.80   11.22
   6  -4   3    1.73   23.77
   5  -4   3    4.15   23.02
   4  -4   3   22.66   18.19
   3  -4   3   10.49   17.45
   2  -4   3   53.69   13.09
   1  -4   3  121.08   12.35
   5  -5   3   44.53   26.14
   4  -5   3   29.14   22.62
   3  -5   3   30.14   18.05
   2  -5   3    7.47   17.44
   1  -5   3    4.67   12.38
   4  -6   3    2.21   21.84
   3  -6   3    1.05   22.02
   2  -6   3   46.89   17.33
   3  -7   3   -0.29   21.59
   4  -1   2   71.82   11.87
   3  -1   2  146.79   10.21
   2  -1   2  117.81    8.03
   1  -1   2  339.36    8.10
   5  -2   2  172.51   19.25
   4  -2   2   87.59   15.81
   3  -2   2   39.84   12.69
   2  -2   2   30.77   10.66
   1  -2   2   53.88    5.96
   6  -3   2   32.62   24.83
   5  -3   2  142.63   20.48
   4  -3   2  160.28   21.59
   3  -3   2  118.64   15.41
   2  -3   2   95.17   12.76
   1  -3   2  187.50   10.58
   0  -3   2  132.99    7.54
   6  -4   2   12.97   24.06
   5  -4   2   45.00   23.03
   4  -4   2   24.79   20.96
   3  -4   2   73.37   15.39
   2  -4   2   51.79   14.74
   1  -4   2   52.16   11.43
   0  -4   2   20.85    7.92
   5  -5   2   73.76   26.87
   4  -5   2   20.80   22.27
   3  -5   2    0.92   19.83
   2  -5   2    4.72   14.72
   1  -5   2   13.37   12.64
   4  -6   2   17.45   23.10
   3  -6   2   45.53   21.17
   2  -6   2   30.83   18.55
   3  -7   2    7.50   22.42
   4  -1   1    4.08   11.99
   3  -1   1   54.37    8.67
   2  -1   1  137.45    6.95
   1  -1   1   89.77    4.66
   5  -2   1   16.89   18.44
   4  -2   1   16.98   15.14
   3  -2   1   47.39   12.07
   2  -2   1    7.12    7.46
   1  -2   1  427.36    9.80
   6  -3   1   10.46   22.12
   5  -3   1    8.64   21.31
   4  -3   1   63.75   16.84
   3  -3   1   68.70   14.68
   2  -3   1   61.14   11.66
   1  -3   1  169.59   10.48
   0  -3   1  911.31   12.82
   6  -4   1    0.03   24.20
   5  -4   1   11.66   20.52
   4  -4   1   24.66   17.61
   3  -4   1   45.04   15.54
   2  -4   1   51.56   13.04
   1  -4   1   94.47   11.51
   0  -4   1   -0.43    7.76
   5  -5   1   -3.73   25.86
   4  -5   1    7.88   19.41
   3  -5   1  -10.22   19.44
   2  -5   1   -5.92   14.96
   1  -5   1   81.22   14.25
   4  -6   1   21.44   23.88
   3  -6   1   19.24   19.96
   2  -6   1   24.17   18.01
   4  -7   1   10.28   24.88
   3  -7   1    9.61   22.03
   4  -1   0   89.33   12.36
   3  -1   0  240.33   11.07
   2  -1   0  203.61    7.69
   5  -2   0   -3.66   17.21
   4  -2   0   31.63   14.61
   3  -2   0   58.59   11.77
   2  -2   0   59.62    8.55
   1  -2   0  847.18   12.03
   5  -3   0   42.59   18.95
   4  -3   0   75.40   17.71
   3  -3   0  175.53   15.09
   2  -3   0   62.42   11.70
   1  -3   0  900.71   14.92
   0  -3   0 1823.94   16.45
   5  -4   0   16.80   22.57
   4  -4   0   20.75   19.88
   3  -4   0   96.25   16.65
   2  -4   0   69.89   13.76
   1  -4   0  312.63   12.94
   0  -4   0  438.07   11.71
   4  -5   0    6.96   21.24
   3  -5   0   14.75   16.75
   2  -5   0   13.94   14.32
   1  -5   0  227.58   14.93
   4  -6   0   21.47   24.08
   3  -6   0   42.19   20.03
   2  -6   0   14.99   17.25
   3  -7   0   10.49   22.58
   4  -1  -1   69.34   11.60
   3  -1  -1  216.55   10.49
   4  -2  -1   30.41   14.03
   3  -3  -1  137.63   12.79
   2  -3  -1  122.18   10.02
   2  -4  -1  100.57   11.94
   0  -4  -1   59.26    8.12
   2  -5  -1   15.89   14.30
   1  -5  -1   66.11   12.73
  -2   3   1  103.83   10.17
  -3   3   1  110.75   12.98
  -2   6   0   23.05   15.91
  -3   6   0   35.66   18.29
  -1   5   0  251.78   14.62
  -2   5   0   49.30   15.04
  -3   5   0   26.25   16.44
  -4   5   0   16.02   19.03
   0   4   0  444.33   11.72
  -1   4   0  307.66   12.49
  -2   4   0   62.09   12.06
  -3   4   0  133.76   16.06
  -4   4   0    8.62   17.34
   0   3   0 1736.24   16.55
  -1   3   0 1011.80   16.07
  -2   3   0   74.22   10.62
  -3   3   0  192.33   14.31
  -4   3   0  106.90   15.68
  -5   3   0    8.29   17.04
  -1   2   0  836.14   12.17
  -2   2   0   56.27    7.79
  -3   2   0   39.98   10.43
  -4   2   0   45.59   12.64
  -5   2   0   46.80   15.37
  -2   1   0  180.71    7.30
  -3   1   0  244.32   10.51
  -4   1   0   73.18   10.60
  -3   7  -1    3.21   21.44
  -4   7  -1   10.30   22.83
  -2   6  -1   46.60   17.60
  -3   6  -1   41.27   20.18
  -4   6  -1   14.07   20.87
  -5   6  -1    0.80   22.80
  -1   5  -1   55.41   12.97
  -2   5  -1   11.99   14.68
  -3   5  -1    9.39   17.39
  -4   5  -1    0.20   19.60
  -5   5  -1   11.20   21.37
   0   4  -1    6.40    7.76
  -1   4  -1  118.60   11.03
  -2   4  -1   54.48   12.68
  -3   4  -1   46.13   15.42
  -4   4  -1   29.92   17.85
  -5   4  -1    7.20   19.40
  -6   4  -1   25.35   22.13
   0   3  -1  905.76   12.87
  -1   3  -1  162.66    9.68
  -2   3  -1   72.44   11.01
  -3   3  -1   83.04   13.25
  -4   3  -1   60.12   16.61
  -5   3  -1    7.88   18.23
  -6   3  -1   39.49   19.49
  -1   2  -1  473.96    9.88
  -2   2  -1   10.46    7.59
  -3   2  -1   65.64   11.17
  -4   2  -1    8.57   13.14
  -5   2  -1   -4.36   15.36
  -2   1  -1  130.40    7.16
  -3   1  -1   43.65    8.52
  -4   1  -1    1.88   10.94
  -3   7  -2    0.72   21.06
  -4   7  -2   25.39   23.29
  -2   6  -2   34.85   18.32
  -3   6  -2   39.76   20.03
  -4   6  -2   17.12   22.01
  -5   6  -2   25.03   24.35
  -1   5  -2   44.94   13.18
  -2   5  -2   -0.27   14.54
  -3   5  -2   22.17   17.43
  -4   5  -2   74.54   20.93
  -5   5  -2   44.00   22.50
   0   4  -2   29.16    8.89
  -1   4  -2   61.02   10.95
  -2   4  -2   53.58   13.33
  -3   4  -2   48.51   16.14
  -4   4  -2   33.23   18.68
  -5   4  -2   41.08   20.41
  -6   4  -2   39.18   23.44
   1   3  -2   88.30    6.22
   0   3  -2  148.98    7.88
  -1   3  -2  211.44   10.67
  -2   3  -2   94.84   11.56
  -3   3  -2  120.14   14.65
  -4   3  -2  175.07   19.14
  -5   3  -2  145.41   21.01
  -6   3  -2   38.84   20.98
  -1   2  -2   58.98    6.30
  -2   2  -2    6.52    8.82
  -3   2  -2   45.50   11.62
  -4   2  -2   89.50   14.85
  -5   2  -2  173.11   18.20
  -2   1  -2  111.97    7.43
  -3   1  -2  130.18   10.46
  -4   1  -2   91.32   13.21
  -3   7  -3   14.13   22.13
  -4   7  -3   14.28   25.69
  -2   6  -3   41.63   18.70
  -3   6  -3   14.74   20.01
  -4   6  -3   24.16   22.22
  -1   5  -3    8.70   13.67
  -2   5  -3    9.02   15.39
  -3   5  -3   17.43   18.54
  -4   5  -3   36.06   20.96
  -5   5  -3   35.91   23.74
   0   4  -3   25.43    9.05
  -1   4  -3  151.71   12.81
  -2   4  -3   57.01   13.54
  -3   4  -3   33.38   16.47
  -4   4  -3   44.09   19.62
  -5   4  -3    0.70   20.74
  -6   4  -3   22.52   23.85
  -1   3  -3  183.89   10.54
  -2   3  -3   49.10   10.73
  -3   3  -3  107.42   14.74
  -4   3  -3   81.07   17.52
  -5   3  -3   68.41   19.76
  -6   3  -3   22.37   21.46
  -2   2  -3    4.62    8.27
  -3   2  -3   54.68   12.21
  -4   2  -3   54.40   14.96
  -5   2  -3   10.14   17.25
  -3   1  -3   86.94   10.58
  -4   1  -3   21.61   12.45
  -3   7  -4   21.86   23.17
  -2   6  -4   53.98   18.99
  -3   6  -4   58.36   21.77
  -4   6  -4   -6.26   22.96
  -2   5  -4   16.07   16.50
  -3   5  -4   37.23   19.94
  -4   5  -4   56.97   21.85
  -5   5  -4   11.90   23.91
  -2   4  -4  145.98   15.01
  -3   4  -4  108.48   18.53
  -4   4  -4    9.00   19.13
  -5   4  -4   -0.52   22.03
  -6   4  -4   -6.43   24.91
  -3   3  -4  166.57   16.35
  -4   3  -4   88.65   18.77
  -5   3  -4   34.52   20.12
  -6   3  -4   27.93   22.65
  -4   2  -4    7.53   14.90
  -5   2  -4    1.83   18.61
  -4   1  -4   20.56   13.55
   6  -1   4   25.47   21.57
   5  -1   4  -16.43   18.88
   4  -1   4    0.16    8.61
   4  -2   4   15.07   14.64
   5   4   3   14.54   23.84
   6   3   3   16.29   23.66
   5   3   3   41.51   20.29
   4   3   3   62.91   18.27
   6   2   3   12.98   23.10
   5   2   3   18.68   21.86
   4   2   3    0.64   17.46
   3   2   3   70.24   12.63
   6   1   3    5.16   22.07
   5   1   3   23.62   20.20
   4   1   3   22.02   16.49
   3   1   3   83.74   12.78
   6  -1   3    1.91   13.50
   5  -1   3   10.77   17.56
   4  -1   3   29.16   13.70
   3  -1   3   76.51   11.51
   4  -2   3   62.59   14.33
   3  -2   3   49.86   10.56
   2  -2   3   30.50    6.71
   6   4   2   11.04   24.47
   5   4   2   55.80   21.58
   4   4   2   61.70   18.00
   3   4   2   30.64   15.14
   2   4   2   67.10   12.04
   6   3   2   12.95   22.23
   5   3   2  116.07   20.70
   4   3   2  207.55   18.95
   3   3   2  127.59   14.18
   2   3   2   59.10   10.35
   6   2   2   17.93   23.62
   5   2   2  131.67   21.04
   4   2   2  100.12   18.86
   3   2   2   38.02   13.26
   2   2   2   17.30    9.27
   6   1   2   43.92   22.61
   5   1   2  113.02   18.36
   4   1   2   85.69   15.98
   3   1   2  112.31   12.39
   2   1   2   83.34    7.49
   7  -1   2   27.69   23.36
   6  -1   2   37.64   19.80
   5  -1   2  120.29   17.64
   4  -1   2   67.07   13.24
   3  -1   2  102.93   10.97
   2  -1   2   92.50    7.15
   5  -2   2  129.56   17.18
   4  -2   2   66.83   13.71
   3  -2   2   45.10    9.62
   2  -2   2   23.01    6.92
   6   4   1   11.48   25.77
   5   4   1   -0.75   21.16
   4   4   1    5.03   17.97
   3   4   1   61.83   15.20
   2   4   1   40.58   11.60
   6   3   1   15.38   23.94
   5   3   1   30.94   21.37
   4   3   1  -13.34   15.46
   3   3   1   95.98   13.75
   2   3   1   52.05    9.50
   1   3   1  151.41    8.40
   6   2   1   63.12   21.58
   5   2   1   -5.38   20.36
   4   2   1    1.66   15.50
   3   2   1   81.69   12.03
   2   2   1   13.55    8.63
   6   1   1   20.98   19.68
   5   1   1   -6.45   16.87
   4   1   1    0.37    8.32
   3   1   1   60.90   11.42
   2   1   1  144.26    8.69
   7  -1   1   12.15   18.80
   6  -1   1   44.58   17.73
   5  -1   1   -1.48   15.22
   4  -1   1   -1.61   12.67
   3  -1   1   51.46    9.45
   2  -1   1  147.74    7.07
   5  -2   1   -1.60   14.49
   4  -2   1   19.13   11.49
   3  -2   1   41.71    8.75
   2  -2   1   17.19    5.16
   6   4   0   22.00   24.90
   5   4   0    4.27   20.38
   4   4   0    7.76   16.69
   3   4   0   65.58   14.08
   6   3   0   10.85   21.72
   5   3   0   20.28   19.37
   4   3   0   57.25   15.77
   3   3   0  175.02   13.39
   2   3   0  108.41    9.98
   1   3   0  361.48    9.40
   6   2   0    6.13   22.09
   5   2   0   14.88   17.37
   4   2   0   16.83   13.53
   3   2   0   38.12   11.83
   2   2   0  168.21    8.97
   6   1   0   37.70   18.84
   5   1   0    3.43   14.27
   4   1   0   54.10   14.61
   3   1   0  201.75   12.14
   2   1   0  253.93    9.25
   5  -1   0    3.35   13.50
   4  -1   0   81.25   12.63
   3  -1   0  246.41   10.40
   2  -1   0  209.62    6.92
   4  -2   0   30.76   10.34
   3  -2   0   42.17    7.74
   5   4  -1   30.07   18.21
   4   4  -1   29.28   16.54
   3   4  -1   99.94   13.83
   5   3  -1    5.36   19.71
   4   3  -1   56.94   16.40
   3   3  -1  152.90   12.56
   2   3  -1  158.95    9.91
   1   3  -1  161.73    6.87
   5   2  -1   10.43   16.46
   3   2  -1   90.19   12.05
   2   2  -1   23.20    7.15
   5   1  -1   26.38   14.90
   4   1  -1   61.15   13.77
   3   1  -1  190.08   11.59
   2   1  -1  357.75    9.48
   5   4   3   12.88   22.45
   4   4   3    2.44   19.49
   6   3   3   27.74   23.35
   5   3   3   52.45   20.63
   4   3   3   59.00   18.77
   5   2   3   18.92   18.67
   4   2   3   48.48   15.90
   3   2   3   67.32   12.71
   4   1   3   16.86   12.94
   3   1   3   83.07   10.80
   4   6   2   40.05   23.92
   3   6   2   18.70   20.79
   5   5   2   13.13   25.01
   4   5   2   54.02   23.27
   3   5   2   42.23   19.37
   2   5   2    3.34   15.63
   6   4   2    4.67   24.60
   5   4   2   60.28   22.65
   4   4   2   41.34   19.25
   3   4   2   35.52   16.06
   2   4   2   49.13   13.34
   1   4   2   54.94   10.92
   6   3   2   43.34   22.75
   5   3   2  144.01   20.88
   4   3   2  151.44   18.86
   3   3   2  117.00   14.59
   2   3   2   62.64   11.06
   5   2   2  141.35   19.11
   4   2   2  124.15   16.95
   3   2   2   10.85   11.94
   2   2   2   24.08    8.81
   4   1   2   66.63   13.15
   3   1   2  107.48   10.44
   2   1   2   81.19    7.38
   3   7   1   10.14   23.73
   2   7   1    6.49   21.17
   4   6   1    6.56   23.65
   3   6   1   37.78   21.95
   2   6   1   24.70   18.95
   1   6   1   24.72   16.15
   5   5   1    3.25   22.97
   4   5   1    0.13   21.01
   3   5   1    1.93   18.15
   2   5   1    9.79   15.50
   1   5   1   14.06   13.20
   0   5   1  116.00   13.40
   6   4   1    9.85   24.70
   5   4   1  -14.00   22.60
   4   4   1    5.32   19.70
   3   4   1   86.83   16.72
   2   4   1   34.07   13.16
   1   4   1   49.58   11.07
   0   4   1   49.90    8.95
   6   3   1   35.26   21.87
   5   3   1    7.65   19.91
   4   3   1    7.57   16.88
   3   3   1   81.27   13.93
   2   3   1   41.14   11.71
   1   3   1  131.80    9.91
   0   3   1  689.75   11.93
   5   2   1   21.00   17.95
   4   2   1   17.59   14.38
   3   2   1   64.70   11.73
   2   2   1    1.96    8.76
   1   2   1  199.81    7.51
   4   1   1   -3.28   12.27
   3   1   1   49.52    9.71
   2   1   1  147.95    7.91
   3   7   0   38.87   24.22
   4   6   0   21.87   24.68
   3   6   0   31.21   20.34
   2   6   0   38.77   18.71
   5   5   0    7.14   23.57
   4   5   0  -17.45   21.03
   3   5   0   41.79   19.37
   2   5   0   20.35   15.62
   1   5   0   49.16   13.87
   6   4   0   16.23   22.73
   5   4   0    3.78   20.13
   4   4   0    7.69   18.30
   3   4   0   51.61   17.58
   2   4   0  161.47   15.13
   1   4   0   45.93   10.92
   0   4   0  467.34   12.86
   6   3   0   44.75   20.74
   5   3   0   12.14   18.66
   4   3   0   64.37   16.56
   3   3   0  172.85   15.49
   2   3   0  111.45   12.59
   1   3   0  379.08   12.10
   0   3   0 1790.87   16.93
   6   2   0    9.54   18.04
   5   2   0   15.05   16.58
   4   2   0   27.24   14.44
   3   2   0   30.32   11.71
   2   2   0  176.88   10.45
   1   2   0   96.88    6.58
   5   1   0   23.87   14.21
   4   1   0   58.30   11.90
   3   1   0  193.71   10.81
   2   1   0  271.26    8.87
   3   7  -1   -8.85   23.01
   4   6  -1   -0.92   21.25
   3   6  -1   60.99   21.16
   2   6  -1   42.29   18.24
   5   5  -1    5.08   22.32
   4   5  -1   -0.40   20.84
   3   5  -1   30.12   18.84
   2   5  -1    1.81   15.48
   1   5  -1    7.85   12.83
   5   4  -1   22.70   20.92
   4   4  -1   39.98   18.87
   3   4  -1  119.03   17.52
   2   4  -1   97.12   14.35
   1   4  -1   51.36   10.95
   0   4  -1    2.64    7.59
   5   3  -1   23.30   19.20
   4   3  -1   39.87   16.94
   3   3  -1  137.01   13.87
   2   3  -1  130.60   12.64
   1   3  -1  177.05   10.24
   0   3  -1  881.00   12.52
   5   2  -1  -14.42   15.66
   3   2  -1  100.73   12.21
   2   2  -1   32.03    7.78
   1   2  -1   98.90    6.61
   4   1  -1   45.92   10.98
   3   1  -1  196.39   10.18
   2   1  -1  358.53    9.41
   3   7  -2   -2.83   21.23
   3   6  -2   52.42   19.11
   2   6  -2   99.91   17.82
   4   5  -2   -0.94   20.39
   3   5  -2   10.45   16.83
   2   5  -2   55.23   15.30
   1   5  -2   17.43   11.68
   4   4  -2    5.63   18.85
   3   4  -2  160.09   16.15
   2   4  -2  267.58   15.73
   1   4  -2   30.30    9.65
   3   3  -2  272.33   16.31
   2   3  -2  295.50   13.58
   1   3  -2   88.29    9.22
   0   6   1   30.97   14.92
  -1   6   1   16.44   15.85
   1   5   1   14.23   10.78
   0   5   1  134.53   13.07
  -1   5   1   66.37   13.85
   1   4   1   55.19    8.80
   0   4   1   52.97    9.51
  -1   4   1   48.83    9.92
  -2   4   1  113.94   12.37
   1   3   1  129.79    7.83
   0   3   1  701.14   13.29
  -1   3   1  317.76   10.64
   0   2   1   90.11    4.55
   0   8   0   23.97   18.88
  -1   8   0   50.37   19.51
   0   7   0   53.03   18.55
  -1   7   0   49.33   17.27
  -2   7   0   22.88   17.24
   1   6   0   50.71   14.31
   0   6   0  124.23   16.30
  -1   6   0  143.99   16.37
  -2   6   0   10.77   17.92
  -3   6   0   28.00   18.15
   1   5   0   60.14   11.70
   0   5   0  323.93   15.11
  -1   5   0  256.01   16.96
  -2   5   0   86.42   15.44
  -3   5   0   32.63   15.68
   1   4   0   20.79    9.03
   0   4   0  420.85   14.16
  -1   4   0  312.49   12.92
  -2   4   0   45.41   11.98
  -3   4   0   96.45   13.31
   2   3   0  101.91    7.23
   1   3   0  388.71   10.35
   0   3   0 1830.19   19.99
  -1   3   0  969.56   15.66
  -2   3   0   77.64    8.70
  -3   3   0  184.26   10.92
   0   2   0 4151.26   23.13
  -1   2   0  831.42   11.81
  -2   2   0   47.17    6.31
  -3   2   0   38.90    7.05
   0   8  -1   22.06   20.67
  -1   8  -1   12.08   20.14
  -2   8  -1   37.32   21.00
   1   7  -1   26.32   17.09
   0   7  -1   29.10   17.27
  -1   7  -1   10.62   17.79
  -2   7  -1   24.95   20.79
  -3   7  -1    7.97   19.77
  -4   7  -1   10.92   19.41
   1   6  -1   40.60   14.71
   0   6  -1   31.26   16.86
  -1   6  -1   46.77   15.87
  -2   6  -1   31.06   16.15
  -3   6  -1   40.59   19.23
  -4   6  -1   27.35   18.57
   1   5  -1   18.47   12.47
   0   5  -1  164.43   15.33
  -1   5  -1   56.83   14.22
  -2   5  -1    4.23   13.97
  -3   5  -1   -2.45   16.03
  -4   5  -1   12.98   15.91
   1   4  -1   46.79    9.31
   0   4  -1    5.75    9.03
  -1   4  -1  119.66   12.34
  -2   4  -1   52.72   12.82
  -3   4  -1   49.73   13.39
   2   3  -1  161.25    8.11
   1   3  -1  169.68    8.81
   0   3  -1  936.44   15.12
  -1   3  -1  192.07    9.31
  -2   3  -1   69.36   10.23
  -3   3  -1   61.53   10.93
   0   2  -1    2.17    3.46
  -1   2  -1  460.76    9.32
  -2   2  -1    7.05    5.98
  -3   2  -1   62.27    8.15
   0   8  -2    3.70   19.83
  -1   8  -2    9.57   21.16
  -2   8  -2   -2.11   23.28
   1   7  -2   22.32   17.76
   0   7  -2   12.47   16.98
  -1   7  -2   34.36   20.63
  -2   7  -2   47.49   20.61
  -3   7  -2   -8.22   21.76
  -4   7  -2   16.73   21.91
   1   6  -2   29.18   15.99
   0   6  -2   13.85   17.17
  -1   6  -2   19.92   17.83
  -2   6  -2   17.21   16.87
  -3   6  -2   31.88   17.78
  -4   6  -2   28.74   18.33
   1   5  -2   15.67   12.68
   0   5  -2   20.44   12.37
  -1   5  -2   12.82   12.84
  -2   5  -2    0.03   15.76
  -3   5  -2    0.06   16.14
  -4   5  -2   38.86   16.80
   2   4  -2  285.37   12.70
   1   4  -2   27.59   10.00
   0   4  -2   26.62   10.99
  -1   4  -2   58.60   12.26
  -2   4  -2   53.42   12.90
  -3   4  -2   64.43   14.28
   2   3  -2  298.59    9.99
   1   3  -2   76.31    7.83
   0   3  -2  143.69    9.44
  -2   3  -2   85.77    9.64
  -3   3  -2  123.73   11.84
  -1   2  -2   59.91    6.38
  -2   2  -2   15.73    7.30
  -3   2  -2   38.02    8.18
  -2   1  -2  104.32    5.76
   0   8  -3   15.70   22.31
  -1   8  -3   23.95   23.13
   1   7  -3    5.62   19.14
   0   7  -3    0.66   19.96
  -1   7  -3    8.66   20.83
  -2   7  -3   27.72   22.19
  -3   7  -3    8.12   20.03
  -4   7  -3    2.11   23.82
   1   6  -3   25.38   16.95
   0   6  -3    8.89   15.98
  -1   6  -3   54.47   19.13
  -2   6  -3   29.90   20.24
  -3   6  -3   14.12   18.77
  -4   6  -3   64.42   20.60
   1   5  -3   10.67   13.35
   0   5  -3   -2.88   13.22
  -1   5  -3   12.26   13.89
  -2   5  -3    8.71   14.33
  -3   5  -3    6.19   17.58
   1   4  -3   61.58   10.61
   0   4  -3   11.35   10.17
  -1   4  -3  128.00   13.60
  -2   4  -3   63.67   12.22
  -3   4  -3   24.94   13.58
  -1   3  -3  146.63   10.39
  -2   3  -3   34.98   10.37
  -3   3  -3  118.57   12.13
  -2   2  -3   12.65    7.23
  -3   2  -3   50.06    9.09
  -1   7  -4   21.87   18.79
  -2   7  -4   21.82   22.26
  -3   7  -4   19.22   20.81
  -1   6  -4   63.87   19.29
  -2   6  -4   46.90   19.81
  -3   6  -4   60.91   20.01
  -4   6  -4   -2.53   20.00
  -2   5  -4   21.68   16.76
  -3   5  -4   27.08   17.11
  -2   4  -4  126.03   15.16
  -3   4  -4  117.54   16.26
  -3   3  -4  170.61   13.60
   3  -5   4   25.54   16.65
   2  -5   4    5.32   16.45
   3  -6   4   45.40   19.34
   2  -6   4   40.15   20.31
   1  -6   4   41.31   17.75
   3  -7   4    4.62   22.11
   2  -7   4   20.25   21.32
   1  -7   4    8.45   19.98
   3  -3   3  112.40   11.66
   2  -3   3   55.77    9.69
   1  -3   3  151.59    9.97
   3  -4   3   36.87   13.82
   2  -4   3   53.88   12.34
   1  -4   3  109.72   13.59
   0  -4   3   26.34   11.21
   3  -5   3   18.59   16.57
   2  -5   3   27.26   16.95
   1  -5   3    4.61   14.81
   0  -5   3   -8.79   13.52
   4  -6   3    7.04   20.78
   3  -6   3   43.95   19.62
   2  -6   3   31.94   19.95
   1  -6   3   24.23   18.70
   0  -6   3   13.26   16.96
  -1  -6   3  -14.07   16.00
   3  -7   3   20.79   21.95
   2  -7   3   24.94   22.34
   1  -7   3   30.02   20.36
   0  -7   3    4.73   19.19
   1  -8   3    8.99   23.72
   0  -8   3    7.93   21.87
   3  -2   2   44.03    8.11
   2  -2   2   23.57    7.91
   1  -2   2   63.99    6.15
   0  -2   2  122.51    6.30
   3  -3   2  136.51   12.43
   2  -3   2   78.86   10.42
   1  -3   2  185.72   11.52
  -1  -3   2   89.56    8.42
   3  -4   2   49.39   14.12
   2  -4   2   52.26   12.37
   1  -4   2   32.71   11.37
   0  -4   2   25.61   10.18
  -1  -4   2   33.02   10.19
   4  -5   2   26.43   18.52
   3  -5   2    8.58   16.44
   2  -5   2    5.42   15.06
   1  -5   2   13.76   14.26
   0  -5   2   24.80   14.34
  -1  -5   2   30.96   12.84
   4  -6   2   12.49   21.60
   3  -6   2   16.15   19.58
   2  -6   2    2.08   20.46
   1  -6   2   20.05   18.74
   0  -6   2   18.44   17.45
  -1  -6   2   33.25   15.70
   4  -7   2   28.02   24.37
   3  -7   2   14.14   22.56
   2  -7   2   17.52   23.09
   1  -7   2    6.65   21.42
   0  -7   2    6.91   19.91
  -1  -7   2   10.90   17.82
   1  -8   2    9.40   23.90
   0  -8   2   10.07   21.42
   2  -1   1  148.89    5.41
   3  -2   1   57.89    8.51
   2  -2   1   19.65    6.66
   1  -2   1  439.58    9.67
   0  -2   1    6.69    4.45
  -1  -2   1  102.38    5.03
   3  -3   1   53.40   11.36
   2  -3   1   57.13   10.28
   1  -3   1  181.43   10.86
   0  -3   1  927.27   15.49
  -1  -3   1  148.68    9.14
  -2  -3   1  133.44    7.63
   3  -4   1   46.33   13.94
   2  -4   1   46.67   13.26
   1  -4   1   97.66   12.09
   0  -4   1   -1.56   10.11
  -1  -4   1   41.12   10.24
   4  -5   1    9.19   18.16
   3  -5   1    6.04   16.36
   2  -5   1   13.27   16.76
   1  -5   1  108.93   15.97
   0  -5   1  158.20   15.72
  -1  -5   1   19.79   13.14
   4  -6   1   23.07   21.04
   3  -6   1   27.99   19.77
   2  -6   1   13.50   19.87
   1  -6   1   15.19   17.46
   0  -6   1   24.27   16.49
  -1  -6   1   26.74   15.85
   4  -7   1   11.23   24.78
   3  -7   1   20.36   22.70
   2  -7   1    3.09   22.68
   1  -7   1    6.49   22.00
   0  -7   1   35.85   19.18
  -1  -7   1   18.01   17.87
   1  -8   1   -2.43   22.95
   0  -8   1   13.21   23.61
  -2  -3   0  117.18    7.57
  -1  -4   0   22.43    9.63
   4  -5   0   -3.57   18.07
  -1  -5   0   54.92   12.92
   3  -6   0   28.19   21.21
   1  -6   0  116.58   19.50
   0  -6   0  123.13   18.61
  -1  -6   0   18.74   16.17
   3  -7   0    4.53   22.79
   2  -7   0   37.84   23.01
   1  -7   0   49.41   20.57
   0  -7   0   30.45   20.28
  -1  -7   0   17.13   18.79
   1  -8   0   53.39   25.05
   0  -8   0   23.59   22.30
  -4  -5   2    5.20   20.24
  -2  -6   2   77.55   17.10
  -3  -6   2   32.14   18.89
  -4  -6   2   12.91   21.45
  -3  -7   2   30.75   20.10
  -5  -3   1   30.35   18.56
  -6  -3   1   42.67   22.16
   0  -4   1    1.20    7.03
  -4  -4   1   34.32   15.25
  -5  -4   1   26.44   22.06
  -6  -4   1   43.79   23.15
  -1  -5   1   25.99   11.99
  -2  -5   1   -1.99   13.98
  -3  -5   1   25.91   17.79
  -4  -5   1    5.43   19.56
  -5  -5   1    7.10   18.31
  -2  -6   1   18.64   16.57
  -3  -6   1   54.68   17.38
  -4  -6   1   20.04   20.92
  -3  -7   1   12.53   19.49
  -5  -1   0   22.36   13.05
  -4  -2   0   36.83   11.67
  -5  -2   0    7.11   15.97
  -6  -2   0   17.21   19.16
  -2  -3   0  106.74    9.98
  -3  -3   0  185.28   15.28
  -4  -3   0   64.19   16.85
  -5  -3   0   23.79   16.59
  -6  -3   0   50.99   22.32
  -1  -4   0   14.47    9.99
  -2  -4   0  150.36   12.33
  -3  -4   0   89.63   16.42
  -4  -4   0   22.92   17.20
  -5  -4   0    9.68   21.47
  -6  -4   0   28.30   21.22
  -1  -5   0   35.63   11.30
  -2  -5   0   11.94   14.26
  -3  -5   0   15.84   17.95
  -4  -5   0   10.20   19.07
  -5  -5   0   38.17   22.68
  -2  -6   0   35.82   17.07
  -3  -6   0   12.58   16.87
  -4  -6   0   11.81   18.12
  -2  -7   0   12.90   18.14
  -3  -7   0   36.45   21.31
  -2  -1  -1  140.57    7.35
  -3  -1  -1   66.05    9.14
  -4  -1  -1   51.64   11.63
  -1  -2  -1  215.54    7.76
  -2  -2  -1    5.95    7.93
  -3  -2  -1  104.10   11.33
  -4  -2  -1   -3.23   14.24
  -5  -2  -1  -13.40   16.13
  -1  -3  -1  123.01    9.68
  -2  -3  -1   35.52   10.31
  -3  -3  -1   96.34   11.26
  -4  -3  -1    9.98   14.85
  -5  -3  -1    8.57   16.61
  -6  -3  -1   17.61   21.65
  -1  -4  -1   41.42    8.71
  -2  -4  -1   18.52   12.68
  -3  -4  -1   66.66   16.92
  -4  -4  -1   -2.31   16.12
  -5  -4  -1   16.22   19.87
  -6  -4  -1    5.40   23.43
  -1  -5  -1   13.43    9.73
  -2  -5  -1    4.16   14.09
  -3  -5  -1   13.22   18.14
  -4  -5  -1    6.19   19.91
  -5  -5  -1    7.95   19.71
  -1  -6  -1   19.34   13.77
  -2  -6  -1   21.27   15.84
  -3  -6  -1   17.54   16.38
  -4  -6  -1   11.54   21.22
  -2  -7  -1   -0.38   16.92
  -3  -7  -1    2.12   20.24
  -2  -1  -2   78.97    6.25
  -3  -1  -2  140.86    9.60
  -4  -1  -2   96.30   11.39
  -2  -2  -2   10.22    8.73
  -3  -2  -2   48.56   11.20
  -4  -2  -2  118.53   13.24
  -5  -2  -2  127.34   17.70
  -2  -3  -2   44.58   10.18
  -3  -3  -2  122.37   14.77
  -4  -3  -2  180.89   15.38
  -5  -3  -2  133.92   19.80
  -6  -3  -2   19.73   18.85
  -2  -4  -2   69.90   12.96
  -3  -4  -2   33.35   16.02
  -4  -4  -2   43.60   15.22
  -5  -4  -2   36.46   17.07
  -2  -5  -2   -0.75   14.39
  -3  -5  -2   36.31   17.92
  -4  -5  -2   51.41   19.88
  -5  -5  -2   39.72   22.74
  -3  -6  -2   13.10   15.19
  -4  -6  -2   37.37   18.13
  -4  -2  -3   41.21   13.61
  -4  -3  -3   71.13   13.67
  -5  -3  -3   44.72   18.71
   1  -7   3   28.44   19.34
   0  -7   3   13.36   17.37
   0  -8   3   -0.74   22.60
   1  -6   2   14.81   13.70
   0  -6   2   21.68   18.02
  -3  -6   2   63.35   18.40
  -4  -6   2   31.92   20.28
   1  -7   2    0.10   17.11
   0  -7   2   -7.72   17.64
  -1  -7   2   20.59   18.98
  -2  -7   2   24.51   20.67
  -3  -7   2    6.98   19.38
   0  -8   2    6.43   21.04
  -1  -8   2   13.40   22.09
   2  -3   1   60.65    6.48
   1  -4   1   98.48   10.47
   1  -5   1   27.10   11.85
   0  -5   1  134.67   15.84
  -1  -5   1   30.10   12.51
  -2  -5   1    0.07   13.77
  -3  -5   1    5.58   17.66
  -4  -5   1    7.05   16.40
   1  -6   1   51.47   13.96
   0  -6   1   26.98   17.60
  -1  -6   1   16.95   13.74
  -2  -6   1   38.97   20.31
  -3  -6   1   59.61   16.64
  -4  -6   1   13.59   19.59
   1  -7   1   23.54   15.67
   0  -7   1   45.80   19.40
  -1  -7   1   -0.85   21.19
  -2  -7   1   -4.19   17.74
  -3  -7   1   22.53   20.82
   1  -8   1   -4.77   18.93
   0  -8   1   23.50   18.60
  -1  -8   1   -8.43   20.81
   0  -2   0 4229.58   23.61
   0  -3   0 1774.91   19.76
  -1  -3   0  353.28   11.02
   1  -4   0  293.97   12.53
   0  -4   0  411.01   14.26
  -1  -4   0   25.97   10.27
  -2  -4   0  155.99   14.42
  -3  -4   0   44.63   13.92
   1  -5   0  200.04   13.32
   0  -5   0  285.94   16.70
  -1  -5   0   68.33   15.82
  -2  -5   0   24.35   14.97
  -3  -5   0   20.08   16.46
  -4  -5   0   19.22   18.24
   1  -6   0  135.55   17.11
   0  -6   0  120.16   18.98
  -1  -6   0   26.83   16.10
  -2  -6   0   64.49   18.27
  -3  -6   0   34.85   20.81
  -4  -6   0   14.82   18.45
   1  -7   0   47.10   15.05
   0  -7   0   19.36   19.87
  -1  -7   0   11.61   19.38
  -2  -7   0   19.76   22.28
  -3  -7   0   90.56   24.80
   0  -8   0   35.35   17.87
  -1  -8   0    1.05   21.39
   0  -2  -1  126.24    5.51
  -1  -2  -1  211.89    7.71
  -2  -2  -1   10.97    6.48
  -1  -3  -1  155.66   10.80
  -2  -3  -1   40.80    7.38
  -3  -3  -1  108.46   11.48
   0  -4  -1   57.30   10.82
  -1  -4  -1   26.72   11.68
  -2  -4  -1   32.99   13.02
  -3  -4  -1   55.39   12.60
   0  -5  -1  117.33   13.90
  -1  -5  -1   29.92   10.93
  -2  -5  -1    4.87   12.18
  -3  -5  -1    4.75   14.22
   0  -6  -1   41.51   16.08
  -1  -6  -1   27.78   14.85
  -2  -6  -1   23.77   15.38
  -3  -6  -1   29.56   15.76
  -4  -6  -1    5.67   20.33
  -1  -7  -1   21.54   18.81
  -2  -7  -1   14.20   21.29
  -3  -7  -1   12.82   20.14
  -2  -4  -2   55.23   11.51
   1  -5   3    6.74   11.87
   0  -5   3    1.76   13.37
  -1  -5   3   -2.66   13.92
   1  -6   3   25.39   15.23
   0  -6   3   25.18   17.04
  -1  -6   3   16.24   18.97
  -2  -6   3   24.18   17.74
   1  -7   3    8.90   17.20
   0  -7   3    8.47   18.81
  -1  -7   3    7.42   18.58
   0  -8   3   -8.08   21.23
   1  -3   2  176.95    9.04
   0  -3   2  135.65    9.11
  -1  -3   2   88.08   10.25
  -2  -3   2  296.18   13.00
   1  -4   2   36.88    9.42
   0  -4   2   23.82    9.86
  -1  -4   2   37.98   11.95
  -2  -4   2  257.62   16.23
  -3  -4   2  105.81   14.98
   1  -5   2   26.20   12.55
   0  -5   2   12.71   12.83
  -1  -5   2    3.52   14.99
  -2  -5   2   57.28   15.51
  -3  -5   2   26.60   16.12
   1  -6   2   13.02   15.21
   0  -6   2    6.73   16.58
  -1  -6   2   20.07   17.89
  -2  -6   2   79.36   19.56
  -3  -6   2   56.76   20.80
   1  -7   2    0.96   18.62
   0  -7   2   17.84   20.11
  -1  -7   2   26.43   20.39
  -2  -7   2    4.49   22.32
  -3  -7   2   18.64   22.17
   1  -8   2   12.54   22.01
   0  -8   2   17.83   21.27
  -1  -8   2   -7.63   22.27
   1  -2   1  437.20    7.99
   0  -2   1    5.77    4.33
  -1  -2   1  102.06    6.51
  -2  -2   1   30.37    6.86
   2  -3   1   71.63    6.90
   1  -3   1  176.68    8.93
   0  -3   1  941.80   15.51
  -1  -3   1  167.08   10.07
  -2  -3   1  152.27   11.21
  -3  -3   1  152.28   12.21
   2  -4   1   73.31   10.10
   1  -4   1   91.70   10.84
   0  -4   1    2.30    9.79
  -1  -4   1   41.76   11.07
  -2  -4   1  109.45   13.54
  -3  -4   1  104.02   15.29
   1  -5   1   44.33   13.36
   0  -5   1  154.27   15.80
  -1  -5   1   14.52   13.99
  -2  -5   1    1.64   16.14
  -3  -5   1   16.89   16.86
  -4  -5   1  -10.29   16.94
   1  -6   1   42.05   16.93
   0  -6   1   21.44   16.46
  -1  -6   1   15.19   17.06
  -2  -6   1   29.56   20.07
  -3  -6   1   68.06   21.58
  -4  -6   1   -1.69   20.35
   1  -7   1    8.99   19.31
   0  -7   1   24.13   19.48
  -1  -7   1   10.55   21.29
  -2  -7   1   18.57   21.68
  -3  -7   1   15.14   21.85
   1  -8   1   17.52   22.67
   0  -8   1   -6.74   22.26
  -1  -8   1   10.30   24.12
  -2  -2   0  173.41    8.86
  -3  -2   0   49.89    8.47
  -3  -3   0  207.14   13.04
  -2  -4   0  159.48   15.07
  -3  -4   0   84.65   15.21
  -2  -5   0   14.08   17.37
  -3  -5   0   53.03   17.69
  -2  -6   0   22.60   18.31
  -3  -6   0   28.84   20.82
  -4  -6   0   12.57   21.04
   1  -7   0   26.38   20.38
   0  -7   0   15.27   21.04
  -1  -7   0   24.44   22.07
  -2  -7   0   11.86   21.64
  -3  -7   0    2.53   22.27
  -4  -7   0    4.52   24.16
   1  -8   0   45.14   23.07
   0  -8   0   26.18   23.47
  -1  -8   0   -9.08   24.75
  -3  -6  -1    2.86   19.93
  -2  -7  -1   16.64   21.57
  -3  -7  -1    7.93   22.62
   2   4   2   70.20   11.48
   3   7   1    6.19   21.18
   2   7   1   10.30   20.68
   1   7   1    6.53   17.41
   0   7   1    8.62   19.27
   3   6   1   24.41   18.25
   2   6   1   31.75   16.70
   1   6   1   35.22   15.56
   0   6   1   45.26   17.44
   3   5   1    2.89   16.20
   2   5   1    6.77   14.60
   1   5   1   17.62   11.52
   0   5   1  112.19   12.21
   3   4   1   73.25   14.59
   2   4   1   37.84   11.78
   1   4   1   48.90   11.72
   0   4   1   56.78   10.82
  -1   4   1   32.64    9.58
   3   3   1   92.97   10.85
   2   3   1   46.71    9.60
   1   3   1  145.75   10.61
   0   3   1  699.65   13.89
   3   2   1   91.78    8.31
   2   2   1    6.82    6.21
   1   2   1  203.03    7.49
   0   2   1   89.02    4.81
   2   8   0    7.47   20.57
   1   8   0   -2.91   22.95
   0   8   0    6.08   21.38
   4   7   0   -8.68   22.21
   3   7   0   23.30   22.09
   2   7   0    4.22   21.24
   1   7   0    1.83   18.20
   0   7   0   59.14   20.01
  -1   7   0   25.24   18.53
   3   6   0   31.01   19.60
   2   6   0   52.21   19.12
   1   6   0   27.88   17.49
   0   6   0  131.13   17.90
  -1   6   0  124.30   15.03
   3   5   0   21.92   17.06
   2   5   0    6.29   14.12
   1   5   0   56.38   15.38
   0   5   0  289.84   15.32
  -2   5   0   40.90   11.17
   3   4   0   54.13   14.73
   2   4   0  182.10   14.63
   1   4   0   30.68   10.52
   0   4   0  438.05   13.79
  -1   4   0  282.17   12.09
  -2   4   0   35.99    7.99
   3   3   0  174.55   12.58
   2   3   0   99.09    9.52
   1   3   0  384.73   11.47
   0   3   0 1749.16   19.35
  -1   3   0  927.50   14.19
   3   2   0   45.87    7.92
   2   2   0  179.99    8.05
   1   2   0  104.20    6.20
   0   2   0 4247.66   23.57
   3   1   0  203.62    7.34
   2   8  -1   10.39   24.25
   1   8  -1  -15.34   23.17
   0   8  -1    6.36   22.43
  -1   8  -1    2.77   20.86
   4   7  -1   10.60   21.96
   3   7  -1    7.43   20.99
   2   7  -1   24.55   18.25
   1   7  -1   19.50   20.79
   0   7  -1    7.18   19.90
  -1   7  -1   16.62   19.18
   4   6  -1   20.63   19.08
   3   6  -1   33.56   18.25
   2   6  -1   49.59   19.09
   1   6  -1   30.66   15.01
   0   6  -1   20.65   15.33
  -1   6  -1   64.04   16.58
   4   5  -1    4.84   17.23
   3   5  -1   11.30   15.43
   2   5  -1   10.06   12.88
   1   5  -1   28.84   11.66
   0   5  -1  137.06   15.31
  -1   5  -1   45.85   13.61
   3   4  -1  147.52   14.21
   2   4  -1   86.97   13.98
   1   4  -1   40.11   12.05
   0   4  -1    0.82    9.11
  -1   4  -1  103.17    9.61
  -2   4  -1   51.53    9.23
   3   3  -1  182.47   12.78
   2   3  -1  152.07   10.28
   1   3  -1  157.18   10.24
   0   3  -1  904.31   15.00
  -1   3  -1  201.46    8.85
  -2   3  -1   65.99    6.74
   3   2  -1   97.69    8.73
   2   2  -1   23.60    6.72
   1   2  -1  100.80    5.87
   0   2  -1    3.34    3.20
   3   1  -1  176.61    7.31
   1   8  -2   -2.31   19.53
   0   8  -2   14.09   19.76
  -1   8  -2   17.61   21.94
   3   7  -2   26.93   19.89
   2   7  -2   32.44   19.70
   1   7  -2   -2.50   16.68
   0   7  -2   -0.21   16.99
  -1   7  -2    2.87   17.58
   4   6  -2   11.46   20.28
   3   6  -2   33.01   18.21
   2   6  -2  115.82   20.77
   1   6  -2   16.16   18.58
   0   6  -2   35.53   17.05
  -1   6  -2   32.86   16.04
   4   5  -2   15.30   18.36
   3   5  -2   33.83   16.78
   2   5  -2   44.08   16.77
   1   5  -2    4.08   14.70
   0   5  -2   12.35   12.87
  -1   5  -2   26.06   12.53
   4   4  -2   23.06   15.76
   3   4  -2  126.94   16.21
   2   4  -2  273.55   15.96
   1   4  -2   31.68   10.98
   0   4  -2   34.87   11.02
  -1   4  -2   51.83   10.44
   3   3  -2  261.75   12.97
   2   3  -2  306.01   12.19
   1   3  -2  100.80    8.15
   0   3  -2  126.32    8.50
  -1   3  -2  193.05    9.38
  -2   3  -2   91.23    7.39
  -1   2  -2   62.42    4.75
   1   8  -3   -7.45   22.48
   0   8  -3  -20.09   23.01
   2   7  -3    3.64   18.48
   1   7  -3   -4.07   17.09
   0   7  -3   17.21   19.03
  -1   7  -3   16.25   18.95
   2   6  -3   49.60   16.84
   1   6  -3   27.87   18.98
   0   6  -3   11.62   17.16
  -1   6  -3   48.05   16.03
   2   5  -3   12.36   13.04
   1   5  -3   23.03   15.30
   0   5  -3    0.48   12.80
  -1   5  -3   18.61   12.09
   1   4  -3   55.77   12.38
   0   4  -3   18.09   10.97
  -1   4  -3  139.86   11.62
  -1   3  -3  157.95    8.55
  -1   7  -4   33.48   19.71
  -1   6  -4   78.23   17.85
   3   6   2   15.53   20.08
   2   6   2   22.45   16.83
   3   5   2   21.11   17.74
   2   5   2    1.01   13.62
   3   4   2   26.28   13.54
   2   4   2   65.39   13.04
   1   4   2   41.17    9.58
   3   3   2  110.88   12.72
   2   3   2   52.44    9.46
   3   2   2   23.55    8.36
   2   2   2   26.30    7.44
   4   7   1   -2.12   22.57
   3   7   1    0.45   20.71
   2   7   1    2.93   19.71
   1   7   1    3.98   17.77
   0   7   1   10.92   19.49
   4   6   1    4.07   19.68
   3   6   1   15.89   19.46
   2   6   1   23.24   17.66
   1   6   1   14.98   16.80
   0   6   1   31.48   15.02
  -1   6   1   18.74   16.23
   3   5   1   10.64   15.58
   2   5   1    1.46   13.37
   1   5   1   15.44   14.57
   0   5   1  107.53   14.18
  -1   5   1   68.34   11.97
  -2   5   1    9.13   11.88
   3   4   1   70.23   15.23
   2   4   1   27.24   12.45
   1   4   1   46.27   10.77
   0   4   1   39.61   10.36
  -1   4   1   27.47    9.74
  -2   4   1  104.57    9.78
   3   3   1   72.28   11.72
   2   3   1   42.35   10.00
   0   3   1  663.41   13.22
  -1   3   1  317.74   10.02
   3   2   1   80.15    9.01
   2   2   1   11.47    6.89
   2   8   0   16.59   25.06
   1   8   0    9.39   23.56
   0   8   0   34.15   22.79
  -1   8   0   51.66   22.27
   4   7   0   -9.56   23.86
   3   7   0   21.40   22.26
   2   7   0   11.63   19.07
   1   7   0   21.46   20.90
   0   7   0   38.26   20.84
  -1   7   0   51.79   18.42
   4   6   0    4.32   18.45
   3   6   0   24.37   20.37
   2   6   0   56.33   17.15
   1   6   0   22.35   15.94
   0   6   0  107.17   17.79
  -1   6   0  142.95   17.35
   4   5   0   13.31   15.63
   3   5   0   21.95   17.19
   2   5   0   -3.27   16.39
   1   5   0   45.88   15.65
   0   5   0  250.76   15.31
  -1   5   0  224.23   15.34
   3   4   0   76.64   13.60
   2   4   0  155.69   14.70
   1   4   0   25.77   11.71
   0   4   0  395.85   13.48
  -1   4   0  297.44   12.15
  -2   4   0   49.86    9.57
   3   3   0  178.68   12.51
   2   3   0  100.75   10.89
   1   3   0  382.57   12.17
   0   3   0 1826.43   19.92
  -1   3   0  948.15   14.44
  -2   3   0   80.15    7.02
   3   2   0   25.09    7.83
   2   2   0  178.90    8.46
   1   2   0   89.79    6.24
   0   2   0 4233.59   23.69
   3   1   0  177.18    7.08
   2   8  -1   -0.13   23.95
   1   8  -1   23.59   22.49
   0   8  -1   20.26   22.52
  -1   8  -1   18.38   21.71
   4   7  -1   -3.55   22.54
   3   7  -1    8.54   19.87
   2   7  -1   -2.88   21.63
   1   7  -1   16.15   20.74
   0   7  -1   28.97   17.63
  -1   7  -1    6.36   16.97
   4   6  -1   19.36   19.69
   3   6  -1   34.15   19.86
   2   6  -1   33.79   19.96
   1   6  -1   23.90   15.47
   0   6  -1   33.23   14.78
  -1   6  -1   39.33   15.25
   4   5  -1   16.42   16.93
   3   5  -1   23.94   16.64
   2   5  -1    8.80   13.50
   1   5  -1   35.74   12.61
   0   5  -1  155.15   15.97
  -1   5  -1  144.28   13.87
   4   4  -1   14.38   13.56
   3   4  -1  105.58   14.90
   2   4  -1  115.06   12.65
   1   4  -1   46.21    9.75
   0   4  -1    4.08    8.61
  -1   4  -1  102.23   11.04
   3   3  -1  137.66   11.67
   2   3  -1  150.57   11.30
   1   3  -1  174.25   10.09
   0   3  -1  917.81   15.34
  -1   3  -1  188.83    8.63
  -2   3  -1   66.33    6.90
   3   2  -1   85.56    8.12
   2   2  -1   32.32    7.10
   1   2  -1   99.69    6.63
   0   2  -1    2.87    4.37
   1   8  -2   14.96   19.87
   0   8  -2   -0.39   19.84
   3   7  -2   13.69   19.50
   2   7  -2   44.71   21.55
   1   7  -2    3.94   18.70
   0   7  -2   13.07   18.39
  -1   7  -2    2.96   17.76
   3   6  -2   39.11   19.16
   2   6  -2   91.11   17.36
   1   6  -2   27.08   17.11
   0   6  -2   17.62   14.24
  -1   6  -2   42.24   15.54
   3   5  -2   14.55   16.94
   2   5  -2   42.36   14.30
   1   5  -2   17.83   14.82
   0   5  -2   14.02   12.71
  -1   5  -2   44.82   11.74
   3   4  -2  163.70   15.38
   2   4  -2  291.63   15.86
   1   4  -2   23.86   11.66
   0   4  -2   30.99    9.04
  -1   4  -2   63.04    9.53
   2   3  -2  319.39   13.00
   1   3  -2  101.19   10.29
   0   3  -2  140.80    8.33
  -1   3  -2  185.32    8.86
   1   8  -3    0.83   22.03
   0   8  -3   -5.25   18.91
   2   7  -3    7.11   18.95
   1   7  -3   10.73   17.75
   0   7  -3   -4.81   18.43
   2   6  -3   49.48   18.16
   1   6  -3   24.30   18.41
   0   6  -3    9.04   14.19
  -1   6  -3   52.65   14.74
   1   5  -3    8.94   13.36
   0   5  -3    4.74   12.82
  -1   5  -3   15.60   11.81
   0   4  -3   15.49   10.40
   0   0   0    0.00    0.00
;
_shelx_hkl_checksum              96626
_olex2_submission_special_instructions 'No special instructions were received'
loop_
_space_group_symop_operation_xyz
'x, y, z'
loop_
_atom_site_label
_atom_site_type_symbol
_atom_site_fract_x
_atom_site_fract_y
_atom_site_fract_z
_atom_site_U_iso_or_equiv
_atom_site_adp_type
_atom_site_occupancy
_atom_site_site_symmetry_order
_atom_site_calc_flag
_atom_site_refinement_flags_posn
Co1 Co 0.001(3) 0.000(2) 0.003(5) 0.033(3) Uiso 1 1 d .
O2 O -0.270(6) -0.043(4) 0.142(7) 0.052(6) Uiso 1 1 d D
N1 N -0.019(6) 0.314(5) 0.021(5) 0.045(16) Uiso 1 1 d D
O1 O 0.078(6) 0.006(4) 0.213(8) 0.052(6) Uiso 1 1 d D
N2 N -0.013(5) 0.688(5) 0.000(5) 0.032(14) Uiso 1 1 d D
O1W O 0.336(6) 0.011(5) -0.027(12) 0.026(9) Uiso 1 1 d .
H1WA H 0.4216 -0.0496 0.0345 0.038 Uiso 1 1 d GR
H1WB H 0.3959 0.1316 -0.0276 0.038 Uiso 1 1 d GR
O4 O -0.129(6) 0.016(4) 0.826(7) 0.052(6) Uiso 1 1 d D
C11 C -0.242(6) 0.395(5) 0.018(14) 0.07(2) Uiso 1 1 d D
H11A H -0.3178 0.3435 0.0881 0.082 Uiso 1 1 calc R
H11B H -0.3305 0.3533 -0.0594 0.082 Uiso 1 1 calc R
C8 C -0.291(7) -0.010(3) 0.748(4) 0.021(12) Uiso 1 1 d D
C9 C 0.101(11) 0.406(5) -0.080(6) 0.08(3) Uiso 1 1 d D
H9A H 0.0487 0.3390 -0.1580 0.097 Uiso 1 1 calc R
H9B H 0.2585 0.3809 -0.0621 0.097 Uiso 1 1 calc R
C12 C -0.240(6) 0.611(4) 0.025(10) 0.048(17) Uiso 1 1 d D
H12A H -0.3521 0.6572 -0.0377 0.057 Uiso 1 1 calc R
H12B H -0.2740 0.6505 0.1078 0.057 Uiso 1 1 calc R
O3 O -0.484(5) -0.033(4) 0.770(8) 0.052(6) Uiso 1 1 d D
C7 C -0.118(7) -0.019(3) 0.226(4) 0.028(13) Uiso 1 1 d D
C10 C 0.093(10) 0.617(5) -0.110(5) 0.050(19) Uiso 1 1 d D
H10A H 0.2430 0.6756 -0.1135 0.060 Uiso 1 1 calc R
H10B H 0.0032 0.6385 -0.1885 0.060 Uiso 1 1 calc R
C6 C 0.007(5) 0.011(3) 0.454(4) 0.042(6) Uiso 1 1 d .
H6 H 0.1542 0.0291 0.4326 0.050 Uiso 1 1 calc R
C1 C -0.169(6) -0.017(3) 0.360(4) 0.042(6) Uiso 1 1 d DG
C2 C -0.388(5) -0.044(4) 0.392(5) 0.042(6) Uiso 1 1 d G
H2 H -0.5063 -0.0632 0.3287 0.050 Uiso 1 1 calc R
C3 C -0.431(5) -0.041(4) 0.518(5) 0.042(6) Uiso 1 1 d G
H3 H -0.5783 -0.0591 0.5393 0.050 Uiso 1 1 calc R
C4 C -0.255(7) -0.013(3) 0.612(4) 0.042(6) Uiso 1 1 d DG
C5 C -0.036(6) 0.014(3) 0.580(4) 0.042(6) Uiso 1 1 d G
H5 H 0.0821 0.0332 0.6432 0.050 Uiso 1 1 calc R
C14 C 0.143(11) 0.624(4) 0.105(7) 0.06(2) Uiso 1 1 d D
H14A H 0.1070 0.6822 0.1832 0.072 Uiso 1 1 calc R
H14B H 0.2948 0.6676 0.0912 0.072 Uiso 1 1 calc R
C13 C 0.135(10) 0.410(4) 0.122(7) 0.036(15) Uiso 1 1 d D
H13A H 0.2843 0.3646 0.1197 0.043 Uiso 1 1 calc R
H13B H 0.0835 0.3776 0.2036 0.043 Uiso 1 1 calc R
loop_
_atom_type_symbol
_atom_type_description
_atom_type_scat_dispersion_real
_atom_type_scat_dispersion_imag
_atom_type_scat_source
C C 0.0033 0.0016 'International Tables Vol C Tables 4.2.6.8 and 6.1.1.4'
H H 0.0000 0.0000 'International Tables Vol C Tables 4.2.6.8 and 6.1.1.4'
Co Co 0.3494 0.9721 'International Tables Vol C Tables 4.2.6.8 and 6.1.1.4'
N N 0.0061 0.0033 'International Tables Vol C Tables 4.2.6.8 and 6.1.1.4'
O O 0.0106 0.0060 'International Tables Vol C Tables 4.2.6.8 and 6.1.1.4'
loop_
_geom_angle_atom_site_label_1
_geom_angle_atom_site_label_2
_geom_angle_atom_site_label_3
_geom_angle
_geom_angle_site_symmetry_1
_geom_angle_site_symmetry_3
N1 Co1 O2 90(2) . .
N1 Co1 O1 85(2) . .
O1 Co1 O2 56.8(18) . .
N2 Co1 O2 83.4(18) 1_545 .
N2 Co1 N1 173(3) 1_545 .
N2 Co1 O1 91(2) 1_545 .
O1W Co1 O2 148(3) . .
O1W Co1 N1 95.3(15) . .
O1W Co1 O1 92(3) . .
O1W Co1 N2 91.0(15) . 1_545
O4 Co1 O2 112(2) 1_554 .
O4 Co1 N1 89.1(19) 1_554 .
O4 Co1 O1 168(3) 1_554 .
O4 Co1 N2 93(2) 1_554 1_545
O4 Co1 O1W 99(3) 1_554 .
C7 O2 Co1 87(3) . .
C11 N1 Co1 119(3) . .
C11 N1 C9 108(7) . .
C11 N1 C13 109(5) . .
C9 N1 Co1 108(3) . .
C9 N1 C13 92(5) . .
C13 N1 Co1 116(3) . .
C7 O1 Co1 90(3) . .
C12 N2 Co1 111(3) . 1_565
C12 N2 C10 120(6) . .
C10 N2 Co1 111(3) . 1_565
C14 N2 Co1 108(3) . 1_565
C14 N2 C12 106(5) . .
C14 N2 C10 101(5) . .
Co1 O1W H1WA 113.0 . .
Co1 O1W H1WB 112.2 . .
H1WA O1W H1WB 105.8 . .
C8 O4 Co1 149(5) . 1_556
N1 C11 H11A 108.4 . .
N1 C11 H11B 108.4 . .
N1 C11 C12 116(4) . .
H11A C11 H11B 107.5 . .
C12 C11 H11A 108.4 . .
C12 C11 H11B 108.4 . .
O4 C8 C4 119(5) . .
O3 C8 O4 126(4) . .
O3 C8 C4 115(6) . .
N1 C9 H9A 106.6 . .
N1 C9 H9B 106.6 . .
N1 C9 C10 123(5) . .
H9A C9 H9B 106.5 . .
C10 C9 H9A 106.6 . .
C10 C9 H9B 106.6 . .
N2 C12 C11 108(4) . .
N2 C12 H12A 110.0 . .
N2 C12 H12B 110.0 . .
C11 C12 H12A 110.0 . .
C11 C12 H12B 110.0 . .
H12A C12 H12B 108.4 . .
O2 C7 C1 120(5) . .
O1 C7 O2 126(4) . .
O1 C7 C1 114(5) . .
N2 C10 C9 102(4) . .
N2 C10 H10A 111.4 . .
N2 C10 H10B 111.4 . .
C9 C10 H10A 111.4 . .
C9 C10 H10B 111.4 . .
H10A C10 H10B 109.3 . .
C1 C6 H6 120.0 . .
C1 C6 C5 120.0 . .
C5 C6 H6 120.0 . .
C6 C1 C7 119(3) . .
C6 C1 C2 120.0 . .
C2 C1 C7 121(3) . .
C1 C2 H2 120.0 . .
C3 C2 C1 120.0 . .
C3 C2 H2 120.0 . .
C2 C3 H3 120.0 . .
C2 C3 C4 120.0 . .
C4 C3 H3 120.0 . .
C3 C4 C8 122(3) . .
C5 C4 C8 118(3) . .
C5 C4 C3 120.0 . .
C6 C5 H5 120.0 . .
C4 C5 C6 120.0 . .
C4 C5 H5 120.0 . .
N2 C14 H14A 108.8 . .
N2 C14 H14B 108.8 . .
N2 C14 C13 114(4) . .
H14A C14 H14B 107.7 . .
C13 C14 H14A 108.8 . .
C13 C14 H14B 108.8 . .
N1 C13 C14 111(4) . .
N1 C13 H13A 109.4 . .
N1 C13 H13B 109.4 . .
C14 C13 H13A 109.4 . .
C14 C13 H13B 109.4 . .
H13A C13 H13B 108.0 . .
loop_
_geom_bond_atom_site_label_1
_geom_bond_atom_site_label_2
_geom_bond_distance
_geom_bond_site_symmetry_2
Co1 O2 2.31(8) .
Co1 N1 2.23(5) .
Co1 O1 2.24(9) .
Co1 N2 2.20(4) 1_545
Co1 O1W 2.06(5) .
Co1 O4 1.97(8) 1_554
O2 C7 1.22(3) .
N1 C11 1.480(3) .
N1 C9 1.480(3) .
N1 C13 1.480(3) .
O1 C7 1.20(3) .
N2 Co1 2.20(4) 1_565
N2 C12 1.480(3) .
N2 C10 1.480(3) .
N2 C14 1.480(3) .
O1W H1WA 0.9098 .
O1W H1WB 0.9049 .
O4 Co1 1.97(8) 1_556
O4 C8 1.22(3) .
C11 H11A 0.9700 .
C11 H11B 0.9700 .
C11 C12 1.520(3) .
C8 O3 1.20(3) .
C8 C4 1.480(3) .
C9 H9A 0.9700 .
C9 H9B 0.9700 .
C9 C10 1.520(3) .
C12 H12A 0.9700 .
C12 H12B 0.9700 .
C7 C1 1.480(3) .
C10 H10A 0.9700 .
C10 H10B 0.9700 .
C6 H6 0.9300 .
C6 C1 1.3900 .
C6 C5 1.3900 .
C1 C2 1.3900 .
C2 H2 0.9300 .
C2 C3 1.3900 .
C3 H3 0.9300 .
C3 C4 1.3900 .
C4 C5 1.3900 .
C5 H5 0.9300 .
C14 H14A 0.9700 .
C14 H14B 0.9700 .
C14 C13 1.520(3) .
C13 H13A 0.9700 .
C13 H13B 0.9700 .
loop_
_geom_torsion_atom_site_label_1
_geom_torsion_atom_site_label_2
_geom_torsion_atom_site_label_3
_geom_torsion_atom_site_label_4
_geom_torsion
_geom_torsion_site_symmetry_1
Co1 O2 C7 O1 -2.7(13) .
Co1 O2 C7 C1 176.8(11) .
Co1 N1 C11 C12 -177(7) .
Co1 N1 C9 C10 171(5) .
Co1 N1 C13 C14 167(6) .
Co1 O1 C7 O2 2.7(13) .
Co1 O1 C7 C1 -176.7(11) .
Co1 N2 C12 C11 178(6) 1_565
Co1 N2 C10 C9 171(3) 1_565
Co1 N2 C14 C13 175(6) 1_565
Co1 O4 C8 O3 18(4) 1_556
Co1 O4 C8 C4 -163(4) 1_556
O2 C7 C1 C6 -179.6(6) .
O2 C7 C1 C2 0.4(11) .
N1 C11 C12 N2 14(12) .
N1 C9 C10 N2 11(7) .
O1 C7 C1 C6 -0.1(10) .
O1 C7 C1 C2 179.9(6) .
N2 C14 C13 N1 4(9) .
O4 C8 C4 C3 179.9(6) .
O4 C8 C4 C5 0.4(11) .
C11 N1 C9 C10 41(9) .
C11 N1 C13 C14 -54(8) .
C8 C4 C5 C6 179.6(7) .
C9 N1 C11 C12 -54(11) .
C9 N1 C13 C14 55(6) .
C12 N2 C10 C9 -59(6) .
C12 N2 C14 C13 56(8) .
O3 C8 C4 C3 -0.6(12) .
O3 C8 C4 C5 179.8(8) .
C7 C1 C2 C3 -180.0(7) .
C10 N2 C12 C11 48(9) .
C10 N2 C14 C13 -69(7) .
C6 C1 C2 C3 0.0 .
C1 C6 C5 C4 0.0 .
C1 C2 C3 C4 0.0 .
C2 C3 C4 C8 -179.6(8) .
C2 C3 C4 C5 0.0 .
C3 C4 C5 C6 0.0 .
C5 C6 C1 C7 180.0(7) .
C5 C6 C1 C2 0.0 .
C14 N2 C12 C11 -65(8) .
C14 N2 C10 C9 56(5) .
C13 N1 C11 C12 46(11) .
C13 N1 C9 C10 -70(7) .
